
#######################################################################
#
#                 Cambridge Crystallographic Data Centre
#                                CCDC
#
#######################################################################
#
# If this CIF has been generated from an entry in the Cambridge
# Structural Database, then it will include bibliographic, chemical,
# crystal, experimental, refinement or atomic coordinate data resulting
# from the CCDC's data processing and validation procedures.
#
#######################################################################

data_CSD_CIF_DOWGUR
_audit_creation_date 1987-04-28
_audit_creation_method CSD-ConQuest-V1
_database_code_CSD DOWGUR
_chemical_formula_sum 'C15 H20 N2 O3'
_chemical_formula_moiety
;
C15 H20 N2 O3
;
_journal_coden_Cambridge 4
_journal_volume 108
_journal_year 1986
_journal_page_first 2754
_journal_name_full 'J.Am.Chem.Soc. '
loop_
_publ_author_name
"K.N.Houk"
"How-Yunn Duh"
"Yun-Dong Wu"
"S.R.Moses"
_chemical_name_systematic
;
5-(1-t-Butyl-ethyl)-4,5-dihydro-3-(p-nitrophenyl)-isoxazole
;
_cell_volume   1489.358
_exptl_crystal_density_diffrn 1.23
_diffrn_ambient_temperature ?
_diffrn_special_details
;
The study was carried out at room temperature,in the range 283-303K

;
#These two values have been output from a single CSD field.
_refine_ls_R_factor_gt 0.067
_refine_ls_wR_factor_gt 0.067
_symmetry_cell_setting monoclinic
_symmetry_space_group_name_H-M 'P 21/n'
_symmetry_Int_Tables_number 14
loop_
_symmetry_equiv_pos_site_id
_symmetry_equiv_pos_as_xyz
1 x,y,z
2 1/2-x,1/2+y,1/2-z
3 -x,-y,-z
4 -1/2+x,-1/2-y,-1/2+z
_cell_length_a 12.292(7)
_cell_length_b 6.108(2)
_cell_length_c 19.886(5)
_cell_angle_alpha 90
_cell_angle_beta 94.02(3)
_cell_angle_gamma 90
_cell_formula_units_Z 4
loop_
_atom_type_symbol
_atom_type_radius_bond
C 0.68
H 0.23
N 0.68
O 0.68
loop_
_atom_site_label
_atom_site_type_symbol
_atom_site_fract_x
_atom_site_fract_y
_atom_site_fract_z
N1 N -0.1783(2) 0.7285(4) 0.5327(1)
O1 O -0.1637(2) 0.9155(4) 0.5134(1)
O2 O -0.2669(2) 0.6374(4) 0.5254(1)
C1 C -0.0866(2) 0.6087(5) 0.5658(1)
C2 C -0.1030(3) 0.4011(5) 0.5903(2)
H1 H -0.1651(24) 0.3456(50) 0.5872(16)
C3 C -0.0174(2) 0.2872(5) 0.6202(2)
H2 H -0.0311(22) 0.1385(47) 0.6426(14)
C4 C 0.0881(2) 0.3780(4) 0.6256(1)
C5 C 0.1021(2) 0.5886(5) 0.6006(2)
H3 H 0.1758(19) 0.6586(36) 0.6084(12)
C6 C 0.0142(3) 0.7029(5) 0.5709(2)
H4 H 0.0242(25) 0.8373(50) 0.5546(16)
C7 C 0.1818(2) 0.2543(4) 0.6541(1)
N2 N 0.1695(2) 0.0623(4) 0.6778(1)
O3 O 0.2700(2) -0.0259(3) 0.6985(1)
C8 C 0.3566(2) 0.1409(5) 0.6936(2)
C9 C 0.2977(2) 0.3264(4) 0.6545(1)
C10 C 0.4530(2) 0.0294(4) 0.6647(2)
C11 C 0.4244(3) -0.0487(7) 0.5926(2)
H5 H 0.40320 0.07440 0.56470
H6 H 0.36530 -0.15150 0.59220
H7 H 0.48690 -0.11810 0.57550
C12 C 0.5608(3) 0.1591(5) 0.6740(2)
C13 C 0.6554(3) 0.0203(7) 0.6537(3)
H8 H 0.72290 0.08710 0.66990
H9 H 0.65270 0.00930 0.60540
H10 H 0.65040 -0.12330 0.67280
C14 C 0.5810(5) 0.2253(15) 0.7468(3)
H11 H 0.60040 0.09820 0.77340
H12 H 0.51610 0.28970 0.76240
H13 H 0.63950 0.32970 0.75110
C15 C 0.5595(4) 0.3633(7) 0.6315(3)
H14 H 0.62850 0.43670 0.63840
H15 H 0.50240 0.45860 0.64430
H16 H 0.54690 0.32460 0.58480
H17 H 0.3706(23) 0.1832(47) 0.7423(16)
H18 H 0.3181(19) 0.3388(36) 0.6133(12)
H19 H 0.3047(23) 0.4740(44) 0.6833(15)
H20 H 0.4666(19) -0.1071(40) 0.6919(12)
#END
