
#######################################################################
#
#                 Cambridge Crystallographic Data Centre
#                                CCDC
#
#######################################################################
#
# If this CIF has been generated from an entry in the Cambridge
# Structural Database, then it will include bibliographic, chemical,
# crystal, experimental, refinement or atomic coordinate data resulting
# from the CCDC's data processing and validation procedures.
#
#######################################################################

data_CSD_CIF_DOWJAB
_audit_creation_date 2009-10-09
_audit_creation_method CSD-ConQuest-V1
_database_code_CSD DOWJAB
_database_code_depnum_ccdc_archive 'CCDC 725028'
_chemical_formula_sum 'C10 H12 N2 O3'
_chemical_formula_moiety
;
C10 H12 N2 O3
;
_journal_coden_Cambridge 35
_journal_volume 74
_journal_year 2009
_journal_page_first 1440
_journal_name_full 'J.Org.Chem. '
loop_
_publ_author_name
"S.A.Fowler"
"R.Luechapanichkul"
"H.E.Blackwell"
_chemical_name_systematic
;
(S)-N-(1-(2-Nitrophenyl)ethyl)acetamide
;
_cell_volume   1070.722
_exptl_crystal_colour 'colorless'
_exptl_crystal_density_diffrn 1.292
_exptl_crystal_description 'block'
_diffrn_ambient_temperature 100
#These two values have been output from a single CSD field.
_refine_ls_R_factor_gt 0.0388
_refine_ls_wR_factor_gt 0.0388
_symmetry_cell_setting tetragonal
_symmetry_space_group_name_H-M 'P 43'
_symmetry_Int_Tables_number 78
loop_
_symmetry_equiv_pos_site_id
_symmetry_equiv_pos_as_xyz
1 x,y,z
2 -x,-y,1/2+z
3 -y,x,3/4+z
4 y,-x,1/4+z
_cell_length_a 7.9423(19)
_cell_length_b 7.9423(19)
_cell_length_c 16.974(9)
_cell_angle_alpha 90
_cell_angle_beta 90
_cell_angle_gamma 90
_cell_formula_units_Z 4
loop_
_atom_type_symbol
_atom_type_radius_bond
C 0.68
H 0.23
N 0.68
O 0.68
loop_
_atom_site_label
_atom_site_type_symbol
_atom_site_fract_x
_atom_site_fract_y
_atom_site_fract_z
O1 O -0.0313(4) 0.7324(4) 0.35041(15)
O2 O -0.1234(3) 0.7629(3) 0.23112(16)
O3 O 0.3530(3) 0.6359(3) 0.23254(16)
N1 N -0.0619(4) 0.6795(5) 0.28443(18)
N2 N 0.2732(4) 0.5351(4) 0.11511(16)
H1 H 0.30340 0.49550 0.06880
C1 C 0.0369(5) 0.4538(5) 0.1965(2)
C2 C -0.0263(5) 0.4998(5) 0.2679(2)
C3 C -0.0603(5) 0.3882(6) 0.3289(2)
H2 H -0.10170 0.42730 0.37810
C4 C -0.0326(5) 0.2199(6) 0.3162(3)
H3 H -0.05700 0.14030 0.35640
C5 C 0.0300(6) 0.1674(5) 0.2456(2)
H4 H 0.04830 0.05070 0.23680
C6 C 0.0670(5) 0.2803(6) 0.1873(2)
H5 H 0.11420 0.24060 0.13940
C7 C 0.0967(5) 0.5701(5) 0.13157(18)
H6 H 0.08610 0.68920 0.15010
C8 C -0.0056(5) 0.5494(6) 0.0566(2)
H7 H 0.03590 0.62780 0.01650
H8 H -0.12440 0.57330 0.06770
H9 H 0.00560 0.43360 0.03730
C9 C 0.3885(5) 0.5634(5) 0.1703(2)
C10 C 0.5624(5) 0.4965(6) 0.1547(2)
H10 H 0.64580 0.58340 0.16740
H11 H 0.57240 0.46560 0.09900
H12 H 0.58240 0.39700 0.18750
#END
