
#######################################################################
#
#                 Cambridge Crystallographic Data Centre
#                                CCDC
#
#######################################################################
#
# If this CIF has been generated from an entry in the Cambridge
# Structural Database, then it will include bibliographic, chemical,
# crystal, experimental, refinement or atomic coordinate data resulting
# from the CCDC's data processing and validation procedures.
#
#######################################################################

data_CSD_CIF_DOWNIO
_audit_creation_date 2015-03-02
_audit_creation_method CSD-ConQuest-V1
_database_code_CSD DOWNIO
_database_code_depnum_ccdc_archive 'CCDC 972702'
_chemical_formula_sum 'C29 H33 N5 O5'
_chemical_formula_moiety
;
C29 H33 N5 O5
;
_journal_coden_Cambridge 1147
_journal_volume 14
_journal_year 2014
_journal_page_first 5840
_journal_name_full 'Cryst.Growth Des. '
loop_
_publ_author_name
"P.Ravat"
"Y.Borozdina"
"Y.Ito"
"V.Enkelmann"
"M.Baumgarten"
_chemical_name_systematic
;
5-(1,3-Dioxy-4,4,5,5-tetramethyl-4,5-dihydro-1H-3\l^5^-imidazol-2-yl)-2-((4-(1
,3-dihydroxy-4,4,5,5-tetramethyl-4,5-dihydro-1H-3\l^5^-imidazol-2-yl)phenyl)et
hynyl)benzamide
;
_cell_volume   1386.997
_exptl_crystal_colour 'dark blue'
_exptl_crystal_density_diffrn 1.273
_exptl_crystal_description 'needle'
_diffrn_ambient_temperature 120
#These two values have been output from a single CSD field.
_refine_ls_R_factor_gt 0.0617
_refine_ls_wR_factor_gt 0.0617
_symmetry_cell_setting monoclinic
_symmetry_space_group_name_H-M 'P c'
_symmetry_Int_Tables_number 7
loop_
_symmetry_equiv_pos_site_id
_symmetry_equiv_pos_as_xyz
1 x,y,z
2 x,-y,1/2+z
_cell_length_a 10.1201(3)
_cell_length_b 9.7143(2)
_cell_length_c 14.6298(5)
_cell_angle_alpha 90
_cell_angle_beta 105.3420(12)
_cell_angle_gamma 90
_cell_formula_units_Z 2
loop_
_atom_type_symbol
_atom_type_radius_bond
C 0.68
H 0.23
N 0.68
O 0.68
loop_
_atom_site_label
_atom_site_type_symbol
_atom_site_fract_x
_atom_site_fract_y
_atom_site_fract_z
O1 O -0.47546(19) -0.30627(17) -0.19674(13)
O2 O -0.42550(19) -0.42853(17) 0.11763(12)
O3 O 0.1614(2) 0.80731(18) 0.35877(14)
O4 O 0.1068(2) 0.92282(19) 0.04353(13)
O5 O -0.2817(2) 0.10477(19) -0.18085(16)
N1 N -0.47616(19) -0.37598(19) -0.12281(14)
N2 N -0.45457(19) -0.42938(19) 0.02611(14)
N3 N 0.1626(2) 0.8710(2) 0.28142(15)
N4 N 0.14272(19) 0.9244(2) 0.13464(15)
N5 N -0.0680(2) 0.1172(2) -0.0786(2)
C1 C -0.1800(2) 0.1893(2) 0.0746(2)
C2 C -0.2328(2) 0.0531(3) 0.05168(19)
C3 C -0.2422(2) -0.0007(3) -0.0362(2)
C4 C -0.3050(2) -0.1285(2) -0.06248(19)
C5 C -0.3541(2) -0.2044(2) 0.00101(18)
C6 C -0.3374(2) -0.1552(2) 0.09090(19)
C7 C -0.2805(2) -0.0278(2) 0.1184(2)
C8 C -0.2018(3) 0.0772(2) -0.1037(2)
C9 C -0.4244(2) -0.3353(2) -0.03047(16)
C10 C -0.5295(2) -0.5189(2) -0.12739(14)
C11 C -0.5554(2) -0.5333(2) -0.03012(14)
C12 C -0.6493(2) -0.5369(2) -0.21134(14)
C13 C -0.4083(2) -0.6111(2) -0.14170(15)
C14 C -0.7014(2) -0.4863(2) -0.02901(17)
C15 C -0.5278(2) -0.6752(2) 0.01221(12)
C16 C -0.1424(2) 0.3066(2) 0.0947(2)
C17 C -0.0876(2) 0.4422(3) 0.1167(2)
C18 C -0.0877(3) 0.5020(3) 0.2035(2)
C19 C -0.0267(3) 0.6306(3) 0.2271(2)
C20 C 0.0330(2) 0.7008(2) 0.16537(19)
C21 C 0.0299(2) 0.6393(3) 0.0787(2)
C22 C -0.0319(2) 0.5081(3) 0.0568(2)
C23 C 0.1075(2) 0.8280(2) 0.19262(18)
C24 C 0.2170(2) 1.0166(2) 0.28641(16)
C25 C 0.2446(2) 1.0275(2) 0.18779(17)
C26 C 0.3461(2) 1.0282(2) 0.37211(17)
C27 C 0.1071(2) 1.1121(2) 0.30101(17)
C28 C 0.2186(2) 1.1669(2) 0.13739(15)
C29 C 0.3824(2) 0.9712(3) 0.1823(2)
H1 H -0.31340 -0.16330 -0.12440
H2 H -0.36590 -0.21060 0.13570
H3 H -0.27280 0.00560 0.18060
H4 H -0.68180 -0.62880 -0.21300
H5 H -0.72010 -0.47510 -0.20680
H6 H -0.62250 -0.51830 -0.26760
H7 H -0.43500 -0.70510 -0.14540
H8 H -0.38680 -0.58500 -0.19870
H9 H -0.33010 -0.59850 -0.08970
H10 H -0.76690 -0.54990 -0.06390
H11 H -0.70770 -0.48260 0.03460
H12 H -0.71910 -0.39760 -0.05690
H13 H -0.59250 -0.73800 -0.02440
H14 H -0.53600 -0.67380 0.07540
H15 H -0.43780 -0.70310 0.01230
H16 H -0.12870 0.45520 0.24600
H17 H -0.02630 0.67110 0.28630
H18 H 0.06870 0.68510 0.03450
H19 H -0.03320 0.46620 -0.00210
H20 H 0.38120 1.11930 0.37600
H21 H 0.32170 1.00650 0.42880
H22 H 0.41410 0.96550 0.36390
H23 H 0.13910 1.20430 0.30440
H24 H 0.08490 1.08910 0.35830
H25 H 0.02770 1.10310 0.24940
H26 H 0.28300 1.23250 0.17100
H27 H 0.12840 1.19710 0.13480
H28 H 0.22820 1.15740 0.07480
H29 H 0.45330 1.03150 0.21470
H30 H 0.38350 0.96440 0.11770
H31 H 0.39650 0.88270 0.21080
H32 H -0.01020 0.05270 -0.03770
H33 H 0.00930 0.14290 -0.09990
#END
