
#######################################################################
#
#                 Cambridge Crystallographic Data Centre
#                                CCDC
#
#######################################################################
#
# If this CIF has been generated from an entry in the Cambridge
# Structural Database, then it will include bibliographic, chemical,
# crystal, experimental, refinement or atomic coordinate data resulting
# from the CCDC's data processing and validation procedures.
#
#######################################################################

data_CSD_CIF_DOXGIH
_audit_creation_date 2009-10-09
_audit_creation_method CSD-ConQuest-V1
_database_code_CSD DOXGIH
_database_code_depnum_ccdc_archive 'CCDC 697003'
_chemical_formula_sum 'C10 H9 N3 O4'
_chemical_formula_moiety
;
C10 H9 N3 O4
;
_journal_coden_Cambridge 579
_journal_volume 28
_journal_year 2009
_journal_page_first 1049
_journal_name_full 'Organometallics '
loop_
_publ_author_name
"I.V.Shishkov"
"F.Rominger"
"P.Hofmann"
_chemical_name_systematic
;
Ethyl diazo(2-nitrophenyl)acetate
;
_chemical_melting_point 321.15
_cell_volume   1076.395
_exptl_crystal_colour 'yellow'
_exptl_crystal_density_diffrn 1.451
_exptl_crystal_description 'polyhedron'
_exptl_crystal_preparation 'ethanol'
_diffrn_ambient_temperature 200
#These two values have been output from a single CSD field.
_refine_ls_R_factor_gt 0.0358
_refine_ls_wR_factor_gt 0.0358
_symmetry_cell_setting monoclinic
_symmetry_space_group_name_H-M 'P 21/c'
_symmetry_Int_Tables_number 14
loop_
_symmetry_equiv_pos_site_id
_symmetry_equiv_pos_as_xyz
1 x,y,z
2 -x,1/2+y,1/2-z
3 -x,-y,-z
4 x,-1/2-y,-1/2+z
_cell_length_a 8.6002(4)
_cell_length_b 8.4637(4)
_cell_length_c 14.9375(6)
_cell_angle_alpha 90
_cell_angle_beta 98.119(1)
_cell_angle_gamma 90
_cell_formula_units_Z 4
loop_
_atom_type_symbol
_atom_type_radius_bond
C 0.68
H 0.23
N 0.68
O 0.68
loop_
_atom_site_label
_atom_site_type_symbol
_atom_site_fract_x
_atom_site_fract_y
_atom_site_fract_z
C1 C 0.60263(15) 0.09277(15) 0.19426(9)
C2 C 0.75413(15) 0.07407(15) 0.24175(9)
N1 N 0.78017(13) -0.01060(15) 0.32829(8)
O1 O 0.88083(12) 0.04027(15) 0.38755(7)
O2 O 0.70468(13) -0.13131(13) 0.33568(7)
C3 C 0.88767(16) 0.12367(17) 0.20764(9)
H1 H 0.98810 0.11410 0.24290
C4 C 0.87295(17) 0.18725(17) 0.12162(10)
H2 H 0.96360 0.22030 0.09700
C5 C 0.72614(17) 0.20252(17) 0.07165(9)
H3 H 0.71630 0.24340 0.01190
C6 C 0.59322(16) 0.15879(16) 0.10782(9)
H4 H 0.49300 0.17390 0.07310
C7 C 0.46014(14) 0.05477(16) 0.23374(9)
N2 N 0.33674(13) 0.00078(14) 0.17944(7)
N3 N 0.23033(15) -0.04570(18) 0.13510(9)
C8 C 0.43334(15) 0.10103(16) 0.32413(9)
O3 O 0.53288(11) 0.16430(13) 0.37763(6)
O4 O 0.28808(10) 0.06504(11) 0.34037(6)
C9 C 0.25209(16) 0.10438(17) 0.43050(9)
H5 H 0.34690 0.08860 0.47550
H6 H 0.16890 0.03290 0.44620
C10 C 0.19816(18) 0.27229(18) 0.43406(10)
H7 H 0.28270 0.34330 0.42170
H8 H 0.17080 0.29490 0.49420
H9 H 0.10580 0.28860 0.38850
#END
