
#######################################################################
#
#                 Cambridge Crystallographic Data Centre
#                                CCDC
#
#######################################################################
#
# If this CIF has been generated from an entry in the Cambridge
# Structural Database, then it will include bibliographic, chemical,
# crystal, experimental, refinement or atomic coordinate data resulting
# from the CCDC's data processing and validation procedures.
#
#######################################################################

data_CSD_CIF_DOXROY
_audit_creation_date 1987-04-28
_audit_creation_method CSD-ConQuest-V1
_database_code_CSD DOXROY
_chemical_formula_sum 'C10 H15 N1 O2'
_chemical_formula_moiety
;
C10 H15 N1 O2
;
_journal_coeditor_code "IUCr A25876"
_journal_coden_Cambridge 591
_journal_volume 42
_journal_year 1986
_journal_page_first 838
_journal_name_full 'Acta Crystallogr.,Sect.C:Cryst.Struct.Commun. '
loop_
_publ_author_name
"R.Faure"
"H.Loiseleur"
"R.Bartnik"
"B.Orlowska"
_chemical_name_systematic
;
(E)-3-Hydroxyimino-1,7,7-trimethyl-bicyclo(2.2.1)heptan-2-one
;
_chemical_name_common
;
(E)-Isonitroso-camphor
;
_chemical_melting_point 400
_cell_volume    516.606
_exptl_crystal_density_diffrn 1.17
_exptl_special_details
;
Melting point range 400-402K

;
_diffrn_ambient_temperature ?
_diffrn_special_details
;
The study was carried out at room temperature,in the range 283-303K

;
#These two values have been output from a single CSD field.
_refine_ls_R_factor_gt 0.073
_refine_ls_wR_factor_gt 0.073
loop_
_citation_database_id_CSD
_citation_special_details
DOXROX "is a stereoisomer of this entry"
_symmetry_cell_setting triclinic
_symmetry_space_group_name_H-M 'P -1'
_symmetry_Int_Tables_number 2
loop_
_symmetry_equiv_pos_site_id
_symmetry_equiv_pos_as_xyz
1 x,y,z
2 -x,-y,-z
_cell_length_a 6.867(2)
_cell_length_b 7.141(1)
_cell_length_c 11.440(2)
_cell_angle_alpha 85.40(1)
_cell_angle_beta 77.68(2)
_cell_angle_gamma 70.50(2)
_cell_formula_units_Z 2
loop_
_atom_type_symbol
_atom_type_radius_bond
C 0.68
H 0.23
N 0.68
O 0.68
loop_
_atom_site_label
_atom_site_type_symbol
_atom_site_fract_x
_atom_site_fract_y
_atom_site_fract_z
O1 O -0.3350(4) 0.2752(4) 0.0090(2)
O2 O -0.1315(5) 0.6366(4) -0.2738(3)
N1 N -0.2934(4) 0.4119(4) -0.0795(2)
C1 C -0.1157(5) 0.3425(5) -0.1483(3)
C2 C -0.0378(5) 0.4686(5) -0.2463(3)
C3 C 0.1831(6) 0.3415(5) -0.2976(3)
C4 C 0.3036(8) 0.3388(9) -0.1895(5)
C5 C 0.2289(8) 0.2086(8) -0.0953(4)
C6 C 0.0590(5) 0.1529(5) -0.1495(3)
C7 C 0.1622(6) 0.1344(6) -0.2794(3)
C8 C 0.2802(9) 0.4124(5) -0.4164(4)
C9 C 0.0087(10) 0.1094(9) -0.3543(5)
C10 C 0.3775(9) -0.0366(8) -0.3052(5)
H1 H -0.473(8) 0.345(8) 0.035(4)
H2 H 0.461(9) 0.262(3) -0.210(5)
H3 H 0.260(8) 0.483(9) -0.163(5)
H4 H 0.139(9) 0.273(8) -0.005(5)
H5 H 0.359(9) 0.087(9) -0.079(5)
H6 H 0.034(7) 0.044(7) -0.116(4)
H7 H 0.427(11) 0.336(9) -0.427(6)
H8 H 0.292(9) 0.564(9) -0.417(5)
H9 H 0.205(9) 0.386(9) -0.478(6)
H10 H 0.078(9) 0.148(9) -0.401(6)
H11 H -0.126(11) 0.221(10) -0.346(5)
H12 H -0.050(12) 0.01(1) -0.293(7)
H13 H 0.437(10) -0.049(9) -0.399(7)
H14 H 0.331(10) -0.159(10) -0.286(6)
H15 H 0.464(10) 0.03(1) -0.273(6)
#END
