
#######################################################################
#
#                 Cambridge Crystallographic Data Centre
#                                CCDC
#
#######################################################################
#
# If this CIF has been generated from an entry in the Cambridge
# Structural Database, then it will include bibliographic, chemical,
# crystal, experimental, refinement or atomic coordinate data resulting
# from the CCDC's data processing and validation procedures.
#
#######################################################################

data_CSD_CIF_DOXXAP
_audit_creation_date 1987-04-28
_audit_creation_method CSD-ConQuest-V1
_database_code_CSD DOXXAP
_chemical_formula_sum 'C3 H7 N3 O4'
_chemical_formula_moiety
;
C3 H7 N3 O4
;
_journal_coeditor_code "IUCr A25837"
_journal_coden_Cambridge 591
_journal_volume 42
_journal_year 1986
_journal_page_first 733
_journal_name_full 'Acta Crystallogr.,Sect.C:Cryst.Struct.Commun. '
loop_
_publ_author_name
"M.A.F.Jalal"
"M.B.Hossain"
"D.van der Helm"
_chemical_name_systematic
;
L-Alanosine
;
_cell_volume    558.048
_exptl_crystal_density_diffrn 1.774
_exptl_special_details
;
antiviral, antimicrobial, antibiotic and anticancer activity

;
_diffrn_ambient_temperature 138
#These two values have been output from a single CSD field.
_refine_ls_R_factor_gt 0.032
_refine_ls_wR_factor_gt 0.032
_symmetry_cell_setting orthorhombic
_symmetry_space_group_name_H-M 'P 21 21 21'
_symmetry_Int_Tables_number 19
loop_
_symmetry_equiv_pos_site_id
_symmetry_equiv_pos_as_xyz
1 x,y,z
2 1/2+x,1/2-y,-z
3 -x,1/2+y,1/2-z
4 1/2-x,-y,1/2+z
_cell_length_a 9.107(4)
_cell_length_b 9.600(4)
_cell_length_c 6.383(8)
_cell_angle_alpha 90
_cell_angle_beta 90
_cell_angle_gamma 90
_cell_formula_units_Z 4
loop_
_atom_type_symbol
_atom_type_radius_bond
C 0.68
H 0.23
N 0.68
O 0.68
loop_
_atom_site_label
_atom_site_type_symbol
_atom_site_fract_x
_atom_site_fract_y
_atom_site_fract_z
C1 C 0.9734(3) 1.0632(3) 0.5614(4)
C2 C 0.9786(3) 0.9038(3) 0.6066(5)
C3 C 0.9444(3) 0.8248(3) 0.4052(4)
N1 N 0.8683(3) 0.8739(3) 0.7741(4)
N2 N 0.9556(2) 0.6724(2) 0.4387(4)
N3 N 0.8329(2) 0.6115(2) 0.4571(4)
O1 O 0.8527(2) 1.1201(2) 0.5723(3)
O2 O 1.0935(2) 1.1215(2) 0.5193(3)
O3 O 1.0822(2) 0.6132(2) 0.4460(3)
O4 O 0.8532(2) 0.4727(2) 0.4871(3)
H1 H 1.072(3) 0.879(3) 0.655(4)
H2 H 1.016(3) 0.850(3) 0.305(5)
H3 H 0.852(4) 0.838(3) 0.347(5)
H4 H 0.775(4) 0.879(4) 0.731(5)
H5 H 0.880(4) 0.795(4) 0.830(6)
H6 H 0.880(4) 0.941(4) 0.867(7)
H7 H 0.762(4) 0.429(4) 0.480(6)
#END
