
#######################################################################
#
#                 Cambridge Crystallographic Data Centre
#                                CCDC
#
#######################################################################
#
# If this CIF has been generated from an entry in the Cambridge
# Structural Database, then it will include bibliographic, chemical,
# crystal, experimental, refinement or atomic coordinate data resulting
# from the CCDC's data processing and validation procedures.
#
#######################################################################

data_CSD_CIF_DOYGAB
_audit_creation_date 2015-03-03
_audit_creation_method CSD-ConQuest-V1
_database_code_CSD DOYGAB
_database_code_depnum_ccdc_archive 'CCDC 1029301'
_chemical_formula_sum 'C22 H28 N2 O4'
_chemical_formula_moiety
;
C22 H28 N2 O4
;
_journal_coden_Cambridge 1336
_journal_volume 16
_journal_year 2014
_journal_page_first 6302
_journal_name_full 'Org.Lett. '
loop_
_publ_author_name
"U.Dutta"
"S.Maity"
"R.Kancherla"
"D.Maiti"
_chemical_name_systematic
;
1-((1-(6-methoxy-2-naphthyl)-2-nitrovinyl)oxy)-2,2,6,6-tetramethylpiperidine
;
_cell_volume   2094.603
_exptl_crystal_colour 'colorless'
_exptl_crystal_density_diffrn 1.219
_exptl_crystal_description 'block'
_diffrn_ambient_temperature 150
#These two values have been output from a single CSD field.
_refine_ls_R_factor_gt 0.0587
_refine_ls_wR_factor_gt 0.0587
_symmetry_cell_setting monoclinic
_symmetry_space_group_name_H-M 'P 21/n'
_symmetry_Int_Tables_number 14
loop_
_symmetry_equiv_pos_site_id
_symmetry_equiv_pos_as_xyz
1 x,y,z
2 1/2-x,1/2+y,1/2-z
3 -x,-y,-z
4 -1/2+x,-1/2-y,-1/2+z
_cell_length_a 7.564(5)
_cell_length_b 23.309(5)
_cell_length_c 12.081(5)
_cell_angle_alpha 90
_cell_angle_beta 100.459(5)
_cell_angle_gamma 90
_cell_formula_units_Z 4
loop_
_atom_type_symbol
_atom_type_radius_bond
C 0.68
H 0.23
N 0.68
O 0.68
loop_
_atom_site_label
_atom_site_type_symbol
_atom_site_fract_x
_atom_site_fract_y
_atom_site_fract_z
O1 O -0.31733(17) 0.04239(6) -0.59429(11)
O2 O 0.54680(17) 0.02821(5) -0.10694(10)
O3 O 0.77237(19) 0.05277(7) 0.02051(16)
O4 O 0.25900(14) 0.16231(4) 0.00185(9)
N1 N 0.61605(17) 0.05888(6) -0.02899(11)
N2 N 0.33661(16) 0.18066(5) 0.11672(10)
C1 C 0.2601(2) 0.10692(6) -0.15657(12)
C2 C 0.0877(2) 0.08630(6) -0.16963(12)
H1 H 0.03430 0.07990 -0.10540
C3 C -0.01096(19) 0.07459(6) -0.27842(12)
C4 C 0.06694(18) 0.08513(6) -0.37402(12)
C5 C 0.2465(2) 0.10608(7) -0.35782(13)
H2 H 0.30170 0.11290 -0.42120
C6 C 0.34039(19) 0.11652(7) -0.25199(14)
H3 H 0.46040 0.13030 -0.24240
C7 C -0.1889(2) 0.05260(7) -0.29318(14)
H4 H -0.24220 0.04480 -0.22940
C8 C -0.2833(2) 0.04259(8) -0.39875(15)
H5 H -0.40200 0.02770 -0.40780
C9 C -0.2066(2) 0.05404(6) -0.49477(13)
C10 C -0.0344(2) 0.07479(6) -0.48318(12)
H6 H 0.01680 0.08220 -0.54790
C11 C -0.2538(3) 0.05353(8) -0.69530(15)
H7 H -0.23880 0.09500 -0.70360
H8 H -0.34060 0.03900 -0.75930
H9 H -0.13780 0.03440 -0.69290
C12 C 0.35640(19) 0.12234(6) -0.04250(12)
C13 C 0.5175(2) 0.10411(6) 0.01208(12)
H10 H 0.56820 0.12210 0.08110
C14 C 0.2070(2) 0.16179(7) 0.18912(14)
C15 C 0.2806(3) 0.18565(10) 0.30705(16)
H11 H 0.19380 0.17700 0.35700
H12 H 0.39450 0.16580 0.33790
C16 C 0.3143(3) 0.24942(10) 0.30845(18)
H13 H 0.36580 0.26200 0.38590
H14 H 0.19970 0.27010 0.28370
C17 C 0.4447(3) 0.26309(9) 0.22976(18)
H15 H 0.56140 0.24440 0.25860
H16 H 0.46510 0.30500 0.22980
C18 C 0.3766(2) 0.24314(6) 0.10884(14)
C19 C 0.2204(3) 0.28098(8) 0.05076(19)
H17 H 0.16110 0.26240 -0.01900
H18 H 0.26710 0.31850 0.03320
H19 H 0.13360 0.28610 0.10110
C20 C 0.5291(3) 0.24837(9) 0.0418(2)
H20 H 0.62450 0.22100 0.07110
H21 H 0.57770 0.28740 0.04910
H22 H 0.48280 0.24000 -0.03770
C21 C 0.0098(2) 0.17982(9) 0.1485(2)
H23 H -0.00380 0.22070 0.16390
H24 H -0.06840 0.15730 0.18840
H25 H -0.02380 0.17290 0.06740
C22 C 0.2138(3) 0.09601(8) 0.1932(2)
H26 H 0.17320 0.08060 0.11740
H27 H 0.13510 0.08190 0.24340
H28 H 0.33750 0.08350 0.22140
#END
