
#######################################################################
#
#                 Cambridge Crystallographic Data Centre
#                                CCDC
#
#######################################################################
#
# If this CIF has been generated from an entry in the Cambridge
# Structural Database, then it will include bibliographic, chemical,
# crystal, experimental, refinement or atomic coordinate data resulting
# from the CCDC's data processing and validation procedures.
#
#######################################################################

data_CSD_CIF_DOZPAL
_audit_creation_date 2015-03-03
_audit_creation_method CSD-ConQuest-V1
_database_code_CSD DOZPAL
_database_code_depnum_ccdc_archive 'CCDC 970365'
_chemical_formula_sum 'C11 H8 N2 O4'
_chemical_formula_moiety
;
C11 H8 N2 O4
;
_journal_coden_Cambridge 1366
_journal_volume 357
_journal_year 2015
_journal_page_first 221
_journal_name_full 'Adv.Synth.Catal. '
loop_
_publ_author_name
"Wei-Xia Wang"
"Qing-Zhao Zhang"
"Tian-Qi Zhang"
"Zhan-Shan Li"
"Wei Zhang"
"Wei Yu"
_chemical_name_systematic
;
methyl 5-nitroquinoline-3-carboxylate
;
_cell_volume   1049.669
_exptl_crystal_colour 'light yellow'
_exptl_crystal_density_diffrn 1.469
_exptl_crystal_description 'block'
_diffrn_ambient_temperature 293
#These two values have been output from a single CSD field.
_refine_ls_R_factor_gt 0.0508
_refine_ls_wR_factor_gt 0.0508
_symmetry_cell_setting orthorhombic
_symmetry_space_group_name_H-M 'P b c 21'
_symmetry_Int_Tables_number 29
loop_
_symmetry_equiv_pos_site_id
_symmetry_equiv_pos_as_xyz
1 x,y,z
2 -x,-y,1/2+z
3 -x,1/2+y,z
4 x,1/2-y,1/2+z
_cell_length_a 3.7687(3)
_cell_length_b 15.5159(15)
_cell_length_c 17.9508(10)
_cell_angle_alpha 90
_cell_angle_beta 90
_cell_angle_gamma 90
_cell_formula_units_Z 4
loop_
_atom_type_symbol
_atom_type_radius_bond
C 0.68
H 0.23
N 0.68
O 0.68
loop_
_atom_site_label
_atom_site_type_symbol
_atom_site_fract_x
_atom_site_fract_y
_atom_site_fract_z
O1 O -0.0492(16) -0.3727(3) -0.4857(2)
O2 O 0.1850(15) -0.4337(2) -0.5817(2)
O3 O -0.3329(14) -0.3569(2) -0.90058(19)
O4 O -0.3912(9) -0.44964(18) -0.80678(17)
N1 N 0.0834(13) -0.3701(3) -0.5477(2)
C1 C 0.1362(12) -0.2855(3) -0.5818(2)
C2 C 0.2567(14) -0.2213(3) -0.5373(3)
H1 H 0.29300 -0.23100 -0.48680
C3 C 0.3262(16) -0.1399(3) -0.5683(3)
H2 H 0.41170 -0.09580 -0.53820
C4 C 0.2691(14) -0.1255(3) -0.6420(3)
H3 H 0.32180 -0.07170 -0.66210
C5 C 0.1304(12) -0.1910(3) -0.6886(2)
C6 C 0.0613(10) -0.2738(3) -0.6593(2)
N2 N 0.0719(11) -0.1702(2) -0.7619(2)
C7 C -0.0593(12) -0.2302(3) -0.8047(3)
H4 H -0.09690 -0.21680 -0.85450
C8 C -0.1485(11) -0.3143(3) -0.7805(2)
C9 C -0.0852(12) -0.3362(3) -0.7077(2)
H5 H -0.13790 -0.39120 -0.69040
C10 C -0.3013(13) -0.3750(3) -0.8359(2)
C11 C -0.5398(16) -0.5130(3) -0.8575(3)
H6 H -0.35240 -0.53900 -0.88590
H7 H -0.70390 -0.48520 -0.89060
H8 H -0.66150 -0.55660 -0.82940
#END
