
#######################################################################
#
#                 Cambridge Crystallographic Data Centre
#                                CCDC
#
#######################################################################
#
# If this CIF has been generated from an entry in the Cambridge
# Structural Database, then it will include bibliographic, chemical,
# crystal, experimental, refinement or atomic coordinate data resulting
# from the CCDC's data processing and validation procedures.
#
#######################################################################

data_CSD_CIF_DPBFOO11
_audit_creation_date 2010-11-12
_audit_creation_method CSD-ConQuest-V1
_database_code_CSD DPBFOO11
_database_code_depnum_ccdc_archive 'CCDC 725385'
_chemical_formula_sum 'C16 H17 N1 O3'
_chemical_formula_moiety
;
C16 H17 N1 O3
;
_journal_coden_Cambridge 16
_journal_volume 66
_journal_year 2010
_journal_page_first 3754
_journal_name_full 'Tetrahedron '
loop_
_publ_author_name
"D.K.Barange"
"B.R.Raju"
"V.Kavala"
"Chun-Wei Kuo"
"Yu-Chen Tu"
"Ching Fa Yao"
_chemical_name_systematic
;
(E)-2-(Hydroxyimino)-6,6-dimethyl-3-phenyl-3,5,6,7-tetrahydro-1-benzofuran-4(2
H)-one
;
_cell_volume   1457.124
_exptl_crystal_colour 'colorless'
_exptl_crystal_density_diffrn 1.237
_exptl_crystal_description 'prism'
_diffrn_ambient_temperature 200
#These two values have been output from a single CSD field.
_refine_ls_R_factor_gt 0.0411
_refine_ls_wR_factor_gt 0.0411
loop_
_citation_database_id_CSD
_citation_special_details
WUTCOE "is a stereoisomer of this entry"
_symmetry_cell_setting monoclinic
_symmetry_space_group_name_H-M 'P 21/c'
_symmetry_Int_Tables_number 14
loop_
_symmetry_equiv_pos_site_id
_symmetry_equiv_pos_as_xyz
1 x,y,z
2 -x,1/2+y,1/2-z
3 -x,-y,-z
4 x,-1/2-y,-1/2+z
_cell_length_a 13.5604(15)
_cell_length_b 9.4281(9)
_cell_length_c 12.8923(10)
_cell_angle_alpha 90
_cell_angle_beta 117.867(3)
_cell_angle_gamma 90
_cell_formula_units_Z 4
loop_
_atom_type_symbol
_atom_type_radius_bond
C 0.68
H 0.23
N 0.68
O 0.68
loop_
_atom_site_label
_atom_site_type_symbol
_atom_site_fract_x
_atom_site_fract_y
_atom_site_fract_z
C1 C 0.81425(14) 1.09274(16) 0.86221(14)
C2 C 0.79210(13) 1.10602(16) 0.96654(13)
H1 H 0.83860 1.18340 1.02010
C3 C 0.66968(14) 1.12850(16) 0.93227(14)
C4 C 0.63773(17) 1.2384(2) 0.98032(19)
H2 H 0.69200 1.30280 1.03290
C5 C 0.5266(2) 1.2550(3) 0.9520(3)
H3 H 0.50490 1.33080 0.98550
C6 C 0.4479(2) 1.1637(3) 0.8765(3)
H4 H 0.37170 1.17740 0.85660
C7 C 0.47800(18) 1.0525(3) 0.8292(2)
H5 H 0.42340 0.98730 0.77830
C8 C 0.58940(16) 1.0358(2) 0.85637(17)
H6 H 0.61050 0.95990 0.82240
C9 C 0.83433(13) 0.96259(16) 1.02179(13)
C10 C 0.84348(12) 0.90327(16) 1.12909(12)
C11 C 0.89083(14) 0.75523(16) 1.15747(13)
H7 H 0.86690 0.71070 1.21160
H8 H 0.97330 0.76150 1.19900
C12 C 0.85540(13) 0.65880(16) 1.04938(13)
C13 C 0.72943(15) 0.63392(19) 0.99155(17)
H9 H 0.69050 0.72500 0.96680
H10 H 0.70990 0.58840 1.04780
H11 H 0.70720 0.57240 0.92290
C14 C 0.91519(15) 0.51649(17) 1.08715(15)
H12 H 0.99600 0.53170 1.12430
H13 H 0.89260 0.45540 1.01820
H14 H 0.89540 0.47090 1.14320
C15 C 0.88897(16) 0.73102(17) 0.96295(14)
H15 H 0.97050 0.72250 0.99270
H16 H 0.85120 0.68330 0.88570
C16 C 0.85710(14) 0.88241(17) 0.94969(13)
N1 N 0.81258(13) 1.18040(14) 0.78731(13)
O1 O 0.78136(11) 1.31409(12) 0.81074(11)
H17 H 0.78240 1.36950 0.75120
O2 O 0.81725(10) 0.96853(12) 1.19487(9)
O3 O 0.84491(12) 0.95404(12) 0.85157(10)
#END
