
#######################################################################
#
#                 Cambridge Crystallographic Data Centre
#                                CCDC
#
#######################################################################
#
# If this CIF has been generated from an entry in the Cambridge
# Structural Database, then it will include bibliographic, chemical,
# crystal, experimental, refinement or atomic coordinate data resulting
# from the CCDC's data processing and validation procedures.
#
#######################################################################

data_CSD_CIF_DPFUZO
_audit_creation_date 1978-10-27
_audit_creation_method CSD-ConQuest-V1
_database_code_CSD DPFUZO
_database_code_depnum_ccdc_archive 'CCDC 1145215'
_chemical_formula_sum 'C14 H10 N2 O2'
_chemical_formula_moiety
;
C14 H10 N2 O2
;
_journal_coeditor_code "IUCr A16186"
_journal_coden_Cambridge 107
_journal_volume 34
_journal_year 1978
_journal_page_first 2021
_journal_name_full 'Acta Crystallogr.,Sect.B:Struct.Crystallogr.Cryst.Chem. '
loop_
_publ_author_name
"A.K.Sillitoe"
"M.M.Harding"
_chemical_name_systematic
;
3,4-Diphenylfurazan N-oxide
;
_chemical_name_common
;
2-oxo-3,4-diphenyl-1,2,5-oxadiazole
;
_cell_volume   1172.310
_exptl_crystal_density_diffrn 1.35
_diffrn_ambient_temperature ?
_diffrn_special_details
;
The study was carried out at room temperature,in the range 283-303K

;
_refine_special_details
;
The N-oxide oxygen atom is disordered. Position with occupancy factor of 0.86 
has been retained.
;
#These two values have been output from a single CSD field.
_refine_ls_R_factor_gt 0.049
_refine_ls_wR_factor_gt 0.049
_symmetry_cell_setting monoclinic
_symmetry_space_group_name_H-M 'P 21/c'
_symmetry_Int_Tables_number 14
loop_
_symmetry_equiv_pos_site_id
_symmetry_equiv_pos_as_xyz
1 x,y,z
2 -x,1/2+y,1/2-z
3 -x,-y,-z
4 x,-1/2-y,-1/2+z
_cell_length_a 15.151(5)
_cell_length_b 6.130(9)
_cell_length_c 12.659(3)
_cell_angle_alpha 90
_cell_angle_beta 94.36(3)
_cell_angle_gamma 90
_cell_formula_units_Z 4
loop_
_atom_type_symbol
_atom_type_radius_bond
C 0.68
H 0.23
N 0.68
O 0.68
loop_
_atom_site_label
_atom_site_type_symbol
_atom_site_fract_x
_atom_site_fract_y
_atom_site_fract_z
N1 N 0.68640 0.65660 0.48790
N2 N 0.79770 0.47310 0.42210
O1 O 0.74060 0.47730 0.50540
O2 O 0.84970 0.32830 0.42570
C1 C 0.70980 0.75340 0.40150
C2 C 0.66150 0.94650 0.36200
C3 C 0.66620 1.01530 0.25890
C4 C 0.62070 1.19860 0.22310
C5 C 0.56900 1.31060 0.28650
C6 C 0.56200 1.24250 0.38740
C7 C 0.60780 1.06130 0.42590
C8 C 0.78080 0.64160 0.35990
C9 C 0.83440 0.68160 0.26890
C10 C 0.83830 0.52820 0.19000
C11 C 0.88910 0.56760 0.10610
C12 C 0.93500 0.75790 0.10120
C13 C 0.93190 0.91070 0.17880
C14 C 0.88100 0.87390 0.26310
H1 H 0.70500 0.93400 0.21100
H2 H 0.62000 1.23400 0.15100
H3 H 0.53500 1.44100 0.25900
H4 H 0.53100 1.31700 0.43800
H5 H 0.60600 1.00800 0.49400
H6 H 0.89000 0.39800 0.19500
H7 H 0.89000 0.46400 0.05000
H8 H 0.96800 0.78100 0.04100
H9 H 0.96300 1.04600 0.17600
H10 H 0.87900 0.97700 0.32100
#END
