
#######################################################################
#
#                 Cambridge Crystallographic Data Centre
#                                CCDC
#
#######################################################################
#
# If this CIF has been generated from an entry in the Cambridge
# Structural Database, then it will include bibliographic, chemical,
# crystal, experimental, refinement or atomic coordinate data resulting
# from the CCDC's data processing and validation procedures.
#
#######################################################################

data_CSD_CIF_DUCLEU
_audit_creation_date 2015-03-04
_audit_creation_method CSD-ConQuest-V1
_database_code_CSD DUCLEU
_database_code_depnum_ccdc_archive 'CCDC 1016054'
_chemical_formula_sum 'C37 H45 N5 O2'
_chemical_formula_moiety
;
C37 H45 N5 O2
;
_journal_coden_Cambridge 960
_journal_volume 81
_journal_year 2015
_journal_page_first 215
_journal_name_full 'J.Inclusion Phenom.Macrocyclic Chem. '
loop_
_publ_author_name
"Ying Han"
"Juan-Juan Sun"
"Gen-Liang Wang"
"Chao-Guo Yan"
_chemical_name_systematic
;
5,5,15,15-tetraethyl-10,10,20-trimethyl-20-(4-nitrophenyl)-5,10,15,20,22,24-he
xahydroporphyrin
;
_cell_volume   1677.019
_exptl_crystal_density_diffrn 1.172
_diffrn_ambient_temperature 296
#These two values have been output from a single CSD field.
_refine_ls_R_factor_gt 0.0468
_refine_ls_wR_factor_gt 0.0468
_symmetry_cell_setting triclinic
_symmetry_space_group_name_H-M 'P -1'
_symmetry_Int_Tables_number 2
loop_
_symmetry_equiv_pos_site_id
_symmetry_equiv_pos_as_xyz
1 x,y,z
2 -x,-y,-z
_cell_length_a 10.5528(14)
_cell_length_b 12.0644(16)
_cell_length_c 14.3453(19)
_cell_angle_alpha 104.872(2)
_cell_angle_beta 90.420(2)
_cell_angle_gamma 107.436(2)
_cell_formula_units_Z 2
loop_
_atom_type_symbol
_atom_type_radius_bond
C 0.68
H 0.23
N 0.68
O 0.68
loop_
_atom_site_label
_atom_site_type_symbol
_atom_site_fract_x
_atom_site_fract_y
_atom_site_fract_z
C1 C 0.81564(13) 0.70761(14) 0.09142(11)
C2 C 0.84304(16) 0.62417(16) 0.01725(12)
H1 H 0.85660 0.63100 -0.04530
C3 C 0.84726(16) 0.52557(16) 0.05172(12)
H2 H 0.86510 0.45670 0.01600
C4 C 0.82048(14) 0.54882(14) 0.14679(11)
C5 C 0.80394(15) 0.47576(14) 0.21913(12)
C6 C 0.66060(16) 0.45116(17) 0.25128(14)
H3 H 0.65220 0.40520 0.29860
H4 H 0.64780 0.52780 0.28310
C7 C 0.54982(19) 0.3830(2) 0.16960(17)
H5 H 0.56090 0.42420 0.11980
H6 H 0.46480 0.37910 0.19450
H7 H 0.55400 0.30270 0.14310
C8 C 0.8322(2) 0.35555(16) 0.17155(14)
H8 H 0.77390 0.31540 0.11220
H9 H 0.92320 0.37460 0.15390
C9 C 0.8138(3) 0.26784(19) 0.23309(18)
H10 H 0.86890 0.30690 0.29310
H11 H 0.83880 0.19910 0.19910
H12 H 0.72200 0.24200 0.24610
C10 C 0.90225(15) 0.54537(14) 0.30765(12)
C11 C 0.88963(17) 0.55950(16) 0.40380(13)
H13 H 0.81150 0.53070 0.43170
C12 C 1.01683(17) 0.62588(16) 0.45407(13)
H14 H 1.03650 0.64820 0.52090
C13 C 1.10492(16) 0.65141(15) 0.38850(12)
C14 C 1.25309(16) 0.71724(16) 0.40075(13)
C15 C 1.32786(19) 0.63383(18) 0.34338(16)
H15 H 1.29520 0.60800 0.27620
H16 H 1.31340 0.56460 0.36800
H17 H 1.42150 0.67690 0.35020
C16 C 1.30318(19) 0.7533(2) 0.50951(14)
H18 H 1.39670 0.79720 0.51820
H19 H 1.28870 0.68180 0.53120
H20 H 1.25520 0.80310 0.54650
C17 C 1.28370(15) 0.83058(15) 0.36761(12)
C18 C 1.39670(16) 0.89608(17) 0.33798(13)
H21 H 1.47490 0.87570 0.32880
C19 C 1.37493(15) 1.00077(16) 0.32349(13)
H22 H 1.43630 1.06100 0.30290
C20 C 1.24861(15) 0.99833(15) 0.34487(11)
C21 C 1.17432(15) 1.08917(15) 0.35129(12)
C22 C 1.24406(17) 1.17906(16) 0.29374(15)
H23 H 1.33520 1.21980 0.32220
H24 H 1.24760 1.13380 0.22790
C23 C 1.1779(2) 1.2737(2) 0.2905(2)
H25 H 1.08670 1.23460 0.26420
H26 H 1.22430 1.32240 0.25030
H27 H 1.18080 1.32390 0.35480
C24 C 1.17336(18) 1.15399(17) 0.45993(14)
H28 H 1.12770 1.21360 0.46390
H29 H 1.12210 1.09500 0.49140
C25 C 1.3102(2) 1.2165(2) 0.51578(17)
H30 H 1.35630 1.15830 0.51320
H31 H 1.29990 1.25250 0.58200
H32 H 1.36060 1.27790 0.48740
C26 C 1.03067(15) 1.02692(14) 0.30999(12)
C27 C 0.91373(16) 1.03045(16) 0.34828(13)
H33 H 0.90500 1.07160 0.41110
C28 C 0.80804(15) 0.96099(16) 0.27630(13)
H34 H 0.71770 0.94860 0.28340
C29 C 0.86092(13) 0.91541(14) 0.19492(12)
C30 C 0.79659(14) 0.82844(14) 0.09773(11)
C31 C 0.85975(16) 0.87427(17) 0.01269(13)
H35 H 0.95110 0.87530 0.01300
H36 H 0.85600 0.95450 0.01940
H37 H 0.81150 0.82170 -0.04730
C32 C 0.64746(14) 0.81962(15) 0.09315(11)
C33 C 0.61082(16) 0.91976(17) 0.08830(13)
H38 H 0.67620 0.98960 0.08440
C34 C 0.47894(16) 0.91750(17) 0.08912(13)
H39 H 0.45530 0.98470 0.08540
C35 C 0.38393(15) 0.81437(16) 0.09559(11)
C36 C 0.41519(15) 0.71310(16) 0.09866(13)
H40 H 0.34900 0.64360 0.10220
C37 C 0.54798(15) 0.71627(16) 0.09637(12)
H41 H 0.57010 0.64740 0.09700
N1 N 0.80285(12) 0.66086(11) 0.16982(9)
H42 H 0.78600 0.69690 0.22600
N2 N 1.03398(13) 0.60177(12) 0.29861(10)
H43 H 1.06740 0.60550 0.24460
N3 N 1.19441(12) 0.89425(12) 0.37228(10)
H44 H 1.11520 0.87190 0.39000
N4 N 0.99735(11) 0.95605(12) 0.21616(10)
H45 H 1.05370 0.93940 0.17630
N5 N 0.24499(14) 0.81429(16) 0.10330(11)
O1 O 0.21445(12) 0.89628(14) 0.08221(11)
O2 O 0.16656(12) 0.73449(13) 0.1306(1)
#END
