
#######################################################################
#
#                 Cambridge Crystallographic Data Centre
#                                CCDC
#
#######################################################################
#
# If this CIF has been generated from an entry in the Cambridge
# Structural Database, then it will include bibliographic, chemical,
# crystal, experimental, refinement or atomic coordinate data resulting
# from the CCDC's data processing and validation procedures.
#
#######################################################################

data_CSD_CIF_DUCLIY
_audit_creation_date 2015-03-04
_audit_creation_method CSD-ConQuest-V1
_database_code_CSD DUCLIY
_database_code_depnum_ccdc_archive 'CCDC 1016055'
_chemical_formula_sum 'C40 H49 N5 O2'
_chemical_formula_moiety
;
C40 H49 N5 O2
;
_journal_coden_Cambridge 960
_journal_volume 81
_journal_year 2015
_journal_page_first 215
_journal_name_full 'J.Inclusion Phenom.Macrocyclic Chem. '
loop_
_publ_author_name
"Ying Han"
"Juan-Juan Sun"
"Gen-Liang Wang"
"Chao-Guo Yan"
_chemical_name_systematic
;
7',7',17',17'-tetraethyl-12'-methyl-12'-(4-nitrophenyl)-21',22',23',24'-tetraa
zaspiro[cyclohexane-1,2'-pentacyclo[16.2.1.1^3,6^.1^8,11^.1^13,16^]tetracosane
]-1'(20'),3',5',8',10',13',15',18'-octaene
;
_cell_volume   1783.237
_exptl_crystal_density_diffrn 1.177
_diffrn_ambient_temperature 296
#These two values have been output from a single CSD field.
_refine_ls_R_factor_gt 0.0519
_refine_ls_wR_factor_gt 0.0519
_symmetry_cell_setting triclinic
_symmetry_space_group_name_H-M 'P -1'
_symmetry_Int_Tables_number 2
loop_
_symmetry_equiv_pos_site_id
_symmetry_equiv_pos_as_xyz
1 x,y,z
2 -x,-y,-z
_cell_length_a 10.5404(10)
_cell_length_b 11.2892(11)
_cell_length_c 16.3282(16)
_cell_angle_alpha 95.589(4)
_cell_angle_beta 102.682(4)
_cell_angle_gamma 107.187(4)
_cell_formula_units_Z 2
loop_
_atom_type_symbol
_atom_type_radius_bond
C 0.68
H 0.23
N 0.68
O 0.68
loop_
_atom_site_label
_atom_site_type_symbol
_atom_site_fract_x
_atom_site_fract_y
_atom_site_fract_z
N1 N 0.46983(12) 0.77004(12) 0.16778(8)
H1 H 0.40870 0.75160 0.19600
N2 N 0.68576(13) 0.99338(12) 0.33146(8)
H2 H 0.70190 1.01340 0.28440
C1 C 0.65814(15) 0.87408(14) 0.34994(10)
N3 N 0.30488(13) 0.97960(12) 0.11975(8)
H3 H 0.38980 1.01860 0.12290
N4 N 0.48728(14) 1.17828(12) 0.29708(9)
H4 H 0.44580 1.12570 0.32500
N5 N 1.22006(16) 0.79389(17) 0.29469(10)
C2 C 0.81331(16) 0.77031(15) 0.29759(10)
C3 C 0.63856(17) 0.88180(16) 0.42952(11)
H5 H 0.61830 0.81530 0.45920
C4 C 0.60570(15) 0.78008(15) 0.19854(10)
C5 C 0.62723(17) 1.23513(15) 0.31629(10)
O1 O 1.23938(15) 0.70156(15) 0.26068(11)
C6 C 0.66339(15) 0.76682(14) 0.28934(10)
C7 C 1.07925(16) 0.78218(17) 0.29920(11)
C8 C 0.65422(17) 1.00825(16) 0.45946(11)
H6 H 0.64550 1.03930 0.51210
O2 O 1.31100(13) 0.89509(15) 0.32336(9)
C9 C 0.42243(17) 1.21675(15) 0.22714(11)
C10 C 0.68431(15) 1.07673(15) 0.39808(10)
C11 C 0.44535(16) 0.79348(15) 0.08597(10)
C12 C 0.23632(16) 0.85679(15) 0.08199(10)
C13 C 0.92392(16) 0.87173(16) 0.34407(11)
H7 H 0.90850 0.93690 0.37560
C14 C 0.30298(16) 0.78117(16) 0.0342(1)
C15 C 1.05741(17) 0.87864(17) 0.34483(11)
H8 H 1.13110 0.94800 0.37600
C16 C 0.22024(17) 1.03260(15) 0.15199(11)
C17 C 0.52331(18) 1.29834(16) 0.20170(11)
H9 H 0.51040 1.33960 0.15550
C18 C 0.65122(18) 1.30991(16) 0.25733(11)
H10 H 0.73700 1.36010 0.25410
C19 C 0.71910(17) 1.21538(15) 0.39515(10)
C20 C 0.09531(18) 0.94135(17) 0.13351(12)
H11 H 0.01700 0.94980 0.14720
C21 C 0.58002(18) 0.64209(16) 0.31051(12)
H12 H 0.62220 0.63410 0.36720
H13 H 0.57810 0.57290 0.27050
H14 H 0.48770 0.64150 0.30700
C22 C 0.84044(18) 0.67236(17) 0.25440(13)
H15 H 0.76750 0.60170 0.22430
C23 C 0.56739(18) 0.81855(18) 0.06497(12)
H16 H 0.58220 0.83790 0.01300
C24 C 0.66739(18) 0.81033(18) 0.13490(12)
H17 H 0.75960 0.82330 0.13730
C25 C 0.26727(17) 1.16826(16) 0.19455(11)
C26 C 0.10523(17) 0.83176(17) 0.09002(12)
H18 H 0.03450 0.75530 0.07020
C27 C 0.97301(19) 0.67731(18) 0.25504(13)
H19 H 0.98980 0.61080 0.22610
C28 C 0.21161(19) 0.64142(17) 0.01455(13)
H20 H 0.20140 0.61390 0.06790
H21 H 0.12090 0.63490 -0.01910
C29 C 0.31819(19) 0.8342(2) -0.04860(11)
H22 H 0.38300 0.91920 -0.03290
H23 H 0.35750 0.78370 -0.08030
C30 C 0.2172(2) 1.24621(18) 0.13006(15)
H24 H 0.26750 1.25010 0.08670
H25 H 0.12070 1.20300 0.10210
C31 C 0.87072(19) 1.26990(19) 0.39189(13)
H26 H 0.88070 1.22960 0.33960
H27 H 0.89170 1.35900 0.38990
C32 C 0.2020(2) 1.17935(19) 0.26959(14)
H28 H 0.10290 1.14060 0.24920
H29 H 0.23530 1.13370 0.31220
C33 C 0.6933(2) 1.28045(18) 0.47525(13)
H30 H 0.59900 1.23950 0.47630
H31 H 0.75260 1.26730 0.52550
C34 C 0.1780(3) 1.3860(2) 0.2469(3)
H32 H 0.20170 1.47310 0.27330
H33 H 0.07850 1.35000 0.22930
C35 C 0.2655(3) 0.5526(2) -0.03286(18)
H34 H 0.26600 0.57270 -0.08860
H35 H 0.20720 0.46740 -0.03810
H36 H 0.35740 0.56150 -0.00180
C36 C 0.1863(2) 0.8374(3) -0.10688(14)
H37 H 0.12120 0.75370 -0.12350
H38 H 0.20550 0.86960 -0.15670
H39 H 0.14870 0.89080 -0.07740
C37 C 0.7175(4) 1.4200(2) 0.48076(19)
H40 H 0.81200 1.46260 0.48290
H41 H 0.69710 1.45170 0.53130
H42 H 0.65900 1.43460 0.43150
C38 C 0.2351(3) 1.3151(2) 0.31053(19)
H43 H 0.19570 1.31780 0.35880
H44 H 0.33400 1.35450 0.33120
C39 C 0.9751(2) 1.2534(3) 0.46658(15)
H45 H 0.97530 1.30280 0.51800
H46 H 1.06500 1.28080 0.45680
H47 H 0.95100 1.16620 0.47220
C40 C 0.2344(3) 1.3805(2) 0.1693(2)
H48 H 0.33140 1.42990 0.18560
H49 H 0.18760 1.41840 0.12680
#END
