
#######################################################################
#
#                 Cambridge Crystallographic Data Centre
#                                CCDC
#
#######################################################################
#
# If this CIF has been generated from an entry in the Cambridge
# Structural Database, then it will include bibliographic, chemical,
# crystal, experimental, refinement or atomic coordinate data resulting
# from the CCDC's data processing and validation procedures.
#
#######################################################################

data_CSD_CIF_DUCVUT
_audit_creation_date 2009-10-09
_audit_creation_method CSD-ConQuest-V1
_database_code_CSD DUCVUT
_database_code_depnum_ccdc_archive 'CCDC 747242'
_chemical_formula_sum 'C14 H13 N3 O3'
_chemical_formula_moiety
;
C14 H13 N3 O3
;
_journal_coeditor_code "IUCr XU2580"
_journal_coden_Cambridge 1370
_journal_volume 65
_journal_year 2009
_journal_page_first o2147
_journal_name_full 'Acta Crystallogr.,Sect.E:Struct.Rep.Online '
loop_
_publ_author_name
"Jun-qiang Chen"
"He-ping Li"
"Chang-shan Huang"
"Jin-ying Wu"
_chemical_name_systematic
;
5-(2-Furyl)-3-methyl-1-(3-nitrophenyl)-4,5-dihydro-1H-pyrazole
;
_cell_volume    661.305
_exptl_crystal_colour 'bronze'
_exptl_crystal_density_diffrn 1.362
_exptl_crystal_description 'block'
_exptl_crystal_preparation 'methanol'
_diffrn_ambient_temperature 296
#These two values have been output from a single CSD field.
_refine_ls_R_factor_gt 0.0437
_refine_ls_wR_factor_gt 0.0437
_symmetry_cell_setting triclinic
_symmetry_space_group_name_H-M 'P -1'
_symmetry_Int_Tables_number 2
loop_
_symmetry_equiv_pos_site_id
_symmetry_equiv_pos_as_xyz
1 x,y,z
2 -x,-y,-z
_cell_length_a 6.2089(2)
_cell_length_b 7.8581(3)
_cell_length_c 14.3800(4)
_cell_angle_alpha 105.764(2)
_cell_angle_beta 97.054(2)
_cell_angle_gamma 96.944(2)
_cell_formula_units_Z 2
loop_
_atom_type_symbol
_atom_type_radius_bond
C 0.68
H 0.23
N 0.68
O 0.68
loop_
_atom_site_label
_atom_site_type_symbol
_atom_site_fract_x
_atom_site_fract_y
_atom_site_fract_z
O1 O 0.36743(18) 0.34679(15) 0.90208(8)
N1 N 0.1661(2) 0.62239(17) 0.78604(10)
N2 N 0.2000(2) 0.45740(16) 0.72794(10)
C1 C 0.3755(2) 0.4521(2) 0.67745(11)
C2 C 0.5059(2) 0.6102(2) 0.67820(11)
H1 H 0.47720 0.72110 0.71320
C3 C 0.0168(3) 0.5942(2) 0.83623(13)
C4 C 0.4224(3) 0.2892(2) 0.62195(12)
H2 H 0.33470 0.18260 0.61910
C5 C 0.2531(2) 0.2318(2) 0.81601(12)
C6 C 0.6784(2) 0.5987(2) 0.62600(12)
N3 N 0.8105(2) 0.7665(2) 0.62761(12)
O2 O 0.9707(2) 0.7615(2) 0.58611(11)
C7 C 0.0941(2) 0.3072(2) 0.75855(12)
H3 H 0.01380 0.21260 0.70100
C8 C 0.7298(3) 0.4395(3) 0.57272(12)
H4 H 0.84870 0.43650 0.53910
C9 C -0.0684(3) 0.4007(3) 0.81836(14)
H5 H -0.21660 0.36860 0.78170
H6 H -0.06770 0.37060 0.87950
C10 C 0.4967(3) 0.2476(3) 0.94299(14)
H7 H 0.59240 0.29200 1.00220
O3 O 0.7571(3) 0.9062(2) 0.67000(14)
C11 C 0.5976(3) 0.2848(3) 0.57136(13)
H8 H 0.62700 0.17480 0.53550
C12 C 0.3090(3) 0.0707(2) 0.80439(14)
H9 H 0.25500 -0.03080 0.75180
C13 C 0.4665(3) 0.0818(3) 0.88708(14)
H10 H 0.53500 -0.01080 0.89920
C14 C -0.0654(3) 0.7433(3) 0.90245(15)
H11 H 0.01410 0.85560 0.90190
H12 H -0.04440 0.73290 0.96780
H13 H -0.21910 0.73810 0.88060
#END
