
#######################################################################
#
#                 Cambridge Crystallographic Data Centre
#                                CCDC
#
#######################################################################
#
# If this CIF has been generated from an entry in the Cambridge
# Structural Database, then it will include bibliographic, chemical,
# crystal, experimental, refinement or atomic coordinate data resulting
# from the CCDC's data processing and validation procedures.
#
#######################################################################

data_CSD_CIF_DUCXEF
_audit_creation_date 2009-10-09
_audit_creation_method CSD-ConQuest-V1
_database_code_CSD DUCXEF
_database_code_depnum_ccdc_archive 'CCDC 747250'
_chemical_formula_sum 'C10 H13 N3 O2'
_chemical_formula_moiety
;
C10 H13 N3 O2
;
_journal_coeditor_code "IUCr XU2581"
_journal_coden_Cambridge 1370
_journal_volume 65
_journal_year 2009
_journal_page_first o2155
_journal_name_full 'Acta Crystallogr.,Sect.E:Struct.Rep.Online '
loop_
_publ_author_name
"Heng-yu Qian"
"Zhi-gang Yin"
"Zhi-qiang Yao"
_chemical_name_systematic
;
1-(Butan-2-ylidene)-2-(2-nitrophenyl)hydrazine
;
_cell_volume   1085.124
_exptl_crystal_colour 'red'
_exptl_crystal_density_diffrn 1.268
_exptl_crystal_description 'block'
_exptl_crystal_preparation 'methanol'
_diffrn_ambient_temperature 296
#These two values have been output from a single CSD field.
_refine_ls_R_factor_gt 0.0474
_refine_ls_wR_factor_gt 0.0474
_symmetry_cell_setting monoclinic
_symmetry_space_group_name_H-M 'P 21/c'
_symmetry_Int_Tables_number 14
loop_
_symmetry_equiv_pos_site_id
_symmetry_equiv_pos_as_xyz
1 x,y,z
2 -x,1/2+y,1/2-z
3 -x,-y,-z
4 x,-1/2-y,-1/2+z
_cell_length_a 7.3079(11)
_cell_length_b 10.2150(17)
_cell_length_c 14.763(2)
_cell_angle_alpha 90
_cell_angle_beta 100.058(9)
_cell_angle_gamma 90
_cell_formula_units_Z 4
loop_
_atom_type_symbol
_atom_type_radius_bond
C 0.68
H 0.23
N 0.68
O 0.68
loop_
_atom_site_label
_atom_site_type_symbol
_atom_site_fract_x
_atom_site_fract_y
_atom_site_fract_z
N1 N 0.3024(2) 1.04656(17) 0.09960(11)
C1 C 0.2088(2) 0.89169(19) -0.01835(13)
N2 N 0.2496(2) 1.01728(17) 0.00803(12)
C2 C 0.2183(3) 0.79113(19) 0.04780(12)
H1 H 0.24950 0.81220 0.10990
C3 C 0.1570(2) 0.85236(19) -0.11104(12)
C4 C 0.1221(3) 0.7221(2) -0.13432(14)
H2 H 0.08890 0.69850 -0.19590
N3 N 0.1382(3) 0.9459(2) -0.18488(14)
C5 C 0.1830(3) 0.66460(19) 0.02310(14)
H3 H 0.19070 0.60070 0.06850
C6 C 0.1358(3) 0.6288(2) -0.06817(15)
H4 H 0.11360 0.54150 -0.08410
O1 O 0.1590(3) 1.0630(2) -0.16759(12)
C7 C 0.3445(3) 1.1663(2) 0.11902(16)
O2 O 0.1019(3) 0.90665(19) -0.26427(11)
C8 C 0.4002(3) 1.2013(2) 0.21782(18)
H5 H 0.52400 1.23870 0.22660
H6 H 0.31660 1.26870 0.23250
C9 C 0.3419(3) 1.2749(2) 0.05076(18)
H7 H 0.42230 1.25310 0.00800
H8 H 0.38430 1.35430 0.08240
H9 H 0.21750 1.28690 0.01800
C10 C 0.4004(4) 1.0931(3) 0.28360(19)
H10 H 0.28030 1.05230 0.27400
H11 H 0.42860 1.12660 0.34520
H12 H 0.49260 1.02980 0.27450
H13 H 0.240(3) 1.0806(15) -0.0338(11)
#END
