
#######################################################################
#
#                 Cambridge Crystallographic Data Centre
#                                CCDC
#
#######################################################################
#
# If this CIF has been generated from an entry in the Cambridge
# Structural Database, then it will include bibliographic, chemical,
# crystal, experimental, refinement or atomic coordinate data resulting
# from the CCDC's data processing and validation procedures.
#
#######################################################################

data_CSD_CIF_DUDHOA
_audit_creation_date 2009-10-09
_audit_creation_method CSD-ConQuest-V1
_database_code_CSD DUDHOA
_database_code_depnum_ccdc_archive 'CCDC 747319'
_chemical_formula_sum 'C10 H12 N4 O2'
_chemical_formula_moiety
;
C10 H12 N4 O2
;
_journal_coeditor_code "IUCr TK2523"
_journal_coden_Cambridge 1370
_journal_volume 65
_journal_year 2009
_journal_page_first o2242
_journal_name_full 'Acta Crystallogr.,Sect.E:Struct.Rep.Online '
loop_
_publ_author_name
"Y.S.Moroz"
"I.S.Konovalova"
"T.S.Iskenderov"
"S.V.Pavlova"
"O.V.Shishkin"
_chemical_name_systematic
;
2-Hydroxyimino-N'-(1-(2-pyridyl)ethylidene)propanohydrazide
;
_cell_volume   1103.607
_exptl_crystal_colour 'white'
_exptl_crystal_density_diffrn 1.325
_exptl_crystal_description 'needle'
_diffrn_ambient_temperature 293
#These two values have been output from a single CSD field.
_refine_ls_R_factor_gt 0.046
_refine_ls_wR_factor_gt 0.046
_symmetry_cell_setting monoclinic
_symmetry_space_group_name_H-M 'C c'
_symmetry_Int_Tables_number 9
loop_
_symmetry_equiv_pos_site_id
_symmetry_equiv_pos_as_xyz
1 x,y,z
2 x,-y,1/2+z
3 1/2+x,1/2+y,z
4 1/2+x,1/2-y,1/2+z
_cell_length_a 4.4498(11)
_cell_length_b 22.833(7)
_cell_length_c 10.955(3)
_cell_angle_alpha 90
_cell_angle_beta 97.47(2)
_cell_angle_gamma 90
_cell_formula_units_Z 4
loop_
_atom_type_symbol
_atom_type_radius_bond
C 0.68
H 0.23
N 0.68
O 0.68
loop_
_atom_site_label
_atom_site_type_symbol
_atom_site_fract_x
_atom_site_fract_y
_atom_site_fract_z
N1 N -0.4385(8) 0.29326(15) 0.1660(4)
N2 N -0.0269(7) 0.41668(13) 0.0900(3)
N3 N 0.1840(7) 0.45542(13) 0.1431(3)
N4 N 0.6418(7) 0.52027(13) 0.2434(3)
O1 O 0.1686(7) 0.50958(13) -0.0301(3)
O2 O 0.8544(6) 0.55993(14) 0.2979(3)
C1 C -0.3464(9) 0.33542(16) 0.0958(4)
C2 C -0.4547(11) 0.3399(2) -0.0272(4)
H1 H -0.38910 0.37010 -0.07430
C3 C -0.6589(11) 0.2998(2) -0.0793(5)
H2 H -0.73100 0.30190 -0.16280
C4 C -0.7553(11) 0.2573(2) -0.0090(5)
H3 H -0.89620 0.22960 -0.04230
C5 C -0.6403(13) 0.2558(2) 0.1128(6)
H4 H -0.70850 0.22650 0.16140
C6 C -0.1176(8) 0.37676(17) 0.1582(3)
C7 C -0.0053(11) 0.3692(2) 0.2922(4)
H5 H -0.04160 0.40440 0.33570
H6 H 0.20820 0.36110 0.30220
H7 H -0.11030 0.33720 0.32460
C8 C 0.2702(8) 0.50043(16) 0.0783(3)
C9 C 0.4981(9) 0.54051(15) 0.1430(3)
C10 C 0.5493(13) 0.59805(19) 0.0889(5)
H8 H 0.36340 0.61190 0.04400
H9 H 0.70010 0.59450 0.03420
H10 H 0.61770 0.62530 0.15340
H11 H 0.239(8) 0.4565(15) 0.222(4)
H12 H 0.932(11) 0.5383(19) 0.355(5)
#END
