
#######################################################################
#
#                 Cambridge Crystallographic Data Centre
#                                CCDC
#
#######################################################################
#
# If this CIF has been generated from an entry in the Cambridge
# Structural Database, then it will include bibliographic, chemical,
# crystal, experimental, refinement or atomic coordinate data resulting
# from the CCDC's data processing and validation procedures.
#
#######################################################################

data_CSD_CIF_DUDNOH
_audit_creation_date 2015-03-04
_audit_creation_method CSD-ConQuest-V1
_database_code_CSD DUDNOH
_database_code_depnum_ccdc_archive 'CCDC 994357'
_chemical_formula_sum 'C10 H9 N5 O4'
_chemical_formula_moiety
;
C10 H9 N5 O4
;
_journal_coden_Cambridge 603
_journal_volume 34
_journal_year 2015
_journal_page_first 26
_journal_name_full 'Jiegou Huaxue(Chin.)(Chin.J.Struct.Chem.) '
loop_
_publ_author_name
"N.A.Muhammad"
"A.Y.Khawaja"
"N.T.Muhammad"
"A.Ifzan"
"M.Murtaza"
_chemical_name_systematic
;
ethyl 1-(5-nitropyridin-2-yl)-1H-1,2,3-triazole-4-carboxylate
;
_cell_volume    585.235
_exptl_crystal_density_diffrn 1.494
_diffrn_ambient_temperature 296
#These two values have been output from a single CSD field.
_refine_ls_R_factor_gt 0.0621
_refine_ls_wR_factor_gt 0.0621
_symmetry_cell_setting triclinic
_symmetry_space_group_name_H-M 'P -1'
_symmetry_Int_Tables_number 2
loop_
_symmetry_equiv_pos_site_id
_symmetry_equiv_pos_as_xyz
1 x,y,z
2 -x,-y,-z
_cell_length_a 5.0894(9)
_cell_length_b 8.9834(13)
_cell_length_c 13.089(2)
_cell_angle_alpha 83.041(7)
_cell_angle_beta 80.256(7)
_cell_angle_gamma 87.296(8)
_cell_formula_units_Z 2
loop_
_atom_type_symbol
_atom_type_radius_bond
C 0.68
H 0.23
N 0.68
O 0.68
loop_
_atom_site_label
_atom_site_type_symbol
_atom_site_fract_x
_atom_site_fract_y
_atom_site_fract_z
O1 O 0.9070(4) 0.9478(2) -0.26051(15)
O2 O 0.6892(4) 1.0621(2) -0.12705(16)
O3 O 0.7731(6) 0.3782(3) 0.4892(2)
O4 O 1.1658(7) 0.2835(3) 0.44912(19)
N1 N 1.1732(4) 0.7600(3) -0.12257(18)
N2 N 1.2243(4) 0.6689(2) -0.04291(17)
N3 N 1.0310(4) 0.6941(2) 0.04001(15)
N4 N 0.8240(4) 0.6372(2) 0.21034(17)
N5 N 0.9784(7) 0.3639(3) 0.4283(2)
C1 C 0.5463(7) 1.0387(4) -0.3539(3)
H1 H 0.54240 0.94220 -0.37800
H2 H 0.49730 1.11520 -0.40570
H3 H 0.42260 1.04170 -0.29010
C2 C 0.8173(7) 1.0648(4) -0.3355(2)
H4 H 0.94000 1.06790 -0.40100
H5 H 0.81940 1.16130 -0.30960
C3 C 0.8331(5) 0.9625(3) -0.1602(2)
C4 C 0.9490(5) 0.8445(3) -0.0916(2)
C5 C 0.8584(5) 0.8033(3) 0.0113(2)
H6 H 0.71030 0.84190 0.05270
C6 C 1.0329(5) 0.6103(3) 0.1388(2)
C7 C 1.2386(5) 0.5082(3) 0.1548(2)
H7 H 1.38260 0.49590 0.10210
C8 C 1.2233(6) 0.4257(3) 0.2508(2)
H8 H 1.35560 0.35510 0.26500
C9 C 1.0066(6) 0.4509(3) 0.3251(2)
C10 C 0.8134(6) 0.5566(3) 0.3037(2)
H9 H 0.67020 0.57260 0.35590
#END
