
#######################################################################
#
#                 Cambridge Crystallographic Data Centre
#                                CCDC
#
#######################################################################
#
# If this CIF has been generated from an entry in the Cambridge
# Structural Database, then it will include bibliographic, chemical,
# crystal, experimental, refinement or atomic coordinate data resulting
# from the CCDC's data processing and validation procedures.
#
#######################################################################

data_CSD_CIF_DUFKIY
_audit_creation_date 1987-06-12
_audit_creation_method CSD-ConQuest-V1
_database_code_CSD DUFKIY
_database_code_depnum_ccdc_archive 'CCDC 1145993'
_chemical_formula_sum 'C27 H20 N2 O9'
_chemical_formula_moiety
;
C27 H20 N2 O9
;
_journal_coden_Cambridge 182
_journal_year 1986
_journal_page_first 1266
_journal_name_full 'Chem.Commun. '
loop_
_publ_author_name
"T.Ibata"
"J.Toyoda"
"M.Sawada"
"T.Tanaka"
_chemical_name_systematic
;
1,3-Epoxymethano-1-methoxy-isochroman-4-one-10-spiro-5'-(1',4'-epoxy-1'-methox
y-2'-(p-nitrophenyl)-2'-azabicyclo(5.4.0)undeca-6',8',10'-tetraen-3'-one)
;
_chemical_melting_point 516.15
_cell_volume   2295.776
_exptl_special_details
;
Melting point range 516.15-518.15K

;
_diffrn_ambient_temperature ?
_diffrn_special_details
;
The study was carried out at room temperature,in the range 283-303K

;
#These two values have been output from a single CSD field.
_refine_ls_R_factor_gt 0.0378
_refine_ls_wR_factor_gt 0.0378
_symmetry_cell_setting orthorhombic
_symmetry_space_group_name_H-M 'P 21 21 21'
_symmetry_Int_Tables_number 19
loop_
_symmetry_equiv_pos_site_id
_symmetry_equiv_pos_as_xyz
1 x,y,z
2 1/2+x,1/2-y,-z
3 -x,1/2+y,1/2-z
4 1/2-x,-y,1/2+z
_cell_length_a 11.5802(6)
_cell_length_b 23.009(1)
_cell_length_c 8.6162(12)
_cell_angle_alpha 90
_cell_angle_beta 90
_cell_angle_gamma 90
_cell_formula_units_Z 4
loop_
_atom_type_symbol
_atom_type_radius_bond
C 0.68
H 0.23
N 0.68
O 0.68
loop_
_atom_site_label
_atom_site_type_symbol
_atom_site_fract_x
_atom_site_fract_y
_atom_site_fract_z
O1 O 1.13376 1.09677 0.21069
O2 O 0.99951 1.02664 0.15715
O3 O 0.74261 1.07118 0.32890
O4 O 0.83197 1.33074 0.68172
O5 O 0.99796 1.35335 0.58501
O6 O 0.82209 0.94355 0.42943
O7 O 0.84102 0.88401 0.22153
O8 O 0.67096 0.88339 0.35998
O9 O 1.12613 0.85670 0.32558
N1 N 0.93419 1.10223 0.30071
N2 N 0.91657 1.32009 0.60197
C1 C 1.04249 1.06648 0.26765
C2 C 1.07652 1.03528 0.41559
C3 C 1.16228 1.05687 0.51352
C4 C 1.18499 1.02811 0.65194
C5 C 1.12111 0.98010 0.69447
C6 C 1.03569 0.95908 0.59778
C7 C 1.01345 0.98558 0.45619
C8 C 0.92242 0.96234 0.34554
C9 C 0.89115 1.00870 0.22169
C10 C 0.84165 1.06380 0.29072
C11 C 1.12335 1.11770 0.05330
C12 C 0.93163 1.15601 0.38067
C13 C 1.02086 1.19608 0.36295
C14 C 1.01536 1.24973 0.43651
C15 C 0.92294 1.26286 0.52625
C16 C 0.83494 1.22411 0.54833
C17 C 0.83884 1.17096 0.47468
C18 C 0.95429 0.90668 0.25178
C19 C 1.02291 0.86196 0.34368
C20 C 0.95288 0.82611 0.45135
C21 C 1.00236 0.78021 0.53526
C22 C 0.93485 0.74769 0.63384
C23 C 0.81918 0.76105 0.65190
C24 C 0.76939 0.80698 0.57104
C25 C 0.83552 0.83887 0.46874
C26 C 0.78750 0.88749 0.37053
C27 C 0.61468 0.93024 0.27794
H1 H 1.20843 1.09094 0.47790
H2 H 1.24192 1.04334 0.72437
H3 H 1.13727 0.96270 0.79726
H4 H 0.98494 0.92500 0.62540
H5 H 0.83993 0.99133 0.13977
H6 H 1.08901 1.18681 0.30146
H7 H 1.07500 1.27584 0.43133
H8 H 0.76499 1.23483 0.61522
H9 H 0.77814 1.14428 0.48755
H10 H 0.99305 0.91741 0.14515
H11 H 1.08676 0.77283 0.52230
H12 H 0.97261 0.71301 0.69257
H13 H 0.76787 0.73468 0.72331
H14 H 0.68215 0.81520 0.57955
H15 H 1.18989 1.14846 0.03909
H16 H 1.04376 1.13895 0.04330
H17 H 1.14020 1.08578 -0.00857
H18 H 0.53885 0.91726 0.25696
H19 H 0.64845 0.93633 0.18238
H20 H 0.61811 0.96705 0.35033
#END
