
#######################################################################
#
#                 Cambridge Crystallographic Data Centre
#                                CCDC
#
#######################################################################
#
# If this CIF has been generated from an entry in the Cambridge
# Structural Database, then it will include bibliographic, chemical,
# crystal, experimental, refinement or atomic coordinate data resulting
# from the CCDC's data processing and validation procedures.
#
#######################################################################

data_CSD_CIF_DUGMUN01
_audit_creation_date 2002-04-24
_audit_creation_method CSD-ConQuest-V1
_database_code_CSD DUGMUN01
_database_code_depnum_ccdc_archive 'CCDC 181382'
_database_code_depnum_ccdc_journal 1267/669
_chemical_formula_sum 'C8 H6 N2 O1'
_chemical_formula_moiety
;
C8 H6 N2 O1
;
_journal_coden_Cambridge 1267
_journal_volume 216
_journal_year 2001
_journal_page_first 549
_journal_name_full 'Z.Kristallogr.-New Cryst.Struct. '
loop_
_publ_author_name
"P.Razzino"
"A.D.Ward"
"E.R.T.Tiekink"
_chemical_name_systematic
;
(Z)-2-(Hydroxyimino)-2-phenylacetonitrile
;
_cell_volume    718.526
_exptl_crystal_colour 'pale yellow'
_exptl_crystal_density_diffrn 1.351
_exptl_crystal_description 'block'
_diffrn_ambient_temperature 173
#These two values have been output from a single CSD field.
_refine_ls_R_factor_gt 0.036
_refine_ls_wR_factor_gt 0.036
loop_
_citation_database_id_CSD
_citation_special_details
RIJLUT "is a stereoisomer of this entry"
_symmetry_cell_setting monoclinic
_symmetry_space_group_name_H-M 'P 21/c'
_symmetry_Int_Tables_number 14
loop_
_symmetry_equiv_pos_site_id
_symmetry_equiv_pos_as_xyz
1 x,y,z
2 -x,1/2+y,1/2-z
3 -x,-y,-z
4 x,-1/2-y,-1/2+z
_cell_length_a 8.722(2)
_cell_length_b 11.037(5)
_cell_length_c 8.301(4)
_cell_angle_alpha 90
_cell_angle_beta 115.95(2)
_cell_angle_gamma 90
_cell_formula_units_Z 4
loop_
_atom_type_symbol
_atom_type_radius_bond
C 0.68
H 0.23
N 0.68
O 0.68
loop_
_atom_site_label
_atom_site_type_symbol
_atom_site_fract_x
_atom_site_fract_y
_atom_site_fract_z
O1 O 0.02566(13) 0.01606(10) -0.18454(14)
N1 N 0.14545(17) 0.28644(13) -0.2378(2)
N2 N 0.18669(16) 0.00649(11) -0.04345(17)
C1 C 0.20331(19) 0.20506(14) -0.1457(2)
C2 C 0.27525(18) 0.10301(13) -0.02565(19)
C3 C 0.44923(18) 0.11323(13) 0.12027(19)
C4 C 0.5095(2) 0.02651(14) 0.2562(2)
H1 H 0.43820 -0.03870 0.25560
C5 C 0.6731(2) 0.03580(17) 0.3917(2)
H2 H 0.71440 -0.02370 0.48350
C6 C 0.7776(2) 0.13151(16) 0.3947(2)
H3 H 0.88970 0.13790 0.48890
C7 C 0.7182(2) 0.21724(15) 0.2606(2)
H4 H 0.78970 0.28270 0.26240
C8 C 0.55455(19) 0.20842(14) 0.1230(2)
H5 H 0.51450 0.26750 0.03050
H6 H -0.02000 -0.06280 -0.18670
#END
