
#######################################################################
#
#                 Cambridge Crystallographic Data Centre
#                                CCDC
#
#######################################################################
#
# If this CIF has been generated from an entry in the Cambridge
# Structural Database, then it will include bibliographic, chemical,
# crystal, experimental, refinement or atomic coordinate data resulting
# from the CCDC's data processing and validation procedures.
#
#######################################################################

data_CSD_CIF_DUGMUN02
_audit_creation_date 2013-07-17
_audit_creation_method CSD-ConQuest-V1
_database_code_CSD DUGMUN02
_database_code_depnum_ccdc_archive 'CCDC 887716'
_chemical_formula_sum 'C8 H6 N2 O1'
_chemical_formula_moiety
;
C8 H6 N2 O1
;
_journal_coden_Cambridge 1220
_journal_volume 19
_journal_year 2013
_journal_page_first 4223
_journal_name_full 'Chem.-Eur.J. '
loop_
_publ_author_name
"D.Scott Bohle"
"Zhijie Chua"
"I.Perepichka"
"K.Rosadiuk"
_chemical_name_systematic
;
(Z)-(Hydroxyimino)(phenyl)acetonitrile
;
_cell_volume    733.339
_exptl_crystal_colour 'colorless'
_exptl_crystal_density_diffrn 1.324
_exptl_crystal_description 'plate'
_diffrn_ambient_temperature 298
#These two values have been output from a single CSD field.
_refine_ls_R_factor_gt 0.0484
_refine_ls_wR_factor_gt 0.0484
loop_
_citation_database_id_CSD
_citation_special_details
RIJLUT "is a stereoisomer of this entry"
_symmetry_cell_setting monoclinic
_symmetry_space_group_name_H-M 'P 21/c'
_symmetry_Int_Tables_number 14
loop_
_symmetry_equiv_pos_site_id
_symmetry_equiv_pos_as_xyz
1 x,y,z
2 -x,1/2+y,1/2-z
3 -x,-y,-z
4 x,-1/2-y,-1/2+z
_cell_length_a 8.7912(15)
_cell_length_b 11.0548(18)
_cell_length_c 8.4454(14)
_cell_angle_alpha 90
_cell_angle_beta 116.686(2)
_cell_angle_gamma 90
_cell_formula_units_Z 4
loop_
_atom_type_symbol
_atom_type_radius_bond
C 0.68
H 0.23
N 0.68
O 0.68
loop_
_atom_site_label
_atom_site_type_symbol
_atom_site_fract_x
_atom_site_fract_y
_atom_site_fract_z
N1 N 0.14542(17) 0.28567(11) 0.7642(2)
N2 N 0.18443(15) 0.00776(10) 0.95505(16)
O1 O 0.02466(13) 0.01693(9) 0.81483(14)
H1 H -0.02890 -0.04530 0.80740
C1 C 0.44669(16) 0.11357(11) 1.11903(17)
C2 C 0.55203(18) 0.20726(12) 1.1231(2)
H2 H 0.51330 0.26490 1.03330
C3 C 0.7156(2) 0.21584(14) 1.2606(2)
H3 H 0.78560 0.27960 1.26320
C4 C 0.7741(2) 0.13121(16) 1.3920(2)
H4 H 0.88370 0.13720 1.48410
C5 C 0.6701(2) 0.03675(17) 1.3877(2)
H5 H 0.71050 -0.02140 1.47670
C6 C 0.5075(2) 0.02755(14) 1.2533(2)
H6 H 0.43800 -0.03620 1.25210
C7 C 0.27302(16) 0.10354(10) 0.97380(17)
C8 C 0.20193(17) 0.20465(11) 0.85492(19)
#END
