
#######################################################################
#
#                 Cambridge Crystallographic Data Centre
#                                CCDC
#
#######################################################################
#
# If this CIF has been generated from an entry in the Cambridge
# Structural Database, then it will include bibliographic, chemical,
# crystal, experimental, refinement or atomic coordinate data resulting
# from the CCDC's data processing and validation procedures.
#
#######################################################################

data_CSD_CIF_DUGXAE
_audit_creation_date 2000-11-28
_audit_creation_method CSD-ConQuest-V1
_database_code_CSD DUGXAE
_database_code_depnum_ccdc_archive 'CCDC 130253'
_chemical_formula_sum 'C19 H24 N2 O9'
_chemical_formula_moiety
;
C19 H24 N2 O9
;
_journal_coden_Cambridge 10
_journal_volume 83
_journal_year 2000
_journal_page_first 2452
_journal_name_full 'Helv.Chim.Acta '
loop_
_publ_author_name
"A.Schwogler"
"V.Gramlich"
"T.Carell"
_chemical_name_systematic
;
4,5-Dimethyl-2-nitro-N-(2',3',5'-tri-O-acetyl-\a-D-ribopyranosyl)benzenamine
;
_chemical_melting_point 422.15
_cell_volume   1040.790
_exptl_crystal_colour 'red'
_exptl_crystal_density_diffrn 1.354
_exptl_crystal_description 'prism'
_exptl_crystal_preparation 'water'
_diffrn_ambient_temperature ?
_diffrn_special_details
;
The study was carried out at room temperature,in the range 283-303K

;
#These two values have been output from a single CSD field.
_refine_ls_R_factor_gt 0.0362
_refine_ls_wR_factor_gt 0.0362
_symmetry_cell_setting monoclinic
_symmetry_space_group_name_H-M 'P 21'
_symmetry_Int_Tables_number 4
loop_
_symmetry_equiv_pos_site_id
_symmetry_equiv_pos_as_xyz
1 x,y,z
2 -x,1/2+y,-z
_cell_length_a 9.141(4)
_cell_length_b 8.148(5)
_cell_length_c 14.365(11)
_cell_angle_alpha 90
_cell_angle_beta 103.40(5)
_cell_angle_gamma 90
_cell_formula_units_Z 2
loop_
_atom_type_symbol
_atom_type_radius_bond
C 0.68
H 0.23
N 0.68
O 0.68
loop_
_atom_site_label
_atom_site_type_symbol
_atom_site_fract_x
_atom_site_fract_y
_atom_site_fract_z
O1 O 0.7450(2) 0.9999(2) 0.61436(15)
N1 N 0.9196(3) 1.1155(3) 0.7972(2)
H1 H 0.8729(3) 1.0233(3) 0.7714(2)
C1 C 1.0902(3) 0.9493(4) 0.9153(2)
C2 C 1.2116(4) 0.9404(5) 0.9947(2)
H2 H 1.2432(4) 0.8348(5) 1.0217(2)
C3 C 1.0395(3) 1.1016(4) 0.8737(2)
C4 C 1.1211(3) 1.2392(4) 0.9154(2)
H3 H 1.0923(3) 1.3452(4) 0.8881(2)
O2 O 0.9592(2) 1.3445(2) 0.70140(15)
O3 O 1.0764(3) 0.6660(3) 0.9142(2)
O4 O 0.6124(2) 1.1732(3) 0.74514(14)
O5 O 0.9073(3) 0.7956(3) 0.8129(2)
N2 N 1.0213(3) 0.7950(4) 0.8789(2)
C5 C 0.8132(3) 1.2534(4) 0.5506(2)
H4 H 0.7814(3) 1.3643(4) 0.5346(2)
O6 O 0.8116(2) 1.1629(3) 0.46372(15)
C6 C 0.6359(4) 0.8860(4) 0.5864(3)
C7 C 1.3194(4) 1.3853(5) 1.0335(3)
H5 H 1.2700(18) 1.4774(6) 0.9978(12)
H6 H 1.4221(9) 1.3812(14) 1.0283(17)
H7 H 1.3163(25) 1.3968(17) 1.0995(6)
C8 C 0.8293(4) 1.2475(5) 0.3873(3)
O7 O 0.5063(3) 0.9197(3) 0.5615(2)
C9 C 0.7015(3) 1.1708(4) 0.5976(2)
H8 H 0.6022(3) 1.1776(4) 0.5569(2)
C10 C 1.2864(4) 1.0757(5) 1.0347(2)
C11 C 0.7055(3) 1.2552(4) 0.6916(2)
H9 H 0.6666(3) 1.3641(4) 0.6777(2)
O8 O 0.4141(3) 1.3066(4) 0.6586(2)
C12 C 1.2403(4) 1.2291(4) 0.9939(2)
C13 C 0.8649(3) 1.2706(4) 0.7559(2)
H10 H 0.8600(3) 1.3436(4) 0.8075(2)
C14 C 0.9668(4) 1.2541(4) 0.6169(2)
H11 H 1.0375(4) 1.3047(4) 0.5858(2)
H12 H 0.9993(4) 1.1437(4) 0.6335(2)
C15 C 0.7020(5) 0.7171(4) 0.5922(3)
H13 H 0.6253(9) 0.6377(5) 0.5943(20)
H14 H 0.7812(22) 0.7080(12) 0.6490(11)
H15 H 0.7419(28) 0.6975(13) 0.537(1)
C16 C 1.4151(4) 1.0641(6) 1.1226(3)
H16 H 1.4364(23) 0.9508(6) 1.1385(13)
H17 H 1.3876(15) 1.1187(33) 1.1753(6)
H18 H 1.5028(11) 1.1156(34) 1.1097(8)
O9 O 0.8639(4) 1.3900(4) 0.3928(2)
C17 C 0.4650(4) 1.2087(5) 0.7186(3)
C18 C 0.8036(5) 1.1458(5) 0.3001(2)
H19 H 0.7684(28) 1.2139(7) 0.2449(3)
H20 H 0.7296(23) 1.0634(21) 0.3028(9)
H21 H 0.8961(9) 1.0938(26) 0.2958(10)
C19 C 0.3771(4) 1.1089(7) 0.7732(3)
H22 H 0.2716(4) 1.1237(31) 0.7463(15)
H23 H 0.4006(27) 1.1434(26) 0.8389(6)
H24 H 0.4025(25) 0.9951(7) 0.7697(18)
#END
