
#######################################################################
#
#                 Cambridge Crystallographic Data Centre
#                                CCDC
#
#######################################################################
#
# If this CIF has been generated from an entry in the Cambridge
# Structural Database, then it will include bibliographic, chemical,
# crystal, experimental, refinement or atomic coordinate data resulting
# from the CCDC's data processing and validation procedures.
#
#######################################################################

data_CSD_CIF_DUHPOL
_audit_creation_date 1987-06-02
_audit_creation_method CSD-ConQuest-V1
_database_code_CSD DUHPOL
_chemical_formula_sum 'C19 H15 N3 O7'
_chemical_formula_moiety
;
C19 H15 N3 O7
;
_journal_coden_Cambridge 154
_journal_volume 38
_journal_year 1985
_journal_page_first 1613
_journal_name_full 'Aust.J.Chem. '
loop_
_publ_author_name
"M.P.Hartshorn"
"R.J.Martyn"
"W.T.Robinson"
"K.H.Sutton"
"J.Vaughan"
"J.M.White"
_chemical_name_systematic
;
4-Methyl-r-4,c-5,c-6-trinitro-2,6-diphenylcyclohex-2-enone
;
_chemical_melting_point 394.15
_cell_volume   1856.102
_exptl_crystal_colour 'colorless'
_exptl_crystal_density_diffrn 1.42
_exptl_special_details
;
Melts with decomposition.

;
_diffrn_ambient_temperature ?
_diffrn_special_details
;
The study was carried out at room temperature,in the range 283-303K

;
#These two values have been output from a single CSD field.
_refine_ls_R_factor_gt 0.046
_refine_ls_wR_factor_gt 0.046
loop_
_citation_database_id_CSD
_citation_special_details
DUHPOM "is a stereoisomer of this entry"
_symmetry_cell_setting orthorhombic
_symmetry_space_group_name_H-M 'P n a 21'
_symmetry_Int_Tables_number 33
loop_
_symmetry_equiv_pos_site_id
_symmetry_equiv_pos_as_xyz
1 x,y,z
2 1/2-x,1/2+y,1/2+z
3 1/2+x,1/2-y,z
4 -x,-y,1/2+z
_cell_length_a 9.202(2)
_cell_length_b 14.736(2)
_cell_length_c 13.688(3)
_cell_angle_alpha 90
_cell_angle_beta 90
_cell_angle_gamma 90
_cell_formula_units_Z 4
loop_
_atom_type_symbol
_atom_type_radius_bond
C 0.68
H 0.23
N 0.68
O 0.68
loop_
_atom_site_label
_atom_site_type_symbol
_atom_site_fract_x
_atom_site_fract_y
_atom_site_fract_z
C1 C -0.0376(4) 0.5414(3) 0.3420(4)
C2 C -0.0712(4) 0.5006(3) 0.2442(3)
C3 C 0.0055(5) 0.5234(2) 0.1653(4)
C4 C 0.1339(4) 0.5853(3) 0.1641(3)
C5 C 0.1341(4) 0.6499(3) 0.2535(5)
C6 C 0.1051(4) 0.5974(3) 0.3485(3)
C7 C -0.1941(4) 0.4352(3) 0.2363(3)
C8 C -0.2979(5) 0.4480(3) 0.1646(4)
C9 C -0.4064(5) 0.3835(4) 0.1502(4)
C10 C -0.4093(6) 0.3066(4) 0.2058(4)
C11 C -0.3094(6) 0.2943(4) 0.2798(4)
C12 C -0.2018(5) 0.3590(3) 0.2952(4)
C13 C 0.2733(5) 0.5319(3) 0.1504(4)
C14 C 0.2354(4) 0.5395(3) 0.3782(3)
C15 C 0.2175(5) 0.4493(3) 0.4074(4)
C16 C 0.3403(5) 0.3992(3) 0.4318(4)
C17 C 0.4753(5) 0.4380(3) 0.4325(4)
C18 C 0.4928(5) 0.5265(3) 0.4060(4)
C19 C 0.3739(5) 0.5782(3) 0.3806(4)
N1 N 0.1219(4) 0.6475(2) 0.0741(3)
N2 N 0.0162(4) 0.7209(2) 0.2395(3)
N3 N 0.0903(4) 0.6678(2) 0.4323(3)
O1 O -0.1136(3) 0.5288(2) 0.4121(3)
O2 O 0.2338(4) 0.6846(2) 0.0460(3)
O3 O 0.0042(4) 0.6585(2) 0.0370(3)
O4 O 0.0503(4) 0.7909(2) 0.1979(3)
O5 O -0.1062(3) 0.7037(2) 0.2689(3)
O6 O 0.0644(4) 0.6405(2) 0.5123(3)
O7 O 0.1133(4) 0.7474(2) 0.4126(3)
H1 H 0.12280 0.42200 0.40430
H2 H -0.29530 0.50160 0.12470
H3 H 0.28660 0.49170 0.20480
H4 H 0.35410 0.57380 0.14670
H5 H 0.26760 0.49730 0.09120
H6 H -0.13250 0.35070 0.34690
H7 H 0.38630 0.64110 0.36450
H8 H 0.58820 0.55290 0.40510
H9 H 0.55820 0.40260 0.45160
H10 H 0.32950 0.33670 0.45020
H11 H -0.47810 0.39310 0.10100
H12 H -0.46130 0.23090 0.19330
H13 H -0.31420 0.24140 0.32050
H14 H 0.2222(37) 0.6834(21) 0.2529(26)
H15 H -0.0149(50) 0.4929(29) 0.1070(38)
#END
