
#######################################################################
#
#                 Cambridge Crystallographic Data Centre
#                                CCDC
#
#######################################################################
#
# If this CIF has been generated from an entry in the Cambridge
# Structural Database, then it will include bibliographic, chemical,
# crystal, experimental, refinement or atomic coordinate data resulting
# from the CCDC's data processing and validation procedures.
#
#######################################################################

data_CSD_CIF_DUHSUV
_audit_creation_date 2010-02-16
_audit_creation_method CSD-ConQuest-V1
_database_code_CSD DUHSUV
_database_code_depnum_ccdc_archive 'CCDC 756519'
_chemical_formula_sum 'C19 H19 N5 O2'
_chemical_formula_moiety
;
C19 H19 N5 O2
;
_journal_coden_Cambridge 95
_journal_year 2008
_journal_page_first 639
_journal_name_full 'Izv.Akad.Nauk SSSR,Ser.Khim.(Russ.)(Russ.Chem.Bull.) '
loop_
_publ_author_name
"E.V.Verbitsky"
"P.A.Slepukhin"
"G.L.Rusinov"
"V.N.Charushin"
_chemical_name_systematic
;
4-Ethyl-3,8a-dimethyl-7a-phenyl-3a,3b,4,7,7a,8a-hexahydro-1,8-dioxa-2,4,7-tria
zacyclopenta(a)indene-5,6-dicarbonitrile
;
_chemical_melting_point 442.15
_cell_volume    912.556
_exptl_crystal_colour 'yellow'
_exptl_crystal_density_diffrn 1.272
_exptl_special_details
;
Melts with decomposition.

;
_exptl_crystal_description 'prism'
_exptl_crystal_preparation 'methanol'
_diffrn_ambient_temperature 295
_refine_special_details
;
The terminal methyl moiety of the ethyl group is equally disordered over two 
sites.
;
#These two values have been output from a single CSD field.
_refine_ls_R_factor_gt 0.0369
_refine_ls_wR_factor_gt 0.0369
_symmetry_cell_setting triclinic
_symmetry_space_group_name_H-M 'P -1'
_symmetry_Int_Tables_number 2
loop_
_symmetry_equiv_pos_site_id
_symmetry_equiv_pos_as_xyz
1 x,y,z
2 -x,-y,-z
_cell_length_a 8.5904(7)
_cell_length_b 9.6357(6)
_cell_length_c 12.0390(8)
_cell_angle_alpha 87.846(5)
_cell_angle_beta 87.459(6)
_cell_angle_gamma 66.471(7)
_cell_formula_units_Z 2
loop_
_atom_type_symbol
_atom_type_radius_bond
C 0.68
H 0.23
N 0.68
O 0.68
loop_
_atom_site_label
_atom_site_type_symbol
_atom_site_fract_x
_atom_site_fract_y
_atom_site_fract_z
O1 O 0.24243(11) 0.92466(10) 0.39773(8)
N1 N 0.43277(15) 1.00915(13) 0.30513(11)
N2 N 0.55333(14) 0.74842(12) 0.17690(9)
C1 C 0.41500(16) 0.77521(15) 0.25568(11)
C2 C 0.59576(16) 0.86958(16) 0.15014(11)
C3 C 0.53207(17) 0.99746(15) 0.21051(12)
N3 N 0.05319(16) 0.73930(15) 0.26236(11)
C4 C 0.53410(16) 0.79303(14) 0.44163(11)
C5 C 0.70374(19) 0.85997(18) 0.05505(13)
C6 C 0.69673(18) 0.79064(17) 0.43849(13)
C7 C 0.40975(16) 0.87737(14) 0.35280(11)
O2 O 0.03778(15) 0.84356(14) 0.34647(9)
C8 C 0.15536(18) 0.74877(17) 0.18608(13)
C9 C 0.4908(2) 0.70757(17) 0.52230(13)
C10 C 0.23412(17) 0.85639(16) 0.21094(12)
C11 C 0.12859(17) 0.93556(16) 0.31157(12)
C12 C 0.55789(19) 1.12919(18) 0.17237(13)
N4 N 0.5772(2) 1.23499(18) 0.14192(14)
C13 C 0.6098(3) 0.61991(19) 0.59799(15)
N5 N 0.7930(2) 0.85037(19) -0.01994(13)
C14 C 0.8155(2) 0.70055(18) 0.51335(13)
C15 C 0.6621(2) 0.59446(18) 0.14361(15)
C16 C 0.7723(2) 0.61503(19) 0.59191(15)
C17 C 0.1960(3) 0.6515(3) 0.08718(17)
H1 H 0.11760 0.60330 0.08500
H2 H 0.30970 0.57570 0.09160
H3 H 0.18710 0.71250 0.02100
C18 C 0.0029(3) 1.0968(2) 0.2977(2)
H4 H 0.4226(15) 0.6833(15) 0.2888(10)
H5 H 0.2324(17) 0.9223(16) 0.1521(12)
H6 H 0.372(2) 0.7135(17) 0.5233(12)
H7 H 0.573(2) 0.566(2) 0.6582(15)
H8 H 0.410(2) 1.0812(19) 0.3470(12)
H9 H 0.857(2) 0.5542(19) 0.6434(14)
H10 H 0.7249(18) 0.8526(17) 0.3835(12)
H11 H 0.937(2) 0.7011(18) 0.5100(12)
H12 H 0.712(2) 0.599(2) 0.0695(16)
H13 H 0.583(2) 0.545(2) 0.1359(13)
C19 C 0.7904(11) 0.5104(10) 0.2407(5)
H14 H 0.86190 0.40940 0.21880
H15 H 0.72680 0.50620 0.30750
H16 H 0.85950 0.56520 0.25420
C20? C 0.8079(12) 0.5122(11) 0.2016(5)
H17? H 0.86650 0.41360 0.17080
H18? H 0.88090 0.56610 0.19690
H19? H 0.77680 0.50190 0.27810
H20 H -0.057(3) 1.129(2) 0.3620(16)
H21 H 0.068(3) 1.164(3) 0.273(2)
H22 H -0.077(3) 1.098(2) 0.2431(17)
#END
