
#######################################################################
#
#                 Cambridge Crystallographic Data Centre
#                                CCDC
#
#######################################################################
#
# If this CIF has been generated from an entry in the Cambridge
# Structural Database, then it will include bibliographic, chemical,
# crystal, experimental, refinement or atomic coordinate data resulting
# from the CCDC's data processing and validation procedures.
#
#######################################################################

data_CSD_CIF_DUHTUW
_audit_creation_date 2010-02-16
_audit_creation_method CSD-ConQuest-V1
_database_code_CSD DUHTUW
_database_code_depnum_ccdc_archive 'CCDC 756523'
_chemical_formula_sum 'C4 H8 N4 O4'
_chemical_formula_moiety
;
C4 H8 N4 O4
;
_journal_coden_Cambridge 95
_journal_year 2008
_journal_page_first 619
_journal_name_full 'Izv.Akad.Nauk SSSR,Ser.Khim.(Russ.)(Russ.Chem.Bull.) '
loop_
_publ_author_name
"I.N.Zyuzin"
"N.I.Golovina"
"D.B.Lempert"
"G.N.Nechiporenko"
"G.V.Shilov"
_chemical_name_systematic
;
1,1-bis(2-Methoxy-1-oxyldiazenyl)ethene
;
_chemical_melting_point 336.65
_cell_volume   1627.823
_exptl_crystal_density_diffrn 1.437
_exptl_special_details
;
Melting point range 336.65-337.95K

;
_exptl_crystal_preparation 'benzene'
_diffrn_ambient_temperature 295
#These two values have been output from a single CSD field.
_refine_ls_R_factor_gt 0.034
_refine_ls_wR_factor_gt 0.034
_symmetry_cell_setting orthorhombic
_symmetry_space_group_name_H-M 'P b c a'
_symmetry_Int_Tables_number 61
loop_
_symmetry_equiv_pos_site_id
_symmetry_equiv_pos_as_xyz
1 x,y,z
2 1/2-x,-y,1/2+z
3 -x,1/2+y,1/2-z
4 1/2+x,1/2-y,-z
5 -x,-y,-z
6 -1/2+x,y,-1/2-z
7 x,-1/2-y,-1/2+z
8 -1/2-x,-1/2+y,z
_cell_length_a 11.715(4)
_cell_length_b 16.088(4)
_cell_length_c 8.637(2)
_cell_angle_alpha 90
_cell_angle_beta 90
_cell_angle_gamma 90
_cell_formula_units_Z 8
loop_
_atom_type_symbol
_atom_type_radius_bond
C 0.68
H 0.23
N 0.68
O 0.68
loop_
_atom_site_label
_atom_site_type_symbol
_atom_site_fract_x
_atom_site_fract_y
_atom_site_fract_z
O1 O 0.23692(15) 0.02938(10) 0.2284(2)
N1 N 0.42353(16) 0.14444(10) 0.2069(2)
N2 N 0.34946(14) -0.04308(10) 0.0625(2)
N3 N 0.31657(14) 0.02267(10) 0.1316(2)
O2 O 0.27952(14) -0.10620(9) 0.1084(2)
O3 O 0.43442(18) 0.22173(9) 0.1902(2)
N4 N 0.45691(16) 0.10131(10) 0.3225(3)
O4 O 0.50339(16) 0.15412(9) 0.4280(2)
C1 C 0.37361(18) 0.09726(12) 0.0834(3)
C2 C 0.3730(2) 0.12387(14) -0.0587(4)
C3 C 0.5363(3) 0.10738(16) 0.5606(4)
C4 C 0.3077(2) -0.17952(15) 0.0208(4)
H1 H 0.40860 0.17590 -0.07980
H2 H 0.59120 0.06540 0.53920
H3 H 0.47640 0.07670 0.60900
H4 H 0.56980 0.14480 0.63290
H5 H 0.37780 -0.20470 0.05370
H6 H 0.34170 0.09250 -0.13510
H7 H 0.25110 -0.21940 0.04170
H8 H 0.31150 -0.16530 -0.09570
#END
