
#######################################################################
#
#                 Cambridge Crystallographic Data Centre
#                                CCDC
#
#######################################################################
#
# If this CIF has been generated from an entry in the Cambridge
# Structural Database, then it will include bibliographic, chemical,
# crystal, experimental, refinement or atomic coordinate data resulting
# from the CCDC's data processing and validation procedures.
#
#######################################################################

data_CSD_CIF_DUHYIP
_audit_creation_date 2010-02-16
_audit_creation_method CSD-ConQuest-V1
_database_code_CSD DUHYIP
_database_code_depnum_ccdc_archive 'CCDC 758256'
_chemical_formula_sum 'C5 H6 N2 O2'
_chemical_formula_moiety
;
C5 H6 N2 O2
;
_journal_coeditor_code "IUCr ZL2250"
_journal_coden_Cambridge 1370
_journal_volume 65
_journal_year 2009
_journal_page_first o3040
_journal_name_full 'Acta Crystallogr.,Sect.E:Struct.Rep.Online '
loop_
_publ_author_name
"J.L.Gratton"
"J.M.Knaust"
_chemical_name_systematic
;
2-Methylpyrazine 1,4-dioxide
;
_cell_volume   1070.015
_exptl_crystal_colour 'colorless'
_exptl_crystal_density_diffrn 1.566
_exptl_crystal_description 'rod'
_exptl_crystal_preparation 'water/acetone'
_diffrn_ambient_temperature 173
#These two values have been output from a single CSD field.
_refine_ls_R_factor_gt 0.0458
_refine_ls_wR_factor_gt 0.0458
_symmetry_cell_setting orthorhombic
_symmetry_space_group_name_H-M 'P b c a'
_symmetry_Int_Tables_number 61
loop_
_symmetry_equiv_pos_site_id
_symmetry_equiv_pos_as_xyz
1 x,y,z
2 1/2-x,-y,1/2+z
3 1/2+x,1/2-y,-z
4 -x,1/2+y,1/2-z
5 -x,-y,-z
6 -1/2+x,y,-1/2-z
7 -1/2-x,-1/2+y,z
8 x,-1/2-y,-1/2+z
_cell_length_a 6.3953(9)
_cell_length_b 12.2472(18)
_cell_length_c 13.6613(19)
_cell_angle_alpha 90
_cell_angle_beta 90
_cell_angle_gamma 90
_cell_formula_units_Z 8
loop_
_atom_type_symbol
_atom_type_radius_bond
C 0.68
H 0.23
N 0.68
O 0.68
loop_
_atom_site_label
_atom_site_type_symbol
_atom_site_fract_x
_atom_site_fract_y
_atom_site_fract_z
O1 O 0.33101(13) 0.64269(8) 0.41676(7)
O2 O 0.99921(14) 0.59296(8) 0.64921(7)
N1 N 0.49403(15) 0.63273(8) 0.47271(8)
N2 N 0.83721(15) 0.60672(9) 0.59294(8)
C1 C 0.47150(19) 0.62449(10) 0.57203(9)
H1 H 0.33860 0.62790 0.59950
C2 C 0.64141(19) 0.61132(10) 0.63137(9)
H2 H 0.62300 0.60550 0.69870
C3 C 0.86033(18) 0.61629(10) 0.49464(9)
H3 H 0.99400 0.61410 0.46790
C4 C 0.69092(18) 0.62919(10) 0.43327(9)
C5 C 0.7106(2) 0.63969(11) 0.32565(9)
H4 H 0.64390 0.70590 0.30460
H5 H 0.64480 0.57830 0.29460
H6 H 0.85590 0.64170 0.30800
#END
