
#######################################################################
#
#                 Cambridge Crystallographic Data Centre
#                                CCDC
#
#######################################################################
#
# If this CIF has been generated from an entry in the Cambridge
# Structural Database, then it will include bibliographic, chemical,
# crystal, experimental, refinement or atomic coordinate data resulting
# from the CCDC's data processing and validation procedures.
#
#######################################################################

data_CSD_CIF_DUMKUR
_audit_creation_date 1987-06-03
_audit_creation_method CSD-ConQuest-V1
_database_code_CSD DUMKUR
_chemical_formula_sum 'C31 H29 N1 O1'
_chemical_formula_moiety
;
C31 H29 N1 O1
;
_journal_coeditor_code "IUCr A26033"
_journal_coden_Cambridge 591
_journal_volume 42
_journal_year 1986
_journal_page_first 1230
_journal_name_full 'Acta Crystallogr.,Sect.C:Cryst.Struct.Commun. '
loop_
_publ_author_name
"P.G.Jones"
"M.R.Edwards"
"A.J.Kirby"
_chemical_name_systematic
;
4-Phenylcyclohexanone-oxime-O-triphenylmethyl ether
;
_chemical_melting_point 431
_cell_volume   2375.560
_exptl_crystal_colour 'pale yellow'
_exptl_crystal_density_diffrn 1.21
_exptl_special_details
;
Melts with decomposition.

;
_diffrn_ambient_temperature 233
#These two values have been output from a single CSD field.
_refine_ls_R_factor_gt 0.056
_refine_ls_wR_factor_gt 0.056
_symmetry_cell_setting monoclinic
_symmetry_space_group_name_H-M 'P 21/n'
_symmetry_Int_Tables_number 14
loop_
_symmetry_equiv_pos_site_id
_symmetry_equiv_pos_as_xyz
1 x,y,z
2 1/2-x,1/2+y,1/2-z
3 -x,-y,-z
4 -1/2+x,-1/2-y,-1/2+z
_cell_length_a 9.654(3)
_cell_length_b 23.949(8)
_cell_length_c 10.930(3)
_cell_angle_alpha 90
_cell_angle_beta 109.94(3)
_cell_angle_gamma 90
_cell_formula_units_Z 4
loop_
_atom_type_symbol
_atom_type_radius_bond
C 0.68
H 0.23
N 0.68
O 0.68
loop_
_atom_site_label
_atom_site_type_symbol
_atom_site_fract_x
_atom_site_fract_y
_atom_site_fract_z
C1 C 0.4951(2) 0.4938(1) 0.7465(2)
C2 C 0.4971(2) 0.5416(1) 0.6574(2)
C3 C 0.6543(2) 0.5572(1) 0.6675(2)
C4 C 0.7512(2) 0.5683(1) 0.8083(2)
C5 C 0.7521(2) 0.5171(1) 0.8918(2)
C6 C 0.5984(2) 0.4984(1) 0.8839(2)
C7 C 0.9060(2) 0.5861(1) 0.8215(2)
C8 C 1.0000(2) 0.5507(1) 0.7876(2)
C9 C 1.1426(2) 0.5666(1) 0.8026(2)
C10 C 1.1916(2) 0.6184(1) 0.8506(2)
C11 C 1.1009(3) 0.6539(1) 0.8850(2)
C12 C 0.9576(2) 0.6382(1) 0.8698(2)
N1 N 0.4042(1) 0.4544(1) 0.6969(1)
O1 O 0.4123(1) 0.4127(1) 0.7927(1)
C13 C 0.3162(2) 0.3658(1) 0.7355(1)
C14 C 0.3562(2) 0.3411(1) 0.6232(2)
C15 C 0.5042(2) 0.3381(1) 0.6356(2)
C16 C 0.5480(3) 0.3114(1) 0.5439(2)
C17 C 0.4461(3) 0.2866(1) 0.4371(2)
C18 C 0.2982(3) 0.2890(1) 0.4225(2)
C19 C 0.2544(2) 0.3161(1) 0.5155(2)
C20 C 0.3564(2) 0.3228(1) 0.8467(1)
C21 C 0.4210(2) 0.3385(1) 0.9753(2)
C22 C 0.4494(2) 0.2998(1) 1.0747(2)
C23 C 0.4133(2) 0.2445(1) 1.0469(2)
C24 C 0.3492(2) 0.2283(1) 0.9194(2)
C25 C 0.3206(2) 0.2670(1) 0.8201(2)
C26 C 0.1547(2) 0.3838(1) 0.7006(1)
C27 C 0.0821(2) 0.4129(1) 0.5857(2)
C28 C -0.0648(2) 0.4274(1) 0.5540(1)
C29 C -0.1420(2) 0.4138(1) 0.6347(2)
C30 C -0.0709(2) 0.3868(1) 0.7507(2)
C31 C 0.0758(2) 0.3723(1) 0.7825(2)
H1 H 0.44300 0.53100 0.56930
H2 H 0.45100 0.57350 0.68050
H3 H 0.65120 0.59020 0.61690
H4 H 0.69600 0.52700 0.63380
H5 H 0.70910 0.59930 0.83890
H6 H 0.80750 0.52590 0.98080
H7 H 0.79900 0.48690 0.86330
H8 H 0.55930 0.52510 0.92910
H9 H 0.60580 0.46260 0.92490
H10 H 0.96580 0.51450 0.75290
H11 H 1.20690 0.54140 0.77950
H12 H 1.29010 0.62980 0.86010
H13 H 1.13640 0.69000 0.91990
H14 H 0.89410 0.66380 0.89300
H15 H 0.57690 0.35500 0.70940
H16 H 0.65080 0.31000 0.55420
H17 H 0.47750 0.26790 0.37350
H18 H 0.22610 0.27190 0.34840
H19 H 0.15160 0.31770 0.50500
H20 H 0.44670 0.37700 0.99590
H21 H 0.49450 0.31160 1.16350
H22 H 0.43280 0.21760 1.11580
H23 H 0.32390 0.18980 0.89920
H24 H 0.27540 0.25510 0.73150
H25 H 0.13450 0.42290 0.52840
H26 H -0.11350 0.44710 0.47450
H27 H -0.24460 0.42310 0.61060
H28 H -0.12300 0.37820 0.80910
H29 H 0.12450 0.35370 0.86370
#END
