
#######################################################################
#
#                 Cambridge Crystallographic Data Centre
#                                CCDC
#
#######################################################################
#
# If this CIF has been generated from an entry in the Cambridge
# Structural Database, then it will include bibliographic, chemical,
# crystal, experimental, refinement or atomic coordinate data resulting
# from the CCDC's data processing and validation procedures.
#
#######################################################################

data_CSD_CIF_DUMPEG
_audit_creation_date 1987-06-03
_audit_creation_method CSD-ConQuest-V1
_database_code_CSD DUMPEG
_chemical_formula_sum 'C5 H8 N2 O7'
_chemical_formula_moiety
;
C5 H8 N2 O7
;
_journal_coeditor_code "IUCr A26008"
_journal_coden_Cambridge 591
_journal_volume 42
_journal_year 1986
_journal_page_first 1161
_journal_name_full 'Acta Crystallogr.,Sect.C:Cryst.Struct.Commun. '
loop_
_publ_author_name
"C.George"
"R.Gilardi"
_chemical_name_systematic
;
3,3-bis(Nitrato-methyl)-oxetane
;
_chemical_melting_point 363
_cell_volume    886.541
_exptl_crystal_density_diffrn 1.559
_exptl_special_details
;
Melting point range 363-365K

;
_diffrn_ambient_temperature ?
_diffrn_special_details
;
The study was carried out at room temperature,in the range 283-303K

;
#These two values have been output from a single CSD field.
_refine_ls_R_factor_gt 0.051
_refine_ls_wR_factor_gt 0.051
_symmetry_cell_setting monoclinic
_symmetry_space_group_name_H-M 'C 2/c'
_symmetry_Int_Tables_number 15
loop_
_symmetry_equiv_pos_site_id
_symmetry_equiv_pos_as_xyz
1 x,y,z
2 1/2+x,1/2+y,z
3 -x,y,1/2-z
4 1/2-x,1/2+y,1/2-z
5 -x,-y,-z
6 -1/2-x,-1/2-y,-z
7 x,-y,-1/2+z
8 -1/2+x,-1/2-y,-1/2+z
_cell_length_a 15.120(4)
_cell_length_b 6.163(1)
_cell_length_c 12.958(4)
_cell_angle_alpha 90
_cell_angle_beta 132.76(2)
_cell_angle_gamma 90
_cell_formula_units_Z 4
loop_
_atom_type_symbol
_atom_type_radius_bond
C 0.68
H 0.23
N 0.68
O 0.68
loop_
_atom_site_label
_atom_site_type_symbol
_atom_site_fract_x
_atom_site_fract_y
_atom_site_fract_z
O1 O 0.00000 0.5429(3) 0.25000
C1 C 0.0869(2) 0.3806(3) 0.3470(2)
C2 C 0.00000 0.1964(3) 0.25000
C3 C 0.0361(1) 0.0595(3) 0.1868(2)
O2 O 0.1491(1) -0.0401(2) 0.3073(1)
N1 N 0.1910(2) -0.1947(3) 0.2717(2)
O3 O 0.1349(2) -0.2334(4) 0.1519(2)
O4 O 0.2846(1) -0.2705(3) 0.3741(2)
H1 H 0.10920 0.38350 0.43570
H2 H 0.15830 0.38350 0.36110
H3 H -0.01650 -0.04560 0.13320
H4 H 0.04590 0.15120 0.13480
C1B C -0.0869(2) 0.3806(3) 0.1530(2)
C3B C -0.0361(1) 0.0595(3) 0.3132(2)
H1B H -0.10920 0.38350 0.06430
H2B H -0.15830 0.38350 0.13890
O2B O -0.1491(1) -0.0401(2) 0.1927(1)
H3B H 0.01650 -0.04560 0.36680
H4B H -0.04590 0.15120 0.36520
N1B N -0.1910(2) -0.1947(3) 0.2283(2)
O3B O -0.1349(2) -0.2334(4) 0.3481(2)
O4B O -0.2846(1) -0.2705(3) 0.1259(2)
#END
