
#######################################################################
#
#                 Cambridge Crystallographic Data Centre
#                                CCDC
#
#######################################################################
#
# If this CIF has been generated from an entry in the Cambridge
# Structural Database, then it will include bibliographic, chemical,
# crystal, experimental, refinement or atomic coordinate data resulting
# from the CCDC's data processing and validation procedures.
#
#######################################################################

data_CSD_CIF_DUNXIU
_audit_creation_date 2010-05-14
_audit_creation_method CSD-ConQuest-V1
_database_code_CSD DUNXIU
_database_code_depnum_ccdc_archive 'CCDC 765184'
_chemical_formula_sum 'C20 H18 N6 O8'
_chemical_formula_moiety
;
C20 H18 N6 O8
;
_journal_coeditor_code "IUCr IS2514"
_journal_coden_Cambridge 1370
_journal_volume 66
_journal_year 2010
_journal_page_first o430
_journal_name_full 'Acta Crystallogr.,Sect.E:Struct.Rep.Online '
loop_
_publ_author_name
"A.Baouid"
"A.Boudina"
"E.H.Soumhi"
_chemical_name_systematic
;
Diethyl 1,4-bis(4-nitrophenyl)-1,4-dihydro-1,2,4,5-tetrazine-3,6-dicarboxylate
;
_chemical_melting_point 492.15
_cell_volume   2197.687
_exptl_crystal_colour 'colorless'
_exptl_crystal_density_diffrn 1.422
_exptl_special_details
;
Melting point range 492.15-493.15K

;
_exptl_crystal_description 'prism'
_exptl_crystal_preparation 'ethanol'
_diffrn_ambient_temperature 300
#These two values have been output from a single CSD field.
_refine_ls_R_factor_gt 0.053
_refine_ls_wR_factor_gt 0.053
_symmetry_cell_setting monoclinic
_symmetry_space_group_name_H-M 'C 2/c'
_symmetry_Int_Tables_number 15
loop_
_symmetry_equiv_pos_site_id
_symmetry_equiv_pos_as_xyz
1 x,y,z
2 -x,y,1/2-z
3 1/2+x,1/2+y,z
4 1/2-x,1/2+y,1/2-z
5 -x,-y,-z
6 x,-y,-1/2+z
7 -1/2-x,-1/2-y,-z
8 -1/2+x,-1/2-y,-1/2+z
_cell_length_a 20.739(4)
_cell_length_b 7.487(2)
_cell_length_c 14.587(3)
_cell_angle_alpha 90
_cell_angle_beta 104.00(2)
_cell_angle_gamma 90
_cell_formula_units_Z 4
loop_
_atom_type_symbol
_atom_type_radius_bond
C 0.68
H 0.23
N 0.68
O 0.68
loop_
_atom_site_label
_atom_site_type_symbol
_atom_site_fract_x
_atom_site_fract_y
_atom_site_fract_z
O1 O 0.32809(17) 0.4483(5) 0.63327(19)
O2 O 0.41693(14) 0.3584(4) 0.72174(17)
O3 O 0.32302(9) 0.0896(4) 0.16616(14)
O4 O 0.37172(7) -0.0126(3) 0.31106(12)
N1 N 0.38276(16) 0.3893(3) 0.6442(2)
N2 N 0.47726(9) 0.2300(3) 0.32241(12)
N3 N 0.54350(8) 0.1630(3) 0.33902(12)
C1 C 0.40750(14) 0.3493(3) 0.55998(17)
C2 C 0.36884(14) 0.3910(4) 0.4717(2)
H1 H 0.32730 0.44300 0.46530
C3 C 0.39257(13) 0.3545(3) 0.39242(18)
H2 H 0.36780 0.38560 0.33250
C4 C 0.45413(11) 0.2706(3) 0.40419(15)
C5 C 0.49295(12) 0.2332(3) 0.49362(16)
H3 H 0.53460 0.18110 0.50080
C6 C 0.46928(13) 0.2741(4) 0.57236(17)
H4 H 0.49500 0.25070 0.63280
C7 C 0.43585(10) 0.1682(3) 0.23753(15)
C8 C 0.36944(12) 0.0780(4) 0.23316(18)
C9 C 0.30977(13) -0.0998(5) 0.3205(2)
H5 H 0.30330 -0.21110 0.28540
H6 H 0.27200 -0.02270 0.29540
C10 C 0.31545(15) -0.1344(5) 0.4218(2)
H7 H 0.27490 -0.18640 0.42990
H8 H 0.32360 -0.02410 0.45620
H9 H 0.35160 -0.21530 0.44530
O1A O 0.67191(17) 0.4483(5) -0.13327(19)
O2A O 0.58307(14) 0.3584(4) -0.22174(17)
O3A O 0.67698(9) 0.0896(4) 0.33384(14)
O4A O 0.62828(7) -0.0126(3) 0.18894(12)
N1A N 0.61724(16) 0.3893(3) -0.1442(2)
N2A N 0.52274(9) 0.2300(3) 0.17759(12)
N3A N 0.45650(8) 0.1630(3) 0.16098(12)
C1A C 0.59250(14) 0.3493(3) -0.05998(17)
C2A C 0.63116(14) 0.3910(4) 0.0283(2)
H1A H 0.67270 0.44300 0.03470
C3A C 0.60743(13) 0.3545(3) 0.10758(18)
H2A H 0.63220 0.38560 0.16750
C4A C 0.54587(11) 0.2706(3) 0.09581(15)
C5A C 0.50705(12) 0.2332(3) 0.00638(16)
H3A H 0.46540 0.18110 -0.00080
C6A C 0.53072(13) 0.2741(4) -0.07236(17)
H4A H 0.50500 0.25070 -0.13280
C7A C 0.56415(10) 0.1682(3) 0.26247(15)
C8A C 0.63056(12) 0.0780(4) 0.26684(18)
C9A C 0.69023(13) -0.0998(5) 0.1795(2)
H5A H 0.69670 -0.21110 0.21460
H6A H 0.72800 -0.02270 0.20460
C10A C 0.68455(15) -0.1344(5) 0.0782(2)
H7A H 0.72510 -0.18640 0.07010
H8A H 0.67640 -0.02410 0.04380
H9A H 0.64840 -0.21530 0.05470
#END
