
#######################################################################
#
#                 Cambridge Crystallographic Data Centre
#                                CCDC
#
#######################################################################
#
# If this CIF has been generated from an entry in the Cambridge
# Structural Database, then it will include bibliographic, chemical,
# crystal, experimental, refinement or atomic coordinate data resulting
# from the CCDC's data processing and validation procedures.
#
#######################################################################

data_CSD_CIF_DUNXAM
_audit_creation_date 2010-05-13
_audit_creation_method CSD-ConQuest-V1
_database_code_CSD DUNXAM
_database_code_depnum_ccdc_archive 'CCDC 765182'
_chemical_formula_sum 'C15 H18 N3 O2'
_chemical_formula_moiety
;
C15 H18 N3 O2
;
_journal_coeditor_code "IUCr FL2283"
_journal_coden_Cambridge 1370
_journal_volume 66
_journal_year 2010
_journal_page_first o428
_journal_name_full 'Acta Crystallogr.,Sect.E:Struct.Rep.Online '
loop_
_publ_author_name
"Hai-Bo Wang"
"Lin-Lin Jing"
"Ru Jiang"
"Peng Liu"
"Xiao-Li Sun"
_chemical_name_systematic
;
2-(1H-Indol-3-yl)-4,4,5,5-tetramethyl-4,5-dihydro-1H-imidazole-1,3-diol
;
_chemical_name_common
;
2-(1H-Indol-3-yl)-4,4,5,5-tetramethylimidazolidine-1-oxyl 3-oxide
;
_cell_volume   1403.388
_exptl_crystal_colour 'blue'
_exptl_crystal_density_diffrn 1.289
_exptl_special_details
;
Pca21 polymorph

;
_exptl_crystal_description 'block'
_exptl_crystal_preparation 'n-heptane/dichloromethane'
_diffrn_ambient_temperature 296
#These two values have been output from a single CSD field.
_refine_ls_R_factor_gt 0.025
_refine_ls_wR_factor_gt 0.025
_symmetry_cell_setting orthorhombic
_symmetry_space_group_name_H-M 'P c a 21'
_symmetry_Int_Tables_number 29
loop_
_symmetry_equiv_pos_site_id
_symmetry_equiv_pos_as_xyz
1 x,y,z
2 -x,-y,1/2+z
3 1/2+x,-y,z
4 1/2-x,y,1/2+z
_cell_length_a 15.0810(15)
_cell_length_b 8.7700(8)
_cell_length_c 10.6108(10)
_cell_angle_alpha 90
_cell_angle_beta 90
_cell_angle_gamma 90
_cell_formula_units_Z 4
loop_
_atom_type_symbol
_atom_type_radius_bond
C 0.68
H 0.23
N 0.68
O 0.68
loop_
_atom_site_label
_atom_site_type_symbol
_atom_site_fract_x
_atom_site_fract_y
_atom_site_fract_z
N1 N -0.01319(14) 1.0261(2) 0.9413(2)
H1 H -0.00870 1.09280 1.00040
N2 N 0.11909(10) 0.60749(18) 0.83997(15)
N3 N 0.05128(10) 0.62465(17) 0.65920(15)
O1 O 0.14925(11) 0.64081(18) 0.94892(14)
O2 O 0.01465(11) 0.68277(17) 0.56075(14)
C1 C -0.08282(15) 1.0156(2) 0.8579(2)
C2 C -0.16017(18) 1.1028(3) 0.8506(3)
H2 H -0.17070 1.18250 0.90640
C3 C -0.21965(16) 1.0666(3) 0.7587(4)
H3 H -0.27150 1.12340 0.75160
C4 C -0.20480(15) 0.9465(3) 0.6750(3)
H4 H -0.24630 0.92550 0.61260
C5 C -0.12892(14) 0.8583(2) 0.6839(2)
H5 H -0.12010 0.77690 0.62920
C6 C -0.06560(13) 0.8930(2) 0.7760(2)
C7 C 0.01895(13) 0.8304(2) 0.81520(18)
C8 C 0.04679(15) 0.9165(2) 0.9167(2)
H6 H 0.09910 0.90100 0.96140
C9 C 0.06218(12) 0.6932(2) 0.77161(18)
C10 C 0.15347(12) 0.4734(2) 0.76668(19)
C11 C 0.24518(16) 0.5183(2) 0.7176(2)
H7 H 0.23950 0.60180 0.65970
H8 H 0.27150 0.43280 0.67520
H9 H 0.28210 0.54830 0.78700
C12 C 0.15962(15) 0.3356(2) 0.8531(2)
H10 H 0.20430 0.35320 0.91580
H11 H 0.17490 0.24710 0.80450
H12 H 0.10350 0.31950 0.89360
C13 C 0.08199(13) 0.4624(2) 0.66190(19)
C14 C 0.00154(14) 0.3668(2) 0.6989(2)
H13 H -0.01830 0.39650 0.78130
H14 H 0.01760 0.26090 0.69970
H15 H -0.04530 0.38290 0.63910
C15 C 0.11578(16) 0.4160(3) 0.5331(2)
H16 H 0.06740 0.41500 0.47430
H17 H 0.14150 0.31610 0.53790
H18 H 0.15980 0.48760 0.50540
#END
