
#######################################################################
#
#                 Cambridge Crystallographic Data Centre
#                                CCDC
#
#######################################################################
#
# If this CIF has been generated from an entry in the Cambridge
# Structural Database, then it will include bibliographic, chemical,
# crystal, experimental, refinement or atomic coordinate data resulting
# from the CCDC's data processing and validation procedures.
#
#######################################################################

data_CSD_CIF_DUPHIF
_audit_creation_date 1987-06-30
_audit_creation_method CSD-ConQuest-V1
_database_code_CSD DUPHIF
_database_code_depnum_ccdc_archive 'CCDC 1146725'
_chemical_formula_sum 'C6 H13 N3 O2'
_chemical_formula_moiety
;
C6 H13 N3 O2
;
_journal_coeditor_code "IUCr A26094"
_journal_coden_Cambridge 591
_journal_volume 42
_journal_year 1986
_journal_page_first 1385
_journal_name_full 'Acta Crystallogr.,Sect.C:Cryst.Struct.Commun. '
loop_
_publ_author_name
"F.Ganazzoli"
"S.V.Meille"
"P.Gronchi"
_chemical_name_systematic
;
1,1-bis(Dimethylamino)-2-nitroethylene
;
_cell_volume    837.434
_exptl_crystal_colour 'pale yellow'
_exptl_crystal_density_diffrn 1.263
_diffrn_ambient_temperature ?
_diffrn_special_details
;
The study was carried out at room temperature,in the range 283-303K

;
#These two values have been output from a single CSD field.
_refine_ls_R_factor_gt 0.0621
_refine_ls_wR_factor_gt 0.0621
_symmetry_cell_setting monoclinic
_symmetry_space_group_name_H-M 'P 21/n'
_symmetry_Int_Tables_number 14
loop_
_symmetry_equiv_pos_site_id
_symmetry_equiv_pos_as_xyz
1 x,y,z
2 1/2-x,1/2+y,1/2-z
3 -x,-y,-z
4 -1/2+x,-1/2-y,-1/2+z
_cell_length_a 5.281(1)
_cell_length_b 13.939(2)
_cell_length_c 11.510(2)
_cell_angle_alpha 90
_cell_angle_beta 98.74(3)
_cell_angle_gamma 90
_cell_formula_units_Z 4
loop_
_atom_type_symbol
_atom_type_radius_bond
C 0.68
H 0.23
N 0.68
O 0.68
loop_
_atom_site_label
_atom_site_type_symbol
_atom_site_fract_x
_atom_site_fract_y
_atom_site_fract_z
C1 C 0.0698(7) 0.5387(2) 0.8517(3)
C2 C -0.0028(6) 0.4500(2) 0.7988(3)
C3 C -0.3771(8) 0.5097(3) 0.6680(4)
C4 C -0.1449(9) 0.3689(3) 0.6107(4)
C5 C 0.3339(7) 0.3691(3) 0.9328(4)
C6 C -0.0512(8) 0.2796(3) 0.8485(4)
N1 N 0.0903(6) 0.6223(2) 0.7913(3)
N2 N -0.1727(6) 0.4411(2) 0.7002(2)
N3 N 0.0963(6) 0.3692(2) 0.8521(2)
O1 O 0.0548(5) 0.6253(2) 0.6817(2)
O2 O 0.1448(6) 0.6975(2) 0.8501(3)
H1 H 0.13800 0.53920 0.94030
H2 H -0.39550 0.54680 0.72510
H3 H -0.35410 0.54920 0.60090
H4 H -0.50290 0.48740 0.64670
H5 H 0.01690 0.33470 0.63110
H6 H -0.28020 0.32390 0.59620
H7 H -0.19870 0.40460 0.52510
H8 H 0.44630 0.40450 0.91760
H9 H 0.32960 0.37370 0.99670
H10 H 0.43670 0.32390 0.92120
H11 H -0.05010 0.25650 0.91430
H12 H 0.03160 0.22830 0.82680
H13 H -0.22380 0.28050 0.81020
#END
