
#######################################################################
#
#                 Cambridge Crystallographic Data Centre
#                                CCDC
#
#######################################################################
#
# If this CIF has been generated from an entry in the Cambridge
# Structural Database, then it will include bibliographic, chemical,
# crystal, experimental, refinement or atomic coordinate data resulting
# from the CCDC's data processing and validation procedures.
#
#######################################################################

data_CSD_CIF_DUPHOL
_audit_creation_date 1987-06-30
_audit_creation_method CSD-ConQuest-V1
_database_code_CSD DUPHOL
_chemical_formula_sum 'C5 H8 N2 O6'
_chemical_formula_moiety
;
C5 H8 N2 O6
;
_journal_coeditor_code "IUCr A26091"
_journal_coden_Cambridge 591
_journal_volume 42
_journal_year 1986
_journal_page_first 1378
_journal_name_full 'Acta Crystallogr.,Sect.C:Cryst.Struct.Commun. '
loop_
_publ_author_name
"S.M.Prasad"
"H.L.Ammon"
"D.M.Barnhart"
_chemical_name_systematic
;
4,4-Dinitropentanoic acid
;
_cell_volume    802.735
_exptl_crystal_density_diffrn 1.589
_diffrn_ambient_temperature ?
_diffrn_special_details
;
The study was carried out at room temperature,in the range 283-303K

;
#These two values have been output from a single CSD field.
_refine_ls_R_factor_gt 0.041
_refine_ls_wR_factor_gt 0.041
_symmetry_cell_setting monoclinic
_symmetry_space_group_name_H-M 'P 21/n'
_symmetry_Int_Tables_number 14
loop_
_symmetry_equiv_pos_site_id
_symmetry_equiv_pos_as_xyz
1 x,y,z
2 1/2-x,1/2+y,1/2-z
3 -x,-y,-z
4 -1/2+x,-1/2-y,-1/2+z
_cell_length_a 9.625(5)
_cell_length_b 9.879(3)
_cell_length_c 9.875(4)
_cell_angle_alpha 90
_cell_angle_beta 121.25(4)
_cell_angle_gamma 90
_cell_formula_units_Z 4
loop_
_atom_type_symbol
_atom_type_radius_bond
C 0.68
H 0.23
N 0.68
O 0.68
loop_
_atom_site_label
_atom_site_type_symbol
_atom_site_fract_x
_atom_site_fract_y
_atom_site_fract_z
C1 C 0.0129(2) -0.3457(2) 0.3866(2)
C2 C 0.0110(2) -0.2246(2) 0.2934(2)
C3 C 0.1366(3) -0.1201(2) 0.4001(2)
C4 C 0.1266(2) 0.0134(2) 0.3189(2)
C5 C -0.0356(3) 0.0837(2) 0.2328(3)
O1 O 0.0924(2) -0.3525(1) 0.5304(2)
O2 O -0.0825(2) -0.4435(1) 0.2952(2)
O3 O 0.2586(2) -0.1057(2) 0.2090(2)
O4 O 0.1660(2) 0.0930(2) 0.1167(2)
O5 O 0.2103(2) 0.1560(2) 0.5370(2)
O6 O 0.3839(2) 0.1221(2) 0.4644(2)
N1 N 0.1906(2) -0.0017(2) 0.2057(2)
N2 N 0.2521(2) 0.1066(2) 0.4506(2)
H1 H -0.074(3) -0.516(3) 0.368(3)
H2 H 0.027(2) -0.255(2) 0.208(2)
H3 H -0.099(2) -0.191(2) 0.242(2)
H4 H 0.117(3) -0.096(2) 0.489(3)
H5 H 0.251(3) -0.156(2) 0.453(3)
H6 H -0.118(2) 0.030(2) 0.135(2)
H7 H -0.078(3) 0.089(2) 0.302(3)
H8 H -0.021(3) 0.175(3) 0.203(3)
#END
