
#######################################################################
#
#                 Cambridge Crystallographic Data Centre
#                                CCDC
#
#######################################################################
#
# If this CIF has been generated from an entry in the Cambridge
# Structural Database, then it will include bibliographic, chemical,
# crystal, experimental, refinement or atomic coordinate data resulting
# from the CCDC's data processing and validation procedures.
#
#######################################################################

data_CSD_CIF_DUPJED
_audit_creation_date 1987-06-30
_audit_creation_method CSD-ConQuest-V1
_database_code_CSD DUPJED
_database_code_depnum_ccdc_archive 'CCDC 1146729'
_chemical_formula_sum 'C15 H15 N1 O4'
_chemical_formula_moiety
;
C15 H15 N1 O4
;
_journal_coeditor_code "IUCr A26086"
_journal_coden_Cambridge 591
_journal_volume 42
_journal_year 1986
_journal_page_first 1365
_journal_name_full 'Acta Crystallogr.,Sect.C:Cryst.Struct.Commun. '
loop_
_publ_author_name
"P.G.Jones"
"M.R.Edwards"
"A.J.Kirby"
_chemical_name_systematic
;
1-(4-Methoxy)phenylethyl 4-nitrophenyl ether
;
_chemical_melting_point 335
_cell_volume   1389.579
_exptl_crystal_colour 'colorless'
_exptl_crystal_density_diffrn 1.31
_exptl_special_details
;
Melting point range 335-336K

;
_diffrn_ambient_temperature ?
_diffrn_special_details
;
The study was carried out at room temperature,in the range 283-303K

;
#These two values have been output from a single CSD field.
_refine_ls_R_factor_gt 0.052
_refine_ls_wR_factor_gt 0.052
_symmetry_cell_setting monoclinic
_symmetry_space_group_name_H-M 'P 21/n'
_symmetry_Int_Tables_number 14
loop_
_symmetry_equiv_pos_site_id
_symmetry_equiv_pos_as_xyz
1 x,y,z
2 1/2-x,1/2+y,1/2-z
3 -x,-y,-z
4 -1/2+x,-1/2-y,-1/2+z
_cell_length_a 6.548(1)
_cell_length_b 7.898(1)
_cell_length_c 26.947(5)
_cell_angle_alpha 90
_cell_angle_beta 94.35(2)
_cell_angle_gamma 90
_cell_formula_units_Z 4
loop_
_atom_type_symbol
_atom_type_radius_bond
C 0.68
H 0.23
N 0.68
O 0.68
loop_
_atom_site_label
_atom_site_type_symbol
_atom_site_fract_x
_atom_site_fract_y
_atom_site_fract_z
O1 O 0.8015(2) 0.3087(2) 0.1043(1)
C1 C 0.7496(3) 0.1372(3) 0.1176(1)
C2 C 0.9500(4) 0.0417(4) 0.1194(1)
C3 C 0.6509(3) 0.4169(3) 0.0869(1)
C4 C 0.7143(4) 0.5817(3) 0.0805(1)
C5 C 0.5826(4) 0.7010(3) 0.0604(1)
C6 C 0.3823(4) 0.6533(3) 0.0474(1)
C7 C 0.3143(3) 0.4928(3) 0.0534(1)
C8 C 0.4488(3) 0.3718(3) 0.0736(1)
N1 N 0.2417(4) 0.7828(3) 0.0253(1)
O2 O 0.0675(3) 0.7399(3) 0.0115(1)
O3 O 0.3033(2) 0.9279(3) 0.0221(1)
C9 C 0.6507(3) 0.1363(3) 0.1665(1)
C10 C 0.4862(3) 0.0349(3) 0.1739(1)
C11 C 0.3969(3) 0.0309(3) 0.2190(1)
C12 C 0.4750(3) 0.1329(3) 0.2575(1)
C13 C 0.6413(4) 0.2338(3) 0.2506(1)
C14 C 0.7284(4) 0.2361(3) 0.2060(1)
O4 O 0.3968(3) 0.1427(2) 0.3032(1)
C15 C 0.2150(4) 0.0506(4) 0.3104(1)
H1 H 0.65120 0.08490 0.09420
H2 H 0.93170 -0.07460 0.12840
H3 H 1.04670 0.09420 0.14320
H4 H 1.00040 0.04750 0.08690
H5 H 0.85310 0.61270 0.09050
H6 H 0.62830 0.81480 0.05530
H7 H 0.17460 0.46350 0.04380
H8 H 0.40350 0.25780 0.07840
H9 H 0.43100 -0.03540 0.14710
H10 H 0.28230 -0.04210 0.22340
H11 H 0.69740 0.30360 0.27750
H12 H 0.84450 0.30760 0.20190
H13 H 0.18060 0.08810 0.34260
H14 H 0.23860 -0.06940 0.31120
H15 H 0.10410 0.07600 0.28620
#END
