
#######################################################################
#
#                 Cambridge Crystallographic Data Centre
#                                CCDC
#
#######################################################################
#
# If this CIF has been generated from an entry in the Cambridge
# Structural Database, then it will include bibliographic, chemical,
# crystal, experimental, refinement or atomic coordinate data resulting
# from the CCDC's data processing and validation procedures.
#
#######################################################################

data_CSD_CIF_DUPJUV
_audit_creation_date 2015-07-22
_audit_creation_method CSD-ConQuest-V1
_database_code_CSD DUPJUV
_database_code_depnum_ccdc_archive 'CCDC 1058947'
_chemical_formula_sum 'C9 H7 N3 O3'
_chemical_formula_moiety
;
C9 H7 N3 O3
;
_journal_coden_Cambridge 1500
_journal_volume 5
_journal_year 2015
_journal_page_first 61752
_journal_name_full 'RSC Advances '
loop_
_publ_author_name
"Fengjuan Zhu"
"Minming Zou"
"Xusheng Shao"
"Zhong Li"
_chemical_name_systematic
;
2-(nitromethyl)-5-phenyl-1,3,4-oxadiazole
;
_cell_volume    456.325
_exptl_crystal_colour 'colorless'
_exptl_crystal_density_diffrn 1.493
_exptl_crystal_description 'prismatic'
_diffrn_ambient_temperature 293
#These two values have been output from a single CSD field.
_refine_ls_R_factor_gt 0.0405
_refine_ls_wR_factor_gt 0.0405
_symmetry_cell_setting triclinic
_symmetry_space_group_name_H-M 'P -1'
_symmetry_Int_Tables_number 2
loop_
_symmetry_equiv_pos_site_id
_symmetry_equiv_pos_as_xyz
1 x,y,z
2 -x,-y,-z
_cell_length_a 6.0311(9)
_cell_length_b 8.0981(13)
_cell_length_c 9.9218(16)
_cell_angle_alpha 90.914(3)
_cell_angle_beta 93.410(3)
_cell_angle_gamma 109.261(3)
_cell_formula_units_Z 2
loop_
_atom_type_symbol
_atom_type_radius_bond
C 0.68
H 0.23
N 0.68
O 0.68
loop_
_atom_site_label
_atom_site_type_symbol
_atom_site_fract_x
_atom_site_fract_y
_atom_site_fract_z
N1 N -0.2133(2) 0.57232(17) 0.81569(12)
N2 N -0.1216(2) 0.51543(17) 0.70376(12)
N3 N 0.3771(2) 0.72214(17) 0.55514(12)
O1 O 0.17303(15) 0.67679(12) 0.84025(9)
O2 O 0.5667(2) 0.74516(17) 0.50932(13)
O3 O 0.2588(3) 0.81578(18) 0.53856(15)
C1 C 0.1018(2) 0.57930(18) 0.72285(13)
C2 C -0.0349(2) 0.66594(18) 0.89246(13)
C3 C -0.0305(2) 0.75525(17) 1.02169(13)
C4 C 0.1803(3) 0.8565(2) 1.08763(15)
H1 H 0.32160 0.86940 1.04910
C5 C 0.1807(3) 0.9383(2) 1.21068(17)
H2 H 0.32280 1.00530 1.25520
C6 C -0.0277(3) 0.9216(2) 1.26818(16)
H3 H -0.02650 0.97810 1.35070
C7 C -0.2372(3) 0.8211(2) 1.20275(16)
H4 H -0.37800 0.80910 1.24150
C8 C -0.2402(3) 0.7379(2) 1.08025(15)
H5 H -0.38280 0.67010 1.03660
C9 C 0.2821(2) 0.56169(19) 0.63538(14)
H6 H 0.21390 0.46040 0.57430
H7 H 0.40970 0.54340 0.69050
#END
