
#######################################################################
#
#                 Cambridge Crystallographic Data Centre
#                                CCDC
#
#######################################################################
#
# If this CIF has been generated from an entry in the Cambridge
# Structural Database, then it will include bibliographic, chemical,
# crystal, experimental, refinement or atomic coordinate data resulting
# from the CCDC's data processing and validation procedures.
#
#######################################################################

data_CSD_CIF_DUPJII
_audit_creation_date 2010-03-19
_audit_creation_method CSD-ConQuest-V1
_database_code_CSD DUPJII
_database_code_depnum_ccdc_archive 'CCDC 765224'
_chemical_formula_sum 'C11 H13 N1 O5'
_chemical_formula_moiety
;
C11 H13 N1 O5
;
_journal_coeditor_code "IUCr BG2323"
_journal_coden_Cambridge 1370
_journal_volume 66
_journal_year 2010
_journal_page_first o481
_journal_name_full 'Acta Crystallogr.,Sect.E:Struct.Rep.Online '
loop_
_publ_author_name
"Hongxiang Yang"
_chemical_name_systematic
;
4-Hydroxy-3-nitrophenyl pentanoate
;
_chemical_name_common
;
4-Hydroxy-3-nitrophenyl valerate
;
_chemical_melting_point 310
_cell_volume    563.807
_exptl_crystal_colour 'colorless'
_exptl_crystal_density_diffrn 1.409
_exptl_crystal_description 'prism'
_exptl_crystal_preparation 'chloroform'
_diffrn_ambient_temperature 113
#These two values have been output from a single CSD field.
_refine_ls_R_factor_gt 0.035
_refine_ls_wR_factor_gt 0.035
_symmetry_cell_setting triclinic
_symmetry_space_group_name_H-M 'P -1'
_symmetry_Int_Tables_number 2
loop_
_symmetry_equiv_pos_site_id
_symmetry_equiv_pos_as_xyz
1 x,y,z
2 -x,-y,-z
_cell_length_a 5.3006(14)
_cell_length_b 10.435(2)
_cell_length_c 11.365(3)
_cell_angle_alpha 67.340(12)
_cell_angle_beta 81.074(17)
_cell_angle_gamma 77.114(16)
_cell_formula_units_Z 2
loop_
_atom_type_symbol
_atom_type_radius_bond
C 0.68
H 0.23
N 0.68
O 0.68
loop_
_atom_site_label
_atom_site_type_symbol
_atom_site_fract_x
_atom_site_fract_y
_atom_site_fract_z
O1 O 0.44132(16) 0.16466(9) 1.06926(8)
O2 O 0.57276(18) 0.35065(8) 1.06023(9)
O3 O 0.97659(17) 0.43498(8) 0.91208(9)
H1 H 0.849(3) 0.4414(15) 0.9691(14)
O4 O 1.05538(15) -0.03140(8) 0.78112(8)
O5 O 0.75270(16) 0.06969(8) 0.63771(8)
N1 N 0.59085(19) 0.24914(10) 1.02548(9)
C1 C 0.8163(2) 0.11536(11) 0.89438(11)
H2 H 0.69250 0.05440 0.92830
C2 C 0.7982(2) 0.23078(11) 0.9306(1)
C3 C 0.9768(2) 0.32268(11) 0.88102(11)
C4 C 1.1752(2) 0.29541(12) 0.79260(11)
H3 H 1.29820 0.35670 0.75660
C5 C 1.1953(2) 0.18137(12) 0.75690(11)
H4 H 1.33150 0.16410 0.69690
C6 C 1.0158(2) 0.09177(11) 0.80900(11)
C7 C 0.9099(2) -0.03100(12) 0.69151(10)
C8 C 0.9818(2) -0.16744(12) 0.66970(11)
H5 H 1.03620 -0.24410 0.75060
H6 H 1.13260 -0.16200 0.60560
C9 C 0.7641(2) -0.20491(11) 0.62381(11)
H7 H 0.69920 -0.12550 0.54670
H8 H 0.61890 -0.21960 0.69110
C10 C 0.8556(2) -0.33818(12) 0.59220(12)
H9 H 0.96600 -0.31540 0.51080
H10 H 0.96360 -0.40930 0.66010
C11 C 0.6337(3) -0.40135(13) 0.58021(14)
H11 H 0.52800 -0.42820 0.66180
H12 H 0.70390 -0.48510 0.55810
H13 H 0.52600 -0.33160 0.51300
#END
