
#######################################################################
#
#                 Cambridge Crystallographic Data Centre
#                                CCDC
#
#######################################################################
#
# If this CIF has been generated from an entry in the Cambridge
# Structural Database, then it will include bibliographic, chemical,
# crystal, experimental, refinement or atomic coordinate data resulting
# from the CCDC's data processing and validation procedures.
#
#######################################################################

data_CSD_CIF_DUPLIK
_audit_creation_date 2010-03-19
_audit_creation_method CSD-ConQuest-V1
_database_code_CSD DUPLIK
_database_code_depnum_ccdc_archive 'CCDC 765232'
_chemical_formula_sum 'C15 H19 N1 O5'
_chemical_formula_moiety
;
C15 H19 N1 O5
;
_journal_coeditor_code "IUCr ZL2264"
_journal_coden_Cambridge 1370
_journal_volume 66
_journal_year 2010
_journal_page_first o495
_journal_name_full 'Acta Crystallogr.,Sect.E:Struct.Rep.Online '
loop_
_publ_author_name
"C.M.Crosse"
"M.W.Logue"
"R.L.Luck"
"L.R.Pignotti"
"M.F.Waineo"
_chemical_name_systematic
;
t-butyl 2,2-dimethyl-3-(4-nitrophenyl)-3-oxopropanoate
;
_chemical_name_common
;
t-butyl 2-methyl-2-(4-nitrobenzoyl)propanoate
;
_cell_volume   1586.607
_exptl_crystal_colour 'colorless'
_exptl_crystal_density_diffrn 1.228
_exptl_crystal_description 'prism'
_exptl_crystal_preparation 'hexane'
_diffrn_ambient_temperature 291
#These two values have been output from a single CSD field.
_refine_ls_R_factor_gt 0.061
_refine_ls_wR_factor_gt 0.061
_symmetry_cell_setting monoclinic
_symmetry_space_group_name_H-M 'P 21/c'
_symmetry_Int_Tables_number 14
loop_
_symmetry_equiv_pos_site_id
_symmetry_equiv_pos_as_xyz
1 x,y,z
2 -x,1/2+y,1/2-z
3 -x,-y,-z
4 x,-1/2-y,-1/2+z
_cell_length_a 11.379(4)
_cell_length_b 11.393(4)
_cell_length_c 12.283(5)
_cell_angle_alpha 90
_cell_angle_beta 94.88(3)
_cell_angle_gamma 90
_cell_formula_units_Z 4
loop_
_atom_type_symbol
_atom_type_radius_bond
C 0.68
H 0.23
N 0.68
O 0.68
loop_
_atom_site_label
_atom_site_type_symbol
_atom_site_fract_x
_atom_site_fract_y
_atom_site_fract_z
N1 N 0.1227(3) 0.3124(4) 0.1368(4)
O1 O 0.1312(4) 0.2370(3) 0.0679(4)
O2 O 0.1050(3) 0.2912(3) 0.2318(3)
C1 C 0.1353(3) 0.4356(3) 0.1031(3)
C2 C 0.1269(3) 0.5237(4) 0.1783(3)
H1 H 0.11220 0.50590 0.24980
C3 C 0.1404(3) 0.6375(4) 0.1472(3)
H2 H 0.13570 0.69760 0.19800
C4 C 0.1613(3) 0.6645(3) 0.0391(3)
C5 C 0.1682(3) 0.5738(4) -0.0348(3)
H3 H 0.18100 0.59110 -0.10680
C6 C 0.1564(3) 0.4586(4) -0.0042(3)
H4 H 0.16250 0.39790 -0.05400
C7 C 0.1776(3) 0.7879(4) -0.0005(3)
O3 O 0.1533(3) 0.8083(3) -0.0971(2)
C8 C 0.2210(3) 0.8869(3) 0.0759(3)
C9 C 0.2737(4) 0.9859(3) 0.0097(3)
H5 H 0.30020 1.04850 0.05800
H6 H 0.21450 1.01500 -0.04400
H7 H 0.33910 0.95590 -0.02620
C10 C 0.1165(3) 0.9360(4) 0.1339(3)
H8 H 0.14200 1.00300 0.17690
H9 H 0.08800 0.87660 0.18060
H10 H 0.05430 0.95870 0.08030
C11 C 0.3195(3) 0.8458(3) 0.1591(3)
O4 O 0.3323(2) 0.8769(2) 0.2523(2)
O5 O 0.3918(2) 0.7753(2) 0.11076(18)
C12 C 0.4942(3) 0.7164(4) 0.1705(4)
C13 C 0.5390(6) 0.6385(6) 0.0848(5)
H11 H 0.47920 0.58270 0.06070
H12 H 0.60810 0.59760 0.11480
H13 H 0.55860 0.68540 0.02390
C14 C 0.4540(5) 0.6455(4) 0.2639(5)
H14 H 0.39950 0.58620 0.23590
H15 H 0.41580 0.69610 0.31240
H16 H 0.52090 0.60880 0.30280
C15 C 0.5827(4) 0.8075(5) 0.2131(5)
H17 H 0.60160 0.85760 0.15420
H18 H 0.65310 0.76920 0.24380
H19 H 0.54980 0.85360 0.26840
#END
