
#######################################################################
#
#                 Cambridge Crystallographic Data Centre
#                                CCDC
#
#######################################################################
#
# If this CIF has been generated from an entry in the Cambridge
# Structural Database, then it will include bibliographic, chemical,
# crystal, experimental, refinement or atomic coordinate data resulting
# from the CCDC's data processing and validation procedures.
#
#######################################################################

data_CSD_CIF_DUSGEE
_audit_creation_date 2010-10-12
_audit_creation_method CSD-ConQuest-V1
_database_code_CSD DUSGEE
_database_code_depnum_ccdc_archive 'CCDC 788318'
_chemical_formula_sum 'C7 H5 N1 O4'
_chemical_formula_moiety
;
C7 H5 N1 O4
;
_journal_coeditor_code "IUCr HB5495"
_journal_coden_Cambridge 1370
_journal_volume 66
_journal_year 2010
_journal_page_first o1912
_journal_name_full 'Acta Crystallogr.,Sect.E:Struct.Rep.Online '
loop_
_publ_author_name
"Bei Tang"
"Guangying Chen"
"Xiaoping Song"
"Changchun Cen"
"Changri Han"
_chemical_name_systematic
;
2-Hydroxy-3-nitrobenzaldehyde
;
_cell_volume    694.399
_exptl_crystal_colour 'colorless'
_exptl_crystal_density_diffrn 1.599
_exptl_crystal_description 'block'
_exptl_crystal_preparation 'chloroform'
_diffrn_ambient_temperature 298
#These two values have been output from a single CSD field.
_refine_ls_R_factor_gt 0.038
_refine_ls_wR_factor_gt 0.038
_chemical_compound_source
;
leaves of Actephila merrilliana
;
_symmetry_cell_setting monoclinic
_symmetry_space_group_name_H-M 'P 21/n'
_symmetry_Int_Tables_number 14
loop_
_symmetry_equiv_pos_site_id
_symmetry_equiv_pos_as_xyz
1 x,y,z
2 1/2-x,1/2+y,1/2-z
3 -x,-y,-z
4 -1/2+x,-1/2-y,-1/2+z
_cell_length_a 8.8276(7)
_cell_length_b 8.7296(8)
_cell_length_c 9.011(9)
_cell_angle_alpha 90
_cell_angle_beta 90.124(1)
_cell_angle_gamma 90
_cell_formula_units_Z 4
loop_
_atom_type_symbol
_atom_type_radius_bond
C 0.68
H 0.23
N 0.68
O 0.68
loop_
_atom_site_label
_atom_site_type_symbol
_atom_site_fract_x
_atom_site_fract_y
_atom_site_fract_z
N1 N 0.50055(17) 0.84855(17) 0.75856(18)
O1 O 0.29576(16) 0.32129(17) 0.56300(17)
O2 O 0.33112(14) 0.61257(16) 0.61024(14)
H1 H 0.29480 0.53460 0.57390
O3 O 0.4312(2) 0.89120(17) 0.6494(2)
O4 O 0.55192(19) 0.93655(17) 0.85100(18)
C1 C 0.3983(2) 0.2987(2) 0.6511(2)
H2 H 0.42610 0.19780 0.66980
C2 C 0.48004(18) 0.4189(2) 0.72888(18)
C3 C 0.44390(18) 0.5747(2) 0.70290(18)
C4 C 0.52863(19) 0.68465(19) 0.77951(19)
C5 C 0.64236(19) 0.6430(2) 0.8776(2)
H3 H 0.69650 0.71840 0.92770
C6 C 0.67596(19) 0.4909(2) 0.9015(2)
H4 H 0.75290 0.46340 0.96690
C7 C 0.5946(2) 0.3804(2) 0.8277(2)
H5 H 0.61680 0.27760 0.84440
#END
