
#######################################################################
#
#                 Cambridge Crystallographic Data Centre
#                                CCDC
#
#######################################################################
#
# If this CIF has been generated from an entry in the Cambridge
# Structural Database, then it will include bibliographic, chemical,
# crystal, experimental, refinement or atomic coordinate data resulting
# from the CCDC's data processing and validation procedures.
#
#######################################################################

data_CSD_CIF_DUTBUQ
_audit_creation_date 2010-08-30
_audit_creation_method CSD-ConQuest-V1
_database_code_CSD DUTBUQ
_database_code_depnum_ccdc_archive 'CCDC 788405'
_chemical_formula_sum 'C18 H18 N4 O6'
_chemical_formula_moiety
;
C18 H18 N4 O6
;
_journal_coeditor_code "IUCr ZS2049"
_journal_coden_Cambridge 1370
_journal_volume 66
_journal_year 2010
_journal_page_first o2023
_journal_name_full 'Acta Crystallogr.,Sect.E:Struct.Rep.Online '
loop_
_publ_author_name
"M.V.N.de Souza"
"A.C.Pinheiro"
"E.R.T.Tiekink"
"S.M.S.V.Wardell"
"J.L.Wardell"
_chemical_name_systematic
;
Benzyl 
N-((1S)-2-hydroxy-1-[N'-(2-nitrobenzylidene)hydrazinylcarbonyl]ethyl)carbamate

;
_chemical_melting_point 428
_cell_volume    438.909
_exptl_crystal_colour 'colorless'
_exptl_crystal_density_diffrn 1.462
_exptl_special_details
;
Melting point range 428-429K

;
_exptl_crystal_description 'plate'
_exptl_crystal_preparation 'methanol'
_diffrn_ambient_temperature 120
#These two values have been output from a single CSD field.
_refine_ls_R_factor_gt 0.089
_refine_ls_wR_factor_gt 0.089
_symmetry_cell_setting triclinic
_symmetry_space_group_name_H-M 'P 1'
_symmetry_Int_Tables_number 1
loop_
_symmetry_equiv_pos_site_id
_symmetry_equiv_pos_as_xyz
1 x,y,z
_cell_length_a 4.6675(7)
_cell_length_b 5.7001(7)
_cell_length_c 16.645(3)
_cell_angle_alpha 90.457(9)
_cell_angle_beta 92.087(7)
_cell_angle_gamma 97.319(9)
_cell_formula_units_Z 1
loop_
_atom_type_symbol
_atom_type_radius_bond
C 0.68
H 0.23
N 0.68
O 0.68
loop_
_atom_site_label
_atom_site_type_symbol
_atom_site_fract_x
_atom_site_fract_y
_atom_site_fract_z
O1 O 0.2947(12) 0.8892(10) 0.3007(4)
O2 O -0.0905(13) 0.6386(10) 0.2534(4)
O3 O -0.4518(12) 1.3215(11) 0.1633(4)
H1 H -0.350(19) 1.374(18) 0.204(4)
O4 O 0.1745(14) 0.8327(12) 0.0625(4)
O5 O -0.6765(15) 0.6119(12) -0.2286(4)
O6 O -0.6271(16) 0.4575(13) -0.3452(4)
N1 N 0.0112(16) 1.0119(13) 0.2030(5)
H2 H 0.156(13) 1.122(12) 0.195(6)
N2 N -0.2884(15) 0.7320(14) 0.0165(5)
H3 H -0.469(7) 0.718(17) 0.031(5)
N3 N -0.1965(16) 0.5952(12) -0.0441(5)
N4 N -0.5754(16) 0.4722(12) -0.2727(5)
C1 C 0.0588(17) 0.8301(16) 0.2530(5)
C2 C -0.2011(19) 0.9716(15) 0.1386(5)
H4 H -0.37850 0.87600 0.15850
C3 C -0.278(2) 1.2117(16) 0.1085(5)
H5 H -0.09780 1.31880 0.10040
H6 H -0.38420 1.18770 0.05590
C4 C -0.0811(19) 0.8361(14) 0.0693(5)
C5 C -0.398(2) 0.4987(15) -0.0938(5)
H7 H -0.59280 0.53080 -0.09210
C6 C -0.3011(19) 0.3339(14) -0.1536(6)
C7 C -0.3789(19) 0.3147(14) -0.2349(6)
C8 C -0.2776(19) 0.1553(16) -0.2870(6)
H8 H -0.33470 0.14920 -0.34240
C9 C -0.092(2) 0.0061(16) -0.2560(6)
H9 H -0.02150 -0.10620 -0.29020
C10 C -0.006(2) 0.0190(16) -0.1754(6)
H10 H 0.12630 -0.08090 -0.15480
C11 C -0.1140(18) 0.1766(14) -0.1252(5)
H11 H -0.06000 0.17900 -0.06960
C12 C 0.347(2) 0.7141(16) 0.3589(6)
H12 H 0.40090 0.57240 0.33130
H13 H 0.16910 0.66620 0.38840
C13 C 0.5886(19) 0.8140(16) 0.4173(6)
C14 C 0.737(2) 1.0378(16) 0.4112(6)
H14 H 0.68570 1.13800 0.36910
C15 C 0.958(2) 1.1178(18) 0.4651(6)
H15 H 1.06090 1.27140 0.45960
C16 C 1.031(2) 0.9758(18) 0.5270(6)
H16 H 1.18470 1.03110 0.56420
C17 C 0.881(2) 0.7527(18) 0.5351(6)
H17 H 0.92940 0.65460 0.57810
C18 C 0.659(2) 0.6729(16) 0.4798(6)
H18 H 0.55430 0.51990 0.48530
#END
