
#######################################################################
#
#                 Cambridge Crystallographic Data Centre
#                                CCDC
#
#######################################################################
#
# If this CIF has been generated from an entry in the Cambridge
# Structural Database, then it will include bibliographic, chemical,
# crystal, experimental, refinement or atomic coordinate data resulting
# from the CCDC's data processing and validation procedures.
#
#######################################################################

data_CSD_CIF_DUTGIJ
_audit_creation_date 2010-08-30
_audit_creation_method CSD-ConQuest-V1
_database_code_CSD DUTGIJ
_database_code_depnum_ccdc_archive 'CCDC 788423'
_chemical_formula_sum 'C20 H19 N3 O1'
_chemical_formula_moiety
;
C20 H19 N3 O1
;
_journal_coeditor_code "IUCr RK2213"
_journal_coden_Cambridge 1370
_journal_volume 66
_journal_year 2010
_journal_page_first o2046
_journal_name_full 'Acta Crystallogr.,Sect.E:Struct.Rep.Online '
loop_
_publ_author_name
"A.M.Asiri"
"S.A.Khan"
"K.W.Tan"
"S.W.Ng"
_chemical_name_systematic
;
N-[(9-Ethyl-9H-carbazol-3-yl)methylidene]-3,4-dimethylisoxazol-5-amine
;
_cell_volume   1604.995
_exptl_crystal_colour 'yellow'
_exptl_crystal_density_diffrn 1.313
_exptl_crystal_description 'prism'
_diffrn_ambient_temperature 100
_diffrn_special_details
;
twin

;
#These two values have been output from a single CSD field.
_refine_ls_R_factor_gt 0.0891
_refine_ls_wR_factor_gt 0.0891
_symmetry_cell_setting monoclinic
_symmetry_space_group_name_H-M 'P 21/c'
_symmetry_Int_Tables_number 14
loop_
_symmetry_equiv_pos_site_id
_symmetry_equiv_pos_as_xyz
1 x,y,z
2 -x,1/2+y,1/2-z
3 -x,-y,-z
4 x,-1/2-y,-1/2+z
_cell_length_a 8.0575(9)
_cell_length_b 13.4483(15)
_cell_length_c 14.8488(16)
_cell_angle_alpha 90
_cell_angle_beta 94.049(2)
_cell_angle_gamma 90
_cell_formula_units_Z 4
loop_
_atom_type_symbol
_atom_type_radius_bond
C 0.68
H 0.23
N 0.68
O 0.68
loop_
_atom_site_label
_atom_site_type_symbol
_atom_site_fract_x
_atom_site_fract_y
_atom_site_fract_z
O1 O 0.2910(4) 0.3151(2) 0.1571(2)
N1 N 1.1980(5) 0.1389(3) 0.4076(3)
N2 N 0.4716(5) 0.1815(3) 0.2053(3)
N3 N 0.1279(5) 0.3252(3) 0.1158(3)
C1 C 1.1728(6) 0.3018(3) 0.3684(3)
C2 C 1.2291(6) 0.3999(3) 0.3616(3)
H1 H 1.16020 0.44890 0.33200
C3 C 1.3860(6) 0.4244(3) 0.3984(3)
H2 H 1.42470 0.49090 0.39470
C4 C 1.4879(6) 0.3522(4) 0.4411(3)
H3 H 1.59470 0.37080 0.46670
C5 C 1.4375(6) 0.2540(4) 0.4472(3)
H4 H 1.50840 0.20490 0.47530
C6 C 1.2794(6) 0.2302(3) 0.4105(3)
C7 C 1.2634(6) 0.0460(3) 0.4467(3)
H5 H 1.17120 0.00810 0.47100
H6 H 1.34530 0.06140 0.49760
C8 C 1.3456(7) -0.0178(4) 0.3792(4)
H7 H 1.38180 -0.08050 0.40780
H8 H 1.44230 0.01740 0.35830
H9 H 1.26620 -0.03150 0.32770
C9 C 1.0436(6) 0.1505(3) 0.3641(3)
C10 C 1.0204(6) 0.2514(3) 0.3393(3)
C11 C 0.8678(6) 0.2813(3) 0.2978(3)
H10 H 0.84950 0.34910 0.28210
C12 C 0.7420(6) 0.2112(3) 0.2796(3)
C13 C 0.7718(6) 0.1102(3) 0.3024(3)
H11 H 0.68690 0.06270 0.28750
C14 C 0.9185(6) 0.0784(3) 0.3453(3)
H12 H 0.93540 0.01070 0.36160
C15 C 0.5842(6) 0.2432(3) 0.2365(3)
H13 H 0.56250 0.31240 0.23110
C16 C 0.3229(6) 0.2162(3) 0.1664(3)
C17 C 0.1911(6) 0.1619(3) 0.1324(3)
C18 C 0.0728(6) 0.2352(3) 0.1022(3)
C19 C 0.1746(6) 0.0520(3) 0.1276(3)
H14 H 0.28020 0.02110 0.14930
H15 H 0.14630 0.03200 0.06500
H16 H 0.08660 0.03040 0.16550
C20 C -0.0982(6) 0.2179(4) 0.0589(3)
H17 H -0.16650 0.18470 0.10200
H18 H -0.09110 0.17580 0.00540
H19 H -0.14880 0.28180 0.04100
#END
