
#######################################################################
#
#                 Cambridge Crystallographic Data Centre
#                                CCDC
#
#######################################################################
#
# If this CIF has been generated from an entry in the Cambridge
# Structural Database, then it will include bibliographic, chemical,
# crystal, experimental, refinement or atomic coordinate data resulting
# from the CCDC's data processing and validation procedures.
#
#######################################################################

data_CSD_CIF_DUTWAR
_audit_creation_date 2010-08-30
_audit_creation_method CSD-ConQuest-V1
_database_code_CSD DUTWAR
_database_code_depnum_ccdc_archive 'CCDC 788485'
_chemical_formula_sum 'C23 H25 N1 O5'
_chemical_formula_moiety
;
C23 H25 N1 O5
;
_journal_coeditor_code "IUCr JH2186"
_journal_coden_Cambridge 1370
_journal_volume 66
_journal_year 2010
_journal_page_first o2129
_journal_name_full 'Acta Crystallogr.,Sect.E:Struct.Rep.Online '
loop_
_publ_author_name
"Yingming Mo"
"Hong-Jun Zang"
"Bo-Wen Cheng"
_chemical_name_systematic
;
3,3,6,6-Tetramethyl-9-(3-nitrophenyl)-3,4,5,6,7,9-hexahydro-1H-xanthene-1,8(2H
)-dione
;
_cell_volume   4164.822
_exptl_crystal_colour 'white'
_exptl_crystal_density_diffrn 1.261
_exptl_crystal_description 'prism'
_diffrn_ambient_temperature 113
#These two values have been output from a single CSD field.
_refine_ls_R_factor_gt 0.0632
_refine_ls_wR_factor_gt 0.0632
_symmetry_cell_setting orthorhombic
_symmetry_space_group_name_H-M 'P b c a'
_symmetry_Int_Tables_number 61
loop_
_symmetry_equiv_pos_site_id
_symmetry_equiv_pos_as_xyz
1 x,y,z
2 1/2-x,-y,1/2+z
3 -x,1/2+y,1/2-z
4 1/2+x,1/2-y,-z
5 -x,-y,-z
6 -1/2+x,y,-1/2-z
7 x,-1/2-y,-1/2+z
8 -1/2-x,-1/2+y,z
_cell_length_a 12.199(2)
_cell_length_b 10.510(2)
_cell_length_c 32.484(7)
_cell_angle_alpha 90
_cell_angle_beta 90
_cell_angle_gamma 90
_cell_formula_units_Z 8
loop_
_atom_type_symbol
_atom_type_radius_bond
C 0.68
H 0.23
N 0.68
O 0.68
loop_
_atom_site_label
_atom_site_type_symbol
_atom_site_fract_x
_atom_site_fract_y
_atom_site_fract_z
O1 O 0.54601(12) 0.17933(14) 0.36579(4)
O2 O 0.25719(14) 0.45727(16) 0.40103(5)
O3 O 0.49229(13) 0.50696(15) 0.26800(4)
O4 O 0.77268(15) 0.56112(18) 0.42780(6)
O5 O 0.78206(14) 0.76618(17) 0.42061(5)
N1 N 0.73522(16) 0.66330(19) 0.41615(5)
C1 C 0.56412(18) 0.2415(2) 0.32907(6)
C2 C 0.64378(18) 0.1708(2) 0.30297(6)
H1 H 0.60540 0.09960 0.28920
H2 H 0.70150 0.13400 0.32080
C3 C 0.69762(18) 0.2553(2) 0.27026(6)
C4 C 0.60627(18) 0.3304(2) 0.24887(6)
H3 H 0.63980 0.38970 0.22880
H4 H 0.55960 0.27020 0.23330
C5 C 0.53483(18) 0.4053(2) 0.27790(6)
C6 C 0.51360(17) 0.3502(2) 0.31886(6)
C7 C 0.43583(17) 0.4193(2) 0.34753(6)
H5 H 0.36680 0.43800 0.33210
C8 C 0.40825(17) 0.3317(2) 0.38289(6)
C9 C 0.31381(19) 0.3637(2) 0.40908(7)
C10 C 0.2868(2) 0.2742(2) 0.44399(7)
H6 H 0.23610 0.20780 0.43370
H7 H 0.24810 0.32240 0.46580
C11 C 0.3870(2) 0.2095(2) 0.46289(6)
C12 C 0.44987(19) 0.1422(2) 0.42801(6)
H8 H 0.52270 0.11560 0.43830
H9 H 0.40940 0.06470 0.41980
C13 C 0.46462(17) 0.2256(2) 0.39124(6)
C14 C 0.75809(19) 0.1729(2) 0.23874(6)
H10 H 0.81820 0.12760 0.25240
H11 H 0.78780 0.22720 0.21690
H12 H 0.70700 0.11120 0.22680
C15 C 0.78024(19) 0.3455(2) 0.29057(7)
H13 H 0.83870 0.29570 0.30350
H14 H 0.74290 0.39680 0.31150
H15 H 0.81190 0.40170 0.26960
C16 C 0.4605(2) 0.3084(2) 0.48427(7)
H16 H 0.41850 0.35190 0.50580
H17 H 0.48590 0.37080 0.46400
H18 H 0.52380 0.26560 0.49660
C17 C 0.3501(2) 0.1099(2) 0.49439(7)
H19 H 0.30460 0.04580 0.48070
H20 H 0.30750 0.15140 0.51610
H21 H 0.41460 0.06870 0.50650
C18 C 0.48347(18) 0.5456(2) 0.36303(6)
C19 C 0.42695(19) 0.6595(2) 0.35885(6)
H22 H 0.35650 0.65920 0.34640
C20 C 0.4708(2) 0.7741(2) 0.37241(7)
H23 H 0.43050 0.85070 0.36890
C21 C 0.57294(19) 0.7774(2) 0.39100(6)
H24 H 0.60430 0.85510 0.40020
C22 C 0.62764(18) 0.6625(2) 0.39566(6)
C23 C 0.58551(18) 0.5471(2) 0.38256(6)
H25 H 0.62520 0.47040 0.38680
#END
