
#######################################################################
#
#                 Cambridge Crystallographic Data Centre
#                                CCDC
#
#######################################################################
#
# If this CIF has been generated from an entry in the Cambridge
# Structural Database, then it will include bibliographic, chemical,
# crystal, experimental, refinement or atomic coordinate data resulting
# from the CCDC's data processing and validation procedures.
#
#######################################################################

data_CSD_CIF_DUVJIO
_audit_creation_date 2010-09-15
_audit_creation_method CSD-ConQuest-V1
_database_code_CSD DUVJIO
_database_code_depnum_ccdc_archive 'CCDC 758041'
_chemical_formula_sum 'C16 H28 N3 O4'
_chemical_formula_moiety
;
C16 H28 N3 O4
;
_journal_coeditor_code "IUCr DN2566"
_journal_coden_Cambridge 1370
_journal_volume 66
_journal_year 2010
_journal_page_first o1954
_journal_name_full 'Acta Crystallogr.,Sect.E:Struct.Rep.Online '
loop_
_publ_author_name
"Ru Jiang"
"Hai-Bo Wang"
"Peng Gao"
"Lin-Lin Jing"
"Xiao-Li Sun"
_chemical_name_systematic
;
2-[1-(t-Butoxycarbonyl)pyrrolidin-2-yl]-4,4,5,5-tetramethyl-4,5-dihydro-1H-imi
dazole-1-oxyl 3-oxide
;
_cell_volume    900.806
_exptl_crystal_colour 'red'
_exptl_crystal_density_diffrn 1.203
_exptl_crystal_description 'block'
_diffrn_ambient_temperature 296
#These two values have been output from a single CSD field.
_refine_ls_R_factor_gt 0.0424
_refine_ls_wR_factor_gt 0.0424
_symmetry_cell_setting monoclinic
_symmetry_space_group_name_H-M 'P 21'
_symmetry_Int_Tables_number 4
loop_
_symmetry_equiv_pos_site_id
_symmetry_equiv_pos_as_xyz
1 x,y,z
2 -x,1/2+y,-z
_cell_length_a 6.1016(12)
_cell_length_b 10.392(2)
_cell_length_c 14.488(3)
_cell_angle_alpha 90
_cell_angle_beta 101.312(3)
_cell_angle_gamma 90
_cell_formula_units_Z 2
loop_
_atom_type_symbol
_atom_type_radius_bond
C 0.68
H 0.23
N 0.68
O 0.68
loop_
_atom_site_label
_atom_site_type_symbol
_atom_site_fract_x
_atom_site_fract_y
_atom_site_fract_z
N1 N 0.0929(4) 0.3494(3) 0.78508(14)
N2 N 0.3330(4) 0.4804(2) 0.86782(15)
N3 N 0.1712(4) 0.6757(2) 0.71424(15)
O1 O 0.3991(4) 0.7310(3) 0.61493(15)
O2 O -0.0793(3) 0.3080(2) 0.72759(14)
O3 O 0.4286(4) 0.5857(2) 0.90224(15)
O4 O 0.2361(4) 0.5320(2) 0.61039(13)
C1 C 0.2011(6) 0.3558(4) 0.5093(2)
H1 H 0.25620 0.30440 0.56400
H2 H 0.24080 0.31600 0.45500
H3 H 0.04140 0.36250 0.50040
C2 C 0.5524(6) 0.4831(4) 0.5354(3)
H4 H 0.61150 0.56890 0.54340
H5 H 0.59340 0.44480 0.48090
H6 H 0.61230 0.43270 0.59000
C3 C 0.1978(7) 0.5764(4) 0.4421(2)
H7 H 0.03870 0.57820 0.43750
H8 H 0.23160 0.54500 0.38420
H9 H 0.25690 0.66170 0.45410
C4 C 0.3028(5) 0.4878(3) 0.52248(18)
C5 C 0.2803(5) 0.6526(3) 0.64280(19)
C6 C 0.1631(6) 0.8032(3) 0.7549(2)
H10 H 0.17050 0.86990 0.70880
H11 H 0.28420 0.81530 0.80860
C7 C -0.0620(7) 0.8035(3) 0.7848(3)
H12 H -0.06230 0.86300 0.83640
H13 H -0.18100 0.82690 0.73270
C8 C -0.0877(6) 0.6663(3) 0.8153(2)
H14 H -0.24430 0.64370 0.80840
H15 H -0.01500 0.65420 0.88060
C9 C 0.0256(4) 0.5839(3) 0.74985(18)
H16 H -0.08780 0.55180 0.69740
C10 C 0.1523(4) 0.4731(3) 0.79995(17)
C11 C 0.2665(5) 0.2596(3) 0.8383(2)
C12 C 0.4042(6) 0.2131(4) 0.7676(2)
H17 H 0.30880 0.16830 0.71720
H18 H 0.51940 0.15600 0.79830
H19 H 0.47090 0.28560 0.74270
C13 C 0.1549(6) 0.1467(4) 0.8763(3)
H20 H 0.05990 0.17750 0.91700
H21 H 0.26690 0.09090 0.91100
H22 H 0.06700 0.09990 0.82490
C14 C 0.3947(4) 0.3532(3) 0.91403(18)
C15 C 0.6454(5) 0.3379(4) 0.9356(2)
H23 H 0.70200 0.34640 0.87860
H24 H 0.68330 0.25440 0.96250
H25 H 0.71050 0.40310 0.97950
C16 C 0.3053(5) 0.3565(4) 1.00551(19)
H26 H 0.14570 0.36580 0.99110
H27 H 0.37020 0.42790 1.04320
H28 H 0.34390 0.27780 1.03960
#END
