
#######################################################################
#
#                 Cambridge Crystallographic Data Centre
#                                CCDC
#
#######################################################################
#
# If this CIF has been generated from an entry in the Cambridge
# Structural Database, then it will include bibliographic, chemical,
# crystal, experimental, refinement or atomic coordinate data resulting
# from the CCDC's data processing and validation procedures.
#
#######################################################################

data_CSD_CIF_DUVMAI
_audit_creation_date 1987-06-30
_audit_creation_method CSD-ConQuest-V1
_database_code_CSD DUVMAI
_chemical_formula_sum 'C16 H9 N1 O4'
_chemical_formula_moiety
;
C16 H9 N1 O4
;
_journal_coeditor_code "IUCr A26157"
_journal_coden_Cambridge 591
_journal_volume 42
_journal_year 1986
_journal_page_first 1542
_journal_name_full 'Acta Crystallogr.,Sect.C:Cryst.Struct.Commun. '
loop_
_publ_author_name
"B.Varghese"
"S.Srinivasan"
"S.R.Ramadas"
"P.V.Padmanabhan"
_chemical_name_systematic
;
2-(2-Nitrobenzylidene)-indane-1,3-dione
;
_cell_volume   1266.750
_exptl_crystal_density_diffrn 1.464
_exptl_special_details
;
y(O3)=.2669 not .2629

;
_diffrn_ambient_temperature ?
_diffrn_special_details
;
The study was carried out at room temperature,in the range 283-303K

;
#These two values have been output from a single CSD field.
_refine_ls_R_factor_gt 0.043
_refine_ls_wR_factor_gt 0.043
_symmetry_cell_setting monoclinic
_symmetry_space_group_name_H-M 'P 21/a'
_symmetry_Int_Tables_number 14
loop_
_symmetry_equiv_pos_site_id
_symmetry_equiv_pos_as_xyz
1 x,y,z
2 1/2-x,1/2+y,-z
3 -x,-y,-z
4 -1/2+x,-1/2-y,z
_cell_length_a 7.446(5)
_cell_length_b 13.958(7)
_cell_length_c 12.635(5)
_cell_angle_alpha 90
_cell_angle_beta 105.28(7)
_cell_angle_gamma 90
_cell_formula_units_Z 4
loop_
_atom_type_symbol
_atom_type_radius_bond
C 0.68
H 0.23
N 0.68
O 0.68
loop_
_atom_site_label
_atom_site_type_symbol
_atom_site_fract_x
_atom_site_fract_y
_atom_site_fract_z
C1 C 0.3900(8) 0.2263(4) 0.1525(4)
C2 C 0.4469(8) 0.3181(4) 0.2111(4)
C3 C 0.3481(9) 0.3965(5) 0.1416(4)
C4 C 0.1317(10) 0.3946(6) -0.0559(5)
C5 C 0.0452(11) 0.3339(7) -0.1408(6)
C6 C 0.0618(10) 0.2365(7) -0.1327(5)
C7 C 0.1697(10) 0.1929(6) -0.0403(5)
C8 C 0.2610(8) 0.2523(5) 0.0453(4)
C9 C 0.2412(9) 0.3510(5) 0.0382(4)
C10 C 0.5653(8) 0.3181(4) 0.3119(4)
C11 C 0.6418(8) 0.4002(4) 0.3825(4)
C12 C 0.7040(9) 0.4821(4) 0.3401(5)
C13 C 0.7817(9) 0.5576(5) 0.4072(7)
C14 C 0.7994(9) 0.5527(5) 0.5181(6)
C15 C 0.7429(9) 0.4731(5) 0.5626(5)
C16 C 0.6635(8) 0.3993(4) 0.4959(4)
N1 N 0.5979(7) 0.3164(4) 0.5458(4)
O1 O 0.4383(6) 0.1462(3) 0.1852(3)
O2 O 0.3447(7) 0.4814(3) 0.1629(3)
O3 O 0.4708(6) 0.2669(3) 0.4912(3)
O4 O 0.6708(7) 0.3011(4) 0.6429(3)
H1? H 0.096(10) 0.471(5) 0.365(5)
H2 H -0.019(10) 0.364(5) -0.198(6)
H3 H 0.005(8) 0.197(4) -0.188(5)
H4 H 0.186(9) 0.120(5) -0.036(5)
H5 H 0.615(8) 0.250(5) 0.347(4)
H6 H 0.691(12) 0.481(6) 0.252(7)
H7 H 0.818(9) 0.627(5) 0.381(5)
H8 H 0.851(9) 0.611(5) 0.554(5)
H9 H 0.752(7) 0.466(4) 0.630(4)
#END
