
#######################################################################
#
#                 Cambridge Crystallographic Data Centre
#                                CCDC
#
#######################################################################
#
# If this CIF has been generated from an entry in the Cambridge
# Structural Database, then it will include bibliographic, chemical,
# crystal, experimental, refinement or atomic coordinate data resulting
# from the CCDC's data processing and validation procedures.
#
#######################################################################

data_CSD_CIF_DUVVEW
_audit_creation_date 2010-08-15
_audit_creation_method CSD-ConQuest-V1
_database_code_CSD DUVVEW
_database_code_depnum_ccdc_archive 'CCDC 161076'
_chemical_formula_sum 'C17 H19 N1 O6'
_chemical_formula_moiety
;
C17 H19 N1 O6
;
_journal_coden_Cambridge 1220
_journal_volume 15
_journal_year 2009
_journal_page_first 12470
_journal_name_full 'Chem.-Eur.J. '
loop_
_publ_author_name
"E.Dumez"
"A.-C.Durand"
"M.Guillaume"
"P.-Y.Roger"
"R.Faure"
"J.-M.Pons"
"G.Herbette"
"J.-P.Dulcere"
"D.Bonne"
"J.Rodriguez"
_chemical_name_systematic
;
dimethyl 3-methyl-4-methylene-2-phenyl-3-nitrocyclopentane-1,1-dicarboxylate
;
_cell_volume   1739.890
_exptl_crystal_colour 'colorless'
_exptl_crystal_density_diffrn 1.273
_exptl_crystal_description 'Cube'
_diffrn_ambient_temperature 298
#These two values have been output from a single CSD field.
_refine_ls_R_factor_gt 0.054
_refine_ls_wR_factor_gt 0.054
_symmetry_cell_setting monoclinic
_symmetry_space_group_name_H-M 'P 21/c'
_symmetry_Int_Tables_number 14
loop_
_symmetry_equiv_pos_site_id
_symmetry_equiv_pos_as_xyz
1 x,y,z
2 -x,1/2+y,1/2-z
3 -x,-y,-z
4 x,-1/2-y,-1/2+z
_cell_length_a 13.812(2)
_cell_length_b 7.0353(4)
_cell_length_c 18.040(2)
_cell_angle_alpha 90
_cell_angle_beta 97.005(3)
_cell_angle_gamma 90
_cell_formula_units_Z 4
loop_
_atom_type_symbol
_atom_type_radius_bond
C 0.68
H 0.23
N 0.68
O 0.68
loop_
_atom_site_label
_atom_site_type_symbol
_atom_site_fract_x
_atom_site_fract_y
_atom_site_fract_z
O1 O 0.11960(4) -0.04775(7) 0.51814(2)
O2 O 0.13744(4) 0.21608(7) 0.46492(2)
O3 O 0.36963(3) -0.41949(6) 0.31900(2)
O4 O 0.43215(2) -0.13154(5) 0.34597(19)
O5 O 0.34045(3) -0.00833(7) 0.50537(2)
O6 O 0.39783(3) -0.30338(6) 0.49841(2)
N1 N 0.12794(3) 0.04598(8) 0.46365(2)
C1 C 0.12627(3) -0.05439(7) 0.38668(3)
C2 C 0.22975(3) -0.02850(7) 0.36265(2)
C3 C 0.28849(3) -0.20374(7) 0.39655(3)
C4 C 0.21264(4) -0.36023(8) 0.40504(3)
C5 C 0.11575(4) -0.26366(8) 0.39660(3)
C6 C 0.03266(5) -0.35280(11) 0.39500(7)
C7 C 0.22716(3) -0.00685(7) 0.27876(3)
C8 C 0.24808(4) 0.16844(8) 0.24961(3)
C9 C 0.24311(4) 0.19507(12) 0.17305(4)
C10 C 0.21909(5) 0.04724(16) 0.12536(4)
C11 C 0.19894(5) -0.12609(13) 0.15327(4)
C12 C 0.20123(4) -0.15490(9) 0.22912(3)
C13 C 0.36634(4) -0.26903(8) 0.34880(3)
C14 C 0.51279(5) -0.17426(11) 0.30411(4)
C15 C 0.34383(4) -0.15507(10) 0.47341(3)
C16 C 0.45722(5) -0.28199(12) 0.56977(4)
C17 C 0.04349(4) 0.04311(10) 0.33739(3)
H1 H 0.26017 0.08494 0.38395
H2 H 0.26552 0.27178 0.28336
H3 H 0.25691 0.31813 0.15387
H4 H 0.21645 0.06833 0.07257
H5 H 0.18407 -0.22964 0.11912
H6 H 0.18544 -0.27762 0.24759
H7 H 0.22326 -0.41961 0.45326
H8 H 0.21306 -0.45521 0.36687
H9 H -0.02683 -0.28083 0.38945
H10 H 0.03049 -0.48900 0.39766
H11 H 0.55681 -0.06841 0.30520
H12 H 0.48623 -0.20001 0.25343
H13 H 0.54733 -0.28415 0.32485
H14 H 0.49242 -0.39790 0.58161
H15 H 0.41707 -0.25423 0.60826
H16 H 0.50256 -0.17988 0.56633
H17 H 0.05703 0.17647 0.33404
H18 H -0.01608 0.02570 0.35897
H19 H 0.03694 -0.01192 0.28834
#END
