
#######################################################################
#
#                 Cambridge Crystallographic Data Centre
#                                CCDC
#
#######################################################################
#
# If this CIF has been generated from an entry in the Cambridge
# Structural Database, then it will include bibliographic, chemical,
# crystal, experimental, refinement or atomic coordinate data resulting
# from the CCDC's data processing and validation procedures.
#
#######################################################################

data_CSD_CIF_DUVVAS
_audit_creation_date 2010-08-15
_audit_creation_method CSD-ConQuest-V1
_database_code_CSD DUVVAS
_database_code_depnum_ccdc_archive 'CCDC 161075'
_chemical_formula_sum 'C14 H19 N1 O6'
_chemical_formula_moiety
;
C14 H19 N1 O6
;
_journal_coden_Cambridge 1220
_journal_volume 15
_journal_year 2009
_journal_page_first 12470
_journal_name_full 'Chem.-Eur.J. '
loop_
_publ_author_name
"E.Dumez"
"A.-C.Durand"
"M.Guillaume"
"P.-Y.Roger"
"R.Faure"
"J.-M.Pons"
"G.Herbette"
"J.-P.Dulcere"
"D.Bonne"
"J.Rodriguez"
_chemical_name_systematic
;
dimethyl 3-methylene-3a-nitro-octahydroindene-1,1-dicarboxylate
;
_cell_volume   1452.346
_exptl_crystal_colour 'colorless'
_exptl_crystal_density_diffrn 1.36
_exptl_crystal_description 'Cube'
_diffrn_ambient_temperature 298
#These two values have been output from a single CSD field.
_refine_ls_R_factor_gt 0.053
_refine_ls_wR_factor_gt 0.053
_symmetry_cell_setting monoclinic
_symmetry_space_group_name_H-M 'P 21/c'
_symmetry_Int_Tables_number 14
loop_
_symmetry_equiv_pos_site_id
_symmetry_equiv_pos_as_xyz
1 x,y,z
2 -x,1/2+y,1/2-z
3 -x,-y,-z
4 x,-1/2-y,-1/2+z
_cell_length_a 8.277(1)
_cell_length_b 15.298(1)
_cell_length_c 12.180(1)
_cell_angle_alpha 90
_cell_angle_beta 109.66(1)
_cell_angle_gamma 90
_cell_formula_units_Z 4
loop_
_atom_type_symbol
_atom_type_radius_bond
C 0.68
H 0.23
N 0.68
O 0.68
loop_
_atom_site_label
_atom_site_type_symbol
_atom_site_fract_x
_atom_site_fract_y
_atom_site_fract_z
O1 O -0.13793(9) 0.33909(4) 0.85210(6)
O2 O -0.24857(9) 0.14874(4) 0.73881(7)
O3 O -0.34637(10) 0.28772(5) 0.91218(7)
O4 O 0.06820(11) 0.35392(5) 1.10676(7)
O5 O 0.22566(10) 0.38179(5) 1.00156(7)
O6 O -0.25718(11) 0.05649(5) 0.87946(7)
N1 N 0.15990(12) 0.33103(5) 1.05148(9)
C1 C 0.07726(13) 0.19925(6) 0.92064(9)
C2 C -0.21190(15) 0.27820(7) 0.89848(9)
C3 C 0.13986(13) 0.10853(6) 0.89674(9)
C4 C 0.19267(13) 0.23041(6) 1.04199(9)
C5 C 0.11746(14) 0.18390(6) 1.12253(10)
C6 C 0.32980(14) 0.10690(6) 0.91237(11)
C7 C -0.21231(14) 0.12424(7) 0.84996(11)
C8 C -0.10530(13) 0.19419(6) 0.93068(9)
C9 C -0.07306(14) 0.17028(6) 1.06027(10)
C10 C 0.20382(14) 0.15305(7) 1.22631(10)
C11 C 0.38502(13) 0.22159(7) 1.06601(9)
C12 C -0.22221(16) 0.42410(7) 0.83048(10)
C13 C 0.43399(13) 0.13071(6) 1.03612(10)
C14 C -0.33711(16) 0.08426(7) 0.65137(10)
H1 H 0.08088 0.23793 0.85945
H2 H 0.07480 0.09129 0.81854
H3 H 0.11799 0.06853 0.95083
H4 H 0.35289 0.14900 0.86109
H5 H 0.36200 0.04973 0.89460
H6 H -0.14148 0.20767 1.09034
H7 H -0.10614 0.11053 1.06423
H8 H 0.32440 0.16524 1.25864
H9 H 0.14906 0.11838 1.26936
H10 H 0.44468 0.23423 1.14675
H11 H 0.41833 0.26296 1.01833
H12 H -0.15995 0.46354 0.79813
H13 H -0.22643 0.44734 0.90268
H14 H -0.33681 0.41717 0.77675
H15 H 0.55420 0.12779 1.04685
H16 H 0.40754 0.08971 1.08728
H17 H -0.35589 0.10897 0.57563
H18 H -0.44556 0.07078 0.65987
H19 H -0.27047 0.03177 0.65978
#END
