
#######################################################################
#
#                 Cambridge Crystallographic Data Centre
#                                CCDC
#
#######################################################################
#
# If this CIF has been generated from an entry in the Cambridge
# Structural Database, then it will include bibliographic, chemical,
# crystal, experimental, refinement or atomic coordinate data resulting
# from the CCDC's data processing and validation procedures.
#
#######################################################################

data_CSD_CIF_DUVVIA
_audit_creation_date 2010-08-15
_audit_creation_method CSD-ConQuest-V1
_database_code_CSD DUVVIA
_database_code_depnum_ccdc_archive 'CCDC 161077'
_chemical_formula_sum 'C12 H17 N1 O6'
_chemical_formula_moiety
;
C12 H17 N1 O6
;
_journal_coden_Cambridge 1220
_journal_volume 15
_journal_year 2009
_journal_page_first 12470
_journal_name_full 'Chem.-Eur.J. '
loop_
_publ_author_name
"E.Dumez"
"A.-C.Durand"
"M.Guillaume"
"P.-Y.Roger"
"R.Faure"
"J.-M.Pons"
"G.Herbette"
"J.-P.Dulcere"
"D.Bonne"
"J.Rodriguez"
_chemical_name_systematic
;
dimethyl 2,3-dimethyl-4-methylene-3-nitrocyclopentane-1,1-dicarboxylate
;
_cell_volume   1392.242
_exptl_crystal_colour 'colorless'
_exptl_crystal_density_diffrn 1.294
_exptl_crystal_description 'Cube'
_diffrn_ambient_temperature 298
#These two values have been output from a single CSD field.
_refine_ls_R_factor_gt 0.04
_refine_ls_wR_factor_gt 0.04
_symmetry_cell_setting orthorhombic
_symmetry_space_group_name_H-M 'P 21 21 21'
_symmetry_Int_Tables_number 19
loop_
_symmetry_equiv_pos_site_id
_symmetry_equiv_pos_as_xyz
1 x,y,z
2 1/2-x,-y,1/2+z
3 1/2+x,1/2-y,-z
4 -x,1/2+y,1/2-z
_cell_length_a 6.9128(2)
_cell_length_b 12.1793(5)
_cell_length_c 16.5363(7)
_cell_angle_alpha 90
_cell_angle_beta 90
_cell_angle_gamma 90
_cell_formula_units_Z 4
loop_
_atom_type_symbol
_atom_type_radius_bond
C 0.68
H 0.23
N 0.68
O 0.68
loop_
_atom_site_label
_atom_site_type_symbol
_atom_site_fract_x
_atom_site_fract_y
_atom_site_fract_z
O1 O 0.34502(8) 0.03040(5) 0.89689(3)
O2 O 0.44668(11) 0.16432(5) 0.82801(4)
O3 O 0.97744(7) -0.14708(3) 0.71820(3)
O4 O 0.89395(7) -0.10161(3) 0.59254(2)
O5 O 0.76692(8) 0.16320(4) 0.58902(3)
O6 O 1.07193(7) 0.11557(4) 0.61857(3)
N1 N 0.44701(9) 0.06861(5) 0.84466(3)
C1 C 0.59413(9) -0.00763(4) 0.80161(3)
C2 C 0.61055(9) 0.02695(5) 0.71198(3)
C3 C 0.83115(8) 0.02922(4) 0.69421(3)
C4 C 0.91862(10) 0.06783(5) 0.77547(3)
C5 C 0.78997(9) 0.01867(5) 0.83889(3)
C6 C 0.83693(11) 0.00121(6) 0.91490(4)
C7 C 0.53152(11) -0.12575(5) 0.81581(4)
C8 C 0.48609(10) -0.03746(6) 0.65267(4)
C9 C 0.91008(9) -0.08313(5) 0.67157(4)
C10 C 0.96719(13) -0.20529(6) 0.56329(4)
C11 C 0.88059(11) 0.11066(5) 0.62736(3)
C12 C 1.14422(14) 0.18838(6) 0.55626(4)
H1 H 0.55757 0.09944 0.70652
H2 H 1.04873 0.04072 0.77903
H3 H 0.91988 0.14661 0.77733
H4 H 0.74317 -0.03128 0.95042
H5 H 0.96189 0.02166 0.93525
H6 H 0.62170 -0.17404 0.78965
H7 H 0.40487 -0.13670 0.79341
H8 H 0.52885 -0.14128 0.87272
H9 H 0.50436 -0.01086 0.59856
H10 H 0.35223 -0.03080 0.66731
H11 H 0.52420 -0.11316 0.65550
H12 H 0.94986 -0.21085 0.50583
H13 H 0.89945 -0.26419 0.58950
H14 H 1.10248 -0.20987 0.57595
H15 H 1.28294 0.18523 0.55495
H16 H 1.10369 0.26226 0.56734
H17 H 1.09349 0.16558 0.50489
#END
