
#######################################################################
#
#                 Cambridge Crystallographic Data Centre
#                                CCDC
#
#######################################################################
#
# If this CIF has been generated from an entry in the Cambridge
# Structural Database, then it will include bibliographic, chemical,
# crystal, experimental, refinement or atomic coordinate data resulting
# from the CCDC's data processing and validation procedures.
#
#######################################################################

data_CSD_CIF_DUWRIW
_audit_creation_date 1987-06-30
_audit_creation_method CSD-ConQuest-V1
_database_code_CSD DUWRIW
_chemical_formula_sum 'C6 H9 N1 O6'
_chemical_formula_moiety
;
C6 H9 N1 O6
;
_journal_coden_Cambridge 10
_journal_volume 69
_journal_year 1986
_journal_page_first 1191
_journal_name_full 'Helv.Chim.Acta '
loop_
_publ_author_name
"F.Baumberger"
"D.Beer"
"M.Christen"
"R.Prewo"
"A.Vasella"
_chemical_name_systematic
;
1,2-Dideoxy-1-nitro-D-arabino-hex-1-enopyranose
;
_chemical_melting_point 421.15
_cell_volume    758.061
_exptl_crystal_colour 'colorless'
_exptl_crystal_density_diffrn 1.67
_diffrn_ambient_temperature 130
#These two values have been output from a single CSD field.
_refine_ls_R_factor_gt 0.043
_refine_ls_wR_factor_gt 0.043
_symmetry_cell_setting orthorhombic
_symmetry_space_group_name_H-M 'P 21 21 21'
_symmetry_Int_Tables_number 19
loop_
_symmetry_equiv_pos_site_id
_symmetry_equiv_pos_as_xyz
1 x,y,z
2 1/2+x,1/2-y,-z
3 -x,1/2+y,1/2-z
4 1/2-x,-y,1/2+z
_cell_length_a 6.303(1)
_cell_length_b 9.337(1)
_cell_length_c 12.881(2)
_cell_angle_alpha 90
_cell_angle_beta 90
_cell_angle_gamma 90
_cell_formula_units_Z 4
loop_
_atom_type_symbol
_atom_type_radius_bond
C 0.68
H 0.23
N 0.68
O 0.68
loop_
_atom_site_label
_atom_site_type_symbol
_atom_site_fract_x
_atom_site_fract_y
_atom_site_fract_z
C1 C 0.0080(1) 0.4030(1) 0.8246(1)
N1 N -0.1272(1) 0.3903(1) 0.9177(1)
O1 O -0.0484(1) 0.3342(1) 0.9950(1)
O2 O -0.3074(1) 0.4385(1) 0.9135(1)
C2 C 0.2116(1) 0.3651(1) 0.8286(1)
C3 C 0.3506(1) 0.3891(1) 0.7356(1)
O3 O 0.4060(1) 0.2571(1) 0.6856(1)
C4 C 0.2443(1) 0.4977(1) 0.6632(1)
O4 O 0.2563(1) 0.6373(1) 0.7096(1)
C5 C 0.0074(1) 0.4718(1) 0.6468(1)
O5 O -0.1031(1) 0.4612(1) 0.7464(1)
C6 C -0.0550(1) 0.3446(1) 0.5795(1)
O6 O 0.0048(1) 0.2093(1) 0.6217(1)
H1 H 0.2709(26) 0.3216(16) 0.8900(11)
H2 H 0.4858(26) 0.4258(17) 0.7562(11)
H3 H 0.2952(28) 0.2207(18) 0.6708(13)
H4 H 0.3203(23) 0.4948(16) 0.5984(11)
H5 H 0.3693(27) 0.6500(19) 0.7326(12)
H6 H -0.0475(21) 0.5599(15) 0.6164(10)
H7 H -0.2030(24) 0.3493(15) 0.5664(11)
H8 H 0.0069(23) 0.3563(15) 0.5106(11)
H9 H -0.0728(31) 0.1909(21) 0.6667(13)
#END
