
#######################################################################
#
#                 Cambridge Crystallographic Data Centre
#                                CCDC
#
#######################################################################
#
# If this CIF has been generated from an entry in the Cambridge
# Structural Database, then it will include bibliographic, chemical,
# crystal, experimental, refinement or atomic coordinate data resulting
# from the CCDC's data processing and validation procedures.
#
#######################################################################

data_CSD_CIF_DUWZEC
_audit_creation_date 2015-11-19
_audit_creation_method CSD-ConQuest-V1
_database_code_CSD DUWZEC
_database_code_depnum_ccdc_archive 'CCDC 1420413'
_chemical_formula_sum 'C2 H2 N4 O12'
_chemical_formula_moiety
;
C2 H2 N4 O12
;
_journal_coden_Cambridge 182
_journal_volume 52
_journal_year 2016
_journal_page_first 916
_journal_name_full 'Chem.Commun. '
loop_
_publ_author_name
"D.Fischer"
"T.M.Klapotke"
"J.Stierstorfer"
_chemical_name_systematic
;
ethane-1,1,2,2-tetrayl tetranitrate
;
_chemical_name_common
;
1,1,2,2-Tetranitratoethane
;
_cell_volume    457.120
_exptl_crystal_colour 'colorless'
_exptl_crystal_density_diffrn 1.991
_exptl_crystal_description 'plate'
_diffrn_ambient_temperature 173
_diffrn_special_details
;
twin

;
#These two values have been output from a single CSD field.
_refine_ls_R_factor_gt 0.0274
_refine_ls_wR_factor_gt 0.0274
_symmetry_cell_setting monoclinic
_symmetry_space_group_name_H-M 'P 21/c'
_symmetry_Int_Tables_number 14
loop_
_symmetry_equiv_pos_site_id
_symmetry_equiv_pos_as_xyz
1 x,y,z
2 -x,1/2+y,1/2-z
3 -x,-y,-z
4 x,-1/2-y,-1/2+z
_cell_length_a 7.5489(4)
_cell_length_b 7.2995(3)
_cell_length_c 8.3759(8)
_cell_angle_alpha 90
_cell_angle_beta 97.935(6)
_cell_angle_gamma 90
_cell_formula_units_Z 2
loop_
_atom_type_symbol
_atom_type_radius_bond
C 0.68
H 0.23
N 0.68
O 0.68
loop_
_atom_site_label
_atom_site_type_symbol
_atom_site_fract_x
_atom_site_fract_y
_atom_site_fract_z
H1 H 0.3265(13) 0.0168(12) 0.5368(11)
O1 O 0.41412(8) 0.20521(8) 0.39786(8)
O2 O 0.36814(8) -0.09690(8) 0.33157(8)
O3 O 0.21623(9) 0.29574(9) 0.56199(9)
O4 O 0.15492(10) -0.21906(10) 0.1621(1)
N1 N 0.29819(11) 0.33929(10) 0.45639(10)
C1 C 0.40553(12) 0.02567(11) 0.46197(11)
N2 N 0.17908(11) -0.11959(11) 0.2757(1)
O5 O 0.07756(9) -0.03708(10) 0.34605(9)
O6 O 0.30604(11) 0.48120(9) 0.38697(10)
H1B H 0.6735(13) -0.0168(12) 0.4632(11)
O1B O 0.58588(8) -0.20521(8) 0.60214(8)
O2B O 0.63186(8) 0.09690(8) 0.66843(8)
O3B O 0.78377(9) -0.29574(9) 0.43801(9)
O4B O 0.84508(10) 0.21906(10) 0.8379(1)
N1B N 0.70181(11) -0.33929(10) 0.54361(10)
C1B C 0.59447(12) -0.02567(11) 0.53803(11)
N2B N 0.82092(11) 0.11959(11) 0.7243(1)
O5B O 0.92244(9) 0.03708(10) 0.65395(9)
O6B O 0.69396(11) -0.48120(9) 0.61303(10)
#END
