
#######################################################################
#
#                 Cambridge Crystallographic Data Centre
#                                CCDC
#
#######################################################################
#
# If this CIF has been generated from an entry in the Cambridge
# Structural Database, then it will include bibliographic, chemical,
# crystal, experimental, refinement or atomic coordinate data resulting
# from the CCDC's data processing and validation procedures.
#
#######################################################################

data_CSD_CIF_DUXDEH
_audit_creation_date 2015-11-19
_audit_creation_method CSD-ConQuest-V1
_database_code_CSD DUXDEH
_database_code_depnum_ccdc_archive 'CCDC 945283'
_chemical_formula_sum 'C23 H14 N2 O3'
_chemical_formula_moiety
;
C23 H14 N2 O3
;
_journal_coden_Cambridge 119
_journal_volume 1106
_journal_year 2016
_journal_page_first 452
_journal_name_full 'J.Mol.Struct. '
loop_
_publ_author_name
"H.Tabata"
"K.Kuwamoto"
"T.Okuno"
_chemical_name_systematic
;
9-(5-(4-nitrophenoxy)penta-1,3-diyn-1-yl)-9H-carbazole
;
_chemical_melting_point 413
_cell_volume   1751.235
_exptl_crystal_colour 'blue'
_exptl_crystal_density_diffrn 1.389
_exptl_special_details
;
monoclinic polymorph
Heat-sensitive, Light-sensitive, Photo-sensitive

;
_exptl_crystal_description 'platelet'
_diffrn_ambient_temperature 93
#These two values have been output from a single CSD field.
_refine_ls_R_factor_gt 0.0707
_refine_ls_wR_factor_gt 0.0707
_symmetry_cell_setting monoclinic
_symmetry_space_group_name_H-M 'P 21/c'
_symmetry_Int_Tables_number 14
loop_
_symmetry_equiv_pos_site_id
_symmetry_equiv_pos_as_xyz
1 x,y,z
2 -x,1/2+y,1/2-z
3 -x,-y,-z
4 x,-1/2-y,-1/2+z
_cell_length_a 4.8672(3)
_cell_length_b 9.4102(4)
_cell_length_c 38.2479(17)
_cell_angle_alpha 90
_cell_angle_beta 91.461(7)
_cell_angle_gamma 90
_cell_formula_units_Z 4
loop_
_atom_type_symbol
_atom_type_radius_bond
C 0.68
H 0.23
N 0.68
O 0.68
loop_
_atom_site_label
_atom_site_type_symbol
_atom_site_fract_x
_atom_site_fract_y
_atom_site_fract_z
O1 O -0.1359(4) 0.3626(2) 0.03780(5)
O2 O -0.9301(5) 0.2304(3) -0.08818(5)
O3 O -1.0234(5) 0.0481(3) -0.05572(6)
N1 N 0.6892(6) 0.7305(3) 0.16273(6)
N2 N -0.8952(5) 0.1590(3) -0.06143(7)
C1 C 0.8989(6) 0.7111(4) 0.18845(7)
C2 C 0.9922(7) 0.5852(4) 0.20319(8)
C3 C 1.2010(7) 0.5959(4) 0.22849(9)
C4 C 1.3112(7) 0.7272(4) 0.23837(9)
C5 C 1.2130(7) 0.8521(4) 0.22347(8)
C6 C 1.0009(6) 0.8449(4) 0.19813(8)
C7 C 0.8496(6) 0.9507(4) 0.17809(8)
C8 C 0.8557(7) 1.0993(4) 0.17650(9)
C9 C 0.6720(7) 1.1678(4) 0.15419(9)
C10 C 0.4845(7) 1.0931(4) 0.13319(9)
C11 C 0.4753(7) 0.9447(4) 0.13379(8)
C12 C 0.6588(7) 0.8776(4) 0.15656(8)
C13 C 0.5388(7) 0.6297(4) 0.14641(8)
C14 C 0.3925(7) 0.5494(4) 0.13040(8)
C15 C 0.2169(7) 0.4626(4) 0.11148(8)
C16 C 0.0625(7) 0.3923(4) 0.09368(8)
C17 C -0.1374(7) 0.3096(4) 0.07314(8)
C18 C -0.3260(6) 0.3056(3) 0.01494(8)
C19 C -0.3320(6) 0.3661(3) -0.01844(8)
C20 C -0.5198(7) 0.3196(4) -0.04340(8)
C21 C -0.6959(6) 0.2102(3) -0.03507(8)
C22 C -0.6890(6) 0.1478(4) -0.00230(8)
C23 C -0.5042(6) 0.1969(4) 0.02291(8)
H1 H 0.91730 0.49590 0.19640
H2 H 1.27030 0.51190 0.23930
H3 H 1.45560 0.73100 0.25550
H4 H 1.28840 0.94120 0.23040
H5 H 0.98370 1.15190 0.19050
H6 H 0.67360 1.26870 0.15310
H7 H 0.36070 1.14380 0.11820
H8 H 0.34970 0.89270 0.11930
H9 H -0.08690 0.20770 0.07360
H10 H -0.32270 0.32010 0.08290
H11 H -0.20630 0.43960 -0.02390
H12 H -0.52820 0.36200 -0.06590
H13 H -0.81010 0.07180 0.00280
H14 H -0.49980 0.15610 0.04560
#END
