
#######################################################################
#
#                 Cambridge Crystallographic Data Centre
#                                CCDC
#
#######################################################################
#
# If this CIF has been generated from an entry in the Cambridge
# Structural Database, then it will include bibliographic, chemical,
# crystal, experimental, refinement or atomic coordinate data resulting
# from the CCDC's data processing and validation procedures.
#
#######################################################################

data_CSD_CIF_DUXDEH01
_audit_creation_date 2015-11-19
_audit_creation_method CSD-ConQuest-V1
_database_code_CSD DUXDEH01
_database_code_depnum_ccdc_archive 'CCDC 945284'
_chemical_formula_sum 'C23 H14 N2 O3'
_chemical_formula_moiety
;
C23 H14 N2 O3
;
_journal_coden_Cambridge 119
_journal_volume 1106
_journal_year 2016
_journal_page_first 452
_journal_name_full 'J.Mol.Struct. '
loop_
_publ_author_name
"H.Tabata"
"K.Kuwamoto"
"T.Okuno"
_chemical_name_systematic
;
9-(5-(4-nitrophenoxy)penta-1,3-diyn-1-yl)-9H-carbazole
;
_chemical_melting_point 440
_cell_volume   1719.539
_exptl_crystal_colour 'colorless'
_exptl_crystal_density_diffrn 1.415
_exptl_special_details
;
orthorhombic polymorph
Heat-sensitive

;
_exptl_crystal_description 'needle'
_diffrn_ambient_temperature 93
#These two values have been output from a single CSD field.
_refine_ls_R_factor_gt 0.0694
_refine_ls_wR_factor_gt 0.0694
_symmetry_cell_setting orthorhombic
_symmetry_space_group_name_H-M 'P 21 21 21'
_symmetry_Int_Tables_number 19
loop_
_symmetry_equiv_pos_site_id
_symmetry_equiv_pos_as_xyz
1 x,y,z
2 1/2+x,1/2-y,-z
3 -x,1/2+y,1/2-z
4 1/2-x,-y,1/2+z
_cell_length_a 3.8534(2)
_cell_length_b 8.6365(6)
_cell_length_c 51.669(4)
_cell_angle_alpha 90
_cell_angle_beta 90
_cell_angle_gamma 90
_cell_formula_units_Z 4
loop_
_atom_type_symbol
_atom_type_radius_bond
C 0.68
H 0.23
N 0.68
O 0.68
loop_
_atom_site_label
_atom_site_type_symbol
_atom_site_fract_x
_atom_site_fract_y
_atom_site_fract_z
O1 O 0.7204(9) 1.0296(3) 0.16957(5)
O2 O 1.2430(11) 1.6544(4) 0.21563(6)
O3 O 1.4533(9) 1.4970(4) 0.24408(5)
N1 N 0.1864(10) 0.4091(4) 0.08743(6)
N2 N 1.2878(10) 1.5230(4) 0.22422(7)
C1 C 0.0999(11) 0.2501(5) 0.09051(8)
C2 C 0.1563(12) 0.1553(6) 0.11147(8)
C3 C 0.0432(13) 0.0029(6) 0.10927(9)
C4 C -0.1172(13) -0.0498(6) 0.08678(10)
C5 C -0.1674(12) 0.0454(6) 0.06589(9)
C6 C -0.0566(12) 0.2001(5) 0.06728(8)
C7 C -0.0655(11) 0.3308(6) 0.04995(9)
C8 C -0.1912(12) 0.3510(6) 0.02483(8)
C9 C -0.1595(13) 0.4950(7) 0.01310(9)
C10 C -0.0067(14) 0.6191(6) 0.02639(8)
C11 C 0.1173(13) 0.6019(6) 0.05146(9)
C12 C 0.0839(11) 0.4591(5) 0.06255(7)
C13 C 0.3120(11) 0.5008(5) 0.10617(8)
C14 C 0.4198(12) 0.5848(5) 0.12292(8)
C15 C 0.5320(12) 0.6832(5) 0.14238(8)
C16 C 0.6289(12) 0.7701(5) 0.15877(7)
C17 C 0.7638(12) 0.8742(4) 0.17866(8)
C18 C 0.8679(11) 1.1445(5) 0.18395(7)
C19 C 0.8509(12) 1.2920(5) 0.17314(7)
C20 C 0.9873(12) 1.4165(5) 0.18635(8)
C21 C 1.1383(12) 1.3925(5) 0.21032(7)
C22 C 1.1560(11) 1.2477(5) 0.22139(7)
C23 C 1.0211(11) 1.1217(5) 0.20829(7)
H1 H 0.26700 0.19210 0.12670
H2 H 0.07600 -0.06640 0.12330
H3 H -0.19360 -0.15430 0.08590
H4 H -0.27570 0.00720 0.05070
H5 H -0.29710 0.26740 0.01590
H6 H -0.24190 0.50950 -0.00410
H7 H 0.01230 0.71690 0.01810
H8 H 0.22080 0.68580 0.06050
H9 H 0.63540 0.85920 0.19510
H10 H 1.01240 0.85250 0.18180
H11 H 0.74560 1.30680 0.15670
H12 H 0.97790 1.51750 0.17910
H13 H 1.26000 1.23450 0.23790
H14 H 1.03210 1.02110 0.21570
#END
