
#######################################################################
#
#                 Cambridge Crystallographic Data Centre
#                                CCDC
#
#######################################################################
#
# If this CIF has been generated from an entry in the Cambridge
# Structural Database, then it will include bibliographic, chemical,
# crystal, experimental, refinement or atomic coordinate data resulting
# from the CCDC's data processing and validation procedures.
#
#######################################################################

data_CSD_CIF_DUXFIM
_audit_creation_date 2010-12-14
_audit_creation_method CSD-ConQuest-V1
_database_code_CSD DUXFIM
_database_code_depnum_ccdc_archive 'CCDC 741761'
_chemical_formula_sum 'C23 H23 N1 O2'
_chemical_formula_moiety
;
C23 H23 N1 O2
;
_journal_coden_Cambridge 16
_journal_volume 66
_journal_year 2010
_journal_page_first 1821
_journal_name_full 'Tetrahedron '
loop_
_publ_author_name
"M.Buchlovic"
"S.Man"
"K.Kislitson"
"C.Mathod"
"M.Potacek"
_chemical_name_systematic
;
5-(2-(9-Anthryl)vinyl)-2-methoxy-3,3-dimethyl-3,4-dihydro-2H-pyrrole-1-oxide
;
_chemical_melting_point 421.15
_cell_volume    921.853
_exptl_crystal_density_diffrn 1.244
_exptl_special_details
;
Melting point range 421.15-423.15K

;
_diffrn_ambient_temperature 120
#These two values have been output from a single CSD field.
_refine_ls_R_factor_gt 0.0543
_refine_ls_wR_factor_gt 0.0543
_symmetry_cell_setting triclinic
_symmetry_space_group_name_H-M 'P -1'
_symmetry_Int_Tables_number 2
loop_
_symmetry_equiv_pos_site_id
_symmetry_equiv_pos_as_xyz
1 x,y,z
2 -x,-y,-z
_cell_length_a 7.5459(3)
_cell_length_b 9.6662(5)
_cell_length_c 13.6975(9)
_cell_angle_alpha 98.553(5)
_cell_angle_beta 101.850(5)
_cell_angle_gamma 105.160(4)
_cell_formula_units_Z 2
loop_
_atom_type_symbol
_atom_type_radius_bond
C 0.68
H 0.23
N 0.68
O 0.68
loop_
_atom_site_label
_atom_site_type_symbol
_atom_site_fract_x
_atom_site_fract_y
_atom_site_fract_z
C1 C 0.2418(3) 0.8936(2) -0.00453(15)
C2 C 0.1890(3) 1.1049(2) -0.07511(17)
C3 C 0.1377(3) 0.7993(2) -0.09985(15)
C4 C 0.2712(3) 1.0480(2) 0.00873(16)
O1 O 0.2666(2) 0.9326(2) 0.37765(13)
O2 O 0.3447(3) 0.68028(18) 0.45992(13)
N1 N 0.3666(2) 0.8482(2) 0.35148(14)
C5 C 0.0639(3) 0.8597(2) -0.18325(16)
C6 C 0.3214(3) 0.8302(2) 0.07941(15)
H1 H 0.38730 0.76160 0.06440
C7 C 0.3068(3) 0.8632(2) 0.17563(16)
H2 H 0.23530 0.92810 0.18920
C8 C 0.0903(3) 1.0105(3) -0.16849(17)
H3 H 0.03940 1.04950 -0.22370
C9 C 0.2125(3) 1.2591(3) -0.06056(19)
H4 H 0.15420 1.29670 -0.11460
C10 C 0.3857(3) 1.1521(2) 0.09952(17)
H5 H 0.44850 1.11850 0.15450
C11 C 0.3906(3) 0.8083(2) 0.25973(15)
C12 C 0.1007(3) 0.6442(2) -0.11720(17)
H6 H 0.14500 0.60110 -0.06280
C13 C 0.0028(3) 0.5564(3) -0.21072(19)
H7 H -0.01870 0.45340 -0.22080
C14 C 0.3167(3) 1.3526(3) 0.0293(2)
H8 H 0.32850 1.45430 0.03810
C15 C 0.4710(3) 0.7870(2) 0.43074(15)
H9 H 0.54620 0.86730 0.49140
C16 C 0.4075(3) 1.2988(3) 0.10953(19)
H10 H 0.48440 1.36530 0.17100
C17 C -0.0395(3) 0.7635(3) -0.27926(17)
H11 H -0.08960 0.80270 -0.33450
C18 C 0.5098(3) 0.7085(2) 0.26192(16)
H12 H 0.60550 0.73520 0.22270
H13 H 0.43090 0.60540 0.23300
C19 C -0.0671(3) 0.6173(3) -0.29276(18)
H14 H -0.13370 0.55520 -0.35760
C20 C 0.6069(3) 0.7302(2) 0.37670(15)
C21 C 0.7962(3) 0.8527(3) 0.40460(19)
H15 H 0.85770 0.86690 0.47720
H16 H 0.77310 0.94390 0.39090
H17 H 0.87890 0.82550 0.36350
C22 C 0.6372(4) 0.5901(3) 0.40456(19)
H18 H 0.69840 0.60930 0.47770
H19 H 0.71830 0.55650 0.36510
H20 H 0.51420 0.51410 0.38890
C23 C 0.2685(5) 0.7355(3) 0.5403(2)
H21 H 0.17980 0.65360 0.55650
H22 H 0.20160 0.80410 0.51790
H23 H 0.37240 0.78650 0.60120
#END
