
#######################################################################
#
#                 Cambridge Crystallographic Data Centre
#                                CCDC
#
#######################################################################
#
# If this CIF has been generated from an entry in the Cambridge
# Structural Database, then it will include bibliographic, chemical,
# crystal, experimental, refinement or atomic coordinate data resulting
# from the CCDC's data processing and validation procedures.
#
#######################################################################

data_CSD_CIF_DUXSIY
_audit_creation_date 1987-06-30
_audit_creation_method CSD-ConQuest-V1
_database_code_CSD DUXSIY
_chemical_formula_sum 'C9 H7 N3 O3'
_chemical_formula_moiety
;
C9 H7 N3 O3
;
_journal_coeditor_code "IUCr A26203"
_journal_coden_Cambridge 591
_journal_volume 42
_journal_year 1986
_journal_page_first 1656
_journal_name_full 'Acta Crystallogr.,Sect.C:Cryst.Struct.Commun. '
loop_
_publ_author_name
"P.de Meester"
"S.S.C.Chu"
"J.E.Johnson"
_chemical_name_systematic
;
(E)-O-Methyl-p-nitrobenzohydroximoyl cyanide
;
_cell_volume    969.633
_exptl_crystal_colour 'colorless'
_exptl_crystal_density_diffrn 1.405
_diffrn_ambient_temperature ?
_diffrn_special_details
;
The study was carried out at room temperature,in the range 283-303K

;
#These two values have been output from a single CSD field.
_refine_ls_R_factor_gt 0.035
_refine_ls_wR_factor_gt 0.035
_symmetry_cell_setting monoclinic
_symmetry_space_group_name_H-M 'P 21/c'
_symmetry_Int_Tables_number 14
loop_
_symmetry_equiv_pos_site_id
_symmetry_equiv_pos_as_xyz
1 x,y,z
2 -x,1/2+y,1/2-z
3 -x,-y,-z
4 x,-1/2-y,-1/2+z
_cell_length_a 4.036(1)
_cell_length_b 11.049(2)
_cell_length_c 21.745(3)
_cell_angle_alpha 90
_cell_angle_beta 90.63(1)
_cell_angle_gamma 90
_cell_formula_units_Z 4
loop_
_atom_type_symbol
_atom_type_radius_bond
C 0.68
H 0.23
N 0.68
O 0.68
loop_
_atom_site_label
_atom_site_type_symbol
_atom_site_fract_x
_atom_site_fract_y
_atom_site_fract_z
C1 C 0.2923(5) 0.2294(2) 0.5677(1)
C2 C 0.4304(5) 0.3237(2) 0.6083(1)
C3 C 0.3996(6) 0.4438(2) 0.5909(1)
C4 C 0.5301(6) 0.5356(2) 0.6259(1)
C5 C 0.6916(6) 0.5064(2) 0.6797(1)
C6 C 0.7245(6) 0.3891(2) 0.6992(1)
C7 C 0.5934(6) 0.2972(2) 0.6635(1)
N1 N 0.8413(5) 0.6035(2) 0.7167(1)
O1 O 0.9971(6) 0.5754(2) 0.7627(1)
O2 O 0.8050(7) 0.7072(2) 0.6997(1)
C8 C 0.0938(7) 0.2684(2) 0.5155(1)
N2 N -0.0635(6) 0.3018(2) 0.4750(1)
N3 N 0.3133(5) 0.1129(2) 0.5670(1)
O3 O 0.5014(5) 0.0684(1) 0.6145(1)
C9 C 0.5260(17) -0.0616(3) 0.6092(3)
H1 H 0.294(5) 0.466(2) 0.554(1)
H2 H 0.517(5) 0.612(2) 0.614(1)
H3 H 0.839(6) 0.372(2) 0.734(1)
H4 H 0.621(5) 0.212(2) 0.676(1)
H5 H 0.655(10) -0.089(4) 0.643(2)
H6 H 0.645(12) -0.076(4) 0.576(2)
H7 H 0.320(13) -0.096(5) 0.598(2)
#END
