
#######################################################################
#
#                 Cambridge Crystallographic Data Centre
#                                CCDC
#
#######################################################################
#
# If this CIF has been generated from an entry in the Cambridge
# Structural Database, then it will include bibliographic, chemical,
# crystal, experimental, refinement or atomic coordinate data resulting
# from the CCDC's data processing and validation procedures.
#
#######################################################################

data_CSD_CIF_DUYGAG
_audit_creation_date 2010-12-14
_audit_creation_method CSD-ConQuest-V1
_database_code_CSD DUYGAG
_database_code_depnum_ccdc_archive 'CCDC 786785'
_chemical_formula_sum 'C20 H40 N2 O2'
_chemical_formula_moiety
;
C20 H40 N2 O2
;
_journal_coden_Cambridge 4
_journal_volume 132
_journal_year 2010
_journal_page_first 1953
_journal_name_full 'J.Am.Chem.Soc. '
loop_
_publ_author_name
"Pil Seok Chae"
"I.A.Guzei"
"S.H.Gellman"
_chemical_name_systematic
;
3-Cyclohexyl-N-(3-(dimethylnitroryl)propyl)-3-propylhexanamide
;
_cell_volume   1985.864
_exptl_crystal_colour 'colorless'
_exptl_crystal_density_diffrn 1.139
_exptl_crystal_description 'block'
_diffrn_ambient_temperature 100
#These two values have been output from a single CSD field.
_refine_ls_R_factor_gt 0.048
_refine_ls_wR_factor_gt 0.048
_symmetry_cell_setting monoclinic
_symmetry_space_group_name_H-M 'P 21/c'
_symmetry_Int_Tables_number 14
loop_
_symmetry_equiv_pos_site_id
_symmetry_equiv_pos_as_xyz
1 x,y,z
2 -x,1/2+y,1/2-z
3 -x,-y,-z
4 x,-1/2-y,-1/2+z
_cell_length_a 12.064(2)
_cell_length_b 18.967(4)
_cell_length_c 9.2297(17)
_cell_angle_alpha 90
_cell_angle_beta 109.896(4)
_cell_angle_gamma 90
_cell_formula_units_Z 4
loop_
_atom_type_symbol
_atom_type_radius_bond
C 0.68
H 0.23
N 0.68
O 0.68
loop_
_atom_site_label
_atom_site_type_symbol
_atom_site_fract_x
_atom_site_fract_y
_atom_site_fract_z
O1 O 0.52263(14) 0.76517(7) 0.63805(17)
O2 O 0.46612(13) 0.48853(7) 0.19280(17)
N1 N 0.50249(16) 0.69908(8) 0.68873(19)
N2 N 0.51118(14) 0.60210(9) 0.26426(19)
H1 H 0.49770 0.64700 0.24040
C1 C 0.5965(2) 0.68102(11) 0.8375(2)
H2 H 0.67390 0.69180 0.83030
H3 H 0.59220 0.63070 0.85890
H4 H 0.58510 0.70880 0.92090
C2 C 0.3870(2) 0.69977(12) 0.7127(3)
H5 H 0.38960 0.73350 0.79420
H6 H 0.36990 0.65260 0.74300
H7 H 0.32510 0.71360 0.61680
C3 C 0.49737(18) 0.64457(10) 0.5681(2)
H8 H 0.43410 0.65760 0.47110
H9 H 0.47630 0.59850 0.60200
C4 C 0.61209(18) 0.63660(11) 0.5363(2)
H10 H 0.67530 0.62170 0.63170
H11 H 0.63480 0.68270 0.50430
C5 C 0.59964(19) 0.58222(11) 0.4097(2)
H12 H 0.67660 0.57660 0.39460
H13 H 0.57800 0.53610 0.44290
C6 C 0.44947(17) 0.55213(10) 0.1655(2)
C7 C 0.35814(18) 0.57944(11) 0.0196(2)
H14 H 0.37580 0.55980 -0.06950
H15 H 0.36660 0.63130 0.01680
C8 C 0.22659(18) 0.56225(10) -0.0017(2)
C9 C 0.19436(19) 0.58897(11) 0.1375(2)
H16 H 0.22730 0.63700 0.16270
H17 H 0.10750 0.59340 0.10350
C10 C 0.23386(19) 0.54598(11) 0.2867(2)
H18 H 0.20490 0.49700 0.26410
H19 H 0.32110 0.54460 0.32870
C11 C 0.1873(2) 0.57755(12) 0.4063(2)
H20 H 0.21320 0.62670 0.42560
H21 H 0.21780 0.55060 0.50230
H22 H 0.10100 0.57570 0.36800
C12 C 0.20430(18) 0.48204(10) -0.0210(2)
H23 H 0.25530 0.45850 0.07410
H24 H 0.12150 0.47300 -0.02920
C13 C 0.2255(2) 0.44712(11) -0.1583(3)
H25 H 0.31120 0.44690 -0.14080
H26 H 0.18630 0.47530 -0.25220
C14 C 0.1791(2) 0.37159(12) -0.1843(3)
H27 H 0.21320 0.34440 -0.08910
H28 H 0.20130 0.34990 -0.26680
H29 H 0.09300 0.37200 -0.21350
C15 C 0.14912(18) 0.60248(10) -0.1506(2)
H30 H 0.18530 0.59300 -0.23140
C16 C 0.14718(19) 0.68287(11) -0.1331(2)
H31 H 0.10920 0.69480 -0.05660
H32 H 0.22910 0.70080 -0.09380
C17 C 0.0803(2) 0.71921(12) -0.2865(3)
H33 H 0.07950 0.77080 -0.26990
H34 H 0.12180 0.71030 -0.36060
C18 C -0.0459(2) 0.69242(12) -0.3539(3)
H35 H -0.09030 0.70600 -0.28560
H36 H -0.08500 0.71430 -0.45600
C19 C -0.04692(19) 0.61268(12) -0.3706(3)
H37 H -0.01050 0.59960 -0.44810
H38 H -0.12940 0.59570 -0.40780
C20 C 0.02068(19) 0.57680(12) -0.2167(2)
H39 H 0.01990 0.52510 -0.23220
H40 H -0.01960 0.58680 -0.14170
#END
