
#######################################################################
#
#                 Cambridge Crystallographic Data Centre
#                                CCDC
#
#######################################################################
#
# If this CIF has been generated from an entry in the Cambridge
# Structural Database, then it will include bibliographic, chemical,
# crystal, experimental, refinement or atomic coordinate data resulting
# from the CCDC's data processing and validation procedures.
#
#######################################################################

data_CSD_CIF_DUYGUA
_audit_creation_date 2010-12-14
_audit_creation_method CSD-ConQuest-V1
_database_code_CSD DUYGUA
_database_code_depnum_ccdc_archive 'CCDC 786789'
_chemical_formula_sum 'C22 H44 N2 O2'
_chemical_formula_moiety
;
C22 H44 N2 O2
;
_journal_coden_Cambridge 4
_journal_volume 132
_journal_year 2010
_journal_page_first 1953
_journal_name_full 'J.Am.Chem.Soc. '
loop_
_publ_author_name
"Pil Seok Chae"
"I.A.Guzei"
"S.H.Gellman"
_chemical_name_systematic
;
3-Butyl-3-cyclohexyl-N-(3-(dimethylnitroryl)propyl)heptanamide
;
_cell_volume   1114.918
_exptl_crystal_colour 'colorless'
_exptl_crystal_density_diffrn 1.098
_exptl_crystal_description 'block'
_diffrn_ambient_temperature 100
_refine_special_details
;
C1,C2,C3,C4,C5 and C1A,C2A,C3A,C4A,C5A disordered over two sites with 
occupancies 0.604:0.396.
;
#These two values have been output from a single CSD field.
_refine_ls_R_factor_gt 0.0489
_refine_ls_wR_factor_gt 0.0489
_symmetry_cell_setting triclinic
_symmetry_space_group_name_H-M 'P -1'
_symmetry_Int_Tables_number 2
loop_
_symmetry_equiv_pos_site_id
_symmetry_equiv_pos_as_xyz
1 x,y,z
2 -x,-y,-z
_cell_length_a 8.8925(16)
_cell_length_b 9.3348(16)
_cell_length_c 14.981(3)
_cell_angle_alpha 91.629(3)
_cell_angle_beta 91.129(3)
_cell_angle_gamma 116.170(2)
_cell_formula_units_Z 2
loop_
_atom_type_symbol
_atom_type_radius_bond
C 0.68
H 0.23
N 0.68
O 0.68
loop_
_atom_site_label
_atom_site_type_symbol
_atom_site_fract_x
_atom_site_fract_y
_atom_site_fract_z
O1 O 0.64965(15) 0.54160(14) 0.39940(8)
O2 O 0.16072(17) 0.86259(17) 0.58072(10)
N1 N 0.70682(17) 0.70558(17) 0.41273(9)
N2 N 0.24400(18) 0.67393(18) 0.53976(12)
H1 H 0.26090 0.59250 0.55660
C1 C 0.8606(3) 0.7544(3) 0.4700(2)
H2 H 0.83100 0.70370 0.52760
H3 H 0.91440 0.87080 0.47980
H4 H 0.93810 0.72110 0.44050
C2 C 0.7532(4) 0.7712(3) 0.32222(18)
H5 H 0.84430 0.74880 0.30050
H6 H 0.79040 0.88700 0.32580
H7 H 0.65560 0.72100 0.28090
C3 C 0.5790(3) 0.7378(3) 0.45559(18)
H8 H 0.62510 0.85420 0.46860
H9 H 0.55510 0.68480 0.51350
C4 C 0.4156(6) 0.6837(8) 0.4025(6)
H10 H 0.35830 0.56560 0.39690
H11 H 0.43800 0.72530 0.34160
C5 C 0.3041(4) 0.7450(4) 0.4494(2)
H12 H 0.20480 0.72180 0.40990
H13 H 0.36650 0.86250 0.45800
C6 C 0.1653(2) 0.7344(2) 0.59421(12)
C7 C 0.0728(2) 0.6301(2) 0.66971(12)
H14 H 0.06800 0.52320 0.65820
H15 H -0.04400 0.61670 0.66650
C8 C 0.1423(2) 0.6858(2) 0.76728(12)
C9 C 0.0187(2) 0.5634(2) 0.83194(11)
H16 H 0.06880 0.60110 0.89350
C10 C 0.0015(2) 0.3926(2) 0.81920(11)
H17 H -0.04900 0.34860 0.75920
H18 H 0.11410 0.39560 0.82270
C11 C -0.1074(3) 0.2839(2) 0.89005(12)
H19 H -0.11810 0.17470 0.87910
H20 H -0.05220 0.32330 0.94970
C12 C -0.2808(3) 0.2779(2) 0.88933(13)
H21 H -0.34590 0.21090 0.93800
H22 H -0.34070 0.22870 0.83180
C13 C -0.2682(3) 0.4456(2) 0.90184(13)
H23 H -0.22150 0.48910 0.96260
H24 H -0.38170 0.44020 0.89640
C14 C -0.1568(2) 0.5573(2) 0.83270(12)
H25 H -0.14550 0.66630 0.84550
H26 H -0.21150 0.52120 0.77270
C15 C 0.3166(2) 0.6877(2) 0.77869(12)
H27 H 0.33860 0.68210 0.84320
H28 H 0.31070 0.58940 0.74870
C16 C 0.4666(2) 0.8300(2) 0.74328(16)
H29 H 0.43600 0.85370 0.68350
H30 H 0.49360 0.92490 0.78350
C17 C 0.6215(3) 0.8006(2) 0.73632(16)
H31 H 0.65360 0.77930 0.79630
H32 H 0.59380 0.70440 0.69720
C18 C 0.7694(3) 0.9410(3) 0.6992(2)
H33 H 0.73730 0.96470 0.64050
H34 H 0.86370 0.91420 0.69310
H35 H 0.80270 1.03480 0.73990
C19 C 0.1550(2) 0.8543(2) 0.78865(13)
H36 H 0.23940 0.93070 0.74980
H37 H 0.04560 0.85250 0.77260
C20 C 0.2018(3) 0.9176(2) 0.88536(14)
H38 H 0.10960 0.85150 0.92400
H39 H 0.30340 0.90700 0.90480
C21 C 0.2350(3) 1.0915(2) 0.89781(15)
H40 H 0.33190 1.15820 0.86210
H41 H 0.13620 1.10320 0.87450
C22 C 0.2707(3) 1.1528(2) 0.99456(17)
H42 H 0.29040 1.26470 0.99830
H43 H 0.37030 1.14460 1.01760
H44 H 0.17440 1.08870 1.03020
C23? C 0.7384(5) 0.7683(5) 0.5114(2)
C24? C 0.8665(5) 0.8155(5) 0.3697(3)
C25? C 0.5741(5) 0.7562(5) 0.3778(3)
C26? C 0.4091(8) 0.6770(13) 0.4239(10)
C27? C 0.3800(5) 0.7865(5) 0.4910(3)
H45? H 0.63920 0.70580 0.54550
H46? H 0.76050 0.88090 0.51440
H47? H 0.83540 0.75790 0.53670
H48? H 0.96110 0.80280 0.39650
H49? H 0.88470 0.92640 0.37920
H50? H 0.85740 0.78890 0.30550
H51? H 0.21340 0.56830 0.53460
H52? H 0.61860 0.87350 0.38630
H53? H 0.55400 0.72940 0.31290
H54? H 0.40520 0.58340 0.45500
H55? H 0.31660 0.63750 0.37800
H56? H 0.48050 0.84680 0.53030
H57? H 0.34790 0.86250 0.46080
#END
