
#######################################################################
#
#                 Cambridge Crystallographic Data Centre
#                                CCDC
#
#######################################################################
#
# If this CIF has been generated from an entry in the Cambridge
# Structural Database, then it will include bibliographic, chemical,
# crystal, experimental, refinement or atomic coordinate data resulting
# from the CCDC's data processing and validation procedures.
#
#######################################################################

data_CSD_CIF_DUYHUB
_audit_creation_date 2010-12-14
_audit_creation_method CSD-ConQuest-V1
_database_code_CSD DUYHUB
_database_code_depnum_ccdc_archive 'CCDC 786794'
_chemical_formula_sum 'C26 H46 N2 O2'
_chemical_formula_moiety
;
C26 H46 N2 O2
;
_journal_coden_Cambridge 4
_journal_volume 132
_journal_year 2010
_journal_page_first 1953
_journal_name_full 'J.Am.Chem.Soc. '
loop_
_publ_author_name
"Pil Seok Chae"
"I.A.Guzei"
"S.H.Gellman"
_chemical_name_systematic
;
3-Butyl-3-(4-t-butylphenyl)-N-(3-(dimethylnitroryl)propyl)heptanamide
;
_cell_volume   2529.398
_exptl_crystal_colour 'colorless'
_exptl_crystal_density_diffrn 1.099
_exptl_crystal_description 'plate'
_diffrn_ambient_temperature 100
#These two values have been output from a single CSD field.
_refine_ls_R_factor_gt 0.0624
_refine_ls_wR_factor_gt 0.0624
_symmetry_cell_setting monoclinic
_symmetry_space_group_name_H-M 'P 21/c'
_symmetry_Int_Tables_number 14
loop_
_symmetry_equiv_pos_site_id
_symmetry_equiv_pos_as_xyz
1 x,y,z
2 -x,1/2+y,1/2-z
3 -x,-y,-z
4 x,-1/2-y,-1/2+z
_cell_length_a 16.916(2)
_cell_length_b 10.4459(14)
_cell_length_c 14.3157(19)
_cell_angle_alpha 90
_cell_angle_beta 90.768(2)
_cell_angle_gamma 90
_cell_formula_units_Z 4
loop_
_atom_type_symbol
_atom_type_radius_bond
C 0.68
H 0.23
N 0.68
O 0.68
loop_
_atom_site_label
_atom_site_type_symbol
_atom_site_fract_x
_atom_site_fract_y
_atom_site_fract_z
O1 O 1.03988(8) 1.11508(11) 0.31373(9)
O2 O 0.90249(7) 0.57425(12) 0.45077(9)
N1 N 1.05253(9) 0.98486(13) 0.29794(10)
N2 N 0.96203(8) 0.73999(13) 0.52539(10)
H1 H 0.95640 0.80620 0.56270
C1 C 1.13477(11) 0.96785(18) 0.26482(14)
H2 H 1.14310 1.02170 0.20980
H3 H 1.14330 0.87790 0.24830
H4 H 1.17210 0.99270 0.31450
C2 C 0.99623(11) 0.94050(18) 0.22374(13)
H5 H 0.94190 0.95770 0.24310
H6 H 1.00300 0.84830 0.21390
H7 H 1.00680 0.98630 0.16550
C3 C 1.03935(11) 0.91498(16) 0.38799(12)
H8 H 0.98580 0.93680 0.41010
H9 H 1.07770 0.94800 0.43490
C4 C 1.04656(11) 0.77012(16) 0.38559(12)
H10 H 1.09850 0.74590 0.35980
H11 H 1.00470 0.73410 0.34430
C5 C 1.03866(10) 0.71497(17) 0.48375(12)
H12 H 1.04720 0.62130 0.48110
H13 H 1.08060 0.75190 0.52440
C6 C 0.89989(10) 0.66321(16) 0.50744(12)
C7 C 0.82715(10) 0.69340(17) 0.56406(12)
H14 H 0.83350 0.78000 0.59120
H15 H 0.82460 0.63200 0.61660
C8 C 0.74763(10) 0.68872(16) 0.50987(12)
C9 C 0.72436(11) 0.55062(17) 0.48107(13)
H16 H 0.66980 0.55300 0.45530
H17 H 0.75950 0.52370 0.42990
C10 C 0.72776(11) 0.44830(17) 0.55648(14)
H18 H 0.70380 0.48190 0.61420
H19 H 0.78360 0.42690 0.57070
C11 C 0.68365(12) 0.32695(19) 0.52539(16)
H20 H 0.62610 0.34270 0.52920
H21 H 0.69590 0.30960 0.45920
C12 C 0.70400(14) 0.2088(2) 0.58285(17)
H22 H 0.75950 0.18580 0.57320
H23 H 0.66990 0.13760 0.56320
H24 H 0.69570 0.22690 0.64920
C13 C 0.75469(11) 0.76570(16) 0.41784(12)
H25 H 0.79410 0.72230 0.37830
H26 H 0.70320 0.76110 0.38440
C14 C 0.77805(11) 0.90643(17) 0.42577(13)
H27 H 0.73970 0.95200 0.46550
H28 H 0.83100 0.91340 0.45570
C15 C 0.77956(11) 0.96829(18) 0.32971(13)
H29 H 0.72570 0.96450 0.30190
H30 H 0.81480 0.91770 0.28930
C16 C 0.80728(12) 1.10689(19) 0.32966(15)
H31 H 0.77530 1.15680 0.37310
H32 H 0.80150 1.14240 0.26660
H33 H 0.86300 1.11070 0.34930
C17 C 0.68144(10) 0.74702(16) 0.56924(12)
C18 C 0.69231(10) 0.79364(17) 0.65929(12)
H34 H 0.74260 0.78500 0.68890
C19 C 0.63111(11) 0.85283(18) 0.70740(13)
H35 H 0.64100 0.88410 0.76880
C20 C 0.55626(11) 0.86724(17) 0.66821(13)
C21 C 0.54483(11) 0.81710(18) 0.57857(14)
H36 H 0.49400 0.82310 0.54980
C22 C 0.60535(11) 0.75913(18) 0.53081(13)
H37 H 0.59500 0.72640 0.46990
C23 C 0.48811(11) 0.93682(18) 0.71685(14)
C24 C 0.51104(14) 0.9820(2) 0.81497(14)
H38 H 0.52520 0.90790 0.85370
H39 H 0.46630 1.02700 0.84270
H40 H 0.55640 1.04020 0.81140
C25 C 0.46420(12) 1.05357(19) 0.65804(15)
H41 H 0.42420 1.10320 0.69120
H42 H 0.44230 1.02490 0.59790
H43 H 0.51080 1.10720 0.64740
C26 C 0.41686(12) 0.8465(2) 0.72391(17)
H44 H 0.43190 0.77050 0.76020
H45 H 0.39970 0.82040 0.66110
H46 H 0.37340 0.89080 0.75500
#END
