
#######################################################################
#
#                 Cambridge Crystallographic Data Centre
#                                CCDC
#
#######################################################################
#
# If this CIF has been generated from an entry in the Cambridge
# Structural Database, then it will include bibliographic, chemical,
# crystal, experimental, refinement or atomic coordinate data resulting
# from the CCDC's data processing and validation procedures.
#
#######################################################################

data_CSD_CIF_DUYSUL
_audit_creation_date 1987-07-17
_audit_creation_method CSD-ConQuest-V1
_database_code_CSD DUYSUL
_database_code_depnum_ccdc_archive 'CCDC 1147561'
_chemical_formula_sum 'C19 H19 N3 O6'
_chemical_formula_moiety
;
C19 H19 N3 O6
;
_journal_coden_Cambridge 194
_journal_volume 34
_journal_year 1986
_journal_page_first 3071
_journal_name_full 'Chem.Pharm.Bull. '
loop_
_publ_author_name
"A.Miyamae"
"S.Koda"
"Y.Morimoto"
_chemical_name_systematic
;
5-Isopropyl-3-methyl 
2-cyano-6-methyl-4-(m-nitrophenyl)-1,4-dihydro-3,5-pyridinedicarboxylate
;
_chemical_name_common
;
Nilvadipine; Nivadil; DrugBank: DB06712
;
_cell_volume   3812.246
_exptl_crystal_colour 'yellow'
_exptl_crystal_density_diffrn 1.343
_exptl_special_details
;
calcium channel antagonist activity
H262 has been deleted due to suspected coordinate error
;
_diffrn_ambient_temperature ?
_diffrn_special_details
;
The study was carried out at room temperature,in the range 283-303K

;
#These two values have been output from a single CSD field.
_refine_ls_R_factor_gt 0.069
_refine_ls_wR_factor_gt 0.069
_symmetry_cell_setting orthorhombic
_symmetry_space_group_name_H-M 'P b c a'
_symmetry_Int_Tables_number 61
loop_
_symmetry_equiv_pos_site_id
_symmetry_equiv_pos_as_xyz
1 x,y,z
2 1/2-x,-y,1/2+z
3 1/2+x,1/2-y,-z
4 -x,1/2+y,1/2-z
5 -x,-y,-z
6 -1/2+x,y,-1/2-z
7 -1/2-x,-1/2+y,z
8 x,-1/2-y,-1/2+z
_cell_length_a 15.378(2)
_cell_length_b 17.469(5)
_cell_length_c 14.191(2)
_cell_angle_alpha 90
_cell_angle_beta 90
_cell_angle_gamma 90
_cell_formula_units_Z 8
loop_
_atom_type_symbol
_atom_type_radius_bond
C 0.68
H 0.23
N 0.68
O 0.68
loop_
_atom_site_label
_atom_site_type_symbol
_atom_site_fract_x
_atom_site_fract_y
_atom_site_fract_z
N1 N 0.1661(2) 0.4696(1) -0.0788(2)
C1 C 0.0992(2) 0.4341(2) -0.0321(2)
C2 C 0.1015(2) 0.4212(2) 0.0612(2)
C3 C 0.1860(2) 0.4347(2) 0.1138(2)
C4 C 0.2414(2) 0.4938(2) 0.0626(2)
C5 C 0.2318(2) 0.5067(2) -0.0307(2)
C6 C 0.0274(2) 0.4161(2) -0.0923(3)
N2 N -0.0253(2) 0.4062(2) -0.1483(3)
C7 C 0.0241(2) 0.3915(2) 0.1097(2)
O1 O -0.0442(2) 0.3759(2) 0.0719(2)
O2 O 0.0371(1) 0.3840(1) 0.2025(2)
C8 C -0.0347(3) 0.3530(3) 0.2569(3)
C9 C 0.2334(2) 0.3579(2) 0.1259(2)
C10 C 0.2189(2) 0.3147(2) 0.2068(2)
C11 C 0.2599(2) 0.2441(2) 0.2143(2)
C12 C 0.3132(2) 0.2140(2) 0.1458(3)
C13 C 0.3265(2) 0.2572(2) 0.0648(3)
C14 C 0.2867(2) 0.3292(2) 0.0554(2)
N3 N 0.2448(2) 0.1990(2) 0.3009(2)
O3 O 0.1826(2) 0.2151(2) 0.3502(2)
O4 O 0.2950(2) 0.1466(2) 0.3178(2)
C15 C 0.3087(2) 0.5300(2) 0.1221(2)
O5 O 0.3170(2) 0.5154(1) 0.2057(2)
O6 O 0.3593(1) 0.5791(1) 0.0765(2)
C16 C 0.4325(2) 0.6142(2) 0.1259(3)
C17 C 0.4469(3) 0.6894(2) 0.0744(4)
C18 C 0.5085(3) 0.5611(3) 0.1216(3)
C19 C 0.2831(2) 0.5594(2) -0.0944(2)
H1 H 0.159(2) 0.474(2) -0.142(3)
H2 H 0.165(2) 0.451(2) 0.184(2)
H3 H -0.051(3) 0.303(2) 0.230(3)
H4 H -0.016(3) 0.351(2) 0.318(3)
H5 H -0.090(3) 0.388(2) 0.243(3)
H6 H 0.177(2) 0.333(2) 0.259(2)
H7 H 0.346(2) 0.159(2) 0.160(3)
H8 H 0.362(2) 0.237(2) 0.010(3)
H9 H 0.298(2) 0.358(2) -0.008(2)
H10 H 0.409(2) 0.624(2) 0.198(3)
H11 H 0.393(3) 0.722(2) 0.072(3)
H12 H 0.492(3) 0.718(3) 0.104(3)
H13 H 0.493(3) 0.511(2) 0.159(3)
H14 H 0.529(2) 0.554(2) 0.053(3)
H15 H 0.565(3) 0.583(3) 0.159(3)
H16 H 0.264(2) 0.608(2) -0.083(3)
H17 H 0.346(2) 0.550(2) -0.086(3)
H18 H 0.273(3) 0.553(2) -0.163(3)
#END
