
#######################################################################
#
#                 Cambridge Crystallographic Data Centre
#                                CCDC
#
#######################################################################
#
# If this CIF has been generated from an entry in the Cambridge
# Structural Database, then it will include bibliographic, chemical,
# crystal, experimental, refinement or atomic coordinate data resulting
# from the CCDC's data processing and validation procedures.
#
#######################################################################

data_CSD_CIF_EABXIO
_audit_creation_date 1993-12-06
_audit_creation_method CSD-ConQuest-V1
_database_code_CSD EABXIO
_chemical_formula_sum 'C6 H5 N3 O4'
_chemical_formula_moiety
;
C6 H5 N3 O4
;
_journal_coden_Cambridge 35
_journal_volume 58
_journal_year 1993
_journal_page_first 1641
_journal_name_full 'J.Org.Chem. '
loop_
_publ_author_name
"A.Ouihia"
"L.Rene"
"J.Guilhem"
"C.Pascard"
"B.Badet"
_chemical_name_systematic
;
Succinimidyl diazoacetate
;
_chemical_melting_point 392.15
_cell_volume    798.363
_exptl_special_details
;
Melting point range 392.15-393.15K

;
_diffrn_ambient_temperature ?
_diffrn_special_details
;
The study was carried out at room temperature,in the range 283-303K

;
#These two values have been output from a single CSD field.
_refine_ls_R_factor_gt 0.048
_refine_ls_wR_factor_gt 0.048
_symmetry_cell_setting orthorhombic
_symmetry_space_group_name_H-M 'P 21 21 21'
_symmetry_Int_Tables_number 19
loop_
_symmetry_equiv_pos_site_id
_symmetry_equiv_pos_as_xyz
1 x,y,z
2 1/2+x,1/2-y,-z
3 -x,1/2+y,1/2-z
4 1/2-x,-y,1/2+z
_cell_length_a 6.679(10)
_cell_length_b 8.238(8)
_cell_length_c 14.51(2)
_cell_angle_alpha 90
_cell_angle_beta 90
_cell_angle_gamma 90
_cell_formula_units_Z 4
loop_
_atom_type_symbol
_atom_type_radius_bond
C 0.68
H 0.23
N 0.68
O 0.68
loop_
_atom_site_label
_atom_site_type_symbol
_atom_site_fract_x
_atom_site_fract_y
_atom_site_fract_z
N1 N 0.2543(4) 0.3985(3) 0.5944(2)
C1 C 0.4465(5) 0.4219(4) 0.6275(2)
O1 O 0.5280(4) 0.5527(3) 0.6291(2)
C2 C 0.5175(5) 0.2568(4) 0.6566(3)
C3 C 0.3456(5) 0.1396(4) 0.6368(3)
C4 C 0.1826(4) 0.2401(3) 0.5947(2)
O2 O 0.0211(3) 0.2009(3) 0.5653(2)
O3 O 0.1512(3) 0.5247(3) 0.5533(2)
C5 C 0.0358(4) 0.6124(4) 0.6173(2)
O4 O 0.0120(4) 0.5668(3) 0.6938(2)
C6 C -0.0406(5) 0.7509(4) 0.5726(3)
N2 N -0.1675(4) 0.8378(3) 0.6210(2)
N3 N -0.2744(4) 0.9098(3) 0.6628(2)
H1 H 0.549(6) 0.263(5) 0.711(3)
H2 H 0.632(6) 0.225(5) 0.624(3)
H3 H 0.302(8) 0.089(5) 0.684(3)
H4 H 0.371(7) 0.063(5) 0.594(3)
H5 H -0.010(5) 0.778(4) 0.516(2)
#END
