
#######################################################################
#
#                 Cambridge Crystallographic Data Centre
#                                CCDC
#
#######################################################################
#
# If this CIF has been generated from an entry in the Cambridge
# Structural Database, then it will include bibliographic, chemical,
# crystal, experimental, refinement or atomic coordinate data resulting
# from the CCDC's data processing and validation procedures.
#
#######################################################################

data_CSD_CIF_EACVOT
_audit_creation_date 1994-09-09
_audit_creation_method CSD-ConQuest-V1
_database_code_CSD EACVOT
_chemical_formula_sum 'C22 H27 N3 O3'
_chemical_formula_moiety
;
C22 H27 N3 O3
;
_journal_coden_Cambridge 35
_journal_volume 58
_journal_year 1993
_journal_page_first 5615
_journal_name_full 'J.Org.Chem. '
loop_
_publ_author_name
"R.Amoroso"
"G.Cardillo"
"P.Sabatino"
"C.Tomasini"
"A.Trere"
_chemical_name_systematic
;
(4S,5R,3'S)-3-(3-Benzyloxyamino-1-oxobutyl)-1,5-dimethyl-4-phenyl-imidazolidin
-2-one
;
_chemical_melting_point 375.15
_cell_volume   1010.606
_exptl_crystal_density_diffrn 1.25
_diffrn_ambient_temperature ?
_diffrn_special_details
;
The study was carried out at room temperature,in the range 283-303K

;
#These two values have been output from a single CSD field.
_refine_ls_R_factor_gt 0.052
_refine_ls_wR_factor_gt 0.052
_symmetry_cell_setting monoclinic
_symmetry_space_group_name_H-M 'P 21'
_symmetry_Int_Tables_number 4
loop_
_symmetry_equiv_pos_site_id
_symmetry_equiv_pos_as_xyz
1 x,y,z
2 -x,1/2+y,-z
_cell_length_a 6.230(3)
_cell_length_b 13.697(5)
_cell_length_c 11.859(5)
_cell_angle_alpha 90
_cell_angle_beta 92.96(3)
_cell_angle_gamma 90
_cell_formula_units_Z 2
loop_
_atom_type_symbol
_atom_type_radius_bond
C 0.68
H 0.23
N 0.68
O 0.68
loop_
_atom_site_label
_atom_site_type_symbol
_atom_site_fract_x
_atom_site_fract_y
_atom_site_fract_z
N1 N 0.2376(14) 0.68991(77) 0.22585(75)
C1 C 0.3448(16) 0.77329(96) 0.24189(81)
O1 O 0.5323(11) 0.78207(77) 0.27828(56)
N2 N 0.2046(12) 0.85090(85) 0.21219(63)
C2 C 0.3305(18) 0.59592(85) 0.2653(12)
H1 H 0.325(22) 0.5496(34) 0.2034(35)
H2 H 0.249(15) 0.5708(53) 0.3263(83)
H3 H 0.4787(77) 0.6057(24) 0.292(12)
C3 C -0.0068(16) 0.81063(91) 0.16691(82)
H4 H -0.1213(16) 0.84273(91) 0.20516(82)
C4 C 0.0038(17) 0.70327(95) 0.20475(98)
H5 H -0.0673(17) 0.69616(95) 0.27514(98)
C5 C -0.0866(19) 0.6299(10) 0.1203(11)
H6 H -0.077(11) 0.5663(27) 0.1563(53)
H7 H -0.0281(98) 0.6262(50) 0.0463(28)
H8 H -0.2363(43) 0.6499(52) 0.1125(53)
C6 C -0.03994(95) 0.82834(78) 0.04319(40)
C7 C 0.12709(76) 0.81944(77) -0.02944(55)
C8 C 0.08608(96) 0.82811(83) -0.14532(51)
C9 C -0.1220(11) 0.84565(85) -0.18861(39)
C10 C -0.28899(83) 0.85453(81) -0.11595(52)
C11 C -0.24797(82) 0.84588(79) -0.00007(48)
H9 H 0.26479(83) 0.80784(97) -0.00081(74)
H10 H 0.1966(12) 0.8222(11) -0.19340(66)
H11 H -0.1491(15) 0.8514(11) -0.26529(40)
H12 H -0.42668(94) 0.8661(10) -0.14459(70)
H13 H -0.3585(10) 0.8518(10) 0.04801(62)
C12 C 0.2264(19) 0.9504(10) 0.2246(10)
O2 O 0.0752(12) 1.00189 0.20241(74)
C13 C 0.4476(16) 0.98916(96) 0.2679(11)
H14 H 0.4537(16) 0.99088(96) 0.3498(11)
H15 H 0.5588(16) 0.94502(96) 0.2447(11)
C14 C 0.4902(17) 1.08966(97) 0.22352(94)
H16 H 0.3607(17) 1.12793(97) 0.23101(94)
C15 C 0.5389(18) 1.0902(11) 0.10357(71)
H17 H 0.556(10) 1.1576(15) 0.0810(15)
H18 H 0.4202(37) 1.0612(31) 0.0592(11)
H19 H 0.6698(52) 1.0543(42) 0.0910(24)
N3 N 0.6645(14) 1.13961(85) 0.28659(63)
H20 H 0.7766(50) 1.1666(39) 0.2568(10)
O3 O 0.6252(11) 1.13813(79) 0.40552(66)
C16 C 0.5450(18) 1.22810(99) 0.4386(11)
H21 H 0.4782(18) 1.21994(99) 0.5101(11)
H22 H 0.4342(18) 1.24873(99) 0.3832(11)
C17 C 0.714(1) 1.30870(72) 0.45150(58)
C18 C 0.9148(11) 1.28663(69) 0.50162(60)
C19 C 1.06280(92) 1.36073(77) 0.52508(59)
C20 C 1.0101(11) 1.45690(73) 0.49845(70)
C21 C 0.8094(12) 1.47896(69) 0.44836(72)
C22 C 0.66129(91) 1.40485(77) 0.42485(60)
H23 H 0.9496(16) 1.22296(71) 0.51925(92)
H24 H 1.1957(11) 1.34614(91) 0.55824(85)
H25 H 1.1081(14) 1.50596(80) 0.514(1)
H26 H 0.7745(17) 1.54262(71) 0.4307(11)
H27 H 0.5284(11) 1.41945(91) 0.39167(86)
#END
