
#######################################################################
#
#                 Cambridge Crystallographic Data Centre
#                                CCDC
#
#######################################################################
#
# If this CIF has been generated from an entry in the Cambridge
# Structural Database, then it will include bibliographic, chemical,
# crystal, experimental, refinement or atomic coordinate data resulting
# from the CCDC's data processing and validation procedures.
#
#######################################################################

data_CSD_CIF_EAXIZP
_audit_creation_date 1978-10-27
_audit_creation_method CSD-ConQuest-V1
_database_code_CSD EAXIZP
_chemical_formula_sum 'C10 H14 N2 O5'
_chemical_formula_moiety
;
C10 H14 N2 O5
;
_journal_coden_Cambridge 103
_journal_volume 94
_journal_year 1977
_journal_page_first 403
_journal_name_full 'Acta Chim.Acad.Sci.Hung. '
loop_
_publ_author_name
"P.Lugosi"
"G.Doleschall"
"L.Parkanyi"
"A.Kalman"
_chemical_name_systematic
;
Ethyl 3-amino-3-(3-ethoxy-5-oxo-2-isoxazolin-4-ylidene) propionate
;
_cell_volume   2344.466
_exptl_crystal_density_diffrn 1.37
_exptl_special_details
;
In the atomic coordinate list in the paper C10 is listed as O10

;
_diffrn_ambient_temperature ?
_diffrn_special_details
;
The study was carried out at room temperature,in the range 283-303K

;
#These two values have been output from a single CSD field.
_refine_ls_R_factor_gt 0.057
_refine_ls_wR_factor_gt 0.057
_symmetry_cell_setting monoclinic
_symmetry_space_group_name_H-M 'C 2/c'
_symmetry_Int_Tables_number 15
loop_
_symmetry_equiv_pos_site_id
_symmetry_equiv_pos_as_xyz
1 x,y,z
2 1/2+x,1/2+y,z
3 -x,y,1/2-z
4 1/2-x,1/2+y,1/2-z
5 -x,-y,-z
6 -1/2-x,-1/2-y,-z
7 x,-y,-1/2+z
8 -1/2+x,-1/2-y,-1/2+z
_cell_length_a 13.317(3)
_cell_length_b 6.988(2)
_cell_length_c 25.797(4)
_cell_angle_alpha 90
_cell_angle_beta 102.42(2)
_cell_angle_gamma 90
_cell_formula_units_Z 8
loop_
_atom_type_symbol
_atom_type_radius_bond
C 0.68
H 0.23
N 0.68
O 0.68
loop_
_atom_site_label
_atom_site_type_symbol
_atom_site_fract_x
_atom_site_fract_y
_atom_site_fract_z
O1 O 0.49420 0.21070 0.04150
N1 N 0.43980 0.34100 0.06950
C1 C 0.49980 0.48930 0.08040
C2 C 0.59340 0.47400 0.06190
C3 C 0.58720 0.29010 0.03760
O2 O 0.64510 0.20490 0.01520
C4 C 0.67150 0.60590 0.06290
N2 N 0.75360 0.56390 0.04510
C5 C 0.66240 0.80670 0.08150
C6 C 0.67810 0.82970 0.14090
O3 O 0.71380 0.71340 0.17330
O4 O 0.64800 1.00440 0.15150
C7 C 0.65790 1.05400 0.20710
C8 C 0.60490 1.24140 0.20840
O5 O 0.47910 0.64130 0.10730
C9 C 0.38250 0.64190 0.12470
C10 C 0.38710 0.81460 0.16070
H1 H 0.80400 0.64300 0.04500
H2 H 0.76800 0.46400 0.03600
H3 H 0.59300 0.85500 0.06500
H4 H 0.71200 0.88600 0.07300
H5 H 0.73200 1.06600 0.22600
H6 H 0.62700 0.95700 0.22700
H7 H 0.60800 1.28700 0.24600
H8 H 0.52800 1.22700 0.19200
H9 H 0.63400 1.34100 0.19300
H10 H 0.37400 0.52400 0.14600
H11 H 0.32200 0.64500 0.09500
H12 H 0.43700 0.79200 0.18800
H13 H 0.33300 0.83300 0.16700
H14 H 0.41700 0.91700 0.14600
#END
