
#######################################################################
#
#                 Cambridge Crystallographic Data Centre
#                                CCDC
#
#######################################################################
#
# If this CIF has been generated from an entry in the Cambridge
# Structural Database, then it will include bibliographic, chemical,
# crystal, experimental, refinement or atomic coordinate data resulting
# from the CCDC's data processing and validation procedures.
#
#######################################################################

data_CSD_CIF_EAZOBZ10
_audit_creation_date 1972-03-21
_audit_creation_method CSD-ConQuest-V1
_database_code_CSD EAZOBZ10
_chemical_formula_sum 'C18 H18 N2 O5'
_chemical_formula_moiety
;
C18 H18 N2 O5
;
_journal_coeditor_code "IUCr A08343"
_journal_coden_Cambridge 107
_journal_volume 27
_journal_year 1971
_journal_page_first 1884
_journal_name_full 'Acta Crystallogr.,Sect.B:Struct.Crystallogr.Cryst.Chem. '
loop_
_publ_author_name
"W.R.Krigbaum"
"P.G.Barber"
_chemical_name_systematic
;
Ethyl p-azoxybenzoate
;
_cell_volume    857.764
_exptl_crystal_density_diffrn 1.325
_exptl_special_details
;
low temp. polymorph
COORDINATES OF H(2A) AND H(25A) APPEAR TO BE IN ERROR

;
_diffrn_ambient_temperature ?
_diffrn_special_details
;
The study was carried out at room temperature,in the range 283-303K

;
#These two values have been output from a single CSD field.
_refine_ls_R_factor_gt 0.093
_refine_ls_wR_factor_gt 0.093
_symmetry_cell_setting triclinic
_symmetry_space_group_name_H-M 'P -1'
_symmetry_Int_Tables_number 2
loop_
_symmetry_equiv_pos_site_id
_symmetry_equiv_pos_as_xyz
1 x,y,z
2 -x,-y,-z
_cell_length_a 7.56(2)
_cell_length_b 18.35(7)
_cell_length_c 6.28(1)
_cell_angle_alpha 94.38(30)
_cell_angle_beta 97.21(31)
_cell_angle_gamma 83.97(25)
_cell_formula_units_Z 2
loop_
_atom_type_symbol
_atom_type_radius_bond
C 0.68
H 0.20
N 0.68
O 0.68
loop_
_atom_site_label
_atom_site_type_symbol
_atom_site_fract_x
_atom_site_fract_y
_atom_site_fract_z
C1 C -0.20830 0.45300 0.14140
C2 C 0.11600 0.13080 0.06880
C3 C 0.02920 0.20050 0.04140
C4 C 0.37290 -0.08520 0.09310
C5 C 0.43670 -0.09360 0.30190
C6 C 0.52490 -0.15900 0.36210
C7 C 0.54890 -0.21700 0.20960
C8 C 0.48690 -0.20950 -0.00280
C9 C -0.22940 0.41240 -0.04710
C10 C 0.39540 -0.14240 -0.06300
C11 C 0.64450 -0.28910 0.27460
C12 C 0.77970 -0.35980 0.56540
C13 C 0.63880 -0.40830 0.59690
C14 C -0.13600 0.29580 -0.20190
C15 C -0.04140 0.22120 -0.16190
C16 C -0.03160 0.17000 -0.33500
C17 C 0.05060 0.10160 -0.31570
C18 C 0.12090 0.08420 -0.11420
H1 H 0.17200 0.11400 0.22900
H2 H -0.24600 0.45000 0.30200
H3 H 0.03100 0.24100 0.15400
H4 H -0.29700 0.49500 0.17400
H5 H -0.09800 0.44300 0.20200
H6 H 0.41700 -0.05100 0.44800
H7 H 0.56400 -0.16300 0.53500
H8 H 0.53000 -0.25100 -0.11400
H9 H 0.37100 -0.14400 -0.23600
H10 H -0.30200 0.41300 -0.14900
H11 H 0.80600 -0.34700 0.74000
H12 H 0.84800 -0.38200 0.45000
H13 H 0.61900 -0.37800 0.70100
H14 H 0.73100 -0.45000 0.62900
H15 H -0.07000 0.19400 -0.48400
H16 H 0.01600 0.07400 -0.47600
N1 N 0.21510 0.00380 -0.10720
N2 N 0.27550 -0.00660 0.06730
O1 O 0.21030 -0.03470 -0.28830
O2 O 0.67320 -0.34000 0.14900
O3 O 0.69100 -0.29000 0.48490
O4 O -0.13920 0.33830 -0.02320
O5 O -0.19730 0.31340 -0.37670
#END
