
#######################################################################
#
#                 Cambridge Crystallographic Data Centre
#                                CCDC
#
#######################################################################
#
# If this CIF has been generated from an entry in the Cambridge
# Structural Database, then it will include bibliographic, chemical,
# crystal, experimental, refinement or atomic coordinate data resulting
# from the CCDC's data processing and validation procedures.
#
#######################################################################

data_CSD_CIF_EBATOQ
_audit_creation_date 2001-10-02
_audit_creation_method CSD-ConQuest-V1
_database_code_CSD EBATOQ
_chemical_formula_sum 'C24 H23 N5 O6'
_chemical_formula_moiety
;
C24 H23 N5 O6
;
_journal_coden_Cambridge 24
_journal_volume 41
_journal_year 2000
_journal_page_first 4441
_journal_name_full 'Tetrahedron Lett. '
loop_
_publ_author_name
"M.C.Aversa"
"A.Barattucci"
"P.Bonaccorsi"
"G.Bruno"
"P.Giannetto"
"M.Policicchio"
_chemical_name_systematic
;
(3aR,5aS,9aS,9bS)-Dodecahydro-2-phenylbenz(e)isoindole-1,3,5-trione 
5-(2,4-dinitrophenylhydrazone)
;
_cell_volume   2258.385
_exptl_crystal_colour 'orange'
_exptl_crystal_density_diffrn 1.404
_diffrn_ambient_temperature 293
#These two values have been output from a single CSD field.
_refine_ls_R_factor_gt 0.0603
_refine_ls_wR_factor_gt 0.0603
_symmetry_cell_setting orthorhombic
_symmetry_space_group_name_H-M 'P 21 21 21'
_symmetry_Int_Tables_number 19
loop_
_symmetry_equiv_pos_site_id
_symmetry_equiv_pos_as_xyz
1 x,y,z
2 1/2-x,-y,1/2+z
3 1/2+x,1/2-y,-z
4 -x,1/2+y,1/2-z
_cell_length_a 8.492(2)
_cell_length_b 11.899(3)
_cell_length_c 22.350(4)
_cell_angle_alpha 90
_cell_angle_beta 90
_cell_angle_gamma 90
_cell_formula_units_Z 4
loop_
_atom_type_symbol
_atom_type_radius_bond
C 0.68
H 0.23
N 0.68
O 0.68
loop_
_atom_site_label
_atom_site_type_symbol
_atom_site_fract_x
_atom_site_fract_y
_atom_site_fract_z
N1 N 0.4099(7) -0.0581(5) 0.0606(2)
N2 N 0.2799(6) 0.0099(5) 0.0720(3)
C1 C 0.2013(8) 0.0556(6) 0.0257(3)
C2 C 0.0649(8) 0.1227(6) 0.0332(3)
C3 C -0.0062(8) 0.1746(6) -0.0148(3)
C4 C 0.0530(8) 0.1580(6) -0.0708(3)
C5 C 0.1822(8) 0.0871(6) -0.0807(3)
C6 C 0.2536(8) 0.0373(6) -0.0340(3)
N3 N -0.0035(8) 0.1406(6) 0.0917(3)
O1 O 0.0561(6) 0.0978(5) 0.1359(2)
O2 O -0.1229(7) 0.1961(5) 0.0950(2)
N4 N -0.0171(9) 0.2200(5) -0.1203(3)
O3 O 0.0563(7) 0.2216(5) -0.1679(2)
O4 O -0.1436(7) 0.2659(5) -0.1129(3)
C7 C 0.5549(8) -0.3166(7) 0.1958(3)
O5 O 0.6122(5) -0.4075(4) 0.1912(2)
N5 N 0.3921(6) -0.2957(5) 0.1967(2)
C8 C 0.3540(9) -0.1829(6) 0.2057(3)
O6 O 0.2215(6) -0.1473(4) 0.2065(3)
C9 C 0.5044(8) -0.1179(6) 0.2114(3)
C10 C 0.5000(7) -0.0212(5) 0.1659(3)
C11 C 0.5070(8) -0.0711(5) 0.1036(3)
C12 C 0.6432(8) -0.1510(6) 0.0915(3)
C13 C 0.7478(8) -0.1059(6) 0.0408(3)
C14 C 0.8828(8) -0.1863(6) 0.0279(3)
C15 C 0.9775(7) -0.2137(7) 0.0844(3)
C16 C 0.8727(8) -0.2572(6) 0.1350(3)
C17 C 0.7427(7) -0.1718(6) 0.1484(3)
C18 C 0.6392(7) -0.2041(6) 0.2016(3)
C19 C 0.2779(7) -0.3857(6) 0.1903(3)
C20 C 0.1723(8) -0.4038(6) 0.2365(3)
C21 C 0.0627(9) -0.4892(7) 0.2297(4)
C22 C 0.060(1) -0.5539(7) 0.1797(4)
C23 C 0.1634(9) -0.5329(7) 0.1339(4)
C24 C 0.2745(8) -0.4476(7) 0.1391(3)
H1 H 0.8407(8) -0.2548(6) 0.0119(3)
H2 H 0.9518(8) -0.1523(6) -0.0009(3)
H3 H -0.0964(8) 0.2220(6) -0.0088(3)
H4 H 1.0301(7) -0.1468(7) 0.0978(3)
H5 H 1.0542(7) -0.2702(7) 0.0749(3)
H6 H 0.5886(7) 0.0275(5) 0.1721(3)
H7 H 0.8259(8) -0.3272(6) 0.1232(3)
H8 H 0.9352(8) -0.2685(6) 0.1703(3)
H9 H 0.4043(7) 0.0208(5) 0.1706(3)
H10 H 0.7936(7) -0.1032(6) 0.1600(3)
H11 H 0.2196(8) 0.0741(6) -0.1207(3)
H12 H 0.7136(7) -0.2069(6) 0.2339(3)
H13 H 0.2467(6) 0.0241(5) 0.1124(3)
H14 H 0.5989(8) -0.2217(6) 0.0794(3)
H15 H 0.1749(8) -0.3587(6) 0.2721(3)
H16 H 0.3416(8) -0.0116(6) -0.0410(3)
H17 H -0.0128(9) -0.5028(7) 0.2609(4)
H18 H 0.7900(8) -0.0343(6) 0.0524(3)
H19 H -0.014(1) -0.6145(7) 0.1764(4)
H20 H 0.6853(8) -0.0973(6) 0.0053(3)
H21 H 0.1590(9) -0.5774(7) 0.0981(4)
H22 H 0.5202(8) -0.0833(6) 0.2497(3)
H23 H 0.3472(8) -0.4326(7) 0.1072(3)
#END
