
#######################################################################
#
#                 Cambridge Crystallographic Data Centre
#                                CCDC
#
#######################################################################
#
# If this CIF has been generated from an entry in the Cambridge
# Structural Database, then it will include bibliographic, chemical,
# crystal, experimental, refinement or atomic coordinate data resulting
# from the CCDC's data processing and validation procedures.
#
#######################################################################

data_CSD_CIF_EBEWOA
_audit_creation_date 2016-11-30
_audit_creation_method CSD-ConQuest-V1
_database_code_CSD EBEWOA
_database_code_depnum_ccdc_archive 'CCDC 1519998'
_chemical_formula_sum 'C12 H5 N1 O5'
_chemical_formula_moiety
;
C12 H5 N1 O5
;
_journal_coden_Cambridge 1078
_journal_year 2016
_journal_name_full 'CSD Communication(Private Communication) '
loop_
_publ_author_name
"J.A.Kaduk"
"A.B.Mossman"
_chemical_name_systematic
;
5-nitronaphtho[2,3-c]furan-1,3-dione
;
_chemical_name_common
;
5-nitro-naphthalene-2,3-anhydride
;
_cell_volume   1005.958
_exptl_crystal_colour 'colorless'
_exptl_special_details
;
No R-factor given in the deposited CIF

;
_exptl_crystal_description 'rhombohedral'
_diffrn_ambient_temperature ?
_diffrn_special_details
;
The study was carried out at room temperature,in the range 283-303K

;
_symmetry_cell_setting monoclinic
_symmetry_space_group_name_H-M 'P 21/n'
_symmetry_Int_Tables_number 14
loop_
_symmetry_equiv_pos_site_id
_symmetry_equiv_pos_as_xyz
1 x,y,z
2 1/2-x,1/2+y,1/2-z
3 -x,-y,-z
4 -1/2+x,-1/2-y,-1/2+z
_cell_length_a 8.6975(10)
_cell_length_b 11.564(2)
_cell_length_c 10.1886(11)
_cell_angle_alpha 90
_cell_angle_beta 100.989(9)
_cell_angle_gamma 90
_cell_formula_units_Z 4
loop_
_atom_type_symbol
_atom_type_radius_bond
C 0.68
H 0.23
N 0.68
O 0.68
loop_
_atom_site_label
_atom_site_type_symbol
_atom_site_fract_x
_atom_site_fract_y
_atom_site_fract_z
C1 C 0.2922(2) 1.0335(1) 0.8604(2)
C2 C 0.2314(2) 0.9907(1) 0.7386(2)
C3 C 0.1275(2) 0.8967(1) 0.7204(1)
C4 C 0.0777(2) 0.8440(1) 0.8245(1)
C5 C 0.0990(2) 0.8404(1) 1.0751(2)
C6 C 0.1669(2) 0.8780(2) 1.1999(2)
C7 C 0.2744(2) 0.9696(2) 1.2145(2)
C8 C 0.3116(2) 1.0202(2) 1.1034(2)
C9 C 0.2468(2) 0.9806(1) 0.9733(1)
C10 C 0.1364(2) 0.8865(1) 0.9555(1)
C11 C 0.2590(2) 1.0234(2) 0.6034(2)
O1 O 0.3426(2) 1.0940(1) 0.5687(1)
O2 O 0.1649(2) 0.9521(1) 0.5105(1)
C12 C 0.0883(2) 0.8703(1) 0.5761(2)
O3 O 0.0096(2) 0.7966(1) 0.5151(1)
N1 N -0.0226(2) 0.7511(1) 1.0702(1)
O4 O -0.1296(2) 0.7486(1) 0.9736(1)
O5 O -0.0142(2) 0.6859(1) 1.1656(1)
H1 H 0.36370 1.09750 0.87100
H2 H 0.00550 0.78040 0.81000
H3 H 0.14090 0.84180 1.27760
H4 H 0.32180 0.99640 1.30200
H5 H 0.38310 1.08450 1.11390
#END
