
#######################################################################
#
#                 Cambridge Crystallographic Data Centre
#                                CCDC
#
#######################################################################
#
# If this CIF has been generated from an entry in the Cambridge
# Structural Database, then it will include bibliographic, chemical,
# crystal, experimental, refinement or atomic coordinate data resulting
# from the CCDC's data processing and validation procedures.
#
#######################################################################

data_CSD_CIF_EBILOT
_audit_creation_date 2016-11-30
_audit_creation_method CSD-ConQuest-V1
_database_code_CSD EBILOT
_database_code_depnum_ccdc_archive 'CCDC 943307'
_chemical_formula_sum 'C27 H25 N1 O6'
_chemical_formula_moiety
;
C27 H25 N1 O6
;
_journal_coden_Cambridge 1670
_journal_volume 11
_journal_year 2014
_journal_page_first 1149
_journal_name_full 'Lett.Drug Des.Dis. '
loop_
_publ_author_name
"H.Abolhasani"
"A.Zarghi"
"A.Abolhasani"
"M.Hamzeh-Mivehroud"
"N.Bargahi"
"B.Notash"
"J.S.Mojarrad"
"S.Dastmalchi"
_chemical_name_systematic
;
3'-(4-methoxyphenyl)-4'-(3,4,5-trimethoxyphenyl)-4'H-spiro[indene-2,5'-[1,2]ox
azol]-1(3H)-one
;
_cell_volume   4808.188
_exptl_crystal_colour 'colorless'
_exptl_crystal_density_diffrn 1.27
_exptl_crystal_description 'plate'
_diffrn_ambient_temperature 298
#These two values have been output from a single CSD field.
_refine_ls_R_factor_gt 0.0939
_refine_ls_wR_factor_gt 0.0939
_symmetry_cell_setting orthorhombic
_symmetry_space_group_name_H-M 'P b c a'
_symmetry_Int_Tables_number 61
loop_
_symmetry_equiv_pos_site_id
_symmetry_equiv_pos_as_xyz
1 x,y,z
2 1/2-x,-y,1/2+z
3 -x,1/2+y,1/2-z
4 1/2+x,1/2-y,-z
5 -x,-y,-z
6 -1/2+x,y,-1/2-z
7 x,-1/2-y,-1/2+z
8 -1/2-x,-1/2+y,z
_cell_length_a 20.091(4)
_cell_length_b 10.300(2)
_cell_length_c 23.235(5)
_cell_angle_alpha 90
_cell_angle_beta 90
_cell_angle_gamma 90
_cell_formula_units_Z 8
loop_
_atom_type_symbol
_atom_type_radius_bond
C 0.68
H 0.23
N 0.68
O 0.68
loop_
_atom_site_label
_atom_site_type_symbol
_atom_site_fract_x
_atom_site_fract_y
_atom_site_fract_z
O1 O 0.8930(3) 0.2873(7) 0.4667(2)
O2 O 1.01339(19) 0.5713(4) 0.17851(18)
O3 O 1.07072(18) 0.3709(4) 0.12631(14)
O4 O 1.0046(2) 0.1503(5) 0.1080(2)
O5 O 0.7405(2) 0.5244(4) 0.18124(19)
O6 O 0.6515(2) 0.3059(6) 0.1938(2)
N1 N 0.7547(3) 0.5139(5) 0.2415(2)
C1 C 0.9220(5) 0.1659(10) 0.4777(3)
H1 H 0.88860 0.09940 0.47480
H2 H 0.94060 0.16540 0.51570
H3 H 0.95650 0.14970 0.45000
C2 C 0.8658(3) 0.3103(9) 0.4133(3)
C3 C 0.8435(4) 0.4347(8) 0.4026(3)
H4 H 0.84660 0.49760 0.43120
C4 C 0.8172(3) 0.4660(7) 0.3509(3)
H5 H 0.80240 0.55040 0.34440
C5 C 0.8117(3) 0.3746(6) 0.3071(2)
C6 C 0.8327(3) 0.2507(7) 0.3193(2)
H6 H 0.82880 0.18750 0.29090
C7 C 0.8595(3) 0.2158(7) 0.3721(2)
H7 H 0.87280 0.13090 0.37940
C8 C 0.7869(3) 0.4098(6) 0.2504(2)
C9 C 0.8010(2) 0.3327(6) 0.1966(2)
H8 H 0.78850 0.24160 0.20220
C10 C 0.8739(3) 0.3426(6) 0.1792(2)
C11 C 0.9091(3) 0.4555(6) 0.1885(2)
H9 H 0.88870 0.52590 0.20630
C12 C 0.9751(3) 0.4636(6) 0.1714(2)
C13 C 0.9941(3) 0.6642(7) 0.2201(3)
H10 H 0.95470 0.70830 0.20730
H11 H 1.02930 0.72610 0.22540
H12 H 0.98520 0.62130 0.25600
C14 C 1.0055(3) 0.3599(7) 0.1444(2)
C15 C 1.1171(3) 0.3478(8) 0.1714(3)
H13 H 1.10500 0.39830 0.20450
H14 H 1.16090 0.37220 0.15890
H15 H 1.11680 0.25730 0.18130
C16 C 0.9700(3) 0.2465(6) 0.1347(2)
C17 C 0.9708(4) 0.0313(8) 0.0964(4)
H16 H 0.96030 -0.01120 0.13200
H17 H 0.99900 -0.02400 0.07370
H18 H 0.93050 0.04890 0.07560
C18 C 0.9044(3) 0.2379(6) 0.1521(2)
H19 H 0.88060 0.16180 0.14570
C19 C 0.7524(3) 0.3991(6) 0.1551(2)
C20 C 0.6857(3) 0.3270(7) 0.1524(3)
C21 C 0.6738(3) 0.2910(6) 0.0931(3)
C22 C 0.6210(4) 0.2204(7) 0.0708(3)
H20 H 0.58720 0.18930 0.09440
C23 C 0.6204(5) 0.1986(10) 0.0135(5)
H21 H 0.58440 0.15500 -0.00260
C24 C 0.6716(6) 0.239(1) -0.0219(4)
H22 H 0.67150 0.21680 -0.06070
C25 C 0.7229(4) 0.3121(8) 0.0004(3)
H23 H 0.75650 0.34310 -0.02350
C26 C 0.7236(3) 0.3386(7) 0.0586(3)
C27 C 0.7726(3) 0.4186(7) 0.0922(2)
H24 H 0.76960 0.50950 0.08150
H25 H 0.81770 0.38860 0.08560
#END
