
#######################################################################
#
#                 Cambridge Crystallographic Data Centre
#                                CCDC
#
#######################################################################
#
# If this CIF has been generated from an entry in the Cambridge
# Structural Database, then it will include bibliographic, chemical,
# crystal, experimental, refinement or atomic coordinate data resulting
# from the CCDC's data processing and validation procedures.
#
#######################################################################

data_CSD_CIF_EBOBIH
_audit_creation_date 2004-11-16
_audit_creation_method CSD-ConQuest-V1
_database_code_CSD EBOBIH
_database_code_depnum_ccdc_archive 'CCDC 228548'
_chemical_formula_sum 'C14 H8 N3 O2'
_chemical_formula_moiety
;
C14 H8 N3 O2
;
_journal_coden_Cambridge 1145
_journal_volume 14
_journal_year 2004
_journal_page_first 1827
_journal_name_full 'J.Mater.Chem. '
loop_
_publ_author_name
"A.Zakrassov"
"V.Shteiman"
"Y.Sheynin"
"B.Tumanskii"
"M.Botoshansky"
"M.Kapon"
"A.Keren"
"M.Kaftory"
"T.E.Vos"
"J.S.Miller"
_chemical_name_systematic
;
2-(3-Cyanophenyl)benzimidazolyl-N,N'-dioxide radical
;
_cell_volume   1149.135
_exptl_crystal_colour 'dark green'
_exptl_crystal_density_diffrn 1.446
_exptl_crystal_description 'prism'
_diffrn_ambient_temperature 293
#These two values have been output from a single CSD field.
_refine_ls_R_factor_gt 0.0453
_refine_ls_wR_factor_gt 0.0453
_symmetry_cell_setting monoclinic
_symmetry_space_group_name_H-M 'P 21/c'
_symmetry_Int_Tables_number 14
loop_
_symmetry_equiv_pos_site_id
_symmetry_equiv_pos_as_xyz
1 x,y,z
2 x,1/2-y,1/2+z
3 -x,-y,-z
4 -x,-1/2+y,-1/2-z
_cell_length_a 13.722(1)
_cell_length_b 7.138(2)
_cell_length_c 13.316(1)
_cell_angle_alpha 90
_cell_angle_beta 118.23(2)
_cell_angle_gamma 90
_cell_formula_units_Z 4
loop_
_atom_type_symbol
_atom_type_radius_bond
C 0.68
H 0.23
N 0.68
O 0.68
loop_
_atom_site_label
_atom_site_type_symbol
_atom_site_fract_x
_atom_site_fract_y
_atom_site_fract_z
O1 O -0.07749(15) 0.4921(3) 0.29051(17)
O2 O 0.02499(15) -0.1212(3) 0.41338(17)
N1 N -0.07917(17) 0.3147(3) 0.30554(18)
N2 N -0.03047(18) 0.0253(3) 0.36198(19)
N3 N 0.4703(3) -0.0483(6) 0.6217(3)
C1 C 0.0086(2) 0.2050(4) 0.3738(2)
C2 C -0.1760(2) 0.2044(4) 0.2514(2)
C3 C -0.2828(2) 0.2555(5) 0.1776(2)
H1 H -0.30810 0.40410 0.15170
C4 C -0.3584(2) 0.1100(5) 0.1394(3)
H2 H -0.43420 0.13350 0.08480
C5 C -0.3287(2) -0.0743(5) 0.1739(2)
H3 H -0.38610 -0.16730 0.14740
C6 C -0.2195(2) -0.1229(4) 0.2483(2)
H4 H -0.19560 -0.25380 0.28030
C7 C -0.1449(2) 0.0228(4) 0.2857(2)
C8 C 0.1209(2) 0.2661(4) 0.4472(2)
C9 C 0.2074(2) 0.1365(4) 0.4844(2)
H5 H 0.18920 -0.00780 0.46020
C10 C 0.3145(2) 0.1971(5) 0.5579(2)
C11 C 0.3361(3) 0.3807(5) 0.5945(3)
H6 H 0.41120 0.41550 0.64490
C12 C 0.2510(3) 0.5074(5) 0.5564(3)
H7 H 0.26810 0.63420 0.58300
C13 C 0.1433(2) 0.4533(4) 0.4829(2)
H8 H 0.08260 0.54000 0.45480
C14 C 0.4028(3) 0.0605(6) 0.5951(3)
#END
