
#######################################################################
#
#                 Cambridge Crystallographic Data Centre
#                                CCDC
#
#######################################################################
#
# If this CIF has been generated from an entry in the Cambridge
# Structural Database, then it will include bibliographic, chemical,
# crystal, experimental, refinement or atomic coordinate data resulting
# from the CCDC's data processing and validation procedures.
#
#######################################################################

data_CSD_CIF_EBUVUS
_audit_creation_date 2001-10-02
_audit_creation_method CSD-ConQuest-V1
_database_code_CSD EBUVUS
_database_code_depnum_ccdc_archive 'CCDC 161214'
_chemical_formula_sum 'C19 H20 N4 O8'
_chemical_formula_moiety
;
C19 H20 N4 O8
;
_journal_coden_Cambridge 182
_journal_year 2001
_journal_page_first 1258
_journal_name_full 'Chem.Commun. '
loop_
_publ_author_name
"T.Kitamura"
"Y.Sato"
"M.Mori"
_chemical_name_systematic
;
Dimethyl 
3-(((2,4-dinitrophenyl)hydrazono)methyl)-4-methyl-5-methylenecyclohex-3-ene-1,
1-dicarboxylate
;
_cell_volume    996.130
_exptl_crystal_colour 'colorless'
_exptl_crystal_density_diffrn 1.441
_exptl_crystal_description 'prismatic'
_diffrn_ambient_temperature ?
_diffrn_special_details
;
The study was carried out at room temperature,in the range 283-303K

;
#These two values have been output from a single CSD field.
_refine_ls_R_factor_gt 0.038
_refine_ls_wR_factor_gt 0.038
_symmetry_cell_setting triclinic
_symmetry_space_group_name_H-M 'P -1'
_symmetry_Int_Tables_number 2
loop_
_symmetry_equiv_pos_site_id
_symmetry_equiv_pos_as_xyz
1 x,y,z
2 -x,-y,-z
_cell_length_a 11.554(2)
_cell_length_b 11.813(2)
_cell_length_c 8.2501(9)
_cell_angle_alpha 97.89(1)
_cell_angle_beta 97.23(1)
_cell_angle_gamma 63.57(1)
_cell_formula_units_Z 2
loop_
_atom_type_symbol
_atom_type_radius_bond
C 0.68
H 0.23
N 0.68
O 0.68
loop_
_atom_site_label
_atom_site_type_symbol
_atom_site_fract_x
_atom_site_fract_y
_atom_site_fract_z
O1 O 0.6577(3) 0.2534(2) -0.0446(3)
O2 O 0.8100(2) 0.0561(2) -0.0226(2)
O3 O 0.7136(2) -0.0789(2) 0.1826(3)
O4 O 0.8366(2) 0.0030(2) 0.3366(3)
O5 O 0.6541(3) 0.5151(3) 1.0771(3)
O6 O 0.8001(3) 0.5632(2) 1.2172(3)
O7 O 1.0256(3) 0.7358(3) 0.9696(4)
O8 O 1.0186(3) 0.7290(3) 0.7059(4)
N1 N 0.6746(3) 0.3782(2) 0.6108(3)
N2 N 0.6841(3) 0.4417(3) 0.7615(3)
N3 N 0.7449(3) 0.5438(3) 1.0870(3)
N4 N 0.9900(3) 0.7059(3) 0.8312(5)
C1 C 0.5730(3) 0.2593(3) 0.4504(3)
C2 C 0.4883(3) 0.2072(3) 0.4390(3)
C3 C 0.4540(3) 0.1547(3) 0.2783(4)
C4 C 0.5151(3) 0.1629(3) 0.1321(4)
C5 C 0.6548(3) 0.1438(3) 0.1778(3)
C6 C 0.6496(3) 0.2507(3) 0.3095(3)
C7 C 0.4237(4) 0.2019(4) 0.5841(5)
C8 C 0.3673(4) 0.1078(4) 0.2562(6)
C9 C 0.7078(3) 0.1591(3) 0.0254(3)
C10 C 0.7366(3) 0.0095(3) 0.2309(3)
C11 C 0.8630(5) 0.0622(4) -0.1704(5)
C12 C 0.9199(5) -0.1234(5) 0.3874(6)
C13 C 0.5935(3) 0.3301(3) 0.6008(3)
C14 C 0.7585(3) 0.5040(3) 0.7812(3)
C15 C 0.7896(3) 0.5574(3) 0.9367(3)
C16 C 0.8646(3) 0.6230(3) 0.9519(4)
C17 C 0.9113(3) 0.6363(3) 0.8150(4)
C18 C 0.8835(4) 0.5856(3) 0.6598(4)
C19 C 0.8106(3) 0.5209(3) 0.6444(3)
H1 H 0.512(3) 0.106(3) 0.041(4)
H2 H 0.465(3) 0.248(3) 0.095(4)
H3 H 0.739(3) 0.233(3) 0.352(4)
H4 H 0.614(3) 0.332(3) 0.260(4)
H5 H 0.460(4) 0.226(4) 0.682(6)
H6 H 0.334(4) 0.256(4) 0.575(5)
H7 H 0.432(5) 0.118(5) 0.589(6)
H8 H 0.331(4) 0.101(4) 0.346(5)
H9 H 0.342(3) 0.082(3) 0.141(5)
H10 H 0.801(4) 0.069(4) -0.269(6)
H11 H 0.944(4) -0.015(4) -0.179(5)
H12 H 0.869(4) 0.137(4) -0.177(5)
H13 H 0.957(4) -0.181(4) 0.288(6)
H14 H 0.983(5) -0.114(4) 0.449(6)
H15 H 0.859(5) -0.152(5) 0.440(7)
H16 H 0.550(3) 0.339(3) 0.693(4)
H17 H 0.657(3) 0.430(3) 0.848(4)
H18 H 0.882(3) 0.658(3) 1.059(4)
H19 H 0.915(3) 0.605(3) 0.566(4)
H20 H 0.792(3) 0.486(3) 0.543(4)
#END
