
#######################################################################
#
#                 Cambridge Crystallographic Data Centre
#                                CCDC
#
#######################################################################
#
# If this CIF has been generated from an entry in the Cambridge
# Structural Database, then it will include bibliographic, chemical,
# crystal, experimental, refinement or atomic coordinate data resulting
# from the CCDC's data processing and validation procedures.
#
#######################################################################

data_CSD_CIF_ECECIA
_audit_creation_date 2011-11-21
_audit_creation_method CSD-ConQuest-V1
_database_code_CSD ECECIA
_database_code_depnum_ccdc_archive 'CCDC 835354'
_chemical_formula_sum 'C19 H19 N1 O7'
_chemical_formula_moiety
;
C19 H19 N1 O7
;
_journal_coden_Cambridge 182
_journal_volume 47
_journal_year 2011
_journal_page_first 10284
_journal_name_full 'Chem.Commun. '
loop_
_publ_author_name
"J.Mandel"
"N.Dubois"
"M.Neuburger"
"N.Blanchard"
_chemical_name_systematic
;
(5-(But-3-en-1-yloxy)-3-oxo-8-oxabicyclo[3.2.1]oct-6-en-1-yl)methyl 
4-nitrobenzoate
;
_cell_volume    893.560
_exptl_special_details
;
No study temperature or R factor is reported

;
_diffrn_ambient_temperature ?
_diffrn_special_details
;
The study was carried out at room temperature,in the range 283-303K

;
_symmetry_cell_setting triclinic
_symmetry_space_group_name_H-M 'P -1'
_symmetry_Int_Tables_number 2
loop_
_symmetry_equiv_pos_site_id
_symmetry_equiv_pos_as_xyz
1 x,y,z
2 -x,-y,-z
_cell_length_a 9.5271(7)
_cell_length_b 10.5027(7)
_cell_length_c 11.2586(8)
_cell_angle_alpha 63.142(3)
_cell_angle_beta 68.441(3)
_cell_angle_gamma 65.828(3)
_cell_formula_units_Z 2
loop_
_atom_type_symbol
_atom_type_radius_bond
C 0.68
H 0.23
N 0.68
O 0.68
loop_
_atom_site_label
_atom_site_type_symbol
_atom_site_fract_x
_atom_site_fract_y
_atom_site_fract_z
C1 C -0.20677(8) 1.36336(8) 0.34454(8)
C2 C -0.21009(9) 1.34879(9) 0.47408(8)
C3 C -0.08281(8) 1.24639(8) 0.53256(7)
C4 C 0.04264(7) 1.16205(8) 0.46017(7)
C5 C 0.03978(8) 1.17680(8) 0.33162(7)
C6 C -0.08590(9) 1.27848(9) 0.27216(8)
C7 C 0.18767(8) 1.05784(8) 0.51197(7)
C8 C 0.32787(8) 0.96691(9) 0.67951(7)
C9 C 0.31000(7) 0.96964(8) 0.81691(7)
C10 C 0.24703(9) 1.12535(8) 0.82723(8)
C11 C 0.21326(8) 1.11407(8) 0.97422(8)
C12 C 0.18193(8) 0.97301(8) 1.09034(7)
C13 C 0.24938(8) 0.83975(8) 1.04338(7)
C14 C 0.42771(8) 0.80361(8) 0.99788(8)
C15 C 0.46299(8) 0.88277(9) 0.86613(8)
C16 C 0.22337(12) 0.60349(10) 1.09946(9)
C17 C 0.19314(11) 0.46861(10) 1.22294(9)
C18 C 0.31407(12) 0.39505(10) 1.30637(11)
C19 C 0.28725(19) 0.35827(13) 1.43902(12)
N1 N -0.33607(8) 1.47796(8) 0.27866(7)
O1 O -0.42520(8) 1.57338(8) 0.32853(8)
O2 O -0.34662(8) 1.47243(9) 0.17600(8)
O3 O 0.18222(6) 1.05467(6) 0.63404(5)
O4 O 0.29896(6) 0.98602(7) 0.44986(6)
O5 O 0.20520(9) 1.21836(8) 0.99901(7)
O6 O 0.20205(6) 0.88859(6) 0.91866(5)
O7 O 0.18678(7) 0.72548(6) 1.14258(6)
H1 H -0.29420 1.40510 0.52080
H2 H -0.08110 1.23580 0.61930
H3 H 0.12480 1.11930 0.28220
H4 H -0.09010 1.29100 0.18600
H5 H 0.41390 1.00660 0.61220
H6 H 0.35180 0.86540 0.68700
H7 H 0.31990 1.18430 0.77180
H8 H 0.14810 1.17870 0.79670
H9 H 0.22530 0.95180 1.16510
H10 H 0.06570 0.99400 1.12020
H11 H 0.49720 0.74030 1.05730
H12 H 0.56500 0.89020 0.80920
H13 H 0.33720 0.58030 1.04920
H14 H 0.15780 0.63190 1.03820
H15 H 0.08640 0.49880 1.27940
H16 H 0.19510 0.39820 1.18770
H17 H 0.42400 0.37290 1.25470
H18 H 0.37090 0.31100 1.48420
H19 H 0.18200 0.38330 1.48910
#END
