
#######################################################################
#
#                 Cambridge Crystallographic Data Centre
#                                CCDC
#
#######################################################################
#
# If this CIF has been generated from an entry in the Cambridge
# Structural Database, then it will include bibliographic, chemical,
# crystal, experimental, refinement or atomic coordinate data resulting
# from the CCDC's data processing and validation procedures.
#
#######################################################################

data_CSD_CIF_ECEREL
_audit_creation_date 2012-12-11
_audit_creation_method CSD-ConQuest-V1
_database_code_CSD ECEREL
_database_code_depnum_ccdc_archive 'CCDC 750313'
_chemical_formula_sum 'C18 H16 N4 O10'
_chemical_formula_moiety
;
C18 H16 N4 O10
;
_journal_coden_Cambridge 1003
_journal_volume 42
_journal_year 2012
_journal_page_first 1098
_journal_name_full 'J.Chem.Cryst. '
loop_
_publ_author_name
"D.Kalaivani"
"R.Malarvizhi"
"M.Nethaji"
_chemical_name_systematic
;
t-Butyl bis(2,4-dinitrophenyl)acetate
;
_cell_volume   2037.910
_exptl_crystal_colour 'colorless'
_exptl_crystal_density_diffrn 1.461
_exptl_crystal_description 'rectangular'
_diffrn_ambient_temperature 293
#These two values have been output from a single CSD field.
_refine_ls_R_factor_gt 0.0618
_refine_ls_wR_factor_gt 0.0618
_symmetry_cell_setting monoclinic
_symmetry_space_group_name_H-M 'P 21/n'
_symmetry_Int_Tables_number 14
loop_
_symmetry_equiv_pos_site_id
_symmetry_equiv_pos_as_xyz
1 x,y,z
2 1/2-x,1/2+y,1/2-z
3 -x,-y,-z
4 -1/2+x,-1/2-y,-1/2+z
_cell_length_a 12.770(4)
_cell_length_b 11.679(3)
_cell_length_c 14.310(4)
_cell_angle_alpha 90
_cell_angle_beta 107.277(6)
_cell_angle_gamma 90
_cell_formula_units_Z 4
loop_
_atom_type_symbol
_atom_type_radius_bond
C 0.68
H 0.23
N 0.68
O 0.68
loop_
_atom_site_label
_atom_site_type_symbol
_atom_site_fract_x
_atom_site_fract_y
_atom_site_fract_z
O1 O 0.0631(2) 0.1486(2) 1.03905(18)
O2 O -0.01589(17) 0.26245(19) 0.90989(15)
O3 O 0.2054(3) 0.3695(2) 1.0367(2)
O4 O 0.3298(4) 0.3701(3) 1.1712(3)
O5 O 0.5919(3) 0.0804(3) 1.2734(2)
O6 O 0.5686(4) -0.0782(3) 1.2019(3)
O7 O 0.2896(2) 0.2570(2) 0.80937(18)
O8 O 0.2119(3) 0.2600(3) 0.6543(2)
O9 O 0.0691(3) -0.1092(3) 0.5229(2)
O10 O -0.0483(3) -0.1879(3) 0.5843(2)
N1 N 0.2805(3) 0.3241(2) 1.0956(2)
N2 N 0.5429(2) 0.0188(3) 1.2082(2)
N3 N 0.2236(2) 0.2213(2) 0.7354(2)
N4 N 0.0230(3) -0.1181(3) 0.5860(2)
C1 C 0.0625(3) 0.1962(3) 0.9649(2)
C2 C 0.1559(2) 0.1865(2) 0.9180(2)
H1 H 0.16950 0.26290 0.89590
C3 C 0.2608(2) 0.1459(2) 0.9931(2)
C4 C 0.3164(2) 0.2095(2) 1.0753(2)
C5 C 0.4094(3) 0.1697(3) 1.1448(2)
H2 H 0.44540 0.21430 1.19860
C6 C 0.1206(2) 0.1087(2) 0.82863(19)
C7 C 0.4469(2) 0.0630(3) 1.1324(2)
C8 C 0.3961(3) -0.0039(3) 1.0532(2)
H3 H 0.42270 -0.07660 1.04620
C9 C 0.3051(3) 0.0387(3) 0.9842(2)
H4 H 0.27180 -0.00570 0.92950
C10 C 0.1529(2) 0.1250(2) 0.7445(2)
C11 C 0.1217(3) 0.0518(3) 0.6653(2)
H5 H 0.14490 0.06390 0.61030
C12 C 0.0557(3) -0.0390(3) 0.6700(2)
C13 C 0.0192(3) -0.0582(3) 0.7497(2)
H6 H -0.02630 -0.11990 0.75110
C14 C 0.0518(3) 0.0165(3) 0.8277(2)
H7 H 0.02670 0.00460 0.88170
C15 C -0.1165(3) 0.2900(3) 0.9381(3)
C16 C -0.0844(4) 0.3502(5) 1.0363(3)
H8 H -0.04830 0.29690 1.08660
H9 H -0.14900 0.37940 1.04920
H10 H -0.03560 0.41230 1.03510
C17 C -0.1808(4) 0.1820(4) 0.9367(4)
H11 H -0.19140 0.14360 0.87520
H12 H -0.25080 0.20060 0.94490
H13 H -0.14120 0.13280 0.98900
C18 C -0.1768(3) 0.3709(4) 0.8574(3)
H14 H -0.13080 0.43540 0.85560
H15 H -0.24280 0.39700 0.86970
H16 H -0.19510 0.33160 0.79570
#END
