
#######################################################################
#
#                 Cambridge Crystallographic Data Centre
#                                CCDC
#
#######################################################################
#
# If this CIF has been generated from an entry in the Cambridge
# Structural Database, then it will include bibliographic, chemical,
# crystal, experimental, refinement or atomic coordinate data resulting
# from the CCDC's data processing and validation procedures.
#
#######################################################################

data_CSD_CIF_ECIBIB01
_audit_creation_date 2002-10-17
_audit_creation_method CSD-ConQuest-V1
_database_code_CSD ECIBIB01
_database_code_depnum_ccdc_archive 'CCDC 136897'
_chemical_formula_sum 'C7 H8 N2 O2'
_chemical_formula_moiety
;
C7 H8 N2 O2
;
_journal_coden_Cambridge 456
_journal_volume 76
_journal_year 2002
_journal_page_first 1113
_journal_name_full 'Pol.J.Chem. '
loop_
_publ_author_name
"Z.Daszkiewicz"
"J.Zaleski"
"E.M.Nowakowska"
"J.B.Kyziol"
_chemical_name_systematic
;
N-Methyl-N-nitroaniline
;
_cell_volume   1532.214
_exptl_crystal_density_diffrn 1.319
_exptl_crystal_description 'plates'
_diffrn_ambient_temperature 293
#These two values have been output from a single CSD field.
_refine_ls_R_factor_gt 0.0371
_refine_ls_wR_factor_gt 0.0371
_symmetry_cell_setting orthorhombic
_symmetry_space_group_name_H-M 'P b c a'
_symmetry_Int_Tables_number 61
loop_
_symmetry_equiv_pos_site_id
_symmetry_equiv_pos_as_xyz
1 x,y,z
2 1/2+x,y,1/2-z
3 x,1/2-y,1/2+z
4 1/2-x,1/2+y,z
5 -x,-y,-z
6 -1/2-x,-y,-1/2+z
7 -x,-1/2+y,-1/2-z
8 -1/2+x,-1/2-y,-z
_cell_length_a 8.806(1)
_cell_length_b 10.926(1)
_cell_length_c 15.925(2)
_cell_angle_alpha 90
_cell_angle_beta 90
_cell_angle_gamma 90
_cell_formula_units_Z 8
loop_
_atom_type_symbol
_atom_type_radius_bond
C 0.68
H 0.23
N 0.68
O 0.68
loop_
_atom_site_label
_atom_site_type_symbol
_atom_site_fract_x
_atom_site_fract_y
_atom_site_fract_z
C1 C -0.01781(16) 0.76396(14) 0.40240(8)
C2 C -0.1197(2) 0.70546(17) 0.35071(10)
H1 H -0.146(2) 0.6230(18) 0.3595(11)
C3 C -0.1802(2) 0.76893(19) 0.28386(11)
H2 H -0.247(2) 0.7272(18) 0.2482(12)
C4 C -0.1409(3) 0.88812(19) 0.26996(11)
H3 H -0.190(2) 0.9268(17) 0.2235(13)
C5 C -0.0398(2) 0.94471(19) 0.32139(12)
H4 H -0.015(2) 1.025(2) 0.3121(12)
C6 C 0.0236(2) 0.88343(16) 0.38832(11)
H5 H 0.099(2) 0.9195(15) 0.4286(10)
C7 C -0.0175(3) 0.7203(3) 0.55754(11)
H6 H 0.056(3) 0.717(2) 0.6011(14)
H7 H -0.042(3) 0.796(2) 0.5618(13)
H8 H -0.093(4) 0.665(3) 0.5716(19)
N1 N 0.04362(15) 0.70300(11) 0.47411(7)
N2 N 0.13686(16) 0.60732(11) 0.46136(9)
O1 O 0.18358(14) 0.5900(1) 0.38958(7)
O2 O 0.17259(15) 0.54533(11) 0.52201(8)
#END
