
#######################################################################
#
#                 Cambridge Crystallographic Data Centre
#                                CCDC
#
#######################################################################
#
# If this CIF has been generated from an entry in the Cambridge
# Structural Database, then it will include bibliographic, chemical,
# crystal, experimental, refinement or atomic coordinate data resulting
# from the CCDC's data processing and validation procedures.
#
#######################################################################

data_CSD_CIF_ECIHUW
_audit_creation_date 2017-10-13
_audit_creation_method CSD-ConQuest-V1
_database_code_CSD ECIHUW
_database_code_depnum_ccdc_archive 'CCDC 1476404'
_chemical_formula_sum 'C27 H20 N2 O4'
_chemical_formula_moiety
;
C27 H20 N2 O4
;
_journal_coden_Cambridge 574
_journal_volume 149
_journal_year 2018
_journal_page_first 298
_journal_name_full 'Dyes Pigm. '
loop_
_publ_author_name
"M.Bezuglyi"
"K.Ivaniuk"
"D.Volyniuk"
"J.V.Grazulevicius"
"G.Bagdziunas"
_chemical_name_systematic
;
2-(3-(9H-carbazol-9-yl)-2-hydroxypropoxy)-1H-benzo[de]isoquinoline-1,3(2H)-dio
ne
;
_chemical_melting_point 468
_cell_volume   2015.760
_exptl_crystal_colour 'green'
_exptl_crystal_density_diffrn 1.438
_exptl_special_details
;
Luminescent

;
_diffrn_ambient_temperature 293
#These two values have been output from a single CSD field.
_refine_ls_R_factor_gt 0.1192
_refine_ls_wR_factor_gt 0.1192
_symmetry_cell_setting monoclinic
_symmetry_space_group_name_H-M 'P 21/c'
_symmetry_Int_Tables_number 14
loop_
_symmetry_equiv_pos_site_id
_symmetry_equiv_pos_as_xyz
1 x,y,z
2 -x,1/2+y,1/2-z
3 -x,-y,-z
4 x,-1/2-y,-1/2+z
_cell_length_a 7.956(17)
_cell_length_b 15.32(3)
_cell_length_c 16.60(3)
_cell_angle_alpha 90
_cell_angle_beta 94.95(4)
_cell_angle_gamma 90
_cell_formula_units_Z 4
loop_
_atom_type_symbol
_atom_type_radius_bond
C 0.68
H 0.23
N 0.68
O 0.68
loop_
_atom_site_label
_atom_site_type_symbol
_atom_site_fract_x
_atom_site_fract_y
_atom_site_fract_z
O1 O 0.7430(5) 0.5073(3) 0.6171(3)
O2 O 0.9516(5) 0.2376(3) 0.5955(3)
O3 O 0.8704(4) 0.3879(3) 0.5282(2)
O4 O 0.5358(5) 0.3810(3) 0.3694(2)
N1 N 0.7242(5) 0.5354(3) 0.3285(3)
N2 N 0.8673(5) 0.3763(3) 0.6101(3)
C1 C 0.6730(5) 0.6157(3) 0.3568(3)
C2 C 0.6917(6) 0.6488(4) 0.4347(3)
C3 C 0.6379(7) 0.7313(4) 0.4449(4)
C4 C 0.5625(7) 0.7806(4) 0.3824(4)
C5 C 0.5451(7) 0.7483(4) 0.3062(4)
C6 C 0.6016(6) 0.6651(4) 0.2923(3)
C7 C 0.6128(6) 0.6129(4) 0.2209(3)
C8 C 0.5711(7) 0.6277(4) 0.1397(3)
C9 C 0.6044(8) 0.5645(5) 0.0852(4)
C10 C 0.6814(8) 0.4874(5) 0.1106(4)
C11 C 0.7217(7) 0.4699(4) 0.1911(4)
C12 C 0.6886(6) 0.5343(4) 0.2458(3)
C13 C 0.7937(6) 0.4660(4) 0.3787(3)
C14 C 0.6580(6) 0.4209(4) 0.4244(3)
C15 C 0.7244(7) 0.3538(4) 0.4810(3)
C16 C 0.8072(6) 0.4452(4) 0.6526(4)
C17 C 0.8311(6) 0.4372(4) 0.7412(3)
C18 C 0.7823(7) 0.5029(4) 0.7892(4)
C19 C 0.8128(8) 0.5006(5) 0.8717(5)
C20 C 0.8930(7) 0.4307(5) 0.9074(4)
C21 C 0.9435(6) 0.3591(4) 0.8605(3)
C22 C 0.9103(6) 0.3640(3) 0.7760(3)
C23 C 1.0258(7) 0.2856(5) 0.8939(4)
C24 C 1.0742(7) 0.2195(4) 0.8475(4)
C25 C 1.0391(6) 0.2230(4) 0.7641(4)
C26 C 0.9580(6) 0.2936(4) 0.7284(3)
C27 C 0.9271(6) 0.2969(4) 0.6411(4)
H1 H 0.73900 0.61570 0.47790
H2 H 0.65230 0.75590 0.49630
H3 H 0.49580 0.41750 0.33720
H4 H 0.52340 0.83630 0.39260
H5 H 0.49580 0.78190 0.26380
H6 H 0.52110 0.68000 0.12220
H7 H 0.57490 0.57360 0.03040
H8 H 0.70670 0.44620 0.07230
H9 H 0.76930 0.41680 0.20810
H10 H 0.88060 0.48930 0.41740
H11 H 0.84580 0.42340 0.34550
H12 H 0.60160 0.46530 0.45480
H13 H 0.63890 0.33720 0.51640
H14 H 0.75530 0.30240 0.45150
H15 H 0.72670 0.55090 0.76520
H16 H 0.77860 0.54660 0.90300
H17 H 0.91540 0.42960 0.96340
H18 H 1.04800 0.28200 0.94980
H19 H 1.13090 0.17170 0.87130
H20 H 1.07100 0.17690 0.73230
#END
