
#######################################################################
#
#                 Cambridge Crystallographic Data Centre
#                                CCDC
#
#######################################################################
#
# If this CIF has been generated from an entry in the Cambridge
# Structural Database, then it will include bibliographic, chemical,
# crystal, experimental, refinement or atomic coordinate data resulting
# from the CCDC's data processing and validation procedures.
#
#######################################################################

data_CSD_CIF_ECIJAE
_audit_creation_date 2017-10-13
_audit_creation_method CSD-ConQuest-V1
_database_code_CSD ECIJAE
_database_code_depnum_ccdc_archive 'CCDC 1535083'
_chemical_formula_sum 'C18 H23 N1 O9'
_chemical_formula_moiety
;
C18 H23 N1 O9
;
_journal_coden_Cambridge 16
_journal_volume 73
_journal_year 2017
_journal_page_first 6728
_journal_name_full 'Tetrahedron '
loop_
_publ_author_name
"N.B.Chernysheva"
"A.S.Maksimenko"
"F.A.Andreyanov"
"V.P.Kislyi"
"Y.A.Strelenko"
"V.N.Khrustalev"
"M.N.Semenova"
"V.V.Semenov"
_chemical_name_systematic
;
3,5-Bis-(ethoxycarbonyl)-4-(3, 4, 5-trimethoxyphenyl)-4, 5-dihydroisoxazole 
2-oxide
;
_cell_volume   1875.067
_exptl_crystal_colour 'colorless'
_exptl_crystal_density_diffrn 1.408
_exptl_crystal_description 'prism'
_diffrn_ambient_temperature 120
#These two values have been output from a single CSD field.
_refine_ls_R_factor_gt 0.0521
_refine_ls_wR_factor_gt 0.0521
_symmetry_cell_setting monoclinic
_symmetry_space_group_name_H-M 'P 21/n'
_symmetry_Int_Tables_number 14
loop_
_symmetry_equiv_pos_site_id
_symmetry_equiv_pos_as_xyz
1 x,y,z
2 1/2-x,1/2+y,1/2-z
3 -x,-y,-z
4 -1/2+x,-1/2-y,-1/2+z
_cell_length_a 11.5804(6)
_cell_length_b 12.5223(6)
_cell_length_c 14.0268(7)
_cell_angle_alpha 90
_cell_angle_beta 112.805(1)
_cell_angle_gamma 90
_cell_formula_units_Z 4
loop_
_atom_type_symbol
_atom_type_radius_bond
C 0.68
H 0.23
N 0.68
O 0.68
loop_
_atom_site_label
_atom_site_type_symbol
_atom_site_fract_x
_atom_site_fract_y
_atom_site_fract_z
O1 O 0.30391(9) 0.39166(8) 0.57242(7)
O2 O 0.11782(9) 0.35467(8) 0.57926(7)
O3 O -0.08864(9) 0.40814(8) 0.39415(7)
O4 O -0.02465(8) 0.48965(7) 0.27921(7)
O5 O 0.17470(9) 0.85783(7) 0.45516(7)
O6 O 0.28240(8) 0.90815(6) 0.32420(6)
O7 O 0.38302(9) 0.75924(7) 0.24258(7)
O8 O 0.37561(10) 0.23214(7) 0.47066(8)
O9 O 0.46288(8) 0.35582(7) 0.40213(7)
N1 N 0.16877(10) 0.39279(8) 0.52506(8)
C1 C 0.12828(11) 0.43744(9) 0.43322(9)
C2 C 0.23278(10) 0.46994(9) 0.40213(9)
H1 H 0.22290 0.43150 0.33690
C3 C 0.34729(11) 0.42124(9) 0.49297(9)
H2 H 0.41520 0.47580 0.52030
C4 C -0.00698(11) 0.44268(9) 0.36934(9)
C5 C -0.15511(12) 0.49953(11) 0.2072(1)
H3 H -0.16150 0.55540 0.15550
H4 H -0.20680 0.52220 0.24560
C6 C -0.20547(15) 0.39596(14) 0.15220(12)
H5 H -0.29010 0.40740 0.10000
H6 H -0.20840 0.34260 0.20230
H7 H -0.15070 0.37040 0.11850
C7 C 0.24547(10) 0.58854(9) 0.38603(8)
C8 C 0.19811(11) 0.66625(9) 0.43180(9)
H8 H 0.15500 0.64660 0.47460
C9 C 0.21493(11) 0.77381(9) 0.41378(9)
C10 C 0.27629(10) 0.80257(9) 0.34914(8)
C11 C 0.3250(1) 0.72343(9) 0.30486(9)
C12 C 0.30968(11) 0.61615(9) 0.32335(9)
H9 H 0.34270 0.56210 0.29350
C13 C 0.10500(13) 0.83295(11) 0.51699(11)
H10 H 0.07850 0.89930 0.53970
H11 H 0.15770 0.79170 0.57760
H12 H 0.03100 0.79090 0.47610
C14 C 0.38300(12) 0.9650(1) 0.40085(10)
H13 H 0.38820 1.03710 0.37570
H14 H 0.46190 0.92720 0.41460
H15 H 0.36770 0.96960 0.46470
C15 C 0.42993(14) 0.67945(11) 0.19374(11)
H16 H 0.46920 0.71410 0.15130
H17 H 0.36060 0.63430 0.14980
H18 H 0.49210 0.63540 0.24670
C16 C 0.39632(11) 0.32347(10) 0.45626(9)
C17 C 0.51031(12) 0.27204(11) 0.35432(10)
H19 H 0.44070 0.22600 0.31000
H20 H 0.57200 0.22700 0.40810
C18 C 0.57132(14) 0.32695(13) 0.29039(12)
H21 H 0.60030 0.27330 0.25380
H22 H 0.64290 0.36900 0.33570
H23 H 0.51050 0.37430 0.24000
#END
