
#######################################################################
#
#                 Cambridge Crystallographic Data Centre
#                                CCDC
#
#######################################################################
#
# If this CIF has been generated from an entry in the Cambridge
# Structural Database, then it will include bibliographic, chemical,
# crystal, experimental, refinement or atomic coordinate data resulting
# from the CCDC's data processing and validation procedures.
#
#######################################################################

data_CSD_CIF_ECINAH
_audit_creation_date 2013-03-18
_audit_creation_method CSD-ConQuest-V1
_database_code_CSD ECINAH
_database_code_depnum_ccdc_archive 'CCDC 855690'
_chemical_formula_sum 'C22 H13 N1 O8'
_chemical_formula_moiety
;
C22 H13 N1 O8
;
_journal_coden_Cambridge 177
_journal_volume 10
_journal_year 2012
_journal_page_first 9344
_journal_name_full 'Org.Biomol.Chem. '
loop_
_publ_author_name
"V.O.Iaroshenko"
"I.Savych"
"A.Villinger"
"V.Ya.Sosnovskikh"
"P.Langer"
_chemical_name_systematic
;
Methyl 7-hydroxy-10-(2-nitrobenzoyl)-6-oxo-6H-benzo[c]chromene-8-carboxylate
;
_cell_volume    905.144
_exptl_crystal_colour 'colorless'
_exptl_crystal_density_diffrn 1.539
_exptl_crystal_description 'block'
_diffrn_ambient_temperature 173
#These two values have been output from a single CSD field.
_refine_ls_R_factor_gt 0.0453
_refine_ls_wR_factor_gt 0.0453
_symmetry_cell_setting triclinic
_symmetry_space_group_name_H-M 'P -1'
_symmetry_Int_Tables_number 2
loop_
_symmetry_equiv_pos_site_id
_symmetry_equiv_pos_as_xyz
1 x,y,z
2 -x,-y,-z
_cell_length_a 8.6996(3)
_cell_length_b 9.4687(3)
_cell_length_c 11.8581(4)
_cell_angle_alpha 87.360(2)
_cell_angle_beta 71.996(1)
_cell_angle_gamma 77.073(1)
_cell_formula_units_Z 2
loop_
_atom_type_symbol
_atom_type_radius_bond
C 0.68
H 0.23
N 0.68
O 0.68
loop_
_atom_site_label
_atom_site_type_symbol
_atom_site_fract_x
_atom_site_fract_y
_atom_site_fract_z
O1 O 0.77520(14) 0.64166(10) 0.26939(9)
O2 O 0.59483(9) 1.28706(8) 0.50570(7)
C1 C 0.63847(15) 1.41557(12) 0.65225(11)
H1 H 0.57670 1.50080 0.62800
O3 O 0.56919(10) 1.18955(9) 0.35142(7)
O4 O 1.06047(9) 0.79893(8) 0.67855(7)
O5 O 1.10396(11) 0.76401(10) 0.95380(8)
O6 O 1.05539(11) 0.96851(10) 0.86740(8)
O7 O 0.65739(10) 0.91828(9) 0.30895(7)
O8 O 0.89734(16) 0.51665(10) 0.39261(10)
C2 C 0.8093(2) 0.50753(15) 0.20298(14)
H2 H 0.92930 0.47420 0.16690
H3 H 0.75560 0.52390 0.14060
H4 H 0.76620 0.43380 0.25650
C3 C 0.82901(13) 0.63001(12) 0.36316(9)
C4 C 0.79870(12) 0.76927(10) 0.42876(8)
C5 C 0.71923(11) 0.90542(11) 0.40012(8)
C6 C 0.70445(11) 1.02895(10) 0.46984(8)
C7 C 0.62213(11) 1.16957(11) 0.43693(9)
C8 C 0.66289(12) 1.28235(11) 0.59713(9)
C9 C 0.70557(16) 1.42174(13) 0.74279(12)
H5 H 0.68860 1.51160 0.78230
C10 C 0.76571(11) 1.01813(10) 0.56809(8)
C11 C 0.84139(11) 0.87904(10) 0.59635(8)
C12 C 0.91185(11) 0.84193(10) 0.69793(8)
C13 C 0.79605(11) 0.84046(10) 0.82097(8)
C14 C 0.84964(12) 0.83708(11) 0.92130(9)
C15 C 0.74936(14) 0.82042(13) 1.03436(10)
H6 H 0.78940 0.81880 1.10050
C16 C 0.58858(15) 0.80606(14) 1.04964(10)
H7 H 0.51800 0.79450 1.12690
C17 C 0.53072(14) 0.80854(14) 0.95299(11)
H8 H 0.42080 0.79860 0.96400
C18 C 0.63422(12) 0.82567(12) 0.83922(9)
H9 H 0.59380 0.82730 0.77330
N1 N 1.01666(11) 0.85738(10) 0.91172(8)
C19 C 0.85864(12) 0.76001(11) 0.52560(9)
H10 H 0.91400 0.66780 0.54420
C20 C 0.75035(11) 1.15329(11) 0.63009(9)
C21 C 0.82109(13) 1.16524(11) 0.72020(9)
H11 H 0.88620 1.08100 0.74300
C22 C 0.79806(14) 1.29646(12) 0.77633(10)
H12 H 0.84540 1.30120 0.83790
H13 H 0.616(2) 1.020(2) 0.3052(17)
#END
