
#######################################################################
#
#                 Cambridge Crystallographic Data Centre
#                                CCDC
#
#######################################################################
#
# If this CIF has been generated from an entry in the Cambridge
# Structural Database, then it will include bibliographic, chemical,
# crystal, experimental, refinement or atomic coordinate data resulting
# from the CCDC's data processing and validation procedures.
#
#######################################################################

data_CSD_CIF_ECINEL
_audit_creation_date 2013-03-18
_audit_creation_method CSD-ConQuest-V1
_database_code_CSD ECINEL
_database_code_depnum_ccdc_archive 'CCDC 855691'
_chemical_formula_sum 'C32 H23 N1 O6'
_chemical_formula_moiety
;
C32 H23 N1 O6
;
_journal_coden_Cambridge 177
_journal_volume 10
_journal_year 2012
_journal_page_first 9344
_journal_name_full 'Org.Biomol.Chem. '
loop_
_publ_author_name
"V.O.Iaroshenko"
"I.Savych"
"A.Villinger"
"V.Ya.Sosnovskikh"
"P.Langer"
_chemical_name_systematic
;
2,6-Diphenyl-3-(2-hydroxy-4-methoxyphenyl)-4-(2-nitrobenzoyl)phenol
;
_chemical_melting_point 471.15
_cell_volume   4889.570
_exptl_crystal_colour 'colorless'
_exptl_crystal_density_diffrn 1.406
_exptl_special_details
;
Melting point range 471.15-473.15K

;
_exptl_crystal_description 'block'
_diffrn_ambient_temperature 173
_refine_special_details
;
The nitrophenyl unit is disordered over two sites with occupancies 
0.706:0.294. The hydroxy group of the 4-methoxyphenyl unit is disordered over 
the two ortho positions with occupancies 0.735:0.265.
;
#These two values have been output from a single CSD field.
_refine_ls_R_factor_gt 0.0553
_refine_ls_wR_factor_gt 0.0553
_symmetry_cell_setting orthorhombic
_symmetry_space_group_name_H-M 'P b c a'
_symmetry_Int_Tables_number 61
loop_
_symmetry_equiv_pos_site_id
_symmetry_equiv_pos_as_xyz
1 x,y,z
2 1/2-x,-y,1/2+z
3 -x,1/2+y,1/2-z
4 1/2+x,1/2-y,-z
5 -x,-y,-z
6 -1/2+x,y,-1/2-z
7 x,-1/2-y,-1/2+z
8 -1/2-x,-1/2+y,z
_cell_length_a 16.0280(12)
_cell_length_b 14.4028(12)
_cell_length_c 21.1809(18)
_cell_angle_alpha 90
_cell_angle_beta 90
_cell_angle_gamma 90
_cell_formula_units_Z 8
loop_
_atom_type_symbol
_atom_type_radius_bond
C 0.68
H 0.23
N 0.68
O 0.68
loop_
_atom_site_label
_atom_site_type_symbol
_atom_site_fract_x
_atom_site_fract_y
_atom_site_fract_z
O1 O -0.14472(9) -0.13537(11) 0.06791(8)
N1 N 0.1426(3) 0.2443(8) 0.0875(3)
O2 O -0.0458(4) 0.2471(6) 0.1925(5)
O3 O 0.0729(3) 0.2290(4) 0.0659(2)
O4 O 0.2017(3) 0.2677(6) 0.0559(3)
C1 C 0.0016(4) 0.1858(5) 0.1733(5)
C2 C 0.0913(4) 0.2030(7) 0.1940(4)
C3 C 0.1553(4) 0.2360(6) 0.1560(3)
C4 C 0.2331(4) 0.2582(4) 0.1786(3)
H1 H 0.27550 0.27970 0.15080
C5 C 0.2488(3) 0.2488(4) 0.2422(3)
H2 H 0.30240 0.26330 0.25860
C6 C 0.1873(4) 0.2189(4) 0.2816(3)
H3 H 0.19790 0.21360 0.32560
C7 C 0.1093(4) 0.1960(5) 0.2581(3)
H4 H 0.06720 0.17510 0.28630
O5 O 0.36668(8) -0.02764(11) 0.15056(7)
O6 O 0.09560(12) -0.01467(15) 0.2463(1)
O7? O 0.1256(3) 0.0450(4) 0.0371(2)
H5? H 0.16070 0.05290 0.00820
C8 C -0.10668(12) -0.06050(13) 0.09457(9)
C9 C -0.15682(11) 0.01583(13) 0.10986(9)
C10 C -0.11755(11) 0.09223(12) 0.13530(8)
H6 H -0.15040 0.14490 0.14570
C11 C -0.03145(11) 0.09610(12) 0.14663(8)
C12 C 0.01782(11) 0.01894(12) 0.13139(8)
C13 C -0.02054(11) -0.05937(12) 0.10521(9)
C14 C -0.24879(11) 0.01474(13) 0.09830(9)
C15 C -0.28736(12) 0.08895(14) 0.06842(9)
H7 H -0.25490 0.14030 0.05470
C16 C -0.37324(13) 0.08895(16) 0.05835(10)
H8 H -0.39900 0.14030 0.03800
C17 C -0.42083(12) 0.01475(17) 0.07782(10)
H9 H -0.47950 0.01510 0.07120
C18 C -0.38330(12) -0.06021(15) 0.10702(10)
H10 H -0.41610 -0.11160 0.12020
C19 C -0.29790(12) -0.06049(14) 0.11708(9)
H11 H -0.27250 -0.11240 0.13700
C20 C 0.02708(11) -0.14491(12) 0.08832(9)
C21 C 0.04162(13) -0.21235(14) 0.13378(12)
H12 H 0.02580 -0.20170 0.17640
C22 C 0.07947(15) -0.29565(16) 0.11669(15)
H13 H 0.08860 -0.34240 0.14760
C23 C 0.10355(14) -0.31044(15) 0.05561(15)
H14 H 0.12910 -0.36760 0.04440
C24 C 0.09129(15) -0.24366(16) 0.01032(13)
H15 H 0.10920 -0.25400 -0.03190
C25 C 0.05233(13) -0.16056(15) 0.02666(10)
H16 H 0.04300 -0.11440 -0.00460
C26 C 0.11063(11) 0.01318(11) 0.13952(9)
C27 C 0.14683(11) -0.00648(12) 0.19731(9)
H17? H 0.11220 -0.01250 0.23350
C28 C 0.23282(12) -0.01769(12) 0.20372(9)
H18 H 0.25690 -0.02810 0.24410
C29 C 0.28239(11) -0.01342(12) 0.15052(10)
C30 C 0.24751(12) 0.00437(12) 0.0918(1)
H19 H 0.28170 0.00710 0.05520
C31 C 0.16273(12) 0.01800(12) 0.08712(9)
H20 H 0.13910 0.03110 0.04690
C32 C 0.40603(13) -0.04196(18) 0.21019(12)
H21 H 0.40060 0.01430 0.23590
H22 H 0.46530 -0.05590 0.20370
H23 H 0.37920 -0.09410 0.23200
H24 H 0.120(3) -0.030(3) 0.274(2)
H25 H -0.109(2) -0.175(2) 0.0587(15)
C33? C -0.0077(11) 0.1811(14) 0.1811(14)
C34? C 0.0824(9) 0.1947(17) 0.1977(9)
C35? C 0.1446(10) 0.2239(15) 0.1565(7)
C36? C 0.2249(9) 0.2398(10) 0.1788(7)
C37? C 0.2430(9) 0.2265(8) 0.2424(8)
C38? C 0.1808(11) 0.1974(10) 0.2836(6)
C39? C 0.1005(10) 0.1815(14) 0.2613(8)
H26? H 0.26740 0.25970 0.15070
H27? H 0.29780 0.23740 0.25760
H28? H 0.19310 0.18830 0.32700
H29? H 0.05800 0.16150 0.28940
N2? N 0.1256(8) 0.252(2) 0.0919(8)
O8? O -0.0595(11) 0.2420(15) 0.1811(14)
O9? O 0.0518(6) 0.2609(9) 0.0792(5)
O10? O 0.1787(8) 0.2579(17) 0.0515(8)
#END
