
#######################################################################
#
#                 Cambridge Crystallographic Data Centre
#                                CCDC
#
#######################################################################
#
# If this CIF has been generated from an entry in the Cambridge
# Structural Database, then it will include bibliographic, chemical,
# crystal, experimental, refinement or atomic coordinate data resulting
# from the CCDC's data processing and validation procedures.
#
#######################################################################

data_CSD_CIF_ECUYOR
_audit_creation_date 2006-05-29
_audit_creation_method CSD-ConQuest-V1
_database_code_CSD ECUYOR
_database_code_depnum_ccdc_archive 'CCDC 262061'
_chemical_formula_sum 'C16 H16 N2 O6'
_chemical_formula_moiety
;
C16 H16 N2 O6
;
_journal_coden_Cambridge 504
_journal_volume 61
_journal_year 2006
_journal_page_first 4
_journal_name_full 'Pharmazie '
loop_
_publ_author_name
"K.Gorlitzer"
"C.Enge"
"P.G.Jones"
_chemical_name_systematic
;
methyl 
(E)-5-(methoxymethylene)-2-methyl-4-(2-nitrophenyl)-6-oxo-1,4,5,6-tetrahydropy
ridine-3-carboxylate
;
_cell_volume   1532.528
_exptl_crystal_colour 'colorless'
_exptl_crystal_density_diffrn 1.44
_exptl_crystal_description 'irregular tablet'
_diffrn_ambient_temperature 133
#These two values have been output from a single CSD field.
_refine_ls_R_factor_gt 0.0391
_refine_ls_wR_factor_gt 0.0391
_symmetry_cell_setting monoclinic
_symmetry_space_group_name_H-M 'P 21/c'
_symmetry_Int_Tables_number 14
loop_
_symmetry_equiv_pos_site_id
_symmetry_equiv_pos_as_xyz
1 x,y,z
2 -x,1/2+y,1/2-z
3 -x,-y,-z
4 x,-1/2-y,-1/2+z
_cell_length_a 14.7121(14)
_cell_length_b 7.3252(6)
_cell_length_c 15.6777(14)
_cell_angle_alpha 90
_cell_angle_beta 114.899(4)
_cell_angle_gamma 90
_cell_formula_units_Z 4
loop_
_atom_type_symbol
_atom_type_radius_bond
C 0.68
H 0.23
N 0.68
O 0.68
loop_
_atom_site_label
_atom_site_type_symbol
_atom_site_fract_x
_atom_site_fract_y
_atom_site_fract_z
N1 N 0.09584(8) 0.31512(14) 0.05674(7)
H1 H 0.0471(13) 0.338(2) 0.0071(12)
C1 C 0.15431(9) 0.16390(15) 0.05690(8)
C2 C 0.23270(8) 0.11227(15) 0.13672(8)
C3 C 0.25746(8) 0.21267(15) 0.22865(7)
H2 H 0.33200 0.22340 0.26270
C4 C 0.21306(8) 0.40377(15) 0.21107(8)
C5 C 0.12444(8) 0.44722(15) 0.12519(8)
C6 C 0.21888(8) 0.10626(15) 0.29142(8)
C7 C 0.26762(8) 0.09225(15) 0.38932(8)
C8 C 0.22627(10) 0.00354(16) 0.44313(9)
H3 H 0.26170 -0.00150 0.50960
C9 C 0.13288(10) -0.07740(16) 0.39874(9)
H4 H 0.10420 -0.14020 0.43450
C10 C 0.08168(10) -0.06607(17) 0.30204(9)
H5 H 0.01740 -0.12070 0.27120
C11 C 0.12402(9) 0.02520(16) 0.24975(9)
H6 H 0.08730 0.03280 0.18350
C12 C 0.11874(10) 0.07488(17) -0.03794(8)
H7 H 0.17660 0.04450 -0.05090
H8 H 0.07460 0.15900 -0.08620
H9 H 0.08190 -0.03690 -0.03860
O1 O 0.27506(7) -0.16012(13) 0.07607(6)
C13 C 0.29452(9) -0.04671(16) 0.13736(8)
O2 O 0.37893(7) -0.05433(12) 0.21802(6)
C14 C 0.44679(11) -0.2022(2) 0.22434(10)
H10 H 0.41100 -0.31880 0.21390
H11 H 0.50280 -0.20230 0.28690
H12 H 0.47260 -0.18580 0.17650
C15 C 0.25353(9) 0.53805(16) 0.27435(8)
H13 H 0.22450 0.65640 0.26280
O3 O 0.33474(7) 0.50405(11) 0.35354(6)
C16 C 0.37524(10) 0.65501(17) 0.41782(9)
H14 H 0.38400 0.76060 0.38360
H15 H 0.44020 0.62010 0.46760
H16 H 0.32900 0.68670 0.44580
O4 O 0.07696(6) 0.59185(12) 0.11160(6)
N2 N 0.36960(8) 0.16359(14) 0.44403(7)
O5 O 0.43386(6) 0.13588(12) 0.41479(6)
O6 O 0.38498(7) 0.24265(14) 0.51806(6)
#END
