
#######################################################################
#
#                 Cambridge Crystallographic Data Centre
#                                CCDC
#
#######################################################################
#
# If this CIF has been generated from an entry in the Cambridge
# Structural Database, then it will include bibliographic, chemical,
# crystal, experimental, refinement or atomic coordinate data resulting
# from the CCDC's data processing and validation procedures.
#
#######################################################################

data_CSD_CIF_EDAWIP
_audit_creation_date 2002-01-23
_audit_creation_method CSD-ConQuest-V1
_database_code_CSD EDAWIP
_database_code_depnum_ccdc_archive 'CCDC 175365'
_chemical_formula_sum 'C2 H4 N2 O2'
_chemical_formula_moiety
;
C2 H4 N2 O2
;
_journal_coeditor_code "IUCr OM6046"
_journal_coden_Cambridge 1370
_journal_volume 57
_journal_year 2001
_journal_page_first o956
_journal_name_full 'Acta Crystallogr.,Sect.E:Struct.Rep.Online '
loop_
_publ_author_name
"R.N.Evans"
"R.Gilardi"
_chemical_name_systematic
;
(Z)-2-Nitroethenamine
;
_cell_volume    386.543
_exptl_crystal_colour 'pale yellow'
_exptl_crystal_density_diffrn 1.513
_exptl_crystal_description 'plate'
_diffrn_ambient_temperature 293
#These two values have been output from a single CSD field.
_refine_ls_R_factor_gt 0.0441
_refine_ls_wR_factor_gt 0.0441
_symmetry_cell_setting monoclinic
_symmetry_space_group_name_H-M 'P 21/c'
_symmetry_Int_Tables_number 14
loop_
_symmetry_equiv_pos_site_id
_symmetry_equiv_pos_as_xyz
1 x,y,z
2 x,1/2-y,1/2+z
3 -x,-y,-z
4 -x,-1/2+y,-1/2-z
_cell_length_a 5.5459(2)
_cell_length_b 10.3058(3)
_cell_length_c 6.8702(3)
_cell_angle_alpha 90
_cell_angle_beta 100.131(2)
_cell_angle_gamma 90
_cell_formula_units_Z 4
loop_
_atom_type_symbol
_atom_type_radius_bond
C 0.68
H 0.23
N 0.68
O 0.68
loop_
_atom_site_label
_atom_site_type_symbol
_atom_site_fract_x
_atom_site_fract_y
_atom_site_fract_z
N1 N 0.8749(2) 0.79870(13) 0.40604(19)
H1 H 1.011(4) 0.8389(14) 0.466(3)
H2 H 0.754(3) 0.850(2) 0.354(3)
C1 C 0.8617(2) 0.67328(15) 0.4003(2)
H3 H 0.998(3) 0.6280(15) 0.461(2)
C2 C 0.6720(2) 0.59581(14) 0.3149(2)
H4 H 0.688(3) 0.509(2) 0.317(2)
N2 N 0.45367(18) 0.64422(12) 0.21808(15)
O1 O 0.28745(17) 0.56588(11) 0.14658(18)
O2 O 0.41900(18) 0.76326(10) 0.20014(16)
#END
