
#######################################################################
#
#                 Cambridge Crystallographic Data Centre
#                                CCDC
#
#######################################################################
#
# If this CIF has been generated from an entry in the Cambridge
# Structural Database, then it will include bibliographic, chemical,
# crystal, experimental, refinement or atomic coordinate data resulting
# from the CCDC's data processing and validation procedures.
#
#######################################################################

data_CSD_CIF_EDETOX
_audit_creation_date 2007-09-06
_audit_creation_method CSD-ConQuest-V1
_database_code_CSD EDETOX
_database_code_depnum_ccdc_archive 'CCDC 651516'
_chemical_formula_sum 'C25 H29 N1 O5'
_chemical_formula_moiety
;
C25 H29 N1 O5
;
_journal_coeditor_code "IUCr SG2168"
_journal_coden_Cambridge 1370
_journal_volume 63
_journal_year 2007
_journal_page_first o3022
_journal_name_full 'Acta Crystallogr.,Sect.E:Struct.Rep.Online '
loop_
_publ_author_name
"Yu-Yuan Ye"
_chemical_name_systematic
;
13-Methyl-3-oxo-2,3,6,7,8,9,10,11,12,13,14,15,16,17-tetradecahydro-1H-cyclopen
ta(a)phenanthren-17-yl 4-nitrobenzoate
;
_chemical_melting_point 472
_cell_volume   2218.022
_exptl_crystal_colour 'colorless'
_exptl_crystal_density_diffrn 1.268
_exptl_special_details
;
Melting point range 472-475K

;
_exptl_crystal_description 'prism'
_exptl_crystal_preparation 'ethanol'
_diffrn_ambient_temperature 298
#These two values have been output from a single CSD field.
_refine_ls_R_factor_gt 0.0374
_refine_ls_wR_factor_gt 0.0374
_symmetry_cell_setting orthorhombic
_symmetry_space_group_name_H-M 'P 21 21 21'
_symmetry_Int_Tables_number 19
loop_
_symmetry_equiv_pos_site_id
_symmetry_equiv_pos_as_xyz
1 x,y,z
2 1/2-x,-y,1/2+z
3 -x,1/2+y,1/2-z
4 1/2+x,1/2-y,-z
_cell_length_a 10.8866(6)
_cell_length_b 11.5321(6)
_cell_length_c 17.6671(9)
_cell_angle_alpha 90
_cell_angle_beta 90
_cell_angle_gamma 90
_cell_formula_units_Z 4
loop_
_atom_type_symbol
_atom_type_radius_bond
C 0.68
H 0.23
N 0.68
O 0.68
loop_
_atom_site_label
_atom_site_type_symbol
_atom_site_fract_x
_atom_site_fract_y
_atom_site_fract_z
O1 O 0.5768(3) 0.6312(3) 0.42364(14)
O2 O 0.4737(2) 0.51962(18) 1.01883(11)
O3 O 0.5297(3) 0.6795(2) 1.08166(12)
O4 O 0.6884(3) 0.1759(3) 1.30309(17)
O5 O 0.7028(3) 0.3232(3) 1.37676(16)
N1 N 0.6778(3) 0.2788(3) 1.31684(18)
C1 C 0.5414(4) 0.5881(3) 0.48331(19)
C2 C 0.4313(3) 0.6266(3) 0.52155(16)
H1 H 0.38460 0.68450 0.49890
C3 C 0.3929(3) 0.5836(3) 0.58751(15)
C4 C 0.2712(3) 0.6168(3) 0.62039(17)
H2 H 0.21570 0.55120 0.61720
H3 H 0.23640 0.67970 0.59100
C5 C 0.2828(3) 0.6547(3) 0.70291(16)
H4 H 0.32680 0.72780 0.70520
H5 H 0.20140 0.66700 0.72380
C6 C 0.3497(3) 0.5657(2) 0.75022(15)
H6 H 0.30060 0.49450 0.75090
C7 C 0.3685(3) 0.6050(3) 0.83138(15)
H7 H 0.42290 0.67250 0.82840
C8 C 0.2595(3) 0.6435(4) 0.87880(18)
H8 H 0.19060 0.59100 0.87260
H9 H 0.23370 0.72130 0.86510
C9 C 0.3092(3) 0.6400(3) 0.96115(18)
H10 H 0.31180 0.71720 0.98280
H11 H 0.25800 0.59110 0.99280
C10 C 0.4384(3) 0.5895(3) 0.95376(15)
H12 H 0.49750 0.65290 0.94750
C11 C 0.4355(3) 0.5171(2) 0.88165(15)
C12 C 0.5594(3) 0.4892(3) 0.84696(16)
H13 H 0.59880 0.42840 0.87610
H14 H 0.61140 0.55750 0.84900
C13 C 0.5457(3) 0.4499(3) 0.76461(16)
H15 H 0.62660 0.43790 0.74310
H16 H 0.50270 0.37620 0.76350
C14 C 0.4756(3) 0.5373(3) 0.71588(15)
H17 H 0.52330 0.60930 0.71650
C15 C 0.4674(3) 0.4983(3) 0.63285(16)
H18 H 0.42540 0.42320 0.63140
C16 C 0.5959(4) 0.4828(5) 0.5982(2)
H19 H 0.64890 0.54290 0.61840
H20 H 0.62840 0.40890 0.61520
C17 C 0.6043(5) 0.4862(5) 0.5178(2)
H21 H 0.56850 0.41580 0.49730
H22 H 0.69020 0.48760 0.50340
C18 C 0.3607(3) 0.4057(3) 0.89454(18)
H23 H 0.34780 0.36730 0.84700
H24 H 0.28280 0.42510 0.91660
H25 H 0.40490 0.35510 0.92800
C19 C 0.5181(3) 0.5761(3) 1.07838(16)
C20 C 0.5542(3) 0.4962(3) 1.14058(15)
C21 C 0.5865(3) 0.5425(3) 1.21044(17)
H26 H 0.58270 0.62230 1.21770
C22 C 0.6237(3) 0.4725(3) 1.26874(18)
H27 H 0.64440 0.50370 1.31560
C23 C 0.6298(3) 0.3553(3) 1.25628(17)
C24 C 0.5963(3) 0.3054(3) 1.18887(17)
H28 H 0.59960 0.22550 1.18230
C25 C 0.5576(3) 0.3771(3) 1.13105(17)
H29 H 0.53340 0.34500 1.08510
#END
