
#######################################################################
#
#                 Cambridge Crystallographic Data Centre
#                                CCDC
#
#######################################################################
#
# If this CIF has been generated from an entry in the Cambridge
# Structural Database, then it will include bibliographic, chemical,
# crystal, experimental, refinement or atomic coordinate data resulting
# from the CCDC's data processing and validation procedures.
#
#######################################################################

data_CSD_CIF_EDIMOV
_audit_creation_date 2013-01-17
_audit_creation_method CSD-ConQuest-V1
_database_code_CSD EDIMOV
_database_code_depnum_ccdc_archive 'CCDC 911265'
_chemical_formula_sum 'C18 H10 N2 O4'
_chemical_formula_moiety
;
C18 H10 N2 O4
;
_journal_coden_Cambridge 1078
_journal_year 2012
_journal_name_full 'CSD Communication(Private Communication) '
loop_
_publ_author_name
"H.G.Heller"
"R.Whittock"
"D.S.Hughes"
"M.B.Hursthouse"
_chemical_name_systematic
;
2-(8-Nitro-1-naphthyl)-1H-isoindole-1,3(2H)-dione
;
_cell_volume    703.697
_exptl_crystal_density_diffrn 1.51
_exptl_special_details
;
contribution from Department of Chemistry, University of Cardiff, Cardiff 
CF10 3TB, UK
;
_diffrn_ambient_temperature 150
#These two values have been output from a single CSD field.
_refine_ls_R_factor_gt 0.0392
_refine_ls_wR_factor_gt 0.0392
_symmetry_cell_setting triclinic
_symmetry_space_group_name_H-M 'P -1'
_symmetry_Int_Tables_number 2
loop_
_symmetry_equiv_pos_site_id
_symmetry_equiv_pos_as_xyz
1 x,y,z
2 -x,-y,-z
_cell_length_a 7.566(2)
_cell_length_b 7.981(2)
_cell_length_c 12.927(3)
_cell_angle_alpha 83.62(3)
_cell_angle_beta 74.43(3)
_cell_angle_gamma 69.39(3)
_cell_formula_units_Z 2
loop_
_atom_type_symbol
_atom_type_radius_bond
C 0.68
H 0.23
N 0.68
O 0.68
loop_
_atom_site_label
_atom_site_type_symbol
_atom_site_fract_x
_atom_site_fract_y
_atom_site_fract_z
O1 O -0.0612(2) 0.9945(2) 0.8187(1)
O2 O 0.2581(2) 0.5361(2) 0.5773(1)
O3 O 0.3892(2) 0.7102(2) 0.8052(1)
O4 O 0.6107(2) 0.5254(2) 0.6844(1)
N1 N 0.0881(2) 0.7347(2) 0.7180(1)
N2 N 0.4633(2) 0.5648(2) 0.7596(1)
C1 C 0.0368(3) 0.9184(2) 0.7349(2)
C2 C 0.1261(3) 0.9920(2) 0.6303(2)
C3 C 0.1224(3) 1.1652(3) 0.6016(2)
C4 C 0.2209(3) 1.1940(3) 0.4960(2)
C5 C 0.3191(3) 1.0550(3) 0.4239(2)
C6 C 0.3230(3) 0.8806(3) 0.4531(2)
C7 C 0.2230(3) 0.8534(2) 0.5573(2)
C8 C 0.1993(3) 0.6856(2) 0.6111(2)
C9 C 0.0302(3) 0.6109(2) 0.7967(1)
C10 C 0.1721(3) 0.4597(2) 0.8301(1)
C11 C 0.3777(3) 0.4241(2) 0.8036(1)
C12 C 0.5070(3) 0.2648(3) 0.8262(2)
C13 C 0.4385(3) 0.1300(3) 0.8826(2)
C14 C 0.2423(3) 0.1619(3) 0.9179(2)
C15 C 0.1060(3) 0.3244(2) 0.8932(1)
C16 C -0.0978(3) 0.3556(3) 0.9319(2)
C17 C -0.2295(3) 0.5099(3) 0.9059(2)
C18 C -0.1646(3) 0.6346(3) 0.8346(2)
H1 H 0.0550(28) 1.2598(26) 0.6517(16)
H2 H 0.2180(29) 1.3146(28) 0.4768(16)
H3 H 0.3877(29) 1.0760(26) 0.3523(18)
H4 H 0.3912(28) 0.7824(25) 0.4049(16)
H5 H 0.6471(31) 0.2450(26) 0.8037(17)
H6 H 0.5329(30) 0.0152(28) 0.8975(17)
H7 H 0.1932(32) 0.0698(29) 0.9602(18)
H8 H -0.1419(27) 0.2606(24) 0.9820(16)
H9 H -0.3677(33) 0.5385(28) 0.9346(17)
H10 H -0.2601(26) 0.7439(23) 0.8094(14)
#END
