
#######################################################################
#
#                 Cambridge Crystallographic Data Centre
#                                CCDC
#
#######################################################################
#
# If this CIF has been generated from an entry in the Cambridge
# Structural Database, then it will include bibliographic, chemical,
# crystal, experimental, refinement or atomic coordinate data resulting
# from the CCDC's data processing and validation procedures.
#
#######################################################################

data_CSD_CIF_EDOFOV
_audit_creation_date 2017-10-16
_audit_creation_method CSD-ConQuest-V1
_database_code_CSD EDOFOV
_database_code_depnum_ccdc_archive 'CCDC 908321'
_chemical_formula_sum 'C10 H11 N1 O1'
_chemical_formula_moiety
;
C10 H11 N1 O1
;
_journal_coden_Cambridge 40
_journal_volume 110
_journal_year 2017
_journal_page_first 4206
_journal_name_full 'Proc.Nat.Acad.Sci.USA '
loop_
_publ_author_name
"T.Ohwadaa"
"N.Tania"
"Y.Sakamakia"
"Y.Kabasawaa"
"Yuko Otania"
"M.Kawahatab"
"K.Yamaguch"
_chemical_name_systematic
;
N-hydroxy-3,4-dihydronaphthalen-1(2H)-imine
;
_cell_volume   1663.595
_exptl_crystal_colour 'colorless'
_exptl_crystal_density_diffrn 1.287
_exptl_crystal_description 'prismatic'
_diffrn_ambient_temperature 120
#These two values have been output from a single CSD field.
_refine_ls_R_factor_gt 0.0367
_refine_ls_wR_factor_gt 0.0367
_symmetry_cell_setting monoclinic
_symmetry_space_group_name_H-M 'C 2/c'
_symmetry_Int_Tables_number 15
loop_
_symmetry_equiv_pos_site_id
_symmetry_equiv_pos_as_xyz
1 x,y,z
2 -x,y,1/2-z
3 1/2+x,1/2+y,z
4 1/2-x,1/2+y,1/2-z
5 -x,-y,-z
6 x,-y,-1/2+z
7 -1/2-x,-1/2-y,-z
8 -1/2+x,-1/2-y,-1/2+z
_cell_length_a 13.675(3)
_cell_length_b 8.3383(16)
_cell_length_c 15.496(4)
_cell_angle_alpha 90
_cell_angle_beta 109.694(2)
_cell_angle_gamma 90
_cell_formula_units_Z 8
loop_
_atom_type_symbol
_atom_type_radius_bond
C 0.68
H 0.23
N 0.68
O 0.68
loop_
_atom_site_label
_atom_site_type_symbol
_atom_site_fract_x
_atom_site_fract_y
_atom_site_fract_z
C1 C 0.92644(8) 0.30156(12) 0.52401(7)
C2 C 0.83943(8) 0.36680(12) 0.44661(7)
C3 C 0.82258(8) 0.31824(13) 0.35591(7)
H1 H 0.87120 0.24920 0.34300
C4 C 0.73602(9) 0.36975(13) 0.28520(7)
H2 H 0.72480 0.33540 0.22420
C5 C 0.66542(9) 0.47218(13) 0.30398(8)
H3 H 0.60510 0.50610 0.25580
C6 C 0.68291(8) 0.52481(13) 0.39264(8)
H4 H 0.63510 0.59680 0.40450
C7 C 0.76993(8) 0.47364(12) 0.46517(7)
C8 C 0.78910(8) 0.52959(13) 0.56197(7)
H5 H 0.75820 0.45220 0.59390
H6 H 0.75530 0.63490 0.56100
C9 C 0.90566(8) 0.54439(12) 0.61369(7)
H7 H 0.93590 0.62530 0.58320
H8 H 0.91710 0.58110 0.67710
C10 C 0.95984(8) 0.38337(13) 0.61612(7)
H9 H 1.03590 0.40070 0.63710
H10 H 0.94440 0.31230 0.66110
N1 N 0.96630(6) 0.16922(11) 0.50926(6)
O1 O 1.04812(6) 0.11619(10) 0.58713(5)
H11 H 1.0585(12) 0.018(2) 0.5672(11)
#END
