
#######################################################################
#
#                 Cambridge Crystallographic Data Centre
#                                CCDC
#
#######################################################################
#
# If this CIF has been generated from an entry in the Cambridge
# Structural Database, then it will include bibliographic, chemical,
# crystal, experimental, refinement or atomic coordinate data resulting
# from the CCDC's data processing and validation procedures.
#
#######################################################################

data_CSD_CIF_EDOVAU
_audit_creation_date 2002-04-09
_audit_creation_method CSD-ConQuest-V1
_database_code_CSD EDOVAU
_database_code_depnum_ccdc_archive 'CCDC 171835'
_chemical_formula_sum 'C24 H23 N3 O4'
_chemical_formula_moiety
;
C24 H23 N3 O4
;
_journal_coden_Cambridge 440
_journal_volume 25
_journal_year 2001
_journal_page_first 1486
_journal_name_full 'New J.Chem. '
loop_
_publ_author_name
"P.Uznanski"
"C.Amiens"
"B.Donnadieu"
"Y.Coppel"
"B.Chaudret"
_chemical_name_systematic
;
1,3,3-Trimethyl-2'-ethoxy-5-nitro-1,3-dihydrospiro(indole-2,3'-naphtho(2,1-b)(
1,4)oxazine)
;
_cell_volume   2088.519
_exptl_crystal_colour 'pale yellow'
_exptl_crystal_density_diffrn 1.328
_exptl_crystal_description 'hexagonal plate'
_diffrn_ambient_temperature 180
#These two values have been output from a single CSD field.
_refine_ls_R_factor_gt 0.0399
_refine_ls_wR_factor_gt 0.0399
_symmetry_cell_setting monoclinic
_symmetry_space_group_name_H-M 'P 21/c'
_symmetry_Int_Tables_number 14
loop_
_symmetry_equiv_pos_site_id
_symmetry_equiv_pos_as_xyz
1 x,y,z
2 x,1/2-y,1/2+z
3 -x,-y,-z
4 -x,-1/2+y,-1/2-z
_cell_length_a 10.3622(9)
_cell_length_b 15.3310(15)
_cell_length_c 13.5407(12)
_cell_angle_alpha 90
_cell_angle_beta 103.856(10)
_cell_angle_gamma 90
_cell_formula_units_Z 4
loop_
_atom_type_symbol
_atom_type_radius_bond
C 0.68
H 0.23
N 0.68
O 0.68
loop_
_atom_site_label
_atom_site_type_symbol
_atom_site_fract_x
_atom_site_fract_y
_atom_site_fract_z
O1 O 0.88995(10) 0.01891(6) 0.60611(8)
O2 O 0.81430(11) 0.05955(6) 0.84123(7)
O3 O 0.52393(13) 0.43396(8) 0.67983(11)
O4 O 0.68567(12) 0.49568(7) 0.78649(9)
N1 N 0.93567(12) 0.13752(7) 0.71301(9)
N2 N 0.76955(12) -0.06459(7) 0.74467(9)
N3 N 0.63775(13) 0.43309(7) 0.73395(10)
C1 C 0.83539(14) 0.07293(8) 0.67209(10)
C2 C 0.80418(14) 0.01481(8) 0.75472(10)
C3 C 0.76781(14) -0.10164(8) 0.64915(10)
C4 C 0.70763(14) -0.18450(8) 0.62332(10)
C5 C 0.63558(15) -0.22734(9) 0.68511(12)
H1 H 0.62470 -0.20010 0.74560
C6 C 0.58121(17) -0.30778(10) 0.65857(13)
H2 H 0.53300 -0.33600 0.70090
C7 C 0.59592(17) -0.34919(10) 0.56908(13)
H3 H 0.55820 -0.40520 0.55150
C8 C 0.66430(16) -0.3089(1) 0.50768(12)
H4 H 0.67340 -0.33720 0.44730
C9 C 0.72194(15) -0.22573(9) 0.53234(11)
C10 C 0.79424(16) -0.18296(10) 0.46996(11)
H5 H 0.80600 -0.21100 0.41020
C11 C 0.84714(15) -0.10225(9) 0.49431(11)
H6 H 0.89430 -0.07380 0.45140
C12 C 0.83125(14) -0.06162(8) 0.58320(11)
C13 C 0.71154(14) 0.12814(8) 0.61596(10)
C14 C 0.74088(14) 0.21290(8) 0.67382(10)
C15 C 0.66125(15) 0.28402(9) 0.67552(10)
H7 H 0.57090 0.28440 0.63860
C16 C 0.71761(14) 0.35594(8) 0.73354(10)
C17 C 0.84853(15) 0.35675(9) 0.78854(11)
H8 H 0.88320 0.40650 0.82780
C18 C 0.92894(15) 0.28523(9) 0.78639(11)
H9 H 1.01900 0.28470 0.82390
C19 C 0.87384(14) 0.21403(8) 0.72752(10)
C20 C 1.06334(15) 0.1124(1) 0.77667(13)
H10 H 1.08910 0.05540 0.75480
H11 H 1.05710 0.10890 0.84770
H12 H 1.13030 0.15590 0.77060
C21 C 0.57868(16) 0.0873(1) 0.61966(13)
H13 H 0.56970 0.03060 0.58540
H14 H 0.50620 0.12570 0.58530
H15 H 0.57480 0.07940 0.69070
C22 C 0.71697(19) 0.14357(10) 0.50514(11)
H16 H 0.70400 0.08810 0.46820
H17 H 0.80370 0.16800 0.50330
H18 H 0.64660 0.18450 0.47320
C23 C 0.78399(18) 0.01253(10) 0.92561(11)
H19 H 0.84450 -0.03790 0.94430
H20 H 0.69140 -0.00920 0.90700
C24 C 0.8019(3) 0.07472(13) 1.01230(14)
H21 H 0.78360 0.04480 1.07150
H22 H 0.74030 0.12380 0.99320
H23 H 0.89350 0.09650 1.02920
#END
