
#######################################################################
#
#                 Cambridge Crystallographic Data Centre
#                                CCDC
#
#######################################################################
#
# If this CIF has been generated from an entry in the Cambridge
# Structural Database, then it will include bibliographic, chemical,
# crystal, experimental, refinement or atomic coordinate data resulting
# from the CCDC's data processing and validation procedures.
#
#######################################################################

data_CSD_CIF_EDUHAN01
_audit_creation_date 2011-06-23
_audit_creation_method CSD-ConQuest-V1
_database_code_CSD EDUHAN01
_database_code_depnum_ccdc_archive 'CCDC 827940'
_chemical_formula_sum 'C13 H15 N3 O3'
_chemical_formula_moiety
;
C13 H15 N3 O3
;
_journal_coden_Cambridge 34
_journal_volume 43
_journal_year 2006
_journal_page_first 745
_journal_name_full 'J.Heterocycl.Chem. '
loop_
_publ_author_name
"Jia-Rong Li"
"Shu-Ling Ma"
"Yong-Jiang Sun"
"Xiao-Jie Wei"
"Zhi-Ming Zhou"
_chemical_name_systematic
;
6-Nitrospiro[3,1-benzoxazine-2,1'-cyclohexan]-4(1H)imine
;
_cell_volume   1238.676
_exptl_crystal_colour 'yellow'
_exptl_crystal_density_diffrn 1.401
_diffrn_ambient_temperature 293
#These two values have been output from a single CSD field.
_refine_ls_R_factor_gt 0.0994
_refine_ls_wR_factor_gt 0.0994
_symmetry_cell_setting monoclinic
_symmetry_space_group_name_H-M 'P 21/c'
_symmetry_Int_Tables_number 14
loop_
_symmetry_equiv_pos_site_id
_symmetry_equiv_pos_as_xyz
1 x,y,z
2 -x,1/2+y,1/2-z
3 -x,-y,-z
4 x,-1/2-y,-1/2+z
_cell_length_a 6.6339(13)
_cell_length_b 25.329(5)
_cell_length_c 7.3756(15)
_cell_angle_alpha 90
_cell_angle_beta 91.85(3)
_cell_angle_gamma 90
_cell_formula_units_Z 4
loop_
_atom_type_symbol
_atom_type_radius_bond
C 0.68
N 0.68
O 0.68
loop_
_atom_site_label
_atom_site_type_symbol
_atom_site_fract_x
_atom_site_fract_y
_atom_site_fract_z
O1 O 1.3419(4) 0.2926(1) 0.7971(5)
O2 O 1.4692(5) 0.2179(1) 0.7320(5)
O3 O 0.8663(4) 0.0583(1) 1.0676(5)
N1 N 1.1338(4) 0.0533(1) 0.8921(5)
N2 N 1.3391(4) 0.2446(1) 0.7988(5)
N3 N 0.7074(4) 0.1399(1) 1.1156(5)
C1 C 0.8585(6) 0.0920(1) 1.3743(7)
C2 C 0.7270(9) 0.1155(2) 1.5206(9)
C3 C 0.5412(12) 0.0817(2) 1.5386(11)
C4 C 0.4222(7) 0.0770(2) 1.3579(10)
C5 C 0.5495(5) 0.0569(2) 1.2118(7)
C6 C 0.7469(5) 0.0872(1) 1.1952(6)
C7 C 1.0132(5) 0.0800(1) 0.9759(6)
C8 C 1.0203(5) 0.1382(1) 0.9723(5)
C9 C 1.1760(5) 0.1638(1) 0.8909(5)
C10 C 1.1727(5) 0.2179(1) 0.8806(6)
C11 C 1.0126(5) 0.2469(1) 0.9436(6)
C12 C 0.8571(5) 0.2221(1) 1.0209(6)
C13 C 0.8586(4) 0.1666(1) 1.0394(5)
#END
