
#######################################################################
#
#                 Cambridge Crystallographic Data Centre
#                                CCDC
#
#######################################################################
#
# If this CIF has been generated from an entry in the Cambridge
# Structural Database, then it will include bibliographic, chemical,
# crystal, experimental, refinement or atomic coordinate data resulting
# from the CCDC's data processing and validation procedures.
#
#######################################################################

data_CSD_CIF_EDUSAA
_audit_creation_date 2017-10-16
_audit_creation_method CSD-ConQuest-V1
_database_code_CSD EDUSAA
_database_code_depnum_ccdc_archive 'CCDC 1504049'
_chemical_formula_sum 'C18 H18 N2 O2'
_chemical_formula_moiety
;
C18 H18 N2 O2
;
_journal_coden_Cambridge 324
_journal_volume B33
_journal_year 2016
_journal_page_first E160
_journal_name_full 'J.Opt.Soc.Am. '
loop_
_publ_author_name
"M.Rawal"
"K.E.Garrett"
"L.E.Johnson"
"W.Kaminsky"
"E.Jucov"
"D.P.Shelton"
"T.Timofeeva"
"B.E.Eichinger"
"A.F.Tillack"
"B.H.Robinson"
"D.L.Elder"
"L.R.Dalton"
_chemical_name_systematic
;
N,N-dimethyl-4-[4-(4-nitrophenyl)buta-1,3-dien-1-yl]aniline
;
_cell_volume    739.773
_exptl_crystal_colour 'red'
_exptl_crystal_density_diffrn 1.322
_diffrn_ambient_temperature 100
_refine_special_details
;
The groups represented as dimethylamino and nitro are each mixed 
dimethylamino/nitro groups.
;
#These two values have been output from a single CSD field.
_refine_ls_R_factor_gt 0.0735
_refine_ls_wR_factor_gt 0.0735
_symmetry_cell_setting monoclinic
_symmetry_space_group_name_H-M 'P 21/c'
_symmetry_Int_Tables_number 14
loop_
_symmetry_equiv_pos_site_id
_symmetry_equiv_pos_as_xyz
1 x,y,z
2 -x,1/2+y,1/2-z
3 -x,-y,-z
4 x,-1/2-y,-1/2+z
_cell_length_a 17.065(8)
_cell_length_b 7.198(3)
_cell_length_c 6.092(3)
_cell_angle_alpha 90
_cell_angle_beta 98.66(3)
_cell_angle_gamma 90
_cell_formula_units_Z 2
loop_
_atom_type_symbol
_atom_type_radius_bond
C 0.68
H 0.23
N 0.68
O 0.68
loop_
_atom_site_label
_atom_site_type_symbol
_atom_site_fract_x
_atom_site_fract_y
_atom_site_fract_z
C1 C 0.2957(2) 0.9947(5) 0.1366(6)
C2 C 0.2346(2) 1.0772(5) 0.2259(6)
H1 H 0.24420 1.13140 0.36960
C3 C 0.1601(2) 1.0804(5) 0.1062(6)
H2 H 0.11850 1.13750 0.16930
C4 C 0.1431(2) 1.0027(5) -0.1047(6)
C5 C 0.2052(2) 0.9193(5) -0.1937(6)
H3 H 0.19520 0.86480 -0.33720
C6 C 0.2810(2) 0.9151(5) -0.0758(6)
H4 H 0.32290 0.85850 -0.13820
C7 C 0.0637(2) 1.0269(5) -0.2314(6)
H5 H 0.02540 1.08230 -0.15390
C8 C 0.0386(2) 0.9803(5) -0.4435(6)
H6 H 0.07450 0.91730 -0.52270
C9 C 0.3939(12) 1.099(2) 0.449(3)
H7 H 0.39680 1.23370 0.42480
H8 H 0.44550 1.05440 0.52260
H9 H 0.35350 1.07350 0.54370
N1 N 0.3733(10) 1.0066(12) 0.2393(18)
C10 C 0.4400(8) 0.937(2) 0.145(3)
H10 H 0.42810 0.81180 0.08620
H11 H 0.48670 0.93220 0.26060
H12 H 0.45070 1.01930 0.02520
O1? O 0.3822(10) 1.062(2) 0.446(3)
N2? N 0.3737(10) 0.9813(12) 0.2711(19)
O2? O 0.4228(7) 0.8978(18) 0.188(2)
C1B C -0.2957(2) 1.0053(5) -1.1366(6)
C2B C -0.2346(2) 0.9228(5) -1.2259(6)
H1B H -0.24420 0.86860 -1.36960
C3B C -0.1601(2) 0.9196(5) -1.1062(6)
H2B H -0.11850 0.86250 -1.16930
C4B C -0.1431(2) 0.9973(5) -0.8953(6)
C5B C -0.2052(2) 1.0807(5) -0.8063(6)
H3B H -0.19520 1.13520 -0.66280
C6B C -0.2810(2) 1.0849(5) -0.9242(6)
H4B H -0.32290 1.14150 -0.86180
C7B C -0.0637(2) 0.9731(5) -0.7686(6)
H5B H -0.02540 0.91770 -0.84610
C8B C -0.0386(2) 1.0197(5) -0.5565(6)
H6B H -0.07450 1.08270 -0.47730
C9B C -0.3939(12) 0.901(2) -1.449(3)
H7B H -0.39680 0.76630 -1.42480
H8B H -0.44550 0.94560 -1.52260
H9B H -0.35350 0.92650 -1.54370
N1B N -0.3733(10) 0.9934(12) -1.2393(18)
C10B C -0.4400(8) 1.063(2) -1.145(3)
H10B H -0.42810 1.18820 -1.08620
H11B H -0.48670 1.06780 -1.26060
H12B H -0.45070 0.98070 -1.02520
#END
