
#######################################################################
#
#                 Cambridge Crystallographic Data Centre
#                                CCDC
#
#######################################################################
#
# If this CIF has been generated from an entry in the Cambridge
# Structural Database, then it will include bibliographic, chemical,
# crystal, experimental, refinement or atomic coordinate data resulting
# from the CCDC's data processing and validation procedures.
#
#######################################################################

data_CSD_CIF_EDUYIM
_audit_creation_date 2007-09-06
_audit_creation_method CSD-ConQuest-V1
_database_code_CSD EDUYIM
_database_code_depnum_ccdc_archive 'CCDC 655024'
_chemical_formula_sum 'C40 H35 N7 O4'
_chemical_formula_moiety
;
C40 H35 N7 O4
;
_journal_coeditor_code "IUCr FB2049"
_journal_coden_Cambridge 1370
_journal_volume 63
_journal_year 2007
_journal_page_first o3301
_journal_name_full 'Acta Crystallogr.,Sect.E:Struct.Rep.Online '
loop_
_publ_author_name
"A.Boudina"
"A.Baouid"
"A.Hasnaoui"
"D.Eddike"
"M.Tillard"
_chemical_name_systematic
;
rac-Ethyl 
trans-(8aR*,9aS*)-8a-methyl-8-(4-nitrophenyl)-9a,10-diphenyl-12-(p-tolyl)-8a,9
,9a,10-tetrahydro-8H-bis(1,2,4)triazolo(4,3-a:3',4'-d)(1,5)benzodiazepine-6-ca
rboxylate
;
_chemical_melting_point 479
_cell_volume   3511.182
_exptl_crystal_colour 'orange'
_exptl_crystal_density_diffrn 1.282
_exptl_special_details
;
Melting point range 479-481K

;
_exptl_crystal_description 'parallelepiped'
_exptl_crystal_preparation 'ethanol'
_diffrn_ambient_temperature 293
#These two values have been output from a single CSD field.
_refine_ls_R_factor_gt 0.0773
_refine_ls_wR_factor_gt 0.0773
_symmetry_cell_setting monoclinic
_symmetry_space_group_name_H-M 'P 21/c'
_symmetry_Int_Tables_number 14
loop_
_symmetry_equiv_pos_site_id
_symmetry_equiv_pos_as_xyz
1 x,y,z
2 -x,1/2+y,1/2-z
3 -x,-y,-z
4 x,-1/2-y,-1/2+z
_cell_length_a 9.4951(6)
_cell_length_b 21.436(1)
_cell_length_c 18.885(1)
_cell_angle_alpha 90
_cell_angle_beta 114.011(5)
_cell_angle_gamma 90
_cell_formula_units_Z 4
loop_
_atom_type_symbol
_atom_type_radius_bond
C 0.68
H 0.23
N 0.68
O 0.68
loop_
_atom_site_label
_atom_site_type_symbol
_atom_site_fract_x
_atom_site_fract_y
_atom_site_fract_z
N1 N 0.8798(3) 0.64005(11) 0.73679(13)
N2 N 0.9424(3) 0.73291(11) 0.70030(13)
N3 N 0.6017(3) 0.59766(11) 0.52064(13)
O1 O 0.7815(3) 0.43645(12) 0.63243(16)
C1 C 0.5837(3) 0.61582(14) 0.44793(16)
C2 C 0.8549(3) 0.67390(12) 0.66433(15)
N4 N 1.0667(3) 0.71352(12) 0.76823(14)
N5 N 0.6045(3) 0.58458(12) 0.63816(14)
C3 C 1.0256(3) 0.66285(14) 0.79014(16)
C4 C 0.6868(3) 0.68968(13) 0.61452(16)
H1 H 0.68400 0.71570 0.57200
H2 H 0.64820 0.71460 0.64570
C5 C 1.0136(3) 0.58390(14) 0.64662(19)
H3 H 1.02190 0.56760 0.69380
C6 C 0.6678(3) 0.53484(14) 0.61605(17)
C7 C 0.5740(3) 0.63483(14) 0.57988(16)
C8 C 0.7580(3) 0.63447(14) 0.76182(16)
N6 N 0.6638(3) 0.53876(11) 0.54741(14)
N7 N 0.5507(4) 0.6741(2) 0.22816(19)
C9 C 0.5580(4) 0.65315(18) 0.30281(18)
C10 C 0.7694(4) 0.65645(16) 0.83336(18)
H4 H 0.85770 0.67750 0.86600
C11 C 0.9337(3) 0.63911(13) 0.61937(16)
O2 O 0.5059(4) 0.72786(19) 0.20691(18)
C12 C 0.9795(4) 0.77661(14) 0.65434(17)
C13 C 0.5323(4) 0.67613(15) 0.41974(18)
H5 H 0.50650 0.70400 0.45030
C14 C 0.6053(4) 0.59292(18) 0.32795(19)
H6 H 0.62820 0.56520 0.29620
C15 C 1.1210(4) 0.77877(17) 0.65089(19)
H7 H 1.19900 0.75180 0.68120
O3 O 0.5892(4) 0.6378(2) 0.18951(18)
C16 C 0.5198(4) 0.69428(17) 0.34791(19)
H8 H 0.48560 0.73420 0.32980
C17 C 0.7398(4) 0.48117(16) 0.6684(2)
C18 C 1.1213(3) 0.62815(15) 0.85988(17)
C19 C 1.0725(4) 0.57616(19) 0.5349(2)
H9 H 1.11720 0.55480 0.50640
C20 C 0.6181(3) 0.57443(16) 0.39974(18)
H10 H 0.64990 0.53400 0.41670
C21 C 1.0849(5) 0.56743(16) 0.8711(2)
H11 H 0.99820 0.54840 0.83410
C22 C 0.4078(3) 0.65696(18) 0.5526(2)
H12 H 0.39590 0.69600 0.52590
H13 H 0.38250 0.66220 0.59660
H14 H 0.34010 0.62650 0.51810
O4 O 0.7576(4) 0.48085(13) 0.73454(16)
C23 C 0.9279(3) 0.66300(15) 0.54979(17)
H15 H 0.87720 0.70050 0.53100
C24 C 0.5049(4) 0.59495(19) 0.7373(2)
H16 H 0.41510 0.57490 0.70450
C25 C 0.8927(6) 0.85982(17) 0.5618(2)
H17 H 0.81590 0.88740 0.53180
C26 C 0.8653(4) 0.81866(15) 0.61064(19)
H18 H 0.77070 0.81890 0.61450
C27 C 0.9968(4) 0.63152(18) 0.5080(2)
H19 H 0.99160 0.64800 0.46140
C28 C 0.6489(5) 0.6469(2) 0.8558(2)
H20 H 0.65710 0.66160 0.90370
C29 C 1.0814(4) 0.55270(17) 0.6039(2)
H21 H 1.13350 0.51540 0.62250
C30 C 1.3423(4) 0.6215(2) 0.9816(2)
H22 H 1.43010 0.64010 1.01840
C31 C 1.2516(4) 0.65532(18) 0.91650(19)
H23 H 1.27770 0.69620 0.91060
C32 C 0.6243(3) 0.60306(14) 0.71428(17)
C33 C 0.5176(5) 0.6162(2) 0.8082(2)
H24 H 0.43770 0.60980 0.82390
C34 C 1.1766(6) 0.53514(19) 0.9369(2)
H25 H 1.15020 0.49440 0.94350
C35 C 1.3065(6) 0.5615(2) 0.9933(2)
C36 C 1.1476(5) 0.8209(2) 0.6026(2)
H26 H 1.24390 0.82250 0.60080
C37 C 1.0267(6) 0.3910(3) 0.7055(3)
H27 H 1.07710 0.35160 0.72310
H28 H 1.06290 0.42050 0.74730
H29 H 1.04940 0.40600 0.66340
C38 C 1.0331(6) 0.8603(2) 0.5573(3)
H30 H 1.05060 0.88750 0.52330
C39 C 0.8648(5) 0.3833(2) 0.6798(3)
H31 H 0.83910 0.37940 0.72440
H32 H 0.83300 0.34520 0.64960
C40 C 1.4031(8) 0.5261(3) 1.0664(3)
H33 H 1.40970 0.48310 1.05390
H34 H 1.35610 0.52890 1.10270
H35 H 1.50470 0.54370 1.08900
#END
