
#######################################################################
#
#                 Cambridge Crystallographic Data Centre
#                                CCDC
#
#######################################################################
#
# If this CIF has been generated from an entry in the Cambridge
# Structural Database, then it will include bibliographic, chemical,
# crystal, experimental, refinement or atomic coordinate data resulting
# from the CCDC's data processing and validation procedures.
#
#######################################################################

data_CSD_CIF_EFADOG
_audit_creation_date 2013-01-17
_audit_creation_method CSD-ConQuest-V1
_database_code_CSD EFADOG
_database_code_depnum_ccdc_archive 'CCDC 914277'
_chemical_formula_sum 'C30 H22 N2 O6'
_chemical_formula_moiety
;
C30 H22 N2 O6
;
_journal_coeditor_code "IUCr FJ2603"
_journal_coden_Cambridge 1370
_journal_volume 68
_journal_year 2012
_journal_page_first o3272
_journal_name_full 'Acta Crystallogr.,Sect.E:Struct.Rep.Online '
loop_
_publ_author_name
"P.S.Nayak"
"B.Narayana"
"H.S.Yathirajan"
"T.Gerber"
"E.Hosten"
"R.Betz"
_chemical_name_systematic
;
(2,4-bis(3-nitrophenyl)cyclobutane-1,3-diyl)bis(phenylmethanone)
;
_cell_volume   1186.862
_exptl_crystal_colour 'colorless'
_exptl_crystal_density_diffrn 1.417
_exptl_crystal_description 'block'
_diffrn_ambient_temperature 200
#These two values have been output from a single CSD field.
_refine_ls_R_factor_gt 0.0399
_refine_ls_wR_factor_gt 0.0399
_symmetry_cell_setting monoclinic
_symmetry_space_group_name_H-M 'P 21/c'
_symmetry_Int_Tables_number 14
loop_
_symmetry_equiv_pos_site_id
_symmetry_equiv_pos_as_xyz
1 x,y,z
2 -x,1/2+y,1/2-z
3 -x,-y,-z
4 x,-1/2-y,-1/2+z
_cell_length_a 5.7850(1)
_cell_length_b 14.7824(3)
_cell_length_c 14.3589(3)
_cell_angle_alpha 90
_cell_angle_beta 104.858(1)
_cell_angle_gamma 90
_cell_formula_units_Z 2
loop_
_atom_type_symbol
_atom_type_radius_bond
C 0.68
H 0.23
N 0.68
O 0.68
loop_
_atom_site_label
_atom_site_type_symbol
_atom_site_fract_x
_atom_site_fract_y
_atom_site_fract_z
O1 O 0.02716(16) 0.08341(7) 0.41101(7)
O2 O 0.4112(3) 0.11125(12) 0.89447(9)
O3 O 0.6594(3) 0.21980(8) 0.94461(8)
N1 N 0.5674(2) 0.16321(9) 0.88471(8)
C1 C 0.2098(2) 0.07918(8) 0.38436(8)
C2 C 0.4494(2) 0.05901(8) 0.45303(8)
H1 H 0.56840 0.10740 0.45060
C3 C 0.44539(19) 0.03813(8) 0.55776(8)
H2 H 0.27670 0.03310 0.56290
C4 C 0.2032(2) 0.09061(8) 0.28021(8)
C5 C 0.3971(2) 0.12395(9) 0.24994(9)
H3 H 0.54140 0.13910 0.29600
C6 C 0.3792(2) 0.13495(10) 0.15237(9)
H4 H 0.50960 0.15960 0.13180
C7 C 0.1718(3) 0.11009(11) 0.08487(10)
H5 H 0.16070 0.11730 0.01810
C8 C -0.0192(2) 0.07487(10) 0.11440(9)
H6 H -0.15990 0.05650 0.06800
C9 C -0.0049(2) 0.06645(9) 0.21178(9)
H7 H -0.13810 0.04400 0.23200
C10 C 0.5883(2) 0.09762(8) 0.63665(8)
C11 C 0.5151(2) 0.10549(8) 0.72138(8)
H8 H 0.37360 0.07620 0.72750
C12 C 0.6502(2) 0.15632(8) 0.79654(9)
C13 C 0.8559(2) 0.20118(9) 0.79156(9)
H9 H 0.94470 0.23620 0.84410
C14 C 0.9279(2) 0.19330(9) 0.70728(10)
H10 H 1.06840 0.22350 0.70150
C15 C 0.7973(2) 0.14165(8) 0.63095(9)
H11 H 0.85120 0.13630 0.57400
O1B O 0.97284(16) -0.08341(7) 0.58899(7)
O2B O 0.5888(3) -0.11125(12) 0.10553(9)
O3B O 0.3406(3) -0.21980(8) 0.05539(8)
N1B N 0.4326(2) -0.16321(9) 0.11529(8)
C1B C 0.7902(2) -0.07918(8) 0.61564(8)
C2B C 0.5506(2) -0.05901(8) 0.54697(8)
H1B H 0.43160 -0.10740 0.54940
C3B C 0.55461(19) -0.03813(8) 0.44224(8)
H2B H 0.72330 -0.03310 0.43710
C4B C 0.7968(2) -0.09061(8) 0.71979(8)
C5B C 0.6029(2) -0.12395(9) 0.75006(9)
H3B H 0.45860 -0.13910 0.70400
C6B C 0.6208(2) -0.13495(10) 0.84763(9)
H4B H 0.49040 -0.15960 0.86820
C7B C 0.8282(3) -0.11009(11) 0.91513(10)
H5B H 0.83930 -0.11730 0.98190
C8B C 1.0192(2) -0.07487(10) 0.88560(9)
H6B H 1.15990 -0.05650 0.93200
C9B C 1.0049(2) -0.06645(9) 0.78822(9)
H7B H 1.13810 -0.04400 0.76800
C10B C 0.4117(2) -0.09762(8) 0.36335(8)
C11B C 0.4849(2) -0.10549(8) 0.27862(8)
H8B H 0.62640 -0.07620 0.27250
C12B C 0.3498(2) -0.15632(8) 0.20346(9)
C13B C 0.1441(2) -0.20118(9) 0.20844(9)
H9B H 0.05530 -0.23620 0.15590
C14B C 0.0721(2) -0.19330(9) 0.29272(10)
H10B H -0.06840 -0.22350 0.29850
C15B C 0.2027(2) -0.14165(8) 0.36905(9)
H11B H 0.14880 -0.13630 0.42600
#END
