
#######################################################################
#
#                 Cambridge Crystallographic Data Centre
#                                CCDC
#
#######################################################################
#
# If this CIF has been generated from an entry in the Cambridge
# Structural Database, then it will include bibliographic, chemical,
# crystal, experimental, refinement or atomic coordinate data resulting
# from the CCDC's data processing and validation procedures.
#
#######################################################################

data_CSD_CIF_EFAKAX
_audit_creation_date 2002-04-09
_audit_creation_method CSD-ConQuest-V1
_database_code_CSD EFAKAX
_database_code_depnum_ccdc_archive 'CCDC 171363'
_chemical_formula_sum 'C21 H27 N1 O9'
_chemical_formula_moiety
;
C21 H27 N1 O9
;
_journal_coden_Cambridge 179
_journal_volume 40
_journal_year 2001
_journal_page_first 4763
_journal_name_full 'Angew.Chem.,Int.Ed. '
loop_
_publ_author_name
"D.J.Dixon"
"S.V.Ley"
"F.Rodriguez"
_chemical_name_systematic
;
3-(3-(2-Nitro-1-(phenyl)ethyl)-2-oxo-tetrahydro-2H-pyran-4-yl)-5,6-dimethoxy-5
,6-dimethyl-1,4-dioxan-2-one
;
_cell_volume   1057.522
_exptl_crystal_colour 'colorless'
_exptl_crystal_density_diffrn 1.374
_exptl_crystal_description 'needle'
_diffrn_ambient_temperature 180
#These two values have been output from a single CSD field.
_refine_ls_R_factor_gt 0.0694
_refine_ls_wR_factor_gt 0.0694
_symmetry_cell_setting monoclinic
_symmetry_space_group_name_H-M 'P 21'
_symmetry_Int_Tables_number 4
loop_
_symmetry_equiv_pos_site_id
_symmetry_equiv_pos_as_xyz
1 x,y,z
2 -x,1/2+y,-z
_cell_length_a 6.4142(4)
_cell_length_b 13.0225(13)
_cell_length_c 12.6626(12)
_cell_angle_alpha 90
_cell_angle_beta 91.031(5)
_cell_angle_gamma 90
_cell_formula_units_Z 2
loop_
_atom_type_symbol
_atom_type_radius_bond
C 0.68
H 0.23
N 0.68
O 0.68
loop_
_atom_site_label
_atom_site_type_symbol
_atom_site_fract_x
_atom_site_fract_y
_atom_site_fract_z
O1 O -0.0379(6) 0.1733(3) 0.0572(3)
O2 O 0.0723(6) 0.2485(3) 0.2029(3)
O3 O 0.1655(5) 0.4287(3) 0.0915(2)
O4 O -0.1287(5) 0.4297(3) 0.1949(3)
O5 O 0.3785(5) 0.3367(3) 0.2428(3)
O6 O 0.5741(7) 0.5272(3) -0.1432(3)
O7 O 0.6542(6) 0.3656(3) -0.1249(3)
O8 O -0.1091(7) 0.4871(4) -0.3921(4)
O9 O 0.1441(7) 0.5719(5) -0.4525(4)
N1 N 0.0596(7) 0.5282(4) -0.3815(3)
C1 C 0.0350(7) 0.2492(4) 0.0985(4)
C2 C 0.0813(7) 0.3441(4) 0.0327(3)
H1 H -0.05280 0.36720 -0.00090
C3 C 0.0900(7) 0.4357(4) 0.1954(4)
C4 C 0.1646(8) 0.3399(4) 0.2550(4)
C5 C 0.1784(9) 0.5336(4) 0.2425(4)
H2 H 0.33100 0.53160 0.24010
H3 H 0.13490 0.53980 0.31600
H4 H 0.12660 0.59270 0.20190
C6 C 0.0947(9) 0.3336(5) 0.3692(4)
H5 H -0.05790 0.33710 0.37120
H6 H 0.15450 0.39110 0.40940
H7 H 0.14230 0.26870 0.40030
C7 C -0.2358(9) 0.5115(5) 0.1386(5)
H8 H -0.38680 0.50080 0.14230
H9 H -0.19390 0.51130 0.06460
H10 H -0.19940 0.57760 0.17090
C8 C 0.4880(9) 0.2532(6) 0.2891(5)
H11 H 0.63690 0.25970 0.27450
H12 H 0.43500 0.18860 0.25920
H13 H 0.46770 0.25340 0.36560
C9 C 0.2315(8) 0.3183(4) -0.0557(4)
H14 H 0.15880 0.26930 -0.10470
C10 C 0.2825(8) 0.4167(4) -0.1199(4)
H15 H 0.21970 0.47530 -0.08060
C11 C 0.5122(8) 0.4417(5) -0.1297(4)
C12 C 0.4298(8) 0.2651(4) -0.0134(4)
H16 H 0.48830 0.30360 0.04760
H17 H 0.39680 0.19450 0.01010
C13 C 0.5851(8) 0.2618(4) -0.1011(4)
H18 H 0.70630 0.21920 -0.07950
H19 H 0.52000 0.23060 -0.16490
C14 C 0.1721(8) 0.4155(4) -0.2318(4)
H20 H 0.02380 0.39460 -0.22130
C15 C 0.1694(9) 0.5250(4) -0.2761(4)
H21 H 0.09760 0.57110 -0.22630
H22 H 0.31430 0.54990 -0.28340
C16 C 0.2671(7) 0.3382(4) -0.3071(4)
C17 C 0.1657(8) 0.2471(4) -0.3288(4)
H23 H 0.03000 0.23600 -0.30220
C18 C 0.2592(10) 0.1716(5) -0.3888(4)
H24 H 0.18720 0.10910 -0.40260
C19 C 0.4547(10) 0.1861(5) -0.4286(4)
H25 H 0.51970 0.13370 -0.46860
C20 C 0.5555(9) 0.2785(5) -0.4096(4)
H26 H 0.69070 0.28920 -0.43690
C21 C 0.4633(8) 0.3550(4) -0.3518(4)
H27 H 0.53210 0.41900 -0.34200
#END
