
#######################################################################
#
#                 Cambridge Crystallographic Data Centre
#                                CCDC
#
#######################################################################
#
# If this CIF has been generated from an entry in the Cambridge
# Structural Database, then it will include bibliographic, chemical,
# crystal, experimental, refinement or atomic coordinate data resulting
# from the CCDC's data processing and validation procedures.
#
#######################################################################

data_CSD_CIF_EFATOW
_audit_creation_date 2013-01-14
_audit_creation_method CSD-ConQuest-V1
_database_code_CSD EFATOW
_database_code_depnum_ccdc_archive 'CCDC 914341'
_chemical_formula_sum 'C10 H9 N3 O2'
_chemical_formula_moiety
;
C10 H9 N3 O2
;
_journal_coeditor_code "IUCr PK2452"
_journal_coden_Cambridge 1370
_journal_volume 68
_journal_year 2012
_journal_page_first o3368
_journal_name_full 'Acta Crystallogr.,Sect.E:Struct.Rep.Online '
loop_
_publ_author_name
"N.El Brahmi"
"M.Benchidmi"
"E.M.Essassi"
"S.Ladeira"
"L.El Ammari"
_chemical_name_systematic
;
1-Allyl-6-nitro-1H-indazole
;
_cell_volume    478.465
_exptl_crystal_colour 'yellow'
_exptl_crystal_density_diffrn 1.41
_exptl_crystal_description 'block'
_diffrn_ambient_temperature 296
#These two values have been output from a single CSD field.
_refine_ls_R_factor_gt 0.0343
_refine_ls_wR_factor_gt 0.0343
_symmetry_cell_setting triclinic
_symmetry_space_group_name_H-M 'P -1'
_symmetry_Int_Tables_number 2
loop_
_symmetry_equiv_pos_site_id
_symmetry_equiv_pos_as_xyz
1 x,y,z
2 -x,-y,-z
_cell_length_a 4.3630(16)
_cell_length_b 8.3245(7)
_cell_length_c 13.541(5)
_cell_angle_alpha 95.647(2)
_cell_angle_beta 98.46(2)
_cell_angle_gamma 97.770(2)
_cell_formula_units_Z 2
loop_
_atom_type_symbol
_atom_type_radius_bond
C 0.68
H 0.23
N 0.68
O 0.68
loop_
_atom_site_label
_atom_site_type_symbol
_atom_site_fract_x
_atom_site_fract_y
_atom_site_fract_z
C1 C 0.5250(3) 0.28071(13) 0.07294(8)
C2 C 0.7333(3) 0.42576(14) 0.10756(9)
H1 H 0.84930 0.47670 0.06390
C3 C 0.7649(3) 0.49196(14) 0.20582(9)
H2 H 0.90010 0.58870 0.22970
C4 C 0.5890(3) 0.41073(13) 0.26971(9)
C5 C 0.3813(3) 0.26597(13) 0.23161(8)
C6 C 0.3433(3) 0.19722(13) 0.13128(8)
H3 H 0.20530 0.10200 0.10610
C7 C 0.5573(3) 0.43449(15) 0.37259(9)
H4 H 0.66690 0.52140 0.41820
C8 C 0.0238(3) 0.06785(15) 0.31003(9)
H5 H -0.10830 0.04160 0.24470
H6 H -0.11040 0.08820 0.35950
C9 C 0.1822(3) -0.07536(15) 0.33350(11)
H7 H 0.32880 -0.10400 0.29420
C10 C 0.1274(4) -0.16305(18) 0.40592(12)
H8 H 0.23690 -0.25550 0.41670
H9 H -0.02960 -0.13440 0.44880
N1 N 0.5029(2) 0.21201(12) -0.03272(7)
N2 N 0.2434(2) 0.21521(11) 0.30948(7)
N3 N 0.3528(3) 0.31791(12) 0.39570(7)
O1 O 0.2915(2) 0.09935(12) -0.06728(7)
O2 O 0.6971(3) 0.26879(12) -0.08121(7)
#END
