
#######################################################################
#
#                 Cambridge Crystallographic Data Centre
#                                CCDC
#
#######################################################################
#
# If this CIF has been generated from an entry in the Cambridge
# Structural Database, then it will include bibliographic, chemical,
# crystal, experimental, refinement or atomic coordinate data resulting
# from the CCDC's data processing and validation procedures.
#
#######################################################################

data_CSD_CIF_EFIFUV
_audit_creation_date 2008-11-20
_audit_creation_method CSD-ConQuest-V1
_database_code_CSD EFIFUV
_database_code_depnum_ccdc_archive 'CCDC 680920'
_chemical_formula_sum 'C19 H18 N2 O3'
_chemical_formula_moiety
;
C19 H18 N2 O3
;
_journal_coden_Cambridge 154
_journal_volume 61
_journal_year 2008
_journal_page_first 432
_journal_name_full 'Aust.J.Chem. '
loop_
_publ_author_name
"R.Newton"
"G.P.Savage"
_chemical_name_systematic
;
(5S*,9S*)-9-Ethyl-3,6-diphenyl-1,8-dioxa-2,6-diazaspiro(4.4)non-2-en-7-one
;
_chemical_melting_point 432.75
_cell_volume   1599.470
_exptl_crystal_colour 'colorless'
_exptl_crystal_density_diffrn 1.339
_exptl_special_details
;
Melting point range 432.75-434.45K

;
_exptl_crystal_description 'prism'
_exptl_crystal_preparation 'ethanol'
_diffrn_ambient_temperature 123
#These two values have been output from a single CSD field.
_refine_ls_R_factor_gt 0.0661
_refine_ls_wR_factor_gt 0.0661
_symmetry_cell_setting monoclinic
_symmetry_space_group_name_H-M 'P 21/c'
_symmetry_Int_Tables_number 14
loop_
_symmetry_equiv_pos_site_id
_symmetry_equiv_pos_as_xyz
1 x,y,z
2 -x,1/2+y,1/2-z
3 -x,-y,-z
4 x,-1/2-y,-1/2+z
_cell_length_a 12.2721(8)
_cell_length_b 16.3999(9)
_cell_length_c 8.2479(5)
_cell_angle_alpha 90
_cell_angle_beta 105.518(2)
_cell_angle_gamma 90
_cell_formula_units_Z 4
loop_
_atom_type_symbol
_atom_type_radius_bond
C 0.68
H 0.23
N 0.68
O 0.68
loop_
_atom_site_label
_atom_site_type_symbol
_atom_site_fract_x
_atom_site_fract_y
_atom_site_fract_z
O1 O 0.97422(14) 0.14827(10) 0.5985(2)
O2 O 1.00977(14) 0.07619(10) 0.3864(2)
O3 O 0.75014(13) 0.23250(9) 0.4209(2)
N1 N 0.82740(15) 0.10094(11) 0.4017(2)
N2 N 0.63172(16) 0.24362(11) 0.3665(2)
C1 C 0.9426(2) 0.10485(14) 0.4532(3)
C2 C 0.8754(2) 0.16408(15) 0.6598(3)
C3 C 0.77632(19) 0.15263(13) 0.5023(3)
C4 C 0.6631(2) 0.12368(14) 0.5232(3)
C5 C 0.58302(19) 0.18425(13) 0.4201(3)
C6 C 0.76730(18) 0.05927(13) 0.2509(3)
C7 C 0.7889(2) -0.02256(14) 0.2338(3)
C8 C 0.7285(2) -0.06352(16) 0.0914(3)
C9 C 0.6459(2) -0.02401(16) -0.0310(3)
C10 C 0.6261(2) 0.05823(16) -0.0130(3)
C11 C 0.6878(2) 0.10038(14) 0.1277(3)
C12 C 0.8771(2) 0.10688(16) 0.8042(3)
C13 C 0.9794(2) 0.1217(2) 0.9536(3)
C14 C 0.45990(19) 0.17891(13) 0.3815(3)
C15 C 0.3907(2) 0.23376(15) 0.2705(3)
C16 C 0.2752(2) 0.22803(16) 0.2339(3)
C17 C 0.2246(2) 0.16715(15) 0.3055(3)
C18 C 0.2920(2) 0.11215(14) 0.4150(3)
C19 C 0.4086(2) 0.11772(14) 0.4532(3)
H1 H 0.882(2) 0.2215(16) 0.701(3)
H2 H 0.876(2) 0.0482(16) 0.761(3)
H3 H 0.803(2) 0.1166(17) 0.840(3)
H4 H 1.057(3) 0.1087(19) 0.928(4)
H5 H 0.985(3) 0.181(2) 0.988(4)
H6 H 0.976(3) 0.084(2) 1.051(4)
H7 H 0.645(2) 0.0665(16) 0.481(3)
H8 H 0.661(2) 0.1265(17) 0.643(4)
H9 H 0.850(2) -0.0496(15) 0.322(3)
H10 H 0.742(2) -0.1205(18) 0.076(3)
H11 H 0.602(2) -0.0518(16) -0.126(3)
H12 H 0.569(2) 0.0869(16) -0.099(3)
H13 H 0.674(2) 0.1580(16) 0.142(3)
H14 H 0.429(2) 0.2759(15) 0.222(3)
H15 H 0.227(2) 0.2688(15) 0.158(3)
H16 H 0.140(2) 0.1615(17) 0.277(3)
H17 H 0.254(2) 0.0695(16) 0.462(3)
H18 H 0.455(2) 0.0797(15) 0.529(3)
#END
