
#######################################################################
#
#                 Cambridge Crystallographic Data Centre
#                                CCDC
#
#######################################################################
#
# If this CIF has been generated from an entry in the Cambridge
# Structural Database, then it will include bibliographic, chemical,
# crystal, experimental, refinement or atomic coordinate data resulting
# from the CCDC's data processing and validation procedures.
#
#######################################################################

data_CSD_CIF_EFIFOP
_audit_creation_date 2008-11-20
_audit_creation_method CSD-ConQuest-V1
_database_code_CSD EFIFOP
_database_code_depnum_ccdc_archive 'CCDC 682493'
_chemical_formula_sum 'C40 H37 N5 O11'
_chemical_formula_moiety
;
C40 H37 N5 O11
;
_journal_coden_Cambridge 24
_journal_volume 49
_journal_year 2008
_journal_page_first 4430
_journal_name_full 'Tetrahedron Lett. '
loop_
_publ_author_name
"M.Akazome"
"Y.Ishii"
"T.Nireki"
"K.Ogura"
_chemical_name_systematic
;
(M,R)-N-(2-((2-((2-((2-Methoxyphenylcarbamoyl)methoxy)phenylcarbamoyl)methoxy)
-phenylcarbamoyl)methoxy)phenyl)-2-(2-nitrophenoxy)propionamide
;
_cell_volume   3607.886
_exptl_crystal_colour 'colorless'
_exptl_crystal_density_diffrn 1.406
_exptl_special_details
;
2!1$-helical conformation

;
_exptl_crystal_description 'plate'
_exptl_crystal_preparation 'hexane/ethyl acetate'
_diffrn_ambient_temperature 173
#These two values have been output from a single CSD field.
_refine_ls_R_factor_gt 0.0495
_refine_ls_wR_factor_gt 0.0495
_symmetry_cell_setting orthorhombic
_symmetry_space_group_name_H-M 'P 21 21 21'
_symmetry_Int_Tables_number 19
loop_
_symmetry_equiv_pos_site_id
_symmetry_equiv_pos_as_xyz
1 x,y,z
2 1/2-x,-y,1/2+z
3 -x,1/2+y,1/2-z
4 1/2+x,1/2-y,-z
_cell_length_a 9.7196(8)
_cell_length_b 13.5602(11)
_cell_length_c 27.374(2)
_cell_angle_alpha 90
_cell_angle_beta 90
_cell_angle_gamma 90
_cell_formula_units_Z 4
loop_
_atom_type_symbol
_atom_type_radius_bond
C 0.68
H 0.23
N 0.68
O 0.68
loop_
_atom_site_label
_atom_site_type_symbol
_atom_site_fract_x
_atom_site_fract_y
_atom_site_fract_z
C1 C 1.0086(3) 0.9507(2) 0.19131(11)
C2 C 1.1183(3) 0.9106(2) 0.16541(12)
H1 H 1.14430 0.84380 0.17050
C3 C 1.1894(3) 0.9684(2) 0.13227(12)
H2 H 1.26420 0.94180 0.11420
C4 C 1.1501(3) 1.0650(2) 0.12589(12)
H3 H 1.19690 1.10440 0.10250
C5 C 1.0437(3) 1.1062(2) 0.15287(12)
H4 H 1.01990 1.17360 0.14830
C6 C 0.9721(3) 1.0495(2) 0.18650(12)
C7 C 0.8017(3) 1.1735(2) 0.20245(11)
H5 H 0.86970 1.22800 0.19770
C8 C 0.7199(3) 1.1586(2) 0.15615(11)
C9 C 0.6024(3) 1.02944(19) 0.10769(11)
C10 C 0.4999(3) 1.0818(2) 0.08443(12)
H6 H 0.47420 1.14510 0.09620
C11 C 0.4342(3) 1.0423(2) 0.04372(11)
H7 H 0.36480 1.07890 0.02740
C12 C 0.4700(3) 0.9495(2) 0.02710(12)
H8 H 0.42440 0.92240 -0.00050
C13 C 0.5724(3) 0.8957(2) 0.05053(11)
H9 H 0.59760 0.83220 0.03890
C14 C 0.6371(3) 0.93553(19) 0.09089(11)
C15 C 0.8041(3) 0.80452(19) 0.09760(11)
H10 H 0.73180 0.75930 0.08540
H11 H 0.85450 0.76990 0.12390
C16 C 0.9035(3) 0.82620(19) 0.05618(12)
C17 C 1.0141(3) 0.9654(2) 0.01234(11)
C18 C 1.1171(3) 0.9176(2) -0.01349(12)
H12 H 1.14180 0.85180 -0.00540
C19 C 1.1843(3) 0.9663(2) -0.05139(12)
H13 H 1.25440 0.93330 -0.06920
C20 C 1.1501(3) 1.0617(2) -0.06318(12)
H14 H 1.19550 1.09400 -0.08940
C21 C 1.0486(3) 1.1110(2) -0.03669(12)
H15 H 1.02530 1.17710 -0.04460
C22 C 0.9825(3) 1.0636(2) 0.00087(11)
C23 C 0.8146(4) 1.1913(2) 0.01298(12)
H16 H 0.88580 1.24110 0.00530
H17 H 0.75630 1.21820 0.03950
C24 C 0.7261(3) 1.1747(2) -0.03200(13)
C25 C 0.6138(3) 1.0415(2) -0.07923(12)
C26 C 0.5193(3) 1.0946(3) -0.10698(14)
H18 H 0.50080 1.16160 -0.09920
C27 C 0.4522(4) 1.0502(3) -0.14591(15)
H19 H 0.38710 1.08670 -0.16440
C28 C 0.4795(4) 0.9536(3) -0.15782(14)
H20 H 0.43460 0.92390 -0.18490
C29 C 0.5732(3) 0.8990(3) -0.13004(13)
H21 H 0.59220 0.83220 -0.13810
C30 C 0.6374(3) 0.9426(2) -0.09105(12)
C31 C 0.7745(3) 0.7988(2) -0.07268(11)
H22 H 0.69220 0.75820 -0.07980
H23 H 0.82150 0.76920 -0.04410
C32 C 0.8709(3) 0.7947(2) -0.11638(12)
C33 C 1.0158(3) 0.9020(2) -0.16693(12)
C34 C 1.1016(4) 0.8354(3) -0.18963(14)
H24 H 1.11380 0.77140 -0.17620
C35 C 1.1697(4) 0.8618(3) -0.23190(16)
H25 H 1.22860 0.81620 -0.24800
C36 C 1.1509(5) 0.9551(4) -0.25032(16)
H26 H 1.19680 0.97300 -0.27960
C37 C 1.0669(5) 1.0242(3) -0.22748(16)
H27 H 1.05590 1.08860 -0.24070
C38 C 0.9997(4) 0.9968(3) -0.18495(13)
C39 C 0.8936(5) 1.1551(3) -0.17262(16)
H28 H 0.98150 1.19010 -0.17020
H29 H 0.82600 1.18650 -0.15110
H30 H 0.86040 1.15770 -0.20640
C40 C 0.7079(4) 1.1978(2) 0.24513(12)
H31 H 0.64100 1.14440 0.24950
H32 H 0.65910 1.25960 0.23850
H33 H 0.76290 1.20490 0.27490
N1 N 0.9292(3) 0.88385(19) 0.2224(1)
N2 N 0.6739(2) 1.06527(16) 0.14931(9)
H34 H 0.68980 1.02280 0.17290
N3 N 0.9375(2) 0.92206(16) 0.05046(9)
H35 H 0.90820 0.96250 0.07340
N4 N 0.6868(3) 1.08071(17) -0.03941(10)
H36 H 0.70970 1.03850 -0.01640
N5 N 0.9382(3) 0.88002(19) -0.12481(10)
H37 H 0.93330 0.92580 -0.10210
O1 O 0.8042(3) 0.89697(17) 0.22590(9)
O2 O 0.9867(3) 0.81410(19) 0.24071(12)
O3 O 0.8725(2) 1.08466(14) 0.21672(8)
O4 O 0.6947(2) 1.22765(14) 0.12867(8)
O5 O 0.7400(2) 0.88951(13) 0.11764(7)
O6 O 0.9492(2) 0.75804(14) 0.03193(8)
O7 O 0.8805(2) 1.10364(13) 0.03000(8)
O8 O 0.6918(3) 1.24422(16) -0.05744(10)
O9 O 0.7313(2) 0.89609(14) -0.06033(8)
O10 O 0.8852(3) 0.71881(16) -0.13933(9)
O11 O 0.9120(3) 1.05508(16) -0.15841(10)
#END
