
#######################################################################
#
#                 Cambridge Crystallographic Data Centre
#                                CCDC
#
#######################################################################
#
# If this CIF has been generated from an entry in the Cambridge
# Structural Database, then it will include bibliographic, chemical,
# crystal, experimental, refinement or atomic coordinate data resulting
# from the CCDC's data processing and validation procedures.
#
#######################################################################

data_CSD_CIF_EFIGAC
_audit_creation_date 2008-11-20
_audit_creation_method CSD-ConQuest-V1
_database_code_CSD EFIGAC
_database_code_depnum_ccdc_archive 'CCDC 680921'
_chemical_formula_sum 'C24 H20 N2 O3'
_chemical_formula_moiety
;
C24 H20 N2 O3
;
_journal_coden_Cambridge 154
_journal_volume 61
_journal_year 2008
_journal_page_first 432
_journal_name_full 'Aust.J.Chem. '
loop_
_publ_author_name
"R.Newton"
"G.P.Savage"
_chemical_name_systematic
;
(5S*,9S*)-9-Methyl-3,6,9-triphenyl-1,8-dioxa-2,6-diazaspiro(4.4)non-2-ene-7-on
e
;
_chemical_melting_point 434.65
_cell_volume   1985.882
_exptl_crystal_colour 'colorless'
_exptl_crystal_density_diffrn 1.286
_exptl_special_details
;
Melting point range 434.65-435.85K

;
_exptl_crystal_description 'prism'
_exptl_crystal_preparation 'ethanol'
_diffrn_ambient_temperature 123
#These two values have been output from a single CSD field.
_refine_ls_R_factor_gt 0.0648
_refine_ls_wR_factor_gt 0.0648
_symmetry_cell_setting monoclinic
_symmetry_space_group_name_H-M 'P 21/c'
_symmetry_Int_Tables_number 14
loop_
_symmetry_equiv_pos_site_id
_symmetry_equiv_pos_as_xyz
1 x,y,z
2 -x,1/2+y,1/2-z
3 -x,-y,-z
4 x,-1/2-y,-1/2+z
_cell_length_a 11.2366(7)
_cell_length_b 13.4923(7)
_cell_length_c 13.5806(8)
_cell_angle_alpha 90
_cell_angle_beta 105.307(2)
_cell_angle_gamma 90
_cell_formula_units_Z 4
loop_
_atom_type_symbol
_atom_type_radius_bond
C 0.68
H 0.23
N 0.68
O 0.68
loop_
_atom_site_label
_atom_site_type_symbol
_atom_site_fract_x
_atom_site_fract_y
_atom_site_fract_z
O1 O 0.46383(15) 0.26156(11) 0.03911(11)
O2 O 0.54696(16) 0.35434(12) -0.06397(11)
O3 O 0.70298(14) 0.19841(11) 0.19803(11)
N1 N 0.63352(17) 0.34691(13) 0.10953(12)
N2 N 0.80948(17) 0.21364(14) 0.28058(14)
C1 C 0.5497(2) 0.32424(16) 0.02055(16)
C2 C 0.4842(2) 0.24908(16) 0.14953(15)
C3 C 0.6206(2) 0.28252(16) 0.19145(15)
C4 C 0.6614(2) 0.32870(16) 0.29684(15)
H1 H 0.66230 0.40200 0.29330
H2 H 0.60820 0.30760 0.34060
C5 C 0.7892(2) 0.28731(16) 0.33384(15)
C6 C 0.7386(2) 0.40876(16) 0.11419(15)
C7 C 0.7280(2) 0.50954(16) 0.12775(16)
H3 H 0.65230 0.53700 0.13370
C8 C 0.8288(2) 0.56991(18) 0.13254(18)
H4 H 0.82190 0.63940 0.14120
C9 C 0.9394(2) 0.53026(18) 0.12491(18)
H5 H 1.00860 0.57210 0.12930
C10 C 0.9486(2) 0.42930(19) 0.11082(19)
H6 H 1.02420 0.40180 0.10470
C11 C 0.8482(2) 0.36804(18) 0.10557(17)
H7 H 0.85460 0.29870 0.09610
C12 C 0.3985(2) 0.31957(16) 0.18543(16)
C13 C 0.3639(2) 0.41005(17) 0.13612(17)
H8 H 0.38890 0.42540 0.07630
C14 C 0.2938(2) 0.47753(19) 0.17297(19)
H9 H 0.27020 0.53830 0.13800
C15 C 0.2579(2) 0.4568(2) 0.2606(2)
H10 H 0.21100 0.50370 0.28680
C16 C 0.2908(2) 0.3674(2) 0.3098(2)
H11 H 0.26550 0.35270 0.36960
C17 C 0.3604(2) 0.29883(19) 0.27285(18)
H12 H 0.38220 0.23750 0.30730
C18 C 0.4637(2) 0.14042(17) 0.16856(18)
H13 H 0.52180 0.10000 0.14320
H14 H 0.37900 0.12190 0.13280
H15 H 0.47710 0.12920 0.24200
C19 C 0.8863(2) 0.32128(16) 0.42276(16)
C20 C 1.0069(2) 0.28953(18) 0.43516(18)
H16 H 1.02660 0.24950 0.38410
C21 C 1.0982(3) 0.3156(2) 0.5207(2)
H17 H 1.18000 0.29220 0.52920
C22 C 1.0710(3) 0.3753(2) 0.59374(19)
H18 H 1.13390 0.39280 0.65300
C23 C 0.9531(3) 0.4095(2) 0.58114(19)
H19 H 0.93510 0.45190 0.63120
C24 C 0.8598(2) 0.38299(19) 0.49599(17)
H20 H 0.77830 0.40690 0.48790
#END
