
#######################################################################
#
#                 Cambridge Crystallographic Data Centre
#                                CCDC
#
#######################################################################
#
# If this CIF has been generated from an entry in the Cambridge
# Structural Database, then it will include bibliographic, chemical,
# crystal, experimental, refinement or atomic coordinate data resulting
# from the CCDC's data processing and validation procedures.
#
#######################################################################

data_CSD_CIF_EFIHOQ
_audit_creation_date 2002-08-15
_audit_creation_method CSD-ConQuest-V1
_database_code_CSD EFIHOQ
_chemical_formula_sum 'C21 H33 N4 O4'
_chemical_formula_moiety
;
C21 H33 N4 O4
;
_journal_coden_Cambridge 4
_journal_volume 123
_journal_year 2001
_journal_page_first 7921
_journal_name_full 'J.Am.Chem.Soc. '
loop_
_publ_author_name
"Y.Hosokoshi"
"K.Katoh"
"Y.Nakazawa"
"H.Nakano"
"K.Inoue"
_chemical_name_systematic
;
2-(3,5-bis(N-t-Butyl-N-oxyamino)phenyl)-4,4,5,5-tetramethyl-4,5-dihydro-1H-imi
dazol-1-oxyl 3-oxide triradical
;
_cell_volume   2307.668
_exptl_crystal_colour 'dark green'
_exptl_crystal_density_diffrn 1.167
_exptl_crystal_description 'prism'
_exptl_crystal_preparation 'diethyl ether/hexane'
_diffrn_ambient_temperature 296
#These two values have been output from a single CSD field.
_refine_ls_R_factor_gt 0.076
_refine_ls_wR_factor_gt 0.076
_symmetry_cell_setting orthorhombic
_symmetry_space_group_name_H-M 'P n m a'
_symmetry_Int_Tables_number 62
loop_
_symmetry_equiv_pos_site_id
_symmetry_equiv_pos_as_xyz
1 x,y,z
2 1/2-x,-y,1/2+z
3 1/2+x,1/2-y,1/2-z
4 -x,1/2+y,-z
5 -x,-y,-z
6 -1/2+x,y,-1/2-z
7 -1/2-x,-1/2+y,-1/2+z
8 x,-1/2-y,z
_cell_length_a 11.652(1)
_cell_length_b 9.6117(9)
_cell_length_c 20.605(2)
_cell_angle_alpha 90
_cell_angle_beta 90
_cell_angle_gamma 90
_cell_formula_units_Z 4
loop_
_atom_type_symbol
_atom_type_radius_bond
C 0.68
H 0.23
N 0.68
O 0.68
loop_
_atom_site_label
_atom_site_type_symbol
_atom_site_fract_x
_atom_site_fract_y
_atom_site_fract_z
O1 O 0.3123(5) 0.25000 0.5945(3)
O2 O 0.3699(5) 0.25000 0.3773(3)
O3 O 0.8779(4) 0.25000 0.4205(2)
O4 O 0.8219(4) 0.25000 0.6367(2)
N1 N 0.2958(5) 0.25000 0.5351(3)
N2 N 0.3233(4) 0.25000 0.4321(3)
N3 N 0.7720(4) 0.25000 0.4050(3)
N4 N 0.7118(5) 0.25000 0.6347(2)
C1 C 0.3774(5) 0.25000 0.4890(3)
C2 C 0.5010(5) 0.25000 0.4998(3)
C3 C 0.5729(5) 0.25000 0.4467(3)
C4 C 0.6920(5) 0.25000 0.4567(3)
C5 C 0.7349(5) 0.25000 0.5192(3)
C6 C 0.6618(5) 0.25000 0.5722(3)
C7 C 0.5432(5) 0.25000 0.5629(3)
C8 C 0.1759(5) 0.25000 0.5114(3)
C9 C 0.1945(5) 0.25000 0.4365(3)
C10 C 0.7422(6) 0.25000 0.3339(3)
C11 C 0.6470(6) 0.25000 0.6977(3)
C12 C 0.1142(7) 0.1256(8) 0.5379(3)
C13 C 0.1507(5) 0.3777(7) 0.4020(3)
C14 C 0.8543(7) 0.25000 0.2963(4)
C15 C 0.6750(5) 0.1181(6) 0.3169(3)
C16 C 0.7355(8) 0.25000 0.7521(4)
C17 C 0.5755(5) 0.1173(6) 0.7033(3)
H1 H 0.54220 0.25000 0.40400
H2 H 0.81550 0.25000 0.52590
H3 H 0.49240 0.25000 0.59890
H4 H 0.03620 0.12800 0.52450
H5 H 0.14940 0.04320 0.52210
H6 H 0.11790 0.12680 0.58400
H7 H 0.17980 0.45860 0.42280
H8 H 0.17560 0.37620 0.35810
H9 H 0.06930 0.37880 0.40340
H10 H 0.89730 0.16930 0.30710
H11 H 0.83840 0.25000 0.25110
H12 H 0.89730 0.33070 0.30710
H13 H 0.60630 0.11500 0.34160
H14 H 0.65660 0.11880 0.27190
H15 H 0.72050 0.03860 0.32640
H16 H 0.69740 0.25000 0.79280
H17 H 0.78300 0.17010 0.74820
H18 H 0.78130 0.33150 0.74910
H19 H 0.53630 0.11670 0.74380
H20 H 0.52120 0.11420 0.66900
H21 H 0.62450 0.03850 0.70070
C12G C 0.1142(7) 0.3744(8) 0.5379(3)
H4G H 0.03620 0.37200 0.52450
H5G H 0.14940 0.45680 0.52210
H6G H 0.11790 0.37320 0.58400
C13G C 0.1507(5) 0.1223(7) 0.4020(3)
H7G H 0.17980 0.04140 0.42280
H8G H 0.17560 0.12380 0.35810
H9G H 0.06930 0.12120 0.40340
C15G C 0.6750(5) 0.3819(6) 0.3169(3)
H13G H 0.60630 0.38500 0.34160
H14G H 0.65660 0.38120 0.27190
H15G H 0.72050 0.46140 0.32640
C17G C 0.5755(5) 0.3827(6) 0.7033(3)
H19G H 0.53630 0.38330 0.74380
H20G H 0.52120 0.38580 0.66900
H21G H 0.62450 0.46150 0.70070
#END
