
#######################################################################
#
#                 Cambridge Crystallographic Data Centre
#                                CCDC
#
#######################################################################
#
# If this CIF has been generated from an entry in the Cambridge
# Structural Database, then it will include bibliographic, chemical,
# crystal, experimental, refinement or atomic coordinate data resulting
# from the CCDC's data processing and validation procedures.
#
#######################################################################

data_CSD_CIF_EFUPUR
_audit_creation_date 2008-11-20
_audit_creation_method CSD-ConQuest-V1
_database_code_CSD EFUPUR
_database_code_depnum_ccdc_archive 'CCDC 689487'
_chemical_formula_sum 'C21 H24 N2 O4'
_chemical_formula_moiety
;
C21 H24 N2 O4
;
_journal_coden_Cambridge 16
_journal_volume 64
_journal_year 2008
_journal_page_first 7477
_journal_name_full 'Tetrahedron '
loop_
_publ_author_name
"F.F.Fleming"
"Yunjing Wei"
"Wang Liu"
"Zhiyu Zhang"
_chemical_name_systematic
;
7a-Cyano-octahydro-4-methyl-1-(prop-1-en-2-yl)-1H-inden-4-yl 4-nitrobenzoate
;
_chemical_melting_point 460
_cell_volume    969.257
_exptl_crystal_colour 'colorless'
_exptl_crystal_density_diffrn 1.262
_exptl_special_details
;
Melting point range 460-461K

;
_exptl_crystal_description 'plate'
_diffrn_ambient_temperature 296
#These two values have been output from a single CSD field.
_refine_ls_R_factor_gt 0.045
_refine_ls_wR_factor_gt 0.045
loop_
_citation_database_id_CSD
_citation_special_details
EFICEC "is a stereoisomer of this entry"
_symmetry_cell_setting triclinic
_symmetry_space_group_name_H-M 'P -1'
_symmetry_Int_Tables_number 2
loop_
_symmetry_equiv_pos_site_id
_symmetry_equiv_pos_as_xyz
1 x,y,z
2 -x,-y,-z
_cell_length_a 6.8918(2)
_cell_length_b 8.2201(2)
_cell_length_c 17.5912(4)
_cell_angle_alpha 89.321(2)
_cell_angle_beta 80.179(2)
_cell_angle_gamma 80.818(2)
_cell_formula_units_Z 2
loop_
_atom_type_symbol
_atom_type_radius_bond
C 0.68
H 0.23
N 0.68
O 0.68
loop_
_atom_site_label
_atom_site_type_symbol
_atom_site_fract_x
_atom_site_fract_y
_atom_site_fract_z
O1 O 0.3787(2) 0.2730(2) 0.80241(9)
O2 O 0.5578(3) 0.1187(3) 0.88128(10)
C1 C 0.5397(3) 0.2599(3) 0.73384(12)
C2 C 0.6075(3) 0.0791(3) 0.71053(12)
H1 H 0.69890 0.03020 0.74460
C3 C 0.7162(3) 0.0489(3) 0.62631(12)
C4 C 0.4313(4) 0.3555(3) 0.67458(13)
H2 H 0.40380 0.47160 0.68880
H3 H 0.30470 0.31790 0.67500
C5 C 0.9205(4) 0.0866(3) 0.61362(13)
C6 C 0.2171(4) 0.2302(3) 0.92723(13)
N1 N 1.0776(3) 0.1193(3) 0.60127(13)
C7 C 0.6018(3) 0.1533(3) 0.56986(13)
H4 H 0.68150 0.14230 0.51860
H5 H 0.47870 0.11180 0.56780
C8 C 0.5536(4) 0.3337(3) 0.59349(14)
H6 H 0.47910 0.39460 0.55730
H7 H 0.67660 0.37790 0.59200
N2 N -0.2980(4) 0.3230(3) 1.09676(16)
C9 C -0.1193(4) 0.2864(3) 1.03702(14)
C10 C 0.4056(4) 0.1990(3) 0.86909(14)
C11 C 0.4389(4) -0.0249(3) 0.71530(14)
H8 H 0.40580 -0.06490 0.76720
H9 H 0.32030 0.04050 0.70150
C12 C 0.8938(4) -0.2552(3) 0.63088(16)
O3 O -0.2782(4) 0.3009(3) 1.16433(13)
C13 C -0.1282(4) 0.3438(4) 0.96434(15)
H10 H -0.24660 0.40060 0.95220
C14 C 0.0519(5) 0.1999(4) 1.05645(16)
H11 H 0.05380 0.16170 1.10630
C15 C 0.0426(4) 0.3156(4) 0.90926(14)
H12 H 0.03960 0.35460 0.85960
O4 O -0.4530(4) 0.3820(4) 1.07823(14)
C16 C 0.7168(4) -0.1393(3) 0.61112(13)
H13 H 0.71170 -0.15510 0.55640
C17 C 0.5160(4) -0.1683(3) 0.65885(16)
H14 H 0.42050 -0.17600 0.62490
H15 H 0.53420 -0.27060 0.68670
C18 C 0.2213(4) 0.1703(4) 1.00079(15)
H16 H 0.33810 0.11020 1.01280
C19 C 0.7061(4) 0.3440(3) 0.75351(15)
H17 H 0.65000 0.44820 0.77860
H18 H 0.79530 0.36150 0.70700
H19 H 0.77810 0.27560 0.78740
C20 C 0.9344(5) -0.2613(4) 0.71205(17)
H20 H 1.03670 -0.35300 0.71690
H21 H 0.81470 -0.27400 0.74700
H22 H 0.97770 -0.16090 0.72430
C21 C 1.0088(5) -0.3521(4) 0.57668(18)
H23 H 1.11650 -0.42540 0.58850
H24 H 0.98230 -0.34730 0.52650
#END
