
#######################################################################
#
#                 Cambridge Crystallographic Data Centre
#                                CCDC
#
#######################################################################
#
# If this CIF has been generated from an entry in the Cambridge
# Structural Database, then it will include bibliographic, chemical,
# crystal, experimental, refinement or atomic coordinate data resulting
# from the CCDC's data processing and validation procedures.
#
#######################################################################

data_CSD_CIF_EGABAQ
_audit_creation_date 2009-04-10
_audit_creation_method CSD-ConQuest-V1
_database_code_CSD EGABAQ
_database_code_depnum_ccdc_archive 'CCDC 686861'
_chemical_formula_sum 'C22 H23 N1 O2'
_chemical_formula_moiety
;
C22 H23 N1 O2
;
_journal_coden_Cambridge 1336
_journal_volume 10
_journal_year 2008
_journal_page_first 4113
_journal_name_full 'Org.Lett. '
loop_
_publ_author_name
"Haifeng Duan"
"Xiaohua Sun"
"Wenyan Liao"
"J.L.Petersen"
"Xiaodong Shi"
_chemical_name_systematic
;
4-Methyl-3,5-bis((E)-1-phenyl-1-propenyl)-4,5-dihydroisoxazole N-oxide
;
_chemical_melting_point 425.15
_cell_volume   1883.140
_exptl_crystal_colour 'colorless'
_exptl_crystal_density_diffrn 1.176
_exptl_special_details
;
Melting point range 425.15-427.15K

;
_diffrn_ambient_temperature 293
#These two values have been output from a single CSD field.
_refine_ls_R_factor_gt 0.0524
_refine_ls_wR_factor_gt 0.0524
_symmetry_cell_setting monoclinic
_symmetry_space_group_name_H-M 'P 21/c'
_symmetry_Int_Tables_number 14
loop_
_symmetry_equiv_pos_site_id
_symmetry_equiv_pos_as_xyz
1 x,y,z
2 -x,1/2+y,1/2-z
3 -x,-y,-z
4 x,-1/2-y,-1/2+z
_cell_length_a 9.7549(7)
_cell_length_b 15.8328(12)
_cell_length_c 12.3179(9)
_cell_angle_alpha 90
_cell_angle_beta 98.174(1)
_cell_angle_gamma 90
_cell_formula_units_Z 4
loop_
_atom_type_symbol
_atom_type_radius_bond
C 0.68
H 0.23
N 0.68
O 0.68
loop_
_atom_site_label
_atom_site_type_symbol
_atom_site_fract_x
_atom_site_fract_y
_atom_site_fract_z
O1 O 0.86520(13) 0.25375(7) 0.62417(10)
O2 O 0.79349(15) 0.28672(8) 0.78447(11)
N1 N 0.79530(15) 0.22967(9) 0.71419(11)
C1 C 0.74716(17) 0.15268(10) 0.70530(12)
C2 C 0.77487(17) 0.11435(11) 0.59922(12)
H1 H 0.81770 0.05870 0.61310
C3 C 0.88081(18) 0.17628(11) 0.56191(12)
H2 H 0.85400 0.18820 0.48370
C4 C 0.6420(2) 0.10588(14) 0.51733(14)
H3 H 0.57890 0.06870 0.54680
H4 H 0.66390 0.08320 0.44960
H5 H 0.59990 0.16040 0.50430
C5 C 0.67243(17) 0.11355(11) 0.78742(12)
C6 C 0.6153(2) 0.15970(13) 0.86096(16)
H6 H 0.61850 0.21810 0.85350
C7 C 0.5469(3) 0.12648(16) 0.95366(18)
H7 H 0.55650 0.06620 0.95720
H8 H 0.45050 0.14110 0.94190
H9 H 0.59000 0.15090 1.02130
C8 C 0.67066(17) 0.01903(11) 0.78686(11)
C9 C 0.79412(19) -0.02606(12) 0.80629(13)
H10 H 0.87780 0.00290 0.81760
C10 C 0.7942(3) -0.11358(13) 0.80905(16)
H11 H 0.87740 -0.14290 0.82260
C11 C 0.6705(3) -0.15704(15) 0.79162(17)
H12 H 0.67010 -0.21580 0.79340
C12 C 0.5480(3) -0.11313(15) 0.77159(16)
H13 H 0.46450 -0.14240 0.75960
C13 C 0.5479(2) -0.02637(13) 0.76912(14)
H14 H 0.46410 0.00240 0.75530
C14 C 1.02894(17) 0.14783(10) 0.57978(12)
C15 C 1.1057(2) 0.15639(12) 0.49885(14)
H15 H 1.06070 0.17750 0.43280
C16 C 1.2550(2) 0.13583(15) 0.50270(18)
H16 H 1.28960 0.11180 0.57280
H17 H 1.30560 0.18640 0.49200
H18 H 1.26620 0.09600 0.44580
C17 C 1.08344(16) 0.10876(10) 0.68828(12)
C18 C 1.09665(19) 0.15550(12) 0.78465(13)
H19 H 1.07560 0.21280 0.78190
C19 C 1.1409(2) 0.11751(14) 0.88475(15)
H20 H 1.14820 0.14920 0.94890
C20 C 1.1740(2) 0.03328(15) 0.88978(16)
H21 H 1.20410 0.00810 0.95720
C21 C 1.1628(2) -0.01389(13) 0.79543(16)
H22 H 1.18560 -0.07100 0.79870
C22 C 1.11725(18) 0.02384(12) 0.69510(14)
H23 H 1.10930 -0.00840 0.63140
#END
