
#######################################################################
#
#                 Cambridge Crystallographic Data Centre
#                                CCDC
#
#######################################################################
#
# If this CIF has been generated from an entry in the Cambridge
# Structural Database, then it will include bibliographic, chemical,
# crystal, experimental, refinement or atomic coordinate data resulting
# from the CCDC's data processing and validation procedures.
#
#######################################################################

data_CSD_CIF_EGAGAV
_audit_creation_date 2009-04-09
_audit_creation_method CSD-ConQuest-V1
_database_code_CSD EGAGAV
_database_code_depnum_ccdc_archive 'CCDC 696673'
_chemical_formula_sum 'C22 H24 N2 O6'
_chemical_formula_moiety
;
C22 H24 N2 O6
;
_journal_coden_Cambridge 24
_journal_volume 49
_journal_year 2008
_journal_page_first 6910
_journal_name_full 'Tetrahedron Lett. '
loop_
_publ_author_name
"Jianwu Xie"
"K.Yoshida"
"K.Takasu"
"Y.Takemoto"
_chemical_name_systematic
;
rac-Diethyl 4-nitro-3,5-diphenylpyrrolidine-2,2-dicarboxylate
;
_cell_volume   2119.499
_exptl_crystal_colour 'colorless'
_exptl_crystal_density_diffrn 1.292
_exptl_crystal_description 'needle'
_diffrn_ambient_temperature 93.1
#These two values have been output from a single CSD field.
_refine_ls_R_factor_gt 0.039
_refine_ls_wR_factor_gt 0.039
_symmetry_cell_setting monoclinic
_symmetry_space_group_name_H-M 'P 21/c'
_symmetry_Int_Tables_number 14
loop_
_symmetry_equiv_pos_site_id
_symmetry_equiv_pos_as_xyz
1 x,y,z
2 -x,1/2+y,1/2-z
3 -x,-y,-z
4 x,-1/2-y,-1/2+z
_cell_length_a 10.8269(7)
_cell_length_b 17.907(1)
_cell_length_c 11.1352(8)
_cell_angle_alpha 90
_cell_angle_beta 100.958(2)
_cell_angle_gamma 90
_cell_formula_units_Z 4
loop_
_atom_type_symbol
_atom_type_radius_bond
C 0.68
H 0.23
N 0.68
O 0.68
loop_
_atom_site_label
_atom_site_type_symbol
_atom_site_fract_x
_atom_site_fract_y
_atom_site_fract_z
O1 O 0.9120(1) 0.11249(7) 0.7239(1)
O2 O 0.8072(1) -0.05331(8) 0.5721(1)
O3 O 0.9342(1) 0.08747(7) 0.9248(1)
O4 O 0.4586(1) -0.07476(7) 0.9067(1)
O5 O 0.9970(1) -0.04786(7) 0.6980(1)
O6 O 0.5436(1) -0.11955(7) 0.7617(1)
N1 N 0.5383(1) -0.07365(8) 0.8416(1)
N2 N 0.8426(1) -0.05981(8) 0.8727(1)
C1 C 0.8723(2) -0.0362(1) 0.6680(2)
C2 C 0.6473(2) 0.1497(1) 0.7821(2)
C3 C 0.5922(1) 0.0980(1) 0.5798(2)
C4 C 0.5571(2) 0.1684(1) 0.5330(2)
C5 C 0.6382(1) -0.01344(9) 0.8686(1)
C6 C 0.9637(2) 0.1873(1) 0.7543(2)
C7 C 0.8987(1) 0.0703(1) 0.8189(2)
C8 C 0.6812(1) 0.0108(1) 0.7502(2)
C9 C 0.7539(2) -0.1827(1) 0.9954(2)
C10 C 0.7384(2) -0.1102(1) 1.0345(2)
C11 C 0.5694(2) 0.2298(1) 0.6106(2)
C12 C 0.8267(1) -0.0021(1) 0.7784(1)
C13 C 0.6382(1) 0.0878(1) 0.7044(2)
C14 C 0.6143(2) 0.2202(1) 0.7351(2)
C15 C 1.0519(2) -0.0907(1) 0.6090(2)
C16 C 0.7571(1) -0.0435(1) 0.9567(2)
C17 C 0.6817(2) -0.1592(1) 1.2187(2)
C18 C 0.7330(2) -0.2433(1) 1.0675(2)
C19 C 0.9550(2) 0.2302(1) 0.6382(2)
C20 C 0.7031(2) -0.0986(1) 1.1475(2)
C21 C 1.1916(2) -0.0917(1) 0.6539(2)
C22 C 0.6960(2) -0.2310(1) 1.1786(2)
H1 H 0.92530 -0.06490 0.91550
H2 H 0.78300 0.00130 1.00900
H3 H 0.59720 0.02700 0.90170
H4 H 0.64900 -0.02770 0.68750
H5 H 0.78670 -0.18880 0.91850
H6 H 0.75530 -0.29820 1.04310
H7 H 0.67150 -0.27130 1.22240
H8 H 0.67110 -0.15000 1.30920
H9 H 0.69270 -0.04670 1.17750
H10 H 0.67960 0.14020 0.86710
H11 H 0.62720 0.26370 0.79560
H12 H 0.54720 0.28070 0.58710
H13 H 0.51640 0.17650 0.43770
H14 H 0.58360 0.05340 0.52620
H15 H 0.90690 0.21450 0.80490
H16 H 1.04990 0.18350 0.80090
H17 H 0.87370 0.22890 0.58680
H18 H 0.98770 0.28090 0.64880
H19 H 1.02070 0.20490 0.59680
H20 H 1.02250 -0.06860 0.52740
H21 H 1.02050 -0.14560 0.61350
H22 H 1.22930 -0.03650 0.65420
H23 H 1.22230 -0.12550 0.59420
H24 H 1.22230 -0.10950 0.74520
#END
