
#######################################################################
#
#                 Cambridge Crystallographic Data Centre
#                                CCDC
#
#######################################################################
#
# If this CIF has been generated from an entry in the Cambridge
# Structural Database, then it will include bibliographic, chemical,
# crystal, experimental, refinement or atomic coordinate data resulting
# from the CCDC's data processing and validation procedures.
#
#######################################################################

data_CSD_CIF_EGAMEF
_audit_creation_date 2009-04-10
_audit_creation_method CSD-ConQuest-V1
_database_code_CSD EGAMEF
_database_code_depnum_ccdc_archive 'CCDC 681385'
_chemical_formula_sum 'C17 H26 N4 O3'
_chemical_formula_moiety
;
C17 H26 N4 O3
;
_journal_coden_Cambridge 1343
_journal_volume 10
_journal_year 2008
_journal_page_first 595
_journal_name_full 'J.Comb.Chem. '
loop_
_publ_author_name
"A.Shaabani"
"A.Maleki"
"H.Mofakham"
_chemical_name_systematic
;
2,4,4-Trimethyl-N-(2-methyl-2-propanyl)-8-nitro-2,3,4,5-tetrahydro-1H-1,5-benz
odiazepine-2-carboxamide
;
_chemical_melting_point 497.15
_cell_volume   3789.984
_exptl_crystal_colour 'orange'
_exptl_crystal_density_diffrn 1.172
_exptl_special_details
;
Melting point range 497.15-499.15K

;
_exptl_crystal_description 'block'
_diffrn_ambient_temperature 298
#These two values have been output from a single CSD field.
_refine_ls_R_factor_gt 0.0837
_refine_ls_wR_factor_gt 0.0837
_symmetry_cell_setting orthorhombic
_symmetry_space_group_name_H-M 'P b c a'
_symmetry_Int_Tables_number 61
loop_
_symmetry_equiv_pos_site_id
_symmetry_equiv_pos_as_xyz
1 x,y,z
2 1/2-x,-y,1/2+z
3 1/2+x,1/2-y,-z
4 -x,1/2+y,1/2-z
5 -x,-y,-z
6 -1/2+x,y,-1/2-z
7 -1/2-x,-1/2+y,z
8 x,-1/2-y,-1/2+z
_cell_length_a 10.2548(5)
_cell_length_b 17.3996(13)
_cell_length_c 21.2408(12)
_cell_angle_alpha 90
_cell_angle_beta 90
_cell_angle_gamma 90
_cell_formula_units_Z 8
loop_
_atom_type_symbol
_atom_type_radius_bond
C 0.68
H 0.23
N 0.68
O 0.68
loop_
_atom_site_label
_atom_site_type_symbol
_atom_site_fract_x
_atom_site_fract_y
_atom_site_fract_z
C1 C 0.1684(6) 0.3026(3) 0.7167(3)
H1 H 0.20720 0.27420 0.75060
H2 H 0.09100 0.27670 0.70270
H3 H 0.14610 0.35330 0.73100
C2 C 0.1992(7) 0.3499(3) 0.6089(3)
H4 H 0.11990 0.32410 0.59750
H5 H 0.25740 0.35020 0.57350
H6 H 0.17980 0.40180 0.62100
C3 C 0.3821(5) 0.3498(3) 0.6832(3)
H7 H 0.44320 0.35070 0.64900
H8 H 0.42050 0.32410 0.71860
H9 H 0.35980 0.40150 0.69470
C4 C 0.2628(3) 0.30830(16) 0.66348(16)
C5 C 0.3646(2) 0.20579(14) 0.59536(10)
C6 C 0.3680(2) 0.11852(14) 0.58076(10)
C7 C 0.4985(2) 0.0895(2) 0.60738(14)
H10 H 0.50800 0.03580 0.59820
H11 H 0.50000 0.09700 0.65210
H12 H 0.56890 0.11750 0.58840
C8 C 0.3685(2) 0.10584(17) 0.50905(11)
H13 H 0.42290 0.14520 0.49010
H14 H 0.40950 0.05670 0.50060
C9 C 0.2355(2) 0.10697(14) 0.47569(10)
C10 C 0.1779(3) 0.02596(16) 0.47071(14)
H15 H 0.09790 0.02790 0.44730
H16 H 0.16100 0.00630 0.51220
H17 H 0.23870 -0.00710 0.44950
C11 C 0.2545(3) 0.1394(2) 0.40946(12)
H18 H 0.28980 0.19040 0.41220
H19 H 0.17200 0.14110 0.38820
H20 H 0.31350 0.10720 0.38640
C12 C 0.0759(2) 0.13793(12) 0.56165(9)
C13 C -0.0530(2) 0.16361(14) 0.56905(11)
H21 H -0.08940 0.19470 0.53800
C14 C -0.1270(2) 0.14448(15) 0.62042(11)
H22 H -0.21120 0.16350 0.62510
C15 C -0.0734(2) 0.09643(15) 0.66492(10)
C16 C 0.0548(2) 0.07119(13) 0.66061(10)
H23 H 0.08850 0.03880 0.69140
C17 C 0.1326(2) 0.09389(11) 0.61078(9)
N1 N 0.2926(2) 0.22840(12) 0.64394(10)
H24 H 0.251(3) 0.1950(17) 0.6630(13)
N2 N 0.14467(19) 0.15946(12) 0.50849(9)
H25 H 0.099(3) 0.1838(15) 0.4839(12)
N3 N 0.26478(18) 0.07353(11) 0.61101(9)
H26 H 0.288(2) 0.0548(15) 0.6469(12)
N4 N -0.1513(2) 0.07313(18) 0.71804(11)
O1 O 0.4327(2) 0.24962(13) 0.56461(10)
O2 O -0.1106(3) 0.02222(15) 0.75322(11)
O3 O -0.2558(2) 0.1066(2) 0.72772(12)
#END
