
#######################################################################
#
#                 Cambridge Crystallographic Data Centre
#                                CCDC
#
#######################################################################
#
# If this CIF has been generated from an entry in the Cambridge
# Structural Database, then it will include bibliographic, chemical,
# crystal, experimental, refinement or atomic coordinate data resulting
# from the CCDC's data processing and validation procedures.
#
#######################################################################

data_CSD_CIF_EGEVIW
_audit_creation_date 2009-04-10
_audit_creation_method CSD-ConQuest-V1
_database_code_CSD EGEVIW
_database_code_depnum_ccdc_archive 'CCDC 707228'
_chemical_formula_sum 'C15 H18 N2 O1'
_chemical_formula_moiety
;
C15 H18 N2 O1
;
_journal_coden_Cambridge 9
_journal_volume 47
_journal_year 2008
_journal_page_first 8859
_journal_name_full 'Inorg.Chem. '
loop_
_publ_author_name
"A.Okazawa"
"Y.Nagaichi"
"T.Nogami"
"T.Ishida"
_chemical_name_systematic
;
N-t-butyl-N-hydroxy-5-phenylpyridin-2-amine
;
_chemical_name_common
;
N-t-butyl-N-(5-phenyl-2-pyridyl)hydroxylamine
;
_chemical_melting_point 372.15
_cell_volume    670.105
_exptl_crystal_colour 'colorless'
_exptl_crystal_density_diffrn 1.201
_exptl_special_details
;
Melting point range 372.15-374.15K

;
_exptl_crystal_description 'prism'
_exptl_crystal_preparation 'dichloromethane/hexane'
_diffrn_ambient_temperature 110.
#These two values have been output from a single CSD field.
_refine_ls_R_factor_gt 0.0483
_refine_ls_wR_factor_gt 0.0483
_symmetry_cell_setting triclinic
_symmetry_space_group_name_H-M 'P -1'
_symmetry_Int_Tables_number 2
loop_
_symmetry_equiv_pos_site_id
_symmetry_equiv_pos_as_xyz
1 x,y,z
2 -x,-y,-z
_cell_length_a 6.435(4)
_cell_length_b 9.750(6)
_cell_length_c 11.898(8)
_cell_angle_alpha 66.99(5)
_cell_angle_beta 87.11(5)
_cell_angle_gamma 77.42(5)
_cell_formula_units_Z 2
loop_
_atom_type_symbol
_atom_type_radius_bond
C 0.68
H 0.23
N 0.68
O 0.68
loop_
_atom_site_label
_atom_site_type_symbol
_atom_site_fract_x
_atom_site_fract_y
_atom_site_fract_z
O1 O 0.19262(15) 0.5000(1) 1.08269(9)
N1 N -0.01606(18) 0.84016(13) 0.83383(10)
N2 N 0.02867(18) 0.63698(12) 1.02386(10)
C1 C 0.1235(2) 0.74239(15) 0.92361(12)
C2 C 0.3429(2) 0.73799(16) 0.91886(13)
C3 C 0.4169(2) 0.84519(16) 0.81919(13)
C4 C 0.2742(2) 0.95353(15) 0.72612(12)
C5 C 0.0603(2) 0.94315(16) 0.73846(12)
C6 C 0.3429(2) 1.07697(15) 0.62058(12)
C7 C 0.5080(2) 1.14247(17) 0.63586(14)
C8 C 0.5728(2) 1.25865(18) 0.53806(15)
C9 C 0.4742(2) 1.31134(18) 0.42368(15)
C10 C 0.3097(2) 1.24880(18) 0.40720(14)
C11 C 0.2447(2) 1.13295(17) 0.50480(13)
C12 C -0.0612(2) 0.69229(15) 1.12220(12)
C13 C -0.2190(2) 0.84539(17) 1.06385(14)
C14 C -0.1800(2) 0.57335(18) 1.20749(14)
C15 C 0.1171(2) 0.71035(19) 1.19343(15)
H1 H 0.436(2) 0.6600(19) 0.9842(15)
H2 H 0.564(2) 0.8457(17) 0.8169(14)
H3 H -0.042(2) 1.0141(16) 0.6756(13)
H4 H 0.576(2) 1.1057(17) 0.7153(14)
H5 H 0.690(2) 1.3064(19) 0.5526(15)
H6 H 0.520(2) 1.394(2) 0.3559(17)
H7 H 0.242(2) 1.2844(19) 0.3271(15)
H8 H 0.133(2) 1.0879(18) 0.4910(14)
H9 H -0.153(2) 0.9318(19) 1.0108(16)
H10 H -0.330(2) 0.8396(19) 1.0136(15)
H11 H -0.287(2) 0.8742(19) 1.1302(16)
H12 H -0.299(2) 0.5649(18) 1.1619(15)
H13 H -0.241(2) 0.605(2) 1.2732(16)
H14 H -0.087(2) 0.4759(19) 1.2468(14)
H15 H 0.055(3) 0.742(2) 1.2604(18)
H16 H 0.217(2) 0.6145(18) 1.2347(14)
H17 H 0.190(2) 0.7915(19) 1.1382(15)
H18 H 0.147(2) 0.435(2) 1.0546(16)
#END
