
#######################################################################
#
#                 Cambridge Crystallographic Data Centre
#                                CCDC
#
#######################################################################
#
# If this CIF has been generated from an entry in the Cambridge
# Structural Database, then it will include bibliographic, chemical,
# crystal, experimental, refinement or atomic coordinate data resulting
# from the CCDC's data processing and validation procedures.
#
#######################################################################

data_CSD_CIF_EGOVAZ
_audit_creation_date 2014-06-24
_audit_creation_method CSD-ConQuest-V1
_database_code_CSD EGOVAZ
_database_code_depnum_ccdc_archive 'CCDC 919398'
_chemical_formula_sum 'C18 H16 N2 O3'
_chemical_formula_moiety
;
C18 H16 N2 O3
;
_journal_coden_Cambridge 1336
_journal_volume 16
_journal_year 2014
_journal_page_first 2872
_journal_name_full 'Org.Lett. '
loop_
_publ_author_name
"Hong Hou"
"Shaoqun Zhu"
"Fangfang Pan"
"Magnus Rueping"
_chemical_name_systematic
;
5-Methyl-2,3-diphenyldihydro-2H-pyrrolo[3,4-d][1,2]oxazole-4,6(3H,5H)-dione
;
_cell_volume   1469.398
_exptl_crystal_colour 'colorless'
_exptl_crystal_density_diffrn 1.394
_exptl_crystal_description 'needle'
_diffrn_ambient_temperature 100
#These two values have been output from a single CSD field.
_refine_ls_R_factor_gt 0.0572
_refine_ls_wR_factor_gt 0.0572
_symmetry_cell_setting orthorhombic
_symmetry_space_group_name_H-M 'P 21 21 21'
_symmetry_Int_Tables_number 19
loop_
_symmetry_equiv_pos_site_id
_symmetry_equiv_pos_as_xyz
1 x,y,z
2 1/2-x,-y,1/2+z
3 -x,1/2+y,1/2-z
4 1/2+x,1/2-y,-z
_cell_length_a 5.2734(15)
_cell_length_b 14.976(4)
_cell_length_c 18.606(5)
_cell_angle_alpha 90
_cell_angle_beta 90
_cell_angle_gamma 90
_cell_formula_units_Z 4
loop_
_atom_type_symbol
_atom_type_radius_bond
C 0.68
H 0.23
N 0.68
O 0.68
loop_
_atom_site_label
_atom_site_type_symbol
_atom_site_fract_x
_atom_site_fract_y
_atom_site_fract_z
O1 O 0.1080(4) 0.52209(13) 0.47779(10)
O2 O -0.1174(4) 0.70280(14) 0.47315(11)
O3 O 0.5176(4) 0.69704(14) 0.30673(10)
N1 N 0.0311(4) 0.49765(15) 0.40436(11)
N2 N 0.1817(5) 0.71884(16) 0.38385(13)
C1 C -0.1020(5) 0.41569(19) 0.40846(14)
C2 C -0.1062(6) 0.3558(2) 0.35043(15)
H1 H 0.00100 0.36540 0.31010
C3 C -0.2655(6) 0.2831(2) 0.35198(16)
H2 H -0.26960 0.24360 0.31210
C4 C -0.4206(6) 0.2665(2) 0.41083(15)
H3 H -0.53250 0.21680 0.41100
C5 C -0.4095(6) 0.3237(2) 0.46942(16)
H4 H -0.51010 0.31160 0.51060
C6 C -0.2544(6) 0.3979(2) 0.46866(16)
H5 H -0.25070 0.43690 0.50890
C7 C 0.2706(5) 0.50293(19) 0.36213(15)
H6 H 0.37300 0.44760 0.37030
C8 C 0.2186(6) 0.51368(19) 0.28236(15)
C9 C 0.3871(6) 0.4751(2) 0.23319(15)
H7 H 0.52520 0.44020 0.25010
C10 C 0.3536(6) 0.4877(2) 0.15981(16)
H8 H 0.46930 0.46160 0.12680
C11 C 0.1528(6) 0.5379(2) 0.13481(15)
H9 H 0.13070 0.54650 0.08460
C12 C -0.0180(6) 0.5761(2) 0.18326(16)
H10 H -0.15680 0.61040 0.16600
C13 C 0.0153(6) 0.5638(2) 0.25675(16)
H11 H -0.10120 0.58970 0.28960
C14 C 0.4080(6) 0.58466(19) 0.39753(15)
H12 H 0.58820 0.57070 0.41000
C15 C 0.2468(6) 0.60064(19) 0.46459(15)
H13 H 0.35550 0.61640 0.50680
C16 C 0.0758(6) 0.6782(2) 0.44391(14)
C17 C 0.3853(6) 0.6712(2) 0.35617(15)
C18 C 0.0893(7) 0.8028(2) 0.35398(17)
H14 H 0.11520 0.85080 0.38900
H15 H -0.09190 0.79740 0.34310
H16 H 0.18260 0.81650 0.30980
#END
