
#######################################################################
#
#                 Cambridge Crystallographic Data Centre
#                                CCDC
#
#######################################################################
#
# If this CIF has been generated from an entry in the Cambridge
# Structural Database, then it will include bibliographic, chemical,
# crystal, experimental, refinement or atomic coordinate data resulting
# from the CCDC's data processing and validation procedures.
#
#######################################################################

data_CSD_CIF_EGUQOM
_audit_creation_date 2002-12-11
_audit_creation_method CSD-ConQuest-V1
_database_code_CSD EGUQOM
_database_code_depnum_ccdc_archive 'CCDC 186324'
_chemical_formula_sum 'C13 H14 N2 O4'
_chemical_formula_moiety
;
C13 H14 N2 O4
;
_journal_coden_Cambridge 16
_journal_volume 58
_journal_year 2002
_journal_page_first 7303
_journal_name_full 'Tetrahedron '
loop_
_publ_author_name
"A.G.M.Barrett"
"P.Dozzo"
"A.J.P.White"
"D.J.Williams"
_chemical_name_systematic
;
(3S,5R)-3-((1S)-Hydroxy(4-nitrophenyl)methyl)-1-azabicyclo(3.2.0)heptan-2-one
;
_chemical_melting_point 373.15
_cell_volume    628.663
_exptl_crystal_colour 'colorless'
_exptl_crystal_density_diffrn 1.385
_exptl_special_details
;
Melting point range 373.15-381.15K

;
_exptl_crystal_description 'platy needles'
_diffrn_ambient_temperature 293
#These two values have been output from a single CSD field.
_refine_ls_R_factor_gt 0.0479
_refine_ls_wR_factor_gt 0.0479
loop_
_citation_database_id_CSD
_citation_special_details
EGUQIG "is a stereoisomer of this entry"
EGUQUS "is a stereoisomer of this entry"
_symmetry_cell_setting monoclinic
_symmetry_space_group_name_H-M 'P 21'
_symmetry_Int_Tables_number 4
loop_
_symmetry_equiv_pos_site_id
_symmetry_equiv_pos_as_xyz
1 x,y,z
2 -x,1/2+y,-z
_cell_length_a 9.2667(13)
_cell_length_b 5.4374(4)
_cell_length_c 12.4913(13)
_cell_angle_alpha 90
_cell_angle_beta 92.765(11)
_cell_angle_gamma 90
_cell_formula_units_Z 2
loop_
_atom_type_symbol
_atom_type_radius_bond
C 0.68
H 0.23
N 0.68
O 0.68
loop_
_atom_site_label
_atom_site_type_symbol
_atom_site_fract_x
_atom_site_fract_y
_atom_site_fract_z
N1 N 0.3907(4) 0.5458(9) 0.6251(3)
C1 C 0.2545(4) 0.5402(10) 0.5853(3)
O1 O 0.2184(3) 0.5388(10) 0.4881(3)
C2 C 0.1539(4) 0.5399(10) 0.6781(3)
H1 H 0.1407(4) 0.3702(10) 0.7023(3)
C3 C 0.2430(4) 0.6818(11) 0.7651(3)
H2 H 0.2202(4) 0.8559(11) 0.7627(3)
H3 H 0.2251(4) 0.6191(11) 0.8360(3)
C4 C 0.3995(4) 0.6362(10) 0.7370(4)
H4 H 0.4495(4) 0.5209(10) 0.7864(4)
C5 C 0.4982(6) 0.8460(12) 0.7019(4)
H5 H 0.5897(6) 0.8558(12) 0.7428(4)
H6 H 0.4511(6) 1.0053(12) 0.6974(4)
C6 C 0.5070(5) 0.7140(13) 0.5930(4)
H7 H 0.4799(5) 0.8166(13) 0.5318(4)
H8 H 0.5986(5) 0.6327(13) 0.5835(4)
C7 C 0.0060(4) 0.6538(10) 0.6515(4)
H9 H -0.0403(4) 0.5676(10) 0.5901(4)
O2 O 0.0289(3) 0.9044(7) 0.6237(3)
H10 H -0.0540(26) 0.942(10) 0.5868(31)
C8 C -0.0874(4) 0.6314(9) 0.7465(3)
C9 C -0.1784(5) 0.4275(9) 0.7572(4)
H11 H -0.1854(5) 0.3102(9) 0.7030(4)
C10 C -0.2575(4) 0.3990(9) 0.8468(4)
H12 H -0.3180(4) 0.2638(9) 0.8532(4)
C11 C -0.2463(4) 0.5724(9) 0.9269(3)
C12 C -0.1581(5) 0.7771(10) 0.9192(4)
H13 H -0.1516(5) 0.8931(10) 0.9740(4)
C13 C -0.0804(5) 0.8051(10) 0.8287(4)
H14 H -0.0219(5) 0.9428(10) 0.8223(4)
N2 N -0.3310(4) 0.5441(10) 1.0219(3)
O3 O -0.4190(5) 0.3805(11) 1.0236(3)
O4 O -0.3066(5) 0.6848(10) 1.0969(3)
#END
