
#######################################################################
#
#                 Cambridge Crystallographic Data Centre
#                                CCDC
#
#######################################################################
#
# If this CIF has been generated from an entry in the Cambridge
# Structural Database, then it will include bibliographic, chemical,
# crystal, experimental, refinement or atomic coordinate data resulting
# from the CCDC's data processing and validation procedures.
#
#######################################################################

data_CSD_CIF_EGUQUS
_audit_creation_date 2002-12-11
_audit_creation_method CSD-ConQuest-V1
_database_code_CSD EGUQUS
_database_code_depnum_ccdc_archive 'CCDC 186325'
_chemical_formula_sum 'C13 H14 N2 O4'
_chemical_formula_moiety
;
C13 H14 N2 O4
;
_journal_coden_Cambridge 16
_journal_volume 58
_journal_year 2002
_journal_page_first 7303
_journal_name_full 'Tetrahedron '
loop_
_publ_author_name
"A.G.M.Barrett"
"P.Dozzo"
"A.J.P.White"
"D.J.Williams"
_chemical_name_systematic
;
(3R,5R)-3-((1S)-Hydroxy(4-nitrophenyl)methyl)-1-azabicyclo(3.2.0)heptan-2-one
;
_cell_volume   1290.362
_exptl_crystal_colour 'colorless'
_exptl_crystal_density_diffrn 1.35
_exptl_crystal_description 'platy needles'
_exptl_crystal_preparation 'diethyl ether/hexanes'
_diffrn_ambient_temperature 293
#These two values have been output from a single CSD field.
_refine_ls_R_factor_gt 0.0362
_refine_ls_wR_factor_gt 0.0362
loop_
_citation_database_id_CSD
_citation_special_details
EGUQIG "is a stereoisomer of this entry"
EGUQOM "is a stereoisomer of this entry"
_symmetry_cell_setting orthorhombic
_symmetry_space_group_name_H-M 'P 21 21 21'
_symmetry_Int_Tables_number 19
loop_
_symmetry_equiv_pos_site_id
_symmetry_equiv_pos_as_xyz
1 x,y,z
2 1/2-x,-y,1/2+z
3 -x,1/2+y,1/2-z
4 1/2+x,1/2-y,-z
_cell_length_a 5.2189(3)
_cell_length_b 10.8423(9)
_cell_length_c 22.8040(5)
_cell_angle_alpha 90
_cell_angle_beta 90
_cell_angle_gamma 90
_cell_formula_units_Z 4
loop_
_atom_type_symbol
_atom_type_radius_bond
C 0.68
H 0.23
N 0.68
O 0.68
loop_
_atom_site_label
_atom_site_type_symbol
_atom_site_fract_x
_atom_site_fract_y
_atom_site_fract_z
N1 N 1.0530(6) 0.3560(2) 0.13711(10)
C1 C 1.2094(6) 0.3641(2) 0.18399(10)
O1 O 1.2473(6) 0.4564(2) 0.21382(9)
C2 C 1.3419(6) 0.2401(2) 0.19136(10)
H1 H 1.5167(6) 0.2536(2) 0.20563(10)
C3 C 1.3529(7) 0.1922(3) 0.12742(11)
H2 H 1.5125(7) 0.2157(3) 0.10869(11)
H3 H 1.3364(7) 0.1031(3) 0.12620(11)
C4 C 1.1268(7) 0.2538(3) 0.09802(11)
H4 H 0.9852(7) 0.1965(3) 0.09067(11)
C5 C 1.1605(11) 0.3495(3) 0.04801(12)
H5 H 1.3378(11) 0.3662(3) 0.03806(12)
H6 H 1.0605(11) 0.3313(3) 0.01321(12)
C6 C 1.0387(11) 0.4470(3) 0.08821(14)
H7 H 1.1442(11) 0.5196(3) 0.09405(14)
H8 H 0.8653(11) 0.4695(3) 0.07727(14)
C7 C 1.2013(6) 0.1536(2) 0.23366(11)
H9 H 1.2989(6) 0.0767(2) 0.23668(11)
O2 O 0.9585(4) 0.1265(2) 0.20905(8)
H10 H 0.8919(56) 0.0664(20) 0.2316(11)
C8 C 1.1785(6) 0.2095(2) 0.29444(10)
C9 C 0.9783(6) 0.2895(3) 0.30772(11)
H11 H 0.8539(6) 0.3066(3) 0.27966(11)
C10 C 0.9636(7) 0.3437(3) 0.36255(12)
H12 H 0.8311(7) 0.3978(3) 0.37164(12)
C11 C 1.1492(7) 0.3160(3) 0.40333(11)
C12 C 1.3457(7) 0.2367(3) 0.39191(12)
H13 H 1.4669(7) 0.2185(3) 0.42053(12)
C13 C 1.3608(6) 0.1838(3) 0.33671(11)
H14 H 1.4950(6) 0.1304(3) 0.32799(11)
N2 N 1.1323(7) 0.3749(3) 0.46146(11)
O3 O 0.9560(8) 0.4460(3) 0.47110(11)
O4 O 1.2929(7) 0.3477(3) 0.49816(10)
#END
