
#######################################################################
#
#                 Cambridge Crystallographic Data Centre
#                                CCDC
#
#######################################################################
#
# If this CIF has been generated from an entry in the Cambridge
# Structural Database, then it will include bibliographic, chemical,
# crystal, experimental, refinement or atomic coordinate data resulting
# from the CCDC's data processing and validation procedures.
#
#######################################################################

data_CSD_CIF_EGUXEL
_audit_creation_date 2014-06-25
_audit_creation_method CSD-ConQuest-V1
_database_code_CSD EGUXEL
_database_code_depnum_ccdc_archive 'CCDC 987364'
_chemical_formula_sum 'C16 H23 N2 O2'
_chemical_formula_moiety
;
C16 H23 N2 O2
;
_journal_coden_Cambridge 1291
_journal_year 2014
_journal_page_first 4884
_journal_name_full 'Eur.J.Org.Chem. '
loop_
_publ_author_name
"M.C.Lopez"
"Guy Royal"
"C.Philouze"
"Pierre Y.Chavant"
"V.Blandin"
_chemical_name_systematic
;
[2,3,5-trimethyl-5-(4-methylphenyl)-4-oxo-2-(propan-2-yl)imidazolidin-1-yl]oxi
danyl radical
;
_cell_volume   1547.458
_exptl_crystal_colour 'colorless'
_exptl_crystal_density_diffrn 1.182
_exptl_crystal_description 'block'
_diffrn_ambient_temperature 200
#These two values have been output from a single CSD field.
_refine_ls_R_factor_gt 0.0578
_refine_ls_wR_factor_gt 0.0578
_symmetry_cell_setting monoclinic
_symmetry_space_group_name_H-M 'P 21/c'
_symmetry_Int_Tables_number 14
loop_
_symmetry_equiv_pos_site_id
_symmetry_equiv_pos_as_xyz
1 x,y,z
2 -x,1/2+y,1/2-z
3 -x,-y,-z
4 x,-1/2-y,-1/2+z
_cell_length_a 14.601(3)
_cell_length_b 8.2235(16)
_cell_length_c 12.900(3)
_cell_angle_alpha 90
_cell_angle_beta 92.49(3)
_cell_angle_gamma 90
_cell_formula_units_Z 4
loop_
_atom_type_symbol
_atom_type_radius_bond
C 0.68
H 0.23
N 0.68
O 0.68
loop_
_atom_site_label
_atom_site_type_symbol
_atom_site_fract_x
_atom_site_fract_y
_atom_site_fract_z
H1 H 0.028(2) -0.175(3) 1.072(2)
H2 H 0.3210(19) -0.190(3) 1.212(2)
H3 H 0.2026(19) -0.327(4) 1.293(2)
C1 C 0.37361(17) -0.1335(3) 0.9736(2)
H4 H 0.33200 -0.18840 0.92330
H5 H 0.40320 -0.21450 1.01970
H6 H 0.42050 -0.07430 0.93680
C2 C 0.31939(15) -0.0142(3) 1.03778(17)
C3 C 0.31664(16) 0.2841(3) 1.00791(17)
C4 C 0.38348(16) 0.0778(3) 1.11501(17)
C5 C 0.23635(18) 0.3921(3) 1.0392(2)
H7 H 0.26360 0.49640 1.06580
C6 C 0.1842(2) 0.3195(4) 1.1267(2)
H8 H 0.15400 0.21890 1.10290
H9 H 0.13790 0.39710 1.14860
H10 H 0.22690 0.29530 1.18540
C7 C 0.3725(2) 0.3594(3) 0.9234(2)
H11 H 0.42710 0.29310 0.91330
H12 H 0.39100 0.46970 0.94400
H13 H 0.33520 0.36390 0.85840
C8 C 0.1717(2) 0.4358(5) 0.9473(3)
H14 H 0.20630 0.49010 0.89390
H15 H 0.12370 0.50880 0.97060
H16 H 0.14360 0.33650 0.91850
C9 C 0.24214(14) -0.1011(3) 1.09172(17)
C10 C 0.15309(16) -0.1006(3) 1.05035(19)
H17 H 0.13890 -0.04570 0.98690
C11 C 0.08481(18) -0.1799(3) 1.1013(2)
C12 C 0.10183(17) -0.2618(3) 1.1927(2)
C13 C 0.4241(2) 0.3574(4) 1.1612(2)
H18 H 0.45610 0.43290 1.11650
H19 H 0.46880 0.30220 1.20780
H20 H 0.38060 0.41790 1.20220
C14 C 0.26008(18) -0.1867(3) 1.18236(19)
C15 C 0.0273(2) -0.3458(4) 1.2499(3)
H21 H -0.00060 -0.26840 1.29690
H22 H 0.05360 -0.43690 1.29000
H23 H -0.01960 -0.38670 1.19980
C16 C 0.1912(2) -0.2651(3) 1.2315(2)
N1 N 0.37472(13) 0.2373(3) 1.09724(14)
N2 N 0.28476(13) 0.1203(2) 0.97338(13)
O1 O 0.25021(13) 0.0978(2) 0.88234(12)
O2 O 0.43354(12) 0.0142(3) 1.18065(14)
#END
