
#######################################################################
#
#                 Cambridge Crystallographic Data Centre
#                                CCDC
#
#######################################################################
#
# If this CIF has been generated from an entry in the Cambridge
# Structural Database, then it will include bibliographic, chemical,
# crystal, experimental, refinement or atomic coordinate data resulting
# from the CCDC's data processing and validation procedures.
#
#######################################################################

data_CSD_CIF_EGUXAH
_audit_creation_date 2014-06-25
_audit_creation_method CSD-ConQuest-V1
_database_code_CSD EGUXAH
_database_code_depnum_ccdc_archive 'CCDC 987363'
_chemical_formula_sum 'C14 H21 N3 O2'
_chemical_formula_moiety
;
C14 H21 N3 O2
;
_journal_coden_Cambridge 1291
_journal_year 2014
_journal_page_first 4884
_journal_name_full 'Eur.J.Org.Chem. '
loop_
_publ_author_name
"M.C.Lopez"
"Guy Royal"
"C.Philouze"
"Pierre Y.Chavant"
"V.Blandin"
_chemical_name_systematic
;
1-hydroxy-2-isopropyl-2,3,5-trimethyl-5-(pyridin-2-yl)imidazolidin-4-one
;
_cell_volume   1404.050
_exptl_crystal_colour 'colorless'
_exptl_crystal_density_diffrn 1.246
_exptl_crystal_description 'plate'
_diffrn_ambient_temperature 200
#These two values have been output from a single CSD field.
_refine_ls_R_factor_gt 0.0438
_refine_ls_wR_factor_gt 0.0438
_symmetry_cell_setting monoclinic
_symmetry_space_group_name_H-M 'P 21/c'
_symmetry_Int_Tables_number 14
loop_
_symmetry_equiv_pos_site_id
_symmetry_equiv_pos_as_xyz
1 x,y,z
2 -x,1/2+y,1/2-z
3 -x,-y,-z
4 x,-1/2-y,-1/2+z
_cell_length_a 12.191(2)
_cell_length_b 12.173(2)
_cell_length_c 9.6186(19)
_cell_angle_alpha 90
_cell_angle_beta 100.38(3)
_cell_angle_gamma 90
_cell_formula_units_Z 4
loop_
_atom_type_symbol
_atom_type_radius_bond
C 0.68
H 0.23
N 0.68
O 0.68
loop_
_atom_site_label
_atom_site_type_symbol
_atom_site_fract_x
_atom_site_fract_y
_atom_site_fract_z
O1 O 0.33525(7) 0.69755(7) 0.72490(9)
H1 H 0.29270 0.73910 0.67400
O2 O 0.28417(8) 0.39576(8) 1.00598(10)
N1 N 0.27877(7) 0.59712(7) 0.74286(9)
N2 N 0.32286(10) 0.41688(8) 0.78336(11)
N3 N 0.17532(9) 0.67343(9) 1.05064(12)
C1 C 0.17232(9) 0.61253(9) 0.93550(11)
C2 C 0.29460(9) 0.45203(9) 0.90402(12)
C3 C 0.28288(8) 0.57674(9) 0.89554(10)
C4 C 0.07174(10) 0.57913(11) 0.85377(12)
H2 H 0.07150 0.53660 0.77340
C5 C 0.33555(10) 0.50445(9) 0.68255(12)
C6 C 0.38352(9) 0.62597(10) 0.99385(11)
H3 H 0.45100 0.59950 0.96720
H4 H 0.38180 0.60470 1.08950
H5 H 0.38090 0.70460 0.98650
C7 C 0.45889(11) 0.52397(13) 0.68073(14)
H6 H 0.46660 0.58330 0.61740
H7 H 0.49100 0.45850 0.64940
H8 H 0.49670 0.54240 0.77420
C8 C 0.27159(12) 0.47507(11) 0.53342(12)
H9 H 0.30910 0.41150 0.50040
C9 C 0.27274(13) 0.56670(13) 0.42580(13)
H10 H 0.22900 0.62740 0.44880
H11 H 0.24190 0.54000 0.33310
H12 H 0.34810 0.59050 0.42770
C10 C -0.02451(11) 0.67261(11) 1.01188(17)
H13 H -0.09000 0.69480 1.04060
C11 C -0.02764(10) 0.60947(12) 0.89274(14)
H14 H -0.09540 0.58760 0.83940
C12 C 0.35226(16) 0.30258(11) 0.76276(17)
H15 H 0.42980 0.29790 0.75660
H16 H 0.30800 0.27530 0.67700
H17 H 0.33820 0.25930 0.84120
C13 C 0.07757(12) 0.70202(12) 1.08724(18)
H18 H 0.07950 0.74410 1.16830
C14 C 0.15144(14) 0.44193(15) 0.53298(16)
H19 H 0.14920 0.38740 0.60450
H20 H 0.11970 0.41230 0.44220
H21 H 0.10950 0.50520 0.55200
#END
