
#######################################################################
#
#                 Cambridge Crystallographic Data Centre
#                                CCDC
#
#######################################################################
#
# If this CIF has been generated from an entry in the Cambridge
# Structural Database, then it will include bibliographic, chemical,
# crystal, experimental, refinement or atomic coordinate data resulting
# from the CCDC's data processing and validation procedures.
#
#######################################################################

data_CSD_CIF_EGUZIQ
_audit_creation_date 2009-04-10
_audit_creation_method CSD-ConQuest-V1
_database_code_CSD EGUZIQ
_database_code_depnum_ccdc_archive 'CCDC 722964'
_chemical_formula_sum 'C15 H13 N3 O4'
_chemical_formula_moiety
;
C15 H13 N3 O4
;
_journal_coeditor_code "IUCr SJ2574"
_journal_coden_Cambridge 1370
_journal_volume 65
_journal_year 2009
_journal_page_first o577
_journal_name_full 'Acta Crystallogr.,Sect.E:Struct.Rep.Online '
loop_
_publ_author_name
"Ge-Jiang Xiao"
"Chao Wei"
_chemical_name_systematic
;
N'-(2-Methoxybenzylidene)-2-nitrobenzohydrazide
;
_cell_volume    743.073
_exptl_crystal_colour 'colorless'
_exptl_crystal_density_diffrn 1.338
_exptl_special_details
;
Crystals were small and weakly diffracting

;
_exptl_crystal_description 'block'
_diffrn_ambient_temperature 298
#These two values have been output from a single CSD field.
_refine_ls_R_factor_gt 0.0481
_refine_ls_wR_factor_gt 0.0481
_symmetry_cell_setting triclinic
_symmetry_space_group_name_H-M 'P -1'
_symmetry_Int_Tables_number 2
loop_
_symmetry_equiv_pos_site_id
_symmetry_equiv_pos_as_xyz
1 x,y,z
2 -x,-y,-z
_cell_length_a 7.491(2)
_cell_length_b 9.427(3)
_cell_length_c 10.977(3)
_cell_angle_alpha 91.748(4)
_cell_angle_beta 106.218(4)
_cell_angle_gamma 92.221(4)
_cell_formula_units_Z 2
loop_
_atom_type_symbol
_atom_type_radius_bond
C 0.68
H 0.23
N 0.68
O 0.68
loop_
_atom_site_label
_atom_site_type_symbol
_atom_site_fract_x
_atom_site_fract_y
_atom_site_fract_z
O1 O 0.6095(2) 0.83513(13) 0.54829(12)
O2 O 0.1921(2) 0.69215(17) 0.37644(16)
O3 O 0.1059(2) 0.54863(19) 0.2124(2)
O4 O 0.32257(18) 1.20069(12) 0.01171(11)
N1 N 0.4749(2) 0.90208(15) 0.35161(13)
N2 N 0.3966(2) 0.86740(14) 0.22397(12)
N3 N 0.2239(2) 0.60480(19) 0.30207(19)
C1 C 0.5624(2) 0.65719(17) 0.38490(14)
C2 C 0.4158(2) 0.56387(18) 0.32220(16)
C3 C 0.4423(3) 0.43069(18) 0.27844(17)
H1 H 0.34080 0.37090 0.23600
C4 C 0.6193(3) 0.3869(2) 0.29785(19)
H2 H 0.63920 0.29670 0.26900
C5 C 0.7670(3) 0.4760(2) 0.35974(18)
H3 H 0.88750 0.44630 0.37250
C6 C 0.7390(2) 0.6095(2) 0.40340(16)
H4 H 0.84110 0.66840 0.44610
C7 C 0.5456(3) 0.80422(18) 0.43443(16)
C8 C 0.3456(2) 0.97399(17) 0.15700(15)
H5 H 0.36910 1.06450 0.19580
C9 C 0.2516(2) 0.95924(17) 0.02188(15)
C10 C 0.2377(2) 1.07927(19) -0.05146(15)
C11 C 0.1419(3) 1.0699(2) -0.17899(17)
H6 H 0.13280 1.14990 -0.22750
C12 C 0.0606(3) 0.9428(3) -0.2335(2)
H7 H -0.00410 0.93710 -0.31930
C13 C 0.0727(3) 0.8231(2) -0.1637(2)
H8 H 0.01700 0.73700 -0.20200
C14 C 0.1680(3) 0.8317(2) -0.03657(18)
H9 H 0.17630 0.75080 0.01070
C15 C 0.3219(4) 1.3252(2) -0.0573(2)
H10 H 0.38220 1.30860 -0.12270
H11 H 0.38740 1.40190 -0.00090
H12 H 0.19580 1.34970 -0.09530
H13 H 0.462(3) 0.9897(13) 0.3841(18)
#END
