
#######################################################################
#
#                 Cambridge Crystallographic Data Centre
#                                CCDC
#
#######################################################################
#
# If this CIF has been generated from an entry in the Cambridge
# Structural Database, then it will include bibliographic, chemical,
# crystal, experimental, refinement or atomic coordinate data resulting
# from the CCDC's data processing and validation procedures.
#
#######################################################################

data_CSD_CIF_EHAQUB
_audit_creation_date 2016-03-18
_audit_creation_method CSD-ConQuest-V1
_database_code_CSD EHAQUB
_database_code_depnum_ccdc_archive 'CCDC 1429169'
_chemical_formula_sum 'C23 H27 N3 O5'
_chemical_formula_moiety
;
C23 H27 N3 O5
;
_journal_coden_Cambridge 179
_journal_volume 55
_journal_year 2016
_journal_page_first 3081
_journal_name_full 'Angew.Chem.,Int.Ed. '
loop_
_publ_author_name
"Siu Min Tan"
"A.C.Willis"
"M.N.Paddon-Row"
"M.S.Sherburn"
_chemical_name_systematic
;
2-methyl-9-(morpholin-4-yl)-8-nitro-7-phenyl-3a,4,6,7,8,9,9a,9b-octahydro-1H-b
enzo[e]isoindole-1,3(2H)-dione
;
_cell_volume   2116.674
_exptl_crystal_colour 'colorless'
_exptl_crystal_density_diffrn 1.335
_exptl_crystal_description 'plate'
_diffrn_ambient_temperature 200
#These two values have been output from a single CSD field.
_refine_ls_R_factor_gt 0.0448
_refine_ls_wR_factor_gt 0.0448
_symmetry_cell_setting monoclinic
_symmetry_space_group_name_H-M 'P 21/a'
_symmetry_Int_Tables_number 14
loop_
_symmetry_equiv_pos_site_id
_symmetry_equiv_pos_as_xyz
1 x,y,z
2 1/2-x,1/2+y,-z
3 -x,-y,-z
4 -1/2+x,-1/2-y,z
_cell_length_a 18.7467(9)
_cell_length_b 5.9881(2)
_cell_length_c 18.8722(10)
_cell_angle_alpha 90
_cell_angle_beta 92.404(3)
_cell_angle_gamma 90
_cell_formula_units_Z 4
loop_
_atom_type_symbol
_atom_type_radius_bond
C 0.68
H 0.23
N 0.68
O 0.68
loop_
_atom_site_label
_atom_site_type_symbol
_atom_site_fract_x
_atom_site_fract_y
_atom_site_fract_z
C1 C 0.39707(9) 0.7452(3) 0.24228(9)
C2 C 0.36641(10) 0.7520(3) 0.31662(9)
C3 C 0.42352(10) 0.7732(3) 0.37678(9)
C4 C 0.47418(11) 0.5726(4) 0.37234(10)
C5 C 0.50495(10) 0.5491(3) 0.30037(10)
C6 C 0.57421(11) 0.5166(4) 0.29182(11)
C7 C 0.60702(11) 0.4717(4) 0.22203(11)
C8 C 0.55198(10) 0.3875(3) 0.16504(11)
C9 C 0.57917(10) 0.4449(3) 0.09318(11)
N1 N 0.55108(8) 0.6512(3) 0.07451(8)
C10 C 0.50141(10) 0.7251(3) 0.12221(10)
C11 C 0.48224(10) 0.5228(3) 0.16629(10)
C12 C 0.45034(10) 0.5476(3) 0.23918(10)
N2 N 0.34425(8) 0.7277(3) 0.18323(8)
C13 C 0.31587(10) 0.9368(3) 0.15359(10)
C14 C 0.28056(11) 0.8895(4) 0.08137(11)
O1 O 0.22529(7) 0.7274(2) 0.08679(8)
C15 C 0.25398(12) 0.5241(4) 0.11470(12)
C16 C 0.28815(10) 0.5596(3) 0.18804(11)
N3 N 0.31629(9) 0.9482(3) 0.32040(8)
O2 O 0.34201(9) 1.1367(3) 0.31952(8)
O3 O 0.25234(8) 0.9118(3) 0.32370(8)
C17 C 0.39006(10) 0.7931(3) 0.44848(10)
C18 C 0.40148(12) 0.9797(4) 0.49067(11)
C19 C 0.36931(13) 0.9990(4) 0.55554(12)
C20 C 0.32473(13) 0.8324(4) 0.57807(11)
C21 C 0.31269(12) 0.6464(4) 0.53643(11)
C22 C 0.34507(12) 0.6268(4) 0.47230(11)
O4 O 0.62047(8) 0.3402(2) 0.05786(8)
C23 C 0.57380(11) 0.7844(4) 0.01491(10)
O5 O 0.47910(7) 0.9148(2) 0.12262(7)
H1 H 0.42360 0.88600 0.23600
H2 H 0.33700 0.61840 0.32350
H3 H 0.45090 0.90990 0.36820
H4 H 0.51210 0.58730 0.40890
H5 H 0.44660 0.43480 0.38120
H6 H 0.60590 0.51900 0.33280
H7 H 0.64530 0.35930 0.22850
H8 H 0.62920 0.61000 0.20470
H9 H 0.54440 0.22720 0.17040
H10 H 0.44660 0.44690 0.13530
H11 H 0.42180 0.41010 0.24540
H12 H 0.35590 1.04990 0.15060
H13 H 0.27950 1.00880 0.18390
H14 H 0.25860 1.02650 0.06120
H15 H 0.31690 0.83240 0.05010
H16 H 0.29070 0.46450 0.08270
H17 H 0.21510 0.41550 0.11740
H18 H 0.30850 0.42020 0.20650
H19 H 0.25070 0.60820 0.22100
H20 H 0.43110 1.09730 0.47530
H21 H 0.37690 1.12840 0.58310
H22 H 0.30190 0.84480 0.62160
H23 H 0.28190 0.53210 0.55080
H24 H 0.33670 0.49720 0.44520
H25 H 0.61230 0.70540 -0.00630
H26 H 0.59170 0.92880 0.03090
H27 H 0.53450 0.80600 -0.01820
#END
