
#######################################################################
#
#                 Cambridge Crystallographic Data Centre
#                                CCDC
#
#######################################################################
#
# If this CIF has been generated from an entry in the Cambridge
# Structural Database, then it will include bibliographic, chemical,
# crystal, experimental, refinement or atomic coordinate data resulting
# from the CCDC's data processing and validation procedures.
#
#######################################################################

data_CSD_CIF_EHAXOC
_audit_creation_date 2016-03-18
_audit_creation_method CSD-ConQuest-V1
_database_code_CSD EHAXOC
_database_code_depnum_ccdc_archive 'CCDC 1444675'
_chemical_formula_sum 'C18 H19 N1 O5'
_chemical_formula_moiety
;
C18 H19 N1 O5
;
_journal_coden_Cambridge 1366
_journal_volume 358
_journal_year 2016
_journal_page_first 874
_journal_name_full 'Adv.Synth.Catal. '
loop_
_publ_author_name
"Qing-Yun Dou"
"Yong-Qiang Tu"
"Ye Zhang"
"Jin-Miao Tian"
"Fu-Min Zhang"
"Shao-Hua Wang"
_chemical_name_systematic
;
benzyl 5-hydroxy-3-(2-methoxyphenyl)-1,2-oxazolidine-2-carboxylate
;
_cell_volume   1582.884
_exptl_crystal_colour 'colorless'
_exptl_crystal_density_diffrn 1.382
_exptl_crystal_description 'block'
_diffrn_ambient_temperature 295
#These two values have been output from a single CSD field.
_refine_ls_R_factor_gt 0.0452
_refine_ls_wR_factor_gt 0.0452
_symmetry_cell_setting monoclinic
_symmetry_space_group_name_H-M 'P 21/c'
_symmetry_Int_Tables_number 14
loop_
_symmetry_equiv_pos_site_id
_symmetry_equiv_pos_as_xyz
1 x,y,z
2 -x,1/2+y,1/2-z
3 -x,-y,-z
4 x,-1/2-y,-1/2+z
_cell_length_a 10.0113(3)
_cell_length_b 10.5080(3)
_cell_length_c 15.8303(5)
_cell_angle_alpha 90
_cell_angle_beta 108.104(4)
_cell_angle_gamma 90
_cell_formula_units_Z 4
loop_
_atom_type_symbol
_atom_type_radius_bond
C 0.68
H 0.23
N 0.68
O 0.68
loop_
_atom_site_label
_atom_site_type_symbol
_atom_site_fract_x
_atom_site_fract_y
_atom_site_fract_z
O1 O 0.78365(13) -0.03474(11) -0.00120(8)
O2 O 0.48083(12) 0.34012(12) -0.01745(7)
H1 H 0.41950 0.39320 -0.02040
O3 O 0.66645(12) 0.38481(11) 0.11144(7)
O4 O 0.75968(12) 0.53908(11) 0.00961(8)
O5 O 0.85014(12) 0.37034(11) -0.04275(7)
N1 N 0.76731(14) 0.34091(13) 0.07142(8)
C1 C 0.88488(17) 0.00131(16) 0.0746(1)
C2 C 0.99866(18) -0.07403(18) 0.12146(12)
H2 H 1.01070 -0.15440 0.10040
C3 C 1.09324(19) -0.02923(19) 0.19905(12)
H3 H 1.16890 -0.07980 0.22990
C4 C 1.07689(19) 0.08984(19) 0.23147(11)
H4 H 1.13970 0.11880 0.28450
C5 C 0.96481(18) 0.16624(18) 0.18355(10)
H5 H 0.95430 0.24690 0.20480
C6 C 0.86928(17) 0.12436(16) 0.10529(10)
C7 C 0.74585(17) 0.20311(16) 0.05219(10)
H6 H 0.73000 0.18860 -0.01130
C8 C 0.60850(18) 0.17612(17) 0.07408(12)
H7 H 0.54720 0.11980 0.03040
H8 H 0.62790 0.13850 0.13260
C9 C 0.54464(18) 0.30629(17) 0.07067(11)
H9 H 0.47770 0.30910 0.10460
C10 C 0.78633(16) 0.42648(16) 0.01104(10)
C11 C 0.86817(19) 0.45288(19) -0.11198(12)
H10 H 0.92850 0.41080 -0.14090
H11 H 0.91480 0.53050 -0.08500
C12 C 0.73132(18) 0.48681(17) -0.18097(11)
C13 C 0.60582(19) 0.42611(19) -0.18765(11)
H12 H 0.60460 0.35900 -0.14960
C14 C 0.4824(2) 0.4640(2) -0.25022(12)
H13 H 0.39850 0.42340 -0.25330
C15 C 0.4828(2) 0.5616(2) -0.30797(12)
H14 H 0.39940 0.58720 -0.34980
C16 C 0.6074(2) 0.62147(19) -0.30359(13)
H15 H 0.60830 0.68640 -0.34330
C17 C 0.7311(2) 0.58493(18) -0.24015(12)
H16 H 0.81470 0.62620 -0.23700
C18 C 0.7958(2) -0.15840(17) -0.03555(13)
H17 H 0.72050 -0.17140 -0.08980
H18 H 0.79100 -0.22170 0.00710
H19 H 0.88420 -0.16520 -0.04710
#END
