
#######################################################################
#
#                 Cambridge Crystallographic Data Centre
#                                CCDC
#
#######################################################################
#
# If this CIF has been generated from an entry in the Cambridge
# Structural Database, then it will include bibliographic, chemical,
# crystal, experimental, refinement or atomic coordinate data resulting
# from the CCDC's data processing and validation procedures.
#
#######################################################################

data_CSD_CIF_EHEMIP
_audit_creation_date 2016-03-18
_audit_creation_method CSD-ConQuest-V1
_database_code_CSD EHEMIP
_database_code_depnum_ccdc_archive 'CCDC 1429161'
_chemical_formula_sum 'C26 H28 N2 O4'
_chemical_formula_moiety
;
C26 H28 N2 O4
;
_journal_coden_Cambridge 179
_journal_volume 55
_journal_year 2016
_journal_page_first 3081
_journal_name_full 'Angew.Chem.,Int.Ed. '
loop_
_publ_author_name
"Siu Min Tan"
"A.C.Willis"
"M.N.Paddon-Row"
"M.S.Sherburn"
_chemical_name_systematic
;
Methyl 
1-benzyl-8-nitro-7-phenyl-1,2,2a,3,4,6,7,8,8a,8b-decahydrobenzo[cd]indole-3-ca
rboxylate
;
_cell_volume   2240.716
_exptl_crystal_colour 'colorless'
_exptl_crystal_density_diffrn 1.282
_exptl_crystal_description 'needle'
_exptl_crystal_preparation 'methanol/dichloromethane'
_diffrn_ambient_temperature 200
#These two values have been output from a single CSD field.
_refine_ls_R_factor_gt 0.0456
_refine_ls_wR_factor_gt 0.0456
_symmetry_cell_setting orthorhombic
_symmetry_space_group_name_H-M 'P n a 21'
_symmetry_Int_Tables_number 33
loop_
_symmetry_equiv_pos_site_id
_symmetry_equiv_pos_as_xyz
1 x,y,z
2 1/2-x,1/2+y,1/2+z
3 1/2+x,1/2-y,z
4 -x,-y,1/2+z
_cell_length_a 29.8521(7)
_cell_length_b 14.0075(4)
_cell_length_c 5.3586(1)
_cell_angle_alpha 90
_cell_angle_beta 90
_cell_angle_gamma 90
_cell_formula_units_Z 4
loop_
_atom_type_symbol
_atom_type_radius_bond
C 0.68
H 0.23
N 0.68
O 0.68
loop_
_atom_site_label
_atom_site_type_symbol
_atom_site_fract_x
_atom_site_fract_y
_atom_site_fract_z
N1 N 0.62288(9) 0.38040(18) 0.5172(6)
C1 C 0.58752(11) 0.3110(2) 0.4489(8)
C2 C 0.61451(10) 0.2192(2) 0.4162(7)
C3 C 0.59375(11) 0.1199(2) 0.4088(7)
C4 C 0.63232(11) 0.0487(2) 0.3609(9)
C5 C 0.67559(11) 0.0730(2) 0.4941(8)
C6 C 0.68261(10) 0.1537(2) 0.6197(7)
C7 C 0.64549(10) 0.2244(2) 0.6408(7)
C8 C 0.65961(10) 0.3287(2) 0.6443(7)
C9 C 0.70379(10) 0.3327(2) 0.5053(7)
C10 C 0.7421(1) 0.2833(2) 0.6496(8)
C11 C 0.72531(11) 0.1839(2) 0.7423(8)
C12 C 0.78353(10) 0.2798(2) 0.4885(7)
C13 C 0.81605(11) 0.3508(2) 0.5057(8)
C14 C 0.85219(12) 0.3527(3) 0.3450(8)
C15 C 0.85629(12) 0.2841(3) 0.1603(8)
C16 C 0.82471(11) 0.2123(3) 0.1415(8)
C17 C 0.78884(11) 0.2102(2) 0.3046(8)
C18 C 0.55756(13) 0.1090(3) 0.2162(8)
O1 O 0.56282(10) 0.0859(4) 0.0078(7)
O2 O 0.51784(9) 0.1245(2) 0.3084(6)
C19 C 0.47988(13) 0.1120(3) 0.1404(11)
C20 C 0.60616(12) 0.4638(2) 0.6512(8)
C21 C 0.58123(11) 0.5337(2) 0.4870(7)
C22 C 0.60089(12) 0.5690(3) 0.2741(8)
C23 C 0.57976(13) 0.6382(3) 0.1323(8)
C24 C 0.53865(13) 0.6721(3) 0.2018(8)
C25 C 0.51832(12) 0.6362(3) 0.4132(8)
C26 C 0.53911(12) 0.5668(2) 0.5557(8)
N2 N 0.71607(10) 0.4343(2) 0.4486(7)
O3 O 0.71668(10) 0.4588(2) 0.2282(6)
O4 O 0.72371(10) 0.48816(19) 0.6221(7)
H1 H 0.57150 0.33140 0.29780
H2 H 0.56560 0.30380 0.58430
H3 H 0.63300 0.22820 0.26520
H4 H 0.58130 0.10520 0.56930
H5 H 0.63900 0.04780 0.18220
H6 H 0.62310 -0.01500 0.41410
H7 H 0.69930 0.02770 0.48140
H8 H 0.62750 0.21120 0.78980
H9 H 0.66470 0.35290 0.81560
H10 H 0.70130 0.30070 0.34560
H11 H 0.74800 0.32420 0.79540
H12 H 0.74860 0.13580 0.71370
H13 H 0.71930 0.18760 0.92120
H14 H 0.81290 0.40110 0.62510
H15 H 0.87390 0.40130 0.35910
H16 H 0.88080 0.28580 0.05340
H17 H 0.82750 0.16520 0.02100
H18 H 0.76760 0.16150 0.29630
H19 H 0.45420 0.13990 0.21600
H20 H 0.48520 0.14320 -0.01660
H21 H 0.47420 0.04510 0.11330
H22 H 0.63210 0.49560 0.72290
H23 H 0.58630 0.44250 0.78260
H24 H 0.62980 0.54600 0.22450
H25 H 0.59430 0.66180 -0.01120
H26 H 0.52420 0.71980 0.10980
H27 H 0.49000 0.65900 0.45770
H28 H 0.52480 0.54240 0.69720
#END
