
#######################################################################
#
#                 Cambridge Crystallographic Data Centre
#                                CCDC
#
#######################################################################
#
# If this CIF has been generated from an entry in the Cambridge
# Structural Database, then it will include bibliographic, chemical,
# crystal, experimental, refinement or atomic coordinate data resulting
# from the CCDC's data processing and validation procedures.
#
#######################################################################

data_CSD_CIF_EHIKEM
_audit_creation_date 2011-03-30
_audit_creation_method CSD-ConQuest-V1
_database_code_CSD EHIKEM
_database_code_depnum_ccdc_archive 'CCDC 750271'
_chemical_formula_sum 'C21 H25 N1 O5'
_chemical_formula_moiety
;
C21 H25 N1 O5
;
_journal_coden_Cambridge 692
_journal_volume 2010
_journal_year 2010
_journal_page_first 1303
_journal_name_full 'Synthesis '
loop_
_publ_author_name
"R.Ghosh"
"J.K.Maity"
"M.G.B.Drew"
"B.Achari"
"S.B.Mandal"
_chemical_name_systematic
;
1-Benzyl-5-(benzyloxy)-4-(hydroxymethyl)hexahydro-1H-cyclopenta[c][1,2]oxazole
-4,6-diol
;
_cell_volume   1860.578
_exptl_crystal_colour 'white'
_exptl_crystal_density_diffrn 1.326
_exptl_crystal_description 'needle'
_diffrn_ambient_temperature 150
#These two values have been output from a single CSD field.
_refine_ls_R_factor_gt 0.0522
_refine_ls_wR_factor_gt 0.0522
_symmetry_cell_setting orthorhombic
_symmetry_space_group_name_H-M 'P 21 21 21'
_symmetry_Int_Tables_number 19
loop_
_symmetry_equiv_pos_site_id
_symmetry_equiv_pos_as_xyz
1 x,y,z
2 1/2-x,-y,1/2+z
3 -x,1/2+y,1/2-z
4 1/2+x,1/2-y,-z
_cell_length_a 5.3774(4)
_cell_length_b 12.0047(14)
_cell_length_c 28.822(4)
_cell_angle_alpha 90
_cell_angle_beta 90
_cell_angle_gamma 90
_cell_formula_units_Z 4
loop_
_atom_type_symbol
_atom_type_radius_bond
C 0.68
H 0.23
N 0.68
O 0.68
loop_
_atom_site_label
_atom_site_type_symbol
_atom_site_fract_x
_atom_site_fract_y
_atom_site_fract_z
C1 C 1.0058(4) 0.22928(18) 0.31821(8)
H1 H 1.15380 0.27030 0.30930
H2 H 0.92960 0.26580 0.34460
C2 C 0.8252(4) 0.22172(17) 0.27811(8)
H3 H 0.71350 0.28620 0.27760
C3 C 0.9446(4) 0.20209(17) 0.22921(8)
C4 C 0.9110(4) 0.07549(17) 0.22101(8)
H4 H 1.04340 0.03490 0.23710
C5 C 0.6640(4) 0.05133(17) 0.24433(8)
H5 H 0.53070 0.08420 0.22560
C6 C 0.6814(4) 0.11419(17) 0.28971(8)
H6 H 0.51560 0.13130 0.30190
C7 C 0.7117(4) 0.0499(2) 0.37058(8)
H7 H 0.53500 0.03690 0.36670
H8 H 0.73260 0.12170 0.38550
C8 C 0.8203(5) -0.0400(2) 0.40107(8)
C9 C 1.0312(5) -0.0217(2) 0.42768(9)
H9 H 1.10770 0.04770 0.42730
C10 C 1.1291(6) -0.1065(3) 0.45496(11)
H10 H 1.27040 -0.09350 0.47280
C11 C 1.0177(6) -0.2095(2) 0.45569(10)
H11 H 1.08430 -0.26610 0.47380
C12 C 0.8072(6) -0.2289(2) 0.42955(10)
H12 H 0.73130 -0.29850 0.43000
C13 C 0.7103(5) -0.1443(2) 0.40267(9)
H13 H 0.56790 -0.15760 0.38520
C14 C 0.8083(4) 0.26878(18) 0.19150(8)
H14 H 0.89000 0.25700 0.16190
H15 H 0.63880 0.24190 0.18890
C15 C 1.1390(4) 0.0269(2) 0.15297(8)
H16 H 1.24070 -0.02220 0.17180
H17 H 1.22230 0.09840 0.15080
C16 C 1.1077(6) -0.0213(2) 0.10583(10)
C17 C 0.9031(7) 0.0064(3) 0.07887(10)
H18 H 0.78290 0.05370 0.09110
C18 C 0.8721(10) -0.0348(5) 0.03395(14)
H19 H 0.73270 -0.01510 0.01670
C19 C 1.0382(15) -0.1003(5) 0.0164(2)
H20 H 1.01980 -0.12330 -0.01420
C20 C 1.2441(13) -0.1383(3) 0.0415(2)
H21 H 1.35210 -0.19070 0.02890
C21 C 1.2847(8) -0.0929(3) 0.08813(13)
H22 H 1.42510 -0.11180 0.10520
O1 O 1.0658(3) 0.11530(12) 0.32892(6)
O2 O 1.2020(3) 0.22807(13) 0.22765(5)
H23 H 1.22140 0.29490 0.23220
O3 O 0.8051(3) 0.38594(12) 0.20186(6)
H24 H 0.73150 0.39630 0.22640
O4 O 0.9020(3) 0.04077(13) 0.17403(6)
O5 O 0.6173(3) -0.06456(11) 0.24929(5)
H25 H 0.54520 -0.08770 0.22610
N1 N 0.8331(3) 0.05216(15) 0.32463(7)
#END
