
#######################################################################
#
#                 Cambridge Crystallographic Data Centre
#                                CCDC
#
#######################################################################
#
# If this CIF has been generated from an entry in the Cambridge
# Structural Database, then it will include bibliographic, chemical,
# crystal, experimental, refinement or atomic coordinate data resulting
# from the CCDC's data processing and validation procedures.
#
#######################################################################

data_CSD_CIF_EHIPUH
_audit_creation_date 2011-08-04
_audit_creation_method CSD-ConQuest-V1
_database_code_CSD EHIPUH
_database_code_depnum_ccdc_archive 'CCDC 751811'
_chemical_formula_sum 'C18 H23 N1 O6'
_chemical_formula_moiety
;
C18 H23 N1 O6
;
_journal_coden_Cambridge 1336
_journal_volume 12
_journal_year 2010
_journal_page_first 2642
_journal_name_full 'Org.Lett. '
loop_
_publ_author_name
"Ping-Hsun Lu"
"Ching-Shung Yang"
"B.Devendar"
"Chun-Chen Liao"
_chemical_name_systematic
;
3-((7,7-Dimethyl-2-oxobicyclo[2.2.1]hept-1-yl)carbonyl)-5,5-dimethoxy-2-oxa-3-
azabicyclo[2.2.2]oct-7-en-6-one
;
_cell_volume   1751.436
_exptl_crystal_colour 'colorless'
_exptl_crystal_density_diffrn 1.325
_exptl_crystal_description 'acicular'
_diffrn_ambient_temperature 296
#These two values have been output from a single CSD field.
_refine_ls_R_factor_gt 0.0378
_refine_ls_wR_factor_gt 0.0378
_symmetry_cell_setting tetragonal
_symmetry_space_group_name_H-M 'P 41'
_symmetry_Int_Tables_number 76
loop_
_symmetry_equiv_pos_site_id
_symmetry_equiv_pos_as_xyz
1 x,y,z
2 -x,-y,1/2+z
3 -y,x,1/4+z
4 y,-x,3/4+z
_cell_length_a 12.3603(4)
_cell_length_b 12.3603(4)
_cell_length_c 11.4640(4)
_cell_angle_alpha 90
_cell_angle_beta 90
_cell_angle_gamma 90
_cell_formula_units_Z 4
loop_
_atom_type_symbol
_atom_type_radius_bond
C 0.68
H 0.23
N 0.68
O 0.68
loop_
_atom_site_label
_atom_site_type_symbol
_atom_site_fract_x
_atom_site_fract_y
_atom_site_fract_z
C1 C 0.1482(2) 0.8393(2) 0.2809(2)
C2 C 0.25847(19) 0.78861(19) 0.2578(2)
C3 C 0.2346(3) 0.6647(2) 0.2522(2)
H1 H 0.17190 0.64990 0.20400
H2 H 0.29620 0.62530 0.22160
C4 C 0.2129(3) 0.6341(3) 0.3815(3)
H3 H 0.14240 0.60070 0.39050
H4 H 0.26790 0.58530 0.41080
C5 C 0.2177(2) 0.7429(2) 0.4434(2)
H5 H 0.22630 0.73780 0.52820
C6 C 0.1186(2) 0.8078(3) 0.4045(2)
H6 H 0.05360 0.76380 0.40610
H7 H 0.10800 0.87110 0.45310
C7 C 0.3115(2) 0.8028(2) 0.3805(2)
C8 C 0.4207(2) 0.7471(3) 0.3932(3)
H8 H 0.43900 0.74190 0.47440
H9 H 0.47490 0.78840 0.35320
H10 H 0.41680 0.67590 0.36010
C9 C 0.3224(2) 0.9203(2) 0.4221(2)
H11 H 0.26030 0.96090 0.39760
H12 H 0.38650 0.95170 0.38910
H13 H 0.32740 0.92170 0.50570
C10 C 0.31771(18) 0.83968(19) 0.1567(2)
C11 C 0.3365(2) 0.86310(19) -0.0562(2)
H14 H 0.40530 0.90040 -0.04250
C12 C 0.3447(2) 0.7852(2) -0.1594(2)
C13 C 0.2304(2) 0.7374(2) -0.1767(2)
C14 C 0.1552(2) 0.7764(2) -0.0819(2)
H15 H 0.08290 0.74480 -0.09090
C15 C 0.1511(2) 0.8963(2) -0.0908(3)
H16 H 0.08740 0.93490 -0.10260
C16 C 0.2468(3) 0.9425(2) -0.0803(2)
H17 H 0.25780 1.01670 -0.08710
C17 C 0.4670(2) 0.8998(3) -0.2641(3)
H18 H 0.45620 0.96610 -0.22210
H19 H 0.48760 0.91580 -0.34300
H20 H 0.52320 0.85850 -0.22720
C18 C 0.4505(3) 0.6318(3) -0.2205(3)
H21 H 0.38900 0.58800 -0.24030
H22 H 0.50830 0.58630 -0.19390
H23 H 0.47360 0.67150 -0.28800
N1 N 0.30357(16) 0.79965(17) 0.04678(16)
O1 O 0.09741(15) 0.89553(15) 0.21533(19)
O2 O 0.38375(14) 0.91236(15) 0.17065(15)
O3 O 0.20587(15) 0.74020(15) 0.02645(14)
O4 O 0.36855(13) 0.83840(14) -0.26412(14)
O5 O 0.42115(14) 0.70610(15) -0.12978(16)
O6 O 0.20531(14) 0.67773(16) -0.25525(16)
#END
