
#######################################################################
#
#                 Cambridge Crystallographic Data Centre
#                                CCDC
#
#######################################################################
#
# If this CIF has been generated from an entry in the Cambridge
# Structural Database, then it will include bibliographic, chemical,
# crystal, experimental, refinement or atomic coordinate data resulting
# from the CCDC's data processing and validation procedures.
#
#######################################################################

data_CSD_CIF_EHOJOA
_audit_creation_date 2003-09-30
_audit_creation_method CSD-ConQuest-V1
_database_code_CSD EHOJOA
_database_code_depnum_ccdc_archive 'CCDC 199984'
_chemical_formula_sum 'C30 H20 N2 O2'
_chemical_formula_moiety
;
C30 H20 N2 O2
;
_journal_coden_Cambridge 98
_journal_volume 68
_journal_year 2003
_journal_page_first 865
_journal_name_full 'Collect.Czech.Chem.Commun. '
loop_
_publ_author_name
"J.P.H.Charmant"
"N.J.Hunt"
"G.C.Lloyd-Jones"
"T.Nowak"
_chemical_name_systematic
;
2,2'-bis(Pyrid-2-yl)-1,1'-binaphthyl N,N'-dioxide
;
_cell_volume   2152.220
_exptl_crystal_colour 'colorless'
_exptl_crystal_density_diffrn 1.359
_exptl_crystal_description 'needle'
_diffrn_ambient_temperature 173
#These two values have been output from a single CSD field.
_refine_ls_R_factor_gt 0.0756
_refine_ls_wR_factor_gt 0.0756
_symmetry_cell_setting monoclinic
_symmetry_space_group_name_H-M 'C 2/c'
_symmetry_Int_Tables_number 15
loop_
_symmetry_equiv_pos_site_id
_symmetry_equiv_pos_as_xyz
1 x,y,z
2 1/2+x,1/2+y,z
3 x,-y,1/2+z
4 1/2+x,1/2-y,1/2+z
5 -x,-y,-z
6 -1/2-x,-1/2-y,-z
7 -x,y,-1/2-z
8 -1/2-x,-1/2+y,-1/2-z
_cell_length_a 10.399(7)
_cell_length_b 19.745(13)
_cell_length_c 10.925(7)
_cell_angle_alpha 90
_cell_angle_beta 106.375(12)
_cell_angle_gamma 90
_cell_formula_units_Z 4
loop_
_atom_type_symbol
_atom_type_radius_bond
C 0.68
H 0.23
N 0.68
O 0.68
loop_
_atom_site_label
_atom_site_type_symbol
_atom_site_fract_x
_atom_site_fract_y
_atom_site_fract_z
N1 N 0.1554(4) 0.0969(3) 0.3327(4)
O1 O 0.1725(4) 0.0819(2) 0.2201(3)
C1 C 0.1501(5) 0.0441(3) 0.4132(5)
H1 H 0.15940 -0.00120 0.38770
C2 C 0.1309(5) 0.0572(3) 0.5318(5)
H2 H 0.12880 0.02100 0.58870
C3 C 0.1147(5) 0.1234(3) 0.5663(5)
H3 H 0.09940 0.13290 0.64630
C4 C 0.1208(5) 0.1753(3) 0.4844(5)
H4 H 0.10940 0.22070 0.50840
C5 C 0.1435(5) 0.1625(3) 0.3664(5)
C6 C 0.1608(5) 0.2168(3) 0.2785(4)
C7 C 0.2837(5) 0.2175(3) 0.2446(5)
H5 H 0.34980 0.18390 0.27700
C8 C 0.3060(5) 0.2671(3) 0.1652(5)
H6 H 0.38930 0.26790 0.14540
C9 C 0.2096(5) 0.3167(3) 0.1120(5)
C10 C 0.2257(6) 0.3656(3) 0.0226(5)
H7 H 0.30850 0.36760 0.00190
C11 C 0.1279(6) 0.4093(3) -0.0341(5)
H8 H 0.14120 0.44000 -0.09640
C12 C 0.0054(6) 0.4101(3) -0.0020(5)
H9 H -0.06320 0.44140 -0.04120
C13 C -0.0127(5) 0.3644(3) 0.0877(5)
H10 H -0.09430 0.36530 0.11060
C14 C 0.0858(5) 0.3164(3) 0.1462(5)
C15 C 0.0659(5) 0.2658(3) 0.2327(4)
C15F C -0.0659(5) 0.2658(3) 0.2673(4)
C6F C -0.1608(5) 0.2168(3) 0.2215(4)
C5F C -0.1435(5) 0.1625(3) 0.1336(5)
N1F N -0.1554(4) 0.0969(3) 0.1673(4)
O1F O -0.1725(4) 0.0819(2) 0.2799(3)
C1F C -0.1501(5) 0.0441(3) 0.0868(5)
H1F H -0.15940 -0.00120 0.11230
C2F C -0.1309(5) 0.0572(3) -0.0318(5)
H2F H -0.12880 0.02100 -0.08870
C3F C -0.1147(5) 0.1234(3) -0.0663(5)
H3F H -0.09940 0.13290 -0.14630
C4F C -0.1208(5) 0.1753(3) 0.0156(5)
H4F H -0.10940 0.22070 -0.00840
C7F C -0.2837(5) 0.2175(3) 0.2554(5)
H5F H -0.34980 0.18390 0.22300
C8F C -0.3060(5) 0.2671(3) 0.3348(5)
H6F H -0.38930 0.26790 0.35460
C9F C -0.2096(5) 0.3167(3) 0.3880(5)
C10F C -0.2257(6) 0.3656(3) 0.4774(5)
H7F H -0.30850 0.36760 0.49810
C11F C -0.1279(6) 0.4093(3) 0.5341(5)
H8F H -0.14120 0.44000 0.59640
C12F C -0.0054(6) 0.4101(3) 0.5020(5)
H9F H 0.06320 0.44140 0.54120
C13F C 0.0127(5) 0.3644(3) 0.4123(5)
H10F H 0.09430 0.36530 0.38940
C14F C -0.0858(5) 0.3164(3) 0.3538(5)
#END
