
#######################################################################
#
#                 Cambridge Crystallographic Data Centre
#                                CCDC
#
#######################################################################
#
# If this CIF has been generated from an entry in the Cambridge
# Structural Database, then it will include bibliographic, chemical,
# crystal, experimental, refinement or atomic coordinate data resulting
# from the CCDC's data processing and validation procedures.
#
#######################################################################

data_CSD_CIF_EHOKAN
_audit_creation_date 2003-09-30
_audit_creation_method CSD-ConQuest-V1
_database_code_CSD EHOKAN
_database_code_depnum_ccdc_archive 'CCDC 199965'
_chemical_formula_sum 'C20 H29 N1 O7'
_chemical_formula_moiety
;
C20 H29 N1 O7
;
_journal_coden_Cambridge 98
_journal_volume 68
_journal_year 2003
_journal_page_first 951
_journal_name_full 'Collect.Czech.Chem.Commun. '
loop_
_publ_author_name
"I.Blanarikova-Hlobilova"
"L.Fisera"
"N.Pronayova"
"M.Koman"
_chemical_name_systematic
;
(3R,5S)-2-Benzyl-3-((2S,4R,5R)-5-hydroxy-2-methyl-1,3-dioxan-4-yl)-5-((2R,4S,5
R)-5-hydroxy-2-methyl-1,3-dioxan-4-yl)isoxazolidine
;
_chemical_melting_point 428.15
_cell_volume   1021.424
_exptl_crystal_colour 'colorless'
_exptl_crystal_density_diffrn 1.273
_exptl_special_details
;
Melting point range 428.15-429.15K

;
_exptl_crystal_description 'rectangle shape'
_diffrn_ambient_temperature 293
#These two values have been output from a single CSD field.
_refine_ls_R_factor_gt 0.0676
_refine_ls_wR_factor_gt 0.0676
_symmetry_cell_setting monoclinic
_symmetry_space_group_name_H-M 'P 21'
_symmetry_Int_Tables_number 4
loop_
_symmetry_equiv_pos_site_id
_symmetry_equiv_pos_as_xyz
1 x,y,z
2 -x,1/2+y,-z
_cell_length_a 12.627(3)
_cell_length_b 6.372(1)
_cell_length_c 13.263(3)
_cell_angle_alpha 90
_cell_angle_beta 106.83(3)
_cell_angle_gamma 90
_cell_formula_units_Z 2
loop_
_atom_type_symbol
_atom_type_radius_bond
C 0.68
H 0.23
N 0.68
O 0.68
loop_
_atom_site_label
_atom_site_type_symbol
_atom_site_fract_x
_atom_site_fract_y
_atom_site_fract_z
O1 O 0.20392(11) 0.2959(3) 0.14983(10)
O2 O 0.32509(17) 0.4661(3) 0.59028(12)
O3 O 0.31024(11) 0.1999(2) 0.46699(9)
O4 O 0.48105(14) 0.4789(3) 0.46600(15)
O5 O -0.0518(2) -0.1641(5) 0.2821(3)
O6 O 0.06641(12) 0.1007(3) 0.26309(13)
O7 O 0.0728(2) -0.3172(4) 0.07607(17)
N1 N 0.31525(13) 0.3654(3) 0.20357(12)
C1 C 0.34485(14) 0.2337(3) 0.29927(12)
C2 C 0.29056(15) 0.0214(3) 0.26519(13)
C3 C 0.19749(15) 0.0706(4) 0.16449(13)
C4 C 0.26467(19) 0.2896(4) 0.54311(16)
C5 C 0.30254(15) 0.3442(3) 0.38220(13)
C6 C 0.3690(2) 0.5388(4) 0.42778(16)
C7 C 0.3244(2) 0.6251(4) 0.51465(19)
C8 C 0.2705(3) 0.1287(5) 0.6279(2)
C9 C -0.0391(2) 0.0549(7) 0.2729(3)
C10 C 0.08312(18) 0.0124(4) 0.16923(16)
C11 C 0.0678(2) -0.2267(5) 0.1716(2)
C12 C -0.0437(3) -0.2715(8) 0.1880(4)
C13 C 0.38755(17) 0.3162(4) 0.13772(16)
C14 C 0.36344(17) 0.4444(4) 0.03783(15)
C15 C 0.3921(2) 0.3638(5) -0.04830(19)
C16 C 0.3752(3) 0.4855(7) -0.13891(19)
C17 C 0.3303(3) 0.6806(7) -0.1447(2)
C18 C 0.3015(3) 0.7617(6) -0.0608(3)
C19 C 0.3183(2) 0.6435(5) 0.03119(19)
C20 C -0.0493(4) 0.1550(9) 0.3725(4)
H1 H 0.42770 0.22240 0.32390
H2 H 0.26150 -0.02580 0.31520
H3 H 0.34310 -0.08610 0.25100
H4 H 0.21550 -0.00520 0.10050
H5 H 0.18440 0.33390 0.49570
H6 H 0.22450 0.38650 0.35050
H7 H 0.35920 0.64750 0.37770
H8 H 0.24850 0.67340 0.47960
H9 H 0.37040 0.73290 0.54780
H10 H 0.52220 0.58160 0.47960
H11 H 0.22750 -0.00370 0.59880
H12 H 0.22870 0.18590 0.67310
H13 H 0.34710 0.10260 0.65840
H14 H -0.09870 0.09920 0.20370
H15 H 0.02450 0.07150 0.10690
H16 H 0.12820 -0.28280 0.22770
H17 H -0.10890 -0.22060 0.12740
H18 H -0.06150 -0.41330 0.18770
H19 H 0.09980 -0.47100 0.07200
H20 H 0.38490 0.15910 0.11610
H21 H 0.46600 0.33420 0.18040
H22 H -0.03210 0.28350 0.37920
H23 H 0.42270 0.21820 -0.05530
H24 H 0.39360 0.41480 -0.18950
H25 H 0.30830 0.76520 -0.20270
H26 H 0.27450 0.89270 -0.06930
H27 H 0.29140 0.68620 0.08230
H28 H -0.12550 0.12690 0.36860
H29 H 0.01130 0.07810 0.43360
#END
