
#######################################################################
#
#                 Cambridge Crystallographic Data Centre
#                                CCDC
#
#######################################################################
#
# If this CIF has been generated from an entry in the Cambridge
# Structural Database, then it will include bibliographic, chemical,
# crystal, experimental, refinement or atomic coordinate data resulting
# from the CCDC's data processing and validation procedures.
#
#######################################################################

data_CSD_CIF_EHUPII
_audit_creation_date 2016-03-21
_audit_creation_method CSD-ConQuest-V1
_database_code_CSD EHUPII
_database_code_depnum_ccdc_archive 'CCDC 1453241'
_chemical_formula_sum 'C30 H31 N5 O8'
_chemical_formula_moiety
;
C30 H31 N5 O8
;
_journal_coden_Cambridge 4
_journal_volume 138
_journal_year 2016
_journal_page_first 3282
_journal_name_full 'J.Am.Chem.Soc. '
loop_
_publ_author_name
"J.Izquierdo"
"A.Landa"
"I.Bastida"
"R.Lopez"
"M.Oiarbide"
"C.Palomo"
_chemical_name_systematic
;
Di-t-butyl 
1-(cyano(1-oxidopyridin-2-yl)phenylmethyl)-2-(4-nitrobenzoyl)hydrazine-1,2-dic
arboxylate
;
_cell_volume   1526.065
_exptl_crystal_colour 'colorless'
_exptl_crystal_density_diffrn 1.283
_exptl_special_details
;
Absolute configuration

;
_exptl_crystal_description 'plate'
_diffrn_ambient_temperature 150.0
#These two values have been output from a single CSD field.
_refine_ls_R_factor_gt 0.0389
_refine_ls_wR_factor_gt 0.0389
_symmetry_cell_setting monoclinic
_symmetry_space_group_name_H-M 'P 21'
_symmetry_Int_Tables_number 4
loop_
_symmetry_equiv_pos_site_id
_symmetry_equiv_pos_as_xyz
1 x,y,z
2 -x,1/2+y,-z
_cell_length_a 10.8427(2)
_cell_length_b 11.51906(18)
_cell_length_c 12.7877(3)
_cell_angle_alpha 90
_cell_angle_beta 107.159(2)
_cell_angle_gamma 90
_cell_formula_units_Z 2
loop_
_atom_type_symbol
_atom_type_radius_bond
C 0.68
H 0.23
N 0.68
O 0.68
loop_
_atom_site_label
_atom_site_type_symbol
_atom_site_fract_x
_atom_site_fract_y
_atom_site_fract_z
O1 O -0.05371(18) 0.31733(17) 0.25072(16)
O2 O 0.22340(19) 0.34061(17) 0.12714(16)
O3 O 0.21580(19) 0.20598(17) 0.54623(16)
O4 O 0.2807(2) 0.5204(2) 0.08598(18)
O5 O -0.0403(2) 0.4403(2) 0.11492(17)
O6 O 0.1046(2) 0.64373(18) 0.2881(2)
O7 O 0.6808(2) 0.9142(2) 0.2510(2)
N1 N 0.1252(2) 0.41776(18) 0.27252(19)
N2 N 0.1310(2) 0.2888(2) 0.53824(18)
C1 C 0.1900(3) 0.6101(2) 0.2529(2)
N3 N 0.2015(2) 0.49062(19) 0.23176(19)
C2 C 0.1835(3) 0.2240(2) 0.3402(2)
C3 C 0.0017(3) 0.3947(2) 0.2026(2)
C4 C 0.2396(3) 0.4545(2) 0.1396(2)
C5 C 0.2518(3) 0.7993(3) 0.1955(3)
H1 H 0.16260 0.81830 0.17250
C6 C 0.0267(3) 0.4594(2) 0.4518(2)
H2 H 0.01440 0.51610 0.39570
C7 C 0.1864(2) 0.3494(2) 0.3732(2)
N4 N 0.5666(3) 0.9381(3) 0.2165(3)
C8 C -0.0390(3) 0.4696(3) 0.5291(2)
H3 H -0.09540 0.53320 0.52730
C9 C 0.0639(3) 0.2963(3) 0.6126(2)
H4 H 0.07600 0.23890 0.66800
N5 N 0.1811(3) 0.1323(2) 0.3049(2)
C10 C 0.3556(3) 0.4799(3) 0.4972(3)
H5 H 0.28820 0.51880 0.51650
C11 C 0.5133(3) 0.7450(3) 0.2713(3)
H6 H 0.60290 0.72820 0.29880
C12 C 0.1102(2) 0.3674(2) 0.4553(2)
C13 C 0.3272(3) 0.3876(2) 0.4243(2)
C14 C 0.4707(3) 0.8512(3) 0.2244(3)
C15 C 0.2910(3) 0.6908(2) 0.2385(2)
C16 C -0.0209(3) 0.3854(3) 0.6090(3)
H7 H -0.06720 0.38930 0.66140
O8 O 0.5269(3) 1.0321(3) 0.1757(3)
C17 C 0.3414(3) 0.8800(3) 0.1861(3)
H8 H 0.31510 0.95380 0.15390
C18 C 0.2276(3) 0.2856(3) 0.0224(3)
C19 C 0.4216(3) 0.6638(3) 0.2770(2)
H9 H 0.44800 0.58930 0.30740
C20 C 0.4266(3) 0.3339(3) 0.3951(3)
H10 H 0.40800 0.27180 0.34390
C21 C 0.4822(3) 0.5155(3) 0.5418(3)
H11 H 0.50110 0.57800 0.59250
C22 C 0.5530(3) 0.3704(3) 0.4403(3)
H12 H 0.62080 0.33240 0.42080
C23 C 0.5810(3) 0.4615(3) 0.5136(3)
H13 H 0.66760 0.48680 0.54420
C24 C 0.3655(4) 0.2827(4) 0.0192(3)
H14 H 0.39760 0.36230 0.01960
H15 H 0.36960 0.24300 -0.04750
H16 H 0.41890 0.24100 0.08350
C25 C -0.2732(3) 0.3955(4) 0.1969(4)
H17 H -0.24420 0.43990 0.26510
H18 H -0.36430 0.37480 0.18270
H19 H -0.26270 0.44260 0.13630
C26 C -0.1926(3) 0.2851(3) 0.2072(3)
C27 C -0.2092(3) 0.2082(3) 0.2974(3)
H20 H -0.15210 0.14070 0.30560
H21 H -0.29910 0.18190 0.27910
H22 H -0.18740 0.25190 0.36620
C28 C -0.2138(4) 0.2204(5) 0.1019(3)
H23 H -0.20060 0.27290 0.04590
H24 H -0.30210 0.19000 0.07810
H25 H -0.15240 0.15580 0.11270
C29 C 0.1386(4) 0.3502(4) -0.0733(3)
H26 H 0.05890 0.37060 -0.05630
H27 H 0.11810 0.30070 -0.13850
H28 H 0.18130 0.42120 -0.08700
C30 C 0.1770(6) 0.1658(4) 0.0341(4)
H29 H 0.23120 0.12980 0.10150
H30 H 0.17900 0.11820 -0.02890
H31 H 0.08810 0.17160 0.03730
#END
