
#######################################################################
#
#                 Cambridge Crystallographic Data Centre
#                                CCDC
#
#######################################################################
#
# If this CIF has been generated from an entry in the Cambridge
# Structural Database, then it will include bibliographic, chemical,
# crystal, experimental, refinement or atomic coordinate data resulting
# from the CCDC's data processing and validation procedures.
#
#######################################################################

data_CSD_CIF_EHUXOU
_audit_creation_date 2003-09-29
_audit_creation_method CSD-ConQuest-V1
_database_code_CSD EHUXOU
_database_code_depnum_ccdc_archive 'CCDC 192726'
_chemical_formula_sum 'C23 H18 N2 O2'
_chemical_formula_moiety
;
C23 H18 N2 O2
;
_journal_coden_Cambridge 392
_journal_volume 60
_journal_year 2003
_journal_page_first 857
_journal_name_full 'Heterocycles '
loop_
_publ_author_name
"F.Risitano"
"G.Grassi"
"F.Foti"
"G.Bruno"
"A.Rotondo"
_chemical_name_systematic
;
4'-(4-Methylphenyl)-3'-phenyl-4'H-spiro(indole-3,5'-isoxazol)-2(1H)-one
;
_chemical_melting_point 514.15
_cell_volume   1763.923
_exptl_crystal_colour 'colorless'
_exptl_crystal_density_diffrn 1.334
_exptl_crystal_description 'prism'
_diffrn_ambient_temperature 293
#These two values have been output from a single CSD field.
_refine_ls_R_factor_gt 0.0467
_refine_ls_wR_factor_gt 0.0467
_symmetry_cell_setting monoclinic
_symmetry_space_group_name_H-M 'P 21/c'
_symmetry_Int_Tables_number 14
loop_
_symmetry_equiv_pos_site_id
_symmetry_equiv_pos_as_xyz
1 x,y,z
2 -x,1/2+y,1/2-z
3 -x,-y,-z
4 x,-1/2-y,-1/2+z
_cell_length_a 11.719(2)
_cell_length_b 5.6055(9)
_cell_length_c 27.071(5)
_cell_angle_alpha 90
_cell_angle_beta 97.295(11)
_cell_angle_gamma 90
_cell_formula_units_Z 4
loop_
_atom_type_symbol
_atom_type_radius_bond
C 0.68
H 0.23
N 0.68
O 0.68
loop_
_atom_site_label
_atom_site_type_symbol
_atom_site_fract_x
_atom_site_fract_y
_atom_site_fract_z
O1 O 0.10939(13) 0.2610(3) -0.00224(5)
C1 C 0.07791(17) 0.2787(4) 0.03907(8)
N1 N -0.00378(16) 0.1468(4) 0.05694(7)
C2 C -0.02202(18) 0.2238(4) 0.10476(8)
C3 C -0.0974(2) 0.1279(5) 0.13478(9)
C4 C -0.1032(2) 0.2435(6) 0.18034(10)
C5 C -0.0377(2) 0.4399(6) 0.19446(10)
C6 C 0.0404(2) 0.5266(6) 0.16423(10)
C7 C 0.04837(18) 0.4149(4) 0.11943(8)
C8 C 0.13065(18) 0.4440(4) 0.08147(8)
O2 O 0.14232(13) 0.6862(3) 0.06508(6)
N2 N 0.25851(16) 0.7287(4) 0.05703(7)
C9 C 0.32058(18) 0.5516(4) 0.07352(7)
C10 C 0.25727(17) 0.3602(4) 0.09781(8)
C11 C 0.29092(17) 0.3412(4) 0.15356(8)
C12 C 0.2607(2) 0.1390(5) 0.17792(10)
C13 C 0.2831(3) 0.1232(7) 0.22961(11)
C14 C 0.3365(2) 0.3056(6) 0.25763(9)
C15 C 0.3685(2) 0.5039(6) 0.23304(9)
C16 C 0.3451(2) 0.5235(5) 0.18146(8)
C17 C 0.3602(3) 0.2879(7) 0.31454(9)
H1 H 0.39790 0.43060 0.32760
H2 H 0.40880 0.15280 0.32360
H3 H 0.28880 0.26910 0.32800
C18 C 0.44512(18) 0.5457(4) 0.06978(7)
C19 C 0.4998(2) 0.7304(5) 0.04808(8)
C20 C 0.6164(2) 0.7175(6) 0.04444(9)
C21 C 0.6795(2) 0.5244(6) 0.06212(9)
C22 C 0.6265(2) 0.3406(6) 0.08368(9)
C23 C 0.5095(2) 0.3500(5) 0.08755(8)
H4 H -0.040(2) 0.009(5) 0.0417(9)
H5 H -0.145(2) -0.023(4) 0.1246(8)
H6 H -0.153(2) 0.174(5) 0.2035(9)
H7 H -0.045(2) 0.522(5) 0.2279(11)
H8 H 0.0858(19) 0.663(4) 0.1735(8)
H9 H 0.2699(17) 0.205(4) 0.0839(7)
H10 H 0.220(2) 0.000(5) 0.1589(9)
H11 H 0.262(2) -0.031(5) 0.2454(10)
H12 H 0.406(2) 0.635(5) 0.2501(9)
H13 H 0.364(2) 0.672(4) 0.1645(8)
H14 H 0.4551(18) 0.859(4) 0.0365(8)
H15 H 0.647(2) 0.853(5) 0.0301(10)
H16 H 0.671(2) 0.207(4) 0.0969(8)
H17 H 0.758(2) 0.515(4) 0.0586(8)
H18 H 0.4740(18) 0.215(4) 0.1019(8)
H19? H 0.33240 0.13770 0.32520
H20? H 0.32160 0.41550 0.32920
H21? H 0.44150 0.29920 0.32480
#END
