
#######################################################################
#
#                 Cambridge Crystallographic Data Centre
#                                CCDC
#
#######################################################################
#
# If this CIF has been generated from an entry in the Cambridge
# Structural Database, then it will include bibliographic, chemical,
# crystal, experimental, refinement or atomic coordinate data resulting
# from the CCDC's data processing and validation procedures.
#
#######################################################################

data_CSD_CIF_EIMTNB
_audit_creation_date 1978-09-01
_audit_creation_method CSD-ConQuest-V1
_database_code_CSD EIMTNB
_chemical_formula_sum 'C8 H6 N4 O6'
_chemical_formula_moiety
;
C8 H6 N4 O6
;
_journal_coeditor_code "IUCr A14509"
_journal_coden_Cambridge 107
_journal_volume 33
_journal_year 1977
_journal_page_first 848
_journal_name_full 'Acta Crystallogr.,Sect.B:Struct.Crystallogr.Cryst.Chem. '
loop_
_publ_author_name
"J.C.Barnes"
"J.Iball"
"W.R.Smith"
_chemical_name_systematic
;
1-Ethyleneimino-2,4,6-trinitrobenzene
;
_cell_volume   1014.665
_exptl_crystal_density_diffrn 1.634
_diffrn_ambient_temperature ?
_diffrn_special_details
;
The study was carried out at room temperature,in the range 283-303K

;
#These two values have been output from a single CSD field.
_refine_ls_R_factor_gt 0.067
_refine_ls_wR_factor_gt 0.067
_symmetry_cell_setting monoclinic
_symmetry_space_group_name_H-M 'P 21/c'
_symmetry_Int_Tables_number 14
loop_
_symmetry_equiv_pos_site_id
_symmetry_equiv_pos_as_xyz
1 x,y,z
2 -x,1/2+y,1/2-z
3 -x,-y,-z
4 x,-1/2-y,-1/2+z
_cell_length_a 4.715(4)
_cell_length_b 30.48(3)
_cell_length_c 7.119(7)
_cell_angle_alpha 90
_cell_angle_beta 97.36
_cell_angle_gamma 90
_cell_formula_units_Z 4
loop_
_atom_type_symbol
_atom_type_radius_bond
C 0.68
H 0.23
N 0.68
O 0.68
loop_
_atom_site_label
_atom_site_type_symbol
_atom_site_fract_x
_atom_site_fract_y
_atom_site_fract_z
C1 C 0.08610 -0.39560 0.39930
C2 C -0.03620 -0.35810 0.30210
C3 C 0.04720 -0.31560 0.34820
C4 C 0.25870 -0.30920 0.49640
C5 C 0.38590 -0.34370 0.60120
C6 C 0.29350 -0.38570 0.55240
C7 C 0.00320 -0.45440 0.15510
C8 C 0.20820 -0.47210 0.31490
N1 N 0.00240 -0.43760 0.34760
N2 N -0.25640 -0.36300 0.13940
N3 N 0.35360 -0.26440 0.54570
N4 N 0.43550 -0.42070 0.67240
O1 O -0.23710 -0.33860 0.00620
O2 O -0.44610 -0.38990 0.14630
O3 O 0.20950 -0.23440 0.47420
O4 O 0.57520 -0.26040 0.65650
O5 O 0.29210 -0.45190 0.71140
O6 O 0.68810 -0.41620 0.72870
H1 H 0.51000 -0.34100 0.68900
H2 H -0.02400 -0.29800 0.27200
H3 H -0.18000 -0.46800 0.11600
H4 H 0.07600 -0.43200 0.06900
H5 H 0.36100 -0.46500 0.31300
H6 H 0.15900 -0.49900 0.36700
#END
