
#######################################################################
#
#                 Cambridge Crystallographic Data Centre
#                                CCDC
#
#######################################################################
#
# If this CIF has been generated from an entry in the Cambridge
# Structural Database, then it will include bibliographic, chemical,
# crystal, experimental, refinement or atomic coordinate data resulting
# from the CCDC's data processing and validation procedures.
#
#######################################################################

data_CSD_CIF_EJEHOQ
_audit_creation_date 2003-09-30
_audit_creation_method CSD-ConQuest-V1
_database_code_CSD EJEHOQ
_database_code_depnum_ccdc_archive 'CCDC 217153'
_chemical_formula_sum 'C23 H23 N1 O6'
_chemical_formula_moiety
;
C23 H23 N1 O6
;
_journal_coeditor_code "IUCr SQ1014"
_journal_coden_Cambridge 591
_journal_volume 59
_journal_year 2003
_journal_page_first o392
_journal_name_full 'Acta Crystallogr.,Sect.C:Cryst.Struct.Commun. '
loop_
_publ_author_name
"Shi-Ping Yang"
"Xi-Bin Yu"
"Ji-Guang Huang"
"Han-Hong Xu"
_chemical_name_systematic
;
1,2,12,12a-Tetrahydro-8,9-dimethoxy-2-(1-methylethenyl)-(1)benzopyrano(3,4-b)f
uro(2,3-h)(1)benzopyran-6(6H)-one oxime
;
_chemical_name_common
;
Rotenone alpha-oxime
;
_cell_volume   2008.413
_exptl_crystal_colour 'colorless'
_exptl_crystal_density_diffrn 1.354
_exptl_crystal_description 'block'
_exptl_crystal_preparation 'ethanol'
_diffrn_ambient_temperature 293
_refine_special_details
;
The 1-methylethenyl group is disordered over two sites with occupancies 
0.67:0.33.
;
#These two values have been output from a single CSD field.
_refine_ls_R_factor_gt 0.0643
_refine_ls_wR_factor_gt 0.0643
_symmetry_cell_setting orthorhombic
_symmetry_space_group_name_H-M 'P 21 21 21'
_symmetry_Int_Tables_number 19
loop_
_symmetry_equiv_pos_site_id
_symmetry_equiv_pos_as_xyz
1 x,y,z
2 1/2-x,-y,1/2+z
3 -x,1/2+y,1/2-z
4 1/2+x,1/2-y,-z
_cell_length_a 9.3994(10)
_cell_length_b 14.4249(15)
_cell_length_c 14.8129(15)
_cell_angle_alpha 90
_cell_angle_beta 90
_cell_angle_gamma 90
_cell_formula_units_Z 4
loop_
_atom_type_symbol
_atom_type_radius_bond
C 0.68
H 0.23
N 0.68
O 0.68
loop_
_atom_site_label
_atom_site_type_symbol
_atom_site_fract_x
_atom_site_fract_y
_atom_site_fract_z
O1 O 0.6503(2) 0.23309(13) 0.40322(14)
O2 O 0.4105(3) 0.42961(16) 0.20925(16)
O3 O 0.6491(3) 0.10248(14) 0.55298(15)
O4 O 0.4778(3) 0.36803(18) 0.79789(15)
O5 O 0.3752(3) 0.19250(17) 0.80945(16)
O6 O 0.9159(4) 0.4260(3) 0.6143(3)
H1 H 0.95620 0.47230 0.63360
N1 N 0.8257(3) 0.45078(19) 0.54257(18)
C1 C 0.7683(3) 0.3842(2) 0.5071(2)
C2 C 0.7814(3) 0.2848(2) 0.5396(2)
C3 C 0.7751(4) 0.2172(2) 0.4598(2)
C4 C 0.6219(3) 0.3223(2) 0.38031(19)
C5 C 0.6752(4) 0.3992(2) 0.4291(2)
C6 C 0.6347(4) 0.4882(2) 0.4015(2)
H2 H 0.66980 0.53910 0.43290
C7 C 0.5452(4) 0.5028(2) 0.3298(2)
H3 H 0.51920 0.56240 0.31240
C8 C 0.4942(4) 0.4251(2) 0.2839(2)
C9 C 0.5322(3) 0.3365(2) 0.3080(2)
C10 C 0.4700(4) 0.2713(2) 0.2392(2)
H4 H 0.42170 0.21970 0.26790
H5 H 0.54270 0.24760 0.19880
C11 C 0.3649(4) 0.3343(2) 0.1888(2)
C12 C 0.7646(4) 0.1198(2) 0.4931(2)
H6 H 0.75570 0.07890 0.44150
H7 H 0.85250 0.10420 0.52380
C13 C 0.6131(3) 0.1715(2) 0.61266(19)
C14 C 0.6674(3) 0.2598(2) 0.60868(19)
C15 C 0.6176(3) 0.3242(2) 0.6713(2)
H8 H 0.65200 0.38470 0.66900
C16 C 0.5197(4) 0.3016(2) 0.7363(2)
C17 C 0.4687(4) 0.2100(2) 0.7409(2)
C18 C 0.5135(4) 0.1458(2) 0.6784(2)
H9 H 0.47750 0.08580 0.67980
C19 C 0.3383(4) 0.4028(3) 0.7860(3)
H10 H 0.33150 0.43220 0.72800
H11 H 0.31760 0.44720 0.83250
H12 H 0.27130 0.35270 0.78930
C20 C 0.3421(5) 0.0970(3) 0.8281(3)
H13 H 0.30450 0.06830 0.77470
H14 H 0.27280 0.09390 0.87560
H15 H 0.42690 0.06510 0.84650
C21 C 0.3621(5) 0.3226(3) 0.0903(2)
C22 C 0.4512(16) 0.3683(13) 0.0332(14)
H16 H 0.51490 0.41280 0.05940
H17 H 0.44840 0.36020 -0.03110
C23? C 0.479(4) 0.328(3) 0.038(3)
H18? H 0.56880 0.34830 0.06200
H19? H 0.46900 0.31840 -0.02600
C24 C 0.2313(13) 0.2932(11) 0.0563(9)
H20 H 0.23340 0.28610 -0.00810
H21? H 0.19880 0.23670 0.08360
H22 H 0.16780 0.34280 0.07200
C25? C 0.2866(17) 0.2443(12) 0.0591(15)
H23? H 0.29130 0.24240 -0.00570
H24? H 0.32220 0.18710 0.08330
H25 H 0.18960 0.25270 0.07760
H26 H 0.90190 0.27810 0.56790
H27 H 0.87200 0.22010 0.42260
H28 H 0.27010 0.32990 0.20740
#END
