
#######################################################################
#
#                 Cambridge Crystallographic Data Centre
#                                CCDC
#
#######################################################################
#
# If this CIF has been generated from an entry in the Cambridge
# Structural Database, then it will include bibliographic, chemical,
# crystal, experimental, refinement or atomic coordinate data resulting
# from the CCDC's data processing and validation procedures.
#
#######################################################################

data_CSD_CIF_EJEXUO
_audit_creation_date 2016-03-22
_audit_creation_method CSD-ConQuest-V1
_database_code_CSD EJEXUO
_database_code_depnum_ccdc_archive 'CCDC 1451359'
_chemical_formula_sum 'C15 H19 N7 O3'
_chemical_formula_moiety
;
C15 H19 N7 O3
;
_journal_coden_Cambridge 24
_journal_volume 57
_journal_year 2016
_journal_page_first 1949
_journal_name_full 'Tetrahedron Lett. '
loop_
_publ_author_name
"I.Efimov"
"N.Beliaev"
"T.Beryozkina"
"P.Slepukhin"
"V.Bakulev"
_chemical_name_systematic
;
1-cyclopentyl-1-(morpholin-4-yl)-N-(8-nitrotetrazolo[1,5-a]pyridin-5-yl)methan
imine
;
_cell_volume    803.501
_exptl_crystal_colour 'orange'
_exptl_crystal_density_diffrn 1.428
_exptl_crystal_description 'prism'
_diffrn_ambient_temperature 295
#These two values have been output from a single CSD field.
_refine_ls_R_factor_gt 0.0407
_refine_ls_wR_factor_gt 0.0407
_symmetry_cell_setting triclinic
_symmetry_space_group_name_H-M 'P -1'
_symmetry_Int_Tables_number 2
loop_
_symmetry_equiv_pos_site_id
_symmetry_equiv_pos_as_xyz
1 x,y,z
2 -x,-y,-z
_cell_length_a 9.6422(16)
_cell_length_b 9.7994(11)
_cell_length_c 9.9546(14)
_cell_angle_alpha 63.272(13)
_cell_angle_beta 76.258(13)
_cell_angle_gamma 75.028(12)
_cell_formula_units_Z 2
loop_
_atom_type_symbol
_atom_type_radius_bond
C 0.68
H 0.23
N 0.68
O 0.68
loop_
_atom_site_label
_atom_site_type_symbol
_atom_site_fract_x
_atom_site_fract_y
_atom_site_fract_z
N1 N 1.14616(13) 1.00504(14) -0.41388(13)
C1 C 0.96552(16) 0.59526(19) 0.21364(16)
H1 H 1.04040 0.61780 0.24690
H2 H 0.98560 0.48530 0.23720
O1 O 1.58240(15) 0.96016(15) -0.72370(15)
N2 N 1.02916(14) 1.11371(17) -0.40163(16)
O2 O 1.43685(13) 1.17942(17) -0.79247(14)
C2 C 0.82083(17) 0.6352(2) 0.29567(18)
H3 H 0.81960 0.57100 0.40370
H4 H 0.80620 0.74270 0.28040
O3 O 0.70555(12) 0.61357(13) 0.24600(12)
C3 C 0.70487(17) 0.71016(19) 0.08960(18)
H5 H 0.68920 0.81770 0.07430
H6 H 0.62510 0.69640 0.05570
N3 N 1.05098(17) 1.24013(17) -0.51897(18)
C4 C 0.84343(16) 0.67521(19) -0.00367(18)
H7 H 0.85380 0.57180 0.00180
H8 H 0.84100 0.74840 -0.10900
N4 N 1.17710(16) 1.22250(15) -0.60897(15)
N5 N 1.46721(16) 1.04362(18) -0.70622(15)
C5 C 1.23681(16) 1.07379(17) -0.54297(15)
N6 N 1.06533(14) 0.80871(16) -0.19184(14)
C6 C 1.36474(16) 0.97985(17) -0.57417(15)
N7 N 0.96750(12) 0.68490(13) 0.04972(13)
C7 C 1.39080(19) 0.8266(2) -0.47660(19)
H9 H 1.4767(18) 0.7659(18) -0.4990(17)
C8 C 1.29580(18) 0.7635(2) -0.3459(2)
H10 H 1.3182(19) 0.655(2) -0.280(2)
C9 C 1.17039(17) 0.85227(18) -0.30809(16)
C10 C 1.08009(15) 0.74451(15) -0.04873(16)
C11 C 1.20922(16) 0.75431(17) 0.00410(17)
H11 H 1.2700(15) 0.7916(15) -0.0829(16)
C12 C 1.29873(17) 0.60546(19) 0.10972(19)
H12 H 1.24690 0.51910 0.15210
H13 H 1.39150 0.57870 0.05500
C13 C 1.3197(2) 0.6452(3) 0.2347(2)
H14 H 1.25030 0.60510 0.32490
H15 H 1.41690 0.60150 0.26150
C14 C 1.2955(2) 0.8200(3) 0.1690(2)
H16 H 1.26820 0.85690 0.24880
H17 H 1.38190 0.85900 0.10490
C15 C 1.17386(17) 0.8688(2) 0.0778(2)
H18 H 1.17180 0.97460 0.00140
H19 H 1.08100 0.86090 0.14270
#END
