
#######################################################################
#
#                 Cambridge Crystallographic Data Centre
#                                CCDC
#
#######################################################################
#
# If this CIF has been generated from an entry in the Cambridge
# Structural Database, then it will include bibliographic, chemical,
# crystal, experimental, refinement or atomic coordinate data resulting
# from the CCDC's data processing and validation procedures.
#
#######################################################################

data_CSD_CIF_EJOXAC
_audit_creation_date 2003-11-07
_audit_creation_method CSD-ConQuest-V1
_database_code_CSD EJOXAC
_database_code_depnum_ccdc_archive 'CCDC 215534'
_chemical_formula_sum 'C10 H12 N2 O3'
_chemical_formula_moiety
;
C10 H12 N2 O3
;
_journal_coden_Cambridge 119
_journal_volume 615
_journal_year 2002
_journal_page_first 97
_journal_name_full 'J.Mol.Struct. '
loop_
_publ_author_name
"A.Filarowski"
"A.Koll"
"T.Glowiak"
_chemical_name_systematic
;
4-Methyl-2-nitro-6-(1-(methylamino)ethylidene)cyclohexa-2,4-dienone
;
_cell_volume   1002.880
_exptl_crystal_colour 'yellow'
_exptl_crystal_density_diffrn 1.379
_exptl_special_details
;
The paper incorrectly named this structure 6-(1-(ethylamino)ethylidene)

;
_exptl_crystal_preparation 'methanol'
_diffrn_ambient_temperature 293
_refine_special_details
;
The nitro group is equally disordered over two positions.

;
#These two values have been output from a single CSD field.
_refine_ls_R_factor_gt 0.041
_refine_ls_wR_factor_gt 0.041
_symmetry_cell_setting orthorhombic
_symmetry_space_group_name_H-M 'P b n 21'
_symmetry_Int_Tables_number 33
loop_
_symmetry_equiv_pos_site_id
_symmetry_equiv_pos_as_xyz
1 x,y,z
2 -x,-y,1/2+z
3 1/2-x,1/2+y,z
4 1/2+x,1/2-y,1/2+z
_cell_length_a 12.987(3)
_cell_length_b 10.994(3)
_cell_length_c 7.024(2)
_cell_angle_alpha 90
_cell_angle_beta 90
_cell_angle_gamma 90
_cell_formula_units_Z 4
loop_
_atom_type_symbol
_atom_type_radius_bond
C 0.68
N 0.68
O 0.68
loop_
_atom_site_label
_atom_site_type_symbol
_atom_site_fract_x
_atom_site_fract_y
_atom_site_fract_z
O1 O 0.3478(1) 0.0055(1) 0.2491(8)
O2 O 0.1701(8) 0.2333(10) 0.1206(17)
O3 O 0.1866(7) 0.1618(11) 0.4014(15)
O4? O 0.1799(7) 0.1782(11) 0.1000(12)
O5? O 0.1740(7) 0.2298(12) 0.3893(11)
N1 N 0.5267(1) -0.0838(1) 0.2475(7)
N2 N 0.2218(1) 0.2060(1) 0.2516(8)
C1 C 0.3913(1) 0.1101(1) 0.2484(7)
C2 C 0.5009(1) 0.1283(1) 0.2459(8)
C3 C 0.5411(1) 0.2467(1) 0.2446(9)
C4 C 0.4814(1) 0.3497(1) 0.2491(10)
C5 C 0.3740(1) 0.3344(1) 0.2489(10)
C6 C 0.3338(1) 0.2198(1) 0.2489(8)
C7 C 0.5689(1) 0.0229(1) 0.2510(9)
C8 C 0.6833(1) 0.0363(2) 0.2442(13)
C9 C 0.5785(2) -0.2007(2) 0.2478(10)
C10 C 0.5298(2) 0.4747(2) 0.2411(11)
#END
