
#######################################################################
#
#                 Cambridge Crystallographic Data Centre
#                                CCDC
#
#######################################################################
#
# If this CIF has been generated from an entry in the Cambridge
# Structural Database, then it will include bibliographic, chemical,
# crystal, experimental, refinement or atomic coordinate data resulting
# from the CCDC's data processing and validation procedures.
#
#######################################################################

data_CSD_CIF_EJOYAD
_audit_creation_date 2003-11-07
_audit_creation_method CSD-ConQuest-V1
_database_code_CSD EJOYAD
_database_code_depnum_ccdc_archive 'CCDC 100235'
_chemical_formula_sum 'C9 H9 N1 O3'
_chemical_formula_moiety
;
C9 H9 N1 O3
;
_journal_coden_Cambridge 1220
_journal_volume 3
_journal_year 1997
_journal_page_first 1691
_journal_name_full 'Chem.-Eur.J. '
loop_
_publ_author_name
"J.Vidal"
"S.Damestoy"
"L.Guy"
"J.-C.Hannachi"
"A.Aubry"
"A.Collet"
_chemical_name_systematic
;
trans-N-Methoxycarbonyl-3-phenyl-oxaziridine
;
_chemical_melting_point 314.15
_cell_volume    895.884
_exptl_crystal_colour 'colorless'
_exptl_crystal_density_diffrn 1.33
_exptl_crystal_preparation 'diethyl ether/pentane'
_diffrn_ambient_temperature 293
#These two values have been output from a single CSD field.
_refine_ls_R_factor_gt 0.048
_refine_ls_wR_factor_gt 0.048
_symmetry_cell_setting monoclinic
_symmetry_space_group_name_H-M 'P 21/c'
_symmetry_Int_Tables_number 14
loop_
_symmetry_equiv_pos_site_id
_symmetry_equiv_pos_as_xyz
1 x,y,z
2 -x,1/2+y,1/2-z
3 -x,-y,-z
4 x,-1/2-y,-1/2+z
_cell_length_a 6.285(1)
_cell_length_b 7.050(2)
_cell_length_c 20.226(3)
_cell_angle_alpha 90
_cell_angle_beta 91.52(2)
_cell_angle_gamma 90
_cell_formula_units_Z 4
loop_
_atom_type_symbol
_atom_type_radius_bond
C 0.68
H 0.23
N 0.68
O 0.68
loop_
_atom_site_label
_atom_site_type_symbol
_atom_site_fract_x
_atom_site_fract_y
_atom_site_fract_z
C1 C 0.8191(8) 0.1292(7) 0.7893(3)
C2 C 0.977(1) 0.0848(8) 0.7467(4)
C3 C 0.946(2) 0.1051(9) 0.6793(4)
C4 C 0.754(2) 0.1695(9) 0.6548(4)
C5 C 0.590(1) 0.2123(9) 0.6974(5)
C6 C 0.623(1) 0.1905(9) 0.7641(4)
C7 C 0.8563(9) 0.1137(8) 0.8615(3)
O1 O 0.7719(6) 0.2571(5) 0.9026(2)
N1 N 0.6771(7) 0.0630(6) 0.9025(2)
C8 C 0.7315(9) -0.0305(9) 0.9638(4)
O2 O 0.7622(6) 0.0439(6) 1.0150(2)
O3 O 0.7202(6) -0.2136(5) 0.9506(2)
C9 C 0.746(1) -0.338(1) 1.0075(4)
H1 H 1.108(9) 0.053(8) 0.768(3)
H2 H 1.08(1) 0.064(8) 0.654(3)
H3 H 0.713(8) 0.173(7) 0.607(3)
H4 H 0.459(8) 0.257(8) 0.679(3)
H5 H 0.519(8) 0.229(8) 0.793(3)
H6 H 0.938(8) 0.057(7) 0.881(2)
H7 H 0.712(9) -0.466(9) 0.994(3)
H8 H 0.91(1) -0.318(8) 1.026(3)
H9 H 0.680(9) -0.303(9) 1.040(3)
#END
