
#######################################################################
#
#                 Cambridge Crystallographic Data Centre
#                                CCDC
#
#######################################################################
#
# If this CIF has been generated from an entry in the Cambridge
# Structural Database, then it will include bibliographic, chemical,
# crystal, experimental, refinement or atomic coordinate data resulting
# from the CCDC's data processing and validation procedures.
#
#######################################################################

data_CSD_CIF_EKAGUU
_audit_creation_date 2016-04-20
_audit_creation_method CSD-ConQuest-V1
_database_code_CSD EKAGUU
_database_code_depnum_ccdc_archive 'CCDC 1434333'
_chemical_formula_sum 'C34 H38 N4 O9'
_chemical_formula_moiety
;
C34 H38 N4 O9
;
_journal_coden_Cambridge 179
_journal_volume 55
_journal_year 2016
_journal_page_first 3997
_journal_name_full 'Angew.Chem.,Int.Ed. '
loop_
_publ_author_name
"C.Kesornpun"
"T.Aree"
"C.Mahidol"
"S.Ruchirawat"
"P.Kittakoop"
_chemical_name_systematic
;
oxybis((9,9-dimethyl-5-(4-nitrophenyl)-3-oxa-4-azatricyclo[6.1.1.0^2,6^]dec-4-
en-2-yl)methanol)
;
_cell_volume   1585.476
_exptl_crystal_colour 'colorless'
_exptl_crystal_density_diffrn 1.355
_exptl_crystal_description 'rod'
_diffrn_ambient_temperature 296
#These two values have been output from a single CSD field.
_refine_ls_R_factor_gt 0.0791
_refine_ls_wR_factor_gt 0.0791
_symmetry_cell_setting monoclinic
_symmetry_space_group_name_H-M 'P 21'
_symmetry_Int_Tables_number 4
loop_
_symmetry_equiv_pos_site_id
_symmetry_equiv_pos_as_xyz
1 x,y,z
2 -x,1/2+y,-z
_cell_length_a 6.5085(3)
_cell_length_b 20.0508(10)
_cell_length_c 12.2732(6)
_cell_angle_alpha 90
_cell_angle_beta 98.152(2)
_cell_angle_gamma 90
_cell_formula_units_Z 2
loop_
_atom_type_symbol
_atom_type_radius_bond
C 0.68
H 0.23
N 0.68
O 0.68
loop_
_atom_site_label
_atom_site_type_symbol
_atom_site_fract_x
_atom_site_fract_y
_atom_site_fract_z
C1 C 0.1733(11) 0.5234(4) 0.2358(6)
C2 C 0.2386(11) 0.5954(4) 0.2548(6)
H1 H 0.37810 0.59740 0.29690
C3 C 0.2350(15) 0.6341(5) 0.1433(8)
H2 H 0.37200 0.65220 0.13920
H3 H 0.20120 0.60330 0.08250
C4 C 0.0792(17) 0.6901(5) 0.1324(8)
H4 H 0.07210 0.71550 0.06390
C5 C -0.1296(14) 0.6639(5) 0.1568(7)
H5 H -0.15280 0.61690 0.14140
H6 H -0.24800 0.69060 0.12600
C6 C -0.0454(12) 0.6800(4) 0.2786(7)
H7 H -0.14790 0.69750 0.32240
C7 C 0.0769(11) 0.6192(4) 0.3274(6)
C8 C 0.1006(15) 0.7330(5) 0.2370(7)
C9 C 0.3142(17) 0.7472(5) 0.2979(9)
H8 H 0.38910 0.70610 0.31150
H9 H 0.30190 0.76860 0.36670
H10 H 0.38760 0.77600 0.25420
C10 C -0.018(2) 0.7995(5) 0.2171(10)
H11 H 0.06230 0.83030 0.18070
H12 H -0.04260 0.81800 0.28630
H13 H -0.14890 0.79170 0.17170
C11 C 0.1567(11) 0.6282(4) 0.4491(6)
H14 H 0.20770 0.67400 0.46100
C12 C 0.2885(12) 0.4727(4) 0.1809(6)
C13 C 0.1816(14) 0.4263(5) 0.1115(8)
H15 H 0.03820 0.42960 0.09400
C14 C 0.2858(14) 0.3750(5) 0.0681(8)
H16 H 0.21410 0.34330 0.02230
C15 C 0.4962(14) 0.3720(5) 0.0939(7)
C16 C 0.6058(13) 0.4171(4) 0.1605(7)
H17 H 0.74950 0.41410 0.17650
C17 C 0.4985(12) 0.4682(4) 0.2043(7)
H18 H 0.57130 0.49970 0.25030
N1 N 0.0049(10) 0.5073(3) 0.2708(6)
N2 N 0.6091(14) 0.3176(4) 0.0460(7)
O1 O -0.0724(8) 0.5628(3) 0.3223(5)
O2 O -0.0022(9) 0.6175(3) 0.5135(5)
H19 H -0.08800 0.59170 0.48160
O3 O 0.7955(12) 0.3175(4) 0.0626(7)
O4 O 0.5084(14) 0.2746(6) -0.0078(11)
O5 O 0.3230(8) 0.5839(3) 0.4793(4)
C18 C 0.4467(11) 0.4396(4) 0.5171(6)
C19 C 0.3978(11) 0.4750(4) 0.6174(6)
H20 H 0.25580 0.49240 0.60350
C20 C 0.4222(14) 0.4304(4) 0.7220(7)
H21 H 0.29160 0.42960 0.75150
H22 H 0.45310 0.38520 0.70170
C21 C 0.5923(15) 0.4545(5) 0.8109(8)
H23 H 0.61510 0.42690 0.87740
C22 C 0.7884(14) 0.4702(5) 0.7586(9)
H24 H 0.80420 0.44300 0.69500
H25 H 0.91540 0.47120 0.81060
C23 C 0.6930(13) 0.5402(5) 0.7296(7)
H26 H 0.79160 0.57740 0.73480
C24 C 0.5535(11) 0.5336(4) 0.6225(6)
C25 C 0.5695(15) 0.5311(5) 0.8314(7)
C26 C 0.3571(18) 0.5593(6) 0.8326(8)
H27 H 0.26690 0.54440 0.76850
H28 H 0.36410 0.60710 0.83260
H29 H 0.30390 0.54440 0.89750
C27 C 0.710(2) 0.5557(7) 0.9349(8)
H30 H 0.75530 0.60040 0.92310
H31 H 0.82870 0.52700 0.94980
H32 H 0.63410 0.55510 0.99650
C28 C 0.4453(11) 0.5986(4) 0.5802(6)
H33 H 0.35190 0.61190 0.63240
C29 C 0.3210(12) 0.3841(4) 0.4618(7)
C30 C 0.1231(14) 0.3722(5) 0.4835(8)
H34 H 0.06970 0.39740 0.53660
C31 C 0.0011(16) 0.3224(5) 0.4263(9)
H35 H -0.13440 0.31500 0.43930
C32 C 0.0861(15) 0.2848(4) 0.3506(8)
C33 C 0.2819(15) 0.2931(5) 0.3317(8)
H36 H 0.33680 0.26560 0.28210
C34 C 0.4034(14) 0.3434(4) 0.3868(8)
H37 H 0.53930 0.34970 0.37360
N3 N 0.6014(10) 0.4608(3) 0.4762(6)
N4 N -0.0501(15) 0.2338(5) 0.2883(8)
O6 O 0.6869(8) 0.5166(3) 0.5375(5)
O7 O 0.581(1) 0.6516(3) 0.5707(6)
H38 H 0.69030 0.63720 0.55410
O8 O 0.0279(14) 0.1993(4) 0.2253(8)
O9 O -0.2299(15) 0.2305(5) 0.3012(9)
#END
