
#######################################################################
#
#                 Cambridge Crystallographic Data Centre
#                                CCDC
#
#######################################################################
#
# If this CIF has been generated from an entry in the Cambridge
# Structural Database, then it will include bibliographic, chemical,
# crystal, experimental, refinement or atomic coordinate data resulting
# from the CCDC's data processing and validation procedures.
#
#######################################################################

data_CSD_CIF_EKAHUV
_audit_creation_date 2016-04-20
_audit_creation_method CSD-ConQuest-V1
_database_code_CSD EKAHUV
_database_code_depnum_ccdc_archive 'CCDC 1434338'
_chemical_formula_sum 'C15 H12 N2 O1'
_chemical_formula_moiety
;
C15 H12 N2 O1
;
_journal_coden_Cambridge 179
_journal_volume 55
_journal_year 2016
_journal_page_first 3997
_journal_name_full 'Angew.Chem.,Int.Ed. '
loop_
_publ_author_name
"C.Kesornpun"
"T.Aree"
"C.Mahidol"
"S.Ruchirawat"
"P.Kittakoop"
_chemical_name_systematic
;
3-(pyridin-2-yl)-4,8b-dihydro-3aH-indeno[2,1-d][1,2]oxazole
;
_cell_volume   2395.808
_exptl_crystal_colour 'colorless'
_exptl_crystal_density_diffrn 1.31
_exptl_crystal_description 'block'
_diffrn_ambient_temperature 296
#These two values have been output from a single CSD field.
_refine_ls_R_factor_gt 0.0607
_refine_ls_wR_factor_gt 0.0607
_symmetry_cell_setting orthorhombic
_symmetry_space_group_name_H-M 'P b c a'
_symmetry_Int_Tables_number 61
loop_
_symmetry_equiv_pos_site_id
_symmetry_equiv_pos_as_xyz
1 x,y,z
2 1/2+x,1/2-y,-z
3 -x,1/2+y,1/2-z
4 1/2-x,-y,1/2+z
5 -x,-y,-z
6 -1/2-x,-1/2+y,z
7 x,-1/2-y,-1/2+z
8 -1/2+x,y,-1/2-z
_cell_length_a 10.7849(3)
_cell_length_b 10.9235(3)
_cell_length_c 20.3364(6)
_cell_angle_alpha 90
_cell_angle_beta 90
_cell_angle_gamma 90
_cell_formula_units_Z 8
loop_
_atom_type_symbol
_atom_type_radius_bond
C 0.68
H 0.23
N 0.68
O 0.68
loop_
_atom_site_label
_atom_site_type_symbol
_atom_site_fract_x
_atom_site_fract_y
_atom_site_fract_z
C1 C 0.36332(15) 0.92712(13) 0.57712(7)
C2 C 0.46182(14) 0.99175(14) 0.61600(7)
H1 H 0.46030 1.08030 0.60840
C3 C 0.46217(15) 0.96089(15) 0.69038(7)
H2 H 0.47800 1.03350 0.71650
H3 H 0.38350 0.92570 0.70370
C4 C 0.56515(14) 0.86987(13) 0.69781(7)
C5 C 0.60027(17) 0.80577(16) 0.75365(9)
H4 H 0.55810 0.81670 0.79310
C6 C 0.69898(19) 0.72533(17) 0.74979(11)
H5 H 0.72370 0.68250 0.78710
C7 C 0.76117(19) 0.70783(19) 0.69142(12)
H6 H 0.82670 0.65260 0.68960
C8 C 0.72730(16) 0.77140(17) 0.63564(10)
H7 H 0.76920 0.75940 0.59620
C9 C 0.62957(14) 0.85364(14) 0.63951(8)
C10 C 0.57759(15) 0.93230(15) 0.58601(7)
H8 H 0.63770 0.99420 0.57180
C11 C 0.22943(15) 0.94526(13) 0.58545(7)
C12 C 0.07565(19) 1.06553(18) 0.62725(10)
H9 H 0.05140 1.13360 0.65150
C13 C -0.01553(18) 0.9935(2) 0.60029(10)
H10 H -0.09880 1.01260 0.60610
C14 C 0.01937(18) 0.8928(2) 0.56461(9)
H11 H -0.04000 0.84230 0.54550
C15 C 0.14302(17) 0.86767(17) 0.55752(8)
H12 H 0.16860 0.79900 0.53410
N1 N 0.40345(13) 0.85535(13) 0.53209(6)
N2 N 0.19699(13) 1.04392(12) 0.62082(7)
O1 O 0.53364(11) 0.85935(12) 0.53065(6)
#END
