
#######################################################################
#
#                 Cambridge Crystallographic Data Centre
#                                CCDC
#
#######################################################################
#
# If this CIF has been generated from an entry in the Cambridge
# Structural Database, then it will include bibliographic, chemical,
# crystal, experimental, refinement or atomic coordinate data resulting
# from the CCDC's data processing and validation procedures.
#
#######################################################################

data_CSD_CIF_EKAHIJ
_audit_creation_date 2016-04-20
_audit_creation_method CSD-ConQuest-V1
_database_code_CSD EKAHIJ
_database_code_depnum_ccdc_archive 'CCDC 1434336'
_chemical_formula_sum 'C20 H18 N4 O6'
_chemical_formula_moiety
;
C20 H18 N4 O6
;
_journal_coden_Cambridge 179
_journal_volume 55
_journal_year 2016
_journal_page_first 3997
_journal_name_full 'Angew.Chem.,Int.Ed. '
loop_
_publ_author_name
"C.Kesornpun"
"T.Aree"
"C.Mahidol"
"S.Ruchirawat"
"P.Kittakoop"
_chemical_name_systematic
;
3,9b-bis(4-nitrophenyl)-6,7,8,9,9a,9b-hexahydro-5aH-[1,2,4]oxadiazolo[4,5-b][1
,2]benzoxazole
;
_cell_volume    951.218
_exptl_crystal_colour 'colorless'
_exptl_crystal_density_diffrn 1.433
_exptl_crystal_description 'block'
_diffrn_ambient_temperature 296
#These two values have been output from a single CSD field.
_refine_ls_R_factor_gt 0.0504
_refine_ls_wR_factor_gt 0.0504
_symmetry_cell_setting triclinic
_symmetry_space_group_name_H-M 'P -1'
_symmetry_Int_Tables_number 2
loop_
_symmetry_equiv_pos_site_id
_symmetry_equiv_pos_as_xyz
1 x,y,z
2 -x,-y,-z
_cell_length_a 8.3174(6)
_cell_length_b 10.9210(8)
_cell_length_c 11.7899(9)
_cell_angle_alpha 103.169(2)
_cell_angle_beta 104.857(2)
_cell_angle_gamma 104.641(2)
_cell_formula_units_Z 2
loop_
_atom_type_symbol
_atom_type_radius_bond
C 0.68
H 0.23
N 0.68
O 0.68
loop_
_atom_site_label
_atom_site_type_symbol
_atom_site_fract_x
_atom_site_fract_y
_atom_site_fract_z
C1 C 0.30873(19) 0.85315(14) 0.14232(13)
C2 C -0.0774(2) 0.82904(15) 0.07509(14)
H1 H -0.00560 0.92360 0.10980
C3 C -0.2482(2) 0.80841(17) 0.10340(17)
H2 H -0.29620 0.87730 0.08700
H3 H -0.22330 0.81810 0.19060
C4 C -0.3861(2) 0.67287(19) 0.02844(18)
H4 H -0.35030 0.60440 0.05750
H5 H -0.49770 0.67110 0.04030
C5 C -0.4093(2) 0.6434(2) -0.10795(17)
H6 H -0.44780 0.71050 -0.13770
H7 H -0.49920 0.55730 -0.15400
C6 C -0.2363(2) 0.64274(16) -0.12898(15)
H8 H -0.25370 0.62110 -0.21670
H9 H -0.19880 0.57480 -0.10010
C7 C -0.09336(19) 0.77827(15) -0.06063(13)
H10 H -0.11600 0.84340 -0.10210
C8 C 0.09345(19) 0.77518(14) -0.04546(13)
C9 C 0.42142(19) 0.85836(15) 0.26289(13)
C10 C 0.5729(2) 0.96827(18) 0.32834(16)
H11 H 0.60090 1.03780 0.29590
C11 C 0.6818(2) 0.9744(2) 0.44129(17)
H12 H 0.78470 1.04660 0.48440
C12 C 0.6358(2) 0.8725(2) 0.48865(15)
C13 C 0.4870(3) 0.7631(2) 0.42676(16)
H13 H 0.45860 0.69540 0.46120
C14 C 0.3796(2) 0.75534(18) 0.31203(15)
H14 H 0.27960 0.68110 0.26800
C15 C 0.12070(18) 0.68468(15) -0.15145(13)
C16 C 0.1635(2) 0.73407(17) -0.24276(15)
H15 H 0.17480 0.82220 -0.23810
C17 C 0.1893(2) 0.65313(19) -0.34001(16)
H16 H 0.22160 0.68640 -0.39980
C18 C 0.1662(2) 0.52215(18) -0.34676(15)
C19 C 0.1185(2) 0.46915(16) -0.26033(15)
H17 H 0.10010 0.37950 -0.26850
C20 C 0.0984(2) 0.55171(15) -0.16147(14)
H18 H 0.06970 0.51820 -0.10080
N1 N 0.34616(17) 0.94466(13) 0.09249(12)
N2 N 0.15147(15) 0.74294(12) 0.07072(11)
N3 N 0.7486(3) 0.8813(2) 0.61158(16)
N4 N 0.1946(2) 0.4344(2) -0.44964(15)
O1 O 0.20992(15) 0.91104(10) -0.01957(10)
O2 O 0.9002(3) 0.9571(2) 0.64987(16)
O3 O 0.6837(3) 0.8136(2) 0.66714(15)
O4 O 0.01776(13) 0.75069(11) 0.13041(9)
O5 O 0.2574(3) 0.48426(19) -0.51738(16)
O6 O 0.1483(3) 0.31510(18) -0.46394(15)
#END
