
#######################################################################
#
#                 Cambridge Crystallographic Data Centre
#                                CCDC
#
#######################################################################
#
# If this CIF has been generated from an entry in the Cambridge
# Structural Database, then it will include bibliographic, chemical,
# crystal, experimental, refinement or atomic coordinate data resulting
# from the CCDC's data processing and validation procedures.
#
#######################################################################

data_CSD_CIF_EKAHAB
_audit_creation_date 2016-04-20
_audit_creation_method CSD-ConQuest-V1
_database_code_CSD EKAHAB
_database_code_depnum_ccdc_archive 'CCDC 1434334'
_chemical_formula_sum 'C17 H20 N2 O3'
_chemical_formula_moiety
;
C17 H20 N2 O3
;
_journal_coden_Cambridge 179
_journal_volume 55
_journal_year 2016
_journal_page_first 3997
_journal_name_full 'Angew.Chem.,Int.Ed. '
loop_
_publ_author_name
"C.Kesornpun"
"T.Aree"
"C.Mahidol"
"S.Ruchirawat"
"P.Kittakoop"
_chemical_name_systematic
;
2,9,9-trimethyl-5-(4-nitrophenyl)-3-oxa-4-azatricyclo[6.1.1.0^2,6^]dec-4-ene
;
_cell_volume    772.839
_exptl_crystal_colour 'colorless'
_exptl_crystal_density_diffrn 1.291
_exptl_crystal_description 'rod'
_diffrn_ambient_temperature 296
#These two values have been output from a single CSD field.
_refine_ls_R_factor_gt 0.0587
_refine_ls_wR_factor_gt 0.0587
loop_
_citation_database_id_CSD
_citation_special_details
EKAHEF "is a stereoisomer of this entry"
_symmetry_cell_setting triclinic
_symmetry_space_group_name_H-M 'P -1'
_symmetry_Int_Tables_number 2
loop_
_symmetry_equiv_pos_site_id
_symmetry_equiv_pos_as_xyz
1 x,y,z
2 -x,-y,-z
_cell_length_a 6.1621(4)
_cell_length_b 7.7440(5)
_cell_length_c 17.8938(15)
_cell_angle_alpha 102.463(2)
_cell_angle_beta 90.717(3)
_cell_angle_gamma 111.314(2)
_cell_formula_units_Z 2
loop_
_atom_type_symbol
_atom_type_radius_bond
C 0.68
H 0.23
N 0.68
O 0.68
loop_
_atom_site_label
_atom_site_type_symbol
_atom_site_fract_x
_atom_site_fract_y
_atom_site_fract_z
C1 C 0.2154(3) 0.3938(2) 0.75878(9)
C2 C 0.2057(3) 0.5297(2) 0.71075(8)
H1 H 0.04720 0.48500 0.68490
C3 C 0.2751(3) 0.7398(2) 0.75802(10)
H2 H 0.14650 0.78110 0.75160
H3 H 0.30070 0.74450 0.81220
C4 C 0.4942(3) 0.8763(2) 0.73374(10)
H4 H 0.54540 1.00910 0.76310
C5 C 0.4882(3) 0.8492(2) 0.64518(10)
C6 C 0.5717(3) 0.6818(2) 0.64709(9)
H5 H 0.68340 0.66700 0.61010
C7 C 0.3739(3) 0.4980(2) 0.65054(9)
C8 C 0.6824(3) 0.7898(3) 0.72961(11)
H6 H 0.67010 0.70820 0.76480
H7 H 0.84090 0.88180 0.73260
C9 C 0.6825(3) 1.0120(3) 0.62151(13)
H8 H 0.64720 1.12530 0.63350
H9 H 0.69280 0.97720 0.56720
H10 H 0.82920 1.03560 0.64900
C10 C 0.2598(3) 0.8171(3) 0.60111(13)
H11 H 0.13470 0.71700 0.61570
H12 H 0.27120 0.78160 0.54690
H13 H 0.22900 0.93250 0.61280
C11 C 0.2531(4) 0.3788(3) 0.57210(11)
H14 H 0.13510 0.26170 0.57760
H15 H 0.36610 0.35100 0.54020
H16 H 0.18170 0.44820 0.54870
C12 C 0.0734(3) 0.3476(2) 0.82228(9)
C13 C 0.1096(3) 0.2277(2) 0.86515(10)
H17 H 0.22140 0.17460 0.85240
C14 C -0.0177(3) 0.1873(3) 0.92583(10)
H18 H 0.00650 0.10690 0.95400
C15 C -0.1818(3) 0.2674(2) 0.94438(9)
C16 C -0.2257(3) 0.3839(2) 0.9031(1)
H19 H -0.33850 0.43560 0.91620
C17 C -0.0974(3) 0.4224(2) 0.84146(10)
H20 H -0.12620 0.49950 0.81250
N1 N 0.3669(3) 0.3177(2) 0.74115(9)
N2 N -0.3111(3) 0.2301(2) 1.01161(9)
O1 O 0.4834(3) 0.38230(18) 0.68038(8)
O2 O -0.2669(3) 0.1284(2) 1.04821(8)
O3 O -0.4550(3) 0.3024(2) 1.0278(1)
#END
