
#######################################################################
#
#                 Cambridge Crystallographic Data Centre
#                                CCDC
#
#######################################################################
#
# If this CIF has been generated from an entry in the Cambridge
# Structural Database, then it will include bibliographic, chemical,
# crystal, experimental, refinement or atomic coordinate data resulting
# from the CCDC's data processing and validation procedures.
#
#######################################################################

data_CSD_CIF_EKAMIO
_audit_creation_date 2016-04-20
_audit_creation_method CSD-ConQuest-V1
_database_code_CSD EKAMIO
_database_code_depnum_ccdc_archive 'CCDC 1437307'
_chemical_formula_sum 'C26 H25 N1 O5'
_chemical_formula_moiety
;
C26 H25 N1 O5
;
_journal_coden_Cambridge 179
_journal_volume 55
_journal_year 2016
_journal_page_first 4322
_journal_name_full 'Angew.Chem.,Int.Ed. '
loop_
_publ_author_name
"Zhong-Lin Tao"
"A.Adili"
"Hong-Cheng Shen"
"Zhi-Yong Han"
"Liu-Zhu Gong"
_chemical_name_systematic
;
ethyl 4-(5-hydroxy-5-(4-nitrophenyl)-4-phenylpent-2-en-1-yl)benzoate
;
_cell_volume   1123.484
_exptl_crystal_density_diffrn 1.275
_exptl_special_details
;
Absolute configuration

;
_exptl_crystal_description 'block'
_diffrn_ambient_temperature 290
#These two values have been output from a single CSD field.
_refine_ls_R_factor_gt 0.035
_refine_ls_wR_factor_gt 0.035
_symmetry_cell_setting monoclinic
_symmetry_space_group_name_H-M 'P 21'
_symmetry_Int_Tables_number 4
loop_
_symmetry_equiv_pos_site_id
_symmetry_equiv_pos_as_xyz
1 x,y,z
2 -x,1/2+y,-z
_cell_length_a 5.8826(1)
_cell_length_b 17.9232(4)
_cell_length_c 10.6596(2)
_cell_angle_alpha 90
_cell_angle_beta 91.550(2)
_cell_angle_gamma 90
_cell_formula_units_Z 2
loop_
_atom_type_symbol
_atom_type_radius_bond
C 0.68
H 0.23
N 0.68
O 0.68
loop_
_atom_site_label
_atom_site_type_symbol
_atom_site_fract_x
_atom_site_fract_y
_atom_site_fract_z
O1 O 1.6154(3) 0.92247(11) 0.56799(16)
H1 H 1.64900 0.91980 0.49400
C1 C 0.9038(3) 0.97963(11) 0.94109(18)
C2 C 1.3457(3) 0.85455(11) 0.68866(18)
C3 C 1.0982(4) 1.02140(14) 0.3793(2)
H2 H 0.97120 0.99160 0.39140
C4 C 1.2428(3) 0.98096(11) 0.59288(17)
H3 H 1.08220 0.96770 0.60080
C5 C 0.9419(3) 1.02422(13) 0.82339(19)
H4 H 0.88420 0.99600 0.75170
H5 H 0.85530 1.07020 0.82740
C6 C 1.2640(3) 1.02651(12) 0.47306(18)
O2 O 0.9129(4) 0.78856(13) 1.2774(2)
C7 C 1.4477(5) 1.07210(17) 0.4520(3)
H6 H 1.56140 1.07670 0.51390
C8 C 1.3141(3) 1.02441(12) 0.70856(18)
H7 H 1.46510 1.03980 0.71350
C9 C 0.8199(4) 0.89101(13) 1.1512(2)
O3 O 1.0494(5) 0.67840(17) 0.9981(3)
C10 C 1.0622(4) 0.92713(13) 0.9837(2)
H8 H 1.19750 0.92140 0.94160
C11 C 1.3799(3) 0.90696(12) 0.57958(18)
H9 H 1.32610 0.88180 0.50270
C12 C 0.6641(4) 0.94492(14) 1.1116(2)
H10 H 0.53080 0.95160 1.15510
C13 C 1.2783(4) 0.75645(11) 0.8836(2)
C14 C 1.5172(4) 0.84214(12) 0.7791(2)
H11 H 1.65520 0.86700 0.77350
N1 N 1.2392(5) 0.70472(13) 0.9878(2)
C15 C 1.4838(4) 0.79306(13) 0.8774(2)
H12 H 1.59790 0.78500 0.93800
C16 C 0.7056(3) 0.98870(14) 1.0082(2)
H13 H 0.60000 1.02470 0.98290
O4 O 0.6117(5) 0.85468(18) 1.3277(2)
C17 C 1.1050(4) 0.76763(13) 0.7961(2)
H14 H 0.96740 0.74250 0.80210
C18 C 1.1865(3) 1.04304(12) 0.80352(19)
H15 H 1.25740 1.07150 0.86610
C19 C 1.0219(4) 0.88346(13) 1.0871(2)
H16 H 1.13000 0.84880 1.11420
C20 C 0.7682(5) 0.84400(15) 1.2604(2)
C21 C 1.3015(5) 1.10463(15) 0.2475(2)
H17 H 1.31490 1.13020 0.17220
C22 C 1.1180(5) 1.06007(17) 0.2668(2)
H18 H 1.00520 1.05550 0.20450
C23 C 1.1405(4) 0.81708(13) 0.6990(2)
H19 H 1.02470 0.82540 0.63950
C24 C 1.4670(5) 1.11133(19) 0.3407(3)
H20 H 1.59170 1.14220 0.32900
O5 O 1.3980(5) 0.69039(19) 1.0594(3)
C25 C 0.8720(8) 0.7360(2) 1.3780(3)
H21 H 0.75590 0.70030 1.35220
H22 H 0.82110 0.76210 1.45180
C26 C 1.0909(8) 0.6970(2) 1.4062(4)
H23 H 1.07090 0.66220 1.47340
H24 H 1.20480 0.73300 1.43050
H25 H 1.13810 0.67080 1.33290
#END
