
#######################################################################
#
#                 Cambridge Crystallographic Data Centre
#                                CCDC
#
#######################################################################
#
# If this CIF has been generated from an entry in the Cambridge
# Structural Database, then it will include bibliographic, chemical,
# crystal, experimental, refinement or atomic coordinate data resulting
# from the CCDC's data processing and validation procedures.
#
#######################################################################

data_CSD_CIF_EKAQOY
_audit_creation_date 2016-04-20
_audit_creation_method CSD-ConQuest-V1
_database_code_CSD EKAQOY
_database_code_depnum_ccdc_archive 'CCDC 1006313'
_chemical_formula_sum 'C11 H8 N6 O2'
_chemical_formula_moiety
;
C11 H8 N6 O2
;
_journal_coden_Cambridge 179
_journal_volume 55
_journal_year 2016
_journal_page_first 4327
_journal_name_full 'Angew.Chem.,Int.Ed. '
loop_
_publ_author_name
"L.J.K.Cook"
"R.Kulmaczewski"
"R.Mohammed"
"S.Dudley"
"S.A.Barrett"
"M.A.Little"
"R.J.Deeth"
"M.A.Halcrow"
_chemical_name_systematic
;
4-nitro-2,6-bis(1H-pyrazol-1-yl)pyridine
;
_cell_volume   1123.267
_exptl_crystal_colour 'yellow'
_exptl_crystal_density_diffrn 1.515
_exptl_crystal_description 'plate'
_diffrn_ambient_temperature 150
#These two values have been output from a single CSD field.
_refine_ls_R_factor_gt 0.0582
_refine_ls_wR_factor_gt 0.0582
_symmetry_cell_setting monoclinic
_symmetry_space_group_name_H-M 'C 2/c'
_symmetry_Int_Tables_number 15
loop_
_symmetry_equiv_pos_site_id
_symmetry_equiv_pos_as_xyz
1 x,y,z
2 -x,y,1/2-z
3 1/2+x,1/2+y,z
4 1/2-x,1/2+y,1/2-z
5 -x,-y,-z
6 x,-y,-1/2+z
7 -1/2-x,-1/2-y,-z
8 -1/2+x,-1/2-y,-1/2+z
_cell_length_a 13.042(2)
_cell_length_b 9.6584(16)
_cell_length_c 9.7663(17)
_cell_angle_alpha 90
_cell_angle_beta 114.067(6)
_cell_angle_gamma 90
_cell_formula_units_Z 4
loop_
_atom_type_symbol
_atom_type_radius_bond
C 0.68
H 0.23
N 0.68
O 0.68
loop_
_atom_site_label
_atom_site_type_symbol
_atom_site_fract_x
_atom_site_fract_y
_atom_site_fract_z
N1 N 0.00000 0.7981(2) 0.25000
C1 C -0.05833(16) 0.72659(18) 0.12606(18)
C2 C -0.06170(16) 0.58227(19) 0.11707(19)
H1 H -0.105(2) 0.539(2) 0.028(3)
C3 C 0.00000 0.5145(2) 0.25000
N2 N 0.00000 0.3604(2) 0.25000
O1 O -0.05753(14) 0.30185(15) 0.13230(16)
N3 N -0.11926(14) 0.80734(16) -0.00039(16)
N4 N -0.17843(15) 0.74627(16) -0.13546(17)
C4 C -0.2202(2) 0.8517(2) -0.2281(2)
H2 H -0.268(2) 0.834(3) -0.339(3)
C5 C -0.1891(2) 0.9797(2) -0.1555(2)
H3 H -0.209(2) 1.069(3) -0.206(3)
C6 C -0.12438(19) 0.94889(19) -0.0091(2)
H4 H -0.089(3) 1.001(3) 0.072(4)
C1A C 0.05833(16) 0.72659(18) 0.37394(18)
C2A C 0.06170(16) 0.58227(19) 0.38293(19)
H1A H 0.105(2) 0.539(2) 0.472(3)
O1A O 0.05753(14) 0.30185(15) 0.36770(16)
N3A N 0.11926(14) 0.80734(16) 0.50039(16)
N4A N 0.17843(15) 0.74627(16) 0.63546(17)
C4A C 0.2202(2) 0.8517(2) 0.7281(2)
H2A H 0.268(2) 0.834(3) 0.839(3)
C5A C 0.1891(2) 0.9797(2) 0.6555(2)
H3A H 0.209(2) 1.069(3) 0.706(3)
C6A C 0.12438(19) 0.94889(19) 0.5091(2)
H4A H 0.089(3) 1.001(3) 0.428(4)
#END
