
#######################################################################
#
#                 Cambridge Crystallographic Data Centre
#                                CCDC
#
#######################################################################
#
# If this CIF has been generated from an entry in the Cambridge
# Structural Database, then it will include bibliographic, chemical,
# crystal, experimental, refinement or atomic coordinate data resulting
# from the CCDC's data processing and validation procedures.
#
#######################################################################

data_CSD_CIF_EKAWAQ
_audit_creation_date 2016-04-20
_audit_creation_method CSD-ConQuest-V1
_database_code_CSD EKAWAQ
_database_code_depnum_ccdc_archive 'CCDC 1442760'
_chemical_formula_sum 'C24 H29 N3 O8'
_chemical_formula_moiety
;
C24 H29 N3 O8
;
_journal_coden_Cambridge 692
_journal_volume 48
_journal_year 2016
_journal_page_first 2619
_journal_name_full 'Synthesis '
loop_
_publ_author_name
"Shi Chen"
"M.Mondal"
"A.A.Ibrahim"
"K.A.Wheeler"
"N.J.Kerrigan"
_chemical_name_systematic
;
1-(methoxy(methyl)amino)-2,6-dimethyl-1-oxo-4-phenylheptan-3-yl 
3,5-dinitrobenzoate
;
_cell_volume   1203.969
_exptl_crystal_colour 'colorless'
_exptl_crystal_density_diffrn 1.345
_exptl_special_details
;
Absolute configuration

;
_exptl_crystal_description 'tranparent plate'
_diffrn_ambient_temperature 100
#These two values have been output from a single CSD field.
_refine_ls_R_factor_gt 0.0294
_refine_ls_wR_factor_gt 0.0294
_symmetry_cell_setting monoclinic
_symmetry_space_group_name_H-M 'P 21'
_symmetry_Int_Tables_number 4
loop_
_symmetry_equiv_pos_site_id
_symmetry_equiv_pos_as_xyz
1 x,y,z
2 -x,1/2+y,-z
_cell_length_a 9.3864(2)
_cell_length_b 9.4732(2)
_cell_length_c 13.9970(2)
_cell_angle_alpha 90
_cell_angle_beta 104.681(1)
_cell_angle_gamma 90
_cell_formula_units_Z 2
loop_
_atom_type_symbol
_atom_type_radius_bond
C 0.68
H 0.23
N 0.68
O 0.68
loop_
_atom_site_label
_atom_site_type_symbol
_atom_site_fract_x
_atom_site_fract_y
_atom_site_fract_z
O1 O 0.09299(16) 0.60691(17) 0.19665(11)
O2 O 0.14034(16) 0.26629(16) 0.11489(11)
O3 O -0.12954(16) 0.39679(16) 0.37179(10)
O4 O -0.01860(18) 0.54849(18) 0.49305(12)
O5 O -0.51667(19) 0.0929(2) 0.41843(12)
O6 O -0.4928(2) 0.0041(2) 0.56460(14)
O7 O -0.3064(2) 0.3494(2) 0.82844(12)
O8 O -0.1052(2) 0.4578(2) 0.82262(12)
N1 N 0.1379(2) 0.41441(19) 0.11672(13)
N2 N -0.4613(2) 0.0897(2) 0.50745(14)
N3 N -0.2133(2) 0.3866(2) 0.78573(14)
C1 C 0.0837(2) 0.4783(2) 0.18621(15)
C2 C 0.0158(2) 0.3849(2) 0.25175(15)
H1 H -0.04280 0.30740 0.21160
C3 C -0.0850(2) 0.4782(2) 0.29560(15)
H2 H -0.02830 0.56290 0.32680
C4 C -0.2267(2) 0.5279(2) 0.22120(15)
H3 H -0.19590 0.57720 0.16650
C5 C -0.3087(2) 0.6375(2) 0.26922(17)
H4 H -0.40730 0.65340 0.22430
H5 H -0.32350 0.59670 0.33110
C6 C -0.2323(3) 0.7805(3) 0.29331(19)
H6 H -0.12680 0.76240 0.32770
C7 C -0.2355(5) 0.8651(3) 0.2018(3)
H7 H -0.17800 0.81630 0.16240
H8 H -0.19300 0.95860 0.22060
H9 H -0.33760 0.87540 0.16280
C8 C -0.2995(4) 0.8658(3) 0.3624(2)
H10 H -0.24650 0.95540 0.37800
H11 H -0.29220 0.81250 0.42350
H12 H -0.40330 0.88480 0.33050
C9 C -0.3250(2) 0.4062(2) 0.17499(15)
C10 C -0.3300(2) 0.3617(3) 0.07890(16)
H13 H -0.27230 0.40940 0.04220
C11 C -0.4177(2) 0.2496(3) 0.03644(17)
H14 H -0.42120 0.22250 -0.02950
C12 C -0.5000(3) 0.1768(3) 0.08865(19)
H15 H -0.55770 0.09800 0.05980
C13 C -0.4981(2) 0.2196(3) 0.18417(17)
H16 H -0.55500 0.17020 0.22060
C14 C -0.4134(2) 0.3339(2) 0.22590(16)
H17 H -0.41510 0.36410 0.29030
C15 C -0.0964(2) 0.4479(2) 0.46389(15)
C16 C -0.1749(2) 0.3675(2) 0.52724(14)
C17 C -0.2739(2) 0.2600(2) 0.48830(15)
H18 H -0.28810 0.23040 0.42170
C18 C -0.3508(2) 0.1977(2) 0.54912(16)
C19 C -0.3331(2) 0.2352(2) 0.64690(16)
H19 H -0.38660 0.19010 0.68750
C20 C -0.2337(2) 0.3415(2) 0.68213(15)
C21 C -0.1541(2) 0.4088(2) 0.62528(15)
H20 H -0.08660 0.48180 0.65240
C22 C 0.2368(2) 0.4830(3) 0.06630(17)
H21 H 0.25210 0.58140 0.08820
H22 H 0.19350 0.48040 -0.00520
H23 H 0.33160 0.43350 0.08190
C23 C 0.0455(3) 0.2174(3) 0.02374(17)
H24 H -0.05590 0.24690 0.01970
H25 H 0.05010 0.11420 0.02100
H26 H 0.07770 0.25770 -0.03180
C24 C 0.1422(2) 0.3217(2) 0.33294(16)
H27 H 0.20620 0.26510 0.30240
H28 H 0.10120 0.26170 0.37640
H29 H 0.19960 0.39820 0.37160
#END
