
#######################################################################
#
#                 Cambridge Crystallographic Data Centre
#                                CCDC
#
#######################################################################
#
# If this CIF has been generated from an entry in the Cambridge
# Structural Database, then it will include bibliographic, chemical,
# crystal, experimental, refinement or atomic coordinate data resulting
# from the CCDC's data processing and validation procedures.
#
#######################################################################

data_CSD_CIF_EKELAH
_audit_creation_date 2003-11-07
_audit_creation_method CSD-ConQuest-V1
_database_code_CSD EKELAH
_database_code_depnum_ccdc_archive 'CCDC 221074'
_chemical_formula_sum 'C3 H5 N5 O4'
_chemical_formula_moiety
;
C3 H5 N5 O4
;
_journal_coeditor_code "IUCr SK1660"
_journal_coden_Cambridge 591
_journal_volume 59
_journal_year 2003
_journal_page_first o499
_journal_name_full 'Acta Crystallogr.,Sect.C:Cryst.Struct.Commun. '
loop_
_publ_author_name
"A.D.Vasiliev"
"A.M.Astachov"
"M.S.Molokeev"
"L.A.Kruglyakova"
"R.S.Stepanov"
_chemical_name_systematic
;
2-Nitrimino-1-nitroimidazolidine
;
_cell_volume   1331.958
_exptl_crystal_colour 'colorless'
_exptl_crystal_density_diffrn 1.747
_exptl_special_details
;
explosive

;
_exptl_crystal_description 'Ellipsoidal'
_exptl_crystal_preparation 'ethanol'
_diffrn_ambient_temperature 293
#These two values have been output from a single CSD field.
_refine_ls_R_factor_gt 0.0285
_refine_ls_wR_factor_gt 0.0285
_symmetry_cell_setting tetragonal
_symmetry_space_group_name_H-M 'P 42 b c'
_symmetry_Int_Tables_number 106
loop_
_symmetry_equiv_pos_site_id
_symmetry_equiv_pos_as_xyz
1 x,y,z
2 -y,x,1/2+z
3 1/2+x,1/2-y,z
4 1/2+y,1/2+x,1/2+z
5 -x,-y,z
6 y,-x,1/2+z
7 1/2-x,1/2+y,z
8 1/2-y,1/2-x,1/2+z
_cell_length_a 12.897(1)
_cell_length_b 12.897(1)
_cell_length_c 8.0078(8)
_cell_angle_alpha 90
_cell_angle_beta 90
_cell_angle_gamma 90
_cell_formula_units_Z 8
loop_
_atom_type_symbol
_atom_type_radius_bond
C 0.68
H 0.23
N 0.68
O 0.68
loop_
_atom_site_label
_atom_site_type_symbol
_atom_site_fract_x
_atom_site_fract_y
_atom_site_fract_z
N1 N 0.05645(16) 0.82687(17) 0.5585(3)
N2 N 0.14476(14) 0.83921(15) 0.4675(3)
N3 N 0.17532(15) 1.01035(16) 0.5790(3)
H1 H 0.12000 1.01730 0.63790
N4 N 0.28962(15) 0.94380(16) 0.4149(3)
N5 N 0.34175(14) 0.87781(17) 0.3097(3)
C1 C 0.19573(16) 0.92678(16) 0.4926(3)
C2 C 0.2542(2) 1.09067(19) 0.5670(4)
H2 H 0.28690 1.10260 0.67440
H3 H 0.22460 1.15530 0.52740
C3 C 0.3303(2) 1.0479(2) 0.4435(4)
H4 H 0.33100 1.08830 0.34140
H5 H 0.39980 1.04570 0.48970
O1 O 0.02909(15) 0.88779(16) 0.6706(3)
O2 O 0.0081(2) 0.7477(2) 0.5279(4)
O3 O 0.30739(16) 0.79207(16) 0.2844(3)
O4 O 0.42167(16) 0.9132(2) 0.2528(4)
#END
