
#######################################################################
#
#                 Cambridge Crystallographic Data Centre
#                                CCDC
#
#######################################################################
#
# If this CIF has been generated from an entry in the Cambridge
# Structural Database, then it will include bibliographic, chemical,
# crystal, experimental, refinement or atomic coordinate data resulting
# from the CCDC's data processing and validation procedures.
#
#######################################################################

data_CSD_CIF_EKEMIQ
_audit_creation_date 2003-11-07
_audit_creation_method CSD-ConQuest-V1
_database_code_CSD EKEMIQ
_database_code_depnum_ccdc_archive 'CCDC 221081'
_chemical_formula_sum 'C15 H13 N1 O4'
_chemical_formula_moiety
;
C15 H13 N1 O4
;
_journal_coeditor_code "IUCr GD1263"
_journal_coden_Cambridge 591
_journal_volume 59
_journal_year 2003
_journal_page_first o516
_journal_name_full 'Acta Crystallogr.,Sect.C:Cryst.Struct.Commun. '
loop_
_publ_author_name
"R.A.Howie"
"A.Jabbar"
"J.R.Lewis"
"S.S.Nizami"
"C.F.Ritchie"
_chemical_name_systematic
;
2-(2,1-Benzoxazol-3-yl)-3,5-dimethoxyphenol
;
_chemical_melting_point 431
_cell_volume   1334.364
_exptl_crystal_colour 'orange-yellow'
_exptl_crystal_density_diffrn 1.35
_exptl_special_details
;
Melting point range 431-434K

;
_exptl_crystal_description 'block'
_exptl_crystal_preparation 'chloroform'
_diffrn_ambient_temperature 298
#These two values have been output from a single CSD field.
_refine_ls_R_factor_gt 0.0321
_refine_ls_wR_factor_gt 0.0321
_symmetry_cell_setting orthorhombic
_symmetry_space_group_name_H-M 'P 21 21 21'
_symmetry_Int_Tables_number 19
loop_
_symmetry_equiv_pos_site_id
_symmetry_equiv_pos_as_xyz
1 x,y,z
2 1/2-x,-y,1/2+z
3 1/2+x,1/2-y,-z
4 -x,1/2+y,1/2-z
_cell_length_a 6.941(3)
_cell_length_b 7.277(3)
_cell_length_c 26.418(10)
_cell_angle_alpha 90
_cell_angle_beta 90
_cell_angle_gamma 90
_cell_formula_units_Z 4
loop_
_atom_type_symbol
_atom_type_radius_bond
C 0.68
H 0.23
N 0.68
O 0.68
loop_
_atom_site_label
_atom_site_type_symbol
_atom_site_fract_x
_atom_site_fract_y
_atom_site_fract_z
O1 O -0.1625(2) 0.3863(2) 0.13520(5)
O2 O -0.2585(3) 0.9037(2) 0.14420(7)
H1 H -0.26200 1.01450 0.14970
O3 O 0.2292(3) 1.0727(3) 0.02961(7)
O4 O 0.2156(2) 0.4687(2) 0.10493(6)
N1 N -0.2519(3) 0.2728(3) 0.17145(7)
C1 C -0.2593(3) 0.3753(3) 0.21300(8)
C2 C -0.3314(4) 0.3239(4) 0.26178(8)
H2 H -0.38800 0.20980 0.26730
C3 C -0.3136(4) 0.4481(4) 0.29921(9)
H3 H -0.35700 0.41710 0.33140
C4 C -0.2313(4) 0.6242(4) 0.29159(8)
H4 H -0.22210 0.70430 0.31890
C5 C -0.1658(3) 0.6795(4) 0.24576(8)
H5 H -0.11470 0.79640 0.24100
C6 C -0.1782(3) 0.5517(3) 0.20531(7)
C7 C -0.1187(3) 0.5508(3) 0.15564(7)
C8 C -0.0236(3) 0.6840(3) 0.12284(7)
C9 C -0.0968(3) 0.8624(3) 0.11798(8)
C10 C -0.0091(4) 0.9892(3) 0.08658(8)
H6 H -0.06010 1.10670 0.08320
C11 C 0.1551(4) 0.9397(3) 0.06028(8)
C12 C 0.2349(4) 0.7671(3) 0.06542(8)
H7 H 0.34670 0.73600 0.04800
C13 C 0.1462(3) 0.6413(3) 0.09678(7)
C14 C 0.4028(6) 1.0292(5) 0.00236(13)
H8 H 0.50370 1.00090 0.02600
H9 H 0.44020 1.13260 -0.01800
H10 H 0.38030 0.92490 -0.01910
C15 C 0.4046(4) 0.4288(5) 0.08733(13)
H11 H 0.40500 0.42640 0.05100
H12 H 0.44440 0.31120 0.10000
H13 H 0.49200 0.52170 0.09910
#END
