
#######################################################################
#
#                 Cambridge Crystallographic Data Centre
#                                CCDC
#
#######################################################################
#
# If this CIF has been generated from an entry in the Cambridge
# Structural Database, then it will include bibliographic, chemical,
# crystal, experimental, refinement or atomic coordinate data resulting
# from the CCDC's data processing and validation procedures.
#
#######################################################################

data_CSD_CIF_EKEMOW
_audit_creation_date 2003-11-07
_audit_creation_method CSD-ConQuest-V1
_database_code_CSD EKEMOW
_database_code_depnum_ccdc_archive 'CCDC 221082'
_chemical_formula_sum 'C13 H9 N1 O1'
_chemical_formula_moiety
;
C13 H9 N1 O1
;
_journal_coeditor_code "IUCr GD1263"
_journal_coden_Cambridge 591
_journal_volume 59
_journal_year 2003
_journal_page_first o516
_journal_name_full 'Acta Crystallogr.,Sect.C:Cryst.Struct.Commun. '
loop_
_publ_author_name
"R.A.Howie"
"A.Jabbar"
"J.R.Lewis"
"S.S.Nizami"
"C.F.Ritchie"
_chemical_name_systematic
;
3-Phenyl-2,1-benzoxazole
;
_chemical_melting_point 323
_cell_volume   3998.447
_exptl_crystal_colour 'orange-yellow'
_exptl_crystal_density_diffrn 1.297
_exptl_special_details
;
Melting point range 323-326K

;
_exptl_crystal_description 'prism'
_diffrn_ambient_temperature 298
_refine_special_details
;
Molecules B and C are disordered.

;
#These two values have been output from a single CSD field.
_refine_ls_R_factor_gt 0.0535
_refine_ls_wR_factor_gt 0.0535
_symmetry_cell_setting monoclinic
_symmetry_space_group_name_H-M 'I 2/c'
_symmetry_Int_Tables_number 15
loop_
_symmetry_equiv_pos_site_id
_symmetry_equiv_pos_as_xyz
1 x,y,z
2 x,-y,1/2+z
3 1/2+x,1/2+y,1/2+z
4 1/2+x,1/2-y,z
5 -x,-y,-z
6 -x,y,-1/2-z
7 -1/2-x,-1/2-y,-1/2-z
8 -1/2-x,-1/2+y,-z
_cell_length_a 12.027(13)
_cell_length_b 10.706(14)
_cell_length_c 31.76(3)
_cell_angle_alpha 90
_cell_angle_beta 102.11(8)
_cell_angle_gamma 90
_cell_formula_units_Z 16
loop_
_atom_type_symbol
_atom_type_radius_bond
C 0.68
H 0.23
N 0.68
O 0.68
loop_
_atom_site_label
_atom_site_type_symbol
_atom_site_fract_x
_atom_site_fract_y
_atom_site_fract_z
C1 C 0.8157(3) 0.2153(3) 0.57481(10)
C2 C 0.9203(3) 0.2458(4) 0.6031(1)
H1 H 0.96180 0.18580 0.62100
C3 C 0.9569(3) 0.3643(4) 0.60306(11)
H2 H 1.02520 0.38630 0.62120
C4 C 0.8942(3) 0.4571(4) 0.57600(11)
H3 H 0.92200 0.53840 0.57730
C5 C 0.7947(3) 0.4303(3) 0.54827(9)
H4 H 0.75480 0.49170 0.53060
C6 C 0.7539(3) 0.3063(3) 0.54710(9)
C7 C 0.6611(3) 0.2435(3) 0.52470(9)
C8 C 0.5628(3) 0.2735(3) 0.49107(9)
C9 C 0.5582(3) 0.3836(3) 0.46832(9)
H5 H 0.61810 0.44010 0.47480
C10 C 0.4648(3) 0.4108(3) 0.43588(10)
H6 H 0.46230 0.48570 0.42090
C11 C 0.3766(3) 0.3290(4) 0.42578(11)
H7 H 0.31460 0.34760 0.40380
C12 C 0.3794(3) 0.2190(4) 0.44813(12)
H8 H 0.31920 0.16300 0.44140
C13 C 0.4719(3) 0.1916(3) 0.48065(11)
H9 H 0.47310 0.11710 0.49580
N1 N 0.7671(3) 0.1048(3) 0.57071(9)
O1 O 0.66755(19) 0.1233(2) 0.53857(7)
C14? C 0.1341(3) 0.2688(3) 0.70768(9)
H10? H 0.13140 0.35140 0.71650
C15? C 0.2049(3) 0.2359(4) 0.68008(10)
H11? H 0.25060 0.29540 0.67070
C16? C 0.2060(3) 0.1158(4) 0.66708(10)
H12? H 0.25380 0.09280 0.64890
C17? C 0.1369(3) 0.0254(3) 0.6804(1)
H13? H 0.13770 -0.05600 0.67020
C18? C 0.0685(2) 0.0549(3) 0.70801(9)
H14? H 0.02390 -0.00600 0.71720
C19? C 0.0665(2) 0.1788(3) 0.72240(8)
C20? C 0.00000 0.2284(4) 0.75000
N2? N 0.1089(4) 0.3804(4) 0.72455(16)
O2? O 0.0320(4) 0.3527(3) 0.7521(4)
C21? C 0.2011(19) 0.1413(17) 0.3235(7)
C22? C 0.138(2) 0.1563(19) 0.3565(8)
H15? H 0.14090 0.09490 0.37740
C23? C 0.0747(11) 0.2601(10) 0.3574(4)
H16? H 0.03220 0.26970 0.37840
C24? C 0.0735(17) 0.3551(10) 0.3255(5)
H17? H 0.02880 0.42560 0.32630
C25? C 0.1343(19) 0.3467(17) 0.2945(7)
H18? H 0.13280 0.41090 0.27460
C26? C 0.2001(9) 0.2388(11) 0.2928(3)
C27? C 0.2686(7) 0.1954(8) 0.2663(3)
C28? C 0.3051(11) 0.2398(11) 0.2276(3)
C29? C 0.2575(8) 0.3430(9) 0.2048(3)
H19? H 0.20440 0.39050 0.21520
C30? C 0.288(3) 0.377(2) 0.1664(8)
H20? H 0.25080 0.44390 0.15050
C31? C 0.372(3) 0.315(2) 0.1516(9)
H21? H 0.39650 0.34100 0.12720
C32? C 0.4171(15) 0.2128(15) 0.1739(5)
H22? H 0.47030 0.16590 0.16330
C33? C 0.388(2) 0.1753(19) 0.2117(8)
H23? H 0.42370 0.10660 0.22660
N3? N 0.2671(7) 0.0481(6) 0.3184(3)
O3? O 0.3087(4) 0.0839(4) 0.28169(16)
#END
