
#######################################################################
#
#                 Cambridge Crystallographic Data Centre
#                                CCDC
#
#######################################################################
#
# If this CIF has been generated from an entry in the Cambridge
# Structural Database, then it will include bibliographic, chemical,
# crystal, experimental, refinement or atomic coordinate data resulting
# from the CCDC's data processing and validation procedures.
#
#######################################################################

data_CSD_CIF_EKIQOE
_audit_creation_date 2004-01-09
_audit_creation_method CSD-ConQuest-V1
_database_code_CSD EKIQOE
_chemical_formula_sum 'C10 H16 N2 O2'
_chemical_formula_moiety
;
C10 H16 N2 O2
;
_journal_coden_Cambridge 371
_journal_year 2000
_journal_page_first 121
_journal_name_full 'Khim.Prir.Soedin(Russ.)(Chem.Nat.Compd.) '
loop_
_publ_author_name
"G.A.Atazhanova"
"A.Y.Kulyyasov"
"A.D.Dembitskii"
"V.A.Raldugin"
"M.M.Shakirov"
"I.Yu.Bagryanskaya"
"Y.V.Gatilov"
"S.M.Adekenov"
"G.A.Tolstikov"
_chemical_name_systematic
;
5-(1',1'-Dimethylallyl)-3,3-dimethyl-3H-pyrazole N,N'-dioxide
;
_chemical_melting_point 386.15
_cell_volume    572.147
_exptl_crystal_colour 'colorless'
_exptl_crystal_density_diffrn 1.139
_exptl_special_details
;
Melting point range 386.15-388.15K

;
_diffrn_ambient_temperature ?
_diffrn_special_details
;
The study was carried out at room temperature,in the range 283-303K

;
_refine_special_details
;
The vinyl group is disordered over two sites with 0.52:0.48 occupancies.

;
#These two values have been output from a single CSD field.
_refine_ls_R_factor_gt 0.0783
_refine_ls_wR_factor_gt 0.0783
_chemical_compound_source
;
derived from Artemisia glabella Kar. et Kir
;
_symmetry_cell_setting triclinic
_symmetry_space_group_name_H-M 'P -1'
_symmetry_Int_Tables_number 2
loop_
_symmetry_equiv_pos_site_id
_symmetry_equiv_pos_as_xyz
1 x,y,z
2 -x,-y,-z
_cell_length_a 5.914(6)
_cell_length_b 6.048(4)
_cell_length_c 17.741(11)
_cell_angle_alpha 93.19(4)
_cell_angle_beta 94.59(6)
_cell_angle_gamma 114.64(7)
_cell_formula_units_Z 2
loop_
_atom_type_symbol
_atom_type_radius_bond
C 0.68
N 0.68
O 0.68
loop_
_atom_site_label
_atom_site_type_symbol
_atom_site_fract_x
_atom_site_fract_y
_atom_site_fract_z
C1 C 0.2850(3) 0.4750(4) 0.5591(9)
C2? C 0.1480(4) 0.2090(4) 0.5527(11)
C3 C 0.1970(9) 0.3586(10) 0.6088(3)
C4 C 0.0182(6) 0.3740(6) 0.6641(2)
C5 C 0.1136(5) 0.3453(5) 0.7424(2)
C6 C 0.0218(6) 0.1814(6) 0.7917(2)
C7 C 0.1907(6) 0.2438(6) 0.8642(2)
C8 C 0.2924(9) 0.0553(9) 0.8807(3)
C9 C -0.2413(7) 0.1657(8) 0.6435(2)
C10 C -0.0024(8) 0.6182(8) 0.6641(3)
C11 C 0.0760(8) 0.3055(9) 0.9319(2)
N1 N 0.3555(4) 0.5255(5) 0.7780(2)
N2 N 0.3997(5) 0.4710(5) 0.8462(2)
O1 O 0.5058(5) 0.7106(5) 0.7498(2)
O2 O 0.5988(5) 0.6001(6) 0.8896(2)
#END
