
#######################################################################
#
#                 Cambridge Crystallographic Data Centre
#                                CCDC
#
#######################################################################
#
# If this CIF has been generated from an entry in the Cambridge
# Structural Database, then it will include bibliographic, chemical,
# crystal, experimental, refinement or atomic coordinate data resulting
# from the CCDC's data processing and validation procedures.
#
#######################################################################

data_CSD_CIF_EKUMOM
_audit_creation_date 2004-01-09
_audit_creation_method CSD-ConQuest-V1
_database_code_CSD EKUMOM
_database_code_depnum_ccdc_archive 'CCDC 212523'
_chemical_formula_sum 'C12 H13 N5 O6'
_chemical_formula_moiety
;
C12 H13 N5 O6
;
_journal_coden_Cambridge 24
_journal_volume 44
_journal_year 2003
_journal_page_first 7245
_journal_name_full 'Tetrahedron Lett. '
loop_
_publ_author_name
"Desuo Yang"
"Liandi Lei"
"Zhongquan Liu"
"Longmin Wu"
_chemical_name_systematic
;
1-(2,4-dinitrophenyl)-2-(1-nitrocyclohexyl)diazene
;
_chemical_melting_point 398.75
_cell_volume   1477.791
_exptl_crystal_density_diffrn 1.453
_diffrn_ambient_temperature 296
_refine_special_details
;
Two O atoms of a nitro group were refined over two positions with occupancies 
0.569:0.431.
;
#These two values have been output from a single CSD field.
_refine_ls_R_factor_gt 0.0428
_refine_ls_wR_factor_gt 0.0428
_symmetry_cell_setting monoclinic
_symmetry_space_group_name_H-M 'P 21/c'
_symmetry_Int_Tables_number 14
loop_
_symmetry_equiv_pos_site_id
_symmetry_equiv_pos_as_xyz
1 x,y,z
2 x,1/2-y,1/2+z
3 -x,-y,-z
4 -x,-1/2+y,-1/2-z
_cell_length_a 11.282(2)
_cell_length_b 13.033(2)
_cell_length_c 10.162(1)
_cell_angle_alpha 90
_cell_angle_beta 98.50(1)
_cell_angle_gamma 90
_cell_formula_units_Z 4
loop_
_atom_type_symbol
_atom_type_radius_bond
C 0.68
H 0.23
N 0.68
O 0.68
loop_
_atom_site_label
_atom_site_type_symbol
_atom_site_fract_x
_atom_site_fract_y
_atom_site_fract_z
O1 O 0.87659(15) 0.54492(14) 0.68640(16)
O2 O 0.98992(13) 0.43029(13) 0.61942(14)
O3 O 0.44838(15) 0.38412(14) -0.11097(15)
O4 O 0.42938(16) 0.23311(13) -0.03286(18)
N1 N 0.89555(15) 0.47691(13) 0.61072(15)
N2 N 0.7490(2) 0.2584(2) 0.2356(2)
N3 N 0.53804(14) 0.37310(12) 0.18283(14)
N4 N 0.43314(14) 0.39520(12) 0.19304(15)
N5 N 0.41219(15) 0.32525(15) -0.03335(16)
C1 C 0.72884(18) 0.34617(15) 0.31921(19)
C2 C 0.81962(18) 0.37072(15) 0.42022(18)
H1 H 0.89140 0.33450 0.43270
C3 C 0.79980(16) 0.45057(14) 0.50148(17)
C4 C 0.69509(17) 0.50610(15) 0.48419(18)
H2 H 0.68400 0.55950 0.54180
C5 C 0.60679(17) 0.48161(14) 0.38032(18)
H3 H 0.53680 0.52020 0.36580
C6 C 0.62178(16) 0.39973(14) 0.29746(17)
C7 C 0.34507(16) 0.37091(14) 0.07495(17)
C8 C 0.25890(18) 0.29163(16) 0.1164(2)
H4 H 0.22950 0.31510 0.19620
H5 H 0.30140 0.22760 0.13720
C9 C 0.1531(2) 0.27281(19) 0.0078(2)
H6 H 0.18110 0.24020 -0.06770
H7 H 0.09680 0.22670 0.04090
C10 C 0.0900(2) 0.3725(2) -0.0368(2)
H8 H 0.02510 0.35870 -0.10840
H9 H 0.05580 0.40210 0.03670
C11 C 0.1765(2) 0.4484(2) -0.0842(2)
H10 H 0.13490 0.51220 -0.10940
H11 H 0.20600 0.42110 -0.16200
C12 C 0.28207(19) 0.46921(16) 0.0255(2)
H12 H 0.33870 0.51440 -0.00860
H13 H 0.25320 0.50370 0.09920
O5 O 0.8450(3) 0.2357(7) 0.2110(7)
O6 O 0.6640(4) 0.2029(4) 0.2038(7)
O7? O 0.8060(16) 0.2848(6) 0.1487(14)
O8? O 0.7073(14) 0.1747(5) 0.2424(12)
#END
