
#######################################################################
#
#                 Cambridge Crystallographic Data Centre
#                                CCDC
#
#######################################################################
#
# If this CIF has been generated from an entry in the Cambridge
# Structural Database, then it will include bibliographic, chemical,
# crystal, experimental, refinement or atomic coordinate data resulting
# from the CCDC's data processing and validation procedures.
#
#######################################################################

data_CSD_CIF_ELOZUB
_audit_creation_date 2011-03-04
_audit_creation_method CSD-ConQuest-V1
_database_code_CSD ELOZUB
_database_code_depnum_ccdc_archive 'CCDC 783020'
_chemical_formula_sum 'C10 H6 N6 O8'
_chemical_formula_moiety
;
C10 H6 N6 O8
;
_journal_coden_Cambridge 95
_journal_year 2009
_journal_page_first 2045
_journal_name_full 'Izv.Akad.Nauk SSSR,Ser.Khim.(Russ.)(Russ.Chem.Bull.) '
loop_
_publ_author_name
"A.A.Zaitsev"
"I.A.Vatsadze"
"I.L.Dalinger"
"V.V.Kachala"
"Yu.V.Nelyubina"
"S.A.Shevelev"
_chemical_name_systematic
;
1-(2,4-Dinitrophenyl)-4-methyl-3,5-dinitro-1H-pyrazole
;
_chemical_melting_point 427.15
_cell_volume   1308.046
_exptl_crystal_colour 'light yellow'
_exptl_crystal_density_diffrn 1.717
_exptl_special_details
;
Melting point range 427.15-429.15K

;
_exptl_crystal_description 'prism'
_exptl_crystal_preparation 'acetonitrile/ethanol'
_diffrn_ambient_temperature 120
#These two values have been output from a single CSD field.
_refine_ls_R_factor_gt 0.0532
_refine_ls_wR_factor_gt 0.0532
_symmetry_cell_setting monoclinic
_symmetry_space_group_name_H-M 'P 21/c'
_symmetry_Int_Tables_number 14
loop_
_symmetry_equiv_pos_site_id
_symmetry_equiv_pos_as_xyz
1 x,y,z
2 -x,1/2+y,1/2-z
3 -x,-y,-z
4 x,-1/2-y,-1/2+z
_cell_length_a 6.4237(6)
_cell_length_b 22.363(2)
_cell_length_c 9.2569(9)
_cell_angle_alpha 90
_cell_angle_beta 100.374(5)
_cell_angle_gamma 90
_cell_formula_units_Z 4
loop_
_atom_type_symbol
_atom_type_radius_bond
C 0.68
H 0.23
N 0.68
O 0.68
loop_
_atom_site_label
_atom_site_type_symbol
_atom_site_fract_x
_atom_site_fract_y
_atom_site_fract_z
N1 N 0.6532(3) 0.62611(7) 0.53738(19)
N2 N 0.5821(3) 0.63240(7) 0.66480(19)
N3 N 0.6984(3) 0.60546(8) 0.9151(2)
O1 O 0.5443(3) 0.63254(8) 0.94477(18)
O2 O 0.8281(3) 0.57801(7) 1.00415(17)
N4 N 0.9589(3) 0.58849(8) 0.4425(2)
O3 O 1.1180(2) 0.55690(7) 0.46563(19)
O4 O 0.8920(2) 0.61415(8) 0.32597(17)
N5 N 0.4372(3) 0.55406(8) 0.2750(2)
O5 O 0.5513(2) 0.52658(7) 0.37271(18)
O6 O 0.3390(3) 0.53070(7) 0.16374(19)
N6 N 0.0930(3) 0.73756(8) 0.0750(2)
C1 C 0.7300(3) 0.60617(9) 0.7634(2)
C2 C 0.9018(3) 0.58217(9) 0.7072(2)
C3 C 0.8433(3) 0.59640(9) 0.5609(2)
C4 C 1.0978(3) 0.55151(10) 0.7846(3)
H1 H 1.20010 0.54840 0.71820
H2 H 1.06160 0.51140 0.81460
H3 H 1.15990 0.57470 0.87160
C5 C 0.5254(3) 0.65194(9) 0.4093(2)
C6 C 0.4143(3) 0.61934(9) 0.2907(2)
C7 C 0.2742(3) 0.64713(9) 0.1811(2)
H4 H 0.19690 0.62490 0.10170
C8 C 0.2491(3) 0.70854(9) 0.1898(2)
C9 C 0.3620(3) 0.74273(9) 0.3007(2)
H5 H 0.34590 0.78500 0.30140
C10 C 0.5003(3) 0.71374(9) 0.4119(2)
H6 H 0.57830 0.73640 0.49030
O7 O 0.0626(3) 0.79109(8) 0.0882(2)
O8 O 0.0032(3) 0.70740(8) -0.0285(2)
#END
