
#######################################################################
#
#                 Cambridge Crystallographic Data Centre
#                                CCDC
#
#######################################################################
#
# If this CIF has been generated from an entry in the Cambridge
# Structural Database, then it will include bibliographic, chemical,
# crystal, experimental, refinement or atomic coordinate data resulting
# from the CCDC's data processing and validation procedures.
#
#######################################################################

data_CSD_CIF_ELUBIW
_audit_creation_date 2004-02-24
_audit_creation_method CSD-ConQuest-V1
_database_code_CSD ELUBIW
_database_code_depnum_ccdc_archive 'CCDC 209346'
_chemical_formula_sum 'C18 H16 N4 O3'
_chemical_formula_moiety
;
C18 H16 N4 O3
;
_journal_coden_Cambridge 214
_journal_volume 134
_journal_year 2003
_journal_page_first 1145
_journal_name_full 'Monatsh.Chem. '
loop_
_publ_author_name
"L.Zaprutko"
"D.Olender"
"A.Gzella"
_chemical_name_systematic
;
2-Methyl-5-nitro-1-phenacyl-4-phenylaminoimidazole
;
_chemical_melting_point 486.15
_cell_volume   1586.359
_exptl_crystal_colour 'yellow'
_exptl_crystal_density_diffrn 1.408
_exptl_special_details
;
Melting point range 486.15-487.15K

;
_exptl_crystal_description 'needle'
_diffrn_ambient_temperature 293
#These two values have been output from a single CSD field.
_refine_ls_R_factor_gt 0.0361
_refine_ls_wR_factor_gt 0.0361
_symmetry_cell_setting monoclinic
_symmetry_space_group_name_H-M 'P 21/n'
_symmetry_Int_Tables_number 14
loop_
_symmetry_equiv_pos_site_id
_symmetry_equiv_pos_as_xyz
1 x,y,z
2 1/2-x,1/2+y,1/2-z
3 -x,-y,-z
4 -1/2+x,-1/2-y,-1/2+z
_cell_length_a 7.871(2)
_cell_length_b 21.074(4)
_cell_length_c 10.030(2)
_cell_angle_alpha 90
_cell_angle_beta 107.54(3)
_cell_angle_gamma 90
_cell_formula_units_Z 4
loop_
_atom_type_symbol
_atom_type_radius_bond
C 0.68
H 0.23
N 0.68
O 0.68
loop_
_atom_site_label
_atom_site_type_symbol
_atom_site_fract_x
_atom_site_fract_y
_atom_site_fract_z
N1 N 1.02726(14) 0.12609(6) 0.60647(12)
C1 C 0.98842(18) 0.18730(7) 0.57416(15)
N2 N 0.81586(15) 0.19697(6) 0.50827(13)
C2 C 0.73765(18) 0.13974(7) 0.50053(14)
C3 C 0.86602(17) 0.09355(7) 0.56082(15)
C4 C 1.20625(18) 0.10147(8) 0.66843(16)
H1 H 1.290(2) 0.1293(9) 0.6371(19)
H2 H 1.209(2) 0.0587(9) 0.6369(18)
C5 C 1.26154(18) 0.10102(7) 0.82659(15)
O1 O 1.15553(15) 0.11432(7) 0.88754(13)
C6 C 1.45001(17) 0.08439(6) 0.90048(15)
C7 C 1.56635(19) 0.06346(8) 0.82907(17)
H3 H 1.523(3) 0.0566(9) 0.729(2)
C8 C 1.7414(2) 0.04963(9) 0.9022(2)
H4 H 1.827(3) 0.0345(10) 0.846(2)
C9 C 1.8013(2) 0.05633(8) 1.0448(2)
H5 H 1.920(3) 0.0481(9) 1.097(2)
C10 C 1.6870(2) 0.07604(9) 1.11609(19)
H6 H 1.732(3) 0.0803(10) 1.217(2)
C11 C 1.5118(2) 0.08997(8) 1.04451(17)
H7 H 1.429(3) 0.1033(9) 1.093(2)
C12 C 1.1215(2) 0.23898(9) 0.6110(2)
H8 H 1.064(3) 0.2797(12) 0.582(3)
H9 H 1.214(3) 0.2344(10) 0.568(2)
H10 H 1.179(3) 0.2395(11) 0.710(3)
N3 N 0.56067(15) 0.12880(6) 0.44445(14)
H11 H 0.535(2) 0.0880(9) 0.4444(19)
C13 C 0.42379(17) 0.17314(7) 0.38611(13)
C14 C 0.44813(19) 0.23827(7) 0.39462(15)
H12 H 0.563(2) 0.2556(8) 0.4427(18)
C15 C 0.3058(2) 0.27798(8) 0.33506(17)
H13 H 0.325(2) 0.3247(9) 0.3443(18)
C16 C 0.1400(2) 0.25352(9) 0.26720(18)
H14 H 0.041(3) 0.2829(9) 0.224(2)
C17 C 0.1155(2) 0.18905(9) 0.26025(19)
H15 H 0.002(3) 0.1706(9) 0.210(2)
C18 C 0.25630(19) 0.14839(8) 0.31933(17)
H16 H 0.238(2) 0.1028(9) 0.3139(18)
N4 N 0.84183(15) 0.03072(6) 0.57902(13)
O2 O 0.96791(14) -0.00410(5) 0.64287(12)
O3 O 0.68572(14) 0.00912(5) 0.52929(13)
#END
