
#######################################################################
#
#                 Cambridge Crystallographic Data Centre
#                                CCDC
#
#######################################################################
#
# If this CIF has been generated from an entry in the Cambridge
# Structural Database, then it will include bibliographic, chemical,
# crystal, experimental, refinement or atomic coordinate data resulting
# from the CCDC's data processing and validation procedures.
#
#######################################################################

data_CSD_CIF_ELUDEV
_audit_creation_date 2011-03-04
_audit_creation_method CSD-ConQuest-V1
_database_code_CSD ELUDEV
_database_code_depnum_ccdc_archive 'CCDC 783021'
_chemical_formula_sum 'C4 H2 N10 O6'
_chemical_formula_moiety
;
C4 H2 N10 O6
;
_journal_coden_Cambridge 95
_journal_year 2009
_journal_page_first 2065
_journal_name_full 'Izv.Akad.Nauk SSSR,Ser.Khim.(Russ.)(Russ.Chem.Bull.) '
loop_
_publ_author_name
"K.Yu.Suponitsky"
"K.A.Lyssenko"
"M.Yu.Antipin"
"N.S.Aleksandrova"
"A.B.Sheremetev"
"T.S.Novikova"
_chemical_name_systematic
;
N,N'-bis(3-Nitroamino-1,2,5-oxadiazol-4-yl)diazene
;
_chemical_melting_point 395.15
_cell_volume    476.050
_exptl_crystal_colour 'yellow'
_exptl_crystal_density_diffrn 1.996
_exptl_special_details
;
Melting point range 395.15-396.15K

;
_exptl_crystal_description 'needle'
_diffrn_ambient_temperature 110
#These two values have been output from a single CSD field.
_refine_ls_R_factor_gt 0.0534
_refine_ls_wR_factor_gt 0.0534
_symmetry_cell_setting monoclinic
_symmetry_space_group_name_H-M 'P 21/c'
_symmetry_Int_Tables_number 14
loop_
_symmetry_equiv_pos_site_id
_symmetry_equiv_pos_as_xyz
1 x,y,z
2 -x,1/2+y,1/2-z
3 -x,-y,-z
4 x,-1/2-y,-1/2+z
_cell_length_a 5.584(3)
_cell_length_b 9.065(5)
_cell_length_c 9.494(4)
_cell_angle_alpha 90
_cell_angle_beta 97.870(16)
_cell_angle_gamma 90
_cell_formula_units_Z 2
loop_
_atom_type_symbol
_atom_type_radius_bond
C 0.68
H 0.23
N 0.68
O 0.68
loop_
_atom_site_label
_atom_site_type_symbol
_atom_site_fract_x
_atom_site_fract_y
_atom_site_fract_z
O1 O 1.0146(4) 0.3938(2) 0.6099(2)
O2 O 0.4347(4) 0.1682(2) 0.6808(2)
O3 O 0.3422(4) 0.1498(3) 0.8928(2)
N1 N 0.8147(5) 0.3158(3) 0.6442(2)
N2 N 1.1245(4) 0.4706(3) 0.7233(2)
N3 N 0.6390(4) 0.2943(3) 0.8563(2)
H1 H 0.65380 0.29120 0.95180
N4 N 0.4606(5) 0.1959(3) 0.8052(3)
N5 N 1.0698(4) 0.5135(3) 0.9560(2)
C1 C 0.9995(5) 0.4446(3) 0.8258(3)
C2 C 0.8067(6) 0.3473(3) 0.7763(3)
O1B O 0.9854(4) 0.6062(2) 1.3901(2)
O2B O 1.5653(4) 0.8318(2) 1.3192(2)
O3B O 1.6578(4) 0.8502(3) 1.1072(2)
N1B N 1.1853(5) 0.6842(3) 1.3558(2)
N2B N 0.8755(4) 0.5294(3) 1.2767(2)
N3B N 1.3610(4) 0.7057(3) 1.1437(2)
H1B H 1.34620 0.70880 1.04820
N4B N 1.5394(5) 0.8041(3) 1.1948(3)
N5B N 0.9302(4) 0.4865(3) 1.0440(2)
C1B C 1.0005(5) 0.5554(3) 1.1742(3)
C2B C 1.1933(6) 0.6527(3) 1.2237(3)
#END
