
#######################################################################
#
#                 Cambridge Crystallographic Data Centre
#                                CCDC
#
#######################################################################
#
# If this CIF has been generated from an entry in the Cambridge
# Structural Database, then it will include bibliographic, chemical,
# crystal, experimental, refinement or atomic coordinate data resulting
# from the CCDC's data processing and validation procedures.
#
#######################################################################

data_CSD_CIF_ELUMUV
_audit_creation_date 2016-04-27
_audit_creation_method CSD-ConQuest-V1
_database_code_CSD ELUMUV
_database_code_depnum_ccdc_archive 'CCDC 1045557'
_chemical_formula_sum 'C20 H19 N5 O2'
_chemical_formula_moiety
;
C20 H19 N5 O2
;
_journal_coden_Cambridge 122
_journal_volume 51
_journal_year 2015
_journal_page_first 327
_journal_name_full 'Khim.Get.Soedin.,SSSR(Russ.)(Chem.Heterocycl.Compd.) '
loop_
_publ_author_name
"E.V.Zaliznaya"
"O.K.Farat"
"N.Y.Gorobets"
"V.I.Markov"
"R.I.Zubatyuk"
"A.V.Mazepa"
"E.V.Vashchenko"
_chemical_name_systematic
;
4-((2-nitrophenyl)diazenyl)-1,2,3,4,5,6,7,8-octahydroacridine-4-carbonitrile
;
_cell_volume   1828.067
_exptl_crystal_colour 'light red'
_exptl_crystal_density_diffrn 1.313
_exptl_crystal_description 'block'
_diffrn_ambient_temperature 293
#These two values have been output from a single CSD field.
_refine_ls_R_factor_gt 0.0599
_refine_ls_wR_factor_gt 0.0599
_symmetry_cell_setting monoclinic
_symmetry_space_group_name_H-M 'P 21/c'
_symmetry_Int_Tables_number 14
loop_
_symmetry_equiv_pos_site_id
_symmetry_equiv_pos_as_xyz
1 x,y,z
2 -x,1/2+y,1/2-z
3 -x,-y,-z
4 x,-1/2-y,-1/2+z
_cell_length_a 15.8978(6)
_cell_length_b 12.2313(5)
_cell_length_c 9.7569(5)
_cell_angle_alpha 90
_cell_angle_beta 105.519(5)
_cell_angle_gamma 90
_cell_formula_units_Z 4
loop_
_atom_type_symbol
_atom_type_radius_bond
C 0.68
H 0.23
N 0.68
O 0.68
loop_
_atom_site_label
_atom_site_type_symbol
_atom_site_fract_x
_atom_site_fract_y
_atom_site_fract_z
O1 O 0.45961(10) 0.35004(13) 0.26841(19)
O2 O 0.50587(11) 0.21587(14) 0.1683(2)
N1 N 0.16635(9) 0.41689(12) 0.52685(16)
N2 N 0.18634(14) 0.5172(2) 0.1574(2)
N3 N 0.31366(9) 0.37357(13) 0.44801(16)
N4 N 0.31373(9) 0.32432(13) 0.33732(17)
N5 N 0.46298(10) 0.25284(15) 0.24384(19)
C1 C 0.11403(11) 0.42298(14) 0.6138(2)
C2 C 0.06241(15) 0.32204(17) 0.6246(3)
H1 H 0.10230 0.26490 0.67080
H2 H 0.03320 0.29700 0.52940
C3 C -0.00548(15) 0.33969(19) 0.7069(3)
H3 H -0.05670 0.37410 0.64510
H4 H -0.02300 0.26940 0.73600
C4 C 0.02825(14) 0.40927(18) 0.8351(2)
H5 H 0.07970 0.37560 0.89720
H6 H -0.01570 0.41530 0.88720
C5 C 0.05087(13) 0.52140(16) 0.7922(2)
H7 H 0.07980 0.56240 0.87680
H8 H -0.00250 0.55970 0.74530
C6 C 0.10959(11) 0.51712(14) 0.69350(18)
C7 C 0.16154(11) 0.60409(14) 0.67964(19)
H9 H 0.15890 0.66800 0.72990
C8 C 0.21788(11) 0.59929(14) 0.59282(19)
C9 C 0.27777(14) 0.69321(16) 0.5840(2)
H10 H 0.32310 0.69800 0.67290
H11 H 0.24460 0.76080 0.57220
C10 C 0.32024(14) 0.68213(17) 0.4627(2)
H12 H 0.27830 0.70100 0.37380
H13 H 0.36890 0.73250 0.47720
C11 C 0.35244(12) 0.56628(16) 0.4539(2)
H14 H 0.39330 0.54670 0.54360
H15 H 0.38290 0.56220 0.38020
C12 C 0.27605(12) 0.48532(15) 0.42048(19)
C13 C 0.21709(11) 0.50238(14) 0.51917(18)
C14 C 0.22437(14) 0.49978(18) 0.2708(2)
C15 C 0.34677(11) 0.21513(15) 0.36285(19)
C16 C 0.41367(11) 0.17682(15) 0.30828(19)
C17 C 0.43796(13) 0.06870(16) 0.3191(2)
H16 H 0.48290 0.04470 0.28200
C18 C 0.39553(15) -0.00353(18) 0.3849(2)
H17 H 0.41120 -0.07700 0.39190
C19 C 0.32984(15) 0.03271(18) 0.4405(2)
H18 H 0.30150 -0.01640 0.48580
C20 C 0.30542(13) 0.14118(18) 0.4300(2)
H19 H 0.26090 0.16470 0.46840
#END
