
#######################################################################
#
#                 Cambridge Crystallographic Data Centre
#                                CCDC
#
#######################################################################
#
# If this CIF has been generated from an entry in the Cambridge
# Structural Database, then it will include bibliographic, chemical,
# crystal, experimental, refinement or atomic coordinate data resulting
# from the CCDC's data processing and validation procedures.
#
#######################################################################

data_CSD_CIF_ELUREJ
_audit_creation_date 2011-06-07
_audit_creation_method CSD-ConQuest-V1
_database_code_CSD ELUREJ
_database_code_depnum_ccdc_archive 'CCDC 818424'
_chemical_formula_sum 'C21 H28 N2 O2'
_chemical_formula_moiety
;
C21 H28 N2 O2
;
_journal_coden_Cambridge 4
_journal_volume 132
_journal_year 2010
_journal_page_first 9598
_journal_name_full 'J.Am.Chem.Soc. '
loop_
_publ_author_name
"H.Nishimaki"
"T.Ishida"
_chemical_name_systematic
;
2',4',6'-Trimethylbiphenyl-3,5-diyl bis(t-butylnitroxide)
;
_chemical_melting_point 352
_cell_volume    936.086
_exptl_crystal_colour 'orange'
_exptl_crystal_density_diffrn 1.208
_exptl_special_details
;
low temperature polymorph
undergoes a phase transition between 230 K and 280 K
;
_exptl_crystal_description 'platelet'
_diffrn_ambient_temperature 116
#These two values have been output from a single CSD field.
_refine_ls_R_factor_gt 0.0595
_refine_ls_wR_factor_gt 0.0595
_symmetry_cell_setting triclinic
_symmetry_space_group_name_H-M 'P -1'
_symmetry_Int_Tables_number 2
loop_
_symmetry_equiv_pos_site_id
_symmetry_equiv_pos_as_xyz
1 x,y,z
2 -x,-y,-z
_cell_length_a 9.2411(5)
_cell_length_b 10.3875(2)
_cell_length_c 11.7540(5)
_cell_angle_alpha 110.621(4)
_cell_angle_beta 96.472(3)
_cell_angle_gamma 112.361(4)
_cell_formula_units_Z 2
loop_
_atom_type_symbol
_atom_type_radius_bond
C 0.68
H 0.23
N 0.68
O 0.68
loop_
_atom_site_label
_atom_site_type_symbol
_atom_site_fract_x
_atom_site_fract_y
_atom_site_fract_z
O1 O -0.1299(2) 0.3597(2) 0.43799(17)
O2 O -0.1357(2) -0.0302(2) 0.03448(17)
N1 N -0.0986(2) 0.4514(2) 0.3835(2)
N2 N -0.0846(2) 0.0785(2) -0.0021(2)
C1 C -0.0215(3) 0.4166(3) 0.2839(2)
C2 C -0.0871(3) 0.2667(3) 0.1919(2)
C3 C -0.0123(3) 0.2331(3) 0.0966(2)
C4 C 0.1305(3) 0.3469(3) 0.0978(2)
C5 C 0.1986(3) 0.4969(3) 0.1917(2)
C6 C 0.1197(3) 0.5315(3) 0.2845(2)
C7 C 0.3558(3) 0.6183(3) 0.1973(2)
C8 C 0.4031(3) 0.6122(3) 0.0875(2)
C9 C 0.5494(3) 0.7271(3) 0.0947(2)
C10 C 0.6491(3) 0.8488(3) 0.2090(2)
C11 C 0.6050(3) 0.8578(3) 0.3209(2)
C12 C 0.4585(3) 0.7412(3) 0.3126(2)
C13 C -0.2158(3) 0.5175(3) 0.3702(2)
C14 C -0.1407(4) 0.6499(4) 0.3343(4)
C15 C -0.2574(5) 0.5704(5) 0.4934(3)
C16 C -0.3689(4) 0.3902(4) 0.2655(3)
C17 C -0.1849(3) 0.0452(3) -0.1286(2)
C18 C -0.0984(4) 0.1709(3) -0.1704(2)
C19 C -0.3479(3) 0.0401(3) -0.1103(2)
C20 C -0.2105(3) -0.1089(3) -0.2258(2)
C21 C 0.7131(4) 0.9892(3) 0.4461(3)
H1 H -0.182(3) 0.188(3) 0.190(2)
H2 H 0.185(4) 0.321(3) 0.040(3)
H3 H 0.160(3) 0.629(3) 0.346(2)
H4 H 0.338(4) 0.532(4) 0.005(3)
H5 H 0.579(4) 0.720(4) 0.019(3)
H6 H 0.750(4) 0.926(4) 0.215(3)
H7 H 0.429(4) 0.744(3) 0.388(3)
H8 H -0.060(5) 0.726(5) 0.402(4)
H9 H -0.212(5) 0.699(4) 0.333(3)
H10 H -0.100(7) 0.625(6) 0.258(5)
H11 H -0.305(4) 0.487(4) 0.519(3)
H12 H -0.327(4) 0.617(4) 0.487(3)
H13 H -0.161(7) 0.646(6) 0.560(5)
H14 H -0.344(6) 0.355(5) 0.182(4)
H15 H -0.450(5) 0.432(4) 0.252(3)
H16 H -0.412(6) 0.304(6) 0.292(4)
H17 H -0.090(4) 0.271(4) -0.114(3)
H18 H -0.173(5) 0.138(5) -0.254(4)
H19 H 0.014(5) 0.186(5) -0.177(3)
H20 H -0.403(4) -0.042(4) -0.083(3)
H21 H -0.418(4) 0.026(4) -0.188(3)
H22 H -0.322(4) 0.143(4) -0.049(3)
H23 H -0.097(4) -0.102(3) -0.237(2)
H24 H -0.285(4) -0.132(3) -0.306(3)
H25 H -0.262(4) -0.189(4) -0.199(3)
H26 H 0.795(5) 0.968(4) 0.475(3)
H27 H 0.656(5) 0.999(5) 0.507(4)
H28 H 0.757(5) 1.086(5) 0.436(4)
#END
