
#######################################################################
#
#                 Cambridge Crystallographic Data Centre
#                                CCDC
#
#######################################################################
#
# If this CIF has been generated from an entry in the Cambridge
# Structural Database, then it will include bibliographic, chemical,
# crystal, experimental, refinement or atomic coordinate data resulting
# from the CCDC's data processing and validation procedures.
#
#######################################################################

data_CSD_CIF_EMAQEQ
_audit_creation_date 2016-05-23
_audit_creation_method CSD-ConQuest-V1
_database_code_CSD EMAQEQ
_database_code_depnum_ccdc_archive 'CCDC 1479499'
_chemical_formula_sum 'C14 H13 N1 O3'
_chemical_formula_moiety
;
C14 H13 N1 O3
;
_journal_coden_Cambridge 1078
_journal_year 2016
_journal_name_full 'CSD Communication(Private Communication) '
loop_
_publ_author_name
"T.Dey"
"K.S.S.Praveena"
"S.Pal"
"A.K.Mukherjee"
_chemical_name_systematic
;
1-(3-methoxy-4-(prop-2-yn-1-yloxy)phenyl)-N-(prop-2-yn-1-yloxy)methanimine
;
_cell_volume   2553.000
_exptl_crystal_density_diffrn 1.266
_exptl_crystal_description 'block'
_diffrn_ambient_temperature 293
#These two values have been output from a single CSD field.
_refine_ls_R_factor_gt 0.0334
_refine_ls_wR_factor_gt 0.0334
_symmetry_cell_setting monoclinic
_symmetry_space_group_name_H-M 'C 2/c'
_symmetry_Int_Tables_number 15
loop_
_symmetry_equiv_pos_site_id
_symmetry_equiv_pos_as_xyz
1 x,y,z
2 -x,y,1/2-z
3 1/2+x,1/2+y,z
4 1/2-x,1/2+y,1/2-z
5 -x,-y,-z
6 x,-y,-1/2+z
7 -1/2-x,-1/2-y,-z
8 -1/2+x,-1/2-y,-1/2+z
_cell_length_a 25.844(3)
_cell_length_b 4.1166(4)
_cell_length_c 24.109(3)
_cell_angle_alpha 90
_cell_angle_beta 95.531(3)
_cell_angle_gamma 90
_cell_formula_units_Z 8
loop_
_atom_type_symbol
_atom_type_radius_bond
C 0.68
H 0.23
N 0.68
O 0.68
loop_
_atom_site_label
_atom_site_type_symbol
_atom_site_fract_x
_atom_site_fract_y
_atom_site_fract_z
O1 O 0.10271(4) 0.2277(3) 0.34761(4)
C1 C 0.26409(6) 0.2032(4) 0.35955(6)
O2 O 0.15276(4) 0.5087(3) 0.43006(4)
C2 C 0.15554(5) 0.2113(4) 0.34792(6)
C3 C 0.18337(5) 0.3667(4) 0.39364(5)
C4 C 0.23660(5) 0.3629(4) 0.39933(6)
N1 N 0.34906(5) 0.3081(3) 0.40510(5)
O3 O 0.40174(4) 0.2295(3) 0.39990(5)
C5 C 0.23632(6) 0.0553(4) 0.31472(6)
C6 C 0.18240(6) 0.0598(4) 0.30845(6)
C7 C 0.17806(7) 0.6605(5) 0.47822(7)
C8 C 0.32068(6) 0.1806(4) 0.36524(7)
C9 C 0.07163(7) 0.0472(5) 0.30592(7)
C10 C 0.43484(6) 0.3821(5) 0.44278(8)
C11 C 0.06909(6) 0.2005(5) 0.25102(7)
C12 C 0.48726(6) 0.2735(4) 0.43478(7)
C13 C 0.52851(7) 0.1769(5) 0.42657(7)
C14 C 0.06584(8) 0.3249(6) 0.20728(8)
H1 H 0.1643(6) -0.044(4) 0.2774(7)
H2 H 0.2557(6) 0.472(4) 0.4298(6)
H3 H 0.0851(7) -0.173(5) 0.3038(7)
H4 H 0.2555(7) -0.062(5) 0.2880(7)
H5 H 0.3362(7) 0.058(5) 0.3359(8)
H6 H 0.0366(7) 0.038(4) 0.3185(7)
H7 H 0.4259(7) 0.310(5) 0.4789(9)
H8 H 0.1493(8) 0.746(6) 0.4968(8)
H9 H 0.2001(8) 0.840(6) 0.4681(8)
H10 H 0.4317(8) 0.620(6) 0.4365(9)
H11 H 0.1984(7) 0.494(5) 0.5017(8)
H12 H 0.5615(9) 0.099(6) 0.4200(9)
H13 H 0.0623(9) 0.429(7) 0.1746(11)
#END
