
#######################################################################
#
#                 Cambridge Crystallographic Data Centre
#                                CCDC
#
#######################################################################
#
# If this CIF has been generated from an entry in the Cambridge
# Structural Database, then it will include bibliographic, chemical,
# crystal, experimental, refinement or atomic coordinate data resulting
# from the CCDC's data processing and validation procedures.
#
#######################################################################

data_CSD_CIF_EMAWUL
_audit_creation_date 2011-05-24
_audit_creation_method CSD-ConQuest-V1
_database_code_CSD EMAWUL
_database_code_depnum_ccdc_archive 'CCDC 751379'
_chemical_formula_sum 'C14 H11 N3 O4'
_chemical_formula_moiety
;
C14 H11 N3 O4
;
_journal_coden_Cambridge 119
_journal_volume 985
_journal_year 2011
_journal_page_first 292
_journal_name_full 'J.Mol.Struct. '
loop_
_publ_author_name
"S.Yazici"
"C.Albayrak"
"I.Gumrukcuoglu"
"I.Senel"
"O.Buyukgungor"
_chemical_name_systematic
;
(E)-2-Acetyl-4-(4-nitrophenyldiazenyl)phenol
;
_chemical_name_common
;
1-(2-Hydroxy-5-((4-nitrophenyl)diazenyl)phenyl)ethanone
;
_chemical_melting_point 452
_cell_volume   2534.749
_exptl_crystal_density_diffrn 1.308
_exptl_special_details
;
Melting point range 452-454K

;
_exptl_crystal_preparation 'dimethylsulfoxide'
_diffrn_ambient_temperature 293
#These two values have been output from a single CSD field.
_refine_ls_R_factor_gt 0.0364
_refine_ls_wR_factor_gt 0.0364
_symmetry_cell_setting monoclinic
_symmetry_space_group_name_H-M 'C 2/c'
_symmetry_Int_Tables_number 15
loop_
_symmetry_equiv_pos_site_id
_symmetry_equiv_pos_as_xyz
1 x,y,z
2 -x,y,1/2-z
3 1/2+x,1/2+y,z
4 1/2-x,1/2+y,1/2-z
5 -x,-y,-z
6 x,-y,-1/2+z
7 -1/2-x,-1/2-y,-z
8 -1/2+x,-1/2-y,-1/2+z
_cell_length_a 12.8640(8)
_cell_length_b 7.3264(3)
_cell_length_c 26.9330(17)
_cell_angle_alpha 90
_cell_angle_beta 93.052(5)
_cell_angle_gamma 90
_cell_formula_units_Z 7
loop_
_atom_type_symbol
_atom_type_radius_bond
C 0.68
H 0.23
N 0.68
O 0.68
loop_
_atom_site_label
_atom_site_type_symbol
_atom_site_fract_x
_atom_site_fract_y
_atom_site_fract_z
H1 H 0.3531(19) 0.122(3) 0.7041(10)
N1 N 0.36939(9) 0.56230(15) 0.48915(4)
C1 C 0.36036(10) 0.46828(18) 0.56808(5)
O1 O 0.34627(10) 0.05910(13) 0.67287(4)
N2 N 0.41092(9) 1.09306(15) 0.34092(4)
N3 N 0.37048(9) 0.61379(15) 0.53390(4)
C2 C 0.3874(1) 0.77665(17) 0.36717(5)
H2 H 0.38500 0.74100 0.33400
C3 C 0.40518(10) 1.01720(18) 0.42950(5)
H3 H 0.41500 1.14000 0.43720
C4 C 0.34820(11) 0.19671(18) 0.64011(5)
C5 C 0.36289(10) 0.51510(18) 0.61784(5)
H4 H 0.36850 0.63730 0.62690
C6 C 0.38042(10) 0.70561(17) 0.45425(5)
C7 C 0.39451(11) 0.88990(18) 0.46650(5)
H5 H 0.39670 0.92640 0.49960
C8 C 0.34850(11) 0.28378(18) 0.55417(5)
H6 H 0.34480 0.25200 0.52070
C9 C 0.37762(11) 0.65044(17) 0.40465(5)
H7 H 0.36910 0.52760 0.39680
O2 O 0.40050(11) 1.04166(15) 0.29783(4)
C10 C 0.40092(10) 0.95792(17) 0.38041(5)
C11 C 0.35708(10) 0.38150(18) 0.65488(5)
C12 C 0.34245(11) 0.15142(18) 0.58953(5)
H8 H 0.33440 0.03010 0.58000
O3 O 0.42891(9) 1.25200(13) 0.35258(4)
O4 O 0.36331(10) 0.30588(15) 0.73962(4)
C13 C 0.36178(11) 0.42896(19) 0.70829(5)
C14 C 0.36349(13) 0.6234(2) 0.72404(5)
H9 H 0.36670 0.63000 0.75970
H10 H 0.30150 0.68310 0.71100
H11 H 0.42340 0.68260 0.71160
#END
