
#######################################################################
#
#                 Cambridge Crystallographic Data Centre
#                                CCDC
#
#######################################################################
#
# If this CIF has been generated from an entry in the Cambridge
# Structural Database, then it will include bibliographic, chemical,
# crystal, experimental, refinement or atomic coordinate data resulting
# from the CCDC's data processing and validation procedures.
#
#######################################################################

data_CSD_CIF_EMAZUP
_audit_creation_date 2016-05-23
_audit_creation_method CSD-ConQuest-V1
_database_code_CSD EMAZUP
_database_code_depnum_ccdc_archive 'CCDC 1469091'
_chemical_formula_sum 'C13 H13 N1 O3'
_chemical_formula_moiety
;
C13 H13 N1 O3
;
_journal_coden_Cambridge 222
_journal_volume 45
_journal_year 2016
_journal_page_first 13091
_journal_name_full 'Dalton Trans. '
loop_
_publ_author_name
"M.Kubanik"
"W.Kandioller"
"Kunwoo Kim"
"R.F.Anderson"
"E.Klapproth"
"M.A.Jakupec"
"A.Roller"
"T.Sohnel"
"B.K.Keppler"
"C.G.Hartinger"
_chemical_name_systematic
;
3-hydroxy-4-(hydroxyimino)-2-propylnaphthalen-1(4H)-one
;
_cell_volume   1112.139
_exptl_crystal_colour 'colorless'
_exptl_crystal_density_diffrn 1.381
_exptl_crystal_description 'needle'
_diffrn_ambient_temperature 100
_refine_special_details
;
N1,O1,O2 and N1A,O1A,O2A disordered over two sites with occupancies 
0.740:0.260.
;
#These two values have been output from a single CSD field.
_refine_ls_R_factor_gt 0.0531
_refine_ls_wR_factor_gt 0.0531
_symmetry_cell_setting monoclinic
_symmetry_space_group_name_H-M 'P 21/n'
_symmetry_Int_Tables_number 14
loop_
_symmetry_equiv_pos_site_id
_symmetry_equiv_pos_as_xyz
1 x,y,z
2 1/2-x,1/2+y,1/2-z
3 -x,-y,-z
4 -1/2+x,-1/2-y,-1/2+z
_cell_length_a 11.8478(4)
_cell_length_b 6.9261(2)
_cell_length_c 13.7030(4)
_cell_angle_alpha 90
_cell_angle_beta 98.488(2)
_cell_angle_gamma 90
_cell_formula_units_Z 4
loop_
_atom_type_symbol
_atom_type_radius_bond
C 0.68
H 0.23
N 0.68
O 0.68
loop_
_atom_site_label
_atom_site_type_symbol
_atom_site_fract_x
_atom_site_fract_y
_atom_site_fract_z
C1 C 0.48286(17) 0.2586(3) 0.48892(14)
C2 C 0.80362(17) 0.1189(3) 0.54348(15)
H1 H 0.80750 0.08310 0.47410
H2 H 0.83090 0.00750 0.58570
C3 C 0.60251(17) 0.2151(3) 0.47844(14)
C4 C 0.88151(17) 0.2923(3) 0.57197(16)
H3 H 0.85820 0.39960 0.52560
H4 H 0.87130 0.33590 0.63890
C5 C 1.00734(18) 0.2480(3) 0.57075(17)
H5 H 1.03190 0.14520 0.61830
H6 H 1.05270 0.36440 0.58860
H7 H 1.01830 0.20600 0.50450
C6 C 0.68198(17) 0.1622(3) 0.55478(14)
C7 C 0.65065(17) 0.1536(3) 0.65298(14)
C8 C 0.50428(19) 0.1964(3) 0.76360(14)
H8 H 0.56110 0.16410 0.81750
C9 C 0.53257(17) 0.2020(3) 0.66820(14)
C10 C 0.39493(19) 0.2373(3) 0.78058(16)
H9 H 0.37640 0.23230 0.84570
C11 C 0.31247(19) 0.2856(3) 0.70202(15)
H10 H 0.23710 0.31400 0.71360
C12 C 0.33821(18) 0.2931(3) 0.60681(15)
H11 H 0.28050 0.32640 0.55370
C13 C 0.44894(17) 0.2520(3) 0.58824(14)
N1 N 0.4241(4) 0.2941(13) 0.4038(2)
O1 O 0.31215(17) 0.3334(3) 0.40412(13)
H12 H 0.28050 0.35500 0.34620
O2 O 0.6298(12) 0.2354(17) 0.3863(5)
H13 H 0.57080 0.26260 0.34670
O3 O 0.72203(12) 0.1033(2) 0.7240(1)
N2? N 0.4026(14) 0.309(4) 0.4187(7)
O4? O 0.4240(5) 0.3198(8) 0.3241(4)
H14? H 0.48380 0.25800 0.31880
O5? O 0.637(4) 0.204(6) 0.3882(15)
H15? H 0.70270 0.25100 0.39130
#END
