
#######################################################################
#
#                 Cambridge Crystallographic Data Centre
#                                CCDC
#
#######################################################################
#
# If this CIF has been generated from an entry in the Cambridge
# Structural Database, then it will include bibliographic, chemical,
# crystal, experimental, refinement or atomic coordinate data resulting
# from the CCDC's data processing and validation procedures.
#
#######################################################################

data_CSD_CIF_EMEDOQ
_audit_creation_date 2011-06-07
_audit_creation_method CSD-ConQuest-V1
_database_code_CSD EMEDOQ
_database_code_depnum_ccdc_archive 'CCDC 641435'
_chemical_formula_sum 'C19 H12 N2 O4'
_chemical_formula_moiety
;
C19 H12 N2 O4
;
_journal_coden_Cambridge 1003
_journal_volume 41
_journal_year 2011
_journal_page_first 545
_journal_name_full 'J.Chem.Cryst. '
loop_
_publ_author_name
"N.S.Radulovic"
"G.A.Bogdanovic"
"P.D.Blagojevic"
"V.S.Dekic"
"R.D.Vukicevic"
_chemical_name_systematic
;
4-(naphthalen-1-ylamino)-3-nitro-chromen-2-one
;
_chemical_name_common
;
4-(1-Naphthylamino)-3-nitro-2H-chromen-2-one
;
_cell_volume    756.435
_exptl_crystal_colour 'orange'
_exptl_crystal_density_diffrn 1.459
_exptl_crystal_description 'prismatic'
_diffrn_ambient_temperature 293
#These two values have been output from a single CSD field.
_refine_ls_R_factor_gt 0.0475
_refine_ls_wR_factor_gt 0.0475
_symmetry_cell_setting triclinic
_symmetry_space_group_name_H-M 'P -1'
_symmetry_Int_Tables_number 2
loop_
_symmetry_equiv_pos_site_id
_symmetry_equiv_pos_as_xyz
1 x,y,z
2 -x,-y,-z
_cell_length_a 8.087(2)
_cell_length_b 9.241(3)
_cell_length_c 10.911(3)
_cell_angle_alpha 93.77(3)
_cell_angle_beta 102.51(3)
_cell_angle_gamma 106.44(2)
_cell_formula_units_Z 2
loop_
_atom_type_symbol
_atom_type_radius_bond
C 0.68
H 0.23
N 0.68
O 0.68
loop_
_atom_site_label
_atom_site_type_symbol
_atom_site_fract_x
_atom_site_fract_y
_atom_site_fract_z
H1 H 0.116(3) 0.532(3) -0.209(2)
C1 C 0.3293(2) 0.59319(19) -0.00685(15)
O1 O 0.05843(19) 0.41276(16) -0.09733(13)
O2 O 0.61730(18) 0.75990(16) 0.10117(13)
N1 N 0.2034(2) 0.61411(19) -0.22164(14)
N2 N 0.1904(2) 0.45823(18) -0.00492(14)
C2 C 0.4809(2) 0.80367(19) -0.10684(17)
O3 O 0.2014(2) 0.38647(19) 0.08403(15)
C3 C 0.3321(2) 0.66591(19) -0.11636(16)
C4 C 0.2009(2) 0.6457(2) -0.34880(16)
C5 C 0.4696(3) 0.6446(2) 0.10850(17)
C6 C 0.6191(3) 0.8414(2) 0.00108(19)
C7 C 0.0587(3) 0.7290(2) -0.53835(18)
C8 C 0.0687(2) 0.7070(2) -0.40928(17)
C9 C 0.7682(3) 0.9677(3) 0.0166(3)
H2 H 0.86120 0.98840 0.08880
O4 O 0.4767(2) 0.5987(2) 0.20854(14)
C10 C 0.4908(3) 0.9059(2) -0.1970(2)
H3 H 0.39710 0.88790 -0.26840
C11 C 0.1833(3) 0.6886(3) -0.59758(19)
H4 H 0.17860 0.70230 -0.68180
C12 C 0.3158(3) 0.6081(2) -0.40878(19)
H5 H 0.40030 0.56670 -0.36590
C13 C 0.3081(3) 0.6310(3) -0.5345(2)
H6 H 0.38860 0.60670 -0.57500
C14 C -0.0547(3) 0.7476(2) -0.3495(2)
H7 H -0.05030 0.73540 -0.26510
C15 C 0.7763(3) 1.0611(3) -0.0753(3)
H8 H 0.87640 1.14480 -0.06660
C16 C 0.6361(3) 1.0314(2) -0.1811(2)
H9 H 0.64060 1.09730 -0.24200
C17 C -0.0737(4) 0.7864(3) -0.6025(2)
H10 H -0.08170 0.79940 -0.68720
C18 C -0.1885(4) 0.8228(3) -0.5441(3)
H11 H -0.27530 0.86080 -0.58850
C19 C -0.1794(3) 0.8043(3) -0.4167(3)
H12 H -0.25960 0.83110 -0.37730
#END
