
#######################################################################
#
#                 Cambridge Crystallographic Data Centre
#                                CCDC
#
#######################################################################
#
# If this CIF has been generated from an entry in the Cambridge
# Structural Database, then it will include bibliographic, chemical,
# crystal, experimental, refinement or atomic coordinate data resulting
# from the CCDC's data processing and validation procedures.
#
#######################################################################

data_CSD_CIF_EMIMUI
_audit_creation_date 2004-02-24
_audit_creation_method CSD-ConQuest-V1
_database_code_CSD EMIMUI
_database_code_depnum_ccdc_archive 'CCDC 229117'
_chemical_formula_sum 'C2 H6 N2 O1'
_chemical_formula_moiety
;
C2 H6 N2 O1
;
_journal_coeditor_code "IUCr NA1623"
_journal_coden_Cambridge 591
_journal_volume 59
_journal_year 2003
_journal_page_first o719
_journal_name_full 'Acta Crystallogr.,Sect.C:Cryst.Struct.Commun. '
loop_
_publ_author_name
"M.M.Olmstead"
"J.J.Sahbari"
_chemical_name_systematic
;
Acetamidoxime
;
_chemical_name_common
;
N-hydroxyethanimidamide
;
_cell_volume    375.243
_exptl_crystal_colour 'colorless'
_exptl_crystal_density_diffrn 1.311
_exptl_special_details
;
hygroscopic

;
_exptl_crystal_description 'parallelepiped'
_exptl_crystal_preparation 'perfluorocyclohexane'
_diffrn_ambient_temperature 130
#These two values have been output from a single CSD field.
_refine_ls_R_factor_gt 0.0284
_refine_ls_wR_factor_gt 0.0284
_symmetry_cell_setting orthorhombic
_symmetry_space_group_name_H-M 'P 21 21 21'
_symmetry_Int_Tables_number 19
loop_
_symmetry_equiv_pos_site_id
_symmetry_equiv_pos_as_xyz
1 x,y,z
2 1/2-x,-y,1/2+z
3 -x,1/2+y,1/2-z
4 1/2+x,1/2-y,-z
_cell_length_a 5.0422(14)
_cell_length_b 8.016(3)
_cell_length_c 9.284(3)
_cell_angle_alpha 90
_cell_angle_beta 90
_cell_angle_gamma 90
_cell_formula_units_Z 4
loop_
_atom_type_symbol
_atom_type_radius_bond
C 0.68
H 0.23
N 0.68
O 0.68
loop_
_atom_site_label
_atom_site_type_symbol
_atom_site_fract_x
_atom_site_fract_y
_atom_site_fract_z
O1 O 0.1742(3) 0.31633(15) 0.63878(13)
H1 H 0.072(6) 0.252(4) 0.580(3)
N1 N 0.3723(3) 0.38656(16) 0.54462(15)
N2 N 0.4119(4) 0.5737(2) 0.73681(18)
H2 H 0.274(6) 0.526(3) 0.783(3)
H3 H 0.520(5) 0.650(3) 0.772(3)
C1 C 0.4825(4) 0.51323(19) 0.60715(18)
C2 C 0.7054(4) 0.5974(2) 0.5305(2)
H4 H 0.87370 0.56720 0.57640
H5 H 0.68120 0.71860 0.53520
H6 H 0.70770 0.56170 0.42960
#END
