
#######################################################################
#
#                 Cambridge Crystallographic Data Centre
#                                CCDC
#
#######################################################################
#
# If this CIF has been generated from an entry in the Cambridge
# Structural Database, then it will include bibliographic, chemical,
# crystal, experimental, refinement or atomic coordinate data resulting
# from the CCDC's data processing and validation procedures.
#
#######################################################################

data_CSD_CIF_EMIPOG
_audit_creation_date 2011-06-07
_audit_creation_method CSD-ConQuest-V1
_database_code_CSD EMIPOG
_database_code_depnum_ccdc_archive 'CCDC 753979'
_chemical_formula_sum 'C12 H23 N1 O2'
_chemical_formula_moiety
;
C12 H23 N1 O2
;
_journal_coden_Cambridge 127
_journal_volume 68
_journal_year 2010
_journal_page_first 989
_journal_name_full 'Huaxue Xuebao(Chin.)(Acta Chim.Sinica) '
loop_
_publ_author_name
"Chunyan Zhang"
"Shoucong Chen"
"Daoquan Wang"
"Mingan Wang"
_chemical_name_systematic
;
2-(Hydroxyimino)cyclododecanol
;
_cell_volume   1257.021
_exptl_crystal_colour 'black'
_exptl_crystal_density_diffrn 1.127
_exptl_crystal_description 'block'
_diffrn_ambient_temperature 298
#These two values have been output from a single CSD field.
_refine_ls_R_factor_gt 0.0675
_refine_ls_wR_factor_gt 0.0675
_symmetry_cell_setting monoclinic
_symmetry_space_group_name_H-M 'P 21/c'
_symmetry_Int_Tables_number 14
loop_
_symmetry_equiv_pos_site_id
_symmetry_equiv_pos_as_xyz
1 x,y,z
2 -x,1/2+y,1/2-z
3 -x,-y,-z
4 x,-1/2-y,-1/2+z
_cell_length_a 6.3168(9)
_cell_length_b 17.651(3)
_cell_length_c 11.6088(17)
_cell_angle_alpha 90
_cell_angle_beta 103.795(3)
_cell_angle_gamma 90
_cell_formula_units_Z 4
loop_
_atom_type_symbol
_atom_type_radius_bond
C 0.68
H 0.23
N 0.68
O 0.68
loop_
_atom_site_label
_atom_site_type_symbol
_atom_site_fract_x
_atom_site_fract_y
_atom_site_fract_z
C1 C 0.1012(3) 0.52891(11) 0.69813(18)
C2 C -0.1045(3) 0.56181(13) 0.61920(19)
H1 H -0.07100 0.57880 0.54510
C3 C -0.1990(4) 0.62782(13) 0.6726(2)
H2 H -0.22580 0.61260 0.74820
H3 H -0.33750 0.64200 0.62060
C4 C -0.0466(4) 0.69609(14) 0.6914(2)
H4 H 0.10220 0.67810 0.71790
H5 H -0.05910 0.72100 0.61560
C5 C -0.0877(5) 0.75385(16) 0.7793(3)
H6 H -0.11010 0.72760 0.84880
H7 H -0.22080 0.78110 0.74410
C6 C 0.0964(6) 0.81068(16) 0.8180(3)
H8 H 0.05570 0.84630 0.87260
H9 H 0.11220 0.83900 0.74890
C7 C 0.3170(5) 0.77625(16) 0.8776(3)
H10 H 0.36150 0.74280 0.82140
H11 H 0.42350 0.81680 0.89620
C8 C 0.3222(5) 0.73202(17) 0.9903(3)
H12 H 0.17530 0.71520 0.98850
H13 H 0.36670 0.76600 1.05730
C9 C 0.4719(5) 0.66354(18) 1.0109(2)
H14 H 0.47630 0.64330 1.08910
H15 H 0.61820 0.68010 1.01040
C10 C 0.4068(4) 0.59989(14) 0.9202(2)
H16 H 0.40680 0.61950 0.84210
H17 H 0.51570 0.56010 0.93830
C11 C 0.1851(4) 0.56588(14) 0.91669(19)
H18 H 0.07830 0.60640 0.90330
H19 H 0.18850 0.54420 0.99390
C12 C 0.1076(4) 0.50447(12) 0.82225(19)
H20 H 0.20370 0.46100 0.84130
H21 H -0.03730 0.48830 0.82600
N1 N 0.2553(3) 0.51957(10) 0.64591(15)
O1 O 0.4375(2) 0.48292(10) 0.71679(15)
H22 H 0.527(4) 0.4876(16) 0.676(2)
O2 O -0.2629(2) 0.50193(10) 0.59169(14)
H23 H -0.264(5) 0.4862(16) 0.5248(13)
#END
