
#######################################################################
#
#                 Cambridge Crystallographic Data Centre
#                                CCDC
#
#######################################################################
#
# If this CIF has been generated from an entry in the Cambridge
# Structural Database, then it will include bibliographic, chemical,
# crystal, experimental, refinement or atomic coordinate data resulting
# from the CCDC's data processing and validation procedures.
#
#######################################################################

data_CSD_CIF_EMISOI
_audit_creation_date 2004-02-24
_audit_creation_method CSD-ConQuest-V1
_database_code_CSD EMISOI
_database_code_depnum_ccdc_archive 'CCDC 230847'
_chemical_formula_sum 'C12 H18 N6 O3'
_chemical_formula_moiety
;
C12 H18 N6 O3
;
_journal_coeditor_code "IUCr NA5007"
_journal_coden_Cambridge 622
_journal_volume 60
_journal_year 2004
_journal_page_first 76
_journal_name_full 'Acta Crystallogr.,Sect.B:Struct.Sci. '
loop_
_publ_author_name
"A.Quesada"
"A.Marchal"
"M.Melguizo"
"J.N.Low"
"C.Glidewell"
_chemical_name_systematic
;
2-Amino-4,6-bis(morpholino)-5-nitrosopyrimidine
;
_chemical_melting_point 463
_cell_volume   1368.922
_exptl_crystal_colour 'blue'
_exptl_crystal_density_diffrn 1.428
_exptl_crystal_description 'block'
_exptl_crystal_preparation 'acetonitrile/dimethylsulfoxide'
_diffrn_ambient_temperature 120
#These two values have been output from a single CSD field.
_refine_ls_R_factor_gt 0.0426
_refine_ls_wR_factor_gt 0.0426
_symmetry_cell_setting monoclinic
_symmetry_space_group_name_H-M 'P 21/c'
_symmetry_Int_Tables_number 14
loop_
_symmetry_equiv_pos_site_id
_symmetry_equiv_pos_as_xyz
1 x,y,z
2 x,1/2-y,1/2+z
3 -x,-y,-z
4 -x,-1/2+y,-1/2-z
_cell_length_a 13.0037(4)
_cell_length_b 9.1130(3)
_cell_length_c 12.4892(3)
_cell_angle_alpha 90
_cell_angle_beta 112.3400(12)
_cell_angle_gamma 90
_cell_formula_units_Z 4
loop_
_atom_type_symbol
_atom_type_radius_bond
C 0.68
H 0.23
N 0.68
O 0.68
loop_
_atom_site_label
_atom_site_type_symbol
_atom_site_fract_x
_atom_site_fract_y
_atom_site_fract_z
N1 N 0.32218(9) 0.47876(13) 0.07040(9)
C1 C 0.26526(11) 0.46319(15) -0.04405(11)
N2 N 0.30168(10) 0.35938(14) -0.09559(10)
N3 N 0.17212(9) 0.53626(12) -0.11111(9)
C2 C 0.21761(11) 0.70363(15) 0.05196(11)
C3 C 0.14534(11) 0.65304(15) -0.06249(11)
N4 N 0.05260(9) 0.72681(13) -0.12493(10)
C4 C -0.01378(12) 0.68569(16) -0.24524(12)
C5 C -0.11548(12) 0.60041(16) -0.24993(12)
O1 O -0.17954(8) 0.68593(11) -0.20170(8)
C6 C -0.11579(12) 0.72391(16) -0.08401(12)
C7 C -0.01272(11) 0.81093(15) -0.07314(12)
N5 N 0.24536(10) 0.84568(13) 0.08381(10)
O2 O 0.19317(9) 0.94670(11) 0.01494(9)
C8 C 0.29515(11) 0.59347(15) 0.12109(11)
N6 N 0.34601(10) 0.60405(13) 0.23642(10)
C9 C 0.43500(13) 0.50290(17) 0.30270(12)
C10 C 0.53472(12) 0.59131(18) 0.37680(13)
O3 O 0.50652(8) 0.68598(11) 0.45292(8)
C11 C 0.41941(12) 0.78462(16) 0.38953(12)
C12 C 0.31654(12) 0.70298(16) 0.31231(12)
H1 H 0.35980 0.30590 -0.05490
H2 H 0.26770 0.34410 -0.17040
H3 H 0.03150 0.62470 -0.27630
H4 H -0.03710 0.77510 -0.29350
H5 H -0.16150 0.57540 -0.33130
H6 H -0.09210 0.50780 -0.20590
H7 H -0.09330 0.63320 -0.03720
H8 H -0.16230 0.78280 -0.05310
H9 H -0.03460 0.90640 -0.11320
H10 H 0.03240 0.83020 0.00950
H11 H 0.45500 0.43930 0.24930
H12 H 0.40970 0.43950 0.35220
H13 H 0.59520 0.52410 0.42290
H14 H 0.56190 0.65080 0.32660
H15 H 0.44550 0.84960 0.34150
H16 H 0.40050 0.84690 0.44440
H17 H 0.28520 0.64600 0.36030
H18 H 0.25950 0.77380 0.26530
#END
