
#######################################################################
#
#                 Cambridge Crystallographic Data Centre
#                                CCDC
#
#######################################################################
#
# If this CIF has been generated from an entry in the Cambridge
# Structural Database, then it will include bibliographic, chemical,
# crystal, experimental, refinement or atomic coordinate data resulting
# from the CCDC's data processing and validation procedures.
#
#######################################################################

data_CSD_CIF_EMUDOG
_audit_creation_date 2011-06-07
_audit_creation_method CSD-ConQuest-V1
_database_code_CSD EMUDOG
_database_code_depnum_ccdc_archive 'CCDC 721114'
_chemical_formula_sum 'C22 H24 N2 O7'
_chemical_formula_moiety
;
C22 H24 N2 O7
;
_journal_coden_Cambridge 151
_journal_volume 53
_journal_year 2010
_journal_page_first 3227
_journal_name_full 'J.Med.Chem. '
loop_
_publ_author_name
"G.Wuitschik"
"E.M.Carreira"
"B.Wagner"
"H.Fischer"
"I.Parrilla"
"F.Schuler"
"M.Rogers-Evans"
"K.Muller"
_chemical_name_systematic
;
2-(3-(4-t-Butylphenyl)oxetan-3-yl)ethyl 3,5-dinitrobenzoate
;
_cell_volume   1030.826
_exptl_crystal_colour 'colorless'
_exptl_crystal_density_diffrn 1.38
_diffrn_ambient_temperature 120
#These two values have been output from a single CSD field.
_refine_ls_R_factor_gt 0.0998
_refine_ls_wR_factor_gt 0.0998
_symmetry_cell_setting triclinic
_symmetry_space_group_name_H-M 'P -1'
_symmetry_Int_Tables_number 2
loop_
_symmetry_equiv_pos_site_id
_symmetry_equiv_pos_as_xyz
1 x,y,z
2 -x,-y,-z
_cell_length_a 5.8741(3)
_cell_length_b 10.1271(3)
_cell_length_c 17.6440(7)
_cell_angle_alpha 79.691(3)
_cell_angle_beta 86.617(4)
_cell_angle_gamma 88.966(3)
_cell_formula_units_Z 2
loop_
_atom_type_symbol
_atom_type_radius_bond
C 0.68
H 0.23
N 0.68
O 0.68
loop_
_atom_site_label
_atom_site_type_symbol
_atom_site_fract_x
_atom_site_fract_y
_atom_site_fract_z
O1 O -0.3278(6) 0.8134(3) 0.8677(2)
O2 O 0.3705(5) 0.9053(3) 0.66234(18)
O3 O 0.0887(6) 0.9572(3) 0.5810(2)
O4 O 0.9906(6) 1.2104(3) 0.65897(19)
O5 O 1.0210(6) 1.3909(4) 0.5718(2)
O6 O 0.4777(6) 1.4838(3) 0.3749(2)
O7 O 0.2092(7) 1.3426(3) 0.3718(2)
N1 N 0.9270(7) 1.2859(4) 0.6018(2)
N2 N 0.3768(7) 1.3794(4) 0.4000(2)
C1 C 0.6432(9) 0.1963(5) 0.9341(3)
H1 H 0.75570 0.26520 0.91950
H2 H 0.71570 0.10990 0.93780
H3 H 0.57030 0.20470 0.98320
C2 C 0.2892(9) 0.0987(4) 0.8976(3)
H4 H 0.21500 0.10760 0.94650
H5 H 0.36480 0.01310 0.90220
H6 H 0.17780 0.10530 0.85940
C3 C 0.5841(9) 0.1951(5) 0.7961(3)
H7 H 0.47280 0.19970 0.75800
H8 H 0.66130 0.10980 0.80150
H9 H 0.69280 0.26570 0.78030
C4 C 0.4653(8) 0.2110(4) 0.8734(3)
C5 C 0.3420(8) 0.3467(4) 0.8646(3)
C6 C 0.3753(8) 0.4404(4) 0.9112(3)
H10 H 0.47860 0.42150 0.94970
C7 C 0.2577(8) 0.5619(4) 0.9017(3)
H11 H 0.28330 0.62240 0.93420
C8 C 0.1042(8) 0.5949(4) 0.8453(3)
C9 C 0.0669(8) 0.5011(4) 0.7987(3)
H12 H -0.03770 0.52020 0.76060
C10 C 0.1829(8) 0.3800(4) 0.8082(3)
H13 H 0.15460 0.31910 0.77620
C11 C -0.0073(8) 0.7319(4) 0.8318(3)
C12 C -0.1126(8) 0.7832(5) 0.9033(3)
H14 H -0.12420 0.71420 0.94920
H15 H -0.03740 0.86200 0.91380
C13 C -0.2542(8) 0.7426(5) 0.8055(3)
H16 H -0.26790 0.79600 0.75450
H17 H -0.32670 0.65620 0.80930
C14 C 0.1493(8) 0.8365(4) 0.7826(3)
H18 H 0.06730 0.92120 0.77140
H19 H 0.27910 0.85030 0.81170
C15 C 0.2342(8) 0.7957(4) 0.7074(3)
H20 H 0.32640 0.71480 0.71770
H21 H 0.10600 0.77760 0.67870
C16 C 0.2709(8) 0.9796(4) 0.6034(3)
C17 C 0.4135(8) 1.0983(4) 0.5672(3)
C18 C 0.3390(8) 1.1784(4) 0.5006(3)
H22 H 0.20990 1.15560 0.47790
C19 C 0.4596(8) 1.2919(4) 0.4691(3)
C20 C 0.6546(8) 1.3299(4) 0.4998(3)
H23 H 0.73490 1.40660 0.47730
C21 C 0.7233(8) 1.2470(4) 0.5659(3)
C22 C 0.6094(8) 1.1321(4) 0.6000(3)
H24 H 0.66200 1.07840 0.64400
#END
