
#######################################################################
#
#                 Cambridge Crystallographic Data Centre
#                                CCDC
#
#######################################################################
#
# If this CIF has been generated from an entry in the Cambridge
# Structural Database, then it will include bibliographic, chemical,
# crystal, experimental, refinement or atomic coordinate data resulting
# from the CCDC's data processing and validation procedures.
#
#######################################################################

data_CSD_CIF_EMUVIR
_audit_creation_date 2004-03-25
_audit_creation_method CSD-ConQuest-V1
_database_code_CSD EMUVIR
_database_code_depnum_ccdc_archive 'CCDC 212316'
_chemical_formula_sum 'C10 H10 N4 O1'
_chemical_formula_moiety
;
C10 H10 N4 O1
;
_journal_coden_Cambridge 35
_journal_volume 68
_journal_year 2003
_journal_page_first 8831
_journal_name_full 'J.Org.Chem. '
loop_
_publ_author_name
"M.H.Holschbach"
"D.Sanz"
"R.M.Claramunt"
"L.Infantes"
"S.Motherwell"
"P.R.Raithby"
"M.L.Jimeno"
"D.Herrero"
"I.Alkorta"
"N.Jagerovic"
"J.Elguero"
_chemical_name_systematic
;
1-Benzyl-4-nitroso-5-aminopyrazole
;
_chemical_melting_point 431.15
_cell_volume    984.325
_exptl_crystal_colour 'orange'
_exptl_crystal_density_diffrn 1.365
_exptl_special_details
;
Melting point range 431.15-433.15K

;
_exptl_crystal_description 'plate'
_exptl_crystal_preparation 'methanol'
_diffrn_ambient_temperature 150
#These two values have been output from a single CSD field.
_refine_ls_R_factor_gt 0.0461
_refine_ls_wR_factor_gt 0.0461
_symmetry_cell_setting monoclinic
_symmetry_space_group_name_H-M 'C c'
_symmetry_Int_Tables_number 9
loop_
_symmetry_equiv_pos_site_id
_symmetry_equiv_pos_as_xyz
1 x,y,z
2 x,-y,1/2+z
3 1/2+x,1/2+y,z
4 1/2+x,1/2-y,1/2+z
_cell_length_a 4.4700(6)
_cell_length_b 23.896(3)
_cell_length_c 9.3400(13)
_cell_angle_alpha 90
_cell_angle_beta 99.376(7)
_cell_angle_gamma 90
_cell_formula_units_Z 4
loop_
_atom_type_symbol
_atom_type_radius_bond
C 0.68
H 0.23
N 0.68
O 0.68
loop_
_atom_site_label
_atom_site_type_symbol
_atom_site_fract_x
_atom_site_fract_y
_atom_site_fract_z
C1 C 0.2284(6) 0.31776(11) 0.2299(3)
C2 C 0.2927(6) 0.33002(12) 0.0882(3)
C3 C 0.1395(7) 0.38167(13) 0.0509(4)
H1 H 0.14030 0.40070 -0.03840
C4 C -0.0447(6) 0.37102(14) 0.4019(3)
H2 H -0.09810 0.33530 0.44540
H3 H -0.22920 0.39460 0.38500
C5 C 0.1950(6) 0.40034(12) 0.5075(3)
C6 C 0.2984(7) 0.45342(13) 0.4760(3)
H4 H 0.21770 0.47100 0.38690
C7 C 0.5164(7) 0.48051(14) 0.5731(4)
H5 H 0.58500 0.51660 0.55040
C8 C 0.6358(8) 0.45538(15) 0.7034(4)
H6 H 0.78540 0.47400 0.77060
C9 C 0.5340(9) 0.40255(16) 0.7347(4)
H7 H 0.61390 0.38500 0.82410
C10 C 0.3181(7) 0.37552(15) 0.6371(3)
H8 H 0.25270 0.33920 0.65930
N1 N 0.0512(5) 0.35939(10) 0.2637(2)
N2 N -0.0020(6) 0.39983(11) 0.1534(3)
N3 N 0.3257(6) 0.27487(10) 0.3155(3)
N4 N 0.4533(5) 0.30137(11) 0.0050(3)
O1 O 0.5815(6) 0.25654(9) 0.0634(3)
H9 H 0.243(7) 0.2674(13) 0.403(3)
H10 H 0.438(9) 0.2505(16) 0.266(4)
#END
