
#######################################################################
#
#                 Cambridge Crystallographic Data Centre
#                                CCDC
#
#######################################################################
#
# If this CIF has been generated from an entry in the Cambridge
# Structural Database, then it will include bibliographic, chemical,
# crystal, experimental, refinement or atomic coordinate data resulting
# from the CCDC's data processing and validation procedures.
#
#######################################################################

data_CSD_CIF_ENAKUA
_audit_creation_date 2011-06-07
_audit_creation_method CSD-ConQuest-V1
_database_code_CSD ENAKUA
_database_code_depnum_ccdc_archive 'CCDC 769330 (not 769329 as published)'
_chemical_formula_sum 'C20 H17 N1 O3'
_chemical_formula_moiety
;
C20 H17 N1 O3
;
_journal_coden_Cambridge 643
_journal_volume 226
_journal_year 2011
_journal_page_first 291
_journal_name_full 'Z.Krist.Cryst.Mater. '
loop_
_publ_author_name
"S.Kurjatschij"
"D.Eissmann"
"W.Seichter"
"E.Weber"
_chemical_name_systematic
;
3,3''-Dimethyl-5'-nitro-1,1':3',1''-terphenyl-2'-ol
;
_chemical_name_common
;
2,6-bis(3-Methylphenyl)-4-nitrophenol
;
_cell_volume   1583.196
_exptl_crystal_colour 'colorless'
_exptl_crystal_density_diffrn 1.34
_exptl_crystal_description 'plate'
_exptl_crystal_preparation 'aqueous ethanol'
_diffrn_ambient_temperature 153
#These two values have been output from a single CSD field.
_refine_ls_R_factor_gt 0.0378
_refine_ls_wR_factor_gt 0.0378
_symmetry_cell_setting monoclinic
_symmetry_space_group_name_H-M 'P 21/c'
_symmetry_Int_Tables_number 14
loop_
_symmetry_equiv_pos_site_id
_symmetry_equiv_pos_as_xyz
1 x,y,z
2 -x,1/2+y,1/2-z
3 -x,-y,-z
4 x,-1/2-y,-1/2+z
_cell_length_a 13.7842(6)
_cell_length_b 16.7240(7)
_cell_length_c 6.8681(2)
_cell_angle_alpha 90
_cell_angle_beta 90.597(2)
_cell_angle_gamma 90
_cell_formula_units_Z 4
loop_
_atom_type_symbol
_atom_type_radius_bond
C 0.68
H 0.23
N 0.68
O 0.68
loop_
_atom_site_label
_atom_site_type_symbol
_atom_site_fract_x
_atom_site_fract_y
_atom_site_fract_z
O1 O 0.87657(7) 0.01717(6) 0.47040(15)
H1 H 0.8419(19) -0.0189(16) 0.511(4)
O2 O 0.61584(7) 0.31738(6) 0.59030(17)
O3 O 0.75603(8) 0.37382(6) 0.56417(15)
N1 N 0.70429(8) 0.31428(7) 0.57050(15)
C1 C 0.83206(9) 0.08852(7) 0.49542(17)
C2 C 0.88852(9) 0.15773(7) 0.46933(17)
C3 C 0.84611(9) 0.23170(8) 0.49888(17)
H2 H 0.88310 0.27920 0.48420
C4 C 0.74921(9) 0.23583(7) 0.55002(17)
C5 C 0.69346(9) 0.16815(8) 0.57485(17)
H3 H 0.62730 0.17300 0.61060
C6 C 0.73374(9) 0.09320(8) 0.54775(18)
C7 C 0.67345(9) 0.02018(8) 0.57112(19)
C8 C 0.62157(10) 0.00801(8) 0.7421(2)
H4 H 0.62690 0.04520 0.84610
C9 C 0.56232(10) -0.05830(9) 0.7599(2)
H5 H 0.52620 -0.06610 0.87550
C10 C 0.55545(10) -0.11335(9) 0.6100(2)
H6 H 0.51550 -0.15920 0.62490
C11 C 0.60614(10) -0.10260(8) 0.4377(2)
C12 C 0.66446(10) -0.03505(8) 0.4205(2)
H7 H 0.69890 -0.02650 0.30320
C13 C 0.59689(12) -0.16186(10) 0.2738(2)
H8 H 0.59590 -0.21620 0.32700
H9 H 0.65220 -0.15610 0.18640
H10 H 0.53650 -0.15180 0.20110
C14 C 0.99105(9) 0.15276(7) 0.40504(18)
C15 C 1.01410(9) 0.11412(7) 0.23123(18)
H11 H 0.96400 0.08890 0.15790
C16 C 1.10844(10) 0.11177(8) 0.16325(19)
C17 C 1.18110(9) 0.14810(8) 0.2743(2)
H12 H 1.24640 0.14610 0.23180
C18 C 1.15932(10) 0.18710(8) 0.4459(2)
H13 H 1.20950 0.21230 0.51900
C19 C 1.06456(9) 0.18965(8) 0.51199(19)
H14 H 1.05000 0.21650 0.63000
C20 C 1.13208(11) 0.0711(1) -0.0258(2)
H15 H 1.17180 0.10680 -0.10540
H16 H 1.07180 0.05830 -0.09610
H17 H 1.16810 0.02170 0.00090
#END
