
#######################################################################
#
#                 Cambridge Crystallographic Data Centre
#                                CCDC
#
#######################################################################
#
# If this CIF has been generated from an entry in the Cambridge
# Structural Database, then it will include bibliographic, chemical,
# crystal, experimental, refinement or atomic coordinate data resulting
# from the CCDC's data processing and validation procedures.
#
#######################################################################

data_CSD_CIF_ENALAH
_audit_creation_date 2011-06-07
_audit_creation_method CSD-ConQuest-V1
_database_code_CSD ENALAH
_database_code_depnum_ccdc_archive 'CCDC 769331'
_chemical_formula_sum 'C20 H17 N1 O3'
_chemical_formula_moiety
;
C20 H17 N1 O3
;
_journal_coden_Cambridge 643
_journal_volume 226
_journal_year 2011
_journal_page_first 291
_journal_name_full 'Z.Krist.Cryst.Mater. '
loop_
_publ_author_name
"S.Kurjatschij"
"D.Eissmann"
"W.Seichter"
"E.Weber"
_chemical_name_systematic
;
2,2''-Dimethyl-5'-nitro-1,1':3',1''-terphenyl-2'-ol
;
_chemical_name_common
;
2,6-bis(2-Methylphenyl)-4-nitrophenol
;
_cell_volume   1603.822
_exptl_crystal_colour 'colorless'
_exptl_crystal_density_diffrn 1.323
_exptl_crystal_description 'irregular'
_exptl_crystal_preparation 'aqueous ethanol'
_diffrn_ambient_temperature 153
#These two values have been output from a single CSD field.
_refine_ls_R_factor_gt 0.044
_refine_ls_wR_factor_gt 0.044
_symmetry_cell_setting monoclinic
_symmetry_space_group_name_H-M 'P 21/n'
_symmetry_Int_Tables_number 14
loop_
_symmetry_equiv_pos_site_id
_symmetry_equiv_pos_as_xyz
1 x,y,z
2 1/2-x,1/2+y,1/2-z
3 -x,-y,-z
4 -1/2+x,-1/2-y,-1/2+z
_cell_length_a 14.9681(7)
_cell_length_b 7.4193(4)
_cell_length_c 15.6739(8)
_cell_angle_alpha 90
_cell_angle_beta 112.868(2)
_cell_angle_gamma 90
_cell_formula_units_Z 4
loop_
_atom_type_symbol
_atom_type_radius_bond
C 0.68
H 0.23
N 0.68
O 0.68
loop_
_atom_site_label
_atom_site_type_symbol
_atom_site_fract_x
_atom_site_fract_y
_atom_site_fract_z
O1 O 0.89631(7) 0.06726(16) 0.13707(7)
H1 H 0.83940 0.10740 0.11570
O2 O 1.09231(9) 0.54842(19) 0.48954(9)
O3 O 1.20913(8) 0.36508(18) 0.50088(8)
N1 N 1.12463(10) 0.4187(2) 0.46234(9)
C1 C 1.06245(10) 0.3244(2) 0.37876(11)
C2 C 0.97007(11) 0.3911(2) 0.3283(1)
H2 H 0.94620 0.49210 0.35020
C3 C 0.91317(10) 0.3082(2) 0.24559(10)
C4 C 0.94957(10) 0.1580(2) 0.21549(10)
C5 C 1.04429(10) 0.0923(2) 0.26588(10)
C6 C 1.09937(10) 0.1774(2) 0.34865(10)
H3 H 1.16270 0.13460 0.38480
C7 C 0.81460(11) 0.3800(2) 0.18807(11)
C8 C 0.73529(12) 0.3274(3) 0.20813(14)
H4 H 0.74390 0.24510 0.25710
C9 C 0.64356(13) 0.3960(3) 0.15608(17)
H5 H 0.58900 0.35900 0.16840
C10 C 0.63268(14) 0.5180(3) 0.08653(16)
H6 H 0.57040 0.56720 0.05200
C11 C 0.71024(15) 0.5695(3) 0.06635(13)
H7 H 0.70080 0.65360 0.01790
C12 C 0.80304(13) 0.5004(2) 0.11575(12)
C13 C 0.88653(16) 0.5574(3) 0.09157(14)
H8 H 0.93230 0.62840 0.14250
H9 H 0.86240 0.63070 0.03510
H10 H 0.91940 0.45030 0.08130
C14 C 1.08495(10) -0.0644(2) 0.23331(10)
C15 C 1.10481(11) -0.0534(2) 0.15285(11)
C16 C 1.14526(11) -0.2030(2) 0.12742(12)
H11 H 1.15790 -0.19820 0.07260
C17 C 1.16744(12) -0.3587(2) 0.18069(13)
H12 H 1.19470 -0.45930 0.16200
C18 C 1.14988(12) -0.3677(2) 0.26069(14)
H13 H 1.16610 -0.47340 0.29780
C19 C 1.10840(11) -0.2214(2) 0.28675(12)
H14 H 1.09580 -0.22810 0.34160
C20 C 1.08840(13) 0.1177(2) 0.09719(12)
H15 H 1.01870 0.14180 0.06740
H16 H 1.11540 0.10460 0.04970
H17 H 1.12040 0.21820 0.13820
#END
