
#######################################################################
#
#                 Cambridge Crystallographic Data Centre
#                                CCDC
#
#######################################################################
#
# If this CIF has been generated from an entry in the Cambridge
# Structural Database, then it will include bibliographic, chemical,
# crystal, experimental, refinement or atomic coordinate data resulting
# from the CCDC's data processing and validation procedures.
#
#######################################################################

data_CSD_CIF_ENAQUH
_audit_creation_date 2016-05-26
_audit_creation_method CSD-ConQuest-V1
_database_code_CSD ENAQUH
_database_code_depnum_ccdc_archive 'CCDC 1435875'
_chemical_formula_sum 'C28 H32 N4 O4'
_chemical_formula_moiety
;
C28 H32 N4 O4
;
_journal_coden_Cambridge 1147
_journal_volume 16
_journal_year 2016
_journal_page_first 4051
_journal_name_full 'Cryst.Growth Des. '
loop_
_publ_author_name
"H.Akpinar"
"J.A.Schlueter"
"R.A.A.Cassaro"
"J.R.Friedman"
"P.M.Lahti"
_chemical_name_systematic
;
2,2'-anthracene-2,6-diylbis(4,4,5,5-tetramethyl-4,5-dihydro-1H-3-imidazole-3-o
xide-1-oxyl radical)
;
_chemical_name_common
;
2,6-bis(1-oxyl-3-oxo-4,4,5,5-tetramethylimidazolin-2-yl)anthracene
;
_chemical_melting_point 512
_cell_volume   1226.729
_exptl_crystal_colour 'dark green'
_exptl_crystal_density_diffrn 1.323
_exptl_crystal_description 'needle'
_diffrn_ambient_temperature 95
_diffrn_radiation_probe x-ray
_diffrn_source synchrotron
_diffrn_special_details
;
twin

;
#These two values have been output from a single CSD field.
_refine_ls_R_factor_gt 0.0503
_refine_ls_wR_factor_gt 0.0503
_symmetry_cell_setting monoclinic
_symmetry_space_group_name_H-M 'P 21/c'
_symmetry_Int_Tables_number 14
loop_
_symmetry_equiv_pos_site_id
_symmetry_equiv_pos_as_xyz
1 x,y,z
2 -x,1/2+y,1/2-z
3 -x,-y,-z
4 x,-1/2-y,-1/2+z
_cell_length_a 9.5582(6)
_cell_length_b 12.6106(7)
_cell_length_c 10.9435(6)
_cell_angle_alpha 90
_cell_angle_beta 111.566(1)
_cell_angle_gamma 90
_cell_formula_units_Z 2
loop_
_atom_type_symbol
_atom_type_radius_bond
C 0.68
H 0.23
N 0.68
O 0.68
loop_
_atom_site_label
_atom_site_type_symbol
_atom_site_fract_x
_atom_site_fract_y
_atom_site_fract_z
O1 O 0.57131(10) -0.12979(7) -0.07235(8)
N1 N 0.64723(10) -0.05245(7) -0.09127(8)
C1 C 1.11784(11) 0.16383(8) 0.6889(1)
H1 H 1.12040 0.23510 0.66160
O2 O 0.92874(9) 0.13501(7) -0.00586(8)
N2 N 0.81312(10) 0.07593(7) -0.05874(8)
C2 C 1.05804(11) 0.08286(7) 0.59215(9)
C3 C 1.00523(11) 0.10493(7) 0.45780(9)
H2 H 1.00850 0.17560 0.42890
C4 C 0.94747(10) 0.02416(7) 0.36508(9)
C5 C 0.89328(11) 0.04564(8) 0.22779(9)
H3 H 0.89860 0.11580 0.19820
C6 C 0.83341(11) -0.03372(8) 0.13745(9)
C7 C 0.82858(11) -0.14046(8) 0.18001(10)
H4 H 0.78810 -0.19510 0.11710
C8 C 0.76891(11) -0.00608(8) -0.00145(9)
C9 C 0.69332(12) 0.10257(8) -0.18919(9)
C10 C 0.61452(11) -0.00672(8) -0.22588(9)
C11 C 0.76231(13) 0.14407(9) -0.28439(11)
H5 H 0.68220 0.16090 -0.36850
H6 H 0.82060 0.20830 -0.24820
H7 H 0.82870 0.08990 -0.29800
C12 C 0.59607(14) 0.18771(9) -0.16013(12)
H8 H 0.51520 0.20850 -0.24200
H9 H 0.55230 0.15950 -0.09870
H10 H 0.65830 0.24970 -0.12100
C13 C 0.44635(12) -0.00093(10) -0.30073(11)
H11 H 0.42640 0.02900 -0.38820
H12 H 0.40320 -0.07230 -0.30960
H13 H 0.40050 0.04430 -0.25290
C14 C 0.68954(13) -0.08057(9) -0.29436(11)
H14 H 0.67140 -0.05400 -0.38310
H15 H 0.79810 -0.08300 -0.24400
H16 H 0.64720 -0.15200 -0.29990
O1B O 1.42869(10) 0.12979(7) 1.07235(8)
N1B N 1.35277(10) 0.05245(7) 1.09127(8)
C1B C 0.88216(11) -0.16383(8) 0.3111(1)
H1B H 0.87960 -0.23510 0.33840
O2B O 1.07126(9) -0.13501(7) 1.00586(8)
N2B N 1.18688(10) -0.07593(7) 1.05874(8)
C2B C 0.94196(11) -0.08286(7) 0.40785(9)
C3B C 0.99477(11) -0.10493(7) 0.54220(9)
H2B H 0.99150 -0.17560 0.57110
C4B C 1.05253(10) -0.02416(7) 0.63492(9)
C5B C 1.10672(11) -0.04564(8) 0.77221(9)
H3B H 1.10140 -0.11580 0.80180
C6B C 1.16659(11) 0.03372(8) 0.86255(9)
C7B C 1.17142(11) 0.14046(8) 0.81999(10)
H4B H 1.21190 0.19510 0.88290
C8B C 1.23109(11) 0.00608(8) 1.00145(9)
C9B C 1.30668(12) -0.10257(8) 1.18919(9)
C10B C 1.38548(11) 0.00672(8) 1.22588(9)
C11B C 1.23769(13) -0.14407(9) 1.28439(11)
H5B H 1.31780 -0.16090 1.36850
H6B H 1.17940 -0.20830 1.24820
H7B H 1.17130 -0.08990 1.29800
C12B C 1.40393(14) -0.18771(9) 1.16013(12)
H8B H 1.48480 -0.20850 1.24200
H9B H 1.44770 -0.15950 1.09870
H10B H 1.34170 -0.24970 1.12100
C13B C 1.55365(12) 0.00093(10) 1.30073(11)
H11B H 1.57360 -0.02900 1.38820
H12B H 1.59680 0.07230 1.30960
H13B H 1.59950 -0.04430 1.25290
C14B C 1.31046(13) 0.08057(9) 1.29436(11)
H14B H 1.32860 0.05400 1.38310
H15B H 1.20190 0.08300 1.24400
H16B H 1.35280 0.15200 1.29990
#END
