
#######################################################################
#
#                 Cambridge Crystallographic Data Centre
#                                CCDC
#
#######################################################################
#
# If this CIF has been generated from an entry in the Cambridge
# Structural Database, then it will include bibliographic, chemical,
# crystal, experimental, refinement or atomic coordinate data resulting
# from the CCDC's data processing and validation procedures.
#
#######################################################################

data_CSD_CIF_ENIGIT
_audit_creation_date 2016-05-27
_audit_creation_method CSD-ConQuest-V1
_database_code_CSD ENIGIT
_database_code_depnum_ccdc_archive 'CCDC 1482347'
_chemical_formula_sum 'C21 H25 N3 O4'
_chemical_formula_moiety
;
C21 H25 N3 O4
;
_journal_coden_Cambridge 24
_journal_volume 57
_journal_year 2016
_journal_page_first 492
_journal_name_full 'Tetrahedron Lett. '
loop_
_publ_author_name
"B.Richey"
"K.M.Mason"
"M.S.Meyers"
"S.B.Luesse"
_chemical_name_systematic
;
N-cyclohexyl-3-(2-nitrophenyl)-10-oxa-3-azatricyclo[5.2.1.0^1,5^]dec-8-ene-2-c
arboxamide
;
_cell_volume    932.640
_exptl_crystal_colour 'yellow'
_exptl_crystal_density_diffrn 1.365
_exptl_crystal_description 'rectangular'
_diffrn_ambient_temperature 100
#These two values have been output from a single CSD field.
_refine_ls_R_factor_gt 0.0405
_refine_ls_wR_factor_gt 0.0405
_symmetry_cell_setting triclinic
_symmetry_space_group_name_H-M 'P -1'
_symmetry_Int_Tables_number 2
loop_
_symmetry_equiv_pos_site_id
_symmetry_equiv_pos_as_xyz
1 x,y,z
2 -x,-y,-z
_cell_length_a 7.8940(7)
_cell_length_b 11.0503(11)
_cell_length_c 11.7479(12)
_cell_angle_alpha 81.350(5)
_cell_angle_beta 77.013(4)
_cell_angle_gamma 69.534(4)
_cell_formula_units_Z 2
loop_
_atom_type_symbol
_atom_type_radius_bond
C 0.68
H 0.23
N 0.68
O 0.68
loop_
_atom_site_label
_atom_site_type_symbol
_atom_site_fract_x
_atom_site_fract_y
_atom_site_fract_z
O1 O 0.63852(9) 0.51914(7) 0.32346(6)
O2 O 1.07802(9) 0.44886(7) 0.15621(6)
O3 O 0.63183(11) 0.11968(7) 0.24666(7)
O4 O 0.49257(13) 0.05988(10) 0.13780(9)
N1 N 0.70386(9) 0.34691(7) 0.12524(6)
N2 N 0.97761(9) 0.28544(7) 0.25392(6)
N3 N 0.60360(12) 0.10975(8) 0.14991(8)
C1 C 0.64038(11) 0.54673(8) 0.19901(7)
C2 C 0.61727(13) 0.68938(9) 0.18212(9)
H1 H 0.66800 0.73470 0.11570
C3 C 0.51011(14) 0.73788(10) 0.28091(10)
H2 H 0.46720 0.82570 0.29920
C4 C 0.47077(13) 0.62424(10) 0.35820(9)
H3 H 0.43590 0.63610 0.44410
C5 C 0.33202(12) 0.58684(9) 0.30645(9)
H4 H 0.28710 0.52110 0.35890
H5 H 0.22570 0.66360 0.29100
C6 C 0.45456(11) 0.53100(9) 0.19167(8)
H6 H 0.40540 0.58080 0.12100
C7 C 0.50984(11) 0.38515(9) 0.18511(8)
H7 H 0.49720 0.34020 0.26450
H8 H 0.43300 0.36470 0.13980
C8 C 0.78979(10) 0.44464(8) 0.12653(7)
H9 H 0.81930 0.48300 0.04490
C9 C 0.96393(11) 0.39204(8) 0.17992(7)
C10 C 0.78155(11) 0.25387(8) 0.04604(7)
C11 C 0.92983(11) 0.26103(9) -0.04516(7)
H10 H 0.98440 0.32560 -0.04670
C12 C 0.99672(12) 0.17590(9) -0.13199(8)
H11 H 1.09800 0.18210 -0.19130
C13 C 0.91905(13) 0.08104(10) -0.13465(8)
H12 H 0.96210 0.02620 -0.19730
C14 C 0.77869(13) 0.06806(9) -0.04480(8)
H13 H 0.72410 0.00390 -0.04500
C15 C 0.71737(11) 0.14976(9) 0.04637(8)
C16 C 1.11055(10) 0.24074(8) 0.33255(7)
H14 H 1.23120 0.24710 0.28760
C17 C 1.04799(13) 0.32649(9) 0.43487(8)
H15 H 0.92370 0.32730 0.47630
H16 H 1.04040 0.41640 0.40450
C18 C 1.18129(14) 0.27747(10) 0.52093(9)
H17 H 1.30270 0.28450 0.48170
H18 H 1.13440 0.33190 0.58830
C19 C 1.20271(12) 0.13694(9) 0.56459(8)
H19 H 1.08320 0.13110 0.60950
H20 H 1.29290 0.10580 0.61780
C20 C 1.26774(12) 0.05116(9) 0.46244(8)
H21 H 1.27540 -0.03880 0.49280
H22 H 1.39240 0.05070 0.42210
C21 C 1.13683(12) 0.09930(8) 0.37505(8)
H23 H 1.18710 0.04570 0.30720
H24 H 1.01620 0.08990 0.41280
H25 H 0.8830(19) 0.2575(14) 0.2692(12)
#END
