
#######################################################################
#
#                 Cambridge Crystallographic Data Centre
#                                CCDC
#
#######################################################################
#
# If this CIF has been generated from an entry in the Cambridge
# Structural Database, then it will include bibliographic, chemical,
# crystal, experimental, refinement or atomic coordinate data resulting
# from the CCDC's data processing and validation procedures.
#
#######################################################################

data_CSD_CIF_ENIHEP
_audit_creation_date 2011-06-07
_audit_creation_method CSD-ConQuest-V1
_database_code_CSD ENIHEP
_database_code_depnum_ccdc_archive 'CCDC 806206'
_chemical_formula_sum 'C21 H22 N2 O9'
_chemical_formula_moiety
;
C21 H22 N2 O9
;
_journal_coden_Cambridge 24
_journal_volume 52
_journal_year 2011
_journal_page_first 1663
_journal_name_full 'Tetrahedron Lett. '
loop_
_publ_author_name
"G.Mehta"
"R.Samineni"
"P.Srihari"
_chemical_name_systematic
;
Ethyl 
(1R*,2S*)-2-[(3,5-dinitrobenzoyl)oxy]-4-methyl-1-[(2-propynyloxy)methyl]cycloh
ex-3-ene-1-carboxylate
;
_cell_volume   2242.560
_exptl_crystal_colour 'colorless'
_exptl_crystal_density_diffrn 1.322
_exptl_crystal_description 'block'
_diffrn_ambient_temperature 291
_refine_special_details
;
O6A and O6B disordered over two sites with occupancies 0.56:0.44; O9B and O9A 
disordered over two sites with occupancies 0.536:0.464.
;
#These two values have been output from a single CSD field.
_refine_ls_R_factor_gt 0.0725
_refine_ls_wR_factor_gt 0.0725
_symmetry_cell_setting monoclinic
_symmetry_space_group_name_H-M 'P 21/n'
_symmetry_Int_Tables_number 14
loop_
_symmetry_equiv_pos_site_id
_symmetry_equiv_pos_as_xyz
1 x,y,z
2 1/2-x,1/2+y,1/2-z
3 -x,-y,-z
4 -1/2+x,-1/2-y,-1/2+z
_cell_length_a 7.6684(12)
_cell_length_b 9.2015(15)
_cell_length_c 31.838(5)
_cell_angle_alpha 90
_cell_angle_beta 93.400(3)
_cell_angle_gamma 90
_cell_formula_units_Z 4
loop_
_atom_type_symbol
_atom_type_radius_bond
C 0.68
H 0.23
N 0.68
O 0.68
loop_
_atom_site_label
_atom_site_type_symbol
_atom_site_fract_x
_atom_site_fract_y
_atom_site_fract_z
C1 C 0.4208(4) 0.3946(3) 0.14968(9)
C2 C 0.0534(5) 0.8225(5) 0.09350(16)
C3 C 0.2346(5) 0.3103(4) 0.2056(1)
C4 C 0.0490(5) 0.2263(5) 0.25779(11)
C5 C -0.1278(6) 0.1740(8) 0.25983(14)
C6 C 0.5097(4) 0.5738(4) 0.10085(10)
C7 C 0.4808(4) 0.6370(3) 0.05785(9)
C8 C 0.6031(4) 0.7305(4) 0.04395(10)
C9 C 0.5803(5) 0.7914(4) 0.00473(10)
C10 C 0.4379(5) 0.7628(4) -0.02158(10)
C11 C 0.3163(5) 0.6714(4) -0.00692(11)
C12 C 0.2382(4) 0.3401(3) 0.15859(8)
C13 C 0.3334(5) 0.6070(4) 0.03202(10)
C14 C 0.6616(6) 0.0246(5) 0.14698(16)
C15 C 0.2028(4) 0.1996(4) 0.13362(10)
C16 C 0.3364(5) 0.0843(4) 0.14578(11)
C17 C 0.5201(5) 0.1381(4) 0.14713(10)
C18 C 0.5549(4) 0.2771(4) 0.14863(10)
C19 C 0.0998(4) 0.4543(4) 0.14770(9)
C20 C 0.0237(5) 0.6949(4) 0.16572(12)
C21 C 0.0405(5) 0.7654(4) 0.12524(14)
H1 H 0.45860 0.46710 0.17090
H2 H 0.06390 0.86870 0.06780
H3 H 0.13080 0.15440 0.26940
H4 H 0.06450 0.31500 0.27400
H5 H -0.20790 0.24670 0.24890
H6 H -0.15070 0.15360 0.28860
H7 H -0.14230 0.08680 0.24340
H8 H 0.70190 0.75280 0.06110
H9 H 0.42460 0.80370 -0.04830
H10 H 0.24770 0.54440 0.04090
H11 H 0.64820 -0.03130 0.12150
H12 H 0.65310 -0.03840 0.17080
H13 H 0.77380 0.07130 0.14850
H14 H 0.08710 0.16380 0.13890
H15 H 0.20570 0.21990 0.10380
H16 H 0.31240 0.04620 0.17330
H17 H 0.32420 0.00490 0.12580
H18 H 0.67160 0.30480 0.14910
H19 H 0.09950 0.47930 0.11810
H20 H -0.01500 0.41780 0.15350
H21 H 0.04420 0.76620 0.18790
H22 H -0.09480 0.65930 0.16720
N1 N 0.7081(6) 0.8981(5) -0.00909(13)
N2 N 0.1607(7) 0.6413(7) -0.03474(16)
O1 O 0.4043(3) 0.4643(2) 0.10759(6)
O2 O 0.1414(3) 0.5776(3) 0.17281(7)
O3 O 0.3492(3) 0.3344(3) 0.23154(7)
O4 O 0.0808(3) 0.2540(3) 0.21396(6)
O5 O 0.6186(3) 0.6190(3) 0.12580(8)
O6 O 0.8081(11) 0.9593(10) 0.0208(4)
O7 O 0.6800(5) 0.9591(3) -0.04127(9)
O8 O 0.1428(6) 0.6922(6) -0.06693(13)
O9 O 0.1029(9) 0.5136(10) -0.03377(19)
O10? O 0.8654(19) 0.850(4) -0.0001(5)
O11? O 0.0045(10) 0.6503(8) -0.0105(3)
#END
