
#######################################################################
#
#                 Cambridge Crystallographic Data Centre
#                                CCDC
#
#######################################################################
#
# If this CIF has been generated from an entry in the Cambridge
# Structural Database, then it will include bibliographic, chemical,
# crystal, experimental, refinement or atomic coordinate data resulting
# from the CCDC's data processing and validation procedures.
#
#######################################################################

data_CSD_CIF_ENILIW
_audit_creation_date 2004-03-25
_audit_creation_method CSD-ConQuest-V1
_database_code_CSD ENILIW
_database_code_depnum_ccdc_archive 'CCDC 200613'
_chemical_formula_sum 'C22 H19 N1 O1'
_chemical_formula_moiety
;
C22 H19 N1 O1
;
_journal_coden_Cambridge 7
_journal_volume 76
_journal_year 2003
_journal_page_first 825
_journal_name_full 'Bull.Chem.Soc.Jpn. '
loop_
_publ_author_name
"G.Yamamoto"
"C.Agawa"
"M.Minoura"
_chemical_name_systematic
;
O-Ethyl-N-9-triptycylhydroxylamine
;
_chemical_melting_point 435
_cell_volume   1624.156
_exptl_crystal_colour 'colorless'
_exptl_special_details
;
Melting point range 435-436K

;
_exptl_crystal_description 'prism'
_exptl_crystal_preparation 'dichloromethane/hexane'
_diffrn_ambient_temperature 100.2
#These two values have been output from a single CSD field.
_refine_ls_R_factor_gt 0.0463
_refine_ls_wR_factor_gt 0.0463
_symmetry_cell_setting monoclinic
_symmetry_space_group_name_H-M 'P 21/a'
_symmetry_Int_Tables_number 14
loop_
_symmetry_equiv_pos_site_id
_symmetry_equiv_pos_as_xyz
1 x,y,z
2 1/2+x,1/2-y,z
3 -x,-y,-z
4 -1/2-x,-1/2+y,-z
_cell_length_a 8.966(4)
_cell_length_b 13.143(5)
_cell_length_c 14.339(6)
_cell_angle_alpha 90
_cell_angle_beta 106.012(4)
_cell_angle_gamma 90
_cell_formula_units_Z 4
loop_
_atom_type_symbol
_atom_type_radius_bond
C 0.68
H 0.23
N 0.68
O 0.68
loop_
_atom_site_label
_atom_site_type_symbol
_atom_site_fract_x
_atom_site_fract_y
_atom_site_fract_z
O1 O 0.7814(1) -0.00903(8) 0.35067(8)
N1 N 0.6397(1) -0.06722(10) 0.31084(9)
C1 C 0.5200(2) 0.0070(1) 0.26633(10)
C2 C 0.3619(2) -0.0459(1) 0.2256(1)
C3 C 0.3304(2) -0.1486(1) 0.2299(1)
C4 C 0.1795(2) -0.1840(1) 0.1880(1)
C5 C 0.0636(2) -0.1170(1) 0.1415(1)
C6 C 0.0951(2) -0.0132(1) 0.1370(1)
C7 C 0.2439(2) 0.0223(1) 0.1793(1)
C8 C 0.4876(2) 0.0907(1) 0.3333(1)
C9 C 0.5585(2) 0.1004(1) 0.4322(1)
C10 C 0.5115(2) 0.1798(1) 0.4831(1)
C11 C 0.3965(2) 0.2474(1) 0.4363(1)
C12 C 0.3236(2) 0.2366(1) 0.3367(1)
C13 C 0.3696(2) 0.1585(1) 0.2862(1)
C14 C 0.5492(2) 0.0592(1) 0.1772(1)
C15 C 0.6700(2) 0.0396(1) 0.1365(1)
C16 C 0.6723(2) 0.0880(1) 0.0497(1)
C17 C 0.5559(2) 0.1563(1) 0.0057(1)
C18 C 0.4343(2) 0.1766(1) 0.0467(1)
C19 C 0.4306(2) 0.1277(1) 0.1318(1)
C20 C 0.2983(2) 0.1323(1) 0.1798(1)
C21 C 0.9114(2) -0.0723(1) 0.3501(1)
C22 C 1.0549(2) -0.0062(1) 0.3764(1)
H1 H 0.40460 -0.19470 0.25620
H2 H 0.15050 -0.25330 0.19220
H3 H -0.02930 -0.13800 0.11940
H4 H 0.01770 0.03510 0.10730
H5 H 0.63440 0.05310 0.46240
H6 H 0.56960 0.18990 0.55900
H7 H 0.35960 0.30330 0.46540
H8 H 0.24510 0.28270 0.30670
H9 H 0.75430 -0.00880 0.16410
H10 H 0.75420 0.07290 0.02150
H11 H 0.54570 0.18560 -0.06010
H12 H 0.35490 0.22490 0.01880
H13 H 0.21790 0.18150 0.14890
H14 H 0.62640 -0.09330 0.37060
H15 H 0.89010 -0.09870 0.28800
H16 H 0.92010 -0.12390 0.39610
H17 H 1.03470 0.05070 0.33340
H18 H 1.14980 -0.04500 0.36890
H19 H 1.07340 0.02380 0.44060
#END
