
#######################################################################
#
#                 Cambridge Crystallographic Data Centre
#                                CCDC
#
#######################################################################
#
# If this CIF has been generated from an entry in the Cambridge
# Structural Database, then it will include bibliographic, chemical,
# crystal, experimental, refinement or atomic coordinate data resulting
# from the CCDC's data processing and validation procedures.
#
#######################################################################

data_CSD_CIF_ENIMIX
_audit_creation_date 2004-03-25
_audit_creation_method CSD-ConQuest-V1
_database_code_CSD ENIMIX
_database_code_depnum_ccdc_archive 'CCDC 212010'
_chemical_formula_sum 'C25 H25 N1 O1'
_chemical_formula_moiety
;
C25 H25 N1 O1
;
_journal_coden_Cambridge 7
_journal_volume 76
_journal_year 2003
_journal_page_first 1801
_journal_name_full 'Bull.Chem.Soc.Jpn. '
loop_
_publ_author_name
"G.Yamamoto"
"C.Agawa"
"T.Ohno"
"M.Minoura"
"Y.Mazaki"
_chemical_name_systematic
;
N-(1,4-Dimethyl-9-triptycyl)-O-ethyl-N-methylhydroxylamine
;
_chemical_melting_point 416.15
_cell_volume   1883.693
_exptl_crystal_colour 'colorless'
_exptl_crystal_density_diffrn 1.253
_exptl_special_details
;
Melting point range 416.15-418.15K
paper gives the study temperature as 293 K

;
_exptl_crystal_description 'prism'
_exptl_crystal_preparation 'dichloromethane/hexane'
_diffrn_ambient_temperature 190
#These two values have been output from a single CSD field.
_refine_ls_R_factor_gt 0.0587
_refine_ls_wR_factor_gt 0.0587
_symmetry_cell_setting monoclinic
_symmetry_space_group_name_H-M 'P 21/c'
_symmetry_Int_Tables_number 14
loop_
_symmetry_equiv_pos_site_id
_symmetry_equiv_pos_as_xyz
1 x,y,z
2 -x,1/2+y,1/2-z
3 -x,-y,-z
4 x,-1/2-y,-1/2+z
_cell_length_a 9.9565(16)
_cell_length_b 13.0215(17)
_cell_length_c 14.5385(9)
_cell_angle_alpha 90
_cell_angle_beta 92.047(2)
_cell_angle_gamma 90
_cell_formula_units_Z 4
loop_
_atom_type_symbol
_atom_type_radius_bond
C 0.68
H 0.23
N 0.68
O 0.68
loop_
_atom_site_label
_atom_site_type_symbol
_atom_site_fract_x
_atom_site_fract_y
_atom_site_fract_z
O1 O 0.57509(15) 0.26680(12) 0.16670(11)
N1 N 0.51614(18) 0.21751(15) 0.08461(14)
C1 C 0.7707(3) 0.3396(2) 0.2348(2)
C2 C 0.7063(2) 0.3021(2) 0.14625(18)
C3 C 0.5654(2) 0.11090(19) 0.08644(18)
C4 C 0.4899(3) 0.16493(19) -0.11206(18)
C5 C 0.3472(2) 0.14969(17) -0.08097(17)
C6 C 0.2953(2) 0.17869(17) 0.00354(15)
C7 C 0.1546(2) 0.17891(17) 0.01291(16)
C8 C 0.0662(2) 0.13476(18) -0.05247(17)
C9 C -0.0837(2) 0.1284(2) -0.03810(19)
C10 C 0.1222(3) 0.09717(19) -0.13225(17)
C11 C 0.2566(3) 0.10742(19) -0.14690(16)
C12 C 0.1085(2) 0.23561(18) 0.09747(16)
C13 C 0.1766(2) 0.34105(18) 0.09531(15)
C14 C 0.3169(2) 0.33629(17) 0.09191(15)
C15 C 0.3696(2) 0.22508(17) 0.09116(15)
C16 C 0.3909(2) 0.42544(19) 0.08796(16)
C17 C 0.3243(3) 0.52062(19) 0.08761(18)
C18 C 0.1864(3) 0.52524(19) 0.09155(18)
C19 C 0.1114(2) 0.43429(19) 0.09521(17)
C20 C 0.1701(2) 0.18159(17) 0.18048(16)
C21 C 0.3104(2) 0.17461(17) 0.17866(15)
C22 C 0.3799(2) 0.13499(19) 0.25466(17)
C23 C 0.3099(3) 0.10228(19) 0.33109(18)
C24 C 0.1715(3) 0.10826(19) 0.33195(17)
C25 C 0.1004(2) 0.14788(18) 0.25581(17)
H1 H 0.86000 0.33970 0.24370
H2 H 0.76050 0.28010 0.26960
H3 H 0.71800 0.39990 0.26730
H4 H 0.76820 0.25150 0.11020
H5 H 0.70050 0.34510 0.09930
H6 H 0.47410 0.14170 0.26790
H7 H 0.37330 0.58620 0.08900
H8 H 0.13090 0.58880 0.10000
H9 H 0.00340 0.43270 0.09970
H10 H 0.00220 0.23580 0.09930
H11 H -0.13530 0.20680 -0.04230
H12 H -0.10190 0.09930 0.03500
H13 H -0.12530 0.07860 -0.08540
H14 H 0.06180 0.06770 -0.17080
H15 H 0.54330 0.10460 -0.09990
H16 H 0.53850 0.22750 -0.08170
H17 H 0.50300 0.06200 0.06340
H18 H 0.64180 0.10640 0.05010
H19 H 0.57710 0.07890 0.15020
H20 H 0.00100 0.15420 0.24320
H21 H 0.36980 0.07080 0.39100
H22 H 0.10590 0.08100 0.38130
H23 H 0.29220 0.08920 -0.20740
H24 H 0.48700 0.42250 0.08510
H25 H 0.48060 0.19500 -0.18380
#END
