
#######################################################################
#
#                 Cambridge Crystallographic Data Centre
#                                CCDC
#
#######################################################################
#
# If this CIF has been generated from an entry in the Cambridge
# Structural Database, then it will include bibliographic, chemical,
# crystal, experimental, refinement or atomic coordinate data resulting
# from the CCDC's data processing and validation procedures.
#
#######################################################################

data_CSD_CIF_ENIMET
_audit_creation_date 2004-03-25
_audit_creation_method CSD-ConQuest-V1
_database_code_CSD ENIMET
_database_code_depnum_ccdc_archive 'CCDC 212009'
_chemical_formula_sum 'C24 H23 N1 O1'
_chemical_formula_moiety
;
C24 H23 N1 O1
;
_journal_coden_Cambridge 7
_journal_volume 76
_journal_year 2003
_journal_page_first 1801
_journal_name_full 'Bull.Chem.Soc.Jpn. '
loop_
_publ_author_name
"G.Yamamoto"
"C.Agawa"
"T.Ohno"
"M.Minoura"
"Y.Mazaki"
_chemical_name_systematic
;
N-(1,4-Dimethyl-9-triptycyl)-N,O-dimethylhydroxylamine
;
_chemical_melting_point 490.15
_cell_volume   1811.106
_exptl_crystal_density_diffrn 1.252
_exptl_special_details
;
Melting point range 490.15-493.15K

;
_exptl_crystal_preparation 'dichloromethane/hexane'
_diffrn_ambient_temperature 293
#These two values have been output from a single CSD field.
_refine_ls_R_factor_gt 0.0469
_refine_ls_wR_factor_gt 0.0469
_symmetry_cell_setting monoclinic
_symmetry_space_group_name_H-M 'P 21/a'
_symmetry_Int_Tables_number 14
loop_
_symmetry_equiv_pos_site_id
_symmetry_equiv_pos_as_xyz
1 x,y,z
2 1/2-x,1/2+y,-z
3 -x,-y,-z
4 -1/2+x,-1/2-y,z
_cell_length_a 10.3357(12)
_cell_length_b 17.1612(14)
_cell_length_c 10.543(2)
_cell_angle_alpha 90
_cell_angle_beta 104.423(11)
_cell_angle_gamma 90
_cell_formula_units_Z 4
loop_
_atom_type_symbol
_atom_type_radius_bond
C 0.68
H 0.23
N 0.68
O 0.68
loop_
_atom_site_label
_atom_site_type_symbol
_atom_site_fract_x
_atom_site_fract_y
_atom_site_fract_z
O1 O 0.39995(12) 0.05831(7) 0.64079(13)
N1 N 0.28483(13) 0.01568(8) 0.66205(14)
C1 C -0.1996(2) 0.11894(15) 0.8815(2)
C2 C -0.1109(2) 0.06091(12) 0.8379(2)
C3 C -0.1373(2) -0.01843(12) 0.8395(2)
C4 C -0.0519(2) -0.07163(11) 0.8068(2)
C5 C 0.1514(2) -0.11712(11) 0.7459(2)
C6 C 0.0623(2) -0.05036(10) 0.7654(2)
C7 C 0.08495(15) 0.02968(9) 0.7544(2)
C8 C 0.0026(2) 0.0834(1) 0.7986(2)
C9 C 0.0565(2) 0.16624(10) 0.8126(2)
C10 C 0.20462(15) 0.07139(9) 0.7157(2)
C11 C 0.2792(2) 0.10776(9) 0.8476(2)
C12 C 0.1985(2) 0.15891(10) 0.8977(2)
C13 C 0.2476(2) 0.19585(11) 1.0170(2)
C14 C 0.4081(2) 0.09274(11) 0.9191(2)
C15 C 0.3781(2) 0.18120(12) 1.0874(2)
C16 C 0.4568(2) 0.13006(13) 1.0391(2)
C17 C 0.5112(2) 0.00678(14) 0.6662(2)
C18 C 0.2143(2) -0.01699(11) 0.5333(2)
C19 C 0.1507(2) 0.14283(10) 0.6271(2)
C20 C 0.0702(2) 0.19224(10) 0.6801(2)
C21 C 0.0166(2) 0.26020(11) 0.6171(2)
C22 C 0.1830(2) 0.16490(11) 0.5123(2)
C23 C 0.1302(2) 0.23401(13) 0.4494(2)
C24 C 0.0464(2) 0.28054(12) 0.5009(2)
H1 H 0.00390 0.33460 0.45860
H2 H 0.15850 0.24550 0.36120
H3 H 0.24480 0.13350 0.47320
H4 H 0.54700 0.11750 1.09030
H5 H 0.41620 0.20480 1.17570
H6 H -0.04020 0.30030 0.65880
H7 H 0.18360 0.23760 1.04440
H8 H 0.00020 0.20250 0.84830
H9 H 0.46820 0.05530 0.88630
H10 H 0.52570 -0.01060 0.75320
H11 H 0.50050 -0.03510 0.60060
H12 H 0.58680 0.03860 0.66070
H13 H 0.25260 -0.06840 0.51510
H14 H 0.12730 -0.03230 0.53360
H15 H 0.21820 0.01910 0.45450
H16 H 0.24280 -0.10260 0.75460
H17 H 0.11710 -0.14140 0.65760
H18 H 0.14550 -0.15730 0.81290
H19 H -0.06970 -0.12900 0.81920
H20 H -0.21440 -0.03680 0.87150
H21 H -0.26650 0.08990 0.90500
H22 H -0.24110 0.15370 0.80490
H23 H -0.16030 0.15500 0.95060
#END
