
#######################################################################
#
#                 Cambridge Crystallographic Data Centre
#                                CCDC
#
#######################################################################
#
# If this CIF has been generated from an entry in the Cambridge
# Structural Database, then it will include bibliographic, chemical,
# crystal, experimental, refinement or atomic coordinate data resulting
# from the CCDC's data processing and validation procedures.
#
#######################################################################

data_CSD_CIF_ENIRIC
_audit_creation_date 2004-03-25
_audit_creation_method CSD-ConQuest-V1
_database_code_CSD ENIRIC
_database_code_depnum_ccdc_archive 'CCDC 226985'
_chemical_formula_sum 'C16 H12 N2 O3'
_chemical_formula_moiety
;
C16 H12 N2 O3
;
_journal_coeditor_code "IUCr LH6125"
_journal_coden_Cambridge 1370
_journal_volume 59
_journal_year 2003
_journal_page_first o1729
_journal_name_full 'Acta Crystallogr.,Sect.E:Struct.Rep.Online '
loop_
_publ_author_name
"S.M.S.V.Wardell"
"C.E.M.Carvalho"
"J.N.Low"
"C.Glidewell"
_chemical_name_systematic
;
5-(2-Acetyloxyphenyl)-3-phenyl-1,2,4-oxadiazole
;
_cell_volume   1312.418
_exptl_crystal_colour 'colorless'
_exptl_crystal_density_diffrn 1.418
_exptl_crystal_description 'plate'
_diffrn_ambient_temperature 120
#These two values have been output from a single CSD field.
_refine_ls_R_factor_gt 0.0552
_refine_ls_wR_factor_gt 0.0552
_symmetry_cell_setting monoclinic
_symmetry_space_group_name_H-M 'P 21/n'
_symmetry_Int_Tables_number 14
loop_
_symmetry_equiv_pos_site_id
_symmetry_equiv_pos_as_xyz
1 x,y,z
2 1/2+x,1/2-y,1/2+z
3 -x,-y,-z
4 -1/2-x,-1/2+y,-1/2-z
_cell_length_a 14.5489(8)
_cell_length_b 5.4293(3)
_cell_length_c 17.2806(13)
_cell_angle_alpha 90
_cell_angle_beta 105.955(2)
_cell_angle_gamma 90
_cell_formula_units_Z 4
loop_
_atom_type_symbol
_atom_type_radius_bond
C 0.68
H 0.23
N 0.68
O 0.68
loop_
_atom_site_label
_atom_site_type_symbol
_atom_site_fract_x
_atom_site_fract_y
_atom_site_fract_z
O1 O 0.36315(9) 0.1997(3) 0.47966(8)
O2 O 0.40604(9) 0.8256(2) 0.63287(8)
O3 O 0.3232(1) 0.5874(3) 0.69702(8)
N1 N 0.26830(12) 0.1909(3) 0.42934(10)
N2 N 0.28702(12) 0.5148(3) 0.51459(10)
C1 C 0.22805(14) 0.3803(4) 0.45294(12)
C2 C 0.12611(14) 0.4404(4) 0.41766(12)
C3 C 0.08606(15) 0.6498(4) 0.44173(14)
C4 C -0.01027(16) 0.6980(4) 0.41092(14)
C5 C -0.06761(16) 0.5400(4) 0.35593(13)
C6 C -0.02829(15) 0.3340(4) 0.33032(13)
C7 C 0.06807(6) 0.28393(16) 0.36106(6)
C8 C 0.36779(6) 0.39670(16) 0.52839(6)
C9 C 0.45964(6) 0.44165(16) 0.58771(6)
C10 C 0.47561(6) 0.64254(16) 0.63986(6)
C11 C 0.56304(6) 0.68026(16) 0.69527(6)
C12 C 0.63707(16) 0.5166(4) 0.69884(13)
C13 C 0.62340(15) 0.3155(4) 0.64745(13)
C14 C 0.53525(14) 0.2775(4) 0.59298(12)
C15 C 0.32925(15) 0.7744(4) 0.66144(12)
C16 C 0.25979(15) 0.9807(4) 0.64235(13)
H1 H 0.12520 0.75980 0.47950
H2 H -0.03720 0.84100 0.42770
H3 H -0.13410 0.57240 0.33560
H4 H -0.06750 0.22690 0.29160
H5 H 0.09480 0.14200 0.34350
H6 H 0.57230 0.81750 0.73070
H7 H 0.69750 0.54220 0.73660
H8 H 0.67450 0.20430 0.64970
H9 H 0.52580 0.13770 0.55860
H10 H 0.20640 0.94630 0.66510
H11 H 0.23560 0.99840 0.58380
H12 H 0.29150 1.13360 0.66550
#END
