
#######################################################################
#
#                 Cambridge Crystallographic Data Centre
#                                CCDC
#
#######################################################################
#
# If this CIF has been generated from an entry in the Cambridge
# Structural Database, then it will include bibliographic, chemical,
# crystal, experimental, refinement or atomic coordinate data resulting
# from the CCDC's data processing and validation procedures.
#
#######################################################################

data_CSD_CIF_ENIZIK02
_audit_creation_date 2012-04-25
_audit_creation_method CSD-ConQuest-V1
_database_code_CSD ENIZIK02
_database_code_depnum_ccdc_archive 'CCDC 840780'
_chemical_formula_sum 'C23 H21 N2 O2'
_chemical_formula_moiety
;
C23 H21 N2 O2
;
_journal_coden_Cambridge 1350
_journal_volume 14
_journal_year 2012
_journal_page_first 1515
_journal_name_full 'CrystEngComm '
loop_
_publ_author_name
"H.Akpinar"
"J.T.Mague"
"M.A.Novak"
"J.A.Friedman"
"P.M.Lahti"
_chemical_name_systematic
;
2-(1-Pyrenyl)-4,4,5,5-tetramethyl-4,5-dihydro-1H-imidazole-3-oxide-1-oxyl
;
_cell_volume   1792.746
_exptl_crystal_colour 'gold'
_exptl_crystal_density_diffrn 1.324
_exptl_special_details
;
beta polymorph

;
_exptl_crystal_description 'parallelepiped'
_diffrn_ambient_temperature 100
#These two values have been output from a single CSD field.
_refine_ls_R_factor_gt 0.0417
_refine_ls_wR_factor_gt 0.0417
_symmetry_cell_setting monoclinic
_symmetry_space_group_name_H-M 'P 21/n'
_symmetry_Int_Tables_number 14
loop_
_symmetry_equiv_pos_site_id
_symmetry_equiv_pos_as_xyz
1 x,y,z
2 1/2-x,1/2+y,1/2-z
3 -x,-y,-z
4 -1/2+x,-1/2-y,-1/2+z
_cell_length_a 9.856(2)
_cell_length_b 7.2899(17)
_cell_length_c 25.019(6)
_cell_angle_alpha 90
_cell_angle_beta 94.210(3)
_cell_angle_gamma 90
_cell_formula_units_Z 4
loop_
_atom_type_symbol
_atom_type_radius_bond
C 0.68
H 0.23
N 0.68
O 0.68
loop_
_atom_site_label
_atom_site_type_symbol
_atom_site_fract_x
_atom_site_fract_y
_atom_site_fract_z
O1 O -0.12487(8) 0.91204(11) 0.17164(3)
O2 O -0.04688(7) 0.78365(10) -0.00488(3)
N1 N -0.13706(8) 0.90738(11) 0.12045(3)
N2 N -0.10199(8) 0.84028(12) 0.03678(3)
C1 C -0.04689(10) 0.83542(13) 0.08792(4)
C2 C -0.25251(10) 1.00109(13) 0.08855(4)
C3 C -0.24912(10) 0.89613(13) 0.03461(4)
C4 C -0.38259(10) 0.97936(15) 0.11695(4)
H1 H -0.40090 0.84870 0.12220
H2 H -0.45850 1.03470 0.09520
H3 H -0.37230 1.04070 0.15190
C5 C -0.21324(11) 1.20415(14) 0.08509(4)
H4 H -0.19720 1.25450 0.12130
H5 H -0.28720 1.27200 0.06570
H6 H -0.13020 1.21570 0.06610
C6 C -0.28442(11) 1.01135(15) -0.01506(4)
H7 H -0.22050 1.11410 -0.01600
H8 H -0.37720 1.05880 -0.01410
H9 H -0.27820 0.93550 -0.04710
C7 C -0.32972(11) 0.71563(15) 0.03315(4)
H10 H -0.30610 0.64240 0.00230
H11 H -0.42740 0.74260 0.02990
H12 H -0.30710 0.64680 0.06630
C8 C 0.0831(1) 0.74988(13) 0.10547(4)
C9 C 0.10971(10) 0.57366(13) 0.08639(4)
H13 H 0.04670 0.51700 0.06100
C10 C 0.22729(11) 0.48172(13) 0.10435(4)
H14 H 0.24400 0.36240 0.09110
C11 C 0.32208(10) 0.56211(13) 0.14182(4)
C12 C 0.44237(11) 0.46670(14) 0.16272(4)
H15 H 0.46080 0.34760 0.14960
C13 C 0.52985(11) 0.54291(14) 0.20064(4)
H16 H 0.60690 0.47490 0.21440
C14 C 0.50821(10) 0.72499(14) 0.22039(4)
C15 C 0.59896(11) 0.80770(15) 0.25894(4)
H17 H 0.67650 0.74170 0.27320
C16 C 0.57654(11) 0.98544(16) 0.27651(4)
H18 H 0.63900 1.03970 0.30260
C17 C 0.46334(10) 1.08461(14) 0.25620(4)
H19 H 0.44960 1.20620 0.26830
C18 C 0.3696(1) 1.00616(13) 0.21798(4)
C19 C 0.25135(10) 1.10331(13) 0.19620(4)
H20 H 0.23690 1.22590 0.20740
C20 C 0.15976(10) 1.02454(13) 0.16007(4)
H21 H 0.08250 1.09270 0.14660
C21 C 0.17774(9) 0.83928(13) 0.14182(4)
C22 C 0.29716(9) 0.74240(13) 0.16086(4)
C23 C 0.39198(9) 0.82466(13) 0.19964(4)
#END
