
#######################################################################
#
#                 Cambridge Crystallographic Data Centre
#                                CCDC
#
#######################################################################
#
# If this CIF has been generated from an entry in the Cambridge
# Structural Database, then it will include bibliographic, chemical,
# crystal, experimental, refinement or atomic coordinate data resulting
# from the CCDC's data processing and validation procedures.
#
#######################################################################

data_CSD_CIF_ENIZEG
_audit_creation_date 2004-03-25
_audit_creation_method CSD-ConQuest-V1
_database_code_CSD ENIZEG
_database_code_depnum_ccdc_archive 'CCDC 226035'
_chemical_formula_sum 'C17 H14 N2 O4'
_chemical_formula_moiety
;
C17 H14 N2 O4
;
_journal_coden_Cambridge 1078
_journal_year 2003
_journal_name_full 'CSD Communication(Private Communication) '
loop_
_publ_author_name
"M.Poppe"
"R.Gompper"
"K.Polborn"
_chemical_name_systematic
;
3-[4-(dimethylamino)benzylidene]-6-nitro-2-benzofuran-1(3H)-one
;
_cell_volume   1450.769
_exptl_crystal_colour 'green metallic'
_exptl_crystal_density_diffrn 1.421
_exptl_special_details
;
contribution from Department Chemie, Universitat Munchen, Butenandtstr. 5-13, 
81377 Munchen, Germany
;
_exptl_crystal_description 'hexagonal plate'
_diffrn_ambient_temperature 295
#These two values have been output from a single CSD field.
_refine_ls_R_factor_gt 0.0632
_refine_ls_wR_factor_gt 0.0632
_symmetry_cell_setting monoclinic
_symmetry_space_group_name_H-M 'P 21/c'
_symmetry_Int_Tables_number 14
loop_
_symmetry_equiv_pos_site_id
_symmetry_equiv_pos_as_xyz
1 x,y,z
2 x,1/2-y,1/2+z
3 -x,-y,-z
4 -x,-1/2+y,-1/2-z
_cell_length_a 10.8544(13)
_cell_length_b 8.9739(14)
_cell_length_c 14.894(2)
_cell_angle_alpha 90
_cell_angle_beta 90.013(12)
_cell_angle_gamma 90
_cell_formula_units_Z 4
loop_
_atom_type_symbol
_atom_type_radius_bond
C 0.68
H 0.23
N 0.68
O 0.68
loop_
_atom_site_label
_atom_site_type_symbol
_atom_site_fract_x
_atom_site_fract_y
_atom_site_fract_z
O1 O 0.9855(2) 0.1860(2) -0.08064(11)
O2 O 1.1480(2) 0.2911(2) -0.14982(12)
O3 O 1.2428(2) 0.6480(3) 0.23661(15)
O4 O 1.3379(2) 0.6498(2) 0.10958(15)
N1 N 1.2565(2) 0.6045(2) 0.1594(2)
N2 N 0.5334(2) -0.2978(3) -0.16402(15)
C1 C 1.0877(2) 0.2782(3) -0.0830(2)
C2 C 1.0994(2) 0.3459(2) 0.00593(15)
C3 C 1.1838(2) 0.4479(3) 0.0369(2)
H1 H 1.2470(2) 0.4837(3) 0.0006(2)
C4 C 1.1702(2) 0.4941(3) 0.1240(2)
C5 C 1.0773(2) 0.4398(3) 0.1803(2)
H2 H 1.0720(2) 0.4729(3) 0.2393(2)
C6 C 0.9942(2) 0.3379(3) 0.1485(2)
H3 H 0.9318(2) 0.3016(3) 0.1853(2)
C7 C 1.0050(2) 0.2896(3) 0.0598(2)
C8 C 0.9333(2) 0.1880(3) 0.0058(2)
C9 C 0.8346(2) 0.1070(3) 0.0274(2)
H4 H 0.8090(2) 0.1179(3) 0.0867(2)
C10 C 0.7605(2) 0.0055(3) -0.0246(2)
C11 C 0.6633(2) -0.0694(3) 0.0173(2)
H5 H 0.6485(2) -0.0510(3) 0.0778(2)
C12 C 0.5888(2) -0.1685(3) -0.0266(2)
H6 H 0.5256(2) -0.2157(3) 0.0045(2)
C13 C 0.6065(2) -0.1997(3) -0.1182(2)
C14 C 0.7037(2) -0.1237(3) -0.1615(2)
H7 H 0.7177(2) -0.1405(3) -0.2222(2)
C15 C 0.7775(2) -0.0261(3) -0.1163(2)
H8 H 0.8411(2) 0.0209(3) -0.1471(2)
C16 C 0.4318(3) -0.3733(4) -0.1206(2)
H9 H 0.4633(3) -0.4429(15) -0.0774(9)
H10 H 0.3841(10) -0.4255(18) -0.1648(3)
H11 H 0.3807(10) -0.3014(4) -0.0908(11)
C17 C 0.5540(3) -0.3317(3) -0.2572(2)
H12 H 0.5019(12) -0.4130(13) -0.2749(4)
H13 H 0.6387(5) -0.3589(20) -0.2659(3)
H14 H 0.5352(16) -0.2457(7) -0.2931(2)
#END
