
#######################################################################
#
#                 Cambridge Crystallographic Data Centre
#                                CCDC
#
#######################################################################
#
# If this CIF has been generated from an entry in the Cambridge
# Structural Database, then it will include bibliographic, chemical,
# crystal, experimental, refinement or atomic coordinate data resulting
# from the CCDC's data processing and validation procedures.
#
#######################################################################

data_CSD_CIF_ENPROP
_audit_creation_date 1979-10-24
_audit_creation_method CSD-ConQuest-V1
_database_code_CSD ENPROP
_database_code_depnum_ccdc_archive 'CCDC 1149798'
_chemical_formula_sum 'C11 H11 N3 O9'
_chemical_formula_moiety
;
C11 H11 N3 O9
;
_journal_coeditor_code "IUCr A17609"
_journal_coden_Cambridge 107
_journal_volume 35
_journal_year 1979
_journal_page_first 1527
_journal_name_full 'Acta Crystallogr.,Sect.B:Struct.Crystallogr.Cryst.Chem. '
loop_
_publ_author_name
"C.Couldwell"
_chemical_name_systematic
;
Ethyl 3-nitrato-2-nitro-3-(4-nitrophenyl)-propionate
;
_cell_volume   1415.654
_diffrn_ambient_temperature ?
_diffrn_special_details
;
The study was carried out at room temperature,in the range 283-303K

;
#These two values have been output from a single CSD field.
_refine_ls_R_factor_gt 0.057
_refine_ls_wR_factor_gt 0.057
_symmetry_cell_setting monoclinic
_symmetry_space_group_name_H-M 'P 21/n'
_symmetry_Int_Tables_number 14
loop_
_symmetry_equiv_pos_site_id
_symmetry_equiv_pos_as_xyz
1 x,y,z
2 1/2-x,1/2+y,1/2-z
3 -x,-y,-z
4 -1/2+x,-1/2-y,-1/2+z
_cell_length_a 13.466(3)
_cell_length_b 13.609(3)
_cell_length_c 7.745(3)
_cell_angle_alpha 90
_cell_angle_beta 94.13(2)
_cell_angle_gamma 90
_cell_formula_units_Z 4
loop_
_atom_type_symbol
_atom_type_radius_bond
C 0.68
H 0.23
N 0.68
O 0.68
loop_
_atom_site_label
_atom_site_type_symbol
_atom_site_fract_x
_atom_site_fract_y
_atom_site_fract_z
O1 O 0.49430 0.90590 0.07120
O2 O 0.41850 0.85070 0.28710
O3 O 0.80940 1.00800 0.84370
O4 O 0.76360 1.12460 1.01170
O5 O 0.80640 1.16500 0.75810
O6 O 1.01170 0.85660 0.92940
O7 O 1.03170 0.99190 0.79180
O8 O 1.02510 0.83770 0.51980
O9 O 0.86510 0.81910 0.42740
N1 N 0.48840 0.89030 0.22630
N2 N 0.79150 1.10950 0.87170
N3 N 0.98760 0.91620 0.81730
C1 C 0.57490 0.91900 0.34390
C2 C 0.58210 0.88160 0.50810
C3 C 0.66530 0.90420 0.61550
C4 C 0.73910 0.96410 0.55600
C5 C 0.72870 1.00370 0.39090
C6 C 0.64530 0.97970 0.28190
C7 C 0.83340 0.98350 0.66870
C8 C 0.89760 0.89120 0.69830
C9 C 0.93850 0.84680 0.53650
C10 C 0.89050 0.76940 0.26890
C11 C 0.80230 0.77540 0.14360
H1 H 0.53400 0.83800 0.54400
H2 H 0.67200 0.87800 0.73300
H3 H 0.77800 1.04500 0.35200
H4 H 0.63970 1.00200 0.16200
H5 H 0.87200 1.03700 0.62000
H6 H 0.86000 0.84200 0.75300
H7 H 0.90600 0.70000 0.29400
H8 H 0.94800 0.80300 0.22100
H9 H 0.74800 0.74400 0.19700
H10 H 0.81800 0.73700 0.04400
H11 H 0.79400 0.84300 0.11200
#END
