
#######################################################################
#
#                 Cambridge Crystallographic Data Centre
#                                CCDC
#
#######################################################################
#
# If this CIF has been generated from an entry in the Cambridge
# Structural Database, then it will include bibliographic, chemical,
# crystal, experimental, refinement or atomic coordinate data resulting
# from the CCDC's data processing and validation procedures.
#
#######################################################################

data_CSD_CIF_ENUHIF
_audit_creation_date 2011-06-24
_audit_creation_method CSD-ConQuest-V1
_database_code_CSD ENUHIF
_database_code_depnum_ccdc_archive 'CCDC 824970'
_database_code_depnum_ccdc_journal 1267/3337
_chemical_formula_sum 'C16 H11 N3 O3'
_chemical_formula_moiety
;
C16 H11 N3 O3
;
_journal_coden_Cambridge 1267
_journal_volume 226
_journal_year 2011
_journal_page_first 126
_journal_name_full 'Z.Kristallogr.-New Cryst.Struct. '
loop_
_publ_author_name
"Y.B.M.Bisseyou"
"B.Guillot"
"D.Sissouma"
"C.Lecomte"
"J.T.Abodou"
_chemical_name_systematic
;
1-(1H-Benzimidazol-2-yl)-3-(3-nitrophenyl)prop-2-en-1-one
;
_chemical_melting_point 533
_cell_volume   1325.497
_exptl_crystal_colour 'yellow'
_exptl_crystal_density_diffrn 1.47
_exptl_special_details
;
Melts above 533K

;
_exptl_crystal_description 'parallelepiped'
_exptl_crystal_preparation 'toluene/ethanol'
_diffrn_ambient_temperature 100
#These two values have been output from a single CSD field.
_refine_ls_R_factor_gt 0.0413
_refine_ls_wR_factor_gt 0.0413
_symmetry_cell_setting monoclinic
_symmetry_space_group_name_H-M 'P 21/c'
_symmetry_Int_Tables_number 14
loop_
_symmetry_equiv_pos_site_id
_symmetry_equiv_pos_as_xyz
1 x,y,z
2 -x,1/2+y,1/2-z
3 -x,-y,-z
4 x,-1/2-y,-1/2+z
_cell_length_a 9.3959(2)
_cell_length_b 5.7085(1)
_cell_length_c 24.8921(7)
_cell_angle_alpha 90
_cell_angle_beta 96.885(1)
_cell_angle_gamma 90
_cell_formula_units_Z 4
loop_
_atom_type_symbol
_atom_type_radius_bond
C 0.68
H 0.23
N 0.68
O 0.68
loop_
_atom_site_label
_atom_site_type_symbol
_atom_site_fract_x
_atom_site_fract_y
_atom_site_fract_z
O1 O 0.66190(9) 0.12993(17) 0.97184(4)
O2 O 1.11479(10) 0.34716(19) 0.76883(4)
O3 O 1.19767(11) 0.6904(2) 0.75211(5)
N1 N 0.53616(10) 0.22426(18) 1.06480(4)
N2 N 0.65356(10) 0.56776(18) 1.07415(4)
N3 N 1.13579(11) 0.5544(2) 0.78004(4)
C1 C 0.49570(12) 0.3253(2) 1.11059(4)
C2 C 0.99623(13) 0.8103(2) 0.92387(5)
C3 C 0.39998(12) 0.2552(2) 1.14641(4)
C4 C 0.79242(12) 0.4877(2) 0.97562(5)
C5 C 0.62906(12) 0.3753(2) 1.04485(5)
C6 C 0.56992(11) 0.5403(2) 1.11598(5)
C7 C 0.99200(12) 0.5107(2) 0.85530(5)
C8 C 1.13495(13) 0.8613(2) 0.84933(6)
C9 C 1.08580(12) 0.6469(2) 0.82967(5)
C10 C 0.69310(12) 0.3164(2) 0.99526(5)
C11 C 0.54905(12) 0.6912(2) 1.15882(5)
C12 C 0.84713(12) 0.4455(2) 0.92944(5)
C13 C 1.09075(14) 0.9419(2) 0.89733(6)
C14 C 0.94581(12) 0.5926(2) 0.90311(5)
C15 C 0.45417(13) 0.6225(2) 1.19392(5)
C16 C 0.38104(12) 0.4062(2) 1.18792(5)
H1 H 0.95950 0.36490 0.83990
H2 H 0.81920 0.30460 0.91100
H3 H 0.81420 0.62510 0.99630
H4 H 0.31490 0.36650 1.21340
H5 H 0.96550 0.86760 0.95690
H6 H 0.34920 0.11060 1.14170
H7 H 0.50010 0.09640 1.04920
H8 H 0.59790 0.83760 1.16290
H9 H 0.43590 0.72210 1.22320
H10 H 1.19870 0.94900 0.83030
H11 H 1.12590 1.08870 0.91240
#END
