
#######################################################################
#
#                 Cambridge Crystallographic Data Centre
#                                CCDC
#
#######################################################################
#
# If this CIF has been generated from an entry in the Cambridge
# Structural Database, then it will include bibliographic, chemical,
# crystal, experimental, refinement or atomic coordinate data resulting
# from the CCDC's data processing and validation procedures.
#
#######################################################################

data_CSD_CIF_ENULEF
_audit_creation_date 2011-06-30
_audit_creation_method CSD-ConQuest-V1
_database_code_CSD ENULEF
_database_code_depnum_ccdc_archive 'CCDC 715312'
_chemical_formula_sum 'C13 H13 N1 O1'
_chemical_formula_moiety
;
C13 H13 N1 O1
;
_journal_coden_Cambridge 154
_journal_volume 62
_journal_year 2009
_journal_page_first 1695
_journal_name_full 'Aust.J.Chem. '
loop_
_publ_author_name
"J.Roth-Barton"
"J.M.White"
_chemical_name_systematic
;
8-Phenyl-7-oxa-8-azabicyclo[4.2.1]nona-2,4-diene
;
_cell_volume   2067.411
_exptl_crystal_colour 'colorless'
_exptl_crystal_density_diffrn 1.28
_exptl_special_details
;
Study temperature given as 130 K and 293 K in the CIF

;
_exptl_crystal_description 'slab'
_diffrn_ambient_temperature 130
#These two values have been output from a single CSD field.
_refine_ls_R_factor_gt 0.042
_refine_ls_wR_factor_gt 0.042
_symmetry_cell_setting orthorhombic
_symmetry_space_group_name_H-M 'P b c a'
_symmetry_Int_Tables_number 61
loop_
_symmetry_equiv_pos_site_id
_symmetry_equiv_pos_as_xyz
1 x,y,z
2 1/2-x,-y,1/2+z
3 -x,1/2+y,1/2-z
4 1/2+x,1/2-y,-z
5 -x,-y,-z
6 -1/2+x,y,-1/2-z
7 x,-1/2-y,-1/2+z
8 -1/2-x,-1/2+y,z
_cell_length_a 11.5795(3)
_cell_length_b 9.1698(2)
_cell_length_c 19.4705(4)
_cell_angle_alpha 90
_cell_angle_beta 90
_cell_angle_gamma 90
_cell_formula_units_Z 8
loop_
_atom_type_symbol
_atom_type_radius_bond
C 0.68
H 0.23
N 0.68
O 0.68
loop_
_atom_site_label
_atom_site_type_symbol
_atom_site_fract_x
_atom_site_fract_y
_atom_site_fract_z
C1 C 0.79382(16) -0.1801(2) 0.28055(9)
H1 H 0.75870 -0.27160 0.26510
C2 C 0.72564(17) -0.1162(2) 0.33878(9)
H2 H 0.64830 -0.14340 0.34100
C3 C 0.76186(17) -0.0257(2) 0.38765(10)
H3 H 0.70560 0.00230 0.41910
C4 C 0.87583(19) 0.0363(2) 0.39967(10)
H4 H 0.88560 0.08640 0.44080
C5 C 0.96746(17) 0.0298(2) 0.35875(10)
H5 H 1.03520 0.07500 0.37300
C6 C 0.96734(16) -0.0467(2) 0.29084(9)
H6 H 1.04460 -0.04520 0.27030
C7 C 0.92162(16) -0.2020(2) 0.29498(9)
H7 H 0.95730 -0.26410 0.26070
H8 H 0.93410 -0.24370 0.34020
C8 C 0.82272(15) -0.13018(19) 0.15719(9)
C9 C 0.74619(16) -0.2304(2) 0.12875(9)
H9 H 0.68210 -0.26080 0.15370
C10 C 0.76507(17) -0.2851(2) 0.06342(10)
H10 H 0.71370 -0.35210 0.04470
C11 C 0.86062(16) -0.2401(2) 0.02577(9)
H11 H 0.87340 -0.27650 -0.01820
C12 C 0.93593(16) -0.1413(2) 0.05411(9)
H12 H 1.00060 -0.11210 0.02930
C13 C 0.91720(15) -0.0843(2) 0.11906(9)
H13 H 0.96780 -0.01540 0.13710
N1 N 0.79531(13) -0.07204(16) 0.22382(7)
O1 O 0.8830(1) 0.02935(13) 0.24595(6)
#END
