
#######################################################################
#
#                 Cambridge Crystallographic Data Centre
#                                CCDC
#
#######################################################################
#
# If this CIF has been generated from an entry in the Cambridge
# Structural Database, then it will include bibliographic, chemical,
# crystal, experimental, refinement or atomic coordinate data resulting
# from the CCDC's data processing and validation procedures.
#
#######################################################################

data_CSD_CIF_ENUNUY
_audit_creation_date 2016-06-23
_audit_creation_method CSD-ConQuest-V1
_database_code_CSD ENUNUY
_database_code_depnum_ccdc_archive 'CCDC 1033377'
_chemical_formula_sum 'C17 H14 N4 O4'
_chemical_formula_moiety
;
C17 H14 N4 O4
;
_journal_coden_Cambridge 35
_journal_volume 80
_journal_year 2015
_journal_page_first 2103
_journal_name_full 'J.Org.Chem. '
loop_
_publ_author_name
"V.O.Iaroshenko"
"A.Gevorgyan"
"S.Mkrtchyan"
"K.Arakelyan"
"T.Grigoryan"
"J.Yedoyan"
"A.Villinger"
"P.Langer"
_chemical_name_systematic
;
4-nitro-5-(3-nitrophenyl)-1-(2-phenylethyl)-1H-imidazole
;
_cell_volume    769.279
_exptl_crystal_colour 'colorless'
_exptl_crystal_density_diffrn 1.461
_exptl_crystal_description 'block'
_diffrn_ambient_temperature 173
#These two values have been output from a single CSD field.
_refine_ls_R_factor_gt 0.0454
_refine_ls_wR_factor_gt 0.0454
_symmetry_cell_setting monoclinic
_symmetry_space_group_name_H-M 'P n'
_symmetry_Int_Tables_number 7
loop_
_symmetry_equiv_pos_site_id
_symmetry_equiv_pos_as_xyz
1 x,y,z
2 1/2+x,-y,1/2+z
_cell_length_a 7.5869(4)
_cell_length_b 14.3161(8)
_cell_length_c 7.9651(4)
_cell_angle_alpha 90
_cell_angle_beta 117.226(2)
_cell_angle_gamma 90
_cell_formula_units_Z 2
loop_
_atom_type_symbol
_atom_type_radius_bond
C 0.68
H 0.23
N 0.68
O 0.68
loop_
_atom_site_label
_atom_site_type_symbol
_atom_site_fract_x
_atom_site_fract_y
_atom_site_fract_z
N1 N 0.5891(3) 0.06462(13) -0.3846(3)
N2 N 0.7725(3) 0.15110(13) -0.1315(2)
N3 N 0.4645(3) 0.18195(13) -0.6257(3)
N4 N 0.8402(3) 0.50841(15) -0.5054(3)
O1 O 0.4052(3) 0.11913(12) -0.7440(2)
O2 O 0.4291(3) 0.26465(12) -0.6654(3)
O3 O 0.8221(4) 0.46622(15) -0.6454(3)
O4 O 0.8841(4) 0.59081(13) -0.4785(3)
C1 C 0.7063(3) 0.06418(15) -0.2024(3)
H1 H 0.74150 0.00910 -0.12750
C2 C 0.6915(3) 0.21344(13) -0.2790(3)
C3 C 0.5800(3) 0.15636(15) -0.4324(3)
C4 C 0.9200(3) 0.16653(16) 0.0658(3)
H2 H 0.97600 0.23020 0.07910
H3 H 1.02970 0.12120 0.10070
C5 C 0.8274(4) 0.15546(18) 0.1988(3)
H4 H 0.71850 0.20130 0.16390
H5 H 0.76940 0.09220 0.18310
C6 C 0.9750(3) 0.16954(16) 0.4033(3)
C7 C 1.0815(4) 0.25267(18) 0.4638(3)
H6 H 1.06640 0.29950 0.37360
C8 C 1.2088(4) 0.2684(2) 0.6528(4)
H7 H 1.28030 0.32540 0.69130
C9 C 1.2315(4) 0.2005(2) 0.7858(4)
H8 H 1.31710 0.21130 0.91580
C10 C 1.1293(4) 0.1170(2) 0.7282(4)
H9 H 1.14550 0.07020 0.81880
C11 C 1.0022(4) 0.10133(18) 0.5375(4)
H10 H 0.93360 0.04360 0.49890
C12 C 0.7302(3) 0.31467(13) -0.2567(3)
C13 C 0.7706(3) 0.36266(15) -0.3872(3)
H11 H 0.77360 0.33090 -0.49050
C14 C 0.8063(3) 0.45765(15) -0.3630(3)
C15 C 0.8084(4) 0.50717(15) -0.2133(3)
H12 H 0.83580 0.57230 -0.19960
C16 C 0.7693(4) 0.45874(15) -0.0842(4)
H13 H 0.77070 0.49070 0.02090
C17 C 0.7279(4) 0.36369(14) -0.1066(3)
H14 H 0.69760 0.33170 -0.01850
#END
