
#######################################################################
#
#                 Cambridge Crystallographic Data Centre
#                                CCDC
#
#######################################################################
#
# If this CIF has been generated from an entry in the Cambridge
# Structural Database, then it will include bibliographic, chemical,
# crystal, experimental, refinement or atomic coordinate data resulting
# from the CCDC's data processing and validation procedures.
#
#######################################################################

data_CSD_CIF_ENUNAE
_audit_creation_date 2016-06-23
_audit_creation_method CSD-ConQuest-V1
_database_code_CSD ENUNAE
_database_code_depnum_ccdc_archive 'CCDC 1033373'
_chemical_formula_sum 'C22 H23 N3 O5'
_chemical_formula_moiety
;
C22 H23 N3 O5
;
_journal_coden_Cambridge 35
_journal_volume 80
_journal_year 2015
_journal_page_first 2103
_journal_name_full 'J.Org.Chem. '
loop_
_publ_author_name
"V.O.Iaroshenko"
"A.Gevorgyan"
"S.Mkrtchyan"
"K.Arakelyan"
"T.Grigoryan"
"J.Yedoyan"
"A.Villinger"
"P.Langer"
_chemical_name_systematic
;
4,5-dimethoxy-2-(2-methyl-4-nitro-1-(3-phenylpropyl)-1H-imidazol-5-yl)benzalde
hyde
;
_cell_volume   2044.755
_exptl_crystal_colour 'yellow'
_exptl_crystal_density_diffrn 1.33
_exptl_crystal_description 'block'
_diffrn_ambient_temperature 173
#These two values have been output from a single CSD field.
_refine_ls_R_factor_gt 0.0445
_refine_ls_wR_factor_gt 0.0445
_symmetry_cell_setting monoclinic
_symmetry_space_group_name_H-M 'P 21/n'
_symmetry_Int_Tables_number 14
loop_
_symmetry_equiv_pos_site_id
_symmetry_equiv_pos_as_xyz
1 x,y,z
2 1/2-x,1/2+y,1/2-z
3 -x,-y,-z
4 -1/2+x,-1/2-y,-1/2+z
_cell_length_a 8.5834(3)
_cell_length_b 14.8435(5)
_cell_length_c 16.2877(6)
_cell_angle_alpha 90
_cell_angle_beta 99.823(1)
_cell_angle_gamma 90
_cell_formula_units_Z 4
loop_
_atom_type_symbol
_atom_type_radius_bond
C 0.68
H 0.23
N 0.68
O 0.68
loop_
_atom_site_label
_atom_site_type_symbol
_atom_site_fract_x
_atom_site_fract_y
_atom_site_fract_z
N1 N 0.58153(10) 0.41833(6) 0.10305(6)
N2 N 0.71038(10) 0.54809(6) 0.10192(6)
N3 N 0.32337(11) 0.47265(6) 0.11856(6)
O1 O 0.27380(11) 0.39514(6) 0.11076(8)
O2 O 0.24003(10) 0.53747(6) 0.13004(7)
O3 O 0.43584(18) 0.67521(7) 0.33246(7)
O4 O 0.35739(11) 0.93218(5) 0.11798(6)
O5 O 0.44496(12) 0.86733(6) -0.01301(5)
C1 C 0.48608(11) 0.48898(7) 0.11372(6)
C2 C 0.56036(11) 0.57132(7) 0.11433(6)
C3 C 0.71757(12) 0.45567(7) 0.09643(6)
C4 C 0.86130(14) 0.40486(9) 0.08352(9)
H1 H 0.84530 0.34040 0.09230
H2 H 0.95280 0.42610 0.12320
H3 H 0.88030 0.41470 0.02660
C5 C 0.50995(11) 0.66596(7) 0.12065(6)
C6 C 0.46843(12) 0.70191(7) 0.19306(6)
C7 C 0.41641(12) 0.79168(7) 0.19400(7)
H4 H 0.38700 0.81560 0.24330
C8 C 0.40759(12) 0.84524(7) 0.12438(7)
C9 C 0.45502(13) 0.80979(7) 0.05192(7)
C10 C 0.50439(12) 0.72104(7) 0.05027(7)
H5 H 0.53470 0.69730 0.00110
C11 C 0.47659(16) 0.64832(8) 0.26949(7)
H6 H 0.51650 0.58860 0.26930
C12 C 0.28830(15) 0.96691(8) 0.18480(8)
H7 H 0.19530 0.93090 0.19090
H8 H 0.25650 1.02960 0.17300
H9 H 0.36550 0.96410 0.23650
C13 C 0.5020(2) 0.83671(10) -0.08554(8)
H10 H 0.61190 0.81680 -0.07000
H11 H 0.49650 0.88600 -0.12590
H12 H 0.43680 0.78630 -0.11050
C14 C 0.84162(12) 0.61147(7) 0.10192(7)
H13 H 0.80270 0.66540 0.06890
H14 H 0.92400 0.58280 0.07500
C15 C 0.91357(13) 0.64005(8) 0.18962(7)
H15 H 0.96490 0.58750 0.22050
H16 H 0.82890 0.66160 0.21910
C16 C 1.03583(13) 0.71501(8) 0.18857(9)
H17 H 1.08780 0.72810 0.24640
H18 H 1.11810 0.69420 0.15710
C17 C 0.96114(13) 0.79996(8) 0.14927(7)
C18 C 0.97704(16) 0.82543(9) 0.06903(8)
H19 H 1.04010 0.79000 0.03880
C19 C 0.9023(2) 0.90168(11) 0.03259(10)
H20 H 0.91450 0.91810 -0.02230
C20 C 0.8102(2) 0.95404(10) 0.07540(11)
H21 H 0.75890 1.00630 0.05030
C21 C 0.79363(17) 0.92948(9) 0.15544(11)
H22 H 0.73050 0.96510 0.18540
C22 C 0.86856(15) 0.85322(8) 0.19209(8)
H23 H 0.85650 0.83720 0.24710
#END
