
#######################################################################
#
#                 Cambridge Crystallographic Data Centre
#                                CCDC
#
#######################################################################
#
# If this CIF has been generated from an entry in the Cambridge
# Structural Database, then it will include bibliographic, chemical,
# crystal, experimental, refinement or atomic coordinate data resulting
# from the CCDC's data processing and validation procedures.
#
#######################################################################

data_CSD_CIF_ENUNIM
_audit_creation_date 2016-06-23
_audit_creation_method CSD-ConQuest-V1
_database_code_CSD ENUNIM
_database_code_depnum_ccdc_archive 'CCDC 1033375'
_chemical_formula_sum 'C12 H11 N3 O2'
_chemical_formula_moiety
;
C12 H11 N3 O2
;
_journal_coden_Cambridge 35
_journal_volume 80
_journal_year 2015
_journal_page_first 2103
_journal_name_full 'J.Org.Chem. '
loop_
_publ_author_name
"V.O.Iaroshenko"
"A.Gevorgyan"
"S.Mkrtchyan"
"K.Arakelyan"
"T.Grigoryan"
"J.Yedoyan"
"A.Villinger"
"P.Langer"
_chemical_name_systematic
;
3-methyl-1-nitro-5,6-dihydroimidazo[5,1-a]isoquinoline
;
_cell_volume   1099.323
_exptl_crystal_colour 'yellow'
_exptl_crystal_density_diffrn 1.385
_exptl_crystal_description 'block'
_diffrn_ambient_temperature 173
#These two values have been output from a single CSD field.
_refine_ls_R_factor_gt 0.0439
_refine_ls_wR_factor_gt 0.0439
_symmetry_cell_setting orthorhombic
_symmetry_space_group_name_H-M 'P n a 21'
_symmetry_Int_Tables_number 33
loop_
_symmetry_equiv_pos_site_id
_symmetry_equiv_pos_as_xyz
1 x,y,z
2 -x,-y,1/2+z
3 1/2+x,1/2-y,z
4 1/2-x,1/2+y,1/2+z
_cell_length_a 15.7337(7)
_cell_length_b 7.0498(4)
_cell_length_c 9.9110(5)
_cell_angle_alpha 90
_cell_angle_beta 90
_cell_angle_gamma 90
_cell_formula_units_Z 4
loop_
_atom_type_symbol
_atom_type_radius_bond
C 0.68
H 0.23
N 0.68
O 0.68
loop_
_atom_site_label
_atom_site_type_symbol
_atom_site_fract_x
_atom_site_fract_y
_atom_site_fract_z
N1 N 0.31683(14) 0.4424(3) 0.8744(2)
N2 N 0.23926(15) 0.4093(3) 1.0585(2)
N3 N 0.10336(14) 0.3450(3) 0.9634(2)
O1 O 0.07221(14) 0.3521(3) 1.07775(19)
O2 O 0.06173(13) 0.2946(3) 0.8653(2)
C1 C 0.31601(18) 0.4395(4) 1.0119(3)
C2 C 0.19044(14) 0.3931(3) 0.9464(3)
C3 C 0.23555(17) 0.4148(3) 0.8277(3)
C4 C 0.22047(16) 0.4208(3) 0.6822(2)
C5 C 0.29103(18) 0.3864(4) 0.5986(3)
C6 C 0.37578(18) 0.3465(4) 0.6610(3)
H1 H 0.42120 0.37140 0.59420
H2 H 0.37890 0.21120 0.68720
C7 C 0.38946(18) 0.4699(4) 0.7843(3)
H3 H 0.44280 0.43340 0.83060
H4 H 0.39380 0.60480 0.75750
C8 C 0.14227(18) 0.4654(4) 0.6239(3)
H5 H 0.09460 0.49280 0.67940
C9 C 0.1343(2) 0.4698(4) 0.4849(3)
H6 H 0.08090 0.50020 0.44580
C10 C 0.2023(2) 0.4309(4) 0.4025(3)
H7 H 0.19570 0.43200 0.30720
C11 C 0.2800(2) 0.3905(4) 0.4594(3)
H8 H 0.32710 0.36480 0.40240
C12 C 0.3933(2) 0.4665(4) 1.0951(3)
H9 H 0.37760 0.46810 1.19080
H10 H 0.42030 0.58710 1.07120
H11 H 0.43300 0.36210 1.07840
#END
