
#######################################################################
#
#                 Cambridge Crystallographic Data Centre
#                                CCDC
#
#######################################################################
#
# If this CIF has been generated from an entry in the Cambridge
# Structural Database, then it will include bibliographic, chemical,
# crystal, experimental, refinement or atomic coordinate data resulting
# from the CCDC's data processing and validation procedures.
#
#######################################################################

data_CSD_CIF_ENUNOS
_audit_creation_date 2016-06-23
_audit_creation_method CSD-ConQuest-V1
_database_code_CSD ENUNOS
_database_code_depnum_ccdc_archive 'CCDC 1033376'
_chemical_formula_sum 'C18 H14 N4 O2'
_chemical_formula_moiety
;
C18 H14 N4 O2
;
_journal_coden_Cambridge 35
_journal_volume 80
_journal_year 2015
_journal_page_first 2103
_journal_name_full 'J.Org.Chem. '
loop_
_publ_author_name
"V.O.Iaroshenko"
"A.Gevorgyan"
"S.Mkrtchyan"
"K.Arakelyan"
"T.Grigoryan"
"J.Yedoyan"
"A.Villinger"
"P.Langer"
_chemical_name_systematic
;
4-(4-nitro-1-(2-phenylethyl)-1H-imidazol-5-yl)benzonitrile
;
_cell_volume   1601.968
_exptl_crystal_colour 'colorless'
_exptl_crystal_density_diffrn 1.32
_exptl_crystal_description 'block'
_diffrn_ambient_temperature 173
#These two values have been output from a single CSD field.
_refine_ls_R_factor_gt 0.0363
_refine_ls_wR_factor_gt 0.0363
_symmetry_cell_setting monoclinic
_symmetry_space_group_name_H-M 'C c'
_symmetry_Int_Tables_number 9
loop_
_symmetry_equiv_pos_site_id
_symmetry_equiv_pos_as_xyz
1 x,y,z
2 x,-y,1/2+z
3 1/2+x,1/2+y,z
4 1/2+x,1/2-y,1/2+z
_cell_length_a 10.4755(4)
_cell_length_b 14.1633(6)
_cell_length_c 10.9706(4)
_cell_angle_alpha 90
_cell_angle_beta 100.198(2)
_cell_angle_gamma 90
_cell_formula_units_Z 4
loop_
_atom_type_symbol
_atom_type_radius_bond
C 0.68
H 0.23
N 0.68
O 0.68
loop_
_atom_site_label
_atom_site_type_symbol
_atom_site_fract_x
_atom_site_fract_y
_atom_site_fract_z
N1 N 0.29990(11) 0.11385(9) 0.84198(13)
N2 N 0.28663(12) 0.26620(9) 0.79022(13)
N3 N 0.50831(12) 0.31523(9) 0.86218(13)
N4 N 0.93893(17) -0.12656(14) 1.12431(18)
O1 O 0.47694(12) 0.39474(8) 0.82344(13)
O2 O 0.61883(11) 0.29329(8) 0.91174(14)
C1 C 0.42273(13) 0.15036(10) 0.88272(14)
C2 C 0.40929(13) 0.2440(1) 0.84842(15)
C3 C 0.22348(14) 0.18644(11) 0.78909(15)
H1 H 0.13400 0.17970 0.75510
C4 C 0.24773(15) 0.02346(10) 0.87821(17)
H2 H 0.31120 -0.02750 0.87290
H3 H 0.16690 0.00810 0.82010
C5 C 0.21949(18) 0.02835(12) 1.01016(19)
H4 H 0.17670 -0.03100 1.02870
H5 H 0.30250 0.03360 1.06910
C6 C 0.13361(19) 0.11104(13) 1.02911(19)
C7 C 0.1818(2) 0.18598(15) 1.1050(2)
H6 H 0.26830 0.18420 1.14930
C8 C 0.1032(3) 0.26416(16) 1.1163(3)
H7 H 0.13650 0.31520 1.16860
C9 C -0.0223(3) 0.26754(18) 1.0519(3)
H8 H -0.07530 0.32080 1.05990
C10 C -0.0706(2) 0.19367(17) 0.9760(3)
H9 H -0.15690 0.19600 0.93110
C11 C 0.0071(2) 0.11566(15) 0.9653(2)
H10 H -0.02710 0.06460 0.91340
C12 C 0.53288(13) 0.0908(1) 0.93760(14)
C13 C 0.60786(14) 0.11249(10) 1.05183(15)
H11 H 0.58640 0.16570 1.09690
C14 C 0.71380(14) 0.05697(12) 1.10060(15)
H12 H 0.76560 0.07230 1.17820
C15 C 0.74301(13) -0.02136(11) 1.03445(15)
C16 C 0.66858(15) -0.04482(11) 0.91999(15)
H13 H 0.68910 -0.09890 0.87590
C17 C 0.56421(15) 0.01216(10) 0.87173(16)
H14 H 0.51360 -0.00230 0.79330
C18 C 0.85272(16) -0.08027(13) 1.08506(18)
#END
