
#######################################################################
#
#                 Cambridge Crystallographic Data Centre
#                                CCDC
#
#######################################################################
#
# If this CIF has been generated from an entry in the Cambridge
# Structural Database, then it will include bibliographic, chemical,
# crystal, experimental, refinement or atomic coordinate data resulting
# from the CCDC's data processing and validation procedures.
#
#######################################################################

data_CSD_CIF_ENUNEI
_audit_creation_date 2016-06-23
_audit_creation_method CSD-ConQuest-V1
_database_code_CSD ENUNEI
_database_code_depnum_ccdc_archive 'CCDC 1033374'
_chemical_formula_sum 'C17 H21 N3 O5'
_chemical_formula_moiety
;
C17 H21 N3 O5
;
_journal_coden_Cambridge 35
_journal_volume 80
_journal_year 2015
_journal_page_first 2103
_journal_name_full 'J.Org.Chem. '
loop_
_publ_author_name
"V.O.Iaroshenko"
"A.Gevorgyan"
"S.Mkrtchyan"
"K.Arakelyan"
"T.Grigoryan"
"J.Yedoyan"
"A.Villinger"
"P.Langer"
_chemical_name_systematic
;
2-(1-butyl-2-methyl-4-nitro-1H-imidazol-5-yl)-4,5-dimethoxybenzaldehyde
;
_cell_volume   3361.056
_exptl_crystal_colour 'colorless'
_exptl_crystal_density_diffrn 1.373
_exptl_crystal_description 'block'
_diffrn_ambient_temperature 173
#These two values have been output from a single CSD field.
_refine_ls_R_factor_gt 0.0485
_refine_ls_wR_factor_gt 0.0485
_symmetry_cell_setting orthorhombic
_symmetry_space_group_name_H-M 'P b c a'
_symmetry_Int_Tables_number 61
loop_
_symmetry_equiv_pos_site_id
_symmetry_equiv_pos_as_xyz
1 x,y,z
2 1/2-x,-y,1/2+z
3 -x,1/2+y,1/2-z
4 1/2+x,1/2-y,-z
5 -x,-y,-z
6 -1/2+x,y,-1/2-z
7 x,-1/2-y,-1/2+z
8 -1/2-x,-1/2+y,z
_cell_length_a 14.4847(4)
_cell_length_b 14.2985(4)
_cell_length_c 16.2284(5)
_cell_angle_alpha 90
_cell_angle_beta 90
_cell_angle_gamma 90
_cell_formula_units_Z 8
loop_
_atom_type_symbol
_atom_type_radius_bond
C 0.68
H 0.23
N 0.68
O 0.68
loop_
_atom_site_label
_atom_site_type_symbol
_atom_site_fract_x
_atom_site_fract_y
_atom_site_fract_z
N1 N 1.10215(8) 0.54103(8) 0.55205(8)
N2 N 1.05431(8) 0.67952(8) 0.59885(7)
N3 N 1.07754(8) 0.56483(8) 0.40571(8)
O1 O 1.10523(7) 0.48482(7) 0.39228(7)
O2 O 1.05193(9) 0.61875(8) 0.35091(7)
O3 O 0.77174(7) 0.70278(8) 0.43059(8)
O4 O 0.92785(7) 1.01412(7) 0.35715(7)
O5 O 1.09514(7) 0.99952(7) 0.40825(7)
C1 C 1.08832(9) 0.59222(9) 0.61811(9)
C2 C 1.07413(9) 0.59719(9) 0.48871(9)
C3 C 1.04365(9) 0.68350(9) 0.51474(8)
C4 C 1.03686(11) 0.75566(10) 0.65787(9)
H1 H 1.03620 0.81570 0.62750
H2 H 1.08860 0.75800 0.69770
C5 C 0.94701(12) 0.74654(12) 0.7055(1)
H3 H 0.94650 0.68530 0.73390
H4 H 0.94520 0.79580 0.74840
C6 C 0.86145(11) 0.75427(12) 0.65364(11)
H5 H 0.85790 0.69940 0.61660
H6 H 0.86600 0.81090 0.61880
C7 C 0.77398(13) 0.75944(16) 0.70429(13)
H7 H 0.76810 0.70270 0.73770
H8 H 0.72060 0.76480 0.66750
H9 H 0.77650 0.81420 0.74050
C8 C 1.10241(11) 0.55908(12) 0.70423(10)
H10 H 1.04230 0.54730 0.73000
H11 H 1.13560 0.60700 0.73570
H12 H 1.13860 0.50120 0.70370
C9 C 1.00941(9) 0.76746(9) 0.47118(8)
C10 C 0.91880(9) 0.77469(9) 0.44287(8)
C11 C 0.88937(9) 0.85769(9) 0.40511(8)
H13 H 0.82740 0.86300 0.38660
C12 C 0.94921(9) 0.93167(9) 0.39442(8)
C13 C 1.04127(9) 0.92388(9) 0.42234(8)
C14 C 1.07029(9) 0.84248(9) 0.46102(8)
H14 H 1.13190 0.83770 0.48070
C15 C 0.85248(10) 0.69692(10) 0.45075(9)
H15 H 0.87390 0.63930 0.47270
C16 C 0.83828(11) 1.02102(10) 0.32048(11)
H16 H 0.83070 0.97120 0.27950
H17 H 0.83180 1.08200 0.29350
H18 H 0.79090 1.01460 0.36320
C17 C 1.19113(10) 0.99062(11) 0.42700(12)
H19 H 1.19870 0.97820 0.48600
H20 H 1.22310 1.04880 0.41260
H21 H 1.21740 0.93880 0.39520
#END
