
#######################################################################
#
#                 Cambridge Crystallographic Data Centre
#                                CCDC
#
#######################################################################
#
# If this CIF has been generated from an entry in the Cambridge
# Structural Database, then it will include bibliographic, chemical,
# crystal, experimental, refinement or atomic coordinate data resulting
# from the CCDC's data processing and validation procedures.
#
#######################################################################

data_CSD_CIF_EPANAM
_audit_creation_date 2016-06-23
_audit_creation_method CSD-ConQuest-V1
_database_code_CSD EPANAM
_database_code_depnum_ccdc_archive 'CCDC 1443421'
_chemical_formula_sum 'C17 H17 N3 O4'
_chemical_formula_moiety
;
C17 H17 N3 O4
;
_journal_coden_Cambridge 388
_journal_volume 52
_journal_year 2016
_journal_page_first 644
_journal_name_full 'Zh.Org.Khim.(Russ.)(Russ.J.Org.Chem.) '
loop_
_publ_author_name
"S.A.Konovalova"
"A.P.Avdeenko"
"S.A.Goncharova"
"V.V.Dyakonenko"
"S.V.Shishkina"
_chemical_name_systematic
;
N'-(5-isopropyl-2-methyl-4-oxocyclohexa-2,5-dien-1-ylidene)-4-nitrobenzohydraz
ide
;
_cell_volume   1570.351
_exptl_crystal_colour 'colorless'
_exptl_crystal_density_diffrn 1.384
_exptl_crystal_description 'block'
_diffrn_ambient_temperature 293
#These two values have been output from a single CSD field.
_refine_ls_R_factor_gt 0.0389
_refine_ls_wR_factor_gt 0.0389
_symmetry_cell_setting orthorhombic
_symmetry_space_group_name_H-M 'P 21 21 21'
_symmetry_Int_Tables_number 19
loop_
_symmetry_equiv_pos_site_id
_symmetry_equiv_pos_as_xyz
1 x,y,z
2 1/2-x,-y,1/2+z
3 -x,1/2+y,1/2-z
4 1/2+x,1/2-y,-z
_cell_length_a 4.9885(18)
_cell_length_b 12.313(5)
_cell_length_c 25.566(6)
_cell_angle_alpha 90
_cell_angle_beta 90
_cell_angle_gamma 90
_cell_formula_units_Z 4
loop_
_atom_type_symbol
_atom_type_radius_bond
C 0.68
H 0.23
N 0.68
O 0.68
loop_
_atom_site_label
_atom_site_type_symbol
_atom_site_fract_x
_atom_site_fract_y
_atom_site_fract_z
O1 O 0.3563(10) -1.2281(4) 0.0609(2)
O2 O 0.4206(11) -1.1559(4) 0.1355(2)
O3 O -0.5135(8) -0.8314(3) -0.00783(14)
O4 O -1.0791(10) -0.5050(4) 0.25493(16)
N1 N 0.3050(13) -1.1595(6) 0.0935(3)
N2 N -0.599(1) -0.7728(4) 0.0724(2)
H1 H -0.70810 -0.72640 0.05900
N3 N -0.5669(10) -0.7746(4) 0.1254(2)
C1 C 0.1000(14) -1.0786(6) 0.0813(3)
C2 C 0.0513(12) -0.9972(6) 0.1168(2)
H2 H 0.14410 -0.99390 0.14830
C3 C -0.1366(12) -0.9217(6) 0.1044(3)
H3 H -0.17610 -0.86750 0.12850
C4 C -0.2663(14) -0.9224(6) 0.0589(2)
C5 C -0.2130(12) -1.0032(6) 0.0240(2)
H4 H -0.30330 -1.00520 -0.00780
C6 C -0.0237(15) -1.0830(6) 0.0357(3)
H5 H 0.01440 -1.13810 0.01190
C7 C -0.4659(14) -0.8412(6) 0.0398(3)
C8 C -0.7023(12) -0.7075(6) 0.1541(3)
C9 C -0.6462(12) -0.7135(5) 0.2101(2)
C10 C -0.7668(11) -0.6462(5) 0.2422(2)
H6 H -0.72770 -0.65020 0.27770
C11 C -0.9622(14) -0.5645(6) 0.2241(2)
C12 C -1.0207(12) -0.5597(5) 0.1676(2)
C13 C -0.8976(10) -0.6294(5) 0.1348(2)
H7 H -0.93810 -0.62750 0.09930
C14 C -0.4473(11) -0.7964(5) 0.2291(2)
H8 H -0.41450 -0.78550 0.26580
H9 H -0.28240 -0.78850 0.21010
H10 H -0.51800 -0.86800 0.22360
C15 C -1.2063(12) -0.4704(5) 0.1486(3)
H11 H -1.36210 -0.46950 0.17200
C16 C -1.0660(12) -0.3618(5) 0.1544(3)
H12 H -1.02550 -0.34930 0.19060
H13 H -1.18080 -0.30500 0.14180
H14 H -0.90270 -0.36240 0.13460
C17 C -1.308(1) -0.4850(5) 0.0948(2)
H15 H -1.37530 -0.55760 0.09070
H16 H -1.16510 -0.47300 0.07030
H17 H -1.44970 -0.43400 0.08830
#END
