
#######################################################################
#
#                 Cambridge Crystallographic Data Centre
#                                CCDC
#
#######################################################################
#
# If this CIF has been generated from an entry in the Cambridge
# Structural Database, then it will include bibliographic, chemical,
# crystal, experimental, refinement or atomic coordinate data resulting
# from the CCDC's data processing and validation procedures.
#
#######################################################################

data_CSD_CIF_EPPHIN10
_audit_creation_date 1986-09-02
_audit_creation_method CSD-ConQuest-V1
_database_code_CSD EPPHIN10
_chemical_formula_sum 'C28 H20 N2 O2'
_chemical_formula_moiety
;
C28 H20 N2 O2
;
_journal_coeditor_code "IUCr A25645"
_journal_coden_Cambridge 591
_journal_volume 42
_journal_year 1986
_journal_page_first 239
_journal_name_full 'Acta Crystallogr.,Sect.C:Cryst.Struct.Commun. '
loop_
_publ_author_name
"J.Iball"
"W.D.S.Motherwell"
"J.C.Barnes"
"W.Golnazarians"
_chemical_name_systematic
;
1,3':1',3-Diepoxy-3,3'-diphenyl-2,2'-bi-indolinyl
;
_cell_volume   2124.012
_exptl_crystal_colour 'colorless'
_exptl_crystal_density_diffrn 1.303
_exptl_special_details
;
H7 has been deleted for suspected coordinate error

;
_diffrn_ambient_temperature ?
_diffrn_special_details
;
The study was carried out at room temperature,in the range 283-303K

;
#These two values have been output from a single CSD field.
_refine_ls_R_factor_gt 0.056
_refine_ls_wR_factor_gt 0.056
_symmetry_cell_setting monoclinic
_symmetry_space_group_name_H-M 'C 2/c'
_symmetry_Int_Tables_number 15
loop_
_symmetry_equiv_pos_site_id
_symmetry_equiv_pos_as_xyz
1 x,y,z
2 1/2+x,1/2+y,z
3 -x,y,1/2-z
4 1/2-x,1/2+y,1/2-z
5 -x,-y,-z
6 -1/2-x,-1/2-y,-z
7 x,-y,-1/2+z
8 -1/2+x,-1/2-y,-1/2+z
_cell_length_a 23.85(1)
_cell_length_b 7.90(1)
_cell_length_c 13.07(1)
_cell_angle_alpha 90
_cell_angle_beta 120.4(2)
_cell_angle_gamma 90
_cell_formula_units_Z 4
loop_
_atom_type_symbol
_atom_type_radius_bond
C 0.68
H 0.23
N 0.68
O 0.68
loop_
_atom_site_label
_atom_site_type_symbol
_atom_site_fract_x
_atom_site_fract_y
_atom_site_fract_z
C1 C 0.0634(1) 0.1236(3) 0.3852(2)
C2 C 0.0679(1) -0.0207(3) 0.4495(2)
C3 C 0.0970(1) -0.1618(3) 0.4336(2)
C4 C 0.1214(1) -0.1592(3) 0.3573(2)
C5 C 0.1159(1) -0.0145(3) 0.2920(2)
C6 C 0.0862(1) 0.1269(3) 0.3062(2)
C7 C 0.1290(1) 0.3904(3) 0.2531(2)
C8 C 0.1896(1) 0.3777(3) 0.3558(2)
C9 C 0.2418(1) 0.4727(4) 0.3699(3)
C10 C 0.2345(1) 0.5798(4) 0.2808(3)
C11 C 0.1747(1) 0.5930(4) 0.1780(3)
C12 C 0.1219(1) 0.4997(3) 0.1643(2)
C13 C 0.0714(1) 0.2955(3) 0.2437(2)
C14 C 0.0357(1) 0.3908(3) 0.2983(2)
O1 O 0.0234(1) 0.2801(2) 0.1179(1)
N1 N 0.0407(1) 0.2853(2) 0.3964(2)
H1 H 0.04950 -0.02290 0.50990
H2 H 0.10080 -0.27670 0.48170
H3 H 0.14490 -0.27060 0.34840
H4 H 0.13450 -0.01290 0.23190
H5 H 0.19580 0.29230 0.42520
H6 H 0.28820 0.46280 0.45090
H7 H 0.27540 0.65310 0.29120
H8 H 0.16890 0.67610 0.10760
H9 H 0.07510 0.51240 0.08430
H10 H 0.05230 0.50800 0.32680
C14B C -0.0357(1) 0.3908(3) 0.2017(2)
N1B N -0.0407(1) 0.2853(2) 0.1036(2)
O1B O -0.0234(1) 0.2801(2) 0.3821(1)
C13B C -0.0714(1) 0.2955(3) 0.2563(2)
H10B H -0.05230 0.50800 0.17320
C1B C -0.0634(1) 0.1236(3) 0.1148(2)
C6B C -0.0862(1) 0.1269(3) 0.1938(2)
C7B C -0.1290(1) 0.3904(3) 0.2469(2)
C2B C -0.0679(1) -0.0207(3) 0.0505(2)
C5B C -0.1159(1) -0.0145(3) 0.2080(2)
C8B C -0.1896(1) 0.3777(3) 0.1442(2)
C12B C -0.1219(1) 0.4997(3) 0.3357(2)
C3B C -0.0970(1) -0.1618(3) 0.0664(2)
H1B H -0.04950 -0.02290 -0.00990
C4B C -0.1214(1) -0.1592(3) 0.1427(2)
H4B H -0.13450 -0.01290 0.26810
C9B C -0.2418(1) 0.4727(4) 0.1301(3)
H5B H -0.19580 0.29230 0.07480
C11B C -0.1747(1) 0.5930(4) 0.3220(3)
H9B H -0.07510 0.51240 0.41570
H2B H -0.10080 -0.27670 0.01830
H3B H -0.14490 -0.27060 0.15160
C10B C -0.2345(1) 0.5798(4) 0.2192(3)
H6B H -0.28820 0.46280 0.04910
H8B H -0.16890 0.67610 0.39240
H7B H -0.27540 0.65310 0.20880
#END
