
#######################################################################
#
#                 Cambridge Crystallographic Data Centre
#                                CCDC
#
#######################################################################
#
# If this CIF has been generated from an entry in the Cambridge
# Structural Database, then it will include bibliographic, chemical,
# crystal, experimental, refinement or atomic coordinate data resulting
# from the CCDC's data processing and validation procedures.
#
#######################################################################

data_CSD_CIF_EQAWEA
_audit_creation_date 2016-06-25
_audit_creation_method CSD-ConQuest-V1
_database_code_CSD EQAWEA
_database_code_depnum_ccdc_archive 'CCDC 1486941'
_chemical_formula_sum 'C11 H13 N3 O4'
_chemical_formula_moiety
;
C11 H13 N3 O4
;
_journal_coeditor_code "bt4015"
_journal_coden_Cambridge 1959
_journal_volume 1
_journal_year 2016
_journal_page_first x161015
_journal_name_full 'IUCrData '
loop_
_publ_author_name
"A.Errossafi"
"A.El Kihel"
"S.Guesmi"
"M.Saadi"
"L.El Ammari"
_chemical_name_systematic
;
ethyl 2-((2-nitrophenyl)hydrazono)propanoate
;
_cell_volume   1241.885
_exptl_crystal_colour 'yellow'
_exptl_crystal_density_diffrn 1.344
_exptl_crystal_description 'Plate'
_diffrn_ambient_temperature 296
#These two values have been output from a single CSD field.
_refine_ls_R_factor_gt 0.0488
_refine_ls_wR_factor_gt 0.0488
_symmetry_cell_setting monoclinic
_symmetry_space_group_name_H-M 'P 21/c'
_symmetry_Int_Tables_number 14
loop_
_symmetry_equiv_pos_site_id
_symmetry_equiv_pos_as_xyz
1 x,y,z
2 -x,1/2+y,1/2-z
3 -x,-y,-z
4 x,-1/2-y,-1/2+z
_cell_length_a 11.8614(4)
_cell_length_b 15.8834(6)
_cell_length_c 6.7495(2)
_cell_angle_alpha 90
_cell_angle_beta 102.411(2)
_cell_angle_gamma 90
_cell_formula_units_Z 4
loop_
_atom_type_symbol
_atom_type_radius_bond
C 0.68
H 0.23
N 0.68
O 0.68
loop_
_atom_site_label
_atom_site_type_symbol
_atom_site_fract_x
_atom_site_fract_y
_atom_site_fract_z
C1 C 0.65861(13) 0.28676(10) 0.4729(2)
C2 C 0.75897(14) 0.23883(12) 0.5128(3)
H1 H 0.83040 0.26550 0.54100
C3 C 0.75360(16) 0.15360(12) 0.5110(3)
H2 H 0.82090 0.12170 0.53830
C4 C 0.64643(16) 0.11452(11) 0.4679(3)
H3 H 0.64250 0.05600 0.46610
C5 C 0.54619(14) 0.16054(10) 0.4280(3)
H4 H 0.47550 0.13280 0.39930
C6 C 0.54875(12) 0.24845(9) 0.4298(2)
C7 C 0.25524(13) 0.30082(10) 0.3148(2)
C8 C 0.25598(16) 0.39424(11) 0.3224(4)
H5 H 0.17800 0.41470 0.29180
H6 H 0.29380 0.41260 0.45570
H7 H 0.29660 0.41580 0.22460
C9 C 0.14199(13) 0.25757(11) 0.2633(2)
C10 C 0.04194(14) 0.12833(12) 0.2233(3)
H8 H 0.00620 0.13560 0.08090
H9 H -0.01090 0.14880 0.30390
C11 C 0.06936(18) 0.03794(13) 0.2684(4)
H10 H -0.00050 0.00540 0.23710
H11 H 0.12160 0.01850 0.18760
H12 H 0.10460 0.03160 0.40950
N1 N 0.67284(12) 0.37725(9) 0.4780(2)
N2 N 0.44815(10) 0.29405(8) 0.3914(2)
H13 H 0.45420 0.34920 0.38800
N3 N 0.34528(10) 0.25358(8) 0.34835(19)
O1 O 0.58726(11) 0.42318(7) 0.4422(2)
O2 O 0.77058(11) 0.40635(9) 0.5191(2)
O3 O 0.05164(10) 0.29500(8) 0.2177(2)
O4 O 0.15006(9) 0.17423(7) 0.27317(19)
#END
