
#######################################################################
#
#                 Cambridge Crystallographic Data Centre
#                                CCDC
#
#######################################################################
#
# If this CIF has been generated from an entry in the Cambridge
# Structural Database, then it will include bibliographic, chemical,
# crystal, experimental, refinement or atomic coordinate data resulting
# from the CCDC's data processing and validation procedures.
#
#######################################################################

data_CSD_CIF_EQETOK
_audit_creation_date 2011-06-15
_audit_creation_method CSD-ConQuest-V1
_database_code_CSD EQETOK
_database_code_depnum_ccdc_archive 'CCDC 804331'
_chemical_formula_sum 'C10 H18 N4 O2'
_chemical_formula_moiety
;
C10 H18 N4 O2
;
_journal_coden_Cambridge 182
_journal_volume 47
_journal_year 2011
_journal_page_first 4938
_journal_name_full 'Chem.Commun. '
loop_
_publ_author_name
"N.Nishiwaki"
"S.Hirao"
"J.Sawayama"
"K.Saigo"
"K.Kobiro"
_chemical_name_systematic
;
(5-Imino-7,7,8a-trimethylhexahydroimidazo[1,2-a]pyridin-6(5H)-ylidene)azinic 
acid
;
_cell_volume   2386.887
_exptl_crystal_colour 'colorless'
_exptl_crystal_density_diffrn 1.259
_exptl_crystal_description 'plate'
_diffrn_ambient_temperature 299.1
#These two values have been output from a single CSD field.
_refine_ls_R_factor_gt 0.0626
_refine_ls_wR_factor_gt 0.0626
_symmetry_cell_setting monoclinic
_symmetry_space_group_name_H-M 'C 2/c'
_symmetry_Int_Tables_number 15
loop_
_symmetry_equiv_pos_site_id
_symmetry_equiv_pos_as_xyz
1 x,y,z
2 -x,y,1/2-z
3 1/2+x,1/2+y,z
4 1/2-x,1/2+y,1/2-z
5 -x,-y,-z
6 x,-y,-1/2+z
7 -1/2-x,-1/2-y,-z
8 -1/2+x,-1/2-y,-1/2+z
_cell_length_a 10.713(6)
_cell_length_b 9.556(7)
_cell_length_c 23.622(6)
_cell_angle_alpha 90
_cell_angle_beta 99.24(3)
_cell_angle_gamma 90
_cell_formula_units_Z 8
loop_
_atom_type_symbol
_atom_type_radius_bond
C 0.68
H 0.23
N 0.68
O 0.68
loop_
_atom_site_label
_atom_site_type_symbol
_atom_site_fract_x
_atom_site_fract_y
_atom_site_fract_z
O1 O 0.2205(2) 0.2383(2) 0.72313(10)
O2 O 0.2855(2) 0.4025(2) 0.67001(11)
N1 N 0.4000(2) -0.0596(2) 0.64551(10)
N2 N 0.5262(3) -0.1422(3) 0.58257(13)
N3 N 0.3249(2) -0.0041(2) 0.72797(10)
N4 N 0.2897(2) 0.2750(2) 0.68507(10)
C1 C 0.3603(2) 0.0357(3) 0.67892(11)
C2 C 0.3597(2) 0.1815(2) 0.66088(11)
C3 C 0.4447(2) 0.2348(3) 0.61967(12)
C4 C 0.5168(2) 0.1099(3) 0.59925(13)
C5 C 0.4427(2) -0.0260(3) 0.59042(12)
C6 C 0.4712(3) -0.2639(3) 0.60804(17)
C7 C 0.4187(3) -0.2084(3) 0.66005(15)
C8 C 0.5449(3) 0.3341(3) 0.65175(17)
C9 C 0.3704(3) 0.3141(4) 0.56708(13)
C10 C 0.3296(3) -0.0233(4) 0.54265(14)
H1 H 0.58980 0.09350 0.62710
H2 H 0.54200 0.13480 0.56380
H3 H 0.53450 -0.33240 0.61960
H4 H 0.40540 -0.30390 0.58120
H5 H 0.34110 -0.25260 0.66400
H6 H 0.47740 -0.22050 0.69440
H7 H 0.58950 0.28780 0.68450
H8 H 0.50460 0.41520 0.66350
H9 H 0.60260 0.36070 0.62700
H10 H 0.34840 0.40480 0.57860
H11 H 0.29570 0.26360 0.55260
H12 H 0.42180 0.32210 0.53800
H13 H 0.26490 0.03330 0.55390
H14 H 0.35440 0.01440 0.50890
H15 H 0.29890 -0.11580 0.53520
H16 H 0.52660 -0.15780 0.54290
H17 H 0.29610 0.07430 0.75100
H18 H 0.26820 0.24820 0.76040
#END
