
#######################################################################
#
#                 Cambridge Crystallographic Data Centre
#                                CCDC
#
#######################################################################
#
# If this CIF has been generated from an entry in the Cambridge
# Structural Database, then it will include bibliographic, chemical,
# crystal, experimental, refinement or atomic coordinate data resulting
# from the CCDC's data processing and validation procedures.
#
#######################################################################

data_CSD_CIF_EQIXOS
_audit_creation_date 2011-07-10
_audit_creation_method CSD-ConQuest-V1
_database_code_CSD EQIXOS
_database_code_depnum_ccdc_archive 'CCDC 776941'
_chemical_formula_sum 'C9 H11 N3 O5'
_chemical_formula_moiety
;
C9 H11 N3 O5
;
_journal_coden_Cambridge 1135
_journal_volume 21
_journal_year 2011
_journal_page_first 50
_journal_name_full 'Mendeleev Commun. '
loop_
_publ_author_name
"V.G.Shtamburg"
"A.V.Tsygankov"
"M.V.Gerasimenko"
"O.V.Shishkin"
"R.I.Zubatyuk"
"A.V.Mazepa"
"R.G.Kostyanovsky"
_chemical_name_systematic
;
1,1-Dimethoxy-3-(4-nitrophenyl)urea
;
_cell_volume   1048.817
_exptl_crystal_density_diffrn 1.528
_diffrn_ambient_temperature 100
#These two values have been output from a single CSD field.
_refine_ls_R_factor_gt 0.0585
_refine_ls_wR_factor_gt 0.0585
_symmetry_cell_setting monoclinic
_symmetry_space_group_name_H-M 'P 21/c'
_symmetry_Int_Tables_number 14
loop_
_symmetry_equiv_pos_site_id
_symmetry_equiv_pos_as_xyz
1 x,y,z
2 -x,1/2+y,1/2-z
3 -x,-y,-z
4 x,-1/2-y,-1/2+z
_cell_length_a 4.8371(3)
_cell_length_b 16.9591(11)
_cell_length_c 12.7986(9)
_cell_angle_alpha 90
_cell_angle_beta 92.609(7)
_cell_angle_gamma 90
_cell_formula_units_Z 4
loop_
_atom_type_symbol
_atom_type_radius_bond
C 0.68
H 0.23
N 0.68
O 0.68
loop_
_atom_site_label
_atom_site_type_symbol
_atom_site_fract_x
_atom_site_fract_y
_atom_site_fract_z
O1 O -0.0545(4) 0.55954(10) 0.72724(15)
O2 O 0.0340(4) 0.44977(11) 0.63331(14)
O3 O 0.1999(4) 0.49335(11) 0.88903(15)
O4 O 1.1541(4) 0.23673(12) 1.11814(14)
O5 O 1.2697(4) 0.17672(12) 0.97746(15)
N1 N -0.0416(5) 0.47611(12) 0.73274(18)
N2 N 0.3069(5) 0.38757(12) 0.78714(16)
H1 H 0.26030 0.36540 0.72670
N3 N 1.1274(5) 0.22431(14) 1.02219(18)
C1 C 0.1717(6) 0.45508(15) 0.8100(2)
C2 C 0.5124(5) 0.34923(15) 0.8488(2)
C3 C 0.5924(6) 0.37359(16) 0.9500(2)
H2 H 0.50840 0.41840 0.97980
C4 C 0.7936(6) 0.33223(16) 1.0061(2)
H3 H 0.84730 0.34810 1.07530
C5 C 0.9162(6) 0.26839(15) 0.9628(2)
C6 C 0.8414(6) 0.24370(16) 0.8623(2)
H4 H 0.92740 0.19910 0.83280
C7 C 0.6403(6) 0.28496(15) 0.8059(2)
H5 H 0.58880 0.26900 0.73660
C8 C -0.3169(7) 0.58406(17) 0.7624(2)
H6 H -0.32640 0.64180 0.76250
H7 H -0.34010 0.56430 0.83340
H8 H -0.46450 0.56290 0.71540
C9 C -0.2134(7) 0.43946(19) 0.5683(2)
H9 H -0.16470 0.41980 0.49950
H10 H -0.30930 0.49010 0.56000
H11 H -0.33510 0.40140 0.60100
#END
