
#######################################################################
#
#                 Cambridge Crystallographic Data Centre
#                                CCDC
#
#######################################################################
#
# If this CIF has been generated from an entry in the Cambridge
# Structural Database, then it will include bibliographic, chemical,
# crystal, experimental, refinement or atomic coordinate data resulting
# from the CCDC's data processing and validation procedures.
#
#######################################################################

data_CSD_CIF_EQURIT
_audit_creation_date 2016-07-29
_audit_creation_method CSD-ConQuest-V1
_database_code_CSD EQURIT
_database_code_depnum_ccdc_archive 'CCDC 1482422'
_chemical_formula_sum 'C16 H22 N1 O4'
_chemical_formula_moiety
;
C16 H22 N1 O4
;
_journal_coden_Cambridge 1220
_journal_volume 22
_journal_year 2016
_journal_page_first 12825
_journal_name_full 'Chem.-Eur.J. '
loop_
_publ_author_name
"T.Hauenschild"
"J.Reichenwallner"
"V.Enkelmann"
"D.Hinderberger"
_chemical_name_systematic
;
2,2,6,6-tetramethylpiperidin-4-yl salicylate N-oxyl radical
;
_chemical_name_common
;
2,2,6,6-Tetramethylpiperidine-1-oxyl-4-yl 2-hydroxybenzoate
;
_chemical_melting_point 384.6
_cell_volume   1566.945
_exptl_crystal_colour 'dark red'
_exptl_crystal_density_diffrn 1.239
_exptl_crystal_description 'prism'
_diffrn_ambient_temperature 120
#These two values have been output from a single CSD field.
_refine_ls_R_factor_gt 0.0491
_refine_ls_wR_factor_gt 0.0491
_symmetry_cell_setting monoclinic
_symmetry_space_group_name_H-M 'P 21/a'
_symmetry_Int_Tables_number 14
loop_
_symmetry_equiv_pos_site_id
_symmetry_equiv_pos_as_xyz
1 x,y,z
2 1/2-x,1/2+y,-z
3 -x,-y,-z
4 -1/2+x,-1/2-y,z
_cell_length_a 11.4549(5)
_cell_length_b 11.8166(3)
_cell_length_c 11.8892(5)
_cell_angle_alpha 90
_cell_angle_beta 103.1741(15)
_cell_angle_gamma 90
_cell_formula_units_Z 4
loop_
_atom_type_symbol
_atom_type_radius_bond
C 0.68
H 0.23
N 0.68
O 0.68
loop_
_atom_site_label
_atom_site_type_symbol
_atom_site_fract_x
_atom_site_fract_y
_atom_site_fract_z
N1 N 0.65978(8) 0.43540(7) 0.91948(8)
O1 O 0.78977(9) -0.05865(9) 0.53003(9)
O2 O 0.77989(8) 0.11034(7) 0.66913(7)
O3 O 0.63130(7) 0.11362(6) 0.76492(7)
O4 O 0.67270(8) 0.53345(7) 0.96815(8)
C1 C 0.63369(10) -0.03679(8) 0.63600(9)
C2 C 0.68297(9) 0.33570(9) 0.99904(9)
C3 C 0.67993(9) 0.21910(8) 0.82087(9)
C4 C 0.62994(10) 0.31739(9) 0.74249(9)
C5 C 0.63671(10) 0.22780(9) 0.93172(9)
C6 C 0.68893(9) 0.06863(8) 0.68990(9)
C7 C 0.67009(10) 0.43274(9) 0.79626(10)
C8 C 0.47949(12) -0.1807(1) 0.61227(11)
C9 C 0.52882(10) -0.07996(9) 0.66091(10)
C10 C 0.68865(11) -0.09561(10) 0.55918(10)
C11 C 0.63859(13) -0.19726(11) 0.51027(11)
C12 C 0.81791(10) 0.32923(11) 1.05384(11)
C13 C 0.79949(11) 0.45882(12) 0.78974(12)
C14 C 0.53601(13) -0.23892(10) 0.53768(10)
C15 C 0.61413(11) 0.35507(11) 1.09338(10)
C16 C 0.58667(13) 0.52381(10) 0.73060(11)
H1 H 0.76510 0.21890 0.83700
H2 H 0.65610 0.31020 0.67250
H3 H 0.54490 0.31370 0.72640
H4 H 0.66400 0.16370 0.97860
H5 H 0.55150 0.22900 0.91300
H6 H 0.40820 -0.20960 0.62950
H7 H 0.49100 -0.03960 0.71190
H8 H 0.67550 -0.23770 0.45860
H9 H 0.83370 0.26620 1.10460
H10 H 0.84290 0.39670 1.09590
H11 H 0.86060 0.32080 0.99460
H12 H 0.80600 0.45710 0.71150
H13 H 0.82120 0.53170 0.82130
H14 H 0.85160 0.40370 0.83280
H15 H 0.50330 -0.30850 0.50490
H16 H 0.62690 0.29300 1.14550
H17 H 0.64190 0.42260 1.13410
H18 H 0.53090 0.36180 1.05930
H19 H 0.59100 0.52390 0.65180
H20 H 0.61060 0.59570 0.76370
H21 H 0.50670 0.50860 0.73580
H22 H 0.81480 0.00410 0.56260
#END
