
#######################################################################
#
#                 Cambridge Crystallographic Data Centre
#                                CCDC
#
#######################################################################
#
# If this CIF has been generated from an entry in the Cambridge
# Structural Database, then it will include bibliographic, chemical,
# crystal, experimental, refinement or atomic coordinate data resulting
# from the CCDC's data processing and validation procedures.
#
#######################################################################

data_CSD_CIF_ERAWEB
_audit_creation_date 2016-07-29
_audit_creation_method CSD-ConQuest-V1
_database_code_CSD ERAWEB
_database_code_depnum_ccdc_archive 'CCDC 960487'
_chemical_formula_sum 'C15 H14 N2 O3'
_chemical_formula_moiety
;
C15 H14 N2 O3
;
_journal_coden_Cambridge 182
_journal_volume 52
_journal_year 2016
_journal_page_first 10265
_journal_name_full 'Chem.Commun. '
loop_
_publ_author_name
"B.Alcaide"
"P.Almendros"
"S.Cembellin"
"I.Fernandez"
"T.M.del Campo"
_chemical_name_systematic
;
1-methyl-4-nitro-3-(3-oxatricyclo[2.2.1.0^2,6^]hept-5-yl)-1H-indole
;
_cell_volume   1278.394
_exptl_crystal_colour 'yellow'
_exptl_crystal_density_diffrn 1.404
_exptl_crystal_description 'prismatic'
_diffrn_ambient_temperature 296
#These two values have been output from a single CSD field.
_refine_ls_R_factor_gt 0.0531
_refine_ls_wR_factor_gt 0.0531
_symmetry_cell_setting monoclinic
_symmetry_space_group_name_H-M 'P 21/c'
_symmetry_Int_Tables_number 14
loop_
_symmetry_equiv_pos_site_id
_symmetry_equiv_pos_as_xyz
1 x,y,z
2 -x,1/2+y,1/2-z
3 -x,-y,-z
4 x,-1/2-y,-1/2+z
_cell_length_a 9.7836(14)
_cell_length_b 19.184(3)
_cell_length_c 7.2536(11)
_cell_angle_alpha 90
_cell_angle_beta 110.113(3)
_cell_angle_gamma 90
_cell_formula_units_Z 4
loop_
_atom_type_symbol
_atom_type_radius_bond
C 0.68
H 0.23
N 0.68
O 0.68
loop_
_atom_site_label
_atom_site_type_symbol
_atom_site_fract_x
_atom_site_fract_y
_atom_site_fract_z
N1 N 0.0197(3) -0.01911(13) 0.2452(4)
O1 O 0.3618(3) 0.12203(12) 0.2252(3)
C1 C 0.1448(4) 0.01631(17) 0.3371(5)
H1 H 0.23660 -0.00410 0.37850
N2 N -0.1028(4) 0.21776(16) 0.3149(4)
O2 O 0.0164(3) 0.23906(13) 0.3265(5)
C2 C 0.1207(4) 0.08526(16) 0.3621(5)
C3 C -0.0356(3) 0.09352(15) 0.2774(4)
O3 O -0.1918(3) 0.25528(14) 0.3481(5)
C4 C -0.1425(4) 0.14585(16) 0.2511(5)
C5 C -0.2878(4) 0.13276(19) 0.1639(5)
H2 H -0.35470 0.16840 0.15240
C6 C -0.3364(4) 0.0670(2) 0.0925(6)
H3 H -0.43560 0.05940 0.03100
C7 C -0.2411(4) 0.0131(2) 0.1107(5)
H4 H -0.27380 -0.03090 0.06160
C8 C -0.0935(4) 0.02650(16) 0.2052(5)
C9 C 0.0086(4) -0.09382(16) 0.2027(5)
H5 H -0.09170 -0.10620 0.13860
H6 H 0.04750 -0.11950 0.32320
H7 H 0.06280 -0.10490 0.11850
C10 C 0.2394(3) 0.13729(16) 0.4483(5)
H8 H 0.21170 0.17040 0.53230
C11 C 0.3876(4) 0.10586(19) 0.5576(5)
H9 H 0.40430 0.07330 0.66730
C12 C 0.4582(4) 0.0977(2) 0.4064(6)
H10 H 0.52610 0.05940 0.41300
C13 C 0.5001(4) 0.1576(2) 0.5476(6)
H11 H 0.59610 0.16170 0.64990
C14 C 0.4197(4) 0.21895(19) 0.4292(6)
H12 H 0.47370 0.24160 0.35600
H13 H 0.39140 0.25290 0.50840
C15 C 0.2914(4) 0.17642(16) 0.2985(5)
H14 H 0.21630 0.20290 0.19810
#END
