
#######################################################################
#
#                 Cambridge Crystallographic Data Centre
#                                CCDC
#
#######################################################################
#
# If this CIF has been generated from an entry in the Cambridge
# Structural Database, then it will include bibliographic, chemical,
# crystal, experimental, refinement or atomic coordinate data resulting
# from the CCDC's data processing and validation procedures.
#
#######################################################################

data_CSD_CIF_ERIKIB
_audit_creation_date 2016-08-01
_audit_creation_method CSD-ConQuest-V1
_database_code_CSD ERIKIB
_database_code_depnum_ccdc_archive 'CCDC 1402281'
_chemical_formula_sum 'C15 H18 N4 O6'
_chemical_formula_moiety
;
C15 H18 N4 O6
;
_journal_coden_Cambridge 1500
_journal_volume 6
_journal_year 2016
_journal_page_first 72458
_journal_name_full 'RSC Advances '
loop_
_publ_author_name
"Jian-Jun Fu"
"Zhi-Qian Liu"
"Hui-Zi Jin"
"Shou-De Zhang"
"Qing-Yan Sun"
"Wei-Dong Zhang"
_chemical_name_systematic
;
1-(2,4-dinitrophenyl)-2-(5-methyltetrahydro-2H,5H-pyrano[2,3-b]pyran-3(4H)-yli
dene)hydrazine
;
_cell_volume   1558.291
_exptl_crystal_colour 'yellow'
_exptl_crystal_density_diffrn 1.493
_exptl_crystal_description 'block'
_diffrn_ambient_temperature 130
#These two values have been output from a single CSD field.
_refine_ls_R_factor_gt 0.0554
_refine_ls_wR_factor_gt 0.0554
_symmetry_cell_setting monoclinic
_symmetry_space_group_name_H-M 'P 21/c'
_symmetry_Int_Tables_number 14
loop_
_symmetry_equiv_pos_site_id
_symmetry_equiv_pos_as_xyz
1 x,y,z
2 -x,1/2+y,1/2-z
3 -x,-y,-z
4 x,-1/2-y,-1/2+z
_cell_length_a 5.7625(1)
_cell_length_b 23.3095(5)
_cell_length_c 11.9536(2)
_cell_angle_alpha 90
_cell_angle_beta 103.946(1)
_cell_angle_gamma 90
_cell_formula_units_Z 4
loop_
_atom_type_symbol
_atom_type_radius_bond
C 0.68
H 0.23
N 0.68
O 0.68
loop_
_atom_site_label
_atom_site_type_symbol
_atom_site_fract_x
_atom_site_fract_y
_atom_site_fract_z
O1 O 1.0653(2) 0.33734(5) 0.73751(10)
O2 O 1.1843(2) 0.37718(5) 0.5858(1)
O3 O 0.0561(2) 0.36538(5) 0.31770(11)
O4 O -0.2709(2) 0.39605(6) 0.20463(11)
O5 O -0.3206(2) 0.57085(7) 0.00365(13)
O6 O -0.0012(3) 0.61989(6) 0.00579(11)
N1 N 0.6579(2) 0.44611(6) 0.43199(12)
N2 N 0.4257(2) 0.43258(6) 0.37564(12)
H1 H 0.36000 0.40090 0.39370
N3 N -0.0602(2) 0.40228(6) 0.25215(12)
N4 N -0.1076(3) 0.58032(7) 0.03969(12)
C1 C 0.8025(3) 0.24698(7) 0.59500(14)
H2 H 0.93430 0.21840 0.60040
C2 C 0.7799(3) 0.25842(7) 0.71802(15)
H3 H 0.64380 0.28460 0.71610
H4 H 0.74800 0.22190 0.75400
C3 C 1.0083(3) 0.28511(8) 0.78920(15)
H5 H 0.98920 0.29340 0.86770
H6 H 1.14170 0.25760 0.79610
C4 C 1.1033(3) 0.32631(7) 0.62687(15)
H7 H 1.23310 0.29700 0.63540
C5 C 1.0135(3) 0.42295(7) 0.56995(14)
H8 H 1.07540 0.45570 0.53320
H9 H 0.99560 0.43580 0.64640
C6 C 0.7717(3) 0.40636(7) 0.49709(14)
C7 C 0.6817(3) 0.34748(7) 0.51525(15)
H10 H 0.56310 0.33550 0.44450
H11 H 0.59910 0.34900 0.57890
C8 C 0.8810(3) 0.30258(7) 0.54402(13)
H12 H 0.92540 0.29220 0.47070
C9 C 0.5773(3) 0.22051(8) 0.51869(16)
H13 H 0.54550 0.18350 0.55100
H14 H 0.60030 0.21470 0.44090
H15 H 0.44140 0.24630 0.51520
C10 C 0.2985(3) 0.46747(7) 0.29310(13)
C11 C 0.3980(3) 0.51922(7) 0.26280(15)
H16 H 0.55760 0.52910 0.30060
C12 C 0.2691(3) 0.55529(7) 0.18022(15)
H17 H 0.34010 0.58920 0.15970
C13 C 0.0324(3) 0.54168(7) 0.12655(14)
C14 C -0.0737(3) 0.49226(7) 0.15200(13)
H18 H -0.23490 0.48370 0.11470
C15 C 0.0596(3) 0.45495(7) 0.23363(13)
#END
