
#######################################################################
#
#                 Cambridge Crystallographic Data Centre
#                                CCDC
#
#######################################################################
#
# If this CIF has been generated from an entry in the Cambridge
# Structural Database, then it will include bibliographic, chemical,
# crystal, experimental, refinement or atomic coordinate data resulting
# from the CCDC's data processing and validation procedures.
#
#######################################################################

data_CSD_CIF_ERIXAF
_audit_creation_date 2011-08-15
_audit_creation_method CSD-ConQuest-V1
_database_code_CSD ERIXAF
_database_code_depnum_ccdc_archive 'CCDC 828523'
_chemical_formula_sum 'C21 H22 N2 O8'
_chemical_formula_moiety
;
C21 H22 N2 O8
;
_journal_coeditor_code "IUCr IS2689"
_journal_coden_Cambridge 1370
_journal_volume 67
_journal_year 2011
_journal_page_first o1319
_journal_name_full 'Acta Crystallogr.,Sect.E:Struct.Rep.Online '
loop_
_publ_author_name
"Xiaoqiang Sun"
"Bin Yu"
"Xiuqin Zhang"
"Xuqiang Chao"
"Qiang Chen"
_chemical_name_systematic
;
3,9-Dimethyl-3,9-bis(4-nitrophenyl)-2,4,8,10-tetraoxaspiro[5.5]undecane
;
_cell_volume   1027.076
_exptl_crystal_colour 'colorless'
_exptl_crystal_density_diffrn 1.392
_exptl_crystal_description 'block'
_diffrn_ambient_temperature 295
#These two values have been output from a single CSD field.
_refine_ls_R_factor_gt 0.0507
_refine_ls_wR_factor_gt 0.0507
_symmetry_cell_setting triclinic
_symmetry_space_group_name_H-M 'P -1'
_symmetry_Int_Tables_number 2
loop_
_symmetry_equiv_pos_site_id
_symmetry_equiv_pos_as_xyz
1 x,y,z
2 -x,-y,-z
_cell_length_a 7.4215(12)
_cell_length_b 11.8790(18)
_cell_length_c 13.522(3)
_cell_angle_alpha 115.280(4)
_cell_angle_beta 94.426(4)
_cell_angle_gamma 103.444(3)
_cell_formula_units_Z 2
loop_
_atom_type_symbol
_atom_type_radius_bond
C 0.68
H 0.23
N 0.68
O 0.68
loop_
_atom_site_label
_atom_site_type_symbol
_atom_site_fract_x
_atom_site_fract_y
_atom_site_fract_z
N1 N 1.2247(3) 0.6344(2) 0.63022(16)
N2 N 0.1620(3) 0.14798(18) -0.42929(16)
O1 O 1.2782(3) 0.5766(2) 0.67765(15)
O2 O 1.1755(3) 0.73336(19) 0.67867(14)
O3 O 0.2195(3) 0.18113(19) -0.49758(15)
O4 O -0.0012(2) 0.13861(17) -0.41184(15)
O5 O 1.2135(2) 0.31399(14) 0.10612(12)
O6 O 1.1156(2) 0.48954(14) 0.11022(12)
O7 O 0.86957(19) 0.10427(13) -0.16096(12)
O8 O 0.6406(2) 0.06651(14) -0.06059(12)
C1 C 1.2214(3) 0.5840(2) 0.51053(18)
C2 C 1.2715(3) 0.4717(2) 0.45462(19)
H1 H 1.30380 0.42700 0.49200
C3 C 1.2728(3) 0.4269(2) 0.34267(18)
H2 H 1.30690 0.35150 0.30410
C4 C 1.2233(3) 0.4939(2) 0.28631(17)
C5 C 1.1707(3) 0.6059(2) 0.34539(18)
H3 H 1.13530 0.65010 0.30830
C6 C 1.1703(3) 0.6524(2) 0.45800(18)
H4 H 1.13660 0.72780 0.49730
C7 C 1.2414(3) 0.4498(2) 0.16478(17)
C8 C 1.4377(3) 0.5140(2) 0.15867(19)
H5 H 1.52840 0.49170 0.19580
H6 H 1.46150 0.60690 0.19440
H7 H 1.44840 0.48460 0.08190
C9 C 1.0213(3) 0.2363(2) 0.08616(17)
H8 H 0.98630 0.24800 0.15680
H9 H 1.01110 0.14490 0.04210
C10 C 0.9207(3) 0.4212(2) 0.09267(17)
H10 H 0.84310 0.45070 0.05340
H11 H 0.88440 0.43970 0.16410
C11 C 0.8872(3) 0.2752(2) 0.02479(17)
C12 C 0.9199(3) 0.2421(2) -0.09323(17)
H12 H 0.84470 0.27860 -0.12640
H13 H 1.05200 0.28060 -0.09010
C13 C 0.6814(3) 0.2026(2) 0.01311(18)
H14 H 0.65760 0.21440 0.08590
H15 H 0.59840 0.23860 -0.01560
C14 C 0.6799(3) 0.0390(2) -0.16773(17)
C15 C 0.6618(3) -0.1047(2) -0.22524(19)
H16 H 0.75130 -0.12290 -0.18340
H17 H 0.68650 -0.12890 -0.29910
H18 H 0.53600 -0.15370 -0.22980
C16 C 0.5415(3) 0.07090(19) -0.23489(17)
C17 C 0.5956(3) 0.0991(2) -0.31997(17)
H19 H 0.71690 0.10140 -0.33380
C18 C 0.4722(3) 0.1238(2) -0.38398(17)
H20 H 0.50970 0.14430 -0.43980
C19 C 0.2916(3) 0.1176(2) -0.36354(17)
C20 C 0.2302(3) 0.0863(2) -0.28153(18)
H21 H 0.10730 0.08120 -0.26990
C21 C 0.3573(3) 0.0631(2) -0.21751(18)
H22 H 0.31920 0.04190 -0.16210
#END
