
#######################################################################
#
#                 Cambridge Crystallographic Data Centre
#                                CCDC
#
#######################################################################
#
# If this CIF has been generated from an entry in the Cambridge
# Structural Database, then it will include bibliographic, chemical,
# crystal, experimental, refinement or atomic coordinate data resulting
# from the CCDC's data processing and validation procedures.
#
#######################################################################

data_CSD_CIF_EROBAO
_audit_creation_date 2004-06-04
_audit_creation_method CSD-ConQuest-V1
_database_code_CSD EROBAO
_chemical_formula_sum 'C25 H24 N3 O1'
_chemical_formula_moiety
;
C25 H24 N3 O1
;
_journal_coden_Cambridge 35
_journal_volume 68
_journal_year 2003
_journal_page_first 10158
_journal_name_full 'J.Org.Chem. '
loop_
_publ_author_name
"Y.Miura"
"T.Nishi"
"Y.Teki"
_chemical_name_systematic
;
N-t-Butoxy-4-(1H-imidazol-1-yl)-2,6-diphenylphenylaminyl
;
_chemical_melting_point 391.15
_cell_volume   2116.238
_exptl_crystal_colour 'red'
_exptl_crystal_density_diffrn 1.2
_exptl_special_details
;
Melting point range 391.15-392.15K

;
_exptl_crystal_description 'needle'
_exptl_crystal_preparation 'hexane'
_diffrn_ambient_temperature 296.15
#These two values have been output from a single CSD field.
_refine_ls_R_factor_gt 0.055
_refine_ls_wR_factor_gt 0.055
_symmetry_cell_setting monoclinic
_symmetry_space_group_name_H-M 'P 21/n'
_symmetry_Int_Tables_number 14
loop_
_symmetry_equiv_pos_site_id
_symmetry_equiv_pos_as_xyz
1 x,y,z
2 1/2-x,1/2+y,1/2-z
3 -x,-y,-z
4 -1/2+x,-1/2-y,-1/2+z
_cell_length_a 14.4575(4)
_cell_length_b 24.7605(6)
_cell_length_c 5.9936(1)
_cell_angle_alpha 90
_cell_angle_beta 99.483(1)
_cell_angle_gamma 90
_cell_formula_units_Z 4
loop_
_atom_type_symbol
_atom_type_radius_bond
C 0.68
H 0.23
N 0.68
O 0.68
loop_
_atom_site_label
_atom_site_type_symbol
_atom_site_fract_x
_atom_site_fract_y
_atom_site_fract_z
O1 O 0.1048(1) -0.19428(7) 0.1898(3)
N1 N 0.1412(1) -0.14659(7) 0.2794(3)
N2 N 0.4871(1) -0.08318(7) 0.0771(3)
N3 N 0.5926(2) -0.06450(9) -0.1412(4)
C1 C 0.2308(1) -0.13863(8) 0.2434(4)
C2 C 0.2838(1) -0.17245(8) 0.1163(3)
C3 C 0.3681(2) -0.15303(8) 0.0682(4)
C4 C 0.4021(1) -0.10243(8) 0.1408(4)
C5 C 0.3536(2) -0.07079(8) 0.2743(4)
C6 C 0.2693(2) -0.08790(8) 0.3292(4)
C7 C 0.2545(1) -0.22822(8) 0.0361(4)
C8 C 0.2591(2) -0.27049(9) 0.1887(4)
C9 C 0.2326(2) -0.32224(10) 0.1182(5)
C10 C 0.2017(2) -0.3324(1) -0.1043(5)
C11 C 0.1975(2) -0.2913(1) -0.2584(5)
C12 C 0.2249(2) -0.2392(1) -0.1893(4)
C13 C 0.5140(2) -0.0895(1) -0.1284(5)
C14 C 0.6173(2) -0.0409(1) 0.0658(5)
C15 C 0.5541(2) -0.05129(9) 0.2028(4)
C16 C 0.2165(2) -0.05251(9) 0.4651(4)
C17 C 0.2006(2) 0.0010(1) 0.4044(5)
C18 C 0.1490(2) 0.0339(1) 0.5265(6)
C19 C 0.1150(2) 0.0135(1) 0.7100(6)
C20 C 0.1322(2) -0.0386(1) 0.7759(5)
C21 C 0.1827(2) -0.07146(10) 0.6542(4)
C22 C 0.0047(2) -0.19908(10) 0.2072(4)
C23 C -0.0176(2) -0.2551(1) 0.1133(5)
C24 C -0.0077(2) -0.1941(1) 0.4512(5)
C25 C -0.0484(2) -0.1558(1) 0.0639(5)
H1 H 0.37920 -0.03690 0.32830
H2 H 0.40410 -0.17510 -0.01440
H3 H 0.19610 -0.10700 0.70330
H4 H 0.27950 -0.26370 0.34470
H5 H 0.23560 -0.35080 0.22750
H6 H 0.22360 -0.21130 -0.29980
H7 H 0.18310 -0.36820 -0.15620
H8 H 0.22450 0.01580 0.27860
H9 H 0.10740 -0.05280 0.90120
H10 H 0.13750 0.07030 0.48550
H11 H 0.17650 -0.29860 -0.41440
H12 H 0.08120 0.03600 0.79570
H13 H 0.55530 -0.03870 0.35280
H14 H 0.48010 -0.11010 -0.24930
H15 H 0.67290 -0.02000 0.11150
H16 H 0.02180 -0.28080 0.20260
H17 H -0.08110 -0.26350 0.11680
H18 H -0.00580 -0.25670 -0.03800
H19 H -0.03930 -0.16070 -0.08720
H20 H -0.11200 -0.15800 0.07620
H21 H -0.02360 -0.12160 0.11780
H22 H 0.01640 -0.15950 0.50870
H23 H -0.07120 -0.19660 0.46460
H24 H 0.02750 -0.22150 0.53890
#END
