
#######################################################################
#
#                 Cambridge Crystallographic Data Centre
#                                CCDC
#
#######################################################################
#
# If this CIF has been generated from an entry in the Cambridge
# Structural Database, then it will include bibliographic, chemical,
# crystal, experimental, refinement or atomic coordinate data resulting
# from the CCDC's data processing and validation procedures.
#
#######################################################################

data_CSD_CIF_EROHUP
_audit_creation_date 2011-07-22
_audit_creation_method CSD-ConQuest-V1
_database_code_CSD EROHUP
_database_code_depnum_ccdc_archive 'CCDC 828568'
_chemical_formula_sum 'C15 H13 N1 O5'
_chemical_formula_moiety
;
C15 H13 N1 O5
;
_journal_coeditor_code "IUCr WN2430"
_journal_coden_Cambridge 1370
_journal_volume 67
_journal_year 2011
_journal_page_first o1377
_journal_name_full 'Acta Crystallogr.,Sect.E:Struct.Rep.Online '
loop_
_publ_author_name
"Zhong-Yu Duan"
"Guo-Li Ma"
"Li-Ping Yang"
_chemical_name_systematic
;
4-Methoxy-3-((4-nitrobenzyl)oxy)benzaldehyde
;
_cell_volume   1334.351
_exptl_crystal_colour 'pale yellow'
_exptl_crystal_density_diffrn 1.43
_exptl_crystal_description 'block'
_exptl_crystal_preparation 'acetonitrile'
_diffrn_ambient_temperature 294
#These two values have been output from a single CSD field.
_refine_ls_R_factor_gt 0.0567
_refine_ls_wR_factor_gt 0.0567
_symmetry_cell_setting monoclinic
_symmetry_space_group_name_H-M 'P 21/c'
_symmetry_Int_Tables_number 14
loop_
_symmetry_equiv_pos_site_id
_symmetry_equiv_pos_as_xyz
1 x,y,z
2 -x,1/2+y,1/2-z
3 -x,-y,-z
4 x,-1/2-y,-1/2+z
_cell_length_a 6.853(1)
_cell_length_b 11.994(2)
_cell_length_c 16.405(3)
_cell_angle_alpha 90
_cell_angle_beta 98.28(3)
_cell_angle_gamma 90
_cell_formula_units_Z 4
loop_
_atom_type_symbol
_atom_type_radius_bond
C 0.68
H 0.23
N 0.68
O 0.68
loop_
_atom_site_label
_atom_site_type_symbol
_atom_site_fract_x
_atom_site_fract_y
_atom_site_fract_z
N1 N 0.3564(2) -0.20291(14) 0.78771(10)
O1 O 0.23378(17) 0.07084(9) 0.45431(7)
O2 O 0.27616(18) 0.28142(10) 0.46497(8)
O3 O 0.1082(2) -0.00461(10) 0.13474(9)
O4 O 0.3643(2) -0.13342(13) 0.84335(9)
O5 O 0.3704(2) -0.30380(11) 0.79970(9)
C1 C 0.1427(2) 0.14338(14) 0.23296(11)
C2 C 0.1670(2) 0.07594(14) 0.30415(11)
H1 H 0.15620 -0.00120 0.29950
C3 C 0.2070(2) 0.12507(14) 0.38043(11)
C4 C 0.2282(2) 0.24204(14) 0.38720(11)
C5 C 0.2003(3) 0.30806(14) 0.31727(12)
H2 H 0.21040 0.38520 0.32180
C6 C 0.1573(2) 0.25824(14) 0.24028(11)
H3 H 0.13800 0.30240 0.19320
C7 C 0.1090(3) 0.09431(15) 0.15046(12)
H4 H 0.08620 0.14320 0.10610
C8 C 0.3346(3) 0.39608(15) 0.47346(13)
H5 H 0.43330 0.41110 0.43890
H6 H 0.38740 0.41100 0.52980
H7 H 0.22210 0.44300 0.45730
C9 C 0.2195(2) -0.04779(13) 0.45450(11)
H8 H 0.31480 -0.08000 0.42290
H9 H 0.08860 -0.07090 0.42980
C10 C 0.2599(2) -0.08656(13) 0.54244(10)
C11 C 0.2435(2) -0.19985(14) 0.55914(11)
H10 H 0.21010 -0.24960 0.51590
C12 C 0.2765(2) -0.23909(14) 0.63929(12)
H11 H 0.26540 -0.31460 0.65050
C13 C 0.3264(2) -0.16299(14) 0.70222(11)
C14 C 0.3467(2) -0.05042(14) 0.68780(11)
H12 H 0.38200 -0.00110 0.73120
C15 C 0.3131(2) -0.01262(14) 0.60716(11)
H13 H 0.32630 0.06290 0.59620
#END
