
#######################################################################
#
#                 Cambridge Crystallographic Data Centre
#                                CCDC
#
#######################################################################
#
# If this CIF has been generated from an entry in the Cambridge
# Structural Database, then it will include bibliographic, chemical,
# crystal, experimental, refinement or atomic coordinate data resulting
# from the CCDC's data processing and validation procedures.
#
#######################################################################

data_CSD_CIF_EROLON
_audit_creation_date 2011-07-18
_audit_creation_method CSD-ConQuest-V1
_database_code_CSD EROLON
_database_code_depnum_ccdc_archive 'CCDC 828582'
_chemical_formula_sum 'C20 H23 N3 O3'
_chemical_formula_moiety
;
C20 H23 N3 O3
;
_journal_coeditor_code "IUCr SJ5141"
_journal_coden_Cambridge 1370
_journal_volume 67
_journal_year 2011
_journal_page_first o1395
_journal_name_full 'Acta Crystallogr.,Sect.E:Struct.Rep.Online '
loop_
_publ_author_name
"J.Muthukumaran"
"A.Parthiban"
"P.Manivel"
"H.S.P.Rao"
"R.Krishna"
_chemical_name_systematic
;
4-(4-(Diethylamino)phenyl)-N-methyl-3-nitro-4H-chromen-2-amine
;
_cell_volume    922.630
_exptl_crystal_colour 'yellow'
_exptl_crystal_density_diffrn 1.272
_exptl_crystal_description 'block'
_exptl_crystal_preparation 'dichloromethane/hexane'
_diffrn_ambient_temperature 293
#These two values have been output from a single CSD field.
_refine_ls_R_factor_gt 0.0563
_refine_ls_wR_factor_gt 0.0563
_symmetry_cell_setting triclinic
_symmetry_space_group_name_H-M 'P -1'
_symmetry_Int_Tables_number 2
loop_
_symmetry_equiv_pos_site_id
_symmetry_equiv_pos_as_xyz
1 x,y,z
2 -x,-y,-z
_cell_length_a 8.9199(11)
_cell_length_b 10.4333(12)
_cell_length_c 11.6697(8)
_cell_angle_alpha 65.100(9)
_cell_angle_beta 82.388(8)
_cell_angle_gamma 69.513(11)
_cell_formula_units_Z 2
loop_
_atom_type_symbol
_atom_type_radius_bond
C 0.68
H 0.23
N 0.68
O 0.68
loop_
_atom_site_label
_atom_site_type_symbol
_atom_site_fract_x
_atom_site_fract_y
_atom_site_fract_z
O1 O 0.42869(17) 0.68371(16) 0.57975(15)
N1 N 0.3634(2) 0.9167(2) 0.43607(18)
H1 H 0.38820 0.99100 0.37900
N2 N 0.6967(2) 0.8783(2) 0.38082(17)
C1 C 0.6437(2) 0.7689(2) 0.47334(19)
C2 C 0.7689(2) 0.6305(2) 0.55805(19)
H2 H 0.85710 0.60010 0.50530
O2 O 0.84395(19) 0.8532(2) 0.36670(17)
C3 C 0.4810(2) 0.7932(2) 0.4932(2)
O3 O 0.5993(2) 1.00198(19) 0.31188(17)
C4 C 0.6982(2) 0.5058(2) 0.6218(2)
C5 C 0.8361(2) 0.6586(2) 0.65559(19)
C6 C 0.9923(2) 0.6551(2) 0.6541(2)
H3 H 1.05990 0.63400 0.59190
C7 C 0.5350(3) 0.5370(2) 0.6324(2)
C8 C 0.9558(3) 0.7122(3) 0.8384(2)
C9 C 0.7938(3) 0.3569(3) 0.6773(2)
H4 H 0.90440 0.33210 0.67050
C10 C 0.7400(3) 0.6897(3) 0.7504(2)
H5 H 0.63390 0.69320 0.75360
C11 C 1.0514(3) 0.6821(3) 0.7422(2)
H6 H 1.15700 0.68020 0.73730
C12 C 0.7968(3) 0.7153(3) 0.8397(2)
H7 H 0.72880 0.73510 0.90220
C13 C 0.1945(3) 0.9377(3) 0.4617(3)
H8 H 0.16810 0.85890 0.45600
H9 H 0.13160 1.03230 0.40090
H10 H 0.17240 0.93570 0.54510
N3 N 1.0125(3) 0.7401(3) 0.9267(2)
C14 C 0.4655(3) 0.4275(3) 0.6966(2)
H11 H 0.35480 0.45200 0.70210
C15 C 0.5633(3) 0.2813(3) 0.7523(3)
H12 H 0.51870 0.20610 0.79710
C16 C 0.7278(3) 0.2458(3) 0.7418(2)
H13 H 0.79350 0.14670 0.77840
C17 C 1.1609(4) 0.7810(4) 0.9042(3)
H14 H 1.17200 0.83220 0.81400
H15 H 1.14960 0.85060 0.94210
C18 C 0.9352(4) 0.7188(4) 1.0492(3)
H16 H 0.87900 0.64780 1.06850
H17 H 1.01650 0.67720 1.11440
C19 C 0.8226(6) 0.8584(5) 1.0503(5)
H18 H 0.87740 0.92960 1.02980
H19 H 0.77740 0.84050 1.13270
H20 H 0.73870 0.89710 0.98900
C20 C 1.3069(5) 0.6543(5) 0.9545(4)
H21 H 1.29590 0.60050 1.04330
H22 H 1.39600 0.69010 0.94110
H23 H 1.32480 0.58910 0.91200
#END
