
#######################################################################
#
#                 Cambridge Crystallographic Data Centre
#                                CCDC
#
#######################################################################
#
# If this CIF has been generated from an entry in the Cambridge
# Structural Database, then it will include bibliographic, chemical,
# crystal, experimental, refinement or atomic coordinate data resulting
# from the CCDC's data processing and validation procedures.
#
#######################################################################

data_CSD_CIF_EROVOX
_audit_creation_date 2011-07-22
_audit_creation_method CSD-ConQuest-V1
_database_code_CSD EROVOX
_database_code_depnum_ccdc_archive 'CCDC 828622'
_chemical_formula_sum 'C20 H15 N5 O3'
_chemical_formula_moiety
;
C20 H15 N5 O3
;
_journal_coeditor_code "IUCr ZK2006"
_journal_coden_Cambridge 1370
_journal_volume 67
_journal_year 2011
_journal_page_first o1454
_journal_name_full 'Acta Crystallogr.,Sect.E:Struct.Rep.Online '
loop_
_publ_author_name
"Ming-Shu Wu"
"Du-Lin Kong"
"Xiang-Zhu Zhang"
_chemical_name_systematic
;
6-Amino-3-methyl-4-(3-nitrophenyl)-1-phenyl-1H,4H-pyrano[2,3-c]pyrazole-5-carb
onitrile
;
_cell_volume   1758.965
_exptl_crystal_colour 'colorless'
_exptl_crystal_density_diffrn 1.41
_exptl_crystal_description 'plate'
_exptl_crystal_preparation 'ethanol'
_diffrn_ambient_temperature 298
#These two values have been output from a single CSD field.
_refine_ls_R_factor_gt 0.042
_refine_ls_wR_factor_gt 0.042
_symmetry_cell_setting monoclinic
_symmetry_space_group_name_H-M 'P 21/c'
_symmetry_Int_Tables_number 14
loop_
_symmetry_equiv_pos_site_id
_symmetry_equiv_pos_as_xyz
1 x,y,z
2 -x,1/2+y,1/2-z
3 -x,-y,-z
4 x,-1/2-y,-1/2+z
_cell_length_a 9.5089(8)
_cell_length_b 13.9137(11)
_cell_length_c 13.3747(12)
_cell_angle_alpha 90
_cell_angle_beta 96.263(1)
_cell_angle_gamma 90
_cell_formula_units_Z 4
loop_
_atom_type_symbol
_atom_type_radius_bond
C 0.68
H 0.23
N 0.68
O 0.68
loop_
_atom_site_label
_atom_site_type_symbol
_atom_site_fract_x
_atom_site_fract_y
_atom_site_fract_z
N1 N 0.71933(19) 0.52908(13) 0.63123(13)
N2 N 0.8060(2) 0.46605(13) 0.58687(15)
N3 N 0.3851(2) 0.75499(15) 0.52319(15)
H1 H 0.33390 0.78790 0.47850
H2 H 0.37760 0.76410 0.58600
N4 N 0.3550(2) 0.74422(18) 0.24916(17)
N5 N 1.0378(2) 0.80263(17) 0.3702(2)
O1 O 0.54812(16) 0.64832(11) 0.57873(10)
O2 O 1.0555(2) 0.79273(15) 0.46155(19)
O3 O 1.1104(2) 0.85581(18) 0.3254(2)
C1 C 0.6433(2) 0.57976(15) 0.55812(16)
C2 C 0.6769(2) 0.55266(16) 0.46700(16)
C3 C 0.7801(2) 0.48064(16) 0.48860(18)
C4 C 0.8571(3) 0.42635(18) 0.4160(2)
H3 H 0.91900 0.46910 0.38530
H4 H 0.79030 0.39870 0.36510
H5 H 0.91180 0.37610 0.45080
C5 C 0.4761(2) 0.68993(16) 0.49508(17)
C6 C 0.5006(2) 0.66700(16) 0.40010(16)
C7 C 0.6133(2) 0.59767(16) 0.37153(16)
H6 H 0.56730 0.54740 0.32830
C8 C 0.7221(2) 0.64836(16) 0.31459(16)
C9 C 0.8293(2) 0.70132(16) 0.36589(17)
H7 H 0.83680 0.70530 0.43570
C10 C 0.9247(2) 0.74805(16) 0.31350(19)
C11 C 0.9187(3) 0.74412(19) 0.2108(2)
H8 H 0.98480 0.77620 0.17670
C12 C 0.8126(3) 0.6916(2) 0.1602(2)
H9 H 0.80630 0.68750 0.09040
C13 C 0.7148(3) 0.64464(19) 0.21116(17)
H10 H 0.64260 0.60980 0.17520
C14 C 0.4173(3) 0.71120(18) 0.31880(18)
C15 C 0.7217(3) 0.52889(16) 0.73764(17)
C16 C 0.6181(3) 0.57274(18) 0.78491(18)
H11 H 0.54540 0.60600 0.74760
C17 C 0.6223(4) 0.5672(2) 0.8885(2)
H12 H 0.55210 0.59670 0.92080
C18 C 0.7290(4) 0.5184(2) 0.9436(2)
H13 H 0.73030 0.51370 1.01310
C19 C 0.8331(4) 0.4768(2) 0.8965(2)
H14 H 0.90660 0.44490 0.93430
C20 C 0.8312(3) 0.4813(2) 0.7935(2)
H15 H 0.90280 0.45270 0.76190
#END
