
#######################################################################
#
#                 Cambridge Crystallographic Data Centre
#                                CCDC
#
#######################################################################
#
# If this CIF has been generated from an entry in the Cambridge
# Structural Database, then it will include bibliographic, chemical,
# crystal, experimental, refinement or atomic coordinate data resulting
# from the CCDC's data processing and validation procedures.
#
#######################################################################

data_CSD_CIF_EROXEP
_audit_creation_date 2011-07-18
_audit_creation_method CSD-ConQuest-V1
_database_code_CSD EROXEP
_database_code_depnum_ccdc_archive 'CCDC 828630'
_chemical_formula_sum 'C24 H31 N1 O3'
_chemical_formula_moiety
;
C24 H31 N1 O3
;
_journal_coeditor_code "IUCr BQ2291"
_journal_coden_Cambridge 1370
_journal_volume 67
_journal_year 2011
_journal_page_first o1465
_journal_name_full 'Acta Crystallogr.,Sect.E:Struct.Rep.Online '
loop_
_publ_author_name
"Dong-Yin Ren"
"Lu Shi"
"Qin Zhang"
"Yi Xu"
"Hong-Jun Zhu"
_chemical_name_systematic
;
1,3-bis(4-t-butylphenyl)-4-nitrobutan-1-one
;
_cell_volume   2204.505
_exptl_crystal_colour 'colorless'
_exptl_crystal_density_diffrn 1.149
_exptl_crystal_description 'block'
_diffrn_ambient_temperature 293
#These two values have been output from a single CSD field.
_refine_ls_R_factor_gt 0.0621
_refine_ls_wR_factor_gt 0.0621
_symmetry_cell_setting orthorhombic
_symmetry_space_group_name_H-M 'P n a 21'
_symmetry_Int_Tables_number 33
loop_
_symmetry_equiv_pos_site_id
_symmetry_equiv_pos_as_xyz
1 x,y,z
2 -x,-y,1/2+z
3 1/2+x,1/2-y,z
4 1/2-x,1/2+y,1/2+z
_cell_length_a 20.440(4)
_cell_length_b 17.500(4)
_cell_length_c 6.1630(12)
_cell_angle_alpha 90
_cell_angle_beta 90
_cell_angle_gamma 90
_cell_formula_units_Z 4
loop_
_atom_type_symbol
_atom_type_radius_bond
C 0.68
H 0.23
N 0.68
O 0.68
loop_
_atom_site_label
_atom_site_type_symbol
_atom_site_fract_x
_atom_site_fract_y
_atom_site_fract_z
N1 N 0.6807(2) 0.5602(3) 0.0686(7)
O1 O 0.50125(15) 0.54161(17) 0.2287(6)
C1 C 0.4134(3) 0.9145(3) 0.5244(13)
H1 H 0.38560 0.89490 0.41180
H2 H 0.45640 0.92350 0.46690
H3 H 0.39570 0.96150 0.57880
O2 O 0.73656(19) 0.5582(3) 0.1435(8)
C2 C 0.4638(4) 0.8985(4) 0.8758(18)
H4 H 0.44530 0.94650 0.91930
H5 H 0.50630 0.90700 0.81360
H6 H 0.46790 0.86580 1.00010
O3 O 0.6580(2) 0.6145(2) -0.0204(9)
C3 C 0.3532(4) 0.8505(4) 0.813(2)
H7 H 0.32210 0.82770 0.71620
H8 H 0.33770 0.89990 0.85760
H9 H 0.35850 0.81850 0.93850
C4 C 0.4174(3) 0.8589(3) 0.7002(13)
C5 C 0.4448(2) 0.7832(3) 0.6253(9)
C6 C 0.4948(2) 0.7455(3) 0.7359(9)
H10 H 0.51030 0.76600 0.86520
C7 C 0.5216(2) 0.6792(2) 0.6595(8)
H11 H 0.55520 0.65600 0.73690
C8 C 0.49945(19) 0.6457(2) 0.4682(8)
C9 C 0.4479(2) 0.6811(3) 0.3611(10)
H12 H 0.43060 0.65940 0.23580
C10 C 0.4224(3) 0.7479(3) 0.4400(11)
H13 H 0.38820 0.77070 0.36440
C11 C 0.5300(2) 0.5762(2) 0.3703(8)
C12 C 0.5950(2) 0.5512(2) 0.4511(8)
H14 H 0.59190 0.54200 0.60590
H15 H 0.62600 0.59250 0.42950
C13 C 0.6218(2) 0.4789(2) 0.3414(8)
H16 H 0.58580 0.44200 0.34120
C14 C 0.6395(2) 0.4918(3) 0.1035(9)
H17 H 0.66260 0.44720 0.04970
H18 H 0.59960 0.49710 0.01990
C15 C 0.6768(2) 0.4417(2) 0.4692(8)
C16 C 0.7202(2) 0.4823(2) 0.5969(9)
H19 H 0.71720 0.53520 0.60260
C17 C 0.76808(19) 0.4452(2) 0.7167(9)
H20 H 0.79700 0.47420 0.79890
C18 C 0.7743(2) 0.3668(2) 0.7183(9)
C19 C 0.7315(2) 0.3266(2) 0.5847(11)
H21 H 0.73580 0.27390 0.57320
C20 C 0.6833(2) 0.3630(2) 0.4697(10)
H22 H 0.65400 0.33380 0.38930
C21 C 0.8267(3) 0.3263(3) 0.8525(11)
C22 C 0.8825(3) 0.3032(5) 0.6997(15)
H23 H 0.91570 0.27700 0.78070
H24 H 0.90080 0.34810 0.63420
H25 H 0.86580 0.27000 0.58860
C23 C 0.8533(4) 0.3767(4) 1.0330(14)
H26 H 0.81830 0.39110 1.12850
H27 H 0.87250 0.42180 0.97130
H28 H 0.88590 0.34910 1.11330
C24 C 0.7971(3) 0.2562(4) 0.9646(15)
H29 H 0.76300 0.27220 1.06170
H30 H 0.83050 0.23000 1.04500
H31 H 0.77910 0.22240 0.85720
#END
