
#######################################################################
#
#                 Cambridge Crystallographic Data Centre
#                                CCDC
#
#######################################################################
#
# If this CIF has been generated from an entry in the Cambridge
# Structural Database, then it will include bibliographic, chemical,
# crystal, experimental, refinement or atomic coordinate data resulting
# from the CCDC's data processing and validation procedures.
#
#######################################################################

data_CSD_CIF_ERSTND
_audit_creation_date 1980-12-11
_audit_creation_method CSD-ConQuest-V1
_database_code_CSD ERSTND
_chemical_formula_sum 'C27 H28 N2 O9'
_chemical_formula_moiety
;
C27 H28 N2 O9
;
_journal_coden_Cambridge 154
_journal_volume 33
_journal_year 1980
_journal_page_first 313
_journal_name_full 'Aust.J.Chem. '
loop_
_publ_author_name
"P.R.Jefferies"
"B.W.Skelton"
"B.Walter"
"A.H.White"
_chemical_name_systematic
;
3-(5-Methoxy-2,2,8,8-tetramethyl-2H,8H-benzo(1,2-b:3,4-b')dipyran-6-yl)-propyl
-3,5-dinitrobenzoate
;
_chemical_name_common
;
Eriostemyl-3,5-dinitrobenzoate
;
_cell_volume   1321.422
_exptl_crystal_density_diffrn 1.32
_diffrn_ambient_temperature ?
_diffrn_special_details
;
The study was carried out at room temperature,in the range 283-303K

;
#These two values have been output from a single CSD field.
_refine_ls_R_factor_gt 0.042
_refine_ls_wR_factor_gt 0.042
_symmetry_cell_setting triclinic
_symmetry_space_group_name_H-M 'P -1'
_symmetry_Int_Tables_number 2
loop_
_symmetry_equiv_pos_site_id
_symmetry_equiv_pos_as_xyz
1 x,y,z
2 -x,-y,-z
_cell_length_a 14.538(5)
_cell_length_b 10.225(3)
_cell_length_c 9.503(4)
_cell_angle_alpha 76.61(3)
_cell_angle_beta 82.04(3)
_cell_angle_gamma 74.77(2)
_cell_formula_units_Z 2
loop_
_atom_type_symbol
_atom_type_radius_bond
C 0.68
H 0.23
N 0.68
O 0.68
loop_
_atom_site_label
_atom_site_type_symbol
_atom_site_fract_x
_atom_site_fract_y
_atom_site_fract_z
C1 C 0.35030 0.34440 0.63520
H1 H 0.35000 0.44300 0.56500
H2 H 0.29200 0.35400 0.70300
H3 H 0.40400 0.31400 0.68600
O1 O 0.35130 0.24720 0.54890
C2 C 0.27760 0.28660 0.45690
C3 C 0.13690 0.35590 0.26420
C4 C 0.06130 0.38390 0.17030
H4 H 0.06900 0.43000 0.08100
C5 C -0.01970 0.34780 0.21820
H5 H -0.07000 0.36500 0.15500
C6 C -0.03850 0.27630 0.37180
C7 C -0.09980 0.37610 0.46120
H6 H -0.06800 0.45000 0.46300
H7 H -0.16100 0.41400 0.41900
H8 H -0.10800 0.32000 0.56400
C8 C -0.08050 0.15450 0.37860
H9 H -0.14300 0.18700 0.34500
H10 H -0.03700 0.08900 0.32700
H11 H -0.08500 0.10300 0.48400
O2 O 0.05140 0.21270 0.44060
C9 C 0.12810 0.27170 0.40130
C10 C 0.19590 0.23670 0.50170
C11 C 0.18010 0.14930 0.65090
H12 H 0.16900 0.06500 0.64000
C12 C 0.10180 0.22770 0.74740
H13 H 0.12300 0.30800 0.75700
C13 C 0.08640 0.14480 0.89710
H14 H 0.03100 0.19400 0.94900
O3 O 0.17180 0.12840 0.97070
C14 C 0.17320 0.05340 1.10390
O4 O 0.11050 -0.00040 1.16600
C15 C 0.26470 0.03800 1.16880
C16 C 0.27930 -0.04870 1.30180
H15 H 0.23500 -0.09800 1.34800
C17 C 0.36380 -0.06970 1.36110
N1 N 0.37820 -0.16400 1.50340
O5 O 0.32810 -0.24630 1.54180
O6 O 0.43980 -0.15710 1.57190
C18 C 0.43640 -0.00850 1.29440
H16 H 0.49600 -0.02300 1.33600
C19 C 0.29220 0.36870 0.32050
C20 C 0.37850 0.41720 0.26660
H17 H 0.43100 0.38100 0.31800
C21 C 0.38130 0.50800 0.14250
H18 H 0.43900 0.53800 0.10500
C22 C 0.29660 0.56690 0.05470
C23 C 0.23970 0.70310 0.09120
H19 H 0.21600 0.69100 0.20100
H20 H 0.28000 0.76800 0.06700
H21 H 0.18700 0.74200 0.02600
C24 C 0.32530 0.58020 -0.10530
H22 H 0.37000 0.63900 -0.13100
H23 H 0.36000 0.49200 -0.12600
H24 H 0.27000 0.61200 -0.15800
O7 O 0.23280 0.47270 0.08630
C25 C 0.22070 0.40210 0.22660
H25 H 0.24000 0.12000 0.69400
H26 H 0.04400 0.25400 0.71000
H27 H 0.08600 0.04700 0.88400
C26 C 0.33540 0.10220 1.09680
H28 H 0.32800 0.15800 1.00600
C27 C 0.42010 0.07690 1.16050
N2 N 0.49790 0.13870 1.07960
O8 O 0.48190 0.21830 0.96370
O9 O 0.57590 0.10250 1.12930
#END
