
#######################################################################
#
#                 Cambridge Crystallographic Data Centre
#                                CCDC
#
#######################################################################
#
# If this CIF has been generated from an entry in the Cambridge
# Structural Database, then it will include bibliographic, chemical,
# crystal, experimental, refinement or atomic coordinate data resulting
# from the CCDC's data processing and validation procedures.
#
#######################################################################

data_CSD_CIF_ERSTNB
_audit_creation_date 1980-12-11
_audit_creation_method CSD-ConQuest-V1
_database_code_CSD ERSTNB
_chemical_formula_sum 'C27 H29 N1 O7'
_chemical_formula_moiety
;
C27 H29 N1 O7
;
_journal_coden_Cambridge 154
_journal_volume 33
_journal_year 1980
_journal_page_first 313
_journal_name_full 'Aust.J.Chem. '
loop_
_publ_author_name
"P.R.Jefferies"
"B.W.Skelton"
"B.Walter"
"A.H.White"
_chemical_name_systematic
;
3-(5-Methoxy-2,2,8,8-tetramethyl-2H,8H-benzo(1,2-b:5,4-b')dipyran-10-yl)-propy
l-p-nitrobenzoate
;
_chemical_name_common
;
Eriostyl p-nitrobenzoate
;
_cell_volume   2510.221
_exptl_crystal_density_diffrn 1.27
_diffrn_ambient_temperature ?
_diffrn_special_details
;
The study was carried out at room temperature,in the range 283-303K

;
#These two values have been output from a single CSD field.
_refine_ls_R_factor_gt 0.044
_refine_ls_wR_factor_gt 0.044
_symmetry_cell_setting monoclinic
_symmetry_space_group_name_H-M 'P 21/n'
_symmetry_Int_Tables_number 14
loop_
_symmetry_equiv_pos_site_id
_symmetry_equiv_pos_as_xyz
1 x,y,z
2 1/2-x,1/2+y,1/2-z
3 -x,-y,-z
4 -1/2+x,-1/2-y,-1/2+z
_cell_length_a 6.052(4)
_cell_length_b 19.08(2)
_cell_length_c 21.77(1)
_cell_angle_alpha 90
_cell_angle_beta 93.07(5)
_cell_angle_gamma 90
_cell_formula_units_Z 4
loop_
_atom_type_symbol
_atom_type_radius_bond
C 0.68
H 0.23
N 0.68
O 0.68
loop_
_atom_site_label
_atom_site_type_symbol
_atom_site_fract_x
_atom_site_fract_y
_atom_site_fract_z
C1 C 1.44780 0.08410 0.26380
H1 H 1.42600 0.07000 0.22000
H2 H 1.51400 0.12600 0.28000
H3 H 1.53500 0.04700 0.28400
O1 O 1.23440 0.08720 0.28880
C2 C 1.09510 0.13730 0.25970
C3 C 1.07640 0.20200 0.28690
C4 C 1.19140 0.22310 0.34400
H4 H 1.27600 0.19300 0.36400
C5 C 1.14990 0.28500 0.36870
H5 H 1.21500 0.30000 0.40800
C6 C 0.98030 0.33450 0.34090
C7 C 0.76550 0.33050 0.37310
H6 H 0.78500 0.34200 0.41500
H7 H 0.64600 0.36000 0.35300
H8 H 0.70000 0.27800 0.36700
C8 C 1.07000 0.40970 0.33960
H9 H 0.94700 0.44500 0.32200
H10 H 1.09300 0.41700 0.38100
H11 H 1.21700 0.40600 0.31600
O2 O 0.92840 0.31870 0.27620
C9 C 0.94040 0.25050 0.25510
C10 C 0.82290 0.23740 0.19950
C11 C 0.67590 0.29120 0.16660
H12 H 0.75100 0.33000 0.16200
C12 C 0.46320 0.30410 0.19790
H13 H 0.39000 0.26100 0.21000
C13 C 0.29240 0.34390 0.15830
H14 H 0.27000 0.32000 0.12600
O3 O 0.39560 0.40910 0.13960
C14 C 0.27050 0.44980 0.10210
O4 O 0.08290 0.43610 0.08610
C15 C 0.38780 0.51330 0.08160
C16 C 0.60100 0.52850 0.10420
H15 H 0.67800 0.49500 0.13400
C17 C 0.70890 0.58720 0.08290
H16 H 0.85200 0.60800 0.09900
C18 C 0.59730 0.62920 0.04030
N1 N 0.71470 0.69170 0.01840
O5 O 0.91040 0.69970 0.03400
C19 C 0.98310 0.11910 0.20450
C20 C 0.99010 0.04940 0.17570
H17 H 1.05300 0.01100 0.20500
C21 C 0.90790 0.04150 0.11890
H18 H 0.90800 -0.00700 0.09600
C22 C 0.81610 0.10210 0.08140
C23 C 0.62310 0.08120 0.03930
H19 H 0.55600 0.12000 0.02000
H20 H 0.68300 0.04400 0.00500
H21 H 0.52300 0.06400 0.06800
C24 C 0.99220 0.13770 0.04600
H22 H 1.06500 0.10500 0.01800
H23 H 0.93400 0.18300 0.03000
H24 H 1.12500 0.15200 0.07400
O6 O 0.72580 0.15360 0.12300
C25 C 0.85030 0.17070 0.17610
H25 H 0.66000 0.27600 0.12200
H26 H 0.49200 0.32900 0.23700
H27 H 0.16200 0.36100 0.18200
C26 C 0.28280 0.55660 0.03810
H28 H 0.14300 0.53900 0.02300
C27 C 0.39050 0.61490 0.01750
H29 H 0.31700 0.64200 -0.01600
O7 O 0.60960 0.73360 -0.01360
#END
