
#######################################################################
#
#                 Cambridge Crystallographic Data Centre
#                                CCDC
#
#######################################################################
#
# If this CIF has been generated from an entry in the Cambridge
# Structural Database, then it will include bibliographic, chemical,
# crystal, experimental, refinement or atomic coordinate data resulting
# from the CCDC's data processing and validation procedures.
#
#######################################################################

data_CSD_CIF_ERSTNC
_audit_creation_date 1980-12-11
_audit_creation_method CSD-ConQuest-V1
_database_code_CSD ERSTNC
_chemical_formula_sum 'C27 H32 N2 O9'
_chemical_formula_moiety
;
C27 H32 N2 O9
;
_journal_coden_Cambridge 154
_journal_volume 33
_journal_year 1980
_journal_page_first 313
_journal_name_full 'Aust.J.Chem. '
loop_
_publ_author_name
"P.R.Jefferies"
"B.W.Skelton"
"B.Walter"
"A.H.White"
_chemical_name_systematic
;
Tetrahydro-3-(5-methoxy-2,2,8,8-tetramethyl-2H,8H-benzo(1,2-b:5,4-b')dipyran-1
0-yl)-propyl-3,5-dinitrobenzoate
;
_chemical_name_common
;
Tetrahydroeriostyl-3,5-dinitrobenzoate
;
_cell_volume   2639.514
_exptl_crystal_density_diffrn 1.33
_diffrn_ambient_temperature ?
_diffrn_special_details
;
The study was carried out at room temperature,in the range 283-303K

;
#These two values have been output from a single CSD field.
_refine_ls_R_factor_gt 0.067
_refine_ls_wR_factor_gt 0.067
_symmetry_cell_setting monoclinic
_symmetry_space_group_name_H-M 'P 21/c'
_symmetry_Int_Tables_number 14
loop_
_symmetry_equiv_pos_site_id
_symmetry_equiv_pos_as_xyz
1 x,y,z
2 -x,1/2+y,1/2-z
3 -x,-y,-z
4 x,-1/2-y,-1/2+z
_cell_length_a 5.842(2)
_cell_length_b 19.767(5)
_cell_length_c 22.925(6)
_cell_angle_alpha 90
_cell_angle_beta 94.41(3)
_cell_angle_gamma 90
_cell_formula_units_Z 4
loop_
_atom_type_symbol
_atom_type_radius_bond
C 0.68
H 0.23
N 0.68
O 0.68
loop_
_atom_site_label
_atom_site_type_symbol
_atom_site_fract_x
_atom_site_fract_y
_atom_site_fract_z
C1 C 0.99200 0.13860 0.50240
H1 H 0.97100 0.09100 0.50300
H2 H 1.15900 0.13300 0.49300
H3 H 0.97100 0.15300 0.53400
O1 O 0.84880 0.17310 0.45900
C2 C 0.85430 0.14520 0.40340
C3 C 0.99190 0.17730 0.36580
C4 C 1.14650 0.23660 0.38350
H4 H 1.03400 0.27300 0.38200
H5 H 1.24700 0.22800 0.42100
C5 C 1.32290 0.24720 0.33900
H6 H 1.43400 0.28200 0.34100
H7 H 1.45400 0.21400 0.34700
C6 C 1.21890 0.24410 0.27700
C7 C 1.03070 0.29580 0.26310
H8 H 1.10500 0.33300 0.26400
H9 H 0.98500 0.28800 0.21400
H10 H 0.88200 0.28600 0.28700
C8 C 1.40300 0.25010 0.23340
H11 H 1.31200 0.25100 0.19100
H12 H 1.48600 0.29900 0.23500
H13 H 1.51400 0.22300 0.25900
O2 O 1.12050 0.17700 0.26700
C9 C 0.98920 0.15110 0.30880
C10 C 0.86080 0.09390 0.29140
C11 C 0.87660 0.06330 0.23130
H14 H 1.05300 0.06600 0.22000
C12 C 0.71860 0.09360 0.18350
H15 H 0.72700 0.14100 0.18600
C13 C 0.50070 0.07100 0.18120
H16 H 0.48800 0.02200 0.18000
O3 O 0.34630 0.10420 0.13370
C14 C 0.32810 0.07730 0.08170
O4 O 0.43410 0.03110 0.06270
C15 C 0.13520 0.10780 0.04260
C16 C 0.08450 0.08490 -0.01240
H17 H 0.19100 0.05800 -0.02800
C17 C -0.10080 0.10970 -0.04580
N1 N -0.15530 0.08530 -0.10690
O5 O -0.02800 0.04340 -0.12590
O6 O -0.32310 0.10810 -0.13370
C18 C -0.24900 0.15730 -0.02570
H18 H -0.39300 0.17200 -0.04800
C19 C 0.71420 0.09020 0.38850
C20 C 0.55100 0.06090 0.43050
H19 H 0.64500 0.03400 0.46200
H20 H 0.47200 0.10100 0.45200
C21 C 0.37020 0.01870 0.39780
H21 H 0.28800 -0.01400 0.42500
H22 H 0.27200 0.04600 0.37400
C22 C 0.47490 -0.02840 0.35360
C23 C 0.29100 -0.06700 0.31580
H23 H 0.38900 -0.09300 0.28300
H24 H 0.19500 -0.09700 0.34300
H25 H 0.18700 -0.03500 0.30900
C24 C 0.65010 -0.07720 0.38280
H26 H 0.70100 -0.10400 0.41100
H27 H 0.69500 -0.11100 0.35400
H28 H 0.76100 -0.05000 0.40200
O7 O 0.58900 0.01220 0.31160
C25 C 0.72340 0.06570 0.33210
H29 H 0.84900 0.00900 0.23400
H30 H 0.78000 0.08000 0.14600
H31 H 0.43700 0.08200 0.22100
C26 C -0.00470 0.15700 0.06420
H32 H 0.02800 0.17900 0.10300
C27 C -0.19120 0.18180 0.02990
N2 N -0.34320 0.23160 0.05410
O8 O -0.27230 0.26010 0.10020
O9 O -0.53040 0.24200 0.02920
#END
