
#######################################################################
#
#                 Cambridge Crystallographic Data Centre
#                                CCDC
#
#######################################################################
#
# If this CIF has been generated from an entry in the Cambridge
# Structural Database, then it will include bibliographic, chemical,
# crystal, experimental, refinement or atomic coordinate data resulting
# from the CCDC's data processing and validation procedures.
#
#######################################################################

data_CSD_CIF_ERUGEE
_audit_creation_date 2011-08-02
_audit_creation_method CSD-ConQuest-V1
_database_code_CSD ERUGEE
_database_code_depnum_ccdc_archive 'CCDC 828665'
_chemical_formula_sum 'C19 H13 N5 O3'
_chemical_formula_moiety
;
C19 H13 N5 O3
;
_journal_coeditor_code "IUCr VM2095"
_journal_coden_Cambridge 1370
_journal_volume 67
_journal_year 2011
_journal_page_first o1507
_journal_name_full 'Acta Crystallogr.,Sect.E:Struct.Rep.Online '
loop_
_publ_author_name
"T.Seidler"
"M.Gryl"
"B.Trzewik"
"K.Stadnicka"
_chemical_name_systematic
;
N-(5-Nitropyridin-2-yl)-5H-dibenzo[d,f][1,3]diazepine-6-carboxamide
;
_cell_volume   1574.684
_exptl_crystal_colour 'orange'
_exptl_crystal_density_diffrn 1.516
_exptl_crystal_description 'block'
_diffrn_ambient_temperature 110
#These two values have been output from a single CSD field.
_refine_ls_R_factor_gt 0.0361
_refine_ls_wR_factor_gt 0.0361
_symmetry_cell_setting monoclinic
_symmetry_space_group_name_H-M 'P 21/c'
_symmetry_Int_Tables_number 14
loop_
_symmetry_equiv_pos_site_id
_symmetry_equiv_pos_as_xyz
1 x,y,z
2 -x,1/2+y,1/2-z
3 -x,-y,-z
4 x,-1/2-y,-1/2+z
_cell_length_a 12.9702(2)
_cell_length_b 9.2104(1)
_cell_length_c 13.4145(2)
_cell_angle_alpha 90
_cell_angle_beta 100.692(1)
_cell_angle_gamma 90
_cell_formula_units_Z 4
loop_
_atom_type_symbol
_atom_type_radius_bond
C 0.68
H 0.23
N 0.68
O 0.68
loop_
_atom_site_label
_atom_site_type_symbol
_atom_site_fract_x
_atom_site_fract_y
_atom_site_fract_z
N1 N 0.15616(7) 0.02467(9) 0.92909(6)
H1 H 0.1014(9) -0.0115(14) 0.9524(9)
C1 C 0.14265(7) 0.16642(10) 0.90162(7)
N2 N 0.20711(6) 0.25840(9) 0.87513(6)
C2 C 0.03385(7) 0.22423(10) 0.90872(7)
O1 O -0.03207(5) 0.14658(8) 0.93589(6)
N3 N 0.02224(6) 0.36682(9) 0.88352(6)
H2 H 0.0796(9) 0.4033(13) 0.8674(9)
C3 C 0.31624(7) 0.23319(10) 0.88312(7)
C4 C 0.37511(8) 0.36134(11) 0.89410(7)
H3 H 0.33970 0.45200 0.89130
C5 C 0.48377(8) 0.35967(12) 0.90890(8)
H4 H 0.52230 0.44790 0.91610
C6 C 0.53540(8) 0.22716(12) 0.91305(8)
H5 H 0.60990 0.22390 0.92600
C7 C 0.47790(7) 0.09954(11) 0.89823(7)
H6 H 0.51430 0.00980 0.89950
C8 C 0.36771(7) 0.09835(10) 0.88136(7)
C9 C 0.21410(7) -0.0755(1) 0.88061(7)
C10 C 0.16781(8) -0.21063(11) 0.85663(8)
H7 H 0.10110 -0.23100 0.87300
C11 C 0.21824(9) -0.31577(11) 0.80897(8)
H8 H 0.18630 -0.40780 0.79300
C12 C 0.31554(9) -0.28566(11) 0.78484(8)
H9 H 0.35090 -0.35710 0.75270
C13 C 0.36072(8) -0.15065(11) 0.80807(8)
H10 H 0.42670 -0.13050 0.79000
C14 C 0.31255(7) -0.04244(10) 0.85732(7)
N4 N -0.04575(6) 0.59431(9) 0.85591(6)
C15 C -0.12294(8) 0.69109(11) 0.85240(7)
H11 H -0.11090 0.78890 0.83520
C16 C -0.21986(8) 0.65325(11) 0.87304(7)
C17 C -0.23889(8) 0.51174(11) 0.90003(8)
H12 H -0.30540 0.48490 0.91430
C18 C -0.15953(7) 0.41067(11) 0.90574(8)
H13 H -0.16910 0.31310 0.92510
C19 C -0.06433(7) 0.45741(10) 0.88190(7)
N5 N -0.30275(7) 0.76288(10) 0.86450(7)
O2 O -0.39181(6) 0.72147(10) 0.86834(7)
O3 O -0.27849(7) 0.89005(9) 0.85351(7)
#END
