
#######################################################################
#
#                 Cambridge Crystallographic Data Centre
#                                CCDC
#
#######################################################################
#
# If this CIF has been generated from an entry in the Cambridge
# Structural Database, then it will include bibliographic, chemical,
# crystal, experimental, refinement or atomic coordinate data resulting
# from the CCDC's data processing and validation procedures.
#
#######################################################################

data_CSD_CIF_ERULUA
_audit_creation_date 2016-08-03
_audit_creation_method CSD-ConQuest-V1
_database_code_CSD ERULUA
_database_code_depnum_ccdc_archive 'CCDC 1477486'
_chemical_formula_sum 'C26 H24 N2 O3'
_chemical_formula_moiety
;
C26 H24 N2 O3
;
_journal_coden_Cambridge 182
_journal_volume 52
_journal_year 2016
_journal_page_first 10415
_journal_name_full 'Chem.Commun. '
loop_
_publ_author_name
"Yuanyuan An"
"Hongguang Xia"
"Jie Wu"
_chemical_name_systematic
;
1-(benzyloxy)-3,3-dimethyl-6-phenyl-1,11b-dihydro[1,2,4]oxadiazino[3,2-a]isoqu
inolin-2(3H)-one
;
_cell_volume   2173.174
_exptl_crystal_colour 'colorless'
_exptl_crystal_density_diffrn 1.261
_exptl_crystal_description 'prism'
_diffrn_ambient_temperature 296
#These two values have been output from a single CSD field.
_refine_ls_R_factor_gt 0.0571
_refine_ls_wR_factor_gt 0.0571
_symmetry_cell_setting monoclinic
_symmetry_space_group_name_H-M 'P 21/n'
_symmetry_Int_Tables_number 14
loop_
_symmetry_equiv_pos_site_id
_symmetry_equiv_pos_as_xyz
1 x,y,z
2 1/2-x,1/2+y,1/2-z
3 -x,-y,-z
4 -1/2+x,-1/2-y,-1/2+z
_cell_length_a 9.1828(17)
_cell_length_b 9.0675(17)
_cell_length_c 26.107(5)
_cell_angle_alpha 90
_cell_angle_beta 91.376(3)
_cell_angle_gamma 90
_cell_formula_units_Z 4
loop_
_atom_type_symbol
_atom_type_radius_bond
C 0.68
H 0.23
N 0.68
O 0.68
loop_
_atom_site_label
_atom_site_type_symbol
_atom_site_fract_x
_atom_site_fract_y
_atom_site_fract_z
N1 N 0.17308(17) 0.2168(2) 0.05409(6)
N2 N 0.09386(19) 0.3755(2) 0.11792(7)
O1 O 0.30773(14) 0.30459(17) 0.05548(5)
O2 O 0.1254(2) 0.6195(2) 0.10673(8)
O3 O -0.00592(15) 0.39916(18) 0.15660(5)
C1 C 0.1189(2) 0.2208(2) 0.10634(7)
H1 H 0.02380 0.17160 0.10570
C2 C 0.2142(2) 0.1415(2) 0.14506(7)
C3 C 0.2464(2) 0.1908(3) 0.19416(8)
H2 H 0.21260 0.28210 0.20490
C4 C 0.3296(3) 0.1033(3) 0.22741(8)
H3 H 0.35060 0.13590 0.26050
C5 C 0.3809(3) -0.0318(3) 0.21142(9)
H4 H 0.43700 -0.08980 0.23370
C6 C 0.3489(3) -0.0805(3) 0.16224(9)
H5 H 0.38230 -0.17220 0.15180
C7 C 0.2677(3) 0.0054(3) 0.12834(8)
C8 C 0.2487(3) -0.0311(3) 0.07442(9)
H6 H 0.25910 -0.12880 0.06420
C9 C 0.2166(2) 0.0710(3) 0.03885(8)
C10 C 0.2266(2) 0.0496(3) -0.01729(8)
C11 C 0.1371(3) 0.1271(3) -0.05106(8)
H7 H 0.06850 0.19220 -0.03840
C12 C 0.1482(3) 0.1092(3) -0.10369(9)
H8 H 0.08690 0.16120 -0.12610
C13 C 0.2507(3) 0.0138(3) -0.12247(9)
H9 H 0.25930 0.00240 -0.15770
C14 C 0.3402(3) -0.0647(3) -0.08957(10)
H10 H 0.40850 -0.12980 -0.10240
C15 C 0.3284(3) -0.0464(3) -0.03711(9)
H11 H 0.38960 -0.09920 -0.01490
C16 C 0.2697(2) 0.4582(3) 0.05557(8)
C17 C 0.1568(2) 0.4925(3) 0.09625(8)
C18 C -0.1474(2) 0.4341(3) 0.13412(8)
H12 H -0.17560 0.35980 0.10910
H13 H -0.14430 0.52900 0.11710
C19 C -0.2549(2) 0.4380(2) 0.17651(7)
C20 C -0.2644(2) 0.3228(3) 0.21080(9)
H14 H -0.20070 0.24340 0.20850
C21 C -0.3677(3) 0.3239(3) 0.24862(9)
H15 H -0.37220 0.24630 0.27180
C22 C -0.4630(2) 0.4391(3) 0.25180(9)
H16 H -0.53330 0.43930 0.27690
C23 C -0.4550(3) 0.5539(3) 0.21803(9)
H17 H -0.52030 0.63190 0.22010
C24 C -0.3500(2) 0.5547(3) 0.18084(8)
H18 H -0.34350 0.63460 0.15860
C25 C 0.2111(3) 0.5075(3) 0.00338(9)
H19 H 0.28120 0.48530 -0.02220
H20 H 0.19340 0.61180 0.00390
H21 H 0.12180 0.45640 -0.00450
C26 C 0.4115(3) 0.5344(3) 0.07061(11)
H22 H 0.44460 0.49960 0.10360
H23 H 0.39610 0.63900 0.07210
H24 H 0.48370 0.51280 0.04570
#END
