
#######################################################################
#
#                 Cambridge Crystallographic Data Centre
#                                CCDC
#
#######################################################################
#
# If this CIF has been generated from an entry in the Cambridge
# Structural Database, then it will include bibliographic, chemical,
# crystal, experimental, refinement or atomic coordinate data resulting
# from the CCDC's data processing and validation procedures.
#
#######################################################################

data_CSD_CIF_ESANIX
_audit_creation_date 2016-08-03
_audit_creation_method CSD-ConQuest-V1
_database_code_CSD ESANIX
_database_code_depnum_ccdc_archive 'CCDC 1043761'
_chemical_formula_sum 'C15 H14 N2 O3'
_chemical_formula_moiety
;
C15 H14 N2 O3
;
_journal_coden_Cambridge 119
_journal_volume 1127
_journal_year 2017
_journal_page_first 275
_journal_name_full 'J.Mol.Struct. '
loop_
_publ_author_name
"A.O.Yildirim"
"M.Hakki Yildirim"
"C.A.Kastas"
_chemical_name_systematic
;
(E)-2-((3,4-dimethylphenylimino)methyl)-4-nitrophenol
;
_cell_volume    662.187
_exptl_crystal_colour 'yellow'
_exptl_crystal_density_diffrn 1.356
_exptl_crystal_description 'prism'
_diffrn_ambient_temperature 296
#These two values have been output from a single CSD field.
_refine_ls_R_factor_gt 0.074
_refine_ls_wR_factor_gt 0.074
_symmetry_cell_setting triclinic
_symmetry_space_group_name_H-M 'P -1'
_symmetry_Int_Tables_number 2
loop_
_symmetry_equiv_pos_site_id
_symmetry_equiv_pos_as_xyz
1 x,y,z
2 -x,-y,-z
_cell_length_a 6.3403(6)
_cell_length_b 8.9712(9)
_cell_length_c 12.5882(12)
_cell_angle_alpha 70.080(7)
_cell_angle_beta 82.995(8)
_cell_angle_gamma 80.446(8)
_cell_formula_units_Z 2
loop_
_atom_type_symbol
_atom_type_radius_bond
C 0.68
H 0.23
N 0.68
O 0.68
loop_
_atom_site_label
_atom_site_type_symbol
_atom_site_fract_x
_atom_site_fract_y
_atom_site_fract_z
C1 C 0.5597(5) 0.7649(3) 0.4722(3)
C2 C 0.4402(5) 0.9121(4) 0.4089(3)
C3 C 0.5387(6) 1.0121(4) 0.3130(3)
H1 H 0.46230 1.10820 0.27170
C4 C 0.7481(6) 0.9717(4) 0.2776(3)
H2 H 0.81250 1.03980 0.21300
C5 C 0.8629(5) 0.8271(4) 0.3397(3)
C6 C 0.7707(5) 0.7253(4) 0.4350(3)
H3 H 0.84920 0.62940 0.47490
C7 C 0.4625(6) 0.6609(4) 0.5714(3)
H4 H 0.54190 0.56500 0.61070
C8 C 0.1618(5) 0.5980(4) 0.7080(3)
C9 C 0.2580(5) 0.4527(4) 0.7786(3)
H5 H 0.40060 0.41800 0.76170
C10 C 0.1493(6) 0.3580(4) 0.8731(3)
C11 C -0.0669(6) 0.4109(4) 0.8993(3)
C12 C -0.1620(6) 0.5576(5) 0.8282(3)
H6 H -0.30430 0.59360 0.84480
C13 C -0.0515(6) 0.6504(4) 0.7343(3)
H7 H -0.11880 0.74740 0.68880
C14 C 0.2587(7) 0.1999(4) 0.9476(4)
H8 H 0.40400 0.18190 0.91800
H9 H 0.18330 0.11490 0.94890
H10 H 0.25820 0.20290 1.02320
C15 C -0.1965(8) 0.3152(5) 0.9994(3)
H11 H -0.33720 0.37290 1.00390
H12 H -0.12750 0.29700 1.06730
H13 H -0.20780 0.21440 0.99110
N1 N 0.2682(4) 0.6946(3) 0.6089(2)
N2 N 1.0818(4) 0.7831(4) 0.2996(3)
O1 O 0.2381(4) 0.9544(3) 0.4407(2)
O2 O 1.1580(4) 0.8729(3) 0.2114(2)
O3 O 1.1823(4) 0.6581(3) 0.3565(2)
H14 H 0.204(8) 0.880(6) 0.508(5)
#END
