
#######################################################################
#
#                 Cambridge Crystallographic Data Centre
#                                CCDC
#
#######################################################################
#
# If this CIF has been generated from an entry in the Cambridge
# Structural Database, then it will include bibliographic, chemical,
# crystal, experimental, refinement or atomic coordinate data resulting
# from the CCDC's data processing and validation procedures.
#
#######################################################################

data_CSD_CIF_ESAYAY
_audit_creation_date 2004-06-04
_audit_creation_method CSD-ConQuest-V1
_database_code_CSD ESAYAY
_database_code_depnum_ccdc_archive 'CCDC 168993'
_chemical_formula_sum 'C17 H18 N2 O5'
_chemical_formula_moiety
;
C17 H18 N2 O5
;
_journal_coden_Cambridge 386
_journal_volume 28
_journal_year 2002
_journal_page_first 1315
_journal_name_full 'J.Chem.Ecol. '
loop_
_publ_author_name
"O.Fietz"
"K.Dettner"
"H.Gorls"
"K.Klemm"
"W.Boland"
_chemical_name_systematic
;
6-Methyl-3,5-dioxo-4-(1-(4-nitrophenyl)ethyl)-10-oxa-4-azatricyclo[5.2.1.0^2,6
^]decane
;
_chemical_melting_point 384.15
_cell_volume    803.939
_exptl_crystal_colour 'colorless'
_exptl_crystal_density_diffrn 1.365
_exptl_special_details
;
Absolute configuration

;
_exptl_crystal_description 'prism'
_exptl_crystal_preparation 'hexane/ether'
_diffrn_ambient_temperature 183
#These two values have been output from a single CSD field.
_refine_ls_R_factor_gt 0.0853
_refine_ls_wR_factor_gt 0.0853
_symmetry_cell_setting monoclinic
_symmetry_space_group_name_H-M 'P 21'
_symmetry_Int_Tables_number 4
loop_
_symmetry_equiv_pos_site_id
_symmetry_equiv_pos_as_xyz
1 x,y,z
2 -x,1/2+y,-z
_cell_length_a 11.3905(8)
_cell_length_b 6.5844(6)
_cell_length_c 12.0322(8)
_cell_angle_alpha 90
_cell_angle_beta 117.016(4)
_cell_angle_gamma 90
_cell_formula_units_Z 2
loop_
_atom_type_symbol
_atom_type_radius_bond
C 0.68
H 0.23
N 0.68
O 0.68
loop_
_atom_site_label
_atom_site_type_symbol
_atom_site_fract_x
_atom_site_fract_y
_atom_site_fract_z
O1 O 0.5280(2) 0.0833(3) 0.16626(19)
O2 O 0.5262(2) 0.1521(3) 0.47429(19)
O3 O 0.8078(2) -0.2273(4) 0.3873(2)
O4 O 1.0148(3) -0.7190(5) 0.9172(3)
O5 O 1.2018(2) -0.5790(5) 0.9604(3)
N1 N 0.6904(2) -0.0240(4) 0.4561(2)
N2 N 1.0810(3) -0.5825(5) 0.9043(3)
C1 C 0.5602(3) 0.0285(4) 0.4201(2)
C2 C 0.4736(3) -0.0867(4) 0.3034(2)
H1 H 0.409(3) -0.156(5) 0.312(3)
C3 C 0.4149(3) 0.0500(5) 0.1877(3)
H2 H 0.381(3) 0.182(6) 0.197(3)
C4 C 0.3209(3) -0.0733(6) 0.0741(3)
H3 H 0.272(3) 0.017(5) 0.007(3)
H4 H 0.259(3) -0.169(5) 0.088(3)
C5 C 0.4191(3) -0.1905(6) 0.0426(3)
H5 H 0.404(3) -0.330(5) 0.039(3)
H6 H 0.418(3) -0.142(6) -0.032(3)
C6 C 0.5505(3) -0.1287(5) 0.1497(3)
H7 H 0.626(3) -0.139(5) 0.133(3)
C7 C 0.5687(3) -0.2215(5) 0.2753(3)
C8 C 0.7035(3) -0.1639(5) 0.3759(3)
C9 C 0.5486(4) -0.4501(6) 0.2758(4)
H8 H 0.455(4) -0.486(6) 0.222(3)
H9 H 0.562(3) -0.494(6) 0.357(4)
H10 H 0.604(4) -0.525(6) 0.251(3)
C10 C 0.8031(3) 0.0624(5) 0.5658(3)
H11 H 0.758(3) 0.142(5) 0.602(3)
C11 C 0.8802(4) 0.2071(6) 0.5252(4)
H12 H 0.923(3) 0.133(6) 0.487(3)
H13 H 0.949(4) 0.270(7) 0.604(4)
H14 H 0.820(4) 0.305(7) 0.467(4)
C12 C 0.8804(3) -0.1065(6) 0.6541(3)
C13 C 0.8127(3) -0.2522(7) 0.6858(3)
H15 H 0.717(3) -0.241(6) 0.652(3)
C14 C 0.8778(4) -0.4064(7) 0.7672(4)
H16 H 0.832(4) -0.502(6) 0.783(4)
C15 C 1.0128(3) -0.4164(6) 0.8170(3)
C16 C 1.0830(3) -0.2766(6) 0.7878(3)
H17 H 1.175(3) -0.286(6) 0.820(3)
C17 C 1.0169(3) -0.1210(6) 0.7058(3)
H18 H 1.061(3) -0.018(6) 0.682(3)
#END
