
#######################################################################
#
#                 Cambridge Crystallographic Data Centre
#                                CCDC
#
#######################################################################
#
# If this CIF has been generated from an entry in the Cambridge
# Structural Database, then it will include bibliographic, chemical,
# crystal, experimental, refinement or atomic coordinate data resulting
# from the CCDC's data processing and validation procedures.
#
#######################################################################

data_CSD_CIF_ESEMUK
_audit_creation_date 2004-06-04
_audit_creation_method CSD-ConQuest-V1
_database_code_CSD ESEMUK
_database_code_depnum_ccdc_archive 'CCDC 216151'
_chemical_formula_sum 'C26 H25 N3 O3'
_chemical_formula_moiety
;
C26 H25 N3 O3
;
_journal_coden_Cambridge 261
_journal_volume 7
_journal_year 2004
_journal_page_first 41
_journal_name_full 'Comptes Rendus Chimie '
loop_
_publ_author_name
"M.David"
"J.-N.Denis"
"C.Philouze"
"A.Durif"
"Y.Vallee"
_chemical_name_systematic
;
(R,4R)-4-((N-Benzyl-N-hydroxyamino)-(1H-indol-3-yl)methyl)-3-benzyloxazolidin-
2-one
;
_chemical_melting_point 361.15
_cell_volume   2255.990
_exptl_crystal_colour 'colorless'
_exptl_crystal_density_diffrn 1.259
_exptl_crystal_description 'prism'
_diffrn_ambient_temperature 293.0
#These two values have been output from a single CSD field.
_refine_ls_R_factor_gt 0.0523
_refine_ls_wR_factor_gt 0.0523
_symmetry_cell_setting monoclinic
_symmetry_space_group_name_H-M 'P 21/c'
_symmetry_Int_Tables_number 14
loop_
_symmetry_equiv_pos_site_id
_symmetry_equiv_pos_as_xyz
1 x,y,z
2 x,1/2-y,1/2+z
3 -x,-y,-z
4 -x,-1/2+y,-1/2-z
_cell_length_a 8.711(4)
_cell_length_b 12.549(3)
_cell_length_c 20.653(4)
_cell_angle_alpha 90
_cell_angle_beta 92.21(4)
_cell_angle_gamma 90
_cell_formula_units_Z 4
loop_
_atom_type_symbol
_atom_type_radius_bond
C 0.68
H 0.23
N 0.68
O 0.68
loop_
_atom_site_label
_atom_site_type_symbol
_atom_site_fract_x
_atom_site_fract_y
_atom_site_fract_z
O1 O 1.1940(1) 0.13858(9) 0.77428(6)
O2 O 1.1957(2) 0.2977(1) 0.72608(7)
O3 O 0.6986(1) -0.01914(8) 0.83677(5)
N1 N 0.9727(2) 0.2017(1) 0.73478(6)
N2 N 0.4992(2) 0.2832(1) 0.79437(8)
N3 N 0.8307(1) 0.03136(9) 0.86924(6)
C1 C 1.1241(2) 0.2200(1) 0.74288(8)
C2 C 1.0840(2) 0.0531(1) 0.77946(8)
C3 C 0.9281(2) 0.1063(1) 0.77047(7)
C4 C 0.8559(2) 0.1333(1) 0.83546(7)
C5 C 0.5835(2) 0.1911(1) 0.79550(8)
C6 C 0.7213(2) 0.2072(1) 0.82797(7)
C7 C 0.7216(2) 0.3167(1) 0.84789(7)
C8 C 0.8296(2) 0.3824(1) 0.88121(8)
C9 C 0.7920(3) 0.4869(2) 0.8910(1)
C10 C 0.6532(3) 0.5293(2) 0.8686(1)
C11 C 0.5456(3) 0.4681(2) 0.8363(1)
C12 C 0.5819(2) 0.3615(1) 0.82592(8)
C13 C 0.7872(2) 0.0493(1) 0.93606(7)
C14 C 0.7817(2) -0.0515(1) 0.97540(7)
C15 C 0.8638(2) -0.1418(1) 0.96092(8)
C16 C 0.8577(3) -0.2313(1) 0.99942(9)
C17 C 0.7702(3) -0.2323(2) 1.05295(9)
C18 C 0.6882(2) -0.1434(2) 1.06819(8)
C19 C 0.6933(2) -0.0536(1) 1.02971(8)
C20 C 0.8732(2) 0.2754(1) 0.69864(7)
C21 C 0.7832(2) 0.2280(1) 0.64241(7)
C22 C 0.8292(2) 0.1377(2) 0.61079(9)
C23 C 0.7483(3) 0.1016(2) 0.5557(1)
C24 C 0.6242(3) 0.1554(3) 0.5316(1)
C25 C 0.5746(3) 0.2437(2) 0.5630(1)
C26 C 0.6522(2) 0.2802(2) 0.6191(1)
H1 H 0.73560 -0.07920 0.82170
H2 H 0.39950 0.29140 0.77480
H3 H 1.09790 0.00140 0.74670
H4 H 1.09400 0.02010 0.82080
H5 H 0.86040 0.06330 0.74450
H6 H 0.55100 0.12560 0.77650
H7 H 0.92580 0.35490 0.89650
H8 H 0.86340 0.53170 0.91390
H9 H 0.63240 0.60260 0.87580
H10 H 0.44980 0.49710 0.82140
H11 H 0.86000 0.09630 0.95630
H12 H 0.68840 0.08140 0.93530
H13 H 0.92540 -0.14220 0.92390
H14 H 0.91470 -0.29290 0.98860
H15 H 0.76640 -0.29410 1.07940
H16 H 0.62750 -0.14350 1.10540
H17 H 0.63540 0.00750 1.04060
H18 H 0.80230 0.30440 0.72770
H19 H 0.93540 0.33100 0.68260
H20 H 0.91700 0.09960 0.62670
H21 H 0.78060 0.03860 0.53470
H22 H 0.57180 0.13170 0.49310
H23 H 0.48640 0.28080 0.54650
H24 H 0.61520 0.34080 0.64120
H25 H 0.93230 0.17040 0.86050
#END
