
#######################################################################
#
#                 Cambridge Crystallographic Data Centre
#                                CCDC
#
#######################################################################
#
# If this CIF has been generated from an entry in the Cambridge
# Structural Database, then it will include bibliographic, chemical,
# crystal, experimental, refinement or atomic coordinate data resulting
# from the CCDC's data processing and validation procedures.
#
#######################################################################

data_CSD_CIF_ESEQOK
_audit_creation_date 2016-08-04
_audit_creation_method CSD-ConQuest-V1
_database_code_CSD ESEQOK
_database_code_depnum_ccdc_archive 'CCDC 1451258'
_chemical_formula_sum 'C27 H25 N1 O4'
_chemical_formula_moiety
;
C27 H25 N1 O4
;
_journal_coden_Cambridge 1220
_journal_volume 22
_journal_year 2016
_journal_page_first 6532
_journal_name_full 'Chem.-Eur.J. '
loop_
_publ_author_name
"Weidong Rao"
"J.W.Boyle"
"Philip Wai Hong Chan"
_chemical_name_systematic
;
2,3,4,4a,5,6,7,12b-octahydro-1H-benzo[a]cyclopenta[d]fluoren-13-yl 
4-nitrobenzoate
;
_cell_volume   2067.141
_exptl_crystal_colour 'colorless'
_exptl_crystal_density_diffrn 1.374
_exptl_crystal_description 'block'
_diffrn_ambient_temperature 103
#These two values have been output from a single CSD field.
_refine_ls_R_factor_gt 0.0402
_refine_ls_wR_factor_gt 0.0402
_symmetry_cell_setting monoclinic
_symmetry_space_group_name_H-M 'P 21/c'
_symmetry_Int_Tables_number 14
loop_
_symmetry_equiv_pos_site_id
_symmetry_equiv_pos_as_xyz
1 x,y,z
2 -x,1/2+y,1/2-z
3 -x,-y,-z
4 x,-1/2-y,-1/2+z
_cell_length_a 9.7939(6)
_cell_length_b 23.2886(12)
_cell_length_c 9.5441(5)
_cell_angle_alpha 90
_cell_angle_beta 108.2700(18)
_cell_angle_gamma 90
_cell_formula_units_Z 4
loop_
_atom_type_symbol
_atom_type_radius_bond
C 0.68
H 0.23
N 0.68
O 0.68
loop_
_atom_site_label
_atom_site_type_symbol
_atom_site_fract_x
_atom_site_fract_y
_atom_site_fract_z
C1 C 0.38810(13) 0.12535(5) 0.36676(13)
C2 C 0.39347(13) 0.11434(5) 0.52426(13)
H1 H 0.42370 0.07390 0.55300
C3 C 0.23234(13) 0.12269(5) 0.50978(13)
C4 C 0.17812(13) 0.16706(5) 0.37961(13)
H2 H 0.20200 0.20650 0.42190
C5 C 0.27475(13) 0.15438(5) 0.28732(13)
C6 C 0.24141(14) 0.17591(5) 0.13229(14)
H3 H 0.29080 0.15140 0.07840
H4 H 0.27880 0.21550 0.13410
C7 C 0.07964(15) 0.17574(6) 0.05044(15)
H5 H 0.06010 0.19820 -0.04180
H6 H 0.04690 0.13580 0.02370
C8 C -0.00360(14) 0.20151(6) 0.14608(15)
H7 H -0.10730 0.20240 0.08950
H8 H 0.02870 0.24150 0.17210
C9 C 0.01901(14) 0.16661(6) 0.28732(15)
H9 H -0.01320 0.12660 0.26170
H10 H -0.03920 0.18320 0.34540
C10 C 0.14711(14) 0.06563(5) 0.47982(14)
H11 H 0.20920 0.03330 0.52950
H12 H 0.11090 0.05770 0.37260
C11 C 0.02019(15) 0.07326(6) 0.54232(16)
H13 H -0.07090 0.07890 0.46120
H14 H 0.01030 0.03900 0.59960
C12 C 0.05534(14) 0.12688(6) 0.64303(15)
H15 H -0.01420 0.15810 0.60170
H16 H 0.05260 0.11750 0.74330
C13 C 0.20483(13) 0.14422(5) 0.64715(14)
C14 C 0.30349(14) 0.17275(5) 0.75189(14)
H17 H 0.28100 0.18560 0.83650
C15 C 0.44643(13) 0.18477(5) 0.73952(14)
C16 C 0.53765(14) 0.22403(5) 0.83521(14)
H18 H 0.50590 0.24330 0.90700
C17 C 0.67371(14) 0.23509(6) 0.82658(15)
H19 H 0.73360 0.26280 0.88980
C18 C 0.72221(14) 0.20552(6) 0.72516(15)
H20 H 0.81660 0.21200 0.72110
C19 C 0.63246(14) 0.16629(6) 0.62935(14)
H21 H 0.66690 0.14590 0.56100
C20 C 0.49294(13) 0.15649(5) 0.63215(13)
C21 C 0.51204(13) 0.05541(5) 0.27715(13)
C22 C 0.60604(13) 0.04794(5) 0.18192(13)
C23 C 0.64977(13) -0.00767(5) 0.16215(14)
H22 H 0.62470 -0.03880 0.21340
C24 C 0.72957(14) -0.01744(5) 0.06801(14)
H23 H 0.76300 -0.05490 0.05640
C25 C 0.75951(13) 0.02873(5) -0.00887(13)
C26 C 0.71593(14) 0.08424(5) 0.00628(14)
H24 H 0.73720 0.11490 -0.04920
C27 C 0.64008(13) 0.09380(5) 0.10521(14)
H25 H 0.61140 0.13160 0.12050
N1 N 0.84045(11) 0.01800(5) -0.11303(12)
O1 O 0.50080(9) 0.11142(4) 0.31013(10)
O2 O 0.45006(10) 0.01693(4) 0.31544(10)
O3 O 0.85965(11) 0.05833(4) -0.18655(12)
O4 O 0.88525(10) -0.03089(4) -0.11886(11)
#END
