
#######################################################################
#
#                 Cambridge Crystallographic Data Centre
#                                CCDC
#
#######################################################################
#
# If this CIF has been generated from an entry in the Cambridge
# Structural Database, then it will include bibliographic, chemical,
# crystal, experimental, refinement or atomic coordinate data resulting
# from the CCDC's data processing and validation procedures.
#
#######################################################################

data_CSD_CIF_ESIRIJ
_audit_creation_date 2016-08-05
_audit_creation_method CSD-ConQuest-V1
_database_code_CSD ESIRIJ
_database_code_depnum_ccdc_archive 'CCDC 1430312'
_chemical_formula_sum 'C7 H6 N2 O2'
_chemical_formula_moiety
;
C7 H6 N2 O2
;
_journal_coden_Cambridge 1441
_journal_volume 8
_journal_year 2016
_journal_page_first 1131
_journal_name_full 'Nature Chemistry '
loop_
_publ_author_name
"Gang He"
"Gang Lu"
"Zhengwei Guo"
"Peng Liu"
"Gong Chen"
_chemical_name_systematic
;
2-nitro-7-azabicyclo[4.2.0]octa-1,3,5-triene
;
_cell_volume    699.808
_exptl_crystal_colour 'yellow'
_exptl_crystal_density_diffrn 1.425
_exptl_crystal_preparation 'toluene/hexane'
_diffrn_ambient_temperature 293
#These two values have been output from a single CSD field.
_refine_ls_R_factor_gt 0.0558
_refine_ls_wR_factor_gt 0.0558
_symmetry_cell_setting monoclinic
_symmetry_space_group_name_H-M 'P 21/n'
_symmetry_Int_Tables_number 14
loop_
_symmetry_equiv_pos_site_id
_symmetry_equiv_pos_as_xyz
1 x,y,z
2 1/2-x,1/2+y,1/2-z
3 -x,-y,-z
4 -1/2+x,-1/2-y,-1/2+z
_cell_length_a 13.373(3)
_cell_length_b 3.9583(8)
_cell_length_c 14.290(3)
_cell_angle_alpha 90
_cell_angle_beta 112.31(3)
_cell_angle_gamma 90
_cell_formula_units_Z 4
loop_
_atom_type_symbol
_atom_type_radius_bond
C 0.68
H 0.23
N 0.68
O 0.68
loop_
_atom_site_label
_atom_site_type_symbol
_atom_site_fract_x
_atom_site_fract_y
_atom_site_fract_z
O1 O 0.08221(16) 0.1170(6) 0.73800(13)
O2 O 0.01613(15) 0.3121(6) 0.84316(14)
N1 N 0.08741(16) 0.1717(5) 0.82382(14)
N2 N 0.2457(2) 0.0996(6) 1.16125(16)
H1 H 0.280(2) 0.260(5) 1.2048(18)
C1 C 0.18435(15) 0.0674(5) 0.90869(15)
C2 C 0.26992(18) -0.0803(6) 0.89051(19)
H2 H 0.26510 -0.11530 0.82460
C3 C 0.3611(2) -0.1732(6) 0.9707(2)
H3 H 0.41780 -0.26990 0.95760
C4 C 0.3727(2) -0.1294(7) 1.0707(2)
H4 H 0.43470 -0.19580 1.12460
C5 C 0.2862(2) 0.0190(6) 1.08496(18)
C6 C 0.19323(17) 0.1208(5) 1.00547(16)
C7 C 0.1463(2) 0.2478(7) 1.07988(17)
H5 H 0.07900 0.13990 1.07400
H6 H 0.14110 0.49180 1.08240
#END
