
#######################################################################
#
#                 Cambridge Crystallographic Data Centre
#                                CCDC
#
#######################################################################
#
# If this CIF has been generated from an entry in the Cambridge
# Structural Database, then it will include bibliographic, chemical,
# crystal, experimental, refinement or atomic coordinate data resulting
# from the CCDC's data processing and validation procedures.
#
#######################################################################

data_CSD_CIF_ESUJAF
_audit_creation_date 2016-08-29
_audit_creation_method CSD-ConQuest-V1
_database_code_CSD ESUJAF
_database_code_depnum_ccdc_archive 'CCDC 1416377'
_chemical_formula_sum 'C14 H18 N2 O6'
_chemical_formula_moiety
;
C14 H18 N2 O6
;
_journal_coden_Cambridge 917
_journal_volume 11
_journal_year 2015
_journal_page_first 2577
_journal_name_full 'Beilstein J.Org.Chem. '
loop_
_publ_author_name
"J.I.Martinez"
"Uxue Uria"
"M.Muniz"
"E.Reyes"
"L.Carrillo"
"J.L.Vicario"
_chemical_name_systematic
;
ethyl 2-ethyl-2,4-dinitro-3-phenylbutanoate
;
_cell_volume   1557.676
_exptl_crystal_colour 'colorless'
_exptl_crystal_density_diffrn 1.323
_exptl_special_details
;
Absolute configuration

;
_exptl_crystal_description 'prism'
_diffrn_ambient_temperature 298
_refine_special_details
;
C3B,C4B,O2B and C3A,C4A,O2A disordered over two sites with occupancies 
0.704:0.296.
;
#These two values have been output from a single CSD field.
_refine_ls_R_factor_gt 0.0502
_refine_ls_wR_factor_gt 0.0502
_symmetry_cell_setting orthorhombic
_symmetry_space_group_name_H-M 'P 21 21 21'
_symmetry_Int_Tables_number 19
loop_
_symmetry_equiv_pos_site_id
_symmetry_equiv_pos_as_xyz
1 x,y,z
2 1/2-x,-y,1/2+z
3 1/2+x,1/2-y,-z
4 -x,1/2+y,1/2-z
_cell_length_a 8.5747(1)
_cell_length_b 9.9331(1)
_cell_length_c 18.2883(1)
_cell_angle_alpha 90
_cell_angle_beta 90
_cell_angle_gamma 90
_cell_formula_units_Z 4
loop_
_atom_type_symbol
_atom_type_radius_bond
C 0.68
H 0.23
N 0.68
O 0.68
loop_
_atom_site_label
_atom_site_type_symbol
_atom_site_fract_x
_atom_site_fract_y
_atom_site_fract_z
O1 O 0.9315(3) 0.0912(2) 0.27687(9)
N1 N 0.9294(3) 0.1728(2) 0.22760(11)
O2 O 0.9076(3) 0.2757(2) 0.04900(11)
C1 C 1.0646(3) 0.0708(3) 0.12410(14)
H1 H 1.09160 -0.00850 0.15230
H2 H 1.05560 0.04290 0.07340
N2 N 0.5439(3) -0.0989(3) 0.19924(14)
O3 O 0.9519(4) 0.2921(2) 0.23476(13)
O4 O 0.7059(3) 0.2818(3) 0.12814(17)
C2 C 0.8289(4) -0.2365(3) -0.01019(15)
H3 H 0.88010 -0.31670 -0.02090
O5 O 0.4136(4) -0.1064(4) 0.1787(2)
C3 C 0.6791(3) 0.0015(2) 0.02211(13)
H4 H 0.62760 0.08160 0.03260
C4 C 0.7408(4) -0.1734(3) -0.06290(14)
H5 H 0.73210 -0.21090 -0.10930
C5 C 0.6660(3) -0.0552(3) -0.04669(13)
H6 H 0.60600 -0.01270 -0.08220
C6 C 0.8451(3) 0.2376(2) 0.10324(12)
C7 C 0.8413(3) -0.1804(3) 0.05896(13)
H7 H 0.89950 -0.22440 0.09460
C8 C 0.7888(2) -0.0003(2) 0.15155(11)
H8 H 0.83810 -0.07010 0.18160
C9 C 1.1992(4) 0.1700(4) 0.1297(2)
H9 H 1.21960 0.18940 0.18020
H10 H 1.17230 0.25160 0.10460
H11 H 1.29060 0.13140 0.10770
C10 C 0.9038(3) 0.1196(2) 0.14963(11)
C11 C 0.6316(3) 0.0310(3) 0.18755(15)
H12 H 0.64830 0.07560 0.23410
H13 H 0.57150 0.09060 0.15640
C12 C 0.6186(8) 0.3933(6) 0.0955(3)
H14 H 0.64000 0.39850 0.04350
H15 H 0.50750 0.37940 0.10210
C13 C 0.7687(3) -0.0604(2) 0.07569(11)
O6 O 0.6066(4) -0.1894(4) 0.2290(2)
C14 C 0.6668(9) 0.5172(7) 0.1314(4)
H16 H 0.66410 0.50490 0.18350
H17 H 0.59720 0.58870 0.11800
H18 H 0.77100 0.53970 0.11650
C15? C 0.5479(18) 0.4684(15) 0.1148(8)
H19? H 0.56700 0.50300 0.16300
H20? H 0.47420 0.39580 0.11760
H21? H 0.50640 0.53870 0.08450
O7? O 0.7421(14) 0.3144(12) 0.1402(6)
C16? C 0.6964(13) 0.4184(10) 0.0829(5)
H22? H 0.77360 0.48950 0.07890
H23? H 0.68040 0.37760 0.03530
#END
