
#######################################################################
#
#                 Cambridge Crystallographic Data Centre
#                                CCDC
#
#######################################################################
#
# If this CIF has been generated from an entry in the Cambridge
# Structural Database, then it will include bibliographic, chemical,
# crystal, experimental, refinement or atomic coordinate data resulting
# from the CCDC's data processing and validation procedures.
#
#######################################################################

data_CSD_CIF_ESUQOZ
_audit_creation_date 2011-09-07
_audit_creation_method CSD-ConQuest-V1
_database_code_CSD ESUQOZ
_database_code_depnum_ccdc_archive 'CCDC 807038'
_chemical_formula_sum 'C21 H23 N3 O1'
_chemical_formula_moiety
;
C21 H23 N3 O1
;
_journal_coden_Cambridge 1220
_journal_volume 17
_journal_year 2011
_journal_page_first 4076
_journal_name_full 'Chem.-Eur.J. '
loop_
_publ_author_name
"D.Worgull"
"G.Dickmeiss"
"K.L.Jensen"
"P.T.Franke"
"N.Holub"
"K.A.Jrgensen"
_chemical_name_systematic
;
(3-Ethyl-1-phenyloctahydro-2,1-benzoxazol-6-yl)(prop-2-yn-1-yl)malononitrile
;
_cell_volume   1826.997
_exptl_crystal_colour 'colorless'
_exptl_crystal_density_diffrn 1.212
_exptl_crystal_description 'prism'
_diffrn_ambient_temperature 100
#These two values have been output from a single CSD field.
_refine_ls_R_factor_gt 0.0345
_refine_ls_wR_factor_gt 0.0345
_symmetry_cell_setting orthorhombic
_symmetry_space_group_name_H-M 'P 21 21 21'
_symmetry_Int_Tables_number 19
loop_
_symmetry_equiv_pos_site_id
_symmetry_equiv_pos_as_xyz
1 x,y,z
2 1/2+x,1/2-y,-z
3 -x,1/2+y,1/2-z
4 1/2-x,-y,1/2+z
_cell_length_a 8.5084(2)
_cell_length_b 12.9911(3)
_cell_length_c 16.5289(4)
_cell_angle_alpha 90
_cell_angle_beta 90
_cell_angle_gamma 90
_cell_formula_units_Z 4
loop_
_atom_type_symbol
_atom_type_radius_bond
C 0.68
H 0.23
N 0.68
O 0.68
loop_
_atom_site_label
_atom_site_type_symbol
_atom_site_fract_x
_atom_site_fract_y
_atom_site_fract_z
O1 O 0.43141(6) 0.20690(4) 0.14681(3)
N1 N 0.43536(6) 0.22938(4) 0.05972(3)
C1 C 0.52246(6) 0.32664(4) 0.04971(3)
H1 H 0.63500 0.31100 0.03730
C2 C 0.45912(6) 0.40254(4) -0.01271(3)
H2 H 0.34990 0.42270 0.00050
H3 H 0.46070 0.37180 -0.06750
C3 C 0.55625(8) -0.03188(5) -0.07872(4)
H4 H 0.57740 -0.09070 -0.11110
C4 C 0.50988(7) -0.04269(5) 0.00147(4)
H5 H 0.50170 -0.10960 0.02420
C5 C 0.47523(7) 0.04279(4) 0.04907(4)
H6 H 0.44330 0.03380 0.10370
C6 C 0.48749(6) 0.14221(4) 0.01632(3)
C7 C 0.56946(6) 0.49650(4) -0.00851(3)
H7 H 0.67850 0.46960 -0.01630
C8 C 0.53871(6) 0.57334(4) -0.07925(3)
C9 C 0.36631(7) 0.61250(5) -0.08250(4)
H8 H 0.29510 0.55300 -0.09020
H9 H 0.33960 0.64510 -0.03010
C10 C 0.34000(7) 0.68672(5) -0.14757(4)
C11 C 0.32209(9) 0.74795(6) -0.20074(5)
H10 H 0.30790 0.79660 -0.24300
C12 C 0.64772(7) 0.66182(4) -0.07278(4)
N2 N 0.73380(8) 0.72951(5) -0.06729(4)
C13 C 0.57757(7) 0.52008(4) -0.15568(3)
N3 N 0.60872(8) 0.47455(5) -0.21322(4)
C14 C 0.56620(8) 0.54743(5) 0.07539(3)
H11 H 0.45880 0.57270 0.08710
H12 H 0.63860 0.60710 0.07610
C15 C 0.61607(7) 0.46935(5) 0.14055(4)
H13 H 0.72740 0.44960 0.13260
H14 H 0.60540 0.50050 0.19500
C16 C 0.51122(6) 0.37474(5) 0.13390(3)
H15 H 0.40030 0.39840 0.14130
C17 C 0.53377(7) 0.28010(5) 0.18677(3)
H16 H 0.49150 0.29480 0.24200
C18 C 0.70177(8) 0.24072(6) 0.19438(4)
H17 H 0.76590 0.29280 0.22300
H18 H 0.74670 0.23160 0.13960
C19 C 0.71183(10) 0.13876(7) 0.23999(5)
H19 H 0.65210 0.08610 0.21070
H20 H 0.66780 0.14730 0.29440
H21 H 0.82200 0.11740 0.24410
C20 C 0.53884(7) 0.15331(4) -0.06383(3)
H22 H 0.55160 0.22010 -0.08620
C21 C 0.57112(7) 0.06692(5) -0.11077(4)
H23 H 0.60370 0.07540 -0.16530
#END
