
#######################################################################
#
#                 Cambridge Crystallographic Data Centre
#                                CCDC
#
#######################################################################
#
# If this CIF has been generated from an entry in the Cambridge
# Structural Database, then it will include bibliographic, chemical,
# crystal, experimental, refinement or atomic coordinate data resulting
# from the CCDC's data processing and validation procedures.
#
#######################################################################

data_CSD_CIF_ETAGIQ
_audit_creation_date 2011-09-14
_audit_creation_method CSD-ConQuest-V1
_database_code_CSD ETAGIQ
_database_code_depnum_ccdc_archive 'CCDC 836852'
_chemical_formula_sum 'C24 H26 N2 O4'
_chemical_formula_moiety
;
C24 H26 N2 O4
;
_journal_coden_Cambridge 4
_journal_volume 133
_journal_year 2011
_journal_page_first 1769
_journal_name_full 'J.Am.Chem.Soc. '
loop_
_publ_author_name
"A.M.Jadhav"
"S.Bhunia"
"Hsin-Yi Liao"
"Rai-Shung Liu"
_chemical_name_systematic
;
6-t-Butyl-2-(2-(4-t-butyl-2-nitrophenyl)-2-oxoethylidene)-1,2-dihydro-3H-indol
-3-one
;
_cell_volume   1052.893
_exptl_crystal_colour 'red'
_exptl_crystal_density_diffrn 1.282
_exptl_crystal_description 'tabular'
_diffrn_ambient_temperature 100
#These two values have been output from a single CSD field.
_refine_ls_R_factor_gt 0.0367
_refine_ls_wR_factor_gt 0.0367
_symmetry_cell_setting triclinic
_symmetry_space_group_name_H-M 'P -1'
_symmetry_Int_Tables_number 2
loop_
_symmetry_equiv_pos_site_id
_symmetry_equiv_pos_as_xyz
1 x,y,z
2 -x,-y,-z
_cell_length_a 9.0389(14)
_cell_length_b 10.0864(15)
_cell_length_c 13.588(2)
_cell_angle_alpha 72.580(4)
_cell_angle_beta 88.295(4)
_cell_angle_gamma 63.795(4)
_cell_formula_units_Z 2
loop_
_atom_type_symbol
_atom_type_radius_bond
C 0.68
H 0.23
N 0.68
O 0.68
loop_
_atom_site_label
_atom_site_type_symbol
_atom_site_fract_x
_atom_site_fract_y
_atom_site_fract_z
C1 C 1.2209(2) 1.2129(2) 0.58150(12)
H1 H 1.27560 1.10190 0.58800
H2 H 1.29750 1.25770 0.55840
H3 H 1.12150 1.26710 0.53060
C2 C 1.17125(17) 1.23162(16) 0.68614(10)
C3 C 1.05332(16) 1.16220(14) 0.72828(10)
C4 C 0.99459(16) 1.09471(14) 0.67344(10)
H4 H 1.02640 1.09210 0.60650
C5 C 0.88989(16) 1.03152(14) 0.71662(10)
C6 C 0.83817(15) 1.03078(14) 0.81414(10)
C7 C 0.74188(16) 0.94950(15) 0.87250(9)
C8 C 0.78996(17) 0.79134(15) 0.87498(10)
H5 H 0.86030 0.75210 0.82660
C9 C 0.73810(16) 0.69728(15) 0.94399(10)
C10 C 0.62819(16) 0.59196(14) 1.07955(10)
C11 C 0.54722(16) 0.57409(15) 1.16687(10)
H6 H 0.47610 0.66170 1.18710
C12 C 0.57277(16) 0.42368(15) 1.22472(10)
C13 C 0.50047(17) 0.39045(15) 1.32732(10)
C14 C 0.39985(18) 0.53802(16) 1.35645(10)
H7 H 0.47140 0.58550 1.36350
H8 H 0.35650 0.51120 1.42250
H9 H 0.30710 0.61200 1.30200
C15 C 0.3875(2) 0.31609(19) 1.31807(11)
H10 H 0.34550 0.28950 1.38470
H11 H 0.45110 0.22130 1.29940
H12 H 0.29400 0.39000 1.26420
C16 C 0.64460(19) 0.27663(17) 1.41450(11)
H13 H 0.71880 0.32260 1.41840
H14 H 0.70670 0.17840 1.39950
H15 H 0.60000 0.25650 1.48100
C17 C 0.67265(17) 0.29772(15) 1.18986(10)
H16 H 0.68540 0.19660 1.22750
C18 C 0.75265(17) 0.31669(15) 1.10264(10)
H17 H 0.82010 0.23010 1.08040
C19 C 0.73228(17) 0.46584(15) 1.04781(10)
C20 C 1.33006(19) 1.14545(19) 0.76403(12)
H18 H 1.38240 1.03420 0.77130
H19 H 1.30140 1.15890 0.83170
H20 H 1.40740 1.18850 0.73870
C21 C 1.00030(16) 1.16502(15) 0.82572(10)
H21 H 1.03740 1.21120 0.86450
C22 C 0.89484(16) 1.10191(14) 0.86692(10)
H22 H 0.86020 1.10720 0.93290
C23 C 0.80976(17) 0.52307(15) 0.9607(1)
C24 C 1.0887(2) 1.40491(18) 0.67657(14)
H23 H 1.16450 1.44940 0.65010
H24 H 1.06290 1.41650 0.74500
H25 H 0.98600 1.45980 0.62850
N1 N 0.62884(14) 0.72950(12) 1.01431(8)
H26 H 0.56700 0.82330 1.01860
N2 N 0.82589(14) 0.97084(13) 0.65118(8)
O1 O 0.91385(13) 0.45359(11) 0.91182(7)
O2 O 0.91828(14) 0.90657(13) 0.59464(8)
O3 O 0.68175(12) 0.99169(12) 0.65571(7)
O4 O 0.63860(12) 1.01254(11) 0.92606(7)
#END
