
#######################################################################
#
#                 Cambridge Crystallographic Data Centre
#                                CCDC
#
#######################################################################
#
# If this CIF has been generated from an entry in the Cambridge
# Structural Database, then it will include bibliographic, chemical,
# crystal, experimental, refinement or atomic coordinate data resulting
# from the CCDC's data processing and validation procedures.
#
#######################################################################

data_CSD_CIF_ETAHIR
_audit_creation_date 2011-09-15
_audit_creation_method CSD-ConQuest-V1
_database_code_CSD ETAHIR
_database_code_depnum_ccdc_archive 'CCDC 796154'
_chemical_formula_sum 'C27 H22 N2 O4'
_chemical_formula_moiety
;
C27 H22 N2 O4
;
_journal_coden_Cambridge 4
_journal_volume 133
_journal_year 2011
_journal_page_first 1781
_journal_name_full 'J.Am.Chem.Soc. '
loop_
_publ_author_name
"Fushun Liang"
"Shaoxia Lin"
"Ying Wei"
_chemical_name_systematic
;
6-(4-Methylphenyl)-7-(2-nitrobenzylidene)-5-phenyl-3,5,6,7-tetrahydrofuro[3,2-
c]pyridin-4(2H)-one
;
_cell_volume   1097.911
_exptl_crystal_density_diffrn 1.326
_diffrn_ambient_temperature 293
#These two values have been output from a single CSD field.
_refine_ls_R_factor_gt 0.0553
_refine_ls_wR_factor_gt 0.0553
_symmetry_cell_setting triclinic
_symmetry_space_group_name_H-M 'P -1'
_symmetry_Int_Tables_number 2
loop_
_symmetry_equiv_pos_site_id
_symmetry_equiv_pos_as_xyz
1 x,y,z
2 -x,-y,-z
_cell_length_a 10.2580(17)
_cell_length_b 10.8760(18)
_cell_length_c 12.051(2)
_cell_angle_alpha 112.395(2)
_cell_angle_beta 97.263(2)
_cell_angle_gamma 111.677(2)
_cell_formula_units_Z 2
loop_
_atom_type_symbol
_atom_type_radius_bond
C 0.68
H 0.23
N 0.68
O 0.68
loop_
_atom_site_label
_atom_site_type_symbol
_atom_site_fract_x
_atom_site_fract_y
_atom_site_fract_z
O1 O 0.18524(17) 0.79943(18) 0.49370(15)
N1 N 0.05658(19) 0.4281(2) 0.15139(17)
C1 C 0.2170(2) 0.5331(2) 0.2016(2)
H1 H 0.24560 0.55120 0.13260
C2 C 0.3074(2) 0.4634(2) 0.2395(2)
O2 O 0.6262(2) 0.8602(2) 0.47472(19)
O3 O -0.16983(18) 0.3429(2) 0.17800(17)
C3 C 0.4653(2) 0.8301(2) 0.2553(2)
C4 C 0.2549(2) 0.6837(3) 0.3097(2)
C5 C 0.1543(3) 0.6784(3) 0.3831(2)
C6 C -0.0393(2) 0.4358(3) 0.2204(2)
C7 C 0.3720(2) 0.8103(3) 0.3369(2)
H2 H 0.39690 0.89290 0.41360
C8 C 0.0086(2) 0.3024(3) 0.0297(2)
N2 N 0.6855(2) 0.8577(2) 0.3938(2)
C9 C 0.0207(2) 0.5645(3) 0.3443(2)
C10 C 0.4782(3) 0.3391(3) 0.3113(2)
C11 C 0.4257(3) 0.4640(3) 0.1969(2)
H3 H 0.44960 0.50610 0.14360
C12 C 0.6119(3) 0.8558(3) 0.2803(2)
C13 C 0.4035(3) 0.8261(3) 0.1436(2)
H4 H 0.30560 0.80850 0.12290
C14 C 0.0342(3) 0.3239(3) -0.0724(2)
H5 H 0.08340 0.42030 -0.06230
C15 C 0.5103(3) 0.4025(3) 0.2325(3)
H6 H 0.58980 0.40440 0.20260
O4 O 0.8060(2) 0.8596(3) 0.4033(2)
C16 C -0.0621(3) 0.6069(3) 0.4349(2)
H7 H -0.09870 0.53460 0.46600
H8 H -0.14390 0.61710 0.39640
C17 C 0.3603(3) 0.3406(3) 0.3558(2)
H9 H 0.33800 0.30040 0.41070
C18 C 0.2754(3) 0.4006(3) 0.3201(2)
H10 H 0.19600 0.39900 0.35030
C19 C -0.0627(3) 0.1576(3) 0.0131(2)
H11 H -0.07750 0.14140 0.08190
C20 C -0.0133(3) 0.2020(3) -0.1906(2)
H12 H 0.00480 0.21700 -0.25920
C21 C -0.1113(3) 0.0381(3) -0.1048(3)
H13 H -0.16160 -0.05850 -0.11570
C22 C 0.0586(3) 0.7573(3) 0.5398(3)
H14 H 0.02350 0.83220 0.55970
H15 H 0.08640 0.74890 0.61560
C23 C 0.4824(3) 0.8473(3) 0.0629(3)
H16 H 0.43770 0.84360 -0.01120
C24 C 0.5661(3) 0.2671(3) 0.3470(3)
H17 H 0.52770 0.22960 0.40240
H18 H 0.66770 0.33990 0.38920
H19 H 0.55860 0.18620 0.27220
C25 C 0.6267(4) 0.8739(4) 0.0914(3)
H20 H 0.68040 0.88970 0.03720
C26 C 0.6922(3) 0.8771(3) 0.1995(3)
H21 H 0.78980 0.89350 0.21840
C27 C -0.0864(3) 0.0602(3) -0.2060(3)
H22 H -0.11930 -0.02120 -0.28540
#END
