
#######################################################################
#
#                 Cambridge Crystallographic Data Centre
#                                CCDC
#
#######################################################################
#
# If this CIF has been generated from an entry in the Cambridge
# Structural Database, then it will include bibliographic, chemical,
# crystal, experimental, refinement or atomic coordinate data resulting
# from the CCDC's data processing and validation procedures.
#
#######################################################################

data_CSD_CIF_ETAVOK
_audit_creation_date 2004-06-30
_audit_creation_method CSD-ConQuest-V1
_database_code_CSD ETAVOK
_database_code_depnum_ccdc_archive 'CCDC 233698'
_database_code_depnum_ccdc_journal 1267/1127
_chemical_formula_sum 'C16 H19 N3 O5'
_chemical_formula_moiety
;
C16 H19 N3 O5
;
_journal_coden_Cambridge 1267
_journal_volume 218
_journal_year 2003
_journal_page_first 483
_journal_name_full 'Z.Kristallogr.-New Cryst.Struct. '
loop_
_publ_author_name
"L.Van Meervelt"
"K.Uytterhoeven"
_chemical_name_systematic
;
2-Acetonyl-5-benzyl-4,6-dimethoxy-5-nitro-2,5-dihydropyrimidine
;
_cell_volume   1718.469
_exptl_crystal_colour 'yellow'
_exptl_crystal_density_diffrn 1.288
_exptl_crystal_description 'blocks'
_diffrn_ambient_temperature 289
#These two values have been output from a single CSD field.
_refine_ls_R_factor_gt 0.044
_refine_ls_wR_factor_gt 0.044
_symmetry_cell_setting monoclinic
_symmetry_space_group_name_H-M 'P 21/c'
_symmetry_Int_Tables_number 14
loop_
_symmetry_equiv_pos_site_id
_symmetry_equiv_pos_as_xyz
1 x,y,z
2 -x,1/2+y,1/2-z
3 -x,-y,-z
4 x,-1/2-y,-1/2+z
_cell_length_a 12.010(1)
_cell_length_b 11.877(1)
_cell_length_c 12.110(1)
_cell_angle_alpha 90
_cell_angle_beta 95.83(2)
_cell_angle_gamma 90
_cell_formula_units_Z 4
loop_
_atom_type_symbol
_atom_type_radius_bond
C 0.68
H 0.23
N 0.68
O 0.68
loop_
_atom_site_label
_atom_site_type_symbol
_atom_site_fract_x
_atom_site_fract_y
_atom_site_fract_z
N1 N 0.72628(15) -0.23856(15) 0.75190(15)
C1 C 0.66412(17) -0.15440(18) 0.68393(19)
H1 H 0.62980 -0.19400 0.61810
N2 N 0.72379(15) -0.05941(15) 0.64365(14)
C2 C 0.8249(2) -0.04497(18) 0.67771(18)
C3 C 0.89422(16) -0.11705(19) 0.76140(18)
C4 C 0.82790(19) -0.22097(18) 0.78350(17)
C5 C 0.56786(18) -0.1107(2) 0.7451(2)
H2 H 0.52970 -0.17390 0.77530
H3 H 0.59770 -0.06370 0.80670
C6 C 0.4852(2) -0.0436(2) 0.6701(3)
O1 O 0.4160(2) -0.0920(2) 0.6102(3)
C7 C 0.4936(3) 0.0799(3) 0.6677(3)
H4 H 0.43250 0.11000 0.61950
H5 H 0.56310 0.10110 0.64080
H6 H 0.49080 0.10910 0.74130
O2 O 0.88686(12) 0.04136(13) 0.64574(13)
C8 C 0.8287(2) 0.1257(2) 0.5756(2)
H7 H 0.88210 0.17630 0.54870
H8 H 0.77880 0.16700 0.61760
H9 H 0.78660 0.08960 0.51380
N3 N 0.99589(17) -0.15918(19) 0.7049(2)
O3 O 0.97456(16) -0.2093(2) 0.61813(18)
O4 O 1.08920(16) -0.14188(18) 0.74930(19)
C9 C 0.93355(19) -0.0520(2) 0.8686(2)
H10 H 0.97810 -0.10150 0.91920
H11 H 0.98070 0.01040 0.85060
C10 C 0.83585(19) -0.0073(2) 0.92494(19)
C11 C 0.7880(2) -0.0707(2) 1.0029(2)
H12 H 0.81660 -0.14160 1.02200
C12 C 0.6980(3) -0.0297(3) 1.0526(2)
H13 H 0.66740 -0.07250 1.10630
C13 C 0.6534(3) 0.0732(3) 1.0237(3)
H14 H 0.59120 0.09920 1.05590
C14 C 0.7006(3) 0.1384(2) 0.9470(3)
H15 H 0.67130 0.20910 0.92820
C15 C 0.7920(2) 0.0984(2) 0.8979(2)
H16 H 0.82420 0.14270 0.84640
O5 O 0.89254(12) -0.29424(14) 0.84536(13)
C16 C 0.8401(2) -0.3968(2) 0.8754(2)
H17 H 0.89460 -0.44400 0.91630
H18 H 0.80950 -0.43520 0.80950
H19 H 0.78110 -0.37970 0.92060
#END
