
#######################################################################
#
#                 Cambridge Crystallographic Data Centre
#                                CCDC
#
#######################################################################
#
# If this CIF has been generated from an entry in the Cambridge
# Structural Database, then it will include bibliographic, chemical,
# crystal, experimental, refinement or atomic coordinate data resulting
# from the CCDC's data processing and validation procedures.
#
#######################################################################

data_CSD_CIF_ETICEP
_audit_creation_date 2004-06-30
_audit_creation_method CSD-ConQuest-V1
_database_code_CSD ETICEP
_database_code_depnum_ccdc_archive 'CCDC 236097'
_chemical_formula_sum 'C13 H13 N1 O4'
_chemical_formula_moiety
;
C13 H13 N1 O4
;
_journal_coeditor_code "IUCr YA6194"
_journal_coden_Cambridge 1370
_journal_volume 60
_journal_year 2004
_journal_page_first o419
_journal_name_full 'Acta Crystallogr.,Sect.E:Struct.Rep.Online '
loop_
_publ_author_name
"Fangjun Huo"
"Caixia Yin"
"Wei Guo"
"Chizhong Xia"
"Pin Yang"
_chemical_name_systematic
;
2-(Hydroxy(4-nitrophenyl)methyl)-cyclohex-2-en-1-one
;
_chemical_melting_point 362
_cell_volume   1201.288
_exptl_crystal_colour 'colorless'
_exptl_crystal_density_diffrn 1.367
_exptl_crystal_description 'pillar'
_exptl_crystal_preparation 'ethyl acetate/petroleum ether'
_diffrn_ambient_temperature 298
#These two values have been output from a single CSD field.
_refine_ls_R_factor_gt 0.056
_refine_ls_wR_factor_gt 0.056
_symmetry_cell_setting monoclinic
_symmetry_space_group_name_H-M 'P 21/n'
_symmetry_Int_Tables_number 14
loop_
_symmetry_equiv_pos_site_id
_symmetry_equiv_pos_as_xyz
1 x,y,z
2 1/2+x,1/2-y,1/2+z
3 -x,-y,-z
4 -1/2-x,-1/2+y,-1/2-z
_cell_length_a 6.7202(16)
_cell_length_b 10.131(3)
_cell_length_c 17.813(4)
_cell_angle_alpha 90
_cell_angle_beta 97.884(4)
_cell_angle_gamma 90
_cell_formula_units_Z 4
loop_
_atom_type_symbol
_atom_type_radius_bond
C 0.68
H 0.23
N 0.68
O 0.68
loop_
_atom_site_label
_atom_site_type_symbol
_atom_site_fract_x
_atom_site_fract_y
_atom_site_fract_z
N1 N 1.2210(4) 0.9545(2) 0.89306(12)
C1 C 1.0828(4) 0.8466(2) 0.86600(13)
C2 C 0.6730(3) 0.5416(2) 0.78101(13)
H1 H 0.73000 0.49280 0.74150
C3 C 0.6266(4) 0.4443(2) 0.84077(13)
O1 O 0.9278(3) 0.33254(17) 0.83014(12)
C4 C 1.0070(4) 0.6590(2) 0.78803(13)
H2 H 1.04250 0.59910 0.75260
C5 C 0.8248(4) 0.6466(2) 0.81357(12)
O2 O 0.4904(2) 0.59957(17) 0.74825(9)
H3 H 0.51410 0.66170 0.72130
O3 O 1.3845(3) 0.95851(18) 0.87022(12)
C6 C 0.9003(4) 0.8371(2) 0.89301(13)
H4 H 0.86450 0.89720 0.92830
O4 O 1.1677(3) 1.03383(19) 0.93766(12)
C7 C 0.7776(4) 0.3396(2) 0.86083(14)
C8 C 0.7733(4) 0.7365(2) 0.86636(13)
H5 H 0.65000 0.72840 0.88410
C9 C 1.1405(4) 0.7596(2) 0.81411(14)
H6 H 1.26450 0.76740 0.79690
C10 C 0.4580(4) 0.4432(2) 0.87028(15)
H7 H 0.36250 0.50690 0.85350
C11 C 0.7267(5) 0.2352(3) 0.91566(18)
H8 H 0.66650 0.16050 0.88700
H9 H 0.85020 0.20490 0.94530
C12 C 0.5855(4) 0.2813(3) 0.96908(17)
H10 H 0.54270 0.20600 0.99650
H11 H 0.65590 0.34170 1.00580
C13 C 0.4077(5) 0.3478(3) 0.92858(17)
H12 H 0.33870 0.39440 0.96500
H13 H 0.31640 0.28170 0.90420
#END
