
#######################################################################
#
#                 Cambridge Crystallographic Data Centre
#                                CCDC
#
#######################################################################
#
# If this CIF has been generated from an entry in the Cambridge
# Structural Database, then it will include bibliographic, chemical,
# crystal, experimental, refinement or atomic coordinate data resulting
# from the CCDC's data processing and validation procedures.
#
#######################################################################

data_CSD_CIF_ETNIBZ
_audit_creation_date 1972-03-21
_audit_creation_method CSD-ConQuest-V1
_database_code_CSD ETNIBZ
_database_code_depnum_ccdc_archive 'CCDC 1150545'
_chemical_formula_sum 'C9 H8 N2 O6'
_chemical_formula_moiety
;
C9 H8 N2 O6
;
_journal_coden_Cambridge 89
_journal_year 1971
_journal_page_first 2358
_journal_name_full 'J.Chem.Soc.A '
loop_
_publ_author_name
"D.L.Hughes"
"J.Trotter"
_chemical_name_systematic
;
Ethyl 3,5-dinitrobenzoate
;
_cell_volume   1054.865
_exptl_crystal_density_diffrn 1.512
_exptl_special_details
;
COORDINATES OF H(21)-H(25) APPEAR TO BE IN ERROR

;
_diffrn_ambient_temperature ?
_diffrn_special_details
;
The study was carried out at room temperature,in the range 283-303K

;
_refine_special_details
;
PARTIAL DISORDER OF AN ETHYL GROUP.

;
#These two values have been output from a single CSD field.
_refine_ls_R_factor_gt 0.061
_refine_ls_wR_factor_gt 0.061
_symmetry_cell_setting monoclinic
_symmetry_space_group_name_H-M 'P 21/c'
_symmetry_Int_Tables_number 14
loop_
_symmetry_equiv_pos_site_id
_symmetry_equiv_pos_as_xyz
1 x,y,z
2 -x,1/2+y,1/2-z
3 -x,-y,-z
4 x,-1/2-y,-1/2+z
_cell_length_a 13.856(4)
_cell_length_b 4.770(1)
_cell_length_c 18.354(5)
_cell_angle_alpha 90
_cell_angle_beta 119.59(2)
_cell_angle_gamma 90
_cell_formula_units_Z 4
loop_
_atom_type_symbol
_atom_type_radius_bond
C 0.68
H 0.20
N 0.68
O 0.68
loop_
_atom_site_label
_atom_site_type_symbol
_atom_site_fract_x
_atom_site_fract_y
_atom_site_fract_z
C1 C 0.19020 0.36760 0.12100
C2 C 0.28140 0.51670 0.17940
C3 C 0.26590 0.70920 0.22910
C4 C 0.16430 0.76190 0.22220
C5 C 0.07580 0.60810 0.16330
C6 C 0.08650 0.41200 0.11280
C7 C 0.19950 0.15490 0.06420
H1 H 0.15800 0.89400 0.26100
H2 H 0.02800 0.32600 0.07600
H3 H 0.35400 0.48800 0.18900
N1 N 0.36280 0.87280 0.29020
N2 N -0.03410 0.65550 0.15450
O1 O -0.04520 0.85800 0.19040
O2 O -0.10780 0.49060 0.11280
O3 O 0.12270 0.02690 0.01260
O4 O 0.30220 0.12420 0.08150
O5 O 0.45070 0.83240 0.29410
O6 O 0.34880 1.04330 0.33280
#END
