
#######################################################################
#
#                 Cambridge Crystallographic Data Centre
#                                CCDC
#
#######################################################################
#
# If this CIF has been generated from an entry in the Cambridge
# Structural Database, then it will include bibliographic, chemical,
# crystal, experimental, refinement or atomic coordinate data resulting
# from the CCDC's data processing and validation procedures.
#
#######################################################################

data_CSD_CIF_ETOBUK
_audit_creation_date 2004-06-30
_audit_creation_method CSD-ConQuest-V1
_database_code_CSD ETOBUK
_database_code_depnum_ccdc_archive 'CCDC 238834'
_chemical_formula_sum 'C15 H12 N2 O6'
_chemical_formula_moiety
;
C15 H12 N2 O6
;
_journal_coeditor_code "IUCr CV6291"
_journal_coden_Cambridge 1370
_journal_volume 60
_journal_year 2004
_journal_page_first o701
_journal_name_full 'Acta Crystallogr.,Sect.E:Struct.Rep.Online '
loop_
_publ_author_name
"S.Thamotharan"
"V.Parthasarathi"
"S.G.Mallur"
"R.R.Kamble"
"B.Badami"
"A.Linden"
_chemical_name_systematic
;
3-((7-Acetoxy-4-methylcoumarin-8-yl)methyl)sydnone
;
_chemical_melting_point 453
_cell_volume   1386.340
_exptl_crystal_colour 'colorless'
_exptl_crystal_density_diffrn 1.515
_exptl_special_details
;
Melting point range 453-455K
sydnones are potent porphyrinogenic and antiinflammatory agents; coumarins 
possess a variety of biological activities
;
_exptl_crystal_description 'plate'
_exptl_crystal_preparation 'absolute ethanol'
_diffrn_ambient_temperature 160
#These two values have been output from a single CSD field.
_refine_ls_R_factor_gt 0.0524
_refine_ls_wR_factor_gt 0.0524
_symmetry_cell_setting monoclinic
_symmetry_space_group_name_H-M 'P 21/c'
_symmetry_Int_Tables_number 14
loop_
_symmetry_equiv_pos_site_id
_symmetry_equiv_pos_as_xyz
1 x,y,z
2 x,1/2-y,1/2+z
3 -x,-y,-z
4 -x,-1/2+y,-1/2-z
_cell_length_a 11.5067(3)
_cell_length_b 13.1916(3)
_cell_length_c 9.1773(2)
_cell_angle_alpha 90
_cell_angle_beta 95.6210(9)
_cell_angle_gamma 90
_cell_formula_units_Z 4
loop_
_atom_type_symbol
_atom_type_radius_bond
C 0.68
H 0.23
N 0.68
O 0.68
loop_
_atom_site_label
_atom_site_type_symbol
_atom_site_fract_x
_atom_site_fract_y
_atom_site_fract_z
O1 O -0.0715(1) 0.78831(9) 0.71598(13)
O2 O -0.01852(11) 0.62444(10) 0.76255(14)
O3 O 0.32463(8) 0.88113(8) 0.3856(1)
O4 O 0.35704(10) 0.85699(9) 0.15564(11)
O5 O 0.23299(8) 0.94056(8) 0.86835(10)
O6 O 0.32391(10) 1.08542(9) 0.94514(12)
N1 N -0.02385(12) 0.87568(11) 0.66406(17)
N2 N 0.07899(10) 0.84738(10) 0.63153(12)
C1 C 0.10404(14) 0.75012(13) 0.65718(17)
H1 H 0.17400 0.71630 0.63890
C2 C 0.00780(14) 0.70709(14) 0.71622(17)
C3 C 0.15271(12) 0.92676(12) 0.57322(16)
H2 H 0.12700 0.99420 0.60470
H3 H 0.14290 0.92480 0.46490
C4 C 0.40094(14) 0.86302(12) 0.28088(16)
C5 C 0.52294(14) 0.85316(12) 0.33010(16)
H4 H 0.57670 0.84310 0.25930
C6 C 0.56412(13) 0.85766(11) 0.47265(16)
C7 C 0.51503(13) 0.88560(12) 0.73097(16)
H5 H 0.59450 0.87630 0.76710
C8 C 0.43408(13) 0.90712(12) 0.82759(16)
H6 H 0.45730 0.91230 0.92950
C9 C 0.31873(13) 0.92112(11) 0.77440(15)
C10 C 0.27951(13) 0.91180(11) 0.62612(15)
C11 C 0.36377(13) 0.88896(11) 0.53197(15)
C12 C 0.48235(13) 0.87709(11) 0.58034(15)
C13 C 0.24699(14) 1.02529(13) 0.95581(15)
C14 C 0.15652(14) 1.03050(16) 1.05881(17)
H7 H 0.12780 0.96210 1.07640
H8 H 0.09170 1.07290 1.01690
H9 H 0.19000 1.06000 1.15160
H10? H 0.14520 1.10120 1.08690
H11? H 0.18130 0.99040 1.14630
H12? H 0.08300 1.00330 1.01170
C15 C 0.69155(14) 0.84352(13) 0.52021(18)
H13 H 0.73450 0.83600 0.43380
H14 H 0.70230 0.78260 0.58110
H15 H 0.72110 0.90270 0.57680
#END
