
#######################################################################
#
#                 Cambridge Crystallographic Data Centre
#                                CCDC
#
#######################################################################
#
# If this CIF has been generated from an entry in the Cambridge
# Structural Database, then it will include bibliographic, chemical,
# crystal, experimental, refinement or atomic coordinate data resulting
# from the CCDC's data processing and validation procedures.
#
#######################################################################

data_CSD_CIF_ETOGOJ
_audit_creation_date 2004-06-30
_audit_creation_method CSD-ConQuest-V1
_database_code_CSD ETOGOJ
_database_code_depnum_ccdc_archive 'CCDC 241221'
_chemical_formula_sum 'C14 H12 N4 O3'
_chemical_formula_moiety
;
C14 H12 N4 O3
;
_journal_coeditor_code "IUCr FR1466"
_journal_coden_Cambridge 591
_journal_volume 60
_journal_year 2004
_journal_page_first o303
_journal_name_full 'Acta Crystallogr.,Sect.C:Cryst.Struct.Commun. '
loop_
_publ_author_name
"M.Horner"
"A.L.Brancher"
"A.Silva"
"J.Bordinhao"
"C.M.Mossmer"
_chemical_name_systematic
;
trans-3-(4-Acetylphenyl)-1-(4-nitrophenyl)triazene
;
_chemical_melting_point 433
_cell_volume   2721.753
_exptl_crystal_colour 'orange'
_exptl_crystal_density_diffrn 1.388
_exptl_special_details
;
Melting point range 433-434K

;
_exptl_crystal_description 'prism'
_exptl_crystal_preparation 'tetrahydrofuran/hexane'
_diffrn_ambient_temperature 293
#These two values have been output from a single CSD field.
_refine_ls_R_factor_gt 0.0523
_refine_ls_wR_factor_gt 0.0523
_symmetry_cell_setting monoclinic
_symmetry_space_group_name_H-M 'C 2/c'
_symmetry_Int_Tables_number 15
loop_
_symmetry_equiv_pos_site_id
_symmetry_equiv_pos_as_xyz
1 x,y,z
2 1/2+x,1/2+y,z
3 x,-y,1/2+z
4 1/2+x,1/2-y,1/2+z
5 -x,-y,-z
6 -1/2-x,-1/2-y,-z
7 -x,y,-1/2-z
8 -1/2-x,-1/2+y,-1/2-z
_cell_length_a 14.357(6)
_cell_length_b 7.1964(13)
_cell_length_c 26.779(5)
_cell_angle_alpha 90
_cell_angle_beta 100.35(4)
_cell_angle_gamma 90
_cell_formula_units_Z 8
loop_
_atom_type_symbol
_atom_type_radius_bond
C 0.68
H 0.23
N 0.68
O 0.68
loop_
_atom_site_label
_atom_site_type_symbol
_atom_site_fract_x
_atom_site_fract_y
_atom_site_fract_z
O1 O 0.01964(11) 0.6804(2) 0.39769(6)
O2 O 0.76728(14) 0.2796(3) 0.75888(7)
O3 O 0.63806(14) 0.3986(3) 0.77367(6)
N1 N 0.68538(16) 0.3291(3) 0.74482(8)
N2 N 0.52677(12) 0.2366(3) 0.53903(6)
N3 N 0.44704(11) 0.3132(2) 0.52462(6)
N4 N 0.41564(12) 0.2878(3) 0.47558(7)
C1 C 0.07135(14) 0.5958(3) 0.37417(8)
C2 C 0.04492(16) 0.5816(4) 0.31830(8)
H1 H -0.01760 0.63090 0.30760
H2 H 0.04590 0.45350 0.30840
H3 H 0.08910 0.65080 0.30270
C3 C 0.56121(14) 0.2645(3) 0.59145(7)
C4 C 0.51637(15) 0.3705(3) 0.62349(8)
H4 H 0.45890 0.42810 0.61100
C5 C 0.55709(16) 0.3898(3) 0.67364(8)
H5 H 0.52730 0.45980 0.69540
C6 C 0.64239(15) 0.3047(3) 0.69143(8)
C7 C 0.68790(16) 0.1988(3) 0.66067(8)
H6 H 0.74530 0.14160 0.67350
C8 C 0.64685(14) 0.1788(3) 0.61037(8)
H7 H 0.67670 0.10750 0.58900
C9 C 0.32960(13) 0.3626(3) 0.45181(7)
C10 C 0.30022(14) 0.3275(3) 0.40068(7)
H8 H 0.33690 0.25400 0.38320
C11 C 0.21645(13) 0.4016(3) 0.37578(7)
H9 H 0.19720 0.37800 0.34130
C12 C 0.15986(12) 0.5111(3) 0.40088(7)
C13 C 0.18991(14) 0.5430(3) 0.45256(7)
H10 H 0.15240 0.61400 0.47020
C14 C 0.27378(13) 0.4716(3) 0.47791(7)
H11 H 0.29330 0.49570 0.51230
H12 H 0.4492(16) 0.231(3) 0.4581(8)
#END
