
#######################################################################
#
#                 Cambridge Crystallographic Data Centre
#                                CCDC
#
#######################################################################
#
# If this CIF has been generated from an entry in the Cambridge
# Structural Database, then it will include bibliographic, chemical,
# crystal, experimental, refinement or atomic coordinate data resulting
# from the CCDC's data processing and validation procedures.
#
#######################################################################

data_CSD_CIF_ETONUY
_audit_creation_date 2016-08-31
_audit_creation_method CSD-ConQuest-V1
_database_code_CSD ETONUY
_database_code_depnum_ccdc_archive 'CCDC 1479211'
_chemical_formula_sum 'C21 H20 N2 O4'
_chemical_formula_moiety
;
C21 H20 N2 O4
;
_journal_coden_Cambridge 24
_journal_volume 57
_journal_year 2016
_journal_page_first 4500
_journal_name_full 'Tetrahedron Lett. '
loop_
_publ_author_name
"Sifeng Li"
"Qingjing Yang"
"Jun Wang"
_chemical_name_systematic
;
ethyl 5-methyl-1-(4-nitrophenyl)-4-phenyl-1,4-dihydropyridine-3-carboxylate
;
_cell_volume   1893.937
_exptl_crystal_colour 'colorless'
_exptl_crystal_density_diffrn 1.278
_exptl_crystal_description 'block'
_diffrn_ambient_temperature 296
#These two values have been output from a single CSD field.
_refine_ls_R_factor_gt 0.1161
_refine_ls_wR_factor_gt 0.1161
_symmetry_cell_setting monoclinic
_symmetry_space_group_name_H-M 'P 21/n'
_symmetry_Int_Tables_number 14
loop_
_symmetry_equiv_pos_site_id
_symmetry_equiv_pos_as_xyz
1 x,y,z
2 1/2-x,1/2+y,1/2-z
3 -x,-y,-z
4 -1/2+x,-1/2-y,-1/2+z
_cell_length_a 15.003(3)
_cell_length_b 7.6111(18)
_cell_length_c 17.624(5)
_cell_angle_alpha 90
_cell_angle_beta 109.763(15)
_cell_angle_gamma 90
_cell_formula_units_Z 4
loop_
_atom_type_symbol
_atom_type_radius_bond
C 0.68
H 0.23
N 0.68
O 0.68
loop_
_atom_site_label
_atom_site_type_symbol
_atom_site_fract_x
_atom_site_fract_y
_atom_site_fract_z
O1 O 0.3941(2) 0.8271(5) 0.47869(19)
O2 O 0.3645(2) 0.7924(4) 0.59437(18)
O3 O 1.0056(3) 0.7173(7) 0.4529(3)
O4 O 0.8954(3) 0.6246(8) 0.3524(2)
N1 N 0.9257(4) 0.6648(7) 0.4210(3)
N2 N 0.6789(3) 0.7154(6) 0.6031(2)
C1 C 0.5201(3) 0.7397(6) 0.6002(3)
C2 C 0.5844(3) 0.7447(6) 0.5622(3)
H1 H 0.56440 0.76850 0.50720
C3 C 0.7108(3) 0.7183(7) 0.6881(2)
H2 H 0.77560 0.72300 0.71610
C4 C 0.6509(3) 0.7146(7) 0.7303(3)
C5 C 0.5459(3) 0.6949(6) 0.6879(3)
H3 H 0.51350 0.77790 0.71220
C6 C 0.5127(3) 0.5101(7) 0.6983(2)
C7 C 0.4523(3) 0.4771(7) 0.7435(3)
H4 H 0.43150 0.56950 0.76780
C8 C 0.4245(4) 0.3078(8) 0.7513(3)
H5 H 0.38090 0.28840 0.77740
C9 C 0.4589(4) 0.1682(7) 0.7219(3)
H6 H 0.44360 0.05450 0.73250
C10 C 0.5172(4) 0.1956(7) 0.6760(3)
H7 H 0.53670 0.10190 0.65160
C11 C 0.5447(3) 0.3617(7) 0.6677(3)
H8 H 0.58720 0.37850 0.64030
C12 C 0.7423(3) 0.7038(7) 0.5581(3)
C13 C 0.7102(3) 0.6438(7) 0.4804(3)
H9 H 0.653(2) 0.621(5) 0.458(2)
C14 C 0.7703(4) 0.6352(8) 0.4362(3)
H10 H 0.750(2) 0.609(4) 0.3830(19)
C15 C 0.8635(3) 0.6826(8) 0.4710(3)
C16 C 0.8986(4) 0.7314(8) 0.5509(3)
H11 H 0.96270 0.75590 0.57550
C17 C 0.8370(3) 0.7433(8) 0.5942(3)
H12 H 0.85970 0.77820 0.64790
C18 C 0.4216(4) 0.7961(7) 0.5497(3)
C19 C 0.2673(4) 0.8492(8) 0.5515(3)
H13 H 0.23520 0.76490 0.51000
H14 H 0.26710 0.96260 0.52630
C20 C 0.2189(4) 0.8616(9) 0.6127(3)
H15 H 0.15430 0.89750 0.58680
H16 H 0.25090 0.94630 0.65310
H17 H 0.22020 0.74890 0.63760
C21 C 0.6892(4) 0.7304(8) 0.8217(3)
H18 H 0.75690 0.74070 0.83960
H19 H 0.67200 0.62780 0.84530
H20 H 0.66280 0.83280 0.83790
#END
