
#######################################################################
#
#                 Cambridge Crystallographic Data Centre
#                                CCDC
#
#######################################################################
#
# If this CIF has been generated from an entry in the Cambridge
# Structural Database, then it will include bibliographic, chemical,
# crystal, experimental, refinement or atomic coordinate data resulting
# from the CCDC's data processing and validation procedures.
#
#######################################################################

data_CSD_CIF_ETUGAB
_audit_creation_date 2004-07-15
_audit_creation_method CSD-ConQuest-V1
_database_code_CSD ETUGAB
_database_code_depnum_ccdc_archive 'CCDC 233671'
_chemical_formula_sum 'C13 H14 N2 O2'
_chemical_formula_moiety
;
C13 H14 N2 O2
;
_journal_coden_Cambridge 392
_journal_volume 62
_journal_year 2004
_journal_page_first 831
_journal_name_full 'Heterocycles '
loop_
_publ_author_name
"K.Wakita"
"M.A.Arai"
"T.Kato"
"T.Shinohara"
"H.Sasai"
_chemical_name_systematic
;
(M*)-4,4',5,5',6,6',7,7'-Octahydro-7,7'-spirobi(benzo(c)isoxazole)
;
_chemical_melting_point 463.15
_cell_volume   1114.848
_exptl_crystal_colour 'colorless'
_exptl_special_details
;
Melts with decomposition.

;
_exptl_crystal_description 'plate'
_exptl_crystal_preparation 'hexane/ether'
_diffrn_ambient_temperature 198.2
#These two values have been output from a single CSD field.
_refine_ls_R_factor_gt 0.0573
_refine_ls_wR_factor_gt 0.0573
_symmetry_cell_setting orthorhombic
_symmetry_space_group_name_H-M 'C 2 2 21'
_symmetry_Int_Tables_number 20
loop_
_symmetry_equiv_pos_site_id
_symmetry_equiv_pos_as_xyz
1 x,y,z
2 x,-y,-z
3 -x,-y,1/2+z
4 -x,y,1/2-z
5 1/2+x,1/2+y,z
6 1/2+x,1/2-y,-z
7 1/2-x,1/2-y,1/2+z
8 1/2-x,1/2+y,1/2-z
_cell_length_a 9.139(3)
_cell_length_b 9.738(3)
_cell_length_c 12.527(9)
_cell_angle_alpha 90
_cell_angle_beta 90
_cell_angle_gamma 90
_cell_formula_units_Z 4
loop_
_atom_type_symbol
_atom_type_radius_bond
C 0.68
H 0.23
N 0.68
O 0.68
loop_
_atom_site_label
_atom_site_type_symbol
_atom_site_fract_x
_atom_site_fract_y
_atom_site_fract_z
O1 O 0.0232(1) 0.2486(2) 0.0267(2)
N1 N -0.05670 0.3194(2) 0.1066(2)
C1 C 0.31390 0.45560 0.1528(2)
C2 C 0.13290 0.57780 0.27480
C3 C 0.0000(2) 0.48620 0.25000
C4 C 0.0385(3) 0.39680 0.15450
C5 C 0.2832(2) 0.5083(2) 0.2679(2)
C6 C 0.1657(3) 0.2890(2) 0.0341(2)
C7 C 0.1822(2) 0.3815(4) 0.1108(2)
H1 H 0.3387(2) 0.5406(2) 0.1196(3)
H2 H 0.39560 0.39550 0.15280
H3 H 0.35990 0.57510 0.27710
H4 H 0.27250 0.43540 0.31760
H5 H 0.11420 0.63420 0.33900
H6 H 0.14060 0.66240 0.22810
H7 H 0.24270 0.25550 -0.00910
H8? H 0.14060 0.66240 0.22810
C2C C -0.13290 0.57780 0.22520
C5C C -0.2832(2) 0.5083(2) 0.2321(2)
C1C C -0.31390 0.45560 0.3472(2)
C7C C -0.1822(2) 0.3815(4) 0.3892(2)
C4C C -0.0385(3) 0.39680 0.34550
N1C N 0.05670 0.3194(2) 0.3934(2)
O1C O -0.0232(1) 0.2486(2) 0.4733(2)
C6C C -0.1657(3) 0.2890(2) 0.4659(2)
H7C H -0.24270 0.25550 0.50910
H1C H -0.3387(2) 0.5406(2) 0.3804(3)
H2C H -0.39560 0.39550 0.34720
H3C H -0.35990 0.57510 0.22290
H4C H -0.27250 0.43540 0.18240
H5C H -0.11420 0.63420 0.16100
H6C H -0.14060 0.66240 0.27190
#END
