
#######################################################################
#
#                 Cambridge Crystallographic Data Centre
#                                CCDC
#
#######################################################################
#
# If this CIF has been generated from an entry in the Cambridge
# Structural Database, then it will include bibliographic, chemical,
# crystal, experimental, refinement or atomic coordinate data resulting
# from the CCDC's data processing and validation procedures.
#
#######################################################################

data_CSD_CIF_EVAGIS
_audit_creation_date 2011-09-23
_audit_creation_method CSD-ConQuest-V1
_database_code_CSD EVAGIS
_database_code_depnum_ccdc_archive 'CCDC 834286'
_chemical_formula_sum 'C21 H15 N3 O4'
_chemical_formula_moiety
;
C21 H15 N3 O4
;
_journal_coeditor_code "IUCr IM2291"
_journal_coden_Cambridge 1370
_journal_volume 67
_journal_year 2011
_journal_page_first o1587
_journal_name_full 'Acta Crystallogr.,Sect.E:Struct.Rep.Online '
loop_
_publ_author_name
"C.Bustos"
"L.Alvarez-Thon"
"D.Barria"
"M.T.Garland"
"C.Sanchez"
_chemical_name_systematic
;
2-[2-(4-Nitrophenyl)hydrazinylidene]-1,3-diphenylpropane-1,3-dione
;
_cell_volume   1790.847
_exptl_crystal_colour 'yellow'
_exptl_crystal_density_diffrn 1.385
_exptl_crystal_description 'polyhedron'
_exptl_crystal_preparation 'ethanol'
_diffrn_ambient_temperature 150
#These two values have been output from a single CSD field.
_refine_ls_R_factor_gt 0.0338
_refine_ls_wR_factor_gt 0.0338
_symmetry_cell_setting orthorhombic
_symmetry_space_group_name_H-M 'P 21 21 21'
_symmetry_Int_Tables_number 19
loop_
_symmetry_equiv_pos_site_id
_symmetry_equiv_pos_as_xyz
1 x,y,z
2 1/2-x,-y,1/2+z
3 1/2+x,1/2-y,-z
4 -x,1/2+y,1/2-z
_cell_length_a 8.2994(7)
_cell_length_b 8.6250(7)
_cell_length_c 25.018(2)
_cell_angle_alpha 90
_cell_angle_beta 90
_cell_angle_gamma 90
_cell_formula_units_Z 4
loop_
_atom_type_symbol
_atom_type_radius_bond
C 0.68
H 0.23
N 0.68
O 0.68
loop_
_atom_site_label
_atom_site_type_symbol
_atom_site_fract_x
_atom_site_fract_y
_atom_site_fract_z
O1 O 0.44608(18) 0.97963(18) 0.03744(5)
O2 O 0.5740(2) 0.61910(18) -0.03732(6)
O3 O 1.0083(2) 0.13731(18) 0.24696(6)
O4 O 1.04378(19) -0.02554(17) 0.18195(6)
N1 N 0.6619(2) 0.65447(19) 0.07404(7)
N2 N 0.7292(2) 0.5252(2) 0.05629(7)
N3 N 0.9963(2) 0.1000(2) 0.19940(7)
C1 C 0.6762(2) 0.8692(2) -0.05394(8)
C2 C 0.7655(2) 0.9941(3) -0.03441(8)
C3 C 0.8288(3) 1.1021(3) -0.06939(9)
C4 C 0.8022(3) 1.0870(3) -0.12373(9)
C5 C 0.7127(3) 0.9651(3) -0.14324(8)
C6 C 0.6502(3) 0.8551(3) -0.10873(8)
C7 C 0.6156(3) 0.7439(2) -0.01897(8)
C8 C 0.6125(2) 0.7616(2) 0.04127(7)
C9 C 0.5292(2) 0.8954(2) 0.06604(7)
C10 C 0.5405(2) 0.9243(2) 0.12510(7)
C11 C 0.4112(3) 0.9999(3) 0.14872(8)
C12 C 0.4119(3) 1.0314(3) 0.20280(8)
C13 C 0.5415(3) 0.9878(3) 0.23385(8)
C14 C 0.6709(3) 0.9125(3) 0.21065(8)
C15 C 0.6721(3) 0.8826(2) 0.15632(8)
C16 C 0.7912(3) 0.4192(2) 0.09311(8)
C17 C 0.7726(3) 0.4409(2) 0.14817(8)
C18 C 0.8404(3) 0.3353(2) 0.18280(8)
C19 C 0.9223(2) 0.2091(2) 0.16230(8)
C20 C 0.9391(3) 0.1843(2) 0.10811(8)
C21 C 0.8739(3) 0.2911(2) 0.07362(8)
H1 H 0.752(3) 0.511(3) 0.0191(10)
H2 H 0.78270 1.00480 0.00290
H3 H 0.89040 1.18660 -0.05610
H4 H 0.84600 1.16120 -0.14770
H5 H 0.69380 0.95640 -0.18060
H6 H 0.58980 0.77020 -0.12230
H7 H 0.32160 1.03010 0.12750
H8 H 0.32290 1.08320 0.21870
H9 H 0.54190 1.00940 0.27110
H10 H 0.75950 0.88110 0.23210
H11 H 0.76270 0.83370 0.14040
H12 H 0.71400 0.52720 0.16150
H13 H 0.83090 0.34900 0.22030
H14 H 0.99430 0.09560 0.09500
H15 H 0.88550 0.27720 0.03610
#END
