
#######################################################################
#
#                 Cambridge Crystallographic Data Centre
#                                CCDC
#
#######################################################################
#
# If this CIF has been generated from an entry in the Cambridge
# Structural Database, then it will include bibliographic, chemical,
# crystal, experimental, refinement or atomic coordinate data resulting
# from the CCDC's data processing and validation procedures.
#
#######################################################################

data_CSD_CIF_EVALOD
_audit_creation_date 2011-09-23
_audit_creation_method CSD-ConQuest-V1
_database_code_CSD EVALOD
_database_code_depnum_ccdc_archive 'CCDC 834307'
_chemical_formula_sum 'C16 H12 N2 O3'
_chemical_formula_moiety
;
C16 H12 N2 O3
;
_journal_coeditor_code "IUCr BH2356"
_journal_coden_Cambridge 1370
_journal_volume 67
_journal_year 2011
_journal_page_first o1610
_journal_name_full 'Acta Crystallogr.,Sect.E:Struct.Rep.Online '
loop_
_publ_author_name
"Jingya Yang"
"Hongyan Zhou"
"Zheng Li"
_chemical_name_systematic
;
2-(3-Nitrophenyl)-4-oxo-4-phenylbutanenitrile
;
_cell_volume   2689.693
_exptl_crystal_colour 'colorless'
_exptl_crystal_density_diffrn 1.384
_exptl_crystal_description 'block'
_diffrn_ambient_temperature 296
#These two values have been output from a single CSD field.
_refine_ls_R_factor_gt 0.0498
_refine_ls_wR_factor_gt 0.0498
_symmetry_cell_setting orthorhombic
_symmetry_space_group_name_H-M 'P b c a'
_symmetry_Int_Tables_number 61
loop_
_symmetry_equiv_pos_site_id
_symmetry_equiv_pos_as_xyz
1 x,y,z
2 1/2-x,-y,1/2+z
3 -x,1/2+y,1/2-z
4 1/2+x,1/2-y,-z
5 -x,-y,-z
6 -1/2+x,y,-1/2-z
7 x,-1/2-y,-1/2+z
8 -1/2-x,-1/2+y,z
_cell_length_a 10.105(9)
_cell_length_b 8.485(8)
_cell_length_c 31.37(3)
_cell_angle_alpha 90
_cell_angle_beta 90
_cell_angle_gamma 90
_cell_formula_units_Z 8
loop_
_atom_type_symbol
_atom_type_radius_bond
C 0.68
H 0.23
N 0.68
O 0.68
loop_
_atom_site_label
_atom_site_type_symbol
_atom_site_fract_x
_atom_site_fract_y
_atom_site_fract_z
C1 C 0.9659(2) 0.7730(3) 0.76158(8)
H1 H 1.02330 0.83270 0.74490
C2 C 0.9790(3) 0.7738(3) 0.80556(8)
H2 H 1.04580 0.83310 0.81820
C3 C 0.8944(3) 0.6881(3) 0.83050(8)
H3 H 0.90300 0.68980 0.86000
C4 C 0.7968(3) 0.5993(3) 0.81171(8)
H4 H 0.73920 0.54060 0.82860
C5 C 0.7838(2) 0.5969(3) 0.76813(8)
H5 H 0.71770 0.53590 0.75580
C6 C 0.8680(2) 0.6842(2) 0.74222(7)
C7 C 0.8505(3) 0.6785(3) 0.69527(7)
C8 C 0.9342(2) 0.7828(3) 0.66743(7)
H6 H 1.02670 0.76420 0.67400
H7 H 0.91480 0.89190 0.67410
C9 C 0.9127(2) 0.7566(3) 0.61978(7)
H8 H 0.81800 0.76820 0.61390
C10 C 0.9863(2) 0.8761(2) 0.59265(6)
C11 C 1.1213(3) 0.8670(3) 0.58598(7)
H9 H 1.16920 0.78570 0.59850
C12 C 1.1858(3) 0.9763(3) 0.56111(8)
H10 H 1.27670 0.96830 0.55700
C13 C 1.1164(3) 1.0971(3) 0.54237(7)
H11 H 1.15880 1.17050 0.52510
C14 C 0.9831(3) 1.1064(2) 0.54980(6)
C15 C 0.9168(2) 0.9985(2) 0.57425(6)
H12 H 0.82600 1.00750 0.57840
C16 C 0.9514(3) 0.5952(3) 0.60812(7)
N1 N 0.9820(3) 0.4705(3) 0.60021(7)
N2 N 0.9061(3) 1.2315(2) 0.52900(6)
O1 O 0.77009(19) 0.5898(2) 0.67920(5)
O2 O 0.7895(2) 1.2441(2) 0.53819(6)
O3 O 0.9621(2) 1.3169(2) 0.50346(6)
#END
