
#######################################################################
#
#                 Cambridge Crystallographic Data Centre
#                                CCDC
#
#######################################################################
#
# If this CIF has been generated from an entry in the Cambridge
# Structural Database, then it will include bibliographic, chemical,
# crystal, experimental, refinement or atomic coordinate data resulting
# from the CCDC's data processing and validation procedures.
#
#######################################################################

data_CSD_CIF_EVAWON
_audit_creation_date 2004-07-15
_audit_creation_method CSD-ConQuest-V1
_database_code_CSD EVAWON
_database_code_depnum_ccdc_archive 'CCDC 206088'
_chemical_formula_sum 'C18 H16 N4 O2'
_chemical_formula_moiety
;
C18 H16 N4 O2
;
_journal_coden_Cambridge 692
_journal_volume 2004
_journal_year 2004
_journal_page_first 26
_journal_name_full 'Synthesis '
loop_
_publ_author_name
"Mei-Hsiu Shih"
_chemical_name_systematic
;
1-[3-(4-methylphenyl)sydnon-4-yl]-5-phenyl-4,5-dihydro-1H-pyrazole
;
_chemical_melting_point 406
_cell_volume   1576.291
_exptl_crystal_colour 'yellow-orange'
_exptl_crystal_density_diffrn 1.35
_exptl_special_details
;
Melting point range 406-408K

;
_exptl_crystal_description 'prism'
_diffrn_ambient_temperature 298
#These two values have been output from a single CSD field.
_refine_ls_R_factor_gt 0.046
_refine_ls_wR_factor_gt 0.046
_symmetry_cell_setting orthorhombic
_symmetry_space_group_name_H-M 'P n a 21'
_symmetry_Int_Tables_number 33
loop_
_symmetry_equiv_pos_site_id
_symmetry_equiv_pos_as_xyz
1 x,y,z
2 -x,-y,1/2+z
3 1/2-x,1/2+y,1/2+z
4 1/2+x,1/2-y,z
_cell_length_a 11.07(1)
_cell_length_b 24.42(1)
_cell_length_c 5.831(8)
_cell_angle_alpha 90
_cell_angle_beta 90
_cell_angle_gamma 90
_cell_formula_units_Z 4
loop_
_atom_type_symbol
_atom_type_radius_bond
C 0.68
N 0.68
O 0.68
loop_
_atom_site_label
_atom_site_type_symbol
_atom_site_fract_x
_atom_site_fract_y
_atom_site_fract_z
O1 O 0.6973(4) 0.3269(2) 0.465(3)
O2 O 0.6184(4) 0.2488(2) 0.319(3)
N1 N 0.8365(4) 0.3441(2) 0.224(3)
N2 N 0.7877(5) 0.3635(2) 0.416(3)
N3 N 0.8996(4) 0.2454(2) -0.381(3)
N4 N 0.9016(4) 0.2815(2) -0.197(3)
C1 C 0.6920(5) 0.2848(2) 0.302(3)
C2 C 0.7855(5) 0.2983(2) 0.144(3)
C3 C 0.8163(4) 0.2673(2) -0.061(3)
C4 C 0.7493(5) 0.2163(2) -0.128(3)
C5 C 0.8310(4) 0.1951(2) -0.324(3)
C6 C 0.9134(5) 0.1486(2) -0.262(3)
C7 C 0.9756(6) 0.1459(2) -0.054(3)
C8 C 1.0552(5) 0.1043(2) -0.009(3)
C9 C 1.0772(6) 0.0636(2) -0.168(4)
C10 C 1.0162(6) 0.0660(2) -0.374(3)
C11 C 0.9372(5) 0.1071(2) -0.420(3)
C12 C 0.9338(5) 0.3770(2) 0.135(3)
C13 C 1.0357(6) 0.3828(2) 0.262(3)
C14 C 1.1263(6) 0.4171(3) 0.181(4)
C15 C 1.1149(6) 0.4450(2) -0.025(4)
C16 C 1.0108(6) 0.4372(2) -0.147(3)
C17 C 0.9186(5) 0.4038(2) -0.074(3)
C18 C 1.2153(7) 0.4821(3) -0.110(4)
#END
