
#######################################################################
#
#                 Cambridge Crystallographic Data Centre
#                                CCDC
#
#######################################################################
#
# If this CIF has been generated from an entry in the Cambridge
# Structural Database, then it will include bibliographic, chemical,
# crystal, experimental, refinement or atomic coordinate data resulting
# from the CCDC's data processing and validation procedures.
#
#######################################################################

data_CSD_CIF_EVAZIK
_audit_creation_date 2004-07-16
_audit_creation_method CSD-ConQuest-V1
_database_code_CSD EVAZIK
_database_code_depnum_ccdc_archive 'CCDC 234335'
_chemical_formula_sum 'C13 H17 N3 O1'
_chemical_formula_moiety
;
C13 H17 N3 O1
;
_journal_coden_Cambridge 35
_journal_volume 69
_journal_year 2004
_journal_page_first 1598
_journal_name_full 'J.Org.Chem. '
loop_
_publ_author_name
"R.A.Stockman"
"A.Sinclair"
"L.G.Arini"
"P.Szeto"
"D.L.Hughes"
_chemical_name_systematic
;
9-(Cyanomethyl)octahydro-2,5a-methanopyrido(1,2-b)(1,2)oxazepine-11-carbonitri
le
;
_chemical_melting_point 399.35
_cell_volume   1218.710
_exptl_crystal_colour 'colorless'
_exptl_crystal_density_diffrn 1.261
_exptl_special_details
;
Melting point range 399.35-401.35K

;
_exptl_crystal_description 'prisms'
_diffrn_ambient_temperature 140
#These two values have been output from a single CSD field.
_refine_ls_R_factor_gt 0.0616
_refine_ls_wR_factor_gt 0.0616
_symmetry_cell_setting monoclinic
_symmetry_space_group_name_H-M 'C c'
_symmetry_Int_Tables_number 9
loop_
_symmetry_equiv_pos_site_id
_symmetry_equiv_pos_as_xyz
1 x,y,z
2 x,-y,1/2+z
3 1/2+x,1/2+y,z
4 1/2+x,1/2-y,1/2+z
_cell_length_a 15.563(3)
_cell_length_b 9.938(2)
_cell_length_c 7.943(2)
_cell_angle_alpha 90
_cell_angle_beta 97.24(3)
_cell_angle_gamma 90
_cell_formula_units_Z 4
loop_
_atom_type_symbol
_atom_type_radius_bond
C 0.68
H 0.23
N 0.68
O 0.68
loop_
_atom_site_label
_atom_site_type_symbol
_atom_site_fract_x
_atom_site_fract_y
_atom_site_fract_z
O1 O 0.40218(11) 0.07195(18) 0.9685(2)
N1 N 0.36757(12) 0.20812(19) 0.9973(2)
C1 C 0.41272(14) 0.2990(2) 0.8880(3)
C2 C 0.42205(15) 0.2059(2) 0.7336(3)
H1 H 0.36450 0.18730 0.67290
C3 C 0.45636(17) 0.0782(2) 0.8319(3)
H2 H 0.44900 -0.00210 0.75990
C4 C 0.55023(17) 0.0953(3) 0.9102(4)
H3 H 0.58590 0.11670 0.82210
H4 H 0.57130 0.01190 0.96380
C5 C 0.55703(17) 0.2084(3) 1.0421(4)
H5 H 0.61730 0.23430 1.06890
H6 H 0.53720 0.17520 1.14540
C6 C 0.50357(16) 0.3328(3) 0.9806(3)
H7 H 0.53520 0.38380 0.90440
H8 H 0.49700 0.38950 1.07750
C7 C 0.27325(15) 0.1923(2) 0.9473(3)
H9 H 0.26390 0.14630 0.83740
C8 C 0.22903(16) 0.3294(2) 0.9294(3)
H10 H 0.23770 0.37620 1.03730
H11 H 0.16720 0.31730 0.89790
C9 C 0.26607(15) 0.4133(3) 0.7943(3)
H12 H 0.25620 0.36810 0.68530
H13 H 0.23780 0.50040 0.78350
C10 C 0.36284(15) 0.4313(2) 0.8474(3)
H14 H 0.37110 0.48870 0.94680
H15 H 0.38750 0.47710 0.75690
C11 C 0.47836(17) 0.2568(3) 0.6133(3)
N2 N 0.52187(16) 0.2988(3) 0.5182(3)
C12 C 0.23776(16) 0.1029(2) 1.0809(3)
H16 H 0.17660 0.08690 1.04680
H17 H 0.26710 0.01660 1.08530
C13 C 0.24950(17) 0.1640(3) 1.2514(3)
N3 N 0.25751(17) 0.2111(3) 1.3845(3)
#END
