
#######################################################################
#
#                 Cambridge Crystallographic Data Centre
#                                CCDC
#
#######################################################################
#
# If this CIF has been generated from an entry in the Cambridge
# Structural Database, then it will include bibliographic, chemical,
# crystal, experimental, refinement or atomic coordinate data resulting
# from the CCDC's data processing and validation procedures.
#
#######################################################################

data_CSD_CIF_EVEBOX
_audit_creation_date 2011-08-04
_audit_creation_method CSD-ConQuest-V1
_database_code_CSD EVEBOX
_database_code_depnum_ccdc_archive 'CCDC 834372'
_chemical_formula_sum 'C19 H18 N2 O2'
_chemical_formula_moiety
;
C19 H18 N2 O2
;
_journal_coeditor_code "IUCr RK2276"
_journal_coden_Cambridge 1370
_journal_volume 67
_journal_year 2011
_journal_page_first o1695
_journal_name_full 'Acta Crystallogr.,Sect.E:Struct.Rep.Online '
loop_
_publ_author_name
"R.Gangadharan"
"K.Sethusankar"
"G.Murugan"
"M.Bakthadoss"
_chemical_name_systematic
;
1-Methyl-3-p-tolyl-3,3a,4,9b-tetrahydro-1H-chromeno[4,3-c]isoxazole-3a-carboni
trile
;
_cell_volume   1599.616
_exptl_crystal_colour 'colorless'
_exptl_crystal_density_diffrn 1.272
_exptl_crystal_description 'block'
_diffrn_ambient_temperature 295
#These two values have been output from a single CSD field.
_refine_ls_R_factor_gt 0.0424
_refine_ls_wR_factor_gt 0.0424
_symmetry_cell_setting monoclinic
_symmetry_space_group_name_H-M 'P 21/c'
_symmetry_Int_Tables_number 14
loop_
_symmetry_equiv_pos_site_id
_symmetry_equiv_pos_as_xyz
1 x,y,z
2 -x,1/2+y,1/2-z
3 -x,-y,-z
4 x,-1/2-y,-1/2+z
_cell_length_a 8.5344(3)
_cell_length_b 7.6980(3)
_cell_length_c 24.6017(8)
_cell_angle_alpha 90
_cell_angle_beta 98.234(2)
_cell_angle_gamma 90
_cell_formula_units_Z 4
loop_
_atom_type_symbol
_atom_type_radius_bond
C 0.68
H 0.23
N 0.68
O 0.68
loop_
_atom_site_label
_atom_site_type_symbol
_atom_site_fract_x
_atom_site_fract_y
_atom_site_fract_z
C1 C 0.22956(16) 0.74379(19) 0.22503(6)
C2 C 0.20315(19) 0.8782(2) 0.25995(6)
H1 H 0.25180 0.87710 0.29630
C3 C 0.1058(2) 1.0123(2) 0.24110(8)
H2 H 0.08820 1.10220 0.26470
C4 C 0.0333(2) 1.0157(2) 0.18741(8)
H3 H -0.03300 1.10730 0.17470
C5 C 0.05999(17) 0.8817(2) 0.15272(7)
H4 H 0.01230 0.88510 0.11630
C6 C 0.15635(15) 0.74186(18) 0.17079(5)
C7 C 0.19011(15) 0.60029(18) 0.13206(5)
H5 H 0.21070 0.65130 0.09730
C8 C 0.33071(16) 0.48679(18) 0.15615(5)
C9 C 0.32444(19) 0.4600(2) 0.21731(6)
H6 H 0.22600 0.40260 0.22190
H7 H 0.41100 0.38490 0.23260
C10 C 0.29378(17) 0.3102(2) 0.12512(6)
H8 H 0.27510 0.22120 0.15190
C11 C -0.07140(19) 0.5205(3) 0.08314(8)
H9 H -0.03770 0.56470 0.05020
H10 H -0.12720 0.60960 0.09980
H11 H -0.14020 0.42270 0.07430
C12 C 0.41716(17) 0.24478(18) 0.09254(6)
C13 C 0.43199(19) 0.3076(2) 0.04099(6)
H12 H 0.36100 0.39030 0.02460
C14 C 0.5515(2) 0.2484(2) 0.01362(6)
H13 H 0.55910 0.29130 -0.02120
C15 C 0.65985(18) 0.1273(2) 0.03664(6)
C16 C 0.64196(19) 0.0627(2) 0.08744(7)
H14 H 0.71240 -0.02100 0.10360
C17 C 0.52204(19) 0.1192(2) 0.11499(6)
H15 H 0.51170 0.07220 0.14910
C18 C 0.7938(2) 0.0675(3) 0.00727(8)
H16 H 0.76380 0.08060 -0.03160
H17 H 0.81650 -0.05250 0.01570
H18 H 0.88620 0.13620 0.01910
C19 C 0.47926(17) 0.57010(19) 0.14768(6)
N1 N 0.06659(14) 0.46627(17) 0.12132(5)
N2 N 0.59187(16) 0.64169(19) 0.14207(6)
O1 O 0.33511(13) 0.61910(14) 0.24647(4)
O2 O 0.14917(12) 0.34224(16) 0.08996(5)
#END
