
#######################################################################
#
#                 Cambridge Crystallographic Data Centre
#                                CCDC
#
#######################################################################
#
# If this CIF has been generated from an entry in the Cambridge
# Structural Database, then it will include bibliographic, chemical,
# crystal, experimental, refinement or atomic coordinate data resulting
# from the CCDC's data processing and validation procedures.
#
#######################################################################

data_CSD_CIF_EVEXAE01
_audit_creation_date 2004-07-16
_audit_creation_method CSD-ConQuest-V1
_database_code_CSD EVEXAE01
_database_code_depnum_ccdc_archive 'CCDC 235409'
_chemical_formula_sum 'C16 H13 N1 O5'
_chemical_formula_moiety
;
C16 H13 N1 O5
;
_journal_coden_Cambridge 4
_journal_volume 126
_journal_year 2004
_journal_page_first 3845
_journal_name_full 'J.Am.Chem.Soc. '
loop_
_publ_author_name
"P.Gilli"
"V.Bertolasi"
"L.Pretto"
"V.Ferretti"
"G.Gilli"
_chemical_name_systematic
;
(2Z)-3-hydroxy-1-(4-methoxyphenyl)-3-(3-nitrophenyl)-2-propen-1-one
;
_chemical_name_common
;
(2Z)-1-(4-methoxyphenyl)-3-(3-nitrophenyl)-1,3-propanedione enol
;
_cell_volume   1383.844
_exptl_crystal_colour 'yellow'
_exptl_crystal_density_diffrn 1.436
_exptl_crystal_description 'prism'
_diffrn_ambient_temperature 180
#These two values have been output from a single CSD field.
_refine_ls_R_factor_gt 0.0425
_refine_ls_wR_factor_gt 0.0425
_symmetry_cell_setting monoclinic
_symmetry_space_group_name_H-M 'P 21/n'
_symmetry_Int_Tables_number 14
loop_
_symmetry_equiv_pos_site_id
_symmetry_equiv_pos_as_xyz
1 x,y,z
2 1/2+x,1/2-y,1/2+z
3 -x,-y,-z
4 -1/2-x,-1/2+y,-1/2-z
_cell_length_a 7.1800(1)
_cell_length_b 16.0048(3)
_cell_length_c 12.2543(2)
_cell_angle_alpha 90
_cell_angle_beta 100.671(1)
_cell_angle_gamma 90
_cell_formula_units_Z 4
loop_
_atom_type_symbol
_atom_type_radius_bond
C 0.68
H 0.19
N 0.68
O 0.68
loop_
_atom_site_label
_atom_site_type_symbol
_atom_site_fract_x
_atom_site_fract_y
_atom_site_fract_z
O1 O -0.13526(14) 0.97372(6) 0.71030(7)
O2 O -0.15730(14) 1.12540(6) 0.69343(8)
O3 O 0.01617(14) 1.50363(6) 0.71346(9)
O4 O -0.14382(13) 1.41411(6) 0.60096(7)
O5 O 0.27889(15) 0.68328(5) 1.00772(8)
N1 N -0.03624(14) 1.43211(6) 0.68785(8)
C1 C -0.00274(16) 0.98107(7) 0.79678(9)
C2 C 0.06222(16) 1.06139(7) 0.83388(9)
C3 C -0.01913(16) 1.13191(7) 0.77868(9)
C4 C 0.04432(16) 1.21828(7) 0.80959(9)
C5 C 0.17284(19) 1.23643(8) 0.90660(9)
C6 C 0.2316(2) 1.31811(8) 0.93166(10)
C7 C 0.16247(18) 1.38268(8) 0.86055(10)
C8 C 0.03473(16) 1.36385(7) 0.76505(9)
C9 C -0.02648(15) 1.28351(7) 0.73770(9)
C10 C 0.07325(15) 0.90354(7) 0.85203(9)
C11 C 0.01468(16) 0.82691(7) 0.80187(10)
C12 C 0.08016(17) 0.75191(7) 0.85072(10)
C13 C 0.20652(17) 0.75299(7) 0.95162(10)
C14 C 0.26743(17) 0.82873(7) 1.00255(9)
C15 C 0.20073(16) 0.90312(7) 0.95344(9)
C16 C 0.2260(3) 0.60406(8) 0.95779(13)
H1 H -0.171(3) 1.0505(19) 0.6873(18)
H2 H 0.162(2) 1.0661(9) 0.8956(13)
H3 H 0.226(2) 1.193(1) 0.9574(13)
H4 H 0.323(3) 1.3306(11) 0.9970(15)
H5 H 0.203(3) 1.4409(11) 0.8728(15)
H6 H -0.115(2) 1.2726(10) 0.6705(14)
H7 H -0.073(2) 0.8264(10) 0.7340(13)
H8 H 0.037(2) 0.6991(9) 0.8114(12)
H9 H 0.356(2) 0.8283(10) 1.0752(14)
H10 H 0.242(2) 0.9551(10) 0.9921(13)
H11 H 0.090(3) 0.5943(11) 0.9501(15)
H12 H 0.267(2) 0.5988(11) 0.8859(15)
H13 H 0.296(3) 0.5616(13) 1.0086(17)
#END
