
#######################################################################
#
#                 Cambridge Crystallographic Data Centre
#                                CCDC
#
#######################################################################
#
# If this CIF has been generated from an entry in the Cambridge
# Structural Database, then it will include bibliographic, chemical,
# crystal, experimental, refinement or atomic coordinate data resulting
# from the CCDC's data processing and validation procedures.
#
#######################################################################

data_CSD_CIF_EVIGIZ
_audit_creation_date 2004-07-16
_audit_creation_method CSD-ConQuest-V1
_database_code_CSD EVIGIZ
_database_code_depnum_ccdc_archive 'CCDC 239137'
_chemical_formula_sum 'C9 H7 N1 O2'
_chemical_formula_moiety
;
C9 H7 N1 O2
;
_journal_coeditor_code "IUCr FL6093"
_journal_coden_Cambridge 1370
_journal_volume 60
_journal_year 2004
_journal_page_first o752
_journal_name_full 'Acta Crystallogr.,Sect.E:Struct.Rep.Online '
loop_
_publ_author_name
"J.Hartung"
"K.Spehar"
"I.Svoboda"
"H.Fuess"
_chemical_name_systematic
;
Indan-1,2-dione 2-oxime
;
_cell_volume    750.367
_exptl_crystal_colour 'brown'
_exptl_crystal_density_diffrn 1.427
_exptl_crystal_description 'prism'
_diffrn_ambient_temperature 300
#These two values have been output from a single CSD field.
_refine_ls_R_factor_gt 0.0439
_refine_ls_wR_factor_gt 0.0439
_symmetry_cell_setting monoclinic
_symmetry_space_group_name_H-M 'P 21/n'
_symmetry_Int_Tables_number 14
loop_
_symmetry_equiv_pos_site_id
_symmetry_equiv_pos_as_xyz
1 x,y,z
2 1/2+x,1/2-y,1/2+z
3 -x,-y,-z
4 -1/2-x,-1/2+y,-1/2-z
_cell_length_a 6.169(2)
_cell_length_b 5.410(2)
_cell_length_c 22.606(4)
_cell_angle_alpha 90
_cell_angle_beta 95.97(2)
_cell_angle_gamma 90
_cell_formula_units_Z 4
loop_
_atom_type_symbol
_atom_type_radius_bond
C 0.68
H 0.23
N 0.68
O 0.68
loop_
_atom_site_label
_atom_site_type_symbol
_atom_site_fract_x
_atom_site_fract_y
_atom_site_fract_z
C1 C 0.5660(3) 0.0097(3) 0.11794(8)
C2 C 0.4028(3) 0.1021(3) 0.06866(8)
C3 C 0.1987(3) -0.0472(4) 0.06588(9)
H1 H 0.166(3) -0.144(4) 0.0282(8)
H2 H 0.076(3) 0.054(3) 0.0726(8)
C4 C 0.2489(3) -0.2307(3) 0.11549(8)
C5 C 0.4572(3) -0.1977(3) 0.14462(8)
C6 C 0.5346(3) -0.3518(4) 0.19155(9)
H3 H 0.671(3) -0.325(4) 0.2095(9)
C7 C 0.4025(3) -0.5362(4) 0.20887(9)
H4 H 0.450(3) -0.645(4) 0.2411(9)
C8 C 0.1953(3) -0.5685(4) 0.18000(9)
H5 H 0.108(3) -0.702(4) 0.1934(9)
C9 C 0.1170(3) -0.4167(3) 0.13363(9)
H6 H -0.026(3) -0.443(3) 0.1128(8)
N1 N 0.4495(2) 0.2830(3) 0.03618(7)
O1 O 0.2780(2) 0.3383(3) -0.00737(6)
H7 H 0.345(3) 0.488(4) -0.0274(9)
O2 O 0.7468(2) 0.0928(3) 0.13173(7)
#END
