
#######################################################################
#
#                 Cambridge Crystallographic Data Centre
#                                CCDC
#
#######################################################################
#
# If this CIF has been generated from an entry in the Cambridge
# Structural Database, then it will include bibliographic, chemical,
# crystal, experimental, refinement or atomic coordinate data resulting
# from the CCDC's data processing and validation procedures.
#
#######################################################################

data_CSD_CIF_EVIHAT
_audit_creation_date 2011-08-04
_audit_creation_method CSD-ConQuest-V1
_database_code_CSD EVIHAT
_database_code_depnum_ccdc_archive 'CCDC 834499'
_chemical_formula_sum 'C30 H31 N1 O2'
_chemical_formula_moiety
;
C30 H31 N1 O2
;
_journal_coeditor_code "IUCr FJ2437"
_journal_coden_Cambridge 1370
_journal_volume 67
_journal_year 2011
_journal_page_first o1862
_journal_name_full 'Acta Crystallogr.,Sect.E:Struct.Rep.Online '
loop_
_publ_author_name
"M.Akhazzane"
"H.Zouihri"
"A.K.Bennani"
"A.Kerbal"
"G.Al Houari"
_chemical_name_systematic
;
4-t-Butyl-3',4'-bis(4-methylphenyl)-3,4-dihydro-1H,4'H-spiro[naphthalene-2,5'-
[1,2]oxazol]-1-one
;
_cell_volume   2398.979
_exptl_crystal_colour 'colorless'
_exptl_crystal_density_diffrn 1.211
_exptl_crystal_description 'prism'
_diffrn_ambient_temperature 296
#These two values have been output from a single CSD field.
_refine_ls_R_factor_gt 0.0395
_refine_ls_wR_factor_gt 0.0395
_symmetry_cell_setting monoclinic
_symmetry_space_group_name_H-M 'P 21/c'
_symmetry_Int_Tables_number 14
loop_
_symmetry_equiv_pos_site_id
_symmetry_equiv_pos_as_xyz
1 x,y,z
2 -x,1/2+y,1/2-z
3 -x,-y,-z
4 x,-1/2-y,-1/2+z
_cell_length_a 6.9158(2)
_cell_length_b 25.0737(5)
_cell_length_c 13.8747(3)
_cell_angle_alpha 90
_cell_angle_beta 94.359(1)
_cell_angle_gamma 90
_cell_formula_units_Z 4
loop_
_atom_type_symbol
_atom_type_radius_bond
C 0.68
H 0.23
N 0.68
O 0.68
loop_
_atom_site_label
_atom_site_type_symbol
_atom_site_fract_x
_atom_site_fract_y
_atom_site_fract_z
C1 C 0.99029(18) 0.74156(5) 0.65946(9)
C2 C 0.91627(18) 0.68621(5) 0.65774(9)
C3 C 0.79579(18) 0.60703(5) 0.75229(9)
C4 C 0.92787(19) 0.56724(5) 0.70820(9)
C5 C 0.8637(2) 0.51687(5) 0.66211(10)
C6 C 0.6692(2) 0.50386(6) 0.64952(12)
C7 C 0.6080(3) 0.45881(7) 0.59815(13)
C8 C 0.7374(3) 0.42578(6) 0.55695(11)
C9 C 0.9322(3) 0.43787(6) 0.57194(12)
C10 C 0.9957(2) 0.48232(6) 0.62346(11)
C11 C 0.73938(19) 0.58832(5) 0.85013(10)
C12 C 1.0839(2) 0.76120(6) 0.58097(10)
C13 C 0.8776(2) 0.56859(6) 0.91866(11)
C14 C 0.8290(3) 0.55555(6) 1.01065(12)
C15 C 0.6423(3) 0.56116(6) 1.03785(12)
C16 C 0.5045(3) 0.57951(6) 0.96882(13)
C17 C 0.5510(2) 0.59308(6) 0.87645(12)
C18 C 0.6435(2) 0.76273(6) 0.81758(11)
C19 C 0.5354(2) 0.73359(7) 0.73308(13)
C20 C 0.5627(3) 0.74534(8) 0.91206(14)
C21 C 0.6084(2) 0.82265(6) 0.80518(14)
C22 C 0.6694(3) 0.37877(7) 0.49570(14)
C23 C 1.1560(3) 0.81225(7) 0.58255(12)
C24 C 0.5917(4) 0.54724(8) 1.13904(14)
C25 C 1.1346(2) 0.84417(6) 0.66174(12)
C26 C 1.0423(2) 0.82538(6) 0.73955(11)
C27 C 0.96796(18) 0.77373(5) 0.74004(9)
C28 C 0.86674(19) 0.75211(5) 0.82404(9)
C29 C 0.9315(2) 0.69419(5) 0.84267(9)
C30 C 0.92760(18) 0.65669(5) 0.75533(9)
H1 H 0.67960 0.61310 0.70880
H2 H 0.57810 0.52570 0.67590
H3 H 0.47650 0.45070 0.59140
H4 H 1.02270 0.41550 0.54660
H5 H 1.12780 0.48940 0.63250
H6 H 1.09740 0.73960 0.52740
H7 H 1.00460 0.56410 0.90250
H8 H 0.92470 0.54270 1.05530
H9 H 0.37680 0.58290 0.98460
H10 H 0.45460 0.60550 0.83170
H11 H 0.39990 0.74230 0.73110
H12 H 0.55180 0.69580 0.74140
H13 H 0.58650 0.74440 0.67370
H14 H 0.63110 0.76350 0.96520
H15 H 0.57890 0.70750 0.92000
H16 H 0.42740 0.75410 0.91040
H17 H 0.64840 0.83380 0.74360
H18 H 0.68200 0.84160 0.85570
H19 H 0.47300 0.83010 0.80850
H20 H 0.77950 0.36050 0.47340
H21 H 0.58760 0.39100 0.44120
H22 H 0.59770 0.35480 0.53350
H23 H 1.21890 0.82520 0.53040
H24 H 0.45610 0.55360 1.14470
H25 H 0.66670 0.56900 1.18500
H26 H 0.62010 0.51030 1.15170
H27 H 1.18290 0.87880 0.66280
H28 H 1.02950 0.84750 0.79250
H29 H 0.91980 0.77220 0.88050
H30 H 1.06280 0.69480 0.87260
H31 H 0.84960 0.67890 0.88920
N1 N 1.10645(17) 0.58119(5) 0.71418(9)
O1 O 1.12294(13) 0.63264(4) 0.75739(7)
O2 O 0.86056(16) 0.66355(4) 0.58328(7)
H32? H 0.53030 0.37710 0.49200
H33? H 0.72230 0.34650 0.52420
H34? H 0.71220 0.38280 0.43190
H35? H 0.70580 0.53500 1.17620
H36? H 0.49520 0.51960 1.13590
H37? H 0.54180 0.57830 1.16920
#END
