
#######################################################################
#
#                 Cambridge Crystallographic Data Centre
#                                CCDC
#
#######################################################################
#
# If this CIF has been generated from an entry in the Cambridge
# Structural Database, then it will include bibliographic, chemical,
# crystal, experimental, refinement or atomic coordinate data resulting
# from the CCDC's data processing and validation procedures.
#
#######################################################################

data_CSD_CIF_EVINOM02
_audit_creation_date 2011-06-15
_audit_creation_method CSD-ConQuest-V1
_database_code_CSD EVINOM02
_database_code_depnum_ccdc_archive 'CCDC 825428'
_chemical_formula_sum 'C17 H12 N2 O3'
_chemical_formula_moiety
;
C17 H12 N2 O3
;
_journal_coeditor_code "IUCr BQ2290"
_journal_coden_Cambridge 1370
_journal_volume 67
_journal_year 2011
_journal_page_first o1123
_journal_name_full 'Acta Crystallogr.,Sect.E:Struct.Rep.Online '
loop_
_publ_author_name
"M.Damous"
"M.Hamlaoui"
"S.Bouacida"
"H.Merazig"
"J.-C.Daran"
_chemical_name_systematic
;
(E)-1-((4-Nitrophenyl)iminiomethyl)naphthalen-2-olate
;
_cell_volume   1349.366
_exptl_crystal_colour 'red'
_exptl_crystal_density_diffrn 1.439
_exptl_crystal_description 'needle'
_exptl_crystal_preparation 'dimethylsulfoxide'
_diffrn_ambient_temperature 296
#These two values have been output from a single CSD field.
_refine_ls_R_factor_gt 0.0587
_refine_ls_wR_factor_gt 0.0587
_symmetry_cell_setting monoclinic
_symmetry_space_group_name_H-M 'P 21/c'
_symmetry_Int_Tables_number 14
loop_
_symmetry_equiv_pos_site_id
_symmetry_equiv_pos_as_xyz
1 x,y,z
2 -x,1/2+y,1/2-z
3 -x,-y,-z
4 x,-1/2-y,-1/2+z
_cell_length_a 8.0503(6)
_cell_length_b 12.8174(9)
_cell_length_c 13.1833(10)
_cell_angle_alpha 90
_cell_angle_beta 97.271(5)
_cell_angle_gamma 90
_cell_formula_units_Z 4
loop_
_atom_type_symbol
_atom_type_radius_bond
C 0.68
H 0.23
N 0.68
O 0.68
loop_
_atom_site_label
_atom_site_type_symbol
_atom_site_fract_x
_atom_site_fract_y
_atom_site_fract_z
O1 O 0.88419(14) -0.08384(7) 0.31991(8)
O2 O 0.44266(15) -0.40551(8) 0.79254(8)
O3 O 0.49601(17) -0.51766(7) 0.67875(9)
N1 N 0.74356(13) -0.11314(7) 0.47852(8)
N2 N 0.49499(15) -0.42784(8) 0.71179(9)
C1 C 0.82974(14) 0.16828(9) 0.44636(9)
C2 C 0.82177(14) 0.05641(9) 0.42782(9)
C3 C 0.55083(16) -0.24287(9) 0.6858(1)
H1 H 0.50570 -0.22750 0.74560
C4 C 0.55862(16) -0.34487(9) 0.65258(10)
C5 C 0.75161(14) -0.01080(9) 0.49403(10)
C6 C 0.62367(17) -0.37057(9) 0.56335(10)
H2 H 0.62670 -0.43960 0.54210
C7 C 0.90181(15) 0.23306(9) 0.37664(10)
C8 C 0.76748(16) 0.21715(9) 0.52907(10)
H3 H 0.72100 0.17660 0.57680
C9 C 0.68369(16) -0.29201(9) 0.5068(1)
H4 H 0.72780 -0.30790 0.44680
C10 C 0.61127(16) -0.16388(9) 0.62877(10)
H5 H 0.60690 -0.09490 0.65010
C11 C 0.90891(17) 0.34145(10) 0.39091(12)
H6 H 0.95690 0.38300 0.34460
C12 C 0.96505(18) 0.08390(11) 0.27475(11)
H7 H 1.01220 0.05740 0.21930
C13 C 0.67859(14) -0.18811(9) 0.53937(9)
C14 C 0.88945(16) 0.01310(9) 0.34053(10)
C15 C 0.84615(17) 0.38702(10) 0.47216(13)
H8 H 0.85170 0.45900 0.48120
C16 C 0.77392(17) 0.32417(10) 0.54105(12)
H9 H 0.72960 0.35470 0.59570
C17 C 0.96888(17) 0.18704(10) 0.29171(11)
H10 H 1.01680 0.23020 0.24670
H11 H 0.704(2) 0.0100(13) 0.5544(14)
H12 H 0.798(3) -0.1327(18) 0.4091(18)
#END
