
#######################################################################
#
#                 Cambridge Crystallographic Data Centre
#                                CCDC
#
#######################################################################
#
# If this CIF has been generated from an entry in the Cambridge
# Structural Database, then it will include bibliographic, chemical,
# crystal, experimental, refinement or atomic coordinate data resulting
# from the CCDC's data processing and validation procedures.
#
#######################################################################

data_CSD_CIF_EVOBOG
_audit_creation_date 2004-07-16
_audit_creation_method CSD-ConQuest-V1
_database_code_CSD EVOBOG
_database_code_depnum_ccdc_archive 'CCDC 241723'
_chemical_formula_sum 'C34 H32 N4 O9'
_chemical_formula_moiety
;
C34 H32 N4 O9
;
_journal_coden_Cambridge 82
_journal_volume 44
_journal_year 2003
_journal_page_first 940
_journal_name_full 'Zh.Strukt.Khim.(Russ.)(J.Struct.Chem.) '
loop_
_publ_author_name
"T.V.Rybalova"
"V.F.Sedova"
"Yu.V.Gatilov"
"O.P.Shkurko"
_chemical_name_systematic
;
2,2'-bis(2,6-Dimethyl-3,5-di(methoxycarbonyl)pyridin-4-yl)azoxybenzene
;
_chemical_melting_point 440.15
_cell_volume   1659.455
_exptl_crystal_colour 'light yellow'
_exptl_crystal_density_diffrn 1.282
_exptl_special_details
;
Melting point range 440.15-442.15K

;
_exptl_crystal_description 'plate'
_exptl_crystal_preparation 'carbon tetrachloride/hexane'
_diffrn_ambient_temperature 295
#These two values have been output from a single CSD field.
_refine_ls_R_factor_gt 0.0639
_refine_ls_wR_factor_gt 0.0639
_symmetry_cell_setting triclinic
_symmetry_space_group_name_H-M 'P -1'
_symmetry_Int_Tables_number 2
loop_
_symmetry_equiv_pos_site_id
_symmetry_equiv_pos_as_xyz
1 x,y,z
2 -x,-y,-z
_cell_length_a 10.631(3)
_cell_length_b 12.655(4)
_cell_length_c 14.330(3)
_cell_angle_alpha 109.26(2)
_cell_angle_beta 103.12(2)
_cell_angle_gamma 104.37(2)
_cell_formula_units_Z 2
loop_
_atom_type_symbol
_atom_type_radius_bond
C 0.68
H 0.23
N 0.68
O 0.68
loop_
_atom_site_label
_atom_site_type_symbol
_atom_site_fract_x
_atom_site_fract_y
_atom_site_fract_z
O1 O 0.0592(3) 0.3259(3) 0.0403(2)
O2 O 0.1484(2) 0.4232(2) 0.21271(17)
O3 O 0.42003(18) 0.28946(18) 0.27706(13)
O4 O 0.6636(3) 0.2837(3) 0.1343(2)
O5 O 0.5344(3) 0.2194(2) -0.03069(18)
N1 N 0.5107(3) 0.5753(2) 0.15332(18)
N2 N 0.29620(18) 0.22344(16) 0.23335(13)
C1 C 0.3808(3) 0.5393(2) 0.1527(2)
C2 C 0.3036(3) 0.4197(2) 0.12218(19)
C3 C 0.3628(2) 0.3337(2) 0.09142(16)
C4 C 0.4997(2) 0.3730(2) 0.09450(17)
C5 C 0.5692(3) 0.4942(2) 0.12516(19)
C6 C 0.3220(5) 0.6371(3) 0.1844(4)
H1 H 0.39100 0.71280 0.20290
H2 H 0.29400 0.63800 0.24370
H3 H 0.24370 0.62280 0.12680
C7 C 0.1562(3) 0.3838(2) 0.1177(2)
C8 C 0.0116(4) 0.3987(4) 0.2212(4)
H4 H 0.01940 0.43180 0.29380
H5 H -0.03620 0.31390 0.19120
H6 H -0.03880 0.43440 0.18410
C9 C 0.2827(2) 0.2031(2) 0.05419(17)
C10 C 0.2504(2) 0.15008(19) 0.12064(16)
C11 C 0.1770(2) 0.0297(2) 0.08391(18)
H7 H 0.15710 -0.00360 0.13010
C12 C 0.1335(3) -0.0406(2) -0.0221(2)
H8 H 0.08550 -0.12220 -0.04770
C13 C 0.1609(3) 0.0098(2) -0.0901(2)
H9 H 0.12980 -0.03740 -0.16180
C14 C 0.2342(3) 0.1298(2) -0.05227(19)
H10 H 0.25170 0.16280 -0.09920
C15 C 0.5740(3) 0.2870(3) 0.0701(2)
C16 C 0.5999(6) 0.1320(5) -0.0613(4)
H11 H 0.56350 0.08810 -0.13620
H12 H 0.58190 0.07780 -0.02820
H13 H 0.69760 0.17210 -0.03970
C17 C 0.7156(3) 0.5429(3) 0.1292(2)
H14 H 0.74390 0.62810 0.15220
H15 H 0.72130 0.50780 0.06050
H16 H 0.77490 0.52390 0.17750
O6 O 0.3312(2) -0.0011(2) 0.29617(16)
O7 O 0.37249(18) 0.11145(19) 0.46370(15)
O8 O -0.1624(2) 0.1730(2) 0.48700(16)
O9 O -0.1227(2) 0.21756(19) 0.35646(16)
N3 N -0.0813(2) -0.13874(18) 0.30157(16)
N4 N 0.20234(19) 0.21036(16) 0.27493(14)
C18 C 0.0526(3) -0.1083(2) 0.31062(18)
C19 C 0.1414(2) 0.0103(2) 0.35683(17)
C20 C 0.0897(2) 0.1017(2) 0.39392(16)
C21 C -0.0504(2) 0.0674(2) 0.38305(16)
C22 C -0.1322(2) -0.0532(2) 0.33757(17)
C23 C 0.0976(3) -0.2124(2) 0.2664(3)
H17 H 0.02050 -0.28560 0.23860
H18 H 0.16930 -0.21230 0.32090
H19 H 0.13180 -0.20550 0.21130
C24 C 0.2898(2) 0.0382(2) 0.36675(19)
C25 C 0.5198(3) 0.1537(4) 0.4804(3)
H20 H 0.56940 0.20570 0.55300
H21 H 0.53690 0.19660 0.43770
H22 H 0.55000 0.08660 0.46130
C26 C 0.1763(2) 0.23103(19) 0.44162(16)
C27 C 0.2383(2) 0.28391(19) 0.38344(16)
C28 C 0.3156(2) 0.4057(2) 0.42930(19)
H23 H 0.35540 0.44100 0.39050
C29 C 0.3334(3) 0.4743(2) 0.53182(19)
H24 H 0.38470 0.55570 0.56190
C30 C 0.2749(3) 0.4221(2) 0.59017(19)
H25 H 0.28820 0.46810 0.65970
C31 C 0.1967(3) 0.3014(2) 0.54504(18)
H26 H 0.15740 0.26700 0.58460
C32 C -0.1154(2) 0.1587(2) 0.41736(18)
C33 C -0.1854(5) 0.3087(4) 0.3826(4)
H27 H -0.18570 0.34590 0.33400
H28 H -0.13330 0.36790 0.45260
H29 H -0.27840 0.27230 0.37820
C34 C -0.2840(3) -0.0957(3) 0.3212(2)
H30 H -0.32090 -0.18150 0.28900
H31 H -0.33040 -0.06510 0.27630
H32 H -0.29780 -0.06760 0.38770
#END
