
#######################################################################
#
#                 Cambridge Crystallographic Data Centre
#                                CCDC
#
#######################################################################
#
# If this CIF has been generated from an entry in the Cambridge
# Structural Database, then it will include bibliographic, chemical,
# crystal, experimental, refinement or atomic coordinate data resulting
# from the CCDC's data processing and validation procedures.
#
#######################################################################

data_CSD_CIF_EVOFEA
_audit_creation_date 2004-07-16
_audit_creation_method CSD-ConQuest-V1
_database_code_CSD EVOFEA
_database_code_depnum_ccdc_archive 'CCDC 241736'
_chemical_formula_sum 'C21 H33 N1 O3'
_chemical_formula_moiety
;
C21 H33 N1 O3
;
_journal_coden_Cambridge 444
_journal_volume 73
_journal_year 2003
_journal_page_first 1330
_journal_name_full 'Zh.Obshch.Khim.(Russ.)(Russ.J.Gen.Chem.) '
loop_
_publ_author_name
"V.A.Al'fonsov"
"O.V.Andreeva"
"G.A.Bakaleinik"
"D.V.Beskrovnyi"
"A.T.Gubaidullin"
"V.E.Kataev"
"G.I.Kovylyaeva"
"A.I.Konovalov"
"M.G.Korochkina"
"I.A.Litvinov"
"O.I.Militsina"
"I.Yu.Strobykina"
_chemical_name_systematic
;
Methyl 16-hydroximino-13-methyl-17-norkauran-18-carboxylate
;
_chemical_melting_point 434.15
_cell_volume   1931.552
_exptl_crystal_colour 'colorless'
_exptl_crystal_density_diffrn 1.195
_exptl_special_details
;
Melting point range 434.15-438.15K
Absolute configuration

;
_exptl_crystal_description 'prism'
_diffrn_ambient_temperature 295
#These two values have been output from a single CSD field.
_refine_ls_R_factor_gt 0.037
_refine_ls_wR_factor_gt 0.037
_symmetry_cell_setting monoclinic
_symmetry_space_group_name_H-M 'C 2'
_symmetry_Int_Tables_number 5
loop_
_symmetry_equiv_pos_site_id
_symmetry_equiv_pos_as_xyz
1 x,y,z
2 -x,y,-z
3 1/2+x,1/2+y,z
4 1/2-x,1/2+y,-z
_cell_length_a 23.02(1)
_cell_length_b 7.461(4)
_cell_length_c 11.434(5)
_cell_angle_alpha 90
_cell_angle_beta 100.40(4)
_cell_angle_gamma 90
_cell_formula_units_Z 4
loop_
_atom_type_symbol
_atom_type_radius_bond
C 0.68
H 0.23
N 0.68
O 0.68
loop_
_atom_site_label
_atom_site_type_symbol
_atom_site_fract_x
_atom_site_fract_y
_atom_site_fract_z
O1 O 0.12176(7) 0.07720 0.5717(1)
O2 O 0.05833(9) 0.2015(5) 0.6688(2)
O3 O 0.42581(8) 0.1249(4) 0.4594(1)
N1 N 0.45460(8) 0.1306(4) 0.5803(2)
C1 C 0.2368(1) 0.3671(4) 0.8628(2)
C2 C 0.1704(1) 0.3951(4) 0.8607(2)
C3 C 0.1408(1) 0.2196(5) 0.8797(2)
C4 C 0.1467(1) 0.0800(4) 0.7847(2)
C5 C 0.21354(9) 0.0551(3) 0.7794(2)
C6 C 0.2292(1) -0.0912(4) 0.6960(2)
C7 C 0.2929(1) -0.1471(4) 0.7375(2)
C8 C 0.33720(9) 0.0079(4) 0.7425(2)
C9 C 0.31680(9) 0.1759(3) 0.8048(2)
C10 C 0.24973(9) 0.2294(3) 0.7700(2)
C11 C 0.3603(1) 0.3290(4) 0.7999(2)
C12 C 0.4247(1) 0.2734(4) 0.8391(2)
C13 C 0.43998(9) 0.0940(4) 0.7835(2)
C14 C 0.3976(1) -0.0489(4) 0.8142(2)
C15 C 0.3541(1) 0.0537(4) 0.6204(2)
C16 C 0.4185(1) 0.1019(4) 0.6497(2)
C17 C 0.5051(1) 0.0455(5) 0.8189(2)
C18 C 0.1049(1) 0.1302(5) 0.6691(2)
C19 C 0.1215(1) -0.0992(5) 0.8213(3)
C20 C 0.2350(1) 0.3171(4) 0.6469(2)
C21 C 0.0798(1) 0.1031(5) 0.4623(2)
H1 H 0.455(1) 0.131(5) 0.435(2)
H2 H 0.2304(9) 0.013(4) 0.850(2)
H3 H 0.3186(9) 0.141(4) 0.898(2)
H4 H 0.255(1) 0.488(5) 0.848(2)
H5 H 0.254(1) 0.310(4) 0.945(2)
H6 H 0.164(1) 0.474(5) 0.927(2)
H7 H 0.153(1) 0.455(4) 0.780(2)
H8 H 0.160(1) 0.168(5) 0.962(2)
H9 H 0.0967(9) 0.244(4) 0.884(2)
H10 H 0.224(1) -0.044(4) 0.615(2)
H11 H 0.204(1) -0.194(4) 0.701(2)
H12 H 0.298(1) -0.196(5) 0.833(2)
H13 H 0.305(1) -0.238(5) 0.700(2)
H14 H 0.354(1) 0.415(5) 0.848(2)
H15 H 0.357(1) 0.379(5) 0.710(2)
H16 H 0.450(1) 0.373(4) 0.818(2)
H17 H 0.436(1) 0.248(4) 0.922(2)
H18 H 0.399(1) -0.047(5) 0.897(2)
H19 H 0.410(1) -0.173(4) 0.782(2)
H20 H 0.3297(9) 0.148(4) 0.575(2)
H21 H 0.349(1) -0.051(5) 0.579(2)
H22 H 0.518(1) -0.057(6) 0.782(3)
H23 H 0.516(1) 0.047(5) 0.900(2)
H24 H 0.533(1) 0.160(6) 0.781(3)
H25 H 0.148(1) -0.168(5) 0.891(3)
H26 H 0.121(1) -0.191(6) 0.761(3)
H27 H 0.081(1) -0.089(6) 0.836(3)
H28 H 0.240(1) 0.237(5) 0.586(2)
H29 H 0.262(1) 0.412(5) 0.650(3)
H30 H 0.1933(9) 0.358(4) 0.624(2)
H31 H 0.057(1) 0.216(5) 0.462(3)
H32 H 0.106(1) 0.107(7) 0.391(3)
H33 H 0.050(1) 0.008(7) 0.453(3)
#END
