
#######################################################################
#
#                 Cambridge Crystallographic Data Centre
#                                CCDC
#
#######################################################################
#
# If this CIF has been generated from an entry in the Cambridge
# Structural Database, then it will include bibliographic, chemical,
# crystal, experimental, refinement or atomic coordinate data resulting
# from the CCDC's data processing and validation procedures.
#
#######################################################################

data_CSD_CIF_EVOQAI
_audit_creation_date 2011-09-15
_audit_creation_method CSD-ConQuest-V1
_database_code_CSD EVOQAI
_database_code_depnum_ccdc_archive 'CCDC 821632'
_chemical_formula_sum 'C22 H18 N2 O5'
_chemical_formula_moiety
;
C22 H18 N2 O5
;
_journal_coeditor_code "IUCr LD2012"
_journal_coden_Cambridge 1370
_journal_volume 67
_journal_year 2011
_journal_page_first o1966
_journal_name_full 'Acta Crystallogr.,Sect.E:Struct.Rep.Online '
loop_
_publ_author_name
"Kai Zhang"
"Dian He"
_chemical_name_systematic
;
N-Benzoyl-N-(3-methylphenyl)-O-[2-(2-nitrophenyl)acetyl]hydroxylamine
;
_chemical_name_common
;
N-(3-Methylphenyl)-N-(2-(2-nitrophenyl)acetoxy)benzamide
;
_cell_volume   1931.943
_exptl_crystal_colour 'yellow'
_exptl_crystal_density_diffrn 1.342
_exptl_crystal_description 'block'
_diffrn_ambient_temperature 296
#These two values have been output from a single CSD field.
_refine_ls_R_factor_gt 0.0501
_refine_ls_wR_factor_gt 0.0501
_symmetry_cell_setting monoclinic
_symmetry_space_group_name_H-M 'P 21/c'
_symmetry_Int_Tables_number 14
loop_
_symmetry_equiv_pos_site_id
_symmetry_equiv_pos_as_xyz
1 x,y,z
2 -x,1/2+y,1/2-z
3 -x,-y,-z
4 x,-1/2-y,-1/2+z
_cell_length_a 16.34(2)
_cell_length_b 8.459(10)
_cell_length_c 14.862(18)
_cell_angle_alpha 90
_cell_angle_beta 109.869(11)
_cell_angle_gamma 90
_cell_formula_units_Z 4
loop_
_atom_type_symbol
_atom_type_radius_bond
C 0.68
H 0.23
N 0.68
O 0.68
loop_
_atom_site_label
_atom_site_type_symbol
_atom_site_fract_x
_atom_site_fract_y
_atom_site_fract_z
C1 C 0.09639(15) 0.0309(3) 1.13097(16)
C2 C 0.01484(17) -0.0114(4) 1.13187(18)
H1 H -0.02640 0.06530 1.13030
C3 C -0.0036(2) -0.1670(5) 1.1352(2)
H2 H -0.05830 -0.19770 1.13490
C4 C 0.0570(2) -0.2781(4) 1.1388(2)
H3 H 0.04390 -0.38460 1.14120
C5 C 0.13830(19) -0.2336(3) 1.13877(19)
H4 H 0.17920 -0.31140 1.14140
C6 C 0.16037(15) -0.0779(3) 1.13499(15)
C7 C 0.25040(15) -0.0379(3) 1.13676(16)
H5 H 0.27040 0.05630 1.17520
H6 H 0.28950 -0.12370 1.16680
C8 C 0.25400(15) -0.0102(3) 1.03894(17)
C9 C 0.38632(13) -0.0232(3) 0.93782(15)
C10 C 0.39160(13) -0.0260(2) 0.83950(14)
C11 C 0.32888(15) 0.0383(3) 0.76029(15)
H7 H 0.28290 0.09560 0.76740
C12 C 0.33474(18) 0.0170(3) 0.67094(16)
H8 H 0.29280 0.06100 0.61780
C13 C 0.40156(19) -0.0683(3) 0.65957(18)
H9 H 0.40490 -0.08250 0.59880
C14 C 0.46365(18) -0.1331(3) 0.73773(19)
H10 H 0.50920 -0.19120 0.73020
C15 C 0.45842(15) -0.1119(3) 0.82721(16)
H11 H 0.50060 -0.15620 0.88010
C16 C 0.32922(14) 0.2572(2) 0.92940(13)
C17 C 0.25051(15) 0.3294(3) 0.91822(15)
H12 H 0.20560 0.27010 0.92640
C18 C 0.23706(15) 0.4868(3) 0.89531(15)
C19 C 0.30418(17) 0.5693(3) 0.88050(16)
H13 H 0.29650 0.67550 0.86340
C20 C 0.38237(16) 0.4971(3) 0.89061(16)
H14 H 0.42640 0.55510 0.87970
C21 C 0.39630(15) 0.3411(3) 0.91646(15)
H15 H 0.44970 0.29350 0.92500
C22 C 0.15279(17) 0.5646(3) 0.8891(2)
H16 H 0.10620 0.51810 0.83770
H17 H 0.15600 0.67560 0.87720
H18 H 0.14220 0.54980 0.94820
N1 N 0.33979(12) 0.0969(2) 0.95831(12)
N2 N 0.11232(16) 0.1993(3) 1.12655(17)
O1 O 0.20433(11) -0.0556(2) 0.96539(12)
O2 O 0.32692(9) 0.07666(17) 1.04773(9)
O3 O 0.41541(10) -0.12978(17) 0.99348(10)
O4 O 0.16263(14) 0.2435(2) 1.08809(14)
O5 O 0.0756(2) 0.2889(3) 1.1631(2)
#END
