
#######################################################################
#
#                 Cambridge Crystallographic Data Centre
#                                CCDC
#
#######################################################################
#
# If this CIF has been generated from an entry in the Cambridge
# Structural Database, then it will include bibliographic, chemical,
# crystal, experimental, refinement or atomic coordinate data resulting
# from the CCDC's data processing and validation procedures.
#
#######################################################################

data_CSD_CIF_EVULOW
_audit_creation_date 2004-08-12
_audit_creation_method CSD-ConQuest-V1
_database_code_CSD EVULOW
_database_code_depnum_ccdc_archive 'CCDC 189971'
_chemical_formula_sum 'C16 H14 N2 O4'
_chemical_formula_moiety
;
C16 H14 N2 O4
;
_journal_coden_Cambridge 1003
_journal_volume 34
_journal_year 2004
_journal_page_first 67
_journal_name_full 'J.Chem.Cryst. '
loop_
_publ_author_name
"Dan-Mei Dai"
"You-Cheng Liu"
"Hai-Bin Song"
"Quan-Ming Wang"
"T.C.W.Mak"
_chemical_name_systematic
;
1,1-bis(p-Tolyl)-2,2-dinitroethene
;
_cell_volume   1491.351
_exptl_crystal_colour 'orange'
_exptl_crystal_density_diffrn 1.329
_exptl_crystal_description 'needle'
_exptl_crystal_preparation 'n-hexane/ethyl acetate or ether'
_diffrn_ambient_temperature 293
#These two values have been output from a single CSD field.
_refine_ls_R_factor_gt 0.0478
_refine_ls_wR_factor_gt 0.0478
_symmetry_cell_setting orthorhombic
_symmetry_space_group_name_H-M 'P c a 21'
_symmetry_Int_Tables_number 29
loop_
_symmetry_equiv_pos_site_id
_symmetry_equiv_pos_as_xyz
1 x,y,z
2 -x,-y,1/2+z
3 1/2+x,-y,z
4 1/2-x,y,1/2+z
_cell_length_a 10.502(2)
_cell_length_b 16.635(3)
_cell_length_c 8.5366(16)
_cell_angle_alpha 90
_cell_angle_beta 90
_cell_angle_gamma 90
_cell_formula_units_Z 4
loop_
_atom_type_symbol
_atom_type_radius_bond
C 0.68
H 0.23
N 0.68
O 0.68
loop_
_atom_site_label
_atom_site_type_symbol
_atom_site_fract_x
_atom_site_fract_y
_atom_site_fract_z
C1 C 0.6078(3) 0.24612(17) 0.2764(4)
C2 C 0.7156(3) 0.20542(18) 0.3050(3)
C3 C 0.6097(3) 0.33342(18) 0.2530(4)
C4 C 0.5299(3) 0.36994(19) 0.1418(4)
H1 H 0.47430 0.33890 0.08250
C5 C 0.5345(3) 0.4514(2) 0.1210(5)
H2 H 0.48010 0.47440 0.04760
C6 C 0.6153(3) 0.5013(2) 0.2030(4)
C7 C 0.6934(3) 0.46476(18) 0.3136(4)
H3 H 0.74930 0.49620 0.37180
C8 C 0.6897(3) 0.38356(18) 0.3385(4)
H4 H 0.74220 0.36130 0.41470
C9 C 0.6204(4) 0.5895(2) 0.1773(6)
H5 H 0.56030 0.60420 0.09770
H6 H 0.70460 0.60450 0.14460
H7 H 0.59970 0.61670 0.27310
C10 C 0.4843(3) 0.20316(17) 0.2625(4)
C11 C 0.3747(3) 0.23312(19) 0.3286(4)
H8 H 0.37880 0.27950 0.38910
C12 C 0.2592(3) 0.1957(2) 0.3069(5)
H9 H 0.18630 0.21780 0.35130
C13 C 0.2499(3) 0.1259(2) 0.2204(5)
C14 C 0.3606(3) 0.09568(19) 0.1544(5)
H10 H 0.35690 0.04930 0.09360
C15 C 0.4762(3) 0.13318(17) 0.1774(4)
H11 H 0.54960 0.11080 0.13470
C16 C 0.1243(3) 0.0852(2) 0.1924(6)
H12 H 0.05850 0.11370 0.24710
H13 H 0.12830 0.03090 0.23000
H14 H 0.10600 0.08500 0.08230
N1 N 0.8431(2) 0.23846(15) 0.2792(4)
N2 N 0.7251(3) 0.12410(15) 0.3652(3)
O1 O 0.8670(2) 0.26920(16) 0.1529(3)
O2 O 0.9189(2) 0.23394(16) 0.3881(3)
O3 O 0.6455(3) 0.10207(15) 0.4588(4)
O4 O 0.8127(3) 0.08286(14) 0.3207(4)
#END
