
#######################################################################
#
#                 Cambridge Crystallographic Data Centre
#                                CCDC
#
#######################################################################
#
# If this CIF has been generated from an entry in the Cambridge
# Structural Database, then it will include bibliographic, chemical,
# crystal, experimental, refinement or atomic coordinate data resulting
# from the CCDC's data processing and validation procedures.
#
#######################################################################

data_CSD_CIF_EVULAK01
_audit_creation_date 2017-07-27
_audit_creation_method CSD-ConQuest-V1
_database_code_CSD EVULAK01
_database_code_depnum_ccdc_archive 'CCDC 867813'
_chemical_formula_sum 'C20 H23 N3 O4'
_chemical_formula_moiety
;
C20 H23 N3 O4
;
_journal_coden_Cambridge 1194
_journal_volume 250
_journal_year 2012
_journal_page_first 92
_journal_name_full 'J.Photochem.Photobiol.A:Chem. '
loop_
_publ_author_name
"P.Petrov"
"S.Stoyanov"
"M.Stoyanova"
"M.Dangalov"
"R.P.Nikolova"
"B.L.Shivachev"
"I.Petkov"
_chemical_name_systematic
;
2-butyl-6-(butylamino)-5-nitro-1H-benzo[de]isoquinoline-1,3(2H)-dione
;
_cell_volume   3827.423
_exptl_crystal_colour 'colorless'
_exptl_crystal_density_diffrn 1.282
_exptl_crystal_description 'prism'
_diffrn_ambient_temperature 290.1
#These two values have been output from a single CSD field.
_refine_ls_R_factor_gt 0.0789
_refine_ls_wR_factor_gt 0.0789
_symmetry_cell_setting monoclinic
_symmetry_space_group_name_H-M 'C 2/c'
_symmetry_Int_Tables_number 15
loop_
_symmetry_equiv_pos_site_id
_symmetry_equiv_pos_as_xyz
1 x,y,z
2 -x,y,1/2-z
3 1/2+x,1/2+y,z
4 1/2-x,1/2+y,1/2-z
5 -x,-y,-z
6 x,-y,-1/2+z
7 -1/2-x,-1/2-y,-z
8 -1/2+x,-1/2-y,-1/2+z
_cell_length_a 32.135(5)
_cell_length_b 7.1792(7)
_cell_length_c 16.7887(18)
_cell_angle_alpha 90
_cell_angle_beta 98.819(11)
_cell_angle_gamma 90
_cell_formula_units_Z 8
loop_
_atom_type_symbol
_atom_type_radius_bond
C 0.68
H 0.23
N 0.68
O 0.68
loop_
_atom_site_label
_atom_site_type_symbol
_atom_site_fract_x
_atom_site_fract_y
_atom_site_fract_z
C1 C 0.16875(13) -0.0912(5) 0.4742(2)
C2 C 0.13807(15) -0.0332(5) 0.5985(2)
C3 C 0.17927(13) 0.0371(4) 0.63806(19)
C4 C 0.18209(14) 0.1079(5) 0.7152(2)
H1 H 0.15890 0.10620 0.74230
C5 C 0.22021(14) 0.1816(4) 0.7515(2)
H2 H 0.22210 0.23340 0.80270
C6 C 0.25509(14) 0.1803(4) 0.7141(2)
H3 H 0.28000 0.23310 0.73990
C7 C 0.25411(12) 0.1005(4) 0.63714(18)
C8 C 0.21453(12) 0.0350(4) 0.59771(19)
C9 C 0.20961(12) -0.0261(4) 0.51582(18)
C10 C 0.24306(12) -0.0176(4) 0.47568(19)
H4 H 0.23950 -0.05070 0.42150
C11 C 0.28260(12) 0.0390(4) 0.5131(2)
C12 C 0.29055(13) 0.0901(4) 0.5964(2)
C13 C 0.34809(13) 0.1016(5) 0.7193(2)
H5 H 0.32900 0.03010 0.74680
H6 H 0.35190 0.22290 0.74480
C14 C 0.38952(15) 0.0040(6) 0.7261(2)
H7 H 0.40820 0.07490 0.69730
H8 H 0.38540 -0.11740 0.70080
C15 C 0.41013(16) -0.0205(7) 0.8132(3)
H9 H 0.41590 0.10130 0.83730
H10 H 0.39060 -0.08380 0.84270
C16 C 0.45109(19) -0.1312(10) 0.8217(4)
H11 H 0.44510 -0.25710 0.80440
H12 H 0.46420 -0.13090 0.87710
H13 H 0.46970 -0.07520 0.78910
C17 C 0.09415(14) -0.1571(7) 0.4772(3)
H14 H 0.07850 -0.21420 0.51580
H15 H 0.09770 -0.24830 0.43620
C18 C 0.0684(2) 0.0303(15) 0.4353(6)
H16 H 0.06310 0.11710 0.47680
H17 H 0.08520 0.09310 0.40010
C19 C 0.0344(5) -0.0230(18) 0.3958(9)
H18 H 0.01840 -0.10060 0.42720
H19 H 0.03830 -0.08650 0.34640
C20 C 0.0131(4) 0.1944(19) 0.3784(10)
H20 H 0.01710 0.26440 0.42770
H21 H -0.01650 0.18340 0.35880
H22 H 0.02670 0.25720 0.33900
N1 N 0.13524(11) -0.0918(4) 0.51753(18)
N2 N 0.31578(12) 0.0303(4) 0.46436(19)
N3 N 0.32988(11) 0.1241(4) 0.63377(18)
H23 H 0.35450 0.12890 0.59250
O1 O 0.16404(10) -0.1467(4) 0.40467(15)
O2 O 0.10740(11) -0.0418(4) 0.63306(18)
O3 O 0.35101(10) 0.0983(4) 0.48992(17)
O4 O 0.30849(10) -0.0444(4) 0.39753(16)
#END
