
#######################################################################
#
#                 Cambridge Crystallographic Data Centre
#                                CCDC
#
#######################################################################
#
# If this CIF has been generated from an entry in the Cambridge
# Structural Database, then it will include bibliographic, chemical,
# crystal, experimental, refinement or atomic coordinate data resulting
# from the CCDC's data processing and validation procedures.
#
#######################################################################

data_CSD_CIF_EVUMIR
_audit_creation_date 2004-08-12
_audit_creation_method CSD-ConQuest-V1
_database_code_CSD EVUMIR
_database_code_depnum_ccdc_archive 'CCDC 189975'
_chemical_formula_sum 'C14 H9 N3 O6'
_chemical_formula_moiety
;
C14 H9 N3 O6
;
_journal_coden_Cambridge 1003
_journal_volume 34
_journal_year 2004
_journal_page_first 67
_journal_name_full 'J.Chem.Cryst. '
loop_
_publ_author_name
"Dan-Mei Dai"
"You-Cheng Liu"
"Hai-Bin Song"
"Quan-Ming Wang"
"T.C.W.Mak"
_chemical_name_systematic
;
1-(p-Nitrophenyl)-1-phenyl-2,2-dinitroethene
;
_cell_volume   1434.327
_exptl_crystal_colour 'yellow'
_exptl_crystal_density_diffrn 1.46
_exptl_crystal_description 'block'
_exptl_crystal_preparation 'n-hexane/ethyl acetate or ether'
_diffrn_ambient_temperature 293
#These two values have been output from a single CSD field.
_refine_ls_R_factor_gt 0.0393
_refine_ls_wR_factor_gt 0.0393
_symmetry_cell_setting orthorhombic
_symmetry_space_group_name_H-M 'P 21 21 21'
_symmetry_Int_Tables_number 19
loop_
_symmetry_equiv_pos_site_id
_symmetry_equiv_pos_as_xyz
1 x,y,z
2 1/2-x,-y,1/2+z
3 -x,1/2+y,1/2-z
4 1/2+x,1/2-y,-z
_cell_length_a 8.6635(14)
_cell_length_b 11.2641(18)
_cell_length_c 14.698(2)
_cell_angle_alpha 90
_cell_angle_beta 90
_cell_angle_gamma 90
_cell_formula_units_Z 4
loop_
_atom_type_symbol
_atom_type_radius_bond
C 0.68
H 0.23
N 0.68
O 0.68
loop_
_atom_site_label
_atom_site_type_symbol
_atom_site_fract_x
_atom_site_fract_y
_atom_site_fract_z
C1 C 0.2310(2) 0.34199(16) 0.10292(12)
C2 C 0.2083(3) 0.28934(19) 0.18273(13)
C3 C 0.2697(2) 0.47078(16) 0.09920(11)
C4 C 0.1786(3) 0.55347(17) 0.14367(13)
H1 H 0.09630 0.52840 0.17950
C5 C 0.2099(3) 0.67322(18) 0.13486(13)
H2 H 0.14860 0.72940 0.16380
C6 C 0.3326(3) 0.70751(17) 0.08286(12)
C7 C 0.4253(3) 0.6278(2) 0.03856(14)
H3 H 0.50900 0.65380 0.00430
C8 C 0.3924(2) 0.50839(19) 0.04569(13)
H4 H 0.45230 0.45310 0.01470
C9 C 0.2177(2) 0.28003(16) 0.01460(12)
C10 C 0.1540(2) 0.33924(19) -0.05996(12)
H5 H 0.11870 0.41680 -0.05380
C11 C 0.1437(3) 0.2825(2) -0.14257(14)
H6 H 0.09900 0.32170 -0.19170
C12 C 0.1984(3) 0.1687(2) -0.15376(15)
H7 H 0.19050 0.13120 -0.20990
C13 C 0.2649(3) 0.11081(19) -0.08133(15)
H8 H 0.30440 0.03470 -0.08910
C14 C 0.2736(2) 0.16483(18) 0.00276(13)
H9 H 0.31680 0.12440 0.05170
N1 N 0.2410(3) 0.34467(19) 0.27087(13)
N2 N 0.1463(3) 0.16895(18) 0.19756(13)
N3 N 0.3622(3) 0.83556(19) 0.07112(13)
O1 O 0.3630(3) 0.3943(2) 0.28131(12)
O2 O 0.1404(3) 0.3386(2) 0.32764(14)
O3 O 0.0346(2) 0.13796(16) 0.15427(15)
O4 O 0.2110(4) 0.10985(18) 0.25342(15)
O5 O 0.4702(3) 0.86590(17) 0.02449(15)
O6 O 0.2774(3) 0.90487(15) 0.10934(15)
#END
