
#######################################################################
#
#                 Cambridge Crystallographic Data Centre
#                                CCDC
#
#######################################################################
#
# If this CIF has been generated from an entry in the Cambridge
# Structural Database, then it will include bibliographic, chemical,
# crystal, experimental, refinement or atomic coordinate data resulting
# from the CCDC's data processing and validation procedures.
#
#######################################################################

data_CSD_CIF_EWACEK
_audit_creation_date 2004-08-12
_audit_creation_method CSD-ConQuest-V1
_database_code_CSD EWACEK
_database_code_depnum_ccdc_archive 'CCDC 220288'
_chemical_formula_sum 'C24 H20 N6 O4'
_chemical_formula_moiety
;
C24 H20 N6 O4
;
_journal_coden_Cambridge 1291
_journal_year 2004
_journal_page_first 1097
_journal_name_full 'Eur.J.Org.Chem. '
loop_
_publ_author_name
"T.Mas"
"C.Pardo"
"F.Salort"
"J.Elguero"
"M.R.Torres"
_chemical_name_systematic
;
syn-2,11-Dinitro-5,17:8,14-dimethano-5,8,14,17-tetra-aza-5,6,7,8,13,14,17,18-o
ctahydrodibenzo(e,e')-benzo(1,2-a:3,4-a')dicyclo-octene
;
_chemical_melting_point ?
_cell_volume   4191.427
_exptl_crystal_colour 'yellow'
_exptl_crystal_density_diffrn 1.447
_exptl_special_details
;
Decomposes above 653.15K

;
_exptl_crystal_description 'prismatic'
_exptl_crystal_preparation 'tetrahydrofuran/dichloromethane'
_diffrn_ambient_temperature 293
#These two values have been output from a single CSD field.
_refine_ls_R_factor_gt 0.0581
_refine_ls_wR_factor_gt 0.0581
_symmetry_cell_setting monoclinic
_symmetry_space_group_name_H-M 'C 2/c'
_symmetry_Int_Tables_number 15
loop_
_symmetry_equiv_pos_site_id
_symmetry_equiv_pos_as_xyz
1 x,y,z
2 1/2+x,1/2+y,z
3 x,-y,1/2+z
4 1/2+x,1/2-y,1/2+z
5 -x,-y,-z
6 -1/2-x,-1/2-y,-z
7 -x,y,-1/2-z
8 -1/2-x,-1/2+y,-1/2-z
_cell_length_a 20.574(3)
_cell_length_b 10.6400(17)
_cell_length_c 19.183(3)
_cell_angle_alpha 90
_cell_angle_beta 93.509(4)
_cell_angle_gamma 90
_cell_formula_units_Z 8
loop_
_atom_type_symbol
_atom_type_radius_bond
C 0.68
H 0.23
N 0.68
O 0.68
loop_
_atom_site_label
_atom_site_type_symbol
_atom_site_fract_x
_atom_site_fract_y
_atom_site_fract_z
C1 C 0.2631(3) 0.2578(6) 0.8540(3)
H1 H 0.23970 0.20190 0.82490
C2 C 0.2618(3) 0.3834(7) 0.8395(3)
C3 C 0.2931(3) 0.4708(6) 0.8823(3)
H2 H 0.29140 0.55580 0.87110
C4 C 0.3272(3) 0.4292(5) 0.9423(3)
H3 H 0.34700 0.48680 0.97340
C5 C 0.3319(2) 0.3013(5) 0.9561(3)
N1 N 0.3697(2) 0.2609(4) 1.0166(2)
C6 C 0.4408(2) 0.2758(5) 1.0092(3)
H4 H 0.46380 0.26650 1.05450
H5 H 0.44950 0.35940 0.99190
C7 C 0.4654(3) 0.1783(5) 0.9591(3)
C8 C 0.5260(3) 0.1940(5) 0.9303(3)
C9 C 0.5706(2) 0.3020(5) 0.9533(3)
H6 H 0.54550 0.37930 0.95210
H7 H 0.58680 0.28800 1.00120
N2 N 0.6265(2) 0.3173(4) 0.9091(2)
C10 C 0.6094(3) 0.3822(5) 0.8455(3)
C11 C 0.6056(3) 0.5121(5) 0.8460(3)
H8 H 0.61350 0.55470 0.88800
C12 C 0.5904(3) 0.5802(5) 0.7860(3)
H9 H 0.58860 0.66750 0.78680
C13 C 0.5781(3) 0.5140(6) 0.7244(3)
C14 C 0.5814(2) 0.3844(5) 0.7219(3)
H10 H 0.57300 0.34240 0.67980
C15 C 0.5971(3) 0.3180(5) 0.7819(3)
C16 C 0.6022(3) 0.1759(5) 0.7798(3)
H11 H 0.56400 0.14240 0.75410
H12 H 0.64000 0.15290 0.75480
N3 N 0.6078(2) 0.1175(4) 0.8498(2)
C17 C 0.5448(3) 0.1097(5) 0.8795(3)
C18 C 0.5047(3) 0.0102(5) 0.8590(3)
H13 H 0.51740 -0.04540 0.82500
C19 C 0.4461(3) -0.0067(5) 0.8888(3)
H14 H 0.41980 -0.07420 0.87470
C20 C 0.4256(3) 0.0758(5) 0.9396(3)
N4 N 0.3655(2) 0.0498(4) 0.9709(2)
C21 C 0.3085(3) 0.0745(5) 0.9233(3)
H15 H 0.27000 0.03980 0.94280
H16 H 0.31410 0.03350 0.87890
C22 C 0.2993(3) 0.2141(5) 0.9116(3)
C23 C 0.3585(3) 0.1286(5) 1.0324(3)
H17 H 0.31510 0.11850 1.04860
H18 H 0.38950 0.10170 1.06960
C24 C 0.6520(3) 0.1941(5) 0.8944(3)
H19 H 0.66150 0.15030 0.93820
H20 H 0.69270 0.20380 0.87190
N5 N 0.5589(2) 0.5832(6) 0.6609(3)
N6 N 0.2281(3) 0.4264(7) 0.7752(3)
O1 O 0.5580(3) 0.6983(5) 0.6636(3)
O2 O 0.5431(2) 0.5248(4) 0.6075(2)
O3 O 0.2391(2) 0.5353(5) 0.7562(3)
O4 O 0.1926(3) 0.3553(6) 0.7415(3)
#END
