
#######################################################################
#
#                 Cambridge Crystallographic Data Centre
#                                CCDC
#
#######################################################################
#
# If this CIF has been generated from an entry in the Cambridge
# Structural Database, then it will include bibliographic, chemical,
# crystal, experimental, refinement or atomic coordinate data resulting
# from the CCDC's data processing and validation procedures.
#
#######################################################################

data_CSD_CIF_EWAYIL
_audit_creation_date 2011-11-29
_audit_creation_method CSD-ConQuest-V1
_database_code_CSD EWAYIL
_database_code_depnum_ccdc_archive 'CCDC 840187'
_chemical_formula_sum 'C24 H19 N1 O1'
_chemical_formula_moiety
;
C24 H19 N1 O1
;
_journal_coden_Cambridge 4
_journal_volume 133
_journal_year 2011
_journal_page_first 6862
_journal_name_full 'J.Am.Chem.Soc. '
loop_
_publ_author_name
"I.Nakamura"
"Dong Zhang"
"M.Terada"
_chemical_name_systematic
;
2,4-Diphenyl-3-(3-phenylprop-2-en-1-ylidene)-2,3-dihydroazete 1-oxide
;
_cell_volume   3655.170
_exptl_crystal_colour 'yellow'
_exptl_crystal_density_diffrn 1.226
_exptl_special_details
;
A correction to this structure was published in J.Am.Chem.Soc., 132,7884,2010

;
_exptl_crystal_description 'prism'
_diffrn_ambient_temperature 173
#These two values have been output from a single CSD field.
_refine_ls_R_factor_gt 0.1055
_refine_ls_wR_factor_gt 0.1055
_symmetry_cell_setting orthorhombic
_symmetry_space_group_name_H-M 'P b c a'
_symmetry_Int_Tables_number 61
loop_
_symmetry_equiv_pos_site_id
_symmetry_equiv_pos_as_xyz
1 x,y,z
2 1/2+x,1/2-y,-z
3 -x,1/2+y,1/2-z
4 1/2-x,-y,1/2+z
5 -x,-y,-z
6 -1/2-x,-1/2+y,z
7 x,-1/2-y,-1/2+z
8 -1/2+x,y,-1/2-z
_cell_length_a 12.635(4)
_cell_length_b 14.492(4)
_cell_length_c 19.962(6)
_cell_angle_alpha 90
_cell_angle_beta 90
_cell_angle_gamma 90
_cell_formula_units_Z 8
loop_
_atom_type_symbol
_atom_type_radius_bond
C 0.68
H 0.23
N 0.68
O 0.68
loop_
_atom_site_label
_atom_site_type_symbol
_atom_site_fract_x
_atom_site_fract_y
_atom_site_fract_z
O1 O 0.21911(16) 0.36650(15) 0.50650(9)
N1 N 0.20962(17) 0.38264(15) 0.56819(11)
C1 C 0.0136(2) 0.40178(18) 0.59885(12)
C2 C 0.2655(2) 0.36235(18) 0.62319(12)
C3 C 0.1248(2) 0.43648(19) 0.60549(13)
C4 C 0.36374(19) 0.31152(18) 0.62957(13)
C5 C 0.1905(2) 0.40940(18) 0.66686(13)
C6 C -0.1857(3) 0.6307(2) 0.91710(15)
C7 C 0.0890(2) 0.47834(18) 0.75799(13)
C8 C 0.0739(3) 0.49644(19) 0.82290(13)
C9 C -0.0155(2) 0.54413(17) 0.85338(13)
C10 C -0.0145(3) 0.56196(19) 0.92207(14)
C11 C 0.1768(2) 0.42617(18) 0.73244(13)
C12 C -0.0655(2) 0.46023(19) 0.57576(13)
C13 C -0.1887(3) 0.61459(19) 0.84891(16)
C14 C -0.1165(3) 0.2820(2) 0.61110(14)
C15 C 0.4178(3) 0.27986(19) 0.57341(14)
C16 C -0.0134(2) 0.31216(19) 0.61622(13)
C17 C -0.1051(2) 0.57126(19) 0.81759(14)
C18 C -0.0990(3) 0.6043(2) 0.95345(15)
C19 C 0.5097(3) 0.2289(2) 0.58066(16)
C20 C 0.4044(3) 0.2920(2) 0.69281(14)
C21 C -0.1688(3) 0.4300(2) 0.57062(14)
C22 C -0.1944(2) 0.3408(2) 0.58851(14)
C23 C 0.4961(3) 0.2413(3) 0.69965(16)
C24 C 0.5485(3) 0.2094(2) 0.64375(17)
H1 H 0.12950 0.50410 0.59610
H2 H -0.24370 0.66000 0.93870
H3 H 0.03870 0.50140 0.72690
H4 H 0.12760 0.47580 0.85260
H5 H 0.04550 0.54460 0.94780
H6 H 0.22740 0.40250 0.76320
H7 H -0.04840 0.52170 0.56340
H8 H -0.24850 0.63340 0.82350
H9 H -0.13400 0.22050 0.62320
H10 H 0.39150 0.29330 0.52990
H11 H 0.03980 0.27110 0.63180
H12 H -0.10850 0.55970 0.77080
H13 H -0.09690 0.61520 1.00040
H14 H 0.54620 0.20730 0.54210
H15 H 0.36870 0.31390 0.73160
H16 H -0.22220 0.47060 0.55480
H17 H -0.26550 0.32010 0.58530
H18 H 0.52310 0.22820 0.74300
H19 H 0.61140 0.17410 0.64860
#END
