
#######################################################################
#
#                 Cambridge Crystallographic Data Centre
#                                CCDC
#
#######################################################################
#
# If this CIF has been generated from an entry in the Cambridge
# Structural Database, then it will include bibliographic, chemical,
# crystal, experimental, refinement or atomic coordinate data resulting
# from the CCDC's data processing and validation procedures.
#
#######################################################################

data_CSD_CIF_EWEFAP
_audit_creation_date 2016-09-30
_audit_creation_method CSD-ConQuest-V1
_database_code_CSD EWEFAP
_database_code_depnum_ccdc_archive 'CCDC 1440724'
_chemical_formula_sum 'C27 H28 N2 O7'
_chemical_formula_moiety
;
C27 H28 N2 O7
;
_journal_coden_Cambridge 4
_journal_volume 138
_journal_year 2016
_journal_page_first 12312
_journal_name_full 'J.Am.Chem.Soc. '
loop_
_publ_author_name
"Wenxin Chen"
"Zheng Liu"
"Jiaqi Tian"
"Jin Li"
"Jing Ma"
"Xu Cheng"
"Guigen Li"
_chemical_name_systematic
;
3-(4-methoxyphenyl)-2,2,3-trimethyl-1-phenylbutyl 3,5-dinitrobenzoate
;
_cell_volume   2493.451
_exptl_crystal_colour 'yellow'
_exptl_crystal_density_diffrn 1.312
_exptl_crystal_description 'block'
_diffrn_ambient_temperature 298
#These two values have been output from a single CSD field.
_refine_ls_R_factor_gt 0.0523
_refine_ls_wR_factor_gt 0.0523
_symmetry_cell_setting monoclinic
_symmetry_space_group_name_H-M 'P 21/n'
_symmetry_Int_Tables_number 14
loop_
_symmetry_equiv_pos_site_id
_symmetry_equiv_pos_as_xyz
1 x,y,z
2 1/2-x,1/2+y,1/2-z
3 -x,-y,-z
4 -1/2+x,-1/2-y,-1/2+z
_cell_length_a 9.3355(7)
_cell_length_b 24.913(2)
_cell_length_c 10.7218(8)
_cell_angle_alpha 90
_cell_angle_beta 90.679(1)
_cell_angle_gamma 90
_cell_formula_units_Z 4
loop_
_atom_type_symbol
_atom_type_radius_bond
C 0.68
H 0.23
N 0.68
O 0.68
loop_
_atom_site_label
_atom_site_type_symbol
_atom_site_fract_x
_atom_site_fract_y
_atom_site_fract_z
N1 N 0.7225(3) 0.21702(12) 0.6141(2)
N2 N 0.3103(4) 0.10239(12) 0.5144(3)
O1 O 0.33202(19) 0.34117(7) 0.49966(16)
O2 O 0.1632(2) 0.29540(7) 0.3922(2)
O3 O 0.7635(3) 0.26236(10) 0.6361(2)
O4 O 0.7946(3) 0.17647(10) 0.6275(2)
O5 O 0.3696(4) 0.06592(10) 0.5674(3)
O6 O 0.1966(3) 0.09807(10) 0.4608(3)
O7 O 0.2254(2) 0.17434(8) 0.8001(2)
C1 C 0.2736(3) 0.29698(11) 0.4516(3)
C2 C 0.3619(3) 0.24939(10) 0.4843(2)
C3 C 0.4998(3) 0.25507(10) 0.5305(2)
H1 H 0.54140 0.28890 0.53690
C4 C 0.5748(3) 0.21030(11) 0.5669(3)
C5 C 0.5160(4) 0.15963(12) 0.5622(3)
H2 H 0.56680 0.12960 0.58910
C6 C 0.3792(4) 0.15556(11) 0.5161(3)
C7 C 0.3021(3) 0.19900(11) 0.4748(3)
H3 H 0.21070 0.19450 0.44100
C8 C 0.2543(3) 0.39128(10) 0.4889(2)
H4 H 0.15150 0.38340 0.48800
C9 C 0.2907(3) 0.42366(11) 0.6088(3)
C10 C 0.2014(4) 0.40190(11) 0.7237(3)
C11 C 0.2127(3) 0.34066(11) 0.7435(3)
C12 C 0.3285(3) 0.31681(12) 0.8057(3)
H5 H 0.40240 0.33860 0.83500
C13 C 0.3378(3) 0.26205(11) 0.8258(3)
H6 H 0.41730 0.24760 0.86680
C14 C 0.2291(3) 0.22905(11) 0.7848(3)
C15 C 0.1128(3) 0.25123(12) 0.7227(3)
H7 H 0.03920 0.22920 0.69400
C16 C 0.1051(3) 0.30571(12) 0.7032(3)
H8 H 0.02550 0.31970 0.66160
C17 C 0.2921(3) 0.41716(10) 0.3662(3)
C18 C 0.1895(4) 0.44608(12) 0.3009(3)
H9 H 0.09660 0.44840 0.33080
C19 C 0.2252(5) 0.47159(13) 0.1913(3)
H10 H 0.15620 0.49150 0.14850
C20 C 0.3602(5) 0.46804(14) 0.1450(3)
H11 H 0.38330 0.48590 0.07180
C21 C 0.4610(4) 0.43824(14) 0.2063(3)
H12 H 0.55280 0.43520 0.17430
C22 C 0.4265(4) 0.41252(12) 0.3165(3)
H13 H 0.49530 0.39180 0.35750
C23 C 0.4518(4) 0.42107(12) 0.6344(3)
H14 H 0.50230 0.43140 0.56060
H15 H 0.47800 0.38510 0.65730
H16 H 0.47630 0.44510 0.70120
C24 C 0.2525(4) 0.48312(11) 0.5835(3)
H17 H 0.26290 0.50330 0.65930
H18 H 0.15530 0.48550 0.55380
H19 H 0.31560 0.49740 0.52170
C25 C 0.0424(4) 0.41748(14) 0.7079(4)
H20 H 0.00960 0.40770 0.62580
H21 H 0.03200 0.45550 0.71920
H22 H -0.01340 0.39890 0.76890
C26 C 0.2523(5) 0.42921(13) 0.8471(3)
H23 H 0.19850 0.41520 0.91550
H24 H 0.23760 0.46730 0.84120
H25 H 0.35230 0.42200 0.86060
C27 C 0.3338(4) 0.14979(12) 0.8740(3)
H26 H 0.42350 0.15170 0.83130
H27 H 0.30940 0.11290 0.88830
H28 H 0.34210 0.16820 0.95250
#END
