
#######################################################################
#
#                 Cambridge Crystallographic Data Centre
#                                CCDC
#
#######################################################################
#
# If this CIF has been generated from an entry in the Cambridge
# Structural Database, then it will include bibliographic, chemical,
# crystal, experimental, refinement or atomic coordinate data resulting
# from the CCDC's data processing and validation procedures.
#
#######################################################################

data_CSD_CIF_EWEGET
_audit_creation_date 2011-09-23
_audit_creation_method CSD-ConQuest-V1
_database_code_CSD EWEGET
_database_code_depnum_ccdc_archive 'CCDC 841536'
_chemical_formula_sum 'C21 H23 N1 O4'
_chemical_formula_moiety
;
C21 H23 N1 O4
;
_journal_coden_Cambridge 1336
_journal_volume 13
_journal_year 2011
_journal_page_first 2004
_journal_name_full 'Org.Lett. '
loop_
_publ_author_name
"V.L.Rendina"
"D.C.Moebius"
"J.S.Kingsbury"
_chemical_name_systematic
;
2-Phenylcyclo-octyl 4-nitrobenzoate
;
_cell_volume   1820.703
_exptl_crystal_colour 'colorless'
_exptl_crystal_density_diffrn 1.289
_exptl_crystal_description 'block'
_diffrn_ambient_temperature 100
_refine_special_details
;
C4,C5 and C4X,C5X disordered over two sites with occupancies 0.844:0.156.

;
#These two values have been output from a single CSD field.
_refine_ls_R_factor_gt 0.0426
_refine_ls_wR_factor_gt 0.0426
_symmetry_cell_setting monoclinic
_symmetry_space_group_name_H-M 'P 21/n'
_symmetry_Int_Tables_number 14
loop_
_symmetry_equiv_pos_site_id
_symmetry_equiv_pos_as_xyz
1 x,y,z
2 1/2-x,1/2+y,1/2-z
3 -x,-y,-z
4 -1/2+x,-1/2-y,-1/2+z
_cell_length_a 8.4054(10)
_cell_length_b 6.9528(8)
_cell_length_c 31.194(4)
_cell_angle_alpha 90
_cell_angle_beta 92.883(4)
_cell_angle_gamma 90
_cell_formula_units_Z 4
loop_
_atom_type_symbol
_atom_type_radius_bond
C 0.68
H 0.23
N 0.68
O 0.68
loop_
_atom_site_label
_atom_site_type_symbol
_atom_site_fract_x
_atom_site_fract_y
_atom_site_fract_z
O1 O 0.82851(11) 0.81668(14) 0.10428(3)
O2 O 0.95804(13) 1.07722(15) 0.08106(3)
O3 O 1.39686(12) 0.45943(16) -0.04044(3)
O4 O 1.33543(14) 0.22228(16) 0.00044(4)
N1 N 1.32806(14) 0.39194(18) -0.01002(4)
C1 C 0.72950(17) 0.9388(2) 0.13043(5)
H1 H 0.797(2) 1.040(3) 0.1427(5)
C2 C 0.67555(18) 0.8094(2) 0.16666(5)
H2 H 0.616(2) 0.893(3) 0.1856(6)
C3 C 0.56597(19) 0.6435(2) 0.15170(6)
H3 H 0.55380 0.55680 0.17650
H4 H 0.62150 0.56950 0.12980
C4 C 0.3967(2) 0.6922(3) 0.13263(6)
H5 H 0.40510 0.72270 0.10180
H6 H 0.33010 0.57530 0.13430
C5 C 0.3099(2) 0.8562(3) 0.15320(6)
H7 H 0.19560 0.82190 0.15310
H8 H 0.34940 0.86500 0.18360
C6 C 0.3226(2) 1.0527(3) 0.13356(7)
H9 H 0.26670 1.04620 0.10490
H10 H 0.26000 1.14080 0.15110
C7 C 0.4797(2) 1.1497(3) 0.12748(6)
H11 H 0.52910 1.17980 0.15620
H12 H 0.45860 1.27350 0.11260
C8 C 0.6013(2) 1.0364(3) 0.10221(5)
H13 H 0.550(2) 0.939(3) 0.0857(6)
H14 H 0.659(2) 1.128(3) 0.0841(6)
C9 C 0.93870(16) 0.9051(2) 0.08205(4)
C10 C 1.03834(16) 0.7651(2) 0.05863(4)
C11 C 1.14106(17) 0.8393(2) 0.02893(4)
H15 H 1.14450 0.97410 0.02400
C12 C 1.23759(17) 0.7182(2) 0.00668(4)
H16 H 1.30720 0.76760 -0.01370
C13 C 1.23024(16) 0.5228(2) 0.01492(4)
C14 C 1.13218(17) 0.4448(2) 0.04476(5)
H17 H 1.13170 0.31040 0.05020
C15 C 1.03480(17) 0.5680(2) 0.06651(4)
H18 H 0.96540 0.51790 0.08690
C16 C 0.82175(19) 0.7408(2) 0.19336(5)
C17 C 0.8895(2) 0.8599(3) 0.22509(5)
H19 H 0.84150 0.98050 0.23060
C18 C 1.0270(2) 0.8049(3) 0.24893(5)
H20 H 1.07220 0.88870 0.27030
C19 C 1.0974(2) 0.6306(3) 0.24167(6)
H21 H 1.19140 0.59380 0.25780
C20 C 1.0307(2) 0.5093(3) 0.21078(7)
H22 H 1.07820 0.38770 0.20590
C21 C 0.8938(2) 0.5637(3) 0.18660(6)
H23 H 0.84930 0.47910 0.16530
C22? C 0.3953(10) 0.6828(14) 0.1704(3)
C23? C 0.3099(2) 0.8562(3) 0.15320(6)
H24? H 0.32710 0.56890 0.16440
H25? H 0.40920 0.69590 0.20200
H26? H 0.24380 0.88670 0.17770
H27? H 0.23460 0.79490 0.13190
#END
