
#######################################################################
#
#                 Cambridge Crystallographic Data Centre
#                                CCDC
#
#######################################################################
#
# If this CIF has been generated from an entry in the Cambridge
# Structural Database, then it will include bibliographic, chemical,
# crystal, experimental, refinement or atomic coordinate data resulting
# from the CCDC's data processing and validation procedures.
#
#######################################################################

data_CSD_CIF_EWEHIY
_audit_creation_date 2011-09-23
_audit_creation_method CSD-ConQuest-V1
_database_code_CSD EWEHIY
_database_code_depnum_ccdc_archive 'CCDC 841539'
_chemical_formula_sum 'C17 H18 N2 O5'
_chemical_formula_moiety
;
C17 H18 N2 O5
;
_journal_coden_Cambridge 1336
_journal_volume 13
_journal_year 2011
_journal_page_first 2074
_journal_name_full 'Org.Lett. '
loop_
_publ_author_name
"T.J.Donohoe"
"M.J.Connolly"
"A.H.Rathi"
"L.Walton"
_chemical_name_systematic
;
1-(1-Allyl-4-oxo-1,2,3,4-tetrahydropyridin-2-yl)ethyl 4-nitrobenzoate
;
_chemical_melting_point 388
_cell_volume   3219.525
_exptl_crystal_colour 'yellow'
_exptl_crystal_density_diffrn 1.363
_exptl_special_details
;
Melting point range 388-390K

;
_exptl_crystal_description 'plate'
_diffrn_ambient_temperature 150
#These two values have been output from a single CSD field.
_refine_ls_R_factor_gt 0.0406
_refine_ls_wR_factor_gt 0.0406
_symmetry_cell_setting monoclinic
_symmetry_space_group_name_H-M 'C 2/c'
_symmetry_Int_Tables_number 15
loop_
_symmetry_equiv_pos_site_id
_symmetry_equiv_pos_as_xyz
1 x,y,z
2 1/2+x,1/2+y,z
3 -x,y,1/2-z
4 1/2-x,1/2+y,1/2-z
5 -x,-y,-z
6 -1/2-x,-1/2-y,-z
7 x,-y,-1/2+z
8 -1/2+x,-1/2-y,-1/2+z
_cell_length_a 35.6530(8)
_cell_length_b 6.9183(2)
_cell_length_c 14.1033(4)
_cell_angle_alpha 90
_cell_angle_beta 112.2564(12)
_cell_angle_gamma 90
_cell_formula_units_Z 8
loop_
_atom_type_symbol
_atom_type_radius_bond
C 0.68
H 0.23
N 0.68
O 0.68
loop_
_atom_site_label
_atom_site_type_symbol
_atom_site_fract_x
_atom_site_fract_y
_atom_site_fract_z
O1 O 0.62466(3) 0.24213(13) 0.53786(7)
C1 C 0.66187(4) 0.12945(18) 0.5877(1)
C2 C 0.68276(3) 0.11162(18) 0.51093(9)
N1 N 0.65381(3) 0.04791(15) 0.41024(8)
C3 C 0.64665(4) -0.14189(19) 0.39355(10)
C4 C 0.66811(4) -0.2837(2) 0.45775(11)
C5 C 0.70521(4) -0.24129(19) 0.54065(10)
C6 C 0.71818(4) -0.03096(19) 0.55054(10)
O2 O 0.72760(3) -0.36476(15) 0.59775(8)
C7 C 0.63350(4) 0.1892(2) 0.33028(10)
C8 C 0.65944(4) 0.2704(2) 0.27763(10)
C9 C 0.69680(4) 0.2197(2) 0.29326(11)
C10 C 0.68686(4) 0.2404(2) 0.68302(10)
C11 C 0.58905(4) 0.1526(2) 0.51007(11)
O3 O 0.58434(3) -0.01547(16) 0.52495(10)
C12 C 0.55477(4) 0.2887(2) 0.45727(10)
C13 C 0.56094(4) 0.4855(2) 0.44928(10)
C14 C 0.52809(4) 0.6063(2) 0.40158(10)
C15 C 0.48977(4) 0.5253(2) 0.36303(10)
N2 N 0.45456(4) 0.65331(18) 0.31462(9)
O4 O 0.42074(3) 0.58148(18) 0.28589(9)
O5 O 0.46069(3) 0.82478(16) 0.30556(9)
C16 C 0.48280(4) 0.3309(2) 0.36951(11)
C17 C 0.51587(4) 0.2121(2) 0.41732(12)
H1 H 0.65480 -0.00190 0.60460
H2 H 0.69260 0.24250 0.50160
H3 H 0.62410 -0.17740 0.32990
H4 H 0.65900 -0.41730 0.44500
H5 H 0.73470 -0.01590 0.50840
H6 H 0.73500 -0.00300 0.62400
H7 H 0.62320 0.29690 0.36200
H8 H 0.60940 0.12320 0.27750
H9 H 0.64660 0.36980 0.22660
H10 H 0.71110 0.27860 0.25550
H11 H 0.71050 0.11840 0.34410
H12 H 0.71230 0.16940 0.72270
H13 H 0.69380 0.36770 0.66220
H14 H 0.67030 0.25640 0.72490
H15 H 0.58800 0.53650 0.47820
H16 H 0.53130 0.74560 0.39680
H17 H 0.45550 0.28070 0.33970
H18 H 0.51200 0.07430 0.42240
#END
