
#######################################################################
#
#                 Cambridge Crystallographic Data Centre
#                                CCDC
#
#######################################################################
#
# If this CIF has been generated from an entry in the Cambridge
# Structural Database, then it will include bibliographic, chemical,
# crystal, experimental, refinement or atomic coordinate data resulting
# from the CCDC's data processing and validation procedures.
#
#######################################################################

data_CSD_CIF_EWEVIM
_audit_creation_date 2011-09-22
_audit_creation_method CSD-ConQuest-V1
_database_code_CSD EWEVIM
_database_code_depnum_ccdc_archive 'CCDC 814981'
_chemical_formula_sum 'C7 H6 N2 O4'
_chemical_formula_moiety
;
C7 H6 N2 O4
;
_journal_coden_Cambridge 1003
_journal_volume 41
_journal_year 2011
_journal_page_first 1418
_journal_name_full 'J.Chem.Cryst. '
loop_
_publ_author_name
"J.L.Wardell"
"E.R.T.Tiekink"
_chemical_name_systematic
;
2-Amino-4-nitrobenzoic acid
;
_cell_volume    744.033
_exptl_crystal_colour 'bronze'
_exptl_crystal_density_diffrn 1.626
_exptl_special_details
;
monoclinic A polymorph

;
_exptl_crystal_description 'needle'
_diffrn_ambient_temperature 120
#These two values have been output from a single CSD field.
_refine_ls_R_factor_gt 0.042
_refine_ls_wR_factor_gt 0.042
_symmetry_cell_setting monoclinic
_symmetry_space_group_name_H-M 'P 21/n'
_symmetry_Int_Tables_number 14
loop_
_symmetry_equiv_pos_site_id
_symmetry_equiv_pos_as_xyz
1 x,y,z
2 1/2-x,1/2+y,1/2-z
3 -x,-y,-z
4 -1/2+x,-1/2-y,-1/2+z
_cell_length_a 3.6291(1)
_cell_length_b 7.7339(3)
_cell_length_c 26.5606(10)
_cell_angle_alpha 90
_cell_angle_beta 93.569(2)
_cell_angle_gamma 90
_cell_formula_units_Z 4
loop_
_atom_type_symbol
_atom_type_radius_bond
C 0.68
H 0.23
N 0.68
O 0.68
loop_
_atom_site_label
_atom_site_type_symbol
_atom_site_fract_x
_atom_site_fract_y
_atom_site_fract_z
O1 O 0.8196(3) 0.22118(15) 0.00419(4)
H1 H 0.843(5) 0.137(2) -0.0159(7)
O2 O 1.0979(3) 0.03779(14) 0.05961(4)
O3 O 0.5810(3) 0.83296(15) 0.18297(5)
O4 O 0.9256(4) 0.69320(16) 0.23790(4)
N1 N 1.1812(4) 0.13591(17) 0.15675(5)
H2 H 1.221(5) 0.0523(18) 0.1353(6)
H3 H 1.259(5) 0.131(2) 0.1889(4)
N2 N 0.7791(3) 0.71053(16) 0.19538(5)
C1 C 0.9553(4) 0.1804(2) 0.05008(5)
C2 C 0.9226(4) 0.31719(19) 0.08792(5)
C3 C 1.0358(4) 0.28639(18) 0.13947(5)
C4 C 0.9876(4) 0.42225(18) 0.17415(5)
H4 H 1.05830 0.40690 0.20890
C5 C 0.8387(4) 0.57586(18) 0.15735(5)
C6 C 0.7336(4) 0.61131(19) 0.10700(6)
H5 H 0.63570 0.72050 0.09660
C7 C 0.7797(4) 0.4791(2) 0.07306(6)
H6 H 0.71220 0.49840 0.03840
#END
