
#######################################################################
#
#                 Cambridge Crystallographic Data Centre
#                                CCDC
#
#######################################################################
#
# If this CIF has been generated from an entry in the Cambridge
# Structural Database, then it will include bibliographic, chemical,
# crystal, experimental, refinement or atomic coordinate data resulting
# from the CCDC's data processing and validation procedures.
#
#######################################################################

data_CSD_CIF_EWIFEV
_audit_creation_date 2004-08-12
_audit_creation_method CSD-ConQuest-V1
_database_code_CSD EWIFEV
_database_code_depnum_ccdc_archive 'CCDC 227998'
_chemical_formula_sum 'C21 H31 N5 O2'
_chemical_formula_moiety
;
C21 H31 N5 O2
;
_journal_coden_Cambridge 24
_journal_volume 45
_journal_year 2004
_journal_page_first 3059
_journal_name_full 'Tetrahedron Lett. '
loop_
_publ_author_name
"E.A.Lewis"
"C.C.Allan"
"R.W.Boyle"
"S.J.Archibald"
_chemical_name_systematic
;
cis-10b,10c-Dimethyl-2-(4-nitrobenzyl)-decahydro-3a,5a,8a,10a-tetraazapyrene
;
_cell_volume   1943.826
_exptl_crystal_colour 'yellow'
_exptl_crystal_density_diffrn 1.317
_exptl_crystal_description 'block'
_diffrn_ambient_temperature 150
#These two values have been output from a single CSD field.
_refine_ls_R_factor_gt 0.0611
_refine_ls_wR_factor_gt 0.0611
_symmetry_cell_setting monoclinic
_symmetry_space_group_name_H-M 'P 21/c'
_symmetry_Int_Tables_number 14
loop_
_symmetry_equiv_pos_site_id
_symmetry_equiv_pos_as_xyz
1 x,y,z
2 x,1/2-y,1/2+z
3 -x,-y,-z
4 -x,-1/2+y,-1/2-z
_cell_length_a 12.248(5)
_cell_length_b 10.078(4)
_cell_length_c 15.875(8)
_cell_angle_alpha 90
_cell_angle_beta 97.26(4)
_cell_angle_gamma 90
_cell_formula_units_Z 4
loop_
_atom_type_symbol
_atom_type_radius_bond
C 0.68
H 0.23
N 0.68
O 0.68
loop_
_atom_site_label
_atom_site_type_symbol
_atom_site_fract_x
_atom_site_fract_y
_atom_site_fract_z
C1 C 0.4284(5) 0.7602(6) 0.2154(4)
H1 H 0.47760 0.70160 0.18980
H2 H 0.47270 0.81040 0.25930
C2 C 0.3783(5) 0.8569(5) 0.1479(4)
H3 H 0.43610 0.87550 0.11220
C3 C 0.2862(5) 0.7911(6) 0.0906(4)
H4 H 0.24180 0.85900 0.05940
H5 H 0.31760 0.73610 0.04970
C4 C 0.1301(5) 0.6478(6) 0.0770(4)
H6 H 0.16440 0.59070 0.03870
H7 H 0.08960 0.71650 0.04350
C5 C 0.0517(5) 0.5669(6) 0.1238(4)
H8 H 0.01590 0.62460 0.16090
H9 H -0.00480 0.52720 0.08320
C6 C 0.0329(5) 0.3783(6) 0.2149(4)
H10 H 0.07100 0.30070 0.23990
H11 H -0.02460 0.34810 0.17150
C7 C -0.0194(5) 0.4521(7) 0.2833(5)
H12 H -0.07210 0.51600 0.25660
H13 H -0.05900 0.38940 0.31460
C8 C 0.0647(5) 0.5229(7) 0.3438(4)
H14 H 0.02730 0.58260 0.37850
H15 H 0.10440 0.45830 0.38120
C9 C 0.2249(6) 0.6666(6) 0.3621(4)
H16 H 0.27170 0.60140 0.39380
H17 H 0.18730 0.71670 0.40200
C10 C 0.2940(5) 0.7586(6) 0.3164(4)
H18 H 0.24810 0.82540 0.28550
H19 H 0.34810 0.80300 0.35670
C11 C 0.2780(5) 0.6071(6) 0.1941(4)
C12 C 0.1974(5) 0.5182(6) 0.2396(4)
C13 C 0.3444(5) 0.5137(6) 0.1424(4)
H20 H 0.39440 0.56520 0.11360
H21 H 0.29490 0.46620 0.10140
H22 H 0.38540 0.45180 0.18000
C14 C 0.2648(5) 0.4017(5) 0.2835(4)
H23 H 0.30040 0.35410 0.24220
H24 H 0.21640 0.34290 0.30870
H25 H 0.31930 0.43580 0.32680
C15 C 0.3435(5) 0.9914(6) 0.1796(4)
H26 H 0.27340 0.98190 0.20140
H27 H 0.39740 1.02060 0.22590
C16 C 0.3329(6) 1.0936(6) 0.1120(4)
C17 C 0.2344(5) 1.1426(6) 0.0744(4)
H28 H 0.17030 1.11050 0.09290
C18 C 0.2240(5) 1.2376(6) 0.0102(4)
H29 H 0.15540 1.26790 -0.01410
C19 C 0.3198(5) 1.2845(6) -0.0158(4)
C20 C 0.4202(5) 1.2432(6) 0.0206(4)
H30 H 0.48360 1.27880 0.00300
C21 C 0.4283(5) 1.1484(6) 0.0836(4)
H31 H 0.49750 1.12010 0.10800
N1 N 0.3497(4) 0.6769(4) 0.2567(3)
N2 N 0.2139(4) 0.7076(5) 0.1378(3)
N3 N 0.1127(4) 0.4624(5) 0.1743(3)
N4 N 0.1437(4) 0.5990(5) 0.3011(3)
N5 N 0.3110(5) 1.3896(5) -0.0809(3)
O1 O 0.3972(4) 1.4427(5) -0.0964(3)
O2 O 0.2210(4) 1.4223(5) -0.1147(3)
#END
