
#######################################################################
#
#                 Cambridge Crystallographic Data Centre
#                                CCDC
#
#######################################################################
#
# If this CIF has been generated from an entry in the Cambridge
# Structural Database, then it will include bibliographic, chemical,
# crystal, experimental, refinement or atomic coordinate data resulting
# from the CCDC's data processing and validation procedures.
#
#######################################################################

data_CSD_CIF_EWIJIE
_audit_creation_date 2012-02-03
_audit_creation_method CSD-ConQuest-V1
_database_code_CSD EWIJIE
_database_code_depnum_ccdc_archive 'CCDC 826313'
_chemical_formula_sum 'C20 H20 N2 O4'
_chemical_formula_moiety
;
C20 H20 N2 O4
;
_journal_coden_Cambridge 1475
_journal_volume 2
_journal_year 2011
_journal_page_first 1710
_journal_name_full 'Chemical Science '
loop_
_publ_author_name
"D.A.Kummer"
"Derun Li"
"A.Dion"
"A.G.Myers"
_chemical_name_systematic
;
3-(Benzyloxy)-9-(dimethylamino)-5-hydroxy-8a,9-dihydronaphtho[2,3-d][1,2]oxazo
l-4(8H)-one
;
_cell_volume   1704.584
_exptl_crystal_colour 'pale yellow'
_exptl_crystal_density_diffrn 1.373
_exptl_special_details
;
Absolute configuration

;
_exptl_crystal_description 'plate'
_diffrn_ambient_temperature 100
#These two values have been output from a single CSD field.
_refine_ls_R_factor_gt 0.0256
_refine_ls_wR_factor_gt 0.0256
_symmetry_cell_setting orthorhombic
_symmetry_space_group_name_H-M 'P 21 21 21'
_symmetry_Int_Tables_number 19
loop_
_symmetry_equiv_pos_site_id
_symmetry_equiv_pos_as_xyz
1 x,y,z
2 1/2-x,-y,1/2+z
3 1/2+x,1/2-y,-z
4 -x,1/2+y,1/2-z
_cell_length_a 6.4713(2)
_cell_length_b 12.2439(3)
_cell_length_c 21.5133(6)
_cell_angle_alpha 90
_cell_angle_beta 90
_cell_angle_gamma 90
_cell_formula_units_Z 4
loop_
_atom_type_symbol
_atom_type_radius_bond
C 0.68
H 0.23
N 0.68
O 0.68
loop_
_atom_site_label
_atom_site_type_symbol
_atom_site_fract_x
_atom_site_fract_y
_atom_site_fract_z
O1 O 0.99494(14) 0.32504(7) 0.60692(4)
O2 O 0.20520(16) 0.53881(8) 0.72637(5)
O3 O 0.50908(15) 0.58251(7) 0.65744(4)
O4 O 0.94872(14) 0.60730(7) 0.59690(4)
N1 N 1.06935(18) 0.42972(9) 0.58583(5)
N2 N 0.59441(16) 0.18646(9) 0.60712(5)
C1 C 0.8174(2) 0.34066(11) 0.63779(5)
C2 C 0.68943(19) 0.24564(10) 0.65922(6)
H1 H 0.78420 0.19360 0.68100
C3 C 0.5327(2) 0.28909(11) 0.70835(5)
H2 H 0.60790 0.28980 0.74900
C4 C 0.3512(2) 0.21032(12) 0.71651(6)
H3 H 0.28150 0.19950 0.67600
H4 H 0.40340 0.13860 0.73080
C5 C 0.1985(2) 0.25403(12) 0.76301(6)
H5 H 0.12610 0.20470 0.78920
C6 C 0.1632(2) 0.36083(12) 0.76792(6)
H6 H 0.06370 0.38730 0.79670
C7 C 0.2777(2) 0.43665(11) 0.72912(6)
C8 C 0.45399(19) 0.40496(11) 0.69823(6)
C9 C 0.5704(2) 0.48545(10) 0.66480(5)
C10 C 0.7662(2) 0.44792(11) 0.63886(5)
C11 C 0.9321(2) 0.4999(1) 0.60599(6)
C12 C 1.1203(2) 0.63998(11) 0.55700(6)
H7 H 1.08860 0.62190 0.51320
H8 H 1.24730 0.60030 0.56920
C13 C 1.1527(2) 0.76056(11) 0.56368(6)
C14 C 1.0951(2) 0.83205(11) 0.51708(6)
H9 H 1.03100 0.80460 0.48060
C15 C 1.1296(2) 0.94308(12) 0.52296(7)
H10 H 1.08660 0.99140 0.49090
C16 C 1.2266(2) 0.98415(11) 0.57541(7)
H11 H 1.24980 1.06040 0.57950
C17 C 1.2893(2) 0.91317(12) 0.62172(7)
H12 H 1.35760 0.94050 0.65760
C18 C 1.2525(2) 0.80225(12) 0.61582(6)
H13 H 1.29600 0.75400 0.64780
C19 C 0.5024(2) 0.25689(11) 0.55974(5)
H14 H 0.61170 0.29790 0.53850
H15 H 0.40610 0.30800 0.57950
H16 H 0.42790 0.21200 0.52940
C20 C 0.7362(2) 0.10774(11) 0.57935(6)
H17 H 0.78410 0.05660 0.61130
H18 H 0.85500 0.14640 0.56160
H19 H 0.66480 0.06730 0.54640
H20 H 0.302(3) 0.5757(16) 0.6998(9)
#END
