
#######################################################################
#
#                 Cambridge Crystallographic Data Centre
#                                CCDC
#
#######################################################################
#
# If this CIF has been generated from an entry in the Cambridge
# Structural Database, then it will include bibliographic, chemical,
# crystal, experimental, refinement or atomic coordinate data resulting
# from the CCDC's data processing and validation procedures.
#
#######################################################################

data_CSD_CIF_EWIWOY
_audit_creation_date 2016-10-03
_audit_creation_method CSD-ConQuest-V1
_database_code_CSD EWIWOY
_database_code_depnum_ccdc_archive 'CCDC 1489676'
_chemical_formula_sum 'C17 H13 N3 O2'
_chemical_formula_moiety
;
C17 H13 N3 O2
;
_journal_coden_Cambridge 1475
_journal_volume 8
_journal_year 2017
_journal_page_first 946
_journal_name_full 'Chemical Science '
loop_
_publ_author_name
"J.Serra"
"T.Parella"
"X.Ribas"
_chemical_name_systematic
;
N-(4-nitrophenyl)-2-(pyridin-2-yl)aniline
;
_cell_volume   1386.051
_exptl_crystal_colour 'yellow'
_exptl_crystal_density_diffrn 1.396
_exptl_crystal_description 'prism'
_diffrn_ambient_temperature 100
#These two values have been output from a single CSD field.
_refine_ls_R_factor_gt 0.038
_refine_ls_wR_factor_gt 0.038
_symmetry_cell_setting orthorhombic
_symmetry_space_group_name_H-M 'P c a 21'
_symmetry_Int_Tables_number 29
loop_
_symmetry_equiv_pos_site_id
_symmetry_equiv_pos_as_xyz
1 x,y,z
2 -x,-y,1/2+z
3 1/2+x,-y,z
4 1/2-x,y,1/2+z
_cell_length_a 13.283(2)
_cell_length_b 13.585(2)
_cell_length_c 7.6811(13)
_cell_angle_alpha 90
_cell_angle_beta 90
_cell_angle_gamma 90
_cell_formula_units_Z 4
loop_
_atom_type_symbol
_atom_type_radius_bond
C 0.68
H 0.23
N 0.68
O 0.68
loop_
_atom_site_label
_atom_site_type_symbol
_atom_site_fract_x
_atom_site_fract_y
_atom_site_fract_z
N1 N -0.04110(14) 0.56041(15) 0.4436(3)
C1 C 0.05035(15) 0.61812(17) 0.4382(3)
O1 O -0.04527(13) 0.48859(13) 0.5414(3)
N2 N 0.31616(14) 0.77864(13) 0.4237(3)
H1 H 0.3676(19) 0.7449(18) 0.446(3)
O2 O -0.11234(12) 0.58606(13) 0.3507(3)
C2 C 0.05276(16) 0.70420(16) 0.3408(3)
H2 H -0.008(2) 0.723(2) 0.274(4)
N3 N 0.51931(14) 0.75287(14) 0.4044(3)
C3 C 0.13881(16) 0.76046(16) 0.3384(3)
H3 H 0.143(2) 0.822(2) 0.272(4)
C4 C 0.22553(15) 0.72985(15) 0.4284(3)
C5 C 0.22124(15) 0.64081(15) 0.5233(3)
H4 H 0.2817(19) 0.6172(19) 0.577(4)
C6 C 0.13472(16) 0.58620(16) 0.5304(3)
H5 H 0.1308(19) 0.5281(19) 0.596(3)
C7 C 0.33686(16) 0.87275(15) 0.3589(3)
C8 C 0.26604(19) 0.94839(17) 0.3752(3)
H6 H 0.2038(19) 0.9362(19) 0.443(4)
C9 C 0.2853(2) 1.04106(18) 0.3080(3)
H7 H 0.238(2) 1.0940(19) 0.323(4)
C10 C 0.3758(2) 1.06033(19) 0.2252(3)
H8 H 0.390(3) 1.126(3) 0.183(5)
C11 C 0.4479(2) 0.98746(18) 0.2155(3)
H9 H 0.512(2) 0.999(3) 0.164(4)
C12 C 0.43145(17) 0.89264(16) 0.2824(3)
C13 C 0.51273(17) 0.81811(17) 0.2727(3)
C14 C 0.59296(18) 0.68592(19) 0.3987(4)
H10 H 0.595(2) 0.643(2) 0.495(4)
C15 C 0.66287(18) 0.6808(2) 0.2652(4)
H11 H 0.710(2) 0.631(2) 0.268(4)
C16 C 0.6557(2) 0.7483(2) 0.1310(4)
H12 H 0.699(2) 0.747(2) 0.043(5)
C17 C 0.58061(18) 0.8171(2) 0.1337(3)
H13 H 0.576(2) 0.866(2) 0.043(5)
#END
