
#######################################################################
#
#                 Cambridge Crystallographic Data Centre
#                                CCDC
#
#######################################################################
#
# If this CIF has been generated from an entry in the Cambridge
# Structural Database, then it will include bibliographic, chemical,
# crystal, experimental, refinement or atomic coordinate data resulting
# from the CCDC's data processing and validation procedures.
#
#######################################################################

data_CSD_CIF_EWOFUR
_audit_creation_date 2004-08-12
_audit_creation_method CSD-ConQuest-V1
_database_code_CSD EWOFUR
_database_code_depnum_ccdc_archive 'CCDC 237178'
_chemical_formula_sum 'C18 H15 N1 O4'
_chemical_formula_moiety
;
C18 H15 N1 O4
;
_journal_coden_Cambridge 4
_journal_volume 126
_journal_year 2004
_journal_page_first 4664
_journal_name_full 'J.Am.Chem.Soc. '
loop_
_publ_author_name
"Hye-Young Jang"
"R.R.Huddleston"
"M.J.Krische"
_chemical_name_systematic
;
2-Hydroxy-3-(4-nitrophenyl)-1-phenylhexa-3,5-dienone
;
_cell_volume   1566.708
_exptl_crystal_colour 'pale yellow'
_exptl_crystal_density_diffrn 1.311
_exptl_crystal_description 'needles'
_exptl_crystal_preparation 'ethyl acetate/hexanes'
_diffrn_ambient_temperature 153
#These two values have been output from a single CSD field.
_refine_ls_R_factor_gt 0.0497
_refine_ls_wR_factor_gt 0.0497
_symmetry_cell_setting orthorhombic
_symmetry_space_group_name_H-M 'P n a 21'
_symmetry_Int_Tables_number 33
loop_
_symmetry_equiv_pos_site_id
_symmetry_equiv_pos_as_xyz
1 x,y,z
2 -x,-y,1/2+z
3 1/2-x,1/2+y,1/2+z
4 1/2+x,1/2-y,z
_cell_length_a 15.6110(8)
_cell_length_b 9.5413(4)
_cell_length_c 10.5184(4)
_cell_angle_alpha 90
_cell_angle_beta 90
_cell_angle_gamma 90
_cell_formula_units_Z 4
loop_
_atom_type_symbol
_atom_type_radius_bond
C 0.68
H 0.23
N 0.68
O 0.68
loop_
_atom_site_label
_atom_site_type_symbol
_atom_site_fract_x
_atom_site_fract_y
_atom_site_fract_z
O1 O 0.45957(14) 0.4707(2) 0.5246(2)
C1 C 0.5079(2) 0.4541(3) 0.4338(3)
C2 C 0.54526(19) 0.5854(3) 0.3731(3)
H1 H 0.53900 0.58040 0.28240
O2 O 0.49997(16) 0.7047(2) 0.4164(2)
C3 C 0.64026(18) 0.5998(3) 0.4063(3)
C4 C 0.7005(2) 0.6040(3) 0.3173(3)
H2 H 0.68290 0.59820 0.23000
C5 C 0.7919(2) 0.6171(3) 0.3416(3)
H3 H 0.81060 0.62360 0.42840
C6 C 0.8512(2) 0.6196(3) 0.2503(3)
H4 H 0.83310 0.61310 0.16330
H5 H 0.91100 0.62830 0.27030
C7 C 0.53199(18) 0.3132(3) 0.3899(3)
C8 C 0.5103(2) 0.1976(3) 0.4640(3)
H6 H 0.48030 0.21230 0.54250
C9 C 0.5303(2) 0.0632(4) 0.4267(4)
H7 H 0.51610 -0.01460 0.48070
C10 C 0.5724(2) 0.0424(4) 0.3126(4)
H8 H 0.58560 -0.05170 0.28710
C11 C 0.5947(2) 0.1550(3) 0.2376(4)
H9 H 0.62340 0.13890 0.15820
C12 C 0.5748(2) 0.2896(4) 0.2758(3)
H10 H 0.59060 0.36890 0.22470
C13 C 0.65933(17) 0.6058(3) 0.5463(3)
C14 C 0.67678(19) 0.4836(3) 0.6129(3)
H11 H 0.67700 0.39590 0.56810
C15 C 0.6932(2) 0.4880(3) 0.7422(3)
H12 H 0.70480 0.40350 0.78870
C16 C 0.6923(2) 0.6139(3) 0.8021(3)
C17 C 0.67466(18) 0.7367(3) 0.7410(3)
H13 H 0.67300 0.82330 0.78730
C18 C 0.65809(19) 0.7323(3) 0.6118(3)
H14 H 0.64550 0.81740 0.56680
N1 N 0.71236(17) 0.6171(3) 0.9394(2)
O3 O 0.73323(15) 0.5063(3) 0.99145(19)
O4 O 0.70902(15) 0.7301(3) 0.99408(19)
H15 H 0.465(2) 0.683(4) 0.475(4)
#END
