
#######################################################################
#
#                 Cambridge Crystallographic Data Centre
#                                CCDC
#
#######################################################################
#
# If this CIF has been generated from an entry in the Cambridge
# Structural Database, then it will include bibliographic, chemical,
# crystal, experimental, refinement or atomic coordinate data resulting
# from the CCDC's data processing and validation procedures.
#
#######################################################################

data_CSD_CIF_EWOYEU
_audit_creation_date 2004-08-12
_audit_creation_method CSD-ConQuest-V1
_database_code_CSD EWOYEU
_database_code_depnum_ccdc_archive 'CCDC 242323'
_chemical_formula_sum 'C7 H9 N3 O4'
_chemical_formula_moiety
;
C7 H9 N3 O4
;
_journal_coeditor_code "IUCr BT6461"
_journal_coden_Cambridge 1370
_journal_volume 60
_journal_year 2004
_journal_page_first o994
_journal_name_full 'Acta Crystallogr.,Sect.E:Struct.Rep.Online '
loop_
_publ_author_name
"Hai-Qiang Wu"
"Lin-Kun An"
"Zhi-Shu Huang"
"Lian-Quan Gu"
"S.M.Zain"
"Seik Wwng Ng"
_chemical_name_systematic
;
Ethyl 1-methyl-4-nitro-1H-imidazole-2-carboxylate
;
_cell_volume    909.283
_exptl_crystal_colour 'colorless'
_exptl_crystal_density_diffrn 1.455
_exptl_crystal_description 'Block'
_exptl_crystal_preparation 'diethyl ether'
_diffrn_ambient_temperature 298
_refine_special_details
;
The carboxyethyl fragment is disordered across a crystallographic mirror 
plane.
;
#These two values have been output from a single CSD field.
_refine_ls_R_factor_gt 0.038
_refine_ls_wR_factor_gt 0.038
_symmetry_cell_setting orthorhombic
_symmetry_space_group_name_H-M 'P n m a'
_symmetry_Int_Tables_number 62
loop_
_symmetry_equiv_pos_site_id
_symmetry_equiv_pos_as_xyz
1 x,y,z
2 1/2+x,y,1/2-z
3 x,1/2-y,z
4 1/2-x,1/2+y,1/2+z
5 -x,-y,-z
6 -1/2-x,-y,-1/2+z
7 -x,-1/2+y,-z
8 -1/2+x,-1/2-y,-1/2-z
_cell_length_a 8.940(1)
_cell_length_b 6.768(1)
_cell_length_c 15.028(2)
_cell_angle_alpha 90
_cell_angle_beta 90
_cell_angle_gamma 90
_cell_formula_units_Z 4
loop_
_atom_type_symbol
_atom_type_radius_bond
C 0.68
H 0.23
N 0.68
O 0.68
loop_
_atom_site_label
_atom_site_type_symbol
_atom_site_fract_x
_atom_site_fract_y
_atom_site_fract_z
O1 O 0.5077(2) 0.1981(2) 0.6789(1)
O2 O 0.2765(2) 0.279(2) 0.6250(1)
O3 O 0.7800(2) 0.25000 0.2994(1)
O4 O 0.8913(2) 0.25000 0.4257(1)
N1 N 0.6255(2) 0.25000 0.5130(1)
N2 N 0.4010(2) 0.25000 0.4492(1)
N3 N 0.7798(2) 0.25000 0.3808(1)
C1 C 0.4506(4) 0.1661(4) 0.7683(2)
C2? C 0.4181(4) 0.3511(5) 0.8151(2)
C3 C 0.4082(2) 0.25000 0.6150(1)
C4 C 0.2380(2) 0.25000 0.4370(2)
C5 C 0.4806(2) 0.25000 0.5269(1)
C6 C 0.5012(2) 0.25000 0.3827(1)
C7 C 0.6370(2) 0.25000 0.4239(1)
H1 H 0.52360 0.09150 0.80220
H2 H 0.35990 0.08780 0.76500
H3? H 0.39560 0.32320 0.87630
H4? H 0.33380 0.41470 0.78770
H5? H 0.50360 0.43660 0.81190
H6? H 0.21460 0.28520 0.37670
H7? H 0.19350 0.34420 0.47680
H8? H 0.19930 0.12070 0.44960
H9 H 0.48210 0.25000 0.32180
O1B O 0.5077(2) 0.3019(2) 0.6789(1)
C1B C 0.4506(4) 0.3339(4) 0.7683(2)
O2B O 0.2765(2) 0.221(2) 0.6250(1)
H1B H 0.52360 0.40850 0.80220
H2B H 0.35990 0.41220 0.76500
#END
