
#######################################################################
#
#                 Cambridge Crystallographic Data Centre
#                                CCDC
#
#######################################################################
#
# If this CIF has been generated from an entry in the Cambridge
# Structural Database, then it will include bibliographic, chemical,
# crystal, experimental, refinement or atomic coordinate data resulting
# from the CCDC's data processing and validation procedures.
#
#######################################################################

data_CSD_CIF_EWUKIQ
_audit_creation_date 2004-09-21
_audit_creation_method CSD-ConQuest-V1
_database_code_CSD EWUKIQ
_database_code_depnum_ccdc_archive 'CCDC 224906'
_chemical_formula_sum 'C3 H6 N6 O4'
_chemical_formula_moiety
;
C3 H6 N6 O4
;
_journal_coden_Cambridge 1003
_journal_volume 34
_journal_year 2004
_journal_page_first 135
_journal_name_full 'J.Chem.Cryst. '
loop_
_publ_author_name
"A.J.Bracuti"
_chemical_name_systematic
;
2-(Nitrimino)-5-nitro-hexahydro-1,3,5-triazine
;
_cell_volume    729.712
_exptl_crystal_colour 'colorless'
_exptl_crystal_density_diffrn 1.73
_exptl_crystal_description 'square prism'
_diffrn_ambient_temperature 296.2
#These two values have been output from a single CSD field.
_refine_ls_R_factor_gt 0.03
_refine_ls_wR_factor_gt 0.03
_symmetry_cell_setting monoclinic
_symmetry_space_group_name_H-M 'P 21/a'
_symmetry_Int_Tables_number 14
loop_
_symmetry_equiv_pos_site_id
_symmetry_equiv_pos_as_xyz
1 x,y,z
2 1/2+x,1/2-y,z
3 -x,-y,-z
4 -1/2-x,-1/2+y,-z
_cell_length_a 9.026(1)
_cell_length_b 8.599(1)
_cell_length_c 9.4038(9)
_cell_angle_alpha 90
_cell_angle_beta 91.199(9)
_cell_angle_gamma 90
_cell_formula_units_Z 4
loop_
_atom_type_symbol
_atom_type_radius_bond
C 0.68
H 0.23
N 0.68
O 0.68
loop_
_atom_site_label
_atom_site_type_symbol
_atom_site_fract_x
_atom_site_fract_y
_atom_site_fract_z
O1 O 0.3358(2) 0.4426(2) 0.8358(2)
O2 O 0.3009(2) 0.4178(2) 0.6089(2)
O3 O 0.5106(2) -0.1726(2) 0.6049(2)
O4 O 0.6450(2) -0.2655(2) 0.7781(2)
N1 N 0.3273(2) 0.0933(2) 0.9060(2)
N2 N 0.3173(2) 0.0380(2) 0.6681(2)
N3 N 0.1812(2) 0.2553(2) 0.7538(2)
N4 N 0.2815(2) 0.3791(2) 0.7315(2)
N5 N 0.4919(2) -0.0816(2) 0.8322(2)
N6 N 0.5493(2) -0.1751(2) 0.7325(2)
C1 C 0.3776(2) 0.0144(2) 0.7959(2)
C2 C 0.1878(3) 0.1361(3) 0.6443(3)
C3 C 0.1947(3) 0.1879(3) 0.8952(2)
H1 H 0.376(2) 0.089(3) 0.987(2)
H2 H 0.351(2) -0.019(3) 0.601(2)
H3 H 0.195(2) 0.184(2) 0.551(2)
H4 H 0.094(3) 0.074(3) 0.655(2)
H5 H 0.203(2) 0.265(3) 0.967(2)
H6 H 0.107(3) 0.122(3) 0.907(2)
#END
