
#######################################################################
#
#                 Cambridge Crystallographic Data Centre
#                                CCDC
#
#######################################################################
#
# If this CIF has been generated from an entry in the Cambridge
# Structural Database, then it will include bibliographic, chemical,
# crystal, experimental, refinement or atomic coordinate data resulting
# from the CCDC's data processing and validation procedures.
#
#######################################################################

data_CSD_CIF_EXADIQ
_audit_creation_date 2004-09-21
_audit_creation_method CSD-ConQuest-V1
_database_code_CSD EXADIQ
_database_code_depnum_ccdc_archive 'CCDC 214681'
_chemical_formula_sum 'C11 H12 N2 O4'
_chemical_formula_moiety
;
C11 H12 N2 O4
;
_journal_coden_Cambridge 15
_journal_volume 82
_journal_year 2004
_journal_page_first 268
_journal_name_full 'Can.J.Chem. '
loop_
_publ_author_name
"J.P.Guthrie"
"R.T.Gallant"
"M.C.Jennings"
_chemical_name_systematic
;
5-(4-Nitrophenyl)-1-aza-4,6-dioxabicyclo(3.3.0)octane
;
_chemical_melting_point 363.15
_cell_volume   1102.367
_exptl_crystal_colour 'colorless'
_exptl_crystal_density_diffrn 1.423
_exptl_special_details
;
Melting point range 363.15-364.15K

;
_exptl_crystal_description 'thin plate'
_exptl_crystal_preparation 'diethyl ether'
_diffrn_ambient_temperature 200
#These two values have been output from a single CSD field.
_refine_ls_R_factor_gt 0.0439
_refine_ls_wR_factor_gt 0.0439
_symmetry_cell_setting monoclinic
_symmetry_space_group_name_H-M 'P 21/c'
_symmetry_Int_Tables_number 14
loop_
_symmetry_equiv_pos_site_id
_symmetry_equiv_pos_as_xyz
1 x,y,z
2 x,1/2-y,1/2+z
3 -x,-y,-z
4 -x,-1/2+y,-1/2-z
_cell_length_a 9.4735(9)
_cell_length_b 8.8214(16)
_cell_length_c 13.214(2)
_cell_angle_alpha 90
_cell_angle_beta 93.380(12)
_cell_angle_gamma 90
_cell_formula_units_Z 4
loop_
_atom_type_symbol
_atom_type_radius_bond
C 0.68
H 0.23
N 0.68
O 0.68
loop_
_atom_site_label
_atom_site_type_symbol
_atom_site_fract_x
_atom_site_fract_y
_atom_site_fract_z
O1 O -0.3796(3) 0.2617(3) 0.1023(3)
O2 O -0.4661(3) 0.1097(3) 0.2106(2)
N1 N -0.3724(3) 0.1926(4) 0.1827(3)
C1 C -0.2425(3) 0.2084(3) 0.2482(2)
C2 C -0.1371(3) 0.3010(4) 0.2178(2)
H1 H -0.14720 0.35450 0.15550
C3 C -0.0148(3) 0.3148(3) 0.2805(2)
H2 H 0.05950 0.37910 0.26130
C4 C -0.0006(3) 0.2357(3) 0.3705(2)
C5 C -0.1096(3) 0.1425(3) 0.3983(2)
H3 H -0.10000 0.08810 0.46030
C6 C -0.2313(3) 0.1280(3) 0.3372(3)
H4 H -0.30590 0.06380 0.35610
C7 C 0.1338(3) 0.2452(3) 0.4376(2)
N2 N 0.2294(2) 0.3698(3) 0.41792(19)
C8 C 0.3616(3) 0.2997(4) 0.3922(3)
H5 H 0.44300 0.35130 0.42780
H6 H 0.37260 0.30550 0.31820
C9 C 0.3533(3) 0.1408(4) 0.4251(3)
H7 H 0.40030 0.07310 0.37770
H8 H 0.39890 0.12770 0.49390
O3 O 0.2086(2) 0.1090(2) 0.42468(16)
C10 C 0.2369(4) 0.4610(4) 0.5100(3)
H9 H 0.17370 0.55010 0.50240
H10 H 0.33470 0.49670 0.52610
C11 C 0.1905(4) 0.3588(5) 0.5907(3)
H11 H 0.27170 0.30300 0.62320
H12 H 0.14300 0.41650 0.64320
O4 O 0.0954(2) 0.2590(2) 0.53883(16)
#END
