
#######################################################################
#
#                 Cambridge Crystallographic Data Centre
#                                CCDC
#
#######################################################################
#
# If this CIF has been generated from an entry in the Cambridge
# Structural Database, then it will include bibliographic, chemical,
# crystal, experimental, refinement or atomic coordinate data resulting
# from the CCDC's data processing and validation procedures.
#
#######################################################################

data_CSD_CIF_EXICUJ
_audit_creation_date 2004-09-21
_audit_creation_method CSD-ConQuest-V1
_database_code_CSD EXICUJ
_database_code_depnum_ccdc_archive 'CCDC 217536'
_chemical_formula_sum 'C8 H14 N3 O2'
_chemical_formula_moiety
;
C8 H14 N3 O2
;
_journal_coden_Cambridge 580
_journal_volume 23
_journal_year 2004
_journal_page_first 763
_journal_name_full 'Polyhedron '
loop_
_publ_author_name
"E.V.Tretyakov"
"O.V.Koreneva"
"G.V.Romanenko"
"Yu.G.Shvedenkov"
"V.I.Ovcharenko"
_chemical_name_systematic
;
4,4,5,5-Tetramethyl-4,5-dihydro-1-oxyl-1H-imidazole-2-carboxylic acid amide 
radical
;
_chemical_melting_point 373.15
_cell_volume   1025.034
_exptl_crystal_density_diffrn 1.194
_exptl_special_details
;
Melting point range 373.15-374.15K
Cif temperature given as 568 K

;
_diffrn_ambient_temperature ?
_diffrn_special_details
;
The study was carried out at room temperature,in the range 283-303K

;
#These two values have been output from a single CSD field.
_refine_ls_R_factor_gt 0.0479
_refine_ls_wR_factor_gt 0.0479
_symmetry_cell_setting monoclinic
_symmetry_space_group_name_H-M 'C c'
_symmetry_Int_Tables_number 9
loop_
_symmetry_equiv_pos_site_id
_symmetry_equiv_pos_as_xyz
1 x,y,z
2 x,-y,1/2+z
3 1/2+x,1/2+y,z
4 1/2+x,1/2-y,1/2+z
_cell_length_a 9.2056(17)
_cell_length_b 11.125(2)
_cell_length_c 10.0913(19)
_cell_angle_alpha 90
_cell_angle_beta 97.327(4)
_cell_angle_gamma 90
_cell_formula_units_Z 4
loop_
_atom_type_symbol
_atom_type_radius_bond
C 0.68
H 0.23
N 0.68
O 0.68
loop_
_atom_site_label
_atom_site_type_symbol
_atom_site_fract_x
_atom_site_fract_y
_atom_site_fract_z
O1 O 0.9970(5) 0.3126(4) 0.6322(4)
N1 N 0.9913(5) 0.2801(5) 0.5104(4)
C1 C 0.9712(6) 0.3679(4) 0.3959(7)
C2 C 1.0810(12) 0.4694(7) 0.4238(12)
H1 H 1.192(7) 0.436(5) 0.437(6)
H2 H 1.062(6) 0.496(5) 0.524(7)
H3 H 1.081(8) 0.516(6) 0.327(8)
C3 C 0.8148(8) 0.4155(10) 0.3967(9)
H4 H 0.733(9) 0.353(7) 0.377(7)
H5 H 0.819(7) 0.482(6) 0.302(7)
H6 H 0.808(6) 0.460(5) 0.499(7)
C4 C 0.9916(6) 0.2807(5) 0.2804(6)
C5 C 0.8770(9) 0.2964(8) 0.1613(9)
H7 H 0.770(6) 0.278(4) 0.204(5)
H8 H 0.871(9) 0.243(8) 0.110(8)
H9 H 0.938(13) 0.388(12) 0.115(10)
C6 C 1.1463(7) 0.2825(8) 0.2399(9)
H10 H 1.146(6) 0.213(5) 0.164(6)
H11 H 1.217(10) 0.211(7) 0.325(9)
H12 H 1.158(6) 0.375(6) 0.182(7)
N2 N 0.9752(5) 0.1589(4) 0.3362(5)
C7 C 0.9819(5) 0.1645(5) 0.4619(6)
C8 C 0.9787(4) 0.0530(6) 0.5469(5)
O2 O 0.9779(4) -0.0442(4) 0.4906(4)
N3 N 0.9721(5) 0.0693(6) 0.6755(5)
H13 H 0.983(8) 0.004(6) 0.736(8)
H14 H 0.983(6) 0.153(5) 0.712(6)
#END
