
#######################################################################
#
#                 Cambridge Crystallographic Data Centre
#                                CCDC
#
#######################################################################
#
# If this CIF has been generated from an entry in the Cambridge
# Structural Database, then it will include bibliographic, chemical,
# crystal, experimental, refinement or atomic coordinate data resulting
# from the CCDC's data processing and validation procedures.
#
#######################################################################

data_CSD_CIF_EXIFEW
_audit_creation_date 2004-09-20
_audit_creation_method CSD-ConQuest-V1
_database_code_CSD EXIFEW
_database_code_depnum_ccdc_archive 'CCDC 217543'
_chemical_formula_sum 'C8 H14 N3 O3'
_chemical_formula_moiety
;
C8 H14 N3 O3
;
_journal_coden_Cambridge 580
_journal_volume 23
_journal_year 2004
_journal_page_first 763
_journal_name_full 'Polyhedron '
loop_
_publ_author_name
"E.V.Tretyakov"
"O.V.Koreneva"
"G.V.Romanenko"
"Yu.G.Shvedenkov"
"V.I.Ovcharenko"
_chemical_name_systematic
;
4,4,5,5-Tetramethyl-4,5-dihydro-1H-imidazole-3-oxide-1-oxyl-2-carboxylic acid 
amide radical
;
_chemical_melting_point 439.15
_cell_volume   1017.484
_exptl_crystal_colour 'blue-violet'
_exptl_crystal_density_diffrn 1.307
_exptl_special_details
;
Melting point range 439.15-440.15K

;
_diffrn_ambient_temperature 293
#These two values have been output from a single CSD field.
_refine_ls_R_factor_gt 0.0447
_refine_ls_wR_factor_gt 0.0447
_symmetry_cell_setting orthorhombic
_symmetry_space_group_name_H-M 'P n a 21'
_symmetry_Int_Tables_number 33
loop_
_symmetry_equiv_pos_site_id
_symmetry_equiv_pos_as_xyz
1 x,y,z
2 -x,-y,1/2+z
3 1/2+x,1/2-y,z
4 1/2-x,1/2+y,1/2+z
_cell_length_a 13.604(3)
_cell_length_b 11.310(2)
_cell_length_c 6.6130(13)
_cell_angle_alpha 90
_cell_angle_beta 90
_cell_angle_gamma 90
_cell_formula_units_Z 4
loop_
_atom_type_symbol
_atom_type_radius_bond
C 0.68
H 0.23
N 0.68
O 0.68
loop_
_atom_site_label
_atom_site_type_symbol
_atom_site_fract_x
_atom_site_fract_y
_atom_site_fract_z
O1 O 0.3049(3) 0.4582(3) 0.4210(8)
N1 N 0.3376(2) 0.3552(3) 0.4583(7)
C1 C 0.2899(4) 0.2462(4) 0.3695(9)
C2 C 0.2597(6) 0.2639(6) 0.1536(12)
H1 H 0.314(5) 0.298(6) 0.066(14)
H2 H 0.198(7) 0.314(8) 0.142(17)
H3 H 0.231(5) 0.196(6) 0.100(12)
C3 C 0.1995(4) 0.2248(6) 0.5086(14)
H4 H 0.226(5) 0.210(6) 0.664(12)
H5 H 0.165(4) 0.296(6) 0.506(10)
H6 H 0.158(4) 0.158(4) 0.462(9)
C4 C 0.3721(3) 0.1543(3) 0.4040(8)
C5 C 0.4479(5) 0.1512(6) 0.2343(11)
H7 H 0.470(5) 0.232(6) 0.212(12)
H8 H 0.417(4) 0.116(5) 0.098(11)
H9 H 0.494(6) 0.099(8) 0.277(16)
C6 C 0.3374(5) 0.0302(4) 0.4523(12)
H10 H 0.304(5) 0.041(5) 0.602(13)
H11 H 0.291(5) 0.004(5) 0.328(10)
H12 H 0.392(5) -0.020(6) 0.470(12)
N2 N 0.4239(2) 0.2087(3) 0.5798(7)
O2 O 0.4839(3) 0.1476(3) 0.6901(6)
C7 C 0.4083(3) 0.3259(3) 0.5927(8)
C8 C 0.4592(3) 0.4092(4) 0.7319(8)
O3 O 0.4381(3) 0.5146(3) 0.7339(7)
N3 N 0.5260(4) 0.3602(4) 0.8498(8)
H13 H 0.535(4) 0.285(5) 0.821(9)
H14 H 0.551(5) 0.403(7) 0.931(13)
#END
