
#######################################################################
#
#                 Cambridge Crystallographic Data Centre
#                                CCDC
#
#######################################################################
#
# If this CIF has been generated from an entry in the Cambridge
# Structural Database, then it will include bibliographic, chemical,
# crystal, experimental, refinement or atomic coordinate data resulting
# from the CCDC's data processing and validation procedures.
#
#######################################################################

data_CSD_CIF_EXOQEO
_audit_creation_date 2011-11-07
_audit_creation_method CSD-ConQuest-V1
_database_code_CSD EXOQEO
_database_code_depnum_ccdc_archive 'CCDC 687211'
_chemical_formula_sum 'C11 H9 N3 O3'
_chemical_formula_moiety
;
C11 H9 N3 O3
;
_journal_coden_Cambridge 1003
_journal_volume 41
_journal_year 2011
_journal_page_first 1456
_journal_name_full 'J.Chem.Cryst. '
loop_
_publ_author_name
"Sheng-Li Cao"
"Jie Zhao"
"Nan Zhang"
"Yue Wang"
"Yu-Yang Jiang"
"Yu-Ping Feng"
_chemical_name_systematic
;
4-((3-Nitropyridin-2-yl)amino)phenol
;
_cell_volume   1024.642
_exptl_crystal_colour 'orange'
_exptl_crystal_density_diffrn 1.499
_exptl_crystal_description 'prism'
_diffrn_ambient_temperature 295
#These two values have been output from a single CSD field.
_refine_ls_R_factor_gt 0.05
_refine_ls_wR_factor_gt 0.05
_symmetry_cell_setting monoclinic
_symmetry_space_group_name_H-M 'P 21/c'
_symmetry_Int_Tables_number 14
loop_
_symmetry_equiv_pos_site_id
_symmetry_equiv_pos_as_xyz
1 x,y,z
2 -x,1/2+y,1/2-z
3 -x,-y,-z
4 x,-1/2-y,-1/2+z
_cell_length_a 11.5236(19)
_cell_length_b 8.7389(17)
_cell_length_c 10.684(3)
_cell_angle_alpha 90
_cell_angle_beta 107.76(3)
_cell_angle_gamma 90
_cell_formula_units_Z 4
loop_
_atom_type_symbol
_atom_type_radius_bond
C 0.68
H 0.23
N 0.68
O 0.68
loop_
_atom_site_label
_atom_site_type_symbol
_atom_site_fract_x
_atom_site_fract_y
_atom_site_fract_z
O1 O 0.4478(2) 0.4972(4) 1.2345(2)
H1 H 0.52090 0.51290 1.24970
O2 O 0.0051(3) 0.7800(4) 0.5408(3)
O3 O -0.0303(3) 0.7308(4) 0.3360(3)
N1 N 0.1921(3) 0.6508(4) 0.7184(3)
H2 H 0.13860 0.72250 0.70560
N2 N 0.0283(3) 0.7094(4) 0.4517(3)
N3 N 0.3017(3) 0.4848(4) 0.6325(3)
C1 C 0.2600(3) 0.6148(4) 0.8516(3)
C2 C 0.2135(3) 0.5117(5) 0.9204(4)
H3 H 0.13880 0.46540 0.87970
C3 C 0.2756(3) 0.4759(5) 1.0487(4)
H4 H 0.24260 0.40690 1.09470
C4 C 0.3869(3) 0.5426(5) 1.1087(3)
C5 C 0.4320(3) 0.6500(5) 1.0419(4)
H5 H 0.50540 0.69860 1.08360
C6 C 0.3689(3) 0.6863(5) 0.9130(4)
H6 H 0.40000 0.75870 0.86800
C7 C 0.2062(3) 0.5801(4) 0.6122(3)
C8 C 0.1272(3) 0.6010(4) 0.4826(3)
C9 C 0.1441(3) 0.5164(5) 0.3806(4)
H7 H 0.09080 0.52740 0.29590
C10 C 0.2393(4) 0.4164(5) 0.4043(4)
H8 H 0.25180 0.35660 0.33760
C11 C 0.3162(4) 0.4077(5) 0.5312(4)
H9 H 0.38320 0.34290 0.54720
#END
