
#######################################################################
#
#                 Cambridge Crystallographic Data Centre
#                                CCDC
#
#######################################################################
#
# If this CIF has been generated from an entry in the Cambridge
# Structural Database, then it will include bibliographic, chemical,
# crystal, experimental, refinement or atomic coordinate data resulting
# from the CCDC's data processing and validation procedures.
#
#######################################################################

data_CSD_CIF_EYABIP
_audit_creation_date 2004-10-07
_audit_creation_method CSD-ConQuest-V1
_database_code_CSD EYABIP
_database_code_depnum_ccdc_archive 'CCDC 204744'
_database_code_depnum_ccdc_journal 1135/129
_chemical_formula_sum 'C18 H20 N1 O3'
_chemical_formula_moiety
;
C18 H20 N1 O3
;
_journal_coden_Cambridge 1135
_journal_year 2003
_journal_page_first 109
_journal_name_full 'Mendeleev Commun. '
loop_
_publ_author_name
"N.Ikuma"
"R.Tamura"
"S.Shimono"
"N.Kawame"
"O.Tamada"
"N.Sakai"
"J.Yamauchi"
"Y.Yamamoto"
_chemical_name_systematic
;
(+-)-trans-2,5-bis(4-Hydroxyphenyl)-2,5-dimethylpyrrolidine-1-oxy
;
_chemical_melting_point 446.95
_cell_volume   1499.714
_exptl_crystal_colour 'yellow'
_exptl_crystal_density_diffrn 1.321
_exptl_special_details
;
Melts with decomposition.

;
_exptl_crystal_description 'tetrahedron'
_exptl_crystal_preparation 'methanol'
_diffrn_ambient_temperature 298
#These two values have been output from a single CSD field.
_refine_ls_R_factor_gt 0.0457
_refine_ls_wR_factor_gt 0.0457
_symmetry_cell_setting orthorhombic
_symmetry_space_group_name_H-M 'P 21 21 21'
_symmetry_Int_Tables_number 19
loop_
_symmetry_equiv_pos_site_id
_symmetry_equiv_pos_as_xyz
1 x,y,z
2 1/2-x,-y,1/2+z
3 1/2+x,1/2-y,-z
4 -x,1/2+y,1/2-z
_cell_length_a 10.4680(3)
_cell_length_b 10.5485(3)
_cell_length_c 13.5817(5)
_cell_angle_alpha 90
_cell_angle_beta 90
_cell_angle_gamma 90
_cell_formula_units_Z 4
loop_
_atom_type_symbol
_atom_type_radius_bond
C 0.68
H 0.23
N 0.68
O 0.68
loop_
_atom_site_label
_atom_site_type_symbol
_atom_site_fract_x
_atom_site_fract_y
_atom_site_fract_z
O1 O -0.0928(3) 0.0051(3) 0.1380(3)
N1 N -0.0242(3) 0.1050(4) 0.1380(3)
O2 O -0.0014(3) -0.0888(3) -0.3012(2)
C1 C 0.0743(4) 0.0586(4) -0.0223(3)
C2 C 0.0234(4) -0.0370(4) -0.2105(3)
O3 O -0.1685(3) 0.0552(4) 0.5883(2)
C3 C -0.0874(4) 0.1801(4) 0.3033(3)
C4 C 0.0968(4) 0.1110(4) 0.0805(3)
C5 C -0.1455(4) 0.0966(5) 0.4941(3)
C6 C 0.0926(4) -0.1070(5) -0.1440(3)
C7 C -0.0558(5) 0.2205(4) 0.1974(3)
C8 C 0.1171(4) -0.0598(5) -0.0511(3)
C9 C -0.0213(5) 0.0821(5) -0.1841(3)
C10 C 0.1257(5) 0.2538(5) 0.0876(4)
C11 C -0.2123(5) 0.1635(5) 0.3341(3)
C12 C 0.0035(4) 0.1273(5) -0.0913(3)
C13 C 0.0078(4) 0.1545(5) 0.3724(3)
C14 C 0.0676(5) 0.2972(5) 0.1854(4)
C15 C -0.2420(5) 0.1223(5) 0.4284(3)
C16 C -0.0200(4) 0.1138(6) 0.4661(4)
C17 C -0.1687(6) 0.2852(5) 0.1461(4)
C18 C 0.1977(5) 0.0340(6) 0.1376(4)
H1 H -0.03610 -0.03570 -0.33630
H2 H -0.24580 0.05180 0.59770
H3 H 0.12300 -0.18660 -0.16160
H4 H 0.16360 -0.10880 -0.00680
H5 H -0.06750 0.13070 -0.22880
H6 H 0.21710 0.26870 0.08690
H7 H 0.08730 0.29910 0.03300
H8 H -0.27830 0.18050 0.29020
H9 H -0.02790 0.20660 -0.07370
H10 H 0.09290 0.16540 0.35450
H11 H 0.04910 0.38730 0.18370
H12 H 0.12580 0.28050 0.23940
H13 H -0.32690 0.11210 0.44710
H14 H 0.04560 0.09780 0.51050
H15 H -0.14210 0.31570 0.08280
H16 H -0.19760 0.35520 0.18550
H17 H -0.23700 0.22540 0.13800
H18 H 0.21080 0.07150 0.20120
H19 H 0.27670 0.03420 0.10160
H20 H 0.16850 -0.05170 0.14540
#END
