
#######################################################################
#
#                 Cambridge Crystallographic Data Centre
#                                CCDC
#
#######################################################################
#
# If this CIF has been generated from an entry in the Cambridge
# Structural Database, then it will include bibliographic, chemical,
# crystal, experimental, refinement or atomic coordinate data resulting
# from the CCDC's data processing and validation procedures.
#
#######################################################################

data_CSD_CIF_EYALAS
_audit_creation_date 2011-11-07
_audit_creation_method CSD-ConQuest-V1
_database_code_CSD EYALAS
_database_code_depnum_ccdc_archive 'CCDC 806392'
_chemical_formula_sum 'C27 H34 N2 O3'
_chemical_formula_moiety
;
C27 H34 N2 O3
;
_journal_coden_Cambridge 1145
_journal_volume 21
_journal_year 2011
_journal_page_first 14599
_journal_name_full 'J.Mater.Chem. '
loop_
_publ_author_name
"Yan Sui"
"Dong-Sheng Liu"
"Rong-Hua Hu"
"Hong-Mei Chen"
_chemical_name_systematic
;
2-((Abieta-8,11,13-trien-18-ylimino)methyl)-4-nitrophenol
;
_cell_volume   1176.881
_exptl_crystal_colour 'yellow'
_exptl_crystal_density_diffrn 1.226
_exptl_crystal_description 'needle'
_diffrn_ambient_temperature 293
#These two values have been output from a single CSD field.
_refine_ls_R_factor_gt 0.047
_refine_ls_wR_factor_gt 0.047
_symmetry_cell_setting monoclinic
_symmetry_space_group_name_H-M 'P 21'
_symmetry_Int_Tables_number 4
loop_
_symmetry_equiv_pos_site_id
_symmetry_equiv_pos_as_xyz
1 x,y,z
2 -x,1/2+y,-z
_cell_length_a 11.1580(17)
_cell_length_b 6.2046(10)
_cell_length_c 17.347(3)
_cell_angle_alpha 90
_cell_angle_beta 101.490(3)
_cell_angle_gamma 90
_cell_formula_units_Z 2
loop_
_atom_type_symbol
_atom_type_radius_bond
C 0.68
H 0.23
N 0.68
O 0.68
loop_
_atom_site_label
_atom_site_type_symbol
_atom_site_fract_x
_atom_site_fract_y
_atom_site_fract_z
C1 C -0.1401(3) 0.2864(6) 0.04004(18)
H1 H -0.13670 0.42840 0.02340
C2 C -0.0344(3) 0.1840(6) 0.0807(2)
C3 C -0.0389(3) -0.0339(7) 0.1037(2)
C4 C -0.1550(3) -0.1382(7) 0.08904(19)
H2 H -0.16140 -0.27900 0.10620
C5 C -0.2570(3) -0.0343(7) 0.0501(2)
H3 H -0.33220 -0.10440 0.04040
C6 C -0.2482(3) 0.1769(7) 0.0250(2)
C7 C 0.0784(3) 0.3036(6) 0.09964(18)
H4 H 0.07930 0.45000 0.08830
C8 C 0.2966(3) 0.3163(6) 0.15580(18)
H5 H 0.28360 0.47090 0.15300
H6 H 0.34880 0.27880 0.11930
C9 C 0.3608(3) 0.2544(6) 0.2396(2)
C10 C 0.2818(3) 0.3410(7) 0.29502(19)
H7 H 0.25920 0.48870 0.28060
H8 H 0.20710 0.25680 0.28810
C11 C 0.3441(3) 0.3348(7) 0.3807(2)
H9 H 0.36200 0.18660 0.39680
H10 H 0.28980 0.39380 0.41260
C12 C 0.4626(3) 0.4647(7) 0.39407(18)
H11 H 0.50030 0.46080 0.44950
H12 H 0.44380 0.61380 0.37970
C13 C 0.5538(3) 0.3776(6) 0.34574(18)
C14 C 0.4870(3) 0.3718(6) 0.25779(17)
H13 H 0.46820 0.52290 0.24390
C15 C 0.5775(3) 0.3023(6) 0.20600(19)
H14 H 0.61630 0.16750 0.22520
H15 H 0.53420 0.28080 0.15230
C16 C 0.6737(3) 0.4765(7) 0.20853(19)
H16 H 0.74200 0.41720 0.18860
H17 H 0.63920 0.59280 0.17370
C17 C 0.7213(3) 0.5687(7) 0.2898(2)
C18 C 0.6645(3) 0.5301(6) 0.3527(2)
C19 C 0.7173(3) 0.6156(6) 0.4254(2)
H18 H 0.68200 0.58700 0.46850
C20 C 0.8213(4) 0.7425(7) 0.4353(2)
H19 H 0.85450 0.79730 0.48490
C21 C 0.8761(3) 0.7885(7) 0.3735(3)
C22 C 0.8271(3) 0.7010(7) 0.3016(2)
H20 H 0.86430 0.72920 0.25930
C23 C 0.9896(4) 0.9289(8) 0.3842(3)
H21 H 1.00590 0.96400 0.44040
C24 C 1.0997(3) 0.8127(9) 0.3741(3)
H22 H 1.09070 0.76700 0.32040
H23 H 1.11120 0.68890 0.40800
H24 H 1.16940 0.90600 0.38730
C25 C 0.9682(4) 1.1385(9) 0.3461(3)
H25 H 1.04140 1.22360 0.35860
H26 H 0.90320 1.21080 0.36440
H27 H 0.94610 1.11920 0.29020
C26 C 0.6039(3) 0.1593(6) 0.3812(2)
H28 H 0.64620 0.08770 0.34550
H29 H 0.53720 0.07090 0.38990
H30 H 0.65930 0.18370 0.43040
C27 C 0.3745(3) 0.0059(6) 0.2422(2)
H31 H 0.41430 -0.03790 0.29410
H32 H 0.42260 -0.03890 0.20490
H33 H 0.29510 -0.05960 0.22920
N1 N 0.1793(2) 0.2063(5) 0.13285(16)
N2 N -0.3561(3) 0.2828(7) -0.0198(2)
O1 O -0.3502(2) 0.4754(6) -0.0327(2)
O2 O -0.4480(2) 0.1768(5) -0.04175(18)
O3 O 0.0575(2) -0.1388(4) 0.13676(16)
H34 H 0.11750 -0.05990 0.14120
#END
