
#######################################################################
#
#                 Cambridge Crystallographic Data Centre
#                                CCDC
#
#######################################################################
#
# If this CIF has been generated from an entry in the Cambridge
# Structural Database, then it will include bibliographic, chemical,
# crystal, experimental, refinement or atomic coordinate data resulting
# from the CCDC's data processing and validation procedures.
#
#######################################################################

data_CSD_CIF_EYEFOE
_audit_creation_date 2012-02-03
_audit_creation_method CSD-ConQuest-V1
_database_code_CSD EYEFOE
_database_code_depnum_ccdc_archive 'CCDC 806592'
_chemical_formula_sum 'C14 H12 N4 O6'
_chemical_formula_moiety
;
C14 H12 N4 O6
;
_journal_coden_Cambridge 580
_journal_volume 30
_journal_year 2011
_journal_page_first 2611
_journal_name_full 'Polyhedron '
loop_
_publ_author_name
"J.Rahchamani"
"M.Behzad"
"A.Bezaatpour"
"V.Jahed"
"G.Dutkiewicz"
"M.Kubicki"
"M.Salehi"
_chemical_name_systematic
;
2-(((2-Amino-4,5-dinitrophenyl)imino)methyl)-5-methoxyphenol
;
_cell_volume    702.429
_exptl_crystal_colour 'yellow'
_exptl_crystal_density_diffrn 1.571
_exptl_crystal_description 'plate'
_diffrn_ambient_temperature 293
#These two values have been output from a single CSD field.
_refine_ls_R_factor_gt 0.0454
_refine_ls_wR_factor_gt 0.0454
_symmetry_cell_setting triclinic
_symmetry_space_group_name_H-M 'P -1'
_symmetry_Int_Tables_number 2
loop_
_symmetry_equiv_pos_site_id
_symmetry_equiv_pos_as_xyz
1 x,y,z
2 -x,-y,-z
_cell_length_a 7.709(2)
_cell_length_b 8.351(2)
_cell_length_c 11.699(3)
_cell_angle_alpha 109.56(1)
_cell_angle_beta 91.80(2)
_cell_angle_gamma 96.93(2)
_cell_formula_units_Z 2
loop_
_atom_type_symbol
_atom_type_radius_bond
C 0.68
H 0.23
N 0.68
O 0.68
loop_
_atom_site_label
_atom_site_type_symbol
_atom_site_fract_x
_atom_site_fract_y
_atom_site_fract_z
C1 C 0.26755(19) 0.24572(17) 0.31617(13)
C2 C 0.3056(2) 0.22096(18) 0.19413(13)
N1 N 0.3590(3) 0.3570(2) 0.15897(16)
H1 H 0.373(3) 0.330(3) 0.082(3)
H2 H 0.332(3) 0.453(3) 0.204(2)
C3 C 0.2884(2) 0.05389(19) 0.10979(14)
H3 H 0.313(2) 0.035(2) 0.0256(19)
C4 C 0.2258(2) -0.08308(17) 0.14383(13)
N2 N 0.1976(2) -0.25251(16) 0.04625(12)
O1 O 0.3251(2) -0.32342(19) 0.01587(16)
O2 O 0.0514(2) -0.30538(17) -0.00115(13)
C5 C 0.18285(19) -0.05949(17) 0.26241(13)
N3 N 0.11268(18) -0.20076(14) 0.29971(11)
O3 O 0.1246(2) -0.34747(13) 0.23246(11)
O4 O 0.04355(17) -0.16955(14) 0.39562(11)
C6 C 0.20609(19) 0.10494(17) 0.34785(13)
H4 H 0.177(2) 0.113(2) 0.4259(17)
N4 N 0.29439(16) 0.41644(14) 0.39734(11)
C7 C 0.2253(2) 0.45907(17) 0.49993(13)
H5 H 0.151(3) 0.377(2) 0.5245(17)
C8 C 0.24812(19) 0.63315(17) 0.58413(12)
C9 C 0.34206(19) 0.76926(17) 0.55620(12)
O5 O 0.42577(15) 0.73929(13) 0.45312(9)
H6 H 0.404(3) 0.630(3) 0.411(2)
C10 C 0.35019(19) 0.93847(17) 0.63370(13)
H7 H 0.417(2) 1.030(2) 0.6083(16)
C11 C 0.26456(19) 0.97230(17) 0.73947(13)
O6 O 0.25896(17) 1.13251(13) 0.81998(10)
C12 C 0.3363(3) 1.2752(2) 0.78861(19)
H8 H 0.285(3) 1.270(3) 0.713(2)
H9 H 0.468(3) 1.275(3) 0.7844(18)
H10 H 0.310(3) 1.364(3) 0.851(2)
C13 C 0.1736(2) 0.83887(19) 0.77079(13)
H11 H 0.108(2) 0.867(2) 0.8420(18)
C14 C 0.1658(2) 0.67311(18) 0.69374(13)
H12 H 0.099(2) 0.578(2) 0.7156(17)
#END
