
#######################################################################
#
#                 Cambridge Crystallographic Data Centre
#                                CCDC
#
#######################################################################
#
# If this CIF has been generated from an entry in the Cambridge
# Structural Database, then it will include bibliographic, chemical,
# crystal, experimental, refinement or atomic coordinate data resulting
# from the CCDC's data processing and validation procedures.
#
#######################################################################

data_CSD_CIF_EYHPIP
_audit_creation_date 1979-05-11
_audit_creation_method CSD-ConQuest-V1
_database_code_CSD EYHPIP
_chemical_formula_sum 'C11 H18 N1 O2'
_chemical_formula_moiety
;
C11 H18 N1 O2
;
_journal_coeditor_code "IUCr A17210"
_journal_coden_Cambridge 107
_journal_volume 35
_journal_year 1979
_journal_page_first 195
_journal_name_full 'Acta Crystallogr.,Sect.B:Struct.Crystallogr.Cryst.Chem. '
loop_
_publ_author_name
"M.Cygler"
_chemical_name_systematic
;
4-Ethynyl-4-hydroxy-2,2,6,6-tetramethylpiperidin-1-oxyl
;
_cell_volume   1136.792
_exptl_crystal_colour 'orange'
_exptl_crystal_density_diffrn 1.147
_exptl_special_details
;
Atom O41 in diagram and bond table listed as O4 in coordinate table

;
_diffrn_ambient_temperature ?
_diffrn_special_details
;
The study was carried out at room temperature,in the range 283-303K

;
#These two values have been output from a single CSD field.
_refine_ls_R_factor_gt 0.0398
_refine_ls_wR_factor_gt 0.0398
_symmetry_cell_setting monoclinic
_symmetry_space_group_name_H-M 'P 21/c'
_symmetry_Int_Tables_number 14
loop_
_symmetry_equiv_pos_site_id
_symmetry_equiv_pos_as_xyz
1 x,y,z
2 -x,1/2+y,1/2-z
3 -x,-y,-z
4 x,-1/2-y,-1/2+z
_cell_length_a 13.327(4)
_cell_length_b 7.662(2)
_cell_length_c 12.668(4)
_cell_angle_alpha 90
_cell_angle_beta 118.50(5)
_cell_angle_gamma 90
_cell_formula_units_Z 4
loop_
_atom_type_symbol
_atom_type_radius_bond
C 0.68
H 0.23
N 0.68
O 0.68
loop_
_atom_site_label
_atom_site_type_symbol
_atom_site_fract_x
_atom_site_fract_y
_atom_site_fract_z
O1 O 0.70260 0.51100 0.46500
N1 N 0.72610 0.67400 0.48360
C1 C 0.62700 0.79340 0.41930
C2 C 0.52980 0.72490 0.44020
C3 C 0.58950 0.78740 0.28490
C4 C 0.65950 0.97630 0.47290
C5 C 0.77570 1.04640 0.49810
C6 C 0.78050 1.09840 0.38830
C7 C 0.78380 1.15430 0.30360
O2 O 0.80140 1.19800 0.57340
C8 C 0.86620 0.91350 0.57500
C9 C 0.84800 0.72500 0.52960
C10 C 0.88050 0.69650 0.43040
C11 C 0.92130 0.60800 0.63700
H1 H 0.77200 1.29400 0.52800
H2 H 0.78400 1.19400 0.23300
H3 H 0.66100 0.97200 0.55300
H4 H 0.59900 1.05900 0.42100
H5 H 0.94200 0.95300 0.58900
H6 H 0.86700 0.91100 0.65500
H7 H 0.50900 0.60400 0.40500
H8 H 0.46200 0.81300 0.39800
H9 H 0.55900 0.71900 0.52800
H10 H 0.57900 0.66700 0.25900
H11 H 0.51400 0.84300 0.24300
H12 H 0.64500 0.84400 0.26200
H13 H 0.83800 0.77500 0.35900
H14 H 0.86200 0.57200 0.40100
H15 H 0.96100 0.72000 0.46200
H16 H 1.00100 0.65400 0.67500
H17 H 0.89000 0.60500 0.69100
H18 H 0.92100 0.48100 0.61000
#END
