
#######################################################################
#
#                 Cambridge Crystallographic Data Centre
#                                CCDC
#
#######################################################################
#
# If this CIF has been generated from an entry in the Cambridge
# Structural Database, then it will include bibliographic, chemical,
# crystal, experimental, refinement or atomic coordinate data resulting
# from the CCDC's data processing and validation procedures.
#
#######################################################################

data_CSD_CIF_EYOVET
_audit_creation_date 2004-10-07
_audit_creation_method CSD-ConQuest-V1
_database_code_CSD EYOVET
_database_code_depnum_ccdc_archive 'CCDC 248403'
_chemical_formula_sum 'C7 H4 N4 O3'
_chemical_formula_moiety
;
C7 H4 N4 O3
;
_journal_coden_Cambridge 533
_journal_volume 37
_journal_year 2003
_journal_page_first 14-11
_journal_name_full 'Khim.-Farm.Zh.(Russ.)(Chem.Pharm.J.) '
loop_
_publ_author_name
"F.S.Levinson"
"M.I.Evgen'ev"
"E.A.Ermolaeva"
"S.I.Efimov"
"T.V.Garipov"
"R.G.Karimova"
_chemical_name_systematic
;
4-Methoxy(1,2,5)oxadiazolo(3,4-e)(2,1,3)benzoxadiazole
;
_chemical_name_common
;
Methoxybenzodifurazane
;
_cell_volume    803.968
_exptl_crystal_colour 'colorless'
_exptl_crystal_density_diffrn 1.58
_exptl_special_details
;
bacteriostatic activity

;
_exptl_crystal_description 'needle'
_diffrn_ambient_temperature 295
#These two values have been output from a single CSD field.
_refine_ls_R_factor_gt 0.065
_refine_ls_wR_factor_gt 0.065
_symmetry_cell_setting monoclinic
_symmetry_space_group_name_H-M 'P 21/n'
_symmetry_Int_Tables_number 14
loop_
_symmetry_equiv_pos_site_id
_symmetry_equiv_pos_as_xyz
1 x,y,z
2 1/2-x,1/2+y,1/2-z
3 -x,-y,-z
4 -1/2+x,-1/2-y,-1/2+z
_cell_length_a 10.425(6)
_cell_length_b 5.270(3)
_cell_length_c 14.879(9)
_cell_angle_alpha 90
_cell_angle_beta 100.42(4)
_cell_angle_gamma 90
_cell_formula_units_Z 4
loop_
_atom_type_symbol
_atom_type_radius_bond
C 0.68
H 0.23
N 0.68
O 0.68
loop_
_atom_site_label
_atom_site_type_symbol
_atom_site_fract_x
_atom_site_fract_y
_atom_site_fract_z
O1 O 1.1494(2) 0.6918(4) 0.2049(2)
O2 O 0.7785(2) -0.1251(4) 0.1049(1)
O3 O 0.9243(2) -0.0878(5) 0.3817(1)
N1 N 1.1308(2) 0.5633(5) 0.2830(2)
N2 N 1.0751(3) 0.5880(5) 0.1262(2)
N3 N 0.8595(2) -0.1444(5) 0.2947(2)
N4 N 1.0050(2) 0.1193(5) 0.3828(2)
C1 C 0.9214(3) 0.2306(6) 0.1008(2)
C2 C 0.8657(2) 0.0475(5) 0.1435(2)
C3 C 0.9003(2) 0.0229(5) 0.2426(2)
C4 C 0.9907(2) 0.1856(5) 0.2976(2)
C5 C 1.0490(3) 0.3853(5) 0.2521(2)
C6 C 1.0129(3) 0.3991(6) 0.1555(2)
C7 C 0.7364(3) -0.1109(8) 0.0076(2)
H1 H 0.892(2) 0.237(4) 0.032(1)
H2 H 0.804(3) -0.102(6) -0.022(2)
H3 H 0.702(5) -0.229(9) -0.013(3)
H4 H 0.698(4) 0.069(7) -0.010(3)
#END
