
#######################################################################
#
#                 Cambridge Crystallographic Data Centre
#                                CCDC
#
#######################################################################
#
# If this CIF has been generated from an entry in the Cambridge
# Structural Database, then it will include bibliographic, chemical,
# crystal, experimental, refinement or atomic coordinate data resulting
# from the CCDC's data processing and validation procedures.
#
#######################################################################

data_CSD_CIF_EYUFEJ
_audit_creation_date 2004-10-07
_audit_creation_method CSD-ConQuest-V1
_database_code_CSD EYUFEJ
_database_code_depnum_ccdc_archive 'CCDC 248889'
_chemical_formula_sum 'C12 H11 N5 O8'
_chemical_formula_moiety
;
C12 H11 N5 O8
;
_journal_coden_Cambridge 95
_journal_year 2003
_journal_page_first 2097
_journal_name_full 'Izv.Akad.Nauk SSSR,Ser.Khim.(Russ.)(Russ.Chem.Bull.) '
loop_
_publ_author_name
"A.G.Korepin"
"P.V.Galkin"
"E.K.Perepelkina"
"N.M.Glushakova"
"V.P.Lodygina"
"I.L.Eremenko"
"S.E.Nefedov"
"L.T.Eremenko"
_chemical_name_systematic
;
1-(2-Nitroso-5-nitroxy-2-azapentyl)-5-nitroindoline-2,3-dione
;
_chemical_melting_point 409.15
_cell_volume    741.079
_exptl_crystal_density_diffrn 1.583
_exptl_special_details
;
Melts with decomposition.

;
_exptl_crystal_preparation 'chloroform/1,2-dichloroethane'
_diffrn_ambient_temperature 295
#These two values have been output from a single CSD field.
_refine_ls_R_factor_gt 0.055
_refine_ls_wR_factor_gt 0.055
_symmetry_cell_setting monoclinic
_symmetry_space_group_name_H-M 'P 21'
_symmetry_Int_Tables_number 4
loop_
_symmetry_equiv_pos_site_id
_symmetry_equiv_pos_as_xyz
1 x,y,z
2 -x,1/2+y,-z
_cell_length_a 10.887(3)
_cell_length_b 5.716(2)
_cell_length_c 12.475(3)
_cell_angle_alpha 90
_cell_angle_beta 107.33(2)
_cell_angle_gamma 90
_cell_formula_units_Z 2
loop_
_atom_type_symbol
_atom_type_radius_bond
C 0.68
H 0.23
N 0.68
O 0.68
loop_
_atom_site_label
_atom_site_type_symbol
_atom_site_fract_x
_atom_site_fract_y
_atom_site_fract_z
O1 O 0.89305(40) 0.27840 0.49546(36)
O2 O 1.06416(44) 0.2528(13) 0.35093(37)
O3 O 0.50118(66) 1.2010(16) 0.33142(54)
O4 O 0.50721(62) 0.9388(17) 0.45187(62)
O5 O 1.12398(71) 1.1032(17) 0.10872(53)
O6 O 1.38496(48) 0.8305(15) 0.12748(44)
O7 O 1.43017(69) 1.1082(19) 0.02913(56)
O8 O 1.29303(63) 0.8505(18) -0.05740(53)
N1 N 0.54704(62) 1.0263(17) 0.38036(55)
N2 N 0.94407(43) 0.5745(14) 0.26730(39)
N3 N 1.08386(48) 0.7902(14) 0.18629(40)
N4 N 1.04495(80) 0.9637(16) 0.11150(61)
N5 N 1.36632(69) 0.9331(20) 0.02376(65)
C1 C 0.65174(53) 0.9119(17) 0.35013(51)
C2 C 0.68590(66) 1.0018(17) 0.26189(55)
C3 C 0.78514(57) 0.9007(17) 0.22745(50)
C4 C 0.84367(53) 0.7088(15) 0.28655(45)
C5 C 0.80962(53) 0.6166(16) 0.37796(46)
C6 C 0.70892(58) 0.7222(18) 0.40973(57)
C7 C 0.89151(52) 0.4166(18) 0.42203(47)
C8 C 0.98155(55) 0.3968(16) 0.34541(46)
C9 C 0.99179(60) 0.6026(18) 0.17154(49)
C10 C 1.21201(65) 0.7777(19) 0.26971(62)
C11 C 1.29646(72) 0.5939(20) 0.24140(74)
C12 C 1.31276(81) 0.6155(21) 0.12676(88)
H1 H 0.6447(55) 1.128(12) 0.2243(47)
H2 H 0.8084(54) 0.985(12) 0.1743(52)
H3 H 0.6784(62) 0.691(15) 0.4591(60)
H4 H 0.9336(59) 0.660(13) 0.0865(53)
H5 H 1.0368(55) 0.468(12) 0.1655(44)
H6 H 1.2413(62) 0.929(14) 0.2751(52)
H7 H 1.2062(55) 0.735(13) 0.3371(54)
H8 H 1.2703(82) 0.452(19) 0.2646(72)
H9 H 1.3888(92) 0.617(21) 0.3151(80)
H10 H 1.3480(84) 0.472(19) 0.1018(74)
H11 H 1.2312(88) 0.633(20) 0.0490(74)
#END
