
#######################################################################
#
#                 Cambridge Crystallographic Data Centre
#                                CCDC
#
#######################################################################
#
# If this CIF has been generated from an entry in the Cambridge
# Structural Database, then it will include bibliographic, chemical,
# crystal, experimental, refinement or atomic coordinate data resulting
# from the CCDC's data processing and validation procedures.
#
#######################################################################

data_CSD_CIF_EZAROM
_audit_creation_date 2004-10-28
_audit_creation_method CSD-ConQuest-V1
_database_code_CSD EZAROM
_database_code_depnum_ccdc_archive 'CCDC 233306'
_chemical_formula_sum 'C16 H21 N1 O2'
_chemical_formula_moiety
;
C16 H21 N1 O2
;
_journal_coden_Cambridge 1090
_journal_volume 15
_journal_year 2004
_journal_page_first 1801
_journal_name_full 'Tetrahedron:Asymm. '
loop_
_publ_author_name
"S.Hock"
"F.Koch"
"H.-J.Borschberg"
_chemical_name_systematic
;
(-)-(3S,4R,6S,8S)-8-Benzyloxy-3-methyl-2-oxa-1-azatricyclo(4.3.1.0^4,9^)decane
;
_chemical_melting_point 353.15
_cell_volume   1437.036
_exptl_crystal_colour 'colorless'
_exptl_crystal_density_diffrn 1.199
_exptl_special_details
;
Melting point range 353.15-354.15K

;
_exptl_crystal_description 'cube'
_exptl_crystal_preparation 'ethyl acetate/cyclohexane'
_diffrn_ambient_temperature 298
#These two values have been output from a single CSD field.
_refine_ls_R_factor_gt 0.0721
_refine_ls_wR_factor_gt 0.0721
_symmetry_cell_setting orthorhombic
_symmetry_space_group_name_H-M 'P 21 21 21'
_symmetry_Int_Tables_number 19
loop_
_symmetry_equiv_pos_site_id
_symmetry_equiv_pos_as_xyz
1 x,y,z
2 1/2-x,-y,1/2+z
3 1/2+x,1/2-y,-z
4 -x,1/2+y,1/2-z
_cell_length_a 9.5166(5)
_cell_length_b 12.2664(6)
_cell_length_c 12.3103(7)
_cell_angle_alpha 90
_cell_angle_beta 90
_cell_angle_gamma 90
_cell_formula_units_Z 4
loop_
_atom_type_symbol
_atom_type_radius_bond
C 0.68
H 0.23
N 0.68
O 0.68
loop_
_atom_site_label
_atom_site_type_symbol
_atom_site_fract_x
_atom_site_fract_y
_atom_site_fract_z
O1 O 0.5393(3) 0.1293(2) 0.3611(2)
O2 O 0.4457(3) 0.4368(2) 0.5043(3)
N1 N 0.5213(3) 0.2460(2) 0.36985(19)
C1 C 0.4037(4) 0.0766(3) 0.3765(3)
C2 C 0.3021(4) 0.1678(2) 0.4029(3)
C3 C 0.2324(4) 0.2160(3) 0.3008(3)
C4 C 0.3169(4) 0.3143(3) 0.2634(3)
C5 C 0.2944(5) 0.4052(3) 0.3438(4)
C6 C 0.3428(4) 0.3656(3) 0.4551(3)
C7 C 0.4051(3) 0.2522(2) 0.4480(2)
C8 C 0.4717(4) 0.2875(4) 0.2622(3)
C9 C 0.4223(7) -0.0101(3) 0.4618(4)
C10 C 0.3929(8) 0.5081(7) 0.5713(7)
C11 C 0.4983(4) 0.5897(4) 0.6132(4)
C12 C 0.5704(5) 0.5688(3) 0.7081(4)
C13 C 0.6581(5) 0.6465(4) 0.7507(3)
C14 C 0.6726(5) 0.7410(3) 0.7038(5)
C15 C 0.6015(6) 0.7651(4) 0.6142(6)
C16 C 0.5158(6) 0.6918(5) 0.5671(4)
H1 H 0.37390 0.03980 0.31160
H2 H 0.23050 0.14460 0.45280
H3 H 0.23080 0.16210 0.24430
H4 H 0.13800 0.23790 0.31750
H5 H 0.28720 0.33740 0.19260
H6 H 0.34810 0.46790 0.32240
H7 H 0.19640 0.42370 0.34540
H8 H 0.26350 0.36300 0.50320
H9 H 0.43250 0.23190 0.52030
H10 H 0.52390 0.35140 0.24240
H11 H 0.48610 0.23170 0.20860
H12 H 0.33460 -0.04680 0.47350
H13 H 0.45380 0.02190 0.52870
H14 H 0.49100 -0.06140 0.43650
H15 H 0.31830 0.54750 0.53640
H16 H 0.35640 0.47020 0.63340
H17 H 0.55900 0.49980 0.74390
H18 H 0.70860 0.63020 0.81630
H19 H 0.73440 0.79430 0.73520
H20 H 0.61270 0.83420 0.57870
H21 H 0.46330 0.71170 0.50350
#END
