
#######################################################################
#
#                 Cambridge Crystallographic Data Centre
#                                CCDC
#
#######################################################################
#
# If this CIF has been generated from an entry in the Cambridge
# Structural Database, then it will include bibliographic, chemical,
# crystal, experimental, refinement or atomic coordinate data resulting
# from the CCDC's data processing and validation procedures.
#
#######################################################################

data_CSD_CIF_EZEFUL
_audit_creation_date 2011-10-18
_audit_creation_method CSD-ConQuest-V1
_database_code_CSD EZEFUL
_database_code_depnum_ccdc_archive 'CCDC 846643'
_chemical_formula_sum 'C17 H17 N1 O5'
_chemical_formula_moiety
;
C17 H17 N1 O5
;
_journal_coeditor_code "IUCr FA3256"
_journal_coden_Cambridge 591
_journal_volume 67
_journal_year 2011
_journal_page_first o364
_journal_name_full 'Acta Crystallogr.,Sect.C:Cryst.Struct.Commun. '
loop_
_publ_author_name
"A.Collas"
"F.Blockhuys"
_chemical_name_systematic
;
(E)-1-nitro-4-[2-(3,4,5-trimethoxyphenyl)ethenyl]benzene
;
_chemical_name_common
;
(E)-3,4,5-trimethoxy-4'-nitrostilbene
;
_cell_volume   1564.610
_exptl_crystal_colour 'yellow'
_exptl_crystal_density_diffrn 1.339
_exptl_crystal_description 'block'
_diffrn_ambient_temperature 293
#These two values have been output from a single CSD field.
_refine_ls_R_factor_gt 0.0454
_refine_ls_wR_factor_gt 0.0454
_symmetry_cell_setting monoclinic
_symmetry_space_group_name_H-M 'P 21/c'
_symmetry_Int_Tables_number 14
loop_
_symmetry_equiv_pos_site_id
_symmetry_equiv_pos_as_xyz
1 x,y,z
2 -x,1/2+y,1/2-z
3 -x,-y,-z
4 x,-1/2-y,-1/2+z
_cell_length_a 10.459(2)
_cell_length_b 12.88(1)
_cell_length_c 14.021(4)
_cell_angle_alpha 90
_cell_angle_beta 124.069(15)
_cell_angle_gamma 90
_cell_formula_units_Z 4
loop_
_atom_type_symbol
_atom_type_radius_bond
C 0.68
H 0.23
N 0.68
O 0.68
loop_
_atom_site_label
_atom_site_type_symbol
_atom_site_fract_x
_atom_site_fract_y
_atom_site_fract_z
C1 C 0.2949(3) 0.6123(2) 0.0449(2)
C2 C 0.2913(3) 0.55632(19) -0.0414(2)
H1 H 0.26110 0.48700 -0.05370
C3 C 0.3328(3) 0.6036(2) -0.1089(2)
C4 C 0.3792(3) 0.70753(19) -0.0895(2)
C5 C 0.3820(3) 0.7628(2) -0.0030(2)
C6 C 0.3401(3) 0.7153(2) 0.0635(2)
H2 H 0.34220 0.75260 0.12120
C7 C 0.2517(3) 0.5678(2) 0.1199(2)
H3 H 0.27560 0.60780 0.18320
C8 C 0.1847(3) 0.4801(2) 0.1088(2)
H4 H 0.16190 0.43840 0.04700
C9 C 0.1411(3) 0.4402(2) 0.1861(2)
C10 C 0.0873(3) 0.3402(2) 0.1730(2)
H5 H 0.07740 0.29880 0.11480
C11 C 0.0482(3) 0.3004(2) 0.2437(2)
H6 H 0.01350 0.23230 0.23460
C12 C 0.0607(3) 0.3618(2) 0.3282(2)
C13 C 0.1111(3) 0.4624(2) 0.3438(2)
H7 H 0.11740 0.50360 0.40080
C14 C 0.1525(3) 0.5014(2) 0.2726(2)
H8 H 0.18840 0.56930 0.28260
C15 C 0.2920(4) 0.4510(2) -0.2184(3)
H9 H 0.18970 0.44160 -0.23620
H10 H 0.36380 0.41100 -0.15140
H11 H 0.29490 0.42830 -0.28230
C16 C 0.4430(4) 0.9222(2) 0.1004(3)
H12 H 0.51920 0.89030 0.17240
H13 H 0.34570 0.92380 0.09240
H14 H 0.47440 0.99180 0.09850
C17 C 0.5782(4) 0.7551(3) -0.1094(3)
H15 H 0.61360 0.68470 -0.10020
H16 H 0.63220 0.78890 -0.03570
H17 H 0.59770 0.79140 -0.15980
N1 N 0.0198(3) 0.3190(2) 0.4046(2)
O1 O 0.0234(3) 0.3758(2) 0.4752(2)
O2 O -0.0113(3) 0.2273(2) 0.3958(2)
O3 O 0.3325(2) 0.55781(14) -0.19659(15)
O4 O 0.4183(2) 0.75565(14) -0.15702(14)
O5 O 0.4280(2) 0.86429(14) 0.00886(15)
#END
