
#######################################################################
#
#                 Cambridge Crystallographic Data Centre
#                                CCDC
#
#######################################################################
#
# If this CIF has been generated from an entry in the Cambridge
# Structural Database, then it will include bibliographic, chemical,
# crystal, experimental, refinement or atomic coordinate data resulting
# from the CCDC's data processing and validation procedures.
#
#######################################################################

data_CSD_CIF_EZORUI
_audit_creation_date 2016-11-28
_audit_creation_method CSD-ConQuest-V1
_database_code_CSD EZORUI
_database_code_depnum_ccdc_archive 'CCDC 1402831'
_chemical_formula_sum 'C36 H44 N2 O13'
_chemical_formula_moiety
;
C36 H44 N2 O13
;
_journal_coden_Cambridge 7
_journal_volume 89
_journal_year 2016
_journal_page_first 941
_journal_name_full 'Bull.Chem.Soc.Jpn. '
loop_
_publ_author_name
"H.Takikawa"
"Yui Ishikawa"
"Yuki Yoshinaga"
"Y.Hashimoto"
"T.Kusumi"
"K.Suzuki"
_chemical_name_systematic
;
3,3'-bis(2-(1,3-dioxan-2-yl)-4,6-dimethoxyphenyl)-4a',6',6'-trimethyl-3a',4a',
7a',8a'-tetrahydro-4'H-spiro[1,4,2-dioxazole-5,8'-[1,3]dioxolo[4,5-f][1,2]benz
oxazole]
;
_cell_volume   3424.820
_exptl_crystal_colour 'colorless'
_exptl_crystal_density_diffrn 1.382
_exptl_crystal_description 'block'
_exptl_crystal_preparation 'Vapour Deposition'
_diffrn_ambient_temperature 169
#These two values have been output from a single CSD field.
_refine_ls_R_factor_gt 0.0455
_refine_ls_wR_factor_gt 0.0455
_symmetry_cell_setting monoclinic
_symmetry_space_group_name_H-M 'P 21/c'
_symmetry_Int_Tables_number 14
loop_
_symmetry_equiv_pos_site_id
_symmetry_equiv_pos_as_xyz
1 x,y,z
2 -x,1/2+y,1/2-z
3 -x,-y,-z
4 x,-1/2-y,-1/2+z
_cell_length_a 16.6159(17)
_cell_length_b 12.8104(13)
_cell_length_c 16.3903(13)
_cell_angle_alpha 90
_cell_angle_beta 100.988(2)
_cell_angle_gamma 90
_cell_formula_units_Z 4
loop_
_atom_type_symbol
_atom_type_radius_bond
C 0.68
H 0.23
N 0.68
O 0.68
loop_
_atom_site_label
_atom_site_type_symbol
_atom_site_fract_x
_atom_site_fract_y
_atom_site_fract_z
O1 O 0.18068(7) 0.26199(10) 0.30349(7)
O2 O 0.06182(7) 0.10813(9) 0.32816(7)
O3 O 0.14694(7) 0.16145(8) 0.44545(7)
O4 O -0.05435(7) 0.26185(10) 0.35744(7)
O5 O -0.03451(7) 0.39531(9) 0.44981(8)
O6 O 0.39484(8) -0.11378(11) 0.68049(8)
O7 O 0.12028(7) 0.02236(10) 0.58879(7)
O8 O 0.32401(9) 0.08286(10) 0.38586(8)
O9 O 0.35695(9) -0.09274(11) 0.37529(8)
O10 O 0.43042(8) 0.70399(10) 0.55055(8)
O11 O 0.19925(8) 0.60318(9) 0.34896(8)
O12 O 0.43297(8) 0.31481(10) 0.55034(8)
O13 O 0.30982(8) 0.32535(10) 0.59665(8)
N1 N 0.24432(9) 0.33027(11) 0.34066(9)
N2 N 0.10205(9) 0.01894(10) 0.37165(8)
C1 C 0.1068(1) 0.28791(12) 0.3334(1)
H1 H 0.06200 0.30430 0.28510
C2 C 0.08097(10) 0.19627(12) 0.38168(9)
C3 C 0.00952(10) 0.22741(12) 0.42248(10)
H2 H -0.00920 0.16660 0.45230
C4 C 0.02937(10) 0.32260(13) 0.48219(10)
C5 C 0.1110(1) 0.37489(13) 0.47736(10)
H3 H 0.15610 0.33350 0.51030
H4 H 0.11220 0.44510 0.50280
C6 C 0.12644(10) 0.38605(12) 0.38803(10)
H5 H 0.09540 0.44730 0.36020
C7 C 0.21636(10) 0.39723(12) 0.38569(10)
C8 C 0.02684(12) 0.29464(16) 0.57192(11)
H6 H 0.03210 0.35830 0.60570
H7 H 0.07220 0.24720 0.59350
H8 H -0.02540 0.26040 0.57440
C9 C -0.09465(10) 0.34847(13) 0.38747(10)
C10 C -0.11810(13) 0.42593(16) 0.31798(13)
H9 H -0.14440 0.48660 0.33830
H10 H -0.15630 0.39320 0.27220
H11 H -0.06880 0.44850 0.29820
C11 C -0.16716(12) 0.31111(17) 0.42257(14)
H12 H -0.14800 0.26590 0.47060
H13 H -0.20450 0.27180 0.37990
H14 H -0.19610 0.37130 0.44000
C12 C 0.14921(10) 0.05615(12) 0.43519(9)
C13 C 0.20914(10) -0.00152(12) 0.49686(10)
C14 C 0.28373(10) -0.03521(12) 0.47878(10)
C15 C 0.34395(10) -0.07461(13) 0.54134(11)
H15 H 0.39460 -0.09810 0.52910
C16 C 0.32999(10) -0.07967(13) 0.62246(10)
C17 C 0.25556(10) -0.04982(13) 0.64173(10)
H16 H 0.24590 -0.05590 0.69680
C18 C 0.19506(10) -0.01060(12) 0.57795(10)
C19 C 0.29922(10) -0.01979(13) 0.39195(10)
H17 H 0.24660 -0.03080 0.35160
C20 C 0.33330(14) 0.10497(16) 0.30209(12)
H18 H 0.35170 0.17800 0.29820
H19 H 0.28000 0.09650 0.26370
C21 C 0.39605(12) 0.03052(18) 0.27762(12)
H20 H 0.39910 0.04070 0.21840
H21 H 0.45090 0.04440 0.31170
C22 C 0.37003(14) -0.07942(16) 0.29158(12)
H22 H 0.31880 -0.09570 0.25190
H23 H 0.41290 -0.12860 0.28110
C23 C 0.38748(12) -0.11061(17) 0.76571(11)
H24 H 0.37070 -0.04050 0.77950
H25 H 0.44040 -0.12770 0.80080
H26 H 0.34620 -0.16140 0.77540
C24 C 0.10508(11) 0.02462(16) 0.67157(11)
H27 H 0.14560 0.06970 0.70600
H28 H 0.10940 -0.04620 0.69450
H29 H 0.04990 0.05190 0.67100
C25 C 0.27333(10) 0.47497(12) 0.43299(9)
C26 C 0.33759(10) 0.44648(13) 0.49718(10)
C27 C 0.39188(10) 0.52108(14) 0.53768(10)
H30 H 0.43580 0.50070 0.58070
C28 C 0.3817(1) 0.62504(13) 0.51506(10)
C29 C 0.31717(10) 0.65588(13) 0.45182(10)
H31 H 0.31020 0.72730 0.43640
C30 C 0.26362(10) 0.58105(13) 0.41206(10)
C31 C 0.34866(10) 0.33510(13) 0.52745(10)
H32 H 0.32310 0.28610 0.48240
C32 C 0.44644(13) 0.20831(15) 0.57648(13)
H33 H 0.50600 0.19450 0.59240
H34 H 0.42340 0.16090 0.53020
C33 C 0.40557(12) 0.18838(14) 0.64975(12)
H35 H 0.43300 0.22960 0.69820
H36 H 0.41000 0.11350 0.66490
C34 C 0.31623(12) 0.21954(15) 0.62657(12)
H37 H 0.28730 0.17220 0.58290
H38 H 0.29000 0.21340 0.67580
C35 C 0.49697(13) 0.67813(17) 0.61550(12)
H39 H 0.53090 0.62450 0.59600
H40 H 0.47580 0.65140 0.66330
H41 H 0.53020 0.74060 0.63200
C36 C 0.18058(12) 0.71047(14) 0.33082(12)
H42 H 0.17210 0.74610 0.38140
H43 H 0.13060 0.71560 0.28820
H44 H 0.22620 0.74340 0.31040
#END
