
#######################################################################
#
#                 Cambridge Crystallographic Data Centre
#                                CCDC
#
#######################################################################
#
# If this CIF has been generated from an entry in the Cambridge
# Structural Database, then it will include bibliographic, chemical,
# crystal, experimental, refinement or atomic coordinate data resulting
# from the CCDC's data processing and validation procedures.
#
#######################################################################

data_CSD_CIF_EZUDUY
_audit_creation_date 2004-10-28
_audit_creation_method CSD-ConQuest-V1
_database_code_CSD EZUDUY
_database_code_depnum_ccdc_archive 'CCDC 243154'
_chemical_formula_sum 'C14 H26 N2 O3'
_chemical_formula_moiety
;
C14 H26 N2 O3
;
_journal_coden_Cambridge 4
_journal_volume 126
_journal_year 2004
_journal_page_first 6956
_journal_name_full 'J.Am.Chem.Soc. '
loop_
_publ_author_name
"Dan Yang"
"Yu-Hui Zhang"
"Bing Li"
"Dan-Wei Zhang"
"J.Chun-Yu Chan"
"Nian-Yong Zhu"
"Shi-Wei Luo"
"Yun-Dong Wu"
_chemical_name_systematic
;
1-Cyclohexyl-4,8,8-trimethyl-2,7-dioxo-1,6-diaza-5-oxanonane
;
_chemical_melting_point 439.15
_cell_volume    805.897
_exptl_crystal_colour 'colorless'
_exptl_crystal_density_diffrn 1.114
_exptl_special_details
;
Melting point range 439.15-440.15K

;
_exptl_crystal_description 'prism'
_diffrn_ambient_temperature 293
#These two values have been output from a single CSD field.
_refine_ls_R_factor_gt 0.0348
_refine_ls_wR_factor_gt 0.0348
_symmetry_cell_setting monoclinic
_symmetry_space_group_name_H-M 'P 21'
_symmetry_Int_Tables_number 4
loop_
_symmetry_equiv_pos_site_id
_symmetry_equiv_pos_as_xyz
1 x,y,z
2 -x,1/2+y,-z
_cell_length_a 11.469(2)
_cell_length_b 4.831(1)
_cell_length_c 14.575(3)
_cell_angle_alpha 90
_cell_angle_beta 93.67(3)
_cell_angle_gamma 90
_cell_formula_units_Z 2
loop_
_atom_type_symbol
_atom_type_radius_bond
C 0.68
H 0.23
N 0.68
O 0.68
loop_
_atom_site_label
_atom_site_type_symbol
_atom_site_fract_x
_atom_site_fract_y
_atom_site_fract_z
O1 O 0.2436(3) -0.0762(6) 0.36563(19)
O2 O 0.07986(18) 0.3117(5) 0.58468(13)
O3 O 0.0883(3) 0.6640(6) 0.72873(18)
N1 N 0.2799(3) 0.3556(8) 0.3205(2)
N2 N 0.0897(3) 0.2284(8) 0.6759(2)
C1 C 0.2265(3) 0.1747(9) 0.3710(2)
C2 C 0.1420(3) 0.2885(7) 0.43590(18)
H1 H 0.06460 0.21690 0.41930
H2 H 0.13910 0.48850 0.43010
C3 C 0.1764(3) 0.2127(8) 0.5347(2)
H3 H 0.18230 0.01100 0.54060
C4 C 0.2906(3) 0.3451(12) 0.5699(2)
H4 H 0.30950 0.28670 0.63210
H5 H 0.28270 0.54290 0.56810
H6 H 0.35170 0.28950 0.53190
C5 C 0.3676(3) 0.2844(8) 0.2562(2)
H7 H 0.36800 0.08240 0.25000
C6 C 0.4880(3) 0.3719(11) 0.2921(2)
H8 H 0.50730 0.28060 0.35040
H9 H 0.48860 0.57000 0.30290
C7 C 0.5799(3) 0.3002(13) 0.2250(2)
H10 H 0.65500 0.37320 0.24800
H11 H 0.58690 0.10060 0.22070
C8 C 0.5490(3) 0.4173(10) 0.1307(3)
H12 H 0.55270 0.61770 0.13330
H13 H 0.60550 0.35420 0.08850
C9 C 0.4290(3) 0.3299(12) 0.0956(2)
H14 H 0.42810 0.13140 0.08560
H15 H 0.40950 0.41930 0.03700
C10 C 0.3380(3) 0.4044(11) 0.1625(2)
H16 H 0.33270 0.60430 0.16730
H17 H 0.26230 0.33550 0.13930
C11 C 0.0843(3) 0.4139(10) 0.7429(2)
C12 C 0.0724(3) 0.2949(8) 0.8368(2)
H18 H 0.07920 0.09290 0.83400
C13 C -0.0460(3) 0.3711(16) 0.8685(3)
H19 H -0.10580 0.29770 0.82620
H20 H -0.05300 0.56900 0.87090
H21 H -0.05460 0.29520 0.92860
C14 C 0.1663(4) 0.4076(14) 0.9036(3)
H22 H 0.24160 0.35520 0.88420
H23 H 0.15630 0.33370 0.96370
H24 H 0.16080 0.60580 0.90550
H25 H 0.271(3) 0.500(8) 0.323(2)
H26 H 0.087(3) 0.064(9) 0.684(2)
#END
