
#######################################################################
#
#                 Cambridge Crystallographic Data Centre
#                                CCDC
#
#######################################################################
#
# If this CIF has been generated from an entry in the Cambridge
# Structural Database, then it will include bibliographic, chemical,
# crystal, experimental, refinement or atomic coordinate data resulting
# from the CCDC's data processing and validation procedures.
#
#######################################################################

data_CSD_CIF_EZUFOU
_audit_creation_date 2004-10-28
_audit_creation_method CSD-ConQuest-V1
_database_code_CSD EZUFOU
_database_code_depnum_ccdc_archive 'CCDC 243158'
_chemical_formula_sum 'C16 H24 N2 O4'
_chemical_formula_moiety
;
C16 H24 N2 O4
;
_journal_coden_Cambridge 4
_journal_volume 126
_journal_year 2004
_journal_page_first 6956
_journal_name_full 'J.Am.Chem.Soc. '
loop_
_publ_author_name
"Dan Yang"
"Yu-Hui Zhang"
"Bing Li"
"Dan-Wei Zhang"
"J.Chun-Yu Chan"
"Nian-Yong Zhu"
"Shi-Wei Luo"
"Yun-Dong Wu"
_chemical_name_systematic
;
Ethyl 4-isopropyl-6-oxo-7-(p-tolyl)-2,7-diaza-3-oxaheptanoate
;
_chemical_melting_point 369.15
_cell_volume   1718.163
_exptl_crystal_colour 'colorless'
_exptl_crystal_density_diffrn 1.192
_exptl_special_details
;
Melting point range 369.15-371.15K

;
_exptl_crystal_description 'prism'
_diffrn_ambient_temperature 301
_refine_special_details
;
One ethyl C atom is disordered equally over two sites.

;
#These two values have been output from a single CSD field.
_refine_ls_R_factor_gt 0.051
_refine_ls_wR_factor_gt 0.051
_symmetry_cell_setting orthorhombic
_symmetry_space_group_name_H-M 'P 21 21 21'
_symmetry_Int_Tables_number 19
loop_
_symmetry_equiv_pos_site_id
_symmetry_equiv_pos_as_xyz
1 x,y,z
2 1/2-x,-y,1/2+z
3 1/2+x,1/2-y,-z
4 -x,1/2+y,1/2-z
_cell_length_a 5.620(1)
_cell_length_b 13.030(2)
_cell_length_c 23.463(3)
_cell_angle_alpha 90
_cell_angle_beta 90
_cell_angle_gamma 90
_cell_formula_units_Z 4
loop_
_atom_type_symbol
_atom_type_radius_bond
C 0.68
H 0.23
N 0.68
O 0.68
loop_
_atom_site_label
_atom_site_type_symbol
_atom_site_fract_x
_atom_site_fract_y
_atom_site_fract_z
C1 C 0.4977(3) 0.57548(10) 0.25913(5)
H1 H 0.38380 0.59570 0.28870
C2 C 0.4189(3) 0.47269(11) 0.23391(6)
H2 H 0.38620 0.42520 0.26480
H3 H 0.27220 0.48270 0.21290
C3 C 0.6010(3) 0.42602(10) 0.19502(6)
C4 C 0.7641(3) 0.44069(9) 0.09705(5)
C5 C 0.7024(3) 0.47427(12) 0.04363(6)
H4 H 0.56560 0.51350 0.03870
C6 C 0.8412(3) 0.45034(14) -0.00237(6)
H5 H 0.79540 0.47330 -0.03830
C7 C 1.0464(3) 0.39343(12) 0.00263(6)
C8 C 1.1068(3) 0.36200(11) 0.05666(6)
H6 H 1.24520 0.32400 0.06160
C9 C 0.9700(3) 0.38471(10) 0.10372(6)
H7 H 1.01640 0.36240 0.13970
C10 C 1.1960(4) 0.36606(15) -0.04830(7)
H8 H 1.32870 0.32500 -0.03630
H9 H 1.25310 0.42770 -0.06610
H10 H 1.10150 0.32800 -0.07510
C11 C 0.7459(3) 0.57748(11) 0.28430(6)
H11 H 0.85960 0.56470 0.25340
C12 C 0.7806(5) 0.49547(14) 0.32901(7)
H12 H 0.74840 0.42940 0.31270
H13 H 0.67390 0.50750 0.36020
H14 H 0.94180 0.49740 0.34250
C13 C 0.8016(4) 0.68211(13) 0.30992(8)
H15 H 0.78220 0.73420 0.28130
H16 H 0.96270 0.68280 0.32350
H17 H 0.69520 0.69540 0.34110
C14 C 0.1930(3) 0.68439(11) 0.15224(6)
C15 C -0.1194(5) 0.74124(18) 0.09228(10)
H18 H -0.00780 0.73920 0.06080
H19 H -0.21100 0.67810 0.09170
C16 C -0.2732(9) 0.8250(4) 0.0853(2)
H20 H -0.35560 0.81880 0.04960
H21 H -0.18280 0.88750 0.08560
H22 H -0.38660 0.82610 0.11590
N1 N 0.6133(2) 0.46754(8) 0.14281(5)
H23 H 0.51620 0.51720 0.13630
N2 N 0.2708(3) 0.69179(10) 0.20643(5)
H24 H 0.18640 0.71800 0.23330
O1 O 0.2721(2) 0.62836(9) 0.11666(5)
O2 O 0.0095(2) 0.74789(9) 0.14495(5)
O3 O 0.49977(19) 0.65332(7) 0.21535(4)
O4 O 0.7274(2) 0.35451(8) 0.21049(4)
C17? C -0.080(2) 0.8241(5) 0.0568(3)
#END
