
#######################################################################
#
#                 Cambridge Crystallographic Data Centre
#                                CCDC
#
#######################################################################
#
# If this CIF has been generated from an entry in the Cambridge
# Structural Database, then it will include bibliographic, chemical,
# crystal, experimental, refinement or atomic coordinate data resulting
# from the CCDC's data processing and validation procedures.
#
#######################################################################

data_CSD_CIF_EZUJOZ
_audit_creation_date 2011-12-12
_audit_creation_method CSD-ConQuest-V1
_database_code_CSD EZUJOZ
_database_code_depnum_ccdc_archive 'CCDC 824305'
_chemical_formula_sum 'C18 H20 N2 O7'
_chemical_formula_moiety
;
C18 H20 N2 O7
;
_journal_coden_Cambridge 1336
_journal_volume 13
_journal_year 2011
_journal_page_first 4680
_journal_name_full 'Org.Lett. '
loop_
_publ_author_name
"Feng Shi"
"Shi-Wei Luo"
"Zhong-Lin Tao"
"Long He"
"Jie Yu"
"Shu-Jiang Tu"
"Liu-Zhu Gong"
_chemical_name_systematic
;
Diethyl 4-acetyl-5-(4-nitrophenyl)-1,5-dihydro-2H-pyrrole-2,2-dicarboxylate
;
_cell_volume   1872.127
_exptl_crystal_colour 'colorless'
_exptl_crystal_density_diffrn 1.335
_exptl_special_details
;
Absolute configuration

;
_exptl_crystal_description 'block'
_diffrn_ambient_temperature 291
#These two values have been output from a single CSD field.
_refine_ls_R_factor_gt 0.0395
_refine_ls_wR_factor_gt 0.0395
_symmetry_cell_setting orthorhombic
_symmetry_space_group_name_H-M 'P 21 21 21'
_symmetry_Int_Tables_number 19
loop_
_symmetry_equiv_pos_site_id
_symmetry_equiv_pos_as_xyz
1 x,y,z
2 1/2-x,-y,1/2+z
3 1/2+x,1/2-y,-z
4 -x,1/2+y,1/2-z
_cell_length_a 8.8570(1)
_cell_length_b 11.0040(1)
_cell_length_c 19.2087(2)
_cell_angle_alpha 90
_cell_angle_beta 90
_cell_angle_gamma 90
_cell_formula_units_Z 4
loop_
_atom_type_symbol
_atom_type_radius_bond
C 0.68
H 0.23
N 0.68
O 0.68
loop_
_atom_site_label
_atom_site_type_symbol
_atom_site_fract_x
_atom_site_fract_y
_atom_site_fract_z
O1 O 0.58170(15) 0.95111(16) 0.15190(6)
O2 O 1.08423(15) 1.01153(15) 0.14790(9)
O3 O 0.88798(18) 1.13694(14) 0.14854(12)
O4 O 0.7923(2) 0.77807(14) -0.10665(7)
O5 O 0.74998(19) 0.9139(2) 0.23460(8)
N1 N 0.90765(18) 0.81632(13) 0.10948(7)
C1 C 0.83752(18) 0.93567(14) 0.11656(8)
C2 C 0.77271(18) 0.96223(14) 0.04565(8)
H1 H 0.72090 1.03280 0.03400
C3 C 0.79964(18) 0.87125(13) 0.00213(8)
C4 C 0.6870(2) 0.62782(15) 0.08580(9)
H2 H 0.66080 0.68810 0.11750
C5 C 0.88554(18) 0.77008(14) 0.03795(8)
H3 H 0.98400 0.75990 0.01550
C6 C 0.6110(2) 0.51766(16) 0.08661(10)
H4 H 0.53320 0.50350 0.11810
O6 O 0.4736(3) 0.29838(19) 0.08335(15)
C7 C 0.80221(17) 0.64911(13) 0.03796(8)
C8 C 0.7186(2) 0.93289(17) 0.17533(8)
C9 C 0.7675(2) 0.44717(15) -0.00826(10)
H5 H 0.79370 0.38630 -0.03960
C10 C 0.95409(19) 1.03206(17) 0.13924(10)
C11 C 0.7575(2) 0.86587(15) -0.07258(8)
O7 O 0.6100(3) 0.23446(15) 0.00016(14)
C12 C 0.8416(2) 0.55816(16) -0.00822(9)
H6 H 0.91930 0.57160 -0.03990
C13 C 0.6538(2) 0.42992(14) 0.03955(10)
C14 C 0.6738(3) 0.9701(2) -0.10474(10)
H7 H 0.72690 1.04440 -0.09540
H8 H 0.57420 0.97470 -0.08520
H9 H 0.66680 0.95800 -0.15410
N2 N 0.5733(3) 0.31277(15) 0.04060(11)
C15 C 0.4590(2) 0.9577(3) 0.20265(12)
H10 H 0.48390 0.90860 0.24300
H11 H 0.36710 0.92570 0.18220
C16 C 0.4348(4) 1.0855(3) 0.22430(15)
H12 H 0.52030 1.11300 0.25070
H13 H 0.34550 1.09070 0.25240
H14 H 0.42310 1.13560 0.18380
C17 C 0.9804(4) 1.2357(2) 0.1776(2)
H15 H 1.04320 1.20470 0.21500
H16 H 1.04580 1.26870 0.14180
C18 C 0.8838(5) 1.3274(3) 0.2032(2)
H17 H 0.82600 1.36070 0.16540
H18 H 0.94300 1.39060 0.22420
H19 H 0.81670 1.29340 0.23720
H20 H 1.009(3) 0.827(2) 0.1186(12)
#END
