
#######################################################################
#
#                 Cambridge Crystallographic Data Centre
#                                CCDC
#
#######################################################################
#
# If this CIF has been generated from an entry in the Cambridge
# Structural Database, then it will include bibliographic, chemical,
# crystal, experimental, refinement or atomic coordinate data resulting
# from the CCDC's data processing and validation procedures.
#
#######################################################################

data_CSD_CIF_FABDOB
_audit_creation_date 1987-06-29
_audit_creation_method CSD-ConQuest-V1
_database_code_CSD FABDOB
_database_code_depnum_ccdc_archive 'CCDC 1151018'
_chemical_formula_sum 'C17 H21 N3 O6'
_chemical_formula_moiety
;
C17 H21 N3 O6
;
_journal_coeditor_code "IUCr A26089"
_journal_coden_Cambridge 591
_journal_volume 42
_journal_year 1986
_journal_page_first 1372
_journal_name_full 'Acta Crystallogr.,Sect.C:Cryst.Struct.Commun. '
loop_
_publ_author_name
"P.G.Jones"
"M.R.Edwards"
"A.J.Kirby"
_chemical_name_systematic
;
4a\a,5\b,8a\a-1-Methyldecahydroquinolin-5-yl 3,5-dinitrobenzoate
;
_chemical_melting_point 408
_cell_volume   3499.082
_exptl_crystal_colour 'yellow'
_exptl_crystal_density_diffrn 1.38
_exptl_special_details
;
Melting point range 408-418K

;
_diffrn_ambient_temperature ?
_diffrn_special_details
;
The study was carried out at room temperature,in the range 283-303K

;
#These two values have been output from a single CSD field.
_refine_ls_R_factor_gt 0.089
_refine_ls_wR_factor_gt 0.089
_symmetry_cell_setting orthorhombic
_symmetry_space_group_name_H-M 'P b c a'
_symmetry_Int_Tables_number 61
loop_
_symmetry_equiv_pos_site_id
_symmetry_equiv_pos_as_xyz
1 x,y,z
2 1/2-x,-y,1/2+z
3 1/2+x,1/2-y,-z
4 -x,1/2+y,1/2-z
5 -x,-y,-z
6 -1/2+x,y,-1/2-z
7 -1/2-x,-1/2+y,z
8 x,-1/2-y,-1/2+z
_cell_length_a 6.338(2)
_cell_length_b 25.355(8)
_cell_length_c 21.774(6)
_cell_angle_alpha 90
_cell_angle_beta 90
_cell_angle_gamma 90
_cell_formula_units_Z 8
loop_
_atom_type_symbol
_atom_type_radius_bond
C 0.68
H 0.23
N 0.68
O 0.68
loop_
_atom_site_label
_atom_site_type_symbol
_atom_site_fract_x
_atom_site_fract_y
_atom_site_fract_z
N1 N 0.2246(7) 0.1065(1) 0.0296(1)
C1 C 0.1555(11) 0.0517(2) 0.0225(2)
C2 C 0.0481(9) 0.1406(2) 0.0142(2)
C3 C 0.1113(10) 0.1982(2) 0.0158(2)
C4 C 0.2015(9) 0.2124(2) 0.0779(2)
C5 C 0.3752(8) 0.1747(1) 0.0957(2)
C6 C 0.4630(8) 0.1872(1) 0.1587(2)
C7 C 0.6316(9) 0.1497(2) 0.1797(2)
C8 C 0.5497(10) 0.0934(2) 0.1765(2)
C9 C 0.4746(9) 0.0804(2) 0.1125(2)
C10 C 0.3011(8) 0.1174(1) 0.0926(2)
C11 C 0.5650(8) 0.3312(1) 0.1715(2)
C12 C 0.4588(8) 0.3764(1) 0.1877(2)
C13 C 0.5408(8) 0.4249(2) 0.1721(2)
N2 N 0.4213(7) 0.4729(1) 0.1879(2)
O1 O 0.4949(7) 0.5149(1) 0.1723(2)
O2 O 0.2560(7) 0.4680(1) 0.2146(1)
C14 C 0.7279(8) 0.4295(1) 0.1417(2)
C15 C 0.8339(7) 0.3841(2) 0.1264(2)
N3 N 1.0342(7) 0.3878(1) 0.0927(2)
O3 O 1.1034(6) 0.4315(1) 0.0807(2)
O4 O 1.1190(6) 0.3471(1) 0.0774(2)
C16 C 0.7572(7) 0.3346(1) 0.1410(2)
C17 C 0.4629(9) 0.2787(2) 0.1863(2)
O5 O 0.5561(5) 0.2403(1) 0.1560(1)
O6 O 0.3122(7) 0.2751(1) 0.2187(1)
H1 H 0.27640 0.02950 0.02830
H2 H 0.09460 0.04480 -0.01710
H3 H 0.05320 0.04450 0.05390
H4 H -0.00090 0.13190 -0.02630
H5 H -0.06350 0.13490 0.04330
H6 H -0.01040 0.21970 0.00780
H7 H 0.21600 0.20460 -0.01520
H8 H 0.09120 0.21080 0.10800
H9 H 0.25740 0.24760 0.07630
H10 H 0.48670 0.17920 0.06640
H11 H 0.34860 0.18440 0.18740
H12 H 0.75280 0.15310 0.15360
H13 H 0.67050 0.15790 0.22120
H14 H 0.43430 0.08960 0.20470
H15 H 0.66100 0.06960 0.18770
H16 H 0.42220 0.04490 0.11180
H17 H 0.59090 0.08350 0.08450
H18 H 0.18660 0.11170 0.12070
H19 H 0.32810 0.37420 0.20980
H20 H 0.78390 0.46350 0.13120
H21 H 0.83470 0.30340 0.13030
#END
