
#######################################################################
#
#                 Cambridge Crystallographic Data Centre
#                                CCDC
#
#######################################################################
#
# If this CIF has been generated from an entry in the Cambridge
# Structural Database, then it will include bibliographic, chemical,
# crystal, experimental, refinement or atomic coordinate data resulting
# from the CCDC's data processing and validation procedures.
#
#######################################################################

data_CSD_CIF_FABJAW
_audit_creation_date 2016-01-07
_audit_creation_method CSD-ConQuest-V1
_database_code_CSD FABJAW
_database_code_depnum_ccdc_archive 'CCDC 632678'
_chemical_formula_sum 'C15 H13 N3 O2'
_chemical_formula_moiety
;
C15 H13 N3 O2
;
_journal_coden_Cambridge 1784
_journal_volume 2
_journal_year 2013
_journal_page_first 120
_journal_name_full 'Cryst.Struct.Theory Appl. '
loop_
_publ_author_name
"Wanqiang Zhang"
_chemical_name_systematic
;
3-Amino-5,6-dimethyl-2-nitrobiphenyl-4-carbonitrile
;
_chemical_melting_point 425
_cell_volume    691.789
_exptl_crystal_colour 'yellow'
_exptl_crystal_density_diffrn 1.283
_exptl_crystal_description 'needle'
_diffrn_ambient_temperature 296
#These two values have been output from a single CSD field.
_refine_ls_R_factor_gt 0.0681
_refine_ls_wR_factor_gt 0.0681
_symmetry_cell_setting triclinic
_symmetry_space_group_name_H-M 'P -1'
_symmetry_Int_Tables_number 2
loop_
_symmetry_equiv_pos_site_id
_symmetry_equiv_pos_as_xyz
1 x,y,z
2 -x,-y,-z
_cell_length_a 8.607(3)
_cell_length_b 8.616(3)
_cell_length_c 10.540(3)
_cell_angle_alpha 69.067(5)
_cell_angle_beta 72.279(6)
_cell_angle_gamma 78.507(6)
_cell_formula_units_Z 2
loop_
_atom_type_symbol
_atom_type_radius_bond
C 0.68
H 0.23
N 0.68
O 0.68
loop_
_atom_site_label
_atom_site_type_symbol
_atom_site_fract_x
_atom_site_fract_y
_atom_site_fract_z
N1 N 0.4390(5) 0.0842(4) 1.1272(4)
N2 N 0.4277(5) 0.2887(4) 0.7833(4)
H1 H 0.46190 0.19160 0.83240
H2 H 0.43890 0.31030 0.69500
O1 O 0.4259(7) 0.6755(7) 0.5382(4)
O2 O 0.2214(6) 0.5584(6) 0.5850(4)
C1 C 0.2787(6) 0.9820(5) 0.6631(5)
H3 H 0.38890 0.95880 0.66330
C2 C 0.2214(7) 1.1373(5) 0.5847(5)
H4 H 0.29400 1.21790 0.53270
C3 C 0.0615(7) 1.1743(5) 0.5825(5)
H5 H 0.02470 1.27960 0.52980
C4 C -0.0445(6) 1.0566(6) 0.6574(5)
H6 H -0.15420 1.08050 0.65580
C5 C 0.0118(5) 0.9008(5) 0.7362(4)
H7 H -0.06140 0.82070 0.78740
C6 C 0.1727(5) 0.8620(4) 0.7405(4)
C7 C 0.2295(4) 0.6939(4) 0.8296(3)
C8 C 0.2992(4) 0.5691(4) 0.7700(3)
C9 C 0.3561(5) 0.4078(4) 0.8452(4)
C10 C 0.3349(4) 0.3790(4) 0.9886(3)
C11 C 0.2630(5) 0.5012(4) 1.0531(4)
C12 C 0.2099(5) 0.6605(4) 0.9735(4)
C13 C 0.1331(7) 0.7935(5) 1.0424(4)
H8 H 0.02710 0.76550 1.10300
H9 H 0.12160 0.89930 0.97140
H10 H 0.20180 0.80040 1.09650
C14 C 0.2440(6) 0.4593(5) 1.2074(4)
H11 H 0.30040 0.35120 1.24200
H12 H 0.12970 0.45830 1.25560
H13 H 0.28960 0.54160 1.22340
C15 C 0.3932(5) 0.2146(5) 1.0686(4)
N3 N 0.3172(6) 0.6046(4) 0.6209(4)
#END
