
#######################################################################
#
#                 Cambridge Crystallographic Data Centre
#                                CCDC
#
#######################################################################
#
# If this CIF has been generated from an entry in the Cambridge
# Structural Database, then it will include bibliographic, chemical,
# crystal, experimental, refinement or atomic coordinate data resulting
# from the CCDC's data processing and validation procedures.
#
#######################################################################

data_CSD_CIF_FABRAD
_audit_creation_date 2011-02-15
_audit_creation_method CSD-ConQuest-V1
_database_code_CSD FABRAD
_database_code_depnum_ccdc_archive 'CCDC 794538'
_database_code_depnum_ccdc_journal 1267/3123
_chemical_formula_sum 'C10 H12 N2 O3'
_chemical_formula_moiety
;
C10 H12 N2 O3
;
_journal_coden_Cambridge 1267
_journal_volume 225
_journal_year 2010
_journal_page_first 565
_journal_name_full 'Z.Kristallogr.-New Cryst.Struct. '
loop_
_publ_author_name
"Lina Lin"
"Weiyu Wu"
"Jian Zhou"
"Banfeng Ruan"
_chemical_name_systematic
;
(E)-2-((isopropylimino)methyl)-4-nitrophenol
;
_cell_volume   1013.974
_exptl_crystal_colour 'yellow'
_exptl_crystal_density_diffrn 1.364
_exptl_crystal_description 'block'
_diffrn_ambient_temperature 298
#These two values have been output from a single CSD field.
_refine_ls_R_factor_gt 0.0576
_refine_ls_wR_factor_gt 0.0576
_symmetry_cell_setting monoclinic
_symmetry_space_group_name_H-M 'P 21/c'
_symmetry_Int_Tables_number 14
loop_
_symmetry_equiv_pos_site_id
_symmetry_equiv_pos_as_xyz
1 x,y,z
2 -x,1/2+y,1/2-z
3 -x,-y,-z
4 x,-1/2-y,-1/2+z
_cell_length_a 11.113(3)
_cell_length_b 5.7871(16)
_cell_length_c 16.225(5)
_cell_angle_alpha 90
_cell_angle_beta 103.654(5)
_cell_angle_gamma 90
_cell_formula_units_Z 4
loop_
_atom_type_symbol
_atom_type_radius_bond
C 0.68
H 0.23
N 0.68
O 0.68
loop_
_atom_site_label
_atom_site_type_symbol
_atom_site_fract_x
_atom_site_fract_y
_atom_site_fract_z
N1 N 0.82575(17) 0.7470(3) 0.42935(10)
N2 N 0.46746(18) 0.9122(4) 0.65207(12)
O1 O 0.89171(15) 1.0869(3) 0.54128(10)
H1 H 0.88760 1.02220 0.49570
O2 O 0.40299(18) 0.7449(4) 0.62405(12)
O3 O 0.43921(17) 1.0457(4) 0.70292(12)
C1 C 0.7132(2) 0.8569(4) 0.53266(12)
C2 C 0.79440(19) 1.0494(4) 0.56533(12)
C3 C 0.7550(2) 1.1932(4) 0.62571(13)
H2 H 0.80210 1.32260 0.64650
C4 C 0.6518(2) 1.1486(4) 0.65391(13)
H3 H 0.62960 1.24580 0.69350
C5 C 0.57831(19) 0.9549(4) 0.62314(12)
C6 C 0.6082(2) 0.8145(4) 0.56334(13)
H4 H 0.55780 0.68890 0.54280
C7 C 0.7343(2) 0.7209(4) 0.46463(13)
H5 H 0.67780 0.60400 0.44400
C8 C 0.8364(2) 0.6198(4) 0.35245(13)
H6 H 0.75680 0.54470 0.32820
C9 C 0.8621(2) 0.7907(5) 0.28865(14)
H7 H 0.79720 0.90410 0.27670
H8 H 0.86540 0.71110 0.23730
H9 H 0.93990 0.86580 0.31130
C10 C 0.9345(3) 0.4340(4) 0.37605(17)
H10 H 1.01290 0.50430 0.40110
H11 H 0.94060 0.35060 0.32610
H12 H 0.91240 0.32950 0.41600
#END
