
#######################################################################
#
#                 Cambridge Crystallographic Data Centre
#                                CCDC
#
#######################################################################
#
# If this CIF has been generated from an entry in the Cambridge
# Structural Database, then it will include bibliographic, chemical,
# crystal, experimental, refinement or atomic coordinate data resulting
# from the CCDC's data processing and validation procedures.
#
#######################################################################

data_CSD_CIF_FACPUU
_audit_creation_date 1987-06-30
_audit_creation_method CSD-ConQuest-V1
_database_code_CSD FACPUU
_chemical_formula_sum 'C14 H20 N2 O10'
_chemical_formula_moiety
;
C14 H20 N2 O10
;
_journal_coden_Cambridge 10
_journal_volume 69
_journal_year 1986
_journal_page_first 1172
_journal_name_full 'Helv.Chim.Acta '
loop_
_publ_author_name
"D.Beer"
"J.H.Bieri"
"I.Macher"
"R.Prewo"
"A.Vasella"
_chemical_name_systematic
;
3,4,6-Tri-O-acetyl-2-acetylamino-1,2-dideoxy-1-nitro-\b-D-glucopyranose
;
_chemical_melting_point 383.15
_cell_volume    876.326
_exptl_crystal_density_diffrn 1.43
_diffrn_ambient_temperature 130
#These two values have been output from a single CSD field.
_refine_ls_R_factor_gt 0.045
_refine_ls_wR_factor_gt 0.045
_symmetry_cell_setting monoclinic
_symmetry_space_group_name_H-M 'P 21'
_symmetry_Int_Tables_number 4
loop_
_symmetry_equiv_pos_site_id
_symmetry_equiv_pos_as_xyz
1 x,y,z
2 -x,1/2+y,-z
_cell_length_a 8.381(2)
_cell_length_b 9.495(2)
_cell_length_c 11.575(3)
_cell_angle_alpha 90
_cell_angle_beta 107.94(2)
_cell_angle_gamma 90
_cell_formula_units_Z 2
loop_
_atom_type_symbol
_atom_type_radius_bond
C 0.68
H 0.23
N 0.68
O 0.68
loop_
_atom_site_label
_atom_site_type_symbol
_atom_site_fract_x
_atom_site_fract_y
_atom_site_fract_z
C1 C 0.5996(2) 0.1424(2) 0.2671(2)
N1 N 0.7341(2) 0.2488(3) 0.2616(2)
O1 O 0.7009(2) 0.3743(2) 0.2635(1)
O2 O 0.8698(2) 0.2025(3) 0.2608(2)
C2 C 0.4299(2) 0.1809(2) 0.1762(2)
N2 N 0.4471(2) 0.2249(2) 0.0605(1)
C3 C 0.3338(2) 0.2901(2) 0.2245(2)
O3 O 0.1616(2) 0.2828(2) 0.1493(1)
C4 C 0.3396(2) 0.2555(2) 0.3550(2)
O4 O 0.2552(2) 0.3701(2) 0.3925(1)
C5 C 0.5238(2) 0.2461(2) 0.4337(2)
O5 O 0.6014(2) 0.1324(2) 0.3876(1)
C6 C 0.5505(3) 0.2098(3) 0.5659(2)
O6 O 0.7278(2) 0.2027(2) 0.6280(1)
C7 C 0.4727(2) 0.1291(2) -0.0184(2)
O7 O 0.4867(2) 0.0030(2) 0.0077(2)
C8 C 0.4799(3) 0.1854(3) -0.1387(2)
C9 C 0.0887(3) 0.4034(3) 0.0968(2)
O8 O 0.1610(2) 0.5127(2) 0.1039(2)
C10 C -0.0943(3) 0.3800(4) 0.0298(2)
C11 C 0.1632(3) 0.3383(2) 0.4681(2)
O9 O 0.1728(2) 0.2270(2) 0.5188(2)
C12 C 0.0562(3) 0.4605(3) 0.4786(2)
C13 C 0.8008(3) 0.3130(3) 0.6976(2)
O10 O 0.7242(2) 0.4157(2) 0.7101(2)
C14 C 0.9844(3) 0.2874(3) 0.7571(2)
H1 H 0.6356(25) 0.0577(24) 0.2447(18)
H2 H 0.3601(28) 0.0931(27) 0.1656(20)
H3 H 0.4497(28) 0.3160(28) 0.0441(20)
H4 H 0.3703(22) 0.3802(22) 0.2219(16)
H5 H 0.2761(27) 0.1671(25) 0.3636(18)
H6 H 0.5779(27) 0.3351(26) 0.4307(19)
H7 H 0.4990(26) 0.2769(24) 0.6021(19)
H8 H 0.5042(33) 0.1205(32) 0.5745(22)
H9 H 0.4875(35) 0.2954(33) -0.1361(25)
H10 H 0.5651(39) 0.1424(36) -0.1578(27)
H11 H 0.3840(42) 0.1579(40) -0.1984(29)
H12 H -0.1331(36) 0.4436(36) -0.0398(24)
H13 H -0.1234(38) 0.2778(36) 0.0067(27)
H14 H -0.1561(43) 0.4157(49) 0.0808(29)
H15 H 0.0170(62) 0.4481(67) 0.5460(37)
H16 H -0.0088(39) 0.4801(36) 0.4081(26)
H17 H 0.1079(40) 0.5436(37) 0.4845(27)
H18 H 1.0457(38) 0.3773(40) 0.7902(26)
H19 H 1.0383(32) 0.2533(32) 0.6999(23)
H20 H 0.9894(35) 0.2183(38) 0.8168(25)
#END
