
#######################################################################
#
#                 Cambridge Crystallographic Data Centre
#                                CCDC
#
#######################################################################
#
# If this CIF has been generated from an entry in the Cambridge
# Structural Database, then it will include bibliographic, chemical,
# crystal, experimental, refinement or atomic coordinate data resulting
# from the CCDC's data processing and validation procedures.
#
#######################################################################

data_CSD_CIF_FACRAC
_audit_creation_date 1987-06-30
_audit_creation_method CSD-ConQuest-V1
_database_code_CSD FACRAC
_chemical_formula_sum 'C14 H19 N1 O11'
_chemical_formula_moiety
;
C14 H19 N1 O11
;
_journal_coden_Cambridge 10
_journal_volume 69
_journal_year 1986
_journal_page_first 1172
_journal_name_full 'Helv.Chim.Acta '
loop_
_publ_author_name
"D.Beer"
"J.H.Bieri"
"I.Macher"
"R.Prewo"
"A.Vasella"
_chemical_name_systematic
;
2,3,5,6-tetra-O-Acetyl-1-deoxy-1-nitro-\b-D-galactofuranose glucopyranose
;
_chemical_melting_point 386.15
_cell_volume   1770.157
_exptl_crystal_density_diffrn 1.42
_exptl_special_details
;
Melting point range 386.15-389.15K

;
_diffrn_ambient_temperature 130
#These two values have been output from a single CSD field.
_refine_ls_R_factor_gt 0.045
_refine_ls_wR_factor_gt 0.045
_symmetry_cell_setting orthorhombic
_symmetry_space_group_name_H-M 'P 21 21 21'
_symmetry_Int_Tables_number 19
loop_
_symmetry_equiv_pos_site_id
_symmetry_equiv_pos_as_xyz
1 x,y,z
2 1/2+x,1/2-y,-z
3 -x,1/2+y,1/2-z
4 1/2-x,-y,1/2+z
_cell_length_a 9.278(1)
_cell_length_b 12.538(1)
_cell_length_c 15.217(2)
_cell_angle_alpha 90
_cell_angle_beta 90
_cell_angle_gamma 90
_cell_formula_units_Z 4
loop_
_atom_type_symbol
_atom_type_radius_bond
C 0.68
H 0.23
N 0.68
O 0.68
loop_
_atom_site_label
_atom_site_type_symbol
_atom_site_fract_x
_atom_site_fract_y
_atom_site_fract_z
C1 C 0.4109(1) 0.6053(1) 0.3776(1)
N1 N 0.2730(1) 0.6584(1) 0.4158(1)
O1 O 0.2718(1) 0.7556(1) 0.4190(1)
O2 O 0.1759(1) 0.6017(1) 0.4411(1)
C2 C 0.5303(1) 0.6130(1) 0.4468(1)
O3 O 0.6685(1) 0.6070(1) 0.4057(1)
C3 C 0.5124(1) 0.5091(1) 0.4987(1)
O4 O 0.4373(1) 0.5363(1) 0.5789(1)
C4 C 0.4145(1) 0.4378(1) 0.4417(1)
O5 O 0.3856(1) 0.4990(1) 0.3623(1)
C5 C 0.4766(1) 0.3312(1) 0.4143(1)
O6 O 0.6085(1) 0.3537(1) 0.3675(1)
C6 C 0.3698(2) 0.2735(1) 0.3550(1)
O7 O 0.4193(1) 0.1685(1) 0.3302(1)
C7 C 0.7202(1) 0.7008(1) 0.3735(1)
O8 O 0.6486(1) 0.7803(1) 0.3700(1)
C8 C 0.8732(1) 0.6891(1) 0.3442(1)
C9 C 0.4599(1) 0.4698(1) 0.6473(1)
O9 O 0.5454(1) 0.3975(1) 0.6447(1)
C10 C 0.3632(2) 0.4968(1) 0.7226(1)
C11 C 0.7194(1) 0.2850(1) 0.3763(1)
O10 O 0.7133(1) 0.2015(1) 0.4160(1)
C12 C 0.8495(2) 0.3275(1) 0.3295(1)
C13 C 0.4028(1) 0.0920(1) 0.3924(1)
O11 O 0.3513(1) 0.1092(1) 0.4635(1)
C14 C 0.4581(2) -0.0135(1) 0.3615(1)
H1 H 0.4306(18) 0.6427(13) 0.3236(11)
H2 H 0.5225(19) 0.6806(12) 0.4844(11)
H3 H 0.5981(19) 0.4634(13) 0.5113(11)
H4 H 0.3300(19) 0.4242(13) 0.4710(11)
H5 H 0.4955(22) 0.2956(14) 0.4655(12)
H6 H 0.2823(19) 0.2703(14) 0.3800(11)
H7 H 0.3652(22) 0.3139(14) 0.2943(14)
H8 H 0.8785(23) 0.6596(18) 0.2866(15)
H9 H 0.9152(24) 0.6472(16) 0.3814(15)
H10 H 0.9178(25) 0.7557(19) 0.3494(14)
H11 H 0.3098(30) 0.5669(22) 0.7219(19)
H12 H 0.4145(31) 0.4886(20) 0.7798(16)
H13 H 0.2706(30) 0.4532(21) 0.7128(17)
H14 H 0.8325(37) 0.3437(25) 0.2692(22)
H15 H 0.9211(29) 0.291(2) 0.3265(19)
H16 H 0.8672(30) 0.3972(19) 0.3604(19)
H17 H 0.4019(33) -0.0551(21) 0.384(2)
H18 H 0.4602(30) -0.0225(21) 0.3007(17)
H19 H 0.5594(55) 0.0085(31) 0.3642(29)
#END
