
#######################################################################
#
#                 Cambridge Crystallographic Data Centre
#                                CCDC
#
#######################################################################
#
# If this CIF has been generated from an entry in the Cambridge
# Structural Database, then it will include bibliographic, chemical,
# crystal, experimental, refinement or atomic coordinate data resulting
# from the CCDC's data processing and validation procedures.
#
#######################################################################

data_CSD_CIF_FACSEH
_audit_creation_date 1999-07-19
_audit_creation_method CSD-ConQuest-V1
_database_code_CSD FACSEH
_database_code_depnum_ccdc_journal 207/177
_chemical_formula_sum 'C26 H31 N1 O7'
_chemical_formula_moiety
;
C26 H31 N1 O7
;
_journal_coden_Cambridge 207
_journal_year 1998
_journal_page_first 677
_journal_name_full 'J.Chem.Soc.,Perkin Trans.1 '
loop_
_publ_author_name
"M.A.Brimble"
"F.A.Fares"
"P.Turner"
_chemical_name_systematic
;
(2S*,5S*,6S*)-3-(5-Benzyloxy-1,7-dioxaspiro(5.5)undec-2-yl)propyl 
p-nitrobenzoate
;
_chemical_melting_point 348.15
_cell_volume   2443.694
_exptl_crystal_colour 'colorless'
_exptl_crystal_density_diffrn 1.276
_exptl_special_details
;
Melting point range 348.15-349.15K

;
_exptl_crystal_description 'blade'
_diffrn_ambient_temperature ?
_diffrn_special_details
;
The study was carried out at room temperature,in the range 283-303K

;
#These two values have been output from a single CSD field.
_refine_ls_R_factor_gt 0.051
_refine_ls_wR_factor_gt 0.051
_symmetry_cell_setting monoclinic
_symmetry_space_group_name_H-M 'P 21/a'
_symmetry_Int_Tables_number 14
loop_
_symmetry_equiv_pos_site_id
_symmetry_equiv_pos_as_xyz
1 x,y,z
2 1/2-x,1/2+y,-z
3 -x,-y,-z
4 -1/2+x,-1/2-y,z
_cell_length_a 11.352(4)
_cell_length_b 11.775(2)
_cell_length_c 18.602(2)
_cell_angle_alpha 90
_cell_angle_beta 100.65(2)
_cell_angle_gamma 90
_cell_formula_units_Z 4
loop_
_atom_type_symbol
_atom_type_radius_bond
C 0.68
H 0.23
N 0.68
O 0.68
loop_
_atom_site_label
_atom_site_type_symbol
_atom_site_fract_x
_atom_site_fract_y
_atom_site_fract_z
O1 O 0.4196(4) 0.5972(3) 0.7023(2)
O2 O 0.4032(5) 0.2890(4) 0.8970(3)
O3 O 0.2116(6) 0.2574(5) 0.9000(4)
O4 O 0.3516(7) -0.3111(5) 0.9386(4)
O5 O 0.5341(6) -0.2729(5) 0.9317(3)
O6 O 0.4512(4) 0.6787(4) 0.5164(3)
O7 O 0.4672(4) 0.7697(4) 0.6653(2)
N1 N 0.4300(8) -0.2463(6) 0.9320(3)
C1 C 0.4030(6) 0.4775(5) 0.6932(4)
C2 C 0.3228(7) 0.4544(6) 0.6206(4)
C3 C 0.3734(7) 0.5096(6) 0.5589(4)
C4 C 0.3963(6) 0.6346(6) 0.5746(4)
C5 C 0.4765(6) 0.6529(6) 0.6488(4)
C6 C 0.5361(9) 0.7999(6) 0.7356(5)
C7 C 0.6648(9) 0.7717(8) 0.7453(5)
C8 C 0.6790(7) 0.6459(8) 0.7277(5)
C9 C 0.6057(7) 0.6187(6) 0.6538(4)
C10 C 0.3514(6) 0.4365(5) 0.7581(4)
C11 C 0.4337(7) 0.4605(5) 0.8310(4)
C12 C 0.3880(8) 0.4151(6) 0.8959(4)
C13 C 0.3107(8) 0.2250(6) 0.9011(4)
C14 C 0.3461(7) 0.1017(6) 0.9082(3)
C15 C 0.2629(6) 0.0260(7) 0.9250(4)
C16 C 0.2906(7) -0.0880(6) 0.9325(4)
C17 C 0.4008(7) -0.1222(6) 0.9234(3)
C18 C 0.4855(6) -0.0492(7) 0.9069(4)
C19 C 0.4572(7) 0.0649(6) 0.8993(4)
C20 C 0.4287(9) 0.7911(8) 0.4989(5)
C21 C 0.4772(9) 0.8191(8) 0.4301(5)
C22 C 0.5666(9) 0.8912(10) 0.4342(5)
C23 C 0.6107(9) 0.9235(9) 0.3734(7)
C24 C 0.562(1) 0.8814(9) 0.3086(6)
C25 C 0.471(1) 0.8078(9) 0.3003(5)
C26 C 0.4277(8) 0.7750(6) 0.3640(7)
H1 H 0.48010 0.44160 0.69400
H2 H 0.31700 0.37300 0.61260
H3 H 0.24370 0.48510 0.62120
H4 H 0.31650 0.50120 0.51340
H5 H 0.44810 0.47270 0.55440
H6 H 0.32040 0.67290 0.57390
H7 H 0.52880 0.88110 0.74210
H8 H 0.50280 0.76000 0.77290
H9 H 0.70210 0.81790 0.71250
H10 H 0.70310 0.78650 0.79540
H11 H 0.65180 0.59960 0.76450
H12 H 0.76270 0.62970 0.72750
H13 H 0.63880 0.65910 0.61670
H14 H 0.60950 0.53760 0.64530
H15 H 0.27550 0.47460 0.75770
H16 H 0.33820 0.35520 0.75360
H17 H 0.51100 0.42610 0.83010
H18 H 0.44300 0.54200 0.83660
H19 H 0.30390 0.43400 0.89190
H20 H 0.43330 0.44760 0.94040
H21 H 0.18480 0.05280 0.93160
H22 H 0.23260 -0.14230 0.94390
H23 H 0.56350 -0.07680 0.90050
H24 H 0.51570 0.11870 0.88780
H25 H 0.34300 0.80470 0.49030
H26 H 0.46780 0.83860 0.53880
H27 H 0.60250 0.92230 0.48150
H28 H 0.67680 0.97680 0.37780
H29 H 0.59360 0.90480 0.26590
H30 H 0.43640 0.77780 0.25250
H31 H 0.36240 0.72090 0.36030
#END
