
#######################################################################
#
#                 Cambridge Crystallographic Data Centre
#                                CCDC
#
#######################################################################
#
# If this CIF has been generated from an entry in the Cambridge
# Structural Database, then it will include bibliographic, chemical,
# crystal, experimental, refinement or atomic coordinate data resulting
# from the CCDC's data processing and validation procedures.
#
#######################################################################

data_CSD_CIF_FACYOA
_audit_creation_date 2016-01-08
_audit_creation_method CSD-ConQuest-V1
_database_code_CSD FACYOA
_database_code_depnum_ccdc_archive 'CCDC 1446233'
_chemical_formula_sum 'C27 H26 N4 O6'
_chemical_formula_moiety
;
C27 H26 N4 O6
;
_journal_coden_Cambridge 4
_journal_volume 137
_journal_year 2015
_journal_page_first 15518
_journal_name_full 'J.Am.Chem.Soc. '
loop_
_publ_author_name
"Fanyang Mo"
"Hee Nam Lim"
"Guangbin Dong"
_chemical_name_systematic
;
1-(2-(1,2-bis(4-methoxyphenyl)ethylidene)cyclopentylidene)-2-(2,4-dinitropheny
l)hydrazine
;
_cell_volume   1242.030
_exptl_crystal_colour 'orange'
_exptl_crystal_density_diffrn 1.344
_exptl_crystal_description 'prisms'
_diffrn_ambient_temperature 153
#These two values have been output from a single CSD field.
_refine_ls_R_factor_gt 0.0425
_refine_ls_wR_factor_gt 0.0425
_symmetry_cell_setting triclinic
_symmetry_space_group_name_H-M 'P -1'
_symmetry_Int_Tables_number 2
loop_
_symmetry_equiv_pos_site_id
_symmetry_equiv_pos_as_xyz
1 x,y,z
2 -x,-y,-z
_cell_length_a 8.886(2)
_cell_length_b 11.910(3)
_cell_length_c 12.360(3)
_cell_angle_alpha 87.837(6)
_cell_angle_beta 72.486(6)
_cell_angle_gamma 84.691(6)
_cell_formula_units_Z 2
loop_
_atom_type_symbol
_atom_type_radius_bond
C 0.68
H 0.23
N 0.68
O 0.68
loop_
_atom_site_label
_atom_site_type_symbol
_atom_site_fract_x
_atom_site_fract_y
_atom_site_fract_z
C1 C 0.58062(15) 0.54152(10) 0.82784(10)
C2 C 0.45156(15) 0.47244(11) 0.86177(10)
C3 C 0.30380(15) 0.51257(12) 0.93167(11)
H1 H 0.21870 0.46550 0.95270
C4 C 0.28286(15) 0.62186(12) 0.96995(11)
C5 C 0.40647(15) 0.69323(11) 0.94043(11)
H2 H 0.38960 0.76800 0.96850
C6 C 0.55203(15) 0.65393(11) 0.87055(10)
H3 H 0.63550 0.70240 0.85010
C7 C 0.98083(15) 0.53241(10) 0.67093(10)
C8 C 1.02924(17) 0.40820(11) 0.64346(12)
H4 H 0.96970 0.38030 0.59540
H5 H 1.01040 0.36180 0.71370
C9 C 1.20712(17) 0.40483(12) 0.57925(13)
H6 H 1.26440 0.33600 0.59980
H7 H 1.22470 0.40590 0.49620
C10 C 1.26379(16) 0.51097(11) 0.61609(12)
H8 H 1.29160 0.49720 0.68750
H9 H 1.35700 0.53630 0.55660
C11 C 1.12160(14) 0.5972(1) 0.63301(10)
C12 C 1.12508(14) 0.70865(10) 0.60766(10)
C13 C 0.97937(14) 0.78605(10) 0.60971(10)
H10 H 0.89860 0.74050 0.59720
H11 H 1.00780 0.84060 0.54580
C14 C 0.90627(14) 0.8516(1) 0.71956(10)
C15 C 0.92963(16) 0.81654(11) 0.82221(11)
H12 H 0.99780 0.75070 0.82420
C16 C 0.85540(17) 0.87560(11) 0.92299(11)
H13 H 0.87340 0.85030 0.99220
C17 C 0.75503(15) 0.97180(11) 0.92021(11)
C18 C 0.73054(16) 1.00896(11) 0.81785(12)
H14 H 0.66280 1.07510 0.81580
C19 C 0.80497(15) 0.94939(11) 0.71935(11)
H15 H 0.78720 0.97520 0.65020
C20 C 0.7040(2) 1.00350(14) 1.11842(12)
H16 H 0.67510 0.92640 1.13890
H17 H 0.64070 1.05510 1.17820
H18 H 0.81670 1.00710 1.10990
C21 C 1.27912(14) 0.76031(10) 0.57317(10)
C22 C 1.33306(14) 0.81516(10) 0.46828(10)
H19 H 1.26730 0.82290 0.42000
C23 C 1.48032(15) 0.85876(10) 0.43264(11)
H20 H 1.51520 0.89430 0.36040
C24 C 1.57648(14) 0.84967(10) 0.50423(10)
C25 C 1.52282(15) 0.79836(11) 0.61107(11)
H21 H 1.58620 0.79440 0.66100
C26 C 1.37761(15) 0.75342(11) 0.64396(10)
H22 H 1.34360 0.71710 0.71590
C27 C 1.79197(17) 0.92780(13) 0.36451(12)
H23 H 1.79140 0.87080 0.30950
H24 H 1.90110 0.94510 0.35430
H25 H 1.72900 0.99650 0.35260
N1 N 0.84292(12) 0.57816(9) 0.72617(9)
N2 N 0.72548(13) 0.5044(1) 0.75896(9)
N3 N 0.46811(14) 0.35521(10) 0.82678(10)
N4 N 0.12858(14) 0.66298(12) 1.04586(11)
O1 O 0.60190(13) 0.31107(8) 0.77617(9)
O2 O 0.35000(14) 0.30338(10) 0.84944(12)
O3 O 0.02341(13) 0.59791(13) 1.07317(12)
O4 O 0.11164(14) 0.75910(11) 1.08202(11)
O5 O 0.67397(13) 1.03539(8) 1.01395(8)
O6 O 1.72542(10) 0.88545(8) 0.47710(8)
H26 H 0.739(2) 0.4305(16) 0.7372(15)
#END
