
#######################################################################
#
#                 Cambridge Crystallographic Data Centre
#                                CCDC
#
#######################################################################
#
# If this CIF has been generated from an entry in the Cambridge
# Structural Database, then it will include bibliographic, chemical,
# crystal, experimental, refinement or atomic coordinate data resulting
# from the CCDC's data processing and validation procedures.
#
#######################################################################

data_CSD_CIF_FADGOG
_audit_creation_date 1987-06-30
_audit_creation_method CSD-ConQuest-V1
_database_code_CSD FADGOG
_database_code_depnum_ccdc_archive 'CCDC 1151441'
_chemical_formula_sum 'C16 H14 N2 O7'
_chemical_formula_moiety
;
C16 H14 N2 O7
;
_journal_coeditor_code "IUCr A26083"
_journal_coden_Cambridge 591
_journal_volume 42
_journal_year 1986
_journal_page_first 1355
_journal_name_full 'Acta Crystallogr.,Sect.C:Cryst.Struct.Commun. '
loop_
_publ_author_name
"P.G.Jones"
"M.R.Edwards"
"A.J.Kirby"
_chemical_name_systematic
;
1-(4-Methoxyphenyl)ethyl 3,5-dinitrobenzoate
;
_chemical_melting_point 632.15
_cell_volume   3319.463
_exptl_crystal_colour 'pale yellow'
_exptl_crystal_density_diffrn 1.39
_exptl_special_details
;
Melting point range 632.15-634.15K

;
_diffrn_ambient_temperature ?
_diffrn_special_details
;
The study was carried out at room temperature,in the range 283-303K

;
#These two values have been output from a single CSD field.
_refine_ls_R_factor_gt 0.053
_refine_ls_wR_factor_gt 0.053
_symmetry_cell_setting orthorhombic
_symmetry_space_group_name_H-M 'P b c a'
_symmetry_Int_Tables_number 61
loop_
_symmetry_equiv_pos_site_id
_symmetry_equiv_pos_as_xyz
1 x,y,z
2 1/2-x,-y,1/2+z
3 1/2+x,1/2-y,-z
4 -x,1/2+y,1/2-z
5 -x,-y,-z
6 -1/2+x,y,-1/2-z
7 -1/2-x,-1/2+y,z
8 x,-1/2-y,-1/2+z
_cell_length_a 11.177(2)
_cell_length_b 15.987(2)
_cell_length_c 18.577(3)
_cell_angle_alpha 90
_cell_angle_beta 90
_cell_angle_gamma 90
_cell_formula_units_Z 8
loop_
_atom_type_symbol
_atom_type_radius_bond
C 0.68
H 0.23
N 0.68
O 0.68
loop_
_atom_site_label
_atom_site_type_symbol
_atom_site_fract_x
_atom_site_fract_y
_atom_site_fract_z
C1 C 0.2589(4) 0.4353(2) 0.5615(2)
O1 O 0.1924(2) 0.3976(1) 0.6108(1)
O2 O 0.2468(2) 0.5058(1) 0.5397(1)
C2 C 0.0951(4) 0.4466(2) 0.6445(2)
C3 C 0.1452(5) 0.4795(3) 0.7147(2)
C4 C 0.3552(3) 0.3784(2) 0.5341(2)
C5 C 0.3785(4) 0.3013(2) 0.5666(2)
C6 C 0.4672(3) 0.2516(2) 0.5384(2)
C7 C 0.5352(3) 0.2737(2) 0.4803(2)
C8 C 0.5110(3) 0.3503(2) 0.4498(2)
C9 C 0.4223(3) 0.4032(2) 0.4751(2)
N1 N 0.4899(3) 0.1693(1) 0.5730(1)
O3 O 0.5565(3) 0.1210(1) 0.5421(1)
O4 O 0.4398(2) 0.1551(1) 0.6300(1)
N2 N 0.5817(3) 0.3760(2) 0.3864(2)
O5 O 0.6692(3) 0.3346(2) 0.3709(2)
O6 O 0.5480(2) 0.4381(2) 0.3535(1)
C10 C -0.0091(4) 0.3885(2) 0.6509(2)
C11 C -0.0092(4) 0.3205(2) 0.6980(2)
C12 C -0.1023(4) 0.2655(2) 0.7009(2)
C13 C -0.2007(4) 0.2763(2) 0.6569(2)
C14 C -0.2041(3) 0.3452(2) 0.6103(2)
C15 C -0.1097(4) 0.3996(2) 0.6085(2)
O7 O -0.2978(3) 0.2245(2) 0.6538(2)
C16 C -0.2876(4) 0.1465(3) 0.6912(2)
H1 H 0.06740 0.49430 0.61790
H2 H 0.07740 0.50880 0.73400
H3 H 0.21150 0.51730 0.71040
H4 H 0.16640 0.43440 0.74630
H5 H 0.33350 0.28340 0.60790
H6 H 0.59650 0.23760 0.46170
H7 H 0.40770 0.45610 0.45220
H8 H 0.05820 0.31220 0.72920
H9 H -0.09940 0.21900 0.73360
H10 H -0.27230 0.35410 0.57980
H11 H -0.11340 0.44710 0.57690
H12 H -0.35920 0.11430 0.68420
H13 H -0.27710 0.15770 0.74160
H14 H -0.22010 0.11550 0.67360
#END
