
#######################################################################
#
#                 Cambridge Crystallographic Data Centre
#                                CCDC
#
#######################################################################
#
# If this CIF has been generated from an entry in the Cambridge
# Structural Database, then it will include bibliographic, chemical,
# crystal, experimental, refinement or atomic coordinate data resulting
# from the CCDC's data processing and validation procedures.
#
#######################################################################

data_CSD_CIF_FADJAY
_audit_creation_date 2016-01-08
_audit_creation_method CSD-ConQuest-V1
_database_code_CSD FADJAY
_database_code_depnum_ccdc_archive 'CCDC 1446225'
_chemical_formula_sum 'C25 H22 N4 O4'
_chemical_formula_moiety
;
C25 H22 N4 O4
;
_journal_coden_Cambridge 4
_journal_volume 137
_journal_year 2015
_journal_page_first 15518
_journal_name_full 'J.Am.Chem.Soc. '
loop_
_publ_author_name
"Fanyang Mo"
"Hee Nam Lim"
"Guangbin Dong"
_chemical_name_systematic
;
1-(2,4-Dinitrophenyl)-2-(2-(1,2-diphenylvinyl)cyclopentylidene)hydrazine
;
_cell_volume   2245.995
_exptl_crystal_colour 'colorless'
_exptl_crystal_density_diffrn 1.308
_exptl_crystal_description 'prism'
_diffrn_ambient_temperature 293
#These two values have been output from a single CSD field.
_refine_ls_R_factor_gt 0.0606
_refine_ls_wR_factor_gt 0.0606
_symmetry_cell_setting monoclinic
_symmetry_space_group_name_H-M 'P 21/c'
_symmetry_Int_Tables_number 14
loop_
_symmetry_equiv_pos_site_id
_symmetry_equiv_pos_as_xyz
1 x,y,z
2 -x,1/2+y,1/2-z
3 -x,-y,-z
4 x,-1/2-y,-1/2+z
_cell_length_a 8.104(5)
_cell_length_b 32.55(2)
_cell_length_c 8.686(5)
_cell_angle_alpha 90
_cell_angle_beta 101.405(12)
_cell_angle_gamma 90
_cell_formula_units_Z 4
loop_
_atom_type_symbol
_atom_type_radius_bond
C 0.68
H 0.23
N 0.68
O 0.68
loop_
_atom_site_label
_atom_site_type_symbol
_atom_site_fract_x
_atom_site_fract_y
_atom_site_fract_z
C1 C 0.3371(3) 0.59823(9) 0.1994(3)
C2 C 0.4203(4) 0.64010(9) 0.2037(3)
C3 C 0.3186(4) 0.66024(10) 0.0569(3)
H1 H 0.38260 0.68190 0.01930
H2 H 0.21440 0.67160 0.07720
C4 C 0.2841(5) 0.62514(11) -0.0615(3)
H3 H 0.38260 0.61910 -0.10520
H4 H 0.19050 0.63160 -0.14630
C5 C 0.2412(4) 0.58929(10) 0.0369(3)
H5 H 0.12110 0.58820 0.03480
H6 H 0.27670 0.56340 -0.00130
C6 C 0.4364(3) 0.66060(7) 0.3624(3)
C7 C 0.5798(4) 0.65759(8) 0.4670(3)
C8 C 0.6197(3) 0.67189(8) 0.6308(3)
C9 C 0.7174(4) 0.64749(9) 0.7435(4)
H7 H 0.75330 0.62200 0.71470
C10 C 0.7630(4) 0.66018(12) 0.8982(4)
H8 H 0.82700 0.64300 0.97240
C11 C 0.7144(4) 0.69783(11) 0.9422(4)
H9 H 0.74580 0.70660 1.04570
C12 C 0.6195(4) 0.7222(1) 0.8326(3)
H10 H 0.58650 0.74800 0.86150
C13 C 0.5713(3) 0.70944(8) 0.6795(3)
H11 H 0.50440 0.72660 0.60710
C14 C 0.2821(3) 0.67882(8) 0.4011(3)
C15 C 0.2001(3) 0.65800(9) 0.5022(3)
H12 H 0.24220 0.63300 0.54480
C16 C 0.0569(4) 0.67400(11) 0.5402(4)
H13 H 0.00230 0.65970 0.60830
C17 C -0.0057(4) 0.71035(12) 0.4797(4)
H14 H -0.10300 0.72090 0.50650
C18 C 0.0721(4) 0.73154(10) 0.3804(4)
H15 H 0.02910 0.75670 0.34010
C19 C 0.2155(4) 0.71573(9) 0.3392(3)
H16 H 0.26760 0.73000 0.26930
C20 C 0.2626(3) 0.51677(8) 0.4351(3)
C21 C 0.1730(3) 0.47974(8) 0.4335(3)
C22 C 0.1746(4) 0.45727(9) 0.5680(4)
H17 H 0.11330 0.43300 0.56400
C23 C 0.2662(4) 0.47075(10) 0.7061(4)
C24 C 0.3592(4) 0.50681(10) 0.7153(3)
H18 H 0.42230 0.51540 0.81110
C25 C 0.3574(4) 0.52933(9) 0.5839(3)
H19 H 0.41940 0.55350 0.59080
N1 N 0.3492(3) 0.57714(7) 0.3240(3)
N2 N 0.2623(3) 0.53987(7) 0.3075(3)
N3 N 0.0703(3) 0.46379(8) 0.2891(3)
N4 N 0.2638(5) 0.44740(13) 0.8476(4)
O1 O 0.0550(3) 0.48380(7) 0.1675(3)
O2 O -0.0020(3) 0.43101(7) 0.2957(3)
O3 O 0.1729(5) 0.41773(11) 0.8390(4)
O4 O 0.3537(4) 0.45821(11) 0.9703(3)
H20 H 0.672(3) 0.6415(7) 0.436(3)
H21 H 0.530(4) 0.6342(8) 0.189(3)
H22 H 0.198(4) 0.5305(10) 0.214(4)
#END
