
#######################################################################
#
#                 Cambridge Crystallographic Data Centre
#                                CCDC
#
#######################################################################
#
# If this CIF has been generated from an entry in the Cambridge
# Structural Database, then it will include bibliographic, chemical,
# crystal, experimental, refinement or atomic coordinate data resulting
# from the CCDC's data processing and validation procedures.
#
#######################################################################

data_CSD_CIF_FADTOW
_audit_creation_date 2016-01-08
_audit_creation_method CSD-ConQuest-V1
_database_code_CSD FADTOW
_database_code_depnum_ccdc_archive 'CCDC 924851'
_chemical_formula_sum 'C12 H13 N3 O3'
_chemical_formula_moiety
;
C12 H13 N3 O3
;
_journal_coden_Cambridge 1267
_journal_volume 228
_journal_year 2013
_journal_page_first 77
_journal_name_full 'Z.Kristallogr.-New Cryst.Struct. '
loop_
_publ_author_name
"Baohua Zou"
"Zheng Fang"
"Kai Guo"
_chemical_name_systematic
;
2,2-dimethyl-1-(6-nitro-1H-indazol-1-yl)propan-1-one
;
_cell_volume    618.408
_exptl_crystal_colour 'colorless'
_exptl_crystal_density_diffrn 1.322
_exptl_crystal_description 'block'
_diffrn_ambient_temperature 293
#These two values have been output from a single CSD field.
_refine_ls_R_factor_gt 0.0574
_refine_ls_wR_factor_gt 0.0574
_symmetry_cell_setting monoclinic
_symmetry_space_group_name_H-M 'P 21/m'
_symmetry_Int_Tables_number 11
loop_
_symmetry_equiv_pos_site_id
_symmetry_equiv_pos_as_xyz
1 x,y,z
2 -x,1/2+y,-z
3 -x,-y,-z
4 x,-1/2-y,z
_cell_length_a 7.4770(15)
_cell_length_b 6.7920(14)
_cell_length_c 12.191(2)
_cell_angle_alpha 90
_cell_angle_beta 92.72(3)
_cell_angle_gamma 90
_cell_formula_units_Z 2
loop_
_atom_type_symbol
_atom_type_radius_bond
C 0.68
H 0.23
N 0.68
O 0.68
loop_
_atom_site_label
_atom_site_type_symbol
_atom_site_fract_x
_atom_site_fract_y
_atom_site_fract_z
N1 N 0.8512(3) 0.25000 0.67277(17)
O1 O 0.5558(2) 0.25000 0.67641(17)
C1 C 0.7969(3) 0.4381(4) 0.8999(2)
H1 H 0.91820 0.44030 0.87730
H2 H 0.79650 0.43990 0.97860
H3 H 0.73420 0.55150 0.87090
N2 N 1.0209(3) 0.25000 0.7244(2)
O2 O 0.5021(4) 0.25000 0.2974(2)
C2 C 0.5101(4) 0.25000 0.8935(3)
H4 H 0.45010 0.13310 0.86720
H5 H 0.51090 0.25000 0.97230
N3 N 0.6587(5) 0.25000 0.2769(2)
O3 O 0.7122(5) 0.25000 0.1847(2)
C3 C 0.7035(4) 0.25000 0.8562(2)
C4 C 0.6944(3) 0.25000 0.7313(2)
C5 C 0.8634(3) 0.25000 0.5592(2)
C6 C 0.7323(4) 0.25000 0.4741(2)
H6 H 0.61070 0.25000 0.48700
C7 C 0.7950(4) 0.25000 0.3699(2)
C8 C 0.9750(5) 0.25000 0.3462(3)
H7 H 1.00910 0.25000 0.27390
C9 C 1.1015(5) 0.25000 0.4313(3)
H8 H 1.22280 0.25000 0.41770
C10 C 1.0447(4) 0.25000 0.5395(3)
C11 C 1.1323(4) 0.25000 0.6462(3)
H9 H 1.25600 0.25000 0.65830
C1C C 0.7969(3) 0.0619(4) 0.8999(2)
H1C H 0.91820 0.05970 0.87730
H2C H 0.79650 0.06010 0.97860
H3C H 0.73420 -0.05150 0.87090
H4C H 0.45010 0.36690 0.86720
#END
