
#######################################################################
#
#                 Cambridge Crystallographic Data Centre
#                                CCDC
#
#######################################################################
#
# If this CIF has been generated from an entry in the Cambridge
# Structural Database, then it will include bibliographic, chemical,
# crystal, experimental, refinement or atomic coordinate data resulting
# from the CCDC's data processing and validation procedures.
#
#######################################################################

data_CSD_CIF_FADTIQ
_audit_creation_date 2016-01-08
_audit_creation_method CSD-ConQuest-V1
_database_code_CSD FADTIQ
_database_code_depnum_ccdc_archive 'CCDC 926409'
_chemical_formula_sum 'C5 H6 N8 O2'
_chemical_formula_moiety
;
C5 H6 N8 O2
;
_journal_coden_Cambridge 1290
_journal_year 2014
_journal_page_first 1231
_journal_name_full 'Eur.J.Inorg.Chem. '
loop_
_publ_author_name
"Yongxing Tang"
"Hongwei Yang"
"Jianhua Shen"
"Bo Wu"
"Xuehai Ju"
"Chunxu Lu"
"Guangbin Cheng"
_chemical_name_systematic
;
1-(((4-methyl-5-oxido-1,2,5-oxadiazol-3-yl)methylene)amino)-1H-tetrazol-5-amin
e
;
_cell_volume    902.963
_exptl_crystal_density_diffrn 1.546
_diffrn_ambient_temperature 291
#These two values have been output from a single CSD field.
_refine_ls_R_factor_gt 0.0571
_refine_ls_wR_factor_gt 0.0571
_symmetry_cell_setting monoclinic
_symmetry_space_group_name_H-M 'P 21/c'
_symmetry_Int_Tables_number 14
loop_
_symmetry_equiv_pos_site_id
_symmetry_equiv_pos_as_xyz
1 x,y,z
2 -x,1/2+y,1/2-z
3 -x,-y,-z
4 x,-1/2-y,-1/2+z
_cell_length_a 6.2287(11)
_cell_length_b 8.0735(12)
_cell_length_c 17.9653(17)
_cell_angle_alpha 90
_cell_angle_beta 91.840(3)
_cell_angle_gamma 90
_cell_formula_units_Z 4
loop_
_atom_type_symbol
_atom_type_radius_bond
C 0.68
H 0.23
N 0.68
O 0.68
loop_
_atom_site_label
_atom_site_type_symbol
_atom_site_fract_x
_atom_site_fract_y
_atom_site_fract_z
C1 C -0.2398(4) 0.8495(3) 0.01897(13)
C2 C 0.2138(4) 0.6000(3) 0.06144(14)
H1 H 0.27940 0.61820 0.01640
C3 C 0.3158(4) 0.4941(3) 0.11771(12)
C4 C 0.2468(4) 0.4417(3) 0.18904(13)
C5 C 0.0613(5) 0.4812(4) 0.23354(16)
H2 H 0.02040 0.38500 0.26110
H3 H -0.05630 0.51530 0.20130
H4 H 0.09800 0.56930 0.26750
N1 N -0.3639(4) 0.8545(3) 0.07779(13)
H5 H -0.48010 0.91210 0.07620
H6 H -0.32790 0.80010 0.11740
N2 N -0.2680(3) 0.9248(3) -0.04705(12)
N3 N -0.0998(4) 0.8768(3) -0.08919(12)
N4 N 0.0324(4) 0.7800(3) -0.05242(11)
N5 N -0.0528(3) 0.7590(2) 0.01595(11)
N6 N 0.0336(3) 0.6677(2) 0.07440(11)
N7 N 0.4974(4) 0.4268(3) 0.10097(13)
N8 N 0.3976(3) 0.3372(3) 0.21369(11)
O1 O 0.5576(3) 0.3240(3) 0.15869(10)
O2 O 0.4216(4) 0.2488(3) 0.27036(11)
#END
