
#######################################################################
#
#                 Cambridge Crystallographic Data Centre
#                                CCDC
#
#######################################################################
#
# If this CIF has been generated from an entry in the Cambridge
# Structural Database, then it will include bibliographic, chemical,
# crystal, experimental, refinement or atomic coordinate data resulting
# from the CCDC's data processing and validation procedures.
#
#######################################################################

data_CSD_CIF_FAFVOY
_audit_creation_date 2002-06-14
_audit_creation_method CSD-ConQuest-V1
_database_code_CSD FAFVOY
_database_code_depnum_ccdc_archive 'CCDC 178873'
_chemical_formula_sum 'C14 H13 N1 O3'
_chemical_formula_moiety
;
C14 H13 N1 O3
;
_journal_coden_Cambridge 24
_journal_volume 43
_journal_year 2002
_journal_page_first 2585
_journal_name_full 'Tetrahedron Lett. '
loop_
_publ_author_name
"P.A.Wade"
"J.K.Murray Junior"
"S.Shah-Patel"
"P.J.Carroll"
_chemical_name_systematic
;
exo-(5-Nitrobicyclo(2.2.1)hept-2-en-5-yl)phenylmethanone
;
_chemical_melting_point 394
_cell_volume   1187.782
_exptl_crystal_density_diffrn 1.36
_exptl_special_details
;
Melting point range 394-395K

;
_exptl_crystal_description 'prism'
_exptl_crystal_preparation 'benzene/hexanes'
_diffrn_ambient_temperature 200
#These two values have been output from a single CSD field.
_refine_ls_R_factor_gt 0.0548
_refine_ls_wR_factor_gt 0.0548
_symmetry_cell_setting monoclinic
_symmetry_space_group_name_H-M 'P 21/c'
_symmetry_Int_Tables_number 14
loop_
_symmetry_equiv_pos_site_id
_symmetry_equiv_pos_as_xyz
1 x,y,z
2 x,1/2-y,1/2+z
3 -x,-y,-z
4 -x,-1/2+y,-1/2-z
_cell_length_a 8.0882(2)
_cell_length_b 9.8095(3)
_cell_length_c 14.9990(4)
_cell_angle_alpha 90
_cell_angle_beta 93.529(2)
_cell_angle_gamma 90
_cell_formula_units_Z 4
loop_
_atom_type_symbol
_atom_type_radius_bond
C 0.68
H 0.23
N 0.68
O 0.68
loop_
_atom_site_label
_atom_site_type_symbol
_atom_site_fract_x
_atom_site_fract_y
_atom_site_fract_z
C1 C 0.7618(2) 0.7739(2) 0.49246(13)
C2 C 0.5897(3) 0.8192(2) 0.52487(14)
C3 C 0.5246(3) 0.6980(2) 0.5749(2)
C4 C 0.6183(3) 0.6856(3) 0.6502(2)
C5 C 0.7481(3) 0.7963(2) 0.65238(14)
C6 C 0.8704(3) 0.7594(2) 0.58008(14)
C7 C 0.6488(3) 0.9103(2) 0.6038(2)
C8 C 0.8325(3) 0.8748(2) 0.42569(14)
C9 C 0.9775(2) 0.8332(2) 0.37511(13)
C10 C 1.0833(3) 0.7278(2) 0.40265(15)
C11 C 1.2176(3) 0.6939(3) 0.3539(2)
C12 C 1.2460(3) 0.7637(3) 0.2768(2)
C13 C 1.1419(3) 0.8690(3) 0.2487(2)
C14 C 1.0086(3) 0.9052(3) 0.29756(15)
N1 N 0.7356(2) 0.6409(2) 0.44116(11)
O1 O 0.7709(2) 0.9872(2) 0.41663(13)
O2 O 0.6510(2) 0.6495(2) 0.37063(10)
O3 O 0.7939(2) 0.5339(2) 0.47080(11)
H1 H 0.5178(28) 0.8569(23) 0.4770(15)
H2 H 0.4373(32) 0.6398(27) 0.5505(17)
H3 H 0.6171(32) 0.6142(28) 0.6943(18)
H4 H 0.8011(27) 0.8178(23) 0.7115(15)
H5 H 0.9652(27) 0.8267(23) 0.5800(14)
H6 H 0.9178(26) 0.6661(23) 0.5866(14)
H7 H 0.7181(29) 0.9871(26) 0.5849(16)
H8 H 0.5536(28) 0.9446(23) 0.6367(15)
H9 H 1.0682(26) 0.6785(23) 0.4568(15)
H10 H 1.2937(35) 0.6144(31) 0.3742(19)
H11 H 1.3379(36) 0.7363(29) 0.2397(19)
H12 H 1.1581(31) 0.9195(27) 0.1953(18)
H13 H 0.9318(29) 0.9769(25) 0.2802(16)
#END
