
#######################################################################
#
#                 Cambridge Crystallographic Data Centre
#                                CCDC
#
#######################################################################
#
# If this CIF has been generated from an entry in the Cambridge
# Structural Database, then it will include bibliographic, chemical,
# crystal, experimental, refinement or atomic coordinate data resulting
# from the CCDC's data processing and validation procedures.
#
#######################################################################

data_CSD_CIF_FAGWAO
_audit_creation_date 2016-01-11
_audit_creation_method CSD-ConQuest-V1
_database_code_CSD FAGWAO
_database_code_depnum_ccdc_archive 'CCDC 1034383'
_chemical_formula_sum 'C24 H21 N3 O8'
_chemical_formula_moiety
;
C24 H21 N3 O8
;
_journal_coden_Cambridge 206
_journal_volume 46
_journal_year 2016
_journal_page_first 63
_journal_name_full 'Synth.Commun. '
loop_
_publ_author_name
"Vicky Jain"
"S.Bijani"
"P.Ambasana"
"K.Mehariya"
"Umed Bhoya"
"B.Pandey"
"Anamik Shah"
_chemical_name_systematic
;
dimethyl 
1-(4-methyl-3-nitrophenyl)-3-(2-oxo-2H-chromen-3-yl)-1,2,3,6-tetrahydropyrimid
ine-4,5-dicarboxylate
;
_chemical_melting_point 383
_cell_volume   1249.660
_exptl_crystal_colour 'yellow'
_exptl_crystal_density_diffrn 1.274
_exptl_crystal_description 'Block'
_diffrn_ambient_temperature 293
#These two values have been output from a single CSD field.
_refine_ls_R_factor_gt 0.1608
_refine_ls_wR_factor_gt 0.1608
_symmetry_cell_setting triclinic
_symmetry_space_group_name_H-M 'P -1'
_symmetry_Int_Tables_number 2
loop_
_symmetry_equiv_pos_site_id
_symmetry_equiv_pos_as_xyz
1 x,y,z
2 -x,-y,-z
_cell_length_a 9.3279(6)
_cell_length_b 10.2240(7)
_cell_length_c 14.0365(9)
_cell_angle_alpha 70.589(3)
_cell_angle_beta 86.780(3)
_cell_angle_gamma 81.824(3)
_cell_formula_units_Z 2
loop_
_atom_type_symbol
_atom_type_radius_bond
C 0.68
H 0.23
N 0.68
O 0.68
loop_
_atom_site_label
_atom_site_type_symbol
_atom_site_fract_x
_atom_site_fract_y
_atom_site_fract_z
O1 O 0.2436(4) 0.4866(4) 0.4927(3)
O2 O 0.0609(5) 0.6516(5) 0.4354(3)
O3 O 0.3015(4) 0.9177(4) 0.5553(3)
O4 O 0.3126(4) 0.8182(4) 0.7234(3)
O5 O -0.0798(5) 1.0657(4) 0.7798(3)
O6 O 0.1391(4) 1.0677(4) 0.7032(3)
O7 O -0.2121(16) 0.6345(14) 1.0551(7)
O8 O -0.339(3) 0.4484(12) 1.0965(7)
N1 N 0.0566(4) 0.7464(4) 0.6004(3)
N2 N -0.1816(4) 0.7500(4) 0.6790(3)
N3 N -0.235(3) 0.5402(13) 1.0393(6)
C1 C 0.3515(5) 0.4185(5) 0.5614(4)
C2 C 0.4449(7) 0.3140(6) 0.5413(5)
C3 C 0.5554(7) 0.2445(6) 0.6075(5)
C4 C 0.5737(6) 0.2811(6) 0.6918(6)
C5 C 0.4773(6) 0.3846(5) 0.7135(4)
C6 C 0.3633(5) 0.4565(5) 0.6473(4)
C7 C 0.2588(5) 0.5628(4) 0.6629(3)
C8 C 0.1571(5) 0.6335(4) 0.5936(3)
C9 C -0.1012(5) 0.7452(5) 0.5885(4)
C10 C -0.1712(5) 0.8861(5) 0.6904(5)
C11 C -0.0145(5) 0.9137(5) 0.6857(4)
C12 C 0.0886(5) 0.8396(4) 0.6454(3)
C13 C 0.2465(5) 0.8651(5) 0.6344(4)
C14 C 0.4626(6) 0.8467(9) 0.7169(7)
C15 C 0.0091(5) 1.0220(5) 0.7271(4)
C16 C 0.1730(7) 1.1630(6) 0.7517(6)
C17 C -0.1707(5) 0.6292(5) 0.7645(4)
C18 C -0.1422(6) 0.4949(5) 0.7577(4)
C19 C -0.1378(9) 0.3763(7) 0.8415(5)
C20 C -0.1606(12) 0.3830(8) 0.9408(6)
C21 C -0.1944(13) 0.5141(9) 0.9420(5)
C22 C -0.1958(9) 0.6360(7) 0.8599(5)
C23 C -0.1477(18) 0.2504(12) 1.0257(8)
C24 C 0.1474(5) 0.5960(5) 0.5024(4)
H1 H 0.43350 0.29070 0.48380
H2 H 0.61820 0.17240 0.59540
H3 H 0.65120 0.23600 0.73460
H4 H 0.48830 0.40610 0.77180
H5 H 0.26060 0.58410 0.72230
H6 H -0.13770 0.82520 0.53160
H7 H -0.11520 0.66110 0.57460
H8 H -0.21390 0.88790 0.75470
H9 H -0.22550 0.95960 0.63720
H10 H 0.46500 0.94590 0.69090
H11 H 0.51660 0.80340 0.67260
H12 H 0.50480 0.80960 0.78290
H13 H 0.17140 1.11860 0.82370
H14 H 0.10270 1.24520 0.73340
H15 H 0.26760 1.18880 0.73060
H16 H -0.12570 0.48500 0.69430
H17 H -0.11930 0.28920 0.83280
H18 H -0.21400 0.72250 0.86960
H19 H -0.23650 0.24360 1.06400
H20 H -0.06970 0.24760 1.06850
H21 H -0.12850 0.17340 1.00010
#END
