
#######################################################################
#
#                 Cambridge Crystallographic Data Centre
#                                CCDC
#
#######################################################################
#
# If this CIF has been generated from an entry in the Cambridge
# Structural Database, then it will include bibliographic, chemical,
# crystal, experimental, refinement or atomic coordinate data resulting
# from the CCDC's data processing and validation procedures.
#
#######################################################################

data_CSD_CIF_FAHZUJ
_audit_creation_date 1987-09-22
_audit_creation_method CSD-ConQuest-V1
_database_code_CSD FAHZUJ
_database_code_depnum_ccdc_archive 'CCDC 1151885'
_chemical_formula_sum 'C23 H19 N3 O4'
_chemical_formula_moiety
;
C23 H19 N3 O4
;
_journal_coden_Cambridge 7
_journal_volume 59
_journal_year 1986
_journal_page_first 3295
_journal_name_full 'Bull.Chem.Soc.Jpn. '
loop_
_publ_author_name
"Y.Inouye"
"Y.Sakaino"
_chemical_name_systematic
;
4,5-bis(4-Methoxyphenyl)-2-(4-nitrophenyl)-1H-imidazole
;
_cell_volume   3891.952
_exptl_crystal_colour 'light orange'
_exptl_crystal_density_diffrn 1.37
_exptl_special_details
;
z(C15) should be 0.4910, not 0.4190

;
_diffrn_ambient_temperature ?
_diffrn_special_details
;
The study was carried out at room temperature,in the range 283-303K

;
#These two values have been output from a single CSD field.
_refine_ls_R_factor_gt 0.037
_refine_ls_wR_factor_gt 0.037
_symmetry_cell_setting orthorhombic
_symmetry_space_group_name_H-M 'P b c a'
_symmetry_Int_Tables_number 61
loop_
_symmetry_equiv_pos_site_id
_symmetry_equiv_pos_as_xyz
1 x,y,z
2 1/2-x,-y,1/2+z
3 1/2+x,1/2-y,-z
4 -x,1/2+y,1/2-z
5 -x,-y,-z
6 -1/2+x,y,-1/2-z
7 -1/2-x,-1/2+y,z
8 x,-1/2-y,-1/2+z
_cell_length_a 15.161(9)
_cell_length_b 25.805(5)
_cell_length_c 9.948(1)
_cell_angle_alpha 90
_cell_angle_beta 90
_cell_angle_gamma 90
_cell_formula_units_Z 8
loop_
_atom_type_symbol
_atom_type_radius_bond
C 0.68
H 0.23
N 0.68
O 0.68
loop_
_atom_site_label
_atom_site_type_symbol
_atom_site_fract_x
_atom_site_fract_y
_atom_site_fract_z
O1 O 0.5106(2) 0.0112(1) 0.3463(3)
O2 O 0.5112(2) 0.0532(1) 0.1608(3)
N1 N 0.4972(2) 0.0502(1) 0.2805(3)
C1 C 0.4649(2) 0.0967(1) 0.3506(4)
C2 C 0.4251(2) 0.0915(1) 0.4744(4)
C3 C 0.3930(2) 0.1356(1) 0.5361(3)
C4 C 0.4016(2) 0.1841(1) 0.4753(3)
C5 C 0.4459(2) 0.1877(1) 0.3537(4)
C6 C 0.4766(2) 0.1438(1) 0.2894(4)
C7 C 0.3582(2) 0.2290(1) 0.5338(3)
N2 N 0.3151(2) 0.2306(1) 0.6504(3)
C8 C 0.2752(2) 0.2789(1) 0.6545(3)
C9 C 0.2960(2) 0.3068(1) 0.5406(3)
N3 N 0.3494(2) 0.2745(1) 0.4664(3)
C10 C 0.2718(2) 0.3578(1) 0.4910(4)
C11 C 0.3333(3) 0.3872(1) 0.4190(4)
C12 C 0.3117(3) 0.4344(1) 0.3617(4)
C13 C 0.2266(2) 0.4523(1) 0.3732(3)
C14 C 0.1649(3) 0.4245(1) 0.4446(3)
C15 C 0.1867(2) 0.3774(1) 0.5005(3)
O3 O 0.1977(2) 0.4977(1) 0.3179(3)
C16 C 0.2465(5) 0.5182(2) 0.2098(6)
C17 C 0.2190(2) 0.2944(1) 0.7679(3)
C18 C 0.2223(2) 0.3440(1) 0.8210(3)
C19 C 0.1699(2) 0.3579(2) 0.9297(4)
C20 C 0.1143(2) 0.3220(2) 0.9855(3)
C21 C 0.1104(2) 0.2724(2) 0.9348(3)
C22 C 0.1619(2) 0.2587(2) 0.8265(4)
O4 O 0.0598(2) 0.3322(1) 1.0929(3)
C23 C 0.0718(4) 0.3803(4) 1.1596(7)
H1 H 0.419(2) 0.055(1) 0.513(3)
H2 H 0.363(2) 0.133(1) 0.623(3)
H3 H 0.457(2) 0.220(1) 0.308(3)
H4 H 0.504(2) 0.145(1) 0.202(3)
H5 H 0.365(2) 0.281(1) 0.384(3)
H6 H 0.392(2) 0.375(1) 0.415(3)
H7 H 0.359(2) 0.453(1) 0.313(3)
H8 H 0.104(2) 0.438(1) 0.451(3)
H9 H 0.144(2) 0.357(1) 0.547(3)
H10 H 0.262(3) 0.493(2) 0.146(5)
H11 H 0.297(4) 0.533(2) 0.260(6)
H12 H 0.210(2) 0.546(1) 0.175(4)
H13 H 0.265(2) 0.370(1) 0.780(3)
H14 H 0.174(2) 0.396(1) 0.962(3)
H15 H 0.067(2) 0.244(1) 0.970(4)
H16 H 0.161(2) 0.223(1) 0.788(3)
H17 H 0.034(3) 0.373(1) 1.240(4)
H18 H 0.134(3) 0.379(2) 1.189(4)
H19 H 0.068(4) 0.413(2) 1.109(6)
#END
