
#######################################################################
#
#                 Cambridge Crystallographic Data Centre
#                                CCDC
#
#######################################################################
#
# If this CIF has been generated from an entry in the Cambridge
# Structural Database, then it will include bibliographic, chemical,
# crystal, experimental, refinement or atomic coordinate data resulting
# from the CCDC's data processing and validation procedures.
#
#######################################################################

data_CSD_CIF_FAJXIA
_audit_creation_date 2016-01-12
_audit_creation_method CSD-ConQuest-V1
_database_code_CSD FAJXIA
_database_code_depnum_ccdc_archive 'CCDC 1429956'
_chemical_formula_sum 'C13 H19 N1 O4'
_chemical_formula_moiety
;
C13 H19 N1 O4
;
_journal_coden_Cambridge 1748
_journal_volume 3
_journal_year 2016
_journal_page_first 330
_journal_name_full 'Org.Chem.Front. '
loop_
_publ_author_name
"A.Acharya"
"J.A.Eickhoff"
"K.Chen"
"V.J.Catalano"
"C.S.Jeffrey"
_chemical_name_systematic
;
(+-)-10,10-Dimethylhexahydro-2H-pyrrolo[1,2-b][1,2]oxazecine-7,9,11(10H)-trion
e
;
_cell_volume   1268.293
_exptl_crystal_density_diffrn 1.327
_exptl_crystal_description 'block'
_diffrn_ambient_temperature 100
#These two values have been output from a single CSD field.
_refine_ls_R_factor_gt 0.0672
_refine_ls_wR_factor_gt 0.0672
_symmetry_cell_setting monoclinic
_symmetry_space_group_name_H-M 'P 21/n'
_symmetry_Int_Tables_number 14
loop_
_symmetry_equiv_pos_site_id
_symmetry_equiv_pos_as_xyz
1 x,y,z
2 1/2-x,1/2+y,1/2-z
3 -x,-y,-z
4 -1/2+x,-1/2-y,-1/2+z
_cell_length_a 11.3134(5)
_cell_length_b 9.4290(4)
_cell_length_c 12.7345(6)
_cell_angle_alpha 90
_cell_angle_beta 110.9907(8)
_cell_angle_gamma 90
_cell_formula_units_Z 4
loop_
_atom_type_symbol
_atom_type_radius_bond
C 0.68
H 0.23
N 0.68
O 0.68
loop_
_atom_site_label
_atom_site_type_symbol
_atom_site_fract_x
_atom_site_fract_y
_atom_site_fract_z
C1 C 0.72843(18) 0.89976(18) 0.30557(16)
C2 C 0.66373(19) 0.8401(2) 0.38229(17)
C3 C 0.7748(2) 0.8025(2) 0.48858(19)
C4 C 0.9000(2) 0.8257(2) 0.47210(18)
H1 H 0.94760 0.90600 0.52010
C5 C 0.9821(2) 0.6941(2) 0.4933(2)
H2 H 0.94050 0.62150 0.43580
H3 H 0.99270 0.65440 0.56810
C6 C 1.1123(2) 0.7312(2) 0.48856(18)
C7 C 1.1594(2) 0.6372(2) 0.41780(19)
H4 H 1.08570 0.59440 0.35830
H5 H 1.20890 0.55900 0.46540
C8 C 1.2411(2) 0.7102(2) 0.3626(2)
H6 H 1.25690 0.64230 0.30980
H7 H 1.32390 0.73180 0.42170
C9 C 1.1892(2) 0.8477(2) 0.29793(19)
H8 H 1.25470 0.88670 0.27130
H9 H 1.17720 0.91710 0.35170
C10 C 1.0642(2) 0.8383(2) 0.19631(18)
H10 H 1.05300 0.92830 0.15380
H11 H 1.07300 0.76180 0.14640
C11 C 0.94454(19) 0.8109(2) 0.22063(17)
H12 H 0.86920 0.82500 0.15160
H13 H 0.94380 0.71200 0.24660
C12 C 0.5915(2) 0.7047(2) 0.3305(2)
H14 H 0.51820 0.72920 0.26360
H15 H 0.56270 0.65750 0.38550
H16 H 0.64750 0.64090 0.30910
C13 C 0.5762(2) 0.9474(2) 0.4074(2)
H17 H 0.62430 1.03290 0.44060
H18 H 0.54090 0.90580 0.46040
H19 H 0.50720 0.97230 0.33750
N1 N 0.85231(15) 0.86700(17) 0.35266(14)
O1 O 0.67769(13) 0.96054(15) 0.21549(12)
O2 O 0.94205(13) 0.91011(14) 0.30789(12)
O3 O 1.17417(15) 0.83258(17) 0.53988(13)
O4 O 0.76755(17) 0.7588(2) 0.57521(15)
#END
