
#######################################################################
#
#                 Cambridge Crystallographic Data Centre
#                                CCDC
#
#######################################################################
#
# If this CIF has been generated from an entry in the Cambridge
# Structural Database, then it will include bibliographic, chemical,
# crystal, experimental, refinement or atomic coordinate data resulting
# from the CCDC's data processing and validation procedures.
#
#######################################################################

data_CSD_CIF_FAJXUM
_audit_creation_date 2016-01-12
_audit_creation_method CSD-ConQuest-V1
_database_code_CSD FAJXUM
_database_code_depnum_ccdc_archive 'CCDC 1429958'
_chemical_formula_sum 'C13 H19 N1 O5'
_chemical_formula_moiety
;
C13 H19 N1 O5
;
_journal_coden_Cambridge 1748
_journal_volume 3
_journal_year 2016
_journal_page_first 330
_journal_name_full 'Org.Chem.Front. '
loop_
_publ_author_name
"A.Acharya"
"J.A.Eickhoff"
"K.Chen"
"V.J.Catalano"
"C.S.Jeffrey"
_chemical_name_systematic
;
(+-)-(1S,11R,12S,14S)-11-Hydroxy-10,10-dimethyl-7,13,15-trioxa-8-azatetracyclo
[9.3.1.01,8.012,14]pentadecan-9-one
;
_cell_volume   1261.568
_exptl_crystal_density_diffrn 1.418
_exptl_crystal_description 'Block'
_diffrn_ambient_temperature 100.2
#These two values have been output from a single CSD field.
_refine_ls_R_factor_gt 0.043
_refine_ls_wR_factor_gt 0.043
_symmetry_cell_setting monoclinic
_symmetry_space_group_name_H-M 'P 21/n'
_symmetry_Int_Tables_number 14
loop_
_symmetry_equiv_pos_site_id
_symmetry_equiv_pos_as_xyz
1 x,y,z
2 1/2-x,1/2+y,1/2-z
3 -x,-y,-z
4 -1/2+x,-1/2-y,-1/2+z
_cell_length_a 10.9816(5)
_cell_length_b 9.2222(4)
_cell_length_c 13.0751(6)
_cell_angle_alpha 90
_cell_angle_beta 107.6889(8)
_cell_angle_gamma 90
_cell_formula_units_Z 4
loop_
_atom_type_symbol
_atom_type_radius_bond
C 0.68
H 0.23
N 0.68
O 0.68
loop_
_atom_site_label
_atom_site_type_symbol
_atom_site_fract_x
_atom_site_fract_y
_atom_site_fract_z
C1 C 0.35651(13) 0.28955(17) 0.70018(11)
C2 C 0.40959(13) 0.35851(17) 0.81261(11)
C3 C 0.52883(13) 0.27380(17) 0.87923(11)
C4 C 0.49728(14) 0.11593(18) 0.89264(12)
H1 H 0.42520 0.08870 0.92060
C5 C 0.52045(14) 0.03728(18) 0.80361(12)
H2 H 0.46450 -0.04530 0.76810
C6 C 0.56178(13) 0.15360(16) 0.73746(11)
C7 C 0.65621(13) 0.10701(17) 0.68080(12)
H3 H 0.61160 0.04200 0.62090
H4 H 0.72420 0.04950 0.73170
C8 C 0.71956(14) 0.22860(18) 0.63585(12)
H5 H 0.77930 0.18400 0.60150
H6 H 0.77120 0.28780 0.69680
C9 C 0.63008(14) 0.33065(18) 0.55419(12)
H7 H 0.68230 0.39320 0.52240
H8 H 0.58610 0.39440 0.59260
C10 C 0.52852(15) 0.25317(18) 0.46275(12)
H9 H 0.51920 0.30670 0.39520
H10 H 0.56030 0.15490 0.45420
C11 C 0.39755(14) 0.23868(17) 0.47791(11)
H11 H 0.36790 0.33620 0.49130
H12 H 0.33710 0.20190 0.41030
C12 C 0.44698(15) 0.51544(17) 0.79528(12)
H13 H 0.47380 0.56630 0.86430
H14 H 0.37330 0.56540 0.74640
H15 H 0.51760 0.51450 0.76410
C13 C 0.30570(14) 0.35900(19) 0.86865(12)
H16 H 0.27320 0.26020 0.87000
H17 H 0.23560 0.42260 0.82950
H18 H 0.34180 0.39440 0.94240
N1 N 0.44245(11) 0.21530(14) 0.66347(9)
O1 O 0.2458(1) 0.31103(13) 0.64410(8)
O2 O 0.39273(9) 0.14322(11) 0.56517(8)
O3 O 0.61363(9) 0.26374(11) 0.81279(8)
O4 O 0.5896(1) 0.34900(13) 0.97128(8)
H19 H 0.63930 0.29310 1.01540
O5 O 0.60841(10) 0.02317(13) 0.90999(9)
#END
