
#######################################################################
#
#                 Cambridge Crystallographic Data Centre
#                                CCDC
#
#######################################################################
#
# If this CIF has been generated from an entry in the Cambridge
# Structural Database, then it will include bibliographic, chemical,
# crystal, experimental, refinement or atomic coordinate data resulting
# from the CCDC's data processing and validation procedures.
#
#######################################################################

data_CSD_CIF_FAJYIY
_audit_creation_date 1987-09-22
_audit_creation_method CSD-ConQuest-V1
_database_code_CSD FAJYIY
_chemical_formula_sum 'C16 H16 N2 O2'
_chemical_formula_moiety
;
C16 H16 N2 O2
;
_journal_coeditor_code "IUCr A26739"
_journal_coden_Cambridge 591
_journal_volume 43
_journal_year 1987
_journal_page_first 86
_journal_name_full 'Acta Crystallogr.,Sect.C:Cryst.Struct.Commun. '
loop_
_publ_author_name
"Yun Yi Wei"
"B.Tinant"
"J.P.Declercq"
"M.Van Meerssche"
_chemical_name_systematic
;
N,N-Dimethyl-4-(1-(p-nitrophenyl)ethylene)aniline
;
_cell_volume   1427.119
_exptl_crystal_density_diffrn 1.25
_diffrn_ambient_temperature ?
_diffrn_special_details
;
The study was carried out at room temperature,in the range 283-303K

;
#These two values have been output from a single CSD field.
_refine_ls_R_factor_gt 0.054
_refine_ls_wR_factor_gt 0.054
_symmetry_cell_setting monoclinic
_symmetry_space_group_name_H-M 'P 21/n'
_symmetry_Int_Tables_number 14
loop_
_symmetry_equiv_pos_site_id
_symmetry_equiv_pos_as_xyz
1 x,y,z
2 1/2-x,1/2+y,1/2-z
3 -x,-y,-z
4 -1/2+x,-1/2-y,-1/2+z
_cell_length_a 6.597(1)
_cell_length_b 27.813(8)
_cell_length_c 7.793(1)
_cell_angle_alpha 90
_cell_angle_beta 93.56(1)
_cell_angle_gamma 90
_cell_formula_units_Z 4
loop_
_atom_type_symbol
_atom_type_radius_bond
C 0.68
H 0.23
N 0.68
O 0.68
loop_
_atom_site_label
_atom_site_type_symbol
_atom_site_fract_x
_atom_site_fract_y
_atom_site_fract_z
C1 C 0.6184(4) 0.2425(1) 0.7466(4)
C2 C 0.4163(5) 0.2397(2) 0.7432(5)
C3 C 0.7243(4) 0.2895(1) 0.7533(3)
C4 C 0.6428(4) 0.3298(1) 0.8285(4)
C5 C 0.7336(4) 0.3744(1) 0.8217(4)
C6 C 0.9147(4) 0.3815(1) 0.7404(3)
C7 C 0.9957(4) 0.3406(1) 0.6647(4)
C8 C 0.9046(4) 0.2961(1) 0.6731(3)
C9 C 0.7403(4) 0.1974(1) 0.7426(3)
C10 C 0.9164(4) 0.1917(1) 0.8487(3)
C11 C 1.0239(4) 0.1493(1) 0.8513(4)
C12 C 0.9560(5) 0.1125(1) 0.7458(4)
C13 C 0.7836(5) 0.1168(1) 0.6385(4)
C14 C 0.6765(5) 0.1593(1) 0.6375(4)
C15 C 1.1801(7) 0.4323(2) 0.6330(7)
C16 C 0.8990(9) 0.4686(2) 0.7798(7)
N1 N 1.0087(4) 0.4255(1) 0.7363(4)
N2 N 1.0744(6) 0.0678(1) 0.7468(5)
O1 O 1.2258(7) 0.0647(1) 0.8378(6)
O2 O 1.0198(5) 0.0364(1) 0.6483(5)
H1 H 0.3635(57) 0.2096(14) 0.7463(47)
H2 H 0.3297(57) 0.2678(14) 0.7415(45)
H3 H 0.5147(54) 0.3255(13) 0.8875(46)
H4 H 0.6701(50) 0.4009(13) 0.8757(44)
H5 H 1.1124(57) 0.3417(12) 0.6058(47)
H6 H 0.9644(50) 0.2689(13) 0.6021(47)
H7 H 0.9625(49) 0.2198(13) 0.9271(48)
H8 H 1.1356(60) 0.1460(13) 0.9245(47)
H9 H 0.7277(49) 0.0948(14) 0.5708(47)
H10 H 0.5624(52) 0.1664(13) 0.5625(50)
H11 H 1.2922(56) 0.4109(14) 0.6654(45)
H12 H 1.2317(5) 0.4577(15) 0.6548(49)
H13 H 1.1430(53) 0.4264(13) 0.5172(52)
H14 H 0.8509(58) 0.4633(13) 0.8889(51)
H15 H 0.9918(54) 0.5009(14) 0.7773(48)
H16 H 0.7886(61) 0.4721(15) 0.7207(54)
#END
