
#######################################################################
#
#                 Cambridge Crystallographic Data Centre
#                                CCDC
#
#######################################################################
#
# If this CIF has been generated from an entry in the Cambridge
# Structural Database, then it will include bibliographic, chemical,
# crystal, experimental, refinement or atomic coordinate data resulting
# from the CCDC's data processing and validation procedures.
#
#######################################################################

data_CSD_CIF_FAKSAM
_audit_creation_date 2005-04-13
_audit_creation_method CSD-ConQuest-V1
_database_code_CSD FAKSAM
_database_code_depnum_ccdc_archive 'CCDC 259472'
_chemical_formula_sum 'C20 H30 N2 O3'
_chemical_formula_moiety
;
C20 H30 N2 O3
;
_journal_coden_Cambridge 4
_journal_volume 126
_journal_year 2004
_journal_page_first 15980
_journal_name_full 'J.Am.Chem.Soc. '
loop_
_publ_author_name
"Fei Chen"
"Nian-Yong Zhu"
"Dan Yang"
_chemical_name_systematic
;
N-Cyclohexyl-4-((isobutyrylamino)oxy)-4-phenylbutanamide
;
_chemical_melting_point 397.15
_cell_volume   3920.834
_exptl_crystal_colour 'colorless'
_exptl_crystal_density_diffrn 1.174
_exptl_special_details
;
Melting point range 397.15-399.15K

;
_exptl_crystal_description 'prism'
_diffrn_ambient_temperature 253
#These two values have been output from a single CSD field.
_refine_ls_R_factor_gt 0.0358
_refine_ls_wR_factor_gt 0.0358
_symmetry_cell_setting monoclinic
_symmetry_space_group_name_H-M 'C 2/c'
_symmetry_Int_Tables_number 15
loop_
_symmetry_equiv_pos_site_id
_symmetry_equiv_pos_as_xyz
1 x,y,z
2 1/2+x,1/2+y,z
3 -x,y,1/2-z
4 1/2-x,1/2+y,1/2-z
5 -x,-y,-z
6 -1/2-x,-1/2-y,-z
7 x,-y,-1/2+z
8 -1/2+x,-1/2-y,-1/2+z
_cell_length_a 22.367(5)
_cell_length_b 14.922(3)
_cell_length_c 11.941(2)
_cell_angle_alpha 90
_cell_angle_beta 100.33(3)
_cell_angle_gamma 90
_cell_formula_units_Z 8
loop_
_atom_type_symbol
_atom_type_radius_bond
C 0.68
H 0.23
N 0.68
O 0.68
loop_
_atom_site_label
_atom_site_type_symbol
_atom_site_fract_x
_atom_site_fract_y
_atom_site_fract_z
O1 O 0.27639(4) 0.40194(7) 0.35465(8)
O2 O 0.35550(5) 0.16613(7) 0.12904(9)
O3 O 0.23467(4) 0.14453(7) 0.10593(7)
N1 N 0.34108(6) 0.30668(9) 0.29106(10)
N2 N 0.27530(6) 0.07286(10) 0.12326(10)
C1 C 0.28910(7) 0.35201(10) 0.27896(11)
C2 C 0.24466(7) 0.3361(1) 0.16993(11)
H1 H 0.26620 0.31280 0.11250
H2 H 0.22600 0.39250 0.14240
C3 C 0.19531(7) 0.26964(10) 0.18852(12)
H3 H 0.17710 0.29010 0.25180
H4 H 0.16380 0.26880 0.12120
C4 C 0.21897(6) 0.17523(9) 0.21282(11)
H5 H 0.25610 0.17770 0.27060
C5 C 0.17496(6) 0.11196(9) 0.25234(11)
C6 C 0.18793(7) 0.07263(10) 0.35894(11)
H6 H 0.22440 0.08580 0.40690
C7 C 0.14766(8) 0.01448(11) 0.39501(13)
H7 H 0.15710 -0.01150 0.46680
C8 C 0.09374(7) -0.00520(11) 0.32575(14)
H8 H 0.06650 -0.04440 0.35040
C9 C 0.07977(7) 0.03338(11) 0.21872(13)
H9 H 0.04310 0.02020 0.17140
C10 C 0.12015(6) 0.09105(10) 0.18281(11)
H10 H 0.11070 0.11660 0.11070
C11 C 0.33479(7) 0.09022(11) 0.13342(11)
C12 C 0.37455(7) 0.00781(11) 0.15358(13)
H11 H 0.35160 -0.04420 0.11900
C13 C 0.39224(9) -0.00705(13) 0.28099(14)
H12 H 0.41550 0.04320 0.31490
H13 H 0.41620 -0.06060 0.29500
H14 H 0.35620 -0.01310 0.31360
C14 C 0.43070(9) 0.02002(15) 0.10044(17)
H15 H 0.41890 0.02510 0.01930
H16 H 0.45700 -0.03080 0.11830
H17 H 0.45170 0.07350 0.13000
C15 C 0.38841(6) 0.30913(10) 0.39231(11)
H18 H 0.38950 0.36970 0.42420
C16 C 0.37605(7) 0.24362(10) 0.48342(11)
H19 H 0.33770 0.25850 0.50600
H20 H 0.37290 0.18330 0.45260
C17 C 0.42675(7) 0.24721(11) 0.58692(12)
H21 H 0.42680 0.30570 0.62250
H22 H 0.41910 0.20260 0.64180
C18 C 0.48866(8) 0.23010(12) 0.55561(13)
H23 H 0.51990 0.23780 0.62260
H24 H 0.49060 0.16880 0.52960
C19 C 0.50069(7) 0.29340(12) 0.46315(13)
H25 H 0.53880 0.27730 0.44030
H26 H 0.50460 0.35400 0.49290
C20 C 0.44981(7) 0.29022(11) 0.35992(12)
H27 H 0.45770 0.33420 0.30450
H28 H 0.44900 0.23150 0.32490
H29 H 0.3465(7) 0.2708(11) 0.2379(12)
H30 H 0.2594(7) 0.0162(12) 0.1353(11)
#END
