
#######################################################################
#
#                 Cambridge Crystallographic Data Centre
#                                CCDC
#
#######################################################################
#
# If this CIF has been generated from an entry in the Cambridge
# Structural Database, then it will include bibliographic, chemical,
# crystal, experimental, refinement or atomic coordinate data resulting
# from the CCDC's data processing and validation procedures.
#
#######################################################################

data_CSD_CIF_FALBEB
_audit_creation_date 2012-03-05
_audit_creation_method CSD-ConQuest-V1
_database_code_CSD FALBEB
_database_code_depnum_ccdc_archive 'CCDC 864477'
_chemical_formula_sum 'C11 H11 N1 O3'
_chemical_formula_moiety
;
C11 H11 N1 O3
;
_journal_coden_Cambridge 4
_journal_volume 133
_journal_year 2011
_journal_page_first 19698
_journal_name_full 'J.Am.Chem.Soc. '
loop_
_publ_author_name
"M.Binanzer"
"Sheng-Ying Hsieh"
"J.W.Bode"
_chemical_name_systematic
;
(4aR,9aS)-4-hydroxy-4,4a,9,9a-tetrahydroindeno[2,1-b][1,4]oxazin-3(2H)-one
;
_cell_volume    926.745
_exptl_crystal_colour 'colorless'
_exptl_crystal_density_diffrn 1.478
_exptl_crystal_description 'needle'
_diffrn_ambient_temperature 100
#These two values have been output from a single CSD field.
_refine_ls_R_factor_gt 0.0436
_refine_ls_wR_factor_gt 0.0436
_symmetry_cell_setting orthorhombic
_symmetry_space_group_name_H-M 'P 21 21 21'
_symmetry_Int_Tables_number 19
loop_
_symmetry_equiv_pos_site_id
_symmetry_equiv_pos_as_xyz
1 x,y,z
2 1/2+x,1/2-y,-z
3 -x,1/2+y,1/2-z
4 1/2-x,-y,1/2+z
_cell_length_a 4.6161(4)
_cell_length_b 10.4035(8)
_cell_length_c 19.2977(13)
_cell_angle_alpha 90
_cell_angle_beta 90
_cell_angle_gamma 90
_cell_formula_units_Z 4
loop_
_atom_type_symbol
_atom_type_radius_bond
C 0.68
H 0.23
N 0.68
O 0.68
loop_
_atom_site_label
_atom_site_type_symbol
_atom_site_fract_x
_atom_site_fract_y
_atom_site_fract_z
O1 O 0.3469(6) -0.1497(2) 0.94839(14)
O2 O -0.0044(6) 0.0811(3) 1.05324(14)
O3 O 0.1357(6) 0.2268(2) 0.94372(14)
H1 H 0.323(11) 0.287(5) 0.950(2)
N1 N 0.2545(7) 0.1055(3) 0.95391(16)
C1 C 0.2803(9) -0.0959(4) 1.0146(2)
H2 H 0.116(10) -0.149(4) 1.031(2)
H3 H 0.478(10) -0.097(4) 1.044(2)
C2 C 0.1662(8) 0.0384(4) 1.0089(2)
C3 C 0.4504(8) 0.0610(4) 0.8993(2)
H4 H 0.626(11) 0.123(4) 0.894(2)
C4 C 0.5680(8) -0.0755(4) 0.9151(2)
H5 H 0.743(10) -0.070(4) 0.941(2)
C5 C 0.6238(9) -0.1345(4) 0.8438(2)
H6 H 0.832(9) -0.119(4) 0.832(2)
H7 H 0.598(9) -0.229(4) 0.848(2)
C6 C 0.4150(8) -0.0666(4) 0.7973(2)
C7 C 0.3207(9) -0.0995(4) 0.7314(2)
H8 H 0.379(9) -0.178(4) 0.7105(19)
C8 C 0.1173(10) -0.0222(4) 0.6978(2)
H9 H 0.042(10) -0.048(4) 0.654(2)
C9 C 0.0184(9) 0.0892(4) 0.7295(2)
H10 H -0.133(8) 0.135(3) 0.7039(16)
C10 C 0.1164(9) 0.1245(4) 0.7946(2)
H11 H 0.039(9) 0.198(4) 0.8135(19)
C11 C 0.3105(8) 0.0454(3) 0.8285(2)
#END
