
#######################################################################
#
#                 Cambridge Crystallographic Data Centre
#                                CCDC
#
#######################################################################
#
# If this CIF has been generated from an entry in the Cambridge
# Structural Database, then it will include bibliographic, chemical,
# crystal, experimental, refinement or atomic coordinate data resulting
# from the CCDC's data processing and validation procedures.
#
#######################################################################

data_CSD_CIF_FAMFUU
_audit_creation_date 1987-06-30
_audit_creation_method CSD-ConQuest-V1
_database_code_CSD FAMFUU
_database_code_depnum_ccdc_archive 'CCDC 1152221'
_chemical_formula_sum 'C27 H23 N1 O3'
_chemical_formula_moiety
;
C27 H23 N1 O3
;
_journal_coeditor_code "IUCr A26085"
_journal_coden_Cambridge 591
_journal_volume 42
_journal_year 1986
_journal_page_first 1361
_journal_name_full 'Acta Crystallogr.,Sect.C:Cryst.Struct.Commun. '
loop_
_publ_author_name
"P.G.Jones"
"G.M.Sheldrick"
"M.R.Edwards"
"A.J.Kirby"
_chemical_name_systematic
;
1-(4-Nitrophenyl)ethyl triphenylmethyl ether
;
_chemical_melting_point 446
_cell_volume   1067.546
_exptl_crystal_colour 'colorless'
_exptl_crystal_density_diffrn 1.27
_exptl_special_details
;
Melts with decomposition.

;
_diffrn_ambient_temperature ?
_diffrn_special_details
;
The study was carried out at room temperature,in the range 283-303K

;
#These two values have been output from a single CSD field.
_refine_ls_R_factor_gt 0.043
_refine_ls_wR_factor_gt 0.043
_symmetry_cell_setting triclinic
_symmetry_space_group_name_H-M 'P -1'
_symmetry_Int_Tables_number 2
loop_
_symmetry_equiv_pos_site_id
_symmetry_equiv_pos_as_xyz
1 x,y,z
2 -x,-y,-z
_cell_length_a 8.601(2)
_cell_length_b 9.829(3)
_cell_length_c 13.731(4)
_cell_angle_alpha 72.83(3)
_cell_angle_beta 79.76(3)
_cell_angle_gamma 75.64(3)
_cell_formula_units_Z 2
loop_
_atom_type_symbol
_atom_type_radius_bond
C 0.68
H 0.23
N 0.68
O 0.68
loop_
_atom_site_label
_atom_site_type_symbol
_atom_site_fract_x
_atom_site_fract_y
_atom_site_fract_z
O1 O 0.2867(1) 0.1582(1) 0.6503(1)
C1 C 0.3719(2) 0.0734(1) 0.7384(1)
C2 C 0.2757(2) 0.3124(1) 0.6172(1)
C3 C 0.1156(2) 0.3949(2) 0.6592(1)
C4 C 0.5548(2) 0.0645(1) 0.7121(1)
C5 C 0.6236(2) 0.1097(2) 0.6118(1)
C6 C 0.7894(2) 0.0954(2) 0.5889(1)
C7 C 0.8898(2) 0.0348(2) 0.6654(1)
C8 C 0.8235(2) -0.0150(2) 0.7648(1)
C9 C 0.6582(2) -0.0006(2) 0.7883(1)
C10 C 0.3438(2) -0.0808(1) 0.7556(1)
C11 C 0.3269(2) -0.1283(2) 0.6736(1)
C12 C 0.3021(2) -0.2668(2) 0.6882(1)
C13 C 0.2953(2) -0.3609(2) 0.7847(1)
C14 C 0.3162(2) -0.3170(2) 0.8665(1)
C15 C 0.3408(2) -0.1780(2) 0.8523(1)
C16 C 0.2962(2) 0.1360(1) 0.8302(1)
C17 C 0.3724(2) 0.2134(2) 0.8699(1)
C18 C 0.2929(2) 0.2783(2) 0.9469(1)
C19 C 0.1351(2) 0.2687(2) 0.9845(1)
C20 C 0.0580(2) 0.1919(2) 0.9460(1)
C21 C 0.1386(2) 0.1252(2) 0.8702(1)
C22 C 0.2879(2) 0.3583(1) 0.5011(1)
C23 C 0.3205(2) 0.4939(2) 0.4481(1)
C24 C 0.3212(2) 0.5444(2) 0.3429(1)
C25 C 0.2880(2) 0.4562(2) 0.2910(1)
C26 C 0.2560(2) 0.3214(2) 0.3401(1)
C27 C 0.2558(2) 0.2726(2) 0.4456(1)
N1 N 0.2849(2) 0.5107(2) 0.1791(1)
O2 O 0.3248(2) 0.6261(2) 0.1355(1)
O3 O 0.2410(2) 0.4386(2) 0.1353(1)
H1 H 0.36120 0.33490 0.64210
H2 H 0.10230 0.49660 0.62440
H3 H 0.03320 0.35630 0.64400
H4 H 0.55540 0.15150 0.55760
H5 H 0.83490 0.12790 0.51910
H6 H 1.00440 0.02740 0.64950
H7 H 0.89270 -0.06000 0.81820
H8 H 0.61390 -0.03590 0.85800
H9 H 0.33260 -0.06420 0.60560
H10 H 0.28940 -0.29760 0.63040
H11 H 0.27630 -0.45650 0.79460
H12 H 0.31360 -0.38280 0.93390
H13 H 0.35600 -0.14860 0.91010
H14 H 0.48170 0.22210 0.84360
H15 H 0.34780 0.33030 0.97430
H16 H 0.07950 0.31500 1.03710
H17 H -0.05190 0.18470 0.97170
H18 H 0.08450 0.07030 0.84490
H19 H 0.34300 0.55410 0.48540
H20 H 0.34420 0.63830 0.30690
H21 H 0.23420 0.26170 0.30210
H22 H 0.23310 0.17840 0.48100
#END
