
#######################################################################
#
#                 Cambridge Crystallographic Data Centre
#                                CCDC
#
#######################################################################
#
# If this CIF has been generated from an entry in the Cambridge
# Structural Database, then it will include bibliographic, chemical,
# crystal, experimental, refinement or atomic coordinate data resulting
# from the CCDC's data processing and validation procedures.
#
#######################################################################

data_CSD_CIF_FAMJEL
_audit_creation_date 2017-02-22
_audit_creation_method CSD-ConQuest-V1
_database_code_CSD FAMJEL
_database_code_depnum_ccdc_archive 'CCDC 1500847'
_chemical_formula_sum 'C28 H38 N4 O5'
_chemical_formula_moiety
;
C28 H38 N4 O5
;
_journal_coden_Cambridge 1490
_journal_volume 8
_journal_year 2017
_journal_page_first 14200
_journal_name_full 'Nat.Commun. '
loop_
_publ_author_name
"Sukhdev Singh"
"J.Bruffaerts"
"A.Vasseur"
"I.Marek"
_chemical_name_systematic
;
1-(5-butyl-9-(3-methoxyphenyl)-4,5-dimethylnon-6-en-2-ylidene)-2-(2,4-dinitrop
henyl)hydrazine
;
_cell_volume   2850.774
_exptl_crystal_colour 'yellow'
_exptl_crystal_density_diffrn 1.19
_exptl_crystal_description 'block'
_diffrn_ambient_temperature 200
#These two values have been output from a single CSD field.
_refine_ls_R_factor_gt 0.0578
_refine_ls_wR_factor_gt 0.0578
_symmetry_cell_setting monoclinic
_symmetry_space_group_name_H-M 'P 21/c'
_symmetry_Int_Tables_number 14
loop_
_symmetry_equiv_pos_site_id
_symmetry_equiv_pos_as_xyz
1 x,y,z
2 -x,1/2+y,1/2-z
3 -x,-y,-z
4 x,-1/2-y,-1/2+z
_cell_length_a 8.526(5)
_cell_length_b 32.6170(12)
_cell_length_c 10.373(5)
_cell_angle_alpha 90
_cell_angle_beta 98.79(2)
_cell_angle_gamma 90
_cell_formula_units_Z 4
loop_
_atom_type_symbol
_atom_type_radius_bond
C 0.68
H 0.23
N 0.68
O 0.68
loop_
_atom_site_label
_atom_site_type_symbol
_atom_site_fract_x
_atom_site_fract_y
_atom_site_fract_z
O1 O -0.2611(2) 0.07660(6) -0.32015(17)
O2 O -0.1781(2) 0.01658(5) -0.36352(16)
O3 O 0.2844(2) -0.03803(5) -0.11004(17)
O4 O 0.37741(18) -0.01380(4) 0.08034(15)
O5 O -0.0134(2) 0.11409(6) 0.46833(18)
N1 N -0.1711(2) 0.04755(6) -0.29585(18)
N2 N 0.2848(2) -0.01203(5) -0.02402(18)
N3 N 0.2907(2) 0.05905(5) 0.14886(16)
H1 H 0.35620 0.03870 0.17380
N4 N 0.2989(2) 0.09532(5) 0.22000(17)
C1 C -0.0508(2) 0.05005(6) -0.18102(19)
C2 C 0.0579(2) 0.01916(6) -0.1555(2)
H2 H 0.05510 -0.00370 -0.21270
C3 C 0.1724(2) 0.02146(6) -0.04510(19)
C4 C 0.1809(2) 0.05545(6) 0.04112(19)
C5 C 0.0652(3) 0.08663(7) 0.0095(2)
H3 H 0.06570 0.10980 0.06500
C6 C -0.0466(3) 0.08390(7) -0.0991(2)
H4 H -0.12220 0.10530 -0.11890
C7 C 0.4029(2) 0.09564(6) 0.3246(2)
C8 C 0.5062(3) 0.06018(7) 0.3724(2)
H5 H 0.44010 0.03610 0.38090
H6 H 0.56760 0.06690 0.45750
H7 H 0.57890 0.05430 0.31010
C9 C 0.4178(3) 0.13509(7) 0.3995(2)
H8 H 0.40920 0.12940 0.49190
H9 H 0.32910 0.15340 0.36420
C10 C 0.5761(3) 0.15704(6) 0.3927(2)
H10 H 0.66220 0.13660 0.42030
C11 C 0.5874(4) 0.16862(9) 0.2507(2)
H11 H 0.57320 0.14400 0.19590
H12 H 0.69180 0.18070 0.24630
H13 H 0.50440 0.18860 0.21930
C12 C 0.6051(3) 0.19388(6) 0.4908(2)
C13 C 0.4757(3) 0.22645(7) 0.4602(2)
H14 H 0.47840 0.23770 0.37290
H15 H 0.49410 0.24850 0.52480
H16 H 0.37170 0.21400 0.46320
C14 C 0.7707(3) 0.21238(7) 0.4807(2)
H17 H 0.84740 0.18950 0.48250
H18 H 0.76460 0.22600 0.39480
C15 C 0.8368(3) 0.24311(8) 0.5855(3)
H19 H 0.85250 0.22930 0.67140
H20 H 0.75840 0.26530 0.58840
C16 C 0.9943(4) 0.26182(11) 0.5618(4)
H21 H 1.07110 0.23930 0.55680
H22 H 0.97730 0.27580 0.47610
C17 C 1.0656(5) 0.29154(13) 0.6622(4)
H23 H 1.16290 0.30290 0.63690
H24 H 1.09110 0.27760 0.74640
H25 H 0.99010 0.31380 0.66950
C18 C 0.6080(3) 0.17615(6) 0.6260(2)
H26 H 0.68350 0.15500 0.65000
C19 C 0.5195(3) 0.18619(7) 0.7147(2)
H27 H 0.44880 0.20860 0.69520
C20 C 0.5204(3) 0.16555(8) 0.8428(2)
H28 H 0.55960 0.18500 0.91380
H29 H 0.59400 0.14190 0.84940
C21 C 0.3530(3) 0.15046(8) 0.8600(2)
H30 H 0.35780 0.13770 0.94710
H31 H 0.28010 0.17420 0.85560
C22 C 0.2885(3) 0.11970(7) 0.7565(2)
C23 C 0.3592(3) 0.08137(7) 0.7529(2)
H32 H 0.44580 0.07420 0.81780
C24 C 0.3050(3) 0.05399(7) 0.6568(3)
H33 H 0.35470 0.02790 0.65660
C25 C 0.1799(3) 0.06306(8) 0.5596(3)
H34 H 0.14370 0.04360 0.49350
C26 C 0.1089(3) 0.10099(8) 0.5608(2)
C27 C 0.1621(3) 0.12883(7) 0.6593(2)
H35 H 0.11090 0.15470 0.66030
C28 C -0.0641(3) 0.08710(11) 0.3619(3)
H36 H -0.14390 0.10090 0.29850
H37 H -0.11030 0.06230 0.39430
H38 H 0.02710 0.07950 0.31980
#END
