
#######################################################################
#
#                 Cambridge Crystallographic Data Centre
#                                CCDC
#
#######################################################################
#
# If this CIF has been generated from an entry in the Cambridge
# Structural Database, then it will include bibliographic, chemical,
# crystal, experimental, refinement or atomic coordinate data resulting
# from the CCDC's data processing and validation procedures.
#
#######################################################################

data_CSD_CIF_FANDUW
_audit_creation_date 2017-02-22
_audit_creation_method CSD-ConQuest-V1
_database_code_CSD FANDUW
_database_code_depnum_ccdc_archive 'CCDC 932196'
_chemical_formula_sum 'C23 H17 N3 O4'
_chemical_formula_moiety
;
C23 H17 N3 O4
;
_journal_coden_Cambridge 119
_journal_volume 1137
_journal_year 2017
_journal_page_first 267
_journal_name_full 'J.Mol.Struct. '
loop_
_publ_author_name
"E.Budzisz"
"P.Paneth"
"I.Geromino"
"T.Muziol"
"M.Rozalski"
"U.Krajewska"
"P.Pipiak"
"M.B.Ponczek"
"M.Malecka"
"B.Kupcewicz"
_chemical_name_systematic
;
4'-(4-nitrophenyl)-2-phenyl-4',5'-dihydro-4H-spiro[chromene-3,3'-pyrazol]-4-on
e
;
_cell_volume   1947.225
_exptl_crystal_colour 'colorless'
_exptl_crystal_density_diffrn 1.362
_exptl_crystal_description 'block'
_diffrn_ambient_temperature 293
#These two values have been output from a single CSD field.
_refine_ls_R_factor_gt 0.0864
_refine_ls_wR_factor_gt 0.0864
_symmetry_cell_setting monoclinic
_symmetry_space_group_name_H-M 'P 21/n'
_symmetry_Int_Tables_number 14
loop_
_symmetry_equiv_pos_site_id
_symmetry_equiv_pos_as_xyz
1 x,y,z
2 1/2-x,1/2+y,1/2-z
3 -x,-y,-z
4 -1/2+x,-1/2-y,-1/2+z
_cell_length_a 9.2308(15)
_cell_length_b 10.6659(17)
_cell_length_c 20.026(4)
_cell_angle_alpha 90
_cell_angle_beta 99.029(17)
_cell_angle_gamma 90
_cell_formula_units_Z 4
loop_
_atom_type_symbol
_atom_type_radius_bond
C 0.68
H 0.23
N 0.68
O 0.68
loop_
_atom_site_label
_atom_site_type_symbol
_atom_site_fract_x
_atom_site_fract_y
_atom_site_fract_z
O1 O 0.0852(4) 0.3589(3) 0.16055(17)
C1 C 0.1447(6) 0.4109(5) 0.1090(3)
C2 C 0.1209(7) 0.3497(6) 0.0478(3)
H1 H 0.06530 0.27670 0.04250
C3 C 0.1806(9) 0.3982(8) -0.0051(3)
H2 H 0.16680 0.35650 -0.04640
C4 C 0.2604(9) 0.5072(8) 0.0016(4)
H3 H 0.29800 0.53960 -0.03530
C5 C 0.2848(7) 0.5681(7) 0.0620(3)
H4 H 0.33980 0.64150 0.06620
C6 C 0.2285(5) 0.5219(5) 0.1177(3)
C7 C 0.2623(5) 0.5808(5) 0.1838(3)
O2 O 0.3308(4) 0.6784(3) 0.19393(19)
C8 C 0.2152(5) 0.5072(4) 0.2433(2)
N1 N 0.3365(5) 0.4102(4) 0.2581(2)
N2 N 0.4161(5) 0.4331(5) 0.3126(3)
C9 C 0.3744(6) 0.5444(6) 0.3470(3)
H5 H 0.44620 0.61040 0.34590
H6 H 0.36730 0.52560 0.39370
C10 C 0.2248(5) 0.5846(5) 0.3085(2)
H7 H 0.23080 0.67340 0.29670
C11 C 0.1004(5) 0.5691(5) 0.3492(2)
C12 C 0.0739(5) 0.4562(5) 0.3785(2)
H8 H 0.13550 0.38850 0.37470
C13 C -0.0436(6) 0.4420(5) 0.4137(3)
H9 H -0.06370 0.36510 0.43210
C14 C -0.1280(5) 0.5445(6) 0.4203(3)
C15 C -0.1028(6) 0.6587(6) 0.3943(3)
H10 H -0.16140 0.72730 0.40060
C16 C 0.0131(6) 0.6704(5) 0.3578(3)
H11 H 0.03160 0.74740 0.33910
C17 C 0.0724(5) 0.4373(5) 0.2189(2)
H12 H 0.05730 0.38010 0.25550
C18 C -0.0639(5) 0.5158(4) 0.2042(2)
C19 C -0.1986(5) 0.4564(5) 0.2039(3)
H13 H -0.20130 0.37070 0.21220
C20 C -0.3273(6) 0.5230(6) 0.1914(3)
H14 H -0.41630 0.48210 0.19110
C21 C -0.3253(6) 0.6511(6) 0.1794(3)
H15 H -0.41210 0.69680 0.17160
C22 C -0.1945(5) 0.7080(5) 0.1792(2)
H16 H -0.19240 0.79360 0.17080
C23 C -0.0652(5) 0.6432(5) 0.1911(2)
H17 H 0.02280 0.68530 0.19030
N3 N -0.2542(6) 0.5313(7) 0.4578(3)
O3 O -0.3151(5) 0.6253(6) 0.4725(3)
O4 O -0.2843(6) 0.4266(6) 0.4747(3)
#END
