
#######################################################################
#
#                 Cambridge Crystallographic Data Centre
#                                CCDC
#
#######################################################################
#
# If this CIF has been generated from an entry in the Cambridge
# Structural Database, then it will include bibliographic, chemical,
# crystal, experimental, refinement or atomic coordinate data resulting
# from the CCDC's data processing and validation procedures.
#
#######################################################################

data_CSD_CIF_FANJIO
_audit_creation_date 2005-04-18
_audit_creation_method CSD-ConQuest-V1
_database_code_CSD FANJIO
_database_code_depnum_ccdc_archive 'CCDC 251139'
_chemical_formula_sum 'C19 H27 N5 O2'
_chemical_formula_moiety
;
C19 H27 N5 O2
;
_journal_coden_Cambridge 241
_journal_volume 33
_journal_year 2004
_journal_page_first 1494
_journal_name_full 'Chem.Lett. '
loop_
_publ_author_name
"K.Hayakawa"
"D.Shiomi"
"T.Ise"
"K.Sato"
"T.Takui"
_chemical_name_systematic
;
2,6-bis(4,4,5,5-Tetramethyl-4,5-dihydro-1H-imidazol-2-yl-1-oxyl)pyridine
;
_cell_volume   3844.955
_exptl_crystal_colour 'red'
_exptl_crystal_density_diffrn 1.235
_exptl_crystal_description 'prism'
_diffrn_ambient_temperature 193.1
_refine_special_details
;
The methyl substituents of one of the imidazole ligands are each disordered 
over two sets of positions.
;
#These two values have been output from a single CSD field.
_refine_ls_R_factor_gt 0.115
_refine_ls_wR_factor_gt 0.115
_symmetry_cell_setting orthorhombic
_symmetry_space_group_name_H-M 'P b c a'
_symmetry_Int_Tables_number 61
loop_
_symmetry_equiv_pos_site_id
_symmetry_equiv_pos_as_xyz
1 x,y,z
2 1/2+x,1/2-y,-z
3 -x,1/2+y,1/2-z
4 1/2-x,-y,1/2+z
5 -x,-y,-z
6 -1/2-x,-1/2+y,z
7 x,-1/2-y,-1/2+z
8 -1/2+x,y,-1/2-z
_cell_length_a 10.3198(10)
_cell_length_b 11.9693(8)
_cell_length_c 31.128(3)
_cell_angle_alpha 90
_cell_angle_beta 90
_cell_angle_gamma 90
_cell_formula_units_Z 8
loop_
_atom_type_symbol
_atom_type_radius_bond
C 0.68
H 0.23
N 0.68
O 0.68
loop_
_atom_site_label
_atom_site_type_symbol
_atom_site_fract_x
_atom_site_fract_y
_atom_site_fract_z
O1 O 0.4777(4) 0.2813(4) 0.13285(13)
O2 O 1.0071(4) 0.4155(4) 0.11512(13)
N1 N 0.7752(4) 0.2449(4) 0.12286(13)
N2 N 0.5803(4) 0.1821(4) 0.0347(2)
N3 N 0.4910(4) 0.2574(4) 0.0936(2)
N4 N 0.9846(5) 0.2723(4) 0.2108(2)
N5 N 1.0091(5) 0.3851(4) 0.1537(2)
C1 C 0.7096(5) 0.1664(5) 0.1005(2)
C2 C 0.7412(6) 0.0542(5) 0.1008(2)
C3 C 0.8441(7) 0.0168(5) 0.1248(2)
C4 C 0.9142(6) 0.0980(5) 0.1481(2)
C5 C 0.8767(6) 0.2088(5) 0.1455(2)
C6 C 0.5948(5) 0.2036(5) 0.0748(2)
C7 C 0.4477(6) 0.2191(6) 0.0218(2)
C8 C 0.3965(7) 0.2851(7) 0.0599(2)
C9 C 0.3669(11) 0.0999(9) 0.0238(4)
C10 C 0.4439(11) 0.2564(11) -0.0213(4)
C11 C 0.2626(11) 0.2818(10) 0.0752(4)
C12 C 0.4303(13) 0.4164(11) 0.0504(4)
C13 C 0.9533(5) 0.2898(5) 0.1716(2)
C14 C 1.0864(5) 0.3562(5) 0.2232(2)
C15 C 1.0682(6) 0.4512(5) 0.1892(2)
C16 C 1.2125(7) 0.2933(7) 0.2189(2)
C17 C 1.0680(8) 0.3899(7) 0.2697(2)
C18 C 1.1951(8) 0.5050(6) 0.1750(2)
C19 C 0.9689(9) 0.5400(6) 0.2023(3)
C20? C 0.392(3) 0.146(3) -0.0098(11)
C21? C 0.471(2) 0.322(2) -0.0147(7)
C22? C 0.274(3) 0.174(3) 0.0778(10)
C23? C 0.294(3) 0.358(2) 0.0644(8)
H1 H 0.69290 0.00300 0.08380
H2 H 0.86530 -0.06030 0.12640
H3 H 0.98700 0.07660 0.16490
H4 H 1.00340 0.58410 0.22490
H5 H 0.95050 0.58650 0.17830
H6 H 0.89140 0.50480 0.21170
H7 H 1.13180 0.44380 0.27700
H8 H 0.98420 0.42130 0.27330
H9 H 1.07690 0.32650 0.28780
H10 H 1.21140 0.23070 0.23770
H11 H 1.22360 0.26840 0.19020
H12 H 1.28210 0.34130 0.22650
H13 H 1.25390 0.44840 0.16610
H14 H 1.17770 0.55350 0.15150
H15 H 1.23240 0.54660 0.19780
#END
