
#######################################################################
#
#                 Cambridge Crystallographic Data Centre
#                                CCDC
#
#######################################################################
#
# If this CIF has been generated from an entry in the Cambridge
# Structural Database, then it will include bibliographic, chemical,
# crystal, experimental, refinement or atomic coordinate data resulting
# from the CCDC's data processing and validation procedures.
#
#######################################################################

data_CSD_CIF_FAPXEZ
_audit_creation_date 1987-07-17
_audit_creation_method CSD-ConQuest-V1
_database_code_CSD FAPXEZ
_chemical_formula_sum 'C17 H15 N1 O1'
_chemical_formula_moiety
;
C17 H15 N1 O1
;
_journal_coden_Cambridge 179
_journal_volume 25
_journal_year 1986
_journal_page_first 723
_journal_name_full 'Angew.Chem.,Int.Ed. '
loop_
_publ_author_name
"E.Vogel"
"T.Schieb"
"W.H.Schulz"
"K.Schmidt"
"H.Schmickler"
"J.Lex"
_chemical_name_systematic
;
anti-1,6:7,12-Dimethano(14)annulene-2-carbaldehyde oxime
;
_chemical_melting_point 445.15
_cell_volume   1323.372
_exptl_crystal_colour 'yellow'
_exptl_crystal_density_diffrn 1.251
_exptl_special_details
;
Melting point range 445.15-446.15K

;
_diffrn_ambient_temperature ?
_diffrn_special_details
;
The study was carried out at room temperature,in the range 283-303K

;
#These two values have been output from a single CSD field.
_refine_ls_R_factor_gt 0.036
_refine_ls_wR_factor_gt 0.036
_symmetry_cell_setting monoclinic
_symmetry_space_group_name_H-M 'P 21/c'
_symmetry_Int_Tables_number 14
loop_
_symmetry_equiv_pos_site_id
_symmetry_equiv_pos_as_xyz
1 x,y,z
2 -x,1/2+y,1/2-z
3 -x,-y,-z
4 x,-1/2-y,-1/2+z
_cell_length_a 16.768(4)
_cell_length_b 6.039(1)
_cell_length_c 13.270(2)
_cell_angle_alpha 90
_cell_angle_beta 99.99(1)
_cell_angle_gamma 90
_cell_formula_units_Z 4
loop_
_atom_type_symbol
_atom_type_radius_bond
C 0.68
H 0.23
N 0.68
O 0.68
loop_
_atom_site_label
_atom_site_type_symbol
_atom_site_fract_x
_atom_site_fract_y
_atom_site_fract_z
C1 C 0.8342(1) 0.4794(3) 0.7832(1)
C2 C 0.8679(1) 0.4359(3) 0.6987(1)
C3 C 0.8428(1) 0.2483(3) 0.6322(1)
C4 C 0.7682(1) 0.1640(3) 0.6072(1)
C5 C 0.6971(1) 0.2446(3) 0.6420(1)
C6 C 0.6991(1) 0.3285(3) 0.7362(1)
C7 C 0.6412(1) 0.4796(3) 0.7723(1)
C8 C 0.5794(1) 0.4258(4) 0.8197(2)
C9 C 0.5434(1) 0.5745(5) 0.8827(2)
C10 C 0.5820(1) 0.7381(4) 0.9409(2)
C11 C 0.6664(1) 0.7941(3) 0.9523(1)
C12 C 0.7121(1) 0.7645(3) 0.8789(1)
C13 C 0.8001(1) 0.7772(3) 0.8993(1)
C14 C 0.8524(1) 0.6701(3) 0.8518(1)
C15 C 0.7770(1) 0.3087(3) 0.8100(1)
C16 C 0.6676(1) 0.7174(3) 0.7733(1)
C17 C 0.9304(1) 0.5814(4) 0.6719(1)
N1 N 0.96188(9) 0.5454(3) 0.5929(1)
O1 O 1.02043(8) 0.7042(3) 0.5815(1)
H1 H 0.8864(9) 0.199(3) 0.598(1)
H2 H 0.761(1) 0.043(3) 0.556(1)
H3 H 0.6455(9) 0.254(3) 0.597(1)
H4 H 0.5603(9) 0.264(3) 0.816(1)
H5 H 0.484(1) 0.534(3) 0.886(1)
H6 H 0.551(1) 0.809(3) 0.986(1)
H7 H 0.6948(9) 0.849(3) 1.015(1)
H8 H 0.8223(9) 0.885(3) 0.950(1)
H9 H 0.9088(9) 0.710(3) 0.865(1)
H10 H 0.8032(8) 0.164(3) 0.804(1)
H11 H 0.7659(8) 0.329(2) 0.879(1)
H12 H 0.6173(9) 0.813(3) 0.759(1)
H13 H 0.7022(8) 0.746(2) 0.720(1)
H14 H 0.9457(9) 0.708(3) 0.715(1)
H15 H 1.039(1) 0.656(3) 0.525(2)
#END
