
#######################################################################
#
#                 Cambridge Crystallographic Data Centre
#                                CCDC
#
#######################################################################
#
# If this CIF has been generated from an entry in the Cambridge
# Structural Database, then it will include bibliographic, chemical,
# crystal, experimental, refinement or atomic coordinate data resulting
# from the CCDC's data processing and validation procedures.
#
#######################################################################

data_CSD_CIF_FAQMER
_audit_creation_date 2012-03-05
_audit_creation_method CSD-ConQuest-V1
_database_code_CSD FAQMER
_database_code_depnum_ccdc_archive 'CCDC 746710'
_chemical_formula_sum 'C16 H15 N1 O6'
_chemical_formula_moiety
;
C16 H15 N1 O6
;
_journal_coden_Cambridge 694
_journal_volume 56
_journal_year 2010
_journal_page_first 523
_journal_name_full 'Wuhan Dax.Xuebao,Zir.Kex.(Chin.)(J.Wuhan U.(Nat.Sci.)) '
loop_
_publ_author_name
"Puhui Lai"
"Guanghui Tian"
"Hua Zhao"
_chemical_name_systematic
;
3-Hydroxy-1-(2-hydroxy-4-methoxyphenyl)-3-(3-nitrophenyl)propan-1-one
;
_chemical_melting_point 398.4
_cell_volume    754.126
_exptl_crystal_colour 'colorless'
_exptl_crystal_density_diffrn 1.397
_exptl_special_details
;
anti-microbial activity

;
_exptl_crystal_description 'block'
_diffrn_ambient_temperature 296
#These two values have been output from a single CSD field.
_refine_ls_R_factor_gt 0.0904
_refine_ls_wR_factor_gt 0.0904
_symmetry_cell_setting triclinic
_symmetry_space_group_name_H-M 'P -1'
_symmetry_Int_Tables_number 2
loop_
_symmetry_equiv_pos_site_id
_symmetry_equiv_pos_as_xyz
1 x,y,z
2 -x,-y,-z
_cell_length_a 6.953(4)
_cell_length_b 7.941(5)
_cell_length_c 14.098(9)
_cell_angle_alpha 101.064(8)
_cell_angle_beta 97.695(8)
_cell_angle_gamma 93.428(8)
_cell_formula_units_Z 2
loop_
_atom_type_symbol
_atom_type_radius_bond
C 0.68
H 0.23
N 0.68
O 0.68
loop_
_atom_site_label
_atom_site_type_symbol
_atom_site_fract_x
_atom_site_fract_y
_atom_site_fract_z
N1 N 0.0328(9) 0.6738(7) -0.0983(3)
O1 O 0.3507(5) 0.3642(4) 0.6397(2)
O2 O 0.3402(5) 0.9549(4) 0.6195(2)
H1 H 0.33200 1.01490 0.57800
O3 O 0.2321(6) 1.0201(4) 0.4516(2)
O4 O 0.3084(5) 0.9806(6) 0.2365(2)
H2 H 0.38230 0.97020 0.28520
O5 O 0.2056(10) 0.6599(10) -0.0875(4)
O6 O -0.0678(9) 0.6248(8) -0.1764(3)
C1 C 0.4351(8) 0.4123(7) 0.7400(4)
H3 H 0.54920 0.49020 0.74630
H4 H 0.47040 0.31130 0.76380
H5 H 0.34240 0.46780 0.77730
C2 C 0.3119(6) 0.4926(5) 0.5905(3)
C3 C 0.2405(6) 0.4375(5) 0.4909(3)
H6 H 0.22190 0.32060 0.46300
C4 C 0.1987(6) 0.5570(5) 0.4355(3)
H7 H 0.14820 0.51980 0.36970
C5 C 0.2293(5) 0.7351(5) 0.4745(3)
C6 C 0.3025(5) 0.7864(5) 0.5750(3)
C7 C 0.3418(6) 0.6662(5) 0.6332(3)
H8 H 0.38750 0.70160 0.69960
C8 C 0.1901(6) 0.8654(5) 0.4161(3)
C9 C 0.0922(7) 0.8134(5) 0.3114(3)
H9 H -0.04520 0.78270 0.31080
H10 H 0.14750 0.71160 0.28020
C10 C 0.1117(7) 0.9515(6) 0.2520(3)
H11 H 0.06920 1.05880 0.28650
C11 C -0.0126(6) 0.8960(5) 0.1540(3)
C12 C 0.0645(6) 0.8116(6) 0.0733(3)
H12 H 0.19570 0.79170 0.07910
C13 C -0.0542(7) 0.7578(6) -0.0148(3)
C14 C -0.2509(8) 0.7798(8) -0.0265(4)
H13 H -0.32970 0.74160 -0.08650
C15 C -0.3253(7) 0.8602(9) 0.0537(4)
H14 H -0.45750 0.87580 0.04840
C16 C -0.2089(7) 0.9179(7) 0.1416(4)
H15 H -0.26360 0.97340 0.19450
#END
