
#######################################################################
#
#                 Cambridge Crystallographic Data Centre
#                                CCDC
#
#######################################################################
#
# If this CIF has been generated from an entry in the Cambridge
# Structural Database, then it will include bibliographic, chemical,
# crystal, experimental, refinement or atomic coordinate data resulting
# from the CCDC's data processing and validation procedures.
#
#######################################################################

data_CSD_CIF_FAQQOD
_audit_creation_date 1999-07-19
_audit_creation_method CSD-ConQuest-V1
_database_code_CSD FAQQOD
_database_code_depnum_ccdc_archive 'CCDC 111718'
_chemical_formula_sum 'C23 H20 N4 O4'
_chemical_formula_moiety
;
C23 H20 N4 O4
;
_journal_coden_Cambridge 10
_journal_volume 82
_journal_year 1999
_journal_page_first 238
_journal_name_full 'Helv.Chim.Acta '
loop_
_publ_author_name
"D.Moya Argilagos"
"A.Linden"
"H.Heimgartner"
_chemical_name_systematic
;
3-((4-Methoxyphenyl)amino)-7-methoxy-N-phenylquinoxaline-2-carboxamide 1-oxide
;
_chemical_melting_point 471
_cell_volume   1989.258
_exptl_crystal_colour 'dark lilac'
_exptl_crystal_density_diffrn 1.39
_exptl_special_details
;
Melting point range 471-472K

;
_exptl_crystal_description 'prism'
_exptl_crystal_preparation 'dideuterodichloromethane'
_diffrn_ambient_temperature 173
#These two values have been output from a single CSD field.
_refine_ls_R_factor_gt 0.0448
_refine_ls_wR_factor_gt 0.0448
_symmetry_cell_setting monoclinic
_symmetry_space_group_name_H-M 'P 21/n'
_symmetry_Int_Tables_number 14
loop_
_symmetry_equiv_pos_site_id
_symmetry_equiv_pos_as_xyz
1 x,y,z
2 1/2+x,1/2-y,1/2+z
3 -x,-y,-z
4 -1/2-x,-1/2+y,-1/2-z
_cell_length_a 13.239(2)
_cell_length_b 6.860(2)
_cell_length_c 22.374(2)
_cell_angle_alpha 90
_cell_angle_beta 101.772(8)
_cell_angle_gamma 90
_cell_formula_units_Z 4
loop_
_atom_type_symbol
_atom_type_radius_bond
C 0.68
H 0.23
N 0.68
O 0.68
loop_
_atom_site_label
_atom_site_type_symbol
_atom_site_fract_x
_atom_site_fract_y
_atom_site_fract_z
O1 O 0.9132(1) 0.7805(2) 0.01760(5)
O2 O 1.2452(1) 0.5989(2) 0.15346(6)
O3 O 0.81272(9) 0.9042(2) -0.16397(6)
O4 O 1.2094(1) 0.8731(2) -0.37042(6)
N1 N 0.9773(1) 0.7765(2) -0.01974(6)
N2 N 1.0015(1) 0.8519(3) -0.17677(7)
N3 N 1.1255(1) 0.7656(2) -0.09255(7)
N4 N 0.7676(1) 0.8438(3) -0.07280(7)
C1 C 0.9477(1) 0.8157(3) -0.08027(8)
C2 C 1.0285(1) 0.8098(3) -0.11629(8)
C3 C 1.1504(1) 0.7245(3) -0.03189(8)
C4 C 1.2540(1) 0.6749(3) -0.00486(9)
C5 C 1.2813(2) 0.6373(3) 0.05617(9)
C6 C 1.2072(2) 0.6428(3) 0.09360(8)
C7 C 1.1059(2) 0.6871(3) 0.06941(8)
C8 C 1.0791(1) 0.7286(3) 0.00660(8)
C9 C 0.8363(1) 0.8595(3) -0.10901(8)
C10 C 0.6590(1) 0.8648(3) -0.08800(9)
C11 C 0.6074(2) 0.8155(3) -0.04143(9)
C12 C 0.5009(2) 0.8337(3) -0.0511(1)
C13 C 0.4454(2) 0.9010(3) -0.1066(1)
C14 C 0.4971(2) 0.9500(3) -0.1525(1)
C15 C 0.6040(2) 0.9327(3) -0.1435(1)
C16 C 1.0624(1) 0.8507(3) -0.22227(8)
C17 C 1.0164(2) 0.9358(3) -0.27824(9)
C18 C 1.0672(2) 0.9393(3) -0.32622(9)
C19 C 1.1652(1) 0.8591(3) -0.31965(8)
C20 C 1.2115(2) 0.7748(3) -0.26499(8)
C21 C 1.1603(2) 0.7701(3) -0.21610(9)
C22 C 1.3097(2) 0.7879(4) -0.3654(1)
C23 C 1.1737(2) 0.6053(4) 0.1941(1)
H1 H 0.932(2) 0.889(3) -0.1896(9)
H2 H 1.307(1) 0.665(3) -0.0336(9)
H3 H 1.349(1) 0.605(3) 0.0777(9)
H4 H 1.051(1) 0.691(3) 0.0922(8)
H5 H 0.799(2) 0.813(3) -0.0349(9)
H6 H 0.647(1) 0.769(3) 0.0012(8)
H7 H 0.467(1) 0.798(3) -0.0171(9)
H8 H 0.371(2) 0.909(3) -0.1108(9)
H9 H 0.457(2) 0.996(3) -0.1922(9)
H10 H 0.637(1) 0.969(3) -0.1745(8)
H11 H 0.947(1) 0.989(3) -0.2852(8)
H12 H 1.035(1) 1.001(3) -0.3637(8)
H13 H 1.279(1) 0.720(3) -0.2577(8)
H14 H 1.192(1) 0.712(3) -0.1785(8)
H15 H 1.307(2) 0.649(4) -0.362(1)
H16 H 1.365(2) 0.846(3) -0.331(1)
H17 H 1.329(1) 0.814(3) -0.4071(9)
H18 H 1.115(2) 0.505(3) 0.1834(9)
H19 H 1.143(2) 0.734(3) 0.1962(9)
H20 H 1.216(2) 0.571(3) 0.2347(9)
#END
