
#######################################################################
#
#                 Cambridge Crystallographic Data Centre
#                                CCDC
#
#######################################################################
#
# If this CIF has been generated from an entry in the Cambridge
# Structural Database, then it will include bibliographic, chemical,
# crystal, experimental, refinement or atomic coordinate data resulting
# from the CCDC's data processing and validation procedures.
#
#######################################################################

data_CSD_CIF_FAQQIX
_audit_creation_date 1999-07-19
_audit_creation_method CSD-ConQuest-V1
_database_code_CSD FAQQIX
_database_code_depnum_ccdc_archive 'CCDC 111717'
_chemical_formula_sum 'C21 H16 N4 O2'
_chemical_formula_moiety
;
C21 H16 N4 O2
;
_journal_coden_Cambridge 10
_journal_volume 82
_journal_year 1999
_journal_page_first 238
_journal_name_full 'Helv.Chim.Acta '
loop_
_publ_author_name
"D.Moya Argilagos"
"A.Linden"
"H.Heimgartner"
_chemical_name_systematic
;
N-Phenyl-3-(phenylamino)quinoxaline-2-carboxamide 1-oxide
;
_chemical_melting_point 454
_cell_volume   1662.216
_exptl_crystal_colour 'red'
_exptl_crystal_density_diffrn 1.424
_exptl_crystal_description 'prism'
_exptl_crystal_preparation 'dichloromethane'
_diffrn_ambient_temperature 173
#These two values have been output from a single CSD field.
_refine_ls_R_factor_gt 0.0386
_refine_ls_wR_factor_gt 0.0386
_symmetry_cell_setting orthorhombic
_symmetry_space_group_name_H-M 'P n a 21'
_symmetry_Int_Tables_number 33
loop_
_symmetry_equiv_pos_site_id
_symmetry_equiv_pos_as_xyz
1 x,y,z
2 -x,-y,1/2+z
3 1/2-x,1/2+y,1/2+z
4 1/2+x,1/2-y,z
_cell_length_a 8.074(2)
_cell_length_b 18.697(2)
_cell_length_c 11.011(2)
_cell_angle_alpha 90
_cell_angle_beta 90
_cell_angle_gamma 90
_cell_formula_units_Z 4
loop_
_atom_type_symbol
_atom_type_radius_bond
C 0.68
H 0.23
N 0.68
O 0.68
loop_
_atom_site_label
_atom_site_type_symbol
_atom_site_fract_x
_atom_site_fract_y
_atom_site_fract_z
O1 O 0.1253(2) 0.39179(7) -0.08265
O2 O 0.1724(2) 0.17358(7) -0.1045(2)
N1 N 0.0539(2) 0.35020(8) -0.0034(2)
N2 N -0.0273(2) 0.16531(9) 0.0770(2)
N3 N -0.1129(2) 0.26945(8) 0.1733(2)
N4 N 0.2469(2) 0.28107(9) -0.1824(2)
C1 C 0.0644(3) 0.27760(9) -0.0071(2)
C2 C -0.0279(2) 0.2384(1) 0.0862(2)
C3 C -0.1146(3) 0.3427(1) 0.1766(2)
C4 C -0.1995(3) 0.3777(1) 0.2713(2)
C5 C -0.2028(3) 0.4513(1) 0.2776(2)
C6 C -0.1223(3) 0.4922(1) 0.1886(2)
C7 C -0.0400(3) 0.4603(1) 0.0938(2)
C8 C -0.0352(3) 0.3849(1) 0.0899(2)
C9 C 0.1661(3) 0.2397(1) -0.1031(2)
C10 C 0.3382(3) 0.2601(1) -0.2874(2)
C11 C 0.3956(3) 0.3161(1) -0.3600(2)
C12 C 0.4803(3) 0.3019(1) -0.4659(2)
C13 C 0.5074(3) 0.2314(1) -0.5021(2)
C14 C 0.4521(3) 0.1763(1) -0.4289(2)
C15 C 0.3688(3) 0.1895(1) -0.3202(2)
C16 C -0.0965(2) 0.1135(1) 0.1555(2)
C17 C -0.0790(3) 0.0425(1) 0.1161(2)
C18 C -0.1350(3) -0.0135(1) 0.1880(3)
C19 C -0.2092(3) -0.0002(1) 0.2999(3)
C20 C -0.2280(3) 0.0698(1) 0.3370(2)
C21 C -0.1739(3) 0.1270(1) 0.2664(2)
H1 H 0.037(2) 0.1487(9) 0.013(2)
H2 H -0.258(3) 0.350(1) 0.334(2)
H3 H -0.258(2) 0.473(1) 0.345(2)
H4 H -0.123(3) 0.544(1) 0.196(2)
H5 H 0.018(3) 0.490(1) 0.030(2)
H6 H 0.237(2) 0.325(1) -0.171(2)
H7 H 0.374(2) 0.367(1) -0.333(2)
H8 H 0.527(3) 0.342(1) -0.517(2)
H9 H 0.569(3) 0.221(1) -0.578(2)
H10 H 0.477(3) 0.123(1) -0.451(2)
H11 H 0.326(2) 0.151(1) -0.268(2)
H12 H -0.028(3) 0.033(1) 0.035(2)
H13 H -0.121(3) -0.065(1) 0.159(2)
H14 H -0.243(3) -0.044(1) 0.348(2)
H15 H -0.285(3) 0.079(1) 0.417(2)
H16 H -0.191(3) 0.174(1) 0.295(2)
#END
