
#######################################################################
#
#                 Cambridge Crystallographic Data Centre
#                                CCDC
#
#######################################################################
#
# If this CIF has been generated from an entry in the Cambridge
# Structural Database, then it will include bibliographic, chemical,
# crystal, experimental, refinement or atomic coordinate data resulting
# from the CCDC's data processing and validation procedures.
#
#######################################################################

data_CSD_CIF_FAQRAQ
_audit_creation_date 1999-07-19
_audit_creation_method CSD-ConQuest-V1
_database_code_CSD FAQRAQ
_database_code_depnum_ccdc_archive 'CCDC 111720'
_chemical_formula_sum 'C21 H15 N5 O4'
_chemical_formula_moiety
;
C21 H15 N5 O4
;
_journal_coden_Cambridge 10
_journal_volume 82
_journal_year 1999
_journal_page_first 238
_journal_name_full 'Helv.Chim.Acta '
loop_
_publ_author_name
"D.M.Argilagos"
"A.Linden"
"H.Heimgartner"
_chemical_name_systematic
;
4-((4-Nitrophenyl)amino)-2-(phenylamino)-3-nitroquinoline
;
_chemical_melting_point 458
_cell_volume    893.477
_exptl_crystal_colour 'wine red'
_exptl_crystal_density_diffrn 1.492
_exptl_special_details
;
Melting point range 458-459K

;
_exptl_crystal_description 'plate'
_exptl_crystal_preparation 'dideuterodichloromethane'
_diffrn_ambient_temperature 173
#These two values have been output from a single CSD field.
_refine_ls_R_factor_gt 0.0409
_refine_ls_wR_factor_gt 0.0409
_symmetry_cell_setting triclinic
_symmetry_space_group_name_H-M 'P -1'
_symmetry_Int_Tables_number 2
loop_
_symmetry_equiv_pos_site_id
_symmetry_equiv_pos_as_xyz
1 x,y,z
2 -x,-y,-z
_cell_length_a 9.958(2)
_cell_length_b 10.008(3)
_cell_length_c 9.841(3)
_cell_angle_alpha 104.27(2)
_cell_angle_beta 109.23(2)
_cell_angle_gamma 90.28(2)
_cell_formula_units_Z 2
loop_
_atom_type_symbol
_atom_type_radius_bond
C 0.68
H 0.23
N 0.68
O 0.68
loop_
_atom_site_label
_atom_site_type_symbol
_atom_site_fract_x
_atom_site_fract_y
_atom_site_fract_z
O1 O 0.1313(1) 0.9925(1) 0.1066(1)
O2 O 0.2484(1) 1.0115(1) 0.3400(1)
O3 O 0.0614(1) 0.3754(1) 0.1326(1)
O4 O 0.2201(1) 0.3322(1) 0.3260(1)
N1 N 0.5042(2) 1.1970(1) 0.1096(2)
N2 N 0.2573(2) 1.1712(2) 0.0084(2)
N3 N 0.2442(2) 1.0137(1) 0.2135(2)
N4 N 0.5091(2) 0.8996(1) 0.3499(2)
N5 N 0.1741(2) 0.4060(2) 0.2396(2)
C1 C 0.3816(2) 1.1386(2) 0.1005(2)
C2 C 0.3771(2) 1.0446(2) 0.1909(2)
C3 C 0.5024(2) 0.9966(2) 0.2691(2)
C4 C 0.6353(2) 1.0552(2) 0.2723(2)
C5 C 0.7698(2) 1.0146(2) 0.3466(2)
C6 C 0.8930(2) 1.0801(2) 0.3512(2)
C7 C 0.8873(2) 1.1882(2) 0.2821(2)
C8 C 0.7588(2) 1.2271(2) 0.2063(2)
C9 C 0.6292(2) 1.1600(2) 0.1969(2)
C10 C 0.2361(2) 1.2553(2) -0.0924(2)
C11 C 0.3427(2) 1.3354(2) -0.1070(2)
C12 C 0.3072(2) 1.4064(2) -0.2174(2)
C13 C 0.1683(2) 1.4004(2) -0.3124(2)
C14 C 0.0616(2) 1.3238(2) -0.2944(2)
C15 C 0.0943(2) 1.2528(2) -0.1848(2)
C16 C 0.4193(2) 0.7801(2) 0.3181(2)
C17 C 0.4421(2) 0.7119(2) 0.4312(2)
C18 C 0.3618(2) 0.5893(2) 0.4052(2)
C19 C 0.2584(2) 0.5357(2) 0.2659(2)
C20 C 0.2340(2) 0.6009(2) 0.1522(2)
C21 C 0.3152(2) 0.7230(2) 0.1782(2)
H1 H 0.181(2) 1.121(2) -0.001(2)
H2 H 0.589(2) 0.907(2) 0.424(2)
H3 H 0.775(2) 0.935(2) 0.392(2)
H4 H 0.983(2) 1.052(2) 0.399(2)
H5 H 0.977(2) 1.233(2) 0.286(2)
H6 H 0.754(2) 1.301(2) 0.158(2)
H7 H 0.439(2) 1.337(2) -0.046(2)
H8 H 0.379(2) 1.461(2) -0.227(2)
H9 H 0.143(2) 1.451(2) -0.395(2)
H10 H -0.038(2) 1.318(2) -0.359(2)
H11 H 0.021(2) 1.198(2) -0.175(2)
H12 H 0.518(2) 0.749(2) 0.526(2)
H13 H 0.376(2) 0.539(2) 0.482(2)
H14 H 0.164(2) 0.562(2) 0.057(2)
H15 H 0.303(2) 0.764(2) 0.100(2)
#END
