
#######################################################################
#
#                 Cambridge Crystallographic Data Centre
#                                CCDC
#
#######################################################################
#
# If this CIF has been generated from an entry in the Cambridge
# Structural Database, then it will include bibliographic, chemical,
# crystal, experimental, refinement or atomic coordinate data resulting
# from the CCDC's data processing and validation procedures.
#
#######################################################################

data_CSD_CIF_FARNAO
_audit_creation_date 2005-04-18
_audit_creation_method CSD-ConQuest-V1
_database_code_CSD FARNAO
_database_code_depnum_ccdc_archive 'CCDC 259552'
_chemical_formula_sum 'C25 H24 N2 O11'
_chemical_formula_moiety
;
C25 H24 N2 O11
;
_journal_coden_Cambridge 200
_journal_volume 69
_journal_year 2004
_journal_page_first 757
_journal_name_full 'Steroids '
loop_
_publ_author_name
"G.H.Posner"
"Heung Bae Jeon"
"A.Sarjeant"
"E.S.Riccio"
"R.S.Doppalapudi"
"I.M.Kapetanovic"
"U.Saha"
"P.Dolan"
"T.W.Kensler"
_chemical_name_systematic
;
(1\b,5\a-2-(Methoxycarbonyl)-5-((methoxy(phenyl)acetyl)oxy)-cyclohex-2-en-1-yl
)methyl 3,5-dinitrobenzoate
;
_chemical_melting_point 379.15
_cell_volume   2485.986
_exptl_crystal_colour 'colorless'
_exptl_crystal_density_diffrn 1.412
_exptl_special_details
;
Melting point range 379.15-379.65K

;
_exptl_crystal_description 'plate'
_exptl_crystal_preparation 'ethyl acetate/hexanes'
_diffrn_ambient_temperature 110
#These two values have been output from a single CSD field.
_refine_ls_R_factor_gt 0.0427
_refine_ls_wR_factor_gt 0.0427
_symmetry_cell_setting orthorhombic
_symmetry_space_group_name_H-M 'P 21 21 21'
_symmetry_Int_Tables_number 19
loop_
_symmetry_equiv_pos_site_id
_symmetry_equiv_pos_as_xyz
1 x,y,z
2 1/2-x,-y,1/2+z
3 -x,1/2+y,1/2-z
4 1/2+x,1/2-y,-z
_cell_length_a 7.7434(7)
_cell_length_b 9.4129(8)
_cell_length_c 34.107(2)
_cell_angle_alpha 90
_cell_angle_beta 90
_cell_angle_gamma 90
_cell_formula_units_Z 4
loop_
_atom_type_symbol
_atom_type_radius_bond
C 0.68
H 0.23
N 0.68
O 0.68
loop_
_atom_site_label
_atom_site_type_symbol
_atom_site_fract_x
_atom_site_fract_y
_atom_site_fract_z
C1 C 0.5068(2) 0.98226(16) 0.16518(5)
H1 H 0.39640 0.97060 0.15030
C2 C 0.6267(2) 1.07266(18) 0.13975(5)
H2 H 0.67260 1.01410 0.11800
H3 H 0.56050 1.15240 0.12820
C3 C 0.7744(2) 1.13066(18) 0.16355(5)
H4 H 0.84160 1.05070 0.17540
C4 C 0.7114(2) 1.22978(18) 0.19542(5)
H5 H 0.80420 1.24340 0.21500
H6 H 0.68420 1.32360 0.18380
C5 C 0.5545(2) 1.17212(17) 0.21525(5)
H7 H 0.51670 1.21790 0.23850
C6 C 0.4637(2) 1.06115(17) 0.20262(5)
O1 O 0.88487(15) 1.21221(12) 0.13721(4)
C7 C 1.0409(2) 1.16275(18) 0.12931(5)
O2 O 1.10418(19) 1.06115(17) 0.14499(5)
C8 C 1.1286(2) 1.25294(17) 0.09785(5)
H8 H 1.05730 1.24990 0.07340
O3 O 1.29582(16) 1.19984(12) 0.08932(3)
C9 C 1.2921(3) 1.07031(19) 0.06723(6)
H9 H 1.41060 1.03850 0.06220
H10 H 1.23290 1.08660 0.04220
H11 H 1.23040 0.99730 0.08220
C10 C 1.1417(2) 1.40493(17) 0.11166(5)
C11 C 1.2203(2) 1.4363(2) 0.14730(5)
H12 H 1.27280 1.36260 0.16210
C12 C 1.2224(3) 1.5740(2) 0.16135(6)
H13 H 1.27730 1.59460 0.18560
C13 C 1.1445(3) 1.6823(2) 0.14008(7)
H14 H 1.14420 1.77670 0.14990
C14 C 1.0675(3) 1.6521(2) 0.10449(6)
H15 H 1.01510 1.72600 0.08970
C15 C 1.0666(2) 1.51346(18) 0.09031(6)
H16 H 1.01400 1.49320 0.06580
C16 C 0.3038(2) 1.01431(18) 0.22325(5)
O4 O 0.24402(16) 0.89621(12) 0.22090(4)
O5 O 0.23193(17) 1.11873(13) 0.24441(4)
C17 C 0.0771(2) 1.0821(2) 0.26571(6)
H17 H 0.03550 1.16550 0.28010
H18 H 0.10260 1.00540 0.28430
H19 H -0.01190 1.05050 0.24720
C18 C 0.5806(2) 0.83413(16) 0.17153(5)
H20 H 0.70170 0.83890 0.18080
H21 H 0.51110 0.78030 0.19080
O6 O 0.57055(17) 0.76936(11) 0.13291(3)
C19 C 0.6091(2) 0.63219(17) 0.12980(5)
O7 O 0.66873(17) 0.56057(13) 0.15556(4)
C20 C 0.5658(2) 0.57934(17) 0.08966(5)
C21 C 0.4705(2) 0.66224(18) 0.06363(5)
H22 H 0.43610 0.75590 0.07050
C22 C 0.4272(2) 0.60556(18) 0.02771(5)
C23 C 0.4725(2) 0.46982(17) 0.01616(5)
H23 H 0.43860 0.43170 -0.00850
C24 C 0.5701(2) 0.39304(17) 0.04255(5)
C25 C 0.6180(2) 0.44339(17) 0.07904(5)
H24 H 0.68480 0.38660 0.09640
N1 N 0.3302(2) 0.69406(17) -0.00032(5)
O8 O 0.2825(3) 0.81055(16) 0.01085(5)
O9 O 0.3043(2) 0.64755(15) -0.03308(4)
N2 N 0.6249(2) 0.24968(15) 0.03094(4)
O10 O 0.5652(2) 0.19921(12) 0.00064(4)
O11 O 0.72912(18) 0.18818(12) 0.05220(4)
#END
