
#######################################################################
#
#                 Cambridge Crystallographic Data Centre
#                                CCDC
#
#######################################################################
#
# If this CIF has been generated from an entry in the Cambridge
# Structural Database, then it will include bibliographic, chemical,
# crystal, experimental, refinement or atomic coordinate data resulting
# from the CCDC's data processing and validation procedures.
#
#######################################################################

data_CSD_CIF_FASJUF
_audit_creation_date 2005-04-18
_audit_creation_method CSD-ConQuest-V1
_database_code_CSD FASJUF
_database_code_depnum_ccdc_archive 'CCDC 169844'
_chemical_formula_sum 'C15 H15 N1 O6'
_chemical_formula_moiety
;
C15 H15 N1 O6
;
_journal_coden_Cambridge 504
_journal_volume 57
_journal_year 2002
_journal_page_first 453
_journal_name_full 'Pharmazie '
loop_
_publ_author_name
"K.Gorlitzer"
"J.Fabian"
"P.G.Jones"
_chemical_name_systematic
;
(6Z)-(3aS,6aR)-2,2,6a-Trimethyl-6-(2-nitrobenzylidene)-3a,5,6,6a-tetrahydrofur
o(2,3-d)(1,3)dioxol-5-one
;
_cell_volume   1394.216
_exptl_crystal_colour 'colorless'
_exptl_crystal_density_diffrn 1.454
_exptl_crystal_description 'tablet'
_diffrn_ambient_temperature 143
#These two values have been output from a single CSD field.
_refine_ls_R_factor_gt 0.0374
_refine_ls_wR_factor_gt 0.0374
_symmetry_cell_setting monoclinic
_symmetry_space_group_name_H-M 'P 21/c'
_symmetry_Int_Tables_number 14
loop_
_symmetry_equiv_pos_site_id
_symmetry_equiv_pos_as_xyz
1 x,y,z
2 -x,1/2+y,1/2-z
3 -x,-y,-z
4 x,-1/2-y,-1/2+z
_cell_length_a 10.3547(11)
_cell_length_b 15.0298(14)
_cell_length_c 10.179(1)
_cell_angle_alpha 90
_cell_angle_beta 118.345(3)
_cell_angle_gamma 90
_cell_formula_units_Z 4
loop_
_atom_type_symbol
_atom_type_radius_bond
C 0.68
H 0.23
N 0.68
O 0.68
loop_
_atom_site_label
_atom_site_type_symbol
_atom_site_fract_x
_atom_site_fract_y
_atom_site_fract_z
O1 O 0.45489(8) 0.57802(4) 0.73301(8)
C1 C 0.42109(11) 0.67084(6) 0.72536(11)
O2 O 0.29718(8) 0.67476(5) 0.75425(8)
C2 C 0.21874(11) 0.59630(6) 0.7050(1)
H1 H 0.18590 0.57480 0.77730
O3 O 0.09348(8) 0.60708(5) 0.55603(8)
C3 C 0.10476(11) 0.55427(7) 0.45346(11)
C4 C 0.24437(10) 0.50408(6) 0.52612(10)
C5 C 0.32317(10) 0.52794(6) 0.69008(10)
C6 C 0.29397(11) 0.45157(6) 0.45467(11)
H2 H 0.39460 0.43530 0.50610
C7 C 0.20462(11) 0.41620(6) 0.30054(11)
C8 C 0.19584(11) 0.44963(6) 0.16890(11)
C9 C 0.11038(11) 0.40992(7) 0.03040(12)
H3 H 0.10570 0.43500 -0.05740
C10 C 0.03241(12) 0.33356(8) 0.02241(12)
H4 H -0.02700 0.30610 -0.07140
C11 C 0.04117(13) 0.29712(8) 0.15159(14)
H5 H -0.01090 0.24410 0.14650
C12 C 0.12615(13) 0.33818(8) 0.28876(12)
H6 H 0.13100 0.31260 0.37640
C13 C 0.35753(11) 0.44795(7) 0.79239(11)
H7 H 0.43480 0.41230 0.78830
H8 H 0.26900 0.41160 0.76000
H9 H 0.39090 0.46830 0.89500
C14 C 0.38254(13) 0.71029(7) 0.57390(12)
H10 H 0.46850 0.70760 0.55760
H11 H 0.35240 0.77240 0.57060
H12 H 0.30190 0.67630 0.49570
C15 C 0.54938(12) 0.71763(7) 0.85072(12)
H13 H 0.57420 0.68790 0.94540
H14 H 0.52320 0.77970 0.85570
H15 H 0.63410 0.71570 0.83240
N1 N 0.27573(9) 0.53085(6) 0.17104(9)
O4 O 0.01169(9) 0.55541(5) 0.32422(8)
O5 O 0.27075(10) 0.55567(6) 0.05392(9)
O6 O 0.34390(9) 0.57077(5) 0.28987(9)
#END
