
#######################################################################
#
#                 Cambridge Crystallographic Data Centre
#                                CCDC
#
#######################################################################
#
# If this CIF has been generated from an entry in the Cambridge
# Structural Database, then it will include bibliographic, chemical,
# crystal, experimental, refinement or atomic coordinate data resulting
# from the CCDC's data processing and validation procedures.
#
#######################################################################

data_CSD_CIF_FASRUP
_audit_creation_date 2017-02-23
_audit_creation_method CSD-ConQuest-V1
_database_code_CSD FASRUP
_database_code_depnum_ccdc_archive 'CCDC 946067'
_chemical_formula_sum 'C16 H13 N1 O3'
_chemical_formula_moiety
;
C16 H13 N1 O3
;
_journal_coden_Cambridge 1489
_journal_volume 607
_journal_year 2015
_journal_page_first 200
_journal_name_full 'Mol.Cryst.Liq.Cryst. '
loop_
_publ_author_name
"S.R.Prabhu"
"A.Jayarama"
"V.Upadhyaya"
"K.Subrahmanya Bhat"
"Seik Weng Ng"
_chemical_name_systematic
;
(2E)-3-(2-methylphenyl)-1-(4-nitrophenyl)prop-2-en-1-one
;
_chemical_melting_point 413
_cell_volume   1312.578
_exptl_crystal_colour 'pale yellow'
_exptl_crystal_density_diffrn 1.352
_exptl_special_details
;
Heat-sensitive

;
_exptl_crystal_description 'Needle'
_diffrn_ambient_temperature 295
#These two values have been output from a single CSD field.
_refine_ls_R_factor_gt 0.0598
_refine_ls_wR_factor_gt 0.0598
_symmetry_cell_setting orthorhombic
_symmetry_space_group_name_H-M 'P c a 21'
_symmetry_Int_Tables_number 29
loop_
_symmetry_equiv_pos_site_id
_symmetry_equiv_pos_as_xyz
1 x,y,z
2 -x,-y,1/2+z
3 1/2+x,-y,z
4 1/2-x,y,1/2+z
_cell_length_a 29.905(4)
_cell_length_b 4.8241(5)
_cell_length_c 9.0984(10)
_cell_angle_alpha 90
_cell_angle_beta 90
_cell_angle_gamma 90
_cell_formula_units_Z 4
loop_
_atom_type_symbol
_atom_type_radius_bond
C 0.68
H 0.23
N 0.68
O 0.68
loop_
_atom_site_label
_atom_site_type_symbol
_atom_site_fract_x
_atom_site_fract_y
_atom_site_fract_z
O1 O 0.56818(10) 0.9099(8) 0.4996(4)
O2 O 0.72980(14) 0.0508(8) 0.7621(5)
O3 O 0.77803(11) 0.2203(9) 0.6119(6)
N1 N 0.74087(14) 0.2116(8) 0.6643(5)
C1 C 0.64241(12) 0.7586(7) 0.4993(4)
C2 C 0.63362(14) 0.5866(8) 0.6186(4)
H1 H 0.60550 0.59130 0.66230
C3 C 0.66574(14) 0.4092(8) 0.6735(5)
H2 H 0.65960 0.29510 0.75350
C4 C 0.70700(14) 0.4055(8) 0.6070(5)
C5 C 0.71691(14) 0.5726(9) 0.4900(5)
H3 H 0.74510 0.56690 0.44710
C6 C 0.68438(13) 0.7508(9) 0.4359(5)
H4 H 0.69090 0.86560 0.35660
C7 C 0.60524(13) 0.9404(8) 0.4454(5)
C8 C 0.61306(14) 1.1411(7) 0.3288(5)
H5 H 0.64160 1.15980 0.28980
C9 C 0.57991(14) 1.2990(8) 0.2766(5)
H6 H 0.55200 1.26940 0.31900
C10 C 0.58143(13) 1.5101(8) 0.1632(4)
C11 C 0.62185(15) 1.5795(9) 0.0958(5)
H7 H 0.64800 1.49000 0.12470
C12 C 0.62376(16) 1.7793(10) -0.0131(5)
H8 H 0.65080 1.82020 -0.05840
C13 C 0.58526(17) 1.9181(10) -0.0546(5)
H9 H 0.58640 2.05480 -0.12650
C14 C 0.54539(16) 1.8523(9) 0.0113(5)
H10 H 0.51950 1.94370 -0.01830
C15 C 0.54258(13) 1.6523(8) 0.1216(5)
C16 C 0.49800(15) 1.5947(11) 0.1921(6)
H11 H 0.47600 1.71980 0.15320
H12 H 0.50030 1.62020 0.29640
H13 H 0.48920 1.40720 0.17150
#END
