
#######################################################################
#
#                 Cambridge Crystallographic Data Centre
#                                CCDC
#
#######################################################################
#
# If this CIF has been generated from an entry in the Cambridge
# Structural Database, then it will include bibliographic, chemical,
# crystal, experimental, refinement or atomic coordinate data resulting
# from the CCDC's data processing and validation procedures.
#
#######################################################################

data_CSD_CIF_FASXOO
_audit_creation_date 2012-11-07
_audit_creation_method CSD-ConQuest-V1
_database_code_CSD FASXOO
_database_code_depnum_ccdc_archive 'CCDC 846934'
_database_code_depnum_ccdc_journal 1267/3721
_chemical_formula_sum 'C18 H20 N2 O4'
_chemical_formula_moiety
;
C18 H20 N2 O4
;
_journal_coden_Cambridge 1267
_journal_volume 227
_journal_year 2012
_journal_page_first 171
_journal_name_full 'Z.Kristallogr.-New Cryst.Struct. '
loop_
_publ_author_name
"Wen-Kui Dong"
"Jiao Wang"
"Lan-Qin Chai"
"Li Zhao"
"Yu-Hua Yang"
"Li Wang"
"Jia Zhang"
_chemical_name_systematic
;
4,4'-(3,8-Dioxa-2,9-diazadeca-1,9-diene-1,10-diyl)diphenol
;
_chemical_melting_point 424
_cell_volume    849.873
_exptl_crystal_colour 'colorless'
_exptl_crystal_density_diffrn 1.283
_exptl_special_details
;
Melting point range 424-425K

;
_exptl_crystal_description 'block'
_diffrn_ambient_temperature 298
#These two values have been output from a single CSD field.
_refine_ls_R_factor_gt 0.0443
_refine_ls_wR_factor_gt 0.0443
_symmetry_cell_setting monoclinic
_symmetry_space_group_name_H-M 'P 21/c'
_symmetry_Int_Tables_number 14
loop_
_symmetry_equiv_pos_site_id
_symmetry_equiv_pos_as_xyz
1 x,y,z
2 -x,1/2+y,1/2-z
3 -x,-y,-z
4 x,-1/2-y,-1/2+z
_cell_length_a 20.195(2)
_cell_length_b 5.1601(4)
_cell_length_c 8.3019(7)
_cell_angle_alpha 90
_cell_angle_beta 100.775(1)
_cell_angle_gamma 90
_cell_formula_units_Z 2
loop_
_atom_type_symbol
_atom_type_radius_bond
C 0.68
H 0.23
N 0.68
O 0.68
loop_
_atom_site_label
_atom_site_type_symbol
_atom_site_fract_x
_atom_site_fract_y
_atom_site_fract_z
N1 N 0.32482(9) 0.4202(4) 0.6189(2)
O1 O 0.39294(7) 0.4824(3) 0.6239(2)
O2 O 0.02892(7) 0.4708(3) 0.7838(2)
H1 H 0.01040 0.34740 0.73170
C1 C 0.41882(12) 0.3112(6) 0.5152(4)
H2 H 0.39520 0.33800 0.40350
H3 H 0.41240 0.13250 0.54530
C2 C 0.49322(13) 0.3679(5) 0.5282(4)
H4 H 0.51560 0.34770 0.64150
H5 H 0.51240 0.24190 0.46320
C3 C 0.29877(11) 0.5618(5) 0.7143(3)
H6 H 0.32490 0.68860 0.77560
C4 C 0.22865(10) 0.5307(4) 0.7305(3)
C5 C 0.18854(11) 0.3308(4) 0.6535(3)
H7 H 0.20690 0.21090 0.59060
C6 C 0.12217(10) 0.3082(4) 0.6689(3)
H8 H 0.09570 0.17490 0.61590
C7 C 0.09511(10) 0.4847(4) 0.7638(3)
C8 C 0.13377(10) 0.6824(4) 0.8409(3)
H9 H 0.11540 0.80100 0.90450
C9 C 0.20006(10) 0.7051(4) 0.8237(3)
H10 H 0.22610 0.84030 0.87590
N1B N 0.67518(9) 0.5798(4) 0.3811(2)
O1B O 0.60706(7) 0.5176(3) 0.3761(2)
O2B O 0.97108(7) 0.5292(3) 0.2162(2)
H1B H 0.98960 0.65260 0.26830
C1B C 0.58118(12) 0.6888(6) 0.4848(4)
H2B H 0.60480 0.66200 0.59650
H3B H 0.58760 0.86750 0.45470
C2B C 0.50678(13) 0.6321(5) 0.4718(4)
H4B H 0.48440 0.65230 0.35850
H5B H 0.48760 0.75810 0.53680
C3B C 0.70123(11) 0.4382(5) 0.2857(3)
H6B H 0.67510 0.31140 0.22440
C4B C 0.77135(10) 0.4693(4) 0.2695(3)
C5B C 0.81146(11) 0.6692(4) 0.3465(3)
H7B H 0.79310 0.78910 0.40940
C6B C 0.87783(10) 0.6918(4) 0.3311(3)
H8B H 0.90430 0.82510 0.38410
C7B C 0.90489(10) 0.5153(4) 0.2362(3)
C8B C 0.86623(10) 0.3176(4) 0.1591(3)
H9B H 0.88460 0.19900 0.09550
C9B C 0.79994(10) 0.2949(4) 0.1763(3)
H10B H 0.77390 0.15970 0.12410
#END
