
#######################################################################
#
#                 Cambridge Crystallographic Data Centre
#                                CCDC
#
#######################################################################
#
# If this CIF has been generated from an entry in the Cambridge
# Structural Database, then it will include bibliographic, chemical,
# crystal, experimental, refinement or atomic coordinate data resulting
# from the CCDC's data processing and validation procedures.
#
#######################################################################

data_CSD_CIF_FASXEE
_audit_creation_date 2012-11-07
_audit_creation_method CSD-ConQuest-V1
_database_code_CSD FASXEE
_database_code_depnum_ccdc_archive 'CCDC 841908'
_database_code_depnum_ccdc_journal 1267/3667
_chemical_formula_sum 'C22 H28 N2 O6'
_chemical_formula_moiety
;
C22 H28 N2 O6
;
_journal_coden_Cambridge 1267
_journal_volume 227
_journal_year 2012
_journal_page_first 123
_journal_name_full 'Z.Kristallogr.-New Cryst.Struct. '
loop_
_publ_author_name
"Yin-Xia Sun"
"Guo-Hua Liu"
"Jiao Wang"
"Sen-Hua Liu"
"Gang Wang"
_chemical_name_systematic
;
4,4'-(3,8-Dioxa-2,9-diazadeca-1,9-diene-1,10-diyl)bis(2-ethoxyphenol)
;
_chemical_name_common
;
bis(3-ethoxy-4-hydroxybenzaldehyde) O,O'-(butane-1,4-diyl)dioxime
;
_cell_volume   2225.886
_exptl_crystal_colour 'colorless'
_exptl_crystal_density_diffrn 1.243
_exptl_crystal_description 'needle'
_diffrn_ambient_temperature 298
#These two values have been output from a single CSD field.
_refine_ls_R_factor_gt 0.0603
_refine_ls_wR_factor_gt 0.0603
_symmetry_cell_setting monoclinic
_symmetry_space_group_name_H-M 'P 21/c'
_symmetry_Int_Tables_number 14
loop_
_symmetry_equiv_pos_site_id
_symmetry_equiv_pos_as_xyz
1 x,y,z
2 -x,1/2+y,1/2-z
3 -x,-y,-z
4 x,-1/2-y,-1/2+z
_cell_length_a 5.2239(4)
_cell_length_b 14.5728(13)
_cell_length_c 29.272(2)
_cell_angle_alpha 90
_cell_angle_beta 92.714(1)
_cell_angle_gamma 90
_cell_formula_units_Z 4
loop_
_atom_type_symbol
_atom_type_radius_bond
C 0.68
H 0.23
N 0.68
O 0.68
loop_
_atom_site_label
_atom_site_type_symbol
_atom_site_fract_x
_atom_site_fract_y
_atom_site_fract_z
N1 N 0.6348(5) 0.67444(17) 0.31608(8)
N2 N 0.5461(6) 0.26290(17) 0.40338(9)
O1 O 0.6628(5) 0.58074(14) 0.30424(7)
O2 O 0.5904(5) 0.24701(13) 0.35650(7)
O3 O 0.5376(4) 1.01894(14) 0.36340(7)
O4 O 0.8717(4) 1.10700(14) 0.31223(7)
H1 H 0.76430 1.12620 0.32940
O5 O 0.4062(4) 0.37514(14) 0.56934(6)
O6 O 0.7532(4) 0.27652(14) 0.61981(6)
H2 H 0.64080 0.31160 0.62780
C1 C 0.4458(6) 0.5300(2) 0.31923(10)
H3 H 0.29080 0.54960 0.30240
H4 H 0.42450 0.54050 0.35160
C2 C 0.4950(6) 0.43000(19) 0.31058(10)
H5 H 0.66290 0.41370 0.32360
H6 H 0.49480 0.41930 0.27790
C3 C 0.2930(6) 0.3691(2) 0.33127(10)
H7 H 0.27380 0.38720 0.36280
H8 H 0.12980 0.37900 0.31480
C4 C 0.3583(7) 0.2685(2) 0.32982(11)
H9 H 0.21760 0.23330 0.34140
H10 H 0.37870 0.25030 0.29830
C5 C 0.8118(7) 0.7225(2) 0.29885(10)
H11 H 0.93340 0.69290 0.28190
C6 C 0.8305(6) 0.8222(2) 0.30471(9)
C7 C 0.6664(6) 0.8706(2) 0.33263(10)
H12 H 0.54600 0.83890 0.34890
C8 C 0.6823(6) 0.9643(2) 0.33601(9)
C9 C 0.8599(6) 1.0131(2) 0.31046(10)
C10 C 1.0242(6) 0.9656(2) 0.28387(10)
H13 H 1.14460 0.99730 0.26760
C11 C 1.0118(6) 0.8708(2) 0.28119(9)
H14 H 1.12590 0.83920 0.26350
C12 C 0.3852(7) 0.9722(2) 0.39587(12)
H15 H 0.49260 0.93080 0.41430
H16 H 0.25310 0.93630 0.37980
C13 C 0.2690(11) 1.0385(3) 0.42495(17)
H17 H 0.39960 1.06800 0.44390
H18 H 0.15030 1.00810 0.44390
H19 H 0.17960 1.08370 0.40640
C14 C 0.7437(8) 0.2427(2) 0.42834(11)
H20 H 0.88870 0.22030 0.41480
C15 C 0.7463(7) 0.2542(2) 0.47828(10)
C16 C 0.5645(6) 0.3106(2) 0.49856(10)
H21 H 0.44330 0.34190 0.48020
C17 C 0.5653(6) 0.3199(2) 0.54573(10)
C18 C 0.7459(6) 0.2710(2) 0.57321(10)
C19 C 0.9259(6) 0.2170(2) 0.55325(10)
H22 H 1.04750 0.18570 0.57150
C20 C 0.9265(7) 0.2092(2) 0.50585(11)
H23 H 1.05000 0.17310 0.49270
C21 C 0.2282(6) 0.4321(2) 0.54398(10)
H24 H 0.10690 0.39460 0.52620
H25 H 0.31810 0.47110 0.52320
C22 C 0.0889(7) 0.4902(2) 0.57775(11)
H26 H 0.01230 0.45110 0.59970
H27 H -0.04230 0.52540 0.56170
H28 H 0.20830 0.53100 0.59330
#END
