
#######################################################################
#
#                 Cambridge Crystallographic Data Centre
#                                CCDC
#
#######################################################################
#
# If this CIF has been generated from an entry in the Cambridge
# Structural Database, then it will include bibliographic, chemical,
# crystal, experimental, refinement or atomic coordinate data resulting
# from the CCDC's data processing and validation procedures.
#
#######################################################################

data_CSD_CIF_FASXAA
_audit_creation_date 2012-11-07
_audit_creation_method CSD-ConQuest-V1
_database_code_CSD FASXAA
_database_code_depnum_ccdc_archive 'CCDC 840147'
_database_code_depnum_ccdc_journal 1267/3654
_chemical_formula_sum 'C18 H20 N2 O4'
_chemical_formula_moiety
;
C18 H20 N2 O4
;
_journal_coden_Cambridge 1267
_journal_volume 227
_journal_year 2012
_journal_page_first 119
_journal_name_full 'Z.Kristallogr.-New Cryst.Struct. '
loop_
_publ_author_name
"Yu-Jie Zhang"
"Shou-Ting Zhang"
"Jiao Wang"
"Guo-Hua Liu"
"Gang Wang"
_chemical_name_systematic
;
(Ethane-1,2-diylbis(oxy-2,1-phenylene))bis(N-methoxymethanimine)
;
_chemical_name_common
;
2,2'-(1,2-ethylenedioxy)bisbenzaldehyde O,O'-dimethyldioxime
;
_chemical_melting_point 402
_cell_volume   1727.750
_exptl_crystal_colour 'pale yellow'
_exptl_crystal_density_diffrn 1.262
_exptl_special_details
;
Melting point range 402-405K

;
_exptl_crystal_description 'block'
_diffrn_ambient_temperature 298
#These two values have been output from a single CSD field.
_refine_ls_R_factor_gt 0.0504
_refine_ls_wR_factor_gt 0.0504
_symmetry_cell_setting monoclinic
_symmetry_space_group_name_H-M 'P 21/c'
_symmetry_Int_Tables_number 14
loop_
_symmetry_equiv_pos_site_id
_symmetry_equiv_pos_as_xyz
1 x,y,z
2 -x,1/2+y,1/2-z
3 -x,-y,-z
4 x,-1/2-y,-1/2+z
_cell_length_a 20.674(2)
_cell_length_b 8.1642(8)
_cell_length_c 10.4029(9)
_cell_angle_alpha 90
_cell_angle_beta 100.268(1)
_cell_angle_gamma 90
_cell_formula_units_Z 4
loop_
_atom_type_symbol
_atom_type_radius_bond
C 0.68
H 0.23
N 0.68
O 0.68
loop_
_atom_site_label
_atom_site_type_symbol
_atom_site_fract_x
_atom_site_fract_y
_atom_site_fract_z
N1 N 0.07772(14) 0.5554(3) 0.6245(3)
N2 N 0.42335(14) 0.9387(3) 0.6204(3)
O1 O 0.20260(11) 0.4859(2) 0.3802(2)
O2 O 0.29692(11) 0.7297(3) 0.3387(2)
O3 O 0.07211(14) 0.7220(3) 0.6486(3)
O4 O 0.44399(12) 0.8306(3) 0.7242(3)
C1 C 0.24601(17) 0.4729(4) 0.2891(3)
H1 H 0.22730 0.40100 0.21790
H2 H 0.28770 0.42730 0.33140
C2 C 0.25613(17) 0.6390(4) 0.2382(3)
H3 H 0.27700 0.63110 0.16200
H4 H 0.21420 0.69380 0.21280
C3 C 0.11591(17) 0.5315(4) 0.5446(4)
H5 H 0.13460 0.62130 0.50990
C4 C 0.13165(15) 0.3681(4) 0.5051(3)
C5 C 0.17676(16) 0.3458(4) 0.4219(3)
C6 C 0.19359(18) 0.1903(4) 0.3857(4)
H6 H 0.22460 0.17670 0.33180
C7 C 0.1641(2) 0.0572(4) 0.4301(4)
H7 H 0.17490 -0.04720 0.40520
C8 C 0.1188(2) 0.0747(4) 0.5110(4)
H8 H 0.09870 -0.01670 0.53980
C9 C 0.10357(17) 0.2293(4) 0.5486(4)
H9 H 0.07360 0.24110 0.60490
C10 C 0.0286(2) 0.7456(5) 0.7372(4)
H10 H -0.01410 0.70460 0.69950
H11 H 0.02550 0.86030 0.75540
H12 H 0.04470 0.68780 0.81680
C11 C 0.39054(16) 0.8646(4) 0.5236(4)
H13 H 0.38110 0.75390 0.53060
C12 C 0.36746(15) 0.9492(4) 0.4020(3)
C13 C 0.32045(15) 0.8773(4) 0.3056(3)
C14 C 0.30032(16) 0.9543(4) 0.1873(4)
H14 H 0.26850 0.90610 0.12420
C15 C 0.32723(19) 1.1019(4) 0.1625(4)
H15 H 0.31380 1.15260 0.08210
C16 C 0.3736(2) 1.1758(4) 0.2547(4)
H16 H 0.39140 1.27640 0.23760
C17 C 0.39350(17) 1.0992(4) 0.3728(4)
H17 H 0.42530 1.14900 0.43500
C18 C 0.4734(2) 0.9174(5) 0.8366(4)
H18 H 0.50320 0.99780 0.81310
H19 H 0.49720 0.84260 0.89900
H20 H 0.44000 0.97110 0.87440
#END
