
#######################################################################
#
#                 Cambridge Crystallographic Data Centre
#                                CCDC
#
#######################################################################
#
# If this CIF has been generated from an entry in the Cambridge
# Structural Database, then it will include bibliographic, chemical,
# crystal, experimental, refinement or atomic coordinate data resulting
# from the CCDC's data processing and validation procedures.
#
#######################################################################

data_CSD_CIF_FATZAD
_audit_creation_date 2012-09-04
_audit_creation_method CSD-ConQuest-V1
_database_code_CSD FATZAD
_database_code_depnum_ccdc_archive 'CCDC 857732'
_chemical_formula_sum 'C10 H10 N2 O6'
_chemical_formula_moiety
;
C10 H10 N2 O6
;
_journal_coden_Cambridge 1135
_journal_volume 22
_journal_year 2012
_journal_page_first 164
_journal_name_full 'Mendeleev Commun. '
loop_
_publ_author_name
"V.G.Shtamburg"
"A.V.Tsygankov"
"O.V.Shishkin"
"R.I.Zubatyuk"
"B.V.Uspensky"
"V.V.Shtamburg"
"A.V.Mazepa"
"R.G.Kostyanovsky"
_chemical_name_systematic
;
N-Acetoxy-N-methoxy-4-nitrobenzamide
;
_cell_volume    571.709
_exptl_crystal_density_diffrn 1.477
_diffrn_ambient_temperature 180
#These two values have been output from a single CSD field.
_refine_ls_R_factor_gt 0.0453
_refine_ls_wR_factor_gt 0.0453
_symmetry_cell_setting triclinic
_symmetry_space_group_name_H-M 'P -1'
_symmetry_Int_Tables_number 2
loop_
_symmetry_equiv_pos_site_id
_symmetry_equiv_pos_as_xyz
1 x,y,z
2 -x,-y,-z
_cell_length_a 6.2863(4)
_cell_length_b 8.7528(7)
_cell_length_c 11.5095(8)
_cell_angle_alpha 68.848(7)
_cell_angle_beta 84.283(6)
_cell_angle_gamma 75.474(6)
_cell_formula_units_Z 2
loop_
_atom_type_symbol
_atom_type_radius_bond
C 0.68
H 0.23
N 0.68
O 0.68
loop_
_atom_site_label
_atom_site_type_symbol
_atom_site_fract_x
_atom_site_fract_y
_atom_site_fract_z
O1 O -0.18594(18) 0.90635(16) 0.07511(11)
O2 O 0.31527(18) 0.69316(16) 0.01887(11)
O3 O -0.4775(2) 0.7285(2) -0.40070(13)
O4 O -0.2516(2) 0.8676(2) -0.51917(13)
O5 O 0.11251(17) 0.77738(16) 0.20123(11)
O6 O -0.0030(2) 0.55415(18) 0.33926(12)
N1 N -0.0150(2) 0.76223(19) 0.11235(13)
N2 N -0.3206(2) 0.7933(2) -0.41686(15)
C1 C 0.1185(3) 0.7401(2) 0.01088(16)
C2 C -0.0052(2) 0.7588(2) -0.09949(15)
C3 C -0.1928(2) 0.6966(2) -0.08580(16)
H1 H -0.25090 0.64820 -0.00500
C4 C -0.2946(3) 0.7055(2) -0.18983(16)
H2 H -0.42090 0.66120 -0.18160
C5 C -0.2092(3) 0.7797(2) -0.30551(16)
C6 C -0.0220(3) 0.8403(2) -0.32134(16)
H3 H 0.03530 0.88900 -0.40230
C7 C 0.0797(3) 0.8286(2) -0.21716(17)
H4 H 0.20950 0.86880 -0.22600
C8 C -0.3761(3) 0.8762(3) 0.15347(18)
H5 H -0.49750 0.97610 0.12640
H6 H -0.34030 0.85250 0.24010
H7 H -0.41960 0.77960 0.14710
C9 C 0.1059(3) 0.6544(3) 0.31712(17)
C10 C 0.2545(3) 0.6709(3) 0.40197(18)
H8 H 0.40600 0.61580 0.38810
H9 H 0.21110 0.61750 0.48860
H10 H 0.24470 0.79050 0.38530
#END
