
#######################################################################
#
#                 Cambridge Crystallographic Data Centre
#                                CCDC
#
#######################################################################
#
# If this CIF has been generated from an entry in the Cambridge
# Structural Database, then it will include bibliographic, chemical,
# crystal, experimental, refinement or atomic coordinate data resulting
# from the CCDC's data processing and validation procedures.
#
#######################################################################

data_CSD_CIF_FAVCOW
_audit_creation_date 2012-09-04
_audit_creation_method CSD-ConQuest-V1
_database_code_CSD FAVCOW
_database_code_depnum_ccdc_archive 'CCDC 852598'
_chemical_formula_sum 'C14 H14 N4 O2'
_chemical_formula_moiety
;
C14 H14 N4 O2
;
_journal_coden_Cambridge 119
_journal_volume 1020
_journal_year 2012
_journal_page_first 16
_journal_name_full 'J.Mol.Struct. '
loop_
_publ_author_name
"R.A.Howie"
"T.C.Baddeley"
"J.L.Wardell"
"S.M.S.V.Wardell"
_chemical_name_systematic
;
(E)-2-Aminoacetophenone 2-nitrophenylhydrazone
;
_cell_volume    640.327
_exptl_crystal_colour 'brown'
_exptl_crystal_density_diffrn 1.402
_exptl_crystal_description 'plate'
_diffrn_ambient_temperature 120
_diffrn_radiation_probe x-ray
_diffrn_source synchrotron
#These two values have been output from a single CSD field.
_refine_ls_R_factor_gt 0.1067
_refine_ls_wR_factor_gt 0.1067
_symmetry_cell_setting triclinic
_symmetry_space_group_name_H-M 'P -1'
_symmetry_Int_Tables_number 2
loop_
_symmetry_equiv_pos_site_id
_symmetry_equiv_pos_as_xyz
1 x,y,z
2 -x,-y,-z
_cell_length_a 6.8201(10)
_cell_length_b 8.633(13)
_cell_length_c 11.326(18)
_cell_angle_alpha 81.76(3)
_cell_angle_beta 88.29(4)
_cell_angle_gamma 75.99(4)
_cell_formula_units_Z 2
loop_
_atom_type_symbol
_atom_type_radius_bond
C 0.68
H 0.23
N 0.68
O 0.68
loop_
_atom_site_label
_atom_site_type_symbol
_atom_site_fract_x
_atom_site_fract_y
_atom_site_fract_z
O1 O 0.3629(6) 0.0506(4) 0.6312(3)
O2 O 0.3869(6) -0.0760(4) 0.8122(3)
N1 N 0.2545(6) 0.5127(5) 0.5218(3)
N2 N 0.2906(6) 0.3636(5) 0.5909(3)
H1 H 0.30960 0.27560 0.55700
N3 N 0.1778(8) 0.8308(6) 0.4950(4)
H2 H 0.237(9) 0.748(8) 0.536(5)
H3 H 0.184(11) 0.927(9) 0.514(6)
N4 N 0.3617(7) 0.0508(5) 0.7422(4)
C1 C 0.2018(7) 0.6722(5) 0.3296(4)
C2 C 0.1772(7) 0.8226(6) 0.3742(4)
C3 C 0.1408(8) 0.9666(6) 0.2946(5)
H4 H 0.12100 1.06610 0.32510
C4 C 0.1330(8) 0.9671(7) 0.1739(5)
H5 H 0.10780 1.06650 0.12190
C5 C 0.1620(8) 0.8224(6) 0.1266(5)
H6 H 0.15880 0.82230 0.04280
C6 C 0.1955(8) 0.6789(6) 0.2044(4)
H7 H 0.21510 0.58070 0.17200
C7 C 0.2395(7) 0.5147(5) 0.4070(4)
C8 C 0.2515(10) 0.3613(6) 0.3536(5)
H8 H 0.38690 0.29010 0.36720
H9 H 0.22460 0.38820 0.26760
H10 H 0.15090 0.30650 0.39130
C9 C 0.2969(7) 0.3527(6) 0.7124(4)
C10 C 0.3300(7) 0.2029(6) 0.7888(4)
C11 C 0.3347(8) 0.1952(7) 0.9129(4)
H11 H 0.35750 0.09330 0.96170
C12 C 0.3069(9) 0.3324(7) 0.9651(5)
H12 H 0.31050 0.32660 1.04940
C13 C 0.2730(9) 0.4816(7) 0.8916(5)
H13 H 0.25200 0.57770 0.92690
C14 C 0.2697(8) 0.4916(6) 0.7703(4)
H14 H 0.24850 0.59460 0.72320
#END
