
#######################################################################
#
#                 Cambridge Crystallographic Data Centre
#                                CCDC
#
#######################################################################
#
# If this CIF has been generated from an entry in the Cambridge
# Structural Database, then it will include bibliographic, chemical,
# crystal, experimental, refinement or atomic coordinate data resulting
# from the CCDC's data processing and validation procedures.
#
#######################################################################

data_CSD_CIF_FAVCUC
_audit_creation_date 2012-09-04
_audit_creation_method CSD-ConQuest-V1
_database_code_CSD FAVCUC
_database_code_depnum_ccdc_archive 'CCDC 852599'
_chemical_formula_sum 'C14 H14 N4 O2'
_chemical_formula_moiety
;
C14 H14 N4 O2
;
_journal_coden_Cambridge 119
_journal_volume 1020
_journal_year 2012
_journal_page_first 16
_journal_name_full 'J.Mol.Struct. '
loop_
_publ_author_name
"R.A.Howie"
"T.C.Baddeley"
"J.L.Wardell"
"S.M.S.V.Wardell"
_chemical_name_systematic
;
(E)-2-Aminoacetophenone 3-nitrophenylhydrazone
;
_cell_volume   1279.412
_exptl_crystal_colour 'orange'
_exptl_crystal_density_diffrn 1.403
_exptl_crystal_description 'lath'
_diffrn_ambient_temperature 120
_diffrn_radiation_probe x-ray
_diffrn_source synchrotron
#These two values have been output from a single CSD field.
_refine_ls_R_factor_gt 0.0611
_refine_ls_wR_factor_gt 0.0611
_symmetry_cell_setting monoclinic
_symmetry_space_group_name_H-M 'P 21/n'
_symmetry_Int_Tables_number 14
loop_
_symmetry_equiv_pos_site_id
_symmetry_equiv_pos_as_xyz
1 x,y,z
2 1/2-x,1/2+y,1/2-z
3 -x,-y,-z
4 -1/2+x,-1/2-y,-1/2+z
_cell_length_a 14.91(2)
_cell_length_b 3.898(6)
_cell_length_c 22.89(4)
_cell_angle_alpha 90
_cell_angle_beta 105.906(15)
_cell_angle_gamma 90
_cell_formula_units_Z 4
loop_
_atom_type_symbol
_atom_type_radius_bond
C 0.68
H 0.23
N 0.68
O 0.68
loop_
_atom_site_label
_atom_site_type_symbol
_atom_site_fract_x
_atom_site_fract_y
_atom_site_fract_z
O1 O 0.2866(2) 0.6470(9) 0.36498(12)
O2 O 0.4121(2) 0.9088(9) 0.41508(11)
N1 N 0.4369(3) 0.5428(9) 0.68588(13)
N2 N 0.4534(3) 0.6296(9) 0.63145(12)
H1 H 0.50640 0.72450 0.63030
N3 N 0.3303(3) 0.2434(10) 0.74806(15)
H2 H 0.346(3) 0.254(11) 0.715(2)
H3 H 0.294(3) 0.048(11) 0.7553(18)
N4 N 0.3437(3) 0.7272(11) 0.41285(14)
C1 C 0.4819(3) 0.5249(11) 0.79389(15)
C2 C 0.4006(3) 0.3499(11) 0.79819(16)
C3 C 0.3884(3) 0.2868(12) 0.85590(16)
H4 H 0.33360 0.17130 0.85880
C4 C 0.4525(3) 0.3860(12) 0.90806(17)
H5 H 0.44220 0.33900 0.94640
C5 C 0.5322(3) 0.5541(12) 0.90495(16)
H6 H 0.57690 0.62460 0.94110
C6 C 0.5469(3) 0.6202(11) 0.84886(16)
H7 H 0.60260 0.73350 0.84730
C7 C 0.5024(3) 0.6081(11) 0.73541(16)
C8 C 0.5938(3) 0.7582(13) 0.73465(17)
H8 H 0.61600 0.64780 0.70270
H9 H 0.63920 0.72050 0.77410
H10 H 0.58660 1.00500 0.72660
C9 C 0.3837(3) 0.5627(11) 0.57831(16)
C10 C 0.3979(3) 0.6686(11) 0.52310(16)
H11 H 0.45370 0.78240 0.52210
C11 C 0.3292(3) 0.6043(11) 0.47046(15)
C12 C 0.2466(3) 0.4373(12) 0.46822(17)
H12 H 0.20090 0.39520 0.43090
C13 C 0.2339(3) 0.3341(12) 0.52373(17)
H13 H 0.17780 0.22090 0.52450
C14 C 0.3016(3) 0.3931(11) 0.57786(16)
H14 H 0.29180 0.31680 0.61500
#END
