
#######################################################################
#
#                 Cambridge Crystallographic Data Centre
#                                CCDC
#
#######################################################################
#
# If this CIF has been generated from an entry in the Cambridge
# Structural Database, then it will include bibliographic, chemical,
# crystal, experimental, refinement or atomic coordinate data resulting
# from the CCDC's data processing and validation procedures.
#
#######################################################################

data_CSD_CIF_FAWGAN
_audit_creation_date 2012-09-12
_audit_creation_method CSD-ConQuest-V1
_database_code_CSD FAWGAN
_database_code_depnum_ccdc_archive 'CCDC 861549'
_chemical_formula_sum 'C19 H17 N1 O4'
_chemical_formula_moiety
;
C19 H17 N1 O4
;
_journal_coden_Cambridge 179
_journal_volume 51
_journal_year 2012
_journal_page_first 4104
_journal_name_full 'Angew.Chem.,Int.Ed. '
loop_
_publ_author_name
"G.Talavera"
"E.Reyes"
"Jose L.Vicario"
"L.Carrillo"
_chemical_name_systematic
;
1-Nitro-7,8-diphenyl-3-oxabicyclo[4.2.0]octan-4-one
;
_cell_volume   1566.945
_exptl_crystal_colour 'colorless'
_exptl_crystal_density_diffrn 1.371
_exptl_special_details
;
Absolute configuration

;
_exptl_crystal_description 'needle'
_diffrn_ambient_temperature 100
#These two values have been output from a single CSD field.
_refine_ls_R_factor_gt 0.0253
_refine_ls_wR_factor_gt 0.0253
_symmetry_cell_setting orthorhombic
_symmetry_space_group_name_H-M 'P 21 21 21'
_symmetry_Int_Tables_number 19
loop_
_symmetry_equiv_pos_site_id
_symmetry_equiv_pos_as_xyz
1 x,y,z
2 1/2-x,-y,1/2+z
3 1/2+x,1/2-y,-z
4 -x,1/2+y,1/2-z
_cell_length_a 6.0319(3)
_cell_length_b 8.3295(4)
_cell_length_c 31.1875(13)
_cell_angle_alpha 90
_cell_angle_beta 90
_cell_angle_gamma 90
_cell_formula_units_Z 4
loop_
_atom_type_symbol
_atom_type_radius_bond
C 0.68
H 0.23
N 0.68
O 0.68
loop_
_atom_site_label
_atom_site_type_symbol
_atom_site_fract_x
_atom_site_fract_y
_atom_site_fract_z
C1 C 0.42252(19) 0.27857(13) 0.12897(3)
H1 H 0.58510 0.30140 0.13040
C2 C 0.28715(19) 0.42666(14) 0.13995(4)
H2 H 0.32420 0.46280 0.16930
H3 H 0.32460 0.51450 0.11980
C3 C 0.0425(2) 0.39058(13) 0.13720(3)
C4 C 0.13053(19) 0.25997(14) 0.06995(4)
H4 H 0.14820 0.36050 0.05340
H5 H 0.06680 0.17780 0.05060
C5 C 0.35805(19) 0.20347(14) 0.08561(3)
C6 C 0.37778(19) 0.03391(14) 0.10513(3)
H6 H 0.53320 -0.00430 0.10060
C7 C 0.36576(19) 0.11368(14) 0.15028(3)
H7 H 0.21000 0.11350 0.16120
C8 C 0.2235(2) -0.09649(13) 0.09046(4)
C9 C 0.2867(2) -0.18881(14) 0.05519(4)
H8 H 0.42650 -0.17030 0.04210
C10 C 0.1481(2) -0.30729(15) 0.03897(4)
H9 H 0.19320 -0.36880 0.01490
C11 C -0.0558(2) -0.33583(14) 0.05793(4)
H10 H -0.15230 -0.41520 0.04650
C12 C -0.1185(2) -0.24743(15) 0.09381(4)
H11 H -0.25630 -0.26890 0.10740
C13 C 0.0196(2) -0.12766(14) 0.10991(4)
H12 H -0.02510 -0.06700 0.13420
C14 C 0.5216(2) 0.04393(14) 0.18323(3)
C15 C 0.5467(2) -0.12256(15) 0.18593(4)
H13 H 0.46090 -0.18990 0.16780
C16 C 0.6948(2) -0.19124(16) 0.21470(4)
H14 H 0.71360 -0.30440 0.21550
C17 C 0.8151(2) -0.09348(17) 0.24216(4)
H15 H 0.91580 -0.13960 0.26210
C18 C 0.7882(2) 0.07153(17) 0.24052(4)
H16 H 0.86870 0.13810 0.25970
C19 C 0.6441(2) 0.14060(15) 0.21090(4)
H17 H 0.62930 0.25400 0.20960
N1 N 0.51987(17) 0.23981(12) 0.04975(3)
O1 O 0.61707(16) 0.12906(11) 0.03230(3)
O2 O 0.54675(16) 0.38177(11) 0.04057(3)
O3 O -0.09614(14) 0.43753(11) 0.16172(3)
O4 O -0.02041(14) 0.28768(10) 0.10525(3)
#END
