
#######################################################################
#
#                 Cambridge Crystallographic Data Centre
#                                CCDC
#
#######################################################################
#
# If this CIF has been generated from an entry in the Cambridge
# Structural Database, then it will include bibliographic, chemical,
# crystal, experimental, refinement or atomic coordinate data resulting
# from the CCDC's data processing and validation procedures.
#
#######################################################################

data_CSD_CIF_FAWLIB
_audit_creation_date 2017-07-10
_audit_creation_method CSD-ConQuest-V1
_database_code_CSD FAWLIB
_database_code_depnum_ccdc_archive 'CCDC 1561306'
_chemical_formula_sum 'C16 H16 N2 O4'
_chemical_formula_moiety
;
C16 H16 N2 O4
;
_journal_coden_Cambridge 35
_journal_volume 82
_journal_year 2017
_journal_page_first 6550
_journal_name_full 'J.Org.Chem. '
loop_
_publ_author_name
"R.Parella"
"S.A.Babu"
_chemical_name_systematic
;
N-[3-(2,3-dihydro-1,4-benzodioxin-6-yl)prop-2-en-1-yl]-5-methyl-1,2-oxazole-3-
carboxamide
;
_cell_volume   2972.733
_exptl_crystal_colour 'light colorless'
_exptl_crystal_density_diffrn 1.342
_exptl_crystal_description 'block'
_diffrn_ambient_temperature 293
_refine_special_details
;
C15B,C16B and C15A,C16A disordered over two sites with occupancies 
0.543:0.457.
;
#These two values have been output from a single CSD field.
_refine_ls_R_factor_gt 0.0786
_refine_ls_wR_factor_gt 0.0786
_symmetry_cell_setting orthorhombic
_symmetry_space_group_name_H-M 'P b c a'
_symmetry_Int_Tables_number 61
loop_
_symmetry_equiv_pos_site_id
_symmetry_equiv_pos_as_xyz
1 x,y,z
2 1/2+x,1/2-y,-z
3 -x,1/2+y,1/2-z
4 1/2-x,-y,1/2+z
5 -x,-y,-z
6 -1/2-x,-1/2+y,z
7 x,-1/2-y,-1/2+z
8 -1/2+x,y,-1/2-z
_cell_length_a 9.8868(11)
_cell_length_b 15.861(2)
_cell_length_c 18.9570(19)
_cell_angle_alpha 90
_cell_angle_beta 90
_cell_angle_gamma 90
_cell_formula_units_Z 8
loop_
_atom_type_symbol
_atom_type_radius_bond
C 0.68
H 0.23
N 0.68
O 0.68
loop_
_atom_site_label
_atom_site_type_symbol
_atom_site_fract_x
_atom_site_fract_y
_atom_site_fract_z
N1 N 0.2815(2) 0.13854(15) 0.63880(12)
N2 N 0.20030(19) 0.21373(14) 0.76175(10)
H1 H 0.28090 0.19510 0.75500
O1 O 0.28907(16) 0.10068(12) 0.57219(10)
O2 O -0.01291(17) 0.21600(14) 0.72041(10)
O3 O -0.04782(19) 0.05356(16) 1.11204(10)
O4 O 0.1634(2) 0.06189(14) 1.21207(10)
C1 C 0.1549(3) 0.05520(18) 0.47437(14)
H2 H 0.21860 0.08220 0.44350
H3 H 0.06520 0.06210 0.45590
H4 H 0.17580 -0.00380 0.47770
C2 C 0.1630(2) 0.09380(15) 0.54512(14)
C3 C 0.0758(2) 0.12603(16) 0.59127(14)
H5 H -0.01760 0.12980 0.58630
C4 C 0.1531(2) 0.15313(15) 0.64871(13)
C5 C 0.1065(2) 0.19673(17) 0.71386(12)
C6 C 0.1734(3) 0.26220(19) 0.82490(13)
H6 H 0.09500 0.29750 0.81660
H7 H 0.24980 0.29910 0.83360
C7 C 0.1488(3) 0.21068(18) 0.88921(13)
H8 H 0.07510 0.17430 0.88930
C8 C 0.2250(2) 0.21368(16) 0.94574(13)
H9 H 0.30110 0.24790 0.94240
C9 C 0.2071(2) 0.17066(15) 1.01332(12)
C10 C 0.0885(2) 0.12873(17) 1.03147(12)
H10 H 0.01860 0.12530 0.99870
C11 C 0.0724(2) 0.09231(17) 1.09666(13)
C12 C 0.1752(3) 0.09644(17) 1.14583(13)
C13 C 0.2936(3) 0.13626(19) 1.12801(15)
H11 H 0.36440 0.13810 1.16030
C14 C 0.3086(2) 0.17331(17) 1.06316(14)
H12 H 0.38910 0.20090 1.05250
C15 C 0.0506(11) 0.0078(7) 1.2235(5)
H13 H 0.03410 0.00200 1.27370
H14 H 0.06970 -0.04770 1.20440
C16 C -0.0711(10) 0.0437(7) 1.1885(4)
H15 H -0.14780 0.00670 1.19620
H16 H -0.09210 0.09810 1.20900
C17? C -0.0494(11) 0.0051(8) 1.1697(5)
H17? H -0.01010 -0.04930 1.15860
H18? H -0.14230 -0.00400 1.18420
C18? C 0.0271(14) 0.0441(9) 1.2287(6)
H19? H -0.01750 0.09610 1.24230
H20? H 0.02460 0.00640 1.26900
#END
