
#######################################################################
#
#                 Cambridge Crystallographic Data Centre
#                                CCDC
#
#######################################################################
#
# If this CIF has been generated from an entry in the Cambridge
# Structural Database, then it will include bibliographic, chemical,
# crystal, experimental, refinement or atomic coordinate data resulting
# from the CCDC's data processing and validation procedures.
#
#######################################################################

data_CSD_CIF_FAZGAR
_audit_creation_date 2017-07-11
_audit_creation_method CSD-ConQuest-V1
_database_code_CSD FAZGAR
_database_code_depnum_ccdc_archive 'CCDC 1519802'
_chemical_formula_sum 'C12 H8 N2 O3'
_chemical_formula_moiety
;
C12 H8 N2 O3
;
_journal_coden_Cambridge 1037
_journal_volume 18
_journal_year 2017
_journal_page_first 41-3
_journal_name_full 'ARKIVOC '
loop_
_publ_author_name
"A.Tzinavou"
"C.Dolka"
"P.G.Tsoungas"
"E.Van der Eycken"
"L.Van Meervelt"
"G.Varvounis"
_chemical_name_systematic
;
3-methyl-5-nitronaphtho[2,1-d][1,2]oxazole
;
_cell_volume    974.528
_exptl_crystal_colour 'yellow'
_exptl_crystal_density_diffrn 1.555
_exptl_crystal_description 'plate'
_diffrn_ambient_temperature 100.2
#These two values have been output from a single CSD field.
_refine_ls_R_factor_gt 0.0488
_refine_ls_wR_factor_gt 0.0488
_symmetry_cell_setting monoclinic
_symmetry_space_group_name_H-M 'P 21/n'
_symmetry_Int_Tables_number 14
loop_
_symmetry_equiv_pos_site_id
_symmetry_equiv_pos_as_xyz
1 x,y,z
2 1/2-x,1/2+y,1/2-z
3 -x,-y,-z
4 -1/2+x,-1/2-y,-1/2+z
_cell_length_a 13.9799(16)
_cell_length_b 3.7383(4)
_cell_length_c 18.894(2)
_cell_angle_alpha 90
_cell_angle_beta 99.269(4)
_cell_angle_gamma 90
_cell_formula_units_Z 4
loop_
_atom_type_symbol
_atom_type_radius_bond
C 0.68
H 0.23
N 0.68
O 0.68
loop_
_atom_site_label
_atom_site_type_symbol
_atom_site_fract_x
_atom_site_fract_y
_atom_site_fract_z
C1 C 0.5291(2) 0.3442(10) 0.84589(17)
C2 C 0.5927(2) 0.4613(10) 0.79873(17)
C3 C 0.6860(2) 0.5912(10) 0.82582(18)
H1 H 0.72760 0.66790 0.79370
C4 C 0.7166(2) 0.6072(10) 0.89811(18)
H2 H 0.77950 0.69460 0.91650
C5 C 0.6546(2) 0.4937(11) 0.94510(18)
H3 H 0.67620 0.50650 0.99540
C6 C 0.5636(2) 0.365(1) 0.92030(17)
H4 H 0.52340 0.28900 0.95340
C7 C 0.4330(2) 0.2257(10) 0.81360(17)
C8 C 0.4009(2) 0.2141(10) 0.74167(17)
H5 H 0.33690 0.13870 0.72310
C9 C 0.4658(2) 0.3174(10) 0.69594(17)
C10 C 0.5567(2) 0.4408(10) 0.72421(17)
C11 C 0.4635(2) 0.3413(10) 0.61953(17)
C12 C 0.3831(2) 0.2378(11) 0.56119(17)
H6 H 0.40090 0.29860 0.51460
H7 H 0.32400 0.36710 0.56730
H8 H 0.37160 -0.02030 0.56340
N1 N 0.5446(2) 0.4686(9) 0.60440(14)
N2 N 0.3633(2) 0.1159(9) 0.85877(15)
O1 O 0.39039(16) -0.0602(7) 0.91304(13)
O2 O 0.27723(17) 0.1996(8) 0.83936(12)
O3 O 0.60629(15) 0.5326(7) 0.67192(11)
#END
