
#######################################################################
#
#                 Cambridge Crystallographic Data Centre
#                                CCDC
#
#######################################################################
#
# If this CIF has been generated from an entry in the Cambridge
# Structural Database, then it will include bibliographic, chemical,
# crystal, experimental, refinement or atomic coordinate data resulting
# from the CCDC's data processing and validation procedures.
#
#######################################################################

data_CSD_CIF_FEBBIZ
_audit_creation_date 2012-09-04
_audit_creation_method CSD-ConQuest-V1
_database_code_CSD FEBBIZ
_database_code_depnum_ccdc_archive 'CCDC 857315'
_chemical_formula_sum 'C10 H15 N1 O6'
_chemical_formula_moiety
;
C10 H15 N1 O6
;
_journal_coden_Cambridge 177
_journal_volume 10
_journal_year 2012
_journal_page_first 4362
_journal_name_full 'Org.Biomol.Chem. '
loop_
_publ_author_name
"A.Kamimura"
"K.Miyazaki"
"S.Suzuki"
"S.Ishikawa"
"H.Uno"
_chemical_name_systematic
;
8-Hydroxy-2,2-dimethyl-7-nitrohexahydro-4H-cyclohepta[d][1,3]dioxol-4-one
;
_cell_volume   1160.961
_exptl_crystal_colour 'colorless'
_exptl_crystal_density_diffrn 1.403
_exptl_crystal_description 'block'
_diffrn_ambient_temperature 150
#These two values have been output from a single CSD field.
_refine_ls_R_factor_gt 0.0327
_refine_ls_wR_factor_gt 0.0327
_symmetry_cell_setting orthorhombic
_symmetry_space_group_name_H-M 'P 21 21 21'
_symmetry_Int_Tables_number 19
loop_
_symmetry_equiv_pos_site_id
_symmetry_equiv_pos_as_xyz
1 x,y,z
2 1/2+x,1/2-y,-z
3 -x,1/2+y,1/2-z
4 1/2-x,-y,1/2+z
_cell_length_a 7.4247(7)
_cell_length_b 9.3395(9)
_cell_length_c 16.7423(15)
_cell_angle_alpha 90
_cell_angle_beta 90
_cell_angle_gamma 90
_cell_formula_units_Z 4
loop_
_atom_type_symbol
_atom_type_radius_bond
C 0.68
H 0.23
N 0.68
O 0.68
loop_
_atom_site_label
_atom_site_type_symbol
_atom_site_fract_x
_atom_site_fract_y
_atom_site_fract_z
O1 O 0.3625(2) -0.09782(15) 0.24203(8)
O2 O 0.08579(19) 0.07395(12) 0.19674(7)
O3 O 0.12897(18) 0.31373(12) 0.20778(6)
O4 O 0.05169(17) 0.32970(14) 0.37790(7)
H1 H -0.01760 0.38490 0.35290
O5 O 0.4011(2) 0.49083(16) 0.47595(9)
O6 O 0.2525(2) 0.32399(18) 0.53594(7)
N1 N 0.3364(2) 0.37020(17) 0.47898(8)
C1 C 0.3196(2) -0.00513(18) 0.2886(1)
C2 C 0.1680(2) 0.09699(17) 0.27223(9)
H2 H 0.07560 0.08990 0.31550
C3 C 0.2410(2) 0.25146(16) 0.26756(9)
H3 H 0.36900 0.25040 0.24900
C4 C 0.2258(2) 0.33669(17) 0.34422(9)
H4 H 0.25620 0.43900 0.33300
C5 C 0.3595(2) 0.27727(18) 0.40554(9)
H5 H 0.48420 0.29170 0.38440
C6 C 0.3382(2) 0.12025(19) 0.42817(10)
H6 H 0.20840 0.09880 0.43440
H7 H 0.39690 0.10390 0.48050
C7 C 0.4188(3) 0.0163(2) 0.36683(10)
H8 H 0.54210 0.04960 0.35410
H9 H 0.43050 -0.07850 0.39290
C8 C 0.0980(3) 0.20363(18) 0.15033(9)
C9 C -0.0815(3) 0.2296(2) 0.11123(12)
H10 H -0.17590 0.23200 0.15210
H11 H -0.10680 0.15240 0.07320
H12 H -0.07880 0.32140 0.08290
C10 C 0.2518(3) 0.1927(2) 0.09145(11)
H13 H 0.25890 0.28110 0.06010
H14 H 0.23100 0.11140 0.05560
H15 H 0.36500 0.17840 0.12050
#END
