
#######################################################################
#
#                 Cambridge Crystallographic Data Centre
#                                CCDC
#
#######################################################################
#
# If this CIF has been generated from an entry in the Cambridge
# Structural Database, then it will include bibliographic, chemical,
# crystal, experimental, refinement or atomic coordinate data resulting
# from the CCDC's data processing and validation procedures.
#
#######################################################################

data_CSD_CIF_FEBJUS
_audit_creation_date 2005-04-29
_audit_creation_method CSD-ConQuest-V1
_database_code_CSD FEBJUS
_database_code_depnum_ccdc_archive 'CCDC 245217'
_chemical_formula_sum 'C22 H31 N1 O15'
_chemical_formula_moiety
;
C22 H31 N1 O15
;
_journal_coden_Cambridge 177
_journal_volume 3
_journal_year 2005
_journal_page_first 162
_journal_name_full 'Org.Biomol.Chem. '
loop_
_publ_author_name
"R.G.Pritchard"
"R.J.Stoodley"
"Wai-Hung Yuen"
_chemical_name_systematic
;
Methyl 
(1S,2R,3R,5R)-5-hydroxy-2-nitro-3-(2,3,4,6-tetra-O-acetyl-\b-D-glucopyranosylo
xy)cyclohexane-1-carboxylate
;
_chemical_melting_point 445.15
_cell_volume   1368.638
_exptl_crystal_colour 'colorless'
_exptl_crystal_density_diffrn 1.333
_exptl_special_details
;
Melting point range 445.15-447.15K

;
_exptl_crystal_description 'needle'
_exptl_crystal_preparation 'diethyl ether/hexanes'
_diffrn_ambient_temperature 293
#These two values have been output from a single CSD field.
_refine_ls_R_factor_gt 0.0617
_refine_ls_wR_factor_gt 0.0617
_symmetry_cell_setting monoclinic
_symmetry_space_group_name_H-M 'P 21'
_symmetry_Int_Tables_number 4
loop_
_symmetry_equiv_pos_site_id
_symmetry_equiv_pos_as_xyz
1 x,y,z
2 -x,1/2+y,-z
_cell_length_a 5.773(1)
_cell_length_b 22.641(3)
_cell_length_c 10.86(2)
_cell_angle_alpha 90
_cell_angle_beta 105.380(2)
_cell_angle_gamma 90
_cell_formula_units_Z 2
loop_
_atom_type_symbol
_atom_type_radius_bond
C 0.68
H 0.23
N 0.68
O 0.68
loop_
_atom_site_label
_atom_site_type_symbol
_atom_site_fract_x
_atom_site_fract_y
_atom_site_fract_z
C1 C 0.3903(15) 0.2891(4) 0.2544(8)
H1 H 0.26620 0.30370 0.29330
C2 C 0.2853(15) 0.1071(3) 0.4603(7)
H2 H 0.12220 0.10830 0.40350
C3 C 0.5719(15) 0.3368(3) 0.2559(7)
H3 H 0.71080 0.32010 0.23220
C4 C 0.4449(15) 0.1446(3) 0.4002(7)
H4 H 0.60890 0.14390 0.45620
C5 C 0.4710(15) 0.3872(3) 0.1691(7)
H5 H 0.36490 0.41040 0.20740
C6 C 0.3581(15) 0.2079(3) 0.3849(7)
H6 H 0.19260 0.20840 0.33080
C7 C 0.3613(16) 0.2336(4) 0.5123(8)
H7 H 0.30550 0.27410 0.50180
H8 H 0.52440 0.23350 0.56690
C8 C 0.3271(15) 0.3648(3) 0.0388(7)
H9 H 0.43550 0.34830 -0.00820
C9 C 0.2022(18) 0.1980(4) 0.5739(8)
H10 H 0.03730 0.20010 0.51930
C10 C 0.1491(17) 0.3187(3) 0.0544(8)
H11 H 0.04150 0.33560 0.10140
C11 C 0.2771(16) 0.1343(3) 0.5887(7)
H12 H 0.16470 0.11230 0.62330
H13 H 0.43470 0.13130 0.64860
C12 C 0.0023(18) 0.2938(5) -0.0711(9)
H14 H -0.08030 0.32510 -0.12640
H15 H 0.10460 0.27280 -0.11430
C13 C 0.3582(19) 0.0445(4) 0.4788(7)
C14 C 0.874(2) 0.3590(4) 0.4496(10)
C15 C 0.6788(19) -0.0240(4) 0.5137(10)
H16 H 0.84810 -0.02450 0.52080
H17 H 0.59700 -0.04880 0.44400
H18 H 0.65050 -0.03840 0.59160
C16 C 0.9153(18) 0.3659(4) 0.5901(8)
H19 H 0.76340 0.36770 0.61030
H20 H 1.00330 0.40160 0.61750
H21 H 1.00550 0.33280 0.63290
C17 C 0.6415(19) 0.4834(4) 0.1663(8)
C18 C 0.8535(17) 0.5147(4) 0.1395(10)
H22 H 0.96120 0.48620 0.11970
H23 H 0.93610 0.53690 0.21350
H24 H 0.79830 0.54100 0.06840
C19 C 0.271(2) 0.4395(5) -0.1269(10)
C20 C 0.133(3) 0.4926(4) -0.1715(9)
H25 H 0.01090 0.49720 -0.12680
H26 H 0.05820 0.48930 -0.26150
H27 H 0.23710 0.52630 -0.15580
C21 C -0.199(2) 0.2005(5) -0.0942(9)
C22 C -0.3600(19) 0.1630(5) -0.0398(9)
H28 H -0.40280 0.18400 0.02770
H29 H -0.27790 0.12710 -0.00660
H30 H -0.50270 0.15360 -0.10560
N1 N 0.449(2) 0.1216(3) 0.2722(9)
O1 O 0.6439(11) 0.3574(2) 0.3850(5)
O2 O 0.2655(19) 0.1098(4) 0.1961(7)
O3 O 0.6516(16) 0.1167(4) 0.2562(7)
O4 O 0.6655(10) 0.4242(2) 0.1549(4)
O5 O 0.5065(10) 0.2406(2) 0.3226(5)
O6 O 0.1967(11) 0.4141(2) -0.0298(5)
O7 O 0.2843(10) 0.2718(2) 0.1266(5)
O8 O 0.2094(14) 0.2262(2) 0.6929(6)
H31 H 0.25530 0.20250 0.75140
O9 O -0.1704(11) 0.2534(3) -0.0388(5)
O10 O 1.0345(13) 0.3552(4) 0.3984(7)
O11 O 0.2255(12) 0.0054(3) 0.4879(7)
O12 O 0.5884(12) 0.0364(2) 0.4906(6)
O13 O 0.4776(13) 0.5067(3) 0.1924(7)
O14 O 0.4393(17) 0.4202(4) -0.1596(7)
O15 O -0.1160(16) 0.1878(3) -0.1789(7)
#END
