
#######################################################################
#
#                 Cambridge Crystallographic Data Centre
#                                CCDC
#
#######################################################################
#
# If this CIF has been generated from an entry in the Cambridge
# Structural Database, then it will include bibliographic, chemical,
# crystal, experimental, refinement or atomic coordinate data resulting
# from the CCDC's data processing and validation procedures.
#
#######################################################################

data_CSD_CIF_FEBJOM01
_audit_creation_date 2008-01-22
_audit_creation_method CSD-ConQuest-V1
_database_code_CSD FEBJOM01
_database_code_depnum_ccdc_archive 'CCDC 639742'
_chemical_formula_sum 'C14 H17 N1 O3'
_chemical_formula_moiety
;
C14 H17 N1 O3
;
_journal_coden_Cambridge 1090
_journal_volume 18
_journal_year 2007
_journal_page_first 1788
_journal_name_full 'Tetrahedron:Asymm. '
loop_
_publ_author_name
"Dan-Qian Xu"
"Bing-Tao Wang"
"Shu-Ping Luo"
"Hua-Dong Yue"
"Li-Ping Wang"
"Zhen-Yuan Xu"
_chemical_name_systematic
;
syn-(2S)-2-((1R)-2-Nitro-1-phenylethyl)cyclohexanone
;
_cell_volume   1330.334
_exptl_crystal_colour 'colorless'
_exptl_crystal_density_diffrn 1.235
_exptl_crystal_description 'block'
_diffrn_ambient_temperature 296
#These two values have been output from a single CSD field.
_refine_ls_R_factor_gt 0.0369
_refine_ls_wR_factor_gt 0.0369
loop_
_citation_database_id_CSD
_citation_special_details
WAFRUS "is a racemate of this entry"
_symmetry_cell_setting orthorhombic
_symmetry_space_group_name_H-M 'P 21 21 21'
_symmetry_Int_Tables_number 19
loop_
_symmetry_equiv_pos_site_id
_symmetry_equiv_pos_as_xyz
1 x,y,z
2 1/2+x,1/2-y,-z
3 -x,1/2+y,1/2-z
4 1/2-x,-y,1/2+z
_cell_length_a 5.578(4)
_cell_length_b 8.563(18)
_cell_length_c 27.852(3)
_cell_angle_alpha 90
_cell_angle_beta 90
_cell_angle_gamma 90
_cell_formula_units_Z 4
loop_
_atom_type_symbol
_atom_type_radius_bond
C 0.68
H 0.23
N 0.68
O 0.68
loop_
_atom_site_label
_atom_site_type_symbol
_atom_site_fract_x
_atom_site_fract_y
_atom_site_fract_z
O1 O 0.5573(2) 0.37838(14) 0.73074(4)
O2 O 0.1924(2) 0.71988(13) 0.64480(5)
O3 O 0.4613(2) 0.88678(14) 0.62637(6)
N1 N 0.3998(2) 0.76232(16) 0.64231(5)
C1 C 0.5682(2) 0.49471(14) 0.63598(6)
C2 C 0.7645(2) 0.38498(16) 0.65538(5)
C3 C 0.7808(3) 0.23079(17) 0.62756(6)
C4 C 0.9774(3) 0.1252(2) 0.64675(6)
C5 C 0.9501(3) 0.0924(2) 0.69945(6)
C6 C 0.9314(3) 0.2435(2) 0.72813(6)
C7 C 0.7335(3) 0.34310(18) 0.70774(6)
C8 C 0.5748(2) 0.50702(16) 0.58190(6)
C9 C 0.3986(3) 0.4386(2) 0.55429(6)
C10 C 0.4072(4) 0.4427(2) 0.50479(8)
C11 C 0.5923(5) 0.5171(2) 0.48216(8)
C12 C 0.7673(4) 0.5880(2) 0.50859(8)
C13 C 0.7579(3) 0.58278(19) 0.55801(6)
C14 C 0.5898(2) 0.65423(14) 0.66037(6)
H1 H 0.41360 0.44930 0.64520
H2 H 0.62810 0.17760 0.63070
H3 H 0.81190 0.25260 0.59400
H4 H 0.97080 0.02680 0.62950
H5 H 1.13140 0.17460 0.64120
H6 H 0.80710 0.03020 0.70460
H7 H 1.08950 0.03480 0.71040
H8 H 0.89620 0.21880 0.76140
H9 H 1.08170 0.30020 0.72630
H10 H 0.26380 0.38640 0.57020
H11 H 0.28190 0.39160 0.48580
H12 H 0.59890 0.51980 0.44700
H13 H 0.89810 0.64300 0.49230
H14 H 0.88530 0.63290 0.57670
H15 H 0.74620 0.69820 0.65330
H16 H 0.57230 0.64180 0.69480
H17 H 0.91840 0.43900 0.65200
#END
