
#######################################################################
#
#                 Cambridge Crystallographic Data Centre
#                                CCDC
#
#######################################################################
#
# If this CIF has been generated from an entry in the Cambridge
# Structural Database, then it will include bibliographic, chemical,
# crystal, experimental, refinement or atomic coordinate data resulting
# from the CCDC's data processing and validation procedures.
#
#######################################################################

data_CSD_CIF_FEBKAZ
_audit_creation_date 2005-04-29
_audit_creation_method CSD-ConQuest-V1
_database_code_CSD FEBKAZ
_database_code_depnum_ccdc_archive 'CCDC 245218'
_chemical_formula_sum 'C4 H5 N1 O4'
_chemical_formula_moiety
;
C4 H5 N1 O4
;
_journal_coden_Cambridge 177
_journal_volume 3
_journal_year 2005
_journal_page_first 162
_journal_name_full 'Org.Biomol.Chem. '
loop_
_publ_author_name
"R.G.Pritchard"
"R.J.Stoodley"
"Wai-Hung Yuen"
_chemical_name_systematic
;
Methyl (E)-3-nitroacrylate
;
_chemical_melting_point 307.15
_cell_volume    596.857
_exptl_crystal_colour 'colorless'
_exptl_crystal_density_diffrn 1.459
_exptl_special_details
;
Melting point range 307.15-308.15K

;
_exptl_crystal_description 'plate'
_exptl_crystal_preparation 'diethyl ether/hexanes'
_diffrn_ambient_temperature 293
#These two values have been output from a single CSD field.
_refine_ls_R_factor_gt 0.0534
_refine_ls_wR_factor_gt 0.0534
_symmetry_cell_setting monoclinic
_symmetry_space_group_name_H-M 'P 21/n'
_symmetry_Int_Tables_number 14
loop_
_symmetry_equiv_pos_site_id
_symmetry_equiv_pos_as_xyz
1 x,y,z
2 1/2-x,1/2+y,1/2-z
3 -x,-y,-z
4 -1/2+x,-1/2-y,-1/2+z
_cell_length_a 5.356(2)
_cell_length_b 6.688(2)
_cell_length_c 16.787(7)
_cell_angle_alpha 90
_cell_angle_beta 96.99(3)
_cell_angle_gamma 90
_cell_formula_units_Z 4
loop_
_atom_type_symbol
_atom_type_radius_bond
C 0.68
H 0.23
N 0.68
O 0.68
loop_
_atom_site_label
_atom_site_type_symbol
_atom_site_fract_x
_atom_site_fract_y
_atom_site_fract_z
O1 O 0.1496(4) 0.1599(3) 0.42302(12)
O2 O 0.5209(6) 0.2451(4) 0.48988(14)
O3 O -0.1138(5) 0.4165(4) 0.67225(13)
O4 O 0.2231(5) 0.5610(4) 0.72791(14)
N1 N 0.1090(6) 0.4578(4) 0.67540(14)
C1 C 0.2973(8) 0.2320(5) 0.48607(17)
C2 C 0.1457(8) 0.2924(5) 0.54976(17)
C3 C 0.2531(7) 0.3869(5) 0.61290(17)
C4 C 0.2745(7) 0.0982(6) 0.35490(18)
H1 H 0.15170 0.04890 0.31310
H2 H 0.39360 -0.00560 0.37130
H3 H 0.36060 0.21050 0.33530
H4? H 0.45220 0.12030 0.36670
H5? H 0.21030 0.17480 0.30850
H6? H 0.24330 -0.04130 0.34440
H7 H -0.024(7) 0.265(5) 0.5433(17)
H8 H 0.428(7) 0.410(5) 0.6230(19)
#END
