
#######################################################################
#
#                 Cambridge Crystallographic Data Centre
#                                CCDC
#
#######################################################################
#
# If this CIF has been generated from an entry in the Cambridge
# Structural Database, then it will include bibliographic, chemical,
# crystal, experimental, refinement or atomic coordinate data resulting
# from the CCDC's data processing and validation procedures.
#
#######################################################################

data_CSD_CIF_FEBRUB
_audit_creation_date 2012-08-03
_audit_creation_method CSD-ConQuest-V1
_database_code_CSD FEBRUB
_database_code_depnum_ccdc_archive 'CCDC 843031'
_chemical_formula_sum 'C4 H4 N8 O4'
_chemical_formula_moiety
;
C4 H4 N8 O4
;
_journal_coden_Cambridge 440
_journal_volume 36
_journal_year 2012
_journal_page_first 1463
_journal_name_full 'New J.Chem. '
loop_
_publ_author_name
"T.M.Klapotke"
"A.Nordheider"
"J.Stierstorfer"
_chemical_name_systematic
;
(3-Azido-5-(nitroimino)-4,5-dihydro-1H-1,2,4-triazol-1-yl)acetic acid
;
_cell_volume    857.614
_exptl_crystal_colour 'yellow'
_exptl_crystal_density_diffrn 1.767
_exptl_crystal_description 'block'
_diffrn_ambient_temperature 173
#These two values have been output from a single CSD field.
_refine_ls_R_factor_gt 0.033
_refine_ls_wR_factor_gt 0.033
_symmetry_cell_setting monoclinic
_symmetry_space_group_name_H-M 'P 21/c'
_symmetry_Int_Tables_number 14
loop_
_symmetry_equiv_pos_site_id
_symmetry_equiv_pos_as_xyz
1 x,y,z
2 -x,1/2+y,1/2-z
3 -x,-y,-z
4 x,-1/2-y,-1/2+z
_cell_length_a 10.3123(7)
_cell_length_b 6.8821(5)
_cell_length_c 12.2305(9)
_cell_angle_alpha 90
_cell_angle_beta 98.873(7)
_cell_angle_gamma 90
_cell_formula_units_Z 4
loop_
_atom_type_symbol
_atom_type_radius_bond
C 0.68
H 0.23
N 0.68
O 0.68
loop_
_atom_site_label
_atom_site_type_symbol
_atom_site_fract_x
_atom_site_fract_y
_atom_site_fract_z
H1 H 0.0123(14) 0.360(2) 0.2396(13)
H2 H 0.0359(15) 0.500(2) 0.1356(12)
H3 H -0.082(2) 0.094(4) -0.0458(19)
H4 H -0.431(2) 0.466(3) 0.1637(16)
O1 O 0.07571(10) 0.09568(17) 0.11824(8)
N1 N -0.15054(12) 0.46839(19) 0.1478(1)
O2 O -0.08938(11) 0.22019(18) -0.00267(9)
N2 N -0.22859(13) 0.2104(2) 0.24003(11)
N3 N -0.18951(12) 0.6352(2) 0.08849(10)
C1 C -0.00707(15) 0.2223(2) 0.08856(13)
O3 O -0.44766(12) 0.1907(2) 0.24351(11)
N4 N -0.35726(15) 0.4874(2) 0.14679(11)
C2 C -0.01679(15) 0.3968(3) 0.16073(14)
C3 C -0.25108(15) 0.3769(2) 0.18289(12)
N5 N -0.36077(14) 0.8924(2) -0.02020(13)
N6 N -0.40658(14) 0.7740(3) 0.04177(13)
N7 N -0.33473(15) 0.1250(2) 0.27113(12)
O4 O -0.31430(15) -0.0226(2) 0.32872(11)
C4 C -0.31519(16) 0.6396(3) 0.09073(13)
N8 N -0.33677(16) 1.0073(3) -0.07854(15)
#END
