
#######################################################################
#
#                 Cambridge Crystallographic Data Centre
#                                CCDC
#
#######################################################################
#
# If this CIF has been generated from an entry in the Cambridge
# Structural Database, then it will include bibliographic, chemical,
# crystal, experimental, refinement or atomic coordinate data resulting
# from the CCDC's data processing and validation procedures.
#
#######################################################################

data_CSD_CIF_FECMEG
_audit_creation_date 2005-04-29
_audit_creation_method CSD-ConQuest-V1
_database_code_CSD FECMEG
_database_code_depnum_ccdc_archive 'CCDC 249711'
_chemical_formula_sum 'C12 H19 N1 O5'
_chemical_formula_moiety
;
C12 H19 N1 O5
;
_journal_coden_Cambridge 179
_journal_volume 44
_journal_year 2005
_journal_page_first 105
_journal_name_full 'Angew.Chem.,Int.Ed. '
loop_
_publ_author_name
"Hongming Li"
"Yi Wang"
"Liang Tang"
"Fanghui Wu"
"Xiaofeng Liu"
"Chengyun Guo"
"B.M.Foxman"
"Li Deng"
_chemical_name_systematic
;
3-Acetyl-3-(4-methyl-1-nitropentan-2-yl)-tetrahydrofuran-2-one
;
_cell_volume   1373.173
_exptl_crystal_colour 'colorless'
_exptl_crystal_density_diffrn 1.244
_exptl_crystal_description 'needle'
_exptl_crystal_preparation 'hexane/ethyl acetate'
_diffrn_ambient_temperature 294
#These two values have been output from a single CSD field.
_refine_ls_R_factor_gt 0.0428
_refine_ls_wR_factor_gt 0.0428
_symmetry_cell_setting orthorhombic
_symmetry_space_group_name_H-M 'P 21 21 21'
_symmetry_Int_Tables_number 19
loop_
_symmetry_equiv_pos_site_id
_symmetry_equiv_pos_as_xyz
1 x,y,z
2 1/2+x,1/2-y,-z
3 -x,1/2+y,1/2-z
4 1/2-x,-y,1/2+z
_cell_length_a 6.6508(6)
_cell_length_b 14.1098(13)
_cell_length_c 14.6329(7)
_cell_angle_alpha 90
_cell_angle_beta 90
_cell_angle_gamma 90
_cell_formula_units_Z 4
loop_
_atom_type_symbol
_atom_type_radius_bond
C 0.68
H 0.23
N 0.68
O 0.68
loop_
_atom_site_label
_atom_site_type_symbol
_atom_site_fract_x
_atom_site_fract_y
_atom_site_fract_z
C1 C 0.6404(3) 0.09883(14) 0.37040(13)
C2 C 0.6887(3) 0.00660(15) 0.42340(13)
C3 C 0.8718(4) -0.04475(16) 0.38404(15)
C4 C 0.8879(5) -0.14956(17) 0.40982(19)
C5 C 1.0987(6) -0.1856(3) 0.3885(3)
C6 C 0.7319(7) -0.2088(2) 0.3616(3)
C7 C 0.7258(4) 0.02514(18) 0.52577(15)
C8 C 0.5841(4) 0.07336(15) 0.26984(14)
C9 C 0.4163(6) 0.0058(3) 0.2532(2)
C10 C 0.4572(4) 0.14931(18) 0.40960(15)
C11 C 0.6754(6) 0.26587(18) 0.3658(2)
C12 C 0.8000(4) 0.17601(17) 0.37139(17)
N1 N 0.5427(5) 0.01473(19) 0.58380(14)
O1 O 0.4333(5) -0.0524(2) 0.5712(2)
O2 O 0.5212(5) 0.0723(2) 0.64445(16)
O3 O 0.3075(3) 0.11370(17) 0.44031(15)
O4 O 0.4823(4) 0.24286(14) 0.40625(13)
O5 O 0.6735(4) 0.10865(14) 0.20796(11)
H1 H 0.57610 -0.03440 0.41820
H2 H 0.98920 -0.01340 0.40550
H3 H 0.86550 -0.04040 0.31940
H4 H 0.86650 -0.15510 0.47380
H5 H 1.10880 -0.25060 0.40450
H6 H 1.19470 -0.15010 0.42260
H7 H 1.12530 -0.17820 0.32500
H8 H 0.74600 -0.27320 0.37920
H9 H 0.60110 -0.18710 0.37790
H10 H 0.74890 -0.20330 0.29740
H11 H 0.82390 -0.01840 0.54680
H12 H 0.77460 0.08800 0.53240
H13 H 0.32450 0.00720 0.30120
H14 H 0.35730 0.01700 0.19670
H15 H 0.47600 -0.05870 0.25150
H16 H 0.73860 0.31550 0.39920
H17 H 0.65920 0.28470 0.30410
H18 H 0.87690 0.17400 0.42630
H19 H 0.88820 0.17050 0.32050
#END
