
#######################################################################
#
#                 Cambridge Crystallographic Data Centre
#                                CCDC
#
#######################################################################
#
# If this CIF has been generated from an entry in the Cambridge
# Structural Database, then it will include bibliographic, chemical,
# crystal, experimental, refinement or atomic coordinate data resulting
# from the CCDC's data processing and validation procedures.
#
#######################################################################

data_CSD_CIF_FECROV
_audit_creation_date 2005-04-29
_audit_creation_method CSD-ConQuest-V1
_database_code_CSD FECROV
_database_code_depnum_ccdc_archive 'CCDC 242485'
_chemical_formula_sum 'C14 H14 N2 O1'
_chemical_formula_moiety
;
C14 H14 N2 O1
;
_journal_coden_Cambridge 35
_journal_volume 70
_journal_year 2005
_journal_page_first 301
_journal_name_full 'J.Org.Chem. '
loop_
_publ_author_name
"S.Schoumacker"
"O.Hamelin"
"S.Teti"
"J.Pecaut"
"M.Fontacave"
_chemical_name_systematic
;
3-(2-Pyridyl)-2-(\a-methylbenzyl)oxaziridine
;
_cell_volume   1227.369
_exptl_crystal_density_diffrn 1.225
_diffrn_ambient_temperature 298
#These two values have been output from a single CSD field.
_refine_ls_R_factor_gt 0.0492
_refine_ls_wR_factor_gt 0.0492
_symmetry_cell_setting orthorhombic
_symmetry_space_group_name_H-M 'P 21 21 21'
_symmetry_Int_Tables_number 19
loop_
_symmetry_equiv_pos_site_id
_symmetry_equiv_pos_as_xyz
1 x,y,z
2 1/2-x,-y,1/2+z
3 -x,1/2+y,1/2-z
4 1/2+x,1/2-y,-z
_cell_length_a 15.139(3)
_cell_length_b 7.9773(16)
_cell_length_c 10.163(2)
_cell_angle_alpha 90
_cell_angle_beta 90
_cell_angle_gamma 90
_cell_formula_units_Z 4
loop_
_atom_type_symbol
_atom_type_radius_bond
C 0.68
H 0.23
N 0.68
O 0.68
loop_
_atom_site_label
_atom_site_type_symbol
_atom_site_fract_x
_atom_site_fract_y
_atom_site_fract_z
O1 O 0.29627(8) 0.77794(16) 0.28739(13)
N1 N 0.22658(9) 0.64422(17) 0.30356(14)
N2 N 0.09327(10) 1.01033(19) 0.33120(15)
C1 C 0.21264(12) 0.8161(2) 0.34051(18)
H1 H 0.2098(11) 0.839(2) 0.4328(18)
C2 C 0.1529(1) 0.9244(2) 0.26157(17)
C3 C 0.15959(13) 0.9372(2) 0.12599(19)
H2 H 0.2030(12) 0.874(2) 0.0865(17)
C4 C 0.10429(14) 1.0445(3) 0.0598(2)
H3 H 0.1079(12) 1.050(3) -0.036(2)
C5 C 0.04337(13) 1.1348(3) 0.1302(2)
H4 H 0.0072(14) 1.210(3) 0.0870(19)
C6 C 0.03979(13) 1.1127(3) 0.2638(2)
H5 H -0.0013(14) 1.172(3) 0.3159(18)
C7 C 0.25365(13) 0.5350(2) 0.41631(19)
H6 H 0.2765(12) 0.602(3) 0.484(2)
C8 C 0.17109(15) 0.4451(4) 0.4640(3)
H7 H 0.1227(15) 0.522(3) 0.488(2)
H8 H 0.1472(14) 0.381(3) 0.389(2)
H9 H 0.1826(15) 0.370(3) 0.541(3)
C9 C 0.32727(11) 0.4197(2) 0.37206(16)
C10 C 0.31452(15) 0.2998(3) 0.2754(2)
H10 H 0.2562(13) 0.291(2) 0.240(2)
C11 C 0.38334(18) 0.1985(3) 0.2349(2)
H11 H 0.3747(14) 0.119(3) 0.171(2)
C12 C 0.46619(16) 0.2159(3) 0.2903(2)
H12 H 0.5118(15) 0.149(3) 0.262(2)
C13 C 0.47889(15) 0.3315(3) 0.3880(2)
H13 H 0.5358(15) 0.346(3) 0.422(2)
C14 C 0.41021(12) 0.4330(2) 0.4278(2)
H14 H 0.4195(12) 0.513(2) 0.4950(18)
#END
