
#######################################################################
#
#                 Cambridge Crystallographic Data Centre
#                                CCDC
#
#######################################################################
#
# If this CIF has been generated from an entry in the Cambridge
# Structural Database, then it will include bibliographic, chemical,
# crystal, experimental, refinement or atomic coordinate data resulting
# from the CCDC's data processing and validation procedures.
#
#######################################################################

data_CSD_CIF_FEDXOC
_audit_creation_date 2005-04-29
_audit_creation_method CSD-ConQuest-V1
_database_code_CSD FEDXOC
_database_code_depnum_ccdc_archive 'CCDC 260012'
_chemical_formula_sum 'C12 H22 N3 O3'
_chemical_formula_moiety
;
C12 H22 N3 O3
;
_journal_coden_Cambridge 95
_journal_year 2004
_journal_page_first 1248
_journal_name_full 'Izv.Akad.Nauk SSSR,Ser.Khim.(Russ.)(Russ.Chem.Bull.) '
loop_
_publ_author_name
"E.V.Tret'yakov"
"G.V.Romanenko"
"Yu.G.Shvedenkov"
"V.I.Ovcharenko"
"R.Z.Sagdeev"
_chemical_name_systematic
;
n-Butyl 4,4,5,5-tetramethyl-1-oxyl-3-oxide-2-imidazolidinecarboximidoate
;
_chemical_melting_point 339.15
_cell_volume   1463.840
_exptl_crystal_density_diffrn 1.163
_exptl_special_details
;
Melting point range 339.15-341.15K

;
_diffrn_ambient_temperature 295
#These two values have been output from a single CSD field.
_refine_ls_R_factor_gt 0.1103
_refine_ls_wR_factor_gt 0.1103
_symmetry_cell_setting monoclinic
_symmetry_space_group_name_H-M 'P 21/c'
_symmetry_Int_Tables_number 14
loop_
_symmetry_equiv_pos_site_id
_symmetry_equiv_pos_as_xyz
1 x,y,z
2 -x,1/2+y,1/2-z
3 -x,-y,-z
4 x,-1/2-y,-1/2+z
_cell_length_a 9.027(3)
_cell_length_b 13.021(5)
_cell_length_c 12.456(5)
_cell_angle_alpha 90
_cell_angle_beta 91.049(7)
_cell_angle_gamma 90
_cell_formula_units_Z 4
loop_
_atom_type_symbol
_atom_type_radius_bond
C 0.68
H 0.23
N 0.68
O 0.68
loop_
_atom_site_label
_atom_site_type_symbol
_atom_site_fract_x
_atom_site_fract_y
_atom_site_fract_z
O1 O 0.2823(5) 1.1909(2) 0.2321(2)
N1 N 0.2670(4) 1.1413(2) 0.1433(2)
C1 C 0.2480(4) 1.1976(2) 0.0413(3)
C2 C 0.3734(6) 1.2752(4) 0.0318(4)
H1 H 0.36380 1.32700 0.08610
H2 H 0.36860 1.30680 -0.03790
H3 H 0.46690 1.24090 0.04100
C3 C 0.1020(5) 1.2542(4) 0.0455(4)
H4 H 0.10870 1.30770 0.09840
H5 H 0.02490 1.20710 0.06440
H6 H 0.07960 1.28370 -0.02350
C4 C 0.2506(3) 1.1088(2) -0.0430(2)
C5 C 0.3931(4) 1.0988(3) -0.1044(3)
H7 H 0.38480 1.04240 -0.15380
H8 H 0.47400 1.08650 -0.05500
H9 H 0.41080 1.16100 -0.14340
C6 C 0.1216(4) 1.1060(3) -0.1212(3)
H10 H 0.13280 1.04890 -0.16910
H11 H 0.11870 1.16870 -0.16170
H12 H 0.03120 1.09860 -0.08260
N2 N 0.2415(3) 1.01688(18) 0.02895(19)
O2 O 0.2288(4) 0.92777(17) -0.01194(19)
C7 C 0.2543(4) 1.0398(2) 0.1331(2)
C8 C 0.2632(5) 0.9685(3) 0.2252(3)
N3 N 0.2816(12) 0.9952(5) 0.3175(3)
H13 H 0.262(7) 1.083(5) 0.323(6)
O3 O 0.2500(3) 0.87349(19) 0.19821(18)
C9 C 0.2584(5) 0.7983(2) 0.2828(3)
H14 H 0.19770 0.81930 0.34230
H15 H 0.35990 0.79110 0.30860
C10 C 0.2027(7) 0.6968(3) 0.2370(3)
H16 H 0.21500 0.64380 0.29110
H17 H 0.09760 0.70280 0.22040
C11 C 0.2821(8) 0.6639(3) 0.1366(4)
H18 H 0.38790 0.66100 0.15140
H19 H 0.26460 0.71400 0.08020
C12 C 0.2274(11) 0.5588(3) 0.0993(5)
H20 H 0.27450 0.54080 0.03340
H21 H 0.12200 0.56100 0.08790
H22 H 0.25130 0.50840 0.15310
#END
