
#######################################################################
#
#                 Cambridge Crystallographic Data Centre
#                                CCDC
#
#######################################################################
#
# If this CIF has been generated from an entry in the Cambridge
# Structural Database, then it will include bibliographic, chemical,
# crystal, experimental, refinement or atomic coordinate data resulting
# from the CCDC's data processing and validation procedures.
#
#######################################################################

data_CSD_CIF_FEDXIW
_audit_creation_date 2005-04-29
_audit_creation_method CSD-ConQuest-V1
_database_code_CSD FEDXIW
_database_code_depnum_ccdc_archive 'CCDC 260011'
_chemical_formula_sum 'C10 H18 N3 O3'
_chemical_formula_moiety
;
C10 H18 N3 O3
;
_journal_coden_Cambridge 95
_journal_year 2004
_journal_page_first 1248
_journal_name_full 'Izv.Akad.Nauk SSSR,Ser.Khim.(Russ.)(Russ.Chem.Bull.) '
loop_
_publ_author_name
"E.V.Tret'yakov"
"G.V.Romanenko"
"Yu.G.Shvedenkov"
"V.I.Ovcharenko"
"R.Z.Sagdeev"
_chemical_name_systematic
;
Ethyl 4,4,5,5-tetramethyl-1-oxyl-3-oxide-2-imidazolidinecarboximidoate
;
_chemical_melting_point 366.15
_cell_volume   1221.549
_exptl_crystal_density_diffrn 1.241
_exptl_special_details
;
Melting point range 366.15-368.15K
The space group is P21/c, not P2/c as published
;
_diffrn_ambient_temperature 295
#These two values have been output from a single CSD field.
_refine_ls_R_factor_gt 0.043
_refine_ls_wR_factor_gt 0.043
_symmetry_cell_setting monoclinic
_symmetry_space_group_name_H-M 'P 21/c'
_symmetry_Int_Tables_number 14
loop_
_symmetry_equiv_pos_site_id
_symmetry_equiv_pos_as_xyz
1 x,y,z
2 -x,1/2+y,1/2-z
3 -x,-y,-z
4 x,-1/2-y,-1/2+z
_cell_length_a 10.3708(17)
_cell_length_b 10.7678(17)
_cell_length_c 11.3375(18)
_cell_angle_alpha 90
_cell_angle_beta 105.239(2)
_cell_angle_gamma 90
_cell_formula_units_Z 4
loop_
_atom_type_symbol
_atom_type_radius_bond
C 0.68
H 0.23
N 0.68
O 0.68
loop_
_atom_site_label
_atom_site_type_symbol
_atom_site_fract_x
_atom_site_fract_y
_atom_site_fract_z
O1 O 0.75136(13) 0.05494(12) 0.83762(11)
O2 O 0.62691(14) -0.13608(15) 0.92379(11)
N1 N 0.69569(13) -0.09262(13) 1.02518(12)
O3 O 0.92910(14) 0.09382(13) 1.21515(13)
C1 C 0.78526(15) 0.00091(15) 1.04314(15)
N2 N 0.83663(13) 0.01642(14) 1.16351(13)
C2 C 0.69711(16) -0.15766(17) 1.14363(15)
C3 C 0.82858(18) 0.07467(16) 0.95059(17)
C4 C 0.76558(17) -0.05943(19) 1.23832(16)
N3 N 0.9281(2) 0.1458(2) 0.9732(2)
H1 H 0.957(2) 0.154(3) 1.064(3)
C5 C 0.7922(2) 0.1159(3) 0.7385(2)
H2 H 0.858(3) 0.061(3) 0.718(3)
H3 H 0.826(2) 0.191(3) 0.767(2)
C6 C 0.6759(3) 0.1191(3) 0.6306(2)
H4 H 0.708(2) 0.159(3) 0.563(3)
H5 H 0.611(3) 0.171(3) 0.650(3)
H6 H 0.632(3) 0.034(4) 0.612(3)
C7 C 0.5560(2) -0.1906(3) 1.1451(2)
H7 H 0.524(3) -0.252(3) 1.083(3)
H8 H 0.499(3) -0.116(2) 1.135(2)
H9 H 0.558(2) -0.231(2) 1.220(2)
C8 C 0.7811(3) -0.2743(2) 1.1454(2)
H10 H 0.732(3) -0.330(3) 1.076(3)
H11 H 0.783(2) -0.315(2) 1.216(2)
H12 H 0.871(3) -0.252(3) 1.140(2)
C9 C 0.6704(3) 0.0301(3) 1.2771(3)
H13 H 0.718(3) 0.090(3) 1.326(3)
H14 H 0.622(3) -0.020(2) 1.320(3)
H15 H 0.606(3) 0.064(3) 1.202(3)
C10 C 0.8669(3) -0.1119(4) 1.3497(2)
H16 H 0.899(3) -0.037(3) 1.395(3)
H17 H 0.940(3) -0.153(3) 1.323(3)
H18 H 0.826(2) -0.166(3) 1.388(2)
#END
