
#######################################################################
#
#                 Cambridge Crystallographic Data Centre
#                                CCDC
#
#######################################################################
#
# If this CIF has been generated from an entry in the Cambridge
# Structural Database, then it will include bibliographic, chemical,
# crystal, experimental, refinement or atomic coordinate data resulting
# from the CCDC's data processing and validation procedures.
#
#######################################################################

data_CSD_CIF_FEDXES
_audit_creation_date 2005-04-28
_audit_creation_method CSD-ConQuest-V1
_database_code_CSD FEDXES
_database_code_depnum_ccdc_archive 'CCDC 260010'
_chemical_formula_sum 'C9 H16 N3 O3'
_chemical_formula_moiety
;
C9 H16 N3 O3
;
_journal_coden_Cambridge 95
_journal_year 2004
_journal_page_first 1248
_journal_name_full 'Izv.Akad.Nauk SSSR,Ser.Khim.(Russ.)(Russ.Chem.Bull.) '
loop_
_publ_author_name
"E.V.Tret'yakov"
"G.V.Romanenko"
"Yu.G.Shvedenkov"
"V.I.Ovcharenko"
"R.Z.Sagdeev"
_chemical_name_systematic
;
Methyl 4,4,5,5-tetramethyl-1-oxyl-3-oxide-2-imidazolidinecarboximidoate
;
_chemical_melting_point 348.15
_cell_volume   1147.253
_exptl_crystal_colour 'blue-violet'
_exptl_crystal_density_diffrn 1.24
_exptl_special_details
;
Melting point range 348.15-349.15K

;
_exptl_crystal_description 'needle'
_diffrn_ambient_temperature 295
#These two values have been output from a single CSD field.
_refine_ls_R_factor_gt 0.0812
_refine_ls_wR_factor_gt 0.0812
_symmetry_cell_setting orthorhombic
_symmetry_space_group_name_H-M 'P n a 21'
_symmetry_Int_Tables_number 33
loop_
_symmetry_equiv_pos_site_id
_symmetry_equiv_pos_as_xyz
1 x,y,z
2 -x,-y,1/2+z
3 1/2+x,1/2-y,z
4 1/2-x,1/2+y,1/2+z
_cell_length_a 12.410(8)
_cell_length_b 12.238(8)
_cell_length_c 7.554(5)
_cell_angle_alpha 90
_cell_angle_beta 90
_cell_angle_gamma 90
_cell_formula_units_Z 4
loop_
_atom_type_symbol
_atom_type_radius_bond
C 0.68
H 0.23
N 0.68
O 0.68
loop_
_atom_site_label
_atom_site_type_symbol
_atom_site_fract_x
_atom_site_fract_y
_atom_site_fract_z
N1 N 0.7494(4) -0.0137(4) 0.7774(7)
O1 O 0.7160(4) -0.1143(3) 0.7771(8)
C1 C 0.6760(6) 0.0770(5) 0.7146(10)
N2 N 0.8458(5) 0.1354(4) 0.8200(9)
O2 O 0.9238(4) 0.2014(4) 0.8495(9)
C2 C 0.5605(6) 0.0544(8) 0.7663(14)
H1 H 0.534(8) -0.013(8) 0.693(14)
H2 H 0.521(7) 0.123(6) 0.737(13)
H3 H 0.567(6) 0.032(5) 0.881(11)
C3 C 0.6882(9) 0.0789(8) 0.5094(12)
H4 H 0.664(7) -0.005(7) 0.486(13)
H5 H 0.758(8) 0.104(6) 0.476(13)
H6 H 0.600(11) 0.130(9) 0.466(17)
O3 O 0.9392(4) -0.1441(3) 0.8023(7)
N3 N 1.0338(6) -0.0015(8) 0.9188(11)
C4 C 0.7309(5) 0.1767(5) 0.8097(10)
C5 C 0.6914(10) 0.1918(9) 0.9989(13)
H7 H 0.750(7) 0.238(6) 1.065(10)
H8 H 0.729(6) 0.130(5) 1.085(9)
H9 H 0.621(8) 0.213(6) 0.990(12)
C6 C 0.7248(10) 0.2852(8) 0.7060(18)
H10 H 0.802(8) 0.336(7) 0.773(15)
H11 H 0.659(6) 0.318(5) 0.692(10)
H12 H 0.780(9) 0.277(7) 0.622(14)
C7 C 0.8501(5) 0.0243(4) 0.8148(10)
C8 C 0.9475(6) -0.0391(5) 0.8532(9)
C9 C 1.0342(7) -0.2112(7) 0.8269(16)
H13 H 1.013(6) -0.280(6) 0.761(11)
H14 H 1.054(5) -0.214(4) 0.951(8)
H15 H 1.094(6) -0.172(5) 0.762(11)
H16 H 1.042(8) 0.053(7) 0.927(12)
#END
