
#######################################################################
#
#                 Cambridge Crystallographic Data Centre
#                                CCDC
#
#######################################################################
#
# If this CIF has been generated from an entry in the Cambridge
# Structural Database, then it will include bibliographic, chemical,
# crystal, experimental, refinement or atomic coordinate data resulting
# from the CCDC's data processing and validation procedures.
#
#######################################################################

data_CSD_CIF_FEDZEU
_audit_creation_date 2005-04-29
_audit_creation_method CSD-ConQuest-V1
_database_code_CSD FEDZEU
_database_code_depnum_ccdc_archive 'CCDC 260020'
_chemical_formula_sum 'C12 H18 N6 O5'
_chemical_formula_moiety
;
C12 H18 N6 O5
;
_journal_coden_Cambridge 95
_journal_year 2004
_journal_page_first 587
_journal_name_full 'Izv.Akad.Nauk SSSR,Ser.Khim.(Russ.)(Russ.Chem.Bull.) '
loop_
_publ_author_name
"A.B.Sheremetev"
"E.A.Ivanova"
"E.V.Shatunova"
"D.E.Dmitriev"
"N.E.Kuz'mina"
_chemical_name_systematic
;
10-n-Butyl-8,9:12,13-difurazano-1,4,7-trioxa-10,11-diazacyclotridecane
;
_chemical_melting_point 394.15
_cell_volume   1562.249
_exptl_crystal_density_diffrn 1.387
_exptl_special_details
;
Melting point range 394.15-395.15K

;
_diffrn_ambient_temperature 295
#These two values have been output from a single CSD field.
_refine_ls_R_factor_gt 0.0596
_refine_ls_wR_factor_gt 0.0596
_symmetry_cell_setting monoclinic
_symmetry_space_group_name_H-M 'P 21/c'
_symmetry_Int_Tables_number 14
loop_
_symmetry_equiv_pos_site_id
_symmetry_equiv_pos_as_xyz
1 x,y,z
2 -x,1/2+y,1/2-z
3 -x,-y,-z
4 x,-1/2-y,-1/2+z
_cell_length_a 11.024(2)
_cell_length_b 12.176(2)
_cell_length_c 11.881(2)
_cell_angle_alpha 90
_cell_angle_beta 101.59(3)
_cell_angle_gamma 90
_cell_formula_units_Z 4
loop_
_atom_type_symbol
_atom_type_radius_bond
C 0.68
H 0.23
N 0.68
O 0.68
loop_
_atom_site_label
_atom_site_type_symbol
_atom_site_fract_x
_atom_site_fract_y
_atom_site_fract_z
O1 O 1.0253(5) 0.3418(4) -0.0575(5)
O2 O 0.5824(4) 0.3620(3) -0.3393(3)
O3 O 0.6738(4) 0.1881(2) -0.1119(3)
O4 O 0.8437(5) 0.0346(3) -0.0067(4)
O5 O 0.9176(5) 0.1994(3) 0.1536(4)
N1 N 0.9102(6) 0.3945(4) -0.0645(6)
N2 N 1.0422(5) 0.2622(5) 0.0277(7)
N3 N 0.7469(4) 0.3710(3) 0.0367(4)
N4 N 0.6612(5) 0.4279(3) -0.0484(4)
N5 N 0.6026(5) 0.4398(4) -0.2507(4)
N6 N 0.6098(5) 0.2570(4) -0.2982(4)
C1 C 0.8606(6) 0.3458(4) 0.0122(6)
C2 C 0.9435(7) 0.2627(5) 0.0684(7)
C3 C 0.6377(5) 0.3817(4) -0.1566(5)
C4 C 0.6420(6) 0.2687(4) -0.1864(5)
C5 C 0.6809(6) 0.0794(4) -0.1590(6)
H1 H 0.7441(6) 0.0791(4) -0.2040(6)
H2 H 0.6037(6) 0.0575(4) -0.2066(6)
C6 C 0.7217(7) 0.0052(4) -0.0575(7)
H3 H 0.7231(7) -0.0688(4) -0.0852(7)
H4 H 0.6422(7) 0.0111(4) -0.0080(7)
C7 C 0.8812(8) 0.0083(5) 0.1135(6)
H5 H 0.8109(8) 0.0347(5) 0.1434(6)
H6 H 0.8814(8) -0.0795(5) 0.1339(6)
C8 C 0.9741(7) 0.0915(4) 0.1640(5)
H7 H 1.0115(7) 0.0745(4) 0.2422(5)
H8 H 1.0369(7) 0.0904(4) 0.1186(5)
C9 C 0.6685(6) 0.5482(4) -0.0429(5)
H9 H 0.5988(6) 0.5802(4) -0.0939(5)
H10 H 0.7422(6) 0.5696(4) -0.0686(5)
C10 C 0.6772(5) 0.5922(4) 0.0781(5)
C11 C 0.6661(6) 0.7149(4) 0.0800(6)
H11 H 0.7028(6) 0.7532(4) 0.0245(6)
H12 H 0.6019(6) 0.7283(4) 0.0725(6)
C12 C 0.6910(8) 0.7616(5) 0.2005(7)
H13 H 0.7303(8) 0.8321(5) 0.2018(7)
H14 H 0.7445(8) 0.7137(5) 0.2523(7)
H15 H 0.6195(8) 0.7703(5) 0.2207(7)
H16 H 0.5990(8) 0.5739(5) 0.1220(7)
H17 H 0.7008(8) 0.2998(5) 0.0713(7)
H18 H 0.7599(8) 0.5520(5) 0.1198(7)
#END
