
#######################################################################
#
#                 Cambridge Crystallographic Data Centre
#                                CCDC
#
#######################################################################
#
# If this CIF has been generated from an entry in the Cambridge
# Structural Database, then it will include bibliographic, chemical,
# crystal, experimental, refinement or atomic coordinate data resulting
# from the CCDC's data processing and validation procedures.
#
#######################################################################

data_CSD_CIF_FEDZAQ
_audit_creation_date 2005-04-29
_audit_creation_method CSD-ConQuest-V1
_database_code_CSD FEDZAQ
_database_code_depnum_ccdc_archive 'CCDC 260019'
_chemical_formula_sum 'C24 H31 N7 O2'
_chemical_formula_moiety
;
C24 H31 N7 O2
;
_journal_coden_Cambridge 444
_journal_volume 74
_journal_year 2004
_journal_page_first 819
_journal_name_full 'Zh.Obshch.Khim.(Russ.)(Russ.J.Gen.Chem.) '
loop_
_publ_author_name
"A.S.Gavrilov"
"V.V.Kachala"
"N.E.Kuz'mina"
"E.L.Golod"
_chemical_name_systematic
;
1-Adamanyl-4-(2-adamantyltetrazol-5-yl)-3-nitropyrazole
;
_chemical_melting_point 531.15
_cell_volume   2294.043
_exptl_crystal_density_diffrn 1.302
_exptl_special_details
;
Melting point range 531.15-533.15K

;
_diffrn_ambient_temperature 295
_refine_special_details
;
One of the adamantyl groups is disordered over two sets of positions with 
equal occupancies.
;
#These two values have been output from a single CSD field.
_refine_ls_R_factor_gt 0.1254
_refine_ls_wR_factor_gt 0.1254
_symmetry_cell_setting monoclinic
_symmetry_space_group_name_H-M 'P 21/c'
_symmetry_Int_Tables_number 14
loop_
_symmetry_equiv_pos_site_id
_symmetry_equiv_pos_as_xyz
1 x,y,z
2 -x,1/2+y,1/2-z
3 -x,-y,-z
4 x,-1/2-y,-1/2+z
_cell_length_a 14.219(5)
_cell_length_b 14.482(5)
_cell_length_c 11.657(7)
_cell_angle_alpha 90
_cell_angle_beta 107.12(5)
_cell_angle_gamma 90
_cell_formula_units_Z 4
loop_
_atom_type_symbol
_atom_type_radius_bond
C 0.78
H 0.23
N 0.68
O 0.68
loop_
_atom_site_label
_atom_site_type_symbol
_atom_site_fract_x
_atom_site_fract_y
_atom_site_fract_z
O1 O 1.1076(13) 0.3956(11) 0.1918(15)
O2 O 0.9841(11) 0.3927(11) 0.0269(16)
N1 N 1.0830(11) 0.3436(10) 0.5302(14)
N2 N 1.1370(11) 0.4100(12) 0.5919(14)
N3 N 1.1365(12) 0.4864(13) 0.5303(18)
N4 N 1.0761(14) 0.4697(13) 0.4206(18)
N5 N 0.8475(10) 0.2558(10) 0.2248(13)
N6 N 0.8819(10) 0.2906(10) 0.1373(13)
N7 N 1.0221(15) 0.3808(13) 0.1343(19)
C1 C 1.0456(12) 0.3822(12) 0.4225(16)
C2 C 0.9745(11) 0.3356(12) 0.3251(15)
C3 C 0.9614(12) 0.3388(12) 0.1993(15)
C4 C 0.9000(11) 0.2803(11) 0.3348(15)
H1 H 0.8629(11) 0.2681(11) 0.4176(15)
C5 C 1.1981(11) 0.4003(11) 0.7185(14)
C6 C 1.1334(15) 0.3640(14) 0.7907(18)
H2 H 1.1023(15) 0.3078(14) 0.7555(18)
H3 H 1.0823(15) 0.4088(14) 0.7895(18)
C7 C 1.1968(16) 0.3478(17) 0.9229(20)
H4 H 1.1566(16) 0.3256(17) 0.9697(20)
C8 C 1.2767(17) 0.2799(17) 0.9225(22)
H5 H 1.2465(17) 0.2227(17) 0.8903(22)
H6 H 1.3155(17) 0.2697(17) 1.0043(22)
C9 C 1.3391(16) 0.3120(15) 0.8506(19)
H7 H 1.3889(16) 0.2668(15) 0.8514(19)
C10 C 1.2765(14) 0.3289(14) 0.7199(18)
H8 H 1.3173(14) 0.3517(14) 0.6737(18)
H9 H 1.2463(14) 0.2727(14) 0.6837(18)
C11 C 1.3109(16) 0.4740(16) 0.9012(21)
H10 H 1.3417(16) 0.5328(16) 0.9400(21)
C12 C 1.2445(15) 0.4886(14) 0.7692(18)
H11 H 1.1933(15) 0.5314(14) 0.7700(18)
H12 H 1.2813(15) 0.5134(14) 0.7190(18)
C13 C 1.2422(19) 0.4386(18) 0.9690(23)
H13 H 1.2780(19) 0.4324(18) 1.0528(23)
H14 H 1.1910(19) 0.4834(18) 0.9628(23)
C14 C 1.3876(18) 0.4008(17) 0.8978(24)
H15 H 1.4231(18) 0.4219(17) 0.8446(24)
H16 H 1.4336(18) 0.3929(17) 0.9762(24)
C15 C 0.8001(59) 0.1072(55) 0.2609(72)
C16? C 0.7328(58) 0.1548(56) 0.3063(70)
C17 C 0.692(13) 0.043(13) 0.236(16)
C18? C 0.6220(99) 0.0920(92) 0.271(11)
C19 C 0.6691(79) 0.0115(78) 0.098(11)
C20? C 0.5663(91) 0.1827(94) 0.175(14)
C21 C 0.6166(93) 0.1068(90) 0.0033(99)
C22? C 0.5610(83) 0.1850(78) 0.057(10)
C23 C 0.7160(58) 0.1798(56) 0.0452(70)
C24? C 0.6737(56) 0.2576(52) 0.1149(74)
C25 C 0.5767(66) 0.1742(59) 0.2114(79)
C26? C 0.6671(54) 0.0547(52) 0.0673(62)
C27 C 0.6769(55) 0.2457(53) 0.2334(70)
C28? C 0.7692(57) 0.1189(56) 0.1083(74)
C29 C 0.7573(13) 0.1970(13) 0.1913(16)
C30 C 0.6122(54) 0.0846(52) 0.2510(67)
C31? C 0.6654(85) 0.0255(80) 0.188(11)
C32 C 0.5541(61) 0.1723(61) 0.0681(78)
C33? C 0.5992(66) 0.1222(63) -0.0046(82)
#END
