
#######################################################################
#
#                 Cambridge Crystallographic Data Centre
#                                CCDC
#
#######################################################################
#
# If this CIF has been generated from an entry in the Cambridge
# Structural Database, then it will include bibliographic, chemical,
# crystal, experimental, refinement or atomic coordinate data resulting
# from the CCDC's data processing and validation procedures.
#
#######################################################################

data_CSD_CIF_FEFHIK
_audit_creation_date 2017-07-14
_audit_creation_method CSD-ConQuest-V1
_database_code_CSD FEFHIK
_database_code_depnum_ccdc_archive 'CCDC 1405543'
_chemical_formula_sum 'C20 H15 N3 O4'
_chemical_formula_moiety
;
C20 H15 N3 O4
;
_journal_coden_Cambridge 917
_journal_volume 12
_journal_year 2016
_journal_page_first 2390
_journal_name_full 'Beilstein J.Org.Chem. '
loop_
_publ_author_name
"I.V.Efimov"
"M.Z.Shafikov"
"N.A.Beliaev"
"N.N.Volkova"
"T.V.Beryozkina"
"Wim Dehaen"
"Zhijin Fan"
"V.V.Grishko"
"G.Lubec"
"P.A.Slepukhin"
"V.A.Bakulev"
_chemical_name_systematic
;
ethyl 3'-phenyl-3-(pyridin-2-yl)-4,5'-bi-1,2-oxazole-4'-carboxylate
;
_cell_volume   1714.444
_exptl_crystal_colour 'colorless'
_exptl_crystal_density_diffrn 1.4
_exptl_crystal_description 'prism'
_diffrn_ambient_temperature 150
#These two values have been output from a single CSD field.
_refine_ls_R_factor_gt 0.0453
_refine_ls_wR_factor_gt 0.0453
_symmetry_cell_setting monoclinic
_symmetry_space_group_name_H-M 'P 21/c'
_symmetry_Int_Tables_number 14
loop_
_symmetry_equiv_pos_site_id
_symmetry_equiv_pos_as_xyz
1 x,y,z
2 -x,1/2+y,1/2-z
3 -x,-y,-z
4 x,-1/2-y,-1/2+z
_cell_length_a 8.9292(3)
_cell_length_b 12.2608(4)
_cell_length_c 15.9631(6)
_cell_angle_alpha 90
_cell_angle_beta 101.183(3)
_cell_angle_gamma 90
_cell_formula_units_Z 4
loop_
_atom_type_symbol
_atom_type_radius_bond
C 0.68
H 0.23
N 0.68
O 0.68
loop_
_atom_site_label
_atom_site_type_symbol
_atom_site_fract_x
_atom_site_fract_y
_atom_site_fract_z
O1 O 0.43216(9) 0.29086(7) 0.30730(5)
O2 O 0.81432(9) 0.39097(7) 0.21738(5)
O3 O 0.40711(11) 0.41762(8) 0.03603(5)
O4 O 0.58281(10) 0.29521(9) 0.43796(6)
N1 N 0.92573(11) 0.36354(9) 0.28975(7)
N2 N 0.46869(12) 0.54263(9) 0.30889(7)
N3 N 0.33199(12) 0.47761(8) 0.09031(6)
C1 C 0.68832(12) 0.33172(9) 0.31546(7)
C2 C 0.84988(12) 0.33006(9) 0.34780(7)
C3 C 0.67411(13) 0.37167(9) 0.23471(7)
C4 C 0.56509(12) 0.30384(9) 0.36138(7)
C5 C 0.36171(13) 0.52081(9) 0.23961(7)
C6 C 0.54739(13) 0.40119(9) 0.16622(7)
C7 C 0.41479(13) 0.46703(9) 0.16729(7)
C8 C 0.93773(13) 0.29927(10) 0.43303(8)
C9 C 0.53473(15) 0.37466(10) 0.08273(8)
C10 C 1.05339(14) 0.36848(11) 0.47432(9)
C11 C 0.90899(15) 0.20148(10) 0.47200(8)
C12 C 0.20717(14) 0.54518(10) 0.23330(8)
C13 C 0.29654(13) 0.27286(10) 0.34443(8)
H1 H 0.21390 0.31890 0.31590
H2 H 0.31870 0.29220 0.40450
C14 C 0.16067(14) 0.59384(10) 0.30230(9)
C15 C 0.26831(16) 0.61582(11) 0.37474(9)
C16 C 0.42010(16) 0.58881(11) 0.37488(9)
C17 C 1.13798(16) 0.34002(14) 0.55390(9)
C18 C 0.99535(17) 0.17365(13) 0.55104(9)
C19 C 0.24919(15) 0.15569(11) 0.33474(9)
H3 H 0.23760 0.13470 0.27590
H4 H 0.15380 0.14630 0.35310
H5 H 0.32580 0.11100 0.36900
C20 C 1.10963(18) 0.24260(14) 0.59187(9)
H6 H 0.054(2) 0.6118(13) 0.2974(11)
H7 H 0.2435(18) 0.6489(13) 0.4259(10)
H8 H 0.4989(19) 0.6013(13) 0.4259(10)
H9 H 0.5970(18) 0.3314(13) 0.0520(9)
H10 H 0.1349(18) 0.5258(12) 0.1821(9)
H11 H 0.8248(18) 0.1516(13) 0.4444(9)
H12 H 1.0697(19) 0.4358(15) 0.4469(10)
H13 H 1.219(2) 0.3887(14) 0.5827(12)
H14 H 0.9753(19) 0.1008(14) 0.5778(10)
H15 H 1.170(2) 0.2259(16) 0.6500(12)
#END
