
#######################################################################
#
#                 Cambridge Crystallographic Data Centre
#                                CCDC
#
#######################################################################
#
# If this CIF has been generated from an entry in the Cambridge
# Structural Database, then it will include bibliographic, chemical,
# crystal, experimental, refinement or atomic coordinate data resulting
# from the CCDC's data processing and validation procedures.
#
#######################################################################

data_CSD_CIF_FEFLIO
_audit_creation_date 2017-07-14
_audit_creation_method CSD-ConQuest-V1
_database_code_CSD FEFLIO
_database_code_depnum_ccdc_archive 'CCDC 1491193'
_chemical_formula_sum 'C23 H21 N3 O5'
_chemical_formula_moiety
;
C23 H21 N3 O5
;
_journal_coden_Cambridge 917
_journal_volume 12
_journal_year 2016
_journal_page_first 2503
_journal_name_full 'Beilstein J.Org.Chem. '
loop_
_publ_author_name
"F.Albota"
"M.R.Caira"
"C.Draghici"
"F.Dumitrascu"
"D.E.Dumitrescu"
_chemical_name_systematic
;
4-[1-(ethoxycarbonyl)-8-ethyl-5-methylindolizine-3-carbonyl]-5-oxo-3-phenyl-5H
-1,2,3-oxadiazol-3-ium-2-ide
;
_chemical_melting_point 480
_cell_volume    988.211
_exptl_crystal_colour 'orange'
_exptl_crystal_density_diffrn 1.41
_exptl_special_details
;
Melting point range 480-482K

;
_exptl_crystal_description 'block'
_exptl_crystal_preparation 'acetonitrile'
_diffrn_ambient_temperature 173
#These two values have been output from a single CSD field.
_refine_ls_R_factor_gt 0.039
_refine_ls_wR_factor_gt 0.039
_symmetry_cell_setting triclinic
_symmetry_space_group_name_H-M 'P -1'
_symmetry_Int_Tables_number 2
loop_
_symmetry_equiv_pos_site_id
_symmetry_equiv_pos_as_xyz
1 x,y,z
2 -x,-y,-z
_cell_length_a 8.9685(5)
_cell_length_b 10.6487(7)
_cell_length_c 11.0785(7)
_cell_angle_alpha 93.480(1)
_cell_angle_beta 95.886(1)
_cell_angle_gamma 109.306(1)
_cell_formula_units_Z 2
loop_
_atom_type_symbol
_atom_type_radius_bond
C 0.68
H 0.23
N 0.68
O 0.68
loop_
_atom_site_label
_atom_site_type_symbol
_atom_site_fract_x
_atom_site_fract_y
_atom_site_fract_z
O1 O 0.42171(12) -0.09983(9) 0.30995(9)
N1 N 0.32326(15) -0.09304(12) 0.20937(11)
N2 N 0.38141(13) 0.02995(10) 0.18205(10)
C1 C 0.51103(15) 0.10975(13) 0.25874(11)
C2 C 0.54400(16) 0.02589(13) 0.34584(13)
O2 O 0.64483(12) 0.0376(1) 0.43016(9)
C3 C 0.29761(15) 0.06203(13) 0.07554(12)
C4 C 0.27610(16) -0.01781(14) -0.03265(13)
H1 H 0.31750 -0.08910 -0.03720
C5 C 0.19233(18) 0.00936(16) -0.13425(14)
H2 H 0.17640 -0.04340 -0.20980
C6 C 0.13197(18) 0.11272(16) -0.12611(15)
H3 H 0.07440 0.13060 -0.19600
C7 C 0.15499(18) 0.19064(16) -0.01627(15)
H4 H 0.11280 0.26150 -0.01140
C8 C 0.23886(17) 0.16612(14) 0.08641(13)
H5 H 0.25540 0.21920 0.16190
C9 C 0.60749(14) 0.24511(12) 0.23361(11)
O3 O 0.60173(11) 0.27636(9) 0.12835(8)
C10 C 0.69711(14) 0.33435(12) 0.33979(11)
N3 N 0.81732(12) 0.45907(10) 0.33806(9)
C11 C 0.92554(15) 0.49685(13) 0.25481(12)
C12 C 1.03300(16) 0.62401(14) 0.27356(13)
H6 H 1.10590 0.65410 0.21640
C13 C 1.03800(16) 0.71089(13) 0.37510(13)
H7 H 1.11250 0.79930 0.38370
C14 C 0.93882(15) 0.67250(13) 0.46255(12)
C15 C 0.82586(15) 0.54098(12) 0.44594(11)
C16 C 0.70946(15) 0.46217(12) 0.51512(11)
C17 C 0.63676(15) 0.33715(13) 0.44976(12)
H8 H 0.55740 0.26440 0.47660
C18 C 0.93165(17) 0.39920(14) 0.15428(13)
H9 H 0.84600 0.38900 0.08800
H10 H 0.91820 0.31250 0.18540
H11 H 1.03480 0.43210 0.12350
C19 C 0.95374(16) 0.77360(13) 0.56890(13)
H12 H 1.06360 0.83890 0.58230
H13 H 0.93440 0.72720 0.64350
C20 C 0.8360(2) 0.84785(16) 0.54699(17)
H14 H 0.85580 0.89500 0.47390
H15 H 0.84940 0.91260 0.61750
H16 H 0.72700 0.78370 0.53550
C21 C 0.65712(16) 0.49591(13) 0.63082(12)
O4 O 0.70898(15) 0.59963(11) 0.69559(11)
O5 O 0.53576(12) 0.39214(10) 0.65686(9)
C22 C 0.46739(18) 0.41012(16) 0.76730(13)
H17 H 0.35580 0.34840 0.75880
H18 H 0.46600 0.50270 0.77770
C23 C 0.5582(2) 0.38450(19) 0.87764(15)
H19 H 0.56800 0.29580 0.86480
H20 H 0.50180 0.38810 0.94830
H21 H 0.66460 0.45270 0.89250
#END
