
#######################################################################
#
#                 Cambridge Crystallographic Data Centre
#                                CCDC
#
#######################################################################
#
# If this CIF has been generated from an entry in the Cambridge
# Structural Database, then it will include bibliographic, chemical,
# crystal, experimental, refinement or atomic coordinate data resulting
# from the CCDC's data processing and validation procedures.
#
#######################################################################

data_CSD_CIF_FEFNAH
_audit_creation_date 2012-12-31
_audit_creation_method CSD-ConQuest-V1
_database_code_CSD FEFNAH
_database_code_depnum_ccdc_archive 'CCDC 848754'
_chemical_formula_sum 'C11 H9 N1 O3'
_chemical_formula_moiety
;
C11 H9 N1 O3
;
_journal_coeditor_code "IUCr WQ3019"
_journal_coden_Cambridge 591
_journal_volume 68
_journal_year 2012
_journal_page_first o481
_journal_name_full 'Acta Crystallogr.,Sect.C:Cryst.Struct.Commun. '
loop_
_publ_author_name
"P.Rajalakshmi"
"N.Srinivasan"
"R.V.Krishnakumar"
"I.A.Razak"
"M.M.Rosli"
_chemical_name_systematic
;
4H-Chromeno[4,3-c][1,2]oxazol-3-ylmethanol
;
_cell_volume    904.156
_exptl_crystal_colour 'colorless'
_exptl_crystal_density_diffrn 1.493
_exptl_crystal_description 'block'
_diffrn_ambient_temperature 100
#These two values have been output from a single CSD field.
_refine_ls_R_factor_gt 0.0452
_refine_ls_wR_factor_gt 0.0452
_symmetry_cell_setting monoclinic
_symmetry_space_group_name_H-M 'P 21/c'
_symmetry_Int_Tables_number 14
loop_
_symmetry_equiv_pos_site_id
_symmetry_equiv_pos_as_xyz
1 x,y,z
2 -x,1/2+y,1/2-z
3 -x,-y,-z
4 x,-1/2-y,-1/2+z
_cell_length_a 9.6423(2)
_cell_length_b 8.3406(1)
_cell_length_c 13.1461(2)
_cell_angle_alpha 90
_cell_angle_beta 121.218(1)
_cell_angle_gamma 90
_cell_formula_units_Z 4
loop_
_atom_type_symbol
_atom_type_radius_bond
C 0.68
H 0.23
N 0.68
O 0.68
loop_
_atom_site_label
_atom_site_type_symbol
_atom_site_fract_x
_atom_site_fract_y
_atom_site_fract_z
O1 O 0.06136(9) 0.44242(9) 0.41723(6)
O2 O 0.55740(9) 0.22910(9) 0.56470(6)
O3 O 0.51567(9) 0.44947(9) 0.78401(7)
H1 H 0.50080 0.40190 0.83600
N1 N 0.45316(10) 0.22839(11) 0.43995(7)
C1 C 0.33012(11) 0.31989(11) 0.41987(8)
C2 C 0.18522(11) 0.35464(11) 0.30568(8)
C3 C 0.16741(12) 0.32326(12) 0.19477(8)
H2 H 0.25640 0.28270 0.19060
C4 C 0.02032(13) 0.35123(12) 0.09120(9)
H3 H 0.00800 0.32930 0.01600
C5 C -0.10995(12) 0.41179(12) 0.09773(9)
H4 H -0.21070 0.43100 0.02660
C6 C -0.09396(12) 0.44429(12) 0.20694(9)
H5 H -0.18330 0.48520 0.21050
C7 C 0.05389(11) 0.41660(11) 0.31120(8)
C8 C 0.21731(11) 0.48962(12) 0.51724(9)
H6 H 0.21470 0.48430 0.59140
H7 H 0.24160 0.60150 0.50640
C9 C 0.34623(11) 0.38035(11) 0.52650(8)
C10 C 0.48983(11) 0.32032(11) 0.61385(8)
C11 C 0.58585(12) 0.33159(12) 0.74621(8)
H8 H 0.58650 0.22640 0.78140
H9 H 0.69930 0.36110 0.77340
#END
