
#######################################################################
#
#                 Cambridge Crystallographic Data Centre
#                                CCDC
#
#######################################################################
#
# If this CIF has been generated from an entry in the Cambridge
# Structural Database, then it will include bibliographic, chemical,
# crystal, experimental, refinement or atomic coordinate data resulting
# from the CCDC's data processing and validation procedures.
#
#######################################################################

data_CSD_CIF_FEFPUB
_audit_creation_date 1987-10-26
_audit_creation_method CSD-ConQuest-V1
_database_code_CSD FEFPUB
_chemical_formula_sum 'C17 H17 N3 O1'
_chemical_formula_moiety
;
C17 H17 N3 O1
;
_journal_coden_Cambridge 294
_journal_volume 136
_journal_year 1986
_journal_page_first 215
_journal_name_full 'J.Mol.Struct.:THEOCHEM '
loop_
_publ_author_name
"K.Horvath"
"D.Korbonits"
"G.Naray-Szabo"
"K.Simon"
_chemical_name_systematic
;
3-(N-Phenyl-3-aminopropyl)-5-phenyl-1,2,4-oxadiazole
;
_cell_volume   1462.202
_exptl_crystal_density_diffrn 1.269
_diffrn_ambient_temperature ?
_diffrn_special_details
;
The study was carried out at room temperature,in the range 283-303K

;
#These two values have been output from a single CSD field.
_refine_ls_R_factor_gt 0.037
_refine_ls_wR_factor_gt 0.037
_symmetry_cell_setting monoclinic
_symmetry_space_group_name_H-M 'P 21/c'
_symmetry_Int_Tables_number 14
loop_
_symmetry_equiv_pos_site_id
_symmetry_equiv_pos_as_xyz
1 x,y,z
2 -x,1/2+y,1/2-z
3 -x,-y,-z
4 x,-1/2-y,-1/2+z
_cell_length_a 14.820(5)
_cell_length_b 6.084(1)
_cell_length_c 16.675(5)
_cell_angle_alpha 90
_cell_angle_beta 103.46(9)
_cell_angle_gamma 90
_cell_formula_units_Z 4
loop_
_atom_type_symbol
_atom_type_radius_bond
C 0.68
H 0.23
N 0.68
O 0.68
loop_
_atom_site_label
_atom_site_type_symbol
_atom_site_fract_x
_atom_site_fract_y
_atom_site_fract_z
O1 O 0.3706(1) -0.2271(2) 0.0055(1)
N1 N 0.2942(1) -0.1030(3) -0.0405(1)
C1 C 0.3055(1) 0.0886(3) -0.0054(1)
N2 N 0.3823(1) 0.1041(3) 0.0595(1)
C2 C 0.4179(1) -0.0917(3) 0.0635(1)
C3 C 0.2410(1) 0.2765(3) -0.0299(1)
C4 C 0.1552(1) 0.2320(3) -0.0975(1)
C5 C 0.0926(1) 0.4329(3) -0.1157(1)
N3 N 0.1284(1) 0.6109(3) -0.1569(1)
C6 C 0.1269(1) 0.6064(3) -0.2402(1)
C7 C 0.1719(1) 0.7743(3) -0.2730(1)
C8 C 0.1697(1) 0.7801(4) -0.3558(1)
C9 C 0.1236(1) 0.6211(4) -0.4087(1)
C10 C 0.0795(1) 0.4548(4) -0.3770(1)
C11 C 0.0806(1) 0.4455(3) -0.2938(1)
C12 C 0.4998(1) -0.1727(3) 0.1224(1)
C13 C 0.5358(1) -0.3824(4) 0.1162(1)
C14 C 0.6140(1) -0.4500(4) 0.1735(1)
C15 C 0.6551(1) -0.3151(4) 0.2376(1)
C16 C 0.6185(1) -0.1101(4) 0.2451(1)
C17 C 0.5416(1) -0.0385(3) 0.1875(1)
H1 H 0.276(1) 0.395(3) -0.044(1)
H2 H 0.223(1) 0.322(3) 0.021(1)
H3 H 0.120(1) 0.104(3) -0.082(1)
H4 H 0.175(1) 0.187(3) -0.148(1)
H5 H 0.083(1) 0.487(3) -0.061(1)
H6 H 0.031(1) 0.391(3) -0.150(1)
H7 H 0.206(1) 0.887(3) -0.237(1)
H8 H 0.201(1) 0.904(3) -0.376(1)
H9 H 0.121(1) 0.627(3) -0.467(1)
H10 H 0.045(1) 0.343(3) -0.413(1)
H11 H 0.051(1) 0.324(3) -0.271(1)
H12 H 0.506(1) -0.474(3) 0.073(1)
H13 H 0.639(1) -0.596(3) 0.170(1)
H14 H 0.710(1) -0.365(3) 0.279(1)
H15 H 0.646(1) -0.019(3) 0.292(1)
H16 H 0.517(1) 0.101(3) 0.191(1)
H17 H 0.171(1) 0.700(3) -0.125(1)
#END
