
#######################################################################
#
#                 Cambridge Crystallographic Data Centre
#                                CCDC
#
#######################################################################
#
# If this CIF has been generated from an entry in the Cambridge
# Structural Database, then it will include bibliographic, chemical,
# crystal, experimental, refinement or atomic coordinate data resulting
# from the CCDC's data processing and validation procedures.
#
#######################################################################

data_CSD_CIF_FEFXUM
_audit_creation_date 2017-07-14
_audit_creation_method CSD-ConQuest-V1
_database_code_CSD FEFXUM
_database_code_depnum_ccdc_archive 'CCDC 1414279'
_chemical_formula_sum 'C6 H2 N8 O5'
_chemical_formula_moiety
;
C6 H2 N8 O5
;
_journal_coden_Cambridge 1271
_journal_volume 41
_journal_year 2016
_journal_page_first 906
_journal_name_full 'Propellants,Explos.,Pyrotech. '
loop_
_publ_author_name
"Qianhong Yi"
"Dehui Liang"
"Qing Ma"
"Ming Huang"
"Bisheng Tan"
"Yucun Liu"
"Yu Chi"
_chemical_name_systematic
;
4''-nitro-3,3':4',3''-ter-1,2,5-oxadiazol-4-amine
;
_cell_volume   1000.209
_exptl_crystal_density_diffrn 1.768
_diffrn_ambient_temperature 295.1
#These two values have been output from a single CSD field.
_refine_ls_R_factor_gt 0.0528
_refine_ls_wR_factor_gt 0.0528
_symmetry_cell_setting monoclinic
_symmetry_space_group_name_H-M 'P 21/c'
_symmetry_Int_Tables_number 14
loop_
_symmetry_equiv_pos_site_id
_symmetry_equiv_pos_as_xyz
1 x,y,z
2 -x,1/2+y,1/2-z
3 -x,-y,-z
4 x,-1/2-y,-1/2+z
_cell_length_a 6.6453(17)
_cell_length_b 26.395(4)
_cell_length_c 6.5746(15)
_cell_angle_alpha 90
_cell_angle_beta 119.85(3)
_cell_angle_gamma 90
_cell_formula_units_Z 4
loop_
_atom_type_symbol
_atom_type_radius_bond
C 0.68
H 0.23
N 0.68
O 0.68
loop_
_atom_site_label
_atom_site_type_symbol
_atom_site_fract_x
_atom_site_fract_y
_atom_site_fract_z
O1 O 0.4128(5) 0.75848(8) 0.6975(5)
O2 O 0.9875(5) 0.67626(9) 1.0806(5)
O3 O 0.7701(4) 0.61346(7) 0.8860(4)
O4 O 0.0411(4) 0.56751(7) 0.6164(4)
O5 O 0.6026(4) 0.60883(7) 0.2113(3)
N1 N 0.6338(6) 0.74011(9) 0.8269(5)
N2 N 0.2502(6) 0.71956(9) 0.6086(5)
N3 N 0.8055(4) 0.65815(9) 0.9348(4)
N4 N 0.1170(5) 0.61538(9) 0.7011(4)
N5 N 0.1336(4) 0.55134(9) 0.4793(4)
N6 N 0.5107(4) 0.62383(8) 0.3478(4)
N7 N 0.5341(4) 0.55901(8) 0.1282(4)
N8 N 0.2940(5) 0.49962(8) 0.1724(5)
H1 H 0.35330 0.47970 0.11240
H2 H 0.31590 0.48680 0.30250
C1 C 0.6060(5) 0.69150(9) 0.8145(5)
C2 C 0.3686(5) 0.67829(9) 0.6792(5)
C3 C 0.2535(5) 0.62854(9) 0.6220(4)
C4 C 0.2649(5) 0.58845(9) 0.4817(4)
C5 C 0.3891(5) 0.58573(9) 0.3523(4)
C6 C 0.4000(5) 0.54507(9) 0.2116(4)
#END
