
#######################################################################
#
#                 Cambridge Crystallographic Data Centre
#                                CCDC
#
#######################################################################
#
# If this CIF has been generated from an entry in the Cambridge
# Structural Database, then it will include bibliographic, chemical,
# crystal, experimental, refinement or atomic coordinate data resulting
# from the CCDC's data processing and validation procedures.
#
#######################################################################

data_CSD_CIF_FEGFIG
_audit_creation_date 1987-10-26
_audit_creation_method CSD-ConQuest-V1
_database_code_CSD FEGFIG
_database_code_depnum_ccdc_archive 'CCDC 1153986'
_chemical_formula_sum 'C16 H15 N3 O6'
_chemical_formula_moiety
;
C16 H15 N3 O6
;
_journal_coden_Cambridge 7
_journal_volume 60
_journal_year 1987
_journal_page_first 432
_journal_name_full 'Bull.Chem.Soc.Jpn. '
loop_
_publ_author_name
"T.Ibata"
"J.Toyoda"
"H.Tamura"
"K.Ogawa"
_chemical_name_systematic
;
1,4-Dimethyl-7-methoxy-8-p-nitrophenyl-4,9-diaza-10-oxatricyclo(5.2.1.0^2,6^)d
ec-8-ene-3,5-dione
;
_cell_volume    786.650
_exptl_crystal_colour 'colorless'
_exptl_crystal_density_diffrn 1.455
_diffrn_ambient_temperature ?
_diffrn_special_details
;
The study was carried out at room temperature,in the range 283-303K

;
#These two values have been output from a single CSD field.
_refine_ls_R_factor_gt 0.046
_refine_ls_wR_factor_gt 0.046
_symmetry_cell_setting triclinic
_symmetry_space_group_name_H-M 'P -1'
_symmetry_Int_Tables_number 2
loop_
_symmetry_equiv_pos_site_id
_symmetry_equiv_pos_as_xyz
1 x,y,z
2 -x,-y,-z
_cell_length_a 9.160(2)
_cell_length_b 11.182(2)
_cell_length_c 8.816(1)
_cell_angle_alpha 92.39(1)
_cell_angle_beta 116.47(1)
_cell_angle_gamma 100.60(1)
_cell_formula_units_Z 2
loop_
_atom_type_symbol
_atom_type_radius_bond
C 0.68
H 0.23
N 0.68
O 0.68
loop_
_atom_site_label
_atom_site_type_symbol
_atom_site_fract_x
_atom_site_fract_y
_atom_site_fract_z
O1 O 0.0766(1) 0.3878(1) 0.1337(2)
O2 O -0.0139(2) 0.1766(1) 0.0365(2)
O3 O 0.3962(2) 0.6123(1) 0.0325(2)
O4 O 0.0880(2) 0.2330(2) -0.2425(2)
O5 O 0.4924(2) -0.0954(2) 0.8595(2)
O6 O 0.3582(3) -0.2242(2) 0.6325(2)
N1 N 0.2962(2) 0.3846(1) 0.3967(2)
N2 N 0.2205(2) 0.4346(2) -0.1370(2)
N3 N 0.4018(2) -0.1209(2) 0.7061(2)
C1 C 0.2417(2) 0.4563(2) 0.2510(2)
C2 C 0.3456(2) 0.4289(2) 0.1573(2)
C3 C 0.3277(2) 0.5060(2) 0.0168(2)
C4 C 0.1734(2) 0.3121(2) -0.1224(2)
C5 C 0.2518(2) 0.2977(2) 0.0657(2)
C6 C 0.1201(2) 0.2709(2) 0.1331(2)
C7 C 0.2250(2) 0.2733(2) 0.3277(2)
C8 C 0.2456(3) 0.5871(2) 0.2981(3)
C9 C 0.1707(3) 0.4825(3) -0.2995(3)
C10 C -0.1409(3) 0.1570(2) 0.0929(3)
C11 C 0.2609(2) 0.1681(2) 0.4223(2)
C12 C 0.3488(2) 0.1902(2) 0.6008(2)
C13 C 0.3925(3) 0.0957(2) 0.6945(2)
C14 C 0.3489(2) -0.0212(2) 0.6066(2)
C15 C 0.2604(3) -0.0474(2) 0.4309(3)
C16 C 0.2157(3) 0.0488(2) 0.3383(2)
H1 H 0.468(2) 0.440(2) 0.238(3)
H2 H 0.321(3) 0.238(2) 0.090(3)
H3 H 0.197(3) 0.630(2) 0.203(3)
H4 H 0.190(3) 0.589(2) 0.364(3)
H5 H 0.357(3) 0.626(2) 0.378(3)
H6 H 0.093(4) 0.421(3) -0.384(4)
H7 H 0.225(4) 0.462(3) -0.347(4)
H8 H 0.088(4) 0.526(3) -0.314(4)
H9 H -0.215(3) 0.080(3) 0.025(4)
H10 H -0.213(4) 0.220(3) 0.053(4)
H11 H -0.093(4) 0.160(3) 0.212(4)
H12 H 0.384(3) 0.275(2) 0.660(3)
H13 H 0.447(3) 0.111(2) 0.817(3)
H14 H 0.226(4) -0.133(3) 0.370(4)
H15 H 0.145(3) 0.031(2) 0.213(3)
#END
