
#######################################################################
#
#                 Cambridge Crystallographic Data Centre
#                                CCDC
#
#######################################################################
#
# If this CIF has been generated from an entry in the Cambridge
# Structural Database, then it will include bibliographic, chemical,
# crystal, experimental, refinement or atomic coordinate data resulting
# from the CCDC's data processing and validation procedures.
#
#######################################################################

data_CSD_CIF_FEKHOU
_audit_creation_date 2013-04-04
_audit_creation_method CSD-ConQuest-V1
_database_code_CSD FEKHOU
_database_code_depnum_ccdc_archive 'CCDC 863799'
_chemical_formula_sum 'C19 H20 N2 O4'
_chemical_formula_moiety
;
C19 H20 N2 O4
;
_journal_coden_Cambridge 1366
_journal_volume 354
_journal_year 2012
_journal_page_first 2873
_journal_name_full 'Adv.Synth.Catal. '
loop_
_publ_author_name
"Xiang Li"
"Xiaojiao Li"
"Fangzhi Peng"
"Zhihui Shao"
_chemical_name_systematic
;
N-Benzyl-3-(nitromethyl)-5-oxo-5-phenylpentanamide
;
_cell_volume   1758.033
_exptl_crystal_colour 'colorless'
_exptl_crystal_density_diffrn 1.286
_exptl_crystal_description 'prism'
_diffrn_ambient_temperature 298
#These two values have been output from a single CSD field.
_refine_ls_R_factor_gt 0.0632
_refine_ls_wR_factor_gt 0.0632
_symmetry_cell_setting orthorhombic
_symmetry_space_group_name_H-M 'P n a 21'
_symmetry_Int_Tables_number 33
loop_
_symmetry_equiv_pos_site_id
_symmetry_equiv_pos_as_xyz
1 x,y,z
2 -x,-y,1/2+z
3 1/2+x,1/2-y,z
4 1/2-x,1/2+y,1/2+z
_cell_length_a 25.158(5)
_cell_length_b 13.834(3)
_cell_length_c 5.0513(9)
_cell_angle_alpha 90
_cell_angle_beta 90
_cell_angle_gamma 90
_cell_formula_units_Z 4
loop_
_atom_type_symbol
_atom_type_radius_bond
C 0.68
H 0.23
N 0.68
O 0.68
loop_
_atom_site_label
_atom_site_type_symbol
_atom_site_fract_x
_atom_site_fract_y
_atom_site_fract_z
N1 N 0.14320(13) 0.6576(2) 0.6406(7)
H1 H 0.15060 0.67020 0.47800
N2 N 0.27711(19) 0.9493(4) 0.9424(13)
O1 O 0.34308(12) 0.7115(2) 1.2449(7)
O2 O 0.16185(11) 0.6918(2) 1.0694(6)
O3 O 0.2804(2) 0.9603(3) 1.1825(12)
O4 O 0.2566(2) 1.0028(4) 0.8087(13)
C1 C 0.4105(2) 0.5511(4) 1.1912(11)
H2 H 0.41920 0.59590 1.32140
C2 C 0.4405(2) 0.4684(5) 1.1588(12)
H3 H 0.46930 0.45810 1.27070
C3 C 0.4296(2) 0.4013(4) 0.9696(12)
H4 H 0.45080 0.34680 0.94840
C4 C 0.3863(2) 0.4167(4) 0.8117(13)
H5 H 0.37720 0.37050 0.68590
C5 C 0.35576(18) 0.4988(4) 0.8338(11)
H6 H 0.32750 0.50860 0.71850
C6 C 0.36682(17) 0.5665(3) 1.0258(9)
C7 C 0.33462(16) 0.6557(3) 1.0593(9)
C8 C 0.29042(16) 0.6760(3) 0.8656(9)
H7 H 0.26430 0.62480 0.87970
H8 H 0.30500 0.67370 0.68780
C9 C 0.26238(15) 0.7724(3) 0.9025(8)
H9 H 0.25280 0.77910 1.08970
C10 C 0.29995(16) 0.8554(3) 0.8284(11)
H10 H 0.33510 0.84350 0.90080
H11 H 0.30290 0.86030 0.63750
C11 C 0.21116(14) 0.7760(3) 0.7375(9)
H12 H 0.19620 0.84050 0.74730
H13 H 0.21970 0.76290 0.55370
C12 C 0.17039(15) 0.7042(3) 0.8304(10)
C13 C 0.10227(16) 0.5876(3) 0.6960(12)
H14 H 0.10850 0.55990 0.86980
H15 H 0.10460 0.53570 0.56740
C14 C 0.04711(17) 0.6298(3) 0.6885(10)
C15 C 0.0115(2) 0.6020(4) 0.4978(13)
H16 H 0.02120 0.55540 0.37400
C16 C -0.0392(3) 0.6428(5) 0.4878(16)
H17 H -0.06310 0.62280 0.35900
C17 C -0.0537(2) 0.7117(5) 0.6653(18)
H18 H -0.08720 0.73960 0.65700
C18 C -0.0186(2) 0.7395(5) 0.8549(15)
H19 H -0.02830 0.78650 0.97740
C19 C 0.0315(2) 0.6983(4) 0.8672(13)
H20 H 0.05500 0.71760 0.99930
#END
