
#######################################################################
#
#                 Cambridge Crystallographic Data Centre
#                                CCDC
#
#######################################################################
#
# If this CIF has been generated from an entry in the Cambridge
# Structural Database, then it will include bibliographic, chemical,
# crystal, experimental, refinement or atomic coordinate data resulting
# from the CCDC's data processing and validation procedures.
#
#######################################################################

data_CSD_CIF_FEKMOZ
_audit_creation_date 2013-04-04
_audit_creation_method CSD-ConQuest-V1
_database_code_CSD FEKMOZ
_database_code_depnum_ccdc_archive 'CCDC 875045 (not 8750450 as published)'
_chemical_formula_sum 'C19 H17 N1 O1'
_chemical_formula_moiety
;
C19 H17 N1 O1
;
_journal_coden_Cambridge 1366
_journal_volume 354
_journal_year 2012
_journal_page_first 2556
_journal_name_full 'Adv.Synth.Catal. '
loop_
_publ_author_name
"Yanqing Zhang"
"Junliang Zhang"
_chemical_name_systematic
;
N-Hydroxy-1-(2-phenyl-1-(phenylethynyl)cyclopropyl)ethanimine
;
_cell_volume    755.615
_exptl_crystal_colour 'colorless'
_exptl_crystal_density_diffrn 1.21
_exptl_crystal_description 'block'
_diffrn_ambient_temperature 296
#These two values have been output from a single CSD field.
_refine_ls_R_factor_gt 0.0494
_refine_ls_wR_factor_gt 0.0494
_symmetry_cell_setting triclinic
_symmetry_space_group_name_H-M 'P -1'
_symmetry_Int_Tables_number 2
loop_
_symmetry_equiv_pos_site_id
_symmetry_equiv_pos_as_xyz
1 x,y,z
2 -x,-y,-z
_cell_length_a 8.7408(6)
_cell_length_b 9.4519(7)
_cell_length_c 9.7111(7)
_cell_angle_alpha 98.767(3)
_cell_angle_beta 90.605(3)
_cell_angle_gamma 107.327(2)
_cell_formula_units_Z 2
loop_
_atom_type_symbol
_atom_type_radius_bond
C 0.68
H 0.23
N 0.68
O 0.68
loop_
_atom_site_label
_atom_site_type_symbol
_atom_site_fract_x
_atom_site_fract_y
_atom_site_fract_z
O1 O 0.4493(2) 0.8416(2) 0.0651(2)
N1 N 0.5643(2) 0.9742(2) 0.1333(2)
C1 C 0.9978(3) 1.5757(3) 0.1782(3)
H1 H 1.07510 1.54830 0.22520
C2 C 1.0407(4) 1.7064(3) 0.1229(3)
H2 H 1.14680 1.76740 0.13300
C3 C 0.9284(4) 1.7475(3) 0.0530(3)
H3 H 0.95790 1.83580 0.01520
C4 C 0.7722(4) 1.6578(3) 0.0389(3)
H4 H 0.69550 1.68560 -0.00840
C5 C 0.7278(3) 1.5275(3) 0.0939(3)
H5 H 0.62130 1.46740 0.08370
C6 C 0.8402(3) 1.4846(3) 0.1643(2)
C7 C 0.7972(3) 1.3459(3) 0.2193(3)
C8 C 0.7684(3) 1.2315(3) 0.2654(3)
C9 C 0.7430(3) 1.0960(3) 0.3247(2)
C10 C 0.7723(3) 1.1155(3) 0.4811(3)
H6 H 0.79960 1.21670 0.53300
H7 H 0.70600 1.03860 0.52920
C11 C 0.8959(3) 1.0758(3) 0.3924(3)
H8 H 0.89380 0.97080 0.38610
C12 C 1.0576(3) 1.1807(3) 0.3798(3)
C13 C 1.1101(3) 1.3277(3) 0.4477(3)
H9 H 1.04170 1.36490 0.50520
C14 C 1.2617(4) 1.4201(4) 0.4320(3)
H10 H 1.29350 1.51910 0.47760
C15 C 1.3655(4) 1.3682(4) 0.3504(3)
H11 H 1.46800 1.43080 0.34050
C16 C 1.3166(4) 1.2217(4) 0.2829(3)
H12 H 1.38660 1.18480 0.22720
C17 C 1.1653(3) 1.1299(3) 0.2971(3)
H13 H 1.13400 1.03130 0.25040
C18 C 0.6211(3) 0.9591(3) 0.2499(3)
C19 C 0.5709(3) 0.8163(3) 0.3104(3)
H14 H 0.49160 0.74080 0.24800
H15 H 0.52650 0.83430 0.39890
H16 H 0.66270 0.78250 0.32280
H17 H 0.425(4) 0.883(3) -0.013(4)
#END
