
#######################################################################
#
#                 Cambridge Crystallographic Data Centre
#                                CCDC
#
#######################################################################
#
# If this CIF has been generated from an entry in the Cambridge
# Structural Database, then it will include bibliographic, chemical,
# crystal, experimental, refinement or atomic coordinate data resulting
# from the CCDC's data processing and validation procedures.
#
#######################################################################

data_CSD_CIF_FEKZUS
_audit_creation_date 2013-04-04
_audit_creation_method CSD-ConQuest-V1
_database_code_CSD FEKZUS
_database_code_depnum_ccdc_archive 'CCDC 894939'
_chemical_formula_sum 'C19 H25 N3 O2'
_chemical_formula_moiety
;
C19 H25 N3 O2
;
_journal_coden_Cambridge 1336
_journal_volume 14
_journal_year 2012
_journal_page_first 5621
_journal_name_full 'Org.Lett. '
loop_
_publ_author_name
"S.H.Tan"
"M.G.Banwell"
"A.C.Willis"
"T.A.Reekie"
_chemical_name_systematic
;
2-(7-Hydroxy-1,2,3,4,5,6,7,11c-octahydro-4aH-pyrido[3,2-c]carbazol-4a-yl)-N,N-
dimethylacetamide
;
_cell_volume   1685.217
_exptl_crystal_colour 'pale yellow'
_exptl_crystal_density_diffrn 1.29
_exptl_crystal_description 'block'
_diffrn_ambient_temperature 200
_refine_special_details
;
H231,H232,H233 and H234,H235,H236 disordered over two sites with occupancies 
0.7:0.3.
;
#These two values have been output from a single CSD field.
_refine_ls_R_factor_gt 0.0384
_refine_ls_wR_factor_gt 0.0384
_symmetry_cell_setting monoclinic
_symmetry_space_group_name_H-M 'P 21/c'
_symmetry_Int_Tables_number 14
loop_
_symmetry_equiv_pos_site_id
_symmetry_equiv_pos_as_xyz
1 x,y,z
2 -x,1/2+y,1/2-z
3 -x,-y,-z
4 x,-1/2-y,-1/2+z
_cell_length_a 10.5786(2)
_cell_length_b 10.5791(3)
_cell_length_c 15.5501(4)
_cell_angle_alpha 90
_cell_angle_beta 104.4468(16)
_cell_angle_gamma 90
_cell_formula_units_Z 4
loop_
_atom_type_symbol
_atom_type_radius_bond
C 0.68
H 0.23
N 0.68
O 0.68
loop_
_atom_site_label
_atom_site_type_symbol
_atom_site_fract_x
_atom_site_fract_y
_atom_site_fract_z
N1 N 0.06053(9) 0.32874(9) 0.56017(7)
C1 C 0.10895(10) 0.26267(11) 0.49979(7)
C2 C 0.07379(12) 0.14464(11) 0.46130(9)
C3 C 0.14310(14) 0.09963(13) 0.40364(9)
C4 C 0.24420(14) 0.17073(13) 0.38387(9)
C5 C 0.27784(12) 0.28864(12) 0.42153(8)
C6 C 0.21079(10) 0.33649(10) 0.48149(7)
C7 C 0.2221(1) 0.44818(10) 0.53535(7)
C8 C 0.31542(10) 0.55698(10) 0.54401(7)
N2 N 0.26931(9) 0.64331(9) 0.46607(6)
C9 C 0.35292(12) 0.75653(11) 0.47060(8)
C10 C 0.34805(13) 0.83344(11) 0.55188(9)
C11 C 0.39707(12) 0.75412(11) 0.63572(8)
C12 C 0.32669(10) 0.62628(10) 0.63388(7)
C13 C 0.18906(11) 0.64974(11) 0.64831(8)
C14 C 0.10837(11) 0.52972(12) 0.65112(8)
C15 C 0.12935(10) 0.43959(11) 0.58301(7)
C16 C 0.40415(11) 0.54279(11) 0.71184(7)
C17 C 0.54712(10) 0.52019(10) 0.71500(7)
O1 O 0.57627(8) 0.44580(8) 0.66129(5)
N3 N 0.64053(9) 0.57751(10) 0.77764(7)
C18 C 0.61923(15) 0.67015(14) 0.84171(10)
C19 C 0.77768(12) 0.54517(15) 0.78542(10)
O2 O -0.02880(8) 0.28038(9) 0.60269(6)
H1 H 0.0019(14) 0.0959(14) 0.4761(9)
H2 H 0.1244(15) 0.0162(16) 0.3753(10)
H3 H 0.2933(15) 0.1366(15) 0.3416(11)
H4 H 0.3483(14) 0.3411(14) 0.4067(9)
H5 H 0.4033(12) 0.5253(12) 0.5429(8)
H6 H 0.2792(13) 0.5973(13) 0.4174(9)
H7 H 0.4462(14) 0.7310(13) 0.4730(9)
H8 H 0.3179(13) 0.8060(13) 0.414(1)
H9 H 0.4039(14) 0.9096(15) 0.5538(9)
H10 H 0.2541(14) 0.8636(14) 0.5469(9)
H11 H 0.3881(13) 0.8012(13) 0.6906(10)
H12 H 0.4926(14) 0.7381(13) 0.6433(9)
H13 H 0.1979(13) 0.6985(13) 0.7053(9)
H14 H 0.1385(13) 0.7055(13) 0.5987(10)
H15 H 0.1319(13) 0.4889(14) 0.7108(10)
H16 H 0.0144(14) 0.5523(13) 0.6417(9)
H17 H 0.3942(13) 0.5813(13) 0.7680(9)
H18 H 0.3644(13) 0.4554(13) 0.7065(9)
H19 H 0.5357(18) 0.7097(17) 0.8247(12)
H20 H 0.6307(17) 0.6335(18) 0.9010(13)
H21 H 0.6846(18) 0.7392(19) 0.8453(12)
H22 H 0.7843(18) 0.470(2) 0.7493(16)
H23 H 0.8199(18) 0.529(3) 0.8482(11)
H24 H 0.8220(17) 0.6149(18) 0.7659(17)
H25 H -0.1168(17) 0.3167(16) 0.5680(11)
H26? H 0.834(2) 0.605(4) 0.825(3)
H27? H 0.797(3) 0.459(3) 0.807(4)
H28? H 0.797(3) 0.550(5) 0.7270(15)
#END
