
#######################################################################
#
#                 Cambridge Crystallographic Data Centre
#                                CCDC
#
#######################################################################
#
# If this CIF has been generated from an entry in the Cambridge
# Structural Database, then it will include bibliographic, chemical,
# crystal, experimental, refinement or atomic coordinate data resulting
# from the CCDC's data processing and validation procedures.
#
#######################################################################

data_CSD_CIF_FELCAC
_audit_creation_date 2013-04-04
_audit_creation_method CSD-ConQuest-V1
_database_code_CSD FELCAC
_database_code_depnum_ccdc_archive 'CCDC 892230'
_chemical_formula_sum 'C28 H27 N3 O3'
_chemical_formula_moiety
;
C28 H27 N3 O3
;
_journal_coden_Cambridge 1336
_journal_volume 14
_journal_year 2012
_journal_page_first 5652
_journal_name_full 'Org.Lett. '
loop_
_publ_author_name
"Ruomeng Wang"
"G.Bojase"
"A.C.Willis"
"M.N.Paddon-Row"
"M.S.Sherburn"
_chemical_name_systematic
;
2,6-Diphenyl-4-(2-phenyl-3,6-dihydro-2H-1,2-oxazin-4-yl)-2,3,5,6,8,8a-hexahydr
o[1,2]oxazino[5,6-d][1,2]oxazine
;
_cell_volume   1154.441
_exptl_crystal_colour 'colorless'
_exptl_crystal_density_diffrn 1.305
_exptl_crystal_description 'plate'
_diffrn_ambient_temperature 200
_refine_special_details
;
N21,O20 and N121,O120 disordered over two sites with occupancies 0.771:0.229.

;
#These two values have been output from a single CSD field.
_refine_ls_R_factor_gt 0.0548
_refine_ls_wR_factor_gt 0.0548
_symmetry_cell_setting triclinic
_symmetry_space_group_name_H-M 'P -1'
_symmetry_Int_Tables_number 2
loop_
_symmetry_equiv_pos_site_id
_symmetry_equiv_pos_as_xyz
1 x,y,z
2 -x,-y,-z
_cell_length_a 9.9709(6)
_cell_length_b 10.7612(9)
_cell_length_c 13.1112(11)
_cell_angle_alpha 105.781(3)
_cell_angle_beta 100.075(4)
_cell_angle_gamma 115.216(4)
_cell_formula_units_Z 2
loop_
_atom_type_symbol
_atom_type_radius_bond
C 0.68
H 0.23
N 0.68
O 0.68
loop_
_atom_site_label
_atom_site_type_symbol
_atom_site_fract_x
_atom_site_fract_y
_atom_site_fract_z
O1 O 0.55810(16) 0.10227(16) 0.82031(12)
N1 N 0.70351(19) 0.14624(19) 0.79598(14)
C1 C 0.6774(2) 0.1652(2) 0.68949(17)
C2 C 0.6137(2) 0.2701(2) 0.69426(17)
C3 C 0.5624(2) 0.3094(2) 0.77851(17)
C4 C 0.5137(2) 0.4255(2) 0.80114(18)
N2 N 0.3569(2) 0.36085(19) 0.81217(14)
O2 O 0.36508(17) 0.30991(17) 0.90453(12)
C5 C 0.3844(3) 0.1836(3) 0.8696(2)
C6 C 0.5462(2) 0.2333(2) 0.85964(17)
C7 C 0.7565(2) 0.0448(2) 0.80480(17)
C8 C 0.7313(3) -0.0188(2) 0.88402(18)
C9 C 0.7953(3) -0.1069(3) 0.8987(2)
C10 C 0.8845(3) -0.1330(3) 0.8358(2)
C11 C 0.9099(3) -0.0709(3) 0.75713(19)
C12 C 0.8461(2) 0.0170(2) 0.74089(18)
C13 C 0.6184(2) 0.3269(2) 0.60193(17)
C14 C 0.4970(2) 0.2661(2) 0.50963(17)
C15 C 0.5049(2) 0.3260(2) 0.41946(18)
O3 O 0.6248(2) 0.4790(2) 0.46492(16)
N3 N 0.7713(4) 0.4846(3) 0.5133(3)
C16 C 0.7722(2) 0.4568(2) 0.61683(17)
C17 C 0.8948(2) 0.6244(2) 0.52569(17)
C18 C 0.8705(3) 0.6999(2) 0.46016(18)
C19 C 0.9951(3) 0.8283(3) 0.4671(2)
C20 C 1.1451(3) 0.8853(3) 0.5391(2)
C21 C 1.1697(3) 0.8095(3) 0.6024(2)
C22 C 1.0460(2) 0.6789(2) 0.59628(19)
C23 C 0.2924(2) 0.4566(2) 0.83619(16)
C24 C 0.3549(3) 0.5935(3) 0.82604(18)
C25 C 0.2799(3) 0.6763(3) 0.8418(2)
C26 C 0.1446(3) 0.6258(3) 0.8689(2)
C27 C 0.0820(3) 0.4901(3) 0.8795(2)
C28 C 0.1539(3) 0.4046(3) 0.86340(18)
H1 H 0.77760 0.20570 0.67480
H2 H 0.60520 0.07040 0.62850
H3 H 0.59140 0.51320 0.87080
H4 H 0.50600 0.45730 0.73700
H5 H 0.37740 0.14280 0.92870
H6 H 0.30320 0.10620 0.79640
H7 H 0.62650 0.30120 0.93490
H8 H 0.67060 -0.00090 0.92660
H9 H 0.77600 -0.15030 0.95200
H10 H 0.92660 -0.19300 0.84720
H11 H 0.97180 -0.08670 0.71550
H12 H 0.86250 0.05740 0.68650
H13 H 0.40310 0.18360 0.49990
H14 H 0.52800 0.27040 0.36260
H15 H 0.40640 0.31720 0.38790
H16 H 0.85430 0.43610 0.63720
H17 H 0.79060 0.54340 0.67500
H18 H 0.76880 0.66290 0.41100
H19 H 0.97650 0.87830 0.42270
H20 H 1.22890 0.97380 0.54520
H21 H 1.27060 0.84530 0.65050
H22 H 1.06470 0.62910 0.64110
H23 H 0.44750 0.62950 0.80790
H24 H 0.32390 0.76900 0.83470
H25 H 0.09500 0.68250 0.87910
H26 H -0.01030 0.45480 0.89740
H27 H 0.11230 0.31300 0.87200
H28? H 0.46670 0.39400 0.43030
H29? H 0.44350 0.24660 0.34790
H30? H 0.80920 0.53220 0.68940
H31? H 0.84630 0.42420 0.61050
N4? N 0.7569(15) 0.5161(13) 0.5368(10)
O4? O 0.6674(7) 0.4013(8) 0.4268(5)
#END
