
#######################################################################
#
#                 Cambridge Crystallographic Data Centre
#                                CCDC
#
#######################################################################
#
# If this CIF has been generated from an entry in the Cambridge
# Structural Database, then it will include bibliographic, chemical,
# crystal, experimental, refinement or atomic coordinate data resulting
# from the CCDC's data processing and validation procedures.
#
#######################################################################

data_CSD_CIF_FELVAW
_audit_creation_date 2017-11-09
_audit_creation_method CSD-ConQuest-V1
_database_code_CSD FELVAW
_database_code_depnum_ccdc_archive 'CCDC 1490207'
_chemical_formula_sum 'C14 H8 N2 O8'
_chemical_formula_moiety
;
C14 H8 N2 O8
;
_journal_coden_Cambridge 2020
_journal_volume 1
_journal_year 2016
_journal_page_first 4057
_journal_name_full 'Chem. Sel. '
loop_
_publ_author_name
"T.M.Klapotke"
"B.Stiasny"
"J.Stierstorfer"
_chemical_name_systematic
;
bis(3-nitrophenyl)peroxyanhydride
;
_cell_volume    334.159
_exptl_crystal_colour 'colorless'
_exptl_crystal_density_diffrn 1.651
_exptl_crystal_description 'rod'
_diffrn_ambient_temperature 123
#These two values have been output from a single CSD field.
_refine_ls_R_factor_gt 0.0569
_refine_ls_wR_factor_gt 0.0569
_symmetry_cell_setting triclinic
_symmetry_space_group_name_H-M 'P -1'
_symmetry_Int_Tables_number 2
loop_
_symmetry_equiv_pos_site_id
_symmetry_equiv_pos_as_xyz
1 x,y,z
2 -x,-y,-z
_cell_length_a 3.7130(9)
_cell_length_b 7.4052(9)
_cell_length_c 12.464(2)
_cell_angle_alpha 99.774(13)
_cell_angle_beta 97.336(18)
_cell_angle_gamma 92.642(15)
_cell_formula_units_Z 1
loop_
_atom_type_symbol
_atom_type_radius_bond
C 0.68
H 0.23
N 0.68
O 0.68
loop_
_atom_site_label
_atom_site_type_symbol
_atom_site_fract_x
_atom_site_fract_y
_atom_site_fract_z
C1 C 0.0921(6) 0.0512(3) 0.2906(2)
O1 O 0.0720(5) 0.4790(2) 0.05258(14)
C2 C -0.0756(7) 0.3077(3) 0.0597(2)
C3 C 0.0669(6) 0.2655(3) 0.1692(2)
O2 O 0.1225(6) -0.1742(3) 0.39955(16)
O3 O -0.2807(5) 0.2137(2) -0.01098(15)
C4 C -0.0319(7) 0.0907(3) 0.1886(2)
H1 H -0.17800 0.00300 0.13400
N1 N -0.0141(6) -0.1329(3) 0.31241(19)
O4 O -0.2319(5) -0.2318(3) 0.24426(16)
C5 C 0.3043(7) 0.1739(3) 0.3726(2)
H2 H 0.38330 0.14110 0.44180
C6 C 0.2796(6) 0.3916(3) 0.2501(2)
H3 H 0.34390 0.51000 0.23590
C7 C 0.3991(7) 0.3466(4) 0.3512(2)
H4 H 0.54580 0.43370 0.40600
C1A C -0.0921(6) 0.9488(3) -0.2906(2)
O1A O -0.0720(5) 0.5210(2) -0.05258(14)
C2A C 0.0756(7) 0.6923(3) -0.0597(2)
C3A C -0.0669(6) 0.7345(3) -0.1692(2)
O2A O -0.1225(6) 1.1742(3) -0.39955(16)
O3A O 0.2807(5) 0.7863(2) 0.01098(15)
C4A C 0.0319(7) 0.9093(3) -0.1886(2)
H1A H 0.17800 0.99700 -0.13400
N1A N 0.0141(6) 1.1329(3) -0.31241(19)
O4A O 0.2319(5) 1.2318(3) -0.24426(16)
C5A C -0.3043(7) 0.8261(3) -0.3726(2)
H2A H -0.38330 0.85890 -0.44180
C6A C -0.2796(6) 0.6084(3) -0.2501(2)
H3A H -0.34390 0.49000 -0.23590
C7A C -0.3991(7) 0.6534(4) -0.3512(2)
H4A H -0.54580 0.56630 -0.40600
#END
