
#######################################################################
#
#                 Cambridge Crystallographic Data Centre
#                                CCDC
#
#######################################################################
#
# If this CIF has been generated from an entry in the Cambridge
# Structural Database, then it will include bibliographic, chemical,
# crystal, experimental, refinement or atomic coordinate data resulting
# from the CCDC's data processing and validation procedures.
#
#######################################################################

data_CSD_CIF_FEMGUZ
_audit_creation_date 1987-11-26
_audit_creation_method CSD-ConQuest-V1
_database_code_CSD FEMGUZ
_chemical_formula_sum 'C21 H11 N1 O3'
_chemical_formula_moiety
;
C21 H11 N1 O3
;
_journal_coeditor_code "IUCr A26806"
_journal_coden_Cambridge 591
_journal_volume 43
_journal_year 1987
_journal_page_first 254
_journal_name_full 'Acta Crystallogr.,Sect.C:Cryst.Struct.Commun. '
loop_
_publ_author_name
"S.Fujisawa"
"I.Oonishi"
"J.Aoki"
"Y.Ohashi"
_chemical_name_systematic
;
1-Nitro-7H-benzo(h,i)chrysen-7-one
;
_cell_volume   1447.261
_exptl_crystal_colour 'golden-yellow'
_exptl_crystal_density_diffrn 1.493
_diffrn_ambient_temperature ?
_diffrn_special_details
;
The study was carried out at room temperature,in the range 283-303K

;
#These two values have been output from a single CSD field.
_refine_ls_R_factor_gt 0.059
_refine_ls_wR_factor_gt 0.059
_symmetry_cell_setting orthorhombic
_symmetry_space_group_name_H-M 'P 21 21 21'
_symmetry_Int_Tables_number 19
loop_
_symmetry_equiv_pos_site_id
_symmetry_equiv_pos_as_xyz
1 x,y,z
2 1/2+x,1/2-y,-z
3 -x,1/2+y,1/2-z
4 1/2-x,-y,1/2+z
_cell_length_a 16.407(4)
_cell_length_b 11.909(4)
_cell_length_c 7.407(2)
_cell_angle_alpha 90
_cell_angle_beta 90
_cell_angle_gamma 90
_cell_formula_units_Z 4
loop_
_atom_type_symbol
_atom_type_radius_bond
C 0.68
H 0.23
N 0.68
O 0.68
loop_
_atom_site_label
_atom_site_type_symbol
_atom_site_fract_x
_atom_site_fract_y
_atom_site_fract_z
C1 C 0.0594(3) 0.4254(4) 0.3743(7)
C2 C 0.0691(3) 0.3088(4) 0.3614(8)
C3 C 0.1431(3) 0.2653(4) 0.3976(9)
C4 C 0.2901(3) 0.2911(4) 0.4583(8)
C5 C 0.3559(3) 0.3623(5) 0.4776(8)
C6 C 0.3439(3) 0.4784(5) 0.4709(8)
C7 C 0.2563(3) 0.6473(4) 0.4392(8)
C8 C 0.1646(3) 0.8052(4) 0.5458(7)
C9 C 0.0860(3) 0.8405(4) 0.6080(7)
C10 C 0.0210(3) 0.7649(4) 0.5978(8)
C11 C 0.0320(3) 0.6582(4) 0.5351(8)
C12 C 0.1078(3) 0.6191(4) 0.4740(7)
C13 C 0.1185(3) 0.4996(4) 0.4239(8)
C14 C 0.1994(3) 0.4529(4) 0.4416(7)
C15 C 0.2116(3) 0.3352(4) 0.4341(8)
C16 C 0.2665(3) 0.5245(4) 0.4546(7)
C17 C 0.1751(3) 0.6924(4) 0.4864(7)
C18 C 0.2312(3) 0.8822(4) 0.5692(9)
C19 C 0.2171(3) 0.9865(4) 0.6415(9)
C20 C 0.1381(3) 1.0219(4) 0.6920(8)
C21 C 0.0756(3) 0.9499(4) 0.6737(8)
N1 N -0.0231(2) 0.4640(3) 0.3180(6)
O1 O 0.3133(2) 0.7063(3) 0.3904(6)
O2 O -0.0825(2) 0.4116(3) 0.3700(7)
O3 O -0.0271(2) 0.5431(3) 0.2109(6)
H1 H 0.019(3) 0.259(3) 0.327(6)
H2 H 0.149(3) 0.182(4) 0.339(8)
H3 H 0.296(2) 0.203(4) 0.461(7)
H4 H 0.415(3) 0.329(4) 0.497(7)
H5 H 0.396(3) 0.533(4) 0.478(7)
H6 H -0.042(2) 0.794(4) 0.646(7)
H7 H -0.019(3) 0.606(4) 0.534(7)
H8 H 0.288(3) 0.856(4) 0.544(8)
H9 H 0.263(3) 1.043(4) 0.645(8)
H10 H 0.123(3) 1.099(4) 0.754(8)
H11 H 0.019(3) 0.972(4) 0.711(7)
#END
