
#######################################################################
#
#                 Cambridge Crystallographic Data Centre
#                                CCDC
#
#######################################################################
#
# If this CIF has been generated from an entry in the Cambridge
# Structural Database, then it will include bibliographic, chemical,
# crystal, experimental, refinement or atomic coordinate data resulting
# from the CCDC's data processing and validation procedures.
#
#######################################################################

data_CSD_CIF_FENCEG
_audit_creation_date 1987-11-26
_audit_creation_method CSD-ConQuest-V1
_database_code_CSD FENCEG
_chemical_formula_sum 'C5 H8 N2 O3'
_chemical_formula_moiety
;
C5 H8 N2 O3
;
_journal_coden_Cambridge 188
_journal_year 1987
_journal_page_first 523
_journal_name_full 'J.Chem.Soc.,Perkin Trans.2 '
loop_
_publ_author_name
"R.Fruttero"
"R.Calvino"
"B.Ferrarotti"
"A.Gasco"
"S.Aime"
"R.Gobetto"
"G.Chiari"
"G.Calestani"
_chemical_name_systematic
;
(Z)-3,5-Dimethyl-5-hydroxy-4-hydroxyimino-2-isoxazoline
;
_chemical_melting_point 396.15
_cell_volume   1359.396
_exptl_crystal_density_diffrn 1.4
_exptl_special_details
;
Melts with decomposition.

;
_diffrn_ambient_temperature ?
_diffrn_special_details
;
The study was carried out at room temperature,in the range 283-303K

;
_refine_special_details
;
O(3) and C(7) are disordered over the same positions, each with occupancy 
0.5. Only O3 has been retained.
;
#These two values have been output from a single CSD field.
_refine_ls_R_factor_gt 0.055
_refine_ls_wR_factor_gt 0.055
_symmetry_cell_setting orthorhombic
_symmetry_space_group_name_H-M 'C m c a'
_symmetry_Int_Tables_number 64
loop_
_symmetry_equiv_pos_site_id
_symmetry_equiv_pos_as_xyz
1 x,y,z
2 1/2+x,1/2+y,z
3 -x,y,z
4 1/2-x,1/2+y,z
5 x,1/2-y,1/2+z
6 1/2+x,-y,1/2+z
7 -x,1/2-y,1/2+z
8 1/2-x,-y,1/2+z
9 -x,-y,-z
10 -1/2-x,-1/2-y,-z
11 x,-y,-z
12 -1/2+x,-1/2-y,-z
13 -x,-1/2+y,-1/2-z
14 -1/2-x,y,-1/2-z
15 x,-1/2+y,-1/2-z
16 -1/2+x,y,-1/2-z
_cell_length_a 6.848(2)
_cell_length_b 14.758(2)
_cell_length_c 13.451(3)
_cell_angle_alpha 90
_cell_angle_beta 90
_cell_angle_gamma 90
_cell_formula_units_Z 8
loop_
_atom_type_symbol
_atom_type_radius_bond
C 0.68
H 0.23
N 0.68
O 0.68
loop_
_atom_site_label
_atom_site_type_symbol
_atom_site_fract_x
_atom_site_fract_y
_atom_site_fract_z
O1 O 0.00000 0.1835(2) 0.2698(2)
O2 O 0.00000 0.1616(2) 0.5781(2)
O3 O -0.1499(12) 0.0839(4) 0.3820(5)
N1 N 0.00000 0.2797(2) 0.2731(2)
N2 N 0.00000 0.2434(2) 0.5271(2)
C1 C 0.00000 0.3072(2) 0.3629(2)
C2 C 0.00000 0.2318(2) 0.4330(2)
C3 C 0.00000 0.1456(3) 0.3709(3)
C4 C 0.00000 0.4058(3) 0.3884(3)
H1 H -0.1074(38) 0.4180(23) 0.4328(22)
H2 H 0.00000 0.4434(30) 0.3298(23)
H3 H 0.00000 0.1853(34) 0.6469(20)
H4 H -0.099(11) 0.0434(37) 0.4353(30)
O3B O 0.1499(12) 0.0839(4) 0.3820(5)
H1B H 0.1074(38) 0.4180(23) 0.4328(22)
H4B H 0.099(11) 0.0434(37) 0.4353(30)
#END
