
#######################################################################
#
#                 Cambridge Crystallographic Data Centre
#                                CCDC
#
#######################################################################
#
# If this CIF has been generated from an entry in the Cambridge
# Structural Database, then it will include bibliographic, chemical,
# crystal, experimental, refinement or atomic coordinate data resulting
# from the CCDC's data processing and validation procedures.
#
#######################################################################

data_CSD_CIF_FENQEV
_audit_creation_date 2005-05-12
_audit_creation_method CSD-ConQuest-V1
_database_code_CSD FENQEV
_database_code_depnum_ccdc_archive 'CCDC 261794'
_chemical_formula_sum 'C12 H10 N2 O6'
_chemical_formula_moiety
;
C12 H10 N2 O6
;
_journal_coden_Cambridge 35
_journal_volume 70
_journal_year 2005
_journal_page_first 63
_journal_name_full 'J.Org.Chem. '
loop_
_publ_author_name
"F.Aulenta"
"M.G.B.Drew"
"A.Foster"
"W.Hayes"
"S.Rannard"
"D.W.Thornthwaite"
"D.R.Worrall"
"T.G.A.Youngs"
_chemical_name_systematic
;
Allyl 3-(3,5-dinitrophenyl)acrylate
;
_chemical_melting_point 420.15
_cell_volume   1286.310
_exptl_crystal_colour 'white'
_exptl_crystal_density_diffrn 1.436
_exptl_special_details
;
Melting point range 420.15-422.15K

;
_exptl_crystal_description 'parallelepiped'
_diffrn_ambient_temperature 293
#These two values have been output from a single CSD field.
_refine_ls_R_factor_gt 0.0953
_refine_ls_wR_factor_gt 0.0953
_symmetry_cell_setting monoclinic
_symmetry_space_group_name_H-M 'P 21/n'
_symmetry_Int_Tables_number 14
loop_
_symmetry_equiv_pos_site_id
_symmetry_equiv_pos_as_xyz
1 x,y,z
2 1/2-x,1/2+y,1/2-z
3 -x,-y,-z
4 -1/2+x,-1/2-y,-1/2+z
_cell_length_a 12.511(14)
_cell_length_b 5.682(8)
_cell_length_c 18.53(2)
_cell_angle_alpha 90
_cell_angle_beta 102.443(10)
_cell_angle_gamma 90
_cell_formula_units_Z 4
loop_
_atom_type_symbol
_atom_type_radius_bond
C 0.68
H 0.23
N 0.68
O 0.68
loop_
_atom_site_label
_atom_site_type_symbol
_atom_site_fract_x
_atom_site_fract_y
_atom_site_fract_z
C1 C 0.5748(3) 0.5586(6) 0.59381(19)
N1 N 0.4701(3) 0.6814(6) 0.59396(18)
O1 O 0.4063(3) 0.5885(6) 0.6262(2)
O2 O 0.4528(3) 0.8677(6) 0.56106(19)
C2 C 0.5995(3) 0.3580(6) 0.63667(19)
H1 H 0.55180 0.29760 0.66420
C3 C 0.6987(3) 0.2531(6) 0.63620(19)
N2 N 0.7294(3) 0.0414(6) 0.68275(17)
O3 O 0.8212(3) -0.0378(6) 0.68764(18)
O4 O 0.6614(3) -0.0435(5) 0.71314(16)
C4 C 0.7695(3) 0.3379(6) 0.59439(19)
H2 H 0.83550 0.26130 0.59540
C5 C 0.7422(3) 0.5382(6) 0.55068(19)
C6 C 0.6424(3) 0.6493(7) 0.55091(19)
H3 H 0.62190 0.78320 0.52240
C7 C 0.8194(3) 0.6278(7) 0.5076(2)
H4 H 0.88360 0.54210 0.51060
C8 C 0.8078(3) 0.8158(7) 0.4651(2)
H5 H 0.74440 0.90560 0.45980
C9 C 0.8930(3) 0.8869(8) 0.4257(2)
O5 O 0.9809(2) 0.7936(6) 0.43203(18)
O6 O 0.8603(2) 1.0678(6) 0.3812(2)
C10 C 0.9353(4) 1.1515(12) 0.3367(4)
H6 H 0.99410 1.23960 0.36780
H7 H 0.96730 1.01770 0.31670
C11 C 0.8822(6) 1.2940(15) 0.2791(4)
H8 H 0.81350 1.23430 0.25750
C12 C 0.8998(7) 1.4648(15) 0.2510(5)
H9 H 0.96590 1.54280 0.26740
H10 H 0.84790 1.52550 0.21170
#END
