
#######################################################################
#
#                 Cambridge Crystallographic Data Centre
#                                CCDC
#
#######################################################################
#
# If this CIF has been generated from an entry in the Cambridge
# Structural Database, then it will include bibliographic, chemical,
# crystal, experimental, refinement or atomic coordinate data resulting
# from the CCDC's data processing and validation procedures.
#
#######################################################################

data_CSD_CIF_FENZUW
_audit_creation_date 2017-11-10
_audit_creation_method CSD-ConQuest-V1
_database_code_CSD FENZUW
_database_code_depnum_ccdc_archive 'CCDC 1022778'
_chemical_formula_sum 'C20 H17 N5 O3'
_chemical_formula_moiety
;
C20 H17 N5 O3
;
_journal_coden_Cambridge 122
_journal_volume 50
_journal_year 2015
_journal_page_first 1731
_journal_name_full 'Khim.Get.Soedin.,SSSR(Russ.)(Chem.Heterocycl.Compd.) '
loop_
_publ_author_name
"Yu.P.Semenyuk"
"A.S.Kochubey"
"P.G.Morozov"
"O.N.Burov"
"M.E.Kletskii"
"S.V.Kurbatov"
_chemical_name_systematic
;
4-(1-benzyl-1H-pyrrol-2-yl)-7-methyl-5-nitro-7,8-dihydro-6H-[1,2,5]oxadiazolo[
3,4-e]isoindole
;
_chemical_melting_point 423.15
_cell_volume   1772.050
_exptl_crystal_colour 'yellow'
_exptl_crystal_density_diffrn 1.407
_exptl_special_details
;
Melting point range 423.15-425.15K

;
_exptl_crystal_description 'prism'
_diffrn_ambient_temperature 120
#These two values have been output from a single CSD field.
_refine_ls_R_factor_gt 0.045
_refine_ls_wR_factor_gt 0.045
_symmetry_cell_setting monoclinic
_symmetry_space_group_name_H-M 'P 21/c'
_symmetry_Int_Tables_number 14
loop_
_symmetry_equiv_pos_site_id
_symmetry_equiv_pos_as_xyz
1 x,y,z
2 -x,1/2+y,1/2-z
3 -x,-y,-z
4 x,-1/2-y,-1/2+z
_cell_length_a 16.2477(10)
_cell_length_b 8.9979(5)
_cell_length_c 12.8559(8)
_cell_angle_alpha 90
_cell_angle_beta 109.465(1)
_cell_angle_gamma 90
_cell_formula_units_Z 4
loop_
_atom_type_symbol
_atom_type_radius_bond
C 0.68
H 0.23
N 0.68
O 0.68
loop_
_atom_site_label
_atom_site_type_symbol
_atom_site_fract_x
_atom_site_fract_y
_atom_site_fract_z
N1 N 0.37966(8) 0.52857(14) 0.22306(9)
O1 O 0.30515(7) 0.44470(12) 0.17744(8)
O2 O 0.38264(7) 0.57827(13) 0.70504(8)
N2 N 0.25708(8) 0.42884(14) 0.24757(9)
C1 C 0.30130(8) 0.50402(14) 0.33673(10)
N3 N 0.33062(7) 0.63367(13) 0.62183(9)
O3 O 0.27032(7) 0.71492(13) 0.62009(9)
C2 C 0.28216(8) 0.52161(14) 0.43783(10)
N4 N 0.12331(7) 0.45584(13) 0.3952(1)
C3 C 0.34377(8) 0.60266(15) 0.51563(10)
C4 C 0.42158(8) 0.66241(14) 0.50368(10)
C5 C 0.49401(8) 0.74914(15) 0.58501(11)
H1 H 0.47660 0.85350 0.59050
H2 H 0.51230 0.70300 0.65910
N5 N 0.56334(7) 0.73966(13) 0.53559(9)
C6 C 0.43870(8) 0.64755(14) 0.40766(10)
C7 C 0.37770(8) 0.56599(15) 0.32132(10)
C8 C 0.52231(8) 0.72396(15) 0.41525(11)
H3 H 0.55840 0.66250 0.38320
H4 H 0.51150 0.82190 0.37810
C9 C 0.62700(9) 0.85996(17) 0.56908(12)
H5 H 0.65140 0.86350 0.64980
H6 H 0.59830 0.95470 0.54120
H7 H 0.67400 0.84240 0.53870
C10 C 0.20981(8) 0.44788(15) 0.46146(11)
C11 C 0.07430(9) 0.37963(17) 0.44603(12)
H8 H 0.01260 0.36970 0.41870
C12 C 0.12841(9) 0.32019(17) 0.54237(12)
H9 H 0.11140 0.26110 0.59300
C13 C 0.21422(9) 0.36308(15) 0.55248(11)
H10 H 0.26580 0.33810 0.61140
C14 C 0.08644(9) 0.55128(17) 0.29863(11)
H11 H 0.02240 0.53690 0.26910
H12 H 0.11070 0.52170 0.24050
C15 C 0.10612(8) 0.71350(16) 0.32604(11)
C16 C 0.14497(9) 0.79870(18) 0.26514(12)
H13 H 0.15780 0.75510 0.20500
C17 C 0.16524(10) 0.94660(19) 0.29124(14)
H14 H 0.19200 1.00360 0.24910
C18 C 0.14675(10) 1.01159(18) 0.37846(14)
H15 H 0.16070 1.11300 0.39640
C19 C 0.10771(10) 0.92771(19) 0.43949(13)
H16 H 0.09460 0.97190 0.49920
C20 C 0.08775(10) 0.77988(18) 0.41374(12)
H17 H 0.06130 0.72300 0.45630
#END
