
#######################################################################
#
#                 Cambridge Crystallographic Data Centre
#                                CCDC
#
#######################################################################
#
# If this CIF has been generated from an entry in the Cambridge
# Structural Database, then it will include bibliographic, chemical,
# crystal, experimental, refinement or atomic coordinate data resulting
# from the CCDC's data processing and validation procedures.
#
#######################################################################

data_CSD_CIF_FENZUV
_audit_creation_date 2013-02-22
_audit_creation_method CSD-ConQuest-V1
_database_code_CSD FENZUV
_database_code_depnum_ccdc_archive 'CCDC 899904'
_chemical_formula_sum 'C11 H9 N3 O1'
_chemical_formula_moiety
;
C11 H9 N3 O1
;
_journal_coden_Cambridge 1350
_journal_volume 15
_journal_year 2013
_journal_page_first 120
_journal_name_full 'CrystEngComm '
loop_
_publ_author_name
"V.J.Argyle"
"L.M.Woods"
"R.Marina"
"L.R.Hanton"
_chemical_name_systematic
;
N-Hydroxy-1,1-bis(pyridin-3-yl)methanimine
;
_cell_volume   1902.687
_exptl_crystal_colour 'colorless'
_exptl_crystal_density_diffrn 1.391
_exptl_crystal_description 'plate'
_diffrn_ambient_temperature 90
#These two values have been output from a single CSD field.
_refine_ls_R_factor_gt 0.0377
_refine_ls_wR_factor_gt 0.0377
_symmetry_cell_setting orthorhombic
_symmetry_space_group_name_H-M 'P b c a'
_symmetry_Int_Tables_number 61
loop_
_symmetry_equiv_pos_site_id
_symmetry_equiv_pos_as_xyz
1 x,y,z
2 1/2-x,-y,1/2+z
3 1/2+x,1/2-y,-z
4 -x,1/2+y,1/2-z
5 -x,-y,-z
6 -1/2+x,y,-1/2-z
7 -1/2-x,-1/2+y,z
8 x,-1/2-y,-1/2+z
_cell_length_a 11.4954(17)
_cell_length_b 10.6744(17)
_cell_length_c 15.506(3)
_cell_angle_alpha 90
_cell_angle_beta 90
_cell_angle_gamma 90
_cell_formula_units_Z 8
loop_
_atom_type_symbol
_atom_type_radius_bond
C 0.68
H 0.23
N 0.68
O 0.68
loop_
_atom_site_label
_atom_site_type_symbol
_atom_site_fract_x
_atom_site_fract_y
_atom_site_fract_z
C1 C 0.38434(13) -0.27000(15) 0.24604(10)
H1 H 0.38910 -0.33710 0.20790
C2 C 0.48681(13) -0.21705(14) 0.27486(10)
H2 H 0.55820 -0.24750 0.25610
C3 C 0.48141(13) -0.11828(15) 0.33194(9)
H3 H 0.54920 -0.08200 0.35300
C4 C 0.37252(12) -0.07330(14) 0.35774(9)
C5 C 0.27468(13) -0.13369(15) 0.32452(10)
H4 H 0.20200 -0.10470 0.34160
C6 C 0.35876(12) 0.03249(14) 0.41822(9)
C7 C 0.26391(12) 0.02719(13) 0.48364(9)
C8 C 0.26423(13) -0.06533(14) 0.5460(1)
H5 H 0.32260 -0.12560 0.54650
C9 C 0.17755(14) -0.06774(15) 0.60747(10)
H6 H 0.17690 -0.12890 0.65020
C10 C 0.09178(14) 0.02264(15) 0.60417(10)
H7 H 0.03320 0.02070 0.64550
C11 C 0.17409(13) 0.11419(14) 0.48564(10)
H8 H 0.17310 0.17680 0.44390
N1 N 0.27825(11) -0.23032(13) 0.26978(8)
N2 N 0.08894(11) 0.11275(12) 0.54444(8)
N3 N 0.43415(11) 0.12190(12) 0.41204(8)
O1 O 0.41458(10) 0.21456(11) 0.47336(7)
H9 H 0.4761(17) 0.2745(19) 0.4624(11)
#END
