
#######################################################################
#
#                 Cambridge Crystallographic Data Centre
#                                CCDC
#
#######################################################################
#
# If this CIF has been generated from an entry in the Cambridge
# Structural Database, then it will include bibliographic, chemical,
# crystal, experimental, refinement or atomic coordinate data resulting
# from the CCDC's data processing and validation procedures.
#
#######################################################################

data_CSD_CIF_FEPGAI
_audit_creation_date 1987-11-26
_audit_creation_method CSD-ConQuest-V1
_database_code_CSD FEPGAI
_database_code_depnum_ccdc_archive 'CCDC 1154687'
_chemical_formula_sum 'C20 H18 N2 O10'
_chemical_formula_moiety
;
C20 H18 N2 O10
;
_journal_coeditor_code "IUCr A26626"
_journal_coden_Cambridge 622
_journal_volume 43
_journal_year 1987
_journal_page_first 219
_journal_name_full 'Acta Crystallogr.,Sect.B:Struct.Sci. '
loop_
_publ_author_name
"J.Raap"
"J.H.van Boom"
"H.J.Bruins Slot"
"P.T.Beurskens"
"J.A.C.van Wietmarschen"
"J.M.M.Smits"
"C.A.G.Haasnoot"
_chemical_name_systematic
;
Methyl 2-deoxy-3,5-di-O-p-nitrobenzoyl-\b-D-ribofuranoside
;
_cell_volume   2034.200
_exptl_crystal_colour 'light-yellow'
_exptl_crystal_density_diffrn 1.46
_diffrn_ambient_temperature ?
_diffrn_special_details
;
The study was carried out at room temperature,in the range 283-303K

;
#These two values have been output from a single CSD field.
_refine_ls_R_factor_gt 0.035
_refine_ls_wR_factor_gt 0.035
_symmetry_cell_setting orthorhombic
_symmetry_space_group_name_H-M 'P 21 21 21'
_symmetry_Int_Tables_number 19
loop_
_symmetry_equiv_pos_site_id
_symmetry_equiv_pos_as_xyz
1 x,y,z
2 1/2+x,1/2-y,-z
3 -x,1/2+y,1/2-z
4 1/2-x,-y,1/2+z
_cell_length_a 21.103(3)
_cell_length_b 21.860(3)
_cell_length_c 4.4096(14)
_cell_angle_alpha 90
_cell_angle_beta 90
_cell_angle_gamma 90
_cell_formula_units_Z 4
loop_
_atom_type_symbol
_atom_type_radius_bond
C 0.68
H 0.23
N 0.68
O 0.68
loop_
_atom_site_label
_atom_site_type_symbol
_atom_site_fract_x
_atom_site_fract_y
_atom_site_fract_z
C1 C 0.35705(15) 0.69255(19) 0.4597(13)
O1 O 0.41732(8) 0.70272(9) 0.5901(5)
C2 C 0.46589(14) 0.70268(13) 0.3775(8)
C3 C 0.52670(14) 0.71871(13) 0.5334(9)
C4 C 0.55557(13) 0.65784(14) 0.6205(8)
O2 O 0.62119(8) 0.65862(8) 0.5193(5)
C5 C 0.51713(12) 0.61017(12) 0.4491(7)
O3 O 0.47620(9) 0.64368(8) 0.2487(5)
C6 C 0.47963(14) 0.56682(13) 0.6446(7)
O4 O 0.45434(8) 0.51972(8) 0.4468(5)
C7 C 0.34285(12) 0.36729(11) -0.1611(6)
C8 C 0.40594(12) 0.37841(11) -0.1109(8)
C9 C 0.42260(13) 0.42583(12) 0.0817(7)
C10 C 0.37544(11) 0.46095(11) 0.2167(6)
C11 C 0.31260(13) 0.44851(13) 0.1602(7)
C12 C 0.29530(13) 0.40134(13) -0.0286(8)
N1 N 0.32507(12) 0.31583(11) -0.3630(6)
O5 O 0.26957(10) 0.30485(13) -0.3975(8)
O6 O 0.36686(11) 0.28763(10) -0.4878(6)
C13 C 0.39195(11) 0.51199(12) 0.4301(7)
O7 O 0.35313(9) 0.54053(9) 0.5678(6)
C14 C 0.84353(13) 0.62096(14) 0.2566(9)
C15 C 0.82609(15) 0.57233(16) 0.4385(10)
C16 C 0.76604(15) 0.57148(13) 0.5535(10)
C17 C 0.72328(12) 0.61800(12) 0.4918(8)
C18 C 0.74265(14) 0.66612(14) 0.3092(9)
C19 C 0.80257(14) 0.66786(14) 0.1926(9)
N2 N 0.90770(13) 0.62206(15) 0.1282(9)
O8 O 0.94314(13) 0.58075(16) 0.1954(12)
O9 O 0.92184(12) 0.66191(14) -0.0485(10)
C20 C 0.65815(13) 0.61388(13) 0.6184(8)
O10 O 0.64089(10) 0.57417(10) 0.7888(6)
H1 H 0.3288(14) 0.6960(15) 0.634(8)
H2 H 0.3547(13) 0.6555(15) 0.355(8)
H3 H 0.3461(14) 0.7282(14) 0.350(9)
H4 H 0.4557(12) 0.7290(12) 0.211(8)
H5 H 0.5196(12) 0.7425(12) 0.699(7)
H6 H 0.5580(11) 0.7390(12) 0.405(7)
H7 H 0.5554(11) 0.6517(13) 0.825(7)
H8 H 0.5448(11) 0.5863(11) 0.329(7)
H9 H 0.5086(11) 0.5463(11) 0.785(7)
H10 H 0.4452(12) 0.5859(11) 0.745(7)
H11 H 0.4353(11) 0.3581(12) -0.212(7)
H12 H 0.4664(12) 0.4363(10) 0.123(6)
H13 H 0.2812(10) 0.4723(11) 0.260(7)
H14 H 0.2508(12) 0.3928(11) -0.054(6)
H15 H 0.8544(13) 0.5447(14) 0.488(8)
H16 H 0.7521(13) 0.5414(13) 0.673(8)
H17 H 0.7134(11) 0.6941(12) 0.263(7)
#END
