
#######################################################################
#
#                 Cambridge Crystallographic Data Centre
#                                CCDC
#
#######################################################################
#
# If this CIF has been generated from an entry in the Cambridge
# Structural Database, then it will include bibliographic, chemical,
# crystal, experimental, refinement or atomic coordinate data resulting
# from the CCDC's data processing and validation procedures.
#
#######################################################################

data_CSD_CIF_FEPJIT
_audit_creation_date 1987-11-26
_audit_creation_method CSD-ConQuest-V1
_database_code_CSD FEPJIT
_chemical_formula_sum 'C14 H12 N2 O5'
_chemical_formula_moiety
;
C14 H12 N2 O5
;
_journal_coeditor_code "IUCr A26851"
_journal_coden_Cambridge 591
_journal_volume 43
_journal_year 1987
_journal_page_first 364
_journal_name_full 'Acta Crystallogr.,Sect.C:Cryst.Struct.Commun. '
loop_
_publ_author_name
"P.G.Jones"
_chemical_name_systematic
;
bis(m-Nitrobenzyl) ether
;
_cell_volume    666.282
_exptl_crystal_colour 'yellow'
_exptl_crystal_density_diffrn 1.44
_diffrn_ambient_temperature ?
_diffrn_special_details
;
The study was carried out at room temperature,in the range 283-303K

;
#These two values have been output from a single CSD field.
_refine_ls_R_factor_gt 0.049
_refine_ls_wR_factor_gt 0.049
_symmetry_cell_setting triclinic
_symmetry_space_group_name_H-M 'P -1'
_symmetry_Int_Tables_number 2
loop_
_symmetry_equiv_pos_site_id
_symmetry_equiv_pos_as_xyz
1 x,y,z
2 -x,-y,-z
_cell_length_a 7.644(2)
_cell_length_b 8.378(2)
_cell_length_c 12.331(3)
_cell_angle_alpha 71.96(2)
_cell_angle_beta 74.66(2)
_cell_angle_gamma 63.83(2)
_cell_formula_units_Z 2
loop_
_atom_type_symbol
_atom_type_radius_bond
C 0.68
H 0.23
N 0.68
O 0.68
loop_
_atom_site_label
_atom_site_type_symbol
_atom_site_fract_x
_atom_site_fract_y
_atom_site_fract_z
O1 O 0.3220(2) 0.8031(2) 0.7235(1)
C1 C 0.2712(3) 0.9134(3) 0.6159(1)
C2 C 0.4081(3) 0.8211(2) 0.5215(1)
C3 C 0.5729(3) 0.6613(2) 0.5433(1)
C4 C 0.6940(3) 0.5833(2) 0.4527(1)
C5 C 0.6582(3) 0.6576(3) 0.3406(2)
C6 C 0.4939(3) 0.8151(3) 0.3197(2)
C7 C 0.3699(3) 0.8964(3) 0.4083(2)
N1 N 0.8665(2) 0.4122(2) 0.4775(2)
O2 O 0.9028(2) 0.3508(2) 0.5762(1)
O3 O 0.9652(2) 0.3382(2) 0.3978(1)
C8 C 0.2096(4) 0.8889(3) 0.8154(2)
C9 C 0.2262(3) 0.7502(3) 0.9277(2)
C10 C 0.2396(3) 0.5779(3) 0.9334(1)
C11 C 0.2419(3) 0.4574(2) 1.0384(1)
C12 C 0.2327(3) 0.5005(3) 1.1391(2)
C13 C 0.2227(3) 0.6707(3) 1.1331(2)
C14 C 0.2214(3) 0.7937(3) 1.0286(2)
N2 N 0.2559(3) 0.2752(3) 1.0422(1)
O4 O 0.2774(3) 0.2330(2) 0.9523(1)
O5 O 0.2429(3) 0.1730(2) 1.1358(1)
H1 H 0.13840 0.93480 0.61260
H2 H 0.28070 1.02780 0.60590
H3 H 0.60250 0.60560 0.62060
H4 H 0.74520 0.60110 0.27900
H5 H 0.46500 0.86940 0.24230
H6 H 0.25570 1.00640 0.39180
H7 H 0.25740 0.97620 0.81760
H8 H 0.07390 0.95020 0.80400
H9 H 0.24730 0.54280 0.86460
H10 H 0.23330 0.41410 1.21160
H11 H 0.21670 0.70420 1.20220
H12 H 0.21710 0.91130 1.02550
#END
