
#######################################################################
#
#                 Cambridge Crystallographic Data Centre
#                                CCDC
#
#######################################################################
#
# If this CIF has been generated from an entry in the Cambridge
# Structural Database, then it will include bibliographic, chemical,
# crystal, experimental, refinement or atomic coordinate data resulting
# from the CCDC's data processing and validation procedures.
#
#######################################################################

data_CSD_CIF_FEPLUH
_audit_creation_date 1999-07-29
_audit_creation_method CSD-ConQuest-V1
_database_code_CSD FEPLUH
_database_code_depnum_ccdc_archive 'CCDC 1154725'
_chemical_formula_sum 'C18 H21 N1 O5'
_chemical_formula_moiety
;
C18 H21 N1 O5
;
_journal_coden_Cambridge 16
_journal_volume 54
_journal_year 1998
_journal_page_first 13997
_journal_name_full 'Tetrahedron '
loop_
_publ_author_name
"Kuo-Hsi Kao"
"Cherng-Shi Yang"
"Ju-Tsung Liu"
"Wen-Wei Lin"
"Hui-Yu Fang"
"Ching-Fa Yao"
"Kwunmin Chen"
_chemical_name_systematic
;
cis-5,5-Diethoxycarbonyl-3a,4-dihydro-6-phenyl-3H,6H-(3,4-c)isoxazole
;
_cell_volume   3684.052
_exptl_crystal_density_diffrn 1.195
_diffrn_ambient_temperature ?
_diffrn_special_details
;
The study was carried out at room temperature,in the range 283-303K

;
#These two values have been output from a single CSD field.
_refine_ls_R_factor_gt 0.053
_refine_ls_wR_factor_gt 0.053
_symmetry_cell_setting monoclinic
_symmetry_space_group_name_H-M 'C 2/c'
_symmetry_Int_Tables_number 15
loop_
_symmetry_equiv_pos_site_id
_symmetry_equiv_pos_as_xyz
1 x,y,z
2 -x,y,1/2-z
3 1/2+x,1/2+y,z
4 1/2-x,1/2+y,1/2-z
5 -x,-y,-z
6 x,-y,-1/2+z
7 -1/2-x,-1/2-y,-z
8 -1/2+x,-1/2-y,-1/2+z
_cell_length_a 14.075(3)
_cell_length_b 12.1786(18)
_cell_length_c 21.880(3)
_cell_angle_alpha 90
_cell_angle_beta 100.804(14)
_cell_angle_gamma 90
_cell_formula_units_Z 8
loop_
_atom_type_symbol
_atom_type_radius_bond
C 0.68
H 0.23
N 0.68
O 0.68
loop_
_atom_site_label
_atom_site_type_symbol
_atom_site_fract_x
_atom_site_fract_y
_atom_site_fract_z
O1 O 0.19596 0.39076 0.07356
O2 O 0.33744 0.41615 0.04457
O3 O 0.51547 0.36003 0.17116
O4 O 0.42315 0.22621 0.11926
O5 O 0.14472 0.49758 0.26778
N1 N 0.21717 0.55313 0.23881
C1 C 0.34082 0.37457 0.15431
C2 C 0.28237 0.39227 0.08626
C3 C 0.28735 0.44332 -0.02118
C4 C 0.35284 0.48434 -0.05498
C5 C 0.43840 0.32136 0.14961
C6 C 0.51123 0.16509 0.11292
C7 C 0.49247 0.07169 0.08969
C8 C 0.28370 0.29828 0.19284
C9 C 0.25621 0.36688 0.24805
C10 C 0.27805 0.48159 0.23014
C11 C 0.35720 0.48586 0.19209
C12 C 0.15162 0.38386 0.25401
C13 C 0.36678 0.58840 0.15330
C14 C 0.45731 0.62723 0.14819
C15 C 0.46749 0.71958 0.11110
C16 C 0.38700 0.77226 0.07909
C17 C 0.29642 0.73623 0.08290
C18 C 0.28648 0.64451 0.12103
H1 H 0.23199 0.50306 -0.01976
H2 H 0.25630 0.36930 -0.04363
H3 H 0.40144 0.42086 -0.06367
H4 H 0.39383 0.55028 -0.02875
H5 H 0.31485 0.51692 -0.09828
H6 H 0.55725 0.15919 0.15654
H7 H 0.54649 0.21216 0.08054
H8 H 0.42250 0.05089 0.09915
H9 H 0.54699 0.01794 0.11287
H10 H 0.49178 0.07555 0.04101
H11 H 0.21886 0.26964 0.16254
H12 H 0.32858 0.22961 0.21032
H13 H 0.30093 0.34249 0.29177
H14 H 0.42520 0.47692 0.22417
H15 H 0.13410 0.33449 0.29127
H16 H 0.10377 0.36395 0.21106
H17 H 0.51544 0.58991 0.17110
H18 H 0.53262 0.74533 0.10777
H19 H 0.39502 0.83601 0.05370
H20 H 0.23931 0.77388 0.05975
H21 H 0.22137 0.62059 0.12475
#END
