
#######################################################################
#
#                 Cambridge Crystallographic Data Centre
#                                CCDC
#
#######################################################################
#
# If this CIF has been generated from an entry in the Cambridge
# Structural Database, then it will include bibliographic, chemical,
# crystal, experimental, refinement or atomic coordinate data resulting
# from the CCDC's data processing and validation procedures.
#
#######################################################################

data_CSD_CIF_FEPMOD
_audit_creation_date 2005-05-12
_audit_creation_method CSD-ConQuest-V1
_database_code_CSD FEPMOD
_database_code_depnum_ccdc_archive 'CCDC 261905'
_chemical_formula_sum 'C16 H19 N1 O5'
_chemical_formula_moiety
;
C16 H19 N1 O5
;
_journal_coden_Cambridge 4
_journal_volume 127
_journal_year 2005
_journal_page_first 119
_journal_name_full 'J.Am.Chem.Soc. '
loop_
_publ_author_name
"T.Okino"
"Y.Hoashi"
"T.Furukawa"
"Xuenong Xu"
"Y.Takemoto"
_chemical_name_systematic
;
Methyl 1-(2-nitro-1-phenylethyl)cyclohexan-2-one-1-carboxylate
;
_chemical_melting_point 373.15
_cell_volume    760.071
_exptl_crystal_density_diffrn 1.334
_exptl_special_details
;
Melting point range 373.15-375.15K

;
_diffrn_ambient_temperature 296.1
#These two values have been output from a single CSD field.
_refine_ls_R_factor_gt 0.029
_refine_ls_wR_factor_gt 0.029
_symmetry_cell_setting monoclinic
_symmetry_space_group_name_H-M 'P 21'
_symmetry_Int_Tables_number 4
loop_
_symmetry_equiv_pos_site_id
_symmetry_equiv_pos_as_xyz
1 x,y,z
2 -x,1/2+y,-z
_cell_length_a 8.34(1)
_cell_length_b 11.15(1)
_cell_length_c 8.538(8)
_cell_angle_alpha 90
_cell_angle_beta 106.80(4)
_cell_angle_gamma 90
_cell_formula_units_Z 2
loop_
_atom_type_symbol
_atom_type_radius_bond
C 0.68
H 0.23
N 0.68
O 0.68
loop_
_atom_site_label
_atom_site_type_symbol
_atom_site_fract_x
_atom_site_fract_y
_atom_site_fract_z
O1 O 0.69009(9) -0.06239(5) -0.09377(7)
O2 O 0.52518(8) 0.09422(6) -0.19893(7)
O3 O 0.56386(9) 0.23124(6) 0.41142(7)
O4 O 0.71120(9) 0.34759(5) 0.00431(8)
O5 O 0.33481(9) 0.13557(7) 0.29411(8)
N1 N 0.4694(1) 0.17910(7) 0.29406(9)
C1 C 0.7555(1) 0.03433(8) 0.29375(9)
C2 C 0.7664(1) 0.13522(7) 0.0228(1)
C3 C 0.5209(1) 0.16893(8) 0.1398(1)
C4 C 0.6501(1) -0.06480(8) 0.2782(1)
C5 C 0.7083(1) 0.14253(7) 0.1816(1)
C6 C 0.9519(1) 0.09695(8) 0.0657(1)
C7 C 0.9447(1) -0.05976(8) 0.5326(1)
C8 C 0.9033(1) 0.03496(8) 0.4228(1)
C9 C 0.7558(1) 0.26072(8) -0.0568(1)
C10 C 0.6882(1) -0.15799(8) 0.3903(1)
C11 C 1.0046(1) 0.2273(1) -0.1555(1)
C12 C 0.6603(1) 0.04296(8) -0.09520(9)
C13 C 0.8214(1) 0.26895(8) -0.2046(1)
C14 C 0.8350(1) -0.15559(8) 0.5180(1)
C15 C 1.0203(1) 0.10212(9) -0.0822(1)
C16 C 0.4160(1) 0.01310(8) -0.3147(1)
H1 H 0.61450 -0.22610 0.38900
H2 H 0.86590 -0.22080 0.59890
H3 H 1.05400 -0.05760 0.62170
H4 H 0.54570 -0.06710 0.18810
H5 H 0.98030 0.10770 0.44120
H6 H 0.96440 0.00980 0.11170
H7 H 1.01610 0.14940 0.15070
H8 H 0.95710 0.04270 -0.16550
H9 H 1.13400 0.07630 -0.04780
H10 H 1.07730 0.28270 -0.07260
H11 H 1.04250 0.22840 -0.25450
H12 H 0.81040 0.35230 -0.23370
H13 H 0.75640 0.21430 -0.29590
H14 H 0.76790 0.21180 0.24320
H15 H 0.48880 0.25120 0.08600
H16 H 0.44960 0.10190 0.08060
H17 H 0.36980 -0.05490 -0.25560
H18 H 0.48260 -0.02540 -0.37980
H19 H 0.32020 0.05940 -0.39020
#END
