
#######################################################################
#
#                 Cambridge Crystallographic Data Centre
#                                CCDC
#
#######################################################################
#
# If this CIF has been generated from an entry in the Cambridge
# Structural Database, then it will include bibliographic, chemical,
# crystal, experimental, refinement or atomic coordinate data resulting
# from the CCDC's data processing and validation procedures.
#
#######################################################################

data_CSD_CIF_FEPYEG
_audit_creation_date 2013-03-18
_audit_creation_method CSD-ConQuest-V1
_database_code_CSD FEPYEG
_database_code_depnum_ccdc_archive 'CCDC 874401'
_chemical_formula_sum 'C10 H9 N3 O4'
_chemical_formula_moiety
;
C10 H9 N3 O4
;
_journal_coden_Cambridge 1088
_journal_volume 23
_journal_year 2012
_journal_page_first 2400
_journal_name_full 'Synlett '
loop_
_publ_author_name
"A.M.Starosotnikov"
"M.A.Bastrakov"
"V.V.Kachala"
"P.A.Belyakov"
"I.V.Fedyanin"
"S.A.Shevelev"
_chemical_name_systematic
;
2,4-Dimethyl-5,7-dinitro-2H-isoindole
;
_cell_volume   1004.784
_exptl_crystal_colour 'red'
_exptl_crystal_density_diffrn 1.555
_exptl_crystal_description 'needle'
_diffrn_ambient_temperature 100
#These two values have been output from a single CSD field.
_refine_ls_R_factor_gt 0.0483
_refine_ls_wR_factor_gt 0.0483
_symmetry_cell_setting monoclinic
_symmetry_space_group_name_H-M 'P 21/c'
_symmetry_Int_Tables_number 14
loop_
_symmetry_equiv_pos_site_id
_symmetry_equiv_pos_as_xyz
1 x,y,z
2 -x,1/2+y,1/2-z
3 -x,-y,-z
4 x,-1/2-y,-1/2+z
_cell_length_a 7.0511(7)
_cell_length_b 11.2869(11)
_cell_length_c 12.6559(12)
_cell_angle_alpha 90
_cell_angle_beta 93.986(2)
_cell_angle_gamma 90
_cell_formula_units_Z 4
loop_
_atom_type_symbol
_atom_type_radius_bond
C 0.68
H 0.23
N 0.68
O 0.68
loop_
_atom_site_label
_atom_site_type_symbol
_atom_site_fract_x
_atom_site_fract_y
_atom_site_fract_z
C1 C 0.3217(2) 1.16374(14) 0.07653(12)
H1 H 0.37010 1.19370 0.14320
N1 N 0.26936(19) 1.22941(11) -0.01182(10)
C2 C 0.2060(2) 1.15959(14) -0.09367(12)
H2 H 0.16240 1.18570 -0.16250
C3 C 0.1670(2) 0.93524(14) -0.11235(12)
C4 C 0.1939(2) 0.83281(14) -0.05208(12)
C5 C 0.2722(2) 0.83225(14) 0.05418(12)
H3 H 0.29150 0.75930 0.09080
C6 C 0.3194(2) 0.93594(14) 0.10364(11)
C7 C 0.2912(2) 1.04632(13) 0.05080(11)
C8 C 0.2163(2) 1.04197(13) -0.05870(11)
C9 C 0.2819(3) 1.35902(14) -0.01562(15)
H4 H 0.32990 1.38330 -0.08310
H5 H 0.36860 1.38710 0.04290
H6 H 0.15550 1.39320 -0.00920
C10 C 0.0986(2) 0.94010(16) -0.22755(12)
H7 H 0.17120 0.88370 -0.26760
H8 H 0.11660 1.02030 -0.25480
H9 H -0.03670 0.91950 -0.23540
N2 N 0.1442(2) 0.71588(13) -0.09516(12)
O1 O 0.0457(2) 0.70916(12) -0.17892(11)
O2 O 0.2006(2) 0.62788(11) -0.04509(12)
N3 N 0.40406(19) 0.93151(13) 0.21184(10)
O3 O 0.44304(19) 0.83374(12) 0.25178(10)
O4 O 0.43558(18) 1.02612(12) 0.25740(9)
H10? H 0.23940 1.39240 0.05020
H11? H 0.20070 1.38870 -0.07590
H12? H 0.41390 1.38250 -0.02370
#END
