
#######################################################################
#
#                 Cambridge Crystallographic Data Centre
#                                CCDC
#
#######################################################################
#
# If this CIF has been generated from an entry in the Cambridge
# Structural Database, then it will include bibliographic, chemical,
# crystal, experimental, refinement or atomic coordinate data resulting
# from the CCDC's data processing and validation procedures.
#
#######################################################################

data_CSD_CIF_FEQCAH
_audit_creation_date 2013-03-18
_audit_creation_method CSD-ConQuest-V1
_database_code_CSD FEQCAH
_database_code_depnum_ccdc_archive 'CCDC 885287'
_chemical_formula_sum 'C26 H23 N1 O4'
_chemical_formula_moiety
;
C26 H23 N1 O4
;
_journal_coden_Cambridge 1088
_journal_volume 23
_journal_year 2012
_journal_page_first 2653
_journal_name_full 'Synlett '
loop_
_publ_author_name
"A.Rincon"
"V.Carmona"
"M.R.Torres"
"A.G.Csaky"
_chemical_name_systematic
;
(1'R*,2'R*,3'S*,1''R*)-2-(2-Benzoyl-3-(1-nitroethyl)indan-1-yl)-1-phenylethano
ne
;
_cell_volume   2127.674
_exptl_crystal_colour 'colorless'
_exptl_crystal_density_diffrn 1.291
_exptl_crystal_description 'prismatic'
_diffrn_ambient_temperature 296
#These two values have been output from a single CSD field.
_refine_ls_R_factor_gt 0.0688
_refine_ls_wR_factor_gt 0.0688
loop_
_citation_database_id_CSD
_citation_special_details
FEQCEL "is a stereoisomer of this entry"
_symmetry_cell_setting monoclinic
_symmetry_space_group_name_H-M 'P 21/n'
_symmetry_Int_Tables_number 14
loop_
_symmetry_equiv_pos_site_id
_symmetry_equiv_pos_as_xyz
1 x,y,z
2 1/2-x,1/2+y,1/2-z
3 -x,-y,-z
4 -1/2+x,-1/2-y,-1/2+z
_cell_length_a 14.344(2)
_cell_length_b 10.7023(17)
_cell_length_c 14.595(2)
_cell_angle_alpha 90
_cell_angle_beta 108.263(3)
_cell_angle_gamma 90
_cell_formula_units_Z 4
loop_
_atom_type_symbol
_atom_type_radius_bond
C 0.68
H 0.23
N 0.68
O 0.68
loop_
_atom_site_label
_atom_site_type_symbol
_atom_site_fract_x
_atom_site_fract_y
_atom_site_fract_z
C1 C 0.7796(4) 0.9453(5) 0.0739(4)
H1 H 0.76870 1.03190 0.05110
N1 N 0.7192(5) 0.8800(8) -0.0958(5)
O1 O 0.7279(5) 0.7851(6) -0.1387(4)
C2 C 0.7667(4) 0.9351(5) 0.1761(4)
H2 H 0.75430 0.84770 0.18850
O2 O 0.7190(4) 0.9813(6) -0.1272(4)
C3 C 0.8683(4) 0.9745(5) 0.2457(4)
H3 H 0.87150 1.06600 0.24860
O3 O 0.6717(3) 1.1208(4) 0.1544(3)
C4 C 0.9381(5) 0.9279(5) 0.1943(4)
O4 O 0.8155(3) 1.1030(4) 0.3894(3)
C5 C 1.0370(5) 0.9081(6) 0.2298(5)
H4 H 1.07030 0.92250 0.29470
C6 C 1.0873(5) 0.8668(6) 0.1694(6)
H5 H 1.15470 0.85310 0.19330
C7 C 1.0372(6) 0.8458(6) 0.0729(6)
H6 H 1.07040 0.81250 0.03300
C8 C 0.9391(6) 0.8736(5) 0.0354(5)
H7 H 0.90790 0.86630 -0.03060
C9 C 0.8858(4) 0.9125(5) 0.0953(4)
C10 C 0.7075(5) 0.8592(6) 0.0021(4)
H8 H 0.72190 0.77190 0.02160
C11 C 0.5993(5) 0.8875(6) -0.0119(5)
H9 H 0.55880 0.82830 -0.05630
H10 H 0.58410 0.97040 -0.03730
H11 H 0.58720 0.88150 0.04900
C12 C 0.6855(4) 1.0162(6) 0.1911(4)
C13 C 0.6238(4) 0.9729(6) 0.2500(4)
C14 C 0.5649(4) 1.0565(6) 0.2772(4)
H12 H 0.56230 1.13890 0.25640
C15 C 0.5098(5) 1.0213(7) 0.3343(5)
H13 H 0.47140 1.08020 0.35260
C16 C 0.5109(5) 0.9003(7) 0.3646(5)
H14 H 0.47200 0.87650 0.40200
C17 C 0.5695(5) 0.8138(6) 0.3396(5)
H15 H 0.57060 0.73140 0.36020
C18 C 0.6278(5) 0.8509(6) 0.2827(4)
H16 H 0.66900 0.79350 0.26700
C19 C 0.8903(4) 0.9231(5) 0.3485(4)
H17 H 0.96080 0.92220 0.37940
H18 H 0.86720 0.83750 0.34480
C20 C 0.8429(5) 0.9985(6) 0.4109(5)
C21 C 0.8316(5) 0.9338(7) 0.4987(5)
C22 C 0.7665(5) 0.9864(7) 0.5411(5)
H19 H 0.73060 1.05760 0.51560
C23 C 0.7567(6) 0.9273(9) 0.6250(6)
H20 H 0.71280 0.95920 0.65430
C24 C 0.8103(8) 0.8260(9) 0.6622(6)
H21 H 0.80480 0.79080 0.71860
C25 C 0.8725(7) 0.7734(7) 0.6196(6)
H22 H 0.90750 0.70140 0.64460
C26 C 0.8823(6) 0.8308(7) 0.5368(5)
H23 H 0.92520 0.79640 0.50740
#END
