
#######################################################################
#
#                 Cambridge Crystallographic Data Centre
#                                CCDC
#
#######################################################################
#
# If this CIF has been generated from an entry in the Cambridge
# Structural Database, then it will include bibliographic, chemical,
# crystal, experimental, refinement or atomic coordinate data resulting
# from the CCDC's data processing and validation procedures.
#
#######################################################################

data_CSD_CIF_FERFOZ
_audit_creation_date 2013-05-19
_audit_creation_method CSD-ConQuest-V1
_database_code_CSD FERFOZ
_database_code_depnum_ccdc_archive 'CCDC 904648'
_chemical_formula_sum 'C2 H2 N8 O2'
_chemical_formula_moiety
;
C2 H2 N8 O2
;
_journal_coden_Cambridge 580
_journal_volume 51
_journal_year 2013
_journal_page_first 201
_journal_name_full 'Polyhedron '
loop_
_publ_author_name
"N.Fischer"
"Li Gao"
"T.M.Klapotke"
"J.Stierstorfer"
_chemical_name_systematic
;
5,5'-Bi-(2-hydroxytetrazole)
;
_cell_volume    289.325
_exptl_crystal_colour 'colorless'
_exptl_crystal_density_diffrn 1.953
_exptl_crystal_description 'rod'
_diffrn_ambient_temperature 173
#These two values have been output from a single CSD field.
_refine_ls_R_factor_gt 0.0336
_refine_ls_wR_factor_gt 0.0336
_symmetry_cell_setting monoclinic
_symmetry_space_group_name_H-M 'P 21/c'
_symmetry_Int_Tables_number 14
loop_
_symmetry_equiv_pos_site_id
_symmetry_equiv_pos_as_xyz
1 x,y,z
2 -x,1/2+y,1/2-z
3 -x,-y,-z
4 x,-1/2-y,-1/2+z
_cell_length_a 6.5902(8)
_cell_length_b 4.9566(6)
_cell_length_c 9.4983(16)
_cell_angle_alpha 90
_cell_angle_beta 111.169(12)
_cell_angle_gamma 90
_cell_formula_units_Z 2
loop_
_atom_type_symbol
_atom_type_radius_bond
C 0.68
H 0.23
N 0.68
O 0.68
loop_
_atom_site_label
_atom_site_type_symbol
_atom_site_fract_x
_atom_site_fract_y
_atom_site_fract_z
O1 O 0.66719(19) 0.5892(3) 0.27416(13)
H1 H 0.71400 0.43810 0.36040
N1 N 0.9052(2) 0.6232(3) 0.14653(16)
N2 N 0.7452(2) 0.4968(3) 0.17129(15)
N3 N 0.6632(2) 0.2865(3) 0.08570(16)
N4 N 0.7776(2) 0.2683(3) -0.00348(16)
C1 C 0.9211(3) 0.4731(3) 0.03544(17)
O1B O 1.33281(19) 0.4108(3) -0.27416(13)
H1B H 1.28600 0.56190 -0.36040
N1B N 1.0948(2) 0.3768(3) -0.14653(16)
N2B N 1.2548(2) 0.5032(3) -0.17129(15)
N3B N 1.3368(2) 0.7135(3) -0.08570(16)
N4B N 1.2224(2) 0.7317(3) 0.00348(16)
C1B C 1.0789(3) 0.5269(3) -0.03544(17)
#END
