
#######################################################################
#
#                 Cambridge Crystallographic Data Centre
#                                CCDC
#
#######################################################################
#
# If this CIF has been generated from an entry in the Cambridge
# Structural Database, then it will include bibliographic, chemical,
# crystal, experimental, refinement or atomic coordinate data resulting
# from the CCDC's data processing and validation procedures.
#
#######################################################################

data_CSD_CIF_FESNEW20
_audit_creation_date 2015-06-30
_audit_creation_method CSD-ConQuest-V1
_database_code_CSD FESNEW20
_database_code_depnum_ccdc_archive 'CCDC 1041038'
_chemical_formula_sum 'C7 H6 N2 O5'
_chemical_formula_moiety
;
C7 H6 N2 O5
;
_journal_coden_Cambridge 1350
_journal_volume 17
_journal_year 2015
_journal_page_first 8888
_journal_name_full 'CrystEngComm '
loop_
_publ_author_name
"H.Takahashi"
"R.Tamura"
_chemical_name_systematic
;
2,4-Dinitroanisole
;
_cell_volume    807.106
_exptl_crystal_colour 'pale yellow'
_exptl_crystal_density_diffrn 1.631
_exptl_special_details
;
polymorph 2

;
_exptl_crystal_description 'Platelet'
_diffrn_ambient_temperature 128
#These two values have been output from a single CSD field.
_refine_ls_R_factor_gt 0.0347
_refine_ls_wR_factor_gt 0.0347
_symmetry_cell_setting monoclinic
_symmetry_space_group_name_H-M 'P 21/n'
_symmetry_Int_Tables_number 14
loop_
_symmetry_equiv_pos_site_id
_symmetry_equiv_pos_as_xyz
1 x,y,z
2 1/2-x,1/2+y,1/2-z
3 -x,-y,-z
4 -1/2+x,-1/2-y,-1/2+z
_cell_length_a 3.8278(18)
_cell_length_b 13.813(6)
_cell_length_c 15.364(8)
_cell_angle_alpha 90
_cell_angle_beta 96.512(7)
_cell_angle_gamma 90
_cell_formula_units_Z 4
loop_
_atom_type_symbol
_atom_type_radius_bond
C 0.68
H 0.23
N 0.68
O 0.68
loop_
_atom_site_label
_atom_site_type_symbol
_atom_site_fract_x
_atom_site_fract_y
_atom_site_fract_z
C1 C 0.5971(3) 0.18249(8) 0.07287(8)
C2 C 0.5186(3) 0.25714(9) 0.01077(8)
C3 C 0.3884(3) 0.34540(9) 0.03397(8)
H1 H 0.343(4) 0.3937(11) -0.0079(10)
C4 C 0.3356(3) 0.36030(8) 0.12049(8)
C5 C 0.4049(3) 0.28894(9) 0.18353(8)
H2 H 0.374(4) 0.3013(11) 0.2426(11)
C6 C 0.5340(3) 0.20073(9) 0.15963(9)
H3 H 0.576(4) 0.1526(9) 0.2031(10)
C7 C 0.7964(4) 0.02188(10) 0.10966(9)
H4 H 0.967(4) 0.0431(9) 0.1575(9)
H5 H 0.896(4) -0.0302(11) 0.0781(10)
H6 H 0.586(4) 0.0004(9) 0.1321(9)
N1 N 0.5677(3) 0.24492(8) -0.08225(7)
N2 N 0.1972(3) 0.45384(8) 0.14508(7)
O1 O 0.7208(2) 0.09798(6) 0.04604(6)
O2 O 0.7771(3) 0.18406(7) -0.10195(7)
O3 O 0.3997(3) 0.29714(7) -0.13518(6)
O4 O 0.1812(3) 0.51952(7) 0.09122(7)
O5 O 0.1012(3) 0.46205(7) 0.21842(6)
#END
