
#######################################################################
#
#                 Cambridge Crystallographic Data Centre
#                                CCDC
#
#######################################################################
#
# If this CIF has been generated from an entry in the Cambridge
# Structural Database, then it will include bibliographic, chemical,
# crystal, experimental, refinement or atomic coordinate data resulting
# from the CCDC's data processing and validation procedures.
#
#######################################################################

data_CSD_CIF_FESNEW16
_audit_creation_date 2015-06-30
_audit_creation_method CSD-ConQuest-V1
_database_code_CSD FESNEW16
_database_code_depnum_ccdc_archive 'CCDC 1041034'
_chemical_formula_sum 'C7 H6 N2 O5'
_chemical_formula_moiety
;
C7 H6 N2 O5
;
_journal_coden_Cambridge 1350
_journal_volume 17
_journal_year 2015
_journal_page_first 8888
_journal_name_full 'CrystEngComm '
loop_
_publ_author_name
"H.Takahashi"
"R.Tamura"
_chemical_name_systematic
;
2,4-Dinitroanisole
;
_cell_volume    824.378
_exptl_crystal_colour 'pale yellow'
_exptl_crystal_density_diffrn 1.596
_exptl_special_details
;
polymorph 2

;
_exptl_crystal_description 'Platelet'
_diffrn_ambient_temperature 226
#These two values have been output from a single CSD field.
_refine_ls_R_factor_gt 0.045
_refine_ls_wR_factor_gt 0.045
_symmetry_cell_setting monoclinic
_symmetry_space_group_name_H-M 'P 21/n'
_symmetry_Int_Tables_number 14
loop_
_symmetry_equiv_pos_site_id
_symmetry_equiv_pos_as_xyz
1 x,y,z
2 1/2-x,1/2+y,1/2-z
3 -x,-y,-z
4 -1/2+x,-1/2-y,-1/2+z
_cell_length_a 3.8968(18)
_cell_length_b 13.781(7)
_cell_length_c 15.419(7)
_cell_angle_alpha 90
_cell_angle_beta 95.382(6)
_cell_angle_gamma 90
_cell_formula_units_Z 4
loop_
_atom_type_symbol
_atom_type_radius_bond
C 0.68
H 0.23
N 0.68
O 0.68
loop_
_atom_site_label
_atom_site_type_symbol
_atom_site_fract_x
_atom_site_fract_y
_atom_site_fract_z
C1 C 0.6041(4) 0.18437(12) 0.07367(10)
C2 C 0.5202(4) 0.25792(12) 0.01217(9)
C3 C 0.3893(4) 0.34620(13) 0.03505(10)
H1 H 0.343(5) 0.3933(15) -0.0070(12)
C4 C 0.3401(4) 0.36172(12) 0.12178(10)
C5 C 0.4163(5) 0.29163(14) 0.18441(10)
H2 H 0.382(5) 0.3050(13) 0.2456(12)
C6 C 0.5468(5) 0.20363(14) 0.16041(10)
H3 H 0.591(5) 0.1546(14) 0.2040(13)
C7 C 0.8093(6) 0.02446(16) 0.10947(14)
H4 H 0.968(7) 0.0459(16) 0.1559(15)
H5 H 0.893(6) -0.0259(16) 0.0786(13)
H6 H 0.613(7) 0.0041(15) 0.1367(14)
N1 N 0.5666(4) 0.24480(11) -0.08083(8)
N2 N 0.1982(4) 0.45480(12) 0.14610(9)
O1 O 0.7273(3) 0.09987(9) 0.04696(7)
O2 O 0.7702(5) 0.18491(12) -0.10112(9)
O3 O 0.4063(5) 0.29641(13) -0.13281(8)
O4 O 0.1630(5) 0.51874(12) 0.09167(10)
O5 O 0.1204(5) 0.46496(12) 0.22023(9)
#END
