
#######################################################################
#
#                 Cambridge Crystallographic Data Centre
#                                CCDC
#
#######################################################################
#
# If this CIF has been generated from an entry in the Cambridge
# Structural Database, then it will include bibliographic, chemical,
# crystal, experimental, refinement or atomic coordinate data resulting
# from the CCDC's data processing and validation procedures.
#
#######################################################################

data_CSD_CIF_FESNEW15
_audit_creation_date 2015-06-30
_audit_creation_method CSD-ConQuest-V1
_database_code_CSD FESNEW15
_database_code_depnum_ccdc_archive 'CCDC 1041033'
_chemical_formula_sum 'C7 H6 N2 O5'
_chemical_formula_moiety
;
C7 H6 N2 O5
;
_journal_coden_Cambridge 1350
_journal_volume 17
_journal_year 2015
_journal_page_first 8888
_journal_name_full 'CrystEngComm '
loop_
_publ_author_name
"H.Takahashi"
"R.Tamura"
_chemical_name_systematic
;
2,4-Dinitroanisole
;
_cell_volume    826.838
_exptl_crystal_colour 'pale yellow'
_exptl_crystal_density_diffrn 1.592
_exptl_special_details
;
polymorph 2

;
_exptl_crystal_description 'Platelet'
_diffrn_ambient_temperature 236
#These two values have been output from a single CSD field.
_refine_ls_R_factor_gt 0.0446
_refine_ls_wR_factor_gt 0.0446
_symmetry_cell_setting monoclinic
_symmetry_space_group_name_H-M 'P 21/n'
_symmetry_Int_Tables_number 14
loop_
_symmetry_equiv_pos_site_id
_symmetry_equiv_pos_as_xyz
1 x,y,z
2 1/2-x,1/2+y,1/2-z
3 -x,-y,-z
4 -1/2+x,-1/2-y,-1/2+z
_cell_length_a 3.908(2)
_cell_length_b 13.78(1)
_cell_length_c 15.42(1)
_cell_angle_alpha 90
_cell_angle_beta 95.310(6)
_cell_angle_gamma 90
_cell_formula_units_Z 4
loop_
_atom_type_symbol
_atom_type_radius_bond
C 0.68
H 0.23
N 0.68
O 0.68
loop_
_atom_site_label
_atom_site_type_symbol
_atom_site_fract_x
_atom_site_fract_y
_atom_site_fract_z
C1 C 0.3951(4) 0.31522(12) 0.92609(10)
C2 C 0.4797(4) 0.24180(11) 0.98757(9)
C3 C 0.6115(5) 0.15396(13) 0.96464(11)
H1 H 0.663(4) 0.1069(14) 1.0062(12)
C4 C 0.6588(4) 0.13803(12) 0.87834(11)
C5 C 0.5813(5) 0.20805(14) 0.81561(11)
H2 H 0.618(5) 0.1952(13) 0.7557(12)
C6 C 0.4507(5) 0.29570(14) 0.83942(11)
H3 H 0.402(5) 0.3432(14) 0.7962(13)
C7 C 0.1901(7) 0.47510(16) 0.89032(15)
H4 H 0.110(6) 0.5253(16) 0.9211(13)
H5 H 0.026(6) 0.4530(14) 0.8415(14)
H6 H 0.383(6) 0.4946(13) 0.8623(14)
N1 N 0.4341(4) 0.25512(11) 1.08046(9)
N2 N 0.8005(4) 0.04489(12) 0.85353(10)
O1 O 0.2721(3) 0.39981(8) 0.95309(7)
O2 O 0.2322(5) 0.31510(11) 1.10118(9)
O3 O 0.5929(5) 0.20378(13) 1.13263(9)
O4 O 0.8402(5) -0.01864(11) 0.90834(10)
O5 O 0.8765(5) 0.03440(11) 0.77946(9)
#END
