
#######################################################################
#
#                 Cambridge Crystallographic Data Centre
#                                CCDC
#
#######################################################################
#
# If this CIF has been generated from an entry in the Cambridge
# Structural Database, then it will include bibliographic, chemical,
# crystal, experimental, refinement or atomic coordinate data resulting
# from the CCDC's data processing and validation procedures.
#
#######################################################################

data_CSD_CIF_FESPEY
_audit_creation_date 1988-01-14
_audit_creation_method CSD-ConQuest-V1
_database_code_CSD FESPEY
_chemical_formula_sum 'C12 H7 N1 O3'
_chemical_formula_moiety
;
C12 H7 N1 O3
;
_journal_coeditor_code "IUCr A26975"
_journal_coden_Cambridge 591
_journal_volume 43
_journal_year 1987
_journal_page_first 678
_journal_name_full 'Acta Crystallogr.,Sect.C:Cryst.Struct.Commun. '
loop_
_publ_author_name
"A.Ajana"
"J.P.Bideau"
"M.Cotrait"
_chemical_name_systematic
;
2-Nitronaptho(2,3-b)furan
;
_cell_volume    473.655
_exptl_crystal_colour 'yellow-orange'
_exptl_crystal_density_diffrn 1.495
_exptl_special_details
;
mutagenic agent

;
_diffrn_ambient_temperature ?
_diffrn_special_details
;
The study was carried out at room temperature,in the range 283-303K

;
#These two values have been output from a single CSD field.
_refine_ls_R_factor_gt 0.04
_refine_ls_wR_factor_gt 0.04
_symmetry_cell_setting triclinic
_symmetry_space_group_name_H-M 'P -1'
_symmetry_Int_Tables_number 2
loop_
_symmetry_equiv_pos_site_id
_symmetry_equiv_pos_as_xyz
1 x,y,z
2 -x,-y,-z
_cell_length_a 7.850(2)
_cell_length_b 9.191(1)
_cell_length_c 7.369(4)
_cell_angle_alpha 92.09
_cell_angle_beta 116.79(3)
_cell_angle_gamma 86.42(2)
_cell_formula_units_Z 2
loop_
_atom_type_symbol
_atom_type_radius_bond
C 0.68
H 0.23
N 0.68
O 0.68
loop_
_atom_site_label
_atom_site_type_symbol
_atom_site_fract_x
_atom_site_fract_y
_atom_site_fract_z
O1 O -0.3191(2) -0.1340(2) -0.5358(2)
C1 C -0.2486(3) -0.2738(2) -0.5094(3)
C2 C -0.0694(3) -0.2945(2) -0.3679(3)
C3 C 0.1565(3) -0.0989(2) -0.1382(3)
C4 C 0.3323(3) 0.1134(3) 0.0537(3)
C5 C 0.3399(3) 0.2599(3) 0.0865(3)
C6 C 0.1826(4) 0.3535(3) -0.0266(4)
C7 C 0.0173(3) 0.2998(2) -0.1739(3)
C8 C -0.1676(3) 0.0913(2) -0.3674(3)
C9 C 0.0034(3) 0.1470(2) -0.2152(3)
C10 C 0.1634(3) 0.0522(2) -0.1011(3)
C11 C -0.0101(3) -0.1517(2) -0.2890(3)
C12 C -0.1670(3) -0.0555(2) -0.3963(3)
N1 N -0.3764(3) -0.3817(2) -0.6319(3)
O2 O -0.3108(3) -0.5074(2) -0.6117(3)
O3 O -0.5404(2) -0.3426(2) -0.7486(3)
H1 H 0.01300 -0.39700 -0.32200
H2 H 0.27800 -0.17200 -0.05200
H3 H 0.45400 0.04200 0.14500
H4 H 0.43690 0.30400 0.20100
H5 H 0.19200 0.47000 0.00200
H6 H -0.10400 0.37400 -0.26000
H7 H -0.29100 0.16200 -0.45400
#END
