
#######################################################################
#
#                 Cambridge Crystallographic Data Centre
#                                CCDC
#
#######################################################################
#
# If this CIF has been generated from an entry in the Cambridge
# Structural Database, then it will include bibliographic, chemical,
# crystal, experimental, refinement or atomic coordinate data resulting
# from the CCDC's data processing and validation procedures.
#
#######################################################################

data_CSD_CIF_FESPIF
_audit_creation_date 2017-11-14
_audit_creation_method CSD-ConQuest-V1
_database_code_CSD FESPIF
_database_code_depnum_ccdc_archive 'CCDC 1486604'
_chemical_formula_sum 'C29 H26 N4 O3'
_chemical_formula_moiety
;
C29 H26 N4 O3
;
_journal_coden_Cambridge 908
_journal_volume 14
_journal_year 2017
_journal_page_first 2157
_journal_name_full 'J.Iran.Chem.Soc. '
loop_
_publ_author_name
"A.Alizadeh"
"A.Roosta"
"M.R.Halvagar"
_chemical_name_systematic
;
2-(3-nitro-1-phenyl-2-(propylamino)-1,4-dihydrobenzo[b][1,8]naphthyridin-4-yl)
-1-phenylethanone
;
_cell_volume   2487.605
_exptl_crystal_density_diffrn 1.277
_diffrn_ambient_temperature 293
_diffrn_special_details
;
twin

;
#These two values have been output from a single CSD field.
_refine_ls_R_factor_gt 0.0487
_refine_ls_wR_factor_gt 0.0487
_symmetry_cell_setting monoclinic
_symmetry_space_group_name_H-M 'C c'
_symmetry_Int_Tables_number 9
loop_
_symmetry_equiv_pos_site_id
_symmetry_equiv_pos_as_xyz
1 x,y,z
2 x,-y,1/2+z
3 1/2+x,1/2+y,z
4 1/2+x,1/2-y,1/2+z
_cell_length_a 14.474(3)
_cell_length_b 22.434(4)
_cell_length_c 8.8587(18)
_cell_angle_alpha 90
_cell_angle_beta 120.14(3)
_cell_angle_gamma 90
_cell_formula_units_Z 4
loop_
_atom_type_symbol
_atom_type_radius_bond
C 0.68
H 0.23
N 0.68
O 0.68
loop_
_atom_site_label
_atom_site_type_symbol
_atom_site_fract_x
_atom_site_fract_y
_atom_site_fract_z
C1 C 0.7910(8) 0.1167(6) 0.1080(14)
C2 C 0.7205(10) 0.1555(7) 0.1294(16)
C3 C 0.6467(8) 0.0692(5) 0.2021(13)
C4 C 0.5504(7) -0.0056(5) 0.2286(13)
C5 C 0.6062(7) -0.0490(5) 0.1888(11)
C6 C 0.6936(7) -0.0251(6) 0.1687(11)
H1 H 0.73550 -0.05190 0.14890
C7 C 0.7166(8) 0.0326(5) 0.1770(13)
C8 C 0.8070(7) 0.0526(6) 0.1626(12)
H2 H 0.80460 0.03010 0.06580
C9 C 0.9126(7) 0.0385(5) 0.3208(12)
H3 H 0.96820 0.05140 0.29730
H4 H 0.91810 -0.00450 0.33350
C10 C 0.9386(8) 0.0657(5) 0.5016(12)
C11 C 1.0416(7) 0.0629(5) 0.6473(13)
C12 C 1.1212(10) 0.0211(5) 0.6749(18)
H5 H 1.10410 -0.00760 0.58920
C13 C 1.2158(11) 0.0196(7) 0.810(2)
H6 H 1.26310 -0.01000 0.81780
C14 C 1.249(1) 0.0618(8) 0.9439(19)
H7 H 1.31810 0.06300 1.03890
C15 C 1.1706(12) 0.1016(6) 0.9240(17)
H8 H 1.18850 0.13040 1.01000
C16 C 1.0680(9) 0.1012(5) 0.7851(16)
H9 H 1.01670 0.12660 0.78370
C17 C 0.5816(8) -0.1100(6) 0.1887(13)
H10 H 0.62370 -0.13870 0.17660
C18 C 0.4971(9) -0.1274(6) 0.2059(14)
H11 H 0.47400 -0.16680 0.18730
C19 C 0.4465(7) -0.0845(6) 0.2523(13)
H12 H 0.39440 -0.09680 0.27760
C20 C 0.4702(8) -0.0244(5) 0.2626(13)
H13 H 0.43350 0.00310 0.29150
C21 C 0.6153(7) 0.1704(4) 0.2721(12)
C22 C 0.5084(8) 0.1776(5) 0.2088(16)
H14 H 0.45980 0.15470 0.11450
C23 C 0.4711(10) 0.2183(6) 0.2831(19)
H15 H 0.39850 0.22630 0.23260
C24 C 0.5401(9) 0.2452(6) 0.4246(16)
H16 H 0.51320 0.27080 0.47570
C25 C 0.6507(10) 0.2394(5) 0.5078(15)
H17 H 0.69760 0.26010 0.60870
C26 C 0.6849(10) 0.1981(4) 0.4212(16)
H18 H 0.75740 0.19020 0.46990
C27 C 0.6248(13) 0.2570(6) 0.0448(19)
H19 H 0.64000 0.27830 0.15020
H20 H 0.55960 0.23450 0.00730
C28 C 0.6032(19) 0.3048(9) -0.102(3)
H21 H 0.58160 0.28430 -0.21130
H22 H 0.54490 0.33060 -0.11940
C29 C 0.6879(18) 0.3375(9) -0.061(3)
H23 H 0.66680 0.37270 -0.13250
H24 H 0.73730 0.31500 -0.08100
H25 H 0.72150 0.34870 0.05950
N1 N 0.8500(8) 0.1397(6) 0.0319(13)
N2 N 0.6559(6) 0.1314(4) 0.1881(10)
N3 N 0.5685(6) 0.0538(4) 0.2263(9)
N4 N 0.7099(8) 0.2156(6) 0.0880(12)
O1 O 0.8465(7) 0.1940(5) -0.0113(12)
O2 O 0.9099(6) 0.1006(4) 0.0180(9)
O3 O 0.8632(5) 0.0936(4) 0.4986(9)
H26 H 0.780(2) 0.219(2) 0.144(5)
#END
