
#######################################################################
#
#                 Cambridge Crystallographic Data Centre
#                                CCDC
#
#######################################################################
#
# If this CIF has been generated from an entry in the Cambridge
# Structural Database, then it will include bibliographic, chemical,
# crystal, experimental, refinement or atomic coordinate data resulting
# from the CCDC's data processing and validation procedures.
#
#######################################################################

data_CSD_CIF_FESRUT
_audit_creation_date 2017-11-14
_audit_creation_method CSD-ConQuest-V1
_database_code_CSD FESRUT
_database_code_depnum_ccdc_archive 'CCDC 1553264'
_chemical_formula_sum 'C40 H31 N3 O10'
_chemical_formula_moiety
;
C40 H31 N3 O10
;
_journal_coden_Cambridge 35
_journal_volume 82
_journal_year 2017
_journal_page_first 11494
_journal_name_full 'J.Org.Chem. '
loop_
_publ_author_name
"M.Neralkar"
"B.Mishra"
"S.Hotha"
_chemical_name_systematic
;
1H-bezno(d)(1,2,3)triazol-1-yl 2,3,4,6-tetra-O-benzoyl \b-D-glucopyranoside
;
_cell_volume   3580.326
_exptl_crystal_colour 'colorless'
_exptl_crystal_density_diffrn 1.324
_exptl_crystal_description 'plate'
_diffrn_ambient_temperature 99
#These two values have been output from a single CSD field.
_refine_ls_R_factor_gt 0.0782
_refine_ls_wR_factor_gt 0.0782
_symmetry_cell_setting orthorhombic
_symmetry_space_group_name_H-M 'P 21 21 21'
_symmetry_Int_Tables_number 19
loop_
_symmetry_equiv_pos_site_id
_symmetry_equiv_pos_as_xyz
1 x,y,z
2 1/2-x,-y,1/2+z
3 -x,1/2+y,1/2-z
4 1/2+x,1/2-y,-z
_cell_length_a 5.5783(6)
_cell_length_b 25.050(3)
_cell_length_c 25.622(3)
_cell_angle_alpha 90
_cell_angle_beta 90
_cell_angle_gamma 90
_cell_formula_units_Z 4
loop_
_atom_type_symbol
_atom_type_radius_bond
C 0.68
H 0.23
N 0.68
O 0.68
loop_
_atom_site_label
_atom_site_type_symbol
_atom_site_fract_x
_atom_site_fract_y
_atom_site_fract_z
C1 C 0.2667(13) 0.5027(3) 0.90165(18)
C2 C 0.0834(14) 0.5275(3) 0.9293(3)
H1 H -0.05050 0.54190 0.91120
C3 C 0.0961(19) 0.5312(3) 0.9833(3)
H2 H -0.02920 0.54820 1.00220
C4 C 0.292(2) 0.5102(4) 1.00976(18)
H3 H 0.30080 0.51270 1.04670
C5 C 0.4754(18) 0.4854(4) 0.9821(3)
H4 H 0.60930 0.47100 1.00020
C6 C 0.4627(14) 0.4816(4) 0.9281(3)
H5 H 0.58790 0.46470 0.90920
C7 C 0.8112(14) 0.5467(2) 0.6338(2)
C8 C 1.0163(15) 0.5615(3) 0.6610(3)
H6 H 1.08370 0.53810 0.68620
C9 C 1.1227(17) 0.6107(4) 0.6514(4)
H7 H 1.26280 0.62090 0.66990
C10 C 1.024(2) 0.6450(3) 0.6146(4)
H8 H 1.09670 0.67870 0.60800
C11 C 0.819(2) 0.6302(3) 0.5874(3)
H9 H 0.75150 0.65360 0.56220
C12 C 0.7125(16) 0.5810(3) 0.5970(3)
H10 H 0.57240 0.57080 0.57840
O1 O 0.7951(9) 0.46710(18) 0.68165(16)
O2 O 0.8559(8) 0.36337(18) 0.63777(14)
O3 O 0.8868(10) 0.28144(18) 0.72301(16)
O4 O 0.4944(9) 0.3825(2) 0.77527(15)
O5 O 1.2415(9) 0.3431(3) 0.6478(2)
O6 O 0.4979(14) 0.2941(2) 0.79059(18)
O7 O 0.4459(12) 0.4829(3) 0.82245(19)
O8 O 0.7593(13) 0.2423(2) 0.6500(2)
C13 C 1.0738(13) 0.3491(3) 0.6194(3)
C14 C 1.0674(12) 0.3402(3) 0.5629(2)
C15 C 0.6681(13) 0.4206(3) 0.6992(2)
H11 H 0.51570 0.41600 0.67910
N1 N 0.4914(17) 0.2913(3) 0.8443(2)
C16 C 0.8851(14) 0.3578(3) 0.5319(3)
H12 H 0.75440 0.37650 0.54710
C17 C 0.8861(16) 0.2419(3) 0.6871(3)
C18 C 0.339(2) 0.3138(4) 0.8776(3)
C19 C 0.6152(14) 0.4289(3) 0.7568(2)
H13 H 0.76810 0.43410 0.77660
C20 C 0.8271(13) 0.3722(3) 0.6926(2)
H14 H 0.98690 0.37910 0.70890
C21 C 0.7120(15) 0.3234(3) 0.7179(2)
H15 H 0.57060 0.31110 0.69710
C22 C 1.2552(19) 0.3032(3) 0.4875(4)
H16 H 1.38280 0.28360 0.47210
C23 C 0.6886(19) 0.4962(3) 0.6438(3)
C24 C 0.249(2) 0.4971(4) 0.8453(3)
C25 C 1.0685(15) 0.2011(3) 0.6992(3)
C26 C 1.2578(14) 0.3128(3) 0.5401(3)
H17 H 1.38820 0.30080 0.56090
C27 C 0.6400(16) 0.3365(3) 0.7732(2)
H18 H 0.78470 0.34080 0.79590
C28 C 0.8876(16) 0.3489(4) 0.4786(3)
H19 H 0.76080 0.36190 0.45730
C29 C 0.4476(19) 0.4747(3) 0.7671(3)
H20 H 0.50420 0.50730 0.74890
H21 H 0.28440 0.46610 0.75440
C30 C 1.0729(19) 0.3213(4) 0.4566(3)
H22 H 1.07500 0.31470 0.42010
O9 O 0.5163(19) 0.4819(3) 0.6223(3)
O10 O 0.0773(17) 0.5061(5) 0.8205(3)
C31 C 0.398(3) 0.2891(5) 0.9245(3)
N2 N 0.575(3) 0.2523(4) 0.9141(4)
N3 N 0.628(2) 0.2535(3) 0.8647(4)
C32 C 1.292(3) 0.1250(5) 0.6726(5)
H23 H 1.32330 0.09810 0.64740
C33 C 1.366(3) 0.1634(5) 0.7534(5)
H24 H 1.44790 0.16350 0.78590
C34 C 1.116(3) 0.1613(5) 0.6631(4)
H25 H 1.02530 0.15940 0.63180
C35 C 0.269(4) 0.3017(6) 0.9686(4)
H26 H 0.29480 0.28290 1.00030
C36 C 0.165(2) 0.3526(5) 0.8730(5)
H27 H 0.12990 0.37000 0.84100
C37 C 0.049(3) 0.3637(6) 0.9181(8)
H28 H -0.07990 0.38860 0.91750
C38 C 1.192(2) 0.2008(3) 0.7439(4)
H29 H 1.15830 0.22710 0.76960
C39 C 0.111(4) 0.3396(7) 0.9661(7)
H30 H 0.03560 0.35150 0.99720
C40 C 1.423(2) 0.1258(4) 0.7162(5)
H31 H 1.55110 0.10140 0.72150
#END
