
#######################################################################
#
#                 Cambridge Crystallographic Data Centre
#                                CCDC
#
#######################################################################
#
# If this CIF has been generated from an entry in the Cambridge
# Structural Database, then it will include bibliographic, chemical,
# crystal, experimental, refinement or atomic coordinate data resulting
# from the CCDC's data processing and validation procedures.
#
#######################################################################

data_CSD_CIF_FETNID01
_audit_creation_date 2015-11-04
_audit_creation_method CSD-ConQuest-V1
_database_code_CSD FETNID01
_database_code_depnum_ccdc_archive 'CCDC 1406156'
_chemical_formula_sum 'C12 H10 N2 O4'
_chemical_formula_moiety
;
C12 H10 N2 O4
;
_journal_coden_Cambridge 177
_journal_volume 14
_journal_year 2016
_journal_page_first 97
_journal_name_full 'Org.Biomol.Chem. '
loop_
_publ_author_name
"S.Burugupalli"
"Sayali Shah"
"P.L.van der Peet"
"S.Arora"
"J.M.White"
"S.J.Williams"
_chemical_name_systematic
;
ethyl ((benzoyloxy)imino)(cyano)acetate
;
_cell_volume   1171.139
_exptl_crystal_colour 'colorless'
_exptl_crystal_density_diffrn 1.396
_exptl_crystal_description 'block'
_diffrn_ambient_temperature 130
#These two values have been output from a single CSD field.
_refine_ls_R_factor_gt 0.0342
_refine_ls_wR_factor_gt 0.0342
_symmetry_cell_setting monoclinic
_symmetry_space_group_name_H-M 'P 21/n'
_symmetry_Int_Tables_number 14
loop_
_symmetry_equiv_pos_site_id
_symmetry_equiv_pos_as_xyz
1 x,y,z
2 1/2-x,1/2+y,1/2-z
3 -x,-y,-z
4 -1/2+x,-1/2-y,-1/2+z
_cell_length_a 11.8867(1)
_cell_length_b 8.0556(1)
_cell_length_c 12.3853(1)
_cell_angle_alpha 90
_cell_angle_beta 99.064(1)
_cell_angle_gamma 90
_cell_formula_units_Z 4
loop_
_atom_type_symbol
_atom_type_radius_bond
C 0.68
H 0.23
N 0.68
O 0.68
loop_
_atom_site_label
_atom_site_type_symbol
_atom_site_fract_x
_atom_site_fract_y
_atom_site_fract_z
C1 C 0.36492(8) 0.56893(12) 0.52548(8)
C2 C 0.37123(8) 0.74062(12) 0.47692(8)
C3 C 0.36467(8) 0.88668(12) 0.54338(8)
C4 C 0.40045(8) 0.91286(12) 0.22980(8)
C5 C 0.39791(8) 1.08596(11) 0.19009(8)
C6 C 0.38732(8) 1.22355(12) 0.25624(8)
H1 H 0.37880 1.20920 0.32900
C7 C 0.38963(8) 1.38194(12) 0.21254(8)
H2 H 0.38310 1.47410 0.25630
C8 C 0.40169(9) 1.40332(12) 0.10346(9)
H3 H 0.40340 1.50980 0.07470
C9 C 0.41127(9) 1.26591(13) 0.03723(8)
H4 H 0.41890 1.28030 -0.03580
C10 C 0.40935(8) 1.10796(12) 0.08058(8)
H5 H 0.41570 1.01600 0.03660
C11 C 0.34023(9) 0.42539(13) 0.68734(8)
H6 H 0.35940 0.44480 0.76540
H7 H 0.39440 0.34620 0.66640
C12 C 0.22237(10) 0.35464(15) 0.66227(9)
H8 H 0.20800 0.31870 0.58750
H9 H 0.16790 0.43810 0.67380
H10 H 0.21580 0.26180 0.70950
N1 N 0.36112(8) 1.00297(12) 0.59590(8)
N2 N 0.38220(7) 0.74453(10) 0.37582(7)
O1 O 0.34845(6) 0.58205(8) 0.62839(6)
O2 O 0.37343(7) 0.44405(9) 0.47521(6)
O3 O 0.38413(6) 0.90725(8) 0.33902(5)
O4 O 0.41532(8) 0.79155(9) 0.17884(6)
#END
