
#######################################################################
#
#                 Cambridge Crystallographic Data Centre
#                                CCDC
#
#######################################################################
#
# If this CIF has been generated from an entry in the Cambridge
# Structural Database, then it will include bibliographic, chemical,
# crystal, experimental, refinement or atomic coordinate data resulting
# from the CCDC's data processing and validation procedures.
#
#######################################################################

data_CSD_CIF_FETRAY
_audit_creation_date 2005-05-23
_audit_creation_method CSD-ConQuest-V1
_database_code_CSD FETRAY
_database_code_depnum_ccdc_archive 'CCDC 263668'
_chemical_formula_sum 'C16 H16 N2 O5'
_chemical_formula_moiety
;
C16 H16 N2 O5
;
_journal_coeditor_code "IUCr HG6119"
_journal_coden_Cambridge 1370
_journal_volume 61
_journal_year 2005
_journal_page_first o247
_journal_name_full 'Acta Crystallogr.,Sect.E:Struct.Rep.Online '
loop_
_publ_author_name
"I.Vencato"
"P.H.Ferri"
"S.C.Santos"
"M.Pereira"
"C.Lariucci"
"L.I.B.Homar"
"H.B.Napolitano"
_chemical_name_systematic
;
1-(4-Methoxyphenyl)-2-(6-methyl-2-nitro-3-pyridyloxy)propan-1-one
;
_chemical_melting_point 403
_cell_volume   1550.339
_exptl_crystal_colour 'light brown'
_exptl_crystal_density_diffrn 1.355
_exptl_special_details
;
Melting point range 403-405K
moderate in vitro activity against Paracoccidioides brasiliensis
;
_exptl_crystal_description 'block'
_exptl_crystal_preparation 'ethanol'
_diffrn_ambient_temperature 298
#These two values have been output from a single CSD field.
_refine_ls_R_factor_gt 0.052
_refine_ls_wR_factor_gt 0.052
_symmetry_cell_setting monoclinic
_symmetry_space_group_name_H-M 'P 21/c'
_symmetry_Int_Tables_number 14
loop_
_symmetry_equiv_pos_site_id
_symmetry_equiv_pos_as_xyz
1 x,y,z
2 -x,1/2+y,1/2-z
3 -x,-y,-z
4 x,-1/2-y,-1/2+z
_cell_length_a 8.185(2)
_cell_length_b 14.756(3)
_cell_length_c 15.092(5)
_cell_angle_alpha 90
_cell_angle_beta 121.73(2)
_cell_angle_gamma 90
_cell_formula_units_Z 4
loop_
_atom_type_symbol
_atom_type_radius_bond
C 0.68
H 0.23
N 0.68
O 0.68
loop_
_atom_site_label
_atom_site_type_symbol
_atom_site_fract_x
_atom_site_fract_y
_atom_site_fract_z
O1 O -0.4986(4) 0.8451(2) 0.4040(2)
O2 O -0.3632(4) 0.8142(2) 0.32131(19)
O3 O 1.1032(3) 0.89478(18) 0.91383(16)
O4 O 0.2032(3) 0.93396(15) 0.66460(16)
O5 O 0.0173(2) 0.84786(13) 0.47999(15)
N1 N -0.3689(3) 0.81293(17) 0.39900(19)
N2 N -0.2807(3) 0.70685(16) 0.53122(18)
C1 C -0.1541(4) 0.6568(2) 0.6123(2)
C2 C 0.0405(5) 0.6650(2) 0.6503(2)
H1 H 0.12760 0.62810 0.70490
C3 C 0.1062(4) 0.7269(2) 0.6084(2)
H2 H 0.23710 0.73260 0.63480
C4 C -0.0243(3) 0.78097(18) 0.5265(2)
C5 C -0.2159(3) 0.76473(18) 0.4908(2)
C6 C 0.2158(3) 0.8725(2) 0.5234(2)
H3 H 0.28820 0.82030 0.52180
C7 C 0.3056(4) 0.90696(18) 0.6345(2)
C8 C 0.5170(3) 0.90653(18) 0.7025(2)
C9 C 0.6366(4) 0.8701(2) 0.6729(2)
H4 H 0.58360 0.84750 0.60570
C10 C 0.8329(4) 0.8664(2) 0.7406(2)
H5 H 0.91070 0.84230 0.71870
C11 C 0.9128(4) 0.8982(2) 0.8398(2)
C12 C 0.7957(4) 0.9377(2) 0.8702(2)
H6 H 0.84990 0.96160 0.93680
C13 C 0.6019(4) 0.9415(2) 0.8028(2)
H7 H 0.52510 0.96800 0.82420
C14 C -0.2326(6) 0.5935(3) 0.6580(3)
H8 H -0.143(5) 0.548(2) 0.705(3)
H9 H -0.343(5) 0.565(3) 0.604(3)
H10 H -0.262(6) 0.629(2) 0.700(3)
C15 C 0.2127(4) 0.9465(2) 0.4540(2)
H11 H 0.15540 0.92400 0.38410
H12 H 0.34170 0.96590 0.47870
H13 H 0.13910 0.99680 0.45470
C16 C 1.2239(5) 0.8459(3) 0.8884(3)
H14 H 1.235(6) 0.875(3) 0.833(3)
H15 H 1.346(4) 0.847(2) 0.953(2)
H16 H 1.187(6) 0.784(2) 0.873(3)
#END
