
#######################################################################
#
#                 Cambridge Crystallographic Data Centre
#                                CCDC
#
#######################################################################
#
# If this CIF has been generated from an entry in the Cambridge
# Structural Database, then it will include bibliographic, chemical,
# crystal, experimental, refinement or atomic coordinate data resulting
# from the CCDC's data processing and validation procedures.
#
#######################################################################

data_CSD_CIF_FEVBUD10
_audit_creation_date 1991-06-10
_audit_creation_method CSD-ConQuest-V1
_database_code_CSD FEVBUD10
_database_code_depnum_ccdc_fiz 'CSD 53570'
_chemical_formula_sum 'C22 H34 N2 O4'
_chemical_formula_moiety
;
C22 H34 N2 O4
;
_journal_coden_Cambridge 643
_journal_volume 191
_journal_year 1990
_journal_page_first 1
_journal_name_full 'Z.Krist.Cryst.Mater. '
loop_
_publ_author_name
"V.E.Shklover"
"I.A.Zamaev"
"Yu.E.Ovchinnikov"
"Yu.T.Struchkov"
"T.V.Medvedeva"
"Yu.V.Korshak"
"V.N.Spector"
"A.A.Ovchinnikov"
_chemical_name_systematic
;
1,4-bis(1-Oxy-2,2,6,6-tetramethyl-4-hydroxy-piperidin-4-yl)-buta-1,3-diyne
;
_cell_volume   4433.609
_exptl_crystal_colour 'pale yellow'
_exptl_crystal_density_diffrn 1.17
_exptl_special_details
;
orthorhombic Pccn polymorph

;
_diffrn_ambient_temperature ?
_diffrn_special_details
;
The study was carried out at room temperature,in the range 283-303K

;
#These two values have been output from a single CSD field.
_refine_ls_R_factor_gt 0.031
_refine_ls_wR_factor_gt 0.031
_symmetry_cell_setting orthorhombic
_symmetry_space_group_name_H-M 'P c c n'
_symmetry_Int_Tables_number 56
loop_
_symmetry_equiv_pos_site_id
_symmetry_equiv_pos_as_xyz
1 x,y,z
2 1/2-x,y,1/2+z
3 x,1/2-y,1/2+z
4 1/2-x,1/2-y,z
5 -x,-y,-z
6 -1/2+x,-y,-1/2-z
7 -x,-1/2+y,-1/2-z
8 -1/2+x,-1/2+y,-z
_cell_length_a 19.242(2)
_cell_length_b 16.240(2)
_cell_length_c 14.188(3)
_cell_angle_alpha 90
_cell_angle_beta 90
_cell_angle_gamma 90
_cell_formula_units_Z 8
loop_
_atom_type_symbol
_atom_type_radius_bond
C 0.68
H 0.23
N 0.68
O 0.68
loop_
_atom_site_label
_atom_site_type_symbol
_atom_site_fract_x
_atom_site_fract_y
_atom_site_fract_z
O1 O 0.5655(1) 0.2036(1) 0.0767(1)
O2 O 0.2075(1) 0.5325(1) 0.6640(1)
O3 O 0.5174(1) 0.1711(1) 0.4544(1)
O4 O 0.2030(1) 0.4594(2) 0.2916(1)
N1 N 0.5523(1) 0.1992(1) 0.1657(1)
N2 N 0.2124(1) 0.5106(1) 0.5778(1)
C1 C 0.4945(1) 0.1428(2) 0.1925(2)
C2 C 0.1791(2) 0.4320(2) 0.5503(2)
C3 C 0.4966(1) 0.1283(2) 0.2988(2)
C4 C 0.1717(2) 0.4270(2) 0.4445(2)
C5 C 0.5090(1) 0.2035(2) 0.3610(2)
C6 C 0.2320(1) 0.4556(2) 0.3845(2)
C7 C 0.5768(1) 0.2423(2) 0.3295(2)
C8 C 0.2522(1) 0.5417(2) 0.4168(2)
C9 C 0.5838(1) 0.2646(2) 0.2251(2)
C10 C 0.2662(1) 0.5542(2) 0.5216(2)
C11 C 0.5084(2) 0.0602(2) 0.1432(2)
C12 C 0.1087(2) 0.4285(2) 0.5972(2)
C13 C 0.4263(2) 0.1786(2) 0.1575(2)
C14 C 0.2239(2) 0.3587(2) 0.5884(2)
C15 C 0.5507(2) 0.3472(2) 0.2026(2)
C16 C 0.3380(2) 0.5259(2) 0.5514(2)
C17 C 0.6609(2) 0.2662(2) 0.2002(2)
C18 C 0.2584(2) 0.6465(2) 0.5427(2)
C19 C 0.4496(1) 0.2612(2) 0.3630(2)
C20 C 0.2930(2) 0.3997(2) 0.3827(2)
C21 C 0.4002(1) 0.3054(2) 0.3699(2)
C22 C 0.3425(1) 0.3562(2) 0.3755(2)
H1 H 0.532(1) 0.214(2) 0.491(2)
H2 H 0.233(1) 0.481(2) 0.256(2)
H3 H 0.536(1) 0.089(1) 0.311(1)
H4 H 0.160(1) 0.375(1) 0.429(2)
H5 H 0.456(1) 0.106(1) 0.315(1)
H6 H 0.121(2) 0.474(2) 0.438(2)
H7 H 0.611(1) 0.203(1) 0.339(2)
H8 H 0.293(1) 0.559(1) 0.385(1)
H9 H 0.586(1) 0.289(2) 0.365(2)
H10 H 0.217(1) 0.573(1) 0.400(2)
H11 H 0.554(1) 0.038(1) 0.169(2)
H12? H 0.085(2) 0.488(3) 0.543(2)
H13 H 0.505(1) 0.073(2) 0.075(2)
H14 H 0.111(1) 0.426(2) 0.662(2)
H15 H 0.475(2) 0.024(2) 0.164(2)
H16 H 0.087(2) 0.381(2) 0.574(2)
H17 H 0.417(1) 0.229(1) 0.190(2)
H18 H 0.194(1) 0.305(2) 0.569(2)
H19 H 0.391(1) 0.144(2) 0.170(2)
H20 H 0.273(2) 0.357(2) 0.549(2)
H21 H 0.429(2) 0.188(2) 0.087(2)
H22 H 0.235(2) 0.365(2) 0.661(3)
H23 H 0.557(1) 0.360(2) 0.139(2)
H24 H 0.374(1) 0.557(2) 0.521(2)
H25 H 0.497(1) 0.349(2) 0.218(2)
H26 H 0.347(1) 0.467(2) 0.534(2)
H27 H 0.578(2) 0.391(2) 0.234(2)
H28 H 0.346(1) 0.532(2) 0.612(2)
H29 H 0.683(1) 0.312(2) 0.230(2)
H30 H 0.270(1) 0.661(1) 0.608(2)
H31 H 0.662(1) 0.277(2) 0.136(2)
H32 H 0.206(1) 0.661(2) 0.533(2)
H33 H 0.674(2) 0.211(2) 0.215(2)
H34 H 0.295(1) 0.671(2) 0.502(2)
#END
