
#######################################################################
#
#                 Cambridge Crystallographic Data Centre
#                                CCDC
#
#######################################################################
#
# If this CIF has been generated from an entry in the Cambridge
# Structural Database, then it will include bibliographic, chemical,
# crystal, experimental, refinement or atomic coordinate data resulting
# from the CCDC's data processing and validation procedures.
#
#######################################################################

data_CSD_CIF_FEVGEV
_audit_creation_date 2018-03-29
_audit_creation_method CSD-ConQuest-V1
_database_code_CSD FEVGEV
_database_code_depnum_ccdc_archive 'CCDC 1817918'
_chemical_formula_sum 'C14 H15 N1 O2'
_chemical_formula_moiety
;
C14 H15 N1 O2
;
_journal_coden_Cambridge 1336
_journal_volume 20
_journal_year 2018
_journal_page_first 2265
_journal_name_full 'Org.Lett. '
loop_
_publ_author_name
"M.Cordier"
"A.Archambeau"
_chemical_name_systematic
;
(1R*,3R*,11bS*)-1,3-dimethyl-1,11b-dihydro[1,2]oxazino[3,2-a]isoquinolin-2(3H)
-one
;
_chemical_melting_point 397.15
_cell_volume   1177.334
_exptl_crystal_colour 'yellow'
_exptl_crystal_density_diffrn 1.293
_exptl_crystal_description 'plate'
_diffrn_ambient_temperature 150
#These two values have been output from a single CSD field.
_refine_ls_R_factor_gt 0.0435
_refine_ls_wR_factor_gt 0.0435
_symmetry_cell_setting monoclinic
_symmetry_space_group_name_H-M 'P 21/c'
_symmetry_Int_Tables_number 14
loop_
_symmetry_equiv_pos_site_id
_symmetry_equiv_pos_as_xyz
1 x,y,z
2 -x,1/2+y,1/2-z
3 -x,-y,-z
4 x,-1/2-y,-1/2+z
_cell_length_a 9.9308(7)
_cell_length_b 11.7237(9)
_cell_length_c 10.6426(7)
_cell_angle_alpha 90
_cell_angle_beta 108.163(3)
_cell_angle_gamma 90
_cell_formula_units_Z 4
loop_
_atom_type_symbol
_atom_type_radius_bond
C 0.68
H 0.23
N 0.68
O 0.68
loop_
_atom_site_label
_atom_site_type_symbol
_atom_site_fract_x
_atom_site_fract_y
_atom_site_fract_z
O1 O 0.41413(12) 0.25763(10) -0.07632(10)
O2 O 0.49007(14) 0.02917(10) -0.22590(11)
N1 N 0.54248(14) 0.28357(12) 0.02482(12)
C1 C 0.63264(17) 0.18277(14) 0.06146(14)
H1 H 0.58070 0.12340 0.09560
C2 C 0.66805(18) 0.13282(14) -0.06073(14)
H2 H 0.72680 0.19030 -0.08960
C3 C 0.52983(19) 0.11949(15) -0.17080(15)
C4 C 0.43851(18) 0.22588(15) -0.20096(15)
H3 H 0.48990 0.28860 -0.23050
C5 C 0.29442(19) 0.20910(17) -0.30049(16)
H4 H 0.24590 0.14600 -0.27220
H5 H 0.30480 0.19130 -0.38700
H6 H 0.23860 0.27910 -0.30710
C6 C 0.7520(2) 0.02242(15) -0.02969(17)
H7 H 0.70160 -0.03250 0.00880
H8 H 0.84580 0.03770 0.03340
H9 H 0.76270 -0.00920 -0.11130
C7 C 0.76413(17) 0.21665(14) 0.17223(15)
C8 C 0.82045(18) 0.32619(15) 0.16974(15)
C9 C 0.74064(19) 0.40647(15) 0.07053(15)
H10 H 0.78350 0.47540 0.05560
C10 C 0.60731(19) 0.38312(14) 0.00065(15)
H11 H 0.55590 0.43450 -0.06610
C11 C 0.94732(19) 0.35463(16) 0.26622(16)
H12 H 0.98800 0.42770 0.26460
C12 C 1.0148(2) 0.27736(17) 0.36454(17)
H13 H 1.10160 0.29750 0.42920
C13 C 0.95612(19) 0.17147(16) 0.36853(16)
H14 H 1.00130 0.11930 0.43700
C14 C 0.83081(19) 0.14102(15) 0.27221(15)
H15 H 0.79070 0.06790 0.27500
#END
