
#######################################################################
#
#                 Cambridge Crystallographic Data Centre
#                                CCDC
#
#######################################################################
#
# If this CIF has been generated from an entry in the Cambridge
# Structural Database, then it will include bibliographic, chemical,
# crystal, experimental, refinement or atomic coordinate data resulting
# from the CCDC's data processing and validation procedures.
#
#######################################################################

data_CSD_CIF_FEVXIN
_audit_creation_date 1987-11-26
_audit_creation_method CSD-ConQuest-V1
_database_code_CSD FEVXIN
_chemical_formula_sum 'C31 H39 N1 O8'
_chemical_formula_moiety
;
C31 H39 N1 O8
;
_journal_coden_Cambridge 35
_journal_volume 51
_journal_year 1986
_journal_page_first 4931
_journal_name_full 'J.Org.Chem. '
loop_
_publ_author_name
"G.E.Stokker"
"C.S.Rooney"
"J.M.Wiggins"
"J.Hirshfield"
_chemical_name_systematic
;
6(S)-(2-(8(S)-((2(S)-Methylbutanoyl)oxy)-2(S),6(R)-dimethyl-1,2,6,7,8,8a(R)-he
xahydro-1(S)-naphthyl)ethyl)-4(R)-((p-nitrobenzoyl)oxy)-3,4,5,6-tetrahydro-2H-
pyran-2-one
;
_chemical_name_common
;
6(S)-Epi-mevinolin-4-p-nitrobenzoate
;
_chemical_melting_point 402.15
_cell_volume   1495.530
_exptl_crystal_density_diffrn 1.229
_exptl_special_details
;
Melting point range 402.15-405.15K
Coords. of H28B and H29A appear to be in error and have been deleted
;
_diffrn_ambient_temperature ?
_diffrn_special_details
;
The study was carried out at room temperature,in the range 283-303K

;
#These two values have been output from a single CSD field.
_refine_ls_R_factor_gt 0.041
_refine_ls_wR_factor_gt 0.041
_symmetry_cell_setting monoclinic
_symmetry_space_group_name_H-M 'P 21'
_symmetry_Int_Tables_number 4
loop_
_symmetry_equiv_pos_site_id
_symmetry_equiv_pos_as_xyz
1 x,y,z
2 -x,1/2+y,-z
_cell_length_a 13.985(5)
_cell_length_b 5.545(2)
_cell_length_c 20.028(8)
_cell_angle_alpha 90
_cell_angle_beta 105.65(3)
_cell_angle_gamma 90
_cell_formula_units_Z 2
loop_
_atom_type_symbol
_atom_type_radius_bond
C 0.68
H 0.23
N 0.68
O 0.68
loop_
_atom_site_label
_atom_site_type_symbol
_atom_site_fract_x
_atom_site_fract_y
_atom_site_fract_z
O1 O 0.8266(2) 0.37330 0.7911(2)
O2 O 0.6431(3) 0.7733(8) 0.6951(2)
O3 O 0.7020(3) 0.328(1) 0.8378(2)
O4 O 0.6447(3) 1.1129(9) 0.6357(2)
O5 O 1.2555(2) 0.3603(7) 0.8512(2)
O6 O 0.2092(3) 0.433(1) 0.4641(2)
O7 O 0.1751(3) 0.8049(11) 0.4351(2)
N1 N 0.2293(3) 0.6498(11) 0.4679(2)
C1 C 0.3248(3) 0.7221(13) 0.5156(2)
C2 C 0.5050(3) 0.8512(11) 0.6016(2)
C3 C 0.3645(4) 0.9390(11) 0.5039(3)
C4 C 0.4563(4) 1.0016(12) 0.5475(3)
C5 C 0.3706(4) 0.5715(12) 0.5696(3)
C6 C 0.4613(4) 0.6380(12) 0.6133(3)
C7 C 1.2625(4) 0.1170(13) 0.6546(3)
C8 C 1.3032(4) 0.2718(13) 0.7143(3)
C9 C 0.8881(4) 0.5427(12) 0.7653(3)
C10 C 0.6039(4) 0.9306(12) 0.6447(3)
C11 C 1.1677(4) 0.1102(13) 0.6180(3)
C12 C 1.2320(4) 0.4563(11) 0.7306(3)
C13 C 0.7520(4) 0.4657(13) 0.8153(3)
C14 C 1.0915(4) 0.2650(12) 0.6376(3)
C15 C 1.1263(3) 0.3464(11) 0.7135(3)
C16 C 0.7423(4) 0.8263(12) 0.7402(3)
C17 C 1.3980(4) 0.2628(14) 0.7489(3)
C18 C 1.2695(4) 0.5490(12) 0.8045(3)
C19 C 0.9565(4) 0.3859(12) 0.7358(3)
C20 C 0.8204(4) 0.7047(14) 0.7107(3)
C21 C 1.0515(4) 0.5174(12) 0.7339(3)
C22 C 1.3797(5) 0.6192(14) 0.8228(4)
C23 C 1.0609(5) 0.4708(14) 0.5843(3)
C24 C 0.7423(4) 0.7348(14) 0.8090(3)
C25 C 1.4459(4) 0.4166(14) 0.8105(4)
C26 C 1.4849(5) 0.2553(17) 0.8764(4)
C27 C 1.2254(5) 0.4168(13) 0.9072(3)
C28 C 1.2258(5) 0.2120(14) 0.9546(3)
O8 O 1.1980(5) 0.6173(11) 0.9153(3)
C29 C 1.1374(6) 0.2041(20) 0.9819(4)
C30 C 1.3199(6) 0.2324(25) 1.0140(4)
C31 C 1.0438(7) 0.1586(31) 0.9286(5)
H1 H 0.302(3) 1.052(10) 0.461(2)
H2 H 0.485(3) 1.141(10) 0.539(2)
H3 H 0.334(3) 0.445(10) 0.600(2)
H4 H 0.492(3) 0.569(9) 0.650(2)
H5 H 1.315(3) 0.038(10) 0.644(2)
H6 H 0.929(3) 0.646(9) 0.807(2)
H7 H 1.148(3) 0.042(1) 0.570(2)
H8 H 1.227(3) 0.576(10) 0.699(2)
H9 H 1.027(3) 0.155(10) 0.630(2)
H10 H 1.134(3) 0.199(9) 0.760(2)
H11 H 0.761(3) 1.006(11) 0.739(2)
H12 H 1.449(3) 0.151(11) 0.738(2)
H13 H 1.225(3) 0.704(10) 0.807(2)
H14 H 0.982(3) 0.254(11) 0.769(2)
H15 H 0.917(3) 0.304(10) 0.690(2)
H16 H 0.790(3) 0.588(11) 0.676(2)
H17 H 1.032(3) 0.642(10) 0.702(2)
H18 H 1.395(3) 0.673(11) 0.875(2)
H19 H 1.382(3) 0.752(12) 0.796(2)
H20 H 0.997(3) 0.573(11) 0.588(2)
H21 H 1.111(3) 0.561(11) 0.580(2)
H22 H 1.044(3) 0.405(11) 0.534(2)
H23 H 0.794(3) 0.780(11) 0.853(2)
H24 H 0.682(3) 0.754(11) 0.819(2)
H25 H 1.508(4) 0.472(12) 0.805(2)
H26 H 1.439(4) 0.187(12) 0.896(3)
H27 H 1.514(4) 0.161(12) 0.863(3)
H28 H 1.529(4) 0.382(13) 0.924(3)
H29 H 1.241(3) 0.090(12) 0.934(2)
H30 H 1.147(4) 0.07(1) 1.023(3)
H31 H 1.131(4) 0.364(13) 1.008(3)
H32 H 1.305(5) 0.049(17) 1.040(3)
H33 H 1.379(5) 0.230(17) 0.997(3)
H34 H 1.333(5) 0.358(17) 1.052(3)
H35 H 0.988(7) 0.161(23) 0.955(4)
H36 H 1.021(6) 0.335(25) 0.892(4)
H37 H 1.037(6) 0.071(24) 0.909(4)
#END
