
#######################################################################
#
#                 Cambridge Crystallographic Data Centre
#                                CCDC
#
#######################################################################
#
# If this CIF has been generated from an entry in the Cambridge
# Structural Database, then it will include bibliographic, chemical,
# crystal, experimental, refinement or atomic coordinate data resulting
# from the CCDC's data processing and validation procedures.
#
#######################################################################

data_CSD_CIF_FEWMAV
_audit_creation_date 1987-11-26
_audit_creation_method CSD-ConQuest-V1
_database_code_CSD FEWMAV
_database_code_depnum_ccdc_archive 'CCDC 1155294'
_chemical_formula_sum 'C23 H26 N2 O3'
_chemical_formula_moiety
;
C23 H26 N2 O3
;
_journal_coden_Cambridge 55
_journal_volume 105
_journal_year 1986
_journal_page_first 103
_journal_name_full 'Rec.Trav.Chim.Pays-Bas(Fr.)(Rec.J.R.Neth.Chem.Soc.) '
loop_
_publ_author_name
"P.J.S.S.van Eijk"
"D.N.Reinhoudt"
"S.Harkema"
"R.Visser"
_chemical_name_systematic
;
(Z,E)-N,N-Diethyl-2-methyl-4-oxo-3-phenyl-2-pentenamide O-benzoyloxime
;
_chemical_melting_point 395.15
_cell_volume   2149.806
_exptl_crystal_density_diffrn 1.17
_exptl_special_details
;
Melting point range 395.15-397.65K

;
_diffrn_ambient_temperature ?
_diffrn_special_details
;
The study was carried out at room temperature,in the range 283-303K

;
#These two values have been output from a single CSD field.
_refine_ls_R_factor_gt 0.061
_refine_ls_wR_factor_gt 0.061
_symmetry_cell_setting monoclinic
_symmetry_space_group_name_H-M 'P 21/n'
_symmetry_Int_Tables_number 14
loop_
_symmetry_equiv_pos_site_id
_symmetry_equiv_pos_as_xyz
1 x,y,z
2 1/2-x,1/2+y,1/2-z
3 -x,-y,-z
4 -1/2+x,-1/2-y,-1/2+z
_cell_length_a 11.899(1)
_cell_length_b 18.008(2)
_cell_length_c 10.050(1)
_cell_angle_alpha 90
_cell_angle_beta 93.35(1)
_cell_angle_gamma 90
_cell_formula_units_Z 4
loop_
_atom_type_symbol
_atom_type_radius_bond
C 0.68
H 0.23
N 0.68
O 0.68
loop_
_atom_site_label
_atom_site_type_symbol
_atom_site_fract_x
_atom_site_fract_y
_atom_site_fract_z
C1 C 0.4384(2) 0.1405(2) 0.6117(2)
C2 C 0.3933(2) 0.2099(2) 0.6194(3)
C3 C 0.2871(2) 0.2240(2) 0.5626(2)
C4 C 0.2255(2) 0.1676(1) 0.4997(2)
C5 C 0.2720(2) 0.0973(1) 0.4935(2)
C6 C 0.3786(2) 0.0837(2) 0.5496(2)
C7 C 0.1114(2) 0.1852(1) 0.4426(2)
O1 O 0.0695(1) 0.2449(1) 0.4360(2)
O2 O 0.0583(1) 0.1223(1) 0.3975(1)
N1 N -0.0564(1) 0.1352(1) 0.3461(2)
C8 C -0.0993(2) 0.0738(1) 0.3064(2)
C9 C -0.0430(3) 0.0004(2) 0.3044(4)
C10 C -0.2196(1) 0.0801(1) 0.2569(2)
C11 C -0.2478(1) 0.0482(1) 0.1224(2)
C12 C -0.1917(2) 0.0699(1) 0.0128(2)
C13 C -0.2229(3) 0.0407(2) -0.1126(3)
C14 C -0.3056(3) -0.0105(2) -0.1271(3)
C15 C -0.3589(3) -0.0347(2) -0.0204(3)
C16 C -0.3313(2) -0.0057(1) 0.1040(2)
C17 C -0.2954(2) 0.1126(1) 0.3307(2)
C18 C -0.4161(2) 0.1259(2) 0.2843(3)
C19 C -0.2685(2) 0.1311(1) 0.4761(2)
O3 O -0.2570(1) 0.0801(1) 0.5559(1)
N2 N -0.2667(1) 0.2028(1) 0.5130(2)
C20 C -0.2473(2) 0.2197(2) 0.6559(3)
C21 C -0.1252(2) 0.2225(5) 0.6976(5)
C22 C -0.2593(3) 0.2639(2) 0.4198(3)
C23 C -0.3539(4) 0.3196(2) 0.4263(6)
H1 H 0.5118(17) 0.1314(11) 0.6501(18)
H2 H 0.432(2) 0.2476(14) 0.6668(24)
H3 H 0.2462(18) 0.2725(13) 0.5603(21)
H4 H 0.2280(15) 0.0608(10) 0.4474(17)
H5 H 0.4061(17) 0.0310(13) 0.5486(21)
H6 H -0.1275(15) 0.1042(11) 0.0302(18)
H7 H -0.1769(18) 0.0616(12) -0.1716(22)
H8 H -0.3294(20) -0.0314(14) -0.2174(26)
H9 H -0.417(2) -0.0715(13) -0.0307(24)
H10 H -0.3726(16) -0.0222(11) 0.1822(19)
H11 H 0.0250(21) -0.0033(13) 0.3441(22)
H12 H -0.0900(25) -0.0393(19) 0.3244(31)
H13 H -0.0522(25) -0.0244(18) 0.2197(33)
H14 H -0.4662(22) 0.0938(15) 0.3198(27)
H15 H -0.4457(18) 0.1741(13) 0.3220(22)
H16 H -0.4270(17) 0.1225(12) 0.1908(23)
H17 H -0.2843(17) 0.2681(13) 0.6732(20)
H18 H -0.2838(18) 0.1811(12) 0.7052(22)
H19 H -0.0787(24) 0.2534(14) 0.6403(25)
H20 H -0.1193(23) 0.2345(15) 0.7805(28)
H21 H -0.0916(27) 0.1865(29) 0.6820(47)
H22 H -0.2590(14) 0.2415(10) 0.3289(18)
H23 H -0.1857(19) 0.2860(12) 0.4312(21)
H24 H -0.4371(30) 0.2895(17) 0.4193(31)
H25 H -0.3398(28) 0.3539(20) 0.3560(33)
H26 H -0.3460(31) 0.3468(21) 0.4958(34)
#END
