
#######################################################################
#
#                 Cambridge Crystallographic Data Centre
#                                CCDC
#
#######################################################################
#
# If this CIF has been generated from an entry in the Cambridge
# Structural Database, then it will include bibliographic, chemical,
# crystal, experimental, refinement or atomic coordinate data resulting
# from the CCDC's data processing and validation procedures.
#
#######################################################################

data_CSD_CIF_FEXBUF01
_audit_creation_date 2014-03-11
_audit_creation_method CSD-ConQuest-V1
_database_code_CSD FEXBUF01
_database_code_depnum_ccdc_archive 'CCDC 988898'
_chemical_formula_sum 'C6 H6 N2 O3'
_chemical_formula_moiety
;
C6 H6 N2 O3
;
_journal_coeditor_code "IUCr zp2011"
_journal_coden_Cambridge 1370
_journal_volume 70
_journal_year 2014
_journal_page_first o426
_journal_name_full 'Acta Crystallogr.,Sect.E:Struct.Rep.Online '
loop_
_publ_author_name
"M.Peukert"
"W.Seichter"
"E.Weber"
_chemical_name_systematic
;
2-methyl-4-nitropyridine 1-oxide
;
_cell_volume    667.444
_exptl_crystal_colour 'yellow'
_exptl_crystal_density_diffrn 1.534
_exptl_crystal_description 'column'
_exptl_crystal_preparation 'toluene/chloroform'
_diffrn_ambient_temperature 153
#These two values have been output from a single CSD field.
_refine_ls_R_factor_gt 0.0485
_refine_ls_wR_factor_gt 0.0485
_symmetry_cell_setting orthorhombic
_symmetry_space_group_name_H-M 'P b c m'
_symmetry_Int_Tables_number 57
loop_
_symmetry_equiv_pos_site_id
_symmetry_equiv_pos_as_xyz
1 x,y,z
2 -x,-y,1/2+z
3 -x,1/2+y,1/2-z
4 x,1/2-y,-z
5 -x,-y,-z
6 x,y,-1/2-z
7 x,-1/2-y,-1/2+z
8 -x,-1/2+y,z
_cell_length_a 8.6775(7)
_cell_length_b 12.4069(10)
_cell_length_c 6.1995(5)
_cell_angle_alpha 90
_cell_angle_beta 90
_cell_angle_gamma 90
_cell_formula_units_Z 4
loop_
_atom_type_symbol
_atom_type_radius_bond
C 0.68
H 0.23
N 0.68
O 0.68
loop_
_atom_site_label
_atom_site_type_symbol
_atom_site_fract_x
_atom_site_fract_y
_atom_site_fract_z
O1 O 0.52895(16) 0.3051(1) 0.25000
O2 O 1.05609(15) -0.02519(12) 0.25000
O3 O 0.85937(17) -0.13544(11) 0.25000
N1 N 0.61843(17) 0.22205(10) 0.25000
N2 N 0.91523(17) -0.04406(12) 0.25000
C1 C 0.55535(18) 0.12002(13) 0.25000
C2 C 0.65356(17) 0.03153(12) 0.25000
H1 H 0.61280 -0.03950 0.25000
C3 C 0.81182(18) 0.04811(12) 0.25000
C4 C 0.87504(19) 0.15129(13) 0.25000
H2 H 0.98340 0.16210 0.25000
C5 C 0.77482(19) 0.23649(13) 0.25000
H3 H 0.81500 0.30770 0.25000
C6 C 0.38480(19) 0.11425(16) 0.25000
H4 H 0.3468(19) 0.1469(13) 0.133(2)
H5 H 0.358(3) 0.0444(9) 0.25000
H4E H 0.3468(19) 0.1469(13) 0.367(2)
#END
