
#######################################################################
#
#                 Cambridge Crystallographic Data Centre
#                                CCDC
#
#######################################################################
#
# If this CIF has been generated from an entry in the Cambridge
# Structural Database, then it will include bibliographic, chemical,
# crystal, experimental, refinement or atomic coordinate data resulting
# from the CCDC's data processing and validation procedures.
#
#######################################################################

data_CSD_CIF_FEXJID
_audit_creation_date 2013-05-20
_audit_creation_method CSD-ConQuest-V1
_database_code_CSD FEXJID
_database_code_depnum_ccdc_archive 'CCDC 902294'
_chemical_formula_sum 'C10 H17 N1 O4'
_chemical_formula_moiety
;
C10 H17 N1 O4
;
_journal_coden_Cambridge 1291
_journal_year 2013
_journal_page_first 662
_journal_name_full 'Eur.J.Org.Chem. '
loop_
_publ_author_name
"J.Rossbach"
"J.Baumeister"
"K.Harms"
"U.Koert"
_chemical_name_systematic
;
3-Hydroxy-N-methoxy-N,3,4-trimethyl-2-oxohex-5-enamide
;
_cell_volume   1139.769
_exptl_crystal_colour 'colorless'
_exptl_crystal_density_diffrn 1.254
_exptl_crystal_description 'plate'
_diffrn_ambient_temperature 100
#These two values have been output from a single CSD field.
_refine_ls_R_factor_gt 0.0308
_refine_ls_wR_factor_gt 0.0308
_symmetry_cell_setting monoclinic
_symmetry_space_group_name_H-M 'P 21/n'
_symmetry_Int_Tables_number 14
loop_
_symmetry_equiv_pos_site_id
_symmetry_equiv_pos_as_xyz
1 x,y,z
2 1/2-x,1/2+y,1/2-z
3 -x,-y,-z
4 -1/2+x,-1/2-y,-1/2+z
_cell_length_a 8.7990(8)
_cell_length_b 7.1977(4)
_cell_length_c 18.0654(16)
_cell_angle_alpha 90
_cell_angle_beta 95.003(7)
_cell_angle_gamma 90
_cell_formula_units_Z 4
loop_
_atom_type_symbol
_atom_type_radius_bond
C 0.68
H 0.23
N 0.68
O 0.68
loop_
_atom_site_label
_atom_site_type_symbol
_atom_site_fract_x
_atom_site_fract_y
_atom_site_fract_z
C1 C 0.87195(13) 0.3764(2) 0.37651(7)
C2 C 1.00200(13) 0.45997(18) 0.33484(7)
C3 C 0.96645(12) 0.51861(19) 0.25439(7)
C4 C 1.06686(13) 0.40108(19) 0.20537(7)
H1 H 1.17610 0.42640 0.22230
C5 C 1.04158(15) 0.4566(2) 0.12550(7)
H2 H 0.94130 0.44360 0.10200
C6 C 1.14698(16) 0.5221(2) 0.08500(8)
H3 H 1.24880 0.53720 0.10630
H4 H 1.12120 0.55420 0.03450
C7 C 1.00106(14) 0.72555(19) 0.24832(7)
H5 H 0.93670 0.79590 0.27990
H6 H 0.98000 0.76560 0.19660
H7 H 1.10870 0.74800 0.26450
C8 C 1.03907(14) 0.1931(2) 0.21421(7)
H8 H 1.06180 0.15790 0.26640
H9 H 1.10540 0.12350 0.18330
H10 H 0.93220 0.16470 0.19860
C9 C 0.67314(13) 0.4581(2) 0.46030(7)
H11 H 0.58060 0.51040 0.43420
H12 H 0.68980 0.51380 0.50980
H13 H 0.66140 0.32330 0.46510
C10 C 0.92560(14) 0.7734(2) 0.45924(7)
H14 H 0.92870 0.90750 0.45010
H15 H 1.02860 0.72170 0.45880
H16 H 0.88730 0.75050 0.50770
N1 N 0.80296(11) 0.49766(15) 0.41848(6)
O1 O 0.84731(9) 0.20838(14) 0.37534(5)
O2 O 1.12838(9) 0.46702(13) 0.36723(5)
O3 O 0.80875(8) 0.47888(13) 0.23734(5)
H17 H 0.77140 0.55480 0.20540
O4 O 0.82573(9) 0.68574(13) 0.40181(5)
#END
