
#######################################################################
#
#                 Cambridge Crystallographic Data Centre
#                                CCDC
#
#######################################################################
#
# If this CIF has been generated from an entry in the Cambridge
# Structural Database, then it will include bibliographic, chemical,
# crystal, experimental, refinement or atomic coordinate data resulting
# from the CCDC's data processing and validation procedures.
#
#######################################################################

data_CSD_CIF_FEYLUQ
_audit_creation_date 1987-11-26
_audit_creation_method CSD-ConQuest-V1
_database_code_CSD FEYLUQ
_chemical_formula_sum 'C4 H4 N6 O5'
_chemical_formula_moiety
;
C4 H4 N6 O5
;
_journal_coden_Cambridge 37
_journal_volume 90
_journal_year 1986
_journal_page_first 4686
_journal_name_full 'J.Phys.Chem. '
loop_
_publ_author_name
"Y.Oyumi"
"A.L.Rheingold"
"T.B.Brill"
_chemical_name_systematic
;
1,4-Dinitrofurazano(3,4-b)piperazine
;
_cell_volume    784.852
_exptl_crystal_colour 'colorless'
_exptl_crystal_density_diffrn 1.828
_exptl_special_details
;
polymorph I

;
_diffrn_ambient_temperature ?
_diffrn_special_details
;
The study was carried out at room temperature,in the range 283-303K

;
#These two values have been output from a single CSD field.
_refine_ls_R_factor_gt 0.044
_refine_ls_wR_factor_gt 0.044
_symmetry_cell_setting monoclinic
_symmetry_space_group_name_H-M 'P 21/c'
_symmetry_Int_Tables_number 14
loop_
_symmetry_equiv_pos_site_id
_symmetry_equiv_pos_as_xyz
1 x,y,z
2 -x,1/2+y,1/2-z
3 -x,-y,-z
4 x,-1/2-y,-1/2+z
_cell_length_a 9.744(2)
_cell_length_b 6.640(2)
_cell_length_c 12.165(5)
_cell_angle_alpha 90
_cell_angle_beta 94.31(2)
_cell_angle_gamma 90
_cell_formula_units_Z 4
loop_
_atom_type_symbol
_atom_type_radius_bond
C 0.68
H 0.23
N 0.68
O 0.68
loop_
_atom_site_label
_atom_site_type_symbol
_atom_site_fract_x
_atom_site_fract_y
_atom_site_fract_z
O1 O 0.7771(2) 0.1873(3) 0.4586(2)
O2 O 0.4965(2) 0.2779(4) 0.0669(2)
O3 O 0.5775(2) 0.4650(3) 0.2030(2)
O4 O 0.9243(2) -0.4605(4) 0.2276(2)
O5 O 0.9189(3) -0.3590(4) 0.3972(2)
N1 N 0.7137(3) 0.2815(4) 0.3673(2)
N2 N 0.8204(3) -0.0067(4) 0.4353(2)
N3 N 0.6659(2) 0.1604(3) 0.1803(2)
N4 N 0.8017(2) -0.1921(3) 0.2633(2)
N5 N 0.5734(3) 0.3109(4) 0.1484(2)
N6 N 0.8891(3) -0.3469(4) 0.2989(2)
C1 C 0.6570(3) -0.0301(4) 0.1175(2)
C2 C 0.7844(3) -0.1525(5) 0.1438(2)
C3 C 0.7178(3) 0.1490(4) 0.2896(2)
C4 C 0.7854(3) -0.0270(4) 0.3316(2)
H1 H 0.6539(25) 0.0093(38) 0.0392(19)
H2 H 0.5683(26) -0.097(4) 0.1323(20)
H3 H 0.7683(27) -0.2785(42) 0.1071(22)
H4 H 0.8611(29) -0.0765(42) 0.1211(21)
#END
