
#######################################################################
#
#                 Cambridge Crystallographic Data Centre
#                                CCDC
#
#######################################################################
#
# If this CIF has been generated from an entry in the Cambridge
# Structural Database, then it will include bibliographic, chemical,
# crystal, experimental, refinement or atomic coordinate data resulting
# from the CCDC's data processing and validation procedures.
#
#######################################################################

data_CSD_CIF_FEYYEO
_audit_creation_date 2005-05-31
_audit_creation_method CSD-ConQuest-V1
_database_code_CSD FEYYEO
_database_code_depnum_ccdc_archive 'CCDC 245745'
_chemical_formula_sum 'C33 H45 N1 O6'
_chemical_formula_moiety
;
C33 H45 N1 O6
;
_journal_coden_Cambridge 16
_journal_volume 61
_journal_year 2005
_journal_page_first 1773
_journal_name_full 'Tetrahedron '
loop_
_publ_author_name
"N.R.Irlapati"
"J.E.Baldwin"
"R.M.Adlington"
"G.J.Pritchard"
"A.R.Cowley"
_chemical_name_systematic
;
3-Acetyl-1-(3,5-di-t-butyl-4-hydroxyphenyl)-2-hydroxy-6a,8,9,10,11,12,13,14,15
,16a-decahydro-4H-cyclododeca(4,5)isoxazolo(2,3-a)pyridine-4,16(7H)-dione
;
_cell_volume   5986.158
_exptl_crystal_colour 'colorless'
_exptl_crystal_density_diffrn 1.224
_exptl_crystal_description 'block'
_diffrn_ambient_temperature 150
#These two values have been output from a single CSD field.
_refine_ls_R_factor_gt 0.0432
_refine_ls_wR_factor_gt 0.0432
_symmetry_cell_setting orthorhombic
_symmetry_space_group_name_H-M 'P b c n'
_symmetry_Int_Tables_number 60
loop_
_symmetry_equiv_pos_site_id
_symmetry_equiv_pos_as_xyz
1 x,y,z
2 1/2+x,1/2-y,-z
3 -x,y,1/2-z
4 1/2-x,1/2-y,1/2+z
5 -x,-y,-z
6 -1/2-x,-1/2+y,z
7 x,-y,-1/2+z
8 -1/2+x,-1/2+y,-1/2-z
_cell_length_a 26.5094(3)
_cell_length_b 9.7639(2)
_cell_length_c 23.1273(3)
_cell_angle_alpha 90
_cell_angle_beta 90
_cell_angle_gamma 90
_cell_formula_units_Z 8
loop_
_atom_type_symbol
_atom_type_radius_bond
C 0.68
H 0.23
N 0.68
O 0.68
loop_
_atom_site_label
_atom_site_type_symbol
_atom_site_fract_x
_atom_site_fract_y
_atom_site_fract_z
N1 N 0.36027(7) 0.40908(18) 0.51168(7)
C1 C 0.33070(8) 0.3116(2) 0.53894(9)
C2 C 0.30752(8) 0.2192(2) 0.49774(9)
C3 C 0.31359(8) 0.2393(2) 0.43747(9)
C4 C 0.34284(8) 0.3489(2) 0.41466(9)
C5 C 0.34648(8) 0.3833(2) 0.35193(8)
C6 C 0.36913(8) 0.2961(2) 0.31201(9)
C7 C 0.37306(8) 0.3304(2) 0.25364(9)
C8 C 0.35205(8) 0.4568(2) 0.23579(9)
C9 C 0.33186(8) 0.5515(2) 0.27541(9)
C10 C 0.32879(8) 0.5094(2) 0.33292(9)
C11 C 0.36670(8) 0.4282(2) 0.45441(9)
C12 C 0.40309(8) 0.5444(2) 0.44656(9)
C13 C 0.45723(9) 0.4938(2) 0.4340(1)
O1 O 0.47026(7) 0.3789(2) 0.44501(9)
C14 C 0.4941(1) 0.6014(3) 0.41366(12)
C15 C 0.47913(12) 0.6745(3) 0.35739(11)
C16 C 0.51235(12) 0.7998(3) 0.34683(12)
C17 C 0.50519(11) 0.9143(3) 0.39131(12)
C18 C 0.45528(11) 0.9886(3) 0.38941(12)
C19 C 0.43586(11) 1.0419(3) 0.44715(13)
C20 C 0.4185(1) 0.9305(3) 0.4892(1)
C21 C 0.37311(9) 0.8498(2) 0.46899(11)
C22 C 0.35964(9) 0.7274(3) 0.5070(1)
C23 C 0.39948(8) 0.6152(2) 0.50600(9)
O2 O 0.38630(6) 0.50476(16) 0.54583(6)
O3 O 0.32710(6) 0.31134(16) 0.59195(6)
C24 C 0.27606(8) 0.1066(2) 0.51750(9)
O4 O 0.25487(6) 0.02982(15) 0.48191(6)
C25 C 0.26749(11) 0.0779(3) 0.5804(1)
O5 O 0.29212(6) 0.15547(16) 0.39972(6)
C26 C 0.39997(9) 0.2352(2) 0.21069(9)
C27 C 0.42490(9) 0.1146(2) 0.2418(1)
C28 C 0.3619(1) 0.1749(3) 0.1674(1)
C29 C 0.4420(1) 0.3112(3) 0.17815(11)
O6 O 0.35278(7) 0.47801(19) 0.17727(7)
C30 C 0.31395(8) 0.6957(2) 0.25748(9)
C31 C 0.30096(11) 0.7848(2) 0.31004(11)
C32 C 0.35627(9) 0.7722(2) 0.2257(1)
C33 C 0.26596(9) 0.6846(3) 0.2208(1)
H1 H 0.2736(13) 0.091(4) 0.4244(15)
H2 H 0.3413(12) 0.551(4) 0.1674(13)
H3 H 0.38300 0.20640 0.32560
H4 H 0.31320 0.57290 0.36170
H5 H 0.39510 0.60500 0.41290
H6 H 0.49730 0.67210 0.44480
H7 H 0.52750 0.55620 0.40740
H8 H 0.48300 0.60940 0.32430
H9 H 0.44310 0.70430 0.36020
H10 H 0.54840 0.77010 0.34790
H11 H 0.50430 0.83730 0.30770
H12 H 0.53250 0.98350 0.38500
H13 H 0.50890 0.87310 0.43070
H14 H 0.45900 1.06870 0.36280
H15 H 0.42950 0.92410 0.37350
H16 H 0.46360 1.09500 0.46610
H17 H 0.40660 1.10400 0.43940
H18 H 0.40980 0.97520 0.52680
H19 H 0.44710 0.86520 0.49510
H20 H 0.34340 0.91300 0.46800
H21 H 0.38010 0.81540 0.42910
H22 H 0.35560 0.76000 0.54770
H23 H 0.32700 0.68790 0.49310
H24 H 0.43170 0.66220 0.51640
H25 H 0.24490 -0.00340 0.58460
H26 H 0.30050 0.05870 0.59960
H27 H 0.25140 0.15930 0.59900
H28 H 0.44210 0.05450 0.21280
H29 H 0.45030 0.14980 0.27000
H30 H 0.39860 0.06050 0.26280
H31 H 0.38000 0.11320 0.13980
H32 H 0.34540 0.25090 0.14560
H33 H 0.33580 0.12140 0.18880
H34 H 0.45880 0.24690 0.15060
H35 H 0.46740 0.34640 0.20650
H36 H 0.42720 0.38970 0.15620
H37 H 0.28960 0.87720 0.29660
H38 H 0.33150 0.79510 0.33500
H39 H 0.27330 0.74030 0.33270
H40 H 0.34410 0.86540 0.21440
H41 H 0.38620 0.78110 0.25180
H42 H 0.36610 0.71980 0.19030
H43 H 0.25450 0.77830 0.20930
H44 H 0.23890 0.63880 0.24390
H45 H 0.27320 0.62940 0.18540
#END
