
#######################################################################
#
#                 Cambridge Crystallographic Data Centre
#                                CCDC
#
#######################################################################
#
# If this CIF has been generated from an entry in the Cambridge
# Structural Database, then it will include bibliographic, chemical,
# crystal, experimental, refinement or atomic coordinate data resulting
# from the CCDC's data processing and validation procedures.
#
#######################################################################

data_CSD_CIF_FEZQUX
_audit_creation_date 2005-05-31
_audit_creation_method CSD-ConQuest-V1
_database_code_CSD FEZQUX
_database_code_depnum_ccdc_archive 'CCDC 183022'
_chemical_formula_sum 'C15 H21 N2 O3'
_chemical_formula_moiety
;
C15 H21 N2 O3
;
_journal_coden_Cambridge 1489
_journal_volume 379
_journal_year 2002
_journal_page_first 153
_journal_name_full 'Mol.Cryst.Liq.Cryst. '
loop_
_publ_author_name
"M.Ueda"
"T.Mochida"
"S.Furukawa"
"H.Suzuki"
"H.Moriyama"
"H.Mori"
_chemical_name_systematic
;
2-(3,5-Dimethyl-4-hydroxyphenyl)-4,4,5,5-tetramethylimidazolidine-3-oxide-1-ox
yl
;
_chemical_name_common
;
3,5-Dimethyl-4-hydroxyphenyl nitronyl nitroxide
;
_cell_volume   2985.869
_exptl_crystal_colour 'deep blue'
_exptl_crystal_density_diffrn 1.234
_exptl_crystal_description 'prismatic'
_diffrn_ambient_temperature 296.2
#These two values have been output from a single CSD field.
_refine_ls_R_factor_gt 0.063
_refine_ls_wR_factor_gt 0.063
_symmetry_cell_setting monoclinic
_symmetry_space_group_name_H-M 'C 2/c'
_symmetry_Int_Tables_number 15
loop_
_symmetry_equiv_pos_site_id
_symmetry_equiv_pos_as_xyz
1 x,y,z
2 1/2+x,1/2+y,z
3 -x,y,1/2-z
4 1/2-x,1/2+y,1/2-z
5 -x,-y,-z
6 -1/2-x,-1/2-y,-z
7 x,-y,-1/2+z
8 -1/2+x,-1/2-y,-1/2+z
_cell_length_a 16.787(4)
_cell_length_b 13.299(6)
_cell_length_c 14.290(3)
_cell_angle_alpha 90
_cell_angle_beta 110.62(2)
_cell_angle_gamma 90
_cell_formula_units_Z 8
loop_
_atom_type_symbol
_atom_type_radius_bond
C 0.68
H 0.23
N 0.68
O 0.68
loop_
_atom_site_label
_atom_site_type_symbol
_atom_site_fract_x
_atom_site_fract_y
_atom_site_fract_z
O1 O 0.3568(1) -0.0686(1) 0.3138(1)
O2 O 0.1250(1) 0.2897(1) 0.0432(1)
O3 O -0.0381(1) 0.0343(1) 0.1028(2)
N1 N 0.0616(1) 0.2356(1) 0.0437(1)
N2 N -0.0153(1) 0.1179(1) 0.0766(1)
C1 C 0.2852(1) -0.0146(2) 0.2647(2)
C2 C 0.2902(1) 0.0510(2) 0.1898(2)
C3 C 0.2190(1) 0.1061(2) 0.1360(2)
C4 C 0.1424(1) 0.0964(2) 0.1541(2)
C5 C 0.1403(1) 0.0328(2) 0.2315(2)
C6 C 0.2111(1) -0.0219(2) 0.2880(2)
C7 C 0.3715(2) 0.0593(2) 0.1680(2)
C8 C 0.2063(2) -0.0905(2) 0.3696(2)
C9 C 0.0656(1) 0.1488(2) 0.0933(2)
C10 C -0.0274(1) 0.2597(2) -0.0233(2)
C11 C -0.0788(1) 0.1996(2) 0.0294(2)
C12 C -0.0364(2) 0.2190(2) -0.1268(2)
C13 C -0.0421(2) 0.3724(2) -0.0279(2)
C14 C -0.0925(2) 0.2563(2) 0.1153(2)
C15 C -0.1611(2) 0.1541(2) -0.0395(2)
H1 H 0.36100 0.04070 0.10050
H2 H 0.39160 0.12660 0.17850
H3 H 0.41310 0.01570 0.21130
H4 H 0.25950 -0.12320 0.39990
H5 H 0.19320 -0.05220 0.41840
H6 H 0.16310 -0.13940 0.34180
H7 H 0.22200 0.15130 0.08580
H8 H 0.08920 0.02710 0.24550
H9 H -0.09200 0.23260 -0.17240
H10 H -0.02690 0.14840 -0.12270
H11 H 0.00430 0.25060 -0.14940
H12 H -0.09880 0.38640 -0.07040
H13 H -0.03330 0.39710 0.03730
H14 H -0.00330 0.40410 -0.05350
H15 H -0.13210 0.30930 0.08910
H16 H -0.11400 0.21150 0.15250
H17 H -0.03990 0.28360 0.15780
H18 H -0.20060 0.20620 -0.06940
H19 H -0.18410 0.11110 -0.00230
H20 H -0.15030 0.11630 -0.09030
H21 H 0.34550 -0.12170 0.35480
#END
