
#######################################################################
#
#                 Cambridge Crystallographic Data Centre
#                                CCDC
#
#######################################################################
#
# If this CIF has been generated from an entry in the Cambridge
# Structural Database, then it will include bibliographic, chemical,
# crystal, experimental, refinement or atomic coordinate data resulting
# from the CCDC's data processing and validation procedures.
#
#######################################################################

data_CSD_CIF_FEZZUG
_audit_creation_date 2005-05-31
_audit_creation_method CSD-ConQuest-V1
_database_code_CSD FEZZUG
_database_code_depnum_ccdc_archive 'CCDC 263898'
_chemical_formula_sum 'C30 H28 N2 O7'
_chemical_formula_moiety
;
C30 H28 N2 O7
;
_journal_coden_Cambridge 1336
_journal_volume 7
_journal_year 2005
_journal_page_first 83
_journal_name_full 'Org.Lett. '
loop_
_publ_author_name
"Chong-Dao Lu"
"Hui Liu"
"Zhi-Yong Chen"
"Wen-Hao Hu"
"Ai-Qiao Mi"
_chemical_name_systematic
;
(2S*,3S*)-2-(4-Methoxybenzyloxy)-2-phenyl-3-(4-methoxyphenylamino)-3-(4-nitrop
henyl)propionic acid
;
_cell_volume   1327.707
_exptl_crystal_colour 'colorless'
_exptl_crystal_density_diffrn 1.322
_exptl_crystal_description 'needle'
_diffrn_ambient_temperature 294
#These two values have been output from a single CSD field.
_refine_ls_R_factor_gt 0.0484
_refine_ls_wR_factor_gt 0.0484
_symmetry_cell_setting triclinic
_symmetry_space_group_name_H-M 'P -1'
_symmetry_Int_Tables_number 2
loop_
_symmetry_equiv_pos_site_id
_symmetry_equiv_pos_as_xyz
1 x,y,z
2 -x,-y,-z
_cell_length_a 9.0580(15)
_cell_length_b 10.3496(18)
_cell_length_c 14.987(3)
_cell_angle_alpha 74.357(3)
_cell_angle_beta 78.955(3)
_cell_angle_gamma 86.161(3)
_cell_formula_units_Z 2
loop_
_atom_type_symbol
_atom_type_radius_bond
C 0.68
H 0.23
N 0.68
O 0.68
loop_
_atom_site_label
_atom_site_type_symbol
_atom_site_fract_x
_atom_site_fract_y
_atom_site_fract_z
O1 O 0.33032(13) 0.04285(12) 0.48294(8)
O2 O 0.53648(12) 0.10662(13) 0.37719(8)
H1 H 0.57980 0.06010 0.41910
O3 O 0.32941(11) 0.12868(9) 0.25469(6)
O4 O 0.35344(16) -0.15830(13) -0.06486(8)
O5 O 0.75940(16) 0.81419(14) 0.33277(11)
O6 O 0.01513(19) 0.70941(18) -0.01356(12)
O7 O 0.1604(2) 0.60886(18) -0.10491(11)
N1 N 0.38627(14) 0.39379(12) 0.35892(8)
H2 H 0.29800 0.40320 0.39050
N2 N 0.1155(2) 0.62926(17) -0.02823(13)
C1 C 0.39156(15) 0.10739(14) 0.40664(9)
C2 C 0.30468(15) 0.19122(13) 0.33010(9)
C3 C 0.38457(16) 0.32890(13) 0.28473(9)
H3 H 0.48940 0.30950 0.25980
C4 C 0.31550(16) 0.41213(14) 0.20194(9)
C5 C 0.36097(19) 0.38919(16) 0.11338(10)
H4 H 0.43620 0.32570 0.10470
C6 C 0.2954(2) 0.45984(17) 0.03794(11)
H5 H 0.32520 0.44380 -0.02110
C7 C 0.18605(19) 0.55345(16) 0.05191(11)
C8 C 0.1402(2) 0.58047(18) 0.13772(13)
H6 H 0.06640 0.64560 0.14530
C9 C 0.20582(19) 0.50892(16) 0.21300(11)
H7 H 0.17570 0.52620 0.27160
C10 C 0.2853(2) -0.00896(14) 0.27765(11)
H8 H 0.18240 -0.01900 0.31150
H9 H 0.35010 -0.06610 0.31710
C11 C 0.29901(17) -0.04738(14) 0.18646(10)
C12 C 0.38751(19) -0.15583(16) 0.17059(12)
H10 H 0.43720 -0.20680 0.21750
C13 C 0.4035(2) -0.18982(17) 0.08632(13)
H11 H 0.46360 -0.26320 0.07700
C14 C 0.33085(18) -0.11568(16) 0.01580(11)
C15 C 0.2409(2) -0.00749(18) 0.03035(12)
H12 H 0.19040 0.04260 -0.01650
C16 C 0.2263(2) 0.02585(18) 0.11506(12)
H13 H 0.16610 0.09920 0.12430
C17 C 0.2960(3) -0.0761(2) -0.14300(13)
H14 H 0.32370 -0.10640 -0.18880
H15 H 0.18830 -0.08100 -0.13160
H16 H 0.33250 0.01360 -0.15840
C18 C 0.47984(16) 0.50345(14) 0.34397(10)
C19 C 0.44623(19) 0.58782(16) 0.40437(11)
H17 H 0.35820 0.57510 0.44920
C20 C 0.5412(2) 0.68928(17) 0.39861(12)
H18 H 0.51720 0.74410 0.43950
C21 C 0.67132(19) 0.70973(17) 0.33271(12)
C22 C 0.70491(19) 0.63065(19) 0.27029(13)
H19 H 0.79180 0.64570 0.22460
C23 C 0.60809(18) 0.52807(17) 0.27587(12)
H20 H 0.63040 0.47580 0.23320
C24 C 0.9056(2) 0.8230(3) 0.28117(18)
H21 H 0.94630 0.88870 0.28580
H22 H 0.90250 0.83400 0.21590
H23 H 0.96310 0.74360 0.30380
C25 C 0.13788(16) 0.21067(14) 0.36698(10)
C26 C 0.03655(17) 0.22270(16) 0.30571(11)
H24 H 0.07090 0.21170 0.24560
C27 C -0.11407(19) 0.2508(2) 0.33307(13)
H25 H -0.18030 0.25740 0.29160
C28 C -0.1663(2) 0.2689(2) 0.42109(14)
H26 H -0.26770 0.28760 0.43940
C29 C -0.0677(2) 0.2591(2) 0.48219(13)
H27 H -0.10290 0.27250 0.54160
C30 C 0.08355(18) 0.22966(17) 0.45604(11)
H28 H 0.14880 0.22260 0.49810
#END
