
#######################################################################
#
#                 Cambridge Crystallographic Data Centre
#                                CCDC
#
#######################################################################
#
# If this CIF has been generated from an entry in the Cambridge
# Structural Database, then it will include bibliographic, chemical,
# crystal, experimental, refinement or atomic coordinate data resulting
# from the CCDC's data processing and validation procedures.
#
#######################################################################

data_CSD_CIF_FIBBAU
_audit_creation_date 2005-05-31
_audit_creation_method CSD-ConQuest-V1
_database_code_CSD FIBBAU
_database_code_depnum_ccdc_archive 'CCDC 263899'
_chemical_formula_sum 'C23 H20 N2 O8'
_chemical_formula_moiety
;
C23 H20 N2 O8
;
_journal_coden_Cambridge 1336
_journal_volume 7
_journal_year 2005
_journal_page_first 83
_journal_name_full 'Org.Lett. '
loop_
_publ_author_name
"Chong-Dao Lu"
"Hui Liu"
"Zhi-Yong Chen"
"Wen-Hao Hu"
"Ai-Qiao Mi"
_chemical_name_systematic
;
(2S*,3R*)-Methyl 
2-(benzyloxy)-2-phenyl-3-hydroxy-3-(2,4-dinitrophenyl)propionate
;
_cell_volume   1084.391
_exptl_crystal_density_diffrn 1.386
_diffrn_ambient_temperature 299
#These two values have been output from a single CSD field.
_refine_ls_R_factor_gt 0.0404
_refine_ls_wR_factor_gt 0.0404
_symmetry_cell_setting triclinic
_symmetry_space_group_name_H-M 'P -1'
_symmetry_Int_Tables_number 2
loop_
_symmetry_equiv_pos_site_id
_symmetry_equiv_pos_as_xyz
1 x,y,z
2 -x,-y,-z
_cell_length_a 8.245(2)
_cell_length_b 9.070(2)
_cell_length_c 15.501(4)
_cell_angle_alpha 93.34(2)
_cell_angle_beta 91.41(2)
_cell_angle_gamma 110.26(2)
_cell_formula_units_Z 2
loop_
_atom_type_symbol
_atom_type_radius_bond
C 0.68
H 0.23
N 0.68
O 0.68
loop_
_atom_site_label
_atom_site_type_symbol
_atom_site_fract_x
_atom_site_fract_y
_atom_site_fract_z
O1 O 0.38243(14) 0.59984(12) 0.21337(6)
O2 O 0.62353(15) 0.56311(15) 0.30622(9)
O3 O 0.46613(19) 0.32728(18) 0.34471(11)
O4 O 0.23002(17) 0.49008(15) 0.42571(7)
H1 H 0.12960 0.42920 0.42000
O5 O 0.9268(2) 1.14560(19) 0.52690(12)
O6 O 0.87849(19) 1.25707(18) 0.41527(11)
O7 O 0.4177(2) 0.96708(19) 0.20704(9)
O8 O 0.18838(19) 0.82234(19) 0.26456(10)
N1 N 0.8442(2) 1.14618(19) 0.46082(11)
N2 N 0.3448(2) 0.88843(18) 0.26431(10)
C1 C 0.1279(3) 0.1960(2) 0.25925(13)
H2 H 0.20840 0.16770 0.29100
C2 C -0.0260(3) 0.0805(2) 0.22719(15)
H3 H -0.04710 -0.02420 0.23790
C3 C -0.1454(3) 0.1184(3) 0.18064(14)
H4 H -0.24750 0.04020 0.15940
C4 C -0.1147(3) 0.2723(3) 0.16515(14)
H5 H -0.19620 0.29930 0.13340
C5 C 0.0380(2) 0.3883(2) 0.19678(12)
H6 H 0.05780 0.49270 0.18590
C6 C 0.1616(2) 0.35148(19) 0.24423(10)
C7 C 0.3235(2) 0.49016(18) 0.27739(9)
C8 C 0.2696(2) 0.58285(19) 0.35372(10)
H7 H 0.16650 0.60490 0.33480
C9 C 0.4120(2) 0.73714(18) 0.38235(10)
C10 C 0.5170(2) 0.74236(19) 0.45476(10)
H8 H 0.49230 0.65360 0.48630
C11 C 0.6569(2) 0.8751(2) 0.48151(11)
H9 H 0.72520 0.87610 0.53040
C12 C 0.6929(2) 1.00506(19) 0.43457(11)
C13 C 0.5921(2) 1.00854(19) 0.36304(11)
H10 H 0.61750 1.09800 0.33210
C14 C 0.4523(2) 0.87465(19) 0.33911(10)
C15 C 0.4276(3) 0.5316(2) 0.13515(11)
H11 H 0.32310 0.47350 0.10030
H12 H 0.48400 0.45810 0.15000
C16 C 0.5448(3) 0.6548(2) 0.0841(1)
C17 C 0.7188(3) 0.6817(3) 0.08398(15)
H13 H 0.76720 0.62870 0.12060
C18 C 0.8236(4) 0.7871(4) 0.0297(2)
H14 H 0.94170 0.80500 0.03000
C19 C 0.7525(6) 0.8641(4) -0.0238(2)
H15 H 0.82220 0.93230 -0.06140
C20 C 0.5832(6) 0.8431(3) -0.02321(15)
H16 H 0.53680 0.89930 -0.05860
C21 C 0.4781(3) 0.7373(3) 0.03043(13)
H17 H 0.36060 0.72180 0.03020
C22 C 0.4756(2) 0.4453(2) 0.31226(11)
C23 C 0.7763(3) 0.5459(3) 0.34538(15)
H18 H 0.76220 0.53500 0.40620
H19 H 0.87540 0.63730 0.33680
H20 H 0.79290 0.45400 0.31910
#END
