
#######################################################################
#
#                 Cambridge Crystallographic Data Centre
#                                CCDC
#
#######################################################################
#
# If this CIF has been generated from an entry in the Cambridge
# Structural Database, then it will include bibliographic, chemical,
# crystal, experimental, refinement or atomic coordinate data resulting
# from the CCDC's data processing and validation procedures.
#
#######################################################################

data_CSD_CIF_FIBGIG
_audit_creation_date 1988-03-22
_audit_creation_method CSD-ConQuest-V1
_database_code_CSD FIBGIG
_database_code_depnum_ccdc_archive 'CCDC 1155685'
_chemical_formula_sum 'C14 H18 N2 O5'
_chemical_formula_moiety
;
C14 H18 N2 O5
;
_journal_coden_Cambridge 11
_journal_volume 116
_journal_year 1986
_journal_page_first 711
_journal_name_full 'Gazz.Chim.Ital. '
loop_
_publ_author_name
"A.Balsamo"
"B.Macchia"
"F.Macchia"
"E.Orlandini"
"C.Salvadori"
"P.Domiano"
_chemical_name_systematic
;
Ethyl (E)-3-((p-methoxybenzylidene)iminoxy)-(E)-2-(methoxyimino)propionate
;
_chemical_melting_point 329.15
_cell_volume    755.065
_exptl_crystal_density_diffrn 1.295
_exptl_special_details
;
Melting point range 329.15-331.15K

;
_diffrn_ambient_temperature ?
_diffrn_special_details
;
The study was carried out at room temperature,in the range 283-303K

;
#These two values have been output from a single CSD field.
_refine_ls_R_factor_gt 0.053
_refine_ls_wR_factor_gt 0.053
_symmetry_cell_setting triclinic
_symmetry_space_group_name_H-M 'P -1'
_symmetry_Int_Tables_number 2
loop_
_symmetry_equiv_pos_site_id
_symmetry_equiv_pos_as_xyz
1 x,y,z
2 -x,-y,-z
_cell_length_a 8.186(1)
_cell_length_b 12.763(2)
_cell_length_c 7.795(2)
_cell_angle_alpha 105.90(1)
_cell_angle_beta 94.01(2)
_cell_angle_gamma 103.15(2)
_cell_formula_units_Z 2
loop_
_atom_type_symbol
_atom_type_radius_bond
C 0.68
H 0.23
N 0.68
O 0.68
loop_
_atom_site_label
_atom_site_type_symbol
_atom_site_fract_x
_atom_site_fract_y
_atom_site_fract_z
C1 C -0.1898(5) 1.1160(3) 1.3958(4)
O1 O -0.2049(2) 1.0064(2) 1.2788(3)
C2 C -0.0609(3) 0.9776(2) 1.2298(3)
C3 C 0.1020(3) 1.0485(2) 1.2856(4)
C4 C 0.2386(4) 1.0095(2) 1.2244(4)
C5 C 0.2179(3) 0.9019(2) 1.1087(3)
C6 C 0.0528(3) 0.8327(2) 1.0547(3)
C7 C -0.0835(3) 0.8707(2) 1.1132(3)
C8 C 0.3636(3) 0.8631(2) 1.0430(3)
N1 N 0.3423(2) 0.7655(2) 0.9349(3)
O2 O 0.4980(2) 0.7462(1) 0.8849(2)
C9 C 0.4629(3) 0.6324(2) 0.7704(4)
C10 C 0.6187(3) 0.6192(2) 0.6862(3)
N2 N 0.6566(3) 0.6453(2) 0.5437(3)
O3 O 0.5357(2) 0.6893(2) 0.4766(3)
C11 C 0.5819(5) 0.7148(3) 0.3160(4)
C12 C 0.7415(3) 0.5719(2) 0.7723(3)
O4 O 0.7285(3) 0.5554(2) 0.9159(3)
O5 O 0.8648(2) 0.5526(2) 0.6757(2)
C13 C 0.9903(4) 0.5046(3) 0.7467(5)
C14 C 0.9302(5) 0.3818(3) 0.7020(5)
H1 H -0.3183(5) 1.1214(3) 1.4101(4)
H2 H -0.1289(5) 1.1791(3) 1.3363(4)
H3 H -0.1205(5) 1.1302(3) 1.5268(4)
H4 H 0.1208(47) 1.1284(35) 1.3611(51)
H5 H 0.3584(47) 1.0506(31) 1.2618(47)
H6 H 0.0359(39) 0.7631(29) 0.9718(42)
H7 H -0.2057(50) 0.8166(32) 1.0623(51)
H8 H 0.4704(42) 0.9087(26) 1.0732(39)
H9 H 0.3638(34) 0.6149(21) 0.6726(35)
H10 H 0.4320(35) 0.5862(26) 0.8360(39)
H11 H 0.4708(5) 0.7384(3) 0.2729(4)
H12 H 0.5939(5) 0.6401(3) 0.2163(4)
H13 H 0.6933(5) 0.7829(3) 0.3316(4)
H14 H 1.0967(51) 0.5224(32) 0.6905(50)
H15 H 1.0343(47) 0.5482(31) 0.8867(53)
H16 H 0.8868(5) 0.3440(3) 0.5594(5)
H17 H 0.8237(5) 0.3714(3) 0.7757(5)
H18 H 1.0216(5) 0.3414(3) 0.7442(5)
#END
