
#######################################################################
#
#                 Cambridge Crystallographic Data Centre
#                                CCDC
#
#######################################################################
#
# If this CIF has been generated from an entry in the Cambridge
# Structural Database, then it will include bibliographic, chemical,
# crystal, experimental, refinement or atomic coordinate data resulting
# from the CCDC's data processing and validation procedures.
#
#######################################################################

data_CSD_CIF_FIBVIW
_audit_creation_date 2005-05-31
_audit_creation_method CSD-ConQuest-V1
_database_code_CSD FIBVIW
_database_code_depnum_ccdc_archive 'CCDC 254813'
_chemical_formula_sum 'C26 H18 N1 O1'
_chemical_formula_moiety
;
C26 H18 N1 O1
;
_journal_coden_Cambridge 7
_journal_volume 77
_journal_year 2004
_journal_page_first 2273
_journal_name_full 'Bull.Chem.Soc.Jpn. '
loop_
_publ_author_name
"C.Agawa"
"K.Otsuka"
"M.Minoura"
"Y.Mazaki"
"G.Yamamoto"
_chemical_name_systematic
;
Phenyl 9-triptycyl nitroxide
;
_chemical_melting_point 509.15
_cell_volume   1833.100
_exptl_crystal_colour 'orange'
_exptl_crystal_density_diffrn 1.306
_exptl_special_details
;
Melting point range 509.15-517.15K

;
_exptl_crystal_description 'Prism'
_exptl_crystal_preparation 'dichloromethane/hexane'
_diffrn_ambient_temperature 110
#These two values have been output from a single CSD field.
_refine_ls_R_factor_gt 0.0458
_refine_ls_wR_factor_gt 0.0458
_symmetry_cell_setting monoclinic
_symmetry_space_group_name_H-M 'P 21/n'
_symmetry_Int_Tables_number 14
loop_
_symmetry_equiv_pos_site_id
_symmetry_equiv_pos_as_xyz
1 x,y,z
2 1/2-x,1/2+y,1/2-z
3 -x,-y,-z
4 -1/2+x,-1/2-y,-1/2+z
_cell_length_a 9.717(3)
_cell_length_b 15.718(4)
_cell_length_c 12.023(3)
_cell_angle_alpha 90
_cell_angle_beta 93.380(13)
_cell_angle_gamma 90
_cell_formula_units_Z 4
loop_
_atom_type_symbol
_atom_type_radius_bond
C 0.68
H 0.23
N 0.68
O 0.68
loop_
_atom_site_label
_atom_site_type_symbol
_atom_site_fract_x
_atom_site_fract_y
_atom_site_fract_z
O1 O 0.51008(10) 0.12126(7) 0.92048(9)
N1 N 0.63992(10) 0.13798(6) 0.93718(9)
C1 C 0.86788(13) 0.16644(8) 1.19794(11)
C2 C 0.93017(12) 0.21130(7) 0.7640(1)
C3 C 0.92879(13) 0.08679(8) 0.88305(11)
C4 C 0.86208(12) 0.15835(7) 0.83755(10)
C5 C 0.83516(12) 0.27618(7) 0.70316(10)
C6 C 0.62828(12) 0.07911(8) 1.12303(11)
C7 C 0.69681(14) 0.45929(8) 0.88019(12)
C8 C 0.64676(12) 0.17173(7) 0.72732(10)
C9 C 0.76816(13) 0.41904(8) 0.79646(12)
C10 C 0.70146(12) 0.28161(7) 0.86897(10)
C11 C 0.69849(12) 0.13090(7) 1.04907(10)
C12 C 0.70927(12) 0.18429(7) 0.84818(10)
C13 C 0.77027(12) 0.33034(8) 0.79138(10)
C14 C 1.06868(13) 0.19753(8) 0.74471(10)
C15 C 0.62795(12) 0.32145(8) 0.95039(11)
C16 C 0.57390(14) 0.16336(9) 0.49825(12)
C17 C 1.06732(14) 0.07186(8) 0.86120(11)
C18 C 0.79829(13) 0.11563(8) 1.27186(11)
C19 C 1.13801(13) 0.12798(8) 0.79493(12)
C20 C 0.54066(13) 0.11743(8) 0.68824(11)
C21 C 0.62745(13) 0.41083(8) 0.95633(12)
C22 C 0.50508(14) 0.11371(9) 0.57316(12)
C23 C 0.67816(13) 0.07263(8) 1.23363(11)
C24 C 0.81856(12) 0.17515(8) 1.08718(11)
C25 C 0.68030(14) 0.21819(8) 0.53694(11)
C26 C 0.71682(12) 0.22199(8) 0.65055(11)
H1 H 0.8796(16) 0.0460(11) 0.9326(14)
H2 H 1.1148(19) 0.0217(12) 0.8936(16)
H3 H 0.5507(19) 0.1612(12) 0.4163(16)
H4 H 0.7293(17) 0.2533(11) 0.4826(14)
H5 H 1.1128(17) 0.2363(11) 0.6969(15)
H6 H 1.2364(18) 0.1189(10) 0.7822(14)
H7 H 0.8827(16) 0.3126(10) 0.6458(13)
H8 H 0.4929(16) 0.0849(11) 0.7398(14)
H9 H 0.4343(19) 0.0771(12) 0.5450(16)
H10 H 0.8135(17) 0.4535(11) 0.7396(15)
H11 H 0.695(2) 0.5225(14) 0.8864(17)
H12 H 0.5787(18) 0.4382(11) 1.0151(15)
H13 H 0.5761(17) 0.2867(10) 1.0021(14)
H14 H 0.8653(17) 0.2114(10) 1.0370(14)
H15 H 0.9501(17) 0.1956(11) 1.2230(14)
H16 H 0.8348(19) 0.1098(12) 1.3509(16)
H17 H 0.6259(17) 0.0382(11) 1.2859(14)
H18 H 0.5443(17) 0.0490(11) 1.0965(14)
#END
