
#######################################################################
#
#                 Cambridge Crystallographic Data Centre
#                                CCDC
#
#######################################################################
#
# If this CIF has been generated from an entry in the Cambridge
# Structural Database, then it will include bibliographic, chemical,
# crystal, experimental, refinement or atomic coordinate data resulting
# from the CCDC's data processing and validation procedures.
#
#######################################################################

data_CSD_CIF_FIBYUN
_audit_creation_date 2018-04-04
_audit_creation_method CSD-ConQuest-V1
_database_code_CSD FIBYUN
_database_code_depnum_ccdc_archive 'CCDC 1834805'
_chemical_formula_sum 'C12 H15 N1 O6'
_chemical_formula_moiety
;
C12 H15 N1 O6
;
_journal_coden_Cambridge 757
_journal_volume 118
_journal_year 2014
_journal_page_first 701
_journal_name_full 'Mol.Diversity '
loop_
_publ_author_name
"R.M.Al-Zoubi"
"D.G.Hall"
_chemical_name_systematic
;
2-[hydroxy(4-nitrophenyl)methyl]oxane-3,4-diol
;
_cell_volume   1258.701
_exptl_crystal_density_diffrn 1.421
_diffrn_ambient_temperature 100
#These two values have been output from a single CSD field.
_refine_ls_R_factor_gt 0.0348
_refine_ls_wR_factor_gt 0.0348
_symmetry_cell_setting orthorhombic
_symmetry_space_group_name_H-M 'P 21 21 21'
_symmetry_Int_Tables_number 19
loop_
_symmetry_equiv_pos_site_id
_symmetry_equiv_pos_as_xyz
1 x,y,z
2 1/2-x,-y,1/2+z
3 -x,1/2+y,1/2-z
4 1/2+x,1/2-y,-z
_cell_length_a 6.0518(7)
_cell_length_b 10.6100(12)
_cell_length_c 19.603(2)
_cell_angle_alpha 90
_cell_angle_beta 90
_cell_angle_gamma 90
_cell_formula_units_Z 4
loop_
_atom_type_symbol
_atom_type_radius_bond
C 0.68
H 0.23
N 0.68
O 0.68
loop_
_atom_site_label
_atom_site_type_symbol
_atom_site_fract_x
_atom_site_fract_y
_atom_site_fract_z
O1 O 0.1510(2) 0.14703(14) 0.31987(6)
O2 O -0.3947(2) 0.20477(18) 0.27583(7)
O3 O -0.3494(2) 0.22004(14) 0.41716(7)
O4 O 0.2251(2) 0.16874(14) 0.46048(6)
O5 O 0.6059(3) -0.43315(17) 0.38537(11)
O6 O 0.2775(4) -0.50817(18) 0.39355(14)
N1 N 0.4066(4) -0.42043(19) 0.39267(11)
C1 C 0.0732(3) 0.1836(2) 0.25299(9)
C2 C -0.0511(4) 0.3063(2) 0.25741(10)
C3 C -0.2463(4) 0.2939(2) 0.30542(10)
C4 C -0.1641(3) 0.24768(18) 0.3745(1)
C5 C -0.0277(3) 0.12737(18) 0.36592(9)
C6 C 0.0723(3) 0.08072(19) 0.43339(9)
C7 C 0.1671(3) -0.05003(19) 0.42476(9)
C8 C 0.3819(3) -0.0702(2) 0.40142(10)
C9 C 0.4589(4) -0.1911(2) 0.39002(10)
C10 C 0.3214(4) -0.2918(2) 0.40256(10)
C11 C 0.1076(4) -0.2761(2) 0.42607(10)
C12 C 0.0340(3) -0.1537(2) 0.43720(9)
H1 H -0.50540 0.19610 0.30120
H2 H -0.32430 0.24600 0.45690
H3 H 0.32750 0.18060 0.43230
H4 H -0.02490 0.11730 0.23450
H5 H 0.20050 0.19310 0.22170
H6 H -0.10410 0.33060 0.21150
H7 H 0.04900 0.37340 0.27410
H8 H -0.32140 0.37720 0.31070
H9 H -0.07130 0.31450 0.39630
H10 H -0.12540 0.05980 0.34710
H11 H -0.05180 0.07390 0.46680
H12 H 0.47620 -0.00030 0.39330
H13 H 0.60480 -0.20450 0.37370
H14 H 0.01430 -0.34650 0.43430
H15 H -0.11170 -0.14080 0.45380
#END
