
#######################################################################
#
#                 Cambridge Crystallographic Data Centre
#                                CCDC
#
#######################################################################
#
# If this CIF has been generated from an entry in the Cambridge
# Structural Database, then it will include bibliographic, chemical,
# crystal, experimental, refinement or atomic coordinate data resulting
# from the CCDC's data processing and validation procedures.
#
#######################################################################

data_CSD_CIF_FICHAB
_audit_creation_date 2005-05-31
_audit_creation_method CSD-ConQuest-V1
_database_code_CSD FICHAB
_database_code_depnum_ccdc_archive 'CCDC 225992'
_chemical_formula_sum 'C10 H12 N2 O3'
_chemical_formula_moiety
;
C10 H12 N2 O3
;
_journal_coden_Cambridge 423
_journal_year 2004
_journal_page_first 664
_journal_name_full 'J.Chem.Res. '
loop_
_publ_author_name
"J.R.Hanson"
"P.B.Hitchcock"
"I.C.Rodriguez-Medina"
_chemical_name_systematic
;
2,6-dimethyl-4-nitro-acetanilide
;
_cell_volume    510.981
_exptl_crystal_colour 'colorless'
_exptl_crystal_density_diffrn 1.353
_exptl_crystal_description 'needle'
_diffrn_ambient_temperature 173
#These two values have been output from a single CSD field.
_refine_ls_R_factor_gt 0.0508
_refine_ls_wR_factor_gt 0.0508
_symmetry_cell_setting triclinic
_symmetry_space_group_name_H-M 'P -1'
_symmetry_Int_Tables_number 2
loop_
_symmetry_equiv_pos_site_id
_symmetry_equiv_pos_as_xyz
1 x,y,z
2 -x,-y,-z
_cell_length_a 4.7659(2)
_cell_length_b 8.4244(4)
_cell_length_c 13.5506(6)
_cell_angle_alpha 76.656(2)
_cell_angle_beta 80.528(2)
_cell_angle_gamma 76.384(2)
_cell_formula_units_Z 2
loop_
_atom_type_symbol
_atom_type_radius_bond
C 0.68
H 0.23
N 0.68
O 0.68
loop_
_atom_site_label
_atom_site_type_symbol
_atom_site_fract_x
_atom_site_fract_y
_atom_site_fract_z
O1 O -0.3190(4) 0.2451(3) 0.94295(13)
O2 O 0.1476(4) 0.1314(2) 0.43311(13)
O3 O -0.2599(4) 0.3080(3) 0.44148(14)
N1 N 0.1281(4) 0.2840(2) 0.86835(14)
H1 H 0.308(6) 0.273(3) 0.883(2)
N2 N -0.0393(4) 0.2268(2) 0.47780(14)
C1 C 0.0861(4) 0.2724(3) 0.76836(16)
C2 C -0.1262(5) 0.3922(3) 0.71580(17)
C3 C -0.1684(5) 0.3739(3) 0.62032(17)
H2 H -0.312(5) 0.453(3) 0.5817(18)
C4 C 0.0059(5) 0.2435(3) 0.57931(17)
C5 C 0.2223(5) 0.1297(3) 0.62874(17)
H3 H 0.334(5) 0.044(3) 0.6001(19)
C6 C 0.2650(4) 0.1422(3) 0.72496(17)
C7 C -0.2984(6) 0.5413(3) 0.7582(2)
H4 H -0.426(7) 0.615(4) 0.711(3)
H5 H -0.432(8) 0.511(4) 0.823(3)
H6 H -0.164(9) 0.600(5) 0.777(3)
C8 C 0.4962(5) 0.0185(3) 0.7818(2)
H7 H 0.577(6) -0.070(4) 0.749(2)
H8 H 0.659(7) 0.071(4) 0.786(2)
H9 H 0.425(6) -0.028(4) 0.852(2)
C9 C -0.0750(5) 0.2621(3) 0.95067(17)
C10 C 0.0111(6) 0.2671(5) 1.0508(2)
H10 H -0.125(8) 0.340(4) 1.083(3)
H11 H 0.034(9) 0.159(6) 1.091(3)
H12 H 0.198(7) 0.291(3) 1.047(2)
#END
