
#######################################################################
#
#                 Cambridge Crystallographic Data Centre
#                                CCDC
#
#######################################################################
#
# If this CIF has been generated from an entry in the Cambridge
# Structural Database, then it will include bibliographic, chemical,
# crystal, experimental, refinement or atomic coordinate data resulting
# from the CCDC's data processing and validation procedures.
#
#######################################################################

data_CSD_CIF_FICLEK
_audit_creation_date 2013-08-08
_audit_creation_method CSD-ConQuest-V1
_database_code_CSD FICLEK
_database_code_depnum_ccdc_archive 'CCDC 955068'
_chemical_formula_sum 'C11 H9 N1 O3'
_chemical_formula_moiety
;
C11 H9 N1 O3
;
_journal_coeditor_code "bg2504"
_journal_coden_Cambridge 1370
_journal_volume 69
_journal_year 2013
_journal_page_first o897
_journal_name_full 'Acta Crystallogr.,Sect.E:Struct.Rep.Online '
loop_
_publ_author_name
"Chandra"
"N.Srikantamurthy"
"G.J.Vishalakshi"
"S.Jeyaseelan"
"K.B.Umesha"
"M.Mahendra"
_chemical_name_systematic
;
5-Methyl-3-phenyl-1,2-oxazole-4-carboxylic acid
;
_chemical_name_common
;
PDB Chemical Component code: MOK
;
_cell_volume    974.027
_exptl_crystal_colour 'yellow'
_exptl_crystal_density_diffrn 1.386
_exptl_crystal_description 'block'
_diffrn_ambient_temperature 273
#These two values have been output from a single CSD field.
_refine_ls_R_factor_gt 0.0385
_refine_ls_wR_factor_gt 0.0385
_symmetry_cell_setting monoclinic
_symmetry_space_group_name_H-M 'P 21/n'
_symmetry_Int_Tables_number 14
loop_
_symmetry_equiv_pos_site_id
_symmetry_equiv_pos_as_xyz
1 x,y,z
2 1/2-x,1/2+y,1/2-z
3 -x,-y,-z
4 -1/2+x,-1/2-y,-1/2+z
_cell_length_a 11.953(4)
_cell_length_b 5.981(2)
_cell_length_c 14.142(5)
_cell_angle_alpha 90
_cell_angle_beta 105.548(6)
_cell_angle_gamma 90
_cell_formula_units_Z 4
loop_
_atom_type_symbol
_atom_type_radius_bond
C 0.68
H 0.23
N 0.68
O 0.68
loop_
_atom_site_label
_atom_site_type_symbol
_atom_site_fract_x
_atom_site_fract_y
_atom_site_fract_z
O1 O 0.78858(10) 0.77608(19) -0.16618(8)
O2 O 0.98209(9) 0.19333(19) -0.09796(8)
O3 O 0.89662(9) 0.16156(18) 0.02382(7)
N1 N 0.72219(12) 0.7544(2) -0.09692(10)
C1 C 0.70696(13) 0.6540(3) 0.10434(12)
C2 C 0.65298(14) 0.6027(3) 0.17680(13)
C3 C 0.59319(14) 0.4050(3) 0.17315(12)
C4 C 0.58949(14) 0.2546(3) 0.09855(13)
C5 C 0.64525(13) 0.3017(3) 0.02718(11)
C6 C 0.70323(11) 0.5035(2) 0.02904(9)
C7 C 0.75633(11) 0.5675(2) -0.05041(10)
C8 C 0.85935(12) 0.6006(2) -0.15866(10)
C9 C 0.93670(14) 0.6030(3) -0.22477(11)
C10 C 0.84386(10) 0.4605(2) -0.08704(9)
C11 C 0.90974(11) 0.2583(2) -0.05073(10)
H1 H 0.74570 0.78940 0.10620
H2 H 0.65710 0.70230 0.22810
H3 H 0.55530 0.37280 0.22100
H4 H 0.54920 0.12080 0.09630
H5 H 0.64400 0.19820 -0.02220
H6 H 0.91180 0.49090 -0.27460
H7 H 1.01490 0.57240 -0.18750
H8 H 0.93350 0.74740 -0.25510
H9 H 1.01490 0.07930 -0.07260
#END
