
#######################################################################
#
#                 Cambridge Crystallographic Data Centre
#                                CCDC
#
#######################################################################
#
# If this CIF has been generated from an entry in the Cambridge
# Structural Database, then it will include bibliographic, chemical,
# crystal, experimental, refinement or atomic coordinate data resulting
# from the CCDC's data processing and validation procedures.
#
#######################################################################

data_CSD_CIF_FICZOH
_audit_creation_date 2005-05-31
_audit_creation_method CSD-ConQuest-V1
_database_code_CSD FICZOH
_database_code_depnum_ccdc_archive 'CCDC 269400'
_chemical_formula_sum 'C21 H35 N1 O2'
_chemical_formula_moiety
;
C21 H35 N1 O2
;
_journal_coeditor_code "IUCr CF6403"
_journal_coden_Cambridge 1370
_journal_volume 61
_journal_year 2005
_journal_page_first o716
_journal_name_full 'Acta Crystallogr.,Sect.E:Struct.Rep.Online '
loop_
_publ_author_name
"A.S.Batsanov"
"A.J.Reid"
"N.Cameron"
_chemical_name_systematic
;
2-t-Butoxy-1-phenyl-1-(2,2,6,6-tetramethylpiperidin-1-yloxy)ethane
;
_cell_volume   4014.764
_exptl_crystal_colour 'colorless'
_exptl_crystal_density_diffrn 1.104
_exptl_crystal_description 'block'
_diffrn_ambient_temperature 100
#These two values have been output from a single CSD field.
_refine_ls_R_factor_gt 0.0389
_refine_ls_wR_factor_gt 0.0389
_symmetry_cell_setting orthorhombic
_symmetry_space_group_name_H-M 'P b c a'
_symmetry_Int_Tables_number 61
loop_
_symmetry_equiv_pos_site_id
_symmetry_equiv_pos_as_xyz
1 x,y,z
2 1/2-x,-y,1/2+z
3 -x,1/2+y,1/2-z
4 1/2+x,1/2-y,-z
5 -x,-y,-z
6 -1/2+x,y,-1/2-z
7 x,-1/2-y,-1/2+z
8 -1/2-x,-1/2+y,z
_cell_length_a 15.532(4)
_cell_length_b 11.119(3)
_cell_length_c 23.247(5)
_cell_angle_alpha 90
_cell_angle_beta 90
_cell_angle_gamma 90
_cell_formula_units_Z 8
loop_
_atom_type_symbol
_atom_type_radius_bond
C 0.68
H 0.23
N 0.68
O 0.68
loop_
_atom_site_label
_atom_site_type_symbol
_atom_site_fract_x
_atom_site_fract_y
_atom_site_fract_z
O1 O 0.50726(3) 0.34047(4) 0.41290(2)
O2 O 0.33509(3) 0.38797(5) 0.37666(2)
N1 N 0.56521(4) 0.25032(5) 0.38875(2)
C1 C 0.43261(4) 0.28730(6) 0.43963(3)
H1 H 0.41520 0.21450 0.41720
C2 C 0.55469(5) 0.25419(7) 0.32449(3)
C3 C 0.62458(6) 0.17267(8) 0.29828(4)
H2 H 0.61090 0.08800 0.30780
H3 H 0.62280 0.18080 0.25590
C4 C 0.71538(6) 0.20006(9) 0.31880(4)
H4 H 0.75640 0.14150 0.30210
H5 H 0.73260 0.28180 0.30640
C5 C 0.71683(5) 0.19182(7) 0.38386(4)
H6 H 0.77550 0.21060 0.39770
H7 H 0.70320 0.10830 0.39550
C6 C 0.65274(4) 0.27758(6) 0.41254(3)
C7 C 0.55652(6) 0.38093(8) 0.29805(3)
H8 H 0.5145(5) 0.4323(4) 0.3179(3)
H9 H 0.5418(5) 0.37606(12) 0.2570(3)
H10 H 0.6144(4) 0.4154(4) 0.3024(3)
C8 C 0.46745(5) 0.19737(8) 0.30943(3)
H11 H 0.4625(2) 0.1184(7) 0.3284(3)
H12 H 0.4632(2) 0.1870(6) 0.2674(3)
H13 H 0.4207(3) 0.2502(5) 0.3228(3)
C9 C 0.68364(5) 0.40811(7) 0.40643(4)
H14 H 0.7018(5) 0.4226(2) 0.3668(3)
H15 H 0.7321(5) 0.4220(2) 0.4324(3)
H16 H 0.6367(4) 0.4628(4) 0.4162(3)
C10 C 0.65061(5) 0.24755(8) 0.47666(3)
H17 H 0.6137(5) 0.3078(6) 0.49731(15)
H18 H 0.7106(4) 0.2503(7) 0.49259(14)
H19 H 0.6261(5) 0.1649(6) 0.48219(6)
C11 C 0.44530(4) 0.25205(6) 0.50208(3)
C12 C 0.43806(4) 0.13184(6) 0.51850(3)
H20 H 0.42700 0.07230 0.49010
C13 C 0.44677(5) 0.09773(7) 0.57597(3)
H21 H 0.44230 0.01540 0.58650
C14 C 0.46198(5) 0.18453(8) 0.61768(3)
H22 H 0.46740 0.16180 0.65690
C15 C 0.46920(5) 0.30477(7) 0.60196(3)
H23 H 0.47960 0.36420 0.63050
C16 C 0.46121(4) 0.33830(6) 0.54450(3)
H24 H 0.46660 0.42050 0.53400
C17 C 0.36194(4) 0.38169(6) 0.43478(3)
H25 H 0.31270 0.35950 0.45960
H26 H 0.38400 0.46090 0.44750
C18 C 0.26850(4) 0.47410(6) 0.36304(3)
C19 C 0.18898(5) 0.45399(8) 0.40020(4)
H27 H 0.1726(3) 0.3670(7) 0.3991(3)
H28 H 0.1403(4) 0.5037(6) 0.3852(2)
H29 H 0.20186(18) 0.4780(7) 0.4408(3)
C20 C 0.24793(6) 0.44747(8) 0.30046(3)
H30 H 0.3015(4) 0.4557(6) 0.27679(17)
H31 H 0.2035(4) 0.5057(6) 0.28632(14)
H32 H 0.2252(5) 0.3634(6) 0.29697(6)
C21 C 0.30130(6) 0.60218(7) 0.36949(4)
H33 H 0.3145(5) 0.6183(3) 0.4105(3)
H34 H 0.2565(4) 0.6593(4) 0.3560(3)
H35 H 0.3542(5) 0.6126(2) 0.3461(3)
#END
