
#######################################################################
#
#                 Cambridge Crystallographic Data Centre
#                                CCDC
#
#######################################################################
#
# If this CIF has been generated from an entry in the Cambridge
# Structural Database, then it will include bibliographic, chemical,
# crystal, experimental, refinement or atomic coordinate data resulting
# from the CCDC's data processing and validation procedures.
#
#######################################################################

data_CSD_CIF_FIDGUV
_audit_creation_date 2005-05-31
_audit_creation_method CSD-ConQuest-V1
_database_code_CSD FIDGUV
_database_code_depnum_ccdc_archive 'CCDC 245743'
_chemical_formula_sum 'C31 H41 N1 O6'
_chemical_formula_moiety
;
C31 H41 N1 O6
;
_journal_coden_Cambridge 16
_journal_volume 61
_journal_year 2005
_journal_page_first 1773
_journal_name_full 'Tetrahedron '
loop_
_publ_author_name
"N.R.Irlapati"
"J.E.Baldwin"
"R.M.Adlington"
"G.J.Pritchard"
"A.R.Cowley"
_chemical_name_systematic
;
3-Acetyl-1-(3,5-di-t-butyl-4-hydroxyphenyl)-2-hydroxy-6a,8,9,10,11,12,13,14a-o
ctahydro-4H-cyclodeca(4,5)isoxazolo(2,3-a)pyridine-4,14(7H)-dione
;
_cell_volume   2823.149
_exptl_crystal_colour 'colorless'
_exptl_crystal_density_diffrn 1.232
_exptl_crystal_description 'block'
_diffrn_ambient_temperature 150
_diffrn_special_details
;
refined as a pseudo-merohedral twin, with components 0.601

;
#These two values have been output from a single CSD field.
_refine_ls_R_factor_gt 0.0425
_refine_ls_wR_factor_gt 0.0425
loop_
_citation_database_id_CSD
_citation_special_details
AHUXIK "is a stereoisomer of this entry"
_symmetry_cell_setting monoclinic
_symmetry_space_group_name_H-M 'P 21/n'
_symmetry_Int_Tables_number 14
loop_
_symmetry_equiv_pos_site_id
_symmetry_equiv_pos_as_xyz
1 x,y,z
2 1/2-x,1/2+y,1/2-z
3 -x,-y,-z
4 -1/2+x,-1/2-y,-1/2+z
_cell_length_a 10.5172(2)
_cell_length_b 20.4602(6)
_cell_length_c 13.1197(4)
_cell_angle_alpha 90
_cell_angle_beta 90.0512(12)
_cell_angle_gamma 90
_cell_formula_units_Z 4
loop_
_atom_type_symbol
_atom_type_radius_bond
C 0.68
H 0.23
N 0.68
O 0.68
loop_
_atom_site_label
_atom_site_type_symbol
_atom_site_fract_x
_atom_site_fract_y
_atom_site_fract_z
N1 N 0.46525(16) 0.05731(8) -0.11540(12)
C1 C 0.3953(2) 0.02938(9) -0.19450(14)
C2 C 0.2650(2) 0.05238(9) -0.19562(14)
C3 C 0.21829(19) 0.09128(9) -0.11478(14)
C4 C 0.29655(19) 0.11206(9) -0.03234(13)
C5 C 0.24743(18) 0.14960(9) 0.05671(14)
C6 C 0.22342(18) 0.21633(9) 0.04859(13)
C7 C 0.19013(18) 0.25356(9) 0.13309(14)
C8 C 0.17780(18) 0.22069(9) 0.22736(14)
C9 C 0.20082(17) 0.15301(8) 0.23861(13)
C10 C 0.23471(18) 0.11884(9) 0.15061(14)
C11 C 0.42160(19) 0.09526(9) -0.03750(14)
C12 C 0.5339(2) 0.11133(9) 0.03022(13)
C13 C 0.53434(19) 0.18254(9) 0.06864(14)
O1 O 0.54312(15) 0.22703(7) 0.00814(11)
C14 C 0.52468(19) 0.1946(1) 0.18215(14)
C15 C 0.6015(2) 0.25341(11) 0.22020(17)
C16 C 0.7411(2) 0.25650(12) 0.1912(2)
C17 C 0.8247(2) 0.19928(13) 0.22417(18)
C18 C 0.8095(2) 0.13496(11) 0.16584(17)
C19 C 0.8375(2) 0.13797(12) 0.05151(18)
C20 C 0.7747(2) 0.08079(11) -0.00807(16)
C21 C 0.64322(19) 0.0983(1) -0.04627(15)
O2 O 0.59538(13) 0.04341(7) -0.10631(11)
O3 O 0.44651(15) -0.01015(7) -0.25180(11)
C22 C 0.1792(2) 0.0353(1) -0.27932(15)
O4 O 0.06566(16) 0.05300(9) -0.27741(13)
C23 C 0.2244(2) -0.00273(11) -0.37003(15)
O5 O 0.09710(14) 0.10995(8) -0.11254(12)
C24 C 0.1737(2) 0.32806(9) 0.12500(15)
C25 C 0.1896(3) 0.35193(11) 0.01444(18)
C26 C 0.0394(2) 0.3493(1) 0.15745(17)
C27 C 0.2762(2) 0.3624(1) 0.18939(19)
O6 O 0.14704(15) 0.25963(7) 0.30870(11)
C28 C 0.19781(19) 0.11835(9) 0.34331(13)
C29 C 0.2291(2) 0.0452(1) 0.33229(15)
C30 C 0.2994(2) 0.14798(12) 0.41425(16)
C31 C 0.0647(2) 0.1219(1) 0.39210(15)
H1 H 0.063(3) 0.0925(15) -0.169(3)
H2 H 0.124(3) 0.2401(14) 0.357(2)
H3 H 0.23030 0.23800 -0.01950
H4 H 0.25030 0.07070 0.15530
H5 H 0.53700 0.08580 0.09520
H6 H 0.55590 0.15470 0.21840
H7 H 0.43320 0.20210 0.19940
H8 H 0.59670 0.25350 0.29630
H9 H 0.55980 0.29370 0.19290
H10 H 0.77740 0.29710 0.22220
H11 H 0.74590 0.25960 0.11520
H12 H 0.91530 0.21340 0.21710
H13 H 0.80580 0.19020 0.29750
H14 H 0.86850 0.10230 0.19690
H15 H 0.71970 0.11990 0.17450
H16 H 0.93160 0.13590 0.04130
H17 H 0.80420 0.18020 0.02400
H18 H 0.82960 0.06950 -0.06780
H19 H 0.76790 0.04210 0.03810
H20 H 0.66030 0.14090 -0.08120
H21 H 0.15200 -0.00940 -0.41840
H22 H 0.29370 0.02200 -0.40500
H23 H 0.25750 -0.04610 -0.34720
H24 H 0.17840 0.40040 0.01190
H25 H 0.27650 0.34030 -0.01050
H26 H 0.12430 0.33060 -0.02980
H27 H 0.03170 0.39780 0.15140
H28 H 0.02420 0.33600 0.22980
H29 H -0.02490 0.32790 0.11230
H30 H 0.26530 0.41080 0.18400
H31 H 0.26750 0.34880 0.26230
H32 H 0.36230 0.34990 0.16380
H33 H 0.22660 0.02390 0.40090
H34 H 0.31600 0.04020 0.30230
H35 H 0.16510 0.02410 0.28650
H36 H 0.29690 0.12530 0.48180
H37 H 0.28200 0.19560 0.42400
H38 H 0.38540 0.14220 0.38300
H39 H 0.06600 0.09910 0.45950
H40 H 0.04030 0.16870 0.40210
H41 H 0.00140 0.10030 0.34630
#END
