
#######################################################################
#
#                 Cambridge Crystallographic Data Centre
#                                CCDC
#
#######################################################################
#
# If this CIF has been generated from an entry in the Cambridge
# Structural Database, then it will include bibliographic, chemical,
# crystal, experimental, refinement or atomic coordinate data resulting
# from the CCDC's data processing and validation procedures.
#
#######################################################################

data_CSD_CIF_FIFCIH
_audit_creation_date 2005-06-02
_audit_creation_method CSD-ConQuest-V1
_database_code_CSD FIFCIH
_database_code_depnum_ccdc_archive 'CCDC 255050'
_chemical_formula_sum 'C20 H29 N1 O4'
_chemical_formula_moiety
;
C20 H29 N1 O4
;
_journal_coden_Cambridge 1336
_journal_volume 7
_journal_year 2005
_journal_page_first 319
_journal_name_full 'Org.Lett. '
loop_
_publ_author_name
"M.Bonanni"
"M.Marradi"
"S.Cicchi"
"C.Faggi"
"A.Goti"
_chemical_name_systematic
;
1,2,3,4-Tetradeoxy-4-(hydroxy((1R)-1-phenylbut-3-enyl)amino)-5,6-O-(1-methylet
hylidene)-D-ribo-hept-1-enitol
;
_chemical_melting_point 354.15
_cell_volume   3984.340
_exptl_crystal_colour 'white'
_exptl_crystal_density_diffrn 1.158
_exptl_special_details
;
Melting point range 354.15-355.15K

;
_exptl_crystal_description 'prismatic'
_diffrn_ambient_temperature 293
#These two values have been output from a single CSD field.
_refine_ls_R_factor_gt 0.0745
_refine_ls_wR_factor_gt 0.0745
_symmetry_cell_setting tetragonal
_symmetry_space_group_name_H-M 'P 41 21 2'
_symmetry_Int_Tables_number 92
loop_
_symmetry_equiv_pos_site_id
_symmetry_equiv_pos_as_xyz
1 x,y,z
2 -x,-y,1/2+z
3 1/2+x,1/2-y,3/4-z
4 1/2-x,1/2+y,1/4-z
5 -y,-x,1/2-z
6 y,x,-z
7 1/2+y,1/2-x,3/4+z
8 1/2-y,1/2+x,1/4+z
_cell_length_a 9.592(2)
_cell_length_b 9.592(2)
_cell_length_c 43.305(4)
_cell_angle_alpha 90
_cell_angle_beta 90
_cell_angle_gamma 90
_cell_formula_units_Z 8
loop_
_atom_type_symbol
_atom_type_radius_bond
C 0.68
H 0.23
N 0.68
O 0.68
loop_
_atom_site_label
_atom_site_type_symbol
_atom_site_fract_x
_atom_site_fract_y
_atom_site_fract_z
N1 N 0.4973(3) 0.3636(3) 0.55397(7)
O1 O 0.5218(4) 0.2758(3) 0.49544(7)
H1 H 0.515(6) 0.327(6) 0.5178(13)
O2 O 0.4044(3) -0.0510(3) 0.52883(7)
O3 O 0.2769(3) 0.0546(3) 0.56627(7)
O4 O 0.3824(3) 0.4597(3) 0.55989(7)
H2 H 0.353(5) 0.473(5) 0.5392(11)
C1 C 0.5209(5) 0.1324(4) 0.5041(1)
H3 H 0.59880 0.11440 0.51780
H4 H 0.53320 0.07550 0.48580
C2 C 0.3876(4) 0.0915(4) 0.5199(1)
H5 H 0.31070 0.09800 0.50500
C3 C 0.3081(5) -0.0786(4) 0.55295(12)
C4 C 0.3781(7) -0.1694(6) 0.57651(14)
H6 H 0.31370 -0.18980 0.59290
H7 H 0.45790 -0.12190 0.58480
H8 H 0.40740 -0.25470 0.56690
C5 C 0.1769(6) -0.1404(7) 0.54100(17)
H9 H 0.11430 -0.15780 0.55790
H10 H 0.19740 -0.22640 0.53060
H11 H 0.13400 -0.07690 0.52670
C6 C 0.3446(4) 0.1633(4) 0.54957(9)
H12 H 0.27480 0.23430 0.54450
C7 C 0.4587(4) 0.2319(4) 0.56960(9)
H13 H 0.54060 0.17080 0.56940
C8 C 0.4119(4) 0.2485(4) 0.60333(9)
H14 H 0.44620 0.33680 0.61110
H15 H 0.31070 0.25160 0.60390
C9 C 0.4607(6) 0.1354(5) 0.62423(11)
H16 H 0.55610 0.11720 0.62430
C10 C 0.3845(7) 0.0597(6) 0.64237(13)
H17 H 0.28850 0.07370 0.64320
H18 H 0.42570 -0.00860 0.65450
C11 C 0.6224(4) 0.4405(4) 0.56630(9)
H19 H 0.59620 0.48630 0.58570
C12 C 0.6610(5) 0.5530(5) 0.54249(11)
H20 H 0.69330 0.50790 0.52380
H21 H 0.57800 0.60600 0.53740
C13 C 0.7709(6) 0.6506(6) 0.55349(15)
H22 H 0.860(11) 0.624(11) 0.564(2)
C14 C 0.7644(7) 0.7829(7) 0.5528(2)
H23 H 0.68560 0.82660 0.54480
H24 H 0.83840 0.83580 0.56020
C15 C 0.7425(4) 0.3406(4) 0.57271(10)
C16 C 0.8181(5) 0.2769(5) 0.54961(11)
H25 H 0.79590 0.29470 0.52910
C17 C 0.9260(5) 0.1874(6) 0.55642(15)
H26 H 0.97610 0.14570 0.54050
C18 C 0.9594(5) 0.1598(6) 0.58639(15)
H27 H 1.03110 0.09770 0.59090
C19 C 0.8890(5) 0.2224(6) 0.60969(14)
H28 H 0.91320 0.20460 0.63010
C20 C 0.7800(4) 0.3137(5) 0.60298(11)
H29 H 0.73210 0.35700 0.61900
#END
