
#######################################################################
#
#                 Cambridge Crystallographic Data Centre
#                                CCDC
#
#######################################################################
#
# If this CIF has been generated from an entry in the Cambridge
# Structural Database, then it will include bibliographic, chemical,
# crystal, experimental, refinement or atomic coordinate data resulting
# from the CCDC's data processing and validation procedures.
#
#######################################################################

data_CSD_CIF_FIFJUZ
_audit_creation_date 1999-07-29
_audit_creation_method CSD-ConQuest-V1
_database_code_CSD FIFJUZ
_database_code_depnum_ccdc_archive 'CCDC 127916'
_chemical_formula_sum 'C17 H19 N7 O4'
_chemical_formula_moiety
;
C17 H19 N7 O4
;
_journal_coden_Cambridge 388
_journal_volume 34
_journal_year 1998
_journal_page_first 1067
_journal_name_full 'Zh.Org.Khim.(Russ.)(Russ.J.Org.Chem.) '
loop_
_publ_author_name
"S.Siaka"
"P.M.Lukin"
"O.E.Nasakin"
"V.N.Nesterov"
"M.Yu.Antipin"
"V.N.Khrustalev"
_chemical_name_systematic
;
Ethyl 
2-amino-4,4-bis(2-isopropylideneaminoxy)-1,5,6-tricyano-3-azabicyclo(3.1.0)hex
-2-ene-6-carboxylate
;
_chemical_melting_point 448.15
_cell_volume   1056.743
_exptl_crystal_colour 'colorless'
_exptl_crystal_density_diffrn 1.211
_exptl_special_details
;
Melts with decomposition.

;
_diffrn_ambient_temperature ?
_diffrn_special_details
;
The study was carried out at room temperature,in the range 283-303K

;
#These two values have been output from a single CSD field.
_refine_ls_R_factor_gt 0.0392
_refine_ls_wR_factor_gt 0.0392
_symmetry_cell_setting triclinic
_symmetry_space_group_name_H-M 'P -1'
_symmetry_Int_Tables_number 2
loop_
_symmetry_equiv_pos_site_id
_symmetry_equiv_pos_as_xyz
1 x,y,z
2 -x,-y,-z
_cell_length_a 9.668(2)
_cell_length_b 9.825(2)
_cell_length_c 11.576(2)
_cell_angle_alpha 88.82(3)
_cell_angle_beta 74.26(3)
_cell_angle_gamma 86.86(3)
_cell_formula_units_Z 2
loop_
_atom_type_symbol
_atom_type_radius_bond
C 0.68
H 0.23
N 0.68
O 0.68
loop_
_atom_site_label
_atom_site_type_symbol
_atom_site_fract_x
_atom_site_fract_y
_atom_site_fract_z
O1 O 0.09359(12) 0.60945(11) 0.67488(9)
O2 O 0.22199(12) 0.57896(11) 0.80896(9)
O3 O 0.3084(2) 1.09631(12) 0.71483(12)
O4 O 0.3974(2) 1.01264(15) 0.86321(14)
N1 N 0.34833(14) 0.59311(12) 0.61225(11)
N2 N -0.0100(2) 0.9486(2) 0.7627(2)
N3 N 0.0912(2) 0.67555(15) 0.56232(12)
N4 N 0.1279(2) 0.65832(14) 0.90428(12)
N5 N 0.5290(2) 0.6839(2) 0.45838(13)
N6 N 0.3516(2) 1.0168(2) 0.43659(15)
N7 N 0.5262(2) 0.6999(2) 0.8206(2)
C1 C 0.2273(2) 0.80098(15) 0.70374(13)
C2 C 0.0943(2) 0.8838(2) 0.7361(2)
C3 C 0.2219(2) 0.64268(15) 0.70044(13)
C4 C -0.0334(2) 0.6754(2) 0.5459(2)
C5 C -0.0480(4) 0.7412(4) 0.4321(2)
C6 C -0.1612(3) 0.6172(5) 0.6282(3)
C7 C 0.1363(2) 0.6129(2) 1.0061(2)
C8 C 0.0436(4) 0.6890(4) 1.1116(2)
C9 C 0.2283(4) 0.4950(3) 1.0268(3)
C10 C 0.4140(2) 0.69299(14) 0.55153(13)
C11 C 0.3512(2) 0.83218(14) 0.59814(13)
C12 C 0.3492(2) 0.9404(2) 0.51230(15)
C13 C 0.3624(2) 0.8571(2) 0.72655(14)
C14 C 0.3523(2) 1.0048(2) 0.7662(2)
C15 C 0.3995(5) 1.1496(3) 0.9131(4)
C16 C 0.5438(7) 1.2023(5) 0.8639(5)
C17 C 0.4553(2) 0.7675(2) 0.77695(15)
H1 H -0.0797(34) 0.6777(33) 0.3826(30)
H2 H -0.1194(42) 0.8176(42) 0.4486(32)
H3 H 0.0430(34) 0.7768(30) 0.3867(27)
H4 H -0.2348(46) 0.6072(40) 0.6014(35)
H5 H -0.1825(42) 0.6842(41) 0.6913(36)
H6 H -0.1397(40) 0.5389(40) 0.6787(35)
H7 H 0.1046(34) 0.7332(33) 1.1505(28)
H8 H -0.0271(33) 0.6313(32) 1.1613(28)
H9 H -0.0037(33) 0.7701(34) 1.0859(28)
H10 H 0.3166(40) 0.4864(36) 0.9672(35)
H11 H 0.1848(44) 0.4178(43) 1.0204(35)
H12 H 0.2563(45) 0.4960(42) 1.0911(40)
H13 H 0.5642(21) 0.6056(23) 0.4312(17)
H14 H 0.5694(20) 0.7547(20) 0.4256(16)
H15 H 0.3278(48) 1.2169(45) 0.8808(37)
H16 H 0.3777(47) 1.1315(44) 1.0051(43)
H17 H 0.5599(45) 1.2237(43) 0.7759(41)
H18 H 0.5452(48) 1.2988(50) 0.9023(40)
H19 H 0.6342(48) 1.1374(45) 0.8738(37)
#END
