
#######################################################################
#
#                 Cambridge Crystallographic Data Centre
#                                CCDC
#
#######################################################################
#
# If this CIF has been generated from an entry in the Cambridge
# Structural Database, then it will include bibliographic, chemical,
# crystal, experimental, refinement or atomic coordinate data resulting
# from the CCDC's data processing and validation procedures.
#
#######################################################################

data_CSD_CIF_FIFPOZ
_audit_creation_date 1988-01-14
_audit_creation_method CSD-ConQuest-V1
_database_code_CSD FIFPOZ
_chemical_formula_sum 'C26 H22 N2 O9'
_chemical_formula_moiety
;
C26 H22 N2 O9
;
_journal_coden_Cambridge 24
_journal_volume 27
_journal_year 1986
_journal_page_first 5393
_journal_name_full 'Tetrahedron Lett. '
loop_
_publ_author_name
"H.Iida"
"N.Yamazaki"
"C.Kibayashi"
"H.Nagase"
_chemical_name_systematic
;
2,3-Dihydroxy-4-methoxyphenyl-4-phthalimido-n-butyl p-nitrobenzoate
;
_chemical_melting_point 473.15
_cell_volume   4772.336
_exptl_crystal_density_diffrn 1.41
_exptl_special_details
;
Melting point range 473.15-475.15K

;
_diffrn_ambient_temperature ?
_diffrn_special_details
;
The study was carried out at room temperature,in the range 283-303K

;
#These two values have been output from a single CSD field.
_refine_ls_R_factor_gt 0.088
_refine_ls_wR_factor_gt 0.088
_symmetry_cell_setting tetragonal
_symmetry_space_group_name_H-M 'P 43 21 2'
_symmetry_Int_Tables_number 96
loop_
_symmetry_equiv_pos_site_id
_symmetry_equiv_pos_as_xyz
1 x,y,z
2 1/2-y,1/2+x,3/4+z
3 -x,-y,1/2+z
4 1/2+y,1/2-x,1/4+z
5 y,x,-z
6 1/2+x,1/2-y,1/4-z
7 -y,-x,1/2-z
8 1/2-x,1/2+y,3/4-z
_cell_length_a 10.483(3)
_cell_length_b 10.483(3)
_cell_length_c 43.427(8)
_cell_angle_alpha 90
_cell_angle_beta 90
_cell_angle_gamma 90
_cell_formula_units_Z 8
loop_
_atom_type_symbol
_atom_type_radius_bond
C 0.68
N 0.68
O 0.68
loop_
_atom_site_label
_atom_site_type_symbol
_atom_site_fract_x
_atom_site_fract_y
_atom_site_fract_z
O1 O 0.4503(6) 0.2608(6) 0.0428(1)
O2 O 0.4452(6) 0.0542(6) 0.0854(1)
O3 O 0.1893(6) -0.0269(5) 0.0674(1)
O4 O -0.2275(5) -0.2188(6) 0.1671(1)
O5 O 0.4516(7) 0.2267(7) -0.0081(1)
O6 O 0.892(1) 0.7309(9) 0.0248(2)
O7 O 0.9877(9) 0.6113(9) -0.0074(3)
O8 O 0.4150(6) -0.0238(6) 0.1647(1)
O9 O 0.1353(6) 0.2862(6) 0.1353(1)
N1 N 0.8985(9) 0.6389(9) 0.0089(2)
N2 N 0.2672(6) 0.1120(6) 0.1430(1)
C1 C 0.3403(9) 0.1784(9) 0.0462(2)
C2 C 0.3410(8) 0.1400(8) 0.0802(2)
C3 C 0.2146(8) 0.0753(8) 0.0878(2)
C4 C 0.2215(7) 0.0179(7) 0.1209(2)
C5 C 0.0975(8) -0.0417(8) 0.1315(2)
C6 C -0.0197(8) 0.0216(9) 0.1308(2)
C7 C -0.1307(8) -0.0322(9) 0.1428(2)
C8 C -0.1243(8) -0.1551(8) 0.1546(2)
C9 C -0.0092(8) -0.2221(8) 0.1547(2)
C10 C 0.0993(8) -0.1652(7) 0.1434(2)
C11 C -0.3463(8) -0.1488(9) 0.1695(2)
C12 C 0.4947(9) 0.2781(9) 0.0147(2)
C13 C 0.6024(8) 0.3711(8) 0.0141(2)
C14 C 0.6946(9) 0.3574(9) -0.0093(2)
C15 C 0.794(1) 0.444(1) -0.0112(2)
C16 C 0.7930(9) 0.5420(9) 0.0099(2)
C17 C 0.702(1) 0.5625(9) 0.0326(2)
C18 C 0.6054(9) 0.4699(9) 0.0347(2)
C19 C 0.3639(7) 0.0787(8) 0.1639(2)
C20 C 0.2210(8) 0.2345(7) 0.1490(2)
C21 C 0.3007(8) 0.2854(8) 0.1749(2)
C22 C 0.292(1) 0.404(1) 0.1889(2)
C23 C 0.385(1) 0.422(1) 0.2135(2)
C24 C 0.470(1) 0.327(1) 0.2213(2)
C25 C 0.473(1) 0.207(1) 0.2072(2)
C26 C 0.3867(8) 0.1919(9) 0.1834(2)
#END
