
#######################################################################
#
#                 Cambridge Crystallographic Data Centre
#                                CCDC
#
#######################################################################
#
# If this CIF has been generated from an entry in the Cambridge
# Structural Database, then it will include bibliographic, chemical,
# crystal, experimental, refinement or atomic coordinate data resulting
# from the CCDC's data processing and validation procedures.
#
#######################################################################

data_CSD_CIF_FIFSOF
_audit_creation_date 2018-08-30
_audit_creation_method CSD-ConQuest-V1
_database_code_CSD FIFSOF
_database_code_depnum_ccdc_archive 'CCDC 1841443'
_chemical_formula_sum 'C26 H25 N1 O4'
_chemical_formula_moiety
;
C26 H25 N1 O4
;
_journal_coden_Cambridge 1336
_journal_volume 20
_journal_year 2018
_journal_page_first 5709
_journal_name_full 'Org.Lett. '
loop_
_publ_author_name
"Heyi Zhang"
"Zhan Lu"
_chemical_name_systematic
;
5-[hydroxy(4-nitrophenyl)methyl]-2-methyl-4-(4-methylphenyl)-3-phenylcyclopent
-2-en-1-ol
;
_cell_volume   2254.434
_exptl_crystal_colour 'colorless'
_exptl_crystal_density_diffrn 1.224
_exptl_special_details
;
Absolute configuration

;
_exptl_crystal_description 'block'
_diffrn_ambient_temperature 293.1
#These two values have been output from a single CSD field.
_refine_ls_R_factor_gt 0.05
_refine_ls_wR_factor_gt 0.05
_symmetry_cell_setting orthorhombic
_symmetry_space_group_name_H-M 'P 21 21 21'
_symmetry_Int_Tables_number 19
loop_
_symmetry_equiv_pos_site_id
_symmetry_equiv_pos_as_xyz
1 x,y,z
2 1/2-x,-y,1/2+z
3 1/2+x,1/2-y,-z
4 -x,1/2+y,1/2-z
_cell_length_a 8.46607(15)
_cell_length_b 14.4345(3)
_cell_length_c 18.4482(4)
_cell_angle_alpha 90
_cell_angle_beta 90
_cell_angle_gamma 90
_cell_formula_units_Z 4
loop_
_atom_type_symbol
_atom_type_radius_bond
C 0.68
H 0.23
N 0.68
O 0.68
loop_
_atom_site_label
_atom_site_type_symbol
_atom_site_fract_x
_atom_site_fract_y
_atom_site_fract_z
O1 O 0.2476(2) 0.81279(14) 0.00136(10)
H1 H 0.33795 0.81386 -0.01461
O2 O 0.0559(2) 0.68012(14) 0.04548(11)
H2 H 0.10969 0.70834 0.01583
O3 O 0.7582(7) 0.5201(6) 0.1927(3)
O4 O 0.6534(6) 0.5176(5) 0.2966(3)
N1 N 0.6499(6) 0.5351(5) 0.2324(3)
C1 C 0.2435(3) 0.85851(18) 0.07121(13)
H3 H 0.34784 0.85742 0.09418
C2 C 0.1863(3) 0.9559(2) 0.06198(15)
C3 C 0.0350(3) 0.96529(17) 0.08268(14)
C4 C -0.0331(3) 0.87274(17) 0.10781(12)
H4 H -0.09014 0.84495 0.06701
C5 C 0.1187(3) 0.81543(17) 0.12100(13)
H5 H 0.15221 0.82919 0.17069
C6 C 0.2918(4) 1.0251(3) 0.0255(2)
H6 H 0.36952 1.04685 0.05933
H7 H 0.22973 1.07647 0.00865
H8 H 0.34367 0.99636 -0.01497
C7 C -0.0604(3) 1.05069(19) 0.07772(15)
C8 C 0.0001(5) 1.1350(2) 0.1003(2)
H9 H 0.09940 1.13759 0.12175
C9 C -0.0875(7) 1.2163(3) 0.0910(3)
H10 H -0.04627 1.27283 0.10611
C10 C -0.2349(6) 1.2127(3) 0.0594(3)
H11 H -0.29157 1.26704 0.05202
C11 C -0.2973(5) 1.1308(3) 0.0391(3)
H12 H -0.39785 1.12889 0.01878
C12 C -0.2121(4) 1.0490(2) 0.0483(2)
H13 H -0.25691 0.99280 0.03471
C13 C -0.1410(3) 0.87222(17) 0.17286(13)
C14 C -0.2869(3) 0.8289(2) 0.16943(17)
H14 H -0.32215 0.80531 0.12539
C15 C -0.3807(4) 0.8202(3) 0.23007(19)
H15 H -0.47807 0.79083 0.22611
C16 C -0.3332(4) 0.8541(2) 0.29670(18)
C17 C -0.1895(4) 0.8997(2) 0.29991(16)
H16 H -0.15558 0.92439 0.34380
C18 C -0.0956(3) 0.9094(2) 0.23894(14)
H17 H -0.00044 0.94133 0.24238
C19 C -0.4361(6) 0.8402(4) 0.3630(2)
H18 H -0.54292 0.82856 0.34810
H19 H -0.43289 0.89490 0.39257
H20 H -0.39773 0.78831 0.39040
C20 C 0.0961(3) 0.71034(18) 0.11728(14)
H21 H 0.00691 0.69476 0.14889
C21 C 0.2399(3) 0.66031(17) 0.14662(13)
C22 C 0.2501(4) 0.6417(2) 0.22060(15)
H22 H 0.16667 0.65740 0.25099
C23 C 0.3834(5) 0.6001(3) 0.24917(18)
H23 H 0.38977 0.58701 0.29844
C24 C 0.5063(4) 0.5784(3) 0.2035(2)
C25 C 0.5005(4) 0.5969(3) 0.1312(2)
H24 H 0.58554 0.58264 0.10126
C26 C 0.3662(3) 0.6371(2) 0.10327(15)
H25 H 0.36061 0.64899 0.05378
#END
