
#######################################################################
#
#                 Cambridge Crystallographic Data Centre
#                                CCDC
#
#######################################################################
#
# If this CIF has been generated from an entry in the Cambridge
# Structural Database, then it will include bibliographic, chemical,
# crystal, experimental, refinement or atomic coordinate data resulting
# from the CCDC's data processing and validation procedures.
#
#######################################################################

data_CSD_CIF_FIGNIS
_audit_creation_date 1988-01-14
_audit_creation_method CSD-ConQuest-V1
_database_code_CSD FIGNIS
_database_code_depnum_ccdc_archive 'CCDC 1156106'
_chemical_formula_sum 'C18 H23 N3 O6'
_chemical_formula_moiety
;
C18 H23 N3 O6
;
_journal_coden_Cambridge 179
_journal_volume 26
_journal_year 1987
_journal_page_first 480
_journal_name_full 'Angew.Chem.,Int.Ed. '
loop_
_publ_author_name
"U.Schollkopf"
"W.Kuhnle"
"E.Egert"
"M.Dyrbusch"
_chemical_name_systematic
;
(3R,6S,1'S)-3,6-Dihydro-6-isopropyl-2,5-dimethoxy-3-(2'-nitro-1'-(3,4-methylen
edioxyphenyl)ethyl)pyrazine
;
_cell_volume   1916.633
_exptl_crystal_density_diffrn 1.308
_diffrn_ambient_temperature ?
_diffrn_special_details
;
The study was carried out at room temperature,in the range 283-303K

;
#These two values have been output from a single CSD field.
_refine_ls_R_factor_gt 0.062
_refine_ls_wR_factor_gt 0.062
_symmetry_cell_setting orthorhombic
_symmetry_space_group_name_H-M 'P 21 21 21'
_symmetry_Int_Tables_number 19
loop_
_symmetry_equiv_pos_site_id
_symmetry_equiv_pos_as_xyz
1 x,y,z
2 1/2+x,1/2-y,-z
3 -x,1/2+y,1/2-z
4 1/2-x,-y,1/2+z
_cell_length_a 7.326(1)
_cell_length_b 9.645(1)
_cell_length_c 27.125(2)
_cell_angle_alpha 90
_cell_angle_beta 90
_cell_angle_gamma 90
_cell_formula_units_Z 4
loop_
_atom_type_symbol
_atom_type_radius_bond
C 0.68
H 0.23
N 0.68
O 0.68
loop_
_atom_site_label
_atom_site_type_symbol
_atom_site_fract_x
_atom_site_fract_y
_atom_site_fract_z
N1 N 0.6564(5) 0.4127(4) 0.3064(1)
C1 C 0.6026(6) 0.3398(5) 0.3414(2)
C2 C 0.4244(5) 0.3494(4) 0.3697(2)
N2 N 0.2935(5) 0.4440(4) 0.3479(1)
C3 C 0.3518(6) 0.5228(5) 0.3144(2)
C4 C 0.5394(6) 0.5266(5) 0.2911(2)
O1 O 0.7013(4) 0.2321(3) 0.3593(1)
C5 C 0.8747(6) 0.2081(6) 0.3364(2)
O2 O 0.2430(4) 0.6213(3) 0.2947(1)
C6 C 0.0615(6) 0.6309(7) 0.3151(2)
C7 C 0.5281(6) 0.5327(5) 0.2344(2)
C8 C 0.7159(8) 0.5428(7) 0.2119(2)
C9 C 0.4209(9) 0.4111(6) 0.2137(2)
C10 C 0.4585(5) 0.3899(5) 0.4243(2)
C11 C 0.5458(5) 0.5319(5) 0.4286(2)
C12 C 0.4411(5) 0.6514(5) 0.4287(2)
C13 C 0.5209(6) 0.7835(6) 0.4319(2)
C14 C 0.7045(6) 0.7888(5) 0.4354(2)
C15 C 0.8091(5) 0.6713(5) 0.4361(2)
C16 C 0.7339(5) 0.5422(5) 0.4329(2)
O3 O 0.8119(5) 0.9052(3) 0.4404(1)
O4 O 0.9902(4) 0.7078(4) 0.4404(1)
C17 C 0.9965(6) 0.8562(6) 0.4385(2)
C18 C 0.2829(6) 0.3784(5) 0.4539(2)
N3 N 0.2097(8) 0.2341(6) 0.4547(2)
O5 O 0.0485(7) 0.2207(6) 0.4523(2)
O6 O 0.3141(8) 0.1385(5) 0.4578(2)
H1 H 0.37180 0.25830 0.36820
H2 H 0.59480 0.61070 0.30280
H3 H 0.92830 0.12660 0.35070
H4 H 0.95150 0.28670 0.34280
H5 H 0.86260 0.19560 0.30140
H6 H -0.00030 0.70860 0.30060
H7 H 0.08220 0.64860 0.34950
H8 H -0.01220 0.54920 0.31150
H9 H 0.46280 0.61520 0.22550
H10 H 0.76760 0.63000 0.22160
H11 H 0.63390 0.54160 0.17680
H12 H 0.79650 0.46900 0.22130
H13 H 0.30120 0.40550 0.22800
H14 H 0.48580 0.32640 0.22000
H15 H 0.41060 0.42530 0.17880
H16 H 0.54420 0.32560 0.43830
H17 H 0.31080 0.64380 0.42640
H18 H 0.44820 0.86620 0.43170
H19 H 0.80910 0.46070 0.43360
H20 H 1.06410 0.89140 0.46610
H21 H 1.05350 0.88580 0.40840
H22 H 0.19310 0.43830 0.43940
H23 H 0.30640 0.40740 0.48710
#END
