
#######################################################################
#
#                 Cambridge Crystallographic Data Centre
#                                CCDC
#
#######################################################################
#
# If this CIF has been generated from an entry in the Cambridge
# Structural Database, then it will include bibliographic, chemical,
# crystal, experimental, refinement or atomic coordinate data resulting
# from the CCDC's data processing and validation procedures.
#
#######################################################################

data_CSD_CIF_FIGZUQ
_audit_creation_date 1988-01-14
_audit_creation_method CSD-ConQuest-V1
_database_code_CSD FIGZUQ
_chemical_formula_sum 'C22 H22 N4 O7'
_chemical_formula_moiety
;
C22 H22 N4 O7
;
_journal_coden_Cambridge 455
_journal_volume 106
_journal_year 1986
_journal_page_first 867
_journal_name_full 'Yakugaku Zasshi(Jap.)(J.Pharm.Soc.Jpn.) '
loop_
_publ_author_name
"H.Takayanagi"
"S.Munemura"
"M.Goto"
"H.Ogura"
"M.Onda"
_chemical_name_systematic
;
5,5-Diethyl-1,3-bis(p-nitrobenzyl)barbituric acid
;
_chemical_melting_point 464.15
_cell_volume   2219.351
_exptl_crystal_density_diffrn 1.359
_exptl_special_details
;
Melting point range 464.15-466.15K

;
_diffrn_ambient_temperature ?
_diffrn_special_details
;
The study was carried out at room temperature,in the range 283-303K

;
#These two values have been output from a single CSD field.
_refine_ls_R_factor_gt 0.099
_refine_ls_wR_factor_gt 0.099
_symmetry_cell_setting monoclinic
_symmetry_space_group_name_H-M 'P 21/n'
_symmetry_Int_Tables_number 14
loop_
_symmetry_equiv_pos_site_id
_symmetry_equiv_pos_as_xyz
1 x,y,z
2 1/2-x,1/2+y,1/2-z
3 -x,-y,-z
4 -1/2+x,-1/2-y,-1/2+z
_cell_length_a 14.650(1)
_cell_length_b 16.009(1)
_cell_length_c 9.549(1)
_cell_angle_alpha 90
_cell_angle_beta 97.70(1)
_cell_angle_gamma 90
_cell_formula_units_Z 4
loop_
_atom_type_symbol
_atom_type_radius_bond
C 0.68
N 0.68
O 0.68
loop_
_atom_site_label
_atom_site_type_symbol
_atom_site_fract_x
_atom_site_fract_y
_atom_site_fract_z
O1 O 0.2722(4) 0.2360(3) 0.1571(7)
O2 O 0.4613(4) 0.0172(4) 0.2737(7)
O3 O 0.1518(4) -0.0214(4) 0.0775(7)
O4 O 0.4356(6) 0.2179(6) 0.9459(9)
O5 O 0.3639(6) 0.3305(5) 0.8749(9)
O6 O 0.0651(6) 0.0963(5) -0.6186(8)
O7 O 0.1514(7) 0.2016(6) -0.5999(11)
N1 N 0.3653(4) 0.1269(4) 0.2224(7)
N2 N 0.2118(4) 0.1073(4) 0.1155(7)
N3 N 0.4051(6) 0.2659(5) 0.8551(10)
N4 N 0.1093(6) 0.1493(5) -0.5451(9)
C1 C 0.2831(5) 0.1621(4) 0.1654(9)
C2 C 0.3866(5) 0.0430(5) 0.2273(10)
C3 C 0.3092(6) -0.0184(5) 0.1694(10)
C4 C 0.2177(6) 0.0213(5) 0.1214(10)
C5 C 0.4394(6) 0.1847(5) 0.2833(9)
C6 C 0.4302(5) 0.2072(5) 0.4334(9)
C7 C 0.4532(6) 0.1484(5) 0.539(1)
C8 C 0.4454(7) 0.1679(6) 0.6755(10)
C9 C 0.4124(6) 0.2463(6) 0.7041(10)
C10 C 0.3895(6) 0.3051(5) 0.6032(11)
C11 C 0.3983(5) 0.2848(5) 0.469(1)
C12 C 0.1237(5) 0.1447(5) 0.0516(9)
C13 C 0.1140(5) 0.1466(5) -0.1052(9)
C14 C 0.0647(6) 0.0895(5) -0.1874(10)
C15 C 0.0596(7) 0.0894(6) -0.3352(11)
C16 C 0.1106(7) 0.1481(6) -0.3937(10)
C17 C 0.1591(7) 0.2081(6) -0.3165(11)
C18 C 0.1635(6) 0.2078(5) -0.1712(10)
C19 C 0.3005(7) -0.0808(6) 0.2902(13)
C20 C 0.2722(10) -0.0421(9) 0.4155(16)
C21 C 0.3420(8) -0.0647(6) 0.0425(14)
C22 C 0.3492(9) -0.0099(9) -0.0844(16)
#END
