
#######################################################################
#
#                 Cambridge Crystallographic Data Centre
#                                CCDC
#
#######################################################################
#
# If this CIF has been generated from an entry in the Cambridge
# Structural Database, then it will include bibliographic, chemical,
# crystal, experimental, refinement or atomic coordinate data resulting
# from the CCDC's data processing and validation procedures.
#
#######################################################################

data_CSD_CIF_FIHMIT
_audit_creation_date 2005-06-02
_audit_creation_method CSD-ConQuest-V1
_database_code_CSD FIHMIT
_database_code_depnum_ccdc_archive 'CCDC 225851 (not 255851 as published)'
_chemical_formula_sum 'C8 H8 N2 O6'
_chemical_formula_moiety
;
C8 H8 N2 O6
;
_journal_coden_Cambridge 423
_journal_year 2004
_journal_page_first 670
_journal_name_full 'J.Chem.Res. '
loop_
_publ_author_name
"J.R.Hanson"
"P.B.Hitchcock"
_chemical_name_systematic
;
1,2-Dimethoxy-4,5-dinitrobenzene
;
_cell_volume    960.595
_exptl_crystal_colour 'yellow'
_exptl_crystal_density_diffrn 1.578
_exptl_crystal_description 'needle'
_diffrn_ambient_temperature 173
#These two values have been output from a single CSD field.
_refine_ls_R_factor_gt 0.044
_refine_ls_wR_factor_gt 0.044
_symmetry_cell_setting monoclinic
_symmetry_space_group_name_H-M 'P 21/n'
_symmetry_Int_Tables_number 14
loop_
_symmetry_equiv_pos_site_id
_symmetry_equiv_pos_as_xyz
1 x,y,z
2 1/2-x,1/2+y,1/2-z
3 -x,-y,-z
4 -1/2+x,-1/2-y,-1/2+z
_cell_length_a 4.4627(5)
_cell_length_b 26.082(3)
_cell_length_c 8.4270(8)
_cell_angle_alpha 90
_cell_angle_beta 101.670(6)
_cell_angle_gamma 90
_cell_formula_units_Z 4
loop_
_atom_type_symbol
_atom_type_radius_bond
C 0.68
H 0.23
N 0.68
O 0.68
loop_
_atom_site_label
_atom_site_type_symbol
_atom_site_fract_x
_atom_site_fract_y
_atom_site_fract_z
O1 O 0.3597(4) 0.11759(7) 1.0432(2)
O2 O 0.2289(5) 0.03153(7) 0.8971(2)
O3 O -0.6346(6) 0.06756(9) 0.4347(3)
O4 O -0.8124(5) 0.14061(8) 0.4916(2)
O5 O -0.3880(5) 0.21903(8) 0.5208(3)
O6 O -0.5310(5) 0.23530(8) 0.7467(3)
N1 N -0.6190(6) 0.10658(10) 0.5155(3)
N2 N -0.4146(6) 0.20792(9) 0.6585(3)
C1 C -0.3582(6) 0.11234(10) 0.6503(3)
C2 C -0.2790(6) 0.15884(10) 0.7242(3)
C3 C -0.0431(7) 0.16233(11) 0.8596(3)
H1 H 0.011(7) 0.1944(12) 0.905(3)
C4 C 0.1219(6) 0.11893(10) 0.9158(3)
C5 C 0.0476(7) 0.07151(10) 0.8370(3)
C6 C -0.1957(7) 0.06851(11) 0.7071(3)
H2 H -0.244(6) 0.0374(10) 0.658(3)
C7 C 0.4406(9) 0.16422(12) 1.1337(4)
H3 H 0.621(7) 0.1537(10) 1.217(3)
H4 H 0.485(6) 0.1924(11) 1.064(3)
H5 H 0.260(8) 0.1752(12) 1.186(4)
C8 C 0.1705(9) -0.01674(11) 0.8136(4)
H6 H -0.039(8) -0.0296(11) 0.818(3)
H7 H 0.327(7) -0.0403(11) 0.868(4)
H8 H 0.190(6) -0.0141(10) 0.695(4)
#END
