
#######################################################################
#
#                 Cambridge Crystallographic Data Centre
#                                CCDC
#
#######################################################################
#
# If this CIF has been generated from an entry in the Cambridge
# Structural Database, then it will include bibliographic, chemical,
# crystal, experimental, refinement or atomic coordinate data resulting
# from the CCDC's data processing and validation procedures.
#
#######################################################################

data_CSD_CIF_FIHWAX
_audit_creation_date 2018-08-31
_audit_creation_method CSD-ConQuest-V1
_database_code_CSD FIHWAX
_database_code_depnum_ccdc_archive 'CCDC 1826163'
_chemical_formula_sum 'C25 H21 N3 O2'
_chemical_formula_moiety
;
C25 H21 N3 O2
;
_journal_coden_Cambridge 1336
_journal_volume 20
_journal_year 2018
_journal_page_first 5845
_journal_name_full 'Org.Lett. '
loop_
_publ_author_name
"Ningning Lv"
"Zhengkai Chen"
"Yue Liu"
"Zhanxiang Liu"
"Yuhong Zhang"
_chemical_name_systematic
;
2'-(N-hydroxyethanimidoyl)-3-methyl-N-(quinolin-8-yl)[1,1'-biphenyl]-2-carboxa
mide
;
_cell_volume   2058.246
_exptl_crystal_colour 'light yellow'
_exptl_crystal_density_diffrn 1.276
_exptl_crystal_description 'block'
_diffrn_ambient_temperature 293.1
#These two values have been output from a single CSD field.
_refine_ls_R_factor_gt 0.0423
_refine_ls_wR_factor_gt 0.0423
_symmetry_cell_setting orthorhombic
_symmetry_space_group_name_H-M 'P n a 21'
_symmetry_Int_Tables_number 33
loop_
_symmetry_equiv_pos_site_id
_symmetry_equiv_pos_as_xyz
1 x,y,z
2 -x,-y,1/2+z
3 1/2-x,1/2+y,1/2+z
4 1/2+x,1/2-y,z
_cell_length_a 8.3711(5)
_cell_length_b 13.4125(9)
_cell_length_c 18.3318(11)
_cell_angle_alpha 90
_cell_angle_beta 90
_cell_angle_gamma 90
_cell_formula_units_Z 4
loop_
_atom_type_symbol
_atom_type_radius_bond
C 0.68
H 0.23
N 0.68
O 0.68
loop_
_atom_site_label
_atom_site_type_symbol
_atom_site_fract_x
_atom_site_fract_y
_atom_site_fract_z
O1 O 0.2105(3) 0.59387(18) 0.42241(12)
O2 O -0.2093(3) 0.3572(2) 0.77346(13)
H1 H -0.22658 0.36006 0.81744
N1 N 0.0769(3) 0.2496(2) 0.48013(16)
N2 N 0.1120(3) 0.4420(2) 0.45388(15)
H2 H 0.04737 0.41394 0.48399
N3 N -0.0595(3) 0.4014(2) 0.75801(14)
C1 C 0.0555(5) 0.1541(3) 0.4941(2)
H3 H -0.00885 0.13679 0.53349
C2 C 0.1241(6) 0.0774(3) 0.4532(3)
H4 H 0.10718 0.01111 0.46592
C3 C 0.2146(6) 0.1004(4) 0.3953(3)
H5 H 0.25986 0.04988 0.36737
C4 C 0.2413(4) 0.2009(3) 0.3765(2)
C5 C 0.1703(4) 0.2734(3) 0.42161(19)
C6 C 0.1928(4) 0.3765(3) 0.40608(18)
C7 C 0.2831(4) 0.4041(3) 0.3479(2)
H6 H 0.29819 0.47129 0.33745
C8 C 0.3541(5) 0.3301(4) 0.3033(2)
H7 H 0.41604 0.34961 0.26365
C9 C 0.3342(5) 0.2322(4) 0.3168(2)
H8 H 0.38193 0.18514 0.28655
C10 C 0.1213(4) 0.5422(2) 0.45926(17)
C11 C 0.0079(4) 0.5878(2) 0.51402(16)
C12 C -0.1165(4) 0.6479(2) 0.48708(17)
C13 C -0.2222(4) 0.6901(3) 0.5359(2)
H9 H -0.30674 0.72822 0.51845
C14 C -0.2052(4) 0.6769(3) 0.6101(2)
H10 H -0.27635 0.70721 0.64211
C15 C -0.0829(4) 0.6188(3) 0.63659(18)
H11 H -0.07239 0.60995 0.68667
C16 C 0.0259(4) 0.5730(2) 0.58946(16)
C17 C 0.1620(4) 0.5158(2) 0.62194(16)
C18 C 0.1366(4) 0.4398(3) 0.67260(16)
C19 C 0.2671(4) 0.3971(3) 0.70763(19)
H12 H 0.25034 0.34586 0.74094
C20 C 0.4203(4) 0.4290(3) 0.6941(2)
H13 H 0.50594 0.40051 0.71882
C21 C 0.4461(4) 0.5037(3) 0.6436(2)
H14 H 0.54955 0.52500 0.63358
C22 C 0.3176(4) 0.5467(3) 0.6079(2)
H15 H 0.33566 0.59701 0.57400
C23 C -0.1389(5) 0.6674(3) 0.40662(19)
H16 H -0.07485 0.72345 0.39231
H17 H -0.24930 0.68142 0.39699
H18 H -0.10664 0.60962 0.37940
C24 C -0.0266(4) 0.3999(2) 0.68994(17)
C25 C -0.1308(4) 0.3584(3) 0.63208(18)
H19 H -0.22524 0.33067 0.65380
H20 H -0.07432 0.30710 0.60620
H21 H -0.16034 0.41043 0.59876
#END
