
#######################################################################
#
#                 Cambridge Crystallographic Data Centre
#                                CCDC
#
#######################################################################
#
# If this CIF has been generated from an entry in the Cambridge
# Structural Database, then it will include bibliographic, chemical,
# crystal, experimental, refinement or atomic coordinate data resulting
# from the CCDC's data processing and validation procedures.
#
#######################################################################

data_CSD_CIF_FIJFIN
_audit_creation_date 1988-01-14
_audit_creation_method CSD-ConQuest-V1
_database_code_CSD FIJFIN
_database_code_depnum_ccdc_archive 'CCDC 1156277'
_chemical_formula_sum 'C29 H41 N1 O2'
_chemical_formula_moiety
;
C29 H41 N1 O2
;
_journal_coeditor_code "IUCr A27003"
_journal_coden_Cambridge 591
_journal_volume 43
_journal_year 1987
_journal_page_first 748
_journal_name_full 'Acta Crystallogr.,Sect.C:Cryst.Struct.Commun. '
loop_
_publ_author_name
"T.Taga"
"T.Miyasaka"
_chemical_name_systematic
;
O-Palmitoylbenzophenone oxime
;
_chemical_name_common
;
Diphenylmethyleneamino palmitate
;
_cell_volume   1305.730
_exptl_crystal_colour 'colorless'
_exptl_crystal_density_diffrn 1.108
_diffrn_ambient_temperature ?
_diffrn_special_details
;
The study was carried out at room temperature,in the range 283-303K

;
#These two values have been output from a single CSD field.
_refine_ls_R_factor_gt 0.058
_refine_ls_wR_factor_gt 0.058
_symmetry_cell_setting triclinic
_symmetry_space_group_name_H-M 'P -1'
_symmetry_Int_Tables_number 2
loop_
_symmetry_equiv_pos_site_id
_symmetry_equiv_pos_as_xyz
1 x,y,z
2 -x,-y,-z
_cell_length_a 5.764(4)
_cell_length_b 8.997(3)
_cell_length_c 25.576(7)
_cell_angle_alpha 81.79(2)
_cell_angle_beta 84.62(3)
_cell_angle_gamma 86.78(4)
_cell_formula_units_Z 2
loop_
_atom_type_symbol
_atom_type_radius_bond
C 0.68
H 0.23
N 0.68
O 0.68
loop_
_atom_site_label
_atom_site_type_symbol
_atom_site_fract_x
_atom_site_fract_y
_atom_site_fract_z
N1 N 1.5510(2) 0.2740(2) 0.1435(1)
C1 C 1.6687(3) 0.1777(2) 0.1183(1)
C2 C 1.8638(3) 0.2395(2) 0.0805(1)
C3 C 1.9854(3) 0.3593(2) 0.0907(1)
C4 C 2.1716(3) 0.4115(2) 0.0564(1)
C5 C 2.2341(3) 0.3481(2) 0.0110(1)
C6 C 2.1118(4) 0.2322(2) -0.0003(1)
C7 C 1.9277(3) 0.1762(2) 0.0346(1)
C8 C 1.6304(3) 0.0133(2) 0.1239(1)
C9 C 1.7969(3) -0.0877(2) 0.1459(1)
C10 C 1.7657(4) -0.2413(2) 0.1513(1)
C11 C 1.5729(4) -0.2941(2) 0.1337(1)
C12 C 1.4105(3) -0.1948(2) 0.1109(1)
C13 C 1.4367(3) -0.0407(2) 0.1062(1)
O1 O 1.3737(2) 0.2001(1) 0.17950
C14 C 1.2303(3) 0.2987(2) 0.2049(1)
O2 O 1.2504(2) 0.4305(1) 0.1989(1)
C15 C 1.0471(3) 0.2122(2) 0.2400(1)
C16 C 0.8634(3) 0.3095(2) 0.2669(1)
C17 C 0.6967(3) 0.2158(2) 0.3062(1)
C18 C 0.5132(3) 0.3084(2) 0.3355(1)
C19 C 0.3565(3) 0.2131(2) 0.3769(1)
C20 C 0.1719(3) 0.3032(2) 0.4070(1)
C21 C 0.0183(3) 0.2074(2) 0.4484(1)
C22 C -0.1679(3) 0.2972(2) 0.4783(1)
C23 C -0.3215(2) 0.2023(2) 0.5198(1)
C24 C -0.5060(3) 0.2928(2) 0.5497(1)
C25 C -0.6597(3) 0.1985(2) 0.5917(1)
C26 C -0.8405(3) 0.2899(2) 0.6219(1)
C27 C -0.9965(3) 0.1992(2) 0.6637(1)
C28 C -1.1793(4) 0.2925(2) 0.6924(1)
C29 C -1.3424(5) 0.2037(3) 0.7328(1)
H1 H 1.938(3) 0.404(2) 0.122(1)
H2 H 2.258(4) 0.494(2) 0.064(1)
H3 H 2.369(3) 0.384(2) -0.014(1)
H4 H 2.153(4) 0.187(2) -0.033(1)
H5 H 1.841(3) 0.098(2) 0.027(1)
H6 H 1.934(3) -0.050(2) 0.158(1)
H7 H 1.886(4) -0.309(2) 0.167(1)
H8 H 1.553(3) -0.399(2) 0.137(1)
H9 H 1.277(4) -0.232(3) 0.099(1)
H10 H 1.311(4) 0.021(3) 0.094(1)
H11 H 1.127(4) 0.145(2) 0.267(1)
H12 H 0.979(4) 0.146(2) 0.219(1)
H13 H 0.932(3) 0.382(2) 0.284(1)
H14 H 0.775(3) 0.372(2) 0.239(1)
H15 H 0.787(3) 0.153(2) 0.332(1)
H16 H 0.623(3) 0.148(2) 0.287(1)
H17 H 0.594(3) 0.375(2) 0.354(1)
H18 H 0.417(3) 0.372(2) 0.309(1)
H19 H 0.455(3) 0.151(2) 0.402(1)
H20 H 0.286(3) 0.136(2) 0.360(1)
H21 H 0.246(3) 0.375(2) 0.422(1)
H22 H 0.077(4) 0.368(2) 0.381(1)
H23 H 0.117(3) 0.144(2) 0.474(1)
H24 H -0.052(4) 0.131(2) 0.432(1)
H25 H -0.093(4) 0.368(2) 0.496(1)
H26 H -0.261(3) 0.362(2) 0.453(1)
H27 H -0.227(3) 0.142(2) 0.544(1)
H28 H -0.397(3) 0.132(2) 0.503(1)
H29 H -0.429(4) 0.362(3) 0.569(1)
H30 H -0.607(3) 0.352(2) 0.525(1)
H31 H -0.561(4) 0.142(3) 0.617(1)
H32 H -0.730(4) 0.127(3) 0.576(1)
H33 H -0.764(4) 0.359(3) 0.640(1)
H34 H -0.934(4) 0.356(3) 0.599(1)
H35 H -1.087(4) 0.124(3) 0.651(1)
H36 H -0.916(4) 0.136(3) 0.692(1)
H37 H -1.100(4) 0.363(3) 0.710(1)
H38 H -1.273(4) 0.353(3) 0.666(1)
H39 H -1.424(4) 0.131(3) 0.717(1)
H40 H -1.250(4) 0.146(3) 0.762(1)
H41 H -1.460(4) 0.273(3) 0.750(1)
#END
