
#######################################################################
#
#                 Cambridge Crystallographic Data Centre
#                                CCDC
#
#######################################################################
#
# If this CIF has been generated from an entry in the Cambridge
# Structural Database, then it will include bibliographic, chemical,
# crystal, experimental, refinement or atomic coordinate data resulting
# from the CCDC's data processing and validation procedures.
#
#######################################################################

data_CSD_CIF_FIJFEJ
_audit_creation_date 1988-01-14
_audit_creation_method CSD-ConQuest-V1
_database_code_CSD FIJFEJ
_database_code_depnum_ccdc_archive 'CCDC 1156276'
_chemical_formula_sum 'C19 H20 N2 O6'
_chemical_formula_moiety
;
C19 H20 N2 O6
;
_journal_coeditor_code "IUCr A26987"
_journal_coden_Cambridge 591
_journal_volume 43
_journal_year 1987
_journal_page_first 707
_journal_name_full 'Acta Crystallogr.,Sect.C:Cryst.Struct.Commun. '
loop_
_publ_author_name
"D.A.Langs"
"P.D.Strong"
"D.J.Triggle"
_chemical_name_systematic
;
Dimethyl 
2,6-dimethyl-4-(trans(2-nitrophenyl)ethylene)-1,4-dihydropyridine-3,5-dicarbox
ylate
;
_cell_volume   1848.286
_exptl_crystal_colour 'yellow'
_exptl_crystal_density_diffrn 1.34
_diffrn_ambient_temperature ?
_diffrn_special_details
;
The study was carried out at room temperature,in the range 283-303K

;
#These two values have been output from a single CSD field.
_refine_ls_R_factor_gt 0.057
_refine_ls_wR_factor_gt 0.057
_symmetry_cell_setting orthorhombic
_symmetry_space_group_name_H-M 'P 21 21 21'
_symmetry_Int_Tables_number 19
loop_
_symmetry_equiv_pos_site_id
_symmetry_equiv_pos_as_xyz
1 x,y,z
2 1/2+x,1/2-y,-z
3 -x,1/2+y,1/2-z
4 1/2-x,-y,1/2+z
_cell_length_a 8.429(1)
_cell_length_b 29.105(3)
_cell_length_c 7.534(1)
_cell_angle_alpha 90
_cell_angle_beta 90
_cell_angle_gamma 90
_cell_formula_units_Z 4
loop_
_atom_type_symbol
_atom_type_radius_bond
C 0.68
H 0.23
N 0.68
O 0.68
loop_
_atom_site_label
_atom_site_type_symbol
_atom_site_fract_x
_atom_site_fract_y
_atom_site_fract_z
N1 N 0.6224(3) 0.0946(1) 0.4344(3)
C1 C 0.5204(3) 0.1046(1) 0.5716(3)
C2 C 0.5735(2) 0.0998(1) 0.7417(3)
C3 C 0.7493(3) 0.0921(1) 0.7727(3)
C4 C 0.8212(3) 0.0648(1) 0.6219(3)
C5 C 0.7619(3) 0.0698(1) 0.4555(3)
C6 C 1.0025(3) 0.2031(1) 0.7094(3)
C7 C 1.0059(5) 0.2242(1) 0.8763(5)
C8 C 1.0665(6) 0.2682(1) 0.9011(6)
C9 C 1.1312(5) 0.2920(1) 0.7603(6)
C10 C 1.1321(5) 0.2725(1) 0.5952(6)
C11 C 1.0690(4) 0.2286(1) 0.5699(4)
C12 C 0.8268(3) 0.1388(1) 0.7951(3)
C13 C 0.9351(3) 0.1566(1) 0.6898(3)
C14 C 0.3598(4) 0.1205(1) 0.5110(4)
C15 C 0.4778(3) 0.1058(1) 0.9014(3)
C16 C 0.2272(4) 0.1183(2) 1.0311(4)
C17 C 0.9638(3) 0.0371(1) 0.6549(4)
C18 C 1.1296(5) 0.0055(2) 0.8760(7)
C19 C 0.8285(4) 0.0512(1) 0.2858(4)
N2 N 1.0800(4) 0.2093(1) 0.3880(4)
O1 O 1.0007(5) 0.1793(1) 0.3400(3)
O2 O 1.1969(6) 0.2209(2) 0.2967(6)
O3 O 0.5350(2) 0.1062(1) 1.0496(2)
O4 O 0.3224(2) 0.1107(1) 0.8747(2)
O5 O 1.0489(4) 0.0200(1) 0.5452(4)
O6 O 0.9918(3) 0.0327(1) 0.8297(3)
H1 H 0.594(6) 0.096(1) 0.339(7)
H2 H 0.762(5) 0.071(1) 0.858(5)
H3 H 0.969(8) 0.211(2) 0.96(1)
H4 H 1.092(10) 0.286(3) 1.018(13)
H5 H 1.156(5) 0.322(1) 0.786(5)
H6 H 1.164(6) 0.286(1) 0.481(7)
H7 H 0.807(6) 0.152(1) 0.921(7)
H8 H 0.966(6) 0.136(1) 0.589(8)
H9 H 0.314(7) 0.103(2) 0.498(9)
H10 H 0.313(6) 0.143(2) 0.598(7)
H11 H 0.372(6) 0.137(1) 0.408(7)
H12 H 0.258(5) 0.151(1) 1.088(6)
H13 H 0.103(8) 0.119(2) 0.994(9)
H14 H 0.244(6) 0.094(1) 1.118(7)
H15 H 1.235(10) 0.023(3) 0.833(13)
H16 H 1.129(6) 0.003(2) 1.024(8)
H17 H 1.125(5) -0.027(1) 0.816(6)
H18 H 0.917(11) 0.074(3) 0.233(13)
H19 H 0.883(11) 0.018(3) 0.309(11)
H20 H 0.739(7) 0.048(2) 0.202(8)
#END
