
#######################################################################
#
#                 Cambridge Crystallographic Data Centre
#                                CCDC
#
#######################################################################
#
# If this CIF has been generated from an entry in the Cambridge
# Structural Database, then it will include bibliographic, chemical,
# crystal, experimental, refinement or atomic coordinate data resulting
# from the CCDC's data processing and validation procedures.
#
#######################################################################

data_CSD_CIF_FIJPIZ
_audit_creation_date 2013-08-10
_audit_creation_method CSD-ConQuest-V1
_database_code_CSD FIJPIZ
_database_code_depnum_ccdc_archive 'CCDC 948627'
_chemical_formula_sum 'C14 H15 N1 O5'
_chemical_formula_moiety
;
C14 H15 N1 O5
;
_journal_coden_Cambridge 920
_journal_volume 8
_journal_year 2013
_journal_page_first 2859
_journal_name_full 'Chem.Asian J. '
loop_
_publ_author_name
"Haijian Yu"
"Qiaohui Wang"
"Youming Wang"
"Haibing Song"
"Zhenghong Zhou"
"Chuchi Tang"
_chemical_name_systematic
;
Isopropyl 2-((1R,2R,3R)-2-nitro-3-phenylcyclopropyl)-2-oxoacetate
;
_chemical_melting_point 323.15
_cell_volume    724.456
_exptl_crystal_colour 'colorless'
_exptl_crystal_density_diffrn 1.271
_exptl_special_details
;
Melting point range 323.15-324.15K

;
_exptl_crystal_description 'prism'
_diffrn_ambient_temperature 293
#These two values have been output from a single CSD field.
_refine_ls_R_factor_gt 0.0624
_refine_ls_wR_factor_gt 0.0624
_symmetry_cell_setting monoclinic
_symmetry_space_group_name_H-M 'P 21'
_symmetry_Int_Tables_number 4
loop_
_symmetry_equiv_pos_site_id
_symmetry_equiv_pos_as_xyz
1 x,y,z
2 -x,1/2+y,-z
_cell_length_a 10.070(2)
_cell_length_b 6.7473(13)
_cell_length_c 11.122(2)
_cell_angle_alpha 90
_cell_angle_beta 106.53(3)
_cell_angle_gamma 90
_cell_formula_units_Z 2
loop_
_atom_type_symbol
_atom_type_radius_bond
C 0.68
H 0.23
N 0.68
O 0.68
loop_
_atom_site_label
_atom_site_type_symbol
_atom_site_fract_x
_atom_site_fract_y
_atom_site_fract_z
O1 O 0.8182(3) 0.6460(4) 0.1577(2)
O2 O 0.6949(3) 0.4896(4) 0.4033(2)
O3 O 0.7722(2) 0.7909(3) 0.36434(18)
O4 O 0.5260(3) 0.0556(5) 0.0366(3)
O5 O 0.5515(2) 0.1672(6) -0.1397(2)
N1 N 0.5852(2) 0.1559(5) -0.0240(3)
C1 C 0.7181(2) 0.3300(4) 0.1755(2)
H1 H 0.64180 0.28140 0.20590
C2 C 0.7092(2) 0.2727(5) 0.0440(3)
H2 H 0.74560 0.36750 -0.00550
C3 C 0.8139(2) 0.1653(5) 0.1483(2)
H3 H 0.78400 0.03150 0.16290
C4 C 0.7637(2) 0.5360(5) 0.2148(2)
C5 C 0.7386(3) 0.6012(4) 0.3397(3)
C6 C 0.7574(4) 0.8717(6) 0.4838(3)
H4 H 0.77100 0.76530 0.54610
C7 C 0.8720(5) 1.0237(9) 0.5263(4)
H5 H 0.95940 0.96320 0.53030
H6 H 0.87360 1.07250 0.60780
H7 H 0.85560 1.13180 0.46780
C8 C 0.6146(5) 0.9562(10) 0.4604(5)
H8 H 0.54730 0.85620 0.42410
H9 H 0.60370 1.06630 0.40380
H10 H 0.60130 1.00020 0.53820
C9 C 0.9670(2) 0.1794(5) 0.1654(2)
C10 C 1.0287(3) 0.3283(7) 0.1136(3)
H11 H 0.97540 0.43030 0.06790
C11 C 1.1716(3) 0.3234(10) 0.1307(4)
H12 H 1.21270 0.42330 0.09600
C12 C 1.2529(3) 0.1744(10) 0.1977(3)
H13 H 1.34790 0.17310 0.20810
C13 C 1.1926(3) 0.0292(8) 0.2485(3)
H14 H 1.24720 -0.07150 0.29460
C14 C 1.0501(3) 0.0285(6) 0.2327(3)
H15 H 1.01050 -0.07310 0.26720
#END
