
#######################################################################
#
#                 Cambridge Crystallographic Data Centre
#                                CCDC
#
#######################################################################
#
# If this CIF has been generated from an entry in the Cambridge
# Structural Database, then it will include bibliographic, chemical,
# crystal, experimental, refinement or atomic coordinate data resulting
# from the CCDC's data processing and validation procedures.
#
#######################################################################

data_CSD_CIF_FIJQOG
_audit_creation_date 2013-08-12
_audit_creation_method CSD-ConQuest-V1
_database_code_CSD FIJQOG
_database_code_depnum_ccdc_archive 'CCDC 917434'
_chemical_formula_sum 'C33 H46 N4 O4'
_chemical_formula_moiety
;
C33 H46 N4 O4
;
_journal_coden_Cambridge 1127
_journal_volume 23
_journal_year 2013
_journal_page_first 4806
_journal_name_full 'Bioorg.Med.Chem.Lett. '
loop_
_publ_author_name
"Chun Yang"
"Yonghua Shao"
"Xiaoyan Zhi"
"Qu Huan"
"Xiang Yu"
"Xiaojun Yao"
"Hui Xu"
_chemical_name_systematic
;
3-((2,4-Dinitrophenyl)hydrazono)cholesta-4,6-diene
;
_cell_volume   1529.304
_exptl_crystal_colour 'light brown'
_exptl_crystal_density_diffrn 1.222
_exptl_special_details
;
insecticidal activity

;
_exptl_crystal_description 'needle'
_diffrn_ambient_temperature 292.7
#These two values have been output from a single CSD field.
_refine_ls_R_factor_gt 0.0367
_refine_ls_wR_factor_gt 0.0367
_symmetry_cell_setting monoclinic
_symmetry_space_group_name_H-M 'P 21'
_symmetry_Int_Tables_number 4
loop_
_symmetry_equiv_pos_site_id
_symmetry_equiv_pos_as_xyz
1 x,y,z
2 -x,1/2+y,-z
_cell_length_a 10.2378(7)
_cell_length_b 7.9164(4)
_cell_length_c 18.8738(10)
_cell_angle_alpha 90
_cell_angle_beta 91.228(5)
_cell_angle_gamma 90
_cell_formula_units_Z 2
loop_
_atom_type_symbol
_atom_type_radius_bond
C 0.68
H 0.23
N 0.68
O 0.68
loop_
_atom_site_label
_atom_site_type_symbol
_atom_site_fract_x
_atom_site_fract_y
_atom_site_fract_z
N1 N -0.05475(19) -0.2345(2) 0.07609(9)
O1 O 0.0111(2) -0.1211(2) 0.10329(10)
O2 O -0.1473(2) -0.2046(2) 0.03470(9)
N2 N -0.20004(18) -0.5253(2) 0.02246(9)
C1 C -0.43079(18) -0.6147(3) -0.23297(10)
H1 H -0.44670 -0.71240 -0.26200
H2 H -0.34480 -0.62180 -0.21180
H3 H -0.43720 -0.51480 -0.26160
C2 C -0.6800(2) -0.9135(2) -0.20616(10)
H4 H -0.72410 -1.01290 -0.21760
O3 O 0.2487(2) -0.7599(3) 0.23028(12)
C3 C -0.02399(19) -0.4072(2) 0.09442(9)
C4 C -0.70879(18) -0.7582(2) -0.24947(9)
H5 H -0.65220 -0.76030 -0.29070
N3 N -0.27269(17) -0.6636(2) 0.00076(9)
C5 C -1.42713(18) -0.5576(3) -0.50025(10)
H6 H -1.44590 -0.67390 -0.48780
H7 H -1.47070 -0.48580 -0.46650
N4 N 0.22375(18) -0.6168(3) 0.21054(10)
C6 C -0.79041(18) -0.5926(3) -0.39101(9)
H8 H -0.81300 -0.68980 -0.41910
H9 H -0.69980 -0.59830 -0.37710
H10 H -0.80580 -0.49200 -0.41830
C7 C -0.51973(19) -0.7675(2) -0.12987(9)
C8 C -0.9107(2) -0.8910(3) -0.31817(11)
H11 H -0.93550 -0.98200 -0.28680
H12 H -0.85070 -0.93450 -0.35280
C9 C -0.5947(2) -0.9154(2) -0.15236(10)
H13 H -0.58200 -1.01610 -0.12770
C10 C -0.67411(17) -0.5991(2) -0.20569(8)
H14 H -0.73260 -0.59880 -0.16520
C11 C -0.85003(18) -0.7450(2) -0.27668(9)
H15 H -0.90370 -0.72930 -0.23480
C12 C -0.53299(17) -0.6071(2) -0.17425(9)
O4 O 0.2852(2) -0.4926(3) 0.23092(13)
C13 C -0.87472(16) -0.5887(2) -0.32445(8)
C14 C -0.09947(19) -0.5454(2) 0.06854(9)
C15 C -1.02107(17) -0.6160(3) -0.34486(9)
H16 H -1.07230 -0.58570 -0.30350
C16 C -0.7044(2) -0.4375(2) -0.24772(10)
H17 H -0.69240 -0.34090 -0.21660
H18 H -0.64230 -0.42720 -0.28560
C17 C 0.04088(19) -0.7306(2) 0.13843(10)
H19 H 0.06330 -0.83860 0.15390
C18 C 0.11376(18) -0.5910(3) 0.16166(10)
C19 C 0.08211(19) -0.4307(3) 0.14016(10)
H20 H 0.13120 -0.33890 0.15600
C20 C -0.0626(2) -0.7081(3) 0.0933(1)
H21 H -0.11060 -0.80170 0.07820
C21 C -0.4372(2) -0.7748(3) -0.07359(10)
H22 H -0.42960 -0.87650 -0.04920
C22 C -1.22690(19) -0.5584(3) -0.41747(11)
H23 H -1.24200 -0.67520 -0.40440
H24 H -1.27470 -0.48760 -0.38500
C23 C -1.6341(2) -0.5350(4) -0.57225(13)
H25 H -1.66660 -0.45810 -0.53750
H26 H -1.65890 -0.64820 -0.56020
H27 H -1.67020 -0.50650 -0.61810
C24 C -1.48528(18) -0.5227(3) -0.57374(10)
H28 H -1.46210 -0.40700 -0.58700
C25 C -0.8427(2) -0.4327(2) -0.27972(10)
H29 H -0.90480 -0.42430 -0.24180
H30 H -0.85220 -0.33260 -0.30910
C26 C -0.35918(19) -0.6328(3) -0.04879(9)
C27 C -1.07966(19) -0.5197(3) -0.40888(10)
H31 H -1.03630 -0.55990 -0.45150
C28 C -1.28039(19) -0.5293(3) -0.49244(10)
H32 H -1.26060 -0.41450 -0.50650
H33 H -1.23610 -0.60480 -0.52450
C29 C -0.5088(2) -0.4544(3) -0.12617(11)
H34 H -0.58090 -0.44440 -0.09390
H35 H -0.50800 -0.35320 -0.15520
C30 C -1.0320(2) -0.8112(3) -0.35470(13)
H36 H -1.11110 -0.85300 -0.33340
H37 H -1.03470 -0.83970 -0.40470
C31 C -1.0602(2) -0.3273(3) -0.40427(14)
H38 H -0.96870 -0.30150 -0.40610
H39 H -1.09440 -0.28640 -0.36050
H40 H -1.10550 -0.27380 -0.44330
C32 C -0.3810(2) -0.4632(3) -0.08280(11)
H41 H -0.30870 -0.43860 -0.11350
H42 H -0.38220 -0.37730 -0.04620
C33 C -1.4338(2) -0.6414(4) -0.62968(12)
H43 H -1.45440 -0.75580 -0.61730
H44 H -1.34070 -0.62900 -0.63230
H45 H -1.47350 -0.61450 -0.67480
H46 H -0.214(2) -0.424(4) 0.0055(12)
#END
