
#######################################################################
#
#                 Cambridge Crystallographic Data Centre
#                                CCDC
#
#######################################################################
#
# If this CIF has been generated from an entry in the Cambridge
# Structural Database, then it will include bibliographic, chemical,
# crystal, experimental, refinement or atomic coordinate data resulting
# from the CCDC's data processing and validation procedures.
#
#######################################################################

data_CSD_CIF_FIJQUM
_audit_creation_date 2013-08-12
_audit_creation_method CSD-ConQuest-V1
_database_code_CSD FIJQUM
_database_code_depnum_ccdc_archive 'CCDC 912936'
_chemical_formula_sum 'C33 H47 N3 O2'
_chemical_formula_moiety
;
C33 H47 N3 O2
;
_journal_coden_Cambridge 1127
_journal_volume 23
_journal_year 2013
_journal_page_first 4806
_journal_name_full 'Bioorg.Med.Chem.Lett. '
loop_
_publ_author_name
"Chun Yang"
"Yonghua Shao"
"Xiaoyan Zhi"
"Qu Huan"
"Xiang Yu"
"Xiaojun Yao"
"Hui Xu"
_chemical_name_systematic
;
7-((2-Nitrophenyl)hydrazono)cholesta-3,5-diene
;
_cell_volume   5947.561
_exptl_crystal_colour 'light yellow'
_exptl_crystal_density_diffrn 1.156
_exptl_special_details
;
insecticidal activity

;
_exptl_crystal_description 'block'
_diffrn_ambient_temperature 292.1
#These two values have been output from a single CSD field.
_refine_ls_R_factor_gt 0.0877
_refine_ls_wR_factor_gt 0.0877
_symmetry_cell_setting orthorhombic
_symmetry_space_group_name_H-M 'C 2 2 21'
_symmetry_Int_Tables_number 20
loop_
_symmetry_equiv_pos_site_id
_symmetry_equiv_pos_as_xyz
1 x,y,z
2 -x,-y,1/2+z
3 x,-y,-z
4 -x,y,1/2-z
5 1/2+x,1/2+y,z
6 1/2-x,1/2-y,1/2+z
7 1/2+x,1/2-y,-z
8 1/2-x,1/2+y,1/2-z
_cell_length_a 14.4450(15)
_cell_length_b 18.514(2)
_cell_length_c 22.2393(15)
_cell_angle_alpha 90
_cell_angle_beta 90
_cell_angle_gamma 90
_cell_formula_units_Z 8
loop_
_atom_type_symbol
_atom_type_radius_bond
C 0.68
H 0.23
N 0.68
O 0.68
loop_
_atom_site_label
_atom_site_type_symbol
_atom_site_fract_x
_atom_site_fract_y
_atom_site_fract_z
O1 O 0.0134(3) 0.8202(2) 0.84954(18)
O2 O -0.0574(5) 0.8250(3) 0.9345(2)
N1 N 0.1346(3) 0.6533(3) 0.77584(17)
N2 N 0.0805(3) 0.6982(3) 0.80982(17)
H1 H 0.07090 0.74230 0.79930
N3 N -0.0174(4) 0.7902(3) 0.8955(3)
C1 C 0.2807(3) 0.6657(3) 0.6395(2)
H2 H 0.22830 0.67110 0.61190
C2 C 0.3191(4) 0.7429(3) 0.6513(2)
C3 C 0.3517(5) 0.7775(3) 0.5917(2)
H3 H 0.40700 0.75270 0.57820
H4 H 0.30420 0.77050 0.56150
C4 C 0.3725(5) 0.8573(3) 0.5965(3)
H5 H 0.43010 0.86400 0.61820
H6 H 0.38030 0.87720 0.55650
C5 C 0.2972(5) 0.8966(3) 0.6280(2)
H7 H 0.29370 0.94650 0.62380
C6 C 0.2342(5) 0.8628(3) 0.6622(2)
H8 H 0.18480 0.88940 0.67730
C7 C 0.2400(4) 0.7870(3) 0.6763(2)
C8 C 0.1764(4) 0.7560(3) 0.7126(2)
H9 H 0.12830 0.78470 0.72690
C9 C 0.1784(4) 0.6808(3) 0.7307(2)
C10 C 0.2422(3) 0.6299(3) 0.69709(19)
H10 H 0.29490 0.61940 0.72340
C11 C 0.1980(4) 0.5564(3) 0.6790(2)
H11 H 0.15230 0.56760 0.64780
C12 C 0.1477(4) 0.5110(3) 0.7250(2)
H12 H 0.08650 0.53020 0.73300
H13 H 0.18210 0.50900 0.76250
C13 C 0.1419(4) 0.4365(3) 0.6958(2)
H14 H 0.07820 0.42500 0.68590
H15 H 0.16510 0.39980 0.72310
C14 C 0.2021(4) 0.4386(3) 0.6376(2)
H16 H 0.16110 0.45230 0.60430
C15 C 0.2674(4) 0.5040(3) 0.6497(2)
C16 C 0.3066(4) 0.5411(3) 0.5936(2)
H17 H 0.25740 0.54770 0.56440
H18 H 0.35340 0.51040 0.57560
C17 C 0.3497(4) 0.6153(3) 0.6089(3)
H19 H 0.40250 0.60820 0.63510
H20 H 0.37170 0.63780 0.57220
C18 C 0.2446(4) 0.3648(3) 0.6215(2)
H21 H 0.28650 0.35110 0.65430
C19 C 0.1678(4) 0.3068(3) 0.6178(3)
H22 H 0.13280 0.30730 0.65510
H23 H 0.12560 0.31960 0.58550
C20 C 0.2036(5) 0.2306(3) 0.6069(3)
H24 H 0.23520 0.22980 0.56840
H25 H 0.24910 0.21960 0.63760
C21 C 0.1333(5) 0.1730(4) 0.6070(4)
H26 H 0.09020 0.18220 0.57440
H27 H 0.09870 0.17600 0.64430
C22 C 0.1702(5) 0.0956(4) 0.6003(4)
H28 H 0.21520 0.08840 0.63280
C23 C 0.0986(6) 0.0419(5) 0.6088(7)
H29 H 0.05450 0.04520 0.57660
H30 H 0.06780 0.05020 0.64640
H31 H 0.12590 -0.00540 0.60900
C24 C 0.2219(7) 0.0877(5) 0.5430(4)
H32 H 0.26920 0.12400 0.54080
H33 H 0.18000 0.09340 0.50980
H34 H 0.24980 0.04070 0.54140
C25 C 0.3010(5) 0.3664(4) 0.5637(2)
H35 H 0.35460 0.39630 0.56940
H36 H 0.26380 0.38580 0.53180
H37 H 0.32010 0.31830 0.55360
C26 C 0.3459(4) 0.4825(3) 0.6924(2)
H38 H 0.32060 0.45730 0.72630
H39 H 0.37750 0.52510 0.70590
H40 H 0.38860 0.45160 0.67160
C27 C 0.3989(4) 0.7437(4) 0.6973(3)
H41 H 0.45140 0.71890 0.68080
H42 H 0.37930 0.71990 0.73350
H43 H 0.41550 0.79270 0.70620
C28 C 0.0423(3) 0.6706(3) 0.8611(2)
C29 C 0.0491(4) 0.5965(4) 0.8744(2)
H44 H 0.08060 0.56640 0.84790
C30 C 0.0107(4) 0.5673(4) 0.9252(2)
H45 H 0.01740 0.51820 0.93270
C31 C -0.0388(4) 0.6105(4) 0.9661(3)
H46 H -0.06560 0.59080 1.00040
C32 C -0.0461(4) 0.6821(4) 0.9538(2)
H47 H -0.07850 0.71130 0.98050
C33 C -0.0077(4) 0.7134(4) 0.9037(2)
#END
