
#######################################################################
#
#                 Cambridge Crystallographic Data Centre
#                                CCDC
#
#######################################################################
#
# If this CIF has been generated from an entry in the Cambridge
# Structural Database, then it will include bibliographic, chemical,
# crystal, experimental, refinement or atomic coordinate data resulting
# from the CCDC's data processing and validation procedures.
#
#######################################################################

data_CSD_CIF_FIJREX
_audit_creation_date 2013-08-12
_audit_creation_method CSD-ConQuest-V1
_database_code_CSD FIJREX
_database_code_depnum_ccdc_archive 'CCDC 888312'
_chemical_formula_sum 'C33 H47 N3 O3'
_chemical_formula_moiety
;
C33 H47 N3 O3
;
_journal_coden_Cambridge 1127
_journal_volume 23
_journal_year 2013
_journal_page_first 4806
_journal_name_full 'Bioorg.Med.Chem.Lett. '
loop_
_publ_author_name
"Chun Yang"
"Yonghua Shao"
"Xiaoyan Zhi"
"Qu Huan"
"Xiang Yu"
"Xiaojun Yao"
"Hui Xu"
_chemical_name_systematic
;
3-((2-Nitrophenyl)hydrazono)cholest-4-en-6-one
;
_cell_volume   1501.604
_exptl_crystal_colour 'colorless'
_exptl_crystal_density_diffrn 1.181
_exptl_special_details
;
insecticidal activity

;
_exptl_crystal_description 'block'
_diffrn_ambient_temperature 296
#These two values have been output from a single CSD field.
_refine_ls_R_factor_gt 0.0521
_refine_ls_wR_factor_gt 0.0521
_symmetry_cell_setting monoclinic
_symmetry_space_group_name_H-M 'P 21'
_symmetry_Int_Tables_number 4
loop_
_symmetry_equiv_pos_site_id
_symmetry_equiv_pos_as_xyz
1 x,y,z
2 -x,1/2+y,-z
_cell_length_a 10.721(5)
_cell_length_b 7.985(4)
_cell_length_c 17.668(8)
_cell_angle_alpha 90
_cell_angle_beta 96.884(4)
_cell_angle_gamma 90
_cell_formula_units_Z 2
loop_
_atom_type_symbol
_atom_type_radius_bond
C 0.68
H 0.23
N 0.68
O 0.68
loop_
_atom_site_label
_atom_site_type_symbol
_atom_site_fract_x
_atom_site_fract_y
_atom_site_fract_z
C1 C 1.0164(3) 0.1830(4) 0.90559(17)
H1 H 0.99700 0.29200 0.88290
H2 H 0.95920 0.16370 0.94330
C2 C 1.1510(3) 0.1857(4) 0.94574(18)
H3 H 1.20610 0.23340 0.91170
H4 H 1.15460 0.25680 0.99040
C3 C 1.1968(3) 0.0142(4) 0.96941(16)
C4 C 1.1294(3) -0.1300(4) 0.93616(15)
H5 H 1.15270 -0.23550 0.95520
C5 C 1.0344(2) -0.1191(4) 0.87893(15)
C6 C 0.9938(2) 0.0486(3) 0.84318(15)
C7 C 0.8520(2) 0.0462(3) 0.81233(15)
H6 H 0.80630 0.03800 0.85700
C8 C 0.8143(2) -0.1083(3) 0.76299(15)
H7 H 0.86480 -0.11020 0.72030
C9 C 0.8421(3) -0.2674(4) 0.81005(16)
H8 H 0.78260 -0.27500 0.84720
H9 H 0.82840 -0.36350 0.77650
C10 C 0.9723(3) -0.2774(4) 0.85118(17)
C11 C 0.8087(3) 0.2095(4) 0.77167(18)
H10 H 0.86120 0.23040 0.73160
H11 H 0.82170 0.30090 0.80790
C12 C 0.6708(3) 0.2107(4) 0.73646(17)
H12 H 0.61700 0.20790 0.77680
H13 H 0.65350 0.31360 0.70790
C13 C 0.6404(2) 0.0610(3) 0.68349(14)
C14 C 0.4985(2) 0.0253(4) 0.65921(15)
H14 H 0.45530 0.04260 0.70440
C15 C 0.4948(3) -0.1657(4) 0.64236(18)
H15 H 0.42230 -0.21630 0.66110
H16 H 0.48950 -0.18540 0.58790
C16 C 0.6168(3) -0.2419(4) 0.68316(17)
H17 H 0.59870 -0.33530 0.71520
H18 H 0.67140 -0.28000 0.64670
C17 C 0.6765(2) -0.0969(4) 0.73101(15)
H19 H 0.63010 -0.08960 0.77550
C18 C 1.0764(2) 0.0818(4) 0.77943(16)
H20 H 1.05910 -0.00080 0.74010
H21 H 1.16340 0.07580 0.79990
H22 H 1.05840 0.19130 0.75840
C19 C 0.7103(2) 0.0713(4) 0.61295(14)
H23 H 0.68790 0.17320 0.58580
H24 H 0.68770 -0.02280 0.58030
H25 H 0.79930 0.06990 0.62850
C20 C 0.4268(2) 0.1271(4) 0.59429(16)
H26 H 0.46060 0.09610 0.54710
C21 C 0.2869(2) 0.0809(5) 0.58441(15)
H27 H 0.27900 -0.03750 0.59520
H28 H 0.24580 0.14230 0.62180
C22 C 0.2185(2) 0.1165(4) 0.50600(16)
H29 H 0.25420 0.04700 0.46900
H30 H 0.23270 0.23250 0.49310
C23 C 0.0776(2) 0.0851(4) 0.49928(15)
H31 H 0.06390 -0.03110 0.51200
H32 H 0.04260 0.15380 0.53680
C24 C 0.0058(3) 0.1207(4) 0.42205(16)
H33 H 0.02440 0.23600 0.40820
C25 C -0.1351(3) 0.1078(5) 0.42505(19)
H34 H -0.15650 -0.00560 0.43610
H35 H -0.17890 0.14030 0.37670
H36 H -0.15870 0.18050 0.46420
C26 C 0.0444(3) 0.0066(5) 0.36081(19)
H37 H 0.02410 -0.10710 0.37200
H38 H 0.13330 0.01630 0.35910
H39 H 0.00050 0.03820 0.31240
C27 C 0.4416(3) 0.3162(4) 0.60371(18)
H40 H 0.41820 0.34910 0.65230
H41 H 0.38830 0.37180 0.56390
H42 H 0.52750 0.34680 0.60080
C28 C 1.4694(3) 0.0970(4) 1.09514(14)
C29 C 1.5439(3) 0.2315(4) 1.12539(16)
C30 C 1.6504(3) 0.2038(5) 1.17677(18)
H43 H 1.69890 0.29430 1.19590
C31 C 1.6846(3) 0.0456(5) 1.19951(18)
H44 H 1.75660 0.02770 1.23350
C32 C 1.6113(3) -0.0878(4) 1.17153(17)
H45 H 1.63350 -0.19580 1.18780
C33 C 1.5063(3) -0.0641(4) 1.12011(17)
H46 H 1.45890 -0.15610 1.10160
N1 N 1.2963(2) -0.0177(3) 1.01629(13)
N2 N 1.3645(2) 0.1184(3) 1.04420(12)
H47 H 1.34130 0.21750 1.02960
N3 N 1.5131(3) 0.4024(4) 1.10537(15)
O1 O 1.0241(2) -0.4119(3) 0.86181(16)
O2 O 1.4203(2) 0.4340(3) 1.05881(14)
O3 O 1.5785(2) 0.5156(3) 1.13739(13)
#END
