
#######################################################################
#
#                 Cambridge Crystallographic Data Centre
#                                CCDC
#
#######################################################################
#
# If this CIF has been generated from an entry in the Cambridge
# Structural Database, then it will include bibliographic, chemical,
# crystal, experimental, refinement or atomic coordinate data resulting
# from the CCDC's data processing and validation procedures.
#
#######################################################################

data_CSD_CIF_FIJROF
_audit_creation_date 1988-01-14
_audit_creation_method CSD-ConQuest-V1
_database_code_CSD FIJROF
_chemical_formula_sum 'C20 H22 N2 O5'
_chemical_formula_moiety
;
C20 H22 N2 O5
;
_journal_coden_Cambridge 35
_journal_volume 52
_journal_year 1987
_journal_page_first 2179
_journal_name_full 'J.Org.Chem. '
loop_
_publ_author_name
"J.Wityak"
"S.J.Gould"
"S.J.Hein"
"D.A.Keszler"
_chemical_name_systematic
;
2(S)-(2-Benzyl-5(S)-isoxazolidinyl)(N-((benzyloxy)carbonyl)amino)acetic acid
;
_chemical_melting_point 402.15
_cell_volume   1904.524
_diffrn_ambient_temperature ?
_diffrn_special_details
;
The study was carried out at room temperature,in the range 283-303K

;
#These two values have been output from a single CSD field.
_refine_ls_R_factor_gt 0.05
_refine_ls_wR_factor_gt 0.05
_symmetry_cell_setting orthorhombic
_symmetry_space_group_name_H-M 'P c a 21'
_symmetry_Int_Tables_number 29
loop_
_symmetry_equiv_pos_site_id
_symmetry_equiv_pos_as_xyz
1 x,y,z
2 1/2-x,y,1/2+z
3 1/2+x,-y,z
4 -x,-y,1/2+z
_cell_length_a 11.024(2)
_cell_length_b 13.982(1)
_cell_length_c 12.356(1)
_cell_angle_alpha 90
_cell_angle_beta 90
_cell_angle_gamma 90
_cell_formula_units_Z 4
loop_
_atom_type_symbol
_atom_type_radius_bond
C 0.68
N 0.68
O 0.68
loop_
_atom_site_label
_atom_site_type_symbol
_atom_site_fract_x
_atom_site_fract_y
_atom_site_fract_z
O1 O 0.7354(4) 0.4474(3) 0.13170
O2 O 0.8815(4) 0.3990(3) 0.2430(5)
O3 O 0.6651(4) 0.4961(3) 0.4025(5)
O4 O 0.6145(5) 0.1719(3) 0.3465(7)
O5 O 0.7729(5) 0.1753(3) 0.4625(6)
N1 N 0.7256(5) 0.3068(3) 0.3730(6)
N2 N 0.6002(4) 0.5078(4) 0.5035(6)
C1 C 0.7749(6) 0.4055(4) 0.2176(6)
C2 C 0.6747(5) 0.3627(4) 0.2858(7)
C3 C 0.5927(5) 0.4415(4) 0.3270(6)
C4 C 0.4799(6) 0.4085(5) 0.3875(7)
C5 C 0.5074(7) 0.4300(6) 0.5040(7)
C6 C 0.5506(6) 0.6058(6) 0.5054(8)
C7 C 0.6493(6) 0.6795(4) 0.4962(7)
C8 C 0.7230(8) 0.6999(5) 0.5842(7)
C9 C 0.8149(8) 0.7665(6) 0.574(1)
C10 C 0.8359(7) 0.8133(5) 0.481(1)
C11 C 0.765(1) 0.7946(5) 0.394(1)
C12 C 0.6704(7) 0.7263(5) 0.4009(8)
C13 C 0.6958(6) 0.2136(4) 0.3891(8)
C14 C 0.7522(8) 0.0772(5) 0.4895(8)
C15 C 0.6626(6) 0.0644(5) 0.5803(8)
C16 C 0.6047(8) -0.0218(5) 0.590(1)
C17 C 0.530(1) -0.0381(8) 0.677(1)
C18 C 0.508(1) 0.030(1) 0.750(1)
C19 C 0.563(1) 0.1191(8) 0.739(1)
C20 C 0.6399(8) 0.1345(6) 0.654(1)
#END
