
#######################################################################
#
#                 Cambridge Crystallographic Data Centre
#                                CCDC
#
#######################################################################
#
# If this CIF has been generated from an entry in the Cambridge
# Structural Database, then it will include bibliographic, chemical,
# crystal, experimental, refinement or atomic coordinate data resulting
# from the CCDC's data processing and validation procedures.
#
#######################################################################

data_CSD_CIF_FIKWED
_audit_creation_date 2013-08-12
_audit_creation_method CSD-ConQuest-V1
_database_code_CSD FIKWED
_database_code_depnum_ccdc_archive 'CCDC 932603'
_chemical_formula_sum 'C18 H21 N3 O5'
_chemical_formula_moiety
;
C18 H21 N3 O5
;
_journal_coden_Cambridge 1135
_journal_volume 23
_journal_year 2013
_journal_page_first 206
_journal_name_full 'Mendeleev Commun. '
loop_
_publ_author_name
"M.I.Pleschev"
"M.A.Epishina"
"V.V.Kachala"
"V.V.Kuznetsov"
"A.S.Goloveshkin"
"I.S.Bushmarinov"
"N.N.Makhova"
_chemical_name_systematic
;
1-(2,4-Dimethoxyphenyl)-3-(2-furyl)-2-nitrotetrahydro-1H,5H-pyrazolo[1,2-a]pyr
azole
;
_cell_volume   1756.818
_exptl_crystal_colour 'yellow'
_exptl_crystal_density_diffrn 1.359
_exptl_crystal_description 'block'
_diffrn_ambient_temperature 100
#These two values have been output from a single CSD field.
_refine_ls_R_factor_gt 0.0503
_refine_ls_wR_factor_gt 0.0503
_symmetry_cell_setting monoclinic
_symmetry_space_group_name_H-M 'P 21/n'
_symmetry_Int_Tables_number 14
loop_
_symmetry_equiv_pos_site_id
_symmetry_equiv_pos_as_xyz
1 x,y,z
2 1/2-x,1/2+y,1/2-z
3 -x,-y,-z
4 -1/2+x,-1/2-y,-1/2+z
_cell_length_a 7.7577(4)
_cell_length_b 22.8087(11)
_cell_length_c 10.3037(5)
_cell_angle_alpha 90
_cell_angle_beta 105.505(1)
_cell_angle_gamma 90
_cell_formula_units_Z 4
loop_
_atom_type_symbol
_atom_type_radius_bond
C 0.68
H 0.23
N 0.68
O 0.68
loop_
_atom_site_label
_atom_site_type_symbol
_atom_site_fract_x
_atom_site_fract_y
_atom_site_fract_z
O1 O 0.40732(14) 0.04012(4) 0.73550(11)
C1 C 0.53879(17) 0.09539(5) 0.59617(14)
N1 N 0.75412(15) 0.21046(5) 0.71087(12)
N2 N 0.81599(15) 0.15095(5) 0.69835(13)
O2 O 0.15963(15) 0.03221(5) 0.25907(11)
C2 C 0.40345(18) 0.05569(6) 0.60606(14)
O3 O 0.43892(15) 0.27594(5) 0.74866(11)
C3 C 0.67370(18) 0.11399(6) 0.72405(14)
H1 H 0.72810 0.07840 0.77550
C4 C 0.41843(18) 0.09445(6) 0.35316(14)
H2 H 0.42350 0.10770 0.26690
C5 C 0.27951(18) 0.03518(6) 0.49231(15)
H3 H 0.18990 0.00810 0.50010
C6 C 0.28812(18) 0.05492(6) 0.36582(15)
C7 C 0.69076(17) 0.20942(6) 0.83589(14)
H4 H 0.79570 0.20530 0.91650
C8 C 0.54238(18) 0.11442(6) 0.46971(14)
H5 H 0.63130 0.14180 0.46160
C9 C 0.58916(18) 0.26304(6) 0.84954(14)
C10 C 0.58289(18) 0.15188(6) 0.81315(14)
H6 H 0.45600 0.16020 0.76290
N3 N 0.58876(19) 0.12465(5) 0.94665(13)
C11 C 0.91801(19) 0.24550(6) 0.72840(17)
H7 H 0.90830 0.28280 0.77510
H8 H 0.93920 0.25460 0.64000
O4 O 0.72341(18) 0.09727(5) 1.00485(12)
C12 C 0.9945(2) 0.14506(7) 0.79910(19)
H9 H 1.07290 0.11790 0.76600
H10 H 0.98100 0.13030 0.88620
C13 C 0.2719(2) 0.00082(7) 0.75374(18)
H11 H 0.28200 -0.03660 0.70980
H12 H 0.15370 0.01790 0.71370
H13 H 0.28730 -0.00570 0.85020
C14 C 0.4735(2) 0.34551(7) 0.90524(19)
H14 H 0.45520 0.37960 0.95290
O5 O 0.46162(19) 0.13335(6) 0.99313(13)
C15 C 0.6150(2) 0.30406(7) 0.94674(17)
H15 H 0.70930 0.30520 1.02750
C16 C 0.3722(2) 0.32725(7) 0.78690(18)
H16 H 0.26820 0.34690 0.73570
C17 C 1.0713(2) 0.20757(7) 0.8139(2)
H17 H 1.17860 0.21000 0.77950
H18 H 1.10380 0.22020 0.90930
C18 C 0.1509(3) 0.05659(8) 0.13014(17)
H19 H 0.04550 0.04120 0.06380
H20 H 0.25900 0.04600 0.10350
H21 H 0.14220 0.09940 0.13440
#END
