
#######################################################################
#
#                 Cambridge Crystallographic Data Centre
#                                CCDC
#
#######################################################################
#
# If this CIF has been generated from an entry in the Cambridge
# Structural Database, then it will include bibliographic, chemical,
# crystal, experimental, refinement or atomic coordinate data resulting
# from the CCDC's data processing and validation procedures.
#
#######################################################################

data_CSD_CIF_FIMKER
_audit_creation_date 1988-03-22
_audit_creation_method CSD-ConQuest-V1
_database_code_CSD FIMKER
_database_code_depnum_ccdc_archive 'CCDC 1156659'
_chemical_formula_sum 'C16 H17 N1 O1'
_chemical_formula_moiety
;
C16 H17 N1 O1
;
_journal_coden_Cambridge 48
_journal_volume 120
_journal_year 1987
_journal_page_first 695
_journal_name_full 'Chem.Ber. '
loop_
_publ_author_name
"W.Adam"
"N.Carballeira"
"E.Cramer"
"V.Lucchini"
"E.-M.Peters"
"K.Peters"
"H.G.von Schnering"
_chemical_name_systematic
;
5'-Phenylspiro(cyclopropane-1,9'-(3-oxa-4-azatricyclo(5.2.1.0^2,6^)dec-4-ene))
;
_cell_volume    637.555
_exptl_crystal_colour 'colorless'
_exptl_crystal_density_diffrn 1.246
_diffrn_ambient_temperature ?
_diffrn_special_details
;
The study was carried out at room temperature,in the range 283-303K

;
#These two values have been output from a single CSD field.
_refine_ls_R_factor_gt 0.055
_refine_ls_wR_factor_gt 0.055
_symmetry_cell_setting triclinic
_symmetry_space_group_name_H-M 'P -1'
_symmetry_Int_Tables_number 2
loop_
_symmetry_equiv_pos_site_id
_symmetry_equiv_pos_as_xyz
1 x,y,z
2 -x,-y,-z
_cell_length_a 9.860(7)
_cell_length_b 11.016(20)
_cell_length_c 6.597(9)
_cell_angle_alpha 95.20(12)
_cell_angle_beta 82.39(9)
_cell_angle_gamma 116.07(11)
_cell_formula_units_Z 2
loop_
_atom_type_symbol
_atom_type_radius_bond
C 0.68
H 0.23
N 0.68
O 0.68
loop_
_atom_site_label
_atom_site_type_symbol
_atom_site_fract_x
_atom_site_fract_y
_atom_site_fract_z
C1 C 0.0282(2) 0.3793(2) 0.7107(3)
C2 C 0.1573(2) 0.3355(2) 0.6479(3)
C3 C 0.2434(2) 0.3852(2) 0.4432(3)
N1 N 0.2195(2) 0.2940(2) 0.3019(2)
O1 O 0.1160(2) 0.1667(1) 0.3808(2)
C4 C 0.0718(2) 0.1836(2) 0.5971(3)
C5 C -0.0953(2) 0.1564(2) 0.6366(3)
C6 C -0.1293(2) 0.1691(2) 0.8665(3)
C7 C -0.0473(2) 0.3206(2) 0.9207(3)
C8 C -0.0902(2) 0.2878(2) 0.5685(3)
C9 C 0.3483(2) 0.5283(2) 0.4021(3)
C10 C 0.4014(2) 0.5697(2) 0.2019(3)
C11 C 0.5011(2) 0.7036(2) 0.1649(4)
C12 C 0.5460(2) 0.7962(2) 0.3240(4)
C13 C 0.4951(2) 0.7570(2) 0.5225(4)
C14 C 0.3951(2) 0.6226(2) 0.5608(3)
C15 C -0.1495(2) 0.0613(2) 1.0064(3)
C16 C -0.2833(2) 0.0848(2) 0.9722(3)
H1 H 0.06220 0.47610 0.70900
H2 H 0.22660 0.36670 0.75490
H3 H 0.09190 0.12390 0.67620
H4 H -0.16390 0.07140 0.57260
H5 H 0.02660 0.34080 1.01620
H6 H -0.11800 0.35750 0.97900
H7 H -0.05540 0.30420 0.42560
H8 H -0.18570 0.29300 0.59790
H9 H 0.36800 0.50410 0.08730
H10 H 0.54090 0.73270 0.02540
H11 H 0.61640 0.88930 0.29740
H12 H 0.52770 0.82540 0.63400
H13 H 0.35740 0.59390 0.70220
H14 H -0.14080 -0.01990 0.95240
H15 H -0.10790 0.08550 1.13720
H16 H -0.33060 0.12440 1.07920
H17 H -0.36360 0.01890 0.89440
#END
