
#######################################################################
#
#                 Cambridge Crystallographic Data Centre
#                                CCDC
#
#######################################################################
#
# If this CIF has been generated from an entry in the Cambridge
# Structural Database, then it will include bibliographic, chemical,
# crystal, experimental, refinement or atomic coordinate data resulting
# from the CCDC's data processing and validation procedures.
#
#######################################################################

data_CSD_CIF_FINBOV
_audit_creation_date 2013-08-13
_audit_creation_method CSD-ConQuest-V1
_database_code_CSD FINBOV
_database_code_depnum_ccdc_archive 'CCDC 900037'
_chemical_formula_sum 'C6 H4 N6 O12'
_chemical_formula_moiety
;
C6 H4 N6 O12
;
_journal_coden_Cambridge 644
_journal_volume 68
_journal_year 2013
_journal_page_first 719
_journal_name_full 'Z.Naturforsch.,B:Chem.Sci. '
loop_
_publ_author_name
"T.M.Klapotke"
"B.Krumm"
"R.Moll"
"A.Penger"
"S.M.Sproll"
"R.J.F.Berger"
"S.A.Hayes"
"N.W.Mitzel"
_chemical_name_systematic
;
1,1,1,6,6,6-Hexanitrohex-3-yne
;
_cell_volume   2572.602
_exptl_crystal_colour 'colorless'
_exptl_crystal_density_diffrn 1.818
_exptl_crystal_description 'block'
_diffrn_ambient_temperature 100
#These two values have been output from a single CSD field.
_refine_ls_R_factor_gt 0.0294
_refine_ls_wR_factor_gt 0.0294
_symmetry_cell_setting orthorhombic
_symmetry_space_group_name_H-M 'P b c a'
_symmetry_Int_Tables_number 61
loop_
_symmetry_equiv_pos_site_id
_symmetry_equiv_pos_as_xyz
1 x,y,z
2 1/2-x,-y,1/2+z
3 1/2+x,1/2-y,-z
4 -x,1/2+y,1/2-z
5 -x,-y,-z
6 -1/2+x,y,-1/2-z
7 -1/2-x,-1/2+y,z
8 x,-1/2-y,-1/2+z
_cell_length_a 12.9956(5)
_cell_length_b 13.0433(4)
_cell_length_c 15.1771(5)
_cell_angle_alpha 90
_cell_angle_beta 90
_cell_angle_gamma 90
_cell_formula_units_Z 8
loop_
_atom_type_symbol
_atom_type_radius_bond
C 0.68
H 0.23
N 0.68
O 0.68
loop_
_atom_site_label
_atom_site_type_symbol
_atom_site_fract_x
_atom_site_fract_y
_atom_site_fract_z
O1 O 0.38277(9) 0.64475(9) 0.66766(7)
O2 O 0.48466(9) 0.45334(9) 0.60256(6)
O3 O 0.17040(8) 0.84789(8) 1.04933(7)
N1 N 0.5278(1) 0.47049(10) 0.67169(8)
O4 O 0.20264(9) 0.67815(10) 0.84792(6)
O5 O 0.22870(9) 0.52962(8) 1.00722(7)
O6 O 0.18671(9) 0.71649(9) 1.13729(6)
N2 N 0.28372(10) 0.60144(10) 1.02718(8)
O7 O 0.36086(9) 0.60050(9) 1.07245(7)
N3 N 0.36883(10) 0.56201(10) 0.70287(7)
N4 N 0.1979(1) 0.76137(10) 1.06775(8)
O8 O 0.45486(9) 0.34173(9) 0.78138(7)
O9 O 0.28962(8) 0.51276(9) 0.70584(7)
O10 O 0.3791(1) 0.45025(9) 0.86812(7)
O11 O 0.08265(9) 0.68229(9) 0.94737(7)
N5 N 0.42933(11) 0.42709(10) 0.80358(8)
O12 O 0.61702(9) 0.45395(9) 0.68957(7)
N6 N 0.17112(11) 0.68789(10) 0.92279(8)
C1 C 0.52556(12) 0.59569(12) 0.79738(9)
H1 H 0.57860 0.56000 0.83270
H2 H 0.56140 0.64140 0.75530
C2 C 0.34306(11) 0.76936(12) 0.96049(9)
H3 H 0.31720 0.83050 0.92880
H4 H 0.38380 0.79340 1.01160
C3 C 0.46175(12) 0.65773(12) 0.85601(9)
C4 C 0.40981(12) 0.70993(12) 0.90146(9)
C5 C 0.25283(11) 0.70695(11) 0.99305(8)
C6 C 0.46426(11) 0.51699(11) 0.74625(9)
#END
