
#######################################################################
#
#                 Cambridge Crystallographic Data Centre
#                                CCDC
#
#######################################################################
#
# If this CIF has been generated from an entry in the Cambridge
# Structural Database, then it will include bibliographic, chemical,
# crystal, experimental, refinement or atomic coordinate data resulting
# from the CCDC's data processing and validation procedures.
#
#######################################################################

data_CSD_CIF_FINFUE
_audit_creation_date 2005-06-07
_audit_creation_method CSD-ConQuest-V1
_database_code_CSD FINFUE
_database_code_depnum_ccdc_archive 'CCDC 249216'
_chemical_formula_sum 'C7 H6 N4 O6'
_chemical_formula_moiety
;
C7 H6 N4 O6
;
_journal_coden_Cambridge 177
_journal_volume 3
_journal_year 2005
_journal_page_first 538
_journal_name_full 'Org.Biomol.Chem. '
loop_
_publ_author_name
"A.R.Katritzky"
"E.F.V.Scrivena"
"S.Majumder"
"R.G.Akhmedova"
"A.V.Vakulenko"
"N.G.Akhmedov"
"R.Murugan"
"K.A.Abboud"
_chemical_name_systematic
;
5-methyl-2-trinitromethylpyridine
;
_cell_volume   1012.739
_exptl_crystal_colour 'colorless'
_exptl_crystal_density_diffrn 1.588
_exptl_crystal_description 'blocks'
_diffrn_ambient_temperature 173
#These two values have been output from a single CSD field.
_refine_ls_R_factor_gt 0.0358
_refine_ls_wR_factor_gt 0.0358
_symmetry_cell_setting monoclinic
_symmetry_space_group_name_H-M 'P 21/c'
_symmetry_Int_Tables_number 14
loop_
_symmetry_equiv_pos_site_id
_symmetry_equiv_pos_as_xyz
1 x,y,z
2 -x,1/2+y,1/2-z
3 -x,-y,-z
4 x,-1/2-y,-1/2+z
_cell_length_a 8.0407(8)
_cell_length_b 11.7673(11)
_cell_length_c 11.2852(10)
_cell_angle_alpha 90
_cell_angle_beta 108.476(2)
_cell_angle_gamma 90
_cell_formula_units_Z 4
loop_
_atom_type_symbol
_atom_type_radius_bond
C 0.68
H 0.23
N 0.68
O 0.68
loop_
_atom_site_label
_atom_site_type_symbol
_atom_site_fract_x
_atom_site_fract_y
_atom_site_fract_z
O1 O 0.62328(16) 0.03644(10) 0.35751(10)
O2 O 0.86410(16) 0.12719(11) 0.37078(11)
O3 O 1.06420(13) 0.12218(9) 0.63306(12)
O4 O 0.94888(15) 0.29022(9) 0.60298(13)
O5 O 0.74331(16) -0.06263(9) 0.57939(12)
O6 O 0.78747(16) 0.05579(10) 0.73388(10)
N1 N 0.55592(15) 0.26746(10) 0.41884(10)
N2 N 0.75001(18) 0.09445(11) 0.41089(11)
N3 N 0.94191(15) 0.18817(10) 0.59889(12)
N4 N 0.76253(15) 0.0311(1) 0.62423(12)
C1 C 0.61029(16) 0.21722(11) 0.53012(11)
C2 C 0.54378(17) 0.24069(12) 0.62607(12)
H1 H 0.58860 0.20430 0.70500
C3 C 0.40921(18) 0.31928(12) 0.60311(12)
H2 H 0.35890 0.33650 0.66670
C4 C 0.34757(17) 0.37271(11) 0.48889(12)
C5 C 0.42750(19) 0.34361(12) 0.40015(13)
H3 H 0.38790 0.38040 0.32120
C6 C 0.75862(18) 0.13469(11) 0.54159(12)
C7 C 0.2007(2) 0.45755(14) 0.45827(15)
H4 H 0.08820 0.41740 0.43590
H5 H 0.20540 0.50460 0.38780
H6 H 0.21270 0.50600 0.53110
#END
