
#######################################################################
#
#                 Cambridge Crystallographic Data Centre
#                                CCDC
#
#######################################################################
#
# If this CIF has been generated from an entry in the Cambridge
# Structural Database, then it will include bibliographic, chemical,
# crystal, experimental, refinement or atomic coordinate data resulting
# from the CCDC's data processing and validation procedures.
#
#######################################################################

data_CSD_CIF_FINJIW
_audit_creation_date 2005-06-07
_audit_creation_method CSD-ConQuest-V1
_database_code_CSD FINJIW
_database_code_depnum_ccdc_archive 'CCDC 240114'
_chemical_formula_sum 'C25 H24 N4 O3'
_chemical_formula_moiety
;
C25 H24 N4 O3
;
_journal_coden_Cambridge 603
_journal_volume 24
_journal_year 2005
_journal_page_first 209
_journal_name_full 'Jiegou Huaxue(Chin.)(Chin.J.Struct.Chem.) '
loop_
_publ_author_name
"Jia-Ning Xu"
"Shu-Jiang Tu"
"Hong Jiang"
"Jin-Peng Zhang"
"Xiao-Tong Zhu"
"Qian Wang"
_chemical_name_systematic
;
3,7,7-trimethyl-4-(3-nitrophenyl)-1-phenyl-4,5,6,7,8,9-hexahydro-1H-pyrazolo(3
,4-b)quinoline-5(6H)-one
;
_cell_volume   4386.805
_exptl_crystal_colour 'yellow'
_exptl_crystal_density_diffrn 1.298
_exptl_crystal_description 'block'
_diffrn_ambient_temperature 193
#These two values have been output from a single CSD field.
_refine_ls_R_factor_gt 0.0519
_refine_ls_wR_factor_gt 0.0519
_symmetry_cell_setting orthorhombic
_symmetry_space_group_name_H-M 'P b c a'
_symmetry_Int_Tables_number 61
loop_
_symmetry_equiv_pos_site_id
_symmetry_equiv_pos_as_xyz
1 x,y,z
2 1/2+x,1/2-y,-z
3 -x,1/2+y,1/2-z
4 1/2-x,-y,1/2+z
5 -x,-y,-z
6 -1/2-x,-1/2+y,z
7 x,-1/2-y,-1/2+z
8 -1/2+x,y,-1/2-z
_cell_length_a 16.3331(10)
_cell_length_b 13.8329(9)
_cell_length_c 19.4163(12)
_cell_angle_alpha 90
_cell_angle_beta 90
_cell_angle_gamma 90
_cell_formula_units_Z 8
loop_
_atom_type_symbol
_atom_type_radius_bond
C 0.68
H 0.23
N 0.68
O 0.68
loop_
_atom_site_label
_atom_site_type_symbol
_atom_site_fract_x
_atom_site_fract_y
_atom_site_fract_z
O1 O 0.19776(8) 0.53629(8) 0.04852(7)
O2 O 0.56566(9) 0.46889(12) 0.05719(8)
O3 O 0.58458(11) 0.62324(13) 0.05462(9)
N1 N 0.3120(1) 0.22895(11) 0.09691(7)
N2 N 0.36203(10) 0.24905(11) 0.27653(7)
N3 N 0.36221(9) 0.20023(10) 0.21436(7)
N4 N 0.54465(10) 0.55177(14) 0.07076(9)
C1 C 0.32851(10) 0.25612(12) 0.16422(9)
C2 C 0.30764(10) 0.34299(12) 0.19248(9)
C3 C 0.27576(10) 0.42521(12) 0.14957(8)
H1 H 0.22490 0.45090 0.17160
C4 C 0.25412(10) 0.38628(12) 0.07817(8)
C5 C 0.27043(11) 0.29425(12) 0.05680(9)
C6 C 0.32915(11) 0.33485(12) 0.26251(9)
C7 C 0.21446(11) 0.45237(12) 0.03137(9)
C8 C 0.19485(12) 0.41902(13) -0.04059(9)
H2 H 0.24230 0.43280 -0.07070
H3 H 0.14770 0.45670 -0.05810
C9 C 0.17444(11) 0.31117(13) -0.04531(9)
C10 C 0.24572(12) 0.25605(13) -0.01277(9)
H4 H 0.23020 0.18720 -0.00800
H5 H 0.29350 0.25940 -0.04410
C11 C 0.39634(11) 0.10594(12) 0.21071(9)
C12 C 0.43937(12) 0.07764(14) 0.15285(11)
H6 H 0.44620 0.12090 0.11530
C13 C 0.47248(13) -0.01482(15) 0.15027(12)
H7 H 0.50100 -0.03550 0.11020
C14 C 0.46419(13) -0.07669(15) 0.20549(13)
H8 H 0.48770 -0.13950 0.20380
C15 C 0.42168(13) -0.04726(14) 0.26316(12)
H9 H 0.41630 -0.08990 0.30130
C16 C 0.38695(12) 0.04364(13) 0.26598(10)
H10 H 0.35690 0.06330 0.30550
C17 C 0.33924(11) 0.50596(12) 0.14669(9)
C18 C 0.41087(11) 0.49349(13) 0.10959(9)
H11 H 0.42040 0.43530 0.08490
C19 C 0.46816(11) 0.56669(14) 0.10895(9)
C20 C 0.45843(12) 0.65251(13) 0.14432(10)
H12 H 0.49890 0.70170 0.14270
C21 C 0.38751(12) 0.66401(13) 0.18219(10)
H13 H 0.37880 0.72180 0.20760
C22 C 0.32901(11) 0.59148(12) 0.18322(9)
H14 H 0.28060 0.60050 0.20960
C23 C 0.31851(13) 0.40779(14) 0.31846(9)
H15 H 0.33870 0.38100 0.36200
H16 H 0.26030 0.42390 0.32310
H17 H 0.34950 0.46630 0.30700
C24 C 0.09456(13) 0.29005(16) -0.00726(11)
H18 H 0.08190 0.22100 -0.01080
H19 H 0.05010 0.32770 -0.02790
H20 H 0.10050 0.30790 0.04130
C25 C 0.16537(14) 0.28187(15) -0.12086(10)
H21 H 0.15300 0.21270 -0.12370
H22 H 0.21660 0.29530 -0.14540
H23 H 0.12070 0.31890 -0.14190
H24 H 0.3100(13) 0.1670(16) 0.0843(11)
#END
