
#######################################################################
#
#                 Cambridge Crystallographic Data Centre
#                                CCDC
#
#######################################################################
#
# If this CIF has been generated from an entry in the Cambridge
# Structural Database, then it will include bibliographic, chemical,
# crystal, experimental, refinement or atomic coordinate data resulting
# from the CCDC's data processing and validation procedures.
#
#######################################################################

data_CSD_CIF_FINMEU01
_audit_creation_date 2017-01-27
_audit_creation_method CSD-ConQuest-V1
_database_code_CSD FINMEU01
_database_code_depnum_ccdc_archive 'CCDC 1016481'
_chemical_formula_sum 'C14 H6 N4 O12'
_chemical_formula_moiety
;
C14 H6 N4 O12
;
_journal_coden_Cambridge 1489
_journal_volume 623
_journal_year 2015
_journal_page_first 275
_journal_name_full 'Mol.Cryst.Liq.Cryst. '
loop_
_publ_author_name
"Fang-Fang Chang"
"Jing-Ru Zhang"
"Rui-Feng Wu"
_chemical_name_systematic
;
4,4',6,6'-tetranitro[1,1'-biphenyl]-2,2'-dicarboxylic acid
;
_cell_volume   1634.339
_exptl_crystal_colour 'yellow'
_exptl_crystal_density_diffrn 1.716
_exptl_crystal_description 'needle'
_diffrn_ambient_temperature 153
#These two values have been output from a single CSD field.
_refine_ls_R_factor_gt 0.0502
_refine_ls_wR_factor_gt 0.0502
_symmetry_cell_setting monoclinic
_symmetry_space_group_name_H-M 'P 21/c'
_symmetry_Int_Tables_number 14
loop_
_symmetry_equiv_pos_site_id
_symmetry_equiv_pos_as_xyz
1 x,y,z
2 -x,1/2+y,1/2-z
3 -x,-y,-z
4 x,-1/2-y,-1/2+z
_cell_length_a 11.704(5)
_cell_length_b 9.149(3)
_cell_length_c 17.083(5)
_cell_angle_alpha 90
_cell_angle_beta 116.69(2)
_cell_angle_gamma 90
_cell_formula_units_Z 4
loop_
_atom_type_symbol
_atom_type_radius_bond
C 0.68
H 0.23
N 0.68
O 0.68
loop_
_atom_site_label
_atom_site_type_symbol
_atom_site_fract_x
_atom_site_fract_y
_atom_site_fract_z
O1 O 0.38795(17) 0.24659(19) 0.81708(12)
O2 O 0.55771(16) 0.3948(2) 0.87599(13)
H1 H 0.60560 0.29360 0.88700
O3 O 0.44885(18) 0.8344(2) 0.98705(12)
O4 O 0.2849(2) 0.9630(2) 0.90152(14)
O5 O 0.02771(18) 0.7883(2) 0.60861(13)
O6 O 0.00210(19) 0.5543(2) 0.59013(14)
O7 O 0.0754(2) 0.3439(2) 0.75367(14)
O8 O 0.0531(2) 0.1153(2) 0.72026(15)
O9 O 0.15019(19) -0.0630(2) 0.49363(13)
O10 O 0.2686(2) 0.0662(2) 0.45352(13)
O11 O 0.48083(16) 0.50646(19) 0.64816(12)
H2 H 0.53070 0.60190 0.65310
O12 O 0.31172(17) 0.65667(19) 0.60365(13)
N1 N 0.3524(2) 0.8541(2) 0.91835(15)
N2 N 0.0586(2) 0.6616(2) 0.63141(15)
N3 N 0.0886(2) 0.2388(2) 0.71499(14)
N4 N 0.2090(2) 0.0478(2) 0.49577(14)
C1 C 0.4358(2) 0.3691(3) 0.83442(16)
C2 C 0.3545(2) 0.5027(3) 0.81047(16)
C3 C 0.3919(2) 0.6165(3) 0.87035(16)
H3 H 0.46890 0.61020 0.92340
C4 C 0.3159(2) 0.7382(3) 0.85176(16)
C5 C 0.2059(2) 0.7534(3) 0.77405(17)
H4 H 0.15510 0.83930 0.76160
C6 C 0.1725(2) 0.6396(3) 0.71537(16)
C7 C 0.2422(2) 0.5098(3) 0.73135(16)
C8 C 0.2176(2) 0.3917(3) 0.66471(16)
C9 C 0.1514(2) 0.2619(3) 0.65841(16)
C10 C 0.1472(2) 0.1487(3) 0.60441(16)
H5 H 0.10170 0.06140 0.60170
C11 C 0.2116(2) 0.1662(3) 0.55406(16)
C12 C 0.2798(2) 0.2903(3) 0.55817(16)
H6 H 0.32430 0.29960 0.52360
C13 C 0.2823(2) 0.4023(3) 0.61395(16)
C14 C 0.3604(2) 0.5338(3) 0.62065(15)
#END
