
#######################################################################
#
#                 Cambridge Crystallographic Data Centre
#                                CCDC
#
#######################################################################
#
# If this CIF has been generated from an entry in the Cambridge
# Structural Database, then it will include bibliographic, chemical,
# crystal, experimental, refinement or atomic coordinate data resulting
# from the CCDC's data processing and validation procedures.
#
#######################################################################

data_CSD_CIF_FINMUK
_audit_creation_date 1988-04-19
_audit_creation_method CSD-ConQuest-V1
_database_code_CSD FINMUK
_database_code_depnum_ccdc_archive 'CCDC 1156779'
_chemical_formula_sum 'C34 H27 N3 O4'
_chemical_formula_moiety
;
C34 H27 N3 O4
;
_journal_coden_Cambridge 16
_journal_volume 43
_journal_year 1987
_journal_page_first 3031
_journal_name_full 'Tetrahedron '
loop_
_publ_author_name
"A.Alberti"
"L.Greci"
"P.Stipa"
"P.Sgarabotto"
"F.Ugozzoli"
_chemical_name_systematic
;
2,2-Diphenyl-4-(p-methoxyphenylamino)-5-(p-methoxyphenylimino)indolin-3-one 
N-oxide
;
_chemical_melting_point 449.15
_cell_volume   2746.991
_exptl_crystal_colour 'deep red'
_exptl_crystal_density_diffrn 1.31
_diffrn_ambient_temperature ?
_diffrn_special_details
;
The study was carried out at room temperature,in the range 283-303K

;
#These two values have been output from a single CSD field.
_refine_ls_R_factor_gt 0.038
_refine_ls_wR_factor_gt 0.038
_symmetry_cell_setting monoclinic
_symmetry_space_group_name_H-M 'P 21/n'
_symmetry_Int_Tables_number 14
loop_
_symmetry_equiv_pos_site_id
_symmetry_equiv_pos_as_xyz
1 x,y,z
2 1/2-x,1/2+y,1/2-z
3 -x,-y,-z
4 -1/2+x,-1/2-y,-1/2+z
_cell_length_a 20.572(3)
_cell_length_b 8.180(1)
_cell_length_c 16.360(2)
_cell_angle_alpha 90
_cell_angle_beta 93.8(1)
_cell_angle_gamma 90
_cell_formula_units_Z 4
loop_
_atom_type_symbol
_atom_type_radius_bond
C 0.68
H 0.23
N 0.68
O 0.68
loop_
_atom_site_label
_atom_site_type_symbol
_atom_site_fract_x
_atom_site_fract_y
_atom_site_fract_z
O1 O 0.4332(1) 0.6757(2) 0.0588(1)
O2 O 0.2430(1) 0.8325(2) -0.1022(1)
O3 O 0.0185(1) 0.4618(3) -0.2128(1)
O4 O 0.5907(1) 0.2481(3) -0.4852(1)
N1 N 0.3889(1) 0.6854(2) -0.0010(1)
N2 N 0.2779(1) 0.5979(2) -0.2602(1)
N3 N 0.3878(1) 0.5121(2) -0.3192(1)
C1 C 0.3267(1) 0.7780(2) 0.0081(1)
C2 C 0.2932(1) 0.7615(2) -0.0803(1)
C3 C 0.3350(1) 0.6595(2) -0.1273(1)
C4 C 0.3310(1) 0.6040(3) -0.2074(1)
C5 C 0.3920(1) 0.5425(3) -0.2415(1)
C6 C 0.4478(1) 0.5111(3) -0.1844(1)
C7 C 0.4484(1) 0.5482(3) -0.1045(1)
C8 C 0.3932(1) 0.6288(2) -0.0761(1)
C9 C 0.2870(1) 0.6975(3) 0.0727(1)
C10 C 0.2238(1) 0.6441(4) 0.0556(2)
C11 C 0.1885(1) 0.5747(4) 0.1168(2)
C12 C 0.2162(1) 0.5564(4) 0.1944(2)
C13 C 0.2787(1) 0.6069(4) 0.2117(2)
C14 C 0.3144(1) 0.6776(3) 0.1521(1)
C15 C 0.2115(1) 0.5788(3) -0.2433(1)
C16 C 0.1931(1) 0.4897(3) -0.1764(1)
C17 C 0.1282(1) 0.4538(3) -0.1681(2)
C18 C 0.0810(1) 0.5068(3) -0.2262(1)
C19 C 0.0988(1) 0.5976(3) -0.2919(2)
C20 C 0.1640(1) 0.6328(3) -0.3003(1)
C21 C -0.0323(2) 0.5268(8) -0.2666(4)
C22 C 0.4424(1) 0.4538(3) -0.3592(1)
C23 C 0.5023(1) 0.5297(3) -0.3559(2)
C24 C 0.5531(1) 0.4647(4) -0.3981(2)
C25 C 0.5432(1) 0.3233(3) -0.4427(1)
C26 C 0.4833(1) 0.2479(4) -0.4478(2)
C27 C 0.4327(1) 0.3152(3) -0.4082(1)
C28 C 0.6533(1) 0.3197(6) -0.4812(2)
C29 C 0.3449(1) 0.9551(2) 0.0279(1)
C30 C 0.3058(1) 1.0518(3) 0.0729(2)
C31 C 0.3225(1) 1.2131(3) 0.0904(2)
C32 C 0.3784(1) 1.2783(3) 0.0630(2)
C33 C 0.4177(1) 1.1839(3) 0.0177(2)
C34 C 0.4010(1) 1.0226(3) 0.0000(1)
H1 H 0.289(1) 0.568(3) -0.308(2)
H2 H 0.485(1) 0.455(3) -0.206(1)
H3 H 0.486(1) 0.528(3) -0.070(1)
H4 H 0.204(1) 0.659(3) 0.002(2)
H5 H 0.143(2) 0.543(4) 0.103(2)
H6 H 0.187(2) 0.509(4) 0.237(2)
H7 H 0.301(1) 0.595(4) 0.266(2)
H8 H 0.359(1) 0.715(3) 0.164(2)
H9 H 0.226(1) 0.450(3) -0.135(2)
H10 H 0.116(1) 0.386(4) -0.119(2)
H11 H 0.067(1) 0.641(3) -0.335(2)
H12 H 0.177(1) 0.693(3) -0.347(2)
H13 H -0.024(2) 0.477(6) -0.318(3)
H14 H -0.068(2) 0.477(5) -0.247(3)
H15 H -0.031(3) 0.667(8) -0.252(3)
H16 H 0.509(1) 0.635(3) -0.326(1)
H17 H 0.594(1) 0.519(3) -0.392(2)
H18 H 0.477(1) 0.141(4) -0.482(2)
H19 H 0.389(1) 0.257(3) -0.411(2)
H20 H 0.668(2) 0.341(4) -0.421(2)
H21 H 0.652(2) 0.439(5) -0.506(2)
H22 H 0.679(2) 0.246(5) -0.512(2)
H23 H 0.266(1) 1.004(3) 0.091(2)
H24 H 0.295(1) 1.279(4) 0.123(2)
H25 H 0.391(1) 1.393(4) 0.078(2)
H26 H 0.455(1) 1.226(3) -0.003(2)
H27 H 0.432(1) 0.951(3) -0.032(2)
#END
