
#######################################################################
#
#                 Cambridge Crystallographic Data Centre
#                                CCDC
#
#######################################################################
#
# If this CIF has been generated from an entry in the Cambridge
# Structural Database, then it will include bibliographic, chemical,
# crystal, experimental, refinement or atomic coordinate data resulting
# from the CCDC's data processing and validation procedures.
#
#######################################################################

data_CSD_CIF_FINMAQ
_audit_creation_date 1988-04-19
_audit_creation_method CSD-ConQuest-V1
_database_code_CSD FINMAQ
_database_code_depnum_ccdc_archive 'CCDC 1156776'
_chemical_formula_sum 'C13 H7 N3 O8'
_chemical_formula_moiety
;
C13 H7 N3 O8
;
_journal_coden_Cambridge 82
_journal_volume 28
_journal_year 1987
_journal_page_first 129-2
_journal_name_full 'Zh.Strukt.Khim.(Russ.)(J.Struct.Chem.) '
loop_
_publ_author_name
"E.G.Popova"
"L.A.Chetkina"
"V.K.Bel'skii"
"A.M.Andrievskii"
"A.N.Poplovskii"
"K.M.Dyumaev"
_chemical_name_systematic
;
2',4,4'-Trinitro-2-carboxybiphenyl
;
_cell_volume   2746.277
_exptl_crystal_colour 'light-yellow'
_exptl_crystal_density_diffrn 1.61
_diffrn_ambient_temperature ?
_diffrn_special_details
;
The study was carried out at room temperature,in the range 283-303K

;
#These two values have been output from a single CSD field.
_refine_ls_R_factor_gt 0.038
_refine_ls_wR_factor_gt 0.038
_symmetry_cell_setting orthorhombic
_symmetry_space_group_name_H-M 'P b c a'
_symmetry_Int_Tables_number 61
loop_
_symmetry_equiv_pos_site_id
_symmetry_equiv_pos_as_xyz
1 x,y,z
2 1/2-x,-y,1/2+z
3 1/2+x,1/2-y,-z
4 -x,1/2+y,1/2-z
5 -x,-y,-z
6 -1/2+x,y,-1/2-z
7 -1/2-x,-1/2+y,z
8 x,-1/2-y,-1/2+z
_cell_length_a 11.119(2)
_cell_length_b 10.936(2)
_cell_length_c 22.585(4)
_cell_angle_alpha 90
_cell_angle_beta 90
_cell_angle_gamma 90
_cell_formula_units_Z 8
loop_
_atom_type_symbol
_atom_type_radius_bond
C 0.68
N 0.68
O 0.68
loop_
_atom_site_label
_atom_site_type_symbol
_atom_site_fract_x
_atom_site_fract_y
_atom_site_fract_z
O1 O 0.6331(3) 0.0780(3) 0.2994(1)
O2 O 0.5002(3) 0.1076(3) 0.2316(1)
O3 O 0.1511(2) 0.3498(3) 0.2744(1)
O4 O 0.1648(2) 0.4944(3) 0.3384(1)
O5 O 1.1169(2) 0.2689(4) 0.4109(2)
O6 O 1.0647(2) 0.1272(3) 0.4696(1)
O7 O 0.6600(2) 0.0120(3) 0.4933(1)
O8 O 0.5089(2) 0.1069(3) 0.4485(1)
N1 N 0.5456(3) 0.1310(3) 0.2795(1)
N2 N 0.2047(3) 0.4050(3) 0.3128(1)
N3 N 1.0411(3) 0.2053(3) 0.4333(1)
C1 C 0.6786(3) 0.2520(3) 0.3816(2)
C2 C 0.7688(3) 0.3228(3) 0.3564(2)
C3 C 0.8880(3) 0.3083(4) 0.3725(2)
C4 C 0.9148(3) 0.2228(3) 0.4151(2)
C5 C 0.8285(3) 0.1526(3) 0.4424(1)
C6 C 0.7084(3) 0.1672(3) 0.4257(1)
C7 C 0.5517(3) 0.2807(3) 0.3630(1)
C8 C 0.4940(3) 0.3743(3) 0.3933(2)
C9 C 0.3806(3) 0.4147(3) 0.3777(2)
C10 C 0.3253(3) 0.3605(3) 0.3302(2)
C11 C 0.3777(3) 0.2681(3) 0.2982(1)
C12 C 0.4912(3) 0.2292(3) 0.3153(1)
C13 C 0.6165(3) 0.0925(3) 0.4568(2)
#END
