
#######################################################################
#
#                 Cambridge Crystallographic Data Centre
#                                CCDC
#
#######################################################################
#
# If this CIF has been generated from an entry in the Cambridge
# Structural Database, then it will include bibliographic, chemical,
# crystal, experimental, refinement or atomic coordinate data resulting
# from the CCDC's data processing and validation procedures.
#
#######################################################################

data_CSD_CIF_FINNIA
_audit_creation_date 2005-06-07
_audit_creation_method CSD-ConQuest-V1
_database_code_CSD FINNIA
_database_code_depnum_ccdc_archive 'CCDC 242533'
_chemical_formula_sum 'C11 H13 N3 O4'
_chemical_formula_moiety
;
C11 H13 N3 O4
;
_journal_coden_Cambridge 119
_journal_volume 738
_journal_year 2005
_journal_page_first 253
_journal_name_full 'J.Mol.Struct. '
loop_
_publ_author_name
"M.Yildiz"
"H.Unver"
"B.Dulger"
"D.Erdener"
"N.Ocak"
"A.Erdonmez"
"T.N.Durlu"
_chemical_name_systematic
;
N-(2-hydroxy-5-nitrobenzylidene)-4-aminomorpholine
;
_chemical_melting_point 471.15
_cell_volume   1160.560
_exptl_crystal_colour 'yellow'
_exptl_crystal_density_diffrn 1.438
_exptl_special_details
;
some antibacterial activity

;
_exptl_crystal_preparation 'chloroform/heptane'
_diffrn_ambient_temperature 293
#These two values have been output from a single CSD field.
_refine_ls_R_factor_gt 0.049
_refine_ls_wR_factor_gt 0.049
_symmetry_cell_setting monoclinic
_symmetry_space_group_name_H-M 'P 21/c'
_symmetry_Int_Tables_number 14
loop_
_symmetry_equiv_pos_site_id
_symmetry_equiv_pos_as_xyz
1 x,y,z
2 -x,1/2+y,1/2-z
3 -x,-y,-z
4 x,-1/2-y,-1/2+z
_cell_length_a 8.4105(11)
_cell_length_b 6.3508(9)
_cell_length_c 21.728(3)
_cell_angle_alpha 90
_cell_angle_beta 90.193(11)
_cell_angle_gamma 90
_cell_formula_units_Z 4
loop_
_atom_type_symbol
_atom_type_radius_bond
C 0.68
H 0.23
N 0.68
O 0.68
loop_
_atom_site_label
_atom_site_type_symbol
_atom_site_fract_x
_atom_site_fract_y
_atom_site_fract_z
H1 H -0.023(4) 0.824(5) 1.0958(13)
H2 H 0.105(4) 0.466(5) 1.1328(15)
H3 H 0.300(4) 0.726(7) 1.2144(16)
H4 H 0.416(3) 0.155(5) 0.9714(13)
H5 H 0.361(3) 0.273(5) 0.7920(14)
H6 H -0.001(4) 1.061(5) 1.1788(14)
H7 H 0.109(3) 0.992(4) 1.0731(13)
H8 H 0.304(4) 0.449(5) 1.1359(16)
H9 H 0.311(3) 0.387(5) 1.0501(14)
H10 H 0.200(4) 1.025(6) 1.1796(17)
H11 H 0.212(4) 0.589(5) 0.8132(15)
H12 H 0.176(4) 0.539(6) 1.2357(18)
H13 H 0.170(5) 0.770(7) 0.9601(19)
C1 C 0.3957(4) 0.1904(6) 0.87953(16)
O1 O 0.1697(3) 0.7456(4) 0.91806(13)
N1 N 0.2187(3) 0.6661(5) 1.03525(13)
N2 N 0.2083(3) 0.7216(5) 1.09680(12)
C2 C 0.3745(4) 0.2464(6) 0.94003(17)
O2 O 0.0657(3) 0.7910(4) 1.21225(11)
C3 C 0.2785(4) 0.4875(7) 1.01992(17)
N3 N 0.4773(4) -0.0047(5) 0.86554(15)
C4 C 0.2996(4) 0.4335(5) 0.95524(16)
C5 C 0.2450(4) 0.5621(6) 0.90710(17)
C6 C 0.2018(6) 0.5515(6) 1.14188(17)
O3 O 0.4915(3) -0.0571(4) 0.81103(12)
O4 O 0.5325(3) -0.1106(4) 0.90771(13)
C7 C 0.0835(5) 0.8809(7) 1.10437(18)
C8 C 0.2656(4) 0.5020(6) 0.84572(18)
C9 C 0.3422(5) 0.3176(7) 0.83198(18)
C10 C 0.0873(6) 0.9609(6) 1.17009(19)
C11 C 0.1915(6) 0.6455(8) 1.20582(19)
#END
