
#######################################################################
#
#                 Cambridge Crystallographic Data Centre
#                                CCDC
#
#######################################################################
#
# If this CIF has been generated from an entry in the Cambridge
# Structural Database, then it will include bibliographic, chemical,
# crystal, experimental, refinement or atomic coordinate data resulting
# from the CCDC's data processing and validation procedures.
#
#######################################################################

data_CSD_CIF_FIPNUP
_audit_creation_date 2013-12-23
_audit_creation_method CSD-ConQuest-V1
_database_code_CSD FIPNUP
_database_code_depnum_ccdc_archive 'CCDC 944795'
_chemical_formula_sum 'C17 H17 N1 O4'
_chemical_formula_moiety
;
C17 H17 N1 O4
;
_journal_coden_Cambridge 1291
_journal_year 2014
_journal_page_first 111
_journal_name_full 'Eur.J.Org.Chem. '
loop_
_publ_author_name
"R.C.Simon"
"E.Busto"
"N.Richter"
"F.Belaj"
"Wolfgang Kroutil"
_chemical_name_systematic
;
(1R,3S)-6-methoxy-3-methyl-1-(3-nitrophenyl)-3,4-dihydro-1H-isochromene
;
_cell_volume   1452.138
_exptl_crystal_colour 'colorless'
_exptl_crystal_density_diffrn 1.369
_exptl_crystal_description 'block'
_diffrn_ambient_temperature 100
#These two values have been output from a single CSD field.
_refine_ls_R_factor_gt 0.0307
_refine_ls_wR_factor_gt 0.0307
_symmetry_cell_setting orthorhombic
_symmetry_space_group_name_H-M 'P 21 21 21'
_symmetry_Int_Tables_number 19
loop_
_symmetry_equiv_pos_site_id
_symmetry_equiv_pos_as_xyz
1 x,y,z
2 1/2-x,-y,1/2+z
3 -x,1/2+y,1/2-z
4 1/2+x,1/2-y,-z
_cell_length_a 5.2082(1)
_cell_length_b 10.3467(3)
_cell_length_c 26.9475(7)
_cell_angle_alpha 90
_cell_angle_beta 90
_cell_angle_gamma 90
_cell_formula_units_Z 4
loop_
_atom_type_symbol
_atom_type_radius_bond
C 0.68
H 0.23
N 0.68
O 0.68
loop_
_atom_site_label
_atom_site_type_symbol
_atom_site_fract_x
_atom_site_fract_y
_atom_site_fract_z
C1 C 0.68347(18) 0.80843(9) 0.88055(3)
H1 H 0.51340 0.81420 0.86350
O1 O 0.72220(15) 0.92580(6) 0.90716(3)
C2 C 0.7495(2) 1.03338(9) 0.87371(3)
H2 H 0.61010 1.02930 0.84830
C3 C 1.0083(2) 1.02236(9) 0.84778(3)
H3 H 1.02240 1.09010 0.82200
H4 H 1.14790 1.03600 0.87220
C4 C 1.21633(19) 0.87199(9) 0.78552(3)
H5 H 1.31660 0.94250 0.77390
C5 C 1.2457(2) 0.75006(10) 0.76437(3)
C6 C 1.0976(2) 0.6465(1) 0.78147(4)
H6 H 1.11820 0.56310 0.76720
C7 C 0.9208(2) 0.66555(9) 0.81913(4)
H7 H 0.81980 0.59490 0.83040
C8 C 0.88839(19) 0.78736(9) 0.84096(3)
C9 C 1.03784(18) 0.89068(9) 0.82409(3)
C10 C 0.67028(19) 0.69845(9) 0.91732(3)
C11 C 0.48237(19) 0.60441(9) 0.91138(3)
H8 H 0.35860 0.61120 0.88560
C12 C 0.47899(19) 0.50010(9) 0.94390(3)
C13 C 0.6537(2) 0.4857(1) 0.98229(4)
H9 H 0.64710 0.41300 1.00380
C14 C 0.8394(2) 0.58143(10) 0.98830(4)
H10 H 0.96040 0.57500 1.01460
C15 C 0.84858(19) 0.68659(10) 0.95597(3)
H11 H 0.97710 0.75080 0.96020
N1 N 0.28050(18) 0.40085(8) 0.93639(3)
O2 O 0.15523(19) 0.40394(9) 0.89765(3)
O3 O 0.24971(18) 0.31968(7) 0.96915(3)
C16 C 0.7182(2) 1.15576(9) 0.90390(4)
H12 H 0.85310 1.15990 0.92920
H13 H 0.54960 1.15560 0.92000
H14 H 0.73170 1.23100 0.88200
O4 O 1.41178(16) 0.72078(7) 0.72656(3)
C17 C 1.5785(2) 0.82155(11) 0.70992(4)
H15 H 1.68500 0.85120 0.73760
H16 H 1.47570 0.89380 0.69740
H17 H 1.68910 0.78870 0.68330
#END
