
#######################################################################
#
#                 Cambridge Crystallographic Data Centre
#                                CCDC
#
#######################################################################
#
# If this CIF has been generated from an entry in the Cambridge
# Structural Database, then it will include bibliographic, chemical,
# crystal, experimental, refinement or atomic coordinate data resulting
# from the CCDC's data processing and validation procedures.
#
#######################################################################

data_CSD_CIF_FIPZIN
_audit_creation_date 1988-03-22
_audit_creation_method CSD-ConQuest-V1
_database_code_CSD FIPZIN
_database_code_depnum_ccdc_archive 'CCDC 1156951'
_chemical_formula_sum 'C4 H8 N12 O6'
_chemical_formula_moiety
;
C4 H8 N12 O6
;
_journal_coden_Cambridge 37
_journal_volume 91
_journal_year 1987
_journal_page_first 920
_journal_name_full 'J.Phys.Chem. '
loop_
_publ_author_name
"Y.Oyumi"
"A.L.Rheingold"
"T.B.Brill"
_chemical_name_systematic
;
1,7-Diazido-2,4,6-trinitro-2,4,6-triazaheptane
;
_chemical_melting_point 406
_cell_volume    619.863
_exptl_crystal_colour 'colorless'
_exptl_crystal_density_diffrn 1.72
_exptl_special_details
;
Melts with decomposition.

;
_diffrn_ambient_temperature ?
_diffrn_special_details
;
The study was carried out at room temperature,in the range 283-303K

;
#These two values have been output from a single CSD field.
_refine_ls_R_factor_gt 0.0362
_refine_ls_wR_factor_gt 0.0362
_symmetry_cell_setting triclinic
_symmetry_space_group_name_H-M 'P -1'
_symmetry_Int_Tables_number 2
loop_
_symmetry_equiv_pos_site_id
_symmetry_equiv_pos_as_xyz
1 x,y,z
2 -x,-y,-z
_cell_length_a 6.407(1)
_cell_length_b 9.793(2)
_cell_length_c 10.801(2)
_cell_angle_alpha 109.52(1)
_cell_angle_beta 102.19(1)
_cell_angle_gamma 92.27(1)
_cell_formula_units_Z 2
loop_
_atom_type_symbol
_atom_type_radius_bond
C 0.68
H 0.23
N 0.68
O 0.68
loop_
_atom_site_label
_atom_site_type_symbol
_atom_site_fract_x
_atom_site_fract_y
_atom_site_fract_z
O1 O 0.9344(2) 0.9806(2) 1.2041(1)
O2 O 0.7780(2) 0.9937(2) 1.0099(2)
O3 O 0.4536(2) 0.5585(2) 0.8926(1)
O4 O 0.2141(2) 0.6399(2) 0.7682(2)
O5 O 0.7532(2) 0.6775(2) 0.5864(2)
O6 O 0.5039(3) 0.5976(2) 0.3994(2)
N1 N 0.8269(2) 0.7776(2) 1.0248(2)
N2 N 0.5576(2) 0.7226(2) 0.8127(2)
N3 N 0.4226(2) 0.7317(2) 0.5883(2)
N4 N 0.8491(2) 0.9253(2) 1.0827(2)
N5 N 0.3984(2) 0.6350(2) 0.8251(2)
N6 N 0.5686(3) 0.6655(2) 0.5203(2)
N7 N 1.1203(3) 0.6485(2) 1.0973(2)
N8 N 1.2702(3) 0.7457(2) 1.1446(2)
N9 N 1.4241(3) 0.8222(2) 1.1809(3)
N10 N 0.1725(3) 0.8000(2) 0.4222(2)
N11 N 0.2222(3) 0.9311(2) 0.4755(2)
N12 N 0.2627(4) 1.0530(3) 0.5092(3)
C1 C 0.9056(3) 0.6913(2) 1.1075(2)
C2 C 0.7766(3) 0.7150(2) 0.8771(2)
C3 C 0.4984(3) 0.8133(2) 0.7320(2)
C4 C 0.2026(3) 0.7173(2) 0.5130(2)
H1 H 0.8103(29) 0.6012(20) 1.0729(18)
H2 H 0.8969(35) 0.7431(23) 1.2003(23)
H3 H 0.8092(29) 0.6154(21) 0.8546(19)
H4 H 0.8642(30) 0.7657(20) 0.8450(19)
H5 H 0.3847(30) 0.8711(20) 0.7595(19)
H6 H 0.6272(31) 0.8823(20) 0.7468(20)
H7 H 0.1585(36) 0.6126(24) 0.4544(23)
H8 H 0.1196(39) 0.7502(25) 0.5820(25)
#END
