
#######################################################################
#
#                 Cambridge Crystallographic Data Centre
#                                CCDC
#
#######################################################################
#
# If this CIF has been generated from an entry in the Cambridge
# Structural Database, then it will include bibliographic, chemical,
# crystal, experimental, refinement or atomic coordinate data resulting
# from the CCDC's data processing and validation procedures.
#
#######################################################################

data_CSD_CIF_FIRNIE
_audit_creation_date 2005-06-08
_audit_creation_method CSD-ConQuest-V1
_database_code_CSD FIRNIE
_database_code_depnum_ccdc_archive 'CCDC 229975'
_database_code_depnum_ccdc_journal 1267/1309
_chemical_formula_sum 'C14 H11 N1 O2'
_chemical_formula_moiety
;
C14 H11 N1 O2
;
_journal_coden_Cambridge 1267
_journal_volume 219
_journal_year 2004
_journal_page_first 379
_journal_name_full 'Z.Kristallogr.-New Cryst.Struct. '
loop_
_publ_author_name
"O.Altinbas"
"H.A.Dondas"
"H.Arslan"
"N.Kulcu"
"C.Killner"
_chemical_name_systematic
;
E-Benzaldehyde O-benzoyloxime
;
_chemical_melting_point 356.15
_cell_volume   1132.714
_exptl_crystal_colour 'colorless'
_exptl_crystal_density_diffrn 1.321
_exptl_special_details
;
Melting point range 356.15-358.15K

;
_exptl_crystal_preparation '60-80 petroleum ether/ethyl acetate'
_diffrn_ambient_temperature 150
#These two values have been output from a single CSD field.
_refine_ls_R_factor_gt 0.0532
_refine_ls_wR_factor_gt 0.0532
_symmetry_cell_setting orthorhombic
_symmetry_space_group_name_H-M 'P 21 21 21'
_symmetry_Int_Tables_number 19
loop_
_symmetry_equiv_pos_site_id
_symmetry_equiv_pos_as_xyz
1 x,y,z
2 1/2+x,1/2-y,-z
3 -x,1/2+y,1/2-z
4 1/2-x,-y,1/2+z
_cell_length_a 5.9386(2)
_cell_length_b 8.8513(3)
_cell_length_c 21.5491(9)
_cell_angle_alpha 90
_cell_angle_beta 90
_cell_angle_gamma 90
_cell_formula_units_Z 4
loop_
_atom_type_symbol
_atom_type_radius_bond
C 0.68
H 0.23
N 0.68
O 0.68
loop_
_atom_site_label
_atom_site_type_symbol
_atom_site_fract_x
_atom_site_fract_y
_atom_site_fract_z
N1 N 1.0075(3) 0.66142(18) 0.11295(7)
O1 O 0.6602(3) 0.66523(19) 0.03938(8)
O2 O 1.0025(3) 0.56543(14) 0.05895(6)
C1 C 0.8060(4) 0.5754(2) 0.02741(9)
C2 C 1.2097(4) 0.7039(2) 0.12185(9)
H1 H 1.342(5) 0.682(3) 0.0899(12)
C3 C 1.2656(4) 0.7992(2) 0.17564(9)
C4 C 1.4735(4) 0.8714(2) 0.17797(10)
H2 H 1.582(4) 0.853(2) 0.1468(10)
C5 C 1.5246(4) 0.9672(2) 0.22638(11)
H3 H 1.659(5) 1.015(3) 0.2284(11)
C6 C 1.3709(4) 0.9900(2) 0.27395(10)
H4 H 1.403(5) 1.055(3) 0.3056(12)
C7 C 1.1647(4) 0.9175(2) 0.27245(10)
H5 H 1.068(4) 0.930(2) 0.3082(10)
C8 C 1.1116(4) 0.8213(2) 0.22384(10)
H6 H 0.962(5) 0.766(3) 0.2217(12)
C9 C 0.7983(4) 0.4641(2) -0.02409(9)
C10 C 0.6038(4) 0.4583(3) -0.0605(1)
H7 H 0.483(5) 0.520(3) -0.0470(11)
C11 C 0.5924(4) 0.3574(3) -0.10991(10)
H8 H 0.457(5) 0.351(3) -0.1335(14)
C12 C 0.7715(4) 0.2631(2) -0.12277(10)
H9 H 0.762(4) 0.195(2) -0.1557(10)
C13 C 0.9634(4) 0.2676(2) -0.08649(10)
H10 H 1.090(5) 0.194(3) -0.0928(10)
C14 C 0.9771(4) 0.3672(2) -0.03701(10)
H11 H 1.099(4) 0.374(2) -0.0125(10)
#END
