
#######################################################################
#
#                 Cambridge Crystallographic Data Centre
#                                CCDC
#
#######################################################################
#
# If this CIF has been generated from an entry in the Cambridge
# Structural Database, then it will include bibliographic, chemical,
# crystal, experimental, refinement or atomic coordinate data resulting
# from the CCDC's data processing and validation procedures.
#
#######################################################################

data_CSD_CIF_FISNOM
_audit_creation_date 2014-01-02
_audit_creation_method CSD-ConQuest-V1
_database_code_CSD FISNOM
_database_code_depnum_ccdc_archive 'CCDC 959645'
_chemical_formula_sum 'C13 H16 N2 O3'
_chemical_formula_moiety
;
C13 H16 N2 O3
;
_journal_coden_Cambridge 182
_journal_volume 50
_journal_year 2014
_journal_page_first 1588
_journal_name_full 'Chem.Commun. '
loop_
_publ_author_name
"R.C.F.Jones"
"J.P.Bullous"
"C.C.M.Law"
"M.R.J.Elsegood"
_chemical_name_systematic
;
5-(But-2-enoyl)-6-isopropyl-3-methyl-5,6-dihydro-4H-pyrrolo[3,4-c][1,2]oxazol-
4-one
;
_cell_volume   1274.924
_exptl_crystal_colour 'colorless'
_exptl_crystal_density_diffrn 1.294
_exptl_crystal_description 'lath'
_diffrn_ambient_temperature 150
#These two values have been output from a single CSD field.
_refine_ls_R_factor_gt 0.0318
_refine_ls_wR_factor_gt 0.0318
_symmetry_cell_setting orthorhombic
_symmetry_space_group_name_H-M 'P 21 21 21'
_symmetry_Int_Tables_number 19
loop_
_symmetry_equiv_pos_site_id
_symmetry_equiv_pos_as_xyz
1 x,y,z
2 1/2-x,-y,1/2+z
3 -x,1/2+y,1/2-z
4 1/2+x,1/2-y,-z
_cell_length_a 6.9698(12)
_cell_length_b 9.5108(16)
_cell_length_c 19.233(3)
_cell_angle_alpha 90
_cell_angle_beta 90
_cell_angle_gamma 90
_cell_formula_units_Z 4
loop_
_atom_type_symbol
_atom_type_radius_bond
C 0.68
H 0.23
N 0.68
O 0.68
loop_
_atom_site_label
_atom_site_type_symbol
_atom_site_fract_x
_atom_site_fract_y
_atom_site_fract_z
N1 N 0.6760(3) 0.47667(18) 0.17030(8)
O1 O 0.6596(2) 0.34386(15) 0.20662(7)
C1 C 0.5953(3) 0.2431(2) 0.16305(10)
C2 C 0.5658(3) 0.3043(2) 0.09976(10)
C3 C 0.6192(3) 0.4450(2) 0.10789(10)
C4 C 0.5887(3) 0.5260(2) 0.04159(9)
H1 H 0.704(3) 0.563(2) 0.0234(11)
N2 N 0.5322(2) 0.40813(16) -0.00600(8)
C5 C 0.5092(3) 0.2767(2) 0.02828(9)
O2 O 0.4512(2) 0.16826(13) 0.00244(7)
C6 C 0.5773(4) 0.0993(2) 0.19076(12)
H2 H 0.491(5) 0.044(3) 0.1630(16)
H3 H 0.690(7) 0.052(4) 0.191(2)
H4 H 0.506(4) 0.092(3) 0.2330(14)
C7 C 0.4362(3) 0.6423(2) 0.04790(11)
H5 H 0.416(3) 0.679(2) 0.0018(11)
C8 C 0.5136(4) 0.7610(2) 0.09322(13)
H6 H 0.644(4) 0.802(2) 0.0798(14)
H7 H 0.419(4) 0.842(3) 0.0956(14)
H8 H 0.536(4) 0.731(2) 0.1422(14)
C9 C 0.2457(3) 0.5881(3) 0.07569(14)
H9 H 0.196(4) 0.512(3) 0.0474(13)
H10 H 0.257(4) 0.549(3) 0.1259(14)
H11 H 0.147(4) 0.667(3) 0.0803(15)
C10 C 0.5543(3) 0.4308(2) -0.07795(10)
O3 O 0.5795(3) 0.55123(15) -0.09796(7)
C11 C 0.5554(3) 0.3089(2) -0.12532(10)
H12 H 0.532(3) 0.216(2) -0.1071(11)
C12 C 0.5902(3) 0.3271(2) -0.19257(10)
H13 H 0.610(4) 0.422(3) -0.2100(12)
C13 C 0.6051(4) 0.2113(3) -0.24419(13)
H14 H 0.517(4) 0.226(3) -0.2797(14)
H15 H 0.736(5) 0.208(3) -0.2643(14)
H16 H 0.582(4) 0.116(3) -0.2224(14)
#END
