
#######################################################################
#
#                 Cambridge Crystallographic Data Centre
#                                CCDC
#
#######################################################################
#
# If this CIF has been generated from an entry in the Cambridge
# Structural Database, then it will include bibliographic, chemical,
# crystal, experimental, refinement or atomic coordinate data resulting
# from the CCDC's data processing and validation procedures.
#
#######################################################################

data_CSD_CIF_FITFIY
_audit_creation_date 2005-06-09
_audit_creation_method CSD-ConQuest-V1
_database_code_CSD FITFIY
_database_code_depnum_ccdc_archive 'CCDC 250191'
_chemical_formula_sum 'C16 H23 N2 O3'
_chemical_formula_moiety
;
C16 H23 N2 O3
;
_journal_coden_Cambridge 1145
_journal_volume 15
_journal_year 2005
_journal_page_first 850
_journal_name_full 'J.Mater.Chem. '
loop_
_publ_author_name
"C.Stroh"
"R.Ziessel"
"G.Raudaschl-Sieber"
"F.H.Kohler"
"P.Turek"
_chemical_name_systematic
;
2-Methyl-7-(4,5-dihydro-4,4,5,5-tetramethyl-1H-imidazol-1-oxy-3-oxide-2-yl)oct
a-2,4,6-trienal radical
;
_cell_volume   3200.595
_exptl_crystal_colour 'green'
_exptl_crystal_density_diffrn 1.21
_exptl_crystal_description 'prism'
_exptl_crystal_preparation 'dichloromethane/hexane'
_diffrn_ambient_temperature 173
#These two values have been output from a single CSD field.
_refine_ls_R_factor_gt 0.037
_refine_ls_wR_factor_gt 0.037
_symmetry_cell_setting orthorhombic
_symmetry_space_group_name_H-M 'P b c a'
_symmetry_Int_Tables_number 61
loop_
_symmetry_equiv_pos_site_id
_symmetry_equiv_pos_as_xyz
1 x,y,z
2 1/2-x,-y,1/2+z
3 -x,1/2+y,1/2-z
4 1/2+x,1/2-y,-z
5 -x,-y,-z
6 -1/2+x,y,-1/2-z
7 x,-1/2-y,-1/2+z
8 -1/2-x,-1/2+y,z
_cell_length_a 11.2540(2)
_cell_length_b 11.9432(2)
_cell_length_c 23.8124(7)
_cell_angle_alpha 90
_cell_angle_beta 90
_cell_angle_gamma 90
_cell_formula_units_Z 8
loop_
_atom_type_symbol
_atom_type_radius_bond
C 0.68
H 0.23
N 0.68
O 0.68
loop_
_atom_site_label
_atom_site_type_symbol
_atom_site_fract_x
_atom_site_fract_y
_atom_site_fract_z
C1 C 0.5006(2) 0.1045(2) 0.08885(8)
N1 N 0.3813(1) 0.1092(1) 0.09622(7)
C2 C 0.3355(2) 0.2269(1) 0.09942(8)
C3 C 0.4375(2) 0.2890(1) 0.06746(9)
N2 N 0.5381(1) 0.2104(1) 0.07808(6)
O1 O 0.3114(1) 0.0259(1) 0.10494(7)
C4 C 0.2148(2) 0.2352(2) 0.07230(9)
C5 C 0.3282(2) 0.2571(2) 0.1612(1)
C6 C 0.4658(2) 0.4045(2) 0.0894(1)
C7 C 0.4203(2) 0.2905(2) 0.00404(9)
O2 O 0.6468(1) 0.2414(1) 0.07322(7)
C8 C 0.5753(1) 0.0055(1) 0.09217(8)
C9 C 0.6878(2) 0.0046(2) 0.05738(9)
C10 C 0.5417(2) -0.0787(2) 0.12593(8)
C11 C 0.6067(2) -0.1802(1) 0.13735(8)
C12 C 0.5642(2) -0.2601(2) 0.17160(8)
C13 C 0.6263(2) -0.3627(1) 0.18373(8)
C14 C 0.5822(2) -0.4500(2) 0.21206(8)
C15 C 0.4588(2) -0.4559(2) 0.23584(9)
C16 C 0.6581(2) -0.5486(2) 0.21764(9)
O3 O 0.6294(1) -0.6372(1) 0.23877(7)
H1 H 0.18700 0.31020 0.07470
H2 H 0.22040 0.21380 0.03400
H3 H 0.16080 0.18700 0.09120
H4 H 0.29940 0.33140 0.16510
H5 H 0.27570 0.20690 0.17970
H6 H 0.40500 0.25170 0.17760
H7 H 0.52830 0.43610 0.06780
H8 H 0.39720 0.45050 0.08650
H9 H 0.48960 0.39950 0.12750
H10 H 0.48470 0.32910 -0.01300
H11 H 0.41760 0.21580 -0.00960
H12 H 0.34800 0.32750 -0.00480
H13 H 0.72870 -0.06410 0.06310
H14 H 0.66810 0.01210 0.01880
H15 H 0.73730 0.06510 0.06850
H16 H 0.46720 -0.07060 0.14430
H17 H 0.68200 -0.19090 0.12010
H18 H 0.48900 -0.24820 0.18880
H19 H 0.70560 -0.36890 0.17040
H20 H 0.44790 -0.52580 0.25410
H21 H 0.44790 -0.39690 0.26210
H22 H 0.40260 -0.44850 0.20630
H23 H 0.73680 -0.54300 0.20350
#END
