
#######################################################################
#
#                 Cambridge Crystallographic Data Centre
#                                CCDC
#
#######################################################################
#
# If this CIF has been generated from an entry in the Cambridge
# Structural Database, then it will include bibliographic, chemical,
# crystal, experimental, refinement or atomic coordinate data resulting
# from the CCDC's data processing and validation procedures.
#
#######################################################################

data_CSD_CIF_FIVNUV
_audit_creation_date 2014-01-06
_audit_creation_method CSD-ConQuest-V1
_database_code_CSD FIVNUV
_database_code_depnum_ccdc_archive 'CCDC 912896'
_chemical_formula_sum 'C25 H19 N3 O2'
_chemical_formula_moiety
;
C25 H19 N3 O2
;
_journal_coden_Cambridge 35
_journal_volume 79
_journal_year 2014
_journal_page_first 41
_journal_name_full 'J.Org.Chem. '
loop_
_publ_author_name
"S.L.Broman"
"M.Jevric"
"A.D.Bond"
"M.B.Nielsen"
_chemical_name_systematic
;
(2,2-bis(cyclohepta-2,4,6-trien-1-yl)-1-(4-nitrophenyl)ethylidene)malononitril
e
;
_cell_volume   1986.012
_exptl_crystal_colour 'yellow'
_exptl_crystal_density_diffrn 1.316
_exptl_crystal_description 'block'
_diffrn_ambient_temperature 150
#These two values have been output from a single CSD field.
_refine_ls_R_factor_gt 0.0255
_refine_ls_wR_factor_gt 0.0255
_symmetry_cell_setting orthorhombic
_symmetry_space_group_name_H-M 'P c a 21'
_symmetry_Int_Tables_number 29
loop_
_symmetry_equiv_pos_site_id
_symmetry_equiv_pos_as_xyz
1 x,y,z
2 -x,-y,1/2+z
3 1/2+x,-y,z
4 1/2-x,y,1/2+z
_cell_length_a 17.7097(9)
_cell_length_b 8.5590(4)
_cell_length_c 13.1023(6)
_cell_angle_alpha 90
_cell_angle_beta 90
_cell_angle_gamma 90
_cell_formula_units_Z 4
loop_
_atom_type_symbol
_atom_type_radius_bond
C 0.68
H 0.23
N 0.68
O 0.68
loop_
_atom_site_label
_atom_site_type_symbol
_atom_site_fract_x
_atom_site_fract_y
_atom_site_fract_z
O1 O 0.50794(6) 0.79249(14) 0.32216(11)
O2 O 0.56411(7) 0.62451(15) 0.22580(11)
N1 N 0.36212(8) -0.20229(16) 0.62705(12)
N2 N 0.55029(8) 0.10830(17) 0.59530(12)
N3 N 0.52070(7) 0.65857(18) 0.29488(11)
C1 C 0.23514(8) 0.26908(16) 0.53034(11)
H1 H 0.23230 0.35660 0.47990
C2 C 0.28391(8) 0.13733(16) 0.48308(11)
H2 H 0.26930 0.03630 0.51590
C3 C 0.36738(8) 0.16243(16) 0.49967(11)
C4 C 0.40943(8) 0.06068(17) 0.55453(11)
C5 C 0.26287(8) 0.33454(18) 0.62957(12)
H3 H 0.29960 0.27850 0.66760
C6 C 0.23674(9) 0.47067(18) 0.66556(12)
H4 H 0.26170 0.51500 0.72290
C7 C 0.17380(9) 0.55425(18) 0.62376(13)
H5 H 0.17580 0.66510 0.62540
C8 C 0.11182(9) 0.4873(2) 0.58220(13)
H6 H 0.07280 0.55430 0.55850
C9 C 0.10095(9) 0.3218(2) 0.57137(12)
H7 H 0.05080 0.28330 0.57680
C10 C 0.15587(8) 0.21771(18) 0.55427(12)
H8 H 0.14460 0.10930 0.55730
C11 C 0.38049(8) -0.08286(19) 0.59602(11)
C12 C 0.48814(9) 0.08768(17) 0.57552(12)
C13 C 0.40704(8) 0.29485(17) 0.44832(11)
C14 C 0.39530(8) 0.44979(17) 0.47655(12)
H9 H 0.36110 0.47390 0.53020
C15 C 0.43319(8) 0.56857(17) 0.42676(12)
H10 H 0.42590 0.67450 0.44610
C16 C 0.48184(8) 0.53043(18) 0.34840(12)
C17 C 0.49567(9) 0.37847(18) 0.31908(13)
H11 H 0.53020 0.35520 0.26570
C18 C 0.45750(8) 0.26074(19) 0.37008(12)
H12 H 0.46590 0.15500 0.35130
C19 C 0.26796(8) 0.12437(17) 0.36620(11)
H13 H 0.28070 0.22760 0.33480
C20 C 0.31495(8) 0.0022(2) 0.31342(12)
H14 H 0.35080 0.03700 0.26440
C21 C 0.31013(9) -0.15077(19) 0.33016(12)
H15 H 0.34800 -0.21370 0.29930
C22 C 0.25418(10) -0.23203(19) 0.38961(13)
H16 H 0.26890 -0.32710 0.42130
C23 C 0.18256(10) -0.18353(19) 0.40368(13)
H17 H 0.15050 -0.24900 0.44300
C24 C 0.15039(9) -0.04189(18) 0.36458(12)
H18 H 0.09750 -0.04310 0.35230
C25 C 0.18633(8) 0.09159(17) 0.34345(11)
H19 H 0.15800 0.17220 0.31150
#END
