
#######################################################################
#
#                 Cambridge Crystallographic Data Centre
#                                CCDC
#
#######################################################################
#
# If this CIF has been generated from an entry in the Cambridge
# Structural Database, then it will include bibliographic, chemical,
# crystal, experimental, refinement or atomic coordinate data resulting
# from the CCDC's data processing and validation procedures.
#
#######################################################################

data_CSD_CIF_FIWFUO
_audit_creation_date 2014-01-06
_audit_creation_method CSD-ConQuest-V1
_database_code_CSD FIWFUO
_database_code_depnum_ccdc_archive 'CCDC 979968'
_chemical_formula_sum 'C21 H24 N4 O5'
_chemical_formula_moiety
;
C21 H24 N4 O5
;
_journal_coden_Cambridge 35
_journal_volume 78
_journal_year 2013
_journal_page_first 11911
_journal_name_full 'J.Org.Chem. '
loop_
_publ_author_name
"R.Parella"
"B.Gopalakrishnan"
"S.A.Babu"
_chemical_name_systematic
;
N-(2-(Dimethylamino)ethyl)-2,4-bis(3-nitrophenyl)cyclobutanecarboxamide
;
_cell_volume   4207.989
_exptl_crystal_density_diffrn 1.302
_diffrn_ambient_temperature 296
#These two values have been output from a single CSD field.
_refine_ls_R_factor_gt 0.0513
_refine_ls_wR_factor_gt 0.0513
_symmetry_cell_setting monoclinic
_symmetry_space_group_name_H-M 'C 2/c'
_symmetry_Int_Tables_number 15
loop_
_symmetry_equiv_pos_site_id
_symmetry_equiv_pos_as_xyz
1 x,y,z
2 -x,y,1/2-z
3 1/2+x,1/2+y,z
4 1/2-x,1/2+y,1/2-z
5 -x,-y,-z
6 x,-y,-1/2+z
7 -1/2-x,-1/2-y,-z
8 -1/2+x,-1/2-y,-1/2+z
_cell_length_a 35.3642(14)
_cell_length_b 5.4364(2)
_cell_length_c 21.9052(9)
_cell_angle_alpha 90
_cell_angle_beta 92.293(4)
_cell_angle_gamma 90
_cell_formula_units_Z 8
loop_
_atom_type_symbol
_atom_type_radius_bond
C 0.68
H 0.23
N 0.68
O 0.68
loop_
_atom_site_label
_atom_site_type_symbol
_atom_site_fract_x
_atom_site_fract_y
_atom_site_fract_z
C1 C 0.22149(8) -0.2908(5) 0.10977(13)
C2 C 0.27399(8) -0.0171(5) 0.12112(13)
C3 C 0.14718(7) -0.1233(4) 0.14833(12)
C4 C 0.14749(7) -0.3481(4) 0.10912(14)
H1 H 0.13860 -0.49650 0.12950
C5 C 0.24216(8) -0.0953(4) 0.08840(13)
H2 H 0.23460 -0.01710 0.05220
C6 C 0.09822(8) -0.1255(5) 0.03259(14)
C7 C 0.12935(8) -0.3091(5) 0.04404(14)
H3 H 0.12090 -0.46890 0.02790
C8 C 0.13128(8) 0.0549(5) 0.24552(13)
H4 H 0.15120 0.17230 0.23810
H5 H 0.13410 0.00060 0.28760
C9 C 0.18616(8) -0.3839(5) 0.07740(14)
H6 H 0.18940 -0.55890 0.06820
C10 C 0.09317(8) 0.1780(5) 0.23526(14)
H7 H 0.08770 0.19180 0.19160
H8 H 0.07390 0.07360 0.25200
C11 C 0.16909(8) -0.2546(5) 0.02043(15)
H9 H 0.17430 -0.33700 -0.01760
H10 H 0.17510 -0.08080 0.01840
C12 C 0.23415(10) -0.4014(5) 0.16353(17)
H11 H 0.22080 -0.53460 0.17830
C13 C 0.28641(9) -0.1239(6) 0.17498(14)
H12 H 0.30780 -0.06580 0.19650
C14 C 0.26601(11) -0.3205(6) 0.19603(16)
H13 H 0.27370 -0.39880 0.23220
C15 C 0.06864(8) -0.1064(6) 0.07099(14)
H14 H 0.06730 -0.21050 0.10450
C16 C 0.04084(9) 0.0684(7) 0.05955(17)
C17 C 0.09832(10) 0.0323(7) -0.01718(16)
H15 H 0.11800 0.02310 -0.04390
C18 C 0.07006(13) 0.2014(7) -0.0280(2)
H16 H 0.07060 0.30260 -0.06220
C19 C 0.05294(11) 0.5172(6) 0.2492(3)
H17 H 0.04960 0.54860 0.20620
H18 H 0.05000 0.66780 0.27140
H19 H 0.03440 0.40020 0.26140
C20 C 0.09776(14) 0.4068(9) 0.3289(2)
H20 H 0.07990 0.29720 0.34640
H21 H 0.09510 0.56800 0.34610
H22 H 0.12300 0.34760 0.33770
C21 C 0.04153(12) 0.2220(7) 0.0106(2)
H23 H 0.02260 0.33910 0.00390
N1 N 0.13472(6) -0.1533(4) 0.20529(10)
H24 H 0.12880 -0.29770 0.21770
N2 N 0.09063(7) 0.4187(4) 0.26223(14)
N3 N 0.29581(8) 0.1903(4) 0.09703(14)
N4 N 0.01042(10) 0.0914(10) 0.1023(2)
O1 O 0.15768(5) 0.0775(3) 0.13021(8)
O2 O -0.01208(10) 0.2611(8) 0.09350(18)
O3 O 0.28416(7) 0.2881(4) 0.05056(12)
O4 O 0.32494(7) 0.2526(4) 0.12469(12)
O5 O 0.00752(9) -0.0589(10) 0.14216(17)
#END
