
#######################################################################
#
#                 Cambridge Crystallographic Data Centre
#                                CCDC
#
#######################################################################
#
# If this CIF has been generated from an entry in the Cambridge
# Structural Database, then it will include bibliographic, chemical,
# crystal, experimental, refinement or atomic coordinate data resulting
# from the CCDC's data processing and validation procedures.
#
#######################################################################

data_CSD_CIF_FIWHAW
_audit_creation_date 2014-01-06
_audit_creation_method CSD-ConQuest-V1
_database_code_CSD FIWHAW
_database_code_depnum_ccdc_archive 'CCDC 979974'
_chemical_formula_sum 'C25 H26 N2 O7'
_chemical_formula_moiety
;
C25 H26 N2 O7
;
_journal_coden_Cambridge 35
_journal_volume 78
_journal_year 2013
_journal_page_first 12426
_journal_name_full 'J.Org.Chem. '
loop_
_publ_author_name
"R.C.Dhakal"
"R.Karl Dieter"
_chemical_name_systematic
;
1-(2-(Cyclohexylcarbonyl)-3-phenylcyclopropyl)ethyl 3,5-dinitrobenzoate
;
_cell_volume   2284.765
_exptl_crystal_colour 'orange'
_exptl_crystal_density_diffrn 1.356
_exptl_crystal_description 'column'
_diffrn_ambient_temperature 203
#These two values have been output from a single CSD field.
_refine_ls_R_factor_gt 0.0731
_refine_ls_wR_factor_gt 0.0731
_symmetry_cell_setting monoclinic
_symmetry_space_group_name_H-M 'P 21/c'
_symmetry_Int_Tables_number 14
loop_
_symmetry_equiv_pos_site_id
_symmetry_equiv_pos_as_xyz
1 x,y,z
2 -x,1/2+y,1/2-z
3 -x,-y,-z
4 x,-1/2-y,-1/2+z
_cell_length_a 13.755(3)
_cell_length_b 16.362(3)
_cell_length_c 10.483(2)
_cell_angle_alpha 90
_cell_angle_beta 104.44(3)
_cell_angle_gamma 90
_cell_formula_units_Z 4
loop_
_atom_type_symbol
_atom_type_radius_bond
C 0.68
H 0.23
N 0.68
O 0.68
loop_
_atom_site_label
_atom_site_type_symbol
_atom_site_fract_x
_atom_site_fract_y
_atom_site_fract_z
O1 O 0.86454(16) 0.04065(12) 0.7996(2)
O2 O 0.80930(15) 0.09408(11) 0.96732(19)
O3 O 0.94283(19) 0.32175(15) 0.8682(2)
O4 O 0.55162(17) -0.04178(13) 1.1279(2)
N1 N 0.5384(2) -0.09234(15) 1.0388(3)
C1 C 0.7406(2) -0.03055(16) 0.8790(3)
C2 C 0.6741(2) -0.02866(17) 0.9603(3)
H1 H 0.67210 0.01640 1.01520
C3 C 0.7425(2) -0.09747(17) 0.7991(3)
H2 H 0.78640 -0.09890 0.74330
C4 C 0.6787(2) -0.16217(17) 0.8028(3)
C5 C 0.8115(2) 0.03839(16) 0.8756(3)
C6 C 0.8813(2) 0.16201(16) 0.9812(3)
H3 H 0.88560 0.18130 0.89320
C7 C 0.6123(2) -0.16317(17) 0.8805(3)
H4 H 0.56960 -0.20790 0.88120
C8 C 0.6112(2) -0.09527(17) 0.9577(3)
N2 N 0.6815(2) -0.23298(17) 0.7166(3)
C9 C 0.9561(2) 0.33326(17) 0.9871(3)
C10 C 1.0447(2) 0.36051(17) 1.0620(3)
H5 H 1.02000 0.41750 1.05120
O5 O 0.4681(2) -0.14025(16) 1.0133(3)
C11 C 0.6812(2) 0.32570(17) 1.0089(3)
O6 O 0.7289(2) -0.22775(17) 0.6344(3)
C12 C 0.7717(2) 0.29314(17) 0.9722(3)
H6 H 0.76600 0.29150 0.87620
C13 C 0.8757(2) 0.31428(17) 1.0551(3)
H7 H 0.87860 0.34460 1.13770
C14 C 0.8370(2) 0.22724(16) 1.0494(3)
H8 H 0.81720 0.20890 1.12930
C15 C 0.9833(2) 0.1340(2) 1.0602(3)
H9 H 0.97910 0.11800 1.14780
H10 H 1.03120 0.17820 1.06670
H11 H 1.00510 0.08760 1.01670
O7 O 0.6369(3) -0.29415(17) 0.7352(4)
C16 C 1.0719(3) 0.3699(2) 1.2062(3)
H12 H 1.12590 0.33160 1.24540
H13 H 1.01380 0.35710 1.24080
C17 C 0.6690(3) 0.3183(2) 1.1361(3)
H14 H 0.71880 0.29190 1.20070
C18 C 0.6072(3) 0.3658(2) 0.9156(4)
H15 H 0.61390 0.37200 0.82910
C19 C 1.1264(3) 0.3814(2) 1.0020(4)
H16 H 1.10300 0.37620 0.90610
H17 H 1.18190 0.34280 1.03240
C20 C 0.5845(3) 0.3493(2) 1.1700(4)
H18 H 0.57730 0.34340 1.25630
C21 C 0.5117(3) 0.3887(3) 1.0763(5)
H19 H 0.45450 0.41000 1.09830
C22 C 0.5234(3) 0.3968(3) 0.9500(5)
H20 H 0.47370 0.42380 0.88600
C23 C 1.1060(3) 0.4558(3) 1.2431(4)
H21 H 1.12690 0.46050 1.33920
H22 H 1.04970 0.49350 1.21100
C24 C 1.1636(3) 0.4671(2) 1.0366(4)
H23 H 1.11100 0.50620 0.99580
H24 H 1.22210 0.47750 1.00130
C25 C 1.1926(3) 0.4799(3) 1.1854(4)
H25 H 1.25170 0.44670 1.22520
H26 H 1.20970 0.53750 1.20520
#END
