
#######################################################################
#
#                 Cambridge Crystallographic Data Centre
#                                CCDC
#
#######################################################################
#
# If this CIF has been generated from an entry in the Cambridge
# Structural Database, then it will include bibliographic, chemical,
# crystal, experimental, refinement or atomic coordinate data resulting
# from the CCDC's data processing and validation procedures.
#
#######################################################################

data_CSD_CIF_FIYCUL
_audit_creation_date 1999-08-13
_audit_creation_method CSD-ConQuest-V1
_database_code_CSD FIYCUL
_database_code_depnum_ccdc_archive 'CCDC 131430'
_chemical_formula_sum 'C19 H27 N3 O6'
_chemical_formula_moiety
;
C19 H27 N3 O6
;
_journal_coeditor_code "IUCr SK1254"
_journal_coden_Cambridge 591
_journal_volume 55
_journal_year 1999
_journal_page_first 964
_journal_name_full 'Acta Crystallogr.,Sect.C:Cryst.Struct.Commun. '
loop_
_publ_author_name
"M.Bolte"
"B.Benecke"
"E.Egert"
_chemical_name_systematic
;
(2R,5S)-2-((1R)-1-(3,4-Dimethoxyphenyl)-2-nitroethyl)-5-isopropyl-3,6-dimethox
y-2,5-dihydropyrazine
;
_cell_volume   1044.900
_exptl_crystal_colour 'colorless'
_exptl_crystal_density_diffrn 1.25
_exptl_crystal_description 'block'
_exptl_crystal_preparation 'hexane/ether'
_diffrn_ambient_temperature ?
_diffrn_special_details
;
The study was carried out at room temperature,in the range 283-303K

;
#These two values have been output from a single CSD field.
_refine_ls_R_factor_gt 0.0694
_refine_ls_wR_factor_gt 0.0694
_symmetry_cell_setting monoclinic
_symmetry_space_group_name_H-M 'P 21'
_symmetry_Int_Tables_number 4
loop_
_symmetry_equiv_pos_site_id
_symmetry_equiv_pos_as_xyz
1 x,y,z
2 -x,1/2+y,-z
_cell_length_a 8.880(2)
_cell_length_b 6.748(2)
_cell_length_c 17.730(4)
_cell_angle_alpha 90
_cell_angle_beta 100.42(3)
_cell_angle_gamma 90
_cell_formula_units_Z 2
loop_
_atom_type_symbol
_atom_type_radius_bond
C 0.68
H 0.23
N 0.68
O 0.68
loop_
_atom_site_label
_atom_site_type_symbol
_atom_site_fract_x
_atom_site_fract_y
_atom_site_fract_z
N1 N 0.5987(7) 0.5084(10) 0.1033(3)
C1 C 0.4867(8) 0.5271(12) 0.1369(4)
O1 O 0.3475(5) 0.5845(9) 0.1008(2)
C2 C 0.3372(9) 0.647(2) 0.0220(4)
H1 H 0.23160 0.65250 -0.00250
H2 H 0.39110 0.55510 -0.00460
H3 H 0.38210 0.77660 0.02080
C3 C 0.4842(7) 0.4881(12) 0.2203(3)
H4 H 0.47290 0.61690 0.24420
N2 N 0.6233(6) 0.3995(9) 0.2620(3)
C4 C 0.7369(9) 0.3925(12) 0.2285(4)
O2 O 0.8707(5) 0.3094(9) 0.2624(3)
C5 C 0.8746(9) 0.2325(15) 0.3372(5)
H5 H 0.79400 0.13700 0.33610
H6 H 0.86070 0.33850 0.37140
H7 H 0.97160 0.16990 0.35480
C6 C 0.7468(8) 0.4593(13) 0.1490(4)
H8 H 0.78820 0.34820 0.12360
C7 C 0.8574(9) 0.6323(15) 0.1498(4)
H9 H 0.95300 0.59680 0.18400
C8 C 0.8943(10) 0.6660(18) 0.0704(5)
H10 H 0.93440 0.54610 0.05260
H11 H 0.96900 0.76970 0.07270
H12 H 0.80280 0.70350 0.03570
C9 C 0.7958(9) 0.8180(15) 0.1815(4)
H13 H 0.77550 0.79160 0.23190
H14 H 0.70270 0.85770 0.14850
H15 H 0.87010 0.92230 0.18410
C10 C 0.3440(7) 0.3601(12) 0.2313(3)
H16 H 0.25170 0.42520 0.20360
C11 C 0.3297(7) 0.3482(12) 0.3158(4)
C12 C 0.4093(8) 0.2132(13) 0.3653(4)
H17 H 0.47170 0.12100 0.34700
C13 C 0.3982(9) 0.2116(12) 0.4431(4)
H18 H 0.45240 0.11870 0.47610
C14 C 0.3063(7) 0.3492(12) 0.4701(4)
O3 O 0.2881(6) 0.3589(9) 0.5454(2)
C15 C 0.3612(11) 0.2099(16) 0.5958(4)
H19 H 0.32480 0.08180 0.57720
H20 H 0.33820 0.23030 0.64610
H21 H 0.46990 0.21690 0.59820
C16 C 0.2276(8) 0.4872(13) 0.4211(4)
O4 O 0.1404(6) 0.6159(9) 0.4536(3)
C17 C 0.076(1) 0.7785(15) 0.4106(5)
H22 H 0.00490 0.73270 0.36670
H23 H 0.15560 0.85380 0.39380
H24 H 0.02340 0.86070 0.44160
C18 C 0.2390(7) 0.4862(13) 0.3439(4)
H25 H 0.18510 0.57930 0.31090
C19 C 0.3577(9) 0.1610(13) 0.1938(4)
H26 H 0.37830 0.18090 0.14250
H27 H 0.44300 0.08820 0.22300
N3 N 0.2143(10) 0.0429(15) 0.1897(5)
O5 O 0.2146(9) -0.1044(13) 0.2275(4)
O6 O 0.1033(9) 0.1091(15) 0.1453(5)
#END
