
#######################################################################
#
#                 Cambridge Crystallographic Data Centre
#                                CCDC
#
#######################################################################
#
# If this CIF has been generated from an entry in the Cambridge
# Structural Database, then it will include bibliographic, chemical,
# crystal, experimental, refinement or atomic coordinate data resulting
# from the CCDC's data processing and validation procedures.
#
#######################################################################

data_CSD_CIF_FIZLAD
_audit_creation_date 2014-01-08
_audit_creation_method CSD-ConQuest-V1
_database_code_CSD FIZLAD
_database_code_depnum_ccdc_archive 'CCDC 835949'
_chemical_formula_sum 'C23 H20 N2 O3'
_chemical_formula_moiety
;
C23 H20 N2 O3
;
_journal_coden_Cambridge 34
_journal_volume 50
_journal_year 2013
_journal_page_first 373
_journal_name_full 'J.Heterocycl.Chem. '
loop_
_publ_author_name
"R.A.Bunce"
"J.E.Schammerhorn"
"J.Sigle"
_chemical_name_systematic
;
(+-)-(2S*,3S*)-1-Benzyl-3-methyl-6-nitro-4-oxo-2-phenyl-1,2,3,4-tetrahydroquin
oline
;
_chemical_melting_point 432
_cell_volume   1909.083
_exptl_crystal_colour 'yellow'
_exptl_crystal_density_diffrn 1.296
_exptl_special_details
;
Melting point range 432-435K

;
_exptl_crystal_description 'rod'
_diffrn_ambient_temperature 296
#These two values have been output from a single CSD field.
_refine_ls_R_factor_gt 0.0429
_refine_ls_wR_factor_gt 0.0429
_symmetry_cell_setting monoclinic
_symmetry_space_group_name_H-M 'P 21/c'
_symmetry_Int_Tables_number 14
loop_
_symmetry_equiv_pos_site_id
_symmetry_equiv_pos_as_xyz
1 x,y,z
2 -x,1/2+y,1/2-z
3 -x,-y,-z
4 x,-1/2-y,-1/2+z
_cell_length_a 10.2874(13)
_cell_length_b 14.522(2)
_cell_length_c 13.4231(17)
_cell_angle_alpha 90
_cell_angle_beta 107.823(5)
_cell_angle_gamma 90
_cell_formula_units_Z 4
loop_
_atom_type_symbol
_atom_type_radius_bond
C 0.68
H 0.23
N 0.68
O 0.68
loop_
_atom_site_label
_atom_site_type_symbol
_atom_site_fract_x
_atom_site_fract_y
_atom_site_fract_z
N1 N 0.34876(11) 0.08607(7) 0.69913(9)
C1 C 0.29150(15) 0.16971(9) 0.72867(11)
H1 H 0.36230 0.20110 0.78280
H2 H 0.21980 0.15280 0.75820
C2 C 0.26992(13) 0.00043(9) 0.69364(11)
H3 H 0.17330 0.01790 0.67290
C3 C 0.28886(14) -0.06156(9) 0.60661(11)
H4 H 0.25720 -0.02560 0.54190
C4 C 0.43829(15) -0.07922(9) 0.62433(11)
O1 O 0.48443(12) -0.15462(7) 0.61436(10)
C5 C 0.52435(13) 0.00374(9) 0.65157(10)
C6 C 0.65602(14) 0.00173(10) 0.64503(10)
H5 H 0.69020 -0.05220 0.62510
C7 C 0.73625(14) 0.07904(11) 0.66780(11)
N2 N 0.87611(14) 0.07420(13) 0.66632(11)
O2 O 0.94997(13) 0.14153(12) 0.69689(12)
O3 O 0.91523(12) 0.00255(11) 0.63472(11)
C8 C 0.68451(16) 0.16158(11) 0.69202(12)
H6 H 0.73850 0.21430 0.70390
C9 C 0.55470(15) 0.1656(1) 0.69839(12)
H7 H 0.52020 0.22140 0.71310
C10 C 0.47219(13) 0.08582(9) 0.68281(10)
C11 C 0.23347(13) 0.23569(9) 0.63884(12)
C12 C 0.2229(2) 0.32751(12) 0.65936(16)
H8 H 0.25290 0.34830 0.72820
C13 C 0.1685(3) 0.38963(14) 0.5793(2)
H9 H 0.16290 0.45160 0.59480
C14 C 0.1232(2) 0.36058(15) 0.4780(2)
H10 H 0.08620 0.40240 0.42440
C15 C 0.1324(2) 0.26997(14) 0.45600(16)
H11 H 0.10140 0.24960 0.38700
C16 C 0.18790(18) 0.20782(12) 0.53594(13)
H12 H 0.19450 0.14610 0.51980
C17 C 0.30118(15) -0.04742(9) 0.79945(11)
C18 C 0.43353(17) -0.06629(11) 0.86167(12)
H13 H 0.50680 -0.04690 0.84010
C19 C 0.4579(2) -0.11326(13) 0.95488(13)
H14 H 0.54710 -0.12620 0.99500
C20 C 0.3517(2) -0.14082(12) 0.98855(14)
H15 H 0.36850 -0.17170 1.05190
C21 C 0.2201(2) -0.12283(12) 0.92878(16)
H16 H 0.14770 -0.14170 0.95160
C22 C 0.19473(17) -0.07654(11) 0.83436(13)
H17 H 0.10510 -0.06500 0.79410
C23 C 0.20121(17) -0.14768(11) 0.58842(14)
H18 H 0.21090 -0.18030 0.52890
H19 H 0.10730 -0.13070 0.57570
H20 H 0.23000 -0.18650 0.64920
#END
