
#######################################################################
#
#                 Cambridge Crystallographic Data Centre
#                                CCDC
#
#######################################################################
#
# If this CIF has been generated from an entry in the Cambridge
# Structural Database, then it will include bibliographic, chemical,
# crystal, experimental, refinement or atomic coordinate data resulting
# from the CCDC's data processing and validation procedures.
#
#######################################################################

data_CSD_CIF_FOBCUV
_audit_creation_date 2005-06-17
_audit_creation_method CSD-ConQuest-V1
_database_code_CSD FOBCUV
_database_code_depnum_ccdc_archive 'CCDC 241187'
_chemical_formula_sum 'C25 H35 N1 O5'
_chemical_formula_moiety
;
C25 H35 N1 O5
;
_journal_coden_Cambridge 1078
_journal_year 2003
_journal_name_full 'CSD Communication(Private Communication) '
loop_
_publ_author_name
"M.B.Hursthouse"
"M.A.Thornton-Pett"
"D.N.Kirk"
_chemical_name_systematic
;
4a,6a,7-trimethyl-1,2,3,4,4a,4b,5,6,6a,6b,10,10a,10b,11-tetradecahydro-9aH-nap
htho[2',1':4,5]indeno[1,2-d]isoxazole-2,9-diyl diacetate
;
_cell_volume   2381.829
_exptl_crystal_density_diffrn 1.195
_exptl_special_details
;
contribution from Queen Mary College, University of London, UK

;
_diffrn_ambient_temperature ?
_diffrn_special_details
;
The study was carried out at room temperature,in the range 283-303K

;
#These two values have been output from a single CSD field.
_refine_ls_R_factor_gt 0.0459
_refine_ls_wR_factor_gt 0.0459
_symmetry_cell_setting orthorhombic
_symmetry_space_group_name_H-M 'P 21 21 21'
_symmetry_Int_Tables_number 19
loop_
_symmetry_equiv_pos_site_id
_symmetry_equiv_pos_as_xyz
1 x,y,z
2 1/2-x,-y,1/2+z
3 1/2+x,1/2-y,-z
4 -x,1/2+y,1/2-z
_cell_length_a 7.8371
_cell_length_b 12.0659
_cell_length_c 25.1881
_cell_angle_alpha 90
_cell_angle_beta 90
_cell_angle_gamma 90
_cell_formula_units_Z 4
loop_
_atom_type_symbol
_atom_type_radius_bond
C 0.68
H 0.23
N 0.68
O 0.68
loop_
_atom_site_label
_atom_site_type_symbol
_atom_site_fract_x
_atom_site_fract_y
_atom_site_fract_z
C1 C 0.8386(9) 0.7950(8) -0.1369(3)
C2 C 0.8321(8) 0.7554(6) -0.0807(2)
O1 O 0.8552(14) 0.8096(5) -0.0435(3)
O2 O 0.8047(9) 0.6531(3) -0.0756(1)
C3 C 0.7966(11) 0.6004(4) -0.0235(2)
C4 C 0.6324(9) 0.5363(5) -0.0215(2)
C5 C 0.6232(8) 0.4713(4) 0.0308(2)
C6 C 0.7726(6) 0.3911(3) 0.0390(1)
C7 C 0.9385(7) 0.4550(3) 0.0320(2)
C8 C 0.9522(9) 0.5271(4) -0.0165(2)
C9 C 0.7663(7) 0.2992(4) -0.0027(2)
C10 C 1.0664(7) 0.4497(4) 0.0664(2)
C11 C 1.0707(7) 0.3768(4) 0.1146(2)
C12 C 0.9328(5) 0.2890(3) 0.1131(1)
C13 C 0.7632(6) 0.3424(3) 0.0966(1)
C14 C 0.6085(7) 0.2658(4) 0.1036(2)
C15 C 0.6021(6) 0.2059(4) 0.1572(2)
C16 C 0.7669(5) 0.1455(3) 0.1672(1)
C17 C 0.9120(5) 0.2309(3) 0.1667(1)
C18 C 0.7950(8) 0.0517(4) 0.1273(2)
C19 C 1.0655(6) 0.1717(4) 0.1908(1)
C20 C 0.9824(6) 0.1027(3) 0.2346(1)
C21 C 0.7898(6) 0.1023(3) 0.2252(1)
C22 C 0.7501(7) -0.0174(4) 0.2350(2)
C23 C 0.5746(10) -0.0658(5) 0.2386(3)
N1 N 0.8825(7) -0.0784(3) 0.2400(1)
O3 O 1.0324(5) -0.0106(2) 0.2346(1)
O4 O 1.0061(4) 0.1469(2) 0.2876(1)
C24 C 1.1660(8) 0.1601(4) 0.3080(2)
O5 O 1.2931(6) 0.1341(3) 0.2849(1)
C25 C 1.156(1) 0.2106(7) 0.3615(2)
H1 H 0.916(12) 0.7452(60) -0.1617(28)
H2 H 0.914(11) 0.8640(55) -0.1275(39)
H3 H 0.7394(65) 0.8502(50) -0.1456(28)
H4 H 0.7835(57) 0.6548(35) 0.0012(18)
H5 H 0.5256(9) 0.5926(5) -0.0243(2)
H6 H 0.6287(9) 0.4787(5) -0.0543(2)
H7 H 0.6211(57) 0.5317(24) 0.0607(12)
H8 H 0.5185(77) 0.4295(47) 0.0402(23)
H9 H 0.9500(59) 0.4749(38) -0.0486(19)
H10 H 1.0680(73) 0.5661(4) -0.0125(19)
H11 H 0.8590(56) 0.2320(37) 0.0042(17)
H12 H 0.6424(69) 0.2737(40) -0.0062(19)
H13 H 0.7873(62) 0.3316(36) -0.0433(20)
H14 H 1.1660(57) 0.4956(38) 0.0612(16)
H15 H 1.0493(49) 0.4291(25) 0.1468(10)
H16 H 1.1871(53) 0.3444(33) 0.1239(15)
H17 H 0.9627(39) 0.2318(27) 0.0841(12)
H18 H 0.7508(51) 0.4052(34) 0.1228(15)
H19 H 0.6145(77) 0.2064(48) 0.0760(23)
H20 H 0.5046(69) 0.3102(44) 0.0996(20)
H21 H 0.5952(58) 0.2614(29) 0.1891(12)
H22 H 0.4996(56) 0.1477(34) 0.1602(16)
H23 H 0.8734(50) 0.289(3) 0.1954(14)
H24 H 0.7950(63) 0.0818(38) 0.0877(19)
H25 H 0.7047(73) 0.0031(45) 0.1312(19)
H26 H 0.8956(68) 0.0091(42) 0.1328(18)
H27 H 1.1162(47) 0.1183(25) 0.1620(11)
H28 H 1.1555(51) 0.2200(31) 0.2053(14)
H29 H 0.7270(46) 0.1523(29) 0.2478(13)
H30 H 0.5717(74) -0.1457(49) 0.2433(20)
H31 H 0.5203(72) -0.0397(41) 0.2740(21)
H32 H 0.5279(88) -0.0575(53) 0.2035(29)
H33 H 1.0978(84) 0.1684(56) 0.3803(26)
H34 H 1.281(4) 0.2283(69) 0.3737(32)
H35 H 1.073(11) 0.2714(68) 0.3569(29)
#END
