
#######################################################################
#
#                 Cambridge Crystallographic Data Centre
#                                CCDC
#
#######################################################################
#
# If this CIF has been generated from an entry in the Cambridge
# Structural Database, then it will include bibliographic, chemical,
# crystal, experimental, refinement or atomic coordinate data resulting
# from the CCDC's data processing and validation procedures.
#
#######################################################################

data_CSD_CIF_FOBQIW
_audit_creation_date 1999-08-13
_audit_creation_method CSD-ConQuest-V1
_database_code_CSD FOBQIW
_database_code_depnum_ccdc_archive 'CCDC 131375'
_chemical_formula_sum 'C32 H47 N1 O3'
_chemical_formula_moiety
;
C32 H47 N1 O3
;
_journal_coeditor_code "IUCr JZ1306"
_journal_coden_Cambridge 591
_journal_volume 55
_journal_year 1999
_journal_page_first 1031
_journal_name_full 'Acta Crystallogr.,Sect.C:Cryst.Struct.Commun. '
loop_
_publ_author_name
"A.Gzella"
"E.Linkowska"
"L.Zaprutko"
"U.Wrzeciono"
_chemical_name_systematic
;
Olean-2,12-dieno(2,3-d)isoxazol-28-oic acid methyl ester
;
_chemical_name_common
;
Methyl isoxazolo(4,5-b)olean-2,12-dien-28-oate
;
_chemical_melting_point 475
_cell_volume   2790.976
_exptl_crystal_colour 'colorless'
_exptl_crystal_density_diffrn 1.175
_exptl_special_details
;
Melting point range 475-477.5K

;
_exptl_crystal_description 'Rod'
_diffrn_ambient_temperature ?
_diffrn_special_details
;
The study was carried out at room temperature,in the range 283-303K

;
#These two values have been output from a single CSD field.
_refine_ls_R_factor_gt 0.0353
_refine_ls_wR_factor_gt 0.0353
_symmetry_cell_setting orthorhombic
_symmetry_space_group_name_H-M 'P 21 21 21'
_symmetry_Int_Tables_number 19
loop_
_symmetry_equiv_pos_site_id
_symmetry_equiv_pos_as_xyz
1 x,y,z
2 1/2+x,1/2-y,-z
3 -x,1/2+y,1/2-z
4 1/2-x,-y,1/2+z
_cell_length_a 6.8800(8)
_cell_length_b 13.8033(9)
_cell_length_c 29.389(2)
_cell_angle_alpha 90
_cell_angle_beta 90
_cell_angle_gamma 90
_cell_formula_units_Z 4
loop_
_atom_type_symbol
_atom_type_radius_bond
C 0.68
H 0.23
N 0.68
O 0.68
loop_
_atom_site_label
_atom_site_type_symbol
_atom_site_fract_x
_atom_site_fract_y
_atom_site_fract_z
N1 N 0.2385(3) 1.26921(14) -0.02542(7)
O1 O 0.2742(3) 1.17687(11) -0.04513(5)
O2 O -0.0582(2) 0.67056(12) 0.22340(6)
O3 O 0.0975(2) 0.54186(10) 0.19701(5)
C1 C 0.2171(3) 1.09877(12) 0.07239(6)
H1 H 0.11180 1.12570 0.09030
H2 H 0.33660 1.10620 0.08950
C2 C 0.2331(3) 1.15256(13) 0.02864(7)
C3 C 0.2694(3) 1.11059(13) -0.01127(6)
C4 C 0.3103(3) 1.00647(14) -0.02148(6)
C5 C 0.3176(3) 0.95331(12) 0.02575(5)
H3 H 0.44850 0.96580 0.03750
C6 C 0.3055(3) 0.84352(12) 0.02078(5)
H4 H 0.17210 0.82470 0.01490
H5 H 0.38430 0.82290 -0.00480
C7 C 0.3769(3) 0.79425(12) 0.06387(6)
H6 H 0.51280 0.81030 0.06840
H7 H 0.36780 0.72460 0.06000
C8 C 0.2619(2) 0.82358(10) 0.10660(5)
C9 C 0.2359(2) 0.93528(10) 0.10863(5)
H8 H 0.36530 0.96020 0.11620
C10 C 0.1783(2) 0.98957(11) 0.06374(5)
C11 C 0.1099(3) 0.96240(11) 0.14954(5)
H9 H 0.13290 1.02990 0.15710
H10 H -0.02570 0.95590 0.14110
C12 C 0.1471(2) 0.90221(12) 0.19080(5)
H11 H 0.08370 0.92040 0.21740
C13 C 0.2618(2) 0.82535(10) 0.19314(5)
C14 C 0.3759(2) 0.79175(10) 0.15121(5)
C15 C 0.4041(3) 0.68056(11) 0.15094(6)
H12 H 0.28760 0.65090 0.13870
H13 H 0.51050 0.66500 0.13060
C16 C 0.4462(2) 0.63584(11) 0.19697(6)
H14 H 0.57180 0.65820 0.20760
H15 H 0.45260 0.56600 0.19380
C17 C 0.2910(2) 0.66173(12) 0.23217(5)
C18 C 0.2875(2) 0.77276(11) 0.23830(5)
H16 H 0.17350 0.78810 0.25690
C19 C 0.4672(3) 0.80829(13) 0.26476(6)
H17 H 0.58080 0.79970 0.24560
H18 H 0.45280 0.87720 0.27030
C20 C 0.5048(3) 0.75752(14) 0.31054(6)
C21 C 0.5090(3) 0.64780(14) 0.30214(6)
H19 H 0.62240 0.63210 0.28400
H20 H 0.52200 0.61480 0.33110
C22 C 0.3291(3) 0.61018(13) 0.27810(6)
H21 H 0.21730 0.61910 0.29770
H22 H 0.34400 0.54120 0.27270
C23 C 0.5102(4) 0.9981(2) -0.04399(7)
H23 H 0.53710 0.93130 -0.05060
H24 H 0.60780 1.02290 -0.02370
H25 H 0.51120 1.03480 -0.07170
C24 C 0.1546(4) 0.9667(2) -0.05446(7)
H26 H 0.18130 0.89980 -0.06090
H27 H 0.15720 1.00320 -0.08220
H28 H 0.02850 0.97220 -0.04070
C25 C -0.0372(3) 0.98000(14) 0.05025(7)
H29 H -0.06710 0.91310 0.04460
H30 H -0.06130 1.01720 0.02320
H31 H -0.11750 1.00370 0.07450
C26 C 0.0622(3) 0.77305(12) 0.10496(6)
H32 H -0.01180 0.79050 0.13140
H33 H 0.08030 0.70410 0.10440
H34 H -0.00630 0.79300 0.07810
C27 C 0.5802(3) 0.83861(14) 0.15401(6)
H35 H 0.65600 0.81900 0.12820
H36 H 0.64370 0.81790 0.18140
H37 H 0.56750 0.90790 0.15420
C28 C 0.0915(3) 0.62793(12) 0.21724(6)
C29 C 0.7030(4) 0.7904(2) 0.32781(8)
H38 H 0.80080 0.77420 0.30580
H39 H 0.73150 0.75840 0.35600
H40 H 0.70170 0.85920 0.33250
C30 C 0.3501(4) 0.7832(2) 0.34549(7)
H41 H 0.22510 0.76260 0.33470
H42 H 0.34890 0.85210 0.35020
H43 H 0.37860 0.75130 0.37370
C31 C 0.2156(4) 1.25204(15) 0.01761(8)
H44 H 0.19030 1.30000 0.03900
C32 C -0.0853(3) 0.5032(2) 0.18227(9)
H45 H -0.06490 0.44130 0.16820
H46 H -0.14360 0.54660 0.16070
H47 H -0.16990 0.49580 0.20800
#END
