
#######################################################################
#
#                 Cambridge Crystallographic Data Centre
#                                CCDC
#
#######################################################################
#
# If this CIF has been generated from an entry in the Cambridge
# Structural Database, then it will include bibliographic, chemical,
# crystal, experimental, refinement or atomic coordinate data resulting
# from the CCDC's data processing and validation procedures.
#
#######################################################################

data_CSD_CIF_FOCFIN
_audit_creation_date 2005-06-17
_audit_creation_method CSD-ConQuest-V1
_database_code_CSD FOCFIN
_database_code_depnum_ccdc_archive 'CCDC 269036'
_chemical_formula_sum 'C10 H8 N2 O4'
_chemical_formula_moiety
;
C10 H8 N2 O4
;
_journal_coeditor_code "IUCr SK1817"
_journal_coden_Cambridge 591
_journal_volume 61
_journal_year 2005
_journal_page_first o216
_journal_name_full 'Acta Crystallogr.,Sect.C:Cryst.Struct.Commun. '
loop_
_publ_author_name
"C.Glidewell"
"J.N.Low"
"J.M.S.Skakle"
"J.L.Wardell"
_chemical_name_systematic
;
N-(4-Nitrophenyl)phthalimide
;
_cell_volume    911.287
_exptl_crystal_colour 'colorless'
_exptl_crystal_density_diffrn 1.605
_exptl_special_details
;
isostructural with N-(4-nitrophenyl)maleimide

;
_exptl_crystal_description 'lath'
_exptl_crystal_preparation 'ethanol'
_diffrn_ambient_temperature 120
#These two values have been output from a single CSD field.
_refine_ls_R_factor_gt 0.0578
_refine_ls_wR_factor_gt 0.0578
_symmetry_cell_setting monoclinic
_symmetry_space_group_name_H-M 'C 2/c'
_symmetry_Int_Tables_number 15
loop_
_symmetry_equiv_pos_site_id
_symmetry_equiv_pos_as_xyz
1 x,y,z
2 1/2+x,1/2+y,z
3 -x,y,1/2-z
4 1/2-x,1/2+y,1/2-z
5 -x,-y,-z
6 -1/2-x,-1/2-y,-z
7 x,-y,-1/2+z
8 -1/2+x,-1/2-y,-1/2+z
_cell_length_a 10.3731(19)
_cell_length_b 11.590(2)
_cell_length_c 7.9761(18)
_cell_angle_alpha 90
_cell_angle_beta 108.135(16)
_cell_angle_gamma 90
_cell_formula_units_Z 4
loop_
_atom_type_symbol
_atom_type_radius_bond
C 0.68
H 0.23
N 0.68
O 0.68
loop_
_atom_site_label
_atom_site_type_symbol
_atom_site_fract_x
_atom_site_fract_y
_atom_site_fract_z
N1 N 0.50000 0.3039(2) 0.75000
C1 C 0.3822(3) 0.2363(2) 0.7179(3)
O1 O 0.27027(16) 0.27500(13) 0.6969(2)
C2 C 0.4229(2) 0.11216(19) 0.7119(3)
C3 C 0.50000 0.4274(3) 0.75000
C4 C 0.4011(2) 0.4868(2) 0.6205(3)
C5 C 0.4002(2) 0.6061(2) 0.6206(3)
C6 C 0.50000 0.6629(3) 0.75000
N2 N 0.50000 0.7896(2) 0.75000
O2 O 0.44363(17) 0.84004(14) 0.6103(2)
H1 H 0.39370 0.08310 0.58910
H2 H 0.38200 0.06320 0.78370
H3 H 0.33430 0.44550 0.53200
H4 H 0.33270 0.64790 0.53390
C1B C 0.6178(3) 0.2363(2) 0.7821(3)
O1B O 0.72973(16) 0.27500(13) 0.8031(2)
C2B C 0.5771(2) 0.11216(19) 0.7881(3)
C4B C 0.5989(2) 0.4868(2) 0.8795(3)
C5B C 0.5998(2) 0.6061(2) 0.8794(3)
O2B O 0.55637(17) 0.84004(14) 0.8897(2)
H1B H 0.60630 0.08310 0.91090
H2B H 0.61800 0.06320 0.71630
H3B H 0.66570 0.44550 0.96800
H4B H 0.66730 0.64790 0.96610
#END
