
#######################################################################
#
#                 Cambridge Crystallographic Data Centre
#                                CCDC
#
#######################################################################
#
# If this CIF has been generated from an entry in the Cambridge
# Structural Database, then it will include bibliographic, chemical,
# crystal, experimental, refinement or atomic coordinate data resulting
# from the CCDC's data processing and validation procedures.
#
#######################################################################

data_CSD_CIF_FODPIY
_audit_creation_date 2005-06-23
_audit_creation_method CSD-ConQuest-V1
_database_code_CSD FODPIY
_database_code_depnum_ccdc_archive 'CCDC 195172'
_chemical_formula_sum 'C27 H35 N1 O4'
_chemical_formula_moiety
;
C27 H35 N1 O4
;
_journal_coden_Cambridge 1090
_journal_volume 14
_journal_year 2003
_journal_page_first 525
_journal_name_full 'Tetrahedron:Asymm. '
loop_
_publ_author_name
"S.K.Patel"
"S.Py"
"S.U.Pandya"
"P.Y.Chavant"
"Y.Vallee"
_chemical_name_systematic
;
t-Butyl 
4-(N-hydroxy-N-(2-(benzyloxy)-1-phenylethyl)amino)-6-methylhep-2-ynoate
;
_cell_volume   1295.525
_exptl_crystal_density_diffrn 1.122
_diffrn_ambient_temperature 293.0
#These two values have been output from a single CSD field.
_refine_ls_R_factor_gt 0.0566
_refine_ls_wR_factor_gt 0.0566
_symmetry_cell_setting monoclinic
_symmetry_space_group_name_H-M 'P 21'
_symmetry_Int_Tables_number 4
loop_
_symmetry_equiv_pos_site_id
_symmetry_equiv_pos_as_xyz
1 x,y,z
2 -x,1/2+y,-z
_cell_length_a 12.281(1)
_cell_length_b 7.984(1)
_cell_length_c 13.236(1)
_cell_angle_alpha 90
_cell_angle_beta 93.40(1)
_cell_angle_gamma 90
_cell_formula_units_Z 2
loop_
_atom_type_symbol
_atom_type_radius_bond
C 0.68
H 0.23
N 0.68
O 0.68
loop_
_atom_site_label
_atom_site_type_symbol
_atom_site_fract_x
_atom_site_fract_y
_atom_site_fract_z
O1 O 0.8369(2) 1.15620 0.8058(2)
O2 O 0.8816(5) 0.9180(6) 0.8794(3)
O3 O 0.5408(2) 0.92650 0.5540(1)
O4 O 0.5105(2) 0.4306(3) 0.6635(1)
N1 N 0.5607(2) 0.7510(3) 0.5789(2)
C1 C 0.8841(3) 0.7532(7) 0.3727(3)
C2 C 0.8973(3) 0.5893(7) 0.5336(4)
C3 C 0.8484(3) 0.7418(5) 0.4800(3)
C4 C 0.7261(3) 0.7469(4) 0.4805(2)
C5 C 0.6790(2) 0.7286(4) 0.5843(2)
C6 C 0.7363(3) 0.8345(5) 0.6620(3)
C7 C 0.7823(3) 0.9134(5) 0.7274(3)
C8 C 0.8383(3) 0.9959(6) 0.8118(3)
C9 C 0.8917(3) 1.2645(5) 0.8838(3)
C10 C 0.8426(6) 1.244(1) 0.9809(4)
C11 C 1.0078(4) 1.2320(9) 0.8938(4)
C12 C 0.8736(7) 1.4353(9) 0.8383(6)
C13 C 0.5136(3) 0.7309(4) 0.6778(2)
C14 C 0.5454(3) 0.5651(5) 0.7277(2)
C15 C 0.5356(3) 0.2693(4) 0.7076(3)
C16 C 0.4785(3) 0.2363(4) 0.8024(2)
C17 C 0.3757(3) 0.2955(5) 0.8149(3)
C18 C 0.3252(3) 0.2617(7) 0.9035(3)
C19 C 0.3773(4) 0.1686(7) 0.9780(3)
C20 C 0.4776(4) 0.1090(6) 0.9669(3)
C21 C 0.5293(3) 0.1423(5) 0.8790(3)
C22 C 0.3923(3) 0.7500(4) 0.6697(2)
C23 C 0.3300(3) 0.7039(4) 0.5836(3)
C24 C 0.2186(3) 0.7072(5) 0.5842(3)
C25 C 0.1675(3) 0.7604(6) 0.6668(4)
C26 C 0.2280(4) 0.8133(7) 0.7512(3)
C27 C 0.3401(3) 0.8053(5) 0.7526(3)
H1 H 0.85070 0.66590 0.33320
H2 H 0.86290 0.85850 0.34450
H3 H 0.96120 0.74230 0.37310
H4 H 0.86040 0.49150 0.50920
H5 H 0.88980 0.59950 0.60440
H6 H 0.97250 0.58140 0.52090
H7 H 0.87570 0.83800 0.51540
H8 H 0.70220 0.85130 0.45270
H9 H 0.69780 0.65840 0.43870
H10 H 0.69190 0.61590 0.60470
H11 H 0.87020 1.14470 1.01300
H12 H 0.86010 1.33760 1.02280
H13 H 0.76570 1.23520 0.97000
H14 H 1.02030 1.12430 0.92280
H15 H 1.04240 1.31460 0.93630
H16 H 1.03700 1.23570 0.82900
H17 H 0.90410 1.51770 0.88340
H18 H 0.79750 1.45480 0.82690
H19 H 0.90770 1.44140 0.77580
H20 H 0.54220 0.81770 0.72060
H21 H 0.62230 0.56050 0.73960
H22 H 0.51170 0.55590 0.79020
H23 H 0.61200 0.26330 0.72310
H24 H 0.51470 0.18520 0.65950
H25 H 0.33900 0.35970 0.76290
H26 H 0.25400 0.30350 0.91240
H27 H 0.34200 0.14600 1.03840
H28 H 0.51330 0.04400 1.01910
H29 H 0.60070 0.09990 0.87130
H30 H 0.36440 0.67020 0.52440
H31 H 0.17620 0.67170 0.52580
H32 H 0.09010 0.76090 0.66600
H33 H 0.19300 0.85510 0.80810
H34 H 0.38210 0.83840 0.81180
H35 H 0.52620 0.92110 0.47530
#END
