
#######################################################################
#
#                 Cambridge Crystallographic Data Centre
#                                CCDC
#
#######################################################################
#
# If this CIF has been generated from an entry in the Cambridge
# Structural Database, then it will include bibliographic, chemical,
# crystal, experimental, refinement or atomic coordinate data resulting
# from the CCDC's data processing and validation procedures.
#
#######################################################################

data_CSD_CIF_FOFDUA
_audit_creation_date 2005-06-23
_audit_creation_method CSD-ConQuest-V1
_database_code_CSD FOFDUA
_database_code_depnum_ccdc_archive 'CCDC 221984'
_chemical_formula_sum 'C29 H24 N4 O12'
_chemical_formula_moiety
;
C29 H24 N4 O12
;
_journal_coden_Cambridge 1350
_journal_volume 7
_journal_year 2005
_journal_page_first 158
_journal_name_full 'CrystEngComm '
loop_
_publ_author_name
"D.Laliberte"
"T.Maris"
"J.D.Wuest"
_chemical_name_systematic
;
tetrakis((4-nitrophenoxy)methyl)methane
;
_cell_volume   2834.293
_exptl_crystal_colour 'colorless'
_exptl_crystal_density_diffrn 1.454
_exptl_crystal_description 'block'
_exptl_crystal_preparation 'DMSO'
_diffrn_ambient_temperature 293
#These two values have been output from a single CSD field.
_refine_ls_R_factor_gt 0.0534
_refine_ls_wR_factor_gt 0.0534
_symmetry_cell_setting tetragonal
_symmetry_space_group_name_H-M 'I 41/a'
_symmetry_Int_Tables_number 88
loop_
_symmetry_equiv_pos_site_id
_symmetry_equiv_pos_as_xyz
1 x,y,z
2 3/4-y,1/4+x,1/4+z
3 1/2+x,1/2+y,1/2+z
4 1/4-y,3/4+x,3/4+z
5 1/4+y,1/4-x,1/4+z
6 1/2-x,-y,1/2+z
7 3/4+y,3/4-x,3/4+z
8 -x,1/2-y,z
9 -x,-y,-z
10 -3/4+y,-1/4-x,-1/4-z
11 -1/2-x,-1/2-y,-1/2-z
12 -1/4+y,-3/4-x,-3/4-z
13 -1/4-y,-1/4+x,-1/4-z
14 -1/2+x,y,-1/2-z
15 -3/4-y,-3/4+x,-3/4-z
16 x,-1/2+y,-z
_cell_length_a 18.2426(5)
_cell_length_b 18.2426(5)
_cell_length_c 8.5167(3)
_cell_angle_alpha 90
_cell_angle_beta 90
_cell_angle_gamma 90
_cell_formula_units_Z 4
loop_
_atom_type_symbol
_atom_type_radius_bond
C 0.68
H 0.23
N 0.68
O 0.68
loop_
_atom_site_label
_atom_site_type_symbol
_atom_site_fract_x
_atom_site_fract_y
_atom_site_fract_z
C1 C 0.50000 0.25000 -0.12500
C2 C 0.44888(11) 0.20293(10) -0.0257(2)
O1 O 0.41190(7) 0.24943(6) 0.08475(15)
C3 C 0.36800(9) 0.21668(10) 0.1934(2)
C4 C 0.34028(10) 0.14597(10) 0.1814(2)
C5 C 0.29542(10) 0.11947(11) 0.2993(2)
C6 C 0.27930(9) 0.16358(11) 0.4267(2)
C7 C 0.30669(10) 0.23379(12) 0.4385(2)
C8 C 0.35048(10) 0.26027(11) 0.3214(2)
N1 N 0.23115(9) 0.13632(12) 0.5496(2)
O2 O 0.20082(10) 0.07751(12) 0.5314(2)
O3 O 0.22264(9) 0.17408(11) 0.66676(19)
H1 H 0.2739(10) 0.0715(10) 0.294(2)
H2 H 0.3507(10) 0.1157(10) 0.097(2)
H3 H 0.2966(10) 0.2617(11) 0.527(2)
H4 H 0.3695(10) 0.3083(11) 0.3241(19)
H5 H 0.4751(9) 0.1643(10) 0.0323(17)
H6 H 0.4138(9) 0.1781(10) -0.0866(19)
C2I C 0.45293(11) 0.30112(10) -0.2243(2)
C2L C 0.54707(11) 0.19888(10) -0.2243(2)
C2G C 0.55112(11) 0.29707(10) -0.0257(2)
O1I O 0.49943(7) 0.33810(6) -0.33475(15)
O1L O 0.50057(7) 0.16190(6) -0.33475(15)
O1G O 0.58810(7) 0.25057(6) 0.08475(15)
C3I C 0.46668(9) 0.3820(1) -0.4434(2)
C3L C 0.53332(9) 0.1180(1) -0.4434(2)
C3G C 0.63200(9) 0.28332(10) 0.1934(2)
C4I C 0.39597(10) 0.40972(10) -0.4314(2)
C4L C 0.60403(10) 0.09028(10) -0.4314(2)
C4G C 0.65972(10) 0.35403(10) 0.1814(2)
C5I C 0.36947(10) 0.45458(11) -0.5493(2)
C5L C 0.63053(10) 0.04542(11) -0.5493(2)
C5G C 0.70458(10) 0.38053(11) 0.2993(2)
C6I C 0.41358(9) 0.47070(11) -0.6767(2)
C6L C 0.58642(9) 0.02930(11) -0.6767(2)
C6G C 0.72070(9) 0.33642(11) 0.4267(2)
C7I C 0.48379(10) 0.44331(12) -0.6885(2)
C7L C 0.51621(10) 0.05669(12) -0.6885(2)
C7G C 0.69331(10) 0.26621(12) 0.4385(2)
C8I C 0.51027(10) 0.39952(11) -0.5714(2)
C8L C 0.48973(10) 0.10048(11) -0.5714(2)
C8G C 0.64952(10) 0.23973(11) 0.3214(2)
N1I N 0.38632(9) 0.51885(12) -0.7996(2)
N1L N 0.61368(9) -0.01885(12) -0.7996(2)
N1G N 0.76885(9) 0.36368(12) 0.5496(2)
O2I O 0.32751(10) 0.54918(12) -0.7814(2)
O2L O 0.67249(10) -0.04918(12) -0.7814(2)
O2G O 0.79918(10) 0.42249(12) 0.5314(2)
O3I O 0.42408(9) 0.52736(11) -0.91676(19)
O3L O 0.57592(9) -0.02736(11) -0.91676(19)
O3G O 0.77736(9) 0.32592(11) 0.66676(19)
H1I H 0.3215(10) 0.4761(10) -0.544(2)
H1L H 0.6785(10) 0.0239(10) -0.544(2)
H1G H 0.7261(10) 0.4285(10) 0.294(2)
H2I H 0.3657(10) 0.3993(10) -0.347(2)
H2L H 0.6343(10) 0.1007(10) -0.347(2)
H2G H 0.6493(10) 0.3843(10) 0.097(2)
H3I H 0.5117(10) 0.4534(11) -0.777(2)
H3L H 0.4883(10) 0.0466(11) -0.777(2)
H3G H 0.7034(10) 0.2383(11) 0.527(2)
H4I H 0.5583(10) 0.3805(11) -0.5741(19)
H4L H 0.4417(10) 0.1195(11) -0.5741(19)
H4G H 0.6305(10) 0.1917(11) 0.3241(19)
H5I H 0.4143(9) 0.2749(10) -0.2823(17)
H5L H 0.5857(9) 0.2251(10) -0.2823(17)
H5G H 0.5249(9) 0.3357(10) 0.0323(17)
H6I H 0.4281(9) 0.3362(10) -0.1634(19)
H6L H 0.5719(9) 0.1638(10) -0.1634(19)
H6G H 0.5862(9) 0.3219(10) -0.0866(19)
#END
