
#######################################################################
#
#                 Cambridge Crystallographic Data Centre
#                                CCDC
#
#######################################################################
#
# If this CIF has been generated from an entry in the Cambridge
# Structural Database, then it will include bibliographic, chemical,
# crystal, experimental, refinement or atomic coordinate data resulting
# from the CCDC's data processing and validation procedures.
#
#######################################################################

data_CSD_CIF_FOGKAO
_audit_creation_date 2005-06-22
_audit_creation_method CSD-ConQuest-V1
_database_code_CSD FOGKAO
_database_code_depnum_ccdc_archive 'CCDC 259541'
_chemical_formula_sum 'C21 H21 N2 O2'
_chemical_formula_moiety
;
C21 H21 N2 O2
;
_journal_coden_Cambridge 1078
_journal_year 2004
_journal_name_full 'CSD Communication(Private Communication) '
loop_
_publ_author_name
"C.Mann"
"R.Gompper"
"K.Polborn"
_chemical_name_systematic
;
2-(Anthracen-9-yl)-4,4,5,5-tetramethyl-4,5-dihydro-1H-imidazole 3-oxide 1-oxyl
;
_cell_volume   3369.995
_exptl_crystal_colour 'brown'
_exptl_crystal_density_diffrn 1.314
_exptl_special_details
;
contribution from Department Chemie, Universitat Munchen, Butenandstr. 5-13, 
81377 Munchen, Germany
;
_exptl_crystal_description 'stick'
_diffrn_ambient_temperature 295
#These two values have been output from a single CSD field.
_refine_ls_R_factor_gt 0.0371
_refine_ls_wR_factor_gt 0.0371
_symmetry_cell_setting orthorhombic
_symmetry_space_group_name_H-M 'P b c a'
_symmetry_Int_Tables_number 61
loop_
_symmetry_equiv_pos_site_id
_symmetry_equiv_pos_as_xyz
1 x,y,z
2 1/2+x,1/2-y,-z
3 -x,1/2+y,1/2-z
4 1/2-x,-y,1/2+z
5 -x,-y,-z
6 -1/2-x,-1/2+y,z
7 x,-1/2-y,-1/2+z
8 -1/2+x,y,-1/2-z
_cell_length_a 11.514(4)
_cell_length_b 13.595(3)
_cell_length_c 21.529(6)
_cell_angle_alpha 90
_cell_angle_beta 90
_cell_angle_gamma 90
_cell_formula_units_Z 8
loop_
_atom_type_symbol
_atom_type_radius_bond
C 0.68
H 0.23
N 0.68
O 0.68
loop_
_atom_site_label
_atom_site_type_symbol
_atom_site_fract_x
_atom_site_fract_y
_atom_site_fract_z
O1 O 0.72492(16) 0.25723(15) 0.18574(8)
O2 O 0.45462(15) 0.00686(13) 0.18301(8)
N1 N 0.65316(18) 0.19105(16) 0.20341(9)
N2 N 0.52737(18) 0.07125(16) 0.20249(9)
C1 C 0.5905(2) 0.13215(18) 0.16638(11)
C2 C 0.6170(2) 0.18189(19) 0.27042(11)
C3 C 0.5644(2) 0.07730(18) 0.26933(11)
C4 C 0.5280(2) 0.2635(2) 0.28108(13)
H1 H 0.50180 0.26160 0.32340
H2 H 0.46300 0.25410 0.25370
H3 H 0.56320 0.32620 0.27280
C5 C 0.7206(2) 0.1959(2) 0.31322(11)
H4 H 0.69690 0.18550 0.35550
H5 H 0.75010 0.26150 0.30870
H6 H 0.78020 0.14950 0.30250
C6 C 0.4597(2) 0.0613(2) 0.31141(12)
H7 H 0.48370 0.06520 0.35400
H8 H 0.42710 -0.00250 0.30350
H9 H 0.40250 0.11090 0.30320
C7 C 0.6530(2) -0.00452(19) 0.27856(13)
H10 H 0.67770 -0.00550 0.32110
H11 H 0.71880 0.00690 0.25220
H12 H 0.61830 -0.06660 0.26820
C8 C 0.5891(2) 0.13350(19) 0.09787(10)
C9 C 0.5369(2) 0.21277(19) 0.06648(11)
C10 C 0.4843(2) 0.29347(19) 0.09709(12)
H13 H 0.48560 0.29610 0.14020
C11 C 0.4321(3) 0.3667(2) 0.06510(13)
H14 H 0.39840 0.41880 0.08650
C12 C 0.4282(3) 0.3651(2) -0.00045(13)
H15 H 0.39230 0.41600 -0.02200
C13 C 0.4764(2) 0.29008(19) -0.03154(13)
H16 H 0.47290 0.28950 -0.07470
C14 C 0.5328(2) 0.21118(19) -0.00004(12)
C15 C 0.5806(2) 0.13196(19) -0.03169(11)
H17 H 0.57760 0.13150 -0.07490
C16 C 0.6326(2) 0.05351(19) -0.00144(11)
C17 C 0.6796(2) -0.02793(19) -0.03413(12)
H18 H 0.67670 -0.02860 -0.07730
C18 C 0.7281(3) -0.1039(2) -0.00422(13)
H19 H 0.75820 -0.15650 -0.02660
C19 C 0.7334(2) -0.1040(2) 0.06169(13)
H20 H 0.76780 -0.15670 0.08220
C20 C 0.6892(2) -0.02870(19) 0.09475(12)
H21 H 0.69310 -0.03070 0.13790
C21 C 0.6367(2) 0.05404(19) 0.06538(11)
#END
