
#######################################################################
#
#                 Cambridge Crystallographic Data Centre
#                                CCDC
#
#######################################################################
#
# If this CIF has been generated from an entry in the Cambridge
# Structural Database, then it will include bibliographic, chemical,
# crystal, experimental, refinement or atomic coordinate data resulting
# from the CCDC's data processing and validation procedures.
#
#######################################################################

data_CSD_CIF_FOGLUJ
_audit_creation_date 2005-06-23
_audit_creation_method CSD-ConQuest-V1
_database_code_CSD FOGLUJ
_database_code_depnum_ccdc_archive 'CCDC 258604'
_chemical_formula_sum 'C31 H24 N6 O6'
_chemical_formula_moiety
;
C31 H24 N6 O6
;
_journal_coden_Cambridge 1078
_journal_year 2004
_journal_name_full 'CSD Communication(Private Communication) '
loop_
_publ_author_name
"M.Huschka"
"R.Gompper"
"K.Polborn"
_chemical_name_systematic
;
Dimethyl 
4-(4-(5-(5-(4-nitrophenyl)pyrazin-2-yl)pyrazin-2-yl)phenyl)-2,6-dimethylpyridi
ne-3,5-dicarboxylate
;
_cell_volume   2782.936
_exptl_crystal_colour 'orange'
_exptl_crystal_density_diffrn 1.376
_exptl_special_details
;
contribution from Department Chemie, Universitat Munchen, Butenandstr. 5-13, 
81377 Munchen, Germany
;
_exptl_crystal_description 'platelet'
_diffrn_ambient_temperature 295
#These two values have been output from a single CSD field.
_refine_ls_R_factor_gt 0.0467
_refine_ls_wR_factor_gt 0.0467
_symmetry_cell_setting monoclinic
_symmetry_space_group_name_H-M 'P 21/c'
_symmetry_Int_Tables_number 14
loop_
_symmetry_equiv_pos_site_id
_symmetry_equiv_pos_as_xyz
1 x,y,z
2 -x,1/2+y,1/2-z
3 -x,-y,-z
4 x,-1/2-y,-1/2+z
_cell_length_a 18.0229(11)
_cell_length_b 10.1717(19)
_cell_length_c 15.6170(13)
_cell_angle_alpha 90
_cell_angle_beta 103.579(6)
_cell_angle_gamma 90
_cell_formula_units_Z 4
loop_
_atom_type_symbol
_atom_type_radius_bond
C 0.68
H 0.23
N 0.68
O 0.68
loop_
_atom_site_label
_atom_site_type_symbol
_atom_site_fract_x
_atom_site_fract_y
_atom_site_fract_z
O1 O 0.77559(12) -0.0819(2) 0.66243(15)
O2 O 0.69351(11) -0.1553(2) 0.54215(14)
O3 O 0.57361(12) 0.3881(2) 0.46034(14)
O4 O 0.47041(11) 0.2607(2) 0.42120(13)
O5 O 1.1440(2) 0.2217(4) -0.3773(2)
O6 O 1.06842(15) 0.0846(3) -0.45382(16)
N1 N 0.56523(14) 0.1162(3) 0.68459(16)
N2 N 0.83843(13) 0.1259(3) 0.25362(15)
N3 N 0.71678(13) 0.0906(2) 0.15729(15)
N4 N 0.93468(17) 0.1504(4) 0.04014(18)
N5 N 0.82638(14) 0.0601(3) -0.05270(16)
N6 N 1.09068(19) 0.1480(3) -0.38759(19)
C1 C 0.62480(16) 0.0383(3) 0.68445(18)
C2 C 0.65535(14) 0.0261(3) 0.61075(17)
C3 C 0.62692(14) 0.1060(3) 0.53695(17)
C4 C 0.56700(14) 0.1905(3) 0.53987(17)
C5 C 0.53599(16) 0.1893(3) 0.6143(2)
C6 C 0.65539(18) -0.0347(4) 0.7696(2)
H1 H 0.69370 0.01760 0.80760
H2 H 0.67740 -0.11650 0.75730
H3 H 0.61450 -0.05170 0.79790
C7 C 0.71545(17) -0.0730(3) 0.6099(2)
C8 C 0.7490(2) -0.2506(4) 0.5284(3)
H4 H 0.72600 -0.30770 0.48060
H5 H 0.76630 -0.30160 0.58100
H6 H 0.79160 -0.20580 0.51450
C9 C 0.53905(16) 0.2912(3) 0.47011(18)
C10 C 0.4360(2) 0.3600(4) 0.3578(2)
H7 H 0.38930 0.32660 0.32140
H8 H 0.47050 0.38220 0.32160
H9 H 0.42530 0.43710 0.38840
C11 C 0.46907(18) 0.2740(4) 0.6204(2)
H10 H 0.42260 0.23080 0.59160
H11 H 0.47270 0.35690 0.59230
H12 H 0.46930 0.28840 0.68120
C12 C 0.66157(14) 0.1043(3) 0.45898(17)
C13 C 0.74025(15) 0.1152(3) 0.47045(17)
H13 H 0.77120 0.12220 0.52700
C14 C 0.77268(15) 0.1158(3) 0.39916(17)
H14 H 0.82540 0.12240 0.40810
C15 C 0.72781(15) 0.1065(3) 0.31358(17)
C16 C 0.64950(15) 0.0954(3) 0.30265(18)
H15 H 0.61850 0.08910 0.24610
C17 C 0.61663(16) 0.0935(3) 0.37409(18)
H16 H 0.56400 0.08500 0.36520
C18 C 0.76298(15) 0.1081(3) 0.23703(17)
C19 C 0.86905(17) 0.1250(3) 0.18393(19)
H17 H 0.92140 0.13780 0.19310
C20 C 0.82724(16) 0.1060(3) 0.09871(17)
C21 C 0.74976(16) 0.0900(3) 0.08953(18)
H18 H 0.71910 0.07820 0.03320
C22 C 0.86440(16) 0.1053(3) 0.02408(18)
C23 C 0.9676(2) 0.1523(5) -0.0274(2)
H19 H 1.01760 0.18240 -0.01700
C24 C 0.93377(16) 0.1138(3) -0.11051(18)
C25 C 0.86202(17) 0.0660(4) -0.1181(2)
H20 H 0.83600 0.03520 -0.17300
C26 C 0.97340(16) 0.1220(3) -0.18350(17)
C27 C 1.04055(17) 0.1928(3) -0.17274(19)
H21 H 1.06000 0.23560 -0.11960
C28 C 1.07929(17) 0.2015(3) -0.2390(2)
H22 H 1.12440 0.24910 -0.23110
C29 C 1.04952(17) 0.1381(3) -0.31676(19)
C30 C 0.98359(18) 0.0668(3) -0.33044(19)
H23 H 0.96480 0.02410 -0.38380
C31 C 0.94538(17) 0.0593(3) -0.26351(19)
H24 H 0.90020 0.01160 -0.27220
#END
