
#######################################################################
#
#                 Cambridge Crystallographic Data Centre
#                                CCDC
#
#######################################################################
#
# If this CIF has been generated from an entry in the Cambridge
# Structural Database, then it will include bibliographic, chemical,
# crystal, experimental, refinement or atomic coordinate data resulting
# from the CCDC's data processing and validation procedures.
#
#######################################################################

data_CSD_CIF_FOGYIK
_audit_creation_date 2005-06-23
_audit_creation_method CSD-ConQuest-V1
_database_code_CSD FOGYIK
_database_code_depnum_ccdc_archive 'CCDC 274343'
_chemical_formula_sum 'C21 H19 N1 O3'
_chemical_formula_moiety
;
C21 H19 N1 O3
;
_journal_coeditor_code "IUCr BT6665"
_journal_coden_Cambridge 1370
_journal_volume 61
_journal_year 2005
_journal_page_first o1795
_journal_name_full 'Acta Crystallogr.,Sect.E:Struct.Rep.Online '
loop_
_publ_author_name
"J.W.Quail"
"A.Doroudi"
"H.N.Pati"
"U.Das"
"J.R.Dimmock"
_chemical_name_systematic
;
(E,E)-2-(4-Methylphenylmethylene)-6-(4-nitrophenylmethylene)cyclohexanone
;
_chemical_melting_point 408
_cell_volume   1635.220
_exptl_crystal_colour 'yellow'
_exptl_crystal_density_diffrn 1.354
_exptl_special_details
;
Melting point range 408-409K

;
_exptl_crystal_preparation 'methanol'
_diffrn_ambient_temperature 173
#These two values have been output from a single CSD field.
_refine_ls_R_factor_gt 0.0478
_refine_ls_wR_factor_gt 0.0478
_symmetry_cell_setting monoclinic
_symmetry_space_group_name_H-M 'P 21/c'
_symmetry_Int_Tables_number 14
loop_
_symmetry_equiv_pos_site_id
_symmetry_equiv_pos_as_xyz
1 x,y,z
2 -x,1/2+y,1/2-z
3 -x,-y,-z
4 x,-1/2-y,-1/2+z
_cell_length_a 7.5713(3)
_cell_length_b 10.9972(4)
_cell_length_c 20.0451(6)
_cell_angle_alpha 90
_cell_angle_beta 101.550(2)
_cell_angle_gamma 90
_cell_formula_units_Z 4
loop_
_atom_type_symbol
_atom_type_radius_bond
C 0.68
H 0.23
N 0.68
O 0.68
loop_
_atom_site_label
_atom_site_type_symbol
_atom_site_fract_x
_atom_site_fract_y
_atom_site_fract_z
N1 N 1.0235(2) 0.92058(17) 0.85261(8)
O1 O 0.7513(2) 1.02782(14) 0.43299(7)
O2 O 1.1505(2) 0.98567(15) 0.87954(7)
O3 O 0.9576(2) 0.84253(17) 0.88339(8)
C1 C 0.6773(3) 0.93328(17) 0.44521(9)
C2 C 0.5697(2) 0.85971(17) 0.38862(9)
C3 C 0.4876(3) 0.74196(17) 0.40561(9)
H1 H 0.48350 0.68410 0.36750
H2 H 0.36220 0.75700 0.41090
C4 C 0.5940(3) 0.68561(18) 0.47078(9)
H3 H 0.53310 0.61020 0.48100
H4 H 0.71590 0.66350 0.46400
C5 C 0.6108(3) 0.77195(17) 0.53077(9)
H5 H 0.48970 0.78600 0.54090
H6 H 0.68660 0.73360 0.57130
C6 C 0.6921(2) 0.89241(17) 0.51783(9)
C7 C 0.7803(2) 0.96795(17) 0.56568(9)
H7 H 0.81900 1.04180 0.54860
C8 C 0.8266(2) 0.95536(17) 0.63999(9)
C9 C 0.9636(2) 1.03177(18) 0.67446(10)
H8 H 1.01440 1.09100 0.64940
C10 C 1.0262(2) 1.02299(18) 0.74380(9)
H9 H 1.11880 1.07540 0.76650
C11 C 0.9512(2) 0.93627(18) 0.77961(9)
C12 C 0.8099(3) 0.86285(18) 0.74860(9)
H10 H 0.75730 0.80590 0.77450
C13 C 0.7467(2) 0.87400(18) 0.67903(9)
H11 H 0.64750 0.82580 0.65740
C14 C 0.5531(2) 0.90804(17) 0.32576(9)
H12 H 0.62140 0.98020 0.32470
C15 C 0.4507(2) 0.87149(16) 0.25886(9)
C16 C 0.4833(3) 0.93674(17) 0.20244(9)
H13 H 0.57520 0.99690 0.20910
C17 C 0.3858(3) 0.91613(18) 0.13736(9)
H14 H 0.41300 0.96170 0.10050
C18 C 0.2491(2) 0.83030(17) 0.12487(9)
C19 C 0.2194(3) 0.76272(18) 0.18041(10)
H15 H 0.12980 0.70100 0.17320
C20 C 0.3160(2) 0.78244(18) 0.24571(9)
H16 H 0.29060 0.73480 0.28220
C21 C 0.1338(3) 0.8143(2) 0.05507(10)
H17 H 0.10650 0.72790 0.04690
H18 H 0.19860 0.84490 0.02080
H19 H 0.02120 0.85990 0.05210
#END
