
#######################################################################
#
#                 Cambridge Crystallographic Data Centre
#                                CCDC
#
#######################################################################
#
# If this CIF has been generated from an entry in the Cambridge
# Structural Database, then it will include bibliographic, chemical,
# crystal, experimental, refinement or atomic coordinate data resulting
# from the CCDC's data processing and validation procedures.
#
#######################################################################

data_CSD_CIF_FOHGUG
_audit_creation_date 2014-06-06
_audit_creation_method CSD-ConQuest-V1
_database_code_CSD FOHGUG
_database_code_depnum_ccdc_archive 'CCDC 944756'
_chemical_formula_sum 'C20 H14 N2 O3'
_chemical_formula_moiety
;
C20 H14 N2 O3
;
_journal_coden_Cambridge 10
_journal_volume 97
_journal_year 2014
_journal_page_first 595
_journal_name_full 'Helv.Chim.Acta '
loop_
_publ_author_name
"A.Klasek"
"A.Lycka"
"M.Rouchal"
"O.Rudolf"
"A.Ruzicka"
_chemical_name_systematic
;
3-nitro-1,3-diphenyl-1,3-dihydro-2H-indol-2-one
;
_cell_volume    789.074
_exptl_crystal_colour 'colorless'
_exptl_crystal_density_diffrn 1.39
_exptl_crystal_description 'block'
_diffrn_ambient_temperature 150
#These two values have been output from a single CSD field.
_refine_ls_R_factor_gt 0.0388
_refine_ls_wR_factor_gt 0.0388
_symmetry_cell_setting triclinic
_symmetry_space_group_name_H-M 'P -1'
_symmetry_Int_Tables_number 2
loop_
_symmetry_equiv_pos_site_id
_symmetry_equiv_pos_as_xyz
1 x,y,z
2 -x,-y,-z
_cell_length_a 8.7901(5)
_cell_length_b 9.5950(4)
_cell_length_c 9.9790(3)
_cell_angle_alpha 91.935(4)
_cell_angle_beta 101.309(6)
_cell_angle_gamma 106.188(5)
_cell_formula_units_Z 2
loop_
_atom_type_symbol
_atom_type_radius_bond
C 0.68
H 0.23
N 0.68
O 0.68
loop_
_atom_site_label
_atom_site_type_symbol
_atom_site_fract_x
_atom_site_fract_y
_atom_site_fract_z
O1 O -0.12920(12) 0.15523(12) 0.03119(10)
O2 O -0.17139(13) -0.1286(1) 0.27321(11)
N1 N -0.21857(13) -0.02234(12) 0.25368(12)
C1 C 0.18461(16) 0.19422(14) 0.43116(13)
H1 H 0.14970 0.24530 0.49400
N2 N -0.18030(13) 0.32278(12) 0.17425(11)
C2 C -0.18879(15) 0.33497(14) 0.31424(13)
O3 O -0.36050(12) -0.02600(12) 0.21468(14)
C3 C 0.07744(15) 0.12434(13) 0.31055(13)
C4 C -0.13610(15) 0.20153(14) 0.14306(13)
C5 C -0.14362(14) 0.22256(13) 0.38047(13)
C6 C -0.09525(15) 0.13208(13) 0.27951(13)
C7 C -0.14973(15) 0.20758(14) 0.51690(13)
H2 H -0.12080 0.13190 0.56090
C8 C -0.36531(17) 0.33717(15) -0.03668(14)
H3 H -0.41270 0.23700 -0.04130
C9 C -0.23804(16) 0.40731(14) 0.07106(13)
C10 C 0.29158(16) 0.04519(15) 0.24362(14)
H4 H 0.32720 -0.00500 0.18070
C11 C 0.34403(16) 0.18834(15) 0.45816(14)
H5 H 0.41470 0.23420 0.53960
C12 C 0.39778(16) 0.11418(15) 0.36460(14)
H6 H 0.50460 0.11100 0.38250
C13 C -0.23711(16) 0.43754(14) 0.38270(14)
H7 H -0.26510 0.51360 0.33860
C14 C -0.20037(16) 0.30895(14) 0.58687(13)
H8 H -0.20610 0.30060 0.67850
C15 C 0.13262(16) 0.05001(14) 0.21622(13)
H9 H 0.06240 0.00400 0.13470
C16 C -0.24181(16) 0.42214(15) 0.52063(14)
H10 H -0.27380 0.48940 0.56930
C17 C -0.22522(19) 0.63634(17) -0.02064(16)
H11 H -0.17970 0.73680 -0.01460
C18 C -0.3509(2) 0.56712(18) -0.12972(15)
H12 H -0.38830 0.62070 -0.19790
C19 C -0.42090(19) 0.41788(17) -0.13741(15)
H13 H -0.50570 0.37150 -0.21050
C20 C -0.16669(17) 0.55627(16) 0.07984(15)
H14 H -0.08080 0.60210 0.15230
#END
