
#######################################################################
#
#                 Cambridge Crystallographic Data Centre
#                                CCDC
#
#######################################################################
#
# If this CIF has been generated from an entry in the Cambridge
# Structural Database, then it will include bibliographic, chemical,
# crystal, experimental, refinement or atomic coordinate data resulting
# from the CCDC's data processing and validation procedures.
#
#######################################################################

data_CSD_CIF_FOHQID
_audit_creation_date 2005-06-23
_audit_creation_method CSD-ConQuest-V1
_database_code_CSD FOHQID
_database_code_depnum_ccdc_archive 'CCDC 238906'
_chemical_formula_sum 'C10 H14 N2 O2'
_chemical_formula_moiety
;
C10 H14 N2 O2
;
_journal_coden_Cambridge 36
_journal_volume 690
_journal_year 2005
_journal_page_first 197
_journal_name_full 'J.Organomet.Chem. '
loop_
_publ_author_name
"C.Uerpmann"
"B.J.L.Henner"
"C.Guerin"
"F.Carre"
_chemical_name_systematic
;
3-Amino-N-t-butyl-1,4-benzoquinone monoimine N-oxide
;
_chemical_melting_point 372.15
_cell_volume    983.585
_exptl_crystal_colour 'deep red'
_exptl_crystal_density_diffrn 1.312
_exptl_special_details
;
Melting point range 372.15-374.15K

;
_exptl_crystal_description 'plate'
_exptl_crystal_preparation 'diethyl ether'
_diffrn_ambient_temperature 170
#These two values have been output from a single CSD field.
_refine_ls_R_factor_gt 0.0435
_refine_ls_wR_factor_gt 0.0435
_symmetry_cell_setting monoclinic
_symmetry_space_group_name_H-M 'P 21/c'
_symmetry_Int_Tables_number 14
loop_
_symmetry_equiv_pos_site_id
_symmetry_equiv_pos_as_xyz
1 x,y,z
2 -x,1/2+y,1/2-z
3 -x,-y,-z
4 x,-1/2-y,-1/2+z
_cell_length_a 10.490(4)
_cell_length_b 8.061(21)
_cell_length_c 11.689(2)
_cell_angle_alpha 90
_cell_angle_beta 95.67(2)
_cell_angle_gamma 90
_cell_formula_units_Z 4
loop_
_atom_type_symbol
_atom_type_radius_bond
C 0.68
H 0.23
N 0.68
O 0.68
loop_
_atom_site_label
_atom_site_type_symbol
_atom_site_fract_x
_atom_site_fract_y
_atom_site_fract_z
N1 N 0.7020(2) 0.1774(3) 0.31972(14)
O1 O 0.7054(2) 0.1732(2) 0.20976(12)
C1 C 0.7681(2) 0.0595(3) 0.3840(2)
C2 C 0.9049(2) -0.1839(3) 0.3899(2)
C3 C 0.8367(2) -0.0637(3) 0.3286(2)
H1 H 0.8352(2) -0.0624(3) 0.2489(2)
O2 O 0.9639(2) -0.3028(2) 0.57342(13)
C4 C 0.9049(2) -0.1911(4) 0.5170(2)
N2 N 0.9756(2) -0.3020(3) 0.34242(15)
H2 H 0.99820 -0.27190 0.27190
H3 H 1.01840 -0.36020 0.38500
C5 C 0.7711(2) 0.0581(3) 0.5081(2)
H4 H 0.7287(2) 0.1405(3) 0.5453(2)
C6 C 0.8347(2) -0.0617(3) 0.5697(2)
H5 H 0.8337(2) -0.0616(3) 0.6491(2)
C7 C 0.6270(2) 0.3198(3) 0.3665(2)
C8 C 0.5245(3) 0.2559(4) 0.4400(2)
H6 H 0.5471(22) 0.2444(29) 0.5228(21)
H7 H 0.4925(24) 0.1503(31) 0.4211(20)
H8 H 0.4528(22) 0.3368(31) 0.4306(19)
C9 C 0.5588(3) 0.4121(4) 0.2622(2)
H9 H 0.5028(25) 0.3399(34) 0.2227(20)
H10 H 0.6251(21) 0.4577(35) 0.2111(19)
H11 H 0.5085(23) 0.4984(33) 0.2949(19)
C10 C 0.7227(3) 0.4382(4) 0.4302(2)
H12 H 0.7596(22) 0.4085(32) 0.5062(19)
H13 H 0.6849(22) 0.5503(30) 0.4376(19)
H14 H 0.7919(23) 0.4618(31) 0.3739(20)
#END
