
#######################################################################
#
#                 Cambridge Crystallographic Data Centre
#                                CCDC
#
#######################################################################
#
# If this CIF has been generated from an entry in the Cambridge
# Structural Database, then it will include bibliographic, chemical,
# crystal, experimental, refinement or atomic coordinate data resulting
# from the CCDC's data processing and validation procedures.
#
#######################################################################

data_CSD_CIF_FOKMUO
_audit_creation_date 2005-06-30
_audit_creation_method CSD-ConQuest-V1
_database_code_CSD FOKMUO
_database_code_depnum_ccdc_archive 'CCDC 255393'
_chemical_formula_sum 'C28 H35 N3 O7'
_chemical_formula_moiety
;
C28 H35 N3 O7
;
_journal_coden_Cambridge 1336
_journal_volume 7
_journal_year 2005
_journal_page_first 585
_journal_name_full 'Org.Lett. '
loop_
_publ_author_name
"K.Tchabanenko"
"R.M.Adlington"
"A.R.Cowley"
"J.E.Baldwin"
_chemical_name_systematic
;
N-(3,5-Dinitrobenzoyl)-himandravine
;
_cell_volume   1361.752
_exptl_crystal_colour 'colorless'
_exptl_crystal_density_diffrn 1.282
_exptl_crystal_description 'prism'
_exptl_crystal_preparation 'ethyl acetate'
_diffrn_ambient_temperature 150
#These two values have been output from a single CSD field.
_refine_ls_R_factor_gt 0.0302
_refine_ls_wR_factor_gt 0.0302
_symmetry_cell_setting monoclinic
_symmetry_space_group_name_H-M 'P 21'
_symmetry_Int_Tables_number 4
loop_
_symmetry_equiv_pos_site_id
_symmetry_equiv_pos_as_xyz
1 x,y,z
2 -x,1/2+y,-z
_cell_length_a 6.1778(2)
_cell_length_b 19.7758(5)
_cell_length_c 11.2460(3)
_cell_angle_alpha 90
_cell_angle_beta 97.6355(10)
_cell_angle_gamma 90
_cell_formula_units_Z 2
loop_
_atom_type_symbol
_atom_type_radius_bond
C 0.68
H 0.23
N 0.68
O 0.68
loop_
_atom_site_label
_atom_site_type_symbol
_atom_site_fract_x
_atom_site_fract_y
_atom_site_fract_z
C1 C 0.8167(4) 0.48885(12) 0.3151(2)
O1 O 0.6639(3) 0.48411(9) 0.38954(15)
O2 O 0.9803(3) 0.45450(9) 0.33010(17)
C2 C 0.4842(4) 0.53215(12) 0.3551(2)
C3 C 0.5796(4) 0.58208(11) 0.2712(2)
C4 C 0.4188(3) 0.62003(10) 0.17718(19)
C5 C 0.3192(3) 0.57391(11) 0.07225(19)
C6 C 0.1607(4) 0.61346(11) -0.0187(2)
C7 C 0.0793(4) 0.57179(13) -0.1303(2)
C8 C 0.2684(4) 0.54327(13) -0.1888(2)
C9 C 0.4203(4) 0.50143(12) -0.0994(2)
C10 C 0.5061(4) 0.54212(11) 0.01307(19)
C11 C 0.6459(4) 0.49808(11) 0.1043(2)
C12 C 0.7440(3) 0.53808(11) 0.2155(2)
C13 C 0.4264(5) 0.56163(17) 0.4716(2)
C14 C 0.2461(3) 0.65750(11) 0.23241(19)
C15 C 0.2226(4) 0.72418(11) 0.23171(19)
C16 C 0.0373(3) 0.76011(11) 0.28037(18)
C17 C -0.0474(4) 0.82045(12) 0.2031(2)
C18 C 0.1054(4) 0.88093(11) 0.2205(2)
C19 C 0.1363(4) 0.90150(12) 0.3527(2)
C20 C 0.2281(4) 0.84387(11) 0.43510(19)
C21 C 0.4703(4) 0.83152(13) 0.4308(2)
N1 N 0.0966(3) 0.78173(9) 0.40711(15)
C22 C 0.0555(4) 0.73711(11) 0.49253(19)
O3 O -0.0276(3) 0.68117(9) 0.47187(15)
C23 C 0.1104(3) 0.75942(11) 0.62119(18)
C24 C 0.2999(4) 0.73723(11) 0.6911(2)
C25 C 0.3416(4) 0.75888(12) 0.8092(2)
C26 C 0.2019(4) 0.80072(12) 0.86187(19)
C27 C 0.0134(4) 0.81962(11) 0.79021(19)
C28 C -0.0359(3) 0.80032(11) 0.67167(19)
N2 N 0.5458(3) 0.73696(12) 0.8817(2)
O4 O 0.6689(3) 0.70025(12) 0.8344(2)
O5 O 0.5804(3) 0.75713(13) 0.98602(19)
N3 N -0.1436(3) 0.86393(10) 0.84080(17)
O6 O -0.0831(3) 0.89155(9) 0.93703(15)
O7 O -0.3262(3) 0.86956(9) 0.78403(17)
H1 H 0.34490 0.51370 0.31170
H2 H 0.64390 0.62200 0.31770
H3 H 0.50840 0.65480 0.14140
H4 H 0.23230 0.53700 0.10410
H5 H 0.23720 0.65450 -0.04400
H6 H 0.03210 0.62750 0.02090
H7 H -0.01170 0.60140 -0.18940
H8 H -0.01180 0.53350 -0.10660
H9 H 0.35270 0.58150 -0.21840
H10 H 0.20900 0.51390 -0.25790
H11 H 0.54730 0.48590 -0.13900
H12 H 0.33850 0.46120 -0.07500
H13 H 0.59770 0.57940 -0.01360
H14 H 0.76760 0.47820 0.06540
H15 H 0.55290 0.46090 0.13030
H16 H 0.86050 0.56660 0.18700
H17 H 0.30440 0.59480 0.45350
H18 H 0.55700 0.58500 0.51520
H19 H 0.37970 0.52440 0.52280
H20 H 0.14080 0.63020 0.27280
H21 H 0.33360 0.75220 0.19710
H22 H -0.08300 0.72610 0.27760
H23 H -0.19300 0.83400 0.22500
H24 H -0.06380 0.80660 0.11690
H25 H 0.04090 0.91950 0.17030
H26 H 0.24990 0.86860 0.19580
H27 H 0.23970 0.94060 0.36380
H28 H -0.00830 0.91540 0.37550
H29 H 0.21640 0.85760 0.51960
H30 H 0.52170 0.79350 0.48600
H31 H 0.55440 0.87340 0.45640
H32 H 0.49360 0.81950 0.34700
H33 H 0.40380 0.70630 0.65700
H34 H 0.23580 0.81630 0.94690
H35 H -0.17460 0.81550 0.62300
#END
