
#######################################################################
#
#                 Cambridge Crystallographic Data Centre
#                                CCDC
#
#######################################################################
#
# If this CIF has been generated from an entry in the Cambridge
# Structural Database, then it will include bibliographic, chemical,
# crystal, experimental, refinement or atomic coordinate data resulting
# from the CCDC's data processing and validation procedures.
#
#######################################################################

data_CSD_CIF_FOKTUU
_audit_creation_date 1988-06-10
_audit_creation_method CSD-ConQuest-V1
_database_code_CSD FOKTUU
_chemical_formula_sum 'C14 H17 N3 O3'
_chemical_formula_moiety
;
C14 H17 N3 O3
;
_journal_coden_Cambridge 16
_journal_volume 43
_journal_year 1987
_journal_page_first 4731
_journal_name_full 'Tetrahedron '
loop_
_publ_author_name
"F.Fulop"
"G.Bernath"
"K.Pihlaja"
"J.Mattinen"
"G.Argay"
"A.Kalman"
_chemical_name_systematic
;
cis-2-p-Nitrophenylperhydroquinazolin-4-one
;
_chemical_melting_point 442.15
_cell_volume    658.436
_exptl_crystal_density_diffrn 1.39
_exptl_special_details
;
Melting point range 442.15-443.15K
isomer 2
x(C14) is 0.6968 not 0.6868

;
_diffrn_ambient_temperature ?
_diffrn_special_details
;
The study was carried out at room temperature,in the range 283-303K

;
#These two values have been output from a single CSD field.
_refine_ls_R_factor_gt 0.051
_refine_ls_wR_factor_gt 0.051
loop_
_citation_database_id_CSD
_citation_special_details
FOKTOO "is a stereoisomer of this entry"
_symmetry_cell_setting triclinic
_symmetry_space_group_name_H-M 'P -1'
_symmetry_Int_Tables_number 2
loop_
_symmetry_equiv_pos_site_id
_symmetry_equiv_pos_as_xyz
1 x,y,z
2 -x,-y,-z
_cell_length_a 7.076(1)
_cell_length_b 7.182(1)
_cell_length_c 13.334(1)
_cell_angle_alpha 88.56(1)
_cell_angle_beta 77.18(1)
_cell_angle_gamma 85.23(1)
_cell_formula_units_Z 2
loop_
_atom_type_symbol
_atom_type_radius_bond
C 0.68
H 0.23
N 0.68
O 0.68
loop_
_atom_site_label
_atom_site_type_symbol
_atom_site_fract_x
_atom_site_fract_y
_atom_site_fract_z
N1 N 0.5426(1) -0.4646(1) 0.2005(1)
C1 C 0.6374(1) -0.2974(1) 0.1634(1)
N2 N 0.5316(1) -0.1813(1) 0.0975(1)
C2 C 0.3467(1) -0.1956(1) 0.0913(1)
C3 C 0.2321(1) -0.3398(1) 0.1576(1)
C4 C 0.1967(1) -0.4901(1) 0.0856(1)
C5 C 0.0919(2) -0.6509(2) 0.1441(1)
C6 C 0.2082(2) -0.7366(2) 0.2196(1)
C7 C 0.2376(2) -0.5908(2) 0.2947(1)
C8 C 0.3328(1) -0.4199(1) 0.2420(1)
C9 C 0.6708(1) -0.1824(1) 0.2526(1)
C10 C 0.6847(2) 0.0089(1) 0.2430(1)
C11 C 0.7186(2) 0.1123(1) 0.3227(1)
C12 C 0.7418(1) 0.0197(1) 0.4115(1)
C13 C 0.7338(2) -0.1713(2) 0.4233(1)
C14 C 0.6968(2) -0.2717(1) 0.3431(1)
O1 O 0.2729(1) -0.0985(1) 0.0301(1)
N3 N 0.7768(1) 0.1286(1) 0.4968(1)
O2 O 0.7864(2) 0.2971(1) 0.4846(1)
O3 O 0.7932(1) 0.0463(1) 0.5756(1)
H1 H 0.759(2) -0.335(2) 0.121(1)
H2 H 0.111(2) -0.280(2) 0.182(1)
H3 H 0.129(2) -0.441(2) 0.033(1)
H4 H 0.331(2) -0.547(2) 0.041(1)
H5 H -0.043(2) -0.606(2) 0.188(1)
H6 H 0.074(2) -0.751(2) 0.094(1)
H7 H 0.146(2) -0.846(2) 0.260(1)
H8 H 0.337(2) -0.795(2) 0.186(1)
H9 H 0.112(2) -0.558(2) 0.336(1)
H10 H 0.316(2) -0.637(2) 0.344(1)
H11 H 0.323(2) -0.326(2) 0.295(1)
H12 H 0.667(2) 0.069(2) 0.179(1)
H13 H 0.720(2) 0.245(2) 0.318(1)
H14 H 0.738(3) -0.237(2) 0.487(1)
H15 H 0.698(2) -0.409(2) 0.352(1)
H16 H 0.561(2) -0.546(1) 0.151(1)
H17 H 0.596(2) -0.100(2) 0.054(1)
#END
