
#######################################################################
#
#                 Cambridge Crystallographic Data Centre
#                                CCDC
#
#######################################################################
#
# If this CIF has been generated from an entry in the Cambridge
# Structural Database, then it will include bibliographic, chemical,
# crystal, experimental, refinement or atomic coordinate data resulting
# from the CCDC's data processing and validation procedures.
#
#######################################################################

data_CSD_CIF_FOKVEH
_audit_creation_date 2005-06-30
_audit_creation_method CSD-ConQuest-V1
_database_code_CSD FOKVEH
_database_code_depnum_ccdc_archive 'CCDC 258252'
_chemical_formula_sum 'C21 H23 N5 O3'
_chemical_formula_moiety
;
C21 H23 N5 O3
;
_journal_coden_Cambridge 1078
_journal_year 2004
_journal_name_full 'CSD Communication(Private Communication) '
loop_
_publ_author_name
"C.Meier"
"R.Gompper"
"K.Polborn"
_chemical_name_systematic
;
2-(4-Methoxyphenyl)-4,6-bis(dimethylamino)-5-(4-nitrophenyl)pyrimidine
;
_cell_volume   2007.335
_exptl_crystal_colour 'yellow'
_exptl_crystal_density_diffrn 1.302
_exptl_special_details
;
contribution from Department Chemie, Universitat Munchen, Butenandstr. 5-13, 
81377 Munchen, Germany
;
_exptl_crystal_description 'stick'
_diffrn_ambient_temperature 295
#These two values have been output from a single CSD field.
_refine_ls_R_factor_gt 0.0392
_refine_ls_wR_factor_gt 0.0392
_symmetry_cell_setting monoclinic
_symmetry_space_group_name_H-M 'P 21/n'
_symmetry_Int_Tables_number 14
loop_
_symmetry_equiv_pos_site_id
_symmetry_equiv_pos_as_xyz
1 x,y,z
2 1/2-x,1/2+y,1/2-z
3 -x,-y,-z
4 -1/2+x,-1/2-y,-1/2+z
_cell_length_a 11.3754(18)
_cell_length_b 10.3867(15)
_cell_length_c 17.019(2)
_cell_angle_alpha 90
_cell_angle_beta 93.385(13)
_cell_angle_gamma 90
_cell_formula_units_Z 4
loop_
_atom_type_symbol
_atom_type_radius_bond
C 0.68
H 0.23
N 0.68
O 0.68
loop_
_atom_site_label
_atom_site_type_symbol
_atom_site_fract_x
_atom_site_fract_y
_atom_site_fract_z
O1 O 0.44467(18) 0.4646(2) 1.13432(17)
O2 O 0.55185(19) 0.6314(2) 1.14756(16)
O3 O 1.50099(13) -0.07886(17) 0.80227(10)
N1 N 0.53569(19) 0.5207(2) 1.12574(14)
N2 N 1.00187(14) 0.11105(17) 0.90536(10)
N3 N 1.12926(14) 0.21061(17) 1.00297(10)
N4 N 0.80240(15) 0.14822(19) 0.89268(11)
N5 N 1.05776(15) 0.32079(18) 1.10821(10)
C1 C 0.63265(19) 0.4517(2) 1.09137(13)
C2 C 0.62216(19) 0.3218(2) 1.07827(14)
H1 H 0.55330 0.27850 1.08900
C3 C 0.71564(18) 0.2565(2) 1.04889(13)
H2 H 0.70980 0.16830 1.04020
C4 C 0.81892(18) 0.3209(2) 1.03207(12)
C5 C 0.82499(19) 0.4530(2) 1.04560(13)
H3 H 0.89310 0.49740 1.03460
C6 C 0.73235(19) 0.5192(2) 1.07486(13)
H4 H 0.73700 0.60760 1.08330
C7 C 0.91989(17) 0.25084(19) 1.00087(11)
C8 C 0.90881(17) 0.1719(2) 0.93371(12)
C9 C 1.10739(17) 0.13872(19) 0.93925(12)
C10 C 1.03479(18) 0.2596(2) 1.03685(12)
C11 C 0.7246(2) 0.2530(3) 0.86746(15)
H5 H 0.64500 0.23110 0.87790
H6 H 0.72990 0.26720 0.81210
H7 H 0.74740 0.32980 0.89570
C12 C 0.7969(2) 0.0380(3) 0.83950(15)
H8 H 0.83640 0.05860 0.79280
H9 H 0.71610 0.01740 0.82560
H10 H 0.83470 -0.03460 0.86510
C13 C 0.9863(2) 0.2912(3) 1.17402(14)
H11 H 0.97140 0.36890 1.20240
H12 H 1.02750 0.23110 1.20850
H13 H 0.91290 0.25430 1.15460
C14 C 1.1799(2) 0.3487(3) 1.13241(14)
H14 H 1.21740 0.27190 1.15280
H15 H 1.18280 0.41390 1.17250
H16 H 1.22020 0.37880 1.08790
C15 C 1.21072(17) 0.0837(2) 0.90126(12)
C16 C 1.19598(18) 0.0166(2) 0.83148(13)
H17 H 1.12060 0.00800 0.80770
C17 C 1.29024(19) -0.0384(2) 0.79561(13)
H18 H 1.27830 -0.08360 0.74860
C18 C 1.40195(18) -0.0251(2) 0.83082(13)
C19 C 1.41923(19) 0.0435(2) 0.89989(14)
H19 H 1.49490 0.05350 0.92290
C20 C 1.32457(18) 0.0976(2) 0.93499(14)
H20 H 1.33700 0.14380 0.98160
C21 C 1.4871(2) -0.1623(3) 0.73608(18)
H21 H 1.56200 -0.19890 0.72530
H22 H 1.45690 -0.11440 0.69110
H23 H 1.43310 -0.23000 0.74720
#END
