
#######################################################################
#
#                 Cambridge Crystallographic Data Centre
#                                CCDC
#
#######################################################################
#
# If this CIF has been generated from an entry in the Cambridge
# Structural Database, then it will include bibliographic, chemical,
# crystal, experimental, refinement or atomic coordinate data resulting
# from the CCDC's data processing and validation procedures.
#
#######################################################################

data_CSD_CIF_FOKWUY
_audit_creation_date 2005-06-30
_audit_creation_method CSD-ConQuest-V1
_database_code_CSD FOKWUY
_database_code_depnum_ccdc_archive 'CCDC 258592'
_chemical_formula_sum 'C21 H23 N1 O3'
_chemical_formula_moiety
;
C21 H23 N1 O3
;
_journal_coden_Cambridge 1078
_journal_year 2004
_journal_name_full 'CSD Communication(Private Communication) '
loop_
_publ_author_name
"T.Menke"
"R.Knorr"
"K.Polborn"
_chemical_name_systematic
;
(p-Tolyl)(1,1,3,3-tetramethyl-2-nitro-2,3-dihydro-1H-inden-2-yl)methanone
;
_cell_volume    905.786
_exptl_crystal_colour 'colorless'
_exptl_crystal_density_diffrn 1.237
_exptl_special_details
;
contribution from Department Chemie, Universitat Munchen, Butenandstr. 5-13, 
81377 Munchen, Germany
;
_exptl_crystal_description 'platelet'
_diffrn_ambient_temperature 295
#These two values have been output from a single CSD field.
_refine_ls_R_factor_gt 0.036
_refine_ls_wR_factor_gt 0.036
_symmetry_cell_setting monoclinic
_symmetry_space_group_name_H-M 'P 21'
_symmetry_Int_Tables_number 4
loop_
_symmetry_equiv_pos_site_id
_symmetry_equiv_pos_as_xyz
1 x,y,z
2 -x,1/2+y,-z
_cell_length_a 8.6733(11)
_cell_length_b 8.2394(8)
_cell_length_c 13.1464(9)
_cell_angle_alpha 90
_cell_angle_beta 105.391(8)
_cell_angle_gamma 90
_cell_formula_units_Z 2
loop_
_atom_type_symbol
_atom_type_radius_bond
C 0.68
H 0.23
N 0.68
O 0.68
loop_
_atom_site_label
_atom_site_type_symbol
_atom_site_fract_x
_atom_site_fract_y
_atom_site_fract_z
O1 O 0.7124(2) 0.1241(3) 0.62133(13)
O2 O 0.5934(3) 0.3346(3) 0.8498(2)
O3 O 0.8175(3) 0.2873(4) 0.96163(16)
C1 C 0.8050(2) 0.2667(3) 0.78057(15)
C2 C 0.7929(2) 0.4315(3) 0.71723(17)
C3 C 0.9272(2) 0.4074(3) 0.66612(15)
C4 C 0.9535(4) 0.4946(4) 0.5817(2)
H1 H 0.88200 0.57480 0.54900
C5 C 1.0840(5) 0.4615(5) 0.5478(2)
H2 H 1.10230 0.52050 0.49180
C6 C 1.1896(4) 0.3431(6) 0.5940(3)
H3 H 1.27820 0.32140 0.56900
C7 C 1.1649(3) 0.2554(4) 0.6780(3)
H4 H 1.23720 0.17560 0.71030
C8 C 1.0317(2) 0.2878(3) 0.71355(16)
C9 C 0.9862(3) 0.2117(3) 0.80663(18)
C10 C 0.6301(3) 0.4613(4) 0.6378(2)
H5 H 0.54810 0.46500 0.67450
H6 H 0.60770 0.37480 0.58710
H7 H 0.63270 0.56260 0.60220
C11 C 0.8283(3) 0.5810(3) 0.7898(2)
H8 H 0.74070 0.59920 0.82020
H9 H 0.84220 0.67440 0.74940
H10 H 0.92430 0.56260 0.84500
C12 C 1.0085(4) 0.0265(3) 0.8101(3)
H11 H 0.96830 -0.01800 0.86550
H12 H 1.12010 0.00120 0.82320
H13 H 0.95100 -0.01940 0.74380
C13 C 1.1013(3) 0.2806(4) 0.9087(2)
H14 H 1.08610 0.22310 0.96870
H15 H 1.07910 0.39380 0.91500
H16 H 1.20980 0.26770 0.90530
C14 C 0.7028(2) 0.1328(3) 0.71101(16)
C15 C 0.5989(2) 0.0146(2) 0.74834(15)
C16 C 0.4813(3) -0.0612(3) 0.67080(17)
H17 H 0.46840 -0.03320 0.60050
C17 C 0.3836(3) -0.1769(3) 0.69577(19)
H18 H 0.30500 -0.22480 0.64200
C18 C 0.3991(3) -0.2238(3) 0.79853(19)
C19 C 0.5168(3) -0.1491(3) 0.87600(18)
H19 H 0.53060 -0.17920 0.94600
C20 C 0.6144(3) -0.0312(3) 0.85220(17)
H20 H 0.69140 0.01830 0.90630
C21 C 0.2961(3) -0.3536(4) 0.8257(2)
H21 H 0.26440 -0.32220 0.88750
H22 H 0.35510 -0.45340 0.83920
H23 H 0.20280 -0.36840 0.76790
N1 N 0.7359(3) 0.2985(3) 0.87292(17)
#END
