
#######################################################################
#
#                 Cambridge Crystallographic Data Centre
#                                CCDC
#
#######################################################################
#
# If this CIF has been generated from an entry in the Cambridge
# Structural Database, then it will include bibliographic, chemical,
# crystal, experimental, refinement or atomic coordinate data resulting
# from the CCDC's data processing and validation procedures.
#
#######################################################################

data_CSD_CIF_FOLFAP
_audit_creation_date 2014-06-10
_audit_creation_method CSD-ConQuest-V1
_database_code_CSD FOLFAP
_database_code_depnum_ccdc_archive 'CCDC 986977'
_chemical_formula_sum 'C14 H19 N1 O4'
_chemical_formula_moiety
;
C14 H19 N1 O4
;
_journal_coden_Cambridge 1336
_journal_volume 16
_journal_year 2014
_journal_page_first 2724
_journal_name_full 'Org.Lett. '
loop_
_publ_author_name
"Dai-Huei Jhuo"
"Bor-Cherng Hong"
"Chun-Wei Chang"
"Gene-Hsiang Lee"
_chemical_name_systematic
;
8-Hydroxy-8a-nitro-4a,4b,5,6,7,8,8a,9,10,10a-decahydrophenanthren-2(1H)-one
;
_cell_volume   1335.470
_exptl_crystal_colour 'colorless'
_exptl_crystal_density_diffrn 1.32
_exptl_special_details
;
Absolute configuration

;
_exptl_crystal_description 'block'
_diffrn_ambient_temperature 150
#These two values have been output from a single CSD field.
_refine_ls_R_factor_gt 0.0395
_refine_ls_wR_factor_gt 0.0395
_symmetry_cell_setting orthorhombic
_symmetry_space_group_name_H-M 'P 21 21 21'
_symmetry_Int_Tables_number 19
loop_
_symmetry_equiv_pos_site_id
_symmetry_equiv_pos_as_xyz
1 x,y,z
2 1/2-x,-y,1/2+z
3 -x,1/2+y,1/2-z
4 1/2+x,1/2-y,-z
_cell_length_a 7.3853(2)
_cell_length_b 10.1226(2)
_cell_length_c 17.8638(3)
_cell_angle_alpha 90
_cell_angle_beta 90
_cell_angle_gamma 90
_cell_formula_units_Z 4
loop_
_atom_type_symbol
_atom_type_radius_bond
C 0.68
H 0.23
N 0.68
O 0.68
loop_
_atom_site_label
_atom_site_type_symbol
_atom_site_fract_x
_atom_site_fract_y
_atom_site_fract_z
O1 O 0.93796(15) 0.89228(12) 0.54324(5)
O2 O 0.87850(16) 1.01770(11) 0.10611(6)
H1 H 0.79100 1.06480 0.09230
O3 O 0.77538(17) 0.60830(11) 0.22124(6)
O4 O 0.59656(18) 0.67433(12) 0.13477(7)
N1 N 0.71868(17) 0.69453(12) 0.17992(7)
C1 C 0.93856(19) 0.87701(15) 0.47502(7)
C2 C 0.76651(19) 0.85329(15) 0.43134(8)
H2 H 0.66720 0.90540 0.45400
H3 H 0.73350 0.75870 0.43490
C3 C 0.78516(17) 0.89099(14) 0.34939(7)
H4 H 0.81650 0.98700 0.34750
C4 C 0.61073(17) 0.87230(15) 0.30474(8)
H5 H 0.51290 0.92610 0.32730
H6 H 0.57350 0.77840 0.30670
C5 C 0.63888(19) 0.91384(15) 0.22330(8)
H7 H 0.66750 1.00930 0.22150
H8 H 0.52510 0.89950 0.19510
C6 C 0.79181(18) 0.83644(14) 0.18571(8)
C7 C 0.8271(2) 0.88210(17) 0.10383(8)
H9 H 0.71360 0.87230 0.07380
C8 C 0.9773(2) 0.8025(2) 0.06793(8)
H10 H 0.99900 0.83570 0.01660
H11 H 0.93930 0.70890 0.06420
C9 C 1.1527(2) 0.8109(2) 0.11273(8)
H12 H 1.19820 0.90290 0.11190
H13 H 1.24550 0.75370 0.08930
C10 C 1.1229(2) 0.76774(17) 0.19382(8)
H14 H 1.23600 0.78120 0.22250
H15 H 1.09370 0.67230 0.19490
C11 C 0.96909(18) 0.84532(14) 0.23105(7)
H16 H 1.00650 0.94020 0.22860
C12 C 0.94454(16) 0.81478(13) 0.31512(7)
H17 H 0.91870 0.71820 0.32030
C13 C 1.11117(19) 0.84531(14) 0.35992(7)
H18 H 1.22520 0.84190 0.33540
C14 C 1.10747(19) 0.87706(16) 0.43261(8)
H19 H 1.21710 0.90010 0.45710
#END
