
#######################################################################
#
#                 Cambridge Crystallographic Data Centre
#                                CCDC
#
#######################################################################
#
# If this CIF has been generated from an entry in the Cambridge
# Structural Database, then it will include bibliographic, chemical,
# crystal, experimental, refinement or atomic coordinate data resulting
# from the CCDC's data processing and validation procedures.
#
#######################################################################

data_CSD_CIF_FOLNUQ
_audit_creation_date 2005-06-30
_audit_creation_method CSD-ConQuest-V1
_database_code_CSD FOLNUQ
_database_code_depnum_ccdc_archive 'CCDC 247509'
_chemical_formula_sum 'C24 H26 N4 O8'
_chemical_formula_moiety
;
C24 H26 N4 O8
;
_journal_coden_Cambridge 16
_journal_volume 61
_journal_year 2005
_journal_page_first 2465
_journal_name_full 'Tetrahedron '
loop_
_publ_author_name
"R.Sridhar"
"P.T.Perumal"
_chemical_name_systematic
;
4-[3-Methoxycarbonyl-1-(4-nitrophenyl)-1H-pyrazol-4-yl]-2,6-dimethyl-1,4-dihyd
ropyridine-3,5-dicarboxylic acid diethyl ester
;
_chemical_melting_point 485.15
_cell_volume   2482.303
_exptl_crystal_colour 'yellow'
_exptl_crystal_density_diffrn 1.331
_exptl_crystal_description 'plate'
_diffrn_ambient_temperature 293
#These two values have been output from a single CSD field.
_refine_ls_R_factor_gt 0.045
_refine_ls_wR_factor_gt 0.045
_symmetry_cell_setting orthorhombic
_symmetry_space_group_name_H-M 'P c a 21'
_symmetry_Int_Tables_number 29
loop_
_symmetry_equiv_pos_site_id
_symmetry_equiv_pos_as_xyz
1 x,y,z
2 -x,-y,1/2+z
3 1/2-x,y,1/2+z
4 1/2+x,-y,z
_cell_length_a 14.9776(17)
_cell_length_b 9.4906(6)
_cell_length_c 17.463(3)
_cell_angle_alpha 90
_cell_angle_beta 90
_cell_angle_gamma 90
_cell_formula_units_Z 4
loop_
_atom_type_symbol
_atom_type_radius_bond
C 0.68
H 0.23
N 0.68
O 0.68
loop_
_atom_site_label
_atom_site_type_symbol
_atom_site_fract_x
_atom_site_fract_y
_atom_site_fract_z
C1 C -0.0298(4) 0.3838(5) 1.0107(2)
C2 C -0.0940(4) 0.3197(6) 0.9671(3)
H1 H -0.15410 0.33990 0.97480
C3 C -0.0679(3) 0.2234(5) 0.9109(3)
H2 H -0.11060 0.18020 0.88020
C4 C 0.0210(2) 0.1925(4) 0.9011(2)
C5 C 0.0843(3) 0.2551(4) 0.9483(2)
H3 H 0.14420 0.23170 0.94310
C6 C 0.0585(4) 0.3520(5) 1.0031(2)
H4 H 0.10080 0.39490 1.03440
C7 C -0.0018(2) 0.0418(3) 0.7851(2)
H5 H -0.06190 0.05950 0.77570
C8 C 0.05267(19) -0.0453(3) 0.74330(18)
C9 C 0.1361(2) -0.0360(4) 0.7819(2)
C10 C 0.0248(2) -0.1287(3) 0.67325(18)
C11 C 0.0065(2) -0.0306(3) 0.60549(19)
C12 C -0.0779(2) 0.0052(4) 0.58543(19)
C13 C -0.1391(2) -0.1788(4) 0.6670(2)
C14 C -0.0569(2) -0.2190(3) 0.6905(2)
C15 C -0.0440(3) -0.3476(4) 0.7355(3)
C16 C 0.0648(5) -0.4836(7) 0.8012(5)
H6 H 0.02380 -0.49470 0.84380
H7 H 0.06060 -0.56690 0.76920
C17 C 0.1508(6) -0.4699(13) 0.8285(9)
H8 H 0.16740 -0.55400 0.85550
H9 H 0.15390 -0.39070 0.86260
H10 H 0.19090 -0.45550 0.78630
C18 C -0.2258(3) -0.2512(5) 0.6851(3)
H11 H -0.27390 -0.20310 0.65990
H12 H -0.23560 -0.24980 0.73950
H13 H -0.22340 -0.34710 0.66760
C19 C -0.1074(3) 0.1095(4) 0.5262(2)
H14 H -0.17140 0.11240 0.52460
H15 H -0.08480 0.08190 0.47700
H16 H -0.08480 0.20120 0.53910
C20 C 0.0873(2) 0.0196(4) 0.5680(2)
C21 C 0.1556(3) 0.1509(6) 0.4690(3)
H17 H 0.18900 0.07200 0.44840
H18 H 0.19330 0.20040 0.50530
C22 C 0.1281(5) 0.2466(6) 0.4068(4)
H19 H 0.18010 0.28150 0.38080
H20 H 0.09510 0.32420 0.42790
H21 H 0.09110 0.19640 0.37110
C23 C 0.2224(2) -0.1060(4) 0.7669(2)
C24 C 0.2979(3) -0.2836(5) 0.6997(3)
H22 H 0.28570 -0.35450 0.66200
H23 H 0.31990 -0.32740 0.74550
H24 H 0.34200 -0.21940 0.68030
N1 N -0.0572(6) 0.4898(6) 1.0685(3)
N2 N 0.04809(17) 0.0979(3) 0.84321(16)
N3 N 0.13344(17) 0.0510(3) 0.84138(16)
N4 N -0.14819(17) -0.0622(3) 0.62079(17)
O1 O -0.1380(6) 0.5043(7) 1.0785(4)
O2 O 0.0005(5) 0.5592(5) 1.0981(3)
O3 O 0.0407(2) -0.3608(3) 0.7573(2)
O4 O -0.1000(3) -0.4342(3) 0.7528(2)
O5 O 0.07505(17) 0.1010(3) 0.50679(16)
O6 O 0.16171(16) -0.0112(3) 0.58973(19)
O7 O 0.28958(18) -0.0736(4) 0.7986(2)
O8 O 0.21756(16) -0.2081(3) 0.71666(18)
H25 H -0.2103(15) -0.036(5) 0.605(3)
#END
