
#######################################################################
#
#                 Cambridge Crystallographic Data Centre
#                                CCDC
#
#######################################################################
#
# If this CIF has been generated from an entry in the Cambridge
# Structural Database, then it will include bibliographic, chemical,
# crystal, experimental, refinement or atomic coordinate data resulting
# from the CCDC's data processing and validation procedures.
#
#######################################################################

data_CSD_CIF_FOLQON
_audit_creation_date 2005-06-30
_audit_creation_method CSD-ConQuest-V1
_database_code_CSD FOLQON
_database_code_depnum_ccdc_archive 'CCDC 238026'
_chemical_formula_sum 'C15 H11 N1 O5'
_chemical_formula_moiety
;
C15 H11 N1 O5
;
_journal_coden_Cambridge 16
_journal_volume 61
_journal_year 2005
_journal_page_first 1885
_journal_name_full 'Tetrahedron '
loop_
_publ_author_name
"M.Jevric"
"D.K.Taylor"
"B.W.Greatrex"
"E.R.T.Tiekink"
_chemical_name_systematic
;
(+-)-(7aR,10aR)-7a-Methyl-1-nitro-7a,10a-dihydrofuro[3,2-b]naphtho[1,2-d]furan
-9(8H)-one
;
_chemical_melting_point 463.15
_cell_volume   1247.619
_exptl_crystal_colour 'yellow'
_exptl_crystal_density_diffrn 1.519
_exptl_special_details
;
Melts with decomposition.

;
_exptl_crystal_description 'plate'
_diffrn_ambient_temperature 223
#These two values have been output from a single CSD field.
_refine_ls_R_factor_gt 0.06
_refine_ls_wR_factor_gt 0.06
_symmetry_cell_setting monoclinic
_symmetry_space_group_name_H-M 'P 21/c'
_symmetry_Int_Tables_number 14
loop_
_symmetry_equiv_pos_site_id
_symmetry_equiv_pos_as_xyz
1 x,y,z
2 -x,1/2+y,1/2-z
3 -x,-y,-z
4 x,-1/2-y,-1/2+z
_cell_length_a 10.1217(13)
_cell_length_b 9.3347(11)
_cell_length_c 13.7966(18)
_cell_angle_alpha 90
_cell_angle_beta 106.844(3)
_cell_angle_gamma 90
_cell_formula_units_Z 4
loop_
_atom_type_symbol
_atom_type_radius_bond
C 0.68
H 0.23
N 0.68
O 0.68
loop_
_atom_site_label
_atom_site_type_symbol
_atom_site_fract_x
_atom_site_fract_y
_atom_site_fract_z
O1 O 0.35588(13) 0.07897(14) 0.23389(11)
O2 O 0.41174(16) -0.21969(18) 0.47898(11)
O3 O 0.30625(14) -0.23684(14) 0.31397(10)
O4 O 0.0472(2) -0.50364(18) 0.15560(16)
O5 O 0.17514(16) -0.38918(17) 0.08036(13)
N1 N 0.07820(19) -0.39568(18) 0.11725(13)
C1 C -0.0101(2) -0.2708(2) 0.10963(13)
C2 C -0.1487(2) -0.2979(2) 0.07711(15)
H1 H -0.18040 -0.39300 0.06800
C3 C -0.2430(2) -0.1857(2) 0.05744(15)
H2 H -0.33820 -0.20450 0.03520
C4 C -0.1960(2) -0.0482(2) 0.07062(15)
H3 H -0.26000 0.02750 0.05540
C5 C -0.05430(19) -0.0165(2) 0.10644(13)
C6 C -0.0103(2) 0.1284(2) 0.12333(14)
H4 H -0.07690 0.20160 0.10650
C7 C 0.1240(2) 0.1648(2) 0.16283(14)
H5 H 0.15190 0.26100 0.17290
C8 C 0.21952(19) 0.05246(19) 0.18804(14)
C9 C 0.42870(19) -0.05856(19) 0.24736(15)
C10 C 0.4975(2) -0.0831(2) 0.35941(15)
H6 H 0.58910 -0.12570 0.37030
H7 H 0.50760 0.00760 0.39670
C11 C 0.4043(2) -0.1835(2) 0.39387(15)
C12 C 0.31441(18) -0.17302(19) 0.21873(14)
H8 H 0.33240 -0.24570 0.17180
C13 C 0.18565(18) -0.08962(18) 0.17188(13)
C14 C 0.04575(18) -0.12991(19) 0.12904(12)
C15 C 0.5238(2) -0.0599(2) 0.18173(16)
H9 H 0.47100 -0.04360 0.11180
H10 H 0.56970 -0.15200 0.18750
H11 H 0.59230 0.01520 0.20350
#END
