
#######################################################################
#
#                 Cambridge Crystallographic Data Centre
#                                CCDC
#
#######################################################################
#
# If this CIF has been generated from an entry in the Cambridge
# Structural Database, then it will include bibliographic, chemical,
# crystal, experimental, refinement or atomic coordinate data resulting
# from the CCDC's data processing and validation procedures.
#
#######################################################################

data_CSD_CIF_FOMQEE
_audit_creation_date 2005-06-30
_audit_creation_method CSD-ConQuest-V1
_database_code_CSD FOMQEE
_database_code_depnum_ccdc_archive 'CCDC 274317'
_chemical_formula_sum 'C13 H14 N2 O7'
_chemical_formula_moiety
;
C13 H14 N2 O7
;
_journal_coeditor_code "IUCr AC6172"
_journal_coden_Cambridge 1370
_journal_volume 61
_journal_year 2005
_journal_page_first o1709
_journal_name_full 'Acta Crystallogr.,Sect.E:Struct.Rep.Online '
loop_
_publ_author_name
"E.G.Moore"
"P.Meredith"
"P.V.Bernhardt"
_chemical_name_systematic
;
2-Methoxy-6-methyl-3-nitro-4-(2-nitroprop-1-enyl)phenyl acetate
;
_cell_volume    713.252
_exptl_crystal_colour 'colorless'
_exptl_crystal_density_diffrn 1.445
_exptl_crystal_description 'prism'
_exptl_crystal_preparation 'ethyl acetate'
_diffrn_ambient_temperature 293
#These two values have been output from a single CSD field.
_refine_ls_R_factor_gt 0.0464
_refine_ls_wR_factor_gt 0.0464
_symmetry_cell_setting triclinic
_symmetry_space_group_name_H-M 'P -1'
_symmetry_Int_Tables_number 2
loop_
_symmetry_equiv_pos_site_id
_symmetry_equiv_pos_as_xyz
1 x,y,z
2 -x,-y,-z
_cell_length_a 8.274(3)
_cell_length_b 9.125(2)
_cell_length_c 10.623(2)
_cell_angle_alpha 76.31(2)
_cell_angle_beta 81.34(2)
_cell_angle_gamma 66.51(3)
_cell_formula_units_Z 2
loop_
_atom_type_symbol
_atom_type_radius_bond
C 0.68
H 0.23
N 0.68
O 0.68
loop_
_atom_site_label
_atom_site_type_symbol
_atom_site_fract_x
_atom_site_fract_y
_atom_site_fract_z
C1 C 0.2471(4) 1.1296(3) 0.3133(3)
C2 C 0.3168(4) 0.9605(3) 0.3600(3)
C3 C 0.3365(4) 0.8936(3) 0.4911(3)
C4 C 0.2814(4) 0.9995(3) 0.5776(3)
C5 C 0.2058(4) 1.1664(4) 0.5379(3)
C6 C 0.1892(4) 1.2270(3) 0.4049(3)
H1 H 0.13620 1.33910 0.37670
C7 C 0.2237(4) 1.2012(4) 0.1746(3)
H2 H 0.18750 1.14830 0.12640
C8 C 0.2498(4) 1.3341(4) 0.1131(3)
C9 C 0.3195(5) 1.4370(4) 0.1602(3)
H3 H 0.22500 1.53800 0.17070
H4 H 0.40840 1.45850 0.09820
H5 H 0.37010 1.38090 0.24200
C10 C 0.1472(5) 1.2808(4) 0.6314(3)
H6 H 0.02860 1.29510 0.66510
H7 H 0.15110 1.38420 0.58730
H8 H 0.22430 1.23620 0.70160
C11 C 0.1845(5) 0.9370(4) 0.7987(3)
C12 C 0.2493(5) 0.8790(4) 0.9316(3)
H9 H 0.15040 0.89820 0.99440
H10 H 0.31960 0.93690 0.94210
H11 H 0.31970 0.76450 0.94400
C13 C 0.3136(5) 0.6428(4) 0.5947(3)
H12 H 0.24100 0.69430 0.66350
H13 H 0.38640 0.53260 0.62990
H14 H 0.23980 0.64300 0.53300
N1 N 0.2075(4) 1.3879(4) -0.0247(3)
N2 N 0.3756(4) 0.8505(3) 0.2674(3)
O1 O 0.1256(4) 1.3270(4) -0.0676(2)
O2 O 0.2539(5) 1.4945(4) -0.0904(3)
O3 O 0.3300(4) 0.7360(3) 0.2894(2)
O4 O 0.4684(3) 0.8812(3) 0.1724(2)
O5 O 0.4234(3) 0.7303(2) 0.53144(19)
O6 O 0.3217(3) 0.9308(2) 0.70794(18)
O7 O 0.0365(3) 0.9839(3) 0.7701(2)
#END
