
#######################################################################
#
#                 Cambridge Crystallographic Data Centre
#                                CCDC
#
#######################################################################
#
# If this CIF has been generated from an entry in the Cambridge
# Structural Database, then it will include bibliographic, chemical,
# crystal, experimental, refinement or atomic coordinate data resulting
# from the CCDC's data processing and validation procedures.
#
#######################################################################

data_CSD_CIF_FONCIU
_audit_creation_date 1988-05-06
_audit_creation_method CSD-ConQuest-V1
_database_code_CSD FONCIU
_chemical_formula_sum 'C18 H20 N2 O6'
_chemical_formula_moiety
;
C18 H20 N2 O6
;
_journal_coeditor_code "IUCr A27393"
_journal_coden_Cambridge 591
_journal_volume 43
_journal_year 1987
_journal_page_first 1734
_journal_name_full 'Acta Crystallogr.,Sect.C:Cryst.Struct.Commun. '
loop_
_publ_author_name
"E.E.Knaus"
"H.Wynn"
"M.W.Wolowyk"
"R.G.Ball"
_chemical_name_systematic
;
Dimethyl 
1,2-dihydro-1,2,6-trimethyl-4-(2-nitrophenyl)-3,5-pyridinedicarboxylate
;
_chemical_melting_point 419
_cell_volume   1765.969
_exptl_crystal_colour 'white'
_exptl_crystal_density_diffrn 1.35
_diffrn_ambient_temperature ?
_diffrn_special_details
;
The study was carried out at room temperature,in the range 283-303K

;
#These two values have been output from a single CSD field.
_refine_ls_R_factor_gt 0.049
_refine_ls_wR_factor_gt 0.049
_symmetry_cell_setting monoclinic
_symmetry_space_group_name_H-M 'P 21/n'
_symmetry_Int_Tables_number 14
loop_
_symmetry_equiv_pos_site_id
_symmetry_equiv_pos_as_xyz
1 x,y,z
2 1/2-x,1/2+y,1/2-z
3 -x,-y,-z
4 -1/2+x,-1/2-y,-1/2+z
_cell_length_a 9.537(2)
_cell_length_b 16.990(4)
_cell_length_c 10.909(2)
_cell_angle_alpha 90
_cell_angle_beta 92.48(2)
_cell_angle_gamma 90
_cell_formula_units_Z 4
loop_
_atom_type_symbol
_atom_type_radius_bond
C 0.68
H 0.23
N 0.68
O 0.68
loop_
_atom_site_label
_atom_site_type_symbol
_atom_site_fract_x
_atom_site_fract_y
_atom_site_fract_z
O1 O 0.6593(2) 0.1111(2) 0.6139(2)
O2 O 0.8908(2) 0.1285(1) 0.6252(2)
O3 O 0.9664(3) 0.1272(2) 0.0348(2)
O4 O 1.1048(3) 0.1536(2) 0.1930(2)
O5 O 0.9120(3) 0.2849(2) 0.3369(2)
O6 O 1.0210(3) 0.3474(1) 0.4823(3)
N1 N 0.6516(3) 0.0577(2) 0.2592(2)
N2 N 0.9993(3) 0.2879(2) 0.4200(3)
C1 C 0.8924(3) 0.1265(2) 0.3614(3)
C2 C 0.8797(3) 0.1068(2) 0.2324(3)
C3 C 0.7639(3) 0.0616(2) 0.1911(3)
C4 C 0.6370(3) 0.1139(2) 0.3598(3)
C5 C 0.7763(3) 0.1214(2) 0.4295(3)
C6 C 0.7686(3) 0.1203(2) 0.5628(3)
C7 C 0.8876(4) 0.1201(3) 0.7566(3)
C8 C 0.5824(4) 0.1929(2) 0.3121(3)
C9 C 0.5300(4) 0.0078(2) 0.2299(4)
C10 C 0.7640(4) 0.0114(2) 0.0785(4)
C11 C 0.9846(3) 0.1281(2) 0.1442(3)
C12 C 1.2104(4) 0.1792(3) 0.1141(4)
C13 C 1.0337(3) 0.1434(2) 0.4201(3)
C14 C 1.0844(3) 0.2176(2) 0.4511(3)
C15 C 1.2139(3) 0.2304(2) 0.5091(3)
C16 C 1.2991(3) 0.1667(2) 0.5358(3)
C17 C 1.2533(3) 0.0920(2) 0.5057(3)
C18 C 1.1232(3) 0.0807(2) 0.4484(3)
H1 H 0.57010 0.09480 0.41480
H2 H 0.97940 0.12700 0.79190
H3 H 0.82650 0.15830 0.78830
H4 H 0.85460 0.06880 0.77560
H5 H 0.57360 0.22820 0.37880
H6 H 0.64600 0.21400 0.25610
H7 H 0.49310 0.18570 0.27140
H8 H 0.46260 0.01440 0.29060
H9 H 0.48950 0.02220 0.15190
H10 H 0.55870 -0.04570 0.22780
H11 H 0.84910 0.01900 0.03810
H12 H 0.75630 -0.04250 0.10130
H13 H 0.68690 0.02520 0.02510
H14 H 1.29040 0.19600 0.16170
H15 H 1.23560 0.13690 0.06240
H16 H 1.17560 0.22170 0.06490
H17 H 1.24380 0.28230 0.53000
H18 H 1.38880 0.17460 0.57540
H19 H 1.31180 0.04810 0.52480
H20 H 1.09360 0.02890 0.42710
#END
