
#######################################################################
#
#                 Cambridge Crystallographic Data Centre
#                                CCDC
#
#######################################################################
#
# If this CIF has been generated from an entry in the Cambridge
# Structural Database, then it will include bibliographic, chemical,
# crystal, experimental, refinement or atomic coordinate data resulting
# from the CCDC's data processing and validation procedures.
#
#######################################################################

data_CSD_CIF_FONZEO
_audit_creation_date 2009-08-31
_audit_creation_method CSD-ConQuest-V1
_database_code_CSD FONZEO
_database_code_depnum_ccdc_archive 'CCDC 678012'
_chemical_formula_sum 'C21 H26 N2 O4'
_chemical_formula_moiety
;
C21 H26 N2 O4
;
_journal_coden_Cambridge 35
_journal_volume 74
_journal_year 2009
_journal_page_first 1252
_journal_name_full 'J.Org.Chem. '
loop_
_publ_author_name
"Yan Huang"
"Qiong Li"
"Tian-Liang Liu"
"Peng-Fei Xu"
_chemical_name_systematic
;
(1R,2S,5R,8S)-5-((R)-1-(4-methylphenyl)-2-nitroethyl)-1,11,11-trimethyl-3-oxa-
6-azatricyclo[6.2.1.0^2,7^]undec-6-en-4-one
;
_chemical_melting_point 399.15
_cell_volume   1973.308
_exptl_crystal_colour 'colorless'
_exptl_crystal_density_diffrn 1.247
_exptl_special_details
;
Melting point range 399.15-401.15K

;
_diffrn_ambient_temperature 294
#These two values have been output from a single CSD field.
_refine_ls_R_factor_gt 0.0392
_refine_ls_wR_factor_gt 0.0392
_symmetry_cell_setting orthorhombic
_symmetry_space_group_name_H-M 'P 21 21 21'
_symmetry_Int_Tables_number 19
loop_
_symmetry_equiv_pos_site_id
_symmetry_equiv_pos_as_xyz
1 x,y,z
2 1/2-x,-y,1/2+z
3 -x,1/2+y,1/2-z
4 1/2+x,1/2-y,-z
_cell_length_a 6.9543(8)
_cell_length_b 14.3884(16)
_cell_length_c 19.721(2)
_cell_angle_alpha 90
_cell_angle_beta 90
_cell_angle_gamma 90
_cell_formula_units_Z 4
loop_
_atom_type_symbol
_atom_type_radius_bond
C 0.68
H 0.23
N 0.68
O 0.68
loop_
_atom_site_label
_atom_site_type_symbol
_atom_site_fract_x
_atom_site_fract_y
_atom_site_fract_z
C1 C 0.8380(3) 0.70087(13) 0.18668(9)
C2 C 0.8442(4) 0.60070(15) 0.30967(10)
C3 C 0.6716(3) 0.66085(14) 0.21262(10)
H1 H 0.55630 0.66710 0.18920
C4 C 1.0088(3) 0.64086(14) 0.28396(10)
H2 H 1.12390 0.63410 0.30740
C5 C 1.0070(3) 0.69111(13) 0.22399(10)
H3 H 1.11980 0.71860 0.20850
C6 C 0.6757(4) 0.61178(15) 0.27301(11)
H4 H 0.56260 0.58560 0.28940
C7 C 0.8466(5) 0.54629(19) 0.37507(12)
H5 H 0.91360 0.48870 0.36830
H6 H 0.71690 0.53370 0.38900
H7 H 0.91060 0.58190 0.40950
C8 C 0.9254(3) 0.50708(12) 0.11145(10)
H8 H 0.88520 0.52420 0.15740
C9 C 1.0043(3) 0.40717(13) 0.11138(10)
C10 C 1.0977(3) 0.56353(13) 0.09125(9)
C11 C 1.1128(3) 0.40278(14) 0.1797(1)
H9 H 1.03220 0.42460 0.21660
H10 H 1.15450 0.33990 0.18950
C12 C 1.2662(3) 0.49931(15) 0.09500(11)
H11 H 1.38460 0.52230 0.07380
C13 C 1.2863(3) 0.46760(15) 0.16926(11)
H12 H 1.40630 0.43460 0.17630
H13 H 1.28090 0.52020 0.20000
C14 C 1.1159(4) 0.42899(19) -0.01346(11)
H14 H 1.02200 0.47780 -0.01530
H15 H 1.06200 0.37310 -0.03210
H16 H 1.22700 0.44670 -0.03930
C15 C 1.1746(3) 0.41195(14) 0.06071(11)
C16 C 1.3072(4) 0.32704(18) 0.06147(14)
H17 H 1.23520 0.27270 0.04910
H18 H 1.35950 0.31900 0.10610
H19 H 1.41000 0.33620 0.02970
C17 C 0.8536(4) 0.33247(14) 0.10121(12)
H20 H 0.76290 0.33450 0.13790
H21 H 0.91460 0.27260 0.10020
H22 H 0.78780 0.34290 0.05910
O1 O 0.6047(3) 0.62888(10) 0.00847(7)
O2 O 0.76830(19) 0.52316(9) 0.06424(7)
C18 C 0.8968(3) 0.68291(13) 0.05866(10)
H23 H 0.90240 0.72290 0.01850
C19 C 0.7440(3) 0.61134(13) 0.04278(9)
N1 N 1.0919(3) 0.64479(11) 0.06588(8)
N2 N 0.6115(5) 0.87303(16) 0.15218(11)
O3 O 0.7264(4) 0.93344(14) 0.16363(10)
O4 O 0.4575(4) 0.86498(18) 0.18211(15)
C20 C 0.8449(3) 0.74943(13) 0.11866(10)
H24 H 0.94750 0.79600 0.12130
C21 C 0.6611(4) 0.80098(15) 0.09997(10)
H25 H 0.67750 0.83080 0.05620
H26 H 0.55620 0.75690 0.09620
#END
