
#######################################################################
#
#                 Cambridge Crystallographic Data Centre
#                                CCDC
#
#######################################################################
#
# If this CIF has been generated from an entry in the Cambridge
# Structural Database, then it will include bibliographic, chemical,
# crystal, experimental, refinement or atomic coordinate data resulting
# from the CCDC's data processing and validation procedures.
#
#######################################################################

data_CSD_CIF_FONZAK
_audit_creation_date 2009-09-01
_audit_creation_method CSD-ConQuest-V1
_database_code_CSD FONZAK
_database_code_depnum_ccdc_archive 'CCDC 678011'
_chemical_formula_sum 'C20 H24 N2 O4'
_chemical_formula_moiety
;
C20 H24 N2 O4
;
_journal_coden_Cambridge 35
_journal_volume 74
_journal_year 2009
_journal_page_first 1252
_journal_name_full 'J.Org.Chem. '
loop_
_publ_author_name
"Yan Huang"
"Qiong Li"
"Tian-Liang Liu"
"Peng-Fei Xu"
_chemical_name_systematic
;
(1R,2S,5R,8S)-5-((R)-2-nitro-1-phenylethyl)-1,11,11-trimethyl-3-oxa-6-azatricy
clo[6.2.1.0^2,7^]undec-6-en-4-one
;
_chemical_melting_point 409.15
_cell_volume   1907.240
_exptl_crystal_colour 'colorless'
_exptl_crystal_density_diffrn 1.241
_exptl_special_details
;
Melting point range 409.15-411.15K

;
_diffrn_ambient_temperature 294
#These two values have been output from a single CSD field.
_refine_ls_R_factor_gt 0.0479
_refine_ls_wR_factor_gt 0.0479
_symmetry_cell_setting orthorhombic
_symmetry_space_group_name_H-M 'P 21 21 21'
_symmetry_Int_Tables_number 19
loop_
_symmetry_equiv_pos_site_id
_symmetry_equiv_pos_as_xyz
1 x,y,z
2 1/2-x,-y,1/2+z
3 -x,1/2+y,1/2-z
4 1/2+x,1/2-y,-z
_cell_length_a 6.9801(8)
_cell_length_b 14.7897(17)
_cell_length_c 18.475(2)
_cell_angle_alpha 90
_cell_angle_beta 90
_cell_angle_gamma 90
_cell_formula_units_Z 4
loop_
_atom_type_symbol
_atom_type_radius_bond
C 0.68
H 0.23
N 0.68
O 0.68
loop_
_atom_site_label
_atom_site_type_symbol
_atom_site_fract_x
_atom_site_fract_y
_atom_site_fract_z
C1 C 0.1747(5) 0.56674(18) 0.86370(14)
C2 C 0.3483(5) 0.5215(2) 0.86542(15)
H1 H 0.45360 0.54860 0.88730
C3 C 0.0232(5) 0.5251(2) 0.83131(17)
H2 H -0.09430 0.55470 0.82940
C4 C 0.2112(7) 0.3957(2) 0.80379(19)
H3 H 0.22080 0.33790 0.78430
C5 C 0.3675(6) 0.4353(2) 0.83461(17)
H4 H 0.48500 0.40570 0.83520
C6 C 0.0401(7) 0.4408(2) 0.80145(18)
H5 H -0.06530 0.41400 0.77940
C7 C 0.0870(4) 0.46992(16) 1.02011(13)
H6 H 0.12740 0.44540 0.97330
C8 C -0.0872(4) 0.52789(18) 1.00993(13)
C9 C 0.0120(4) 0.39256(15) 1.06843(14)
C10 C -0.1610(4) 0.43695(16) 1.10735(15)
C11 C -0.0889(4) 0.33130(18) 1.01341(16)
H7 H -0.12870 0.27490 1.03570
H8 H -0.00560 0.31800 0.97270
C12 C -0.2635(5) 0.3873(2) 0.98918(19)
H9 H -0.25550 0.40210 0.93810
H10 H -0.38190 0.35480 0.99810
C13 C 0.1614(4) 0.34648(19) 1.11446(16)
H11 H 0.10420 0.29660 1.13970
H12 H 0.21220 0.38890 1.14880
H13 H 0.26300 0.32470 1.08410
C14 C -0.2517(4) 0.47259(19) 1.03596(15)
H14 H -0.37250 0.50560 1.04180
C15 C -0.1083(5) 0.51155(19) 1.16070(16)
H15 H -0.05510 0.48510 1.20370
H16 H -0.22100 0.54540 1.17300
H17 H -0.01550 0.55110 1.13900
C16 C -0.2925(4) 0.3702(2) 1.14760(19)
H18 H -0.22220 0.34170 1.18600
H19 H -0.33740 0.32500 1.11440
H20 H -0.39990 0.40230 1.16750
O1 O 0.2417(3) 0.52213(11) 1.05124(9)
O2 O 0.4030(3) 0.64884(13) 1.04418(12)
C17 C 0.2620(5) 0.60759(18) 1.02656(15)
C18 C 0.1033(4) 0.64972(17) 0.98230(14)
H21 H 0.09400 0.71220 0.99960
N1 N -0.0872(3) 0.61083(15) 0.99421(12)
C19 C 0.1459(5) 0.65749(17) 0.90031(14)
H22 H 0.03130 0.68410 0.87830
C20 C 0.3037(6) 0.7233(2) 0.88806(16)
H23 H 0.42100 0.69910 0.90840
H24 H 0.27420 0.77900 0.91350
N2 N 0.3360(9) 0.7442(2) 0.8101(2)
O3 O 0.4966(7) 0.7467(3) 0.7907(2)
O4 O 0.1996(8) 0.7587(2) 0.77273(19)
#END
