
#######################################################################
#
#                 Cambridge Crystallographic Data Centre
#                                CCDC
#
#######################################################################
#
# If this CIF has been generated from an entry in the Cambridge
# Structural Database, then it will include bibliographic, chemical,
# crystal, experimental, refinement or atomic coordinate data resulting
# from the CCDC's data processing and validation procedures.
#
#######################################################################

data_CSD_CIF_FOPZUG
_audit_creation_date 2009-09-01
_audit_creation_method CSD-ConQuest-V1
_database_code_CSD FOPZUG
_database_code_depnum_ccdc_archive 'CCDC 247200'
_chemical_formula_sum 'C25 H30 N2 O3'
_chemical_formula_moiety
;
C25 H30 N2 O3
;
_journal_coden_Cambridge 456
_journal_volume 79
_journal_year 2005
_journal_page_first 65
_journal_name_full 'Pol.J.Chem. '
loop_
_publ_author_name
"P.Micuch"
"L.Fisera"
"M.K.Cyranski"
_chemical_name_systematic
;
syn,syn-bis(3-(2,4,6-Trimethylphenyl)izoxazoline-5-yl)methanol
;
_chemical_name_common
;
syn,syn-bis(3-Mesityl-4,5-dihydro-1,2-oxazol-5-yl)methanol
;
_chemical_melting_point 482.15
_cell_volume   2181.942
_exptl_crystal_density_diffrn 1.237
_exptl_special_details
;
Melting point range 482.15-485.15K
The deposited cif gives a diffraction temperature of 293 K
;
_diffrn_ambient_temperature 273
#These two values have been output from a single CSD field.
_refine_ls_R_factor_gt 0.0511
_refine_ls_wR_factor_gt 0.0511
_symmetry_cell_setting monoclinic
_symmetry_space_group_name_H-M 'P 21/c'
_symmetry_Int_Tables_number 14
loop_
_symmetry_equiv_pos_site_id
_symmetry_equiv_pos_as_xyz
1 x,y,z
2 -x,1/2+y,1/2-z
3 -x,-y,-z
4 x,-1/2-y,-1/2+z
_cell_length_a 9.6350(19)
_cell_length_b 13.866(3)
_cell_length_c 16.440(3)
_cell_angle_alpha 90
_cell_angle_beta 96.57(3)
_cell_angle_gamma 90
_cell_formula_units_Z 4
loop_
_atom_type_symbol
_atom_type_radius_bond
C 0.68
H 0.23
N 0.68
O 0.68
loop_
_atom_site_label
_atom_site_type_symbol
_atom_site_fract_x
_atom_site_fract_y
_atom_site_fract_z
C1 C 0.7019(2) 0.05603(16) 0.02816(12)
H1 H 0.61040 0.08500 0.01100
O1 O 0.68548(18) -0.01708(12) 0.08764(9)
H2 H 0.62670 0.00020 0.11700
C2 C 0.7520(2) 0.00722(16) -0.04378(12)
H3 H 0.83960 -0.02650 -0.02600
C3 C 0.7727(2) 0.07069(16) -0.11672(11)
H4 H 0.76860 0.13860 -0.10310
H5 H 0.86070 0.05710 -0.13780
C4 C 0.6507(2) 0.04113(15) -0.17604(12)
N1 N 0.58502(19) -0.03150(13) -0.15297(10)
O2 O 0.64758(16) -0.06275(10) -0.07584(8)
C5 C 0.6048(2) 0.08473(16) -0.25709(12)
C6 C 0.5152(2) 0.16407(16) -0.26258(12)
C7 C 0.4639(2) 0.19801(16) -0.33881(14)
H6 H 0.40280 0.25020 -0.34240
C8 C 0.4993(2) 0.15780(16) -0.40945(13)
C9 C 0.5928(2) 0.08103(18) -0.40204(12)
H7 H 0.61930 0.05350 -0.44950
C10 C 0.6478(2) 0.04392(15) -0.32742(12)
C11 C 0.4758(3) 0.21296(18) -0.18664(13)
H8 H 0.41240 0.26500 -0.20200
H9 H 0.55830 0.23780 -0.15540
H10 H 0.43150 0.16720 -0.15420
C12 C 0.4414(3) 0.1954(2) -0.49152(14)
H11 H 0.34880 0.17050 -0.50560
H12 H 0.50000 0.17530 -0.53180
H13 H 0.43810 0.26460 -0.48990
C13 C 0.7501(3) -0.03838(17) -0.32310(14)
H14 H 0.70400 -0.09680 -0.31000
H15 H 0.82610 -0.02540 -0.28150
H16 H 0.78540 -0.04550 -0.37510
C14 C 0.7993(2) 0.13392(17) 0.06560(12)
H17 H 0.80190 0.18660 0.02600
C15 C 0.7651(2) 0.17558(17) 0.14678(12)
H18 H 0.75890 0.24540 0.14480
H19 H 0.67870 0.14930 0.16240
C16 C 0.8883(2) 0.14277(16) 0.20310(12)
N2 N 0.98049(18) 0.09878(14) 0.16715(10)
O3 O 0.93750(15) 0.09380(12) 0.08250(8)
C17 C 0.9134(2) 0.15701(16) 0.29281(11)
C18 C 0.8486(2) 0.09591(17) 0.34420(13)
C19 C 0.8877(3) 0.10374(19) 0.42774(13)
H20 H 0.84710 0.06220 0.46260
C20 C 0.9831(3) 0.16951(19) 0.46138(13)
C21 C 1.0388(2) 0.23366(17) 0.40908(13)
H21 H 1.10040 0.28110 0.43090
C22 C 1.0047(2) 0.22865(16) 0.32502(13)
C23 C 0.7446(3) 0.02127(19) 0.31137(15)
H22 H 0.72650 -0.02180 0.35460
H23 H 0.78130 -0.01450 0.26870
H24 H 0.65920 0.05230 0.28980
C24 C 1.0295(3) 0.1710(2) 0.55154(13)
H25 H 0.95490 0.14870 0.58070
H26 H 1.05430 0.23570 0.56830
H27 H 1.10910 0.12960 0.56340
C25 C 1.0675(3) 0.30017(18) 0.27165(14)
H28 H 1.11780 0.34820 0.30520
H29 H 0.99460 0.33060 0.23590
H30 H 1.13030 0.26760 0.23950
#END
