
#######################################################################
#
#                 Cambridge Crystallographic Data Centre
#                                CCDC
#
#######################################################################
#
# If this CIF has been generated from an entry in the Cambridge
# Structural Database, then it will include bibliographic, chemical,
# crystal, experimental, refinement or atomic coordinate data resulting
# from the CCDC's data processing and validation procedures.
#
#######################################################################

data_CSD_CIF_FOQLEE
_audit_creation_date 2014-11-07
_audit_creation_method CSD-ConQuest-V1
_database_code_CSD FOQLEE
_database_code_depnum_ccdc_archive 'CCDC 1031959'
_chemical_formula_sum 'C21 H17 N7 O4'
_chemical_formula_moiety
;
C21 H17 N7 O4
;
_journal_coeditor_code "IUCr is5380"
_journal_coden_Cambridge 1370
_journal_volume 70
_journal_year 2014
_journal_page_first o1246
_journal_name_full 'Acta Crystallogr.,Sect.E:Struct.Rep.Online '
loop_
_publ_author_name
"J.T.Mague"
"S.K.Mohamed"
"M.Akkurt"
"H.M.S.El-Kashef"
"M.R.Albayati"
_chemical_name_systematic
;
4-[(1E)-[2-(2,4-Dinitrophenyl)hydrazin-1-ylidene]methyl]-3-methyl-1-phenyl-5-(
1H-pyrrol-1-yl)-1H-pyrazole
;
_cell_volume   1958.782
_exptl_crystal_colour 'red orange'
_exptl_crystal_density_diffrn 1.463
_exptl_crystal_description 'column'
_diffrn_ambient_temperature 150
#These two values have been output from a single CSD field.
_refine_ls_R_factor_gt 0.0333
_refine_ls_wR_factor_gt 0.0333
_symmetry_cell_setting monoclinic
_symmetry_space_group_name_H-M 'P 21/n'
_symmetry_Int_Tables_number 14
loop_
_symmetry_equiv_pos_site_id
_symmetry_equiv_pos_as_xyz
1 x,y,z
2 1/2-x,1/2+y,1/2-z
3 -x,-y,-z
4 -1/2+x,-1/2-y,-1/2+z
_cell_length_a 5.7955(1)
_cell_length_b 15.4472(4)
_cell_length_c 21.9289(5)
_cell_angle_alpha 90
_cell_angle_beta 93.831(1)
_cell_angle_gamma 90
_cell_formula_units_Z 4
loop_
_atom_type_symbol
_atom_type_radius_bond
C 0.68
H 0.23
N 0.68
O 0.68
loop_
_atom_site_label
_atom_site_type_symbol
_atom_site_fract_x
_atom_site_fract_y
_atom_site_fract_z
O1 O -0.33378(17) 0.99482(6) 0.45404(5)
O2 O -0.58503(18) 0.90272(7) 0.41597(5)
O3 O -0.49349(16) 0.60444(6) 0.45127(4)
O4 O -0.18232(15) 0.54965(6) 0.49537(4)
N1 N 0.97263(17) 0.60556(6) 0.70725(5)
N2 N 0.94167(18) 0.69340(6) 0.70316(5)
N3 N 0.80335(16) 0.47264(6) 0.66558(4)
N4 N 0.33730(17) 0.67100(7) 0.58210(5)
N5 N 0.14465(17) 0.64891(6) 0.54543(5)
H1 H 0.11130 0.59250 0.53500
N6 N -0.40360(19) 0.92045(7) 0.44522(5)
N7 N -0.30076(17) 0.61280(7) 0.47743(5)
C1 C 1.14907(19) 0.57328(8) 0.75003(5)
C2 C 1.3424(2) 0.62502(8) 0.76363(6)
H2 H 1.35690 0.67940 0.74400
C3 C 1.5137(2) 0.59637(8) 0.80620(6)
H3 H 1.64550 0.63150 0.81590
C4 C 1.4935(2) 0.51679(9) 0.83452(6)
H4 H 1.61190 0.49710 0.86320
C5 C 1.3000(2) 0.46609(9) 0.82076(6)
H5 H 1.28660 0.41150 0.84020
C6 C 1.1250(2) 0.49398(8) 0.77893(6)
H6 H 0.99120 0.45940 0.77020
C7 C 0.81077(19) 0.56305(8) 0.67051(5)
C8 C 0.6671(2) 0.62469(7) 0.64242(5)
C9 C 0.7576(2) 0.70498(8) 0.66482(5)
C10 C 0.6691(2) 0.79431(8) 0.65187(6)
H7 H 0.77260 0.83650 0.67290
H8 H 0.51360 0.80000 0.66640
H9 H 0.66300 0.80500 0.60770
C11 C 0.9756(2) 0.42083(8) 0.64524(6)
H10 H 1.11190 0.44040 0.62770
C12 C 0.9170(3) 0.33692(9) 0.65452(6)
H11 H 1.00420 0.28740 0.64450
C13 C 0.7022(2) 0.33657(9) 0.68190(6)
H12 H 0.61940 0.28680 0.69360
C14 C 0.6360(2) 0.42042(8) 0.68838(6)
H13 H 0.49880 0.43960 0.70560
C15 C 0.4654(2) 0.60777(8) 0.60170(5)
H14 H 0.42790 0.55020 0.58950
C16 C 0.0083(2) 0.71292(8) 0.52114(5)
C17 C 0.0773(2) 0.80070(8) 0.52864(6)
H15 H 0.21870 0.81360 0.55120
C18 C -0.0544(2) 0.86720(8) 0.50421(6)
H16 H -0.00380 0.92540 0.50960
C19 C -0.2638(2) 0.84940(8) 0.47125(6)
C20 C -0.3414(2) 0.76630(8) 0.46297(5)
H17 H -0.48470 0.75510 0.44080
C21 C -0.2072(2) 0.69842(7) 0.48756(5)
#END
