
#######################################################################
#
#                 Cambridge Crystallographic Data Centre
#                                CCDC
#
#######################################################################
#
# If this CIF has been generated from an entry in the Cambridge
# Structural Database, then it will include bibliographic, chemical,
# crystal, experimental, refinement or atomic coordinate data resulting
# from the CCDC's data processing and validation procedures.
#
#######################################################################

data_CSD_CIF_FORMIK
_audit_creation_date 2014-11-11
_audit_creation_method CSD-ConQuest-V1
_database_code_CSD FORMIK
_database_code_depnum_ccdc_archive 'CCDC 1025977'
_chemical_formula_sum 'C4 H4 N6 O4'
_chemical_formula_moiety
;
C4 H4 N6 O4
;
_journal_coden_Cambridge 1290
_journal_year 2014
_journal_page_first 5808
_journal_name_full 'Eur.J.Inorg.Chem. '
loop_
_publ_author_name
"D.Fischer"
"T.M.Klapotke"
"J.Stierstorfer"
_chemical_name_systematic
;
3,3'-Bi-1,2,5-oxadiazole-4,4'-diamine 5,5'-dioxide
;
_cell_volume    351.033
_exptl_crystal_colour 'colorless'
_exptl_crystal_density_diffrn 1.893
_exptl_crystal_description 'platelet'
_diffrn_ambient_temperature 173
#These two values have been output from a single CSD field.
_refine_ls_R_factor_gt 0.0369
_refine_ls_wR_factor_gt 0.0369
_symmetry_cell_setting monoclinic
_symmetry_space_group_name_H-M 'P 21/c'
_symmetry_Int_Tables_number 14
loop_
_symmetry_equiv_pos_site_id
_symmetry_equiv_pos_as_xyz
1 x,y,z
2 -x,1/2+y,1/2-z
3 -x,-y,-z
4 x,-1/2-y,-1/2+z
_cell_length_a 6.2325(15)
_cell_length_b 6.5343(10)
_cell_length_c 9.073(3)
_cell_angle_alpha 90
_cell_angle_beta 108.19(3)
_cell_angle_gamma 90
_cell_formula_units_Z 2
loop_
_atom_type_symbol
_atom_type_radius_bond
C 0.68
H 0.23
N 0.68
O 0.68
loop_
_atom_site_label
_atom_site_type_symbol
_atom_site_fract_x
_atom_site_fract_y
_atom_site_fract_z
O1 O 0.8024(2) -0.23713(18) 0.18725(14)
O2 O 0.5674(2) -0.00877(18) 0.26428(15)
N1 N 0.6995(2) -0.0383(2) 0.18484(17)
N2 N 0.9441(2) -0.2229(2) 0.09836(17)
N3 N 0.7070(3) 0.2816(2) 0.0730(2)
C1 C 0.7737(3) 0.0848(3) 0.09624(19)
C2 C 0.9299(3) -0.0337(3) 0.04598(19)
H1 H 0.608(3) 0.319(3) 0.121(2)
H2 H 0.719(4) 0.335(4) -0.006(3)
O1B O 1.1976(2) 0.23713(18) -0.18725(14)
O2B O 1.4326(2) 0.00877(18) -0.26428(15)
N1B N 1.3005(2) 0.0383(2) -0.18484(17)
N2B N 1.0559(2) 0.2229(2) -0.09836(17)
N3B N 1.2930(3) -0.2816(2) -0.0730(2)
C1B C 1.2263(3) -0.0848(3) -0.09624(19)
C2B C 1.0701(3) 0.0337(3) -0.04598(19)
H1B H 1.392(3) -0.319(3) -0.121(2)
H2B H 1.281(4) -0.335(4) 0.006(3)
#END
