
#######################################################################
#
#                 Cambridge Crystallographic Data Centre
#                                CCDC
#
#######################################################################
#
# If this CIF has been generated from an entry in the Cambridge
# Structural Database, then it will include bibliographic, chemical,
# crystal, experimental, refinement or atomic coordinate data resulting
# from the CCDC's data processing and validation procedures.
#
#######################################################################

data_CSD_CIF_FOSYES
_audit_creation_date 2009-09-01
_audit_creation_method CSD-ConQuest-V1
_database_code_CSD FOSYES
_database_code_depnum_ccdc_archive 'CCDC 704981'
_chemical_formula_sum 'C22 H23 N3 O2'
_chemical_formula_moiety
;
C22 H23 N3 O2
;
_journal_coden_Cambridge 36
_journal_volume 694
_journal_year 2009
_journal_page_first 1493
_journal_name_full 'J.Organomet.Chem. '
loop_
_publ_author_name
"Haibin Song"
"Li-Na Gu"
"Guofu Zi"
_chemical_name_systematic
;
N,N,6,6'-Tetramethyl-N'-(2-nitrophenyl)-2,2'-biphenyldiamine
;
_chemical_melting_point 417.15
_cell_volume   1946.661
_exptl_crystal_colour 'orange'
_exptl_crystal_density_diffrn 1.233
_exptl_special_details
;
Melting point range 417.15-419.15K

;
_exptl_crystal_description 'block'
_diffrn_ambient_temperature 113
#These two values have been output from a single CSD field.
_refine_ls_R_factor_gt 0.0374
_refine_ls_wR_factor_gt 0.0374
_symmetry_cell_setting orthorhombic
_symmetry_space_group_name_H-M 'P 21 21 21'
_symmetry_Int_Tables_number 19
loop_
_symmetry_equiv_pos_site_id
_symmetry_equiv_pos_as_xyz
1 x,y,z
2 1/2+x,1/2-y,-z
3 -x,1/2+y,1/2-z
4 1/2-x,-y,1/2+z
_cell_length_a 10.3867(8)
_cell_length_b 11.9217(10)
_cell_length_c 15.7208(13)
_cell_angle_alpha 90
_cell_angle_beta 90
_cell_angle_gamma 90
_cell_formula_units_Z 4
loop_
_atom_type_symbol
_atom_type_radius_bond
C 0.68
H 0.23
N 0.68
O 0.68
loop_
_atom_site_label
_atom_site_type_symbol
_atom_site_fract_x
_atom_site_fract_y
_atom_site_fract_z
O1 O 0.65141(11) -0.03741(10) 0.89472(8)
O2 O 0.77583(12) 0.00040(14) 0.78868(9)
N1 N 0.44682(14) -0.09335(12) 1.05604(10)
N2 N 0.40677(13) 0.01909(12) 0.88399(9)
N3 N 0.67449(13) 0.01472(13) 0.82796(9)
C1 C 0.33247(16) 0.08632(14) 1.04912(10)
C2 C 0.43215(17) 0.02017(16) 1.08389(10)
C3 C 0.51889(18) 0.06974(18) 1.14094(11)
H1 H 0.58560 0.02590 1.16550
C4 C 0.5079(2) 0.1818(2) 1.16161(12)
H2 H 0.56540 0.21360 1.20190
C5 C 0.4151(2) 0.24796(18) 1.12481(12)
H3 H 0.41070 0.32550 1.13840
C6 C 0.32689(19) 0.20163(14) 1.06740(11)
C7 C 0.2320(2) 0.27702(14) 1.02210(13)
H4 H 0.14600 0.26660 1.04660
H5 H 0.23000 0.25790 0.96150
H6 H 0.25840 0.35540 1.02890
C8 C 0.23638(15) 0.03743(12) 0.98888(10)
C9 C 0.27432(15) 0.00768(13) 0.90625(10)
C10 C 0.18729(16) -0.03604(14) 0.84814(11)
H7 H 0.21480 -0.05630 0.79260
C11 C 0.05953(17) -0.04994(14) 0.87189(12)
H8 H -0.00110 -0.07870 0.83220
C12 C 0.02060(16) -0.02193(14) 0.95322(12)
H9 H -0.06680 -0.03280 0.96900
C13 C 0.10677(16) 0.02201(13) 1.01289(11)
C14 C 0.05986(17) 0.04983(17) 1.10133(12)
H10 H 0.05730 0.13140 1.10860
H11 H 0.11850 0.01720 1.14340
H12 H -0.02670 0.01890 1.10950
C15 C 0.57265(19) -0.14414(19) 1.07228(14)
H13 H 0.64070 -0.09300 1.05330
H14 H 0.57940 -0.21510 1.04110
H15 H 0.58220 -0.15840 1.13340
C16 C 0.34558(19) -0.17039(16) 1.08433(14)
H16 H 0.35500 -0.18450 1.14540
H17 H 0.35290 -0.24130 1.05320
H18 H 0.26110 -0.13680 1.07330
C17 C 0.45149(16) 0.09001(14) 0.82316(10)
C18 C 0.58094(16) 0.09197(15) 0.79505(11)
C19 C 0.62316(19) 0.16670(16) 0.73209(13)
H19 H 0.71080 0.16580 0.71480
C20 C 0.5397(2) 0.24082(18) 0.69532(14)
H20 H 0.56840 0.29190 0.65300
C21 C 0.41065(19) 0.23968(16) 0.72156(14)
H21 H 0.35150 0.29030 0.69610
C22 C 0.36803(18) 0.16727(14) 0.78293(12)
H22 H 0.27990 0.16900 0.79900
H23 H 0.459(2) -0.0119(18) 0.9165(14)
#END
