
#######################################################################
#
#                 Cambridge Crystallographic Data Centre
#                                CCDC
#
#######################################################################
#
# If this CIF has been generated from an entry in the Cambridge
# Structural Database, then it will include bibliographic, chemical,
# crystal, experimental, refinement or atomic coordinate data resulting
# from the CCDC's data processing and validation procedures.
#
#######################################################################

data_CSD_CIF_FOVBOH
_audit_creation_date 1988-04-26
_audit_creation_method CSD-ConQuest-V1
_database_code_CSD FOVBOH
_database_code_depnum_ccdc_archive 'CCDC 1159664'
_chemical_formula_sum 'C22 H28 N6 O4'
_chemical_formula_moiety
;
C22 H28 N6 O4
;
_journal_coden_Cambridge 48
_journal_volume 120
_journal_year 1987
_journal_page_first 751
_journal_name_full 'Chem.Ber. '
loop_
_publ_author_name
"H.Gotthardt"
"T.Lohr"
"D.J.Brauer"
_chemical_name_systematic
;
N^1^,N^1^,N^3^,N^3^-Tetraethyl-N^2^,N^4^-bis(4-nitrophenyl)biformamidine
;
_chemical_melting_point 449.15
_cell_volume   4594.240
_exptl_crystal_colour 'yellow'
_exptl_crystal_density_diffrn 1.274
_exptl_special_details
;
Melting point range 449.15-450.15K

;
_diffrn_ambient_temperature ?
_diffrn_special_details
;
The study was carried out at room temperature,in the range 283-303K

;
#These two values have been output from a single CSD field.
_refine_ls_R_factor_gt 0.054
_refine_ls_wR_factor_gt 0.054
_symmetry_cell_setting orthorhombic
_symmetry_space_group_name_H-M 'P b c a'
_symmetry_Int_Tables_number 61
loop_
_symmetry_equiv_pos_site_id
_symmetry_equiv_pos_as_xyz
1 x,y,z
2 1/2-x,-y,1/2+z
3 1/2+x,1/2-y,-z
4 -x,1/2+y,1/2-z
5 -x,-y,-z
6 -1/2+x,y,-1/2-z
7 -1/2-x,-1/2+y,z
8 x,-1/2-y,-1/2+z
_cell_length_a 11.662(4)
_cell_length_b 25.150(7)
_cell_length_c 15.664(3)
_cell_angle_alpha 90
_cell_angle_beta 90
_cell_angle_gamma 90
_cell_formula_units_Z 8
loop_
_atom_type_symbol
_atom_type_radius_bond
C 0.68
H 0.23
N 0.68
O 0.68
loop_
_atom_site_label
_atom_site_type_symbol
_atom_site_fract_x
_atom_site_fract_y
_atom_site_fract_z
O1 O 0.2065(2) 0.83916(9) 0.7833(2)
O2 O 0.2919(2) 0.8880(1) 0.6918(2)
O3 O 0.4723(2) 0.42279(8) 0.9331(1)
O4 O 0.6147(2) 0.47603(8) 0.9552(1)
N1 N 0.5826(2) 0.68077(8) 0.6446(1)
N2 N 0.3782(2) 0.58482(8) 0.6369(1)
N3 N 0.6399(2) 0.60084(8) 0.5895(1)
N4 N 0.3824(2) 0.64369(9) 0.5256(1)
N5 N 0.2789(2) 0.8459(1) 0.7282(2)
N6 N 0.5300(2) 0.4619(1) 0.9148(1)
C1 C 0.5571(2) 0.6359(1) 0.6091(1)
C2 C 0.4342(2) 0.6191(1) 0.5915(2)
C3 C 0.6221(2) 0.5530(1) 0.5380(2)
C4 C 0.6510(3) 0.5019(1) 0.5834(2)
C5 C 0.7587(2) 0.6148(1) 0.6100(2)
C6 C 0.8109(3) 0.6528(1) 0.5474(2)
C7 C 0.4407(2) 0.6787(1) 0.4649(2)
C8 C 0.4935(3) 0.6502(2) 0.3912(2)
C9 C 0.2593(2) 0.6340(1) 0.5105(2)
C10 C 0.1842(2) 0.6701(1) 0.5621(2)
C11 C 0.5000(2) 0.7188(1) 0.6660(2)
C12 C 0.4059(2) 0.7108(1) 0.7187(2)
C13 C 0.3331(2) 0.7519(1) 0.7394(2)
C14 C 0.3537(2) 0.8015(1) 0.7066(2)
C15 C 0.4458(2) 0.8110(1) 0.6551(2)
C16 C 0.5191(2) 0.7701(1) 0.6364(2)
C17 C 0.4238(2) 0.5570(1) 0.7061(2)
C18 C 0.3776(2) 0.5064(1) 0.7195(2)
C19 C 0.4127(2) 0.4749(1) 0.7865(2)
C20 C 0.4947(2) 0.49402(9) 0.8414(2)
C21 C 0.5402(2) 0.5439(1) 0.8310(2)
C22 C 0.5063(2) 0.5751(1) 0.7643(2)
H1 H 0.5437(2) 0.5517(1) 0.5216(2)
H2 H 0.6689(2) 0.5555(1) 0.4885(2)
H3 H 0.6374(3) 0.4727(1) 0.5462(2)
H4 H 0.6043(3) 0.4984(1) 0.6328(2)
H5 H 0.7294(3) 0.5022(1) 0.5997(2)
H6 H 0.7603(2) 0.6306(1) 0.6651(2)
H7 H 0.8032(2) 0.5832(1) 0.6105(2)
H8 H 0.8875(3) 0.6604(1) 0.5638(2)
H9 H 0.7676(3) 0.6848(1) 0.5466(2)
H10 H 0.8105(3) 0.6373(1) 0.4920(2)
H11 H 0.3864(2) 0.7034(1) 0.4433(2)
H12 H 0.4995(2) 0.6973(1) 0.4944(2)
H13 H 0.5297(3) 0.6751(2) 0.3545(2)
H14 H 0.4356(3) 0.6316(2) 0.3606(2)
H15 H 0.5488(3) 0.6255(2) 0.4117(2)
H16 H 0.2434(2) 0.6395(1) 0.4516(2)
H17 H 0.2423(2) 0.5982(1) 0.5253(2)
H18 H 0.1060(2) 0.6625(1) 0.5503(2)
H19 H 0.2000(2) 0.7060(1) 0.5475(2)
H20 H 0.1989(2) 0.6648(1) 0.6211(2)
H21 H 0.3915(2) 0.6763(1) 0.7410(2)
H22 H 0.2694(2) 0.7460(1) 0.7760(2)
H23 H 0.4589(2) 0.8455(1) 0.6325(2)
H24 H 0.5848(2) 0.7770(1) 0.6023(2)
H25 H 0.3206(2) 0.4935(1) 0.6815(2)
H26 H 0.3808(2) 0.4405(1) 0.7946(2)
H27 H 0.5987(2) 0.5564(1) 0.8696(2)
H28 H 0.5380(2) 0.6097(1) 0.7575(2)
#END
