
#######################################################################
#
#                 Cambridge Crystallographic Data Centre
#                                CCDC
#
#######################################################################
#
# If this CIF has been generated from an entry in the Cambridge
# Structural Database, then it will include bibliographic, chemical,
# crystal, experimental, refinement or atomic coordinate data resulting
# from the CCDC's data processing and validation procedures.
#
#######################################################################

data_CSD_CIF_FOVNOT
_audit_creation_date 1988-04-26
_audit_creation_method CSD-ConQuest-V1
_database_code_CSD FOVNOT
_database_code_depnum_ccdc_archive 'CCDC 1159713'
_chemical_formula_sum 'C16 H14 N4 O4'
_chemical_formula_moiety
;
C16 H14 N4 O4
;
_journal_coden_Cambridge 643
_journal_volume 171
_journal_year 1985
_journal_page_first 17
_journal_name_full 'Z.Krist.Cryst.Mater. '
loop_
_publ_author_name
"A.Whitaker"
_chemical_name_systematic
;
\a-(2-Nitrobenzenehydrazono)-\a-acetylacetanilide
;
_chemical_name_common
;
C.I.Pigment Yellow 5
;
_cell_volume   1520.578
_exptl_crystal_colour 'yellow'
_exptl_crystal_density_diffrn 1.426
_exptl_special_details
;
alpha polymorph
Isomorphous with Hansa Yellow 5G and C.I.Pigment Yellow 1

;
_diffrn_ambient_temperature ?
_diffrn_special_details
;
The study was carried out at room temperature,in the range 283-303K

;
#These two values have been output from a single CSD field.
_refine_ls_R_factor_gt 0.066
_refine_ls_wR_factor_gt 0.066
_symmetry_cell_setting monoclinic
_symmetry_space_group_name_H-M 'P 21/n'
_symmetry_Int_Tables_number 14
loop_
_symmetry_equiv_pos_site_id
_symmetry_equiv_pos_as_xyz
1 x,y,z
2 1/2-x,1/2+y,1/2-z
3 -x,-y,-z
4 -1/2+x,-1/2-y,-1/2+z
_cell_length_a 7.593(1)
_cell_length_b 20.029(4)
_cell_length_c 10.217(2)
_cell_angle_alpha 90
_cell_angle_beta 101.87(2)
_cell_angle_gamma 90
_cell_formula_units_Z 4
loop_
_atom_type_symbol
_atom_type_radius_bond
C 0.68
H 0.24
N 0.68
O 0.68
loop_
_atom_site_label
_atom_site_type_symbol
_atom_site_fract_x
_atom_site_fract_y
_atom_site_fract_z
C1 C -0.0050(3) 0.4559(1) 0.7083(2)
N1 N -0.0621(3) 0.5257(1) 0.6984(2)
O1 O 0.0101(4) 0.5647(1) 0.7841(2)
O2 O -0.1824(4) 0.5427(1) 0.6082(3)
C2 C -0.0813(4) 0.4151(2) 0.6002(3)
H1 H -0.17290 0.43500 0.51830
C3 C -0.0352(5) 0.3493(2) 0.6026(3)
H2 H -0.09100 0.31810 0.52220
C4 C 0.0847(4) 0.3239(2) 0.7106(3)
H3 H 0.12110 0.27330 0.71090
C5 C 0.1574(4) 0.3632(1) 0.8175(3)
H4 H 0.24570 0.34210 0.89980
C6 C 0.1151(3) 0.4316(1) 0.8184(2)
N2 N 0.1942(3) 0.4709(1) 0.9271(2)
H5 H 0.16210 0.52180 0.93050
N3 N 0.3102(3) 0.4430(1) 1.0258(2)
C7 C 0.3928(3) 0.4783(1) 1.1291(2)
C8 C 0.5176(4) 0.4381(1) 1.2284(2)
C9 C 0.5376(5) 0.3657(2) 1.2025(3)
H6 H 0.4486(45) 0.3429(17) 1.2158(32)
H7 H 0.6258(44) 0.3567(16) 1.2652(34)
H8 H 0.5841(40) 0.3418(14) 1.0950(29)
O3 O 0.6049(3) 0.4635(1) 1.3308(2)
C10 C 0.3631(3) 0.5518(1) 1.1418(2)
O4 O 0.2615(3) 0.5822(1) 1.0530(2)
N4 N 0.4553(3) 0.5800(1) 1.2548(2)
H9 H 0.53550 0.54770 1.32320
C11 C 0.4570(3) 0.6487(1) 1.2928(2)
C12 C 0.5181(4) 0.6619(1) 1.4278(3)
H10 H 0.55510 0.62240 1.49540
C13 C 0.5302(4) 0.7272(1) 1.4734(3)
H11 H 0.57370 0.73700 1.57590
C14 C 0.4851(4) 0.7797(1) 1.3843(3)
H12 H 0.49490 0.82930 1.41820
C15 C 0.4267(4) 0.7654(1) 1.2494(3)
H13 H 0.39420 0.80480 1.18100
C16 C 0.4105(4) 0.7004(1) 1.2033(3)
H14 H 0.36320 0.69050 1.10120
#END
