
#######################################################################
#
#                 Cambridge Crystallographic Data Centre
#                                CCDC
#
#######################################################################
#
# If this CIF has been generated from an entry in the Cambridge
# Structural Database, then it will include bibliographic, chemical,
# crystal, experimental, refinement or atomic coordinate data resulting
# from the CCDC's data processing and validation procedures.
#
#######################################################################

data_CSD_CIF_FOVTIT
_audit_creation_date 1988-05-06
_audit_creation_method CSD-ConQuest-V1
_database_code_CSD FOVTIT
_database_code_depnum_ccdc_archive 'CCDC 1159733'
_chemical_formula_sum 'C34 H25 N3 O6'
_chemical_formula_moiety
;
C34 H25 N3 O6
;
_journal_coden_Cambridge 35
_journal_volume 52
_journal_year 1987
_journal_page_first 4781
_journal_name_full 'J.Org.Chem. '
loop_
_publ_author_name
"A.P.Marchand"
"G.S.Annapurna"
"V.Vidyasagar"
"J.L.Flippen-Andersen"
"R.Gilardi"
"C.George"
"H.L.Ammon"
_chemical_name_systematic
;
2,3,4,8-Tetraphenyl-6,6,anti-10-trinitropentacyclo(5.3.1.0^2,5^.0^3,9^.0^4,8^)
decane
;
_chemical_melting_point 521.15
_cell_volume   2761.056
_exptl_crystal_colour 'colorless'
_exptl_crystal_density_diffrn 1.37
_diffrn_ambient_temperature ?
_diffrn_special_details
;
The study was carried out at room temperature,in the range 283-303K

;
#These two values have been output from a single CSD field.
_refine_ls_R_factor_gt 0.052
_refine_ls_wR_factor_gt 0.052
_symmetry_cell_setting monoclinic
_symmetry_space_group_name_H-M 'P 21/c'
_symmetry_Int_Tables_number 14
loop_
_symmetry_equiv_pos_site_id
_symmetry_equiv_pos_as_xyz
1 x,y,z
2 -x,1/2+y,1/2-z
3 -x,-y,-z
4 x,-1/2-y,-1/2+z
_cell_length_a 10.869(4)
_cell_length_b 15.667(8)
_cell_length_c 17.084(8)
_cell_angle_alpha 90
_cell_angle_beta 108.36
_cell_angle_gamma 90
_cell_formula_units_Z 4
loop_
_atom_type_symbol
_atom_type_radius_bond
C 0.68
H 0.23
N 0.68
O 0.68
loop_
_atom_site_label
_atom_site_type_symbol
_atom_site_fract_x
_atom_site_fract_y
_atom_site_fract_z
N1 N 0.1204(2) 0.0575(1) 0.1082(1)
O1 O 0.1427(2) 0.0484(1) 0.0433(1)
O2 O 0.1968(2) 0.0386(1) 0.1749(1)
N2 N -0.0274(2) 0.1727(1) 0.3526(1)
O3 O 0.0321(2) 0.1941(1) 0.4218(1)
O4 O -0.0976(2) 0.1114(2) 0.3348(1)
N3 N 0.0570(2) 0.3054(1) 0.3253(1)
O5 O 0.1752(2) 0.3046(1) 0.3501(1)
O6 O -0.0107(2) 0.3649(1) 0.3330(1)
C1 C -0.0316(2) 0.1101(1) 0.1858(1)
C2 C -0.1651(2) 0.1590(1) 0.1599(1)
C3 C -0.1561(2) 0.2139(1) 0.0820(1)
C4 C -0.0992(2) 0.2882(1) 0.1451(1)
C5 C -0.1373(2) 0.2423(1) 0.2140(1)
C6 C -0.0110(2) 0.2263(1) 0.2815(1)
C7 C 0.0600(2) 0.1830(1) 0.2286(1)
C8 C 0.0407(2) 0.2476(1) 0.1539(1)
C9 C -0.0219(2) 0.1900(1) 0.0767(1)
C10 C -0.0067(2) 0.0975(2) 0.1040(1)
C11 C -0.2852(2) 0.1073(1) 0.1512(1)
C12 C -0.3832(2) 0.1367(2) 0.1789(2)
C13 C -0.4967(2) 0.0902(2) 0.1665(2)
C14 C -0.5130(3) 0.0146(2) 0.1266(2)
C15 C -0.4158(3) -0.0171(2) 0.0999(2)
C16 C -0.3028(3) 0.0290(2) 0.1121(2)
C17 C -0.2703(2) 0.2224(1) 0.0057(1)
C18 C -0.2694(2) 0.1872(2) -0.0686(1)
C19 C -0.3747(3) 0.1952(2) -0.1389(2)
C20 C -0.4832(3) 0.2382(2) -0.1365(2)
C21 C -0.4866(3) 0.2736(2) -0.0640(2)
C22 C -0.3811(2) 0.2660(2) 0.0068(2)
C23 C -0.1363(2) 0.3786(1) 0.1204(1)
C24 C -0.2053(2) 0.4280(2) 0.1599(2)
C25 C -0.2535(3) 0.5074(2) 0.1286(2)
C26 C -0.2319(3) 0.5383(2) 0.0589(2)
C27 C -0.1617(3) 0.4909(2) 0.0204(2)
C28 C -0.1148(2) 0.4119(2) 0.0505(1)
C29 C 0.1572(2) 0.3010(2) 0.1552(1)
C30 C 0.2485(2) 0.2667(2) 0.1225(1)
C31 C 0.3590(2) 0.3125(2) 0.1249(2)
C32 C 0.3794(2) 0.3921(2) 0.1584(2)
C33 C 0.2890(2) 0.4277(2) 0.1898(2)
C34 C 0.1791(2) 0.3823(2) 0.1885(1)
H1 H -0.02510 0.05850 0.21720
H2 H -0.19940 0.26560 0.23750
H3 H 0.14760 0.16690 0.25820
H4 H 0.00370 0.19600 0.02810
H5 H -0.06220 0.05690 0.06730
H6 H -0.37310 0.19040 0.20720
H7 H -0.56380 0.11190 0.18660
H8 H -0.59230 -0.01670 0.11690
H9 H -0.42610 -0.07150 0.07270
H10 H -0.23540 0.00610 0.09310
H11 H -0.19400 0.15690 -0.07120
H12 H -0.37210 0.17040 -0.18970
H13 H -0.55640 0.24360 -0.18550
H14 H -0.56250 0.30370 -0.06210
H15 H -0.38450 0.29120 0.05730
H16 H -0.21970 0.40710 0.20910
H17 H -0.30200 0.54070 0.15580
H18 H -0.26590 0.59300 0.03720
H19 H -0.14520 0.51300 -0.02770
H20 H -0.06640 0.37920 0.02270
H21 H 0.23490 0.21100 0.09800
H22 H 0.42180 0.28770 0.10270
H23 H 0.45620 0.42320 0.16000
H24 H 0.30230 0.48410 0.21290
H25 H 0.11700 0.40750 0.21090
#END
