
#######################################################################
#
#                 Cambridge Crystallographic Data Centre
#                                CCDC
#
#######################################################################
#
# If this CIF has been generated from an entry in the Cambridge
# Structural Database, then it will include bibliographic, chemical,
# crystal, experimental, refinement or atomic coordinate data resulting
# from the CCDC's data processing and validation procedures.
#
#######################################################################

data_CSD_CIF_FOVVAO
_audit_creation_date 2009-09-01
_audit_creation_method CSD-ConQuest-V1
_database_code_CSD FOVVAO
_database_code_depnum_ccdc_archive 'CCDC 741706'
_chemical_formula_sum 'C10 H9 N1 O5'
_chemical_formula_moiety
;
C10 H9 N1 O5
;
_journal_coeditor_code "IUCr RZ2336"
_journal_coden_Cambridge 1370
_journal_volume 65
_journal_year 2009
_journal_page_first o1718
_journal_name_full 'Acta Crystallogr.,Sect.E:Struct.Rep.Online '
loop_
_publ_author_name
"V.B.N.Ferreira"
"H.D.Fiedler"
"F.Nome"
"A.J.Bortoluzzi"
_chemical_name_systematic
;
2-(Allyloxy)-5-nitrobenzoic acid
;
_chemical_melting_point 393.15
_cell_volume   1026.245
_exptl_crystal_colour 'yellow'
_exptl_crystal_density_diffrn 1.445
_exptl_special_details
;
Melting point range 393.15-394.15K

;
_exptl_crystal_description 'prismatic'
_exptl_crystal_preparation 'water/acetone'
_diffrn_ambient_temperature 293
#These two values have been output from a single CSD field.
_refine_ls_R_factor_gt 0.0463
_refine_ls_wR_factor_gt 0.0463
_symmetry_cell_setting monoclinic
_symmetry_space_group_name_H-M 'P 21/n'
_symmetry_Int_Tables_number 14
loop_
_symmetry_equiv_pos_site_id
_symmetry_equiv_pos_as_xyz
1 x,y,z
2 1/2-x,1/2+y,1/2-z
3 -x,-y,-z
4 -1/2+x,-1/2-y,-1/2+z
_cell_length_a 3.9438(6)
_cell_length_b 9.0409(7)
_cell_length_c 28.804(4)
_cell_angle_alpha 90
_cell_angle_beta 92.227(11)
_cell_angle_gamma 90
_cell_formula_units_Z 4
loop_
_atom_type_symbol
_atom_type_radius_bond
C 0.68
H 0.23
N 0.68
O 0.68
loop_
_atom_site_label
_atom_site_type_symbol
_atom_site_fract_x
_atom_site_fract_y
_atom_site_fract_z
C1 C 0.8059(5) 0.2710(2) 0.13044(7)
C2 C 0.7710(5) 0.4115(2) 0.10955(7)
C3 C 0.6348(5) 0.5267(2) 0.13471(7)
H1 H 0.61120 0.62000 0.12130
C4 C 0.5345(5) 0.5033(2) 0.17938(7)
C5 C 0.5636(5) 0.3662(3) 0.20024(7)
H2 H 0.49270 0.35200 0.23030
C6 C 0.6985(5) 0.2510(3) 0.17597(7)
H3 H 0.71910 0.15840 0.18990
O1 O 0.9422(4) 0.16211(16) 0.10571(5)
C7 C 0.9673(6) 0.0159(2) 0.12522(8)
H4 H 0.74460 -0.01860 0.13340
H5 H 1.11330 0.01720 0.15310
C8 C 1.1101(6) -0.0839(3) 0.0902(1)
H6 H 1.11400 -0.18420 0.09740
C9 C 1.2299(8) -0.0467(4) 0.05078(11)
H7 H 1.23210 0.05220 0.04190
H8 H 1.31400 -0.11870 0.03130
C10 C 0.8708(6) 0.4455(2) 0.06121(7)
O2 O 1.0274(6) 0.3526(2) 0.03810(6)
O3 O 0.7886(6) 0.5704(2) 0.04562(6)
H9 H 0.83220 0.59630 0.01240
N1 N 0.3876(6) 0.6249(3) 0.20513(7)
O4 O 0.2631(6) 0.5975(2) 0.24230(6)
O5 O 0.3925(7) 0.7490(3) 0.18876(7)
#END
