
#######################################################################
#
#                 Cambridge Crystallographic Data Centre
#                                CCDC
#
#######################################################################
#
# If this CIF has been generated from an entry in the Cambridge
# Structural Database, then it will include bibliographic, chemical,
# crystal, experimental, refinement or atomic coordinate data resulting
# from the CCDC's data processing and validation procedures.
#
#######################################################################

data_CSD_CIF_FOVXIY
_audit_creation_date 2009-09-01
_audit_creation_method CSD-ConQuest-V1
_database_code_CSD FOVXIY
_database_code_depnum_ccdc_archive 'CCDC 712175'
_chemical_formula_sum 'C27 H26 N2 O4'
_chemical_formula_moiety
;
C27 H26 N2 O4
;
_journal_coeditor_code "IUCr HG2527"
_journal_coden_Cambridge 1370
_journal_volume 65
_journal_year 2009
_journal_page_first o1657
_journal_name_full 'Acta Crystallogr.,Sect.E:Struct.Rep.Online '
loop_
_publ_author_name
"Wen-Kui Dong"
"Jian-Chao Wu"
"Yin-Xia Sun"
"Li Li"
"Jian Yao"
_chemical_name_systematic
;
2,2'-(4,8-Dioxa-3,9-diazaundeca-2,9-diene-2,10-diyl)bis(1-naphthol)
;
_chemical_melting_point 439
_cell_volume   1119.419
_exptl_crystal_colour 'colorless'
_exptl_crystal_density_diffrn 1.313
_exptl_special_details
;
Melting point range 439-441K

;
_exptl_crystal_description 'block'
_exptl_crystal_preparation 'ethyl acetate'
_diffrn_ambient_temperature 298
#These two values have been output from a single CSD field.
_refine_ls_R_factor_gt 0.047
_refine_ls_wR_factor_gt 0.047
_symmetry_cell_setting triclinic
_symmetry_space_group_name_H-M 'P -1'
_symmetry_Int_Tables_number 2
loop_
_symmetry_equiv_pos_site_id
_symmetry_equiv_pos_as_xyz
1 x,y,z
2 -x,-y,-z
_cell_length_a 7.4411(10)
_cell_length_b 8.8911(16)
_cell_length_c 18.106(2)
_cell_angle_alpha 100.645(1)
_cell_angle_beta 94.331(1)
_cell_angle_gamma 106.329(2)
_cell_formula_units_Z 2
loop_
_atom_type_symbol
_atom_type_radius_bond
C 0.68
H 0.23
N 0.68
O 0.68
loop_
_atom_site_label
_atom_site_type_symbol
_atom_site_fract_x
_atom_site_fract_y
_atom_site_fract_z
N1 N 0.4304(3) 0.3291(2) 0.39356(10)
N2 N 0.5352(3) 0.4359(2) 0.09736(10)
O1 O 0.3227(2) 0.35088(19) 0.33130(9)
O2 O 0.6102(2) 0.55995(19) 0.16190(9)
O3 O 0.7381(2) 0.38979(19) 0.48069(9)
H1 H 0.66930 0.39900 0.44530
O4 O 0.2690(2) 0.2606(2) -0.00541(9)
H2 H 0.31760 0.32920 0.03320
C1 C 0.4460(3) 0.4646(3) 0.29743(12)
H3 H 0.55040 0.42640 0.28220
H4 H 0.49710 0.56630 0.33360
C2 C 0.3361(3) 0.4864(3) 0.22958(12)
H5 H 0.23000 0.52160 0.24510
H6 H 0.28640 0.38430 0.19360
C3 C 0.4578(4) 0.6083(3) 0.19140(13)
H7 H 0.37950 0.62530 0.15030
H8 H 0.50880 0.70970 0.22780
C4 C 0.1200(3) 0.1930(3) 0.42415(14)
H9 H 0.07460 0.24440 0.38780
H10 H 0.07180 0.21840 0.47100
H11 H 0.07790 0.07890 0.40520
C5 C 0.3322(3) 0.2511(2) 0.43736(12)
C6 C 0.6336(3) 0.2932(2) 0.52118(12)
C7 C 0.4391(3) 0.2236(2) 0.50250(11)
C8 C 0.3456(3) 0.1201(3) 0.54803(13)
H12 H 0.21560 0.07250 0.53660
C9 C 0.4393(4) 0.0885(3) 0.60760(13)
H13 H 0.37300 0.01890 0.63560
C10 C 0.6365(3) 0.1598(3) 0.62776(12)
C11 C 0.7339(3) 0.2654(2) 0.58449(12)
C12 C 0.9311(3) 0.3417(3) 0.60585(14)
H14 H 0.99720 0.41180 0.57810
C13 C 1.0230(4) 0.3126(3) 0.66666(16)
H15 H 1.15200 0.36360 0.68030
C14 C 0.9279(4) 0.2076(3) 0.70901(16)
H16 H 0.99330 0.18880 0.75040
C15 C 0.7397(4) 0.1326(3) 0.69001(14)
H17 H 0.67770 0.06210 0.71850
C16 C 0.8658(4) 0.4430(3) 0.09754(15)
H18 H 0.88290 0.51870 0.14470
H19 H 0.93500 0.49520 0.06200
H20 H 0.91120 0.35570 0.10580
C17 C 0.6600(3) 0.3798(3) 0.06659(12)
C18 C 0.4008(3) 0.1992(3) -0.03454(12)
C19 C 0.5894(3) 0.2506(3) -0.00192(12)
C20 C 0.7126(3) 0.1727(3) -0.03704(14)
H21 H 0.83900 0.20470 -0.01610
C21 C 0.6529(3) 0.0533(3) -0.10000(14)
H22 H 0.73820 0.00440 -0.12090
C22 C 0.4635(3) 0.0022(3) -0.13423(13)
C23 C 0.3358(3) 0.0756(3) -0.10137(12)
C24 C 0.1464(4) 0.0254(3) -0.13600(14)
H23 H 0.06120 0.07390 -0.11470
C25 C 0.0862(4) -0.0921(3) -0.19974(16)
H24 H -0.03930 -0.12370 -0.22170
C26 C 0.2131(4) -0.1659(3) -0.23247(15)
H25 H 0.17150 -0.24670 -0.27610
C27 C 0.3962(4) -0.1200(3) -0.20072(14)
H26 H 0.47920 -0.16970 -0.22310
#END
