
#######################################################################
#
#                 Cambridge Crystallographic Data Centre
#                                CCDC
#
#######################################################################
#
# If this CIF has been generated from an entry in the Cambridge
# Structural Database, then it will include bibliographic, chemical,
# crystal, experimental, refinement or atomic coordinate data resulting
# from the CCDC's data processing and validation procedures.
#
#######################################################################

data_CSD_CIF_FOVYOE11
_audit_creation_date 1989-10-10
_audit_creation_method CSD-ConQuest-V1
_database_code_CSD FOVYOE11
_chemical_formula_sum 'C13 H11 N3 O3'
_chemical_formula_moiety
;
C13 H11 N3 O3
;
_journal_coeditor_code "IUCr AN0136"
_journal_coden_Cambridge 591
_journal_volume 44
_journal_year 1988
_journal_page_first 1039
_journal_name_full 'Acta Crystallogr.,Sect.C:Cryst.Struct.Commun. '
loop_
_publ_author_name
"I.Moustakali-Mavridis"
"E.Hadjoudis"
_chemical_name_systematic
;
2-Methoxy-N-(4-nitrobenzylidene)-5-pyridylamine
;
_cell_volume    607.863
_exptl_crystal_density_diffrn 1.4
_exptl_special_details
;
monoclinic P21 polymorph

;
_diffrn_ambient_temperature ?
_diffrn_special_details
;
The study was carried out at room temperature,in the range 283-303K

;
#These two values have been output from a single CSD field.
_refine_ls_R_factor_gt 0.0493
_refine_ls_wR_factor_gt 0.0493
_symmetry_cell_setting monoclinic
_symmetry_space_group_name_H-M 'P 21'
_symmetry_Int_Tables_number 4
loop_
_symmetry_equiv_pos_site_id
_symmetry_equiv_pos_as_xyz
1 x,y,z
2 -x,1/2+y,-z
_cell_length_a 3.8566(5)
_cell_length_b 19.542(4)
_cell_length_c 8.066(1)
_cell_angle_alpha 90
_cell_angle_beta 89.37(1)
_cell_angle_gamma 90
_cell_formula_units_Z 2
loop_
_atom_type_symbol
_atom_type_radius_bond
C 0.68
H 0.23
N 0.68
O 0.68
loop_
_atom_site_label
_atom_site_type_symbol
_atom_site_fract_x
_atom_site_fract_y
_atom_site_fract_z
C1 C 0.3854(5) -0.44240 0.3166(3)
C2 C 0.5306(6) -0.3773(2) 0.3008(3)
C3 C 0.6406(6) -0.3415(2) 0.4390(3)
C4 C 0.6003(6) -0.3720(2) 0.5918(3)
C5 C 0.4482(6) -0.4361(2) 0.6125(3)
C6 C 0.3387(6) -0.4709(2) 0.4745(3)
C7 C 0.2884(6) -0.4807(2) 0.1666(3)
C8 C 0.0875(6) -0.5780(2) 0.0330(3)
C9 C -0.0510(6) -0.5494(2) -0.1079(3)
C10 C -0.0883(5) -0.6519(2) -0.2393(3)
C11 C 0.0434(6) -0.6867(2) -0.1024(4)
C12 C 0.1309(6) -0.6495(2) 0.0347(3)
C13 C -0.3133(6) -0.6563(2) -0.5126(3)
N1 N 0.1752(5) -0.5421(2) 0.1777(3)
N2 N -0.1407(5) -0.5849(2) -0.2423(3)
N3 N 0.7263(6) -0.3371(2) 0.7393(3)
O1 O -0.1704(5) -0.6907(2) -0.3720(3)
O2 O 0.6915(7) -0.3650(2) 0.8733(3)
O3 O 0.8795(7) -0.2831(2) 0.7206(3)
H1 H 0.5169(9) -0.3567(8) 0.2000(9)
H2 H 0.7565(9) -0.3067(8) 0.4329(9)
H3 H 0.4381(9) -0.4570(8) 0.7203(9)
H4 H 0.2176(9) -0.5154(8) 0.4807(9)
H5 H 0.3185(9) -0.4603(8) 0.0581(9)
H6 H -0.0265(9) -0.5002(8) -0.1342(9)
H7 H 0.1086(9) -0.7297(8) -0.1072(9)
H8 H 0.3046(9) -0.6723(8) 0.1046(9)
H9 H -0.5480(9) -0.6323(8) -0.4638(9)
H10 H -0.1794(9) -0.6271(8) -0.5652(9)
H11 H -0.3506(9) -0.6870(8) -0.5990(9)
#END
