
#######################################################################
#
#                 Cambridge Crystallographic Data Centre
#                                CCDC
#
#######################################################################
#
# If this CIF has been generated from an entry in the Cambridge
# Structural Database, then it will include bibliographic, chemical,
# crystal, experimental, refinement or atomic coordinate data resulting
# from the CCDC's data processing and validation procedures.
#
#######################################################################

data_CSD_CIF_FOVZIA
_audit_creation_date 2009-09-01
_audit_creation_method CSD-ConQuest-V1
_database_code_CSD FOVZIA
_database_code_depnum_ccdc_archive 'CCDC 689315'
_chemical_formula_sum 'C8 H7 N1 O5'
_chemical_formula_moiety
;
C8 H7 N1 O5
;
_journal_coeditor_code "IUCr XU2532"
_journal_coden_Cambridge 1370
_journal_volume 65
_journal_year 2009
_journal_page_first o1716
_journal_name_full 'Acta Crystallogr.,Sect.E:Struct.Rep.Online '
loop_
_publ_author_name
"Yan-Zhu Liu"
"Yong-Xiu Li"
"Ling Zhang"
"Xia Li"
_chemical_name_systematic
;
Methyl 2-hydroxy-3-nitrobenzoate
;
_cell_volume    842.853
_exptl_crystal_colour 'yellow'
_exptl_crystal_density_diffrn 1.554
_exptl_crystal_description 'block'
_exptl_crystal_preparation 'ethyl acetate'
_diffrn_ambient_temperature 291
#These two values have been output from a single CSD field.
_refine_ls_R_factor_gt 0.0549
_refine_ls_wR_factor_gt 0.0549
_symmetry_cell_setting monoclinic
_symmetry_space_group_name_H-M 'P 21/c'
_symmetry_Int_Tables_number 14
loop_
_symmetry_equiv_pos_site_id
_symmetry_equiv_pos_as_xyz
1 x,y,z
2 -x,1/2+y,1/2-z
3 -x,-y,-z
4 x,-1/2-y,-1/2+z
_cell_length_a 7.612(1)
_cell_length_b 11.716(2)
_cell_length_c 9.656(2)
_cell_angle_alpha 90
_cell_angle_beta 101.83(1)
_cell_angle_gamma 90
_cell_formula_units_Z 4
loop_
_atom_type_symbol
_atom_type_radius_bond
C 0.68
H 0.23
N 0.68
O 0.68
loop_
_atom_site_label
_atom_site_type_symbol
_atom_site_fract_x
_atom_site_fract_y
_atom_site_fract_z
C1 C 0.6545(3) 0.9162(2) -0.0890(2)
C2 C 0.6080(3) 0.8030(2) -0.1125(3)
H1 H 0.52480 0.78220 -0.19310
C3 C 0.6836(4) 0.7212(2) -0.0176(3)
H2 H 0.65230 0.64480 -0.03370
C4 C 0.8059(3) 0.7525(2) 0.1011(3)
H3 H 0.85770 0.69660 0.16490
C5 C 0.8541(3) 0.8654(2) 0.1281(2)
C6 C 0.7769(3) 0.9507(2) 0.0320(2)
C7 C 0.9867(3) 0.8997(2) 0.2543(3)
C8 C 1.1859(4) 0.8424(2) 0.4632(3)
H4 H 1.28560 0.88190 0.43840
H5 H 1.22770 0.77400 0.51400
H6 H 1.12970 0.89070 0.52170
N1 N 0.5694(4) 0.9981(2) -0.1954(3)
O1 O 0.6026(3) 1.09798(19) -0.1803(2)
O2 O 0.4677(4) 0.96270(19) -0.2983(2)
O3 O 0.8187(3) 1.06068(13) 0.05425(19)
H7 H 0.90730 1.06760 0.14020
O4 O 1.0286(3) 0.99828(15) 0.2831(2)
O5 O 1.0566(2) 0.81316(14) 0.33514(18)
#END
