
#######################################################################
#
#                 Cambridge Crystallographic Data Centre
#                                CCDC
#
#######################################################################
#
# If this CIF has been generated from an entry in the Cambridge
# Structural Database, then it will include bibliographic, chemical,
# crystal, experimental, refinement or atomic coordinate data resulting
# from the CCDC's data processing and validation procedures.
#
#######################################################################

data_CSD_CIF_FOVZIZ
_audit_creation_date 1988-05-06
_audit_creation_method CSD-ConQuest-V1
_database_code_CSD FOVZIZ
_database_code_depnum_ccdc_archive 'CCDC 1159763'
_chemical_formula_sum 'C21 H11 N1 O3'
_chemical_formula_moiety
;
C21 H11 N1 O3
;
_journal_coeditor_code "IUCr A27435"
_journal_coden_Cambridge 591
_journal_volume 43
_journal_year 1987
_journal_page_first 1840
_journal_name_full 'Acta Crystallogr.,Sect.C:Cryst.Struct.Commun. '
loop_
_publ_author_name
"S.Fujisawa"
"I.Oonishi"
"J.Aoki"
"J.Ohashi"
_chemical_name_systematic
;
5-Nitro-13H-dibenz(a,de)anthracen-13-one
;
_cell_volume   1427.819
_exptl_crystal_colour 'reddish-brown'
_exptl_crystal_density_diffrn 1.513
_diffrn_ambient_temperature ?
_diffrn_special_details
;
The study was carried out at room temperature,in the range 283-303K

;
#These two values have been output from a single CSD field.
_refine_ls_R_factor_gt 0.059
_refine_ls_wR_factor_gt 0.059
_symmetry_cell_setting monoclinic
_symmetry_space_group_name_H-M 'P 21/c'
_symmetry_Int_Tables_number 14
loop_
_symmetry_equiv_pos_site_id
_symmetry_equiv_pos_as_xyz
1 x,y,z
2 -x,1/2+y,1/2-z
3 -x,-y,-z
4 x,-1/2-y,-1/2+z
_cell_length_a 8.727(2)
_cell_length_b 22.441(6)
_cell_length_c 7.295(2)
_cell_angle_alpha 90
_cell_angle_beta 91.98(2)
_cell_angle_gamma 90
_cell_formula_units_Z 4
loop_
_atom_type_symbol
_atom_type_radius_bond
C 0.68
H 0.23
N 0.68
O 0.68
loop_
_atom_site_label
_atom_site_type_symbol
_atom_site_fract_x
_atom_site_fract_y
_atom_site_fract_z
C1 C 0.4355(3) 0.3233(1) 0.8223(4)
C2 C 0.3124(3) 0.2866(1) 0.8659(4)
C3 C 0.3248(3) 0.2270(1) 0.8527(4)
C4 C 0.4822(3) 0.1402(1) 0.7786(4)
C5 C 0.6155(3) 0.1113(1) 0.7285(4)
C6 C 0.7460(3) 0.1479(1) 0.6959(3)
C7 C 0.8617(3) 0.2509(1) 0.6636(4)
C8 C 0.9606(3) 0.3523(1) 0.6255(4)
C9 C 0.9442(4) 0.4128(1) 0.6234(4)
C10 C 0.8061(4) 0.4379(1) 0.6668(5)
C11 C 0.6848(3) 0.4022(1) 0.7141(4)
C12 C 0.6990(3) 0.3402(1) 0.7175(3)
C13 C 0.5732(3) 0.3009(1) 0.7667(3)
C14 C 0.5931(3) 0.2374(1) 0.7564(3)
C15 C 0.4643(3) 0.2007(1) 0.7979(3)
C16 C 0.7326(3) 0.2108(1) 0.7069(3)
C17 C 0.8386(3) 0.3155(1) 0.6711(3)
C18 C 0.6245(4) 0.0483(1) 0.7132(4)
C19 C 0.7573(4) 0.0221(1) 0.6690(5)
C20 C 0.8872(4) 0.0572(1) 0.6407(4)
C21 C 0.8824(3) 0.1169(1) 0.6518(4)
N1 N 0.3479(3) 0.1025(1) 0.8115(4)
O1 O 0.9853(3) 0.2320(1) 0.6158(5)
O2 O 0.2669(3) 0.0893(1) 0.6772(3)
O3 O 0.3245(3) 0.0866(1) 0.9664(3)
H1 H 0.421(3) 0.369(1) 0.832(3)
H2 H 0.213(3) 0.305(1) 0.912(4)
H3 H 0.236(3) 0.200(1) 0.881(4)
H4 H 1.063(3) 0.333(1) 0.593(4)
H5 H 1.031(3) 0.440(1) 0.586(4)
H6 H 0.789(3) 0.483(1) 0.665(4)
H7 H 0.581(3) 0.423(1) 0.749(4)
H8 H 0.530(3) 0.023(1) 0.739(4)
H9 H 0.766(3) -0.023(1) 0.661(4)
H10 H 0.986(3) 0.037(1) 0.612(4)
H11 H 0.975(3) 0.142(1) 0.626(4)
#END
