
#######################################################################
#
#                 Cambridge Crystallographic Data Centre
#                                CCDC
#
#######################################################################
#
# If this CIF has been generated from an entry in the Cambridge
# Structural Database, then it will include bibliographic, chemical,
# crystal, experimental, refinement or atomic coordinate data resulting
# from the CCDC's data processing and validation procedures.
#
#######################################################################

data_CSD_CIF_FOXCAY01
_audit_creation_date 2017-04-13
_audit_creation_method CSD-ConQuest-V1
_database_code_CSD FOXCAY01
_database_code_depnum_ccdc_archive 'CCDC 1510482'
_chemical_formula_sum 'C12 H10 N2 O4'
_chemical_formula_moiety
;
C12 H10 N2 O4
;
_journal_coden_Cambridge 1699
_journal_volume 5
_journal_year 2017
_journal_page_first 7961
_journal_name_full 'J.Mater.Chem.A '
loop_
_publ_author_name
"Le Le Gong"
"Wan Ting Yao"
"Zhi Qiang Liu"
"An Min Zheng"
"Jian Qiang Li"
"Xue Feng Feng"
"Lu Fang Ma"
"Chang Sheng Yan"
"Ming Biao Luo"
"Feng Luo"
_chemical_name_systematic
;
ethyl 2-cyano-3-(3-nitrophenyl)acrylate
;
_cell_volume    582.769
_exptl_crystal_colour 'yellow'
_exptl_crystal_density_diffrn 1.403
_exptl_crystal_description 'Block'
_diffrn_ambient_temperature 296
#These two values have been output from a single CSD field.
_refine_ls_R_factor_gt 0.1114
_refine_ls_wR_factor_gt 0.1114
_symmetry_cell_setting triclinic
_symmetry_space_group_name_H-M 'P -1'
_symmetry_Int_Tables_number 2
loop_
_symmetry_equiv_pos_site_id
_symmetry_equiv_pos_as_xyz
1 x,y,z
2 -x,-y,-z
_cell_length_a 4.0497(19)
_cell_length_b 10.774(5)
_cell_length_c 13.882(6)
_cell_angle_alpha 103.934(8)
_cell_angle_beta 96.959(9)
_cell_angle_gamma 91.161(9)
_cell_formula_units_Z 2
loop_
_atom_type_symbol
_atom_type_radius_bond
C 0.68
H 0.23
N 0.68
O 0.68
loop_
_atom_site_label
_atom_site_type_symbol
_atom_site_fract_x
_atom_site_fract_y
_atom_site_fract_z
C1 C -0.1150(16) 0.6768(4) 0.1760(4)
C2 C 0.0743(14) 0.7920(3) 0.5450(3)
C3 C 0.0077(15) 0.7551(3) 0.2684(3)
H1 H 0.13290 0.83020 0.27340
C4 C 0.0863(14) 0.8021(3) 0.4497(3)
C5 C -0.2492(15) 0.6042(4) 0.3432(4)
H2 H -0.29870 0.57920 0.39970
C6 C -0.2939(16) 0.5632(4) 0.1649(4)
H3 H -0.36700 0.51130 0.10170
C7 C 0.2680(15) 0.8861(4) 0.6288(3)
C8 C -0.0612(14) 0.7184(3) 0.3548(3)
C9 C 0.440(2) 0.9336(4) 0.8044(4)
H4 H 0.31950 1.00740 0.83330
H5 H 0.64630 0.96390 0.78690
C10 C -0.3618(18) 0.5284(4) 0.2501(4)
H6 H -0.48550 0.45260 0.24420
C11 C -0.1126(15) 0.6932(4) 0.5719(3)
C12 C 0.513(3) 0.8558(7) 0.8775(5)
H7 H 0.30840 0.81810 0.88880
H8 H 0.62050 0.90920 0.93940
H9 H 0.65620 0.78930 0.85200
H10 H 0.260(17) 0.875(5) 0.442(4)
N1 N -0.2669(17) 0.6172(4) 0.5954(4)
N2 N -0.0417(16) 0.7139(4) 0.0848(3)
O1 O 0.4322(13) 0.9754(3) 0.6198(3)
O2 O 0.2412(12) 0.8563(3) 0.7157(2)
O3 O 0.1240(19) 0.8133(4) 0.0949(3)
O4 O -0.1434(18) 0.6450(4) 0.0039(3)
#END
