
#######################################################################
#
#                 Cambridge Crystallographic Data Centre
#                                CCDC
#
#######################################################################
#
# If this CIF has been generated from an entry in the Cambridge
# Structural Database, then it will include bibliographic, chemical,
# crystal, experimental, refinement or atomic coordinate data resulting
# from the CCDC's data processing and validation procedures.
#
#######################################################################

data_CSD_CIF_FOXLIO
_audit_creation_date 2009-12-22
_audit_creation_method CSD-ConQuest-V1
_database_code_CSD FOXLIO
_database_code_depnum_ccdc_archive 'CCDC 750755'
_chemical_formula_sum 'C12 H9 N1 O2'
_chemical_formula_moiety
;
C12 H9 N1 O2
;
_journal_coeditor_code "IUCr CI2915"
_journal_coden_Cambridge 1370
_journal_volume 65
_journal_year 2009
_journal_page_first o2521
_journal_name_full 'Acta Crystallogr.,Sect.E:Struct.Rep.Online '
loop_
_publ_author_name
"Lin-Hai Jing"
_chemical_name_systematic
;
(E)-1-(2-Nitroethenyl)naphthalene
;
_chemical_name_common
;
(E)-1-(2-Nitrovinyl)naphthalene
;
_cell_volume   1909.943
_exptl_crystal_colour 'yellow'
_exptl_crystal_density_diffrn 1.386
_exptl_crystal_description 'prism'
_exptl_crystal_preparation 'methanol'
_diffrn_ambient_temperature 93
#These two values have been output from a single CSD field.
_refine_ls_R_factor_gt 0.0482
_refine_ls_wR_factor_gt 0.0482
_symmetry_cell_setting orthorhombic
_symmetry_space_group_name_H-M 'P b c a'
_symmetry_Int_Tables_number 61
loop_
_symmetry_equiv_pos_site_id
_symmetry_equiv_pos_as_xyz
1 x,y,z
2 1/2-x,-y,1/2+z
3 -x,1/2+y,1/2-z
4 1/2+x,1/2-y,-z
5 -x,-y,-z
6 -1/2+x,y,-1/2-z
7 x,-1/2-y,-1/2+z
8 -1/2-x,-1/2+y,z
_cell_length_a 7.2670(14)
_cell_length_b 13.741(3)
_cell_length_c 19.127(4)
_cell_angle_alpha 90
_cell_angle_beta 90
_cell_angle_gamma 90
_cell_formula_units_Z 8
loop_
_atom_type_symbol
_atom_type_radius_bond
C 0.68
H 0.23
N 0.68
O 0.68
loop_
_atom_site_label
_atom_site_type_symbol
_atom_site_fract_x
_atom_site_fract_y
_atom_site_fract_z
O1 O 0.4804(2) 0.25001(8) 0.56207(6)
O2 O 0.4755(2) 0.35241(8) 0.47651(6)
N1 N 0.50070(19) 0.33185(9) 0.53854(6)
C1 C 0.61925(19) 0.47388(10) 0.70231(7)
C2 C 0.67974(19) 0.56401(10) 0.67959(8)
H1 H 0.69070 0.57590 0.63080
C3 C 0.7251(2) 0.63794(10) 0.72673(8)
H2 H 0.76650 0.69910 0.70970
C4 C 0.7103(2) 0.62294(10) 0.79730(8)
H3 H 0.74030 0.67400 0.82880
C5 C 0.6346(2) 0.51571(11) 0.89674(8)
H4 H 0.66280 0.56690 0.92830
C6 C 0.5794(2) 0.42761(11) 0.92232(8)
H5 H 0.56930 0.41780 0.97130
C7 C 0.5373(2) 0.35112(11) 0.87574(8)
H6 H 0.50010 0.28970 0.89360
C8 C 0.5497(2) 0.3648(1) 0.80489(7)
H7 H 0.51980 0.31260 0.77440
C9 C 0.60624(18) 0.45543(9) 0.77616(7)
C10 C 0.65057(19) 0.53203(10) 0.82360(8)
C11 C 0.5682(2) 0.39854(10) 0.65200(7)
H8 H 0.54190 0.33560 0.67000
C12 C 0.5554(2) 0.41047(11) 0.58392(8)
H9 H 0.58290 0.47230 0.56420
#END
