
#######################################################################
#
#                 Cambridge Crystallographic Data Centre
#                                CCDC
#
#######################################################################
#
# If this CIF has been generated from an entry in the Cambridge
# Structural Database, then it will include bibliographic, chemical,
# crystal, experimental, refinement or atomic coordinate data resulting
# from the CCDC's data processing and validation procedures.
#
#######################################################################

data_CSD_CIF_FOZQOC
_audit_creation_date 2015-03-26
_audit_creation_method CSD-ConQuest-V1
_database_code_CSD FOZQOC
_database_code_depnum_ccdc_archive 'CCDC 1034557'
_chemical_formula_sum 'C24 H21 N5 O4'
_chemical_formula_moiety
;
C24 H21 N5 O4
;
_journal_coden_Cambridge 1220
_journal_volume 21
_journal_year 2015
_journal_page_first 3585
_journal_name_full 'Chem.-Eur.J. '
loop_
_publ_author_name
"Nan Li"
"Tian-Yi Wang"
"Liu-Zhu Gong"
"Liming Zhang"
_chemical_name_systematic
;
9-((2,4-dinitrophenyl)hydrazono)-3-methyl-9a-phenyl-2,3,9,9a-tetrahydro-1H-pyr
rolo[1,2-a]indole
;
_cell_volume    539.704
_exptl_crystal_density_diffrn 1.364
_exptl_special_details
;
Absolute configuration

;
_diffrn_ambient_temperature 291
#These two values have been output from a single CSD field.
_refine_ls_R_factor_gt 0.0307
_refine_ls_wR_factor_gt 0.0307
_symmetry_cell_setting triclinic
_symmetry_space_group_name_H-M 'P 1'
_symmetry_Int_Tables_number 1
loop_
_symmetry_equiv_pos_site_id
_symmetry_equiv_pos_as_xyz
1 x,y,z
_cell_length_a 6.4390(3)
_cell_length_b 8.7291(4)
_cell_length_c 10.3553(5)
_cell_angle_alpha 110.203(5)
_cell_angle_beta 94.880(4)
_cell_angle_gamma 95.232(4)
_cell_formula_units_Z 1
loop_
_atom_type_symbol
_atom_type_radius_bond
C 0.68
H 0.23
N 0.68
O 0.68
loop_
_atom_site_label
_atom_site_type_symbol
_atom_site_fract_x
_atom_site_fract_y
_atom_site_fract_z
N1 N -0.0922(3) 0.8237(2) 0.97082(19)
C1 C 0.1407(4) 0.7442(3) 0.7194(2)
N2 N -0.1379(3) 0.8161(3) 1.0957(2)
N3 N 0.3276(3) 1.0250(2) 0.85935(19)
C2 C 0.2581(3) 1.0029(3) 1.0709(2)
C3 C 0.3914(4) 1.0770(3) 1.0012(2)
C4 C -0.3283(4) 0.7374(3) 1.0997(2)
C5 C 0.3125(4) 1.1512(3) 0.7929(3)
H1 H 0.30090 1.25670 0.86520
C6 C -0.5904(4) 0.6458(3) 1.2230(3)
H2 H -0.63190 0.63920 1.30500
C7 C 0.1267(3) 0.9131(3) 0.8272(2)
C8 C 0.3240(4) 0.7044(3) 0.6626(2)
H3 H 0.44350 0.78180 0.69040
C9 C -0.0358(4) 0.6265(3) 0.6747(3)
H4 H -0.16140 0.65180 0.71020
C10 C 0.3072(4) 1.0380(3) 1.2122(3)
H5 H 0.22170 0.98880 1.25860
N4 N -0.9278(4) 0.4917(3) 1.1002(3)
C11 C -0.6624(4) 0.5845(3) 0.9772(3)
H6 H -0.75390 0.53710 0.89540
N5 N -0.2658(5) 0.8013(4) 1.3553(2)
O1 O -0.0951(4) 0.8797(5) 1.3616(2)
C12 C 0.4831(4) 1.1461(4) 1.2832(3)
H7 H 0.51810 1.16780 1.37740
C13 C 0.1559(5) 0.4335(4) 0.5216(3)
H8 H 0.16100 0.33020 0.45550
C14 C 0.5649(4) 1.1903(3) 1.0739(3)
H9 H 0.64950 1.24290 1.02930
C15 C 0.0836(3) 0.9036(3) 0.9675(2)
C16 C 0.6078(4) 1.2224(4) 1.2148(3)
H10 H 0.72360 1.29740 1.26480
C17 C 0.1043(5) 1.0930(4) 0.6993(3)
H11 H 0.04120 1.18530 0.68860
H12 H 0.12320 1.01740 0.60840
C18 C 0.3312(5) 0.5492(3) 0.5638(3)
H13 H 0.45540 0.52400 0.52620
O2 O -0.9838(5) 0.4950(5) 1.2106(3)
O3 O -1.0382(3) 0.4247(3) 0.9900(3)
O4 O -0.3306(5) 0.7873(5) 1.4572(2)
C19 C -0.0306(4) 1.0070(3) 0.7737(3)
H14 H -0.14610 0.93210 0.71060
H15 H -0.08650 1.08580 0.84970
C20 C -0.3954(4) 0.7258(3) 1.2227(2)
C21 C -0.4696(4) 0.6622(3) 0.9772(2)
H16 H -0.42980 0.66590 0.89400
C22 C -0.0269(5) 0.4716(4) 0.5778(3)
H17 H -0.14530 0.39320 0.55080
C23 C -0.7215(4) 0.5767(3) 1.1017(3)
C24 C 0.4986(5) 1.1748(5) 0.7191(4)
H18 H 0.62370 1.21180 0.78460
H19 H 0.47650 1.25550 0.67730
H20 H 0.51380 1.07230 0.64860
H21 H -0.070(5) 0.875(4) 1.177(3)
#END
