
#######################################################################
#
#                 Cambridge Crystallographic Data Centre
#                                CCDC
#
#######################################################################
#
# If this CIF has been generated from an entry in the Cambridge
# Structural Database, then it will include bibliographic, chemical,
# crystal, experimental, refinement or atomic coordinate data resulting
# from the CCDC's data processing and validation procedures.
#
#######################################################################

data_CSD_CIF_FUBHAL
_audit_creation_date 2000-12-15
_audit_creation_method CSD-ConQuest-V1
_database_code_CSD FUBHAL
_database_code_depnum_ccdc_archive 'CCDC 137318'
_chemical_formula_sum 'C19 H26 N4 O6'
_chemical_formula_moiety
;
C19 H26 N4 O6
;
_journal_coden_Cambridge 16
_journal_volume 56
_journal_year 2000
_journal_page_first 4129
_journal_name_full 'Tetrahedron '
loop_
_publ_author_name
"B.Seyberlich"
"P.Laackmann"
"E.-M.Peters"
"K.Peters"
"H.G.von Schnering"
"W.Tochtermann"
_chemical_name_systematic
;
(12R)-10-((2,4-Dinitrophenyl)hydrazono)-12-methyl-oxacyclotridecan-2-one
;
_chemical_melting_point 375.15
_cell_volume   2025.131
_exptl_crystal_colour 'orange'
_exptl_crystal_density_diffrn 1.333
_exptl_special_details
;
Melting point range 375.15-377.15K

;
_exptl_crystal_description 'prism'
_exptl_crystal_preparation 'diethyl ether/pentane'
_diffrn_ambient_temperature ?
_diffrn_special_details
;
The study was carried out at room temperature,in the range 283-303K

;
#These two values have been output from a single CSD field.
_refine_ls_R_factor_gt 0.0432
_refine_ls_wR_factor_gt 0.0432
_symmetry_cell_setting orthorhombic
_symmetry_space_group_name_H-M 'P 21 21 21'
_symmetry_Int_Tables_number 19
loop_
_symmetry_equiv_pos_site_id
_symmetry_equiv_pos_as_xyz
1 x,y,z
2 1/2-x,-y,1/2+z
3 1/2+x,1/2-y,-z
4 -x,1/2+y,1/2-z
_cell_length_a 9.7978(5)
_cell_length_b 13.5930(7)
_cell_length_c 15.2058(5)
_cell_angle_alpha 90
_cell_angle_beta 90
_cell_angle_gamma 90
_cell_formula_units_Z 4
loop_
_atom_type_symbol
_atom_type_radius_bond
C 0.68
H 0.23
N 0.68
O 0.68
loop_
_atom_site_label
_atom_site_type_symbol
_atom_site_fract_x
_atom_site_fract_y
_atom_site_fract_z
C1 C 0.23684(19) 0.91614(14) 0.77668(12)
C2 C 0.16823(20) 0.96639(15) 0.84560(12)
N1 N 0.16031(18) 0.92681(16) 0.93457(11)
O1 O 0.11813(22) 0.98146(15) 0.99304(10)
O2 O 0.19304(20) 0.84204(13) 0.94788(10)
C3 C 0.10352(20) 1.05664(15) 0.83172(13)
H1 H 0.05987(20) 1.09050(15) 0.87946(13)
C4 C 0.10324(22) 1.09610(15) 0.74926(14)
N2 N 0.02982(21) 1.18810(15) 0.73537(15)
O3 O 0.01818(21) 1.21743(13) 0.65940(14)
O4 O -0.01706(22) 1.23164(14) 0.79907(14)
C5 C 0.16843(21) 1.05020(16) 0.67884(13)
H2 H 0.16739(21) 1.07976(16) 0.62151(13)
C6 C 0.23404(21) 0.96217(16) 0.69261(12)
H3 H 0.27912(21) 0.93092(16) 0.64402(12)
N3 N 0.30289(20) 0.83197(13) 0.78919(11)
H4 H 0.3019(24) 0.8153(16) 0.8427(16)
N4 N 0.36990(19) 0.78677(13) 0.72008(10)
C7 C 0.43581(24) 0.70718(15) 0.73710(12)
C8 C 0.50369(27) 0.65567(17) 0.66079(14)
H5 H 0.60024(27) 0.65658(17) 0.67152(14)
H6 H 0.47182(27) 0.58889(17) 0.66055(14)
C9 C 0.48036(27) 0.69751(16) 0.56880(12)
H7 H 0.38698(27) 0.71869(16) 0.56623(12)
C10 C 0.50565(30) 0.61911(17) 0.49931(15)
H8 H 0.59295(30) 0.58915(17) 0.50955(15)
H9 H 0.50494(30) 0.64908(17) 0.44215(15)
O5 O 0.39994(19) 0.54414(12) 0.50362(11)
C11 C 0.43324(28) 0.45374(21) 0.53010(14)
O6 O 0.54792(21) 0.43087(17) 0.55058(14)
C12 C 0.31250(32) 0.38708(20) 0.53522(17)
H10 H 0.26075(32) 0.39354(20) 0.48192(17)
H11 H 0.34388(32) 0.3205(2) 0.54105(17)
C13 C 0.22114(26) 0.41144(20) 0.61242(15)
H12 H 0.20468(26) 0.48106(20) 0.61268(15)
H13 H 0.13630(26) 0.37717(20) 0.60477(15)
C14 C 0.28084(25) 0.38270(18) 0.70117(15)
H14 H 0.37548(25) 0.40097(18) 0.70203(15)
H15 H 0.27288(25) 0.31270(18) 0.70774(15)
C15 C 0.21094(25) 0.43091(19) 0.77799(15)
H16 H 0.11423(25) 0.42873(19) 0.76807(15)
H17 H 0.23268(25) 0.39461(19) 0.83031(15)
C16 C 0.25287(22) 0.53826(18) 0.79191(15)
H18 H 0.19221(22) 0.56694(18) 0.83434(15)
H19 H 0.24409(22) 0.57240(18) 0.73694(15)
C17 C 0.39894(23) 0.55046(16) 0.82507(14)
H20 H 0.40368(23) 0.52548(16) 0.88404(14)
H21 H 0.45798(23) 0.51259(16) 0.78775(14)
C18 C 0.45008(27) 0.65694(16) 0.82557(13)
H22 H 0.54476(27) 0.65690(16) 0.84184(13)
H23 H 0.39864(27) 0.69340(16) 0.86829(13)
C19 C 0.57208(36) 0.78524(21) 0.55029(18)
H24 H 0.55655(36) 0.83504(21) 0.59392(18)
H25 H 0.55178(36) 0.81128(21) 0.49308(18)
H26 H 0.66584(36) 0.76486(21) 0.55229(18)
#END
