
#######################################################################
#
#                 Cambridge Crystallographic Data Centre
#                                CCDC
#
#######################################################################
#
# If this CIF has been generated from an entry in the Cambridge
# Structural Database, then it will include bibliographic, chemical,
# crystal, experimental, refinement or atomic coordinate data resulting
# from the CCDC's data processing and validation procedures.
#
#######################################################################

data_CSD_CIF_FUBYIL
_audit_creation_date 2010-01-11
_audit_creation_method CSD-ConQuest-V1
_database_code_CSD FUBYIL
_database_code_depnum_ccdc_archive 'CCDC 720054'
_chemical_formula_sum 'C14 H11 N1 O5'
_chemical_formula_moiety
;
C14 H11 N1 O5
;
_journal_coden_Cambridge 24
_journal_volume 50
_journal_year 2009
_journal_page_first 3017
_journal_name_full 'Tetrahedron Lett. '
loop_
_publ_author_name
"A.Riahi"
"M.Shkoor"
"R.A.Khera"
"H.Reinke"
"P.Langer"
_chemical_name_systematic
;
Methyl 3-hydroxy-6-nitrobiphenyl-2-carboxylate
;
_chemical_melting_point 410.15
_cell_volume   1247.011
_exptl_crystal_colour 'yellowish'
_exptl_crystal_density_diffrn 1.455
_exptl_special_details
;
Melting point range 410.15-411.15K

;
_exptl_crystal_description 'fragment of prism'
_diffrn_ambient_temperature 103
#These two values have been output from a single CSD field.
_refine_ls_R_factor_gt 0.0365
_refine_ls_wR_factor_gt 0.0365
_symmetry_cell_setting monoclinic
_symmetry_space_group_name_H-M 'P 21/c'
_symmetry_Int_Tables_number 14
loop_
_symmetry_equiv_pos_site_id
_symmetry_equiv_pos_as_xyz
1 x,y,z
2 -x,1/2+y,1/2-z
3 -x,-y,-z
4 x,-1/2-y,-1/2+z
_cell_length_a 9.6578(4)
_cell_length_b 9.1306(3)
_cell_length_c 14.2777(6)
_cell_angle_alpha 90
_cell_angle_beta 97.923(2)
_cell_angle_gamma 90
_cell_formula_units_Z 4
loop_
_atom_type_symbol
_atom_type_radius_bond
C 0.68
H 0.23
N 0.68
O 0.68
loop_
_atom_site_label
_atom_site_type_symbol
_atom_site_fract_x
_atom_site_fract_y
_atom_site_fract_z
O1 O 0.08675(6) 0.19657(7) 0.36554(4)
O2 O 0.31741(6) 0.24738(6) 0.38420(4)
O3 O 0.05625(6) 0.47680(7) 0.24948(4)
H1 H 0.0193(18) 0.5445(19) 0.2151(12)
O4 O 0.21071(7) 0.62687(7) 0.67767(4)
O5 O 0.26463(9) 0.83243(8) 0.61555(5)
N1 N 0.22552(7) 0.70383(8) 0.60938(5)
C1 C 0.16519(7) 0.44030(8) 0.40663(5)
C2 C 0.09783(7) 0.53388(8) 0.33638(5)
C3 C 0.08224(8) 0.68270(8) 0.35498(6)
H2 H 0.04050 0.74660 0.30660
C4 C 0.12815(8) 0.73617(8) 0.44451(6)
H3 H 0.11670 0.83690 0.45830
C5 C 0.19110(8) 0.64194(8) 0.51427(5)
C6 C 0.21645(7) 0.49366(8) 0.49727(5)
C7 C 0.18384(8) 0.28202(8) 0.38281(5)
C8 C 0.3478(1) 0.09342(9) 0.37087(7)
H4 H 0.31430 0.03550 0.42100
H5 H 0.44890 0.08010 0.37350
H6 H 0.30070 0.06090 0.30920
C9 C 0.30432(7) 0.39990(8) 0.56744(5)
C10 C 0.25773(8) 0.26372(8) 0.59493(5)
H7 H 0.16610 0.23130 0.57110
C11 C 0.34481(9) 0.17510(8) 0.65705(6)
H8 H 0.31210 0.08310 0.67600
C12 C 0.47982(9) 0.22140(9) 0.69144(6)
H9 H 0.53950 0.16050 0.73330
C13 C 0.52712(8) 0.35718(9) 0.66435(6)
H10 H 0.61910 0.38880 0.68780
C14 C 0.43981(8) 0.44653(8) 0.60300(5)
H11 H 0.47210 0.53940 0.58520
#END
