
#######################################################################
#
#                 Cambridge Crystallographic Data Centre
#                                CCDC
#
#######################################################################
#
# If this CIF has been generated from an entry in the Cambridge
# Structural Database, then it will include bibliographic, chemical,
# crystal, experimental, refinement or atomic coordinate data resulting
# from the CCDC's data processing and validation procedures.
#
#######################################################################

data_CSD_CIF_FUCTUS
_audit_creation_date 1988-06-10
_audit_creation_method CSD-ConQuest-V1
_database_code_CSD FUCTUS
_chemical_formula_sum 'C18 H18 N4 O6'
_chemical_formula_moiety
;
C18 H18 N4 O6
;
_journal_coeditor_code "IUCr A27557"
_journal_coden_Cambridge 591
_journal_volume 43
_journal_year 1987
_journal_page_first 2137
_journal_name_full 'Acta Crystallogr.,Sect.C:Cryst.Struct.Commun. '
loop_
_publ_author_name
"A.Whitaker"
"N.P.C.Walker"
_chemical_name_systematic
;
2-((2-Methoxy-4-nitrophenyl)hydrazono)-N-(2-methoxyphenyl)-3-oxobutanamide
;
_chemical_name_common
;
alpha-(2-Methoxy-4-nitrophenylhydrazono)-alpha-aceto-2'-methoxyacetanilide
;
_cell_volume    893.057
_diffrn_ambient_temperature ?
_diffrn_special_details
;
The study was carried out at room temperature,in the range 283-303K

;
#These two values have been output from a single CSD field.
_refine_ls_R_factor_gt 0.072
_refine_ls_wR_factor_gt 0.072
_symmetry_cell_setting triclinic
_symmetry_space_group_name_H-M 'P -1'
_symmetry_Int_Tables_number 2
loop_
_symmetry_equiv_pos_site_id
_symmetry_equiv_pos_as_xyz
1 x,y,z
2 -x,-y,-z
_cell_length_a 10.729(2)
_cell_length_b 11.976(2)
_cell_length_c 7.628(1)
_cell_angle_alpha 103.43(1)
_cell_angle_beta 110.28(1)
_cell_angle_gamma 88.06(1)
_cell_formula_units_Z 2
loop_
_atom_type_symbol
_atom_type_radius_bond
C 0.68
H 0.23
N 0.68
O 0.68
loop_
_atom_site_label
_atom_site_type_symbol
_atom_site_fract_x
_atom_site_fract_y
_atom_site_fract_z
C1 C 0.9131(2) 0.7576(2) 0.5921(2)
O1 O 0.9514(1) 0.8591(1) 0.5700(2)
C2 C 1.0906(2) 0.8818(2) 0.6184(4)
C3 C 0.9986(2) 0.6793(2) 0.6709(3)
C4 C 0.9449(2) 0.5793(2) 0.6841(3)
N1 N 1.0354(2) 0.4985(2) 0.7711(3)
O2 O 1.1554(2) 0.5197(2) 0.8243(3)
O3 O 0.9885(2) 0.4108(2) 0.7869(3)
C5 C 0.8090(2) 0.5543(2) 0.6183(3)
C6 C 0.7245(2) 0.6330(2) 0.5403(3)
C7 C 0.7743(2) 0.7350(1) 0.5261(3)
N2 N 0.6933(2) 0.8167(1) 0.4475(2)
N3 N 0.5634(1) 0.7937(1) 0.3726(2)
C8 C 0.4820(2) 0.8655(2) 0.2925(3)
C9 C 0.3409(2) 0.8198(2) 0.2140(3)
C10 C 0.3089(2) 0.7081(2) 0.2484(4)
O4 O 0.2510(1) 0.8721(2) 0.1234(3)
C11 C 0.5250(2) 0.9788(2) 0.2780(3)
O5 O 0.6443(1) 1.0121(1) 0.3511(2)
N4 N 0.4280(2) 1.0401(1) 0.1864(2)
C12 C 0.4378(2) 1.1499(2) 0.1526(3)
C13 C 0.3151(2) 1.1923(2) 0.0544(3)
O6 O 0.2073(1) 1.1212(1) 0.0109(3)
C14 C 0.0786(2) 1.1589(3) -0.0841(4)
C15 C 0.3118(3) 1.2988(2) 0.0131(3)
C16 C 0.4284(3) 1.3644(2) 0.0695(4)
C17 C 0.5476(3) 1.3251(2) 0.1667(4)
C18 C 0.5533(2) 1.2165(2) 0.2072(3)
H1 H 1.147(3) 0.886(2) 0.748(4)
H2 H 1.092(3) 0.949(3) 0.584(4)
H3 H 1.113(3) 0.817(3) 0.538(4)
H4 H 0.77130 0.47700 0.62780
H5 H 0.62120 0.61590 0.49090
H6 H 0.73430 0.89500 0.44760
H7 H 0.3483(27) 0.7155(24) 0.4073(40)
H8 H 0.3518(26) 0.6385(25) 0.1990(37)
H9 H 0.2128(29) 0.7049(24) 0.2353(37)
H10 H 0.33160 1.00130 0.13240
H11 H 0.0707(28) 1.1645(24) -0.2141(39)
H12 H 0.0182(31) 1.1030(27) -0.0914(39)
H13 H 0.0588(28) 1.2282(26) -0.0001(39)
H14 H 0.22070 1.32990 -0.06110
H15 H 0.42560 1.44530 0.03740
H16 H 0.63530 1.37670 0.21120
H17 H 0.64520 1.18590 0.27890
#END
