
#######################################################################
#
#                 Cambridge Crystallographic Data Centre
#                                CCDC
#
#######################################################################
#
# If this CIF has been generated from an entry in the Cambridge
# Structural Database, then it will include bibliographic, chemical,
# crystal, experimental, refinement or atomic coordinate data resulting
# from the CCDC's data processing and validation procedures.
#
#######################################################################

data_CSD_CIF_FUCTOM
_audit_creation_date 1988-06-10
_audit_creation_method CSD-ConQuest-V1
_database_code_CSD FUCTOM
_database_code_depnum_ccdc_archive 'CCDC 1160483'
_chemical_formula_sum 'C18 H18 N4 O6'
_chemical_formula_moiety
;
C18 H18 N4 O6
;
_journal_coeditor_code "IUCr A27558"
_journal_coden_Cambridge 591
_journal_volume 43
_journal_year 1987
_journal_page_first 2141
_journal_name_full 'Acta Crystallogr.,Sect.C:Cryst.Struct.Commun. '
loop_
_publ_author_name
"A.Whitaker"
_chemical_name_systematic
;
2-((4-Methoxy-2-nitrophenyl)hydrazono)-N-(2-methoxyphenyl)-3-oxobutanamide
;
_chemical_name_common
;
alpha-(4-Methoxy-2-nitrophenylhydrazono)-alpha-aceto-2'-methoxyacetanilide
;
_cell_volume   1790.957
_exptl_special_details
;
Coords. of H91 appear to be in error and have been deleted

;
_diffrn_ambient_temperature ?
_diffrn_special_details
;
The study was carried out at room temperature,in the range 283-303K

;
#These two values have been output from a single CSD field.
_refine_ls_R_factor_gt 0.095
_refine_ls_wR_factor_gt 0.095
_symmetry_cell_setting monoclinic
_symmetry_space_group_name_H-M 'P 21/c'
_symmetry_Int_Tables_number 14
loop_
_symmetry_equiv_pos_site_id
_symmetry_equiv_pos_as_xyz
1 x,y,z
2 -x,1/2+y,1/2-z
3 -x,-y,-z
4 x,-1/2-y,-1/2+z
_cell_length_a 7.2949(5)
_cell_length_b 8.9333(5)
_cell_length_c 27.5600(16)
_cell_angle_alpha 90
_cell_angle_beta 94.302(5)
_cell_angle_gamma 90
_cell_formula_units_Z 4
loop_
_atom_type_symbol
_atom_type_radius_bond
C 0.68
H 0.23
N 0.68
O 0.68
loop_
_atom_site_label
_atom_site_type_symbol
_atom_site_fract_x
_atom_site_fract_y
_atom_site_fract_z
C1 C 0.7839(4) 0.0436(3) 0.8507(1)
N1 N 0.6981(4) -0.1041(3) 0.8490(1)
O1 O 0.6599(5) -0.1635(3) 0.8873(1)
O2 O 0.6593(5) -0.1630(3) 0.8098(1)
C2 C 0.8217(4) 0.1023(3) 0.8057(1)
C3 C 0.8967(4) 0.2433(3) 0.8040(1)
O3 O 0.9374(3) 0.3136(3) 0.7621(1)
C4 C 0.8841(6) 0.2413(5) 0.7174(1)
C5 C 0.9361(4) 0.3228(3) 0.8469(1)
C6 C 0.8980(4) 0.2628(3) 0.8912(1)
C7 C 0.8197(4) 0.1208(3) 0.8944(1)
N2 N 0.7830(3) 0.0624(3) 0.9396(1)
N3 N 0.8301(3) 0.1411(3) 0.9789(1)
C8 C 0.7985(4) 0.0917(3) 1.0223(1)
C9 C 0.8648(2) 0.1947(2) 1.0619(1)
C10 C 0.9520(6) 0.3402(4) 1.0490(1)
O4 O 0.8521(4) 0.1627(3) 1.1045(1)
C11 C 0.7108(4) -0.0568(3) 1.0305(1)
O5 O 0.6642(4) -0.1388(3) 0.9956(1)
N4 N 0.6897(3) -0.0943(3) 1.0771(1)
C12 C 0.6242(4) -0.2308(3) 1.0949(1)
C13 C 0.6139(4) -0.2384(3) 1.1454(1)
O6 O 0.6603(3) -0.1088(2) 1.1699(1)
C14 C 0.6623(5) -0.1119(4) 1.2215(1)
C15 C 0.5586(5) -0.3696(4) 1.1672(1)
C16 C 0.5124(5) -0.4928(4) 1.1386(1)
C17 C 0.5177(5) -0.4864(4) 1.0887(1)
C18 C 0.5724(4) -0.3559(4) 1.0665(1)
H1 H 0.79350 0.04010 0.77370
H2 H 0.99550 0.42960 0.84560
H3 H 0.92840 0.32510 0.92310
H4 H 0.71900 -0.04220 0.94220
H5 H 0.8731(48) 0.4160(44) 1.0312(14)
H6 H 0.9910(47) 0.3905(43) 1.0766(13)
H7 H 0.72660 -0.01200 1.10320
H8 H 0.55210 -0.37490 1.20500
H9 H 0.47290 -0.59230 1.15510
H10 H 0.48000 -0.58040 1.06730
H11 H 0.57510 -0.35100 1.02850
H12 H 0.7628(57) 0.2060(45) 0.7134(13)
H13 H 0.9174(51) 0.3191(43) 0.6950(14)
H14 H 0.9671(51) 0.1380(44) 0.7131(13)
H15 H 0.7374(46) -0.1874(41) 1.2339(13)
H16 H 0.5264(48) -0.1213(37) 1.2352(12)
H17 H 0.7350(45) -0.0145(41) 1.2351(12)
#END
