
#######################################################################
#
#                 Cambridge Crystallographic Data Centre
#                                CCDC
#
#######################################################################
#
# If this CIF has been generated from an entry in the Cambridge
# Structural Database, then it will include bibliographic, chemical,
# crystal, experimental, refinement or atomic coordinate data resulting
# from the CCDC's data processing and validation procedures.
#
#######################################################################

data_CSD_CIF_FUDGOA
_audit_creation_date 1988-07-18
_audit_creation_method CSD-ConQuest-V1
_database_code_CSD FUDGOA
_database_code_depnum_ccdc_archive 'CCDC 1160529'
_chemical_formula_sum 'C10 H9 N1 O5'
_chemical_formula_moiety
;
C10 H9 N1 O5
;
_journal_coden_Cambridge 54
_journal_volume 96
_journal_year 1987
_journal_page_first 511
_journal_name_full 'Bull.Soc.Chim.Belg. '
loop_
_publ_author_name
"B.Tinant"
"J.-P.Declercq"
"O.Exner"
_chemical_name_systematic
;
2-Acetoxy-1-(4-nitrophenyl)ethanone
;
_chemical_melting_point 398.15
_cell_volume   1040.224
_exptl_crystal_density_diffrn 1.43
_diffrn_ambient_temperature ?
_diffrn_special_details
;
The study was carried out at room temperature,in the range 283-303K

;
#These two values have been output from a single CSD field.
_refine_ls_R_factor_gt 0.044
_refine_ls_wR_factor_gt 0.044
_symmetry_cell_setting monoclinic
_symmetry_space_group_name_H-M 'P 21/c'
_symmetry_Int_Tables_number 14
loop_
_symmetry_equiv_pos_site_id
_symmetry_equiv_pos_as_xyz
1 x,y,z
2 -x,1/2+y,1/2-z
3 -x,-y,-z
4 x,-1/2-y,-1/2+z
_cell_length_a 9.004(2)
_cell_length_b 12.552(2)
_cell_length_c 9.416(3)
_cell_angle_alpha 90
_cell_angle_beta 102.18(2)
_cell_angle_gamma 90
_cell_formula_units_Z 4
loop_
_atom_type_symbol
_atom_type_radius_bond
C 0.68
N 0.68
O 0.68
loop_
_atom_site_label
_atom_site_type_symbol
_atom_site_fract_x
_atom_site_fract_y
_atom_site_fract_z
C1 C 0.2733(3) 0.0892(2) 0.5584(3)
C2 C 0.2649(3) -0.0157(3) 0.5103(3)
C3 C 0.1849(4) -0.0904(2) 0.5684(3)
C4 C 0.1123(3) -0.0593(2) 0.6759(3)
C5 C 0.1170(3) 0.0428(2) 0.7278(3)
C6 C 0.1988(3) 0.1179(2) 0.6679(3)
C7 C 0.3569(3) 0.1687(2) 0.4876(3)
O1 O 0.4137(2) 0.1444(2) 0.3871(2)
C8 C 0.3684(3) 0.2820(2) 0.5455(3)
O2 O 0.4459(2) 0.3484(2) 0.4627(2)
C9 C 0.5986(3) 0.3411(2) 0.4931(3)
O3 O 0.6667(2) 0.2885(2) 0.5909(2)
C10 C 0.6658(5) 0.4047(3) 0.3898(4)
N1 N 0.0199(3) -0.1386(1) 0.7349(3)
O4 O -0.0356(3) -0.1129(2) 0.8374(3)
O5 O 0.0022(3) -0.2257(2) 0.6765(3)
#END
