
#######################################################################
#
#                 Cambridge Crystallographic Data Centre
#                                CCDC
#
#######################################################################
#
# If this CIF has been generated from an entry in the Cambridge
# Structural Database, then it will include bibliographic, chemical,
# crystal, experimental, refinement or atomic coordinate data resulting
# from the CCDC's data processing and validation procedures.
#
#######################################################################

data_CSD_CIF_FUDSAY
_audit_creation_date 1988-07-18
_audit_creation_method CSD-ConQuest-V1
_database_code_CSD FUDSAY
_chemical_formula_sum 'C7 H11 N1 O2'
_chemical_formula_moiety
;
C7 H11 N1 O2
;
_journal_coden_Cambridge 4
_journal_volume 109
_journal_year 1987
_journal_page_first 7128
_journal_name_full 'J.Am.Chem.Soc. '
loop_
_publ_author_name
"S.F.Nelsen"
"J.A.Thompson-Colon"
"B.Kirste"
"A.Rosenhouse"
"M.Kaftory"
_chemical_name_systematic
;
N-Formyl-3-oxa-2-azabicyclo(2.2.2)octane
;
_chemical_melting_point 378.15
_cell_volume    699.062
_exptl_special_details
;
Melting point range 378.15-379.65K
H10 appears to be in error and is not retained. Some bond lengths have been 
transposed on the diagram
;
_diffrn_ambient_temperature ?
_diffrn_special_details
;
The study was carried out at room temperature,in the range 283-303K

;
#These two values have been output from a single CSD field.
_refine_ls_R_factor_gt 0.0436
_refine_ls_wR_factor_gt 0.0436
_symmetry_cell_setting orthorhombic
_symmetry_space_group_name_H-M 'P 21 21 21'
_symmetry_Int_Tables_number 19
loop_
_symmetry_equiv_pos_site_id
_symmetry_equiv_pos_as_xyz
1 x,y,z
2 1/2+x,1/2-y,-z
3 -x,1/2+y,1/2-z
4 1/2-x,-y,1/2+z
_cell_length_a 13.299(7)
_cell_length_b 7.835(4)
_cell_length_c 6.709(4)
_cell_angle_alpha 90
_cell_angle_beta 90
_cell_angle_gamma 90
_cell_formula_units_Z 4
loop_
_atom_type_symbol
_atom_type_radius_bond
C 0.68
H 0.23
N 0.68
O 0.68
loop_
_atom_site_label
_atom_site_type_symbol
_atom_site_fract_x
_atom_site_fract_y
_atom_site_fract_z
O1 O 0.0607(2) 0.1110(2) 0.5999(4)
O2 O 0.1666(2) -0.1690(3) 0.5006(4)
N1 N 0.1375(2) 0.1142(3) 0.4551(3)
C1 C 0.1617(2) 0.2847(4) 0.37700
C2 C 0.0641(3) 0.3622(5) 0.2994(5)
C3 C -0.0106(2) 0.3723(5) 0.4729(5)
C4 C 0.0340(2) 0.2866(4) 0.6536(4)
C5 C 0.1289(2) 0.3758(4) 0.7239(5)
C6 C 0.2020(2) 0.3899(4) 0.5506(6)
C7 C 0.1843(2) -0.0315(4) 0.4215(4)
H1 H 0.207(4) 0.272(6) 0.263(8)
H2 H 0.083(3) 0.464(7) 0.236(6)
H3 H 0.037(3) 0.291(5) 0.180(6)
H4 H -0.07300 0.321(5) 0.440(6)
H5 H -0.029(3) 0.489(6) 0.514(6)
H6 H -0.012(3) 0.282(5) 0.762(7)
H7 H 0.107(2) 0.487(5) 0.780(5)
H8 H 0.159(3) 0.314(7) 0.842(7)
H9 H 0.262(3) 0.346(6) 0.584(6)
H10 H 0.209(3) 0.508(6) 0.499(7)
#END
