
#######################################################################
#
#                 Cambridge Crystallographic Data Centre
#                                CCDC
#
#######################################################################
#
# If this CIF has been generated from an entry in the Cambridge
# Structural Database, then it will include bibliographic, chemical,
# crystal, experimental, refinement or atomic coordinate data resulting
# from the CCDC's data processing and validation procedures.
#
#######################################################################

data_CSD_CIF_FUDWAC
_audit_creation_date 2000-12-15
_audit_creation_method CSD-ConQuest-V1
_database_code_CSD FUDWAC
_database_code_depnum_ccdc_archive 'CCDC 138698'
_chemical_formula_sum 'C23 H20 N4 O1'
_chemical_formula_moiety
;
C23 H20 N4 O1
;
_journal_coden_Cambridge 180
_journal_volume 342
_journal_year 2000
_journal_page_first 245
_journal_name_full 'J.Prakt.Chem.-Chem.-Zeitung '
loop_
_publ_author_name
"J.Atzrodt"
"R.Beckert"
"H.Gorls"
_chemical_name_systematic
;
4-((E)-Oxido-p-tolylimino)-2-phenyl-5-(N-p-tolylamino)-4H-imidazole
;
_chemical_melting_point 479.15
_cell_volume   1891.382
_exptl_crystal_colour 'red'
_exptl_crystal_density_diffrn 1.294
_exptl_special_details
;
Melting point range 479.15-480.15K

;
_exptl_crystal_description 'prism'
_diffrn_ambient_temperature 183
#These two values have been output from a single CSD field.
_refine_ls_R_factor_gt 0.0516
_refine_ls_wR_factor_gt 0.0516
_symmetry_cell_setting monoclinic
_symmetry_space_group_name_H-M 'P 21/n'
_symmetry_Int_Tables_number 14
loop_
_symmetry_equiv_pos_site_id
_symmetry_equiv_pos_as_xyz
1 x,y,z
2 1/2+x,1/2-y,1/2+z
3 -x,-y,-z
4 -1/2-x,-1/2+y,-1/2-z
_cell_length_a 13.5101(5)
_cell_length_b 7.0572(3)
_cell_length_c 20.1236(6)
_cell_angle_alpha 90
_cell_angle_beta 99.672(2)
_cell_angle_gamma 90
_cell_formula_units_Z 4
loop_
_atom_type_symbol
_atom_type_radius_bond
C 0.68
H 0.23
N 0.68
O 0.68
loop_
_atom_site_label
_atom_site_type_symbol
_atom_site_fract_x
_atom_site_fract_y
_atom_site_fract_z
O1 O 0.56847(13) 0.1595(3) 0.85582(9)
N1 N 0.59534(14) 0.2965(3) 1.05652(9)
N2 N 0.73999(14) 0.2694(3) 1.00762(9)
N3 N 0.47276(14) 0.2208(3) 0.95833(10)
N4 N 0.65560(14) 0.1908(3) 0.8953(1)
C1 C 0.6992(2) 0.3061(3) 1.06245(11)
C2 C 0.5665(2) 0.2512(3) 0.99205(12)
C3 C 0.6569(2) 0.2345(3) 0.96009(11)
C4 C 0.7595(2) 0.3522(3) 1.12777(11)
C5 C 0.7136(2) 0.4310(3) 1.17877(12)
H1 H 0.6432(2) 0.4527(3) 1.17074(12)
C6 C 0.7694(2) 0.4775(4) 1.24071(12)
H2 H 0.7377(2) 0.5321(4) 1.27484(12)
C7 C 0.8723(2) 0.4435(4) 1.25258(13)
H3 H 0.9109(2) 0.4745(4) 1.29508(13)
C8 C 0.9186(2) 0.3647(4) 1.20274(13)
H4 H 0.9888(2) 0.3409(4) 1.21148(13)
C9 C 0.8636(2) 0.3203(4) 1.14034(12)
H5 H 0.8961(2) 0.2684(4) 1.10613(12)
C10 C 0.3803(2) 0.2288(3) 0.98329(12)
C11 C 0.2934(2) 0.1874(4) 0.93774(13)
H6 H 0.2978(2) 0.1572(4) 0.89232(13)
C12 C 0.2010(2) 0.1904(4) 0.95849(14)
H7 H 0.1424(2) 0.1611(4) 0.92698(14)
C13 C 0.1919(2) 0.2353(3) 1.02462(13)
C14 C 0.2793(2) 0.2788(3) 1.06911(13)
H8 H 0.2744(2) 0.3116(3) 1.11423(13)
C15 C 0.3735(2) 0.2762(3) 1.05005(12)
H9 H 0.4320(2) 0.3059(3) 1.08155(12)
C16 C 0.0905(2) 0.2356(4) 1.0475(2)
H10 H 0.0381(2) 0.2017(4) 1.0096(2)
H11 H 0.0769(2) 0.3622(4) 1.0639(2)
H12 H 0.0910(2) 0.1433(4) 1.0840(2)
C17 C 0.7432(2) 0.1720(3) 0.86309(11)
C18 C 0.8327(2) 0.2671(3) 0.88571(12)
H13 H 0.8401(2) 0.3423(3) 0.92540(12)
C19 C 0.9113(2) 0.2507(4) 0.84950(12)
H14 H 0.9720(2) 0.3177(4) 0.86430(12)
C20 C 0.9029(2) 0.1380(4) 0.79186(12)
C21 C 0.8130(2) 0.0437(4) 0.77097(12)
H15 H 0.8062(2) -0.0344(4) 0.73202(12)
C22 C 0.7327(2) 0.0607(4) 0.80561(12)
H16 H 0.6713(2) -0.0034(4) 0.79007(12)
C23 C 0.9881(2) 0.1229(4) 0.7513(2)
H17 H 1.0455(2) 0.1978(4) 0.7732(2)
H18 H 0.9654(2) 0.1711(4) 0.7056(2)
H19 H 1.0082(2) -0.0100(4) 0.7489(2)
H20 H 0.4716(21) 0.1911(45) 0.9030(16)
#END
