
#######################################################################
#
#                 Cambridge Crystallographic Data Centre
#                                CCDC
#
#######################################################################
#
# If this CIF has been generated from an entry in the Cambridge
# Structural Database, then it will include bibliographic, chemical,
# crystal, experimental, refinement or atomic coordinate data resulting
# from the CCDC's data processing and validation procedures.
#
#######################################################################

data_CSD_CIF_FUFWUZ
_audit_creation_date 2010-01-11
_audit_creation_method CSD-ConQuest-V1
_database_code_CSD FUFWUZ
_database_code_depnum_ccdc_archive 'CCDC 751057'
_database_code_depnum_ccdc_journal 1267/2635
_chemical_formula_sum 'C8 H7 N1 O3'
_chemical_formula_moiety
;
C8 H7 N1 O3
;
_journal_coden_Cambridge 1267
_journal_volume 224
_journal_year 2009
_journal_page_first 471
_journal_name_full 'Z.Kristallogr.-New Cryst.Struct. '
loop_
_publ_author_name
"Li-Tao An"
"Jian-Feng Zhou"
"Xiaojun Sun"
_chemical_name_systematic
;
(E)-4-(2-nitrovinyl)phenol
;
_chemical_melting_point 442.15
_cell_volume    760.119
_exptl_crystal_colour 'brown'
_exptl_crystal_density_diffrn 1.443
_exptl_special_details
;
Melting point range 442.15-443.15K

;
_exptl_crystal_description 'block'
_exptl_crystal_preparation 'acetone/petroleum ether'
_diffrn_ambient_temperature 296
#These two values have been output from a single CSD field.
_refine_ls_R_factor_gt 0.044
_refine_ls_wR_factor_gt 0.044
_symmetry_cell_setting monoclinic
_symmetry_space_group_name_H-M 'P 21/c'
_symmetry_Int_Tables_number 14
loop_
_symmetry_equiv_pos_site_id
_symmetry_equiv_pos_as_xyz
1 x,y,z
2 -x,1/2+y,1/2-z
3 -x,-y,-z
4 x,-1/2-y,-1/2+z
_cell_length_a 3.968(2)
_cell_length_b 10.900(6)
_cell_length_c 17.579(9)
_cell_angle_alpha 90
_cell_angle_beta 91.293(6)
_cell_angle_gamma 90
_cell_formula_units_Z 4
loop_
_atom_type_symbol
_atom_type_radius_bond
C 0.68
H 0.23
N 0.68
O 0.68
loop_
_atom_site_label
_atom_site_type_symbol
_atom_site_fract_x
_atom_site_fract_y
_atom_site_fract_z
C1 C 1.1304(4) 0.79850(17) 0.16292(10)
H1 H 1.15980 0.71450 0.15650
C2 C 0.9543(4) 0.86526(15) 0.10709(10)
C3 C 0.8067(4) 0.81054(18) 0.03948(10)
H2 H 0.68820 0.86350 0.00720
C4 C 1.2195(4) 0.97942(18) 0.23739(10)
C5 C 1.2609(4) 0.85444(17) 0.22698(10)
H3 H 1.37740 0.80830 0.26350
C6 C 1.0495(5) 1.04792(18) 0.18240(11)
H4 H 1.02400 1.13210 0.18870
C7 C 0.8185(5) 0.69482(19) 0.01769(11)
H5 H 0.92870 0.63720 0.04830
C8 C 0.9189(4) 0.99136(17) 0.11878(11)
H6 H 0.80360 1.03810 0.08240
O1 O 1.3426(4) 1.04049(14) 0.29944(9)
O2 O 0.4921(4) 0.72874(15) -0.09059(8)
O3 O 0.7087(5) 0.55086(15) -0.07349(9)
N1 N 0.6632(4) 0.65744(17) -0.05263(9)
H7 H 1.431(6) 0.991(2) 0.3304(13)
#END
