
#######################################################################
#
#                 Cambridge Crystallographic Data Centre
#                                CCDC
#
#######################################################################
#
# If this CIF has been generated from an entry in the Cambridge
# Structural Database, then it will include bibliographic, chemical,
# crystal, experimental, refinement or atomic coordinate data resulting
# from the CCDC's data processing and validation procedures.
#
#######################################################################

data_CSD_CIF_FUFXAG
_audit_creation_date 2010-01-11
_audit_creation_method CSD-ConQuest-V1
_database_code_CSD FUFXAG
_database_code_depnum_ccdc_archive 'CCDC 751007'
_database_code_depnum_ccdc_journal 1267/2667
_chemical_formula_sum 'C12 H13 N1 O4'
_chemical_formula_moiety
;
C12 H13 N1 O4
;
_journal_coden_Cambridge 1267
_journal_volume 224
_journal_year 2009
_journal_page_first 473
_journal_name_full 'Z.Kristallogr.-New Cryst.Struct. '
loop_
_publ_author_name
"Ping Liu"
"Lian Zhaoxun"
"Yuhuan Chen"
_chemical_name_systematic
;
(2S,3R)-2-(Hydroxy(3-nitrophenyl)methyl)cyclopentanone
;
_cell_volume   1118.857
_exptl_crystal_colour 'yellow'
_exptl_crystal_density_diffrn 1.396
_exptl_special_details
;
Absolute configuration

;
_exptl_crystal_description 'block'
_exptl_crystal_preparation 'ethyl acetate'
_diffrn_ambient_temperature 150
_diffrn_special_details
;
racemic twin

;
#These two values have been output from a single CSD field.
_refine_ls_R_factor_gt 0.054
_refine_ls_wR_factor_gt 0.054
_symmetry_cell_setting orthorhombic
_symmetry_space_group_name_H-M 'P 21 21 21'
_symmetry_Int_Tables_number 19
loop_
_symmetry_equiv_pos_site_id
_symmetry_equiv_pos_as_xyz
1 x,y,z
2 1/2-x,-y,1/2+z
3 -x,1/2+y,1/2-z
4 1/2+x,1/2-y,-z
_cell_length_a 5.3307(1)
_cell_length_b 7.0082(1)
_cell_length_c 29.9491(6)
_cell_angle_alpha 90
_cell_angle_beta 90
_cell_angle_gamma 90
_cell_formula_units_Z 4
loop_
_atom_type_symbol
_atom_type_radius_bond
C 0.68
H 0.23
N 0.68
O 0.68
loop_
_atom_site_label
_atom_site_type_symbol
_atom_site_fract_x
_atom_site_fract_y
_atom_site_fract_z
O1 O 0.9594(4) 1.0217(3) 0.10251(6)
H1 H 1.04710 1.00640 0.08030
O2 O 1.1872(4) 0.7815(3) 0.04011(7)
C1 C 0.5221(5) 1.0408(4) 0.14942(8)
H2 H 0.55690 1.13380 0.12810
O3 O -0.0044(5) 1.2563(4) 0.20241(8)
N1 N 0.1774(5) 1.2413(4) 0.17743(8)
O4 O 0.2359(5) 1.3631(3) 0.15033(9)
C2 C 0.7946(5) 0.7172(4) 0.07892(8)
H3 H 0.67040 0.78910 0.06160
C3 C 0.6107(6) 0.7408(4) 0.18472(9)
H4 H 0.70900 0.63160 0.18710
C4 C 0.4134(6) 0.7677(4) 0.21421(9)
H5 H 0.37810 0.67520 0.23560
C5 C 0.8768(5) 0.8409(4) 0.11854(8)
H6 H 1.01580 0.77780 0.13410
C6 C 0.3262(6) 1.0662(4) 0.17964(8)
C7 C 0.7307(6) 0.4077(4) 0.04569(9)
H7 H 0.72480 0.27140 0.05110
H8 H 0.60700 0.44020 0.02320
C8 C 1.0158(6) 0.6719(4) 0.04830(8)
C9 C 0.9918(6) 0.4697(4) 0.03132(10)
H9 H 1.11880 0.38820 0.04450
H10 H 1.00820 0.46540 -0.00090
C10 C 0.6855(6) 0.5204(4) 0.08896(8)
H11 H 0.50790 0.52870 0.09570
H12 H 0.77120 0.46130 0.11400
C11 C 0.2685(6) 0.9317(4) 0.21204(8)
H13 H 0.13610 0.95100 0.23180
C12 C 0.6648(6) 0.8752(4) 0.15138(8)
#END
