
#######################################################################
#
#                 Cambridge Crystallographic Data Centre
#                                CCDC
#
#######################################################################
#
# If this CIF has been generated from an entry in the Cambridge
# Structural Database, then it will include bibliographic, chemical,
# crystal, experimental, refinement or atomic coordinate data resulting
# from the CCDC's data processing and validation procedures.
#
#######################################################################

data_CSD_CIF_FUFXOT
_audit_creation_date 1988-08-15
_audit_creation_method CSD-ConQuest-V1
_database_code_CSD FUFXOT
_database_code_depnum_ccdc_archive 'CCDC 1160693'
_chemical_formula_sum 'C27 H21 N5 O8'
_chemical_formula_moiety
;
C27 H21 N5 O8
;
_journal_coden_Cambridge 82
_journal_volume 28
_journal_year 1987
_journal_page_first 122-4
_journal_name_full 'Zh.Strukt.Khim.(Russ.)(J.Struct.Chem.) '
loop_
_publ_author_name
"N.G.Furmanova"
_chemical_name_systematic
;
N-(2,4,6-Trinitrophenyl)-N,N'-di-p-anisylbenzamidine
;
_cell_volume   5071.131
_exptl_crystal_colour 'dark red'
_exptl_crystal_density_diffrn 1.42
_diffrn_ambient_temperature ?
_diffrn_special_details
;
The study was carried out at room temperature,in the range 283-303K

;
#These two values have been output from a single CSD field.
_refine_ls_R_factor_gt 0.062
_refine_ls_wR_factor_gt 0.062
_symmetry_cell_setting orthorhombic
_symmetry_space_group_name_H-M 'P b c n'
_symmetry_Int_Tables_number 60
loop_
_symmetry_equiv_pos_site_id
_symmetry_equiv_pos_as_xyz
1 x,y,z
2 1/2-x,1/2-y,1/2+z
3 1/2+x,1/2-y,-z
4 -x,y,1/2-z
5 -x,-y,-z
6 -1/2+x,-1/2+y,-1/2-z
7 -1/2-x,-1/2+y,z
8 x,-y,-1/2+z
_cell_length_a 17.866(4)
_cell_length_b 8.368(2)
_cell_length_c 33.920(7)
_cell_angle_alpha 90
_cell_angle_beta 90
_cell_angle_gamma 90
_cell_formula_units_Z 8
loop_
_atom_type_symbol
_atom_type_radius_bond
C 0.68
H 0.23
N 0.68
O 0.68
loop_
_atom_site_label
_atom_site_type_symbol
_atom_site_fract_x
_atom_site_fract_y
_atom_site_fract_z
O1 O 0.2462(5) 0.4829(7) 0.1946(2)
O2 O 0.6790(2) 0.1940(4) 0.4778(1)
O3 O 0.2660(2) 0.6159(6) 0.3807(1)
O4 O 0.3338(2) 0.4436(5) 0.4118(2)
O5 O 0.4095(2) 1.1611(5) 0.4855(1)
O6 O 0.2976(2) 1.1088(5) 0.4645(1)
O7 O 0.6182(2) 0.8950(6) 0.4236(1)
O8 O 0.5935(2) 0.7587(5) 0.3710(1)
N1 N 0.4191(2) 0.6062(5) 0.3281(1)
N2 N 0.4787(2) 0.5427(4) 0.3853(1)
N3 N 0.3204(3) 0.5763(6) 0.4000(2)
N4 N 0.3649(3) 1.0833(5) 0.4659(1)
N5 N 0.5761(2) 0.8181(5) 0.4023(1)
C1 C 0.4534(3) 0.4988(6) 0.3478(1)
C2 C 0.4688(3) 0.3310(6) 0.3351(2)
C3 C 0.4295(4) 0.2050(6) 0.3516(2)
C4 C 0.4431(5) 0.0487(8) 0.3376(2)
C5 C 0.4996(5) 0.0240(8) 0.3104(2)
C6 C 0.5377(4) 0.1473(9) 0.2940(2)
C7 C 0.5212(4) 0.3047(7) 0.3054(2)
C8 C 0.3784(3) 0.5696(6) 0.2934(2)
C9 C 0.3921(3) 0.6555(7) 0.2598(2)
C10 C 0.3489(4) 0.6293(8) 0.2251(2)
C11 C 0.2944(5) 0.5196(9) 0.2256(2)
C12 C 0.2801(4) 0.4304(9) 0.2591(2)
C13 C 0.3221(4) 0.4590(9) 0.2932(2)
C14 C 0.2305(4) 0.5811(9) 0.1678(2)
C15 C 0.5328(3) 0.4545(5) 0.4076(1)
C16 C 0.5159(3) 0.4158(5) 0.4471(1)
C17 C 0.5674(3) 0.3295(6) 0.4696(1)
C18 C 0.6345(3) 0.2803(5) 0.4535(1)
C19 C 0.6522(3) 0.3176(6) 0.4139(1)
C20 C 0.6014(3) 0.4061(6) 0.3915(1)
C21 C 0.7493(3) 0.1394(7) 0.4625(2)
C22 C 0.4501(3) 0.6837(5) 0.4025(1)
C23 C 0.3744(3) 0.7034(6) 0.4104(1)
C24 C 0.3454(3) 0.8347(6) 0.4298(1)
C25 C 0.3945(3) 0.9487(5) 0.4433(1)
C26 C 0.4697(3) 0.9402(5) 0.4366(1)
C27 C 0.4957(2) 0.8108(5) 0.4149(1)
H1 H 0.38900 0.22700 0.37600
H2 H 0.41000 -0.03300 0.35100
H3 H 0.50200 -0.12600 0.30300
H4 H 0.59200 0.13300 0.27400
H5 H 0.54900 0.39600 0.29400
H6 H 0.43500 0.73300 0.26100
H7 H 0.37500 0.70900 0.19800
H8 H 0.23900 0.34400 0.25900
H9 H 0.31100 0.39800 0.31900
H10 H 0.18500 0.52700 0.14800
H11 H 0.27700 0.61000 0.15200
H12 H 0.21200 0.68500 0.18000
H13 H 0.46600 0.45900 0.45800
H14 H 0.55400 0.30000 0.49800
H15 H 0.71100 0.30800 0.40700
H16 H 0.61600 0.43800 0.36800
H17 H 0.73700 0.04800 0.44900
H18 H 0.77800 0.07600 0.48500
H19 H 0.78300 0.21900 0.44800
H20 H 0.28900 0.83500 0.43400
H21 H 0.50900 1.03300 0.44500
#END
