
#######################################################################
#
#                 Cambridge Crystallographic Data Centre
#                                CCDC
#
#######################################################################
#
# If this CIF has been generated from an entry in the Cambridge
# Structural Database, then it will include bibliographic, chemical,
# crystal, experimental, refinement or atomic coordinate data resulting
# from the CCDC's data processing and validation procedures.
#
#######################################################################

data_CSD_CIF_FUHFAP
_audit_creation_date 1988-09-05
_audit_creation_method CSD-ConQuest-V1
_database_code_CSD FUHFAP
_chemical_formula_sum 'C2 H7 N1 O2'
_chemical_formula_moiety
;
C2 H7 N1 O2
;
_journal_coden_Cambridge 95
_journal_year 1986
_journal_page_first 2235
_journal_name_full 'Izv.Akad.Nauk SSSR,Ser.Khim.(Russ.)(Russ.Chem.Bull.) '
loop_
_publ_author_name
"M.Yu.Antipin"
"Yu.T.Struchkov"
"I.F.Shishkov"
"A.V.Golubinskii"
"T.L.El'fimova"
"L.V.Vilkov"
"A.A.Bredikhin"
"A.N.Vereshchagin"
"S.M.Ignatov"
"V.F.Rudchenko"
"R.G.Kostyanovskii"
_chemical_name_systematic
;
N,N-Dimethoxyamine
;
_cell_volume    426.730
_exptl_crystal_density_diffrn 1.2
_diffrn_ambient_temperature 153.15
#These two values have been output from a single CSD field.
_refine_ls_R_factor_gt 0.069
_refine_ls_wR_factor_gt 0.069
_symmetry_cell_setting monoclinic
_symmetry_space_group_name_H-M 'C 2/c'
_symmetry_Int_Tables_number 15
loop_
_symmetry_equiv_pos_site_id
_symmetry_equiv_pos_as_xyz
1 x,y,z
2 1/2+x,1/2+y,z
3 -x,y,1/2-z
4 1/2-x,1/2+y,1/2-z
5 -x,-y,-z
6 -1/2-x,-1/2-y,-z
7 x,-y,-1/2+z
8 -1/2+x,-1/2-y,-1/2+z
_cell_length_a 12.638(6)
_cell_length_b 7.098(3)
_cell_length_c 5.063(2)
_cell_angle_alpha 90
_cell_angle_beta 110.02(2)
_cell_angle_gamma 90
_cell_formula_units_Z 4
loop_
_atom_type_symbol
_atom_type_radius_bond
C 0.68
H 0.23
N 0.68
O 0.68
loop_
_atom_site_label
_atom_site_type_symbol
_atom_site_fract_x
_atom_site_fract_y
_atom_site_fract_z
N1 N 0.00000 0.3828(3) 0.25000
O1 O -0.0943(2) 0.2705(3) 0.1378(3)
C1 C -0.1342(3) 0.1968(4) 0.3480(6)
H1 H -0.147(2) 0.302(4) 0.448(6)
H2 H -0.200(3) 0.116(5) 0.254(7)
H3 H -0.077(3) 0.135(4) 0.499(7)
O1B O 0.0943(2) 0.2705(3) 0.3622(3)
C1B C 0.1342(3) 0.1968(4) 0.1520(6)
H1B H 0.147(2) 0.302(4) 0.052(6)
H2B H 0.200(3) 0.116(5) 0.246(7)
H3B H 0.077(3) 0.135(4) 0.001(7)
#END
