
#######################################################################
#
#                 Cambridge Crystallographic Data Centre
#                                CCDC
#
#######################################################################
#
# If this CIF has been generated from an entry in the Cambridge
# Structural Database, then it will include bibliographic, chemical,
# crystal, experimental, refinement or atomic coordinate data resulting
# from the CCDC's data processing and validation procedures.
#
#######################################################################

data_CSD_CIF_FUHNEC
_audit_creation_date 2010-01-11
_audit_creation_method CSD-ConQuest-V1
_database_code_CSD FUHNEC
_database_code_depnum_ccdc_archive 'CCDC 754470'
_chemical_formula_sum 'C28 H27 N1 O2'
_chemical_formula_moiety
;
C28 H27 N1 O2
;
_journal_coeditor_code "IUCr LX2119"
_journal_coden_Cambridge 1370
_journal_volume 65
_journal_year 2009
_journal_page_first o2930
_journal_name_full 'Acta Crystallogr.,Sect.E:Struct.Rep.Online '
loop_
_publ_author_name
"Yan Wang"
"Jin-Long Wu"
_chemical_name_systematic
;
(1S*,4aR*,5S*,6S*,8aR*)-3-benzyl-1-methyl-5,6-diphenyl-3,4,4a,5,6,8a-hexahydro
-1H-2,3-benzoxazin-4-one
;
_chemical_melting_point 464
_cell_volume   1119.351
_exptl_crystal_colour 'colorless'
_exptl_crystal_density_diffrn 1.215
_exptl_special_details
;
Melting point range 464-466K

;
_exptl_crystal_description 'block'
_exptl_crystal_preparation 'ethyl acetate/hexane'
_diffrn_ambient_temperature 296
#These two values have been output from a single CSD field.
_refine_ls_R_factor_gt 0.0406
_refine_ls_wR_factor_gt 0.0406
_symmetry_cell_setting triclinic
_symmetry_space_group_name_H-M 'P -1'
_symmetry_Int_Tables_number 2
loop_
_symmetry_equiv_pos_site_id
_symmetry_equiv_pos_as_xyz
1 x,y,z
2 -x,-y,-z
_cell_length_a 7.9721(5)
_cell_length_b 11.0649(7)
_cell_length_c 13.578(1)
_cell_angle_alpha 78.168(2)
_cell_angle_beta 73.178(2)
_cell_angle_gamma 82.819(1)
_cell_formula_units_Z 2
loop_
_atom_type_symbol
_atom_type_radius_bond
C 0.68
H 0.23
N 0.68
O 0.68
loop_
_atom_site_label
_atom_site_type_symbol
_atom_site_fract_x
_atom_site_fract_y
_atom_site_fract_z
O1 O 0.31521(17) 0.51064(13) 0.10452(11)
O2 O 0.52969(18) 0.30895(13) 0.27091(11)
N1 N 0.4262(2) 0.34429(15) 0.19925(14)
C1 C 0.4170(2) 0.46717(18) 0.15722(14)
C2 C 0.5572(2) 0.53344(17) 0.17483(14)
H1 H 0.53230 0.53270 0.25000
C3 C 0.5745(2) 0.66685(17) 0.11789(14)
H2 H 0.61240 0.66400 0.04290
C4 C 0.7261(2) 0.72170(18) 0.14317(15)
H3 H 0.75630 0.79670 0.09090
C5 C 0.8884(2) 0.6345(2) 0.12960(15)
H4 H 0.99520 0.66670 0.12070
C6 C 0.8889(2) 0.5157(2) 0.12950(15)
H5 H 0.99530 0.46850 0.12220
C7 C 0.7277(2) 0.45197(17) 0.14044(15)
H6 H 0.73380 0.43510 0.07140
C8 C 0.7139(3) 0.32775(19) 0.21604(17)
H7 H 0.77410 0.33270 0.26850
C9 C 0.2941(3) 0.2601(2) 0.21231(18)
H8 H 0.35040 0.17720 0.21200
H9 H 0.24610 0.28170 0.15250
C10 C 0.1442(3) 0.2581(2) 0.31043(16)
C11 C 0.0603(3) 0.1503(2) 0.3554(2)
H10 H 0.10290 0.07820 0.32860
C12 C -0.0877(4) 0.1488(3) 0.4408(2)
H11 H -0.14520 0.07630 0.46940
C13 C -0.1489(4) 0.2533(4) 0.4827(2)
H12 H -0.24690 0.25190 0.54020
C14 C -0.0652(3) 0.3601(3) 0.4396(2)
H13 H -0.10600 0.43120 0.46830
C15 C 0.0799(3) 0.3628(2) 0.35354(18)
H14 H 0.13470 0.43620 0.32430
C16 C 0.4076(2) 0.75084(17) 0.13603(15)
C17 C 0.2782(3) 0.7394(2) 0.23037(17)
H15 H 0.29190 0.67630 0.28500
C18 C 0.1290(3) 0.8199(2) 0.2451(2)
H16 H 0.04390 0.81070 0.30910
C19 C 0.1071(3) 0.9132(2) 0.1653(2)
H17 H 0.00680 0.96720 0.17480
C20 C 0.2332(4) 0.9266(2) 0.0717(2)
H18 H 0.21870 0.99010 0.01750
C21 C 0.3824(3) 0.8461(2) 0.05714(19)
H19 H 0.46720 0.85640 -0.00690
C22 C 0.6757(3) 0.7609(2) 0.24998(17)
C23 C 0.6937(3) 0.6795(2) 0.33864(18)
H20 H 0.73400 0.59770 0.33410
C24 C 0.6525(4) 0.7179(3) 0.4344(2)
H21 H 0.66390 0.66170 0.49360
C25 C 0.5950(4) 0.8386(4) 0.4419(3)
H22 H 0.56970 0.86490 0.50580
C26 C 0.5751(4) 0.9202(3) 0.3550(3)
H23 H 0.53460 1.00190 0.36000
C27 C 0.6148(3) 0.8819(2) 0.2602(2)
H24 H 0.60060 0.93830 0.20170
C28 C 0.8005(3) 0.2201(2) 0.1641(2)
H25 H 0.79150 0.14570 0.21560
H26 H 0.92210 0.23360 0.13080
H27 H 0.74340 0.21210 0.11270
#END
