
#######################################################################
#
#                 Cambridge Crystallographic Data Centre
#                                CCDC
#
#######################################################################
#
# If this CIF has been generated from an entry in the Cambridge
# Structural Database, then it will include bibliographic, chemical,
# crystal, experimental, refinement or atomic coordinate data resulting
# from the CCDC's data processing and validation procedures.
#
#######################################################################

data_CSD_CIF_FUHTIL
_audit_creation_date 1988-06-09
_audit_creation_method CSD-ConQuest-V1
_database_code_CSD FUHTIL
_database_code_depnum_ccdc_archive 'CCDC 1160867'
_chemical_formula_sum 'C25 H24 N2 O4'
_chemical_formula_moiety
;
C25 H24 N2 O4
;
_journal_coden_Cambridge 25
_journal_year 1987
_journal_page_first 325
_journal_name_full 'Bull.Soc.Chim.Fr. '
loop_
_publ_author_name
"H.Benhaoua"
"J.-C.Piet"
"R.Danion-Bougot"
"L.Toupet"
"R.Carrie"
_chemical_name_systematic
;
2-Ethoxycarbonyl-4-nitro-1,3,5-triphenylpyrrolidine
;
_chemical_melting_point 405.15
_cell_volume   2130.612
_diffrn_ambient_temperature ?
_diffrn_special_details
;
The study was carried out at room temperature,in the range 283-303K

;
#These two values have been output from a single CSD field.
_refine_ls_R_factor_gt 0.061
_refine_ls_wR_factor_gt 0.061
loop_
_citation_database_id_CSD
_citation_special_details
FUHTEH "is a stereoisomer of this entry"
_symmetry_cell_setting monoclinic
_symmetry_space_group_name_H-M 'P 21/c'
_symmetry_Int_Tables_number 14
loop_
_symmetry_equiv_pos_site_id
_symmetry_equiv_pos_as_xyz
1 x,y,z
2 -x,1/2+y,1/2-z
3 -x,-y,-z
4 x,-1/2-y,-1/2+z
_cell_length_a 9.670(3)
_cell_length_b 9.643(3)
_cell_length_c 23.807(4)
_cell_angle_alpha 90
_cell_angle_beta 106.31(3)
_cell_angle_gamma 90
_cell_formula_units_Z 4
loop_
_atom_type_symbol
_atom_type_radius_bond
C 0.68
H 0.23
N 0.68
O 0.68
loop_
_atom_site_label
_atom_site_type_symbol
_atom_site_fract_x
_atom_site_fract_y
_atom_site_fract_z
O1 O 0.0756(3) 0.0716(3) 0.3756(1)
O2 O 0.0281(3) 0.2778(3) 0.4103(1)
O3 O 0.3591(4) -0.1127(3) 0.4274(1)
O4 O 0.3273(3) 0.0390(4) 0.4889(1)
N1 N 0.2647(3) 0.2000(3) 0.3217(1)
N2 N 0.3574(3) 0.0056(4) 0.4448(1)
C1 C 0.2205(4) 0.2700(4) 0.3683(2)
C2 C 0.3564(4) 0.2632(4) 0.4199(1)
C3 C 0.4154(4) 0.1194(4) 0.4117(2)
C4 C 0.3703(4) 0.0912(4) 0.3456(2)
C5 C 0.0976(4) 0.1925(4) 0.3837(2)
C6 C -0.0835(4) 0.2138(6) 0.4334(2)
C7 C -0.0327(5) 0.2023(7) 0.4963(2)
C8 C 0.4685(4) 0.3753(4) 0.4204(2)
C9 C 0.5868(4) 0.3857(4) 0.4690(2)
C10 C 0.6880(4) 0.4871(5) 0.4722(2)
C11 C 0.6734(5) 0.5804(5) 0.4275(2)
C12 C 0.5595(5) 0.5689(5) 0.3792(2)
C13 C 0.4567(5) 0.4687(5) 0.3756(2)
C14 C 0.5013(3) 0.0881(4) 0.3218(2)
C15 C 0.5881(4) -0.0270(4) 0.3337(2)
C16 C 0.7120(4) -0.0353(5) 0.3149(2)
C17 C 0.7447(4) 0.0699(5) 0.2823(2)
C18 C 0.6586(4) 0.1843(5) 0.2702(2)
C19 C 0.5335(4) 0.1939(4) 0.2893(2)
C20 C 0.1656(3) 0.1845(4) 0.2669(1)
C21 C 0.1846(4) 0.0823(4) 0.2272(2)
C22 C 0.0896(5) 0.0737(5) 0.1725(2)
C23 C -0.0290(5) 0.1582(5) 0.1551(2)
C24 C -0.0473(4) 0.2585(5) 0.1935(2)
C25 C 0.0444(4) 0.2698(5) 0.2480(2)
H1 H 0.195(3) 0.364(4) 0.360(1)
H2 H 0.344(3) 0.256(4) 0.461(1)
H3 H 0.523(3) 0.110(4) 0.429(1)
H4 H 0.319(3) -0.012(4) 0.341(1)
H5 H -0.091(4) 0.127(4) 0.415(2)
H6 H -0.156(4) 0.263(4) 0.417(1)
H7 H -0.008(3) 0.283(4) 0.509(1)
H8 H 0.060(3) 0.150(4) 0.508(1)
H9 H -0.109(4) 0.156(4) 0.511(2)
H10 H 0.614(4) 0.321(4) 0.502(2)
H11 H 0.765(3) 0.488(4) 0.505(1)
H12 H 0.750(3) 0.647(4) 0.434(1)
H13 H 0.547(3) 0.630(4) 0.353(1)
H14 H 0.377(4) 0.471(4) 0.341(1)
H15 H 0.5654(3) -0.098(4) 0.355(1)
H16 H 0.754(3) -0.116(4) 0.321(1)
H17 H 0.830(3) 0.072(4) 0.268(1)
H18 H 0.679(4) 0.257(4) 0.247(2)
H19 H 0.490(3) 0.267(4) 0.285(1)
H20 H 0.269(3) 0.035(4) 0.237(1)
H21 H 0.102(4) 0.002(4) 0.148(1)
H22 H -0.096(4) 0.153(4) 0.118(2)
H23 H -0.128(4) 0.320(4) 0.180(2)
H24 H 0.029(3) 0.341(4) 0.273(1)
#END
