
#######################################################################
#
#                 Cambridge Crystallographic Data Centre
#                                CCDC
#
#######################################################################
#
# If this CIF has been generated from an entry in the Cambridge
# Structural Database, then it will include bibliographic, chemical,
# crystal, experimental, refinement or atomic coordinate data resulting
# from the CCDC's data processing and validation procedures.
#
#######################################################################

data_CSD_CIF_FUJSOS
_audit_creation_date 1988-07-18
_audit_creation_method CSD-ConQuest-V1
_database_code_CSD FUJSOS
_database_code_depnum_ccdc_archive 'CCDC 1160974'
_chemical_formula_sum 'C6 H10 N4 O7'
_chemical_formula_moiety
;
C6 H10 N4 O7
;
_journal_coeditor_code "IUCr A27512"
_journal_coden_Cambridge 591
_journal_volume 43
_journal_year 1987
_journal_page_first 2022
_journal_name_full 'Acta Crystallogr.,Sect.C:Cryst.Struct.Commun. '
loop_
_publ_author_name
"J.L.Flippen-Anderson"
"R.Gilardi"
"C.George"
_chemical_name_systematic
;
6-Hydroxy-2,5-dinitro-2,5-diazacyclohexyl acetate
;
_cell_volume   1007.738
_exptl_crystal_colour 'colorless'
_exptl_crystal_density_diffrn 1.65
_diffrn_ambient_temperature ?
_diffrn_special_details
;
The study was carried out at room temperature,in the range 283-303K

;
#These two values have been output from a single CSD field.
_refine_ls_R_factor_gt 0.028
_refine_ls_wR_factor_gt 0.028
_symmetry_cell_setting monoclinic
_symmetry_space_group_name_H-M 'P 21/c'
_symmetry_Int_Tables_number 14
loop_
_symmetry_equiv_pos_site_id
_symmetry_equiv_pos_as_xyz
1 x,y,z
2 -x,1/2+y,1/2-z
3 -x,-y,-z
4 x,-1/2-y,-1/2+z
_cell_length_a 13.588(2)
_cell_length_b 7.276(1)
_cell_length_c 10.830(1)
_cell_angle_alpha 90
_cell_angle_beta 109.75(1)
_cell_angle_gamma 90
_cell_formula_units_Z 4
loop_
_atom_type_symbol
_atom_type_radius_bond
C 0.68
H 0.23
N 0.68
O 0.68
loop_
_atom_site_label
_atom_site_type_symbol
_atom_site_fract_x
_atom_site_fract_y
_atom_site_fract_z
N1 N 0.1914(1) 0.5908(2) 0.1245(2)
C1 C 0.2921(2) 0.5032(3) 0.1756(2)
C2 C 0.2780(2) 0.2971(3) 0.1918(2)
N2 N 0.2028(1) 0.2696(2) 0.2602(2)
C3 C 0.1007(2) 0.3583(3) 0.2048(3)
C4 C 0.1170(2) 0.5613(3) 0.1934(2)
N3 N 0.1915(1) 0.7648(3) 0.0732(2)
O1 O 0.2713(1) 0.8161(2) 0.0545(2)
O2 O 0.1110(1) 0.8544(2) 0.0469(2)
O3 O 0.3471(1) 0.5819(2) 0.3019(1)
C5 C 0.4481(2) 0.6338(3) 0.3239(2)
O4 O 0.4937(1) 0.5970(3) 0.2507(2)
C6 C 0.4899(2) 0.7396(4) 0.4488(2)
O5 O 0.2431(1) 0.2238(2) 0.0645(1)
N4 N 0.2000(1) 0.0920(3) 0.3056(2)
O6 O 0.1201(1) 0.0413(2) 0.3227(2)
O7 O 0.2796(1) 0.0004(2) 0.3293(2)
H1 H 0.334(2) 0.524(4) 0.116(2)
H2 H 0.345(2) 0.245(4) 0.247(2)
H3 H 0.066(2) 0.303(4) 0.122(3)
H4 H 0.062(2) 0.333(4) 0.267(3)
H5 H 0.051(2) 0.618(4) 0.143(3)
H6 H 0.147(2) 0.612(4) 0.285(3)
H7 H 0.455(2) 0.709(4) 0.506(3)
H8 H 0.566(2) 0.722(4) 0.482(3)
H9 H 0.480(2) 0.866(4) 0.422(2)
H10 H 0.260(2) 0.109(4) 0.066(3)
#END
