
#######################################################################
#
#                 Cambridge Crystallographic Data Centre
#                                CCDC
#
#######################################################################
#
# If this CIF has been generated from an entry in the Cambridge
# Structural Database, then it will include bibliographic, chemical,
# crystal, experimental, refinement or atomic coordinate data resulting
# from the CCDC's data processing and validation procedures.
#
#######################################################################

data_CSD_CIF_FUJTEJ
_audit_creation_date 1988-07-18
_audit_creation_method CSD-ConQuest-V1
_database_code_CSD FUJTEJ
_database_code_depnum_ccdc_archive 'CCDC 1160977'
_chemical_formula_sum 'C16 H17 N1 O4'
_chemical_formula_moiety
;
C16 H17 N1 O4
;
_journal_coeditor_code "IUCr A27509"
_journal_coden_Cambridge 591
_journal_volume 43
_journal_year 1987
_journal_page_first 2017
_journal_name_full 'Acta Crystallogr.,Sect.C:Cryst.Struct.Commun. '
loop_
_publ_author_name
"M.J.Heeg"
_chemical_name_systematic
;
6-Acetoxyimino-2-phenyl-1-cyclohexenyl acetate
;
_cell_volume   1510.392
_exptl_crystal_colour 'colorless'
_exptl_crystal_density_diffrn 1.263
_diffrn_ambient_temperature ?
_diffrn_special_details
;
The study was carried out at room temperature,in the range 283-303K

;
#These two values have been output from a single CSD field.
_refine_ls_R_factor_gt 0.034
_refine_ls_wR_factor_gt 0.034
_symmetry_cell_setting monoclinic
_symmetry_space_group_name_H-M 'P 21/c'
_symmetry_Int_Tables_number 14
loop_
_symmetry_equiv_pos_site_id
_symmetry_equiv_pos_as_xyz
1 x,y,z
2 -x,1/2+y,1/2-z
3 -x,-y,-z
4 x,-1/2-y,-1/2+z
_cell_length_a 7.9709(9)
_cell_length_b 10.7235(11)
_cell_length_c 17.9983(15)
_cell_angle_alpha 90
_cell_angle_beta 100.954(7)
_cell_angle_gamma 90
_cell_formula_units_Z 4
loop_
_atom_type_symbol
_atom_type_radius_bond
C 0.68
H 0.23
N 0.68
O 0.68
loop_
_atom_site_label
_atom_site_type_symbol
_atom_site_fract_x
_atom_site_fract_y
_atom_site_fract_z
C1 C 0.2336(3) 0.0974(3) 0.75462(16)
C2 C 0.1596(5) 0.0553(3) 0.67645(17)
C3 C 0.0557(5) -0.0633(3) 0.67606(19)
C4 C 0.1511(4) -0.1624(3) 0.72719(17)
C5 C 0.2135(3) -0.1147(3) 0.80651(15)
C6 C 0.2487(3) 0.0078(3) 0.81631(15)
C7 C 0.3433(4) 0.4011(3) 0.72657(21)
C8 C 0.2916(7) 0.4861(5) 0.6606(3)
C9 C 0.2303(4) 0.1342(3) 0.92127(16)
C10 C 0.3442(7) 0.2056(5) 0.9826(3)
C11 C 0.2343(3) -0.2052(3) 0.86958(15)
C12 C 0.3150(4) -0.3186(3) 0.86276(18)
C13 C 0.3307(4) -0.4070(3) 0.91936(20)
C14 C 0.2631(5) -0.3853(3) 0.98290(22)
C15 C 0.1819(5) -0.2730(4) 0.99007(21)
C16 C 0.1679(4) -0.1840(3) 0.93383(18)
N1 N 0.2924(3) 0.20670(23) 0.77504(12)
O1 O 0.26585(24) 0.28665(18) 0.71006(11)
O2 O 0.4365(3) 0.42384(19) 0.78464(13)
O3 O 0.32579(22) 0.05303(16) 0.88769(10)
O4 O 0.0799(3) 0.14423(19) 0.90185(11)
H1 H 0.257(4) 0.034(2) 0.6503(14)
H2 H 0.093(3) 0.122(2) 0.6484(13)
H3 H 0.018(3) -0.098(2) 0.6203(14)
H4 H -0.051(4) -0.042(2) 0.6952(14)
H5 H 0.254(4) -0.194(2) 0.701(2)
H6 H 0.076(3) -0.245(2) 0.7267(14)
H7 H 0.356(5) 0.556(4) 0.670(2)
H8 H 0.184(6) 0.513(4) 0.659(3)
H9 H 0.262(6) 0.443(4) 0.609(2)
H10 H 0.275(4) 0.244(3) 1.010(2)
H11 H 0.419(5) 0.146(3) 1.014(2)
H12 H 0.385(6) 0.278(4) 0.951(2)
H13 H 0.359(3) -0.331(2) 0.8184(13)
H14 H 0.380(4) -0.490(3) 0.910(2)
H15 H 0.281(4) -0.451(2) 1.0247(15)
H16 H 0.137(3) -0.259(2) 1.035(2)
H17 H 0.105(3) -0.100(2) 0.9397(13)
#END
