
#######################################################################
#
#                 Cambridge Crystallographic Data Centre
#                                CCDC
#
#######################################################################
#
# If this CIF has been generated from an entry in the Cambridge
# Structural Database, then it will include bibliographic, chemical,
# crystal, experimental, refinement or atomic coordinate data resulting
# from the CCDC's data processing and validation procedures.
#
#######################################################################

data_CSD_CIF_FULJEB
_audit_creation_date 1988-08-15
_audit_creation_method CSD-ConQuest-V1
_database_code_CSD FULJEB
_chemical_formula_sum 'C17 H25 N1 O8'
_chemical_formula_moiety
;
C17 H25 N1 O8
;
_journal_coden_Cambridge 10
_journal_volume 71
_journal_year 1988
_journal_page_first 1
_journal_name_full 'Helv.Chim.Acta '
loop_
_publ_author_name
"M.Eberle"
"M.Egli"
"D.Seebach"
_chemical_name_systematic
;
((2R,3R,4S)-4-Acetoxy-3-nitropentan-2-yl)-camphanoate
;
_chemical_melting_point 412.15
_cell_volume    960.285
_exptl_crystal_density_diffrn 1.28
_exptl_special_details
;
Melts with decomposition.
Cell parameter b given as 9.941 in the paper and 9.914 in the supplementary 
data; the latter is believed to be correct
;
_diffrn_ambient_temperature ?
_diffrn_special_details
;
The study was carried out at room temperature,in the range 283-303K

;
#These two values have been output from a single CSD field.
_refine_ls_R_factor_gt 0.041
_refine_ls_wR_factor_gt 0.041
_symmetry_cell_setting monoclinic
_symmetry_space_group_name_H-M 'P 21'
_symmetry_Int_Tables_number 4
loop_
_symmetry_equiv_pos_site_id
_symmetry_equiv_pos_as_xyz
1 x,y,z
2 -x,1/2+y,-z
_cell_length_a 9.638(2)
_cell_length_b 9.914(2)
_cell_length_c 10.540(2)
_cell_angle_alpha 90
_cell_angle_beta 107.54(2)
_cell_angle_gamma 90
_cell_formula_units_Z 2
loop_
_atom_type_symbol
_atom_type_radius_bond
C 0.68
H 0.23
N 0.68
O 0.68
loop_
_atom_site_label
_atom_site_type_symbol
_atom_site_fract_x
_atom_site_fract_y
_atom_site_fract_z
N1 N 0.4617(6) 0.3411(7) 0.6853(6)
O1 O 0.2919(3) 0.3446(5) 0.8487(4)
O2 O 0.0657(5) 0.2611(6) 0.7762(6)
O3 O 0.2190(4) 0.5833(5) 0.8881(4)
O4 O 0.5008(4) 0.03610 0.71013(4)
O5 O 0.2476(5) 0.8066(6) 0.8948(5)
O6 O 0.5321(6) 0.4444(6) 0.6936(6)
O7 O 0.3667(5) 0.3044(7) 0.5870(5)
O8 O 0.6577(5) -0.1236(6) 0.8173(5)
C1 C 0.1477(6) 0.3526(7) 0.8150(6)
C2 C 0.5932(6) 0.1361(6) 0.7974(6)
C3 C -0.0090(7) 0.5120(7) 0.9094(6)
C4 C 0.4966(5) 0.2534(6) 0.8104(5)
C5 C 0.1716(6) 0.7124(7) 0.8549(5)
C6 C 0.0952(5) 0.4945(6) 0.8259(5)
C7 C 0.0213(6) 0.5697(7) 0.6927(5)
C8 C 0.1188(6) 0.5782(8) 0.6021(6)
C9 C 0.3549(5) 0.2139(6) 0.8346(5)
C10 C 0.3785(7) 0.1309(7) 0.9605(6)
C11 C 0.5487(7) -0.0932(7) 0.7345(7)
C12 C 0.0133(5) 0.7021(7) 0.7693(5)
C13 C -0.0655(6) 0.6575(7) 0.8716(6)
C14 C -0.1274(6) 0.5124(8) 0.6133(6)
C15 C -0.0421(7) 0.8309(7) 0.6901(6)
C16 C 0.7180(6) 0.1736(8) 0.7436(7)
C17 C 0.4428(8) -0.1863(8) 0.6404(7)
H1 H 0.6433(6) 0.0971(6) 0.8963(6)
H2 H -0.0972(7) 0.4403(7) 0.8805(6)
H3 H 0.0470(7) 0.5016(7) 1.0144(6)
H4 H 0.5596(5) 0.3090(6) 0.8967(5)
H5 H 0.2239(6) 0.6183(8) 0.6572(6)
H6 H 0.0683(6) 0.6439(8) 0.5194(6)
H7 H 0.1324(6) 0.4789(8) 0.5653(6)
H8 H 0.2876(5) 0.1508(6) 0.7565(5)
H9 H 0.4241(7) 0.0339(7) 0.9489(6)
H10 H 0.2764(7) 0.1167(7) 0.9813(6)
H11 H 0.4532(7) 0.1848(7) 1.0418(6)
H12 H -0.1824(6) 0.6600(7) 0.8287(6)
H13 H -0.0339(6) 0.7217(7) 0.9583(6)
H14 H -0.1948(6) 0.5061(8) 0.6784(6)
H15 H -0.1143(6) 0.4130(8) 0.5765(6)
H16 H -0.1874(6) 0.5780(8) 0.5305(6)
H17 H -0.1542(7) 0.8174(7) 0.6311(6)
H18 H 0.0233(7) 0.8520(7) 0.6254(6)
H19 H -0.0344(7) 0.9141(7) 0.7580(6)
H20 H 0.7872(6) 0.2467(8) 0.8088(7)
H21 H 0.6747(6) 0.2164(8) 0.6453(7)
H22 H 0.7806(6) 0.0846(8) 0.7385(7)
H23 H 0.4779(8) -0.2899(8) 0.6592(7)
H24 H 0.4367(8) -0.1597(8) 0.5396(7)
H25 H 0.3368(8) -0.1747(8) 0.6542(7)
#END
