
#######################################################################
#
#                 Cambridge Crystallographic Data Centre
#                                CCDC
#
#######################################################################
#
# If this CIF has been generated from an entry in the Cambridge
# Structural Database, then it will include bibliographic, chemical,
# crystal, experimental, refinement or atomic coordinate data resulting
# from the CCDC's data processing and validation procedures.
#
#######################################################################

data_CSD_CIF_FULJOL
_audit_creation_date 1988-08-15
_audit_creation_method CSD-ConQuest-V1
_database_code_CSD FULJOL
_chemical_formula_sum 'C19 H27 N1 O8'
_chemical_formula_moiety
;
C19 H27 N1 O8
;
_journal_coden_Cambridge 10
_journal_volume 71
_journal_year 1988
_journal_page_first 1
_journal_name_full 'Helv.Chim.Acta '
loop_
_publ_author_name
"M.Eberle"
"M.Egli"
"D.Seebach"
_chemical_name_systematic
;
((1R,2R,3S)-3-Acetoxy-2-methyl-2-nitrocyclohexyl)-camphanoate
;
_chemical_melting_point 443.15
_cell_volume   2068.312
_exptl_crystal_density_diffrn 1.28
_exptl_special_details
;
Melts with decomposition.
In bond table, C(16)-O(27) should be C(16)-C(27)

;
_diffrn_ambient_temperature ?
_diffrn_special_details
;
The study was carried out at room temperature,in the range 283-303K

;
#These two values have been output from a single CSD field.
_refine_ls_R_factor_gt 0.054
_refine_ls_wR_factor_gt 0.054
_symmetry_cell_setting orthorhombic
_symmetry_space_group_name_H-M 'P 21 21 21'
_symmetry_Int_Tables_number 19
loop_
_symmetry_equiv_pos_site_id
_symmetry_equiv_pos_as_xyz
1 x,y,z
2 1/2+x,1/2-y,-z
3 -x,1/2+y,1/2-z
4 1/2-x,-y,1/2+z
_cell_length_a 7.228(4)
_cell_length_b 10.642(4)
_cell_length_c 26.889(12)
_cell_angle_alpha 90
_cell_angle_beta 90
_cell_angle_gamma 90
_cell_formula_units_Z 4
loop_
_atom_type_symbol
_atom_type_radius_bond
C 0.68
H 0.23
N 0.68
O 0.68
loop_
_atom_site_label
_atom_site_type_symbol
_atom_site_fract_x
_atom_site_fract_y
_atom_site_fract_z
N1 N 0.950(1) 0.2435(9) 0.2975(3)
O1 O 0.7195(7) 0.3509(5) 0.2218(2)
O2 O 0.498(1) 0.2226(8) 0.1922(2)
O3 O 0.7029(8) 0.1985(5) 0.1067(2)
O4 O 0.9203(8) 0.3775(5) 0.3896(2)
O5 O 0.718(1) 0.1634(6) 0.0249(2)
O6 O 0.887(1) 0.1415(6) 0.3065(3)
O7 O 1.100(1) 0.2629(8) 0.2806(3)
O8 O 0.855(1) 0.2191(8) 0.4405(3)
C1 C 0.636(1) 0.2856(8) 0.1864(3)
C2 C 0.759(1) 0.3515(8) 0.3601(2)
C3 C 0.936(1) 0.339(1) 0.1357(3)
C4 C 0.821(1) 0.3608(7) 0.3054(2)
C5 C 0.726(1) 0.2356(8) 0.0579(3)
C6 C 0.728(1) 0.3130(7) 0.1367(2)
C7 C 0.640(1) 0.4153(8) 0.1039(3)
C8 C 0.431(1) 0.397(1) 0.0942(3)
C9 C 0.650(1) 0.3371(8) 0.2722(2)
C10 C 0.495(1) 0.4313(8) 0.2827(3)
C11 C 0.954(2) 0.303(1) 0.4297(3)
C12 C 0.762(1) 0.3757(8) 0.0590(2)
C13 C 0.962(1) 0.3837(9) 0.0807(2)
C14 C 0.670(1) 0.5488(7) 0.1233(3)
C15 C 0.736(1) 0.4408(9) 0.0090(3)
C16 C 0.439(1) 0.422(1) 0.3375(3)
C17 C 0.604(1) 0.4456(9) 0.3721(3)
C18 C 1.130(1) 0.343(1) 0.4545(3)
C19 C 0.922(1) 0.4842(8) 0.2936(3)
H1 H 0.701(1) 0.2598(8) 0.3674(2)
H2 H 0.971(1) 0.413(1) 0.1615(3)
H3 H 1.018(1) 0.257(1) 0.1438(3)
H4 H 0.409(1) 0.303(1) 0.0802(3)
H5 H 0.386(1) 0.465(1) 0.0668(3)
H6 H 0.354(1) 0.410(1) 0.1281(3)
H7 H 0.585(1) 0.2472(8) 0.2792(2)
H8 H 0.549(1) 0.5245(8) 0.2761(3)
H9 H 0.379(1) 0.4145(8) 0.2585(3)
H10 H 1.056(1) 0.3223(9) 0.0609(2)
H11 H 1.013(1) 0.4791(9) 0.0787(2)
H12 H 0.815(1) 0.5638(7) 0.1309(3)
H13 H 0.592(1) 0.5610(7) 0.1571(3)
H14 H 0.624(1) 0.6158(7) 0.0958(3)
H15 H 0.764(1) 0.5400(9) 0.0130(3)
H16 H 0.596(1) 0.4278(9) -0.0040(3)
H17 H 0.831(1) 0.4008(9) -0.0176(3)
H18 H 0.385(1) 0.329(1) 0.3440(3)
H19 H 0.333(1) 0.491(1) 0.3456(3)
H20 H 0.564(1) 0.4371(9) 0.4107(3)
H21 H 0.657(1) 0.5389(9) 0.3654(3)
H22 H 1.152(1) 0.283(1) 0.4862(3)
H23 H 1.123(1) 0.440(1) 0.4667(3)
H24 H 1.244(1) 0.332(1) 0.4288(3)
H25 H 0.829(3) 0.5628(8) 0.2992(3)
H26 H 0.968(1) 0.4834(8) 0.2554(3)
H27 H 1.039(1) 0.4930(8) 0.3180(3)
#END
