
#######################################################################
#
#                 Cambridge Crystallographic Data Centre
#                                CCDC
#
#######################################################################
#
# If this CIF has been generated from an entry in the Cambridge
# Structural Database, then it will include bibliographic, chemical,
# crystal, experimental, refinement or atomic coordinate data resulting
# from the CCDC's data processing and validation procedures.
#
#######################################################################

data_CSD_CIF_FULKUS01
_audit_creation_date 2001-02-28
_audit_creation_method CSD-ConQuest-V1
_database_code_CSD FULKUS01
_database_code_depnum_ccdc_archive 'CCDC 156182'
_chemical_formula_sum 'C7 H5 N3 O2'
_chemical_formula_moiety
;
C7 H5 N3 O2
;
_journal_coeditor_code "IUCr SX1105"
_journal_coden_Cambridge 591
_journal_volume 56
_journal_year 2000
_journal_page_first 1503
_journal_name_full 'Acta Crystallogr.,Sect.C:Cryst.Struct.Commun. '
loop_
_publ_author_name
"J.Sopkova-de Oliveira Santos"
"V.Collot"
"S.Rault"
_chemical_name_systematic
;
7-Nitro-1H-indazole
;
_chemical_melting_point 456
_cell_volume    694.761
_exptl_crystal_colour 'dark yellow'
_exptl_crystal_density_diffrn 1.56
_exptl_special_details
;
inhibitory activity against nitric oxide synthase

;
_exptl_crystal_description 'prism'
_exptl_crystal_preparation 'methanol'
_diffrn_ambient_temperature ?
_diffrn_special_details
;
The study was carried out at room temperature,in the range 283-303K

;
#These two values have been output from a single CSD field.
_refine_ls_R_factor_gt 0.046
_refine_ls_wR_factor_gt 0.046
_symmetry_cell_setting monoclinic
_symmetry_space_group_name_H-M 'P 21/n'
_symmetry_Int_Tables_number 14
loop_
_symmetry_equiv_pos_site_id
_symmetry_equiv_pos_as_xyz
1 x,y,z
2 1/2+x,1/2-y,1/2+z
3 -x,-y,-z
4 -1/2-x,-1/2+y,-1/2-z
_cell_length_a 5.0186(5)
_cell_length_b 9.6408(9)
_cell_length_c 14.5082(14)
_cell_angle_alpha 90
_cell_angle_beta 98.21(1)
_cell_angle_gamma 90
_cell_formula_units_Z 4
loop_
_atom_type_symbol
_atom_type_radius_bond
C 0.68
H 0.23
N 0.68
O 0.68
loop_
_atom_site_label
_atom_site_type_symbol
_atom_site_fract_x
_atom_site_fract_y
_atom_site_fract_z
C1 C -0.0843(2) 0.83074(11) 0.92647(8)
N1 N -0.2670(2) 0.90809(11) 0.96328(8)
H1 H -0.322(4) 0.9023(19) 1.0197(13)
N2 N -0.3765(2) 1.00794(12) 0.90277(9)
C2 C -0.2637(3) 0.99367(14) 0.82698(10)
H2 H -0.318(3) 1.0536(18) 0.7718(12)
C3 C -0.0748(2) 0.88331(13) 0.83618(8)
C4 C 0.1000(2) 0.82518(14) 0.77983(9)
H3 H 0.102(3) 0.8626(18) 0.7197(12)
C5 C 0.2618(3) 0.71625(15) 0.81404(9)
H4 H 0.387(3) 0.6743(17) 0.7755(11)
C6 C 0.2546(3) 0.66365(14) 0.90299(10)
H5 H 0.369(4) 0.5920(19) 0.9230(12)
C7 C 0.0825(2) 0.71975(12) 0.95931(8)
N3 N 0.0737(2) 0.66393(12) 1.05110(8)
O1 O -0.0915(3) 0.71310(13) 1.09620(8)
O2 O 0.2288(2) 0.56971(13) 1.08004(8)
#END
