
#######################################################################
#
#                 Cambridge Crystallographic Data Centre
#                                CCDC
#
#######################################################################
#
# If this CIF has been generated from an entry in the Cambridge
# Structural Database, then it will include bibliographic, chemical,
# crystal, experimental, refinement or atomic coordinate data resulting
# from the CCDC's data processing and validation procedures.
#
#######################################################################

data_CSD_CIF_FULKED
_audit_creation_date 2010-09-15
_audit_creation_method CSD-ConQuest-V1
_database_code_CSD FULKED
_database_code_depnum_ccdc_archive 'CCDC 699832'
_chemical_formula_sum 'C44 H59 N1 O4'
_chemical_formula_moiety
;
C44 H59 N1 O4
;
_journal_coden_Cambridge 1200
_journal_volume 18
_journal_year 2010
_journal_page_first 433
_journal_name_full 'Bioorg.Med.Chem. '
loop_
_publ_author_name
"I.Beseda"
"L.Czollner"
"P.S.Shah"
"R.Khunt"
"R.Gaware"
"P.Kosma"
"C.Stanetty"
"M.C.del Ruiz-Ruiz"
"H.Amer"
"K.Mereiter"
"T.Da Cunha"
"A.Odermatt"
"D.Classen-Houben"
"U.Jordis"
_chemical_name_systematic
;
Diphenylmethyl (3\b,18\b,20\b)-3-methoxyamino-11-oxo-olean-12-en-29-ate
;
_chemical_name_common
;
3beta-Methoxyamino-18beta-glycyrrhetinic acid diphenylmethyl ester
;
_chemical_melting_point 471.15
_cell_volume   3663.529
_exptl_crystal_colour 'colorless'
_exptl_crystal_density_diffrn 1.207
_exptl_special_details
;
Melting point range 471.15-473.15K

;
_exptl_crystal_description 'prism'
_diffrn_ambient_temperature 100
#These two values have been output from a single CSD field.
_refine_ls_R_factor_gt 0.0492
_refine_ls_wR_factor_gt 0.0492
_symmetry_cell_setting orthorhombic
_symmetry_space_group_name_H-M 'P 21 21 21'
_symmetry_Int_Tables_number 19
loop_
_symmetry_equiv_pos_site_id
_symmetry_equiv_pos_as_xyz
1 x,y,z
2 1/2-x,-y,1/2+z
3 -x,1/2+y,1/2-z
4 1/2+x,1/2-y,-z
_cell_length_a 7.4426(3)
_cell_length_b 20.4774(9)
_cell_length_c 24.0381(11)
_cell_angle_alpha 90
_cell_angle_beta 90
_cell_angle_gamma 90
_cell_formula_units_Z 4
loop_
_atom_type_symbol
_atom_type_radius_bond
C 0.68
H 0.23
N 0.68
O 0.68
loop_
_atom_site_label
_atom_site_type_symbol
_atom_site_fract_x
_atom_site_fract_y
_atom_site_fract_z
O1 O 0.98615(14) 0.51477(5) 0.24167(4)
O2 O 0.85211(14) 0.48417(5) 0.53284(4)
O3 O 0.75630(15) 0.31166(5) 0.73441(4)
O4 O 0.59570(14) 0.24611(5) 0.79035(4)
N1 N 0.79801(16) 0.52797(6) 0.25449(5)
H1 H 0.804(3) 0.5729(9) 0.2616(8)
C1 C 0.84198(17) 0.48403(6) 0.40984(5)
H2 H 0.92130 0.50140 0.43940
H3 H 0.87260 0.43740 0.40420
C2 C 0.87654(18) 0.52159(7) 0.35575(5)
H4 H 0.85110 0.56850 0.36180
H5 H 1.00470 0.51730 0.34540
C3 C 0.76025(19) 0.49642(6) 0.30845(5)
H6 H 0.78950 0.44910 0.30390
C4 C 0.55641(17) 0.50046(6) 0.32116(5)
C5 C 0.52366(17) 0.46755(6) 0.37907(5)
H7 H 0.55540 0.42060 0.37310
C6 C 0.32584(16) 0.46631(6) 0.39586(5)
H8 H 0.25110 0.45600 0.36290
H9 H 0.29000 0.50990 0.40970
C7 C 0.29322(16) 0.41528(6) 0.44112(5)
H10 H 0.32010 0.37150 0.42590
H11 H 0.16460 0.41610 0.45160
C8 C 0.40757(16) 0.42621(5) 0.49355(5)
C9 C 0.60837(16) 0.43881(5) 0.47708(5)
H12 H 0.65140 0.39610 0.46190
C10 C 0.64404(16) 0.48944(6) 0.42894(5)
C11 C 0.71900(17) 0.44926(6) 0.53037(5)
C12 C 0.66125(17) 0.41357(6) 0.58032(5)
H13 H 0.73320 0.41780 0.61280
C13 C 0.51484(16) 0.37548(5) 0.58375(5)
C14 C 0.39852(16) 0.36354(5) 0.53239(5)
C15 C 0.20065(16) 0.34687(6) 0.54749(5)
H14 H 0.13390 0.38820 0.55300
H15 H 0.14510 0.32380 0.51560
C16 C 0.17884(17) 0.30441(6) 0.59984(5)
H16 H 0.22980 0.26060 0.59260
H17 H 0.04930 0.29910 0.60810
C17 C 0.27315(17) 0.33466(6) 0.65076(5)
C18 C 0.47600(16) 0.34068(6) 0.63829(5)
H18 H 0.52960 0.36780 0.66860
C19 C 0.57450(18) 0.27408(6) 0.63891(5)
H19 H 0.53150 0.24750 0.60720
H20 H 0.70470 0.28170 0.63360
C20 C 0.54651(18) 0.23535(6) 0.69289(5)
C21 C 0.34374(19) 0.22740(6) 0.70337(5)
H21 H 0.29180 0.19910 0.67410
H22 H 0.32520 0.20560 0.73970
C22 C 0.24554(18) 0.29290(6) 0.70346(5)
H23 H 0.28620 0.31840 0.73610
H24 H 0.11530 0.28460 0.70810
C23 C 0.4576(2) 0.46125(7) 0.27578(5)
H25 H 0.49340 0.47740 0.23900
H26 H 0.32760 0.46650 0.28040
H27 H 0.48910 0.41490 0.27910
C24 C 0.48735(19) 0.57135(6) 0.31812(6)
H28 H 0.50900 0.58890 0.28080
H29 H 0.55100 0.59810 0.34560
H30 H 0.35820 0.57210 0.32610
C25 C 0.61201(18) 0.56037(6) 0.44882(5)
H31 H 0.67880 0.59060 0.42490
H32 H 0.65350 0.56500 0.48730
H33 H 0.48350 0.57050 0.44680
C26 C 0.32929(17) 0.48595(6) 0.52467(5)
H34 H 0.32200 0.52320 0.49920
H35 H 0.40750 0.49710 0.55610
H36 H 0.20890 0.47540 0.53850
C27 C 0.47734(18) 0.30180(6) 0.50334(5)
H37 H 0.44340 0.26270 0.52440
H38 H 0.60860 0.30520 0.50190
H39 H 0.42960 0.29860 0.46550
C28 C 0.19437(19) 0.40240(7) 0.66317(5)
H40 H 0.06440 0.39870 0.66880
H41 H 0.21820 0.43160 0.63180
H42 H 0.25030 0.42010 0.69680
C29 C 0.64364(18) 0.27019(6) 0.74037(5)
C30 C 0.6361(2) 0.16796(6) 0.68789(6)
H43 H 0.76520 0.17350 0.68140
H44 H 0.58280 0.14400 0.65670
H45 H 0.61740 0.14340 0.72240
C31 C 0.9898(2) 0.46853(7) 0.19774(6)
H46 H 1.11470 0.45690 0.18940
H47 H 0.93360 0.48750 0.16460
H48 H 0.92370 0.42930 0.20890
C32 C 0.70689(19) 0.26627(6) 0.83780(5)
H49 H 0.77760 0.30560 0.82660
C33 C 0.5833(2) 0.28538(6) 0.88498(5)
C34 C 0.4111(2) 0.30774(8) 0.87497(6)
H50 H 0.36620 0.30850 0.83800
C35 C 0.3031(3) 0.32903(9) 0.91842(7)
H51 H 0.18380 0.34310 0.91110
C36 C 0.3682(3) 0.32991(8) 0.97219(6)
H52 H 0.29500 0.34540 1.00170
C37 C 0.5397(3) 0.30820(8) 0.98270(6)
H53 H 0.58490 0.30870 1.01970
C38 C 0.6474(2) 0.28553(7) 0.93957(6)
H54 H 0.76510 0.27010 0.94730
C39 C 0.8367(2) 0.21168(6) 0.85033(5)
C40 C 0.7775(2) 0.15228(7) 0.87272(6)
H55 H 0.65360 0.14610 0.88070
C41 C 0.8983(2) 0.10268(7) 0.88325(6)
H56 H 0.85690 0.06250 0.89830
C42 C 1.0796(2) 0.11092(8) 0.87205(6)
H57 H 1.16200 0.07670 0.87970
C43 C 1.1402(2) 0.16944(8) 0.84963(7)
H58 H 1.26430 0.17540 0.84190
C44 C 1.0178(2) 0.21951(7) 0.83856(6)
H59 H 1.05900 0.25930 0.82280
#END
