
#######################################################################
#
#                 Cambridge Crystallographic Data Centre
#                                CCDC
#
#######################################################################
#
# If this CIF has been generated from an entry in the Cambridge
# Structural Database, then it will include bibliographic, chemical,
# crystal, experimental, refinement or atomic coordinate data resulting
# from the CCDC's data processing and validation procedures.
#
#######################################################################

data_CSD_CIF_FULNIJ
_audit_creation_date 1988-07-18
_audit_creation_method CSD-ConQuest-V1
_database_code_CSD FULNIJ
_chemical_formula_sum 'C24 H28 N2 O5'
_chemical_formula_moiety
;
C24 H28 N2 O5
;
_journal_coden_Cambridge 151
_journal_volume 31
_journal_year 1988
_journal_page_first 473
_journal_name_full 'J.Med.Chem. '
loop_
_publ_author_name
"J.I.McKenna"
"L.Schlicksupp"
"N.R.Natale"
"R.D.Willett"
"B.E.Maryanoff"
"S.F.Flaim"
_chemical_name_systematic
;
Diethyl 
2,6-dimethyl-4-(5-ethyl-3-phenylisoxazol-4-yl)-1,4-dihydropyridine-3,5-dicarbo
xylate
;
_chemical_melting_point 399.15
_cell_volume   2213.967
_exptl_special_details
;
Melting point range 399.15-402.15K
vasodilator activity
Dx published as 1.19; we calculate 1.27
;
_diffrn_ambient_temperature ?
_diffrn_special_details
;
The study was carried out at room temperature,in the range 283-303K

;
_refine_special_details
;
One of the 2 ester groups shows disorder; the carbonyl O and the two Cs of 
the ester ethyl group show 2 equivalent positions. Only one set retained.
;
#These two values have been output from a single CSD field.
_refine_ls_R_factor_gt 0.0717
_refine_ls_wR_factor_gt 0.0717
_symmetry_cell_setting monoclinic
_symmetry_space_group_name_H-M 'P 21/c'
_symmetry_Int_Tables_number 14
loop_
_symmetry_equiv_pos_site_id
_symmetry_equiv_pos_as_xyz
1 x,y,z
2 -x,1/2+y,1/2-z
3 -x,-y,-z
4 x,-1/2-y,-1/2+z
_cell_length_a 14.829(2)
_cell_length_b 8.697(2)
_cell_length_c 17.751(4)
_cell_angle_alpha 90
_cell_angle_beta 104.74(2)
_cell_angle_gamma 90
_cell_formula_units_Z 4
loop_
_atom_type_symbol
_atom_type_radius_bond
C 0.68
N 0.68
O 0.68
loop_
_atom_site_label
_atom_site_type_symbol
_atom_site_fract_x
_atom_site_fract_y
_atom_site_fract_z
C1 C 0.4701(11) -0.1774(27) 0.0139(15)
C2 C 0.4311(14) -0.3040(16) -0.0423(11)
C3 C -0.0065(3) 0.1869(6) -0.0964(3)
C4 C 0.0113(4) 0.3474(6) -0.1178(3)
C5 C 0.2963(3) 0.4309(5) 0.0756(2)
C6 C 0.2210(4) 0.5550(7) 0.0580(3)
O1 O 0.4539(19) -0.1584(37) 0.1490(22)
O2 O 0.3721(3) -0.1233(4) 0.0294(2)
O3 O 0.0072(2) 0.2366(4) 0.0536(2)
C7 C 0.1797(3) 0.1741(5) 0.1685(2)
C8 C 0.1626(3) 0.1352(4) 0.0911(2)
C9 C 0.2388(3) 0.0629(4) 0.0587(2)
C10 C 0.3234(3) 0.0159(5) 0.1238(2)
C11 C 0.3357(3) 0.0642(5) 0.1981(2)
C12 C 0.1127(3) 0.2501(6) 0.2072(3)
C13 C 0.4184(3) 0.0402(6) 0.2655(3)
C14 C 0.3936(4) -0.0868(7) 0.1051(3)
C15 C 0.0728(3) 0.1721(5) 0.0384(3)
O4 O 0.0700(2) 0.1293(4) -0.0351(2)
C16 C 0.2633(3) 0.1696(5) -0.0006(2)
C17 C 0.2870(3) 0.3208(5) 0.0108(2)
C18 C 0.2656(3) 0.1411(5) -0.0796(2)
C19 C 0.1792(3) -0.1038(5) -0.1249(3)
C20 C 0.2486(3) 0.0006(5) -0.1281(2)
C21 C 0.3036(3) -0.0263(6) -0.1797(2)
C22 C 0.2205(4) -0.2571(6) -0.2236(3)
C23 C 0.2893(4) -0.1539(7) -0.2263(3)
C24 C 0.1654(3) -0.2340(6) -0.1721(3)
N1 N 0.2666(2) 0.1468(4) 0.2177(2)
N2 N 0.2877(3) 0.2659(4) -0.1127(2)
O5 O 0.3018(2) 0.3819(3) -0.0559(2)
#END
