
#######################################################################
#
#                 Cambridge Crystallographic Data Centre
#                                CCDC
#
#######################################################################
#
# If this CIF has been generated from an entry in the Cambridge
# Structural Database, then it will include bibliographic, chemical,
# crystal, experimental, refinement or atomic coordinate data resulting
# from the CCDC's data processing and validation procedures.
#
#######################################################################

data_CSD_CIF_FULNOP
_audit_creation_date 1988-07-18
_audit_creation_method CSD-ConQuest-V1
_database_code_CSD FULNOP
_chemical_formula_sum 'C25 H30 N2 O5'
_chemical_formula_moiety
;
C25 H30 N2 O5
;
_journal_coden_Cambridge 151
_journal_volume 31
_journal_year 1988
_journal_page_first 473
_journal_name_full 'J.Med.Chem. '
loop_
_publ_author_name
"J.I.McKenna"
"L.Schlicksupp"
"N.R.Natale"
"R.D.Willett"
"B.E.Marynoff"
"S.F.Flaim"
_chemical_name_systematic
;
Diethyl 
2,6-dimethyl-4-(5-isopropyl-3-phenylisoxazol-4-yl)-1,4-dihydropyridine-3,5-dic
arboxylate
;
_chemical_melting_point 439.15
_cell_volume   4858.989
_exptl_special_details
;
Melting point range 439.15-441.15K
vasodilator activity, possible antihypertensive, anginal activity
Dx published as 1.13; we calculate 1.20
;
_diffrn_ambient_temperature ?
_diffrn_special_details
;
The study was carried out at room temperature,in the range 283-303K

;
_refine_special_details
;
One of the 2 ester groups shows disorder; the carbonyl O and the CH3 carbon 
of the ester ethyl group show 2 positions. Only one set retained.
;
#These two values have been output from a single CSD field.
_refine_ls_R_factor_gt 0.0781
_refine_ls_wR_factor_gt 0.0781
_symmetry_cell_setting monoclinic
_symmetry_space_group_name_H-M 'C 2/c'
_symmetry_Int_Tables_number 15
loop_
_symmetry_equiv_pos_site_id
_symmetry_equiv_pos_as_xyz
1 x,y,z
2 1/2+x,1/2+y,z
3 -x,y,1/2-z
4 1/2-x,1/2+y,1/2-z
5 -x,-y,-z
6 -1/2-x,-1/2-y,-z
7 x,-y,-1/2+z
8 -1/2+x,-1/2-y,-1/2+z
_cell_length_a 34.35(3)
_cell_length_b 9.618(2)
_cell_length_c 14.837(3)
_cell_angle_alpha 90
_cell_angle_beta 97.58(4)
_cell_angle_gamma 90
_cell_formula_units_Z 8
loop_
_atom_type_symbol
_atom_type_radius_bond
C 0.68
N 0.68
O 0.68
loop_
_atom_site_label
_atom_site_type_symbol
_atom_site_fract_x
_atom_site_fract_y
_atom_site_fract_z
N1 N 0.1290(1) 0.3967(3) 0.0297(2)
C1 C 0.1653(1) 0.3431(3) 0.0620(2)
C2 C 0.1681(1) 0.2372(3) 0.1225(2)
C3 C 0.1323(1) 0.1887(3) 0.1632(2)
C4 C 0.0946(1) 0.2319(3) 0.1061(2)
C5 C 0.0942(1) 0.3363(3) 0.0446(2)
C6 C 0.0604(1) 0.1537(3) 0.1246(2)
O1 O 0.0605(9) 0.0714(14) 0.1854(10)
O2 O 0.0265(1) 0.1960(3) 0.0817(2)
C7 C 0.2057(1) 0.1663(4) 0.1485(2)
O3 O 0.2379(1) 0.2079(3) 0.1397(2)
O4 O 0.2006(1) 0.0406(3) 0.1852(2)
C8 C 0.1338(1) 0.2358(3) 0.2617(2)
C9 C 0.1407(1) 0.1561(3) 0.3378(2)
O5 O 0.1387(1) 0.2353(3) 0.4123(1)
N2 N 0.1302(1) 0.3729(3) 0.3847(2)
C10 C 0.1276(1) 0.3708(3) 0.2950(2)
C11 C 0.1182(1) 0.5034(3) 0.2457(2)
C12 C 0.0809(1) 0.5458(5) 0.2265(3)
C13 C 0.0725(2) 0.6747(6) 0.1780(5)
C14 C 0.1026(3) 0.7474(6) 0.1532(5)
C15 C 0.1396(2) 0.7083(6) 0.1707(5)
C16 C 0.1478(1) 0.5839(4) 0.2189(3)
C17 C 0.1491(1) 0.0060(4) 0.3544(2)
C18 C 0.1144(1) -0.0702(4) 0.3860(3)
C19 C 0.1862(1) -0.0141(5) 0.4215(3)
C20 C 0.1980(1) 0.4119(4) 0.0210(3)
C21 C 0.0599(1) 0.3983(4) -0.0134(3)
C22 C -0.0089(1) 0.1261(5) 0.1020(4)
C23 C -0.0326(3) 0.2443(9) 0.1320(9)
C24 C 0.2356(1) -0.0399(5) 0.2153(3)
C25 C 0.2484(1) -0.1266(5) 0.1414(3)
#END
