
#######################################################################
#
#                 Cambridge Crystallographic Data Centre
#                                CCDC
#
#######################################################################
#
# If this CIF has been generated from an entry in the Cambridge
# Structural Database, then it will include bibliographic, chemical,
# crystal, experimental, refinement or atomic coordinate data resulting
# from the CCDC's data processing and validation procedures.
#
#######################################################################

data_CSD_CIF_FULPEH01
_audit_creation_date 2012-05-31
_audit_creation_method CSD-ConQuest-V1
_database_code_CSD FULPEH01
_database_code_depnum_ccdc_archive 'CCDC 802078'
_chemical_formula_sum 'C20 H24 N2 O6'
_chemical_formula_moiety
;
C20 H24 N2 O6
;
_journal_coden_Cambridge 1350
_journal_volume 14
_journal_year 2012
_journal_page_first 2589
_journal_name_full 'CrystEngComm '
loop_
_publ_author_name
"Caiqin Yang"
"Zhenwei Zhang"
"Yanli Zeng"
"Jing Wang"
"Yongli Wang"
"Baoqing Ma"
_chemical_name_systematic
;
Isobutyl methyl 
2,6-dimethyl-4-(3-nitrophenyl)-1,4-dihydropyridine-3,5-dicarboxylate
;
_cell_volume    975.890
_exptl_crystal_colour 'colorless'
_exptl_crystal_density_diffrn 1.322
_exptl_crystal_description 'needle'
_diffrn_ambient_temperature 298
#These two values have been output from a single CSD field.
_refine_ls_R_factor_gt 0.0676
_refine_ls_wR_factor_gt 0.0676
_symmetry_cell_setting triclinic
_symmetry_space_group_name_H-M 'P -1'
_symmetry_Int_Tables_number 2
loop_
_symmetry_equiv_pos_site_id
_symmetry_equiv_pos_as_xyz
1 x,y,z
2 -x,-y,-z
_cell_length_a 7.4965(2)
_cell_length_b 11.4692(4)
_cell_length_c 12.3648(5)
_cell_angle_alpha 68.093(2)
_cell_angle_beta 88.655(2)
_cell_angle_gamma 81.853(2)
_cell_formula_units_Z 2
loop_
_atom_type_symbol
_atom_type_radius_bond
C 0.68
H 0.23
N 0.68
O 0.68
loop_
_atom_site_label
_atom_site_type_symbol
_atom_site_fract_x
_atom_site_fract_y
_atom_site_fract_z
C1 C -0.0457(3) 0.6734(3) 0.8995(2)
C2 C -0.0111(3) 0.6476(2) 0.7993(2)
H1 H -0.10480 0.65790 0.74720
C3 C 0.1626(3) 0.6067(2) 0.7777(2)
C4 C 0.2986(3) 0.5934(3) 0.8587(2)
H2 H 0.41720 0.56670 0.84540
C5 C 0.2603(4) 0.6192(3) 0.9580(3)
H3 H 0.35330 0.60980 1.01030
C6 C 0.0869(4) 0.6583(3) 0.9805(2)
H4 H 0.05990 0.67400 1.04800
C7 C 0.2071(3) 0.5765(2) 0.6689(2)
H5 H 0.09490 0.59430 0.62290
C8 C 0.2802(3) 0.4380(2) 0.7008(2)
C9 C 0.4615(3) 0.3994(2) 0.7092(2)
C10 C 0.5167(3) 0.6173(2) 0.6009(2)
C11 C 0.3371(3) 0.6614(2) 0.5942(2)
C12 C 0.5611(3) 0.2668(3) 0.7567(3)
H6 H 0.47630 0.20740 0.78250
H7 H 0.63850 0.25710 0.82120
H8 H 0.63240 0.25110 0.69670
C13 C 0.6667(3) 0.6881(3) 0.5416(2)
H9 H 0.61850 0.77440 0.49550
H10 H 0.72670 0.64840 0.49210
H11 H 0.75120 0.68700 0.59930
C14 C 0.1422(3) 0.3531(2) 0.7265(2)
C15 C 0.0663(3) 0.1453(3) 0.7849(3)
H12 H -0.01250 0.16510 0.71740
H13 H -0.00640 0.15670 0.84720
C16 C 0.1570(4) 0.0101(3) 0.8231(3)
H14 H 0.06110 -0.04350 0.84570
C17 C 0.2527(5) -0.0174(4) 0.7250(3)
H15 H 0.17090 0.00810 0.65910
H16 H 0.29490 -0.10670 0.74990
H17 H 0.35340 0.02900 0.70350
C18 C 0.2795(6) -0.0275(4) 0.9301(3)
H18 H 0.21330 -0.00880 0.99060
H19 H 0.37980 0.01940 0.91060
H20 H 0.32290 -0.11670 0.95700
C19 C 0.2503(3) 0.7885(3) 0.5226(2)
C20 C 0.2766(5) 0.9990(3) 0.3988(3)
H21 H 0.36760 1.05190 0.36510
H22 H 0.20180 1.03430 0.44640
H23 H 0.20390 0.99480 0.33790
N1 N -0.2318(3) 0.7174(3) 0.9199(2)
N2 N 0.5745(3) 0.4921(2) 0.66909(19)
H24 H 0.68730 0.46990 0.68810
O1 O -0.2637(4) 0.7406(4) 1.0068(3)
O2 O -0.3485(3) 0.7291(3) 0.8481(3)
O3 O -0.0190(2) 0.39371(18) 0.72012(18)
O4 O 0.2021(2) 0.22996(16) 0.75587(16)
O5 O 0.3612(3) 0.87340(19) 0.46949(19)
O6 O 0.0880(3) 0.8176(2) 0.5115(2)
#END
