
#######################################################################
#
#                 Cambridge Crystallographic Data Centre
#                                CCDC
#
#######################################################################
#
# If this CIF has been generated from an entry in the Cambridge
# Structural Database, then it will include bibliographic, chemical,
# crystal, experimental, refinement or atomic coordinate data resulting
# from the CCDC's data processing and validation procedures.
#
#######################################################################

data_CSD_CIF_FULPEH02
_audit_creation_date 2013-05-26
_audit_creation_method CSD-ConQuest-V1
_database_code_CSD FULPEH02
_database_code_depnum_ccdc_archive 'CCDC 802077'
_chemical_formula_sum 'C20 H24 N2 O6'
_chemical_formula_moiety
;
C20 H24 N2 O6
;
_journal_coden_Cambridge 1350
_journal_volume 14
_journal_year 2012
_journal_page_first 2589
_journal_name_full 'CrystEngComm '
loop_
_publ_author_name
"Caiqin Yang"
"Zhenwei Zhang"
"Yanli Zeng"
"Jing Wang"
"Yongli Wang"
"Baoqing Ma"
_chemical_name_systematic
;
Isobutyl methyl 
2,6-dimethyl-4-(3-nitrophenyl)-1,4-dihydropyridine-3,5-dicarboxylate
;
_cell_volume   2007.356
_exptl_crystal_colour 'yellow'
_exptl_crystal_density_diffrn 1.285
_exptl_crystal_description 'thick'
_diffrn_ambient_temperature 298
#These two values have been output from a single CSD field.
_refine_ls_R_factor_gt 0.0688
_refine_ls_wR_factor_gt 0.0688
_symmetry_cell_setting monoclinic
_symmetry_space_group_name_H-M 'P 21/c'
_symmetry_Int_Tables_number 14
loop_
_symmetry_equiv_pos_site_id
_symmetry_equiv_pos_as_xyz
1 x,y,z
2 -x,1/2+y,1/2-z
3 -x,-y,-z
4 x,-1/2-y,-1/2+z
_cell_length_a 9.3045(2)
_cell_length_b 16.5991(5)
_cell_length_c 13.0018(3)
_cell_angle_alpha 90
_cell_angle_beta 91.539(2)
_cell_angle_gamma 90
_cell_formula_units_Z 4
loop_
_atom_type_symbol
_atom_type_radius_bond
C 0.68
H 0.23
N 0.68
O 0.68
loop_
_atom_site_label
_atom_site_type_symbol
_atom_site_fract_x
_atom_site_fract_y
_atom_site_fract_z
N1 N 1.0453(3) 0.40257(18) 0.30797(18)
N2 N 0.8875(2) 0.33228(12) 0.84916(15)
H1 H 0.85170 0.35840 0.89960
C1 C 0.9639(3) 0.40013(16) 0.40316(18)
C2 C 1.0015(3) 0.34344(14) 0.47694(18)
H2 H 1.07410 0.30640 0.46480
C3 C 0.9303(3) 0.34221(13) 0.56933(17)
C4 C 0.8205(3) 0.39818(15) 0.58211(19)
H3 H 0.77050 0.39840 0.64310
C5 C 0.7845(4) 0.45301(16) 0.5065(2)
H4 H 0.71080 0.48960 0.51740
C6 C 0.8552(4) 0.45491(16) 0.4152(2)
H5 H 0.83040 0.49170 0.36370
C7 C 0.9744(2) 0.28276(14) 0.65426(17)
H6 H 1.02610 0.23830 0.62230
C8 C 0.8433(2) 0.24744(13) 0.70630(16)
C9 C 0.8006(2) 0.27627(13) 0.79807(16)
C10 C 1.0273(3) 0.34861(15) 0.82405(19)
C11 C 1.0764(3) 0.32215(15) 0.73309(19)
C12 C 0.6686(3) 0.25600(16) 0.85561(18)
H7 H 0.61310 0.21680 0.81760
H8 H 0.61220 0.30380 0.86440
H9 H 0.69580 0.23440 0.92180
C13 C 1.1092(4) 0.3933(2) 0.9072(2)
H10 H 1.20590 0.40250 0.88610
H11 H 1.11070 0.36200 0.96930
H12 H 1.06320 0.44410 0.91940
C14 C 0.7729(3) 0.18304(14) 0.64820(17)
C15 C 0.5838(3) 0.08651(18) 0.6362(2)
H13 H 0.64290 0.03830 0.63780
H14 H 0.56600 0.10170 0.56500
C16 C 0.4457(3) 0.07107(18) 0.6874(2)
H15 H 0.38930 0.12090 0.68640
C17 C 0.4675(4) 0.0447(2) 0.7972(3)
H16 H 0.51920 0.08560 0.83500
H17 H 0.52140 -0.00460 0.79940
H18 H 0.37570 0.03630 0.82750
C18 C 1.2266(3) 0.33158(19) 0.7068(3)
C19 C 0.3624(4) 0.0071(3) 0.6271(3)
H19 H 0.34770 0.02480 0.55730
H20 H 0.27110 -0.00140 0.65790
H21 H 0.41600 -0.04230 0.62800
C20 C 1.4027(4) 0.3053(3) 0.5794(3)
H22 H 1.40970 0.27720 0.51520
H23 H 1.47040 0.28300 0.62860
H24 H 1.42380 0.36130 0.56920
O1 O 1.0027(3) 0.44703(19) 0.23827(18)
O2 O 1.1494(3) 0.35936(18) 0.30257(19)
O3 O 0.8145(2) 0.15805(11) 0.56643(13)
O4 O 0.65699(19) 0.15170(11) 0.69171(13)
O5 O 1.3183(3) 0.3684(2) 0.7556(3)
O6 O 1.2574(2) 0.29695(15) 0.61747(18)
#END
