
#######################################################################
#
#                 Cambridge Crystallographic Data Centre
#                                CCDC
#
#######################################################################
#
# If this CIF has been generated from an entry in the Cambridge
# Structural Database, then it will include bibliographic, chemical,
# crystal, experimental, refinement or atomic coordinate data resulting
# from the CCDC's data processing and validation procedures.
#
#######################################################################

data_CSD_CIF_FULPAD
_audit_creation_date 1988-07-17
_audit_creation_method CSD-ConQuest-V1
_database_code_CSD FULPAD
_database_code_depnum_ccdc_archive 'CCDC 1161069'
_chemical_formula_sum 'C20 H24 N2 O6'
_chemical_formula_moiety
;
C20 H24 N2 O6
;
_journal_coden_Cambridge 151
_journal_volume 31
_journal_year 1988
_journal_page_first 300
_journal_name_full 'J.Med.Chem. '
loop_
_publ_author_name
"R.Fossheim"
"A.Joslyn"
"A.J.Solo"
"E.Luchowski"
"A.Rutledge"
"D.J.Triggle"
_chemical_name_systematic
;
Isobutyl methyl 
1,4-dihydro-2,6-dimethyl-4-(2-nitrophenyl)-3,5-pyridinedicarboxylate
;
_chemical_name_common
;
Nisoldipine; Baymycard; Baymycard RR; Bo Ping; Di Yi Xin; Ji Ni Le Er; 
Ninobarucin; Nisomynard; Riohard; Ruidi; Sular; Syscor; DrugBank: DB00401
;
_cell_volume   1967.316
_exptl_crystal_density_diffrn 1.31
_exptl_special_details
;
calcium channel antagonist activity

;
_diffrn_ambient_temperature 123.15
#These two values have been output from a single CSD field.
_refine_ls_R_factor_gt 0.036
_refine_ls_wR_factor_gt 0.036
_symmetry_cell_setting monoclinic
_symmetry_space_group_name_H-M 'P 21/n'
_symmetry_Int_Tables_number 14
loop_
_symmetry_equiv_pos_site_id
_symmetry_equiv_pos_as_xyz
1 x,y,z
2 1/2-x,1/2+y,1/2-z
3 -x,-y,-z
4 -1/2+x,-1/2-y,-1/2+z
_cell_length_a 10.789(2)
_cell_length_b 15.651(3)
_cell_length_c 11.934(2)
_cell_angle_alpha 90
_cell_angle_beta 102.51(1)
_cell_angle_gamma 90
_cell_formula_units_Z 4
loop_
_atom_type_symbol
_atom_type_radius_bond
C 0.68
H 0.23
N 0.68
O 0.68
loop_
_atom_site_label
_atom_site_type_symbol
_atom_site_fract_x
_atom_site_fract_y
_atom_site_fract_z
O1 O -0.1111(2) 0.2961(1) 0.8525(2)
O2 O 0.0806(2) 0.3558(1) 0.9106(2)
O3 O -0.0702(2) -0.0473(2) 1.1418(2)
O4 O -0.2105(2) 0.0283(1) 1.0120(2)
O5 O -0.3192(2) 0.1674(2) 0.8442(2)
O6 O -0.4714(2) 0.1273(2) 0.9242(2)
N1 N 0.1590(3) 0.1778(2) 1.1792(3)
N2 N -0.3702(3) 0.1664(2) 0.9258(3)
C1 C 0.1353(3) 0.2400(2) 1.0956(3)
C2 C 0.0245(3) 0.2388(2) 1.0158(3)
C3 C -0.0795(3) 0.1741(2) 1.0247(3)
C4 C -0.0241(3) 0.0984(2) 1.0996(3)
C5 C 0.0872(3) 0.1048(2) 1.1762(3)
C6 C -0.1829(3) 0.2170(2) 1.0762(3)
C7 C -0.1462(4) 0.2594(2) 1.1805(3)
C8 C -0.2325(4) 0.2966(2) 1.2366(4)
C9 C -0.3614(4) 0.2934(3) 1.1884(4)
C10 C -0.4025(4) 0.2507(3) 1.0871(4)
C11 C -0.3146(3) 0.2130(2) 1.0322(3)
C12 C 0.2442(3) 0.3026(3) 1.1044(4)
C13 C -0.0087(3) 0.2976(2) 0.9206(3)
C14 C 0.0472(4) 0.4158(2) 0.8158(3)
C15 C 0.1478(4) 0.4850(2) 0.8331(3)
C16 C 0.1462(5) 0.5369(3) 0.9404(4)
C17 C 0.2784(5) 0.4489(3) 0.8336(5)
C18 C -0.0986(3) 0.0189(2) 1.0896(3)
C19 C -0.2963(4) -0.0437(3) 1.0008(4)
C20 C 0.1470(4) 0.0381(3) 1.2617(4)
H1 H 0.232(3) 0.182(2) 1.231(3)
H2 H -0.115(2) 0.156(2) 0.945(2)
H3 H -0.051(3) 0.263(2) 1.221(3)
H4 H -0.200(3) 0.322(2) 1.310(3)
H5 H -0.425(4) 0.322(2) 1.221(3)
H6 H -0.492(3) 0.247(2) 1.045(3)
H7 H 0.309(3) 0.293(2) 1.174(3)
H8 H 0.208(3) 0.363(2) 1.104(3)
H9 H 0.276(3) 0.302(2) 1.030(3)
H10 H -0.043(3) 0.440(2) 0.816(2)
H11 H 0.044(3) 0.385(2) 0.746(3)
H12 H 0.124(3) 0.525(2) 0.764(3)
H13 H 0.058(4) 0.563(2) 0.935(3)
H14 H 0.212(4) 0.582(2) 0.957(3)
H15 H 0.160(3) 0.497(2) 1.011(3)
H16 H 0.276(4) 0.415(3) 0.755(4)
H17 H 0.310(4) 0.418(3) 0.912(4)
H18 H 0.347(4) 0.499(3) 0.842(3)
H19 H -0.366(3) -0.031(2) 0.931(3)
H20 H -0.337(3) -0.046(2) 1.074(3)
H21 H -0.252(4) -0.098(2) 0.992(3)
H22 H 0.217(3) 0.062(2) 1.316(3)
H23 H 0.179(3) -0.008(2) 1.215(3)
H24 H 0.088(3) 0.016(2) 1.301(3)
#END
