
#######################################################################
#
#                 Cambridge Crystallographic Data Centre
#                                CCDC
#
#######################################################################
#
# If this CIF has been generated from an entry in the Cambridge
# Structural Database, then it will include bibliographic, chemical,
# crystal, experimental, refinement or atomic coordinate data resulting
# from the CCDC's data processing and validation procedures.
#
#######################################################################

data_CSD_CIF_FULQIN
_audit_creation_date 2010-09-15
_audit_creation_method CSD-ConQuest-V1
_database_code_CSD FULQIN
_database_code_depnum_ccdc_archive 'CCDC 730569'
_chemical_formula_sum 'C12 H15 N3 O4'
_chemical_formula_moiety
;
C12 H15 N3 O4
;
_journal_coden_Cambridge 1003
_journal_volume 40
_journal_year 2010
_journal_page_first 213
_journal_name_full 'J.Chem.Cryst. '
loop_
_publ_author_name
"G.M.de Lima"
"J.L.Wardell"
"S.M.S.V.Wardell"
_chemical_name_systematic
;
(E)-Ethyl 3-((4-nitrophenyl)hydrazono)butanoate
;
_chemical_melting_point 389.15
_cell_volume    639.591
_exptl_crystal_colour 'yellow'
_exptl_crystal_density_diffrn 1.377
_exptl_special_details
;
Melting point range 389.15-391.15K

;
_exptl_crystal_description 'slab'
_exptl_crystal_preparation 'ethanol'
_diffrn_ambient_temperature 120
#These two values have been output from a single CSD field.
_refine_ls_R_factor_gt 0.0585
_refine_ls_wR_factor_gt 0.0585
_symmetry_cell_setting triclinic
_symmetry_space_group_name_H-M 'P -1'
_symmetry_Int_Tables_number 2
loop_
_symmetry_equiv_pos_site_id
_symmetry_equiv_pos_as_xyz
1 x,y,z
2 -x,-y,-z
_cell_length_a 7.7027(2)
_cell_length_b 7.8103(2)
_cell_length_c 11.1761(3)
_cell_angle_alpha 77.054(2)
_cell_angle_beta 79.425(2)
_cell_angle_gamma 81.097(2)
_cell_formula_units_Z 2
loop_
_atom_type_symbol
_atom_type_radius_bond
C 0.68
H 0.23
N 0.68
O 0.68
loop_
_atom_site_label
_atom_site_type_symbol
_atom_site_fract_x
_atom_site_fract_y
_atom_site_fract_z
O1 O 0.59503(13) 0.20212(13) -0.10899(9)
O2 O 0.79642(13) -0.04085(13) -0.09437(9)
O3 O 0.01510(15) 0.54542(14) 0.73575(10)
O4 O 0.08628(15) 0.26297(14) 0.78741(9)
N1 N 0.52173(15) 0.42792(16) 0.24831(10)
H1 H 0.517(2) 0.526(2) 0.1963(16)
N2 N 0.59656(14) 0.27606(15) 0.20679(10)
N3 N 0.09547(15) 0.40441(15) 0.71227(10)
C1 C 0.69476(17) 0.29646(19) 0.09912(12)
C2 C 0.77487(19) 0.12881(19) 0.05644(12)
H2 H 0.74740 0.02720 0.12480
H3 H 0.90580 0.12720 0.03860
C3 C 0.70993(17) 0.10513(17) -0.05785(12)
C4 C 0.41491(16) 0.41557(17) 0.36192(11)
C5 C 0.32496(17) 0.57209(18) 0.39583(12)
H4 H 0.33680 0.68200 0.33950
C6 C 0.21988(17) 0.56816(18) 0.50966(12)
H5 H 0.15840 0.67440 0.53190
C7 C 0.20458(16) 0.40648(17) 0.59203(11)
C8 C 0.29218(17) 0.24929(18) 0.56092(12)
H6 H 0.28020 0.14010 0.61810
C9 C 0.39716(17) 0.25325(17) 0.44577(12)
H7 H 0.45710 0.14650 0.42350
C10 C 0.74019(18) 0.47049(19) 0.01949(12)
H8 H 0.63040 0.54800 0.00390
H9 H 0.81060 0.45080 -0.05970
H10 H 0.80930 0.52620 0.06230
C11 C 0.75952(19) -0.08278(19) -0.20739(13)
H11 H 0.64540 -0.01620 -0.22870
H12 H 0.74920 -0.21070 -0.19380
C12 C 0.9081(2) -0.03414(19) -0.31281(14)
H13 H 0.91370 0.09370 -0.32890
H14 H 0.88570 -0.06710 -0.38770
H15 H 1.02140 -0.09740 -0.29020
#END
