
#######################################################################
#
#                 Cambridge Crystallographic Data Centre
#                                CCDC
#
#######################################################################
#
# If this CIF has been generated from an entry in the Cambridge
# Structural Database, then it will include bibliographic, chemical,
# crystal, experimental, refinement or atomic coordinate data resulting
# from the CCDC's data processing and validation procedures.
#
#######################################################################

data_CSD_CIF_FULRAG
_audit_creation_date 2010-09-15
_audit_creation_method CSD-ConQuest-V1
_database_code_CSD FULRAG
_database_code_depnum_ccdc_archive 'CCDC 729254'
_chemical_formula_sum 'C31 H26 N2 O4'
_chemical_formula_moiety
;
C31 H26 N2 O4
;
_journal_coden_Cambridge 1003
_journal_volume 40
_journal_year 2010
_journal_page_first 231
_journal_name_full 'J.Chem.Cryst. '
loop_
_publ_author_name
"M.Akkurt"
"S.O.Yildirim"
"A.Kerbal"
"B.Bennani"
"M.Daoudi"
"Z.H.Chohan"
"V.McKee"
"T.B.Hadda"
_chemical_name_systematic
;
3',4'-bis(4-Methoxyphenyl)-2-phenyl-1,2-dihydro-4H,4'H-spiro[isoquinoline-3,5'
-[1,2]oxazol]-4-one
;
_chemical_melting_point 471.15
_cell_volume   4928.942
_exptl_crystal_colour 'yellow'
_exptl_crystal_density_diffrn 1.322
_exptl_special_details
;
Melting point range 471.15-474.15K
The structure is named in the paper with a 4'-(4-ethoxyphenyl) group, this 
name is incorrect. The structure is instead modelled with a 4-methoxyphenyl 
substituent in this location
;
_exptl_crystal_description 'plate'
_exptl_crystal_preparation 'ethanol'
_diffrn_ambient_temperature 150
#These two values have been output from a single CSD field.
_refine_ls_R_factor_gt 0.0735
_refine_ls_wR_factor_gt 0.0735
_symmetry_cell_setting monoclinic
_symmetry_space_group_name_H-M 'C 2/c'
_symmetry_Int_Tables_number 15
loop_
_symmetry_equiv_pos_site_id
_symmetry_equiv_pos_as_xyz
1 x,y,z
2 -x,y,1/2-z
3 1/2+x,1/2+y,z
4 1/2-x,1/2+y,1/2-z
5 -x,-y,-z
6 x,-y,-1/2+z
7 -1/2-x,-1/2-y,-z
8 -1/2+x,-1/2-y,-1/2+z
_cell_length_a 21.941(4)
_cell_length_b 17.233(3)
_cell_length_c 15.404(3)
_cell_angle_alpha 90
_cell_angle_beta 122.193(2)
_cell_angle_gamma 90
_cell_formula_units_Z 8
loop_
_atom_type_symbol
_atom_type_radius_bond
C 0.68
H 0.23
N 0.68
O 0.68
loop_
_atom_site_label
_atom_site_type_symbol
_atom_site_fract_x
_atom_site_fract_y
_atom_site_fract_z
O1 O 0.66502(16) 0.25142(16) 0.4956(2)
O2 O 0.62420(15) 0.07787(15) 0.5036(2)
O3 O 0.91413(16) -0.13877(16) 0.5585(2)
O4 O 0.61180(15) 0.11301(15) -0.0046(2)
N1 N 0.73283(18) 0.08717(19) 0.6595(3)
N2 N 0.60085(18) 0.0767(2) 0.3978(3)
C1 C 0.6920(2) 0.0888(2) 0.7101(3)
H1 H 0.72380 0.07420 0.78140
H2 H 0.65390 0.05030 0.67810
C2 C 0.6587(2) 0.1668(2) 0.7055(3)
C3 C 0.6360(2) 0.1856(3) 0.7712(3)
H3 H 0.64280 0.15000 0.82100
C4 C 0.6035(2) 0.2554(3) 0.7648(4)
H4 H 0.58840 0.26610 0.80970
C5 C 0.5933(3) 0.3095(3) 0.6924(4)
H5 H 0.57140 0.35670 0.68860
C6 C 0.6155(2) 0.2936(3) 0.6255(3)
H6 H 0.60930 0.33040 0.57720
C7 C 0.6474(2) 0.2217(2) 0.6306(3)
C8 C 0.6688(2) 0.2039(2) 0.5570(3)
C9 C 0.6927(2) 0.1203(2) 0.5577(3)
C10 C 0.8069(2) 0.1081(2) 0.7228(3)
C11 C 0.8518(3) 0.0559(3) 0.8000(3)
H7 H 0.83270 0.01090 0.80980
C12 C 0.9243(3) 0.0712(3) 0.8616(4)
H8 H 0.95370 0.03680 0.91400
C13 C 0.9541(3) 0.1368(3) 0.8472(4)
H9 H 1.00340 0.14570 0.88780
C14 C 0.9096(3) 0.1887(3) 0.7717(4)
H10 H 0.92900 0.23320 0.76170
C15 C 0.8361(2) 0.1752(2) 0.7104(3)
H11 H 0.80630 0.21130 0.66090
C16 C 0.7232(2) 0.1096(2) 0.4896(3)
H12 H 0.74560 0.15790 0.48660
C17 C 0.7745(2) 0.0415(2) 0.5137(3)
C18 C 0.8471(2) 0.0539(2) 0.5529(3)
H13 H 0.86550 0.10400 0.56860
C19 C 0.8921(2) -0.0073(2) 0.5688(3)
H14 H 0.94090 0.00160 0.59630
C20 C 0.8652(2) -0.0823(2) 0.5440(3)
C21 C 0.7938(2) -0.0958(2) 0.5083(3)
H15 H 0.77570 -0.14610 0.49370
C22 C 0.7490(2) -0.0340(2) 0.4942(3)
H16 H 0.70100 -0.04340 0.47110
C23 C 0.8849(3) -0.2060(3) 0.4942(4)
H17 H 0.85850 -0.23640 0.51560
H18 H 0.92340 -0.23650 0.49970
H19 H 0.85320 -0.19000 0.42430
C24 C 0.6537(2) 0.0959(2) 0.3889(3)
C25 C 0.6429(2) 0.1000(2) 0.2862(3)
C26 C 0.6994(2) 0.1153(2) 0.2717(3)
H20 H 0.74560 0.12290 0.32850
C27 C 0.6880(2) 0.1194(2) 0.1750(3)
H21 H 0.72610 0.13000 0.16660
C28 C 0.6187(2) 0.1076(2) 0.0890(3)
C29 C 0.5622(2) 0.0934(2) 0.1022(3)
H22 H 0.51590 0.08650 0.04530
C30 C 0.5742(2) 0.0894(2) 0.1996(3)
H23 H 0.53580 0.07950 0.20770
C31 C 0.5412(2) 0.1023(3) -0.0933(3)
H24 H 0.52340 0.05210 -0.09050
H25 H 0.54320 0.10600 -0.15390
H26 H 0.50970 0.14170 -0.09490
#END
