
#######################################################################
#
#                 Cambridge Crystallographic Data Centre
#                                CCDC
#
#######################################################################
#
# If this CIF has been generated from an entry in the Cambridge
# Structural Database, then it will include bibliographic, chemical,
# crystal, experimental, refinement or atomic coordinate data resulting
# from the CCDC's data processing and validation procedures.
#
#######################################################################

data_CSD_CIF_FULWEQ
_audit_creation_date 2015-03-27
_audit_creation_method CSD-ConQuest-V1
_database_code_CSD FULWEQ
_database_code_depnum_ccdc_archive 'CCDC 1008325'
_chemical_formula_sum 'C5 H9 N5 O4'
_chemical_formula_moiety
;
C5 H9 N5 O4
;
_journal_coden_Cambridge 1699
_journal_volume 3
_journal_year 2015
_journal_page_first 8756
_journal_name_full 'J.Mater.Chem.A '
loop_
_publ_author_name
"T.T.Vo"
"J.M.Shreeve"
_chemical_name_systematic
;
1-(2-Isopropylidenehydrazino)-2,2-dinitroethenamine
;
_cell_volume    442.447
_exptl_crystal_colour 'yellow'
_exptl_crystal_density_diffrn 1.525
_exptl_crystal_description 'plate'
_diffrn_ambient_temperature 173.1
#These two values have been output from a single CSD field.
_refine_ls_R_factor_gt 0.0323
_refine_ls_wR_factor_gt 0.0323
_symmetry_cell_setting triclinic
_symmetry_space_group_name_H-M 'P -1'
_symmetry_Int_Tables_number 2
loop_
_symmetry_equiv_pos_site_id
_symmetry_equiv_pos_as_xyz
1 x,y,z
2 -x,-y,-z
_cell_length_a 6.6857(1)
_cell_length_b 6.8993(1)
_cell_length_c 10.2681(2)
_cell_angle_alpha 76.7114(10)
_cell_angle_beta 79.0212(10)
_cell_angle_gamma 75.8661(10)
_cell_formula_units_Z 2
loop_
_atom_type_symbol
_atom_type_radius_bond
C 0.68
H 0.23
N 0.68
O 0.68
loop_
_atom_site_label
_atom_site_type_symbol
_atom_site_fract_x
_atom_site_fract_y
_atom_site_fract_z
O1 O 0.21920(19) 0.58341(16) -0.30233(11)
O2 O 0.0644(2) 0.89960(17) -0.32812(12)
O3 O 0.24028(18) 0.96066(15) 0.00249(10)
O4 O 0.2473(2) 1.08334(15) -0.21205(11)
N1 N 0.28861(18) 0.40354(17) 0.18915(12)
N2 N 0.25206(17) 0.58400(17) 0.09487(11)
H1 H 0.242(3) 0.703(3) 0.109(2)
N3 N 0.25006(18) 0.38977(17) -0.05580(14)
H2 H 0.250(3) 0.372(3) -0.136(2)
H3 H 0.268(3) 0.284(3) 0.013(2)
N4 N 0.16231(19) 0.74816(17) -0.26266(12)
N5 N 0.23049(18) 0.94115(17) -0.11542(12)
C1 C 0.2453(3) 0.6275(3) 0.35202(17)
H4 H 0.35900 0.69740 0.30850
H5 H 0.23710 0.60600 0.45040
H6 H 0.11340 0.71090 0.32470
C2 C 0.2856(2) 0.4266(2) 0.31006(15)
C3 C 0.3281(3) 0.2352(3) 0.41398(18)
H7 H 0.36680 0.11710 0.36970
H8 H 0.20280 0.22490 0.48030
H9 H 0.44270 0.23850 0.45990
C4 C 0.23864(19) 0.57122(19) -0.03094(13)
C5 C 0.2090(2) 0.75426(19) -0.13366(13)
#END
