
#######################################################################
#
#                 Cambridge Crystallographic Data Centre
#                                CCDC
#
#######################################################################
#
# If this CIF has been generated from an entry in the Cambridge
# Structural Database, then it will include bibliographic, chemical,
# crystal, experimental, refinement or atomic coordinate data resulting
# from the CCDC's data processing and validation procedures.
#
#######################################################################

data_CSD_CIF_FUMBOE
_audit_creation_date 1988-07-17
_audit_creation_method CSD-ConQuest-V1
_database_code_CSD FUMBOE
_chemical_formula_sum 'C16 H15 N1 O4'
_chemical_formula_moiety
;
C16 H15 N1 O4
;
_journal_coden_Cambridge 35
_journal_volume 52
_journal_year 1987
_journal_page_first 4164
_journal_name_full 'J.Org.Chem. '
loop_
_publ_author_name
"A.D.Allen"
"J.M.Kwong-Chip"
"J.Mistry"
"J.F.Sawyer"
"T.T.Tidwell"
_chemical_name_systematic
;
2-Phenylprop-2-yl p-nitrobenzoate
;
_cell_volume   1442.462
_exptl_crystal_density_diffrn 1.31
_diffrn_ambient_temperature ?
_diffrn_special_details
;
The study was carried out at room temperature,in the range 283-303K

;
#These two values have been output from a single CSD field.
_refine_ls_R_factor_gt 0.0456
_refine_ls_wR_factor_gt 0.0456
_symmetry_cell_setting monoclinic
_symmetry_space_group_name_H-M 'P 21/c'
_symmetry_Int_Tables_number 14
loop_
_symmetry_equiv_pos_site_id
_symmetry_equiv_pos_as_xyz
1 x,y,z
2 -x,1/2+y,1/2-z
3 -x,-y,-z
4 x,-1/2-y,-1/2+z
_cell_length_a 6.417(2)
_cell_length_b 10.962(2)
_cell_length_c 20.515(4)
_cell_angle_alpha 90
_cell_angle_beta 91.69(2)
_cell_angle_gamma 90
_cell_formula_units_Z 4
loop_
_atom_type_symbol
_atom_type_radius_bond
C 0.68
H 0.23
N 0.68
O 0.68
loop_
_atom_site_label
_atom_site_type_symbol
_atom_site_fract_x
_atom_site_fract_y
_atom_site_fract_z
O1 O 0.6881(3) 0.3746(2) 0.31535(8)
O2 O 0.9236(3) 0.5271(2) 0.32039(9)
O3 O 0.3027(4) 0.8128(2) 0.5419(1)
O4 O 0.0634(3) 0.6799(2) 0.5248(1)
N1 N 0.2346(4) 0.7221(2) 0.5150(1)
C1 C 0.7613(4) 0.4816(2) 0.3362(1)
C2 C 0.8085(4) 0.3016(2) 0.2683(1)
C3 C 1.0146(5) 0.2654(3) 0.2997(1)
C4 C 0.6705(5) 0.1905(3) 0.2580(1)
C5 C 0.8235(4) 0.3731(2) 0.2052(1)
C6 C 1.0040(5) 0.3771(3) 0.1710(1)
C7 C 1.0119(5) 0.4398(3) 0.1125(1)
C8 C 0.8423(6) 0.4986(3) 0.0874(1)
C9 C 0.6626(5) 0.4958(3) 0.1206(2)
C10 C 0.6501(4) 0.4326(3) 0.1788(1)
C11 C 0.6185(4) 0.5407(2) 0.3829(1)
C12 C 0.6857(4) 0.6466(3) 0.4133(1)
C13 C 0.5604(5) 0.7068(3) 0.4563(1)
C14 C 0.3685(4) 0.6590(2) 0.4683(1)
C15 C 0.2970(4) 0.5541(3) 0.4391(1)
C16 C 0.4238(4) 0.4949(3) 0.3963(1)
H1 H 1.133(4) 0.338(3) 0.189(1)
H2 H 1.152(4) 0.440(3) 0.090(1)
H3 H 0.860(4) 0.547(3) 0.047(1)
H4 H 0.546(4) 0.532(3) 0.108(1)
H5 H 0.532(3) 0.429(2) 0.204(1)
H6 H 0.803(3) 0.678(2) 0.402(1)
H7 H 0.606(3) 0.781(2) 0.478(1)
H8 H 0.166(3) 0.528(2) 0.448(1)
H9 H 0.387(3) 0.420(2) 0.377(1)
H10 H 1.080(4) 0.202(2) 0.274(1)
H11 H 0.999(4) 0.229(2) 0.342(1)
H12 H 1.118(4) 0.337(3) 0.305(1)
H13 H 0.740(4) 0.137(2) 0.228(1)
H14 H 0.654(4) 0.151(3) 0.299(1)
H15 H 0.528(4) 0.213(3) 0.241(1)
#END
