
#######################################################################
#
#                 Cambridge Crystallographic Data Centre
#                                CCDC
#
#######################################################################
#
# If this CIF has been generated from an entry in the Cambridge
# Structural Database, then it will include bibliographic, chemical,
# crystal, experimental, refinement or atomic coordinate data resulting
# from the CCDC's data processing and validation procedures.
#
#######################################################################

data_CSD_CIF_FUMTOW
_audit_creation_date 1988-08-15
_audit_creation_method CSD-ConQuest-V1
_database_code_CSD FUMTOW
_database_code_depnum_ccdc_archive 'CCDC 1161202'
_chemical_formula_sum 'C17 H18 N4 O5'
_chemical_formula_moiety
;
C17 H18 N4 O5
;
_journal_coden_Cambridge 3
_journal_volume 41
_journal_year 1987
_journal_page_first 581
_journal_name_full 'Acta Chem.Scand. '
loop_
_publ_author_name
"R.Fossheim"
_chemical_name_systematic
;
Isopropyl 
4-(2,1,3-benzoxadiazol-4-yl)-1,4-dihydro-2,6-dimethyl-5-nitro-3-pyridinecarbox
ylate
;
_cell_volume   1714.149
_exptl_special_details
;
calcium channel modulator activity

;
_diffrn_ambient_temperature 123.15
#These two values have been output from a single CSD field.
_refine_ls_R_factor_gt 0.064
_refine_ls_wR_factor_gt 0.064
_symmetry_cell_setting monoclinic
_symmetry_space_group_name_H-M 'C c'
_symmetry_Int_Tables_number 9
loop_
_symmetry_equiv_pos_site_id
_symmetry_equiv_pos_as_xyz
1 x,y,z
2 1/2+x,1/2+y,z
3 x,-y,1/2+z
4 1/2+x,1/2-y,1/2+z
_cell_length_a 14.483(3)
_cell_length_b 12.386(3)
_cell_length_c 12.118(2)
_cell_angle_alpha 90
_cell_angle_beta 127.95(1)
_cell_angle_gamma 90
_cell_formula_units_Z 4
loop_
_atom_type_symbol
_atom_type_radius_bond
C 0.68
H 0.23
N 0.68
O 0.68
loop_
_atom_site_label
_atom_site_type_symbol
_atom_site_fract_x
_atom_site_fract_y
_atom_site_fract_z
O1 O 0.50130 0.5766(3) -0.17380
O2 O 0.3650(4) 0.7059(4) -0.2772(5)
O3 O 0.2193(4) 0.8078(3) 0.0793(5)
O4 O 0.2365(4) 0.9030(3) -0.0567(5)
O5 O 0.6983(4) 0.9264(3) 0.3191(5)
N1 N 0.4958(4) 0.6226(3) 0.1738(5)
N2 N 0.2673(4) 0.8255(3) 0.0244(5)
N3 N 0.6034(5) 0.8594(3) 0.2262(6)
N4 N 0.7070(5) 1.0105(4) 0.2516(6)
C1 C 0.5069(5) 0.6051(4) 0.0687(6)
C2 C 0.4477(5) 0.6692(4) -0.0458(6)
C3 C 0.3829(5) 0.7688(4) -0.0536(6)
C4 C 0.3567(5) 0.7579(3) 0.0494(6)
C5 C 0.4171(5) 0.6902(3) 0.1615(6)
C6 C 0.4505(5) 0.8702(4) -0.0328(6)
C7 C 0.5538(5) 0.9039(3) 0.1023(6)
C8 C 0.6179(5) 0.9958(4) 0.1174(7)
C9 C 0.5862(6) 1.0604(5) 0.0011(7)
C10 C 0.4882(6) 1.0270(5) -0.1265(7)
C11 C 0.4214(6) 0.9343(4) -0.1408(7)
C12 C 0.5827(6) 0.5101(4) 0.0989(7)
C13 C 0.4450(5) 0.6440(4) -0.1670(6)
C14 C 0.3549(7) 0.6943(6) -0.4052(7)
C15 C 0.2303(7) 0.7218(8) -0.5237(8)
C16 C 0.4411(9) 0.7624(8) -0.3934(8)
C17 C 0.4137(6) 0.6852(4) 0.2831(6)
H1 H 0.526(5) 0.576(5) 0.237(6)
H2 H 0.297(5) 0.774(4) -0.153(6)
H3 H 0.638(6) 1.124(6) 0.006(7)
H4 H 0.466(5) 1.073(5) -0.210(6)
H5 H 0.352(5) 0.913(4) -0.233(6)
H6 H 0.624(5) 0.491(5) 0.185(7)
H7 H 0.540(5) 0.438(5) 0.055(6)
H8 H 0.610(5) 0.504(5) 0.054(6)
H9 H 0.351(4) 0.616(4) -0.426(5)
H10 H 0.17200 0.66700 -0.52300
H11 H 0.21300 0.80400 -0.51000
H12 H 0.21500 0.71500 -0.62200
H13 H 0.52700 0.73500 -0.30600
H14 H 0.43200 0.75700 -0.48900
H15 H 0.43000 0.84500 -0.37600
H16 H 0.437(7) 0.606(7) 0.332(9)
H17 H 0.397(7) 0.750(7) 0.300(9)
H18 H 0.339(7) 0.635(7) 0.250(8)
#END
