
#######################################################################
#
#                 Cambridge Crystallographic Data Centre
#                                CCDC
#
#######################################################################
#
# If this CIF has been generated from an entry in the Cambridge
# Structural Database, then it will include bibliographic, chemical,
# crystal, experimental, refinement or atomic coordinate data resulting
# from the CCDC's data processing and validation procedures.
#
#######################################################################

data_CSD_CIF_FUPGOM
_audit_creation_date 1988-09-05
_audit_creation_method CSD-ConQuest-V1
_database_code_CSD FUPGOM
_database_code_depnum_ccdc_archive 'CCDC 1161353'
_chemical_formula_sum 'C24 H29 N1 O9'
_chemical_formula_moiety
;
C24 H29 N1 O9
;
_journal_coden_Cambridge 182
_journal_year 1988
_journal_page_first 167
_journal_name_full 'Chem.Commun. '
loop_
_publ_author_name
"A.P.Kozikowski"
"Sun Ho Jung"
"J.P.Springer"
_chemical_name_systematic
;
Dimethyl 
perhydro-5-benzyloxy-1,8-(epoxynitrilo)-2-hydroxy-3,4-isopropylidenedioxy-naph
thalene-1,8a-dicarboxylate
;
_cell_volume   2321.387
_exptl_crystal_density_diffrn 1.36
_diffrn_ambient_temperature ?
_diffrn_special_details
;
The study was carried out at room temperature,in the range 283-303K

;
#These two values have been output from a single CSD field.
_refine_ls_R_factor_gt 0.043
_refine_ls_wR_factor_gt 0.043
_symmetry_cell_setting monoclinic
_symmetry_space_group_name_H-M 'P 21/c'
_symmetry_Int_Tables_number 14
loop_
_symmetry_equiv_pos_site_id
_symmetry_equiv_pos_as_xyz
1 x,y,z
2 -x,1/2+y,1/2-z
3 -x,-y,-z
4 x,-1/2-y,-1/2+z
_cell_length_a 11.627(1)
_cell_length_b 14.797(1)
_cell_length_c 14.261(2)
_cell_angle_alpha 90
_cell_angle_beta 108.89(1)
_cell_angle_gamma 90
_cell_formula_units_Z 4
loop_
_atom_type_symbol
_atom_type_radius_bond
C 0.68
H 0.23
N 0.68
O 0.68
loop_
_atom_site_label
_atom_site_type_symbol
_atom_site_fract_x
_atom_site_fract_y
_atom_site_fract_z
C1 C 0.6354(2) 0.7558(2) 0.2934(2)
C2 C 0.6796(2) 0.8473(2) 0.2783(2)
C3 C 0.6067(2) 0.9159(2) 0.3170(2)
C4 C 0.6046(2) 0.8936(2) 0.4202(2)
C5 C 0.5588(2) 0.7972(2) 0.4296(1)
C6 C 0.4259(2) 0.7857(2) 0.3689(2)
C7 C 0.3761(2) 0.6915(2) 0.3767(2)
C8 C 0.4728(2) 0.6199(2) 0.4141(2)
C9 C 0.5748(2) 0.6329(2) 0.3699(2)
C10 C 0.6368(2) 0.7270(1) 0.3952(2)
N1 N 0.5733(2) 0.7059(1) 0.2228(1)
O1 O 0.5245(1) 0.6318(1) 0.2630(1)
O2 O 0.7265(1) 0.9049(1) 0.4853(1)
C11 C 0.7352(2) 0.9236(2) 0.5858(2)
C12 C 0.8657(2) 0.9336(2) 0.6469(2)
C13 C 0.9536(2) 0.9585(2) 0.6060(2)
C14 C 1.0724(2) 0.9716(2) 0.6654(2)
C15 C 1.1054(3) 0.9599(2) 0.7650(2)
C16 C 1.0202(3) 0.9344(2) 0.8060(2)
C17 C 0.9015(2) 0.9206(2) 0.7478(2)
O3 O 0.3527(1) 0.8446(1) 0.4047(1)
C18 C 0.2669(2) 0.7933(2) 0.4349(2)
C19 C 0.2658(3) 0.8271(2) 0.5335(2)
C20 C 0.1449(2) 0.7976(2) 0.3558(2)
O4 O 0.3142(1) 0.7030(1) 0.4475(1)
O5 O 0.4270(1) 0.5314(1) 0.3890(1)
C21 C 0.6627(2) 0.5529(2) 0.4052(2)
O6 O 0.7050(1) 0.5334(1) 0.4922(1)
O7 O 0.6842(1) 0.5084(1) 0.3330(1)
C22 C 0.7628(3) 0.4300(2) 0.3640(2)
C23 C 0.7674(2) 0.7178(2) 0.4650(2)
O8 O 0.8520(1) 0.7065(1) 0.4366(1)
O9 O 0.7738(1) 0.7183(1) 0.5600(1)
C24 C 0.8930(2) 0.6991(2) 0.6302(2)
H1 H 0.767(2) 0.851(1) 0.318(1)
H2 H 0.671(2) 0.859(1) 0.208(1)
H3 H 0.644(2) 0.974(1) 0.319(1)
H4 H 0.524(2) 0.918(1) 0.271(1)
H5 H 0.549(2) 0.936(1) 0.437(1)
H6 H 0.568(2) 0.787(1) 0.495(1)
H7 H 0.412(2) 0.801(1) 0.298(1)
H8 H 0.316(2) 0.673(1) 0.312(1)
H9 H 0.504(2) 0.625(1) 0.488(1)
H10 H 0.689(2) 0.976(1) 0.586(1)
H11 H 0.696(2) 0.877(1) 0.612(1)
H12 H 0.931(2) 0.961(1) 0.534(1)
H13 H 1.125(2) 0.982(2) 0.636(2)
H14 H 1.188(2) 0.967(2) 0.803(2)
H15 H 1.040(2) 0.927(2) 0.871(2)
H16 H 0.841(2) 0.895(2) 0.773(2)
H17 H 0.347(2) 0.820(2) 0.582(2)
H18 H 0.208(2) 0.796(2) 0.557(2)
H19 H 0.236(2) 0.895(2) 0.523(2)
H20 H 0.153(2) 0.773(2) 0.292(2)
H21 H 0.120(2) 0.860(2) 0.341(2)
H22 H 0.086(2) 0.764(2) 0.374(2)
H23 H 0.393(2) 0.520(1) 0.425(1)
H24 H 0.773(2) 0.410(2) 0.297(2)
H25 H 0.731(2) 0.388(2) 0.396(2)
H26 H 0.843(2) 0.447(2) 0.407(2)
H27 H 0.883(2) 0.715(2) 0.695(2)
H28 H 0.952(2) 0.740(2) 0.613(2)
H29 H 0.920(2) 0.634(2) 0.620(2)
#END
