
#######################################################################
#
#                 Cambridge Crystallographic Data Centre
#                                CCDC
#
#######################################################################
#
# If this CIF has been generated from an entry in the Cambridge
# Structural Database, then it will include bibliographic, chemical,
# crystal, experimental, refinement or atomic coordinate data resulting
# from the CCDC's data processing and validation procedures.
#
#######################################################################

data_CSD_CIF_FUPKAC
_audit_creation_date 1988-08-15
_audit_creation_method CSD-ConQuest-V1
_database_code_CSD FUPKAC
_chemical_formula_sum 'C14 H11 N3 O3'
_chemical_formula_moiety
;
C14 H11 N3 O3
;
_journal_coden_Cambridge 35
_journal_volume 53
_journal_year 1988
_journal_page_first 205
_journal_name_full 'J.Org.Chem. '
loop_
_publ_author_name
"J.Singh"
"R.Fox"
"M.Wong"
"T.P.Kissick"
"J.L.Moniot"
"J.Z.Gougoutas"
"M.F.Malley"
"O.Kocy"
_chemical_name_systematic
;
1H-Benzotriazole-1-carboxylic acid benzyl ester 3-oxide
;
_chemical_melting_point 412.15
_cell_volume   1264.777
_exptl_crystal_density_diffrn 1.41
_exptl_special_details
;
Melting point range 412.15-413.15K

;
_diffrn_ambient_temperature ?
_diffrn_special_details
;
The study was carried out at room temperature,in the range 283-303K

;
#These two values have been output from a single CSD field.
_refine_ls_R_factor_gt 0.056
_refine_ls_wR_factor_gt 0.056
_symmetry_cell_setting orthorhombic
_symmetry_space_group_name_H-M 'P 21 21 21'
_symmetry_Int_Tables_number 19
loop_
_symmetry_equiv_pos_site_id
_symmetry_equiv_pos_as_xyz
1 x,y,z
2 1/2+x,1/2-y,-z
3 -x,1/2+y,1/2-z
4 1/2-x,-y,1/2+z
_cell_length_a 15.030(1)
_cell_length_b 15.154(6)
_cell_length_c 5.553(3)
_cell_angle_alpha 90
_cell_angle_beta 90
_cell_angle_gamma 90
_cell_formula_units_Z 4
loop_
_atom_type_symbol
_atom_type_radius_bond
C 0.68
H 0.23
N 0.68
O 0.68
loop_
_atom_site_label
_atom_site_type_symbol
_atom_site_fract_x
_atom_site_fract_y
_atom_site_fract_z
N1 N 0.2853(3) 0.7316(3) 0.6666(8)
O1 O 0.3198(2) 0.7611(3) 0.8582(7)
N2 N 0.3270(2) 0.6783(3) 0.5209(8)
N3 N 0.2671(2) 0.6596(3) 0.3408(8)
C1 C 0.1073(3) 0.7058(4) 0.253(1)
C2 C 0.0409(3) 0.7571(3) 0.354(1)
C3 C 0.0533(3) 0.8055(4) 0.563(1)
C4 C 0.1328(4) 0.8039(3) 0.688(1)
C5 C 0.1989(3) 0.7501(3) 0.5871(9)
C6 C 0.1876(3) 0.7037(3) 0.377(1)
C7 C 0.2883(3) 0.6040(3) 0.148(1)
O2 O 0.2340(2) 0.5808(2) 0.0062(7)
O3 O 0.3737(2) 0.5834(2) 0.1578(7)
C8 C 0.4048(4) 0.5257(4) -0.039(1)
C9 C 0.4917(3) 0.4879(3) 0.0366(9)
C10 C 0.4971(5) 0.4405(4) 0.236(1)
C11 C 0.5713(5) 0.4014(4) 0.311(2)
C12 C 0.6456(4) 0.4121(4) 0.179(1)
C13 C 0.6504(5) 0.4601(5) -0.025(2)
C14 C 0.5643(4) 0.5009(4) -0.108(1)
H1 H 0.09840 0.67390 0.10740
H2 H -0.01570 0.75890 0.27940
H3 H 0.00600 0.84160 0.62080
H4 H 0.14190 0.83640 0.83160
H5 H 0.36300 0.47970 -0.06410
H6 H 0.41200 0.55890 -0.18140
H7 H 0.44500 0.43380 0.33060
H8 H 0.57160 0.36830 0.45500
H9 H 0.69780 0.38240 0.23040
H10 H 0.70450 0.46850 -0.10820
H11 H 0.56020 0.53380 -0.25300
#END
