
#######################################################################
#
#                 Cambridge Crystallographic Data Centre
#                                CCDC
#
#######################################################################
#
# If this CIF has been generated from an entry in the Cambridge
# Structural Database, then it will include bibliographic, chemical,
# crystal, experimental, refinement or atomic coordinate data resulting
# from the CCDC's data processing and validation procedures.
#
#######################################################################

data_CSD_CIF_FUPWAO
_audit_creation_date 1988-08-15
_audit_creation_method CSD-ConQuest-V1
_database_code_CSD FUPWAO
_database_code_depnum_ccdc_archive 'CCDC 1161403'
_chemical_formula_sum 'C18 H20 N2 O5'
_chemical_formula_moiety
;
C18 H20 N2 O5
;
_journal_coden_Cambridge 582
_journal_volume 16
_journal_year 1986
_journal_page_first 923
_journal_name_full 'J.Crystallogr.Spectrosc.Res. '
loop_
_publ_author_name
"J.M.M.Smits"
"P.T.Beurskens"
"R.Plate"
"H.C.J.Ottenheijm"
_chemical_name_systematic
;
endo-1-Methoxycarbonyl-5-ethoxycarbonyl-4,5,6,11b-tetrahydroisoxazolidino(2,3-
a)-\b-carboline
;
_chemical_melting_point 453.15
_cell_volume   1682.307
_exptl_crystal_density_diffrn 1.36
_exptl_special_details
;
Melting point range 453.15-455.15K

;
_diffrn_ambient_temperature ?
_diffrn_special_details
;
The study was carried out at room temperature,in the range 283-303K

;
#These two values have been output from a single CSD field.
_refine_ls_R_factor_gt 0.054
_refine_ls_wR_factor_gt 0.054
loop_
_citation_database_id_CSD
_citation_special_details
FUPWES "is a stereoisomer of this entry"
_symmetry_cell_setting monoclinic
_symmetry_space_group_name_H-M 'P 21/c'
_symmetry_Int_Tables_number 14
loop_
_symmetry_equiv_pos_site_id
_symmetry_equiv_pos_as_xyz
1 x,y,z
2 -x,1/2+y,1/2-z
3 -x,-y,-z
4 x,-1/2-y,-1/2+z
_cell_length_a 11.4266(5)
_cell_length_b 7.9563(15)
_cell_length_c 18.9075(7)
_cell_angle_alpha 90
_cell_angle_beta 101.851(3)
_cell_angle_gamma 90
_cell_formula_units_Z 4
loop_
_atom_type_symbol
_atom_type_radius_bond
C 0.68
H 0.23
N 0.68
O 0.68
loop_
_atom_site_label
_atom_site_type_symbol
_atom_site_fract_x
_atom_site_fract_y
_atom_site_fract_z
C1 C 0.3529(2) 0.2679(2) 0.66563(9)
C2 C 0.4162(2) 0.3300(2) 0.60834(9)
O1 O 0.5162(1) 0.4098(2) 0.63983(7)
O2 O 0.3872(2) 0.3070(2) 0.54442(7)
C3 C 0.6062(2) 0.4294(3) 0.5973(1)
C4 C 0.2245(2) 0.2111(3) 0.6389(1)
O3 O 0.2177(1) 0.0386(2) 0.66308(8)
N1 N 0.3344(1) -0.0348(2) 0.66992(8)
C5 C 0.3490(2) -0.0825(2) 0.59586(9)
C6 C 0.2499(2) -0.2087(3) 0.5688(1)
O4 O 0.1777(1) -0.1495(2) 0.50912(9)
O5 O 0.2372(2) -0.3384(2) 0.5978(1)
C7 C 0.0707(2) -0.2462(4) 0.4794(2)
C8 C 0.0953(3) -0.3813(5) 0.4306(2)
C9 C 0.4728(2) -0.1596(2) 0.6007(1)
C10 C 0.5660(1) -0.0521(2) 0.64695(9)
C11 C 0.6938(2) -0.0538(2) 0.65762(9)
C12 C 0.7772(2) -0.1438(3) 0.6270(1)
C13 C 0.8971(2) -0.1127(3) 0.6519(1)
C14 C 0.9368(2) 0.0050(3) 0.7064(1)
C15 C 0.8577(2) 0.0965(3) 0.7370(1)
C16 C 0.7363(2) 0.0662(2) 0.71191(9)
N2 N 0.6391(1) 0.1372(2) 0.73300(8)
C17 C 0.5375(1) 0.0653(2) 0.69300(8)
C18 C 0.4135(1) 0.1039(2) 0.70170(9)
H1 H 0.355(3) 0.350(4) 0.697(2)
H2 H 0.671(3) 0.483(4) 0.629(2)
H3 H 0.583(3) 0.514(4) 0.562(2)
H4 H 0.625(3) 0.321(4) 0.580(2)
H5 H 0.195(3) 0.216(4) 0.589(2)
H6 H 0.168(3) 0.274(4) 0.663(2)
H7 H 0.341(3) 0.019(4) 0.560(2)
H8 H 0.006(3) -0.161(4) 0.449(2)
H9 H 0.032(3) -0.305(4) 0.518(2)
H10 H 0.157(3) -0.435(4) 0.466(2)
H11 H 0.013(3) -0.440(4) 0.399(2)
H12 H 0.126(3) -0.331(4) 0.390(2)
H13 H 0.477(3) -0.274(4) 0.625(2)
H14 H 0.493(2) -0.156(4) 0.552(2)
H15 H 0.751(3) -0.225(4) 0.587(2)
H16 H 0.962(3) -0.165(4) 0.634(1)
H17 H 1.022(3) 0.014(4) 0.723(1)
H18 H 0.886(3) 0.180(4) 0.776(2)
H19 H 0.643(3) 0.228(4) 0.762(2)
H20 H 0.411(2) 0.106(4) 0.758(2)
#END
