
#######################################################################
#
#                 Cambridge Crystallographic Data Centre
#                                CCDC
#
#######################################################################
#
# If this CIF has been generated from an entry in the Cambridge
# Structural Database, then it will include bibliographic, chemical,
# crystal, experimental, refinement or atomic coordinate data resulting
# from the CCDC's data processing and validation procedures.
#
#######################################################################

data_CSD_CIF_FUPWIW
_audit_creation_date 1988-08-15
_audit_creation_method CSD-ConQuest-V1
_database_code_CSD FUPWIW
_database_code_depnum_ccdc_archive 'CCDC 1161405'
_chemical_formula_sum 'C22 H22 N2 O3'
_chemical_formula_moiety
;
C22 H22 N2 O3
;
_journal_coden_Cambridge 582
_journal_volume 16
_journal_year 1986
_journal_page_first 941
_journal_name_full 'J.Crystallogr.Spectrosc.Res. '
loop_
_publ_author_name
"J.M.M.Smits"
"P.T.Beurskens"
"R.Plate"
"H.C.J.Ottenheijm"
_chemical_name_systematic
;
exo-2-Phenyl-5-ethoxycarbonyl-4,5,6,11b-tetrahydroisoxazolidino(2,3-a)-\b-carb
oline
;
_chemical_melting_point 485.15
_cell_volume   3831.445
_exptl_crystal_density_diffrn 1.257
_exptl_special_details
;
Melting point range 485.15-488.15K

;
_diffrn_ambient_temperature ?
_diffrn_special_details
;
The study was carried out at room temperature,in the range 283-303K

;
#These two values have been output from a single CSD field.
_refine_ls_R_factor_gt 0.05
_refine_ls_wR_factor_gt 0.05
_symmetry_cell_setting orthorhombic
_symmetry_space_group_name_H-M 'P b c a'
_symmetry_Int_Tables_number 61
loop_
_symmetry_equiv_pos_site_id
_symmetry_equiv_pos_as_xyz
1 x,y,z
2 1/2-x,-y,1/2+z
3 1/2+x,1/2-y,-z
4 -x,1/2+y,1/2-z
5 -x,-y,-z
6 -1/2+x,y,-1/2-z
7 -1/2-x,-1/2+y,z
8 x,-1/2-y,-1/2+z
_cell_length_a 11.666(4)
_cell_length_b 15.691(1)
_cell_length_c 20.931(1)
_cell_angle_alpha 90
_cell_angle_beta 90
_cell_angle_gamma 90
_cell_formula_units_Z 8
loop_
_atom_type_symbol
_atom_type_radius_bond
C 0.68
H 0.23
N 0.68
O 0.68
loop_
_atom_site_label
_atom_site_type_symbol
_atom_site_fract_x
_atom_site_fract_y
_atom_site_fract_z
C1 C 0.7733(2) -0.3262(2) 0.2246(1)
C2 C 0.8841(2) -0.3736(2) 0.2402(1)
C3 C 0.8934(2) -0.4011(2) 0.3090(1)
C4 C 0.8380(2) -0.4756(2) 0.3275(2)
C5 C 0.8411(3) -0.5017(2) 0.3901(2)
C6 C 0.9002(3) -0.4562(3) 0.4347(2)
C7 C 0.9566(3) -0.3851(3) 0.4169(2)
C8 C 0.9539(3) -0.3563(2) 0.3540(1)
O1 O 0.9754(1) -0.3147(1) 0.22498(8)
N1 N 0.9303(1) -0.2303(1) 0.20980(9)
C9 C 0.9382(2) -0.2217(2) 0.1402(1)
C10 C 1.0617(2) -0.2339(2) 0.1204(1)
O2 O 1.0675(2) -0.2638(1) 0.06110(9)
O3 O 1.1435(1) -0.2173(1) 0.15220(9)
C11 C 1.1805(3) -0.2864(2) 0.0368(2)
C12 C 1.2406(4) -0.2173(3) 0.0083(2)
C13 C 0.8965(2) -0.1326(2) 0.1220(1)
C14 C 0.7778(2) -0.1218(2) 0.1481(1)
C15 C 0.6840(2) -0.0698(2) 0.1279(1)
C16 C 0.6686(3) -0.0074(2) 0.0810(1)
C17 C 0.5639(3) 0.0307(2) 0.0744(1)
C18 C 0.4721(2) 0.0078(2) 0.1133(1)
C19 C 0.4834(2) -0.0542(2) 0.1600(1)
C20 C 0.5903(2) -0.0916(2) 0.1670(1)
N2 N 0.6270(2) -0.1530(1) 0.2097(1)
C21 C 0.7403(2) -0.1697(1) 0.1976(1)
C22 C 0.8097(2) -0.2341(2) 0.2329(1)
H1 H 0.752(2) -0.340(2) 0.179(1)
H2 H 0.711(2) -0.341(2) 0.252(1)
H3 H 0.892(2) -0.424(2) 0.211(1)
H4 H 0.797(2) -0.509(2) 0.297(1)
H5 H 0.804(2) -0.550(2) 0.400(1)
H6 H 0.900(2) -0.483(2) 0.475(1)
H7 H 0.995(2) -0.350(2) 0.447(1)
H8 H 0.995(2) -0.300(2) 0.341(1)
H9 H 0.891(2) -0.266(2) 0.117(1)
H10 H 1.1720(3) -0.3263(2) -0.0049(2)
H11 H 1.2288(3) -0.3198(2) 0.0730(2)
H12 H 1.3259(4) -0.2352(3) -0.0065(2)
H13 H 1.2454(4) -0.1633(3) 0.0402(2)
H14 H 1.1903(4) -0.2005(3) -0.0331(2)
H15 H 0.948(2) -0.092(2) 0.136(1)
H16 H 0.898(2) -0.127(2) 0.074(1)
H17 H 0.731(2) 0.011(2) 0.055(1)
H18 H 0.552(2) 0.071(2) 0.041(1)
H19 H 0.400(2) 0.039(2) 0.109(1)
H20 H 0.421(2) -0.064(2) 0.190(1)
H21 H 0.585(2) -0.173(2) 0.242(1)
H22 H 0.807(2) -0.224(2) 0.281(1)
#END
