
#######################################################################
#
#                 Cambridge Crystallographic Data Centre
#                                CCDC
#
#######################################################################
#
# If this CIF has been generated from an entry in the Cambridge
# Structural Database, then it will include bibliographic, chemical,
# crystal, experimental, refinement or atomic coordinate data resulting
# from the CCDC's data processing and validation procedures.
#
#######################################################################

data_CSD_CIF_FUQFEC
_audit_creation_date 2000-12-15
_audit_creation_method CSD-ConQuest-V1
_database_code_CSD FUQFEC
_database_code_depnum_ccdc_archive 'CCDC 146257'
_database_code_depnum_ccdc_journal 1267/348
_chemical_formula_sum 'C18 H20 N6 O2'
_chemical_formula_moiety
;
C18 H20 N6 O2
;
_journal_coden_Cambridge 1267
_journal_volume 215
_journal_year 2000
_journal_page_first 387
_journal_name_full 'Z.Kristallogr.-New Cryst.Struct. '
loop_
_publ_author_name
"K.Peters"
"E.-M.Peters"
"J.Balthasar"
"H.Quast"
_chemical_name_systematic
;
4,5,2',3'-Tetrahydro-4,4,1',3'-tetramethyl-1-(2-nitrophenyl)spiro((1H)(1,2,3)-
triazole-5,2'-benzimidazole)
;
_chemical_melting_point 368
_cell_volume   1790.903
_exptl_crystal_colour 'yellow-brown'
_exptl_special_details
;
Melts with decomposition.

;
_exptl_crystal_description 'plate'
_diffrn_ambient_temperature ?
_diffrn_special_details
;
The study was carried out at room temperature,in the range 283-303K

;
#These two values have been output from a single CSD field.
_refine_ls_R_factor_gt 0.0521
_refine_ls_wR_factor_gt 0.0521
_symmetry_cell_setting monoclinic
_symmetry_space_group_name_H-M 'P 21/n'
_symmetry_Int_Tables_number 14
loop_
_symmetry_equiv_pos_site_id
_symmetry_equiv_pos_as_xyz
1 x,y,z
2 1/2-x,1/2+y,1/2-z
3 -x,-y,-z
4 -1/2+x,-1/2-y,-1/2+z
_cell_length_a 16.5197(70)
_cell_length_b 8.3458(23)
_cell_length_c 13.1604(58)
_cell_angle_alpha 90
_cell_angle_beta 99.236(34)
_cell_angle_gamma 90
_cell_formula_units_Z 4
loop_
_atom_type_symbol
_atom_type_radius_bond
C 0.68
H 0.23
N 0.68
O 0.68
loop_
_atom_site_label
_atom_site_type_symbol
_atom_site_fract_x
_atom_site_fract_y
_atom_site_fract_z
N1 N 0.65067(12) 0.24858(25) 0.34761(13)
N2 N 0.67058(14) 0.37755(28) 0.29081(15)
N3 N 0.70704(15) 0.48545(27) 0.34734(17)
C1 C 0.71290(15) 0.4434(3) 0.45730(18)
C2 C 0.69041(14) 0.26001(28) 0.45726(16)
N4 N 0.63814(12) 0.20585(24) 0.52836(14)
C3 C 0.55054(15) 0.23729(38) 0.51721(23)
H1 H 0.53743(15) 0.33076(38) 0.47527(23)
H2 H 0.53558(15) 0.25493(38) 0.58385(23)
H3 H 0.52079(15) 0.14694(38) 0.48514(23)
C4 C 0.67329(16) 0.07599(28) 0.58613(16)
C5 C 0.64405(21) -0.01794(34) 0.65800(19)
H4 H 0.59039(21) -0.00064(34) 0.67514(19)
C6 C 0.69439(31) -0.13811(41) 0.70504(23)
H5 H 0.67535(31) -0.20530(41) 0.75551(23)
C7 C 0.77067(30) -0.16261(39) 0.68063(24)
H6 H 0.80479(30) -0.24493(39) 0.71595(24)
C8 C 0.80050(19) -0.07134(33) 0.60604(20)
H7 H 0.85383(19) -0.09053(33) 0.58837(20)
C9 C 0.75003(16) 0.04791(28) 0.55852(16)
N5 N 0.76164(11) 0.15661(24) 0.48286(13)
C10 C 0.81925(16) 0.12781(37) 0.41293(20)
H8 H 0.81843(16) 0.21670(37) 0.36648(20)
H9 H 0.80412(16) 0.03174(37) 0.37441(20)
H10 H 0.87341(16) 0.11583(37) 0.45143(20)
C11 C 0.60700(14) 0.12143(31) 0.29490(16)
C12 C 0.54821(15) 0.14911(35) 0.20764(18)
N6 N 0.52091(18) 0.31183(39) 0.17487(24)
O1 O 0.50301(16) 0.40499(32) 0.24109(24)
O2 O 0.51551(17) 0.34499(36) 0.08430(19)
C13 C 0.50873(17) 0.02366(44) 0.15084(20)
H11 H 0.47106(17) 0.04526(44) 0.0889(2)
C14 C 0.52364(17) -0.13145(42) 0.18332(22)
H12 H 0.49574(17) -0.21842(42) 0.14477(22)
C15 C 0.57869(16) -0.16175(35) 0.27131(20)
H13 H 0.58833(16) -0.26999(35) 0.29486(20)
C16 C 0.62020(15) -0.03711(32) 0.32589(18)
H14 H 0.65895(15) -0.06036(32) 0.38659(18)
C17 C 0.79890(16) 0.48244(35) 0.51148(21)
H15 H 0.80365(16) 0.45572(35) 0.58314(21)
H16 H 0.80932(16) 0.59474(35) 0.50449(21)
H17 H 0.83809(16) 0.42156(35) 0.48100(21)
C18 C 0.65095(18) 0.54847(34) 0.50080(23)
H18 H 0.65275(18) 0.52486(34) 0.57252(23)
H19 H 0.59688(18) 0.52735(34) 0.46434(23)
H20 H 0.66426(18) 0.65926(34) 0.49285(23)
#END
