
#######################################################################
#
#                 Cambridge Crystallographic Data Centre
#                                CCDC
#
#######################################################################
#
# If this CIF has been generated from an entry in the Cambridge
# Structural Database, then it will include bibliographic, chemical,
# crystal, experimental, refinement or atomic coordinate data resulting
# from the CCDC's data processing and validation procedures.
#
#######################################################################

data_CSD_CIF_FURALA10
_audit_creation_date 1983-09-01
_audit_creation_method CSD-ConQuest-V1
_database_code_CSD FURALA10
_database_code_depnum_ccdc_archive 'CCDC 1161444'
_chemical_formula_sum 'C13 H16 N4 O6'
_chemical_formula_moiety
;
C13 H16 N4 O6
;
_journal_coden_Cambridge 4
_journal_volume 104
_journal_year 1982
_journal_page_first 7077
_journal_name_full 'J.Am.Chem.Soc. '
loop_
_publ_author_name
"I.Goldberg"
_chemical_name_systematic
;
5-(Morpholinomethyl)-3-((5-nitrofurfurylidene)-amino)-2-oxazolidinone
;
_chemical_name_common
;
Furaltadone
;
_cell_volume   1531.869
_exptl_crystal_density_diffrn 1.406
_exptl_special_details
;
antibacterial agent

;
_diffrn_ambient_temperature ?
_diffrn_special_details
;
The study was carried out at room temperature,in the range 283-303K

;
_refine_special_details
;
There is significant conformational disorder within the morpholine ring.

;
#These two values have been output from a single CSD field.
_refine_ls_R_factor_gt 0.122
_refine_ls_wR_factor_gt 0.122
_symmetry_cell_setting monoclinic
_symmetry_space_group_name_H-M 'P 21/n'
_symmetry_Int_Tables_number 14
loop_
_symmetry_equiv_pos_site_id
_symmetry_equiv_pos_as_xyz
1 x,y,z
2 1/2-x,1/2+y,1/2-z
3 -x,-y,-z
4 -1/2+x,-1/2-y,-1/2+z
_cell_length_a 6.465(2)
_cell_length_b 24.986(5)
_cell_length_c 9.606(9)
_cell_angle_alpha 90
_cell_angle_beta 99.17(6)
_cell_angle_gamma 90
_cell_formula_units_Z 4
loop_
_atom_type_symbol
_atom_type_radius_bond
C 0.68
H 0.23
N 0.68
O 0.68
loop_
_atom_site_label
_atom_site_type_symbol
_atom_site_fract_x
_atom_site_fract_y
_atom_site_fract_z
C1 C 0.33790 0.41380 0.99860
C2 C 0.12740 0.41770 0.98770
C3 C 0.06630 0.45320 0.87910
C4 C 0.24330 0.47000 0.83230
O1 O 0.41310 0.44510 0.90560
N1 N 0.49060 0.38210 1.09000
O2 O 0.66260 0.38810 1.08030
O3 O 0.42050 0.35700 1.17370
C5 C 0.27310 0.50700 0.72160
N2 N 0.45540 0.51720 0.69550
N3 N 0.46980 0.55420 0.59490
C6 C 0.30470 0.58710 0.52260
C7 C 0.42620 0.62140 0.43390
O4 O 0.63950 0.60760 0.47150
C8 C 0.66060 0.56740 0.56630
O5 O 0.82240 0.54750 0.60970
C9 C 0.36620 0.66700 0.38030
N4 N 0.45730 0.70280 0.29950
C10 C 0.63710 0.69850 0.26140
C11 C 0.72720 0.73870 0.18070
O6 O 0.61250 0.78120 0.12900
C12 C 0.45920 0.78870 0.18910
C13 C 0.35630 0.74640 0.25050
H1 H 0.03600 0.39900 1.04700
H2 H -0.07800 0.46500 0.84000
H3 H 0.14800 0.52500 0.66600
H4 H 0.23800 0.60900 0.59000
H5 H 0.19300 0.56500 0.46300
H6 H 0.37300 0.61400 0.33100
H7 H 0.34500 0.68900 0.46700
H8 H 0.22400 0.66000 0.32200
H9 H 0.63000 0.66400 0.20400
H10 H 0.74100 0.69400 0.35400
H11 H 0.77000 0.71900 0.09600
H12 H 0.85400 0.75300 0.24500
H13 H 0.34700 0.80600 0.11500
H14 H 0.50900 0.81500 0.27100
H15 H 0.23900 0.73400 0.17400
H16 H 0.29800 0.76300 0.33500
#END
