
#######################################################################
#
#                 Cambridge Crystallographic Data Centre
#                                CCDC
#
#######################################################################
#
# If this CIF has been generated from an entry in the Cambridge
# Structural Database, then it will include bibliographic, chemical,
# crystal, experimental, refinement or atomic coordinate data resulting
# from the CCDC's data processing and validation procedures.
#
#######################################################################

data_CSD_CIF_FURBUP
_audit_creation_date 1988-09-05
_audit_creation_method CSD-ConQuest-V1
_database_code_CSD FURBUP
_chemical_formula_sum 'C28 H22 N2 O3'
_chemical_formula_moiety
;
C28 H22 N2 O3
;
_journal_coden_Cambridge 95
_journal_year 1987
_journal_page_first 188
_journal_name_full 'Izv.Akad.Nauk SSSR,Ser.Khim.(Russ.)(Russ.Chem.Bull.) '
loop_
_publ_author_name
"S.M.Aldoshin"
"L.O.Atovmyan"
"O.A.Kozina"
_chemical_name_systematic
;
1-Phenyl-3,3-dimethyl-7'-nitro-spiro(indoline-2,2'-2'H-naphtho(2,1-b)pyran)
;
_cell_volume   2262.515
_exptl_crystal_colour 'yellow'
_exptl_crystal_density_diffrn 1.283
_diffrn_ambient_temperature ?
_diffrn_special_details
;
The study was carried out at room temperature,in the range 283-303K

;
#These two values have been output from a single CSD field.
_refine_ls_R_factor_gt 0.04
_refine_ls_wR_factor_gt 0.04
_symmetry_cell_setting tetragonal
_symmetry_space_group_name_H-M 'P 41'
_symmetry_Int_Tables_number 76
loop_
_symmetry_equiv_pos_site_id
_symmetry_equiv_pos_as_xyz
1 x,y,z
2 -y,x,1/4+z
3 -x,-y,1/2+z
4 y,-x,3/4+z
_cell_length_a 10.659(5)
_cell_length_b 10.659(5)
_cell_length_c 19.914(7)
_cell_angle_alpha 90
_cell_angle_beta 90
_cell_angle_gamma 90
_cell_formula_units_Z 4
loop_
_atom_type_symbol
_atom_type_radius_bond
C 0.68
H 0.23
N 0.68
O 0.68
loop_
_atom_site_label
_atom_site_type_symbol
_atom_site_fract_x
_atom_site_fract_y
_atom_site_fract_z
O1 O 0.1983(2) 0.1812(2) 0.8372(1)
O2 O 0.6400(3) -0.4484(3) 0.8820(2)
O3 O 0.65400 -0.47340 0.77630
N1 N 0.0304(2) 0.2756(2) 0.7825(1)
N2 N 0.6138(3) -0.4185(3) 0.8248(2)
C1 C 0.1706(3) 0.1393(3) 0.7165(2)
C2 C 0.2388(3) 0.0367(3) 0.7218(2)
C3 C 0.2948(3) 0.0030(3) 0.7857(2)
C4 C 0.3725(3) -0.1053(3) 0.7948(1)
C5 C 0.4125(3) -0.1387(3) 0.8601(2)
C6 C 0.3743(4) -0.0654(3) 0.9158(2)
C7 C 0.3033(3) 0.0387(3) 0.9061(2)
C8 C 0.4157(3) -0.1815(3) 0.7390(2)
C9 C 0.4934(3) -0.2806(3) 0.7493(2)
C10 C 0.5306(3) -0.3099(3) 0.8144(2)
C11 C 0.4925(3) -0.2434(3) 0.8691(2)
C12 C 0.2669(3) 0.0726(3) 0.8413(2)
C13 C 0.2325(3) 0.3573(3) 0.7606(2)
C14 C 0.1515(3) 0.4499(3) 0.7991(2)
C15 C 0.1772(4) 0.5706(3) 0.8206(2)
C16 C 0.0845(4) 0.6407(4) 0.8515(2)
C17 C -0.0328(4) 0.5896(4) 0.8617(2)
C18 C -0.0614(3) 0.4662(3) 0.8401(2)
C19 C 0.1586(3) 0.2336(3) 0.77290
C20 C 0.0333(3) 0.3994(3) 0.8082(1)
C21 C 0.2313(4) 0.3958(4) 0.6863(2)
C22 C 0.3678(4) 0.3485(4) 0.7850(2)
C23 C -0.0736(3) 0.1939(3) 0.7832(1)
C24 C -0.0600(3) 0.0671(3) 0.8013(2)
C25 C -0.1659(5) -0.0122(4) 0.7995(2)
C26 C -0.2813(4) 0.0371(6) 0.7816(3)
C27 C -0.2941(4) 0.1598(5) 0.7651(2)
C28 C -0.1918(3) 0.2390(4) 0.7649(2)
H1 H 0.122(4) 0.167(4) 0.674(2)
H2 H 0.249(3) 0.024(4) 0.681(1)
H3 H 0.415(3) -0.090(4) 0.965(1)
H4 H 0.277(3) 0.105(4) 0.947(2)
H5 H 0.526(3) -0.330(3) 0.708(2)
H6 H 0.526(4) -0.263(3) 0.915(2)
H7 H 0.400(3) -0.143(3) 0.690(1)
H8 H 0.263(3) 0.608(3) 0.813(2)
H9 H 0.098(4) 0.734(3) 0.870(2)
H10 H -0.104(3) 0.639(4) 0.889(2)
H11 H -0.167(3) 0.423(3) 0.840(2)
H12 H 0.266(3) 0.340(4) 0.655(2)
H13 H 0.287(3) 0.493(3) 0.688(2)
H14 H 0.146(4) 0.420(4) 0.665(2)
H15 H 0.370(4) 0.315(4) 0.831(2)
H16 H 0.410(3) 0.427(4) 0.787(2)
H17 H 0.410(3) 0.270(4) 0.760(2)
H18 H 0.028(4) 0.032(3) 0.819(2)
H19 H -0.140(3) -0.105(3) 0.807(1)
H20 H -0.361(3) -0.024(3) 0.786(2)
H21 H -0.377(3) 0.190(4) 0.735(2)
H22 H -0.200(3) 0.324(3) 0.745(2)
#END
