
#######################################################################
#
#                 Cambridge Crystallographic Data Centre
#                                CCDC
#
#######################################################################
#
# If this CIF has been generated from an entry in the Cambridge
# Structural Database, then it will include bibliographic, chemical,
# crystal, experimental, refinement or atomic coordinate data resulting
# from the CCDC's data processing and validation procedures.
#
#######################################################################

data_CSD_CIF_FURSUI
_audit_creation_date 2015-09-10
_audit_creation_method CSD-ConQuest-V1
_database_code_CSD FURSUI
_database_code_depnum_ccdc_archive 'CCDC 1423441'
_chemical_formula_sum 'C22 H26 N2 O2'
_chemical_formula_moiety
;
C22 H26 N2 O2
;
_journal_coden_Cambridge 35
_journal_volume 79
_journal_year 2014
_journal_page_first 3414
_journal_name_full 'J.Org.Chem. '
loop_
_publ_author_name
"K.B.Selim"
"A.Martel"
"Mathieu Y.Laurent"
"J.Lhoste"
"Sandrine Py"
"G.Dujardin"
_chemical_name_systematic
;
7-benzyl-1,5-dimethyl-3-(1-phenylethyl)-6-oxa-3,7-diazabicyclo[3.2.1]octan-2-o
ne
;
_cell_volume    943.761
_exptl_crystal_colour 'colorless'
_exptl_crystal_density_diffrn 1.233
_exptl_crystal_description 'platelets'
_diffrn_ambient_temperature 150
#These two values have been output from a single CSD field.
_refine_ls_R_factor_gt 0.0517
_refine_ls_wR_factor_gt 0.0517
_symmetry_cell_setting monoclinic
_symmetry_space_group_name_H-M 'P 21'
_symmetry_Int_Tables_number 4
loop_
_symmetry_equiv_pos_site_id
_symmetry_equiv_pos_as_xyz
1 x,y,z
2 -x,1/2+y,-z
_cell_length_a 9.1440(5)
_cell_length_b 10.9927(7)
_cell_length_c 9.6418(7)
_cell_angle_alpha 90
_cell_angle_beta 103.148(4)
_cell_angle_gamma 90
_cell_formula_units_Z 2
loop_
_atom_type_symbol
_atom_type_radius_bond
C 0.68
H 0.23
N 0.68
O 0.68
loop_
_atom_site_label
_atom_site_type_symbol
_atom_site_fract_x
_atom_site_fract_y
_atom_site_fract_z
O1 O 0.65112(18) 0.66194(15) 0.89931(18)
O2 O 0.49158(19) 0.68937(15) 0.47500(19)
N1 N 0.4313(2) 0.72785(18) 0.7606(2)
N2 N 0.6238(2) 0.61833(17) 0.5546(2)
C1 C -0.0378(3) 0.8533(3) 0.9115(3)
H1 H -0.13650 0.85940 0.92130
C2 C 0.0374(3) 0.9550(3) 0.8827(3)
H2 H -0.01020 1.03030 0.87370
C3 C 0.1843(3) 0.9459(2) 0.8667(3)
H3 H 0.23390 1.01530 0.84660
C4 C 0.2582(3) 0.8348(2) 0.8803(3)
C5 C 0.4193(3) 0.8219(2) 0.8673(3)
H4 H 0.47710 0.79250 0.95950
C6 C 0.5537(3) 0.6546(2) 0.7881(3)
C7 C 0.5666(3) 0.5613(2) 0.6728(3)
C8 C 0.7429(3) 0.7075(2) 0.6004(3)
H5 H 0.82400 0.66950 0.66920
H6 H 0.70430 0.77370 0.64820
C9 C 0.8058(3) 0.7596(2) 0.4805(3)
C10 C 0.9233(2) 0.8419(2) 0.5162(3)
H7 H 0.96410 0.85950 0.61150
C11 C 0.9802(3) 0.8982(2) 0.4116(3)
H8 H 1.05800 0.95410 0.43700
C12 C 0.9226(3) 0.8719(2) 0.2696(3)
H9 H 0.96110 0.90990 0.19940
C13 C 0.1800(3) 0.7327(3) 0.9104(3)
H10 H 0.22690 0.65720 0.92030
C14 C 0.0336(3) 0.7424(3) 0.9259(3)
H11 H -0.01670 0.67350 0.94620
C15 C 0.3595(3) 0.6426(2) 0.5164(3)
C16 C 0.3195(3) 0.7295(2) 0.6247(3)
H12 H 0.31180 0.81140 0.58620
H13 H 0.22220 0.70740 0.64130
C17 C 0.2351(3) 0.6315(2) 0.3848(3)
H14 H 0.26390 0.57470 0.32030
H15 H 0.21640 0.70950 0.33960
H16 H 0.14560 0.60320 0.41070
C18 C 0.4121(3) 0.5234(2) 0.5908(3)
H17 H 0.34860 0.49810 0.65360
H18 H 0.41690 0.45890 0.52330
C19 C 0.7489(3) 0.7332(2) 0.3379(3)
H19 H 0.67080 0.67750 0.31220
C20 C 0.8070(3) 0.7886(2) 0.2331(3)
H20 H 0.76810 0.76970 0.13780
C21 C 0.6680(3) 0.4573(2) 0.7353(3)
H21 H 0.76370 0.48870 0.78450
H22 H 0.68150 0.40410 0.66020
H23 H 0.62340 0.41290 0.80080
C22 C 0.4940(3) 0.9391(3) 0.8349(3)
H24 H 0.44000 0.97130 0.74530
H25 H 0.59580 0.92250 0.83020
H26 H 0.49320 0.99740 0.90880
#END
