
#######################################################################
#
#                 Cambridge Crystallographic Data Centre
#                                CCDC
#
#######################################################################
#
# If this CIF has been generated from an entry in the Cambridge
# Structural Database, then it will include bibliographic, chemical,
# crystal, experimental, refinement or atomic coordinate data resulting
# from the CCDC's data processing and validation procedures.
#
#######################################################################

data_CSD_CIF_FUSXIA
_audit_creation_date 1988-09-21
_audit_creation_method CSD-ConQuest-V1
_database_code_CSD FUSXIA
_database_code_depnum_ccdc_archive 'CCDC 1161671'
_chemical_formula_sum 'C13 H22 N2 O15'
_chemical_formula_moiety
;
C13 H22 N2 O15
;
_journal_coden_Cambridge 41
_journal_volume 32
_journal_year 1987
_journal_page_first 896
_journal_name_full 'Kristallografiya(Russ.)(Crystallogr.Rep.) '
loop_
_publ_author_name
"A.V.Nikitin"
"T.A.Shibanova"
"S.I.Firgang"
"A.I.Usov"
"V.F.Sopin"
"R.M.Myasnikova"
_chemical_name_systematic
;
Methyl 6,6'-dinitrato-\b-cellobioside
;
_cell_volume    947.660
_exptl_crystal_density_diffrn 1.564
_exptl_special_details
;
Atom H72 deleted because of suspected coordinate error

;
_diffrn_ambient_temperature ?
_diffrn_special_details
;
The study was carried out at room temperature,in the range 283-303K

;
#These two values have been output from a single CSD field.
_refine_ls_R_factor_gt 0.0562
_refine_ls_wR_factor_gt 0.0562
_symmetry_cell_setting monoclinic
_symmetry_space_group_name_H-M 'P 1 1 21'
_symmetry_Int_Tables_number 4
loop_
_symmetry_equiv_pos_site_id
_symmetry_equiv_pos_as_xyz
1 x,y,z
2 -x,-y,1/2+z
_cell_length_a 5.1497
_cell_length_b 11.839
_cell_length_c 15.545
_cell_angle_alpha 90
_cell_angle_beta 90
_cell_angle_gamma 90.73
_cell_formula_units_Z 2
loop_
_atom_type_symbol
_atom_type_radius_bond
C 0.68
H 0.23
N 0.68
O 0.68
loop_
_atom_site_label
_atom_site_type_symbol
_atom_site_fract_x
_atom_site_fract_y
_atom_site_fract_z
C1 C 0.4159(23) 0.5965(7) 0.5244(7)
C2 C 0.4550(23) 0.7231(8) 0.5103(7)
C3 C 0.6850(22) 0.7670(7) 0.5606(7)
C4 C 0.6586(21) 0.7343(7) 0.6553(7)
C5 C 0.6179(19) 0.6057(7) 0.6614(6)
C6 C 0.5760(23) 0.5696(8) 0.7550(8)
C7 C 0.1473(29) 0.4438(9) 0.4842(9)
O1 O 0.1853(15) 0.5642(6) 0.4862(9)
O2 O 0.5119(15) 0.7418(5) 0.4204(5)
O3 O 0.6949(18) 0.8853(5) 0.5512(6)
O4 O 0.8941(13) 0.7636(5) 0.7016(5)
O5 O 0.3881(14) 0.5763(5) 0.61600
O6 O 0.5520(17) 0.4467(5) 0.7551(6)
O7 O 0.1330(23) 0.4632(8) 0.7770(9)
O8 O 0.2818(20) 0.3116(6) 0.7276(7)
N1 N 0.3040(22) 0.4053(7) 0.7532(7)
C8 C 0.8639(20) 0.8542(7) 0.7605(7)
C9 C 1.1097(21) 0.8662(7) 0.8114(7)
C10 C 1.0945(20) 0.9691(7) 0.8707(8)
C11 C 1.0413(20) 1.0755(7) 0.8157(7)
C12 C 0.8030(21) 1.0558(6) 0.7601(7)
C13 C 0.7735(21) 1.1472(8) 0.6928(7)
O9 O 1.1525(18) 0.7659(5) 0.8604(6)
O10 O 1.3321(13) 0.9776(5) 0.9138(6)
O11 O 0.9859(15) 1.1711(5) 0.8686(6)
O12 O 0.8378(14) 0.9532(4) 0.7092(5)
O13 O 0.5397(15) 1.1188(5) 0.6482(6)
O14 O 0.2872(17) 1.1661(7) 0.5409(6)
O15 O 0.6613(20) 1.2501(7) 0.5532(6)
N2 N 0.4863(21) 1.1847(8) 0.5731(6)
H1 H 0.56900 0.55200 0.50000
H2 H 0.29100 0.76400 0.53000
H3 H 0.86900 0.73500 0.53400
H4 H 0.48300 0.76700 0.68300
H5 H 0.79000 0.56400 0.64800
H6 H 0.40500 0.60500 0.77600
H7 H 0.76700 0.57600 0.77800
H8 H 0.29800 0.41200 0.49800
H9 H 0.02400 0.40400 0.44000
H10 H 0.34800 0.75900 0.39700
H11 H 0.88000 0.91600 0.52300
H12 H 0.67800 0.83800 0.80200
H13 H 1.27300 0.88900 0.77000
H14 H 0.92100 0.95500 0.89800
H15 H 1.22200 1.08600 0.78100
H16 H 0.63900 1.03400 0.79600
H17 H 0.91800 1.14400 0.65200
H18 H 0.71500 1.23000 0.72000
H19 H 0.99900 0.78800 0.90000
H20 H 1.50900 0.98300 0.87700
H21 H 1.18700 1.19500 0.87400
#END
