
#######################################################################
#
#                 Cambridge Crystallographic Data Centre
#                                CCDC
#
#######################################################################
#
# If this CIF has been generated from an entry in the Cambridge
# Structural Database, then it will include bibliographic, chemical,
# crystal, experimental, refinement or atomic coordinate data resulting
# from the CCDC's data processing and validation procedures.
#
#######################################################################

data_CSD_CIF_FUSZEY
_audit_creation_date 1988-09-21
_audit_creation_method CSD-ConQuest-V1
_database_code_CSD FUSZEY
_chemical_formula_sum 'C13 H8 N2 O3'
_chemical_formula_moiety
;
C13 H8 N2 O3
;
_journal_coden_Cambridge 82
_journal_volume 28
_journal_year 1987
_journal_page_first 177-5
_journal_name_full 'Zh.Strukt.Khim.(Russ.)(J.Struct.Chem.) '
loop_
_publ_author_name
"L.A.Chetkina"
"O.V.Semidetko"
"V.A.Shuvaeva"
"A.N.Poplavskii"
"V.K.Bel'skii"
"A.M.Andrievskii"
_chemical_name_systematic
;
4-Nitro-6(5H)-phenanthridinone
;
_chemical_melting_point 537.15
_cell_volume    519.637
_exptl_crystal_colour 'yellow'
_exptl_crystal_density_diffrn 1.54
_exptl_special_details
;
Melting point range 537.15-538.15K

;
_diffrn_ambient_temperature ?
_diffrn_special_details
;
The study was carried out at room temperature,in the range 283-303K

;
#These two values have been output from a single CSD field.
_refine_ls_R_factor_gt 0.044
_refine_ls_wR_factor_gt 0.044
_symmetry_cell_setting triclinic
_symmetry_space_group_name_H-M 'P -1'
_symmetry_Int_Tables_number 2
loop_
_symmetry_equiv_pos_site_id
_symmetry_equiv_pos_as_xyz
1 x,y,z
2 -x,-y,-z
_cell_length_a 6.975(4)
_cell_length_b 7.704(8)
_cell_length_c 10.850(9)
_cell_angle_alpha 106.12(6)
_cell_angle_beta 107.02(5)
_cell_angle_gamma 72.32(6)
_cell_formula_units_Z 2
loop_
_atom_type_symbol
_atom_type_radius_bond
C 0.68
H 0.23
N 0.68
O 0.68
loop_
_atom_site_label
_atom_site_type_symbol
_atom_site_fract_x
_atom_site_fract_y
_atom_site_fract_z
O1 O 0.3578(6) 0.1107(4) 0.6034(3)
O2 O 0.1933(8) 0.2190(6) 0.0328(4)
O3 O 0.2839(6) 0.0704(4) 0.1880(3)
N1 N 0.3028(7) 0.2536(6) 0.4370(4)
N2 N 0.2324(7) 0.2172(6) 0.1496(5)
C1 C 0.1751(8) 0.7409(6) 0.4061(5)
C2 C 0.1481(8) 0.7238(7) 0.2727(5)
C3 C 0.1676(9) 0.5502(8) 0.1927(6)
C4 C 0.2216(8) 0.3937(7) 0.2445(5)
C5 C 0.3191(8) 0.2577(6) 0.5675(5)
C6 C 0.3203(8) 0.4519(7) 0.7881(5)
C7 C 0.3051(9) 0.6248(9) 0.8733(6)
C8 C 0.2641(9) 0.7838(9) 0.8274(6)
C9 C 0.2417(8) 0.7737(7) 0.6954(6)
C10 C 0.2535(8) 0.6020(6) 0.6054(5)
C11 C 0.2265(7) 0.5865(6) 0.4624(5)
C12 C 0.2512(7) 0.4067(6) 0.3813(4)
C13 C 0.2973(8) 0.4417(7) 0.6529(5)
H1 H 0.334(7) 0.155(6) 0.388(4)
H2 H 0.148(6) 0.862(5) 0.463(4)
H3 H 0.122(5) 0.835(5) 0.230(3)
H4 H 0.16(1) 0.526(8) 0.109(6)
H5 H 0.343(8) 0.347(7) 0.812(5)
H6 H 0.302(9) 0.638(7) 0.965(6)
H7 H 0.255(8) 0.902(7) 0.888(5)
H8 H 0.209(8) 0.880(7) 0.669(5)
#END
