
#######################################################################
#
#                 Cambridge Crystallographic Data Centre
#                                CCDC
#
#######################################################################
#
# If this CIF has been generated from an entry in the Cambridge
# Structural Database, then it will include bibliographic, chemical,
# crystal, experimental, refinement or atomic coordinate data resulting
# from the CCDC's data processing and validation procedures.
#
#######################################################################

data_CSD_CIF_FUWGUA
_audit_creation_date 2011-02-04
_audit_creation_method CSD-ConQuest-V1
_database_code_CSD FUWGUA
_database_code_depnum_ccdc_archive 'CCDC 769758'
_chemical_formula_sum 'C25 H25 N1 O8'
_chemical_formula_moiety
;
C25 H25 N1 O8
;
_journal_coden_Cambridge 1291
_journal_year 2010
_journal_page_first 3215
_journal_name_full 'Eur.J.Org.Chem. '
loop_
_publ_author_name
"Hui Zhang"
"Yu-Hua Liao"
"Wei-Chang Yuan"
"Xiao-Mei Zhang"
_chemical_name_systematic
;
6-(2-Nitro-1-phenylethyl)-1,3-benzodioxol-5-yl 
4,7,7-trimethyl-3-oxo-2-oxabicyclo[2.2.1]heptane-1-carboxylate
;
_cell_volume   1134.763
_exptl_crystal_colour 'colorless'
_exptl_crystal_density_diffrn 1.368
_exptl_crystal_description 'block'
_exptl_crystal_preparation 'n-hexane/ethyl acetate'
_diffrn_ambient_temperature 113
#These two values have been output from a single CSD field.
_refine_ls_R_factor_gt 0.0345
_refine_ls_wR_factor_gt 0.0345
_symmetry_cell_setting monoclinic
_symmetry_space_group_name_H-M 'P 21'
_symmetry_Int_Tables_number 4
loop_
_symmetry_equiv_pos_site_id
_symmetry_equiv_pos_as_xyz
1 x,y,z
2 -x,1/2+y,-z
_cell_length_a 11.907(2)
_cell_length_b 7.6346(15)
_cell_length_c 13.821(3)
_cell_angle_alpha 90
_cell_angle_beta 115.42(3)
_cell_angle_gamma 90
_cell_formula_units_Z 2
loop_
_atom_type_symbol
_atom_type_radius_bond
C 0.68
H 0.23
N 0.68
O 0.68
loop_
_atom_site_label
_atom_site_type_symbol
_atom_site_fract_x
_atom_site_fract_y
_atom_site_fract_z
O1 O 0.45366(10) 0.64972(17) 1.16675(8)
O2 O 0.48750(12) 0.6370(2) 1.33867(9)
O3 O 0.30117(10) 0.61917(16) 0.88418(8)
O4 O 0.43864(16) 0.8135(2) 0.98991(10)
O5 O 0.51795(13) 0.54079(19) 0.65992(10)
O6 O 0.40689(13) 0.75974(16) 0.5433(1)
O7 O 0.10443(14) 1.1578(2) 0.87423(13)
O8 O 0.0726(2) 1.3372(2) 0.74685(17)
N1 N 0.11929(17) 1.2067(2) 0.79650(16)
C1 C 0.34500(15) 0.6126(2) 1.06671(12)
C2 C 0.23698(16) 0.6885(2) 1.08874(13)
C3 C 0.27928(16) 0.5811(2) 1.19414(13)
C4 C 0.2795(2) 0.3916(3) 1.15376(16)
H1 H 0.33570 0.31530 1.21250
H2 H 0.19480 0.34090 1.12330
C5 C 0.3272(2) 0.4137(3) 1.06635(15)
H3 H 0.40660 0.35070 1.08550
H4 H 0.26520 0.37200 0.99580
C6 C 0.41604(16) 0.6262(3) 1.24630(13)
C7 C 0.21370(19) 0.6081(4) 1.26603(15)
H5 H 0.25270 0.53430 1.32990
H6 H 0.12580 0.57620 1.22700
H7 H 0.22030 0.73140 1.28760
C8 C 0.10721(15) 0.6434(3) 1.00286(13)
H8 H 0.04560 0.66520 1.03090
H9 H 0.10460 0.51960 0.98320
H10 H 0.08830 0.71640 0.93950
C9 C 0.2454(2) 0.8859(2) 1.10838(15)
H11 H 0.23660 0.94700 1.04310
H12 H 0.32620 0.91450 1.16700
H13 H 0.17880 0.92290 1.12760
C10 C 0.37017(17) 0.6943(3) 0.97935(13)
C11 C 0.32652(15) 0.6689(2) 0.79608(12)
C12 C 0.25938(16) 0.8039(2) 0.72941(12)
C13 C 0.28286(16) 0.8407(2) 0.63944(12)
H14 H 0.23810 0.93030 0.59030
C14 C 0.37037(17) 0.7459(2) 0.62474(13)
C15 C 0.43517(16) 0.6142(3) 0.69329(12)
C16 C 0.41503(16) 0.5699(3) 0.78064(14)
H15 H 0.45890 0.47730 0.82760
C17 C 0.4938(2) 0.6221(3) 0.56122(15)
H16 H 0.45960 0.53530 0.50250
H17 H 0.57190 0.66960 0.56280
C18 C 0.16264(16) 0.9082(2) 0.74863(13)
H18 H 0.16440 0.86690 0.81800
C19 C 0.03252(16) 0.8737(2) 0.66172(13)
C20 C -0.02040(18) 0.9717(3) 0.56845(14)
H19 H 0.02350 1.06810 0.55780
C21 C -0.13752(19) 0.9287(3) 0.49087(16)
H20 H -0.17330 0.99610 0.42700
C22 C -0.20281(19) 0.7902(3) 0.50475(17)
H21 H -0.28320 0.76240 0.45110
C23 C -0.1509(2) 0.6921(3) 0.59679(17)
H22 H -0.19530 0.59600 0.60710
C24 C -0.03321(18) 0.7340(2) 0.67481(15)
H23 H 0.00260 0.66540 0.73820
C25 C 0.20217(18) 1.1007(2) 0.76317(15)
H24 H 0.28910 1.11040 0.81820
H25 H 0.19840 1.14720 0.69500
#END
