
#######################################################################
#
#                 Cambridge Crystallographic Data Centre
#                                CCDC
#
#######################################################################
#
# If this CIF has been generated from an entry in the Cambridge
# Structural Database, then it will include bibliographic, chemical,
# crystal, experimental, refinement or atomic coordinate data resulting
# from the CCDC's data processing and validation procedures.
#
#######################################################################

data_CSD_CIF_FUWJAJ01
_audit_creation_date 2015-09-04
_audit_creation_method CSD-ConQuest-V1
_database_code_CSD FUWJAJ01
_database_code_depnum_ccdc_archive 'CCDC 1042624'
_chemical_formula_sum 'C13 H11 N3 O3'
_chemical_formula_moiety
;
C13 H11 N3 O3
;
_journal_coden_Cambridge 1350
_journal_volume 17
_journal_year 2015
_journal_page_first 2815
_journal_name_full 'CrystEngComm '
loop_
_publ_author_name
"I.L.Kirby"
"M.B.Pitak"
"C.Wilson"
"P.A.Gale"
"S.J.Coles"
_chemical_name_systematic
;
1-(4-nitrophenyl)-3-phenylurea
;
_cell_volume    580.453
_exptl_crystal_colour 'colorless'
_exptl_crystal_density_diffrn 1.472
_exptl_crystal_description 'needle'
_diffrn_ambient_temperature 100
#These two values have been output from a single CSD field.
_refine_ls_R_factor_gt 0.0448
_refine_ls_wR_factor_gt 0.0448
_symmetry_cell_setting monoclinic
_symmetry_space_group_name_H-M 'P 21'
_symmetry_Int_Tables_number 4
loop_
_symmetry_equiv_pos_site_id
_symmetry_equiv_pos_as_xyz
1 x,y,z
2 -x,1/2+y,-z
_cell_length_a 4.590(4)
_cell_length_b 8.336(7)
_cell_length_c 15.282(13)
_cell_angle_alpha 90
_cell_angle_beta 96.929(17)
_cell_angle_gamma 90
_cell_formula_units_Z 2
loop_
_atom_type_symbol
_atom_type_radius_bond
C 0.68
H 0.23
N 0.68
O 0.68
loop_
_atom_site_label
_atom_site_type_symbol
_atom_site_fract_x
_atom_site_fract_y
_atom_site_fract_z
C1 C 0.9453(6) 0.7635(4) 0.72921(19)
H1 H 1.03730 0.75740 0.78820
C2 C 1.0365(6) 0.6650(4) 0.66513(18)
H2 H 1.19280 0.59170 0.68040
C3 C 0.9030(6) 0.6717(4) 0.57864(18)
H3 H 0.96540 0.60240 0.53520
C4 C 0.6778(5) 0.7805(4) 0.55639(17)
C5 C 0.5857(6) 0.8809(4) 0.62047(19)
H4 H 0.43200 0.95570 0.60500
C6 C 0.7179(6) 0.8718(4) 0.70688(18)
H5 H 0.65330 0.93940 0.75070
C7 C 0.6597(5) 0.7898(4) 0.39564(16)
C8 C 0.5593(5) 0.8038(4) 0.23489(17)
C9 C 0.7641(6) 0.6915(4) 0.21276(18)
H6 H 0.84880 0.61730 0.25570
C10 C 0.8433(6) 0.6884(4) 0.12829(19)
H7 H 0.98310 0.61300 0.11260
C11 C 0.7151(6) 0.7974(4) 0.06721(18)
C12 C 0.5101(7) 0.9078(4) 0.0873(2)
H8 H 0.42440 0.98070 0.04380
C13 C 0.4312(7) 0.9110(4) 0.17162(18)
H9 H 0.28970 0.98620 0.18650
N1 N 0.5259(5) 0.7894(3) 0.46939(13)
H10 H 0.33310 0.79500 0.46350
N2 N 0.4692(5) 0.8068(3) 0.31918(14)
H11 H 0.28150 0.82030 0.32360
N3 N 0.8002(6) 0.7965(4) -0.02183(16)
O1 O 0.9265(4) 0.7792(4) 0.39535(12)
O2 O 0.9905(6) 0.6992(6) -0.03874(15)
O3 O 0.6800(7) 0.8914(5) -0.07619(15)
#END
