
#######################################################################
#
#                 Cambridge Crystallographic Data Centre
#                                CCDC
#
#######################################################################
#
# If this CIF has been generated from an entry in the Cambridge
# Structural Database, then it will include bibliographic, chemical,
# crystal, experimental, refinement or atomic coordinate data resulting
# from the CCDC's data processing and validation procedures.
#
#######################################################################

data_CSD_CIF_FUWJUD
_audit_creation_date 2011-02-04
_audit_creation_method CSD-ConQuest-V1
_database_code_CSD FUWJUD
_database_code_depnum_ccdc_archive 'CCDC 743439'
_chemical_formula_sum 'C24 H27 N1 O3'
_chemical_formula_moiety
;
C24 H27 N1 O3
;
_journal_coden_Cambridge 1291
_journal_year 2010
_journal_page_first 3295
_journal_name_full 'Eur.J.Org.Chem. '
loop_
_publ_author_name
"A.de Meijere"
"A.F.Khlebnikov"
"H.W.Sunnemann"
"D.Frank"
"K.Rauch"
"D.S.Yufit"
_chemical_name_systematic
;
Ethyl 
(3RS,4SR,5SR)-5-(1-cyclopropylcyclopropyl)-2,3-diphenylisoxazolidine-4-carboxy
late
;
_chemical_melting_point 334
_cell_volume   2041.500
_exptl_crystal_colour 'colorless'
_exptl_crystal_density_diffrn 1.228
_exptl_special_details
;
Melting point range 334-335K

;
_exptl_crystal_description 'egg'
_diffrn_ambient_temperature 120
#These two values have been output from a single CSD field.
_refine_ls_R_factor_gt 0.0445
_refine_ls_wR_factor_gt 0.0445
_symmetry_cell_setting monoclinic
_symmetry_space_group_name_H-M 'P 21/c'
_symmetry_Int_Tables_number 14
loop_
_symmetry_equiv_pos_site_id
_symmetry_equiv_pos_as_xyz
1 x,y,z
2 -x,1/2+y,1/2-z
3 -x,-y,-z
4 x,-1/2-y,-1/2+z
_cell_length_a 10.5666(2)
_cell_length_b 9.7773(2)
_cell_length_c 19.8550(4)
_cell_angle_alpha 90
_cell_angle_beta 95.596(10)
_cell_angle_gamma 90
_cell_formula_units_Z 4
loop_
_atom_type_symbol
_atom_type_radius_bond
C 0.68
H 0.23
N 0.68
O 0.68
loop_
_atom_site_label
_atom_site_type_symbol
_atom_site_fract_x
_atom_site_fract_y
_atom_site_fract_z
O1 O 0.09788(8) 0.08778(9) 0.14099(5)
O2 O 0.09043(11) -0.29533(12) 0.03461(5)
O3 O -0.02001(9) -0.35327(9) 0.12098(5)
N1 N 0.22894(9) 0.04609(10) 0.13789(5)
C1 C 0.23082(11) -0.10120(12) 0.12076(6)
C2 C 0.09647(11) -0.14885(12) 0.13233(6)
C3 C 0.01797(11) -0.02062(12) 0.11208(6)
C4 C -0.10927(11) -0.00791(13) 0.14004(6)
C5 C -0.22033(13) -0.06558(16) 0.09532(8)
C6 C -0.20309(13) 0.08704(15) 0.10152(8)
C7 C -0.10517(12) -0.01500(14) 0.21549(7)
C8 C -0.22290(16) -0.03644(17) 0.25115(9)
C9 C -0.12511(17) -0.14872(17) 0.25112(9)
C10 C 0.05748(11) -0.27261(12) 0.08981(6)
C11 C -0.07041(13) -0.47164(14) 0.08258(8)
C12 C -0.17946(19) -0.5250(2) 0.11751(11)
C13 C 0.33392(11) -0.17746(12) 0.16355(6)
C14 C 0.35781(13) -0.15179(13) 0.23253(7)
C15 C 0.45317(14) -0.22231(15) 0.27111(7)
C16 C 0.52401(14) -0.32057(15) 0.24104(8)
C17 C 0.49849(13) -0.34939(15) 0.17299(8)
C18 C 0.40419(12) -0.27714(13) 0.13391(7)
C19 C 0.29379(11) 0.13605(12) 0.09742(6)
C20 C 0.40903(11) 0.09475(13) 0.07442(6)
C21 C 0.47840(12) 0.18587(14) 0.03893(7)
C22 C 0.43619(14) 0.31852(14) 0.02677(7)
C23 C 0.32288(14) 0.36029(13) 0.05047(7)
C24 C 0.25176(12) 0.27040(13) 0.08561(7)
H1 H 0.2432(13) -0.1128(14) 0.0729(7)
H2 H 0.0914(13) -0.1687(14) 0.1795(7)
H3 H 0.0082(14) -0.0131(15) 0.0608(8)
H4 H -0.0425(17) 0.0453(18) 0.2388(9)
H5 H 0.3063(17) -0.0851(18) 0.2544(9)
H6 H 0.4678(17) -0.2035(18) 0.3207(9)
H7 H 0.591(2) -0.369(2) 0.2693(10)
H8 H 0.5464(18) -0.419(2) 0.1502(9)
H9 H 0.3889(15) -0.2966(16) 0.0858(8)
H10 H 0.4435(15) 0.0021(16) 0.0825(8)
H11 H 0.5590(17) 0.1552(17) 0.0228(8)
H12 H 0.4825(18) 0.383(2) 0.0007(9)
H13 H 0.2928(17) 0.4545(18) 0.0427(8)
H14 H 0.1753(16) 0.2997(16) 0.1038(8)
H15 H -0.2876(18) -0.1120(19) 0.1192(9)
H16 H -0.2021(16) -0.1085(18) 0.0530(9)
H17 H -0.2601(17) 0.1376(17) 0.1284(8)
H18 H -0.1744(16) 0.1382(17) 0.0625(9)
H19 H -0.2265(19) 0.012(2) 0.2947(10)
H20 H -0.303(2) -0.051(2) 0.2233(10)
H21 H -0.074(2) -0.172(2) 0.2951(11)
H22 H -0.1516(19) -0.225(2) 0.2225(10)
H23 H -0.0944(16) -0.4415(17) 0.0354(9)
H24 H -0.0003(18) -0.5393(19) 0.0821(9)
H25 H -0.244(2) -0.453(3) 0.1200(12)
H26 H -0.220(2) -0.605(3) 0.0936(11)
H27 H -0.153(2) -0.553(2) 0.1631(12)
#END
