
#######################################################################
#
#                 Cambridge Crystallographic Data Centre
#                                CCDC
#
#######################################################################
#
# If this CIF has been generated from an entry in the Cambridge
# Structural Database, then it will include bibliographic, chemical,
# crystal, experimental, refinement or atomic coordinate data resulting
# from the CCDC's data processing and validation procedures.
#
#######################################################################

data_CSD_CIF_FUWNIU
_audit_creation_date 1988-09-21
_audit_creation_method CSD-ConQuest-V1
_database_code_CSD FUWNIU
_database_code_depnum_ccdc_archive 'CCDC 1161947'
_chemical_formula_sum 'C8 H9 N3 O4'
_chemical_formula_moiety
;
C8 H9 N3 O4
;
_journal_coeditor_code "IUCr A27695"
_journal_coden_Cambridge 591
_journal_volume 43
_journal_year 1987
_journal_page_first 2460
_journal_name_full 'Acta Crystallogr.,Sect.C:Cryst.Struct.Commun. '
loop_
_publ_author_name
"Y.Nawata"
"N.Terao"
"T.Terazono"
"K.Igusa"
"Y.Yutani"
"K.Ochi"
_chemical_name_systematic
;
N-(2-(Nitro-oxy)ethyl)nicotinamide
;
_chemical_name_common
;
Nicorandil; DrugBank: DB09220
;
_cell_volume    949.130
_exptl_crystal_colour 'colorless'
_exptl_crystal_density_diffrn 1.478
_exptl_special_details
;
antianginal agent

;
_diffrn_ambient_temperature ?
_diffrn_special_details
;
The study was carried out at room temperature,in the range 283-303K

;
#These two values have been output from a single CSD field.
_refine_ls_R_factor_gt 0.052
_refine_ls_wR_factor_gt 0.052
_symmetry_cell_setting monoclinic
_symmetry_space_group_name_H-M 'P 21/a'
_symmetry_Int_Tables_number 14
loop_
_symmetry_equiv_pos_site_id
_symmetry_equiv_pos_as_xyz
1 x,y,z
2 1/2-x,1/2+y,-z
3 -x,-y,-z
4 -1/2+x,-1/2-y,z
_cell_length_a 9.519(1)
_cell_length_b 19.498(2)
_cell_length_c 5.230(1)
_cell_angle_alpha 90
_cell_angle_beta 102.10(2)
_cell_angle_gamma 90
_cell_formula_units_Z 4
loop_
_atom_type_symbol
_atom_type_radius_bond
C 0.68
H 0.23
N 0.68
O 0.68
loop_
_atom_site_label
_atom_site_type_symbol
_atom_site_fract_x
_atom_site_fract_y
_atom_site_fract_z
N1 N 1.1845(3) 0.3557(2) 0.1240(5)
C1 C 1.0913(4) 0.4060(2) 0.1316(7)
C2 C 0.9952(4) 0.4066(2) 0.2965(8)
C3 C 0.9972(4) 0.3525(2) 0.4688(7)
C4 C 1.0950(3) 0.3001(2) 0.4695(6)
C5 C 1.1850(3) 0.3039(2) 0.2911(6)
C6 C 1.1136(3) 0.2402(2) 0.6512(6)
O1 O 1.2277(2) 0.2078(1) 0.6970(5)
N2 N 1.0025(3) 0.2235(1) 0.7580(5)
C7 C 1.0098(4) 0.1661(2) 0.9368(6)
C8 C 0.9437(4) 0.1017(2) 0.8028(7)
O2 O 1.0042(3) 0.0846(1) 0.5765(5)
N3 N 1.1400(3) 0.0560(2) 0.6363(6)
O3 O 1.1931(3) 0.0481(2) 0.4501(6)
O4 O 1.1895(3) 0.0410(2) 0.8603(6)
H1 H 1.099(4) 0.451(2) 0.029(7)
H2 H 0.925(4) 0.447(2) 0.310(7)
H3 H 0.921(4) 0.351(2) 0.581(7)
H4 H 1.254(4) 0.264(2) 0.288(7)
H5 H 0.917(4) 0.246(2) 0.718(7)
H6 H 0.943(4) 0.177(2) 1.069(7)
H7 H 1.115(4) 0.159(2) 1.004(7)
H8 H 0.832(4) 0.107(2) 0.726(7)
H9 H 0.948(4) 0.060(2) 0.911(7)
#END
