
#######################################################################
#
#                 Cambridge Crystallographic Data Centre
#                                CCDC
#
#######################################################################
#
# If this CIF has been generated from an entry in the Cambridge
# Structural Database, then it will include bibliographic, chemical,
# crystal, experimental, refinement or atomic coordinate data resulting
# from the CCDC's data processing and validation procedures.
#
#######################################################################

data_CSD_CIF_FUWREW
_audit_creation_date 2015-09-14
_audit_creation_method CSD-ConQuest-V1
_database_code_CSD FUWREW
_database_code_depnum_ccdc_archive 'CCDC 1050168'
_chemical_formula_sum 'C20 H22 N4 O6'
_chemical_formula_moiety
;
C20 H22 N4 O6
;
_journal_coden_Cambridge 182
_journal_volume 51
_journal_year 2015
_journal_page_first 15681
_journal_name_full 'Chem.Commun. '
loop_
_publ_author_name
"A.Grisin"
"S.Oliver"
"M.D.Ganton"
"J.Bacsa"
"P.Andrew Evans"
_chemical_name_systematic
;
1-(2,4-dinitrophenyl)-2-(1-(5-(2-phenylethyl)-1,3-dioxolan-4-yl)propan-2-ylide
ne)hydrazine
;
_cell_volume   1934.464
_exptl_crystal_colour 'colorless'
_exptl_crystal_density_diffrn 1.423
_exptl_crystal_description 'needle'
_diffrn_ambient_temperature 100
#These two values have been output from a single CSD field.
_refine_ls_R_factor_gt 0.051
_refine_ls_wR_factor_gt 0.051
_symmetry_cell_setting monoclinic
_symmetry_space_group_name_H-M 'P 21/n'
_symmetry_Int_Tables_number 14
loop_
_symmetry_equiv_pos_site_id
_symmetry_equiv_pos_as_xyz
1 x,y,z
2 1/2-x,1/2+y,1/2-z
3 -x,-y,-z
4 -1/2+x,-1/2-y,-1/2+z
_cell_length_a 18.938(6)
_cell_length_b 5.2580(17)
_cell_length_c 20.517(7)
_cell_angle_alpha 90
_cell_angle_beta 108.760(5)
_cell_angle_gamma 90
_cell_formula_units_Z 4
loop_
_atom_type_symbol
_atom_type_radius_bond
C 0.68
H 0.23
N 0.68
O 0.68
loop_
_atom_site_label
_atom_site_type_symbol
_atom_site_fract_x
_atom_site_fract_y
_atom_site_fract_z
O1 O 0.16243(9) 0.0657(3) 0.15619(9)
O2 O 0.06182(9) 0.0515(3) 0.06884(9)
N1 N 0.27575(10) -0.2208(4) 0.1598(1)
H1 H 0.26120 -0.09500 0.18080
O3 O 0.01616(9) -0.5994(3) -0.09800(9)
N2 N 0.12377(11) -0.0307(4) 0.10100(11)
N3 N 0.34896(10) -0.3047(4) 0.18295(10)
O4 O 0.09894(10) -0.8921(3) -0.09154(9)
C1 C 0.20089(12) -0.6646(5) 0.01819(12)
H2 H 0.21650 -0.80960 -0.00120
C2 C 0.12859(12) -0.5690(5) -0.01081(12)
C3 C 0.15253(12) -0.2470(5) 0.07378(12)
C4 C 0.22706(12) -0.3345(4) 0.10465(12)
O5 O 0.62172(10) 0.0145(4) 0.20019(9)
C5 C 0.24866(13) -0.5486(5) 0.07427(12)
H3 H 0.29780 -0.61340 0.09350
C6 C 0.10449(13) -0.3628(5) 0.01597(12)
H4 H 0.05540 -0.29930 -0.00470
N4 N 0.07789(11) -0.6958(4) -0.07069(11)
O6 O 0.49594(9) 0.0160(4) 0.16973(10)
C7 C 0.39312(13) -0.1681(5) 0.23077(12)
C8 C 0.47300(12) -0.2535(5) 0.25446(13)
H5 H 0.47770 -0.41130 0.22990
H6 H 0.48870 -0.29180 0.30430
C9 C 0.65868(13) -0.0954(5) 0.32043(13)
H7 H 0.64250 -0.18860 0.35510
H8 H 0.66080 0.08790 0.33200
C10 C 0.84280(13) 0.0424(5) 0.40995(14)
H9 H 0.83970 0.17150 0.37670
C11 C 0.37141(13) 0.0662(5) 0.26100(13)
H10 H 0.35730 0.19990 0.22590
H11 H 0.41370 0.12430 0.29990
H12 H 0.32910 0.02790 0.27700
C12 C 0.73632(13) -0.1864(6) 0.32375(13)
H13 H 0.73330 -0.36750 0.30990
H14 H 0.75280 -0.08840 0.29000
C13 C 0.79978(14) -0.3434(5) 0.44346(14)
H15 H 0.76670 -0.48450 0.43310
C14 C 0.79387(13) -0.1593(5) 0.39355(13)
C15 C 0.89639(13) 0.0597(5) 0.47422(14)
H16 H 0.92990 0.19970 0.48450
C16 C 0.60248(14) -0.1360(6) 0.25024(13)
H17 H 0.60220 -0.31980 0.23760
C17 C 0.52326(13) -0.0514(6) 0.24115(13)
H18 H 0.52380 0.10150 0.27030
C18 C 0.90168(14) -0.1233(6) 0.52331(14)
H19 H 0.93850 -0.11080 0.56740
C19 C 0.55565(13) 0.0997(6) 0.15210(14)
H20 H 0.55550 0.28780 0.15050
H21 H 0.55210 0.03510 0.10580
C20 C 0.85266(16) -0.3260(6) 0.50776(15)
H22 H 0.85540 -0.45330 0.54130
#END
