
#######################################################################
#
#                 Cambridge Crystallographic Data Centre
#                                CCDC
#
#######################################################################
#
# If this CIF has been generated from an entry in the Cambridge
# Structural Database, then it will include bibliographic, chemical,
# crystal, experimental, refinement or atomic coordinate data resulting
# from the CCDC's data processing and validation procedures.
#
#######################################################################

data_CSD_CIF_FUYLES
_audit_creation_date 2016-01-07
_audit_creation_method CSD-ConQuest-V1
_database_code_CSD FUYLES
_database_code_depnum_ccdc_archive 'CCDC 1415998'
_chemical_formula_sum 'C24 H23 N1 O2'
_chemical_formula_moiety
;
C24 H23 N1 O2
;
_journal_coden_Cambridge 179
_journal_volume 54
_journal_year 2015
_journal_page_first 14924
_journal_name_full 'Angew.Chem.,Int.Ed. '
loop_
_publ_author_name
"D.B.Huple"
"B.D.Mokar"
"Rai-Shung Liu"
_chemical_name_systematic
;
4-methoxy-8b-methyl-1,3-diphenyl-3,3a,4,8b-tetrahydro-1H-indeno[1,2-c][1,2]oxa
zole
;
_cell_volume   1887.923
_exptl_crystal_colour 'colorless'
_exptl_crystal_density_diffrn 1.258
_diffrn_ambient_temperature 100
_diffrn_special_details
;
twin

;
#These two values have been output from a single CSD field.
_refine_ls_R_factor_gt 0.0321
_refine_ls_wR_factor_gt 0.0321
_symmetry_cell_setting orthorhombic
_symmetry_space_group_name_H-M 'P 21 21 21'
_symmetry_Int_Tables_number 19
loop_
_symmetry_equiv_pos_site_id
_symmetry_equiv_pos_as_xyz
1 x,y,z
2 1/2+x,1/2-y,-z
3 -x,1/2+y,1/2-z
4 1/2-x,-y,1/2+z
_cell_length_a 7.8850(3)
_cell_length_b 14.7691(6)
_cell_length_c 16.2117(6)
_cell_angle_alpha 90
_cell_angle_beta 90
_cell_angle_gamma 90
_cell_formula_units_Z 4
loop_
_atom_type_symbol
_atom_type_radius_bond
C 0.68
H 0.23
N 0.68
O 0.68
loop_
_atom_site_label
_atom_site_type_symbol
_atom_site_fract_x
_atom_site_fract_y
_atom_site_fract_z
O1 O 0.74950(16) 0.75836(8) 0.76731(8)
O2 O 0.96531(17) 0.71298(9) 0.50070(8)
N1 N 0.92493(19) 0.73013(10) 0.78119(9)
C1 C 1.1327(3) 0.87400(15) 0.98206(13)
H1 H 1.18130 0.90620 1.02700
C2 C 0.9832(3) 0.90377(14) 0.94632(13)
H2 H 0.92810 0.95590 0.96790
C3 C 0.9125(3) 0.85870(13) 0.87955(12)
H3 H 0.81050 0.88010 0.85530
C4 C 0.9921(2) 0.78190(13) 0.84831(11)
C5 C 0.7005(2) 0.70584(13) 0.69636(11)
H4 H 0.61820 0.74270 0.66360
C6 C 0.6122(2) 0.61855(12) 0.72110(12)
C7 C 0.5320(2) 0.61261(12) 0.79745(12)
H5 H 0.54080 0.66120 0.83560
C8 C 0.4393(3) 0.53598(14) 0.81808(12)
H6 H 0.38500 0.53250 0.87030
C9 C 0.4252(3) 0.46468(13) 0.76329(13)
H7 H 0.36080 0.41260 0.77760
C10 C 0.5056(3) 0.46949(14) 0.68720(13)
H8 H 0.49760 0.42030 0.64960
C11 C 0.5979(3) 0.54653(14) 0.66609(12)
H9 H 0.65150 0.54990 0.61370
C12 C 0.8628(2) 0.69461(12) 0.64402(11)
H10 H 0.89070 0.62940 0.63470
C13 C 0.9999(2) 0.74250(12) 0.69694(11)
C14 C 0.9968(2) 0.83855(12) 0.66219(11)
C15 C 0.9129(2) 0.84030(12) 0.58654(11)
C16 C 0.9000(2) 0.91972(13) 0.54080(12)
H11 H 0.84400 0.92010 0.48890
C17 C 0.9707(3) 0.99828(13) 0.57249(12)
H12 H 0.96190 1.05320 0.54240
C18 C 1.0545(3) 0.99737(13) 0.64809(13)
H13 H 1.10150 1.05190 0.66920
C19 C 1.0703(2) 0.91740(13) 0.69332(12)
H14 H 1.12980 0.91670 0.74430
C20 C 0.8516(2) 0.74716(13) 0.56219(11)
H15 H 0.73240 0.74920 0.54120
C21 C 0.8996(3) 0.63424(13) 0.46079(13)
H16 H 0.88960 0.58490 0.50090
H17 H 0.97660 0.61590 0.41640
H18 H 0.78760 0.64780 0.43770
C22 C 1.1752(2) 0.69958(14) 0.69164(12)
H19 H 1.25650 0.73650 0.72260
H20 H 1.21050 0.69610 0.63380
H21 H 1.17140 0.63850 0.71520
C23 C 1.1397(3) 0.74976(14) 0.88564(12)
H22 H 1.19170 0.69590 0.86610
C24 C 1.2108(3) 0.79666(15) 0.95154(12)
H23 H 1.31320 0.77570 0.97580
#END
