
#######################################################################
#
#                 Cambridge Crystallographic Data Centre
#                                CCDC
#
#######################################################################
#
# If this CIF has been generated from an entry in the Cambridge
# Structural Database, then it will include bibliographic, chemical,
# crystal, experimental, refinement or atomic coordinate data resulting
# from the CCDC's data processing and validation procedures.
#
#######################################################################

data_CSD_CIF_FUZRUP
_audit_creation_date 2016-01-07
_audit_creation_method CSD-ConQuest-V1
_database_code_CSD FUZRUP
_database_code_depnum_ccdc_archive 'CCDC 1439072'
_chemical_formula_sum 'C14 H15 N1 O5'
_chemical_formula_moiety
;
C14 H15 N1 O5
;
_journal_coden_Cambridge 182
_journal_volume 52
_journal_year 2016
_journal_page_first 2529
_journal_name_full 'Chem.Commun. '
loop_
_publ_author_name
"A.N.Baumann"
"A.Music"
"K.Karaghiosoff"
"D.Didier"
_chemical_name_systematic
;
(1,2-dimethyl-3-methylenecyclopropyl)(6-nitrobenzo[d][1,3]dioxol-5-yl)methanol
;
_chemical_name_common
;
(1,2-dimethyl-3-methylenecyclopropyl)(6-nitro-1,3-benzodioxol-5-yl)methanol
;
_cell_volume   1335.168
_exptl_crystal_colour 'pale yellow'
_exptl_crystal_density_diffrn 1.379
_exptl_crystal_description 'block'
_diffrn_ambient_temperature 173
#These two values have been output from a single CSD field.
_refine_ls_R_factor_gt 0.0462
_refine_ls_wR_factor_gt 0.0462
_symmetry_cell_setting monoclinic
_symmetry_space_group_name_H-M 'P 21/c'
_symmetry_Int_Tables_number 14
loop_
_symmetry_equiv_pos_site_id
_symmetry_equiv_pos_as_xyz
1 x,y,z
2 -x,1/2+y,1/2-z
3 -x,-y,-z
4 x,-1/2-y,-1/2+z
_cell_length_a 9.5866(4)
_cell_length_b 19.5978(6)
_cell_length_c 7.6285(3)
_cell_angle_alpha 90
_cell_angle_beta 111.316(5)
_cell_angle_gamma 90
_cell_formula_units_Z 4
loop_
_atom_type_symbol
_atom_type_radius_bond
C 0.68
H 0.23
N 0.68
O 0.68
loop_
_atom_site_label
_atom_site_type_symbol
_atom_site_fract_x
_atom_site_fract_y
_atom_site_fract_z
C1 C -0.05969(12) 0.16628(5) 0.16986(15)
O1 O -0.24491(10) 0.20427(4) -0.12769(12)
C2 C 0.19694(13) 0.18092(6) 0.20945(17)
N1 N -0.11690(11) 0.14947(5) 0.46035(13)
C3 C -0.22251(12) 0.16412(6) 0.03726(15)
H1 H -0.2831(9) 0.1856(3) 0.1049(10)
O2 O -0.24377(10) 0.12962(5) 0.36987(13)
O3 O 0.39397(10) 0.17956(5) 0.48394(13)
O4 O -0.07357(12) 0.16088(5) 0.63143(12)
C4 C -0.19861(14) 0.03158(6) 0.07658(18)
C5 C -0.01067(12) 0.15961(6) 0.36649(15)
C6 C 0.14001(13) 0.16413(6) 0.48702(16)
H2 H 0.1699(5) 0.15998(9) 0.622(2)
O5 O 0.31926(10) 0.19026(5) 0.16101(14)
C7 C 0.05016(13) 0.17784(6) 0.09182(16)
H3 H 0.0219(5) 0.18364(11) -0.046(2)
C8 C -0.19622(17) 0.04687(6) -0.11025(19)
H4 H -0.1006(16) 0.0676(4) -0.10776(19)
C9 C 0.24168(13) 0.17471(6) 0.40303(17)
C10 C -0.28376(13) 0.09206(6) -0.01776(16)
C11 C -0.16314(17) -0.01072(7) 0.2194(2)
H5 H -0.1113(7) -0.0529(6) 0.2163(2)
H6 H -0.1887(4) 0.00023(15) 0.3280(14)
C12 C -0.45295(15) 0.08895(8) -0.0908(2)
H7 H -0.4948(5) 0.1200(5) -0.2017(16)
H8 H -0.4895(4) 0.1037(6) 0.0107(12)
H9 H -0.4865(4) 0.0411(5) -0.1296(15)
C13 C 0.44138(16) 0.19975(11) 0.3362(2)
H10 H 0.5278(13) 0.1720(4) 0.3386(2)
H11 H 0.4720(5) 0.2480(7) 0.3515(3)
C14 C -0.2721(2) 0.00252(8) -0.2798(2)
H12 H -0.3075(15) 0.0309(4) -0.3928(15)
H13 H -0.3570(14) -0.0209(6) -0.2648(9)
H14 H -0.2008(10) -0.0312(6) -0.2916(12)
H15 H -0.222(2) 0.1789(10) -0.204(3)
#END
