
#######################################################################
#
#                 Cambridge Crystallographic Data Centre
#                                CCDC
#
#######################################################################
#
# If this CIF has been generated from an entry in the Cambridge
# Structural Database, then it will include bibliographic, chemical,
# crystal, experimental, refinement or atomic coordinate data resulting
# from the CCDC's data processing and validation procedures.
#
#######################################################################

data_CSD_CIF_GABBIW
_audit_creation_date 2011-03-31
_audit_creation_method CSD-ConQuest-V1
_database_code_CSD GABBIW
_database_code_depnum_ccdc_archive 'CCDC 753694'
_chemical_formula_sum 'C14 H22 N2 O4'
_chemical_formula_moiety
;
C14 H22 N2 O4
;
_journal_coden_Cambridge 1088
_journal_year 2010
_journal_page_first 672
_journal_name_full 'Synlett '
loop_
_publ_author_name
"B.Stevenson"
"W.Lewis"
"J.Dowden"
_chemical_name_systematic
;
(R,S,R)-3-(2-(1-(1,3-Dioxan-2-yl)ethyl)-1-nitrocyclopentyl)propanenitrile
;
_cell_volume   1476.836
_exptl_crystal_colour 'colorless'
_exptl_crystal_density_diffrn 1.27
_exptl_crystal_description 'plate'
_diffrn_ambient_temperature 150
#These two values have been output from a single CSD field.
_refine_ls_R_factor_gt 0.0534
_refine_ls_wR_factor_gt 0.0534
loop_
_citation_database_id_CSD
_citation_special_details
GABBES "is a stereoisomer of this entry"
_symmetry_cell_setting monoclinic
_symmetry_space_group_name_H-M 'P 21/c'
_symmetry_Int_Tables_number 14
loop_
_symmetry_equiv_pos_site_id
_symmetry_equiv_pos_as_xyz
1 x,y,z
2 -x,1/2+y,1/2-z
3 -x,-y,-z
4 x,-1/2-y,-1/2+z
_cell_length_a 19.104(3)
_cell_length_b 7.5449(12)
_cell_length_c 10.2460(17)
_cell_angle_alpha 90
_cell_angle_beta 90.017(3)
_cell_angle_gamma 90
_cell_formula_units_Z 4
loop_
_atom_type_symbol
_atom_type_radius_bond
C 0.68
H 0.23
N 0.68
O 0.68
loop_
_atom_site_label
_atom_site_type_symbol
_atom_site_fract_x
_atom_site_fract_y
_atom_site_fract_z
N1 N 0.97649(10) 0.1287(3) 0.2805(2)
C1 C 0.95269(11) 0.2088(3) 0.1973(2)
C2 C 0.92195(11) 0.3114(3) 0.0907(2)
H1 H 0.90860 0.22980 0.01920
H2 H 0.95750 0.39460 0.05620
C3 C 0.85745(10) 0.4164(3) 0.1336(2)
H3 H 0.82060 0.33190 0.16100
H4 H 0.87000 0.48910 0.21060
C4 C 0.82759(10) 0.5379(2) 0.02797(19)
N2 N 0.80327(9) 0.4242(2) -0.08780(17)
O1 O 0.79055(8) 0.26713(19) -0.06920(15)
O2 O 0.79409(8) 0.4986(2) -0.19279(14)
C5 C 0.76202(10) 0.6474(2) 0.0739(2)
H5 H 0.76950 0.67380 0.16850
C6 C 0.76950(11) 0.8247(2) 0.0016(2)
H6 H 0.75130 0.81580 -0.08870
H7 H 0.74420 0.92040 0.04780
C7 C 0.84819(11) 0.8581(3) 0.0019(2)
H8 H 0.86340 0.90810 0.08660
H9 H 0.86140 0.94140 -0.06860
C8 C 0.88120(12) 0.6759(2) -0.0209(2)
H10 H 0.92560 0.66520 0.02830
H11 H 0.89110 0.65790 -0.11480
C9 C 0.68956(10) 0.5591(2) 0.0635(2)
H12 H 0.68550 0.50940 -0.02660
C10 C 0.67892(11) 0.4051(3) 0.1591(2)
H13 H 0.63030 0.36390 0.15430
H14 H 0.68910 0.44530 0.24810
H15 H 0.71050 0.30770 0.13620
C11 C 0.63246(10) 0.6974(3) 0.0786(2)
H16 H 0.63930 0.79240 0.01170
O3 O 0.63668(7) 0.77303(18) 0.20435(13)
C12 C 0.58602(11) 0.9128(3) 0.2172(2)
H17 H 0.59670 1.00850 0.15410
H18 H 0.58840 0.96340 0.30630
C13 C 0.51308(11) 0.8420(3) 0.1920(2)
H19 H 0.49940 0.76000 0.26300
H20 H 0.47920 0.94120 0.19020
C14 C 0.51197(11) 0.7455(3) 0.0627(2)
H21 H 0.46610 0.68640 0.05100
H22 H 0.51820 0.83150 -0.00930
O4 O 0.56691(7) 0.61562(17) 0.05842(14)
#END
