
#######################################################################
#
#                 Cambridge Crystallographic Data Centre
#                                CCDC
#
#######################################################################
#
# If this CIF has been generated from an entry in the Cambridge
# Structural Database, then it will include bibliographic, chemical,
# crystal, experimental, refinement or atomic coordinate data resulting
# from the CCDC's data processing and validation procedures.
#
#######################################################################

data_CSD_CIF_GABBES
_audit_creation_date 2011-03-31
_audit_creation_method CSD-ConQuest-V1
_database_code_CSD GABBES
_database_code_depnum_ccdc_archive 'CCDC 753693'
_chemical_formula_sum 'C14 H22 N2 O4'
_chemical_formula_moiety
;
C14 H22 N2 O4
;
_journal_coden_Cambridge 1088
_journal_year 2010
_journal_page_first 672
_journal_name_full 'Synlett '
loop_
_publ_author_name
"B.Stevenson"
"W.Lewis"
"J.Dowden"
_chemical_name_systematic
;
(R,S,S)-3-(2-(1-(1,3-Dioxan-2-yl)ethyl)-1-nitrocyclopentyl)propanenitrile
;
_cell_volume    717.109
_exptl_crystal_colour 'colorless'
_exptl_crystal_density_diffrn 1.308
_exptl_crystal_description 'plate'
_diffrn_ambient_temperature 150
#These two values have been output from a single CSD field.
_refine_ls_R_factor_gt 0.0951
_refine_ls_wR_factor_gt 0.0951
loop_
_citation_database_id_CSD
_citation_special_details
GABBIW "is a stereoisomer of this entry"
_symmetry_cell_setting triclinic
_symmetry_space_group_name_H-M 'P -1'
_symmetry_Int_Tables_number 2
loop_
_symmetry_equiv_pos_site_id
_symmetry_equiv_pos_as_xyz
1 x,y,z
2 -x,-y,-z
_cell_length_a 6.500(3)
_cell_length_b 9.743(4)
_cell_length_c 11.773(5)
_cell_angle_alpha 74.579(7)
_cell_angle_beta 86.159(7)
_cell_angle_gamma 88.656(7)
_cell_formula_units_Z 2
loop_
_atom_type_symbol
_atom_type_radius_bond
C 0.68
H 0.23
N 0.68
O 0.68
loop_
_atom_site_label
_atom_site_type_symbol
_atom_site_fract_x
_atom_site_fract_y
_atom_site_fract_z
C1 C 0.7422(6) 0.5313(4) 0.0279(3)
N1 N 0.7603(5) 0.4167(4) 0.0218(3)
C2 C 0.7194(6) 0.6760(4) 0.0397(3)
H1 H 0.58890 0.71780 0.00660
H2 H 0.83460 0.73500 -0.00560
C3 C 0.7181(6) 0.6769(4) 0.1700(3)
H3 H 0.60920 0.61180 0.21530
H4 H 0.85210 0.63940 0.20080
C4 C 0.6815(5) 0.8238(4) 0.1914(3)
N2 N 0.4649(4) 0.8743(3) 0.1564(2)
O1 O 0.4297(4) 1.0032(3) 0.1320(2)
O2 O 0.3345(4) 0.7855(3) 0.1585(2)
C5 C 0.6957(5) 0.8233(4) 0.3226(3)
H5 H 0.82640 0.77090 0.34710
C6 C 0.7376(6) 0.9785(4) 0.3189(3)
H6 H 0.81760 0.98380 0.38620
H7 H 0.60660 1.03170 0.32200
C7 C 0.8618(6) 1.0396(4) 0.2013(4)
H8 H 1.00910 1.04790 0.21500
H9 H 0.80900 1.13520 0.16150
C8 C 0.8366(5) 0.9360(4) 0.1247(3)
H10 H 0.78610 0.98760 0.04730
H11 H 0.97060 0.89070 0.11100
C9 C 0.5259(6) 0.7431(4) 0.4117(3)
H12 H 0.48750 0.65930 0.38370
C10 C 0.3265(6) 0.8266(4) 0.4228(3)
H13 H 0.22720 0.76510 0.47870
H14 H 0.26830 0.85890 0.34540
H15 H 0.35640 0.90930 0.45150
C11 C 0.6031(6) 0.6836(4) 0.5351(3)
H16 H 0.49300 0.62300 0.58660
O3 O 0.7789(4) 0.5984(3) 0.5265(2)
C12 C 0.8616(7) 0.5379(5) 0.6388(3)
H17 H 0.99220 0.48740 0.62760
H18 H 0.76330 0.46770 0.68900
C13 C 0.9016(6) 0.6525(5) 0.7002(4)
H19 H 0.93920 0.60810 0.78210
H20 H 1.01740 0.71320 0.65780
C14 C 0.7091(7) 0.7416(5) 0.7016(3)
H21 H 0.59780 0.68320 0.75180
H22 H 0.73660 0.82220 0.73490
O4 O 0.6459(4) 0.7950(3) 0.5827(2)
#END
