
#######################################################################
#
#                 Cambridge Crystallographic Data Centre
#                                CCDC
#
#######################################################################
#
# If this CIF has been generated from an entry in the Cambridge
# Structural Database, then it will include bibliographic, chemical,
# crystal, experimental, refinement or atomic coordinate data resulting
# from the CCDC's data processing and validation procedures.
#
#######################################################################

data_CSD_CIF_GABTEL
_audit_creation_date 2016-01-25
_audit_creation_method CSD-ConQuest-V1
_database_code_CSD GABTEL
_database_code_depnum_ccdc_archive 'CCDC 1410637'
_chemical_formula_sum 'C19 H18 N2 O3'
_chemical_formula_moiety
;
C19 H18 N2 O3
;
_journal_coden_Cambridge 1291
_journal_year 2016
_journal_page_first 541
_journal_name_full 'Eur.J.Org.Chem. '
loop_
_publ_author_name
"H.Minami"
"T.Sueda"
"N.Okamoto"
"Yoshihisa Miwa"
"M.Ishikura"
"R.Yanada"
_chemical_name_systematic
;
3-n-Butyl-7-nitro-N-phenyl-1H-isochromen-1-imine
;
_cell_volume   3262.341
_exptl_crystal_colour 'yellow'
_exptl_crystal_density_diffrn 1.312
_exptl_crystal_description 'platelet'
_diffrn_ambient_temperature 173
#These two values have been output from a single CSD field.
_refine_ls_R_factor_gt 0.0385
_refine_ls_wR_factor_gt 0.0385
_symmetry_cell_setting orthorhombic
_symmetry_space_group_name_H-M 'P b c n'
_symmetry_Int_Tables_number 60
loop_
_symmetry_equiv_pos_site_id
_symmetry_equiv_pos_as_xyz
1 x,y,z
2 1/2-x,1/2-y,1/2+z
3 1/2+x,1/2-y,-z
4 -x,y,1/2-z
5 -x,-y,-z
6 -1/2+x,-1/2+y,-1/2-z
7 -1/2-x,-1/2+y,z
8 x,-y,-1/2+z
_cell_length_a 31.16(2)
_cell_length_b 8.048(10)
_cell_length_c 13.009(12)
_cell_angle_alpha 90
_cell_angle_beta 90
_cell_angle_gamma 90
_cell_formula_units_Z 8
loop_
_atom_type_symbol
_atom_type_radius_bond
C 0.68
H 0.23
N 0.68
O 0.68
loop_
_atom_site_label
_atom_site_type_symbol
_atom_site_fract_x
_atom_site_fract_y
_atom_site_fract_z
O1 O 0.39699(3) 0.25096(14) 0.17350(8)
O2 O 0.58945(3) 0.68843(14) 0.06231(8)
O3 O 0.53825(3) 0.81785(15) 0.14232(9)
N1 N 0.55423(4) 0.69144(18) 0.10551(10)
N2 N 0.39717(4) 0.53566(17) 0.17303(10)
C1 C 0.41760(5) 0.4009(2) 0.16289(11)
C2 C 0.53013(4) 0.5356(2) 0.11242(11)
C3 C 0.48445(4) 0.2426(2) 0.12665(12)
C4 C 0.41753(5) 0.1012(2) 0.15977(12)
C5 C 0.46399(4) 0.3956(2) 0.14139(11)
C6 C 0.52876(4) 0.2411(2) 0.10357(12)
C7 C 0.48689(4) 0.5433(2) 0.13533(11)
C8 C 0.45924(5) 0.0929(2) 0.13643(13)
C9 C 0.38724(5) -0.0385(2) 0.17779(13)
C10 C 0.35167(4) 0.5325(2) 0.18592(13)
C11 C 0.34889(5) -0.0418(2) 0.10386(13)
C12 C 0.33395(5) 0.5980(2) 0.27423(14)
C13 C 0.36084(5) -0.0986(2) -0.00349(13)
C14 C 0.32474(5) 0.4789(2) 0.10792(15)
C15 C 0.28966(5) 0.6075(3) 0.28522(15)
C16 C 0.26313(5) 0.5543(3) 0.20749(16)
C17 C 0.32219(6) -0.1137(3) -0.07516(16)
C18 C 0.28085(5) 0.4902(3) 0.11901(16)
C19 C 0.55136(4) 0.3867(2) 0.09583(12)
H1 H 0.54274 0.14035 0.09351
H2 H 0.47360 0.64506 0.14689
H3 H 0.35189 0.63735 0.32591
H4 H 0.33652 0.43419 0.04835
H5 H 0.27770 0.65040 0.34509
H6 H 0.23348 0.55859 0.21514
H7 H 0.26304 0.45646 0.06558
H8 H 0.58039 0.38547 0.07928
H9 H 0.40324 -0.14120 0.17035
H10 H 0.37676 -0.02909 0.24776
H11 H 0.32724 -0.11655 0.13085
H12 H 0.33727 0.06988 0.10002
H13 H 0.38034 -0.01799 -0.03338
H14 H 0.37494 -0.20580 0.00070
H15 H 0.30955 -0.00632 -0.08595
H16 H 0.33110 -0.15908 -0.13997
H17 H 0.30146 -0.18623 -0.04410
H18 H 0.4731(4) -0.014(2) 0.1287(11)
#END
