
#######################################################################
#
#                 Cambridge Crystallographic Data Centre
#                                CCDC
#
#######################################################################
#
# If this CIF has been generated from an entry in the Cambridge
# Structural Database, then it will include bibliographic, chemical,
# crystal, experimental, refinement or atomic coordinate data resulting
# from the CCDC's data processing and validation procedures.
#
#######################################################################

data_CSD_CIF_GACBER
_audit_creation_date 1988-09-05
_audit_creation_method CSD-ConQuest-V1
_database_code_CSD GACBER
_chemical_formula_sum 'C15 H11 N1 O2'
_chemical_formula_moiety
;
C15 H11 N1 O2
;
_journal_coden_Cambridge 4
_journal_volume 110
_journal_year 1988
_journal_page_first 226
_journal_name_full 'J.Am.Chem.Soc. '
loop_
_publ_author_name
"C.J.Cheer"
"D.Bernstein"
"A.Greenberg"
"Ping-Chiang Lyu"
_chemical_name_systematic
;
1,2-Diphenyl-3-nitrocyclopropene
;
_cell_volume   1256.001
_exptl_crystal_density_diffrn 1.256
_exptl_special_details
;
z(C5) is 0.2119, not 0.2193

;
_diffrn_ambient_temperature ?
_diffrn_special_details
;
The study was carried out at room temperature,in the range 283-303K

;
#These two values have been output from a single CSD field.
_refine_ls_R_factor_gt 0.046
_refine_ls_wR_factor_gt 0.046
_symmetry_cell_setting orthorhombic
_symmetry_space_group_name_H-M 'P 21 21 21'
_symmetry_Int_Tables_number 19
loop_
_symmetry_equiv_pos_site_id
_symmetry_equiv_pos_as_xyz
1 x,y,z
2 1/2+x,1/2-y,-z
3 -x,1/2+y,1/2-z
4 1/2-x,-y,1/2+z
_cell_length_a 6.147(2)
_cell_length_b 11.630(3)
_cell_length_c 17.569(4)
_cell_angle_alpha 90
_cell_angle_beta 90
_cell_angle_gamma 90
_cell_formula_units_Z 4
loop_
_atom_type_symbol
_atom_type_radius_bond
C 0.68
N 0.68
O 0.68
loop_
_atom_site_label
_atom_site_type_symbol
_atom_site_fract_x
_atom_site_fract_y
_atom_site_fract_z
C1 C 0.0710(5) 0.0055(2) 0.1112(2)
C2 C 0.2394(5) 0.0392(2) 0.1500(2)
C3 C 0.1955(5) 0.1031(2) 0.0787(2)
C4 C 0.3931(5) 0.0294(2) 0.2117(2)
C5 C 0.5828(5) 0.0951(2) 0.2119(2)
C6 C 0.7339(6) 0.0811(3) 0.2692(2)
C7 C 0.6991(7) 0.0030(3) 0.3272(2)
C8 C 0.5079(7) -0.0606(3) 0.3276(2)
C9 C 0.3573(6) -0.0486(3) 0.2708(2)
C10 C -0.1099(5) -0.0701(2) 0.0962(1)
C11 C -0.2534(6) -0.0476(2) 0.0373(2)
C12 C -0.4252(6) -0.1193(3) 0.0245(2)
C13 C -0.4575(7) -0.2148(3) 0.0695(2)
C14 C -0.3166(7) -0.2371(3) 0.1279(2)
C15 C -0.1445(6) -0.1665(2) 0.1420(2)
N1 N 0.0976(5) 0.2228(2) 0.0864(2)
O1 O -0.0059(5) 0.2476(2) 0.1424(2)
O2 O 0.1301(5) 0.2884(2) 0.0333(1)
#END
