
#######################################################################
#
#                 Cambridge Crystallographic Data Centre
#                                CCDC
#
#######################################################################
#
# If this CIF has been generated from an entry in the Cambridge
# Structural Database, then it will include bibliographic, chemical,
# crystal, experimental, refinement or atomic coordinate data resulting
# from the CCDC's data processing and validation procedures.
#
#######################################################################

data_CSD_CIF_GACVEN
_audit_creation_date 2011-03-04
_audit_creation_method CSD-ConQuest-V1
_database_code_CSD GACVEN
_database_code_depnum_ccdc_archive 'CCDC 715052'
_chemical_formula_sum 'C24 H23 N3 O6'
_chemical_formula_moiety
;
C24 H23 N3 O6
;
_journal_coden_Cambridge 34
_journal_volume 46
_journal_year 2009
_journal_page_first 762
_journal_name_full 'J.Heterocycl.Chem. '
loop_
_publ_author_name
"V.Singh"
"S.Hutait"
"G.P.Yadav"
"P.R.Maulik"
"S.Batra"
_chemical_name_systematic
;
Methyl 
5-(acetoxy(5-methyl-3-phenyl-1,2-oxazol-4-yl)methyl)-3-(2-aminophenyl)-4,5-dih
ydro-1,2-oxazole-5-carboxylate
;
_chemical_melting_point 453.15
_cell_volume   2264.678
_exptl_crystal_colour 'colorless'
_exptl_crystal_density_diffrn 1.318
_exptl_special_details
;
Melting point range 453.15-455.15K

;
_exptl_crystal_description 'block'
_diffrn_ambient_temperature 293
#These two values have been output from a single CSD field.
_refine_ls_R_factor_gt 0.0517
_refine_ls_wR_factor_gt 0.0517
_symmetry_cell_setting orthorhombic
_symmetry_space_group_name_H-M 'P n a 21'
_symmetry_Int_Tables_number 33
loop_
_symmetry_equiv_pos_site_id
_symmetry_equiv_pos_as_xyz
1 x,y,z
2 -x,-y,1/2+z
3 1/2+x,1/2-y,z
4 1/2-x,1/2+y,1/2+z
_cell_length_a 18.340(3)
_cell_length_b 14.746(2)
_cell_length_c 8.374(1)
_cell_angle_alpha 90
_cell_angle_beta 90
_cell_angle_gamma 90
_cell_formula_units_Z 4
loop_
_atom_type_symbol
_atom_type_radius_bond
C 0.68
H 0.23
N 0.68
O 0.68
loop_
_atom_site_label
_atom_site_type_symbol
_atom_site_fract_x
_atom_site_fract_y
_atom_site_fract_z
O1 O 0.38202(19) 0.0836(2) 0.2684(5)
O2 O 0.4808(2) 0.1562(3) 0.0397(5)
C1 C 0.3655(3) 0.1604(4) 0.1667(8)
O3 O 0.3772(2) 0.3204(3) 0.1873(6)
O4 O 0.3847(3) -0.0791(3) -0.1503(7)
O5 O 0.4308(3) 0.2358(3) 0.3748(6)
N1 N 0.3186(3) 0.0309(3) 0.2906(6)
C2 C 0.4035(3) 0.1515(4) 0.0062(7)
H1 H 0.38960 0.20270 -0.06190
O6 O 0.4992(3) 0.2340(3) -0.1847(7)
C3 C 0.1702(3) -0.0385(4) 0.3346(9)
C4 C 0.1893(3) 0.0332(4) 0.2310(8)
C5 C 0.2823(3) 0.1596(4) 0.1494(8)
H2 H 0.26000 0.21000 0.20570
H3 H 0.26760 0.16120 0.03820
C6 C 0.2634(3) 0.0704(4) 0.2258(8)
C7 C 0.3915(3) 0.2483(4) 0.2463(8)
C8 C 0.0957(3) -0.0625(4) 0.3376(10)
H4 H 0.08050 -0.10860 0.40570
C9 C 0.5239(3) 0.1959(4) -0.0687(10)
C10 C 0.3333(4) 0.0499(4) -0.1996(8)
C11 C 0.2827(4) 0.1137(5) -0.2786(9)
C12 C 0.0647(3) 0.0496(6) 0.1421(11)
H5 H 0.03020 0.07830 0.07830
C13 C 0.3873(3) 0.0642(4) -0.0798(8)
N2 N 0.2178(3) -0.0852(3) 0.4299(8)
N3 N 0.3300(3) -0.0359(4) -0.2447(8)
C14 C 0.1369(3) 0.0755(4) 0.1381(9)
H6 H 0.15080 0.12280 0.07110
C15 C 0.4181(4) -0.0177(4) -0.0527(9)
C16 C 0.0450(4) -0.0199(5) 0.2431(11)
H7 H -0.00350 -0.03840 0.24730
C17 C 0.6026(3) 0.1841(4) -0.0352(10)
H8 H 0.61570 0.12160 -0.04970
H9 H 0.61260 0.20180 0.07290
H10 H 0.63050 0.22110 -0.10710
C18 C 0.4759(4) -0.0537(4) 0.0510(11)
H11 H 0.51700 -0.07120 -0.01300
H12 H 0.45790 -0.10570 0.10790
H13 H 0.49050 -0.00790 0.12590
C19 C 0.2575(5) 0.2530(5) -0.4132(11)
H14 H 0.27300 0.30930 -0.45010
C20 C 0.1643(4) 0.1446(7) -0.3815(12)
H15 H 0.11640 0.12660 -0.40010
C21 C 0.4572(4) 0.3176(5) 0.4497(10)
H16 H 0.48780 0.35000 0.37610
H17 H 0.48480 0.30220 0.54320
H18 H 0.41660 0.35510 0.47940
C22 C 0.2110(4) 0.0877(5) -0.2991(10)
H19 H 0.19430 0.03280 -0.25830
C23 C 0.3056(4) 0.1954(5) -0.3351(9)
H20 H 0.35390 0.21280 -0.32130
C24 C 0.1873(6) 0.2256(7) -0.4348(11)
H21 H 0.15480 0.26360 -0.48740
#END
