
#######################################################################
#
#                 Cambridge Crystallographic Data Centre
#                                CCDC
#
#######################################################################
#
# If this CIF has been generated from an entry in the Cambridge
# Structural Database, then it will include bibliographic, chemical,
# crystal, experimental, refinement or atomic coordinate data resulting
# from the CCDC's data processing and validation procedures.
#
#######################################################################

data_CSD_CIF_GACZIU
_audit_creation_date 2003-08-07
_audit_creation_method CSD-ConQuest-V1
_database_code_CSD GACZIU
_database_code_depnum_ccdc_archive 'CCDC 197235'
_chemical_formula_sum 'C15 H16 N2 O4'
_chemical_formula_moiety
;
C15 H16 N2 O4
;
_journal_coden_Cambridge 177
_journal_volume 1
_journal_year 2003
_journal_page_first 1122
_journal_name_full 'Org.Biomol.Chem. '
loop_
_publ_author_name
"F.Heaney"
"J.Fenlon"
"P.McArdle"
"D.Cunningham"
_chemical_name_systematic
;
Methyl 
7-methyl-4-oxo-3a-phenyl-4,5,6,7-tetrahydro-3aH-isoxazolo(2,3-a)pyrazine-2-car
boxylate
;
_chemical_melting_point 445.15
_cell_volume   2805.739
_exptl_crystal_colour 'colorless'
_exptl_crystal_density_diffrn 1.365
_exptl_special_details
;
Melting point range 445.15-447.15K

;
_exptl_crystal_description 'parallelepiped'
_exptl_crystal_preparation 'diethyl ether/petroleum spirit'
_diffrn_ambient_temperature 298
#These two values have been output from a single CSD field.
_refine_ls_R_factor_gt 0.0435
_refine_ls_wR_factor_gt 0.0435
_symmetry_cell_setting orthorhombic
_symmetry_space_group_name_H-M 'P b c a'
_symmetry_Int_Tables_number 61
loop_
_symmetry_equiv_pos_site_id
_symmetry_equiv_pos_as_xyz
1 x,y,z
2 1/2+x,y,1/2-z
3 x,1/2-y,1/2+z
4 1/2-x,1/2+y,z
5 -x,-y,-z
6 -1/2-x,-y,-1/2+z
7 -x,-1/2+y,-1/2-z
8 -1/2+x,-1/2-y,-z
_cell_length_a 8.4604(16)
_cell_length_b 19.740(2)
_cell_length_c 16.800(2)
_cell_angle_alpha 90
_cell_angle_beta 90
_cell_angle_gamma 90
_cell_formula_units_Z 8
loop_
_atom_type_symbol
_atom_type_radius_bond
C 0.68
H 0.23
N 0.68
O 0.68
loop_
_atom_site_label
_atom_site_type_symbol
_atom_site_fract_x
_atom_site_fract_y
_atom_site_fract_z
O1 O 0.27138(19) 0.26017(8) 0.45797(9)
O2 O 0.0751(2) 0.04493(8) 0.41407(10)
O3 O 0.2253(2) 0.36586(8) 0.36861(10)
O4 O 0.0427(3) 0.31443(9) 0.29371(12)
N1 N 0.0888(3) 0.08132(11) 0.54083(12)
C1 C 0.2284(3) 0.14463(11) 0.43603(13)
N2 N 0.2710(2) 0.19421(9) 0.49977(11)
C2 C 0.1802(3) 0.25145(12) 0.39105(14)
C3 C 0.1458(3) 0.18798(12) 0.37522(14)
H1 H 0.08190 0.17260 0.33390
C4 C 0.1217(3) 0.08590(12) 0.46422(15)
C5 C 0.1352(3) 0.13170(12) 0.59927(15)
H2 H 0.23620 0.11920 0.62220
H3 H 0.05760 0.13300 0.64180
C6 C 0.1479(3) 0.20071(12) 0.56159(14)
H4 H 0.04690 0.21310 0.53700
C7 C 0.3817(3) 0.11215(11) 0.40491(14)
C8 C 0.4949(3) 0.09106(12) 0.45830(15)
H5 H 0.47800 0.09740 0.51250
C9 C 0.6333(3) 0.06057(13) 0.43295(17)
H6 H 0.70890 0.04710 0.46990
C10 C 0.6589(3) 0.05029(13) 0.35317(17)
H7 H 0.75190 0.03000 0.33580
C11 C 0.5463(3) 0.07018(12) 0.29921(16)
H8 H 0.56240 0.06250 0.24520
C12 C 0.4083(3) 0.10166(12) 0.32461(15)
H9 H 0.33360 0.11570 0.28750
C13 C 0.1402(3) 0.31298(12) 0.34552(16)
C14 C 0.1952(5) 0.42850(13) 0.3268(2)
H10 H 0.23810 0.42570 0.27400
H11 H 0.24420 0.46530 0.35480
H12 H 0.08330 0.43610 0.32380
C15 C 0.1950(3) 0.25383(13) 0.62213(15)
H13 H 0.29110 0.24030 0.64800
H14 H 0.11270 0.25850 0.66110
H15 H 0.21100 0.29640 0.59570
H16 H 0.033(4) 0.0457(14) 0.5552(16)
#END
