
#######################################################################
#
#                 Cambridge Crystallographic Data Centre
#                                CCDC
#
#######################################################################
#
# If this CIF has been generated from an entry in the Cambridge
# Structural Database, then it will include bibliographic, chemical,
# crystal, experimental, refinement or atomic coordinate data resulting
# from the CCDC's data processing and validation procedures.
#
#######################################################################

data_CSD_CIF_GADBAP
_audit_creation_date 2003-08-07
_audit_creation_method CSD-ConQuest-V1
_database_code_CSD GADBAP
_database_code_depnum_ccdc_archive 'CCDC 199381'
_chemical_formula_sum 'C8 H7 N1 O4'
_chemical_formula_moiety
;
C8 H7 N1 O4
;
_journal_coden_Cambridge 177
_journal_volume 1
_journal_year 2003
_journal_page_first 1191
_journal_name_full 'Org.Biomol.Chem. '
loop_
_publ_author_name
"D.E.Hibbs"
"J.Overgaard"
"R.O.Piltz"
_chemical_name_systematic
;
1-(2-Hydroxy-5-nitrophenyl)ethanone
;
_cell_volume    802.267
_exptl_crystal_colour 'yellow'
_exptl_crystal_density_diffrn 1.512
_exptl_crystal_description 'block'
_exptl_crystal_preparation 'diethyl ether'
_diffrn_ambient_temperature 100
_diffrn_special_details
;
charge density study

;
_refine_special_details
;
multipole refinement

;
#These two values have been output from a single CSD field.
_refine_ls_R_factor_gt 0.022
_refine_ls_wR_factor_gt 0.022
_symmetry_cell_setting orthorhombic
_symmetry_space_group_name_H-M 'P c a 21'
_symmetry_Int_Tables_number 29
loop_
_symmetry_equiv_pos_site_id
_symmetry_equiv_pos_as_xyz
1 x,y,z
2 -x,-y,1/2+z
3 1/2-x,y,1/2+z
4 1/2+x,-y,z
_cell_length_a 15.2399
_cell_length_b 7.2338
_cell_length_c 7.2773
_cell_angle_alpha 90
_cell_angle_beta 90
_cell_angle_gamma 90
_cell_formula_units_Z 4
loop_
_atom_type_symbol
_atom_type_radius_bond
C 0.68
H 0.23
N 0.68
O 0.68
loop_
_atom_site_label
_atom_site_type_symbol
_atom_site_fract_x
_atom_site_fract_y
_atom_site_fract_z
O1 O 0.17077(2) 0.04509(6) 0.10043(2)
O2 O 0.29604(2) -0.16985(6) -0.00177(12)
O3 O 0.39981(2) 0.70224(5) 0.38111(12)
O4 O 0.50251(2) 0.52522(7) 0.27399(12)
N1 N 0.42441(3) 0.56004(6) 0.30321(12)
C1 C 0.23414(2) 0.16615(7) 0.14391(12)
C2 C 0.32471(3) 0.12722(6) 0.11623(11)
C3 C 0.38692(3) 0.26107(5) 0.16602(10)
C4 C 0.35888(3) 0.42631(7) 0.24364(10)
C5 C 0.26967(3) 0.46752(7) 0.26837(10)
C6 C 0.20772(3) 0.33739(6) 0.21714(10)
C7 C 0.35194(3) -0.05017(8) 0.03321(10)
C8 C 0.44669(4) -0.08523(6) -0.01126(10)
H1 H 0.20382(30) -0.06437(31) 0.05296(34)
H2 H 0.45772(35) 0.24930(35) 0.14323(32)
H3 H 0.25092(25) 0.59437(25) 0.33875(27)
H4 H 0.13836(12) 0.36351(12) 0.23413(15)
H5 H 0.45562(15) -0.21722(14) -0.07927(15)
H6 H 0.48098(14) -0.08854(15) 0.11874(16)
H7 H 0.47668(15) 0.01895(14) -0.09821(20)
#END
