
#######################################################################
#
#                 Cambridge Crystallographic Data Centre
#                                CCDC
#
#######################################################################
#
# If this CIF has been generated from an entry in the Cambridge
# Structural Database, then it will include bibliographic, chemical,
# crystal, experimental, refinement or atomic coordinate data resulting
# from the CCDC's data processing and validation procedures.
#
#######################################################################

data_CSD_CIF_GADCIX
_audit_creation_date 1988-09-21
_audit_creation_method CSD-ConQuest-V1
_database_code_CSD GADCIX
_database_code_depnum_ccdc_archive 'CCDC 1162521'
_chemical_formula_sum 'C5 H7 N5 O3'
_chemical_formula_moiety
;
C5 H7 N5 O3
;
_journal_coden_Cambridge 79
_journal_volume 39
_journal_year 1986
_journal_page_first 111
_journal_name_full 'J.Antibiot. '
loop_
_publ_author_name
"W.J.Wheeler"
"J.B.Deeter"
"D.R.Finley"
"M.D.Kinnick"
"R.Koehler"
"H.E.Osborne"
"J.T.Ott"
"J.K.Swartzendruber"
"D.G.Wishka"
_chemical_name_systematic
;
2-(5-Amino-1,2,4-oxadiazol-3-yl)-2-E-methoximinoacetamide
;
_chemical_melting_point 471.15
_cell_volume   1909.698
_exptl_crystal_colour 'colorless'
_exptl_crystal_density_diffrn 1.29
_exptl_special_details
;
Melting point range 471.15-473.15K

;
_diffrn_ambient_temperature ?
_diffrn_special_details
;
The study was carried out at room temperature,in the range 283-303K

;
#These two values have been output from a single CSD field.
_refine_ls_R_factor_gt 0.1163
_refine_ls_wR_factor_gt 0.1163
_symmetry_cell_setting monoclinic
_symmetry_space_group_name_H-M 'I 2/a'
_symmetry_Int_Tables_number 15
loop_
_symmetry_equiv_pos_site_id
_symmetry_equiv_pos_as_xyz
1 x,y,z
2 1/2+x,1/2+y,1/2+z
3 -x,1/2+y,1/2-z
4 1/2-x,y,-z
5 -x,-y,-z
6 -1/2-x,-1/2-y,-1/2-z
7 x,-1/2-y,-1/2+z
8 -1/2+x,-y,z
_cell_length_a 21.673(7)
_cell_length_b 10.502(4)
_cell_length_c 8.520(2)
_cell_angle_alpha 90
_cell_angle_beta 100.013(20)
_cell_angle_gamma 90
_cell_formula_units_Z 8
loop_
_atom_type_symbol
_atom_type_radius_bond
C 0.68
H 0.23
N 0.68
O 0.68
loop_
_atom_site_label
_atom_site_type_symbol
_atom_site_fract_x
_atom_site_fract_y
_atom_site_fract_z
C1 C 0.4096(3) 0.0587(3) 0.4291(7)
O1 O 0.3513(2) 0.1082(5) 0.4002(5)
N1 N 0.3351(2) 0.1328(6) 0.5525(6)
C2 C 0.3847(3) 0.0945(6) 0.6517(7)
N2 N 0.4324(2) 0.0495(5) 0.5807(5)
N3 N 0.4348(3) 0.0268(6) 0.3062(6)
C3 C 0.3865(3) 0.1018(6) 0.8249(7)
N4 N 0.4333(2) 0.1284(5) 0.9310(6)
O2 O 0.4858(2) 0.1543(5) 0.8693(5)
C4 C 0.5359(3) 0.1968(8) 0.9973(9)
C5 C 0.3288(3) 0.0760(6) 0.8977(7)
O3 O 0.3347(2) 0.0415(5) 1.0370(5)
N5 N 0.2728(2) 0.0915(7) 0.8049(7)
H1 H 0.4124(41) -0.0062(90) 0.2068(66)
H2 H 0.4789(11) 0.0218(77) 0.3147(94)
H3 H 0.57290 0.21470 0.95370
H4 H 0.54480 0.13140 1.07680
H5 H 0.52260 0.27260 1.04490
H6 H 0.2416(38) 0.1298(91) 0.856(12)
H7 H 0.2664(26) 0.1118(49) 0.6950(28)
#END
