
#######################################################################
#
#                 Cambridge Crystallographic Data Centre
#                                CCDC
#
#######################################################################
#
# If this CIF has been generated from an entry in the Cambridge
# Structural Database, then it will include bibliographic, chemical,
# crystal, experimental, refinement or atomic coordinate data resulting
# from the CCDC's data processing and validation procedures.
#
#######################################################################

data_CSD_CIF_GADFOJ
_audit_creation_date 2016-01-26
_audit_creation_method CSD-ConQuest-V1
_database_code_CSD GADFOJ
_database_code_depnum_ccdc_archive 'CCDC 1444673'
_chemical_formula_sum 'C17 H19 N1 O3'
_chemical_formula_moiety
;
C17 H19 N1 O3
;
_journal_coeditor_code "zs2359"
_journal_coden_Cambridge 1959
_journal_volume 1
_journal_year 2016
_journal_page_first x152490
_journal_name_full 'IUCrData '
loop_
_publ_author_name
"G.Laus"
"V.Kahlenberg"
"S.Nerdinger"
"F.Richter"
"H.Schottenberger"
_chemical_name_systematic
;
t-Butyl 3-(3-methyl-1-oxidopyridin-1-ium-2-yl)benzoate
;
_cell_volume   1524.249
_exptl_crystal_colour 'colorless'
_exptl_crystal_density_diffrn 1.243
_exptl_crystal_description 'prismatic'
_diffrn_ambient_temperature 173
#These two values have been output from a single CSD field.
_refine_ls_R_factor_gt 0.0531
_refine_ls_wR_factor_gt 0.0531
_symmetry_cell_setting monoclinic
_symmetry_space_group_name_H-M 'P 21/c'
_symmetry_Int_Tables_number 14
loop_
_symmetry_equiv_pos_site_id
_symmetry_equiv_pos_as_xyz
1 x,y,z
2 -x,1/2+y,1/2-z
3 -x,-y,-z
4 x,-1/2-y,-1/2+z
_cell_length_a 13.6690(7)
_cell_length_b 10.8170(6)
_cell_length_c 10.9271(7)
_cell_angle_alpha 90
_cell_angle_beta 109.365(7)
_cell_angle_gamma 90
_cell_formula_units_Z 4
loop_
_atom_type_symbol
_atom_type_radius_bond
C 0.68
H 0.23
N 0.68
O 0.68
loop_
_atom_site_label
_atom_site_type_symbol
_atom_site_fract_x
_atom_site_fract_y
_atom_site_fract_z
O1 O 0.10663(13) 0.27239(17) 0.77336(16)
O2 O 0.13706(12) 0.21671(17) 0.97944(16)
O3 O 0.43812(13) 0.23977(15) 0.67190(18)
N1 N 0.40653(13) 0.15378(17) 0.58465(19)
C1 C 0.23596(14) 0.12519(18) 0.86088(19)
C2 C 0.26102(14) 0.12596(18) 0.7478(2)
H1 H 0.22560 0.18010 0.67880
C3 C 0.36423(15) -0.0318(2) 0.9494(2)
H2 H 0.39950 -0.08590 1.01840
C4 C 0.33842(14) 0.04709(19) 0.7351(2)
C5 C 0.28839(15) 0.0467(2) 0.9625(2)
H3 H 0.27210 0.04710 1.04050
C6 C 0.36110(14) 0.04809(19) 0.6119(2)
C7 C 0.38909(15) -0.0320(2) 0.8361(2)
H4 H 0.44100 -0.08650 0.82770
C8 C 0.15541(15) 0.20928(19) 0.8791(2)
C9 C 0.33577(16) -0.0479(2) 0.5220(2)
C10 C 0.35176(17) -0.0325(3) 0.4037(2)
H5 H 0.33520 -0.09760 0.34190
C11 C 0.41890(16) 0.1679(2) 0.4671(2)
H6 H 0.44720 0.24280 0.44800
C12 C 0.02417(19) 0.3638(2) 0.7682(2)
C13 C 0.39149(17) 0.0768(3) 0.3761(2)
H7 H 0.39970 0.08870 0.29390
C14 C 0.2918(2) -0.1661(2) 0.5543(3)
H8 H 0.26930 -0.21920 0.47730
H9 H 0.23230 -0.14720 0.58220
H10 H 0.34510 -0.20890 0.62430
C15 C -0.0668(2) 0.2999(3) 0.7882(4)
H11 H -0.12390 0.35890 0.77440
H12 H -0.04670 0.26750 0.87680
H13 H -0.08940 0.23160 0.72630
C16 C 0.0654(2) 0.4624(3) 0.8682(4)
H14 H 0.12900 0.49710 0.85960
H15 H 0.08060 0.42670 0.95500
H16 H 0.01350 0.52800 0.85560
C17 C -0.0024(4) 0.4125(6) 0.6342(4)
H17 H 0.06090 0.44010 0.61910
H18 H -0.05020 0.48250 0.62290
H19 H -0.03560 0.34730 0.57210
#END
