
#######################################################################
#
#                 Cambridge Crystallographic Data Centre
#                                CCDC
#
#######################################################################
#
# If this CIF has been generated from an entry in the Cambridge
# Structural Database, then it will include bibliographic, chemical,
# crystal, experimental, refinement or atomic coordinate data resulting
# from the CCDC's data processing and validation procedures.
#
#######################################################################

data_CSD_CIF_GADGOJ
_audit_creation_date 2011-03-04
_audit_creation_method CSD-ConQuest-V1
_database_code_CSD GADGOJ
_database_code_depnum_ccdc_archive 'CCDC 760008'
_chemical_formula_sum 'C27 H27 N7 O9'
_chemical_formula_moiety
;
C27 H27 N7 O9
;
_journal_coden_Cambridge 155
_journal_volume 363
_journal_year 2010
_journal_page_first 2886
_journal_name_full 'Inorg.Chim.Acta '
loop_
_publ_author_name
"I.Ravikumar"
"P.S.Lakshminarayanan"
"P.Ghosh"
_chemical_name_systematic
;
N,N',N''-(Nitrilotriethane-2,1-diyl)tris(4-nitrobenzamide)
;
_cell_volume   1342.947
_exptl_crystal_colour 'colorless'
_exptl_crystal_density_diffrn 1.468
_exptl_crystal_description 'plates'
_diffrn_ambient_temperature 100
#These two values have been output from a single CSD field.
_refine_ls_R_factor_gt 0.0542
_refine_ls_wR_factor_gt 0.0542
_symmetry_cell_setting triclinic
_symmetry_space_group_name_H-M 'P -1'
_symmetry_Int_Tables_number 2
loop_
_symmetry_equiv_pos_site_id
_symmetry_equiv_pos_as_xyz
1 x,y,z
2 -x,-y,-z
_cell_length_a 8.7155(10)
_cell_length_b 11.7684(13)
_cell_length_c 14.0949(16)
_cell_angle_alpha 88.566(2)
_cell_angle_beta 85.999(2)
_cell_angle_gamma 68.624(2)
_cell_formula_units_Z 2
loop_
_atom_type_symbol
_atom_type_radius_bond
C 0.68
H 0.23
N 0.68
O 0.68
loop_
_atom_site_label
_atom_site_type_symbol
_atom_site_fract_x
_atom_site_fract_y
_atom_site_fract_z
O1 O 1.1331(2) 0.51182(17) 0.07136(12)
O2 O 0.6733(2) 0.41173(18) 0.26141(12)
N1 N 0.8762(3) 0.3719(2) 0.42668(16)
O3 O 0.8441(3) 0.39214(18) 0.58571(12)
N2 N 0.8029(3) 0.3935(2) 0.11393(16)
N3 N 1.1713(3) 0.5020(2) 0.22846(16)
N4 N 1.0743(3) 0.28543(19) 0.26088(14)
C1 C 0.9117(4) 0.2668(3) 0.1251(2)
C2 C 1.2920(4) 0.3780(3) 0.2261(2)
N5 N 0.1967(3) 0.9174(2) 0.09731(19)
C3 C 0.9660(3) 0.6830(2) 0.16398(18)
O4 O 0.4920(3) 1.0627(2) 0.11694(16)
C4 C 0.6872(3) 0.4538(3) 0.18068(19)
O5 O 0.1889(3) 0.9557(2) 0.01512(16)
C5 C 0.3265(3) 0.7992(3) 0.1169(2)
O6 O 0.1036(3) 0.97276(19) 0.16392(16)
O7 O 0.3999(3) 0.9949(2) 0.41471(17)
C6 C 0.8523(4) 0.7207(3) 0.0936(2)
C7 C 0.5644(3) 0.5768(3) 0.15490(18)
C8 C 0.8385(4) 0.8795(3) 0.2395(2)
O8 O 0.6350(3) 1.1170(2) 0.21370(17)
C9 C 0.5353(4) 0.6157(3) 0.0614(2)
C10 C 0.9558(4) 0.7630(3) 0.2376(2)
C11 C 0.4817(4) 0.8024(3) 0.4829(2)
C12 C 1.0312(4) 0.2004(3) 0.32490(18)
C13 C 0.5548(3) 0.6085(3) 0.55698(19)
C14 C 1.2332(3) 0.2903(3) 0.28426(18)
C15 C 0.9922(3) 0.2466(2) 0.42653(18)
H1 H 0.94450 0.19600 0.46410
H2 H 1.09270 0.24250 0.45440
C16 C 0.7251(4) 0.6420(3) 0.4250(2)
C17 C 1.0978(3) 0.5589(2) 0.15170(18)
N6 N 0.6098(3) 1.0401(2) 0.16626(19)
C18 C 1.0784(3) 0.2510(2) 0.16113(17)
H3 H 1.15040 0.16620 0.15330
H4 H 1.12680 0.29960 0.12170
C19 C 0.4162(4) 0.7266(3) 0.0417(2)
C20 C 0.8112(3) 0.4354(3) 0.50519(19)
C21 C 0.7301(3) 0.9145(3) 0.16800(19)
C22 C 0.3525(4) 0.7645(3) 0.2104(2)
C23 C 0.4481(4) 0.7281(3) 0.5519(2)
C24 C 0.4708(4) 0.6523(3) 0.2287(2)
C25 C 0.6192(4) 0.7617(3) 0.4198(2)
C26 C 0.7320(4) 0.8363(3) 0.0958(2)
C27 C 0.6946(3) 0.5639(3) 0.49381(18)
N7 N 0.3674(3) 0.9301(2) 0.4770(2)
O9 O 0.2468(3) 0.9663(2) 0.53329(19)
H5 H 1.321(3) 0.354(2) 0.1617(18)
H6 H 0.532(3) 0.556(2) 0.6068(18)
H7 H 0.851(3) 0.226(2) 0.1673(18)
H8 H 0.289(4) 0.820(3) 0.259(2)
H9 H 1.321(3) 0.209(3) 0.2821(18)
H10 H 0.934(3) 0.229(2) 0.0601(18)
H11 H 1.394(3) 0.379(2) 0.2512(17)
H12 H 0.596(3) 0.564(2) 0.0092(18)
H13 H 1.141(3) 0.539(2) 0.285(2)
H14 H 1.122(3) 0.120(2) 0.3264(17)
H15 H 0.838(3) 0.401(2) 0.3749(19)
H16 H 0.393(3) 0.756(2) -0.020(2)
H17 H 1.222(3) 0.313(2) 0.3543(17)
H18 H 0.830(3) 0.941(3) 0.2878(19)
H19 H 0.930(3) 0.189(2) 0.3054(17)
H20 H 0.652(4) 0.867(3) 0.046(2)
H21 H 0.351(3) 0.760(2) 0.5922(19)
H22 H 0.825(3) 0.609(2) 0.3838(19)
H23 H 0.859(4) 0.664(3) 0.045(2)
H24 H 1.030(3) 0.735(3) 0.285(2)
H25 H 0.490(3) 0.626(3) 0.290(2)
H26 H 0.814(4) 0.431(3) 0.059(2)
H27 H 0.635(4) 0.818(3) 0.374(2)
#END
