
#######################################################################
#
#                 Cambridge Crystallographic Data Centre
#                                CCDC
#
#######################################################################
#
# If this CIF has been generated from an entry in the Cambridge
# Structural Database, then it will include bibliographic, chemical,
# crystal, experimental, refinement or atomic coordinate data resulting
# from the CCDC's data processing and validation procedures.
#
#######################################################################

data_CSD_CIF_GADLEC
_audit_creation_date 1999-04-06
_audit_creation_method CSD-ConQuest-V1
_database_code_CSD GADLEC
_chemical_formula_sum 'C12 H11 N1 O3'
_chemical_formula_moiety
;
C12 H11 N1 O3
;
_journal_coden_Cambridge 1090
_journal_volume 9
_journal_year 1998
_journal_page_first 1035
_journal_name_full 'Tetrahedron:Asymm. '
loop_
_publ_author_name
"A.S.Demir"
"C.Tanyeli"
"A.Cagir"
"M.N.Tahir"
"D.Ulku"
_chemical_name_systematic
;
(Z)-trans-2-Furyl-(2-(2-furyl)cyclopropyl)methanone oxime
;
_chemical_melting_point 342.15
_cell_volume   1079.723
_exptl_crystal_colour 'colorless'
_exptl_crystal_density_diffrn 1.336
_exptl_special_details
;
Melting point range 342.15-344.15K

;
_exptl_crystal_preparation 'ethyl acetate/n-hexane'
_diffrn_ambient_temperature ?
_diffrn_special_details
;
The study was carried out at room temperature,in the range 283-303K

;
#These two values have been output from a single CSD field.
_refine_ls_R_factor_gt 0.05
_refine_ls_wR_factor_gt 0.05
_symmetry_cell_setting monoclinic
_symmetry_space_group_name_H-M 'P 21/n'
_symmetry_Int_Tables_number 14
loop_
_symmetry_equiv_pos_site_id
_symmetry_equiv_pos_as_xyz
1 x,y,z
2 1/2-x,1/2+y,1/2-z
3 -x,-y,-z
4 -1/2+x,-1/2-y,-1/2+z
_cell_length_a 12.9167(12)
_cell_length_b 6.3480(11)
_cell_length_c 13.6453(12)
_cell_angle_alpha 90
_cell_angle_beta 105.197(3)
_cell_angle_gamma 90
_cell_formula_units_Z 4
loop_
_atom_type_symbol
_atom_type_radius_bond
C 0.68
H 0.23
N 0.68
O 0.68
loop_
_atom_site_label
_atom_site_type_symbol
_atom_site_fract_x
_atom_site_fract_y
_atom_site_fract_z
O1 O 0.0778(2) 0.5780(4) -0.3921(1)
O2 O 0.2106(2) 0.6653(3) -0.0089(1)
O3 O 0.1053(2) 0.1100(3) 0.0749(1)
N1 N 0.0554(2) 0.1924(3) -0.0210(2)
C1 C 0.0994(2) 0.6159(4) -0.2907(2)
C2 C 0.1235(2) 0.8177(5) -0.2724(2)
C3 C 0.1193(2) 0.9134(5) -0.3674(2)
C4 C 0.0920(3) 0.7670(6) -0.4351(2)
C5 C 0.0900(2) 0.4332(4) -0.2269(2)
C6 C -0.0166(2) 0.3460(5) -0.2265(2)
C7 C 0.0439(2) 0.4706(4) -0.1387(2)
C8 C 0.0951(2) 0.3690(4) -0.0391(2)
C9 C 0.1825(2) 0.4803(4) 0.0296(2)
C10 C 0.2461(2) 0.4523(5) 0.1244(2)
C11 C 0.3168(2) 0.6251(5) 0.1460(2)
C12 C 0.2931(3) 0.7461(5) 0.0643(2)
H1 H 0.14100 0.88400 -0.20800
H2 H 0.13400 1.05700 -0.37900
H3 H 0.06900 0.00300 0.07300
H4 H 0.08200 0.78800 -0.50600
H5 H 0.14900 0.32500 -0.21300
H6 H 0.02300 0.61100 -0.13700
H7 H 0.24300 0.33700 0.16800
H8 H 0.37000 0.65000 0.20700
H9 H 0.32900 0.87400 0.05700
H10 H -0.07700 0.40800 -0.26800
H11 H -0.02000 0.19000 -0.21800
#END
