
#######################################################################
#
#                 Cambridge Crystallographic Data Centre
#                                CCDC
#
#######################################################################
#
# If this CIF has been generated from an entry in the Cambridge
# Structural Database, then it will include bibliographic, chemical,
# crystal, experimental, refinement or atomic coordinate data resulting
# from the CCDC's data processing and validation procedures.
#
#######################################################################

data_CSD_CIF_GADWUE
_audit_creation_date 2003-08-07
_audit_creation_method CSD-ConQuest-V1
_database_code_CSD GADWUE
_database_code_depnum_ccdc_archive 'CCDC 214616'
_chemical_formula_sum 'C11 H9 N1 O1'
_chemical_formula_moiety
;
C11 H9 N1 O1
;
_journal_coeditor_code "IUCr CV6182"
_journal_coden_Cambridge 1370
_journal_volume 59
_journal_year 2003
_journal_page_first o657
_journal_name_full 'Acta Crystallogr.,Sect.E:Struct.Rep.Online '
loop_
_publ_author_name
"M.Kedziorek"
"K.Hafner"
"H.J.Lindner"
_chemical_name_systematic
;
(Z)-Azulene-1-carboxaldehyde oxime
;
_chemical_melting_point 391
_cell_volume    896.312
_exptl_crystal_colour 'dark green'
_exptl_crystal_density_diffrn 1.269
_exptl_special_details
;
Melting point range 391-392K

;
_exptl_crystal_description 'needle'
_exptl_crystal_preparation 'hexane/ethyl acetate'
_diffrn_ambient_temperature 293
#These two values have been output from a single CSD field.
_refine_ls_R_factor_gt 0.0582
_refine_ls_wR_factor_gt 0.0582
_symmetry_cell_setting orthorhombic
_symmetry_space_group_name_H-M 'P 21 21 21'
_symmetry_Int_Tables_number 19
loop_
_symmetry_equiv_pos_site_id
_symmetry_equiv_pos_as_xyz
1 x,y,z
2 1/2-x,-y,1/2+z
3 1/2+x,1/2-y,-z
4 -x,1/2+y,1/2-z
_cell_length_a 4.631(5)
_cell_length_b 11.068(5)
_cell_length_c 17.487(8)
_cell_angle_alpha 90
_cell_angle_beta 90
_cell_angle_gamma 90
_cell_formula_units_Z 4
loop_
_atom_type_symbol
_atom_type_radius_bond
C 0.68
H 0.23
N 0.68
O 0.68
loop_
_atom_site_label
_atom_site_type_symbol
_atom_site_fract_x
_atom_site_fract_y
_atom_site_fract_z
C1 C -0.2130(11) -0.1303(5) -0.1966(3)
C2 C -0.0167(14) -0.0345(5) -0.1942(3)
H1 H 0.09030 -0.01070 -0.15180
C3 C -0.0091(15) 0.0186(5) -0.2655(3)
H2 H 0.10770 0.08370 -0.27870
C4 C -0.2364(14) -0.0106(5) -0.3910(3)
H3 H -0.12820 0.05410 -0.40910
C5 C -0.4097(17) -0.0651(7) -0.4432(3)
H4 H -0.40940 -0.03040 -0.49160
C6 C -0.5845(16) -0.1637(8) -0.4348(3)
H5 H -0.68420 -0.18720 -0.47850
C7 C -0.6334(13) -0.2323(6) -0.3717(4)
H6 H -0.76150 -0.29610 -0.37850
C8 C -0.5193(12) -0.2209(5) -0.2981(3)
H7 H -0.58250 -0.27760 -0.26260
C9 C -0.3277(11) -0.1375(5) -0.2715(3)
C10 C -0.1989(12) -0.0382(5) -0.3145(3)
C11 C -0.3038(11) -0.2088(5) -0.1353(3)
H8 H -0.47290 -0.25130 -0.14520
N1 N -0.193(1) -0.2305(4) -0.0697(2)
O1 O 0.0622(9) -0.1690(4) -0.0590(2)
H9 H 0.14020 -0.19290 -0.01970
#END
