
#######################################################################
#
#                 Cambridge Crystallographic Data Centre
#                                CCDC
#
#######################################################################
#
# If this CIF has been generated from an entry in the Cambridge
# Structural Database, then it will include bibliographic, chemical,
# crystal, experimental, refinement or atomic coordinate data resulting
# from the CCDC's data processing and validation procedures.
#
#######################################################################

data_CSD_CIF_GADYOC
_audit_creation_date 2016-01-26
_audit_creation_method CSD-ConQuest-V1
_database_code_CSD GADYOC
_database_code_depnum_ccdc_archive 'CCDC 1434499'
_chemical_formula_sum 'C25 H31 N3 O4'
_chemical_formula_moiety
;
C25 H31 N3 O4
;
_journal_coden_Cambridge 182
_journal_volume 52
_journal_year 2016
_journal_page_first 3219
_journal_name_full 'Chem.Commun. '
loop_
_publ_author_name
"D.Diedrich"
"A.Hamacher"
"C.G.W.Gertzen"
"L.A.Alves Avelar"
"G.J.Reiss"
"T.Kurz"
"H.Gohlke"
"M.U.Kassack"
"F.K.Hansen"
_chemical_name_systematic
;
N-(2-(cyclohexylamino)-2-oxoethyl)-N-(4-(hydroxycarbamoyl)benzyl)-3,5-dimethyl
benzamide
;
_cell_volume   4815.019
_exptl_crystal_colour 'colorless'
_exptl_crystal_density_diffrn 1.207
_exptl_crystal_description 'plate'
_diffrn_ambient_temperature 200
#These two values have been output from a single CSD field.
_refine_ls_R_factor_gt 0.1145
_refine_ls_wR_factor_gt 0.1145
_symmetry_cell_setting orthorhombic
_symmetry_space_group_name_H-M 'P b c a'
_symmetry_Int_Tables_number 61
loop_
_symmetry_equiv_pos_site_id
_symmetry_equiv_pos_as_xyz
1 x,y,z
2 1/2-x,-y,1/2+z
3 -x,1/2+y,1/2-z
4 1/2+x,1/2-y,-z
5 -x,-y,-z
6 -1/2+x,y,-1/2-z
7 x,-1/2-y,-1/2+z
8 -1/2-x,-1/2+y,z
_cell_length_a 9.3020(4)
_cell_length_b 15.8206(5)
_cell_length_c 32.7189(11)
_cell_angle_alpha 90
_cell_angle_beta 90
_cell_angle_gamma 90
_cell_formula_units_Z 8
loop_
_atom_type_symbol
_atom_type_radius_bond
C 0.68
H 0.23
N 0.68
O 0.68
loop_
_atom_site_label
_atom_site_type_symbol
_atom_site_fract_x
_atom_site_fract_y
_atom_site_fract_z
O1 O 0.4443(2) 0.57471(16) 0.37784(8)
N1 N 0.2429(3) 0.50722(19) 0.39983(10)
H1 H 0.20840 0.45930 0.40750
C1 C 0.3800(3) 0.5096(2) 0.38774(11)
O2 O 0.8370(3) 0.40021(17) 0.37776(8)
N2 N 0.6068(3) 0.42900(19) 0.39337(9)
C2 C 0.4519(3) 0.4224(2) 0.38651(11)
H2 H 0.40980 0.38650 0.40730
H3 H 0.43440 0.39640 0.36010
O3 O 0.6639(3) 0.14759(17) 0.56307(9)
N3 N 0.5627(3) 0.2471(2) 0.60326(10)
C3 C 0.6478(4) 0.4585(2) 0.43400(11)
H4 H 0.58890 0.50700 0.44080
H5 H 0.74690 0.47750 0.43290
H6 H 0.556(4) 0.304(3) 0.6104(12)
O4 O 0.5685(3) 0.19487(19) 0.63775(9)
H7 H 0.483(5) 0.160(3) 0.6388(8)
C4 C 0.6345(3) 0.3948(2) 0.46806(11)
C5 C 0.5149(4) 0.3928(2) 0.49380(11)
H8 H 0.43800 0.42880 0.48850
C6 C 0.5078(4) 0.3390(2) 0.52687(12)
H9 H 0.42830 0.34010 0.54410
C7 C 0.6201(3) 0.2830(2) 0.53439(11)
C8 C 0.7380(4) 0.2820(3) 0.50816(12)
H10 H 0.81150 0.24310 0.51230
C9 C 0.7466(4) 0.3383(2) 0.47615(12)
H11 H 0.82810 0.33880 0.45970
C10 C 0.6178(4) 0.2199(2) 0.56830(12)
C11 C 0.1476(4) 0.5808(2) 0.40091(12)
H12 H 0.20480 0.63070 0.40810
C12 C 0.0340(4) 0.5677(3) 0.43383(13)
H13 H 0.08060 0.56200 0.46020
H14 H -0.01820 0.51590 0.42840
C13 C -0.0713(4) 0.6417(3) 0.43516(16)
H15 H -0.14680 0.62940 0.45470
H16 H -0.02120 0.69190 0.44450
C14 C -0.1385(4) 0.6593(3) 0.39373(16)
H17 H -0.19750 0.70970 0.39540
H18 H -0.20020 0.61240 0.38620
C15 C -0.0234(5) 0.6716(3) 0.36089(18)
H19 H -0.06910 0.67830 0.33440
H20 H 0.03090 0.72260 0.36660
C16 C 0.0786(4) 0.5959(3) 0.35967(14)
H21 H 0.02570 0.54580 0.35150
H22 H 0.15300 0.60590 0.33950
C17 C 0.7095(4) 0.4070(2) 0.36591(12)
C18 C 0.6717(4) 0.3957(2) 0.32236(12)
C19 C 0.5856(4) 0.4547(3) 0.30215(12)
H23 H 0.54630 0.49950 0.31680
C20 C 0.5578(4) 0.4480(3) 0.26087(14)
C21 C 0.6174(5) 0.3814(4) 0.23970(15)
H24 H 0.59800 0.37620 0.21190
C22 C 0.7058(4) 0.3214(3) 0.25838(15)
C23 C 0.7323(4) 0.3296(3) 0.30006(14)
H25 H 0.79100 0.29060 0.31320
C24 C 0.7730(6) 0.2495(4) 0.23419(19)
H26 H 0.70880 0.23260 0.21270
H27 H 0.79050 0.20250 0.25200
H28 H 0.86230 0.26820 0.22250
C25 C 0.4637(5) 0.5130(4) 0.23979(16)
H29 H 0.42390 0.48900 0.21530
H30 H 0.52040 0.56160 0.23290
H31 H 0.38710 0.52940 0.25780
#END
