
#######################################################################
#
#                 Cambridge Crystallographic Data Centre
#                                CCDC
#
#######################################################################
#
# If this CIF has been generated from an entry in the Cambridge
# Structural Database, then it will include bibliographic, chemical,
# crystal, experimental, refinement or atomic coordinate data resulting
# from the CCDC's data processing and validation procedures.
#
#######################################################################

data_CSD_CIF_GADYAM
_audit_creation_date 2003-08-07
_audit_creation_method CSD-ConQuest-V1
_database_code_CSD GADYAM
_database_code_depnum_ccdc_archive 'CCDC 214622'
_chemical_formula_sum 'C19 H18 N2 O4'
_chemical_formula_moiety
;
C19 H18 N2 O4
;
_journal_coeditor_code "IUCr CI6217"
_journal_coden_Cambridge 1370
_journal_volume 59
_journal_year 2003
_journal_page_first o672
_journal_name_full 'Acta Crystallogr.,Sect.E:Struct.Rep.Online '
loop_
_publ_author_name
"R.Sankaranarayanan"
"M.Yogavel"
"D.Velmurugan"
"P.C.Srinivasan"
"S.S.S.Raj"
"H.-K.Fun"
_chemical_name_systematic
;
2-(2-(5-Ethoxy-4-methoxy-2-nitrophenyl)vinyl)-1H-indole
;
_cell_volume    860.137
_exptl_crystal_colour 'red'
_exptl_crystal_density_diffrn 1.306
_exptl_crystal_description 'plate'
_exptl_crystal_preparation 'ethanol'
_diffrn_ambient_temperature 293
#These two values have been output from a single CSD field.
_refine_ls_R_factor_gt 0.0614
_refine_ls_wR_factor_gt 0.0614
_symmetry_cell_setting triclinic
_symmetry_space_group_name_H-M 'P -1'
_symmetry_Int_Tables_number 2
loop_
_symmetry_equiv_pos_site_id
_symmetry_equiv_pos_as_xyz
1 x,y,z
2 -x,-y,-z
_cell_length_a 7.5949(4)
_cell_length_b 10.0887(6)
_cell_length_c 11.5777(7)
_cell_angle_alpha 85.298(1)
_cell_angle_beta 76.924(1)
_cell_angle_gamma 86.166(1)
_cell_formula_units_Z 2
loop_
_atom_type_symbol
_atom_type_radius_bond
C 0.68
H 0.23
N 0.68
O 0.68
loop_
_atom_site_label
_atom_site_type_symbol
_atom_site_fract_x
_atom_site_fract_y
_atom_site_fract_z
O1 O 0.38514(19) 0.31020(13) -0.06658(11)
O2 O 0.4804(2) 0.13263(13) 0.08272(12)
O3 O 0.2156(3) 0.51133(18) 0.45182(14)
O4 O 0.2176(3) 0.30062(18) 0.47735(13)
N1 N -0.0386(3) 0.87630(16) 0.32494(15)
H1 H -0.05900 0.81440 0.38120
C1 C 0.0604(3) 0.85939(19) 0.21157(17)
C2 C 0.0622(3) 0.9808(2) 0.1486(2)
H2 H 0.12030 0.99780 0.06940
C3 C -0.0393(3) 1.07595(19) 0.2241(2)
C4 C -0.1001(3) 1.00694(19) 0.3348(2)
C5 C -0.2040(4) 1.0692(3) 0.4316(3)
H3 H -0.24400 1.02200 0.50420
C6 C -0.2458(5) 1.2027(3) 0.4164(3)
H4 H -0.31530 1.24660 0.48010
C7 C -0.1879(4) 1.2733(3) 0.3098(4)
H5 H -0.21800 1.36400 0.30290
C8 C -0.0867(3) 1.2130(2) 0.2135(3)
H6 H -0.04940 1.26210 0.14150
C9 C 0.1458(3) 0.73275(19) 0.17516(17)
H7 H 0.21800 0.73060 0.09880
C10 C 0.1292(3) 0.61877(18) 0.24236(17)
H8 H 0.05390 0.62020 0.31780
C11 C 0.2206(2) 0.49116(17) 0.20652(15)
C12 C 0.2612(2) 0.46289(18) 0.08610(15)
H9 H 0.22960 0.52670 0.03070
C13 C 0.3461(2) 0.34426(18) 0.04690(15)
C14 C 0.3962(2) 0.24551(18) 0.12914(15)
C15 C 0.3539(3) 0.26872(18) 0.24771(15)
H10 H 0.38280 0.20410 0.30340
C16 C 0.2679(3) 0.38900(18) 0.28445(15)
C17 C 0.3282(3) 0.4009(2) -0.15483(16)
H11 H 0.38410 0.48540 -0.15960
H12 H 0.19780 0.41670 -0.13510
C18 C 0.3865(3) 0.3368(2) -0.27094(18)
H13 H 0.51550 0.32090 -0.28890
H14 H 0.35210 0.39480 -0.33290
H15 H 0.32920 0.25380 -0.26520
C19 C 0.5163(3) 0.0253(2) 0.1640(2)
H16 H 0.59720 0.05300 0.20920
H17 H 0.57090 -0.04950 0.12050
H18 H 0.40500 0.00050 0.21680
N2 N 0.2303(3) 0.40219(18) 0.41256(14)
#END
