
#######################################################################
#
#                 Cambridge Crystallographic Data Centre
#                                CCDC
#
#######################################################################
#
# If this CIF has been generated from an entry in the Cambridge
# Structural Database, then it will include bibliographic, chemical,
# crystal, experimental, refinement or atomic coordinate data resulting
# from the CCDC's data processing and validation procedures.
#
#######################################################################

data_CSD_CIF_GADZAN
_audit_creation_date 2003-08-07
_audit_creation_method CSD-ConQuest-V1
_database_code_CSD GADZAN
_database_code_depnum_ccdc_archive 'CCDC 214626'
_chemical_formula_sum 'C9 H8 N2 O7'
_chemical_formula_moiety
;
C9 H8 N2 O7
;
_journal_coeditor_code "IUCr BT6267"
_journal_coden_Cambridge 1370
_journal_volume 59
_journal_year 2003
_journal_page_first o683
_journal_name_full 'Acta Crystallogr.,Sect.E:Struct.Rep.Online '
loop_
_publ_author_name
"M.Simon"
"C.Csunderlik"
"P.G.Jones"
"I.Neda"
"A.Tarta-Micle"
_chemical_name_systematic
;
N,N'-Disuccinimidyl carbonate
;
_cell_volume   2006.359
_exptl_crystal_colour 'colorless'
_exptl_crystal_density_diffrn 1.696
_exptl_crystal_description 'flattened octahedron'
_exptl_crystal_preparation 'acetonitrile'
_diffrn_ambient_temperature 133
#These two values have been output from a single CSD field.
_refine_ls_R_factor_gt 0.0274
_refine_ls_wR_factor_gt 0.0274
_symmetry_cell_setting orthorhombic
_symmetry_space_group_name_H-M 'F d d 2'
_symmetry_Int_Tables_number 43
loop_
_symmetry_equiv_pos_site_id
_symmetry_equiv_pos_as_xyz
1 x,y,z
2 -x,-y,z
3 1/4+x,1/4-y,1/4+z
4 1/4-x,1/4+y,1/4+z
5 x,1/2+y,1/2+z
6 -x,1/2-y,1/2+z
7 1/4+x,-1/4-y,-1/4+z
8 1/4-x,-1/4+y,-1/4+z
9 1/2+x,y,1/2+z
10 1/2-x,-y,1/2+z
11 -1/4+x,1/4-y,-1/4+z
12 -1/4-x,1/4+y,-1/4+z
13 1/2+x,1/2+y,z
14 1/2-x,1/2-y,z
15 -1/4+x,-1/4-y,1/4+z
16 -1/4-x,-1/4+y,1/4+z
_cell_length_a 13.239(2)
_cell_length_b 14.629(2)
_cell_length_c 10.3595(12)
_cell_angle_alpha 90
_cell_angle_beta 90
_cell_angle_gamma 90
_cell_formula_units_Z 8
loop_
_atom_type_symbol
_atom_type_radius_bond
C 0.68
H 0.23
N 0.68
O 0.68
loop_
_atom_site_label
_atom_site_type_symbol
_atom_site_fract_x
_atom_site_fract_y
_atom_site_fract_z
C1 C 0.17245(10) 0.61778(10) 0.32759(16)
C2 C 0.27273(12) 0.61235(11) 0.25907(15)
H1 H 0.31970 0.65930 0.29280
H2 H 0.26390 0.62210 0.16520
C3 C 0.31397(12) 0.51550(11) 0.28590(15)
H3 H 0.31800 0.47980 0.20490
H4 H 0.38220 0.51880 0.32460
C4 C 0.24056(11) 0.47177(10) 0.37868(15)
C5 C 0.00000 0.50000 0.3899(2)
N1 N 0.16454(9) 0.53712(8) 0.39746(12)
O1 O 0.10865(8) 0.67660(8) 0.32646(14)
O2 O 0.24114(9) 0.39780(8) 0.42883(12)
O3 O 0.07945(8) 0.51733(8) 0.47052(11)
O4 O 0.00000 0.50000 0.27643(15)
O3A O -0.07945(8) 0.48267(8) 0.47052(11)
N1A N -0.16454(9) 0.46288(8) 0.39746(12)
C1A C -0.17245(10) 0.38222(10) 0.32759(16)
C2A C -0.27273(12) 0.38765(11) 0.25907(15)
H1A H -0.31970 0.34070 0.29280
H2A H -0.26390 0.37790 0.16520
C3A C -0.31397(12) 0.48450(11) 0.28590(15)
H3A H -0.31800 0.52020 0.20490
H4A H -0.38220 0.48120 0.32460
C4A C -0.24056(11) 0.52823(10) 0.37868(15)
O2A O -0.24114(9) 0.60220(8) 0.42883(12)
O1A O -0.10865(8) 0.32340(8) 0.32646(14)
#END
