
#######################################################################
#
#                 Cambridge Crystallographic Data Centre
#                                CCDC
#
#######################################################################
#
# If this CIF has been generated from an entry in the Cambridge
# Structural Database, then it will include bibliographic, chemical,
# crystal, experimental, refinement or atomic coordinate data resulting
# from the CCDC's data processing and validation procedures.
#
#######################################################################

data_CSD_CIF_GAFNUW
_audit_creation_date 1988-10-09
_audit_creation_method CSD-ConQuest-V1
_database_code_CSD GAFNUW
_database_code_depnum_ccdc_archive 'CCDC 1162688'
_chemical_formula_sum 'C12 H12 N2 O5'
_chemical_formula_moiety
;
C12 H12 N2 O5
;
_journal_coden_Cambridge 34
_journal_volume 23
_journal_year 1986
_journal_page_first 177
_journal_name_full 'J.Heterocycl.Chem. '
loop_
_publ_author_name
"H.Tanida"
"T.Irie"
"Y.Wakisaka"
_chemical_name_systematic
;
3-Nitro-5,6,7,8-tetrahydro-5,8-methanoisoquinolin-6-(exo)-ol acetate N-oxide
;
_chemical_melting_point 407.15
_cell_volume   1160.135
_exptl_crystal_colour 'yellow'
_exptl_crystal_density_diffrn 1.513
_exptl_special_details
;
Melting point range 407.15-408.15K
mutagenic activity

;
_diffrn_ambient_temperature ?
_diffrn_special_details
;
The study was carried out at room temperature,in the range 283-303K

;
#These two values have been output from a single CSD field.
_refine_ls_R_factor_gt 0.041
_refine_ls_wR_factor_gt 0.041
_symmetry_cell_setting monoclinic
_symmetry_space_group_name_H-M 'P 21/c'
_symmetry_Int_Tables_number 14
loop_
_symmetry_equiv_pos_site_id
_symmetry_equiv_pos_as_xyz
1 x,y,z
2 -x,1/2+y,1/2-z
3 -x,-y,-z
4 x,-1/2-y,-1/2+z
_cell_length_a 5.603(1)
_cell_length_b 18.368(3)
_cell_length_c 12.351(2)
_cell_angle_alpha 90
_cell_angle_beta 114.12(1)
_cell_angle_gamma 90
_cell_formula_units_Z 4
loop_
_atom_type_symbol
_atom_type_radius_bond
C 0.68
H 0.23
N 0.68
O 0.68
loop_
_atom_site_label
_atom_site_type_symbol
_atom_site_fract_x
_atom_site_fract_y
_atom_site_fract_z
C1 C 1.0147(3) 0.0977(1) 0.2046(1)
C2 C 0.8026(3) 0.1458(1) 0.1146(1)
C3 C 0.5452(3) 0.1058(1) 0.0955(1)
C4 C 0.6414(3) 0.0365(1) 0.1746(1)
C5 C 0.7528(3) 0.0624(1) 0.3019(1)
C6 C 0.6715(3) 0.0534(1) 0.3923(1)
N1 N 0.8135(2) 0.0852(1) 0.5003(1)
C7 C 1.0310(3) 0.1240(1) 0.5146(1)
C8 C 1.1205(3) 0.1344(1) 0.4265(1)
C9 C 0.9795(3) 0.1019(1) 0.3195(1)
C10 C 0.9007(3) 0.0208(1) 0.1623(1)
O1 O 0.8511(2) 0.1443(1) 0.0078(1)
C11 C 0.7488(3) 0.1994(1) -0.0695(1)
O2 O 0.6111(2) 0.2458(1) -0.0572(1)
C12 C 0.8360(4) 0.1941(1) -0.1689(1)
N2 N 1.1741(2) 0.1564(1) 0.6313(1)
O3 O 1.2048(3) 0.2223(1) 0.6337(1)
O4 O 1.2627(3) 0.1171(1) 0.7168(1)
O5 O 0.7349(2) 0.0792(1) 0.5855(1)
H1 H 1.187(4) 0.110(1) 0.210(2)
H2 H 0.807(4) 0.200(1) 0.141(2)
H3 H 0.442(4) 0.093(1) 0.009(2)
H4 H 0.429(4) 0.137(1) 0.118(2)
H5 H 0.507(4) -0.001(1) 0.153(2)
H6 H 0.520(4) 0.020(1) 0.390(2)
H7 H 1.274(4) 0.162(1) 0.445(2)
H8 H 1.003(5) -0.016(1) 0.216(2)
H9 H 0.873(4) 0.009(1) 0.077(2)
H10 H 1.012(5) 0.202(1) -0.137(2)
H11 H 0.805(5) 0.146(1) -0.199(2)
H12 H 0.729(5) 0.225(1) -0.232(2)
#END
