
#######################################################################
#
#                 Cambridge Crystallographic Data Centre
#                                CCDC
#
#######################################################################
#
# If this CIF has been generated from an entry in the Cambridge
# Structural Database, then it will include bibliographic, chemical,
# crystal, experimental, refinement or atomic coordinate data resulting
# from the CCDC's data processing and validation procedures.
#
#######################################################################

data_CSD_CIF_GAFVAN
_audit_creation_date 2016-01-26
_audit_creation_method CSD-ConQuest-V1
_database_code_CSD GAFVAN
_database_code_depnum_ccdc_archive 'CCDC 1417448'
_chemical_formula_sum 'C20 H20 N2 O4'
_chemical_formula_moiety
;
C20 H20 N2 O4
;
_journal_coden_Cambridge 1220
_journal_volume 21
_journal_year 2015
_journal_page_first 19048
_journal_name_full 'Chem.-Eur.J. '
loop_
_publ_author_name
"Chun-Yan Li"
"Wu-Lin Yang"
"Xiaoyan Luo"
"Wei-Ping Deng"
_chemical_name_systematic
;
methyl 2-(2-nitro-1-phenylethyl)-5-phenyl-3,4-dihydro-2H-pyrrole-2-carboxylate
;
_cell_volume   1810.929
_exptl_crystal_colour 'colorless'
_exptl_crystal_density_diffrn 1.292
_exptl_special_details
;
Absolute configuration

;
_exptl_crystal_description 'block'
_diffrn_ambient_temperature 296.1
#These two values have been output from a single CSD field.
_refine_ls_R_factor_gt 0.0411
_refine_ls_wR_factor_gt 0.0411
_symmetry_cell_setting orthorhombic
_symmetry_space_group_name_H-M 'P 21 21 21'
_symmetry_Int_Tables_number 19
loop_
_symmetry_equiv_pos_site_id
_symmetry_equiv_pos_as_xyz
1 x,y,z
2 1/2+x,1/2-y,-z
3 -x,1/2+y,1/2-z
4 1/2-x,-y,1/2+z
_cell_length_a 5.9149(2)
_cell_length_b 16.7993(7)
_cell_length_c 18.2248(6)
_cell_angle_alpha 90
_cell_angle_beta 90
_cell_angle_gamma 90
_cell_formula_units_Z 4
loop_
_atom_type_symbol
_atom_type_radius_bond
C 0.68
H 0.23
N 0.68
O 0.68
loop_
_atom_site_label
_atom_site_type_symbol
_atom_site_fract_x
_atom_site_fract_y
_atom_site_fract_z
O1 O 1.1435(4) 0.92799(16) 0.73882(13)
O2 O 0.8068(4) 0.98668(13) 0.73854(11)
O3 O 1.3006(4) 0.70926(17) 0.91211(13)
O4 O 1.0177(6) 0.65437(16) 0.96388(16)
N1 N 0.9517(4) 0.94792(13) 0.89584(11)
N2 N 1.1046(5) 0.70896(16) 0.93173(12)
C1 C 1.0007(4) 0.81462(15) 0.84150(12)
H1 H 1.16270 0.82590 0.83750
C2 C 0.8762(4) 0.89523(15) 0.83491(13)
C3 C 0.6163(4) 0.89306(17) 0.84127(15)
H2 H 0.54610 0.89430 0.79320
H3 H 0.56660 0.84570 0.86700
C4 C 0.5599(5) 0.96776(18) 0.88470(15)
H4 H 0.51270 1.01080 0.85270
H5 H 0.44250 0.95770 0.92070
C5 C 0.7821(4) 0.98572(15) 0.92079(13)
C6 C 0.8071(5) 1.04501(17) 0.98027(14)
C7 C 0.6403(6) 1.1011(2) 0.99339(16)
H6 H 0.50890 1.10050 0.96540
C8 C 0.6665(8) 1.1581(2) 1.0478(2)
H7 H 0.55420 1.19590 1.05560
C9 C 0.8591(8) 1.1585(3) 1.0901(2)
H8 H 0.87710 1.19680 1.12650
C10 C 1.0243(7) 1.1028(3) 1.0787(2)
H9 H 1.15330 1.10280 1.10790
C11 C 0.9997(6) 1.0466(2) 1.02386(17)
H10 H 1.11350 1.00930 1.01610
C12 C 0.9605(5) 0.93711(16) 0.76484(13)
C13 C 0.8704(8) 1.0320(2) 0.67406(18)
H11 H 0.99680 1.06550 0.68560
H12 H 0.74510 1.06420 0.65860
H13 H 0.91140 0.99610 0.63530
C14 C 0.9614(5) 0.78099(17) 0.91799(13)
H14 H 0.99640 0.82140 0.95420
H15 H 0.80320 0.76690 0.92340
C15 C 0.9439(4) 0.75498(15) 0.78168(12)
C16 C 0.7443(5) 0.71187(18) 0.78065(16)
H16 H 0.63720 0.72040 0.81710
C17 C 0.7010(6) 0.6561(2) 0.7262(2)
H17 H 0.56490 0.62840 0.72610
C18 C 0.8585(6) 0.6418(2) 0.67255(19)
H18 H 0.83100 0.60360 0.63670
C19 C 1.0575(6) 0.6842(2) 0.67216(16)
H19 H 1.16390 0.67520 0.63550
C20 C 1.1004(5) 0.74079(18) 0.72652(15)
H20 H 1.23530 0.76920 0.72580
#END
