
#######################################################################
#
#                 Cambridge Crystallographic Data Centre
#                                CCDC
#
#######################################################################
#
# If this CIF has been generated from an entry in the Cambridge
# Structural Database, then it will include bibliographic, chemical,
# crystal, experimental, refinement or atomic coordinate data resulting
# from the CCDC's data processing and validation procedures.
#
#######################################################################

data_CSD_CIF_GAGHOM
_audit_creation_date 2005-02-28
_audit_creation_method CSD-ConQuest-V1
_database_code_CSD GAGHOM
_database_code_depnum_ccdc_archive 'CCDC 199891'
_chemical_formula_sum 'C24 H23 N3 O7'
_chemical_formula_moiety
;
C24 H23 N3 O7
;
_journal_coden_Cambridge 4
_journal_volume 126
_journal_year 2004
_journal_page_first 14360
_journal_name_full 'J.Am.Chem.Soc. '
loop_
_publ_author_name
"M.Kimura"
"A.Miyachi"
"K.Kojima"
"S.Tanaka"
"Y.Tamaru"
_chemical_name_systematic
;
N-(4-Methoxyphenyl)-N-(3-methyl-1-(fur-2-yl)pent-4-en-1-yl)-3,5-dinitrobenzami
de
;
_cell_volume   1190.023
_exptl_crystal_density_diffrn 1.299
_exptl_crystal_description 'block'
_diffrn_ambient_temperature 295.2
#These two values have been output from a single CSD field.
_refine_ls_R_factor_gt 0.0546
_refine_ls_wR_factor_gt 0.0546
_symmetry_cell_setting triclinic
_symmetry_space_group_name_H-M 'P -1'
_symmetry_Int_Tables_number 2
loop_
_symmetry_equiv_pos_site_id
_symmetry_equiv_pos_as_xyz
1 x,y,z
2 -x,-y,-z
_cell_length_a 9.321(1)
_cell_length_b 10.529(2)
_cell_length_c 13.773(2)
_cell_angle_alpha 101.263(1)
_cell_angle_beta 102.727(1)
_cell_angle_gamma 109.344(4)
_cell_formula_units_Z 2
loop_
_atom_type_symbol
_atom_type_radius_bond
C 0.68
H 0.23
N 0.68
O 0.68
loop_
_atom_site_label
_atom_site_type_symbol
_atom_site_fract_x
_atom_site_fract_y
_atom_site_fract_z
O1 O -0.2389(2) -0.2328(1) 0.6793(1)
O2 O 0.1529(2) -0.0143(2) 0.92859(10)
O3 O -0.0282(2) 0.4601(2) 0.6161(1)
O4 O -0.3297(2) 0.2490(2) 0.9236(1)
O5 O -0.2265(2) 0.4188(2) 1.0613(1)
O6 O 0.4634(2) 0.4540(2) 1.2067(1)
O7 O 0.3278(2) 0.5663(2) 1.2563(1)
N1 N 0.0476(2) 0.0349(1) 0.7821(1)
N2 N -0.2192(2) 0.3253(2) 0.9989(1)
N3 N 0.3413(3) 0.4736(2) 1.1969(1)
C1 C 0.4302(6) -0.1329(6) 0.8416(5)
C2 C 0.3713(4) -0.1273(5) 0.7645(3)
C3 C 0.3393(3) -0.0106(3) 0.7269(2)
C4 C 0.4538(3) 0.0501(4) 0.6687(2)
C5 C 0.1678(2) -0.0648(2) 0.6576(1)
C6 C 0.0427(2) -0.0964(2) 0.7132(1)
C7 C -0.1198(2) -0.1775(2) 0.6383(1)
C8 C -0.1813(3) -0.2112(2) 0.5344(2)
C9 C -0.3483(3) -0.2902(2) 0.5093(2)
C10 C -0.3776(3) -0.3014(3) 0.5975(2)
C11 C 0.0252(2) 0.1414(2) 0.7369(1)
C12 C 0.1532(2) 0.2661(2) 0.7533(1)
C13 C 0.1314(2) 0.3695(2) 0.7126(1)
C14 C -0.0184(2) 0.3504(2) 0.6532(1)
C15 C -0.1458(2) 0.2269(2) 0.6350(1)
C16 C -0.1244(2) 0.1226(2) 0.6771(1)
C17 C -0.1758(4) 0.4429(3) 0.5475(2)
C18 C 0.0988(2) 0.0600(2) 0.8865(1)
C19 C 0.0852(2) 0.1833(2) 0.9544(1)
C20 C 0.2160(2) 0.2718(2) 1.0396(1)
C21 C 0.2000(3) 0.3773(2) 1.1081(1)
C22 C 0.0606(3) 0.3972(2) 1.0976(1)
C23 C -0.0670(2) 0.3076(2) 1.0128(1)
C24 C -0.0577(2) 0.2011(2) 0.9406(1)
H1 H 0.47410 -0.05050 0.90170
H2 H 0.43770 -0.22040 0.84910
H3 H 0.33210 -0.21520 0.70970
H4 H 0.35470 0.06390 0.78700
H5 H 0.56300 0.08610 0.71400
H6 H 0.43920 -0.02290 0.60790
H7 H 0.43220 0.12600 0.64700
H8 H 0.15710 0.00570 0.62380
H9 H 0.14680 -0.15080 0.60540
H10 H 0.06550 -0.15380 0.75680
H11 H -0.12310 -0.18650 0.48590
H12 H -0.42590 -0.32850 0.44040
H13 H -0.48190 -0.35090 0.60360
H14 H 0.25930 0.28020 0.79400
H15 H 0.22170 0.45670 0.72560
H16 H -0.25100 0.21250 0.59250
H17 H -0.21520 0.03590 0.66460
H18 H -0.16410 0.52830 0.52760
H19 H -0.20690 0.36490 0.48590
H20 H -0.25720 0.42380 0.58220
H21 H 0.31660 0.25990 1.05090
H22 H 0.05220 0.47100 1.14770
H23 H -0.15000 0.14000 0.88120
#END
