
#######################################################################
#
#                 Cambridge Crystallographic Data Centre
#                                CCDC
#
#######################################################################
#
# If this CIF has been generated from an entry in the Cambridge
# Structural Database, then it will include bibliographic, chemical,
# crystal, experimental, refinement or atomic coordinate data resulting
# from the CCDC's data processing and validation procedures.
#
#######################################################################

data_CSD_CIF_GAGWIX
_audit_creation_date 2016-01-27
_audit_creation_method CSD-ConQuest-V1
_database_code_CSD GAGWIX
_database_code_depnum_ccdc_archive 'CCDC 1449223'
_chemical_formula_sum 'C24 H25 N1 O9'
_chemical_formula_moiety
;
C24 H25 N1 O9
;
_journal_coeditor_code "zs2354"
_journal_coden_Cambridge 1828
_journal_volume 72
_journal_year 2016
_journal_page_first 257
_journal_name_full 'Acta Crystallogr.,Sect.E:Cryst.Commun. '
loop_
_publ_author_name
"N.V.May"
"G.T.Gal"
"Z.Rapi"
"P.Bako"
_chemical_name_systematic
;
Diethyl acetoxy(3-(4-nitrophenyl)-3-oxo-1-phenylpropyl)malonate
;
_cell_volume   2290.127
_exptl_crystal_colour 'colorless'
_exptl_crystal_density_diffrn 1.367
_exptl_crystal_description 'block'
_diffrn_ambient_temperature 103
#These two values have been output from a single CSD field.
_refine_ls_R_factor_gt 0.0486
_refine_ls_wR_factor_gt 0.0486
_symmetry_cell_setting monoclinic
_symmetry_space_group_name_H-M 'P 21/n'
_symmetry_Int_Tables_number 14
loop_
_symmetry_equiv_pos_site_id
_symmetry_equiv_pos_as_xyz
1 x,y,z
2 1/2-x,1/2+y,1/2-z
3 -x,-y,-z
4 -1/2+x,-1/2-y,-1/2+z
_cell_length_a 11.0111(7)
_cell_length_b 13.1762(8)
_cell_length_c 15.8196(9)
_cell_angle_alpha 90
_cell_angle_beta 93.802(2)
_cell_angle_gamma 90
_cell_formula_units_Z 4
loop_
_atom_type_symbol
_atom_type_radius_bond
C 0.68
H 0.23
N 0.68
O 0.68
loop_
_atom_site_label
_atom_site_type_symbol
_atom_site_fract_x
_atom_site_fract_y
_atom_site_fract_z
O1 O 0.16456(8) 0.30912(6) 0.25349(6)
O2 O 0.26884(8) 0.41900(7) 0.14208(6)
O3 O 0.21898(8) 0.56611(7) 0.20333(6)
O4 O 0.14316(8) 0.54562(6) 0.36420(6)
O5 O 0.01727(9) 0.37984(8) 0.16696(6)
O6 O 0.01500(8) 0.41220(7) 0.35300(7)
C1 C 0.67021(11) 0.06374(9) 0.29676(8)
H1 H 0.64530 -0.00320 0.28160
C2 C 0.40905(10) 0.31827(9) 0.29982(8)
H2 H 0.37670 0.24840 0.30360
H3 H 0.41380 0.33510 0.23910
C3 C 0.74760(11) 0.25968(9) 0.34224(8)
H4 H 0.77330 0.32640 0.35760
O7 O 0.56808(9) 0.39344(8) 0.38850(7)
C4 C 0.32199(10) 0.39265(9) 0.33974(7)
H5 H 0.36390 0.45990 0.34480
C5 C 0.79207(11) 0.08750(9) 0.31234(8)
N1 N 0.8821(1) 0.00521(8) 0.30793(7)
O8 O 0.98968(9) 0.02854(9) 0.30729(9)
C6 C 0.10634(10) 0.45486(9) 0.33559(8)
C7 C 0.20283(10) 0.40756(8) 0.28145(7)
O9 O 0.84527(10) -0.08248(8) 0.30556(8)
C8 C 0.23200(12) 0.30653(10) 0.59164(8)
H6 H 0.21110 0.28840 0.64700
C9 C 0.53495(10) 0.32257(9) 0.34362(8)
C10 C 0.22914(10) 0.47531(9) 0.20474(8)
C11 C 0.62319(10) 0.23832(9) 0.32841(7)
C12 C 0.29301(10) 0.36000(9) 0.42848(7)
C13 C 0.07300(11) 0.30567(10) 0.19098(8)
C14 C 0.24448(12) 0.26431(9) 0.44386(8)
H7 H 0.23210 0.21700 0.39880
C15 C 0.31184(11) 0.42777(9) 0.49593(8)
H8 H 0.34630 0.49250 0.48650
C16 C 0.11540(16) 0.69755(11) 0.44259(10)
H9 H 0.06750 0.73060 0.48480
H10 H 0.10710 0.73580 0.38940
H11 H 0.20120 0.69560 0.46330
C17 C 0.83308(11) 0.18426(10) 0.33364(8)
H12 H 0.91760 0.19830 0.34210
C18 C 0.58535(11) 0.14101(9) 0.30400(8)
H13 H 0.50120 0.12740 0.29220
C19 C 0.05811(13) 0.20038(11) 0.15718(10)
H14 H 0.13840 0.17110 0.14930
H15 H 0.01030 0.20210 0.10270
H16 H 0.01590 0.15880 0.19740
C20 C 0.06994(12) 0.59136(10) 0.42759(9)
H17 H 0.07810 0.55190 0.48090
H18 H -0.01690 0.59230 0.40700
C21 C 0.21419(13) 0.23829(10) 0.52514(9)
H19 H 0.18100 0.17320 0.53520
C22 C 0.28063(12) 0.40142(10) 0.57657(8)
H20 H 0.29260 0.44860 0.62170
C23 C 0.28528(14) 0.47311(10) 0.06304(8)
H21 H 0.34020 0.43390 0.02820
H22 H 0.32330 0.54000 0.07570
C24 C 0.16416(16) 0.48792(13) 0.01442(10)
H23 H 0.17650 0.52250 -0.03920
H24 H 0.11120 0.52920 0.04800
H25 H 0.12610 0.42170 0.00280
#END
