
#######################################################################
#
#                 Cambridge Crystallographic Data Centre
#                                CCDC
#
#######################################################################
#
# If this CIF has been generated from an entry in the Cambridge
# Structural Database, then it will include bibliographic, chemical,
# crystal, experimental, refinement or atomic coordinate data resulting
# from the CCDC's data processing and validation procedures.
#
#######################################################################

data_CSD_CIF_GAHCOJ
_audit_creation_date 2011-01-20
_audit_creation_method CSD-ConQuest-V1
_database_code_CSD GAHCOJ
_database_code_depnum_ccdc_archive 'CCDC 763138'
_chemical_formula_sum 'C26 H41 N1 O9'
_chemical_formula_moiety
;
C26 H41 N1 O9
;
_journal_coden_Cambridge 1475
_journal_volume 1
_journal_year 2010
_journal_page_first 637
_journal_name_full 'Chemical Science '
loop_
_publ_author_name
"Shouyun Yu"
"H.Ishida"
"M.E.Juarez-Garcia"
"J.W.Bode"
_chemical_name_systematic
;
2-(6-(2,2-Dimethyl-1,3-dioxolan-4-yl)-2,2-dimethyltetrahydrofuro[3,4-d][1,3]di
oxol-4-yl)-3-isobutyl-1,6,13-trioxa-2-azadispiro[4.1.5.2]tetradecan-14-one
;
_cell_volume   1340.832
_exptl_crystal_density_diffrn 1.267
_diffrn_ambient_temperature 160
#These two values have been output from a single CSD field.
_refine_ls_R_factor_gt 0.0466
_refine_ls_wR_factor_gt 0.0466
_symmetry_cell_setting monoclinic
_symmetry_space_group_name_H-M 'P 21'
_symmetry_Int_Tables_number 4
loop_
_symmetry_equiv_pos_site_id
_symmetry_equiv_pos_as_xyz
1 x,y,z
2 -x,1/2+y,-z
_cell_length_a 10.6909(19)
_cell_length_b 10.6557(16)
_cell_length_c 12.547(2)
_cell_angle_alpha 90
_cell_angle_beta 110.269(4)
_cell_angle_gamma 90
_cell_formula_units_Z 2
loop_
_atom_type_symbol
_atom_type_radius_bond
C 0.68
H 0.23
N 0.68
O 0.68
loop_
_atom_site_label
_atom_site_type_symbol
_atom_site_fract_x
_atom_site_fract_y
_atom_site_fract_z
O1 O 0.6209(2) 0.3197(2) 0.88076(17)
O2 O 0.5035(2) 0.20943(18) 0.72027(16)
O3 O 0.36097(19) 0.38080(19) 0.66701(16)
O4 O 0.27246(19) 0.6199(2) 0.45192(18)
O5 O 0.6284(2) 0.5073(2) 0.80134(19)
O6 O 0.3159(3) 0.7331(3) 0.6845(3)
O7 O 0.1288(2) 0.8092(2) 0.5545(2)
O8 O -0.1107(3) 0.7896(4) 0.1872(2)
O9 O 0.0815(2) 0.6771(2) 0.22876(18)
N1 N 0.3036(2) 0.4299(2) 0.55120(19)
C1 C 0.5511(3) 0.2010(3) 0.8420(2)
C2 C 0.6500(3) 0.0951(3) 0.8775(3)
H1 H 0.72530 0.11370 0.85380
H2 H 0.60840 0.01870 0.83950
C3 C 0.6999(4) 0.0741(4) 1.0061(3)
H3 H 0.75510 -0.00060 1.02480
H4 H 0.75410 0.14500 1.04400
C4 C 0.5824(4) 0.0591(4) 1.0482(3)
H5 H 0.53220 -0.01550 1.01470
H6 H 0.61570 0.04870 1.13010
C5 C 0.4917(4) 0.1723(4) 1.0170(3)
H7 H 0.54060 0.24640 1.05350
H8 H 0.41770 0.16060 1.04400
C6 C 0.4383(3) 0.1913(3) 0.8882(2)
H9 H 0.38110 0.12130 0.85230
H10 H 0.38510 0.26730 0.87000
C7 C 0.5871(3) 0.4011(3) 0.7935(3)
C8 C 0.4944(3) 0.3360(3) 0.6880(2)
C9 C 0.5236(3) 0.3581(3) 0.5801(2)
H11 H 0.57200 0.28800 0.56370
H12 H 0.57500 0.43430 0.58510
C10 C 0.3843(3) 0.3703(3) 0.4898(3)
H13 H 0.38810 0.42580 0.42870
C11 C 0.3249(3) 0.2445(3) 0.4400(3)
H14 H 0.38380 0.20560 0.40570
H15 H 0.32270 0.19070 0.50160
C12 C 0.1855(3) 0.2501(3) 0.3515(3)
H16 H 0.12620 0.28860 0.38680
C13 C 0.1350(4) 0.1171(4) 0.3145(3)
H17 H 0.04540 0.12090 0.26120
H18 H 0.13630 0.06920 0.37970
H19 H 0.19150 0.07760 0.27930
C14 C 0.1809(4) 0.3295(4) 0.2494(3)
H20 H 0.19770 0.41570 0.27220
H21 H 0.09450 0.32230 0.19160
H22 H 0.24770 0.30070 0.22010
C15 C 0.3243(3) 0.5668(3) 0.5619(3)
H23 H 0.41930 0.58650 0.59750
C16 C 0.1305(3) 0.6378(3) 0.4262(3)
H24 H 0.08380 0.55810 0.40120
C17 C 0.1184(3) 0.6764(3) 0.5390(2)
H25 H 0.03740 0.64300 0.54820
C18 C 0.2451(3) 0.6241(3) 0.6284(3)
H26 H 0.22650 0.56470 0.68070
C19 C 0.2322(3) 0.8378(3) 0.6599(3)
C20 C 0.1755(4) 0.8627(4) 0.7506(3)
H27 H 0.12770 0.79010 0.76070
H28 H 0.11580 0.93300 0.72930
H29 H 0.24640 0.88120 0.82050
C21 C 0.3095(6) 0.9485(5) 0.6410(4)
H30 H 0.38360 0.96530 0.70920
H31 H 0.25250 1.02080 0.62150
H32 H 0.34190 0.93010 0.58020
C22 C 0.0811(3) 0.7334(3) 0.3325(3)
H33 H 0.13880 0.80760 0.35040
C23 C -0.0632(3) 0.7717(4) 0.3033(3)
H34 H -0.11320 0.70630 0.32460
H35 H -0.06990 0.84850 0.34250
C24 C -0.0221(3) 0.7345(4) 0.1383(3)
C25 C -0.0895(5) 0.6346(4) 0.0531(4)
H36 H -0.02610 0.59790 0.02380
H37 H -0.16120 0.67130 -0.00810
H38 H -0.12430 0.57090 0.08930
C26 C 0.0325(4) 0.8390(4) 0.0865(3)
H39 H 0.08050 0.89710 0.14470
H40 H -0.03960 0.88180 0.03040
H41 H 0.09160 0.80470 0.05120
#END
