
#######################################################################
#
#                 Cambridge Crystallographic Data Centre
#                                CCDC
#
#######################################################################
#
# If this CIF has been generated from an entry in the Cambridge
# Structural Database, then it will include bibliographic, chemical,
# crystal, experimental, refinement or atomic coordinate data resulting
# from the CCDC's data processing and validation procedures.
#
#######################################################################

data_CSD_CIF_GAHPIO
_audit_creation_date 1988-10-10
_audit_creation_method CSD-ConQuest-V1
_database_code_CSD GAHPIO
_database_code_depnum_ccdc_archive 'CCDC 1162976'
_chemical_formula_sum 'C6 H11 N1 O4'
_chemical_formula_moiety
;
C6 H11 N1 O4
;
_journal_coden_Cambridge 55
_journal_volume 106
_journal_year 1987
_journal_page_first 151
_journal_name_full 'Rec.Trav.Chim.Pays-Bas(Fr.)(Rec.J.R.Neth.Chem.Soc.) '
loop_
_publ_author_name
"V.Busetti"
"H.C.J.Ottenheijm"
"H.J.M.Zeegers"
"D.Ajo"
"M.Casarin"
_chemical_name_systematic
;
DL-2-(N-Acetyl-N-hydroxyamino)butyric acid
;
_chemical_melting_point 385.15
_cell_volume    795.604
_exptl_crystal_density_diffrn 1.345
_exptl_special_details
;
Melting point range 385.15-387.15K

;
_diffrn_ambient_temperature ?
_diffrn_special_details
;
The study was carried out at room temperature,in the range 283-303K

;
#These two values have been output from a single CSD field.
_refine_ls_R_factor_gt 0.0475
_refine_ls_wR_factor_gt 0.0475
_symmetry_cell_setting monoclinic
_symmetry_space_group_name_H-M 'P 21/a'
_symmetry_Int_Tables_number 14
loop_
_symmetry_equiv_pos_site_id
_symmetry_equiv_pos_as_xyz
1 x,y,z
2 1/2-x,1/2+y,-z
3 -x,-y,-z
4 -1/2+x,-1/2-y,z
_cell_length_a 14.003(3)
_cell_length_b 5.425(2)
_cell_length_c 10.495(3)
_cell_angle_alpha 90
_cell_angle_beta 93.70(5)
_cell_angle_gamma 90
_cell_formula_units_Z 4
loop_
_atom_type_symbol
_atom_type_radius_bond
C 0.68
H 0.23
N 0.68
O 0.68
loop_
_atom_site_label
_atom_site_type_symbol
_atom_site_fract_x
_atom_site_fract_y
_atom_site_fract_z
O1 O -0.2524(2) 0.3666(5) 0.5894(2)
O2 O -0.2854(2) 0.2475(6) 0.7858(2)
O3 O -0.1288(2) 0.8270(5) 0.6313(2)
O4 O 0.0415(2) 0.3868(5) 0.7271(3)
N1 N -0.0905(2) 0.6046(5) 0.6786(2)
C1 C -0.2341(2) 0.3571(6) 0.7025(3)
C2 C -0.1471(2) 0.4808(7) 0.7708(3)
C3 C -0.1754(3) 0.6548(9) 0.8765(4)
C4 C -0.0922(4) 0.8018(11) 0.9367(5)
C5 C 0.0042(2) 0.5698(7) 0.6753(3)
C6 C 0.0605(3) 0.7555(9) 0.6067(5)
H1 H 0.056(3) 0.907(8) 0.647(4)
H2 H 0.123(3) 0.690(9) 0.599(4)
H3 H 0.034(3) 0.787(8) 0.522(4)
H4 H -0.109(3) 0.912(10) 1.010(5)
H5 H -0.043(3) 0.692(9) 0.966(4)
H6 H -0.059(3) 0.904(8) 0.877(4)
H7 H -0.107(2) 0.354(6) 0.806(3)
H8 H -0.225(3) 0.770(8) 0.843(4)
H9 H -0.206(3) 0.549(8) 0.942(4)
H10 H -0.339(3) 0.181(9) 0.750(4)
H11 H -0.162(3) 0.782(10) 0.559(5)
#END
