
#######################################################################
#
#                 Cambridge Crystallographic Data Centre
#                                CCDC
#
#######################################################################
#
# If this CIF has been generated from an entry in the Cambridge
# Structural Database, then it will include bibliographic, chemical,
# crystal, experimental, refinement or atomic coordinate data resulting
# from the CCDC's data processing and validation procedures.
#
#######################################################################

data_CSD_CIF_GAHTUF01
_audit_creation_date 2010-11-04
_audit_creation_method CSD-ConQuest-V1
_database_code_CSD GAHTUF01
_database_code_depnum_ccdc_archive 'CCDC 766290'
_chemical_formula_sum 'C23 H29 N1 O5'
_chemical_formula_moiety
;
C23 H29 N1 O5
;
_journal_coden_Cambridge 1220
_journal_volume 16
_journal_year 2010
_journal_page_first 7448
_journal_name_full 'Chem.-Eur.J. '
loop_
_publ_author_name
"K.Tsutsumi"
"Y.Yanagisawa"
"A.Furutani"
"T.Morimoto"
"K.Kakiuchi"
"T.Wada"
"T.Mori"
"Y.Inoue"
_chemical_name_systematic
;
(-)-(1R,2S,5R)-5-Methyl-2-(2-(4-nitrophenyl)propan-2-yl)cyclohexyl 
3-oxocyclohex-1-ene-1-carboxylate
;
_cell_volume   2185.684
_exptl_crystal_colour 'colorless'
_exptl_crystal_density_diffrn 1.214
_exptl_special_details
;
Absolute configuration

;
_exptl_crystal_description 'needle'
_diffrn_ambient_temperature 296
#These two values have been output from a single CSD field.
_refine_ls_R_factor_gt 0.0481
_refine_ls_wR_factor_gt 0.0481
_symmetry_cell_setting orthorhombic
_symmetry_space_group_name_H-M 'P 21 21 21'
_symmetry_Int_Tables_number 19
loop_
_symmetry_equiv_pos_site_id
_symmetry_equiv_pos_as_xyz
1 x,y,z
2 1/2+x,1/2-y,-z
3 -x,1/2+y,1/2-z
4 1/2-x,-y,1/2+z
_cell_length_a 6.5573(3)
_cell_length_b 15.6471(7)
_cell_length_c 21.3024(9)
_cell_angle_alpha 90
_cell_angle_beta 90
_cell_angle_gamma 90
_cell_formula_units_Z 4
loop_
_atom_type_symbol
_atom_type_radius_bond
C 0.68
H 0.23
N 0.68
O 0.68
loop_
_atom_site_label
_atom_site_type_symbol
_atom_site_fract_x
_atom_site_fract_y
_atom_site_fract_z
O1 O -0.3045(6) 0.2094(2) 0.3257(2)
O2 O 0.3968(6) 0.32458(17) 0.47346(18)
O3 O 0.1554(3) 0.40762(14) 0.43084(11)
O4 O 0.0949(6) 0.2051(2) 0.1883(2)
O5 O -0.1179(8) 0.3000(2) 0.1613(2)
N1 N 0.0287(7) 0.2773(2) 0.1908(2)
C1 C -0.1456(8) 0.1981(2) 0.3537(2)
C2 C -0.0368(7) 0.2698(2) 0.38275(19)
C3 C 0.1420(7) 0.2596(2) 0.41115(17)
C4 C 0.2494(7) 0.1754(2) 0.4151(2)
C5 C 0.1620(11) 0.1114(3) 0.3701(3)
C6 C -0.0536(10) 0.1122(2) 0.3624(2)
C7 C 0.2460(7) 0.3324(2) 0.4425(2)
C8 C 0.2403(6) 0.48436(19) 0.45917(17)
C9 C 0.2650(6) 0.5526(2) 0.40870(18)
C10 C 0.3331(7) 0.6354(2) 0.4422(2)
C11 C 0.1872(8) 0.6622(2) 0.4935(2)
C12 C 0.1624(7) 0.5932(2) 0.5433(2)
C13 C 0.0951(6) 0.5106(2) 0.51079(19)
C14 C 0.0125(10) 0.6189(3) 0.5947(2)
C15 C 0.4088(6) 0.5261(2) 0.3536(2)
C16 C 0.4446(8) 0.6036(2) 0.3092(2)
C17 C 0.6182(6) 0.4967(2) 0.3782(2)
C18 C 0.3085(6) 0.4572(2) 0.31237(18)
C19 C 0.1193(6) 0.4734(2) 0.28471(19)
C20 C 0.0273(6) 0.4157(2) 0.2450(2)
C21 C 0.1253(7) 0.3391(2) 0.23298(18)
C22 C 0.3120(6) 0.3201(2) 0.2585(2)
C23 C 0.4028(6) 0.3797(2) 0.29809(19)
H1 H -0.10340 0.33220 0.38100
H2 H 0.39980 0.18430 0.40480
H3 H 0.23590 0.15220 0.45970
H4 H 0.22590 0.12230 0.32720
H5 H 0.20240 0.05200 0.38550
H6 H -0.11720 0.08520 0.40130
H7 H -0.08830 0.07620 0.32400
H8 H 0.37930 0.47060 0.47810
H9 H 0.11590 0.56440 0.38890
H10 H 0.46510 0.62610 0.46050
H11 H 0.34160 0.68050 0.41180
H12 H 0.24170 0.71630 0.51430
H13 H 0.04830 0.67450 0.47390
H14 H 0.29300 0.58330 0.56240
H15 H -0.03780 0.51920 0.49300
H16 H 0.08900 0.46570 0.54140
H17 H 0.05690 0.67130 0.61370
H18 H -0.12050 0.62680 0.57680
H19 H 0.00700 0.57480 0.62600
H20 H 0.53760 0.64290 0.32860
H21 H 0.50110 0.58390 0.27020
H22 H 0.31720 0.63180 0.30140
H23 H 0.60430 0.44220 0.39840
H24 H 0.71180 0.49190 0.34370
H25 H 0.66910 0.53780 0.40780
H26 H 0.04510 0.53140 0.29440
H27 H -0.11030 0.42900 0.22490
H28 H 0.38400 0.26250 0.24850
H29 H 0.54730 0.36590 0.31790
#END
