
#######################################################################
#
#                 Cambridge Crystallographic Data Centre
#                                CCDC
#
#######################################################################
#
# If this CIF has been generated from an entry in the Cambridge
# Structural Database, then it will include bibliographic, chemical,
# crystal, experimental, refinement or atomic coordinate data resulting
# from the CCDC's data processing and validation procedures.
#
#######################################################################

data_CSD_CIF_GAHYIX
_audit_creation_date 1988-10-10
_audit_creation_method CSD-ConQuest-V1
_database_code_CSD GAHYIX
_database_code_depnum_ccdc_archive 'CCDC 1163054'
_chemical_formula_sum 'C19 H17 N1 O4'
_chemical_formula_moiety
;
C19 H17 N1 O4
;
_journal_coden_Cambridge 182
_journal_year 1988
_journal_page_first 440
_journal_name_full 'Chem.Commun. '
loop_
_publ_author_name
"A.J.Blake"
"A.C.Forsyth"
"R.M.Paton"
_chemical_name_systematic
;
endo-4,5-Diphenyl-3,9,11-trioxa-4-azatricyclo(6.2.1.0^2,6^)undecan-7-one
;
_chemical_melting_point 449.15
_cell_volume   1555.005
_exptl_crystal_density_diffrn 1.381
_exptl_special_details
;
Melting point range 449.15-450.15K

;
_diffrn_ambient_temperature ?
_diffrn_special_details
;
The study was carried out at room temperature,in the range 283-303K

;
#These two values have been output from a single CSD field.
_refine_ls_R_factor_gt 0.0571
_refine_ls_wR_factor_gt 0.0571
_symmetry_cell_setting orthorhombic
_symmetry_space_group_name_H-M 'P 21 21 21'
_symmetry_Int_Tables_number 19
loop_
_symmetry_equiv_pos_site_id
_symmetry_equiv_pos_as_xyz
1 x,y,z
2 1/2+x,1/2-y,-z
3 -x,1/2+y,1/2-z
4 1/2-x,-y,1/2+z
_cell_length_a 9.2952(4)
_cell_length_b 11.0635(4)
_cell_length_c 15.1210(6)
_cell_angle_alpha 90
_cell_angle_beta 90
_cell_angle_gamma 90
_cell_formula_units_Z 4
loop_
_atom_type_symbol
_atom_type_radius_bond
C 0.68
H 0.23
N 0.68
O 0.68
loop_
_atom_site_label
_atom_site_type_symbol
_atom_site_fract_x
_atom_site_fract_y
_atom_site_fract_z
C1 C 0.3266(4) 0.5029(3) 0.50066(22)
C2 C 0.3183(4) 0.3678(3) 0.48700(22)
O1 O 0.2102(3) 0.34946(24) 0.42198(15)
N1 N 0.2388(3) 0.22747(24) 0.38899(19)
C3 C 0.3969(4) 0.2285(3) 0.37116(20)
C4 C 0.4560(4) 0.3098(3) 0.44719(24)
C5 C 0.5651(4) 0.4001(4) 0.4132(3)
O2 O 0.6687(4) 0.3697(3) 0.37090(25)
C6 C 0.5383(5) 0.5310(4) 0.4338(4)
O3 O 0.5673(3) 0.5496(4) 0.5263(3)
C7 C 0.4316(4) 0.5353(5) 0.5736(3)
O4 O 0.3928(3) 0.55790(24) 0.42282(20)
C8 C 0.45995(25) 0.10377(15) 0.36944(16)
C9 C 0.40639(25) 0.01129(15) 0.42282(16)
C10 C 0.46333(25) -0.10504(15) 0.41624(16)
C11 C 0.57380(25) -0.12887(15) 0.35628(16)
C12 C 0.62735(25) -0.03639(15) 0.30291(16)
C13 C 0.57043(25) 0.07993(15) 0.30948(16)
C14 C 0.14526(23) 0.20912(21) 0.31438(12)
C15 C 0.01660(23) 0.27347(21) 0.30820(12)
C16 C -0.07899(23) 0.24974(21) 0.23924(12)
C17 C -0.04592(23) 0.16165(21) 0.17645(12)
C18 C 0.08274(23) 0.09729(21) 0.18261(12)
C19 C 0.17833(23) 0.12103(21) 0.25159(12)
H1 H 0.21850 0.53290 0.51470
H2 H 0.29980 0.32740 0.55100
H3 H 0.42430 0.26340 0.30660
H4 H 0.51530 0.26060 0.49690
H5 H 0.60480 0.58560 0.39100
H6 H 0.40060 0.61830 0.60600
H7 H 0.43920 0.46370 0.62190
H8 H 0.32090 0.02970 0.46920
H9 H 0.42190 -0.17660 0.45750
H10 H 0.61790 -0.21890 0.35120
H11 H 0.71290 -0.05490 0.25650
H12 H 0.61190 0.15150 0.26820
H13 H -0.00900 0.34170 0.35680
H14 H -0.17860 0.29960 0.23450
H15 H -0.11990 0.14330 0.12300
H16 H 0.10830 0.02910 0.13400
H17 H 0.27790 0.07120 0.25630
#END
