
#######################################################################
#
#                 Cambridge Crystallographic Data Centre
#                                CCDC
#
#######################################################################
#
# If this CIF has been generated from an entry in the Cambridge
# Structural Database, then it will include bibliographic, chemical,
# crystal, experimental, refinement or atomic coordinate data resulting
# from the CCDC's data processing and validation procedures.
#
#######################################################################

data_CSD_CIF_GAKQOZ
_audit_creation_date 2005-02-28
_audit_creation_method CSD-ConQuest-V1
_database_code_CSD GAKQOZ
_database_code_depnum_ccdc_archive 'CCDC 259095'
_chemical_formula_sum 'C13 H10 N4 O3'
_chemical_formula_moiety
;
C13 H10 N4 O3
;
_journal_coeditor_code "IUCr CF6387"
_journal_coden_Cambridge 1370
_journal_volume 60
_journal_year 2004
_journal_page_first o2183
_journal_name_full 'Acta Crystallogr.,Sect.E:Struct.Rep.Online '
loop_
_publ_author_name
"Si-Chang Shao"
"Zhong-Lu You"
"Shao-Hua Fan"
"Lu-Lu Tang"
"Zhong-Duo Xiong"
"Hai-Liang Zhu"
_chemical_name_systematic
;
2-Nitrobenzaldehyde (pyridine-2-carbonyl)hydrazone
;
_cell_volume   2409.886
_exptl_crystal_colour 'yellow'
_exptl_crystal_density_diffrn 1.49
_exptl_crystal_description 'block'
_exptl_crystal_preparation 'methanol'
_diffrn_ambient_temperature 298
#These two values have been output from a single CSD field.
_refine_ls_R_factor_gt 0.0428
_refine_ls_wR_factor_gt 0.0428
_symmetry_cell_setting monoclinic
_symmetry_space_group_name_H-M 'C 2/c'
_symmetry_Int_Tables_number 15
loop_
_symmetry_equiv_pos_site_id
_symmetry_equiv_pos_as_xyz
1 x,y,z
2 1/2+x,1/2+y,z
3 x,-y,1/2+z
4 1/2+x,1/2-y,1/2+z
5 -x,-y,-z
6 -1/2-x,-1/2-y,-z
7 -x,y,-1/2-z
8 -1/2-x,-1/2+y,-1/2-z
_cell_length_a 12.191(3)
_cell_length_b 9.398(3)
_cell_length_c 21.624(6)
_cell_angle_alpha 90
_cell_angle_beta 103.415(4)
_cell_angle_gamma 90
_cell_formula_units_Z 8
loop_
_atom_type_symbol
_atom_type_radius_bond
C 0.68
H 0.23
N 0.68
O 0.68
loop_
_atom_site_label
_atom_site_type_symbol
_atom_site_fract_x
_atom_site_fract_y
_atom_site_fract_z
O1 O 0.93152(11) 0.36164(16) 0.66863(6)
O2 O 0.83084(10) 0.32420(14) 0.57457(6)
O3 O 1.01588(9) -0.01070(15) 0.34731(6)
N1 N 0.92060(11) 0.35238(14) 0.61157(6)
N2 N 0.98282(10) 0.15256(13) 0.44585(6)
N3 N 0.90419(10) 0.06170(14) 0.41154(6)
N4 N 0.74431(10) -0.12126(14) 0.35758(6)
C1 C 1.03322(11) 0.31882(14) 0.52948(6)
C2 C 1.02018(11) 0.38007(15) 0.58607(6)
C3 C 1.10072(13) 0.46868(16) 0.62262(7)
H1 H 1.08970 0.50680 0.66040
C4 C 1.19692(13) 0.49964(18) 0.60255(8)
H2 H 1.25120 0.55960 0.62650
C5 C 1.21267(13) 0.44179(18) 0.54691(8)
H3 H 1.27790 0.46250 0.53340
C6 C 1.13259(12) 0.35343(16) 0.51108(7)
H4 H 1.14490 0.31560 0.47350
C7 C 0.95429(12) 0.21782(16) 0.49070(7)
H5 H 0.88390 0.20200 0.49910
C8 C 0.92673(11) -0.01454(15) 0.36308(7)
C9 C 0.83031(11) -0.10468(14) 0.32920(6)
C10 C 0.83383(13) -0.16666(16) 0.27209(7)
H6 H 0.89480 -0.15160 0.25380
C11 C 0.74506(13) -0.25142(18) 0.24258(7)
H7 H 0.74470 -0.29420 0.20380
C12 C 0.65747(13) -0.27182(19) 0.27120(8)
H8 H 0.59700 -0.32980 0.25250
C13 C 0.66041(13) -0.20481(19) 0.32821(8)
H9 H 0.60020 -0.21880 0.34720
H10 H 0.8359(10) 0.054(2) 0.4192(9)
#END
