
#######################################################################
#
#                 Cambridge Crystallographic Data Centre
#                                CCDC
#
#######################################################################
#
# If this CIF has been generated from an entry in the Cambridge
# Structural Database, then it will include bibliographic, chemical,
# crystal, experimental, refinement or atomic coordinate data resulting
# from the CCDC's data processing and validation procedures.
#
#######################################################################

data_CSD_CIF_GAKVUL
_audit_creation_date 2011-02-28
_audit_creation_method CSD-ConQuest-V1
_database_code_CSD GAKVUL
_database_code_depnum_ccdc_archive 'CCDC 751218'
_chemical_formula_sum 'C9 H9 N5 O3'
_chemical_formula_moiety
;
C9 H9 N5 O3
;
_journal_coden_Cambridge 440
_journal_volume 34
_journal_year 2010
_journal_page_first 2605
_journal_name_full 'New J.Chem. '
loop_
_publ_author_name
"M.Barys"
"Z.Ciunik"
"K.Drabent"
"A.Kwiecien"
_chemical_name_systematic
;
(4-nitrophenyl)(4H-1,2,4-triazol-4-ylamino)methanol
;
_cell_volume   1048.924
_exptl_crystal_colour 'yellow'
_exptl_crystal_density_diffrn 1.489
_exptl_crystal_description 'needles'
_diffrn_ambient_temperature 100
#These two values have been output from a single CSD field.
_refine_ls_R_factor_gt 0.0328
_refine_ls_wR_factor_gt 0.0328
_symmetry_cell_setting monoclinic
_symmetry_space_group_name_H-M 'C c'
_symmetry_Int_Tables_number 9
loop_
_symmetry_equiv_pos_site_id
_symmetry_equiv_pos_as_xyz
1 x,y,z
2 x,-y,1/2+z
3 1/2+x,1/2+y,z
4 1/2+x,1/2-y,1/2+z
_cell_length_a 6.948(3)
_cell_length_b 20.546(6)
_cell_length_c 7.362(3)
_cell_angle_alpha 90
_cell_angle_beta 93.56(3)
_cell_angle_gamma 90
_cell_formula_units_Z 4
loop_
_atom_type_symbol
_atom_type_radius_bond
C 0.68
H 0.23
N 0.68
O 0.68
loop_
_atom_site_label
_atom_site_type_symbol
_atom_site_fract_x
_atom_site_fract_y
_atom_site_fract_z
O1 O -0.0493(3) -0.11226(7) 0.9680(2)
O2 O -0.2454(2) -0.03966(8) 1.0613(2)
O3 O 0.33801(17) 0.19608(6) 0.73923(15)
H1 H 0.368(5) 0.2015(14) 0.629(5)
N1 N 0.4341(2) 0.19931(7) 1.38242(18)
N2 N 0.35525(19) 0.25084(7) 1.28097(17)
N3 N 0.50814(17) 0.18686(6) 1.10075(16)
N4 N 0.58847(17) 0.15755(6) 0.94959(17)
H2 H 0.664(4) 0.1874(11) 0.906(3)
N5 N -0.0911(2) -0.05597(8) 1.0013(2)
C1 C 0.3034(2) 0.09022(7) 0.87165(18)
C2 C 0.3601(2) 0.02467(7) 0.8759(2)
H3 H 0.48740 0.01320 0.84780
C3 C 0.2321(2) -0.02334(7) 0.9206(2)
H4 H 0.26870 -0.06790 0.92130
C4 C 0.0491(2) -0.00481(8) 0.9644(2)
C5 C -0.0100(2) 0.05950(8) 0.9680(2)
H5 H -0.13500 0.07080 1.00310
C6 C 0.1189(2) 0.10714(7) 0.9188(2)
H6 H 0.08100 0.15160 0.91740
C7 C 0.4405(2) 0.14119(7) 0.80597(19)
H7 H 0.50750 0.12190 0.70240
C8 C 0.5244(2) 0.16209(8) 1.2713(2)
H8 H 0.59160 0.12330 1.30540
C9 C 0.4021(2) 0.24252(7) 1.1128(2)
H9 H 0.36760 0.27090 1.01420
#END
