
#######################################################################
#
#                 Cambridge Crystallographic Data Centre
#                                CCDC
#
#######################################################################
#
# If this CIF has been generated from an entry in the Cambridge
# Structural Database, then it will include bibliographic, chemical,
# crystal, experimental, refinement or atomic coordinate data resulting
# from the CCDC's data processing and validation procedures.
#
#######################################################################

data_CSD_CIF_GAKVIZ
_audit_creation_date 2011-02-28
_audit_creation_method CSD-ConQuest-V1
_database_code_CSD GAKVIZ
_database_code_depnum_ccdc_archive 'CCDC 751216'
_chemical_formula_sum 'C9 H9 N5 O3'
_chemical_formula_moiety
;
C9 H9 N5 O3
;
_journal_coden_Cambridge 440
_journal_volume 34
_journal_year 2010
_journal_page_first 2605
_journal_name_full 'New J.Chem. '
loop_
_publ_author_name
"M.Barys"
"Z.Ciunik"
"K.Drabent"
"A.Kwiecien"
_chemical_name_systematic
;
(2-nitrophenyl)(4H-1,2,4-triazol-4-ylamino)methanol
;
_cell_volume   1037.735
_exptl_crystal_colour 'yellow'
_exptl_crystal_density_diffrn 1.506
_exptl_crystal_description 'plates'
_diffrn_ambient_temperature 100
#These two values have been output from a single CSD field.
_refine_ls_R_factor_gt 0.0689
_refine_ls_wR_factor_gt 0.0689
_symmetry_cell_setting monoclinic
_symmetry_space_group_name_H-M 'P 21/c'
_symmetry_Int_Tables_number 14
loop_
_symmetry_equiv_pos_site_id
_symmetry_equiv_pos_as_xyz
1 x,y,z
2 -x,1/2+y,1/2-z
3 -x,-y,-z
4 x,-1/2-y,-1/2+z
_cell_length_a 11.591(4)
_cell_length_b 10.437(4)
_cell_length_c 8.892(3)
_cell_angle_alpha 90
_cell_angle_beta 105.27(2)
_cell_angle_gamma 90
_cell_formula_units_Z 4
loop_
_atom_type_symbol
_atom_type_radius_bond
C 0.68
H 0.23
N 0.68
O 0.68
loop_
_atom_site_label
_atom_site_type_symbol
_atom_site_fract_x
_atom_site_fract_y
_atom_site_fract_z
O1 O 0.57788(15) 0.00362(15) 0.6647(2)
O2 O 0.45580(17) 0.15069(19) 0.6857(3)
O3 O 0.84523(13) 0.04740(13) 0.44265(16)
N1 N 0.94422(16) -0.30810(15) 0.7133(2)
N2 N 0.84649(16) -0.32142(15) 0.7747(2)
N3 N 0.86181(13) -0.12066(13) 0.71656(17)
N4 N 0.83432(15) 0.01134(13) 0.70396(19)
H1 H 0.9015(19) 0.0517(18) 0.729(2)
N5 N 0.54881(16) 0.11582(18) 0.6574(2)
H2 H 0.836(3) -0.027(3) 0.387(3)
C1 C 0.72339(16) 0.18226(16) 0.5565(2)
C2 C 0.62446(17) 0.21430(18) 0.6114(2)
C3 C 0.5911(2) 0.3400(2) 0.6265(3)
H3 H 0.523(2) 0.354(2) 0.671(3)
C4 C 0.6569(2) 0.4384(2) 0.5888(3)
H4 H 0.635(2) 0.529(3) 0.600(3)
C5 C 0.7542(2) 0.41064(19) 0.5336(3)
H5 H 0.799(2) 0.476(2) 0.507(3)
C6 C 0.7861(2) 0.28485(18) 0.5163(2)
H6 H 0.853(2) 0.265(2) 0.476(2)
C7 C 0.77014(17) 0.04720(16) 0.5440(2)
H7 H 0.7040(17) -0.0140(17) 0.508(2)
C8 C 0.94990(18) -0.18720(18) 0.6785(3)
H8 H 1.007(2) -0.152(2) 0.638(3)
C9 C 0.8002(2) -0.20838(19) 0.7756(3)
H9 H 0.731(2) -0.189(2) 0.805(3)
#END
