
#######################################################################
#
#                 Cambridge Crystallographic Data Centre
#                                CCDC
#
#######################################################################
#
# If this CIF has been generated from an entry in the Cambridge
# Structural Database, then it will include bibliographic, chemical,
# crystal, experimental, refinement or atomic coordinate data resulting
# from the CCDC's data processing and validation procedures.
#
#######################################################################

data_CSD_CIF_GAKXAT
_audit_creation_date 2011-02-28
_audit_creation_method CSD-ConQuest-V1
_database_code_CSD GAKXAT
_database_code_depnum_ccdc_archive 'CCDC 751224'
_chemical_formula_sum 'C9 H7 N5 O2'
_chemical_formula_moiety
;
C9 H7 N5 O2
;
_journal_coden_Cambridge 440
_journal_volume 34
_journal_year 2010
_journal_page_first 2605
_journal_name_full 'New J.Chem. '
loop_
_publ_author_name
"M.Barys"
"Z.Ciunik"
"K.Drabent"
"A.Kwiecien"
_chemical_name_systematic
;
N-(3-nitrobenzylidene)-4H-1,2,4-triazol-4-amine
;
_cell_volume    969.938
_exptl_crystal_colour 'colorless'
_exptl_crystal_density_diffrn 1.487
_exptl_crystal_description 'needles'
_diffrn_ambient_temperature 230
#These two values have been output from a single CSD field.
_refine_ls_R_factor_gt 0.0422
_refine_ls_wR_factor_gt 0.0422
_symmetry_cell_setting monoclinic
_symmetry_space_group_name_H-M 'P 21/c'
_symmetry_Int_Tables_number 14
loop_
_symmetry_equiv_pos_site_id
_symmetry_equiv_pos_as_xyz
1 x,y,z
2 -x,1/2+y,1/2-z
3 -x,-y,-z
4 x,-1/2-y,-1/2+z
_cell_length_a 3.870(2)
_cell_length_b 10.917(4)
_cell_length_c 23.019(7)
_cell_angle_alpha 90
_cell_angle_beta 94.18(3)
_cell_angle_gamma 90
_cell_formula_units_Z 4
loop_
_atom_type_symbol
_atom_type_radius_bond
C 0.68
H 0.23
N 0.68
O 0.68
loop_
_atom_site_label
_atom_site_type_symbol
_atom_site_fract_x
_atom_site_fract_y
_atom_site_fract_z
O1 O 0.5087(4) -0.00873(11) 0.36750(7)
O2 O 0.2294(4) -0.03968(12) 0.44207(6)
N1 N 0.9548(4) 0.79139(12) 0.26727(6)
N2 N 1.0370(4) 0.69073(12) 0.23370(6)
N3 N 0.7881(3) 0.62484(10) 0.30974(5)
N4 N 0.6460(3) 0.55626(11) 0.35306(5)
N5 N 0.3673(4) 0.02812(12) 0.40908(6)
C1 C 0.4830(4) 0.36144(13) 0.38807(6)
C2 C 0.4879(4) 0.23673(13) 0.37873(6)
H1 H 0.57490 0.20440 0.34490
C3 C 0.3630(4) 0.16071(13) 0.41996(6)
C4 C 0.2350(4) 0.20333(14) 0.47048(6)
H2 H 0.15190 0.14910 0.49790
C5 C 0.2328(4) 0.32772(15) 0.47941(6)
H3 H 0.14820 0.35930 0.51360
C6 C 0.3534(4) 0.40695(14) 0.43875(6)
H4 H 0.34800 0.49190 0.44520
C7 C 0.6216(4) 0.44201(13) 0.34469(6)
H5 H 0.69380 0.40830 0.31000
C8 C 0.8104(4) 0.74825(14) 0.31205(7)
H6 H 0.73160 0.79650 0.34220
C9 C 0.9338(4) 0.59333(14) 0.25967(6)
H7 H 0.95620 0.51280 0.24600
#END
