
#######################################################################
#
#                 Cambridge Crystallographic Data Centre
#                                CCDC
#
#######################################################################
#
# If this CIF has been generated from an entry in the Cambridge
# Structural Database, then it will include bibliographic, chemical,
# crystal, experimental, refinement or atomic coordinate data resulting
# from the CCDC's data processing and validation procedures.
#
#######################################################################

data_CSD_CIF_GALTOE
_audit_creation_date 2012-08-03
_audit_creation_method CSD-ConQuest-V1
_database_code_CSD GALTOE
_database_code_depnum_ccdc_archive 'CCDC 837234'
_chemical_formula_sum 'C17 H22 N2 O6'
_chemical_formula_moiety
;
C17 H22 N2 O6
;
_journal_coden_Cambridge 1475
_journal_volume 3
_journal_year 2012
_journal_page_first 584
_journal_name_full 'Chemical Science '
loop_
_publ_author_name
"S.Rajkumar"
"K.Shankland"
"G.D.Brown"
"A.J.A.Cobb"
_chemical_name_systematic
;
ethyl 2-[(1S,2R,3R,4S)-2-methyl-2,4-dinitro-3-phenylcyclohexyl]acetate
;
_chemical_name_common
;
Ethyl (2-methyl-2,4-dinitro-3-phenylcyclohexyl)acetate
;
_cell_volume    860.105
_exptl_crystal_colour 'colorless'
_exptl_crystal_density_diffrn 1.353
_exptl_crystal_description 'block'
_diffrn_ambient_temperature 150
#These two values have been output from a single CSD field.
_refine_ls_R_factor_gt 0.0608
_refine_ls_wR_factor_gt 0.0608
_symmetry_cell_setting monoclinic
_symmetry_space_group_name_H-M 'P 21'
_symmetry_Int_Tables_number 4
loop_
_symmetry_equiv_pos_site_id
_symmetry_equiv_pos_as_xyz
1 x,y,z
2 -x,1/2+y,-z
_cell_length_a 10.1928(5)
_cell_length_b 6.6518(4)
_cell_length_c 12.7044(6)
_cell_angle_alpha 90
_cell_angle_beta 93.098(5)
_cell_angle_gamma 90
_cell_formula_units_Z 2
loop_
_atom_type_symbol
_atom_type_radius_bond
C 0.68
H 0.23
N 0.68
O 0.68
loop_
_atom_site_label
_atom_site_type_symbol
_atom_site_fract_x
_atom_site_fract_y
_atom_site_fract_z
O1 O -0.8149(2) -0.4486(4) -0.02016(18)
O2 O -0.8583(2) 0.2855(3) -0.27308(17)
O3 O -0.9435(2) -0.2085(4) 0.02043(16)
N1 N -0.8814(2) 0.1604(4) -0.3432(2)
O4 O -1.3209(2) 0.3371(4) -0.3399(2)
O5 O -0.8835(3) 0.2005(4) -0.43637(18)
O6 O -1.3230(2) 0.0363(4) -0.4176(2)
C1 C -0.8752(3) -0.0877(4) -0.1942(2)
H1 H -0.91490 0.01880 -0.15320
N2 N -0.8942(2) -0.3180(4) -0.04386(19)
C2 C -1.0715(3) -0.0608(4) -0.3326(2)
H2 H -1.08870 -0.06110 -0.40920
C3 C -0.9338(3) -0.2889(4) -0.1600(2)
H3 H -0.89610 -0.39780 -0.20060
C4 C -0.7270(3) -0.0793(4) -0.1702(2)
C5 C -1.1220(3) -0.2620(4) -0.2916(2)
H4 H -1.21700 -0.26510 -0.30140
H5 H -1.08730 -0.37050 -0.33300
C6 C -1.0829(3) -0.2971(5) -0.1751(2)
H6 H -1.12190 -0.19460 -0.13240
H7 H -1.11450 -0.42730 -0.15320
C7 C -0.9193(3) -0.0536(4) -0.3121(2)
C8 C -1.1474(3) 0.1172(4) -0.2895(2)
H8 H -1.16810 0.09020 -0.21720
H9 H -1.09330 0.23710 -0.28990
C9 C -0.6724(3) 0.0824(6) -0.1155(2)
H10 H -0.72630 0.18470 -0.09270
C10 C -0.6440(3) -0.2339(5) -0.2002(2)
H11 H -0.67940 -0.34620 -0.23490
C11 C -0.5358(3) 0.0934(6) -0.0940(3)
H12 H -0.49930 0.20310 -0.05770
C12 C -1.4396(3) 0.3958(6) -0.4054(3)
H13 H -1.43120 0.35070 -0.47740
H14 H -1.44810 0.54100 -0.40610
C13 C -0.8536(3) -0.1929(5) -0.3896(2)
H15 H -0.76110 -0.16500 -0.38820
H16 H -0.89150 -0.17080 -0.45950
H17 H -0.86700 -0.33030 -0.36970
C14 C -1.2731(3) 0.1521(5) -0.3559(3)
C15 C -0.5096(3) -0.2216(6) -0.1790(2)
H18 H -0.45540 -0.32470 -0.20030
C16 C -1.5591(3) 0.3042(7) -0.3622(3)
H19 H -1.56290 0.33930 -0.28910
H20 H -1.55510 0.16060 -0.36900
H21 H -1.63610 0.35380 -0.40060
C17 C -0.4563(3) -0.0594(6) -0.1271(3)
H22 H -0.36580 -0.05160 -0.11400
#END
