
#######################################################################
#
#                 Cambridge Crystallographic Data Centre
#                                CCDC
#
#######################################################################
#
# If this CIF has been generated from an entry in the Cambridge
# Structural Database, then it will include bibliographic, chemical,
# crystal, experimental, refinement or atomic coordinate data resulting
# from the CCDC's data processing and validation procedures.
#
#######################################################################

data_CSD_CIF_GALTUK
_audit_creation_date 2012-08-03
_audit_creation_method CSD-ConQuest-V1
_database_code_CSD GALTUK
_database_code_depnum_ccdc_archive 'CCDC 837235'
_chemical_formula_sum 'C18 H24 N2 O7'
_chemical_formula_moiety
;
C18 H24 N2 O7
;
_journal_coden_Cambridge 1475
_journal_volume 3
_journal_year 2012
_journal_page_first 584
_journal_name_full 'Chemical Science '
loop_
_publ_author_name
"S.Rajkumar"
"K.Shankland"
"G.D.Brown"
"A.J.A.Cobb"
_chemical_name_systematic
;
ethyl 
(2R)-2-[(1R,2R,3R,4S)-3-(4-methoxyphenyl)-2,4-dinitrocyclohexyl]propanoate
;
_chemical_name_common
;
Ethyl 2-(3-(4-methoxyphenyl)-2,4-dinitrocyclohexyl)propanoate
;
_cell_volume   1866.105
_exptl_crystal_colour 'colorless'
_exptl_crystal_density_diffrn 1.354
_exptl_crystal_description 'block'
_diffrn_ambient_temperature 150
#These two values have been output from a single CSD field.
_refine_ls_R_factor_gt 0.0527
_refine_ls_wR_factor_gt 0.0527
loop_
_citation_database_id_CSD
_citation_special_details
GALTIY "is a stereoisomer of this entry"
_symmetry_cell_setting monoclinic
_symmetry_space_group_name_H-M 'P 21/c'
_symmetry_Int_Tables_number 14
loop_
_symmetry_equiv_pos_site_id
_symmetry_equiv_pos_as_xyz
1 x,y,z
2 -x,1/2+y,1/2-z
3 -x,-y,-z
4 x,-1/2-y,-1/2+z
_cell_length_a 12.8847(13)
_cell_length_b 5.6274(5)
_cell_length_c 25.767(2)
_cell_angle_alpha 90
_cell_angle_beta 92.776(9)
_cell_angle_gamma 90
_cell_formula_units_Z 4
loop_
_atom_type_symbol
_atom_type_radius_bond
C 0.68
H 0.23
N 0.68
O 0.68
loop_
_atom_site_label
_atom_site_type_symbol
_atom_site_fract_x
_atom_site_fract_y
_atom_site_fract_z
O1 O -1.07130(16) 0.2059(3) -0.33190(8)
O2 O -1.40987(15) -0.1579(4) -0.17993(7)
N1 N -1.04379(18) 0.0103(4) -0.31541(9)
O3 O -1.36525(17) -0.2264(4) -0.42672(9)
O4 O -1.36279(17) -0.6094(4) -0.42360(9)
O5 O -0.85639(18) -0.0234(5) -0.46373(10)
O6 O -0.9943(2) -0.0206(4) -0.27494(9)
O7 O -0.72260(16) -0.1821(4) -0.41889(8)
C1 C -1.3195(2) -0.0065(5) -0.30901(11)
H1 H -1.32850 0.11160 -0.33520
N2 N -1.32124(19) -0.4143(5) -0.41766(9)
C2 C -0.8843(2) -0.1901(5) -0.37976(11)
H2 H -0.87520 -0.05810 -0.35390
C3 C -1.3753(2) 0.0118(5) -0.26437(11)
H3 H -1.42200 0.14020 -0.26020
C4 C -1.1859(2) -0.1984(5) -0.36404(10)
H4 H -1.20070 -0.05090 -0.38480
C5 C -1.2961(2) -0.3510(5) -0.23332(10)
H5 H -1.28890 -0.47150 -0.20760
C6 C -1.0694(2) -0.2039(5) -0.34884(10)
H6 H -1.05350 -0.35120 -0.32820
C7 C -1.2092(2) -0.4125(5) -0.39916(10)
H7 H -1.19410 -0.56090 -0.37880
C8 C -1.2408(2) -0.3662(5) -0.27804(10)
H8 H -1.19540 -0.49680 -0.28260
C9 C -0.8214(2) -0.1213(5) -0.42585(12)
C10 C -1.3620(2) -0.1600(5) -0.2261(1)
C11 C -1.0009(2) -0.1981(5) -0.39588(10)
H9 H -1.01820 -0.05030 -0.41610
C12 C -1.2511(2) -0.1915(5) -0.31642(10)
C13 C -1.1443(2) -0.4137(5) -0.44700(11)
H10 H -1.16050 -0.55750 -0.46800
H11 H -1.16140 -0.27260 -0.46870
C14 C -1.4690(2) 0.0487(5) -0.16776(12)
H12 H -1.52940 0.06160 -0.19220
H13 H -1.42550 0.19060 -0.17050
H14 H -1.49250 0.03530 -0.13230
C15 C -1.0292(2) -0.4110(5) -0.43065(11)
H15 H -0.98790 -0.40510 -0.46200
H16 H -1.01120 -0.55960 -0.41170
C16 C -0.6508(3) -0.1062(7) -0.45801(13)
H17 H -0.59290 -0.22130 -0.45950
H18 H -0.68760 -0.10150 -0.49260
C17 C -0.8426(2) -0.4163(6) -0.35235(13)
H19 H -0.77050 -0.39030 -0.33970
H20 H -0.84530 -0.54920 -0.37690
H21 H -0.88530 -0.45330 -0.32300
C18 C -0.6097(3) 0.1298(8) -0.44485(14)
H22 H -0.57480 0.12540 -0.41020
H23 H -0.66690 0.24470 -0.44510
H24 H -0.55980 0.17730 -0.47050
#END
