
#######################################################################
#
#                 Cambridge Crystallographic Data Centre
#                                CCDC
#
#######################################################################
#
# If this CIF has been generated from an entry in the Cambridge
# Structural Database, then it will include bibliographic, chemical,
# crystal, experimental, refinement or atomic coordinate data resulting
# from the CCDC's data processing and validation procedures.
#
#######################################################################

data_CSD_CIF_GAMNAM
_audit_creation_date 2017-03-10
_audit_creation_method CSD-ConQuest-V1
_database_code_CSD GAMNAM
_database_code_depnum_ccdc_archive 'CCDC 1483218'
_chemical_formula_sum 'C24 H39 N2 O3'
_chemical_formula_moiety
;
C24 H39 N2 O3
;
_journal_coden_Cambridge 95
_journal_volume 65
_journal_year 2016
_journal_page_first 2855
_journal_name_full 'Izv.Akad.Nauk SSSR,Ser.Khim.(Russ.)(Russ.Chem.Bull.) '
loop_
_publ_author_name
"N.O.Druzhkov"
"E.N.Egorova"
"M.V.Arsen'ev"
"E.V.Baranov"
"V.K.Cherkasov"
_chemical_name_systematic
;
(4-(((4,6-di-t-butyl-2,3-dihydroxyphenyl)methylidene)amino)-2,2,6,6-tetramethy
lpiperidin-1-yl)oxidanyl radical
;
_cell_volume   2281.848
_exptl_crystal_colour 'orange'
_exptl_crystal_density_diffrn 1.175
_exptl_crystal_description 'stick'
_diffrn_ambient_temperature 100
#These two values have been output from a single CSD field.
_refine_ls_R_factor_gt 0.0394
_refine_ls_wR_factor_gt 0.0394
_symmetry_cell_setting monoclinic
_symmetry_space_group_name_H-M 'P 21/c'
_symmetry_Int_Tables_number 14
loop_
_symmetry_equiv_pos_site_id
_symmetry_equiv_pos_as_xyz
1 x,y,z
2 -x,1/2+y,1/2-z
3 -x,-y,-z
4 x,-1/2-y,-1/2+z
_cell_length_a 5.7599(3)
_cell_length_b 15.3261(7)
_cell_length_c 25.8940(12)
_cell_angle_alpha 90
_cell_angle_beta 93.3866(10)
_cell_angle_gamma 90
_cell_formula_units_Z 4
loop_
_atom_type_symbol
_atom_type_radius_bond
C 0.68
H 0.23
N 0.68
O 0.68
loop_
_atom_site_label
_atom_site_type_symbol
_atom_site_fract_x
_atom_site_fract_y
_atom_site_fract_z
O1 O 0.51945(13) 0.56417(5) 0.45089(3)
H1 H 0.617(4) 0.5648(14) 0.4173(9)
O2 O 0.26883(14) 0.60037(5) 0.52943(3)
H2 H 0.339(3) 0.5558(11) 0.5205(6)
O3 O 1.41574(13) 0.50144(5) 0.24785(3)
N1 N 0.72659(15) 0.60703(6) 0.37387(3)
N2 N 1.25903(15) 0.52793(6) 0.27738(3)
C1 C 0.45737(17) 0.64780(6) 0.45574(4)
C2 C 0.32270(17) 0.66713(6) 0.49762(4)
C3 C 0.25194(16) 0.75170(6) 0.50630(4)
C4 C 0.32058(17) 0.81591(6) 0.47165(4)
H3 H 0.27170 0.87420 0.47730
C5 C 0.45369(16) 0.80082(6) 0.42994(4)
C6 C 0.52571(17) 0.71328(6) 0.42168(4)
C7 C 0.10612(17) 0.77464(6) 0.55181(4)
C8 C -0.12375(18) 0.72467(8) 0.54687(4)
H4 H -0.21750 0.73950 0.57600
H5 H -0.09240 0.66180 0.54710
H6 H -0.20880 0.74070 0.51430
C9 C 0.2402(2) 0.75144(8) 0.60272(4)
H7 H 0.14380 0.76440 0.63170
H8 H 0.38360 0.78590 0.60620
H9 H 0.27900 0.68920 0.60290
C10 C 0.0467(2) 0.87160(7) 0.55386(4)
H10 H -0.04570 0.88290 0.58370
H11 H -0.04290 0.88830 0.52210
H12 H 0.19060 0.90580 0.55710
C11 C 0.51359(17) 0.87706(6) 0.39456(4)
C12 C 0.4136(2) 0.86140(7) 0.33914(4)
H13 H 0.48490 0.80920 0.32510
H14 H 0.44700 0.91190 0.31760
H15 H 0.24490 0.85310 0.33930
C13 C 0.77747(18) 0.89271(7) 0.39583(4)
H16 H 0.83360 0.90990 0.43080
H17 H 0.81120 0.93920 0.37140
H18 H 0.85590 0.83890 0.38610
C14 C 0.40803(19) 0.96344(7) 0.41161(4)
H19 H 0.46730 0.97730 0.44690
H20 H 0.23830 0.95810 0.41070
H21 H 0.45110 1.01010 0.38820
C15 C 0.67137(17) 0.68697(6) 0.38057(4)
H22 H 0.72720 0.73010 0.35810
C16 C 0.86544(17) 0.57695(6) 0.33195(4)
H23 H 0.75790 0.54980 0.30480
C17 C 1.00731(18) 0.64636(7) 0.30635(4)
H24 H 1.12110 0.67160 0.33240
H25 H 0.90250 0.69380 0.29350
C18 C 1.13722(17) 0.60985(7) 0.26121(4)
C19 C 1.16138(17) 0.46107(6) 0.31166(4)
C20 C 1.03017(17) 0.50675(6) 0.35342(4)
H26 H 0.94020 0.46280 0.37190
H27 H 1.14390 0.53350 0.37890
C21 C 0.97140(19) 0.59252(7) 0.21389(4)
H28 H 1.05470 0.56150 0.18750
H29 H 0.91290 0.64810 0.19970
H30 H 0.84060 0.55690 0.22410
C22 C 1.32378(18) 0.67414(7) 0.24658(4)
H31 H 1.44410 0.67820 0.27490
H32 H 1.25360 0.73170 0.24030
H33 H 1.39380 0.65390 0.21510
C23 C 1.0037(2) 0.39925(7) 0.27914(4)
H34 H 1.08650 0.37820 0.24960
H35 H 0.86290 0.43040 0.26660
H36 H 0.96070 0.34960 0.30040
C24 C 1.36391(19) 0.40974(7) 0.33665(4)
H37 H 1.47240 0.44990 0.35500
H38 H 1.44440 0.37870 0.30990
H39 H 1.30550 0.36750 0.36120
#END
