
#######################################################################
#
#                 Cambridge Crystallographic Data Centre
#                                CCDC
#
#######################################################################
#
# If this CIF has been generated from an entry in the Cambridge
# Structural Database, then it will include bibliographic, chemical,
# crystal, experimental, refinement or atomic coordinate data resulting
# from the CCDC's data processing and validation procedures.
#
#######################################################################

data_CSD_CIF_GANBOP
_audit_creation_date 2017-03-12
_audit_creation_method CSD-ConQuest-V1
_database_code_CSD GANBOP
_database_code_depnum_ccdc_archive 'CCDC 1530133'
_chemical_formula_sum 'C16 H21 N1 O4'
_chemical_formula_moiety
;
C16 H21 N1 O4
;
_journal_coden_Cambridge 156
_journal_volume 443-444
_journal_year 2017
_journal_page_first 15
_journal_name_full 'Carbohydr.Res. '
loop_
_publ_author_name
"M.Schalli"
"C.Tysoe"
"R.Fischer"
"B.M.Pabst"
"M.Thonhofer"
"E.Paschke"
"T.Rappitsch"
"A.E.Stutz"
"M.Tschernutter"
"W.Windischhofer"
"S.G.Withers"
_chemical_name_systematic
;
(3aR,3bS,6aR,7S,7aR)-1-benzyl-5,5-dimethylhexahydro-1H-[1,3]dioxolo[4',5':3,4]
cyclopenta[1,2-c]isoxazol-7-ol
;
_chemical_melting_point 381.15
_cell_volume    738.272
_exptl_crystal_colour 'colorless'
_exptl_crystal_density_diffrn 1.311
_exptl_special_details
;
Melting point range 381.15-383.15K

;
_exptl_crystal_description 'Block'
_exptl_crystal_preparation 'methanol/ethyl acetate'
_diffrn_ambient_temperature 100
#These two values have been output from a single CSD field.
_refine_ls_R_factor_gt 0.045
_refine_ls_wR_factor_gt 0.045
loop_
_citation_database_id_CSD
_citation_special_details
QIHREE "is a stereoisomer of this entry"
_symmetry_cell_setting monoclinic
_symmetry_space_group_name_H-M 'P 21'
_symmetry_Int_Tables_number 4
loop_
_symmetry_equiv_pos_site_id
_symmetry_equiv_pos_as_xyz
1 x,y,z
2 -x,1/2+y,-z
_cell_length_a 5.6214(3)
_cell_length_b 10.2502(7)
_cell_length_c 12.8180(8)
_cell_angle_alpha 90
_cell_angle_beta 91.654(3)
_cell_angle_gamma 90
_cell_formula_units_Z 2
loop_
_atom_type_symbol
_atom_type_radius_bond
C 0.68
H 0.23
N 0.68
O 0.68
loop_
_atom_site_label
_atom_site_type_symbol
_atom_site_fract_x
_atom_site_fract_y
_atom_site_fract_z
C1 C 0.2324(5) 0.5400(3) 0.5306(2)
H1 H 0.08520 0.56890 0.49150
N1 N 0.4169(4) 0.4988(2) 0.45746(18)
O1 O -0.0123(4) 0.3467(2) 0.57431(16)
H2 H -0.139(6) 0.389(4) 0.561(3)
C2 C 0.1742(5) 0.4313(3) 0.6087(2)
H3 H 0.32080 0.37720 0.61940
C3 C 0.1283(5) 0.5021(3) 0.7118(2)
H4 H -0.04110 0.53110 0.71540
O2 O 0.1991(4) 0.4280(2) 0.80190(16)
C4 C 0.2978(5) 0.6181(3) 0.7115(2)
H5 H 0.23520 0.69350 0.75190
O3 O 0.5076(4) 0.5627(2) 0.76096(14)
C5 C 0.3392(5) 0.6542(3) 0.5972(2)
H6 H 0.25820 0.73830 0.57880
C6 C 0.5986(6) 0.6568(3) 0.5649(2)
H7 H 0.62610 0.72890 0.51520
H8 H 0.70700 0.66790 0.62650
O4 O 0.6354(3) 0.5311(2) 0.51567(15)
C7 C 0.4259(6) 0.4763(3) 0.8400(2)
C8 C 0.5988(6) 0.3649(3) 0.8508(2)
H9 H 0.61360 0.32160 0.78310
H10 H 0.54100 0.30230 0.90190
H11 H 0.75470 0.39830 0.87440
C9 C 0.3926(6) 0.5497(4) 0.9414(2)
H12 H 0.28150 0.62220 0.92920
H13 H 0.54630 0.58390 0.96690
H14 H 0.32840 0.49040 0.99350
C10 C 0.4093(6) 0.5798(3) 0.3616(2)
H15 H 0.57040 0.58490 0.33260
H16 H 0.35810 0.66950 0.37900
C11 C 0.2387(5) 0.5221(3) 0.2812(2)
C12 C 0.2823(6) 0.3992(3) 0.2395(2)
H17 H 0.41890 0.35180 0.26290
C13 C 0.1306(6) 0.3449(4) 0.1645(2)
H18 H 0.16260 0.26090 0.13690
C14 C -0.0696(6) 0.4142(4) 0.1299(2)
H19 H -0.17560 0.37750 0.07890
C15 C -0.1132(6) 0.5362(4) 0.1699(2)
H20 H -0.24810 0.58420 0.14540
C16 C 0.0390(6) 0.5897(3) 0.2459(2)
H21 H 0.00550 0.67330 0.27390
#END
