
#######################################################################
#
#                 Cambridge Crystallographic Data Centre
#                                CCDC
#
#######################################################################
#
# If this CIF has been generated from an entry in the Cambridge
# Structural Database, then it will include bibliographic, chemical,
# crystal, experimental, refinement or atomic coordinate data resulting
# from the CCDC's data processing and validation procedures.
#
#######################################################################

data_CSD_CIF_GANNAN
_audit_creation_date 2017-03-12
_audit_creation_method CSD-ConQuest-V1
_database_code_CSD GANNAN
_database_code_depnum_ccdc_archive 'CCDC 1500425'
_chemical_formula_sum 'C19 H15 N5 O1'
_chemical_formula_moiety
;
C19 H15 N5 O1
;
_journal_coden_Cambridge 368
_journal_volume 71
_journal_year 2017
_journal_page_first 325
_journal_name_full 'Bioorg.Chem. '
loop_
_publ_author_name
"R.Gup"
"O.Erer"
"N.Dilek"
_chemical_name_systematic
;
2-(bis(pyridin-2-yl)methyl)-4-phenyl-1H-1,2,3-triazol-2-ium-1-olate
;
_cell_volume    811.599
_exptl_crystal_colour 'light colorless'
_exptl_crystal_density_diffrn 1.348
_exptl_crystal_description 'PRISM'
_diffrn_ambient_temperature 296
#These two values have been output from a single CSD field.
_refine_ls_R_factor_gt 0.0447
_refine_ls_wR_factor_gt 0.0447
_symmetry_cell_setting triclinic
_symmetry_space_group_name_H-M 'P -1'
_symmetry_Int_Tables_number 2
loop_
_symmetry_equiv_pos_site_id
_symmetry_equiv_pos_as_xyz
1 x,y,z
2 -x,-y,-z
_cell_length_a 8.6191(7)
_cell_length_b 9.8759(8)
_cell_length_c 10.7583(9)
_cell_angle_alpha 68.030(4)
_cell_angle_beta 89.049(4)
_cell_angle_gamma 73.807(4)
_cell_formula_units_Z 2
loop_
_atom_type_symbol
_atom_type_radius_bond
C 0.68
H 0.23
N 0.68
O 0.68
loop_
_atom_site_label
_atom_site_type_symbol
_atom_site_fract_x
_atom_site_fract_y
_atom_site_fract_z
O1 O 0.00423(15) 0.11370(12) 0.26438(12)
N1 N 0.09918(13) 0.27414(12) 0.33064(11)
N2 N 0.19145(13) 0.26971(12) 0.43114(11)
N3 N 0.09115(15) 0.13295(13) 0.34742(12)
N4 N 0.08763(15) 0.61402(14) 0.08616(12)
N5 N -0.21214(15) 0.37337(14) 0.38825(12)
C1 C 0.03386(15) 0.55280(14) 0.20512(12)
C2 C -0.01099(15) 0.40776(14) 0.22642(12)
H1 H -0.00130 0.39160 0.14180
C3 C -0.18576(16) 0.42364(14) 0.25907(13)
C4 C 0.36201(17) 0.06610(15) 0.63100(14)
C5 C 0.24830(16) 0.12133(15) 0.51060(13)
C6 C 0.01014(19) 0.62034(17) 0.29821(15)
H2 H -0.02720 0.57390 0.38040
C7 C 0.09500(19) 0.82366(16) 0.14440(17)
H3 H 0.11550 0.91740 0.12020
C8 C 0.18555(19) 0.03533(16) 0.45959(15)
H4 H 0.20560 -0.07010 0.49670
C9 C -0.30807(19) 0.49148(18) 0.15463(17)
H5 H -0.28410 0.52440 0.06550
C10 C 0.1165(2) 0.74880(18) 0.05766(16)
H6 H 0.15300 0.79380 -0.02530
C11 C 0.4087(2) 0.16501(18) 0.67491(17)
H7 H 0.36470 0.26990 0.62930
C12 C 0.0427(2) 0.75753(18) 0.26743(17)
H8 H 0.02950 0.80450 0.32900
C13 C -0.3679(2) 0.3928(2) 0.4149(2)
H9 H -0.38950 0.35890 0.50460
C14 C -0.4666(2) 0.5094(2) 0.1853(2)
H10 H -0.55150 0.55460 0.11710
C15 C -0.4971(2) 0.4597(2) 0.3174(2)
H11 H -0.60300 0.47100 0.34080
C16 C 0.4289(3) -0.08929(19) 0.70226(19)
H12 H 0.39840 -0.15790 0.67500
C17 C 0.5854(2) -0.0450(2) 0.85547(18)
H13 H 0.65970 -0.08190 0.93070
C18 C 0.5200(2) 0.1093(2) 0.7858(2)
H14 H 0.55120 0.17710 0.81370
C19 C 0.5399(3) -0.1437(2) 0.8129(2)
H15 H 0.58440 -0.24840 0.85910
#END
