
#######################################################################
#
#                 Cambridge Crystallographic Data Centre
#                                CCDC
#
#######################################################################
#
# If this CIF has been generated from an entry in the Cambridge
# Structural Database, then it will include bibliographic, chemical,
# crystal, experimental, refinement or atomic coordinate data resulting
# from the CCDC's data processing and validation procedures.
#
#######################################################################

data_CSD_CIF_GAPHOW
_audit_creation_date 2012-03-13
_audit_creation_method CSD-ConQuest-V1
_database_code_CSD GAPHOW
_database_code_depnum_ccdc_archive 'CCDC 868033'
_chemical_formula_sum 'C25 H15 N1 O8'
_chemical_formula_moiety
;
C25 H15 N1 O8
;
_journal_coeditor_code "IUCr RK2323"
_journal_coden_Cambridge 1370
_journal_volume 68
_journal_year 2012
_journal_page_first o265
_journal_name_full 'Acta Crystallogr.,Sect.E:Struct.Rep.Online '
loop_
_publ_author_name
"N.Ravikumar"
"G.Gopikrishna"
"K.A.Solomon"
_chemical_name_systematic
;
3,3'-((4-Nitrophenyl)methylene)bis(4-hydroxy-2H-chromen-2-one)
;
_cell_volume   2064.846
_exptl_crystal_colour 'orange'
_exptl_crystal_density_diffrn 1.471
_exptl_crystal_description 'block'
_diffrn_ambient_temperature 295
#These two values have been output from a single CSD field.
_refine_ls_R_factor_gt 0.0326
_refine_ls_wR_factor_gt 0.0326
_symmetry_cell_setting orthorhombic
_symmetry_space_group_name_H-M 'P n a 21'
_symmetry_Int_Tables_number 33
loop_
_symmetry_equiv_pos_site_id
_symmetry_equiv_pos_as_xyz
1 x,y,z
2 -x,-y,1/2+z
3 1/2-x,1/2+y,1/2+z
4 1/2+x,1/2-y,z
_cell_length_a 14.0061(6)
_cell_length_b 14.1511(6)
_cell_length_c 10.4179(4)
_cell_angle_alpha 90
_cell_angle_beta 90
_cell_angle_gamma 90
_cell_formula_units_Z 4
loop_
_atom_type_symbol
_atom_type_radius_bond
C 0.68
H 0.23
N 0.68
O 0.68
loop_
_atom_site_label
_atom_site_type_symbol
_atom_site_fract_x
_atom_site_fract_y
_atom_site_fract_z
C1 C 0.65097(16) 0.52018(16) 0.9180(2)
C2 C 0.67257(16) 0.67214(16) 0.8278(2)
C3 C 0.73555(19) 0.7470(2) 0.8087(3)
H1 H 0.79650 0.74610 0.84420
C4 C 0.7053(2) 0.8221(2) 0.7359(4)
H2 H 0.74640 0.87240 0.72100
C5 C 0.6141(2) 0.82367(19) 0.6844(3)
H3 H 0.59470 0.87510 0.63530
C6 C 0.55268(19) 0.75111(17) 0.7049(3)
H4 H 0.49150 0.75310 0.67040
C7 C 0.58132(16) 0.67400(16) 0.7773(2)
C8 C 0.52015(15) 0.59312(15) 0.80351(19)
C9 C 0.55171(14) 0.52169(14) 0.87827(19)
C10 C 0.49380(14) 0.43608(14) 0.9198(2)
H5 H 0.53010 0.40970 0.99180
C11 C 0.49566(14) 0.35862(15) 0.81912(19)
C12 C 0.42673(16) 0.36412(15) 0.7157(2)
C13 C 0.49157(18) 0.22343(14) 0.6267(2)
C14 C 0.4862(2) 0.15815(18) 0.5260(3)
H6 H 0.43790 0.16140 0.46500
C15 C 0.5557(2) 0.08853(19) 0.5208(3)
H7 H 0.55370 0.04360 0.45560
C16 C 0.6277(2) 0.08488(19) 0.6106(3)
H8 H 0.67420 0.03820 0.60470
C17 C 0.6315(2) 0.14788(16) 0.7066(3)
H9 H 0.68060 0.14410 0.76650
C18 C 0.56350(17) 0.21869(15) 0.7178(2)
C19 C 0.56297(16) 0.29003(15) 0.8164(2)
C20 C 0.39601(14) 0.45796(15) 0.9770(2)
C21 C 0.37848(15) 0.54447(15) 1.0351(2)
H10 H 0.42330 0.59260 1.02770
C22 C 0.29604(17) 0.56044(17) 1.1036(2)
H11 H 0.28530 0.61840 1.14310
C23 C 0.22999(15) 0.48919(18) 1.1123(2)
C24 C 0.24222(17) 0.40444(18) 1.0508(2)
H12 H 0.19510 0.35820 1.05370
C25 C 0.32609(17) 0.38952(15) 0.9845(2)
H13 H 0.33580 0.33180 0.94380
N1 N 0.14454(16) 0.5031(2) 1.1934(2)
O1 O 0.69024(11) 0.45293(11) 0.96905(17)
O2 O 0.70638(10) 0.59589(11) 0.89430(15)
O3 O 0.43458(11) 0.59699(11) 0.74979(15)
H14 H 0.41160 0.54380 0.74690
O4 O 0.42395(12) 0.29414(11) 0.62710(16)
O5 O 0.37047(12) 0.42867(11) 0.70029(16)
O6 O 0.63447(12) 0.28370(12) 0.90099(19)
H15 H 0.64860 0.33670 0.92660
O7 O 0.08403(15) 0.44080(18) 1.1938(3)
O8 O 0.13895(14) 0.57467(17) 1.2562(2)
#END
