
#######################################################################
#
#                 Cambridge Crystallographic Data Centre
#                                CCDC
#
#######################################################################
#
# If this CIF has been generated from an entry in the Cambridge
# Structural Database, then it will include bibliographic, chemical,
# crystal, experimental, refinement or atomic coordinate data resulting
# from the CCDC's data processing and validation procedures.
#
#######################################################################

data_CSD_CIF_GAPKIT
_audit_creation_date 2012-03-13
_audit_creation_method CSD-ConQuest-V1
_database_code_CSD GAPKIT
_database_code_depnum_ccdc_archive 'CCDC 868042'
_chemical_formula_sum 'C22 H23 N3 O4'
_chemical_formula_moiety
;
C22 H23 N3 O4
;
_journal_coeditor_code "IUCr BT5744"
_journal_coden_Cambridge 1370
_journal_volume 68
_journal_year 2012
_journal_page_first o277
_journal_name_full 'Acta Crystallogr.,Sect.E:Struct.Rep.Online '
loop_
_publ_author_name
"S.Sathya"
"S.Bhaskaran"
"G.Usha"
"N.Sivakumar"
"M.Bakthadoss"
_chemical_name_systematic
;
2'-(Hydroxymethyl)-1'-(4-methylphenyl)-2'-nitro-1',2',5',6',7',7a'-hexahydrosp
iro[indole-3,3'-pyrrolizin]-2(1H)-one
;
_cell_volume    990.790
_exptl_crystal_colour 'colorless'
_exptl_crystal_density_diffrn 1.319
_exptl_crystal_description 'block'
_diffrn_ambient_temperature 293
#These two values have been output from a single CSD field.
_refine_ls_R_factor_gt 0.0483
_refine_ls_wR_factor_gt 0.0483
_symmetry_cell_setting triclinic
_symmetry_space_group_name_H-M 'P -1'
_symmetry_Int_Tables_number 2
loop_
_symmetry_equiv_pos_site_id
_symmetry_equiv_pos_as_xyz
1 x,y,z
2 -x,-y,-z
_cell_length_a 8.9172(4)
_cell_length_b 9.9953(4)
_cell_length_c 11.5931(6)
_cell_angle_alpha 81.257(3)
_cell_angle_beta 76.638(3)
_cell_angle_gamma 83.805(2)
_cell_formula_units_Z 2
loop_
_atom_type_symbol
_atom_type_radius_bond
C 0.68
H 0.23
N 0.68
O 0.68
loop_
_atom_site_label
_atom_site_type_symbol
_atom_site_fract_x
_atom_site_fract_y
_atom_site_fract_z
C1 C 0.21898(19) 0.62617(16) 0.42758(14)
H1 H 0.19480 0.70870 0.45790
C2 C 0.1894(2) 0.50533(18) 0.50230(16)
H2 H 0.14680 0.50680 0.58330
C3 C 0.2229(2) 0.38237(18) 0.45695(18)
H3 H 0.20100 0.30230 0.50800
C4 C 0.2878(2) 0.37652(16) 0.33808(17)
H4 H 0.31030 0.29400 0.30760
C5 C 0.31830(18) 0.49813(14) 0.26526(14)
C6 C 0.28473(16) 0.62292(13) 0.30774(13)
C7 C 0.40581(16) 0.64665(13) 0.10119(13)
C8 C 0.33024(15) 0.73416(12) 0.20230(12)
C9 C 0.19143(14) 0.83335(12) 0.17272(12)
C10 C 0.20643(18) 0.88938(15) 0.03935(13)
H5 H 0.21250 0.81420 -0.00590
H6 H 0.11430 0.94720 0.02990
C11 C 0.56071(19) 0.78765(17) 0.27409(19)
H7 H 0.65830 0.77130 0.21860
H8 H 0.53770 0.70540 0.32900
C12 C 0.5667(2) 0.9037(2) 0.3407(2)
H9 H 0.64050 0.96620 0.29350
H10 H 0.59660 0.87090 0.41590
C13 C 0.40563(19) 0.97253(16) 0.36233(15)
H11 H 0.40660 1.06720 0.37180
H12 H 0.33920 0.92720 0.43250
C14 C 0.35435(15) 0.95803(13) 0.24826(13)
H13 H 0.38820 1.03410 0.18700
C15 C 0.18254(15) 0.94197(12) 0.25671(12)
H14 H 0.14070 0.89950 0.33820
C16 C 0.08246(15) 1.07192(13) 0.23587(12)
C17 C -0.06238(17) 1.08928(15) 0.31073(15)
H15 H -0.09470 1.02210 0.37390
C18 C -0.15936(19) 1.20451(16) 0.29307(16)
H16 H -0.25600 1.21280 0.34420
C19 C -0.11602(18) 1.30755(15) 0.20124(15)
C20 C 0.0293(2) 1.29239(15) 0.12843(15)
H17 H 0.06240 1.36140 0.06720
C21 C 0.12749(18) 1.17662(14) 0.14433(14)
H18 H 0.22430 1.16900 0.09330
C22 C -0.2232(2) 1.42970(17) 0.17871(19)
H19 H -0.31570 1.42620 0.24060
H20 H -0.24900 1.43100 0.10260
H21 H -0.17350 1.51040 0.17850
N1 N 0.38738(15) 0.51498(12) 0.14359(12)
H22 H 0.41480 0.44950 0.10100
N2 N 0.04800(14) 0.75474(12) 0.20397(12)
N3 N 0.43621(12) 0.83081(11) 0.20981(11)
O1 O -0.06118(13) 0.78766(13) 0.28004(13)
O2 O 0.05119(15) 0.65971(13) 0.14818(13)
O3 O 0.33650(13) 0.96383(11) -0.00794(10)
H23 H 0.41520 0.91350 -0.00650
O4 O 0.47420(14) 0.69055(10) 0.00021(10)
#END
