
#######################################################################
#
#                 Cambridge Crystallographic Data Centre
#                                CCDC
#
#######################################################################
#
# If this CIF has been generated from an entry in the Cambridge
# Structural Database, then it will include bibliographic, chemical,
# crystal, experimental, refinement or atomic coordinate data resulting
# from the CCDC's data processing and validation procedures.
#
#######################################################################

data_CSD_CIF_GAPLIU
_audit_creation_date 2012-03-13
_audit_creation_method CSD-ConQuest-V1
_database_code_CSD GAPLIU
_database_code_depnum_ccdc_archive 'CCDC 868047'
_chemical_formula_sum 'C24 H20 N2 O2'
_chemical_formula_moiety
;
C24 H20 N2 O2
;
_journal_coeditor_code "IUCr PV2496"
_journal_coden_Cambridge 1370
_journal_volume 68
_journal_year 2012
_journal_page_first o283
_journal_name_full 'Acta Crystallogr.,Sect.E:Struct.Rep.Online '
loop_
_publ_author_name
"K.Swaminathan"
"K.Sethusankar"
"J.Srinivasan"
"M.Bakthadoss"
_chemical_name_systematic
;
(2S,5S,6R)-5-(4-Methylphenyl)-3-phenyl-4,8-dioxa-3-azatricyclo[7.4.0.0^2,6^]tr
ideca-1(13),9,11-triene-6-carbonitrile
;
_chemical_name_common
;
3-(4-Methylphenyl)-1-phenyl-1,9b-dihydro-3H-chromeno[4,3-c][1,2]oxazole-3a(4H)
-carbonitrile
;
_cell_volume   1954.004
_exptl_crystal_colour 'colorless'
_exptl_crystal_density_diffrn 1.252
_exptl_crystal_description 'block'
_diffrn_ambient_temperature 293
#These two values have been output from a single CSD field.
_refine_ls_R_factor_gt 0.0813
_refine_ls_wR_factor_gt 0.0813
_symmetry_cell_setting orthorhombic
_symmetry_space_group_name_H-M 'P 21 21 21'
_symmetry_Int_Tables_number 19
loop_
_symmetry_equiv_pos_site_id
_symmetry_equiv_pos_as_xyz
1 x,y,z
2 1/2-x,-y,1/2+z
3 -x,1/2+y,1/2-z
4 1/2+x,1/2-y,-z
_cell_length_a 8.9890(16)
_cell_length_b 9.8432(19)
_cell_length_c 22.084(4)
_cell_angle_alpha 90
_cell_angle_beta 90
_cell_angle_gamma 90
_cell_formula_units_Z 4
loop_
_atom_type_symbol
_atom_type_radius_bond
C 0.68
H 0.23
N 0.68
O 0.68
loop_
_atom_site_label
_atom_site_type_symbol
_atom_site_fract_x
_atom_site_fract_y
_atom_site_fract_z
C1 C 0.7119(5) 0.2084(4) 0.21685(18)
C2 C 0.7325(5) 0.0754(4) 0.2349(2)
H1 H 0.69140 0.00500 0.21230
C3 C 0.8128(6) 0.0469(5) 0.2855(2)
H2 H 0.82730 -0.04250 0.29770
C4 C 0.8728(6) 0.1533(5) 0.3188(2)
H3 H 0.92730 0.13520 0.35370
C5 C 0.8522(5) 0.2841(5) 0.30056(17)
H4 H 0.89370 0.35410 0.32320
C6 C 0.7705(4) 0.3161(4) 0.24889(16)
C7 C 0.7539(4) 0.4578(4) 0.22771(15)
H5 H 0.85160 0.50170 0.22590
C8 C 0.6754(4) 0.4707(4) 0.16629(15)
C9 C 0.5624(5) 0.3556(4) 0.1614(2)
H6 H 0.49020 0.36410 0.19380
H7 H 0.50970 0.36320 0.12320
C10 C 0.7823(6) 0.4613(5) 0.11672(17)
C11 C 0.5993(5) 0.6120(4) 0.17064(17)
H8 H 0.49130 0.59880 0.17030
C12 C 0.6383(5) 0.7144(4) 0.12342(16)
C13 C 0.7633(6) 0.7942(5) 0.12838(19)
H9 H 0.82580 0.78390 0.16160
C14 C 0.7971(7) 0.8890(5) 0.0848(2)
H10 H 0.88060 0.94360 0.08970
C15 C 0.7101(7) 0.9044(5) 0.0344(2)
C16 C 0.5876(7) 0.8215(7) 0.0288(2)
H11 H 0.52660 0.82910 -0.00510
C17 C 0.5550(6) 0.7284(6) 0.0726(2)
H12 H 0.47270 0.67240 0.06740
C18 C 0.7427(10) 1.0141(8) -0.0113(3)
H13 H 0.72310 0.98040 -0.05130
H14 H 0.84530 1.04040 -0.00830
H15 H 0.68050 1.09140 -0.00350
C19 C 0.7143(5) 0.5804(4) 0.32222(16)
C20 C 0.6470(6) 0.5344(6) 0.37311(17)
H16 H 0.56080 0.48250 0.37030
C21 C 0.7058(8) 0.5643(8) 0.4288(2)
H17 H 0.65900 0.53290 0.46370
C22 C 0.8317(9) 0.6392(7) 0.4334(2)
H18 H 0.87120 0.65920 0.47130
C23 C 0.9005(8) 0.6853(6) 0.3823(2)
H19 H 0.98740 0.73610 0.38530
C24 C 0.8416(6) 0.6567(5) 0.3261(2)
H20 H 0.88770 0.68880 0.29120
N1 N 0.6521(4) 0.5396(3) 0.26516(13)
N2 N 0.8669(6) 0.4523(5) 0.07901(16)
O1 O 0.6300(4) 0.2284(3) 0.16486(13)
O2 O 0.6411(4) 0.6622(3) 0.22807(11)
#END
