
#######################################################################
#
#                 Cambridge Crystallographic Data Centre
#                                CCDC
#
#######################################################################
#
# If this CIF has been generated from an entry in the Cambridge
# Structural Database, then it will include bibliographic, chemical,
# crystal, experimental, refinement or atomic coordinate data resulting
# from the CCDC's data processing and validation procedures.
#
#######################################################################

data_CSD_CIF_GAPPUL
_audit_creation_date 2017-03-13
_audit_creation_method CSD-ConQuest-V1
_database_code_CSD GAPPUL
_database_code_depnum_ccdc_archive 'CCDC 1524887'
_chemical_formula_sum 'C22 H27 N3 O4'
_chemical_formula_moiety
;
C22 H27 N3 O4
;
_journal_coden_Cambridge 1500
_journal_volume 7
_journal_year 2017
_journal_page_first 15997
_journal_name_full 'RSC Advances '
loop_
_publ_author_name
"Jiu-Lin Huang"
"Min Lv"
"Hui Xu"
_chemical_name_systematic
;
14-((4-nitrophenoxy)methylene)matridin-15-one
;
_cell_volume   1006.370
_exptl_crystal_colour 'colorless'
_exptl_crystal_density_diffrn 1.312
_exptl_special_details
;
tested for oral toxicity against Plutella xylostella and for growth 
inhibitory activity against Mythimna separata
;
_exptl_crystal_description 'block'
_diffrn_ambient_temperature 293
#These two values have been output from a single CSD field.
_refine_ls_R_factor_gt 0.0596
_refine_ls_wR_factor_gt 0.0596
_symmetry_cell_setting monoclinic
_symmetry_space_group_name_H-M 'P 21'
_symmetry_Int_Tables_number 4
loop_
_symmetry_equiv_pos_site_id
_symmetry_equiv_pos_as_xyz
1 x,y,z
2 -x,1/2+y,-z
_cell_length_a 8.8606(7)
_cell_length_b 9.8660(6)
_cell_length_c 12.1556(16)
_cell_angle_alpha 90
_cell_angle_beta 108.727(11)
_cell_angle_gamma 90
_cell_formula_units_Z 2
loop_
_atom_type_symbol
_atom_type_radius_bond
C 0.68
H 0.23
N 0.68
O 0.68
loop_
_atom_site_label
_atom_site_type_symbol
_atom_site_fract_x
_atom_site_fract_y
_atom_site_fract_z
O1 O -0.0205(4) -0.5515(4) -0.1422(4)
C1 C 0.1333(6) -0.4935(6) 0.0505(5)
O2 O 0.2165(5) -0.7165(4) 0.0177(4)
C2 C 0.2526(7) -0.6019(6) 0.0611(5)
N1 N 0.8003(6) -0.5243(6) 0.3258(4)
C3 C -0.1629(7) -0.5378(6) -0.2311(5)
C4 C -0.4339(8) -0.5376(7) -0.4172(6)
C5 C 0.0060(7) -0.4751(6) -0.0429(5)
H1 H -0.06740 -0.40850 -0.04120
N2 N 0.4047(5) -0.5703(4) 0.1250(4)
C6 C 0.6785(8) -0.6334(6) 0.1357(6)
H2 H 0.65470 -0.61610 0.05250
O3 O -0.5986(7) -0.6256(6) -0.5908(5)
C7 C -0.4288(8) -0.4656(7) -0.3228(7)
H3 H -0.51720 -0.41600 -0.32110
N3 N -0.5826(8) -0.5402(8) -0.5161(6)
C8 C 0.7424(7) -0.5024(7) 0.1997(5)
H4 H 0.83150 -0.47070 0.17520
C9 C 0.1685(7) -0.3963(6) 0.1485(5)
H5 H 0.16940 -0.44260 0.21910
H6 H 0.08790 -0.32580 0.13190
C10 C 0.6772(8) -0.2630(7) 0.2312(6)
H7 H 0.59380 -0.19490 0.21470
H8 H 0.76160 -0.22920 0.20390
C11 C 0.4601(6) -0.4433(5) 0.1907(5)
H9 H 0.48840 -0.46460 0.27360
C12 C -0.1694(8) -0.6068(7) -0.3302(6)
H10 H -0.07960 -0.65230 -0.33470
C13 C 0.7425(8) -0.2878(7) 0.3620(6)
H11 H 0.79020 -0.20520 0.40120
H12 H 0.65610 -0.31330 0.39060
C14 C -0.3083(9) -0.6094(7) -0.4238(6)
H13 H -0.31470 -0.65970 -0.48980
O4 O -0.6865(8) -0.4586(7) -0.5165(6)
C15 C 0.5243(8) -0.6768(6) 0.1551(6)
H14 H 0.48270 -0.75650 0.10840
H15 H 0.54630 -0.70130 0.23600
C16 C 0.8653(9) -0.3990(8) 0.3882(6)
H16 H 0.95600 -0.36960 0.36610
H17 H 0.90230 -0.41660 0.47110
C17 C 0.3310(7) -0.3350(6) 0.1629(6)
H18 H 0.35620 -0.26870 0.22510
H19 H 0.32810 -0.28870 0.09190
C18 C 0.6108(7) -0.3928(6) 0.1681(5)
H20 H 0.58300 -0.37510 0.08460
C19 C 0.9264(8) -0.6260(8) 0.3560(6)
H21 H 0.96540 -0.63690 0.43970
H22 H 1.01430 -0.59410 0.33160
C20 C 0.8048(9) -0.7458(8) 0.1699(6)
H23 H 0.75740 -0.83080 0.13570
H24 H 0.89050 -0.72440 0.13930
C21 C -0.2897(9) -0.4653(7) -0.2266(6)
H25 H -0.28480 -0.41570 -0.16050
C22 C 0.8720(9) -0.7615(8) 0.3007(7)
H26 H 0.79100 -0.79840 0.33010
H27 H 0.96120 -0.82410 0.32020
#END
