
#######################################################################
#
#                 Cambridge Crystallographic Data Centre
#                                CCDC
#
#######################################################################
#
# If this CIF has been generated from an entry in the Cambridge
# Structural Database, then it will include bibliographic, chemical,
# crystal, experimental, refinement or atomic coordinate data resulting
# from the CCDC's data processing and validation procedures.
#
#######################################################################

data_CSD_CIF_GAQCUY
_audit_creation_date 2012-04-10
_audit_creation_method CSD-ConQuest-V1
_database_code_CSD GAQCUY
_database_code_depnum_ccdc_archive 'CCDC 868118'
_chemical_formula_sum 'C15 H18 N4 O7'
_chemical_formula_moiety
;
C15 H18 N4 O7
;
_journal_coeditor_code "IUCr NC2263"
_journal_coden_Cambridge 1370
_journal_volume 68
_journal_year 2012
_journal_page_first o376
_journal_name_full 'Acta Crystallogr.,Sect.E:Struct.Rep.Online '
loop_
_publ_author_name
"Chao Gao"
"Ying Xiong"
"Yong Xia"
"Luo-Ting Yu"
_chemical_name_systematic
;
Morpholin-4-yl(2-(morpholin-4-yl)-3,5-dinitrophenyl)methanone
;
_cell_volume   1678.403
_exptl_crystal_colour 'yellow'
_exptl_crystal_density_diffrn 1.45
_exptl_crystal_description 'block'
_exptl_crystal_preparation 'acetonitrile'
_diffrn_ambient_temperature 293.1
#These two values have been output from a single CSD field.
_refine_ls_R_factor_gt 0.0444
_refine_ls_wR_factor_gt 0.0444
_symmetry_cell_setting monoclinic
_symmetry_space_group_name_H-M 'P 21/c'
_symmetry_Int_Tables_number 14
loop_
_symmetry_equiv_pos_site_id
_symmetry_equiv_pos_as_xyz
1 x,y,z
2 -x,1/2+y,1/2-z
3 -x,-y,-z
4 x,-1/2-y,-1/2+z
_cell_length_a 10.2640(4)
_cell_length_b 21.5488(7)
_cell_length_c 8.0061(3)
_cell_angle_alpha 90
_cell_angle_beta 108.587(4)
_cell_angle_gamma 90
_cell_formula_units_Z 4
loop_
_atom_type_symbol
_atom_type_radius_bond
C 0.68
H 0.23
N 0.68
O 0.68
loop_
_atom_site_label
_atom_site_type_symbol
_atom_site_fract_x
_atom_site_fract_y
_atom_site_fract_z
O1 O 0.38171(14) 0.03743(7) 0.58276(17)
O2 O 0.58939(14) 0.11924(7) 0.02632(18)
O3 O 0.27069(12) 0.25026(6) 0.21720(17)
O4 O -0.13992(17) 0.22884(9) -0.4060(2)
O5 O -0.30029(15) 0.16911(8) -0.38749(19)
O6 O -0.11367(15) 0.07133(8) 0.3247(2)
O7 O -0.17948(18) 0.01161(7) 0.0962(2)
N1 N -0.18359(16) 0.18932(8) -0.3309(2)
N2 N -0.12006(16) 0.05713(8) 0.1748(2)
N3 N 0.17106(14) 0.09335(6) 0.30645(17)
N4 N 0.36454(13) 0.17369(6) 0.09991(17)
C1 C -0.09372(17) 0.16569(8) -0.1628(2)
C2 C -0.14151(17) 0.12014(8) -0.0794(2)
H1 H -0.22910 0.10360 -0.12890
C3 C -0.05571(17) 0.09943(8) 0.0810(2)
C4 C 0.07972(16) 0.12074(7) 0.1600(2)
C5 C 0.12146(16) 0.16958(7) 0.0703(2)
C6 C 0.03563(17) 0.19131(8) -0.0891(2)
H2 H 0.06480 0.22320 -0.14710
C7 C 0.25205(19) 0.12947(9) 0.4592(2)
H3 H 0.20590 0.13020 0.54760
H4 H 0.26130 0.17190 0.42380
C8 C 0.3922(2) 0.10043(11) 0.5348(3)
H5 H 0.44020 0.10240 0.44850
H6 H 0.44510 0.12360 0.63790
C9 C 0.3045(2) 0.00286(10) 0.4328(3)
H7 H 0.29900 -0.04000 0.46680
H8 H 0.35150 0.00370 0.34520
C10 C 0.16127(19) 0.02827(8) 0.3529(3)
H9 H 0.11250 0.00470 0.24850
H10 H 0.11100 0.02490 0.43660
C11 C 0.25990(16) 0.20097(8) 0.1370(2)
C12 C 0.49371(17) 0.20777(9) 0.1316(3)
H11 H 0.50830 0.23480 0.23290
H12 H 0.48860 0.23340 0.03010
C13 C 0.61214(19) 0.16320(11) 0.1647(3)
H13 H 0.69570 0.18620 0.17540
H14 H 0.62460 0.14160 0.27490
C14 C 0.4726(2) 0.08302(9) 0.0182(3)
H15 H 0.48710 0.06250 0.13050
H16 H 0.46030 0.05130 -0.07140
C15 C 0.34554(18) 0.12219(8) -0.0241(2)
H17 H 0.32400 0.13830 -0.14290
H18 H 0.26880 0.09680 -0.01890
#END
