
#######################################################################
#
#                 Cambridge Crystallographic Data Centre
#                                CCDC
#
#######################################################################
#
# If this CIF has been generated from an entry in the Cambridge
# Structural Database, then it will include bibliographic, chemical,
# crystal, experimental, refinement or atomic coordinate data resulting
# from the CCDC's data processing and validation procedures.
#
#######################################################################

data_CSD_CIF_GAQMAO
_audit_creation_date 2012-04-10
_audit_creation_method CSD-ConQuest-V1
_database_code_CSD GAQMAO
_database_code_depnum_ccdc_archive 'CCDC 868154'
_chemical_formula_sum 'C15 H15 N5 O2'
_chemical_formula_moiety
;
C15 H15 N5 O2
;
_journal_coeditor_code "IUCr KP2378"
_journal_coden_Cambridge 1370
_journal_volume 68
_journal_year 2012
_journal_page_first o425
_journal_name_full 'Acta Crystallogr.,Sect.E:Struct.Rep.Online '
loop_
_publ_author_name
"K.G.von Eschwege"
"E.C.Hosten"
"A.Muller"
_chemical_name_systematic
;
1-(2-Methyl(nitro)benzenecarbohydrazonoyl)-2-(2-methylphenyl)diazene
;
_chemical_name_common
;
2-[(2-methylphenyl)amino]-3-[(2-methylphenyl)imino]-1,1-dioxoguanidine
;
_cell_volume   2890.643
_exptl_crystal_colour 'red'
_exptl_crystal_density_diffrn 1.366
_exptl_crystal_description 'needle'
_diffrn_ambient_temperature 200
_refine_special_details
;
O1A,O2A and O1B,O2B disordered over two sites with occupancies 0.75:0.25.

;
#These two values have been output from a single CSD field.
_refine_ls_R_factor_gt 0.0603
_refine_ls_wR_factor_gt 0.0603
_symmetry_cell_setting orthorhombic
_symmetry_space_group_name_H-M 'P b c a'
_symmetry_Int_Tables_number 61
loop_
_symmetry_equiv_pos_site_id
_symmetry_equiv_pos_as_xyz
1 x,y,z
2 1/2-x,-y,1/2+z
3 1/2+x,1/2-y,-z
4 -x,1/2+y,1/2-z
5 -x,-y,-z
6 -1/2+x,y,-1/2-z
7 -1/2-x,-1/2+y,z
8 x,-1/2-y,-1/2+z
_cell_length_a 14.6525(3)
_cell_length_b 10.2523(3)
_cell_length_c 19.2425(4)
_cell_angle_alpha 90
_cell_angle_beta 90
_cell_angle_gamma 90
_cell_formula_units_Z 8
loop_
_atom_type_symbol
_atom_type_radius_bond
C 0.68
H 0.23
N 0.68
O 0.68
loop_
_atom_site_label
_atom_site_type_symbol
_atom_site_fract_x
_atom_site_fract_y
_atom_site_fract_z
N1 N 0.26169(12) 0.01378(16) 0.07679(8)
H1 H 0.22520 0.06630 0.09990
N2 N 0.34854(12) 0.01558(17) 0.08281(8)
N3 N 0.35427(11) 0.19544(16) 0.16744(8)
N4 N 0.26631(10) 0.21162(16) 0.17126(8)
N5 N 0.48561(13) 0.0936(2) 0.12737(11)
O1 O 0.5222(5) -0.0056(8) 0.1083(9)
O2 O 0.5302(5) 0.1873(10) 0.1454(10)
C1 C 0.07297(15) -0.0431(3) 0.07535(13)
H2 H 0.09200 -0.05570 0.12370
H3 H 0.01180 -0.07970 0.06870
H4 H 0.07200 0.05030 0.06460
C2 C 0.13763(15) -0.1095(2) 0.02891(10)
C3 C 0.10754(17) -0.2092(2) -0.01616(11)
H5 H 0.04480 -0.23270 -0.01620
C4 C 0.16569(18) -0.2723(2) -0.05938(12)
H6 H 0.14360 -0.33920 -0.08910
C5 C 0.25748(19) -0.2394(2) -0.06022(12)
H7 H 0.29780 -0.28220 -0.09150
C6 C 0.28997(16) -0.1465(2) -0.01666(11)
H8 H 0.35300 -0.12510 -0.01690
C7 C 0.22993(15) -0.0819(2) 0.02888(10)
C8 C 0.38492(13) 0.1033(2) 0.12568(9)
C9 C 0.23522(12) 0.30827(18) 0.21773(9)
C10 C 0.29585(14) 0.3870(2) 0.25478(10)
H9 H 0.35980 0.37510 0.24960
C11 C 0.26305(16) 0.4823(2) 0.29902(10)
H10 H 0.30430 0.53670 0.32380
C12 C 0.16987(16) 0.4981(2) 0.30707(11)
H11 H 0.14690 0.56320 0.33750
C13 C 0.11046(15) 0.4192(2) 0.27091(11)
H12 H 0.04670 0.43100 0.27710
C14 C 0.14087(13) 0.3228(2) 0.22551(10)
C15 C 0.07500(14) 0.2388(3) 0.18674(14)
H13 H 0.01250 0.26190 0.20010
H14 H 0.08640 0.14700 0.19800
H15 H 0.08290 0.25230 0.13670
H16? H 0.22830 0.16480 0.14620
O3? O 0.512(2) 0.012(3) 0.087(2)
O4? O 0.5218(19) 0.155(4) 0.172(2)
#END
