
#######################################################################
#
#                 Cambridge Crystallographic Data Centre
#                                CCDC
#
#######################################################################
#
# If this CIF has been generated from an entry in the Cambridge
# Structural Database, then it will include bibliographic, chemical,
# crystal, experimental, refinement or atomic coordinate data resulting
# from the CCDC's data processing and validation procedures.
#
#######################################################################

data_CSD_CIF_GAQXED
_audit_creation_date 2012-03-05
_audit_creation_method CSD-ConQuest-V1
_database_code_CSD GAQXED
_database_code_depnum_ccdc_archive 'CCDC 868200'
_chemical_formula_sum 'C7 H6 N2 O4'
_chemical_formula_moiety
;
C7 H6 N2 O4
;
_journal_coeditor_code "IUCr QM2050"
_journal_coden_Cambridge 1370
_journal_volume 68
_journal_year 2012
_journal_page_first o488
_journal_name_full 'Acta Crystallogr.,Sect.E:Struct.Rep.Online '
loop_
_publ_author_name
"Yip-Foo Win"
"Chen-Shang Choong"
"Siang-Guan Teoh"
"Ching Kheng Quah"
"Hoong-Kun Fun"
_chemical_name_systematic
;
2-Amino-3-nitrobenzoic acid
;
_cell_volume    739.961
_exptl_crystal_colour 'orange'
_exptl_crystal_density_diffrn 1.635
_exptl_crystal_description 'block'
_diffrn_ambient_temperature 100
#These two values have been output from a single CSD field.
_refine_ls_R_factor_gt 0.042
_refine_ls_wR_factor_gt 0.042
_symmetry_cell_setting monoclinic
_symmetry_space_group_name_H-M 'P 21/c'
_symmetry_Int_Tables_number 14
loop_
_symmetry_equiv_pos_site_id
_symmetry_equiv_pos_as_xyz
1 x,y,z
2 -x,1/2+y,1/2-z
3 -x,-y,-z
4 x,-1/2-y,-1/2+z
_cell_length_a 9.0231(3)
_cell_length_b 7.4338(2)
_cell_length_c 11.0392(4)
_cell_angle_alpha 90
_cell_angle_beta 92.114(1)
_cell_angle_gamma 90
_cell_formula_units_Z 4
loop_
_atom_type_symbol
_atom_type_radius_bond
C 0.68
H 0.23
N 0.68
O 0.68
loop_
_atom_site_label
_atom_site_type_symbol
_atom_site_fract_x
_atom_site_fract_y
_atom_site_fract_z
O1 O 1.00882(10) 0.85440(11) 0.40698(8)
O2 O 0.99701(8) 0.6146(1) 0.29827(6)
O3 O 0.62645(7) 0.11784(9) 0.43650(6)
O4 O 0.51199(8) 0.18983(10) 0.60595(6)
N1 N 0.95660(8) 0.7051(1) 0.38522(6)
N2 N 0.81247(9) 0.35687(11) 0.34730(7)
C1 C 0.64687(9) 0.51128(12) 0.62950(7)
H1 H 0.57840 0.46970 0.68650
C2 C 0.71159(10) 0.67982(12) 0.64617(8)
H2 H 0.68700 0.75280 0.71310
C3 C 0.81229(9) 0.73922(12) 0.56356(7)
H3 H 0.85790 0.85360 0.57420
C4 C 0.84738(9) 0.63239(11) 0.46482(7)
C5 C 0.78217(8) 0.45981(11) 0.44292(7)
C6 C 0.67970(9) 0.40152(11) 0.53140(7)
C7 C 0.60572(9) 0.22530(11) 0.51976(7)
H4 H 0.8797(19) 0.393(2) 0.2953(15)
H5 H 0.7714(18) 0.251(2) 0.3400(14)
H6 H 0.471(2) 0.092(3) 0.5901(16)
#END
