
#######################################################################
#
#                 Cambridge Crystallographic Data Centre
#                                CCDC
#
#######################################################################
#
# If this CIF has been generated from an entry in the Cambridge
# Structural Database, then it will include bibliographic, chemical,
# crystal, experimental, refinement or atomic coordinate data resulting
# from the CCDC's data processing and validation procedures.
#
#######################################################################

data_CSD_CIF_GARCUZ
_audit_creation_date 2012-03-13
_audit_creation_method CSD-ConQuest-V1
_database_code_CSD GARCUZ
_database_code_depnum_ccdc_archive 'CCDC 868223'
_chemical_formula_sum 'C7 H7 N1 O3'
_chemical_formula_moiety
;
C7 H7 N1 O3
;
_journal_coeditor_code "IUCr PV2508"
_journal_coden_Cambridge 1370
_journal_volume 68
_journal_year 2012
_journal_page_first o518
_journal_name_full 'Acta Crystallogr.,Sect.E:Struct.Rep.Online '
loop_
_publ_author_name
"Su-Lan Dong"
"Xiaochun Cheng"
_chemical_name_systematic
;
3-Methyl-4-nitrophenol
;
_cell_volume    707.505
_exptl_crystal_colour 'colorless'
_exptl_crystal_density_diffrn 1.438
_exptl_crystal_description 'block'
_diffrn_ambient_temperature 296
#These two values have been output from a single CSD field.
_refine_ls_R_factor_gt 0.0433
_refine_ls_wR_factor_gt 0.0433
_symmetry_cell_setting monoclinic
_symmetry_space_group_name_H-M 'P 21/c'
_symmetry_Int_Tables_number 14
loop_
_symmetry_equiv_pos_site_id
_symmetry_equiv_pos_as_xyz
1 x,y,z
2 -x,1/2+y,1/2-z
3 -x,-y,-z
4 x,-1/2-y,-1/2+z
_cell_length_a 7.2993(14)
_cell_length_b 13.023(3)
_cell_length_c 7.4445(16)
_cell_angle_alpha 90
_cell_angle_beta 91.217(4)
_cell_angle_gamma 90
_cell_formula_units_Z 4
loop_
_atom_type_symbol
_atom_type_radius_bond
C 0.68
H 0.23
N 0.68
O 0.68
loop_
_atom_site_label
_atom_site_type_symbol
_atom_site_fract_x
_atom_site_fract_y
_atom_site_fract_z
O1 O 1.09340(18) 0.37232(10) 0.0133(2)
H1 H 1.16350 0.33010 -0.02930
C1 C 0.9309(2) 0.21737(13) 0.0839(2)
H2 H 1.02950 0.17790 0.04760
C2 C 0.6322(2) 0.23242(13) 0.1996(2)
C3 C 0.8008(3) 0.38512(14) 0.1339(2)
H3 H 0.81010 0.45630 0.13030
C4 C 0.6461(2) 0.33913(14) 0.1958(2)
H4 H 0.54970 0.37920 0.23560
C5 C 0.7737(3) 0.05198(14) 0.1483(3)
H5 H 0.73910 0.02880 0.26520
H6 H 0.89400 0.02680 0.12260
H7 H 0.68770 0.02660 0.05970
C6 C 0.7745(2) 0.16801(13) 0.1442(2)
C7 C 0.9445(2) 0.32372(14) 0.0763(2)
N1 N 0.4618(2) 0.19093(13) 0.2651(2)
O2 O 0.3574(2) 0.24929(12) 0.3445(2)
O3 O 0.4233(2) 0.10112(12) 0.2411(3)
#END
