
#######################################################################
#
#                 Cambridge Crystallographic Data Centre
#                                CCDC
#
#######################################################################
#
# If this CIF has been generated from an entry in the Cambridge
# Structural Database, then it will include bibliographic, chemical,
# crystal, experimental, refinement or atomic coordinate data resulting
# from the CCDC's data processing and validation procedures.
#
#######################################################################

data_CSD_CIF_GARDIO
_audit_creation_date 2012-03-13
_audit_creation_method CSD-ConQuest-V1
_database_code_CSD GARDIO
_database_code_depnum_ccdc_archive 'CCDC 868226'
_chemical_formula_sum 'C28 H32 N2 O3'
_chemical_formula_moiety
;
C28 H32 N2 O3
;
_journal_coeditor_code "IUCr BQ2334"
_journal_coden_Cambridge 1370
_journal_volume 68
_journal_year 2012
_journal_page_first o524
_journal_name_full 'Acta Crystallogr.,Sect.E:Struct.Rep.Online '
loop_
_publ_author_name
"D.H.Park"
"V.Ramkumar"
"P.Parthiban"
_chemical_name_systematic
;
2,6-bis(4-methoxyphenyl)-1,3-dimethylpiperidin-4-one O-benzyloxime
;
_chemical_name_common
;
N-(Benzyloxy)-2,6-bis(4-methoxyphenyl)-1,3-dimethylpiperidin-4-imine
;
_cell_volume   2494.655
_exptl_crystal_colour 'colorless'
_exptl_crystal_density_diffrn 1.184
_exptl_crystal_description 'needle'
_diffrn_ambient_temperature 298
#These two values have been output from a single CSD field.
_refine_ls_R_factor_gt 0.048
_refine_ls_wR_factor_gt 0.048
_symmetry_cell_setting monoclinic
_symmetry_space_group_name_H-M 'P 21/n'
_symmetry_Int_Tables_number 14
loop_
_symmetry_equiv_pos_site_id
_symmetry_equiv_pos_as_xyz
1 x,y,z
2 1/2-x,1/2+y,1/2-z
3 -x,-y,-z
4 -1/2+x,-1/2-y,-1/2+z
_cell_length_a 16.674(5)
_cell_length_b 19.819(8)
_cell_length_c 7.549(1)
_cell_angle_alpha 90
_cell_angle_beta 90.080(5)
_cell_angle_gamma 90
_cell_formula_units_Z 4
loop_
_atom_type_symbol
_atom_type_radius_bond
C 0.68
H 0.23
N 0.68
O 0.68
loop_
_atom_site_label
_atom_site_type_symbol
_atom_site_fract_x
_atom_site_fract_y
_atom_site_fract_z
C1 C 0.44194(8) 0.16166(7) 0.11676(18)
H1 H 0.49450 0.15890 0.05920
C2 C 0.4466(1) 0.12323(7) 0.29407(19)
H2 H 0.39200 0.12140 0.34190
C3 C 0.49689(9) 0.16058(7) 0.42603(19)
C4 C 0.47747(11) 0.23373(8) 0.4419(2)
H3 H 0.51600 0.25540 0.51950
H4 H 0.42460 0.23910 0.49330
C5 C 0.47965(9) 0.26701(7) 0.2596(2)
H5 H 0.53350 0.26110 0.21010
C6 C 0.38096(8) 0.12780(7) -0.00204(18)
C7 C 0.30053(9) 0.12442(8) 0.0456(2)
H6 H 0.28370 0.14510 0.14960
C8 C 0.24547(9) 0.09114(9) -0.0577(2)
H7 H 0.19210 0.08910 -0.02280
C9 C 0.26938(10) 0.06092(8) -0.2127(2)
C10 C 0.34798(10) 0.06385(9) -0.2638(2)
H8 H 0.36430 0.04350 -0.36870
C11 C 0.40321(9) 0.09731(9) -0.1580(2)
H9 H 0.45660 0.09920 -0.19340
C12 C 0.23105(18) -0.00445(16) -0.4616(4)
H10 H 0.24810 0.02760 -0.54910
H11 H 0.18560 -0.02910 -0.50540
H12 H 0.27400 -0.03530 -0.43670
C13 C 0.42251(12) 0.26663(9) -0.0327(2)
H13 H 0.40640 0.31290 -0.01990
H14 H 0.38600 0.24380 -0.11090
H15 H 0.47570 0.26480 -0.08100
C14 C 0.46296(9) 0.34154(7) 0.27568(19)
C15 C 0.38889(9) 0.36556(8) 0.3302(2)
H16 H 0.34860 0.33510 0.35940
C16 C 0.37405(10) 0.43351(8) 0.3418(2)
H17 H 0.32380 0.44860 0.37740
C17 C 0.4334(1) 0.47954(7) 0.3007(2)
C18 C 0.50806(10) 0.45703(8) 0.2520(2)
H18 H 0.54880 0.48760 0.22730
C19 C 0.52203(9) 0.38844(8) 0.2399(2)
H19 H 0.57270 0.37340 0.20670
C20 C 0.46999(14) 0.59501(9) 0.2670(3)
H20 H 0.51440 0.59140 0.34740
H21 H 0.44680 0.63920 0.27620
H22 H 0.48830 0.58770 0.14800
C21 C 0.64597(11) 0.13411(9) 0.7318(3)
H23 H 0.69080 0.12530 0.65350
H24 H 0.62470 0.09120 0.77190
C22 C 0.67301(9) 0.17495(8) 0.8864(2)
C23 C 0.68344(12) 0.14580(12) 1.0497(3)
H25 H 0.67300 0.10010 1.06650
C24 C 0.71023(16) 0.18628(18) 1.1919(3)
H26 H 0.71750 0.16730 1.30340
C25 C 0.72539(15) 0.25289(17) 1.1660(4)
H27 H 0.74370 0.27920 1.25970
C26 C 0.71426(14) 0.28085(13) 1.0079(4)
H28 H 0.72390 0.32670 0.99210
C27 C 0.68888(12) 0.24268(10) 0.8690(3)
H29 H 0.68210 0.26300 0.75890
C28 C 0.47333(13) 0.05063(8) 0.2641(2)
H30 H 0.52630 0.05030 0.21420
H31 H 0.43680 0.02880 0.18410
H32 H 0.47380 0.02700 0.37510
N1 N 0.42166(7) 0.23357(6) 0.14133(16)
N2 N 0.54935(8) 0.12812(7) 0.51302(17)
O1 O 0.20983(8) 0.02954(9) -0.3066(2)
O2 O 0.41151(8) 0.54589(6) 0.31036(17)
O3 O 0.58612(7) 0.17071(6) 0.64134(15)
#END
