
#######################################################################
#
#                 Cambridge Crystallographic Data Centre
#                                CCDC
#
#######################################################################
#
# If this CIF has been generated from an entry in the Cambridge
# Structural Database, then it will include bibliographic, chemical,
# crystal, experimental, refinement or atomic coordinate data resulting
# from the CCDC's data processing and validation procedures.
#
#######################################################################

data_CSD_CIF_GARMET
_audit_creation_date 2012-03-13
_audit_creation_method CSD-ConQuest-V1
_database_code_CSD GARMET
_database_code_depnum_ccdc_archive 'CCDC 847467'
_chemical_formula_sum 'C17 H18 N2 O3'
_chemical_formula_moiety
;
C17 H18 N2 O3
;
_journal_coeditor_code "IUCr HG5155"
_journal_coden_Cambridge 1370
_journal_volume 68
_journal_year 2012
_journal_page_first o429
_journal_name_full 'Acta Crystallogr.,Sect.E:Struct.Rep.Online '
loop_
_publ_author_name
"Li Zhao"
"Xu-Tao Dong"
"Si-Jia Xing"
"Qian Cheng"
"Ji-Xing Zhao"
_chemical_name_systematic
;
1-(4-([(E)-3-Ethoxy-2-hydroxybenzylidene]amino)phenyl)-ethanone oxime
;
_chemical_name_common
;
2-Ethoxy-6-(((4-(N-hydroxyethanimidoyl)phenyl)imino)-methyl)phenol
;
_cell_volume    745.035
_exptl_crystal_colour 'yellow'
_exptl_crystal_density_diffrn 1.33
_exptl_crystal_description 'prism'
_diffrn_ambient_temperature 298
#These two values have been output from a single CSD field.
_refine_ls_R_factor_gt 0.0679
_refine_ls_wR_factor_gt 0.0679
_symmetry_cell_setting triclinic
_symmetry_space_group_name_H-M 'P -1'
_symmetry_Int_Tables_number 2
loop_
_symmetry_equiv_pos_site_id
_symmetry_equiv_pos_as_xyz
1 x,y,z
2 -x,-y,-z
_cell_length_a 7.0556(7)
_cell_length_b 7.4852(9)
_cell_length_c 14.7821(16)
_cell_angle_alpha 96.890(1)
_cell_angle_beta 98.762(1)
_cell_angle_gamma 102.105(2)
_cell_formula_units_Z 2
loop_
_atom_type_symbol
_atom_type_radius_bond
C 0.68
H 0.23
N 0.68
O 0.68
loop_
_atom_site_label
_atom_site_type_symbol
_atom_site_fract_x
_atom_site_fract_y
_atom_site_fract_z
N1 N 0.3517(4) 0.5142(4) 0.91196(19)
N2 N 0.4699(4) 0.7402(4) 0.51348(18)
O1 O 0.2676(4) 0.4614(4) 0.98854(17)
H1 H 0.35480 0.45250 1.03010
O2 O 0.3342(3) 0.8040(3) 0.35234(16)
H2 H 0.33080 0.77830 0.40460
O3 O 0.3898(3) 0.8888(4) 0.19161(16)
C1 C 0.0075(5) 0.5044(6) 0.8478(3)
H3 H -0.01320 0.48610 0.90900
H4 H -0.06580 0.39800 0.80410
H5 H -0.03620 0.61200 0.83250
C2 C 0.2226(5) 0.5310(5) 0.8443(2)
C3 C 0.2949(5) 0.5820(4) 0.7593(2)
C4 C 0.4926(5) 0.6169(5) 0.7524(2)
H6 H 0.58440 0.60420 0.80200
C5 C 0.5573(5) 0.6699(5) 0.6740(2)
H7 H 0.69130 0.69370 0.67200
C6 C 0.4246(5) 0.6879(4) 0.5984(2)
C7 C 0.2268(5) 0.6483(5) 0.6030(2)
H8 H 0.13520 0.65610 0.55220
C8 C 0.1624(5) 0.5971(5) 0.6820(2)
H9 H 0.02820 0.57240 0.68360
C9 C 0.6452(5) 0.7803(4) 0.4955(2)
H10 H 0.75140 0.77660 0.54040
C10 C 0.6814(5) 0.8313(4) 0.4067(2)
C11 C 0.5221(5) 0.8398(4) 0.3389(2)
C12 C 0.5558(5) 0.8854(5) 0.2518(2)
C13 C 0.7458(5) 0.9199(5) 0.2339(2)
H11 H 0.76820 0.94880 0.17640
C14 C 0.9048(5) 0.9119(5) 0.3015(2)
H12 H 1.03210 0.93600 0.28900
C15 C 0.8720(5) 0.8682(5) 0.3863(2)
H13 H 0.97810 0.86300 0.43090
C16 C 0.4125(5) 0.9423(5) 0.1031(2)
H14 H 0.45860 0.85010 0.06590
H15 H 0.50700 1.06010 0.11090
C17 C 0.2127(6) 0.9575(7) 0.0572(3)
H16 H 0.12280 0.83830 0.04660
H17 H 0.22200 1.00060 -0.00090
H18 H 0.16550 1.04330 0.09660
#END
