
#######################################################################
#
#                 Cambridge Crystallographic Data Centre
#                                CCDC
#
#######################################################################
#
# If this CIF has been generated from an entry in the Cambridge
# Structural Database, then it will include bibliographic, chemical,
# crystal, experimental, refinement or atomic coordinate data resulting
# from the CCDC's data processing and validation procedures.
#
#######################################################################

data_CSD_CIF_GARWII
_audit_creation_date 2017-03-15
_audit_creation_method CSD-ConQuest-V1
_database_code_CSD GARWII
_database_code_depnum_ccdc_archive 'CCDC 1522778'
_chemical_formula_sum 'C17 H16 N2 O5'
_chemical_formula_moiety
;
C17 H16 N2 O5
;
_journal_coden_Cambridge 179
_journal_volume 56
_journal_year 2017
_journal_page_first 4183
_journal_name_full 'Angew.Chem.,Int.Ed. '
loop_
_publ_author_name
"P.T.G.Rabet"
"S.Boyd"
"M.F.Greaney"
_chemical_name_systematic
;
methyl 3-amino-3-(4-methoxyphenyl)-2-(4-nitrophenyl)acrylate
;
_chemical_melting_point 369
_cell_volume   1535.753
_exptl_crystal_colour 'white'
_exptl_crystal_density_diffrn 1.42
_exptl_special_details
;
Melting point range 369-371K

;
_exptl_crystal_description 'block'
_exptl_crystal_preparation 'dichloromethane'
_diffrn_ambient_temperature 150
#These two values have been output from a single CSD field.
_refine_ls_R_factor_gt 0.0378
_refine_ls_wR_factor_gt 0.0378
_symmetry_cell_setting monoclinic
_symmetry_space_group_name_H-M 'P 21/n'
_symmetry_Int_Tables_number 14
loop_
_symmetry_equiv_pos_site_id
_symmetry_equiv_pos_as_xyz
1 x,y,z
2 1/2-x,1/2+y,1/2-z
3 -x,-y,-z
4 -1/2+x,-1/2-y,-1/2+z
_cell_length_a 11.4060(4)
_cell_length_b 9.3669(4)
_cell_length_c 14.3848(5)
_cell_angle_alpha 90
_cell_angle_beta 92.171(2)
_cell_angle_gamma 90
_cell_formula_units_Z 4
loop_
_atom_type_symbol
_atom_type_radius_bond
C 0.68
H 0.23
N 0.68
O 0.68
loop_
_atom_site_label
_atom_site_type_symbol
_atom_site_fract_x
_atom_site_fract_y
_atom_site_fract_z
C1 C 0.37319(12) 0.81770(16) 0.40435(11)
C2 C 0.45756(13) 0.72831(18) 0.44456(10)
H1 H 0.48550 0.74240 0.50690
C3 C 0.49995(12) 0.61823(17) 0.39155(11)
H2 H 0.55670 0.55480 0.41840
C4 C 0.46091(11) 0.59817(15) 0.29896(10)
C5 C 0.37480(12) 0.68956(16) 0.26164(10)
H3 H 0.34660 0.67620 0.19930
C6 C 0.32984(12) 0.79922(16) 0.31378(11)
H4 H 0.27060 0.86050 0.28820
C7 C 0.50902(11) 0.47846(15) 0.24345(10)
C8 C 0.47388(12) 0.33789(16) 0.27593(10)
C9 C 0.46709(14) 0.08922(17) 0.25143(12)
H5 H 0.50550 0.06520 0.31150
H6 H 0.48680 0.01710 0.20520
H7 H 0.38190 0.09150 0.25790
C10 C 0.57834(11) 0.50329(15) 0.16869(10)
C11 C 0.61125(11) 0.65132(16) 0.14117(10)
C12 C 0.66461(12) 0.74680(17) 0.20443(10)
H8 H 0.67940 0.71840 0.26720
C13 C 0.69583(12) 0.88186(17) 0.17636(11)
H9 H 0.73200 0.94580 0.21990
C14 C 0.67471(12) 0.92543(16) 0.08444(11)
C15 C 0.62338(12) 0.83125(17) 0.02048(10)
H10 H 0.60950 0.85960 -0.04240
C16 C 0.59234(13) 0.69485(17) 0.04925(10)
H11 H 0.55760 0.63030 0.00530
C17 C 0.70591(15) 1.10351(19) -0.03084(12)
H12 H 0.75100 1.03380 -0.06560
H13 H 0.74170 1.19810 -0.03630
H14 H 0.62500 1.10650 -0.05630
N1 N 0.32802(12) 0.93523(15) 0.45987(10)
N2 N 0.62366(11) 0.40149(15) 0.11372(9)
O1 O 0.36728(12) 0.95260(16) 0.53930(9)
O2 O 0.25097(12) 1.01174(14) 0.42446(10)
O3 O 0.41669(10) 0.31767(12) 0.34416(8)
O4 O 0.50691(9) 0.22753(12) 0.22154(8)
O5 O 0.70594(10) 1.06286(13) 0.06494(8)
H15 H 0.6102(16) 0.311(2) 0.1271(13)
H16 H 0.678(2) 0.430(3) 0.0727(16)
#END
