
#######################################################################
#
#                 Cambridge Crystallographic Data Centre
#                                CCDC
#
#######################################################################
#
# If this CIF has been generated from an entry in the Cambridge
# Structural Database, then it will include bibliographic, chemical,
# crystal, experimental, refinement or atomic coordinate data resulting
# from the CCDC's data processing and validation procedures.
#
#######################################################################

data_CSD_CIF_GASKER
_audit_creation_date 2005-12-08
_audit_creation_method CSD-ConQuest-V1
_database_code_CSD GASKER
_database_code_depnum_ccdc_archive 'CCDC 256013'
_chemical_formula_sum 'C21 H29 N1 O8'
_chemical_formula_moiety
;
C21 H29 N1 O8
;
_journal_coden_Cambridge 1090
_journal_volume 16
_journal_year 2005
_journal_page_first 2459
_journal_name_full 'Tetrahedron:Asymm. '
loop_
_publ_author_name
"G.Enderlin"
"C.Taillefumier"
"C.Didierjean"
"Y.Chapleur"
_chemical_name_systematic
;
Methyl 
(3R,4R,5S,7R,8R,9R)-8,9-isopropylidenedioxy-2-methyl-3-phenyl-7-((methoxymetho
xy)methyl)-1,6-dioxa-2-azaspiro(4.4)nonane-4-carboxylate
;
_chemical_melting_point 408.15
_cell_volume   2182.666
_exptl_crystal_colour 'colorless'
_exptl_crystal_density_diffrn 1.289
_exptl_crystal_description 'prism'
_diffrn_ambient_temperature 293
#These two values have been output from a single CSD field.
_refine_ls_R_factor_gt 0.0399
_refine_ls_wR_factor_gt 0.0399
_symmetry_cell_setting orthorhombic
_symmetry_space_group_name_H-M 'P 21 21 21'
_symmetry_Int_Tables_number 19
loop_
_symmetry_equiv_pos_site_id
_symmetry_equiv_pos_as_xyz
1 x,y,z
2 1/2-x,-y,1/2+z
3 1/2+x,1/2-y,-z
4 -x,1/2+y,1/2-z
_cell_length_a 10.6300(3)
_cell_length_b 13.2840(4)
_cell_length_c 15.4570(5)
_cell_angle_alpha 90
_cell_angle_beta 90
_cell_angle_gamma 90
_cell_formula_units_Z 4
loop_
_atom_type_symbol
_atom_type_radius_bond
C 0.68
H 0.23
N 0.68
O 0.68
loop_
_atom_site_label
_atom_site_type_symbol
_atom_site_fract_x
_atom_site_fract_y
_atom_site_fract_z
O1 O 0.73379(11) 0.12876(9) 0.39063(7)
N1 N 0.68634(16) 0.17478(11) 0.47034(9)
C1 C 0.60393(17) 0.25873(13) 0.44375(11)
H1 H 0.51690 0.23450 0.44220
C2 C 0.64637(15) 0.28213(12) 0.35013(10)
H2 H 0.57640 0.30990 0.31640
C3 C 0.67890(15) 0.17705(12) 0.31906(10)
O2 O 0.56470(11) 0.12891(9) 0.29366(8)
C4 C 0.59582(17) 0.04287(12) 0.24093(12)
H3 H 0.52770 0.03070 0.19950
C5 C 0.71414(18) 0.07313(13) 0.19198(12)
H4 H 0.77450 0.01760 0.18720
C6 C 0.76813(16) 0.16320(12) 0.24234(11)
H5 H 0.85530 0.15220 0.26060
C7 C 0.6157(3) 0.09608(17) 0.51478(15)
H6 H 0.67180 0.04280 0.53130
H7 H 0.55210 0.07000 0.47680
H8 H 0.57660 0.12370 0.56550
C8 C 0.61195(18) 0.34533(13) 0.50754(12)
C9 C 0.5084(2) 0.40613(17) 0.52019(17)
H9 H 0.43360 0.39230 0.49140
C10 C 0.5157(3) 0.48801(19) 0.57587(19)
H10 H 0.44570 0.52900 0.58370
C11 C 0.6239(3) 0.50868(17) 0.61888(16)
H11 H 0.62810 0.56400 0.65560
C12 C 0.7275(3) 0.44759(17) 0.60808(14)
H12 H 0.80130 0.46110 0.63820
C13 C 0.7217(2) 0.36594(16) 0.55215(13)
H13 H 0.79180 0.32500 0.54470
C14 C 0.75769(18) 0.35318(13) 0.34896(11)
O3 O 0.86556(13) 0.33018(11) 0.35744(10)
O4 O 0.71756(17) 0.44808(9) 0.34145(10)
C15 C 0.8118(3) 0.52468(18) 0.35541(18)
H14 H 0.77430 0.59000 0.34920
H15 H 0.87800 0.51700 0.31370
H16 H 0.84590 0.51790 0.41260
O5 O 0.75600(14) 0.24588(9) 0.18466(7)
C16 C 0.7443(2) 0.20699(15) 0.09936(12)
C17 C 0.6625(3) 0.2769(2) 0.04734(14)
H17 H 0.70460 0.34040 0.04030
H18 H 0.58420 0.28720 0.07700
H19 H 0.64670 0.24790 -0.00850
C18 C 0.8714(3) 0.1923(2) 0.05905(16)
H20 H 0.91220 0.25640 0.05280
H21 H 0.86190 0.16160 0.00320
H22 H 0.92150 0.14950 0.09540
O6 O 0.68094(17) 0.11391(12) 0.10947(8)
C19 C 0.6154(2) -0.05065(13) 0.29567(13)
H23 H 0.68810 -0.04250 0.33290
H24 H 0.54220 -0.06320 0.33150
O7 O 0.63450(14) -0.13170(9) 0.23703(9)
C20 C 0.6699(2) -0.22177(14) 0.27812(15)
H25 H 0.60670 -0.23900 0.32090
H26 H 0.67180 -0.27540 0.23550
O8 O 0.78650(15) -0.21655(11) 0.31844(9)
C21 C 0.8877(2) -0.2078(2) 0.25966(18)
H27 H 0.96550 -0.20460 0.29110
H28 H 0.87780 -0.14760 0.22590
H29 H 0.88870 -0.26520 0.22200
#END
