
#######################################################################
#
#                 Cambridge Crystallographic Data Centre
#                                CCDC
#
#######################################################################
#
# If this CIF has been generated from an entry in the Cambridge
# Structural Database, then it will include bibliographic, chemical,
# crystal, experimental, refinement or atomic coordinate data resulting
# from the CCDC's data processing and validation procedures.
#
#######################################################################

data_CSD_CIF_GASYEG
_audit_creation_date 2012-03-13
_audit_creation_method CSD-ConQuest-V1
_database_code_CSD GASYEG
_database_code_depnum_ccdc_archive 'CCDC 815107'
_chemical_formula_sum 'C16 H20 N2 O4'
_chemical_formula_moiety
;
C16 H20 N2 O4
;
_journal_coden_Cambridge 16
_journal_volume 67
_journal_year 2011
_journal_page_first 9433
_journal_name_full 'Tetrahedron '
loop_
_publ_author_name
"P.Lazny"
"L.Wolosewicz"
"P.Zielinska"
"Z.Urbanczyk-Lipkowska"
"P.Kalicki"
_chemical_name_systematic
;
2-(Hydroxy(4-nitrophenyl)methyl)-9-methyl-9-azabicyclo[3.3.1]nonan-3-one
;
_cell_volume    738.614
_exptl_crystal_colour 'colorless'
_exptl_crystal_density_diffrn 1.368
_diffrn_ambient_temperature 296
#These two values have been output from a single CSD field.
_refine_ls_R_factor_gt 0.0402
_refine_ls_wR_factor_gt 0.0402
_symmetry_cell_setting triclinic
_symmetry_space_group_name_H-M 'P -1'
_symmetry_Int_Tables_number 2
loop_
_symmetry_equiv_pos_site_id
_symmetry_equiv_pos_as_xyz
1 x,y,z
2 -x,-y,-z
_cell_length_a 6.2540(1)
_cell_length_b 7.2689(2)
_cell_length_c 17.5157(4)
_cell_angle_alpha 80.350(1)
_cell_angle_beta 89.170(1)
_cell_angle_gamma 70.369(1)
_cell_formula_units_Z 2
loop_
_atom_type_symbol
_atom_type_radius_bond
C 0.68
H 0.23
N 0.68
O 0.68
loop_
_atom_site_label
_atom_site_type_symbol
_atom_site_fract_x
_atom_site_fract_y
_atom_site_fract_z
N1 N 0.90248(17) 0.59085(16) 0.19657(6)
N2 N 0.4151(3) 0.6922(2) 0.58023(8)
O1 O 0.5211(3) 1.15494(19) 0.10962(7)
O2 O 0.93401(18) 0.88366(18) 0.27454(6)
O3 O 0.2127(3) 0.7403(2) 0.59149(9)
O4 O 0.5613(3) 0.5976(2) 0.63029(8)
C1 C 0.5857(2) 0.8831(2) 0.21317(7)
C2 C 0.6647(2) 0.65705(19) 0.22043(7)
C3 C 0.5077(3) 0.5866(3) 0.17570(9)
C4 C 0.5172(3) 0.6441(3) 0.0884(1)
C5 C 0.7629(3) 0.5778(3) 0.06457(9)
C6 C 0.9101(2) 0.6519(2) 0.11210(8)
C7 C 0.8442(3) 0.8773(3) 0.09571(9)
C8 C 0.6380(3) 0.9863(2) 0.13584(8)
C9 C 1.0210(3) 0.3797(2) 0.22358(12)
C10 C 0.6944(2) 0.9465(2) 0.27844(8)
C11 C 0.6207(2) 0.87497(18) 0.35783(7)
C12 C 0.7799(3) 0.7597(2) 0.41597(8)
C13 C 0.7141(3) 0.6996(2) 0.48885(9)
C14 C 0.4867(3) 0.7538(2) 0.50277(8)
C15 C 0.3233(3) 0.8679(2) 0.44632(9)
C16 C 0.3918(2) 0.9279(2) 0.37407(8)
H1 H 0.421(3) 0.935(2) 0.2162(9)
H2 H 0.671(2) 0.600(2) 0.2749(9)
H3 H 0.557(3) 0.438(3) 0.1892(11)
H4 H 0.828(3) 0.431(3) 0.0720(11)
H5 H 0.428(4) 0.586(3) 0.0606(13)
H6 H 0.351(3) 0.645(3) 0.1937(10)
H7 H 0.775(3) 0.628(3) 0.0102(12)
H8 H 0.441(3) 0.794(3) 0.0711(12)
H9 H 1.069(3) 0.592(2) 0.0990(9)
H10 H 0.821(3) 0.927(3) 0.0414(13)
H11 H 0.978(4) 0.908(3) 0.1200(13)
H12 H 1.019(4) 0.350(3) 0.2826(15)
H13 H 1.178(4) 0.342(3) 0.2052(13)
H14 H 0.946(4) 0.294(4) 0.2031(13)
H15 H 0.641(3) 1.090(3) 0.2707(9)
H16 H 0.824(3) 0.625(3) 0.5284(12)
H17 H 0.938(3) 0.721(3) 0.4060(11)
H18 H 0.166(4) 0.908(3) 0.4560(12)
H19 H 0.275(3) 1.007(3) 0.3333(11)
H20 H 0.969(4) 0.763(3) 0.2538(13)
#END
