
#######################################################################
#
#                 Cambridge Crystallographic Data Centre
#                                CCDC
#
#######################################################################
#
# If this CIF has been generated from an entry in the Cambridge
# Structural Database, then it will include bibliographic, chemical,
# crystal, experimental, refinement or atomic coordinate data resulting
# from the CCDC's data processing and validation procedures.
#
#######################################################################

data_CSD_CIF_GATHOA
_audit_creation_date 2012-03-13
_audit_creation_method CSD-ConQuest-V1
_database_code_CSD GATHOA
_database_code_depnum_ccdc_archive 'CCDC 823584'
_chemical_formula_sum 'C26 H25 N1 O9'
_chemical_formula_moiety
;
C26 H25 N1 O9
;
_journal_coden_Cambridge 16
_journal_volume 68
_journal_year 2012
_journal_page_first 1612
_journal_name_full 'Tetrahedron '
loop_
_publ_author_name
"J.M.Otero"
"J.C.Barcia"
"C.O.Salas"
"P.Thomas"
"J.C.Estevez"
"R.J.Estevez"
_chemical_name_systematic
;
2-(1-(6-(Benzyloxy)-2,2-dimethyltetrahydrofuro[2,3-d][1,3]dioxol-5-yl)-2-nitro
ethyl)-3-hydroxy-1,4-naphthoquinone
;
_chemical_name_common
;
3-O-Benzyl-5,6-dideoxy-5-C-(3'-hydroxy-1',4'-naphthoquinon-2'-yl)-1,2-O-isopro
pylidene-6-nitro-alpha-D-glucofuranose
;
_cell_volume   2465.518
_exptl_crystal_colour 'yellow'
_exptl_crystal_density_diffrn 1.335
_exptl_crystal_description 'prism'
_diffrn_ambient_temperature 293
_refine_special_details
;
N201,O202,O203 and N21B,O22B,O23B disordered over two sites with occupancies 
0.78:0.22.
;
#These two values have been output from a single CSD field.
_refine_ls_R_factor_gt 0.0362
_refine_ls_wR_factor_gt 0.0362
_symmetry_cell_setting orthorhombic
_symmetry_space_group_name_H-M 'P 21 21 21'
_symmetry_Int_Tables_number 19
loop_
_symmetry_equiv_pos_site_id
_symmetry_equiv_pos_as_xyz
1 x,y,z
2 1/2-x,-y,1/2+z
3 1/2+x,1/2-y,-z
4 -x,1/2+y,1/2-z
_cell_length_a 10.819(2)
_cell_length_b 12.807(2)
_cell_length_c 17.794(3)
_cell_angle_alpha 90
_cell_angle_beta 90
_cell_angle_gamma 90
_cell_formula_units_Z 4
loop_
_atom_type_symbol
_atom_type_radius_bond
C 0.68
H 0.23
N 0.68
O 0.68
loop_
_atom_site_label
_atom_site_type_symbol
_atom_site_fract_x
_atom_site_fract_y
_atom_site_fract_z
O1 O 0.81704(14) 0.02849(11) 0.36420(8)
C1 C 0.7012(2) 0.04697(17) 0.32581(11)
H1 H 0.63390 0.04790 0.36270
C2 C 0.7167(2) 0.15606(17) 0.29293(11)
H2 H 0.63690 0.18870 0.28170
C3 C 0.7822(2) 0.21021(18) 0.35706(12)
H3 H 0.83560 0.26720 0.34000
C4 C 0.8538(2) 0.12369(17) 0.39644(12)
H4 H 0.94310 0.13410 0.39100
O2 O 0.81809(16) 0.13053(14) 0.47225(8)
C5 C 0.7333(2) 0.2156(2) 0.48344(13)
O3 O 0.69325(16) 0.24348(13) 0.41050(9)
C6 C 0.67855(19) -0.04054(16) 0.26981(11)
H5 H 0.74310 -0.03610 0.23130
C7 C 0.55475(18) -0.02850(16) 0.23046(12)
C8 C 0.5471(2) -0.03181(16) 0.15501(12)
C9 C 0.4288(2) -0.01893(17) 0.11295(13)
C10 C 0.3157(2) -0.00199(16) 0.15642(14)
C11 C 0.2030(3) 0.0165(2) 0.12066(16)
H6 H 0.19910 0.02010 0.06850
C12 C 0.0982(3) 0.0294(2) 0.1628(2)
H7 H 0.02290 0.04070 0.13890
C13 C 0.1026(2) 0.0258(2) 0.2396(2)
H8 H 0.03050 0.03420 0.26740
C14 C 0.2140(2) 0.00986(18) 0.27586(15)
H9 H 0.21710 0.00890 0.32810
C15 C 0.3210(2) -0.00477(15) 0.23443(13)
C16 C 0.44015(19) -0.02252(17) 0.27415(13)
O4 O 0.79337(14) 0.15056(11) 0.22837(7)
C17 C 0.7745(3) 0.2338(3) 0.17872(18)
H10 H 0.78810 0.29930 0.20480
H11 H 0.68980 0.23280 0.16080
C18 C 0.8608(2) 0.2258(2) 0.11361(14)
C19 C 0.8487(3) 0.1488(2) 0.06116(16)
H12 H 0.78390 0.10140 0.06520
C20 C 0.9306(4) 0.1401(3) 0.00234(15)
H13 H 0.92160 0.08630 -0.03240
C21 C 1.0241(3) 0.2095(3) -0.00516(16)
H14 H 1.07990 0.20310 -0.04460
C22 C 1.0362(3) 0.2893(3) 0.04572(17)
H15 H 1.09870 0.33850 0.04010
C23 C 0.9557(3) 0.2961(2) 0.10488(15)
H16 H 0.96550 0.34940 0.13990
C24 C 0.7979(3) 0.3052(2) 0.52186(15)
H17 H 0.86000 0.33320 0.48900
H18 H 0.83600 0.28080 0.56730
H19 H 0.73870 0.35860 0.53370
C25 C 0.6238(3) 0.1771(3) 0.52652(17)
H20 H 0.56510 0.23280 0.53220
H21 H 0.64990 0.15350 0.57520
H22 H 0.58600 0.12030 0.49980
O5 O 0.64670(16) -0.04693(15) 0.11256(10)
O6 O 0.43327(16) -0.02211(15) 0.04428(9)
O7 O 0.44117(15) -0.03414(15) 0.34256(9)
C26 C 0.6916(2) -0.14666(18) 0.30854(14)
H23 H 0.76810 -0.14910 0.33690
H24 H 0.62340 -0.15750 0.34300
N1 N 0.6916(12) -0.2314(9) 0.2485(8)
O8 O 0.7865(11) -0.2423(5) 0.2129(5)
O9 O 0.596(1) -0.2753(4) 0.2353(9)
H25 H 0.622(3) -0.052(2) 0.0704(18)
N2? N 0.653(4) -0.220(4) 0.262(3)
O10? O 0.711(6) -0.2507(18) 0.2101(14)
O11? O 0.5575(18) -0.2808(13) 0.285(2)
#END
