
#######################################################################
#
#                 Cambridge Crystallographic Data Centre
#                                CCDC
#
#######################################################################
#
# If this CIF has been generated from an entry in the Cambridge
# Structural Database, then it will include bibliographic, chemical,
# crystal, experimental, refinement or atomic coordinate data resulting
# from the CCDC's data processing and validation procedures.
#
#######################################################################

data_CSD_CIF_GATTEA
_audit_creation_date 1989-01-20
_audit_creation_method CSD-ConQuest-V1
_database_code_CSD GATTEA
_database_code_depnum_ccdc_archive 'CCDC 1164243'
_chemical_formula_sum 'C17 H9 N3 O1'
_chemical_formula_moiety
;
C17 H9 N3 O1
;
_journal_coden_Cambridge 214
_journal_volume 118
_journal_year 1987
_journal_page_first 369
_journal_name_full 'Monatsh.Chem. '
loop_
_publ_author_name
"G.Tosi"
"L.Cardellini"
"B.Cardillo"
"G.Bocelli"
_chemical_name_systematic
;
3-(Dicyanomethylidene)-1-oxy-2-phenylindole
;
_chemical_melting_point 477.15
_cell_volume   1333.854
_exptl_crystal_density_diffrn 1.34
_exptl_special_details
;
Bond C15-C16 published as 1.466; we calculate 1.446

;
_diffrn_ambient_temperature ?
_diffrn_special_details
;
The study was carried out at room temperature,in the range 283-303K

;
#These two values have been output from a single CSD field.
_refine_ls_R_factor_gt 0.053
_refine_ls_wR_factor_gt 0.053
_symmetry_cell_setting monoclinic
_symmetry_space_group_name_H-M 'P 21/c'
_symmetry_Int_Tables_number 14
loop_
_symmetry_equiv_pos_site_id
_symmetry_equiv_pos_as_xyz
1 x,y,z
2 -x,1/2+y,1/2-z
3 -x,-y,-z
4 x,-1/2-y,-1/2+z
_cell_length_a 10.913(2)
_cell_length_b 17.712(2)
_cell_length_c 7.004(3)
_cell_angle_alpha 90
_cell_angle_beta 99.85(2)
_cell_angle_gamma 90
_cell_formula_units_Z 4
loop_
_atom_type_symbol
_atom_type_radius_bond
C 0.68
H 0.23
N 0.68
O 0.68
loop_
_atom_site_label
_atom_site_type_symbol
_atom_site_fract_x
_atom_site_fract_y
_atom_site_fract_z
O1 O 0.8212(2) 0.2919(1) -0.4052(3)
N1 N 0.8312(2) 0.3271(1) -0.2470(3)
N2 N 0.4913(2) 0.4206(1) 0.1260(3)
N3 N 0.8349(2) 0.4776(2) 0.4693(4)
C1 C 0.9512(2) 0.3478(1) -0.1356(3)
C2 C 1.0656(2) 0.3347(2) -0.1834(4)
C3 C 1.1670(2) 0.3642(2) -0.0545(5)
C4 C 1.1494(2) 0.4029(2) 0.1073(4)
C5 C 1.0308(2) 0.4143(1) 0.1540(4)
C6 C 0.9294(2) 0.3862(1) 0.0258(3)
C7 C 0.7931(2) 0.3884(1) 0.0168(3)
C8 C 0.7387(2) 0.3521(1) -0.1615(3)
C9 C 0.6075(2) 0.3416(1) -0.2472(3)
C10 C 0.5505(2) 0.2727(1) -0.2370(3)
C11 C 0.4245(2) 0.2646(2) -0.3181(4)
C12 C 0.3603(2) 0.3237(2) -0.4104(4)
C13 C 0.4181(3) 0.3928(2) -0.4242(4)
C14 C 0.5414(2) 0.4018(1) -0.3411(4)
C15 C 0.7297(2) 0.4179(1) 0.1486(3)
C16 C 0.5957(2) 0.4183(1) 0.1299(3)
C17 C 0.7912(2) 0.4510(1) 0.3269(3)
H1 H 1.0688(30) 0.3003(18) -0.3048(51)
H2 H 1.2515(28) 0.3519(19) -0.0926(47)
H3 H 1.2251(26) 0.4246(15) 0.2009(42)
H4 H 1.0215(34) 0.4393(23) 0.2814(59)
H5 H 0.5962(29) 0.2289(18) -0.1545(49)
H6 H 0.2640(28) 0.3226(17) -0.4811(47)
H7 H 0.3753(29) 0.4328(20) -0.5044(50)
#END
