
#######################################################################
#
#                 Cambridge Crystallographic Data Centre
#                                CCDC
#
#######################################################################
#
# If this CIF has been generated from an entry in the Cambridge
# Structural Database, then it will include bibliographic, chemical,
# crystal, experimental, refinement or atomic coordinate data resulting
# from the CCDC's data processing and validation procedures.
#
#######################################################################

data_CSD_CIF_GATXUX
_audit_creation_date 2017-03-16
_audit_creation_method CSD-ConQuest-V1
_database_code_CSD GATXUX
_database_code_depnum_ccdc_archive 'CCDC 1497367'
_chemical_formula_sum 'C24 H22 N2 O11'
_chemical_formula_moiety
;
C24 H22 N2 O11
;
_journal_coden_Cambridge 1220
_journal_volume 22
_journal_year 2016
_journal_page_first 18383
_journal_name_full 'Chem.-Eur.J. '
loop_
_publ_author_name
"P.Rajasekaran"
"Govind Pratap Singh"
"M.Hassam"
"Y.D.Vankar"
_chemical_name_systematic
;
(2S,3aR,4S,6R,7S,8R,8aS)-2-methyl-6-(4-nitrobenzoyloxymethyl)-octahydro-4,7-ep
oxyfuro(3,2-c)oxepin-8-yl 4-nitrobenzoate
;
_cell_volume   1154.116
_exptl_crystal_colour 'colorless'
_exptl_crystal_density_diffrn 1.48
_exptl_crystal_description 'block'
_diffrn_ambient_temperature 273
#These two values have been output from a single CSD field.
_refine_ls_R_factor_gt 0.0385
_refine_ls_wR_factor_gt 0.0385
loop_
_citation_database_id_CSD
_citation_special_details
GATXOR "is a stereoisomer of this entry"
_symmetry_cell_setting monoclinic
_symmetry_space_group_name_H-M 'P 21'
_symmetry_Int_Tables_number 4
loop_
_symmetry_equiv_pos_site_id
_symmetry_equiv_pos_as_xyz
1 x,y,z
2 -x,1/2+y,-z
_cell_length_a 8.4796(8)
_cell_length_b 11.2662(11)
_cell_length_c 12.3602(13)
_cell_angle_alpha 90
_cell_angle_beta 102.205(3)
_cell_angle_gamma 90
_cell_formula_units_Z 2
loop_
_atom_type_symbol
_atom_type_radius_bond
C 0.68
H 0.23
N 0.68
O 0.68
loop_
_atom_site_label
_atom_site_type_symbol
_atom_site_fract_x
_atom_site_fract_y
_atom_site_fract_z
C1 C 0.1838(3) 0.0494(2) 0.51700(16)
H1 H 0.21010 -0.02760 0.48860
C2 C 0.0050(3) 0.05524(19) 0.51680(16)
H2 H -0.02660 -0.01470 0.55430
C3 C -0.0393(3) 0.16842(19) 0.57256(17)
H3 H -0.13500 0.15400 0.60330
C4 C 0.0970(3) 0.21829(19) 0.66251(16)
H4 H 0.08220 0.30340 0.67320
C5 C 0.2628(3) 0.19302(19) 0.63871(17)
H5 H 0.34860 0.22300 0.69830
C6 C 0.2812(3) 0.24122(19) 0.52595(16)
H6 H 0.21030 0.30970 0.50450
C7 C 0.4533(3) 0.2727(2) 0.52299(17)
H7 H 0.48650 0.34170 0.56910
H8 H 0.52390 0.20720 0.55230
C8 C -0.1005(3) 0.06470(19) 0.39998(17)
H9 H -0.19260 0.01190 0.39180
H10 H -0.03900 0.04430 0.34480
C9 C -0.1559(3) 0.19486(19) 0.38740(16)
H11 H -0.27270 0.19850 0.38220
C10 C -0.1144(3) 0.2601(2) 0.29029(17)
H12 H 0.00060 0.26110 0.29760
H13 H -0.15380 0.34010 0.28880
H14 H -0.16360 0.22060 0.22280
C11 C 0.1177(2) 0.2077(2) 0.85898(16)
C12 C 0.1302(2) 0.11975(19) 0.95130(17)
C13 C 0.1506(2) 0.15972(19) 1.05943(17)
H15 H 0.14710 0.24070 1.07350
C14 C 0.1761(2) 0.08023(19) 1.14640(17)
H16 H 0.19170 0.10600 1.21940
C15 C 0.1776(2) -0.0389(2) 1.12096(17)
C16 C 0.1540(3) -0.0814(2) 1.01497(18)
H17 H 0.15460 -0.16260 1.00130
C17 C 0.1295(3) -0.0011(2) 0.92928(18)
H18 H 0.11250 -0.02780 0.85650
C18 C 0.4096(3) 0.4025(2) 0.36855(18)
C19 C 0.4159(2) 0.41309(19) 0.24908(17)
C20 C 0.4765(2) 0.3251(2) 0.19154(17)
H19 H 0.51570 0.25520 0.22740
C21 C 0.4793(2) 0.34022(19) 0.08060(18)
H20 H 0.52030 0.28130 0.04160
C22 C 0.4202(3) 0.44391(19) 0.02961(18)
C23 C 0.3581(3) 0.5326(2) 0.08492(19)
H21 H 0.31820 0.60210 0.04850
C24 C 0.3561(3) 0.5168(2) 0.19498(19)
H22 H 0.31440 0.57590 0.23340
N1 N 0.2113(2) -0.12525(16) 1.21303(15)
N2 N 0.4232(2) 0.46123(19) -0.08823(15)
O1 O 0.27760(17) 0.06754(13) 0.62511(11)
O2 O 0.23062(17) 0.14315(13) 0.45203(11)
O3 O -0.07510(17) 0.25501(13) 0.48651(11)
O4 O 0.08791(19) 0.15203(13) 0.76154(11)
O5 O 0.13533(17) 0.31316(13) 0.87172(11)
O6 O 0.2281(2) -0.22950(14) 1.19004(13)
O7 O 0.2211(2) -0.08925(15) 1.30687(13)
O8 O 0.46753(17) 0.29750(13) 0.41098(12)
O9 O 0.35681(19) 0.47770(14) 0.42027(13)
O10 O 0.3802(2) 0.55704(16) -0.13086(14)
O11 O 0.4720(2) 0.37902(15) -0.13769(13)
#END
