
#######################################################################
#
#                 Cambridge Crystallographic Data Centre
#                                CCDC
#
#######################################################################
#
# If this CIF has been generated from an entry in the Cambridge
# Structural Database, then it will include bibliographic, chemical,
# crystal, experimental, refinement or atomic coordinate data resulting
# from the CCDC's data processing and validation procedures.
#
#######################################################################

data_CSD_CIF_GATXOR
_audit_creation_date 2017-03-16
_audit_creation_method CSD-ConQuest-V1
_database_code_CSD GATXOR
_database_code_depnum_ccdc_archive 'CCDC 1497366'
_chemical_formula_sum 'C24 H22 N2 O11'
_chemical_formula_moiety
;
C24 H22 N2 O11
;
_journal_coden_Cambridge 1220
_journal_volume 22
_journal_year 2016
_journal_page_first 18383
_journal_name_full 'Chem.-Eur.J. '
loop_
_publ_author_name
"P.Rajasekaran"
"Govind Pratap Singh"
"M.Hassam"
"Y.D.Vankar"
_chemical_name_systematic
;
(2S,3aR,4R,6R,7R,8R,8aS)-2-methyl-6-(4-nitrobenzoyloxymethyl)-octahydro-4,7-ep
oxyfuro(3,2-c)oxepin-8-yl 4-nitrobenzoate
;
_cell_volume   2312.216
_exptl_crystal_colour 'colorless'
_exptl_crystal_density_diffrn 1.478
_exptl_crystal_description 'Block'
_diffrn_ambient_temperature 293
#These two values have been output from a single CSD field.
_refine_ls_R_factor_gt 0.0431
_refine_ls_wR_factor_gt 0.0431
loop_
_citation_database_id_CSD
_citation_special_details
GATXUX "is a stereoisomer of this entry"
_symmetry_cell_setting orthorhombic
_symmetry_space_group_name_H-M 'P 21 21 21'
_symmetry_Int_Tables_number 19
loop_
_symmetry_equiv_pos_site_id
_symmetry_equiv_pos_as_xyz
1 x,y,z
2 1/2-x,-y,1/2+z
3 1/2+x,1/2-y,-z
4 -x,1/2+y,1/2-z
_cell_length_a 6.985(5)
_cell_length_b 12.309(5)
_cell_length_c 26.893(5)
_cell_angle_alpha 90
_cell_angle_beta 90
_cell_angle_gamma 90
_cell_formula_units_Z 4
loop_
_atom_type_symbol
_atom_type_radius_bond
C 0.68
H 0.23
N 0.68
O 0.68
loop_
_atom_site_label
_atom_site_type_symbol
_atom_site_fract_x
_atom_site_fract_y
_atom_site_fract_z
O1 O 1.1526(2) 0.10861(12) 0.55375(5)
O2 O 0.9577(2) 0.05990(12) 0.40284(5)
O3 O 1.1765(2) -0.00219(13) 0.61957(5)
O4 O 1.2234(2) -0.02072(12) 0.43473(5)
O5 O 0.7704(2) 0.00435(13) 0.52822(5)
O6 O 0.6727(2) -0.18103(13) 0.45817(5)
O7 O 0.6198(2) 0.16517(12) 0.51911(6)
C1 C 0.6745(3) 0.09194(18) 0.54500(8)
C2 C 0.9493(4) 0.07698(18) 0.45578(8)
H1 H 0.91080 0.15180 0.46320
C3 C 0.5860(3) 0.18093(19) 0.62420(8)
H2 H 0.57430 0.24550 0.60650
C4 C 0.5482(3) 0.1788(2) 0.67442(8)
H3 H 0.51270 0.24170 0.69120
N1 N 0.9304(4) 0.44749(18) 0.72159(8)
C5 C 1.0863(3) 0.18284(18) 0.63204(8)
O8 O 0.5532(3) -0.00406(19) 0.77597(7)
C6 C 0.5640(4) 0.0816(2) 0.69925(8)
C7 C 1.0670(3) 0.16905(19) 0.68303(8)
H4 H 1.08920 0.10130 0.69730
C8 C 0.7990(3) -0.00301(18) 0.47450(8)
H5 H 0.67720 0.01430 0.45820
C9 C 1.0534(3) 0.28294(18) 0.61037(8)
H6 H 1.06630 0.29120 0.57620
C10 C 0.6416(3) 0.08663(18) 0.60008(8)
C11 C 0.7990(3) -0.16800(19) 0.37779(8)
H7 H 0.73100 -0.10500 0.36520
H8 H 0.84900 -0.20960 0.35010
C12 C 1.0153(4) 0.25545(19) 0.71252(9)
H9 H 1.00120 0.24730 0.74670
C13 C 1.1989(4) 0.01847(18) 0.52171(8)
H10 H 1.12000 -0.04410 0.52950
H11 H 1.33250 -0.00160 0.52520
C14 C 1.1427(3) 0.08544(19) 0.60251(8)
O9 O 0.9338(3) 0.53822(14) 0.70341(6)
C15 C 0.6582(3) -0.0105(2) 0.62607(8)
H12 H 0.69560 -0.07360 0.60970
C16 C 0.6721(4) -0.23684(18) 0.41064(8)
H13 H 0.72950 -0.30900 0.41460
C17 C 0.9849(3) 0.35474(18) 0.68990(9)
C18 C 0.6187(4) -0.0128(2) 0.67647(8)
H14 H 0.62910 -0.07710 0.69450
O10 O 0.4504(3) 0.16093(18) 0.77176(6)
C19 C 1.0011(3) 0.37092(19) 0.63948(8)
H15 H 0.97780 0.43870 0.62540
O11 O 0.8802(4) 0.42858(15) 0.76397(7)
N2 N 0.5186(3) 0.0792(2) 0.75301(8)
C20 C 1.1585(4) 0.05858(19) 0.46998(8)
H16 H 1.22940 0.12630 0.46460
C21 C 0.8475(3) -0.12144(17) 0.46301(8)
H17 H 0.92340 -0.15190 0.49030
C22 C 0.9572(4) -0.13527(17) 0.41364(8)
H18 H 1.04540 -0.19670 0.41720
C23 C 1.0722(3) -0.03602(18) 0.39991(8)
H19 H 1.12450 -0.04400 0.36630
C24 C 0.4687(4) -0.2489(2) 0.39371(9)
H20 H 0.40000 -0.29360 0.41690
H21 H 0.46640 -0.28210 0.36140
H22 H 0.40960 -0.17860 0.39200
#END
