
#######################################################################
#
#                 Cambridge Crystallographic Data Centre
#                                CCDC
#
#######################################################################
#
# If this CIF has been generated from an entry in the Cambridge
# Structural Database, then it will include bibliographic, chemical,
# crystal, experimental, refinement or atomic coordinate data resulting
# from the CCDC's data processing and validation procedures.
#
#######################################################################

data_CSD_CIF_GAVBAH
_audit_creation_date 2005-12-08
_audit_creation_method CSD-ConQuest-V1
_database_code_CSD GAVBAH
_database_code_depnum_ccdc_archive 'CCDC 283994'
_chemical_formula_sum 'C31 H28 N2 O4'
_chemical_formula_moiety
;
C31 H28 N2 O4
;
_journal_coeditor_code "IUCr SU6224"
_journal_coden_Cambridge 1370
_journal_volume 61
_journal_year 2005
_journal_page_first o3050
_journal_name_full 'Acta Crystallogr.,Sect.E:Struct.Rep.Online '
loop_
_publ_author_name
"J.Suresh"
"V.P.A.Raja"
"R.V.Krishnakumar"
"S.Natarajan"
"S.Perumal"
"A.Mostad"
_chemical_name_systematic
;
2,6-bis(2-Methoxyphenyl)-1-nitroso-3,5-diphenylpiperidin-4-one
;
_chemical_melting_point 448
_cell_volume   2537.728
_exptl_crystal_colour 'colorless'
_exptl_crystal_density_diffrn 1.289
_exptl_crystal_description 'block'
_exptl_crystal_preparation 'ethyl acetate'
_diffrn_ambient_temperature 105
#These two values have been output from a single CSD field.
_refine_ls_R_factor_gt 0.035
_refine_ls_wR_factor_gt 0.035
_symmetry_cell_setting monoclinic
_symmetry_space_group_name_H-M 'P 21/n'
_symmetry_Int_Tables_number 14
loop_
_symmetry_equiv_pos_site_id
_symmetry_equiv_pos_as_xyz
1 x,y,z
2 1/2-x,1/2+y,1/2-z
3 -x,-y,-z
4 -1/2+x,-1/2-y,-1/2+z
_cell_length_a 13.4969(3)
_cell_length_b 11.7546(3)
_cell_length_c 16.1467(4)
_cell_angle_alpha 90
_cell_angle_beta 97.842(1)
_cell_angle_gamma 90
_cell_formula_units_Z 4
loop_
_atom_type_symbol
_atom_type_radius_bond
C 0.68
H 0.23
N 0.68
O 0.68
loop_
_atom_site_label
_atom_site_type_symbol
_atom_site_fract_x
_atom_site_fract_y
_atom_site_fract_z
O1 O 0.12069(6) 0.29495(6) 0.18681(5)
O2 O -0.03661(6) 0.63085(7) 0.41440(5)
N1 N 0.11885(7) 0.39986(8) 0.17593(5)
N2 N 0.09065(6) 0.45903(7) 0.23872(5)
O3 O 0.04536(7) 0.22851(7) 0.42038(5)
O4 O -0.06854(6) 0.57384(7) 0.10756(5)
C1 C 0.02066(7) 0.64143(8) 0.28100(6)
H1 H -0.04570 0.62840 0.24650
C2 C 0.01561(8) 0.58899(9) 0.36705(6)
C3 C 0.10063(7) 0.58464(8) 0.23461(6)
H2 H 0.16730 0.60460 0.26620
C4 C 0.07321(8) 0.39960(9) 0.31585(6)
H3 H 0.12850 0.34320 0.32950
C5 C 0.09995(8) 0.62842(8) 0.14603(6)
C6 C 0.18252(8) 0.51814(9) 0.42986(6)
C7 C 0.01479(8) 0.62599(9) 0.08531(6)
C8 C 0.07763(8) 0.48247(8) 0.39015(6)
H4 H 0.04610 0.44260 0.43460
C9 C 0.03745(8) 0.76919(9) 0.28566(6)
C10 C 0.18671(8) 0.67968(9) 0.12556(7)
H5 H 0.24480 0.68170 0.16610
C11 C 0.12379(8) 0.81481(9) 0.33101(7)
H6 H 0.17130 0.76590 0.36190
C12 C -0.03549(9) 0.24503(9) 0.36093(8)
C13 C 0.26916(8) 0.50267(9) 0.39305(7)
H7 H 0.26510 0.46880 0.33930
C14 C 0.19021(9) 0.72794(9) 0.04712(7)
H8 H 0.25010 0.76170 0.03400
C15 C -0.03129(8) 0.84239(10) 0.24165(7)
H9 H -0.09060 0.81230 0.21100
C16 C 0.10507(10) 0.72583(10) -0.01117(7)
H10 H 0.10640 0.75950 -0.06450
C17 C 0.36162(9) 0.53659(10) 0.43469(7)
H11 H 0.42010 0.52700 0.40870
C18 C 0.01772(9) 0.67535(10) 0.00704(7)
H12 H -0.04010 0.67440 -0.03370
C19 C -0.02486(8) 0.33371(9) 0.30383(7)
C20 C -0.01456(10) 0.9593(1) 0.24172(8)
H13 H -0.06230 1.00840 0.21140
C21 C -0.10223(9) 0.35544(11) 0.24025(8)
H14 H -0.09590 0.41530 0.20180
C22 C 0.07190(9) 1.00388(10) 0.28610(8)
H15 H 0.08400 1.08350 0.28570
C23 C -0.15585(9) 0.56825(11) 0.04596(8)
H16 H -0.18050 0.64540 0.03250
H17 H -0.20790 0.52400 0.06810
H18 H -0.13870 0.53160 -0.00470
C24 C 0.19083(9) 0.56763(11) 0.50912(7)
H19 H 0.13240 0.57960 0.53480
C25 C -0.19835(10) 0.20308(12) 0.28833(10)
H20 H -0.25750 0.15840 0.28260
C26 C 0.28315(10) 0.59947(12) 0.55072(8)
H21 H 0.28770 0.63200 0.60500
C27 C -0.1225(1) 0.18009(11) 0.35267(9)
H22 H -0.12970 0.12030 0.39100
C28 C 0.36897(9) 0.58417(11) 0.51361(8)
H23 H 0.43230 0.60620 0.54220
C29 C 0.14056(9) 0.93175(10) 0.33111(7)
H24 H 0.19940 0.96230 0.36220
C30 C 0.03830(13) 0.14268(11) 0.48228(9)
H25 H -0.01970 0.15820 0.51100
H26 H 0.09930 0.14320 0.52290
H27 H 0.03050 0.06800 0.45520
C31 C -0.18954(10) 0.29002(13) 0.23218(9)
H28 H -0.24240 0.30520 0.18840
#END
