
#######################################################################
#
#                 Cambridge Crystallographic Data Centre
#                                CCDC
#
#######################################################################
#
# If this CIF has been generated from an entry in the Cambridge
# Structural Database, then it will include bibliographic, chemical,
# crystal, experimental, refinement or atomic coordinate data resulting
# from the CCDC's data processing and validation procedures.
#
#######################################################################

data_CSD_CIF_GAVHIV
_audit_creation_date 2005-12-08
_audit_creation_method CSD-ConQuest-V1
_database_code_CSD GAVHIV
_database_code_depnum_ccdc_archive 'CCDC 281774'
_chemical_formula_sum 'C20 H21 N5 O9'
_chemical_formula_moiety
;
C20 H21 N5 O9
;
_journal_coeditor_code "IUCr JH6016"
_journal_coden_Cambridge 1370
_journal_volume 61
_journal_year 2005
_journal_page_first o3164
_journal_name_full 'Acta Crystallogr.,Sect.E:Struct.Rep.Online '
loop_
_publ_author_name
"Shuqi Qin"
"Guodong Yin"
_chemical_name_systematic
;
Diethyl 
(11bR,11cS)-rel-5,10-dihydro-7-nitro-4,11-dioxo-1H,3H,4H,11H-2-oxa-3a,4a,10a,1
1a-tetra-azabenz(f)indeno(2,1,7-ija)azulene-11b,11c-dicarboxylate
;
_cell_volume   2153.251
_exptl_crystal_colour 'colorless'
_exptl_crystal_density_diffrn 1.467
_exptl_crystal_description 'block'
_exptl_crystal_preparation 'acetonitrile/methanol(1'
_diffrn_ambient_temperature 292
#These two values have been output from a single CSD field.
_refine_ls_R_factor_gt 0.0647
_refine_ls_wR_factor_gt 0.0647
_symmetry_cell_setting monoclinic
_symmetry_space_group_name_H-M 'P 21/c'
_symmetry_Int_Tables_number 14
loop_
_symmetry_equiv_pos_site_id
_symmetry_equiv_pos_as_xyz
1 x,y,z
2 -x,1/2+y,1/2-z
3 -x,-y,-z
4 x,-1/2-y,-1/2+z
_cell_length_a 10.0454(18)
_cell_length_b 25.564(5)
_cell_length_c 8.4997(15)
_cell_angle_alpha 90
_cell_angle_beta 99.427(3)
_cell_angle_gamma 90
_cell_formula_units_Z 4
loop_
_atom_type_symbol
_atom_type_radius_bond
C 0.68
H 0.23
N 0.68
O 0.68
loop_
_atom_site_label
_atom_site_type_symbol
_atom_site_fract_x
_atom_site_fract_y
_atom_site_fract_z
C1 C 0.1389(3) 0.42010(13) 0.6095(4)
C2 C 0.0849(3) 0.45554(12) 0.7083(3)
H1 H 0.02870 0.44400 0.77790
C3 C 0.2213(3) 0.43524(15) 0.5052(4)
H2 H 0.25600 0.41090 0.44150
C4 C 0.2513(3) 0.48671(15) 0.4970(3)
H3 H 0.30650 0.49760 0.42540
C5 C 0.2016(3) 0.52406(12) 0.5933(3)
C6 C 0.1168(2) 0.50771(11) 0.7001(3)
C7 C 0.0658(2) 0.54637(11) 0.8104(3)
H4 H 0.01360 0.57330 0.74750
H5 H 0.00650 0.52850 0.87220
C8 C 0.2401(3) 0.58054(13) 0.5820(3)
H6 H 0.29460 0.58420 0.49830
H7 H 0.15880 0.60110 0.55160
C9 C 0.2468(2) 0.54454(10) 1.0469(3)
C10 C 0.4515(2) 0.5934(1) 0.7716(3)
C11 C 0.2515(2) 0.61362(10) 0.8665(3)
C12 C 0.1604(2) 0.66209(11) 0.8355(3)
C13 C 0.0130(3) 0.71658(13) 0.9564(5)
H8 H 0.02040 0.73280 1.06060
H9 H 0.03630 0.74250 0.88220
C14 C -0.1244(4) 0.6991(2) 0.9051(8)
H10 H -0.13860 0.69250 0.79240
H11 H -0.18590 0.72570 0.92810
H12 H -0.13980 0.66760 0.96070
C15 C 0.3742(2) 0.61854(10) 1.0053(3)
C16 C 0.3883(3) 0.66993(11) 1.0983(4)
C17 C 0.4105(4) 0.76209(12) 1.0753(5)
H13 H 0.36350 0.78770 1.00220
H14 H 0.37100 0.76260 1.17210
C18 C 0.5533(5) 0.77571(18) 1.1127(7)
H15 H 0.59750 0.75270 1.19420
H16 H 0.56220 0.81120 1.15010
H17 H 0.59390 0.77220 1.01870
C19 C 0.4785(3) 0.55311(12) 1.2008(3)
H18 H 0.51460 0.57730 1.28490
H19 H 0.45640 0.52080 1.25030
C20 C 0.6092(2) 0.58940(11) 1.0257(4)
H20 H 0.67730 0.58160 0.96030
H21 H 0.64630 0.61510 1.10490
N1 N 0.1078(4) 0.36465(13) 0.6249(5)
N2 N 0.17610(19) 0.57088(8) 0.9189(2)
N3 N 0.3152(2) 0.60163(9) 0.7303(2)
N4 N 0.35689(19) 0.57505(9) 1.1083(3)
N5 N 0.49109(19) 0.61109(8) 0.9262(3)
O1 O 0.0227(5) 0.35157(13) 0.6997(5)
O2 O 0.1678(5) 0.33316(15) 0.5526(7)
O3 O 0.21406(17) 0.50392(8) 1.1014(2)
O4 O 0.52464(19) 0.57600(8) 0.6843(2)
O5 O 0.1399(2) 0.68482(9) 0.7114(3)
O6 O 0.1065(2) 0.67258(8) 0.9643(3)
O7 O 0.3960(3) 0.67188(10) 1.2402(3)
O8 O 0.3943(2) 0.70982(7) 1.0026(2)
O9 O 0.57720(17) 0.54315(8) 1.1034(2)
#END
