
#######################################################################
#
#                 Cambridge Crystallographic Data Centre
#                                CCDC
#
#######################################################################
#
# If this CIF has been generated from an entry in the Cambridge
# Structural Database, then it will include bibliographic, chemical,
# crystal, experimental, refinement or atomic coordinate data resulting
# from the CCDC's data processing and validation procedures.
#
#######################################################################

data_CSD_CIF_GAVKOD
_audit_creation_date 1989-01-20
_audit_creation_method CSD-ConQuest-V1
_database_code_CSD GAVKOD
_database_code_depnum_ccdc_archive 'CCDC 1164315'
_chemical_formula_sum 'C3 H5 N3 O2'
_chemical_formula_moiety
;
C3 H5 N3 O2
;
_journal_coden_Cambridge 188
_journal_year 1988
_journal_page_first 661
_journal_name_full 'J.Chem.Soc.,Perkin Trans.2 '
loop_
_publ_author_name
"P.Ugliengo"
"D.Viterbo"
"M.Calleri"
_chemical_name_systematic
;
3-Amino-4-methylfurazan N-oxide
;
_cell_volume    519.751
_exptl_crystal_colour 'colorless'
_exptl_special_details
;
In paper cell parameters of compounds 1A and 1B are interchanged

;
_diffrn_ambient_temperature ?
_diffrn_special_details
;
The study was carried out at room temperature,in the range 283-303K

;
#These two values have been output from a single CSD field.
_refine_ls_R_factor_gt 0.038
_refine_ls_wR_factor_gt 0.038
_symmetry_cell_setting monoclinic
_symmetry_space_group_name_H-M 'P 21/n'
_symmetry_Int_Tables_number 14
loop_
_symmetry_equiv_pos_site_id
_symmetry_equiv_pos_as_xyz
1 x,y,z
2 1/2-x,1/2+y,1/2-z
3 -x,-y,-z
4 -1/2+x,-1/2-y,-1/2+z
_cell_length_a 10.805(3)
_cell_length_b 5.860(2)
_cell_length_c 8.567(2)
_cell_angle_alpha 90
_cell_angle_beta 106.63(3)
_cell_angle_gamma 90
_cell_formula_units_Z 4
loop_
_atom_type_symbol
_atom_type_radius_bond
C 0.68
H 0.23
N 0.68
O 0.68
loop_
_atom_site_label
_atom_site_type_symbol
_atom_site_fract_x
_atom_site_fract_y
_atom_site_fract_z
O1 O 0.5004(1) 0.5149(2) 0.2163(2)
O2 O 0.4182(1) 0.2067(2) 0.3213(1)
N1 N 0.6143(2) 0.6384(3) 0.2586(2)
N2 N 0.5140(1) 0.3387(2) 0.3334(1)
N3 N 0.6732(1) 0.2069(3) 0.5594(2)
C1 C 0.6904(1) 0.5439(3) 0.3872(2)
C2 C 0.6297(1) 0.3519(2) 0.4361(2)
C3 C 0.8221(2) 0.6274(4) 0.4661(3)
H1 H 0.6312(18) 0.0952(30) 0.5827(21)
H2 H 0.7545(21) 0.2492(31) 0.6323(32)
H3 H 0.8299(23) 0.6207(43) 0.5890(33)
H4 H 0.8467(20) 0.7888(40) 0.4429(33)
H5 H 0.8814(21) 0.5176(40) 0.4326(32)
#END
