
#######################################################################
#
#                 Cambridge Crystallographic Data Centre
#                                CCDC
#
#######################################################################
#
# If this CIF has been generated from an entry in the Cambridge
# Structural Database, then it will include bibliographic, chemical,
# crystal, experimental, refinement or atomic coordinate data resulting
# from the CCDC's data processing and validation procedures.
#
#######################################################################

data_CSD_CIF_GAVQIE
_audit_creation_date 2005-12-08
_audit_creation_method CSD-ConQuest-V1
_database_code_CSD GAVQIE
_database_code_depnum_ccdc_archive 'CCDC 289690'
_chemical_formula_sum 'C9 H9 N3 O5'
_chemical_formula_moiety
;
C9 H9 N3 O5
;
_journal_coeditor_code "IUCr CF6468"
_journal_coden_Cambridge 1370
_journal_volume 61
_journal_year 2005
_journal_page_first o3888
_journal_name_full 'Acta Crystallogr.,Sect.E:Struct.Rep.Online '
loop_
_publ_author_name
"D.J.Watkin"
"W.D.S.Motherwell"
"R.I.Cooper"
"S.Pantos"
"O.I.Steadman"
_chemical_name_systematic
;
N-(2-Methyl-3,6-dinitrophenyl)acetamide
;
_cell_volume    502.307
_exptl_crystal_colour 'pale yellow'
_exptl_crystal_density_diffrn 1.581
_exptl_crystal_description 'lath'
_diffrn_ambient_temperature 120
#These two values have been output from a single CSD field.
_refine_ls_R_factor_gt 0.0242
_refine_ls_wR_factor_gt 0.0242
_symmetry_cell_setting monoclinic
_symmetry_space_group_name_H-M 'P 21'
_symmetry_Int_Tables_number 4
loop_
_symmetry_equiv_pos_site_id
_symmetry_equiv_pos_as_xyz
1 x,y,z
2 -x,1/2+y,-z
_cell_length_a 4.9309(2)
_cell_length_b 11.7571(4)
_cell_length_c 8.7944(3)
_cell_angle_alpha 90
_cell_angle_beta 99.8608(14)
_cell_angle_gamma 90
_cell_formula_units_Z 2
loop_
_atom_type_symbol
_atom_type_radius_bond
C 0.68
H 0.23
N 0.68
O 0.68
loop_
_atom_site_label
_atom_site_type_symbol
_atom_site_fract_x
_atom_site_fract_y
_atom_site_fract_z
C1 C 0.4948(3) 0.14319(14) 0.28928(18)
C2 C 0.7148(3) 0.18283(14) 0.39815(18)
N1 N 0.8638(3) 0.10778(13) 0.51881(15)
O1 O 0.7326(3) 0.03921(12) 0.58113(14)
O2 O 1.1140(2) 0.12260(12) 0.55405(15)
C3 C 0.8003(3) 0.29526(15) 0.40571(18)
C4 C 0.6540(3) 0.37335(15) 0.30692(19)
C5 C 0.4280(3) 0.33503(15) 0.20287(18)
C6 C 0.3458(3) 0.22171(15) 0.18546(18)
C7 C 0.1222(3) 0.17863(15) 0.06026(19)
N2 N 0.2738(3) 0.42462(13) 0.10628(16)
O3 O 0.4046(3) 0.50665(11) 0.07238(15)
O4 O 0.0249(2) 0.41328(11) 0.06852(15)
N3 N 0.4172(3) 0.02758(12) 0.27649(17)
C8 C 0.5946(3) -0.05962(14) 0.26833(18)
O5 O 0.8450(2) -0.04647(11) 0.28353(14)
C9 C 0.4615(3) -0.17467(14) 0.2390(2)
H1 H 0.95220 0.31890 0.47770
H2 H 0.70320 0.45110 0.31020
H3 H 0.26720 -0.17110 0.25180
H4 H 0.46830 -0.19410 0.13530
H5 H 0.55850 -0.23010 0.30780
H6 H 0.24810 0.01180 0.26550
H7 H 0.17420 0.10340 0.02290
H8 H -0.05110 0.17120 0.10040
H9 H 0.09490 0.23340 -0.02800
#END
