
#######################################################################
#
#                 Cambridge Crystallographic Data Centre
#                                CCDC
#
#######################################################################
#
# If this CIF has been generated from an entry in the Cambridge
# Structural Database, then it will include bibliographic, chemical,
# crystal, experimental, refinement or atomic coordinate data resulting
# from the CCDC's data processing and validation procedures.
#
#######################################################################

data_CSD_CIF_GAVZUA
_audit_creation_date 2012-03-30
_audit_creation_method CSD-ConQuest-V1
_database_code_CSD GAVZUA
_database_code_depnum_ccdc_archive 'CCDC 848779'
_chemical_formula_sum 'C13 H15 N1 O3'
_chemical_formula_moiety
;
C13 H15 N1 O3
;
_journal_coden_Cambridge 16
_journal_volume 68
_journal_year 2012
_journal_page_first 447
_journal_name_full 'Tetrahedron '
loop_
_publ_author_name
"U.Jahn"
"D.Rudakov"
"P.G.Jones"
_chemical_name_systematic
;
(1S*,2R*,5R*)-6,6-Dimethyl-1-nitro-2-phenyl-3-oxabicyclo[3.1.0]hexane
;
_chemical_melting_point 375.15
_cell_volume   1166.264
_exptl_crystal_colour 'colorless'
_exptl_crystal_density_diffrn 1.328
_exptl_crystal_description 'lath'
_diffrn_ambient_temperature 133
#These two values have been output from a single CSD field.
_refine_ls_R_factor_gt 0.0468
_refine_ls_wR_factor_gt 0.0468
_symmetry_cell_setting monoclinic
_symmetry_space_group_name_H-M 'P 21/c'
_symmetry_Int_Tables_number 14
loop_
_symmetry_equiv_pos_site_id
_symmetry_equiv_pos_as_xyz
1 x,y,z
2 -x,1/2+y,1/2-z
3 -x,-y,-z
4 x,-1/2-y,-1/2+z
_cell_length_a 7.9674(14)
_cell_length_b 14.471(3)
_cell_length_c 10.127(2)
_cell_angle_alpha 90
_cell_angle_beta 92.746(6)
_cell_angle_gamma 90
_cell_formula_units_Z 4
loop_
_atom_type_symbol
_atom_type_radius_bond
C 0.68
H 0.23
N 0.68
O 0.68
loop_
_atom_site_label
_atom_site_type_symbol
_atom_site_fract_x
_atom_site_fract_y
_atom_site_fract_z
O1 O 0.73527(13) 0.33595(7) 0.24858(11)
C1 C 0.66960(18) 0.42002(10) 0.19108(15)
H1 H 0.65410 0.41210 0.09320
C2 C 0.49875(18) 0.43073(9) 0.25005(14)
N1 N 0.43443(14) 0.52549(8) 0.25549(12)
O2 O 0.38469(14) 0.55626(7) 0.35956(11)
O3 O 0.43304(15) 0.56943(7) 0.15176(11)
C3 C 0.48678(18) 0.36310(9) 0.36141(14)
H2 H 0.43870 0.38410 0.44570
C4 C 0.37109(18) 0.35215(10) 0.23970(14)
C5 C 0.3947(2) 0.27571(11) 0.13987(16)
H3 H 0.51480 0.26220 0.13470
H4 H 0.34890 0.29550 0.05290
H5 H 0.33580 0.22000 0.16750
C6 C 0.18831(19) 0.37626(11) 0.25727(16)
H6 H 0.13050 0.32280 0.29340
H7 H 0.13470 0.39300 0.17150
H8 H 0.18160 0.42850 0.31830
C7 C 0.6520(2) 0.31227(10) 0.36729(16)
H9 H 0.72120 0.33130 0.44640
H10 H 0.63300 0.24480 0.37160
C8 C 0.78685(17) 0.50036(10) 0.22077(15)
C9 C 0.8585(2) 0.54647(11) 0.11737(16)
H11 H 0.82850 0.52950 0.02870
C10 C 0.9740(2) 0.61740(11) 0.14241(17)
H12 H 1.02260 0.64850 0.07100
C11 C 1.01798(19) 0.64248(10) 0.27134(17)
H13 H 1.09790 0.69020 0.28870
C12 C 0.94509(19) 0.59773(10) 0.37477(16)
H14 H 0.97400 0.61540 0.46330
C13 C 0.82967(18) 0.52692(10) 0.35002(15)
H15 H 0.78000 0.49660 0.42160
#END
