
#######################################################################
#
#                 Cambridge Crystallographic Data Centre
#                                CCDC
#
#######################################################################
#
# If this CIF has been generated from an entry in the Cambridge
# Structural Database, then it will include bibliographic, chemical,
# crystal, experimental, refinement or atomic coordinate data resulting
# from the CCDC's data processing and validation procedures.
#
#######################################################################

data_CSD_CIF_GAWBOW
_audit_creation_date 2005-12-08
_audit_creation_method CSD-ConQuest-V1
_database_code_CSD GAWBOW
_database_code_depnum_ccdc_archive 'CCDC 289758'
_chemical_formula_sum 'C15 H15 N3 O4'
_chemical_formula_moiety
;
C15 H15 N3 O4
;
_journal_coeditor_code "IUCr HB6287"
_journal_coden_Cambridge 1370
_journal_volume 61
_journal_year 2005
_journal_page_first o3721
_journal_name_full 'Acta Crystallogr.,Sect.E:Struct.Rep.Online '
loop_
_publ_author_name
"Xiao-Li Zhen"
"Jian-Rong Han"
_chemical_name_systematic
;
(E)-1-(3-Ethoxy-4-hydroxybenzylidene)-2-(4-nitrophenyl)hydrazine
;
_cell_volume   1431.206
_exptl_crystal_colour 'yellow'
_exptl_crystal_density_diffrn 1.398
_exptl_crystal_description 'block'
_exptl_crystal_preparation 'ethanol'
_diffrn_ambient_temperature 294
#These two values have been output from a single CSD field.
_refine_ls_R_factor_gt 0.0402
_refine_ls_wR_factor_gt 0.0402
_symmetry_cell_setting monoclinic
_symmetry_space_group_name_H-M 'P 21/c'
_symmetry_Int_Tables_number 14
loop_
_symmetry_equiv_pos_site_id
_symmetry_equiv_pos_as_xyz
1 x,y,z
2 -x,1/2+y,1/2-z
3 -x,-y,-z
4 x,-1/2-y,-1/2+z
_cell_length_a 10.148(2)
_cell_length_b 9.0980(19)
_cell_length_c 15.967(3)
_cell_angle_alpha 90
_cell_angle_beta 103.868(3)
_cell_angle_gamma 90
_cell_formula_units_Z 4
loop_
_atom_type_symbol
_atom_type_radius_bond
C 0.68
H 0.23
N 0.68
O 0.68
loop_
_atom_site_label
_atom_site_type_symbol
_atom_site_fract_x
_atom_site_fract_y
_atom_site_fract_z
O1 O 0.53401(11) 0.13835(14) 1.09950(8)
O2 O 0.73380(15) -0.04459(16) 1.17677(9)
H1 H 0.658(3) -0.033(3) 1.1874(15)
O3 O 1.44556(16) 0.65773(18) 0.70004(10)
O4 O 1.54473(15) 0.49590(17) 0.79152(11)
N1 N 0.94799(14) 0.37228(16) 0.91562(9)
N2 N 0.96068(17) 0.48029(19) 0.85831(10)
H2 H 0.898(2) 0.537(2) 0.8385(13)
N3 N 1.44349(18) 0.56781(19) 0.75697(11)
C1 C 0.83267(18) 0.3609(2) 0.93394(11)
H3 H 0.76320 0.42460 0.90790
C2 C 0.80658(17) 0.25120(19) 0.99452(11)
C3 C 0.90503(17) 0.1512(2) 1.03484(11)
H4 H 0.98940 0.15110 1.02160
C4 C 0.87906(17) 0.0522(2) 1.09430(12)
H5 H 0.94570 -0.01460 1.12030
C5 C 0.75509(17) 0.0516(2) 1.11539(11)
C6 C 0.65312(17) 0.1485(2) 1.07363(11)
C7 C 0.67949(16) 0.2467(2) 1.01388(11)
H6 H 0.61170 0.31090 0.98610
C8 C 0.42008(16) 0.2213(2) 1.05285(12)
H7 H 0.39740 0.19280 0.99260
H8 H 0.44110 0.32550 1.05650
C9 C 0.30317(18) 0.1899(2) 1.09259(13)
H9 H 0.28180 0.08700 1.08730
H10 H 0.22550 0.24590 1.06340
H11 H 0.32740 0.21670 1.15250
C10 C 1.08024(17) 0.49957(19) 0.83417(10)
C11 C 1.18909(18) 0.4025(2) 0.86025(11)
H12 H 1.18100 0.32220 0.89470
C12 C 1.30770(18) 0.4252(2) 0.83541(11)
H13 H 1.38020 0.36080 0.85310
C13 C 1.31866(18) 0.5447(2) 0.78386(11)
C14 C 1.21158(19) 0.6407(2) 0.75676(11)
H14 H 1.22000 0.71990 0.72160
C15 C 1.09325(18) 0.6192(2) 0.78166(11)
H15 H 1.02130 0.68420 0.76370
#END
