
#######################################################################
#
#                 Cambridge Crystallographic Data Centre
#                                CCDC
#
#######################################################################
#
# If this CIF has been generated from an entry in the Cambridge
# Structural Database, then it will include bibliographic, chemical,
# crystal, experimental, refinement or atomic coordinate data resulting
# from the CCDC's data processing and validation procedures.
#
#######################################################################

data_CSD_CIF_GAWGUH
_audit_creation_date 2005-12-08
_audit_creation_method CSD-ConQuest-V1
_database_code_CSD GAWGUH
_database_code_depnum_ccdc_archive 'CCDC 289779'
_chemical_formula_sum 'C16 H14 N2 O2'
_chemical_formula_moiety
;
C16 H14 N2 O2
;
_journal_coeditor_code "IUCr IS6128"
_journal_coden_Cambridge 1370
_journal_volume 61
_journal_year 2005
_journal_page_first o3634
_journal_name_full 'Acta Crystallogr.,Sect.E:Struct.Rep.Online '
loop_
_publ_author_name
"Xiao-Yan Yang"
"Ying Li"
"Xue-Mei Li"
"Shu-Sheng Zhang"
_chemical_name_systematic
;
N-(2-Methylphenyl)-N-(3-(2-nitrophenyl)prop-2-enylidene)amine
;
_cell_volume   1385.244
_exptl_crystal_colour 'yellow'
_exptl_crystal_density_diffrn 1.277
_exptl_crystal_description 'plate'
_diffrn_ambient_temperature 293
#These two values have been output from a single CSD field.
_refine_ls_R_factor_gt 0.0447
_refine_ls_wR_factor_gt 0.0447
_symmetry_cell_setting monoclinic
_symmetry_space_group_name_H-M 'P 21/c'
_symmetry_Int_Tables_number 14
loop_
_symmetry_equiv_pos_site_id
_symmetry_equiv_pos_as_xyz
1 x,y,z
2 -x,1/2+y,1/2-z
3 -x,-y,-z
4 x,-1/2-y,-1/2+z
_cell_length_a 11.390(3)
_cell_length_b 9.705(3)
_cell_length_c 13.072(4)
_cell_angle_alpha 90
_cell_angle_beta 106.532(4)
_cell_angle_gamma 90
_cell_formula_units_Z 4
loop_
_atom_type_symbol
_atom_type_radius_bond
C 0.68
H 0.23
N 0.68
O 0.68
loop_
_atom_site_label
_atom_site_type_symbol
_atom_site_fract_x
_atom_site_fract_y
_atom_site_fract_z
O1 O -0.45987(15) -0.00866(18) 0.74650(11)
O2 O -0.61075(12) -0.13739(17) 0.74283(11)
N1 N -0.51252(13) -0.08727(15) 0.78953(11)
N2 N -0.00243(10) 0.21509(12) 0.95744(10)
C1 C -0.45601(12) -0.12692(15) 0.90148(11)
C2 C -0.50582(14) -0.24085(17) 0.93665(14)
H1 H -0.57240 -0.28610 0.89120
C3 C -0.45657(15) -0.28701(18) 1.03903(14)
H2 H -0.48890 -0.36420 1.06340
C4 C -0.35872(15) -0.21781(18) 1.10542(14)
H3 H -0.32540 -0.24800 1.17520
C5 C -0.30980(13) -0.10453(17) 1.06954(12)
H4 H -0.24390 -0.05950 1.11610
C6 C -0.35567(12) -0.05465(14) 0.96540(11)
C7 C -0.29677(12) 0.06532(14) 0.93226(11)
H5 H -0.34610 0.13000 0.88750
C8 C -0.17650(12) 0.08605(15) 0.96308(12)
H6 H -0.12740 0.02240 1.00920
C9 C -0.11797(13) 0.20209(14) 0.92879(11)
H7 H -0.16590 0.26850 0.88490
C10 C 0.05196(12) 0.32484(14) 0.91588(12)
C11 C 0.14266(13) 0.40283(15) 0.98692(12)
C12 C 0.19922(14) 0.50606(16) 0.94463(15)
H8 H 0.25830 0.56070 0.99060
C13 C 0.17040(16) 0.52985(18) 0.83660(16)
H9 H 0.20980 0.59950 0.81030
C14 C 0.08312(16) 0.45023(19) 0.76764(15)
H10 H 0.06420 0.46500 0.69450
C15 C 0.02379(15) 0.34875(17) 0.80692(13)
H11 H -0.03580 0.29560 0.76010
C16 C 0.17657(16) 0.3742(2) 1.10393(14)
H12 H 0.23910 0.43760 1.14080
H13 H 0.20670 0.28160 1.11710
H14 H 0.10580 0.38510 1.12910
#END
