
#######################################################################
#
#                 Cambridge Crystallographic Data Centre
#                                CCDC
#
#######################################################################
#
# If this CIF has been generated from an entry in the Cambridge
# Structural Database, then it will include bibliographic, chemical,
# crystal, experimental, refinement or atomic coordinate data resulting
# from the CCDC's data processing and validation procedures.
#
#######################################################################

data_CSD_CIF_GAWNAT
_audit_creation_date 1989-02-16
_audit_creation_method CSD-ConQuest-V1
_database_code_CSD GAWNAT
_database_code_depnum_ccdc_archive 'CCDC 1164443'
_chemical_formula_sum 'C26 H31 N1 O3'
_chemical_formula_moiety
;
C26 H31 N1 O3
;
_journal_coden_Cambridge 35
_journal_volume 53
_journal_year 1988
_journal_page_first 2468
_journal_name_full 'J.Org.Chem. '
loop_
_publ_author_name
"T.Olsson"
"K.Stern"
"S.Sundell"
_chemical_name_systematic
;
2-(2-(Naphthyl)bornyl) 3,5-dimethyl-2-isoxazoline-4-carboxylate
;
_chemical_melting_point 393.15
_cell_volume   1699.699
_exptl_crystal_colour 'colorless'
_exptl_crystal_density_diffrn 1.188
_diffrn_ambient_temperature ?
_diffrn_special_details
;
The study was carried out at room temperature,in the range 283-303K

;
#These two values have been output from a single CSD field.
_refine_ls_R_factor_gt 0.058
_refine_ls_wR_factor_gt 0.058
_symmetry_cell_setting hexagonal
_symmetry_space_group_name_H-M 'P 32'
_symmetry_Int_Tables_number 145
loop_
_symmetry_equiv_pos_site_id
_symmetry_equiv_pos_as_xyz
1 x,y,z
2 -y,x-y,2/3+z
3 -x+y,-x,1/3+z
_cell_length_a 11.692(3)
_cell_length_b 11.692(3)
_cell_length_c 14.357(5)
_cell_angle_alpha 90
_cell_angle_beta 90
_cell_angle_gamma 120
_cell_formula_units_Z 3
loop_
_atom_type_symbol
_atom_type_radius_bond
C 0.68
H 0.23
N 0.68
O 0.68
loop_
_atom_site_label
_atom_site_type_symbol
_atom_site_fract_x
_atom_site_fract_y
_atom_site_fract_z
C1 C 0.7171(5) 1.0950(5) 0.43670
C2 C 0.6371(5) 1.0204(5) 0.3470(5)
C3 C 0.7405(5) 1.0046(6) 0.2900(5)
C4 C 0.8654(6) 1.0769(7) 0.3498(6)
C5 C 0.9152(6) 1.2252(7) 0.3412(7)
C6 C 0.8130(6) 1.2396(6) 0.4021(6)
C7 C 0.8162(6) 1.0437(7) 0.4485(6)
C8 C 0.7546(8) 0.8957(8) 0.4751(7)
C9 C 0.9224(7) 1.1199(10) 0.5234(7)
C10 C 0.6402(6) 1.0913(6) 0.5210(5)
C11 C 0.5676(5) 1.0857(5) 0.2980(5)
C12 C 0.6297(8) 1.1626(6) 0.2200(6)
C13 C 0.5743(13) 1.2310(8) 0.1743(8)
C14 C 0.4657(15) 1.2259(9) 0.2025(10)
C15 C 0.3957(9) 1.1480(7) 0.2828(7)
C16 C 0.2726(15) 1.1391(14) 0.3139(12)
C17 C 0.2053(12) 1.0615(15) 0.3825(12)
C18 C 0.2517(8) 0.9886(10) 0.4291(7)
C19 C 0.3670(8) 0.9952(6) 0.4044(6)
C20 C 0.4456(6) 1.0754(6) 0.3278(6)
C21 C 0.2135(5) 0.6268(5) 0.3297(6)
C22 C 0.3544(5) 0.6724(5) 0.3659(5)
C23 C 0.3682(7) 0.5573(5) 0.3357(5)
C24 C 0.1136(7) 0.5832(8) 0.4051(6)
C25 C 0.4580(5) 0.7988(5) 0.3183(5)
C26 C 0.4859(9) 0.5423(8) 0.3598(7)
N1 N 0.2737(6) 0.4736(5) 0.2859(5)
O1 O 0.5336(3) 0.8888(3) 0.3805(4)
O2 O 0.1827(5) 0.5158(5) 0.2715(5)
O3 O 0.4666(4) 0.8135(4) 0.2352(4)
H1 H 0.71340 0.90930 0.28260
H2 H 0.75430 1.04660 0.22730
H3 H 0.93440 1.05680 0.32700
H4 H 1.00720 1.27980 0.36560
H5 H 0.91290 1.25090 0.27450
H6 H 0.84710 1.31470 0.44720
H7 H 0.73160 1.22880 0.37120
H8 H 0.67350 0.82750 0.42500
H9 H 0.86580 0.90810 0.46770
H10 H 0.70680 0.88320 0.54720
H11 H 0.95440 1.06140 0.53300
H12 H 0.88150 1.10060 0.59580
H13 H 0.97890 1.20040 0.49780
H14 H 0.56740 0.99790 0.53740
H15 H 0.68920 1.11810 0.57110
H16 H 0.59580 1.16640 0.50470
H17 H 0.71430 1.16860 0.19550
H18 H 0.62140 1.28580 0.11830
H19 H 0.43050 1.27620 0.16810
H20 H 0.23850 1.19260 0.28320
H21 H 0.11930 1.05410 0.40250
H22 H 0.19860 0.92920 0.48220
H23 H 0.37880 0.93630 0.44960
H24 H 0.21180 0.69870 0.29310
H25 H 0.36050 0.68360 0.43500
H26 H 0.00050 0.55140 0.40010
H27 H 0.09060 0.49500 0.45500
H28 H 0.11620 0.63060 0.46100
H29 H 0.54610 0.59450 0.30160
H30 H 0.53050 0.60010 0.42400
H31 H 0.48910 0.45180 0.34110
#END
