
#######################################################################
#
#                 Cambridge Crystallographic Data Centre
#                                CCDC
#
#######################################################################
#
# If this CIF has been generated from an entry in the Cambridge
# Structural Database, then it will include bibliographic, chemical,
# crystal, experimental, refinement or atomic coordinate data resulting
# from the CCDC's data processing and validation procedures.
#
#######################################################################

data_CSD_CIF_GAWWUZ
_audit_creation_date 2017-07-31
_audit_creation_method CSD-ConQuest-V1
_database_code_CSD GAWWUZ
_database_code_depnum_ccdc_archive 'CCDC 1543362'
_chemical_formula_sum 'C16 H13 N1 O7'
_chemical_formula_moiety
;
C16 H13 N1 O7
;
_journal_coden_Cambridge 1291
_journal_year 2017
_journal_page_first 4044
_journal_name_full 'Eur.J.Org.Chem. '
loop_
_publ_author_name
"Xingjun Xu"
"Hye-Sun Kim"
"Wei-Min Chen"
"Xiang Ma"
"G.J.Correy"
"M.G.Banwell"
"C.J.Jackson"
"A.C.Willis"
"P.D.Carr"
_chemical_name_systematic
;
methyl 6-(5-(hydroxymethyl)-2-nitrophenyl)-2H-1,3-benzodioxole-5-carboxylate
;
_cell_volume   1409.527
_exptl_crystal_colour 'yellow'
_exptl_crystal_density_diffrn 1.561
_exptl_crystal_description 'block'
_exptl_crystal_preparation 'dichloromethane/hexane'
_diffrn_ambient_temperature 150
#These two values have been output from a single CSD field.
_refine_ls_R_factor_gt 0.0381
_refine_ls_wR_factor_gt 0.0381
_symmetry_cell_setting monoclinic
_symmetry_space_group_name_H-M 'P 21/c'
_symmetry_Int_Tables_number 14
loop_
_symmetry_equiv_pos_site_id
_symmetry_equiv_pos_as_xyz
1 x,y,z
2 -x,1/2+y,1/2-z
3 -x,-y,-z
4 x,-1/2-y,-1/2+z
_cell_length_a 8.92045(5)
_cell_length_b 11.34780(6)
_cell_length_c 14.26284(8)
_cell_angle_alpha 90
_cell_angle_beta 102.5075(6)
_cell_angle_gamma 90
_cell_formula_units_Z 4
loop_
_atom_type_symbol
_atom_type_radius_bond
C 0.68
H 0.23
N 0.68
O 0.68
loop_
_atom_site_label
_atom_site_type_symbol
_atom_site_fract_x
_atom_site_fract_y
_atom_site_fract_z
O1 O 0.16287(10) 0.66719(8) 0.38431(7)
C1 C 0.06768(14) 0.57413(12) 0.40754(10)
H1 H -0.01080 0.55140 0.35000
H2 H 0.01460 0.60030 0.45810
O2 O 0.16679(10) 0.47587(8) 0.44104(7)
C2 C 0.29523(13) 0.49634(11) 0.40441(8)
C3 C 0.29285(13) 0.61145(11) 0.37178(8)
C4 C 0.41062(13) 0.65740(11) 0.33500(8)
H3 H 0.40970 0.73740 0.31530
C5 C 0.53240(13) 0.58194(11) 0.32754(8)
C6 C 0.53592(13) 0.46567(11) 0.36215(8)
C7 C 0.41520(13) 0.42209(11) 0.40225(8)
H4 H 0.41730 0.34410 0.42680
C8 C 0.65398(13) 0.63737(11) 0.28461(8)
C9 C 0.73372(14) 0.73307(11) 0.33332(9)
H5 H 0.71050 0.75750 0.39230
C10 C 0.84575(14) 0.79371(11) 0.29858(9)
C11 C 0.88231(15) 0.75663(12) 0.21306(10)
H6 H 0.96070 0.79590 0.18950
C12 C 0.80506(15) 0.66292(12) 0.16235(9)
H7 H 0.83010 0.63770 0.10410
C13 C 0.69059(14) 0.60606(11) 0.19736(9)
C14 C 0.66745(13) 0.38582(11) 0.36003(8)
O3 O 0.77454(11) 0.40673(9) 0.32337(8)
O4 O 0.65471(11) 0.28390(9) 0.40456(7)
C15 C 0.77898(16) 0.20091(13) 0.40934(10)
H8 H 0.78630 0.17840 0.34410
H9 H 0.75930 0.13070 0.44480
H10 H 0.87560 0.23740 0.44230
C16 C 0.92682(16) 0.89947(12) 0.34984(10)
H11 H 1.03890 0.89010 0.35600
H12 H 0.89420 0.97080 0.31080
O5 O 0.89604(17) 0.91553(10) 0.44240(8)
H13 H 0.970(6) 0.958(4) 0.473(3)
N1 N 0.60852(14) 0.51017(10) 0.13853(8)
O6 O 0.47857(13) 0.48517(10) 0.14690(7)
O7 O 0.67369(16) 0.45946(12) 0.08295(9)
H14? H 0.766(6) 0.942(4) 0.430(4)
#END
