
#######################################################################
#
#                 Cambridge Crystallographic Data Centre
#                                CCDC
#
#######################################################################
#
# If this CIF has been generated from an entry in the Cambridge
# Structural Database, then it will include bibliographic, chemical,
# crystal, experimental, refinement or atomic coordinate data resulting
# from the CCDC's data processing and validation procedures.
#
#######################################################################

data_CSD_CIF_GAWXAG
_audit_creation_date 2017-07-31
_audit_creation_method CSD-ConQuest-V1
_database_code_CSD GAWXAG
_database_code_depnum_ccdc_archive 'CCDC 1543363'
_chemical_formula_sum 'C16 H13 N1 O6'
_chemical_formula_moiety
;
C16 H13 N1 O6
;
_journal_coden_Cambridge 1291
_journal_year 2017
_journal_page_first 4044
_journal_name_full 'Eur.J.Org.Chem. '
loop_
_publ_author_name
"Xingjun Xu"
"Hye-Sun Kim"
"Wei-Min Chen"
"Xiang Ma"
"G.J.Correy"
"M.G.Banwell"
"C.J.Jackson"
"A.C.Willis"
"P.D.Carr"
_chemical_name_systematic
;
6-(5-(methoxymethyl)-2-nitrophenyl)-2H-1,3-benzodioxole-5-carbaldehyde
;
_cell_volume    699.973
_exptl_crystal_colour 'yellow'
_exptl_crystal_density_diffrn 1.496
_exptl_crystal_description 'block'
_exptl_crystal_preparation 'dichloromethane/hexane'
_diffrn_ambient_temperature 150
#These two values have been output from a single CSD field.
_refine_ls_R_factor_gt 0.0425
_refine_ls_wR_factor_gt 0.0425
_symmetry_cell_setting triclinic
_symmetry_space_group_name_H-M 'P -1'
_symmetry_Int_Tables_number 2
loop_
_symmetry_equiv_pos_site_id
_symmetry_equiv_pos_as_xyz
1 x,y,z
2 -x,-y,-z
_cell_length_a 6.6160(3)
_cell_length_b 9.3462(3)
_cell_length_c 11.3791(5)
_cell_angle_alpha 86.286(3)
_cell_angle_beta 89.459(4)
_cell_angle_gamma 85.502(3)
_cell_formula_units_Z 2
loop_
_atom_type_symbol
_atom_type_radius_bond
C 0.68
H 0.23
N 0.68
O 0.68
loop_
_atom_site_label
_atom_site_type_symbol
_atom_site_fract_x
_atom_site_fract_y
_atom_site_fract_z
O1 O 0.38252(16) 0.66765(10) 0.07773(9)
C1 C 0.1958(2) 0.60911(15) 0.05123(13)
H1 H 0.17490 0.61370 -0.03500
H2 H 0.08050 0.66450 0.08750
O2 O 0.20870(16) 0.46163(11) 0.09826(9)
O3 O 1.00713(18) 0.58151(12) 0.35402(10)
C2 C 0.9209(2) 0.47177(15) 0.35233(12)
H3 H 0.98110 0.38750 0.39320
C3 C 0.4442(2) 0.32781(14) 0.23804(11)
H4 H 0.37150 0.24390 0.24480
C4 C 0.7284(2) 0.46168(14) 0.29066(11)
C5 C 0.6544(2) 0.58179(14) 0.21698(12)
H5 H 0.72350 0.66730 0.20980
C6 C 0.4803(2) 0.56982(14) 0.15681(11)
C7 C 0.3767(2) 0.44581(14) 0.16778(11)
C8 C 0.6257(2) 0.33564(13) 0.29981(11)
C9 C 0.7211(2) 0.11104(14) 0.70689(11)
H6 H 0.82550 0.17540 0.72740
H7 H 0.58690 0.15530 0.72980
N1 N 0.77176(18) 0.05091(12) 0.20994(9)
C10 C 0.74334(19) 0.06958(14) 0.33626(10)
C11 C 0.77587(19) -0.05327(14) 0.41069(11)
H8 H 0.80460 -0.14460 0.37950
C12 C 0.76577(19) -0.04081(14) 0.53113(11)
H9 H 0.78610 -0.12430 0.58310
C13 C 0.72620(19) 0.09265(14) 0.57641(11)
C14 C 0.6881(2) 0.21431(14) 0.49953(11)
H10 H 0.65720 0.30510 0.53120
C15 C 0.6943(2) 0.20618(14) 0.37783(11)
O4 O 0.75826(17) -0.02413(10) 0.76809(8)
C16 C 0.7491(2) -0.01477(16) 0.89268(11)
H11 H 0.85680 0.04290 0.91740
H12 H 0.76750 -0.11160 0.93150
H13 H 0.61690 0.03080 0.91470
O5 O 0.80680(18) 0.15519(11) 0.14496(9)
O6 O 0.76274(17) -0.07059(11) 0.17524(9)
#END
