
#######################################################################
#
#                 Cambridge Crystallographic Data Centre
#                                CCDC
#
#######################################################################
#
# If this CIF has been generated from an entry in the Cambridge
# Structural Database, then it will include bibliographic, chemical,
# crystal, experimental, refinement or atomic coordinate data resulting
# from the CCDC's data processing and validation procedures.
#
#######################################################################

data_CSD_CIF_GAYMOL
_audit_creation_date 2017-08-01
_audit_creation_method CSD-ConQuest-V1
_database_code_CSD GAYMOL
_database_code_depnum_ccdc_archive 'CCDC 1018389'
_chemical_formula_sum 'C3 H1 N5 O3'
_chemical_formula_moiety
;
C3 H1 N5 O3
;
_journal_coden_Cambridge 440
_journal_volume 41
_journal_year 2017
_journal_page_first 9244
_journal_name_full 'New J.Chem. '
loop_
_publ_author_name
"Yao Du"
"Jichuan Zhang"
"Panpan Peng"
"Hui Su"
"Shenghua Li"
"Siping Pang"
_chemical_name_systematic
;
4-diazonio-5-nitro-3-oxo-2,3-dihydropyrazol-1-ide
;
_cell_volume    582.472
_exptl_crystal_density_diffrn 1.769
_exptl_special_details
;
Heat-sensitive

;
_diffrn_ambient_temperature 293
#These two values have been output from a single CSD field.
_refine_ls_R_factor_gt 0.0456
_refine_ls_wR_factor_gt 0.0456
_symmetry_cell_setting monoclinic
_symmetry_space_group_name_H-M 'P 21/n'
_symmetry_Int_Tables_number 14
loop_
_symmetry_equiv_pos_site_id
_symmetry_equiv_pos_as_xyz
1 x,y,z
2 1/2-x,1/2+y,1/2-z
3 -x,-y,-z
4 -1/2+x,-1/2-y,-1/2+z
_cell_length_a 5.5357(4)
_cell_length_b 9.1337(7)
_cell_length_c 11.5261(8)
_cell_angle_alpha 90
_cell_angle_beta 91.852(6)
_cell_angle_gamma 90
_cell_formula_units_Z 4
loop_
_atom_type_symbol
_atom_type_radius_bond
C 0.68
H 0.23
N 0.68
O 0.68
loop_
_atom_site_label
_atom_site_type_symbol
_atom_site_fract_x
_atom_site_fract_y
_atom_site_fract_z
O1 O 0.2347(2) 0.80501(14) 0.83004(11)
O2 O 1.0048(2) 1.03419(15) 0.65041(10)
O3 O 0.1336(2) 0.69111(15) 0.67080(12)
N1 N 0.6956(2) 0.94717(16) 0.84557(12)
N2 N 0.5147(2) 0.81409(15) 0.56797(11)
C1 C 0.8219(3) 0.95828(18) 0.64518(13)
N3 N 0.2675(2) 0.76897(16) 0.72953(12)
N4 N 0.7216(2) 0.89094(16) 0.54930(11)
H1 H 0.78410 0.89650 0.48210
C2 C 0.4795(3) 0.82840(17) 0.67790(13)
C3 C 0.6595(3) 0.91442(18) 0.73404(13)
N5 N 0.7365(3) 0.9787(2) 0.93676(14)
#END
