
#######################################################################
#
#                 Cambridge Crystallographic Data Centre
#                                CCDC
#
#######################################################################
#
# If this CIF has been generated from an entry in the Cambridge
# Structural Database, then it will include bibliographic, chemical,
# crystal, experimental, refinement or atomic coordinate data resulting
# from the CCDC's data processing and validation procedures.
#
#######################################################################

data_CSD_CIF_GAYMOL01
_audit_creation_date 2018-02-13
_audit_creation_method CSD-ConQuest-V1
_database_code_CSD GAYMOL01
_database_code_depnum_ccdc_archive 'CCDC 1555669'
_chemical_formula_sum 'C3 H1 N5 O3'
_chemical_formula_moiety
;
C3 H1 N5 O3
;
_journal_coden_Cambridge 1078
_journal_year 2018
_journal_name_full 'CSD Communication(Private Communication) '
loop_
_publ_author_name
"J.W.Bats"
"O.Boden"
"M.W.Goebel"
_chemical_name_systematic
;
4-diazo-5-nitro-2,4-dihydro-3H-pyrazol-3-one
;
_chemical_name_common
;
3-nitro-4-diazo-1H-pyrazol-5-one
;
_cell_volume    570.057
_exptl_crystal_colour 'yellow'
_exptl_crystal_density_diffrn 1.807
_exptl_crystal_description 'plate'
_diffrn_ambient_temperature 157
#These two values have been output from a single CSD field.
_refine_ls_R_factor_gt 0.0308
_refine_ls_wR_factor_gt 0.0308
_symmetry_cell_setting monoclinic
_symmetry_space_group_name_H-M 'P 21/n'
_symmetry_Int_Tables_number 14
loop_
_symmetry_equiv_pos_site_id
_symmetry_equiv_pos_as_xyz
1 x,y,z
2 1/2-x,1/2+y,1/2-z
3 -x,-y,-z
4 -1/2+x,-1/2-y,-1/2+z
_cell_length_a 5.5069(17)
_cell_length_b 9.0683(13)
_cell_length_c 11.426(2)
_cell_angle_alpha 90
_cell_angle_beta 92.486(16)
_cell_angle_gamma 90
_cell_formula_units_Z 4
loop_
_atom_type_symbol
_atom_type_radius_bond
C 0.68
H 0.23
N 0.68
O 0.68
loop_
_atom_site_label
_atom_site_type_symbol
_atom_site_fract_x
_atom_site_fract_y
_atom_site_fract_z
O1 O 1.00868(11) 0.46484(7) 0.15162(5)
O2 O 0.23179(11) 0.69438(7) 0.33100(5)
O3 O 0.12651(12) 0.80904(7) 0.16868(6)
N1 N 0.72083(12) 0.60992(8) 0.04801(6)
N2 N 0.51243(12) 0.68669(7) 0.06627(6)
N3 N 0.69705(12) 0.55266(8) 0.34818(6)
N4 N 0.26314(12) 0.73093(7) 0.22891(6)
C1 C 0.82380(13) 0.54163(8) 0.14583(6)
C2 C 0.66015(13) 0.58544(8) 0.23554(6)
N5 N 0.73953(14) 0.52009(10) 0.44072(6)
C3 C 0.47729(13) 0.67236(8) 0.17784(6)
H1 H 0.779(2) 0.6050(15) -0.0231(12)
#END
