
#######################################################################
#
#                 Cambridge Crystallographic Data Centre
#                                CCDC
#
#######################################################################
#
# If this CIF has been generated from an entry in the Cambridge
# Structural Database, then it will include bibliographic, chemical,
# crystal, experimental, refinement or atomic coordinate data resulting
# from the CCDC's data processing and validation procedures.
#
#######################################################################

data_CSD_CIF_GAYXIP
_audit_creation_date 2012-09-26
_audit_creation_method CSD-ConQuest-V1
_database_code_CSD GAYXIP
_database_code_depnum_ccdc_archive 'CCDC 846380'
_chemical_formula_sum 'C29 H24 N2 O7'
_chemical_formula_moiety
;
C29 H24 N2 O7
;
_journal_coden_Cambridge 16
_journal_volume 68
_journal_year 2012
_journal_page_first 4485
_journal_name_full 'Tetrahedron '
loop_
_publ_author_name
"P.Prabhakaran"
"V.Azzarito"
"T.Jacobs"
"M.J.Hardie"
"C.A.Kilner"
"T.A.Edwards"
"S.L.Warriner"
"A.J.Wilson"
_chemical_name_systematic
;
Methyl 3-(benzyloxy)-4-((3-(benzyloxy)-4-nitrobenzoyl)amino)benzoate
;
_cell_volume   1295.818
_exptl_crystal_colour 'colorless'
_exptl_crystal_density_diffrn 1.314
_exptl_crystal_description 'needle'
_diffrn_ambient_temperature 150
#These two values have been output from a single CSD field.
_refine_ls_R_factor_gt 0.0759
_refine_ls_wR_factor_gt 0.0759
_symmetry_cell_setting triclinic
_symmetry_space_group_name_H-M 'P -1'
_symmetry_Int_Tables_number 2
loop_
_symmetry_equiv_pos_site_id
_symmetry_equiv_pos_as_xyz
1 x,y,z
2 -x,-y,-z
_cell_length_a 7.1879(10)
_cell_length_b 12.1852(15)
_cell_length_c 15.8896(19)
_cell_angle_alpha 69.944(5)
_cell_angle_beta 86.962(6)
_cell_angle_gamma 82.412(6)
_cell_formula_units_Z 2
loop_
_atom_type_symbol
_atom_type_radius_bond
C 0.68
H 0.23
N 0.68
O 0.68
loop_
_atom_site_label
_atom_site_type_symbol
_atom_site_fract_x
_atom_site_fract_y
_atom_site_fract_z
O1 O 0.3659(3) 1.56618(16) -0.26023(11)
N1 N 0.2778(3) 1.02929(18) -0.02897(11)
C1 C 0.3839(5) 1.6915(3) -0.29684(18)
H1 H 0.30600 1.73250 -0.26170
H2 H 0.34230 1.72290 -0.35930
H3 H 0.51540 1.70330 -0.29420
O2 O 0.4473(2) 1.56654(16) -0.12344(11)
N2 N 0.1091(3) 0.48824(19) 0.17218(13)
C2 C 0.4014(3) 1.5138(2) -0.17093(15)
O3 O 0.3378(2) 1.13950(15) 0.07913(10)
C3 C 0.3747(3) 1.3862(2) -0.13807(14)
O4 O 0.1659(2) 0.98722(15) -0.14662(10)
C4 C 0.3488(3) 1.3262(2) -0.19762(14)
H4 H 0.35090 1.36650 -0.26050
O5 O 0.1282(2) 0.66932(15) 0.2442(1)
C5 C 0.3200(3) 1.2071(2) -0.16394(14)
H5 H 0.30510 1.16640 -0.20410
O6 O 0.1892(3) 0.44671(17) 0.24611(11)
C6 C 0.3129(3) 1.1478(2) -0.07064(14)
O7 O 0.0138(3) 0.43095(16) 0.14293(12)
C7 C 0.3426(3) 1.2084(2) -0.01052(14)
C8 C 0.3751(3) 1.3260(2) -0.04392(14)
H6 H 0.39730 1.36570 -0.00400
C9 C 0.2042(3) 0.9568(2) -0.06542(14)
C10 C 0.1761(3) 0.8370(2) -0.00045(14)
C11 C 0.1584(3) 0.7473(2) -0.03561(14)
H7 H 0.16200 0.76390 -0.09860
C12 C 0.1355(3) 0.6343(2) 0.02186(15)
H8 H 0.12340 0.57380 -0.00180
C13 C 0.1304(3) 0.6102(2) 0.11502(14)
C14 C 0.1447(3) 0.6989(2) 0.15267(14)
C15 C 0.1671(3) 0.8117(2) 0.09388(14)
H9 H 0.17660 0.87270 0.11730
C16 C 0.3508(4) 1.1977(2) 0.14520(14)
H10 H 0.25350 1.26660 0.13340
H11 H 0.47540 1.22550 0.14090
C17 C 0.3222(4) 1.1098(2) 0.23855(15)
C18 C 0.1449(4) 1.1037(3) 0.27762(19)
H12 H 0.04050 1.15260 0.24460
C19 C 0.1165(5) 1.0270(4) 0.3649(2)
H13 H -0.00630 1.02410 0.39010
C20 C 0.2668(5) 0.9555(3) 0.41409(18)
H14 H 0.24820 0.90360 0.47330
C21 C 0.4445(6) 0.9603(3) 0.3762(2)
H15 H 0.54830 0.91150 0.40980
C22 C 0.4737(4) 1.0361(3) 0.28877(18)
H16 H 0.59650 1.03760 0.26350
C23 C 0.1392(4) 0.7618(2) 0.28251(15)
H17 H 0.03830 0.82760 0.25830
H18 H 0.26180 0.79290 0.26780
C24 C 0.1165(4) 0.7059(2) 0.38305(15)
C25 C -0.0535(5) 0.7156(4) 0.4245(2)
H19 H -0.15970 0.75940 0.39000
C26 C -0.0727(5) 0.6609(4) 0.5185(2)
H20 H -0.19150 0.66820 0.54660
C27 C 0.0806(5) 0.5972(3) 0.56921(19)
H21 H 0.06770 0.55950 0.63200
C28 C 0.2513(6) 0.5888(3) 0.52816(19)
H22 H 0.35820 0.54730 0.56300
C29 C 0.2701(5) 0.6408(3) 0.43530(18)
H23 H 0.38860 0.63170 0.40750
H24 H 0.28650 1.00070 0.03320
#END
