
#######################################################################
#
#                 Cambridge Crystallographic Data Centre
#                                CCDC
#
#######################################################################
#
# If this CIF has been generated from an entry in the Cambridge
# Structural Database, then it will include bibliographic, chemical,
# crystal, experimental, refinement or atomic coordinate data resulting
# from the CCDC's data processing and validation procedures.
#
#######################################################################

data_CSD_CIF_GAYYUC
_audit_creation_date 2012-09-26
_audit_creation_method CSD-ConQuest-V1
_database_code_CSD GAYYUC
_database_code_depnum_ccdc_archive 'CCDC 850704'
_chemical_formula_sum 'C23 H26 N4 O9'
_chemical_formula_moiety
;
C23 H26 N4 O9
;
_journal_coden_Cambridge 16
_journal_volume 68
_journal_year 2012
_journal_page_first 4501
_journal_name_full 'Tetrahedron '
loop_
_publ_author_name
"S.Thompson"
"R.Vallinayagam"
"M.J.Adler"
"R.T.W.Scott"
"A.D.Hamilton"
_chemical_name_systematic
;
Methyl 
2-acetamido-4-((2-(isobutyrylamino)-5-methoxy-4-nitrobenzoyl)amino)-5-methoxyb
enzoate
;
_cell_volume   1209.768
_exptl_crystal_colour 'yellow'
_exptl_crystal_density_diffrn 1.379
_exptl_crystal_description 'block'
_diffrn_ambient_temperature 150
#These two values have been output from a single CSD field.
_refine_ls_R_factor_gt 0.0415
_refine_ls_wR_factor_gt 0.0415
_symmetry_cell_setting triclinic
_symmetry_space_group_name_H-M 'P -1'
_symmetry_Int_Tables_number 2
loop_
_symmetry_equiv_pos_site_id
_symmetry_equiv_pos_as_xyz
1 x,y,z
2 -x,-y,-z
_cell_length_a 10.1922(2)
_cell_length_b 10.7676(2)
_cell_length_c 12.4992(3)
_cell_angle_alpha 111.389(1)
_cell_angle_beta 106.4208(10)
_cell_angle_gamma 92.179(1)
_cell_formula_units_Z 2
loop_
_atom_type_symbol
_atom_type_radius_bond
C 0.68
H 0.23
N 0.68
O 0.68
loop_
_atom_site_label
_atom_site_type_symbol
_atom_site_fract_x
_atom_site_fract_y
_atom_site_fract_z
N1 N 0.75377(16) 0.49749(17) 0.26532(15)
N2 N 0.97194(18) 0.23055(17) 0.49263(15)
N3 N 0.35494(17) 0.33645(17) 0.06741(16)
N4 N 0.27487(18) 0.75256(17) 0.00479(16)
O1 O 0.57010(14) 0.37720(16) 0.27278(14)
O2 O 0.76413(15) 0.25405(16) 0.52799(14)
O3 O 0.97905(14) 0.53580(14) 0.21712(12)
O4 O 1.23376(14) 0.20389(15) 0.49822(13)
O5 O 1.33129(15) 0.32300(19) 0.41935(16)
O6 O 0.19243(16) 0.27515(15) -0.11708(14)
O7 O 0.15308(16) 0.74710(16) 0.00088(16)
O8 O 0.32772(18) 0.81079(16) -0.04398(15)
O9 O 0.51545(16) 0.88566(14) 0.18929(14)
C1 C 0.6165(2) 0.4642(2) 0.24621(17)
C2 C 0.86363(19) 0.43562(18) 0.30969(16)
C3 C 0.85775(19) 0.35982(19) 0.37781(17)
C4 C 0.97389(19) 0.30586(19) 0.42153(16)
C5 C 0.8737(2) 0.2111(2) 0.54286(18)
C6 C 0.9139(2) 0.1302(2) 0.6200(2)
C7 C 1.09580(19) 0.3276(2) 0.39461(17)
C8 C 1.09956(19) 0.4039(2) 0.32531(17)
C9 C 0.98551(19) 0.45728(19) 0.28318(16)
C10 C 1.0909(2) 0.5438(2) 0.1704(2)
C11 C 1.2239(2) 0.2773(2) 0.44242(18)
C12 C 1.4628(2) 0.2823(3) 0.4646(3)
C13 C 0.52460(19) 0.5409(2) 0.18553(17)
C14 C 0.39727(19) 0.47339(19) 0.09500(17)
C15 C 0.2557(2) 0.2461(2) -0.03300(19)
C16 C 0.2326(2) 0.1067(2) -0.0307(2)
C17 C 0.1050(3) 0.0198(3) -0.1337(3)
C18 C 0.2227(4) 0.1137(3) 0.0905(3)
C19 C 0.31635(19) 0.54642(19) 0.03744(17)
C20 C 0.3626(2) 0.68096(19) 0.07019(17)
C21 C 0.4851(2) 0.75148(19) 0.16208(18)
C22 C 0.5650(2) 0.6784(2) 0.21911(18)
C23 C 0.6276(3) 0.9620(2) 0.2969(2)
H1 H 1.049(2) 0.199(2) 0.512(2)
H2 H 0.776(2) 0.552(2) 0.234(2)
H3 H 0.403(3) 0.304(3) 0.121(2)
H4 H 0.77480 0.34460 0.39480
H5 H 0.84200 0.12020 0.65210
H6 H 0.99690 0.17600 0.68470
H7 H 0.92820 0.04370 0.57190
H8 H 1.18180 0.41880 0.30730
H9 H 1.07470 0.60070 0.12670
H10 H 1.17530 0.57990 0.23570
H11 H 1.09690 0.45600 0.11790
H12 H 1.53160 0.32060 0.44290
H13 H 1.48890 0.31310 0.55030
H14 H 1.45400 0.18660 0.43010
H15 H 0.31040 0.06460 -0.04280
H16 H 0.09260 -0.06660 -0.13070
H17 H 0.11680 0.00990 -0.20900
H18 H 0.02590 0.06160 -0.12590
H19 H 0.20840 0.02490 0.08800
H20 H 0.30630 0.16270 0.15300
H21 H 0.14740 0.15810 0.10630
H22 H 0.23010 0.50370 -0.02380
H23 H 0.64930 0.72310 0.28250
H24 H 0.63880 1.05370 0.30630
H25 H 0.71040 0.92660 0.29080
H26 H 0.60810 0.95630 0.36510
#END
