
#######################################################################
#
#                 Cambridge Crystallographic Data Centre
#                                CCDC
#
#######################################################################
#
# If this CIF has been generated from an entry in the Cambridge
# Structural Database, then it will include bibliographic, chemical,
# crystal, experimental, refinement or atomic coordinate data resulting
# from the CCDC's data processing and validation procedures.
#
#######################################################################

data_CSD_CIF_GAZCER
_audit_creation_date 2012-09-26
_audit_creation_method CSD-ConQuest-V1
_database_code_CSD GAZCER
_database_code_depnum_ccdc_archive 'CCDC 859540'
_chemical_formula_sum 'C14 H14 N2 O5'
_chemical_formula_moiety
;
C14 H14 N2 O5
;
_journal_coden_Cambridge 16
_journal_volume 68
_journal_year 2012
_journal_page_first 4719
_journal_name_full 'Tetrahedron '
loop_
_publ_author_name
"J.Bezensek"
"B.Prek"
"U.Groselj"
"M.Kasunic"
"J.Svete"
"B.Stanovnik"
_chemical_name_systematic
;
Dimethyl 2-(1-methyl-1H-pyrrol-2-yl)-N-oxypyridine-4,5-dicarboxylate
;
_cell_volume   2832.822
_exptl_crystal_colour 'yellow'
_exptl_crystal_density_diffrn 1.361
_exptl_crystal_description 'prism'
_diffrn_ambient_temperature 293
#These two values have been output from a single CSD field.
_refine_ls_R_factor_gt 0.0468
_refine_ls_wR_factor_gt 0.0468
_symmetry_cell_setting monoclinic
_symmetry_space_group_name_H-M 'C 2/c'
_symmetry_Int_Tables_number 15
loop_
_symmetry_equiv_pos_site_id
_symmetry_equiv_pos_as_xyz
1 x,y,z
2 -x,y,1/2-z
3 1/2+x,1/2+y,z
4 1/2-x,1/2+y,1/2-z
5 -x,-y,-z
6 x,-y,-1/2+z
7 -1/2-x,-1/2-y,-z
8 -1/2+x,-1/2-y,-1/2+z
_cell_length_a 14.9568(3)
_cell_length_b 11.4909(2)
_cell_length_c 16.9349(4)
_cell_angle_alpha 90
_cell_angle_beta 103.2714(12)
_cell_angle_gamma 90
_cell_formula_units_Z 8
loop_
_atom_type_symbol
_atom_type_radius_bond
C 0.68
H 0.23
N 0.68
O 0.68
loop_
_atom_site_label
_atom_site_type_symbol
_atom_site_fract_x
_atom_site_fract_y
_atom_site_fract_z
C1 C 0.68783(11) 0.03058(14) 0.63422(10)
C2 C 0.59636(12) 0.01245(15) 0.63528(10)
C3 C 0.52639(11) 0.08299(14) 0.59273(10)
C4 C 0.55092(11) 0.17615(14) 0.54861(10)
C5 C 0.64138(12) 0.19300(15) 0.54701(10)
C6 C 0.48344(12) 0.26182(15) 0.50174(11)
C7 C 0.3846(2) 0.4174(2) 0.51397(19)
H1 H 0.40330 0.45630 0.47020
H2 H 0.37660 0.47360 0.55370
H3 H 0.32770 0.37740 0.49340
C8 C 0.42776(12) 0.05795(16) 0.58858(10)
C9 C 0.32332(15) -0.0582(2) 0.63868(15)
H4 H 0.28900 0.00490 0.65430
H5 H 0.32360 -0.12280 0.67470
H6 H 0.29530 -0.08140 0.58420
C10 C 0.75986(11) -0.04842(16) 0.67523(10)
C11 C 0.75853(16) -0.16744(19) 0.67087(14)
C12 C 0.83838(16) -0.2090(2) 0.72368(16)
C13 C 0.88508(15) -0.1157(2) 0.75964(14)
C14 C 0.86723(17) 0.1014(2) 0.75604(17)
H7 H 0.90880 0.09900 0.80840
H8 H 0.81420 0.14670 0.75910
H9 H 0.89740 0.13620 0.71760
N1 N 0.70856(9) 0.12099(12) 0.58798(9)
N2 N 0.83888(10) -0.01632(15) 0.73023(9)
O1 O 0.46288(11) 0.26636(14) 0.42929(9)
O2 O 0.45495(10) 0.33362(13) 0.55136(9)
O3 O 0.36573(9) 0.10124(14) 0.53964(10)
O4 O 0.41665(9) -0.02090(13) 0.64297(9)
O5 O 0.79222(8) 0.13759(11) 0.58103(9)
H10 H 0.5830(13) -0.0539(18) 0.6671(12)
H11 H 0.6651(16) 0.255(2) 0.5203(14)
H12 H 0.714(2) -0.211(2) 0.6419(17)
H13 H 0.857(2) -0.291(3) 0.737(2)
H14 H 0.943(2) -0.101(2) 0.7993(18)
#END
