
#######################################################################
#
#                 Cambridge Crystallographic Data Centre
#                                CCDC
#
#######################################################################
#
# If this CIF has been generated from an entry in the Cambridge
# Structural Database, then it will include bibliographic, chemical,
# crystal, experimental, refinement or atomic coordinate data resulting
# from the CCDC's data processing and validation procedures.
#
#######################################################################

data_CSD_CIF_GAZXOU
_audit_creation_date 1989-02-16
_audit_creation_method CSD-ConQuest-V1
_database_code_CSD GAZXOU
_database_code_depnum_ccdc_archive 'CCDC 1164821'
_chemical_formula_sum 'C10 H18 N3 O2'
_chemical_formula_moiety
;
C10 H18 N3 O2
;
_journal_coden_Cambridge 122
_journal_year 1987
_journal_page_first 792
_journal_name_full 'Khim.Get.Soedin.,SSSR(Russ.)(Chem.Heterocycl.Compd.) '
loop_
_publ_author_name
"M.M.Mitasov"
"Yu.V.Gatilov"
"I.A.Grigor'ev"
"G.I.Shchukin"
"I.K.Korobeinicheva"
"L.B.Volodarskii"
_chemical_name_systematic
;
4-(1-Methoxyiminoethyl)-2,2,5,5-tetramethyl-3-imidazoline 1-oxide
;
_cell_volume    592.873
_diffrn_ambient_temperature 177.15
#These two values have been output from a single CSD field.
_refine_ls_R_factor_gt 0.065
_refine_ls_wR_factor_gt 0.065
_symmetry_cell_setting triclinic
_symmetry_space_group_name_H-M 'P -1'
_symmetry_Int_Tables_number 2
loop_
_symmetry_equiv_pos_site_id
_symmetry_equiv_pos_as_xyz
1 x,y,z
2 -x,-y,-z
_cell_length_a 8.095(5)
_cell_length_b 8.773(5)
_cell_length_c 9.626(5)
_cell_angle_alpha 84.83(4)
_cell_angle_beta 68.18(4)
_cell_angle_gamma 69.27(4)
_cell_formula_units_Z 2
loop_
_atom_type_symbol
_atom_type_radius_bond
C 0.68
H 0.23
N 0.68
O 0.68
loop_
_atom_site_label
_atom_site_type_symbol
_atom_site_fract_x
_atom_site_fract_y
_atom_site_fract_z
N1 N 0.2547(4) 0.1410(4) 0.8417(4)
C1 C 0.4033(5) 0.2188(5) 0.7846(5)
N2 N 0.3098(4) 0.3677(4) 0.7231(3)
C2 C 0.1387(5) 0.3801(5) 0.7417(4)
C3 C 0.0779(5) 0.2404(5) 0.8188(4)
C4 C 0.5736(6) 0.1058(6) 0.6610(6)
C5 C 0.4498(7) 0.2559(6) 0.9124(6)
C6 C -0.0836(6) 0.2918(6) 0.9714(5)
C7 C 0.0381(6) 0.1407(6) 0.7213(6)
C8 C 0.0179(5) 0.5252(5) 0.6925(4)
N3 N -0.1481(4) 0.5191(4) 0.7105(4)
C9 C 0.0854(8) 0.6635(6) 0.6305(6)
C10 C -0.4402(6) 0.6529(7) 0.6951(6)
O1 O 0.2762(4) 0.0101(4) 0.9093(4)
O2 O -0.2524(4) 0.6619(3) 0.6629(3)
H1 H 0.554(5) 0.081(5) 0.557(4)
H2 H 0.638(6) -0.013(5) 0.706(5)
H3 H 0.651(6) 0.142(5) 0.627(5)
H4 H 0.322(6) 0.340(6) 1.010(5)
H5 H 0.516(6) 0.311(6) 0.890(5)
H6 H 0.507(5) 0.151(4) 0.964(4)
H7 H -0.082(5) 0.206(5) 1.024(4)
H8 H -0.048(5) 0.365(4) 1.044(4)
H9 H -0.186(5) 0.367(5) 0.956(4)
H10 H -0.064(6) 0.208(5) 0.694(4)
H11 H 0.131(6) 0.122(5) 0.612(5)
H12 H 0.043(4) 0.038(4) 0.770(4)
H13 H 0.073(6) 0.686(5) 0.524(5)
H14 H -0.020(7) 0.780(6) 0.695(5)
H15 H 0.166(6) 0.659(6) 0.647(5)
H16 H -0.512(6) 0.773(5) 0.661(5)
H17 H -0.494(6) 0.657(5) 0.809(5)
H18 H -0.411(6) 0.581(6) 0.610(5)
#END
