
#######################################################################
#
#                 Cambridge Crystallographic Data Centre
#                                CCDC
#
#######################################################################
#
# If this CIF has been generated from an entry in the Cambridge
# Structural Database, then it will include bibliographic, chemical,
# crystal, experimental, refinement or atomic coordinate data resulting
# from the CCDC's data processing and validation procedures.
#
#######################################################################

data_CSD_CIF_GAZXEK
_audit_creation_date 1989-02-16
_audit_creation_method CSD-ConQuest-V1
_database_code_CSD GAZXEK
_chemical_formula_sum 'C10 H17 N1 O7'
_chemical_formula_moiety
;
C10 H17 N1 O7
;
_journal_coden_Cambridge 156
_journal_volume 164
_journal_year 1987
_journal_page_first 357
_journal_name_full 'Carbohydr.Res. '
loop_
_publ_author_name
"F.W.Lichtenthaler"
"A.Pashalidis"
"H.J.Lindner"
_chemical_name_systematic
;
4-Deoxy-1,2-O-isopropylidene-4(R)-C-methyl-4-nitro-\a-L-tagatopyranoside
;
_chemical_melting_point 412.15
_cell_volume   1217.316
_exptl_crystal_density_diffrn 1.437
_exptl_special_details
;
Melting point range 412.15-413.15K

;
_diffrn_ambient_temperature ?
_diffrn_special_details
;
The study was carried out at room temperature,in the range 283-303K

;
#These two values have been output from a single CSD field.
_refine_ls_R_factor_gt 0.027
_refine_ls_wR_factor_gt 0.027
_symmetry_cell_setting orthorhombic
_symmetry_space_group_name_H-M 'P 21 21 21'
_symmetry_Int_Tables_number 19
loop_
_symmetry_equiv_pos_site_id
_symmetry_equiv_pos_as_xyz
1 x,y,z
2 1/2+x,1/2-y,-z
3 -x,1/2+y,1/2-z
4 1/2-x,-y,1/2+z
_cell_length_a 16.677
_cell_length_b 11.477
_cell_length_c 6.36
_cell_angle_alpha 90
_cell_angle_beta 90
_cell_angle_gamma 90
_cell_formula_units_Z 4
loop_
_atom_type_symbol
_atom_type_radius_bond
C 0.68
H 0.23
N 0.68
O 0.68
loop_
_atom_site_label
_atom_site_type_symbol
_atom_site_fract_x
_atom_site_fract_y
_atom_site_fract_z
O1 O 0.7197(1) 0.1996(1) 0.0101(2)
C1 C 0.7911(1) 0.2533(1) 0.0899(2)
C2 C 0.8662(1) 0.1862(1) 0.0278(2)
O2 O 0.9300(1) 0.2541(1) 0.1088(2)
C3 C 0.8693(1) 0.1731(1) -0.2129(2)
C4 C 0.9003(1) 0.2818(2) -0.3233(3)
N1 N 0.9288(1) 0.0759(1) -0.2675(2)
O3 O 0.9330(1) 0.0471(1) -0.4534(2)
O4 O 0.9700(1) 0.0335(1) -0.1292(2)
C5 C 0.7878(1) 0.1285(1) -0.2976(2)
O5 O 0.7744(1) 0.0117(1) -0.2285(2)
C6 C 0.7181(1) 0.2002(1) -0.2146(2)
C7 C 0.6351(1) 0.1612(1) -0.2829(3)
O6 O 0.5905(1) 0.2669(1) -0.2803(2)
C8 C 0.6435(1) 0.3594(1) -0.3306(3)
C9 C 0.6384(1) 0.3925(2) -0.5602(3)
C10 C 0.6266(1) 0.4590(2) -0.1821(4)
O7 O 0.7229(1) 0.3142(1) -0.2940(2)
H1 H 0.793(1) 0.336(1) 0.035(3)
H2 H 0.785(1) 0.255(1) 0.244(3)
H3 H 0.866(1) 0.108(1) 0.090(3)
H4 H 0.972(1) 0.210(2) 0.132(3)
H5 H 0.865(1) 0.351(1) -0.289(3)
H6 H 0.942(1) 0.273(1) -0.466(3)
H7 H 0.953(1) 0.298(1) -0.280(3)
H8 H 0.787(1) 0.131(1) -0.457(3)
H9 H 0.782(1) -0.032(1) -0.333(3)
H10 H 0.610(1) 0.112(1) -0.188(3)
H11 H 0.637(1) 0.130(1) -0.420(3)
H12 H 0.587(1) 0.433(1) -0.578(3)
H13 H 0.636(1) 0.323(2) -0.651(3)
H14 H 0.680(1) 0.446(1) -0.584(3)
H15 H 0.668(1) 0.520(1) -0.198(3)
H16 H 0.630(1) 0.426(2) -0.035(3)
H17 H 0.574(1) 0.488(1) -0.207(3)
#END
