
#######################################################################
#
#                 Cambridge Crystallographic Data Centre
#                                CCDC
#
#######################################################################
#
# If this CIF has been generated from an entry in the Cambridge
# Structural Database, then it will include bibliographic, chemical,
# crystal, experimental, refinement or atomic coordinate data resulting
# from the CCDC's data processing and validation procedures.
#
#######################################################################

data_CSD_CIF_GECXAP
_audit_creation_date 2012-09-26
_audit_creation_method CSD-ConQuest-V1
_database_code_CSD GECXAP
_database_code_depnum_ccdc_archive 'CCDC 869646'
_chemical_formula_sum 'C20 H15 N3 O7'
_chemical_formula_moiety
;
C20 H15 N3 O7
;
_journal_coden_Cambridge 16
_journal_volume 68
_journal_year 2012
_journal_page_first 5346
_journal_name_full 'Tetrahedron '
loop_
_publ_author_name
"I.Okamoto"
"Y.Takahashi"
"M.Sawamura"
"M.Matsumura"
"H.Masu"
"K.Katagiri"
"I.Azumaya"
"M.Nishino"
"Y.Kohama"
"N.Morita"
"O.Tamura"
"H.Kagechika"
"A.Tanatani"
_chemical_name_systematic
;
N-(2,5-Dihydroxyphenyl)-2-(2,4-dinitrophenyl)-N-phenylacetamide unknown 
solvate
;
_cell_volume   9149.149
_exptl_crystal_colour 'brown'
_exptl_crystal_density_diffrn 1.337
_exptl_crystal_description 'prismatic'
_diffrn_ambient_temperature 150
_refine_special_details
;
The SQUEEZE/PLATON program has been used to model some disorder.

;
#These two values have been output from a single CSD field.
_refine_ls_R_factor_gt 0.0712
_refine_ls_wR_factor_gt 0.0712
_symmetry_cell_setting rhombohedral
_symmetry_space_group_name_H-M 'R -3'
_symmetry_Int_Tables_number 148
loop_
_symmetry_equiv_pos_site_id
_symmetry_equiv_pos_as_xyz
1 x,y,z
2 -y,x-y,z
3 -x+y,-x,z
4 2/3+x,1/3+y,1/3+z
5 2/3-y,1/3+x-y,1/3+z
6 2/3-x+y,1/3-x,1/3+z
7 1/3+x,2/3+y,2/3+z
8 1/3-y,2/3+x-y,2/3+z
9 1/3-x+y,2/3-x,2/3+z
10 -x,-y,-z
11 y,-x+y,-z
12 x-y,x,-z
13 -2/3-x,-1/3-y,-1/3-z
14 -2/3+y,-1/3-x+y,-1/3-z
15 -2/3+x-y,-1/3+x,-1/3-z
16 -1/3-x,-2/3-y,-2/3-z
17 -1/3+y,-2/3-x+y,-2/3-z
18 -1/3+x-y,-2/3+x,-2/3-z
_cell_length_a 22.5515(14)
_cell_length_b 22.5515(14)
_cell_length_c 20.773(3)
_cell_angle_alpha 90
_cell_angle_beta 90
_cell_angle_gamma 120
_cell_formula_units_Z 18
loop_
_atom_type_symbol
_atom_type_radius_bond
C 0.68
H 0.23
N 0.68
O 0.68
loop_
_atom_site_label
_atom_site_type_symbol
_atom_site_fract_x
_atom_site_fract_y
_atom_site_fract_z
O1 O 0.65611(12) 0.00996(14) 0.20819(11)
O2 O 0.67049(16) 0.01644(14) 0.41599(12)
H1 H 0.65550 -0.00060 0.45250
O3 O 0.64203(15) 0.13773(16) 0.18048(16)
O4 O 0.68580(19) 0.26713(18) 0.39159(15)
H2 H 0.69460 0.28100 0.35340
O5 O 0.59130(17) 0.14355(18) 0.09395(16)
O6 O 0.3962(2) -0.0477(2) 0.0086(2)
O7 O 0.3434(2) -0.1396(3) 0.0613(2)
N1 N 0.69735(14) 0.07760(15) 0.29607(12)
N2 N 0.59543(18) 0.11295(19) 0.14077(18)
N3 N 0.3887(2) -0.0820(3) 0.0560(2)
C1 C 0.66641(18) 0.17265(19) 0.45552(17)
H3 H 0.65790 0.19360 0.49130
C2 C 0.68743(16) 0.11076(18) 0.35091(16)
C3 C 0.66326(19) 0.11080(19) 0.46317(16)
H4 H 0.65400 0.08990 0.50440
C4 C 0.67352(17) 0.07862(18) 0.41136(16)
C5 C 0.76464(17) 0.08500(19) 0.28749(15)
C6 C 0.69224(18) 0.1735(2) 0.34471(17)
H5 H 0.70300 0.19560 0.30400
C7 C 0.81455(19) 0.1424(2) 0.25642(18)
H6 H 0.80440 0.17580 0.24030
C8 C 0.64680(17) 0.04044(19) 0.25334(16)
C9 C 0.6818(2) 0.20480(19) 0.39633(17)
C10 C 0.53094(17) 0.0071(2) 0.20922(16)
C11 C 0.53787(18) 0.0416(2) 0.15145(18)
C12 C 0.77812(19) 0.0359(2) 0.31006(18)
H7 H 0.74320 -0.00400 0.33060
C13 C 0.57853(18) 0.0350(2) 0.26561(17)
H8 H 0.55680 0.00490 0.30330
H9 H 0.58580 0.08090 0.27640
C14 C 0.8436(2) 0.0452(2) 0.30258(19)
H10 H 0.85340 0.01160 0.31860
C15 C 0.4919(2) 0.0139(2) 0.10144(19)
H11 H 0.49790 0.03900 0.06290
C16 C 0.4380(2) -0.0499(3) 0.1084(2)
C17 C 0.47408(19) -0.0575(2) 0.21438(19)
H12 H 0.46710 -0.08260 0.25310
C18 C 0.8796(2) 0.1512(2) 0.2487(2)
H13 H 0.91430 0.19060 0.22730
C19 C 0.8934(2) 0.1017(3) 0.2727(2)
H14 H 0.93790 0.10750 0.26800
C20 C 0.4268(2) -0.0869(2) 0.1650(2)
H15 H 0.38780 -0.13110 0.16970
#END
