
#######################################################################
#
#                 Cambridge Crystallographic Data Centre
#                                CCDC
#
#######################################################################
#
# If this CIF has been generated from an entry in the Cambridge
# Structural Database, then it will include bibliographic, chemical,
# crystal, experimental, refinement or atomic coordinate data resulting
# from the CCDC's data processing and validation procedures.
#
#######################################################################

data_CSD_CIF_GEDTEO
_audit_creation_date 1989-02-16
_audit_creation_method CSD-ConQuest-V1
_database_code_CSD GEDTEO
_chemical_formula_sum 'C23 H24 N4 O3'
_chemical_formula_moiety
;
C23 H24 N4 O3
;
_journal_coden_Cambridge 582
_journal_volume 18
_journal_year 1988
_journal_page_first 15
_journal_name_full 'J.Crystallogr.Spectrosc.Res. '
loop_
_publ_author_name
"J.M.M.Smits"
"P.T.Beurskens"
"J.R.M.Smits"
"R.Plate"
"H.Ottenheijm"
_chemical_name_systematic
;
2-(7-Cyanonorcaran-7-yl)-5-(ethoxycarbonyl)-4,5,6,11b-tetrahydro-(\D^4^-1,2,4-
oxadiazolino)(2,3-a)-\b-carboline
;
_cell_volume   1999.495
_exptl_crystal_density_diffrn 1.344
_diffrn_ambient_temperature ?
_diffrn_special_details
;
The study was carried out at room temperature,in the range 283-303K

;
#These two values have been output from a single CSD field.
_refine_ls_R_factor_gt 0.03
_refine_ls_wR_factor_gt 0.03
_symmetry_cell_setting orthorhombic
_symmetry_space_group_name_H-M 'P n a 21'
_symmetry_Int_Tables_number 33
loop_
_symmetry_equiv_pos_site_id
_symmetry_equiv_pos_as_xyz
1 x,y,z
2 1/2-x,1/2+y,1/2+z
3 1/2+x,1/2-y,z
4 -x,-y,1/2+z
_cell_length_a 9.0386(4)
_cell_length_b 28.0249(14)
_cell_length_c 7.8936(9)
_cell_angle_alpha 90
_cell_angle_beta 90
_cell_angle_gamma 90
_cell_formula_units_Z 4
loop_
_atom_type_symbol
_atom_type_radius_bond
C 0.68
H 0.23
N 0.68
O 0.68
loop_
_atom_site_label
_atom_site_type_symbol
_atom_site_fract_x
_atom_site_fract_y
_atom_site_fract_z
N1 N 0.3440(2) -0.05697(5) 0.0455(3)
C1 C 0.2388(2) -0.08567(6) 0.0180(3)
O1 O 0.1264(1) -0.07078(4) -0.0859(3)
N2 N 0.1449(2) -0.01874(5) -0.0968(3)
C2 C 0.0579(2) 0.00136(6) 0.0484(3)
C3 C 0.0799(2) 0.05517(6) 0.0473(4)
C4 C 0.2418(2) 0.06505(6) 0.0582(3)
C5 C 0.3228(2) 0.10629(7) 0.1149(4)
C6 C 0.2809(3) 0.15084(7) 0.1799(4)
C7 C 0.3901(3) 0.18205(8) 0.2295(4)
C8 C 0.5392(3) 0.16967(9) 0.2161(4)
C9 C 0.5846(3) 0.12641(8) 0.1520(4)
C10 C 0.4738(2) 0.09478(7) 0.0999(4)
N3 N 0.4851(2) 0.04918(6) 0.0341(3)
C11 C 0.3435(2) 0.03202(6) 0.0110(3)
C12 C 0.3078(2) -0.01535(6) -0.0615(4)
C13 C 0.3310(2) -0.15151(7) 0.2153(4)
C14 C 0.3744(3) -0.20366(9) 0.2271(6)
C15 C 0.2493(3) -0.23690(9) 0.2802(5)
C16 C 0.1567(3) -0.21594(9) 0.4184(5)
C17 C 0.0812(3) -0.17046(9) 0.3610(5)
C18 C 0.1887(2) -0.13485(7) 0.2848(4)
C19 C 0.2156(2) -0.13367(6) 0.0918(4)
C20 C 0.1349(2) -0.16595(7) -0.0156(4)
N4 N 0.0706(3) -0.19150(8) -0.1002(4)
C21 C -0.1051(2) -0.01176(6) 0.0284(4)
O2 O -0.1322(1) -0.05498(5) 0.0889(3)
O3 O -0.1974(2) 0.01418(5) -0.0323(3)
C22 C -0.2806(2) -0.07411(8) 0.0683(4)
C23 C -0.2739(3) -0.12493(9) 0.1233(5)
H1 H 0.094(2) -0.0133(7) 0.164(3)
H2 H 0.032(2) 0.0700(8) -0.067(3)
H3 H 0.032(3) 0.0682(8) 0.149(3)
H4 H 0.175(3) 0.1598(8) 0.188(3)
H5 H 0.358(3) 0.2134(8) 0.270(3)
H6 H 0.618(3) 0.1911(9) 0.251(4)
H7 H 0.694(3) 0.1175(8) 0.144(4)
H8 H 0.571(3) 0.0341(8) 0.000(3)
H9 H 0.356(2) -0.0195(7) -0.174(3)
H10 H 0.420(2) -0.1295(7) 0.226(3)
H11 H 0.417(3) -0.215(1) 0.113(5)
H12 H 0.450(3) -0.2034(9) 0.315(4)
H13 H 0.298(4) -0.266(1) 0.319(4)
H14 H 0.173(5) -0.246(1) 0.185(6)
H15 H 0.084(3) -0.240(1) 0.457(4)
H16 H 0.222(3) -0.208(1) 0.517(4)
H17 H 0.030(4) -0.155(1) 0.461(5)
H18 H -0.003(3) -0.1775(9) 0.276(4)
H19 H 0.190(3) -0.1032(8) 0.332(3)
H20 H -0.346(3) -0.0553(8) 0.142(4)
H21 H -0.306(3) -0.0709(9) -0.047(4)
H22 H -0.193(3) -0.1433(9) 0.057(4)
H23 H -0.365(3) -0.139(1) 0.085(4)
H24 H -0.266(3) -0.126(1) 0.252(5)
#END
