
#######################################################################
#
#                 Cambridge Crystallographic Data Centre
#                                CCDC
#
#######################################################################
#
# If this CIF has been generated from an entry in the Cambridge
# Structural Database, then it will include bibliographic, chemical,
# crystal, experimental, refinement or atomic coordinate data resulting
# from the CCDC's data processing and validation procedures.
#
#######################################################################

data_CSD_CIF_GEDWUH
_audit_creation_date 1989-03-17
_audit_creation_method CSD-ConQuest-V1
_database_code_CSD GEDWUH
_chemical_formula_sum 'C11 H13 N3 O5'
_chemical_formula_moiety
;
C11 H13 N3 O5
;
_journal_coden_Cambridge 154
_journal_volume 41
_journal_year 1988
_journal_page_first 373
_journal_name_full 'Aust.J.Chem. '
loop_
_publ_author_name
"M.P.Hartshorn"
"J.M.Readman"
"W.T.Robinson"
"C.W.Sies"
"G.J.Wright"
_chemical_name_systematic
;
cis-2-Cyano-3,4,6,6-tetramethyl-4,5-dinitrocyclohex-2-enone
;
_chemical_melting_point 415.15
_cell_volume   1232.900
_exptl_crystal_colour 'colorless'
_exptl_crystal_density_diffrn 1.43
_exptl_special_details
;
Melting point range 415.15-416.15K

;
_diffrn_ambient_temperature 173
#These two values have been output from a single CSD field.
_refine_ls_R_factor_gt 0.054
_refine_ls_wR_factor_gt 0.054
_symmetry_cell_setting monoclinic
_symmetry_space_group_name_H-M 'P 21/n'
_symmetry_Int_Tables_number 14
loop_
_symmetry_equiv_pos_site_id
_symmetry_equiv_pos_as_xyz
1 x,y,z
2 1/2-x,1/2+y,1/2-z
3 -x,-y,-z
4 -1/2+x,-1/2-y,-1/2+z
_cell_length_a 6.972(7)
_cell_length_b 15.32(1)
_cell_length_c 11.89(1)
_cell_angle_alpha 90
_cell_angle_beta 103.88(7)
_cell_angle_gamma 90
_cell_formula_units_Z 4
loop_
_atom_type_symbol
_atom_type_radius_bond
C 0.68
H 0.23
N 0.68
O 0.68
loop_
_atom_site_label
_atom_site_type_symbol
_atom_site_fract_x
_atom_site_fract_y
_atom_site_fract_z
O1 O 0.9414(5) 0.7237(2) -0.0150(2)
O2 O 1.0126(8) 0.6055(3) 0.5069(4)
O3 O 0.7421(5) 0.6014(2) 0.3751(3)
O4 O 0.7564(4) 0.7648(2) 0.2171(3)
O5 O 0.8919(6) 0.7934(2) 0.3966(3)
N1 N 0.7052(6) 0.5283(3) -0.0861(3)
N2 N 0.9201(6) 0.6040(2) 0.4064(3)
N3 N 0.8892(9) 0.7594(3) 0.3026(5)
C1 C 0.9789(6) 0.6915(3) 0.0811(4)
C2 C 0.8943(6) 0.6061(3) 0.0999(3)
C3 C 0.9159(6) 0.5659(3) 0.2032(3)
C4 C 1.0362(6) 0.6092(3) 0.3116(3)
C5 C 1.0723(6) 0.7080(3) 0.2958(3)
C6 C 1.1252(8) 0.7317(3) 0.1815(4)
C7 C 0.7869(7) 0.5628(3) -0.0035(4)
C8 C 0.8402(9) 0.4756(3) 0.2143(4)
C9 C 1.2265(8) 0.5594(3) 0.3582(4)
C10 C 1.1352(7) 0.8304(3) 0.1693(4)
C11 C 1.3267(7) 0.6942(3) 0.1771(4)
H1 H 1.1544(54) 0.7260(25) 0.3577(37)
H2 H 0.84860 0.44210 0.14720
H3 H 0.70480 0.47860 0.21940
H4 H 0.91830 0.44800 0.28280
H5 H 1.28130 0.54180 0.29480
H6 H 1.20030 0.50860 0.39960
H7 H 1.31910 0.59650 0.40980
H8 H 1.21140 0.85500 0.24050
H9 H 1.00380 0.85420 0.15230
H10 H 1.19690 0.84420 0.10730
H11 H 1.41950 0.70390 0.25010
H12 H 1.37320 0.72230 0.11630
H13 H 1.31370 0.63250 0.16200
#END
