
#######################################################################
#
#                 Cambridge Crystallographic Data Centre
#                                CCDC
#
#######################################################################
#
# If this CIF has been generated from an entry in the Cambridge
# Structural Database, then it will include bibliographic, chemical,
# crystal, experimental, refinement or atomic coordinate data resulting
# from the CCDC's data processing and validation procedures.
#
#######################################################################

data_CSD_CIF_GEDXIX
_audit_creation_date 2006-07-18
_audit_creation_method CSD-ConQuest-V1
_database_code_CSD GEDXIX
_database_code_depnum_ccdc_archive 'CCDC 269261'
_chemical_formula_sum 'C3 H6 N6 O1'
_chemical_formula_moiety
;
C3 H6 N6 O1
;
_journal_coden_Cambridge 35
_journal_volume 71
_journal_year 2006
_journal_page_first 1295
_journal_name_full 'J.Org.Chem. '
loop_
_publ_author_name
"K.Karaghiosoff"
"T.M.Klapotke"
"P.Mayer"
"H.Piotrowski"
"K.Polborn"
"R.L.Willer"
"J.J.Weigand"
_chemical_name_systematic
;
1-Methyl-5-(methylnitrosoamino)-1H-tetrazole
;
_chemical_melting_point 319.15
_cell_volume    653.819
_exptl_crystal_colour 'colorless'
_exptl_crystal_density_diffrn 1.444
_exptl_special_details
;
Melting point range 319.15-320.15K

;
_exptl_crystal_description 'plate'
_diffrn_ambient_temperature 295
#These two values have been output from a single CSD field.
_refine_ls_R_factor_gt 0.0419
_refine_ls_wR_factor_gt 0.0419
_symmetry_cell_setting monoclinic
_symmetry_space_group_name_H-M 'P 21/c'
_symmetry_Int_Tables_number 14
loop_
_symmetry_equiv_pos_site_id
_symmetry_equiv_pos_as_xyz
1 x,y,z
2 -x,1/2+y,1/2-z
3 -x,-y,-z
4 x,-1/2-y,-1/2+z
_cell_length_a 14.045(2)
_cell_length_b 5.7882(18)
_cell_length_c 8.231(2)
_cell_angle_alpha 90
_cell_angle_beta 102.285(19)
_cell_angle_gamma 90
_cell_formula_units_Z 4
loop_
_atom_type_symbol
_atom_type_radius_bond
C 0.68
H 0.23
N 0.68
O 0.68
loop_
_atom_site_label
_atom_site_type_symbol
_atom_site_fract_x
_atom_site_fract_y
_atom_site_fract_z
O1 O 0.88339(14) 0.2517(4) -0.0027(3)
N1 N 0.65365(12) 0.0342(3) 0.17813(18)
N2 N 0.59943(14) -0.0927(4) 0.2634(2)
N3 N 0.65494(17) -0.2561(4) 0.3344(2)
N4 N 0.74515(14) -0.2436(3) 0.2995(2)
N5 N 0.82029(12) 0.0061(3) 0.1383(2)
N6 N 0.81026(15) 0.1999(4) 0.0483(3)
C1 C 0.74127(14) -0.0630(4) 0.2023(2)
C2 C 0.60769(17) 0.2264(4) 0.0774(3)
H1 H 0.54310 0.24880 0.09570
H2 H 0.60430 0.19320 -0.03800
H3 H 0.64530 0.36410 0.10790
C3 C 0.90829(17) -0.1316(5) 0.1689(3)
H4 H 0.89220 -0.29020 0.18420
H5 H 0.95200 -0.07660 0.26720
H6 H 0.93910 -0.11950 0.07570
#END
