
#######################################################################
#
#                 Cambridge Crystallographic Data Centre
#                                CCDC
#
#######################################################################
#
# If this CIF has been generated from an entry in the Cambridge
# Structural Database, then it will include bibliographic, chemical,
# crystal, experimental, refinement or atomic coordinate data resulting
# from the CCDC's data processing and validation procedures.
#
#######################################################################

data_CSD_CIF_GEDYEU
_audit_creation_date 2006-07-18
_audit_creation_method CSD-ConQuest-V1
_database_code_CSD GEDYEU
_database_code_depnum_ccdc_archive 'CCDC 269265'
_chemical_formula_sum 'C3 H4 N6 O2'
_chemical_formula_moiety
;
C3 H4 N6 O2
;
_journal_coden_Cambridge 35
_journal_volume 71
_journal_year 2006
_journal_page_first 1295
_journal_name_full 'J.Org.Chem. '
loop_
_publ_author_name
"K.Karaghiosoff"
"T.M.Klapotke"
"P.Mayer"
"H.Piotrowski"
"K.Polborn"
"R.L.Willer"
"J.J.Weigand"
_chemical_name_systematic
;
7-Nitro-5,6-dihydro-7H-imidazolo(1,2-d)tetrazole
;
_chemical_melting_point 423.15
_cell_volume    613.652
_exptl_crystal_colour 'colorless'
_exptl_crystal_density_diffrn 1.69
_exptl_special_details
;
Melts with decomposition.

;
_exptl_crystal_description 'plate'
_exptl_crystal_preparation 'acetone/water'
_diffrn_ambient_temperature 295
#These two values have been output from a single CSD field.
_refine_ls_R_factor_gt 0.0524
_refine_ls_wR_factor_gt 0.0524
_symmetry_cell_setting monoclinic
_symmetry_space_group_name_H-M 'P 21/c'
_symmetry_Int_Tables_number 14
loop_
_symmetry_equiv_pos_site_id
_symmetry_equiv_pos_as_xyz
1 x,y,z
2 -x,1/2+y,1/2-z
3 -x,-y,-z
4 x,-1/2-y,-1/2+z
_cell_length_a 6.2083(8)
_cell_length_b 8.6833(14)
_cell_length_c 11.651(2)
_cell_angle_alpha 90
_cell_angle_beta 102.308(13)
_cell_angle_gamma 90
_cell_formula_units_Z 4
loop_
_atom_type_symbol
_atom_type_radius_bond
C 0.68
H 0.23
N 0.68
O 0.68
loop_
_atom_site_label
_atom_site_type_symbol
_atom_site_fract_x
_atom_site_fract_y
_atom_site_fract_z
O1 O 1.0766(5) -0.0641(3) 0.2745(3)
O2 O 0.7395(5) -0.0374(3) 0.1783(2)
N1 N 1.2277(4) 0.1345(4) 0.4736(3)
N2 N 1.2596(5) 0.2336(4) 0.5633(3)
N3 N 1.0852(5) 0.3173(4) 0.5691(3)
N4 N 0.9311(4) 0.2628(3) 0.4752(2)
N5 N 0.8631(5) 0.1081(3) 0.3267(2)
N6 N 0.8953(6) -0.0073(4) 0.2541(3)
C1 C 1.0169(4) 0.1595(4) 0.4213(3)
C2 C 0.7037(5) 0.2969(4) 0.4270(3)
H1 H 0.68520 0.40220 0.39870
H2 H 0.61380 0.28070 0.48460
C3 C 0.6455(5) 0.1815(4) 0.3256(3)
H3 H 0.53850 0.10650 0.33980
H4 H 0.58850 0.23320 0.25150
#END
