
#######################################################################
#
#                 Cambridge Crystallographic Data Centre
#                                CCDC
#
#######################################################################
#
# If this CIF has been generated from an entry in the Cambridge
# Structural Database, then it will include bibliographic, chemical,
# crystal, experimental, refinement or atomic coordinate data resulting
# from the CCDC's data processing and validation procedures.
#
#######################################################################

data_CSD_CIF_GEFGOP
_audit_creation_date 2012-09-26
_audit_creation_method CSD-ConQuest-V1
_database_code_CSD GEFGOP
_database_code_depnum_ccdc_archive 'CCDC 865556'
_chemical_formula_sum 'C12 H13 N1 O4'
_chemical_formula_moiety
;
C12 H13 N1 O4
;
_journal_coden_Cambridge 24
_journal_volume 53
_journal_year 2012
_journal_page_first 3100
_journal_name_full 'Tetrahedron Lett. '
loop_
_publ_author_name
"B.V.S.Reddy"
"G.Narasimhulu"
"Y.V.Reddy"
"P.P.Chakravarthy"
"J.S.Yadav"
"B.Sridhar"
_chemical_name_systematic
;
(1S,3S,5S)-3-Phenyl-2,6-dioxabicyclo[3.2.1]octane
;
_cell_volume   1112.917
_exptl_crystal_colour 'colorless'
_exptl_crystal_density_diffrn 1.404
_exptl_crystal_description 'block'
_diffrn_ambient_temperature 294
#These two values have been output from a single CSD field.
_refine_ls_R_factor_gt 0.0438
_refine_ls_wR_factor_gt 0.0438
_symmetry_cell_setting orthorhombic
_symmetry_space_group_name_H-M 'P 21 21 21'
_symmetry_Int_Tables_number 19
loop_
_symmetry_equiv_pos_site_id
_symmetry_equiv_pos_as_xyz
1 x,y,z
2 1/2-x,-y,1/2+z
3 -x,1/2+y,1/2-z
4 1/2+x,1/2-y,-z
_cell_length_a 8.7441(10)
_cell_length_b 16.1097(19)
_cell_length_c 7.9006(9)
_cell_angle_alpha 90
_cell_angle_beta 90
_cell_angle_gamma 90
_cell_formula_units_Z 4
loop_
_atom_type_symbol
_atom_type_radius_bond
C 0.68
H 0.23
N 0.68
O 0.68
loop_
_atom_site_label
_atom_site_type_symbol
_atom_site_fract_x
_atom_site_fract_y
_atom_site_fract_z
C1 C 0.1433(3) 0.21064(18) -0.0520(5)
H1 H 0.10580 0.26610 -0.08140
C2 C 0.0721(3) 0.06649(15) -0.0418(4)
H2 H 0.12730 0.04980 -0.14430
C3 C 0.1804(4) 0.05800(18) 0.1062(4)
H3 H 0.23460 0.00560 0.09850
H4 H 0.12280 0.05830 0.21120
C4 C 0.2950(4) 0.12934(19) 0.1068(5)
H5 H 0.36900 0.12320 0.19910
C5 C 0.2807(4) 0.1885(2) -0.1540(4)
H6 H 0.25070 0.16080 -0.25780
H7 H 0.33840 0.23800 -0.18280
C6 C 0.2088(5) 0.2095(2) 0.1217(5)
H8 H 0.13030 0.20720 0.20830
H9 H 0.27590 0.25630 0.14240
C7 C -0.0664(3) 0.01158(15) -0.0253(3)
C8 C -0.0492(3) -0.07369(16) -0.0069(4)
H10 H 0.04870 -0.09620 -0.00420
C9 C -0.1715(3) -0.12496(16) 0.0073(4)
H11 H -0.15800 -0.18190 0.01940
C10 C -0.3156(3) -0.09131(16) 0.0036(3)
C11 C -0.3387(3) -0.00764(17) -0.0142(4)
H12 H -0.43710 0.01420 -0.01680
C12 C -0.2135(3) 0.04328(15) -0.0282(4)
H13 H -0.22770 0.10020 -0.03980
N1 N -0.4481(3) -0.14622(15) 0.0160(3)
O1 O 0.0224(2) 0.14953(12) -0.0644(3)
O2 O 0.3697(2) 0.13476(14) -0.0515(4)
O3 O -0.4260(3) -0.22021(13) 0.0307(4)
O4 O -0.5755(3) -0.11551(15) 0.0122(4)
#END
