
#######################################################################
#
#                 Cambridge Crystallographic Data Centre
#                                CCDC
#
#######################################################################
#
# If this CIF has been generated from an entry in the Cambridge
# Structural Database, then it will include bibliographic, chemical,
# crystal, experimental, refinement or atomic coordinate data resulting
# from the CCDC's data processing and validation procedures.
#
#######################################################################

data_CSD_CIF_GEFNAH01
_audit_creation_date 2006-08-22
_audit_creation_method CSD-ConQuest-V1
_database_code_CSD GEFNAH01
_database_code_depnum_ccdc_archive 'CCDC 291903'
_chemical_formula_sum 'C9 H5 N1 O5'
_chemical_formula_moiety
;
C9 H5 N1 O5
;
_journal_coden_Cambridge 471
_journal_volume 22
_journal_year 2006
_journal_page_first x117
_journal_name_full 'Anal.Sci.:X-Ray Struct.Anal.Online '
loop_
_publ_author_name
"I.Fujii"
"Y.Mano"
"N.Hirayama"
_chemical_name_systematic
;
4-Hydroxy-3-nitrocoumarin
;
_cell_volume    827.866
_exptl_crystal_colour 'colorless'
_exptl_crystal_density_diffrn 1.662
_exptl_special_details
;
antimicrobial activity

;
_exptl_crystal_description 'rod'
_diffrn_ambient_temperature 297
#These two values have been output from a single CSD field.
_refine_ls_R_factor_gt 0.0376
_refine_ls_wR_factor_gt 0.0376
_symmetry_cell_setting orthorhombic
_symmetry_space_group_name_H-M 'P c a 21'
_symmetry_Int_Tables_number 29
loop_
_symmetry_equiv_pos_site_id
_symmetry_equiv_pos_as_xyz
1 x,y,z
2 -x,-y,1/2+z
3 1/2-x,y,1/2+z
4 1/2+x,-y,z
_cell_length_a 18.5788(9)
_cell_length_b 5.022(1)
_cell_length_c 8.8729(2)
_cell_angle_alpha 90
_cell_angle_beta 90
_cell_angle_gamma 90
_cell_formula_units_Z 4
loop_
_atom_type_symbol
_atom_type_radius_bond
C 0.68
H 0.23
N 0.68
O 0.68
loop_
_atom_site_label
_atom_site_type_symbol
_atom_site_fract_x
_atom_site_fract_y
_atom_site_fract_z
O1 O 0.42898(7) -0.0845(2) 0.6428(6)
O2 O 0.54536(9) -0.0207(3) 0.6456(6)
O3 O 0.52466(9) 0.5964(4) 0.3415(6)
O4 O 0.59672(8) 0.3638(4) 0.4746(7)
O5 O 0.39108(9) 0.5288(3) 0.3495(7)
N1 N 0.53603(8) 0.4131(3) 0.4335(6)
C1 C 0.36022(10) -0.0114(3) 0.6065(6)
C2 C 0.4889(1) 0.0520(3) 0.5952(7)
C3 C 0.47554(9) 0.2681(3) 0.4889(6)
C4 C 0.40654(8) 0.3373(3) 0.4439(6)
C5 C 0.34615(9) 0.1958(3) 0.5071(7)
C6 C 0.2744(1) 0.2613(4) 0.4742(6)
C7 C 0.2195(1) 0.1203(5) 0.5393(7)
C8 C 0.2344(1) -0.0876(5) 0.6376(7)
C9 C 0.3048(1) -0.1556(5) 0.6718(6)
H1 H 0.439(3) 0.602(10) 0.310(6)
H2 H 0.264(2) 0.405(6) 0.408(5)
H3 H 0.171(2) 0.165(8) 0.519(5)
H4 H 0.196(2) -0.179(6) 0.683(4)
H5 H 0.320(2) -0.304(7) 0.745(3)
#END
