
#######################################################################
#
#                 Cambridge Crystallographic Data Centre
#                                CCDC
#
#######################################################################
#
# If this CIF has been generated from an entry in the Cambridge
# Structural Database, then it will include bibliographic, chemical,
# crystal, experimental, refinement or atomic coordinate data resulting
# from the CCDC's data processing and validation procedures.
#
#######################################################################

data_CSD_CIF_GEFYAT
_audit_creation_date 2012-11-16
_audit_creation_method CSD-ConQuest-V1
_database_code_CSD GEFYAT
_database_code_depnum_ccdc_archive 'CCDC 870261'
_chemical_formula_sum 'C13 H21 N3 O9'
_chemical_formula_moiety
;
C13 H21 N3 O9
;
_journal_coden_Cambridge 154
_journal_volume 65
_journal_year 2012
_journal_page_first 427
_journal_name_full 'Aust.J.Chem. '
loop_
_publ_author_name
"C.Goeschen"
"J.M.White"
"R.W.Gable"
"U.Wille"
_chemical_name_systematic
;
(5S,6R)-6-Hydroxy-3',5'-di-O-methyl-N-methyl-5-nitrato-2'-desoxythymidine
;
_cell_volume   1660.434
_exptl_crystal_colour 'colorless'
_exptl_crystal_density_diffrn 1.453
_exptl_special_details
;
Absolute configuration

;
_exptl_crystal_description 'block'
_diffrn_ambient_temperature 130
#These two values have been output from a single CSD field.
_refine_ls_R_factor_gt 0.0224
_refine_ls_wR_factor_gt 0.0224
loop_
_citation_database_id_CSD
_citation_special_details
GEFXUM "is a stereoisomer of this entry"
_symmetry_cell_setting orthorhombic
_symmetry_space_group_name_H-M 'P 21 21 21'
_symmetry_Int_Tables_number 19
loop_
_symmetry_equiv_pos_site_id
_symmetry_equiv_pos_as_xyz
1 x,y,z
2 1/2-x,-y,1/2+z
3 -x,1/2+y,1/2-z
4 1/2+x,1/2-y,-z
_cell_length_a 9.12039(6)
_cell_length_b 9.82523(6)
_cell_length_c 18.52958(11)
_cell_angle_alpha 90
_cell_angle_beta 90
_cell_angle_gamma 90
_cell_formula_units_Z 4
loop_
_atom_type_symbol
_atom_type_radius_bond
C 0.68
H 0.23
N 0.68
O 0.68
loop_
_atom_site_label
_atom_site_type_symbol
_atom_site_fract_x
_atom_site_fract_y
_atom_site_fract_z
O1 O 0.20406(8) 0.11999(8) 1.07780(4)
C1 C 0.06969(11) 0.17990(11) 1.05429(5)
C2 C -0.05160(11) 0.08378(12) 1.07795(6)
C3 C 0.00900(12) 0.01846(13) 1.14595(6)
C4 C 0.17596(11) 0.01702(11) 1.13227(6)
C5 C 0.23363(14) -0.11861(12) 1.10696(6)
O2 O -0.02912(10) 0.10165(12) 1.20549(4)
C6 C -0.01075(17) 0.0337(2) 1.27286(7)
H1 H 0.09210 0.00710 1.27860
H2 H -0.07290 -0.04770 1.27400
H3 H -0.03890 0.09500 1.31220
O3 O 0.14433(12) -0.16556(9) 1.04963(5)
C7 C 0.1846(3) -0.29734(15) 1.02717(10)
H4 H 0.18360 -0.35900 1.06870
H5 H 0.28340 -0.29490 1.00640
H6 H 0.11500 -0.32980 0.99080
N1 N 0.07962(10) 0.19816(8) 0.97599(4)
C8 C 0.06529(10) 0.32527(10) 0.94729(5)
N2 N 0.08725(9) 0.33533(9) 0.87227(5)
O4 O 0.03551(8) 0.42598(8) 0.98262(4)
C9 C 0.09209(11) 0.22651(10) 0.82530(5)
C10 C 0.05803(11) 0.08887(10) 0.86036(5)
C11 C 0.13437(11) 0.08364(10) 0.93386(5)
C12 C 0.10295(12) 0.47205(10) 0.84077(6)
H7 H 0.01340 0.49570 0.81440
H8 H 0.18660 0.47300 0.80760
H9 H 0.11930 0.53850 0.87940
O5 O 0.11170(9) 0.24072(8) 0.76117(4)
C13 C -0.10881(11) 0.07260(12) 0.86365(6)
H10 H -0.13340 -0.00860 0.89190
H11 H -0.14780 0.06300 0.81460
H12 H -0.15210 0.15300 0.88660
O6 O 0.12588(8) -0.00482(7) 0.80927(4)
N3 N 0.12474(11) -0.14410(9) 0.82786(5)
O7 O 0.19593(10) -0.21072(8) 0.78640(5)
O8 O 0.05626(11) -0.18007(8) 0.88017(4)
O9 O 0.28607(8) 0.09056(8) 0.92038(4)
H13 H 0.0583(14) 0.2680(13) 1.0728(7)
H14 H -0.0653(17) 0.0130(15) 1.0400(8)
H15 H -0.1402(18) 0.1344(15) 1.0879(8)
H16 H -0.0286(17) -0.0729(16) 1.1529(8)
H17 H 0.2285(15) 0.0420(13) 1.1750(7)
H18 H 0.2310(18) -0.1822(17) 1.1470(8)
H19 H 0.3353(18) -0.1141(16) 1.0899(8)
H20 H 0.1090(14) 0.0032(13) 0.9578(7)
H21 H 0.3339(19) 0.0723(18) 0.9589(9)
#END
