
#######################################################################
#
#                 Cambridge Crystallographic Data Centre
#                                CCDC
#
#######################################################################
#
# If this CIF has been generated from an entry in the Cambridge
# Structural Database, then it will include bibliographic, chemical,
# crystal, experimental, refinement or atomic coordinate data resulting
# from the CCDC's data processing and validation procedures.
#
#######################################################################

data_CSD_CIF_GEFYEX
_audit_creation_date 2012-11-16
_audit_creation_method CSD-ConQuest-V1
_database_code_CSD GEFYEX
_database_code_depnum_ccdc_archive 'CCDC 870262'
_chemical_formula_sum 'C13 H19 N3 O8'
_chemical_formula_moiety
;
C13 H19 N3 O8
;
_journal_coden_Cambridge 154
_journal_volume 65
_journal_year 2012
_journal_page_first 427
_journal_name_full 'Aust.J.Chem. '
loop_
_publ_author_name
"C.Goeschen"
"J.M.White"
"R.W.Gable"
"U.Wille"
_chemical_name_systematic
;
2',3',5'-Tri-O-methyl-N-methyl-6-nitrouridine
;
_cell_volume   1530.078
_exptl_crystal_colour 'colorless'
_exptl_crystal_density_diffrn 1.499
_exptl_special_details
;
Absolute configuration

;
_exptl_crystal_description 'plate'
_diffrn_ambient_temperature 130
#These two values have been output from a single CSD field.
_refine_ls_R_factor_gt 0.0221
_refine_ls_wR_factor_gt 0.0221
_symmetry_cell_setting orthorhombic
_symmetry_space_group_name_H-M 'P 21 21 21'
_symmetry_Int_Tables_number 19
loop_
_symmetry_equiv_pos_site_id
_symmetry_equiv_pos_as_xyz
1 x,y,z
2 1/2-x,-y,1/2+z
3 -x,1/2+y,1/2-z
4 1/2+x,1/2-y,-z
_cell_length_a 5.04889(3)
_cell_length_b 16.43708(11)
_cell_length_c 18.43712(13)
_cell_angle_alpha 90
_cell_angle_beta 90
_cell_angle_gamma 90
_cell_formula_units_Z 4
loop_
_atom_type_symbol
_atom_type_radius_bond
C 0.68
H 0.23
N 0.68
O 0.68
loop_
_atom_site_label
_atom_site_type_symbol
_atom_site_fract_x
_atom_site_fract_y
_atom_site_fract_z
O1 O 0.77163(15) -0.02535(4) 0.53864(4)
C1 C 0.6833(2) 0.01167(6) 0.60289(5)
H1 H 0.826(3) 0.0406(8) 0.6235(7)
C2 C 0.5914(2) -0.05665(6) 0.65405(6)
H2 H 0.449(3) -0.0376(7) 0.6878(6)
C3 C 0.5018(2) -0.12077(6) 0.59875(5)
H3 H 0.323(3) -0.1055(7) 0.5811(6)
C4 C 0.7079(2) -0.11151(6) 0.53900(6)
H4 H 0.872(3) -0.1417(8) 0.5529(7)
C5 C 0.6236(2) -0.13771(7) 0.46422(6)
H5 H 0.592(3) -0.1971(8) 0.4663(7)
H6 H 0.762(3) -0.1267(9) 0.4306(8)
O2 O 0.81094(16) -0.08816(5) 0.69233(4)
C6 C 0.8722(3) -0.04241(7) 0.75615(6)
H7 H 0.71670 -0.04070 0.78790
H8 H 0.92210 0.01310 0.74250
H9 H 1.01990 -0.06830 0.78180
O3 O 0.50515(16) -0.20198(4) 0.62280(4)
C7 C 0.3243(2) -0.21656(7) 0.68087(6)
H10 H 0.14420 -0.20300 0.66510
H11 H 0.37260 -0.18260 0.72250
H12 H 0.33200 -0.27400 0.69480
O4 O 0.39017(17) -0.09631(5) 0.44423(4)
C8 C 0.3175(3) -0.11309(7) 0.37129(6)
H13 H 0.26700 -0.17040 0.36680
H14 H 0.46800 -0.10180 0.33930
H15 H 0.16740 -0.07860 0.35750
N1 N 0.46522(18) 0.06996(5) 0.58584(5)
C9 C 0.3957(2) 0.12366(6) 0.64152(6)
N2 N 0.18667(18) 0.17497(5) 0.62666(5)
O5 O 0.51091(17) 0.12185(5) 0.69949(4)
C10 C 0.0395(2) 0.17824(6) 0.56134(5)
C11 C 0.1482(2) 0.12468(6) 0.50606(5)
C12 C 0.3519(2) 0.07366(6) 0.51945(5)
H16 H 0.410(3) 0.0374(8) 0.4839(7)
C13 C 0.1017(3) 0.22882(7) 0.68600(6)
H17 H -0.02880 0.26790 0.66760
H18 H 0.25540 0.25820 0.70510
H19 H 0.02170 0.19620 0.72470
O6 O -0.15524(16) 0.22074(5) 0.55729(4)
N3 N 0.03322(19) 0.12116(5) 0.43449(5)
O7 O -0.19375(18) 0.14558(6) 0.42631(5)
O8 O 0.16668(19) 0.09186(6) 0.38522(4)
H20? H 0.19430 0.21370 0.73070
H21? H -0.08980 0.22330 0.69320
H22? H 0.14380 0.28530 0.67360
#END
