
#######################################################################
#
#                 Cambridge Crystallographic Data Centre
#                                CCDC
#
#######################################################################
#
# If this CIF has been generated from an entry in the Cambridge
# Structural Database, then it will include bibliographic, chemical,
# crystal, experimental, refinement or atomic coordinate data resulting
# from the CCDC's data processing and validation procedures.
#
#######################################################################

data_CSD_CIF_GEGFAA
_audit_creation_date 2006-07-18
_audit_creation_method CSD-ConQuest-V1
_database_code_CSD GEGFAA
_database_code_depnum_ccdc_archive 'CCDC 263103'
_chemical_formula_sum 'C16 H11 N1 O4'
_chemical_formula_moiety
;
C16 H11 N1 O4
;
_journal_coden_Cambridge 16
_journal_volume 62
_journal_year 2006
_journal_page_first 4829
_journal_name_full 'Tetrahedron '
loop_
_publ_author_name
"E.C.Y.Woon"
"A.Dhami"
"M.F.Mahon"
"M.D.Threadgill"
_chemical_name_systematic
;
3-(4-Methylphenyl)-5-nitroisocoumarin
;
_chemical_melting_point 434.15
_cell_volume   1299.791
_exptl_crystal_colour 'yellow'
_exptl_crystal_density_diffrn 1.437
_exptl_special_details
;
Melting point range 434.15-435.15K

;
_exptl_crystal_description 'Needle'
_diffrn_ambient_temperature 293
#These two values have been output from a single CSD field.
_refine_ls_R_factor_gt 0.0548
_refine_ls_wR_factor_gt 0.0548
_symmetry_cell_setting monoclinic
_symmetry_space_group_name_H-M 'P 21/n'
_symmetry_Int_Tables_number 14
loop_
_symmetry_equiv_pos_site_id
_symmetry_equiv_pos_as_xyz
1 x,y,z
2 1/2-x,1/2+y,1/2-z
3 -x,-y,-z
4 -1/2+x,-1/2-y,-1/2+z
_cell_length_a 5.8870(2)
_cell_length_b 12.0270(3)
_cell_length_c 18.4880(7)
_cell_angle_alpha 90
_cell_angle_beta 96.802(1)
_cell_angle_gamma 90
_cell_formula_units_Z 4
loop_
_atom_type_symbol
_atom_type_radius_bond
C 0.68
H 0.23
N 0.68
O 0.68
loop_
_atom_site_label
_atom_site_type_symbol
_atom_site_fract_x
_atom_site_fract_y
_atom_site_fract_z
O1 O 0.3993(2) 0.36316(12) 0.08601(7)
O2 O 0.2944(3) 0.18968(12) 0.06675(8)
O3 O 1.1238(3) 0.42733(14) 0.26038(10)
O4 O 1.3723(3) 0.29660(14) 0.26363(9)
N1 N 1.1802(3) 0.33249(17) 0.24563(9)
C1 C 0.4402(3) 0.25061(18) 0.09417(11)
C2 C 0.6543(3) 0.21817(16) 0.13675(10)
C3 C 0.6962(4) 0.10553(17) 0.14812(11)
H1 H 0.58870 0.05400 0.12820
C4 C 0.8922(4) 0.06896(18) 0.18796(12)
H2 H 0.91880 -0.00670 0.19490
C5 C 1.0498(4) 0.14583(19) 0.21770(11)
H3 H 1.18520 0.12200 0.24420
C6 C 1.0079(3) 0.25735(17) 0.20834(10)
C7 C 0.8094(3) 0.29983(16) 0.16725(10)
C8 C 0.7528(3) 0.41369(16) 0.15219(11)
H4 H 0.85510 0.46890 0.16990
C9 C 0.5543(3) 0.44261(16) 0.11286(10)
C10 C 0.4726(3) 0.55540(16) 0.09517(10)
C11 C 0.6099(3) 0.64788(18) 0.11230(11)
H5 H 0.75820 0.63830 0.13500
C12 C 0.5291(3) 0.75358(19) 0.09614(11)
H6 H 0.62430 0.81410 0.10850
C13 C 0.3096(4) 0.77222(18) 0.06198(11)
C14 C 0.1755(4) 0.68026(18) 0.04402(12)
H7 H 0.02840 0.68990 0.02030
C15 C 0.2541(4) 0.57416(18) 0.06032(11)
H8 H 0.15860 0.51390 0.04770
C16 C 0.2208(4) 0.88805(17) 0.04523(13)
H9 H 0.08190 0.88410 0.01240
H10 H 0.33290 0.92990 0.02310
H11 H 0.19100 0.92390 0.08950
#END
