
#######################################################################
#
#                 Cambridge Crystallographic Data Centre
#                                CCDC
#
#######################################################################
#
# If this CIF has been generated from an entry in the Cambridge
# Structural Database, then it will include bibliographic, chemical,
# crystal, experimental, refinement or atomic coordinate data resulting
# from the CCDC's data processing and validation procedures.
#
#######################################################################

data_CSD_CIF_GEGGOR
_audit_creation_date 2017-08-04
_audit_creation_method CSD-ConQuest-V1
_database_code_CSD GEGGOR
_database_code_depnum_ccdc_archive 'CCDC 1504065'
_chemical_formula_sum 'C22 H18 N2 O2'
_chemical_formula_moiety
;
C22 H18 N2 O2
;
_journal_coden_Cambridge 1591
_journal_volume 8
_journal_year 2017
_journal_page_first 1188
_journal_name_full 'ACS Chemical Neuroscience '
loop_
_publ_author_name
"R.B.Laprairie"
"P.M.Kulkarni"
"J.R.Deschamps"
"M.E.M.Kelly"
"D.R.Janero"
"M.G.Cascio"
"L.A.Stevenson"
"R.G.Pertwee"
"T.P.Kenakin"
"E.M.Denovan-Wright"
"G.A.Thakur"
_chemical_name_systematic
;
3-(2-nitro-1-phenylethyl)-2-phenyl-1H-indole
;
_cell_volume    852.443
_exptl_crystal_colour 'colorless'
_exptl_crystal_density_diffrn 1.334
_exptl_special_details
;
Absolute configuration

;
_exptl_crystal_description 'prism'
_diffrn_ambient_temperature 150
#These two values have been output from a single CSD field.
_refine_ls_R_factor_gt 0.0303
_refine_ls_wR_factor_gt 0.0303
loop_
_citation_database_id_CSD
_citation_special_details
GEGGIL "is a stereoisomer of this entry"
_symmetry_cell_setting monoclinic
_symmetry_space_group_name_H-M 'P 21'
_symmetry_Int_Tables_number 4
loop_
_symmetry_equiv_pos_site_id
_symmetry_equiv_pos_as_xyz
1 x,y,z
2 -x,1/2+y,-z
_cell_length_a 7.8891(3)
_cell_length_b 13.4883(6)
_cell_length_c 8.1151(3)
_cell_angle_alpha 90
_cell_angle_beta 99.192(1)
_cell_angle_gamma 90
_cell_formula_units_Z 2
loop_
_atom_type_symbol
_atom_type_radius_bond
C 0.68
H 0.23
N 0.68
O 0.68
loop_
_atom_site_label
_atom_site_type_symbol
_atom_site_fract_x
_atom_site_fract_y
_atom_site_fract_z
N1 N 1.04463(16) 0.06297(11) 0.73951(16)
H1 H 1.15580 0.06850 0.77410
C1 C 0.91894(19) 0.10371(13) 0.81779(18)
C2 C 0.76006(19) 0.08250(12) 0.72753(18)
C3 C 0.78986(19) 0.02347(12) 0.58598(17)
C4 C 0.6876(2) -0.02109(13) 0.44857(19)
H2 H 0.56610 -0.01550 0.43430
C5 C 0.7650(2) -0.07327(14) 0.33411(19)
H3 H 0.69540 -0.10290 0.24070
C6 C 0.9436(2) -0.08335(15) 0.3528(2)
H4 H 0.99320 -0.12000 0.27260
C7 C 1.0485(2) -0.04079(14) 0.4863(2)
H5 H 1.16970 -0.04790 0.49990
C8 C 0.9713(2) 0.01261(13) 0.59996(19)
C9 C 0.59461(19) 0.12265(12) 0.77306(18)
H6 H 0.62580 0.18100 0.84780
C10 C 0.4687(2) 0.16009(14) 0.62166(19)
H7 H 0.42670 0.10310 0.54970
H8 H 0.36860 0.19110 0.66080
N2 N 0.55042(17) 0.23373(11) 0.52170(17)
O1 O 0.63122(19) 0.30194(11) 0.59557(17)
O2 O 0.5302(2) 0.22320(13) 0.37058(16)
C11 C 0.9685(2) 0.16173(13) 0.97218(19)
C12 C 0.8946(2) 0.14399(14) 1.11453(19)
H9 H 0.80570 0.09620 1.11150
C13 C 0.9508(2) 0.19601(15) 1.2604(2)
H10 H 0.90110 0.18310 1.35740
C14 C 1.0784(2) 0.26643(15) 1.2658(2)
H11 H 1.11630 0.30180 1.36620
C15 C 1.1510(2) 0.28546(15) 1.1250(2)
H12 H 1.23780 0.33450 1.12820
C16 C 1.0974(2) 0.23318(14) 0.9795(2)
H13 H 1.14890 0.24600 0.88350
C17 C 0.49689(18) 0.05027(13) 0.86804(18)
C18 C 0.43790(19) 0.08157(14) 1.01266(19)
H14 H 0.46320 0.14670 1.05410
C19 C 0.3420(2) 0.01785(15) 1.0967(2)
H15 H 0.30130 0.04000 1.19430
C20 C 0.3059(2) -0.07720(15) 1.0390(2)
H16 H 0.24040 -0.12040 1.09670
C21 C 0.3656(2) -0.10950(14) 0.8964(2)
H17 H 0.34210 -0.17520 0.85700
C22 C 0.4597(2) -0.04586(13) 0.81094(19)
H18 H 0.49900 -0.06820 0.71260
#END
