
#######################################################################
#
#                 Cambridge Crystallographic Data Centre
#                                CCDC
#
#######################################################################
#
# If this CIF has been generated from an entry in the Cambridge
# Structural Database, then it will include bibliographic, chemical,
# crystal, experimental, refinement or atomic coordinate data resulting
# from the CCDC's data processing and validation procedures.
#
#######################################################################

data_CSD_CIF_GEGGIL
_audit_creation_date 2017-08-04
_audit_creation_method CSD-ConQuest-V1
_database_code_CSD GEGGIL
_database_code_depnum_ccdc_archive 'CCDC 1504064'
_chemical_formula_sum 'C22 H18 N2 O2'
_chemical_formula_moiety
;
C22 H18 N2 O2
;
_journal_coden_Cambridge 1591
_journal_volume 8
_journal_year 2017
_journal_page_first 1188
_journal_name_full 'ACS Chemical Neuroscience '
loop_
_publ_author_name
"R.B.Laprairie"
"P.M.Kulkarni"
"J.R.Deschamps"
"M.E.M.Kelly"
"D.R.Janero"
"M.G.Cascio"
"L.A.Stevenson"
"R.G.Pertwee"
"T.P.Kenakin"
"E.M.Denovan-Wright"
"G.A.Thakur"
_chemical_name_systematic
;
3-(2-nitro-1-phenylethyl)-2-phenyl-1H-indole
;
_cell_volume    853.346
_exptl_crystal_colour 'colorless'
_exptl_crystal_density_diffrn 1.336
_exptl_special_details
;
Absolute configuration

;
_exptl_crystal_description 'plate'
_diffrn_ambient_temperature 150
#These two values have been output from a single CSD field.
_refine_ls_R_factor_gt 0.0339
_refine_ls_wR_factor_gt 0.0339
loop_
_citation_database_id_CSD
_citation_special_details
GEGGOR "is a stereoisomer of this entry"
_symmetry_cell_setting monoclinic
_symmetry_space_group_name_H-M 'P 21'
_symmetry_Int_Tables_number 4
loop_
_symmetry_equiv_pos_site_id
_symmetry_equiv_pos_as_xyz
1 x,y,z
2 -x,1/2+y,-z
_cell_length_a 7.8877(3)
_cell_length_b 13.5114(6)
_cell_length_c 8.1120(3)
_cell_angle_alpha 90
_cell_angle_beta 99.225(1)
_cell_angle_gamma 90
_cell_formula_units_Z 2
loop_
_atom_type_symbol
_atom_type_radius_bond
C 0.68
H 0.23
N 0.68
O 0.68
loop_
_atom_site_label
_atom_site_type_symbol
_atom_site_fract_x
_atom_site_fract_y
_atom_site_fract_z
N1 N 1.04467(18) 0.03591(12) 0.23932(18)
H1 H 1.15590 0.03050 0.27370
C1 C 0.9193(2) -0.00506(14) 0.3179(2)
C2 C 0.7597(2) 0.01641(14) 0.2274(2)
C3 C 0.7894(2) 0.07536(14) 0.08563(19)
C4 C 0.6871(2) 0.11980(15) -0.0513(2)
H2 H 0.56560 0.11410 -0.06540
C5 C 0.7644(3) 0.17227(15) -0.1665(2)
H3 H 0.69490 0.20200 -0.25980
C6 C 0.9434(3) 0.18209(16) -0.1472(2)
H4 H 0.99320 0.21850 -0.22740
C7 C 1.0484(2) 0.13967(15) -0.0136(2)
H5 H 1.16960 0.14690 0.00010
C8 C 0.9713(2) 0.08610(14) 0.1005(2)
C9 C 0.5950(2) -0.02387(13) 0.2731(2)
H6 H 0.62650 -0.08200 0.34810
C10 C 0.4690(2) -0.06151(16) 0.1216(2)
H7 H 0.36890 -0.09250 0.16090
H8 H 0.42670 -0.00470 0.04950
N2 N 0.55032(19) -0.13484(13) 0.0218(2)
O1 O 0.6314(2) -0.20290(12) 0.09609(19)
O2 O 0.5305(2) -0.12454(14) -0.12930(18)
C11 C 0.9688(2) -0.06269(14) 0.4718(2)
C12 C 0.8948(2) -0.04551(15) 0.6149(2)
H9 H 0.80550 0.00200 0.61210
C13 C 0.9510(3) -0.09730(17) 0.7601(2)
H10 H 0.90160 -0.08420 0.85720
C14 C 1.0781(3) -0.16780(17) 0.7655(2)
H11 H 1.11530 -0.20340 0.86580
C15 C 1.1513(3) -0.18664(16) 0.6249(3)
H12 H 1.23840 -0.23550 0.62820
C16 C 1.0975(2) -0.13430(15) 0.4796(2)
H13 H 1.14890 -0.14720 0.38360
C17 C 0.4968(2) 0.04859(14) 0.3681(2)
C18 C 0.4601(2) 0.14452(15) 0.3113(2)
H14 H 0.50000 0.16690 0.21330
C19 C 0.3658(2) 0.20796(16) 0.3964(2)
H15 H 0.34230 0.27350 0.35710
C20 C 0.3058(3) 0.17557(17) 0.5389(2)
H16 H 0.24020 0.21870 0.59650
C21 C 0.3417(2) 0.08082(17) 0.5966(2)
H17 H 0.30100 0.05870 0.69430
C22 C 0.4373(2) 0.01732(15) 0.5123(2)
H18 H 0.46220 -0.04780 0.55340
#END
