
#######################################################################
#
#                 Cambridge Crystallographic Data Centre
#                                CCDC
#
#######################################################################
#
# If this CIF has been generated from an entry in the Cambridge
# Structural Database, then it will include bibliographic, chemical,
# crystal, experimental, refinement or atomic coordinate data resulting
# from the CCDC's data processing and validation procedures.
#
#######################################################################

data_CSD_CIF_GEGLUC
_audit_creation_date 2017-08-04
_audit_creation_method CSD-ConQuest-V1
_database_code_CSD GEGLUC
_database_code_depnum_ccdc_archive 'CCDC 1537749'
_chemical_formula_sum 'C21 H16 N2 O2'
_chemical_formula_moiety
;
C21 H16 N2 O2
;
_journal_coden_Cambridge 1366
_journal_volume 359
_journal_year 2017
_journal_page_first 2747
_journal_name_full 'Adv.Synth.Catal. '
loop_
_publ_author_name
"G.C.Senadi"
"Ji-Qi Wang"
"B.S.Gore"
"Jeh-Jeng Wang"
_chemical_name_systematic
;
(1-benzyl-2-oxo-1H-2-indazol-3-yl)(phenyl)methanone
;
_chemical_name_common
;
3-benzoyl-1-benzyl-1H-indazole-2-oxide
;
_cell_volume   1620.032
_exptl_crystal_colour 'yellow'
_exptl_crystal_density_diffrn 1.346
_exptl_crystal_description 'parallelepiped'
_diffrn_ambient_temperature 150
#These two values have been output from a single CSD field.
_refine_ls_R_factor_gt 0.0479
_refine_ls_wR_factor_gt 0.0479
_symmetry_cell_setting monoclinic
_symmetry_space_group_name_H-M 'P 21/n'
_symmetry_Int_Tables_number 14
loop_
_symmetry_equiv_pos_site_id
_symmetry_equiv_pos_as_xyz
1 x,y,z
2 1/2-x,1/2+y,1/2-z
3 -x,-y,-z
4 -1/2+x,-1/2-y,-1/2+z
_cell_length_a 10.8967(7)
_cell_length_b 9.3048(4)
_cell_length_c 16.7968(10)
_cell_angle_alpha 90
_cell_angle_beta 107.964(7)
_cell_angle_gamma 90
_cell_formula_units_Z 4
loop_
_atom_type_symbol
_atom_type_radius_bond
C 0.68
H 0.23
N 0.68
O 0.68
loop_
_atom_site_label
_atom_site_type_symbol
_atom_site_fract_x
_atom_site_fract_y
_atom_site_fract_z
O1 O 0.53458(10) 0.64475(13) 0.08177(7)
O2 O 0.19674(9) 0.53695(11) 0.14468(6)
N1 N 0.34065(11) 0.39588(13) 0.23975(7)
N2 N 0.31132(11) 0.48795(12) 0.17275(7)
C1 C 0.20297(14) 0.57196(16) -0.02155(9)
H1 H 0.19880 0.47860 0.00030
C2 C 0.10140(15) 0.62228(17) -0.08811(9)
H2 H 0.02840 0.56310 -0.11240
C3 C 0.10742(15) 0.75949(17) -0.11889(10)
H3 H 0.03770 0.79430 -0.16410
C4 C 0.21329(15) 0.84611(17) -0.08478(9)
H4 H 0.21620 0.94020 -0.10610
C5 C 0.31558(15) 0.79515(16) -0.01922(9)
H5 H 0.38930 0.85390 0.00380
C6 C 0.31070(14) 0.65785(15) 0.01316(9)
C7 C 0.42663(14) 0.60753(16) 0.08120(9)
C8 C 0.41834(13) 0.51205(15) 0.14928(9)
C9 C 0.52194(13) 0.43258(15) 0.20572(8)
C10 C 0.65195(14) 0.41057(16) 0.21278(9)
H6 H 0.69000 0.45690 0.17580
C11 C 0.72335(14) 0.31976(17) 0.27479(9)
H7 H 0.81160 0.30340 0.28020
C12 C 0.66836(14) 0.25078(16) 0.33026(9)
H8 H 0.72070 0.19000 0.37270
C13 C 0.54056(14) 0.26939(16) 0.32439(9)
H9 H 0.50310 0.22230 0.36140
C14 C 0.46893(13) 0.36082(15) 0.26137(8)
C15 C 0.24131(14) 0.35321(15) 0.27596(9)
H10 H 0.27000 0.26540 0.30990
H11 H 0.16190 0.32890 0.23020
C16 C 0.20957(14) 0.46759(15) 0.33044(9)
C17 C 0.30653(16) 0.54269(17) 0.38933(10)
H12 H 0.39440 0.52520 0.39410
C18 C 0.27535(19) 0.64286(19) 0.44096(10)
H13 H 0.34200 0.69450 0.48050
C19 C 0.14788(19) 0.66817(18) 0.43528(11)
H14 H 0.12700 0.73540 0.47170
C20 C 0.05138(18) 0.59552(19) 0.37664(10)
H15 H -0.03630 0.61370 0.37200
C21 C 0.08182(15) 0.49568(17) 0.32413(9)
H16 H 0.01470 0.44630 0.28360
#END
