
#######################################################################
#
#                 Cambridge Crystallographic Data Centre
#                                CCDC
#
#######################################################################
#
# If this CIF has been generated from an entry in the Cambridge
# Structural Database, then it will include bibliographic, chemical,
# crystal, experimental, refinement or atomic coordinate data resulting
# from the CCDC's data processing and validation procedures.
#
#######################################################################

data_CSD_CIF_GEHVOG
_audit_creation_date 2012-09-26
_audit_creation_method CSD-ConQuest-V1
_database_code_CSD GEHVOG
_database_code_depnum_ccdc_archive 'CCDC879276'
_chemical_formula_sum 'C15 H15 N1 O6'
_chemical_formula_moiety
;
C15 H15 N1 O6
;
_journal_coden_Cambridge 1336
_journal_volume 14
_journal_year 2012
_journal_page_first 2940
_journal_name_full 'Org.Lett. '
loop_
_publ_author_name
"A.W.J.Logan"
"J.S.Parker"
"M.S.Hallside"
"J.W.Burton"
_chemical_name_systematic
;
Methyl 
1-(3-nitrophenyl)-3-oxotetrahydro-1H-cyclopenta[c]furan-3a(3H)-carboxylate
;
_cell_volume    722.361
_exptl_crystal_colour 'colorless'
_exptl_crystal_density_diffrn 1.403
_exptl_crystal_description 'plate'
_diffrn_ambient_temperature 150
#These two values have been output from a single CSD field.
_refine_ls_R_factor_gt 0.0415
_refine_ls_wR_factor_gt 0.0415
_symmetry_cell_setting triclinic
_symmetry_space_group_name_H-M 'P -1'
_symmetry_Int_Tables_number 2
loop_
_symmetry_equiv_pos_site_id
_symmetry_equiv_pos_as_xyz
1 x,y,z
2 -x,-y,-z
_cell_length_a 6.6885(2)
_cell_length_b 7.8890(3)
_cell_length_c 14.2710(5)
_cell_angle_alpha 76.9115(15)
_cell_angle_beta 81.3249(15)
_cell_angle_gamma 83.2683(19)
_cell_formula_units_Z 2
loop_
_atom_type_symbol
_atom_type_radius_bond
C 0.68
H 0.23
N 0.68
O 0.68
loop_
_atom_site_label
_atom_site_type_symbol
_atom_site_fract_x
_atom_site_fract_y
_atom_site_fract_z
C1 C 0.9782(3) 0.4054(3) 0.39952(16)
C2 C 0.7575(3) 0.3760(3) 0.43847(17)
C3 C 0.6712(3) 0.3489(3) 0.35065(17)
C4 C 0.7980(3) -0.0656(2) 0.27053(13)
C5 C 0.9515(3) -0.0907(2) 0.19678(13)
C6 C 0.9141(3) -0.1819(2) 0.12998(13)
C7 C 0.7287(4) -0.2461(3) 0.13332(16)
C8 C 0.5771(3) -0.2186(3) 0.20612(16)
N1 N 1.0781(3) -0.2104(2) 0.05264(12)
O1 O 1.0493(3) -0.3012(3) -0.00254(13)
O2 O 1.2347(3) -0.1403(2) 0.04602(11)
O3 O 1.28194(18) 0.07594(18) 0.42168(9)
C9 C 0.6114(3) -0.1301(2) 0.27504(15)
C10 C 1.1885(3) 0.3492(2) 0.24354(13)
O4 O 1.2241(2) 0.49846(19) 0.21591(12)
O5 O 1.2735(2) 0.22112(18) 0.19936(9)
C11 C 1.4162(4) 0.2711(3) 0.11288(15)
C12 C 0.8391(3) 0.2363(2) 0.30158(13)
C13 C 0.8275(3) 0.0377(2) 0.34340(13)
O6 O 1.01798(18) -0.02732(16) 0.38235(9)
C14 C 1.1299(3) 0.1033(2) 0.38303(12)
C15 C 1.0399(3) 0.2781(2) 0.33079(13)
H1 H 1.06960 0.38130 0.44990
H2 H 0.98970 0.52310 0.36180
H3 H 0.68660 0.47800 0.46120
H4 H 0.74790 0.27250 0.49110
H5 H 0.64800 0.45980 0.30650
H6 H 0.54410 0.29260 0.36790
H7 H 1.07720 -0.04640 0.19070
H8 H 0.70940 -0.30920 0.08680
H9 H 0.45140 -0.26170 0.20960
H10 H 0.50600 -0.11380 0.32570
H11 H 1.45440 0.16910 0.08480
H12 H 1.53170 0.31350 0.13140
H13 H 1.35240 0.36370 0.06700
H14 H 0.84110 0.26140 0.23140
H15 H 0.71730 0.01880 0.39870
#END
