
#######################################################################
#
#                 Cambridge Crystallographic Data Centre
#                                CCDC
#
#######################################################################
#
# If this CIF has been generated from an entry in the Cambridge
# Structural Database, then it will include bibliographic, chemical,
# crystal, experimental, refinement or atomic coordinate data resulting
# from the CCDC's data processing and validation procedures.
#
#######################################################################

data_CSD_CIF_GEJBED
_audit_creation_date 2006-07-18
_audit_creation_method CSD-ConQuest-V1
_database_code_CSD GEJBED
_database_code_depnum_ccdc_archive 'CCDC 610833'
_chemical_formula_sum 'C16 H14 N4 O2'
_chemical_formula_moiety
;
C16 H14 N4 O2
;
_journal_coeditor_code "IUCr LH2057"
_journal_coden_Cambridge 1370
_journal_volume 62
_journal_year 2006
_journal_page_first o2226
_journal_name_full 'Acta Crystallogr.,Sect.E:Struct.Rep.Online '
loop_
_publ_author_name
"M.Akkurt"
"S.O.Yildirim"
"S.S.Al-Shihry"
"O.Buyukgungor"
_chemical_name_systematic
;
N-(5-Methylisoxazol-3-yl)-N-(2-(5-methylisoxazol-3-yl)-2,3-dihydro-1H-isoindol
-1-ylidene)amine
;
_chemical_melting_point 464
_cell_volume   1424.662
_exptl_crystal_colour 'colorless'
_exptl_crystal_density_diffrn 1.372
_exptl_special_details
;
antifungal activity against Chrysoporium tropicum, Fusarium oxysporum, 
Geotrichum candidum and Trichoplyton rubrum
;
_exptl_crystal_description 'prism with corners rounded'
_diffrn_ambient_temperature 296
#These two values have been output from a single CSD field.
_refine_ls_R_factor_gt 0.0414
_refine_ls_wR_factor_gt 0.0414
_symmetry_cell_setting monoclinic
_symmetry_space_group_name_H-M 'P 21/c'
_symmetry_Int_Tables_number 14
loop_
_symmetry_equiv_pos_site_id
_symmetry_equiv_pos_as_xyz
1 x,y,z
2 -x,1/2+y,1/2-z
3 -x,-y,-z
4 x,-1/2-y,-1/2+z
_cell_length_a 13.5698(8)
_cell_length_b 7.8257(6)
_cell_length_c 13.6527(8)
_cell_angle_alpha 90
_cell_angle_beta 100.690(4)
_cell_angle_gamma 90
_cell_formula_units_Z 4
loop_
_atom_type_symbol
_atom_type_radius_bond
C 0.68
H 0.23
N 0.68
O 0.68
loop_
_atom_site_label
_atom_site_type_symbol
_atom_site_fract_x
_atom_site_fract_y
_atom_site_fract_z
O1 O 0.60409(8) 0.74654(15) 0.36931(9)
O2 O 0.08452(8) 0.19055(14) 0.29499(8)
N1 N 0.38605(9) 0.67101(15) 0.46086(9)
N2 N 0.53635(10) 0.78016(18) 0.43446(11)
N3 N 0.29351(9) 0.44381(16) 0.38240(9)
N4 N 0.14513(11) 0.33696(18) 0.29085(11)
C1 C 0.24372(11) 0.61626(18) 0.52258(10)
C2 C 0.15476(11) 0.5504(2) 0.54415(11)
C3 C 0.11273(12) 0.6309(2) 0.61703(12)
C4 C 0.15759(13) 0.7740(2) 0.66624(12)
C5 C 0.24591(13) 0.8397(2) 0.64464(12)
C6 C 0.28883(12) 0.75785(19) 0.57272(11)
C7 C 0.38427(12) 0.79993(19) 0.53818(12)
C8 C 0.30461(10) 0.56066(17) 0.44862(10)
C9 C 0.46501(11) 0.66698(17) 0.40956(11)
C10 C 0.48239(11) 0.55895(19) 0.33155(11)
C11 C 0.56964(11) 0.61459(19) 0.30997(11)
C12 C 0.63160(13) 0.5625(2) 0.23648(13)
C13 C 0.2142(1) 0.32813(17) 0.3708(1)
C14 C 0.20269(12) 0.18136(19) 0.42790(11)
C15 C 0.12200(11) 0.10147(18) 0.37786(10)
C16 C 0.06870(13) -0.0596(2) 0.39254(12)
H1 H 0.12440 0.45520 0.51060
H2 H 0.05380 0.58830 0.63310
H3 H 0.12790 0.82660 0.71450
H4 H 0.27560 0.93600 0.67750
H5 H 0.38260 0.91460 0.51100
H6 H 0.44180 0.78890 0.59180
H7 H 0.44250 0.46960 0.30190
H8 H 0.70130 0.57050 0.26630
H9 H 0.61780 0.63650 0.17950
H10 H 0.61590 0.44680 0.21600
H11 H 0.24280 0.14770 0.48760
H12 H -0.00230 -0.04250 0.37310
H13 H 0.08420 -0.09210 0.46150
H14 H 0.08980 -0.14840 0.35250
#END
