
#######################################################################
#
#                 Cambridge Crystallographic Data Centre
#                                CCDC
#
#######################################################################
#
# If this CIF has been generated from an entry in the Cambridge
# Structural Database, then it will include bibliographic, chemical,
# crystal, experimental, refinement or atomic coordinate data resulting
# from the CCDC's data processing and validation procedures.
#
#######################################################################

data_CSD_CIF_GEJBON
_audit_creation_date 2006-07-18
_audit_creation_method CSD-ConQuest-V1
_database_code_CSD GEJBON
_database_code_depnum_ccdc_archive 'CCDC 610836'
_chemical_formula_sum 'C8 H7 N3 O3'
_chemical_formula_moiety
;
C8 H7 N3 O3
;
_journal_coeditor_code "IUCr LH2061"
_journal_coden_Cambridge 1370
_journal_volume 62
_journal_year 2006
_journal_page_first o2204
_journal_name_full 'Acta Crystallogr.,Sect.E:Struct.Rep.Online '
loop_
_publ_author_name
"J.L.Wardell"
"J.N.Low"
"C.Glidewell"
_chemical_name_systematic
;
Glyoxal 2-nitrophenylhydrazone
;
_chemical_melting_point 442
_cell_volume   1672.384
_exptl_crystal_colour 'orange'
_exptl_crystal_density_diffrn 1.534
_exptl_special_details
;
Melting point range 442-444K

;
_exptl_crystal_description 'needle'
_exptl_crystal_preparation 'ethanol'
_diffrn_ambient_temperature 120
_diffrn_special_details
;
non-merohedral twinning with twin fractions 0.302(5) and 0.698(5)

;
#These two values have been output from a single CSD field.
_refine_ls_R_factor_gt 0.0898
_refine_ls_wR_factor_gt 0.0898
_symmetry_cell_setting monoclinic
_symmetry_space_group_name_H-M 'C 2/c'
_symmetry_Int_Tables_number 15
loop_
_symmetry_equiv_pos_site_id
_symmetry_equiv_pos_as_xyz
1 x,y,z
2 1/2+x,1/2+y,z
3 -x,y,1/2-z
4 1/2-x,1/2+y,1/2-z
5 -x,-y,-z
6 -1/2-x,-1/2-y,-z
7 x,-y,-1/2+z
8 -1/2+x,-1/2-y,-1/2+z
_cell_length_a 18.670(4)
_cell_length_b 3.7723(4)
_cell_length_c 23.896(5)
_cell_angle_alpha 90
_cell_angle_beta 96.429(6)
_cell_angle_gamma 90
_cell_formula_units_Z 8
loop_
_atom_type_symbol
_atom_type_radius_bond
C 0.68
H 0.23
N 0.68
O 0.68
loop_
_atom_site_label
_atom_site_type_symbol
_atom_site_fract_x
_atom_site_fract_y
_atom_site_fract_z
C1 C 0.5988(2) 0.9186(11) 0.61085(19)
N1 N 0.53270(19) 0.7496(9) 0.60542(16)
N2 N 0.49995(19) 0.6830(9) 0.65175(15)
C2 C 0.4415(2) 0.5000(11) 0.6465(2)
C3 C 0.4100(2) 0.4244(11) 0.6978(2)
O1 O 0.35891(17) 0.2276(8) 0.70018(14)
C4 C 0.6383(2) 0.9861(11) 0.56497(19)
N3 N 0.6123(2) 0.8881(10) 0.50804(17)
O2 O 0.55688(17) 0.7048(9) 0.49938(14)
O3 O 0.6451(2) 0.9858(10) 0.46949(16)
C5 C 0.7059(2) 1.1489(12) 0.5732(2)
C6 C 0.7350(2) 1.2471(12) 0.6258(2)
C7 C 0.6964(2) 1.1903(11) 0.6707(2)
C8 C 0.6299(2) 1.0281(11) 0.6637(2)
H1 H 0.51220 0.68610 0.57200
H2 H 0.42020 0.41880 0.61090
H3 H 0.43040 0.53500 0.73160
H4 H 0.73180 1.19150 0.54190
H5 H 0.78140 1.35340 0.63140
H6 H 0.71590 1.26420 0.70730
H7 H 0.60470 0.99020 0.69550
#END
