
#######################################################################
#
#                 Cambridge Crystallographic Data Centre
#                                CCDC
#
#######################################################################
#
# If this CIF has been generated from an entry in the Cambridge
# Structural Database, then it will include bibliographic, chemical,
# crystal, experimental, refinement or atomic coordinate data resulting
# from the CCDC's data processing and validation procedures.
#
#######################################################################

data_CSD_CIF_GEJKUB
_audit_creation_date 1989-03-17
_audit_creation_method CSD-ConQuest-V1
_database_code_CSD GEJKUB
_database_code_depnum_ccdc_archive 'CCDC 1165564'
_chemical_formula_sum 'C13 H12 N2 O2'
_chemical_formula_moiety
;
C13 H12 N2 O2
;
_journal_coden_Cambridge 7
_journal_volume 61
_journal_year 1988
_journal_page_first 1085
_journal_name_full 'Bull.Chem.Soc.Jpn. '
loop_
_publ_author_name
"F.Iwasaki"
"Y.Masuko"
"S.Monma"
"T.Watanabe"
"K.Mutai"
_chemical_name_systematic
;
N-Phenyl-4-nitrobenzylamine
;
_cell_volume   1136.660
_exptl_crystal_colour 'pale brown'
_exptl_crystal_density_diffrn 1.334
_diffrn_ambient_temperature ?
_diffrn_special_details
;
The study was carried out at room temperature,in the range 283-303K

;
#These two values have been output from a single CSD field.
_refine_ls_R_factor_gt 0.06
_refine_ls_wR_factor_gt 0.06
_symmetry_cell_setting monoclinic
_symmetry_space_group_name_H-M 'P 21/n'
_symmetry_Int_Tables_number 14
loop_
_symmetry_equiv_pos_site_id
_symmetry_equiv_pos_as_xyz
1 x,y,z
2 1/2-x,1/2+y,1/2-z
3 -x,-y,-z
4 -1/2+x,-1/2-y,-1/2+z
_cell_length_a 16.924(1)
_cell_length_b 8.792(1)
_cell_length_c 7.642(1)
_cell_angle_alpha 90
_cell_angle_beta 91.59(1)
_cell_angle_gamma 90
_cell_formula_units_Z 4
loop_
_atom_type_symbol
_atom_type_radius_bond
C 0.68
H 0.23
N 0.68
O 0.68
loop_
_atom_site_label
_atom_site_type_symbol
_atom_site_fract_x
_atom_site_fract_y
_atom_site_fract_z
O1 O 0.6260(2) 0.0363(3) 0.3806(4)
O2 O 0.5611(2) 0.1424(3) 0.5830(3)
N1 N 0.3595(1) 0.3342(3) -0.2366(3)
N2 N 0.5733(1) 0.1189(3) 0.4300(3)
C1 C 0.3080(1) 0.3943(3) -0.3655(3)
C2 C 0.2998(2) 0.5489(3) -0.3936(8)
C3 C 0.2508(2) 0.6029(4) -0.5278(4)
C4 C 0.2084(2) 0.5041(4) -0.6345(4)
C5 C 0.2158(2) 0.3502(4) -0.6060(4)
C6 C 0.2653(2) 0.2945(3) -0.4748(3)
C7 C 0.3807(2) 0.4264(3) -0.0864(4)
C8 C 0.4307(2) 0.3416(3) 0.0470(3)
C9 C 0.4883(2) 0.2389(3) -0.0017(4)
C10 C 0.5352(2) 0.1648(3) 0.1226(4)
C11 C 0.5234(1) 0.1963(3) 0.2961(3)
C12 C 0.4670(2) 0.2965(4) 0.3499(4)
C13 C 0.4208(2) 0.3698(4) 0.2236(4)
H1 H 0.350(2) 0.236(4) -0.208(4)
H2 H 0.324(2) 0.617(3) -0.318(3)
H3 H 0.248(2) 0.711(4) -0.545(4)
H4 H 0.174(2) 0.540(4) -0.730(4)
H5 H 0.183(2) 0.279(4) -0.685(4)
H6 H 0.270(2) 0.184(3) -0.456(3)
H7 H 0.332(2) 0.470(4) -0.026(4)
H8 H 0.413(2) 0.512(4) -0.131(5)
H9 H 0.493(2) 0.219(4) -0.121(4)
H10 H 0.580(2) 0.096(3) 0.093(4)
H11 H 0.461(2) 0.319(4) 0.472(4)
H12 H 0.379(2) 0.439(4) 0.259(4)
#END
