
#######################################################################
#
#                 Cambridge Crystallographic Data Centre
#                                CCDC
#
#######################################################################
#
# If this CIF has been generated from an entry in the Cambridge
# Structural Database, then it will include bibliographic, chemical,
# crystal, experimental, refinement or atomic coordinate data resulting
# from the CCDC's data processing and validation procedures.
#
#######################################################################

data_CSD_CIF_GEJLEM
_audit_creation_date 1989-03-17
_audit_creation_method CSD-ConQuest-V1
_database_code_CSD GEJLEM
_database_code_depnum_ccdc_archive 'CCDC 1165566'
_chemical_formula_sum 'C16 H18 N2 O2'
_chemical_formula_moiety
;
C16 H18 N2 O2
;
_journal_coden_Cambridge 7
_journal_volume 61
_journal_year 1988
_journal_page_first 1085
_journal_name_full 'Bull.Chem.Soc.Jpn. '
loop_
_publ_author_name
"F.Iwasaki"
"Y.Masuko"
"S.Monma"
"T.Watanabe"
"K.Mutai"
_chemical_name_systematic
;
N-Methyl-N-p-tolyl-4-nitrophenethylamine
;
_cell_volume   1094.195
_exptl_crystal_colour 'orange-red'
_exptl_crystal_density_diffrn 1.231
_diffrn_ambient_temperature ?
_diffrn_special_details
;
The study was carried out at room temperature,in the range 283-303K

;
#These two values have been output from a single CSD field.
_refine_ls_R_factor_gt 0.041
_refine_ls_wR_factor_gt 0.041
_symmetry_cell_setting hexagonal
_symmetry_space_group_name_H-M 'P 31'
_symmetry_Int_Tables_number 144
loop_
_symmetry_equiv_pos_site_id
_symmetry_equiv_pos_as_xyz
1 x,y,z
2 -y,x-y,1/3+z
3 -x+y,-x,2/3+z
_cell_length_a 8.435(1)
_cell_length_b 8.435(1)
_cell_length_c 17.758(2)
_cell_angle_alpha 90
_cell_angle_beta 90
_cell_angle_gamma 120
_cell_formula_units_Z 3
loop_
_atom_type_symbol
_atom_type_radius_bond
C 0.68
H 0.23
N 0.68
O 0.68
loop_
_atom_site_label
_atom_site_type_symbol
_atom_site_fract_x
_atom_site_fract_y
_atom_site_fract_z
O1 O 1.4888(4) 0.4718(4) 0.0589(2)
O2 O 1.4224(4) 0.2714(4) -0.0280(1)
N1 N 0.3433(4) -0.0599(5) 0.1190(2)
N2 N 1.3811(4) 0.3317(4) 0.0262(2)
C1 C 0.2337(4) -0.2029(5) 0.0712(2)
C2 C 0.3006(5) -0.2355(5) 0.0044(2)
C3 C 0.1870(5) -0.3728(5) -0.0447(2)
C4 C 0.0025(5) -0.4874(5) -0.0307(2)
C5 C -0.0626(5) -0.4555(5) 0.0357(2)
C6 C 0.0467(5) -0.3207(5) 0.0853(2)
C7 C 0.5406(5) 0.0427(5) 0.1079(2)
C8 C 0.6413(5) -0.0559(4) 0.1320(2)
C9 C 0.8368(4) 0.0417(4) 0.1058(2)
C10 C 0.9666(5) 0.2040(5) 0.1403(2)
C11 C 1.1442(4) 0.2990(5) 0.1143(2)
C12 C 1.1910(4) 0.2311(4) 0.0536(2)
C13 C 1.0681(4) 0.0718(5) 0.0179(2)
C14 C 0.8914(4) -0.0209(5) 0.0445(2)
C15 C -0.1182(6) -0.6377(6) -0.0831(3)
C16 C 0.2766(6) -0.0487(6) 0.1924(2)
H1 H 0.431(5) -0.161(5) -0.014(2)
H2 H 0.239(5) -0.401(5) -0.091(2)
H3 H -0.184(5) -0.521(4) 0.047(2)
H4 H -0.001(4) -0.307(4) 0.128(2)
H5 H 0.597(5) 0.163(5) 0.133(2)
H6 H 0.562(5) 0.069(5) 0.056(2)
H7 H 0.588(4) -0.171(4) 0.112(2)
H8 H 0.636(4) -0.066(4) 0.190(2)
H9 H 0.932(5) 0.254(5) 0.184(2)
H10 H 1.231(4) 0.407(4) 0.134(2)
H11 H 1.114(4) 0.024(4) -0.023(2)
H12 H 0.805(4) -0.142(4) 0.021(2)
H13 H -0.063(6) -0.680(6) -0.123(2)
H14 H -0.186(9) -0.609(8) -0.113(3)
H15 H -0.206(6) -0.752(6) -0.064(2)
H16 H 0.162(5) -0.038(6) 0.181(2)
H17 H 0.243(5) -0.154(5) 0.224(2)
H18 H 0.355(5) 0.045(5) 0.219(2)
#END
