
#######################################################################
#
#                 Cambridge Crystallographic Data Centre
#                                CCDC
#
#######################################################################
#
# If this CIF has been generated from an entry in the Cambridge
# Structural Database, then it will include bibliographic, chemical,
# crystal, experimental, refinement or atomic coordinate data resulting
# from the CCDC's data processing and validation procedures.
#
#######################################################################

data_CSD_CIF_GEJQET
_audit_creation_date 2013-01-17
_audit_creation_method CSD-ConQuest-V1
_database_code_CSD GEJQET
_database_code_depnum_ccdc_archive 'CCDC 823556'
_chemical_formula_sum 'C26 H17 N3 O3'
_chemical_formula_moiety
;
C26 H17 N3 O3
;
_journal_coden_Cambridge 388
_journal_volume 47
_journal_year 2011
_journal_page_first 748
_journal_name_full 'Zh.Org.Khim.(Russ.)(Russ.J.Org.Chem.) '
loop_
_publ_author_name
"T.V.Trashakhova"
"E.V.Nosova"
"M.S.Valova"
"P.A.Slepukhin"
"G.N.Lipunova"
"V.N.Charushin"
_chemical_name_systematic
;
3-(1-Naphthyl)-2-(2-(4-nitrophenyl)vinyl)quinazolin-4(3H)-one
;
_chemical_melting_point 236
_cell_volume   2079.176
_exptl_crystal_colour 'yellow'
_exptl_crystal_density_diffrn 1.34
_exptl_special_details
;
Melting point range 236-238K

;
_exptl_crystal_description 'prism'
_diffrn_ambient_temperature 295
#These two values have been output from a single CSD field.
_refine_ls_R_factor_gt 0.0409
_refine_ls_wR_factor_gt 0.0409
_symmetry_cell_setting monoclinic
_symmetry_space_group_name_H-M 'P 21/n'
_symmetry_Int_Tables_number 14
loop_
_symmetry_equiv_pos_site_id
_symmetry_equiv_pos_as_xyz
1 x,y,z
2 1/2-x,1/2+y,1/2-z
3 -x,-y,-z
4 -1/2+x,-1/2-y,-1/2+z
_cell_length_a 12.5866(9)
_cell_length_b 9.7217(6)
_cell_length_c 17.679(3)
_cell_angle_alpha 90
_cell_angle_beta 106.027(10)
_cell_angle_gamma 90
_cell_formula_units_Z 4
loop_
_atom_type_symbol
_atom_type_radius_bond
C 0.68
H 0.23
N 0.68
O 0.68
loop_
_atom_site_label
_atom_site_type_symbol
_atom_site_fract_x
_atom_site_fract_y
_atom_site_fract_z
N1 N 0.54647(7) 0.83466(10) 0.21449(5)
C1 C 0.45514(9) 0.87864(11) 0.22587(6)
O1 O 0.43181(7) 0.69209(10) 0.39286(6)
N2 N 0.41322(7) 0.82984(9) 0.28603(5)
C2 C 0.46906(9) 0.73052(12) 0.33967(7)
O2 O 0.15567(9) 1.48157(12) -0.12158(6)
C3 C 0.57063(9) 0.68017(12) 0.32585(7)
O3 O 0.3202(1) 1.55933(11) -0.10545(6)
N3 N 0.25517(12) 1.47554(13) -0.09265(7)
C4 C 0.6318(1) 0.57627(13) 0.37270(8)
H1 H 0.60840 0.53960 0.41400
C5 C 0.72619(10) 0.52846(14) 0.35778(8)
H2 H 0.76680 0.45890 0.38880
C6 C 0.76136(10) 0.58367(15) 0.29641(8)
H3 H 0.82530 0.55010 0.28640
C7 C 0.70344(9) 0.68636(13) 0.25070(7)
H4 H 0.72900 0.72410 0.21060
C8 C 0.60547(9) 0.73516(11) 0.26400(6)
C9 C 0.39381(10) 0.98543(12) 0.17325(7)
H5 H 0.3271(9) 1.0176(11) 0.1797(6)
C10 C 0.43228(10) 1.03888(13) 0.11713(7)
H6 H 0.5001(9) 1.0026(11) 0.1133(7)
C11 C 0.38354(9) 1.14828(12) 0.06205(7)
C12 C 0.27236(10) 1.18159(14) 0.04366(7)
H7 H 0.2258(10) 1.1299(12) 0.0658(7)
C13 C 0.22962(11) 1.28672(13) -0.00741(8)
H8 H 0.154(1) 1.3075(12) -0.0215(7)
C14 C 0.29932(10) 1.36040(13) -0.03969(7)
C15 C 0.40948(12) 1.33116(16) -0.02260(9)
H9 H 0.4531(11) 1.3849(14) -0.0458(8)
C16 C 0.45097(11) 1.22430(15) 0.02696(9)
H10 H 0.5292(11) 1.2003(13) 0.0391(7)
C17 C 0.30571(9) 0.87391(12) 0.29314(7)
C18 C 0.21297(9) 0.81204(13) 0.24763(7)
H11 H 0.21940 0.74360 0.21240
C19 C 0.10818(10) 0.84994(15) 0.25306(8)
H12 H 0.04540 0.80690 0.22170
C20 C 0.09857(10) 0.95056(15) 0.30466(8)
H13 H 0.02880 0.97530 0.30840
C21 C 0.19228(10) 1.01722(13) 0.35215(7)
C22 C 0.18538(13) 1.12345(15) 0.40464(9)
H14 H 0.11610 1.15180 0.40770
C23 C 0.27609(15) 1.18525(16) 0.45057(9)
H15 H 0.26910 1.25520 0.48480
C24 C 0.38015(13) 1.14421(15) 0.44671(8)
H16 H 0.44250 1.18650 0.47920
C25 C 0.39289(10) 1.04365(13) 0.39655(7)
H17 H 0.46340 1.01840 0.39470
C26 C 0.29964(9) 0.97749(12) 0.34729(7)
#END
