
#######################################################################
#
#                 Cambridge Crystallographic Data Centre
#                                CCDC
#
#######################################################################
#
# If this CIF has been generated from an entry in the Cambridge
# Structural Database, then it will include bibliographic, chemical,
# crystal, experimental, refinement or atomic coordinate data resulting
# from the CCDC's data processing and validation procedures.
#
#######################################################################

data_CSD_CIF_GEJXAU
_audit_creation_date 1989-02-16
_audit_creation_method CSD-ConQuest-V1
_database_code_CSD GEJXAU
_chemical_formula_sum 'C5 H12 N8 O8'
_chemical_formula_moiety
;
C5 H12 N8 O8
;
_journal_coden_Cambridge 279
_journal_volume 114
_journal_year 1987
_journal_page_first 209
_journal_name_full 'Thermochim.Acta '
loop_
_publ_author_name
"Y.Oyumi"
"T.B.Brill"
"A.L.Rheingold"
_chemical_name_systematic
;
1,7-Dimethyl-1,3,5,7-tetranitrotrimethylenetetramine
;
_cell_volume   1296.897
_exptl_crystal_colour 'colorless'
_exptl_crystal_density_diffrn 1.598
_exptl_special_details
;
crystalline phase II polymorph

;
_diffrn_ambient_temperature ?
_diffrn_special_details
;
The study was carried out at room temperature,in the range 283-303K

;
#These two values have been output from a single CSD field.
_refine_ls_R_factor_gt 0.0384
_refine_ls_wR_factor_gt 0.0384
_symmetry_cell_setting monoclinic
_symmetry_space_group_name_H-M 'P 21/c'
_symmetry_Int_Tables_number 14
loop_
_symmetry_equiv_pos_site_id
_symmetry_equiv_pos_as_xyz
1 x,y,z
2 -x,1/2+y,1/2-z
3 -x,-y,-z
4 x,-1/2-y,-1/2+z
_cell_length_a 20.952(7)
_cell_length_b 9.477(2)
_cell_length_c 6.571(2)
_cell_angle_alpha 90
_cell_angle_beta 96.29(3)
_cell_angle_gamma 90
_cell_formula_units_Z 4
loop_
_atom_type_symbol
_atom_type_radius_bond
C 0.68
N 0.68
O 0.68
loop_
_atom_site_label
_atom_site_type_symbol
_atom_site_fract_x
_atom_site_fract_y
_atom_site_fract_z
O1 O 0.4342(1) 0.7053(2) -0.3890(3)
O2 O 0.3347(1) 0.7010(2) -0.3220(3)
O3 O 0.3917(1) 0.3794(2) 0.1570(3)
O4 O 0.3125(1) 0.4663(2) 0.3079(2)
O5 O 0.1930(1) 0.3772(2) -0.2854(3)
O6 O 0.1140(1) 0.3408(2) -0.0975(3)
O7 O 0.1585(1) 0.7665(2) 0.1314(2)
O8 O 0.0604(1) 0.7832(2) 0.2128(3)
N1 N 0.3968(1) 0.5177(2) -0.2395(3)
N2 N 0.3090(1) 0.4779(2) -0.0286(3)
N3 N 0.1943(1) 0.4821(2) 0.0163(3)
N4 N 0.1046(1) 0.5721(2) 0.1895(3)
N5 N 0.3884(1) 0.6483(2) -0.3229(3)
N6 N 0.3396(1) 0.4395(2) 0.1548(3)
N7 N 0.1651(1) 0.3951(2) -0.1308(3)
N8 N 0.1079(1) 0.7147(2) 0.1796(3)
C1 C 0.4571(1) 0.4456(3) -0.2634(4)
C2 C 0.3388(1) 0.4396(2) -0.2114(3)
C3 C 0.2505(1) 0.5615(2) -0.0316(3)
C4 C 0.1654(1) 0.4968(2) 0.2069(3)
C5 C 0.0484(1) 0.5089(3) 0.2670(4)
#END
