
#######################################################################
#
#                 Cambridge Crystallographic Data Centre
#                                CCDC
#
#######################################################################
#
# If this CIF has been generated from an entry in the Cambridge
# Structural Database, then it will include bibliographic, chemical,
# crystal, experimental, refinement or atomic coordinate data resulting
# from the CCDC's data processing and validation procedures.
#
#######################################################################

data_CSD_CIF_GEKKOY
_audit_creation_date 2013-01-17
_audit_creation_method CSD-ConQuest-V1
_database_code_CSD GEKKOY
_database_code_depnum_ccdc_archive 'CCDC 821921'
_chemical_formula_sum 'C12 H13 N3 O4'
_chemical_formula_moiety
;
C12 H13 N3 O4
;
_journal_coden_Cambridge 95
_journal_year 2011
_journal_page_first 1697
_journal_name_full 'Izv.Akad.Nauk SSSR,Ser.Khim.(Russ.)(Russ.Chem.Bull.) '
loop_
_publ_author_name
"V.A.Samsonov"
"I.Yu.Bagryanskaya"
"Yu.V.Gatilov"
"V.A.Savel'ev"
_chemical_name_systematic
;
7-Nitrospiro[2,1,4-benzoxadiazine-3,1'-cyclohexan]-4(1H)-ol
;
_chemical_melting_point 444.15
_cell_volume    588.229
_exptl_crystal_colour 'orange'
_exptl_crystal_density_diffrn 1.486
_exptl_special_details
;
Melting point range 444.15-446.15K
light-sensitive

;
_exptl_crystal_description 'prism'
_exptl_crystal_preparation 'hexane'
_diffrn_ambient_temperature 295
#These two values have been output from a single CSD field.
_refine_ls_R_factor_gt 0.0391
_refine_ls_wR_factor_gt 0.0391
_symmetry_cell_setting triclinic
_symmetry_space_group_name_H-M 'P -1'
_symmetry_Int_Tables_number 2
loop_
_symmetry_equiv_pos_site_id
_symmetry_equiv_pos_as_xyz
1 x,y,z
2 -x,-y,-z
_cell_length_a 5.8845(3)
_cell_length_b 9.1128(6)
_cell_length_c 11.6075(8)
_cell_angle_alpha 104.285(5)
_cell_angle_beta 93.013(6)
_cell_angle_gamma 101.271(4)
_cell_formula_units_Z 2
loop_
_atom_type_symbol
_atom_type_radius_bond
C 0.68
H 0.23
N 0.68
O 0.68
loop_
_atom_site_label
_atom_site_type_symbol
_atom_site_fract_x
_atom_site_fract_y
_atom_site_fract_z
O1 O 0.43781(16) 0.39489(13) 0.64875(9)
N1 N -0.18873(17) 0.08622(12) 0.58897(9)
O2 O 0.00076(14) 0.08842(9) 0.66935(7)
N2 N -0.4058(2) 0.22507(13) 0.23720(9)
O3 O -0.59912(19) 0.14455(16) 0.23178(10)
C1 C 0.14382(19) 0.23707(13) 0.72796(10)
C2 C 0.09076(19) 0.28383(13) 0.53147(10)
O4 O -0.3399(2) 0.28783(15) 0.1597(1)
N3 N 0.23478(16) 0.30919(12) 0.63026(9)
C3 C 0.1522(2) 0.35423(14) 0.43700(11)
H1 H 0.304(3) 0.4142(19) 0.4407(14)
C4 C -0.0070(2) 0.33421(14) 0.34344(11)
H2 H 0.026(3) 0.375(2) 0.2786(16)
C5 C -0.2371(2) 0.24543(13) 0.34142(10)
C6 C -0.13549(19) 0.18298(13) 0.52322(10)
C7 C -0.3062(2) 0.17457(14) 0.42654(10)
H3 H -0.459(3) 0.1158(19) 0.4245(15)
C8 C 0.3436(2) 0.20414(17) 0.79852(12)
H4 H 0.424(3) 0.1361(17) 0.7439(14)
H5 H 0.448(3) 0.3016(19) 0.8308(15)
C9 C 0.2571(2) 0.13784(18) 0.90080(12)
H6 H 0.151(3) 0.0362(19) 0.8676(14)
H7 H 0.393(3) 0.121(2) 0.9441(16)
C10 C 0.1308(3) 0.2458(2) 0.98163(12)
H8 H 0.239(3) 0.341(2) 1.0182(17)
H9 H 0.071(3) 0.200(2) 1.0448(17)
C11 C -0.0715(2) 0.27629(17) 0.90999(11)
H10 H -0.157(3) 0.3487(18) 0.9607(15)
H11 H -0.185(3) 0.183(2) 0.8774(15)
C12 C 0.0090(2) 0.34217(14) 0.80616(10)
H12 H -0.125(3) 0.3536(17) 0.7571(13)
H13 H 0.111(3) 0.4426(19) 0.8354(14)
#END
