
#######################################################################
#
#                 Cambridge Crystallographic Data Centre
#                                CCDC
#
#######################################################################
#
# If this CIF has been generated from an entry in the Cambridge
# Structural Database, then it will include bibliographic, chemical,
# crystal, experimental, refinement or atomic coordinate data resulting
# from the CCDC's data processing and validation procedures.
#
#######################################################################

data_CSD_CIF_GELHUD
_audit_creation_date 2017-11-28
_audit_creation_method CSD-ConQuest-V1
_database_code_CSD GELHUD
_database_code_depnum_ccdc_archive 'CCDC 1523402'
_chemical_formula_sum 'C16 H15 N3 O5'
_chemical_formula_moiety
;
C16 H15 N3 O5
;
_journal_coden_Cambridge 1048
_journal_volume 19
_journal_year 2017
_journal_page_first 5789
_journal_name_full 'Green Chemistry '
loop_
_publ_author_name
"Kai Qiao"
"Xin Yuan"
"Li Wan"
"Ming-Wei Zheng"
"Dong Zhang"
"Bing-Bing Fan"
"Zhe-Chen Di"
"Zheng Fang"
"Kai Guo"
_chemical_name_systematic
;
2-((2-(benzoylamino)benzoyl)amino)ethyl nitrate
;
_cell_volume    763.709
_exptl_crystal_density_diffrn 1.432
_diffrn_ambient_temperature 296
#These two values have been output from a single CSD field.
_refine_ls_R_factor_gt 0.0461
_refine_ls_wR_factor_gt 0.0461
_symmetry_cell_setting triclinic
_symmetry_space_group_name_H-M 'P -1'
_symmetry_Int_Tables_number 2
loop_
_symmetry_equiv_pos_site_id
_symmetry_equiv_pos_as_xyz
1 x,y,z
2 -x,-y,-z
_cell_length_a 7.4889(7)
_cell_length_b 8.9633(8)
_cell_length_c 12.2743(11)
_cell_angle_alpha 98.953(3)
_cell_angle_beta 106.482(3)
_cell_angle_gamma 98.679(3)
_cell_formula_units_Z 2
loop_
_atom_type_symbol
_atom_type_radius_bond
C 0.68
H 0.23
N 0.68
O 0.68
loop_
_atom_site_label
_atom_site_type_symbol
_atom_site_fract_x
_atom_site_fract_y
_atom_site_fract_z
C1 C 0.6503(3) 0.6379(3) 0.77691(19)
H1 H 0.61070 0.57430 0.70340
C2 C 0.6355(3) 0.5767(3) 0.8713(2)
H2 H 0.58640 0.47200 0.86110
C3 C 0.6937(3) 0.6707(3) 0.9813(2)
H3 H 0.68370 0.62920 1.04470
C4 C 0.7668(3) 0.8267(3) 0.9965(2)
H4 H 0.80510 0.89020 1.07000
C5 C 0.7827(3) 0.8879(3) 0.90226(18)
H5 H 0.83300 0.99250 0.91300
C6 C 0.7243(3) 0.7946(2) 0.79143(18)
C7 C 0.7478(3) 0.8683(3) 0.69390(19)
C8 C 0.6004(3) 0.8380(2) 0.47875(17)
C9 C 0.7450(3) 0.9339(2) 0.45749(18)
H6 H 0.85820 0.97710 0.51720
C10 C 0.7220(3) 0.9658(3) 0.34815(19)
H7 H 0.81940 1.03110 0.33520
C11 C 0.5555(3) 0.9015(3) 0.25779(19)
H8 H 0.54230 0.92030 0.18380
C12 C 0.4090(3) 0.8089(2) 0.27896(18)
H9 H 0.29650 0.76640 0.21860
C13 C 0.4266(3) 0.7780(2) 0.38914(18)
C14 C 0.2622(3) 0.6836(2) 0.41069(18)
C15 C -0.0831(3) 0.6066(2) 0.35658(19)
H10 H -0.19100 0.65000 0.32120
H11 H -0.07200 0.61460 0.43810
C16 C -0.1214(3) 0.4378(2) 0.29910(17)
H12 H -0.01250 0.39280 0.32960
H13 H -0.23160 0.38060 0.31190
N1 N -0.2077(3) 0.2862(2) 0.10722(17)
N2 N 0.0879(3) 0.6968(2) 0.34762(15)
H14 H 0.07800 0.75990 0.30120
N3 N 0.6196(2) 0.7980(2) 0.58762(14)
H15 H 0.53950 0.71810 0.58710
O1 O 0.8717(2) 0.98344(17) 0.70985(12)
O2 O 0.2821(2) 0.59718(17) 0.48116(13)
O3 O -0.2204(3) 0.17968(19) 0.15464(14)
O4 O -0.2333(3) 0.2862(2) 0.00596(14)
O5 O -0.1560(2) 0.43578(16) 0.17637(12)
#END
