
#######################################################################
#
#                 Cambridge Crystallographic Data Centre
#                                CCDC
#
#######################################################################
#
# If this CIF has been generated from an entry in the Cambridge
# Structural Database, then it will include bibliographic, chemical,
# crystal, experimental, refinement or atomic coordinate data resulting
# from the CCDC's data processing and validation procedures.
#
#######################################################################

data_CSD_CIF_GELROG
_audit_creation_date 2013-01-17
_audit_creation_method CSD-ConQuest-V1
_database_code_CSD GELROG
_database_code_depnum_ccdc_archive 'CCDC 876751'
_chemical_formula_sum 'C12 H18 N3 O3'
_chemical_formula_moiety
;
C12 H18 N3 O3
;
_journal_coden_Cambridge 95
_journal_year 2011
_journal_page_first 2423
_journal_name_full 'Izv.Akad.Nauk SSSR,Ser.Khim.(Russ.)(Russ.Chem.Bull.) '
loop_
_publ_author_name
"S.V.Fokin"
"S.E.Tolstikov"
"E.V.Tret'yakov"
"G.V.Romanenko"
"A.S.Bogomyakov"
"S.L.Veber"
"R.Z.Sagdeev"
"V.I.Ovcharenko"
_chemical_name_systematic
;
2-(3,5-Dimethylisoxazol-4-yl)-4,4,5,5-tetramethyl-4,5-dihydro-1H-imidazole-3-o
xide-1-oxyl
;
_chemical_melting_point 445.15
_cell_volume    653.586
_exptl_crystal_colour 'blue'
_exptl_crystal_density_diffrn 1.282
_exptl_special_details
;
Melting point range 445.15-447.15K

;
_exptl_crystal_description 'plate'
_exptl_crystal_preparation 'dichloromethane/heptane'
_diffrn_ambient_temperature 240
_refine_special_details
;
N3 and O3 of the oxazolyl group are disordered over two sites.

;
#These two values have been output from a single CSD field.
_refine_ls_R_factor_gt 0.0489
_refine_ls_wR_factor_gt 0.0489
_symmetry_cell_setting triclinic
_symmetry_space_group_name_H-M 'P -1'
_symmetry_Int_Tables_number 2
loop_
_symmetry_equiv_pos_site_id
_symmetry_equiv_pos_as_xyz
1 x,y,z
2 -x,-y,-z
_cell_length_a 7.922(5)
_cell_length_b 9.802(6)
_cell_length_c 9.846(6)
_cell_angle_alpha 75.679(11)
_cell_angle_beta 67.006(10)
_cell_angle_gamma 69.443(10)
_cell_formula_units_Z 2
loop_
_atom_type_symbol
_atom_type_radius_bond
C 0.68
H 0.23
N 0.68
O 0.68
loop_
_atom_site_label
_atom_site_type_symbol
_atom_site_fract_x
_atom_site_fract_y
_atom_site_fract_z
N1 N 0.1480(2) 0.13613(17) 0.95246(16)
O1 O -0.15395(19) 0.48709(15) 0.93408(15)
N2 N -0.0299(2) 0.36186(18) 0.91242(16)
C1 C 0.0924(3) 0.3209(2) 0.7586(2)
O2 O 0.20762(19) 0.00714(15) 1.01616(15)
C2 C -0.0346(4) 0.2745(3) 0.7054(3)
H1 H -0.152(3) 0.356(3) 0.709(2)
H2 H -0.076(3) 0.187(3) 0.775(3)
H3 H 0.029(3) 0.252(2) 0.610(3)
N3 N -0.2004(2) 0.19825(18) 1.41971(16)
O3 O -0.3700(2) 0.26097(18) 1.38167(17)
C3 C 0.1529(4) 0.4506(3) 0.6565(3)
H4 H 0.221(3) 0.489(3) 0.697(3)
H5 H 0.029(3) 0.526(3) 0.639(3)
H6 H 0.239(4) 0.414(3) 0.558(3)
C4 C 0.2555(3) 0.1918(2) 0.7962(2)
C5 C 0.3407(4) 0.0701(3) 0.6979(3)
H7 H 0.242(3) 0.030(3) 0.700(3)
H8 H 0.436(3) -0.007(3) 0.740(3)
H9 H 0.406(4) 0.119(3) 0.596(3)
C6 C 0.4115(3) 0.2389(3) 0.8095(3)
H10 H 0.350(3) 0.320(2) 0.872(2)
H11 H 0.499(3) 0.259(3) 0.715(3)
H12 H 0.492(3) 0.151(3) 0.862(2)
C7 C -0.0030(2) 0.2451(2) 1.01662(19)
C8 C -0.1179(2) 0.2382(2) 1.17280(19)
C9 C -0.3167(3) 0.2842(2) 1.2343(2)
C10 C -0.4657(4) 0.3451(4) 1.1631(4)
H13 H -0.590(4) 0.359(3) 1.238(3)
H14 H -0.448(4) 0.289(3) 1.094(3)
H15 H -0.459(4) 0.438(4) 1.107(4)
C11 C -0.0537(3) 0.1857(2) 1.2939(2)
C12 C 0.1424(4) 0.1255(4) 1.3015(3)
H16 H 0.144(4) 0.082(3) 1.393(4)
H17 H 0.179(6) 0.198(5) 1.296(5)
H18 H 0.220(4) 0.056(3) 1.236(3)
N4? N -0.3700(2) 0.26097(18) 1.38167(17)
O4? O -0.2004(2) 0.19825(18) 1.41971(16)
#END
