
#######################################################################
#
#                 Cambridge Crystallographic Data Centre
#                                CCDC
#
#######################################################################
#
# If this CIF has been generated from an entry in the Cambridge
# Structural Database, then it will include bibliographic, chemical,
# crystal, experimental, refinement or atomic coordinate data resulting
# from the CCDC's data processing and validation procedures.
#
#######################################################################

data_CSD_CIF_GELRAS
_audit_creation_date 2013-01-17
_audit_creation_method CSD-ConQuest-V1
_database_code_CSD GELRAS
_database_code_depnum_ccdc_archive 'CCDC 876748'
_chemical_formula_sum 'C10 H16 N5 O2'
_chemical_formula_moiety
;
C10 H16 N5 O2
;
_journal_coden_Cambridge 95
_journal_year 2011
_journal_page_first 2411
_journal_name_full 'Izv.Akad.Nauk SSSR,Ser.Khim.(Russ.)(Russ.Chem.Bull.) '
loop_
_publ_author_name
"V.I.Ovcharenko"
"E.V.Tret'yakov"
"S.V.Fokin"
"E.Yu.Fursova"
"O.V.Kuznetsova"
"S.E.Tolstikov"
"G.V.Romanenko"
"A.S.Bogomyakov"
"R.Z.Sagdeev"
_chemical_name_systematic
;
2-(1-Methyl-1,2,3-triazol-5-yl)-4,4,5,5-tetramethyl-4,5-dihydro-1H-imidazol-1-
oxyl-3-oxide
;
_chemical_melting_point 479.15
_cell_volume    596.410
_exptl_crystal_colour 'blue'
_exptl_crystal_density_diffrn 1.327
_exptl_special_details
;
Melting point range 479.15-480.15K

;
_exptl_crystal_description 'prism'
_exptl_crystal_preparation 'heptane/dichloromethane'
_diffrn_ambient_temperature 240
#These two values have been output from a single CSD field.
_refine_ls_R_factor_gt 0.0645
_refine_ls_wR_factor_gt 0.0645
_symmetry_cell_setting triclinic
_symmetry_space_group_name_H-M 'P -1'
_symmetry_Int_Tables_number 2
loop_
_symmetry_equiv_pos_site_id
_symmetry_equiv_pos_as_xyz
1 x,y,z
2 -x,-y,-z
_cell_length_a 7.091(2)
_cell_length_b 9.877(3)
_cell_length_c 9.877(3)
_cell_angle_alpha 93.39
_cell_angle_beta 110.226(4)
_cell_angle_gamma 110.226(4)
_cell_formula_units_Z 2
loop_
_atom_type_symbol
_atom_type_radius_bond
C 0.68
H 0.23
N 0.68
O 0.68
loop_
_atom_site_label
_atom_site_type_symbol
_atom_site_fract_x
_atom_site_fract_y
_atom_site_fract_z
O1 O 0.3169(5) 0.0123(4) 0.5766(3)
N1 N 0.3198(5) -0.1146(4) 0.5874(3)
C1 C 0.3985(6) -0.1622(5) 0.7310(4)
C2 C 0.2132(7) -0.1960(6) 0.7860(5)
H1 H 0.20150 -0.10490 0.81600
H2 H 0.24380 -0.24380 0.86940
H3 H 0.07680 -0.26080 0.70750
C3 C 0.6047(7) -0.0395(5) 0.8405(4)
H4 H 0.57070 0.04310 0.86620
H5 H 0.71190 -0.00800 0.79680
H6 H 0.66330 -0.07510 0.92860
C4 C 0.4303(6) -0.3020(5) 0.6818(4)
C5 C 0.6568(7) -0.2638(6) 0.6731(5)
H7 H 0.66980 -0.35370 0.64110
H8 H 0.77090 -0.21390 0.76950
H9 H 0.67110 -0.19990 0.60320
C6 C 0.3791(8) -0.4228(6) 0.7628(5)
H10 H 0.40330 -0.50490 0.72370
H11 H 0.22770 -0.45490 0.75100
H12 H 0.47300 -0.38750 0.86660
N2 N 0.2676(5) -0.3461(4) 0.5239(3)
O2 O 0.1951(5) -0.4765(4) 0.4482(3)
C7 C 0.2291(6) -0.2312(5) 0.4741(4)
C8 C 0.0926(7) -0.2333(5) 0.3252(4)
C9 C -0.0733(7) -0.1840(6) 0.2747(5)
H13 H -0.11700 -0.13360 0.33400
N3 N -0.1626(6) -0.2197(5) 0.1270(4)
N4 N -0.0574(7) -0.2881(5) 0.0828(4)
N5 N 0.0953(6) -0.2971(5) 0.2023(3)
C10 C 0.2453(8) -0.3597(6) 0.1840(5)
H14 H 0.20120 -0.39740 0.08020
H15 H 0.24250 -0.43930 0.23720
H16 H 0.39200 -0.28400 0.22230
#END
