
#######################################################################
#
#                 Cambridge Crystallographic Data Centre
#                                CCDC
#
#######################################################################
#
# If this CIF has been generated from an entry in the Cambridge
# Structural Database, then it will include bibliographic, chemical,
# crystal, experimental, refinement or atomic coordinate data resulting
# from the CCDC's data processing and validation procedures.
#
#######################################################################

data_CSD_CIF_GEQGAN
_audit_creation_date 2017-11-29
_audit_creation_method CSD-ConQuest-V1
_database_code_CSD GEQGAN
_database_code_depnum_ccdc_archive 'CCDC 1583332'
_chemical_formula_sum 'C22 H16 N2 O2'
_chemical_formula_moiety
;
C22 H16 N2 O2
;
_journal_coden_Cambridge 1336
_journal_volume 19
_journal_year 2017
_journal_page_first 6744
_journal_name_full 'Org.Lett. '
loop_
_publ_author_name
"Y.Takeda"
"R.Kajihara"
"N.Kobayashi"
"K.Noguchi"
"A.Saito"
_chemical_name_systematic
;
10-methyl-5-(2-nitrophenyl)-5,10-dihydroindeno[1,2-b]indole
;
_cell_volume   1707.897
_exptl_crystal_colour 'colorless'
_exptl_crystal_density_diffrn 1.324
_exptl_crystal_description 'block'
_diffrn_ambient_temperature 193
#These two values have been output from a single CSD field.
_refine_ls_R_factor_gt 0.0663
_refine_ls_wR_factor_gt 0.0663
_symmetry_cell_setting orthorhombic
_symmetry_space_group_name_H-M 'P 21 21 21'
_symmetry_Int_Tables_number 19
loop_
_symmetry_equiv_pos_site_id
_symmetry_equiv_pos_as_xyz
1 x,y,z
2 1/2+x,1/2-y,-z
3 -x,1/2+y,1/2-z
4 1/2-x,-y,1/2+z
_cell_length_a 7.9820(2)
_cell_length_b 11.5232(3)
_cell_length_c 18.5685(6)
_cell_angle_alpha 90
_cell_angle_beta 90
_cell_angle_gamma 90
_cell_formula_units_Z 4
loop_
_atom_type_symbol
_atom_type_radius_bond
C 0.68
H 0.23
N 0.68
O 0.68
loop_
_atom_site_label
_atom_site_type_symbol
_atom_site_fract_x
_atom_site_fract_y
_atom_site_fract_z
O1 O 0.0871(4) 0.6836(3) 0.4329(2)
O2 O -0.0274(5) 0.7342(5) 0.3339(2)
N1 N -0.0660(4) 0.4889(3) 0.4881(2)
N2 N -0.0342(5) 0.6911(4) 0.3937(2)
C1 C 0.0408(5) 0.4244(4) 0.4433(2)
C2 C 0.0343(6) 0.4105(4) 0.3695(3)
H1 H -0.04830 0.44900 0.34140
C3 C 0.1502(7) 0.3395(5) 0.3380(3)
H2 H 0.14700 0.32780 0.28740
C4 C 0.2739(7) 0.2837(4) 0.3790(3)
H3 H 0.35340 0.23510 0.35570
C5 C 0.2818(6) 0.2983(4) 0.4523(3)
H4 H 0.36590 0.26020 0.47970
C6 C 0.1640(6) 0.3702(4) 0.4864(3)
C7 C 0.1306(6) 0.4049(4) 0.5594(3)
C8 C 0.1916(7) 0.3900(5) 0.6363(3)
H5 H 0.17660 0.30690 0.65040
C9 C 0.0629(6) 0.4626(5) 0.6769(3)
C10 C 0.0515(7) 0.4818(5) 0.7495(3)
H6 H 0.13000 0.44750 0.78150
C11 C -0.0767(7) 0.5525(5) 0.7759(3)
H7 H -0.08380 0.56790 0.82600
C12 C -0.1940(7) 0.6005(5) 0.7293(3)
H8 H -0.28150 0.64750 0.74810
C13 C -0.1849(7) 0.5808(4) 0.6559(3)
H9 H -0.26530 0.61380 0.62420
C14 C -0.0567(6) 0.5123(4) 0.6296(2)
C15 C -0.0086(6) 0.4749(4) 0.5579(3)
C16 C 0.3694(7) 0.4233(6) 0.6499(4)
H10 H 0.39620 0.41060 0.70080
H11 H 0.44340 0.37580 0.61990
H12 H 0.38530 0.50550 0.63800
C17 C -0.2068(6) 0.5535(4) 0.4655(2)
C18 C -0.1971(6) 0.6475(4) 0.4192(2)
C19 C -0.3384(6) 0.7050(4) 0.3946(3)
H13 H -0.32810 0.76690 0.36110
C20 C -0.4938(6) 0.6717(4) 0.4192(3)
H14 H -0.59140 0.71200 0.40400
C21 C -0.5066(6) 0.5781(4) 0.4667(3)
H15 H -0.61340 0.55470 0.48400
C22 C -0.3660(6) 0.5198(4) 0.4883(3)
H16 H -0.37710 0.45500 0.51950
#END
