
#######################################################################
#
#                 Cambridge Crystallographic Data Centre
#                                CCDC
#
#######################################################################
#
# If this CIF has been generated from an entry in the Cambridge
# Structural Database, then it will include bibliographic, chemical,
# crystal, experimental, refinement or atomic coordinate data resulting
# from the CCDC's data processing and validation procedures.
#
#######################################################################

data_CSD_CIF_GEQHOZ
_audit_creation_date 1999-04-16
_audit_creation_method CSD-ConQuest-V1
_database_code_CSD GEQHOZ
_database_code_depnum_ccdc_archive 'CCDC 105234; CCDC 408320'
_database_code_depnum_ccdc_fiz 'CSD 408320'
_chemical_formula_sum 'C15 H13 N3 O4'
_chemical_formula_moiety
;
C15 H13 N3 O4
;
_journal_coden_Cambridge 29
_journal_volume 624
_journal_year 1998
_journal_page_first 892
_journal_name_full 'Z.Anorg.Allg.Chem. '
loop_
_publ_author_name
"J.A.Cornejo"
"F.A.Melendez"
"L.Beyer"
"R.Richter"
"J.Sieler"
_chemical_name_systematic
;
N-Benzoyl-O-methyl-N'-(o-nitrophenyl)isourea
;
_chemical_melting_point 391.15
_cell_volume    697.530
_exptl_crystal_colour 'yellow'
_exptl_crystal_density_diffrn 1.425
_exptl_special_details
;
Melting point range 391.15-392.15K

;
_exptl_crystal_description 'prism'
_diffrn_ambient_temperature ?
_diffrn_special_details
;
The study was carried out at room temperature,in the range 283-303K

;
#These two values have been output from a single CSD field.
_refine_ls_R_factor_gt 0.0399
_refine_ls_wR_factor_gt 0.0399
_symmetry_cell_setting triclinic
_symmetry_space_group_name_H-M 'P -1'
_symmetry_Int_Tables_number 2
loop_
_symmetry_equiv_pos_site_id
_symmetry_equiv_pos_as_xyz
1 x,y,z
2 -x,-y,-z
_cell_length_a 7.733(1)
_cell_length_b 8.102(1)
_cell_length_c 12.760(1)
_cell_angle_alpha 94.92(2)
_cell_angle_beta 98.76(2)
_cell_angle_gamma 116.32(2)
_cell_formula_units_Z 2
loop_
_atom_type_symbol
_atom_type_radius_bond
C 0.68
H 0.23
N 0.68
O 0.68
loop_
_atom_site_label
_atom_site_type_symbol
_atom_site_fract_x
_atom_site_fract_y
_atom_site_fract_z
N1 N 0.0913(3) 0.8932(2) 0.91679(13)
N2 N -0.0212(3) 0.9255(3) 0.74062(14)
N3 N -0.1512(4) 1.1545(3) 0.6177(2)
O1 O 0.2494(3) 1.2013(2) 0.89147(13)
O2 O -0.2374(4) 1.2267(3) 0.5664(2)
O3 O -0.0357(3) 1.2348(2) 0.7033(2)
O4 O -0.1567(3) 0.6496(2) 0.79615(12)
C1 C -0.0213(4) 0.8279(3) 0.8216(2)
C2 C 0.2302(4) 1.0771(3) 0.9450(2)
C3 C 0.3654(4) 1.1217(3) 1.0520(2)
C4 C 0.3446(4) 0.9854(3) 1.1151(2)
C5 C 0.4720(4) 1.0284(4) 1.2132(2)
C6 C 0.6210(5) 1.2075(4) 1.2496(2)
C7 C 0.6419(5) 1.3438(4) 1.1884(2)
C8 C 0.5155(4) 1.3011(3) 1.0898(2)
C9 C -0.1282(3) 0.8592(3) 0.6340(2)
C10 C -0.1710(4) 0.6830(3) 0.5808(2)
C11 C -0.2717(4) 0.6194(4) 0.4756(2)
C12 C -0.3312(5) 0.7262(4) 0.4186(2)
C13 C -0.2926(4) 0.8989(4) 0.4668(2)
C14 C -0.1904(4) 0.9664(3) 0.5734(2)
C15 C -0.1652(7) 0.5339(4) 0.8774(2)
H1 H 0.0498(35) 1.0465(33) 0.7636(17)
H2 H 0.2336(42) 0.8631(38) 1.0864(20)
H3 H 0.4549(38) 0.9264(35) 1.2544(19)
H4 H 0.7043(49) 1.2357(42) 1.3160(25)
H5 H 0.7413(42) 1.4645(38) 1.2116(20)
H6 H 0.5280(41) 1.3960(39) 1.0463(21)
H7 H -0.1191(36) 0.6104(33) 0.6203(18)
H8 H -0.2985(38) 0.4983(37) 0.4452(20)
H9 H -0.4065(41) 0.6872(36) 0.3492(21)
H10 H -0.3224(41) 0.9793(37) 0.4338(21)
H11 H -0.0500(55) 0.5156(46) 0.8870(26)
H12 H -0.1813(44) 0.5897(39) 0.9477(25)
H13 H -0.2843(48) 0.4159(46) 0.8491(22)
#END
