
#######################################################################
#
#                 Cambridge Crystallographic Data Centre
#                                CCDC
#
#######################################################################
#
# If this CIF has been generated from an entry in the Cambridge
# Structural Database, then it will include bibliographic, chemical,
# crystal, experimental, refinement or atomic coordinate data resulting
# from the CCDC's data processing and validation procedures.
#
#######################################################################

data_CSD_CIF_GEQTUR
_audit_creation_date 1999-04-16
_audit_creation_method CSD-ConQuest-V1
_database_code_CSD GEQTUR
_database_code_depnum_ccdc_journal 1003/5306
_chemical_formula_sum 'C14 H9 N1 O5'
_chemical_formula_moiety
;
C14 H9 N1 O5
;
_journal_coden_Cambridge 1003
_journal_volume 28
_journal_year 1998
_journal_page_first 203
_journal_name_full 'J.Chem.Cryst. '
loop_
_publ_author_name
"S.B.Martin"
"E.J.Valente"
_chemical_name_systematic
;
4-Nitro-2-benzoylbenzoic acid
;
_chemical_melting_point 436.75
_cell_volume   1270.596
_exptl_crystal_colour 'light yellow'
_exptl_crystal_density_diffrn 1.418
_exptl_crystal_description 'prism'
_exptl_crystal_preparation 'ethyl ethanoate'
_diffrn_ambient_temperature ?
_diffrn_special_details
;
The study was carried out at room temperature,in the range 283-303K

;
#These two values have been output from a single CSD field.
_refine_ls_R_factor_gt 0.0402
_refine_ls_wR_factor_gt 0.0402
_symmetry_cell_setting monoclinic
_symmetry_space_group_name_H-M 'P 21/c'
_symmetry_Int_Tables_number 14
loop_
_symmetry_equiv_pos_site_id
_symmetry_equiv_pos_as_xyz
1 x,y,z
2 x,1/2-y,1/2+z
3 -x,-y,-z
4 -x,-1/2+y,-1/2-z
_cell_length_a 9.455(5)
_cell_length_b 6.622(2)
_cell_length_c 21.333(7)
_cell_angle_alpha 90
_cell_angle_beta 107.96(3)
_cell_angle_gamma 90
_cell_formula_units_Z 4
loop_
_atom_type_symbol
_atom_type_radius_bond
C 0.68
H 0.23
N 0.68
O 0.68
loop_
_atom_site_label
_atom_site_type_symbol
_atom_site_fract_x
_atom_site_fract_y
_atom_site_fract_z
O1 O 1.1564(2) 0.4230(3) 0.06921(9)
H1 H 1.1287(15) 0.5085(20) 0.0402(7)
O2 O 0.9393(2) 0.2774(3) 0.01358(8)
O3 O 0.7644(2) -0.1338(3) 0.04022(11)
O4 O 1.3737(3) -0.4611(3) 0.23715(12)
O5 O 1.1466(2) -0.5335(3) 0.22664(10)
N1 N 1.2419(3) -0.4263(4) 0.21639(12)
C1 C 1.1055(3) 0.0993(4) 0.10230(12)
C2 C 0.9986(2) -0.0350(4) 0.11059(11)
C3 C 1.0445(3) -0.2062(4) 0.14809(12)
H2 H 0.9750(3) -0.2974(4) 0.15405(12)
C4 C 1.1938(3) -0.2408(4) 0.17656(12)
C5 C 1.3010(3) -0.1113(4) 0.16987(13)
H3 H 1.4014(3) -0.1375(4) 0.19012(13)
C6 C 1.2550(3) 0.0599(4) 0.13199(13)
H4 H 1.3256(3) 0.1500(4) 0.12637(13)
C7 C 1.0594(3) 0.2769(4) 0.05815(12)
C8 C 0.8329(3) -0.0068(4) 0.07895(13)
C9 C 0.7573(3) 0.1692(4) 0.09811(14)
C10 C 0.6135(3) 0.2179(5) 0.0597(2)
H5 H 0.5672(3) 0.1414(5) 0.0224(2)
C11 C 0.5393(4) 0.3777(7) 0.0761(2)
H6 H 0.4428(4) 0.4082(7) 0.0505(2)
C12 C 0.6091(5) 0.4922(6) 0.1308(2)
H7 H 0.5597(5) 0.6012(6) 0.1419(2)
C13 C 0.7511(4) 0.4466(5) 0.1690(2)
H8 H 0.7975(4) 0.5247(5) 0.2058(2)
C14 C 0.8252(3) 0.2846(5) 0.15277(14)
H9 H 0.9213(3) 0.2535(5) 0.17885(14)
#END
