
#######################################################################
#
#                 Cambridge Crystallographic Data Centre
#                                CCDC
#
#######################################################################
#
# If this CIF has been generated from an entry in the Cambridge
# Structural Database, then it will include bibliographic, chemical,
# crystal, experimental, refinement or atomic coordinate data resulting
# from the CCDC's data processing and validation procedures.
#
#######################################################################

data_CSD_CIF_GESBIQ
_audit_creation_date 2007-02-15
_audit_creation_method CSD-ConQuest-V1
_database_code_CSD GESBIQ
_database_code_depnum_ccdc_archive 'CCDC 617059 (not 605862 as published)'
_chemical_formula_sum 'C22 H24 N4 O7'
_chemical_formula_moiety
;
C22 H24 N4 O7
;
_journal_coden_Cambridge 179
_journal_volume 45
_journal_year 2006
_journal_page_first 7622
_journal_name_full 'Angew.Chem.,Int.Ed. '
loop_
_publ_author_name
"Xiao-Ti Zhou"
"Liang Lu"
"D.P.Furkert"
"C.E.Wells"
"R.G.Carter"
_chemical_name_systematic
;
5-(benzyloxymethyl)-3-methyl-6,8-dioxabicyclo[3.2.1]octane-7-carbaldehyde 
2,4-dinitrophenylhydrazone
;
_cell_volume   2235.295
_exptl_crystal_colour 'yellow'
_exptl_crystal_density_diffrn 1.356
_exptl_crystal_description 'Needle'
_diffrn_ambient_temperature 293
#These two values have been output from a single CSD field.
_refine_ls_R_factor_gt 0.0477
_refine_ls_wR_factor_gt 0.0477
_symmetry_cell_setting monoclinic
_symmetry_space_group_name_H-M 'C 2'
_symmetry_Int_Tables_number 5
loop_
_symmetry_equiv_pos_site_id
_symmetry_equiv_pos_as_xyz
1 x,y,z
2 -x,y,-z
3 1/2+x,1/2+y,z
4 1/2-x,1/2+y,-z
_cell_length_a 24.757(4)
_cell_length_b 6.6425(10)
_cell_length_c 18.281(3)
_cell_angle_alpha 90
_cell_angle_beta 131.966(2)
_cell_angle_gamma 90
_cell_formula_units_Z 4
loop_
_atom_type_symbol
_atom_type_radius_bond
C 0.68
H 0.23
N 0.68
O 0.68
loop_
_atom_site_label
_atom_site_type_symbol
_atom_site_fract_x
_atom_site_fract_y
_atom_site_fract_z
O1 O 0.96181(9) 0.4996(3) 0.32045(12)
O2 O 0.87759(10) 0.5592(3) 0.15696(13)
O3 O 0.81313(11) 0.1846(3) 0.12509(16)
O4 O 1.26126(12) 1.0227(4) 0.54935(17)
O5 O 1.33202(11) 1.2681(4) 0.63974(16)
O6 O 1.25838(14) 1.8263(4) 0.71083(18)
O7 O 1.15449(15) 1.8296(4) 0.67102(19)
N1 N 1.12838(15) 1.0088(4) 0.48067(18)
N2 N 1.05716(12) 0.9442(4) 0.42038(17)
N3 N 1.27306(15) 1.1823(5) 0.5916(2)
N4 N 1.20020(19) 1.7492(5) 0.6737(2)
C1 C 1.21720(16) 1.2752(5) 0.5853(2)
C2 C 1.23408(18) 1.4574(5) 0.6320(2)
C3 C 1.18316(18) 1.5522(5) 0.6271(2)
C4 C 1.11479(18) 1.4680(6) 0.5761(2)
C5 C 1.09797(18) 1.2889(5) 0.5296(2)
C6 C 1.14793(16) 1.1859(5) 0.5301(2)
C7 C 1.04367(18) 0.7779(5) 0.3777(2)
C8 C 0.96748(17) 0.7077(5) 0.3037(2)
C9 C 0.93442(18) 0.7060(5) 0.1974(2)
C10 C 0.9841(2) 0.6348(7) 0.1819(3)
C11 C 1.0169(2) 0.4281(6) 0.2277(3)
C12 C 0.9607(2) 0.2891(6) 0.2115(3)
C13 C 0.91493(16) 0.4011(4) 0.2258(2)
C14 C 0.8610(2) 0.2778(6) 0.2184(3)
C15 C 0.7508(2) 0.0964(7) 0.1013(3)
C16 C 0.70138(17) 0.2495(6) 0.0927(2)
C17 C 0.6942(2) 0.4440(7) 0.0600(3)
C18 C 0.6489(3) 0.5770(8) 0.0518(3)
C19 C 0.6081(3) 0.5210(11) 0.0738(3)
C20 C 0.6126(3) 0.3315(12) 0.1047(4)
C21 C 0.6603(3) 0.1944(9) 0.1158(3)
C22 C 1.0490(4) 0.3307(12) 0.1864(6)
H1 H 1.1642(16) 0.956(5) 0.486(2)
H2 H 1.2859(13) 1.517(4) 0.6736(17)
H3 H 1.0824(12) 1.538(4) 0.5761(16)
H4 H 1.0522(13) 1.230(4) 0.4928(17)
H5 H 1.0776(13) 0.701(4) 0.3899(17)
H6 H 0.9392(14) 0.789(4) 0.3150(18)
H7 H 0.9094(14) 0.844(4) 0.1621(19)
H8 H 0.9584(16) 0.624(5) 0.114(3)
H9 H 1.0241(15) 0.745(4) 0.2060(19)
H10 H 1.0577(14) 0.457(4) 0.3005(19)
H11 H 0.9834(13) 0.169(4) 0.2576(19)
H12 H 0.9279(16) 0.242(5) 0.146(2)
H13 H 0.8857(13) 0.185(4) 0.2697(18)
H14 H 0.8351(13) 0.377(4) 0.2317(17)
H15 H 0.7679(17) 0.005(5) 0.156(2)
H16 H 0.7248(17) 0.022(5) 0.034(2)
H17 H 0.7282(16) 0.489(6) 0.047(2)
H18 H 0.642(2) 0.723(6) 0.031(3)
H19 H 0.574(2) 0.619(7) 0.061(3)
H20 H 0.585(2) 0.283(6) 0.119(3)
H21 H 0.664(2) 0.071(6) 0.136(3)
H22 H 1.069(2) 0.216(6) 0.228(3)
H23 H 1.0925(19) 0.420(5) 0.214(2)
H24 H 1.012(2) 0.345(8) 0.116(3)
#END
