
#######################################################################
#
#                 Cambridge Crystallographic Data Centre
#                                CCDC
#
#######################################################################
#
# If this CIF has been generated from an entry in the Cambridge
# Structural Database, then it will include bibliographic, chemical,
# crystal, experimental, refinement or atomic coordinate data resulting
# from the CCDC's data processing and validation procedures.
#
#######################################################################

data_CSD_CIF_GESFAO
_audit_creation_date 2017-11-30
_audit_creation_method CSD-ConQuest-V1
_database_code_CSD GESFAO
_database_code_depnum_ccdc_archive 'CCDC 972850'
_chemical_formula_sum 'C14 H11 N3 O3'
_chemical_formula_moiety
;
C14 H11 N3 O3
;
_journal_coden_Cambridge 908
_journal_volume 13
_journal_year 2016
_journal_page_first 1395
_journal_name_full 'J.Iran.Chem.Soc. '
loop_
_publ_author_name
"H.R.Memarian"
"S.Ebrahimi"
"H.A.Rudbari"
"H.Sabzyan"
"V.M.Nardo"
_chemical_name_systematic
;
2-(2-nitrophenyl)-2,3-dihydroquinazolin-4(1H)-one
;
_cell_volume   2519.430
_exptl_crystal_colour 'colorless'
_exptl_crystal_density_diffrn 1.42
_exptl_crystal_description 'irregular'
_diffrn_ambient_temperature 298
#These two values have been output from a single CSD field.
_refine_ls_R_factor_gt 0.034
_refine_ls_wR_factor_gt 0.034
_symmetry_cell_setting monoclinic
_symmetry_space_group_name_H-M 'C 2/c'
_symmetry_Int_Tables_number 15
loop_
_symmetry_equiv_pos_site_id
_symmetry_equiv_pos_as_xyz
1 x,y,z
2 -x,y,1/2-z
3 1/2+x,1/2+y,z
4 1/2-x,1/2+y,1/2-z
5 -x,-y,-z
6 x,-y,-1/2+z
7 -1/2-x,-1/2-y,-z
8 -1/2+x,-1/2-y,-1/2+z
_cell_length_a 19.9791(4)
_cell_length_b 10.7965(2)
_cell_length_c 12.4154(2)
_cell_angle_alpha 90
_cell_angle_beta 109.819(1)
_cell_angle_gamma 90
_cell_formula_units_Z 8
loop_
_atom_type_symbol
_atom_type_radius_bond
C 0.68
H 0.23
N 0.68
O 0.68
loop_
_atom_site_label
_atom_site_type_symbol
_atom_site_fract_x
_atom_site_fract_y
_atom_site_fract_z
O1 O 0.44830(6) 0.46255(11) 0.11801(10)
O2 O 0.55082(6) 0.52455(10) 0.11897(9)
O3 O 0.81719(5) 0.2190(1) 0.43497(8)
N1 N 0.71846(6) 0.33457(11) 0.35898(9)
N2 N 0.50995(6) 0.44259(12) 0.12539(9)
N3 N 0.69538(6) 0.44173(12) 0.18510(11)
C1 C 0.87104(10) 0.27685(17) 0.13714(17)
H1 H 0.91020 0.23970 0.12600
C2 C 0.85396(8) 0.24989(14) 0.23261(15)
H2 H 0.88230 0.19540 0.28720
C3 C 0.79454(7) 0.30328(12) 0.24868(11)
C4 C 0.77823(7) 0.28073(12) 0.35383(11)
C5 C 0.66266(7) 0.38581(12) 0.26107(11)
H3 H 0.63900 0.45170 0.28900
C6 C 0.60643(7) 0.28708(12) 0.20296(10)
C7 C 0.53545(7) 0.31467(12) 0.14132(10)
C8 C 0.48440(8) 0.22506(15) 0.09488(12)
H4 H 0.43760 0.24740 0.05470
C9 C 0.50391(8) 0.10241(15) 0.10896(14)
H5 H 0.47030 0.04080 0.07820
C10 C 0.57321(9) 0.07121(14) 0.16861(14)
H6 H 0.58650 -0.01170 0.17770
C11 C 0.62333(7) 0.16190(13) 0.21516(12)
H7 H 0.66980 0.13850 0.25600
C12 C 0.82957(10) 0.35963(17) 0.05770(15)
H8 H 0.84160 0.37900 -0.00640
C13 C 0.77115(9) 0.41367(15) 0.07145(13)
H9 H 0.74390 0.46930 0.01690
C14 C 0.75216(7) 0.38574(12) 0.16704(11)
H10 H 0.7058(8) 0.3177(14) 0.4212(14)
H11 H 0.6678(10) 0.4910(16) 0.1333(16)
#END
