
#######################################################################
#
#                 Cambridge Crystallographic Data Centre
#                                CCDC
#
#######################################################################
#
# If this CIF has been generated from an entry in the Cambridge
# Structural Database, then it will include bibliographic, chemical,
# crystal, experimental, refinement or atomic coordinate data resulting
# from the CCDC's data processing and validation procedures.
#
#######################################################################

data_CSD_CIF_GESJUJ
_audit_creation_date 1989-05-22
_audit_creation_method CSD-ConQuest-V1
_database_code_CSD GESJUJ
_database_code_depnum_ccdc_archive 'CCDC 1166380'
_chemical_formula_sum 'C15 H19 N1 O4'
_chemical_formula_moiety
;
C15 H19 N1 O4
;
_journal_coden_Cambridge 10
_journal_volume 70
_journal_year 1987
_journal_page_first 2166
_journal_name_full 'Helv.Chim.Acta '
loop_
_publ_author_name
"E.Benkert"
"M.Hesse"
_chemical_name_systematic
;
t-4-Methyl-t-7-nitro-3-oxatricyclo(9.4.0.0^2,7^)pentadeca-1(11),12,14-trien-r-
2-ol
;
_chemical_melting_point 98
_cell_volume   1360.720
_exptl_crystal_colour 'colorless'
_exptl_crystal_density_diffrn 1.35
_exptl_special_details
;
Melting point range 98-101K
Paper gives mp 98-101deg.C(dec.)., suppl. value recorded
;
_diffrn_ambient_temperature 146
#These two values have been output from a single CSD field.
_refine_ls_R_factor_gt 0.056
_refine_ls_wR_factor_gt 0.056
_symmetry_cell_setting monoclinic
_symmetry_space_group_name_H-M 'P 21/c'
_symmetry_Int_Tables_number 14
loop_
_symmetry_equiv_pos_site_id
_symmetry_equiv_pos_as_xyz
1 x,y,z
2 -x,1/2+y,1/2-z
3 -x,-y,-z
4 x,-1/2-y,-1/2+z
_cell_length_a 7.0570(5)
_cell_length_b 13.817(1)
_cell_length_c 15.422(1)
_cell_angle_alpha 90
_cell_angle_beta 115.192(6)
_cell_angle_gamma 90
_cell_formula_units_Z 4
loop_
_atom_type_symbol
_atom_type_radius_bond
C 0.68
H 0.23
N 0.68
O 0.68
loop_
_atom_site_label
_atom_site_type_symbol
_atom_site_fract_x
_atom_site_fract_y
_atom_site_fract_z
C1 C 0.5857(1) 0.3524(1) 0.1045(1)
C2 C 0.6338(1) 0.4569(1) 0.1415(1)
O1 O 0.7568(1) 0.5050(1) 0.1024(1)
O2 O 0.4358(1) 0.5032(1) 0.1104(1)
C3 C 0.4313(1) 0.6038(1) 0.1372(1)
C4 C 0.2021(1) 0.6306(1) 0.0976(1)
C5 C 0.5428(1) 0.6144(1) 0.2452(1)
C6 C 0.7638(1) 0.5748(1) 0.2815(1)
C7 C 0.7695(1) 0.4689(1) 0.2522(1)
N1 N 0.6749(1) 0.4101(1) 0.3085(1)
O3 O 0.5009(1) 0.3754(1) 0.2678(1)
O4 O 0.7813(1) 0.4026(1) 0.3948(1)
C8 C 0.9997(1) 0.4379(1) 0.2878(1)
C9 C 1.0439(1) 0.3340(1) 0.2684(1)
C10 C 0.9766(1) 0.3133(1) 0.1618(1)
C11 C 0.7463(1) 0.2892(1) 0.1095(1)
C12 C 0.6906(1) 0.1975(1) 0.0672(1)
C13 C 0.4839(1) 0.1672(1) 0.0226(1)
C14 C 0.3262(1) 0.2287(1) 0.0204(1)
C15 C 0.3777(1) 0.3205(1) 0.0609(1)
H1 H 0.6965(21) 0.5006(8) 0.0393(10)
H2 H 0.4997(18) 0.6419(8) 0.1063(8)
H3 H 0.1251(21) 0.5923(10) 0.1252(10)
H4 H 0.1303(20) 0.6172(10) 0.0295(10)
H5 H 0.1889(22) 0.7011(10) 0.1057(10)
H6 H 0.4652(18) 0.5817(8) 0.2787(9)
H7 H 0.5457(21) 0.6842(10) 0.2652(10)
H8 H 0.8403(20) 0.5781(9) 0.3530(9)
H9 H 0.8468(18) 0.6124(9) 0.2546(9)
H10 H 1.0668(19) 0.4512(10) 0.3567(9)
H11 H 1.0566(18) 0.4818(8) 0.2568(9)
H12 H 0.9771(18) 0.2858(8) 0.2966(8)
H13 H 1.1953(19) 0.3217(9) 0.3026(9)
H14 H 1.0138(19) 0.3718(9) 0.1335(9)
H15 H 1.0566(18) 0.2572(8) 0.1523(8)
H16 H 0.807(2) 0.1563(9) 0.0692(9)
H17 H 0.4494(21) 0.1069(11) -0.009(1)
H18 H 0.1796(20) 0.209(1) -0.0095(9)
H19 H 0.2668(17) 0.3629(8) 0.0590(8)
#END
