
#######################################################################
#
#                 Cambridge Crystallographic Data Centre
#                                CCDC
#
#######################################################################
#
# If this CIF has been generated from an entry in the Cambridge
# Structural Database, then it will include bibliographic, chemical,
# crystal, experimental, refinement or atomic coordinate data resulting
# from the CCDC's data processing and validation procedures.
#
#######################################################################

data_CSD_CIF_GETNID
_audit_creation_date 2007-02-15
_audit_creation_method CSD-ConQuest-V1
_database_code_CSD GETNID
_chemical_formula_sum 'C8 H9 N5 O4'
_chemical_formula_moiety
;
C8 H9 N5 O4
;
_journal_coden_Cambridge 533
_journal_volume 40
_journal_year 2006
_journal_page_first 49-7
_journal_name_full 'Khim.-Farm.Zh.(Russ.)(Chem.Pharm.J.) '
loop_
_publ_author_name
"Yu.A.Azev"
"D.Gabel"
"E.Lork"
"P.Brakman"
"P.A.Gorchakov"
_chemical_name_systematic
;
2,6,8-Trimethylpyrimido(5,4-e)(1,2,4)triazine-3,5,7-trione-4-oxide
;
_chemical_name_common
;
2-Methylfervenulin-3-one-4-oxide
;
_cell_volume   1987.404
_exptl_crystal_density_diffrn 1.599
_diffrn_ambient_temperature 173
#These two values have been output from a single CSD field.
_refine_ls_R_factor_gt 0.0625
_refine_ls_wR_factor_gt 0.0625
_symmetry_cell_setting orthorhombic
_symmetry_space_group_name_H-M 'P b c a'
_symmetry_Int_Tables_number 61
loop_
_symmetry_equiv_pos_site_id
_symmetry_equiv_pos_as_xyz
1 x,y,z
2 1/2-x,-y,1/2+z
3 1/2+x,1/2-y,-z
4 -x,1/2+y,1/2-z
5 -x,-y,-z
6 -1/2+x,y,-1/2-z
7 -1/2-x,-1/2+y,z
8 x,-1/2-y,-1/2+z
_cell_length_a 12.915(2)
_cell_length_b 9.157(1)
_cell_length_c 16.805(2)
_cell_angle_alpha 90
_cell_angle_beta 90
_cell_angle_gamma 90
_cell_formula_units_Z 8
loop_
_atom_type_symbol
_atom_type_radius_bond
C 0.68
N 0.68
O 0.68
loop_
_atom_site_label
_atom_site_type_symbol
_atom_site_fract_x
_atom_site_fract_y
_atom_site_fract_z
N1 N 0.2861(2) 0.4190(3) 0.3921(2)
C1 C 0.5080(3) 0.2149(5) 0.0765(2)
C2 C 0.2616(3) 0.4508(5) 0.4757(2)
C3 C 0.3717(3) 0.3174(4) 0.1594(2)
N2 N 0.3808(2) 0.3559(3) 0.3805(2)
O1 O 0.3184(2) 0.3343(3) 0.1009(2)
C4 C 0.4035(3) 0.3268(3) 0.3076(2)
C5 C 0.3409(3) 0.3594(3) 0.2404(2)
N3 N 0.4995(2) 0.2612(3) 0.2936(2)
N4 N 0.2524(2) 0.4333(3) 0.2534(2)
C6 C 0.5633(3) 0.2214(4) 0.3629(2)
O2 O 0.1938(2) 0.4829(3) 0.2010(2)
C7 C 0.5354(3) 0.2284(4) 0.2194(2)
C8 C 0.2180(3) 0.4605(4) 0.3355(2)
O3 O 0.6202(2) 0.1750(3) 0.2075(2)
O4 O 0.1341(2) 0.5161(3) 0.3468(2)
N5 N 0.4695(2) 0.2564(3) 0.1552(2)
#END
