
#######################################################################
#
#                 Cambridge Crystallographic Data Centre
#                                CCDC
#
#######################################################################
#
# If this CIF has been generated from an entry in the Cambridge
# Structural Database, then it will include bibliographic, chemical,
# crystal, experimental, refinement or atomic coordinate data resulting
# from the CCDC's data processing and validation procedures.
#
#######################################################################

data_CSD_CIF_GEVKOI
_audit_creation_date 2007-02-15
_audit_creation_method CSD-ConQuest-V1
_database_code_CSD GEVKOI
_database_code_depnum_ccdc_archive 'CCDC 633982'
_chemical_formula_sum 'C10 H8 N2 O1'
_chemical_formula_moiety
;
C10 H8 N2 O1
;
_journal_coeditor_code "IUCr OM2079"
_journal_coden_Cambridge 1370
_journal_volume 63
_journal_year 2007
_journal_page_first o329
_journal_name_full 'Acta Crystallogr.,Sect.E:Struct.Rep.Online '
loop_
_publ_author_name
"Fu-Hui Zhou"
"Hong-Bin Zhao"
"Xiao-Dan Gu"
"Zhi-Gang Li"
"Jing-Wei Xu"
_chemical_name_systematic
;
(E)-Quinoline-4-carbaldehyde oxime
;
_cell_volume    858.875
_exptl_crystal_colour 'colorless'
_exptl_crystal_density_diffrn 1.332
_exptl_crystal_description 'prism'
_exptl_crystal_preparation 'methanol'
_diffrn_ambient_temperature 293
#These two values have been output from a single CSD field.
_refine_ls_R_factor_gt 0.0469
_refine_ls_wR_factor_gt 0.0469
_symmetry_cell_setting monoclinic
_symmetry_space_group_name_H-M 'P 21/c'
_symmetry_Int_Tables_number 14
loop_
_symmetry_equiv_pos_site_id
_symmetry_equiv_pos_as_xyz
1 x,y,z
2 -x,1/2+y,1/2-z
3 -x,-y,-z
4 x,-1/2-y,-1/2+z
_cell_length_a 8.161(2)
_cell_length_b 15.746(4)
_cell_length_c 7.1509(18)
_cell_angle_alpha 90
_cell_angle_beta 110.826(4)
_cell_angle_gamma 90
_cell_formula_units_Z 4
loop_
_atom_type_symbol
_atom_type_radius_bond
C 0.68
H 0.23
N 0.68
O 0.68
loop_
_atom_site_label
_atom_site_type_symbol
_atom_site_fract_x
_atom_site_fract_y
_atom_site_fract_z
N1 N 0.54839(15) 0.28890(7) 0.17710(18)
N2 N 0.33039(16) -0.00720(7) 0.1929(2)
O1 O 0.22115(14) -0.07671(6) 0.1716(2)
H1 H 0.28040 -0.11910 0.21640
C1 C 0.26701(17) 0.22135(8) 0.13337(18)
C2 C 0.37347(18) 0.29438(8) 0.14897(19)
C3 C 0.34699(17) 0.14002(8) 0.14489(19)
C4 C 0.52148(18) 0.13711(9) 0.1682(2)
H2 H 0.57680 0.08510 0.17330
C5 C 0.61525(18) 0.21239(9) 0.1841(2)
H3 H 0.73330 0.20830 0.20090
C6 C 0.24744(19) 0.06138(9) 0.1333(2)
H4 H 0.12550 0.06190 0.08310
C7 C 0.08872(18) 0.23349(9) 0.1088(2)
H5 H 0.01670 0.18650 0.09770
C8 C 0.02109(19) 0.31323(10) 0.1013(2)
H6 H -0.09590 0.32010 0.08720
C9 C 0.1267(2) 0.38488(10) 0.1147(2)
H7 H 0.07890 0.43890 0.10850
C10 C 0.2987(2) 0.37606(9) 0.1369(2)
H8 H 0.36720 0.42400 0.14410
#END
