
#######################################################################
#
#                 Cambridge Crystallographic Data Centre
#                                CCDC
#
#######################################################################
#
# If this CIF has been generated from an entry in the Cambridge
# Structural Database, then it will include bibliographic, chemical,
# crystal, experimental, refinement or atomic coordinate data resulting
# from the CCDC's data processing and validation procedures.
#
#######################################################################

data_CSD_CIF_GEVKAU
_audit_creation_date 2007-02-15
_audit_creation_method CSD-ConQuest-V1
_database_code_CSD GEVKAU
_database_code_depnum_ccdc_archive 'CCDC 633978'
_chemical_formula_sum 'C19 H19 N1 O5'
_chemical_formula_moiety
;
C19 H19 N1 O5
;
_journal_coeditor_code "IUCr OM2068"
_journal_coden_Cambridge 1370
_journal_volume 63
_journal_year 2007
_journal_page_first o398
_journal_name_full 'Acta Crystallogr.,Sect.E:Struct.Rep.Online '
loop_
_publ_author_name
"Yao Pei-Yuan"
"Wang Jian-Gong"
_chemical_name_systematic
;
(Z)-6-Methoxy-4-(2-methoxyimino-2-phenylethoxy)-7-methylisobenzofuran-3(1H)-on
e
;
_cell_volume   1736.248
_exptl_crystal_colour 'colorless'
_exptl_crystal_density_diffrn 1.306
_exptl_crystal_description 'block'
_exptl_crystal_preparation 'chloroform/heptane'
_diffrn_ambient_temperature 294
#These two values have been output from a single CSD field.
_refine_ls_R_factor_gt 0.0452
_refine_ls_wR_factor_gt 0.0452
_symmetry_cell_setting monoclinic
_symmetry_space_group_name_H-M 'P 21/c'
_symmetry_Int_Tables_number 14
loop_
_symmetry_equiv_pos_site_id
_symmetry_equiv_pos_as_xyz
1 x,y,z
2 -x,1/2+y,1/2-z
3 -x,-y,-z
4 x,-1/2-y,-1/2+z
_cell_length_a 9.3964(2)
_cell_length_b 19.445(4)
_cell_length_c 9.8521(2)
_cell_angle_alpha 90
_cell_angle_beta 105.307(3)
_cell_angle_gamma 90
_cell_formula_units_Z 4
loop_
_atom_type_symbol
_atom_type_radius_bond
C 0.68
H 0.23
N 0.68
O 0.68
loop_
_atom_site_label
_atom_site_type_symbol
_atom_site_fract_x
_atom_site_fract_y
_atom_site_fract_z
O1 O 0.4365(2) 0.62799(9) 0.8464(2)
O2 O 0.2949(2) 0.59862(9) 0.6357(2)
O3 O 0.09117(16) 0.48348(7) 0.67613(15)
O4 O -0.12195(19) 0.32628(9) 0.7659(2)
O5 O 0.17559(18) 0.43250(9) 1.17123(16)
N1 N 0.0025(2) 0.30814(11) 0.7234(2)
C1 C 0.3947(3) 0.53375(15) 1.2516(3)
H1 H 0.48700 0.55590 1.25510
H2 H 0.41290 0.49130 1.30320
H3 H 0.33570 0.56330 1.29280
C2 C 0.3139(2) 0.51916(11) 1.1004(3)
C3 C 0.3427(2) 0.55431(11) 0.9892(3)
C4 C 0.4536(3) 0.61048(12) 0.9908(3)
H4 H 0.43410 0.65000 1.04310
H5 H 0.55300 0.59430 1.03360
C5 C 0.3270(3) 0.58944(12) 0.7594(4)
C6 C 0.2704(2) 0.54224(10) 0.8498(2)
C7 C 0.1605(2) 0.49198(10) 0.8147(2)
C8 C 0.1292(2) 0.45491(10) 0.9229(2)
H6 H 0.05720 0.42090 0.90250
C9 C 0.2047(2) 0.46810(11) 1.0628(2)
C10 C 0.0816(3) 0.37364(13) 1.1389(3)
H7 H -0.01400 0.38740 1.08290
H8 H 0.07220 0.35300 1.22470
H9 H 0.12350 0.34090 1.08760
C11 C -0.0159(2) 0.42917(11) 0.6393(2)
H10 H -0.06760 0.43300 0.54040
H11 H -0.08780 0.43420 0.69340
C12 C 0.0543(2) 0.35916(11) 0.6667(2)
C13 C 0.1922(3) 0.34371(10) 0.6274(2)
C14 C 0.2294(3) 0.37777(12) 0.5185(2)
H12 H 0.16830 0.41240 0.47020
C15 C 0.3567(3) 0.36079(15) 0.4808(3)
H13 H 0.38010 0.38360 0.40660
C16 C 0.4485(3) 0.31041(16) 0.5523(3)
H14 H 0.53400 0.29890 0.52670
C17 C 0.4133(3) 0.27688(13) 0.6625(3)
H15 H 0.47580 0.24290 0.71150
C18 C 0.2875(3) 0.29311(11) 0.7002(3)
H16 H 0.26530 0.27030 0.77490
C19 C -0.1645(4) 0.26556(17) 0.8323(4)
H17 H -0.19270 0.22960 0.76380
H18 H -0.24610 0.27660 0.86980
H19 H -0.08260 0.25050 0.90700
#END
