
#######################################################################
#
#                 Cambridge Crystallographic Data Centre
#                                CCDC
#
#######################################################################
#
# If this CIF has been generated from an entry in the Cambridge
# Structural Database, then it will include bibliographic, chemical,
# crystal, experimental, refinement or atomic coordinate data resulting
# from the CCDC's data processing and validation procedures.
#
#######################################################################

data_CSD_CIF_GEXKUP
_audit_creation_date 1989-05-23
_audit_creation_method CSD-ConQuest-V1
_database_code_CSD GEXKUP
_chemical_formula_sum 'C13 H11 N3 O2'
_chemical_formula_moiety
;
C13 H11 N3 O2
;
_journal_coeditor_code "IUCr MN0647"
_journal_coden_Cambridge 591
_journal_volume 44
_journal_year 1988
_journal_page_first 1031
_journal_name_full 'Acta Crystallogr.,Sect.C:Cryst.Struct.Commun. '
loop_
_publ_author_name
"K.Surma"
"M.Jaskolski"
"Z.Kosturkiewicz"
"J.Oszczapowicz"
_chemical_name_systematic
;
N^2^-p-Nitrophenylbenzamidine
;
_cell_volume   2350.607
_exptl_crystal_colour 'yellow'
_exptl_crystal_density_diffrn 1.362
_diffrn_ambient_temperature ?
_diffrn_special_details
;
The study was carried out at room temperature,in the range 283-303K

;
#These two values have been output from a single CSD field.
_refine_ls_R_factor_gt 0.046
_refine_ls_wR_factor_gt 0.046
_symmetry_cell_setting monoclinic
_symmetry_space_group_name_H-M 'C 2/c'
_symmetry_Int_Tables_number 15
loop_
_symmetry_equiv_pos_site_id
_symmetry_equiv_pos_as_xyz
1 x,y,z
2 1/2+x,1/2+y,z
3 -x,y,1/2-z
4 1/2-x,1/2+y,1/2-z
5 -x,-y,-z
6 -1/2-x,-1/2-y,-z
7 x,-y,-1/2+z
8 -1/2+x,-1/2-y,-1/2+z
_cell_length_a 20.885(3)
_cell_length_b 5.7616(6)
_cell_length_c 19.603(2)
_cell_angle_alpha 90
_cell_angle_beta 94.791(8)
_cell_angle_gamma 90
_cell_formula_units_Z 8
loop_
_atom_type_symbol
_atom_type_radius_bond
C 0.68
H 0.23
N 0.68
O 0.68
loop_
_atom_site_label
_atom_site_type_symbol
_atom_site_fract_x
_atom_site_fract_y
_atom_site_fract_z
C1 C 0.2315(1) 0.0906(6) 0.1243(2)
C2 C 0.1699(1) -0.0476(6) 0.0283(2)
C3 C 0.1297(2) -0.2392(7) 0.0335(2)
C4 C 0.0741(2) -0.2620(7) -0.0089(2)
C5 C 0.0584(1) -0.0918(6) -0.0559(2)
C6 C 0.0975(2) 0.0994(7) -0.0635(2)
C7 C 0.1533(2) 0.1196(7) -0.0204(2)
C8 C 0.2930(1) 0.0858(6) 0.1691(2)
C9 C 0.3339(2) -0.1027(7) 0.1650(2)
C10 C 0.3908(2) -0.1140(8) 0.2070(2)
C11 C 0.4076(2) 0.0616(8) 0.2519(2)
C12 C 0.3675(2) 0.2500(8) 0.2562(2)
C13 C 0.3105(2) 0.2609(7) 0.2147(2)
N1 N 0.1846(2) 0.2303(7) 0.1449(2)
N2 N 0.2276(1) -0.0361(6) 0.0705(1)
N3 N -0.0009(1) -0.1152(7) -0.1007(2)
O1 O -0.0125(1) 0.0268(7) -0.1459(2)
O2 O -0.0370(1) -0.2772(6) -0.0911(1)
H1 H 0.141(2) -0.355(6) 0.070(2)
H2 H 0.046(2) -0.397(6) -0.005(2)
H3 H 0.084(1) 0.217(6) -0.099(2)
H4 H 0.177(2) 0.265(6) -0.021(2)
H5 H 0.323(1) -0.228(5) 0.134(2)
H6 H 0.417(1) -0.257(6) 0.209(2)
H7 H 0.450(2) 0.044(6) 0.278(2)
H8 H 0.378(2) 0.374(6) 0.291(2)
H9 H 0.286(2) 0.392(6) 0.214(2)
H10 H 0.187(3) 0.296(9) 0.181(3)
H11 H 0.152(2) 0.223(7) 0.118(2)
#END
