
#######################################################################
#
#                 Cambridge Crystallographic Data Centre
#                                CCDC
#
#######################################################################
#
# If this CIF has been generated from an entry in the Cambridge
# Structural Database, then it will include bibliographic, chemical,
# crystal, experimental, refinement or atomic coordinate data resulting
# from the CCDC's data processing and validation procedures.
#
#######################################################################

data_CSD_CIF_GEXQOS
_audit_creation_date 2018-04-21
_audit_creation_method CSD-ConQuest-V1
_database_code_CSD GEXQOS
_database_code_depnum_ccdc_archive 'CCDC 1832168'
_chemical_formula_sum 'C12 H12 N2 O3'
_chemical_formula_moiety
;
C12 H12 N2 O3
;
_journal_coden_Cambridge 1336
_journal_volume 20
_journal_year 2018
_journal_page_first 2770
_journal_name_full 'Org.Lett. '
loop_
_publ_author_name
"Faiyaz Khan"
"M.Dlugosch"
"Xin Liu"
"M.Khan"
"M.G.Banwell"
"J.S.Ward"
"P.D.Carr"
_chemical_name_systematic
;
2-[(2-nitropyridin-3-yl)methylidene]cyclohexan-1-one
;
_cell_volume   2189.655
_exptl_crystal_colour 'colorless'
_exptl_crystal_density_diffrn 1.409
_exptl_crystal_description 'plate'
_diffrn_ambient_temperature 150
#These two values have been output from a single CSD field.
_refine_ls_R_factor_gt 0.0349
_refine_ls_wR_factor_gt 0.0349
_symmetry_cell_setting monoclinic
_symmetry_space_group_name_H-M 'C 2/c'
_symmetry_Int_Tables_number 15
loop_
_symmetry_equiv_pos_site_id
_symmetry_equiv_pos_as_xyz
1 x,y,z
2 -x,y,1/2-z
3 1/2+x,1/2+y,z
4 1/2-x,1/2+y,1/2-z
5 -x,-y,-z
6 x,-y,-1/2+z
7 -1/2-x,-1/2-y,-z
8 -1/2+x,-1/2-y,-1/2+z
_cell_length_a 7.87923(6)
_cell_length_b 19.95864(19)
_cell_length_c 13.93593(11)
_cell_angle_alpha 90
_cell_angle_beta 92.3804(7)
_cell_angle_gamma 90
_cell_formula_units_Z 8
loop_
_atom_type_symbol
_atom_type_radius_bond
C 0.68
H 0.23
N 0.68
O 0.68
loop_
_atom_site_label
_atom_site_type_symbol
_atom_site_fract_x
_atom_site_fract_y
_atom_site_fract_z
C1 C 0.63073(18) 0.53734(6) 0.61918(10)
H1 H 0.58040 0.57420 0.65620
H2 H 0.61640 0.54900 0.55030
C2 C 0.82042(18) 0.53421(6) 0.64554(10)
H3 H 0.87830 0.57270 0.61630
H4 H 0.83810 0.53740 0.71610
C3 C 0.89728(17) 0.46936(7) 0.61051(10)
H5 H 1.02100 0.46920 0.62600
H6 H 0.87980 0.46600 0.53990
C4 C 0.81465(14) 0.40939(6) 0.65824(8)
H7 H 0.86450 0.36750 0.63390
H8 H 0.83890 0.41140 0.72850
C5 C 0.62481(14) 0.40841(6) 0.63842(7)
C6 C 0.53172(15) 0.47419(6) 0.63680(8)
C7 C 0.53099(14) 0.35377(6) 0.61775(7)
H9 H 0.41470 0.36040 0.59960
C8 C 0.59399(13) 0.28426(5) 0.62100(7)
O1 O 0.37862(11) 0.47690(4) 0.64615(6)
C9 C 0.69459(14) 0.26126(6) 0.69964(8)
H10 H 0.72870 0.29160 0.74930
C10 C 0.74470(15) 0.19511(6) 0.70592(9)
H11 H 0.81240 0.17980 0.75950
C11 C 0.69467(15) 0.15121(6) 0.63268(9)
H12 H 0.73090 0.10590 0.63660
N1 N 0.59734(13) 0.17065(5) 0.55698(7)
C12 C 0.55177(13) 0.23422(5) 0.55370(7)
N2 N 0.44632(12) 0.25088(5) 0.46563(7)
O2 O 0.44672(13) 0.30890(5) 0.43750(6)
O3 O 0.36618(12) 0.20584(5) 0.42556(7)
#END
