
#######################################################################
#
#                 Cambridge Crystallographic Data Centre
#                                CCDC
#
#######################################################################
#
# If this CIF has been generated from an entry in the Cambridge
# Structural Database, then it will include bibliographic, chemical,
# crystal, experimental, refinement or atomic coordinate data resulting
# from the CCDC's data processing and validation procedures.
#
#######################################################################

data_CSD_CIF_GEXQOR
_audit_creation_date 2013-05-23
_audit_creation_method CSD-ConQuest-V1
_database_code_CSD GEXQOR
_database_code_depnum_ccdc_archive 'CCDC 881881'
_chemical_formula_sum 'C16 H12 N2 O2'
_chemical_formula_moiety
;
C16 H12 N2 O2
;
_journal_coden_Cambridge 1200
_journal_volume 21
_journal_year 2013
_journal_page_first 523
_journal_name_full 'Bioorg.Med.Chem. '
loop_
_publ_author_name
"Chih-Hua Tseng"
"Chih-Mei Cheng"
"Cherng-Chyi Tzeng"
"Shin-I Peng"
"Chiao-Li Yang"
"Yeh-Long Chen"
_chemical_name_systematic
;
(Z)-1-(Hydroxyimino)-4-(phenylamino)naphthalen-2(1H)-one
;
_cell_volume   1270.617
_exptl_crystal_colour 'pale orange'
_exptl_crystal_density_diffrn 1.382
_exptl_crystal_description 'tabular'
_diffrn_ambient_temperature 296
#These two values have been output from a single CSD field.
_refine_ls_R_factor_gt 0.0425
_refine_ls_wR_factor_gt 0.0425
_symmetry_cell_setting monoclinic
_symmetry_space_group_name_H-M 'P 21/c'
_symmetry_Int_Tables_number 14
loop_
_symmetry_equiv_pos_site_id
_symmetry_equiv_pos_as_xyz
1 x,y,z
2 -x,1/2+y,1/2-z
3 -x,-y,-z
4 x,-1/2-y,-1/2+z
_cell_length_a 4.5317(3)
_cell_length_b 23.1087(12)
_cell_length_c 12.3031(7)
_cell_angle_alpha 90
_cell_angle_beta 99.531(4)
_cell_angle_gamma 90
_cell_formula_units_Z 4
loop_
_atom_type_symbol
_atom_type_radius_bond
C 0.68
H 0.23
N 0.68
O 0.68
loop_
_atom_site_label
_atom_site_type_symbol
_atom_site_fract_x
_atom_site_fract_y
_atom_site_fract_z
C1 C 0.4724(3) 0.26463(6) 0.58729(11)
C2 C 0.6923(3) 0.26272(6) 0.67912(12)
H1 H 0.75610 0.22680 0.70820
C3 C 0.8232(3) 0.31263(6) 0.73026(12)
C4 C 0.7185(3) 0.36973(6) 0.68382(12)
C5 C 0.4733(3) 0.37193(6) 0.59001(12)
C6 C 0.3591(4) 0.42486(7) 0.54624(14)
H2 H 0.43900 0.45930 0.57750
C7 C 0.1314(4) 0.42659(7) 0.45794(14)
H3 H 0.06060 0.46200 0.42880
C8 C 0.0064(4) 0.37575(8) 0.41197(14)
H4 H -0.15040 0.37710 0.35280
C9 C 0.1136(4) 0.32332(7) 0.45370(13)
H5 H 0.02780 0.28930 0.42270
C10 C 0.3499(3) 0.32039(6) 0.54210(12)
C11 C 0.4502(3) 0.15870(6) 0.56861(12)
C12 C 0.6159(4) 0.12688(7) 0.50637(15)
H6 H 0.67610 0.14300 0.44440
C13 C 0.6924(5) 0.07044(8) 0.5369(2)
H7 H 0.80540 0.04860 0.49530
C14 C 0.6024(5) 0.04660(7) 0.62809(18)
H8 H 0.65550 0.00880 0.64860
C15 C 0.4353(5) 0.07838(8) 0.68870(16)
H9 H 0.37200 0.06190 0.74990
C16 C 0.3589(4) 0.13507(7) 0.65969(14)
H10 H 0.24680 0.15690 0.70160
N1 N 0.3643(3) 0.21634(5) 0.53448(10)
H11 H 0.23360 0.22030 0.47570
N2 N 0.8326(3) 0.41910(6) 0.71929(12)
O1 O 1.0312(3) 0.31125(5) 0.81315(9)
O2 O 1.0633(3) 0.41882(5) 0.80521(11)
H12 H 1.09920 0.38540 0.82590
#END
