
#######################################################################
#
#                 Cambridge Crystallographic Data Centre
#                                CCDC
#
#######################################################################
#
# If this CIF has been generated from an entry in the Cambridge
# Structural Database, then it will include bibliographic, chemical,
# crystal, experimental, refinement or atomic coordinate data resulting
# from the CCDC's data processing and validation procedures.
#
#######################################################################

data_CSD_CIF_GEYNON
_audit_creation_date 1989-06-08
_audit_creation_method CSD-ConQuest-V1
_database_code_CSD GEYNON
_chemical_formula_sum 'C8 H4 N2 O7'
_chemical_formula_moiety
;
C8 H4 N2 O7
;
_journal_coeditor_code "IUCr HU0189"
_journal_coden_Cambridge 591
_journal_volume 44
_journal_year 1988
_journal_page_first 1228
_journal_name_full 'Acta Crystallogr.,Sect.C:Cryst.Struct.Commun. '
loop_
_publ_author_name
"A.Irving"
"H.M.N.H.Irving"
_chemical_name_systematic
;
6,8-Dinitro-1,3-benzodioxin-4-one
;
_chemical_melting_point 469.2
_cell_volume   1801.624
_exptl_crystal_colour 'colorless'
_exptl_crystal_density_diffrn 1.771
_exptl_special_details
;
Melting point range 469.2-469.7K

;
_diffrn_ambient_temperature ?
_diffrn_special_details
;
The study was carried out at room temperature,in the range 283-303K

;
#These two values have been output from a single CSD field.
_refine_ls_R_factor_gt 0.034
_refine_ls_wR_factor_gt 0.034
_symmetry_cell_setting orthorhombic
_symmetry_space_group_name_H-M 'P b c a'
_symmetry_Int_Tables_number 61
loop_
_symmetry_equiv_pos_site_id
_symmetry_equiv_pos_as_xyz
1 x,y,z
2 1/2-x,1/2+y,z
3 x,1/2-y,1/2+z
4 1/2-x,-y,1/2+z
5 -x,-y,-z
6 -1/2+x,-1/2-y,-z
7 -x,-1/2+y,-1/2-z
8 -1/2+x,y,-1/2-z
_cell_length_a 10.601(3)
_cell_length_b 11.409(1)
_cell_length_c 14.896(2)
_cell_angle_alpha 90
_cell_angle_beta 90
_cell_angle_gamma 90
_cell_formula_units_Z 8
loop_
_atom_type_symbol
_atom_type_radius_bond
C 0.68
H 0.23
N 0.68
O 0.68
loop_
_atom_site_label
_atom_site_type_symbol
_atom_site_fract_x
_atom_site_fract_y
_atom_site_fract_z
O1 O 0.2147(1) 0.1165(1) 0.1307(1)
C1 C 0.2603(3) 0.1259(2) 0.0414(2)
O2 O 0.2922(2) 0.0134(2) 0.0054(1)
C2 C 0.3746(2) -0.0515(2) 0.0547(2)
C3 C 0.3846(2) -0.0176(2) 0.1499(1)
C4 C 0.2994(2) 0.0639(2) 0.1846(1)
C5 C 0.3029(2) 0.0889(2) 0.2767(1)
C6 C 0.3863(2) 0.0336(2) 0.3332(1)
C7 C 0.4661(2) -0.0495(2) 0.2968(1)
C8 C 0.4682(2) -0.0754(2) 0.2060(2)
N1 N 0.5506(2) -0.1127(2) 0.3573(1)
O3 O 0.6388(2) -0.1662(2) 0.3243(1)
O4 O 0.5291(2) -0.1079(2) 0.4376(1)
N2 N 0.2195(2) 0.1789(2) 0.3146(1)
O5 O 0.2668(2) 0.2481(2) 0.3669(1)
O6 O 0.1095(2) 0.1795(2) 0.2911(1)
O7 O 0.4277(2) -0.1329(2) 0.0210(1)
H1 H 0.5295(21) -0.1326(20) 0.1769(14)
H2 H 0.3877(18) 0.0546(18) 0.3951(14)
H3 H 0.3414(22) 0.1785(21) 0.0475(14)
H4 H 0.1865(22) 0.1577(21) 0.0095(16)
#END
