
#######################################################################
#
#                 Cambridge Crystallographic Data Centre
#                                CCDC
#
#######################################################################
#
# If this CIF has been generated from an entry in the Cambridge
# Structural Database, then it will include bibliographic, chemical,
# crystal, experimental, refinement or atomic coordinate data resulting
# from the CCDC's data processing and validation procedures.
#
#######################################################################

data_CSD_CIF_GEYREK
_audit_creation_date 2018-04-23
_audit_creation_method CSD-ConQuest-V1
_database_code_CSD GEYREK
_database_code_depnum_ccdc_archive 'CCDC 1818132'
_chemical_formula_sum 'C7 H6 N8 O4'
_chemical_formula_moiety
;
C7 H6 N8 O4
;
_journal_coden_Cambridge 1699
_journal_volume 6
_journal_year 2018
_journal_page_first 8382
_journal_name_full 'J.Mater.Chem.A '
loop_
_publ_author_name
"Yongxing Tang"
"Chunlin He"
"G.H.Imler"
"D.A.Parrish"
"J.M.Shreeve"
_chemical_name_systematic
;
2,10-dinitro-6,7-dihydro-5H-bis[1,2,4]triazolo[1,5-a:5',1'-c][1,4]diazepine
;
_cell_volume   1081.872
_exptl_crystal_colour 'colorless'
_exptl_crystal_density_diffrn 1.634
_exptl_crystal_description 'block'
_diffrn_ambient_temperature 293
#These two values have been output from a single CSD field.
_refine_ls_R_factor_gt 0.0426
_refine_ls_wR_factor_gt 0.0426
_symmetry_cell_setting monoclinic
_symmetry_space_group_name_H-M 'P 21/n'
_symmetry_Int_Tables_number 14
loop_
_symmetry_equiv_pos_site_id
_symmetry_equiv_pos_as_xyz
1 x,y,z
2 1/2-x,1/2+y,1/2-z
3 -x,-y,-z
4 -1/2+x,-1/2-y,-1/2+z
_cell_length_a 9.6012(4)
_cell_length_b 11.5875(5)
_cell_length_c 9.7940(4)
_cell_angle_alpha 90
_cell_angle_beta 96.837(2)
_cell_angle_gamma 90
_cell_formula_units_Z 4
loop_
_atom_type_symbol
_atom_type_radius_bond
C 0.68
H 0.23
N 0.68
O 0.68
loop_
_atom_site_label
_atom_site_type_symbol
_atom_site_fract_x
_atom_site_fract_y
_atom_site_fract_z
O1 O 0.76632(13) 0.63148(11) 0.45668(13)
O2 O 0.70081(14) 0.69617(10) 0.25178(13)
N1 N 0.70072(14) 0.62413(11) 0.34272(14)
C1 C 0.61415(15) 0.52210(13) 0.31406(14)
N2 N 0.53584(14) 0.51050(12) 0.19547(12)
N3 N 0.47538(13) 0.40702(12) 0.21168(11)
C2 C 0.3773(2) 0.35798(16) 0.09943(16)
H1 H 0.40020 0.38790 0.01230
H2 H 0.28270 0.38260 0.11050
C3 C 0.38196(18) 0.22827(16) 0.09605(16)
H3 H 0.34040 0.20260 0.00600
H4 H 0.47940 0.20420 0.10710
C4 C 0.30879(19) 0.16868(15) 0.20255(17)
H5 H 0.21500 0.20020 0.20060
H6 H 0.29980 0.08730 0.17970
N4 N 0.38223(13) 0.18047(11) 0.34259(12)
N5 N 0.35995(13) 0.10035(11) 0.43787(13)
C5 C 0.44276(15) 0.13836(12) 0.54495(14)
N6 N 0.45316(15) 0.07686(13) 0.67512(14)
O3 O 0.37681(14) -0.00657(12) 0.68141(14)
O4 O 0.53830(17) 0.11149(13) 0.76758(13)
N7 N 0.51613(12) 0.23373(11) 0.53029(11)
C6 C 0.47479(14) 0.25964(12) 0.39924(14)
C7 C 0.52062(14) 0.36504(12) 0.33759(13)
N8 N 0.61050(12) 0.43766(11) 0.40611(11)
#END
