
#######################################################################
#
#                 Cambridge Crystallographic Data Centre
#                                CCDC
#
#######################################################################
#
# If this CIF has been generated from an entry in the Cambridge
# Structural Database, then it will include bibliographic, chemical,
# crystal, experimental, refinement or atomic coordinate data resulting
# from the CCDC's data processing and validation procedures.
#
#######################################################################

data_CSD_CIF_GEYWIQ
_audit_creation_date 1989-06-08
_audit_creation_method CSD-ConQuest-V1
_database_code_CSD GEYWIQ
_chemical_formula_sum 'C8 H7 N1 O4'
_chemical_formula_moiety
;
C8 H7 N1 O4
;
_journal_coden_Cambridge 582
_journal_volume 18
_journal_year 1988
_journal_page_first 189
_journal_name_full 'J.Crystallogr.Spectrosc.Res. '
loop_
_publ_author_name
"A.Irving"
"H.M.N.H.Irving"
_chemical_name_systematic
;
6-Nitro-1,3-benzodioxin
;
_chemical_melting_point 422.65
_cell_volume   1541.390
_exptl_crystal_colour 'colorless'
_exptl_crystal_density_diffrn 1.56
_exptl_special_details
;
Melting point range 422.65-423.15K

;
_diffrn_ambient_temperature ?
_diffrn_special_details
;
The study was carried out at room temperature,in the range 283-303K

;
#These two values have been output from a single CSD field.
_refine_ls_R_factor_gt 0.041
_refine_ls_wR_factor_gt 0.041
_symmetry_cell_setting orthorhombic
_symmetry_space_group_name_H-M 'P b c a'
_symmetry_Int_Tables_number 61
loop_
_symmetry_equiv_pos_site_id
_symmetry_equiv_pos_as_xyz
1 x,y,z
2 1/2-x,1/2+y,z
3 x,1/2-y,1/2+z
4 1/2-x,-y,1/2+z
5 -x,-y,-z
6 -1/2+x,-1/2-y,-z
7 -x,-1/2+y,-1/2-z
8 -1/2+x,y,-1/2-z
_cell_length_a 7.278(4)
_cell_length_b 19.292(3)
_cell_length_c 10.978(1)
_cell_angle_alpha 90
_cell_angle_beta 90
_cell_angle_gamma 90
_cell_formula_units_Z 8
loop_
_atom_type_symbol
_atom_type_radius_bond
C 0.68
H 0.23
N 0.68
O 0.68
loop_
_atom_site_label
_atom_site_type_symbol
_atom_site_fract_x
_atom_site_fract_y
_atom_site_fract_z
O1 O 0.2702(3) 0.2680(1) 0.7094(2)
C1 C 0.2482(7) 0.2268(2) 0.8171(4)
O2 O 0.3275(3) 0.2581(1) 0.9168(2)
C2 C 0.2264(8) 0.3188(2) 0.9503(4)
C3 C 0.1924(4) 0.3629(1) 0.8399(3)
C4 C 0.2193(4) 0.3354(1) 0.7244(3)
C5 C 0.1983(5) 0.3753(2) 0.6211(3)
C6 C 0.1441(5) 0.4434(2) 0.6305(3)
C7 C 0.1132(4) 0.4702(1) 0.7454(3)
C8 C 0.1381(5) 0.4314(2) 0.8497(3)
N1 N 0.0486(4) 0.5418(1) 0.7568(4)
O3 O 0.0193(4) 0.5747(1) 0.6641(3)
O4 O 0.0262(5) 0.5657(1) 0.8589(3)
H1 H 0.3102(50) 0.1802(18) 0.7992(29)
H2 H 0.1158(55) 0.2153(19) 0.8290(33)
H3 H 0.2941(56) 0.3430(18) 1.0195(34)
H4 H 0.1178(53) 0.3079(17) 0.9901(33)
H5 H 0.1192(35) 0.4520(13) 0.9312(24)
H6 H 0.1316(44) 0.4729(15) 0.5571(29)
H7 H 0.2205(42) 0.3536(14) 0.5407(25)
#END
