
#######################################################################
#
#                 Cambridge Crystallographic Data Centre
#                                CCDC
#
#######################################################################
#
# If this CIF has been generated from an entry in the Cambridge
# Structural Database, then it will include bibliographic, chemical,
# crystal, experimental, refinement or atomic coordinate data resulting
# from the CCDC's data processing and validation procedures.
#
#######################################################################

data_CSD_CIF_GEZWAM
_audit_creation_date 2018-04-24
_audit_creation_method CSD-ConQuest-V1
_database_code_CSD GEZWAM
_database_code_depnum_ccdc_archive 'CCDC 1814084'
_chemical_formula_sum 'C16 H14 N2 O6'
_chemical_formula_moiety
;
C16 H14 N2 O6
;
_journal_coden_Cambridge 35
_journal_volume 83
_journal_year 2018
_journal_page_first 4427
_journal_name_full 'J.Org.Chem. '
loop_
_publ_author_name
"S.Maryamdokht Taimoory"
"S.Iraj Sadraei"
"R.A.Fayoumi"
"S.Nasri"
"M.Revington"
"J.F.Trant"
_chemical_name_systematic
;
rac-(3aR*,4R*,7R*,7aS*)-2-benzyl-4-(hydroxymethyl)-7-nitro-3a,4,7,7a-tetrahydr
o-1H-4,7-epoxyisoindole-1,3(2H)-dione
;
_cell_volume   1435.871
_exptl_crystal_colour 'colorless'
_exptl_crystal_density_diffrn 1.528
_exptl_special_details
;
Heat-sensitive

;
_exptl_crystal_description 'plate'
_exptl_crystal_preparation 'diethyl ether/methanol'
_diffrn_ambient_temperature 170
#These two values have been output from a single CSD field.
_refine_ls_R_factor_gt 0.0484
_refine_ls_wR_factor_gt 0.0484
loop_
_citation_database_id_CSD
_citation_special_details
GEZVUF "is a stereoisomer of this entry"
_symmetry_cell_setting monoclinic
_symmetry_space_group_name_H-M 'P 21/c'
_symmetry_Int_Tables_number 14
loop_
_symmetry_equiv_pos_site_id
_symmetry_equiv_pos_as_xyz
1 x,y,z
2 -x,1/2+y,1/2-z
3 -x,-y,-z
4 x,-1/2-y,-1/2+z
_cell_length_a 17.002(4)
_cell_length_b 6.3616(11)
_cell_length_c 13.302(3)
_cell_angle_alpha 90
_cell_angle_beta 93.621(7)
_cell_angle_gamma 90
_cell_formula_units_Z 4
loop_
_atom_type_symbol
_atom_type_radius_bond
C 0.68
H 0.23
N 0.68
O 0.68
loop_
_atom_site_label
_atom_site_type_symbol
_atom_site_fract_x
_atom_site_fract_y
_atom_site_fract_z
O1 O 0.25154(10) 0.4308(3) 0.64441(12)
O2 O 0.37380(11) 0.5193(3) 0.67259(12)
O3 O 0.41063(8) 0.3250(2) 0.5043(1)
O4 O 0.47652(10) -0.0316(3) 0.38584(14)
H1 H 0.5257(10) -0.086(4) 0.415(2)
O5 O 0.19534(9) 0.7173(2) 0.43171(13)
O6 O 0.34294(10) 0.4861(2) 0.17941(11)
N1 N 0.31856(11) 0.4503(3) 0.61918(13)
N2 N 0.25468(10) 0.6046(2) 0.29064(12)
C1 C 0.33280(11) 0.3965(3) 0.51308(14)
C2 C 0.28271(11) 0.2266(3) 0.46435(14)
H2 H 0.23260 0.17880 0.48230
C3 C 0.32464(11) 0.1586(3) 0.39044(14)
H3 H 0.30990 0.05200 0.34290
C4 C 0.40067(11) 0.2832(3) 0.39602(14)
C5 C 0.38071(12) 0.5124(3) 0.35884(14)
H4 H 0.42960 0.59790 0.35350
C6 C 0.33124(12) 0.5945(3) 0.44300(14)
H5 H 0.35630 0.71910 0.47790
C7 C 0.25197(12) 0.6482(3) 0.39263(15)
C8 C 0.32725(12) 0.5290(3) 0.26431(15)
C9 C 0.47306(12) 0.1837(4) 0.35759(17)
H6 H 0.47160 0.19580 0.28330
H7 H 0.52070 0.25760 0.38600
C10 C 0.18890(14) 0.6465(3) 0.21684(17)
H8 H 0.21050 0.69740 0.15390
H9 H 0.15640 0.76110 0.24290
C11 C 0.13629(11) 0.4608(3) 0.19200(16)
C12 C 0.11704(12) 0.3133(3) 0.26355(17)
H10 H 0.13940 0.32400 0.33060
C13 C 0.06555(13) 0.1512(4) 0.23772(18)
H11 H 0.05270 0.05070 0.28690
C14 C 0.03275(15) 0.1358(4) 0.1403(2)
H12 H -0.00270 0.02450 0.12240
C15 C 0.05134(14) 0.2815(4) 0.06899(18)
H13 H 0.02860 0.27080 0.00210
C16 C 0.10304(12) 0.4433(4) 0.09473(16)
H14 H 0.11580 0.54320 0.04530
#END
