
#######################################################################
#
#                 Cambridge Crystallographic Data Centre
#                                CCDC
#
#######################################################################
#
# If this CIF has been generated from an entry in the Cambridge
# Structural Database, then it will include bibliographic, chemical,
# crystal, experimental, refinement or atomic coordinate data resulting
# from the CCDC's data processing and validation procedures.
#
#######################################################################

data_CSD_CIF_GIBTOC
_audit_creation_date 2013-05-23
_audit_creation_method CSD-ConQuest-V1
_database_code_CSD GIBTOC
_database_code_depnum_ccdc_archive 'CCDC 911348'
_chemical_formula_sum 'C26 H14 N4 O4'
_chemical_formula_moiety
;
C26 H14 N4 O4
;
_journal_coden_Cambridge 1137
_journal_volume 26
_journal_year 2013
_journal_page_first 492
_journal_name_full 'J.Phys.Org.Chem. '
loop_
_publ_author_name
"V.A.Ozeryanskii"
"E.A.Filatova"
"A.F.Pozharskii"
"D.A.Shevchuk"
"V.I.Sorokin"
_chemical_name_systematic
;
3,4-Dinitro-7,10-diphenylacenaphtho[1,2-d]pyridazine
;
_cell_volume   2040.043
_exptl_crystal_colour 'yellow orange'
_exptl_crystal_density_diffrn 1.453
_exptl_crystal_description 'plate'
_diffrn_ambient_temperature 293
#These two values have been output from a single CSD field.
_refine_ls_R_factor_gt 0.0367
_refine_ls_wR_factor_gt 0.0367
_symmetry_cell_setting monoclinic
_symmetry_space_group_name_H-M 'P 21/n'
_symmetry_Int_Tables_number 14
loop_
_symmetry_equiv_pos_site_id
_symmetry_equiv_pos_as_xyz
1 x,y,z
2 1/2-x,1/2+y,1/2-z
3 -x,-y,-z
4 -1/2+x,-1/2-y,-1/2+z
_cell_length_a 16.778(3)
_cell_length_b 7.6920(15)
_cell_length_c 17.044(3)
_cell_angle_alpha 90
_cell_angle_beta 111.96(3)
_cell_angle_gamma 90
_cell_formula_units_Z 4
loop_
_atom_type_symbol
_atom_type_radius_bond
C 0.68
H 0.23
N 0.68
O 0.68
loop_
_atom_site_label
_atom_site_type_symbol
_atom_site_fract_x
_atom_site_fract_y
_atom_site_fract_z
O1 O 0.67437(10) 0.6374(2) 0.65490(8)
O2 O 0.78658(11) 0.7938(3) 0.67322(9)
O3 O 0.47006(10) 0.7756(2) 0.56017(9)
O4 O 0.58471(11) 0.9227(2) 0.57342(10)
N1 N 0.72471(11) 0.7097(3) 0.62899(10)
N2 N 0.53255(12) 0.8063(3) 0.54178(10)
N3 N 0.58399(10) 0.3698(2) 0.13529(9)
N4 N 0.66954(10) 0.3816(2) 0.1646(1)
C1 C 0.58227(11) 0.4688(3) 0.26691(10)
C2 C 0.67237(11) 0.4761(3) 0.29863(11)
C3 C 0.70272(11) 0.5499(3) 0.38523(10)
C4 C 0.78068(13) 0.5966(3) 0.44399(12)
C5 C 0.78373(13) 0.6590(3) 0.52237(12)
C6 C 0.71116(12) 0.6827(3) 0.53941(11)
C7 C 0.62737(11) 0.6602(3) 0.47681(11)
C8 C 0.62717(11) 0.5849(2) 0.40167(10)
C9 C 0.55230(11) 0.5436(2) 0.33079(10)
C10 C 0.47345(13) 0.5862(3) 0.33250(12)
C11 C 0.47081(13) 0.6677(3) 0.40540(11)
C12 C 0.54380(12) 0.7030(3) 0.47429(11)
C13 C 0.53946(12) 0.4060(3) 0.18461(11)
C14 C 0.44565(12) 0.3761(3) 0.14437(11)
C15 C 0.40168(14) 0.4243(3) 0.06047(12)
C16 C 0.31488(15) 0.3929(4) 0.02244(14)
C17 C 0.27072(15) 0.3123(4) 0.06495(15)
C18 C 0.31330(14) 0.2607(3) 0.14827(15)
C19 C 0.40013(13) 0.2930(3) 0.18719(13)
C20 C 0.71479(11) 0.4258(3) 0.24573(11)
C21 C 0.80944(12) 0.4196(3) 0.26934(11)
C22 C 0.86366(14) 0.3458(3) 0.34463(14)
C23 C 0.95146(15) 0.3390(3) 0.36368(16)
C24 C 0.98550(15) 0.4034(3) 0.30770(16)
C25 C 0.93276(14) 0.4738(3) 0.23306(15)
C26 C 0.84548(13) 0.4831(3) 0.21382(13)
H1 H 0.8328(12) 0.584(2) 0.4353(11)
H2 H 0.8369(12) 0.682(2) 0.5675(11)
H3 H 0.4196(11) 0.563(2) 0.2856(11)
H4 H 0.4148(12) 0.697(2) 0.4081(11)
H5 H 0.4324(13) 0.485(3) 0.0318(13)
H6 H 0.2885(14) 0.436(3) -0.0356(15)
H7 H 0.2120(15) 0.294(3) 0.0413(14)
H8 H 0.2822(13) 0.203(3) 0.1798(12)
H9 H 0.4316(12) 0.257(3) 0.2466(12)
H10 H 0.8405(12) 0.302(3) 0.3814(12)
H11 H 0.9885(13) 0.290(3) 0.4169(13)
H12 H 1.0486(15) 0.396(3) 0.3198(14)
H13 H 0.9588(12) 0.517(3) 0.1964(13)
H14 H 0.8064(12) 0.528(3) 0.1594(12)
#END
