
#######################################################################
#
#                 Cambridge Crystallographic Data Centre
#                                CCDC
#
#######################################################################
#
# If this CIF has been generated from an entry in the Cambridge
# Structural Database, then it will include bibliographic, chemical,
# crystal, experimental, refinement or atomic coordinate data resulting
# from the CCDC's data processing and validation procedures.
#
#######################################################################

data_CSD_CIF_GIBWEV
_audit_creation_date 2013-05-23
_audit_creation_method CSD-ConQuest-V1
_database_code_CSD GIBWEV
_database_code_depnum_ccdc_archive 'CCDC 911339'
_chemical_formula_sum 'C18 H21 N3 O2'
_chemical_formula_moiety
;
C18 H21 N3 O2
;
_journal_coden_Cambridge 1137
_journal_volume 26
_journal_year 2013
_journal_page_first 492
_journal_name_full 'J.Phys.Org.Chem. '
loop_
_publ_author_name
"V.A.Ozeryanskii"
"E.A.Filatova"
"A.F.Pozharskii"
"D.A.Shevchuk"
"V.I.Sorokin"
_chemical_name_systematic
;
1,1'-(4-Nitronaphthalene-1,8-diyl)dipyrrolidine
;
_cell_volume   1545.573
_exptl_crystal_colour 'red'
_exptl_crystal_density_diffrn 1.338
_exptl_special_details
;
Absolute configuration

;
_exptl_crystal_description 'plate'
_diffrn_ambient_temperature 120
#These two values have been output from a single CSD field.
_refine_ls_R_factor_gt 0.0513
_refine_ls_wR_factor_gt 0.0513
_symmetry_cell_setting orthorhombic
_symmetry_space_group_name_H-M 'P 21 21 21'
_symmetry_Int_Tables_number 19
loop_
_symmetry_equiv_pos_site_id
_symmetry_equiv_pos_as_xyz
1 x,y,z
2 1/2-x,-y,1/2+z
3 -x,1/2+y,1/2-z
4 1/2+x,1/2-y,-z
_cell_length_a 8.0937(12)
_cell_length_b 10.6030(16)
_cell_length_c 18.010(3)
_cell_angle_alpha 90
_cell_angle_beta 90
_cell_angle_gamma 90
_cell_formula_units_Z 4
loop_
_atom_type_symbol
_atom_type_radius_bond
C 0.68
H 0.23
N 0.68
O 0.68
loop_
_atom_site_label
_atom_site_type_symbol
_atom_site_fract_x
_atom_site_fract_y
_atom_site_fract_z
N1 N 0.6123(3) 0.66428(18) 0.14875(11)
N2 N 0.4180(3) 0.4293(2) 0.11703(12)
N3 N 0.9569(3) 0.3813(2) 0.35301(13)
O1 O 1.0118(3) 0.44338(18) 0.40651(11)
O2 O 0.9995(3) 0.26816(18) 0.34450(11)
C1 C 0.6590(3) 0.5843(2) 0.20298(14)
C2 C 0.7042(3) 0.6326(2) 0.27300(13)
H1 H 0.67120 0.71320 0.28700
C3 C 0.7968(3) 0.5603(2) 0.32049(14)
H2 H 0.82720 0.59340 0.36630
C4 C 0.8466(3) 0.4390(2) 0.30195(13)
C5 C 0.7841(3) 0.3783(2) 0.23641(14)
C6 C 0.8284(3) 0.2560(2) 0.21163(14)
H3 H 0.90520 0.20860 0.23800
C7 C 0.7570(3) 0.2080(2) 0.14832(15)
H4 H 0.79740 0.13270 0.12900
C8 C 0.6279(3) 0.2672(2) 0.11236(15)
H5 H 0.57920 0.22970 0.07110
C9 C 0.5706(3) 0.3836(2) 0.13816(14)
C10 C 0.6701(3) 0.4492(2) 0.19189(13)
C11 C 0.6230(4) 0.6397(2) 0.06857(14)
H6 H 0.52340 0.59910 0.05050
H7 H 0.71730 0.58680 0.05710
C12 C 0.6429(4) 0.7703(2) 0.03482(14)
H8 H 0.75800 0.79570 0.03370
H9 H 0.59830 0.77340 -0.01510
C13 C 0.5434(4) 0.8525(2) 0.08744(15)
H10 H 0.42580 0.84370 0.07860
H11 H 0.57400 0.94060 0.08280
C14 C 0.5916(3) 0.8003(2) 0.16293(14)
H12 H 0.69370 0.83780 0.18040
H13 H 0.50540 0.81540 0.19930
C15 C 0.3162(3) 0.3599(3) 0.06359(15)
H14 H 0.31440 0.27060 0.07530
H15 H 0.35760 0.37090 0.01350
C16 C 0.1440(4) 0.4178(3) 0.07188(16)
H16 H 0.12860 0.48740 0.03760
H17 H 0.05850 0.35540 0.06330
C17 C 0.1414(3) 0.4635(3) 0.15170(16)
H18 H 0.11820 0.39490 0.18570
H19 H 0.05990 0.52950 0.15870
C18 C 0.3162(3) 0.5139(2) 0.16244(15)
H20 H 0.32500 0.60030 0.14530
H21 H 0.34860 0.51010 0.21420
#END
