
#######################################################################
#
#                 Cambridge Crystallographic Data Centre
#                                CCDC
#
#######################################################################
#
# If this CIF has been generated from an entry in the Cambridge
# Structural Database, then it will include bibliographic, chemical,
# crystal, experimental, refinement or atomic coordinate data resulting
# from the CCDC's data processing and validation procedures.
#
#######################################################################

data_CSD_CIF_GIBYAR
_audit_creation_date 1999-04-16
_audit_creation_method CSD-ConQuest-V1
_database_code_CSD GIBYAR
_chemical_formula_sum 'C15 H17 N1 O5'
_chemical_formula_moiety
;
C15 H17 N1 O5
;
_journal_coden_Cambridge 24
_journal_volume 39
_journal_year 1998
_journal_page_first 6819
_journal_name_full 'Tetrahedron Lett. '
loop_
_publ_author_name
"S.W.Baldwin"
"B.G.Young"
"A.T.McPhail"
_chemical_name_systematic
;
Methyl (2R,6R,7R,8S)-2-phenyl-8-methyl-1-aza-4,9-dioxabicyclo(4.3.0) 
nonan-5-one-7-carboxylate
;
_cell_volume    744.163
_exptl_crystal_colour 'white'
_exptl_crystal_density_diffrn 1.3
_diffrn_ambient_temperature ?
_diffrn_special_details
;
The study was carried out at room temperature,in the range 283-303K

;
#These two values have been output from a single CSD field.
_refine_ls_R_factor_gt 0.045
_refine_ls_wR_factor_gt 0.045
_symmetry_cell_setting monoclinic
_symmetry_space_group_name_H-M 'P 21'
_symmetry_Int_Tables_number 4
loop_
_symmetry_equiv_pos_site_id
_symmetry_equiv_pos_as_xyz
1 x,y,z
2 -x,1/2+y,-z
_cell_length_a 13.628(2)
_cell_length_b 5.340(1)
_cell_length_c 10.508(2)
_cell_angle_alpha 90
_cell_angle_beta 103.31(1)
_cell_angle_gamma 90
_cell_formula_units_Z 2
loop_
_atom_type_symbol
_atom_type_radius_bond
C 0.68
H 0.23
N 0.68
O 0.68
loop_
_atom_site_label
_atom_site_type_symbol
_atom_site_fract_x
_atom_site_fract_y
_atom_site_fract_z
O1 O 0.3015(2) 0.00000 0.1970(2)
C1 C 0.3094(3) -0.1236(10) 0.3201(3)
C2 C 0.2032(3) -0.1160(8) 0.3410(3)
C3 C 0.1383(3) -0.1100(9) 0.1989(3)
C4 C 0.0612(3) -0.3189(10) 0.1662(4)
O2 O 0.0605(2) -0.4722(7) 0.0655(3)
C5 C 0.1283(3) -0.4198(10) -0.0206(4)
C6 C 0.2297(3) -0.3303(8) 0.0560(4)
N1 N 0.2101(2) -0.0874(7) 0.1123(3)
C7 C 0.3886(3) 0.0162(15) 0.4232(4)
O3 O -0.0012(2) -0.3440(8) 0.2297(3)
C8 C 0.1810(3) -0.3322(9) 0.4223(4)
O4 O 0.2007(3) -0.5427(7) 0.4030(4)
O5 O 0.1396(2) -0.2576(7) 0.5170(3)
C9 C 0.1109(5) -0.4530(15) 0.5980(4)
C10 C 0.2982(3) -0.2948(9) -0.0373(4)
C11 C 0.3750(3) -0.4648(11) -0.0367(4)
C12 C 0.4363(3) -0.4361(12) -0.1240(5)
C13 C 0.4225(3) -0.2393(13) -0.2096(4)
C14 C 0.3440(4) -0.0740(13) -0.2139(4)
C15 C 0.2830(3) -0.1004(11) -0.1279(4)
H1 H 0.33410 -0.31040 0.32510
H2 H 0.18870 0.03820 0.39590
H3 H 0.08990 0.04560 0.18430
H4 H 0.09600 -0.28070 -0.08790
H5 H 0.13820 -0.58410 -0.07110
H6 H 0.26440 -0.45690 0.12900
H7 H 0.45940 0.00030 0.40040
H8 H 0.36860 0.20600 0.42390
H9 H 0.39190 -0.06210 0.51580
H10 H 0.07890 -0.37110 0.66980
H11 H 0.05810 -0.57270 0.53930
H12 H 0.17500 -0.55610 0.64330
H13 H 0.38610 -0.60770 0.02650
H14 H 0.49110 -0.56030 -0.12450
H15 H 0.46940 -0.21520 -0.26910
H16 H 0.33170 0.06460 -0.27960
H17 H 0.22690 0.02140 -0.13020
#END
