
#######################################################################
#
#                 Cambridge Crystallographic Data Centre
#                                CCDC
#
#######################################################################
#
# If this CIF has been generated from an entry in the Cambridge
# Structural Database, then it will include bibliographic, chemical,
# crystal, experimental, refinement or atomic coordinate data resulting
# from the CCDC's data processing and validation procedures.
#
#######################################################################

data_CSD_CIF_GIBZIA
_audit_creation_date 1999-04-16
_audit_creation_method CSD-ConQuest-V1
_database_code_CSD GIBZIA
_chemical_formula_sum 'C16 H13 N1 O3'
_chemical_formula_moiety
;
C16 H13 N1 O3
;
_journal_coden_Cambridge 24
_journal_volume 39
_journal_year 1998
_journal_page_first 6819
_journal_name_full 'Tetrahedron Lett. '
loop_
_publ_author_name
"S.W.Baldwin"
"B.G.Young"
"A.T.McPhail"
_chemical_name_systematic
;
(5S,6R)-5,6-Diphenyl-3,4,5,6-tetrahydro-1,4-oxazin-2-one N-oxide
;
_cell_volume   1288.914
_exptl_crystal_colour 'yellow'
_exptl_crystal_density_diffrn 1.377
_diffrn_ambient_temperature ?
_diffrn_special_details
;
The study was carried out at room temperature,in the range 283-303K

;
#These two values have been output from a single CSD field.
_refine_ls_R_factor_gt 0.041
_refine_ls_wR_factor_gt 0.041
_symmetry_cell_setting orthorhombic
_symmetry_space_group_name_H-M 'P 21 21 21'
_symmetry_Int_Tables_number 19
loop_
_symmetry_equiv_pos_site_id
_symmetry_equiv_pos_as_xyz
1 x,y,z
2 1/2-x,-y,1/2+z
3 1/2+x,1/2-y,-z
4 -x,1/2+y,1/2-z
_cell_length_a 12.397(3)
_cell_length_b 18.202(4)
_cell_length_c 5.712(1)
_cell_angle_alpha 90
_cell_angle_beta 90
_cell_angle_gamma 90
_cell_formula_units_Z 4
loop_
_atom_type_symbol
_atom_type_radius_bond
C 0.68
H 0.23
N 0.68
O 0.68
loop_
_atom_site_label
_atom_site_type_symbol
_atom_site_fract_x
_atom_site_fract_y
_atom_site_fract_z
O1 O 0.0250(4) 0.2382(2) 0.174(1)
C1 C 0.0677(6) 0.3036(4) 0.227(2)
C2 C 0.1431(6) 0.3358(4) 0.061(2)
N1 N 0.1802(5) 0.3004(3) -0.125(1)
C3 C 0.1407(5) 0.2245(4) -0.171(1)
C4 C 0.0270(5) 0.2193(4) -0.078(1)
O2 O 0.0488(5) 0.3315(3) 0.414(1)
O3 O 0.2513(4) 0.3261(3) -0.256(1)
C5 C 0.2212(5) 0.1688(4) -0.088(2)
C6 C 0.2760(6) 0.1746(4) 0.125(2)
C7 C 0.3518(5) 0.1197(4) 0.184(2)
C8 C 0.3694(6) 0.0612(4) 0.042(2)
C9 C 0.3142(7) 0.0568(4) -0.172(2)
C10 C 0.2422(5) 0.1106(4) -0.227(2)
C11 C -0.0238(5) 0.1449(4) -0.104(2)
C12 C -0.0106(6) 0.0890(4) 0.059(2)
C13 C -0.0603(7) 0.0224(4) 0.023(2)
C14 C -0.1186(6) 0.0075(4) -0.178(2)
C15 C -0.1302(6) 0.0628(4) -0.341(2)
C16 C -0.0830(5) 0.1309(4) -0.306(2)
H1 H 0.16820 0.38730 0.08870
H2 H 0.13480 0.21190 -0.35000
H3 H -0.01560 0.25470 -0.17490
H4 H 0.26190 0.21670 0.23330
H5 H 0.39330 0.12410 0.33350
H6 H 0.42110 0.02170 0.08920
H7 H 0.32750 0.01500 -0.28190
H8 H 0.20260 0.10680 -0.37910
H9 H 0.03470 0.09710 0.20150
H10 H -0.05410 -0.01650 0.14600
H11 H -0.15140 -0.04200 -0.20430
H12 H -0.17320 0.05360 -0.48620
H13 H -0.09150 0.17030 -0.42670
#END
