
#######################################################################
#
#                 Cambridge Crystallographic Data Centre
#                                CCDC
#
#######################################################################
#
# If this CIF has been generated from an entry in the Cambridge
# Structural Database, then it will include bibliographic, chemical,
# crystal, experimental, refinement or atomic coordinate data resulting
# from the CCDC's data processing and validation procedures.
#
#######################################################################

data_CSD_CIF_GICLAI
_audit_creation_date 2018-04-24
_audit_creation_method CSD-ConQuest-V1
_database_code_CSD GICLAI
_database_code_depnum_ccdc_archive 'CCDC 1816994'
_chemical_formula_sum 'C18 H17 N3 O4'
_chemical_formula_moiety
;
C18 H17 N3 O4
;
_journal_coden_Cambridge 1267
_journal_volume 233
_journal_year 2018
_journal_page_first 251
_journal_name_full 'Z.Kristallogr.-New Cryst.Struct. '
loop_
_publ_author_name
"Jing Song"
_chemical_name_systematic
;
2-amino-7,7-dimethyl-4-(4-nitrophenyl)-5-oxo-5,6,7,8-tetrahydro-4H-1-benzopyra
n-3-carbonitrile
;
_cell_volume   1581.969
_exptl_crystal_colour 'colorless'
_exptl_crystal_density_diffrn 1.425
_exptl_crystal_description 'prism'
_diffrn_ambient_temperature 293
#These two values have been output from a single CSD field.
_refine_ls_R_factor_gt 0.0437
_refine_ls_wR_factor_gt 0.0437
_symmetry_cell_setting monoclinic
_symmetry_space_group_name_H-M 'P 21/n'
_symmetry_Int_Tables_number 14
loop_
_symmetry_equiv_pos_site_id
_symmetry_equiv_pos_as_xyz
1 x,y,z
2 1/2-x,1/2+y,1/2-z
3 -x,-y,-z
4 -1/2+x,-1/2-y,-1/2+z
_cell_length_a 9.5820(6)
_cell_length_b 16.5417(11)
_cell_length_c 10.6951(7)
_cell_angle_alpha 90
_cell_angle_beta 111.060(8)
_cell_angle_gamma 90
_cell_formula_units_Z 4
loop_
_atom_type_symbol
_atom_type_radius_bond
C 0.68
H 0.23
N 0.68
O 0.68
loop_
_atom_site_label
_atom_site_type_symbol
_atom_site_fract_x
_atom_site_fract_y
_atom_site_fract_z
C1 C -0.3273(2) 0.07147(14) 0.1299(2)
H1 H -0.37110 0.06980 0.19770
H2 H -0.33420 0.01900 0.08970
H3 H -0.37970 0.11020 0.06250
C2 C -0.0814(2) 0.03662(14) 0.3041(2)
H4 H -0.12680 0.03680 0.37090
H5 H 0.02160 0.05230 0.34430
H6 H -0.08750 -0.01670 0.26700
C3 C -0.1632(2) 0.09601(12) 0.19325(18)
C4 C -0.1515(2) 0.18125(12) 0.2511(2)
H7 H -0.21780 0.21650 0.18310
H8 H -0.18640 0.18010 0.32570
C5 C 0.0028(2) 0.21668(11) 0.29855(18)
C6 C 0.10666(19) 0.18889(11) 0.23535(17)
C7 C 0.05238(19) 0.14015(11) 0.12927(17)
C8 C -0.0943(2) 0.09839(12) 0.08433(18)
H9 H -0.08160 0.04350 0.05830
H10 H -0.16240 0.12590 0.00610
C9 C 0.25074(19) 0.17119(11) 0.05648(17)
C10 C 0.31476(19) 0.22024(11) 0.16249(17)
C11 C 0.26542(19) 0.21979(11) 0.28212(17)
H11 H 0.26490 0.27590 0.31160
C12 C 0.4290(2) 0.27405(12) 0.16063(18)
C13 C 0.37009(19) 0.17106(11) 0.40153(17)
C14 C 0.5130(2) 0.15067(13) 0.41102(19)
H12 H 0.54590 0.16580 0.34250
C15 C 0.6091(2) 0.10840(13) 0.51943(19)
H13 H 0.70550 0.09570 0.52450
C16 C 0.55888(19) 0.08571(11) 0.61917(17)
C17 C 0.4173(2) 0.10426(13) 0.61380(18)
H14 H 0.38490 0.08810 0.68210
C18 C 0.3238(2) 0.14713(13) 0.50571(18)
H15 H 0.22800 0.16040 0.50200
O1 O 0.13056(13) 0.12379(8) 0.04652(11)
O2 O 0.03981(15) 0.27017(9) 0.38411(14)
O3 O 0.78893(19) 0.03345(14) 0.74607(17)
O4 O 0.60883(18) 0.01126(12) 0.81242(16)
N1 N 0.2906(2) 0.16040(11) -0.05033(16)
H16 H 0.373(2) 0.1866(13) -0.052(2)
H17 H 0.225(2) 0.1448(14) -0.120(2)
N2 N 0.5227(2) 0.31769(12) 0.16173(19)
N3 N 0.65883(19) 0.03974(11) 0.73353(16)
#END
