
#######################################################################
#
#                 Cambridge Crystallographic Data Centre
#                                CCDC
#
#######################################################################
#
# If this CIF has been generated from an entry in the Cambridge
# Structural Database, then it will include bibliographic, chemical,
# crystal, experimental, refinement or atomic coordinate data resulting
# from the CCDC's data processing and validation procedures.
#
#######################################################################

data_CSD_CIF_GICTIV01
_audit_creation_date 1989-05-23
_audit_creation_method CSD-ConQuest-V1
_database_code_CSD GICTIV01
_chemical_formula_sum 'C4 H2 N10 O4'
_chemical_formula_moiety
;
C4 H2 N10 O4
;
_journal_coeditor_code "IUCr HH0206"
_journal_coden_Cambridge 591
_journal_volume 44
_journal_year 1988
_journal_page_first 1673
_journal_name_full 'Acta Crystallogr.,Sect.C:Cryst.Struct.Commun. '
loop_
_publ_author_name
"D.T.Cromer"
"Kien-Yin Lee"
"R.R.Ryan"
_chemical_name_systematic
;
1,1'-Dinitro-3,3'-azo-1,2,4-triazole
;
_cell_volume    496.294
_exptl_crystal_colour 'pale yellow'
_exptl_crystal_density_diffrn 1.701
_exptl_special_details
;
yellow polymorph

;
_diffrn_ambient_temperature ?
_diffrn_special_details
;
The study was carried out at room temperature,in the range 283-303K

;
#These two values have been output from a single CSD field.
_refine_ls_R_factor_gt 0.027
_refine_ls_wR_factor_gt 0.027
_symmetry_cell_setting monoclinic
_symmetry_space_group_name_H-M 'P 21/c'
_symmetry_Int_Tables_number 14
loop_
_symmetry_equiv_pos_site_id
_symmetry_equiv_pos_as_xyz
1 x,y,z
2 -x,1/2+y,1/2-z
3 -x,-y,-z
4 x,-1/2-y,-1/2+z
_cell_length_a 7.208(1)
_cell_length_b 5.724(1)
_cell_length_c 12.254(2)
_cell_angle_alpha 90
_cell_angle_beta 101.00(2)
_cell_angle_gamma 90
_cell_formula_units_Z 2
loop_
_atom_type_symbol
_atom_type_radius_bond
C 0.68
H 0.23
N 0.68
O 0.68
loop_
_atom_site_label
_atom_site_type_symbol
_atom_site_fract_x
_atom_site_fract_y
_atom_site_fract_z
C1 C 0.8046(5) 0.1995(6) 0.7145(3)
C2 C 0.8830(4) 0.2912(6) 0.5659(3)
N1 N 0.7921(3) 0.0947(5) 0.5376(2)
N2 N 0.7418(3) 0.0402(5) 0.6349(2)
N3 N 0.8949(3) 0.3647(4) 0.6733(2)
N4 N 0.9567(4) 0.4080(4) 0.4826(2)
N5 N 0.6377(4) -0.1714(6) 0.6462(3)
O1 O 0.6109(4) -0.2031(5) 0.7398(2)
O2 O 0.5939(4) -0.2854(4) 0.5635(2)
H1 H 0.77900 0.18400 0.78900
N4B N 1.0433(4) 0.5920(4) 0.5174(2)
C2B C 1.1170(4) 0.7088(6) 0.4341(3)
N1B N 1.2079(3) 0.9053(5) 0.4624(2)
N3B N 1.1051(3) 0.6353(4) 0.3267(2)
N2B N 1.2582(3) 0.9598(5) 0.3651(2)
C1B C 1.1954(5) 0.8005(6) 0.2855(3)
N5B N 1.3623(4) 1.1714(6) 0.3538(3)
H1B H 1.22100 0.81600 0.21100
O1B O 1.3891(4) 1.2031(5) 0.2602(2)
O2B O 1.4061(4) 1.2854(4) 0.4365(2)
#END
