
#######################################################################
#
#                 Cambridge Crystallographic Data Centre
#                                CCDC
#
#######################################################################
#
# If this CIF has been generated from an entry in the Cambridge
# Structural Database, then it will include bibliographic, chemical,
# crystal, experimental, refinement or atomic coordinate data resulting
# from the CCDC's data processing and validation procedures.
#
#######################################################################

data_CSD_CIF_GIDDUV
_audit_creation_date 2018-04-24
_audit_creation_method CSD-ConQuest-V1
_database_code_CSD GIDDUV
_database_code_depnum_ccdc_archive 'CCDC 1533342'
_chemical_formula_sum 'C5 H6 N4 O5'
_chemical_formula_moiety
;
C5 H6 N4 O5
;
_journal_coden_Cambridge 34
_journal_volume 55
_journal_year 2018
_journal_page_first 852
_journal_name_full 'J.Heterocycl.Chem. '
loop_
_publ_author_name
"T.S.Hermann"
"T.M.Klapotke"
"B.Krumm"
"J.Stierstorfer"
_chemical_name_systematic
;
ethyl (4-nitro-1,2,5-oxadiazol-3-yl)carbamate
;
_chemical_name_common
;
Nitrofurazanyl ethylcarbamate
;
_cell_volume   1670.340
_exptl_crystal_colour 'colorless'
_exptl_crystal_density_diffrn 1.608
_exptl_crystal_description 'platelet'
_diffrn_ambient_temperature 173
#These two values have been output from a single CSD field.
_refine_ls_R_factor_gt 0.0655
_refine_ls_wR_factor_gt 0.0655
_symmetry_cell_setting orthorhombic
_symmetry_space_group_name_H-M 'P b c a'
_symmetry_Int_Tables_number 61
loop_
_symmetry_equiv_pos_site_id
_symmetry_equiv_pos_as_xyz
1 x,y,z
2 1/2-x,-y,1/2+z
3 1/2+x,1/2-y,-z
4 -x,1/2+y,1/2-z
5 -x,-y,-z
6 -1/2+x,y,-1/2-z
7 -1/2-x,-1/2+y,z
8 x,-1/2-y,-1/2+z
_cell_length_a 10.9296(15)
_cell_length_b 8.1385(10)
_cell_length_c 18.7783(18)
_cell_angle_alpha 90
_cell_angle_beta 90
_cell_angle_gamma 90
_cell_formula_units_Z 8
loop_
_atom_type_symbol
_atom_type_radius_bond
C 0.68
H 0.23
N 0.68
O 0.68
loop_
_atom_site_label
_atom_site_type_symbol
_atom_site_fract_x
_atom_site_fract_y
_atom_site_fract_z
O1 O 0.7543(2) 0.2955(3) 0.94668(11)
O2 O 0.8566(2) 0.4671(3) 0.87267(12)
O3 O 0.7461(2) 0.4498(3) 0.66102(11)
O4 O 0.4774(2) 0.1638(3) 0.77824(14)
N1 N 0.7018(3) 0.3001(3) 0.83326(15)
O5 O 0.4739(2) 0.1182(3) 0.66331(14)
N2 N 0.6465(3) 0.3514(3) 0.64843(15)
C1 C 0.6215(3) 0.2893(4) 0.70978(19)
N3 N 0.7806(3) 0.4459(3) 0.73344(14)
N4 N 0.5155(3) 0.1816(3) 0.71733(18)
C2 C 0.7031(3) 0.3456(4) 0.76348(18)
C3 C 0.7788(3) 0.3643(4) 0.8843(2)
C4 C 0.8236(4) 0.3534(5) 1.0078(2)
H1 H 0.7714(12) 0.3495(5) 1.0507(10)
H2 H 0.8483(6) 0.469(3) 1.0000(2)
C5 C 0.9340(4) 0.2510(6) 1.0194(2)
H3 H 0.9094(7) 0.135(3) 1.0262(15)
H4 H 0.9779(17) 0.290(2) 1.0621(14)
H5 H 0.9883(18) 0.259(3) 0.9775(11)
H6 H 0.658(4) 0.212(5) 0.845(2)
#END
