
#######################################################################
#
#                 Cambridge Crystallographic Data Centre
#                                CCDC
#
#######################################################################
#
# If this CIF has been generated from an entry in the Cambridge
# Structural Database, then it will include bibliographic, chemical,
# crystal, experimental, refinement or atomic coordinate data resulting
# from the CCDC's data processing and validation procedures.
#
#######################################################################

data_CSD_CIF_GIGLEN10
_audit_creation_date 1993-03-24
_audit_creation_method CSD-ConQuest-V1
_database_code_CSD GIGLEN10
_chemical_formula_sum 'C26 H20 N6 O10'
_chemical_formula_moiety
;
C26 H20 N6 O10
;
_journal_coden_Cambridge 423
_journal_volume 256
_journal_year 1992
_journal_page_first 2001
_journal_name_full 'J.Chem.Res. '
loop_
_publ_author_name
"R.N.Butler"
"D.Cunningham"
"E.G.Marren"
"P.McArdle"
"D.F.O'Shea"
_chemical_name_systematic
;
2,3-endo-4,5-exo-3a-(4-Cyanobutyl)-3,3a,4,5-tetrahydro-2H-isoxazolo(2,3-b)isox
azole-2,3:4,5-bis(N-(p-nitrophenyl)dicarboximide)
;
_chemical_melting_point 451.15
_cell_volume   5906.812
_exptl_crystal_density_diffrn 1.3
_exptl_special_details
;
Melting point range 451.15-453.15K

;
_diffrn_ambient_temperature ?
_diffrn_special_details
;
The study was carried out at room temperature,in the range 283-303K

;
#These two values have been output from a single CSD field.
_refine_ls_R_factor_gt 0.1328
_refine_ls_wR_factor_gt 0.1328
_symmetry_cell_setting monoclinic
_symmetry_space_group_name_H-M 'C 2/c'
_symmetry_Int_Tables_number 15
loop_
_symmetry_equiv_pos_site_id
_symmetry_equiv_pos_as_xyz
1 x,y,z
2 1/2+x,1/2+y,z
3 -x,y,1/2-z
4 1/2-x,1/2+y,1/2-z
5 -x,-y,-z
6 -1/2-x,-1/2-y,-z
7 x,-y,-1/2+z
8 -1/2+x,-1/2-y,-1/2+z
_cell_length_a 27.524(6)
_cell_length_b 10.351(3)
_cell_length_c 20.745(5)
_cell_angle_alpha 90
_cell_angle_beta 91.96(2)
_cell_angle_gamma 90
_cell_formula_units_Z 8
loop_
_atom_type_symbol
_atom_type_radius_bond
C 0.68
H 0.23
N 0.68
O 0.68
loop_
_atom_site_label
_atom_site_type_symbol
_atom_site_fract_x
_atom_site_fract_y
_atom_site_fract_z
O1 O 0.2242(2) 0.2776(6) 0.2292(3)
O2 O 0.2762(3) 0.4511(7) 0.2301(3)
O3 O -0.0663(4) 0.3636(13) 0.4491(5)
O4 O -0.0412(3) 0.5654(12) 0.4579(4)
O5 O 0.1484(3) 0.1920(7) 0.3177(3)
O6 O 0.0871(2) 0.5111(7) 0.1878(3)
O7 O 0.3499(3) 0.2678(7) 0.1806(4)
O8 O 0.2088(2) 0.2509(7) 0.0599(3)
O9 O 0.3036(4) -0.3500(8) 0.0437(4)
O10 O 0.3773(4) -0.2900(8) 0.0255(4)
N1 N 0.2265(3) 0.4220(8) 0.2362(3)
N2 N -0.0398(4) 0.4527(16) 0.4362(5)
N3 N 0.1084(3) 0.3572(7) 0.2618(3)
N4 N 0.2852(3) 0.2395(7) 0.1087(3)
N5 N 0.3356(5) -0.2689(9) 0.0421(4)
N6 N 0.0840(5) 1.0570(14) 0.1856(7)
C1 C 0.1743(3) 0.2571(8) 0.2120(4)
C2 C 0.1578(3) 0.3736(8) 0.1714(4)
C3 C 0.2016(4) 0.4618(9) 0.1738(4)
C4 C 0.2413(3) 0.4325(9) 0.1238(4)
C5 C 0.289(64) 0.4347(10) 0.1642(4)
C6 C 0.0005(4) 0.4274(15) 0.3895(5)
C7 C 0.0043(4) 0.3048(13) 0.3661(5)
C8 C 0.0406(4) 0.2841(11) 0.3246(5)
C9 C 0.0708(4) 0.3829(10) 0.3056(4)
C10 C 0.0659(4) 0.5000(11) 0.3307(5)
C11 C 0.0300(4) 0.5225(13) 0.3745(5)
C12 C 0.1432(4) 0.2614(9) 0.2698(4)
C13 C 0.1143(4) 0.4233(10) 0.2057(4)
C14 C 0.3135(4) 0.3069(10) 0.1527(5)
C15 C 0.2408(4) 0.2995(9) 0.0919(4)
C16 C 0.2966(4) 0.1102(10) 0.0899(4)
C17 C 0.2667(4) 0.0097(11) 0.1061(5)
C18 C 0.2781(4) -0.1142(11) 0.0880(6)
C19 C 0.3214(5) -0.1343(10) 0.0594(5)
C20 C 0.3520(4) -0.0376(10) 0.0438(4)
C21 C 0.3397(4) 0.0856(10) 0.0595(4)
C22 C 0.1927(4) 0.6060(9) 0.1804(4)
C23 C 0.1681(4) 0.6694(8) 0.1199(5)
C24 C 0.1526(4) 0.8094(10) 0.1323(5)
C25 C 0.1044(4) 0.8184(10) 0.1646(6)
C26 C 0.0922(5) 0.9527(14) 0.1764(7)
H1 H 0.17100 0.16600 0.18700
H2 H 0.14700 0.35900 0.12100
H3 H 0.23600 0.50200 0.08500
H4 H 0.31400 0.51100 0.15200
H5 H -0.02000 0.22900 0.38000
H6 H 0.04600 0.18800 0.30600
H7 H 0.09000 0.57700 0.31700
H8 H 0.02600 0.61600 0.39700
H9 H 0.23500 0.02800 0.13300
H10 H 0.25400 -0.19400 0.09600
H11 H 0.38500 -0.05800 0.02000
H12 H 0.36300 0.16500 0.04800
H13 H 0.16900 0.62100 0.22100
H14 H 0.22700 0.65300 0.19000
H15 H 0.19300 0.66800 0.08100
H16 H 0.13600 0.61400 0.10600
H17 H 0.15000 0.86000 0.08700
H18 H 0.18000 0.85500 0.16300
H19 H 0.10600 0.76600 0.21000
H20 H 0.07600 0.77700 0.13300
#END
