
#######################################################################
#
#                 Cambridge Crystallographic Data Centre
#                                CCDC
#
#######################################################################
#
# If this CIF has been generated from an entry in the Cambridge
# Structural Database, then it will include bibliographic, chemical,
# crystal, experimental, refinement or atomic coordinate data resulting
# from the CCDC's data processing and validation procedures.
#
#######################################################################

data_CSD_CIF_GIGQUI01
_audit_creation_date 2011-08-15
_audit_creation_method CSD-ConQuest-V1
_database_code_CSD GIGQUI01
_database_code_depnum_ccdc_archive 'CCDC 798665'
_chemical_formula_sum 'C9 H9 N3 O9'
_chemical_formula_moiety
;
C9 H9 N3 O9
;
_journal_coden_Cambridge 1003
_journal_volume 41
_journal_year 2011
_journal_page_first 971
_journal_name_full 'J.Chem.Cryst. '
loop_
_publ_author_name
"J.R.Deschamps"
"N.A.Straessler"
_chemical_name_systematic
;
1,3,5-Trimethoxy-2,4,6-trinitrobenzene
;
_cell_volume   1244.257
_exptl_crystal_colour 'colorless'
_exptl_crystal_density_diffrn 1.619
_exptl_crystal_description 'thick plate'
_diffrn_ambient_temperature 223
#These two values have been output from a single CSD field.
_refine_ls_R_factor_gt 0.0658
_refine_ls_wR_factor_gt 0.0658
_symmetry_cell_setting monoclinic
_symmetry_space_group_name_H-M 'P 21/c'
_symmetry_Int_Tables_number 14
loop_
_symmetry_equiv_pos_site_id
_symmetry_equiv_pos_as_xyz
1 x,y,z
2 -x,1/2+y,1/2-z
3 -x,-y,-z
4 x,-1/2-y,-1/2+z
_cell_length_a 15.9046(9)
_cell_length_b 9.4623(5)
_cell_length_c 8.2880(4)
_cell_angle_alpha 90
_cell_angle_beta 94.000(1)
_cell_angle_gamma 90
_cell_formula_units_Z 4
loop_
_atom_type_symbol
_atom_type_radius_bond
C 0.68
H 0.23
N 0.68
O 0.68
loop_
_atom_site_label
_atom_site_type_symbol
_atom_site_fract_x
_atom_site_fract_y
_atom_site_fract_z
O1 O 0.92676(8) 0.04034(17) 0.2590(2)
C1 C 0.84552(12) 0.0056(2) 0.2465(2)
C2 C 0.99148(14) -0.0651(3) 0.2512(4)
H1 H 1.03860 -0.02600 0.19780
H2 H 0.96910 -0.14610 0.19070
H3 H 1.01040 -0.09450 0.35990
O2 O 0.85840(13) -0.33199(18) 0.4008(2)
N1 N 0.85880(12) -0.2059(2) 0.4267(2)
C3 C 0.80898(12) -0.1126(2) 0.3165(2)
O3 O 0.89523(15) -0.1504(2) 0.5438(2)
O4 O 0.68747(10) -0.24943(16) 0.37307(18)
C4 C 0.72236(13) -0.1381(2) 0.2986(2)
C5 C 0.67443(19) -0.3755(3) 0.2740(3)
H4 H 0.63770 -0.44040 0.32630
H5 H 0.72820 -0.42090 0.26090
H6 H 0.64860 -0.34940 0.16870
N2 N 0.57989(11) -0.0623(2) 0.2049(2)
C6 C 0.67163(11) -0.0400(2) 0.2153(2)
O5 O 0.54000(12) -0.0069(3) 0.3033(3)
O6 O 0.54898(12) -0.1356(4) 0.0994(3)
O7 O 0.65392(9) 0.16551(16) 0.04847(17)
C7 C 0.70379(12) 0.0794(2) 0.1444(2)
C8 C 0.60967(16) 0.2754(3) 0.1278(3)
H7 H 0.58220 0.33730 0.04710
H8 H 0.64930 0.32940 0.19720
H9 H 0.56770 0.23330 0.19230
N3 N 0.82563(11) 0.2189(2) 0.0761(2)
C9 C 0.79059(12) 0.0981(2) 0.1600(2)
O8 O 0.80385(13) 0.33657(19) 0.1134(3)
O9 O 0.87370(15) 0.1945(2) -0.0262(3)
#END
