
#######################################################################
#
#                 Cambridge Crystallographic Data Centre
#                                CCDC
#
#######################################################################
#
# If this CIF has been generated from an entry in the Cambridge
# Structural Database, then it will include bibliographic, chemical,
# crystal, experimental, refinement or atomic coordinate data resulting
# from the CCDC's data processing and validation procedures.
#
#######################################################################

data_CSD_CIF_GIGSUK
_audit_creation_date 1989-06-23
_audit_creation_method CSD-ConQuest-V1
_database_code_CSD GIGSUK
_chemical_formula_sum 'C14 H11 N1 O2'
_chemical_formula_moiety
;
C14 H11 N1 O2
;
_journal_coden_Cambridge 388
_journal_volume 23
_journal_year 1987
_journal_page_first 1805
_journal_name_full 'Zh.Org.Khim.(Russ.)(Russ.J.Org.Chem.) '
loop_
_publ_author_name
"Z.V.Todres"
"G.V.Gridunova"
"K.I.Dyusengaliev"
"Yu.T.Struchkov"
_chemical_name_systematic
;
cis-2-Nitrostilbene
;
_cell_volume   2293.154
_exptl_crystal_density_diffrn 1.31
_diffrn_ambient_temperature ?
_diffrn_special_details
;
The study was carried out at room temperature,in the range 283-303K

;
#These two values have been output from a single CSD field.
_refine_ls_R_factor_gt 0.049
_refine_ls_wR_factor_gt 0.049
_symmetry_cell_setting orthorhombic
_symmetry_space_group_name_H-M 'P b c a'
_symmetry_Int_Tables_number 61
loop_
_symmetry_equiv_pos_site_id
_symmetry_equiv_pos_as_xyz
1 x,y,z
2 1/2-x,1/2+y,z
3 x,1/2-y,1/2+z
4 1/2-x,-y,1/2+z
5 -x,-y,-z
6 -1/2+x,-1/2-y,-z
7 -x,-1/2+y,-1/2-z
8 -1/2+x,y,-1/2-z
_cell_length_a 14.6840(7)
_cell_length_b 25.3773(9)
_cell_length_c 6.1538(4)
_cell_angle_alpha 90
_cell_angle_beta 90
_cell_angle_gamma 90
_cell_formula_units_Z 8
loop_
_atom_type_symbol
_atom_type_radius_bond
C 0.68
H 0.23
N 0.68
O 0.68
loop_
_atom_site_label
_atom_site_type_symbol
_atom_site_fract_x
_atom_site_fract_y
_atom_site_fract_z
O1 O 0.7937(2) 0.1647(1) -0.0080(5)
O2 O 0.7496(2) 0.2261(1) -0.2224(5)
N1 N 0.7338(2) 0.1918(1) -0.0871(5)
C1 C 0.6396(3) 0.1841(1) -0.0163(6)
C2 C 0.5720(3) 0.2009(2) -0.1599(7)
C3 C 0.4829(3) 0.1935(2) -0.1023(7)
C4 C 0.4615(3) 0.1704(2) 0.0934(8)
C5 C 0.5293(3) 0.1538(2) 0.2315(7)
C6 C 0.6209(3) 0.1601(1) 0.1821(6)
C7 C 0.6900(3) 0.1467(2) 0.3490(7)
C8 C 0.7016(3) 0.1012(2) 0.4495(6)
C9 C 0.6598(3) 0.0495(1) 0.4117(6)
C10 C 0.6608(3) 0.0118(2) 0.5757(7)
C11 C 0.6278(3) -0.0376(2) 0.5446(7)
C12 C 0.5927(3) -0.0523(2) 0.3471(8)
C13 C 0.5919(3) -0.0165(2) 0.1802(7)
C14 C 0.6249(3) 0.0338(2) 0.2104(7)
H1 H 0.588(2) 0.215(1) -0.286(6)
H2 H 0.436(2) 0.202(1) -0.204(6)
H3 H 0.403(2) 0.166(1) 0.129(5)
H4 H 0.515(2) 0.142(1) 0.367(6)
H5 H 0.729(2) 0.176(1) 0.383(5)
H6 H 0.750(3) 0.100(1) 0.567(5)
H7 H 0.689(2) 0.023(1) 0.707(6)
H8 H 0.631(2) -0.064(1) 0.634(5)
H9 H 0.568(2) -0.085(1) 0.327(6)
H10 H 0.565(2) -0.022(1) 0.056(6)
H11 H 0.620(2) 0.058(1) 0.111(5)
#END
