
#######################################################################
#
#                 Cambridge Crystallographic Data Centre
#                                CCDC
#
#######################################################################
#
# If this CIF has been generated from an entry in the Cambridge
# Structural Database, then it will include bibliographic, chemical,
# crystal, experimental, refinement or atomic coordinate data resulting
# from the CCDC's data processing and validation procedures.
#
#######################################################################

data_CSD_CIF_GIGZOM
_audit_creation_date 2007-09-04
_audit_creation_method CSD-ConQuest-V1
_database_code_CSD GIGZOM
_database_code_depnum_ccdc_archive 'CCDC 651364'
_chemical_formula_sum 'C14 H16 N2 O1'
_chemical_formula_moiety
;
C14 H16 N2 O1
;
_journal_coeditor_code "IUCr AT2282"
_journal_coden_Cambridge 1370
_journal_volume 63
_journal_year 2007
_journal_page_first o2780
_journal_name_full 'Acta Crystallogr.,Sect.E:Struct.Rep.Online '
loop_
_publ_author_name
"A.Thiruvalluvar"
"M.Subramanyam"
"R.T.S.Mohan"
"S.Kamatchi"
"K.Murugavel"
_chemical_name_systematic
;
3-Hydroxyimino-1-methyl-5-phenylcyclohexane-1-carbonitrile
;
_chemical_melting_point 449
_cell_volume   1228.276
_exptl_crystal_colour 'colorless'
_exptl_crystal_density_diffrn 1.235
_exptl_crystal_description 'block'
_diffrn_ambient_temperature 160.0
#These two values have been output from a single CSD field.
_refine_ls_R_factor_gt 0.0591
_refine_ls_wR_factor_gt 0.0591
_symmetry_cell_setting monoclinic
_symmetry_space_group_name_H-M 'P 21/n'
_symmetry_Int_Tables_number 14
loop_
_symmetry_equiv_pos_site_id
_symmetry_equiv_pos_as_xyz
1 x,y,z
2 1/2-x,1/2+y,1/2-z
3 -x,-y,-z
4 -1/2+x,-1/2-y,-1/2+z
_cell_length_a 6.6394(2)
_cell_length_b 14.6658(5)
_cell_length_c 12.6653(3)
_cell_angle_alpha 90
_cell_angle_beta 95.146(2)
_cell_angle_gamma 90
_cell_formula_units_Z 4
loop_
_atom_type_symbol
_atom_type_radius_bond
C 0.68
H 0.23
N 0.68
O 0.68
loop_
_atom_site_label
_atom_site_type_symbol
_atom_site_fract_x
_atom_site_fract_y
_atom_site_fract_z
O1 O 0.20084(18) 0.49328(7) -0.06439(9)
N1 N 0.13724(19) 0.41986(8) -0.00310(9)
N2 N 0.2380(2) 0.23128(12) -0.26976(11)
C1 C 0.2597(2) 0.35272(9) 0.00221(11)
C2 C 0.4533(2) 0.3480(1) -0.04978(12)
C3 C 0.4888(2) 0.25392(9) -0.09912(11)
C4 C 0.4514(2) 0.17716(9) -0.01999(11)
C5 C 0.2397(2) 0.18121(9) 0.01813(10)
C6 C 0.2112(2) 0.27419(9) 0.07144(11)
C7 C 0.7058(2) 0.25006(11) -0.13174(13)
C8 C 0.1935(2) 0.10561(9) 0.09409(11)
C9 C 0.3403(3) 0.06703(11) 0.16485(12)
C10 C 0.2892(3) 0.00186(12) 0.23784(14)
C11 C 0.0913(3) -0.02518(11) 0.24113(13)
C12 C -0.0553(3) 0.01230(12) 0.17107(14)
C13 C -0.0048(2) 0.07656(11) 0.09776(13)
C14 C 0.3463(2) 0.24197(11) -0.19548(12)
H1 H 0.097(4) 0.5381(16) -0.0536(16)
H2 H 0.56521 0.36168 0.00241
H3 H 0.45126 0.39411 -0.10477
H4 H 0.46953 0.11866 -0.05358
H5 H 0.55085 0.18172 0.04073
H6 H 0.14139 0.17711 -0.04420
H7 H 0.07228 0.27958 0.08869
H8 H 0.29793 0.27701 0.13721
H9 H 0.72880 0.19193 -0.16337
H10 H 0.79959 0.25823 -0.07026
H11 H 0.72469 0.29761 -0.18200
H12 H 0.47452 0.08484 0.16364
H13 H 0.38959 -0.02360 0.28471
H14 H 0.05733 -0.06836 0.29030
H15 H -0.18938 -0.00555 0.17280
H16 H -0.10563 0.10071 0.05012
#END
