
#######################################################################
#
#                 Cambridge Crystallographic Data Centre
#                                CCDC
#
#######################################################################
#
# If this CIF has been generated from an entry in the Cambridge
# Structural Database, then it will include bibliographic, chemical,
# crystal, experimental, refinement or atomic coordinate data resulting
# from the CCDC's data processing and validation procedures.
#
#######################################################################

data_CSD_CIF_GIHPOC
_audit_creation_date 1989-04-05
_audit_creation_method CSD-ConQuest-V1
_database_code_CSD GIHPOC
_chemical_formula_sum 'C12 H20 N4 O6'
_chemical_formula_moiety
;
C12 H20 N4 O6
;
_journal_coden_Cambridge 580
_journal_volume 4
_journal_year 1985
_journal_page_first 1941
_journal_name_full 'Polyhedron '
loop_
_publ_author_name
"Kwok W.Chiu"
"P.D.Savage"
"G.Wilkinson"
"D.J.Williams"
_chemical_name_systematic
;
bis(1-Nitroso-2-nitro-cyclohexane)
;
_chemical_name_common
;
2,2'-Dinitroazocyclohexane N,N'-dioxide
;
_chemical_melting_point 409.15
_cell_volume   1570.238
_exptl_crystal_density_diffrn 1.34
_exptl_special_details
;
In bond table C2-N7 should read C2-C7

;
_diffrn_ambient_temperature ?
_diffrn_special_details
;
The study was carried out at room temperature,in the range 283-303K

;
#These two values have been output from a single CSD field.
_refine_ls_R_factor_gt 0.038
_refine_ls_wR_factor_gt 0.038
_symmetry_cell_setting monoclinic
_symmetry_space_group_name_H-M 'C 2/c'
_symmetry_Int_Tables_number 15
loop_
_symmetry_equiv_pos_site_id
_symmetry_equiv_pos_as_xyz
1 x,y,z
2 1/2+x,1/2+y,z
3 -x,y,1/2-z
4 1/2-x,1/2+y,1/2-z
5 -x,-y,-z
6 -1/2-x,-1/2-y,-z
7 x,-y,-1/2+z
8 -1/2+x,-1/2-y,-1/2+z
_cell_length_a 14.438(2)
_cell_length_b 12.382(1)
_cell_length_c 11.706(2)
_cell_angle_alpha 90
_cell_angle_beta 131.38(1)
_cell_angle_gamma 90
_cell_formula_units_Z 4
loop_
_atom_type_symbol
_atom_type_radius_bond
C 0.68
H 0.23
N 0.68
O 0.68
loop_
_atom_site_label
_atom_site_type_symbol
_atom_site_fract_x
_atom_site_fract_y
_atom_site_fract_z
N1 N 0.4883(1) 0.4179(1) 0.1859(2)
O1 O 0.5752(1) 0.4179(1) 0.1833(1)
C1 C 0.3565(2) 0.4189(2) 0.0430(2)
C2 C 0.3465(2) 0.3765(2) -0.0851(2)
C3 C 0.2111(2) 0.3716(2) -0.2311(2)
C4 C 0.1554(2) 0.4833(2) -0.2689(3)
C5 C 0.1706(2) 0.5326(2) -0.1389(3)
C6 C 0.3054(2) 0.5336(2) 0.0069(3)
N2 N 0.4021(2) 0.2653(1) -0.0498(2)
O2 O 0.3977(2) 0.2055(1) 0.0284(2)
O3 O 0.4493(2) 0.2412(2) -0.1030(2)
H1 H 0.30940 0.37410 0.05540
H2 H 0.39120 0.42450 -0.09800
H3 H 0.16730 0.32360 -0.21680
H4 H 0.20510 0.34580 -0.31310
H5 H 0.19500 0.52910 -0.29170
H6 H 0.06890 0.47850 -0.35650
H7 H 0.14040 0.60550 -0.16510
H8 H 0.12400 0.49120 -0.12280
H9 H 0.35160 0.57940 -0.00590
H10 H 0.31210 0.56040 0.08900
N1B N 0.5117(1) 0.4179(1) 0.3141(2)
O1B O 0.4248(1) 0.4179(1) 0.3167(1)
C1B C 0.6435(2) 0.4189(2) 0.4570(2)
C2B C 0.6535(2) 0.3765(2) 0.5851(2)
C6B C 0.6946(2) 0.5336(2) 0.4931(3)
H1B H 0.69060 0.37410 0.44460
C3B C 0.7889(2) 0.3716(2) 0.7311(2)
N2B N 0.5979(2) 0.2653(1) 0.5498(2)
H2B H 0.60880 0.42450 0.59800
C5B C 0.8294(2) 0.5326(2) 0.6389(3)
H9B H 0.64840 0.57940 0.50590
H10B H 0.68790 0.56040 0.41100
C4B C 0.8446(2) 0.4833(2) 0.7689(3)
H3B H 0.83270 0.32360 0.71680
H4B H 0.79490 0.34580 0.81310
O2B O 0.6023(2) 0.2055(1) 0.4716(2)
O3B O 0.5507(2) 0.2412(2) 0.6030(2)
H7B H 0.85960 0.60550 0.66510
H8B H 0.87600 0.49120 0.62280
H5B H 0.80500 0.52910 0.79170
H6B H 0.93110 0.47850 0.85650
#END
