
#######################################################################
#
#                 Cambridge Crystallographic Data Centre
#                                CCDC
#
#######################################################################
#
# If this CIF has been generated from an entry in the Cambridge
# Structural Database, then it will include bibliographic, chemical,
# crystal, experimental, refinement or atomic coordinate data resulting
# from the CCDC's data processing and validation procedures.
#
#######################################################################

data_CSD_CIF_GIHSUL
_audit_creation_date 1989-05-23
_audit_creation_method CSD-ConQuest-V1
_database_code_CSD GIHSUL
_database_code_depnum_ccdc_archive 'CCDC 1167793'
_chemical_formula_sum 'C19 H21 N3 O5'
_chemical_formula_moiety
;
C19 H21 N3 O5
;
_journal_coden_Cambridge 10
_journal_volume 71
_journal_year 1988
_journal_page_first 822
_journal_name_full 'Helv.Chim.Acta '
loop_
_publ_author_name
"H.Fritz"
"J.-M.Henlin"
"A.Riesen"
"T.Tschamber"
"M.Zehnder"
"J.Streith"
_chemical_name_systematic
;
Ethyl 
3-benzoyl-2\a,3,5\a,5a\a,6a\a,6\b,7-hexahydro-6\a,9-dimethyl-7-oxo-1H-2\b,5\b-
ethenoazetidino(1,2-e)(1,2,4,5) oxatriazepine-1-carboxylate
;
_chemical_melting_point 457.15
_cell_volume   1837.775
_exptl_crystal_colour 'colorless'
_diffrn_ambient_temperature ?
_diffrn_special_details
;
The study was carried out at room temperature,in the range 283-303K

;
#These two values have been output from a single CSD field.
_refine_ls_R_factor_gt 0.087
_refine_ls_wR_factor_gt 0.087
_symmetry_cell_setting monoclinic
_symmetry_space_group_name_H-M 'P 21/n'
_symmetry_Int_Tables_number 14
loop_
_symmetry_equiv_pos_site_id
_symmetry_equiv_pos_as_xyz
1 x,y,z
2 1/2-x,1/2+y,1/2-z
3 -x,-y,-z
4 -1/2+x,-1/2-y,-1/2+z
_cell_length_a 7.729(2)
_cell_length_b 5.818(5)
_cell_length_c 40.879(12)
_cell_angle_alpha 90
_cell_angle_beta 91.26(2)
_cell_angle_gamma 90
_cell_formula_units_Z 4
loop_
_atom_type_symbol
_atom_type_radius_bond
C 0.68
H 0.23
N 0.68
O 0.68
loop_
_atom_site_label
_atom_site_type_symbol
_atom_site_fract_x
_atom_site_fract_y
_atom_site_fract_z
N1 N 0.2887(9) 0.0159(13) 0.0652(2)
N2 N 0.2925(9) -0.0855(12) 0.0961(2)
C1 C 0.1506(12) -0.0303(17) 0.1175(2)
H1 H 0.1277(81) -0.148(11) 0.1322(16)
C2 C -0.0177(12) 0.0035(17) 0.0983(2)
H2 H -0.1144(90) -0.104(13) 0.1023(17)
C3 C -0.0393(11) 0.2021(15) 0.0824(2)
C4 C 0.1140(13) 0.3516(15) 0.0812(2)
H3 H 0.111(13) 0.456(18) 0.0759(24)
C5 C 0.2557(11) 0.2628(16) 0.0586(2)
H4 H 0.371(12) 0.343(18) 0.0613(26)
C6 C 0.2041(14) 0.1846(15) 0.0235(2)
H5 H 0.1042(94) 0.220(14) 0.0177(18)
C7 C 0.2126(12) -0.0646(18) 0.0365(2)
N3 N 0.1869(10) 0.1899(13) 0.1352(2)
O1 O 0.2079(8) 0.3747(10) 0.1134(2)
C8 C 0.4501(13) -0.1838(16) 0.1054(2)
O2 O 0.5655(8) -0.2202(13) 0.0874(2)
O3 O 0.4471(7) -0.2350(12) 0.1376(1)
C9 C 0.5900(14) -0.3760(25) 0.1488(3)
H6 H 0.7054(14) -0.2720(25) 0.1509(3)
H7 H 0.6100(14) -0.5125(25) 0.1314(3)
C10 C 0.5564(25) -0.4652(41) 0.1777(5)
H8 H 0.6644(25) -0.5677(41) 0.1865(5)
H9 H 0.4372(25) -0.5390(41) 0.1862(5)
H10 H 0.5696(25) -0.2920(41) 0.1870(5)
C11 C -0.2058(11) 0.2728(19) 0.0657(2)
H11 H -0.1781(11) 0.4414(19) 0.0561(2)
H12 H -0.3103(11) 0.2846(19) 0.0827(2)
H13 H -0.2430(11) 0.1595(19) 0.0458(2)
C12 C 0.3227(13) 0.2515(19) -0.0036(2)
H14 H 0.2894(13) 0.1639(19) -0.0261(2)
H15 H 0.4518(13) 0.2029(19) 0.0044(2)
H16 H 0.3176(13) 0.4350(19) -0.0075(2)
O4 O 0.1784(8) -0.2515(11) 0.0266(1)
C13 C 0.0722(12) 0.2527(19) 0.1601(2)
O5 O 0.002(1) 0.4399(13) 0.1613(2)
C14 C 0.0604(14) 0.0798(18) 0.1873(2)
C15 C 0.1927(15) -0.0590(19) 0.1972(2)
H17 H 0.3138(15) -0.0509(19) 0.1845(2)
C16 C 0.1767(15) -0.2118(21) 0.2232(2)
H18 H 0.2823(15) -0.3267(21) 0.2305(2)
C17 C 0.0201(17) -0.2156(21) 0.2397(3)
H19 H 0.0047(17) -0.3280(21) 0.2604(3)
C18 C -0.1094(18) -0.0817(27) 0.2298(3)
H20 H -0.2314(18) -0.0925(27) 0.2421(3)
C19 C -0.0924(17) 0.0704(24) 0.2044(3)
H21 H -0.1985(17) 0.1831(24) 0.1977(3)
#END
