
#######################################################################
#
#                 Cambridge Crystallographic Data Centre
#                                CCDC
#
#######################################################################
#
# If this CIF has been generated from an entry in the Cambridge
# Structural Database, then it will include bibliographic, chemical,
# crystal, experimental, refinement or atomic coordinate data resulting
# from the CCDC's data processing and validation procedures.
#
#######################################################################

data_CSD_CIF_GIHTAS
_audit_creation_date 1989-04-05
_audit_creation_method CSD-ConQuest-V1
_database_code_CSD GIHTAS
_database_code_depnum_ccdc_archive 'CCDC 1167794'
_chemical_formula_sum 'C19 H23 N3 O7'
_chemical_formula_moiety
;
C19 H23 N3 O7
;
_journal_coden_Cambridge 10
_journal_volume 71
_journal_year 1988
_journal_page_first 822
_journal_name_full 'Helv.Chim.Acta '
loop_
_publ_author_name
"H.Fritz"
"J.-M.Henlin"
"A.Riesen"
"T.Tschamber"
"M.Zehnder"
"J.Streith"
_chemical_name_systematic
;
Ethyl 
2\b(4'\a-(benzoyloxy)-5',6'-dihydro-5'\a-hydroxy-5'\b-methyl-4'H-17,2'-oxazin-
6'-yl)-3\a-methyl-4-oxo-azetidine-1-carbamate
;
_chemical_melting_point 446.15
_cell_volume    993.057
_exptl_crystal_colour 'colorless'
_exptl_special_details
;
Melting point range 446.15-447.15K

;
_diffrn_ambient_temperature ?
_diffrn_special_details
;
The study was carried out at room temperature,in the range 283-303K

;
#These two values have been output from a single CSD field.
_refine_ls_R_factor_gt 0.052
_refine_ls_wR_factor_gt 0.052
_symmetry_cell_setting triclinic
_symmetry_space_group_name_H-M 'P -1'
_symmetry_Int_Tables_number 2
loop_
_symmetry_equiv_pos_site_id
_symmetry_equiv_pos_as_xyz
1 x,y,z
2 -x,-y,-z
_cell_length_a 7.737(4)
_cell_length_b 11.292(3)
_cell_length_c 12.388(3)
_cell_angle_alpha 112.24(2)
_cell_angle_beta 92.75(2)
_cell_angle_gamma 95.47(2)
_cell_formula_units_Z 2
loop_
_atom_type_symbol
_atom_type_radius_bond
C 0.68
H 0.23
N 0.68
O 0.68
loop_
_atom_site_label
_atom_site_type_symbol
_atom_site_fract_x
_atom_site_fract_y
_atom_site_fract_z
C1 C 0.9824(7) 0.6754(7) 0.1207(6)
C2 C 0.7963(7) 0.6426(7) 0.1195(5)
O1 O 0.7557(4) 0.6590(3) 0.2376(3)
C3 C 0.6042(5) 0.5997(4) 0.2480(4)
O2 O 0.4950(4) 0.5381(3) 0.1688(3)
N1 N 0.5884(5) 0.6196(4) 0.3613(3)
N2 N 0.4385(4) 0.5635(3) 0.3884(3)
C4 C 0.3894(5) 0.4349(4) 0.3534(3)
O3 O 0.4740(4) 0.3452(3) 0.3275(3)
C5 C 0.1983(5) 0.4523(4) 0.3543(4)
C6 C 0.0913(9) 0.376(6) 0.2386(6)
C7 C 0.2590(5) 0.5963(4) 0.3815(4)
C8 C 0.2013(4) 0.6914(4) 0.4929(4)
O4 O 0.0168(3) 0.6839(2) 0.4612(2)
N3 N -0.0818(4) 0.7759(4) 0.5318(3)
C9 C 0.0(6) 0.8743(5) 0.6143(4)
C10 C 0.1938(5) 0.9066(4) 0.6434(4)
C11 C 0.2881(5) 0.8309(3) 0.5378(3)
O5 O 0.4678(3) 0.8368(3) 0.5705(3)
C12 C 0.2752(7) 0.8889(5) 0.4465(5)
O6 O 0.2446(3) 0.8695(2) 0.7387(2)
C13 C 0.2158(5) 0.9514(4) 0.8483(4)
O7 O 0.1462(4) 1.0470(3) 0.8624(3)
C14 C 0.2768(5) 0.9101(4) 0.9412(4)
C15 C 0.2723(6) 0.9934(5) 1.0579(5)
C16 C 0.3341(7) 0.9599(7) 1.1461(5)
C17 C 0.3982(7) 0.8427(7) 1.1217(5)
C18 C 0.4010(6) 0.7610(6) 1.0089(4)
C19 C 0.3431(5) 0.7939(5) 0.9188(4)
H1 H 1.0121(52) 0.6746(39) 0.0433(40)
H2 H 1.0546(66) 0.6161(47) 0.1408(43)
H3 H 1.0311(62) 0.7564(49) 0.1964(46)
H4 H 0.7281(68) 0.6900(51) 0.0963(47)
H5 H 0.7525(66) 0.5548(51) 0.0691(47)
H6 H 0.6582(51) 0.6766(37) 0.4156(35)
H7 H 0.1510(43) 0.4468(32) 0.4191(31)
H8 H -0.0294(67) 0.4010(44) 0.248(4)
H9 H 0.1553(69) 0.3957(50) 0.1789(48)
H10 H 0.0879(60) 0.2846(53) 0.2295(42)
H11 H 0.2311(40) 0.6153(31) 0.3178(29)
H12 H 0.2111(39) 0.6621(30) 0.5548(28)
H13 H -0.0766(52) 0.9353(39) 0.6574(34)
H14 H 0.2250(44) 0.9992(38) 0.6641(30)
H15 H 0.4817(59) 0.7924(45) 0.6136(41)
H16 H 0.3087(58) 0.9790(48) 0.4839(38)
H17 H 0.1480(58) 0.8771(37) 0.4105(35)
H18 H 0.3490(65) 0.8513(47) 0.3857(44)
H19 H 0.2200(54) 1.0713(42) 1.0623(38)
H20 H 0.3342(52) 1.0111(42) 1.2208(42)
H21 H 0.4336(53) 0.8285(41) 1.1938(42)
H22 H 0.4445(63) 0.6662(51) 0.9880(42)
H23 H 0.3489(46) 0.7404(37) 0.8436(36)
#END
