
#######################################################################
#
#                 Cambridge Crystallographic Data Centre
#                                CCDC
#
#######################################################################
#
# If this CIF has been generated from an entry in the Cambridge
# Structural Database, then it will include bibliographic, chemical,
# crystal, experimental, refinement or atomic coordinate data resulting
# from the CCDC's data processing and validation procedures.
#
#######################################################################

data_CSD_CIF_GIJDAG
_audit_creation_date 2013-09-12
_audit_creation_method CSD-ConQuest-V1
_database_code_CSD GIJDAG
_database_code_depnum_ccdc_archive 'CCDC 902248'
_chemical_formula_sum 'C41 H39 N1 O9'
_chemical_formula_moiety
;
C41 H39 N1 O9
;
_journal_coden_Cambridge 16
_journal_volume 69
_journal_year 2013
_journal_page_first 5144
_journal_name_full 'Tetrahedron '
loop_
_publ_author_name
"R.C.Jagdhane"
"M.T.Patil"
"S.Krishnaswamy"
"M.S.Shashidhar"
_chemical_name_systematic
;
2,3,4,5-tetrakis(benzyloxy)-6-hydroxycyclohexyl 4-nitrobenzoate
;
_cell_volume   3681.026
_exptl_crystal_colour 'colorless'
_exptl_crystal_density_diffrn 1.245
_exptl_crystal_description 'needle'
_diffrn_ambient_temperature 297
#These two values have been output from a single CSD field.
_refine_ls_R_factor_gt 0.1028
_refine_ls_wR_factor_gt 0.1028
_symmetry_cell_setting monoclinic
_symmetry_space_group_name_H-M 'P 21/c'
_symmetry_Int_Tables_number 14
loop_
_symmetry_equiv_pos_site_id
_symmetry_equiv_pos_as_xyz
1 x,y,z
2 -x,1/2+y,1/2-z
3 -x,-y,-z
4 x,-1/2-y,-1/2+z
_cell_length_a 18.144(4)
_cell_length_b 7.9967(19)
_cell_length_c 25.775(6)
_cell_angle_alpha 90
_cell_angle_beta 100.167(4)
_cell_angle_gamma 90
_cell_formula_units_Z 4
loop_
_atom_type_symbol
_atom_type_radius_bond
C 0.68
H 0.23
N 0.68
O 0.68
loop_
_atom_site_label
_atom_site_type_symbol
_atom_site_fract_x
_atom_site_fract_y
_atom_site_fract_z
O1 O 0.42311(13) 0.3413(3) 0.37120(9)
O2 O 0.29374(18) 0.4801(4) 0.40249(12)
O3 O 0.16193(14) 0.4754(3) 0.32176(11)
O4 O 0.18800(15) 0.5632(3) 0.22108(11)
O5 O 0.31172(17) 0.3911(4) 0.19192(11)
O6 O 0.44694(13) 0.4363(3) 0.26969(10)
O7 O 0.49497(17) 0.5574(4) 0.40642(12)
O8 O 0.68901(19) -0.0513(4) 0.56971(12)
O9 O 0.62993(18) -0.2401(4) 0.51970(12)
N1 N 0.64492(18) -0.0944(5) 0.53099(13)
C1 C 0.37124(19) 0.4454(4) 0.33620(14)
H1 H 0.38610 0.56300 0.34100
C2 C 0.37511(18) 0.3914(4) 0.28105(14)
H2 H 0.36940 0.26970 0.27860
C3 C 0.3143(2) 0.4730(4) 0.24108(14)
H3 H 0.32670 0.59110 0.23740
C4 C 0.2370(2) 0.4598(4) 0.25603(15)
H4 H 0.21970 0.34380 0.25120
C5 C 0.23494(19) 0.5124(4) 0.31218(15)
H5 H 0.24380 0.63310 0.31570
C6 C 0.2944(2) 0.4201(4) 0.35075(14)
H6 H 0.28260 0.30040 0.34940
C7 C 0.4809(2) 0.4109(5) 0.40279(14)
C8 C 0.52720(19) 0.2781(5) 0.43444(14)
C9 C 0.5777(2) 0.3236(5) 0.47889(15)
H7 H 0.58500 0.43590 0.48760
C10 C 0.6172(2) 0.2020(6) 0.51040(16)
H8 H 0.65070 0.23160 0.54060
C11 C 0.60607(19) 0.0368(5) 0.49643(14)
C12 C 0.5578(2) -0.0118(5) 0.45191(14)
H9 H 0.55190 -0.12400 0.44260
C13 C 0.5181(2) 0.1111(5) 0.42126(14)
H10 H 0.48470 0.08080 0.39110
C14 C 0.4871(2) 0.3037(5) 0.2526(2)
H11 H 0.46050 0.26120 0.21920
H12 H 0.49200 0.21360 0.27810
C15 C 0.5631(2) 0.3637(4) 0.24613(17)
C16 C 0.5836(3) 0.3665(5) 0.19749(18)
H13 H 0.54900 0.33610 0.16790
C17 C 0.6554(3) 0.4140(5) 0.1915(2)
H14 H 0.66860 0.41560 0.15830
C18 C 0.7063(3) 0.4581(5) 0.2348(3)
H15 H 0.75480 0.48760 0.23120
C19 C 0.6862(3) 0.4590(5) 0.2832(2)
H16 H 0.72060 0.49170 0.31260
C20 C 0.6154(2) 0.4119(5) 0.28876(18)
H17 H 0.60250 0.41250 0.32210
C21 C 0.3138(3) 0.4924(8) 0.14803(19)
H18 H 0.36540 0.51700 0.14530
H19 H 0.28830 0.59720 0.15160
C22 C 0.2759(3) 0.4012(10) 0.0994(2)
C23 C 0.2257(4) 0.4789(14) 0.0617(3)
H20 H 0.21510 0.59130 0.06610
C24 C 0.1908(6) 0.398(2) 0.0183(4)
H21 H 0.15860 0.45680 -0.00750
C25 C 0.2024(7) 0.232(2) 0.0121(5)
H22 H 0.17630 0.17590 -0.01710
C26 C 0.2527(6) 0.1448(14) 0.0489(4)
H23 H 0.26130 0.03140 0.04460
C27 C 0.2906(5) 0.2332(12) 0.0931(3)
H24 H 0.32560 0.17830 0.11810
C28 C 0.1303(2) 0.4825(7) 0.18679(18)
H25 H 0.09280 0.44240 0.20630
H26 H 0.15030 0.38710 0.17060
C29 C 0.0953(3) 0.603(1) 0.1449(2)
C30 C 0.1143(4) 0.7669(12) 0.1467(3)
H27 H 0.14970 0.80550 0.17470
C31 C 0.0822(6) 0.8803(15) 0.1076(4)
H28 H 0.09490 0.99310 0.10930
C32 C 0.0313(10) 0.817(3) 0.0671(8)
H29 H 0.01040 0.88830 0.04000
C33 C 0.0105(8) 0.660(3) 0.0645(7)
H30 H -0.02560 0.62420 0.03660
C34 C 0.0424(3) 0.5430(14) 0.1041(2)
H31 H 0.02820 0.43110 0.10240
C35 C 0.1328(2) 0.5852(5) 0.35708(19)
H32 H 0.16720 0.58710 0.39050
H33 H 0.08550 0.54070 0.36360
C36 C 0.1207(2) 0.7601(5) 0.33724(17)
C37 C 0.1490(2) 0.8961(6) 0.36725(19)
H34 H 0.17760 0.87810 0.40040
C38 C 0.1361(3) 1.0586(6) 0.3494(2)
H35 H 0.15560 1.14790 0.37060
C39 C 0.0952(3) 1.0877(6) 0.3011(2)
H36 H 0.08560 1.19660 0.28910
C40 C 0.0679(3) 0.9543(6) 0.2698(2)
H37 H 0.04100 0.97320 0.23620
C41 C 0.0803(2) 0.7926(5) 0.2880(2)
H38 H 0.06080 0.70390 0.26660
H39 H 0.309(3) 0.407(6) 0.4219(18)
#END
