
#######################################################################
#
#                 Cambridge Crystallographic Data Centre
#                                CCDC
#
#######################################################################
#
# If this CIF has been generated from an entry in the Cambridge
# Structural Database, then it will include bibliographic, chemical,
# crystal, experimental, refinement or atomic coordinate data resulting
# from the CCDC's data processing and validation procedures.
#
#######################################################################

data_CSD_CIF_GIJLOA
_audit_creation_date 1989-07-11
_audit_creation_method CSD-ConQuest-V1
_database_code_CSD GIJLOA
_database_code_depnum_ccdc_archive 'CCDC 1167860'
_chemical_formula_sum 'C17 H19 N1 O1'
_chemical_formula_moiety
;
C17 H19 N1 O1
;
_journal_coeditor_code "IUCr HU0170"
_journal_coden_Cambridge 591
_journal_volume 44
_journal_year 1988
_journal_page_first 1033
_journal_name_full 'Acta Crystallogr.,Sect.C:Cryst.Struct.Commun. '
loop_
_publ_author_name
"G.Bocelli"
"P.Sgarabotto"
"F.Ugozzolli"
_chemical_name_systematic
;
N-t-Butyldiphenyloxaziridine
;
_cell_volume   1448.051
_exptl_crystal_colour 'colorless'
_exptl_crystal_density_diffrn 1.16
_diffrn_ambient_temperature ?
_diffrn_special_details
;
The study was carried out at room temperature,in the range 283-303K

;
#These two values have been output from a single CSD field.
_refine_ls_R_factor_gt 0.035
_refine_ls_wR_factor_gt 0.035
_symmetry_cell_setting orthorhombic
_symmetry_space_group_name_H-M 'P 21 21 21'
_symmetry_Int_Tables_number 19
loop_
_symmetry_equiv_pos_site_id
_symmetry_equiv_pos_as_xyz
1 x,y,z
2 1/2+x,1/2-y,-z
3 -x,1/2+y,1/2-z
4 1/2-x,-y,1/2+z
_cell_length_a 14.110(4)
_cell_length_b 10.805(3)
_cell_length_c 9.498(2)
_cell_angle_alpha 90
_cell_angle_beta 90
_cell_angle_gamma 90
_cell_formula_units_Z 4
loop_
_atom_type_symbol
_atom_type_radius_bond
C 0.68
H 0.23
N 0.68
O 0.68
loop_
_atom_site_label
_atom_site_type_symbol
_atom_site_fract_x
_atom_site_fract_y
_atom_site_fract_z
O1 O 0.5662(1) 0.7064(2) 0.4645(2)
N1 N 0.6684(2) 0.6880(2) 0.5108(3)
C1 C 0.6166(2) 0.8023(3) 0.5367(3)
C2 C 0.5866(2) 0.8153(3) 0.6892(3)
C3 C 0.5780(2) 0.7101(3) 0.7714(3)
C4 C 0.5447(3) 0.7186(3) 0.9091(4)
C5 C 0.5201(3) 0.8313(4) 0.9641(4)
C6 C 0.5286(3) 0.9365(4) 0.8840(4)
C7 C 0.5621(3) 0.9288(3) 0.7459(3)
C8 C 0.6301(2) 0.9202(3) 0.4572(3)
C9 C 0.7043(2) 0.9991(3) 0.4901(3)
C10 C 0.7149(3) 1.1096(3) 0.4189(4)
C11 C 0.6521(3) 1.1422(4) 0.3156(4)
C12 C 0.5777(3) 1.0656(14) 0.2834(4)
C13 C 0.5654(3) 0.9541(3) 0.3540(3)
C14 C 0.7332(2) 0.6656(4) 0.3891(4)
C15 C 0.8314(3) 0.6887(8) 0.4489(7)
C16 C 0.7191(5) 0.5266(5) 0.3590(7)
C17 C 0.7182(4) 0.7370(5) 0.2536(5)
H1 H 0.597(2) 0.630(3) 0.732(3)
H2 H 0.538(3) 0.642(4) 0.964(4)
H3 H 0.493(3) 0.834(4) 1.060(4)
H4 H 0.511(3) 1.023(4) 0.919(4)
H5 H 0.570(2) 0.999(3) 0.692(4)
H6 H 0.752(3) 0.977(3) 0.568(4)
H7 H 0.769(2) 1.160(3) 0.443(4)
H8 H 0.660(3) 1.226(4) 0.257(4)
H9 H 0.539(3) 1.084(3) 0.224(4)
H10 H 0.512(2) 0.899(3) 0.333(3)
H11 H 0.841(3) 0.770(4) 0.468(5)
H12 H 0.890(3) 0.660(5) 0.369(5)
H13 H 0.841(3) 0.650(4) 0.542(4)
H14 H 0.652(4) 0.504(5) 0.327(7)
H15 H 0.717(4) 0.472(5) 0.455(7)
H16 H 0.760(4) 0.503(5) 0.285(6)
H17 H 0.652(3) 0.727(5) 0.218(5)
H18 H 0.765(3) 0.700(4) 0.178(5)
H19 H 0.745(3) 0.825(5) 0.263(5)
#END
