
#######################################################################
#
#                 Cambridge Crystallographic Data Centre
#                                CCDC
#
#######################################################################
#
# If this CIF has been generated from an entry in the Cambridge
# Structural Database, then it will include bibliographic, chemical,
# crystal, experimental, refinement or atomic coordinate data resulting
# from the CCDC's data processing and validation procedures.
#
#######################################################################

data_CSD_CIF_GIJLIU
_audit_creation_date 1989-07-11
_audit_creation_method CSD-ConQuest-V1
_database_code_CSD GIJLIU
_database_code_depnum_ccdc_archive 'CCDC 1167859'
_chemical_formula_sum 'C16 H17 N1 O1'
_chemical_formula_moiety
;
C16 H17 N1 O1
;
_journal_coeditor_code "IUCr HU0170"
_journal_coden_Cambridge 591
_journal_volume 44
_journal_year 1988
_journal_page_first 1033
_journal_name_full 'Acta Crystallogr.,Sect.C:Cryst.Struct.Commun. '
loop_
_publ_author_name
"G.Bocelli"
"P.Sgarabotto"
"F.Ugozzolli"
_chemical_name_systematic
;
N-Isopropyldiphenyloxaziridine
;
_cell_volume   1392.217
_exptl_crystal_colour 'colorless'
_exptl_crystal_density_diffrn 1.14
_diffrn_ambient_temperature ?
_diffrn_special_details
;
The study was carried out at room temperature,in the range 283-303K

;
#These two values have been output from a single CSD field.
_refine_ls_R_factor_gt 0.041
_refine_ls_wR_factor_gt 0.041
_symmetry_cell_setting orthorhombic
_symmetry_space_group_name_H-M 'P 21 21 21'
_symmetry_Int_Tables_number 19
loop_
_symmetry_equiv_pos_site_id
_symmetry_equiv_pos_as_xyz
1 x,y,z
2 1/2+x,1/2-y,-z
3 -x,1/2+y,1/2-z
4 1/2-x,-y,1/2+z
_cell_length_a 14.330(4)
_cell_length_b 10.502(3)
_cell_length_c 9.251(2)
_cell_angle_alpha 90
_cell_angle_beta 90
_cell_angle_gamma 90
_cell_formula_units_Z 4
loop_
_atom_type_symbol
_atom_type_radius_bond
C 0.68
H 0.23
N 0.68
O 0.68
loop_
_atom_site_label
_atom_site_type_symbol
_atom_site_fract_x
_atom_site_fract_y
_atom_site_fract_z
O1 O 0.0709(1) 0.7136(2) 0.4477(2)
N1 N 0.1729(2) 0.6958(2) 0.4860(3)
C1 C 0.1196(1) 0.8063(2) 0.5296(3)
C2 C 0.0924(1) 0.8077(2) 0.6881(3)
C3 C 0.0926(2) 0.6944(3) 0.7668(3)
C4 C 0.0624(3) 0.6925(4) 0.9094(4)
C5 C 0.0312(3) 0.8020(4) 0.9745(3)
C6 C 0.0308(2) 0.9145(4) 0.8983(4)
C7 C 0.0614(2) 0.9174(3) 0.7547(3)
C8 C 0.1333(2) 0.9325(2) 0.4573(3)
C9 C 0.2012(2) 1.0156(3) 0.5073(3)
C10 C 0.2152(2) 1.1317(3) 0.4397(4)
C11 C 0.1614(3) 1.1662(4) 0.3233(4)
C12 C 0.0928(3) 1.0864(4) 0.2740(3)
C13 C 0.0784(2) 0.9688(3) 0.3409(3)
C14 C 0.2285(2) 0.7048(3) 0.3511(4)
C15 C 0.3283(3) 0.7261(6) 0.3999(6)
C16 C 0.2154(4) 0.5825(5) 0.2677(6)
H1 H 0.114(3) 0.617(4) 0.706(5)
H2 H 0.065(3) 0.610(4) 0.963(4)
H3 H 0.011(4) 0.804(4) 1.084(6)
H4 H 0.016(3) 0.996(4) 0.953(6)
H5 H 0.061(3) 0.995(4) 0.705(5)
H6 H 0.033(3) 0.905(4) 0.316(4)
H7 H 0.062(4) 1.106(5) 0.174(6)
H8 H 0.170(3) 1.247(4) 0.268(5)
H9 H 0.270(4) 1.190(5) 0.466(6)
H10 H 0.235(3) 0.993(4) 0.598(4)
H11 H 0.213(2) 0.786(3) 0.285(4)
H12 H 0.240(5) 0.509(7) 0.342(8)
H13 H 0.145(4) 0.576(5) 0.248(6)
H14 H 0.258(5) 0.577(6) 0.194(8)
H15 H 0.340(4) 0.662(6) 0.448(7)
H16 H 0.376(4) 0.739(6) 0.338(7)
H17 H 0.343(3) 0.819(5) 0.457(6)
#END
