
#######################################################################
#
#                 Cambridge Crystallographic Data Centre
#                                CCDC
#
#######################################################################
#
# If this CIF has been generated from an entry in the Cambridge
# Structural Database, then it will include bibliographic, chemical,
# crystal, experimental, refinement or atomic coordinate data resulting
# from the CCDC's data processing and validation procedures.
#
#######################################################################

data_CSD_CIF_GIJPEW
_audit_creation_date 2013-09-12
_audit_creation_method CSD-ConQuest-V1
_database_code_CSD GIJPEW
_database_code_depnum_ccdc_archive 'CCDC 885758'
_chemical_formula_sum 'C23 H19 N7 O3'
_chemical_formula_moiety
;
C23 H19 N7 O3
;
_journal_coden_Cambridge 41
_journal_volume 58
_journal_year 2013
_journal_page_first 252
_journal_name_full 'Kristallografiya(Russ.)(Crystallogr.Rep.) '
loop_
_publ_author_name
"I.S.Pavlova"
"I.G.Pervova"
"G.N.Lipunova"
"R.K.Novikova"
"P.A.Slepukhin"
"I.N.Lipunov"
_chemical_name_systematic
;
1-Benzyl-2-(2-(5-ethyl-2H-tetrazol-2-yl)-4-nitrophenoxy)-1H-benzimidazole
;
_cell_volume   1061.351
_exptl_crystal_colour 'colorless'
_exptl_crystal_density_diffrn 1.381
_exptl_crystal_description 'prism'
_diffrn_ambient_temperature 295
#These two values have been output from a single CSD field.
_refine_ls_R_factor_gt 0.0464
_refine_ls_wR_factor_gt 0.0464
_symmetry_cell_setting triclinic
_symmetry_space_group_name_H-M 'P -1'
_symmetry_Int_Tables_number 2
loop_
_symmetry_equiv_pos_site_id
_symmetry_equiv_pos_as_xyz
1 x,y,z
2 -x,-y,-z
_cell_length_a 9.3717(14)
_cell_length_b 10.1520(12)
_cell_length_c 11.3853(14)
_cell_angle_alpha 86.886(10)
_cell_angle_beta 79.035(11)
_cell_angle_gamma 87.653(11)
_cell_formula_units_Z 2
loop_
_atom_type_symbol
_atom_type_radius_bond
C 0.68
H 0.23
N 0.68
O 0.68
loop_
_atom_site_label
_atom_site_type_symbol
_atom_site_fract_x
_atom_site_fract_y
_atom_site_fract_z
O1 O 0.34589(17) 0.84907(15) 0.60504(13)
C1 C 0.1540(3) 0.9798(2) 0.7008(2)
N1 N 0.1702(2) 0.9132(2) 0.81146(18)
C2 C 0.0505(3) 1.0799(2) 0.7032(2)
H1 H -0.01080 1.10100 0.77450
C3 C 0.2453(2) 0.9476(2) 0.5937(2)
C4 C 0.2304(2) 1.0165(2) 0.4895(2)
H2 H 0.28990 0.99460 0.41770
C5 C 0.0401(3) 1.1479(2) 0.5977(2)
C6 C 0.4449(3) 0.8010(3) 0.5139(2)
N2 N 0.5287(2) 0.6970(2) 0.54727(18)
N3 N 0.1923(2) 0.78372(19) 0.82927(18)
C7 C 0.5244(3) 0.6395(2) 0.6661(2)
H3 H 0.54970 0.54610 0.66030
H4 H 0.42550 0.64740 0.71060
C8 C 0.6241(3) 0.7005(2) 0.7351(2)
N4 N -0.0685(3) 1.2549(2) 0.5982(2)
C9 C 0.1278(3) 1.1182(2) 0.4907(2)
H5 H 0.11820 1.16570 0.42030
O2 O -0.1409(2) 1.28592(19) 0.69375(18)
C10 C 0.6218(3) 0.6628(2) 0.4414(2)
N5 N 0.4707(2) 0.8379(2) 0.39953(19)
O3 O -0.0830(2) 1.3094(2) 0.50314(19)
C11 C 0.7483(3) 0.6339(2) 0.7551(2)
H6 H 0.77230 0.55150 0.72370
C12 C 0.5845(3) 0.7491(3) 0.3524(2)
C13 C 0.8377(3) 0.6884(3) 0.8216(2)
H7 H 0.92110 0.64230 0.83560
N6 N 0.1623(3) 0.9794(2) 0.9107(2)
C14 C 0.7322(3) 0.5680(2) 0.4200(2)
H8 H 0.75640 0.51160 0.48080
C15 C 0.2003(3) 0.7738(3) 0.9449(2)
C16 C 0.5916(3) 0.8251(3) 0.7803(2)
H9 H 0.50900 0.87220 0.76590
C17 C 0.6578(3) 0.7411(3) 0.2357(2)
H10 H 0.63360 0.79690 0.17450
N7 N 0.1814(3) 0.8902(2) 0.99533(19)
C18 C 0.8034(3) 0.8103(3) 0.8667(2)
H11 H 0.86370 0.84660 0.91170
C19 C 0.7680(3) 0.6469(3) 0.2140(3)
H12 H 0.81990 0.64020 0.13620
C20 C 0.8045(3) 0.5622(3) 0.3027(3)
H13 H 0.87950 0.49970 0.28340
C21 C 0.6818(3) 0.8789(3) 0.8463(2)
H14 H 0.65960 0.96200 0.87690
C22 C 0.2285(4) 0.6494(3) 1.0104(2)
H15 H 0.22850 0.57620 0.95910
H16 H 0.15150 0.63670 1.07980
C23 C 0.3737(4) 0.6508(4) 1.0507(3)
H17 H 0.38940 0.56910 1.09360
H18 H 0.37340 0.72280 1.10200
H19 H 0.45010 0.66140 0.98190
#END
