
#######################################################################
#
#                 Cambridge Crystallographic Data Centre
#                                CCDC
#
#######################################################################
#
# If this CIF has been generated from an entry in the Cambridge
# Structural Database, then it will include bibliographic, chemical,
# crystal, experimental, refinement or atomic coordinate data resulting
# from the CCDC's data processing and validation procedures.
#
#######################################################################

data_CSD_CIF_GIJROJ
_audit_creation_date 2018-09-21
_audit_creation_method CSD-ConQuest-V1
_database_code_CSD GIJROJ
_database_code_depnum_ccdc_archive 'CCDC 1856272'
_chemical_formula_sum 'C11 H13 N1 O5'
_chemical_formula_moiety
;
C11 H13 N1 O5
;
_journal_coden_Cambridge 4
_journal_volume 140
_journal_year 2018
_journal_page_first 12290
_journal_name_full 'J.Am.Chem.Soc. '
loop_
_publ_author_name
"T.Karasawa"
"R.Oriez"
"N.Kumagai"
"M.Shibasaki"
_chemical_name_systematic
;
methyl 2-hydroxy-3-nitro-2-phenylbutanoate
;
_cell_volume   1143.105
_exptl_crystal_colour 'colorless'
_exptl_crystal_density_diffrn 1.39
_exptl_crystal_description 'platelet'
_diffrn_ambient_temperature 93
#These two values have been output from a single CSD field.
_refine_ls_R_factor_gt 0.0594
_refine_ls_wR_factor_gt 0.0594
_symmetry_cell_setting orthorhombic
_symmetry_space_group_name_H-M 'P 21 21 21'
_symmetry_Int_Tables_number 19
loop_
_symmetry_equiv_pos_site_id
_symmetry_equiv_pos_as_xyz
1 x,y,z
2 1/2-x,-y,1/2+z
3 1/2+x,1/2-y,-z
4 -x,1/2+y,1/2-z
_cell_length_a 5.5866(4)
_cell_length_b 7.8505(5)
_cell_length_c 26.064(2)
_cell_angle_alpha 90
_cell_angle_beta 90
_cell_angle_gamma 90
_cell_formula_units_Z 4
loop_
_atom_type_symbol
_atom_type_radius_bond
C 0.68
H 0.23
N 0.68
O 0.68
loop_
_atom_site_label
_atom_site_type_symbol
_atom_site_fract_x
_atom_site_fract_y
_atom_site_fract_z
O1 O 0.0350(5) 0.6885(4) 0.60203(12)
H1 H -0.02304 0.64402 0.57550
O2 O -0.0251(6) 0.3593(4) 0.59741(13)
O3 O 0.3657(6) 0.3002(4) 0.60689(14)
O4 O 0.6795(6) 0.6016(4) 0.51910(12)
O5 O 0.2963(6) 0.5549(4) 0.51718(13)
N1 N 0.4812(8) 0.5977(5) 0.53934(16)
C1 C 0.2460(8) 0.6093(5) 0.67767(19)
C2 C 0.2289(8) 0.5893(5) 0.61955(19)
C3 C 0.0705(9) 0.6982(6) 0.7045(2)
H2 H -0.05834 0.74968 0.68645
C4 C 0.4648(8) 0.6504(5) 0.59520(18)
H3 H 0.60060 0.59648 0.61418
C5 C 0.4972(9) 0.8442(5) 0.59729(18)
H4 H 0.48750 0.88273 0.63299
H5 H 0.65387 0.87457 0.58307
H6 H 0.37086 0.89923 0.57713
C6 C 0.4323(9) 0.5356(6) 0.7047(2)
H7 H 0.55228 0.47406 0.68674
C7 C 0.2006(8) 0.3996(6) 0.60677(18)
C8 C 0.4467(10) 0.5502(6) 0.7581(2)
H8 H 0.57532 0.49936 0.77635
C9 C 0.0833(9) 0.7117(6) 0.7572(2)
H9 H -0.03832 0.77111 0.77533
C10 C 0.2709(9) 0.6397(6) 0.7838(2)
H10 H 0.27941 0.65163 0.82006
C11 C -0.0621(10) 0.1865(6) 0.5783(2)
H11 H -0.23329 0.16748 0.57244
H12 H 0.02527 0.17154 0.54604
H13 H -0.00318 0.10445 0.60369
#END
