
#######################################################################
#
#                 Cambridge Crystallographic Data Centre
#                                CCDC
#
#######################################################################
#
# If this CIF has been generated from an entry in the Cambridge
# Structural Database, then it will include bibliographic, chemical,
# crystal, experimental, refinement or atomic coordinate data resulting
# from the CCDC's data processing and validation procedures.
#
#######################################################################

data_CSD_CIF_GIKDUA
_audit_creation_date 2007-12-14
_audit_creation_method CSD-ConQuest-V1
_database_code_CSD GIKDUA
_database_code_depnum_ccdc_archive 'CCDC 647875'
_chemical_formula_sum 'C18 H21 N1 O6'
_chemical_formula_moiety
;
C18 H21 N1 O6
;
_journal_coden_Cambridge 1088
_journal_volume 2007
_journal_year 2007
_journal_page_first 2252
_journal_name_full 'Synlett '
loop_
_publ_author_name
"H.Takikawa"
"K.Hikita"
"K.Suzuki"
_chemical_name_systematic
;
3-(6-(Methoxymethoxy)-2-(1,3-dioxan-2-yl)phenyl)-4-(isopropylidene)isoxazol-5-
one
;
_chemical_melting_point 393.15
_cell_volume   1700.228
_exptl_crystal_colour 'yellow'
_exptl_crystal_density_diffrn 1.357
_exptl_special_details
;
Melting point range 393.15-393.95K

;
_exptl_crystal_description 'prism'
_diffrn_ambient_temperature 173
#These two values have been output from a single CSD field.
_refine_ls_R_factor_gt 0.0549
_refine_ls_wR_factor_gt 0.0549
_symmetry_cell_setting monoclinic
_symmetry_space_group_name_H-M 'P 21/n'
_symmetry_Int_Tables_number 14
loop_
_symmetry_equiv_pos_site_id
_symmetry_equiv_pos_as_xyz
1 x,y,z
2 1/2-x,1/2+y,1/2-z
3 -x,-y,-z
4 -1/2+x,-1/2-y,-1/2+z
_cell_length_a 9.177(3)
_cell_length_b 16.932(5)
_cell_length_c 11.200(3)
_cell_angle_alpha 90
_cell_angle_beta 102.321(14)
_cell_angle_gamma 90
_cell_formula_units_Z 4
loop_
_atom_type_symbol
_atom_type_radius_bond
C 0.68
H 0.23
N 0.68
O 0.68
loop_
_atom_site_label
_atom_site_type_symbol
_atom_site_fract_x
_atom_site_fract_y
_atom_site_fract_z
O1 O 0.35492(14) -0.01273(9) 0.57016(12)
O2 O 0.40450(13) 0.11360(8) 0.61860(11)
O3 O 0.66411(14) 0.12279(8) 0.97279(10)
O4 O 0.77192(16) 0.07982(9) 1.17175(11)
O5 O 0.89792(12) 0.23269(6) 0.57040(9)
O6 O 1.00968(13) 0.10843(6) 0.60527(10)
N1 N 0.52792(15) 0.15904(9) 0.68593(13)
C1 C 0.44149(18) 0.03518(11) 0.62376(14)
C2 C 0.59346(17) 0.02833(9) 0.70068(13)
C3 C 0.63311(16) 0.11041(8) 0.73067(13)
C4 C 0.67207(19) -0.03863(9) 0.73017(14)
C5 C 0.6088(3) -0.1181(1) 0.69029(18)
H1 H 0.55930 -0.13970 0.75250
H2 H 0.68950 -0.15360 0.67970
H3 H 0.53630 -0.11300 0.61260
C6 C 0.8285(2) -0.03965(10) 0.80457(18)
H4 H 0.89890 -0.03560 0.75020
H5 H 0.84610 -0.08910 0.85080
H6 H 0.84310 0.00510 0.86140
C7 C 0.77349(16) 0.14299(8) 0.80483(13)
C8 C 0.78584(17) 0.14996(9) 0.93192(14)
C9 C 0.91390(19) 0.18142(9) 1.00501(14)
H7 H 0.92060 0.18830 1.09020
C10 C 1.03215(19) 0.20268(10) 0.95249(15)
H8 H 1.12030 0.22390 1.00230
C11 C 1.02321(18) 0.19337(9) 0.82834(15)
H9 H 1.10610 0.20680 0.79400
C12 C 0.89282(17) 0.16427(8) 0.75325(13)
C13 C 0.6670(2) 0.12799(13) 1.10043(15)
H10 H 0.68750 0.18340 1.12700
H11 H 0.56720 0.11390 1.11430
C14 C 0.7444(3) -0.00246(14) 1.1483(2)
H12 H 0.68130 -0.02270 1.20180
H13 H 0.83930 -0.03110 1.16420
H14 H 0.69360 -0.00990 1.06270
C15 C 0.88775(16) 0.15587(8) 0.61808(13)
H15 H 0.79210 0.13030 0.57650
C16 C 0.89831(19) 0.22906(10) 0.44166(14)
H16 H 0.90760 0.28300 0.41020
H17 H 0.80300 0.20630 0.39660
C17 C 1.02613(19) 0.1790(1) 0.42084(14)
H18 H 1.12210 0.20450 0.45820
H19 H 1.02110 0.17310 0.33210
C18 C 1.01609(19) 0.09852(9) 0.47833(15)
H20 H 0.92570 0.07060 0.43440
H21 H 1.10430 0.06640 0.47210
#END
