
#######################################################################
#
#                 Cambridge Crystallographic Data Centre
#                                CCDC
#
#######################################################################
#
# If this CIF has been generated from an entry in the Cambridge
# Structural Database, then it will include bibliographic, chemical,
# crystal, experimental, refinement or atomic coordinate data resulting
# from the CCDC's data processing and validation procedures.
#
#######################################################################

data_CSD_CIF_GIKMAQ
_audit_creation_date 2013-09-13
_audit_creation_method CSD-ConQuest-V1
_database_code_CSD GIKMAQ
_database_code_depnum_ccdc_archive 'CCDC 787450'
_chemical_formula_sum 'C18 H25 N1 O3'
_chemical_formula_moiety
;
C18 H25 N1 O3
;
_journal_coden_Cambridge 16
_journal_volume 69
_journal_year 2013
_journal_page_first 5048
_journal_name_full 'Tetrahedron '
loop_
_publ_author_name
"C.A.D.Sousa"
"C.F.R.A.C.Lima"
"M.Andrade"
"X.Garcia-Mera"
"J.E.Rodriguez-Borges"
_chemical_name_systematic
;
5-Methyl-2-(2-phenylpropan-2-yl)cyclohexyl (hydroxyimino)acetate
;
_cell_volume   1695.307
_exptl_crystal_colour 'colorless'
_exptl_crystal_density_diffrn 1.189
_exptl_crystal_description 'prism'
_diffrn_ambient_temperature 100
#These two values have been output from a single CSD field.
_refine_ls_R_factor_gt 0.036
_refine_ls_wR_factor_gt 0.036
_symmetry_cell_setting monoclinic
_symmetry_space_group_name_H-M 'C 2'
_symmetry_Int_Tables_number 5
loop_
_symmetry_equiv_pos_site_id
_symmetry_equiv_pos_as_xyz
1 x,y,z
2 -x,y,-z
3 1/2+x,1/2+y,z
4 1/2-x,1/2+y,-z
_cell_length_a 23.9674(9)
_cell_length_b 6.9300(3)
_cell_length_c 10.3584(4)
_cell_angle_alpha 90
_cell_angle_beta 99.811(2)
_cell_angle_gamma 90
_cell_formula_units_Z 4
loop_
_atom_type_symbol
_atom_type_radius_bond
C 0.68
H 0.23
N 0.68
O 0.68
loop_
_atom_site_label
_atom_site_type_symbol
_atom_site_fract_x
_atom_site_fract_y
_atom_site_fract_z
C1 C 0.15980(9) 1.0351(3) 0.3685(2)
H1 H 0.20090 1.06170 0.39900
C2 C 0.13249(9) 1.2052(3) 0.2885(2)
H2 H 0.14990 1.21890 0.20890
H3 H 0.14050 1.32470 0.34070
C3 C 0.06850(9) 1.1840(4) 0.2478(2)
H4 H 0.06140 1.07200 0.18630
C4 C 0.04265(10) 1.3620(4) 0.1752(2)
H5 H 0.00160 1.34510 0.15170
H6 H 0.05890 1.37990 0.09540
H7 H 0.05080 1.47550 0.23160
C5 C 0.04035(9) 1.1393(4) 0.3661(2)
H8 H 0.04400 1.25230 0.42540
H9 H -0.00050 1.11480 0.33620
C6 C 0.06727(8) 0.9636(4) 0.4406(2)
H10 H 0.06150 0.84870 0.38310
H11 H 0.04880 0.93930 0.51750
C7 C 0.13078(9) 0.9961(3) 0.4863(2)
H12 H 0.13310 1.12170 0.53460
C8 C 0.15911(9) 0.8470(3) 0.5902(2)
C9 C 0.22262(9) 0.8925(4) 0.6300(2)
H13 H 0.23830 0.81610 0.70730
H14 H 0.22750 1.03010 0.65050
H15 H 0.24240 0.86010 0.55750
C10 C 0.1539(1) 0.6388(4) 0.5388(2)
H16 H 0.16930 0.54990 0.60950
H17 H 0.17510 0.62530 0.46630
H18 H 0.11390 0.60840 0.50770
C11 C 0.12997(9) 0.8715(4) 0.7107(2)
C12 C 0.13862(10) 1.0387(4) 0.7862(2)
H19 H 0.16450 1.13320 0.76570
C13 C 0.11047(10) 1.0703(4) 0.8902(2)
H20 H 0.11690 1.18590 0.93980
C14 C 0.07328(10) 0.9349(5) 0.9221(2)
H21 H 0.05360 0.95700 0.99300
C15 C 0.06466(10) 0.7673(4) 0.8508(2)
H22 H 0.03930 0.67270 0.87320
C16 C 0.09274(10) 0.7352(4) 0.7461(2)
H23 H 0.08640 0.61820 0.69800
O1 O 0.15315(6) 0.8632(2) 0.28343(14)
C17 C 0.19157(9) 0.8392(3) 0.2047(2)
O2 O 0.23227(6) 0.9416(3) 0.20461(15)
C18 C 0.17704(10) 0.6672(4) 0.1217(2)
H24 H 0.141(1) 0.601(4) 0.123(2)
N1 N 0.21221(8) 0.6200(3) 0.04759(17)
O3 O 0.19443(7) 0.4567(3) -0.02347(17)
H25 H 0.2242(12) 0.444(5) -0.069(3)
#END
