
#######################################################################
#
#                 Cambridge Crystallographic Data Centre
#                                CCDC
#
#######################################################################
#
# If this CIF has been generated from an entry in the Cambridge
# Structural Database, then it will include bibliographic, chemical,
# crystal, experimental, refinement or atomic coordinate data resulting
# from the CCDC's data processing and validation procedures.
#
#######################################################################

data_CSD_CIF_GIKNOF
_audit_creation_date 2013-09-13
_audit_creation_method CSD-ConQuest-V1
_database_code_CSD GIKNOF
_database_code_depnum_ccdc_archive 'CCDC 933374'
_chemical_formula_sum 'C18 H19 N1 O6'
_chemical_formula_moiety
;
C18 H19 N1 O6
;
_journal_coden_Cambridge 16
_journal_volume 69
_journal_year 2013
_journal_page_first 5273
_journal_name_full 'Tetrahedron '
loop_
_publ_author_name
"M.Yoshida"
"H.Takai"
"S.Yodokawa"
"Kozo Shishido"
_chemical_name_systematic
;
Methyl 
6a-hydroxy-2-methyl-2-((4-nitrophenyl)ethynyl)hexahydro-3aH-cyclopenta[b]furan
-3a-carboxylate
;
_cell_volume    849.062
_exptl_crystal_colour 'colorless'
_exptl_crystal_density_diffrn 1.351
_exptl_crystal_description 'chunk'
_diffrn_ambient_temperature 296.1
#These two values have been output from a single CSD field.
_refine_ls_R_factor_gt 0.04
_refine_ls_wR_factor_gt 0.04
_symmetry_cell_setting triclinic
_symmetry_space_group_name_H-M 'P -1'
_symmetry_Int_Tables_number 2
loop_
_symmetry_equiv_pos_site_id
_symmetry_equiv_pos_as_xyz
1 x,y,z
2 -x,-y,-z
_cell_length_a 8.5204(5)
_cell_length_b 10.1437(8)
_cell_length_c 10.5558(7)
_cell_angle_alpha 73.897(2)
_cell_angle_beta 82.856(2)
_cell_angle_gamma 76.052(2)
_cell_formula_units_Z 2
loop_
_atom_type_symbol
_atom_type_radius_bond
C 0.68
H 0.23
N 0.68
O 0.68
loop_
_atom_site_label
_atom_site_type_symbol
_atom_site_fract_x
_atom_site_fract_y
_atom_site_fract_z
O1 O -0.4790(1) -0.17098(8) 0.96342(8)
O2 O -0.2920(1) -0.07608(8) 1.03595(9)
O3 O 0.0150(1) -0.2857(1) 0.91693(9)
O4 O -0.0101(1) -0.28656(9) 1.13172(9)
O5 O 0.1002(1) 0.4524(1) 0.3746(1)
O6 O 0.2919(1) 0.3243(1) 0.5015(1)
N1 N 0.1558(1) 0.3483(1) 0.4621(1)
C1 C -0.3634(1) -0.1917(1) 1.0608(1)
C2 C -0.4525(1) -0.2292(1) 1.1965(1)
C3 C -0.4334(1) -0.3889(1) 1.2273(1)
C4 C -0.2561(1) -0.4370(1) 1.1800(1)
C5 C -0.2328(1) -0.3282(1) 1.0471(1)
C6 C -0.2841(1) -0.3644(1) 0.9278(1)
C7 C -0.3995(1) -0.2301(1) 0.8554(1)
C8 C -0.0630(1) -0.2977(1) 1.0217(1)
C9 C -0.5312(1) -0.2557(1) 0.7855(1)
C10 C -0.3099(1) -0.1296(1) 0.7644(1)
C11 C -0.2369(1) -0.0449(1) 0.6982(1)
C12 C -0.1386(1) 0.0551(1) 0.6345(1)
C13 C 0.0214(2) 0.0283(1) 0.6714(1)
C14 C 0.1175(2) 0.1246(1) 0.6154(1)
C15 C 0.0526(2) 0.2465(1) 0.5227(1)
C16 C -0.1044(2) 0.2758(1) 0.4841(1)
C17 C -0.2010(2) 0.1797(1) 0.5408(1)
C18 C 0.1446(1) -0.2472(2) 1.1171(1)
H1 H -0.56230 -0.17350 1.19470
H2 H -0.38930 -0.20850 1.26470
H3 H -0.51060 -0.41660 1.17250
H4 H -0.46160 -0.43160 1.32150
H5 H -0.17970 -0.43000 1.24480
H6 H -0.22570 -0.53310 1.17180
H7 H -0.34530 -0.43940 0.95950
H8 H -0.19130 -0.39430 0.86650
H9 H -0.59090 -0.31510 0.84680
H10 H -0.59990 -0.16910 0.74380
H11 H -0.47590 -0.30510 0.71780
H12 H 0.06150 -0.06430 0.73530
H13 H 0.22780 0.10500 0.63910
H14 H -0.14360 0.36300 0.41860
H15 H -0.31090 0.19960 0.51600
H16 H 0.13300 -0.14620 1.07000
H17 H 0.18200 -0.26620 1.21100
H18 H 0.22400 -0.29820 1.07200
H19 H -0.37430 -0.00550 1.05240
#END
