
#######################################################################
#
#                 Cambridge Crystallographic Data Centre
#                                CCDC
#
#######################################################################
#
# If this CIF has been generated from an entry in the Cambridge
# Structural Database, then it will include bibliographic, chemical,
# crystal, experimental, refinement or atomic coordinate data resulting
# from the CCDC's data processing and validation procedures.
#
#######################################################################

data_CSD_CIF_GIKSAV
_audit_creation_date 2007-12-14
_audit_creation_method CSD-ConQuest-V1
_database_code_CSD GIKSAV
_database_code_depnum_ccdc_archive 'CCDC 622386'
_chemical_formula_sum 'C13 H11 N1 O2'
_chemical_formula_moiety
;
C13 H11 N1 O2
;
_journal_coden_Cambridge 580
_journal_volume 26
_journal_year 2007
_journal_page_first 1292
_journal_name_full 'Polyhedron '
loop_
_publ_author_name
"M.Lalia-Kantouri"
"C.D.Papadopoulos"
"M.Quiros"
"A.G.Hatzidimitriou"
_chemical_name_systematic
;
2-Hydroxybenzophenonoxime
;
_cell_volume   2165.460
_exptl_crystal_colour 'colorless'
_exptl_crystal_density_diffrn 1.308
_exptl_crystal_description 'prismatic'
_diffrn_ambient_temperature 298
#These two values have been output from a single CSD field.
_refine_ls_R_factor_gt 0.0467
_refine_ls_wR_factor_gt 0.0467
_symmetry_cell_setting orthorhombic
_symmetry_space_group_name_H-M 'P b c a'
_symmetry_Int_Tables_number 61
loop_
_symmetry_equiv_pos_site_id
_symmetry_equiv_pos_as_xyz
1 x,y,z
2 1/2-x,-y,1/2+z
3 -x,1/2+y,1/2-z
4 1/2+x,1/2-y,-z
5 -x,-y,-z
6 -1/2+x,y,-1/2-z
7 x,-1/2-y,-1/2+z
8 -1/2-x,-1/2+y,z
_cell_length_a 9.4668(7)
_cell_length_b 8.8177(6)
_cell_length_c 25.9413(18)
_cell_angle_alpha 90
_cell_angle_beta 90
_cell_angle_gamma 90
_cell_formula_units_Z 8
loop_
_atom_type_symbol
_atom_type_radius_bond
C 0.68
H 0.23
N 0.68
O 0.68
loop_
_atom_site_label
_atom_site_type_symbol
_atom_site_fract_x
_atom_site_fract_y
_atom_site_fract_z
C1 C 0.21234(14) 0.38928(16) 0.44760(5)
O1 O 0.27498(11) 0.30186(13) 0.48430(4)
H1 H 0.3674(16) 0.313(2) 0.4807(7)
C2 C 0.29128(13) 0.46785(14) 0.41022(5)
C3 C 0.21648(14) 0.55779(16) 0.37534(5)
H2 H 0.26650 0.61310 0.35090
C4 C 0.07144(16) 0.56686(18) 0.37616(6)
H3 H 0.02440 0.62710 0.35230
C5 C -0.00362(16) 0.4865(2) 0.41231(7)
H4 H -0.10180 0.49110 0.41280
C6 C 0.06661(16) 0.3989(2) 0.44786(6)
H5 H 0.01540 0.34560 0.47250
C7 C 0.44659(14) 0.45530(14) 0.40709(5)
N1 N 0.50906(11) 0.38796(14) 0.44466(4)
O2 O 0.65421(10) 0.37195(15) 0.43796(4)
H6 H 0.6799(19) 0.318(2) 0.4643(6)
C8 C 0.52289(13) 0.51387(16) 0.36068(5)
C9 C 0.62540(15) 0.6245(2) 0.36590(6)
H7 H 0.64670 0.66300 0.39840
C10 C 0.69582(19) 0.6781(2) 0.32284(8)
H8 H 0.76320 0.75420 0.32620
C11 C 0.6664(2) 0.6191(3) 0.27523(8)
H9 H 0.71570 0.65300 0.24650
C12 C 0.5646(2) 0.5091(3) 0.26956(6)
H10 H 0.54440 0.47010 0.23710
C13 C 0.49203(18) 0.45695(19) 0.31214(5)
H11 H 0.42220 0.38370 0.30820
#END
