
#######################################################################
#
#                 Cambridge Crystallographic Data Centre
#                                CCDC
#
#######################################################################
#
# If this CIF has been generated from an entry in the Cambridge
# Structural Database, then it will include bibliographic, chemical,
# crystal, experimental, refinement or atomic coordinate data resulting
# from the CCDC's data processing and validation procedures.
#
#######################################################################

data_CSD_CIF_GIKSUQ
_audit_creation_date 2013-09-13
_audit_creation_method CSD-ConQuest-V1
_database_code_CSD GIKSUQ
_database_code_depnum_ccdc_archive 'CCDC 960711'
_chemical_formula_sum 'C9 H8 N2 O1'
_chemical_formula_moiety
;
C9 H8 N2 O1
;
_journal_coden_Cambridge 1147
_journal_volume 13
_journal_year 2013
_journal_page_first 2687
_journal_name_full 'Cryst.Growth Des. '
loop_
_publ_author_name
"C.B.Aakeroy"
"A.S.Sinha"
"K.N.Epa"
"P.D.Chopade"
"M.M.Smith"
"J.Desper"
_chemical_name_systematic
;
4-(N-Hydroxyethanimidoyl)benzonitrile
;
_chemical_name_common
;
4-Cyanoacetophenone oxime
;
_cell_volume    822.966
_exptl_crystal_colour 'colorless'
_exptl_crystal_density_diffrn 1.293
_exptl_crystal_description 'prism'
_diffrn_ambient_temperature 120
#These two values have been output from a single CSD field.
_refine_ls_R_factor_gt 0.0644
_refine_ls_wR_factor_gt 0.0644
_symmetry_cell_setting monoclinic
_symmetry_space_group_name_H-M 'P 21/c'
_symmetry_Int_Tables_number 14
loop_
_symmetry_equiv_pos_site_id
_symmetry_equiv_pos_as_xyz
1 x,y,z
2 -x,1/2+y,1/2-z
3 -x,-y,-z
4 x,-1/2-y,-1/2+z
_cell_length_a 7.8002(6)
_cell_length_b 7.5923(6)
_cell_length_c 13.8966(10)
_cell_angle_alpha 90
_cell_angle_beta 90.298(3)
_cell_angle_gamma 90
_cell_formula_units_Z 4
loop_
_atom_type_symbol
_atom_type_radius_bond
C 0.68
H 0.23
N 0.68
O 0.68
loop_
_atom_site_label
_atom_site_type_symbol
_atom_site_fract_x
_atom_site_fract_y
_atom_site_fract_z
C1 C 0.21068(14) 0.42711(19) 0.54337(7)
C2 C 0.23018(17) 0.5955(2) 0.58273(9)
H1 H 0.19750 0.61580 0.64750
C3 C 0.29512(17) 0.7309(2) 0.53002(9)
H2 H 0.30720 0.84430 0.55810
C4 C 0.34421(16) 0.7030(2) 0.43439(9)
C5 C 0.32729(17) 0.5359(2) 0.39452(9)
H3 H 0.36100 0.51570 0.32990
C6 C 0.26222(16) 0.40040(19) 0.44809(8)
H4 H 0.25190 0.28660 0.42020
C7 C 0.13901(15) 0.28310(19) 0.60177(8)
N1 N 0.07869(14) 0.15032(16) 0.55456(6)
O1 O 0.00941(13) 0.01989(14) 0.61421(6)
H5 H -0.019(2) -0.064(2) 0.5626(10)
C8 C 0.1348(2) 0.2937(2) 0.70906(8)
H6 H 0.13800 0.17450 0.73620
H7 H 0.02930 0.35290 0.72920
H8 H 0.23430 0.36050 0.73220
C9 C 0.41440(17) 0.8448(2) 0.37914(10)
N2 N 0.47174(18) 0.9575(2) 0.33496(9)
#END
