
#######################################################################
#
#                 Cambridge Crystallographic Data Centre
#                                CCDC
#
#######################################################################
#
# If this CIF has been generated from an entry in the Cambridge
# Structural Database, then it will include bibliographic, chemical,
# crystal, experimental, refinement or atomic coordinate data resulting
# from the CCDC's data processing and validation procedures.
#
#######################################################################

data_CSD_CIF_GILHOZ
_audit_creation_date 2007-12-14
_audit_creation_method CSD-ConQuest-V1
_database_code_CSD GILHOZ
_database_code_depnum_ccdc_archive 'CCDC 661830'
_chemical_formula_sum 'C20 H30 N1 O1'
_chemical_formula_moiety
;
C20 H30 N1 O1
;
_journal_coden_Cambridge 172
_journal_volume 40
_journal_year 2007
_journal_page_first 6224
_journal_name_full 'Macromolecules '
loop_
_publ_author_name
"A.Debuigne"
"D.Chan-Seng"
"Lichun Li"
"G.K.Hamer"
"M.K.Georges"
_chemical_name_systematic
;
1,1'-Diadamantyl nitroxide
;
_chemical_melting_point 458.15
_cell_volume   1605.539
_exptl_crystal_colour 'orange'
_exptl_crystal_density_diffrn 1.243
_exptl_special_details
;
Melting point range 458.15-460.15K

;
_exptl_crystal_description 'plate'
_exptl_crystal_preparation 'hexanes'
_diffrn_ambient_temperature 150
#These two values have been output from a single CSD field.
_refine_ls_R_factor_gt 0.0651
_refine_ls_wR_factor_gt 0.0651
_symmetry_cell_setting orthorhombic
_symmetry_space_group_name_H-M 'P n m a'
_symmetry_Int_Tables_number 62
loop_
_symmetry_equiv_pos_site_id
_symmetry_equiv_pos_as_xyz
1 x,y,z
2 1/2-x,-y,1/2+z
3 1/2+x,1/2-y,1/2-z
4 -x,1/2+y,-z
5 -x,-y,-z
6 -1/2+x,y,-1/2-z
7 -1/2-x,-1/2+y,-1/2+z
8 x,-1/2-y,z
_cell_length_a 20.6400(4)
_cell_length_b 6.7180(8)
_cell_length_c 11.5790(7)
_cell_angle_alpha 90
_cell_angle_beta 90
_cell_angle_gamma 90
_cell_formula_units_Z 4
loop_
_atom_type_symbol
_atom_type_radius_bond
C 0.68
H 0.23
N 0.68
O 0.68
loop_
_atom_site_label
_atom_site_type_symbol
_atom_site_fract_x
_atom_site_fract_y
_atom_site_fract_z
O1 O 0.55421(11) 0.25000 0.55653(18)
N1 N 0.58958(12) 0.25000 0.4649(2)
C1 C 0.55499(14) 0.25000 0.3506(2)
C2 C 0.48185(15) 0.25000 0.3747(3)
H1 H 0.47010 0.36940 0.42030
H2 H 0.47010 0.13060 0.42030
C3 C 0.44424(15) 0.25000 0.2601(3)
H3 H 0.39670 0.25000 0.27690
C4 C 0.46123(11) 0.4362(4) 0.1906(2)
H4 H 0.43670 0.43720 0.11710
H5 H 0.44950 0.55690 0.23490
C5 C 0.53386(12) 0.4352(4) 0.1660(2)
H6 H 0.54540 0.55610 0.12010
C6 C 0.57117(11) 0.4381(4) 0.28059(19)
H7 H 0.55910 0.55800 0.32540
H8 H 0.61830 0.44330 0.26510
C7 C 0.55233(17) 0.25000 0.0981(3)
H9 H 0.59960 0.25000 0.08320
H10 H 0.52970 0.25000 0.02280
C8 C 0.66097(14) 0.25000 0.4912(3)
C9 C 0.70604(18) 0.25000 0.3883(4)
H11 H 0.69780 0.36930 0.34040
H12 H 0.69780 0.13070 0.34040
C10 C 0.7772(2) 0.25000 0.4291(4)
H13 H 0.80640 0.25000 0.36010
C11 C 0.79060(15) 0.0669(6) 0.5008(4)
H14 H 0.78280 -0.05440 0.45430
H15 H 0.83630 0.06640 0.52650
C12 C 0.74633(14) 0.0694(5) 0.6037(3)
H16 H 0.75480 -0.05150 0.65170
C13 C 0.67525(13) 0.0667(4) 0.5638(3)
H17 H 0.66690 -0.05480 0.51780
H18 H 0.64630 0.06440 0.63200
C14 C 0.7590(2) 0.25000 0.6745(4)
H19 H 0.80460 0.25000 0.70120
H20 H 0.73050 0.25000 0.74330
C4G C 0.46123(11) 0.0638(4) 0.1906(2)
H4G H 0.43670 0.06280 0.11710
H5G H 0.44950 -0.05690 0.23490
C5G C 0.53386(12) 0.0648(4) 0.1660(2)
H6G H 0.54540 -0.05610 0.12010
C6G C 0.57117(11) 0.0619(4) 0.28059(19)
H7G H 0.55910 -0.05800 0.32540
H8G H 0.61830 0.05670 0.26510
C11G C 0.79060(15) 0.4331(6) 0.5008(4)
H14G H 0.78280 0.55440 0.45430
H15G H 0.83630 0.43360 0.52650
C12G C 0.74633(14) 0.4306(5) 0.6037(3)
H16G H 0.75480 0.55150 0.65170
C13G C 0.67525(13) 0.4333(4) 0.5638(3)
H17G H 0.66690 0.55480 0.51780
H18G H 0.64630 0.43560 0.63200
#END
