
#######################################################################
#
#                 Cambridge Crystallographic Data Centre
#                                CCDC
#
#######################################################################
#
# If this CIF has been generated from an entry in the Cambridge
# Structural Database, then it will include bibliographic, chemical,
# crystal, experimental, refinement or atomic coordinate data resulting
# from the CCDC's data processing and validation procedures.
#
#######################################################################

data_CSD_CIF_GILSUS
_audit_creation_date 2018-09-21
_audit_creation_method CSD-ConQuest-V1
_database_code_CSD GILSUS
_database_code_depnum_ccdc_archive 'CCDC 1838532'
_chemical_formula_sum 'C21 H20 N2 O5'
_chemical_formula_moiety
;
C21 H20 N2 O5
;
_journal_coden_Cambridge 1440
_journal_volume 10
_journal_year 2018
_journal_page_first 30879
_journal_name_full 'ACS Applied Materials and Interfaces '
loop_
_publ_author_name
"Zhen Wu"
"Kai Pan"
"Shenzhong Mo"
"Bijun Wang"
"Xujie Zhao"
"Meizhen Yin"
_chemical_name_systematic
;
methyl 
1',3',3'-trimethyl-6-nitro-1',3'-dihydrospiro[1-benzopyran-2,2'-indole]-5'-car
boxylate
;
_cell_volume   1877.013
_exptl_crystal_density_diffrn 1.346
_diffrn_ambient_temperature 105.5
#These two values have been output from a single CSD field.
_refine_ls_R_factor_gt 0.0404
_refine_ls_wR_factor_gt 0.0404
_symmetry_cell_setting monoclinic
_symmetry_space_group_name_H-M 'P 21/c'
_symmetry_Int_Tables_number 14
loop_
_symmetry_equiv_pos_site_id
_symmetry_equiv_pos_as_xyz
1 x,y,z
2 -x,1/2+y,1/2-z
3 -x,-y,-z
4 x,-1/2-y,-1/2+z
_cell_length_a 10.0146(4)
_cell_length_b 11.1886(6)
_cell_length_c 17.0626(8)
_cell_angle_alpha 90
_cell_angle_beta 100.955(5)
_cell_angle_gamma 90
_cell_formula_units_Z 4
loop_
_atom_type_symbol
_atom_type_radius_bond
C 0.68
H 0.23
N 0.68
O 0.68
loop_
_atom_site_label
_atom_site_type_symbol
_atom_site_fract_x
_atom_site_fract_y
_atom_site_fract_z
O1 O 0.91399(11) 0.38398(9) 0.15349(6)
O2 O 1.32022(10) 0.41868(10) 0.56785(6)
O3 O 1.45593(10) 0.36363(10) 0.48346(6)
C1 C 0.65780(14) 0.33948(14) -0.02843(8)
H1 H 0.61150 0.27910 -0.05990
N1 N 0.53613(13) 0.48635(13) -0.12211(8)
C2 C 0.78226(15) 0.19002(13) 0.06792(9)
H2 H 0.74110 0.12640 0.03750
N2 N 0.88337(12) 0.26738(11) 0.26430(7)
C3 C 1.34269(15) 0.38109(13) 0.49668(9)
C4 C 1.11131(14) 0.30038(13) 0.30473(8)
C5 C 0.81979(14) 0.40488(13) 0.08629(8)
O4 O 0.48530(12) 0.40286(11) -0.16509(7)
C6 C 0.75144(14) 0.31187(13) 0.04046(8)
C7 C 1.21586(14) 0.36099(12) 0.43741(8)
O5 O 0.50817(12) 0.59223(11) -0.13717(7)
C8 C 0.98360(14) 0.30572(13) 0.32674(8)
C9 C 0.79546(16) 0.52404(14) 0.06374(9)
H3 H 0.84220 0.58500 0.09430
C10 C 0.70151(15) 0.55074(14) -0.00428(9)
H4 H 0.68340 0.62980 -0.01960
C11 C 0.63461(14) 0.45804(14) -0.04940(8)
C12 C 1.22738(15) 0.32683(13) 0.35974(8)
H5 H 1.31240 0.32210 0.34550
C13 C 1.08710(15) 0.36886(13) 0.45772(8)
H6 H 1.08010 0.39260 0.50900
C14 C 0.93581(15) 0.26482(13) 0.19049(8)
C15 C 1.13692(15) 0.11960(14) 0.22477(9)
H7 H 1.22990 0.11280 0.25170
H8 H 1.12770 0.08770 0.17180
H9 H 1.07960 0.07570 0.25370
C16 C 0.86833(15) 0.16823(13) 0.13586(9)
H10 H 0.88780 0.08910 0.15030
C17 C 0.96950(15) 0.34193(14) 0.40292(8)
H11 H 0.88420 0.34790 0.41660
C18 C 0.73949(15) 0.28756(16) 0.26334(10)
H12 H 0.71540 0.25300 0.31030
H13 H 0.68650 0.25100 0.21670
H14 H 0.72170 0.37190 0.26240
C19 C 1.09449(14) 0.25237(13) 0.22011(8)
C20 C 1.17677(16) 0.32043(15) 0.16792(9)
H15 H 1.15920 0.40450 0.17090
H16 H 1.15090 0.29410 0.11360
H17 H 1.27190 0.30550 0.18650
C21 C 1.44067(16) 0.42800(17) 0.62986(9)
H18 H 1.50130 0.48640 0.61470
H19 H 1.48560 0.35190 0.63700
H20 H 1.41500 0.45190 0.67900
#END
