
#######################################################################
#
#                 Cambridge Crystallographic Data Centre
#                                CCDC
#
#######################################################################
#
# If this CIF has been generated from an entry in the Cambridge
# Structural Database, then it will include bibliographic, chemical,
# crystal, experimental, refinement or atomic coordinate data resulting
# from the CCDC's data processing and validation procedures.
#
#######################################################################

data_CSD_CIF_GILWAC
_audit_creation_date 2018-09-21
_audit_creation_method CSD-ConQuest-V1
_database_code_CSD GILWAC
_database_code_depnum_ccdc_archive 'CCDC 1838909'
_chemical_formula_sum 'C17 H19 N3 O4'
_chemical_formula_moiety
;
C17 H19 N3 O4
;
_journal_coden_Cambridge 1291
_journal_year 2018
_journal_name_full 'Eur.J.Org.Chem. '
loop_
_publ_author_name
"B.A.Chalyk"
"K.V.Hrebeniuk"
"K.S.Gavrilenko"
"I.B.Kulik"
"A.B.Rozhenko"
"D.M.Volochnyuk"
"O.S.Liashuk"
"O.O.Grygorenko"
_chemical_name_systematic
;
t-butyl {1-[4-(1,3-benzoxazol-2-yl)-1,2-oxazol-3-yl]ethyl}carbamate
;
_cell_volume    870.934
_exptl_crystal_colour 'colorless'
_exptl_crystal_density_diffrn 1.256
_exptl_crystal_description 'plate'
_diffrn_ambient_temperature 293
#These two values have been output from a single CSD field.
_refine_ls_R_factor_gt 0.0523
_refine_ls_wR_factor_gt 0.0523
_symmetry_cell_setting monoclinic
_symmetry_space_group_name_H-M 'P 21'
_symmetry_Int_Tables_number 4
loop_
_symmetry_equiv_pos_site_id
_symmetry_equiv_pos_as_xyz
1 x,y,z
2 -x,1/2+y,-z
_cell_length_a 10.9324(11)
_cell_length_b 6.7036(7)
_cell_length_c 13.0141(13)
_cell_angle_alpha 90
_cell_angle_beta 114.054(13)
_cell_angle_gamma 90
_cell_formula_units_Z 2
loop_
_atom_type_symbol
_atom_type_radius_bond
C 0.68
H 0.23
N 0.68
O 0.68
loop_
_atom_site_label
_atom_site_type_symbol
_atom_site_fract_x
_atom_site_fract_y
_atom_site_fract_z
O1 O 0.7986(2) -0.0601(3) 0.30238(17)
O2 O 0.43090(18) 0.1879(4) 0.09624(17)
O3 O 0.99727(18) 0.4923(4) 0.23836(13)
O4 O 1.17099(16) 0.5264(4) 0.40989(13)
N1 N 0.8683(2) 0.1165(4) 0.35142(18)
N2 N 0.5219(2) 0.4903(4) 0.15355(16)
N3 N 0.96634(19) 0.5005(4) 0.39994(17)
H1 H 1.006(3) 0.515(6) 0.472(2)
C1 C 0.7845(3) 0.2630(4) 0.3082(2)
C2 C 0.6580(3) 0.1898(5) 0.2302(2)
C3 C 0.6736(3) -0.0083(6) 0.2318(2)
H2 H 0.60710 -0.09790 0.18980
C4 C 0.5392(3) 0.3006(5) 0.1617(2)
C5 C 0.3878(3) 0.5151(5) 0.07469(19)
C6 C 0.3117(3) 0.6839(6) 0.0326(3)
H3 H 0.34710 0.81090 0.05400
C7 C 0.1796(4) 0.6557(7) -0.0432(3)
H4 H 0.12460 0.76580 -0.07230
C8 C 0.1289(3) 0.4666(8) -0.0758(3)
H5 H 0.04050 0.45360 -0.12750
C9 C 0.2038(3) 0.2955(8) -0.0349(3)
H6 H 0.16940 0.16800 -0.05650
C10 C 0.3334(3) 0.3298(5) 0.0403(3)
C11 C 0.8224(2) 0.4749(4) 0.34637(19)
H7 H 0.78660 0.56250 0.28050
C12 C 0.7623(3) 0.5352(6) 0.4272(2)
H8 H 0.66650 0.52540 0.39060
H9 H 0.78720 0.67030 0.45120
H10 H 0.79480 0.44840 0.49150
C13 C 1.0406(2) 0.5044(5) 0.33997(19)
C14 C 1.2752(3) 0.5290(6) 0.3685(2)
C15 C 1.2752(4) 0.3354(7) 0.3080(3)
H11 H 1.35470 0.32820 0.29390
H12 H 1.19770 0.33090 0.23790
H13 H 1.27330 0.22460 0.35400
C16 C 1.4013(3) 0.5442(8) 0.4780(3)
H14 H 1.47880 0.55170 0.46100
H15 H 1.40780 0.42860 0.52350
H16 H 1.39630 0.66180 0.51820
C17 C 1.2606(4) 0.7095(8) 0.2943(4)
H17 H 1.33870 0.72170 0.27840
H18 H 1.25110 0.82730 0.33240
H19 H 1.18270 0.69380 0.22510
#END
