
#######################################################################
#
#                 Cambridge Crystallographic Data Centre
#                                CCDC
#
#######################################################################
#
# If this CIF has been generated from an entry in the Cambridge
# Structural Database, then it will include bibliographic, chemical,
# crystal, experimental, refinement or atomic coordinate data resulting
# from the CCDC's data processing and validation procedures.
#
#######################################################################

data_CSD_CIF_GIMBUB
_audit_creation_date 2013-09-13
_audit_creation_method CSD-ConQuest-V1
_database_code_CSD GIMBUB
_database_code_depnum_ccdc_archive 'CCDC 933174'
_chemical_formula_sum 'C12 H11 N3 O2'
_chemical_formula_moiety
;
C12 H11 N3 O2
;
_journal_coden_Cambridge 24
_journal_volume 54
_journal_year 2013
_journal_page_first 3816
_journal_name_full 'Tetrahedron Lett. '
loop_
_publ_author_name
"L.Lapok"
"A.Siudak"
"M.Nowakowska"
_chemical_name_systematic
;
5-t-Butyl-3-nitrophthalonitrile
;
_cell_volume   1146.656
_exptl_crystal_colour 'colorless'
_exptl_crystal_density_diffrn 1.328
_diffrn_ambient_temperature 100
_refine_special_details
;
C12',N3' and C13',N2' disordered over two sites with occupancies 0.647:0.353; 
N13',O1,O2 and N12',O3,O4 disordered over two sites with occupancies 
0.637:0.363.
;
#These two values have been output from a single CSD field.
_refine_ls_R_factor_gt 0.0506
_refine_ls_wR_factor_gt 0.0506
_symmetry_cell_setting monoclinic
_symmetry_space_group_name_H-M 'P 21/c'
_symmetry_Int_Tables_number 14
loop_
_symmetry_equiv_pos_site_id
_symmetry_equiv_pos_as_xyz
1 x,y,z
2 -x,1/2+y,1/2-z
3 -x,-y,-z
4 x,-1/2-y,-1/2+z
_cell_length_a 10.4263(2)
_cell_length_b 8.3864(2)
_cell_length_c 13.2617(3)
_cell_angle_alpha 90
_cell_angle_beta 98.566(1)
_cell_angle_gamma 90
_cell_formula_units_Z 4
loop_
_atom_type_symbol
_atom_type_radius_bond
C 0.68
H 0.23
N 0.68
O 0.68
loop_
_atom_site_label
_atom_site_type_symbol
_atom_site_fract_x
_atom_site_fract_y
_atom_site_fract_z
C1 C 0.72276(17) 0.3769(2) 0.12925(13)
C2 C 0.80810(17) 0.2694(2) 0.18494(13)
C3 C 0.85121(16) 0.3081(2) 0.28689(14)
C4 C 0.81238(17) 0.4459(2) 0.33061(14)
H1 H 0.84240 0.46720 0.40050
C5 C 0.72965(16) 0.5546(2) 0.27369(13)
C6 C 0.68518(17) 0.5170(2) 0.17253(13)
H2 H 0.62810 0.58830 0.13220
C7 C 0.69209(18) 0.7084(2) 0.32373(14)
C8 C 0.6139(2) 0.6652(3) 0.40904(16)
H3 H 0.66650 0.59720 0.45920
H4 H 0.53500 0.60800 0.38000
H5 H 0.59020 0.76290 0.44240
C9 C 0.8165(2) 0.7964(2) 0.36918(17)
H6 H 0.86710 0.72910 0.42100
H7 H 0.79380 0.89630 0.40060
H8 H 0.86810 0.82000 0.31500
C10 C 0.6106(2) 0.8188(2) 0.24758(16)
H9 H 0.59300 0.91830 0.28180
H10 H 0.52850 0.76630 0.22120
H11 H 0.65820 0.84250 0.19100
C11 C 0.84688(17) 0.1244(2) 0.13934(14)
C12 C 0.6822(6) 0.3520(7) 0.0244(5)
N1 N 0.87577(17) 0.0101(2) 0.10225(13)
N2 N 0.6391(3) 0.3284(4) -0.05860(19)
N3 N 0.9343(5) 0.2016(7) 0.3567(4)
O1 O 0.9293(2) 0.2010(3) 0.44817(15)
O2 O 1.0102(2) 0.1187(3) 0.31655(19)
N4? N 0.6543(7) 0.3333(8) 0.0218(7)
C13? C 0.9522(14) 0.1985(18) 0.3377(10)
N5? N 1.0220(5) 0.1130(6) 0.3811(5)
O3? O 0.5976(4) 0.4418(5) -0.0292(3)
O4? O 0.6528(4) 0.1929(6) -0.0068(4)
#END
