
#######################################################################
#
#                 Cambridge Crystallographic Data Centre
#                                CCDC
#
#######################################################################
#
# If this CIF has been generated from an entry in the Cambridge
# Structural Database, then it will include bibliographic, chemical,
# crystal, experimental, refinement or atomic coordinate data resulting
# from the CCDC's data processing and validation procedures.
#
#######################################################################

data_CSD_CIF_GIMNAU
_audit_creation_date 2018-09-22
_audit_creation_method CSD-ConQuest-V1
_database_code_CSD GIMNAU
_database_code_depnum_ccdc_archive 'CCDC 1835054'
_chemical_formula_sum 'C3 H2 N4 O4'
_chemical_formula_moiety
;
C3 H2 N4 O4
;
_journal_coden_Cambridge 1564
_journal_volume 83
_journal_year 2018
_journal_page_first 804
_journal_name_full 'ChemPlusChem '
loop_
_publ_author_name
"M.F.Bolter"
"A.Harter"
"T.M.Klapotke"
"J.Stierstorfer"
_chemical_name_systematic
;
1,3-dinitropyrazole
;
_cell_volume    584.595
_exptl_crystal_colour 'colorless'
_exptl_crystal_density_diffrn 1.796
_exptl_crystal_description 'block'
_diffrn_ambient_temperature 173
_refine_special_details
;
C1A,N1A and C1B,N1B disordered over two sites with occupancies 0.535:0.465.

;
#These two values have been output from a single CSD field.
_refine_ls_R_factor_gt 0.0339
_refine_ls_wR_factor_gt 0.0339
_symmetry_cell_setting monoclinic
_symmetry_space_group_name_H-M 'P 21/c'
_symmetry_Int_Tables_number 14
loop_
_symmetry_equiv_pos_site_id
_symmetry_equiv_pos_as_xyz
1 x,y,z
2 -x,1/2+y,1/2-z
3 -x,-y,-z
4 x,-1/2-y,-1/2+z
_cell_length_a 5.7084(6)
_cell_length_b 9.2664(8)
_cell_length_c 11.3570(11)
_cell_angle_alpha 90
_cell_angle_beta 103.315(10)
_cell_angle_gamma 90
_cell_formula_units_Z 4
loop_
_atom_type_symbol
_atom_type_radius_bond
C 0.68
H 0.23
N 0.68
O 0.68
loop_
_atom_site_label
_atom_site_type_symbol
_atom_site_fract_x
_atom_site_fract_y
_atom_site_fract_z
O1 O 0.62440(17) 0.07049(11) -0.08903(9)
O2 O 0.99228(17) 0.1453(1) -0.06658(9)
O3 O 1.12118(16) 0.57864(11) 0.21530(9)
O4 O 0.76844(18) 0.65498(11) 0.22991(10)
N1 N 0.90750(16) 0.36166(11) 0.07368(8)
C1 C 0.801(2) 0.4370(13) 0.1320(11)
N2 N 0.7343(16) 0.2720(12) 0.0345(10)
N3 N 0.90393(19) 0.56915(12) 0.19877(9)
N4 N 0.79152(19) 0.15093(11) -0.04799(9)
C2 C 0.5530(2) 0.40056(15) 0.13213(11)
C3 C 0.5227(2) 0.28110(14) 0.06251(11)
H1 H 0.400(3) 0.2209(17) 0.0402(14)
H2 H 0.451(2) 0.4489(16) 0.1735(13)
N5? N 0.775(2) 0.4501(14) 0.1397(12)
C4? C 0.7469(18) 0.2498(15) 0.0225(13)
#END
