
#######################################################################
#
#                 Cambridge Crystallographic Data Centre
#                                CCDC
#
#######################################################################
#
# If this CIF has been generated from an entry in the Cambridge
# Structural Database, then it will include bibliographic, chemical,
# crystal, experimental, refinement or atomic coordinate data resulting
# from the CCDC's data processing and validation procedures.
#
#######################################################################

data_CSD_CIF_GINMIA
_audit_creation_date 2007-12-14
_audit_creation_method CSD-ConQuest-V1
_database_code_CSD GINMIA
_database_code_depnum_ccdc_archive 'CCDC 667347'
_chemical_formula_sum 'C17 H12 N2 O4'
_chemical_formula_moiety
;
C17 H12 N2 O4
;
_journal_coeditor_code "IUCr CI2478"
_journal_coden_Cambridge 1370
_journal_volume 63
_journal_year 2007
_journal_page_first o4304
_journal_name_full 'Acta Crystallogr.,Sect.E:Struct.Rep.Online '
loop_
_publ_author_name
"Gang Lei"
_chemical_name_systematic
;
2-Methylquinolin-8-yl 2-nitrobenzoate
;
_cell_volume    721.879
_exptl_crystal_colour 'colorless'
_exptl_crystal_density_diffrn 1.418
_exptl_crystal_description 'block'
_exptl_crystal_preparation 'ethyl acetate'
_diffrn_ambient_temperature 153
#These two values have been output from a single CSD field.
_refine_ls_R_factor_gt 0.0347
_refine_ls_wR_factor_gt 0.0347
_symmetry_cell_setting triclinic
_symmetry_space_group_name_H-M 'P -1'
_symmetry_Int_Tables_number 2
loop_
_symmetry_equiv_pos_site_id
_symmetry_equiv_pos_as_xyz
1 x,y,z
2 -x,-y,-z
_cell_length_a 7.6661(4)
_cell_length_b 8.1331(3)
_cell_length_c 12.3871(5)
_cell_angle_alpha 95.979(1)
_cell_angle_beta 105.389(2)
_cell_angle_gamma 100.749(1)
_cell_formula_units_Z 2
loop_
_atom_type_symbol
_atom_type_radius_bond
C 0.68
H 0.23
N 0.68
O 0.68
loop_
_atom_site_label
_atom_site_type_symbol
_atom_site_fract_x
_atom_site_fract_y
_atom_site_fract_z
O1 O 0.73507(9) 0.38524(8) 0.30774(6)
O2 O 0.60868(9) 0.12003(9) 0.32654(6)
O3 O 0.77544(12) 0.34184(12) 0.55498(7)
O4 O 0.96676(13) 0.26474(12) 0.69219(6)
N1 N 0.66377(12) 0.25217(10) 0.08459(7)
N2 N 0.91199(12) 0.28391(11) 0.59306(7)
C1 C 0.62798(15) 0.18862(12) -0.02351(9)
C2 C 0.46019(17) 0.19190(14) -0.10690(9)
H1 H 0.43870 0.14270 -0.18360
C3 C 0.33156(16) 0.26503(14) -0.07696(9)
H2 H 0.22040 0.26870 -0.13250
C4 C 0.23707(15) 0.41284(14) 0.07774(10)
H3 H 0.12450 0.42100 0.02550
C5 C 0.27352(15) 0.47534(14) 0.19005(10)
H4 H 0.18640 0.52610 0.21540
C6 C 0.44085(15) 0.46453(13) 0.26868(9)
H5 H 0.46650 0.50730 0.34690
C7 C 0.56502(13) 0.39205(12) 0.23104(8)
C8 C 0.53342(13) 0.32493(11) 0.11554(8)
C9 C 0.36400(14) 0.33626(12) 0.03803(9)
C10 C 0.77083(18) 0.11101(14) -0.05889(10)
H6 H 0.87320 0.11120 0.00830
H7 H 0.81850 0.17690 -0.11090
H8 H 0.71430 -0.00590 -0.09720
C11 C 0.74052(13) 0.23497(12) 0.34368(7)
C12 C 0.93617(13) 0.22311(12) 0.39880(8)
C13 C 1.03825(14) 0.18029(14) 0.32710(9)
H9 H 0.98820 0.17200 0.24740
C14 C 1.21351(15) 0.14958(15) 0.37172(11)
H10 H 1.28250 0.12040 0.32220
C15 C 1.28816(14) 0.16115(14) 0.48743(11)
H11 H 1.40790 0.13960 0.51700
C16 C 1.18880(14) 0.20419(13) 0.56056(9)
H12 H 1.23910 0.21220 0.64030
C17 C 1.01464(13) 0.23525(12) 0.51498(8)
#END
