
#######################################################################
#
#                 Cambridge Crystallographic Data Centre
#                                CCDC
#
#######################################################################
#
# If this CIF has been generated from an entry in the Cambridge
# Structural Database, then it will include bibliographic, chemical,
# crystal, experimental, refinement or atomic coordinate data resulting
# from the CCDC's data processing and validation procedures.
#
#######################################################################

data_CSD_CIF_GINRED
_audit_creation_date 2018-09-22
_audit_creation_method CSD-ConQuest-V1
_database_code_CSD GINRED
_database_code_depnum_ccdc_archive 'CCDC 1587933'
_chemical_formula_sum 'C14 H19 N1 O9'
_chemical_formula_moiety
;
C14 H19 N1 O9
;
_journal_coden_Cambridge 440
_journal_year 2018
_journal_name_full 'New J.Chem. '
loop_
_publ_author_name
"Salia Tangara"
"A.Kanazawa"
"M.Fayolle"
"C.Philouze"
"J.-F.Poisson"
"J.-B.Behr"
"Sandrine Py"
_chemical_name_systematic
;
6-[(acetyloxy)methyl]-1-oxo-2,3,4,5-tetrahydro-1-pyridine-3,4,5-triyl 
triacetate
;
_cell_volume    821.995
_exptl_crystal_colour 'colorless'
_exptl_crystal_density_diffrn 1.395
_exptl_crystal_description 'block'
_diffrn_ambient_temperature 200
_diffrn_special_details
;
twin

;
#These two values have been output from a single CSD field.
_refine_ls_R_factor_gt 0.0564
_refine_ls_wR_factor_gt 0.0564
_symmetry_cell_setting monoclinic
_symmetry_space_group_name_H-M 'P 21'
_symmetry_Int_Tables_number 4
loop_
_symmetry_equiv_pos_site_id
_symmetry_equiv_pos_as_xyz
1 x,y,z
2 -x,1/2+y,-z
_cell_length_a 8.8584(18)
_cell_length_b 7.6373(15)
_cell_length_c 12.517(3)
_cell_angle_alpha 90
_cell_angle_beta 103.91(3)
_cell_angle_gamma 90
_cell_formula_units_Z 2
loop_
_atom_type_symbol
_atom_type_radius_bond
C 0.68
H 0.23
N 0.68
O 0.68
loop_
_atom_site_label
_atom_site_type_symbol
_atom_site_fract_x
_atom_site_fract_y
_atom_site_fract_z
O1 O 0.7246(4) 0.1804(5) 0.2079(3)
O2 O 0.3688(4) 0.3538(5) 0.2616(3)
O3 O 0.7602(4) 0.2739(5) 0.4299(3)
O4 O 0.7362(5) 0.7421(6) 0.2903(4)
O5 O 0.7189(5) 0.4132(5) 0.0346(3)
N1 N 0.6778(5) 0.5855(6) 0.2894(4)
O6 O 0.5904(5) 0.0317(7) 0.0592(4)
O7 O 0.7834(6) 0.6094(7) -0.0782(4)
O8 O 0.2555(5) 0.1489(6) 0.3456(4)
C1 C 0.2456(6) 0.2785(8) 0.2912(4)
C2 C 0.7421(7) 0.4666(8) -0.0626(5)
O9 O 0.6754(6) 0.0450(8) 0.5109(5)
C3 C 0.5174(6) 0.2661(7) 0.2946(4)
H1 H 0.50290 0.13750 0.30350
C4 C 0.6041(6) 0.3477(8) 0.4029(4)
H2 H 0.54950 0.32300 0.46250
C5 C 0.6652(6) 0.4809(7) 0.2065(4)
C6 C 0.5965(6) 0.3015(7) 0.2016(4)
H3 H 0.51930 0.28590 0.12950
C7 C 0.7774(7) 0.1171(9) 0.4790(5)
C8 C 0.7117(7) 0.0643(8) 0.1241(5)
C9 C 0.6228(6) 0.5419(8) 0.3892(4)
H4 H 0.52170 0.60030 0.38480
H5 H 0.69810 0.58800 0.45490
C10 C 0.7271(7) 0.5524(8) 0.1141(5)
H6 H 0.66400 0.65370 0.07980
H7 H 0.83610 0.59150 0.14180
C11 C 0.1020(7) 0.3813(9) 0.2449(5)
H8 H 0.11870 0.50370 0.26840
H9 H 0.01530 0.33270 0.27140
H10 H 0.07760 0.37540 0.16430
C12 C 0.8648(8) -0.0157(9) 0.1245(6)
H11 H 0.92370 0.06320 0.08790
H12 H 0.84860 -0.12780 0.08530
H13 H 0.92300 -0.03520 0.20070
C13 C 0.9377(8) 0.0459(12) 0.4894(7)
H14 H 0.96780 0.06160 0.41960
H15 H 0.93920 -0.07900 0.50750
H16 H 1.01120 0.10860 0.54800
C14 C 0.7071(12) 0.3197(11) -0.1449(6)
H17 H 0.77300 0.21880 -0.11670
H18 H 0.72790 0.35830 -0.21460
H19 H 0.59750 0.28620 -0.15690
#END
