
#######################################################################
#
#                 Cambridge Crystallographic Data Centre
#                                CCDC
#
#######################################################################
#
# If this CIF has been generated from an entry in the Cambridge
# Structural Database, then it will include bibliographic, chemical,
# crystal, experimental, refinement or atomic coordinate data resulting
# from the CCDC's data processing and validation procedures.
#
#######################################################################

data_CSD_CIF_GIPCOZ
_audit_creation_date 2013-09-16
_audit_creation_method CSD-ConQuest-V1
_database_code_CSD GIPCOZ
_database_code_depnum_ccdc_archive 'CCDC 915136'
_chemical_formula_sum 'C18 H14 N2 O2'
_chemical_formula_moiety
;
C18 H14 N2 O2
;
_journal_coden_Cambridge 1366
_journal_volume 355
_journal_year 2013
_journal_page_first 2274
_journal_name_full 'Adv.Synth.Catal. '
loop_
_publ_author_name
"R.Malacea"
"F.Chahdoura"
"M.Devillard"
"N.Saffon"
"M.Gomez"
"D.Bourissou"
_chemical_name_systematic
;
2-(2-Methylphenyl)-3-nitro-6-phenylpyridine
;
_cell_volume   1457.752
_exptl_crystal_colour 'colorless'
_exptl_crystal_density_diffrn 1.323
_exptl_crystal_description 'plate'
_diffrn_ambient_temperature 193
#These two values have been output from a single CSD field.
_refine_ls_R_factor_gt 0.054
_refine_ls_wR_factor_gt 0.054
_symmetry_cell_setting monoclinic
_symmetry_space_group_name_H-M 'P 21/c'
_symmetry_Int_Tables_number 14
loop_
_symmetry_equiv_pos_site_id
_symmetry_equiv_pos_as_xyz
1 x,y,z
2 -x,1/2+y,1/2-z
3 -x,-y,-z
4 x,-1/2-y,-1/2+z
_cell_length_a 13.6284(8)
_cell_length_b 5.9312(4)
_cell_length_c 18.7585(13)
_cell_angle_alpha 90
_cell_angle_beta 105.974(5)
_cell_angle_gamma 90
_cell_formula_units_Z 4
loop_
_atom_type_symbol
_atom_type_radius_bond
C 0.68
H 0.23
N 0.68
O 0.68
loop_
_atom_site_label
_atom_site_type_symbol
_atom_site_fract_x
_atom_site_fract_y
_atom_site_fract_z
N1 N 0.2065(2) 0.7563(5) 0.11532(16)
N2 N 0.4093(2) 0.3373(5) 0.19927(18)
O1 O 0.4221(2) 0.2143(4) 0.25419(16)
O2 O 0.45622(18) 0.3171(4) 0.15267(14)
C1 C 0.3328(2) 0.5187(5) 0.1906(2)
C2 C 0.2780(3) 0.5947(5) 0.1211(2)
C3 C 0.1911(3) 0.8486(6) 0.1773(2)
C4 C 0.2459(3) 0.7771(6) 0.2478(2)
H1 H 0.23380 0.84350 0.29070
C5 C 0.3180(3) 0.6085(5) 0.2547(2)
H2 H 0.35610 0.55610 0.30210
C6 C 0.1130(3) 1.0292(6) 0.1658(2)
C7 C 0.0315(3) 1.0327(7) 0.1023(2)
H3 H 0.02500 0.91620 0.06660
C8 C -0.0403(3) 1.2031(7) 0.0903(2)
H4 H -0.09530 1.20400 0.04630
C9 C -0.0318(3) 1.3726(7) 0.1424(2)
H5 H -0.08090 1.49030 0.13430
C10 C 0.0481(3) 1.3696(6) 0.2061(2)
H6 H 0.05360 1.48460 0.24220
C11 C 0.1205(3) 1.1998(6) 0.2177(2)
H7 H 0.17570 1.20010 0.26150
C12 C 0.2913(3) 0.5088(6) 0.0491(2)
C13 C 0.3578(3) 0.6271(6) 0.0178(2)
C14 C 0.3703(3) 0.5496(8) -0.0497(2)
H8 H 0.41520 0.62610 -0.07230
C15 C 0.3172(3) 0.3614(9) -0.0835(2)
H9 H 0.32670 0.30970 -0.12910
C16 C 0.2516(3) 0.2489(7) -0.0527(3)
H10 H 0.21600 0.12030 -0.07690
C17 C 0.2368(3) 0.3226(7) 0.0142(2)
H11 H 0.19030 0.24690 0.03560
C18 C 0.4168(3) 0.8227(7) 0.0557(2)
H12 H 0.36970 0.94370 0.06010
H13 H 0.46220 0.87660 0.02700
H14 H 0.45750 0.77770 0.10530
#END
