
#######################################################################
#
#                 Cambridge Crystallographic Data Centre
#                                CCDC
#
#######################################################################
#
# If this CIF has been generated from an entry in the Cambridge
# Structural Database, then it will include bibliographic, chemical,
# crystal, experimental, refinement or atomic coordinate data resulting
# from the CCDC's data processing and validation procedures.
#
#######################################################################

data_CSD_CIF_GIQTIK
_audit_creation_date 2008-03-13
_audit_creation_method CSD-ConQuest-V1
_database_code_CSD GIQTIK
_database_code_depnum_ccdc_archive 'CCDC 642823'
_database_code_depnum_ccdc_journal 1267/2067
_chemical_formula_sum 'C18 H20 N2 O4'
_chemical_formula_moiety
;
C18 H20 N2 O4
;
_journal_coden_Cambridge 1267
_journal_volume 222
_journal_year 2007
_journal_page_first 327
_journal_name_full 'Z.Kristallogr.-New Cryst.Struct. '
loop_
_publ_author_name
"Wen-Kui Dong"
"Jin-Gui Duan"
"Chen-Ming Dong"
"Zong-Li Ren"
"Jun-Yan Shi"
_chemical_name_systematic
;
2,2'-((1,4-Butylene)dioxybis(nitrilomethylidyne))diphenol
;
_chemical_melting_point 350
_cell_volume    832.979
_exptl_crystal_colour 'colorless'
_exptl_crystal_density_diffrn 1.309
_exptl_special_details
;
Melting point range 350-351K

;
_exptl_crystal_description 'block'
_exptl_crystal_preparation 'acetonitrile'
_diffrn_ambient_temperature 298
#These two values have been output from a single CSD field.
_refine_ls_R_factor_gt 0.0507
_refine_ls_wR_factor_gt 0.0507
_symmetry_cell_setting monoclinic
_symmetry_space_group_name_H-M 'P 21/c'
_symmetry_Int_Tables_number 14
loop_
_symmetry_equiv_pos_site_id
_symmetry_equiv_pos_as_xyz
1 x,y,z
2 -x,1/2+y,1/2-z
3 -x,-y,-z
4 x,-1/2-y,-1/2+z
_cell_length_a 8.6330(14)
_cell_length_b 5.8850(12)
_cell_length_c 16.492(2)
_cell_angle_alpha 90
_cell_angle_beta 96.200(2)
_cell_angle_gamma 90
_cell_formula_units_Z 2
loop_
_atom_type_symbol
_atom_type_radius_bond
C 0.68
H 0.23
N 0.68
O 0.68
loop_
_atom_site_label
_atom_site_type_symbol
_atom_site_fract_x
_atom_site_fract_y
_atom_site_fract_z
N1 N 0.8343(2) 0.8731(4) 0.05015(12)
O1 O 0.69224(19) 0.9455(3) 0.01039(10)
O2 O 1.0774(2) 0.6112(3) 0.08434(10)
H1 H 0.99580 0.65290 0.05850
C1 C 0.6169(3) 0.7583(4) -0.03293(14)
H2 H 0.69200 0.67910 -0.06230
H3 H 0.53520 0.81570 -0.07260
C2 C 0.5470(3) 0.5926(4) 0.02297(13)
H4 H 0.48030 0.67500 0.05650
H5 H 0.63010 0.52360 0.05900
C3 C 0.9014(3) 1.0249(4) 0.09730(14)
H6 H 0.85460 1.16630 0.10100
C4 C 1.0484(3) 0.9799(4) 0.14478(13)
C5 C 1.1294(3) 0.7750(4) 0.13821(15)
C6 C 1.2649(3) 0.7347(5) 0.18776(16)
H7 H 1.31730 0.59790 0.18350
C7 C 1.3241(3) 0.8944(5) 0.24370(16)
H8 H 1.41620 0.86580 0.27680
C8 C 1.2461(3) 1.0969(5) 0.25058(16)
H9 H 1.28560 1.20530 0.28840
C9 C 1.1109(3) 1.1381(5) 0.20179(14)
H10 H 1.05940 1.27530 0.20680
N1B N 0.1657(2) 0.1269(4) -0.05015(12)
O1B O 0.30776(19) 0.0545(3) -0.01039(10)
O2B O -0.0774(2) 0.3888(3) -0.08434(10)
H1B H 0.00420 0.34710 -0.05850
C1B C 0.3831(3) 0.2417(4) 0.03293(14)
H2B H 0.30800 0.32090 0.06230
H3B H 0.46480 0.18430 0.07260
C2B C 0.4530(3) 0.4074(4) -0.02297(13)
H4B H 0.51970 0.32500 -0.05650
H5B H 0.36990 0.47640 -0.05900
C3B C 0.0986(3) -0.0249(4) -0.09730(14)
H6B H 0.14540 -0.16630 -0.10100
C4B C -0.0484(3) 0.0201(4) -0.14478(13)
C5B C -0.1294(3) 0.2250(4) -0.13821(15)
C6B C -0.2649(3) 0.2653(5) -0.18776(16)
H7B H -0.31730 0.40210 -0.18350
C7B C -0.3241(3) 0.1056(5) -0.24370(16)
H8B H -0.41620 0.13420 -0.27680
C8B C -0.2461(3) -0.0969(5) -0.25058(16)
H9B H -0.28560 -0.20530 -0.28840
C9B C -0.1109(3) -0.1381(5) -0.20179(14)
H10B H -0.05940 -0.27530 -0.20680
#END
