
#######################################################################
#
#                 Cambridge Crystallographic Data Centre
#                                CCDC
#
#######################################################################
#
# If this CIF has been generated from an entry in the Cambridge
# Structural Database, then it will include bibliographic, chemical,
# crystal, experimental, refinement or atomic coordinate data resulting
# from the CCDC's data processing and validation procedures.
#
#######################################################################

data_CSD_CIF_GIRVUA
_audit_creation_date 2014-01-28
_audit_creation_method CSD-ConQuest-V1
_database_code_CSD GIRVUA
_database_code_depnum_ccdc_archive 'CCDC 887841'
_chemical_formula_sum 'C21 H21 N1 O7'
_chemical_formula_moiety
;
C21 H21 N1 O7
;
_journal_coden_Cambridge 920
_journal_volume 9
_journal_year 2014
_journal_page_first 1183
_journal_name_full 'Chem.Asian J. '
loop_
_publ_author_name
"Rong Zhou"
"Chong Duan"
"Changjiang Yang"
"Zhengjie He"
_chemical_name_systematic
;
cis-Ethyl 
5-(3-ethoxy-3-oxoprop-1-en-2-yl)-5-(2-furyl)-4-phenyl-4,5-dihydro-1,2-oxazole-
3-carboxylate 2-oxide
;
_cell_volume   2023.107
_exptl_crystal_density_diffrn 1.315
_exptl_special_details
;
Three hydrogen atoms appear to have been assigned incorrectly to the terminal 
carbon atom of the methylene moiety
;
_diffrn_ambient_temperature 293
_refine_special_details
;
C10',C9' and C10,C9 disordered over two sites with occupancies 0.650:0.350; 
C20',C21' and C20,C21 disordered over two sites with occupancies 0.54:0.46.
;
#These two values have been output from a single CSD field.
_refine_ls_R_factor_gt 0.0831
_refine_ls_wR_factor_gt 0.0831
_symmetry_cell_setting monoclinic
_symmetry_space_group_name_H-M 'P 21/c'
_symmetry_Int_Tables_number 14
loop_
_symmetry_equiv_pos_site_id
_symmetry_equiv_pos_as_xyz
1 x,y,z
2 -x,1/2+y,1/2-z
3 -x,-y,-z
4 x,-1/2-y,-1/2+z
_cell_length_a 9.901(2)
_cell_length_b 16.704(3)
_cell_length_c 12.243(2)
_cell_angle_alpha 90
_cell_angle_beta 92.36(3)
_cell_angle_gamma 90
_cell_formula_units_Z 4
loop_
_atom_type_symbol
_atom_type_radius_bond
C 0.68
H 0.23
N 0.68
O 0.68
loop_
_atom_site_label
_atom_site_type_symbol
_atom_site_fract_x
_atom_site_fract_y
_atom_site_fract_z
O1 O 0.5186(2) 0.15755(13) 0.73866(18)
O2 O 0.3300(3) 0.08400(14) 0.7486(2)
O3 O 0.1275(3) 0.12743(18) 0.5857(3)
O4 O 0.2010(3) 0.22495(16) 0.4788(2)
O5 O 0.5806(3) 0.10967(15) 0.5021(2)
O6 O 0.7139(3) 0.33067(17) 0.5438(2)
O7 O 0.8289(4) 0.3677(2) 0.6954(3)
N1 N 0.3836(3) 0.13760(15) 0.6980(2)
C1 C 0.5794(3) 0.20564(18) 0.6530(2)
C2 C 0.6543(3) 0.14903(19) 0.5817(3)
C3 C 0.7821(4) 0.1232(2) 0.5864(3)
H1 H 0.85190 0.14060 0.63360
C4 C 0.7889(5) 0.0631(2) 0.5034(4)
H2 H 0.86480 0.03360 0.48610
C5 C 0.6692(5) 0.0577(2) 0.4570(3)
H3 H 0.64640 0.02270 0.40000
C6 C 0.6765(3) 0.26330(19) 0.7108(2)
C7 C 0.7039(4) 0.2597(2) 0.8178(3)
C8 C 0.7398(4) 0.3226(2) 0.6402(3)
C9 C 0.8742(9) 0.4415(5) 0.6379(6)
H4 H 0.89420 0.42760 0.56340
H5 H 0.80060 0.47980 0.63490
C10 C 0.9734(18) 0.4730(11) 0.6813(13)
H6 H 0.99540 0.52060 0.64170
H7 H 1.04830 0.43650 0.68120
H8 H 0.95480 0.48690 0.75530
C11 C 0.4539(3) 0.24377(17) 0.5916(3)
H9 H 0.46870 0.24490 0.51300
C12 C 0.4131(3) 0.32686(18) 0.6294(3)
C13 C 0.4044(4) 0.3897(2) 0.5567(4)
H10 H 0.42370 0.38140 0.48380
C14 C 0.3670(5) 0.4653(3) 0.5916(6)
H11 H 0.36160 0.50780 0.54240
C15 C 0.3376(5) 0.4773(3) 0.7007(6)
H12 H 0.31300 0.52790 0.72460
C16 C 0.3448(4) 0.4158(3) 0.7714(4)
H13 H 0.32500 0.42430 0.84410
C17 C 0.3811(4) 0.3401(2) 0.7379(3)
H14 H 0.38430 0.29800 0.78760
C18 C 0.3472(3) 0.18309(18) 0.6147(3)
C19 C 0.2127(4) 0.1740(2) 0.5612(3)
C20 C 0.075(2) 0.2207(12) 0.4126(18)
H15 H 0.06430 0.16730 0.38240
H16 H -0.00060 0.23150 0.45790
C21 C 0.0774(11) 0.2759(11) 0.3286(12)
H17 H -0.00590 0.27310 0.28590
H18 H 0.15160 0.26430 0.28300
H19 H 0.08810 0.32870 0.35870
C22? C 0.951(2) 0.4037(11) 0.6250(13)
H20? H 0.92150 0.42260 0.55290
H21? H 1.02800 0.36840 0.62110
C23? C 0.972(2) 0.4819(11) 0.7247(14)
H22? H 1.04190 0.51770 0.70320
H23? H 0.99660 0.45890 0.79450
H24? H 0.88880 0.51100 0.72960
C24? C 0.062(3) 0.2380(14) 0.432(2)
H25? H 0.03680 0.19430 0.38250
H26? H -0.00210 0.23900 0.48970
C25? C 0.0557(15) 0.3112(11) 0.3739(17)
H27? H -0.03520 0.32060 0.34660
H28? H 0.11500 0.30880 0.31380
H29? H 0.08350 0.35400 0.42210
H30? H 0.76690 0.30120 0.83860
H31? H 0.74260 0.20850 0.83610
H32? H 0.62210 0.26680 0.85610
#END
