
#######################################################################
#
#                 Cambridge Crystallographic Data Centre
#                                CCDC
#
#######################################################################
#
# If this CIF has been generated from an entry in the Cambridge
# Structural Database, then it will include bibliographic, chemical,
# crystal, experimental, refinement or atomic coordinate data resulting
# from the CCDC's data processing and validation procedures.
#
#######################################################################

data_CSD_CIF_GIRWAH
_audit_creation_date 2014-01-28
_audit_creation_method CSD-ConQuest-V1
_database_code_CSD GIRWAH
_database_code_depnum_ccdc_archive 'CCDC 887838'
_chemical_formula_sum 'C15 H15 N1 O6'
_chemical_formula_moiety
;
C15 H15 N1 O6
;
_journal_coden_Cambridge 920
_journal_volume 9
_journal_year 2014
_journal_page_first 1183
_journal_name_full 'Chem.Asian J. '
loop_
_publ_author_name
"Rong Zhou"
"Chong Duan"
"Changjiang Yang"
"Zhengjie He"
_chemical_name_systematic
;
trans-Methyl 
5-(3-methoxy-3-oxoprop-1-en-2-yl)-4-phenyl-4,5-dihydro-1,2-oxazole-3-carboxyla
te 2-oxide
;
_cell_volume    735.936
_exptl_crystal_density_diffrn 1.378
_diffrn_ambient_temperature 293
#These two values have been output from a single CSD field.
_refine_ls_R_factor_gt 0.0372
_refine_ls_wR_factor_gt 0.0372
_symmetry_cell_setting triclinic
_symmetry_space_group_name_H-M 'P -1'
_symmetry_Int_Tables_number 2
loop_
_symmetry_equiv_pos_site_id
_symmetry_equiv_pos_as_xyz
1 x,y,z
2 -x,-y,-z
_cell_length_a 6.3843(13)
_cell_length_b 9.780(2)
_cell_length_c 12.452(3)
_cell_angle_alpha 87.57(3)
_cell_angle_beta 80.83(3)
_cell_angle_gamma 73.50(3)
_cell_formula_units_Z 2
loop_
_atom_type_symbol
_atom_type_radius_bond
C 0.68
H 0.23
N 0.68
O 0.68
loop_
_atom_site_label
_atom_site_type_symbol
_atom_site_fract_x
_atom_site_fract_y
_atom_site_fract_z
O1 O 0.16342(18) 0.76580(14) 0.49351(8)
O2 O 0.23957(19) 0.53783(14) 0.55381(10)
O3 O 0.2804(2) 0.34498(13) 0.37915(10)
O4 O 0.25758(19) 0.45652(13) 0.21635(10)
O5 O 0.4025(2) 0.79236(15) 0.02882(10)
O6 O 0.76851(19) 0.69110(14) 0.02106(10)
N1 N 0.2537(2) 0.46220(17) 0.33335(12)
C1 C 0.1452(3) 0.8163(2) 0.60282(14)
H1 H 0.04050 0.77950 0.65050
H2 H 0.09620 0.91860 0.60390
H3 H 0.28690 0.78440 0.62670
C2 C 0.2103(3) 0.6242(2) 0.48162(14)
C3 C 0.2185(3) 0.59411(18) 0.36562(13)
C4 C 0.1934(2) 0.69756(17) 0.27290(12)
H4 H 0.29610 0.75510 0.27410
C5 C -0.0400(3) 0.79924(18) 0.27357(12)
C6 C -0.0709(3) 0.9095(2) 0.19875(13)
H5 H 0.04870 0.91850 0.14840
C7 C -0.2768(3) 1.0068(2) 0.19759(14)
H6 H -0.29530 1.07880 0.14570
C8 C -0.4540(3) 0.9965(2) 0.27368(16)
H7 H -0.59160 1.06240 0.27430
C9 C -0.4257(3) 0.8878(2) 0.34884(16)
H8 H -0.54490 0.88070 0.40020
C10 C -0.2200(3) 0.7882(2) 0.34859(14)
H9 H -0.20340 0.71430 0.39880
C11 C 0.2822(3) 0.59299(18) 0.17441(13)
H10 H 0.19120 0.62500 0.11680
C12 C 0.5233(3) 0.5801(2) 0.12938(13)
C13 C 0.6900(3) 0.4758(2) 0.15473(15)
H11 H 0.83440 0.47430 0.12610
H12 H 0.66330 0.40370 0.20130
C14 C 0.5550(3) 0.6985(2) 0.05545(13)
C15 C 0.8088(3) 0.8036(2) -0.05277(15)
H13 H 0.77790 0.78720 -0.12330
H14 H 0.96050 0.80350 -0.05830
H15 H 0.71440 0.89420 -0.02540
#END
