
#######################################################################
#
#                 Cambridge Crystallographic Data Centre
#                                CCDC
#
#######################################################################
#
# If this CIF has been generated from an entry in the Cambridge
# Structural Database, then it will include bibliographic, chemical,
# crystal, experimental, refinement or atomic coordinate data resulting
# from the CCDC's data processing and validation procedures.
#
#######################################################################

data_CSD_CIF_GISDIX
_audit_creation_date 2014-01-28
_audit_creation_method CSD-ConQuest-V1
_database_code_CSD GISDIX
_database_code_depnum_ccdc_archive 'CCDC 952361'
_chemical_formula_sum 'C12 H10 N4 O3'
_chemical_formula_moiety
;
C12 H10 N4 O3
;
_journal_coden_Cambridge 36
_journal_volume 752
_journal_year 2014
_journal_page_first 12
_journal_name_full 'J.Organomet.Chem. '
loop_
_publ_author_name
"B.A.Iglesias"
"D.F.Back"
"M.Horner"
"E.R.Crespan"
"F.Broch"
_chemical_name_systematic
;
1-oxido-3-(4-nitrophenyl)-1-phenyl-triaz-1-ene
;
_cell_volume   1198.729
_exptl_crystal_colour 'orange'
_exptl_crystal_density_diffrn 1.431
_exptl_crystal_description 'block'
_diffrn_ambient_temperature 293
#These two values have been output from a single CSD field.
_refine_ls_R_factor_gt 0.0441
_refine_ls_wR_factor_gt 0.0441
_symmetry_cell_setting monoclinic
_symmetry_space_group_name_H-M 'P 21/c'
_symmetry_Int_Tables_number 14
loop_
_symmetry_equiv_pos_site_id
_symmetry_equiv_pos_as_xyz
1 x,y,z
2 -x,1/2+y,1/2-z
3 -x,-y,-z
4 x,-1/2-y,-1/2+z
_cell_length_a 13.073
_cell_length_b 7.006
_cell_length_c 13.116
_cell_angle_alpha 90
_cell_angle_beta 93.74
_cell_angle_gamma 90
_cell_formula_units_Z 4
loop_
_atom_type_symbol
_atom_type_radius_bond
C 0.68
H 0.23
N 0.68
O 0.68
loop_
_atom_site_label
_atom_site_type_symbol
_atom_site_fract_x
_atom_site_fract_y
_atom_site_fract_z
C1 C 0.76612(15) 0.1173(2) 0.12024(16)
C2 C 0.81906(16) 0.1634(3) 0.03682(18)
H1 H 0.78450 0.17760 -0.02700
C3 C 0.92385(19) 0.1886(3) 0.0479(2)
H2 H 0.96020 0.21980 -0.00840
C4 C 0.9736(2) 0.1676(4) 0.1414(3)
H3 H 1.04400 0.18700 0.14890
C5 C 0.92107(19) 0.1178(4) 0.2254(2)
H4 H 0.95630 0.10140 0.28870
C6 C 0.81552(17) 0.0923(3) 0.21538(18)
H5 H 0.77910 0.05920 0.27140
C7 C 0.43709(15) 0.0878(2) 0.23991(14)
C8 C 0.47066(16) 0.1088(3) 0.34201(15)
H6 H 0.54040 0.11600 0.36100
C9 C 0.39958(17) 0.1188(3) 0.41478(16)
H7 H 0.42110 0.13270 0.48340
C10 C 0.29670(16) 0.1085(2) 0.38593(16)
C11 C 0.26308(16) 0.0856(3) 0.28541(17)
H8 H 0.19330 0.07790 0.26690
C12 C 0.33343(16) 0.0741(3) 0.21259(16)
H9 H 0.31130 0.05700 0.14440
N1 N 0.22205(19) 0.1252(3) 0.46324(19)
N2 N 0.65644(12) 0.09802(19) 0.10562(13)
N3 N 0.60493(13) 0.09917(19) 0.18569(12)
N4 N 0.50452(12) 0.0832(2) 0.16262(12)
H10 H 0.48160 0.07000 0.10000
O1 O 0.61355(10) 0.08676(19) 0.01478(11)
O2 O 0.13117(17) 0.1450(3) 0.43405(16)
O3 O 0.25275(17) 0.1156(3) 0.55336(16)
#END
