
#######################################################################
#
#                 Cambridge Crystallographic Data Centre
#                                CCDC
#
#######################################################################
#
# If this CIF has been generated from an entry in the Cambridge
# Structural Database, then it will include bibliographic, chemical,
# crystal, experimental, refinement or atomic coordinate data resulting
# from the CCDC's data processing and validation procedures.
#
#######################################################################

data_CSD_CIF_GISJAV
_audit_creation_date 2014-01-28
_audit_creation_method CSD-ConQuest-V1
_database_code_CSD GISJAV
_database_code_depnum_ccdc_archive 'CCDC 982029'
_chemical_formula_sum 'C16 H16 N4 O7'
_chemical_formula_moiety
;
C16 H16 N4 O7
;
_journal_coeditor_code "sj5380"
_journal_coden_Cambridge 1370
_journal_volume 70
_journal_year 2014
_journal_page_first o188
_journal_name_full 'Acta Crystallogr.,Sect.E:Struct.Rep.Online '
loop_
_publ_author_name
"S.Chantrapromma"
"P.Ruanwas"
"N.Boonnak"
"C.S.Chidan Kumar"
"H.-K.Fun"
_chemical_name_systematic
;
1-(2,4-Dinitrophenyl)-2-[(E)-(3,4,5-trimethoxybenzylidene)hydrazine]
;
_cell_volume   1727.517
_exptl_crystal_colour 'orange'
_exptl_crystal_density_diffrn 1.447
_exptl_crystal_description 'block'
_diffrn_ambient_temperature 100
#These two values have been output from a single CSD field.
_refine_ls_R_factor_gt 0.0476
_refine_ls_wR_factor_gt 0.0476
_symmetry_cell_setting orthorhombic
_symmetry_space_group_name_H-M 'P 21 21 21'
_symmetry_Int_Tables_number 19
loop_
_symmetry_equiv_pos_site_id
_symmetry_equiv_pos_as_xyz
1 x,y,z
2 1/2-x,-y,1/2+z
3 -x,1/2+y,1/2-z
4 1/2+x,1/2-y,-z
_cell_length_a 7.4724(4)
_cell_length_b 14.3106(7)
_cell_length_c 16.1549(7)
_cell_angle_alpha 90
_cell_angle_beta 90
_cell_angle_gamma 90
_cell_formula_units_Z 4
loop_
_atom_type_symbol
_atom_type_radius_bond
C 0.68
H 0.23
N 0.68
O 0.68
loop_
_atom_site_label
_atom_site_type_symbol
_atom_site_fract_x
_atom_site_fract_y
_atom_site_fract_z
O1 O 0.4866(3) 0.35711(12) 0.69622(11)
O2 O 0.4403(4) 0.38109(15) 0.56725(12)
O3 O 0.2099(3) 0.66252(15) 0.46266(11)
O4 O 0.1541(4) 0.77886(16) 0.54355(13)
O5 O 0.6955(2) 0.40878(11) 1.21814(9)
O6 O 0.6333(2) 0.58591(11) 1.26663(9)
O7 O 0.5222(3) 0.71519(11) 1.16062(10)
N1 N 0.4733(3) 0.49707(14) 0.80101(11)
H1 H 0.520(3) 0.4462(17) 0.7932(14)
N2 N 0.4873(3) 0.53900(13) 0.87742(10)
N3 N 0.4436(3) 0.40829(14) 0.63849(13)
N4 N 0.2094(3) 0.69931(16) 0.53100(13)
C1 C 0.4052(3) 0.54403(15) 0.73618(12)
C2 C 0.3933(3) 0.50496(15) 0.65539(13)
C3 C 0.3317(3) 0.55573(17) 0.58869(13)
H2 H 0.32790 0.52920 0.53620
C4 C 0.2756(3) 0.64651(16) 0.60122(14)
C5 C 0.2773(3) 0.68693(16) 0.67997(14)
H3 H 0.23490 0.74740 0.68780
C6 C 0.3416(3) 0.63669(16) 0.74534(14)
H4 H 0.34380 0.66420 0.79750
C7 C 0.5672(3) 0.48885(17) 0.93111(13)
H5 H 0.61490 0.43170 0.91480
C8 C 0.5867(3) 0.51809(16) 1.01780(13)
C9 C 0.6408(3) 0.45032(17) 1.07387(13)
H6 H 0.67170 0.39090 1.05540
C10 C 0.6487(3) 0.47149(16) 1.15789(13)
C11 C 0.6106(3) 0.56190(16) 1.18476(13)
C12 C 0.5579(3) 0.63001(15) 1.12739(14)
C13 C 0.5446(4) 0.60796(16) 1.04410(13)
H7 H 0.50800 0.65290 1.00610
C14 C 0.7279(4) 0.31452(17) 1.19216(17)
H8 H 0.76770 0.27820 1.23860
H9 H 0.81820 0.31400 1.14990
H10 H 0.61930 0.28820 1.17060
C15 C 0.4822(4) 0.5655(2) 1.31779(15)
H11 H 0.50730 0.58400 1.37370
H12 H 0.45810 0.49960 1.31620
H13 H 0.37970 0.59910 1.29780
C16 C 0.4671(7) 0.78726(19) 1.10517(18)
H14 H 0.44940 0.84420 1.13550
H15 H 0.35710 0.76950 1.07880
H16 H 0.55780 0.79660 1.06390
#END
