
#######################################################################
#
#                 Cambridge Crystallographic Data Centre
#                                CCDC
#
#######################################################################
#
# If this CIF has been generated from an entry in the Cambridge
# Structural Database, then it will include bibliographic, chemical,
# crystal, experimental, refinement or atomic coordinate data resulting
# from the CCDC's data processing and validation procedures.
#
#######################################################################

data_CSD_CIF_GISQUW
_audit_creation_date 2014-01-29
_audit_creation_method CSD-ConQuest-V1
_database_code_CSD GISQUW
_database_code_depnum_ccdc_archive 'CCDC 967150'
_chemical_formula_sum 'C14 H11 N1 O3'
_chemical_formula_moiety
;
C14 H11 N1 O3
;
_journal_coden_Cambridge 1291
_journal_year 2014
_journal_page_first 2044
_journal_name_full 'Eur.J.Org.Chem. '
loop_
_publ_author_name
"M.A.Christensen"
"E.A.D.Pia"
"J.Houmller"
"Sean Thomsen"
"M.Wanko"
"A.D.Bond"
"Angel Rubio"
"S.B.Nielsen"
"M.B.Nielsen"
_chemical_name_systematic
;
4-(1-(4-nitrophenyl)vinyl)phenol
;
_chemical_melting_point 398
_cell_volume   1162.419
_exptl_crystal_colour 'yellow'
_exptl_crystal_density_diffrn 1.378
_exptl_special_details
;
Melting point range 398-400K

;
_exptl_crystal_description 'block'
_diffrn_ambient_temperature 150
#These two values have been output from a single CSD field.
_refine_ls_R_factor_gt 0.0306
_refine_ls_wR_factor_gt 0.0306
_symmetry_cell_setting monoclinic
_symmetry_space_group_name_H-M 'P 21/n'
_symmetry_Int_Tables_number 14
loop_
_symmetry_equiv_pos_site_id
_symmetry_equiv_pos_as_xyz
1 x,y,z
2 1/2-x,1/2+y,1/2-z
3 -x,-y,-z
4 -1/2+x,-1/2-y,-1/2+z
_cell_length_a 6.0965(3)
_cell_length_b 9.8381(6)
_cell_length_c 19.4703(10)
_cell_angle_alpha 90
_cell_angle_beta 95.497(2)
_cell_angle_gamma 90
_cell_formula_units_Z 4
loop_
_atom_type_symbol
_atom_type_radius_bond
C 0.68
H 0.23
N 0.68
O 0.68
loop_
_atom_site_label
_atom_site_type_symbol
_atom_site_fract_x
_atom_site_fract_y
_atom_site_fract_z
O1 O 1.06434(16) 0.6642(1) 0.48631(5)
H1 H 1.201(4) 0.679(2) 0.4976(11)
O2 O 0.03249(18) 0.84092(12) 0.06327(6)
O3 O 0.02830(18) 0.66608(11) -0.00186(5)
N1 N 0.10883(17) 0.73213(12) 0.04759(5)
C1 C 1.0093(2) 0.44462(13) 0.17608(7)
H2 H 0.97770 0.41830 0.12920
H3 H 1.13890 0.41240 0.20200
C2 C 0.87194(18) 0.52662(11) 0.20546(6)
C3 C 0.66881(18) 0.57778(11) 0.16570(5)
C4 C 0.55760(19) 0.49991(12) 0.11333(6)
H4 H 0.60890 0.41100 0.10440
C5 C 0.37478(19) 0.54997(13) 0.07438(6)
H5 H 0.30040 0.49700 0.03860
C6 C 0.30211(18) 0.67889(12) 0.08859(6)
C7 C 0.40573(19) 0.75890(12) 0.14009(6)
H6 H 0.35250 0.84740 0.14880
C8 C 0.58849(19) 0.70730(12) 0.17863(6)
H7 H 0.66100 0.76080 0.21460
C9 C 0.92097(18) 0.57065(11) 0.27838(6)
C10 C 1.13027(18) 0.61645(12) 0.30266(6)
H8 H 1.23930 0.62630 0.27130
C11 C 1.18290(19) 0.64788(12) 0.37165(6)
H9 H 1.32670 0.67880 0.38720
C12 C 1.02535(19) 0.63407(12) 0.41785(6)
C13 C 0.81514(18) 0.59013(12) 0.39461(6)
H10 H 0.70640 0.58080 0.42610
C14 C 0.76387(18) 0.55991(12) 0.32573(6)
H11 H 0.61870 0.53120 0.31020
#END
