
#######################################################################
#
#                 Cambridge Crystallographic Data Centre
#                                CCDC
#
#######################################################################
#
# If this CIF has been generated from an entry in the Cambridge
# Structural Database, then it will include bibliographic, chemical,
# crystal, experimental, refinement or atomic coordinate data resulting
# from the CCDC's data processing and validation procedures.
#
#######################################################################

data_CSD_CIF_GISWEK
_audit_creation_date 1999-04-26
_audit_creation_method CSD-ConQuest-V1
_database_code_CSD GISWEK
_chemical_formula_sum 'C22 H19 N3 O3'
_chemical_formula_moiety
;
C22 H19 N3 O3
;
_journal_coden_Cambridge 95
_journal_year 1998
_journal_page_first 1121
_journal_name_full 'Izv.Akad.Nauk SSSR,Ser.Khim.(Russ.)(Russ.Chem.Bull.) '
loop_
_publ_author_name
"S.M.Aldoshin"
"I.I.Chuev"
"O.S.Filipenko"
"A.N.Utenyshev"
"V.Lokshin"
"P.Laregenie"
"A.Samat"
"R.Guglielmetti"
_chemical_name_systematic
;
Spiro(1,3,3-trimethyl-6-nitroindoline-2,3'-3H-naphtho-(2,1-b)(1,4)oxazine)
;
_cell_volume   1863.331
_exptl_crystal_density_diffrn 1.331
_exptl_crystal_preparation 'heptane'
_diffrn_ambient_temperature ?
_diffrn_special_details
;
The study was carried out at room temperature,in the range 283-303K

;
#These two values have been output from a single CSD field.
_refine_ls_R_factor_gt 0.051
_refine_ls_wR_factor_gt 0.051
_symmetry_cell_setting monoclinic
_symmetry_space_group_name_H-M 'P 21/c'
_symmetry_Int_Tables_number 14
loop_
_symmetry_equiv_pos_site_id
_symmetry_equiv_pos_as_xyz
1 x,y,z
2 -x,1/2+y,1/2-z
3 -x,-y,-z
4 x,-1/2-y,-1/2+z
_cell_length_a 8.462(3)
_cell_length_b 15.370(6)
_cell_length_c 14.363(7)
_cell_angle_alpha 90
_cell_angle_beta 94.08(3)
_cell_angle_gamma 90
_cell_formula_units_Z 4
loop_
_atom_type_symbol
_atom_type_radius_bond
C 0.68
H 0.23
N 0.68
O 0.68
loop_
_atom_site_label
_atom_site_type_symbol
_atom_site_fract_x
_atom_site_fract_y
_atom_site_fract_z
O1 O 0.4580(2) 0.3620(1) 0.0823(2)
N1 N 0.5475(2) 0.1946(1) 0.1459(1)
N2 N 0.2101(2) 0.3028(1) 0.1159(1)
C1 C 0.3695(1) 0.3218(1) 0.1539(2)
C2 C 0.4509(1) 0.2406(2) 0.1895(2)
C3 C 0.5917(1) 0.2275(2) 0.0593(2)
C4 C 0.5468(2) 0.3092(1) 0.0297(2)
C5 C 0.5995(2) 0.3451(1) -0.0528(2)
C6 C 0.6942(2) 0.2966(1) -0.1066(1)
C7 C 0.7383(2) 0.2105(1) -0.0805(1)
C8 C 0.8342(2) 0.1581(1) -0.1362(1)
C9 C 0.8692(2) 0.0747(2) -0.1104(1)
C10 C 0.8117(1) 0.0389(2) -0.0308(2)
C11 C 0.7240(2) 0.0879(2) 0.0251(2)
C12 C 0.6848(2) 0.1745(2) 0.0022(2)
C13 C 0.1716(2) 0.2349(2) 0.0475(2)
O2 O -0.2426(3) 0.6227(1) 0.1432(2)
O3 O -0.0425(3) 0.6610(1) 0.2342(2)
N3 N -0.1105(2) 0.6084(1) 0.1817(2)
C14 C 0.1153(1) 0.3744(1) 0.1252(2)
C15 C 0.1899(1) 0.4344(2) 0.1867(1)
C16 C 0.1187(2) 0.5118(2) 0.2058(1)
C17 C -0.0322(2) 0.5275(2) 0.1610(1)
C18 C -0.1065(2) 0.4674(1) 0.1026(1)
C19 C -0.0347(2) 0.3908(2) 0.0832(1)
C20 C 0.3445(2) 0.3951(2) 0.2280(1)
C21 C 0.3122(2) 0.3553(1) 0.3233(1)
C22 C 0.4821(1) 0.4586(2) 0.2398(1)
H1 H 0.421(1) 0.220(1) 0.256(2)
H2 H 0.567(1) 0.401(1) -0.073(2)
H3 H 0.733(1) 0.332(2) -0.168(2)
H4 H 0.873(1) 0.189(1) -0.186(2)
H5 H 0.947(1) 0.028(2) -0.143(2)
H6 H 0.843(1) -0.016(1) -0.015(2)
H7 H 0.686(1) 0.064(1) 0.077(2)
H8 H 0.060(1) 0.213(1) 0.057(2)
H9 H 0.187(1) 0.264(1) -0.019(2)
H10 H 0.233(1) 0.186(1) 0.070(2)
H11 H 0.174(1) 0.552(1) 0.245(2)
H12 H -0.205(1) 0.482(2) 0.081(1)
H13 H -0.081(1) 0.348(2) 0.042(2)
H14 H 0.272(1) 0.401(2) 0.364(2)
H15 H 0.234(1) 0.317(2) 0.321(2)
H16 H 0.578(1) 0.428(2) 0.265(2)
H17 H 0.499(1) 0.493(2) 0.181(2)
H18 H 0.409(1) 0.333(2) 0.352(2)
H19 H 0.461(1) 0.504(2) 0.285(2)
#END
