
#######################################################################
#
#                 Cambridge Crystallographic Data Centre
#                                CCDC
#
#######################################################################
#
# If this CIF has been generated from an entry in the Cambridge
# Structural Database, then it will include bibliographic, chemical,
# crystal, experimental, refinement or atomic coordinate data resulting
# from the CCDC's data processing and validation procedures.
#
#######################################################################

data_CSD_CIF_GIVGEZ
_audit_creation_date 2014-01-30
_audit_creation_method CSD-ConQuest-V1
_database_code_CSD GIVGEZ
_database_code_depnum_ccdc_archive 'CCDC 980062'
_chemical_formula_sum 'C20 H21 N3 O3'
_chemical_formula_moiety
;
C20 H21 N3 O3
;
_journal_coeditor_code "ov3043"
_journal_coden_Cambridge 1777
_journal_volume 70
_journal_year 2014
_journal_page_first 236
_journal_name_full 'Acta Crystallogr.,Sect.C:Cryst.Struct.Chem. '
loop_
_publ_author_name
"R.Vishnupriya"
"J.Suresh"
"S.Maharani"
"R.R.Kumar"
_chemical_name_systematic
;
2-ethoxy-4-(3-nitrophenyl)-5,6,7,8,9,10-hexahydrocycloocta[b]pyridine-3-carbon
itrile
;
_cell_volume   1829.356
_exptl_crystal_colour 'colorless'
_exptl_crystal_density_diffrn 1.276
_exptl_crystal_description 'block'
_diffrn_ambient_temperature 293
#These two values have been output from a single CSD field.
_refine_ls_R_factor_gt 0.0434
_refine_ls_wR_factor_gt 0.0434
_symmetry_cell_setting monoclinic
_symmetry_space_group_name_H-M 'P 21/c'
_symmetry_Int_Tables_number 14
loop_
_symmetry_equiv_pos_site_id
_symmetry_equiv_pos_as_xyz
1 x,y,z
2 -x,1/2+y,1/2-z
3 -x,-y,-z
4 x,-1/2-y,-1/2+z
_cell_length_a 13.2948(6)
_cell_length_b 11.0251(4)
_cell_length_c 14.0788(5)
_cell_angle_alpha 90
_cell_angle_beta 117.566(2)
_cell_angle_gamma 90
_cell_formula_units_Z 4
loop_
_atom_type_symbol
_atom_type_radius_bond
C 0.68
H 0.23
N 0.68
O 0.68
loop_
_atom_site_label
_atom_site_type_symbol
_atom_site_fract_x
_atom_site_fract_y
_atom_site_fract_z
C1 C 0.36597(13) 0.41011(14) 0.52565(12)
C2 C 0.46750(15) 0.34889(16) 0.61207(13)
H1 H 0.48830 0.39090 0.67910
H2 H 0.53050 0.35660 0.59560
C3 C 0.45028(17) 0.21487(17) 0.62719(14)
H3 H 0.50920 0.19000 0.69700
H4 H 0.37810 0.20600 0.62810
C4 C 0.45164(18) 0.12803(17) 0.54357(16)
H5 H 0.52170 0.14060 0.53940
H6 H 0.45310 0.04580 0.56860
C5 C 0.35358(17) 0.13832(16) 0.43116(16)
H7 H 0.32990 0.05710 0.40340
H8 H 0.29040 0.17650 0.43600
C6 C 0.37691(17) 0.20869(16) 0.35095(15)
H9 H 0.30860 0.20840 0.28270
H10 H 0.43520 0.16640 0.34090
C7 C 0.41459(15) 0.33994(15) 0.38117(13)
H11 H 0.49220 0.34070 0.43790
H12 H 0.41330 0.38090 0.31960
C8 C 0.34122(13) 0.40896(13) 0.41786(12)
C9 C 0.24267(13) 0.46828(13) 0.34510(12)
C10 C 0.17521(13) 0.52697(14) 0.38253(12)
C11 C 0.20782(14) 0.52080(15) 0.49244(13)
C12 C 0.07292(16) 0.58885(15) 0.31150(13)
C13 C 0.1672(2) 0.5605(2) 0.63766(16)
H13 H 0.24600 0.58120 0.68370
H14 H 0.15510 0.47690 0.65130
C14 C 0.0923(2) 0.64137(19) 0.65899(17)
H15 H 0.10650 0.72390 0.64710
H16 H 0.10680 0.63180 0.73200
H17 H 0.01460 0.62130 0.61180
C15 C 0.20771(12) 0.46913(14) 0.22788(12)
C16 C 0.13633(16) 0.38019(17) 0.16128(15)
H18 H 0.10840 0.32040 0.18940
C17 C 0.10621(17) 0.3797(2) 0.05310(17)
H19 H 0.05900 0.31900 0.00930
C18 C 0.14530(17) 0.4679(2) 0.00973(14)
H20 H 0.12470 0.46810 -0.06300
C19 C 0.21497(14) 0.55493(17) 0.07608(13)
C20 C 0.24723(13) 0.55742(15) 0.18423(12)
H21 H 0.29520 0.61810 0.22740
N1 N 0.29927(12) 0.46418(12) 0.56137(10)
N2 N 0.26034(18) 0.64955(18) 0.03254(14)
N3 N -0.00905(15) 0.63649(15) 0.25574(13)
O1 O 0.13996(11) 0.57615(12) 0.52573(9)
O2 O 0.2225(2) 0.65610(18) -0.06352(13)
O3 O 0.33311(16) 0.71707(19) 0.09448(15)
#END
