
#######################################################################
#
#                 Cambridge Crystallographic Data Centre
#                                CCDC
#
#######################################################################
#
# If this CIF has been generated from an entry in the Cambridge
# Structural Database, then it will include bibliographic, chemical,
# crystal, experimental, refinement or atomic coordinate data resulting
# from the CCDC's data processing and validation procedures.
#
#######################################################################

data_CSD_CIF_GIWHOJ
_audit_creation_date 1999-04-26
_audit_creation_method CSD-ConQuest-V1
_database_code_CSD GIWHOJ
_database_code_depnum_ccdc_archive 'CCDC 103518'
_chemical_formula_sum 'C16 H13 N1 O2'
_chemical_formula_moiety
;
C16 H13 N1 O2
;
_journal_coden_Cambridge 1094
_journal_volume 9
_journal_year 1998
_journal_page_first 305
_journal_name_full 'Struct.Chem. '
loop_
_publ_author_name
"M.L.Peterson"
"S.W.Staley"
_chemical_name_systematic
;
(E)-1-Cyclo-octatetraenyl-2-(4-nitrophenyl)ethene
;
_chemical_name_common
;
1-(E)-(4-Nitrophenylethenyl)cyclo-octatetraene
;
_chemical_melting_point 371
_cell_volume   1313.745
_exptl_crystal_colour 'yellow'
_exptl_crystal_density_diffrn 1.27
_exptl_crystal_description 'blades'
_exptl_crystal_preparation 'acetone'
_diffrn_ambient_temperature ?
_diffrn_special_details
;
The study was carried out at room temperature,in the range 283-303K

;
#These two values have been output from a single CSD field.
_refine_ls_R_factor_gt 0.0629
_refine_ls_wR_factor_gt 0.0629
_symmetry_cell_setting monoclinic
_symmetry_space_group_name_H-M 'P 21/c'
_symmetry_Int_Tables_number 14
loop_
_symmetry_equiv_pos_site_id
_symmetry_equiv_pos_as_xyz
1 x,y,z
2 -x,1/2+y,1/2-z
3 -x,-y,-z
4 x,-1/2-y,-1/2+z
_cell_length_a 8.315(2)
_cell_length_b 14.279(3)
_cell_length_c 11.081(3)
_cell_angle_alpha 90
_cell_angle_beta 93.08
_cell_angle_gamma 90
_cell_formula_units_Z 4
loop_
_atom_type_symbol
_atom_type_radius_bond
C 0.68
H 0.23
N 0.68
O 0.68
loop_
_atom_site_label
_atom_site_type_symbol
_atom_site_fract_x
_atom_site_fract_y
_atom_site_fract_z
O1 O 0.5767(4) 0.9807(2) -0.1786(2)
O2 O 0.6271(3) 0.8770(2) -0.3102(2)
N1 N 0.5691(3) 0.9009(2) -0.2166(2)
C1 C 0.1553(3) 0.4716(2) 0.1158(2)
C2 C 0.0458(4) 0.5095(2) 0.2043(3)
H1 H -0.0363(4) 0.5516(2) 0.1731(3)
C3 C 0.0481(4) 0.4903(2) 0.3204(3)
H2 H -0.0300(4) 0.5215(2) 0.3669(3)
C4 C 0.1559(5) 0.4246(3) 0.3868(3)
H3 H 0.2211(5) 0.4504(3) 0.4527(3)
C5 C 0.1731(5) 0.3356(3) 0.3634(3)
H4 H 0.2480(5) 0.3006(3) 0.4146(3)
C6 C 0.0894(4) 0.2837(2) 0.2660(4)
H5 H 0.0280(4) 0.2305(2) 0.2896(4)
C7 C 0.0862(4) 0.3033(2) 0.1487(3)
H6 H 0.0227(4) 0.2628(2) 0.0959(3)
C8 C 0.1653(3) 0.3806(2) 0.0906(2)
H7 H 0.2378(3) 0.3644(2) 0.0293(2)
C9 C 0.2422(3) 0.5383(2) 0.0444(2)
H8 H 0.3025(3) 0.5135(2) -0.0199(2)
C10 C 0.2467(3) 0.6305(2) 0.0594(2)
H9 H 0.1883(3) 0.6546(2) 0.1251(2)
C11 C 0.3288(3) 0.6987(2) -0.0140(2)
C12 C 0.4078(3) 0.6739(2) -0.1167(2)
H10 H 0.4086(3) 0.6093(2) -0.1409(2)
C13 C 0.4853(3) 0.7392(2) -0.1828(2)
H11 H 0.5375(3) 0.7213(2) -0.2544(2)
C14 C 0.4851(3) 0.8308(2) -0.1471(2)
C15 C 0.4072(4) 0.8584(2) -0.0474(3)
H12 H 0.4074(4) 0.9232(2) -0.0245(3)
C16 C 0.3291(4) 0.7925(2) 0.0183(2)
H13 H 0.2739(4) 0.8115(2) 0.0882(2)
#END
