
#######################################################################
#
#                 Cambridge Crystallographic Data Centre
#                                CCDC
#
#######################################################################
#
# If this CIF has been generated from an entry in the Cambridge
# Structural Database, then it will include bibliographic, chemical,
# crystal, experimental, refinement or atomic coordinate data resulting
# from the CCDC's data processing and validation procedures.
#
#######################################################################

data_CSD_CIF_GIXJUU
_audit_creation_date 2014-02-03
_audit_creation_method CSD-ConQuest-V1
_database_code_CSD GIXJUU
_database_code_depnum_ccdc_archive 'CCDC 923504'
_chemical_formula_sum 'C24 H20 N6 O2'
_chemical_formula_moiety
;
C24 H20 N6 O2
;
_journal_coden_Cambridge 1295
_journal_volume 37
_journal_year 2013
_journal_page_first 21
_journal_name_full 'Inorg.Chem.Commun. '
loop_
_publ_author_name
"E.Hrishikesan"
"P.Kannan"
_chemical_name_systematic
;
4-((4-Nitrophenyl)diazenyl)-N,N-bis(pyridin-2-ylmethyl)aniline
;
_cell_volume   2090.194
_exptl_crystal_colour 'pink'
_exptl_crystal_density_diffrn 1.349
_exptl_crystal_description 'Block'
_diffrn_ambient_temperature 293
#These two values have been output from a single CSD field.
_refine_ls_R_factor_gt 0.038
_refine_ls_wR_factor_gt 0.038
_symmetry_cell_setting monoclinic
_symmetry_space_group_name_H-M 'P 21/c'
_symmetry_Int_Tables_number 14
loop_
_symmetry_equiv_pos_site_id
_symmetry_equiv_pos_as_xyz
1 x,y,z
2 -x,1/2+y,1/2-z
3 -x,-y,-z
4 x,-1/2-y,-1/2+z
_cell_length_a 9.6546(1)
_cell_length_b 6.0528(1)
_cell_length_c 35.7968(5)
_cell_angle_alpha 90
_cell_angle_beta 92.294(1)
_cell_angle_gamma 90
_cell_formula_units_Z 4
loop_
_atom_type_symbol
_atom_type_radius_bond
C 0.68
H 0.23
N 0.68
O 0.68
loop_
_atom_site_label
_atom_site_type_symbol
_atom_site_fract_x
_atom_site_fract_y
_atom_site_fract_z
C1 C 0.7062(2) 0.6618(4) 0.71441(5)
H1 H 0.71700 0.79820 0.70290
C2 C 0.5999(2) 0.5299(5) 0.70178(5)
H2 H 0.53980 0.57550 0.68230
C3 C 0.5840(2) 0.3296(5) 0.71837(6)
H3 H 0.51200 0.23630 0.71050
C4 C 0.67575(18) 0.2664(4) 0.74695(5)
H4 H 0.66740 0.12940 0.75840
C5 C 0.77971(15) 0.4100(3) 0.75808(4)
C6 C 0.88648(15) 0.3541(3) 0.78852(4)
H5 H 0.96970 0.30240 0.77700
H6 H 0.91020 0.48800 0.80220
C7 C 0.91249(15) -0.0246(3) 0.81433(4)
H7 H 0.94030 -0.05330 0.78900
H8 H 0.84660 -0.13820 0.82070
C8 C 1.03838(15) -0.0444(3) 0.84046(4)
C9 C 1.08454(17) 0.1243(3) 0.86330(4)
H9 H 1.03820 0.25900 0.86330
C10 C 1.20020(18) 0.0914(4) 0.88617(5)
H10 H 1.23290 0.20290 0.90210
C11 C 1.26656(19) -0.1076(4) 0.88522(5)
H11 H 1.34600 -0.13360 0.90010
C12 C 1.21335(19) -0.2681(3) 0.86175(6)
H12 H 1.25850 -0.40370 0.86140
C13 C 0.75454(14) 0.2399(2) 0.84255(4)
C14 C 0.68636(15) 0.4445(3) 0.84292(4)
H13 H 0.70160 0.54670 0.82410
C15 C 0.59740(15) 0.4965(3) 0.87061(4)
H14 H 0.55400 0.63360 0.87030
C16 C 0.57103(15) 0.3492(3) 0.89901(4)
C17 C 0.63688(16) 0.1448(3) 0.89882(4)
H15 H 0.61940 0.04290 0.91750
C18 C 0.72699(16) 0.0907(3) 0.87163(4)
H16 H 0.77060 -0.04630 0.87240
C19 C 0.35871(16) 0.3688(3) 0.97736(4)
C20 C 0.2978(2) 0.5740(3) 0.97539(5)
H17 H 0.32070 0.67170 0.95660
C21 C 0.2026(2) 0.6359(4) 1.00127(5)
H18 H 0.16090 0.77430 1.00000
C22 C 0.17119(18) 0.4900(4) 1.02865(5)
C23 C 0.2304(2) 0.2872(4) 1.03124(5)
H19 H 0.20730 0.19030 1.05020
C24 C 0.32524(19) 0.2269(4) 1.00539(5)
H20 H 0.36690 0.08850 1.00700
N1 N 0.79572(15) 0.6071(2) 0.74223(4)
N2 N 1.10072(14) -0.2415(2) 0.83938(4)
N3 N 0.84324(12) 0.1878(2) 0.81495(3)
N4 N 0.47837(13) 0.4230(2) 0.92583(3)
N5 N 0.45645(14) 0.2879(2) 0.95152(4)
N6 N 0.07087(19) 0.5574(4) 1.05633(5)
O1 O 0.01479(19) 0.7372(4) 1.05224(5)
O2 O 0.0479(2) 0.4325(4) 1.08160(5)
#END
