
#######################################################################
#
#                 Cambridge Crystallographic Data Centre
#                                CCDC
#
#######################################################################
#
# If this CIF has been generated from an entry in the Cambridge
# Structural Database, then it will include bibliographic, chemical,
# crystal, experimental, refinement or atomic coordinate data resulting
# from the CCDC's data processing and validation procedures.
#
#######################################################################

data_CSD_CIF_GIYPAF
_audit_creation_date 1999-05-04
_audit_creation_method CSD-ConQuest-V1
_database_code_CSD GIYPAF
_database_code_depnum_ccdc_archive 'CCDC 1169092; CCDC 402580'
_database_code_depnum_ccdc_fiz 'CSD 402580'
_chemical_formula_sum 'C20 H24 N6 O10'
_chemical_formula_moiety
;
C20 H24 N6 O10
;
_journal_coden_Cambridge 1267
_journal_volume 212
_journal_year 1997
_journal_page_first 191
_journal_name_full 'Z.Kristallogr.-New Cryst.Struct. '
loop_
_publ_author_name
"Gy Argay"
"A.Kalman"
"I.Pinter"
"A.Messmer"
_chemical_name_systematic
;
3,4,5,6-tetrakis-O-Acetyl-2-azido-2-deoxy-D-glucose 4-nitrophenylhydrazon
;
_cell_volume   1251.777
_exptl_crystal_colour 'yellow'
_exptl_crystal_density_diffrn 1.349
_exptl_crystal_description 'block'
_diffrn_ambient_temperature ?
_diffrn_special_details
;
The study was carried out at room temperature,in the range 283-303K

;
#These two values have been output from a single CSD field.
_refine_ls_R_factor_gt 0.0367
_refine_ls_wR_factor_gt 0.0367
_symmetry_cell_setting monoclinic
_symmetry_space_group_name_H-M 'P 21'
_symmetry_Int_Tables_number 4
loop_
_symmetry_equiv_pos_site_id
_symmetry_equiv_pos_as_xyz
1 x,y,z
2 -x,1/2+y,-z
_cell_length_a 10.647(4)
_cell_length_b 10.573(3)
_cell_length_c 11.121(2)
_cell_angle_alpha 90
_cell_angle_beta 90.80(3)
_cell_angle_gamma 90
_cell_formula_units_Z 2
loop_
_atom_type_symbol
_atom_type_radius_bond
C 0.68
H 0.23
N 0.68
O 0.68
loop_
_atom_site_label
_atom_site_type_symbol
_atom_site_fract_x
_atom_site_fract_y
_atom_site_fract_z
O1 O 0.1466(2) 0.5859(2) 0.8917(2)
O2 O 0.0039(3) 0.7035(3) 0.9839(4)
O3 O 0.4144(2) 0.5444(3) 0.8872(2)
O4 O 0.5727(3) 0.6768(5) 0.8488(3)
O5 O 0.2770(2) 0.6680(2) 1.1558(2)
O6 O 0.1470(3) 0.5248(3) 1.2312(3)
O7 O 0.5361(2) 0.6228(3) 1.1547(2)
O8 O 0.6925(3) 0.4992(4) 1.0972(4)
O9 O -0.4253(3) 0.4249(3) 0.3868(3)
O10 O -0.5533(3) 0.5752(4) 0.4297(3)
N1 N 0.0563(2) 0.7475(3) 0.6634(3)
N2 N -0.0567(3) 0.8046(3) 0.6390(3)
H1 H -0.0683(3) 0.8827(3) 0.6572(3)
N3 N 0.2961(3) 0.6506(4) 0.6823(3)
N4 N 0.2286(4) 0.5590(4) 0.6592(3)
N5 N 0.1769(5) 0.4685(5) 0.6297(5)
N6 N -0.4486(3) 0.5299(4) 0.4294(3)
C1 C 0.1325(3) 0.8032(4) 0.7344(3)
H2 H 0.1138(3) 0.8834(4) 0.7635(3)
C2 C 0.2515(3) 0.7403(3) 0.7708(3)
H3 H 0.3152(3) 0.8070(3) 0.7769(3)
C3 C 0.2361(3) 0.6865(3) 0.8989(3)
H4 H 0.2010(3) 0.7533(3) 0.9494(3)
C4 C 0.3553(3) 0.6392(3) 0.9590(3)
H5 H 0.4133(3) 0.7101(3) 0.9719(3)
C5 C 0.3310(3) 0.5737(3) 1.0785(3)
H6 H 0.2702(3) 0.5052(3) 1.0658(3)
C6 C 0.4479(4) 0.5212(4) 1.1369(4)
H7 H 0.4277(4) 0.4830(4) 1.2136(4)
H8 H 0.4841(4) 0.4566(4) 1.0861(4)
C7 C 0.0312(3) 0.6080(4) 0.9338(4)
C8 C -0.0547(4) 0.5014(5) 0.9065(5)
H9 H -0.0188(18) 0.4242(7) 0.9367(31)
H10 H -0.0669(28) 0.4948(23) 0.8210(6)
H11 H -0.1341(13) 0.5160(18) 0.9440(29)
C9 C 0.5258(4) 0.5751(6) 0.8363(4)
C10 C 0.5731(5) 0.4678(6) 0.7654(5)
H12 H 0.5085(14) 0.4391(27) 0.7109(29)
H13 H 0.5967(39) 0.4000(17) 0.8186(6)
H14 H 0.6449(26) 0.4942(13) 0.7206(31)
C11 C 0.1880(4) 0.6295(4) 1.2330(4)
C12 C 0.1519(5) 0.7305(5) 1.3167(4)
H15 H 0.0627(7) 0.7432(27) 1.3119(27)
H16 H 0.1941(30) 0.8075(11) 1.2955(23)
H17 H 0.1755(34) 0.7068(18) 1.3972(6)
C13 C 0.6570(4) 0.6008(5) 1.1314(4)
C14 C 0.7352(4) 0.7132(6) 1.1533(5)
H18 H 0.7164(28) 0.7479(23) 1.2308(17)
H19 H 0.7181(28) 0.7752(17) 1.0922(22)
H20 H 0.8223(4) 0.6898(10) 1.1513(37)
C15 C -0.1509(3) 0.7358(3) 0.5851(3)
C16 C -0.1282(3) 0.6149(4) 0.5368(3)
H21 H -0.0481(3) 0.5797(4) 0.5401(3)
C17 C -0.2271(3) 0.5496(4) 0.4846(3)
H22 H -0.2137(3) 0.4700(4) 0.4517(3)
C18 C -0.3448(3) 0.6015(4) 0.4811(3)
C19 C -0.3682(3) 0.7195(4) 0.5288(3)
H23 H -0.4488(3) 0.7534(4) 0.5260(3)
C20 C -0.2709(3) 0.7859(4) 0.5803(3)
H24 H -0.2857(3) 0.8656(4) 0.6125(3)
#END
