
#######################################################################
#
#                 Cambridge Crystallographic Data Centre
#                                CCDC
#
#######################################################################
#
# If this CIF has been generated from an entry in the Cambridge
# Structural Database, then it will include bibliographic, chemical,
# crystal, experimental, refinement or atomic coordinate data resulting
# from the CCDC's data processing and validation procedures.
#
#######################################################################

data_CSD_CIF_GIZPAG
_audit_creation_date 1999-05-04
_audit_creation_method CSD-ConQuest-V1
_database_code_CSD GIZPAG
_chemical_formula_sum 'C22 H20 N2 O2'
_chemical_formula_moiety
;
C22 H20 N2 O2
;
_journal_coden_Cambridge 16
_journal_volume 54
_journal_year 1998
_journal_page_first 11285
_journal_name_full 'Tetrahedron '
loop_
_publ_author_name
"F.Clerici"
"M.L.Gelmi"
"R.Soave"
"M.Valle"
_chemical_name_systematic
;
3-(2,4,6-Trimethylphenyl)-5-(2-(4-methoxyphenyl)-2-cyanoethenyl)isoxazole
;
_chemical_melting_point 407.65
_cell_volume   1872.289
_exptl_crystal_density_diffrn 1.222
_exptl_crystal_preparation 'diethyl ether'
_diffrn_ambient_temperature ?
_diffrn_special_details
;
The study was carried out at room temperature,in the range 283-303K

;
#These two values have been output from a single CSD field.
_refine_ls_R_factor_gt 0.0348
_refine_ls_wR_factor_gt 0.0348
_symmetry_cell_setting monoclinic
_symmetry_space_group_name_H-M 'P 21/c'
_symmetry_Int_Tables_number 14
loop_
_symmetry_equiv_pos_site_id
_symmetry_equiv_pos_as_xyz
1 x,y,z
2 -x,1/2+y,1/2-z
3 -x,-y,-z
4 x,-1/2-y,-1/2+z
_cell_length_a 20.252(2)
_cell_length_b 6.881(1)
_cell_length_c 13.848(1)
_cell_angle_alpha 90
_cell_angle_beta 104.02(1)
_cell_angle_gamma 90
_cell_formula_units_Z 4
loop_
_atom_type_symbol
_atom_type_radius_bond
C 0.68
H 0.23
N 0.68
O 0.68
loop_
_atom_site_label
_atom_site_type_symbol
_atom_site_fract_x
_atom_site_fract_y
_atom_site_fract_z
O1 O 0.21064(5) 0.1446(2) 0.1735(1)
O2 O -0.23087(5) 0.1080(2) 0.06507(9)
N1 N 0.27893(7) 0.0831(2) 0.2009(1)
N2 N 0.07315(7) -0.4592(2) 0.1357(1)
C1 C 0.27740(7) -0.0997(2) 0.2261(1)
C2 C 0.20976(8) -0.1633(2) 0.2149(1)
C3 C 0.17023(7) -0.0081(2) 0.1826(1)
C4 C 0.09831(8) 0.0361(2) 0.1591(1)
C5 C 0.04678(7) -0.0927(2) 0.1414(1)
C6 C 0.06240(8) -0.2972(2) 0.1396(1)
C7 C -0.02627(7) -0.0432(2) 0.1204(1)
C8 C -0.04867(8) 0.1487(2) 0.1084(1)
C9 C -0.11662(8) 0.1928(2) 0.0894(1)
C10 C -0.16489(7) 0.0470(2) 0.0822(1)
C11 C -0.14386(9) -0.1431(3) 0.0934(1)
C12 C -0.07538(9) -0.1866(3) 0.1116(1)
C13 C -0.2818(1) -0.0350(4) 0.0635(2)
C14 C 0.34180(7) -0.2080(2) 0.2625(1)
C15 C 0.35363(8) -0.3793(2) 0.2146(1)
C16 C 0.4143(1) -0.4778(3) 0.2506(1)
C17 C 0.46358(9) -0.4125(3) 0.3317(1)
C18 C 0.45037(9) -0.2444(3) 0.3776(1)
C19 C 0.39072(8) -0.1390(3) 0.3455(1)
C20 C 0.3801(1) 0.0431(4) 0.4001(2)
C21 C 0.5301(2) -0.5194(6) 0.3683(3)
C22 C 0.3023(1) -0.4557(3) 0.1249(2)
H1 H 0.1961(8) -0.286(3) 0.228(1)
H2 H 0.0891(8) 0.170(3) 0.156(1)
H3 H -0.0171(8) 0.251(2) 0.113(1)
H4 H -0.1323(9) 0.330(3) 0.082(1)
H5 H -0.177(1) -0.248(3) 0.089(1)
H6 H -0.0613(9) -0.323(3) 0.119(1)
H7 H -0.286(1) -0.121(3) 0.010(2)
H8 H -0.325(1) 0.035(3) 0.054(1)
H9 H -0.272(1) -0.106(4) 0.129(2)
H10 H 0.4225(9) -0.595(3) 0.216(1)
H11 H 0.4835(9) -0.192(2) 0.434(1)
H12 H 0.335(1) 0.043(3) 0.410(2)
H13 H 0.408(1) 0.043(3) 0.462(2)
H14 H 0.388(1) 0.164(5) 0.362(2)
H15 H 0.524(2) -0.650(5) 0.362(2)
H16 H 0.550(1) -0.507(4) 0.436(3)
H17 H 0.562(2) -0.479(4) 0.336(2)
H18 H 0.321(1) -0.567(4) 0.102(2)
H19 H 0.288(1) -0.359(4) 0.076(2)
H20 H 0.257(1) -0.501(3) 0.141(2)
#END
