
#######################################################################
#
#                 Cambridge Crystallographic Data Centre
#                                CCDC
#
#######################################################################
#
# If this CIF has been generated from an entry in the Cambridge
# Structural Database, then it will include bibliographic, chemical,
# crystal, experimental, refinement or atomic coordinate data resulting
# from the CCDC's data processing and validation procedures.
#
#######################################################################

data_CSD_CIF_GLOXIM
_audit_creation_date 1971-12-31
_audit_creation_method CSD-ConQuest-V1
_database_code_CSD GLOXIM
_chemical_formula_sum 'C2 H4 N2 O2'
_chemical_formula_moiety
;
C2 H4 N2 O2
;
_journal_coeditor_code "IUCr A04960"
_journal_coden_Cambridge 1
_journal_volume 20
_journal_year 1966
_journal_page_first 73
_journal_name_full 'Acta Crystallogr. '
loop_
_publ_author_name
"M.Calleri"
"G.Ferraris"
"D.Viterbo"
_chemical_name_systematic
;
Glyoxime
;
_cell_volume    186.898
_exptl_crystal_density_diffrn 1.555
_diffrn_ambient_temperature ?
_diffrn_special_details
;
The study was carried out at room temperature,in the range 283-303K

;
#These two values have been output from a single CSD field.
_refine_ls_R_factor_gt 0.069
_refine_ls_wR_factor_gt 0.069
_symmetry_cell_setting monoclinic
_symmetry_space_group_name_H-M 'P 21/c'
_symmetry_Int_Tables_number 14
loop_
_symmetry_equiv_pos_site_id
_symmetry_equiv_pos_as_xyz
1 x,y,z
2 -x,1/2+y,1/2-z
3 -x,-y,-z
4 x,-1/2-y,-1/2+z
_cell_length_a 3.868(11)
_cell_length_b 4.414(15)
_cell_length_c 10.949(35)
_cell_angle_alpha 90
_cell_angle_beta 91.16
_cell_angle_gamma 90
_cell_formula_units_Z 2
loop_
_atom_type_symbol
_atom_type_radius_bond
C 0.68
H 0.20
N 0.68
O 0.68
loop_
_atom_site_label
_atom_site_type_symbol
_atom_site_fract_x
_atom_site_fract_y
_atom_site_fract_z
C1 C 0.10000 0.12780 0.02250
H1 H 0.27740 0.25290 -0.03330
H2 H 0.17980 0.47860 0.25000
N1 N 0.06130 0.20700 0.13420
O1 O 0.27340 0.45290 0.16460
C1B C -0.10000 -0.12780 -0.02250
H1B H -0.27740 -0.25290 0.03330
H2B H -0.17980 -0.47860 -0.25000
N1B N -0.06130 -0.20700 -0.13420
O1B O -0.27340 -0.45290 -0.16460
#END
