
#######################################################################
#
#                 Cambridge Crystallographic Data Centre
#                                CCDC
#
#######################################################################
#
# If this CIF has been generated from an entry in the Cambridge
# Structural Database, then it will include bibliographic, chemical,
# crystal, experimental, refinement or atomic coordinate data resulting
# from the CCDC's data processing and validation procedures.
#
#######################################################################

data_CSD_CIF_GOBXEC
_audit_creation_date 2014-02-04
_audit_creation_method CSD-ConQuest-V1
_database_code_CSD GOBXEC
_database_code_depnum_ccdc_archive 'CCDC 979314'
_chemical_formula_sum 'C11 H9 N1 O3'
_chemical_formula_moiety
;
C11 H9 N1 O3
;
_journal_coeditor_code "su2682"
_journal_coden_Cambridge 1370
_journal_volume 70
_journal_year 2014
_journal_page_first o250
_journal_name_full 'Acta Crystallogr.,Sect.E:Struct.Rep.Online '
loop_
_publ_author_name
"L.Wang"
"Y.Li"
"Y.Li"
"W.Zhang"
"R.Xu"
_chemical_name_systematic
;
Methyl 3-phenyl-1,2-oxazole-5-carboxylate
;
_cell_volume    969.891
_exptl_crystal_colour 'colorless'
_exptl_crystal_density_diffrn 1.392
_exptl_crystal_description 'plate'
_exptl_crystal_preparation 'dichloromethane'
_diffrn_ambient_temperature 296
#These two values have been output from a single CSD field.
_refine_ls_R_factor_gt 0.0588
_refine_ls_wR_factor_gt 0.0588
_symmetry_cell_setting monoclinic
_symmetry_space_group_name_H-M 'P 21/c'
_symmetry_Int_Tables_number 14
loop_
_symmetry_equiv_pos_site_id
_symmetry_equiv_pos_as_xyz
1 x,y,z
2 -x,1/2+y,1/2-z
3 -x,-y,-z
4 x,-1/2-y,-1/2+z
_cell_length_a 12.2275(18)
_cell_length_b 13.604(2)
_cell_length_c 5.8746(9)
_cell_angle_alpha 90
_cell_angle_beta 97.011(3)
_cell_angle_gamma 90
_cell_formula_units_Z 4
loop_
_atom_type_symbol
_atom_type_radius_bond
C 0.68
H 0.23
N 0.68
O 0.68
loop_
_atom_site_label
_atom_site_type_symbol
_atom_site_fract_x
_atom_site_fract_y
_atom_site_fract_z
N1 N 0.58165(16) 0.12445(15) 0.1263(4)
O1 O 0.69685(13) 0.12779(12) 0.1714(3)
O2 O 0.91297(15) 0.11346(15) 0.3629(3)
O3 O 0.85964(13) 0.14679(13) 0.7065(3)
C1 C 0.3828(2) 0.15075(17) 0.5374(4)
H1 H 0.42980 0.17420 0.66200
C2 C 0.2707(2) 0.14652(19) 0.5489(5)
H2 H 0.24260 0.16770 0.68070
C3 C 0.2004(2) 0.11121(19) 0.3669(5)
H3 H 0.12490 0.10880 0.37460
C4 C 0.2428(2) 0.07947(19) 0.1727(5)
H4 H 0.19560 0.05460 0.05010
C5 C 0.35431(19) 0.08422(18) 0.1585(4)
H5 H 0.38200 0.06320 0.02610
C6 C 0.42544(18) 0.12036(15) 0.3418(4)
C7 C 0.54474(18) 0.12641(15) 0.3261(4)
C8 C 0.72372(19) 0.13278(17) 0.4011(4)
C9 C 0.63299(18) 0.13246(16) 0.5065(4)
H6 H 0.62860 0.13550 0.66330
C10 C 0.8426(2) 0.13030(18) 0.4824(5)
C11 C 0.9720(2) 0.1372(2) 0.8127(5)
H7 H 1.00150 0.07550 0.76940
H8 H 0.97370 0.13970 0.97640
H9 H 1.01540 0.19000 0.76290
#END
