
#######################################################################
#
#                 Cambridge Crystallographic Data Centre
#                                CCDC
#
#######################################################################
#
# If this CIF has been generated from an entry in the Cambridge
# Structural Database, then it will include bibliographic, chemical,
# crystal, experimental, refinement or atomic coordinate data resulting
# from the CCDC's data processing and validation procedures.
#
#######################################################################

data_CSD_CIF_GOCFUB
_audit_creation_date 2014-02-04
_audit_creation_method CSD-ConQuest-V1
_database_code_CSD GOCFUB
_database_code_depnum_ccdc_archive 'CCDC 952087'
_chemical_formula_sum 'C23 H31 N3 O5'
_chemical_formula_moiety
;
C23 H31 N3 O5
;
_journal_coden_Cambridge 24
_journal_volume 54
_journal_year 2013
_journal_page_first 7127
_journal_name_full 'Tetrahedron Lett. '
loop_
_publ_author_name
"E.Jijy"
"P.Prakash"
"M.Shimi"
"S.Saranya"
"P.Preethanuj"
"P.M.Pihko"
"S.Varughese"
"K.V.Radhakrishnan"
_chemical_name_systematic
;
Diisopropyl 
1-(5-(2-(N-hydroxyethanimidoyl)phenyl)spiro[2.4]hept-6-en-4-yl)hydrazine-1,2-d
icarboxylate
;
_cell_volume   2327.953
_exptl_crystal_colour 'yellow'
_exptl_crystal_density_diffrn 1.225
_exptl_crystal_description 'Block'
_exptl_crystal_preparation 'chloroform/hexane'
_diffrn_ambient_temperature 298
#These two values have been output from a single CSD field.
_refine_ls_R_factor_gt 0.097
_refine_ls_wR_factor_gt 0.097
_symmetry_cell_setting monoclinic
_symmetry_space_group_name_H-M 'P 21/c'
_symmetry_Int_Tables_number 14
loop_
_symmetry_equiv_pos_site_id
_symmetry_equiv_pos_as_xyz
1 x,y,z
2 -x,1/2+y,1/2-z
3 -x,-y,-z
4 x,-1/2-y,-1/2+z
_cell_length_a 11.585(8)
_cell_length_b 19.850(12)
_cell_length_c 10.752(7)
_cell_angle_alpha 90
_cell_angle_beta 109.692(11)
_cell_angle_gamma 90
_cell_formula_units_Z 4
loop_
_atom_type_symbol
_atom_type_radius_bond
C 0.68
H 0.23
N 0.68
O 0.68
loop_
_atom_site_label
_atom_site_type_symbol
_atom_site_fract_x
_atom_site_fract_y
_atom_site_fract_z
C1 C 0.5579(3) 0.29199(15) 0.3821(3)
H1 H 0.53190 0.27200 0.29360
C2 C 0.4874(3) 0.35797(17) 0.3761(4)
C3 C 0.4283(4) 0.35156(18) 0.4784(4)
H2 H 0.38670 0.38640 0.50270
C4 C 0.4414(4) 0.29157(19) 0.5300(4)
H3 H 0.40860 0.27880 0.59430
C5 C 0.5148(3) 0.24507(16) 0.4756(3)
H4 H 0.58700 0.22990 0.54830
C6 C 0.4441(3) 0.18329(17) 0.4045(3)
C7 C 0.3227(3) 0.1915(2) 0.3232(4)
H5 H 0.28710 0.23400 0.31570
C8 C 0.2539(4) 0.1387(2) 0.2536(5)
H6 H 0.17340 0.14580 0.19910
C9 C 0.3047(4) 0.0753(2) 0.2648(5)
H7 H 0.25870 0.03900 0.21960
C10 C 0.4267(4) 0.06662(19) 0.3455(4)
H8 H 0.46160 0.02400 0.35280
C11 C 0.4961(3) 0.11902(17) 0.4141(3)
C12 C 0.6264(3) 0.10380(16) 0.4931(4)
C13 C 0.7031(4) 0.0690(2) 0.4238(4)
H9 H 0.78420 0.06170 0.48520
H10 H 0.70750 0.09660 0.35230
H11 H 0.66650 0.02650 0.38980
C14 C 0.7617(3) 0.25521(16) 0.3886(3)
C15 C 0.9641(4) 0.2150(2) 0.4241(4)
H12 H 0.92110 0.17680 0.37040
C16 C 1.0105(6) 0.2593(3) 0.3433(7)
H13 H 0.94380 0.27350 0.26710
H14 H 1.06970 0.23540 0.31540
H15 H 1.04850 0.29800 0.39410
C17 C 1.0612(5) 0.1891(3) 0.5447(6)
H16 H 1.02500 0.15920 0.59140
H17 H 1.09910 0.22620 0.60080
H18 H 1.12180 0.16520 0.51950
C18 C 0.8190(3) 0.38796(17) 0.5455(4)
C19 C 0.9427(4) 0.47306(18) 0.6832(4)
H19 H 1.00090 0.46690 0.63580
C20 C 1.0096(5) 0.4768(3) 0.8285(5)
H20 H 1.05830 0.43690 0.85680
H21 H 0.95150 0.48020 0.87420
H22 H 1.06190 0.51570 0.84780
C21 C 0.8656(6) 0.5340(2) 0.6329(6)
H23 H 0.82460 0.52990 0.53940
H24 H 0.91670 0.57340 0.65070
H25 H 0.80580 0.53810 0.67630
C22 C 0.5293(5) 0.4246(2) 0.3427(5)
H26 H 0.51550 0.46390 0.38940
H27 H 0.60430 0.42570 0.32150
C23 C 0.4198(4) 0.3915(2) 0.2463(4)
H28 H 0.42870 0.37230 0.16700
H29 H 0.33990 0.41060 0.23500
N1 N 0.6919(3) 0.29951(13) 0.4293(3)
N2 N 0.6621(3) 0.11878(15) 0.6139(3)
N3 N 0.7452(3) 0.33544(13) 0.5462(3)
H30 H 0.73140 0.32430 0.61720
O1 O 0.7856(3) 0.10110(14) 0.6801(3)
H31 H 0.79800 0.09860 0.75970
O2 O 0.7206(2) 0.22179(12) 0.2896(2)
O3 O 0.8783(2) 0.25335(13) 0.4699(2)
O4 O 0.8412(3) 0.40922(13) 0.4499(2)
O5 O 0.8645(2) 0.41343(12) 0.6671(2)
#END
