
#######################################################################
#
#                 Cambridge Crystallographic Data Centre
#                                CCDC
#
#######################################################################
#
# If this CIF has been generated from an entry in the Cambridge
# Structural Database, then it will include bibliographic, chemical,
# crystal, experimental, refinement or atomic coordinate data resulting
# from the CCDC's data processing and validation procedures.
#
#######################################################################

data_CSD_CIF_GODNUI
_audit_creation_date 1999-05-04
_audit_creation_method CSD-ConQuest-V1
_database_code_CSD GODNUI
_database_code_depnum_ccdc_archive 'CCDC 131087'
_chemical_formula_sum 'C12 H7 N3 O2'
_chemical_formula_moiety
;
C12 H7 N3 O2
;
_journal_coeditor_code "IUCr KA1302"
_journal_coden_Cambridge 591
_journal_volume 55
_journal_year 1999
_journal_page_first 383
_journal_name_full 'Acta Crystallogr.,Sect.C:Cryst.Struct.Commun. '
loop_
_publ_author_name
"T.Hokelek"
"E.Kilic"
"S.Aktan"
_chemical_name_systematic
;
1-Nitrobenzo(c)cinnoline
;
_cell_volume   1019.921
_exptl_crystal_colour 'yellow'
_exptl_crystal_density_diffrn 1.467
_exptl_crystal_description 'block-like'
_exptl_crystal_preparation 'acetic acid'
_diffrn_ambient_temperature ?
_diffrn_special_details
;
The study was carried out at room temperature,in the range 283-303K

;
#These two values have been output from a single CSD field.
_refine_ls_R_factor_gt 0.048
_refine_ls_wR_factor_gt 0.048
_symmetry_cell_setting monoclinic
_symmetry_space_group_name_H-M 'P 21/n'
_symmetry_Int_Tables_number 14
loop_
_symmetry_equiv_pos_site_id
_symmetry_equiv_pos_as_xyz
1 x,y,z
2 1/2-x,1/2+y,1/2-z
3 -x,-y,-z
4 -1/2+x,-1/2-y,-1/2+z
_cell_length_a 7.894(1)
_cell_length_b 13.892(1)
_cell_length_c 9.556(1)
_cell_angle_alpha 90
_cell_angle_beta 103.28(2)
_cell_angle_gamma 90
_cell_formula_units_Z 4
loop_
_atom_type_symbol
_atom_type_radius_bond
C 0.68
H 0.23
N 0.68
O 0.68
loop_
_atom_site_label
_atom_site_type_symbol
_atom_site_fract_x
_atom_site_fract_y
_atom_site_fract_z
O1 O 0.1188(2) 0.2778(1) 0.4184(2)
O2 O 0.3879(2) 0.3196(1) 0.4678(2)
C1 C 0.3156(2) 0.1743(1) 0.3545(2)
C2 C 0.3692(2) 0.1849(1) 0.2288(2)
C3 C 0.4012(2) 0.1037(1) 0.1537(2)
C4 C 0.3734(2) 0.0145(1) 0.2032(2)
C5 C 0.3183(2) 0.0039(1) 0.3323(2)
N1 N 0.2888(2) -0.0902(1) 0.3690(2)
N2 N 0.2337(2) -0.1075(1) 0.4829(2)
N3 N 0.2715(2) 0.2637(1) 0.4197(2)
C6 C 0.2128(2) -0.0331(1) 0.5746(2)
C7 C 0.1589(2) -0.0607(2) 0.6993(2)
C8 C 0.1435(2) 0.0066(2) 0.7988(2)
C9 C 0.1844(3) 0.1026(2) 0.7794(2)
C10 C 0.2353(2) 0.1309(1) 0.6573(2)
C11 C 0.2467(2) 0.0643(1) 0.5496(2)
C12 C 0.2923(2) 0.0843(1) 0.4150(2)
H1 H 0.376(2) 0.246(1) 0.185(2)
H2 H 0.435(2) 0.110(1) 0.065(2)
H3 H 0.389(2) -0.042(1) 0.156(2)
H4 H 0.13400 -0.12600 0.71400
H5 H 0.10400 -0.01200 0.88200
H6 H 0.17800 0.14900 0.85100
H7 H 0.263(2) 0.198(1) 0.649(2)
#END
