
#######################################################################
#
#                 Cambridge Crystallographic Data Centre
#                                CCDC
#
#######################################################################
#
# If this CIF has been generated from an entry in the Cambridge
# Structural Database, then it will include bibliographic, chemical,
# crystal, experimental, refinement or atomic coordinate data resulting
# from the CCDC's data processing and validation procedures.
#
#######################################################################

data_CSD_CIF_GODPAS
_audit_creation_date 2014-07-08
_audit_creation_method CSD-ConQuest-V1
_database_code_CSD GODPAS
_database_code_depnum_ccdc_archive 'CCDC 984365'
_chemical_formula_sum 'C30 H40 N2 O4'
_chemical_formula_moiety
;
C30 H40 N2 O4
;
_journal_coden_Cambridge 1220
_journal_volume 20
_journal_year 2014
_journal_page_first 10153
_journal_name_full 'Chem.-Eur.J. '
loop_
_publ_author_name
"A.Gomez-Palomino"
"M.Pellicena"
"J.M.Romo"
"R.Sola"
"P.Romea"
"Felix Urpi"
"M.Font-Bardia"
_chemical_name_systematic
;
4-benzyl-5,5-dimethyl-3-(3-phenyl-2-((2,2,6,6-tetramethylpiperidin-1-yl)oxy)pr
opanoyl)-1,3-oxazolidin-2-one
;
_cell_volume   2805.424
_exptl_crystal_colour 'colorless'
_exptl_crystal_density_diffrn 1.169
_exptl_special_details
;
A N atom appears to have additional H atom coordinated which has been 
suppressed in the 3D structure to give a charge balanced structure
;
_exptl_crystal_description 'needle'
_diffrn_ambient_temperature 100
#These two values have been output from a single CSD field.
_refine_ls_R_factor_gt 0.0321
_refine_ls_wR_factor_gt 0.0321
_symmetry_cell_setting orthorhombic
_symmetry_space_group_name_H-M 'P 21 21 21'
_symmetry_Int_Tables_number 19
loop_
_symmetry_equiv_pos_site_id
_symmetry_equiv_pos_as_xyz
1 x,y,z
2 1/2+x,1/2-y,-z
3 -x,1/2+y,1/2-z
4 1/2-x,-y,1/2+z
_cell_length_a 8.2008(4)
_cell_length_b 13.7924(6)
_cell_length_c 24.8029(12)
_cell_angle_alpha 90
_cell_angle_beta 90
_cell_angle_gamma 90
_cell_formula_units_Z 4
loop_
_atom_type_symbol
_atom_type_radius_bond
C 0.68
H 0.23
N 0.68
O 0.68
loop_
_atom_site_label
_atom_site_type_symbol
_atom_site_fract_x
_atom_site_fract_y
_atom_site_fract_z
O1 O 0.12806(17) 1.03311(9) 0.81872(5)
O2 O 0.09675(18) 1.08109(10) 0.93297(6)
O3 O 0.52464(18) 0.90307(11) 0.97927(6)
O4 O 0.51612(18) 0.92042(11) 0.88985(6)
N1 N 0.3112(2) 0.98278(12) 0.94611(6)
N2 N 0.1322(2) 0.93100(11) 0.80221(7)
C1 C -0.1270(3) 0.89204(18) 1.16055(9)
H1 H -0.18720 0.89100 1.19330
C2 C -0.0520(4) 0.80920(18) 1.14225(10)
H2 H -0.06090 0.75080 1.16240
C3 C 0.0370(3) 0.81018(16) 1.09441(9)
H3 H 0.08990 0.75280 1.08250
C4 C 0.0491(3) 0.89454(15) 1.06396(8)
C5 C 0.1346(3) 0.89450(16) 1.00976(8)
H4 H 0.05230 0.90610 0.98130
H5 H 0.18150 0.82930 1.00360
C6 C 0.2706(3) 0.96983(15) 1.00374(8)
H6 H 0.23330 1.03310 1.01910
C7 C 0.2134(2) 1.04036(14) 0.91319(8)
C8 C 0.2618(2) 1.05427(14) 0.85405(8)
H7 H 0.35790 1.01270 0.84500
C9 C 0.3038(3) 1.16160(14) 0.84617(8)
H8 H 0.32390 1.17440 0.80750
H9 H 0.21050 1.20210 0.85780
C10 C 0.4530(3) 1.18857(13) 0.87839(8)
C11 C 0.6044(3) 1.15129(15) 0.86367(9)
H10 H 0.61290 1.11140 0.83260
C12 C 0.7432(3) 1.17163(16) 0.89377(10)
H11 H 0.84550 1.14520 0.88350
C13 C 0.7315(3) 1.23046(16) 0.9387(1)
H12 H 0.82640 1.24530 0.95900
C14 C 0.0212(3) 0.77818(16) 0.73237(9)
H13 H 0.02360 0.70900 0.72180
H14 H -0.05440 0.81270 0.70790
C15 C -0.0374(3) 0.78781(15) 0.79035(9)
H15 H 0.03320 0.74780 0.81390
H16 H -0.14970 0.76200 0.79300
C16 C -0.0360(3) 0.89271(14) 0.81099(8)
C17 C 0.4566(3) 0.93488(14) 0.93327(8)
C18 C 0.4410(3) 0.94477(15) 1.02650(8)
C19 C -0.1143(3) 0.97678(17) 1.13112(9)
H17 H -0.16530 1.03440 1.14360
C20 C -0.0265(3) 0.97762(16) 1.08311(8)
H18 H -0.01830 1.03610 1.06310
C21 C 0.4492(3) 0.86857(17) 1.07016(9)
H19 H 0.56340 0.85700 1.08000
H20 H 0.40060 0.80820 1.05690
H21 H 0.38900 0.89110 1.10190
C22 C 0.5320(3) 1.03652(17) 1.04177(9)
H22 H 0.52680 1.08280 1.01180
H23 H 0.64620 1.02080 1.04950
H24 H 0.48180 1.06530 1.07390
C23 C 0.5822(3) 1.26766(16) 0.95410(9)
H25 H 0.57430 1.30740 0.98530
C24 C 0.4437(3) 1.24700(14) 0.92402(9)
H26 H 0.34140 1.27300 0.93470
C25 C 0.2010(3) 0.92737(15) 0.74634(8)
C26 C 0.1905(3) 0.82123(16) 0.72791(9)
H27 H 0.22680 0.81700 0.68990
H28 H 0.26650 0.78190 0.74990
C27 C 0.3820(3) 0.95282(18) 0.74958(9)
H29 H 0.43210 0.91760 0.77960
H30 H 0.39420 1.02270 0.75540
H31 H 0.43580 0.93450 0.71580
C28 C 0.1216(3) 0.99489(17) 0.70501(9)
H32 H 0.10490 1.05890 0.72120
H33 H 0.01620 0.96800 0.69390
H34 H 0.19280 1.00100 0.67350
C29 C -0.0643(3) 0.89010(16) 0.87195(8)
H35 H -0.07750 0.95640 0.88550
H36 H 0.02940 0.85960 0.88960
H37 H -0.16310 0.85260 0.87980
C30 C -0.1737(3) 0.95204(17) 0.78528(9)
H38 H -0.18040 0.93690 0.74670
H39 H -0.15130 1.02130 0.78990
H40 H -0.27740 0.93580 0.80270
H41? H 0.20820 0.89550 0.82680
#END
