
#######################################################################
#
#                 Cambridge Crystallographic Data Centre
#                                CCDC
#
#######################################################################
#
# If this CIF has been generated from an entry in the Cambridge
# Structural Database, then it will include bibliographic, chemical,
# crystal, experimental, refinement or atomic coordinate data resulting
# from the CCDC's data processing and validation procedures.
#
#######################################################################

data_CSD_CIF_GODXAY
_audit_creation_date 1999-05-04
_audit_creation_method CSD-ConQuest-V1
_database_code_CSD GODXAY
_database_code_depnum_ccdc_archive 'CCDC 131107'
_chemical_formula_sum 'C24 H16 N2 O8'
_chemical_formula_moiety
;
C24 H16 N2 O8
;
_journal_coeditor_code "IUCr SK1240"
_journal_coden_Cambridge 591
_journal_volume 55
_journal_year 1999
_journal_page_first 450
_journal_name_full 'Acta Crystallogr.,Sect.C:Cryst.Struct.Commun. '
loop_
_publ_author_name
"A.Meetsma"
"E.Keller"
"B.L.Feringa"
_chemical_name_systematic
;
6,6'-Dinitro-1,1'-binaphthyl 2,2'-diacetate
;
_cell_volume   2124.010
_exptl_crystal_colour 'yellow'
_exptl_crystal_density_diffrn 1.44
_exptl_crystal_description 'rectangular block'
_exptl_crystal_preparation 'ethyl acetate'
_diffrn_ambient_temperature 130
#These two values have been output from a single CSD field.
_refine_ls_R_factor_gt 0.0321
_refine_ls_wR_factor_gt 0.0321
_symmetry_cell_setting monoclinic
_symmetry_space_group_name_H-M 'I a'
_symmetry_Int_Tables_number 9
loop_
_symmetry_equiv_pos_site_id
_symmetry_equiv_pos_as_xyz
1 x,y,z
2 1/2+x,-y,z
3 1/2+x,1/2+y,1/2+z
4 x,1/2-y,1/2+z
_cell_length_a 7.506(1)
_cell_length_b 29.143(2)
_cell_length_c 9.832(1)
_cell_angle_alpha 90
_cell_angle_beta 99.04(1)
_cell_angle_gamma 90
_cell_formula_units_Z 4
loop_
_atom_type_symbol
_atom_type_radius_bond
C 0.68
H 0.23
N 0.68
O 0.68
loop_
_atom_site_label
_atom_site_type_symbol
_atom_site_fract_x
_atom_site_fract_y
_atom_site_fract_z
O1 O 0.77772(18) 0.10867(4) 0.98581(13)
O2 O 0.37187(17) 0.12749(4) 0.81868(14)
O3 O 0.6869(2) -0.09097(5) 0.37833(17)
O4 O 0.5428(3) -0.04402(6) 0.23338(16)
O5 O 1.1620(4) 0.22331(7) 0.3454(3)
O6 O 1.0103(3) 0.28357(7) 0.3803(2)
O7 O 0.5903(2) 0.07331(5) 1.10919(15)
O8 O 0.4260(2) 0.17496(5) 1.00062(16)
N1 N 0.6229(3) -0.05334(6) 0.34759(17)
N2 N 1.0463(3) 0.24333(7) 0.3977(2)
C1 C 0.7531(2) 0.07403(6) 0.88593(18)
C2 C 0.8113(3) 0.02909(6) 0.92360(18)
C3 C 0.7998(3) -0.00406(6) 0.82547(19)
C4 C 0.7273(2) 0.00611(6) 0.68678(18)
C5 C 0.7081(3) -0.02845(6) 0.58523(19)
C6 C 0.6409(3) -0.01694(6) 0.45222(19)
C7 C 0.5906(3) 0.02787(6) 0.41170(19)
C8 C 0.6070(3) 0.06152(6) 0.50857(18)
C9 C 0.6747(2) 0.05193(6) 0.64929(17)
C10 C 0.6886(2) 0.08669(6) 0.75296(18)
C11 C 0.6379(3) 0.13514(6) 0.71595(18)
C12 C 0.7453(3) 0.16243(6) 0.63961(18)
C13 C 0.9095(3) 0.14608(6) 0.60311(19)
C14 C 1.0077(3) 0.17260(7) 0.5264(2)
C15 C 0.9435(3) 0.21601(7) 0.4849(2)
C16 C 0.7892(3) 0.23405(7) 0.5185(2)
C17 C 0.6867(3) 0.20746(6) 0.5983(2)
C18 C 0.5257(3) 0.22504(7) 0.6366(2)
C19 C 0.4282(3) 0.19920(7) 0.7129(2)
C20 C 0.4850(3) 0.15441(6) 0.75050(19)
C21 C 0.6978(3) 0.10294(7) 1.10057(19)
C22 C 0.7628(4) 0.13839(9) 1.2057(2)
C23 C 0.3422(3) 0.14375(6) 0.9444(2)
C24 C 0.1975(4) 0.11749(9) 0.9968(3)
H1 H 0.864(3) 0.0228(7) 1.010(2)
H2 H 0.844(3) -0.0344(8) 0.854(2)
H3 H 0.742(3) -0.0584(8) 0.611(2)
H4 H 0.539(4) 0.0344(8) 0.317(3)
H5 H 0.570(3) 0.0930(8) 0.485(2)
H6 H 0.953(3) 0.1166(7) 0.635(2)
H7 H 1.109(3) 0.1620(7) 0.503(2)
H8 H 0.761(4) 0.2662(9) 0.487(3)
H9 H 0.488(3) 0.2557(8) 0.605(2)
H10 H 0.325(4) 0.2093(9) 0.745(3)
H11 H 0.702(6) 0.1410(12) 1.280(4)
H12 H 0.737(7) 0.1682(18) 1.161(6)
H13 H 0.882(8) 0.1449(16) 1.211(5)
H14 H 0.170(6) 0.1277(14) 1.087(4)
H15 H 0.222(5) 0.0897(13) 1.010(4)
H16 H 0.087(9) 0.1169(18) 0.930(6)
#END
