
#######################################################################
#
#                 Cambridge Crystallographic Data Centre
#                                CCDC
#
#######################################################################
#
# If this CIF has been generated from an entry in the Cambridge
# Structural Database, then it will include bibliographic, chemical,
# crystal, experimental, refinement or atomic coordinate data resulting
# from the CCDC's data processing and validation procedures.
#
#######################################################################

data_CSD_CIF_GOFNUM
_audit_creation_date 2014-07-09
_audit_creation_method CSD-ConQuest-V1
_database_code_CSD GOFNUM
_database_code_depnum_ccdc_archive 'CCDC 993030'
_chemical_formula_sum 'C23 H31 N1 O5'
_chemical_formula_moiety
;
C23 H31 N1 O5
;
_journal_coden_Cambridge 24
_journal_volume 55
_journal_year 2014
_journal_page_first 3111
_journal_name_full 'Tetrahedron Lett. '
loop_
_publ_author_name
"J.P.Y.Kao"
"S.Muralidharan"
"Peter Y.Zavalij"
"S.Fletcher"
"Fengtian Xue"
"G.M.Rosen"
_chemical_name_systematic
;
ethyl 1-(benzyloxy)-2,5-di-t-butyl-4-(formyloxy)-1H-pyrrole-3-carboxylate
;
_cell_volume   1078.680
_exptl_crystal_colour 'colorless'
_exptl_crystal_density_diffrn 1.236
_exptl_crystal_description 'prism'
_exptl_crystal_preparation 'acetonitrile'
_diffrn_ambient_temperature 150
#These two values have been output from a single CSD field.
_refine_ls_R_factor_gt 0.0415
_refine_ls_wR_factor_gt 0.0415
_symmetry_cell_setting triclinic
_symmetry_space_group_name_H-M 'P -1'
_symmetry_Int_Tables_number 2
loop_
_symmetry_equiv_pos_site_id
_symmetry_equiv_pos_as_xyz
1 x,y,z
2 -x,-y,-z
_cell_length_a 10.1671(7)
_cell_length_b 11.1975(7)
_cell_length_c 11.4168(7)
_cell_angle_alpha 66.6953(9)
_cell_angle_beta 65.9741(9)
_cell_angle_gamma 73.5494(10)
_cell_formula_units_Z 2
loop_
_atom_type_symbol
_atom_type_radius_bond
C 0.68
H 0.23
N 0.68
O 0.68
loop_
_atom_site_label
_atom_site_type_symbol
_atom_site_fract_x
_atom_site_fract_y
_atom_site_fract_z
N1 N 0.49637(13) 0.29337(12) 0.87247(12)
C1 C 0.62557(16) 0.21295(14) 0.83592(14)
C2 C 0.62376(16) 0.18719(15) 0.72625(15)
C3 C 0.49156(16) 0.25519(15) 0.70276(15)
C4 C 0.41103(16) 0.32241(14) 0.79287(15)
O1 O 0.44928(11) 0.33835(10) 0.98226(10)
C5 C 0.36880(17) 0.24371(15) 1.10417(15)
H1 H 0.43510 0.16220 1.13120
H2 H 0.29190 0.22100 1.08790
C6 C 0.30216(17) 0.30738(14) 1.21347(15)
C7 C 0.37831(18) 0.38326(16) 1.22840(16)
H3 H 0.47320 0.39860 1.16640
C8 C 0.31616(18) 0.43659(16) 1.33346(17)
H4 H 0.36830 0.48890 1.34250
C9 C 0.17872(18) 0.41378(16) 1.42490(16)
H5 H 0.13740 0.44840 1.49800
C10 C 0.10136(18) 0.34032(16) 1.40958(17)
H6 H 0.00640 0.32560 1.47170
C11 C 0.16226(18) 0.28815(15) 1.30371(16)
H7 H 0.10800 0.23900 1.29290
C12 C 0.74625(16) 0.17233(15) 0.89800(15)
C13 C 0.89296(17) 0.19537(16) 0.78234(17)
H8 H 0.97170 0.16630 0.82050
H9 H 0.89060 0.28920 0.73030
H10 H 0.90990 0.14530 0.72270
C14 C 0.73097(18) 0.25247(17) 0.98676(17)
H11 H 0.82050 0.23250 1.00810
H12 H 0.64870 0.22950 1.07090
H13 H 0.71400 0.34650 0.93780
C15 C 0.75178(19) 0.02554(16) 0.98352(17)
H14 H 0.77470 -0.02760 0.92520
H15 H 0.65710 0.01040 1.05450
H16 H 0.82710 0.00060 1.02520
C16 C 0.73170(16) 0.10107(15) 0.65049(15)
O2 O 0.80530(13) 0.00157(11) 0.69536(11)
O3 O 0.73788(12) 0.1460(1) 0.51979(10)
C17 C 0.8225(2) 0.05722(17) 0.44143(17)
H17 H 0.78450 -0.02780 0.48530
H18 H 0.92570 0.04050 0.43530
C18 C 0.8099(2) 0.12165(18) 0.30324(18)
H19 H 0.70730 0.13800 0.31060
H20 H 0.86540 0.06390 0.24800
H21 H 0.84860 0.20530 0.26060
O4 O 0.44738(12) 0.26146(11) 0.59825(11)
C19 C 0.43553(19) 0.14794(18) 0.59065(18)
H22 H 0.40780 0.15450 0.51800
O5 O 0.45636(15) 0.03989(13) 0.66607(14)
C20 C 0.26796(16) 0.41623(15) 0.79643(16)
C21 C 0.29173(19) 0.52183(16) 0.65566(17)
H23 H 0.36480 0.57350 0.63830
H24 H 0.19980 0.57990 0.65300
H25 H 0.32560 0.47910 0.58620
C22 C 0.21277(18) 0.49012(17) 0.89973(18)
H26 H 0.18840 0.42720 0.99160
H27 H 0.12590 0.55300 0.88860
H28 H 0.28880 0.53730 0.88490
C23 C 0.14904(18) 0.33890(18) 0.8255(2)
H29 H 0.18130 0.29320 0.75880
H30 H 0.05940 0.39970 0.81980
H31 H 0.13060 0.27450 0.91660
#END
