
#######################################################################
#
#                 Cambridge Crystallographic Data Centre
#                                CCDC
#
#######################################################################
#
# If this CIF has been generated from an entry in the Cambridge
# Structural Database, then it will include bibliographic, chemical,
# crystal, experimental, refinement or atomic coordinate data resulting
# from the CCDC's data processing and validation procedures.
#
#######################################################################

data_CSD_CIF_GOFSIE
_audit_creation_date 2008-11-13
_audit_creation_method CSD-ConQuest-V1
_database_code_CSD GOFSIE
_database_code_depnum_ccdc_archive 'CCDC 684096'
_chemical_formula_sum 'C17 H18 N2 O6'
_chemical_formula_moiety
;
C17 H18 N2 O6
;
_journal_coeditor_code "IUCr PV2099"
_journal_coden_Cambridge 1370
_journal_volume 64
_journal_year 2008
_journal_page_first o1810
_journal_name_full 'Acta Crystallogr.,Sect.E:Struct.Rep.Online '
loop_
_publ_author_name
"Wen-Kui Dong"
"Xue-Ni He"
"Y.-H.Guan"
"L.Xu"
"Z.-L.Ren"
_chemical_name_systematic
;
3,3'-(3,7-Dioxa-2,8-diazanona-1,8-diene-1,9-diyl)dibenzene-1,2-diol
;
_cell_volume   1666.210
_exptl_crystal_colour 'pale brown'
_exptl_crystal_density_diffrn 1.381
_exptl_crystal_description 'prismatic'
_exptl_crystal_preparation 'thf/ethanol'
_diffrn_ambient_temperature 298
#These two values have been output from a single CSD field.
_refine_ls_R_factor_gt 0.0656
_refine_ls_wR_factor_gt 0.0656
_symmetry_cell_setting monoclinic
_symmetry_space_group_name_H-M 'C 2/c'
_symmetry_Int_Tables_number 15
loop_
_symmetry_equiv_pos_site_id
_symmetry_equiv_pos_as_xyz
1 x,y,z
2 1/2+x,1/2+y,z
3 -x,y,1/2-z
4 1/2-x,1/2+y,1/2-z
5 -x,-y,-z
6 -1/2-x,-1/2-y,-z
7 x,-y,-1/2+z
8 -1/2+x,-1/2-y,-1/2+z
_cell_length_a 27.836(3)
_cell_length_b 4.5949(5)
_cell_length_c 13.8081(10)
_cell_angle_alpha 90
_cell_angle_beta 109.363(2)
_cell_angle_gamma 90
_cell_formula_units_Z 4
loop_
_atom_type_symbol
_atom_type_radius_bond
C 0.68
H 0.23
N 0.68
O 0.68
loop_
_atom_site_label
_atom_site_type_symbol
_atom_site_fract_x
_atom_site_fract_y
_atom_site_fract_z
O1 O 0.43592(8) 0.2306(5) 1.15521(16)
O2 O 0.41085(8) 0.6412(6) 0.88832(17)
H1 H 0.42360 0.53670 0.93850
O3 O 0.3602(1) 1.0086(6) 0.73677(18)
H2 H 0.38550 0.90800 0.74390
N1 N 0.41732(9) 0.4035(6) 1.06706(18)
C1 C 0.48064(12) 0.0823(7) 1.1531(2)
H3 H 0.50630 0.22140 1.15000
H4 H 0.47270 -0.04310 1.09330
C2 C 0.50000 -0.0961(11) 1.25000
H5 H 0.47270 -0.22070 1.25450
H6 H 0.52730 -0.22070 1.24550
C3 C 0.37794(11) 0.5439(7) 1.0649(2)
H7 H 0.36500 0.52100 1.11850
C4 C 0.35228(11) 0.7400(7) 0.9813(2)
C5 C 0.36954(11) 0.7802(7) 0.8979(2)
C6 C 0.34391(12) 0.9687(7) 0.8197(2)
C7 C 0.30183(13) 1.1161(8) 0.8225(3)
H8 H 0.28500 1.24230 0.76950
C8 C 0.28425(12) 1.0774(8) 0.9046(3)
H9 H 0.25550 1.17720 0.90660
C9 C 0.30912(12) 0.8929(8) 0.9822(2)
H10 H 0.29710 0.86820 1.03690
O1B O 0.56408(8) 0.2306(5) 1.34479(16)
O2B O 0.58915(8) 0.6412(6) 1.61168(17)
H1B H 0.57640 0.53670 1.56150
O3B O 0.6398(1) 1.0086(6) 1.76323(18)
H2B H 0.61450 0.90800 1.75610
N1B N 0.58268(9) 0.4035(6) 1.43294(18)
C1B C 0.51936(12) 0.0823(7) 1.3469(2)
H3B H 0.49370 0.22140 1.35000
H4B H 0.52730 -0.04310 1.40670
C3B C 0.62206(11) 0.5439(7) 1.4351(2)
H7B H 0.63500 0.52100 1.38150
C4B C 0.64772(11) 0.7400(7) 1.5187(2)
C5B C 0.63046(11) 0.7802(7) 1.6021(2)
C6B C 0.65609(12) 0.9687(7) 1.6803(2)
C7B C 0.69817(13) 1.1161(8) 1.6775(3)
H8B H 0.71500 1.24230 1.73050
C8B C 0.71575(12) 1.0774(8) 1.5954(3)
H9B H 0.74450 1.17720 1.59340
C9B C 0.69088(12) 0.8929(8) 1.5178(2)
H10B H 0.70290 0.86820 1.46310
#END
