
#######################################################################
#
#                 Cambridge Crystallographic Data Centre
#                                CCDC
#
#######################################################################
#
# If this CIF has been generated from an entry in the Cambridge
# Structural Database, then it will include bibliographic, chemical,
# crystal, experimental, refinement or atomic coordinate data resulting
# from the CCDC's data processing and validation procedures.
#
#######################################################################

data_CSD_CIF_GOGZEJ
_audit_creation_date 2014-07-10
_audit_creation_method CSD-ConQuest-V1
_database_code_CSD GOGZEJ
_database_code_depnum_ccdc_archive 'CCDC 890480'
_chemical_formula_sum 'C15 H21 N5 O2'
_chemical_formula_moiety
;
C15 H21 N5 O2
;
_journal_coden_Cambridge 1078
_journal_year 2012
_journal_name_full 'CSD Communication(Private Communication) '
loop_
_publ_author_name
"E.D.B.Guisasola"
"A.Marchal"
"M.Nogueras"
"M.Melguizo"
"J.Cobo"
"C.Glidewell"
"M.F.Masman"
"A.M.Rodriguez"
"R.D.Enriz"
_chemical_name_systematic
;
6-(1-adamantylamino)-4-amino-2-methoxy-5-nitrosopyrimidine
;
_cell_volume   1460.277
_exptl_crystal_colour 'red'
_exptl_crystal_density_diffrn 1.38
_exptl_crystal_description 'block'
_diffrn_ambient_temperature 120
#These two values have been output from a single CSD field.
_refine_ls_R_factor_gt 0.0859
_refine_ls_wR_factor_gt 0.0859
_symmetry_cell_setting monoclinic
_symmetry_space_group_name_H-M 'P 21/c'
_symmetry_Int_Tables_number 14
loop_
_symmetry_equiv_pos_site_id
_symmetry_equiv_pos_as_xyz
1 x,y,z
2 -x,1/2+y,1/2-z
3 -x,-y,-z
4 x,-1/2-y,-1/2+z
_cell_length_a 14.830(3)
_cell_length_b 7.1802(4)
_cell_length_c 13.867(2)
_cell_angle_alpha 90
_cell_angle_beta 98.525(13)
_cell_angle_gamma 90
_cell_formula_units_Z 4
loop_
_atom_type_symbol
_atom_type_radius_bond
C 0.68
H 0.23
N 0.68
O 0.68
loop_
_atom_site_label
_atom_site_type_symbol
_atom_site_fract_x
_atom_site_fract_y
_atom_site_fract_z
N1 N 0.3625(2) 0.4682(5) 0.5874(2)
C1 C 0.4368(3) 0.3677(6) 0.5839(3)
N2 N 0.4488(2) 0.2146(5) 0.5320(2)
C2 C 0.3740(3) 0.1578(6) 0.4708(3)
C3 C 0.2906(3) 0.2567(5) 0.4626(3)
C4 C 0.2872(3) 0.4149(6) 0.5272(3)
O1 O 0.51435(19) 0.4179(4) 0.6400(2)
C5 C 0.5105(3) 0.5834(6) 0.7008(3)
H1 H 0.49740 0.69310 0.65900
H2 H 0.56920 0.60000 0.74270
H3 H 0.46230 0.56790 0.74140
N3 N 0.3833(3) 0.0059(5) 0.4178(3)
H4 H 0.434(3) -0.070(6) 0.439(3)
H5 H 0.328(3) -0.022(6) 0.385(3)
N4 N 0.2206(2) 0.1827(5) 0.4010(3)
O2 O 0.1436(2) 0.2632(4) 0.3912(2)
N5 N 0.2092(2) 0.5068(5) 0.5260(3)
H6 H 0.157(3) 0.447(5) 0.472(3)
C6 C 0.1906(3) 0.6555(6) 0.5947(3)
C7 C 0.2000(3) 0.5778(6) 0.6994(3)
H7 H 0.15830 0.47050 0.70120
H8 H 0.26320 0.53380 0.71990
C8 C 0.1768(3) 0.7288(6) 0.7692(3)
H9 H 0.18450 0.67870 0.83720
C9 C 0.0782(3) 0.7933(6) 0.7388(3)
H10 H 0.06300 0.89130 0.78400
H11 H 0.03610 0.68720 0.74220
C10 C 0.0665(3) 0.8700(6) 0.6344(3)
H12 H 0.00180 0.90960 0.61430
C11 C 0.0911(3) 0.7189(6) 0.5652(3)
H13 H 0.08300 0.76780 0.49770
H14 H 0.04980 0.61100 0.56690
C12 C 0.2523(3) 0.8250(6) 0.5899(3)
H15 H 0.24370 0.87520 0.52270
H16 H 0.31690 0.78730 0.60720
C13 C 0.2294(3) 0.9757(6) 0.6607(3)
H17 H 0.27100 1.08450 0.65840
C14 C 0.2418(3) 0.8954(6) 0.7642(3)
H18 H 0.22880 0.99300 0.81060
H19 H 0.30570 0.85430 0.78290
C15 C 0.1299(3) 1.0387(6) 0.6319(3)
H20 H 0.11480 1.13540 0.67780
H21 H 0.12170 1.09290 0.56550
#END
