
#######################################################################
#
#                 Cambridge Crystallographic Data Centre
#                                CCDC
#
#######################################################################
#
# If this CIF has been generated from an entry in the Cambridge
# Structural Database, then it will include bibliographic, chemical,
# crystal, experimental, refinement or atomic coordinate data resulting
# from the CCDC's data processing and validation procedures.
#
#######################################################################

data_CSD_CIF_GOJJIA
_audit_creation_date 2014-07-11
_audit_creation_method CSD-ConQuest-V1
_database_code_CSD GOJJIA
_database_code_depnum_ccdc_archive 'CCDC 866918'
_chemical_formula_sum 'C35 H47 N5 O3'
_chemical_formula_moiety
;
C35 H47 N5 O3
;
_journal_coden_Cambridge 1078
_journal_year 2012
_journal_name_full 'CSD Communication(Private Communication) '
loop_
_publ_author_name
"G.Jurnot"
"R.Neier"
"H.Stoeckli-Evans"
_chemical_name_systematic
;
(4-Nitrophenyl)(5,5,10,10,15,15,20,20-octamethyl-2,3,4,5,10,11,12,13,14,15,20,
24-dodecahydroporphyrin-21(1H)-yl)methanone
;
_cell_volume   3177.899
_exptl_crystal_colour 'yellow'
_exptl_crystal_density_diffrn 1.224
_exptl_crystal_description 'plate'
_diffrn_ambient_temperature 233
_refine_special_details
;
O2B,O3B and O2A,O3A disordered over two sites with occupancies 0.624:0.376.

;
#These two values have been output from a single CSD field.
_refine_ls_R_factor_gt 0.0647
_refine_ls_wR_factor_gt 0.0647
_symmetry_cell_setting monoclinic
_symmetry_space_group_name_H-M 'P 21/n'
_symmetry_Int_Tables_number 14
loop_
_symmetry_equiv_pos_site_id
_symmetry_equiv_pos_as_xyz
1 x,y,z
2 1/2-x,1/2+y,1/2-z
3 -x,-y,-z
4 -1/2+x,-1/2-y,-1/2+z
_cell_length_a 10.3799(8)
_cell_length_b 12.1641(6)
_cell_length_c 25.359(2)
_cell_angle_alpha 90
_cell_angle_beta 97.017(7)
_cell_angle_gamma 90
_cell_formula_units_Z 4
loop_
_atom_type_symbol
_atom_type_radius_bond
C 0.68
H 0.23
N 0.68
O 0.68
loop_
_atom_site_label
_atom_site_type_symbol
_atom_site_fract_x
_atom_site_fract_y
_atom_site_fract_z
O1 O 0.69760(14) 0.42414(13) 0.23962(5)
O2 O 1.0934(11) 0.5346(7) 0.0502(5)
O3 O 0.9561(7) 0.6809(7) 0.0292(3)
N1 N 0.53773(14) 0.36308(12) 0.17680(6)
N2 N 0.48877(14) 0.04738(13) 0.19463(6)
N3 N 0.68957(14) -0.04741(13) 0.14152(6)
N4 N 0.64990(14) 0.18740(12) 0.09955(6)
N5 N 0.9975(2) 0.5953(2) 0.05565(10)
C1 C 0.45288(17) 0.33794(16) 0.21894(7)
C2 C 0.47106(18) 0.22271(16) 0.24717(7)
C3 C 0.41285(17) 0.12519(15) 0.21549(7)
C4 C 0.41428(17) -0.03423(15) 0.16883(7)
C5 C 0.47306(19) -0.14029(16) 0.15152(8)
C6 C 0.58831(18) -0.12596(16) 0.11916(7)
C7 C 0.78166(18) -0.03792(16) 0.10129(8)
C8 C 0.85515(17) 0.07325(17) 0.10373(8)
C9 C 0.76736(17) 0.16585(16) 0.08143(7)
C10 C 0.58605(17) 0.27112(15) 0.07025(7)
C11 C 0.45151(17) 0.31011(15) 0.07938(7)
C12 C 0.46085(17) 0.39566(15) 0.12527(7)
C13 C 0.33314(19) 0.43410(17) 0.14429(8)
C14 C 0.31468(18) 0.36227(18) 0.19200(8)
C15 C 0.36351(18) 0.21173(17) 0.08705(8)
C16 C 0.3925(2) 0.37224(18) 0.02912(8)
C17 C 0.6657(2) 0.30386(17) 0.03408(8)
C18 C 0.77891(19) 0.23797(17) 0.04089(8)
C19 C 0.91302(19) 0.09667(19) 0.16149(8)
C20 C 0.9674(2) 0.0619(2) 0.06939(10)
C21 C 0.69775(19) -0.06105(18) 0.04787(8)
C22 C 0.56106(19) -0.08356(18) 0.06246(8)
C23 C 0.5188(2) -0.20569(17) 0.20303(8)
C24 C 0.3690(2) -0.20851(18) 0.11764(9)
C25 C 0.28813(18) -0.00741(17) 0.17332(9)
C26 C 0.28699(18) 0.09079(17) 0.20282(8)
C27 C 0.61508(19) 0.20017(17) 0.26543(8)
C28 C 0.4002(2) 0.23197(19) 0.29698(8)
C29 C 0.65324(18) 0.41438(15) 0.19268(7)
C30 C 0.73515(17) 0.45902(15) 0.15240(7)
C31 C 0.84934(19) 0.40450(17) 0.14560(9)
C32 C 0.9352(2) 0.4473(2) 0.11361(10)
C33 C 0.90700(19) 0.54715(19) 0.08923(8)
C34 C 0.79626(19) 0.60466(17) 0.09601(8)
C35 C 0.71031(19) 0.56011(16) 0.12737(8)
H1 H 0.47250 0.39410 0.24700
H2 H 0.62030 0.15320 0.12570
H3 H 0.63040 -0.19870 0.11750
H4 H 0.84650 -0.09760 0.10780
H5 H 0.50320 0.46180 0.11250
H6 H 0.33870 0.51180 0.15450
H7 H 0.26050 0.42470 0.11610
H8 H 0.26960 0.29400 0.18060
H9 H 0.26420 0.40110 0.21640
H10 H 0.39580 0.17350 0.11960
H11 H 0.36310 0.16200 0.05710
H12 H 0.27590 0.23750 0.08930
H13 H 0.39580 0.32590 -0.00180
H14 H 0.44170 0.43900 0.02520
H15 H 0.57310 0.04960 0.19740
H16 H 0.7284(18) -0.0726(16) 0.1716(7)
H17 H 0.84950 0.24290 0.02110
H18 H 0.96370 0.03390 0.17550
H19 H 0.84340 0.10990 0.18300
H20 H 0.96840 0.16100 0.16240
H21 H 0.93240 0.04480 0.03310
H22 H 1.02510 0.00330 0.08340
H23 H 1.01530 0.13050 0.07010
H24 H 0.69730 0.00260 0.02420
H25 H 0.73080 -0.12500 0.03020
H26 H 0.50890 -0.01620 0.06080
H27 H 0.51600 -0.13890 0.03890
H28 H 0.44690 -0.21390 0.22380
H29 H 0.58890 -0.16630 0.22370
H30 H 0.54910 -0.27770 0.19370
H31 H 0.33180 -0.16530 0.08740
H32 H 0.30120 -0.22880 0.13900
H33 H 0.40830 -0.27440 0.10520
H34 H 0.21460 -0.04760 0.15910
H35 H 0.21280 0.12650 0.21220
H36 H 0.64860 0.25570 0.29100
H37 H 0.66330 0.20240 0.23500
H38 H 0.62440 0.12820 0.28190
H39 H 0.43830 0.29100 0.31940
H40 H 0.30900 0.24740 0.28630
H41 H 0.40860 0.16330 0.31650
H42 H 0.86850 0.33730 0.16310
H43 H 1.01150 0.40920 0.10850
H44 H 0.77950 0.67320 0.07950
H45 H 0.63380 0.59840 0.13200
H46 H 0.30300 0.39100 0.03230
H47 H 0.64820 0.36040 0.00900
O4? O 1.1010(19) 0.5635(11) 0.0486(9)
O5? O 0.9948(11) 0.6903(14) 0.0460(5)
#END
