
#######################################################################
#
#                 Cambridge Crystallographic Data Centre
#                                CCDC
#
#######################################################################
#
# If this CIF has been generated from an entry in the Cambridge
# Structural Database, then it will include bibliographic, chemical,
# crystal, experimental, refinement or atomic coordinate data resulting
# from the CCDC's data processing and validation procedures.
#
#######################################################################

data_CSD_CIF_GOJKAR
_audit_creation_date 1989-07-11
_audit_creation_method CSD-ConQuest-V1
_database_code_CSD GOJKAR
_database_code_depnum_ccdc_archive 'CCDC 1169758'
_chemical_formula_sum 'C29 H39 N1 O2'
_chemical_formula_moiety
;
C29 H39 N1 O2
;
_journal_coeditor_code "IUCr AS0134"
_journal_coden_Cambridge 591
_journal_volume 44
_journal_year 1988
_journal_page_first 2185
_journal_name_full 'Acta Crystallogr.,Sect.C:Cryst.Struct.Commun. '
loop_
_publ_author_name
"T.Taga"
"A.Uchiyama"
"K.Machida"
"T.Miyasaka"
_chemical_name_systematic
;
9-Fluorenylideneamino palmitate
;
_chemical_name_common
;
9-Fluorenyl O-palmitoyl ketone oxime
;
_cell_volume   2550.838
_exptl_crystal_colour 'colorless'
_exptl_crystal_density_diffrn 1.129
_diffrn_ambient_temperature ?
_diffrn_special_details
;
The study was carried out at room temperature,in the range 283-303K

;
#These two values have been output from a single CSD field.
_refine_ls_R_factor_gt 0.047
_refine_ls_wR_factor_gt 0.047
_symmetry_cell_setting orthorhombic
_symmetry_space_group_name_H-M 'P 21 21 21'
_symmetry_Int_Tables_number 19
loop_
_symmetry_equiv_pos_site_id
_symmetry_equiv_pos_as_xyz
1 x,y,z
2 1/2+x,1/2-y,-z
3 -x,1/2+y,1/2-z
4 1/2-x,-y,1/2+z
_cell_length_a 60.27(1)
_cell_length_b 7.574(2)
_cell_length_c 5.588(2)
_cell_angle_alpha 90
_cell_angle_beta 90
_cell_angle_gamma 90
_cell_formula_units_Z 4
loop_
_atom_type_symbol
_atom_type_radius_bond
C 0.68
H 0.23
N 0.68
O 0.68
loop_
_atom_site_label
_atom_site_type_symbol
_atom_site_fract_x
_atom_site_fract_y
_atom_site_fract_z
N1 N 0.31660(3) 0.3859(3) 0.7111(5)
C1 C 0.30730(4) 0.4636(4) 0.8897(5)
C2 C 0.28910(4) 0.3765(4) 1.0201(5)
C3 C 0.27832(5) 0.2168(4) 0.9786(6)
C4 C 0.26191(5) 0.1661(4) 1.1365(6)
C5 C 0.25638(3) 0.2685(4) 1.3333(6)
C6 C 0.26728(5) 0.4287(4) 1.3757(5)
C7 C 0.28348(4) 0.4800(3) 1.2167(5)
C8 C 0.31135(4) 0.6346(3) 1.0103(5)
C9 C 0.32533(5) 0.7754(4) 0.9589(6)
C10 C 0.32510(5) 0.9196(4) 1.1088(7)
C11 C 0.31173(5) 0.9256(4) 1.3102(6)
C12 C 0.29750(5) 0.7867(4) 1.3616(5)
C13 C 0.29729(4) 0.6429(4) 1.2113(5)
O1 O 0.33460(3) 0.4916(3) 0.6259(4)
C14 C 0.34445(4) 0.4263(4) 0.4268(5)
O2 O 0.33787(4) 0.3025(3) 0.3175(4)
C15 C 0.36436(5) 0.5375(4) 0.3663(6)
C16 C 0.37762(5) 0.4673(4) 0.1601(6)
C17 C 0.39977(5) 0.5585(4) 0.1311(6)
C18 C 0.41409(5) 0.4812(4) -0.0651(6)
C19 C 0.43716(5) 0.5620(4) -0.0821(6)
C20 C 0.45132(5) 0.4844(4) -0.2795(6)
C21 C 0.47461(5) 0.5631(5) -0.2942(6)
C22 C 0.48865(5) 0.4869(4) -0.4939(6)
C23 C 0.51187(5) 0.5639(5) -0.5101(6)
C24 C 0.52592(5) 0.4854(5) -0.7068(6)
C25 C 0.54907(5) 0.5614(5) -0.7260(6)
C26 C 0.56293(5) 0.4803(4) -0.9242(6)
C27 C 0.58638(5) 0.5528(5) -0.9438(7)
C28 C 0.59976(5) 0.4717(5) -1.1445(7)
C29 C 0.62318(6) 0.5411(6) -1.1636(9)
H1 H 0.283(1) 0.137(4) 0.852(5)
H2 H 0.254(1) 0.056(4) 1.110(5)
H3 H 0.243(1) 0.220(5) 1.433(6)
H4 H 0.266(1) 0.503(4) 1.538(6)
H5 H 0.334(1) 0.776(4) 0.809(6)
H6 H 0.335(1) 1.017(4) 1.084(7)
H7 H 0.312(1) 1.028(4) 1.416(5)
H8 H 0.289(1) 0.790(4) 1.526(6)
H9 H 0.374(1) 0.539(4) 0.523(7)
H10 H 0.359(1) 0.662(4) 0.330(5)
H11 H 0.380(1) 0.348(4) 0.175(5)
H12 H 0.370(1) 0.480(4) 0.008(6)
H13 H 0.408(1) 0.546(4) 0.292(6)
H14 H 0.397(1) 0.684(4) 0.100(5)
H15 H 0.416(1) 0.345(4) -0.025(6)
H16 H 0.407(1) 0.493(4) -0.203(6)
H17 H 0.444(1) 0.545(4) 0.079(5)
H18 H 0.435(1) 0.684(5) -0.140(6)
H19 H 0.452(1) 0.360(4) -0.264(7)
H20 H 0.44500 0.499(4) -0.431(5)
H21 H 0.483(1) 0.547(5) -0.134(5)
H22 H 0.474(1) 0.689(4) -0.318(5)
H23 H 0.489(1) 0.361(4) -0.492(6)
H24 H 0.482(1) 0.505(4) -0.658(5)
H25 H 0.520(1) 0.546(5) -0.344(5)
H26 H 0.511(1) 0.688(5) -0.542(7)
H27 H 0.527(1) 0.352(5) -0.657(6)
H28 H 0.519(1) 0.496(4) -0.863(5)
H29 H 0.556(1) 0.543(4) -0.565(6)
H30 H 0.549(1) 0.687(5) -0.735(7)
H31 H 0.562(1) 0.357(4) -0.907(6)
H32 H 0.554(1) 0.518(4) -1.075(6)
H33 H 0.593(1) 0.538(4) -0.779(6)
H34 H 0.586(1) 0.685(4) -0.952(7)
H35 H 0.599(1) 0.350(4) -1.122(6)
H36 H 0.592(1) 0.499(4) -1.304(6)
H37 H 0.632(1) 0.529(5) -1.007(8)
H38 H 0.623(1) 0.672(5) -1.196(7)
H39 H 0.632(1) 0.474(5) -1.303(7)
#END
