
#######################################################################
#
#                 Cambridge Crystallographic Data Centre
#                                CCDC
#
#######################################################################
#
# If this CIF has been generated from an entry in the Cambridge
# Structural Database, then it will include bibliographic, chemical,
# crystal, experimental, refinement or atomic coordinate data resulting
# from the CCDC's data processing and validation procedures.
#
#######################################################################

data_CSD_CIF_GOKKOG
_audit_creation_date 1999-08-26
_audit_creation_method CSD-ConQuest-V1
_database_code_CSD GOKKOG
_database_code_depnum_ccdc_archive 'CCDC 101263'
_chemical_formula_sum 'C30 H39 N4 O3'
_chemical_formula_moiety
;
C30 H39 N4 O3
;
_journal_coden_Cambridge 179
_journal_volume 38
_journal_year 1999
_journal_page_first 1791
_journal_name_full 'Angew.Chem.,Int.Ed. '
loop_
_publ_author_name
"T.Itoh"
"K.Matsuda"
"H.Iwamura"
_chemical_name_systematic
;
tris(p-(N-Oxy-t-butylamino)phenyl)amine triradical
;
_chemical_melting_point 463.15
_cell_volume   2811.629
_exptl_crystal_colour 'violet'
_exptl_crystal_density_diffrn 1.19
_exptl_special_details
;
Melting point range 463.15-465.15K

;
_exptl_crystal_description 'plate'
_exptl_crystal_preparation 'n-heptane/dichloromethane'
_diffrn_ambient_temperature 173.2
#These two values have been output from a single CSD field.
_refine_ls_R_factor_gt 0.0387
_refine_ls_wR_factor_gt 0.0387
_symmetry_cell_setting monoclinic
_symmetry_space_group_name_H-M 'C c'
_symmetry_Int_Tables_number 9
loop_
_symmetry_equiv_pos_site_id
_symmetry_equiv_pos_as_xyz
1 x,y,z
2 x,-y,1/2+z
3 1/2+x,1/2+y,z
4 1/2+x,1/2-y,1/2+z
_cell_length_a 13.11(1)
_cell_length_b 23.081(5)
_cell_length_c 10.410(2)
_cell_angle_alpha 90
_cell_angle_beta 116.80(5)
_cell_angle_gamma 90
_cell_formula_units_Z 4
loop_
_atom_type_symbol
_atom_type_radius_bond
C 0.68
H 0.23
N 0.68
O 0.68
loop_
_atom_site_label
_atom_site_type_symbol
_atom_site_fract_x
_atom_site_fract_y
_atom_site_fract_z
O1 O 0.5343(6) -0.14768(9) 0.6945(7)
O2 O 0.4912(6) 0.2695(1) 0.5449(8)
O3 O 1.2465(6) 0.0530(1) 0.4961(7)
N1 N 0.6183(6) -0.15378(9) 0.6628(7)
N2 N 0.6007(6) 0.27193(10) 0.6000(7)
N3 N 1.2489(6) 0.05560(9) 0.6217(7)
N4 N 0.8156(6) 0.05796(9) 0.6136(7)
C1 C 0.7677(6) 0.0048(1) 0.6269(7)
C2 C 0.7907(6) -0.0463(1) 0.5726(7)
C3 C 0.7450(6) -0.0988(1) 0.5841(7)
C4 C 0.6725(6) -0.1025(1) 0.6504(7)
C5 C 0.6505(6) -0.0514(1) 0.7066(7)
C6 C 0.6977(6) 0.0008(1) 0.6961(7)
C7 C 0.6478(6) -0.2142(1) 0.6386(8)
C8 C 0.5828(7) -0.2559(2) 0.6896(8)
C9 C 0.6068(7) -0.2233(2) 0.4766(8)
C10 C 0.7759(6) -0.2248(2) 0.7278(9)
C11 C 0.7627(6) 0.1120(1) 0.6108(7)
C12 C 0.6429(6) 0.1184(1) 0.5384(7)
C13 C 0.5927(6) 0.1711(1) 0.5369(7)
C14 C 0.6587(6) 0.2196(1) 0.6052(7)
C15 C 0.7784(6) 0.2137(1) 0.6734(7)
C16 C 0.8286(6) 0.1604(1) 0.6771(8)
C17 C 0.6553(6) 0.3305(1) 0.6471(7)
C18 C 0.5593(6) 0.3739(1) 0.6142(8)
C19 C 0.7336(6) 0.3309(2) 0.8085(8)
C20 C 0.7195(7) 0.3470(2) 0.5627(8)
C21 C 0.9258(6) 0.05781(10) 0.6171(7)
C22 C 0.9417(6) 0.0830(1) 0.5058(7)
C23 C 1.0483(6) 0.0822(1) 0.5082(7)
C24 C 1.1421(6) 0.0569(1) 0.6244(7)
C25 C 1.1256(6) 0.0312(1) 0.7348(7)
C26 C 1.0183(6) 0.0319(1) 0.7311(7)
C27 C 1.3646(6) 0.0586(1) 0.7503(7)
C28 C 1.3585(6) 0.0952(1) 0.8671(7)
C29 C 1.4463(6) 0.0873(2) 0.7019(7)
C30 C 1.4060(6) -0.0028(1) 0.8024(7)
H1 H 0.83920 -0.04490 0.52770
H2 H 0.76300 -0.13280 0.54780
H3 H 0.60250 -0.05270 0.75360
H4 H 0.68280 0.03460 0.73760
H5 H 0.50320 -0.24950 0.63650
H6 H 0.60040 -0.29470 0.67720
H7 H 0.60510 -0.24940 0.78980
H8 H 0.52680 -0.21730 0.42780
H9 H 0.64450 -0.19640 0.44390
H10 H 0.62450 -0.26160 0.46100
H11 H 0.79400 -0.26320 0.71310
H12 H 0.81760 -0.19810 0.70080
H13 H 0.79650 -0.21970 0.82790
H14 H 0.59660 0.08620 0.49130
H15 H 0.51200 0.17440 0.48950
H16 H 0.82550 0.24640 0.71820
H17 H 0.90970 0.15690 0.72690
H18 H 0.59100 0.41160 0.64350
H19 H 0.50960 0.37370 0.51490
H20 H 0.51810 0.36360 0.66670
H21 H 0.69140 0.32000 0.85940
H22 H 0.79460 0.30420 0.83120
H23 H 0.76410 0.36870 0.83850
H24 H 0.77800 0.31930 0.58060
H25 H 0.66820 0.34790 0.46390
H26 H 0.75320 0.38420 0.59350
H27 H 0.87930 0.10080 0.42880
H28 H 1.05820 0.09890 0.43200
H29 H 1.18820 0.01320 0.81380
H30 H 1.00820 0.01460 0.80810
H31 H 1.43200 0.09660 0.94890
H32 H 1.33500 0.13330 0.83290
H33 H 1.30530 0.07860 0.89580
H34 H 1.52060 0.08970 0.78200
H35 H 1.45010 0.06490 0.62840
H36 H 1.42000 0.12520 0.66810
H37 H 1.35330 -0.02150 0.82890
H38 H 1.41200 -0.02400 0.72870
H39 H 1.47900 -0.00120 0.88490
#END
