
#######################################################################
#
#                 Cambridge Crystallographic Data Centre
#                                CCDC
#
#######################################################################
#
# If this CIF has been generated from an entry in the Cambridge
# Structural Database, then it will include bibliographic, chemical,
# crystal, experimental, refinement or atomic coordinate data resulting
# from the CCDC's data processing and validation procedures.
#
#######################################################################

data_CSD_CIF_GOKSIJ
_audit_creation_date 2009-03-31
_audit_creation_method CSD-ConQuest-V1
_database_code_CSD GOKSIJ
_database_code_depnum_ccdc_archive 'CCDC 682576'
_chemical_formula_sum 'C24 H28 N2 O8'
_chemical_formula_moiety
;
C24 H28 N2 O8
;
_journal_coden_Cambridge 1078
_journal_year 2008
_journal_name_full 'CSD Communication(Private Communication) '
loop_
_publ_author_name
"K.Mereiter"
"A.Patel"
"T.Rosenau"
_chemical_name_systematic
;
5-(6'-hydroxy-7'-nitro-2',2',8'-trimethylchroman-5'-yl)-6-hydroxy-7-nitro-2,2,
8-trimethylchroman
;
_cell_volume   2294.572
_exptl_crystal_colour 'orange'
_exptl_crystal_density_diffrn 1.368
_exptl_special_details
;
contribution from Department of Chemistry, Vienna University of Technology, 
Getreidemarkt 9, A-1060 Vienna, Austria
;
_exptl_crystal_description 'prism'
_diffrn_ambient_temperature 297
#These two values have been output from a single CSD field.
_refine_ls_R_factor_gt 0.0445
_refine_ls_wR_factor_gt 0.0445
_symmetry_cell_setting monoclinic
_symmetry_space_group_name_H-M 'C 2/c'
_symmetry_Int_Tables_number 15
loop_
_symmetry_equiv_pos_site_id
_symmetry_equiv_pos_as_xyz
1 x,y,z
2 1/2+x,1/2+y,z
3 -x,y,1/2-z
4 1/2-x,1/2+y,1/2-z
5 -x,-y,-z
6 -1/2-x,-1/2-y,-z
7 x,-y,-1/2+z
8 -1/2+x,-1/2-y,-1/2+z
_cell_length_a 14.9001(11)
_cell_length_b 15.5515(12)
_cell_length_c 12.0991(9)
_cell_angle_alpha 90
_cell_angle_beta 125.071(1)
_cell_angle_gamma 90
_cell_formula_units_Z 4
loop_
_atom_type_symbol
_atom_type_radius_bond
C 0.68
H 0.23
N 0.68
O 0.68
loop_
_atom_site_label
_atom_site_type_symbol
_atom_site_fract_x
_atom_site_fract_y
_atom_site_fract_z
O1 O 0.17815(7) 0.32354(6) 0.64800(9)
O2 O 0.11372(9) 0.54435(7) 0.25196(10)
H1 H 0.15870 0.58350 0.28310
O3 O 0.28609(10) 0.62474(7) 0.46189(12)
O4 O 0.40993(9) 0.53180(9) 0.58724(15)
N1 N 0.31431(10) 0.55334(8) 0.51474(12)
C1 C 0.10498(12) 0.24967(9) 0.60776(15)
C2 C -0.01225(12) 0.28117(10) 0.51235(16)
H2 H -0.02750 0.32390 0.55780
H3 H -0.06230 0.23340 0.48770
C3 C -0.03094(12) 0.32016(10) 0.38556(15)
H4 H -0.03880 0.27440 0.32610
H5 H -0.09850 0.35300 0.33840
C4 C 0.06228(10) 0.37787(8) 0.41772(13)
C5 C 0.05088(10) 0.43360(8) 0.32079(12)
C6 C 0.13246(10) 0.49303(8) 0.35335(12)
C7 C 0.22849(10) 0.49265(8) 0.48530(13)
C8 C 0.24541(10) 0.43543(8) 0.58460(12)
C9 C 0.1605(1) 0.37802(8) 0.54788(12)
C10 C 0.12721(15) 0.21606(12) 0.73909(18)
H6 H 0.10890 0.25960 0.77930
H7 H 0.20340 0.20150 0.79980
H8 H 0.08330 0.16580 0.72120
C11 C 0.13652(16) 0.18365(11) 0.54368(19)
H9 H 0.12770 0.20800 0.46510
H10 H 0.09020 0.13410 0.51800
H11 H 0.21160 0.16700 0.60730
C12 C 0.34705(12) 0.43444(11) 0.72749(14)
H12 H 0.33350 0.40120 0.78330
H13 H 0.36580 0.49220 0.76120
H14 H 0.40650 0.40930 0.72890
O1B O -0.17815(7) 0.32354(6) -0.14800(9)
O2B O -0.11372(9) 0.54435(7) 0.24804(10)
H1B H -0.15870 0.58350 0.21690
O3B O -0.28609(10) 0.62474(7) 0.03811(12)
O4B O -0.40993(9) 0.53180(9) -0.08724(15)
N1B N -0.31431(10) 0.55334(8) -0.01474(12)
C1B C -0.10498(12) 0.24967(9) -0.10776(15)
C2B C 0.01225(12) 0.28117(10) -0.01235(16)
H2B H 0.02750 0.32390 -0.05780
H3B H 0.06230 0.23340 0.01230
C3B C 0.03094(12) 0.32016(10) 0.11444(15)
H4B H 0.03880 0.27440 0.17390
H5B H 0.09850 0.35300 0.16160
C4B C -0.06228(10) 0.37787(8) 0.08228(13)
C5B C -0.05088(10) 0.43360(8) 0.17921(12)
C6B C -0.13246(10) 0.49303(8) 0.14665(12)
C7B C -0.22849(10) 0.49265(8) 0.01470(13)
C8B C -0.24541(10) 0.43543(8) -0.08460(12)
C9B C -0.1605(1) 0.37802(8) -0.04788(12)
C10B C -0.12721(15) 0.21606(12) -0.23909(18)
H6B H -0.10890 0.25960 -0.27930
H7B H -0.20340 0.20150 -0.29980
H8B H -0.08330 0.16580 -0.22120
C11B C -0.13652(16) 0.18365(11) -0.04368(19)
H9B H -0.12770 0.20800 0.03490
H10B H -0.09020 0.13410 -0.01800
H11B H -0.21160 0.16700 -0.10730
C12B C -0.34705(12) 0.43444(11) -0.22749(14)
H12B H -0.33350 0.40120 -0.28330
H13B H -0.36580 0.49220 -0.26120
H14B H -0.40650 0.40930 -0.22890
#END
