
#######################################################################
#
#                 Cambridge Crystallographic Data Centre
#                                CCDC
#
#######################################################################
#
# If this CIF has been generated from an entry in the Cambridge
# Structural Database, then it will include bibliographic, chemical,
# crystal, experimental, refinement or atomic coordinate data resulting
# from the CCDC's data processing and validation procedures.
#
#######################################################################

data_CSD_CIF_GOMFAQ
_audit_creation_date 2009-03-31
_audit_creation_method CSD-ConQuest-V1
_database_code_CSD GOMFAQ
_database_code_depnum_ccdc_archive 'CCDC 723446'
_database_code_depnum_ccdc_journal 1267/2451
_chemical_formula_sum 'C23 H31 N1 O3'
_chemical_formula_moiety
;
C23 H31 N1 O3
;
_journal_coden_Cambridge 1267
_journal_volume 224
_journal_year 2009
_journal_page_first 27
_journal_name_full 'Z.Kristallogr.-New Cryst.Struct. '
loop_
_publ_author_name
"W.Frey"
"A.Baskakova"
"V.Jager"
_chemical_name_systematic
;
(2S,3S)-3-(1-Adamantyl)-3-(N-(Z)-benzylidene-N-oxyamino)-1,2-isopropylidene-1,
2-propanediol
;
_chemical_melting_point 425
_cell_volume   2037.859
_exptl_crystal_colour 'colorless'
_exptl_crystal_density_diffrn 1.204
_exptl_special_details
;
Melting point range 425-428K

;
_exptl_crystal_description 'block'
_exptl_crystal_preparation 'methanol'
_diffrn_ambient_temperature 293
#These two values have been output from a single CSD field.
_refine_ls_R_factor_gt 0.0567
_refine_ls_wR_factor_gt 0.0567
_symmetry_cell_setting orthorhombic
_symmetry_space_group_name_H-M 'P 21 21 21'
_symmetry_Int_Tables_number 19
loop_
_symmetry_equiv_pos_site_id
_symmetry_equiv_pos_as_xyz
1 x,y,z
2 1/2-x,-y,1/2+z
3 -x,1/2+y,1/2-z
4 1/2+x,1/2-y,-z
_cell_length_a 6.3870(13)
_cell_length_b 14.434(2)
_cell_length_c 22.105(4)
_cell_angle_alpha 90
_cell_angle_beta 90
_cell_angle_gamma 90
_cell_formula_units_Z 4
loop_
_atom_type_symbol
_atom_type_radius_bond
C 0.68
H 0.23
N 0.68
O 0.68
loop_
_atom_site_label
_atom_site_type_symbol
_atom_site_fract_x
_atom_site_fract_y
_atom_site_fract_z
C1 C 0.1720(5) 0.42105(19) 0.08213(12)
O1 O 0.3550(4) 0.47308(17) -0.04250(9)
N1 N 0.1829(4) 0.50223(17) -0.01844(10)
O2 O 0.3989(6) 0.60197(15) 0.12126(10)
C2 C 0.3674(5) 0.3613(2) 0.07779(13)
H1 H 0.48560 0.39430 0.09490
H2 H 0.39830 0.34850 0.03560
C3 C -0.0124(5) 0.3670(2) 0.05580(14)
H3 H 0.01400 0.35380 0.01340
H4 H -0.13840 0.40430 0.05840
O3 O 0.3661(7) 0.73147(17) 0.06645(12)
C4 C 0.1246(6) 0.4394(2) 0.14923(12)
H5 H 0.23940 0.47380 0.16720
H6 H -0.00110 0.47670 0.15270
C5 C -0.0451(5) 0.2760(3) 0.09007(15)
H7 H -0.16320 0.24230 0.07230
C6 C -0.0904(5) 0.2955(3) 0.15630(14)
H8 H -0.11080 0.23770 0.17790
H9 H -0.21710 0.33210 0.16000
C7 C 0.0944(6) 0.3483(2) 0.18337(13)
H10 H 0.06620 0.36140 0.22610
C8 C 0.2930(6) 0.2905(3) 0.17809(15)
H11 H 0.41030 0.32410 0.19530
H12 H 0.27650 0.23300 0.20030
C9 C 0.3352(6) 0.2700(2) 0.11184(15)
H13 H 0.46180 0.23200 0.10830
C10 C 0.1510(6) 0.2178(2) 0.08523(15)
H14 H 0.17860 0.20350 0.04310
H15 H 0.13140 0.15990 0.10680
C11 C 0.1929(5) 0.5157(2) 0.04848(12)
H16 H 0.07290 0.55410 0.06020
C12 C 0.0104(5) 0.5170(2) -0.04848(14)
H17 H -0.10280 0.53900 -0.02620
C13 C -0.0245(5) 0.5032(2) -0.11226(12)
C14 C -0.2266(6) 0.5188(2) -0.13414(15)
H18 H -0.33190 0.53690 -0.10760
C15 C -0.2715(7) 0.5075(3) -0.19479(17)
H19 H -0.40700 0.51720 -0.20880
C16 C -0.1175(8) 0.4819(3) -0.23429(16)
H20 H -0.14710 0.47610 -0.27530
C17 C 0.0798(7) 0.4650(3) -0.21343(15)
H21 H 0.18340 0.44650 -0.24040
C18 C 0.1280(6) 0.4748(2) -0.15311(13)
H22 H 0.26300 0.46230 -0.13960
C19 C 0.3917(7) 0.5725(2) 0.06002(15)
H23 H 0.51560 0.53510 0.05070
C20 C 0.4251(10) 0.6983(3) 0.12355(19)
C21 C 0.3990(9) 0.6634(2) 0.02432(17)
H24 H 0.53410 0.67120 0.00490
H25 H 0.29060 0.66460 -0.00640
C22 C 0.6495(12) 0.7215(4) 0.1338(3)
H26 H 0.69190 0.69910 0.17280
H27 H 0.66760 0.78750 0.13220
H28 H 0.73350 0.69290 0.10310
C23 C 0.2971(14) 0.7357(4) 0.1715(2)
H29 H 0.34330 0.71120 0.20960
H30 H 0.15360 0.71860 0.16490
H31 H 0.30920 0.80190 0.17190
#END
