
#######################################################################
#
#                 Cambridge Crystallographic Data Centre
#                                CCDC
#
#######################################################################
#
# If this CIF has been generated from an entry in the Cambridge
# Structural Database, then it will include bibliographic, chemical,
# crystal, experimental, refinement or atomic coordinate data resulting
# from the CCDC's data processing and validation procedures.
#
#######################################################################

data_CSD_CIF_GOMZOX
_audit_creation_date 1999-09-09
_audit_creation_method CSD-ConQuest-V1
_database_code_CSD GOMZOX
_chemical_formula_sum 'C17 H16 N2 O2'
_chemical_formula_moiety
;
C17 H16 N2 O2
;
_journal_coden_Cambridge 35
_journal_volume 63
_journal_year 1998
_journal_page_first 6452
_journal_name_full 'J.Org.Chem. '
loop_
_publ_author_name
"Yueping Xu"
"C.D.Mull"
"C.L.Bonifant"
"G.Yasaki"
"E.C.Palmer"
"H.Shields"
"S.K.Ballas"
"D.B.Kim-Shapiro"
"S.B.King"
_chemical_name_systematic
;
9,10-Dimethyl-9,10-(epoxyureido)dihydroanthracene
;
_chemical_melting_point 454.15
_cell_volume   1377.993
_exptl_crystal_colour 'colorless'
_exptl_crystal_density_diffrn 1.351
_exptl_special_details
;
Melting point range 454.15-455.65K

;
_diffrn_ambient_temperature ?
_diffrn_special_details
;
The study was carried out at room temperature,in the range 283-303K

;
#These two values have been output from a single CSD field.
_refine_ls_R_factor_gt 0.0577
_refine_ls_wR_factor_gt 0.0577
_symmetry_cell_setting monoclinic
_symmetry_space_group_name_H-M 'P 21/c'
_symmetry_Int_Tables_number 14
loop_
_symmetry_equiv_pos_site_id
_symmetry_equiv_pos_as_xyz
1 x,y,z
2 -x,1/2+y,1/2-z
3 -x,-y,-z
4 x,-1/2-y,-1/2+z
_cell_length_a 8.8730(7)
_cell_length_b 20.035(2)
_cell_length_c 8.5553(7)
_cell_angle_alpha 90
_cell_angle_beta 115.035(5)
_cell_angle_gamma 90
_cell_formula_units_Z 4
loop_
_atom_type_symbol
_atom_type_radius_bond
C 0.68
H 0.23
N 0.68
O 0.68
loop_
_atom_site_label
_atom_site_type_symbol
_atom_site_fract_x
_atom_site_fract_y
_atom_site_fract_z
O1 O 0.5834(2) 0.2149(1) 0.3668(2)
O2 O 0.9717(3) 0.1736(1) 0.3859(3)
N1 N 0.6915(3) 0.1905(1) 0.2917(3)
N2 N 0.8833(4) 0.2271(2) 0.5635(4)
C1 C 0.6350(3) 0.1207(1) 0.2132(3)
C2 C 0.4782(3) 0.1612(1) 0.3917(3)
C3 C 0.5897(3) 0.1021(1) 0.4707(3)
C4 C 0.6683(3) 0.0776(1) 0.3712(3)
C5 C 0.4469(4) 0.1253(1) 0.1117(3)
C6 C 0.3617(3) 0.1441(1) 0.2079(3)
C7 C 0.1905(4) 0.1483(1) 0.1351(4)
C8 C 0.1025(4) 0.1333(2) -0.0394(4)
C9 C 0.1855(4) 0.1152(2) -0.1364(4)
C10 C 0.3574(4) 0.1108(2) -0.0626(4)
C11 C 0.7743(4) 0.0236(2) 0.4273(4)
C12 C 0.8010(4) -0.0066(2) 0.5830(4)
C13 C 0.7268(4) 0.0179(2) 0.6828(4)
C14 C 0.6211(4) 0.0725(2) 0.6276(4)
C15 C 0.8599(4) 0.1948(2) 0.4185(4)
C16 C 0.7231(4) 0.0999(2) 0.1030(4)
C17 C 0.3995(4) 0.1936(2) 0.4978(4)
H1 H 0.9855(45) 0.2347(17) 0.6426(44)
H2 H 0.7890(49) 0.2379(20) 0.5826(48)
H3 H 0.13480 0.16100 0.20120
H4 H -0.01300 0.13560 -0.09030
H5 H 0.12570 0.10570 -0.25300
H6 H 0.41270 0.09830 -0.12910
H7 H 0.82730 0.00750 0.36150
H8 H 0.86980 -0.04380 0.61990
H9 H 0.74740 -0.00220 0.78790
H10 H 0.57140 0.08910 0.69590
H11 H 0.84070 0.09790 0.17320
H12 H 0.70060 0.13190 0.01230
H13 H 0.68370 0.05680 0.05370
H14 H 0.33160 0.23040 0.43480
H15 H 0.48490 0.20960 0.60430
H16 H 0.33170 0.16160 0.52190
#END
