
#######################################################################
#
#                 Cambridge Crystallographic Data Centre
#                                CCDC
#
#######################################################################
#
# If this CIF has been generated from an entry in the Cambridge
# Structural Database, then it will include bibliographic, chemical,
# crystal, experimental, refinement or atomic coordinate data resulting
# from the CCDC's data processing and validation procedures.
#
#######################################################################

data_CSD_CIF_GOPWUF
_audit_creation_date 2014-12-02
_audit_creation_method CSD-ConQuest-V1
_database_code_CSD GOPWUF
_database_code_depnum_ccdc_archive 'CCDC 1006417'
_chemical_formula_sum 'C21 H25 N3 O1'
_chemical_formula_moiety
;
C21 H25 N3 O1
;
_journal_coden_Cambridge 1500
_journal_volume 5
_journal_year 2014
_journal_page_first 643
_journal_name_full 'RSC Advances '
loop_
_publ_author_name
"A.Kalita"
"V.Kumar"
"B.Mondal"
_chemical_name_systematic
;
N^2^,N^4^-bis(2,6-dimethylphenyl)-N^3^-hydroxypentane-2,3,4-triimine
;
_cell_volume   3903.328
_exptl_crystal_colour 'colorless'
_exptl_crystal_density_diffrn 1.142
_exptl_crystal_description 'block'
_diffrn_ambient_temperature 296
#These two values have been output from a single CSD field.
_refine_ls_R_factor_gt 0.0584
_refine_ls_wR_factor_gt 0.0584
_symmetry_cell_setting monoclinic
_symmetry_space_group_name_H-M 'I 2/c'
_symmetry_Int_Tables_number 15
loop_
_symmetry_equiv_pos_site_id
_symmetry_equiv_pos_as_xyz
1 x,y,z
2 -x,y,1/2-z
3 1/2+x,1/2+y,1/2+z
4 1/2-x,1/2+y,-z
5 -x,-y,-z
6 x,-y,-1/2+z
7 -1/2-x,-1/2-y,-1/2-z
8 -1/2+x,-1/2-y,z
_cell_length_a 21.2119(14)
_cell_length_b 7.8518(4)
_cell_length_c 23.5414(15)
_cell_angle_alpha 90
_cell_angle_beta 95.420(6)
_cell_angle_gamma 90
_cell_formula_units_Z 8
loop_
_atom_type_symbol
_atom_type_radius_bond
C 0.68
H 0.23
N 0.68
O 0.68
loop_
_atom_site_label
_atom_site_type_symbol
_atom_site_fract_x
_atom_site_fract_y
_atom_site_fract_z
O1 O 0.74078(9) 0.4249(2) 0.51383(8)
H1 H 0.77000 0.35680 0.51350
N1 N 0.64984(9) 0.7291(2) 0.48265(8)
N2 N 0.65485(10) 0.8192(2) 0.62483(8)
N3 N 0.74816(10) 0.5196(2) 0.56347(9)
C1 C 0.64464(11) 0.6342(3) 0.5255(1)
C2 C 0.70141(11) 0.6196(3) 0.56842(10)
C3 C 0.70261(12) 0.7213(3) 0.62131(10)
C4 C 0.59704(12) 0.7536(3) 0.4402(1)
C5 C 0.57998(13) 0.6303(3) 0.39958(11)
C6 C 0.65051(13) 0.9217(3) 0.67431(11)
C7 C 0.67737(14) 1.0834(3) 0.67702(13)
C8 C 0.56610(14) 0.9104(3) 0.44033(12)
C9 C 0.75676(14) 0.6987(3) 0.66614(11)
H2 H 0.76030 0.79740 0.69030
H3 H 0.79530 0.68410 0.64830
H4 H 0.74950 0.59990 0.68870
C10 C 0.58718(14) 0.5375(4) 0.53855(13)
H5 H 0.55290 0.56210 0.51010
H6 H 0.57550 0.57050 0.57540
H7 H 0.59610 0.41760 0.53850
C11 C 0.61472(14) 0.8618(4) 0.71686(12)
C12 C 0.49753(17) 0.8171(5) 0.35910(15)
H8 H 0.46340 0.83720 0.33210
C13 C 0.60692(17) 0.9674(5) 0.76263(14)
H9 H 0.58320 0.92950 0.79140
C14 C 0.58709(17) 1.0437(4) 0.48409(15)
H10 H 0.55700 1.13520 0.48200
H11 H 0.62780 1.08680 0.47660
H12 H 0.58990 0.99390 0.52150
C15 C 0.61438(18) 0.4625(4) 0.39750(14)
H13 H 0.65620 0.47360 0.41660
H14 H 0.61720 0.43060 0.35850
H15 H 0.59160 0.37650 0.41610
C16 C 0.51593(16) 0.9390(5) 0.39870(16)
H16 H 0.49470 1.04270 0.39790
C17 C 0.66787(18) 1.1830(4) 0.72435(16)
H17 H 0.68560 1.29130 0.72740
C18 C 0.52905(16) 0.6665(5) 0.35909(12)
H18 H 0.51650 0.58540 0.33150
C19 C 0.63315(19) 1.1259(6) 0.76649(16)
H19 H 0.62740 1.19490 0.79770
C20 C 0.58536(19) 0.6879(4) 0.71262(16)
H20 H 0.61810 0.60320 0.71370
H21 H 0.55880 0.67850 0.67740
H22 H 0.56040 0.67060 0.74410
C21 C 0.7136(2) 1.1485(4) 0.62999(17)
H23 H 0.74570 1.06760 0.62240
H24 H 0.73310 1.25520 0.64120
H25 H 0.68520 1.16470 0.59620
#END
