
#######################################################################
#
#                 Cambridge Crystallographic Data Centre
#                                CCDC
#
#######################################################################
#
# If this CIF has been generated from an entry in the Cambridge
# Structural Database, then it will include bibliographic, chemical,
# crystal, experimental, refinement or atomic coordinate data resulting
# from the CCDC's data processing and validation procedures.
#
#######################################################################

data_CSD_CIF_GORCOF
_audit_creation_date 2001-04-02
_audit_creation_method CSD-ConQuest-V1
_database_code_CSD GORCOF
_database_code_depnum_ccdc_archive 'CCDC 127823'
_chemical_formula_sum 'C16 H11 N3 O2'
_chemical_formula_moiety
;
C16 H11 N3 O2
;
_journal_coden_Cambridge 1220
_journal_volume 6
_journal_year 2000
_journal_page_first 2599
_journal_name_full 'Chem.-Eur.J. '
loop_
_publ_author_name
"P.G.Lacroix"
"I.Malfant"
"G.Iftime"
"A.C.Razus"
"K.Nakatani"
"J.A.Delaire"
_chemical_name_systematic
;
Azulene-1-azo-(4'-nitrobenzene)
;
_chemical_melting_point 478.15
_cell_volume    635.611
_exptl_crystal_colour 'black'
_exptl_crystal_density_diffrn 1.45
_exptl_crystal_description 'thin rectangle'
_exptl_crystal_preparation 'n-hexane'
_diffrn_ambient_temperature 160
#These two values have been output from a single CSD field.
_refine_ls_R_factor_gt 0.0386
_refine_ls_wR_factor_gt 0.0386
_symmetry_cell_setting monoclinic
_symmetry_space_group_name_H-M 'P c'
_symmetry_Int_Tables_number 7
loop_
_symmetry_equiv_pos_site_id
_symmetry_equiv_pos_as_xyz
1 x,y,z
2 x,-y,1/2+z
_cell_length_a 6.4003(6)
_cell_length_b 3.7733(3)
_cell_length_c 26.454(3)
_cell_angle_alpha 90
_cell_angle_beta 95.79(1)
_cell_angle_gamma 90
_cell_formula_units_Z 2
loop_
_atom_type_symbol
_atom_type_radius_bond
C 0.68
H 0.23
N 0.68
O 0.68
loop_
_atom_site_label
_atom_site_type_symbol
_atom_site_fract_x
_atom_site_fract_y
_atom_site_fract_z
C1 C 0.8439(5) 0.2544(7) 0.1595(1)
C2 C 0.6526(5) 0.1000(8) 0.14641(9)
C3 C 0.5224(4) 0.0283(7) 0.18416(9)
C4 C 0.5893(4) 0.1098(7) 0.2342(1)
C5 C 0.7849(4) 0.2626(7) 0.2470(1)
C6 C 0.9148(4) 0.3354(8) 0.20957(9)
C7 C 0.3612(4) 0.0269(7) 0.34898(9)
C8 C 0.1608(5) -0.1304(7) 0.3399(1)
C9 C 0.0718(5) -0.1430(8) 0.3848(1)
C10 C 0.2094(5) 0.0062(7) 0.4240(1)
C11 C 0.1727(5) 0.0415(7) 0.4744(1)
C12 C 0.3014(5) 0.1890(7) 0.5145(1)
C13 C 0.4982(5) 0.3330(7) 0.5142(1)
C14 C 0.6250(5) 0.3732(8) 0.4743(1)
C15 C 0.5782(4) 0.2770(7) 0.4238(1)
C16 C 0.4002(4) 0.1169(7) 0.40068(9)
N1 N 0.9776(4) 0.3368(6) 0.11937(8)
N2 N 0.4417(4) 0.0242(6) 0.26919(8)
N3 N 0.5063(4) 0.1045(6) 0.31502(8)
O1 O 0.9197(4) 0.2370(7) 0.07630(7)
O2 O 1.1396(3) 0.5049(6) 0.13067(8)
H1 H 0.61170 -0.00680 0.10940
H2 H 0.37260 -0.05320 0.17720
H3 H 0.83130 0.30800 0.28310
H4 H 1.05750 0.44770 0.21970
H5 H 0.09420 -0.22620 0.30530
H6 H -0.06960 -0.23510 0.38930
H7 H 0.03510 -0.03450 0.48350
H8 H 0.23680 0.17100 0.54860
H9 H 0.55460 0.44170 0.54610
H10 H 0.76710 0.47060 0.48410
H11 H 0.69700 0.33330 0.40330
#END
