
#######################################################################
#
#                 Cambridge Crystallographic Data Centre
#                                CCDC
#
#######################################################################
#
# If this CIF has been generated from an entry in the Cambridge
# Structural Database, then it will include bibliographic, chemical,
# crystal, experimental, refinement or atomic coordinate data resulting
# from the CCDC's data processing and validation procedures.
#
#######################################################################

data_CSD_CIF_GOWKOU
_audit_creation_date 2014-12-05
_audit_creation_method CSD-ConQuest-V1
_database_code_CSD GOWKOU
_database_code_depnum_ccdc_archive 'CCDC 957110'
_chemical_formula_sum 'C12 H12 N2 O6'
_chemical_formula_moiety
;
C12 H12 N2 O6
;
_journal_coden_Cambridge 1350
_journal_volume 17
_journal_year 2015
_journal_page_first 904
_journal_name_full 'CrystEngComm '
loop_
_publ_author_name
"P.Venkatesan"
"S.Thamotharan"
"R.G.Kumar"
"Andivelu Ilangovan"
_chemical_name_systematic
;
(2E)-2-(ethoxycarbonyl)-3-[(3-nitrophenyl)amino]prop-2-enoic acid
;
_chemical_name_common
;
2-(ethoxycarbonyl)-3-((3-nitrophenyl)amino)acrylic acid
;
_cell_volume   1274.911
_exptl_crystal_colour 'colorless'
_exptl_crystal_density_diffrn 1.46
_exptl_crystal_description 'Prism'
_diffrn_ambient_temperature 296
#These two values have been output from a single CSD field.
_refine_ls_R_factor_gt 0.0391
_refine_ls_wR_factor_gt 0.0391
_symmetry_cell_setting monoclinic
_symmetry_space_group_name_H-M 'P 21/c'
_symmetry_Int_Tables_number 14
loop_
_symmetry_equiv_pos_site_id
_symmetry_equiv_pos_as_xyz
1 x,y,z
2 -x,1/2+y,1/2-z
3 -x,-y,-z
4 x,-1/2-y,-1/2+z
_cell_length_a 11.4230(7)
_cell_length_b 8.6148(5)
_cell_length_c 13.9893(9)
_cell_angle_alpha 90
_cell_angle_beta 112.165(4)
_cell_angle_gamma 90
_cell_formula_units_Z 4
loop_
_atom_type_symbol
_atom_type_radius_bond
C 0.68
H 0.23
N 0.68
O 0.68
loop_
_atom_site_label
_atom_site_type_symbol
_atom_site_fract_x
_atom_site_fract_y
_atom_site_fract_z
O1 O 0.16307(18) 0.5836(2) 0.63846(15)
H1 H 0.133(3) 0.631(3) 0.578(2)
O2 O 0.24730(17) 0.3531(2) 0.68444(12)
O3 O 0.09001(15) 0.66272(17) 0.44889(12)
O4 O 0.12124(13) 0.49969(16) 0.33658(11)
O5 O 0.49179(16) -0.2922(2) 0.74392(13)
O6 O 0.5597(2) -0.4210(2) 0.64508(15)
N1 N 0.28271(16) 0.16836(19) 0.54384(14)
H2 H 0.295(2) 0.182(3) 0.6081(18)
N2 N 0.49581(17) -0.3175(2) 0.65984(15)
C1 C 0.32302(17) 0.0260(2) 0.51772(14)
C2 C 0.38287(17) -0.0764(2) 0.59700(14)
H3 H 0.39330 -0.05260 0.66460
C3 C 0.42686(17) -0.2143(2) 0.57394(14)
C4 C 0.41162(19) -0.2564(2) 0.47504(16)
H4 H 0.44250 -0.35030 0.46150
C5 C 0.3492(2) -0.1544(3) 0.39719(16)
H5 H 0.33600 -0.18090 0.32940
C6 C 0.30569(19) -0.0141(2) 0.41689(15)
H6 H 0.26480 0.05400 0.36300
C7 C 0.23002(17) 0.2855(2) 0.48121(15)
H7 H 0.21910 0.27410 0.41220
C8 C 0.19013(18) 0.4223(2) 0.50920(15)
C9 C 0.2030(2) 0.4484(3) 0.61598(17)
C10 C 0.13023(19) 0.5390(2) 0.43101(16)
C11 C 0.0562(2) 0.6066(3) 0.25311(18)
H8 H 0.09750 0.70710 0.26660
H9 H -0.03080 0.62010 0.24670
C12 C 0.0604(3) 0.5390(3) 0.15686(19)
H10 H 0.14680 0.52300 0.16500
H11 H 0.02070 0.60890 0.10040
H12 H 0.01650 0.44150 0.14300
#END
