
#######################################################################
#
#                 Cambridge Crystallographic Data Centre
#                                CCDC
#
#######################################################################
#
# If this CIF has been generated from an entry in the Cambridge
# Structural Database, then it will include bibliographic, chemical,
# crystal, experimental, refinement or atomic coordinate data resulting
# from the CCDC's data processing and validation procedures.
#
#######################################################################

data_CSD_CIF_GOXKAF
_audit_creation_date 1999-09-20
_audit_creation_method CSD-ConQuest-V1
_database_code_CSD GOXKAF
_database_code_depnum_ccdc_archive 'CCDC 130850'
_chemical_formula_sum 'C15 H13 N3 O5'
_chemical_formula_moiety
;
C15 H13 N3 O5
;
_journal_coden_Cambridge 444
_journal_volume 68
_journal_year 1998
_journal_page_first 1972
_journal_name_full 'Zh.Obshch.Khim.(Russ.)(Russ.J.Gen.Chem.) '
loop_
_publ_author_name
"B.I.Buzykin"
"A.T.Gubaidullin"
"I.A.Litvinov"
"N.G.Gazetdinova"
"L.P.Sysoeva"
_chemical_name_systematic
;
1-(2-Hydroxybenzoyl)-1-(4-nitrophenyl)-2-acetylhydrazine
;
_chemical_melting_point 462.15
_cell_volume   2936.092
_exptl_crystal_colour 'colorless'
_exptl_crystal_density_diffrn 1.426
_exptl_special_details
;
Melting point range 462.15-464.15K

;
_exptl_crystal_description 'prism'
_exptl_crystal_preparation 'methanol'
_diffrn_ambient_temperature ?
_diffrn_special_details
;
The study was carried out at room temperature,in the range 283-303K

;
#These two values have been output from a single CSD field.
_refine_ls_R_factor_gt 0.048
_refine_ls_wR_factor_gt 0.048
_symmetry_cell_setting orthorhombic
_symmetry_space_group_name_H-M 'P b c a'
_symmetry_Int_Tables_number 61
loop_
_symmetry_equiv_pos_site_id
_symmetry_equiv_pos_as_xyz
1 x,y,z
2 1/2-x,-y,1/2+z
3 1/2+x,1/2-y,-z
4 -x,1/2+y,1/2-z
5 -x,-y,-z
6 -1/2+x,y,-1/2-z
7 -1/2-x,-1/2+y,z
8 x,-1/2-y,-1/2+z
_cell_length_a 12.898(5)
_cell_length_b 10.618(2)
_cell_length_c 21.439(9)
_cell_angle_alpha 90
_cell_angle_beta 90
_cell_angle_gamma 90
_cell_formula_units_Z 8
loop_
_atom_type_symbol
_atom_type_radius_bond
C 0.68
H 0.23
N 0.68
O 0.68
loop_
_atom_site_label
_atom_site_type_symbol
_atom_site_fract_x
_atom_site_fract_y
_atom_site_fract_z
O1 O 0.6475(2) 0.3595(2) 0.2858(1)
O2 O 0.9495(2) 0.2910(2) 0.3227(1)
O3 O 0.6430(2) 0.0127(2) 0.30517(9)
O4 O 0.8616(2) 0.4801(2) 0.0035(1)
O5 O 0.9210(2) 0.2935(3) -0.0160(1)
N1 N 0.7758(2) 0.2206(2) 0.2628(1)
N2 N 0.8447(2) 0.1347(2) 0.2899(1)
N3 N 0.8817(2) 0.3715(3) 0.0180(1)
C1 C 0.6976(2) 0.2671(3) 0.3006(1)
C2 C 0.9310(2) 0.1786(3) 0.3185(1)
C3 C 0.7990(2) 0.2603(3) 0.2009(1)
C4 C 0.8756(2) 0.1973(3) 0.1682(1)
C5 C 0.9004(2) 0.2318(3) 0.1080(1)
C6 C 0.8514(2) 0.3314(3) 0.0815(1)
C7 C 0.7774(3) 0.3968(3) 0.1130(2)
C8 C 0.7482(3) 0.3604(3) 0.1723(1)
C9 C 0.6770(2) 0.2002(3) 0.3600(1)
C10 C 0.6761(2) 0.2676(3) 0.4153(1)
C11 C 0.6489(2) 0.2116(3) 0.4708(1)
C12 C 0.6201(2) 0.0861(3) 0.4708(1)
C13 C 0.6179(2) 0.0173(3) 0.4166(1)
C14 C 0.6457(2) 0.0736(3) 0.3605(1)
C15 C 1.0021(3) 0.0806(3) 0.3439(2)
H1 H 0.837(3) 0.042(3) 0.288(2)
H2 H 0.920(3) 0.133(3) 0.186(1)
H3 H 0.953(2) 0.194(3) 0.083(1)
H4 H 0.739(2) 0.460(2) 0.095(1)
H5 H 0.680(3) 0.412(4) 0.197(2)
H6 H 0.689(2) 0.344(2) 0.415(1)
H7 H 0.647(2) 0.264(3) 0.507(1)
H8 H 0.599(2) 0.041(3) 0.508(1)
H9 H 0.596(2) -0.070(2) 0.412(1)
H10 H 0.608(3) -0.059(3) 0.309(1)
H11 H 1.052(3) 0.117(3) 0.368(2)
H12 H 0.979(4) 0.030(4) 0.367(3)
H13 H 1.022(4) 0.030(4) 0.314(2)
#END
