
#######################################################################
#
#                 Cambridge Crystallographic Data Centre
#                                CCDC
#
#######################################################################
#
# If this CIF has been generated from an entry in the Cambridge
# Structural Database, then it will include bibliographic, chemical,
# crystal, experimental, refinement or atomic coordinate data resulting
# from the CCDC's data processing and validation procedures.
#
#######################################################################

data_CSD_CIF_GOZFOS
_audit_creation_date 2014-12-08
_audit_creation_method CSD-ConQuest-V1
_database_code_CSD GOZFOS
_database_code_depnum_ccdc_archive 'CCDC 980240'
_chemical_formula_sum 'C15 H11 N3 O5'
_chemical_formula_moiety
;
C15 H11 N3 O5
;
_journal_coden_Cambridge 574
_journal_volume 114
_journal_year 2015
_journal_page_first 259
_journal_name_full 'Dyes Pigm. '
loop_
_publ_author_name
"Shi-Chen Li"
"Wei-Fang Jhang"
"Teau-Jiuan Liou"
"Ding-Yah Yang"
_chemical_name_systematic
;
N-(2-Carbamoylphenyl)-6-nitroso-1,3-benzodioxole-5-carboxamide
;
_cell_volume   1370.787
_exptl_crystal_colour 'green'
_exptl_crystal_density_diffrn 1.518
_exptl_crystal_description 'parallelepiped'
_diffrn_ambient_temperature 297
#These two values have been output from a single CSD field.
_refine_ls_R_factor_gt 0.0578
_refine_ls_wR_factor_gt 0.0578
_symmetry_cell_setting monoclinic
_symmetry_space_group_name_H-M 'P 21/n'
_symmetry_Int_Tables_number 14
loop_
_symmetry_equiv_pos_site_id
_symmetry_equiv_pos_as_xyz
1 x,y,z
2 1/2-x,1/2+y,1/2-z
3 -x,-y,-z
4 -1/2+x,-1/2-y,-1/2+z
_cell_length_a 7.7275(6)
_cell_length_b 16.0529(8)
_cell_length_c 11.1586(6)
_cell_angle_alpha 90
_cell_angle_beta 97.986(6)
_cell_angle_gamma 90
_cell_formula_units_Z 4
loop_
_atom_type_symbol
_atom_type_radius_bond
C 0.68
H 0.23
N 0.68
O 0.68
loop_
_atom_site_label
_atom_site_type_symbol
_atom_site_fract_x
_atom_site_fract_y
_atom_site_fract_z
O1 O 0.9957(3) 0.10939(9) 0.95208(15)
O2 O 0.6721(3) 0.36774(11) 0.83759(15)
O3 O 0.9685(3) 0.52890(11) 1.21031(17)
O4 O 0.9868(3) 0.44021(13) 1.37340(16)
O5 O 0.7593(4) 0.16461(14) 1.2049(2)
N1 N 0.9715(4) -0.00225(13) 0.8330(2)
H1 H 1.017(4) -0.0350(18) 0.894(3)
H2 H 0.941(4) -0.0262(18) 0.765(3)
N2 N 0.8208(3) 0.24553(12) 0.87294(18)
H3 H 0.877(3) 0.2130(16) 0.930(2)
N3 N 0.7536(4) 0.20839(15) 1.1147(2)
C1 C 0.9555(3) 0.07921(13) 0.8503(2)
C2 C 0.8876(3) 0.13140(13) 0.74332(19)
C3 C 0.8910(3) 0.10058(14) 0.6267(2)
H4 H 0.93850 0.04810 0.61740
C4 C 0.8263(4) 0.14522(16) 0.5251(2)
H5 H 0.83000 0.12350 0.44830
C5 C 0.7559(3) 0.22269(16) 0.5396(2)
H6 H 0.70970 0.25300 0.47160
C6 C 0.7524(3) 0.25609(15) 0.6523(2)
H7 H 0.70520 0.30880 0.65960
C7 C 0.8188(3) 0.21209(13) 0.75609(19)
C8 C 0.7573(3) 0.31915(14) 0.9071(2)
C9 C 0.8085(3) 0.34379(14) 1.0373(2)
C10 C 0.8545(4) 0.42692(14) 1.0565(2)
H8 H 0.84670 0.46430 0.99230
C11 C 0.9116(4) 0.45217(15) 1.1724(2)
C12 C 1.0066(6) 0.52480(19) 1.3399(3)
H9 H 1.12510 0.54350 1.36650
H10 H 0.92670 0.56000 1.37680
C13 C 0.9205(3) 0.39887(17) 1.2700(2)
C14 C 0.8724(3) 0.31901(17) 1.2564(2)
H11 H 0.87710 0.28330 1.32250
C15 C 0.8143(3) 0.29113(15) 1.1376(2)
#END
