
#######################################################################
#
#                 Cambridge Crystallographic Data Centre
#                                CCDC
#
#######################################################################
#
# If this CIF has been generated from an entry in the Cambridge
# Structural Database, then it will include bibliographic, chemical,
# crystal, experimental, refinement or atomic coordinate data resulting
# from the CCDC's data processing and validation procedures.
#
#######################################################################

data_CSD_CIF_GOZFIM
_audit_creation_date 2014-12-08
_audit_creation_method CSD-ConQuest-V1
_database_code_CSD GOZFIM
_database_code_depnum_ccdc_archive 'CCDC 980239'
_chemical_formula_sum 'C15 H15 N3 O2'
_chemical_formula_moiety
;
C15 H15 N3 O2
;
_journal_coden_Cambridge 574
_journal_volume 114
_journal_year 2015
_journal_page_first 259
_journal_name_full 'Dyes Pigm. '
loop_
_publ_author_name
"Shi-Chen Li"
"Wei-Fang Jhang"
"Teau-Jiuan Liou"
"Ding-Yah Yang"
_chemical_name_systematic
;
3-methyl-2-(2-nitrophenyl)-1,2,3,4-tetrahydroquinazoline
;
_cell_volume   2623.541
_exptl_crystal_colour 'yellow'
_exptl_crystal_density_diffrn 1.364
_exptl_crystal_description 'parallelepiped'
_diffrn_ambient_temperature 296
#These two values have been output from a single CSD field.
_refine_ls_R_factor_gt 0.0454
_refine_ls_wR_factor_gt 0.0454
_symmetry_cell_setting orthorhombic
_symmetry_space_group_name_H-M 'P b c a'
_symmetry_Int_Tables_number 61
loop_
_symmetry_equiv_pos_site_id
_symmetry_equiv_pos_as_xyz
1 x,y,z
2 1/2+x,1/2-y,-z
3 -x,1/2+y,1/2-z
4 1/2-x,-y,1/2+z
5 -x,-y,-z
6 -1/2-x,-1/2+y,z
7 x,-1/2-y,-1/2+z
8 -1/2+x,y,-1/2-z
_cell_length_a 7.8777(4)
_cell_length_b 13.1622(7)
_cell_length_c 25.3023(13)
_cell_angle_alpha 90
_cell_angle_beta 90
_cell_angle_gamma 90
_cell_formula_units_Z 8
loop_
_atom_type_symbol
_atom_type_radius_bond
C 0.68
H 0.23
N 0.68
O 0.68
loop_
_atom_site_label
_atom_site_type_symbol
_atom_site_fract_x
_atom_site_fract_y
_atom_site_fract_z
O1 O -0.8500(2) -1.03674(13) -0.58622(7)
O2 O -1.01176(19) -0.92038(14) -0.55480(8)
N1 N -0.3656(2) -0.92205(14) -0.63068(7)
H1 H -0.299(3) -0.9658(19) -0.6253(9)
N2 N -0.65828(19) -0.87895(13) -0.64651(6)
N3 N -0.8727(2) -0.95988(13) -0.56043(7)
C1 C -0.3112(2) -0.83255(14) -0.65319(6)
C2 C -0.1420(2) -0.81935(18) -0.66812(7)
H2 H -0.06370 -0.87100 -0.66230
C3 C -0.0912(3) -0.73016(19) -0.69138(8)
H3 H 0.02160 -0.72240 -0.70140
C4 C -0.2036(3) -0.65213(18) -0.70015(8)
H4 H -0.16750 -0.59160 -0.71540
C5 C -0.3715(3) -0.66541(16) -0.68583(8)
H5 H -0.44860 -0.61330 -0.69200
C6 C -0.4274(2) -0.75425(14) -0.66252(7)
C7 C -0.6103(2) -0.77129(15) -0.64737(8)
H6 H -0.63000 -0.74240 -0.61260
H7 H -0.68270 -0.73570 -0.67230
C8 C -0.5399(2) -0.93612(14) -0.61363(7)
H8 H -0.56740 -1.00840 -0.61730
C9 C -0.5694(2) -0.90647(12) -0.55600(7)
C10 C -0.4416(3) -0.86538(14) -0.52507(7)
H9 H -0.33310 -0.85870 -0.53920
C11 C -0.4716(3) -0.83394(15) -0.47362(8)
H10 H -0.38310 -0.80730 -0.45360
C12 C -0.6309(3) -0.84181(15) -0.45193(8)
H11 H -0.65050 -0.82010 -0.41750
C13 C -0.7610(3) -0.88187(14) -0.48137(7)
H12 H -0.86950 -0.88720 -0.46720
C14 C -0.7288(2) -0.91426(13) -0.53246(7)
C15 C -0.6715(3) -0.9230(2) -0.69955(8)
H13 H -0.74970 -0.88380 -0.72030
H14 H -0.71150 -0.99180 -0.69690
H15 H -0.56190 -0.92240 -0.71610
#END
