
#######################################################################
#
#                 Cambridge Crystallographic Data Centre
#                                CCDC
#
#######################################################################
#
# If this CIF has been generated from an entry in the Cambridge
# Structural Database, then it will include bibliographic, chemical,
# crystal, experimental, refinement or atomic coordinate data resulting
# from the CCDC's data processing and validation procedures.
#
#######################################################################

data_CSD_CIF_GOZFUY
_audit_creation_date 2014-12-08
_audit_creation_method CSD-ConQuest-V1
_database_code_CSD GOZFUY
_database_code_depnum_ccdc_archive 'CCDC 980241'
_chemical_formula_sum 'C16 H11 N3 O4'
_chemical_formula_moiety
;
C16 H11 N3 O4
;
_journal_coden_Cambridge 574
_journal_volume 114
_journal_year 2015
_journal_page_first 259
_journal_name_full 'Dyes Pigm. '
loop_
_publ_author_name
"Shi-Chen Li"
"Wei-Fang Jhang"
"Teau-Jiuan Liou"
"Ding-Yah Yang"
_chemical_name_systematic
;
3-Methyl-2-(6-nitroso-1,3-benzodioxol-5-yl)quinazolin-4(3H)-one
;
_cell_volume   2711.781
_exptl_crystal_colour 'green'
_exptl_crystal_density_diffrn 1.515
_exptl_crystal_description 'parallelepiped'
_diffrn_ambient_temperature 301
#These two values have been output from a single CSD field.
_refine_ls_R_factor_gt 0.0747
_refine_ls_wR_factor_gt 0.0747
_symmetry_cell_setting monoclinic
_symmetry_space_group_name_H-M 'C 2/c'
_symmetry_Int_Tables_number 15
loop_
_symmetry_equiv_pos_site_id
_symmetry_equiv_pos_as_xyz
1 x,y,z
2 -x,y,1/2-z
3 1/2+x,1/2+y,z
4 1/2-x,1/2+y,1/2-z
5 -x,-y,-z
6 x,-y,-1/2+z
7 -1/2-x,-1/2-y,-z
8 -1/2+x,-1/2-y,-1/2+z
_cell_length_a 28.622(3)
_cell_length_b 4.4895(5)
_cell_length_c 21.850(2)
_cell_angle_alpha 90
_cell_angle_beta 105.019(12)
_cell_angle_gamma 90
_cell_formula_units_Z 8
loop_
_atom_type_symbol
_atom_type_radius_bond
C 0.68
H 0.23
N 0.68
O 0.68
loop_
_atom_site_label
_atom_site_type_symbol
_atom_site_fract_x
_atom_site_fract_y
_atom_site_fract_z
O1 O 0.00301(11) 0.1571(9) 0.16434(17)
O2 O 0.05074(11) 0.8486(8) 0.00647(13)
O3 O 0.12571(11) 1.0320(8) 0.05893(13)
O4 O 0.12705(11) 0.4924(8) 0.41309(13)
N1 N 0.04206(11) 0.2633(8) 0.19277(16)
N2 N 0.17161(10) 0.3175(7) 0.25522(13)
N3 N 0.1180(1) 0.5410(7) 0.30730(13)
C1 C 0.06140(12) 0.4753(9) 0.15818(17)
C2 C 0.03889(13) 0.5562(10) 0.09539(17)
H1 H 0.00850 0.48390 0.07450
C3 C 0.06346(13) 0.7437(10) 0.06682(16)
C4 C 0.09016(17) 1.0234(11) -0.00125(19)
H2 H 0.07930 1.22340 -0.01460
H3 H 0.10390 0.93570 -0.03320
C5 C 0.10886(13) 0.8510(9) 0.09795(17)
C6 C 0.13129(13) 0.7782(9) 0.15921(16)
H4 H 0.16160 0.85470 0.17940
C7 C 0.10695(12) 0.5841(8) 0.19037(16)
C8 C 0.13327(12) 0.4748(8) 0.25437(16)
C9 C 0.19761(12) 0.2026(8) 0.31312(16)
C10 C 0.23891(13) 0.0322(11) 0.3145(2)
H5 H 0.24860 0.00060 0.27750
C11 C 0.26490(15) -0.0873(10) 0.3705(2)
H6 H 0.29210 -0.20170 0.37140
C12 C 0.25143(16) -0.0409(12) 0.4254(2)
H7 H 0.26980 -0.12240 0.46310
C13 C 0.21097(15) 0.1253(11) 0.42530(19)
H8 H 0.20190 0.15490 0.46270
C14 C 0.18377(12) 0.2488(9) 0.36870(16)
C15 C 0.14154(13) 0.4340(9) 0.36698(17)
C16 C 0.07586(14) 0.7334(10) 0.30436(19)
H9 H 0.07010 0.85650 0.26720
H10 H 0.08200 0.85730 0.34140
H11 H 0.04790 0.61210 0.30250
#END
