
#######################################################################
#
#                 Cambridge Crystallographic Data Centre
#                                CCDC
#
#######################################################################
#
# If this CIF has been generated from an entry in the Cambridge
# Structural Database, then it will include bibliographic, chemical,
# crystal, experimental, refinement or atomic coordinate data resulting
# from the CCDC's data processing and validation procedures.
#
#######################################################################

data_CSD_CIF_GPHXAM
_audit_creation_date 1979-05-25
_audit_creation_method CSD-ConQuest-V1
_database_code_CSD GPHXAM
_database_code_depnum_ccdc_archive 'CCDC 1170361'
_chemical_formula_sum 'C6 H13 N1 O6'
_chemical_formula_moiety
;
C6 H13 N1 O6
;
_journal_coden_Cambridge 3
_journal_volume 32
_journal_year 1978
_journal_page_first 733
_journal_name_full 'Acta Chem.Scand. '
loop_
_publ_author_name
"A.Mostad"
_chemical_name_systematic
;
N-\b-D-Glucopyranosyl-hydroxylamine
;
_cell_volume    399.026
_exptl_crystal_colour 'colorless'
_exptl_crystal_density_diffrn 1.62
_diffrn_ambient_temperature ?
_diffrn_special_details
;
The study was carried out at room temperature,in the range 283-303K

;
#These two values have been output from a single CSD field.
_refine_ls_R_factor_gt 0.049
_refine_ls_wR_factor_gt 0.049
_symmetry_cell_setting monoclinic
_symmetry_space_group_name_H-M 'P 21'
_symmetry_Int_Tables_number 4
loop_
_symmetry_equiv_pos_site_id
_symmetry_equiv_pos_as_xyz
1 x,y,z
2 -x,1/2+y,-z
_cell_length_a 5.524(2)
_cell_length_b 13.877(3)
_cell_length_c 5.240(2)
_cell_angle_alpha 90
_cell_angle_beta 96.59(2)
_cell_angle_gamma 90
_cell_formula_units_Z 2
loop_
_atom_type_symbol
_atom_type_radius_bond
C 0.68
H 0.23
N 0.68
O 0.68
loop_
_atom_site_label
_atom_site_type_symbol
_atom_site_fract_x
_atom_site_fract_y
_atom_site_fract_z
O1 O 0.33090 0.26100 -0.30910
O2 O 0.87560 0.26530 0.32670
O3 O 1.19340 0.10300 0.37750
O4 O 0.95650 -0.07530 0.21810
O5 O 0.61600 0.10150 -0.18630
O6 O 0.36560 -0.06150 -0.36150
N1 N 0.57990 0.27020 -0.17810
C1 C 0.61900 0.18470 -0.02420
C2 C 0.87520 0.19410 0.12820
C3 C 0.94470 0.09950 0.26850
C4 C 0.91750 0.01490 0.08550
C5 C 0.65910 0.01320 -0.04680
C6 C 0.60990 -0.06430 -0.24790
H1 H 0.49000 0.18000 0.11000
H2 H 1.02000 0.21000 0.00000
H3 H 0.84000 0.09000 0.40000
H4 H 1.05000 0.02000 -0.04000
H5 H 0.57000 0.01000 0.11000
H6 H 0.73000 -0.06000 -0.39000
H7 H 0.65000 -0.13000 -0.17000
H8 H 0.68000 0.25000 -0.33000
H9 H 0.24000 0.31000 -0.28000
H10 H 0.81000 0.32000 0.25000
H11 H 1.21000 0.15000 0.49000
H12 H 1.09000 -0.07000 0.29000
H13 H 0.34000 -0.01000 -0.43000
#END
