
#######################################################################
#
#                 Cambridge Crystallographic Data Centre
#                                CCDC
#
#######################################################################
#
# If this CIF has been generated from an entry in the Cambridge
# Structural Database, then it will include bibliographic, chemical,
# crystal, experimental, refinement or atomic coordinate data resulting
# from the CCDC's data processing and validation procedures.
#
#######################################################################

data_CSD_CIF_GUBQEB
_audit_creation_date 2015-04-16
_audit_creation_method CSD-ConQuest-V1
_database_code_CSD GUBQEB
_database_code_depnum_ccdc_archive 'CCDC 1053377'
_chemical_formula_sum 'C10 H15 N1 O6'
_chemical_formula_moiety
;
C10 H15 N1 O6
;
_journal_coden_Cambridge 177
_journal_volume 13
_journal_year 2015
_journal_page_first 5363
_journal_name_full 'Org.Biomol.Chem. '
loop_
_publ_author_name
"Zhushuang Bai"
"Ling Ji"
"Zemei Ge"
"Xin Wang"
"Runtao Li"
_chemical_name_systematic
;
Ethyl 5,5-dimethyl-4-(nitromethyl)-2-oxotetrahydrofuran-3-carboxylate
;
_cell_volume    579.918
_exptl_crystal_colour 'colorless'
_exptl_crystal_density_diffrn 1.404
_exptl_special_details
;
The temperature is reported as 566 K; we have assumed that this should be 293 
K
;
_exptl_crystal_description 'Block'
_diffrn_ambient_temperature 293
#These two values have been output from a single CSD field.
_refine_ls_R_factor_gt 0.0394
_refine_ls_wR_factor_gt 0.0394
_symmetry_cell_setting monoclinic
_symmetry_space_group_name_H-M 'P 21'
_symmetry_Int_Tables_number 4
loop_
_symmetry_equiv_pos_site_id
_symmetry_equiv_pos_as_xyz
1 x,y,z
2 -x,1/2+y,-z
_cell_length_a 8.772(6)
_cell_length_b 7.482(4)
_cell_length_c 9.640(6)
_cell_angle_alpha 90
_cell_angle_beta 113.568(15)
_cell_angle_gamma 90
_cell_formula_units_Z 2
loop_
_atom_type_symbol
_atom_type_radius_bond
C 0.68
H 0.23
N 0.68
O 0.68
loop_
_atom_site_label
_atom_site_type_symbol
_atom_site_fract_x
_atom_site_fract_y
_atom_site_fract_z
O1 O -0.0051(2) -0.4482(3) -0.6885(2)
O2 O -0.2007(2) -0.7681(3) -0.6270(2)
N1 N -0.1798(3) -0.9279(3) -0.6391(2)
O3 O -0.2786(2) -1.0441(3) -0.6393(2)
O4 O 0.1577(3) -0.5673(3) -0.9360(2)
O5 O 0.2885(2) -0.7730(3) -0.7616(2)
O6 O -0.2278(2) -0.5385(3) -0.89206(19)
C1 C -0.0734(3) -0.5549(4) -0.7879(3)
C2 C 0.2362(3) -1.0865(4) -0.7512(3)
H1 H 0.33720 -1.10920 -0.76450
H2 H 0.14460 -1.08220 -0.84840
H3 H 0.21790 -1.18020 -0.69160
C3 C 0.2500(3) -0.9093(4) -0.6711(3)
C4 C -0.3201(3) -0.3815(4) -0.8782(3)
H4 H -0.28240 -0.27560 -0.91330
H5 H -0.30310 -0.36350 -0.77340
C5 C 0.0839(3) -0.8408(4) -0.6664(3)
H6 H 0.11100 -0.76350 -0.57760
C6 C 0.0071(3) -0.7248(4) -0.8094(3)
H7 H -0.07290 -0.79510 -0.89240
C7 C -0.4989(4) -0.4147(5) -0.9727(5)
H8 H -0.53640 -0.51540 -0.93320
H9 H -0.51320 -0.43890 -1.07490
H10 H -0.56250 -0.31100 -0.97090
C8 C 0.1554(3) -0.6761(4) -0.8453(3)
C9 C 0.3929(3) -0.9093(4) -0.5158(3)
H11 H 0.40100 -0.79380 -0.47000
H12 H 0.49490 -0.93590 -0.52620
H13 H 0.37290 -0.99820 -0.45320
C10 C -0.0259(3) -0.9911(3) -0.6553(3)
H14 H -0.05780 -1.06460 -0.74540
H15 H 0.03760 -1.06530 -0.56900
#END
