
#######################################################################
#
#                 Cambridge Crystallographic Data Centre
#                                CCDC
#
#######################################################################
#
# If this CIF has been generated from an entry in the Cambridge
# Structural Database, then it will include bibliographic, chemical,
# crystal, experimental, refinement or atomic coordinate data resulting
# from the CCDC's data processing and validation procedures.
#
#######################################################################

data_CSD_CIF_GUCRED
_audit_creation_date 2015-04-17
_audit_creation_method CSD-ConQuest-V1
_database_code_CSD GUCRED
_database_code_depnum_ccdc_archive 'CCDC 1026375'
_chemical_formula_sum 'C19 H17 N3 O2'
_chemical_formula_moiety
;
C19 H17 N3 O2
;
_journal_coden_Cambridge 423
_journal_volume 39
_journal_year 2014
_journal_page_first 98
_journal_name_full 'J.Chem.Res. '
loop_
_publ_author_name
"M.J.Plater"
"W.T.A.Harrison"
_chemical_name_systematic
;
N^1^-Benzyl-4-nitro-N^3^-phenylbenzene-1,3-diamine
;
_cell_volume   1595.141
_exptl_crystal_colour 'orange'
_exptl_crystal_density_diffrn 1.33
_exptl_crystal_description 'block'
_exptl_crystal_preparation 'ether/light petroleum ether'
_diffrn_ambient_temperature 100
#These two values have been output from a single CSD field.
_refine_ls_R_factor_gt 0.0427
_refine_ls_wR_factor_gt 0.0427
_symmetry_cell_setting monoclinic
_symmetry_space_group_name_H-M 'P 21/c'
_symmetry_Int_Tables_number 14
loop_
_symmetry_equiv_pos_site_id
_symmetry_equiv_pos_as_xyz
1 x,y,z
2 -x,1/2+y,1/2-z
3 -x,-y,-z
4 x,-1/2-y,-1/2+z
_cell_length_a 7.5803(5)
_cell_length_b 30.566(2)
_cell_length_c 6.8976(5)
_cell_angle_alpha 90
_cell_angle_beta 93.528(3)
_cell_angle_gamma 90
_cell_formula_units_Z 4
loop_
_atom_type_symbol
_atom_type_radius_bond
C 0.68
H 0.23
N 0.68
O 0.68
loop_
_atom_site_label
_atom_site_type_symbol
_atom_site_fract_x
_atom_site_fract_y
_atom_site_fract_z
C1 C 0.31522(18) 0.24204(5) 0.6307(2)
C2 C 0.29644(18) 0.19560(5) 0.64236(19)
C3 C 0.13296(18) 0.17773(5) 0.5803(2)
H1 H 0.11570 0.14710 0.59120
C4 C -0.00589(19) 0.20364(5) 0.5026(2)
C5 C 0.01719(19) 0.24977(5) 0.4913(2)
H2 H -0.07630 0.26770 0.43910
C6 C 0.17284(19) 0.26791(5) 0.5553(2)
H3 H 0.18660 0.29880 0.54930
C7 C 0.44470(18) 0.12428(5) 0.7314(2)
C8 C 0.5456(2) 0.10806(5) 0.8914(2)
H4 H 0.59340 0.12760 0.98780
C9 C 0.5764(2) 0.06370(5) 0.9106(2)
H5 H 0.64750 0.05300 1.01860
C10 C 0.5044(2) 0.03481(5) 0.7736(3)
H6 H 0.52400 0.00430 0.78820
C11 C 0.4036(2) 0.05072(5) 0.6151(2)
H7 H 0.35290 0.03080 0.52150
C12 C 0.37540(19) 0.09527(5) 0.5908(2)
H8 H 0.30930 0.10590 0.47920
C13 C -0.20807(19) 0.14043(5) 0.4516(2)
H9 H -0.33560 0.13720 0.41430
H10 H -0.18960 0.13150 0.58930
C14 C -0.10641(19) 0.10934(5) 0.3292(2)
C15 C -0.0240(2) 0.12337(5) 0.1668(2)
H11 H -0.03170 0.15320 0.12930
C16 C 0.0697(2) 0.09425(6) 0.0586(3)
H12 H 0.12720 0.10430 -0.05150
C17 C 0.0796(2) 0.05067(6) 0.1102(3)
H13 H 0.14460 0.03080 0.03640
C18 C -0.0049(3) 0.03617(6) 0.2689(3)
H14 H -0.00020 0.00610 0.30350
C19 C -0.0968(2) 0.06538(5) 0.3784(2)
H15 H -0.15400 0.05520 0.48850
N1 N 0.43265(16) 0.17008(4) 0.71561(18)
H16 H 0.517(2) 0.1862(5) 0.775(2)
N2 N -0.16159(16) 0.18619(4) 0.43632(19)
H17 H -0.244(2) 0.2046(5) 0.387(2)
N3 N 0.46795(16) 0.26446(4) 0.69953(17)
O1 O 0.59743(14) 0.24370(3) 0.77930(16)
O2 O 0.47618(15) 0.30496(3) 0.68587(16)
#END
