
#######################################################################
#
#                 Cambridge Crystallographic Data Centre
#                                CCDC
#
#######################################################################
#
# If this CIF has been generated from an entry in the Cambridge
# Structural Database, then it will include bibliographic, chemical,
# crystal, experimental, refinement or atomic coordinate data resulting
# from the CCDC's data processing and validation procedures.
#
#######################################################################

data_CSD_CIF_GUFBEO
_audit_creation_date 2000-03-09
_audit_creation_method CSD-ConQuest-V1
_database_code_CSD GUFBEO
_database_code_depnum_ccdc_archive 'CCDC 117005'
_chemical_formula_sum 'C21 H19 N3 O4'
_chemical_formula_moiety
;
C21 H19 N3 O4
;
_journal_coden_Cambridge 35
_journal_volume 64
_journal_year 1999
_journal_page_first 4697
_journal_name_full 'J.Org.Chem. '
loop_
_publ_author_name
"S.Mahboobi"
"E.Eibler"
"M.Koller"
"K.C.Sunil Kumar"
"A.Popp"
"D.Schollmeyer"
_chemical_name_systematic
;
erythro-Methyl 2,3-bis(3-1H-indolyl)-4-nitrobutanoate
;
_chemical_melting_point 465.15
_cell_volume   1822.255
_exptl_crystal_colour 'colorless'
_exptl_crystal_density_diffrn 1.376
_exptl_special_details
;
Melting point range 465.15-467.15K

;
_exptl_crystal_description 'needle'
_diffrn_ambient_temperature ?
_diffrn_special_details
;
The study was carried out at room temperature,in the range 283-303K

;
#These two values have been output from a single CSD field.
_refine_ls_R_factor_gt 0.1319
_refine_ls_wR_factor_gt 0.1319
_symmetry_cell_setting orthorhombic
_symmetry_space_group_name_H-M 'P n a 21'
_symmetry_Int_Tables_number 33
loop_
_symmetry_equiv_pos_site_id
_symmetry_equiv_pos_as_xyz
1 x,y,z
2 -x,-y,1/2+z
3 1/2-x,1/2+y,1/2+z
4 1/2+x,1/2-y,z
_cell_length_a 16.524(3)
_cell_length_b 7.823(1)
_cell_length_c 14.0968(8)
_cell_angle_alpha 90
_cell_angle_beta 90
_cell_angle_gamma 90
_cell_formula_units_Z 4
loop_
_atom_type_symbol
_atom_type_radius_bond
C 0.68
H 0.23
N 0.68
O 0.68
loop_
_atom_site_label
_atom_site_type_symbol
_atom_site_fract_x
_atom_site_fract_y
_atom_site_fract_z
N1 N 0.7499(4) 0.0950(8) 0.6467(5)
H1 H 0.75060 0.01070 0.60760
C1 C 0.6846(5) 0.1421(10) 0.7012(7)
H2 H 0.63510 0.08540 0.70290
C2 C 0.7032(6) 0.2846(10) 0.7523(5)
C3 C 0.7892(5) 0.3277(8) 0.7326(5)
C4 C 0.8429(6) 0.4452(11) 0.7627(6)
H3 H 0.82740 0.52410 0.80860
C5 C 0.9168(7) 0.4502(12) 0.7283(6)
H4 H 0.95250 0.53360 0.74970
C6 C 0.9440(5) 0.3275(12) 0.6572(6)
H5 H 0.99640 0.33270 0.63320
C7 C 0.8916(5) 0.2054(10) 0.6265(5)
H6 H 0.90720 0.12540 0.58130
C8 C 0.8147(4) 0.2034(8) 0.6644(4)
C9 C 0.6178(5) 0.5434(9) 0.7744(5)
H7 H 0.66940 0.60440 0.76950
C10 C 0.6405(7) 0.3776(15) 0.8127(7)
H8 H 0.59150 0.30910 0.80330
C11 C 0.5673(4) 0.6569(8) 0.8379(4)
C12 C 0.5893(4) 0.8142(8) 0.8688(5)
H9 H 0.63890 0.86600 0.85650
N2 N 0.5273(3) 0.8866(7) 0.9213(4)
H10 H 0.52930 0.98480 0.94860
C13 C 0.4629(4) 0.7788(8) 0.9230(4)
C14 C 0.3895(5) 0.7969(10) 0.9650(5)
H11 H 0.37750 0.89450 0.99990
C15 C 0.3318(5) 0.6653(11) 0.9548(6)
H12 H 0.28070 0.67580 0.98180
C16 C 0.3525(5) 0.5198(13) 0.9039(6)
H13 H 0.31390 0.43460 0.89600
C17 C 0.4294(5) 0.4965(11) 0.8641(6)
H14 H 0.44230 0.39530 0.83290
C18 C 0.4864(4) 0.6277(8) 0.8720(5)
C19 C 0.6590(6) 0.3501(10) 0.9097(5)
O1 O 0.7066(5) 0.4645(10) 0.9506(5)
O2 O 0.6384(4) 0.2142(10) 0.9529(5)
C20 C 0.6686(7) 0.1888(15) 1.0511(7)
H15 H 0.64890 0.08180 1.07520
H16 H 0.64970 0.28030 1.09070
H17 H 0.72670 0.18790 1.05080
C21 C 0.5873(8) 0.5402(13) 0.6753(7)
H18 H 0.62170 0.46420 0.63880
H19 H 0.53350 0.49060 0.67590
N3 N 0.5831(5) 0.7027(9) 0.6259(4)
O3 O 0.6379(12) 0.7962(14) 0.6182(10)
O4 O 0.5274(10) 0.760(3) 0.5927(10)
#END
