
#######################################################################
#
#                 Cambridge Crystallographic Data Centre
#                                CCDC
#
#######################################################################
#
# If this CIF has been generated from an entry in the Cambridge
# Structural Database, then it will include bibliographic, chemical,
# crystal, experimental, refinement or atomic coordinate data resulting
# from the CCDC's data processing and validation procedures.
#
#######################################################################

data_CSD_CIF_GUFPIG
_audit_creation_date 2000-03-09
_audit_creation_method CSD-ConQuest-V1
_database_code_CSD GUFPIG
_database_code_depnum_ccdc_archive 'CCDC 138578'
_chemical_formula_sum 'C17 H25 N2 O1'
_chemical_formula_moiety
;
C17 H25 N2 O1
;
_journal_coeditor_code "IUCr OA0021"
_journal_coden_Cambridge 622
_journal_volume 55
_journal_year 1999
_journal_page_first 1057
_journal_name_full 'Acta Crystallogr.,Sect.B:Struct.Sci. '
loop_
_publ_author_name
"F.Iwasaki"
"J.H.Yoshikawa"
"H.Yamamoto"
"K.Takada"
"E.Kan-nari"
"M.Yasui"
"T.Ishida"
"T.Nogami"
_chemical_name_systematic
;
4-(4-Methylbenzylideneamino)-2,2,6,6-tetramethylpiperidin-1-oxyl radical
;
_cell_volume   1573.550
_exptl_crystal_colour 'orange'
_exptl_crystal_density_diffrn 1.154
_exptl_crystal_description 'plate'
_exptl_crystal_preparation 'ethanol'
_diffrn_ambient_temperature 100
#These two values have been output from a single CSD field.
_refine_ls_R_factor_gt 0.0551
_refine_ls_wR_factor_gt 0.0551
_symmetry_cell_setting monoclinic
_symmetry_space_group_name_H-M 'P 21/c'
_symmetry_Int_Tables_number 14
loop_
_symmetry_equiv_pos_site_id
_symmetry_equiv_pos_as_xyz
1 x,y,z
2 -x,1/2+y,1/2-z
3 -x,-y,-z
4 x,-1/2-y,-1/2+z
_cell_length_a 12.4422(19)
_cell_length_b 11.495(3)
_cell_length_c 11.094(2)
_cell_angle_alpha 90
_cell_angle_beta 97.381(13)
_cell_angle_gamma 90
_cell_formula_units_Z 4
loop_
_atom_type_symbol
_atom_type_radius_bond
C 0.68
H 0.23
N 0.68
O 0.68
loop_
_atom_site_label
_atom_site_type_symbol
_atom_site_fract_x
_atom_site_fract_y
_atom_site_fract_z
O1 O 0.47708(11) 0.78360(12) 0.14217(12)
N1 N 0.42109(12) 0.71120(13) 0.19716(13)
N2 N 0.23560(13) 0.46947(14) 0.37086(14)
C1 C 0.48362(14) 0.61719(16) 0.26835(16)
C2 C 0.41180(15) 0.55299(16) 0.34805(16)
C3 C 0.30014(15) 0.52007(16) 0.28271(16)
C4 C 0.24364(15) 0.63096(16) 0.23265(16)
C5 C 0.30457(15) 0.69875(16) 0.14455(16)
C6 C 0.22959(15) 0.35961(17) 0.37574(16)
C7 C 0.16685(14) 0.29946(16) 0.46046(16)
C8 C 0.10796(16) 0.35985(18) 0.53973(18)
C9 C 0.04808(17) 0.30089(19) 0.61674(18)
C10 C 0.04456(14) 0.17910(18) 0.61830(17)
C11 C 0.10319(16) 0.11921(17) 0.53939(19)
C12 C 0.16343(16) 0.17822(18) 0.46109(19)
C13 C -0.01952(17) 0.1150(2) 0.7033(2)
C14 C 0.53044(17) 0.53498(19) 0.17904(19)
C15 C 0.57665(17) 0.6747(2) 0.35070(19)
C16 C 0.29865(17) 0.63899(19) 0.01955(17)
C17 C 0.25623(17) 0.82115(18) 0.12750(19)
H1 H 0.3066(18) 0.463(2) 0.215(2)
H2 H 0.267(2) 0.306(2) 0.321(2)
H3 H 0.110(2) 0.444(2) 0.537(2)
H4 H 0.003(2) 0.346(3) 0.670(3)
H5 H 0.100(2) 0.034(2) 0.540(2)
H6 H 0.207(2) 0.133(2) 0.405(3)
H7 H 0.473(2) 0.488(2) 0.128(2)
H8 H 0.578(2) 0.480(3) 0.226(3)
H9 H 0.573(2) 0.580(2) 0.125(3)
H10 H 0.5499(19) 0.732(2) 0.405(2)
H11 H 0.6158(19) 0.614(2) 0.400(2)
H12 H 0.628(2) 0.720(2) 0.302(3)
H13 H 0.4001(19) 0.601(2) 0.419(2)
H14 H 0.4475(18) 0.483(2) 0.379(2)
H15 H 0.1723(18) 0.6128(19) 0.1907(19)
H16 H 0.236(2) 0.683(2) 0.302(2)
H17 H 0.3154(17) 0.558(2) 0.0284(19)
H18 H 0.225(2) 0.645(2) -0.022(2)
H19 H 0.350(2) 0.680(2) -0.030(2)
H20 H 0.181(2) 0.812(2) 0.091(2)
H21 H 0.292(2) 0.868(2) 0.069(3)
H22 H 0.263(2) 0.859(2) 0.208(2)
H23 H -0.042(4) 0.165(4) 0.761(4)
H24 H -0.081(3) 0.080(4) 0.665(4)
H25 H 0.021(3) 0.058(3) 0.754(3)
#END
