
#######################################################################
#
#                 Cambridge Crystallographic Data Centre
#                                CCDC
#
#######################################################################
#
# If this CIF has been generated from an entry in the Cambridge
# Structural Database, then it will include bibliographic, chemical,
# crystal, experimental, refinement or atomic coordinate data resulting
# from the CCDC's data processing and validation procedures.
#
#######################################################################

data_CSD_CIF_GUFPIG01
_audit_creation_date 2000-03-09
_audit_creation_method CSD-ConQuest-V1
_database_code_CSD GUFPIG01
_database_code_depnum_ccdc_archive 'CCDC 138577'
_chemical_formula_sum 'C17 H25 N2 O1'
_chemical_formula_moiety
;
C17 H25 N2 O1
;
_journal_coeditor_code "IUCr OA0021"
_journal_coden_Cambridge 622
_journal_volume 55
_journal_year 1999
_journal_page_first 1057
_journal_name_full 'Acta Crystallogr.,Sect.B:Struct.Sci. '
loop_
_publ_author_name
"F.Iwasaki"
"J.H.Yoshikawa"
"H.Yamamoto"
"K.Takada"
"E.Kan-nari"
"M.Yasui"
"T.Ishida"
"T.Nogami"
_chemical_name_systematic
;
4-(4-Methylbenzylideneamino)-2,2,6,6-tetramethylpiperidin-1-oxyl radical
;
_cell_volume   1621.270
_exptl_crystal_colour 'orange'
_exptl_crystal_density_diffrn 1.12
_exptl_crystal_description 'plate'
_exptl_crystal_preparation 'ethanol'
_diffrn_ambient_temperature ?
_diffrn_special_details
;
The study was carried out at room temperature,in the range 283-303K

;
#These two values have been output from a single CSD field.
_refine_ls_R_factor_gt 0.0496
_refine_ls_wR_factor_gt 0.0496
_symmetry_cell_setting monoclinic
_symmetry_space_group_name_H-M 'P 21/c'
_symmetry_Int_Tables_number 14
loop_
_symmetry_equiv_pos_site_id
_symmetry_equiv_pos_as_xyz
1 x,y,z
2 -x,1/2+y,1/2-z
3 -x,-y,-z
4 x,-1/2-y,-1/2+z
_cell_length_a 12.490(3)
_cell_length_b 11.597(5)
_cell_length_c 11.280(6)
_cell_angle_alpha 90
_cell_angle_beta 97.12(3)
_cell_angle_gamma 90
_cell_formula_units_Z 4
loop_
_atom_type_symbol
_atom_type_radius_bond
C 0.68
H 0.23
N 0.68
O 0.68
loop_
_atom_site_label
_atom_site_type_symbol
_atom_site_fract_x
_atom_site_fract_y
_atom_site_fract_z
O1 O 0.47665(10) 0.78157(11) 0.14265(12)
N1 N 0.42132(10) 0.70948(11) 0.19654(12)
N2 N 0.23830(12) 0.47052(12) 0.37066(12)
C1 C 0.48471(12) 0.61885(14) 0.26858(14)
C2 C 0.41239(13) 0.55485(15) 0.34689(15)
C3 C 0.30318(13) 0.52061(13) 0.28352(15)
C4 C 0.24614(13) 0.62848(15) 0.23262(16)
C5 C 0.30651(13) 0.69569(14) 0.14480(14)
C6 C 0.23144(13) 0.36302(14) 0.37570(15)
C7 C 0.16801(12) 0.30377(13) 0.45921(14)
C8 C 0.10994(16) 0.36414(17) 0.53603(18)
C9 C 0.04934(17) 0.30621(18) 0.61150(19)
C10 C 0.04532(13) 0.18678(16) 0.61391(16)
C11 C 0.10336(15) 0.12749(16) 0.5377(2)
C12 C 0.16365(15) 0.18427(15) 0.46089(19)
C13 C -0.02015(19) 0.1237(3) 0.6978(2)
C14 C 0.5326(2) 0.5364(2) 0.1819(2)
C15 C 0.57458(18) 0.6783(3) 0.3488(2)
C16 C 0.3017(2) 0.6350(2) 0.02434(17)
C17 C 0.25774(18) 0.81659(18) 0.1280(2)
H1 H 0.3095(14) 0.4647(14) 0.2192(15)
H2 H 0.2627(17) 0.3144(19) 0.317(2)
H3 H 0.1111(18) 0.445(2) 0.534(2)
H4 H 0.010(2) 0.349(2) 0.664(2)
H5 H 0.1021(18) 0.045(2) 0.541(2)
H6 H 0.2028(18) 0.1411(19) 0.408(2)
H7 H 0.471(2) 0.486(3) 0.128(3)
H8 H 0.577(2) 0.487(2) 0.224(3)
H9 H 0.5712(19) 0.578(2) 0.128(2)
H10 H 0.544(2) 0.735(2) 0.403(2)
H11 H 0.617(2) 0.622(2) 0.398(3)
H12 H 0.622(2) 0.720(2) 0.301(2)
H13 H 0.3992(13) 0.6047(15) 0.4166(16)
H14 H 0.4529(16) 0.4872(18) 0.3789(19)
H15 H 0.1756(16) 0.6090(16) 0.1907(17)
H16 H 0.2365(14) 0.6795(15) 0.3034(16)
H17 H 0.3255(17) 0.554(2) 0.032(2)
H18 H 0.229(2) 0.642(2) -0.018(2)
H19 H 0.3492(18) 0.6748(18) -0.028(2)
H20 H 0.181(2) 0.807(2) 0.089(2)
H21 H 0.293(2) 0.859(2) 0.068(2)
H22 H 0.2626(19) 0.860(2) 0.207(2)
H23 H -0.012(3) 0.162(4) 0.774(4)
H24 H -0.087(3) 0.119(3) 0.671(3)
H25 H 0.019(3) 0.060(3) 0.737(3)
#END
