
#######################################################################
#
#                 Cambridge Crystallographic Data Centre
#                                CCDC
#
#######################################################################
#
# If this CIF has been generated from an entry in the Cambridge
# Structural Database, then it will include bibliographic, chemical,
# crystal, experimental, refinement or atomic coordinate data resulting
# from the CCDC's data processing and validation procedures.
#
#######################################################################

data_CSD_CIF_GUHCOC
_audit_creation_date 2010-04-08
_audit_creation_method CSD-ConQuest-V1
_database_code_CSD GUHCOC
_database_code_depnum_ccdc_archive 'CCDC 730376'
_chemical_formula_sum 'C20 H17 N5 O3'
_chemical_formula_moiety
;
C20 H17 N5 O3
;
_journal_coden_Cambridge 24
_journal_volume 50
_journal_year 2009
_journal_page_first 4523
_journal_name_full 'Tetrahedron Lett. '
loop_
_publ_author_name
"A.Iqbal"
"M.G.Moloney"
"H.L.Siddiqui"
"A.L.Thompson"
_chemical_name_systematic
;
1-(4-Methoxyphenyl)-2-((4-nitrophenyl)(2-phenylhydrazinylidene)methyl)diazene
;
_cell_volume   3628.360
_exptl_crystal_colour 'dark red'
_exptl_crystal_density_diffrn 1.374
_exptl_crystal_description 'needle'
_diffrn_ambient_temperature 150
#These two values have been output from a single CSD field.
_refine_ls_R_factor_gt 0.0676
_refine_ls_wR_factor_gt 0.0676
_symmetry_cell_setting orthorhombic
_symmetry_space_group_name_H-M 'P b c a'
_symmetry_Int_Tables_number 61
loop_
_symmetry_equiv_pos_site_id
_symmetry_equiv_pos_as_xyz
1 x,y,z
2 1/2-x,-y,1/2+z
3 -x,1/2+y,1/2-z
4 1/2+x,1/2-y,-z
5 -x,-y,-z
6 -1/2+x,y,-1/2-z
7 x,-1/2-y,-1/2+z
8 -1/2-x,-1/2+y,z
_cell_length_a 21.9240(7)
_cell_length_b 7.3605(2)
_cell_length_c 22.4845(5)
_cell_angle_alpha 90
_cell_angle_beta 90
_cell_angle_gamma 90
_cell_formula_units_Z 8
loop_
_atom_type_symbol
_atom_type_radius_bond
C 0.68
H 0.23
N 0.68
O 0.68
loop_
_atom_site_label
_atom_site_type_symbol
_atom_site_fract_x
_atom_site_fract_y
_atom_site_fract_z
O1 O 0.06494(8) 0.9840(3) 0.29909(7)
O2 O -0.24733(10) 0.3774(4) -0.06298(10)
O3 O -0.21871(10) 0.4001(4) -0.15426(10)
N1 N 0.06234(9) 0.8728(3) 0.05510(9)
N2 N 0.01455(9) 0.7923(3) 0.03563(8)
N3 N 0.05020(9) 0.8046(3) -0.06741(8)
N4 N 0.10065(8) 0.8945(3) -0.05400(9)
H1 H 0.10970 0.91770 -0.01660
N5 N -0.21004(10) 0.4200(4) -0.10069(11)
C1 C 0.11708(12) 1.0572(4) 0.32828(12)
H2 H 0.11100 1.05240 0.37140
H3 H 0.12290 1.18370 0.31590
H4 H 0.15320 0.98600 0.31760
C2 C 0.06797(11) 0.9638(3) 0.2388(1)
C3 C 0.01625(12) 0.8860(4) 0.21366(11)
H5 H -0.01710 0.85300 0.23840
C4 C 0.01290(11) 0.8568(4) 0.15406(11)
H6 H -0.02300 0.80560 0.13730
C5 C 0.06227(11) 0.9023(3) 0.11725(10)
C6 C 0.11387(11) 0.9807(4) 0.14230(11)
H7 H 0.14720 1.01350 0.11760
C7 C 0.11714(11) 1.0116(4) 0.20306(11)
H8 H 0.15260 1.06490 0.22000
C8 C 0.01137(10) 0.7594(3) -0.02494(10)
C9 C 0.13942(10) 0.9522(3) -0.09953(10)
C10 C 0.12850(11) 0.9074(3) -0.15878(10)
H9 H 0.09360 0.83780 -0.16920
C11 C 0.16878(11) 0.9649(4) -0.20235(11)
H10 H 0.16200 0.93160 -0.24260
C12 C 0.21874(12) 1.0703(4) -0.18777(12)
H11 H 0.24570 1.11130 -0.21800
C13 C 0.22939(11) 1.1159(4) -0.12870(12)
H12 H 0.26370 1.18840 -0.11860
C14 C 0.19028(11) 1.0565(3) -0.08448(11)
H13 H 0.19800 1.08650 -0.04410
C15 C -0.04489(10) 0.6657(3) -0.04442(10)
C16 C -0.09266(11) 0.6351(4) -0.00393(11)
H14 H -0.08810 0.67190 0.03630
C17 C -0.14604(12) 0.5524(4) -0.02181(12)
H15 H -0.17770 0.52910 0.00600
C18 C -0.15263(11) 0.5039(4) -0.08080(11)
C19 C -0.10671(11) 0.5321(4) -0.12188(11)
H16 H -0.11200 0.49730 -0.16220
C20 C -0.05293(11) 0.6117(4) -0.10319(11)
H17 H -0.02090 0.63000 -0.13100
#END
