
#######################################################################
#
#                 Cambridge Crystallographic Data Centre
#                                CCDC
#
#######################################################################
#
# If this CIF has been generated from an entry in the Cambridge
# Structural Database, then it will include bibliographic, chemical,
# crystal, experimental, refinement or atomic coordinate data resulting
# from the CCDC's data processing and validation procedures.
#
#######################################################################

data_CSD_CIF_GUHCIW
_audit_creation_date 2010-04-08
_audit_creation_method CSD-ConQuest-V1
_database_code_CSD GUHCIW
_database_code_depnum_ccdc_archive 'CCDC 730375'
_chemical_formula_sum 'C19 H15 N5 O2'
_chemical_formula_moiety
;
C19 H15 N5 O2
;
_journal_coden_Cambridge 24
_journal_volume 50
_journal_year 2009
_journal_page_first 4523
_journal_name_full 'Tetrahedron Lett. '
loop_
_publ_author_name
"A.Iqbal"
"M.G.Moloney"
"H.L.Siddiqui"
"A.L.Thompson"
_chemical_name_systematic
;
1-((4-Nitrophenyl)(2-phenylhydrazinylidene)methyl)-2-phenyldiazene
;
_cell_volume   1654.237
_exptl_crystal_colour 'dark red'
_exptl_crystal_density_diffrn 1.387
_exptl_crystal_description 'needle'
_diffrn_ambient_temperature 150
#These two values have been output from a single CSD field.
_refine_ls_R_factor_gt 0.0531
_refine_ls_wR_factor_gt 0.0531
_symmetry_cell_setting monoclinic
_symmetry_space_group_name_H-M 'P 21/c'
_symmetry_Int_Tables_number 14
loop_
_symmetry_equiv_pos_site_id
_symmetry_equiv_pos_as_xyz
1 x,y,z
2 -x,1/2+y,1/2-z
3 -x,-y,-z
4 x,-1/2-y,-1/2+z
_cell_length_a 11.0070(3)
_cell_length_b 8.0237(2)
_cell_length_c 18.9693(6)
_cell_angle_alpha 90
_cell_angle_beta 99.097(1)
_cell_angle_gamma 90
_cell_formula_units_Z 4
loop_
_atom_type_symbol
_atom_type_radius_bond
C 0.68
H 0.23
N 0.68
O 0.68
loop_
_atom_site_label
_atom_site_type_symbol
_atom_site_fract_x
_atom_site_fract_y
_atom_site_fract_z
C1 C 0.40391(18) 0.3986(3) 0.28138(11)
H1 H 0.45080 0.40860 0.32770
C2 C 0.30246(18) 0.2945(2) 0.26992(11)
H2 H 0.28080 0.23150 0.30850
C3 C 0.23240(17) 0.2810(2) 0.20293(10)
H3 H 0.16290 0.20930 0.19540
C4 C 0.26449(16) 0.3732(2) 0.14678(10)
C5 C 0.36737(17) 0.4758(2) 0.15737(11)
H4 H 0.39020 0.53700 0.11860
C6 C 0.43653(17) 0.4880(3) 0.22492(11)
H5 H 0.50680 0.55840 0.23250
C7 C 0.02362(16) 0.2748(2) 0.00467(10)
C8 C 0.15900(16) 0.5182(2) -0.11908(10)
C9 C 0.06849(17) 0.5306(2) -0.17897(10)
H6 H -0.00840 0.47600 -0.18010
C10 C 0.09186(19) 0.6237(3) -0.23692(11)
H7 H 0.03060 0.63340 -0.27800
C11 C 0.20434(19) 0.7028(3) -0.23509(11)
H8 H 0.21960 0.76710 -0.27480
C12 C 0.29363(18) 0.6886(3) -0.17612(10)
H9 H 0.37070 0.74230 -0.17530
C13 C 0.27194(17) 0.5967(2) -0.11799(10)
H10 H 0.33400 0.58710 -0.07730
C14 C -0.08901(16) 0.1730(2) 0.00161(10)
C15 C -0.11400(17) 0.0891(2) 0.0621(1)
H11 H -0.05990 0.10140 0.10610
C16 C -0.21676(16) -0.0121(2) 0.05888(10)
H12 H -0.23310 -0.06960 0.10020
C17 C -0.29476(16) -0.0281(2) -0.00502(10)
C18 C -0.27399(17) 0.0553(3) -0.06565(11)
H13 H -0.32920 0.04370 -0.10920
C19 C -0.17145(17) 0.1560(2) -0.06178(11)
H14 H -0.15680 0.21480 -0.10310
N1 N 0.19634(14) 0.3667(2) 0.07716(9)
H15 H 0.217(4) 0.421(5) 0.040(3)
N2 N 0.09452(13) 0.28251(19) 0.06986(8)
N3 N 0.04087(13) 0.34799(18) -0.05712(8)
N4 N 0.14194(15) 0.43351(19) -0.05643(9)
N5 N -0.40014(14) -0.1409(2) -0.00914(10)
O1 O -0.40989(13) -0.2281(2) 0.04291(9)
O2 O -0.47432(13) -0.1437(2) -0.06470(9)
H16? H 0.204(4) 0.443(5) -0.020(3)
#END
