
#######################################################################
#
#                 Cambridge Crystallographic Data Centre
#                                CCDC
#
#######################################################################
#
# If this CIF has been generated from an entry in the Cambridge
# Structural Database, then it will include bibliographic, chemical,
# crystal, experimental, refinement or atomic coordinate data resulting
# from the CCDC's data processing and validation procedures.
#
#######################################################################

data_CSD_CIF_GUHDOC
_audit_creation_date 2000-03-09
_audit_creation_method CSD-ConQuest-V1
_database_code_CSD GUHDOC
_database_code_depnum_ccdc_archive 'CCDC 140964'
_chemical_formula_sum 'C23 H19 N3 O5'
_chemical_formula_moiety
;
C23 H19 N3 O5
;
_journal_coeditor_code "IUCr FR1219"
_journal_coden_Cambridge 591
_journal_volume 56
_journal_year 2000
_journal_page_first 95
_journal_name_full 'Acta Crystallogr.,Sect.C:Cryst.Struct.Commun. '
loop_
_publ_author_name
"S.Isik"
"S.Ozturk"
"H.-K.Fun"
"E.Agar"
"S.Sasmaz"
_chemical_name_systematic
;
5'-Allyl-2'-benzoyloxy-3'-methoxy-4-nitrobenzene
;
_chemical_name_common
;
4-Allyl-2-methoxy-6-((4-nitrophenyl)diazenyl)phenyl benzoate
;
_chemical_melting_point 428
_cell_volume   2155.982
_exptl_crystal_colour 'light yellow'
_exptl_crystal_density_diffrn 1.286
_exptl_special_details
;
Melting point range 428-434K

;
_exptl_crystal_description 'slab'
_exptl_crystal_preparation 'ethyl acetate'
_diffrn_ambient_temperature ?
_diffrn_special_details
;
The study was carried out at room temperature,in the range 283-303K

;
#These two values have been output from a single CSD field.
_refine_ls_R_factor_gt 0.0655
_refine_ls_wR_factor_gt 0.0655
_symmetry_cell_setting monoclinic
_symmetry_space_group_name_H-M 'P 21/n'
_symmetry_Int_Tables_number 14
loop_
_symmetry_equiv_pos_site_id
_symmetry_equiv_pos_as_xyz
1 x,y,z
2 1/2+x,1/2-y,1/2+z
3 -x,-y,-z
4 -1/2-x,-1/2+y,-1/2-z
_cell_length_a 7.7564(1)
_cell_length_b 22.3441(5)
_cell_length_c 12.5552(2)
_cell_angle_alpha 90
_cell_angle_beta 97.766(1)
_cell_angle_gamma 90
_cell_formula_units_Z 4
loop_
_atom_type_symbol
_atom_type_radius_bond
C 0.68
H 0.23
N 0.68
O 0.68
loop_
_atom_site_label
_atom_site_type_symbol
_atom_site_fract_x
_atom_site_fract_y
_atom_site_fract_z
O1 O 0.9882(4) 0.15459(13) -0.0585(3)
O2 O 0.9476(4) 0.07217(15) 0.0203(3)
O3 O -0.2560(2) 0.17466(9) 0.37821(16)
O4 O 0.0105(2) 0.12748(8) 0.29568(15)
O5 O 0.1935(3) 0.14157(9) 0.44743(17)
N1 N 0.9096(4) 0.12358(16) -0.0020(3)
N2 N 0.3269(3) 0.22698(11) 0.14856(19)
N3 N 0.2361(3) 0.19428(10) 0.19837(19)
C1 C 0.7564(4) 0.14978(14) 0.0392(2)
C2 C 0.7162(4) 0.20842(14) 0.0180(2)
H1 H 0.78410 0.23170 -0.02150
C3 C 0.5737(4) 0.23221(13) 0.0562(2)
H2 H 0.54480 0.27220 0.04350
C4 C 0.4734(3) 0.19698(13) 0.1131(2)
C5 C 0.5164(4) 0.13759(13) 0.1341(2)
H3 H 0.44800 0.11400 0.17290
C6 C 0.6596(4) 0.11378(13) 0.0976(2)
H4 H 0.69110 0.07410 0.11180
C7 C 0.0905(3) 0.22464(12) 0.2342(2)
C8 C 0.0532(4) 0.28463(13) 0.2188(2)
H5 H 0.12650 0.30850 0.18400
C9 C -0.0911(4) 0.30969(13) 0.2542(2)
C10 C -0.1966(4) 0.27341(14) 0.3085(2)
H6 H -0.29300 0.29000 0.33410
C11 C -0.1614(4) 0.21360(13) 0.3252(2)
C12 C -0.0169(3) 0.18897(12) 0.2867(2)
C13 C 0.1219(4) 0.10782(12) 0.3815(2)
C14 C 0.1395(3) 0.04205(12) 0.3816(3)
C15 C 0.2212(4) 0.01497(14) 0.4741(3)
H7 H 0.26920 0.03840 0.53190
C16 C 0.2320(5) -0.04649(16) 0.4812(4)
H8 H 0.28590 -0.06450 0.54370
C17 C 0.1632(5) -0.08085(16) 0.3958(4)
H9 H 0.16890 -0.12230 0.40100
C18 C 0.0860(5) -0.05493(16) 0.3028(4)
H10 H 0.04280 -0.07880 0.24450
C19 C 0.0719(4) 0.00697(14) 0.2953(3)
H11 H 0.01730 0.02470 0.23260
C20 C -0.1345(5) 0.37473(15) 0.2338(3)
H12 H -0.07950 0.38800 0.17300
H13 H -0.25930 0.37840 0.21380
C21 C -0.0827(7) 0.41336(19) 0.3218(4)
H14 H -0.12250 0.40080 0.38480
C22 C 0.0042(7) 0.4603(2) 0.3338(5)
H15 H 0.05040 0.47690 0.27580
H16 H 0.02290 0.47880 0.40070
C23 C -0.4073(4) 0.19738(15) 0.4184(3)
H17 H -0.46160 0.16580 0.45360
H18 H -0.48770 0.21250 0.35970
H19 H -0.37410 0.22900 0.46870
#END
