
#######################################################################
#
#                 Cambridge Crystallographic Data Centre
#                                CCDC
#
#######################################################################
#
# If this CIF has been generated from an entry in the Cambridge
# Structural Database, then it will include bibliographic, chemical,
# crystal, experimental, refinement or atomic coordinate data resulting
# from the CCDC's data processing and validation procedures.
#
#######################################################################

data_CSD_CIF_GUHPUW
_audit_creation_date 2015-04-17
_audit_creation_method CSD-ConQuest-V1
_database_code_CSD GUHPUW
_database_code_depnum_ccdc_archive 'CCDC 861198'
_chemical_formula_sum 'C20 H16 N4 O6'
_chemical_formula_moiety
;
C20 H16 N4 O6
;
_journal_coden_Cambridge 917
_journal_volume 10
_journal_year 2014
_journal_page_first 141
_journal_name_full 'Beilstein J.Org.Chem. '
loop_
_publ_author_name
"M.S.Moustafa"
"S.M.Al-Mousawi"
"M.A.Selim"
"A.M.Mosallam"
"M.H.Elnagdi"
_chemical_name_systematic
;
diethyl 5-amino-4,6-dicyano-4'-nitrobiphenyl-2,3-dicarboxylate
;
_cell_volume   1033.084
_exptl_crystal_colour 'light colorless'
_exptl_crystal_density_diffrn 1.313
_exptl_crystal_description 'Platelet'
_diffrn_ambient_temperature ?
_diffrn_special_details
;
The study was carried out at room temperature,in the range 283-303K

;
_refine_special_details
;
C15A and C15B disordered over two sites with occupancies 0.583:0.417.

;
#These two values have been output from a single CSD field.
_refine_ls_R_factor_gt 0.0457
_refine_ls_wR_factor_gt 0.0457
_symmetry_cell_setting triclinic
_symmetry_space_group_name_H-M 'P -1'
_symmetry_Int_Tables_number 2
loop_
_symmetry_equiv_pos_site_id
_symmetry_equiv_pos_as_xyz
1 x,y,z
2 -x,-y,-z
_cell_length_a 7.1018(7)
_cell_length_b 10.3661(11)
_cell_length_c 15.1783(15)
_cell_angle_alpha 87.230(6)
_cell_angle_beta 78.884(6)
_cell_angle_gamma 70.453(5)
_cell_formula_units_Z 2
loop_
_atom_type_symbol
_atom_type_radius_bond
C 0.68
H 0.23
N 0.68
O 0.68
loop_
_atom_site_label
_atom_site_type_symbol
_atom_site_fract_x
_atom_site_fract_y
_atom_site_fract_z
O1 O 0.5500(3) 0.15569(19) 0.75979(12)
C1 C 0.6119(7) 0.2348(5) 0.6841(3)
H1 H 0.50290 0.26840 0.65020
H2 H 0.63370 0.31340 0.70690
C2 C 0.7948(18) 0.1553(14) 0.6252(9)
H3 H 0.84340 0.21480 0.58340
H4 H 0.76620 0.08880 0.59290
H5 H 0.89670 0.10940 0.65990
C3 C 0.2790(3) 0.0806(2) 0.91862(14)
C4 C 0.4058(3) -0.2022(2) 0.90085(14)
C5 C 0.4316(3) -0.1237(2) 0.82528(14)
C6 C 0.3159(3) -0.1424(2) 0.98736(14)
C7 C 0.3700(3) 0.0192(2) 0.83468(14)
C8 C 0.2499(3) 0.0013(2) 0.99408(13)
C9 C 0.5233(3) -0.1923(2) 0.73550(14)
C10 C 0.7099(4) -0.1893(2) 0.69021(15)
H6 H 0.78000 -0.14420 0.71580
C11 C 0.4210(4) -0.2599(3) 0.69730(17)
H7 H 0.29530 -0.26250 0.72760
C12 C 0.6873(4) -0.3184(3) 0.57130(15)
C13 C 0.7931(4) -0.2527(3) 0.60720(16)
H8 H 0.91860 -0.25070 0.57630
C14 C 0.5042(5) -0.3241(3) 0.61417(18)
H9 H 0.43600 -0.37030 0.58820
C15 C 0.4109(4) 0.1003(2) 0.75283(16)
C16 C 0.1490(3) 0.0610(2) 1.08140(16)
C17 C 0.4733(3) -0.3487(2) 0.89404(14)
C18 C 0.2048(3) 0.2336(2) 0.93246(16)
C19 C 0.0711(4) 0.4498(2) 0.87013(19)
H10 H -0.05760 0.48060 0.91190
H11 H 0.16820 0.48030 0.89280
N1 N 0.2905(3) -0.2192(2) 1.05980(13)
H12 H 0.23300 -0.18050 1.11140
H13 H 0.33180 -0.30690 1.05450
N2 N 0.0677(3) 0.0949(2) 1.15297(15)
N3 N 0.5254(4) -0.4658(2) 0.89308(15)
N4 N 0.7774(5) -0.3868(3) 0.48236(16)
O2 O 0.1449(2) 0.29992(15) 0.86204(10)
O3 O 0.2021(3) 0.28639(17) 1.00154(13)
O4 O 0.3325(4) 0.1088(2) 0.68871(13)
O5 O 0.9340(4) -0.3744(3) 0.44195(14)
O6 O 0.6909(4) -0.4550(3) 0.45463(16)
C20 C 0.0452(7) 0.5075(3) 0.7822(2)
H14 H 0.17590 0.48790 0.74360
H15 H -0.02060 0.60480 0.78820
H16 H -0.03680 0.46770 0.75670
H17? H 0.66040 0.17760 0.63020
H18? H 0.49520 0.31210 0.67450
C21? C 0.761(2) 0.2772(18) 0.6975(10)
H19? H 0.86450 0.20240 0.71810
H20? H 0.70820 0.34960 0.74190
H21? H 0.81860 0.31030 0.64230
#END
