
#######################################################################
#
#                 Cambridge Crystallographic Data Centre
#                                CCDC
#
#######################################################################
#
# If this CIF has been generated from an entry in the Cambridge
# Structural Database, then it will include bibliographic, chemical,
# crystal, experimental, refinement or atomic coordinate data resulting
# from the CCDC's data processing and validation procedures.
#
#######################################################################

data_CSD_CIF_GUJJIF
_audit_creation_date 2010-04-08
_audit_creation_method CSD-ConQuest-V1
_database_code_CSD GUJJIF
_database_code_depnum_ccdc_archive 'CCDC 716034'
_chemical_formula_sum 'C14 H9 N1 O3'
_chemical_formula_moiety
;
C14 H9 N1 O3
;
_journal_coden_Cambridge 692
_journal_year 2009
_journal_page_first 2155
_journal_name_full 'Synthesis '
loop_
_publ_author_name
"Jean-Ho Chu"
"Yen-Ju Chen"
"Ming-Jung Wu"
_chemical_name_systematic
;
1-Benzoylbenzo(c)isoxazol-3(1H)-one
;
_chemical_melting_point 407.15
_cell_volume   1086.731
_exptl_crystal_colour 'colorless'
_exptl_crystal_density_diffrn 1.462
_exptl_special_details
;
Melting point range 407.15-409.15K

;
_exptl_crystal_description 'prism'
_diffrn_ambient_temperature 200
#These two values have been output from a single CSD field.
_refine_ls_R_factor_gt 0.145
_refine_ls_wR_factor_gt 0.145
_symmetry_cell_setting monoclinic
_symmetry_space_group_name_H-M 'P 21/c'
_symmetry_Int_Tables_number 14
loop_
_symmetry_equiv_pos_site_id
_symmetry_equiv_pos_as_xyz
1 x,y,z
2 -x,1/2+y,1/2-z
3 -x,-y,-z
4 x,-1/2-y,-1/2+z
_cell_length_a 11.3590(4)
_cell_length_b 3.8780(1)
_cell_length_c 24.8960(11)
_cell_angle_alpha 90
_cell_angle_beta 97.721(1)
_cell_angle_gamma 90
_cell_formula_units_Z 4
loop_
_atom_type_symbol
_atom_type_radius_bond
C 0.68
H 0.23
N 0.68
O 0.68
loop_
_atom_site_label
_atom_site_type_symbol
_atom_site_fract_x
_atom_site_fract_y
_atom_site_fract_z
O1 O 0.9891(5) 0.1143(18) 0.0870(3)
O2 O 0.8514(5) 0.3991(16) 0.1258(2)
O3 O 0.5732(5) 0.7934(19) 0.1271(2)
N1 N 0.7464(6) 0.592(2) 0.1077(3)
C1 C 0.8997(8) 0.286(2) 0.0806(4)
C2 C 0.8218(7) 0.402(2) 0.0336(3)
C3 C 0.8278(8) 0.359(2) -0.0212(3)
H1 H 0.89070 0.24280 -0.03340
C4 C 0.7364(8) 0.489(2) -0.0574(4)
H2 H 0.73930 0.46530 -0.09430
C5 C 0.6397(8) 0.660(2) -0.0396(3)
H3 H 0.57860 0.73800 -0.06530
C6 C 0.6343(7) 0.711(2) 0.0151(3)
H4 H 0.57180 0.82970 0.02720
C7 C 0.7269(7) 0.577(2) 0.0511(3)
C8 C 0.6700(7) 0.680(2) 0.1445(3)
C9 C 0.7159(7) 0.636(2) 0.2030(3)
C10 C 0.8300(8) 0.735(2) 0.2255(4)
H5 H 0.88400 0.81730 0.20370
C11 C 0.8624(8) 0.705(2) 0.2805(4)
H6 H 0.93740 0.77680 0.29590
C12 C 0.7850(8) 0.569(2) 0.3132(4)
H7 H 0.80940 0.54360 0.35010
C13 C 0.6705(8) 0.477(2) 0.2910(3)
H8 H 0.61770 0.39210 0.31320
C14 C 0.6357(7) 0.510(2) 0.2361(4)
H9 H 0.55900 0.44930 0.22130
#END
