
#######################################################################
#
#                 Cambridge Crystallographic Data Centre
#                                CCDC
#
#######################################################################
#
# If this CIF has been generated from an entry in the Cambridge
# Structural Database, then it will include bibliographic, chemical,
# crystal, experimental, refinement or atomic coordinate data resulting
# from the CCDC's data processing and validation procedures.
#
#######################################################################

data_CSD_CIF_GUJKOL
_audit_creation_date 2001-04-02
_audit_creation_method CSD-ConQuest-V1
_database_code_CSD GUJKOL
_database_code_depnum_ccdc_archive 'CCDC 151883'
_chemical_formula_sum 'C15 H18 N2 O5'
_chemical_formula_moiety
;
C15 H18 N2 O5
;
_journal_coden_Cambridge 1090
_journal_volume 11
_journal_year 2000
_journal_page_first 1527
_journal_name_full 'Tetrahedron:Asymm. '
loop_
_publ_author_name
"W.D.Wu"
"L.T.Ma"
"L.H.Zhang"
"Y.Lu"
"F.Guo"
"Q.T.Zheng"
_chemical_name_systematic
;
5-Phenyl-3-((2'R,3'S)-3'-hydroxy-2'-(dimethoxymethyl)tetrahydrofuran-3'-yl)-1,
2,4-oxadiazole
;
_chemical_melting_point 374.15
_cell_volume    765.766
_exptl_crystal_colour 'colorless'
_exptl_crystal_density_diffrn 1.33
_exptl_special_details
;
Melting point range 374.15-375.15K

;
_exptl_crystal_description 'needles'
_exptl_crystal_preparation 'ethyl acetate/cyclohexane'
_diffrn_ambient_temperature ?
_diffrn_special_details
;
The study was carried out at room temperature,in the range 283-303K

;
#These two values have been output from a single CSD field.
_refine_ls_R_factor_gt 0.045
_refine_ls_wR_factor_gt 0.045
_symmetry_cell_setting monoclinic
_symmetry_space_group_name_H-M 'P 21'
_symmetry_Int_Tables_number 4
loop_
_symmetry_equiv_pos_site_id
_symmetry_equiv_pos_as_xyz
1 x,y,z
2 -x,1/2+y,-z
_cell_length_a 10.586(1)
_cell_length_b 6.751(1)
_cell_length_c 11.358(1)
_cell_angle_alpha 90
_cell_angle_beta 109.37(1)
_cell_angle_gamma 90
_cell_formula_units_Z 2
loop_
_atom_type_symbol
_atom_type_radius_bond
C 0.68
H 0.23
N 0.68
O 0.68
loop_
_atom_site_label
_atom_site_type_symbol
_atom_site_fract_x
_atom_site_fract_y
_atom_site_fract_z
O1 O 0.6933(3) 0.2569(5) 0.7102(5)
N1 N 0.6011(3) 0.4128(6) 0.7110(3)
C1 C 0.5625(3) 0.3634(6) 0.8042(3)
N2 N 0.6197(3) 0.1934(5) 0.8670(3)
C2 C 0.6975(3) 0.1348(6) 0.8053(3)
C3 C 0.7826(3) -0.0397(7) 0.8244(3)
C4 C 0.7942(4) -0.1628(8) 0.9253(4)
C5 C 0.8759(5) -0.3316(8) 0.9430(4)
C6 C 0.9440(4) -0.3719(9) 0.8595(5)
C7 C 0.9304(4) -0.2516(9) 0.7596(4)
C8 C 0.8503(4) -0.0829(8) 0.7400(4)
C9 C 0.4567(3) 0.4782(6) 0.8352(3)
C10 C 0.3162(3) 0.3867(6) 0.7792(3)
O2 O 0.2311(3) 0.54260 0.7932(3)
C11 C 0.2880(4) 0.7310(7) 0.7747(4)
C12 C 0.4338(4) 0.6895(6) 0.7843(3)
C13 C 0.2842(3) 0.3294(6) 0.6413(3)
O3 O 0.1465(3) 0.3405(5) 0.5689(3)
C14 C 0.0588(4) 0.2227(9) 0.6135(5)
O4 O 0.3363(3) 0.1361(4) 0.6458(2)
C15 C 0.3491(5) 0.0747(9) 0.5288(4)
O5 O 0.4961(3) 0.4747(5) 0.9691(2)
H1 H 0.74100 -0.12800 0.98900
H2 H 0.88400 -0.43400 1.02100
H3 H 1.01000 -0.50200 0.87200
H4 H 0.98600 -0.28300 0.69600
H5 H 0.83900 0.01100 0.65900
H6 H 0.30700 0.25600 0.83300
H7 H 0.23100 0.79200 0.68400
H8 H 0.28400 0.83600 0.84700
H9 H 0.50400 0.79200 0.84600
H10 H 0.44700 0.69900 0.69300
H11 H 0.34000 0.43000 0.60100
H12 H 0.02500 0.30200 0.68100
H13 H 0.11100 0.08800 0.66100
H14 H -0.02400 0.18000 0.53400
H15 H 0.25200 0.03800 0.46500
H16 H 0.41300 -0.05600 0.54600
H17 H 0.39500 0.19800 0.49500
H18 H 0.44600 0.56300 1.00600
#END
