
#######################################################################
#
#                 Cambridge Crystallographic Data Centre
#                                CCDC
#
#######################################################################
#
# If this CIF has been generated from an entry in the Cambridge
# Structural Database, then it will include bibliographic, chemical,
# crystal, experimental, refinement or atomic coordinate data resulting
# from the CCDC's data processing and validation procedures.
#
#######################################################################

data_CSD_CIF_GULDOH
_audit_creation_date 2010-04-23
_audit_creation_method CSD-ConQuest-V1
_database_code_CSD GULDOH
_database_code_depnum_ccdc_archive 'CCDC 725063'
_chemical_formula_sum 'C18 H15 N1 O4'
_chemical_formula_moiety
;
C18 H15 N1 O4
;
_journal_coden_Cambridge 1088
_journal_year 2009
_journal_page_first 1777
_journal_name_full 'Synlett '
loop_
_publ_author_name
"D.Enders"
"Chuan Wang"
"J.W.Bats"
_chemical_name_systematic
;
(3R,4S)-3-(2-Methoxyphenyl)-4-nitro-3,4-dihydronaphthalene-2-carbaldehyde
;
_chemical_melting_point 455.15
_cell_volume   1499.198
_exptl_crystal_colour 'colorless'
_exptl_crystal_density_diffrn 1.37
_exptl_crystal_description 'block'
_diffrn_ambient_temperature 162
#These two values have been output from a single CSD field.
_refine_ls_R_factor_gt 0.037
_refine_ls_wR_factor_gt 0.037
_symmetry_cell_setting orthorhombic
_symmetry_space_group_name_H-M 'P 21 21 21'
_symmetry_Int_Tables_number 19
loop_
_symmetry_equiv_pos_site_id
_symmetry_equiv_pos_as_xyz
1 x,y,z
2 1/2-x,-y,1/2+z
3 -x,1/2+y,1/2-z
4 1/2+x,1/2-y,-z
_cell_length_a 8.0511(8)
_cell_length_b 9.1423(10)
_cell_length_c 20.368(2)
_cell_angle_alpha 90
_cell_angle_beta 90
_cell_angle_gamma 90
_cell_formula_units_Z 4
loop_
_atom_type_symbol
_atom_type_radius_bond
C 0.68
H 0.23
N 0.68
O 0.68
loop_
_atom_site_label
_atom_site_type_symbol
_atom_site_fract_x
_atom_site_fract_y
_atom_site_fract_z
O1 O 0.67127(17) 0.37938(16) 0.53514(6)
O2 O 0.38808(14) 0.66798(13) 0.38855(6)
C1 C 0.9528(2) 0.42300(18) 0.32727(9)
N1 N 0.56375(18) 0.32763(18) 0.31055(8)
C2 C 0.8146(2) 0.48157(18) 0.29423(8)
C3 C 0.7974(2) 0.40559(17) 0.43059(8)
C4 C 0.8146(2) 0.72610(19) 0.43768(8)
H1 H 0.91140 0.66890 0.44500
C5 C 0.6696(2) 0.65810(17) 0.41707(7)
C6 C 1.1071(2) 0.4187(2) 0.29547(10)
H2 H 1.20070 0.37830 0.31730
C7 C 0.5330(2) 0.89562(19) 0.41549(9)
H3 H 0.43740 0.95380 0.40740
C8 C 0.9336(2) 0.37253(18) 0.39495(8)
H4 H 1.01890 0.31510 0.41430
C9 C 0.7879(2) 0.35516(19) 0.49871(8)
H5 H 0.87840 0.30010 0.51550
C10 C 0.6563(2) 0.49451(17) 0.40254(8)
H6 H 0.55010 0.45770 0.42190
C11 C 0.5270(2) 0.74378(18) 0.40707(8)
C12 C 0.8208(2) 0.8771(2) 0.44787(9)
H7 H 0.92020 0.92220 0.46290
C13 C 0.6807(2) 0.96021(19) 0.43584(9)
H8 H 0.68530 1.06330 0.44160
O3 O 0.5118(3) 0.24975(17) 0.35366(8)
C14 C 0.2365(2) 0.7488(2) 0.3821(1)
H9 H 0.21260 0.79970 0.42340
H10 H 0.14530 0.68150 0.37190
H11 H 0.24780 0.82050 0.34660
C15 C 0.6473(2) 0.47594(18) 0.32760(8)
H12 H 0.57680 0.55640 0.30940
C16 C 0.8333(2) 0.53857(19) 0.23144(8)
H13 H 0.74080 0.58070 0.20950
O4 O 0.5448(3) 0.3014(2) 0.25281(8)
C17 C 0.9876(3) 0.5341(2) 0.20064(9)
H14 H 0.99970 0.57290 0.15760
C18 C 1.1238(3) 0.4732(2) 0.23233(10)
H15 H 1.22830 0.46900 0.21070
#END
