
#######################################################################
#
#                 Cambridge Crystallographic Data Centre
#                                CCDC
#
#######################################################################
#
# If this CIF has been generated from an entry in the Cambridge
# Structural Database, then it will include bibliographic, chemical,
# crystal, experimental, refinement or atomic coordinate data resulting
# from the CCDC's data processing and validation procedures.
#
#######################################################################

data_CSD_CIF_GUMFUR
_audit_creation_date 2015-04-21
_audit_creation_method CSD-ConQuest-V1
_database_code_CSD GUMFUR
_database_code_depnum_ccdc_archive 'CCDC 995468'
_chemical_formula_sum 'C20 H21 N3 O2'
_chemical_formula_moiety
;
C20 H21 N3 O2
;
_journal_coden_Cambridge 587
_journal_volume 35
_journal_year 2014
_journal_page_first 3009
_journal_name_full 'Bull.Korean Chem.Soc. '
loop_
_publ_author_name
"Haeun Jung"
"S.Bae"
"Ha-Lim Jang"
"Jung Min Joo"
_chemical_name_systematic
;
1-benzyl-5-(4-butylphenyl)-4-nitro-1H-imidazole
;
_cell_volume   1769.793
_exptl_crystal_colour 'colorless'
_exptl_crystal_density_diffrn 1.259
_exptl_crystal_description 'BLOCK'
_diffrn_ambient_temperature 173
#These two values have been output from a single CSD field.
_refine_ls_R_factor_gt 0.0425
_refine_ls_wR_factor_gt 0.0425
_symmetry_cell_setting monoclinic
_symmetry_space_group_name_H-M 'P 21/c'
_symmetry_Int_Tables_number 14
loop_
_symmetry_equiv_pos_site_id
_symmetry_equiv_pos_as_xyz
1 x,y,z
2 -x,1/2+y,1/2-z
3 -x,-y,-z
4 x,-1/2-y,-1/2+z
_cell_length_a 11.0383(3)
_cell_length_b 8.2043(2)
_cell_length_c 19.5592(4)
_cell_angle_alpha 90
_cell_angle_beta 92.372(1)
_cell_angle_gamma 90
_cell_formula_units_Z 4
loop_
_atom_type_symbol
_atom_type_radius_bond
C 0.68
H 0.23
N 0.68
O 0.68
loop_
_atom_site_label
_atom_site_type_symbol
_atom_site_fract_x
_atom_site_fract_y
_atom_site_fract_z
O1 O 0.66052(10) 0.96281(15) 0.14555(6)
O2 O 0.82405(10) 0.83538(16) 0.12143(6)
N1 N 0.68495(9) 0.48152(14) 0.24441(5)
N2 N 0.58207(10) 0.70746(15) 0.21920(5)
N3 N 0.72704(11) 0.84314(16) 0.14927(6)
C1 C 0.58155(11) 0.56858(17) 0.25192(6)
H1 H 0.51610 0.53240 0.27810
C2 C 0.69131(11) 0.70703(17) 0.18913(6)
C3 C 0.75827(11) 0.56988(17) 0.20336(6)
C4 C 0.71314(12) 0.32353(17) 0.27701(7)
H2 H 0.78150 0.27200 0.25390
H3 H 0.64190 0.25070 0.27130
C5 C 0.74609(11) 0.34226(15) 0.35211(6)
C6 C 0.65568(13) 0.36046(17) 0.39901(7)
H4 H 0.57280 0.35660 0.38390
C7 C 0.68619(14) 0.38410(19) 0.46741(7)
H5 H 0.62410 0.39780 0.49910
C8 C 0.80599(15) 0.38804(19) 0.49002(7)
H6 H 0.82650 0.40520 0.53710
C9 C 0.89636(14) 0.36690(18) 0.44397(7)
H7 H 0.97900 0.36810 0.45950
C10 C 0.86646(12) 0.34413(16) 0.37544(7)
H8 H 0.92880 0.32960 0.34400
C11 C 0.87762(11) 0.51025(16) 0.18290(6)
C12 C 0.98013(11) 0.52873(16) 0.22533(6)
H9 H 0.97500 0.58450 0.26770
C13 C 1.09020(12) 0.46616(17) 0.20622(7)
H10 H 1.15980 0.48020 0.23590
C14 C 1.10149(12) 0.38432(18) 0.14548(7)
C15 C 0.99876(15) 0.3685(3) 0.10315(9)
H11 H 1.00430 0.31400 0.06050
C16 C 0.88837(14) 0.4299(3) 0.12135(8)
H12 H 0.81920 0.41690 0.09130
C17 C 1.22170(13) 0.31654(19) 0.12499(8)
H13 H 1.21280 0.19800 0.11670
H14 H 1.28190 0.33140 0.16340
C18 C 1.26968(15) 0.3958(2) 0.06151(8)
H15 H 1.27480 0.51500 0.06890
H16 H 1.21150 0.37610 0.02250
C19 C 1.39405(15) 0.3324(2) 0.04316(9)
H17 H 1.38900 0.21280 0.03690
H18 H 1.41550 0.38060 -0.00110
C20 C 1.49412(16) 0.3695(3) 0.09555(10)
H19 H 1.57060 0.32400 0.08040
H20 H 1.47470 0.32070 0.13950
H21 H 1.50220 0.48780 0.10090
#END
