
#######################################################################
#
#                 Cambridge Crystallographic Data Centre
#                                CCDC
#
#######################################################################
#
# If this CIF has been generated from an entry in the Cambridge
# Structural Database, then it will include bibliographic, chemical,
# crystal, experimental, refinement or atomic coordinate data resulting
# from the CCDC's data processing and validation procedures.
#
#######################################################################

data_CSD_CIF_GUPMEJ
_audit_creation_date 2001-04-12
_audit_creation_method CSD-ConQuest-V1
_database_code_CSD GUPMEJ
_database_code_depnum_ccdc_archive 'CCDC 135526'
_chemical_formula_sum 'C30 H33 N1 O5'
_chemical_formula_moiety
;
C30 H33 N1 O5
;
_journal_coden_Cambridge 1291
_journal_year 2001
_journal_page_first 759
_journal_name_full 'Eur.J.Org.Chem. '
loop_
_publ_author_name
"M.Lalk"
"H.Reinke"
"K.Peseke"
_chemical_name_systematic
;
(2aS,4aS,5S,6S,7R,7aR,7bR)-5,6,7-tris(Benzyloxy)-2-methyl-octahydro-2H-furo(4,
3,2-c,d)-1,2-benzisoxazole
;
_chemical_melting_point 359.15
_cell_volume   1314.286
_exptl_crystal_colour 'colorless'
_exptl_crystal_density_diffrn 1.232
_exptl_crystal_description 'plate'
_diffrn_ambient_temperature ?
_diffrn_special_details
;
The study was carried out at room temperature,in the range 283-303K

;
#These two values have been output from a single CSD field.
_refine_ls_R_factor_gt 0.0425
_refine_ls_wR_factor_gt 0.0425
_symmetry_cell_setting monoclinic
_symmetry_space_group_name_H-M 'P 21'
_symmetry_Int_Tables_number 4
loop_
_symmetry_equiv_pos_site_id
_symmetry_equiv_pos_as_xyz
1 x,y,z
2 -x,1/2+y,-z
_cell_length_a 8.530(2)
_cell_length_b 11.766(2)
_cell_length_c 13.664(2)
_cell_angle_alpha 90
_cell_angle_beta 106.59(2)
_cell_angle_gamma 90
_cell_formula_units_Z 2
loop_
_atom_type_symbol
_atom_type_radius_bond
C 0.68
H 0.23
N 0.68
O 0.68
loop_
_atom_site_label
_atom_site_type_symbol
_atom_site_fract_x
_atom_site_fract_y
_atom_site_fract_z
O1 O 0.4449(2) 0.6815(2) 1.00249(15)
O2 O 0.2511(2) 0.52309(15) 0.85686(15)
O3 O 0.2910(2) 0.53820(17) 0.65962(14)
O4 O 0.6509(3) 0.59195(19) 0.67998(15)
O5 O 0.5156(3) 0.82624(17) 0.80340(16)
N1 N 0.5712(3) 0.7592(2) 1.0567(2)
C1 C 0.5036(3) 0.6167(2) 0.9296(2)
H1 H 0.54030 0.54160 0.95830
C2 C 0.3618(3) 0.6029(2) 0.8345(2)
H2 H 0.30660 0.67610 0.81600
C3 C 0.4250(3) 0.5610(2) 0.74715(19)
H3 H 0.48800 0.49100 0.76810
C4 C 0.5339(3) 0.6503(3) 0.7194(2)
H4 H 0.46540 0.69720 0.66440
C5 C 0.6195(4) 0.7288(2) 0.8067(2)
H5 H 0.72370 0.75390 0.79710
C6 C 0.6496(3) 0.6828(2) 0.91411(19)
H6 H 0.75180 0.63950 0.93650
C7 C 0.6523(3) 0.7893(3) 0.9796(2)
H7 H 0.76440 0.81570 1.01110
C8 C 0.5547(4) 0.8754(3) 0.9032(2)
H8 H 0.45510 0.89520 0.92000
H9 H 0.61850 0.94410 0.90530
C9 C 0.6808(5) 0.6983(4) 1.1429(2)
H10 H 0.62320 0.68010 1.19180
H11 H 0.77320 0.74540 1.17460
H12 H 0.71770 0.62950 1.11880
C10 C 0.0858(4) 0.5564(3) 0.8330(3)
H13 H 0.02840 0.53400 0.76370
H14 H 0.07820 0.63840 0.83820
C11 C 0.0108(3) 0.4995(3) 0.9070(2)
C12 C 0.0649(4) 0.5274(3) 1.0091(3)
H15 H 0.14440 0.58330 1.03090
C13 C 0.0031(6) 0.4737(4) 1.0789(3)
H16 H 0.04200 0.49250 1.14770
C14 C -0.1145(6) 0.3934(5) 1.0481(5)
H17 H -0.15520 0.35660 1.09590
C15 C -0.1735(5) 0.3664(4) 0.9468(5)
H18 H -0.25590 0.31240 0.92560
C16 C -0.1100(4) 0.4199(3) 0.8757(3)
H19 H -0.14970 0.40150 0.80680
C17 C 0.2654(7) 0.4281(4) 0.6299(3)
H20 H 0.23630 0.38500 0.68260
H21 H 0.36570 0.39640 0.62150
C18 C 0.1315(4) 0.4173(3) 0.5312(3)
C19 C 0.1018(5) 0.4980(4) 0.4571(3)
H22 H 0.16610 0.56320 0.46660
C20 C -0.0236(7) 0.4840(5) 0.3674(3)
H23 H -0.04300 0.53970 0.31710
C21 C -0.1184(6) 0.3889(5) 0.3529(4)
H24 H -0.20420 0.38040 0.29350
C22 C -0.0877(6) 0.3075(5) 0.4246(4)
H25 H -0.15050 0.24160 0.41400
C23 C 0.0366(5) 0.3211(4) 0.5137(3)
H26 H 0.05670 0.26410 0.56290
C24 C 0.7070(4) 0.6569(4) 0.6073(2)
H27 H 0.80790 0.62400 0.60100
H28 H 0.73020 0.73400 0.63230
C25 C 0.5841(4) 0.6597(3) 0.5045(2)
C26 C 0.4793(6) 0.7503(3) 0.4741(3)
H29 H 0.48730 0.81160 0.51830
C27 C 0.3645(6) 0.7534(5) 0.3816(4)
H30 H 0.29530 0.81580 0.36410
C28 C 0.3506(7) 0.6675(7) 0.3159(4)
H31 H 0.27320 0.67100 0.25230
C29 C 0.4489(9) 0.5752(5) 0.3415(4)
H32 H 0.43760 0.51470 0.29630
C30 C 0.5689(6) 0.5717(4) 0.4377(3)
H33 H 0.63750 0.50890 0.45530
#END
