
#######################################################################
#
#                 Cambridge Crystallographic Data Centre
#                                CCDC
#
#######################################################################
#
# If this CIF has been generated from an entry in the Cambridge
# Structural Database, then it will include bibliographic, chemical,
# crystal, experimental, refinement or atomic coordinate data resulting
# from the CCDC's data processing and validation procedures.
#
#######################################################################

data_CSD_CIF_GUQMEK
_audit_creation_date 2001-04-12
_audit_creation_method CSD-ConQuest-V1
_database_code_CSD GUQMEK
_database_code_depnum_ccdc_archive 'CCDC 143991'
_chemical_formula_sum 'C15 H22 N2 O8'
_chemical_formula_moiety
;
C15 H22 N2 O8
;
_journal_coden_Cambridge 1291
_journal_year 2000
_journal_page_first 2955
_journal_name_full 'Eur.J.Org.Chem. '
loop_
_publ_author_name
"C.Bohm"
"M.Schinnerl"
"C.Bubert"
"M.Zabel"
"T.Labahn"
"E.Parisini"
"O.Reiser"
_chemical_name_systematic
;
Methyl 
(1S^*^,1'R^*^,2S^*^,3S^*^)-2-((t-butoxycarbonyl)amino)-3-(formyloxy(1'-nitrocy
clohexyl)methyl)cyclopropanecarboxylate
;
_cell_volume    830.518
_exptl_crystal_colour 'white'
_exptl_crystal_density_diffrn 1.433
_exptl_crystal_description 'needles'
_exptl_crystal_preparation 'dichloromethane/cyclohexane'
_diffrn_ambient_temperature 133
_refine_special_details
;
Methyl hydrogens on C31 are disordered equally over two sites.

;
#These two values have been output from a single CSD field.
_refine_ls_R_factor_gt 0.0346
_refine_ls_wR_factor_gt 0.0346
_symmetry_cell_setting triclinic
_symmetry_space_group_name_H-M 'P -1'
_symmetry_Int_Tables_number 2
loop_
_symmetry_equiv_pos_site_id
_symmetry_equiv_pos_as_xyz
1 x,y,z
2 -x,-y,-z
_cell_length_a 9.4370(19)
_cell_length_b 9.993(2)
_cell_length_c 9.995(2)
_cell_angle_alpha 65.04(3)
_cell_angle_beta 76.68(3)
_cell_angle_gamma 81.89(3)
_cell_formula_units_Z 2
loop_
_atom_type_symbol
_atom_type_radius_bond
C 0.68
H 0.23
N 0.68
O 0.68
loop_
_atom_site_label
_atom_site_type_symbol
_atom_site_fract_x
_atom_site_fract_y
_atom_site_fract_z
O1 O 0.17443(10) 0.37262(9) 0.93412(9)
O2 O -0.07099(9) -0.02425(9) 0.69757(10)
O3 O -0.38143(11) -0.04367(10) 0.89379(11)
O4 O 0.40557(10) 0.14068(10) 0.43142(10)
O5 O -0.24990(11) -0.00213(10) 1.02056(10)
O6 O 0.12443(11) 0.53976(10) 0.7101(1)
N1 N -0.29297(11) 0.02712(11) 0.90377(11)
O7 O 0.24649(11) 0.31951(11) 0.31882(10)
N2 N 0.13519(11) 0.29181(11) 0.77326(11)
H1 H 0.1659(18) 0.2080(16) 0.8389(17)
C1 C 0.14304(12) 0.41328(13) 0.79747(13)
C2 C 0.02899(12) 0.21565(12) 0.60168(13)
H2 H -0.01040 0.26540 0.50660
C3 C -0.06551(12) 0.10296(12) 0.73139(13)
H3 H -0.02310 0.07050 0.82380
O8 O 0.10245(12) -0.15044(10) 0.83232(13)
C4 C -0.23438(13) 0.28901(13) 0.80846(13)
H4 H -0.19360 0.25620 0.90080
H5 H -0.17460 0.36890 0.72780
C5 C 0.12690(12) 0.30505(13) 0.62747(13)
H6 H 0.14380 0.40600 0.54590
C6 C -0.22480(12) 0.15935(12) 0.76289(12)
C7 C -0.30602(13) 0.19368(13) 0.63575(13)
H7 H -0.31220 0.10120 0.62420
H8 H -0.24930 0.26250 0.54080
C8 C 0.19275(12) 0.17984(13) 0.58269(13)
H9 H 0.22690 0.08850 0.66310
C9 C -0.46021(13) 0.26217(14) 0.66128(15)
H10 H -0.50170 0.29390 0.56950
H11 H -0.52300 0.18700 0.74470
C10 C -0.45923(14) 0.39446(14) 0.69899(15)
H12 H -0.56030 0.43440 0.71850
H13 H -0.40290 0.47310 0.61250
C11 C 0.28082(13) 0.22171(13) 0.42939(13)
C12 C -0.39127(14) 0.34953(14) 0.83688(14)
H14 H -0.44930 0.27310 0.92410
H15 H -0.39230 0.43630 0.86080
C13 C 0.01622(14) -0.14318(14) 0.75918(15)
H16 H -0.0033(19) -0.2251(19) 0.7346(19)
C14 C 0.19966(17) 0.49100(15) 0.97056(15)
H17 H 0.29050 0.53690 0.90760
H18 H 0.20730 0.45160 1.07670
H19 H 0.11830 0.56510 0.95220
C15 C 0.51049(17) 0.18204(18) 0.29169(17)
H20 H 0.47090 0.16610 0.21740
H21 H 0.60100 0.12140 0.30880
H22 H 0.53060 0.28660 0.25420
H23? H 0.59500 0.22220 0.30080
H24? H 0.46540 0.25720 0.21020
H25? H 0.54220 0.09490 0.26910
#END
