
#######################################################################
#
#                 Cambridge Crystallographic Data Centre
#                                CCDC
#
#######################################################################
#
# If this CIF has been generated from an entry in the Cambridge
# Structural Database, then it will include bibliographic, chemical,
# crystal, experimental, refinement or atomic coordinate data resulting
# from the CCDC's data processing and validation procedures.
#
#######################################################################

data_CSD_CIF_GURGOP
_audit_creation_date 2001-04-12
_audit_creation_method CSD-ConQuest-V1
_database_code_CSD GURGOP
_database_code_depnum_ccdc_archive 'CCDC 159762'
_chemical_formula_sum 'C19 H12 N4 O4'
_chemical_formula_moiety
;
C19 H12 N4 O4
;
_journal_coeditor_code "IUCr NA6044"
_journal_coden_Cambridge 1370
_journal_volume 57
_journal_year 2001
_journal_page_first o182
_journal_name_full 'Acta Crystallogr.,Sect.E:Struct.Rep.Online '
loop_
_publ_author_name
"D.Cannon"
"A.Quesada"
"J.Quiroga"
"B.Insuasty"
"R.Abonia"
"D.Mejia"
"J.Cobo"
"M.Nogueras"
"A.Sanchez"
"J.N.Low"
_chemical_name_systematic
;
6-(2-Hydroxybenzoyl)-2-(4-nitrophenyl)pyrazolo(1,5-a)pyrimidine
;
_chemical_melting_point 553
_cell_volume   1528.556
_exptl_crystal_colour 'yellow'
_exptl_crystal_density_diffrn 1.566
_exptl_special_details
;
Melting point range 553-555K

;
_exptl_crystal_description 'needle'
_exptl_crystal_preparation 'DMF'
_diffrn_ambient_temperature 150.0
#These two values have been output from a single CSD field.
_refine_ls_R_factor_gt 0.0469
_refine_ls_wR_factor_gt 0.0469
_symmetry_cell_setting orthorhombic
_symmetry_space_group_name_H-M 'P 21 21 21'
_symmetry_Int_Tables_number 19
loop_
_symmetry_equiv_pos_site_id
_symmetry_equiv_pos_as_xyz
1 x,y,z
2 1/2-x,-y,1/2+z
3 1/2+x,1/2-y,-z
4 -x,1/2+y,1/2-z
_cell_length_a 5.5421(2)
_cell_length_b 11.5858(5)
_cell_length_c 23.8057(13)
_cell_angle_alpha 90
_cell_angle_beta 90
_cell_angle_gamma 90
_cell_formula_units_Z 4
loop_
_atom_type_symbol
_atom_type_radius_bond
C 0.68
H 0.23
N 0.68
O 0.68
loop_
_atom_site_label
_atom_site_type_symbol
_atom_site_fract_x
_atom_site_fract_y
_atom_site_fract_z
N1 N 0.4216(5) 0.2523(2) 0.38267(13)
C1 C 0.2294(6) 0.2706(3) 0.41569(16)
C2 C 0.2235(7) 0.3756(3) 0.45031(16)
C3 C 0.4135(7) 0.4528(3) 0.44951(17)
C4 C 0.4127(7) 0.5509(3) 0.48185(18)
C5 C 0.2193(7) 0.5701(3) 0.51646(16)
N2 N 0.2188(7) 0.6734(3) 0.55150(15)
O1 O 0.3823(6) 0.7435(2) 0.54588(14)
O2 O 0.0492(6) 0.6874(2) 0.58380(14)
C6 C 0.0268(7) 0.4960(3) 0.51892(17)
C7 C 0.0278(6) 0.3979(3) 0.48571(16)
C8 C 0.0589(6) 0.1814(3) 0.41285(16)
C9 C 0.1556(6) 0.1025(3) 0.37594(16)
N3 N 0.0807(6) -0.0027(2) 0.35731(14)
C10 C 0.2270(7) -0.0559(3) 0.32334(16)
C11 C 0.4488(7) -0.0104(3) 0.30287(17)
C12 C 0.6017(6) -0.0860(3) 0.26614(17)
O3 O 0.5901(5) -0.1918(2) 0.27446(13)
C13 C 0.7653(6) -0.0379(3) 0.22383(16)
C14 C 0.9607(7) -0.1058(3) 0.20466(16)
O4 O 0.9951(5) -0.21614(19) 0.22193(11)
C15 C 1.1303(7) -0.0592(3) 0.16808(16)
C16 C 1.0969(7) 0.0512(3) 0.14697(17)
C17 C 0.8972(8) 0.1152(3) 0.16177(17)
C18 C 0.7353(7) 0.0720(3) 0.20037(16)
C19 C 0.5201(7) 0.0945(3) 0.32124(15)
N4 N 0.3740(5) 0.1493(2) 0.35832(13)
H1 H 0.54830 0.43760 0.42600
H2 H 0.54280 0.60420 0.48030
H3 H -0.10550 0.51180 0.54310
H4 H -0.10440 0.34570 0.48700
H5 H -0.09070 0.17650 0.43220
H6 H 0.18240 -0.13100 0.31120
H7 H 0.85970 -0.23750 0.23990
H8 H 1.26830 -0.10280 0.15760
H9 H 1.21300 0.08310 0.12200
H10 H 0.87110 0.18890 0.14540
H11 H 0.60090 0.11770 0.21130
H12 H 0.66660 0.12850 0.30870
#END
