
#######################################################################
#
#                 Cambridge Crystallographic Data Centre
#                                CCDC
#
#######################################################################
#
# If this CIF has been generated from an entry in the Cambridge
# Structural Database, then it will include bibliographic, chemical,
# crystal, experimental, refinement or atomic coordinate data resulting
# from the CCDC's data processing and validation procedures.
#
#######################################################################

data_CSD_CIF_GUTZIG
_audit_creation_date 2015-09-25
_audit_creation_method CSD-ConQuest-V1
_database_code_CSD GUTZIG
_database_code_depnum_ccdc_archive 'CCDC 1062225'
_chemical_formula_sum 'C15 H11 N5 O2'
_chemical_formula_moiety
;
C15 H11 N5 O2
;
_journal_coden_Cambridge 1350
_journal_volume 17
_journal_year 2015
_journal_page_first 7702
_journal_name_full 'CrystEngComm '
loop_
_publ_author_name
"A.Trzesowska-Kruszynska"
_chemical_name_systematic
;
1-((4-nitrobenzylidene)hydrazono)-1,2-dihydrophthalazine
;
_chemical_name_common
;
2-(4-nitrobenzylidene)-1-(phthalazin-1(2H)-ylidene)hydrazine
;
_cell_volume   1294.691
_exptl_crystal_colour 'orange'
_exptl_crystal_density_diffrn 1.505
_exptl_crystal_description 'prism'
_diffrn_ambient_temperature 100
#These two values have been output from a single CSD field.
_refine_ls_R_factor_gt 0.033
_refine_ls_wR_factor_gt 0.033
_symmetry_cell_setting monoclinic
_symmetry_space_group_name_H-M 'P 21/c'
_symmetry_Int_Tables_number 14
loop_
_symmetry_equiv_pos_site_id
_symmetry_equiv_pos_as_xyz
1 x,y,z
2 -x,1/2+y,1/2-z
3 -x,-y,-z
4 x,-1/2-y,-1/2+z
_cell_length_a 14.9193(4)
_cell_length_b 3.8014(1)
_cell_length_c 23.8964(7)
_cell_angle_alpha 90
_cell_angle_beta 107.195(1)
_cell_angle_gamma 90
_cell_formula_units_Z 4
loop_
_atom_type_symbol
_atom_type_radius_bond
C 0.68
H 0.23
N 0.68
O 0.68
loop_
_atom_site_label
_atom_site_type_symbol
_atom_site_fract_x
_atom_site_fract_y
_atom_site_fract_z
C1 C 0.11102(7) 1.0914(3) 0.43282(4)
N1 N 0.06487(6) 1.2628(2) 0.46633(4)
H1 H 0.00290 1.32130 0.45110
N2 N 0.10122(6) 1.3556(2) 0.52394(4)
C2 C 0.18806(7) 1.2767(3) 0.54927(4)
H2 H 0.21370 1.33530 0.58950
C3 C 0.24846(7) 1.1056(3) 0.52049(4)
C4 C 0.20976(7) 1.0139(3) 0.46124(4)
C5 C 0.34314(7) 1.0318(3) 0.54917(4)
H3 H 0.36950 1.09020 0.58930
C6 C 0.39759(7) 0.8740(3) 0.51870(5)
H4 H 0.46180 0.82540 0.53800
C7 C 0.35912(7) 0.7848(3) 0.45957(4)
H5 H 0.39750 0.67850 0.43890
C8 C 0.26559(7) 0.8503(3) 0.43104(4)
H6 H 0.23940 0.78460 0.39120
N3 N 0.07262(6) 0.9924(2) 0.37836(4)
N4 N -0.02264(6) 1.0680(2) 0.35846(4)
C9 C -0.06059(7) 0.9479(3) 0.30659(4)
H7 H -0.02210 0.83170 0.28700
C10 C -0.16088(7) 0.9839(3) 0.27666(4)
C11 C -0.22280(7) 1.1389(3) 0.30382(4)
H8 H -0.19920 1.22370 0.34280
C12 C -0.31745(7) 1.1700(3) 0.27464(4)
H9 H -0.35910 1.27730 0.29290
C13 C -0.34984(7) 1.0393(3) 0.21777(4)
C14 C -0.29116(7) 0.8799(3) 0.18995(4)
H10 H -0.31560 0.78920 0.15140
C15 C -0.19622(7) 0.8552(3) 0.21937(4)
H11 H -0.15490 0.75060 0.20060
N5 N -0.44958(6) 1.0757(3) 0.18514(4)
O1 O -0.49891(6) 1.2622(3) 0.20541(4)
O2 O -0.47904(6) 0.9187(3) 0.13841(4)
#END
