
#######################################################################
#
#                 Cambridge Crystallographic Data Centre
#                                CCDC
#
#######################################################################
#
# If this CIF has been generated from an entry in the Cambridge
# Structural Database, then it will include bibliographic, chemical,
# crystal, experimental, refinement or atomic coordinate data resulting
# from the CCDC's data processing and validation procedures.
#
#######################################################################

data_CSD_CIF_GUVDIK
_audit_creation_date 2003-05-28
_audit_creation_method CSD-ConQuest-V1
_database_code_CSD GUVDIK
_database_code_depnum_ccdc_archive 'CCDC 195415'
_chemical_formula_sum 'C30 H19 N7 O10'
_chemical_formula_moiety
;
C30 H19 N7 O10
;
_journal_coden_Cambridge 177
_journal_volume 1
_journal_year 2003
_journal_page_first 741
_journal_name_full 'Org.Biomol.Chem. '
loop_
_publ_author_name
"S.Camiolo"
"P.A.Gale"
"M.B.Hursthouse"
"M.E.Light"
_chemical_name_systematic
;
N,N'-bis(3,5-Dinitrophenyl)-3,4-diphenyl-1H-pyrrole-2,5-dicarboxamide
;
_cell_volume   2693.772
_exptl_crystal_colour 'colorless'
_exptl_crystal_density_diffrn 1.572
_exptl_crystal_description 'prism'
_exptl_crystal_preparation 'dichloromethane'
_diffrn_ambient_temperature 120
#These two values have been output from a single CSD field.
_refine_ls_R_factor_gt 0.055
_refine_ls_wR_factor_gt 0.055
_symmetry_cell_setting monoclinic
_symmetry_space_group_name_H-M 'P 21/c'
_symmetry_Int_Tables_number 14
loop_
_symmetry_equiv_pos_site_id
_symmetry_equiv_pos_as_xyz
1 x,y,z
2 x,1/2-y,1/2+z
3 -x,-y,-z
4 -x,-1/2+y,-1/2-z
_cell_length_a 20.3034(11)
_cell_length_b 10.1636(5)
_cell_length_c 13.4570(6)
_cell_angle_alpha 90
_cell_angle_beta 104.057(2)
_cell_angle_gamma 90
_cell_formula_units_Z 4
loop_
_atom_type_symbol
_atom_type_radius_bond
C 0.68
H 0.23
N 0.68
O 0.68
loop_
_atom_site_label
_atom_site_type_symbol
_atom_site_fract_x
_atom_site_fract_y
_atom_site_fract_z
C1 C -0.40669(14) 1.0375(3) -0.2050(2)
H1 H -0.41510 0.97830 -0.26130
C2 C -0.43992(15) 1.1556(3) -0.2127(2)
C3 C -0.42798(15) 1.2483(3) -0.1355(2)
H2 H -0.44970 1.33180 -0.14330
C4 C -0.38242(15) 1.2116(3) -0.0466(2)
C5 C -0.34863(14) 1.0928(3) -0.0319(2)
H3 H -0.31840 1.07160 0.03190
C6 C -0.36028(14) 1.0051(3) -0.1136(2)
C7 C -0.26762(15) 0.8457(3) -0.0489(2)
C8 C -0.24326(14) 0.7157(3) -0.0705(2)
C9 C -0.26185(14) 0.6255(3) -0.1505(2)
C10 C -0.21605(14) 0.5188(3) -0.1269(2)
C11 C -0.17056(15) 0.5484(3) -0.0348(2)
C12 C -0.10639(15) 0.4869(3) 0.0234(2)
C13 C -0.02639(15) 0.3073(3) 0.0031(2)
C14 C 0.01781(14) 0.3106(3) 0.1000(2)
H4 H 0.01210 0.37320 0.14970
C15 C 0.06985(14) 0.2206(3) 0.1217(2)
C16 C 0.08126(14) 0.1269(3) 0.0543(2)
H5 H 0.11800 0.06650 0.07180
C17 C 0.03604(15) 0.1260(3) -0.0405(2)
C18 C -0.01630(15) 0.2143(3) -0.0679(2)
H6 H -0.04550 0.21200 -0.13480
C19 C -0.31778(14) 0.6361(3) -0.2445(2)
C20 C -0.36823(15) 0.5396(3) -0.2666(2)
H7 H -0.36670 0.46740 -0.22130
C21 C -0.42029(15) 0.5487(3) -0.3540(2)
H8 H -0.45420 0.48240 -0.36860
C22 C -0.42343(16) 0.6531(3) -0.4199(2)
H9 H -0.45960 0.65890 -0.47960
C23 C -0.37428(15) 0.7490(3) -0.3996(2)
H10 H -0.37670 0.82140 -0.44500
C24 C -0.32138(15) 0.7402(3) -0.3130(2)
H11 H -0.28710 0.80590 -0.30010
C25 C -0.21548(14) 0.3967(3) -0.1873(2)
C26 C -0.22702(14) 0.2750(3) -0.1461(2)
H12 H -0.23930 0.27220 -0.08240
C27 C -0.22091(15) 0.1589(3) -0.1963(2)
H13 H -0.22840 0.07690 -0.16690
C28 C -0.20386(15) 0.1627(3) -0.2897(2)
H14 H -0.19910 0.08310 -0.32430
C29 C -0.19366(16) 0.2824(3) -0.3328(2)
H15 H -0.18270 0.28490 -0.39760
C30 C -0.19938(14) 0.3985(3) -0.2816(2)
H16 H -0.19220 0.48030 -0.31150
N1 N -0.49155(13) 1.1836(3) -0.3074(2)
N2 N -0.37043(13) 1.3051(3) 0.0394(2)
N3 N -0.32903(12) 0.8820(2) -0.10999(18)
H17 H -0.35130 0.82130 -0.15150
N4 N -0.18831(12) 0.6659(2) -0.00170(18)
H18 H -0.16740 0.70450 0.05590
N5 N -0.08228(12) 0.3901(2) -0.02924(18)
H19 H -0.10550 0.37840 -0.09290
N6 N 0.11675(13) 0.2197(2) 0.2247(2)
N7 N 0.04281(14) 0.0217(2) -0.1136(2)
O1 O -0.50316(11) 1.0999(2) -0.37534(17)
O2 O -0.52156(11) 1.2890(2) -0.31318(17)
O3 O -0.36997(14) 1.4222(2) 0.01907(19)
O4 O -0.36157(11) 1.2602(2) 0.12555(19)
O5 O -0.23393(10) 0.9170(2) 0.01782(16)
O6 O -0.0772(1) 0.5250(2) 0.10779(16)
O7 O 0.10674(10) 0.2968(2) 0.28898(16)
O8 O 0.1639(1) 0.1413(2) 0.24050(16)
O9 O 0.08917(11) -0.0576(2) -0.08543(16)
O10 O 0.00039(11) 0.0177(2) -0.19608(17)
#END
