
#######################################################################
#
#                 Cambridge Crystallographic Data Centre
#                                CCDC
#
#######################################################################
#
# If this CIF has been generated from an entry in the Cambridge
# Structural Database, then it will include bibliographic, chemical,
# crystal, experimental, refinement or atomic coordinate data resulting
# from the CCDC's data processing and validation procedures.
#
#######################################################################

data_CSD_CIF_GUVTAS
_audit_creation_date 2003-05-28
_audit_creation_method CSD-ConQuest-V1
_database_code_CSD GUVTAS
_database_code_depnum_ccdc_archive 'CCDC 177408'
_chemical_formula_sum 'C19 H17 N3 O4'
_chemical_formula_moiety
;
C19 H17 N3 O4
;
_journal_coden_Cambridge 1088
_journal_year 2002
_journal_page_first 1249
_journal_name_full 'Synlett '
loop_
_publ_author_name
"J.Guillon"
"J.-M.Leger"
"S.Massip"
"C.The"
"C.Vidaillac"
"J.-P.Monti"
"C.Jarry"
_chemical_name_systematic
;
2-(Phenoxymethyl)-5-phenyl-6-nitro-2,3-dihydro-5H-oxazolo(3,2-a)pyrimidine
;
_chemical_melting_point 522.15
_cell_volume   1692.320
_exptl_crystal_colour 'yellow'
_exptl_crystal_density_diffrn 1.379
_exptl_crystal_preparation 'methanol/chloroform (1'
_diffrn_ambient_temperature 296
#These two values have been output from a single CSD field.
_refine_ls_R_factor_gt 0.0421
_refine_ls_wR_factor_gt 0.0421
_symmetry_cell_setting monoclinic
_symmetry_space_group_name_H-M 'P 21/c'
_symmetry_Int_Tables_number 14
loop_
_symmetry_equiv_pos_site_id
_symmetry_equiv_pos_as_xyz
1 x,y,z
2 -x,1/2+y,1/2-z
3 -x,-y,-z
4 x,-1/2-y,-1/2+z
_cell_length_a 15.577(5)
_cell_length_b 5.855(1)
_cell_length_c 18.970(3)
_cell_angle_alpha 90
_cell_angle_beta 102.00(2)
_cell_angle_gamma 90
_cell_formula_units_Z 4
loop_
_atom_type_symbol
_atom_type_radius_bond
C 0.68
H 0.23
N 0.68
O 0.68
loop_
_atom_site_label
_atom_site_type_symbol
_atom_site_fract_x
_atom_site_fract_y
_atom_site_fract_z
C1 C 0.2511(2) -0.2878(4) 0.1294(1)
C2 C 0.2146(2) -0.4878(5) 0.0975(1)
C3 C 0.1250(3) -0.5079(8) 0.0738(2)
C4 C 0.0709(2) -0.3312(9) 0.0825(2)
C5 C 0.1055(2) -0.1316(7) 0.1155(2)
C6 C 0.1960(2) -0.1108(5) 0.1385(1)
C7 C 0.3497(2) -0.2648(4) 0.1538(1)
N1 N 0.3722(1) -0.1315(3) 0.2202(1)
C8 C 0.4132(1) 0.0680(4) 0.2255(1)
N2 N 0.4409(1) 0.1823(4) 0.1754(1)
C9 C 0.4286(2) 0.0661(5) 0.1117(1)
C10 C 0.3906(2) -0.1397(4) 0.0999(1)
N3 N 0.3938(2) -0.2551(5) 0.0347(1)
O1 O 0.4125(1) -0.1507(4) -0.0166(1)
O2 O 0.3769(2) -0.4608(4) 0.0316(1)
C11 C 0.3514(2) -0.2019(4) 0.2882(1)
C12 C 0.3894(2) -0.0046(5) 0.3379(1)
O3 O 0.4261(1) 0.1522(3) 0.2916(1)
C13 C 0.3265(2) 0.1251(5) 0.3718(1)
O4 O 0.2571(1) 0.2047(3) 0.3160(1)
C14 C 0.2018(2) 0.3675(5) 0.3345(1)
C15 C 0.2055(2) 0.4413(6) 0.4039(2)
C16 C 0.1505(3) 0.6163(8) 0.4156(2)
C17 C 0.0923(3) 0.7111(7) 0.3591(3)
C18 C 0.0869(2) 0.6307(6) 0.2908(2)
C19 C 0.1419(2) 0.4591(5) 0.2790(2)
H1 H 0.25090 -0.60970 0.09190
H2 H 0.10130 -0.64220 0.05180
H3 H 0.01060 -0.34540 0.06620
H4 H 0.06870 -0.01220 0.12220
H5 H 0.21950 0.02390 0.16030
H6 H 0.37590 -0.41710 0.16210
H7 H 0.44800 0.13480 0.07370
H8 H 0.37950 -0.34570 0.30470
H9 H 0.28860 -0.21610 0.28430
H10 H 0.43700 -0.06270 0.37580
H11 H 0.30330 0.02730 0.40460
H12 H 0.35600 0.25340 0.39890
H13 H 0.24430 0.37460 0.44230
H14 H 0.15300 0.66980 0.46220
H15 H 0.05630 0.83080 0.36730
H16 H 0.04620 0.69200 0.25270
H17 H 0.13840 0.40440 0.23240
#END
