
#######################################################################
#
#                 Cambridge Crystallographic Data Centre
#                                CCDC
#
#######################################################################
#
# If this CIF has been generated from an entry in the Cambridge
# Structural Database, then it will include bibliographic, chemical,
# crystal, experimental, refinement or atomic coordinate data resulting
# from the CCDC's data processing and validation procedures.
#
#######################################################################

data_CSD_CIF_GUWBIJ
_audit_creation_date 2003-05-28
_audit_creation_method CSD-ConQuest-V1
_database_code_CSD GUWBIJ
_database_code_depnum_ccdc_archive 'CCDC 206771'
_chemical_formula_sum 'C23 H28 N2 O9'
_chemical_formula_moiety
;
C23 H28 N2 O9
;
_journal_coeditor_code "IUCr LH6034"
_journal_coden_Cambridge 1370
_journal_volume 59
_journal_year 2003
_journal_page_first o306
_journal_name_full 'Acta Crystallogr.,Sect.E:Struct.Rep.Online '
loop_
_publ_author_name
"V.Vrabel"
"D.Oktavec"
"S.Marchalin"
_chemical_name_systematic
;
2,3-Dimethyl 5-isopropyl 
1-ethoxymethyl-6-methyl-4-(3-nitrophenyl)-1,4-dihydropyridine-2,3,5-tricarboxy
late
;
_cell_volume   2387.646
_exptl_crystal_colour 'yellow'
_exptl_crystal_density_diffrn 1.325
_exptl_crystal_description 'block'
_exptl_crystal_preparation 'ethanol'
_diffrn_ambient_temperature 293
#These two values have been output from a single CSD field.
_refine_ls_R_factor_gt 0.0588
_refine_ls_wR_factor_gt 0.0588
_symmetry_cell_setting monoclinic
_symmetry_space_group_name_H-M 'P 21/c'
_symmetry_Int_Tables_number 14
loop_
_symmetry_equiv_pos_site_id
_symmetry_equiv_pos_as_xyz
1 x,y,z
2 x,1/2-y,1/2+z
3 -x,-y,-z
4 -x,-1/2+y,-1/2-z
_cell_length_a 9.291(4)
_cell_length_b 9.589(3)
_cell_length_c 27.175(13)
_cell_angle_alpha 90
_cell_angle_beta 99.53(3)
_cell_angle_gamma 90
_cell_formula_units_Z 4
loop_
_atom_type_symbol
_atom_type_radius_bond
C 0.68
H 0.23
N 0.68
O 0.68
loop_
_atom_site_label
_atom_site_type_symbol
_atom_site_fract_x
_atom_site_fract_y
_atom_site_fract_z
O1 O 0.7279(3) -0.4152(2) 0.67898(9)
O2 O 0.5845(2) -0.2275(2) 0.79432(6)
O3 O 0.8117(2) -0.23776(18) 0.77752(6)
O4 O 0.74316(19) 0.05575(17) 0.78769(5)
O5 O 0.7679(2) 0.1972(2) 0.72510(6)
O6 O 0.7651(2) 0.3403(2) 0.51954(7)
O7 O 0.9599(2) 0.2487(2) 0.50037(6)
O8 O 0.2915(2) -0.04339(18) 0.55522(7)
O9 O 0.41566(17) 0.14887(18) 0.57961(5)
N1 N 0.5540(2) -0.2373(2) 0.68197(7)
N2 N 0.8597(3) 0.2523(3) 0.52454(8)
C1 C 0.6297(3) -0.1459(3) 0.71601(8)
C2 C 0.6513(3) -0.0145(3) 0.70464(8)
C3 C 0.6097(2) 0.0382(2) 0.65277(7)
H1 H 0.57430 0.13410 0.65450
C4 C 0.4848(2) -0.0502(3) 0.62581(8)
C5 C 0.4680(3) -0.1832(3) 0.63865(9)
C6 C 0.5879(3) -0.3856(3) 0.6879(1)
H2 H 0.57950 -0.41420 0.72150
H3 H 0.51760 -0.43860 0.66490
C7 C 0.7411(4) -0.4476(4) 0.63160(12)
H4 H 0.70240 -0.37190 0.60960
H5 H 0.68430 -0.53060 0.62130
C8 C 0.8964(4) -0.4725(3) 0.62678(11)
H6 H 0.90240 -0.49550 0.59280
H7 H 0.93440 -0.54820 0.64810
H8 H 0.95230 -0.38980 0.63630
C9 C 0.6712(4) -0.2069(3) 0.76746(9)
C10 C 0.8600(3) -0.2995(3) 0.82578(9)
H9 H 0.96150 -0.32340 0.82900
H10 H 0.80410 -0.38220 0.82910
H11 H 0.84670 -0.23420 0.85140
C11 C 0.7239(3) 0.0806(3) 0.74377(10)
C12 C 0.8348(3) 0.2998(3) 0.76061(9)
H12 H 0.84790 0.38530 0.74350
H13 H 0.92790 0.26610 0.77690
H14 H 0.77290 0.31620 0.78500
C13 C 0.7348(3) 0.0391(3) 0.62293(8)
C14 C 0.7456(3) 0.1443(2) 0.58971(8)
H15 H 0.68010 0.21840 0.58650
C15 C 0.8547(3) 0.1393(3) 0.56097(9)
C16 C 0.9559(3) 0.0352(3) 0.56523(9)
H16 H 1.02930 0.03450 0.54570
C17 C 0.9460(3) -0.0681(3) 0.59904(9)
H17 H 1.01290 -0.14100 0.60260
C18 C 0.8373(3) -0.0647(3) 0.62785(8)
H18 H 0.83350 -0.13470 0.65130
C19 C 0.3870(3) 0.0138(3) 0.58384(9)
C20 C 0.3283(3) 0.2257(3) 0.53940(9)
H19 H 0.22660 0.19430 0.53520
C21 C 0.3386(4) 0.3747(3) 0.55625(10)
H20 H 0.26680 0.42920 0.53510
H21 H 0.43420 0.41000 0.55440
H22 H 0.32140 0.38020 0.59010
C22 C 0.3874(3) 0.2032(3) 0.49220(9)
H23 H 0.48560 0.23790 0.49610
H24 H 0.32780 0.25180 0.46540
H25 H 0.38700 0.10530 0.48480
C23 C 0.3559(3) -0.2825(2) 0.61175(8)
H26 H 0.36540 -0.37150 0.62820
H27 H 0.37110 -0.29330 0.57790
H28 H 0.25990 -0.24600 0.61210
#END
