
#######################################################################
#
#                 Cambridge Crystallographic Data Centre
#                                CCDC
#
#######################################################################
#
# If this CIF has been generated from an entry in the Cambridge
# Structural Database, then it will include bibliographic, chemical,
# crystal, experimental, refinement or atomic coordinate data resulting
# from the CCDC's data processing and validation procedures.
#
#######################################################################

data_CSD_CIF_GUYSIC
_audit_creation_date 2003-08-07
_audit_creation_method CSD-ConQuest-V1
_database_code_CSD GUYSIC
_database_code_depnum_ccdc_archive 'CCDC 176814'
_chemical_formula_sum 'C27 H46 N2 O3'
_chemical_formula_moiety
;
C27 H46 N2 O3
;
_journal_coden_Cambridge 1277
_journal_volume 107
_journal_year 2003
_journal_page_first 147
_journal_name_full 'J.Phys.Chem.A '
loop_
_publ_author_name
"S.Sharma"
"T.P.Radhakrishnan"
_chemical_name_systematic
;
N-(4-Nitrophenyl)-O-hexadecyl-(S)-prolinol
;
_chemical_melting_point 346.15
_cell_volume   2658.492
_exptl_crystal_colour 'yellow'
_exptl_crystal_density_diffrn 1.116
_exptl_special_details
;
Melting point range 346.15-349.15K

;
_exptl_crystal_description 'plate'
_exptl_crystal_preparation 'hexane/dichloromethane'
_diffrn_ambient_temperature 293
#These two values have been output from a single CSD field.
_refine_ls_R_factor_gt 0.0598
_refine_ls_wR_factor_gt 0.0598
_symmetry_cell_setting orthorhombic
_symmetry_space_group_name_H-M 'P 21 21 21'
_symmetry_Int_Tables_number 19
loop_
_symmetry_equiv_pos_site_id
_symmetry_equiv_pos_as_xyz
1 x,y,z
2 1/2-x,-y,1/2+z
3 -x,1/2+y,1/2-z
4 1/2+x,1/2-y,-z
_cell_length_a 5.1217(19)
_cell_length_b 8.7292(17)
_cell_length_c 59.463(9)
_cell_angle_alpha 90
_cell_angle_beta 90
_cell_angle_gamma 90
_cell_formula_units_Z 4
loop_
_atom_type_symbol
_atom_type_radius_bond
C 0.68
H 0.23
N 0.68
O 0.68
loop_
_atom_site_label
_atom_site_type_symbol
_atom_site_fract_x
_atom_site_fract_y
_atom_site_fract_z
N1 N 0.5753(16) 1.6017(9) -0.20328(12)
O1 O 0.7250(15) 1.3326(8) -0.15759(10)
N2 N 0.9508(19) 1.5493(12) -0.29097(14)
O2 O 1.121(2) 1.4587(11) -0.29521(14)
O3 O 0.861(2) 1.6342(12) -0.30507(13)
C1 C 0.659(2) 1.5829(10) -0.22434(15)
C2 C 0.865(2) 1.4823(11) -0.22985(15)
H1 H 0.93820 1.42170 -0.21860
C3 C 0.959(2) 1.4720(12) -0.25125(17)
H2 H 1.09870 1.40750 -0.25440
C4 C 0.845(2) 1.5584(12) -0.26847(16)
C5 C 0.627(2) 1.6509(12) -0.26351(15)
H3 H 0.54050 1.70180 -0.27500
C6 C 0.544(2) 1.6660(12) -0.24215(14)
H4 H 0.40720 1.73280 -0.23900
C7 C 0.389(2) 1.7255(13) -0.19703(15)
H5 H 0.21550 1.70370 -0.20270
H6 H 0.44630 1.82360 -0.20290
C8 C 0.391(2) 1.7250(15) -0.17161(17)
H7 H 0.36700 1.82770 -0.16580
H8 H 0.25440 1.65950 -0.16580
C9 C 0.657(2) 1.6638(12) -0.16525(16)
H9 H 0.65460 1.62000 -0.15030
H10 H 0.78790 1.74400 -0.16580
C10 C 0.7096(17) 1.5415(11) -0.18287(12)
H11 H 0.89770 1.53290 -0.18560
C11 C 0.598(2) 1.3867(11) -0.17678(15)
H12 H 0.41220 1.39570 -0.17390
H13 H 0.62300 1.31560 -0.18910
C12 C 0.636(3) 1.1865(12) -0.15103(15)
H14 H 0.68500 1.11050 -0.16220
H15 H 0.44730 1.18650 -0.14960
C13 C 0.761(2) 1.1494(13) -0.12856(16)
H16 H 0.73640 1.23550 -0.11850
H17 H 0.94770 1.13630 -0.13080
C14 C 0.652(2) 1.0052(12) -0.11746(15)
H18 H 0.46370 1.01570 -0.11610
H19 H 0.68600 0.91810 -0.12710
C15 C 0.764(3) 0.9732(12) -0.09456(16)
H20 H 0.95020 0.95670 -0.09610
H21 H 0.73990 1.06350 -0.08530
C16 C 0.648(2) 0.8372(12) -0.08237(16)
H22 H 0.68010 0.74560 -0.09120
H23 H 0.46050 0.85090 -0.08130
C17 C 0.756(2) 0.8134(11) -0.05897(14)
H24 H 0.72690 0.90550 -0.05020
H25 H 0.94320 0.79750 -0.06000
C18 C 0.634(2) 0.6773(11) -0.04670(15)
H26 H 0.44750 0.69500 -0.04510
H27 H 0.65680 0.58570 -0.05570
C19 C 0.753(2) 0.6509(11) -0.02341(15)
H28 H 0.93890 0.63340 -0.02500
H29 H 0.72900 0.74230 -0.01440
C20 C 0.631(2) 0.5151(11) -0.01132(15)
H30 H 0.44490 0.53290 -0.00970
H31 H 0.65370 0.42390 -0.02040
C21 C 0.750(2) 0.4873(12) 0.01187(14)
H32 H 0.72280 0.57770 0.02110
H33 H 0.93640 0.47270 0.01020
C22 C 0.636(2) 0.3501(11) 0.02392(16)
H34 H 0.44950 0.36510 0.02570
H35 H 0.66160 0.25970 0.01470
C23 C 0.757(2) 0.3223(11) 0.04702(13)
H36 H 0.73840 0.41380 0.05610
H37 H 0.94260 0.30200 0.04530
C24 C 0.627(2) 0.1850(12) 0.05924(16)
H38 H 0.44210 0.20630 0.06090
H39 H 0.64380 0.09460 0.04990
C25 C 0.7410(2) 0.1508(12) 0.08205(14)
H40 H 0.71720 0.23960 0.09170
H41 H 0.92670 0.13320 0.08050
C26 C 0.617(3) 0.0122(13) 0.09330(17)
H42 H 0.64310 -0.07700 0.08380
H43 H 0.43050 0.02910 0.09470
C27 C 0.732(3) -0.0202(15) 0.11689(17)
H44 H 0.64510 -0.10700 0.12340
H45 H 0.70690 0.06770 0.12630
H46 H 0.91520 -0.04150 0.11560
#END
