
#######################################################################
#
#                 Cambridge Crystallographic Data Centre
#                                CCDC
#
#######################################################################
#
# If this CIF has been generated from an entry in the Cambridge
# Structural Database, then it will include bibliographic, chemical,
# crystal, experimental, refinement or atomic coordinate data resulting
# from the CCDC's data processing and validation procedures.
#
#######################################################################

data_CSD_CIF_GUYSOI
_audit_creation_date 2003-08-07
_audit_creation_method CSD-ConQuest-V1
_database_code_CSD GUYSOI
_database_code_depnum_ccdc_archive 'CCDC 176815'
_chemical_formula_sum 'C28 H48 N2 O3'
_chemical_formula_moiety
;
C28 H48 N2 O3
;
_journal_coden_Cambridge 1277
_journal_volume 107
_journal_year 2003
_journal_page_first 147
_journal_name_full 'J.Phys.Chem.A '
loop_
_publ_author_name
"S.Sharma"
"T.P.Radhakrishnan"
_chemical_name_systematic
;
N-(4-Nitrophenyl)-(3R)-octadecyloxy-pyrrolidine
;
_chemical_melting_point 355.15
_cell_volume   1373.490
_exptl_crystal_density_diffrn 1.114
_exptl_special_details
;
Melting point range 355.15-357.15K

;
_exptl_crystal_description 'plate'
_exptl_crystal_preparation 'chloroform'
_diffrn_ambient_temperature 293
#These two values have been output from a single CSD field.
_refine_ls_R_factor_gt 0.0463
_refine_ls_wR_factor_gt 0.0463
_symmetry_cell_setting monoclinic
_symmetry_space_group_name_H-M 'P 21'
_symmetry_Int_Tables_number 4
loop_
_symmetry_equiv_pos_site_id
_symmetry_equiv_pos_as_xyz
1 x,y,z
2 -x,1/2+y,-z
_cell_length_a 8.2829(10)
_cell_length_b 5.306(3)
_cell_length_c 31.269(5)
_cell_angle_alpha 90
_cell_angle_beta 91.897(11)
_cell_angle_gamma 90
_cell_formula_units_Z 2
loop_
_atom_type_symbol
_atom_type_radius_bond
C 0.68
H 0.23
N 0.68
O 0.68
loop_
_atom_site_label
_atom_site_type_symbol
_atom_site_fract_x
_atom_site_fract_y
_atom_site_fract_z
O1 O 0.2908(6) 0.2730(14) 0.60869(14)
O2 O 0.4566(6) -0.0192(14) 0.59547(14)
O3 O 0.2392(4) 0.3523(8) 0.32629(10)
N1 N 0.1479(5) 0.1356(10) 0.41240(13)
N2 N 0.3503(7) 0.1227(15) 0.58450(17)
C1 C 0.1977(6) 0.1343(12) 0.45386(15)
C2 C 0.3120(6) -0.0406(13) 0.46940(16)
H1 H 0.35590 -0.15580 0.45060
C3 C 0.3604(6) -0.0455(13) 0.51172(16)
H2 H 0.43500 -0.16480 0.52160
C4 C 0.2978(6) 0.1274(13) 0.53968(15)
C5 C 0.1854(6) 0.3007(13) 0.52508(17)
H3 H 0.14310 0.41630 0.54400
C6 C 0.1355(6) 0.3047(14) 0.48312(15)
H4 H 0.05900 0.42250 0.47380
C7 C 0.0171(6) 0.2972(14) 0.39560(16)
H5 H 0.04860 0.47330 0.39610
H6 H -0.08000 0.27650 0.41170
C8 C -0.0073(6) 0.2018(15) 0.35011(16)
H7 H -0.08010 0.05860 0.34900
H8 H -0.05080 0.33330 0.33150
C9 C 0.1609(6) 0.1256(14) 0.33710(16)
H9 H 0.15770 0.00530 0.31330
C10 C 0.2333(6) 0.0090(12) 0.37822(14)
H10 H 0.21470 -0.17150 0.37880
H11 H 0.34860 0.04050 0.38080
C11 C 0.3929(6) 0.3163(12) 0.30779(17)
H12 H 0.38180 0.20490 0.28330
H13 H 0.46720 0.23920 0.32860
C12 C 0.4576(6) 0.5663(11) 0.29411(15)
H14 H 0.46330 0.67890 0.31850
H15 H 0.38400 0.63970 0.27280
C13 C 0.6237(6) 0.5427(12) 0.27567(16)
H16 H 0.69650 0.46700 0.29700
H17 H 0.61730 0.43050 0.25120
C14 C 0.6930(6) 0.7923(12) 0.26194(16)
H18 H 0.69920 0.90410 0.28650
H19 H 0.61980 0.86790 0.24070
C15 C 0.8596(6) 0.7716(11) 0.24330(16)
H20 H 0.93390 0.70440 0.26510
H21 H 0.85450 0.65230 0.21980
C16 C 0.9261(6) 1.0176(11) 0.22729(16)
H22 H 0.93220 1.13670 0.25080
H23 H 0.85160 1.08550 0.20560
C17 C 1.0928(6) 0.9945(11) 0.20836(15)
H24 H 1.16630 0.91990 0.22960
H25 H 1.08580 0.88140 0.18400
C18 C 1.1617(6) 1.2436(12) 0.19413(16)
H26 H 1.08830 1.31740 0.17280
H27 H 1.16750 1.35700 0.21850
C19 C 1.3274(6) 1.2246(11) 0.17560(16)
H28 H 1.40100 1.15340 0.19710
H29 H 1.32180 1.10830 0.15170
C20 C 1.3966(6) 1.4698(12) 0.16053(16)
H30 H 1.40300 1.58560 0.18450
H31 H 1.32250 1.54170 0.13920
C21 C 1.5620(6) 1.4511(12) 0.14162(16)
H32 H 1.55560 1.33680 0.11740
H33 H 1.63600 1.37800 0.16290
C22 C 1.6319(6) 1.7018(11) 0.12678(16)
H34 H 1.55710 1.77730 0.10600
H35 H 1.64150 1.81490 0.15110
C23 C 1.7958(6) 1.6769(11) 0.10697(17)
H36 H 1.86980 1.59760 0.12760
H37 H 1.78550 1.56660 0.08230
C24 C 1.8672(6) 1.9228(11) 0.09320(16)
H38 H 1.87980 2.03180 0.11800
H39 H 1.79220 2.00400 0.07310
C25 C 2.0294(6) 1.8963(12) 0.07253(17)
H40 H 2.01650 1.78660 0.04780
H41 H 2.10400 1.81470 0.09270
C26 C 2.1038(6) 2.1423(13) 0.05832(16)
H42 H 2.02920 2.22540 0.03840
H43 H 2.11910 2.25130 0.08300
C27 C 2.2632(7) 2.1087(14) 0.03738(19)
H44 H 2.24700 2.00430 0.01210
H45 H 2.33640 2.01970 0.05700
C28 C 2.3420(7) 2.3540(14) 0.02441(19)
H46 H 2.44540 2.31920 0.01280
H47 H 2.35580 2.46090 0.04900
H48 H 2.27450 2.43710 0.00320
#END
