
#######################################################################
#
#                 Cambridge Crystallographic Data Centre
#                                CCDC
#
#######################################################################
#
# If this CIF has been generated from an entry in the Cambridge
# Structural Database, then it will include bibliographic, chemical,
# crystal, experimental, refinement or atomic coordinate data resulting
# from the CCDC's data processing and validation procedures.
#
#######################################################################

data_CSD_CIF_GUZCAG
_audit_creation_date 2011-03-25
_audit_creation_method CSD-ConQuest-V1
_database_code_CSD GUZCAG
_database_code_depnum_ccdc_archive 'CCDC 750328'
_chemical_formula_sum 'C21 H18 N4 O2'
_chemical_formula_moiety
;
C21 H18 N4 O2
;
_journal_coden_Cambridge 440
_journal_volume 34
_journal_year 2010
_journal_page_first 2220
_journal_name_full 'New J.Chem. '
loop_
_publ_author_name
"B.Trzewik"
"T.Seidler"
"E.Broclawik"
"K.Stadnicka"
_chemical_name_systematic
;
(E)-5-(4-Methylpyridin-2-yl)-2-phenyl-3-(phenylimino)-1,2,5-oxadiazinan-4-one
;
_chemical_melting_point 414
_cell_volume    900.908
_exptl_crystal_colour 'yellow'
_exptl_crystal_density_diffrn 1.321
_exptl_special_details
;
Melting point range 414-416K

;
_exptl_crystal_description 'block'
_exptl_crystal_preparation 'acetonitrile'
_diffrn_ambient_temperature 293
#These two values have been output from a single CSD field.
_refine_ls_R_factor_gt 0.0482
_refine_ls_wR_factor_gt 0.0482
_symmetry_cell_setting triclinic
_symmetry_space_group_name_H-M 'P -1'
_symmetry_Int_Tables_number 2
loop_
_symmetry_equiv_pos_site_id
_symmetry_equiv_pos_as_xyz
1 x,y,z
2 -x,-y,-z
_cell_length_a 10.3512(3)
_cell_length_b 10.5145(3)
_cell_length_c 10.8469(4)
_cell_angle_alpha 116.607(2)
_cell_angle_beta 115.147(2)
_cell_angle_gamma 94.549(2)
_cell_formula_units_Z 2
loop_
_atom_type_symbol
_atom_type_radius_bond
C 0.68
H 0.23
N 0.68
O 0.68
loop_
_atom_site_label
_atom_site_type_symbol
_atom_site_fract_x
_atom_site_fract_y
_atom_site_fract_z
O1 O 0.38980(13) 0.17071(11) -0.02932(13)
N1 N 0.30162(16) 0.20689(14) 0.04425(16)
C1 C 0.29779(16) 0.12475(15) 0.11377(17)
N2 N 0.27148(16) 0.17404(14) 0.22745(15)
C2 C 0.31240(18) -0.03111(16) 0.02985(18)
O2 O 0.33336(15) -0.10304(12) 0.09377(14)
N3 N 0.29457(15) -0.08180(13) -0.11848(15)
C3 C 0.3067(2) 0.02594(17) -0.16773(19)
H1 H 0.35720 -0.00030 -0.22880
H2 H 0.20660 0.02280 -0.23540
C4 C 0.29530(17) 0.35499(16) 0.09364(17)
C5 C 0.1895(2) 0.39748(19) 0.1343(2)
H3 H 0.12730 0.33220 0.13820
C6 C 0.1767(2) 0.5379(2) 0.1692(2)
H4 H 0.10560 0.56650 0.19710
C7 C 0.2664(2) 0.63527(19) 0.1636(2)
H5 H 0.25660 0.72930 0.18700
C8 C 0.3702(3) 0.5926(2) 0.1233(3)
H6 H 0.43090 0.65800 0.11820
C9 C 0.3873(2) 0.45368(19) 0.0898(2)
H7 H 0.46040 0.42710 0.06470
C10 C 0.24635(18) 0.08996(16) 0.29176(18)
C11 C 0.10568(19) -0.0107(2) 0.2193(2)
H8 H 0.02730 -0.02930 0.12260
C12 C 0.0803(2) -0.0844(2) 0.2896(2)
H9 H -0.01480 -0.15300 0.23920
C13 C 0.1944(2) -0.05695(19) 0.4331(2)
H10 H 0.17730 -0.10690 0.47990
C14 C 0.3337(2) 0.0451(2) 0.5066(2)
H11 H 0.41180 0.06400 0.60370
C15 C 0.3595(2) 0.1201(2) 0.4381(2)
H12 H 0.45370 0.19140 0.49080
N4 N 0.33572(19) -0.24448(16) -0.31704(18)
C16 C 0.27954(18) -0.23327(16) -0.22490(18)
C17 C 0.2078(2) -0.35577(18) -0.2328(2)
H13 H 0.17010 -0.34210 -0.16540
C18 C 0.1933(2) -0.49908(19) -0.3428(2)
C19 C 0.2528(2) -0.5113(2) -0.4383(2)
H14 H 0.24590 -0.60550 -0.51320
C20 C 0.3220(3) -0.3837(2) -0.4220(2)
H15 H 0.36160 -0.39410 -0.48720
C21 C 0.1159(3) -0.6361(2) -0.3567(3)
H16 H 0.08220 -0.60560 -0.28110
H17 H 0.18560 -0.68870 -0.33380
H18 H 0.03040 -0.70160 -0.46400
H19? H 0.11670 -0.72500 -0.43820
H20? H 0.01320 -0.64190 -0.38550
H21? H 0.16840 -0.62900 -0.25530
#END
