
#######################################################################
#
#                 Cambridge Crystallographic Data Centre
#                                CCDC
#
#######################################################################
#
# If this CIF has been generated from an entry in the Cambridge
# Structural Database, then it will include bibliographic, chemical,
# crystal, experimental, refinement or atomic coordinate data resulting
# from the CCDC's data processing and validation procedures.
#
#######################################################################

data_CSD_CIF_GUZJAO
_audit_creation_date 2016-01-25
_audit_creation_method CSD-ConQuest-V1
_database_code_CSD GUZJAO
_database_code_depnum_ccdc_archive 'CCDC 1437725'
_chemical_formula_sum 'C29 H21 N3 O8'
_chemical_formula_moiety
;
C29 H21 N3 O8
;
_journal_coden_Cambridge 1695
_journal_volume 4
_journal_year 2016
_journal_page_first 3995
_journal_name_full 'J.Mater.Chem.C '
loop_
_publ_author_name
"S.Selvaraju"
"S.Adhikari"
"R.A.Hopson"
"Shuo Dai"
"A.L.Rheingold"
"M.F.Borunda"
"T.L.Nelson"
_chemical_name_systematic
;
methyl 
5,6-dimethoxy-1-methyl-4,7-bis((4-nitrophenyl)ethynyl)-1H-indole-2-carboxylate

;
_cell_volume   2496.942
_exptl_crystal_colour 'yellow'
_exptl_crystal_density_diffrn 1.435
_exptl_crystal_description 'rod'
_diffrn_ambient_temperature 100
#These two values have been output from a single CSD field.
_refine_ls_R_factor_gt 0.0399
_refine_ls_wR_factor_gt 0.0399
_symmetry_cell_setting monoclinic
_symmetry_space_group_name_H-M 'P 21/c'
_symmetry_Int_Tables_number 14
loop_
_symmetry_equiv_pos_site_id
_symmetry_equiv_pos_as_xyz
1 x,y,z
2 -x,1/2+y,1/2-z
3 -x,-y,-z
4 x,-1/2-y,-1/2+z
_cell_length_a 14.0196(3)
_cell_length_b 13.8603(4)
_cell_length_c 12.8511(4)
_cell_angle_alpha 90
_cell_angle_beta 90.778(1)
_cell_angle_gamma 90
_cell_formula_units_Z 4
loop_
_atom_type_symbol
_atom_type_radius_bond
C 0.68
H 0.23
N 0.68
O 0.68
loop_
_atom_site_label
_atom_site_type_symbol
_atom_site_fract_x
_atom_site_fract_y
_atom_site_fract_z
O1 O -0.47803(8) -0.32327(8) 0.99943(9)
O2 O -0.55456(7) -0.19384(9) 1.04135(9)
O3 O -0.12344(6) 0.22171(7) 1.00191(7)
O4 O -0.01108(7) 0.37816(6) 0.96731(7)
O5 O 0.26016(7) -0.09496(7) 0.73426(8)
O6 O 0.31137(7) 0.03270(7) 0.64241(8)
O7 O 0.45809(8) 0.81086(8) 0.79396(9)
O8 O 0.55953(8) 0.70614(9) 0.73746(9)
N1 N -0.48217(8) -0.23590(9) 1.01375(9)
N2 N 0.10560(8) 0.03027(7) 0.80361(8)
N3 N 0.48043(9) 0.72825(9) 0.76983(9)
C1 C 0.01840(12) 0.39034(11) 1.07379(11)
H1 H -0.00720 0.33750 1.11570
H2 H -0.00570 0.45200 1.09990
H3 H 0.08820 0.38990 1.07850
C2 C 0.40864(10) 0.65164(10) 0.78224(10)
C3 C 0.31779(10) 0.67663(10) 0.81230(11)
H4 H 0.30050 0.74230 0.82140
C4 C 0.25243(10) 0.60331(9) 0.82884(11)
H5 H 0.18950 0.61870 0.84970
C5 C 0.27865(9) 0.50648(9) 0.8150(1)
C6 C 0.21286(9) 0.42983(9) 0.83591(10)
C7 C 0.16047(9) 0.36366(9) 0.85407(10)
C8 C 0.09996(9) 0.28238(9) 0.87132(10)
C9 C 0.12437(9) 0.19017(9) 0.83154(10)
C10 C 0.06342(9) 0.11005(9) 0.84737(10)
C11 C -0.02310(9) 0.11897(9) 0.90173(10)
C12 C -0.09092(9) 0.04430(9) 0.91851(10)
C13 C -0.15579(9) -0.00963(9) 0.93631(10)
C14 C -0.23683(9) -0.06879(9) 0.95772(10)
C15 C -0.23789(10) -0.16717(9) 0.93237(10)
H6 H -0.18350 -0.19580 0.90160
C16 C -0.31769(10) -0.22289(10) 0.95193(10)
H7 H -0.31870 -0.28980 0.93570
C17 C -0.39580(9) -0.17849(10) 0.99573(10)
C18 C 0.43616(10) 0.55705(11) 0.76504(11)
H8 H 0.49880 0.54250 0.74240
C19 C 0.37058(10) 0.48427(10) 0.78147(11)
H9 H 0.38800 0.41900 0.77000
C20 C 0.19093(9) 0.05972(9) 0.76093(10)
C21 C 0.20412(9) 0.15699(9) 0.77623(10)
H10 H 0.25670 0.19450 0.75390
C22 C 0.25624(9) -0.01015(9) 0.7129(1)
C23 C 0.37596(10) -0.03162(11) 0.58838(12)
H11 H 0.41190 -0.07020 0.63940
H12 H 0.42040 0.00650 0.54690
H13 H 0.33910 -0.07450 0.54250
C24 C 0.06327(10) -0.06609(9) 0.79585(11)
H14 H 0.08240 -0.10440 0.85670
H15 H 0.08540 -0.09780 0.73250
H16 H -0.00640 -0.06050 0.79320
C25 C -0.39682(10) -0.08161(10) 1.02253(11)
H17 H -0.45160 -0.05360 1.05310
C26 C -0.31672(10) -0.02664(10) 1.00388(11)
H18 H -0.31570 0.03970 1.02230
C27 C -0.04371(9) 0.21031(9) 0.94252(10)
C28 C -0.20725(11) 0.24516(13) 0.94146(13)
H19 H -0.19900 0.30840 0.90880
H20 H -0.26280 0.24690 0.98690
H21 H -0.21720 0.19610 0.88740
C29 C 0.01620(9) 0.29049(9) 0.92744(10)
#END
