
#######################################################################
#
#                 Cambridge Crystallographic Data Centre
#                                CCDC
#
#######################################################################
#
# If this CIF has been generated from an entry in the Cambridge
# Structural Database, then it will include bibliographic, chemical,
# crystal, experimental, refinement or atomic coordinate data resulting
# from the CCDC's data processing and validation procedures.
#
#######################################################################

data_CSD_CIF_GUZKET
_audit_creation_date 2016-01-25
_audit_creation_method CSD-ConQuest-V1
_database_code_CSD GUZKET
_database_code_depnum_ccdc_archive 'CCDC 1439367'
_chemical_formula_sum 'C13 H11 N3 O4'
_chemical_formula_moiety
;
C13 H11 N3 O4
;
_journal_coden_Cambridge 493
_journal_volume 111
_journal_year 2016
_journal_page_first 1
_journal_name_full 'Eur.J.Med.Chem. '
loop_
_publ_author_name
"W.A.Loughlin"
"I.D.Jenkins"
"N.David Karis"
"S.S.Schweiker"
"P.C.Healy"
_chemical_name_systematic
;
2-(3-Nitro-2-oxopyridin-1(2H)-yl)-N-phenylacetamide
;
_chemical_melting_point 511
_cell_volume   1211.026
_exptl_crystal_colour 'yellow brown'
_exptl_crystal_density_diffrn 1.499
_exptl_special_details
;
Melting point range 511-513K
GP inhibitor activity

;
_exptl_crystal_description 'plate'
_exptl_crystal_preparation 'isopropanol/dichloromethane'
_diffrn_ambient_temperature 297
#These two values have been output from a single CSD field.
_refine_ls_R_factor_gt 0.0446
_refine_ls_wR_factor_gt 0.0446
_symmetry_cell_setting monoclinic
_symmetry_space_group_name_H-M 'P 21/c'
_symmetry_Int_Tables_number 14
loop_
_symmetry_equiv_pos_site_id
_symmetry_equiv_pos_as_xyz
1 x,y,z
2 -x,1/2+y,1/2-z
3 -x,-y,-z
4 x,-1/2-y,-1/2+z
_cell_length_a 12.5274(4)
_cell_length_b 5.2831(2)
_cell_length_c 18.4180(6)
_cell_angle_alpha 90
_cell_angle_beta 96.544(3)
_cell_angle_gamma 90
_cell_formula_units_Z 4
loop_
_atom_type_symbol
_atom_type_radius_bond
C 0.68
H 0.23
N 0.68
O 0.68
loop_
_atom_site_label
_atom_site_type_symbol
_atom_site_fract_x
_atom_site_fract_y
_atom_site_fract_z
O1 O -0.15896(9) 0.2115(2) 0.75818(7)
O2 O -0.02676(9) 0.2402(3) 0.91564(7)
O3 O -0.36993(11) 0.1023(3) 0.71066(8)
O4 O -0.46633(9) 0.1215(2) 0.79925(7)
N1 N -0.14546(9) 0.5645(2) 0.82980(7)
N2 N -0.38855(10) 0.1853(3) 0.76920(8)
N3 N 0.12665(10) 0.3107(3) 0.86400(8)
C1 C -0.20489(11) 0.3676(3) 0.79305(8)
C2 C -0.31635(11) 0.3743(3) 0.80491(8)
C3 C -0.35813(12) 0.5471(3) 0.84828(8)
C4 C -0.29279(13) 0.7321(3) 0.88333(9)
C5 C -0.18789(13) 0.7361(3) 0.87311(9)
C6 C -0.03021(11) 0.5636(3) 0.82495(10)
C7 C 0.02325(12) 0.3545(3) 0.87338(9)
C8 C 0.19760(12) 0.1331(3) 0.90246(8)
C9 C 0.30504(13) 0.1428(4) 0.89125(10)
C10 C 0.37720(15) -0.0280(4) 0.92596(11)
C11 C 0.34333(16) -0.2119(4) 0.97084(10)
C12 C 0.23722(15) -0.2206(4) 0.98218(10)
C13 C 0.16350(13) -0.0491(3) 0.94859(9)
H1 H -0.43070 0.54140 0.85450
H2 H -0.32070 0.85100 0.91330
H3 H -0.14350 0.85970 0.89640
H4 H 0.1528(14) 0.412(4) 0.835(1)
H5 H 0.00020 0.72630 0.84050
H6 H -0.01700 0.53590 0.77470
H7 H 0.32860 0.26460 0.86030
H8 H 0.44940 -0.01840 0.91890
H9 H 0.39180 -0.32900 0.99320
H10 H 0.21420 -0.34370 1.01300
H11 H 0.09180 -0.05670 0.95700
#END
