
#######################################################################
#
#                 Cambridge Crystallographic Data Centre
#                                CCDC
#
#######################################################################
#
# If this CIF has been generated from an entry in the Cambridge
# Structural Database, then it will include bibliographic, chemical,
# crystal, experimental, refinement or atomic coordinate data resulting
# from the CCDC's data processing and validation procedures.
#
#######################################################################

data_CSD_CIF_GUZSEA
_audit_creation_date 2011-03-25
_audit_creation_method CSD-ConQuest-V1
_database_code_CSD GUZSEA
_database_code_depnum_ccdc_archive 'CCDC 798299'
_chemical_formula_sum 'C21 H15 N1 O4'
_chemical_formula_moiety
;
C21 H15 N1 O4
;
_journal_coden_Cambridge 1336
_journal_volume 12
_journal_year 2010
_journal_page_first 1664
_journal_name_full 'Org.Lett. '
loop_
_publ_author_name
"M.Mondal"
"A.A.Ibrahim"
"K.A.Wheeler"
"N.J.Kerrigan"
_chemical_name_systematic
;
4-(4-Nitrophenyl)-3,3-diphenyloxetan-2-one
;
_cell_volume   1695.424
_exptl_crystal_colour 'colorless'
_exptl_crystal_density_diffrn 1.353
_exptl_crystal_description 'rod'
_diffrn_ambient_temperature 100
#These two values have been output from a single CSD field.
_refine_ls_R_factor_gt 0.0266
_refine_ls_wR_factor_gt 0.0266
_symmetry_cell_setting orthorhombic
_symmetry_space_group_name_H-M 'P 21 21 21'
_symmetry_Int_Tables_number 19
loop_
_symmetry_equiv_pos_site_id
_symmetry_equiv_pos_as_xyz
1 x,y,z
2 1/2-x,-y,1/2+z
3 1/2+x,1/2-y,-z
4 -x,1/2+y,1/2-z
_cell_length_a 9.5125(1)
_cell_length_b 10.8526(1)
_cell_length_c 16.4229(2)
_cell_angle_alpha 90
_cell_angle_beta 90
_cell_angle_gamma 90
_cell_formula_units_Z 4
loop_
_atom_type_symbol
_atom_type_radius_bond
C 0.68
H 0.23
N 0.68
O 0.68
loop_
_atom_site_label
_atom_site_type_symbol
_atom_site_fract_x
_atom_site_fract_y
_atom_site_fract_z
O1 O 0.00270(9) 0.35799(8) 0.94346(5)
O2 O -0.21962(9) 0.30505(9) 0.90528(5)
O3 O 0.64386(9) 0.34257(9) 0.69770(6)
O4 O 0.50517(10) 0.48149(10) 0.64865(6)
N1 N 0.53405(11) 0.40185(10) 0.69900(7)
C1 C -0.09702(13) 0.28308(11) 0.91095(7)
C2 C 0.00172(12) 0.17614(11) 0.89128(7)
C3 C 0.11489(12) 0.26539(11) 0.92984(7)
H1 H 0.15300 0.23250 0.98230
C4 C 0.22896(12) 0.31200(11) 0.87531(7)
C5 C 0.20635(13) 0.40996(11) 0.82228(7)
H2 H 0.12090 0.45510 0.82490
C6 C 0.30803(13) 0.44197(11) 0.76572(8)
H3 H 0.29360 0.50900 0.72950
C7 C 0.43069(12) 0.37435(11) 0.76315(7)
C8 C 0.45868(13) 0.27953(11) 0.81690(7)
H4 H 0.54550 0.23640 0.81510
C9 C 0.35665(13) 0.24922(11) 0.87344(7)
H5 H 0.37380 0.18490 0.91140
C10 C 0.02259(11) 0.15296(10) 0.80083(7)
C11 C -0.04863(12) 0.22179(11) 0.74232(7)
H6 H -0.12070 0.27730 0.75840
C12 C -0.01450(14) 0.20953(12) 0.66037(7)
H7 H -0.06400 0.25610 0.62060
C13 C 0.09129(13) 0.12980(12) 0.63652(7)
H8 H 0.11610 0.12320 0.58070
C14 C 0.16104(13) 0.05953(11) 0.69453(7)
H9 H 0.23290 0.00400 0.67820
C15 C 0.12604(12) 0.07027(11) 0.77628(7)
H10 H 0.17290 0.02100 0.81560
C16 C -0.03396(12) 0.06176(11) 0.94087(7)
C17 C -0.17284(13) 0.01986(12) 0.94124(7)
H11 H -0.24190 0.06150 0.90980
C18 C -0.21054(15) -0.08212(13) 0.98716(8)
H12 H -0.30520 -0.11010 0.98690
C19 C -0.11113(17) -0.14339(13) 1.03338(8)
H13 H -0.13730 -0.21290 1.06510
C20 C 0.02684(17) -0.10268(13) 1.03302(8)
H14 H 0.09550 -0.14480 1.06450
C21 C 0.06575(14) -0.00066(11) 0.98698(7)
H15 H 0.16070 0.02640 0.98710
#END
