
#######################################################################
#
#                 Cambridge Crystallographic Data Centre
#                                CCDC
#
#######################################################################
#
# If this CIF has been generated from an entry in the Cambridge
# Structural Database, then it will include bibliographic, chemical,
# crystal, experimental, refinement or atomic coordinate data resulting
# from the CCDC's data processing and validation procedures.
#
#######################################################################

data_CSD_CIF_GUZSAW
_audit_creation_date 2011-03-25
_audit_creation_method CSD-ConQuest-V1
_database_code_CSD GUZSAW
_database_code_depnum_ccdc_archive 'CCDC 798298'
_chemical_formula_sum 'C16 H13 N1 O4'
_chemical_formula_moiety
;
C16 H13 N1 O4
;
_journal_coden_Cambridge 1336
_journal_volume 12
_journal_year 2010
_journal_page_first 1664
_journal_name_full 'Org.Lett. '
loop_
_publ_author_name
"M.Mondal"
"A.A.Ibrahim"
"K.A.Wheeler"
"N.J.Kerrigan"
_chemical_name_systematic
;
3-Methyl-4-(4-nitrophenyl)-3-phenyloxetan-2-one
;
_cell_volume   2682.438
_exptl_crystal_colour 'colorless'
_exptl_crystal_density_diffrn 1.403
_exptl_crystal_description 'needle'
_diffrn_ambient_temperature 100
#These two values have been output from a single CSD field.
_refine_ls_R_factor_gt 0.0391
_refine_ls_wR_factor_gt 0.0391
_symmetry_cell_setting orthorhombic
_symmetry_space_group_name_H-M 'P c c n'
_symmetry_Int_Tables_number 56
loop_
_symmetry_equiv_pos_site_id
_symmetry_equiv_pos_as_xyz
1 x,y,z
2 1/2-x,1/2-y,z
3 1/2+x,-y,1/2-z
4 -x,1/2+y,1/2-z
5 -x,-y,-z
6 -1/2+x,-1/2+y,-z
7 -1/2-x,y,-1/2+z
8 x,-1/2-y,-1/2+z
_cell_length_a 24.6054(4)
_cell_length_b 7.0101(1)
_cell_length_c 15.5516(2)
_cell_angle_alpha 90
_cell_angle_beta 90
_cell_angle_gamma 90
_cell_formula_units_Z 8
loop_
_atom_type_symbol
_atom_type_radius_bond
C 0.68
H 0.23
N 0.68
O 0.68
loop_
_atom_site_label
_atom_site_type_symbol
_atom_site_fract_x
_atom_site_fract_y
_atom_site_fract_z
O1 O 0.59128(5) 0.20915(17) 0.88318(8)
O2 O 0.67093(6) 0.05106(19) 0.85968(8)
O3 O 0.52573(6) 0.7966(2) 1.22741(8)
O4 O 0.53880(6) 1.0483(2) 1.14947(8)
N1 N 0.53697(6) 0.8754(2) 1.15881(9)
C1 C 0.64462(8) 0.1946(3) 0.86051(11)
C2 C 0.65289(7) 0.4058(3) 0.84292(11)
C3 C 0.59127(7) 0.4173(2) 0.86756(11)
H1 H 0.56830 0.45130 0.81670
C4 C 0.69259(8) 0.4999(3) 0.90607(11)
H2 H 0.68290 0.46400 0.96500
H3 H 0.69060 0.63880 0.90000
H4 H 0.72970 0.45690 0.89360
C5 C 0.57547(7) 0.5306(3) 0.94534(10)
C6 C 0.56884(7) 0.4477(3) 1.02624(11)
H5 H 0.57380 0.31420 1.03320
C7 C 0.55498(7) 0.5591(3) 1.09655(11)
H6 H 0.54950 0.50330 1.15150
C8 C 0.54939(7) 0.7529(3) 1.08453(11)
C9 C 0.55623(7) 0.8396(3) 1.00524(11)
H7 H 0.55250 0.97380 0.99910
C10 C 0.56859(7) 0.7260(3) 0.93515(11)
H8 H 0.57240 0.78190 0.87980
C11 C 0.66617(7) 0.4588(3) 0.75036(11)
C12 C 0.66823(8) 0.6494(3) 0.72724(12)
H9 H 0.66170 0.74490 0.76930
C13 C 0.67970(8) 0.7022(3) 0.64314(12)
H10 H 0.68090 0.83340 0.62800
C14 C 0.68930(8) 0.5654(3) 0.58158(12)
H11 H 0.69730 0.60150 0.52410
C15 C 0.68727(10) 0.3773(3) 0.60407(13)
H12 H 0.69370 0.28250 0.56160
C16 C 0.67595(9) 0.3222(3) 0.68835(12)
H13 H 0.67500 0.19070 0.70310
#END
