
#######################################################################
#
#                 Cambridge Crystallographic Data Centre
#                                CCDC
#
#######################################################################
#
# If this CIF has been generated from an entry in the Cambridge
# Structural Database, then it will include bibliographic, chemical,
# crystal, experimental, refinement or atomic coordinate data resulting
# from the CCDC's data processing and validation procedures.
#
#######################################################################

data_CSD_CIF_GUZWII
_audit_creation_date 2011-03-25
_audit_creation_method CSD-ConQuest-V1
_database_code_CSD GUZWII
_database_code_depnum_ccdc_archive 'CCDC 755752'
_chemical_formula_sum 'C14 H18 N2 O4'
_chemical_formula_moiety
;
C14 H18 N2 O4
;
_journal_coden_Cambridge 1088
_journal_year 2010
_journal_page_first 493
_journal_name_full 'Synlett '
loop_
_publ_author_name
"H.Schwertfeger"
"C.Wurtele"
"P.R.Schreiner"
_chemical_name_systematic
;
1,6-Dinitropentacyclo[7.3.1.1^4,12^.0^2,7^.0^6,11^]tetradecane
;
_cell_volume    303.865
_exptl_crystal_colour 'colorless'
_exptl_crystal_density_diffrn 1.521
_exptl_crystal_description 'plate'
_diffrn_ambient_temperature 193
#These two values have been output from a single CSD field.
_refine_ls_R_factor_gt 0.0563
_refine_ls_wR_factor_gt 0.0563
_symmetry_cell_setting triclinic
_symmetry_space_group_name_H-M 'P -1'
_symmetry_Int_Tables_number 2
loop_
_symmetry_equiv_pos_site_id
_symmetry_equiv_pos_as_xyz
1 x,y,z
2 -x,-y,-z
_cell_length_a 6.6756(13)
_cell_length_b 7.2541(15)
_cell_length_c 7.4930(15)
_cell_angle_alpha 64.61(3)
_cell_angle_beta 68.34(3)
_cell_angle_gamma 77.36(3)
_cell_formula_units_Z 1
loop_
_atom_type_symbol
_atom_type_radius_bond
C 0.68
H 0.23
N 0.68
O 0.68
loop_
_atom_site_label
_atom_site_type_symbol
_atom_site_fract_x
_atom_site_fract_y
_atom_site_fract_z
C1 C 0.3460(2) 0.1592(2) 0.5458(2)
C2 C 0.4217(3) 0.3484(2) 0.3474(2)
H1 H 0.30480 0.40990 0.28310
H2 H 0.45920 0.45190 0.38100
C3 C 0.2805(2) -0.0021(2) 0.5016(2)
H3 H 0.16200 0.05900 0.43710
C4 C 0.4807(3) -0.0638(2) 0.3453(2)
H4 H 0.44250 -0.16760 0.31070
C5 C 0.2021(3) -0.1892(3) 0.7011(2)
H5 H 0.07200 -0.14820 0.79850
H6 H 0.16270 -0.29200 0.66790
C6 C 0.5582(3) 0.1241(3) 0.1462(2)
H7 H 0.68490 0.08280 0.04620
H8 H 0.44190 0.18460 0.08100
C7 C 0.3804(3) -0.2821(2) 0.8029(2)
H9 H 0.32830 -0.40370 0.93360
N1 N 0.1478(2) 0.2415(2) 0.6841(2)
O1 O 0.1759(3) 0.3049(2) 0.7984(2)
O2 O -0.0283(2) 0.2479(3) 0.6659(3)
C1A C 0.6540(2) -0.1592(2) 0.4542(2)
C2A C 0.5783(3) -0.3484(2) 0.6526(2)
H1A H 0.69520 -0.40990 0.71690
H2A H 0.54080 -0.45190 0.61900
C3A C 0.7195(2) 0.0021(2) 0.4984(2)
H3A H 0.83800 -0.05900 0.56290
C4A C 0.5193(3) 0.0638(2) 0.6547(2)
H4A H 0.55750 0.16760 0.68930
C5A C 0.7979(3) 0.1892(3) 0.2989(2)
H5A H 0.92800 0.14820 0.20150
H6A H 0.83730 0.29200 0.33210
C6A C 0.4418(3) -0.1241(3) 0.8538(2)
H7A H 0.31510 -0.08280 0.95380
H8A H 0.55810 -0.18460 0.91900
C7A C 0.6196(3) 0.2821(2) 0.1971(2)
H9A H 0.67170 0.40370 0.06640
N1A N 0.8522(2) -0.2415(2) 0.3159(2)
O1A O 0.8241(3) -0.3049(2) 0.2016(2)
O2A O 1.0283(2) -0.2479(3) 0.3341(3)
#END
