
#######################################################################
#
#                 Cambridge Crystallographic Data Centre
#                                CCDC
#
#######################################################################
#
# If this CIF has been generated from an entry in the Cambridge
# Structural Database, then it will include bibliographic, chemical,
# crystal, experimental, refinement or atomic coordinate data resulting
# from the CCDC's data processing and validation procedures.
#
#######################################################################

data_CSD_CIF_HABPIJ
_audit_creation_date 1993-08-17
_audit_creation_method CSD-ConQuest-V1
_database_code_CSD HABPIJ
_chemical_formula_sum 'C18 H19 N3 O9'
_chemical_formula_moiety
;
C18 H19 N3 O9
;
_journal_coeditor_code "IUCr AS1024"
_journal_coden_Cambridge 591
_journal_volume 49
_journal_year 1993
_journal_page_first 993
_journal_name_full 'Acta Crystallogr.,Sect.C:Cryst.Struct.Commun. '
loop_
_publ_author_name
"T.Ogawa"
"K.Matsumoto"
"C.Yokoo"
"K.Hatayama"
"K.Kitamura"
_chemical_name_systematic
;
Methyl 2-(nitro-oxy)ethyl 
1,4-dihydro-2,6-dimethyl-4-(3-nitrophenyl)-3,5-pyridinedicarboxylate
;
_cell_volume   1907.595
_exptl_crystal_colour 'Light yellow'
_exptl_crystal_density_diffrn 1.47
_exptl_special_details
;
vasodilator activity

;
_diffrn_ambient_temperature ?
_diffrn_special_details
;
The study was carried out at room temperature,in the range 283-303K

;
#These two values have been output from a single CSD field.
_refine_ls_R_factor_gt 0.031
_refine_ls_wR_factor_gt 0.031
_symmetry_cell_setting orthorhombic
_symmetry_space_group_name_H-M 'P 21 21 21'
_symmetry_Int_Tables_number 19
loop_
_symmetry_equiv_pos_site_id
_symmetry_equiv_pos_as_xyz
1 x,y,z
2 1/2+x,1/2-y,-z
3 -x,1/2+y,1/2-z
4 1/2-x,-y,1/2+z
_cell_length_a 11.962(2)
_cell_length_b 20.917(4)
_cell_length_c 7.624(2)
_cell_angle_alpha 90
_cell_angle_beta 90
_cell_angle_gamma 90
_cell_formula_units_Z 4
loop_
_atom_type_symbol
_atom_type_radius_bond
C 0.68
H 0.23
N 0.68
O 0.68
loop_
_atom_site_label
_atom_site_type_symbol
_atom_site_fract_x
_atom_site_fract_y
_atom_site_fract_z
N1 N 0.4675(2) 0.43539(8) -0.0130(3)
C1 C 0.5682(2) 0.46355(9) 0.0288(3)
C2 C 0.5774(2) 0.52790(9) 0.0279(2)
C3 C 0.4803(2) 0.57022(9) -0.0276(2)
C4 C 0.3703(2) 0.53301(9) -0.0270(2)
C5 C 0.3679(2) 0.46859(9) -0.0276(3)
C6 C 0.5009(1) 0.59977(8) -0.2074(2)
C7 C 0.5017(2) 0.66536(9) -0.2305(3)
C8 C 0.5209(2) 0.68995(9) -0.3960(3)
C9 C 0.5384(2) 0.6519(1) -0.5418(3)
C10 C 0.5374(2) 0.5867(1) -0.5170(3)
C11 C 0.5198(2) 0.5610(1) -0.3526(3)
N2 N 0.5247(2) 0.75965(8) -0.4174(3)
O1 O 0.5634(2) 0.78176(8) -0.5536(2)
O2 O 0.4891(2) 0.79306(7) -0.2995(3)
C12 C 0.6826(2) 0.55933(9) 0.0726(3)
O3 O 0.7710(2) 0.53506(8) 0.1066(4)
O4 O 0.6700(1) 0.62325(7) 0.0745(2)
C13 C 0.7670(2) 0.6606(1) 0.1171(3)
C14 C 0.7388(2) 0.7287(1) 0.0754(4)
O5 O 0.7210(1) 0.73826(8) -0.1089(2)
N3 N 0.8173(2) 0.74818(9) -0.2056(3)
O6 O 0.9063(1) 0.7451(1) -0.1316(3)
O7 O 0.7994(2) 0.7590(1) -0.3571(3)
C15 C 0.2725(2) 0.5754(1) -0.0255(3)
O8 O 0.2806(1) 0.63208(7) -0.0060(3)
O9 O 0.1726(1) 0.54786(7) -0.0478(3)
C16 C 0.0789(2) 0.5912(1) -0.0467(5)
C17 C 0.2678(2) 0.4255(1) -0.0395(4)
C18 C 0.6578(2) 0.4169(1) 0.0767(4)
H1 H 0.45830 0.39728 -0.00950
H2 H 0.47735 0.59960 0.05988
H3 H 0.49046 0.69433 -0.13478
H4 H 0.55150 0.66628 -0.65963
H5 H 0.54558 0.56177 -0.60915
H6 H 0.52458 0.51799 -0.33074
H7 H 0.83721 0.64685 0.05153
H8 H 0.79225 0.65343 0.24450
H9 H 0.65702 0.74153 0.12038
H10 H 0.79685 0.76008 0.12450
H11 H 0.06549 0.60763 0.06326
H12 H 0.01898 0.56463 -0.07356
H13 H 0.09362 0.62687 -0.13488
H14 H 0.20375 0.44155 -0.12581
H15 H 0.23759 0.41840 0.07071
H16 H 0.29199 0.38249 -0.07635
H17 H 0.71738 0.42403 0.00273
H18 H 0.63383 0.37281 0.04455
H19 H 0.68465 0.42393 0.20058
#END
