
#######################################################################
#
#                 Cambridge Crystallographic Data Centre
#                                CCDC
#
#######################################################################
#
# If this CIF has been generated from an entry in the Cambridge
# Structural Database, then it will include bibliographic, chemical,
# crystal, experimental, refinement or atomic coordinate data resulting
# from the CCDC's data processing and validation procedures.
#
#######################################################################

data_CSD_CIF_HABTAF
_audit_creation_date 1993-08-17
_audit_creation_method CSD-ConQuest-V1
_database_code_CSD HABTAF
_chemical_formula_sum 'C2 H6 N2 O2'
_chemical_formula_moiety
;
C2 H6 N2 O2
;
_journal_coeditor_code "IUCr AB1049"
_journal_coden_Cambridge 591
_journal_volume 49
_journal_year 1993
_journal_page_first 1018
_journal_name_full 'Acta Crystallogr.,Sect.C:Cryst.Struct.Commun. '
loop_
_publ_author_name
"B.B.Nielsen"
"K.Frydenvang"
"I.K.Larsen"
_chemical_name_systematic
;
1-Methyl-1-hydroxyurea
;
_chemical_melting_point 340
_cell_volume   1600.497
_exptl_crystal_colour 'Colorless'
_exptl_crystal_density_diffrn 1.495
_exptl_special_details
;
Melting point range 340-341K
agent affecting antimitotic activity

;
_diffrn_ambient_temperature 122
#These two values have been output from a single CSD field.
_refine_ls_R_factor_gt 0.029
_refine_ls_wR_factor_gt 0.029
_symmetry_cell_setting orthorhombic
_symmetry_space_group_name_H-M 'F d d 2'
_symmetry_Int_Tables_number 43
loop_
_symmetry_equiv_pos_site_id
_symmetry_equiv_pos_as_xyz
1 x,y,z
2 x,1/2+y,1/2+z
3 1/2+x,y,1/2+z
4 1/2+x,1/2+y,z
5 1/4-x,1/4+y,1/4+z
6 1/4-x,3/4+y,3/4+z
7 3/4-x,1/4+y,3/4+z
8 3/4-x,3/4+y,1/4+z
9 1/4+x,1/4-y,1/4+z
10 1/4+x,3/4-y,3/4+z
11 3/4+x,1/4-y,3/4+z
12 3/4+x,3/4-y,1/4+z
13 1/2-x,-y,1/2+z
14 1/2-x,1/2-y,z
15 -x,-y,z
16 -x,1/2-y,1/2+z
_cell_length_a 5.2049(9)
_cell_length_b 23.375(4)
_cell_length_c 13.155(3)
_cell_angle_alpha 90
_cell_angle_beta 90
_cell_angle_gamma 90
_cell_formula_units_Z 16
loop_
_atom_type_symbol
_atom_type_radius_bond
C 0.68
H 0.23
N 0.68
O 0.68
loop_
_atom_site_label
_atom_site_type_symbol
_atom_site_fract_x
_atom_site_fract_y
_atom_site_fract_z
O1 O 0.65430(7) 0.42873(2) 0.53100
O2 O 0.12592(7) 0.34428(2) 0.46611(4)
N1 N 0.23689(8) 0.45003(2) 0.49608(4)
N2 N 0.38937(7) 0.35798(2) 0.47351(4)
C1 C 0.43374(8) 0.41336(2) 0.50393(4)
C2 C 0.5359(1) 0.31064(2) 0.51569(4)
H1 H 0.094(2) 0.3402(6) 0.404(1)
H2 H 0.261(3) 0.4853(6) 0.513(1)
H3 H 0.098(2) 0.4359(6) 0.483(1)
H4 H 0.544(3) 0.2803(5) 0.4720(8)
H5 H 0.709(2) 0.3229(6) 0.5243(9)
H6 H 0.457(3) 0.2981(6) 0.5814(8)
#END
