
#######################################################################
#
#                 Cambridge Crystallographic Data Centre
#                                CCDC
#
#######################################################################
#
# If this CIF has been generated from an entry in the Cambridge
# Structural Database, then it will include bibliographic, chemical,
# crystal, experimental, refinement or atomic coordinate data resulting
# from the CCDC's data processing and validation procedures.
#
#######################################################################

data_CSD_CIF_HABTEJ
_audit_creation_date 1993-08-17
_audit_creation_method CSD-ConQuest-V1
_database_code_CSD HABTEJ
_chemical_formula_sum 'C2 H6 N2 O2'
_chemical_formula_moiety
;
C2 H6 N2 O2
;
_journal_coeditor_code "IUCr AB1049"
_journal_coden_Cambridge 591
_journal_volume 49
_journal_year 1993
_journal_page_first 1018
_journal_name_full 'Acta Crystallogr.,Sect.C:Cryst.Struct.Commun. '
loop_
_publ_author_name
"B.B.Nielsen"
"K.Frydenvang"
"I.K.Larsen"
_chemical_name_systematic
;
3-Methyl-1-hydroxyurea
;
_chemical_melting_point 400
_cell_volume    416.551
_exptl_crystal_colour 'Colorless'
_exptl_crystal_density_diffrn 1.437
_exptl_special_details
;
Melts with decomposition.
agent affecting antimitotic activity

;
_diffrn_ambient_temperature 110
#These two values have been output from a single CSD field.
_refine_ls_R_factor_gt 0.046
_refine_ls_wR_factor_gt 0.046
_symmetry_cell_setting monoclinic
_symmetry_space_group_name_H-M 'P 21/n'
_symmetry_Int_Tables_number 14
loop_
_symmetry_equiv_pos_site_id
_symmetry_equiv_pos_as_xyz
1 x,y,z
2 1/2-x,1/2+y,1/2-z
3 -x,-y,-z
4 -1/2+x,-1/2-y,-1/2+z
_cell_length_a 8.202(1)
_cell_length_b 7.081(1)
_cell_length_c 7.316(1)
_cell_angle_alpha 90
_cell_angle_beta 101.378(9)
_cell_angle_gamma 90
_cell_formula_units_Z 4
loop_
_atom_type_symbol
_atom_type_radius_bond
C 0.68
H 0.23
N 0.68
O 0.68
loop_
_atom_site_label
_atom_site_type_symbol
_atom_site_fract_x
_atom_site_fract_y
_atom_site_fract_z
O1 O 0.37919(8) 0.0727(1) 1.1356(1)
O2 O 0.02073(9) 0.1113(1) 0.7881(1)
N1 N 0.2110(1) 0.1166(1) 1.0570(1)
N2 N 0.2955(1) 0.1188(1) 0.7724(1)
C1 C 0.1717(1) 0.1126(1) 0.8656(2)
C2 C 0.2659(1) 0.1186(2) 0.5699(2)
H1 H 0.146(2) 0.051(2) 1.112(2)
H2 H 0.392(2) 0.107(2) 0.835(2)
H3 H 0.420(2) 0.171(2) 1.187(2)
H4 H 0.357(4) 0.129(3) 0.534(4)
H5 H 0.209(3) 0.022(3) 0.514(3)
H6 H 0.207(2) 0.229(3) 0.516(3)
#END
