
#######################################################################
#
#                 Cambridge Crystallographic Data Centre
#                                CCDC
#
#######################################################################
#
# If this CIF has been generated from an entry in the Cambridge
# Structural Database, then it will include bibliographic, chemical,
# crystal, experimental, refinement or atomic coordinate data resulting
# from the CCDC's data processing and validation procedures.
#
#######################################################################

data_CSD_CIF_HABXOX
_audit_creation_date 1993-09-15
_audit_creation_method CSD-ConQuest-V1
_database_code_CSD HABXOX
_chemical_formula_sum 'C16 H25 N1 O4'
_chemical_formula_moiety
;
C16 H25 N1 O4
;
_journal_coden_Cambridge 1078
_journal_year 1993
_journal_name_full 'CSD Communication(Private Communication) '
loop_
_publ_author_name
"M.Hesse"
"W.Huggenberg"
"J.H.Bieri"
"R.Prewo"
"A.Linden"
_chemical_name_systematic
;
Cyclododecanone-2-spiro-5'-(N-oxy)pyrroline-2-carboxylic acid
;
_chemical_melting_point 414.15
_cell_volume   1491.991
_exptl_crystal_colour 'colorless'
_exptl_crystal_density_diffrn 1.31
_exptl_special_details
;
contribution from Organisch-Chemisches Institut, Universitat Zurich, 
Winterthurerstrasse 190, CH-8057 Zurich, Switzerland
;
_diffrn_ambient_temperature 133.15
#These two values have been output from a single CSD field.
_refine_ls_R_factor_gt 0.05
_refine_ls_wR_factor_gt 0.05
_symmetry_cell_setting monoclinic
_symmetry_space_group_name_H-M 'P 21/c'
_symmetry_Int_Tables_number 14
loop_
_symmetry_equiv_pos_site_id
_symmetry_equiv_pos_as_xyz
1 x,y,z
2 -x,1/2+y,1/2-z
3 -x,-y,-z
4 x,-1/2-y,-1/2+z
_cell_length_a 11.1689(6)
_cell_length_b 12.5210(6)
_cell_length_c 11.3976(6)
_cell_angle_alpha 90
_cell_angle_beta 110.6(4)
_cell_angle_gamma 90
_cell_formula_units_Z 4
loop_
_atom_type_symbol
_atom_type_radius_bond
C 0.68
H 0.23
N 0.68
O 0.68
loop_
_atom_site_label
_atom_site_type_symbol
_atom_site_fract_x
_atom_site_fract_y
_atom_site_fract_z
N1 N 0.09115(8) 0.14379(6) 0.28300(7)
O1 O 0.12626(7) 0.05369(5) 0.24788(6)
C1 C -0.01083(9) 0.19900(7) 0.22259(8)
C2 C -0.0206(1) 0.29767(8) 0.29193(9)
C3 C 0.1156(1) 0.30888(7) 0.38763(9)
C4 C 0.17331(9) 0.19613(7) 0.40375(8)
C5 C 0.15516(9) 0.13394(7) 0.51479(8)
O2 O 0.12645(9) 0.18294(6) 0.59239(7)
C6 C 0.1757(1) 0.01418(7) 0.52332(9)
C7 C 0.2055(1) -0.03017(8) 0.65604(9)
C8 C 0.3338(1) 0.00736(8) 0.74996(9)
C9 C 0.4502(1) -0.03734(8) 0.7256(1)
C10 C 0.5757(1) 0.01960(9) 0.79870(9)
C11 C 0.5845(1) 0.13315(8) 0.75189(9)
C12 C 0.5892(1) 0.13667(8) 0.61883(9)
C13 C 0.5418(1) 0.24156(8) 0.54921(9)
C14 C 0.3991(1) 0.26289(8) 0.51934(9)
C15 C 0.31315(9) 0.19283(8) 0.41250(8)
C16 C -0.0970(1) 0.16817(8) 0.09480(9)
O3 O -0.07084(8) 0.07561(6) 0.05188(7)
O4 O -0.18242(8) 0.22637(7) 0.03455(7)
H1 H -0.046(1) 0.359(1) 0.233(1)
H2 H -0.085(1) 0.289(1) 0.330(1)
H3 H 0.118(1) 0.340(1) 0.466(1)
H4 H 0.166(1) 0.355(1) 0.353(1)
H5 H 0.241(1) -0.005(1) 0.489(1)
H6 H 0.099(1) -0.018(1) 0.467(1)
H7 H 0.206(1) -0.111(1) 0.649(1)
H8 H 0.136(1) -0.011(1) 0.685(1)
H9 H 0.334(1) 0.090(1) 0.749(1)
H10 H 0.337(1) -0.013(1) 0.836(1)
H11 H 0.459(1) -0.116(1) 0.745(1)
H12 H 0.435(1) -0.033(1) 0.633(1)
H13 H 0.647(1) -0.023(1) 0.794(1)
H14 H 0.586(1) 0.023(1) 0.889(1)
H15 H 0.511(1) 0.1759(9) 0.755(1)
H16 H 0.662(1) 0.170(1) 0.811(1)
H17 H 0.537(1) 0.0760(9) 0.569(1)
H18 H 0.676(1) 0.123(1) 0.627(1)
H19 H 0.591(1) 0.302(1) 0.600(1)
H20 H 0.561(1) 0.242(1) 0.471(1)
H21 H 0.378(1) 0.2495(9) 0.598(1)
H22 H 0.379(1) 0.339(1) 0.499(1)
H23 H 0.342(1) 0.119(1) 0.421(1)
H24 H 0.316(1) 0.217(1) 0.333(1)
H25 H 0.003(2) 0.053(1) 0.114(1)
#END
