
#######################################################################
#
#                 Cambridge Crystallographic Data Centre
#                                CCDC
#
#######################################################################
#
# If this CIF has been generated from an entry in the Cambridge
# Structural Database, then it will include bibliographic, chemical,
# crystal, experimental, refinement or atomic coordinate data resulting
# from the CCDC's data processing and validation procedures.
#
#######################################################################

data_CSD_CIF_HABYUE
_audit_creation_date 1993-09-15
_audit_creation_method CSD-ConQuest-V1
_database_code_CSD HABYUE
_chemical_formula_sum 'C12 H20 N2 O5'
_chemical_formula_moiety
;
C12 H20 N2 O5
;
_journal_coden_Cambridge 1078
_journal_year 1993
_journal_name_full 'CSD Communication(Private Communication) '
loop_
_publ_author_name
"M.Hesse"
"C.Bistolas"
"J.H.Bieri"
"R.Prewo"
"A.Linden"
_chemical_name_systematic
;
2,6-Dinitrocyclododecanone
;
_chemical_melting_point 365.15
_cell_volume   1340.144
_exptl_crystal_colour 'colorless'
_exptl_crystal_density_diffrn 1.35
_exptl_special_details
;
contribution from Organisch-Chemisches Institut, Universitat Zurich, 
Winterthurerstrasse 190, CH-8057 Zurich, Switzerland
;
_diffrn_ambient_temperature 133.15
#These two values have been output from a single CSD field.
_refine_ls_R_factor_gt 0.064
_refine_ls_wR_factor_gt 0.064
_symmetry_cell_setting monoclinic
_symmetry_space_group_name_H-M 'P 21/c'
_symmetry_Int_Tables_number 14
loop_
_symmetry_equiv_pos_site_id
_symmetry_equiv_pos_as_xyz
1 x,y,z
2 -x,1/2+y,1/2-z
3 -x,-y,-z
4 x,-1/2-y,-1/2+z
_cell_length_a 13.078(2)
_cell_length_b 8.999(2)
_cell_length_c 11.642(2)
_cell_angle_alpha 90
_cell_angle_beta 102.01(1)
_cell_angle_gamma 90
_cell_formula_units_Z 4
loop_
_atom_type_symbol
_atom_type_radius_bond
C 0.68
H 0.23
N 0.68
O 0.68
loop_
_atom_site_label
_atom_site_type_symbol
_atom_site_fract_x
_atom_site_fract_y
_atom_site_fract_z
C1 C 0.1778(1) 0.1275(2) 0.4721(1)
O1 O 0.22083(9) 0.1046(1) 0.5720(1)
C2 C 0.0764(1) 0.2192(2) 0.4435(1)
N1 N 0.0335(1) 0.2237(1) 0.5542(1)
O2 O 0.0597(1) 0.3252(1) 0.6236(1)
O3 O -0.0241(1) 0.1238(2) 0.5713(2)
C3 C 0.0930(1) 0.3761(2) 0.3975(1)
C4 C 0.1804(1) 0.4717(2) 0.4704(1)
C5 C 0.2088(1) 0.6059(2) 0.4016(1)
C6 C 0.2734(1) 0.5594(2) 0.3128(1)
N2 N 0.2634(1) 0.6786(2) 0.2169(1)
O4 O 0.3412(1) 0.7200(2) 0.1843(1)
O5 O 0.1755(1) 0.7229(2) 0.1733(1)
C7 C 0.3875(1) 0.5287(2) 0.3671(1)
C8 C 0.4418(1) 0.4169(2) 0.3004(2)
C9 C 0.3945(1) 0.2603(2) 0.2906(2)
C10 C 0.4017(1) 0.1776(2) 0.4066(2)
C11 C 0.3347(1) 0.0363(2) 0.3940(2)
C12 C 0.2169(1) 0.0682(2) 0.3677(1)
H1 H 0.028(2) 0.164(2) 0.389(2)
H2 H 0.026(2) 0.427(3) 0.385(2)
H3 H 0.105(2) 0.361(2) 0.322(2)
H4 H 0.157(2) 0.514(2) 0.539(2)
H5 H 0.244(2) 0.413(2) 0.501(2)
H6 H 0.141(2) 0.653(3) 0.359(2)
H7 H 0.249(2) 0.680(2) 0.456(2)
H8 H 0.241(2) 0.476(2) 0.263(2)
H9 H 0.424(2) 0.616(2) 0.383(2)
H10 H 0.391(2) 0.487(3) 0.450(2)
H11 H 0.440(2) 0.456(2) 0.225(2)
H12 H 0.516(2) 0.409(3) 0.344(2)
H13 H 0.325(2) 0.269(2) 0.254(2)
H14 H 0.430(2) 0.201(3) 0.238(2)
H15 H 0.380(1) 0.240(2) 0.467(2)
H16 H 0.474(2) 0.152(3) 0.439(2)
H17 H 0.354(2) -0.022(3) 0.465(2)
H18 H 0.350(2) -0.024(3) 0.327(2)
H19 H 0.197(2) 0.131(2) 0.300(2)
H20 H 0.175(2) -0.024(3) 0.344(2)
#END
