
#######################################################################
#
#                 Cambridge Crystallographic Data Centre
#                                CCDC
#
#######################################################################
#
# If this CIF has been generated from an entry in the Cambridge
# Structural Database, then it will include bibliographic, chemical,
# crystal, experimental, refinement or atomic coordinate data resulting
# from the CCDC's data processing and validation procedures.
#
#######################################################################

data_CSD_CIF_HABYIS
_audit_creation_date 1993-09-15
_audit_creation_method CSD-ConQuest-V1
_database_code_CSD HABYIS
_chemical_formula_sum 'C23 H31 N5 O5'
_chemical_formula_moiety
;
C23 H31 N5 O5
;
_journal_coden_Cambridge 1078
_journal_year 1993
_journal_name_full 'CSD Communication(Private Communication) '
loop_
_publ_author_name
"M.Hesse"
"A.Guggisberg"
"J.H.Bieri"
"R.Prewo"
"A.Linden"
_chemical_name_systematic
;
2-Cyano-2-(N-(2,4-dinitrophenyl)hydrazino(methyl)propylidene)-cyclododecanone
;
_cell_volume   1171.885
_exptl_crystal_colour 'orange'
_exptl_crystal_density_diffrn 1.3
_exptl_special_details
;
contribution from Organisch-Chemisches Institut, Universitat Zurich, 
Winterthurerstrasse 190, CH-8057 Zurich, Switzerland
;
_diffrn_ambient_temperature 133.15
#These two values have been output from a single CSD field.
_refine_ls_R_factor_gt 0.069
_refine_ls_wR_factor_gt 0.069
_symmetry_cell_setting triclinic
_symmetry_space_group_name_H-M 'P -1'
_symmetry_Int_Tables_number 2
loop_
_symmetry_equiv_pos_site_id
_symmetry_equiv_pos_as_xyz
1 x,y,z
2 -x,-y,-z
_cell_length_a 5.9444(3)
_cell_length_b 11.285(1)
_cell_length_c 18.142(2)
_cell_angle_alpha 76.526(7)
_cell_angle_beta 88.027(6)
_cell_angle_gamma 81.962(6)
_cell_formula_units_Z 2
loop_
_atom_type_symbol
_atom_type_radius_bond
C 0.68
H 0.23
N 0.68
O 0.68
loop_
_atom_site_label
_atom_site_type_symbol
_atom_site_fract_x
_atom_site_fract_y
_atom_site_fract_z
C1 C 0.4332(3) 0.2958(2) 0.75518(9)
O1 O 0.2400(2) 0.3242(1) 0.77294(8)
C2 C 0.5669(3) 0.3946(1) 0.70520(9)
C3 C 0.7278(3) 0.4306(2) 0.75985(9)
C4 C 0.6096(3) 0.5003(2) 0.8166(1)
C5 C 0.7790(4) 0.5266(2) 0.8707(1)
C6 C 0.8954(4) 0.4115(2) 0.9257(1)
C7 C 0.7369(4) 0.3472(2) 0.9853(1)
C8 C 0.7953(5) 0.2065(2) 1.0078(1)
C9 C 0.7562(4) 0.1425(2) 0.9444(1)
C10 C 0.5086(4) 0.1508(2) 0.9237(1)
C11 C 0.4690(3) 0.0955(2) 0.8568(1)
C12 C 0.5593(3) 0.1668(2) 0.7818(1)
C13 C 0.7100(3) 0.3355(1) 0.65166(9)
N1 N 0.8186(3) 0.2922(1) 0.60901(9)
C14 C 0.4080(3) 0.5057(1) 0.65796(9)
C15 C 0.5505(3) 0.6063(1) 0.61999(9)
C16 C 0.4192(3) 0.7178(1) 0.57086(9)
N2 N 0.5187(2) 0.7745(1) 0.51252(8)
N3 N 0.4001(2) 0.8830(1) 0.47196(8)
C17 C 0.4985(3) 0.9446(1) 0.40878(9)
C18 C 0.3978(3) 1.0572(1) 0.36155(9)
N4 N 0.1795(2) 1.1186(1) 0.37882(8)
O2 O 0.0807(2) 1.0722(1) 0.43791(7)
O3 O 0.0971(2) 1.2147(1) 0.33523(7)
C19 C 0.5083(3) 1.1177(1) 0.29759(9)
C20 C 0.7215(3) 1.0679(1) 0.28026(9)
N5 N 0.8446(3) 1.1341(1) 0.21622(8)
O4 O 0.7598(2) 1.2377(1) 0.18344(7)
O5 O 1.0303(2) 1.0836(1) 0.19963(8)
C21 C 0.8264(3) 0.9561(2) 0.32436(9)
C22 C 0.7177(3) 0.8962(1) 0.38675(9)
C23 C 0.2712(3) 0.4679(2) 0.5993(1)
H1 H 0.822(3) 0.359(2) 0.785(1)
H2 H 0.831(3) 0.480(2) 0.729(1)
H3 H 0.491(4) 0.451(2) 0.846(1)
H4 H 0.520(3) 0.577(2) 0.789(1)
H5 H 0.896(4) 0.571(2) 0.840(1)
H6 H 0.695(4) 0.581(2) 0.901(1)
H7 H 0.979(3) 0.353(2) 0.897(1)
H8 H 1.022(4) 0.439(2) 0.948(1)
H9 H 0.573(4) 0.369(2) 0.966(1)
H10 H 0.736(4) 0.380(2) 1.028(1)
H11 H 0.693(4) 0.174(2) 1.052(1)
H12 H 0.960(4) 0.186(2) 1.023(1)
H13 H 0.850(3) 0.179(2) 0.899(1)
H14 H 0.819(4) 0.058(2) 0.962(1)
H15 H 0.434(4) 0.234(2) 0.913(1)
H16 H 0.426(4) 0.110(2) 0.965(1)
H17 H 0.304(3) 0.095(2) 0.853(1)
H18 H 0.538(3) 0.011(2) 0.866(1)
H19 H 0.719(3) 0.172(2) 0.785(1)
H20 H 0.533(3) 0.127(2) 0.740(1)
H21 H 0.306(3) 0.533(2) 0.696(1)
H22 H 0.623(3) 0.637(2) 0.659(1)
H23 H 0.670(3) 0.574(2) 0.591(1)
H24 H 0.272(3) 0.745(2) 0.584(1)
H25 H 0.264(3) 0.912(2) 0.484(1)
H26 H 0.433(3) 1.189(2) 0.267(1)
H27 H 0.972(3) 0.925(2) 0.311(1)
H28 H 0.791(3) 0.819(2) 0.417(1)
H29 H 0.367(3) 0.442(2) 0.561(1)
H30 H 0.163(4) 0.537(2) 0.573(1)
H31 H 0.180(3) 0.402(2) 0.624(1)
#END
