
#######################################################################
#
#                 Cambridge Crystallographic Data Centre
#                                CCDC
#
#######################################################################
#
# If this CIF has been generated from an entry in the Cambridge
# Structural Database, then it will include bibliographic, chemical,
# crystal, experimental, refinement or atomic coordinate data resulting
# from the CCDC's data processing and validation procedures.
#
#######################################################################

data_CSD_CIF_HABZUF
_audit_creation_date 1993-09-15
_audit_creation_method CSD-ConQuest-V1
_database_code_CSD HABZUF
_chemical_formula_sum 'C16 H27 N1 O4'
_chemical_formula_moiety
;
C16 H27 N1 O4
;
_journal_coden_Cambridge 1078
_journal_year 1993
_journal_name_full 'CSD Communication(Private Communication) '
loop_
_publ_author_name
"M.Hesse"
"S.Stanchev"
"B.R.Vincent"
"A.Linden"
_chemical_name_systematic
;
2-Acetylethyl-2-nitrocyclododecanone
;
_cell_volume   1645.538
_exptl_crystal_colour 'colorless'
_exptl_special_details
;
contribution from Organisch-Chemisches Institut, Universitat Zurich, 
Winterthurerstrasse 190, CH-8057 Zurich, Switzerland
Dx given as 1.00, we calculate 1.20
;
_diffrn_ambient_temperature ?
_diffrn_special_details
;
The study was carried out at room temperature,in the range 283-303K

;
#These two values have been output from a single CSD field.
_refine_ls_R_factor_gt 0.0447
_refine_ls_wR_factor_gt 0.0447
_symmetry_cell_setting monoclinic
_symmetry_space_group_name_H-M 'P 21/n'
_symmetry_Int_Tables_number 14
loop_
_symmetry_equiv_pos_site_id
_symmetry_equiv_pos_as_xyz
1 x,y,z
2 1/2-x,1/2+y,1/2-z
3 -x,-y,-z
4 -1/2+x,-1/2-y,-1/2+z
_cell_length_a 10.269(6)
_cell_length_b 11.792(7)
_cell_length_c 13.639(8)
_cell_angle_alpha 90
_cell_angle_beta 94.90(5)
_cell_angle_gamma 90
_cell_formula_units_Z 4
loop_
_atom_type_symbol
_atom_type_radius_bond
C 0.68
H 0.23
N 0.68
O 0.68
loop_
_atom_site_label
_atom_site_type_symbol
_atom_site_fract_x
_atom_site_fract_y
_atom_site_fract_z
C1 C 0.6474(2) 0.2603(2) 0.3529(2)
C2 C 0.5574(2) 0.2924(2) 0.4344(2)
C3 C 0.6136(3) 0.3593(3) 0.5222(2)
C4 C 0.5387(3) 0.3456(3) 0.6129(2)
C5 C 0.5486(3) 0.2280(3) 0.6584(2)
C6 C 0.6819(3) 0.2002(3) 0.7102(2)
C7 C 0.7037(4) 0.0749(3) 0.7347(2)
C8 C 0.7043(3) -0.0020(3) 0.6456(2)
C9 C 0.8175(3) 0.0164(3) 0.5821(2)
C10 C 0.7862(3) -0.0197(3) 0.4747(2)
C11 C 0.6916(3) 0.0586(2) 0.4155(2)
C12 C 0.7496(3) 0.1733(2) 0.3917(2)
C13 C 0.5662(3) 0.2242(3) 0.2592(2)
C14 C 0.6438(3) 0.1968(3) 0.1725(2)
C15 C 0.5610(3) 0.1659(3) 0.0813(2)
C16 C 0.6269(4) 0.1365(4) -0.0079(3)
N1 N 0.7158(2) 0.3710(2) 0.3283(2)
O1 O 0.4450(2) 0.2624(2) 0.4259(1)
O2 O 0.8337(2) 0.3760(2) 0.3335(2)
O3 O 0.6450(2) 0.4502(2) 0.3020(2)
O4 O 0.4434(2) 0.1631(2) 0.0804(2)
H1 H 0.70200 0.33470 0.53830
H2 H 0.61330 0.43810 0.50460
H3 H 0.44820 0.36150 0.59470
H4 H 0.57240 0.39940 0.66150
H5 H 0.48470 0.22220 0.70560
H6 H 0.52950 0.17330 0.60700
H7 H 0.74750 0.22360 0.66840
H8 H 0.69180 0.24240 0.77060
H9 H 0.63510 0.05020 0.77330
H10 H 0.78640 0.06740 0.77260
H11 H 0.70780 -0.07910 0.66830
H12 H 0.62430 0.01020 0.60510
H13 H 0.83950 0.09550 0.58340
H14 H 0.89100 -0.02690 0.60940
H15 H 0.74870 -0.09420 0.47410
H16 H 0.86650 -0.02160 0.44340
H17 H 0.66350 0.02160 0.35470
H18 H 0.61760 0.07130 0.45260
H19 H 0.79510 0.20300 0.45060
H20 H 0.81020 0.16230 0.34280
H21 H 0.50700 0.28480 0.24000
H22 H 0.51740 0.15780 0.27400
H23 H 0.70080 0.13420 0.19040
H24 H 0.69500 0.26210 0.15870
H25 H 0.69560 0.18070 -0.01610
H26 H 0.57210 0.14910 -0.06430
H27 H 0.63920 0.07110 -0.00440
#END
