
#######################################################################
#
#                 Cambridge Crystallographic Data Centre
#                                CCDC
#
#######################################################################
#
# If this CIF has been generated from an entry in the Cambridge
# Structural Database, then it will include bibliographic, chemical,
# crystal, experimental, refinement or atomic coordinate data resulting
# from the CCDC's data processing and validation procedures.
#
#######################################################################

data_CSD_CIF_HACHUQ
_audit_creation_date 2012-01-25
_audit_creation_method CSD-ConQuest-V1
_database_code_CSD HACHUQ
_database_code_depnum_ccdc_archive 'CCDC 816060'
_chemical_formula_sum 'C27 H26 N2 O3'
_chemical_formula_moiety
;
C27 H26 N2 O3
;
_journal_coden_Cambridge 16
_journal_volume 67
_journal_year 2011
_journal_page_first 8685
_journal_name_full 'Tetrahedron '
loop_
_publ_author_name
"V.Yu.Korotaev"
"V.Ya.Sosnovskikh"
"A.Yu.Barkov"
"P.A.Slepukhin"
"M.A.Ezhikova"
"M.I.Kodess"
"Y.V.Shklyaev"
_chemical_name_systematic
;
3,3-Dimethyl-1-((3-nitro-2-phenyl-3,4-dihydro-2H-chromen-4-yl)methyl)-3,4-dihy
droisoquinoline
;
_chemical_name_common
;
3,3-Dimethyl-1-(3-nitro-2-phenylchroman-4-yl)methyl-3,4-dihydroisoquinoline
;
_chemical_melting_point 417.15
_cell_volume   1115.713
_exptl_crystal_colour 'colorless'
_exptl_crystal_density_diffrn 1.27
_exptl_crystal_description 'prism'
_diffrn_ambient_temperature 295
#These two values have been output from a single CSD field.
_refine_ls_R_factor_gt 0.0408
_refine_ls_wR_factor_gt 0.0408
_symmetry_cell_setting triclinic
_symmetry_space_group_name_H-M 'P -1'
_symmetry_Int_Tables_number 2
loop_
_symmetry_equiv_pos_site_id
_symmetry_equiv_pos_as_xyz
1 x,y,z
2 -x,-y,-z
_cell_length_a 9.8255(13)
_cell_length_b 9.8304(7)
_cell_length_c 12.2545(13)
_cell_angle_alpha 93.861(7)
_cell_angle_beta 104.297(10)
_cell_angle_gamma 101.445(9)
_cell_formula_units_Z 2
loop_
_atom_type_symbol
_atom_type_radius_bond
C 0.68
H 0.23
N 0.68
O 0.68
loop_
_atom_site_label
_atom_site_type_symbol
_atom_site_fract_x
_atom_site_fract_y
_atom_site_fract_z
N1 N 0.23546(14) 0.37791(12) 1.39220(11)
O1 O 0.48390(14) 0.45594(13) 1.16053(12)
C1 C 0.0548(2) 0.04875(19) 0.84547(18)
H1 H -0.02420 -0.02640 0.83060
C2 C 0.26754(15) 0.65280(15) 1.15786(15)
N2 N 0.38186(17) 0.35952(16) 1.15464(12)
O2 O 0.39197(14) 0.24025(12) 1.16249(12)
O3 O 0.24665(12) 0.5257(1) 0.97745(9)
C3 C -0.01761(17) 0.34744(14) 1.38305(13)
C4 C 0.27143(17) 0.64902(15) 1.04711(15)
C5 C 0.23746(17) 0.39157(15) 1.13784(13)
H2 H 0.1863(13) 0.2764(12) 1.1621(11)
C6 C 0.24165(18) 0.52195(15) 1.21424(14)
H3 H 0.3237(14) 0.5322(12) 1.2788(12)
C7 C 0.11339(18) 0.40472(14) 1.34919(13)
C8 C 0.29917(16) 0.78249(16) 1.22033(14)
H4 H 0.29800 0.78770 1.29610
C9 C 0.17225(18) 0.27861(15) 0.93500(13)
C10 C 0.1669(3) 0.0397(2) 0.80094(17)
H5 H 0.16490 -0.04110 0.75600
C11 C -0.00300(18) 0.28561(15) 1.48223(14)
C12 C 0.17580(19) 0.40385(15) 1.01326(14)
H6 H 0.0758(16) 0.4093(13) 1.0092(12)
C13 C 0.10659(17) 0.49767(15) 1.25583(13)
H7 H 0.09210 0.58710 1.28340
H8 H 0.02430 0.45540 1.19260
C14 C 0.05680(19) 0.16710(18) 0.91199(15)
H9 H -0.02080 0.17180 0.94170
C15 C 0.33237(18) 0.90397(15) 1.17415(16)
H10 H 0.35190 0.99020 1.21780
C16 C 0.40442(19) 0.34046(19) 1.55845(17)
H11 H 0.41550 0.43380 1.59350
H12 H 0.47100 0.34050 1.51280
H13 H 0.42340 0.28000 1.61610
C17 C -0.1545(2) 0.34732(17) 1.31948(17)
H14 H -0.1667(14) 0.3925(13) 1.2542(13)
C18 C 0.2332(2) 0.14100(17) 1.42962(17)
H15 H 0.30190 0.13920 1.38610
H16 H 0.13740 0.11000 1.38050
H17 H 0.24800 0.08010 1.48740
C19 C 0.25237(17) 0.28864(16) 1.48451(14)
C20 C 0.30692(17) 0.76994(16) 0.99919(15)
H18 H 0.31070 0.76500 0.92400
C21 C 0.2823(2) 0.1503(2) 0.82273(16)
H19 H 0.35920 0.14480 0.79230
C22 C 0.33644(18) 0.89698(17) 1.06316(17)
H20 H 0.35930 0.97880 1.03120
C23 C 0.2858(2) 0.27045(18) 0.88962(15)
H21 H 0.36460 0.34560 0.90400
C24 C 0.14600(19) 0.29703(17) 1.55382(14)
H22 H 0.14590 0.22240 1.60170
H23 H 0.17690 0.38530 1.60280
C25 C -0.1229(2) 0.22217(18) 1.51336(18)
H24 H -0.1101(17) 0.1792(15) 1.5795(15)
C26 C -0.2573(2) 0.2213(2) 1.4481(2)
H25 H -0.3406(18) 0.1746(15) 1.4659(14)
C27 C -0.2737(2) 0.2845(2) 1.3518(2)
H26 H -0.367(2) 0.2855(17) 1.3024(16)
#END
