
#######################################################################
#
#                 Cambridge Crystallographic Data Centre
#                                CCDC
#
#######################################################################
#
# If this CIF has been generated from an entry in the Cambridge
# Structural Database, then it will include bibliographic, chemical,
# crystal, experimental, refinement or atomic coordinate data resulting
# from the CCDC's data processing and validation procedures.
#
#######################################################################

data_CSD_CIF_HACJIE
_audit_creation_date 1993-10-28
_audit_creation_method CSD-ConQuest-V1
_database_code_CSD HACJIE
_chemical_formula_sum 'C18 H12 N6 O6'
_chemical_formula_moiety
;
C18 H12 N6 O6
;
_journal_coden_Cambridge 1078
_journal_year 1993
_journal_name_full 'CSD Communication(Private Communication) '
loop_
_publ_author_name
"A.S.Dreiding"
"J.H.Bieri"
"R.Prewo"
"A.Linden"
"H.Hilpert"
"L.Hoesch"
_chemical_name_systematic
;
1,2-bis((2-Nitrophenyl)azoxy)benzene
;
_cell_volume   1783.053
_exptl_crystal_colour 'pale orange'
_exptl_crystal_density_diffrn 1.52
_exptl_special_details
;
contribution from Organisch-Chemisches Institut, Universitat Zurich, 
Winterthurerstrasse 190, CH-8057 Zurich, Switzerland
Structure is referred to in Helv. Chim. Acta 68, 325, 1985
;
_diffrn_ambient_temperature 133.15
#These two values have been output from a single CSD field.
_refine_ls_R_factor_gt 0.0465
_refine_ls_wR_factor_gt 0.0465
loop_
_citation_database_id_CSD
_citation_special_details
BOHLIT "is a stereoisomer of this entry"
_symmetry_cell_setting monoclinic
_symmetry_space_group_name_H-M 'P 21/c'
_symmetry_Int_Tables_number 14
loop_
_symmetry_equiv_pos_site_id
_symmetry_equiv_pos_as_xyz
1 x,y,z
2 -x,1/2+y,1/2-z
3 -x,-y,-z
4 x,-1/2-y,-1/2+z
_cell_length_a 13.715(2)
_cell_length_b 11.364(1)
_cell_length_c 11.634(1)
_cell_angle_alpha 90
_cell_angle_beta 100.47(1)
_cell_angle_gamma 90
_cell_formula_units_Z 4
loop_
_atom_type_symbol
_atom_type_radius_bond
C 0.68
H 0.23
N 0.68
O 0.68
loop_
_atom_site_label
_atom_site_type_symbol
_atom_site_fract_x
_atom_site_fract_y
_atom_site_fract_z
C1 C 0.3194(1) 0.6900(1) 0.5103(1)
C2 C 0.3530(1) 0.7694(1) 0.5989(1)
C3 C 0.4255(1) 0.7338(2) 0.6915(1)
N1 N 0.23336(9) 0.7198(1) 0.4221(1)
O1 O 0.16605(9) 0.6433(1) 0.4019(1)
N2 N 0.2316(1) 0.8230(1) 0.3801(1)
C4 C 0.1423(1) 0.8510(1) 0.3012(1)
C5 C 0.0829(1) 0.9441(1) 0.3262(1)
N3 N 0.1037(1) 0.9998(1) 0.4414(1)
O2 O 0.1388(1) 0.9400(1) 0.5267(1)
O3 O 0.0832(1) 1.1041(1) 0.4474(1)
C6 C 0.0038(1) 0.9851(2) 0.2449(2)
C7 C -0.0182(1) 0.9312(2) 0.1368(2)
C8 C 0.0397(1) 0.8384(2) 0.1104(2)
C9 C 0.1194(1) 0.7985(2) 0.1917(2)
C10 C 0.3592(1) 0.5776(1) 0.5125(1)
C11 C 0.4312(1) 0.5423(1) 0.6052(1)
C12 C 0.4640(1) 0.6210(2) 0.6949(1)
N4 N 0.33114(9) 0.4983(1) 0.4128(1)
O4 O 0.33219(9) 0.5405(1) 0.31327(9)
N5 N 0.3145(1) 0.3931(1) 0.4413(1)
C13 C 0.2929(1) 0.3079(1) 0.3513(1)
C14 C 0.3226(1) 0.1921(1) 0.3810(1)
N6 N 0.3857(1) 0.1658(1) 0.4941(1)
O5 O 0.45069(9) 0.2361(1) 0.5348(1)
O6 O 0.3705(1) 0.0728(1) 0.5414(1)
C15 C 0.2960(1) 0.0981(1) 0.3064(1)
C16 C 0.2380(1) 0.1189(2) 0.1984(1)
C17 C 0.2070(1) 0.2323(2) 0.1666(1)
C18 C 0.2341(1) 0.3266(2) 0.2416(1)
H1 H 0.322(1) 0.846(2) 0.598(1)
H2 H 0.446(1) 0.786(2) 0.753(2)
H3 H -0.034(2) 1.051(2) 0.265(2)
H4 H -0.073(1) 0.960(2) 0.081(2)
H5 H 0.026(1) 0.803(2) 0.034(2)
H6 H 0.159(1) 0.735(2) 0.172(2)
H7 H 0.458(1) 0.467(2) 0.605(2)
H8 H 0.513(2) 0.599(2) 0.758(2)
H9 H 0.320(1) 0.020(2) 0.333(1)
H10 H 0.219(1) 0.052(2) 0.146(2)
H11 H 0.169(1) 0.246(2) 0.093(2)
H12 H 0.209(1) 0.403(2) 0.214(2)
#END
