
#######################################################################
#
#                 Cambridge Crystallographic Data Centre
#                                CCDC
#
#######################################################################
#
# If this CIF has been generated from an entry in the Cambridge
# Structural Database, then it will include bibliographic, chemical,
# crystal, experimental, refinement or atomic coordinate data resulting
# from the CCDC's data processing and validation procedures.
#
#######################################################################

data_CSD_CIF_HACNUW
_audit_creation_date 2012-01-25
_audit_creation_method CSD-ConQuest-V1
_database_code_CSD HACNUW
_database_code_depnum_ccdc_archive 'CCDC 835450'
_chemical_formula_sum 'C19 H17 N3 O7'
_chemical_formula_moiety
;
C19 H17 N3 O7
;
_journal_coden_Cambridge 1336
_journal_volume 13
_journal_year 2011
_journal_page_first 5128
_journal_name_full 'Org.Lett. '
loop_
_publ_author_name
"N.Saha"
"T.Biswas"
"S.K.Chattopadhyay"
_chemical_name_systematic
;
(6-Phenyl-7-oxa-1-azabicyclo[2.2.1]hept-2-yl)methyl 3,5-dinitrobenzoate
;
_cell_volume   1835.604
_diffrn_ambient_temperature 293
#These two values have been output from a single CSD field.
_refine_ls_R_factor_gt 0.0306
_refine_ls_wR_factor_gt 0.0306
_symmetry_cell_setting orthorhombic
_symmetry_space_group_name_H-M 'P 21 21 21'
_symmetry_Int_Tables_number 19
loop_
_symmetry_equiv_pos_site_id
_symmetry_equiv_pos_as_xyz
1 x,y,z
2 1/2-x,-y,1/2+z
3 -x,1/2+y,1/2-z
4 1/2+x,1/2-y,-z
_cell_length_a 6.0158(10)
_cell_length_b 10.7516(17)
_cell_length_c 28.380(5)
_cell_angle_alpha 90
_cell_angle_beta 90
_cell_angle_gamma 90
_cell_formula_units_Z 4
loop_
_atom_type_symbol
_atom_type_radius_bond
C 0.68
H 0.23
N 0.68
O 0.68
loop_
_atom_site_label
_atom_site_type_symbol
_atom_site_fract_x
_atom_site_fract_y
_atom_site_fract_z
C1 C 0.1966(7) 1.1116(3) 0.42187(11)
C2 C 0.0875(9) 1.3547(4) 0.44561(13)
H1 H 0.05020 1.43620 0.45330
C3 C -0.0066(7) 1.1391(4) 0.44238(12)
H2 H -0.10840 1.07570 0.44810
C4 C -0.0590(7) 1.2602(4) 0.45444(13)
H3 H -0.19480 1.27750 0.46870
C5 C 0.3408(7) 1.2077(4) 0.41376(12)
H4 H 0.47770 1.19080 0.40000
C6 C 0.2888(8) 1.3290(4) 0.42547(14)
H5 H 0.38990 1.39260 0.41970
C7 C 0.2649(6) 0.9808(3) 0.40890(13)
H6 H 0.33830 0.98280 0.37810
C8 C 0.4244(7) 0.9225(4) 0.44480(17)
H7 H 0.56810 0.90430 0.43090
H8 H 0.44440 0.97530 0.47220
N1 N 0.0750(5) 0.8936(2) 0.40642(10)
O1 O 0.0712(5) 0.8473(2) 0.45478(9)
C9 C 0.2992(8) 0.8053(4) 0.45689(16)
H9 H 0.34090 0.76920 0.48730
C10 C 0.1521(6) 0.7792(3) 0.38162(14)
H10 H 0.23230 0.80110 0.35270
C11 C 0.3076(7) 0.7140(3) 0.41647(16)
H11 H 0.25150 0.63280 0.42550
H12 H 0.45680 0.70540 0.40390
O2 O 0.0301(4) 0.5912(2) 0.34703(9)
C12 C -0.0511(6) 0.7036(3) 0.37020(15)
H13 H -0.13160 0.68280 0.39870
H14 H -0.14930 0.74960 0.34940
C13 C -0.1061(9) 0.4949(4) 0.34708(14)
O3 O -0.2907(5) 0.4956(2) 0.36306(10)
C14 C 0.1933(8) 0.3894(3) 0.29982(13)
H15 H 0.27090 0.46400 0.29750
C15 C 0.1675(8) 0.1696(4) 0.28261(12)
H16 H 0.22460 0.09800 0.26870
C16 C -0.0257(7) 0.1681(4) 0.30791(13)
C17 C -0.0039(7) 0.3837(4) 0.32451(12)
C18 C 0.2737(7) 0.2833(4) 0.27873(13)
C19 C -0.1136(7) 0.2716(4) 0.32834(12)
H17 H -0.24690 0.26670 0.34480
N2 N 0.4765(6) 0.2894(4) 0.24973(12)
O4 O 0.5726(5) 0.3886(3) 0.24779(10)
O5 O 0.5380(6) 0.1963(3) 0.22939(12)
N3 N -0.1450(7) 0.0489(3) 0.31333(12)
O6 O -0.3268(5) 0.0501(2) 0.33198(11)
O7 O -0.0542(5) -0.0449(3) 0.29826(9)
#END
