
#######################################################################
#
#                 Cambridge Crystallographic Data Centre
#                                CCDC
#
#######################################################################
#
# If this CIF has been generated from an entry in the Cambridge
# Structural Database, then it will include bibliographic, chemical,
# crystal, experimental, refinement or atomic coordinate data resulting
# from the CCDC's data processing and validation procedures.
#
#######################################################################

data_CSD_CIF_HACPOS
_audit_creation_date 2012-01-25
_audit_creation_method CSD-ConQuest-V1
_database_code_CSD HACPOS
_database_code_depnum_ccdc_archive 'CCDC 828088'
_chemical_formula_sum 'C10 H12 N2 O2'
_chemical_formula_moiety
;
C10 H12 N2 O2
;
_journal_coden_Cambridge 1336
_journal_volume 13
_journal_year 2011
_journal_page_first 5160
_journal_name_full 'Org.Lett. '
loop_
_publ_author_name
"Weiwen Zhao"
"Ruiyao Wang"
"N.J.Mosey"
"A.Petitjean"
_chemical_name_systematic
;
N-(((Benzyloxy)imino)methyl)acetamide
;
_cell_volume   1022.749
_exptl_crystal_colour 'colorless'
_exptl_crystal_density_diffrn 1.248
_exptl_crystal_description 'needle'
_diffrn_ambient_temperature 180
#These two values have been output from a single CSD field.
_refine_ls_R_factor_gt 0.0481
_refine_ls_wR_factor_gt 0.0481
_symmetry_cell_setting monoclinic
_symmetry_space_group_name_H-M 'P 21/c'
_symmetry_Int_Tables_number 14
loop_
_symmetry_equiv_pos_site_id
_symmetry_equiv_pos_as_xyz
1 x,y,z
2 -x,1/2+y,1/2-z
3 -x,-y,-z
4 x,-1/2-y,-1/2+z
_cell_length_a 16.0446(14)
_cell_length_b 4.7640(4)
_cell_length_c 13.4292(15)
_cell_angle_alpha 90
_cell_angle_beta 94.887(7)
_cell_angle_gamma 90
_cell_formula_units_Z 4
loop_
_atom_type_symbol
_atom_type_radius_bond
C 0.68
H 0.23
N 0.68
O 0.68
loop_
_atom_site_label
_atom_site_type_symbol
_atom_site_fract_x
_atom_site_fract_y
_atom_site_fract_z
O1 O 0.26999(8) 0.0812(3) 0.96125(9)
O2 O 0.41139(9) 0.5230(3) 0.70236(10)
N1 N 0.31023(10) -0.0416(3) 0.88170(11)
N2 N 0.38043(9) 0.0812(3) 0.74699(10)
H1 H 0.38510 -0.09830 0.73300
C1 C 0.17265(12) 0.0061(4) 1.08117(14)
C2 C 0.10625(16) 0.1798(6) 1.05119(16)
H2 H 0.09140 0.20830 0.98190
C3 C 0.06122(16) 0.3125(6) 1.12039(18)
H3 H 0.01590 0.43170 1.09840
C4 C 0.08128(15) 0.2741(5) 1.22059(16)
H4 H 0.05030 0.36660 1.26810
C5 C 0.14560(14) 0.1033(5) 1.25109(15)
H5 H 0.15960 0.07450 1.32050
C6 C 0.19125(13) -0.0302(5) 1.18209(15)
H6 H 0.23640 -0.14920 1.20500
C7 C 0.22257(16) -0.1329(5) 1.00590(17)
H7 H 0.26050 -0.27510 1.03890
H8 H 0.18490 -0.22770 0.95420
C8 C 0.33988(11) 0.1546(4) 0.82979(12)
H9 H 0.33410 0.34590 0.84790
C9 C 0.41358(11) 0.2704(3) 0.68584(13)
C10 C 0.45221(13) 0.1536(4) 0.59705(13)
H10 H 0.50850 0.23170 0.59440
H11 H 0.41770 0.20380 0.53590
H12 H 0.45580 -0.05120 0.60270
#END
