
#######################################################################
#
#                 Cambridge Crystallographic Data Centre
#                                CCDC
#
#######################################################################
#
# If this CIF has been generated from an entry in the Cambridge
# Structural Database, then it will include bibliographic, chemical,
# crystal, experimental, refinement or atomic coordinate data resulting
# from the CCDC's data processing and validation procedures.
#
#######################################################################

data_CSD_CIF_HACPEG
_audit_creation_date 1993-10-28
_audit_creation_method CSD-ConQuest-V1
_database_code_CSD HACPEG
_chemical_formula_sum 'C22 H26 N2 O7'
_chemical_formula_moiety
;
C22 H26 N2 O7
;
_journal_coden_Cambridge 1078
_journal_year 1993
_journal_name_full 'CSD Communication(Private Communication) '
loop_
_publ_author_name
"A.S.Dreiding"
"J.H.Bieri"
"R.Prewo"
"A.Linden"
"E.Hug"
_chemical_name_systematic
;
6-(p-Methoxyphenyl)-2-methylheptan-3-yl 3,5-dinitrobenzoate
;
_cell_volume   2186.338
_exptl_crystal_colour 'pale yellow'
_exptl_crystal_density_diffrn 1.31
_exptl_special_details
;
contribution from Organisch-Chemisches Institut, Universitat Zurich, 
Winterthurerstrasse 190, CH-8057 Zurich, Switzerland
;
_diffrn_ambient_temperature 133.15
#These two values have been output from a single CSD field.
_refine_ls_R_factor_gt 0.079
_refine_ls_wR_factor_gt 0.079
_symmetry_cell_setting monoclinic
_symmetry_space_group_name_H-M 'P 21/c'
_symmetry_Int_Tables_number 14
loop_
_symmetry_equiv_pos_site_id
_symmetry_equiv_pos_as_xyz
1 x,y,z
2 -x,1/2+y,1/2-z
3 -x,-y,-z
4 x,-1/2-y,-1/2+z
_cell_length_a 7.795(1)
_cell_length_b 22.051(1)
_cell_length_c 13.323(1)
_cell_angle_alpha 90
_cell_angle_beta 107.31(1)
_cell_angle_gamma 90
_cell_formula_units_Z 4
loop_
_atom_type_symbol
_atom_type_radius_bond
C 0.68
H 0.23
N 0.68
O 0.68
loop_
_atom_site_label
_atom_site_type_symbol
_atom_site_fract_x
_atom_site_fract_y
_atom_site_fract_z
C1 C 0.2888(2) 0.44002(8) 0.8910(1)
C2 C 0.2491(2) 0.43074(7) 0.7727(1)
C3 C 0.4212(2) 0.43151(6) 0.7405(1)
O1 O 0.5053(1) 0.49155(4) 0.76869(7)
C4 C 0.3924(2) 0.42203(6) 0.6238(1)
C5 C 0.5633(2) 0.41268(6) 0.5933(1)
C6 C 0.5314(2) 0.40435(6) 0.4742(1)
C7 C 0.7126(2) 0.40021(8) 0.4519(1)
C8 C 0.1078(2) 0.4761(1) 0.7124(1)
C9 C 0.4105(2) 0.35016(6) 0.4343(1)
C10 C 0.2251(2) 0.35632(6) 0.3904(1)
C11 C 0.1120(2) 0.30614(7) 0.3613(1)
C12 C 0.1850(2) 0.24814(7) 0.3761(1)
O2 O 0.0892(2) 0.19522(5) 0.3534(1)
C13 C 0.3701(2) 0.24103(7) 0.4179(1)
C14 C 0.4801(2) 0.29114(6) 0.4467(1)
C15 C -0.0980(3) 0.19952(8) 0.2997(2)
C16 C 0.7359(2) 0.55913(6) 0.8486(1)
C17 C 0.9194(2) 0.57027(6) 0.8880(1)
C18 C 0.9761(2) 0.62995(7) 0.9063(1)
N1 N 1.1717(2) 0.64165(8) 0.9451(1)
O3 O 1.2738(2) 0.60142(7) 0.9355(1)
O4 O 1.2185(2) 0.69155(8) 0.9823(2)
C19 C 0.8593(3) 0.67840(7) 0.8884(1)
C20 C 0.6787(2) 0.66545(6) 0.8487(1)
N2 N 0.5492(3) 0.71577(6) 0.8226(1)
O5 O 0.6092(3) 0.76754(6) 0.8295(1)
O6 O 0.3897(2) 0.70277(7) 0.7950(1)
C21 C 0.6135(2) 0.60669(6) 0.8287(1)
C22 C 0.6763(2) 0.49449(6) 0.8278(1)
O7 O 0.7745(1) 0.45184(5) 0.85964(9)
H1 H 0.328(2) 0.4830(8) 0.910(1)
H2 H 0.383(3) 0.4139(9) 0.930(2)
H3 H 0.176(2) 0.4343(8) 0.912(2)
H4 H 0.201(2) 0.3917(9) 0.755(1)
H5 H 0.506(2) 0.4024(8) 0.783(1)
H6 H 0.314(2) 0.3865(7) 0.603(1)
H7 H 0.322(2) 0.4576(7) 0.586(1)
H8 H 0.632(2) 0.3773(8) 0.631(1)
H9 H 0.640(2) 0.4457(8) 0.618(1)
H10 H 0.462(2) 0.4420(7) 0.436(1)
H11 H 0.786(3) 0.367(1) 0.493(2)
H12 H 0.699(3) 0.3944(9) 0.379(2)
H13 H 0.788(2) 0.4361(8) 0.474(1)
H14 H 0.153(3) 0.517(1) 0.725(2)
H15 H 0.074(3) 0.4685(9) 0.632(2)
H16 H -0.002(3) 0.4738(9) 0.734(2)
H17 H 0.168(2) 0.3956(8) 0.379(1)
H18 H -0.010(2) 0.3113(8) 0.334(1)
H19 H 0.420(3) 0.2050(9) 0.425(2)
H20 H 0.612(2) 0.2828(8) 0.476(1)
H21 H -0.112(3) 0.2207(9) 0.230(2)
H22 H -0.161(3) 0.226(1) 0.347(2)
H23 H -0.145(3) 0.161(1) 0.290(2)
H24 H 1.008(2) 0.5384(8) 0.902(1)
H25 H 0.899(3) 0.720(1) 0.900(2)
H26 H 0.487(2) 0.5984(8) 0.801(1)
#END
