
#######################################################################
#
#                 Cambridge Crystallographic Data Centre
#                                CCDC
#
#######################################################################
#
# If this CIF has been generated from an entry in the Cambridge
# Structural Database, then it will include bibliographic, chemical,
# crystal, experimental, refinement or atomic coordinate data resulting
# from the CCDC's data processing and validation procedures.
#
#######################################################################

data_CSD_CIF_HADCAT
_audit_creation_date 2016-12-08
_audit_creation_method CSD-ConQuest-V1
_database_code_CSD HADCAT
_database_code_depnum_ccdc_archive 'CCDC 1521537'
_chemical_formula_sum 'C14 H10 N6 O8'
_chemical_formula_moiety
;
C14 H10 N6 O8
;
_journal_coden_Cambridge 1078
_journal_year 2016
_journal_name_full 'CSD Communication(Private Communication) '
loop_
_publ_author_name
"T.Junk"
"F.R.Fronczek"
_chemical_name_systematic
;
bis(2-methyl-3,5-dinitrophenyl)diazene
;
_cell_volume    396.724
_exptl_crystal_colour 'orange'
_exptl_crystal_density_diffrn 1.634
_exptl_crystal_description 'plate'
_exptl_crystal_preparation 'dichloromethane'
_diffrn_ambient_temperature 298
#These two values have been output from a single CSD field.
_refine_ls_R_factor_gt 0.0463
_refine_ls_wR_factor_gt 0.0463
_symmetry_cell_setting triclinic
_symmetry_space_group_name_H-M 'P -1'
_symmetry_Int_Tables_number 2
loop_
_symmetry_equiv_pos_site_id
_symmetry_equiv_pos_as_xyz
1 x,y,z
2 -x,-y,-z
_cell_length_a 4.0916(3)
_cell_length_b 9.1792(9)
_cell_length_c 11.0616(12)
_cell_angle_alpha 103.443(9)
_cell_angle_beta 90.230(8)
_cell_angle_gamma 100.578(8)
_cell_formula_units_Z 1
loop_
_atom_type_symbol
_atom_type_radius_bond
C 0.68
H 0.23
N 0.68
O 0.68
loop_
_atom_site_label
_atom_site_type_symbol
_atom_site_fract_x
_atom_site_fract_y
_atom_site_fract_z
N1 N 0.5878(4) 0.50828(13) 0.45707(12)
N2 N 0.9823(4) 0.25031(16) 0.06018(13)
N3 N 0.4162(4) -0.05232(14) 0.32962(13)
O1 O 1.2238(4) 0.34936(18) 0.05711(14)
O2 O 0.8723(5) 0.14753(18) -0.02926(12)
O3 O 0.5270(4) -0.15793(13) 0.27057(15)
O4 O 0.2111(4) -0.06186(15) 0.40773(15)
C1 C 0.6211(4) 0.37002(15) 0.37013(14)
C2 C 0.7898(4) 0.38652(16) 0.26245(14)
C3 C 0.8208(4) 0.25030(16) 0.17871(13)
C4 C 0.7009(4) 0.10705(16) 0.19856(14)
H1 H 0.72760 0.01900 0.14090
C5 C 0.5410(4) 0.09990(15) 0.30667(14)
C6 C 0.4942(4) 0.22749(16) 0.39314(14)
H2 H 0.38160 0.21930 0.46480
C7 C 0.9129(5) 0.54210(18) 0.23917(17)
H3 H 0.81920 0.61660 0.29720
H4 H 0.84680 0.54230 0.15580
H5 H 1.15130 0.56650 0.24960
N1A N 0.4122(4) 0.49172(13) 0.54293(12)
N2A N 0.0177(4) 0.74969(16) 0.93982(13)
N3A N 0.5838(4) 1.05232(14) 0.67038(13)
O1A O -0.2238(4) 0.65064(18) 0.94289(14)
O2A O 0.1277(5) 0.85247(18) 1.02926(12)
O3A O 0.4730(4) 1.15793(13) 0.72943(15)
O4A O 0.7889(4) 1.06186(15) 0.59227(15)
C1A C 0.3789(4) 0.62998(15) 0.62987(14)
C2A C 0.2102(4) 0.61348(16) 0.73755(14)
C3A C 0.1792(4) 0.74970(16) 0.82129(13)
C4A C 0.2991(4) 0.89295(16) 0.80144(14)
H1A H 0.27240 0.98100 0.85910
C5A C 0.4590(4) 0.90010(15) 0.69333(14)
C6A C 0.5058(4) 0.77251(16) 0.60686(14)
H2A H 0.61840 0.78070 0.53520
C7A C 0.0871(5) 0.45790(18) 0.76083(17)
H3A H 0.18080 0.38340 0.70280
H4A H 0.15320 0.45770 0.84420
H5A H -0.15130 0.43350 0.75040
#END
