
#######################################################################
#
#                 Cambridge Crystallographic Data Centre
#                                CCDC
#
#######################################################################
#
# If this CIF has been generated from an entry in the Cambridge
# Structural Database, then it will include bibliographic, chemical,
# crystal, experimental, refinement or atomic coordinate data resulting
# from the CCDC's data processing and validation procedures.
#
#######################################################################

data_CSD_CIF_HADWAK
_audit_creation_date 1994-01-24
_audit_creation_method CSD-ConQuest-V1
_database_code_CSD HADWAK
_chemical_formula_sum 'C21 H25 N3 O9'
_chemical_formula_moiety
;
C21 H25 N3 O9
;
_journal_coden_Cambridge 24
_journal_volume 34
_journal_year 1993
_journal_page_first 1967
_journal_name_full 'Tetrahedron Lett. '
loop_
_publ_author_name
"T.Ogawa"
"K.Matsumoto"
"M.Yoshimura"
"K.Hatayama"
"K.Kitamura"
"Y.Kita"
_chemical_name_systematic
;
5-(Cyanoethoxycarbonyl)-trans-2-hydroxy-6-methyl-3-methoxycarbonyl-2-dimethoxy
methyl-4-(3-nitrophenyl)-1,2,3,4-tetrahydropyridine
;
_chemical_melting_point 429.15
_cell_volume   1120.636
_exptl_crystal_density_diffrn 1.37
_exptl_special_details
;
Melting point range 429.15-430.15K

;
_diffrn_ambient_temperature ?
_diffrn_special_details
;
The study was carried out at room temperature,in the range 283-303K

;
#These two values have been output from a single CSD field.
_refine_ls_R_factor_gt 0.049
_refine_ls_wR_factor_gt 0.049
loop_
_citation_database_id_CSD
_citation_special_details
HADWEO "is a stereoisomer of this entry"
_symmetry_cell_setting triclinic
_symmetry_space_group_name_H-M 'P -1'
_symmetry_Int_Tables_number 2
loop_
_symmetry_equiv_pos_site_id
_symmetry_equiv_pos_as_xyz
1 x,y,z
2 -x,-y,-z
_cell_length_a 9.381(2)
_cell_length_b 14.858(2)
_cell_length_c 9.188(2)
_cell_angle_alpha 101.85(2)
_cell_angle_beta 111.07(2)
_cell_angle_gamma 100.81(1)
_cell_formula_units_Z 2
loop_
_atom_type_symbol
_atom_type_radius_bond
C 0.68
H 0.23
N 0.68
O 0.68
loop_
_atom_site_label
_atom_site_type_symbol
_atom_site_fract_x
_atom_site_fract_y
_atom_site_fract_z
N1 N 0.0420(2) 0.0887(1) -0.1852(2)
C1 C -0.0320(2) 0.1652(1) -0.1927(2)
C2 C 0.0930(2) 0.2567(1) -0.1698(2)
C3 C 0.1680(2) 0.2389(1) -0.2943(2)
C4 C 0.1922(2) 0.1393(1) -0.3267(2)
C5 C 0.1367(2) 0.0720(1) -0.2640(2)
C6 C 0.3278(2) 0.3164(1) -0.2279(2)
C7 C 0.3446(2) 0.3912(1) -0.2943(2)
C8 C 0.4932(2) 0.4587(1) -0.2310(2)
C9 C 0.6251(2) 0.4538(2) -0.1077(3)
C10 C 0.6072(2) 0.3796(2) -0.0406(3)
C11 C 0.4592(2) 0.3118(1) -0.1001(2)
N2 N 0.5084(2) 0.5389(1) -0.3005(2)
O1 O 0.6362(2) 0.5995(1) -0.2435(3)
O2 O 0.3923(2) 0.5417(2) -0.4131(3)
C12 C 0.0196(2) 0.3395(1) -0.1740(2)
O3 O -0.0184(2) 0.3752(1) -0.0698(2)
O4 O 0.0035(2) 0.3702(1) -0.3025(2)
C13 C -0.0615(5) 0.4510(2) -0.3086(5)
C14 C 0.2653(2) 0.1150(1) -0.4391(2)
O5 O 0.3089(2) 0.0442(1) -0.4700(2)
O6 O 0.2767(2) 0.1831(1) -0.5168(2)
C15 C 0.3452(3) 0.1703(2) -0.6342(3)
C16 C 0.5190(3) 0.2241(2) -0.5499(3)
C17 C 0.5872(3) 0.2237(2) -0.6703(4)
N3 N 0.6331(4) 0.2210(3) -0.7690(4)
C18 C -0.0978(2) 0.1749(1) -0.0611(2)
O7 O 0.0293(2) 0.2064(1) 0.0912(2)
C19 C 0.0019(3) 0.2633(2) 0.2172(3)
O8 O -0.1932(2) 0.0835(1) -0.0826(2)
C20 C -0.3576(3) 0.0730(2) -0.1291(4)
O9 O -0.1593(2) 0.14681(9) -0.3467(2)
C21 C 0.1677(3) -0.0240(1) -0.2745(3)
H1 H 0.009(3) 0.044(2) -0.138(3)
H2 H 0.173(3) 0.276(2) -0.055(3)
H3 H 0.097(3) 0.246(2) -0.394(3)
H4 H 0.261(3) 0.398(2) -0.375(3)
H5 H 0.730(4) 0.498(2) -0.072(4)
H6 H 0.701(4) 0.369(2) 0.048(4)
H7 H 0.449(3) 0.261(2) -0.051(3)
H8 H -0.015(4) 0.501(3) -0.208(5)
H9 H -0.174(5) 0.423(3) -0.336(4)
H10 H -0.047(5) 0.470(3) -0.382(5)
H11 H 0.337(4) 0.103(2) -0.678(4)
H12 H 0.295(4) 0.209(2) -0.726(4)
H13 H 0.570(4) 0.176(3) -0.479(4)
H14 H 0.531(4) 0.296(3) -0.496(4)
H15 H -0.159(3) 0.217(2) -0.070(3)
H16 H -0.022(4) 0.319(2) 0.193(4)
H17 H -0.081(4) 0.225(2) 0.235(4)
H18 H 0.097(4) 0.276(2) 0.314(4)
H19 H -0.370(4) 0.118(3) -0.052(4)
H20 H -0.405(4) 0.008(3) -0.121(4)
H21 H -0.404(4) 0.073(2) -0.250(4)
H22 H -0.203(3) 0.084(2) -0.389(3)
H23 H 0.138(3) -0.051(2) -0.203(3)
H24 H 0.108(3) -0.067(2) -0.380(4)
H25 H 0.279(4) -0.023(2) -0.258(3)
#END
