
#######################################################################
#
#                 Cambridge Crystallographic Data Centre
#                                CCDC
#
#######################################################################
#
# If this CIF has been generated from an entry in the Cambridge
# Structural Database, then it will include bibliographic, chemical,
# crystal, experimental, refinement or atomic coordinate data resulting
# from the CCDC's data processing and validation procedures.
#
#######################################################################

data_CSD_CIF_HAFBOF
_audit_creation_date 1994-01-24
_audit_creation_method CSD-ConQuest-V1
_database_code_CSD HAFBOF
_chemical_formula_sum 'C16 H12 N8 O1'
_chemical_formula_moiety
;
C16 H12 N8 O1
;
_journal_coden_Cambridge 154
_journal_volume 46
_journal_year 1993
_journal_page_first 417
_journal_name_full 'Aust.J.Chem. '
loop_
_publ_author_name
"M.F.Mackay"
"G.J.Trantino"
"J.F.K.Wilshire"
_chemical_name_systematic
;
2,2'-bis(1'',2'',4''-Triazol-1''-yl)azoxybenzene
;
_chemical_melting_point 463.15
_cell_volume    771.102
_exptl_crystal_colour 'pale cream'
_exptl_crystal_density_diffrn 1.431
_exptl_special_details
;
Melting point range 463.15-465.15K

;
_diffrn_ambient_temperature ?
_diffrn_special_details
;
The study was carried out at room temperature,in the range 283-303K

;
_refine_special_details
;
Azoxy nitrogen is statistically distributed between 2 sites.

;
#These two values have been output from a single CSD field.
_refine_ls_R_factor_gt 0.041
_refine_ls_wR_factor_gt 0.041
_symmetry_cell_setting monoclinic
_symmetry_space_group_name_H-M 'P 21/c'
_symmetry_Int_Tables_number 14
loop_
_symmetry_equiv_pos_site_id
_symmetry_equiv_pos_as_xyz
1 x,y,z
2 -x,1/2+y,1/2-z
3 -x,-y,-z
4 x,-1/2-y,-1/2+z
_cell_length_a 8.815(1)
_cell_length_b 7.863(1)
_cell_length_c 11.836(1)
_cell_angle_alpha 90
_cell_angle_beta 109.96(1)
_cell_angle_gamma 90
_cell_formula_units_Z 2
loop_
_atom_type_symbol
_atom_type_radius_bond
C 0.68
H 0.23
N 0.68
O 0.68
loop_
_atom_site_label
_atom_site_type_symbol
_atom_site_fract_x
_atom_site_fract_y
_atom_site_fract_z
N1 N 0.6195(2) 0.3449(2) 0.1567(1)
N2 N 0.7314(2) 0.2168(2) 0.1843(1)
C1 C 0.8682(2) 0.3012(2) 0.2223(2)
N3 N 0.8536(2) 0.4730(2) 0.2220(2)
C2 C 0.6964(2) 0.4952(2) 0.1807(2)
C3 C 0.4513(2) 0.3097(2) 0.1126(2)
C4 C 0.3899(2) 0.1734(2) 0.0359(2)
C5 C 0.2249(2) 0.1386(3) -0.0043(2)
C6 C 0.1230(2) 0.2431(3) 0.0306(2)
C7 C 0.1835(2) 0.3794(3) 0.1055(2)
C8 C 0.3470(2) 0.4124(2) 0.1477(2)
N4 N 0.4935(2) 0.0785(2) -0.0130(1)
O1 O 0.5558(3) 0.1559(3) -0.0775(2)
H1 H 0.976(2) 0.239(3) 0.248(2)
H2 H 0.633(2) 0.601(3) 0.172(2)
H3 H 0.183(2) 0.044(3) -0.053(2)
H4 H 0.007(3) 0.213(3) 0.004(2)
H5 H 0.112(3) 0.459(3) 0.132(2)
H6 H 0.392(2) 0.507(3) 0.207(2)
N4B N 0.5065(2) -0.0785(2) 0.0130(1)
C4B C 0.6101(2) -0.1734(2) -0.0359(2)
O1B O 0.4442(3) -0.1559(3) 0.0775(2)
C3B C 0.5487(2) -0.3097(2) -0.1126(2)
C5B C 0.7751(2) -0.1386(3) 0.0043(2)
N1B N 0.3805(2) -0.3449(2) -0.1567(1)
C8B C 0.6530(2) -0.4124(2) -0.1477(2)
C6B C 0.8770(2) -0.2431(3) -0.0306(2)
H3B H 0.817(2) -0.044(3) 0.053(2)
N2B N 0.2686(2) -0.2168(2) -0.1843(1)
C2B C 0.3036(2) -0.4952(2) -0.1807(2)
C7B C 0.8165(2) -0.3794(3) -0.1055(2)
H6B H 0.608(2) -0.507(3) -0.207(2)
H4B H 0.993(3) -0.213(3) -0.004(2)
C1B C 0.1318(2) -0.3012(2) -0.2223(2)
N3B N 0.1464(2) -0.4730(2) -0.2220(2)
H2B H 0.367(2) -0.601(3) -0.172(2)
H5B H 0.888(3) -0.459(3) -0.132(2)
H1B H 0.024(2) -0.239(3) -0.248(2)
#END
