
#######################################################################
#
#                 Cambridge Crystallographic Data Centre
#                                CCDC
#
#######################################################################
#
# If this CIF has been generated from an entry in the Cambridge
# Structural Database, then it will include bibliographic, chemical,
# crystal, experimental, refinement or atomic coordinate data resulting
# from the CCDC's data processing and validation procedures.
#
#######################################################################

data_CSD_CIF_HAGMIM
_audit_creation_date 2003-08-21
_audit_creation_method CSD-ConQuest-V1
_database_code_CSD HAGMIM
_database_code_depnum_ccdc_archive 'CCDC 210516'
_chemical_formula_sum 'C19 H22 N2 O7'
_chemical_formula_moiety
;
C19 H22 N2 O7
;
_journal_coden_Cambridge 35
_journal_volume 68
_journal_year 2003
_journal_page_first 3049
_journal_name_full 'J.Org.Chem. '
loop_
_publ_author_name
"G.H.Posner"
"J.P.Maxwell"
"M.Kahraman"
_chemical_name_systematic
;
syn(2-(2-Oxocycloheptylcyclopentyl) 3,5-dinitrobenzoate)
;
_cell_volume   1869.801
_exptl_crystal_density_diffrn 1.387
_diffrn_ambient_temperature 150
#These two values have been output from a single CSD field.
_refine_ls_R_factor_gt 0.0412
_refine_ls_wR_factor_gt 0.0412
_symmetry_cell_setting orthorhombic
_symmetry_space_group_name_H-M 'P n a 21'
_symmetry_Int_Tables_number 33
loop_
_symmetry_equiv_pos_site_id
_symmetry_equiv_pos_as_xyz
1 x,y,z
2 -x,-y,1/2+z
3 1/2-x,1/2+y,1/2+z
4 1/2+x,1/2-y,z
_cell_length_a 20.8380(14)
_cell_length_b 16.0934(11)
_cell_length_c 5.5756(4)
_cell_angle_alpha 90
_cell_angle_beta 90
_cell_angle_gamma 90
_cell_formula_units_Z 4
loop_
_atom_type_symbol
_atom_type_radius_bond
C 0.68
H 0.23
N 0.68
O 0.68
loop_
_atom_site_label
_atom_site_type_symbol
_atom_site_fract_x
_atom_site_fract_y
_atom_site_fract_z
O1 O 0.8539(1) 0.1645(1) 0.9689(3)
O2 O 0.6354(1) 0.1584(1) 0.6077(2)
O3 O 0.5866(1) 0.0921(1) 0.3043(3)
O4 O 0.5039(1) 0.2765(1) 1.2384(3)
O5 O 0.4107(1) 0.2239(1) 1.3142(3)
O6 O 0.3110(1) 0.0443(1) 0.7164(3)
O7 O 0.3634(1) 0.0192(1) 0.3900(3)
N1 N 0.4590(1) 0.2308(1) 1.1911(3)
N2 N 0.3592(1) 0.0471(1) 0.5922(4)
C1 C 0.8625(1) 0.1320(1) 0.7742(4)
C2 C 0.9297(1) 0.1063(1) 0.7032(5)
C3 C 0.9376(1) 0.0441(1) 0.5012(5)
C4 C 0.9037(1) -0.0390(2) 0.5403(6)
C5 C 0.8315(1) -0.0376(1) 0.4837(5)
C6 C 0.7918(1) 0.0200(1) 0.6369(4)
C7 C 0.8073(1) 0.1137(1) 0.6066(4)
C8 C 0.7495(1) 0.1696(1) 0.6614(4)
C9 C 0.7659(1) 0.2636(1) 0.6564(4)
C10 C 0.7150(1) 0.3046(1) 0.4968(5)
C11 C 0.6987(1) 0.2359(1) 0.3191(4)
C12 C 0.6964(1) 0.1588(1) 0.4739(4)
C13 C 0.5858(1) 0.1230(1) 0.4996(4)
C14 C 0.5260(1) 0.1274(1) 0.6503(4)
C15 C 0.5216(1) 0.1758(1) 0.8544(4)
C16 C 0.4636(1) 0.1791(1) 0.9740(4)
C17 C 0.4100(1) 0.1356(1) 0.8977(4)
C18 C 0.4162(1) 0.0894(1) 0.6927(4)
C19 C 0.4730(1) 0.0834(1) 0.5681(4)
H1 H 0.9482(13) 0.0827(18) 0.838(6)
H2 H 0.9525(11) 0.1595(15) 0.669(5)
H3 H 0.9239(10) 0.0692(15) 0.358(5)
H4 H 0.9844(12) 0.0356(15) 0.493(5)
H5 H 0.9059(14) -0.0553(19) 0.702(6)
H6 H 0.9220(13) -0.0809(18) 0.439(5)
H7 H 0.8139(10) -0.0948(14) 0.500(4)
H8 H 0.8302(11) -0.0216(14) 0.317(5)
H9 H 0.7955(9) 0.0072(13) 0.803(4)
H10 H 0.7483(12) 0.0125(14) 0.603(5)
H11 H 0.8209(8) 0.1235(11) 0.441(4)
H12 H 0.7315(9) 0.1557(12) 0.815(4)
H13 H 0.8087(10) 0.2720(13) 0.581(4)
H14 H 0.7672(10) 0.2894(12) 0.816(4)
H15 H 0.6746(11) 0.3190(15) 0.594(5)
H16 H 0.7307(10) 0.3555(15) 0.420(5)
H17 H 0.7349(12) 0.2305(16) 0.204(6)
H18 H 0.6625(11) 0.2472(15) 0.233(5)
H19 H 0.6995(9) 0.1102(12) 0.386(4)
H20 H 0.5577(9) 0.2084(12) 0.914(4)
H21 H 0.3764(11) 0.1395(14) 0.981(5)
H22 H 0.4750(9) 0.0538(11) 0.426(4)
#END
