
#######################################################################
#
#                 Cambridge Crystallographic Data Centre
#                                CCDC
#
#######################################################################
#
# If this CIF has been generated from an entry in the Cambridge
# Structural Database, then it will include bibliographic, chemical,
# crystal, experimental, refinement or atomic coordinate data resulting
# from the CCDC's data processing and validation procedures.
#
#######################################################################

data_CSD_CIF_HAGYIY
_audit_creation_date 2003-08-21
_audit_creation_method CSD-ConQuest-V1
_database_code_CSD HAGYIY
_database_code_depnum_ccdc_archive 'CCDC 214848'
_chemical_formula_sum 'C11 H9 N1 O1'
_chemical_formula_moiety
;
C11 H9 N1 O1
;
_journal_coeditor_code "IUCr BT6270"
_journal_coden_Cambridge 1370
_journal_volume 59
_journal_year 2003
_journal_page_first o860
_journal_name_full 'Acta Crystallogr.,Sect.E:Struct.Rep.Online '
loop_
_publ_author_name
"K.Mariusz"
"K.Hafner"
"H.J.Lindner"
_chemical_name_systematic
;
(E)-Azulene-1-carboxaldehyde oxime
;
_chemical_melting_point 393
_cell_volume   1775.635
_exptl_crystal_colour 'dark green'
_exptl_crystal_density_diffrn 1.281
_exptl_special_details
;
Melting point range 393-394K

;
_exptl_crystal_description 'needle'
_exptl_crystal_preparation 'toluene'
_diffrn_ambient_temperature 293
#These two values have been output from a single CSD field.
_refine_ls_R_factor_gt 0.0517
_refine_ls_wR_factor_gt 0.0517
_symmetry_cell_setting monoclinic
_symmetry_space_group_name_H-M 'C 2/c'
_symmetry_Int_Tables_number 15
loop_
_symmetry_equiv_pos_site_id
_symmetry_equiv_pos_as_xyz
1 x,y,z
2 1/2+x,1/2+y,z
3 x,-y,1/2+z
4 1/2+x,1/2-y,1/2+z
5 -x,-y,-z
6 -1/2-x,-1/2-y,-z
7 -x,y,-1/2-z
8 -1/2-x,-1/2+y,-1/2-z
_cell_length_a 16.931(3)
_cell_length_b 6.174(2)
_cell_length_c 17.028(5)
_cell_angle_alpha 90
_cell_angle_beta 94.00(2)
_cell_angle_gamma 90
_cell_formula_units_Z 8
loop_
_atom_type_symbol
_atom_type_radius_bond
C 0.68
H 0.23
N 0.68
O 0.68
loop_
_atom_site_label
_atom_site_type_symbol
_atom_site_fract_x
_atom_site_fract_y
_atom_site_fract_z
C1 C 0.81777(15) -0.2035(4) 0.59510(16)
C2 C 0.86254(17) -0.3869(5) 0.62111(19)
H1 H 0.91580 -0.40810 0.61320
C3 C 0.81635(18) -0.5287(5) 0.65957(19)
H2 H 0.83350 -0.65880 0.68240
C4 C 0.67554(19) -0.5457(5) 0.69167(17)
H3 H 0.68680 -0.67820 0.71590
C5 C 0.59747(18) -0.4760(5) 0.69347(19)
H4 H 0.56350 -0.56800 0.71830
C6 C 0.56442(18) -0.2881(6) 0.66306(19)
H5 H 0.51070 -0.27190 0.66960
C7 C 0.59873(17) -0.1188(5) 0.62419(19)
H6 H 0.56480 -0.00520 0.60950
C8 C 0.67591(16) -0.0935(5) 0.60397(16)
H7 H 0.68650 0.03380 0.57750
C9 C 0.73988(15) -0.2334(4) 0.61798(15)
C10 C 0.73862(16) -0.4461(5) 0.65905(16)
C11 C 0.84635(16) -0.0184(5) 0.55349(16)
H8 H 0.81200 0.09590 0.54090
N1 N 0.91781(13) -0.0081(4) 0.53362(14)
O1 O 0.93267(11) 0.1898(4) 0.49475(14)
H9 H 0.9787(12) 0.168(5) 0.4808(19)
#END
