
#######################################################################
#
#                 Cambridge Crystallographic Data Centre
#                                CCDC
#
#######################################################################
#
# If this CIF has been generated from an entry in the Cambridge
# Structural Database, then it will include bibliographic, chemical,
# crystal, experimental, refinement or atomic coordinate data resulting
# from the CCDC's data processing and validation procedures.
#
#######################################################################

data_CSD_CIF_HAHBIE
_audit_creation_date 2016-12-09
_audit_creation_method CSD-ConQuest-V1
_database_code_CSD HAHBIE
_database_code_depnum_ccdc_archive 'CCDC 913850'
_chemical_formula_sum 'C23 H22 N2 O3'
_chemical_formula_moiety
;
C23 H22 N2 O3
;
_journal_coden_Cambridge 1759
_journal_volume 18
_journal_year 2013
_journal_page_first 65
_journal_name_full 'Univ.Sci. '
loop_
_publ_author_name
"A.R.R.Bohorquez"
"T.Gonzalez"
"V.V.Kouznetsov"
_chemical_name_systematic
;
4-(4-methoxyphenyl)-3-methyl-7-nitro-2-phenyl-1,2,3,4-tetrahydroquinoline
;
_cell_volume   1908.144
_exptl_crystal_colour 'yellow'
_exptl_crystal_density_diffrn 1.303
_exptl_crystal_description 'Prism'
_diffrn_ambient_temperature 293
#These two values have been output from a single CSD field.
_refine_ls_R_factor_gt 0.0554
_refine_ls_wR_factor_gt 0.0554
_symmetry_cell_setting monoclinic
_symmetry_space_group_name_H-M 'P 21/c'
_symmetry_Int_Tables_number 14
loop_
_symmetry_equiv_pos_site_id
_symmetry_equiv_pos_as_xyz
1 x,y,z
2 -x,1/2+y,1/2-z
3 -x,-y,-z
4 x,-1/2-y,-1/2+z
_cell_length_a 19.203(4)
_cell_length_b 6.0446(10)
_cell_length_c 18.336(4)
_cell_angle_alpha 90
_cell_angle_beta 116.293(4)
_cell_angle_gamma 90
_cell_formula_units_Z 4
loop_
_atom_type_symbol
_atom_type_radius_bond
C 0.68
H 0.23
N 0.68
O 0.68
loop_
_atom_site_label
_atom_site_type_symbol
_atom_site_fract_x
_atom_site_fract_y
_atom_site_fract_z
O1 O 0.01926(8) 0.8832(2) 0.40018(9)
O2 O 0.16137(11) 0.2017(3) 0.02332(12)
O3 O 0.27924(11) 0.2673(3) 0.04928(12)
N1 N 0.36137(9) 0.9034(3) 0.23959(10)
H1 H 0.39950 0.89700 0.21730
N2 N 0.22051(11) 0.3107(3) 0.05553(10)
C1 C 0.36250(11) 1.1151(3) 0.27846(11)
H2 H 0.34110 1.22850 0.23610
C2 C 0.31042(11) 1.0987(3) 0.32192(11)
H3 H 0.33030 0.97960 0.36220
C3 C 0.22659(11) 1.0402(3) 0.26062(11)
H4 H 0.20600 1.16930 0.22520
C4 C 0.15798(11) 0.7251(3) 0.16389(12)
H5 H 0.11370 0.76080 0.16990
C5 C 0.15461(12) 0.5511(3) 0.11335(12)
H6 H 0.10910 0.47070 0.08560
C6 C 0.22086(11) 0.5014(3) 0.10573(11)
C7 C 0.28888(11) 0.6180(3) 0.14554(11)
H7 H 0.33260 0.58070 0.13870
C8 C 0.22498(10) 0.8483(3) 0.20593(11)
C9 C 0.29138(10) 0.7934(3) 0.19639(10)
C10 C 0.44537(11) 1.1768(3) 0.33494(11)
C11 C 0.47405(13) 1.3852(3) 0.33277(14)
H8 H 0.44270 1.48670 0.29400
C12 C 0.54882(14) 1.4452(4) 0.38755(16)
H9 H 0.56710 1.58660 0.38570
C13 C 0.59579(14) 1.2966(4) 0.44440(15)
H10 H 0.64590 1.33670 0.48130
C14 C 0.56856(13) 1.0878(4) 0.44667(13)
H11 H 0.60060 0.98600 0.48480
C15 C 0.49369(12) 1.0279(3) 0.39258(12)
H12 H 0.47570 0.88650 0.39500
C16 C 0.31211(14) 1.3139(3) 0.36642(15)
H13 H 0.36470 1.34760 0.40430
H14 H 0.28120 1.29720 0.39530
H15 H 0.29150 1.43200 0.32770
C17 C 0.17324(11) 1.0011(3) 0.30066(11)
C18 C 0.11117(11) 1.1387(3) 0.28693(12)
H16 H 0.10290 1.26270 0.25410
C19 C 0.06121(12) 1.0962(3) 0.32077(12)
H17 H 0.01970 1.19090 0.31030
C20 C 0.07254(11) 0.9135(3) 0.37018(11)
C21 C 0.13503(12) 0.7760(3) 0.38641(12)
H18 H 0.14390 0.65410 0.42030
C22 C 0.18419(12) 0.8214(3) 0.35173(13)
H19 H 0.22620 0.72810 0.36300
C23 C 0.02037(14) 0.6741(4) 0.43706(15)
H20 H -0.01910 0.67170 0.45570
H21 H 0.07030 0.65190 0.48240
H22 H 0.01070 0.55840 0.39790
#END
