
#######################################################################
#
#                 Cambridge Crystallographic Data Centre
#                                CCDC
#
#######################################################################
#
# If this CIF has been generated from an entry in the Cambridge
# Structural Database, then it will include bibliographic, chemical,
# crystal, experimental, refinement or atomic coordinate data resulting
# from the CCDC's data processing and validation procedures.
#
#######################################################################

data_CSD_CIF_HAHCAV
_audit_creation_date 2003-08-21
_audit_creation_method CSD-ConQuest-V1
_database_code_CSD HAHCAV
_database_code_depnum_ccdc_archive 'CCDC 214861'
_chemical_formula_sum 'C20 H16 N2 O4'
_chemical_formula_moiety
;
C20 H16 N2 O4
;
_journal_coeditor_code "IUCr CV6197"
_journal_coden_Cambridge 1370
_journal_volume 59
_journal_year 2003
_journal_page_first o894
_journal_name_full 'Acta Crystallogr.,Sect.E:Struct.Rep.Online '
loop_
_publ_author_name
"S.Thamotharan"
"V.Parthasarathi"
"R.Sanyal"
"B.Badami"
"A.Linden"
_chemical_name_systematic
;
3-(4-Methoxyphenyl)-4-(5-phenyl-2,4-pentadienoyl)sydnone
;
_chemical_melting_point 449
_cell_volume    878.657
_exptl_crystal_colour 'yellow'
_exptl_crystal_density_diffrn 1.317
_exptl_special_details
;
Melting point range 449-451K
sydnones are potent porphyrinogenic and antiinflammatory compounds and are 
free radical scavengers
;
_exptl_crystal_description 'prism'
_exptl_crystal_preparation 'acetone/ethanol'
_diffrn_ambient_temperature 160
#These two values have been output from a single CSD field.
_refine_ls_R_factor_gt 0.0444
_refine_ls_wR_factor_gt 0.0444
_symmetry_cell_setting monoclinic
_symmetry_space_group_name_H-M 'P 21'
_symmetry_Int_Tables_number 4
loop_
_symmetry_equiv_pos_site_id
_symmetry_equiv_pos_as_xyz
1 x,y,z
2 -x,1/2+y,-z
_cell_length_a 12.0961(8)
_cell_length_b 4.7750(4)
_cell_length_c 15.3516(12)
_cell_angle_alpha 90
_cell_angle_beta 97.719(3)
_cell_angle_gamma 90
_cell_formula_units_Z 2
loop_
_atom_type_symbol
_atom_type_radius_bond
C 0.68
H 0.23
N 0.68
O 0.68
loop_
_atom_site_label
_atom_site_type_symbol
_atom_site_fract_x
_atom_site_fract_y
_atom_site_fract_z
O1 O 0.56558(17) -0.6640(5) 0.98738(13)
O2 O 0.51971(16) -0.5667(5) 0.84256(13)
O3 O 1.04462(17) 0.0971(7) 1.25044(14)
O4 O 0.78389(15) 0.0615(5) 0.92462(11)
N1 N 0.6412(2) -0.5766(6) 1.05647(16)
N2 N 0.70059(19) -0.3854(6) 1.02391(14)
C1 C 0.6713(2) -0.3339(7) 0.93643(17)
C2 C 0.5812(2) -0.5154(8) 0.90953(19)
C3 C 0.7893(2) -0.2604(8) 1.08461(17)
C4 C 0.8990(2) -0.3071(10) 1.07271(19)
H1 H 0.91630 -0.42070 1.02560
C5 C 0.9823(2) -0.1874(10) 1.12980(19)
H2 H 1.05820 -0.21950 1.12290
C6 C 0.9559(2) -0.0199(9) 1.1974(2)
C7 C 0.8454(2) 0.0252(8) 1.20951(18)
H3 H 0.82780 0.13960 1.25640
C8 C 0.7609(2) -0.0995(7) 1.15192(17)
H4 H 0.68480 -0.07330 1.15920
C9 C 1.0209(3) 0.2849(10) 1.3166(2)
H5 H 0.97380 0.43740 1.28980
H6 H 1.09070 0.36220 1.34670
H7 H 0.98150 0.18520 1.35900
C10 C 0.7191(2) -0.1128(7) 0.88778(17)
C11 C 0.6827(2) -0.1097(7) 0.79242(17)
H8 H 0.63380 -0.25290 0.76750
C12 C 0.7156(2) 0.0855(8) 0.73964(17)
H9 H 0.76510 0.22630 0.76530
C13 C 0.6811(2) 0.0975(9) 0.64653(17)
H10 H 0.63000 -0.04010 0.62100
C14 C 0.7164(3) 0.2902(8) 0.59382(18)
H11 H 0.76650 0.42720 0.62110
C15 C 0.6867(3) 0.3138(8) 0.49861(17)
C16 C 0.6063(3) 0.1447(10) 0.45160(19)
H12 H 0.56870 0.00780 0.48160
C17 C 0.5802(3) 0.1741(10) 0.36056(19)
H13 H 0.52550 0.05590 0.32920
C18 C 0.6327(3) 0.3718(10) 0.3161(2)
H14 H 0.61440 0.39160 0.25420
C19 C 0.7116(4) 0.5400(12) 0.3615(2)
H15 H 0.74800 0.67760 0.33090
C20 C 0.7396(3) 0.5127(10) 0.45278(19)
H16 H 0.79490 0.63090 0.48340
#END
