
#######################################################################
#
#                 Cambridge Crystallographic Data Centre
#                                CCDC
#
#######################################################################
#
# If this CIF has been generated from an entry in the Cambridge
# Structural Database, then it will include bibliographic, chemical,
# crystal, experimental, refinement or atomic coordinate data resulting
# from the CCDC's data processing and validation procedures.
#
#######################################################################

data_CSD_CIF_HAKHUY
_audit_creation_date 2012-01-09
_audit_creation_method CSD-ConQuest-V1
_database_code_CSD HAKHUY
_database_code_depnum_ccdc_archive 'CCDC 818092'
_chemical_formula_sum 'C25 H15 N1 O8'
_chemical_formula_moiety
;
C25 H15 N1 O8
;
_journal_coden_Cambridge 1268
_journal_volume 16
_journal_year 2011
_journal_page_first 6023
_journal_name_full 'Molecules '
loop_
_publ_author_name
"D.Zavrsnik"
"S.Muratovic"
"D.Makuc"
"J.Plavec"
"M.Cetina"
"A.Nagl"
"E.De Clercq"
"J.Balzarini"
"M.Mintas"
_chemical_name_systematic
;
3,3'-((2-Nitrophenyl)methylene)bis(4-hydroxy-2H-chromen-2-one)
;
_chemical_melting_point 475
_cell_volume   4048.660
_exptl_crystal_colour 'colorless'
_exptl_crystal_density_diffrn 1.501
_exptl_crystal_description 'block'
_diffrn_ambient_temperature 295
#These two values have been output from a single CSD field.
_refine_ls_R_factor_gt 0.0391
_refine_ls_wR_factor_gt 0.0391
_symmetry_cell_setting monoclinic
_symmetry_space_group_name_H-M 'C 2/c'
_symmetry_Int_Tables_number 15
loop_
_symmetry_equiv_pos_site_id
_symmetry_equiv_pos_as_xyz
1 x,y,z
2 -x,y,1/2-z
3 1/2+x,1/2+y,z
4 1/2-x,1/2+y,1/2-z
5 -x,-y,-z
6 x,-y,-1/2+z
7 -1/2-x,-1/2-y,-z
8 -1/2+x,-1/2-y,-1/2+z
_cell_length_a 34.4429(19)
_cell_length_b 7.5448(3)
_cell_length_c 16.8941(9)
_cell_angle_alpha 90
_cell_angle_beta 112.749(6)
_cell_angle_gamma 90
_cell_formula_units_Z 8
loop_
_atom_type_symbol
_atom_type_radius_bond
C 0.68
H 0.23
N 0.68
O 0.68
loop_
_atom_site_label
_atom_site_type_symbol
_atom_site_fract_x
_atom_site_fract_y
_atom_site_fract_z
N1 N 0.42831(5) 0.9264(2) 0.61304(12)
O1 O 0.24327(3) 0.51802(15) 0.47325(7)
O2 O 0.28371(3) 0.65915(15) 0.42110(7)
O3 O 0.33774(4) 0.48220(17) 0.71149(7)
H1 H 0.3641(3) 0.5021(17) 0.7239(8)
O4 O 0.44951(3) 0.41522(18) 0.64496(7)
O5 O 0.41451(4) 0.51569(17) 0.71909(7)
O6 O 0.36195(4) 0.60599(17) 0.41954(7)
H2 H 0.3365(3) 0.6390(19) 0.4157(9)
O7 O 0.40981(5) 0.95018(19) 0.53672(9)
O8 O 0.46576(5) 0.8964(3) 0.64775(11)
C1 C 0.28045(5) 0.5969(2) 0.48542(11)
C2 C 0.31346(5) 0.60109(19) 0.57091(9)
C3 C 0.30866(5) 0.5047(2) 0.63399(10)
C4 C 0.25983(6) 0.3362(2) 0.68433(13)
H3 H 0.28090 0.32410 0.73880
C5 C 0.22080(8) 0.2696(3) 0.66782(16)
H4 H 0.21530 0.21150 0.71090
C6 C 0.18920(7) 0.2880(3) 0.58718(18)
H5 H 0.16240 0.24480 0.57700
C7 C 0.19697(6) 0.3694(2) 0.52195(15)
H6 H 0.17610 0.37910 0.46720
C8 C 0.23695(5) 0.4362(2) 0.54063(11)
C9 C 0.26832(5) 0.4217(2) 0.62047(11)
C10 C 0.41651(5) 0.5077(2) 0.64837(10)
C11 C 0.38644(5) 0.5868(2) 0.57114(9)
C12 C 0.38942(5) 0.5493(2) 0.49478(9)
C13 C 0.42868(6) 0.3990(2) 0.41569(11)
H7 H 0.40890 0.43650 0.36310
C14 C 0.46214(6) 0.3023(3) 0.41788(13)
H8 H 0.46510 0.27380 0.36690
C15 C 0.49151(6) 0.2464(3) 0.49395(14)
H9 H 0.51450 0.18110 0.49440
C16 C 0.48783(6) 0.2848(3) 0.57014(13)
H10 H 0.50800 0.24620 0.62210
C17 C 0.45306(5) 0.3834(2) 0.56763(10)
C18 C 0.42334(5) 0.4434(2) 0.49056(10)
C19 C 0.35220(5) 0.7059(2) 0.57793(9)
H11 H 0.34290 0.77760 0.52550
C20 C 0.36758(5) 0.8416(2) 0.65081(10)
C21 C 0.40430(5) 0.9397(2) 0.66883(10)
C22 C 0.41931(6) 1.0617(2) 0.73424(12)
H12 H 0.44450 1.12090 0.74480
C23 C 0.39646(7) 1.0949(3) 0.78381(13)
H13 H 0.40620 1.17560 0.82890
C24 C 0.35925(6) 1.0078(2) 0.76609(12)
H14 H 0.34320 1.03300 0.79800
C25 C 0.34516(5) 0.8827(2) 0.70118(11)
H15 H 0.31990 0.82450 0.69100
#END
