
#######################################################################
#
#                 Cambridge Crystallographic Data Centre
#                                CCDC
#
#######################################################################
#
# If this CIF has been generated from an entry in the Cambridge
# Structural Database, then it will include bibliographic, chemical,
# crystal, experimental, refinement or atomic coordinate data resulting
# from the CCDC's data processing and validation procedures.
#
#######################################################################

data_CSD_CIF_HAKLUB
_audit_creation_date 2005-03-15
_audit_creation_method CSD-ConQuest-V1
_database_code_CSD HAKLUB
_database_code_depnum_ccdc_archive 'CCDC 193186'
_chemical_formula_sum 'C32 H33 N5 O2'
_chemical_formula_moiety
;
C32 H33 N5 O2
;
_journal_coden_Cambridge 35
_journal_volume 69
_journal_year 2004
_journal_page_first 8140
_journal_name_full 'J.Org.Chem. '
loop_
_publ_author_name
"M.Bernatkova"
"B.Andrioletti"
"V.Kral"
"E.Rose"
"J.Vaissermann"
_chemical_name_systematic
;
5,5,10,10,15,15-Hexamethyl-20-(3-nitrophenyl)-5,10,15,22-tetrahydroporphyrin
;
_chemical_name_common
;
5,5,10,10,15,15-Hexamethyl-20-(3-nitrophenyl)calix(4)phyrin
;
_cell_volume   1354.647
_exptl_crystal_colour 'orange'
_exptl_crystal_density_diffrn 1.28
_exptl_special_details
;
V-shaped conformation

;
_exptl_crystal_description 'prism'
_exptl_crystal_preparation 'methanol/dichloromethane'
_diffrn_ambient_temperature 295
#These two values have been output from a single CSD field.
_refine_ls_R_factor_gt 0.0665
_refine_ls_wR_factor_gt 0.0665
_symmetry_cell_setting triclinic
_symmetry_space_group_name_H-M 'P -1'
_symmetry_Int_Tables_number 2
loop_
_symmetry_equiv_pos_site_id
_symmetry_equiv_pos_as_xyz
1 x,y,z
2 -x,-y,-z
_cell_length_a 10.318(3)
_cell_length_b 11.071(2)
_cell_length_c 13.310(3)
_cell_angle_alpha 93.10(2)
_cell_angle_beta 100.37(2)
_cell_angle_gamma 113.81(2)
_cell_formula_units_Z 2
loop_
_atom_type_symbol
_atom_type_radius_bond
C 0.68
H 0.23
N 0.68
O 0.68
loop_
_atom_site_label
_atom_site_type_symbol
_atom_site_fract_x
_atom_site_fract_y
_atom_site_fract_z
O1 O 0.6376(4) 0.8505(4) 0.3773(4)
O2 O 0.7484(4) 0.9732(4) 0.5231(3)
N1 N 0.0454(4) 0.3581(3) 0.2949(3)
N2 N -0.1216(4) 0.2141(4) 0.0655(3)
N3 N -0.2854(4) 0.4102(3) 0.0554(3)
N4 N -0.1145(4) 0.5174(3) 0.2899(3)
N5 N 0.6396(4) 0.8886(4) 0.4659(4)
C1 C 0.1265(4) 0.5756(4) 0.4002(3)
C2 C 0.1402(4) 0.4597(4) 0.3753(3)
C3 C 0.2505(5) 0.4201(5) 0.4171(3)
C4 C 0.2221(5) 0.3009(4) 0.3634(4)
C5 C 0.0942(5) 0.2653(4) 0.2872(3)
C6 C 0.0229(5) 0.1440(4) 0.2039(3)
C7 C 0.1200(6) 0.0721(5) 0.2031(4)
C8 C -0.1215(6) 0.0503(5) 0.2269(4)
C9 C -0.0016(5) 0.1902(4) 0.0996(3)
C10 C 0.0797(5) 0.2229(5) 0.0276(4)
C11 C 0.0060(5) 0.2661(4) -0.0533(3)
C12 C -0.1188(5) 0.2583(4) -0.0290(3)
C13 C -0.2469(5) 0.2793(4) -0.0858(3)
C14 C -0.3424(6) 0.1552(6) -0.1663(4)
C15 C -0.1933(6) 0.4028(5) -0.1406(4)
C16 C -0.3333(5) 0.2934(4) -0.0101(3)
C17 C -0.4504(5) 0.2048(5) 0.0186(4)
C18 C -0.4746(5) 0.2683(5) 0.1043(4)
C19 C -0.3717(4) 0.3954(4) 0.1262(3)
C20 C -0.3532(4) 0.5118(4) 0.2001(3)
C21 C -0.3829(5) 0.6167(5) 0.1397(4)
C22 C -0.4616(5) 0.4643(5) 0.2697(4)
C23 C -0.2016(5) 0.5765(4) 0.2696(3)
C24 C -0.1385(5) 0.7067(5) 0.3274(4)
C25 C -0.0055(5) 0.7237(5) 0.3841(3)
C26 C 0.0101(4) 0.6051(4) 0.3620(3)
C27 C 0.2549(4) 0.6832(4) 0.4717(3)
C28 C 0.3852(5) 0.7350(4) 0.4397(3)
C29 C 0.5052(4) 0.8342(4) 0.5034(3)
C30 C 0.5031(5) 0.8841(4) 0.5997(4)
C31 C 0.3764(6) 0.8330(5) 0.6311(3)
C32 C 0.2521(5) 0.7332(5) 0.5694(3)
H1? H -0.03030 0.38420 0.26500
H2 H -0.22090 0.20140 0.09480
H3 H -0.19660 0.51170 0.05050
H4 H -0.12470 0.42060 0.27300
H5 H 0.33500 0.47150 0.47570
H6 H 0.28270 0.24960 0.37520
H7 H 0.07190 -0.00780 0.14860
H8 H 0.13730 0.04190 0.27220
H9 H 0.21450 0.13340 0.18920
H10 H -0.16960 -0.02910 0.17280
H11 H -0.10270 0.02300 0.29600
H12 H -0.18500 0.09920 0.22650
H13 H 0.17490 0.21660 0.03060
H14 H 0.04040 0.29810 -0.11710
H15 H -0.42760 0.16770 -0.20470
H16 H -0.28410 0.14390 -0.21520
H17 H -0.37640 0.07530 -0.13010
H18 H -0.27780 0.41620 -0.17730
H19 H -0.12800 0.48270 -0.08820
H20 H -0.13730 0.38890 -0.19070
H21 H -0.50900 0.10910 -0.01330
H22 H -0.55520 0.22720 0.14180
H23 H -0.37020 0.69340 0.18930
H24 H -0.48410 0.57530 0.09700
H25 H -0.31250 0.64850 0.09360
H26 H -0.44880 0.54210 0.31890
H27 H -0.56320 0.42480 0.22630
H28 H -0.44550 0.39580 0.30910
H29 H -0.18230 0.77250 0.32800
H30 H 0.06670 0.80720 0.42990
H31 H 0.39240 0.69890 0.37180
H32 H 0.59300 0.95460 0.64550
H33 H 0.37180 0.87000 0.69970
H34 H 0.16000 0.69730 0.59610
#END
