
#######################################################################
#
#                 Cambridge Crystallographic Data Centre
#                                CCDC
#
#######################################################################
#
# If this CIF has been generated from an entry in the Cambridge
# Structural Database, then it will include bibliographic, chemical,
# crystal, experimental, refinement or atomic coordinate data resulting
# from the CCDC's data processing and validation procedures.
#
#######################################################################

data_CSD_CIF_HAKZEZ
_audit_creation_date 2005-03-15
_audit_creation_method CSD-ConQuest-V1
_database_code_CSD HAKZEZ
_database_code_depnum_ccdc_archive 'CCDC 236981'
_chemical_formula_sum 'C24 H29 N2 O5'
_chemical_formula_moiety
;
C24 H29 N2 O5
;
_journal_coden_Cambridge 1268
_journal_volume 9
_journal_year 2004
_journal_page_first 746
_journal_name_full 'Molecules '
loop_
_publ_author_name
"M.Hata"
"H.Akutsu"
"J.Yamada"
"S.Nakatsuji"
_chemical_name_systematic
;
3-Methoxy-N-(4'-(2,2,6,6-tetramethyl-1-oxypiperidin-4-ylcarbonyloxy)phenyl)sal
icylideneamine radical
;
_chemical_melting_point 441.15
_cell_volume   2260.009
_exptl_crystal_colour 'orange'
_exptl_crystal_density_diffrn 1.25
_exptl_special_details
;
thermochromic

;
_exptl_crystal_description 'plate'
_exptl_crystal_preparation 'dichloromethane/methanol'
_diffrn_ambient_temperature 296.2
#These two values have been output from a single CSD field.
_refine_ls_R_factor_gt 0.0458
_refine_ls_wR_factor_gt 0.0458
_symmetry_cell_setting monoclinic
_symmetry_space_group_name_H-M 'P 21/c'
_symmetry_Int_Tables_number 14
loop_
_symmetry_equiv_pos_site_id
_symmetry_equiv_pos_as_xyz
1 x,y,z
2 -x,1/2+y,1/2-z
3 -x,-y,-z
4 x,-1/2-y,-1/2+z
_cell_length_a 7.7555(5)
_cell_length_b 27.707(3)
_cell_length_c 11.0378(4)
_cell_angle_alpha 90
_cell_angle_beta 107.6629(9)
_cell_angle_gamma 90
_cell_formula_units_Z 4
loop_
_atom_type_symbol
_atom_type_radius_bond
C 0.68
H 0.23
N 0.68
O 0.68
loop_
_atom_site_label
_atom_site_type_symbol
_atom_site_fract_x
_atom_site_fract_y
_atom_site_fract_z
O1 O 0.0099(2) -0.11495(6) 1.5922(2)
O2 O 0.1787(2) -0.06031(6) 1.4734(1)
O3 O 0.5245(2) 0.13196(5) 1.0695(2)
O4 O 0.6960(2) 0.07801(6) 1.0112(2)
O5 O 0.8273(2) 0.25833(6) 0.7071(1)
N1 N 0.1685(3) 0.00099(6) 1.2929(2)
N2 N 0.7790(2) 0.22474(6) 0.7699(2)
C1 C -0.0733(4) -0.1452(1) 1.6592(3)
C2 C -0.2806(3) -0.09391(8) 1.4429(3)
C3 C -0.0980(3) -0.09080(8) 1.4882(2)
C4 C -0.3757(3) -0.06773(9) 1.3369(3)
C5 C -0.0032(3) -0.06139(8) 1.4266(2)
C6 C -0.2853(3) -0.03873(9) 1.2776(2)
C7 C -0.0985(3) -0.03436(7) 1.3203(2)
C8 C -0.0036(3) -0.00219(8) 1.2603(2)
C9 C 0.2565(3) 0.03295(8) 1.2310(2)
C10 C 0.4229(3) 0.05097(8) 1.3004(2)
C11 C 0.1874(3) 0.04643(9) 1.1049(2)
C12 C 0.5162(3) 0.08318(8) 1.2494(2)
C13 C 0.2813(4) 0.07805(9) 1.0526(2)
C14 C 0.4429(3) 0.09643(8) 1.1244(3)
C15 C 0.6479(3) 0.11869(9) 1.0124(2)
C16 C 0.7115(3) 0.16156(7) 0.9549(2)
C17 C 0.8411(3) 0.14694(8) 0.8850(2)
C18 C 0.5562(3) 0.18927(8) 0.8645(2)
C19 C 0.9239(3) 0.18943(7) 0.8343(2)
C20 C 0.6130(3) 0.23423(8) 0.8070(2)
C21 C 1.0665(3) 0.21515(8) 0.9424(2)
C22 C 1.0098(3) 0.17186(9) 0.7348(2)
C23 C 0.6512(3) 0.27622(9) 0.9004(2)
C24 C 0.4646(3) 0.24842(9) 0.6881(2)
H1 H -0.15420 -0.12290 1.69440
H2 H 0.01260 -0.15680 1.73520
H3 H -0.14500 -0.16790 1.61300
H4 H -0.34380 -0.11270 1.48390
H5 H -0.50340 -0.07030 1.30740
H6 H 0.21550 -0.04150 1.43130
H7 H -0.34830 -0.02130 1.20950
H8 H -0.07180 0.01380 1.19650
H9 H 0.46890 0.04230 1.38240
H10 H 0.07650 0.03640 1.05720
H11 H 0.62860 0.09550 1.29510
H12 H 0.24600 0.08650 0.97340
H13 H 0.76100 0.18280 1.02290
H14 H 0.93920 0.12930 0.93370
H15 H 0.77640 0.12660 0.81260
H16 H 0.46720 0.19870 0.90350
H17 H 0.49880 0.16770 0.79910
H18 H 1.00540 0.22770 1.00470
H19 H 1.10400 0.24430 0.90940
H20 H 1.16450 0.19320 0.97540
H21 H 1.04740 0.19850 0.69680
H22 H 1.08620 0.14920 0.77810
H23 H 0.91670 0.15860 0.66100
H24 H 0.74070 0.26840 0.98140
H25 H 0.68930 0.30400 0.86880
H26 H 0.54240 0.28580 0.91050
H27 H 0.49980 0.27580 0.64980
H28 H 0.35680 0.25610 0.70950
H29 H 0.43890 0.22230 0.62920
#END
