
#######################################################################
#
#                 Cambridge Crystallographic Data Centre
#                                CCDC
#
#######################################################################
#
# If this CIF has been generated from an entry in the Cambridge
# Structural Database, then it will include bibliographic, chemical,
# crystal, experimental, refinement or atomic coordinate data resulting
# from the CCDC's data processing and validation procedures.
#
#######################################################################

data_CSD_CIF_HALJUZ
_audit_creation_date 1994-03-15
_audit_creation_method CSD-ConQuest-V1
_database_code_CSD HALJUZ
_chemical_formula_sum 'C15 H23 N1 O2'
_chemical_formula_moiety
;
C15 H23 N1 O2
;
_journal_coeditor_code "IUCr SH1053"
_journal_coden_Cambridge 591
_journal_volume 49
_journal_year 1993
_journal_page_first 1970
_journal_name_full 'Acta Crystallogr.,Sect.C:Cryst.Struct.Commun. '
loop_
_publ_author_name
"D.J.A.De Ridder"
"H.Schenk"
"D.Dopp"
_chemical_name_systematic
;
1,3,5-Tri-isopropyl-2-nitrobenzene
;
_chemical_melting_point 347.75
_cell_volume   1571.584
_exptl_crystal_colour 'Colorless'
_exptl_crystal_density_diffrn 1.054
_exptl_special_details
;
Melting point range 347.75-348.65K

;
_diffrn_ambient_temperature 253
#These two values have been output from a single CSD field.
_refine_ls_R_factor_gt 0.074
_refine_ls_wR_factor_gt 0.074
loop_
_citation_database_id_CSD
_citation_special_details
HALJUZ01 "is a reinterpretation of this cif"
HALJUZ02 "is a reinterpretation of this cif"
_symmetry_cell_setting monoclinic
_symmetry_space_group_name_H-M 'I a'
_symmetry_Int_Tables_number 9
loop_
_symmetry_equiv_pos_site_id
_symmetry_equiv_pos_as_xyz
1 x,y,z
2 1/2+x,1/2+y,1/2+z
3 1/2+x,-y,z
4 x,1/2-y,1/2+z
_cell_length_a 10.851(2)
_cell_length_b 14.057(2)
_cell_length_c 11.350(2)
_cell_angle_alpha 90
_cell_angle_beta 114.80(1)
_cell_angle_gamma 90
_cell_formula_units_Z 4
loop_
_atom_type_symbol
_atom_type_radius_bond
C 0.68
H 0.23
N 0.68
O 0.68
loop_
_atom_site_label
_atom_site_type_symbol
_atom_site_fract_x
_atom_site_fract_y
_atom_site_fract_z
C1 C 0.703(2) 0.7750(9) 0.589(2)
C2 C 0.596(2) 0.8210(4) 0.600(2)
C3 C 0.492(2) 0.7751(8) 0.623(2)
C4 C 0.496(2) 0.674(1) 0.624(2)
C5 C 0.602(3) 0.6281(5) 0.606(2)
C6 C 0.700(2) 0.6788(9) 0.590(2)
C7 C 0.812(2) 0.832(1) 0.565(3)
C8 C 0.832(2) 0.800(1) 0.450(2)
C9 C 0.946(2) 0.820(1) 0.688(2)
C10 C 0.375(2) 0.827(1) 0.634(2)
C11 C 0.359(2) 0.792(1) 0.757(2)
C12 C 0.245(2) 0.817(1) 0.517(2)
C13 C 0.586(4) 0.5195(6) 0.606(3)
C14 C 0.512(2) 0.4799(9) 0.481(2)
C15 C 0.586(2) 0.475(1) 0.705(2)
N1 N 0.607(2) 0.9265(5) 0.607(3)
O1 O 0.522(2) 0.9657(7) 0.501(2)
O2 O 0.659(2) 0.966(1) 0.702(2)
H1 H 0.402(6) 0.640(7) 0.613(9)
H2 H 0.769(8) 0.642(7) 0.561(8)
H3 H 0.78(1) 0.905(3) 0.536(8)
H4 H 0.39(1) 0.902(3) 0.624(8)
H5 H 0.684(7) 0.483(7) 0.664(9)
H6 H 0.91705 0.83847 0.44238
H7 H 0.85722 0.72426 0.46184
H8 H 0.74099 0.81048 0.35931
H9 H 0.97023 0.74332 0.70124
H10 H 1.03007 0.85753 0.68178
H11 H 0.92659 0.84576 0.76845
H12 H 0.28214 0.83339 0.76852
H13 H 0.32800 0.71605 0.74346
H14 H 0.45576 0.79847 0.83785
H15 H 0.21342 0.74064 0.50458
H16 H 0.16755 0.85798 0.52964
H17 H 0.25305 0.83892 0.42787
H18 H 0.55127 0.40894 0.48423
H19 H 0.40515 0.47368 0.47126
H20 H 0.50465 0.51404 0.39385
H21 H 0.48166 0.47026 0.69393
H22 H 0.62778 0.40552 0.70690
H23 H 0.64421 0.50808 0.79942
#END
