
#######################################################################
#
#                 Cambridge Crystallographic Data Centre
#                                CCDC
#
#######################################################################
#
# If this CIF has been generated from an entry in the Cambridge
# Structural Database, then it will include bibliographic, chemical,
# crystal, experimental, refinement or atomic coordinate data resulting
# from the CCDC's data processing and validation procedures.
#
#######################################################################

data_CSD_CIF_HALKAG
_audit_creation_date 1994-03-29
_audit_creation_method CSD-ConQuest-V1
_database_code_CSD HALKAG
_chemical_formula_sum 'C14 H19 N1 O1'
_chemical_formula_moiety
;
C14 H19 N1 O1
;
_journal_coeditor_code "IUCr SH1054"
_journal_coden_Cambridge 591
_journal_volume 49
_journal_year 1993
_journal_page_first 1971
_journal_name_full 'Acta Crystallogr.,Sect.C:Cryst.Struct.Commun. '
loop_
_publ_author_name
"D.J.A.De Ridder"
"H.Schenk"
"D.Dopp"
_chemical_name_systematic
;
6-t-Butyl-3,3-dimethyl-3H-indolium 1-oxide
;
_cell_volume   2603.792
_exptl_crystal_colour 'Colorless'
_exptl_crystal_density_diffrn 1.109
_diffrn_ambient_temperature ?
_diffrn_special_details
;
The study was carried out at room temperature,in the range 283-303K

;
#These two values have been output from a single CSD field.
_refine_ls_R_factor_gt 0.082
_refine_ls_wR_factor_gt 0.082
_symmetry_cell_setting orthorhombic
_symmetry_space_group_name_H-M 'P c a b'
_symmetry_Int_Tables_number 61
loop_
_symmetry_equiv_pos_site_id
_symmetry_equiv_pos_as_xyz
1 x,y,z
2 1/2-x,y,1/2+z
3 1/2+x,1/2-y,z
4 -x,1/2-y,1/2+z
5 -x,-y,-z
6 -1/2+x,-y,-1/2-z
7 -1/2-x,-1/2+y,-z
8 x,-1/2+y,-1/2-z
_cell_length_a 10.974(2)
_cell_length_b 11.892(1)
_cell_length_c 19.952(3)
_cell_angle_alpha 90
_cell_angle_beta 90
_cell_angle_gamma 90
_cell_formula_units_Z 8
loop_
_atom_type_symbol
_atom_type_radius_bond
C 0.68
H 0.23
N 0.68
O 0.68
loop_
_atom_site_label
_atom_site_type_symbol
_atom_site_fract_x
_atom_site_fract_y
_atom_site_fract_z
O1 O 0.3992(8) 1.0046(8) 0.4232(5)
N1 N 0.3557(8) 0.9105(9) 0.4453(6)
C1 C 0.385(1) 0.856(1) 0.4983(7)
C2 C 0.314(1) 0.749(1) 0.5082(6)
C3 C 0.146(1) 0.680(1) 0.4199(6)
C4 C 0.0832(9) 0.714(1) 0.3620(6)
C5 C 0.106(1) 0.816(1) 0.3293(6)
C6 C 0.199(1) 0.889(1) 0.3552(7)
C7 C 0.2581(9) 0.8536(9) 0.4115(6)
C8 C 0.235(1) 0.756(1) 0.4465(5)
C9 C 0.396(1) 0.642(1) 0.5098(8)
C10 C 0.236(1) 0.754(2) 0.5714(6)
C11 C 0.031(1) 0.852(1) 0.2678(7)
C12 C 0.103(2) 0.930(2) 0.2212(9)
C13 C -0.082(2) 0.921(3) 0.293(1)
C14 C -0.010(3) 0.749(2) 0.227(1)
H1 H 0.440(6) 0.889(4) 0.539(2)
H2 H 0.127(9) 0.599(6) 0.443(4)
H3 H 0.017(8) 0.656(5) 0.342(3)
H4 H 0.215(7) 0.970(5) 0.332(4)
H5 H 0.445(7) 0.635(5) 0.463(3)
H6 H 0.456(8) 0.62(2) 0.551(3)
H7 H 0.329(8) 0.575(7) 0.513(5)
H8 H 0.295(3) 0.771(8) 0.614(2)
H9 H 0.19(2) 0.832(7) 0.559(8)
H10 H 0.184(8) 0.675(5) 0.581(4)
H11 H 0.113(8) 1.012(4) 0.245(3)
H12 H 0.193(6) 0.889(8) 0.219(7)
H13 H 0.07(1) 0.941(7) 0.171(4)
H14 H -0.122(7) 0.877(6) 0.336(4)
H15 H -0.01(1) 0.97(1) 0.311(6)
H16 H -0.15(1) 0.92(2) 0.252(5)
H17 H 0.066(5) 0.690(5) 0.223(4)
H18 H -0.080(9) 0.71(1) 0.259(7)
H19 H -0.03(1) 0.78(1) 0.177(3)
#END
