
#######################################################################
#
#                 Cambridge Crystallographic Data Centre
#                                CCDC
#
#######################################################################
#
# If this CIF has been generated from an entry in the Cambridge
# Structural Database, then it will include bibliographic, chemical,
# crystal, experimental, refinement or atomic coordinate data resulting
# from the CCDC's data processing and validation procedures.
#
#######################################################################

data_CSD_CIF_HALLUC
_audit_creation_date 2005-03-15
_audit_creation_method CSD-ConQuest-V1
_database_code_CSD HALLUC
_database_code_depnum_ccdc_archive 'CCDC 256754'
_chemical_formula_sum 'C6 H10 N2 O2'
_chemical_formula_moiety
;
C6 H10 N2 O2
;
_journal_coden_Cambridge 35
_journal_volume 69
_journal_year 2004
_journal_page_first 7994
_journal_name_full 'J.Org.Chem. '
loop_
_publ_author_name
"F.A.Villamena"
"A.Rockenbauer"
"J.Gallucci"
"M.Velayutham"
"C.M.Hadad"
"J.L.Zweier"
_chemical_name_systematic
;
5-Carbamoyl-5-methyl-1-pyrroline N-oxide
;
_cell_volume    666.163
_exptl_crystal_colour 'colorless'
_exptl_crystal_density_diffrn 1.417
_exptl_crystal_description 'plate'
_diffrn_ambient_temperature 200
#These two values have been output from a single CSD field.
_refine_ls_R_factor_gt 0.0401
_refine_ls_wR_factor_gt 0.0401
_symmetry_cell_setting monoclinic
_symmetry_space_group_name_H-M 'P 21/c'
_symmetry_Int_Tables_number 14
loop_
_symmetry_equiv_pos_site_id
_symmetry_equiv_pos_as_xyz
1 x,y,z
2 x,1/2-y,1/2+z
3 -x,-y,-z
4 -x,-1/2+y,-1/2-z
_cell_length_a 10.758(4)
_cell_length_b 5.764(2)
_cell_length_c 11.105(5)
_cell_angle_alpha 90
_cell_angle_beta 104.67(1)
_cell_angle_gamma 90
_cell_formula_units_Z 4
loop_
_atom_type_symbol
_atom_type_radius_bond
C 0.68
H 0.23
N 0.68
O 0.68
loop_
_atom_site_label
_atom_site_type_symbol
_atom_site_fract_x
_atom_site_fract_y
_atom_site_fract_z
O1 O 0.86613(11) 0.1176(2) 0.10710(12)
O2 O 0.66657(12) 0.1610(2) -0.18224(12)
N1 N 0.77069(13) -0.0275(2) 0.06786(13)
N2 N 0.8613(2) 0.0464(3) -0.19942(15)
H1 H 0.9342(22) -0.0304(39) -0.1706(21)
H2 H 0.8628(20) 0.1618(42) -0.2595(21)
C1 C 0.6813(2) -0.0808(3) 0.1209(2)
H3 H 0.67200 -0.01090 0.19560
C2 C 0.5947(2) -0.2621(3) 0.0531(2)
H4 H 0.50360 -0.21790 0.04170
H5 H 0.61040 -0.41230 0.09760
C3 C 0.6297(2) -0.2757(3) -0.0730(2)
H6 H 0.63470 -0.43930 -0.09850
H7 H 0.56470 -0.19430 -0.13840
C4 C 0.7614(2) -0.1569(3) -0.0521(2)
C5 C 0.7609(2) 0.0331(3) -0.1505(2)
C6 C 0.8724(2) -0.3280(3) -0.0316(2)
H8 H 0.87150 -0.40590 -0.11020
H9 H 0.86350 -0.44360 0.03040
H10 H 0.95380 -0.24460 -0.00160
#END
