
#######################################################################
#
#                 Cambridge Crystallographic Data Centre
#                                CCDC
#
#######################################################################
#
# If this CIF has been generated from an entry in the Cambridge
# Structural Database, then it will include bibliographic, chemical,
# crystal, experimental, refinement or atomic coordinate data resulting
# from the CCDC's data processing and validation procedures.
#
#######################################################################

data_CSD_CIF_HALROB
_audit_creation_date 1994-03-29
_audit_creation_method CSD-ConQuest-V1
_database_code_CSD HALROB
_chemical_formula_sum 'C17 H21 N3 O6'
_chemical_formula_moiety
;
C17 H21 N3 O6
;
_journal_coeditor_code "IUCr AB1055"
_journal_coden_Cambridge 591
_journal_volume 49
_journal_year 1993
_journal_page_first 2027
_journal_name_full 'Acta Crystallogr.,Sect.C:Cryst.Struct.Commun. '
loop_
_publ_author_name
"K.Ravikumar"
"S.Mehdi"
_chemical_name_systematic
;
4-Hydroxy-4,N,N'-trimethyl-2-(3-nitrophenyl)-6-oxo-1,3-cyclohexanedicarboxamid
e
;
_cell_volume   1889.164
_exptl_crystal_colour 'Colorless'
_exptl_crystal_density_diffrn 1.278
_exptl_special_details
;
possible pharmacological and pesticidal activity

;
_diffrn_ambient_temperature ?
_diffrn_special_details
;
The study was carried out at room temperature,in the range 283-303K

;
#These two values have been output from a single CSD field.
_refine_ls_R_factor_gt 0.053
_refine_ls_wR_factor_gt 0.053
_symmetry_cell_setting monoclinic
_symmetry_space_group_name_H-M 'P 21/n'
_symmetry_Int_Tables_number 14
loop_
_symmetry_equiv_pos_site_id
_symmetry_equiv_pos_as_xyz
1 x,y,z
2 1/2-x,1/2+y,1/2-z
3 -x,-y,-z
4 -1/2+x,-1/2-y,-1/2+z
_cell_length_a 10.196(2)
_cell_length_b 9.233(2)
_cell_length_c 20.068(4)
_cell_angle_alpha 90
_cell_angle_beta 90.33(1)
_cell_angle_gamma 90
_cell_formula_units_Z 4
loop_
_atom_type_symbol
_atom_type_radius_bond
C 0.68
H 0.23
N 0.68
O 0.68
loop_
_atom_site_label
_atom_site_type_symbol
_atom_site_fract_x
_atom_site_fract_y
_atom_site_fract_z
C1 C 0.2315(3) -0.0989(4) 0.7409(2)
O1 O 0.1409(2) -0.0135(3) 0.7439(1)
C2 C 0.3007(3) -0.1550(4) 0.8027(2)
C3 C 0.2341(4) -0.0997(5) 0.8651(2)
O2 O 0.2537(2) 0.0233(3) 0.8864(1)
N1 N 0.1519(3) -0.1934(4) 0.8933(1)
C4 C 0.0739(5) -0.1571(6) 0.9511(2)
C5 C 0.4461(3) -0.1080(4) 0.7998(2)
C6 C 0.5090(3) -0.1643(4) 0.7347(2)
C7 C 0.6498(4) -0.1122(4) 0.7320(2)
O3 O 0.6743(2) 0.0172(3) 0.7190(2)
N2 N 0.7448(3) -0.2044(4) 0.7442(2)
C8 C 0.8810(4) -0.1593(5) 0.7470(3)
C9 C 0.4333(3) -0.1113(4) 0.6719(2)
O4 O 0.4351(2) 0.0447(3) 0.6706(1)
C10 C 0.4925(4) -0.1722(5) 0.6084(2)
C11 C 0.2884(3) -0.1512(4) 0.6768(2)
C12 C 0.5212(4) -0.1551(5) 0.8615(2)
C13 C 0.5392(4) -0.2994(6) 0.8770(2)
C14 C 0.6118(5) -0.3341(8) 0.9333(3)
N3 N 0.6315(6) -0.4902(7) 0.9483(3)
O5 O 0.7106(6) -0.5193(7) 0.9925(3)
O6 O 0.5742(5) -0.5786(7) 0.9177(4)
C15 C 0.6638(6) -0.2286(8) 0.9750(3)
C16 C 0.6427(6) -0.0897(7) 0.9593(3)
C17 C 0.5735(4) -0.0507(6) 0.9035(2)
H1 H 0.29720(31) -0.25889(37) 0.80269(16)
H2 H 0.14505(32) -0.28330(36) 0.87638(15)
H3 H 0.02145(51) -0.23839(56) 0.96435(23)
H4 H 0.13091(51) -0.12966(56) 0.98719(23)
H5 H 0.01772(51) -0.07725(56) 0.93981(23)
H6 H 0.44770(31) -0.00410(42) 0.79826(16)
H7 H 0.50766(31) -0.26830(38) 0.73540(16)
H8 H 0.72490(31) -0.29840(36) 0.75029(18)
H9 H 0.89176(38) -0.08943(51) 0.78208(27)
H10 H 0.90566(38) -0.11661(51) 0.70534(27)
H11 H 0.93569(38) -0.24180(51) 0.75594(27)
H12 H 0.50883(24) 0.07420(28) 0.68519(13)
H13 H 0.48833(41) -0.27605(51) 0.60910(18)
H14 H 0.58233(41) -0.14200(51) 0.60513(18)
H15 H 0.44394(41) -0.13628(51) 0.57078(18)
H16 H 0.24103(34) -0.10918(42) 0.64010(17)
H17 H 0.27944(34) -0.25453(42) 0.67413(17)
H18 H 0.50242(39) -0.37499(56) 0.84986(20)
H19 H 0.71221(60) -0.25414(76) 1.01444(31)
H20 H 0.67615(58) -0.01344(72) 0.98710(31)
H21 H 0.55944(44) 0.04870(61) 0.89137(23)
#END
