
#######################################################################
#
#                 Cambridge Crystallographic Data Centre
#                                CCDC
#
#######################################################################
#
# If this CIF has been generated from an entry in the Cambridge
# Structural Database, then it will include bibliographic, chemical,
# crystal, experimental, refinement or atomic coordinate data resulting
# from the CCDC's data processing and validation procedures.
#
#######################################################################

data_CSD_CIF_HALSIW
_audit_creation_date 1994-03-29
_audit_creation_method CSD-ConQuest-V1
_database_code_CSD HALSIW
_chemical_formula_sum 'C13 H14 N2 O2'
_chemical_formula_moiety
;
C13 H14 N2 O2
;
_journal_coeditor_code "IUCr PA1049"
_journal_coden_Cambridge 591
_journal_volume 49
_journal_year 1993
_journal_page_first 2037
_journal_name_full 'Acta Crystallogr.,Sect.C:Cryst.Struct.Commun. '
loop_
_publ_author_name
"N.Rodier"
"R.Ceolin"
"J.Dugue"
"F.Lepage"
_chemical_name_systematic
;
2,6-Dimethyl-N-(5-methyl-3-isoxazolyl)benzamide
;
_cell_volume   1248.411
_exptl_crystal_colour 'colorless'
_exptl_crystal_density_diffrn 1.225
_exptl_special_details
;
anticonvulsant activity

;
_diffrn_ambient_temperature ?
_diffrn_special_details
;
The study was carried out at room temperature,in the range 283-303K

;
#These two values have been output from a single CSD field.
_refine_ls_R_factor_gt 0.043
_refine_ls_wR_factor_gt 0.043
_symmetry_cell_setting monoclinic
_symmetry_space_group_name_H-M 'P 21/n'
_symmetry_Int_Tables_number 14
loop_
_symmetry_equiv_pos_site_id
_symmetry_equiv_pos_as_xyz
1 x,y,z
2 1/2-x,1/2+y,1/2-z
3 -x,-y,-z
4 -1/2+x,-1/2-y,-1/2+z
_cell_length_a 12.226(2)
_cell_length_b 8.565(1)
_cell_length_c 12.675(1)
_cell_angle_alpha 90
_cell_angle_beta 109.85(1)
_cell_angle_gamma 90
_cell_formula_units_Z 4
loop_
_atom_type_symbol
_atom_type_radius_bond
C 0.68
H 0.23
N 0.68
O 0.68
loop_
_atom_site_label
_atom_site_type_symbol
_atom_site_fract_x
_atom_site_fract_y
_atom_site_fract_z
N1 N 1.1419(2) 0.0690(3) 0.0727(2)
C1 C 1.0991(2) 0.1562(3) 0.1348(2)
C2 C 1.1865(2) 0.2281(4) 0.2233(2)
C3 C 1.2863(2) 0.1805(3) 0.2103(2)
O1 O 1.2624(2) 0.0833(3) 0.1207(2)
N2 N 0.9789(2) 0.1625(3) 0.1044(2)
C4 C 0.9200(2) 0.2653(5) 0.1501(2)
C5 C 0.7903(2) 0.2575(9) 0.0996(1)
C6 C 0.7320(2) 0.1280(4) 0.1287(2)
C7 C 0.6121(3) 0.1279(4) 0.0868(3)
C8 C 0.5525(2) 0.241(1) 0.0151(2)
C9 C 0.6108(3) 0.3647(5) -0.0146(3)
C10 C 0.7309(2) 0.3722(4) 0.0292(2)
C11 C 0.7940(3) 0.5072(5) -0.0001(3)
O2 O 0.9689(2) 0.3552(2) 0.2241(2)
C12 C 1.4112(2) 0.2128(4) 0.2709(3)
C13 C 0.7961(3) -0.0020(5) 0.2042(3)
H1 H 1.174(2) 0.292(4) 0.278(2)
H2 H 0.926(3) 0.100(5) 0.044(3)
H3 H 0.56800 0.04000 0.10500
H4 H 0.46900 0.24000 -0.01500
H5 H 0.56300 0.44600 -0.06800
H6 H 0.73500 0.56900 -0.05000
H7 H 0.87500 0.48300 -0.01800
H8 H 0.82000 0.58100 0.06100
H9 H 1.41500 0.28100 0.34300
H10 H 1.44700 0.29300 0.22400
H11 H 1.45400 0.11600 0.28300
H12 H 0.83300 -0.07900 0.16700
H13 H 0.73600 -0.05200 0.23300
H14 H 0.86500 0.03200 0.27300
#END
