
#######################################################################
#
#                 Cambridge Crystallographic Data Centre
#                                CCDC
#
#######################################################################
#
# If this CIF has been generated from an entry in the Cambridge
# Structural Database, then it will include bibliographic, chemical,
# crystal, experimental, refinement or atomic coordinate data resulting
# from the CCDC's data processing and validation procedures.
#
#######################################################################

data_CSD_CIF_HAMGUY
_audit_creation_date 2005-03-15
_audit_creation_method CSD-ConQuest-V1
_database_code_CSD HAMGUY
_database_code_depnum_ccdc_archive 'CCDC 232844'
_chemical_formula_sum 'C15 H12 N2 O3'
_chemical_formula_moiety
;
C15 H12 N2 O3
;
_journal_coden_Cambridge 692
_journal_year 2004
_journal_page_first 1987
_journal_name_full 'Synthesis '
loop_
_publ_author_name
"T.Kurz"
"K.Widyan"
"C.Wackendorff"
"K.Schluter"
_chemical_name_systematic
;
4-Benzyloximinobenzo(1,3)oxazin-2-one
;
_chemical_melting_point 402.15
_cell_volume    615.321
_exptl_crystal_colour 'colorless'
_exptl_crystal_density_diffrn 1.448
_exptl_crystal_description 'blocks'
_diffrn_ambient_temperature 153
#These two values have been output from a single CSD field.
_refine_ls_R_factor_gt 0.0536
_refine_ls_wR_factor_gt 0.0536
_symmetry_cell_setting triclinic
_symmetry_space_group_name_H-M 'P -1'
_symmetry_Int_Tables_number 2
loop_
_symmetry_equiv_pos_site_id
_symmetry_equiv_pos_as_xyz
1 x,y,z
2 -x,-y,-z
_cell_length_a 5.7539(2)
_cell_length_b 10.2628(3)
_cell_length_c 10.7686(3)
_cell_angle_alpha 81.246(1)
_cell_angle_beta 78.453(1)
_cell_angle_gamma 86.133(1)
_cell_formula_units_Z 2
loop_
_atom_type_symbol
_atom_type_radius_bond
C 0.68
H 0.23
N 0.68
O 0.68
loop_
_atom_site_label
_atom_site_type_symbol
_atom_site_fract_x
_atom_site_fract_y
_atom_site_fract_z
O1 O 0.78307(15) 0.75518(8) -0.19296(7)
O2 O 0.53701(16) 0.59157(8) -0.14659(8)
O3 O 0.88074(14) 0.52381(7) 0.21066(7)
N1 N 0.76192(16) 0.61353(9) -0.00049(8)
H1 H 0.686(4) 0.546(2) 0.0499(19)
N2 N 1.00226(16) 0.63928(9) 0.14727(8)
C1 C 0.68673(19) 0.64808(10) -0.1136(1)
C2 C 0.93724(18) 0.67466(10) 0.03891(10)
C3 C 1.04140(18) 0.78763(10) -0.04868(10)
C4 C 1.2198(2) 0.86104(11) -0.02493(11)
H2 H 1.28570 0.83540 0.04970
C5 C 1.3006(2) 0.97108(12) -0.11018(12)
H3 H 1.42380 1.01980 -0.09450
C6 C 1.2021(2) 1.01093(11) -0.21898(11)
H4 H 1.25510 1.08790 -0.27580
C7 C 1.0272(2) 0.93810(11) -0.24401(10)
H5 H 0.95900 0.96460 -0.31770
C8 C 0.95288(19) 0.82589(10) -0.15998(10)
C9 C 0.84077(19) 0.52644(10) 0.3462(1)
H6 H 0.99260 0.54180 0.37060
H7 H 0.78560 0.43950 0.39160
C10 C 0.65984(18) 0.63214(10) 0.38832(9)
C11 C 0.46819(19) 0.66576(11) 0.32637(10)
H8 H 0.45200 0.62180 0.25720
C12 C 0.3013(2) 0.76291(11) 0.36520(11)
H9 H 0.17270 0.78610 0.32190
C13 C 0.3226(2) 0.82634(12) 0.46772(11)
H10 H 0.20950 0.89350 0.49370
C14 C 0.5095(2) 0.79142(12) 0.53198(11)
H11 H 0.52180 0.83300 0.60330
C15 C 0.6784(2) 0.69542(11) 0.49151(10)
H12 H 0.80740 0.67280 0.53460
#END
