
#######################################################################
#
#                 Cambridge Crystallographic Data Centre
#                                CCDC
#
#######################################################################
#
# If this CIF has been generated from an entry in the Cambridge
# Structural Database, then it will include bibliographic, chemical,
# crystal, experimental, refinement or atomic coordinate data resulting
# from the CCDC's data processing and validation procedures.
#
#######################################################################

data_CSD_CIF_HAMJEM
_audit_creation_date 2012-01-09
_audit_creation_method CSD-ConQuest-V1
_database_code_CSD HAMJEM
_database_code_depnum_ccdc_archive 'CCDC 777621'
_chemical_formula_sum 'C19 H19 N1 O5'
_chemical_formula_moiety
;
C19 H19 N1 O5
;
_journal_coden_Cambridge 1343
_journal_volume 12
_journal_year 2010
_journal_page_first 855
_journal_name_full 'J.Comb.Chem. '
loop_
_publ_author_name
"D.B.Ramachary"
"K.Ramakumar"
"A.Bharanishashank"
"V.V.Narayana"
_chemical_name_systematic
;
Ethyl 4-hydroxy-2-methyl-3-(3-(2-nitrophenyl)prop-1-en-1-yl)benzoate
;
_chemical_melting_point 385.15
_cell_volume    848.230
_exptl_crystal_colour 'brown'
_exptl_crystal_density_diffrn 1.337
_exptl_crystal_description 'block'
_diffrn_ambient_temperature 298
#These two values have been output from a single CSD field.
_refine_ls_R_factor_gt 0.0884
_refine_ls_wR_factor_gt 0.0884
_symmetry_cell_setting triclinic
_symmetry_space_group_name_H-M 'P -1'
_symmetry_Int_Tables_number 2
loop_
_symmetry_equiv_pos_site_id
_symmetry_equiv_pos_as_xyz
1 x,y,z
2 -x,-y,-z
_cell_length_a 8.025(3)
_cell_length_b 8.415(3)
_cell_length_c 14.351(6)
_cell_angle_alpha 87.633(8)
_cell_angle_beta 83.514(6)
_cell_angle_gamma 61.760(5)
_cell_formula_units_Z 2
loop_
_atom_type_symbol
_atom_type_radius_bond
C 0.68
H 0.23
N 0.68
O 0.68
loop_
_atom_site_label
_atom_site_type_symbol
_atom_site_fract_x
_atom_site_fract_y
_atom_site_fract_z
O1 O 0.3849(5) 1.1468(5) 0.9294(2)
O2 O 0.3449(5) 0.9295(5) 0.8863(2)
O3 O 0.2651(3) 0.6178(4) 0.16293(16)
O4 O 0.0697(4) 0.6545(4) 0.28928(17)
O5 O 0.7891(4) 0.6816(4) 0.42897(18)
N1 N 0.4363(5) 1.0077(5) 0.8834(2)
H1 H 0.884(7) 0.663(6) 0.385(4)
C1 C 0.4774(4) 0.7169(4) 0.4403(2)
C2 C 0.3614(4) 0.6616(4) 0.3027(2)
C3 C 0.3312(4) 0.7110(4) 0.3974(2)
C4 C 0.6491(4) 0.6758(5) 0.3866(2)
C5 C 0.5346(5) 0.6224(5) 0.2521(2)
H2 H 0.55440 0.59060 0.18900
C6 C 0.6769(5) 0.6295(5) 0.2931(2)
H3 H 0.79180 0.60330 0.25800
C7 C 0.2159(5) 0.6458(5) 0.2541(2)
C8 C 0.7615(6) 0.9549(6) 0.8585(3)
H4 H 0.74200 1.00580 0.91760
C9 C 0.6355(5) 0.8678(5) 0.7351(2)
C10 C 0.4737(6) 0.8578(6) 0.6949(2)
H5 H 0.45200 0.76490 0.72750
H6 H 0.35900 0.97180 0.70730
C11 C 0.6184(5) 0.9393(5) 0.8231(2)
C12 C 0.1457(5) 0.7580(6) 0.4562(2)
H7 H 0.13770 0.64970 0.47190
H8 H 0.04180 0.83570 0.42150
H9 H 0.13950 0.81880 0.51270
C13 C 0.8116(6) 0.8112(5) 0.6833(3)
H10 H 0.83170 0.76310 0.62340
C14 C 0.1345(6) 0.5979(7) 0.1081(3)
H11 H 0.00760 0.69830 0.12060
H12 H 0.12950 0.48700 0.12420
C15 C 0.9569(6) 0.8248(6) 0.7187(3)
H13 H 1.07320 0.78550 0.68230
C16 C 0.4533(6) 0.7582(7) 0.5412(3)
H14 H 0.36750 0.72420 0.57270
C17 C 0.9338(6) 0.8944(6) 0.8056(3)
H15 H 1.03380 0.90090 0.82900
C18 C 0.5066(8) 0.8186(9) 0.5928(3)
H16 H 0.59390 0.85230 0.56290
C19 C 0.2042(9) 0.5936(9) 0.0094(3)
H17 H 0.21140 0.70260 -0.00540
H18 H 0.11870 0.58370 -0.02880
H19 H 0.32830 0.49180 -0.00250
#END
