
#######################################################################
#
#                 Cambridge Crystallographic Data Centre
#                                CCDC
#
#######################################################################
#
# If this CIF has been generated from an entry in the Cambridge
# Structural Database, then it will include bibliographic, chemical,
# crystal, experimental, refinement or atomic coordinate data resulting
# from the CCDC's data processing and validation procedures.
#
#######################################################################

data_CSD_CIF_HAMTIZ01
_audit_creation_date 2005-11-15
_audit_creation_method CSD-ConQuest-V1
_database_code_CSD HAMTIZ01
_database_code_depnum_ccdc_archive 'CCDC 286308'
_chemical_formula_sum 'C9 H9 N3 O5'
_chemical_formula_moiety
;
C9 H9 N3 O5
;
_journal_coeditor_code "IUCr DE5014"
_journal_coden_Cambridge 622
_journal_volume 61
_journal_year 2005
_journal_page_first 511
_journal_name_full 'Acta Crystallogr.,Sect.B:Struct.Sci. '
loop_
_publ_author_name
"G.M.Day"
"W.D.S.Motherwell"
"H.L.Ammon"
"S.X.M.Boerrigter"
"R.G.D.Valle"
"E.Venuti"
"A.Dzyabchenko"
"J.D.Dunitz"
"B.Schweizer"
"B.P.van Eijck"
"P.Erk"
"J.C.Facelli"
"V.E.Bazterra"
"M.B.Ferraro"
"D.W.M.Hofmann"
"F.J.J.Leusen"
"C.Liang"
"C.C.Pantelides"
"P.G.Karamertzanis"
"S.L.Price"
"T.C.Lewis"
"H.Nowell"
"A.Torrisi"
"H.A.Scheraga"
"Y.A.Arnautova"
"M.U.Schmidtk"
"P.Verwer"
_chemical_name_systematic
;
2-Acetamido-4,5-dinitrotoluene
;
_cell_volume   1039.807
_exptl_crystal_colour 'pale yellow'
_exptl_crystal_density_diffrn 1.528
_exptl_crystal_description 'plate'
_diffrn_ambient_temperature 150
#These two values have been output from a single CSD field.
_refine_ls_R_factor_gt 0.0317
_refine_ls_wR_factor_gt 0.0317
_symmetry_cell_setting monoclinic
_symmetry_space_group_name_H-M 'P 21/n'
_symmetry_Int_Tables_number 14
loop_
_symmetry_equiv_pos_site_id
_symmetry_equiv_pos_as_xyz
1 x,y,z
2 1/2-x,1/2+y,1/2-z
3 -x,-y,-z
4 -1/2+x,-1/2-y,-1/2+z
_cell_length_a 12.5693(4)
_cell_length_b 4.8531(1)
_cell_length_c 17.2663(5)
_cell_angle_alpha 90
_cell_angle_beta 99.1624(15)
_cell_angle_gamma 90
_cell_formula_units_Z 4
loop_
_atom_type_symbol
_atom_type_radius_bond
C 0.68
H 0.23
N 0.68
O 0.68
loop_
_atom_site_label
_atom_site_type_symbol
_atom_site_fract_x
_atom_site_fract_y
_atom_site_fract_z
C1 C -0.11496(12) 0.5270(3) 0.17561(9)
C2 C -0.07824(12) 0.4022(3) 0.11197(9)
C3 C 0.00456(13) 0.2130(3) 0.12495(9)
C4 C 0.05357(12) 0.1464(3) 0.20089(9)
C5 C 0.01682(12) 0.2781(3) 0.26387(9)
C6 C -0.06717(12) 0.4686(3) 0.25078(9)
N1 N 0.06285(11) 0.2111(3) 0.34129(8)
C7 C 0.08511(13) 0.3976(3) 0.40076(9)
O1 O 0.07502(11) 0.6454(2) 0.38929(7)
C8 C 0.12185(16) 0.2782(4) 0.4805(1)
C9 C 0.14477(14) -0.0572(4) 0.21298(11)
N2 N -0.11871(11) 0.4842(3) 0.03132(8)
O2 O -0.1081(1) 0.3211(3) -0.02156(6)
O3 O -0.1578(1) 0.7153(3) 0.02015(7)
N3 N -0.2115(1) 0.7036(3) 0.16574(7)
O4 O -0.20322(9) 0.9277(2) 0.19842(7)
O5 O -0.29431(9) 0.6110(3) 0.12827(7)
H1 H 0.0734(14) 0.043(4) 0.352(1)
H2 H 0.0311(14) 0.139(4) 0.082(1)
H3 H -0.0945(13) 0.549(4) 0.293(1)
H4 H 0.1465(17) 0.094(4) 0.4771(12)
H5 H 0.0586(17) 0.275(5) 0.5083(12)
H6 H 0.1722(16) 0.396(5) 0.5107(12)
H7 H 0.1770(16) -0.080(5) 0.1689(12)
H8 H 0.2017(16) 0.002(5) 0.2541(12)
H9 H 0.1243(17) -0.229(4) 0.2314(12)
#END
