
#######################################################################
#
#                 Cambridge Crystallographic Data Centre
#                                CCDC
#
#######################################################################
#
# If this CIF has been generated from an entry in the Cambridge
# Structural Database, then it will include bibliographic, chemical,
# crystal, experimental, refinement or atomic coordinate data resulting
# from the CCDC's data processing and validation procedures.
#
#######################################################################

data_CSD_CIF_HAMYIG
_audit_creation_date 2016-12-10
_audit_creation_method CSD-ConQuest-V1
_database_code_CSD HAMYIG
_database_code_depnum_ccdc_archive 'CCDC 1493811'
_chemical_formula_sum 'C21 H18 N4 O5'
_chemical_formula_moiety
;
C21 H18 N4 O5
;
_journal_coden_Cambridge 16
_journal_volume 73
_journal_year 2017
_journal_page_first 338
_journal_name_full 'Tetrahedron '
loop_
_publ_author_name
"B.Prek"
"J.Bezensek"
"M.Pockaj"
"B.Stanovnik"
_chemical_name_systematic
;
N-(3-(dimethylamino)-1-(5-oxo-2-phenyl-1,3-oxazol-4(5H)-ylidene)prop-2-en-1-yl
)-3-nitrobenzamide
;
_cell_volume    967.500
_exptl_crystal_colour 'red'
_exptl_crystal_density_diffrn 1.395
_exptl_crystal_description 'prism'
_diffrn_ambient_temperature 293
#These two values have been output from a single CSD field.
_refine_ls_R_factor_gt 0.0485
_refine_ls_wR_factor_gt 0.0485
_symmetry_cell_setting triclinic
_symmetry_space_group_name_H-M 'P -1'
_symmetry_Int_Tables_number 2
loop_
_symmetry_equiv_pos_site_id
_symmetry_equiv_pos_as_xyz
1 x,y,z
2 -x,-y,-z
_cell_length_a 8.3318(4)
_cell_length_b 9.7585(6)
_cell_length_c 13.4755(8)
_cell_angle_alpha 97.581(5)
_cell_angle_beta 100.300(4)
_cell_angle_gamma 112.981(5)
_cell_formula_units_Z 2
loop_
_atom_type_symbol
_atom_type_radius_bond
C 0.68
H 0.23
N 0.68
O 0.68
loop_
_atom_site_label
_atom_site_type_symbol
_atom_site_fract_x
_atom_site_fract_y
_atom_site_fract_z
O1 O 0.1133(4) -0.0723(3) -0.4453(2)
O2 O 0.0814(2) -0.2458(2) -0.36088(14)
O3 O 0.54493(18) -0.19102(14) -0.07819(12)
O4 O 1.01588(18) 0.34360(13) 0.08056(11)
O5 O 1.23680(15) 0.36424(12) 0.21628(10)
N1 N 0.1609(3) -0.1175(2) -0.37170(16)
N2 N 0.77742(17) 0.03761(14) 0.00572(10)
H1 H 0.826(3) 0.136(3) 0.0039(18)
N3 N 0.86978(19) -0.34349(15) 0.17304(12)
N4 N 1.15101(17) 0.12088(14) 0.22981(10)
C1 C 0.55580(19) 0.02262(16) -0.14453(12)
C2 C 0.3981(2) -0.07245(18) -0.21977(13)
H2 H 0.34210 -0.17600 -0.22080
C3 C 0.3264(2) -0.0124(2) -0.29208(14)
C4 C 0.4033(3) 0.1400(2) -0.29444(16)
H3 H 0.35250 0.17770 -0.34510
C5 C 0.5591(3) 0.2353(2) -0.21866(17)
H4 H 0.61320 0.33890 -0.21770
C6 C 0.6346(2) 0.17738(19) -0.14441(15)
H5 H 0.73900 0.24250 -0.09400
C7 C 0.62476(19) -0.05419(16) -0.06966(12)
C8 C 0.87633(19) -0.00085(15) 0.08332(11)
C9 C 0.8242(2) -0.15463(16) 0.08967(13)
H6 H 0.72490 -0.22900 0.03990
C10 C 0.9121(2) -0.20059(17) 0.16533(13)
H7 H 1.00960 -0.12480 0.21530
C11 C 0.7246(3) -0.4713(2) 0.0973(2)
H8 H 0.71500 -0.56510 0.11630
H9 H 0.61330 -0.46240 0.09490
H10 H 0.74940 -0.47120 0.03040
C12 C 0.9730(3) -0.3809(2) 0.25482(18)
H11 H 0.92230 -0.48960 0.24780
H12 H 1.09570 -0.34510 0.25010
H13 H 0.96930 -0.33280 0.32080
C13 C 1.02572(19) 0.12562(15) 0.14785(12)
C14 C 1.0784(2) 0.27973(16) 0.13833(13)
C15 C 1.2685(2) 0.25967(16) 0.26631(12)
C16 C 1.4281(2) 0.31452(18) 0.35167(12)
C17 C 1.4512(3) 0.2167(2) 0.41284(15)
H14 H 1.36430 0.11670 0.39960
C18 C 1.6038(3) 0.2680(3) 0.49371(16)
H15 H 1.61920 0.20210 0.53450
C19 C 1.7332(3) 0.4167(3) 0.51418(16)
H16 H 1.83580 0.45030 0.56830
C20 C 1.7103(3) 0.5147(2) 0.45485(16)
H17 H 1.79640 0.61520 0.46950
C21 C 1.5591(2) 0.4640(2) 0.37308(15)
H18 H 1.54500 0.53020 0.33220
#END
