
#######################################################################
#
#                 Cambridge Crystallographic Data Centre
#                                CCDC
#
#######################################################################
#
# If this CIF has been generated from an entry in the Cambridge
# Structural Database, then it will include bibliographic, chemical,
# crystal, experimental, refinement or atomic coordinate data resulting
# from the CCDC's data processing and validation procedures.
#
#######################################################################

data_CSD_CIF_HANDEH
_audit_creation_date 2012-01-09
_audit_creation_method CSD-ConQuest-V1
_database_code_CSD HANDEH
_database_code_depnum_ccdc_archive 'CCDC 802250'
_chemical_formula_sum 'C23 H23 N3 O6'
_chemical_formula_moiety
;
C23 H23 N3 O6
;
_journal_coden_Cambridge 1501
_journal_volume 13
_journal_year 2011
_journal_page_first 436
_journal_name_full 'ACS Comb. Sci. '
loop_
_publ_author_name
"Jing Sun"
"Yan Sun"
"Er-Yan Xia"
"Chao-Guo Yan"
_chemical_name_systematic
;
3-Ethyl 5-methyl 
2-amino-1-(4-methylphenyl)-4-(3-nitrophenyl)-1,4-dihydropyridine-3,5-dicarboxy
late
;
_cell_volume   2185.033
_exptl_crystal_colour 'colorless'
_exptl_crystal_density_diffrn 1.33
_exptl_crystal_description 'block'
_diffrn_ambient_temperature 296
#These two values have been output from a single CSD field.
_refine_ls_R_factor_gt 0.0551
_refine_ls_wR_factor_gt 0.0551
_symmetry_cell_setting monoclinic
_symmetry_space_group_name_H-M 'C c'
_symmetry_Int_Tables_number 9
loop_
_symmetry_equiv_pos_site_id
_symmetry_equiv_pos_as_xyz
1 x,y,z
2 x,-y,1/2+z
3 1/2+x,1/2+y,z
4 1/2+x,1/2-y,1/2+z
_cell_length_a 14.825(2)
_cell_length_b 16.439(2)
_cell_length_c 9.1795(12)
_cell_angle_alpha 90
_cell_angle_beta 102.388(2)
_cell_angle_gamma 90
_cell_formula_units_Z 4
loop_
_atom_type_symbol
_atom_type_radius_bond
C 0.68
H 0.23
N 0.68
O 0.68
loop_
_atom_site_label
_atom_site_type_symbol
_atom_site_fract_x
_atom_site_fract_y
_atom_site_fract_z
C1 C 0.6390(2) 0.12176(19) 0.2625(3)
H1 H 0.59610 0.12560 0.17270
C2 C 0.6238(2) 0.0700(2) 0.3750(4)
C3 C 0.6846(3) 0.0624(2) 0.5103(4)
H2 H 0.67270 0.02710 0.58300
C4 C 0.7638(3) 0.1088(3) 0.5346(4)
H3 H 0.80600 0.10540 0.62540
C5 C 0.7809(3) 0.1609(2) 0.4244(4)
H4 H 0.83450 0.19200 0.44270
C6 C 0.7196(2) 0.16740(19) 0.2873(3)
C7 C 0.7417(2) 0.22260(17) 0.1650(3)
H5 H 0.79940 0.25130 0.20620
C8 C 0.7560(2) 0.17264(17) 0.0325(3)
C9 C 0.84032(19) 0.12309(17) 0.0530(3)
C10 C 0.9311(3) 0.0341(2) -0.0595(5)
H6 H 0.98450 0.06860 -0.04550
H7 H 0.92650 0.00310 -0.14940
H8 H 0.93660 -0.00220 0.02390
C11 C 0.6945(2) 0.17259(18) -0.0963(3)
H9 H 0.70510 0.13830 -0.17150
C12 C 0.5595(2) 0.21969(19) -0.2754(4)
C13 C 0.4785(3) 0.1771(2) -0.3067(4)
H10 H 0.45810 0.14890 -0.23210
C14 C 0.4266(3) 0.1769(2) -0.4537(5)
H11 H 0.37150 0.14800 -0.47620
C15 C 0.4554(3) 0.2180(2) -0.5639(4)
C16 C 0.3971(4) 0.2186(4) -0.7229(5)
H12 H 0.42970 0.24710 -0.78710
H13 H 0.33940 0.24550 -0.72410
H14 H 0.38550 0.16370 -0.75740
C17 C 0.5372(3) 0.2600(3) -0.5302(4)
H15 H 0.55720 0.28830 -0.60510
C18 C 0.5904(3) 0.2609(2) -0.3865(4)
H16 H 0.64620 0.28890 -0.36500
C19 C 0.6056(2) 0.28077(19) -0.0234(3)
C20 C 0.6666(2) 0.28634(18) 0.1122(3)
C21 C 0.6591(3) 0.3540(2) 0.2081(4)
C22 C 0.7249(3) 0.4211(2) 0.4377(5)
H17 H 0.75990 0.40490 0.53510
H18 H 0.66130 0.42990 0.44500
C23 C 0.7640(5) 0.4978(4) 0.3893(8)
H19 H 0.82480 0.48740 0.37310
H20 H 0.76730 0.53840 0.46530
H21 H 0.72510 0.51680 0.29830
N1 N 0.5380(3) 0.02259(19) 0.3486(4)
N2 N 0.61568(17) 0.22018(16) -0.1257(3)
N3 N 0.5337(2) 0.3317(2) -0.0681(4)
O1 O 0.4784(2) 0.0359(2) 0.2394(4)
O2 O 0.5294(3) -0.0301(2) 0.4406(5)
O3 O 0.89653(15) 0.11854(14) 0.1699(3)
O4 O 0.84956(16) 0.08325(15) -0.0707(3)
O5 O 0.5972(2) 0.40577(19) 0.1894(3)
O6 O 0.7291(2) 0.35710(17) 0.3290(3)
H22 H 0.505(3) 0.331(3) -0.157(6)
H23 H 0.531(3) 0.371(3) 0.001(5)
#END
