
#######################################################################
#
#                 Cambridge Crystallographic Data Centre
#                                CCDC
#
#######################################################################
#
# If this CIF has been generated from an entry in the Cambridge
# Structural Database, then it will include bibliographic, chemical,
# crystal, experimental, refinement or atomic coordinate data resulting
# from the CCDC's data processing and validation procedures.
#
#######################################################################

data_CSD_CIF_HANLUF
_audit_creation_date 2012-07-02
_audit_creation_method CSD-ConQuest-V1
_database_code_CSD HANLUF
_database_code_depnum_ccdc_archive 'CCDC 878500'
_chemical_formula_sum 'C13 H16 N4 O3'
_chemical_formula_moiety
;
C13 H16 N4 O3
;
_journal_coden_Cambridge 4
_journal_volume 134
_journal_year 2012
_journal_page_first 1962
_journal_name_full 'J.Am.Chem.Soc. '
loop_
_publ_author_name
"D.A.Guthrie"
"N.Y.Kim"
"M.A.Siegler"
"C.D.Moore"
"J.P.Toscano"
_chemical_name_systematic
;
4-(Hydroxyamino)-4-(N-methoxyethanimidoyl)-5-methyl-2-phenyl-2,4-dihydro-3H-py
razol-3-one
;
_cell_volume   1383.249
_exptl_crystal_colour 'colorless'
_exptl_crystal_density_diffrn 1.327
_exptl_crystal_description 'lath'
_diffrn_ambient_temperature 110
#These two values have been output from a single CSD field.
_refine_ls_R_factor_gt 0.0376
_refine_ls_wR_factor_gt 0.0376
_symmetry_cell_setting monoclinic
_symmetry_space_group_name_H-M 'P 21/c'
_symmetry_Int_Tables_number 14
loop_
_symmetry_equiv_pos_site_id
_symmetry_equiv_pos_as_xyz
1 x,y,z
2 -x,1/2+y,1/2-z
3 -x,-y,-z
4 x,-1/2-y,-1/2+z
_cell_length_a 5.8807(2)
_cell_length_b 26.2720(8)
_cell_length_c 9.1340(3)
_cell_angle_alpha 90
_cell_angle_beta 101.419(4)
_cell_angle_gamma 90
_cell_formula_units_Z 4
loop_
_atom_type_symbol
_atom_type_radius_bond
C 0.68
H 0.23
N 0.68
O 0.68
loop_
_atom_site_label
_atom_site_type_symbol
_atom_site_fract_x
_atom_site_fract_y
_atom_site_fract_z
C1 C 0.2262(3) 0.09546(6) -0.18374(17)
H1 H 0.06180 0.10010 -0.22850
H2 H 0.30830 0.08220 -0.25910
H3 H 0.29360 0.12830 -0.14680
C2 C 0.1590(2) 0.05151(5) 0.16031(15)
C3 C 0.2877(3) 0.00197(6) 0.17785(17)
H4 H 0.20030 -0.02340 0.11080
H5 H 0.30630 -0.00970 0.28140
H6 H 0.44090 0.00670 0.15280
C4 C 0.0544(2) 0.07254(5) 0.28698(15)
C5 C 0.2546(2) 0.08915(5) 0.41416(15)
C6 C -0.0707(2) 0.12257(5) 0.25323(16)
C7 C -0.2930(2) 0.12923(6) 0.14414(17)
H7 H -0.34710 0.16440 0.14840
H8 H -0.40970 0.10590 0.16900
H9 H -0.26860 0.12180 0.04320
C8 C 0.3520(2) 0.17273(5) 0.54146(16)
C9 C 0.2330(3) 0.21254(6) 0.59101(18)
H10 H 0.07590 0.21900 0.54570
C10 C 0.3447(3) 0.24296(6) 0.7073(2)
H11 H 0.26340 0.27030 0.74160
C11 C 0.5737(3) 0.23379(6) 0.77395(19)
H12 H 0.64850 0.25430 0.85510
C12 C 0.6924(3) 0.19470(6) 0.72158(18)
H13 H 0.85040 0.18880 0.76610
C13 C 0.5843(3) 0.16383(6) 0.60457(17)
H14 H 0.66730 0.13720 0.56840
N1 N 0.1374(2) 0.08109(5) 0.04675(13)
N2 N -0.0976(2) 0.03447(5) 0.33441(13)
H15 H -0.014(3) 0.0054(6) 0.3577(19)
N3 N 0.23251(19) 0.14018(4) 0.42696(13)
N4 N 0.0274(2) 0.15956(4) 0.33250(13)
O1 O 0.24818(18) 0.06020(4) -0.06202(11)
O2 O -0.13857(17) 0.05265(4) 0.47744(11)
H16 H -0.285(3) 0.0511(7) 0.469(2)
O3 O 0.40112(16) 0.06140(4) 0.48750(11)
#END
