
#######################################################################
#
#                 Cambridge Crystallographic Data Centre
#                                CCDC
#
#######################################################################
#
# If this CIF has been generated from an entry in the Cambridge
# Structural Database, then it will include bibliographic, chemical,
# crystal, experimental, refinement or atomic coordinate data resulting
# from the CCDC's data processing and validation procedures.
#
#######################################################################

data_CSD_CIF_HANMAM
_audit_creation_date 2012-07-02
_audit_creation_method CSD-ConQuest-V1
_database_code_CSD HANMAM
_database_code_depnum_ccdc_archive 'CCDC 878501'
_chemical_formula_sum 'C8 H13 N3 O4'
_chemical_formula_moiety
;
C8 H13 N3 O4
;
_journal_coden_Cambridge 4
_journal_volume 134
_journal_year 2012
_journal_page_first 1962
_journal_name_full 'J.Am.Chem.Soc. '
loop_
_publ_author_name
"D.A.Guthrie"
"N.Y.Kim"
"M.A.Siegler"
"C.D.Moore"
"J.P.Toscano"
_chemical_name_systematic
;
4-Ethyl-3-hydroxy-N,1-dimethyl-2,5-dioxoimidazolidine-4-carboxamide
;
_cell_volume    989.391
_exptl_crystal_colour 'colorless'
_exptl_crystal_density_diffrn 1.445
_exptl_crystal_description 'small block'
_diffrn_ambient_temperature 110
#These two values have been output from a single CSD field.
_refine_ls_R_factor_gt 0.0399
_refine_ls_wR_factor_gt 0.0399
_symmetry_cell_setting monoclinic
_symmetry_space_group_name_H-M 'P 21/c'
_symmetry_Int_Tables_number 14
loop_
_symmetry_equiv_pos_site_id
_symmetry_equiv_pos_as_xyz
1 x,y,z
2 -x,1/2+y,1/2-z
3 -x,-y,-z
4 x,-1/2-y,-1/2+z
_cell_length_a 11.1127(4)
_cell_length_b 9.1165(2)
_cell_length_c 10.0702(3)
_cell_angle_alpha 90
_cell_angle_beta 104.117(3)
_cell_angle_gamma 90
_cell_formula_units_Z 4
loop_
_atom_type_symbol
_atom_type_radius_bond
C 0.68
H 0.23
N 0.68
O 0.68
loop_
_atom_site_label
_atom_site_type_symbol
_atom_site_fract_x
_atom_site_fract_y
_atom_site_fract_z
C1 C 0.2504(2) 0.03029(19) 0.32210(19)
H1 H 0.17080 -0.00340 0.26490
H2 H 0.26690 -0.01940 0.41100
H3 H 0.31680 0.00750 0.27670
C2 C 0.21776(17) 0.27836(18) 0.23718(16)
C3 C 0.21609(17) 0.44355(18) 0.26451(16)
C4 C 0.33586(17) 0.51264(17) 0.24284(18)
C5 C 0.31230(18) 0.59090(17) 0.45137(17)
C6 C 0.48810(19) 0.6975(2) 0.36672(19)
H4 H 0.56490 0.64000 0.38520
H5 H 0.49100 0.76640 0.44210
H6 H 0.47940 0.75210 0.28110
C7 C 0.10256(18) 0.51349(18) 0.16706(18)
H7 H 0.10600 0.49270 0.07160
H8 H 0.02660 0.46660 0.18210
C8 C 0.09263(19) 0.67847(19) 0.18429(19)
H9 H 0.08430 0.70000 0.27700
H10 H 0.01980 0.71560 0.11720
H11 H 0.16750 0.72610 0.16990
N1 N 0.24555(14) 0.18827(15) 0.34248(15)
H12 H 0.2521(19) 0.220(2) 0.4258(18)
N2 N 0.38257(14) 0.59924(15) 0.35456(14)
N3 N 0.22741(14) 0.47892(15) 0.40849(14)
O1 O 0.19439(13) 0.23668(12) 0.11622(11)
O2 O 0.37978(12) 0.49564(13) 0.14600(12)
O3 O 0.32710(13) 0.66260(13) 0.55467(12)
O4 O 0.11666(12) 0.48964(13) 0.45112(13)
H13 H 0.132(2) 0.422(2) 0.5157(19)
#END
