
#######################################################################
#
#                 Cambridge Crystallographic Data Centre
#                                CCDC
#
#######################################################################
#
# If this CIF has been generated from an entry in the Cambridge
# Structural Database, then it will include bibliographic, chemical,
# crystal, experimental, refinement or atomic coordinate data resulting
# from the CCDC's data processing and validation procedures.
#
#######################################################################

data_CSD_CIF_HASDUC
_audit_creation_date 2012-06-01
_audit_creation_method CSD-ConQuest-V1
_database_code_CSD HASDUC
_database_code_depnum_ccdc_archive 'CCDC 833099'
_chemical_formula_sum 'C30 H33 N4 O6'
_chemical_formula_moiety
;
C30 H33 N4 O6
;
_journal_coden_Cambridge 179
_journal_volume 51
_journal_year 2012
_journal_page_first 3193
_journal_name_full 'Angew.Chem.,Int.Ed. '
loop_
_publ_author_name
"S.Suzuki"
"A.Nagata"
"M.Kuratsu"
"M.Kozaki"
"R.Tanaka"
"D.Shiomi"
"K.Sugisaki"
"K.Toyota"
"K.Sato"
"T.Takui"
"K.Okada"
_chemical_name_systematic
;
2,6,10-tris(t-butylnitroxide)-4,8,12-trioxa-12c-azadibenzo[cd,mn]pyrene
;
_cell_volume   5239.795
_exptl_crystal_colour 'black'
_exptl_crystal_density_diffrn 1.383
_exptl_crystal_description 'prism'
_diffrn_ambient_temperature 150
#These two values have been output from a single CSD field.
_refine_ls_R_factor_gt 0.0951
_refine_ls_wR_factor_gt 0.0951
_symmetry_cell_setting orthorhombic
_symmetry_space_group_name_H-M 'P b c a'
_symmetry_Int_Tables_number 61
loop_
_symmetry_equiv_pos_site_id
_symmetry_equiv_pos_as_xyz
1 x,y,z
2 1/2-x,-y,1/2+z
3 1/2+x,1/2-y,-z
4 -x,1/2+y,1/2-z
5 -x,-y,-z
6 -1/2+x,y,-1/2-z
7 -1/2-x,-1/2+y,z
8 x,-1/2-y,-1/2+z
_cell_length_a 8.6097(6)
_cell_length_b 24.973(2)
_cell_length_c 24.370(2)
_cell_angle_alpha 90
_cell_angle_beta 90
_cell_angle_gamma 90
_cell_formula_units_Z 8
loop_
_atom_type_symbol
_atom_type_radius_bond
C 0.68
H 0.23
N 0.68
O 0.68
loop_
_atom_site_label
_atom_site_type_symbol
_atom_site_fract_x
_atom_site_fract_y
_atom_site_fract_z
N1 N 0.4626(4) 0.30640(12) 0.25391(12)
O1 O 0.3780(3) 0.25007(10) 0.34822(10)
O2 O 0.6642(3) 0.39343(10) 0.26272(10)
O3 O 0.4181(3) 0.25837(10) 0.15077(10)
C1 C 0.5249(4) 0.32060(14) 0.30460(15)
C2 C 0.4849(4) 0.29197(14) 0.35116(14)
C3 C 0.5457(4) 0.30515(14) 0.40161(15)
H1 H 0.511(4) 0.2842(15) 0.4334(16)
C4 C 0.6539(4) 0.34694(14) 0.40528(14)
C5 C 0.6935(5) 0.37671(14) 0.35816(15)
H2 H 0.765(5) 0.4040(17) 0.3610(16)
C6 C 0.6275(4) 0.36311(14) 0.30876(15)
C7 C 0.3970(4) 0.25542(14) 0.24969(15)
C8 C 0.3762(4) 0.23179(15) 0.19878(15)
C9 C 0.3156(5) 0.18111(16) 0.19383(17)
H3 H 0.308(5) 0.1661(16) 0.1598(17)
C10 C 0.2715(4) 0.15298(15) 0.24134(15)
C11 C 0.2899(4) 0.17731(15) 0.29296(16)
H4 H 0.262(5) 0.1559(18) 0.3245(18)
C12 C 0.3543(4) 0.22728(15) 0.29652(14)
C13 C 0.5356(4) 0.32695(15) 0.20718(14)
C14 C 0.6321(4) 0.37107(14) 0.21191(15)
C15 C 0.6975(5) 0.39379(15) 0.16583(16)
H5 H 0.763(4) 0.4214(16) 0.1704(15)
C16 C 0.6679(4) 0.37095(14) 0.11463(15)
C17 C 0.5783(4) 0.32450(15) 0.11047(15)
H6 H 0.565(5) 0.3091(16) 0.0740(17)
C18 C 0.5126(4) 0.30310(14) 0.15647(15)
N2 N 0.7258(4) 0.36183(11) 0.45476(12)
O4 O 0.7902(4) 0.40825(10) 0.45618(11)
C19 C 0.7329(4) 0.32897(14) 0.50689(14)
C20 C 0.7582(5) 0.26963(15) 0.49472(17)
H7 H 0.83950 0.26570 0.46690
H8 H 0.66130 0.25390 0.48110
H9 H 0.79000 0.25120 0.52840
C21 C 0.5846(5) 0.33858(17) 0.53947(17)
H10 H 0.58610 0.31660 0.57280
H11 H 0.49460 0.32880 0.51700
H12 H 0.57780 0.37650 0.54960
C22 C 0.8719(5) 0.34864(16) 0.53949(16)
H13 H 0.96590 0.34560 0.51700
H14 H 0.88350 0.32690 0.57270
H15 H 0.85600 0.38620 0.54980
N3 N 0.2182(4) 0.10015(13) 0.24044(13)
O5 O 0.1933(4) 0.07750(13) 0.28740(12)
C23 C 0.1925(4) 0.06609(15) 0.19000(15)
C24 C 0.3465(5) 0.0572(2) 0.16095(19)
H16 H 0.38740 0.09160 0.14820
H17 H 0.33090 0.03330 0.12950
H18 H 0.42060 0.04080 0.18650
C25 C 0.0731(5) 0.09232(16) 0.15249(17)
H19 H -0.02910 0.09160 0.17020
H20 H 0.06810 0.07270 0.11770
H21 H 0.10340 0.12950 0.14540
C26 C 0.1294(6) 0.01248(16) 0.20887(18)
H22 H 0.20570 -0.00500 0.23270
H23 H 0.10900 -0.01020 0.17690
H24 H 0.03260 0.01800 0.22930
N4 N 0.7307(3) 0.39167(12) 0.06550(12)
O6 O 0.7499(3) 0.3580(1) 0.02594(11)
C27 C 0.7539(4) 0.45033(14) 0.05312(15)
C28 C 0.6277(5) 0.48340(16) 0.08069(19)
H25 H 0.52580 0.46810 0.07210
H26 H 0.63260 0.52040 0.06730
H27 H 0.64350 0.48300 0.12050
C29 C 0.9148(5) 0.46695(17) 0.07163(18)
H28 H 0.92440 0.46150 0.11130
H29 H 0.93120 0.50490 0.06300
H30 H 0.99270 0.44530 0.05250
C30 C 0.7406(5) 0.45661(16) -0.00876(16)
H31 H 0.82130 0.43520 -0.02670
H32 H 0.75380 0.49440 -0.01860
H33 H 0.63810 0.44430 -0.02080
#END
