
#######################################################################
#
#                 Cambridge Crystallographic Data Centre
#                                CCDC
#
#######################################################################
#
# If this CIF has been generated from an entry in the Cambridge
# Structural Database, then it will include bibliographic, chemical,
# crystal, experimental, refinement or atomic coordinate data resulting
# from the CCDC's data processing and validation procedures.
#
#######################################################################

data_CSD_CIF_HAVMUM
_audit_creation_date 1994-06-28
_audit_creation_method CSD-ConQuest-V1
_database_code_CSD HAVMUM
_database_code_depnum_ccdc_archive 'CCDC 1172756'
_database_code_depnum_ccdc_fiz 'CSD 400106'
_chemical_formula_sum 'C26 H18 N2 O3'
_chemical_formula_moiety
;
C26 H18 N2 O3
;
_journal_coden_Cambridge 167
_journal_year 1993
_journal_page_first 1145
_journal_name_full 'Liebigs Ann. '
loop_
_publ_author_name
"T.Zimmermann"
"M.Pink"
_chemical_name_systematic
;
4-(4-Methoxyphenyl)-3-nitro-2,6-diphenylbenzonitrile
;
_chemical_melting_point 444.15
_cell_volume   2126.114
_exptl_crystal_colour 'light yellow'
_exptl_crystal_density_diffrn 1.268
_exptl_special_details
;
Melting point range 444.15-445.15K

;
_exptl_crystal_description 'platelet'
_diffrn_ambient_temperature ?
_diffrn_special_details
;
The study was carried out at room temperature,in the range 283-303K

;
#These two values have been output from a single CSD field.
_refine_ls_R_factor_gt 0.0366
_refine_ls_wR_factor_gt 0.0366
_symmetry_cell_setting monoclinic
_symmetry_space_group_name_H-M 'P 21/c'
_symmetry_Int_Tables_number 14
loop_
_symmetry_equiv_pos_site_id
_symmetry_equiv_pos_as_xyz
1 x,y,z
2 -x,1/2+y,1/2-z
3 -x,-y,-z
4 x,-1/2-y,-1/2+z
_cell_length_a 14.502(2)
_cell_length_b 11.837(2)
_cell_length_c 13.503(2)
_cell_angle_alpha 90
_cell_angle_beta 113.473
_cell_angle_gamma 90
_cell_formula_units_Z 4
loop_
_atom_type_symbol
_atom_type_radius_bond
C 0.68
H 0.23
N 0.68
O 0.68
loop_
_atom_site_label
_atom_site_type_symbol
_atom_site_fract_x
_atom_site_fract_y
_atom_site_fract_z
O1 O 0.07646(13) -0.00502(16) -0.37954(14)
O2 O 0.22113(15) 0.07731(16) -0.30076(15)
O3 O -0.00696(15) -0.14567(14) -0.01116(15)
N1 N 0.40677(15) -0.24773(20) -0.53588(16)
N2 N 0.16824(18) -0.00500(19) -0.34012(17)
C1 C 0.31862(16) -0.22524(21) -0.40358(18)
C2 C 0.27195(17) -0.12193(20) -0.40525(18)
C3 C 0.21909(17) -0.11375(20) -0.33932(19)
C4 C 0.20966(17) -0.20016(20) -0.27468(18)
C5 C 0.25815(18) -0.3005(2) -0.27641(18)
C6 C 0.31410(17) -0.31617(20) -0.33885(19)
C7 C 0.27344(20) -0.02789(21) -0.47754(20)
C8 C 0.36299(21) 0.02375(26) -0.46621(22)
C9 C 0.36332(28) 0.11212(31) -0.53334(31)
C10 C 0.27404(34) 0.14753(29) -0.61179(30)
C11 C 0.18489(26) 0.09774(26) -0.62550(23)
C12 C 0.18442(20) 0.00956(22) -0.55758(21)
C13 C 0.15245(17) -0.18695(19) -0.20481(18)
C14 C 0.16713(18) -0.09439(20) -0.13640(19)
C15 C 0.11204(20) -0.08328(21) -0.07392(20)
C16 C 0.04289(19) -0.16462(21) -0.07741(20)
C17 C 0.02759(20) -0.25724(21) -0.14367(21)
C18 C 0.08316(20) -0.26702(21) -0.20702(20)
C19 C 0.36437(20) -0.42611(23) -0.33652(18)
C20 C 0.31526(23) -0.52642(26) -0.33747(22)
C21 C 0.35984(28) -0.62974(28) -0.33966(26)
C22 C 0.45419(28) -0.63228(32) -0.34049(25)
C23 C 0.50511(25) -0.53484(34) -0.33697(24)
C24 C 0.46122(22) -0.43075(28) -0.33415(22)
C25 C -0.07324(29) -0.23106(30) -0.00547(34)
C26 C 0.36841(17) -0.23878(21) -0.47784(18)
H1 H 0.2568(13) -0.3609(16) -0.2318(14)
H2 H 0.4297(16) -0.0076(19) -0.4097(17)
H3 H 0.4359(18) 0.1455(21) -0.519(2)
H4 H 0.2788(18) 0.2116(22) -0.6503(19)
H5 H 0.1183(18) 0.1205(21) -0.6805(19)
H6 H 0.1202(15) -0.0278(18) -0.5668(16)
H7 H 0.2198(13) -0.0362(16) -0.1293(14)
H8 H 0.1185(15) -0.0159(18) -0.0333(16)
H9 H -0.0231(15) -0.3177(17) -0.1514(16)
H10 H 0.0692(15) -0.3358(18) -0.2556(16)
H11 H 0.2451(16) -0.5223(20) -0.3393(18)
H12 H 0.3216(21) -0.7025(23) -0.3449(22)
H13 H 0.4848(19) -0.7054(22) -0.344(2)
H14 H 0.5732(18) -0.5287(21) -0.3380(19)
H15 H 0.5007(16) -0.3607(18) -0.3289(17)
H16 H -0.0346(19) -0.3061(22) 0.0209(21)
H17 H -0.1040(18) -0.2006(21) 0.0411(20)
H18 H -0.1356(22) -0.2449(28) -0.0833(24)
#END
