
#######################################################################
#
#                 Cambridge Crystallographic Data Centre
#                                CCDC
#
#######################################################################
#
# If this CIF has been generated from an entry in the Cambridge
# Structural Database, then it will include bibliographic, chemical,
# crystal, experimental, refinement or atomic coordinate data resulting
# from the CCDC's data processing and validation procedures.
#
#######################################################################

data_CSD_CIF_HAVVUW
_audit_creation_date 2006-01-24
_audit_creation_method CSD-ConQuest-V1
_database_code_CSD HAVVUW
_database_code_depnum_ccdc_archive 'CCDC 280037'
_chemical_formula_sum 'C27 H33 N1 O3'
_chemical_formula_moiety
;
C27 H33 N1 O3
;
_journal_coden_Cambridge 179
_journal_volume 44
_journal_year 2005
_journal_page_first 6187
_journal_name_full 'Angew.Chem.,Int.Ed. '
loop_
_publ_author_name
"C.Palomo"
"M.Oiarbide"
"E.Arceo"
"J.M.Garcia"
"R.Lopez"
"A.Gonzalez"
"A.Linden"
_chemical_name_systematic
;
(3R,4S)-2-Benzyl-4-(((1R)-2-exo-hydroxy-1,7,7-trimethylbicyclo(2.2.1)hept-2-yl
)carbonyl)-3-phenylisoxazolidine
;
_chemical_melting_point 425
_cell_volume   2270.880
_exptl_crystal_colour 'colorless'
_exptl_crystal_density_diffrn 1.227
_exptl_crystal_description 'prism'
_diffrn_ambient_temperature 160
#These two values have been output from a single CSD field.
_refine_ls_R_factor_gt 0.0413
_refine_ls_wR_factor_gt 0.0413
_symmetry_cell_setting orthorhombic
_symmetry_space_group_name_H-M 'P 21 21 21'
_symmetry_Int_Tables_number 19
loop_
_symmetry_equiv_pos_site_id
_symmetry_equiv_pos_as_xyz
1 x,y,z
2 1/2-x,-y,1/2+z
3 1/2+x,1/2-y,-z
4 -x,1/2+y,1/2-z
_cell_length_a 8.0962(2)
_cell_length_b 13.3510(3)
_cell_length_c 21.0087(5)
_cell_angle_alpha 90
_cell_angle_beta 90
_cell_angle_gamma 90
_cell_formula_units_Z 4
loop_
_atom_type_symbol
_atom_type_radius_bond
C 0.68
H 0.23
N 0.68
O 0.68
loop_
_atom_site_label
_atom_site_type_symbol
_atom_site_fract_x
_atom_site_fract_y
_atom_site_fract_z
O1 O 0.70846(19) 0.60540(11) 0.98463(7)
H1 H 0.664(3) 0.612(2) 1.0211(13)
O2 O 0.35504(19) 0.50197(12) 0.91957(8)
O3 O 0.22815(18) 0.75468(11) 0.91626(6)
N1 N 0.2790(2) 0.76925(13) 0.84990(7)
C1 C 0.6364(2) 0.51927(14) 0.95537(9)
C2 C 0.7626(2) 0.47516(14) 0.90578(9)
C3 C 0.6655(3) 0.39928(15) 0.8651(1)
H2 H 0.73240 0.37600 0.82850
H3 H 0.56170 0.42920 0.84900
C4 C 0.6292(3) 0.31243(16) 0.91143(11)
H4 H 0.50900 0.30410 0.91820
H5 H 0.67590 0.24860 0.89550
C5 C 0.7154(3) 0.34603(16) 0.97257(10)
H6 H 0.74120 0.29030 1.00280
C6 C 0.6100(3) 0.43020(16) 1.00136(10)
H7 H 0.64790 0.44710 1.04490
H8 H 0.49210 0.41070 1.00310
C7 C 0.8595(3) 0.55226(16) 0.86836(10)
H9 H 0.78520 0.58730 0.83900
H10 H 0.94680 0.51870 0.84410
H11 H 0.90910 0.60070 0.89780
C8 C 0.8678(3) 0.40249(15) 0.94802(10)
C9 C 0.9865(3) 0.33675(18) 0.90967(12)
H12 H 0.92830 0.30850 0.87290
H13 H 1.02750 0.28230 0.93670
H14 H 1.07980 0.37730 0.89490
C10 C 0.9726(3) 0.45124(19) 1.00016(11)
H15 H 1.05610 0.49460 0.98060
H16 H 1.02750 0.39900 1.02520
H17 H 0.90140 0.49130 1.02800
C11 C 0.4759(3) 0.55471(15) 0.9235(1)
C12 C 0.4728(3) 0.66224(15) 0.89933(9)
H18 H 0.58810 0.68680 0.89240
C13 C 0.3710(3) 0.67451(16) 0.83773(9)
H19 H 0.29130 0.61760 0.83360
C14 C 0.3821(3) 0.73124(18) 0.94612(10)
H20 H 0.36360 0.69680 0.98720
H21 H 0.44690 0.79290 0.95390
C15 C 0.4757(3) 0.68135(16) 0.77857(9)
C16 C 0.4863(3) 0.60089(18) 0.73761(10)
H22 H 0.42000 0.54330 0.74500
C17 C 0.5924(3) 0.6028(2) 0.68576(11)
H23 H 0.59910 0.54660 0.65810
C18 C 0.6880(3) 0.6861(2) 0.67434(11)
H24 H 0.76140 0.68720 0.63910
C19 C 0.6773(3) 0.7680(2) 0.71420(11)
H25 H 0.74180 0.82600 0.70590
C20 C 0.5723(3) 0.76579(19) 0.76637(10)
H26 H 0.56620 0.82210 0.79400
C21 C 0.1241(3) 0.77293(16) 0.81383(9)
H27 H 0.06090 0.71060 0.82160
H28 H 0.14950 0.77640 0.76780
C22 C 0.0199(3) 0.86128(15) 0.83198(9)
C23 C 0.0447(3) 0.95437(17) 0.8047(1)
H29 H 0.12960 0.96300 0.77400
C24 C -0.0537(4) 1.03541(18) 0.82184(12)
H30 H -0.03600 1.09900 0.80270
C25 C -0.1768(3) 1.02357(19) 0.86664(12)
H31 H -0.24400 1.07890 0.87840
C26 C -0.2018(3) 0.93123(19) 0.89418(11)
H32 H -0.28600 0.92290 0.92520
C27 C -0.1053(3) 0.85111(17) 0.87697(10)
H33 H -0.12430 0.78770 0.89610
#END
