
#######################################################################
#
#                 Cambridge Crystallographic Data Centre
#                                CCDC
#
#######################################################################
#
# If this CIF has been generated from an entry in the Cambridge
# Structural Database, then it will include bibliographic, chemical,
# crystal, experimental, refinement or atomic coordinate data resulting
# from the CCDC's data processing and validation procedures.
#
#######################################################################

data_CSD_CIF_HAVWIL
_audit_creation_date 2006-01-24
_audit_creation_method CSD-ConQuest-V1
_database_code_CSD HAVWIL
_database_code_depnum_ccdc_archive 'CCDC 280040'
_chemical_formula_sum 'C20 H23 N1 O3'
_chemical_formula_moiety
;
C20 H23 N1 O3
;
_journal_coden_Cambridge 179
_journal_volume 44
_journal_year 2005
_journal_page_first 6187
_journal_name_full 'Angew.Chem.,Int.Ed. '
loop_
_publ_author_name
"C.Palomo"
"M.Oiarbide"
"E.Arceo"
"J.M.Garcia"
"R.Lopez"
"A.Gonzalez"
"A.Linden"
_chemical_name_systematic
;
2-Benzyl-5-(2-hydroxy-2-methylpropanoyl)-3-phenylisoxazolidine
;
_chemical_melting_point 392
_cell_volume    859.267
_exptl_crystal_colour 'colorless'
_exptl_crystal_density_diffrn 1.258
_exptl_crystal_description 'prism'
_diffrn_ambient_temperature 160
#These two values have been output from a single CSD field.
_refine_ls_R_factor_gt 0.0405
_refine_ls_wR_factor_gt 0.0405
_symmetry_cell_setting triclinic
_symmetry_space_group_name_H-M 'P -1'
_symmetry_Int_Tables_number 2
loop_
_symmetry_equiv_pos_site_id
_symmetry_equiv_pos_as_xyz
1 x,y,z
2 -x,-y,-z
_cell_length_a 5.9157(1)
_cell_length_b 9.1301(2)
_cell_length_c 16.2207(4)
_cell_angle_alpha 88.0346(15)
_cell_angle_beta 83.0576(14)
_cell_angle_gamma 81.1759(16)
_cell_formula_units_Z 2
loop_
_atom_type_symbol
_atom_type_radius_bond
C 0.68
H 0.23
N 0.68
O 0.68
loop_
_atom_site_label
_atom_site_type_symbol
_atom_site_fract_x
_atom_site_fract_y
_atom_site_fract_z
O1 O 0.33416(15) 1.14013(10) 0.72785(6)
O2 O 0.39735(17) 1.27410(13) 0.57975(7)
O3 O 0.97198(17) 1.14829(11) 0.60788(7)
H1 H 1.100(4) 1.188(2) 0.6093(13)
N1 N 0.33789(18) 1.00216(11) 0.77791(6)
C1 C 0.5627(2) 1.12090(15) 0.68570(8)
H2 H 0.67340 1.14400 0.72360
C2 C 0.6153(2) 0.95462(15) 0.66224(9)
H3 H 0.61660 0.94200 0.60180
H4 H 0.76490 0.90740 0.67930
C3 C 0.4136(2) 0.89072(14) 0.71192(8)
H5 H 0.28760 0.89130 0.67590
C4 C 0.0993(2) 0.99894(15) 0.81294(8)
H6 H 0.08330 0.89630 0.83170
H7 H -0.00120 1.02540 0.76850
C5 C 0.0151(2) 1.10137(14) 0.88478(8)
C6 C -0.2032(2) 1.09590(16) 0.92678(9)
H8 H -0.29580 1.02920 0.90930
C7 C -0.2870(3) 1.18686(17) 0.99398(9)
H9 H -0.43540 1.18140 1.02260
C8 C -0.1544(3) 1.28548(17) 1.01924(9)
H10 H -0.21230 1.34870 1.06470
C9 C 0.0628(3) 1.29172(16) 0.97802(9)
H11 H 0.15440 1.35920 0.99540
C10 C 0.1474(2) 1.19965(15) 0.91141(9)
H12 H 0.29730 1.20390 0.88380
C11 C 0.5704(2) 1.22200(15) 0.61002(8)
C12 C 0.8074(2) 1.25493(15) 0.57261(8)
C13 C 0.8348(3) 1.23918(19) 0.47892(9)
H13 H 0.83170 1.13580 0.46530
H14 H 0.98210 1.26820 0.45520
H15 H 0.70840 1.30330 0.45580
C14 C 0.8271(3) 1.41233(17) 0.59685(10)
H16 H 0.97970 1.43560 0.57520
H17 H 0.80580 1.41970 0.65750
H18 H 0.70840 1.48270 0.57330
C15 C 0.4694(2) 0.73750(14) 0.74934(8)
C16 C 0.6534(2) 0.70104(15) 0.79565(9)
H19 H 0.74860 0.77320 0.80330
C17 C 0.6999(3) 0.56075(16) 0.83075(9)
H20 H 0.82730 0.53680 0.86180
C18 C 0.5603(3) 0.45544(16) 0.82058(9)
H21 H 0.59180 0.35920 0.84460
C19 C 0.3752(3) 0.49052(16) 0.77540(9)
H22 H 0.27870 0.41870 0.76860
C20 C 0.3303(2) 0.63077(15) 0.73991(8)
H23 H 0.20310 0.65430 0.70880
#END
