
#######################################################################
#
#                 Cambridge Crystallographic Data Centre
#                                CCDC
#
#######################################################################
#
# If this CIF has been generated from an entry in the Cambridge
# Structural Database, then it will include bibliographic, chemical,
# crystal, experimental, refinement or atomic coordinate data resulting
# from the CCDC's data processing and validation procedures.
#
#######################################################################

data_CSD_CIF_HAVWEH
_audit_creation_date 2006-01-24
_audit_creation_method CSD-ConQuest-V1
_database_code_CSD HAVWEH
_database_code_depnum_ccdc_archive 'CCDC 280039'
_chemical_formula_sum 'C19 H21 N1 O3'
_chemical_formula_moiety
;
C19 H21 N1 O3
;
_journal_coden_Cambridge 179
_journal_volume 44
_journal_year 2005
_journal_page_first 6187
_journal_name_full 'Angew.Chem.,Int.Ed. '
loop_
_publ_author_name
"C.Palomo"
"M.Oiarbide"
"E.Arceo"
"J.M.Garcia"
"R.Lopez"
"A.Gonzalez"
"A.Linden"
_chemical_name_systematic
;
(3S,4R)-2,3-Diphenyl-4-(2-hydroxy-2-methylpropanoyl)isoxazolidine
;
_chemical_melting_point 380
_cell_volume   1581.591
_exptl_crystal_colour 'colorless'
_exptl_crystal_density_diffrn 1.308
_exptl_crystal_description 'plate'
_diffrn_ambient_temperature 160
#These two values have been output from a single CSD field.
_refine_ls_R_factor_gt 0.033
_refine_ls_wR_factor_gt 0.033
_symmetry_cell_setting orthorhombic
_symmetry_space_group_name_H-M 'P 21 21 21'
_symmetry_Int_Tables_number 19
loop_
_symmetry_equiv_pos_site_id
_symmetry_equiv_pos_as_xyz
1 x,y,z
2 1/2-x,-y,1/2+z
3 1/2+x,1/2-y,-z
4 -x,1/2+y,1/2-z
_cell_length_a 5.9232(2)
_cell_length_b 16.2667(4)
_cell_length_c 16.4149(4)
_cell_angle_alpha 90
_cell_angle_beta 90
_cell_angle_gamma 90
_cell_formula_units_Z 4
loop_
_atom_type_symbol
_atom_type_radius_bond
C 0.68
H 0.23
N 0.68
O 0.68
loop_
_atom_site_label
_atom_site_type_symbol
_atom_site_fract_x
_atom_site_fract_y
_atom_site_fract_z
O1 O 0.7041(3) -0.02574(12) -0.21059(11)
H1 H 0.698(7) -0.029(2) -0.260(3)
O2 O 1.0987(3) 0.06250(9) -0.07774(9)
O3 O 0.5370(3) -0.01417(10) 0.04458(10)
N1 N 0.7499(4) 0.00416(11) 0.08261(11)
C1 C 0.9061(4) 0.02046(13) -0.19710(13)
C2 C 0.9534(4) 0.01772(13) -0.10567(13)
C3 C 0.8237(4) -0.04242(13) -0.05288(13)
H2 H 0.82940 -0.09850 -0.07770
C4 C 0.9141(4) -0.04568(13) 0.03563(13)
H3 H 1.06560 -0.01860 0.03790
C5 C 0.5761(4) -0.01526(14) -0.04231(14)
H4 H 0.55220 0.04000 -0.06590
H5 H 0.47280 -0.05450 -0.06940
C6 C 1.1037(5) -0.02130(17) -0.23920(15)
H6 H 1.11260 -0.07880 -0.22150
H7 H 1.24400 0.00710 -0.22490
H8 H 1.08180 -0.01920 -0.29830
C7 C 0.8772(5) 0.10800(14) -0.22511(15)
H9 H 0.85040 0.10890 -0.28400
H10 H 1.01420 0.13930 -0.21260
H11 H 0.74820 0.13280 -0.19690
C8 C 0.9315(4) -0.13100(13) 0.07129(13)
C9 C 0.7613(5) -0.18950(13) 0.06254(14)
H12 H 0.63190 -0.17740 0.03050
C10 C 0.7806(5) -0.26562(14) 0.10069(15)
H13 H 0.66440 -0.30540 0.09420
C11 C 0.9670(5) -0.28392(14) 0.14788(15)
H14 H 0.97740 -0.33550 0.17470
C12 C 1.1373(5) -0.22711(14) 0.15579(15)
H15 H 1.26710 -0.23980 0.18740
C13 C 1.1202(4) -0.15101(13) 0.11760(14)
H16 H 1.23910 -0.11220 0.12320
C14 C 0.7888(4) 0.09168(13) 0.08619(13)
C15 C 0.9935(4) 0.11839(14) 0.11795(14)
H17 H 1.10800 0.07960 0.13080
C16 C 1.0311(5) 0.20158(14) 0.13097(15)
H18 H 1.17100 0.21970 0.15290
C17 C 0.8637(5) 0.25822(14) 0.11190(15)
H19 H 0.88890 0.31520 0.12070
C18 C 0.6623(4) 0.23184(14) 0.08035(15)
H20 H 0.54890 0.27080 0.06690
C19 C 0.6219(4) 0.14845(13) 0.06775(14)
H21 H 0.48080 0.13060 0.04660
#END
