
#######################################################################
#
#                 Cambridge Crystallographic Data Centre
#                                CCDC
#
#######################################################################
#
# If this CIF has been generated from an entry in the Cambridge
# Structural Database, then it will include bibliographic, chemical,
# crystal, experimental, refinement or atomic coordinate data resulting
# from the CCDC's data processing and validation procedures.
#
#######################################################################

data_CSD_CIF_HAWLUN
_audit_creation_date 2006-01-24
_audit_creation_method CSD-ConQuest-V1
_database_code_CSD HAWLUN
_database_code_depnum_ccdc_archive 'CCDC 276455'
_chemical_formula_sum 'C17 H16 N2 O4'
_chemical_formula_moiety
;
C17 H16 N2 O4
;
_journal_coden_Cambridge 35
_journal_volume 70
_journal_year 2005
_journal_page_first 8140
_journal_name_full 'J.Org.Chem. '
loop_
_publ_author_name
"Liwen He"
"G.S.C.Srikanth"
"S.L.Castle"
_chemical_name_systematic
;
(E)-N-Benzyl-3-(4-methoxyphenyl)-2-nitroacrylamide
;
_cell_volume   1534.901
_exptl_crystal_colour 'yellow'
_exptl_crystal_density_diffrn 1.351
_exptl_crystal_description 'plate'
_diffrn_ambient_temperature 273
#These two values have been output from a single CSD field.
_refine_ls_R_factor_gt 0.0467
_refine_ls_wR_factor_gt 0.0467
_symmetry_cell_setting monoclinic
_symmetry_space_group_name_H-M 'P 21/c'
_symmetry_Int_Tables_number 14
loop_
_symmetry_equiv_pos_site_id
_symmetry_equiv_pos_as_xyz
1 x,y,z
2 -x,1/2+y,1/2-z
3 -x,-y,-z
4 x,-1/2-y,-1/2+z
_cell_length_a 4.7423(8)
_cell_length_b 15.197(3)
_cell_length_c 21.350(4)
_cell_angle_alpha 90
_cell_angle_beta 94.010(6)
_cell_angle_gamma 90
_cell_formula_units_Z 4
loop_
_atom_type_symbol
_atom_type_radius_bond
C 0.68
H 0.23
N 0.68
O 0.68
loop_
_atom_site_label
_atom_site_type_symbol
_atom_site_fract_x
_atom_site_fract_y
_atom_site_fract_z
C1 C 0.8467(4) 0.18464(12) 0.07867(9)
C2 C 0.8236(4) 0.12801(12) 0.03091(9)
H1 H 0.72930 0.07620 0.03950
C3 C 0.9191(4) 0.13270(12) -0.03208(9)
C4 C 1.1026(4) 0.19590(14) -0.05359(10)
H2 H 1.17620 0.23890 -0.02610
C5 C 1.1768(4) 0.19578(14) -0.11476(10)
H3 H 1.29880 0.23870 -0.12810
C6 C 1.0726(4) 0.13296(14) -0.15633(10)
C7 C 0.8948(5) 0.06815(16) -0.13589(11)
H4 H 0.82610 0.02450 -0.16340
C8 C 0.8209(5) 0.06862(14) -0.07518(11)
H5 H 0.70130 0.02480 -0.06210
C9 C 1.3142(6) 0.19325(18) -0.24078(11)
H6 H 1.23320 0.25050 -0.23590
H7 H 1.33740 0.18250 -0.28440
H8 H 1.49500 0.19050 -0.21770
C10 C 0.9868(3) 0.27343(12) 0.08168(8)
C11 C 0.9191(4) 0.43179(13) 0.08383(12)
H9 H 0.95830 0.45210 0.04220
H10 H 1.09510 0.43290 0.10990
C12 C 0.7118(4) 0.49328(12) 0.11096(9)
C13 C 0.6557(5) 0.48653(16) 0.17339(11)
H11 H 0.74620 0.44380 0.19870
C14 C 0.4635(6) 0.54380(19) 0.19856(12)
H12 H 0.42630 0.53920 0.24060
C15 C 0.3296(5) 0.60673(16) 0.16143(14)
H13 H 0.20060 0.64460 0.17820
C16 C 0.3855(5) 0.61389(14) 0.09971(13)
H14 H 0.29470 0.65670 0.07460
C17 C 0.5764(4) 0.55768(13) 0.07467(10)
H15 H 0.61430 0.56330 0.03270
H16 H 0.634(5) 0.3312(15) 0.0805(10)
N1 N 0.7262(4) 0.15905(12) 0.13700(8)
N2 N 0.8144(3) 0.3417(1) 0.07959(8)
O1 O 0.5835(5) 0.09253(13) 0.13852(9)
O2 O 0.7800(4) 0.20662(12) 0.18255(7)
O3 O 1.2463(3) 0.27969(10) 0.08379(8)
O4 O 1.1314(4) 0.12815(12) -0.21750(7)
#END
