
#######################################################################
#
#                 Cambridge Crystallographic Data Centre
#                                CCDC
#
#######################################################################
#
# If this CIF has been generated from an entry in the Cambridge
# Structural Database, then it will include bibliographic, chemical,
# crystal, experimental, refinement or atomic coordinate data resulting
# from the CCDC's data processing and validation procedures.
#
#######################################################################

data_CSD_CIF_HAXVUX
_audit_creation_date 1994-07-27
_audit_creation_method CSD-ConQuest-V1
_database_code_CSD HAXVUX
_chemical_formula_sum 'C10 H13 N3 O7'
_chemical_formula_moiety
;
C10 H13 N3 O7
;
_journal_coden_Cambridge 154
_journal_volume 46
_journal_year 1993
_journal_page_first 1629
_journal_name_full 'Aust.J.Chem. '
loop_
_publ_author_name
"J.L.Calvert"
"M.P.Hartshorn"
"W.T.Robinson"
"G.J.Wright"
_chemical_name_systematic
;
2,4,5,6-Tetramethyl-r-4,c-5,t-6-trinitrocyclohex-2-enone
;
_chemical_melting_point 377.15
_cell_volume   1281.989
_exptl_crystal_colour 'colorless'
_exptl_crystal_density_diffrn 1.488
_exptl_special_details
;
Melting point range 377.15-378.15K

;
_diffrn_ambient_temperature 183
#These two values have been output from a single CSD field.
_refine_ls_R_factor_gt 0.1002
_refine_ls_wR_factor_gt 0.1002
loop_
_citation_database_id_CSD
_citation_special_details
DEMNOY "is a stereoisomer of this entry"
HAXWAE "is a stereoisomer of this entry"
_symmetry_cell_setting orthorhombic
_symmetry_space_group_name_H-M 'P n a 21'
_symmetry_Int_Tables_number 33
loop_
_symmetry_equiv_pos_site_id
_symmetry_equiv_pos_as_xyz
1 x,y,z
2 1/2-x,1/2+y,1/2+z
3 1/2+x,1/2-y,z
4 -x,-y,1/2+z
_cell_length_a 13.073(3)
_cell_length_b 9.403(2)
_cell_length_c 10.429(2)
_cell_angle_alpha 90
_cell_angle_beta 90
_cell_angle_gamma 90
_cell_formula_units_Z 4
loop_
_atom_type_symbol
_atom_type_radius_bond
C 0.68
H 0.23
N 0.68
O 0.68
loop_
_atom_site_label
_atom_site_type_symbol
_atom_site_fract_x
_atom_site_fract_y
_atom_site_fract_z
O1 O 0.9889(7) 0.2130(11) 0.9535(15)
N1 N 0.6227(11) -0.0008(17) 0.8275(14)
O2 O 0.5573(9) -0.0990(13) 0.8501(15)
O3 O 0.6261(11) 0.0691(13) 0.7330(12)
N2 N 0.8217(12) -0.0505(15) 0.7715(13)
O4 O 0.7970(13) -0.1517(16) 0.7083(13)
O5 O 0.8696(9) 0.0519(17) 0.7316(13)
N3 N 0.8739(11) 0.0043(17) 1.1368(12)
O6 O 0.8670(15) -0.1111(13) 1.1927(12)
O7 O 0.8662(11) 0.1119(15) 1.1928(13)
C1 C 0.9017(10) 0.1654(16) 0.9533(19)
C2 C 0.8114(9) 0.2502(11) 0.9399(17)
C3 C 0.7186(9) 0.1932(12) 0.9306(14)
C4 C 0.6961(9) 0.0358(12) 0.9384(16)
C5 C 0.7935(10) -0.0604(14) 0.9275(20)
C6 C 0.8905(12) 0.0033(16) 0.9880(14)
C7 C 0.8265(11) 0.4106(12) 0.9281(17)
C8 C 0.6313(12) 0.0111(17) 1.0639(17)
C9 C 0.7722(12) -0.2168(13) 0.9519(19)
C10 C 0.9872(11) -0.0831(15) 0.9562(22)
H1 H 0.6625(9) 0.2559(12) 0.9182(14)
H2 H 0.8672(68) 0.4314(14) 0.8515(58)
H3 H 0.8623(72) 0.4461(20) 1.0042(49)
H4 H 0.7597(12) 0.4573(15) 0.921(10)
H5 H 0.600(31) -0.083(21) 1.061(21)
H6 H 0.578(24) 0.084(31) 1.070(24)
H7 H 0.6762(68) 0.017(52) 1.1390(33)
H8 H 0.8314(34) -0.2734(16) 0.9250(89)
H9 H 0.7118(48) -0.2462(29) 0.9028(76)
H10 H 0.7596(73) -0.2318(21) 1.0435(23)
H11 H 1.0462(19) -0.0410(72) 1.0000(85)
H12 H 0.9989(46) -0.0818(94) 0.8634(24)
H13 H 0.9782(36) -0.1815(34) 0.9850(96)
H14? H 0.636(30) 0.095(21) 1.119(21)
H15? H 0.658(24) -0.072(31) 1.110(24)
H16? H 0.5596(68) -0.005(52) 1.0409(33)
#END
