
#######################################################################
#
#                 Cambridge Crystallographic Data Centre
#                                CCDC
#
#######################################################################
#
# If this CIF has been generated from an entry in the Cambridge
# Structural Database, then it will include bibliographic, chemical,
# crystal, experimental, refinement or atomic coordinate data resulting
# from the CCDC's data processing and validation procedures.
#
#######################################################################

data_CSD_CIF_HAXWEK
_audit_creation_date 2012-07-11
_audit_creation_method CSD-ConQuest-V1
_database_code_CSD HAXWEK
_database_code_depnum_ccdc_archive 'CCDC 879464'
_chemical_formula_sum 'C12 H13 N5 O2'
_chemical_formula_moiety
;
C12 H13 N5 O2
;
_journal_coeditor_code "IUCr SF3170"
_journal_coden_Cambridge 591
_journal_volume 68
_journal_year 2012
_journal_page_first o199
_journal_name_full 'Acta Crystallogr.,Sect.C:Cryst.Struct.Commun. '
loop_
_publ_author_name
"A.F.Yepes"
"A.Palma"
"A.Marchal"
"J.Cobo"
"C.Glidewell"
_chemical_name_systematic
;
6-Methoxy-N^4^-(4-methylphenyl)-5-nitrosopyrimidine-2,4-diamine
;
_chemical_name_common
;
2-Amino-6-methoxy-4-(4-methylanilino)-5-nitrosopyrimidine
;
_cell_volume    603.380
_exptl_crystal_colour 'brown'
_exptl_crystal_density_diffrn 1.427
_exptl_crystal_description 'needle'
_diffrn_ambient_temperature 120
#These two values have been output from a single CSD field.
_refine_ls_R_factor_gt 0.0672
_refine_ls_wR_factor_gt 0.0672
_symmetry_cell_setting triclinic
_symmetry_space_group_name_H-M 'P -1'
_symmetry_Int_Tables_number 2
loop_
_symmetry_equiv_pos_site_id
_symmetry_equiv_pos_as_xyz
1 x,y,z
2 -x,-y,-z
_cell_length_a 6.975(2)
_cell_length_b 7.4704(10)
_cell_length_c 12.161(4)
_cell_angle_alpha 102.90(2)
_cell_angle_beta 92.64(3)
_cell_angle_gamma 101.144(19)
_cell_formula_units_Z 2
loop_
_atom_type_symbol
_atom_type_radius_bond
C 0.68
H 0.23
N 0.68
O 0.68
loop_
_atom_site_label
_atom_site_type_symbol
_atom_site_fract_x
_atom_site_fract_y
_atom_site_fract_z
N1 N 0.3124(4) 0.4838(3) 0.4001(2)
C1 C 0.4249(4) 0.3550(4) 0.3585(2)
N2 N 0.5858(4) 0.3819(3) 0.3043(2)
C2 C 0.6450(4) 0.5515(4) 0.2851(2)
C3 C 0.5399(4) 0.7013(4) 0.3247(2)
C4 C 0.3716(4) 0.6502(4) 0.3820(2)
N3 N 0.3639(4) 0.1857(3) 0.3773(2)
H1 H 0.23050 0.16140 0.40950
H2 H 0.43540 0.07990 0.35480
N4 N 0.8010(4) 0.5909(3) 0.2287(2)
H3 H 0.83560 0.70860 0.22380
C5 C 0.9353(4) 0.4794(4) 0.1827(2)
C6 C 1.0956(4) 0.5695(4) 0.1397(3)
H4 H 1.11130 0.69940 0.14190
C7 C 1.2346(5) 0.4720(4) 0.0931(3)
H5 H 1.34420 0.53670 0.06390
C8 C 1.2164(5) 0.2807(4) 0.0882(3)
C9 C 1.0528(5) 0.1948(4) 0.1314(3)
H6 H 1.03660 0.06460 0.12890
C10 C 0.9119(5) 0.2873(4) 0.1781(3)
H7 H 0.80140 0.22220 0.20630
C11 C 1.3662(5) 0.1737(5) 0.0387(3)
H8 H 1.35300 0.05730 0.06480
H9 H 1.49820 0.25060 0.06320
H10 H 1.34500 0.14340 -0.04420
N5 N 0.5875(4) 0.8800(3) 0.3143(2)
O1 O 0.7389(3) 0.9282(3) 0.2644(2)
O2 O 0.2721(3) 0.7846(3) 0.41860(18)
C12 C 0.1092(5) 0.7378(4) 0.4839(3)
H11 H 0.01770 0.62500 0.44020
H12 H 0.04120 0.84250 0.50070
H13 H 0.15850 0.71410 0.55490
#END
