
#######################################################################
#
#                 Cambridge Crystallographic Data Centre
#                                CCDC
#
#######################################################################
#
# If this CIF has been generated from an entry in the Cambridge
# Structural Database, then it will include bibliographic, chemical,
# crystal, experimental, refinement or atomic coordinate data resulting
# from the CCDC's data processing and validation procedures.
#
#######################################################################

data_CSD_CIF_HAXWEI
_audit_creation_date 1994-07-27
_audit_creation_method CSD-ConQuest-V1
_database_code_CSD HAXWEI
_chemical_formula_sum 'C10 H14 N2 O6'
_chemical_formula_moiety
;
C10 H14 N2 O6
;
_journal_coden_Cambridge 154
_journal_volume 46
_journal_year 1993
_journal_page_first 1629
_journal_name_full 'Aust.J.Chem. '
loop_
_publ_author_name
"J.L.Calvert"
"M.P.Hartshorn"
"W.T.Robinson"
"G.J.Wright"
_chemical_name_systematic
;
r-2-Hydroxy-2,4,5,6-tetramethyl-t-5,t-6-dinitrocyclohex-3-enone
;
_chemical_melting_point 419.15
_cell_volume   1202.196
_exptl_crystal_colour 'colorless'
_exptl_crystal_density_diffrn 1.427
_exptl_special_details
;
Melting point range 419.15-421.15K

;
_diffrn_ambient_temperature 183
#These two values have been output from a single CSD field.
_refine_ls_R_factor_gt 0.0511
_refine_ls_wR_factor_gt 0.0511
_symmetry_cell_setting monoclinic
_symmetry_space_group_name_H-M 'P 21/n'
_symmetry_Int_Tables_number 14
loop_
_symmetry_equiv_pos_site_id
_symmetry_equiv_pos_as_xyz
1 x,y,z
2 1/2-x,1/2+y,1/2-z
3 -x,-y,-z
4 -1/2+x,-1/2-y,-1/2+z
_cell_length_a 6.245(1)
_cell_length_b 26.546(5)
_cell_length_c 7.489(1)
_cell_angle_alpha 90
_cell_angle_beta 104.46(3)
_cell_angle_gamma 90
_cell_formula_units_Z 4
loop_
_atom_type_symbol
_atom_type_radius_bond
C 0.68
H 0.23
N 0.68
O 0.68
loop_
_atom_site_label
_atom_site_type_symbol
_atom_site_fract_x
_atom_site_fract_y
_atom_site_fract_z
O1 O 1.0127(3) 0.0667(1) 1.0557(2)
O2 O 0.6417(3) 0.0098(1) 0.8117(3)
N1 N 0.8586(3) 0.1808(1) 0.7713(3)
O3 O 0.8707(3) 0.2247(1) 0.7275(3)
O4 O 1.0018(3) 0.1490(1) 0.7724(3)
N2 N 0.8487(3) 0.1524(1) 1.1534(3)
O5 O 0.8210(3) 0.1412(1) 1.3039(3)
O6 O 0.9844(3) 0.1831(1) 1.1286(3)
C1 C 0.8506(4) 0.0812(1) 0.9427(3)
C2 C 0.7528(4) 0.0531(1) 0.7615(3)
C3 C 0.5812(4) 0.0837(1) 0.6288(3)
C4 C 0.5296(4) 0.1318(1) 0.6458(3)
C5 C 0.6439(4) 0.1616(1) 0.8184(3)
C6 C 0.7095(4) 0.1250(1) 0.9835(3)
C7 C 0.9324(5) 0.0366(1) 0.6687(4)
C8 C 0.3701(4) 0.1601(1) 0.4944(4)
C9 C 0.5133(4) 0.2070(1) 0.8596(4)
C10 C 0.5054(4) 0.1027(1) 1.0350(3)
H1 H 0.7357(4) -0.0120(5) 0.8611(39)
H2 H 0.5008(4) 0.0668(1) 0.5210(3)
H3 H 0.9984(20) 0.0663(1) 0.6261(22)
H4 H 0.8675(7) 0.0149(5) 0.5632(15)
H5 H 1.0470(15) 0.0179(6) 0.7572(8)
H6 H 0.445(1) 0.1892(4) 0.4574(18)
H7 H 0.2438(16) 0.1715(6) 0.5392(9)
H8 H 0.3180(24) 0.1378(2) 0.3881(10)
H9 H 0.5953(14) 0.2232(4) 0.9739(13)
H10 H 0.3689(12) 0.1957(1) 0.8737(23)
H11 H 0.4920(24) 0.2311(3) 0.7576(11)
H12 H 0.4093(13) 0.0866(5) 0.9264(6)
H13 H 0.4240(15) 0.1297(1) 1.0784(21)
H14 H 0.5529(4) 0.0776(4) 1.1329(15)
#END
