
#######################################################################
#
#                 Cambridge Crystallographic Data Centre
#                                CCDC
#
#######################################################################
#
# If this CIF has been generated from an entry in the Cambridge
# Structural Database, then it will include bibliographic, chemical,
# crystal, experimental, refinement or atomic coordinate data resulting
# from the CCDC's data processing and validation procedures.
#
#######################################################################

data_CSD_CIF_HAXWIO
_audit_creation_date 2012-07-11
_audit_creation_method CSD-ConQuest-V1
_database_code_CSD HAXWIO
_database_code_depnum_ccdc_archive 'CCDC 879465'
_chemical_formula_sum 'C19 H28 N6 O3'
_chemical_formula_moiety
;
C19 H28 N6 O3
;
_journal_coeditor_code "IUCr SF3170"
_journal_coden_Cambridge 591
_journal_volume 68
_journal_year 2012
_journal_page_first o199
_journal_name_full 'Acta Crystallogr.,Sect.C:Cryst.Struct.Commun. '
loop_
_publ_author_name
"A.F.Yepes"
"A.Palma"
"A.Marchal"
"J.Cobo"
"C.Glidewell"
_chemical_name_systematic
;
ethyl 
N-[4-(adamantan-1-ylamino)-2-amino-5-nitrosopyrimidin-6-yl]-3-aminopropionate
;
_chemical_name_common
;
Ethyl 
N-(6-(adamantan-1-ylamino)-2-amino-5-nitrosopyrimidin-4-yl)-beta-alaninate
;
_cell_volume   1957.749
_exptl_crystal_colour 'red'
_exptl_crystal_density_diffrn 1.318
_exptl_crystal_description 'needle'
_diffrn_ambient_temperature 120
_refine_special_details
;
C63A,C65A,C66A,O63A,O64A and C63B,C65B,C66B,O63B,O64B disordered over two 
sites with occupancies 0.910:0.090.
;
#These two values have been output from a single CSD field.
_refine_ls_R_factor_gt 0.0588
_refine_ls_wR_factor_gt 0.0588
_symmetry_cell_setting monoclinic
_symmetry_space_group_name_H-M 'P 21/c'
_symmetry_Int_Tables_number 14
loop_
_symmetry_equiv_pos_site_id
_symmetry_equiv_pos_as_xyz
1 x,y,z
2 -x,1/2+y,1/2-z
3 -x,-y,-z
4 x,-1/2-y,-1/2+z
_cell_length_a 11.6250(12)
_cell_length_b 13.2225(11)
_cell_length_c 13.0172(13)
_cell_angle_alpha 90
_cell_angle_beta 101.920(8)
_cell_angle_gamma 90
_cell_formula_units_Z 4
loop_
_atom_type_symbol
_atom_type_radius_bond
C 0.68
H 0.23
N 0.68
O 0.68
loop_
_atom_site_label
_atom_site_type_symbol
_atom_site_fract_x
_atom_site_fract_y
_atom_site_fract_z
N1 N 0.42886(19) 0.38739(16) 0.56513(16)
C1 C 0.3645(2) 0.37416(19) 0.4653(2)
N2 N 0.28924(19) 0.29905(16) 0.42787(16)
C2 C 0.2765(2) 0.22584(19) 0.4953(2)
C3 C 0.3428(2) 0.22683(19) 0.60333(19)
C4 C 0.4160(2) 0.3154(2) 0.6333(2)
N3 N 0.3766(2) 0.44612(17) 0.39673(16)
H1 H 0.34650 0.43690 0.32370
H2 H 0.43750 0.49560 0.41690
N4 N 0.20201(19) 0.14980(16) 0.46531(16)
H3 H 0.19950 0.10370 0.51980
C5 C 0.1213(2) 0.13613(19) 0.3620(2)
C6 C 0.1900(2) 0.1219(2) 0.2743(2)
H4 H 0.23750 0.18300 0.26870
H5 H 0.24410 0.06360 0.29080
C7 C 0.1035(3) 0.1033(2) 0.1699(2)
H6 H 0.14830 0.09480 0.11260
C8 C 0.0207(3) 0.1940(2) 0.1451(2)
H7 H -0.03380 0.18340 0.07670
H8 H 0.06680 0.25600 0.14000
C9 C -0.0498(2) 0.2067(2) 0.2317(2)
H9 H -0.10460 0.26540 0.21460
C10 C 0.0366(2) 0.2264(2) 0.3369(2)
H10 H 0.08170 0.28910 0.33200
H11 H -0.00750 0.23510 0.39380
C11 C 0.0323(3) 0.0073(2) 0.1783(2)
H12 H 0.08590 -0.05150 0.19410
H13 H -0.02280 -0.00560 0.11080
C12 C -0.0364(2) 0.0208(2) 0.2659(2)
H14 H -0.08260 -0.04200 0.27200
C13 C 0.0496(2) 0.0402(2) 0.3702(2)
H15 H 0.10330 -0.01830 0.38750
H16 H 0.00560 0.04820 0.42710
C14 C -0.1203(2) 0.1108(2) 0.2411(2)
H17 H -0.17720 0.09850 0.17440
H18 H -0.16490 0.11910 0.29770
N5 N 0.34081(19) 0.16029(17) 0.67986(17)
O1 O 0.27326(16) 0.08222(14) 0.66080(14)
N6 N 0.46982(18) 0.32477(17) 0.73369(16)
H19 H 0.46680 0.27070 0.77680
C15 C 0.5316(2) 0.4152(2) 0.7773(2)
H20 H 0.49590 0.47470 0.73680
H21 H 0.61460 0.41070 0.77020
C16 C 0.5273(3) 0.4297(2) 0.8931(2)
H22 H 0.54870 0.50060 0.91280
H23 H 0.44540 0.41920 0.90140
C17 C 0.6057(3) 0.3615(3) 0.9678(2)
O2 O 0.6518(3) 0.3854(2) 1.0577(2)
O3 O 0.6201(3) 0.27186(18) 0.9274(2)
C18 C 0.6987(3) 0.2013(3) 0.9922(3)
H24 H 0.65990 0.17020 1.04530
H25 H 0.77090 0.23630 1.02890
C19 C 0.7277(4) 0.1231(3) 0.9194(3)
H26 H 0.65550 0.08870 0.88450
H27 H 0.78210 0.07370 0.95930
H28 H 0.76460 0.15540 0.86660
C20? C 0.6057(3) 0.3615(3) 0.9678(2)
C21? C 0.656(3) 0.1887(12) 0.954(2)
C22? C 0.676(4) 0.153(3) 0.851(3)
H29? H 0.62620 0.13270 0.99170
H30? H 0.73050 0.21380 0.99830
H31? H 0.60070 0.14620 0.80170
H32? H 0.71670 0.08790 0.85960
H33? H 0.72500 0.20280 0.82320
O4? O 0.7111(8) 0.3741(18) 1.006(3)
O5? O 0.5703(17) 0.2695(9) 0.932(2)
#END
