
#######################################################################
#
#                 Cambridge Crystallographic Data Centre
#                                CCDC
#
#######################################################################
#
# If this CIF has been generated from an entry in the Cambridge
# Structural Database, then it will include bibliographic, chemical,
# crystal, experimental, refinement or atomic coordinate data resulting
# from the CCDC's data processing and validation procedures.
#
#######################################################################

data_CSD_CIF_HAYYEM
_audit_creation_date 2006-01-24
_audit_creation_method CSD-ConQuest-V1
_database_code_CSD HAYYEM
_database_code_depnum_ccdc_archive 'CCDC 293809'
_chemical_formula_sum 'C16 H12 N4 O8'
_chemical_formula_moiety
;
C16 H12 N4 O8
;
_journal_coeditor_code "IUCr AC6219"
_journal_coden_Cambridge 1370
_journal_volume 61
_journal_year 2005
_journal_page_first o4133
_journal_name_full 'Acta Crystallogr.,Sect.E:Struct.Rep.Online '
loop_
_publ_author_name
"M.Arslan"
"R.J.Baker"
"J.Masnovi"
"E.Asker"
_chemical_name_systematic
;
(E)-9,10-Dihydro-9-methyl-9-nitro-10-(trinitromethyl)anthracene
;
_chemical_melting_point 421
_cell_volume   1661.425
_exptl_crystal_colour 'colorless'
_exptl_crystal_density_diffrn 1.552
_exptl_special_details
;
Melting point range 421-422K

;
_exptl_crystal_description 'plate'
_exptl_crystal_preparation 'dichloromethane'
_diffrn_ambient_temperature 295
#These two values have been output from a single CSD field.
_refine_ls_R_factor_gt 0.0397
_refine_ls_wR_factor_gt 0.0397
_symmetry_cell_setting monoclinic
_symmetry_space_group_name_H-M 'P 21/n'
_symmetry_Int_Tables_number 14
loop_
_symmetry_equiv_pos_site_id
_symmetry_equiv_pos_as_xyz
1 x,y,z
2 1/2-x,1/2+y,1/2-z
3 -x,-y,-z
4 -1/2+x,-1/2-y,-1/2+z
_cell_length_a 7.9797(6)
_cell_length_b 13.5449(10)
_cell_length_c 15.3793(9)
_cell_angle_alpha 90
_cell_angle_beta 91.816(6)
_cell_angle_gamma 90
_cell_formula_units_Z 4
loop_
_atom_type_symbol
_atom_type_radius_bond
C 0.68
H 0.23
N 0.68
O 0.68
loop_
_atom_site_label
_atom_site_type_symbol
_atom_site_fract_x
_atom_site_fract_y
_atom_site_fract_z
O1 O 0.2306(3) 0.20042(13) 0.25567(13)
N1 N 0.1289(3) 0.40009(16) 0.27366(13)
C1 C 0.3382(3) 0.41477(16) 0.41967(14)
O2 O 0.0381(2) 0.34284(16) 0.30814(14)
N2 N 0.3083(3) 0.26245(16) 0.21832(13)
C2 C 0.5177(3) 0.27928(16) 0.36004(14)
C3 C 0.2930(3) 0.35342(17) 0.48729(14)
N3 N 0.3942(3) 0.21578(16) 0.57756(13)
O3 O 0.5190(3) 0.25872(17) 0.60388(13)
N4 N 0.3625(3) 0.43354(18) 0.18191(14)
C4 C 0.4681(3) 0.21582(16) 0.42544(14)
C5 C 0.4253(3) 0.37449(16) 0.34125(13)
H1 H 0.51160 0.42310 0.32760
O4 O 0.3976(3) 0.25003(18) 0.15779(14)
C6 C 0.3076(3) 0.36670(16) 0.25680(14)
O5 O 0.2733(3) 0.43189(19) 0.11673(13)
C7 C 0.3122(3) 0.51624(17) 0.42564(17)
H2 H 0.34450 0.55720 0.38070
O6 O 0.0981(3) 0.48531(16) 0.25704(16)
C8 C 0.3259(3) 0.24303(17) 0.48427(14)
C9 C 0.2163(3) 0.3949(2) 0.55873(16)
H3 H 0.18170 0.35440 0.60350
C10 C 0.2391(3) 0.5564(2) 0.49727(18)
H4 H 0.22220 0.62420 0.50080
O7 O 0.4875(3) 0.4822(2) 0.19315(15)
C11 C 0.6557(3) 0.25506(19) 0.31115(16)
H5 H 0.69100 0.29840 0.26860
O8 O 0.3221(3) 0.15310(17) 0.61850(14)
C12 C 0.7405(3) 0.1679(2) 0.32506(19)
H6 H 0.83320 0.15280 0.29240
C13 C 0.5538(4) 0.12737(19) 0.43706(18)
H7 H 0.51970 0.08350 0.47950
C14 C 0.1666(3) 0.1836(2) 0.46620(17)
H8 H 0.08220 0.20370 0.50560
H9 H 0.19010 0.11460 0.47420
H10 H 0.12720 0.19490 0.40740
C15 C 0.1912(3) 0.4955(2) 0.56380(19)
H11 H 0.14170 0.52230 0.61240
C16 C 0.6880(4) 0.1031(2) 0.3872(2)
H12 H 0.74290 0.04310 0.39570
#END
