
#######################################################################
#
#                 Cambridge Crystallographic Data Centre
#                                CCDC
#
#######################################################################
#
# If this CIF has been generated from an entry in the Cambridge
# Structural Database, then it will include bibliographic, chemical,
# crystal, experimental, refinement or atomic coordinate data resulting
# from the CCDC's data processing and validation procedures.
#
#######################################################################

data_CSD_CIF_HAYZIR
_audit_creation_date 2006-01-24
_audit_creation_method CSD-ConQuest-V1
_database_code_CSD HAYZIR
_database_code_depnum_ccdc_archive 'CCDC 293815'
_chemical_formula_sum 'C11 H12 N2 O6'
_chemical_formula_moiety
;
C11 H12 N2 O6
;
_journal_coeditor_code "IUCr AT6051"
_journal_coden_Cambridge 1370
_journal_volume 61
_journal_year 2005
_journal_page_first o4173
_journal_name_full 'Acta Crystallogr.,Sect.E:Struct.Rep.Online '
loop_
_publ_author_name
"Fen-Fang Li"
"Xiao Feng-Ping"
"Long-Fei Jin"
"Yong-Fei Wu"
_chemical_name_systematic
;
n-Butyl 3,5-dinitrobenzoate
;
_cell_volume   1257.934
_exptl_crystal_colour 'colorless'
_exptl_crystal_density_diffrn 1.416
_exptl_crystal_description 'prism'
_exptl_crystal_preparation 'methanol'
_diffrn_ambient_temperature 273
#These two values have been output from a single CSD field.
_refine_ls_R_factor_gt 0.0572
_refine_ls_wR_factor_gt 0.0572
_symmetry_cell_setting monoclinic
_symmetry_space_group_name_H-M 'P 21/n'
_symmetry_Int_Tables_number 14
loop_
_symmetry_equiv_pos_site_id
_symmetry_equiv_pos_as_xyz
1 x,y,z
2 1/2-x,1/2+y,1/2-z
3 -x,-y,-z
4 -1/2+x,-1/2-y,-1/2+z
_cell_length_a 9.681(3)
_cell_length_b 5.8632(17)
_cell_length_c 22.164(6)
_cell_angle_alpha 90
_cell_angle_beta 90.826(5)
_cell_angle_gamma 90
_cell_formula_units_Z 4
loop_
_atom_type_symbol
_atom_type_radius_bond
C 0.68
H 0.23
N 0.68
O 0.68
loop_
_atom_site_label
_atom_site_type_symbol
_atom_site_fract_x
_atom_site_fract_y
_atom_site_fract_z
C1 C 0.9133(2) 0.1937(4) 0.19038(10)
C2 C 0.8979(2) 0.2848(4) 0.24711(10)
H1 H 0.84910 0.41980 0.25240
C3 C 0.9556(2) 0.1741(4) 0.29581(10)
C4 C 1.0283(2) -0.0263(4) 0.29065(10)
H2 H 1.06610 -0.10000 0.32420
C5 C 1.0420(2) -0.1124(4) 0.23300(9)
C6 C 0.9860(2) -0.0086(4) 0.18284(9)
H3 H 0.99640 -0.07200 0.14470
C7 C 0.8558(2) 0.3252(4) 0.13801(11)
C8 C 0.8120(4) 0.3353(5) 0.03343(12)
H4 H 0.86560 0.47130 0.02530
H5 H 0.71720 0.38040 0.04050
C9 C 0.8178(3) 0.1760(5) -0.01898(12)
H6 H 0.78950 0.25800 -0.05510
H7 H 0.91280 0.12820 -0.02420
C10 C 0.7301(4) -0.0301(6) -0.01326(14)
H8 H 0.63600 0.01720 -0.00550
H9 H 0.76230 -0.11810 0.02120
C11 C 0.7301(5) -0.1798(7) -0.06804(15)
H10 H 0.70330 -0.09200 -0.10280
H11 H 0.66590 -0.30280 -0.06270
H12 H 0.82110 -0.24060 -0.07370
N1 N 0.9449(2) 0.2803(4) 0.35601(9)
N2 N 1.12453(18) -0.3190(3) 0.22574(9)
O1 O 0.86850(18) 0.2172(3) 0.08623(7)
O2 O 0.8055(2) 0.5118(3) 0.14374(9)
O3 O 0.8899(2) 0.4663(4) 0.35905(9)
O4 O 0.9924(2) 0.1761(4) 0.39896(9)
O5 O 1.16376(18) -0.4206(3) 0.27100(8)
O6 O 1.1498(2) -0.3824(3) 0.17484(8)
#END
