
#######################################################################
#
#                 Cambridge Crystallographic Data Centre
#                                CCDC
#
#######################################################################
#
# If this CIF has been generated from an entry in the Cambridge
# Structural Database, then it will include bibliographic, chemical,
# crystal, experimental, refinement or atomic coordinate data resulting
# from the CCDC's data processing and validation procedures.
#
#######################################################################

data_CSD_CIF_HAZFIA
_audit_creation_date 2017-09-19
_audit_creation_method CSD-ConQuest-V1
_database_code_CSD HAZFIA
_database_code_depnum_ccdc_archive 'CCDC 1551603'
_chemical_formula_sum 'C21 H18 N6 O3'
_chemical_formula_moiety
;
C21 H18 N6 O3
;
_journal_coden_Cambridge 1290
_journal_year 2017
_journal_page_first 3908
_journal_name_full 'Eur.J.Inorg.Chem. '
loop_
_publ_author_name
"Jin-Hui Wang"
"R.Eychenne"
"M.Wolff"
"S.Mallet-Ladeira"
"N.Lepareur"
"E.Benoist"
_chemical_name_systematic
;
N-((1-(4-nitrophenyl)-1H-1,2,3-triazol-4-yl)methyl)-2-((pyridin-2-yl)methoxy)a
niline
;
_cell_volume   1903.540
_exptl_crystal_colour 'yellow'
_exptl_crystal_density_diffrn 1.404
_exptl_crystal_description 'plate'
_diffrn_ambient_temperature 193
#These two values have been output from a single CSD field.
_refine_ls_R_factor_gt 0.0498
_refine_ls_wR_factor_gt 0.0498
_symmetry_cell_setting monoclinic
_symmetry_space_group_name_H-M 'P 21/c'
_symmetry_Int_Tables_number 14
loop_
_symmetry_equiv_pos_site_id
_symmetry_equiv_pos_as_xyz
1 x,y,z
2 -x,1/2+y,1/2-z
3 -x,-y,-z
4 x,-1/2-y,-1/2+z
_cell_length_a 10.5160(4)
_cell_length_b 24.6454(10)
_cell_length_c 7.7012(3)
_cell_angle_alpha 90
_cell_angle_beta 107.501(2)
_cell_angle_gamma 90
_cell_formula_units_Z 4
loop_
_atom_type_symbol
_atom_type_radius_bond
C 0.68
H 0.23
N 0.68
O 0.68
loop_
_atom_site_label
_atom_site_type_symbol
_atom_site_fract_x
_atom_site_fract_y
_atom_site_fract_z
C1 C 0.31597(16) 0.59272(6) 0.2823(2)
H1 H 0.39750 0.60270 0.26170
C2 C 0.25369(16) 0.63045(6) 0.3598(2)
H2 H 0.28970 0.66580 0.38880
C3 C 0.13808(18) 0.61556(7) 0.3940(3)
H3 H 0.09310 0.64040 0.44960
C4 C 0.08750(17) 0.56391(7) 0.3467(3)
H4 H 0.00770 0.55270 0.37000
C5 C 0.15494(14) 0.52910(5) 0.2653(2)
C6 C 0.09944(16) 0.47438(6) 0.1958(2)
H5 H 0.00080 0.47540 0.16020
H6 H 0.12620 0.46480 0.08690
C7 C 0.09158(13) 0.38366(5) 0.2968(2)
C8 C 0.00263(16) 0.36829(6) 0.1325(2)
H7 H -0.01990 0.39300 0.03310
C9 C -0.05446(16) 0.31643(6) 0.1120(2)
H8 H -0.11680 0.30600 -0.00030
C10 C -0.01952(15) 0.28064(6) 0.2561(2)
H9 H -0.05910 0.24560 0.24330
C11 C 0.07298(14) 0.29528(5) 0.4199(2)
H10 H 0.09770 0.26980 0.51670
C12 C 0.13036(13) 0.34705(5) 0.44446(19)
C13 C 0.26719(16) 0.33021(6) 0.7631(2)
H11 H 0.19010 0.31280 0.78940
H12 H 0.31270 0.35320 0.86880
C14 C 0.36195(15) 0.28670(5) 0.74313(19)
C15 C 0.35264(14) 0.23154(5) 0.7485(2)
H13 H 0.28120 0.21080 0.76570
C16 C 0.51158(14) 0.15835(5) 0.71905(19)
C17 C 0.44501(15) 0.11600(6) 0.7710(3)
H14 H 0.36830 0.12290 0.80830
C18 C 0.49062(16) 0.06332(6) 0.7684(3)
H15 H 0.44490 0.03370 0.80130
C19 C 0.60366(16) 0.05492(6) 0.7172(2)
C20 C 0.67057(18) 0.09670(7) 0.6643(2)
H16 H 0.74810 0.08960 0.62910
C21 C 0.62337(17) 0.14907(7) 0.6632(2)
H17 H 0.66700 0.17840 0.62460
N1 N 0.26893(14) 0.54277(5) 0.2339(2)
N2 N 0.21854(14) 0.36442(5) 0.60468(18)
N3 N 0.48064(14) 0.29919(5) 0.7154(2)
N4 N 0.54447(14) 0.25474(5) 0.7037(2)
N5 N 0.46706(11) 0.21265(4) 0.72388(16)
N6 N 0.65776(15) -0.00020(6) 0.7234(2)
O1 O 0.14864(10) 0.43440(4) 0.33476(14)
O2 O 0.76577(17) -0.00646(6) 0.6984(2)
O3 O 0.59526(15) -0.03741(6) 0.7596(3)
H18 H 0.2526(19) 0.3965(8) 0.609(3)
#END
