
#######################################################################
#
#                 Cambridge Crystallographic Data Centre
#                                CCDC
#
#######################################################################
#
# If this CIF has been generated from an entry in the Cambridge
# Structural Database, then it will include bibliographic, chemical,
# crystal, experimental, refinement or atomic coordinate data resulting
# from the CCDC's data processing and validation procedures.
#
#######################################################################

data_CSD_CIF_HDNBPP
_audit_creation_date 1979-08-06
_audit_creation_method CSD-ConQuest-V1
_database_code_CSD HDNBPP
_chemical_formula_sum 'C12 H12 N2 O6'
_chemical_formula_moiety
;
C12 H12 N2 O6
;
_journal_coeditor_code "IUCr A17379"
_journal_coden_Cambridge 107
_journal_volume 35
_journal_year 1979
_journal_page_first 755
_journal_name_full 'Acta Crystallogr.,Sect.B:Struct.Crystallogr.Cryst.Chem. '
loop_
_publ_author_name
"P.G.Jones"
"O.Kennard"
"A.J.Kirby"
"R.J.Martin"
_chemical_name_systematic
;
3,4,4a\a,10a\a-Tetrahydro-7,9-dinitro-2H,5H-(1)benzopyrano(2,3-b) pyran
;
_cell_volume   1240.933
_exptl_crystal_colour 'colorless'
_exptl_crystal_density_diffrn 1.5
_diffrn_ambient_temperature ?
_diffrn_special_details
;
The study was carried out at room temperature,in the range 283-303K

;
#These two values have been output from a single CSD field.
_refine_ls_R_factor_gt 0.045
_refine_ls_wR_factor_gt 0.045
_symmetry_cell_setting monoclinic
_symmetry_space_group_name_H-M 'P 21/c'
_symmetry_Int_Tables_number 14
loop_
_symmetry_equiv_pos_site_id
_symmetry_equiv_pos_as_xyz
1 x,y,z
2 -x,1/2+y,1/2-z
3 -x,-y,-z
4 x,-1/2-y,-1/2+z
_cell_length_a 12.777(4)
_cell_length_b 7.954(3)
_cell_length_c 12.448(5)
_cell_angle_alpha 90
_cell_angle_beta 101.21(4)
_cell_angle_gamma 90
_cell_formula_units_Z 4
loop_
_atom_type_symbol
_atom_type_radius_bond
C 0.68
H 0.23
N 0.68
O 0.68
loop_
_atom_site_label
_atom_site_type_symbol
_atom_site_fract_x
_atom_site_fract_y
_atom_site_fract_z
O1 O 0.59920 0.33090 0.27150
C1 C 0.50460 0.24470 0.28650
C2 C 0.48120 0.27370 0.39930
C3 C 0.57790 0.22320 0.48570
C4 C 0.67610 0.31640 0.46620
C5 C 0.77890 0.26510 0.54350
C6 C 0.81750 0.09640 0.51230
C7 C 0.88580 -0.00170 0.58740
C8 C 0.92020 -0.15560 0.55650
C9 C 0.88740 -0.22080 0.45290
C10 C 0.81990 -0.12240 0.37910
C11 C 0.78410 0.03590 0.40570
O2 O 0.71580 0.11990 0.32750
C12 C 0.68920 0.29460 0.34860
N1 N 0.99430 -0.25350 0.63700
O3 O 1.01690 -0.20040 0.73090
O4 O 1.03020 -0.38370 0.60770
N2 N 0.78560 -0.19140 0.26790
O5 O 0.76140 -0.34050 0.26100
O6 O 0.78460 -0.09990 0.18980
H1 H 0.43790 0.28960 0.22630
H2 H 0.51500 0.11160 0.27510
H3 H 0.46380 0.40510 0.40880
H4 H 0.41320 0.19880 0.40930
H5 H 0.59090 0.08950 0.48090
H6 H 0.56340 0.25440 0.56600
H7 H 0.66260 0.44700 0.48300
H8 H 0.76430 0.25840 0.62600
H9 H 0.83950 0.35830 0.53970
H10 H 0.91210 0.04260 0.67030
H11 H 0.91330 -0.34300 0.43080
H12 H 0.75170 0.38230 0.34050
#END
