
#######################################################################
#
#                 Cambridge Crystallographic Data Centre
#                                CCDC
#
#######################################################################
#
# If this CIF has been generated from an entry in the Cambridge
# Structural Database, then it will include bibliographic, chemical,
# crystal, experimental, refinement or atomic coordinate data resulting
# from the CCDC's data processing and validation procedures.
#
#######################################################################

data_CSD_CIF_HEBCHN
_audit_creation_date 1980-05-21
_audit_creation_method CSD-ConQuest-V1
_database_code_CSD HEBCHN
_chemical_formula_sum 'C15 H16 N2 O6'
_chemical_formula_moiety
;
C15 H16 N2 O6
;
_journal_coden_Cambridge 35
_journal_volume 44
_journal_year 1979
_journal_page_first 3416
_journal_name_full 'J.Org.Chem. '
loop_
_publ_author_name
"N.G.Steinberg"
"G.H.Rasmusson"
"G.F.Reynolds"
"J.P.Springer"
"B.H.Arison"
_chemical_name_systematic
;
1-(1-Hydroxyethyl)-bicyclo(3.1.0)hexane 3,5-dinitrobenzoate
;
_cell_volume   1541.895
_diffrn_ambient_temperature ?
_diffrn_special_details
;
The study was carried out at room temperature,in the range 283-303K

;
#These two values have been output from a single CSD field.
_refine_ls_R_factor_gt 0.114
_refine_ls_wR_factor_gt 0.114
_symmetry_cell_setting monoclinic
_symmetry_space_group_name_H-M 'P 21/c'
_symmetry_Int_Tables_number 14
loop_
_symmetry_equiv_pos_site_id
_symmetry_equiv_pos_as_xyz
1 x,y,z
2 -x,1/2+y,1/2-z
3 -x,-y,-z
4 x,-1/2-y,-1/2+z
_cell_length_a 9.453(5)
_cell_length_b 6.044(3)
_cell_length_c 27.080(9)
_cell_angle_alpha 90
_cell_angle_beta 94.74(4)
_cell_angle_gamma 90
_cell_formula_units_Z 4
loop_
_atom_type_symbol
_atom_type_radius_bond
C 0.68
H 0.23
N 0.68
O 0.68
loop_
_atom_site_label
_atom_site_type_symbol
_atom_site_fract_x
_atom_site_fract_y
_atom_site_fract_z
C1 C 0.24090 0.37180 0.93780
C2 C 0.28360 0.51360 0.97950
C3 C 0.28620 0.35880 1.02320
C4 C 0.15910 0.21020 1.01080
C5 C 0.15090 0.18370 0.95450
C6 C 0.30830 0.12850 0.94310
C7 C 0.20480 0.44700 0.88610
C8 C 0.09200 0.61440 0.88120
O1 O 0.32720 0.56610 0.87100
C9 C 0.39530 0.46150 0.83840
O2 O 0.37410 0.28590 0.81890
C10 C 0.53570 0.58730 0.82530
C11 C 0.61000 0.50820 0.79060
C12 C 0.73520 0.62000 0.78040
N1 N 0.81930 0.50890 0.74240
O3 O 0.77760 0.34280 0.72390
O4 O 0.91900 0.61180 0.73330
C13 C 0.77660 0.81710 0.80240
C14 C 0.69720 0.89060 0.83790
N2 N 0.73670 1.09190 0.86480
O5 O 0.66520 1.16360 0.89590
O6 O 0.84840 1.18470 0.85380
C15 C 0.57030 0.79260 0.84970
H1 H 0.21000 0.65700 0.98300
H2 H 0.39000 0.58300 0.97600
H3 H 0.27600 0.46100 1.05900
H4 H 0.38900 0.27600 1.03000
H5 H 0.06200 0.27100 1.02500
H6 H 0.18100 0.04400 1.03100
H7 H 0.04100 0.10900 0.94500
H8 H 0.39300 0.08000 0.97200
H9 H 0.33300 0.03000 0.91000
H10 H 0.17000 0.29900 0.86300
H11 H -0.00900 0.57000 0.89700
H12 H 0.12600 0.77300 0.90300
H13 H 0.06400 0.67600 0.84300
H14 H 0.57000 0.36400 0.76700
H15 H 0.86800 0.91000 0.79100
H16 H 0.49900 0.87300 0.87600
#END
