
#######################################################################
#
#                 Cambridge Crystallographic Data Centre
#                                CCDC
#
#######################################################################
#
# If this CIF has been generated from an entry in the Cambridge
# Structural Database, then it will include bibliographic, chemical,
# crystal, experimental, refinement or atomic coordinate data resulting
# from the CCDC's data processing and validation procedures.
#
#######################################################################

data_CSD_CIF_HECBAU
_audit_creation_date 2013-02-01
_audit_creation_method CSD-ConQuest-V1
_database_code_CSD HECBAU
_database_code_depnum_ccdc_archive 'CCDC 857148'
_chemical_formula_sum 'C24 H21 N1 O3'
_chemical_formula_moiety
;
C24 H21 N1 O3
;
_journal_coden_Cambridge 1220
_journal_volume 18
_journal_year 2012
_journal_page_first 11662
_journal_name_full 'Chem.-Eur.J. '
loop_
_publ_author_name
"A.Livieri"
"M.Boiocchi"
"G.Desimoni"
"G.Faita"
_chemical_name_systematic
;
2-((S)-3-((R)-1-oxo-1,2,3,4-tetrahydronaphthalen-2-yl)-3-phenylpropanoyl)pyrid
ine 1-oxide
;
_cell_volume   1854.652
_exptl_crystal_colour 'pale yellow'
_exptl_crystal_density_diffrn 1.33
_exptl_crystal_description 'prism'
_diffrn_ambient_temperature 293
#These two values have been output from a single CSD field.
_refine_ls_R_factor_gt 0.0444
_refine_ls_wR_factor_gt 0.0444
_symmetry_cell_setting orthorhombic
_symmetry_space_group_name_H-M 'P 21 21 21'
_symmetry_Int_Tables_number 19
loop_
_symmetry_equiv_pos_site_id
_symmetry_equiv_pos_as_xyz
1 x,y,z
2 1/2-x,-y,1/2+z
3 1/2+x,1/2-y,-z
4 -x,1/2+y,1/2-z
_cell_length_a 6.0935(13)
_cell_length_b 15.840(2)
_cell_length_c 19.215(4)
_cell_angle_alpha 90
_cell_angle_beta 90
_cell_angle_gamma 90
_cell_formula_units_Z 4
loop_
_atom_type_symbol
_atom_type_radius_bond
C 0.68
H 0.23
N 0.68
O 0.68
loop_
_atom_site_label
_atom_site_type_symbol
_atom_site_fract_x
_atom_site_fract_y
_atom_site_fract_z
C1 C 0.0023(4) 0.42966(13) 0.3224(1)
C2 C 0.1966(4) 0.41585(14) 0.27502(10)
H1 H 0.21990 0.35570 0.26920
H2 H 0.32680 0.43930 0.29670
C3 C 0.1654(4) 0.45678(12) 0.20276(10)
H3 H 0.00970 0.45070 0.19100
C4 C 0.2948(3) 0.40692(13) 0.14731(10)
H4 H 0.25230 0.34780 0.15380
C5 C 0.2274(4) 0.42892(13) 0.07331(11)
C6 C 0.3672(4) 0.39502(13) 0.01626(11)
C7 C 0.2942(5) 0.40303(14) -0.05260(11)
H5 H 0.16040 0.42900 -0.06180
C8 C 0.4190(6) 0.37278(15) -0.10668(13)
H6 H 0.36860 0.37700 -0.15220
C9 C 0.6198(6) 0.33605(17) -0.09295(14)
H7 H 0.70610 0.31690 -0.12960
C10 C 0.6941(5) 0.32732(15) -0.02535(13)
H8 H 0.82970 0.30240 -0.01690
C11 C 0.5671(4) 0.35566(13) 0.03009(11)
C12 C 0.6424(4) 0.34279(15) 0.10404(12)
H9 H 0.80130 0.34630 0.10580
H10 H 0.60000 0.28680 0.11940
C13 C 0.5448(4) 0.40811(15) 0.15302(11)
H11 H 0.59960 0.46380 0.14110
H12 H 0.58830 0.39570 0.20050
C14 C 0.0053(4) 0.40283(13) 0.39768(10)
C15 C -0.1728(4) 0.42295(15) 0.43876(12)
H13 H -0.29170 0.45110 0.41930
C16 C -0.1768(5) 0.40184(17) 0.50820(13)
H14 H -0.29670 0.41610 0.53580
C17 C -0.0023(6) 0.35968(17) 0.53608(12)
H15 H -0.00280 0.34510 0.58300
C18 C 0.1709(5) 0.33918(17) 0.49571(12)
H16 H 0.28880 0.31050 0.51540
C19 C 0.2130(4) 0.55119(13) 0.20446(10)
C20 C 0.0545(4) 0.60769(14) 0.18142(11)
H17 H -0.07940 0.58700 0.16560
C21 C 0.0907(5) 0.69396(15) 0.18136(13)
H18 H -0.01800 0.73060 0.16580
C22 C 0.2896(5) 0.72551(15) 0.20452(13)
H19 H 0.31650 0.78330 0.20370
C23 C 0.4471(5) 0.67061(15) 0.22883(12)
H20 H 0.57980 0.69170 0.24530
C24 C 0.4100(4) 0.58408(14) 0.22907(11)
H21 H 0.51780 0.54780 0.24580
N1 N 0.1771(3) 0.35953(12) 0.42661(9)
O1 O -0.1631(3) 0.46349(12) 0.30190(8)
O2 O 0.0624(3) 0.46944(12) 0.06090(8)
O3 O 0.3440(3) 0.33463(14) 0.39046(9)
#END
