
#######################################################################
#
#                 Cambridge Crystallographic Data Centre
#                                CCDC
#
#######################################################################
#
# If this CIF has been generated from an entry in the Cambridge
# Structural Database, then it will include bibliographic, chemical,
# crystal, experimental, refinement or atomic coordinate data resulting
# from the CCDC's data processing and validation procedures.
#
#######################################################################

data_CSD_CIF_HECLAE
_audit_creation_date 2013-02-01
_audit_creation_method CSD-ConQuest-V1
_database_code_CSD HECLAE
_database_code_depnum_ccdc_archive 'CCDC 904485'
_chemical_formula_sum 'C8 H15 N3 O1'
_chemical_formula_moiety
;
C8 H15 N3 O1
;
_journal_coden_Cambridge 9
_journal_volume 51
_journal_year 2012
_journal_page_first 9385
_journal_name_full 'Inorg.Chem. '
loop_
_publ_author_name
"E.V.Tretyakov"
"S.E.Tolstikov"
"A.O.Suvorova"
"A.V.Polushkin"
"G.V.Romanenko"
"A.S.Bogomyakov"
"S.L.Veber"
"M.V.Fedin"
"D.V.Stass"
"E.Reijerse"
"W.Lubitz"
"E.M.Zueva"
"V.I.Ovcharenko"
_chemical_name_systematic
;
N-t-Butyl-N-hydroxy-1-methyl-1H-pyrazol-4-amine
;
_cell_volume    992.431
_exptl_crystal_colour 'colorless'
_exptl_crystal_density_diffrn 1.133
_exptl_crystal_description 'cube'
_diffrn_ambient_temperature 240
#These two values have been output from a single CSD field.
_refine_ls_R_factor_gt 0.0426
_refine_ls_wR_factor_gt 0.0426
_symmetry_cell_setting monoclinic
_symmetry_space_group_name_H-M 'P 21/n'
_symmetry_Int_Tables_number 14
loop_
_symmetry_equiv_pos_site_id
_symmetry_equiv_pos_as_xyz
1 x,y,z
2 1/2-x,1/2+y,1/2-z
3 -x,-y,-z
4 -1/2+x,-1/2-y,-1/2+z
_cell_length_a 6.7677(6)
_cell_length_b 12.4619(10)
_cell_length_c 11.9232(11)
_cell_angle_alpha 90
_cell_angle_beta 99.277(6)
_cell_angle_gamma 90
_cell_formula_units_Z 4
loop_
_atom_type_symbol
_atom_type_radius_bond
C 0.68
H 0.23
N 0.68
O 0.68
loop_
_atom_site_label
_atom_site_type_symbol
_atom_site_fract_x
_atom_site_fract_y
_atom_site_fract_z
O1 O 0.00694(16) 0.88572(8) 0.65289(8)
N1 N -0.01027(18) 0.95566(9) 0.74884(10)
C1 C -0.2283(2) 0.96328(12) 0.75756(14)
C2 C 0.0822(2) 1.05466(11) 0.72588(12)
N2 N 0.26663(19) 1.20597(10) 0.75718(11)
N3 N 0.20021(19) 1.19294(10) 0.64522(11)
C3 C 0.1948(2) 1.12055(12) 0.80543(16)
H1 H 0.224(2) 1.1142(11) 0.8871(14)
C4 C 0.2526(5) 1.26900(18) 0.5627(2)
H2 H 0.293(3) 1.3379(17) 0.5998(16)
H3 H 0.375(4) 1.2420(18) 0.536(2)
H4 H 0.150(4) 1.2868(19) 0.510(2)
C5 C 0.0887(2) 1.10363(12) 0.62363(16)
H5 H 0.036(2) 1.0841(10) 0.5468(13)
C6 C -0.3548(3) 1.0053(2) 0.64958(19)
H6 H -0.495(3) 1.0048(14) 0.6547(14)
H7 H -0.346(3) 0.9557(16) 0.5837(17)
H8 H -0.315(3) 1.0837(17) 0.6319(17)
C7 C -0.2967(4) 0.85146(18) 0.7854(3)
H9 H -0.288(3) 0.8065(16) 0.7254(16)
H10 H -0.449(3) 0.8547(14) 0.7940(15)
H11 H -0.220(3) 0.8245(14) 0.8583(17)
C8 C -0.2448(4) 1.03759(18) 0.85651(19)
H12 H -0.210(3) 1.1125(14) 0.8396(15)
H13 H -0.158(3) 1.0111(14) 0.9224(16)
H14 H -0.385(3) 1.0351(13) 0.8708(14)
H15 H 0.085(3) 0.8236(17) 0.6908(16)
#END
