
#######################################################################
#
#                 Cambridge Crystallographic Data Centre
#                                CCDC
#
#######################################################################
#
# If this CIF has been generated from an entry in the Cambridge
# Structural Database, then it will include bibliographic, chemical,
# crystal, experimental, refinement or atomic coordinate data resulting
# from the CCDC's data processing and validation procedures.
#
#######################################################################

data_CSD_CIF_HECTIU
_audit_creation_date 2013-02-01
_audit_creation_method CSD-ConQuest-V1
_database_code_CSD HECTIU
_database_code_depnum_ccdc_archive 'CCDC 904522'
_chemical_formula_sum 'C9 H15 N3 O2'
_chemical_formula_moiety
;
C9 H15 N3 O2
;
_journal_coden_Cambridge 9
_journal_volume 51
_journal_year 2012
_journal_page_first 9385
_journal_name_full 'Inorg.Chem. '
loop_
_publ_author_name
"E.V.Tretyakov"
"S.E.Tolstikov"
"A.O.Suvorova"
"A.V.Polushkin"
"G.V.Romanenko"
"A.S.Bogomyakov"
"S.L.Veber"
"M.V.Fedin"
"D.V.Stass"
"E.Reijerse"
"W.Lubitz"
"E.M.Zueva"
"V.I.Ovcharenko"
_chemical_name_systematic
;
N-t-butyl-1-ethyl-N-oxy-5-oxo-1,5-dihydro-4H-pyrazol-4-imine
;
_cell_volume   1069.520
_exptl_crystal_colour 'blue'
_exptl_crystal_density_diffrn 1.225
_exptl_crystal_description 'plate'
_diffrn_ambient_temperature 298
#These two values have been output from a single CSD field.
_refine_ls_R_factor_gt 0.073
_refine_ls_wR_factor_gt 0.073
_symmetry_cell_setting monoclinic
_symmetry_space_group_name_H-M 'P 21/c'
_symmetry_Int_Tables_number 14
loop_
_symmetry_equiv_pos_site_id
_symmetry_equiv_pos_as_xyz
1 x,y,z
2 -x,1/2+y,1/2-z
3 -x,-y,-z
4 x,-1/2-y,-1/2+z
_cell_length_a 6.662(3)
_cell_length_b 12.043(4)
_cell_length_c 13.370(5)
_cell_angle_alpha 90
_cell_angle_beta 94.400(7)
_cell_angle_gamma 90
_cell_formula_units_Z 4
loop_
_atom_type_symbol
_atom_type_radius_bond
C 0.68
H 0.23
N 0.68
O 0.68
loop_
_atom_site_label
_atom_site_type_symbol
_atom_site_fract_x
_atom_site_fract_y
_atom_site_fract_z
O1 O 0.4282(4) 0.0452(2) 0.2187(2)
C1 C 0.2639(5) -0.0401(2) 0.3381(3)
N1 N 0.1687(4) -0.1302(2) 0.4728(2)
N2 N 0.3734(4) -0.1435(2) 0.4680(2)
C2 C 0.1025(5) -0.0714(3) 0.3972(3)
H1 H -0.03170 -0.05180 0.38280
N3 N 0.2645(4) 0.0235(2) 0.2560(2)
C3 C 0.4915(5) -0.2001(3) 0.5483(3)
H2 H 0.47650 -0.16170 0.61110
H3 H 0.63260 -0.19770 0.53520
C4 C 0.4276(6) -0.3186(4) 0.5580(4)
H4 H 0.50380 -0.35240 0.61380
H5 H 0.45110 -0.35810 0.49760
H6 H 0.28680 -0.32140 0.56870
C5 C 0.0752(5) 0.0738(3) 0.2040(3)
C6 C -0.0074(6) 0.1580(3) 0.2744(3)
H7 H -0.12540 0.19230 0.24220
H8 H 0.09270 0.21380 0.29100
H9 H -0.04170 0.12140 0.33450
C7 C 0.1368(6) 0.1324(4) 0.1099(3)
H10 H 0.02040 0.16560 0.07510
H11 H 0.19470 0.07940 0.06680
H12 H 0.23410 0.18900 0.12850
C8 C -0.0735(5) -0.0167(3) 0.1750(3)
H13 H -0.19180 0.01520 0.14090
H14 H -0.10950 -0.05460 0.23430
H15 H -0.01400 -0.06850 0.13140
O2 O 0.6203(4) -0.0877(2) 0.3702(2)
C9 C 0.4459(5) -0.0885(3) 0.3886(3)
#END
