
#######################################################################
#
#                 Cambridge Crystallographic Data Centre
#                                CCDC
#
#######################################################################
#
# If this CIF has been generated from an entry in the Cambridge
# Structural Database, then it will include bibliographic, chemical,
# crystal, experimental, refinement or atomic coordinate data resulting
# from the CCDC's data processing and validation procedures.
#
#######################################################################

data_CSD_CIF_HEDCUR
_audit_creation_date 2017-09-20
_audit_creation_method CSD-ConQuest-V1
_database_code_CSD HEDCUR
_database_code_depnum_ccdc_archive 'CCDC 1544760'
_chemical_formula_sum 'C20 H20 N2 O5'
_chemical_formula_moiety
;
C20 H20 N2 O5
;
_journal_coden_Cambridge 35
_journal_volume 82
_journal_year 2017
_journal_page_first 9779
_journal_name_full 'J.Org.Chem. '
loop_
_publ_author_name
"Shengsheng Jiang"
"Kai Li"
"Jun Yan"
"Kuangxi Shi"
"Chengtao Zhao"
"Limin Yang"
"Guofu Zhong"
_chemical_name_systematic
;
3'-(benzyloxy)-5-methoxy-5',5'-dimethyl-4'H-spiro[indole-2,2'-[1,3]oxazolidine
]-3,4'(1H)-dione
;
_cell_volume   1874.342
_exptl_crystal_colour 'yellow'
_exptl_crystal_density_diffrn 1.305
_exptl_crystal_description 'chunk'
_diffrn_ambient_temperature 296
#These two values have been output from a single CSD field.
_refine_ls_R_factor_gt 0.0522
_refine_ls_wR_factor_gt 0.0522
_symmetry_cell_setting monoclinic
_symmetry_space_group_name_H-M 'P 21/n'
_symmetry_Int_Tables_number 14
loop_
_symmetry_equiv_pos_site_id
_symmetry_equiv_pos_as_xyz
1 x,y,z
2 1/2-x,1/2+y,1/2-z
3 -x,-y,-z
4 -1/2+x,-1/2-y,-1/2+z
_cell_length_a 10.2211(7)
_cell_length_b 18.2509(11)
_cell_length_c 10.5603(6)
_cell_angle_alpha 90
_cell_angle_beta 107.925(2)
_cell_angle_gamma 90
_cell_formula_units_Z 4
loop_
_atom_type_symbol
_atom_type_radius_bond
C 0.68
H 0.23
N 0.68
O 0.68
loop_
_atom_site_label
_atom_site_type_symbol
_atom_site_fract_x
_atom_site_fract_y
_atom_site_fract_z
C1 C 0.9633(2) 0.21174(14) 0.5517(2)
C2 C 1.0128(2) 0.28074(14) 0.5023(2)
C3 C 0.7839(2) 0.29410(13) 0.5027(2)
C4 C 0.7735(2) 0.32548(13) 0.6369(2)
C5 C 0.6414(2) 0.36122(13) 0.6058(2)
C6 C 0.5815(2) 0.39998(13) 0.6878(2)
H1 H 0.62700 0.40600 0.77810
C7 C 0.4532(3) 0.42888(14) 0.6302(2)
C8 C 0.3867(3) 0.41895(15) 0.4941(3)
H2 H 0.30020 0.43950 0.45680
C9 C 0.4444(3) 0.38001(15) 0.4135(2)
H3 H 0.39800 0.37340 0.32360
C10 C 0.5748(2) 0.35090(13) 0.4715(2)
C11 C 1.0590(3) 0.26646(17) 0.3811(3)
H4 H 0.98600 0.24310 0.31330
H5 H 1.13820 0.23510 0.40540
H6 H 1.08190 0.31210 0.34790
C12 C 1.1240(3) 0.31857(17) 0.6133(3)
H7 H 1.14310 0.36590 0.58340
H8 H 1.20610 0.28940 0.63690
H9 H 1.09270 0.32430 0.68970
C13 C 0.4440(3) 0.47947(18) 0.8344(3)
H10 H 0.46270 0.43300 0.87900
H11 H 0.38430 0.50760 0.87020
H12 H 0.52870 0.50550 0.84740
C14 C 0.6580(3) 0.12558(16) 0.4990(3)
H13 H 0.70660 0.08680 0.46950
H14 H 0.60070 0.15150 0.42150
C15 C 0.5728(2) 0.09491(14) 0.5779(2)
C16 C 0.6205(3) 0.03819(15) 0.6675(3)
H15 H 0.70600 0.01750 0.67630
C17 C 0.5427(3) 0.01200(17) 0.7436(3)
H16 H 0.57620 -0.02600 0.80360
C18 C 0.4173(3) 0.04141(18) 0.7314(3)
H17 H 0.36530 0.02410 0.78360
C19 C 0.3678(3) 0.09665(18) 0.6420(3)
H18 H 0.28130 0.11620 0.63240
C20 C 0.4450(3) 0.12356(16) 0.5659(3)
H19 H 0.41050 0.16140 0.50590
N1 N 0.82431(19) 0.21753(11) 0.51808(19)
N2 N 0.6508(2) 0.30745(12) 0.41062(18)
H20 H 0.64600 0.31460 0.32880
O1 O 0.88971(17) 0.32647(9) 0.46199(16)
O2 O 1.03296(18) 0.16011(10) 0.60728(18)
O3 O 0.86473(17) 0.31772(10) 0.74148(16)
O4 O 0.37960(19) 0.46798(11) 0.69642(18)
O5 O 0.75467(16) 0.17566(9) 0.58792(15)
#END
