
#######################################################################
#
#                 Cambridge Crystallographic Data Centre
#                                CCDC
#
#######################################################################
#
# If this CIF has been generated from an entry in the Cambridge
# Structural Database, then it will include bibliographic, chemical,
# crystal, experimental, refinement or atomic coordinate data resulting
# from the CCDC's data processing and validation procedures.
#
#######################################################################

data_CSD_CIF_HEDCOL
_audit_creation_date 2017-09-20
_audit_creation_method CSD-ConQuest-V1
_database_code_CSD HEDCOL
_database_code_depnum_ccdc_archive 'CCDC 1501290'
_chemical_formula_sum 'C17 H21 N1 O3'
_chemical_formula_moiety
;
C17 H21 N1 O3
;
_journal_coden_Cambridge 35
_journal_volume 82
_journal_year 2017
_journal_page_first 9779
_journal_name_full 'J.Org.Chem. '
loop_
_publ_author_name
"Shengsheng Jiang"
"Kai Li"
"Jun Yan"
"Kuangxi Shi"
"Chengtao Zhao"
"Limin Yang"
"Guofu Zhong"
_chemical_name_systematic
;
3-benzyloxy-5,5-dimethyl-2-(penta-1,3-dien-1-yl)-1,3-oxazolidin-4-one
;
_cell_volume   1685.018
_exptl_crystal_colour 'colorless'
_exptl_crystal_density_diffrn 1.133
_exptl_crystal_description 'chunk'
_diffrn_ambient_temperature 296
#These two values have been output from a single CSD field.
_refine_ls_R_factor_gt 0.0787
_refine_ls_wR_factor_gt 0.0787
_symmetry_cell_setting monoclinic
_symmetry_space_group_name_H-M 'P 21/c'
_symmetry_Int_Tables_number 14
loop_
_symmetry_equiv_pos_site_id
_symmetry_equiv_pos_as_xyz
1 x,y,z
2 -x,1/2+y,1/2-z
3 -x,-y,-z
4 x,-1/2-y,-1/2+z
_cell_length_a 9.9297(6)
_cell_length_b 20.0787(15)
_cell_length_c 8.6718(7)
_cell_angle_alpha 90
_cell_angle_beta 102.943(2)
_cell_angle_gamma 90
_cell_formula_units_Z 4
loop_
_atom_type_symbol
_atom_type_radius_bond
C 0.68
H 0.23
N 0.68
O 0.68
loop_
_atom_site_label
_atom_site_type_symbol
_atom_site_fract_x
_atom_site_fract_y
_atom_site_fract_z
C1 C 0.2066(3) 0.77199(15) 0.2714(3)
C2 C 0.1264(3) 0.83644(14) 0.2624(3)
C3 C 0.3300(3) 0.85615(14) 0.1747(3)
H1 H 0.30720 0.85650 0.05870
C4 C 0.0040(3) 0.83353(16) 0.1209(4)
H2 H -0.04410 0.87530 0.11030
H3 H -0.05760 0.79860 0.13640
H4 H 0.03650 0.82480 0.02660
C5 C 0.0848(4) 0.85259(19) 0.4157(4)
H5 H 0.16600 0.85540 0.49980
H6 H 0.02530 0.81820 0.43910
H7 H 0.03680 0.89440 0.40540
C6 C 0.5205(3) 0.72307(18) 0.3169(4)
H8 H 0.48300 0.70470 0.40190
H9 H 0.57580 0.76180 0.35660
C7 C 0.6066(3) 0.67224(15) 0.2575(3)
C8 C 0.5583(4) 0.60982(19) 0.2156(4)
H10 H 0.46830 0.59860 0.21980
C9 C 0.6424(6) 0.56288(18) 0.1666(4)
H11 H 0.60950 0.52030 0.13790
C10 C 0.7734(5) 0.5801(3) 0.1614(5)
H12 H 0.83050 0.54890 0.12910
C11 C 0.8215(4) 0.6409(3) 0.2018(5)
H13 H 0.91160 0.65200 0.19800
C12 C 0.7382(4) 0.68709(19) 0.2488(4)
H14 H 0.77230 0.72970 0.27560
C13 C 0.4628(3) 0.89054(15) 0.2367(3)
H15 H 0.49460 0.89230 0.34600
C14 C 0.5397(3) 0.91891(14) 0.1500(3)
H16 H 0.50900 0.91560 0.04080
C15 C 0.6672(3) 0.95469(14) 0.2079(4)
H17 H 0.70060 0.95600 0.31690
C16 C 0.7400(3) 0.98534(15) 0.1213(4)
H18 H 0.70820 0.98260 0.01210
C17 C 0.8688(3) 1.02429(18) 0.1803(5)
H19 H 0.89410 1.02190 0.29370
H20 H 0.85350 1.06990 0.14820
H21 H 0.94190 1.00620 0.13710
N1 N 0.3262(2) 0.78848(11) 0.2345(3)
O1 O 0.1707(2) 0.71686(11) 0.3045(3)
O2 O 0.2227(2) 0.88656(9) 0.2349(2)
O3 O 0.40950(18) 0.74136(9) 0.1838(2)
#END
