
#######################################################################
#
#                 Cambridge Crystallographic Data Centre
#                                CCDC
#
#######################################################################
#
# If this CIF has been generated from an entry in the Cambridge
# Structural Database, then it will include bibliographic, chemical,
# crystal, experimental, refinement or atomic coordinate data resulting
# from the CCDC's data processing and validation procedures.
#
#######################################################################

data_CSD_CIF_HEDFUU
_audit_creation_date 2017-09-20
_audit_creation_method CSD-ConQuest-V1
_database_code_CSD HEDFUU
_database_code_depnum_ccdc_archive 'CCDC 1562056'
_chemical_formula_sum 'C15 H17 N3 O4'
_chemical_formula_moiety
;
C15 H17 N3 O4
;
_journal_coden_Cambridge 35
_journal_volume 82
_journal_year 2017
_journal_page_first 9693
_journal_name_full 'J.Org.Chem. '
loop_
_publ_author_name
"Jian-Feng Zheng"
"Xiu-Ning Hu"
"Zhen Xu"
"Dong-Cheng Cai"
"Tai-Long Shen"
"Pei-Qiang Huang"
_chemical_name_systematic
;
methyl 
5-methyl-1-(4-nitrophenyl)-5,6,7,7a-tetrahydro-1H-pyrrolo[1,2-c]imidazole-1-ca
rboxylate
;
_cell_volume    703.118
_exptl_crystal_colour 'colorless'
_exptl_crystal_density_diffrn 1.433
_exptl_crystal_description 'block'
_diffrn_ambient_temperature 273.1
#These two values have been output from a single CSD field.
_refine_ls_R_factor_gt 0.048
_refine_ls_wR_factor_gt 0.048
_symmetry_cell_setting triclinic
_symmetry_space_group_name_H-M 'P -1'
_symmetry_Int_Tables_number 2
loop_
_symmetry_equiv_pos_site_id
_symmetry_equiv_pos_as_xyz
1 x,y,z
2 -x,-y,-z
_cell_length_a 7.715(2)
_cell_length_b 9.543(2)
_cell_length_c 10.884(3)
_cell_angle_alpha 109.664(4)
_cell_angle_beta 96.700(4)
_cell_angle_gamma 106.526(4)
_cell_formula_units_Z 2
loop_
_atom_type_symbol
_atom_type_radius_bond
C 0.68
H 0.23
N 0.68
O 0.68
loop_
_atom_site_label
_atom_site_type_symbol
_atom_site_fract_x
_atom_site_fract_y
_atom_site_fract_z
N1 N 0.02536(14) 0.27418(12) 0.18360(11)
O1 O -0.29407(14) 0.08939(11) -0.08763(9)
C1 C -0.24221(17) 0.36184(14) 0.23690(12)
O2 O -0.18404(15) 0.35211(11) -0.00761(10)
N2 N -0.10629(15) 0.01465(12) 0.14555(11)
N3 N -0.44253(18) 0.69957(14) 0.47051(12)
O3 O -0.33278(17) 0.81373(13) 0.56491(11)
C2 C -0.22815(16) 0.21399(14) 0.00439(12)
O4 O -0.60581(17) 0.67953(15) 0.43883(12)
C3 C -0.49730(18) 0.44814(16) 0.28784(13)
H1 H -0.62370 0.43280 0.27030
C4 C -0.37267(19) 0.58127(15) 0.39025(13)
C5 C -0.25819(17) 0.07619(14) 0.16447(13)
H2 H -0.37220 0.00660 0.09500
C6 C -0.18658(19) 0.60699(16) 0.41843(13)
H3 H -0.10550 0.69790 0.48910
C7 C -0.17813(16) 0.23567(14) 0.15101(12)
C8 C -0.42960(18) 0.33891(15) 0.21241(13)
H4 H -0.51170 0.24720 0.14310
C9 C -0.12084(18) 0.49641(15) 0.34077(13)
H5 H 0.00570 0.51250 0.35840
C10 C -0.28204(19) 0.08254(16) 0.30247(14)
H6 H -0.20580 0.18500 0.37140
H7 H -0.41100 0.06370 0.30720
C11 C 0.04678(17) 0.14437(15) 0.17667(13)
H8 H 0.16520 0.13880 0.19270
C12 C -0.1145(2) -0.09713(16) 0.21125(14)
H9 H 0.01140 -0.08520 0.25270
C13 C -0.2218(2) 0.34761(19) -0.14135(15)
H10 H -0.17240 0.27510 -0.19800
H11 H -0.16460 0.45170 -0.14010
H12 H -0.35380 0.31300 -0.17550
C14 C -0.2144(2) -0.26421(17) 0.11247(16)
H13 H -0.33920 -0.27590 0.07520
H14 H -0.21760 -0.33590 0.15710
H15 H -0.15040 -0.28790 0.04180
C15 C -0.2198(3) -0.0475(2) 0.31961(17)
H16 H -0.32660 -0.13720 0.30990
H17 H -0.13930 -0.00930 0.40810
#END
