
#######################################################################
#
#                 Cambridge Crystallographic Data Centre
#                                CCDC
#
#######################################################################
#
# If this CIF has been generated from an entry in the Cambridge
# Structural Database, then it will include bibliographic, chemical,
# crystal, experimental, refinement or atomic coordinate data resulting
# from the CCDC's data processing and validation procedures.
#
#######################################################################

data_CSD_CIF_HEDJEI
_audit_creation_date 2017-09-20
_audit_creation_method CSD-ConQuest-V1
_database_code_CSD HEDJEI
_database_code_depnum_ccdc_archive 'CCDC 1564198'
_chemical_formula_sum 'C12 H12 N2 O3'
_chemical_formula_moiety
;
C12 H12 N2 O3
;
_journal_coden_Cambridge 35
_journal_volume 82
_journal_year 2017
_journal_page_first 9737
_journal_name_full 'J.Org.Chem. '
loop_
_publ_author_name
"J.Saczewski"
"J.Fedorowicz"
"M.Gdaniec"
"P.Wisniewska"
"E.Sieniawska"
"Z.Drazba"
"J.Rzewnicka"
"L.Balewski"
_chemical_name_systematic
;
(E)-4,6-Dimethyl-1-(3-oxobut-1-enyl)isoxazolo[3,4-b]pyridin-3(1H)-one
;
_cell_volume   1120.281
_exptl_crystal_colour 'colorless'
_exptl_crystal_density_diffrn 1.377
_exptl_crystal_description 'block'
_diffrn_ambient_temperature 130.2
#These two values have been output from a single CSD field.
_refine_ls_R_factor_gt 0.0372
_refine_ls_wR_factor_gt 0.0372
_symmetry_cell_setting monoclinic
_symmetry_space_group_name_H-M 'P 21/n'
_symmetry_Int_Tables_number 14
loop_
_symmetry_equiv_pos_site_id
_symmetry_equiv_pos_as_xyz
1 x,y,z
2 1/2-x,1/2+y,1/2-z
3 -x,-y,-z
4 -1/2+x,-1/2-y,-1/2+z
_cell_length_a 4.98625(15)
_cell_length_b 15.4076(5)
_cell_length_c 14.7032(5)
_cell_angle_alpha 90
_cell_angle_beta 97.361(3)
_cell_angle_gamma 90
_cell_formula_units_Z 4
loop_
_atom_type_symbol
_atom_type_radius_bond
C 0.68
H 0.23
N 0.68
O 0.68
loop_
_atom_site_label
_atom_site_type_symbol
_atom_site_fract_x
_atom_site_fract_y
_atom_site_fract_z
N1 N 0.6395(3) 0.59280(8) 0.63532(8)
O1 O 0.7599(2) 0.53281(6) 0.58022(7)
C1 C 0.6558(3) 0.44998(9) 0.5969(1)
C2 C 0.3068(3) 0.40467(9) 0.70529(10)
C3 C 0.1530(3) 0.44310(9) 0.76655(10)
H1 H 0.03563 0.40793 0.79693
C4 C 0.1661(3) 0.53234(9) 0.78474(9)
N2 N 0.3209(2) 0.58823(7) 0.74338(8)
C5 C 0.4625(3) 0.54959(9) 0.68409(9)
C6 C 0.4675(3) 0.46199(9) 0.66257(10)
O2 O 0.7327(2) 0.38835(7) 0.55725(7)
C7 C 0.3032(3) 0.30898(10) 0.68684(11)
H2 H 0.42571 0.29574 0.64164
H3 H 0.36230 0.27770 0.74393
H4 H 0.11920 0.29093 0.66288
C8 C 0.0059(3) 0.57039(10) 0.85465(11)
H5 H 0.12292 0.57731 0.91303
H6 H -0.14453 0.53158 0.86322
H7 H -0.06535 0.62715 0.83338
C9 C 0.6938(3) 0.67829(9) 0.62519(10)
H8 H 0.59860 0.71850 0.65812
C10 C 0.8702(3) 0.71081(9) 0.57273(10)
H9 H 0.97154 0.67299 0.53916
C11 C 0.9061(3) 0.80482(10) 0.56735(10)
O3 O 0.7752(2) 0.85647(7) 0.60715(8)
C12 C 1.1136(3) 0.83631(11) 0.50929(11)
H10 H 1.19796 0.78641 0.48289
H11 H 1.02574 0.87308 0.45981
H12 H 1.25228 0.86994 0.54731
H13? H 0.17910 0.28050 0.72399
H14? H 0.24251 0.29854 0.62170
H15? H 0.48561 0.28532 0.70276
H16? H 1.11935 0.89988 0.51045
H17? H 1.29158 0.81321 0.53353
H18? H 1.06504 0.81635 0.44603
#END
