
#######################################################################
#
#                 Cambridge Crystallographic Data Centre
#                                CCDC
#
#######################################################################
#
# If this CIF has been generated from an entry in the Cambridge
# Structural Database, then it will include bibliographic, chemical,
# crystal, experimental, refinement or atomic coordinate data resulting
# from the CCDC's data processing and validation procedures.
#
#######################################################################

data_CSD_CIF_HEDMOT
_audit_creation_date 2006-04-25
_audit_creation_method CSD-ConQuest-V1
_database_code_CSD HEDMOT
_database_code_depnum_ccdc_archive 'CCDC 283074'
_chemical_formula_sum 'C12 H13 N1 O3'
_chemical_formula_moiety
;
C12 H13 N1 O3
;
_journal_coden_Cambridge 182
_journal_year 2006
_journal_page_first 338
_journal_name_full 'Chem.Commun. '
loop_
_publ_author_name
"M.Dadwal"
"R.Mohan"
"D.Panda"
"S.M.Mobin"
"I.N.N.Namboothiri"
_chemical_name_systematic
;
(E)-6-Phenyl-5-nitrohex-5-en-2-one
;
_chemical_melting_point 349.15
_cell_volume    562.023
_exptl_crystal_colour 'yellow'
_exptl_crystal_density_diffrn 1.295
_exptl_special_details
;
Melting point range 349.15-350.15K
inhibitor of human cervical cancer (HeLa) cell proliferation
The space group is P-1 as given in the cif, not P1 as given in the paper
;
_exptl_crystal_description 'block'
_diffrn_ambient_temperature 293
#These two values have been output from a single CSD field.
_refine_ls_R_factor_gt 0.0453
_refine_ls_wR_factor_gt 0.0453
_symmetry_cell_setting triclinic
_symmetry_space_group_name_H-M 'P -1'
_symmetry_Int_Tables_number 2
loop_
_symmetry_equiv_pos_site_id
_symmetry_equiv_pos_as_xyz
1 x,y,z
2 -x,-y,-z
_cell_length_a 7.253(1)
_cell_length_b 7.9810(7)
_cell_length_c 10.7050(9)
_cell_angle_alpha 106.198(7)
_cell_angle_beta 104.883(9)
_cell_angle_gamma 97.193(9)
_cell_formula_units_Z 2
loop_
_atom_type_symbol
_atom_type_radius_bond
C 0.68
H 0.23
N 0.68
O 0.68
loop_
_atom_site_label
_atom_site_type_symbol
_atom_site_fract_x
_atom_site_fract_y
_atom_site_fract_z
O1 O 0.0711(3) 0.5555(3) 0.69263(19)
O2 O 0.2757(3) 0.6116(3) 0.89119(19)
O3 O 0.8410(3) 0.9954(2) 1.10224(17)
N1 N 0.2341(3) 0.6173(3) 0.7740(2)
C1 C 1.0206(3) 0.7704(3) 1.1117(2)
H1 H 1.09570 0.85360 1.19970
H2 H 1.10260 0.74990 1.05380
H3 H 0.96980 0.65980 1.12200
C2 C 0.8570(3) 0.8445(3) 1.0496(2)
C3 C 0.7101(3) 0.7230(3) 0.9179(2)
H4 H 0.64170 0.62380 0.93550
H5 H 0.77850 0.67470 0.85380
C4 C 0.5615(3) 0.8175(3) 0.8532(2)
H6 H 0.51040 0.88240 0.92320
H7 H 0.62950 0.90490 0.82420
C5 C 0.3933(3) 0.7027(3) 0.7344(2)
C6 C 0.3606(3) 0.6707(3) 0.6010(2)
H8 H 0.23780 0.60320 0.54570
C7 C 0.4903(3) 0.7266(3) 0.5292(2)
C8 C 0.6936(3) 0.7691(3) 0.5810(2)
H9 H 0.75420 0.76430 0.66740
C9 C 0.8053(3) 0.8178(3) 0.5056(3)
H10 H 0.94070 0.84550 0.54140
C10 C 0.7183(4) 0.8259(3) 0.3778(3)
H11 H 0.79430 0.86170 0.32810
C11 C 0.5192(4) 0.7812(3) 0.3241(2)
H12 H 0.45990 0.78470 0.23710
C12 C 0.4069(3) 0.7312(3) 0.3986(2)
H13 H 0.27180 0.69980 0.36050
#END
