
#######################################################################
#
#                 Cambridge Crystallographic Data Centre
#                                CCDC
#
#######################################################################
#
# If this CIF has been generated from an entry in the Cambridge
# Structural Database, then it will include bibliographic, chemical,
# crystal, experimental, refinement or atomic coordinate data resulting
# from the CCDC's data processing and validation procedures.
#
#######################################################################

data_CSD_CIF_HEGFOP
_audit_creation_date 2006-04-25
_audit_creation_method CSD-ConQuest-V1
_database_code_CSD HEGFOP
_database_code_depnum_ccdc_archive 'CCDC 299636'
_chemical_formula_sum 'C14 H25 N3 O2'
_chemical_formula_moiety
;
C14 H25 N3 O2
;
_journal_coeditor_code "IUCr AV1274"
_journal_coden_Cambridge 591
_journal_volume 62
_journal_year 2006
_journal_page_first o76
_journal_name_full 'Acta Crystallogr.,Sect.C:Cryst.Struct.Commun. '
loop_
_publ_author_name
"J.Belmar"
"C.Jimenez"
"L.Ortiz"
"M.T.Garland"
"R.Baggio"
_chemical_name_systematic
;
1-n-Decyl-4-hydroxyimino-3-methyl-1H-pyrazol-5(4H)-one
;
_chemical_melting_point 360
_cell_volume   1593.720
_exptl_crystal_colour 'yellow'
_exptl_crystal_density_diffrn 1.114
_exptl_special_details
;
Melting point range 360-361K

;
_exptl_crystal_description 'prisms'
_exptl_crystal_preparation 'ethanol'
_diffrn_ambient_temperature 295
#These two values have been output from a single CSD field.
_refine_ls_R_factor_gt 0.0647
_refine_ls_wR_factor_gt 0.0647
_symmetry_cell_setting monoclinic
_symmetry_space_group_name_H-M 'P 21/c'
_symmetry_Int_Tables_number 14
loop_
_symmetry_equiv_pos_site_id
_symmetry_equiv_pos_as_xyz
1 x,y,z
2 -x,1/2+y,1/2-z
3 -x,-y,-z
4 x,-1/2-y,-1/2+z
_cell_length_a 17.948(4)
_cell_length_b 8.2512(17)
_cell_length_c 10.762(2)
_cell_angle_alpha 90
_cell_angle_beta 90.461(4)
_cell_angle_gamma 90
_cell_formula_units_Z 4
loop_
_atom_type_symbol
_atom_type_radius_bond
C 0.68
H 0.23
N 0.68
O 0.68
loop_
_atom_site_label
_atom_site_type_symbol
_atom_site_fract_x
_atom_site_fract_y
_atom_site_fract_z
C1 C 0.38804(12) 1.2382(2) 0.50685(19)
C2 C 0.42602(11) 1.1437(2) 0.41164(18)
C3 C 0.41176(11) 0.9723(3) 0.44341(18)
C4 C 0.38435(14) 1.4155(3) 0.5219(2)
H1 H 0.35600 1.44120 0.59460
H2 H 0.36080 1.46270 0.45010
H3 H 0.43380 1.45830 0.53100
C5 C 0.34749(13) 0.8499(3) 0.6273(2)
H4 H 0.36850 0.86750 0.70950
H5 H 0.36770 0.74900 0.59570
C6 C 0.26484(14) 0.8336(3) 0.6378(2)
H6 H 0.24450 0.93700 0.66380
H7 H 0.25410 0.75540 0.70250
C7 C 0.22619(15) 0.7826(3) 0.5225(2)
H8 H 0.24330 0.67500 0.50020
H9 H 0.24010 0.85570 0.45600
C8 C 0.14125(16) 0.7797(4) 0.5319(3)
H10 H 0.12790 0.70890 0.60010
H11 H 0.12450 0.88800 0.55300
C9 C 0.10040(16) 0.7269(4) 0.4210(3)
H12 H 0.11270 0.61410 0.40620
H13 H 0.11880 0.78850 0.35090
C10 C 0.01784(17) 0.7416(4) 0.4219(3)
H14 H -0.00020 0.67490 0.48950
H15 H 0.00620 0.85310 0.44290
C11 C -0.0251(2) 0.7008(4) 0.3137(3)
H16 H -0.01470 0.58830 0.29470
H17 H -0.00570 0.76460 0.24550
C12 C -0.1053(2) 0.7196(5) 0.3114(4)
H18 H -0.12520 0.65020 0.37580
H19 H -0.11610 0.83040 0.33530
C13 C -0.1464(3) 0.6868(6) 0.1997(5)
H20 H -0.12520 0.75580 0.13610
H21 H -0.13440 0.57630 0.17660
C14 C -0.2207(2) 0.7006(7) 0.1878(5)
H22 H -0.23730 0.64020 0.11660
H23 H -0.23370 0.81270 0.17750
H24 H -0.24410 0.65880 0.26100
N1 N 0.35613(10) 1.1413(2) 0.58418(16)
N2 N 0.37046(9) 0.98167(18) 0.54638(15)
N3 N 0.46775(10) 1.1774(2) 0.31735(16)
O1 O 0.43293(9) 0.84926(18) 0.39204(14)
O2 O 0.47788(9) 1.33871(19) 0.30532(14)
H25 H 0.5070(12) 1.3428(16) 0.2420(16)
#END
