
#######################################################################
#
#                 Cambridge Crystallographic Data Centre
#                                CCDC
#
#######################################################################
#
# If this CIF has been generated from an entry in the Cambridge
# Structural Database, then it will include bibliographic, chemical,
# crystal, experimental, refinement or atomic coordinate data resulting
# from the CCDC's data processing and validation procedures.
#
#######################################################################

data_CSD_CIF_HEGLAH
_audit_creation_date 2006-09-13
_audit_creation_method CSD-ConQuest-V1
_database_code_CSD HEGLAH
_database_code_depnum_ccdc_archive 'CCDC 299416'
_chemical_formula_sum 'C22 H29 N1 O5'
_chemical_formula_moiety
;
C22 H29 N1 O5
;
_journal_coden_Cambridge 1090
_journal_volume 17
_journal_year 2006
_journal_page_first 1217
_journal_name_full 'Tetrahedron:Asymm. '
loop_
_publ_author_name
"U.Groselj"
"D.Bevk"
"R.Jakse"
"A.Meden"
"B.Stanovnik"
"J.Svete"
_chemical_name_systematic
;
(1R,3R,4S,4'R)-1,4',7,7-Tetramethyl-3'-(2,4,6-trimethoxyphenyl)-4'H-spiro((bic
yclo(2.2.1)heptane)-3,5'-isoxazol)-2-one
;
_chemical_melting_point 442.15
_cell_volume   2024.035
_exptl_crystal_colour 'colorless'
_exptl_crystal_density_diffrn 1.272
_exptl_special_details
;
Melting point range 442.15-446.15K

;
_exptl_crystal_description 'block'
_exptl_crystal_preparation 'chloroform/n-heptane'
_diffrn_ambient_temperature 293
#These two values have been output from a single CSD field.
_refine_ls_R_factor_gt 0.04
_refine_ls_wR_factor_gt 0.04
_symmetry_cell_setting orthorhombic
_symmetry_space_group_name_H-M 'P 21 21 21'
_symmetry_Int_Tables_number 19
loop_
_symmetry_equiv_pos_site_id
_symmetry_equiv_pos_as_xyz
1 x,y,z
2 1/2-x,-y,1/2+z
3 1/2+x,1/2-y,-z
4 -x,1/2+y,1/2-z
_cell_length_a 7.4292(1)
_cell_length_b 9.9904(1)
_cell_length_c 27.2705(4)
_cell_angle_alpha 90
_cell_angle_beta 90
_cell_angle_gamma 90
_cell_formula_units_Z 4
loop_
_atom_type_symbol
_atom_type_radius_bond
C 0.68
H 0.23
N 0.68
O 0.68
loop_
_atom_site_label
_atom_site_type_symbol
_atom_site_fract_x
_atom_site_fract_y
_atom_site_fract_z
O1 O 0.0122(4) 0.0318(2) 0.60234(6)
O2 O -0.1071(2) 0.23866(17) 0.67315(6)
O3 O 0.0605(3) 0.31266(17) 0.51810(6)
O4 O -0.0389(3) 0.7556(2) 0.46168(6)
O5 O -0.1575(3) 0.62850(18) 0.62948(6)
N1 N -0.1669(3) 0.3305(2) 0.63673(7)
C1 C 0.1720(4) -0.0327(2) 0.67728(8)
C2 C 0.0806(4) 0.0602(2) 0.64086(8)
C3 C 0.0812(3) 0.2028(2) 0.66368(7)
C4 C 0.1804(3) 0.1748(2) 0.71228(7)
C5 C 0.0499(4) 0.0982(2) 0.74573(8)
C6 C 0.0364(4) -0.0403(2) 0.72083(9)
C7 C 0.3180(4) 0.0635(2) 0.69783(8)
C8 C 0.4208(5) 0.0076(3) 0.74248(11)
C9 C 0.4585(4) 0.1019(3) 0.65938(11)
C10 C 0.2299(5) -0.1663(3) 0.65604(12)
C11 C 0.1464(3) 0.3135(2) 0.62842(8)
C12 C -0.0316(3) 0.3701(2) 0.61215(7)
C13 C 0.2624(4) 0.4247(3) 0.65118(10)
C14 C -0.0475(3) 0.4719(2) 0.57294(7)
C15 C 0.0058(3) 0.4414(2) 0.52464(8)
C16 C 0.0010(3) 0.5366(3) 0.48793(7)
C17 C -0.0489(3) 0.6669(3) 0.49951(8)
C18 C -0.1021(4) 0.7015(2) 0.54648(8)
C19 C -0.1048(3) 0.6025(2) 0.58237(7)
C20 C -0.2677(4) 0.7414(3) 0.63803(9)
C21 C -0.0418(5) 0.8957(3) 0.47344(12)
C22 C 0.1121(5) 0.2713(3) 0.47001(10)
H1 H 0.03403 0.51090 0.45196
H2 H -0.13921 0.79927 0.55477
H3 H 0.21796 0.26473 0.72869
H4 H -0.07521 0.14505 0.74689
H5 H 0.10085 0.08976 0.78106
H6 H -0.09374 -0.05749 0.70798
H7 H 0.07209 -0.11614 0.74507
H8 H 0.32992 -0.01485 0.77024
H9 H 0.51220 0.07871 0.75482
H10 H 0.48914 -0.07871 0.73217
H11 H 0.39406 0.14078 0.62859
H12 H 0.53193 0.01767 0.64941
H13 H 0.54495 0.17381 0.67378
H14 H 0.11672 -0.21970 0.64506
H15 H 0.29899 -0.22053 0.68264
H16 H 0.31339 -0.15024 0.62607
H17 H 0.21896 0.27417 0.59912
H18 H 0.19022 0.47216 0.67873
H19 H 0.29673 0.49374 0.62419
H20 H 0.37897 0.38299 0.66579
H21 H -0.27918 0.75759 0.67570
H22 H -0.39558 0.72403 0.62353
H23 H -0.21175 0.82494 0.62155
H24 H -0.02405 0.95174 0.44180
H25 H 0.06105 0.91687 0.49817
H26 H -0.16522 0.91986 0.48937
H27 H 0.16288 0.17422 0.47158
H28 H 0.20993 0.33546 0.45658
H29 H 0.00010 0.27314 0.44711
#END
