
#######################################################################
#
#                 Cambridge Crystallographic Data Centre
#                                CCDC
#
#######################################################################
#
# If this CIF has been generated from an entry in the Cambridge
# Structural Database, then it will include bibliographic, chemical,
# crystal, experimental, refinement or atomic coordinate data resulting
# from the CCDC's data processing and validation procedures.
#
#######################################################################

data_CSD_CIF_HEHWIA
_audit_creation_date 1994-12-19
_audit_creation_method CSD-ConQuest-V1
_database_code_CSD HEHWIA
_database_code_depnum_ccdc_archive 'CCDC 1174049'
_chemical_formula_sum 'C7 H6 N2 O4'
_chemical_formula_moiety
;
C7 H6 N2 O4
;
_journal_coden_Cambridge 182
_journal_year 1994
_journal_page_first 1187
_journal_name_full 'Chem.Commun. '
loop_
_publ_author_name
"I.J.Burnett"
"G.Conole"
"G.J.O'Donovan"
"M.K.Shepherd"
_chemical_name_systematic
;
1,6-Dinitrocycloheptatriene
;
_chemical_melting_point 393.15
_cell_volume    815.325
_exptl_crystal_density_diffrn 1.48
_exptl_special_details
;
Melting point range 393.15-395.15K

;
_diffrn_ambient_temperature ?
_diffrn_special_details
;
The study was carried out at room temperature,in the range 283-303K

;
#These two values have been output from a single CSD field.
_refine_ls_R_factor_gt 0.0495
_refine_ls_wR_factor_gt 0.0495
_symmetry_cell_setting monoclinic
_symmetry_space_group_name_H-M 'C c'
_symmetry_Int_Tables_number 9
loop_
_symmetry_equiv_pos_site_id
_symmetry_equiv_pos_as_xyz
1 x,y,z
2 1/2+x,1/2+y,z
3 x,-y,1/2+z
4 1/2+x,1/2-y,1/2+z
_cell_length_a 4.998(1)
_cell_length_b 15.393(3)
_cell_length_c 10.714(2)
_cell_angle_alpha 90
_cell_angle_beta 98.45(2)
_cell_angle_gamma 90
_cell_formula_units_Z 4
loop_
_atom_type_symbol
_atom_type_radius_bond
C 0.68
H 0.23
N 0.68
O 0.68
loop_
_atom_site_label
_atom_site_type_symbol
_atom_site_fract_x
_atom_site_fract_y
_atom_site_fract_z
C1 C 0.0103(15) 0.1380(4) -0.0830(6)
N1 N 0.2974(13) 0.0088(5) -0.1312(7)
O1 O 0.3856(12) 0.0573(4) -0.2055(6)
O2 O 0.3638(13) -0.0676(4) -0.1152(7)
N2 N 0.2914(14) 0.2573(3) 0.0328(7)
O3 O 0.3585(16) 0.3007(4) 0.1278(6)
O4 O 0.3906(13) 0.2671(3) -0.0633(6)
C2 C 0.0933(14) 0.0461(4) -0.0578(7)
C3 C -0.0031(15) -0.0052(5) 0.0258(7)
C4 C -0.1833(14) 0.0239(4) 0.1080(6)
C5 C -0.1854(15) 0.1029(4) 0.1601(6)
C6 C -0.0092(15) 0.1730(4) 0.1416(8)
C7 C 0.0886(13) 0.1869(4) 0.0353(6)
H1 H 0.076(17) -0.053(5) 0.019(7)
H2 H -0.319(12) -0.025(4) 0.150(5)
H3 H -0.308(15) 0.131(5) 0.214(7)
H4 H 0.024(19) 0.194(6) 0.195(9)
H5 H -0.189(19) 0.137(5) -0.105(7)
H6 H 0.073(10) 0.169(3) -0.156(5)
#END
