
#######################################################################
#
#                 Cambridge Crystallographic Data Centre
#                                CCDC
#
#######################################################################
#
# If this CIF has been generated from an entry in the Cambridge
# Structural Database, then it will include bibliographic, chemical,
# crystal, experimental, refinement or atomic coordinate data resulting
# from the CCDC's data processing and validation procedures.
#
#######################################################################

data_CSD_CIF_HEHZOM
_audit_creation_date 2017-09-22
_audit_creation_method CSD-ConQuest-V1
_database_code_CSD HEHZOM
_database_code_depnum_ccdc_archive 'CCDC 1534365'
_chemical_formula_sum 'C33 H25 N5 O3'
_chemical_formula_moiety
;
C33 H25 N5 O3
;
_journal_coden_Cambridge 34
_journal_volume 54
_journal_year 2017
_journal_page_first 3554
_journal_name_full 'J.Heterocycl.Chem. '
loop_
_publ_author_name
"R.Sakly"
"H.Edziri"
"M.Askri"
"M.Knorr"
"K.Louven"
"C.Strohmann"
"M.Mastouri"
_chemical_name_systematic
;
4'-(benzenecarbonyl)-3'-(4-methylphenyl)-1-[(1-phenyl-1H-1,2,3-triazol-4-yl)me
thyl]-4'H-spiro[indole-3,5'-[1,2]oxazol]-2(1H)-one
;
_cell_volume   1322.037
_exptl_crystal_colour 'yellowish'
_exptl_crystal_density_diffrn 1.355
_exptl_crystal_description 'block'
_exptl_crystal_preparation 'ethanol'
_diffrn_ambient_temperature 100.0
#These two values have been output from a single CSD field.
_refine_ls_R_factor_gt 0.0398
_refine_ls_wR_factor_gt 0.0398
_symmetry_cell_setting triclinic
_symmetry_space_group_name_H-M 'P -1'
_symmetry_Int_Tables_number 2
loop_
_symmetry_equiv_pos_site_id
_symmetry_equiv_pos_as_xyz
1 x,y,z
2 -x,-y,-z
_cell_length_a 8.974(3)
_cell_length_b 12.150(5)
_cell_length_c 13.572(6)
_cell_angle_alpha 104.749(18)
_cell_angle_beta 109.233(12)
_cell_angle_gamma 96.013(17)
_cell_formula_units_Z 2
loop_
_atom_type_symbol
_atom_type_radius_bond
C 0.68
H 0.23
N 0.68
O 0.68
loop_
_atom_site_label
_atom_site_type_symbol
_atom_site_fract_x
_atom_site_fract_y
_atom_site_fract_z
O1 O 0.11158(10) 0.44853(7) 0.27818(7)
O2 O 0.41137(11) 0.72019(8) 0.26175(7)
O3 O 0.28481(11) 0.51303(8) 0.52456(7)
N1 N 0.45916(13) 0.91309(9) 0.80185(8)
N2 N 0.24159(15) 0.89601(10) 0.66514(9)
N3 N 0.37160(15) 0.97115(10) 0.73758(9)
N4 N 0.12085(12) 0.64637(9) 0.49879(8)
N5 N 0.18885(12) 0.40767(9) 0.20325(8)
C1 C 0.20242(13) 0.56476(10) 0.35205(9)
C2 C 0.43888(14) 0.45295(10) 0.17584(9)
C3 C 0.55636(13) 0.77522(10) 0.45386(9)
C4 C 0.38636(14) 0.37975(10) 0.06692(9)
H1 H 0.27580 0.34290 0.02900
C5 C 0.10636(13) 0.65639(10) 0.32760(9)
C6 C 0.36973(13) 0.57089(10) 0.34221(9)
H2 H 0.44430 0.54770 0.40290
C7 C 0.38360(15) 0.79958(10) 0.76961(10)
H3 H 0.41880 0.74070 0.80070
C8 C 0.71680(17) 0.82278(12) 0.64729(10)
H4 H 0.75090 0.80160 0.71270
C9 C 0.60849(15) 0.97329(10) 0.88983(10)
C10 C 0.21009(14) 0.56887(10) 0.46926(9)
C11 C 0.65450(16) 0.93997(11) 0.98522(10)
H5 H 0.58880 0.87740 0.99130
C12 C 0.32706(14) 0.47526(10) 0.23430(9)
C13 C 0.65984(15) 0.41265(10) 0.06868(10)
C14 C 0.84768(17) 1.12335(12) 0.96533(12)
H6 H 0.91450 1.18500 0.95890
C15 C 0.60612(15) 0.74317(11) 0.55036(10)
H7 H 0.56450 0.66760 0.54950
C16 C 0.05685(14) 0.69922(10) 0.41533(9)
C17 C 0.60303(14) 0.50434(10) 0.23044(9)
H8 H 0.64080 0.55420 0.30390
C18 C 0.61575(14) 0.88842(10) 0.45601(10)
H9 H 0.58030 0.91070 0.39120
C19 C 0.89530(17) 1.09175(12) 1.06116(12)
H10 H 0.99370 1.13230 1.11990
C20 C 0.72627(16) 0.96727(11) 0.55306(11)
H11 H 0.76670 1.04350 0.55480
C21 C 0.79819(17) 1.00024(12) 1.07087(11)
H12 H 0.83070 0.97920 1.13640
C22 C 0.05386(14) 0.69297(10) 0.23467(10)
H13 H 0.08740 0.66500 0.17510
C23 C 0.77762(16) 0.93388(12) 0.64807(11)
H14 H 0.85470 0.98730 0.71400
C24 C 0.44511(13) 0.69253(10) 0.34584(9)
C25 C -0.09800(15) 0.81366(11) 0.31939(10)
H15 H -0.16840 0.86700 0.31530
C26 C -0.04944(15) 0.77192(11) 0.23131(10)
H16 H -0.08690 0.79740 0.16850
C27 C 0.70353(17) 1.06559(11) 0.87923(11)
H17 H 0.67000 1.08810 0.81450
C28 C 0.49572(15) 0.36102(10) 0.01429(9)
H18 H 0.45820 0.31240 -0.05960
C29 C 0.71104(14) 0.48292(10) 0.17788(9)
H19 H 0.82240 0.51680 0.21700
C30 C 0.24559(15) 0.78923(11) 0.68242(10)
C31 C -0.04466(15) 0.77827(11) 0.41388(10)
H20 H -0.07660 0.80710 0.47410
C32 C 0.11613(15) 0.68331(11) 0.60974(9)
H21 H 0.13140 0.61910 0.64220
H22 H 0.00920 0.70100 0.60490
C33 C 0.78062(16) 0.39798(12) 0.0130(1)
H23 H 0.72900 0.33970 -0.05950
H24 H 0.87210 0.37230 0.05760
H25 H 0.81900 0.47240 0.00480
#END
