
#######################################################################
#
#                 Cambridge Crystallographic Data Centre
#                                CCDC
#
#######################################################################
#
# If this CIF has been generated from an entry in the Cambridge
# Structural Database, then it will include bibliographic, chemical,
# crystal, experimental, refinement or atomic coordinate data resulting
# from the CCDC's data processing and validation procedures.
#
#######################################################################

data_CSD_CIF_HEJMEQ
_audit_creation_date 2013-01-14
_audit_creation_method CSD-ConQuest-V1
_database_code_CSD HEJMEQ
_database_code_depnum_ccdc_archive 'CCDC 867269'
_chemical_formula_sum 'C29 H33 N3 O8'
_chemical_formula_moiety
;
C29 H33 N3 O8
;
_journal_coden_Cambridge 1220
_journal_volume 18
_journal_year 2012
_journal_page_first 12624
_journal_name_full 'Chem.-Eur.J. '
loop_
_publ_author_name
"Yingpeng Su"
"M.J.Bouma"
"L.Alcaraz"
"M.Stocks"
"M.Furber"
"G.Masson"
"Jieping Zhu"
_chemical_name_systematic
;
Ethyl 
2-t-butyl-7-ethoxy-3-(4-methoxyphenyl)-8-(4-nitrophenyl)-4-oxo-10-oxa-3,9-diaz
atricyclo[5.2.1.0^1,5^]dec-8-ene-6-carboxylate
;
_cell_volume   1404.068
_exptl_crystal_colour 'pale yellow'
_exptl_crystal_density_diffrn 1.305
_exptl_crystal_description 'block'
_exptl_crystal_preparation 'ethanol'
_diffrn_ambient_temperature 193
#These two values have been output from a single CSD field.
_refine_ls_R_factor_gt 0.0457
_refine_ls_wR_factor_gt 0.0457
_symmetry_cell_setting triclinic
_symmetry_space_group_name_H-M 'P -1'
_symmetry_Int_Tables_number 2
loop_
_symmetry_equiv_pos_site_id
_symmetry_equiv_pos_as_xyz
1 x,y,z
2 -x,-y,-z
_cell_length_a 10.6474(5)
_cell_length_b 11.7412(6)
_cell_length_c 12.1637(8)
_cell_angle_alpha 90.671(6)
_cell_angle_beta 97.151(7)
_cell_angle_gamma 111.197(8)
_cell_formula_units_Z 2
loop_
_atom_type_symbol
_atom_type_radius_bond
C 0.68
H 0.23
N 0.68
O 0.68
loop_
_atom_site_label
_atom_site_type_symbol
_atom_site_fract_x
_atom_site_fract_y
_atom_site_fract_z
O1 O 0.28179(15) 0.24024(14) 0.46859(13)
O2 O 0.26621(16) 0.51450(15) 0.50443(14)
O3 O 0.13905(18) 0.46468(18) 0.64298(15)
O4 O -0.48447(19) -0.0022(2) 0.36232(19)
O5 O -0.3818(2) 0.0975(2) 0.23187(18)
O6 O 0.34176(14) 0.20160(13) 0.65280(12)
O7 O 0.55286(16) 0.49673(14) 0.82890(15)
N1 N -0.3813(2) 0.0626(2) 0.3263(2)
N2 N 0.47105(17) 0.29753(16) 0.87908(15)
N3 N 0.13344(18) 0.16451(16) 0.70954(15)
O8 O 0.97796(18) 0.31723(17) 1.08157(18)
C1 C 0.3206(2) 0.38969(19) 0.63557(19)
H1 H 0.41550 0.43580 0.62060
C2 C 0.2802(2) 0.21733(19) 0.74793(18)
C3 C 0.7903(2) 0.3893(2) 1.0784(2)
H2 H 0.83330 0.44440 1.14140
C4 C 0.8537(2) 0.3175(2) 1.0373(2)
C5 C 0.1240(2) 0.18765(19) 0.60582(18)
C6 C 0.3509(2) 0.18227(19) 0.85192(18)
H3 H 0.38380 0.11700 0.82920
C7 C 0.3229(2) 0.35838(19) 0.75711(17)
H4 H 0.25890 0.38480 0.79500
C8 C 0.2315(2) 0.4602(2) 0.59772(19)
C9 C 0.5997(2) 0.30099(19) 0.93525(18)
C10 C -0.0050(2) 0.1586(2) 0.53303(19)
C11 C -0.2511(2) 0.0977(2) 0.3990(2)
C12 C 0.2669(2) 0.1365(2) 0.94788(19)
C13 C 0.4626(2) 0.3965(2) 0.82487(19)
C14 C -0.0106(2) 0.1993(2) 0.4264(2)
H5 H 0.07090 0.24870 0.40000
C15 C 0.6631(2) 0.2285(2) 0.8942(2)
H6 H 0.61990 0.17340 0.83120
C16 C 0.7898(2) 0.2370(2) 0.9457(2)
H7 H 0.83340 0.18710 0.91800
C17 C -0.1258(2) 0.0874(2) 0.5712(2)
H8 H -0.12300 0.05990 0.64430
C18 C 0.2678(2) 0.2555(2) 0.57769(18)
C19 C 0.6633(2) 0.3803(2) 1.0268(2)
H9 H 0.61930 0.42950 1.05510
C20 C 0.3600(3) 0.1167(3) 1.0466(2)
H10 H 0.42810 0.19580 1.07640
H11 H 0.40580 0.06400 1.02190
H12 H 0.30540 0.07750 1.10450
C21 C -0.2487(2) 0.0566(2) 0.5044(2)
H13 H -0.33060 0.00780 0.53050
C22 C 0.1551(3) 0.0122(2) 0.9103(2)
H14 H 0.10380 -0.02010 0.97180
H15 H 0.19650 -0.04500 0.88770
H16 H 0.09360 0.02210 0.84740
C23 C 1.0613(3) 0.4138(3) 1.1592(2)
H17 H 1.07080 0.49240 1.12780
H18 H 1.15130 0.40820 1.17620
H19 H 1.01970 0.40750 1.22750
C24 C -0.1348(2) 0.1685(2) 0.3578(2)
H20 H -0.13890 0.19560 0.28470
C25 C 0.4129(3) 0.2566(3) 0.3223(2)
H21 H 0.37760 0.16710 0.31180
H22 H 0.50500 0.28990 0.30220
H23 H 0.35360 0.28890 0.27500
C26 C 0.2052(3) 0.2274(2) 0.9848(2)
H24 H 0.15800 0.19750 1.04890
H25 H 0.14040 0.23570 0.92370
H26 H 0.27770 0.30720 1.00540
C27 C 0.1816(3) 0.5790(2) 0.4540(2)
H27 H 0.17270 0.63670 0.50980
H28 H 0.08960 0.51990 0.42550
C28 C 0.2481(3) 0.6472(3) 0.3608(2)
H29 H 0.33300 0.71360 0.39100
H30 H 0.18690 0.68160 0.31890
H31 H 0.26790 0.59120 0.31150
C29 C 0.4163(3) 0.2924(3) 0.4396(2)
H32 H 0.47860 0.26260 0.48770
H33 H 0.44990 0.38270 0.45050
#END
