
#######################################################################
#
#                 Cambridge Crystallographic Data Centre
#                                CCDC
#
#######################################################################
#
# If this CIF has been generated from an entry in the Cambridge
# Structural Database, then it will include bibliographic, chemical,
# crystal, experimental, refinement or atomic coordinate data resulting
# from the CCDC's data processing and validation procedures.
#
#######################################################################

data_CSD_CIF_HEJYEC
_audit_creation_date 2013-01-14
_audit_creation_method CSD-ConQuest-V1
_database_code_CSD HEJYEC
_database_code_depnum_ccdc_archive 'CCDC 882859'
_chemical_formula_sum 'C30 H20 N2 O3'
_chemical_formula_moiety
;
C30 H20 N2 O3
;
_journal_coden_Cambridge 1220
_journal_volume 18
_journal_year 2012
_journal_page_first 12873
_journal_name_full 'Chem.-Eur.J. '
loop_
_publ_author_name
"Bin Li"
"Huiliang Feng"
"Nuancheng Wang"
"Jianfeng Ma"
"Haibin Song"
"Shansheng Xu"
"Baiquan Wang"
_chemical_name_systematic
;
5-Methyl-11-nitro-6,13-diphenyl-8H-isoquinolino[3,2-a]isoquinolin-8-one
;
_cell_volume   1120.539
_exptl_crystal_colour 'colorless'
_exptl_crystal_density_diffrn 1.353
_exptl_crystal_description 'prism'
_diffrn_ambient_temperature 113
#These two values have been output from a single CSD field.
_refine_ls_R_factor_gt 0.0357
_refine_ls_wR_factor_gt 0.0357
_symmetry_cell_setting triclinic
_symmetry_space_group_name_H-M 'P -1'
_symmetry_Int_Tables_number 2
loop_
_symmetry_equiv_pos_site_id
_symmetry_equiv_pos_as_xyz
1 x,y,z
2 -x,-y,-z
_cell_length_a 9.454(11)
_cell_length_b 10.684(12)
_cell_length_c 12.421(14)
_cell_angle_alpha 96.084(13)
_cell_angle_beta 108.967(16)
_cell_angle_gamma 105.061(14)
_cell_formula_units_Z 2
loop_
_atom_type_symbol
_atom_type_radius_bond
C 0.68
H 0.23
N 0.68
O 0.68
loop_
_atom_site_label
_atom_site_type_symbol
_atom_site_fract_x
_atom_site_fract_y
_atom_site_fract_z
O1 O -0.04162(11) 0.56879(9) -0.13216(8)
O2 O 0.05659(11) 0.41196(9) -0.16213(9)
O3 O 0.73831(9) 0.75117(8) 0.31357(7)
N1 N 0.06632(12) 0.5199(1) -0.10905(9)
N2 N 0.63594(11) 0.92429(10) 0.32907(9)
C1 C 0.21539(14) 0.59457(12) -0.01163(11)
C2 C 0.32223(15) 0.52685(13) 0.03333(11)
H1 H 0.30180 0.43630 0.00140
C3 C 0.45820(15) 0.59722(13) 0.12583(12)
H2 H 0.53260 0.55400 0.15980
C4 C 0.48904(13) 0.73225(12) 0.17110(11)
C5 C 0.63253(14) 0.79916(12) 0.27377(11)
C6 C 0.72160(13) 0.96912(12) 0.45245(11)
C7 C 0.76445(13) 1.09889(12) 0.50261(11)
C8 C 0.73792(13) 1.19463(12) 0.42813(11)
C9 C 0.81017(14) 1.33265(13) 0.47213(12)
H3 H 0.87170 1.36440 0.55270
C10 C 0.79276(14) 1.42219(13) 0.39989(12)
H4 H 0.84090 1.51460 0.43090
C11 C 0.70413(14) 1.37582(12) 0.28138(11)
H5 H 0.69700 1.43670 0.23090
C12 C 0.62604(14) 1.24136(12) 0.23634(11)
H6 H 0.56420 1.21150 0.15560
C13 C 0.63765(13) 1.14876(12) 0.30926(11)
C14 C 0.55688(13) 1.00429(12) 0.26356(10)
C15 C 0.42553(13) 0.94403(11) 0.16415(10)
C16 C 0.38279(13) 0.80100(12) 0.12194(10)
C17 C 0.24054(13) 0.72666(12) 0.02977(11)
H7 H 0.16300 0.76730 -0.00330
C18 C 0.73612(14) 0.86096(12) 0.51856(10)
C19 C 0.59928(14) 0.76771(12) 0.51501(11)
H8 H 0.49940 0.77430 0.47120
C20 C 0.60749(15) 0.66517(13) 0.57488(11)
H9 H 0.51380 0.60330 0.57310
C21 C 0.75374(16) 0.65375(13) 0.63733(11)
H10 H 0.75990 0.58230 0.67630
C22 C 0.89116(16) 0.74728(14) 0.64263(11)
H11 H 0.99090 0.74030 0.68640
C23 C 0.88262(14) 0.85053(13) 0.58424(11)
H12 H 0.97660 0.91440 0.58890
C24 C 0.84243(15) 1.14878(13) 0.63351(11)
H13 H 0.83250 1.07340 0.67220
H14 H 0.79100 1.20830 0.65910
H15 H 0.95410 1.19690 0.65380
C25 C 0.32485(13) 1.01728(11) 0.09485(11)
C26 C 0.25667(13) 1.09557(11) 0.14679(11)
H16 H 0.27580 1.10400 0.22760
C27 C 0.16104(14) 1.16121(12) 0.08105(11)
H17 H 0.11690 1.21490 0.11760
C28 C 0.12990(14) 1.14856(12) -0.03762(11)
H18 H 0.06460 1.19330 -0.08210
C29 C 0.19536(14) 1.06946(12) -0.09094(11)
H19 H 0.17340 1.05950 -0.17220
C30 C 0.29236(13) 1.00546(12) -0.02560(11)
H20 H 0.33750 0.95300 -0.06250
#END
