
#######################################################################
#
#                 Cambridge Crystallographic Data Centre
#                                CCDC
#
#######################################################################
#
# If this CIF has been generated from an entry in the Cambridge
# Structural Database, then it will include bibliographic, chemical,
# crystal, experimental, refinement or atomic coordinate data resulting
# from the CCDC's data processing and validation procedures.
#
#######################################################################

data_CSD_CIF_HEKBAA
_audit_creation_date 1995-01-18
_audit_creation_method CSD-ConQuest-V1
_database_code_CSD HEKBAA
_database_code_depnum_ccdc_archive 'CCDC 1174177'
_chemical_formula_sum 'C15 H12 N2 O3'
_chemical_formula_moiety
;
C15 H12 N2 O3
;
_journal_coden_Cambridge 34
_journal_volume 31
_journal_year 1994
_journal_page_first 121
_journal_name_full 'J.Heterocycl.Chem. '
loop_
_publ_author_name
"Ji-Ben Meng"
"Da-Ming Du"
"Guo-Xiang Xiong"
"Wen-Guang Wang"
"Yong-Mei Wang"
"H.Koshima"
"T.Matsuura"
_chemical_name_systematic
;
2-Nitrophenyl-(3-indolyl)methanol
;
_chemical_melting_point 469.15
_cell_volume   1297.619
_exptl_crystal_colour 'colorless'
_exptl_crystal_density_diffrn 1.37
_exptl_special_details
;
Melting point range 469.15-471.15K

;
_diffrn_ambient_temperature ?
_diffrn_special_details
;
The study was carried out at room temperature,in the range 283-303K

;
#These two values have been output from a single CSD field.
_refine_ls_R_factor_gt 0.062
_refine_ls_wR_factor_gt 0.062
_symmetry_cell_setting orthorhombic
_symmetry_space_group_name_H-M 'P 21 21 21'
_symmetry_Int_Tables_number 19
loop_
_symmetry_equiv_pos_site_id
_symmetry_equiv_pos_as_xyz
1 x,y,z
2 1/2+x,1/2-y,-z
3 -x,1/2+y,1/2-z
4 1/2-x,-y,1/2+z
_cell_length_a 8.523(3)
_cell_length_b 11.122(2)
_cell_length_c 13.689(2)
_cell_angle_alpha 90
_cell_angle_beta 90
_cell_angle_gamma 90
_cell_formula_units_Z 4
loop_
_atom_type_symbol
_atom_type_radius_bond
C 0.68
H 0.23
N 0.68
O 0.68
loop_
_atom_site_label
_atom_site_type_symbol
_atom_site_fract_x
_atom_site_fract_y
_atom_site_fract_z
O1 O 0.2982(5) -0.0179(5) 0.4690(4)
O2 O 0.747(1) -0.2822(9) 0.4191(8)
O3 O 0.770(1) -0.134(1) 0.4995(6)
N1 N 0.6064(6) 0.3029(6) 0.5151(4)
N2 N 0.7298(9) -0.1746(7) 0.4316(6)
C1 C 0.5249(8) 0.2874(7) 0.5986(5)
C2 C 0.4955(9) 0.3623(7) 0.6759(6)
C3 C 0.4054(9) 0.3253(8) 0.7520(6)
C4 C 0.3443(9) 0.2074(8) 0.7519(5)
C5 C 0.3725(8) 0.1291(7) 0.6761(5)
C6 C 0.4635(8) 0.1698(7) 0.5970(5)
C7 C 0.5097(7) 0.1143(6) 0.5061(5)
C8 C 0.6003(8) 0.2004(8) 0.4633(5)
C9 C 0.4641(8) -0.0051(7) 0.4712(6)
C10 C 0.5343(8) -0.0309(7) 0.3702(5)
C11 C 0.4711(8) 0.0263(8) 0.2906(6)
C12 C 0.522(1) 0.0034(9) 0.1963(6)
C13 C 0.645(1) -0.0812(9) 0.1826(6)
C14 C 0.710(1) -0.1388(8) 0.2579(6)
C15 C 0.6523(9) -0.1149(7) 0.3521(6)
H1 H 0.27700 -0.10900 0.48000
H2 H 0.69300 0.38900 0.50000
#END
