
#######################################################################
#
#                 Cambridge Crystallographic Data Centre
#                                CCDC
#
#######################################################################
#
# If this CIF has been generated from an entry in the Cambridge
# Structural Database, then it will include bibliographic, chemical,
# crystal, experimental, refinement or atomic coordinate data resulting
# from the CCDC's data processing and validation procedures.
#
#######################################################################

data_CSD_CIF_HEKSEV
_audit_creation_date 1995-01-12
_audit_creation_method CSD-ConQuest-V1
_database_code_CSD HEKSEV
_chemical_formula_sum 'C15 H13 N1 O4'
_chemical_formula_moiety
;
C15 H13 N1 O4
;
_journal_coeditor_code "IUCr HA1084"
_journal_coden_Cambridge 591
_journal_volume 50
_journal_year 1994
_journal_page_first 1294
_journal_name_full 'Acta Crystallogr.,Sect.C:Cryst.Struct.Commun. '
loop_
_publ_author_name
"K.Chandra Mohan"
"K.Ravikumar"
"T.V.S.K.Vittal"
"C.K.Gido"
_chemical_name_systematic
;
2-(3-Benzyloxy-4-nitrophenyl)oxirane
;
_cell_volume   5390.411
_exptl_crystal_colour 'White'
_exptl_crystal_density_diffrn 1.337
_diffrn_ambient_temperature ?
_diffrn_special_details
;
The study was carried out at room temperature,in the range 283-303K

;
#These two values have been output from a single CSD field.
_refine_ls_R_factor_gt 0.05
_refine_ls_wR_factor_gt 0.05
_symmetry_cell_setting tetragonal
_symmetry_space_group_name_H-M 'I 41/a'
_symmetry_Int_Tables_number 88
loop_
_symmetry_equiv_pos_site_id
_symmetry_equiv_pos_as_xyz
1 x,y,z
2 1/2+x,1/2+y,1/2+z
3 3/4-y,1/4+x,1/4+z
4 1/4-y,3/4+x,3/4+z
5 1/2-x,-y,1/2+z
6 -x,1/2-y,z
7 3/4+y,3/4-x,3/4+z
8 1/4+y,1/4-x,1/4+z
9 -x,-y,-z
10 -1/2-x,-1/2-y,-1/2-z
11 -3/4+y,-1/4-x,-1/4-z
12 -1/4+y,-3/4-x,-3/4-z
13 -1/2+x,y,-1/2-z
14 x,-1/2+y,-z
15 -3/4-y,-3/4+x,-3/4-z
16 -1/4-y,-1/4+x,-1/4-z
_cell_length_a 19.531(3)
_cell_length_b 19.531(3)
_cell_length_c 14.131(3)
_cell_angle_alpha 90
_cell_angle_beta 90
_cell_angle_gamma 90
_cell_formula_units_Z 16
loop_
_atom_type_symbol
_atom_type_radius_bond
C 0.68
H 0.23
N 0.68
O 0.68
loop_
_atom_site_label
_atom_site_type_symbol
_atom_site_fract_x
_atom_site_fract_y
_atom_site_fract_z
O1 O 0.1200(3) 0.7612(3) 0.5601(3)
O2 O 0.3122(3) 0.5873(3) 0.2914(3)
O3 O 0.2439(3) 0.5670(3) 0.1758(4)
O4 O 0.1773(2) 0.6774(2) 0.1230(3)
N1 N 0.2601(3) 0.5996(3) 0.2458(4)
C1 C 0.1802(3) 0.8020(3) 0.5560(4)
C2 C 0.1800(3) 0.7336(4) 0.5183(4)
C3 C 0.1779(3) 0.7207(3) 0.4129(4)
C4 C 0.1368(3) 0.7593(3) 0.3523(4)
C5 C 0.1345(3) 0.7457(3) 0.2554(4)
C6 C 0.1740(3) 0.6936(3) 0.2163(4)
C7 C 0.2154(3) 0.6557(3) 0.2782(4)
C8 C 0.2173(3) 0.6690(3) 0.3755(4)
C9 C 0.1329(3) 0.7141(3) 0.0581(4)
C10 C 0.1449(3) 0.6837(3) -0.0398(4)
C11 C 0.1360(4) 0.7249(4) -0.1179(4)
C12 C 0.1451(4) 0.6987(3) -0.2079(4)
C13 C 0.1638(3) 0.6313(3) -0.2205(4)
C14 C 0.1736(3) 0.5887(3) -0.1433(4)
C15 C 0.1625(3) 0.6158(3) -0.0515(4)
H1 H 0.20395(34) 0.81029(32) 0.61437(43)
H2 H 0.18159(34) 0.83896(32) 0.51129(43)
H3 H 0.20327(33) 0.69962(37) 0.55533(42)
H4 H 0.10944(33) 0.79541(33) 0.37856(44)
H5 H 0.10560(32) 0.77256(32) 0.21498(45)
H6 H 0.24583(31) 0.64186(33) 0.41612(44)
H7 H 0.14361(33) 0.76204(33) 0.05793(42)
H8 H 0.08591(33) 0.70819(33) 0.07610(42)
H9 H 0.12316(38) 0.77184(38) -0.10883(40)
H10 H 0.13826(41) 0.72741(35) -0.26223(43)
H11 H 0.17040(34) 0.61350(32) -0.28315(42)
H12 H 0.18789(33) 0.54211(34) -0.15178(43)
H13 H 0.16663(34) 0.58677(33) 0.00295(42)
#END
