
#######################################################################
#
#                 Cambridge Crystallographic Data Centre
#                                CCDC
#
#######################################################################
#
# If this CIF has been generated from an entry in the Cambridge
# Structural Database, then it will include bibliographic, chemical,
# crystal, experimental, refinement or atomic coordinate data resulting
# from the CCDC's data processing and validation procedures.
#
#######################################################################

data_CSD_CIF_HEKSOI
_audit_creation_date 2017-09-23
_audit_creation_method CSD-ConQuest-V1
_database_code_CSD HEKSOI
_database_code_depnum_ccdc_archive 'CCDC 1559427'
_chemical_formula_sum 'C28 H39 N3 O3'
_chemical_formula_moiety
;
C28 H39 N3 O3
;
_journal_coden_Cambridge 24
_journal_volume 58
_journal_year 2017
_journal_page_first 4232
_journal_name_full 'Tetrahedron Lett. '
loop_
_publ_author_name
"A.Seki"
_chemical_name_systematic
;
N-[3-(4-nitrophenyl)cyclohexadecyl]pyridine-2-carboxamide
;
_cell_volume   1257.841
_exptl_crystal_colour 'colorless'
_exptl_crystal_density_diffrn 1.229
_exptl_crystal_description 'needle'
_diffrn_ambient_temperature 93
#These two values have been output from a single CSD field.
_refine_ls_R_factor_gt 0.0714
_refine_ls_wR_factor_gt 0.0714
_symmetry_cell_setting triclinic
_symmetry_space_group_name_H-M 'P -1'
_symmetry_Int_Tables_number 2
loop_
_symmetry_equiv_pos_site_id
_symmetry_equiv_pos_as_xyz
1 x,y,z
2 -x,-y,-z
_cell_length_a 5.9012(3)
_cell_length_b 9.2231(4)
_cell_length_c 23.3561(12)
_cell_angle_alpha 96.052(7)
_cell_angle_beta 90.806(6)
_cell_angle_gamma 95.541(7)
_cell_formula_units_Z 2
loop_
_atom_type_symbol
_atom_type_radius_bond
C 0.68
H 0.23
N 0.68
O 0.68
loop_
_atom_site_label
_atom_site_type_symbol
_atom_site_fract_x
_atom_site_fract_y
_atom_site_fract_z
O1 O 1.4756(3) 1.1537(2) 0.27221(8)
O2 O 1.4094(4) 1.1743(2) 0.50768(9)
O3 O 1.0802(4) 1.2559(3) 0.52000(9)
N1 N 1.1045(4) 1.1774(3) 0.25353(10)
N2 N 1.1002(4) 1.3939(3) 0.33979(10)
N3 N 1.2084(4) 1.1793(3) 0.49319(10)
C1 C 1.3002(5) 1.2122(3) 0.28355(12)
C2 C 1.2936(5) 1.3295(3) 0.33327(12)
C3 C 0.9118(5) 1.1116(3) 0.41863(12)
C4 C 1.4846(5) 1.3684(3) 0.36834(12)
C5 C 1.1849(5) 0.9197(3) 0.35982(13)
C6 C 1.2596(5) 0.9933(3) 0.41242(12)
C7 C 0.8414(5) 1.0382(3) 0.36556(12)
C8 C 0.9774(5) 0.9455(3) 0.33481(12)
C9 C 1.4756(5) 1.4760(3) 0.41390(13)
C10 C 1.0963(5) 1.4985(3) 0.38340(13)
C11 C 1.2786(5) 1.5430(3) 0.42133(13)
C12 C 0.8336(5) 0.9723(4) 0.11549(13)
C13 C 1.0759(5) 1.0597(3) 0.20583(13)
C14 C 0.9037(5) 0.8756(3) 0.27481(12)
C15 C 0.5912(5) 0.9439(4) 0.09213(13)
C16 C 1.0818(5) 0.9099(3) 0.22964(12)
C17 C 0.8633(5) 1.0752(3) 0.17104(12)
C18 C 0.4878(5) 0.4192(4) 0.16523(14)
C19 C 0.5646(5) 0.8343(4) 0.03896(13)
C20 C 0.8379(6) 0.7130(3) 0.27407(13)
C21 C 0.7059(6) 0.6427(3) 0.21943(14)
C22 C 0.2640(5) 0.5276(3) 0.05264(14)
C23 C 0.3167(5) 0.7811(4) 0.02000(14)
C24 C 0.1552(5) 0.4308(4) 0.09674(15)
C25 C 0.1950(5) 0.6806(4) 0.05868(15)
C26 C 0.2537(6) 0.4683(4) 0.15730(15)
C27 C 0.6165(6) 0.4874(4) 0.22110(15)
C28 C 1.1228(5) 1.0903(3) 0.44034(11)
H1 H 0.98794 1.22714 0.26277
H2 H 0.81690 1.17483 0.43950
H3 H 1.61989 1.32201 0.36128
H4 H 1.27525 0.85092 0.34047
H5 H 1.40191 0.97750 0.42897
H6 H 0.69645 1.05200 0.34997
H7 H 1.60284 1.50306 0.43949
H8 H 0.96069 1.54546 0.38890
H9 H 1.26735 1.61833 0.45188
H10 H 0.93034 1.01438 0.08585
H11 H 0.88903 0.87755 0.12237
H12 H 1.20887 1.07279 0.18016
H13 H 0.76351 0.92023 0.26400
H14 H 0.49232 0.90725 0.12244
H15 H 0.53862 1.03754 0.08274
H16 H 1.06058 0.83191 0.19694
H17 H 1.23493 0.90577 0.24690
H18 H 0.86744 1.17742 0.16146
H19 H 0.72903 1.05658 0.19511
H20 H 0.58063 0.44378 0.13197
H21 H 0.47289 0.31124 0.16488
H22 H 0.64422 0.74810 0.04624
H23 H 0.64124 0.87915 0.00676
H24 H 0.74350 0.69597 0.30788
H25 H 0.97796 0.66341 0.27803
H26 H 0.57662 0.70024 0.21283
H27 H 0.80748 0.64904 0.18621
H28 H 0.43173 0.53227 0.05697
H29 H 0.22113 0.48092 0.01336
H30 H 0.23072 0.86760 0.01829
H31 H 0.31630 0.72948 -0.01938
H32 H -0.01043 0.44047 0.09739
H33 H 0.17528 0.32712 0.08390
H34 H 0.22303 0.72329 0.09914
H35 H 0.02922 0.67601 0.05050
H36 H 0.26181 0.57570 0.16726
H37 H 0.14935 0.42205 0.18445
H38 H 0.51242 0.48075 0.25380
H39 H 0.74510 0.42957 0.22811
#END
