
#######################################################################
#
#                 Cambridge Crystallographic Data Centre
#                                CCDC
#
#######################################################################
#
# If this CIF has been generated from an entry in the Cambridge
# Structural Database, then it will include bibliographic, chemical,
# crystal, experimental, refinement or atomic coordinate data resulting
# from the CCDC's data processing and validation procedures.
#
#######################################################################

data_CSD_CIF_HEMVAW
_audit_creation_date 1995-02-08
_audit_creation_method CSD-ConQuest-V1
_database_code_CSD HEMVAW
_chemical_formula_sum 'C20 H30 N2 O6'
_chemical_formula_moiety
;
C20 H30 N2 O6
;
_journal_coden_Cambridge 35
_journal_volume 59
_journal_year 1994
_journal_page_first 3281
_journal_name_full 'J.Org.Chem. '
loop_
_publ_author_name
"S.Martina"
"S.A.MacDonald"
"V.Enkelmann"
_chemical_name_systematic
;
1-((1-(4,5-Dimethoxy-2-nitrophenyl)ethoxy)carbonyl)-2,2,6,6-tetramethylpiperid
ine
;
_chemical_melting_point 396.15
_cell_volume   2098.490
_exptl_crystal_colour 'pale yellow'
_exptl_crystal_density_diffrn 1.249
_diffrn_ambient_temperature ?
_diffrn_special_details
;
The study was carried out at room temperature,in the range 283-303K

;
_refine_special_details
;
The piperidine ring is present in two different conformations.

;
#These two values have been output from a single CSD field.
_refine_ls_R_factor_gt 0.057
_refine_ls_wR_factor_gt 0.057
_symmetry_cell_setting monoclinic
_symmetry_space_group_name_H-M 'P 21/c'
_symmetry_Int_Tables_number 14
loop_
_symmetry_equiv_pos_site_id
_symmetry_equiv_pos_as_xyz
1 x,y,z
2 -x,1/2+y,1/2-z
3 -x,-y,-z
4 x,-1/2-y,-1/2+z
_cell_length_a 10.6850(6)
_cell_length_b 15.2669(8)
_cell_length_c 13.2692(9)
_cell_angle_alpha 90
_cell_angle_beta 104.193(4)
_cell_angle_gamma 90
_cell_formula_units_Z 4
loop_
_atom_type_symbol
_atom_type_radius_bond
C 0.68
H 0.23
N 0.68
O 0.68
loop_
_atom_site_label
_atom_site_type_symbol
_atom_site_fract_x
_atom_site_fract_y
_atom_site_fract_z
O1 O 0.6827(3) 0.2450(2) 0.5150(2)
O2 O 0.7264(3) 0.4110(2) 0.5363(2)
O3 O 0.3927(3) 0.4507(2) 0.1163(2)
O4 O 0.4131(3) 0.5480(2) 0.2367(3)
O5 O 0.2747(2) 0.2202(2) 0.2296(2)
O6 O 0.1780(3) 0.3344(2) 0.2835(3)
N1 N 0.4259(3) 0.4734(2) 0.2081(3)
N2 N 0.1139(3) 0.1954(2) 0.3101(3)
C1 C 0.4549(3) 0.3206(2) 0.2748(3)
C2 C 0.6142(3) 0.2957(2) 0.4373(3)
C3 C 0.6383(4) 0.3858(3) 0.4484(3)
C4 C 0.4861(3) 0.4085(2) 0.2859(3)
C5 C 0.3491(4) 0.2823(3) 0.1862(3)
H1 H 0.2997(5) 0.3300(4) 0.1515(3)
C6 C 0.1859(4) 0.2559(3) 0.2758(3)
C7 C -0.0061(4) 0.2307(3) 0.3384(4)
C8 C 0.1362(4) 0.0992(3) 0.3013(3)
C9 C 0.5231(3) 0.2653(3) 0.3530(3)
H2 H 0.5049(3) 0.2043(3) 0.3482(3)
C10 C 0.5756(4) 0.4417(3) 0.3728(3)
H3 H 0.5913(4) 0.5030(3) 0.3793(3)
C11 C 0.0632(5) 0.0472(4) 0.3673(5)
H4 H 0.1080(5) 0.0549(4) 0.4380(5)
H5 H 0.0655(5) -0.0128(4) 0.3490(5)
C12 C 0.6628(4) 0.1524(3) 0.5082(3)
H6 H 0.7165(4) 0.1249(3) 0.5674(3)
H7 H 0.5749(4) 0.1403(3) 0.5058(3)
H8 H 0.6830(4) 0.1306(3) 0.4471(3)
C13 C 0.7431(4) 0.5030(3) 0.5542(3)
H9 H 0.8059(4) 0.5128(3) 0.6176(3)
H10 H 0.7712(4) 0.5291(3) 0.4986(3)
H11 H 0.6633(4) 0.5283(3) 0.5584(3)
C14 C 0.4064(4) 0.2288(3) 0.1108(3)
H12 H 0.3390(4) 0.2061(3) 0.0566(3)
H13 H 0.4607(4) 0.2654(3) 0.0820(3)
H14 H 0.4557(4) 0.1817(3) 0.1474(3)
C15 C 0.2807(5) 0.0756(4) 0.3451(5)
H15 H 0.2929(5) 0.0144(4) 0.3386(5)
H16 H 0.3315(5) 0.1065(4) 0.3073(5)
H17 H 0.3062(5) 0.0918(4) 0.4163(5)
C16 C 0.0926(6) 0.0711(4) 0.1876(4)
H18 H 0.1078(6) 0.0102(4) 0.1825(4)
H19 H 0.0032(6) 0.0828(4) 0.1618(4)
H20 H 0.1403(6) 0.1027(4) 0.1479(4)
C17 C -0.0718(5) 0.0723(4) 0.3593(5)
H21 H -0.0866(5) 0.0725(4) 0.4270(5)
H22 H -0.1241(5) 0.0287(4) 0.3183(5)
H23? H -0.1118(5) 0.0333(4) 0.3977(5)
H24? H -0.1184(5) 0.0720(4) 0.2884(5)
C18 C -0.1091(9) 0.1548(7) 0.3096(9)
H25 H -0.1330(9) 0.1473(7) 0.2363(9)
H26 H -0.1819(9) 0.1738(7) 0.3329(9)
C19? C -0.063(1) 0.1632(7) 0.4036(9)
H27? H -0.147(1) 0.1821(7) 0.4039(9)
H28? H -0.011(1) 0.1621(7) 0.4728(9)
C20 C -0.068(2) 0.299(1) 0.256(2)
H29 H -0.143(2) 0.322(1) 0.273(2)
H30 H -0.009(2) 0.346(1) 0.255(2)
H31 H -0.092(2) 0.274(1) 0.188(2)
C21 C 0.023(2) 0.264(1) 0.445(1)
H32 H -0.051(2) 0.287(1) 0.463(1)
H33 H 0.059(2) 0.218(1) 0.491(1)
H34 H 0.086(2) 0.309(1) 0.450(1)
C22? C 0.037(2) 0.308(1) 0.422(1)
H35? H -0.037(2) 0.331(1) 0.440(1)
H36? H 0.096(2) 0.286(1) 0.482(1)
H37? H 0.078(2) 0.354(1) 0.393(1)
C23? C -0.103(2) 0.268(1) 0.251(2)
H38? H -0.176(2) 0.290(1) 0.272(2)
H39? H -0.063(2) 0.315(1) 0.222(2)
H40? H -0.130(2) 0.224(1) 0.200(2)
#END
