
#######################################################################
#
#                 Cambridge Crystallographic Data Centre
#                                CCDC
#
#######################################################################
#
# If this CIF has been generated from an entry in the Cambridge
# Structural Database, then it will include bibliographic, chemical,
# crystal, experimental, refinement or atomic coordinate data resulting
# from the CCDC's data processing and validation procedures.
#
#######################################################################

data_CSD_CIF_HENCEJ
_audit_creation_date 2007-01-12
_audit_creation_method CSD-ConQuest-V1
_database_code_CSD HENCEJ
_database_code_depnum_ccdc_archive 'CCDC 286564'
_chemical_formula_sum 'C10 H15 N3 O3'
_chemical_formula_moiety
;
C10 H15 N3 O3
;
_journal_coden_Cambridge 1277
_journal_volume 110
_journal_year 2006
_journal_page_first 10690
_journal_name_full 'J.Phys.Chem.A '
loop_
_publ_author_name
"A.Szemik-Hojniak"
"I.Deperasinska"
"L.Jerzykiewicz"
"P.Sobota"
"M.Hojniak"
"A.Puszko"
"N.Heraszkiewicz"
"G.van der Zwan"
"P.Jacques"
_chemical_name_systematic
;
2-Butylamino-4-nitro-6-methylpyridine N-oxide
;
_cell_volume    550.187
_exptl_crystal_colour 'orange'
_exptl_crystal_density_diffrn 1.36
_exptl_crystal_description 'needles'
_exptl_crystal_preparation 'methanol/water'
_diffrn_ambient_temperature 100
#These two values have been output from a single CSD field.
_refine_ls_R_factor_gt 0.0455
_refine_ls_wR_factor_gt 0.0455
_symmetry_cell_setting triclinic
_symmetry_space_group_name_H-M 'P -1'
_symmetry_Int_Tables_number 2
loop_
_symmetry_equiv_pos_site_id
_symmetry_equiv_pos_as_xyz
1 x,y,z
2 -x,-y,-z
_cell_length_a 4.525(3)
_cell_length_b 10.096(4)
_cell_length_c 12.343(4)
_cell_angle_alpha 77.72(4)
_cell_angle_beta 87.06(4)
_cell_angle_gamma 88.49(4)
_cell_formula_units_Z 2
loop_
_atom_type_symbol
_atom_type_radius_bond
C 0.68
H 0.23
N 0.68
O 0.68
loop_
_atom_site_label
_atom_site_type_symbol
_atom_site_fract_x
_atom_site_fract_y
_atom_site_fract_z
O1 O 0.5181(2) 0.15428(10) -0.48705(8)
O2 O 0.2449(2) 0.10054(11) 0.01488(9)
O3 O 0.5999(3) 0.24497(12) -0.01165(9)
N1 N 0.5019(3) 0.15809(12) -0.38108(9)
N2 N 0.4322(3) 0.17062(13) -0.04467(10)
N3 N 0.1632(3) -0.01140(13) -0.36262(11)
C1 C 0.3126(3) 0.06880(14) -0.31206(12)
C2 C 0.2898(3) 0.07273(14) -0.19912(12)
H1 H 0.16260 0.01290 -0.14890
C3 C 0.4555(3) 0.16497(15) -0.16286(12)
C4 C 0.6445(3) 0.25353(15) -0.23267(12)
H2 H 0.75790 0.31570 -0.20480
C5 C 0.6644(3) 0.24943(15) -0.34364(12)
C6 C 0.8530(4) 0.34002(16) -0.42918(13)
H3 H 0.72790 0.39330 -0.48560
H4 H 0.99460 0.28510 -0.46430
H5 H 0.96070 0.40130 -0.39400
C7 C -0.0165(3) -0.12312(15) -0.30218(12)
H6 H -0.15770 -0.14770 -0.35310
H7 H -0.13290 -0.09280 -0.24160
C8 C 0.1660(3) -0.24850(15) -0.25285(12)
H8 H 0.28120 -0.27960 -0.31340
H9 H 0.30810 -0.22410 -0.20220
C9 C -0.0250(3) -0.36383(15) -0.18929(13)
H10 H -0.16770 -0.38800 -0.23980
H11 H -0.13950 -0.33290 -0.12850
C10 C 0.1581(4) -0.48920(16) -0.14053(14)
H12 H 0.02680 -0.55980 -0.09880
H13 H 0.30050 -0.46570 -0.09070
H14 H 0.26460 -0.52280 -0.20070
H15 H 0.238(4) -0.0167(18) -0.4246(17)
#END
