
#######################################################################
#
#                 Cambridge Crystallographic Data Centre
#                                CCDC
#
#######################################################################
#
# If this CIF has been generated from an entry in the Cambridge
# Structural Database, then it will include bibliographic, chemical,
# crystal, experimental, refinement or atomic coordinate data resulting
# from the CCDC's data processing and validation procedures.
#
#######################################################################

data_CSD_CIF_HENKIU
_audit_creation_date 1995-02-08
_audit_creation_method CSD-ConQuest-V1
_database_code_CSD HENKIU
_database_code_depnum_ccdc_archive 'CCDC 1174523'
_chemical_formula_sum 'C11 H11 N3 O4'
_chemical_formula_moiety
;
C11 H11 N3 O4
;
_journal_coden_Cambridge 440
_journal_volume 18
_journal_year 1994
_journal_page_first 251
_journal_name_full 'New J.Chem. '
loop_
_publ_author_name
"V.Bertolasi"
"L.Nanni"
"P.Gilli"
"V.Ferretti"
"G.Gilli"
"Y.M.Issa"
"O.E.Sherif"
_chemical_name_systematic
;
1,3-Dimethylpropane-1,2,3-trione 2-(4-nitrophenylhydrazone)
;
_cell_volume   1139.480
_exptl_special_details
;
Fw and dx given as 237.1 and 1.38, respectively for formula including C10; we 
find 249.23 and 1.45 to include C11
;
_diffrn_ambient_temperature ?
_diffrn_special_details
;
The study was carried out at room temperature,in the range 283-303K

;
#These two values have been output from a single CSD field.
_refine_ls_R_factor_gt 0.041
_refine_ls_wR_factor_gt 0.041
_symmetry_cell_setting monoclinic
_symmetry_space_group_name_H-M 'P 21/n'
_symmetry_Int_Tables_number 14
loop_
_symmetry_equiv_pos_site_id
_symmetry_equiv_pos_as_xyz
1 x,y,z
2 1/2-x,1/2+y,1/2-z
3 -x,-y,-z
4 -1/2+x,-1/2-y,-1/2+z
_cell_length_a 7.024(2)
_cell_length_b 12.834(4)
_cell_length_c 12.756(2)
_cell_angle_alpha 90
_cell_angle_beta 97.72(2)
_cell_angle_gamma 90
_cell_formula_units_Z 4
loop_
_atom_type_symbol
_atom_type_radius_bond
C 0.68
H 0.23
N 0.68
O 0.68
loop_
_atom_site_label
_atom_site_type_symbol
_atom_site_fract_x
_atom_site_fract_y
_atom_site_fract_z
O1 O 0.3284(3) -0.2997(1) 0.9480(1)
O2 O 0.5046(3) -0.2971(1) 1.2678(1)
O3 O 0.0209(3) 0.3184(1) 0.7499(1)
O4 O 0.1423(3) 0.3767(1) 0.9020(2)
N1 N 0.2728(3) -0.1019(1) 0.9757(1)
N2 N 0.3213(2) -0.1218(1) 1.0762(1)
N3 N 0.0994(3) 0.3052(1) 0.8401(2)
C1 C 0.1385(3) 0.1199(2) 0.8027(2)
C2 C 0.1449(3) 0.1994(2) 0.8765(2)
C3 C 0.1938(3) 0.1807(2) 0.9829(2)
C4 C 0.2353(3) 0.0809(2) 1.0175(2)
C5 C 0.2297(3) 0.0011(2) 0.9443(2)
C6 C 0.1829(3) 0.0207(2) 0.8373(2)
C7 C 0.3611(3) -0.2163(2) 1.1118(2)
C8 C 0.3479(3) -0.3105(2) 1.0438(2)
C9 C 0.4266(3) -0.2196(2) 1.2274(2)
C10 C 0.3478(4) -0.4172(2) 1.0898(2)
C11 C 0.3977(4) -0.1253(2) 1.2918(2)
H1 H 0.266(3) -0.151(2) 0.927(2)
H2 H 0.107(3) 0.135(2) 0.733(1)
H3 H 0.200(3) 0.233(2) 1.033(2)
H4 H 0.260(3) 0.065(2) 1.089(2)
H5 H 0.183(3) -0.035(2) 0.786(2)
H6 H 0.300(4) -0.461(2) 1.037(2)
H7 H 0.485(4) -0.441(2) 1.113(2)
H8 H 0.278(5) -0.422(3) 1.155(2)
H9 H 0.457(3) -0.133(2) 1.359(2)
H10 H 0.432(4) -0.065(2) 1.261(2)
H11 H 0.261(4) -0.120(2) 1.299(2)
#END
