
#######################################################################
#
#                 Cambridge Crystallographic Data Centre
#                                CCDC
#
#######################################################################
#
# If this CIF has been generated from an entry in the Cambridge
# Structural Database, then it will include bibliographic, chemical,
# crystal, experimental, refinement or atomic coordinate data resulting
# from the CCDC's data processing and validation procedures.
#
#######################################################################

data_CSD_CIF_HEPMEV
_audit_creation_date 2007-01-12
_audit_creation_method CSD-ConQuest-V1
_database_code_CSD HEPMEV
_database_code_depnum_ccdc_archive 'CCDC 624605'
_chemical_formula_sum 'C16 H16 N6 O8'
_chemical_formula_moiety
;
C16 H16 N6 O8
;
_journal_coden_Cambridge 151
_journal_volume 49
_journal_year 2006
_journal_page_first 1157
_journal_name_full 'J.Med.Chem. '
loop_
_publ_author_name
"J.E.Saavedra"
"A.Srinivasan"
"G.S.Buzard"
"K.M.Davies"
"D.J.Waterhouse"
"K.Inami"
"T.C.Wilde"
"M.L.Citro"
"M.Cuellar"
"J.R.Deschamps"
"D.Parrish"
"P.J.Shami"
"V.J.Findlay"
"D.M.Townsend"
"K.D.Tew"
"S.Singh"
"Lee Jia"
"Xinhua Ji"
"L.K.Keefer"
_chemical_name_systematic
;
2,4-Dinitro-5-(2-(dimethylamino)diazenium-1,2-diolate-O)phenyl 
4-(methylamino)benzoate
;
_cell_volume   1873.896
_exptl_crystal_colour 'orange'
_exptl_crystal_density_diffrn 1.49
_exptl_special_details
;
shows inhibitory activity against several human cancer cell lines in the NCI 
51-cell-line screen
;
_exptl_crystal_description 'needle'
_diffrn_ambient_temperature 103
#These two values have been output from a single CSD field.
_refine_ls_R_factor_gt 0.0629
_refine_ls_wR_factor_gt 0.0629
_symmetry_cell_setting monoclinic
_symmetry_space_group_name_H-M 'P 21/n'
_symmetry_Int_Tables_number 14
loop_
_symmetry_equiv_pos_site_id
_symmetry_equiv_pos_as_xyz
1 x,y,z
2 1/2-x,1/2+y,1/2-z
3 -x,-y,-z
4 -1/2+x,-1/2-y,-1/2+z
_cell_length_a 14.153(4)
_cell_length_b 7.881(2)
_cell_length_c 18.163(5)
_cell_angle_alpha 90
_cell_angle_beta 112.336(5)
_cell_angle_gamma 90
_cell_formula_units_Z 4
loop_
_atom_type_symbol
_atom_type_radius_bond
C 0.68
H 0.23
N 0.68
O 0.68
loop_
_atom_site_label
_atom_site_type_symbol
_atom_site_fract_x
_atom_site_fract_y
_atom_site_fract_z
N1 N 1.1656(2) -0.1598(4) 0.40349(18)
O1 O 1.23939(19) -0.1718(4) 0.38289(18)
N2 N 1.0807(2) -0.0825(4) 0.36678(17)
O2 O 1.09113(17) -0.0086(4) 0.29858(14)
N3 N 1.1756(2) -0.2320(5) 0.47677(18)
C1 C 1.0811(3) -0.2286(6) 0.4926(2)
H1 H 1.05090 -0.11490 0.48140
H2 H 1.09680 -0.25690 0.54850
H3 H 1.03260 -0.31160 0.45840
C2 C 1.2302(3) -0.3912(5) 0.4904(2)
H4 H 1.29140 -0.37850 0.47790
H5 H 1.18590 -0.47890 0.45610
H6 H 1.25010 -0.42430 0.54630
C3 C 1.0027(3) 0.0666(5) 0.2509(2)
C4 C 0.9938(3) 0.1232(5) 0.1756(2)
N4 N 1.0754(2) 0.0991(5) 0.1448(2)
O3 O 1.1609(2) 0.0608(5) 0.19143(19)
O4 O 1.05290(19) 0.1172(5) 0.07368(17)
C5 C 0.9057(3) 0.2014(5) 0.1245(2)
H7 H 0.90130 0.23910 0.07360
C6 C 0.8242(3) 0.2244(5) 0.1476(2)
N5 N 0.7345(2) 0.3131(4) 0.09251(18)
O5 O 0.71946(19) 0.3112(4) 0.02136(15)
O6 O 0.67961(18) 0.3883(4) 0.11993(15)
C7 C 0.8304(2) 0.1621(5) 0.2217(2)
C8 C 0.9183(3) 0.0852(5) 0.2719(2)
H8 H 0.92170 0.04390 0.32190
O7 O 0.75216(17) 0.1744(3) 0.24925(14)
C9 C 0.6623(2) 0.0877(5) 0.2057(2)
O8 O 0.65169(17) 0.0160(3) 0.14434(14)
C10 C 0.5892(3) 0.0946(5) 0.2445(2)
C11 C 0.6091(3) 0.1700(5) 0.3183(2)
H9 H 0.67320 0.22320 0.34550
C12 C 0.5370(3) 0.1685(5) 0.3522(2)
H10 H 0.55190 0.22050 0.40260
C13 C 0.4420(3) 0.0910(6) 0.3131(2)
N6 N 0.3684(3) 0.0859(5) 0.3447(2)
H11 H 0.31020 0.03570 0.31690
C14 C 0.3806(4) 0.1576(7) 0.4208(3)
H12 H 0.31820 0.13870 0.43100
H13 H 0.39340 0.27980 0.42050
H14 H 0.43840 0.10320 0.46280
C15 C 0.4216(3) 0.0139(5) 0.2388(2)
H15 H 0.35750 -0.03930 0.21150
C16 C 0.4941(3) 0.0153(5) 0.2056(2)
H16 H 0.47980 -0.03800 0.15560
#END
