
#######################################################################
#
#                 Cambridge Crystallographic Data Centre
#                                CCDC
#
#######################################################################
#
# If this CIF has been generated from an entry in the Cambridge
# Structural Database, then it will include bibliographic, chemical,
# crystal, experimental, refinement or atomic coordinate data resulting
# from the CCDC's data processing and validation procedures.
#
#######################################################################

data_CSD_CIF_HEQJUI
_audit_creation_date 1999-05-27
_audit_creation_method CSD-ConQuest-V1
_database_code_CSD HEQJUI
_chemical_formula_sum 'C15 H13 N1 O3'
_chemical_formula_moiety
;
C15 H13 N1 O3
;
_journal_coden_Cambridge 4
_journal_volume 120
_journal_year 1998
_journal_page_first 9378
_journal_name_full 'J.Am.Chem.Soc. '
loop_
_publ_author_name
"M.S.B.Wills"
"R.L.Danheiser"
_chemical_name_systematic
;
4,5-Dihydro-9-methyl-2-p-nitrophenylisobenzofuran
;
_chemical_melting_point 380.15
_cell_volume    617.741
_exptl_crystal_colour 'yellow'
_exptl_crystal_density_diffrn 1.372
_exptl_special_details
;
Melting point range 380.15-382.65K

;
_exptl_crystal_preparation 'hexane'
_diffrn_ambient_temperature 153
#These two values have been output from a single CSD field.
_refine_ls_R_factor_gt 0.0546
_refine_ls_wR_factor_gt 0.0546
_symmetry_cell_setting triclinic
_symmetry_space_group_name_H-M 'P -1'
_symmetry_Int_Tables_number 2
loop_
_symmetry_equiv_pos_site_id
_symmetry_equiv_pos_as_xyz
1 x,y,z
2 -x,-y,-z
_cell_length_a 8.7611(13)
_cell_length_b 8.9913(14)
_cell_length_c 9.4145(14)
_cell_angle_alpha 90.252(3)
_cell_angle_beta 107.870(2)
_cell_angle_gamma 117.327(2)
_cell_formula_units_Z 2
loop_
_atom_type_symbol
_atom_type_radius_bond
C 0.68
H 0.23
N 0.68
O 0.68
loop_
_atom_site_label
_atom_site_type_symbol
_atom_site_fract_x
_atom_site_fract_y
_atom_site_fract_z
O1 O 0.5223(3) 0.3727(3) 0.1515(3)
O2 O 0.4931(4) 0.9186(4) 0.6547(3)
O3 O 0.2013(4) 0.7547(4) 0.5928(3)
N1 N 0.3497(5) 0.7918(4) 0.5795(4)
C1 C 0.4891(5) 0.2646(5) 0.0281(4)
C2 C 0.3100(5) 0.1919(5) -0.0606(4)
C3 C 0.2059(6) 0.0727(5) -0.2019(5)
C4 C 0.0423(6) 0.0527(5) -0.2827(5)
C5 C -0.0318(6) 0.1605(6) -0.2377(5)
C6 C 0.0266(5) 0.2090(5) -0.0660(4)
C7 C 0.2248(5) 0.2592(5) 0.0092(4)
C8 C 0.3556(5) 0.3652(5) 0.1378(4)
C9 C 0.3593(5) 0.4728(5) 0.2553(4)
C10 C 0.5206(5) 0.6156(5) 0.3451(4)
C11 C 0.5176(5) 0.7191(5) 0.4513(4)
C12 C 0.3529(5) 0.6806(5) 0.4683(4)
C13 C 0.1913(5) 0.5375(5) 0.3847(4)
C14 C 0.1945(5) 0.4348(5) 0.2789(4)
C15 C 0.6480(6) 0.2506(5) 0.0172(5)
H1 H 0.2540(6) 0.0098(5) -0.2361(5)
H2 H -0.0303(6) -0.0317(5) -0.3713(5)
H3 H -0.1673(6) 0.0977(6) -0.2814(5)
H4 H 0.0108(6) 0.2657(6) -0.2818(5)
H5 H 0.0063(5) 0.3048(5) -0.0435(4)
H6 H -0.0490(5) 0.1113(5) -0.0254(4)
H7 H 0.6334(5) 0.6415(5) 0.3328(4)
H8 H 0.6276(5) 0.8160(5) 0.5123(4)
H9 H 0.0801(5) 0.5110(5) 0.4004(4)
H10 H 0.0842(5) 0.3366(5) 0.2205(4)
H11 H 0.7577(6) 0.3239(5) 0.1043(5)
H12 H 0.6683(6) 0.2864(5) -0.0766(5)
H13 H 0.6227(6) 0.1325(5) 0.0166(5)
#END
