
#######################################################################
#
#                 Cambridge Crystallographic Data Centre
#                                CCDC
#
#######################################################################
#
# If this CIF has been generated from an entry in the Cambridge
# Structural Database, then it will include bibliographic, chemical,
# crystal, experimental, refinement or atomic coordinate data resulting
# from the CCDC's data processing and validation procedures.
#
#######################################################################

data_CSD_CIF_HEQQAX
_audit_creation_date 2013-04-25
_audit_creation_method CSD-ConQuest-V1
_database_code_CSD HEQQAX
_database_code_depnum_ccdc_archive 'CCDC 928019'
_chemical_formula_sum 'C17 H14 N2 O2'
_chemical_formula_moiety
;
C17 H14 N2 O2
;
_journal_coden_Cambridge 1078
_journal_year 2013
_journal_name_full 'CSD Communication(Private Communication) '
loop_
_publ_author_name
"J.G.Malecki"
_chemical_name_systematic
;
2-(((Benzyloxy)imino)methyl)quinolin-8-ol
;
_cell_volume   1386.624
_exptl_crystal_colour 'colorless'
_exptl_crystal_density_diffrn 1.333
_exptl_special_details
;
contribution from University of Silesia, Institute of Chemistry, Szkolna 9, 
Katowice, Poland
;
_exptl_crystal_description 'needle'
_diffrn_ambient_temperature 295
#These two values have been output from a single CSD field.
_refine_ls_R_factor_gt 0.0446
_refine_ls_wR_factor_gt 0.0446
_symmetry_cell_setting monoclinic
_symmetry_space_group_name_H-M 'P 21/c'
_symmetry_Int_Tables_number 14
loop_
_symmetry_equiv_pos_site_id
_symmetry_equiv_pos_as_xyz
1 x,y,z
2 -x,1/2+y,1/2-z
3 -x,-y,-z
4 x,-1/2-y,-1/2+z
_cell_length_a 13.7263(13)
_cell_length_b 11.3149(11)
_cell_length_c 9.1935(9)
_cell_angle_alpha 90
_cell_angle_beta 103.803(9)
_cell_angle_gamma 90
_cell_formula_units_Z 4
loop_
_atom_type_symbol
_atom_type_radius_bond
C 0.68
H 0.23
N 0.68
O 0.68
loop_
_atom_site_label
_atom_site_type_symbol
_atom_site_fract_x
_atom_site_fract_y
_atom_site_fract_z
O1 O 0.71043(9) 0.45257(10) 0.41143(13)
H1 H 0.67010 0.47030 0.33330
O2 O 0.32542(8) 0.34179(10) -0.20925(12)
N1 N 0.57964(9) 0.32042(11) 0.21044(13)
N2 N 0.38203(10) 0.26398(12) -0.10395(14)
C1 C 0.51600(11) 0.25458(14) 0.11211(16)
C2 C 0.51435(12) 0.13010(14) 0.11962(17)
H2 H 0.46790 0.08730 0.04910
C3 C 0.58071(12) 0.07342(14) 0.22978(17)
H3 H 0.58040 -0.00870 0.23440
C4 C 0.65048(11) 0.13845(14) 0.33777(16)
C5 C 0.72201(12) 0.08817(15) 0.45791(18)
H4 H 0.72640 0.00650 0.46910
C6 C 0.78462(13) 0.15984(16) 0.55749(18)
H5 H 0.83140 0.12610 0.63670
C7 C 0.78029(13) 0.28249(16) 0.54348(18)
H6 H 0.82330 0.32940 0.61370
C8 C 0.71328(12) 0.33405(14) 0.42715(17)
C9 C 0.64576(11) 0.26276(14) 0.32204(16)
C10 C 0.44710(11) 0.31932(14) -0.00701(17)
H7 H 0.45100 0.40120 -0.01160
C11 C 0.24660(13) 0.27615(16) -0.30843(17)
H8 H 0.27450 0.20420 -0.33910
H9 H 0.22000 0.32280 -0.39750
C12 C 0.16323(12) 0.24503(14) -0.23678(16)
C13 C 0.10586(15) 0.33259(18) -0.1945(2)
H10 H 0.11970 0.41150 -0.20930
C14 C 0.02702(18) 0.3033(3) -0.1294(2)
H11 H -0.01160 0.36250 -0.10070
C15 C 0.00694(16) 0.1873(3) -0.1080(2)
H12 H -0.04590 0.16740 -0.06540
C16 C 0.06353(17) 0.1013(2) -0.1484(2)
H13 H 0.04970 0.02240 -0.13320
C17 C 0.14114(14) 0.12992(16) -0.21149(19)
H14 H 0.17980 0.06980 -0.23790
#END
