
#######################################################################
#
#                 Cambridge Crystallographic Data Centre
#                                CCDC
#
#######################################################################
#
# If this CIF has been generated from an entry in the Cambridge
# Structural Database, then it will include bibliographic, chemical,
# crystal, experimental, refinement or atomic coordinate data resulting
# from the CCDC's data processing and validation procedures.
#
#######################################################################

data_CSD_CIF_HEQYUZ
_audit_creation_date 2013-04-25
_audit_creation_method CSD-ConQuest-V1
_database_code_CSD HEQYUZ
_database_code_depnum_ccdc_archive 'CCDC 931713'
_chemical_formula_sum 'C13 H11 N5 O3'
_chemical_formula_moiety
;
C13 H11 N5 O3
;
_journal_coden_Cambridge 1078
_journal_year 2013
_journal_name_full 'CSD Communication(Private Communication) '
loop_
_publ_author_name
"L.Gomes"
"J.Low"
"J.Wardell"
"A.Rodrigues"
_chemical_name_systematic
;
N-Methyl-N'-(3-nitrobenzylidene)pyrazine-2-carbohydrazide
;
_cell_volume   1258.199
_exptl_crystal_colour 'colorless'
_exptl_crystal_density_diffrn 1.506
_exptl_special_details
;
contribution from University of Aberdeen, Meston Walk , Aberdeen, AB24 3UE, 
;
_exptl_crystal_description 'plate'
_diffrn_ambient_temperature 100
#These two values have been output from a single CSD field.
_refine_ls_R_factor_gt 0.1082
_refine_ls_wR_factor_gt 0.1082
_symmetry_cell_setting monoclinic
_symmetry_space_group_name_H-M 'P 21/n'
_symmetry_Int_Tables_number 14
loop_
_symmetry_equiv_pos_site_id
_symmetry_equiv_pos_as_xyz
1 x,y,z
2 1/2-x,1/2+y,1/2-z
3 -x,-y,-z
4 -1/2+x,-1/2-y,-1/2+z
_cell_length_a 11.769(3)
_cell_length_b 7.4724(15)
_cell_length_c 14.725(3)
_cell_angle_alpha 90
_cell_angle_beta 103.684(7)
_cell_angle_gamma 90
_cell_formula_units_Z 4
loop_
_atom_type_symbol
_atom_type_radius_bond
C 0.68
H 0.23
N 0.68
O 0.68
loop_
_atom_site_label
_atom_site_type_symbol
_atom_site_fract_x
_atom_site_fract_y
_atom_site_fract_z
O1 O 0.6850(3) 0.3436(6) 0.0955(3)
O2 O 0.7577(3) 0.6864(6) 0.6008(3)
O3 O 0.6608(3) 0.8280(6) 0.6848(3)
N1 N 0.5696(3) 0.5266(6) 0.2717(3)
N2 N 0.5695(3) 0.4457(6) 0.1871(3)
N3 N 0.6680(4) 0.7546(6) 0.6115(3)
N4 N 0.8769(4) 0.4822(6) 0.2320(3)
N5 N 0.8828(4) 0.3375(6) 0.4105(3)
C1 C 0.4732(4) 0.5852(7) 0.2863(4)
H1 H 0.40300 0.57640 0.23880
C2 C 0.6761(5) 0.3980(8) 0.1725(4)
C3 C 0.4717(4) 0.6659(7) 0.3769(4)
C4 C 0.5721(5) 0.6764(7) 0.4491(4)
H2 H 0.64530 0.63530 0.44050
C5 C 0.5627(4) 0.7479(7) 0.5332(3)
C6 C 0.4585(5) 0.8127(7) 0.5485(4)
H3 H 0.45530 0.86260 0.60720
C7 C 0.3604(5) 0.8032(7) 0.4773(4)
H4 H 0.28800 0.84700 0.48630
C8 C 0.3657(4) 0.7298(7) 0.3914(4)
H5 H 0.29690 0.72300 0.34240
C9 C 0.7822(4) 0.4124(8) 0.2529(4)
C10 C 0.7850(5) 0.3409(7) 0.3404(4)
H6 H 0.71500 0.29210 0.35150
C11 C 0.9774(4) 0.4105(8) 0.3885(4)
H7 H 1.04910 0.41300 0.43460
C12 C 0.9742(5) 0.4819(7) 0.3015(4)
H8 H 1.04350 0.53290 0.29030
C13 C 0.4608(4) 0.4224(8) 0.1134(4)
H9 H 0.47830 0.35690 0.06060
H10 H 0.42840 0.54010 0.09200
H11 H 0.40380 0.35490 0.13850
#END
