
#######################################################################
#
#                 Cambridge Crystallographic Data Centre
#                                CCDC
#
#######################################################################
#
# If this CIF has been generated from an entry in the Cambridge
# Structural Database, then it will include bibliographic, chemical,
# crystal, experimental, refinement or atomic coordinate data resulting
# from the CCDC's data processing and validation procedures.
#
#######################################################################

data_CSD_CIF_HERXEK01
_audit_creation_date 2018-02-05
_audit_creation_method CSD-ConQuest-V1
_database_code_CSD HERXEK01
_database_code_depnum_ccdc_archive 'CCDC 1585982'
_chemical_formula_sum 'C18 H21 N3 O3'
_chemical_formula_moiety
;
C18 H21 N3 O3
;
_journal_coden_Cambridge 119
_journal_volume 1160
_journal_year 2018
_journal_page_first 38
_journal_name_full 'J.Mol.Struct. '
loop_
_publ_author_name
"A.O.Ayeni"
"G.M.Watkins"
"E.C.Hosten"
_chemical_name_systematic
;
4-methyl-2-{[4-(4-nitrophenyl)piperazin-1-yl]methyl}phenol
;
_cell_volume   1719.913
_exptl_crystal_colour 'orange'
_exptl_crystal_density_diffrn 1.264
_exptl_special_details
;
P212121 polymorph I

;
_exptl_crystal_description 'block'
_diffrn_ambient_temperature 200
#These two values have been output from a single CSD field.
_refine_ls_R_factor_gt 0.036
_refine_ls_wR_factor_gt 0.036
_symmetry_cell_setting orthorhombic
_symmetry_space_group_name_H-M 'P 21 21 21'
_symmetry_Int_Tables_number 19
loop_
_symmetry_equiv_pos_site_id
_symmetry_equiv_pos_as_xyz
1 x,y,z
2 1/2-x,-y,1/2+z
3 -x,1/2+y,1/2-z
4 1/2+x,1/2-y,-z
_cell_length_a 10.3038(4)
_cell_length_b 10.8285(5)
_cell_length_c 15.4149(5)
_cell_angle_alpha 90
_cell_angle_beta 90
_cell_angle_gamma 90
_cell_formula_units_Z 4
loop_
_atom_type_symbol
_atom_type_radius_bond
C 0.68
H 0.23
N 0.68
O 0.68
loop_
_atom_site_label
_atom_site_type_symbol
_atom_site_fract_x
_atom_site_fract_y
_atom_site_fract_z
O1 O 0.67588(16) 0.08371(15) 0.48004(14)
O2 O 0.7779(2) 0.12890(16) 0.36123(11)
O3 O 0.13463(14) 0.88783(13) 0.34429(10)
H1 H 0.19193 0.85484 0.37537
N1 N 0.70409(18) 0.15573(17) 0.42121(14)
N2 N 0.49112(16) 0.63364(15) 0.42974(9)
N3 N 0.36008(15) 0.86716(14) 0.42897(9)
C1 C 0.34375(18) 1.00080(16) 0.44288(11)
H2 H 0.43043 1.03909 0.44956
H3 H 0.29544 1.01402 0.49762
C2 C 0.2512(3) 1.3929(2) 0.28124(16)
H4 H 0.34511 1.40664 0.28399
H5 H 0.20827 1.44138 0.32659
H6 H 0.21868 1.41846 0.22427
C3 C 0.53962(17) 0.51474(17) 0.42619(11)
C4 C 0.6252(2) 0.47830(19) 0.35936(12)
H7 H 0.64609 0.53510 0.31451
C5 C 0.67875(19) 0.36208(19) 0.35809(12)
H8 H 0.73609 0.33885 0.31268
C6 C 0.64871(18) 0.27917(18) 0.42328(13)
C7 C 0.56501(17) 0.31122(18) 0.48980(13)
H9 H 0.54545 0.25361 0.53441
C8 C 0.51030(17) 0.42726(19) 0.49085(12)
H10 H 0.45173 0.44866 0.53601
C9 C 0.4723(2) 0.70390(19) 0.34947(12)
H11 H 0.39130 0.67635 0.32083
H12 H 0.54538 0.68737 0.30943
C10 C 0.46442(18) 0.84072(18) 0.36728(11)
H13 H 0.54810 0.86992 0.39126
H14 H 0.44809 0.88553 0.31238
C11 C 0.3891(2) 0.80320(18) 0.51075(11)
H15 H 0.32083 0.82220 0.55390
H16 H 0.47303 0.83312 0.53395
C12 C 0.3960(2) 0.66527(18) 0.49693(12)
H17 H 0.42046 0.62449 0.55204
H18 H 0.30946 0.63419 0.47960
C13 C 0.27255(16) 1.06471(17) 0.36998(11)
C14 C 0.16749(17) 1.00807(18) 0.32836(11)
C15 C 0.09204(19) 1.0758(2) 0.27097(13)
H19 H 0.02137 1.03726 0.24209
C16 C 0.1188(2) 1.1985(2) 0.25554(13)
H20 H 0.06480 1.24384 0.21703
C17 C 0.2227(2) 1.25733(19) 0.29493(12)
C18 C 0.29867(16) 1.18766(17) 0.35119(11)
H21 H 0.37148 1.22576 0.37789
#END
