
#######################################################################
#
#                 Cambridge Crystallographic Data Centre
#                                CCDC
#
#######################################################################
#
# If this CIF has been generated from an entry in the Cambridge
# Structural Database, then it will include bibliographic, chemical,
# crystal, experimental, refinement or atomic coordinate data resulting
# from the CCDC's data processing and validation procedures.
#
#######################################################################

data_CSD_CIF_HESFAN
_audit_creation_date 2007-01-12
_audit_creation_method CSD-ConQuest-V1
_database_code_CSD HESFAN
_database_code_depnum_ccdc_archive 'CCDC 627324'
_chemical_formula_sum 'C14 H13 N1 O2'
_chemical_formula_moiety
;
C14 H13 N1 O2
;
_journal_coeditor_code "IUCr BI2075"
_journal_coden_Cambridge 1370
_journal_volume 62
_journal_year 2006
_journal_page_first o4989
_journal_name_full 'Acta Crystallogr.,Sect.E:Struct.Rep.Online '
loop_
_publ_author_name
"E.Kolehmainen"
"V.Nikiforov"
"K.Troshin"
"A.Valkonen"
_chemical_name_systematic
;
2,5-Dimethyl-4'-nitrobiphenyl
;
_chemical_melting_point 371
_cell_volume   1151.529
_exptl_crystal_colour 'orange'
_exptl_crystal_density_diffrn 1.311
_exptl_special_details
;
Melting point range 371-372K

;
_exptl_crystal_description 'block'
_exptl_crystal_preparation 'ethanol'
_diffrn_ambient_temperature 173
#These two values have been output from a single CSD field.
_refine_ls_R_factor_gt 0.0441
_refine_ls_wR_factor_gt 0.0441
_symmetry_cell_setting monoclinic
_symmetry_space_group_name_H-M 'P 21/c'
_symmetry_Int_Tables_number 14
loop_
_symmetry_equiv_pos_site_id
_symmetry_equiv_pos_as_xyz
1 x,y,z
2 -x,1/2+y,1/2-z
3 -x,-y,-z
4 x,-1/2-y,-1/2+z
_cell_length_a 6.7173(1)
_cell_length_b 22.2902(5)
_cell_length_c 7.8542(2)
_cell_angle_alpha 90
_cell_angle_beta 101.711(2)
_cell_angle_gamma 90
_cell_formula_units_Z 4
loop_
_atom_type_symbol
_atom_type_radius_bond
C 0.68
H 0.23
N 0.68
O 0.68
loop_
_atom_site_label
_atom_site_type_symbol
_atom_site_fract_x
_atom_site_fract_y
_atom_site_fract_z
O1 O 0.3356(2) 0.57883(6) 0.07224(16)
O2 O 0.28237(18) 0.50827(6) -0.12031(15)
N1 N 0.28989(19) 0.52715(6) 0.02749(17)
C1 C 0.0864(2) 0.36683(7) 0.5346(2)
C2 C -0.1115(2) 0.34480(7) 0.5261(2)
C3 C -0.1435(3) 0.30734(7) 0.6590(2)
H1 H -0.27690 0.29290 0.65720
C4 C 0.0128(3) 0.29020(7) 0.7946(2)
H2 H -0.01480 0.26410 0.88250
C5 C 0.2090(3) 0.31105(7) 0.8025(2)
C6 C 0.2421(2) 0.35017(7) 0.6733(2)
H3 H 0.37450 0.36610 0.67940
C7 C 0.1376(2) 0.40818(7) 0.4006(2)
C8 C 0.1171(2) 0.39061(7) 0.2275(2)
H4 H 0.06630 0.35170 0.19320
C9 C 0.1696(2) 0.42884(7) 0.1048(2)
H5 H 0.15810 0.41640 -0.01250
C10 C 0.2390(2) 0.48541(7) 0.1574(2)
C11 C 0.2617(2) 0.50458(7) 0.3270(2)
H6 H 0.31010 0.54380 0.35970
C12 C 0.2124(2) 0.46538(7) 0.4486(2)
H7 H 0.22970 0.47760 0.56650
C13 C -0.2858(2) 0.36077(8) 0.3793(2)
H8 H -0.28300 0.33470 0.27940
H9 H -0.27290 0.40270 0.34560
H10 H -0.41480 0.35530 0.41740
C14 C 0.3828(3) 0.29178(9) 0.9462(2)
H11 H 0.32840 0.27310 1.04020
H12 H 0.46440 0.32690 0.99130
H13 H 0.46820 0.26280 0.90030
#END
