
#######################################################################
#
#                 Cambridge Crystallographic Data Centre
#                                CCDC
#
#######################################################################
#
# If this CIF has been generated from an entry in the Cambridge
# Structural Database, then it will include bibliographic, chemical,
# crystal, experimental, refinement or atomic coordinate data resulting
# from the CCDC's data processing and validation procedures.
#
#######################################################################

data_CSD_CIF_HESPIF
_audit_creation_date 2007-01-12
_audit_creation_method CSD-ConQuest-V1
_database_code_CSD HESPIF
_database_code_depnum_ccdc_archive 'CCDC 629401'
_chemical_formula_sum 'C16 H14 N2 O8'
_chemical_formula_moiety
;
C16 H14 N2 O8
;
_journal_coeditor_code "IUCr AT2142"
_journal_coden_Cambridge 1370
_journal_volume 62
_journal_year 2006
_journal_page_first o5404
_journal_name_full 'Acta Crystallogr.,Sect.E:Struct.Rep.Online '
loop_
_publ_author_name
"Chun-Hua Diao"
"Ming Yu"
_chemical_name_systematic
;
2-(2-(2,4-Dinitrophenoxy)ethoxy)-3-methoxybenzaldehyde
;
_cell_volume   1627.449
_exptl_crystal_colour 'yellow'
_exptl_crystal_density_diffrn 1.479
_exptl_crystal_description 'block'
_exptl_crystal_preparation 'acetonitrile'
_diffrn_ambient_temperature 294
#These two values have been output from a single CSD field.
_refine_ls_R_factor_gt 0.0426
_refine_ls_wR_factor_gt 0.0426
_symmetry_cell_setting monoclinic
_symmetry_space_group_name_H-M 'P 21/c'
_symmetry_Int_Tables_number 14
loop_
_symmetry_equiv_pos_site_id
_symmetry_equiv_pos_as_xyz
1 x,y,z
2 -x,1/2+y,1/2-z
3 -x,-y,-z
4 x,-1/2-y,-1/2+z
_cell_length_a 13.192(2)
_cell_length_b 8.4397(16)
_cell_length_c 14.673(3)
_cell_angle_alpha 90
_cell_angle_beta 94.990(3)
_cell_angle_gamma 90
_cell_formula_units_Z 4
loop_
_atom_type_symbol
_atom_type_radius_bond
C 0.68
H 0.23
N 0.68
O 0.68
loop_
_atom_site_label
_atom_site_type_symbol
_atom_site_fract_x
_atom_site_fract_y
_atom_site_fract_z
O1 O 0.67715(10) 1.21040(17) 0.09696(9)
O2 O 0.72801(15) 0.8180(2) -0.23092(12)
O3 O 0.79744(9) 1.00787(15) 0.01882(8)
O4 O 0.95083(10) 0.78346(17) 0.05274(8)
O5 O 0.99040(13) 0.7536(3) -0.11816(10)
O6 O 1.08764(14) 0.5625(2) -0.14591(10)
O7 O 1.36279(12) 0.4220(2) 0.06513(12)
O8 O 1.37494(12) 0.5162(2) 0.20253(12)
N1 N 1.05319(13) 0.6550(2) -0.09322(11)
N2 N 1.33005(13) 0.4989(2) 0.12717(14)
C1 C 0.61730(18) 1.3267(3) 0.13857(16)
H1 H 0.60280 1.41280 0.09670
H2 H 0.65420 1.36560 0.19330
H3 H 0.55460 1.27960 0.15370
C2 C 0.63977(14) 1.1512(2) 0.01415(12)
C3 C 0.54728(14) 1.1906(2) -0.03179(14)
H4 H 0.50440 1.26220 -0.00600
C4 C 0.51833(15) 1.1235(3) -0.11632(14)
H5 H 0.45590 1.15030 -0.14670
C5 C 0.58014(16) 1.0189(3) -0.15547(14)
H6 H 0.55940 0.97400 -0.21190
C6 C 0.67461(15) 0.9791(2) -0.11092(13)
C7 C 0.74439(18) 0.8730(3) -0.15521(16)
H7 H 0.80550 0.84650 -0.12230
C8 C 0.70374(13) 1.0442(2) -0.02559(12)
C9 C 0.79220(14) 0.8866(2) 0.08677(13)
H8 H 0.76060 0.79230 0.05930
H9 H 0.75160 0.92290 0.13470
C10 C 0.89774(14) 0.8497(3) 0.12602(12)
H10 H 0.93150 0.94520 0.14950
H11 H 0.89620 0.77410 0.17570
C11 C 1.04373(14) 0.7227(2) 0.07304(12)
C12 C 1.09375(13) 0.6501(2) 0.00302(11)
C13 C 1.18546(14) 0.5743(2) 0.02144(13)
H12 H 1.21640 0.52310 -0.02500
C14 C 1.23068(14) 0.5751(2) 0.10910(13)
C15 C 1.18634(15) 0.6496(2) 0.17898(13)
H13 H 1.21890 0.65130 0.23780
C16 C 1.09369(15) 0.7212(3) 0.16090(13)
H14 H 1.06320 0.77000 0.20840
#END
