
#######################################################################
#
#                 Cambridge Crystallographic Data Centre
#                                CCDC
#
#######################################################################
#
# If this CIF has been generated from an entry in the Cambridge
# Structural Database, then it will include bibliographic, chemical,
# crystal, experimental, refinement or atomic coordinate data resulting
# from the CCDC's data processing and validation procedures.
#
#######################################################################

data_CSD_CIF_HESVUW
_audit_creation_date 1995-04-30
_audit_creation_method CSD-ConQuest-V1
_database_code_CSD HESVUW
_chemical_formula_sum 'C12 H10 N4 O8'
_chemical_formula_moiety
;
C12 H10 N4 O8
;
_journal_coden_Cambridge 154
_journal_volume 47
_journal_year 1994
_journal_page_first 1591
_journal_name_full 'Aust.J.Chem. '
loop_
_publ_author_name
"J.L.Calvert"
"L.Eberson"
"M.P.Hartshorn"
"R.G.A.R.Maclagan"
"W.T.Robinson"
_chemical_name_systematic
;
1-Methyl-r-1-nitro-c-4-trinitromethyl-1,4-dihydronaphthalene
;
_chemical_melting_point 361.15
_cell_volume    720.775
_exptl_crystal_colour 'colorless'
_exptl_crystal_density_diffrn 1.558
_exptl_special_details
;
Melting point range 361.15-362.15K

;
_diffrn_ambient_temperature 130
#These two values have been output from a single CSD field.
_refine_ls_R_factor_gt 0.0649
_refine_ls_wR_factor_gt 0.0649
_symmetry_cell_setting monoclinic
_symmetry_space_group_name_H-M 'P 21'
_symmetry_Int_Tables_number 4
loop_
_symmetry_equiv_pos_site_id
_symmetry_equiv_pos_as_xyz
1 x,y,z
2 -x,1/2+y,-z
_cell_length_a 10.041(2)
_cell_length_b 6.207(1)
_cell_length_c 11.892(2)
_cell_angle_alpha 90
_cell_angle_beta 103.47(3)
_cell_angle_gamma 90
_cell_formula_units_Z 2
loop_
_atom_type_symbol
_atom_type_radius_bond
C 0.68
H 0.23
N 0.68
O 0.68
loop_
_atom_site_label
_atom_site_type_symbol
_atom_site_fract_x
_atom_site_fract_y
_atom_site_fract_z
O1 O 0.0443(7) 0.4155(10) 0.3679(5)
O2 O 0.0401(6) 0.4100(8) 0.1859(5)
O3 O 0.2771(5) -0.2469(8) -0.0413(4)
O4 O 0.4602(5) -0.0484(8) -0.0229(4)
O5 O 0.2679(5) 0.2630(8) 0.0228(4)
O6 O 0.3270(5) 0.2898(7) 0.2110(4)
O7 O 0.5658(5) 0.0859(9) 0.2432(4)
O8 O 0.5392(5) -0.2589(8) 0.2023(5)
N1 N 0.0421(6) 0.3207(9) 0.2775(5)
N2 N 0.3628(6) -0.1198(8) 0.0097(5)
N3 N 0.3130(5) 0.1947(9) 0.1194(5)
N4 N 0.4987(5) -0.0683(11) 0.1997(5)
C1 C 0.0376(7) 0.0688(11) 0.2781(6)
C2 C 0.0156(7) -0.0076(12) 0.1557(6)
C3 C 0.1036(6) -0.1167(11) 0.1124(5)
C4 C 0.2462(6) -0.1709(11) 0.1812(5)
C5 C 0.3727(7) -0.2360(12) 0.3880(5)
C6 C 0.3949(7) -0.2050(12) 0.5054(6)
C7 C 0.3087(7) -0.0752(13) 0.5491(6)
C8 C 0.1950(7) 0.0154(12) 0.4748(6)
C9 C 0.2638(6) -0.1365(11) 0.3102(5)
C10 C 0.1718(6) -0.0124(11) 0.3558(5)
C11 C -0.0865(7) 0.0102(13) 0.3249(6)
C12 C 0.3513(6) -0.0431(11) 0.1308(5)
H1 H -0.0698(7) 0.0260(12) 0.1048(6)
H2 H 0.0766(6) -0.1639(11) 0.0344(5)
H3 H 0.2618(6) -0.3274(11) 0.1690(5)
H4 H 0.4329(7) -0.3272(12) 0.3589(5)
H5 H 0.4700(7) -0.2736(12) 0.5562(6)
H6 H 0.3266(7) -0.0473(13) 0.6298(6)
H7 H 0.1321(7) 0.0975(12) 0.5058(6)
H8 H -0.1694(10) 0.0693(63) 0.2738(23)
H9 H -0.0757(23) 0.0706(62) 0.4026(18)
H10 H -0.0943(26) -0.1469(13) 0.3283(36)
#END
