
#######################################################################
#
#                 Cambridge Crystallographic Data Centre
#                                CCDC
#
#######################################################################
#
# If this CIF has been generated from an entry in the Cambridge
# Structural Database, then it will include bibliographic, chemical,
# crystal, experimental, refinement or atomic coordinate data resulting
# from the CCDC's data processing and validation procedures.
#
#######################################################################

data_CSD_CIF_HESYIO
_audit_creation_date 2007-04-18
_audit_creation_method CSD-ConQuest-V1
_database_code_CSD HESYIO
_database_code_depnum_ccdc_archive 'CCDC 605155'
_chemical_formula_sum 'C24 H30 N2 O2'
_chemical_formula_moiety
;
C24 H30 N2 O2
;
_journal_coden_Cambridge 692
_journal_volume 2006
_journal_year 2006
_journal_page_first 3425
_journal_name_full 'Synthesis '
loop_
_publ_author_name
"M.Sarkar"
"A.Samanta"
_chemical_name_systematic
;
1-(7-Nitro-9,9-di-n-propyl-9H-fluoren-2-yl)piperidine
;
_chemical_melting_point 390.15
_cell_volume   2055.060
_exptl_crystal_colour 'red'
_exptl_crystal_density_diffrn 1.223
_exptl_special_details
;
Melting point range 390.15-395.15K

;
_exptl_crystal_description 'thin needles'
_diffrn_ambient_temperature 100
#These two values have been output from a single CSD field.
_refine_ls_R_factor_gt 0.0907
_refine_ls_wR_factor_gt 0.0907
_symmetry_cell_setting monoclinic
_symmetry_space_group_name_H-M 'P 21/c'
_symmetry_Int_Tables_number 14
loop_
_symmetry_equiv_pos_site_id
_symmetry_equiv_pos_as_xyz
1 x,y,z
2 -x,1/2+y,1/2-z
3 -x,-y,-z
4 x,-1/2-y,-1/2+z
_cell_length_a 9.9984(15)
_cell_length_b 16.020(2)
_cell_length_c 13.474(2)
_cell_angle_alpha 90
_cell_angle_beta 107.784(3)
_cell_angle_gamma 90
_cell_formula_units_Z 4
loop_
_atom_type_symbol
_atom_type_radius_bond
C 0.68
H 0.23
N 0.68
O 0.68
loop_
_atom_site_label
_atom_site_type_symbol
_atom_site_fract_x
_atom_site_fract_y
_atom_site_fract_z
O1 O 0.9419(3) 0.2400(2) 0.6271(2)
C1 C 0.3863(4) 0.2409(3) 0.2727(3)
N1 N 0.1266(3) 0.0816(2) -0.0516(3)
O2 O 0.7643(3) 0.3196(2) 0.6232(3)
C2 C 0.5872(4) 0.1495(3) 0.3043(3)
C3 C 0.2484(4) 0.1614(3) 0.1056(3)
H1 H 0.16920 0.19680 0.09540
N2 N 0.8194(4) 0.2642(3) 0.5867(3)
C4 C 0.7961(4) 0.1571(3) 0.4517(3)
H2 H 0.88690 0.13710 0.48930
C5 C 0.7386(4) 0.2240(3) 0.4902(3)
C6 C 0.4819(4) 0.0583(3) 0.1390(3)
H3 H 0.56170 0.02310 0.15040
C7 C 0.4836(4) 0.1228(3) 0.2078(3)
C8 C 0.2444(4) 0.0959(3) 0.0342(3)
C9 C 0.1481(4) 0.1433(3) 0.4259(3)
H4 H 0.17450 0.17970 0.48720
H5 H 0.13970 0.08570 0.44770
H6 H 0.05780 0.16160 0.37800
C10 C 0.3655(4) 0.1741(3) 0.1892(3)
C11 C 0.2742(4) 0.2341(3) 0.3293(3)
H7 H 0.29770 0.27410 0.38810
H8 H 0.18230 0.25080 0.28050
C12 C 0.5316(4) 0.2182(3) 0.3447(3)
C13 C 0.4847(4) 0.3388(3) 0.1595(3)
H9 H 0.57980 0.31880 0.19880
H10 H 0.44920 0.30310 0.09700
C14 C 0.6051(4) 0.2558(3) 0.4373(3)
H11 H 0.56670 0.30160 0.46440
C15 C 0.7221(4) 0.1196(3) 0.3592(3)
H12 H 0.76160 0.07410 0.33260
C16 C 0.3658(4) 0.0448(3) 0.0544(3)
H13 H 0.36670 0.00010 0.00820
C17 C 0.3883(4) 0.3293(3) 0.2276(3)
H14 H 0.29150 0.34440 0.18580
H15 H 0.41840 0.36940 0.28620
C18 C 0.4953(4) 0.4287(3) 0.1246(3)
H16 H 0.40110 0.45000 0.08860
H17 H 0.55260 0.43030 0.07720
H18 H 0.53920 0.46350 0.18570
C19 C 0.2601(4) 0.1477(3) 0.3710(3)
H19 H 0.35150 0.13090 0.42050
H20 H 0.23650 0.10740 0.31250
C20 C -0.1109(4) 0.0623(3) -0.2385(4)
H21 H -0.12540 0.09290 -0.30480
H22 H -0.19150 0.02400 -0.24820
C21 C 0.0021(5) 0.1288(3) -0.0674(4)
H23 H -0.03400 0.11610 -0.00830
H24 H 0.03000 0.18830 -0.06080
C22 C 0.1299(5) 0.0219(3) -0.1294(4)
H25 H 0.21280 0.03510 -0.15210
H26 H 0.14800 -0.03320 -0.09470
C23 C -0.1127(6) 0.1217(5) -0.1589(4)
H27 H -0.12760 0.17750 -0.19220
H28 H -0.19660 0.10940 -0.13720
C24 C 0.0167(5) 0.0121(5) -0.2191(5)
H29 H -0.01230 -0.04710 -0.22150
H30 H 0.05280 0.02100 -0.27900
#END
