
#######################################################################
#
#                 Cambridge Crystallographic Data Centre
#                                CCDC
#
#######################################################################
#
# If this CIF has been generated from an entry in the Cambridge
# Structural Database, then it will include bibliographic, chemical,
# crystal, experimental, refinement or atomic coordinate data resulting
# from the CCDC's data processing and validation procedures.
#
#######################################################################

data_CSD_CIF_HESYAG
_audit_creation_date 2007-04-18
_audit_creation_method CSD-ConQuest-V1
_database_code_CSD HESYAG
_database_code_depnum_ccdc_archive 'CCDC 605153'
_chemical_formula_sum 'C21 H26 N2 O2'
_chemical_formula_moiety
;
C21 H26 N2 O2
;
_journal_coden_Cambridge 692
_journal_volume 2006
_journal_year 2006
_journal_page_first 3425
_journal_name_full 'Synthesis '
loop_
_publ_author_name
"M.Sarkar"
"A.Samanta"
_chemical_name_systematic
;
N,N-Dimethyl-(7-nitro-9,9-di-n-propyl-9H-fluoren-2-yl)amine
;
_chemical_melting_point 398.15
_cell_volume   1858.703
_exptl_crystal_colour 'red'
_exptl_crystal_density_diffrn 1.209
_exptl_special_details
;
Melting point range 398.15-403.15K

;
_exptl_crystal_description 'rectangular block'
_diffrn_ambient_temperature 100
#These two values have been output from a single CSD field.
_refine_ls_R_factor_gt 0.0556
_refine_ls_wR_factor_gt 0.0556
_symmetry_cell_setting monoclinic
_symmetry_space_group_name_H-M 'P 21/n'
_symmetry_Int_Tables_number 14
loop_
_symmetry_equiv_pos_site_id
_symmetry_equiv_pos_as_xyz
1 x,y,z
2 1/2-x,1/2+y,1/2-z
3 -x,-y,-z
4 -1/2+x,-1/2-y,-1/2+z
_cell_length_a 9.9257(6)
_cell_length_b 14.9179(9)
_cell_length_c 13.3095(8)
_cell_angle_alpha 90
_cell_angle_beta 109.413(1)
_cell_angle_gamma 90
_cell_formula_units_Z 4
loop_
_atom_type_symbol
_atom_type_radius_bond
C 0.68
H 0.23
N 0.68
O 0.68
loop_
_atom_site_label
_atom_site_type_symbol
_atom_site_fract_x
_atom_site_fract_y
_atom_site_fract_z
C1 C 0.21345(14) 0.08478(9) 0.16298(11)
C2 C 0.34188(14) 0.21635(9) 0.24925(10)
C3 C 0.30827(14) 0.15194(9) 0.15533(10)
C4 C 0.50388(14) 0.22182(9) 0.30977(10)
H1 H 0.55190 0.24660 0.26150
H2 H 0.52080 0.26370 0.37040
C5 C 0.28255(15) 0.31097(9) 0.21298(11)
H3 H 0.30020 0.34910 0.27700
H4 H 0.33690 0.33700 0.16970
C6 C 0.18324(14) 0.09747(10) 0.26137(11)
O1 O 0.08526(15) 0.12662(11) 0.59726(11)
C7 C 0.57036(14) 0.13164(10) 0.35169(11)
H5 H 0.54090 0.08730 0.29310
H6 H 0.53270 0.11120 0.40800
C8 C 0.25550(16) 0.19782(11) 0.41353(11)
H7 H 0.30760 0.24810 0.45050
C9 C 0.26004(14) 0.17268(10) 0.31495(11)
C10 C 0.36125(15) 0.15424(10) 0.07164(11)
H8 H 0.42650 0.19980 0.06840
N1 N 0.36831(17) 0.08869(10) -0.09375(11)
C11 C 0.07051(16) 0.41166(10) 0.13041(12)
H9 H 0.08590 0.44070 0.19940
H10 H -0.03170 0.41210 0.08900
H11 H 0.12320 0.44430 0.09140
C12 C 0.31763(16) 0.08819(10) -0.00931(11)
C13 C 0.17061(15) 0.01936(10) 0.08384(12)
H12 H 0.10650 -0.02660 0.08820
C14 C 0.12359(15) 0.31525(9) 0.14818(11)
H13 H 0.10690 0.28590 0.07840
H14 H 0.06870 0.28210 0.18620
O2 O 0.23798(16) 0.23282(11) 0.60903(10)
C15 C 0.09738(16) 0.04793(11) 0.30583(13)
H15 H 0.04390 -0.00190 0.26900
C16 C 0.17033(16) 0.14577(11) 0.45663(12)
C17 C 0.09200(16) 0.07301(11) 0.40418(13)
H16 H 0.03450 0.04030 0.43590
C18 C 0.22143(16) 0.02147(10) -0.00084(12)
H17 H 0.19090 -0.02310 -0.05470
N2 N 0.16462(16) 0.16993(12) 0.56147(11)
C19 C 0.73262(16) 0.13382(12) 0.39694(13)
H18 H 0.77100 0.15180 0.34100
H19 H 0.76850 0.07410 0.42330
H20 H 0.76290 0.17700 0.45570
C20 C 0.4746(2) 0.15256(13) -0.09888(14)
H21 H 0.43410 0.21310 -0.10660
H22 H 0.50480 0.13890 -0.16020
H23 H 0.55730 0.14920 -0.03340
C21 C 0.3202(2) 0.02280(13) -0.17728(13)
H24 H 0.34890 -0.03710 -0.14760
H25 H 0.36310 0.03520 -0.23240
H26 H 0.21590 0.02550 -0.20870
#END
