
#######################################################################
#
#                 Cambridge Crystallographic Data Centre
#                                CCDC
#
#######################################################################
#
# If this CIF has been generated from an entry in the Cambridge
# Structural Database, then it will include bibliographic, chemical,
# crystal, experimental, refinement or atomic coordinate data resulting
# from the CCDC's data processing and validation procedures.
#
#######################################################################

data_CSD_CIF_HETYIP
_audit_creation_date 2007-04-19
_audit_creation_method CSD-ConQuest-V1
_database_code_CSD HETYIP
_database_code_depnum_ccdc_archive 'CCDC 264376'
_chemical_formula_sum 'C22 H19 N3 O3'
_chemical_formula_moiety
;
C22 H19 N3 O3
;
_journal_coden_Cambridge 1268
_journal_volume 12
_journal_year 2007
_journal_page_first 173
_journal_name_full 'Molecules '
loop_
_publ_author_name
"J.Escalante"
"C.Ortiz-Nava"
"P.Flores"
"J.M.Priego"
"C.Garcia-Martinez"
_chemical_name_systematic
;
2,3-Dihydro-2(S)-(p-nitrophenyl)-3-((S)-\a-methylbenzyl)-4(1H)-quinazolinone
;
_chemical_melting_point 453.15
_cell_volume   1890.077
_exptl_crystal_colour 'yellow'
_exptl_crystal_density_diffrn 1.312
_exptl_special_details
;
Melting point range 453.15-455.15K

;
_diffrn_ambient_temperature 298
#These two values have been output from a single CSD field.
_refine_ls_R_factor_gt 0.0482
_refine_ls_wR_factor_gt 0.0482
loop_
_citation_database_id_CSD
_citation_special_details
JESZEN "is a stereoisomer of this entry"
_symmetry_cell_setting orthorhombic
_symmetry_space_group_name_H-M 'P 21 21 21'
_symmetry_Int_Tables_number 19
loop_
_symmetry_equiv_pos_site_id
_symmetry_equiv_pos_as_xyz
1 x,y,z
2 1/2-x,-y,1/2+z
3 -x,1/2+y,1/2-z
4 1/2+x,1/2-y,-z
_cell_length_a 10.6698(15)
_cell_length_b 12.3954(17)
_cell_length_c 14.291(2)
_cell_angle_alpha 90
_cell_angle_beta 90
_cell_angle_gamma 90
_cell_formula_units_Z 4
loop_
_atom_type_symbol
_atom_type_radius_bond
C 0.68
H 0.23
N 0.68
O 0.68
loop_
_atom_site_label
_atom_site_type_symbol
_atom_site_fract_x
_atom_site_fract_y
_atom_site_fract_z
N1 N 0.9234(2) 0.76030(16) 1.00875(16)
N2 N 0.82250(17) 0.84003(15) 0.88013(13)
N3 N 1.2271(2) 1.1975(2) 1.02686(16)
O1 O 0.61809(14) 0.88331(15) 0.89795(12)
O2 O 1.1848(2) 1.28760(16) 1.01432(17)
O3 O 1.3277(2) 1.18081(19) 1.06497(17)
C1 C 0.9432(2) 0.82255(18) 0.92479(17)
H1 H 0.99450 0.77910 0.88220
C2 C 0.7211(2) 0.86545(17) 0.93253(17)
C3 C 0.7395(2) 0.86300(17) 1.03509(16)
C4 C 0.6508(2) 0.9060(2) 1.09489(19)
H2 H 0.58470 0.94640 1.07090
C5 C 0.6600(3) 0.8893(2) 1.1898(2)
H3 H 0.59990 0.91800 1.22990
C6 C 0.7588(3) 0.8298(3) 1.2256(2)
H4 H 0.76490 0.81870 1.28980
C7 C 0.8474(3) 0.7871(2) 1.1675(2)
H5 H 0.91280 0.74660 1.19220
C8 C 0.8401(2) 0.80390(18) 1.07183(17)
C9 C 1.0148(2) 0.92674(18) 0.94531(17)
C10 C 0.9623(2) 1.02818(19) 0.94459(17)
H6 H 0.87900 1.03670 0.92690
C11 C 1.0317(2) 1.11725(19) 0.96984(18)
H7 H 0.99580 1.18560 0.96890
C12 C 1.1541(2) 1.10427(19) 0.99625(17)
C13 C 1.2092(2) 1.0046(2) 0.9958(2)
H8 H 1.29300 0.99660 1.01240
C14 C 1.1391(2) 0.9171(2) 0.9705(2)
H9 H 1.17620 0.84920 0.97020
C15 C 0.8060(2) 0.8317(2) 0.77734(16)
H10 H 0.75520 0.89360 0.75760
C16 C 0.9290(2) 0.8374(2) 0.72404(19)
H11 H 0.97670 0.89810 0.74570
H12 H 0.91220 0.84540 0.65840
H13 H 0.97570 0.77230 0.73430
C17 C 0.7348(2) 0.7308(2) 0.75079(17)
C18 C 0.6372(3) 0.7350(3) 0.6876(2)
H14 H 0.61380 0.80110 0.66230
C19 C 0.5741(3) 0.6432(4) 0.6613(2)
H15 H 0.50860 0.64740 0.61850
C20 C 0.6079(4) 0.5449(3) 0.6985(3)
H16 H 0.56460 0.48280 0.68160
C21 C 0.7048(4) 0.5391(3) 0.7598(3)
H17 H 0.72880 0.47270 0.78420
C22 C 0.7676(3) 0.6311(2) 0.7861(2)
H18 H 0.83350 0.62600 0.82840
H19 H 0.989(2) 0.7310(19) 1.0308(16)
#END
