
#######################################################################
#
#                 Cambridge Crystallographic Data Centre
#                                CCDC
#
#######################################################################
#
# If this CIF has been generated from an entry in the Cambridge
# Structural Database, then it will include bibliographic, chemical,
# crystal, experimental, refinement or atomic coordinate data resulting
# from the CCDC's data processing and validation procedures.
#
#######################################################################

data_CSD_CIF_HEVPON
_audit_creation_date 1995-04-20
_audit_creation_method CSD-ConQuest-V1
_database_code_CSD HEVPON
_chemical_formula_sum 'C23 H29 N1 O11'
_chemical_formula_moiety
;
C23 H29 N1 O11
;
_journal_coeditor_code "IUCr AB1162"
_journal_coden_Cambridge 591
_journal_volume 50
_journal_year 1994
_journal_page_first 1779
_journal_name_full 'Acta Crystallogr.,Sect.C:Cryst.Struct.Commun. '
loop_
_publ_author_name
"Z.Czarnocki"
"J.K.Maurin"
"M.Winnicka-Maurin"
_chemical_name_systematic
;
1-(6,7-Dimethoxy-3,4-dihydroisoquinolin-1-yl)-1,2,3,4-butanetetrayl 
tetra-acetate N-oxide
;
_chemical_melting_point 413
_cell_volume   1230.540
_exptl_crystal_colour 'pale yellow'
_exptl_crystal_density_diffrn 1.34
_exptl_special_details
;
Melting point range 413-414K
Absolute configuration

;
_diffrn_ambient_temperature ?
_diffrn_special_details
;
The study was carried out at room temperature,in the range 283-303K

;
#These two values have been output from a single CSD field.
_refine_ls_R_factor_gt 0.0515
_refine_ls_wR_factor_gt 0.0515
_symmetry_cell_setting monoclinic
_symmetry_space_group_name_H-M 'P 21'
_symmetry_Int_Tables_number 4
loop_
_symmetry_equiv_pos_site_id
_symmetry_equiv_pos_as_xyz
1 x,y,z
2 -x,1/2+y,-z
_cell_length_a 12.923(2)
_cell_length_b 7.5697(11)
_cell_length_c 13.743(2)
_cell_angle_alpha 90
_cell_angle_beta 113.749(12)
_cell_angle_gamma 90
_cell_formula_units_Z 2
loop_
_atom_type_symbol
_atom_type_radius_bond
C 0.68
H 0.23
N 0.68
O 0.68
loop_
_atom_site_label
_atom_site_type_symbol
_atom_site_fract_x
_atom_site_fract_y
_atom_site_fract_z
O1 O -0.0394(2) 0.46450 0.1570(2)
O2 O 0.2970(2) 0.5298(8) 0.7598(2)
O3 O 0.4292(2) 0.4359(7) 0.6689(2)
O4 O 0.2244(2) 0.1612(6) 0.3345(2)
O5 O 0.1825(2) 0.4889(6) 0.1319(2)
O6 O 0.4144(2) 0.3637(7) 0.1905(2)
O7 O 0.3345(3) 0.0159(7) 0.1034(2)
O8 O 0.0613(2) 0.0336(7) 0.3133(3)
O9 O 0.2005(3) 0.7434(7) 0.2196(2)
O10 O 0.5053(2) 0.3780(8) 0.3669(2)
O11 O 0.3378(4) 0.1037(9) -0.0507(3)
C1 C 0.1075(2) 0.4191(7) 0.3182(2)
H1? H 0.1458(2) 0.5227(7) 0.3053(2)
N1 N 0.0091(2) 0.4862(7) 0.2586(2)
C2 C -0.0519(3) 0.5998(8) 0.3051(3)
H2 H -0.1318(3) 0.6004(8) 0.2590(3)
H3 H -0.0240(3) 0.7199(8) 0.3104(3)
C3 C -0.0361(2) 0.5348(8) 0.4139(3)
H4 H -0.0674(2) 0.6202(8) 0.4473(3)
H5 H -0.0760(2) 0.4240(8) 0.4074(3)
C4 C 0.1319(3) 0.5349(7) 0.5908(2)
H6 H 0.0844(3) 0.5702(7) 0.6232(2)
C5 C 0.2466(3) 0.5090(7) 0.6524(2)
C6 C 0.3179(2) 0.4589(7) 0.6027(2)
C7 C 0.2740(2) 0.4315(7) 0.4945(2)
H7 H 0.3215(2) 0.3974(7) 0.4620(2)
C8 C 0.1572(2) 0.4548(7) 0.4324(2)
C9 C 0.0879(2) 0.5087(7) 0.4818(2)
C10 C 0.2271(4) 0.5609(11) 0.8150(3)
H8 H 0.2756(31) 0.5555(69) 0.8893(10)
H9 H 0.1661(30) 0.4785(53) 0.7995(39)
H10 H 0.1972(39) 0.6782(27) 0.7972(40)
C11 C 0.5038(3) 0.3869(9) 0.6224(3)
H11 H 0.5776(16) 0.3770(71) 0.6789(23)
H12 H 0.5052(41) 0.4746(52) 0.5725(31)
H13 H 0.4821(44) 0.2751(33) 0.5870(37)
C12 C 0.1622(2) 0.3014(7) 0.2633(2)
H14 H 0.1028(2) 0.2486(7) 0.2004(2)
C13 C 0.2475(2) 0.3968(7) 0.2286(2)
H15 H 0.2930(2) 0.4805(7) 0.2835(2)
C14 C 0.3243(2) 0.2679(7) 0.2034(2)
H16 H 0.3573(2) 0.1854(7) 0.2629(2)
C15 C 0.2640(3) 0.1637(8) 0.1031(3)
H17 H 0.1918(3) 0.1220(8) 0.1001(3)
H18 H 0.2503(3) 0.2375(8) 0.0414(3)
C16 C 0.1624(3) 0.0354(7) 0.3563(3)
C17 C 0.2347(3) -0.0878(8) 0.4376(3)
H19 H 0.1857(34) -0.1229(63) 0.4714(34)
H20 H 0.2986(23) -0.0253(57) 0.4878(28)
H21 H 0.2603(35) -0.1907(38) 0.4130(39)
C18 C 0.1617(3) 0.6619(7) 0.1388(3)
C19 C 0.0844(4) 0.7310(9) 0.0334(4)
H22 H 0.0399(35) 0.8250(41) 0.0436(39)
H23 H 0.0353(34) 0.6416(51) -0.0109(33)
H24 H 0.1312(37) 0.7767(53) -0.0001(37)
C20 C 0.5048(3) 0.4028(8) 0.2816(3)
C21 C 0.5996(3) 0.4797(10) 0.2590(4)
H25 H 0.6474(37) 0.5572(47) 0.3141(27)
H26 H 0.571(4) 0.5414(51) 0.1923(18)
H27 H 0.6424(39) 0.3789(44) 0.2543(34)
C22 C 0.3693(3) 0.0051(9) 0.0249(3)
C23 C 0.4488(5) -0.1443(12) 0.0426(5)
H28 H 0.4552(35) -0.1643(71) -0.0237(17)
H29 H 0.4219(45) -0.2498(44) 0.0635(35)
H30 H 0.5215(20) -0.1135(73) 0.0961(23)
#END
