
#######################################################################
#
#                 Cambridge Crystallographic Data Centre
#                                CCDC
#
#######################################################################
#
# If this CIF has been generated from an entry in the Cambridge
# Structural Database, then it will include bibliographic, chemical,
# crystal, experimental, refinement or atomic coordinate data resulting
# from the CCDC's data processing and validation procedures.
#
#######################################################################

data_CSD_CIF_HEVVEJ
_audit_creation_date 1995-04-20
_audit_creation_method CSD-ConQuest-V1
_database_code_CSD HEVVEJ
_chemical_formula_sum 'C14 H15 N1 O1'
_chemical_formula_moiety
;
C14 H15 N1 O1
;
_journal_coeditor_code "IUCr AL1074"
_journal_coden_Cambridge 591
_journal_volume 50
_journal_year 1994
_journal_page_first 1812
_journal_name_full 'Acta Crystallogr.,Sect.C:Cryst.Struct.Commun. '
loop_
_publ_author_name
"A.Thiruvalluvar"
"V.Parthasarathi"
"A.Nagarajan"
"M.K.Pillay"
_chemical_name_systematic
;
5-Phenyl-3-oxa-4-azatricyclo(5.2.1.0^2,6^)dec-4-ene
;
_chemical_melting_point 382
_cell_volume   1126.122
_exptl_crystal_colour 'Colorless'
_exptl_crystal_density_diffrn 1.26
_diffrn_ambient_temperature ?
_diffrn_special_details
;
The study was carried out at room temperature,in the range 283-303K

;
#These two values have been output from a single CSD field.
_refine_ls_R_factor_gt 0.073
_refine_ls_wR_factor_gt 0.073
_symmetry_cell_setting monoclinic
_symmetry_space_group_name_H-M 'P 21/n'
_symmetry_Int_Tables_number 14
loop_
_symmetry_equiv_pos_site_id
_symmetry_equiv_pos_as_xyz
1 x,y,z
2 1/2-x,1/2+y,1/2-z
3 -x,-y,-z
4 -1/2+x,-1/2-y,-1/2+z
_cell_length_a 12.456(8)
_cell_length_b 6.279(2)
_cell_length_c 14.409(3)
_cell_angle_alpha 90
_cell_angle_beta 92.19(3)
_cell_angle_gamma 90
_cell_formula_units_Z 4
loop_
_atom_type_symbol
_atom_type_radius_bond
C 0.68
H 0.23
N 0.68
O 0.68
loop_
_atom_site_label
_atom_site_type_symbol
_atom_site_fract_x
_atom_site_fract_y
_atom_site_fract_z
C1 C 0.3484(2) -0.0519(5) 1.0109(2)
C2 C 0.2337(2) -0.0282(5) 0.9764(2)
O1 O 0.2068(2) 0.1926(3) 0.9547(1)
N1 N 0.1262(2) 0.2636(4) 1.0129(2)
C3 C 0.1043(2) 0.1157(4) 1.0706(2)
C4 C 0.1676(2) -0.0831(4) 1.0605(2)
C5 C 0.2564(2) -0.1239(4) 1.1369(2)
C6 C 0.3073(3) -0.3364(5) 1.1153(2)
C7 C 0.3683(3) -0.2896(6) 1.0269(3)
C8 C 0.3429(2) 0.0317(5) 1.1100(2)
C9 C 0.0224(2) 0.1526(4) 1.1402(2)
C10 C -0.0263(3) 0.3501(5) 1.1494(2)
C11 C -0.1024(3) 0.3822(6) 1.2142(3)
C12 C -0.1305(3) 0.2181(8) 1.2717(3)
C13 C -0.0853(3) 0.0217(7) 1.2633(2)
C14 C -0.0076(2) -0.0128(5) 1.1976(2)
H1 H 0.40330 0.00510 0.97370
H2 H 0.21620 -0.11740 0.92470
H3 H 0.12440 -0.20620 1.04990
H4 H 0.22800 -0.10230 1.19640
H5 H 0.25940 -0.45390 1.10970
H6 H 0.35640 -0.37260 1.16490
H7 H 0.44380 -0.31500 1.03030
H8 H 0.33930 -0.37560 0.97770
H9 H 0.31780 0.17440 1.11320
H10 H 0.41280 0.01820 1.13830
H11 H -0.00150 0.46230 1.11130
H12 H -0.12990 0.52260 1.22290
H13 H -0.19210 0.24530 1.30700
H14 H -0.10520 -0.10010 1.29790
H15 H 0.02530 -0.14890 1.19370
#END
