
#######################################################################
#
#                 Cambridge Crystallographic Data Centre
#                                CCDC
#
#######################################################################
#
# If this CIF has been generated from an entry in the Cambridge
# Structural Database, then it will include bibliographic, chemical,
# crystal, experimental, refinement or atomic coordinate data resulting
# from the CCDC's data processing and validation procedures.
#
#######################################################################

data_CSD_CIF_HEVZIT
_audit_creation_date 2013-04-25
_audit_creation_method CSD-ConQuest-V1
_database_code_CSD HEVZIT
_database_code_depnum_ccdc_archive 'CCDC 876272'
_chemical_formula_sum 'C14 H19 N3 O5'
_chemical_formula_moiety
;
C14 H19 N3 O5
;
_journal_coden_Cambridge 119
_journal_volume 1036
_journal_year 2013
_journal_page_first 350
_journal_name_full 'J.Mol.Struct. '
loop_
_publ_author_name
"A.D.Konar"
_chemical_name_systematic
;
t-Butyl (1-((3-nitrophenyl)amino)-1-oxopropan-2-yl)carbamate
;
_cell_volume    372.968
_exptl_crystal_colour 'colorless'
_exptl_crystal_density_diffrn 1.377
_exptl_crystal_description 'needle'
_diffrn_ambient_temperature 296
#These two values have been output from a single CSD field.
_refine_ls_R_factor_gt 0.0341
_refine_ls_wR_factor_gt 0.0341
loop_
_citation_database_id_CSD
_citation_special_details
HEVZEP "is a stereoisomer of this entry"
_symmetry_cell_setting triclinic
_symmetry_space_group_name_H-M 'P 1'
_symmetry_Int_Tables_number 1
loop_
_symmetry_equiv_pos_site_id
_symmetry_equiv_pos_as_xyz
1 x,y,z
_cell_length_a 5.0385(3)
_cell_length_b 5.6116(3)
_cell_length_c 13.3741(9)
_cell_angle_alpha 97.152(4)
_cell_angle_beta 91.665(4)
_cell_angle_gamma 95.767(4)
_cell_formula_units_Z 1
loop_
_atom_type_symbol
_atom_type_radius_bond
C 0.68
H 0.23
N 0.68
O 0.68
loop_
_atom_site_label
_atom_site_type_symbol
_atom_site_fract_x
_atom_site_fract_y
_atom_site_fract_z
N1 N 1.3457(3) 0.3493(3) -0.13068(13)
O1 O 1.3726(2) 0.8182(2) 0.19248(12)
O2 O 1.4965(3) 0.5358(3) -0.12350(13)
N2 N 0.9291(3) 0.6897(3) 0.17262(13)
O3 O 1.3554(3) 0.1789(3) -0.19650(14)
O4 O 0.6827(2) 0.8200(2) 0.42856(12)
O5 O 1.0111(2) 0.7168(2) 0.53098(11)
C1 C 1.1324(3) 0.5202(3) 0.01932(15)
H1 H 1.25110 0.65870 0.02060
C2 C 0.7628(4) 0.2930(4) 0.08685(17)
H2 H 0.63390 0.28080 0.13480
C3 C 1.1423(3) 0.8334(3) 0.21831(14)
N3 N 1.1221(3) 0.9021(3) 0.39955(13)
C4 C 1.1390(4) 0.3272(3) -0.05519(15)
C5 C 1.0770(3) 1.0103(3) 0.30833(14)
H3 H 0.88820 1.03690 0.30230
C6 C 0.9430(3) 0.5013(3) 0.09249(14)
C7 C 0.9186(3) 0.8126(3) 0.45163(14)
C8 C 0.8268(3) 0.6280(3) 0.60542(15)
C9 C 0.9657(4) 0.1186(3) -0.06243(18)
H4 H 0.97580 -0.00770 -0.11380
C10 C 0.6896(4) 0.8370(3) 0.65696(16)
H5 H 0.82010 0.97250 0.67720
H6 H 0.60290 0.78850 0.71530
H7 H 0.55940 0.88170 0.61090
C11 C 0.7752(4) 0.1053(3) 0.01040(18)
H8 H 0.65430 -0.03210 0.00760
C12 C 1.0109(4) 0.5382(5) 0.6808(2)
H9 H 1.09530 0.40540 0.64800
H10 H 0.90920 0.48580 0.73510
H11 H 1.14480 0.66650 0.70690
C13 C 0.6307(4) 0.4212(3) 0.55519(18)
H12 H 0.49480 0.48470 0.51760
H13 H 0.54990 0.33420 0.60580
H14 H 0.72360 0.31430 0.51040
C14 C 1.2467(4) 1.2510(3) 0.31097(17)
H15 H 1.19160 1.36390 0.36430
H16 H 1.22460 1.31230 0.24770
H17 H 1.43100 1.22900 0.32260
H18 H 1.278(6) 0.881(4) 0.414(2)
H19 H 0.774(6) 0.714(4) 0.192(2)
#END
