
#######################################################################
#
#                 Cambridge Crystallographic Data Centre
#                                CCDC
#
#######################################################################
#
# If this CIF has been generated from an entry in the Cambridge
# Structural Database, then it will include bibliographic, chemical,
# crystal, experimental, refinement or atomic coordinate data resulting
# from the CCDC's data processing and validation procedures.
#
#######################################################################

data_CSD_CIF_HEVZOZ
_audit_creation_date 2013-04-25
_audit_creation_method CSD-ConQuest-V1
_database_code_CSD HEVZOZ
_database_code_depnum_ccdc_archive 'CCDC 876273'
_chemical_formula_sum 'C14 H19 N3 O4'
_chemical_formula_moiety
;
C14 H19 N3 O4
;
_journal_coden_Cambridge 119
_journal_volume 1036
_journal_year 2013
_journal_page_first 350
_journal_name_full 'J.Mol.Struct. '
loop_
_publ_author_name
"A.D.Konar"
_chemical_name_systematic
;
N^2^-(2,2-Dimethylpropanoyl)-N-(3-nitrophenyl)alaninamide
;
_cell_volume   1554.461
_exptl_crystal_colour 'colorless'
_exptl_crystal_density_diffrn 1.253
_exptl_crystal_description 'needle'
_diffrn_ambient_temperature 296
#These two values have been output from a single CSD field.
_refine_ls_R_factor_gt 0.0551
_refine_ls_wR_factor_gt 0.0551
_symmetry_cell_setting monoclinic
_symmetry_space_group_name_H-M 'P 21/n'
_symmetry_Int_Tables_number 14
loop_
_symmetry_equiv_pos_site_id
_symmetry_equiv_pos_as_xyz
1 x,y,z
2 1/2-x,1/2+y,1/2-z
3 -x,-y,-z
4 -1/2+x,-1/2-y,-1/2+z
_cell_length_a 6.9562(2)
_cell_length_b 21.3693(6)
_cell_length_c 10.5537(3)
_cell_angle_alpha 90
_cell_angle_beta 97.752(2)
_cell_angle_gamma 90
_cell_formula_units_Z 4
loop_
_atom_type_symbol
_atom_type_radius_bond
C 0.68
H 0.23
N 0.68
O 0.68
loop_
_atom_site_label
_atom_site_type_symbol
_atom_site_fract_x
_atom_site_fract_y
_atom_site_fract_z
O1 O 0.8279(2) 0.12806(5) 0.21322(10)
O2 O 1.1227(2) 0.08723(5) 0.63858(11)
O3 O 0.7030(3) -0.14171(8) -0.24877(14)
O4 O 0.7889(3) -0.16966(7) -0.05436(16)
N1 N 0.8117(2) 0.02194(6) 0.20580(12)
N2 N 0.9779(2) 0.12957(6) 0.45777(11)
N3 N 0.7427(3) -0.13000(8) -0.13531(16)
C1 C 0.8393(2) 0.07739(6) 0.26588(12)
C2 C 0.8866(2) 0.07175(6) 0.41080(12)
H1 H 0.97900 0.03740 0.43080
C3 C 0.77179(17) 0.01073(6) 0.07308(11)
C4 C 0.77333(19) -0.05105(7) 0.03397(12)
H2 H 0.79810 -0.08300 0.09370
C5 C 0.7376(2) -0.06455(7) -0.09496(14)
C6 C 0.7335(2) 0.05780(7) -0.01758(13)
H3 H 0.73040 0.09940 0.00780
C7 C 1.0924(3) 0.13329(6) 0.56934(13)
C8 C 0.7016(2) -0.01856(9) -0.18671(13)
H4 H 0.67920 -0.02850 -0.27320
C9 C 0.7000(2) 0.04217(9) -0.14629(14)
H5 H 0.67570 0.07390 -0.20670
C10 C 1.1786(3) 0.19684(7) 0.61071(15)
C11 C 0.7045(3) 0.05739(10) 0.46892(16)
H6 H 0.73280 0.05860 0.56050
H7 H 0.65810 0.01650 0.44230
H8 H 0.60680 0.08800 0.44090
C12 C 1.1537(4) 0.24532(8) 0.5049(2)
H9 H 1.22050 0.28300 0.53420
H10 H 1.01820 0.25410 0.48160
H11 H 1.20660 0.22950 0.43180
C13 C 1.0747(4) 0.21923(10) 0.7210(2)
H12 H 1.10100 0.19080 0.79160
H13 H 0.93750 0.22070 0.69350
H14 H 1.12040 0.26020 0.74720
C14 C 1.3891(4) 0.18802(12) 0.6603(3)
H15 H 1.40220 0.15670 0.72620
H16 H 1.44250 0.22680 0.69480
H17 H 1.45750 0.17490 0.59180
H18 H 0.842(3) -0.0095(9) 0.2478(17)
H19 H 0.965(3) 0.1617(8) 0.392(2)
#END
