
#######################################################################
#
#                 Cambridge Crystallographic Data Centre
#                                CCDC
#
#######################################################################
#
# If this CIF has been generated from an entry in the Cambridge
# Structural Database, then it will include bibliographic, chemical,
# crystal, experimental, refinement or atomic coordinate data resulting
# from the CCDC's data processing and validation procedures.
#
#######################################################################

data_CSD_CIF_HEWPUV
_audit_creation_date 2007-04-19
_audit_creation_method CSD-ConQuest-V1
_database_code_CSD HEWPUV
_database_code_depnum_ccdc_archive 'CCDC 636653'
_chemical_formula_sum 'C8 H10 N2 O1'
_chemical_formula_moiety
;
C8 H10 N2 O1
;
_journal_coeditor_code "IUCr HB2249"
_journal_coden_Cambridge 1370
_journal_volume 63
_journal_year 2007
_journal_page_first o487
_journal_name_full 'Acta Crystallogr.,Sect.E:Struct.Rep.Online '
loop_
_publ_author_name
"Hai-Bo Wang"
"Wei-Lin Ding"
"Zhi-Tao Xing"
"Pin-Liang Wang"
_chemical_name_systematic
;
2-Methylbenzamidoxime
;
_cell_volume    818.826
_exptl_crystal_colour 'yellow'
_exptl_crystal_density_diffrn 1.218
_exptl_crystal_description 'block'
_exptl_crystal_preparation 'ethanol/water'
_diffrn_ambient_temperature 293
#These two values have been output from a single CSD field.
_refine_ls_R_factor_gt 0.0595
_refine_ls_wR_factor_gt 0.0595
_symmetry_cell_setting monoclinic
_symmetry_space_group_name_H-M 'P 21/n'
_symmetry_Int_Tables_number 14
loop_
_symmetry_equiv_pos_site_id
_symmetry_equiv_pos_as_xyz
1 x,y,z
2 1/2-x,1/2+y,1/2-z
3 -x,-y,-z
4 -1/2+x,-1/2-y,-1/2+z
_cell_length_a 9.751(2)
_cell_length_b 7.0880(14)
_cell_length_c 11.982(2)
_cell_angle_alpha 90
_cell_angle_beta 98.60(3)
_cell_angle_gamma 90
_cell_formula_units_Z 4
loop_
_atom_type_symbol
_atom_type_radius_bond
C 0.68
H 0.23
N 0.68
O 0.68
loop_
_atom_site_label
_atom_site_type_symbol
_atom_site_fract_x
_atom_site_fract_y
_atom_site_fract_z
O1 O 0.65920(16) 0.0065(2) 0.06365(14)
H1 H 0.62280 -0.06880 0.01630
N1 N 0.7473(2) 0.2577(3) 0.2082(2)
H2 H 0.80350 0.18030 0.18320
H3 H 0.77850 0.34080 0.25780
N2 N 0.55481(18) 0.1307(2) 0.09602(15)
C1 C 0.5160(4) 0.1785(4) 0.3878(2)
H4 H 0.47710 0.18230 0.45680
H5 H 0.61520 0.17040 0.40490
H6 H 0.48100 0.07030 0.34450
C2 C 0.4765(2) 0.3548(3) 0.32086(18)
C3 C 0.3938(2) 0.4922(3) 0.3610(2)
H7 H 0.36470 0.47440 0.43070
C4 C 0.3537(3) 0.6534(4) 0.3007(2)
H8 H 0.29810 0.74210 0.32950
C5 C 0.3960(3) 0.6826(4) 0.1984(2)
H9 H 0.36990 0.79160 0.15740
C6 C 0.4778(2) 0.5489(3) 0.1564(2)
H10 H 0.50620 0.56860 0.08660
C7 C 0.5183(2) 0.3863(3) 0.21620(17)
C8 C 0.6110(2) 0.2487(3) 0.16958(17)
#END
