
#######################################################################
#
#                 Cambridge Crystallographic Data Centre
#                                CCDC
#
#######################################################################
#
# If this CIF has been generated from an entry in the Cambridge
# Structural Database, then it will include bibliographic, chemical,
# crystal, experimental, refinement or atomic coordinate data resulting
# from the CCDC's data processing and validation procedures.
#
#######################################################################

data_CSD_CIF_HEWWIQ
_audit_creation_date 2007-04-19
_audit_creation_method CSD-ConQuest-V1
_database_code_CSD HEWWIQ
_database_code_depnum_ccdc_archive 'CCDC 636687'
_chemical_formula_sum 'C9 H9 N1 O4'
_chemical_formula_moiety
;
C9 H9 N1 O4
;
_journal_coeditor_code "IUCr HK2182"
_journal_coden_Cambridge 1370
_journal_volume 63
_journal_year 2007
_journal_page_first o528
_journal_name_full 'Acta Crystallogr.,Sect.E:Struct.Rep.Online '
loop_
_publ_author_name
"Ai-Hua Lu"
"Jun-Ping Wang"
"You-Sheng Chen"
"Hong-Sheng Jia"
"Hong-Fei Ma"
_chemical_name_systematic
;
2-(2-Methyl-3-nitrophenyl)acetic acid
;
_chemical_melting_point 405
_cell_volume    452.005
_exptl_crystal_colour 'colorless'
_exptl_crystal_density_diffrn 1.434
_exptl_crystal_description 'block'
_exptl_crystal_preparation 'methanol'
_diffrn_ambient_temperature 294
#These two values have been output from a single CSD field.
_refine_ls_R_factor_gt 0.0472
_refine_ls_wR_factor_gt 0.0472
_symmetry_cell_setting triclinic
_symmetry_space_group_name_H-M 'P -1'
_symmetry_Int_Tables_number 2
loop_
_symmetry_equiv_pos_site_id
_symmetry_equiv_pos_as_xyz
1 x,y,z
2 -x,-y,-z
_cell_length_a 7.2250(14)
_cell_length_b 8.2220(16)
_cell_length_c 8.6470(17)
_cell_angle_alpha 74.21(3)
_cell_angle_beta 75.65(3)
_cell_angle_gamma 67.96(3)
_cell_formula_units_Z 2
loop_
_atom_type_symbol
_atom_type_radius_bond
C 0.68
H 0.23
N 0.68
O 0.68
loop_
_atom_site_label
_atom_site_type_symbol
_atom_site_fract_x
_atom_site_fract_y
_atom_site_fract_z
O1 O 0.5191(3) 0.1679(2) 0.2384(2)
O2 O 0.2996(3) 0.0797(2) 0.4254(2)
O3 O 0.2238(2) 1.08223(19) 0.04882(19)
H1 H 0.32250 1.10990 -0.00370
O4 O 0.4596(2) 0.82312(18) 0.12413(16)
N1 N 0.3797(3) 0.1920(2) 0.3506(2)
C1 C 0.2225(4) 0.5275(3) 0.1222(3)
H2 H 0.26950 0.40730 0.10420
H3 H 0.30310 0.59360 0.04600
H4 H 0.08360 0.58410 0.10740
C2 C 0.2403(3) 0.5234(3) 0.2928(2)
C3 C 0.3051(3) 0.3641(3) 0.4046(2)
C4 C 0.3126(3) 0.3528(3) 0.5642(2)
H5 H 0.35400 0.24220 0.63370
C5 C 0.2575(3) 0.5090(3) 0.6185(3)
H6 H 0.26290 0.50610 0.72560
C6 C 0.1937(3) 0.6708(3) 0.5121(3)
H7 H 0.15680 0.77650 0.54920
C7 C 0.1831(3) 0.6802(3) 0.3524(2)
C8 C 0.1130(3) 0.8621(3) 0.2426(3)
H8 H 0.02430 0.85950 0.17610
H9 H 0.03520 0.95060 0.30940
C9 C 0.2843(3) 0.9180(2) 0.1332(2)
#END
