
#######################################################################
#
#                 Cambridge Crystallographic Data Centre
#                                CCDC
#
#######################################################################
#
# If this CIF has been generated from an entry in the Cambridge
# Structural Database, then it will include bibliographic, chemical,
# crystal, experimental, refinement or atomic coordinate data resulting
# from the CCDC's data processing and validation procedures.
#
#######################################################################

data_CSD_CIF_HEWZER
_audit_creation_date 2018-06-18
_audit_creation_method CSD-ConQuest-V1
_database_code_CSD HEWZER
_database_code_depnum_ccdc_archive 'CCDC 1589745'
_chemical_formula_sum 'C18 H18 N2 O2'
_chemical_formula_moiety
;
C18 H18 N2 O2
;
_journal_coden_Cambridge 1220
_journal_volume 24
_journal_year 2018
_journal_page_first 5901
_journal_name_full 'Chem.-Eur.J. '
loop_
_publ_author_name
"D.S.Timofeeva"
"R.J.Mayer"
"P.Mayer"
"A.R.Ofial"
"H.Mayr"
_chemical_name_systematic
;
1-[2-(4-nitrophenyl)-1-phenylethenyl]pyrrolidine
;
_cell_volume   1493.367
_exptl_crystal_colour 'red'
_exptl_crystal_density_diffrn 1.309
_exptl_crystal_description 'block'
_diffrn_ambient_temperature 100
_refine_special_details
;
C16,C17 and C16B,C17B disordered over two sites with occupancies 0.520:0.480.

;
#These two values have been output from a single CSD field.
_refine_ls_R_factor_gt 0.044
_refine_ls_wR_factor_gt 0.044
_symmetry_cell_setting monoclinic
_symmetry_space_group_name_H-M 'P 2/c'
_symmetry_Int_Tables_number 13
loop_
_symmetry_equiv_pos_site_id
_symmetry_equiv_pos_as_xyz
1 x,y,z
2 -x,y,1/2-z
3 -x,-y,-z
4 x,-y,-1/2+z
_cell_length_a 11.7839(6)
_cell_length_b 5.9331(3)
_cell_length_c 21.5761(11)
_cell_angle_alpha 90
_cell_angle_beta 98.121(2)
_cell_angle_gamma 90
_cell_formula_units_Z 4
loop_
_atom_type_symbol
_atom_type_radius_bond
C 0.68
H 0.23
N 0.68
O 0.68
loop_
_atom_site_label
_atom_site_type_symbol
_atom_site_fract_x
_atom_site_fract_y
_atom_site_fract_z
O1 O 0.91635(10) 0.0307(2) 0.58188(5)
O2 O 0.83945(11) 0.2918(2) 0.63204(5)
N1 N 0.75361(12) 1.0718(2) 0.29750(6)
N2 N 0.87014(11) 0.2161(2) 0.58382(6)
C1 C 0.73777(14) 0.9273(3) 0.34454(7)
C2 C 0.81685(14) 0.7646(3) 0.36510(7)
H1 H 0.87510 0.74000 0.33960
C3 C 0.82308(13) 0.6257(3) 0.42054(7)
C4 C 0.88627(13) 0.4231(3) 0.42316(7)
H2 H 0.92120 0.38030 0.38790
C5 C 0.89918(13) 0.2851(3) 0.47501(7)
H3 H 0.94020 0.14730 0.47500
C6 C 0.85109(13) 0.3515(3) 0.52722(7)
C7 C 0.78970(13) 0.5516(3) 0.52758(7)
H4 H 0.75820 0.59580 0.56390
C8 C 0.77510(14) 0.6849(3) 0.47483(7)
H5 H 0.73180 0.81990 0.47490
C9 C 0.62804(14) 0.9566(3) 0.37120(7)
C10 C 0.60450(14) 1.1546(3) 0.40167(7)
H6 H 0.65850 1.27450 0.40550
C11 C 0.50302(15) 1.1778(3) 0.42643(8)
H7 H 0.48790 1.31280 0.44750
C12 C 0.42340(15) 1.0042(3) 0.42056(8)
H8 H 0.35360 1.02050 0.43740
C13 C 0.44566(15) 0.8074(3) 0.39017(8)
H9 H 0.39110 0.68860 0.38610
C14 C 0.54744(14) 0.7833(3) 0.36561(8)
H10 H 0.56240 0.64770 0.34480
C15 C 0.85830(16) 1.0700(3) 0.26805(8)
H11 H 0.87260 0.91920 0.25110
H12 H 0.92580 1.11680 0.29790
C16 C 0.8288(8) 1.2497(15) 0.2136(4)
H13 H 0.89150 1.36120 0.21460
H14 H 0.81840 1.17400 0.17230
C17 C 0.7169(7) 1.3668(12) 0.2250(4)
H15 H 0.73290 1.50620 0.24990
H16 H 0.66870 1.40450 0.18490
C18 C 0.66213(17) 1.1983(4) 0.25942(9)
H17 H 0.61480 1.09590 0.23010
H18 H 0.61190 1.27160 0.28660
H19? H 0.85890 0.93860 0.23980
H20? H 0.92700 1.06280 0.30020
C19? C 0.8565(8) 1.2850(17) 0.2319(4)
H21? H 0.88520 1.41360 0.25890
H22? H 0.90100 1.27310 0.19640
C20? C 0.7309(8) 1.302(2) 0.2102(5)
H23? H 0.71170 1.22220 0.16990
H24? H 0.70930 1.46270 0.20350
H25? H 0.62930 1.31580 0.28420
H26? H 0.60020 1.09790 0.23980
#END
