
#######################################################################
#
#                 Cambridge Crystallographic Data Centre
#                                CCDC
#
#######################################################################
#
# If this CIF has been generated from an entry in the Cambridge
# Structural Database, then it will include bibliographic, chemical,
# crystal, experimental, refinement or atomic coordinate data resulting
# from the CCDC's data processing and validation procedures.
#
#######################################################################

data_CSD_CIF_HEXCOF
_audit_creation_date 2018-06-18
_audit_creation_method CSD-ConQuest-V1
_database_code_CSD HEXCOF
_database_code_depnum_ccdc_archive 'CCDC 1838053'
_chemical_formula_sum 'C21 H24 N2 O4'
_chemical_formula_moiety
;
C21 H24 N2 O4
;
_journal_coden_Cambridge 1291
_journal_volume 2018
_journal_year 2018
_journal_page_first 4490
_journal_name_full 'Eur.J.Org.Chem. '
loop_
_publ_author_name
"B.Schafer"
"M.Schmidtmann"
"J.Christoffers"
_chemical_name_systematic
;
ethyl 
9-methyl-9-nitro-6,7,8,9,10,11-hexahydrobenzo[b]acridine-10a(6aH)-carboxylate
;
_cell_volume   1795.270
_exptl_crystal_colour 'colorless'
_exptl_crystal_density_diffrn 1.363
_exptl_special_details
;
Absolute configuration

;
_exptl_crystal_description 'block'
_diffrn_ambient_temperature 100
#These two values have been output from a single CSD field.
_refine_ls_R_factor_gt 0.0327
_refine_ls_wR_factor_gt 0.0327
_symmetry_cell_setting orthorhombic
_symmetry_space_group_name_H-M 'P 21 21 21'
_symmetry_Int_Tables_number 19
loop_
_symmetry_equiv_pos_site_id
_symmetry_equiv_pos_as_xyz
1 x,y,z
2 1/2-x,-y,1/2+z
3 -x,1/2+y,1/2-z
4 1/2+x,1/2-y,-z
_cell_length_a 6.5128(2)
_cell_length_b 8.6580(3)
_cell_length_c 31.8379(10)
_cell_angle_alpha 90
_cell_angle_beta 90
_cell_angle_gamma 90
_cell_formula_units_Z 4
loop_
_atom_type_symbol
_atom_type_radius_bond
C 0.68
H 0.23
N 0.68
O 0.68
loop_
_atom_site_label
_atom_site_type_symbol
_atom_site_fract_x
_atom_site_fract_y
_atom_site_fract_z
O1 O 0.34133(13) 0.42946(10) 0.15633(2)
O2 O 0.62466(15) 0.55776(11) 0.13778(3)
O3 O 0.60027(16) 0.28164(12) 0.22415(3)
O4 O 0.31000(16) 0.16086(13) 0.22209(3)
N1 N 0.34005(14) 0.46480(11) -0.00240(3)
N2 N 0.48320(16) 0.18596(12) 0.20874(3)
C1 C 0.45496(16) 0.55847(12) -0.02783(3)
C2 C 0.35957(18) 0.62823(13) -0.06313(3)
H1 H 0.21995 0.60582 -0.06925
C3 C 0.4670(2) 0.72783(13) -0.08854(3)
H2 H 0.40115 0.77408 -0.11201
C4 C 0.6753(2) 0.76183(13) -0.07991(3)
H3 H 0.74828 0.83142 -0.09750
C5 C 0.77268(18) 0.69476(13) -0.04622(3)
H4 H 0.91267 0.71799 -0.04071
C6 C 0.66531(16) 0.59116(12) -0.01968(3)
C7 C 0.75702(16) 0.51922(12) 0.01557(3)
H5 H 0.89836 0.53553 0.02146
C8 C 0.64160(15) 0.42584(12) 0.04126(3)
C9 C 0.73872(16) 0.34339(13) 0.07802(3)
H6 H 0.84377 0.41173 0.09066
H7 H 0.80959 0.24980 0.06758
C10 C 0.58491(15) 0.29565(12) 0.11233(3)
C11 C 0.69835(16) 0.18699(13) 0.14329(3)
H8 H 0.78769 0.11763 0.12664
H9 H 0.78918 0.25120 0.16109
C12 C 0.56665(18) 0.08659(13) 0.17231(3)
C13 C 0.38887(19) 0.01087(13) 0.14888(3)
H10 H 0.29417 -0.03549 0.16968
H11 H 0.44394 -0.07398 0.13134
C14 C 0.26682(17) 0.12068(12) 0.12078(3)
H12 H 0.19217 0.19611 0.13846
H13 H 0.16423 0.06110 0.10453
C15 C 0.40892(16) 0.20712(12) 0.09044(3)
H14 H 0.47613 0.12619 0.07275
C16 C 0.29191(15) 0.31164(12) 0.06009(3)
H15 H 0.19889 0.24718 0.04284
H16 H 0.20590 0.38396 0.07654
C17 C 0.42935(16) 0.40404(12) 0.03116(3)
C18 C 0.52110(16) 0.44269(12) 0.13612(3)
C19 C 0.28967(18) 0.55527(14) 0.18517(3)
H17 H 0.30107 0.65610 0.17069
H18 H 0.38437 0.55519 0.20949
C20 C 0.0720(2) 0.52876(17) 0.19962(4)
H19 H -0.02037 0.53104 0.17533
H20 H 0.03263 0.61007 0.21945
H21 H 0.06234 0.42792 0.21346
C21 C 0.7014(2) -0.03407(15) 0.19424(4)
H22 H 0.61914 -0.09059 0.21493
H23 H 0.81569 0.01776 0.20847
H24 H 0.75560 -0.10653 0.17335
#END
