
#######################################################################
#
#                 Cambridge Crystallographic Data Centre
#                                CCDC
#
#######################################################################
#
# If this CIF has been generated from an entry in the Cambridge
# Structural Database, then it will include bibliographic, chemical,
# crystal, experimental, refinement or atomic coordinate data resulting
# from the CCDC's data processing and validation procedures.
#
#######################################################################

data_CSD_CIF_HEXDAS
_audit_creation_date 2018-06-18
_audit_creation_method CSD-ConQuest-V1
_database_code_CSD HEXDAS
_database_code_depnum_ccdc_archive 'CCDC 1838054'
_chemical_formula_sum 'C14 H19 N1 O5'
_chemical_formula_moiety
;
C14 H19 N1 O5
;
_journal_coden_Cambridge 1291
_journal_volume 2018
_journal_year 2018
_journal_page_first 4490
_journal_name_full 'Eur.J.Org.Chem. '
loop_
_publ_author_name
"B.Schafer"
"M.Schmidtmann"
"J.Christoffers"
_chemical_name_systematic
;
ethyl 
3-methyl-3-nitro-7-oxo-1,3,4,5,6,7-hexahydronaphthalene-4a(2H)-carboxylate
;
_cell_volume   1377.863
_exptl_crystal_colour 'colorless'
_exptl_crystal_density_diffrn 1.356
_exptl_crystal_description 'block'
_diffrn_ambient_temperature 100
#These two values have been output from a single CSD field.
_refine_ls_R_factor_gt 0.0357
_refine_ls_wR_factor_gt 0.0357
_symmetry_cell_setting monoclinic
_symmetry_space_group_name_H-M 'P 21/c'
_symmetry_Int_Tables_number 14
loop_
_symmetry_equiv_pos_site_id
_symmetry_equiv_pos_as_xyz
1 x,y,z
2 -x,1/2+y,1/2-z
3 -x,-y,-z
4 x,-1/2-y,-1/2+z
_cell_length_a 8.5088(4)
_cell_length_b 25.9725(13)
_cell_length_c 6.6769(3)
_cell_angle_alpha 90
_cell_angle_beta 110.9665(14)
_cell_angle_gamma 90
_cell_formula_units_Z 4
loop_
_atom_type_symbol
_atom_type_radius_bond
C 0.68
H 0.23
N 0.68
O 0.68
loop_
_atom_site_label
_atom_site_type_symbol
_atom_site_fract_x
_atom_site_fract_y
_atom_site_fract_z
O1 O -0.04232(7) 0.04823(2) 0.24929(9)
O2 O -0.22743(8) 0.10817(2) 0.19972(12)
O3 O 0.53900(8) 0.27545(2) 0.41271(10)
O4 O 0.33173(6) 0.07651(2) 0.51059(7)
O5 O 0.16525(6) 0.13800(2) 0.56502(7)
N1 N -0.11170(7) 0.08787(2) 0.16133(9)
C1 C -0.01814(7) 0.20206(2) 0.14397(10)
H1 H -0.04892 0.23839 0.10400
H2 H -0.05682 0.19324 0.26304
C2 C -0.10915(7) 0.16767(2) -0.04824(10)
H3 H -0.23179 0.16951 -0.07895
H4 H -0.08822 0.18088 -0.17553
C3 C -0.05308(7) 0.11165(2) -0.01182(9)
C4 C 0.13777(6) 0.10751(2) 0.05849(8)
H5 H 0.16988 0.11542 -0.06680
H6 H 0.16994 0.07131 0.09939
C5 C 0.24307(6) 0.14259(2) 0.24733(8)
C6 C 0.42416(7) 0.14383(2) 0.24741(9)
H7 H 0.47527 0.10925 0.28468
H8 H 0.42118 0.15251 0.10173
C7 C 0.53246(7) 0.18312(3) 0.4069(1)
H9 H 0.54556 0.17244 0.55435
H10 H 0.64572 0.18422 0.39690
C8 C 0.45467(8) 0.23598(2) 0.36351(10)
C9 C 0.27015(8) 0.23862(2) 0.26650(9)
H11 H 0.21885 0.27158 0.23440
C10 C 0.17007(7) 0.19682(2) 0.22075(8)
C11 C -0.13959(8) 0.07892(3) -0.21192(11)
H12 H -0.10733 0.09144 -0.33025
H13 H -0.26195 0.08147 -0.25212
H14 H -0.10483 0.04291 -0.18143
C12 C 0.24111(6) 0.11988(2) 0.45888(8)
C13 C 0.32364(8) 0.04928(2) 0.69711(9)
H15 H 0.20495 0.04318 0.68142
H16 H 0.37826 0.06983 0.82862
C14 C 0.41407(8) -0.00122(2) 0.71152(10)
H17 H 0.36165 -0.02061 0.57824
H18 H 0.40692 -0.02122 0.83242
H19 H 0.53249 0.00532 0.73327
#END
