
#######################################################################
#
#                 Cambridge Crystallographic Data Centre
#                                CCDC
#
#######################################################################
#
# If this CIF has been generated from an entry in the Cambridge
# Structural Database, then it will include bibliographic, chemical,
# crystal, experimental, refinement or atomic coordinate data resulting
# from the CCDC's data processing and validation procedures.
#
#######################################################################

data_CSD_CIF_HEXQEG
_audit_creation_date 1999-05-27
_audit_creation_method CSD-ConQuest-V1
_database_code_CSD HEXQEG
_database_code_depnum_ccdc_journal 207/259
_chemical_formula_sum 'C14 H25 N1 O3'
_chemical_formula_moiety
;
C14 H25 N1 O3
;
_journal_coden_Cambridge 207
_journal_year 1998
_journal_page_first 3471
_journal_name_full 'J.Chem.Soc.,Perkin Trans.1 '
loop_
_publ_author_name
"L.C.Baillie"
"A.Batsanov"
"J.R.Bearder"
"D.A.Whiting"
_chemical_name_systematic
;
(1\b,4\b,8\b,11\b)-2-Methyl-7\a-dimethoxymethyl-7\b-methyl-2-aza-3-oxatricyclo
(6.2.1.0^4,11^)undecane
;
_chemical_name_common
;
(1beta,4beta,7beta,11beta)-3-Methyl-8alpha-dimethoxymethyl-8beta-methyl-3-aza-
2-oxatricyclo(5.3.1.0$4,11!)undecane
;
_chemical_melting_point 348.15
_cell_volume   1429.475
_exptl_crystal_colour 'colorless'
_exptl_crystal_density_diffrn 1.187
_exptl_special_details
;
Melting point range 348.15-354.15K

;
_exptl_crystal_description 'plate'
_diffrn_ambient_temperature ?
_diffrn_special_details
;
The study was carried out at room temperature,in the range 283-303K

;
#These two values have been output from a single CSD field.
_refine_ls_R_factor_gt 0.0551
_refine_ls_wR_factor_gt 0.0551
_symmetry_cell_setting monoclinic
_symmetry_space_group_name_H-M 'P 21/c'
_symmetry_Int_Tables_number 14
loop_
_symmetry_equiv_pos_site_id
_symmetry_equiv_pos_as_xyz
1 x,y,z
2 -x,1/2+y,1/2-z
3 -x,-y,-z
4 x,-1/2-y,-1/2+z
_cell_length_a 9.397(1)
_cell_length_b 12.089(1)
_cell_length_c 13.052(2)
_cell_angle_alpha 90
_cell_angle_beta 105.40(1)
_cell_angle_gamma 90
_cell_formula_units_Z 4
loop_
_atom_type_symbol
_atom_type_radius_bond
C 0.68
H 0.23
N 0.68
O 0.68
loop_
_atom_site_label
_atom_site_type_symbol
_atom_site_fract_x
_atom_site_fract_y
_atom_site_fract_z
O1 O 0.0850(4) 0.3099(4) 0.6427(4)
O2 O 0.4012(4) 0.6905(4) 0.5765(3)
O3 O 0.3129(5) 0.7502(4) 0.7150(3)
N1 N 0.0985(6) 0.2455(5) 0.5511(4)
C1 C 0.2327(7) 0.3235(6) 0.7115(5)
C2 C 0.2270(8) 0.4137(5) 0.7907(5)
C3 C 0.2109(7) 0.5286(5) 0.7401(5)
C4 C 0.3320(6) 0.5539(5) 0.6843(4)
C5 C 0.3317(6) 0.4673(4) 0.5984(4)
C6 C 0.3264(7) 0.3451(5) 0.6352(4)
C7 C 0.2422(7) 0.2807(5) 0.5351(5)
C8 C 0.2199(7) 0.3624(5) 0.4439(5)
C9 C 0.2096(7) 0.4739(5) 0.4950(4)
C10 C 0.0971(8) 0.1282(5) 0.5808(6)
C11 C 0.4853(7) 0.5543(5) 0.7657(5)
C12 C 0.2993(6) 0.6687(5) 0.6352(5)
C13 C 0.3605(8) 0.7791(6) 0.5034(5)
C14 C 0.1917(8) 0.8209(6) 0.7070(5)
H1 H 0.2619(7) 0.2554(6) 0.7491(5)
H2 H 0.3170(8) 0.4131(5) 0.8466(5)
H3 H 0.1472(8) 0.3991(5) 0.8219(5)
H4 H 0.2123(7) 0.5838(5) 0.7931(5)
H5 H 0.1173(7) 0.5321(5) 0.6880(5)
H6 H 0.4227(6) 0.4774(4) 0.5792(4)
H7 H 0.4243(7) 0.3165(5) 0.6633(4)
H8 H 0.2969(7) 0.2175(5) 0.5225(5)
H9 H 0.1316(7) 0.3451(5) 0.3896(5)
H10 H 0.3020(7) 0.3618(5) 0.4131(5)
H11 H 0.2250(7) 0.5337(5) 0.4507(4)
H12 H 0.1154(7) 0.4825(5) 0.5098(4)
H13 H 0.0037(8) 0.1088(5) 0.5926(6)
H14 H 0.1142(8) 0.0839(5) 0.5243(6)
H15 H 0.1742(8) 0.1153(5) 0.6446(6)
H16 H 0.5603(7) 0.5682(5) 0.7297(5)
H17 H 0.4874(7) 0.6116(5) 0.8170(5)
H18 H 0.5032(7) 0.4841(5) 0.8011(5)
H19 H 0.2010(6) 0.6694(5) 0.5891(5)
H20 H 0.4346(8) 0.7919(6) 0.4664(5)
H21 H 0.2693(8) 0.7593(6) 0.4533(5)
H22 H 0.3465(8) 0.8453(6) 0.5403(5)
H23 H 0.2146(8) 0.8725(6) 0.7649(5)
H24 H 0.1699(8) 0.8605(6) 0.6409(5)
H25 H 0.1075(8) 0.7775(6) 0.7105(5)
#END
