
#######################################################################
#
#                 Cambridge Crystallographic Data Centre
#                                CCDC
#
#######################################################################
#
# If this CIF has been generated from an entry in the Cambridge
# Structural Database, then it will include bibliographic, chemical,
# crystal, experimental, refinement or atomic coordinate data resulting
# from the CCDC's data processing and validation procedures.
#
#######################################################################

data_CSD_CIF_HEXTIN
_audit_creation_date 1999-05-27
_audit_creation_method CSD-ConQuest-V1
_database_code_CSD HEXTIN
_database_code_depnum_ccdc_archive 'CCDC 117570'
_database_code_depnum_ccdc_journal 1294/19 (not 1290/19 as published)
_chemical_formula_sum 'C9 H9 N3 O6'
_chemical_formula_moiety
;
C9 H9 N3 O6
;
_journal_coden_Cambridge 1294
_journal_volume 1
_journal_year 1998
_journal_page_first 1
_journal_name_full 'Crystal Engineering '
loop_
_publ_author_name
"A.Anthony"
"G.R.Desiraju"
"R.K.R.Jetti"
"S.S.Kuduva"
"N.N.L.Madhavi"
"A.Nangia"
"R.Thaimattam"
"V.R.Thalladi"
_chemical_name_systematic
;
2,4,6-Trimethyl-1,3,5-trinitrobenzene
;
_chemical_name_common
;
Trinitromesitylene
;
_cell_volume    552.377
_exptl_crystal_colour 'light yellow'
_exptl_crystal_density_diffrn 1.534
_exptl_crystal_description 'needle'
_diffrn_ambient_temperature ?
_diffrn_special_details
;
The study was carried out at room temperature,in the range 283-303K

;
#These two values have been output from a single CSD field.
_refine_ls_R_factor_gt 0.0545
_refine_ls_wR_factor_gt 0.0545
_symmetry_cell_setting triclinic
_symmetry_space_group_name_H-M 'P -1'
_symmetry_Int_Tables_number 2
loop_
_symmetry_equiv_pos_site_id
_symmetry_equiv_pos_as_xyz
1 x,y,z
2 -x,-y,-z
_cell_length_a 8.277(2)
_cell_length_b 8.811(5)
_cell_length_c 8.944(2)
_cell_angle_alpha 108.10(3)
_cell_angle_beta 113.26(2)
_cell_angle_gamma 95.19(3)
_cell_formula_units_Z 2
loop_
_atom_type_symbol
_atom_type_radius_bond
C 0.68
H 0.23
N 0.68
O 0.68
loop_
_atom_site_label
_atom_site_type_symbol
_atom_site_fract_x
_atom_site_fract_y
_atom_site_fract_z
C1 C 0.0572(3) 0.7722(3) 0.3888(3)
C2 C -0.1217(3) 0.6879(2) 0.3223(3)
C3 C -0.1723(3) 0.6696(3) 0.4483(3)
C4 C -0.0599(3) 0.7274(3) 0.6272(3)
C5 C 0.1150(3) 0.8112(3) 0.6783(3)
C6 C 0.1825(3) 0.8377(3) 0.5657(3)
C7 C -0.2517(4) 0.6225(5) 0.1292(4)
C8 C -0.1218(5) 0.7078(4) 0.7588(4)
C9 C 0.3748(4) 0.9267(4) 0.6299(4)
N1 N 0.1209(3) 0.7926(3) 0.2617(3)
N2 N -0.3609(3) 0.5825(3) 0.3862(3)
N3 N 0.2422(3) 0.8781(3) 0.8680(3)
O1 O 0.1582(3) 0.9295(2) 0.2649(3)
O2 O 0.1312(3) 0.6692(3) 0.1610(3)
O3 O -0.4767(3) 0.6551(3) 0.3471(4)
O4 O -0.3890(3) 0.4426(3) 0.3787(4)
O5 O 0.3140(3) 0.7850(3) 0.9310(3)
O6 O 0.2655(3) 1.0227(3) 0.9493(3)
H1 H -0.2819(64) 0.5178(59) 0.0692(63)
H2 H -0.2143(64) 0.6671(53) 0.0724(59)
H3 H -0.3567(57) 0.6492(45) 0.1169(51)
H4 H -0.2393(61) 0.7161(45) 0.7259(51)
H5 H -0.0651(75) 0.7923(62) 0.8725(76)
H6 H -0.1297(64) 0.6102(60) 0.7607(58)
H7 H 0.4588(53) 0.9144(44) 0.7326(53)
H8 H 0.4117(47) 0.8827(42) 0.5403(50)
H9 H 0.3936(53) 1.0398(52) 0.6678(52)
#END
