
#######################################################################
#
#                 Cambridge Crystallographic Data Centre
#                                CCDC
#
#######################################################################
#
# If this CIF has been generated from an entry in the Cambridge
# Structural Database, then it will include bibliographic, chemical,
# crystal, experimental, refinement or atomic coordinate data resulting
# from the CCDC's data processing and validation procedures.
#
#######################################################################

data_CSD_CIF_HEXXOY
_audit_creation_date 2007-04-19
_audit_creation_method CSD-ConQuest-V1
_database_code_CSD HEXXOY
_database_code_depnum_ccdc_archive 'CCDC 639158'
_chemical_formula_sum 'C25 H25 N3 O7'
_chemical_formula_moiety
;
C25 H25 N3 O7
;
_journal_coden_Cambridge 35
_journal_volume 72
_journal_year 2007
_journal_page_first 870
_journal_name_full 'J.Org.Chem. '
loop_
_publ_author_name
"Hui-Ping Yi"
"Jiang Wu"
"Kui-Ling Ding"
"Xi-Kui Jiang"
"Zhan-Ting Li"
_chemical_name_systematic
;
N-(3-(N'-(2-Methoxyphenyl)carbamoyl)-5-methyl-2-methoxyphenyl) 
2-methoxy-5-methyl-3-nitrobenzamide
;
_cell_volume   2362.291
_exptl_crystal_colour 'yellow'
_exptl_crystal_density_diffrn 1.348
_exptl_crystal_preparation 'chloroform'
_diffrn_ambient_temperature 293
#These two values have been output from a single CSD field.
_refine_ls_R_factor_gt 0.0479
_refine_ls_wR_factor_gt 0.0479
_symmetry_cell_setting monoclinic
_symmetry_space_group_name_H-M 'P 21/n'
_symmetry_Int_Tables_number 14
loop_
_symmetry_equiv_pos_site_id
_symmetry_equiv_pos_as_xyz
1 x,y,z
2 1/2-x,1/2+y,1/2-z
3 -x,-y,-z
4 -1/2+x,-1/2-y,-1/2+z
_cell_length_a 14.7672(17)
_cell_length_b 7.5714(9)
_cell_length_c 21.772(3)
_cell_angle_alpha 90
_cell_angle_beta 103.970(2)
_cell_angle_gamma 90
_cell_formula_units_Z 4
loop_
_atom_type_symbol
_atom_type_radius_bond
C 0.68
H 0.23
N 0.68
O 0.68
loop_
_atom_site_label
_atom_site_type_symbol
_atom_site_fract_x
_atom_site_fract_y
_atom_site_fract_z
O1 O 0.22501(8) 0.23287(17) 0.01252(6)
O2 O 0.30479(10) 0.1008(2) -0.15504(7)
O3 O -0.10848(9) 0.2833(2) -0.00902(6)
O4 O 0.46447(9) 0.2299(2) 0.05088(7)
O5 O 0.13789(8) 0.32595(18) 0.13411(6)
O6 O 0.18469(11) 0.2879(2) 0.26634(7)
O7 O 0.12664(11) 0.5198(2) 0.29912(7)
N1 N 0.35059(12) 0.2397(2) -0.06105(9)
N2 N 0.04748(11) 0.2460(2) 0.01541(8)
N3 N 0.12465(13) 0.4003(3) 0.26106(8)
C1 C 0.16031(12) 0.1972(2) -0.04411(8)
C2 C 0.06606(13) 0.2048(2) -0.04338(8)
C3 C -0.00155(13) 0.1702(2) -0.09860(9)
H1 H -0.06430 0.17350 -0.09810
C4 C 0.02368(14) 0.1309(2) -0.15420(9)
C5 C 0.11696(14) 0.1280(3) -0.15421(9)
H2 H 0.13370 0.10250 -0.19180
C6 C 0.18717(13) 0.1620(2) -0.09995(9)
C7 C 0.28582(14) 0.1621(3) -0.10763(10)
C8 C 0.44694(14) 0.2625(3) -0.05732(10)
C9 C 0.48288(16) 0.2945(3) -0.10955(11)
H3 H 0.44360 0.29390 -0.15000
C10 C 0.57708(17) 0.3272(3) -0.10134(13)
H4 H 0.60100 0.34850 -0.13640
C11 C 0.63537(16) 0.3288(3) -0.04223(13)
H5 H 0.69850 0.35230 -0.03730
C12 C 0.60092(14) 0.2955(3) 0.01023(12)
H6 H 0.64100 0.29520 0.05040
C13 C 0.50703(14) 0.2628(3) 0.00305(10)
C14 C -0.03389(13) 0.2848(2) 0.02968(9)
C15 C -0.02935(12) 0.3288(2) 0.09851(8)
C16 C -0.11499(13) 0.3479(3) 0.11356(9)
H7 H -0.16880 0.33260 0.08150
C17 C -0.12491(13) 0.3882(3) 0.17367(9)
C18 C -0.04388(14) 0.4110(3) 0.22080(9)
H8 H -0.04740 0.44080 0.26160
C19 C 0.04219(13) 0.3893(3) 0.20723(9)
C20 C 0.05184(12) 0.3500(2) 0.14670(9)
C21 C -0.05086(15) 0.0936(3) -0.21410(9)
H9 H -0.07210 0.20290 -0.23500
H10 H -0.10240 0.03390 -0.20350
H11 H -0.02530 0.02020 -0.24170
C22 C 0.25584(14) 0.0754(3) 0.05013(9)
H12 H 0.20250 0.00740 0.05370
H13 H 0.29080 0.10940 0.09160
H14 H 0.29450 0.00550 0.02990
C23 C 0.52083(15) 0.2217(3) 0.11366(10)
H15 H 0.56800 0.13310 0.11610
H16 H 0.48270 0.19220 0.14220
H17 H 0.54990 0.33430 0.12520
C24 C -0.22038(14) 0.4036(3) 0.18751(10)
H18 H -0.26080 0.47120 0.15470
H19 H -0.21470 0.46160 0.22750
H20 H -0.24620 0.28780 0.18910
C25 C 0.20281(14) 0.4724(3) 0.14576(10)
H21 H 0.18910 0.55130 0.11020
H22 H 0.26530 0.42850 0.15170
H23 H 0.19710 0.53450 0.18310
H24 H 0.3348(12) 0.271(2) -0.0278(9)
H25 H 0.0974(12) 0.262(2) 0.0467(9)
#END
