
#######################################################################
#
#                 Cambridge Crystallographic Data Centre
#                                CCDC
#
#######################################################################
#
# If this CIF has been generated from an entry in the Cambridge
# Structural Database, then it will include bibliographic, chemical,
# crystal, experimental, refinement or atomic coordinate data resulting
# from the CCDC's data processing and validation procedures.
#
#######################################################################

data_CSD_CIF_HEXYAL
_audit_creation_date 2007-04-19
_audit_creation_method CSD-ConQuest-V1
_database_code_CSD HEXYAL
_database_code_depnum_ccdc_archive 'CCDC 639160'
_chemical_formula_sum 'C24 H23 N3 O7'
_chemical_formula_moiety
;
C24 H23 N3 O7
;
_journal_coden_Cambridge 35
_journal_volume 72
_journal_year 2007
_journal_page_first 870
_journal_name_full 'J.Org.Chem. '
loop_
_publ_author_name
"Hui-Ping Yi"
"Jiang Wu"
"Kui-Ling Ding"
"Xi-Kui Jiang"
"Zhan-Ting Li"
_chemical_name_systematic
;
N-(3-(N'-(2-Methoxyphenyl)carbamoyl)-5-methyl-2-methoxyphenyl) 
2-hydroxy-5-methyl-3-nitrobenzamide
;
_cell_volume   2227.556
_exptl_crystal_colour 'colorless'
_exptl_crystal_density_diffrn 1.388
_exptl_crystal_preparation 'chloroform'
_diffrn_ambient_temperature 293
#These two values have been output from a single CSD field.
_refine_ls_R_factor_gt 0.0516
_refine_ls_wR_factor_gt 0.0516
_symmetry_cell_setting monoclinic
_symmetry_space_group_name_H-M 'P 21/n'
_symmetry_Int_Tables_number 14
loop_
_symmetry_equiv_pos_site_id
_symmetry_equiv_pos_as_xyz
1 x,y,z
2 1/2-x,1/2+y,1/2-z
3 -x,-y,-z
4 -1/2+x,-1/2-y,-1/2+z
_cell_length_a 8.0199(15)
_cell_length_b 24.580(5)
_cell_length_c 11.300(2)
_cell_angle_alpha 90
_cell_angle_beta 90.100(5)
_cell_angle_gamma 90
_cell_formula_units_Z 4
loop_
_atom_type_symbol
_atom_type_radius_bond
C 0.68
H 0.23
N 0.68
O 0.68
loop_
_atom_site_label
_atom_site_type_symbol
_atom_site_fract_x
_atom_site_fract_y
_atom_site_fract_z
O1 O 0.2237(4) -0.08317(10) 1.0285(3)
O2 O 0.0282(4) 0.21083(11) 1.1722(3)
O3 O 0.3025(3) 0.11022(9) 0.9527(2)
O4 O 0.4832(3) 0.0104(1) 0.7821(3)
O5 O 0.6452(3) 0.00772(12) 0.5909(3)
O6 O 0.6812(4) -0.06759(12) 0.4964(3)
O7 O 0.5568(4) 0.22957(13) 0.9793(3)
N1 N 0.2829(4) 0.00290(13) 0.9705(3)
N2 N 0.2753(5) 0.20741(13) 1.0781(3)
N3 N 0.6226(4) -0.04257(16) 0.5798(4)
C1 C 0.2014(4) 0.03304(14) 1.0585(3)
C2 C 0.1165(4) 0.01137(15) 1.1540(3)
H1 H 0.11170 -0.02620 1.16350
C3 C 0.0395(4) 0.04425(15) 1.2349(3)
C4 C 0.0496(4) 0.10043(15) 1.2227(4)
H2 H -0.00160 0.12280 1.27830
C5 C 0.1358(4) 0.12377(14) 1.1278(4)
C6 C 0.2102(5) 0.08980(16) 1.0475(4)
C7 C -0.0553(5) 0.02054(15) 1.3382(3)
H3 H -0.12140 -0.00960 1.31160
H4 H -0.12680 0.04790 1.37140
H5 H 0.02220 0.00830 1.39740
C8 C 0.2016(6) 0.12588(18) 0.8519(4)
H6 H 0.14330 0.09460 0.82220
H7 H 0.27210 0.14040 0.79100
H8 H 0.12250 0.15310 0.87580
C9 C 0.2877(5) -0.05216(16) 0.9580(4)
C10 C 0.3708(5) -0.07368(14) 0.8482(3)
C11 C 0.4608(5) -0.04394(15) 0.7665(4)
C12 C 0.5246(5) -0.07087(16) 0.6673(4)
C13 C 0.4967(5) -0.12581(15) 0.6482(4)
H9 H 0.53990 -0.14260 0.58110
C14 C 0.4061(5) -0.15521(15) 0.7274(4)
C15 C 0.3464(4) -0.12852(15) 0.8283(4)
H10 H 0.28770 -0.14860 0.88420
C16 C 0.3667(5) -0.21490(14) 0.7080(4)
H11 H 0.25250 -0.22170 0.72850
H12 H 0.43830 -0.23670 0.75690
H13 H 0.38440 -0.22400 0.62640
C17 C 0.1408(5) 0.18495(16) 1.1269(4)
C18 C 0.3232(6) 0.26286(16) 1.0768(4)
C19 C 0.2304(6) 0.30399(17) 1.1239(4)
H14 H 0.12650 0.29680 1.15680
C20 C 0.2930(8) 0.35701(19) 1.1223(5)
H15 H 0.23200 0.38540 1.15510
C21 C 0.4461(8) 0.3666(2) 1.0715(5)
H16 H 0.48810 0.40190 1.07070
C22 C 0.5382(7) 0.3254(2) 1.0221(5)
H17 H 0.64130 0.33280 0.98830
C23 C 0.4775(7) 0.27326(18) 1.0229(4)
C24 C 0.7233(6) 0.23612(19) 0.9353(5)
H18 H 0.72250 0.26100 0.86980
H19 H 0.76550 0.20150 0.90960
H20 H 0.79350 0.25020 0.99700
H21 H 0.344(4) 0.0224(12) 0.923(3)
H22 H 0.349(4) 0.1885(14) 1.040(3)
H23 H 0.508(10) 0.030(3) 0.719(5)
#END
