
#######################################################################
#
#                 Cambridge Crystallographic Data Centre
#                                CCDC
#
#######################################################################
#
# If this CIF has been generated from an entry in the Cambridge
# Structural Database, then it will include bibliographic, chemical,
# crystal, experimental, refinement or atomic coordinate data resulting
# from the CCDC's data processing and validation procedures.
#
#######################################################################

data_CSD_CIF_HEYLEF
_audit_creation_date 2018-06-18
_audit_creation_method CSD-ConQuest-V1
_database_code_CSD HEYLEF
_database_code_depnum_ccdc_archive 'CCDC 1817236'
_chemical_formula_sum 'C17 H13 N3 O2'
_chemical_formula_moiety
;
C17 H13 N3 O2
;
_journal_coden_Cambridge 1366
_journal_volume 360
_journal_year 2018
_journal_page_first 2267
_journal_name_full 'Adv.Synth.Catal. '
loop_
_publ_author_name
"Cheng Xu"
"Shi-Fen Jiang"
"Xiao-Hui Wen"
"Qin Zhang"
"Zhi-Wen Zhou"
"Yan-Dong Wu"
"Feng-Cheng Jia"
"An-Xin Wu"
_chemical_name_systematic
;
5-methyl-4-(3-nitrophenyl)-2-phenylpyrimidine
;
_cell_volume    718.883
_exptl_crystal_colour 'colorless'
_exptl_crystal_density_diffrn 1.346
_exptl_crystal_description 'block'
_diffrn_ambient_temperature 296
#These two values have been output from a single CSD field.
_refine_ls_R_factor_gt 0.0584
_refine_ls_wR_factor_gt 0.0584
_symmetry_cell_setting triclinic
_symmetry_space_group_name_H-M 'P -1'
_symmetry_Int_Tables_number 2
loop_
_symmetry_equiv_pos_site_id
_symmetry_equiv_pos_as_xyz
1 x,y,z
2 -x,-y,-z
_cell_length_a 7.379(2)
_cell_length_b 8.176(2)
_cell_length_c 12.148(3)
_cell_angle_alpha 91.669(4)
_cell_angle_beta 97.473(4)
_cell_angle_gamma 97.937(4)
_cell_formula_units_Z 2
loop_
_atom_type_symbol
_atom_type_radius_bond
C 0.68
H 0.23
N 0.68
O 0.68
loop_
_atom_site_label
_atom_site_type_symbol
_atom_site_fract_x
_atom_site_fract_y
_atom_site_fract_z
C1 C 0.3600(2) 0.89854(17) 0.29759(12)
H1 H 0.48050 0.88930 0.28630
C2 C 0.2436(2) 0.96097(19) 0.21598(13)
H2 H 0.28600 0.99260 0.14990
C3 C 0.0655(3) 0.9767(2) 0.23170(14)
H3 H -0.01270 1.01800 0.17640
C4 C 0.0034(2) 0.9305(3) 0.33072(15)
H4 H -0.11640 0.94210 0.34210
C5 C 0.1181(2) 0.8676(2) 0.41218(13)
H5 H 0.07500 0.83700 0.47830
C6 C 0.29755(19) 0.84938(15) 0.39671(10)
C7 C 0.42000(18) 0.77506(15) 0.48176(10)
C8 C 0.6908(2) 0.67858(18) 0.53264(12)
H6 H 0.80540 0.65760 0.51630
C9 C 0.64372(19) 0.63900(16) 0.63649(11)
C10 C 0.46778(19) 0.66996(15) 0.65423(10)
C11 C 0.7792(2) 0.5740(2) 0.72082(13)
H7 H 0.89900 0.58920 0.69680
H8 H 0.74050 0.45850 0.72870
H9 H 0.78490 0.63290 0.79100
C12 C 0.38995(18) 0.63109(16) 0.75926(10)
C13 C 0.3273(2) 0.75438(17) 0.81893(12)
H10 H 0.33500 0.86070 0.79310
C14 C 0.2535(2) 0.72127(19) 0.91631(12)
H11 H 0.21510 0.80590 0.95620
C15 C 0.23667(19) 0.56329(19) 0.95451(10)
H12 H 0.18600 0.53970 1.01940
C16 C 0.29712(18) 0.44141(16) 0.89366(10)
C17 C 0.37424(19) 0.47132(16) 0.79679(10)
H13 H 0.41450 0.38670 0.75790
N1 N 0.58271(17) 0.74469(15) 0.45469(10)
N2 N 0.35733(16) 0.73970(13) 0.57842(9)
N3 N 0.27942(18) 0.27212(16) 0.93271(9)
O1 O 0.35783(18) 0.17102(14) 0.88984(10)
O2 O 0.1838(2) 0.23993(17) 1.00640(11)
#END
