
#######################################################################
#
#                 Cambridge Crystallographic Data Centre
#                                CCDC
#
#######################################################################
#
# If this CIF has been generated from an entry in the Cambridge
# Structural Database, then it will include bibliographic, chemical,
# crystal, experimental, refinement or atomic coordinate data resulting
# from the CCDC's data processing and validation procedures.
#
#######################################################################

data_CSD_CIF_HEYQOS
_audit_creation_date 2007-04-19
_audit_creation_method CSD-ConQuest-V1
_database_code_CSD HEYQOS
_chemical_formula_sum 'C14 H16 N6 O8'
_chemical_formula_moiety
;
C14 H16 N6 O8
;
_journal_coden_Cambridge 331
_journal_volume 48
_journal_year 2005
_journal_page_first 146
_journal_name_full 'Izv.Vyssh.Uchebn.Zaved.,Khim.Khim.Tek.(Russ.)(Bull.Colleg.,Chem.,Chem.Technol.) '
loop_
_publ_author_name
"V.V.Bakharev"
"A.A.Gidaspov"
_chemical_name_systematic
;
4,4-Dinitro-4-(4,6-dimethoxy-1,3,5-triazin-2-yl)-N-(2-furylmethyl)butamide
;
_chemical_melting_point 433.15
_cell_volume   1778.165
_exptl_special_details
;
Melting point range 433.15-435.15K

;
_exptl_crystal_preparation 'methanol/water'
_diffrn_ambient_temperature 295
#These two values have been output from a single CSD field.
_refine_ls_R_factor_gt 0.047
_refine_ls_wR_factor_gt 0.047
_symmetry_cell_setting monoclinic
_symmetry_space_group_name_H-M 'P 21/c'
_symmetry_Int_Tables_number 14
loop_
_symmetry_equiv_pos_site_id
_symmetry_equiv_pos_as_xyz
1 x,y,z
2 -x,1/2+y,1/2-z
3 -x,-y,-z
4 x,-1/2-y,-1/2+z
_cell_length_a 13.160(1)
_cell_length_b 9.682(1)
_cell_length_c 14.481(1)
_cell_angle_alpha 90
_cell_angle_beta 105.48(1)
_cell_angle_gamma 90
_cell_formula_units_Z 4
loop_
_atom_type_symbol
_atom_type_radius_bond
C 0.68
H 0.23
N 0.68
O 0.68
loop_
_atom_site_label
_atom_site_type_symbol
_atom_site_fract_x
_atom_site_fract_y
_atom_site_fract_z
C1 C 0.10399(4) 0.13067(5) 0.34923(3)
C2 C 0.24916(3) 0.01851(5) 0.42247(3)
C3 C 0.26045(4) 0.22903(5) 0.36734(3)
C4 C -0.05173(4) 0.25550(7) 0.27920(4)
C5 C 0.30479(3) -0.10463(4) 0.48046(3)
C6 C 0.38758(3) -0.05931(5) 0.57042(3)
C7 C 0.43551(4) -0.16829(5) 0.64489(3)
C8 C 0.50662(3) -0.09988(5) 0.73243(3)
C9 C 0.63190(4) -0.13910(5) 0.88822(3)
C10 C 0.74574(4) -0.15304(5) 0.89726(3)
C11 C 0.82418(5) -0.06544(6) 0.89748(5)
C12 C 0.91797(5) -0.14222(9) 0.91407(5)
C13 C 0.89355(5) -0.27066(8) 0.92243(4)
C14 C 0.27133(5) 0.45735(6) 0.31317(4)
N1 N 0.14538(3) 0.01330(4) 0.39251(3)
N2 N 0.31305(3) 0.11915(4) 0.41214(2)
N3 N 0.15661(3) 0.24173(4) 0.33550(3)
N4 N 0.56403(3) -0.18681(4) 0.79675(3)
N5 N 0.34964(3) -0.19454(4) 0.41371(3)
N6 N 0.22134(3) -0.19422(4) 0.50617(3)
O1 O 0.51052(3) 0.02544(4) 0.74282(2)
O2 O -0.00021(3) 0.12942(4) 0.31954(2)
O3 O 0.78721(3) -0.28295(4) 0.91259(3)
O4 O 0.31127(3) -0.18284(4) 0.32843(3)
O5 O 0.41808(4) -0.27451(5) 0.45013(3)
O6 O 0.19321(3) -0.29895(4) 0.46069(3)
O7 O 0.18781(3) -0.15213(4) 0.57071(3)
O8 O 0.32184(3) 0.33296(3) 0.35803(2)
H1 H -0.12676 0.24243 0.26033
H2 H -0.02806 0.28010 0.22415
H3 H -0.03413 0.32805 0.32594
H4 H 0.47591 -0.23248 0.61862
H5 H 0.38030 -0.21676 0.66324
H6 H 0.61790 -0.04321 0.89637
H7 H 0.61725 -0.19170 0.93938
H8 H 0.32430 0.52424 0.31043
H9 H 0.22691 0.49367 0.35027
H10 H 0.22948 0.43729 0.24943
H11 H 0.34764 0.01063 0.60397
H12 H 0.44384 -0.01247 0.54627
H13 H 0.55116 -0.28679 0.78792
H14 H 0.93727 -0.36355 0.93496
H15 H 0.99464 -0.10058 0.91686
H16 H 0.80724 0.03867 0.87951
#END
