
#######################################################################
#
#                 Cambridge Crystallographic Data Centre
#                                CCDC
#
#######################################################################
#
# If this CIF has been generated from an entry in the Cambridge
# Structural Database, then it will include bibliographic, chemical,
# crystal, experimental, refinement or atomic coordinate data resulting
# from the CCDC's data processing and validation procedures.
#
#######################################################################

data_CSD_CIF_HEZQIO
_audit_creation_date 2013-06-17
_audit_creation_method CSD-ConQuest-V1
_database_code_CSD HEZQIO
_database_code_depnum_ccdc_archive 'CCDC 946382'
_chemical_formula_sum 'C19 H26 N2 O7'
_chemical_formula_moiety
;
C19 H26 N2 O7
;
_journal_coden_Cambridge 4
_journal_volume 134
_journal_year 2012
_journal_page_first 17482
_journal_name_full 'J.Am.Chem.Soc. '
loop_
_publ_author_name
"P.Jakubec"
"A.Hawkins"
"Wolfgang Felzmann"
"D.J.Dixon"
_chemical_name_systematic
;
Methyl 
2-(2-nitro-1-(2-vinyl-1,3-dioxolan-2-yl)ethyl)-3-oxo-1,2,3,5,6,7,8,10a-octahyd
ropyrrolo[1,2-a]azocine-2-carboxylate
;
_cell_volume    931.572
_exptl_crystal_colour 'colorless'
_exptl_crystal_density_diffrn 1.406
_exptl_crystal_description 'block'
_diffrn_ambient_temperature 150
#These two values have been output from a single CSD field.
_refine_ls_R_factor_gt 0.0409
_refine_ls_wR_factor_gt 0.0409
_symmetry_cell_setting monoclinic
_symmetry_space_group_name_H-M 'P 21'
_symmetry_Int_Tables_number 4
loop_
_symmetry_equiv_pos_site_id
_symmetry_equiv_pos_as_xyz
1 x,y,z
2 -x,1/2+y,-z
_cell_length_a 10.3715(2)
_cell_length_b 8.9189(2)
_cell_length_c 11.0807(3)
_cell_angle_alpha 90
_cell_angle_beta 114.6519(10)
_cell_angle_gamma 90
_cell_formula_units_Z 2
loop_
_atom_type_symbol
_atom_type_radius_bond
C 0.68
H 0.23
N 0.68
O 0.68
loop_
_atom_site_label
_atom_site_type_symbol
_atom_site_fract_x
_atom_site_fract_y
_atom_site_fract_z
O1 O 0.9904(2) 0.4907(2) 0.9969(2)
C1 C 0.9191(3) 0.4022(3) 1.0290(3)
N1 N 0.9618(2) 0.3258(3) 1.1436(2)
C2 C 1.1128(3) 0.3247(4) 1.2392(3)
C3 C 1.1357(3) 0.3176(4) 1.3847(3)
C4 C 1.0805(3) 0.4503(4) 1.4366(3)
C5 C 0.9213(3) 0.4827(4) 1.3578(3)
C6 C 0.8323(3) 0.3458(4) 1.3425(3)
C7 C 0.8084(3) 0.2352(4) 1.2552(3)
C8 C 0.8619(3) 0.2127(3) 1.1487(3)
C9 C 0.7432(3) 0.2154(3) 1.0056(3)
C10 C 0.7625(3) 0.3615(3) 0.9414(3)
C11 C 0.7451(3) 0.3475(3) 0.7955(2)
C12 C 0.8634(3) 0.2522(3) 0.7853(3)
N2 N 0.9607(2) 0.3419(3) 0.7451(2)
O2 O 0.9106(2) 0.4412(3) 0.6623(2)
O3 O 1.0867(2) 0.3071(3) 0.7937(2)
C13 C 0.5992(3) 0.2901(3) 0.6981(3)
O4 O 0.4906(2) 0.3738(2) 0.71528(19)
C14 C 0.4000(3) 0.2715(4) 0.7432(3)
C15 C 0.4348(3) 0.1215(4) 0.7025(3)
O5 O 0.5814(2) 0.1387(2) 0.72624(19)
C16 C 0.5795(3) 0.3094(4) 0.5558(3)
C17 C 0.5745(3) 0.1990(4) 0.4751(3)
C18 C 0.6729(3) 0.4905(4) 0.9556(3)
O6 O 0.6905(2) 0.6145(2) 0.89532(19)
C19 C 0.6216(3) 0.7490(3) 0.9114(3)
O7 O 0.6019(2) 0.4861(3) 1.01847(19)
H1 H 1.16010 0.23720 1.22010
H2 H 1.15830 0.41700 1.22740
H3 H 1.08880 0.22780 1.39730
H4 H 1.23900 0.30860 1.44030
H5 H 1.09750 0.43180 1.52860
H6 H 1.13510 0.53860 1.43380
H7 H 0.89370 0.55940 1.40450
H8 H 0.90600 0.51840 1.26830
H9 H 0.79030 0.33700 1.40300
H10 H 0.74920 0.15730 1.25870
H11 H 0.90870 0.11270 1.16540
H12 H 0.75310 0.12870 0.95480
H13 H 0.64880 0.21440 1.00810
H14 H 0.75540 0.44910 0.76590
H15 H 0.81870 0.17730 0.71500
H16 H 0.91760 0.20340 0.87130
H17 H 0.29950 0.29760 0.69090
H18 H 0.42300 0.27400 0.83980
H19 H 0.42490 0.03940 0.75610
H20 H 0.37450 0.10240 0.60730
H21 H 0.57250 0.40930 0.52490
H22 H 0.58450 0.09940 0.50810
H23 H 0.56290 0.21690 0.38690
H24 H 0.63540 0.82840 0.85820
H25 H 0.52100 0.72950 0.88040
H26 H 0.65880 0.77780 1.00360
#END
