
#######################################################################
#
#                 Cambridge Crystallographic Data Centre
#                                CCDC
#
#######################################################################
#
# If this CIF has been generated from an entry in the Cambridge
# Structural Database, then it will include bibliographic, chemical,
# crystal, experimental, refinement or atomic coordinate data resulting
# from the CCDC's data processing and validation procedures.
#
#######################################################################

data_CSD_CIF_HIBRIW
_audit_creation_date 2018-06-19
_audit_creation_method CSD-ConQuest-V1
_database_code_CSD HIBRIW
_database_code_depnum_ccdc_archive 'CCDC 1821830'
_chemical_formula_sum 'C21 H17 N1 O4'
_chemical_formula_moiety
;
C21 H17 N1 O4
;
_journal_coden_Cambridge 1220
_journal_volume 24
_journal_year 2018
_journal_page_first 6277
_journal_name_full 'Chem.-Eur.J. '
loop_
_publ_author_name
"Xiao-Long He"
"Hui-Ru Zhao"
"Chuan-Qi Duan"
"Xu Han"
"Wei Du"
"Ying-Chun Chen"
_chemical_name_systematic
;
2-(3-nitro-1,2-diphenylbut-3-en-1-yl)furan-3-carbaldehyde
;
_cell_volume   1844.439
_exptl_crystal_colour 'colorless'
_exptl_crystal_density_diffrn 1.251
_exptl_special_details
;
Absolute configuration

;
_exptl_crystal_description 'block'
_diffrn_ambient_temperature 292.6
#These two values have been output from a single CSD field.
_refine_ls_R_factor_gt 0.0645
_refine_ls_wR_factor_gt 0.0645
_symmetry_cell_setting orthorhombic
_symmetry_space_group_name_H-M 'P 21 21 21'
_symmetry_Int_Tables_number 19
loop_
_symmetry_equiv_pos_site_id
_symmetry_equiv_pos_as_xyz
1 x,y,z
2 1/2-x,-y,1/2+z
3 -x,1/2+y,1/2-z
4 1/2+x,1/2-y,-z
_cell_length_a 8.7086(2)
_cell_length_b 8.8736(2)
_cell_length_c 23.8680(6)
_cell_angle_alpha 90
_cell_angle_beta 90
_cell_angle_gamma 90
_cell_formula_units_Z 4
loop_
_atom_type_symbol
_atom_type_radius_bond
C 0.68
H 0.23
N 0.68
O 0.68
loop_
_atom_site_label
_atom_site_type_symbol
_atom_site_fract_x
_atom_site_fract_y
_atom_site_fract_z
O1 O 0.5077(3) 0.4088(3) 0.35700(11)
O2 O 0.8710(5) 0.7170(6) 0.24361(13)
O3 O 0.2947(5) 0.7012(5) 0.49257(16)
C1 C 0.5460(4) 0.5082(3) 0.39721(12)
C2 C 0.8164(3) 0.4238(4) 0.41053(12)
C3 C 0.6228(4) 0.7655(4) 0.33452(13)
C4 C 0.7105(3) 0.5574(3) 0.39837(11)
H1 H 0.72200 0.62970 0.42910
C5 C 0.4187(4) 0.5492(4) 0.42629(13)
N1 N 0.9376(4) 0.7708(6) 0.28368(17)
C6 C 0.7433(4) 0.6428(4) 0.34251(13)
H2 H 0.73370 0.57090 0.31150
C7 C 0.8672(5) 0.4019(5) 0.46483(15)
H3 H 0.84090 0.47060 0.49260
C8 C 0.9013(4) 0.7114(5) 0.34018(14)
C9 C 0.2945(4) 0.4684(4) 0.40204(19)
H4 H 0.19210 0.47190 0.41300
C10 C 0.5071(5) 0.7458(5) 0.29514(16)
H5 H 0.50820 0.66240 0.27150
C11 C 0.8590(5) 0.3223(5) 0.37014(16)
H6 H 0.82780 0.33670 0.33330
C12 C 0.4110(5) 0.6603(5) 0.47061(17)
H7 H 0.50260 0.70280 0.48290
C13 C 1.0026(5) 0.7329(5) 0.37898(18)
C14 C 0.9490(5) 0.1973(5) 0.3839(2)
H8 H 0.97580 0.12810 0.35630
C15 C 0.3527(5) 0.3878(4) 0.3612(2)
H9 H 0.29580 0.32460 0.33800
C16 C 0.6214(5) 0.8912(4) 0.36792(19)
H10 H 0.70020 0.90730 0.39350
C17 C 0.9975(5) 0.1767(5) 0.4374(2)
H11 H 1.05810 0.09380 0.44640
C18 C 0.3905(5) 0.8503(7) 0.2912(2)
H12 H 0.31320 0.83680 0.26480
C19 C 0.9571(6) 0.2779(5) 0.47803(19)
H13 H 0.99020 0.26350 0.51470
O4 O 1.0272(6) 0.8794(7) 0.2805(2)
C20 C 0.3869(6) 0.9737(6) 0.3256(3)
H14 H 0.30670 1.04260 0.32320
C21 C 0.5021(7) 0.9945(6) 0.3636(3)
H15 H 0.50070 1.07870 0.38680
H16 H 0.987(7) 0.715(6) 0.416(2)
H17 H 1.101(7) 0.771(7) 0.363(2)
#END
