
#######################################################################
#
#                 Cambridge Crystallographic Data Centre
#                                CCDC
#
#######################################################################
#
# If this CIF has been generated from an entry in the Cambridge
# Structural Database, then it will include bibliographic, chemical,
# crystal, experimental, refinement or atomic coordinate data resulting
# from the CCDC's data processing and validation procedures.
#
#######################################################################

data_CSD_CIF_HIBSIW
_audit_creation_date 2013-06-17
_audit_creation_method CSD-ConQuest-V1
_database_code_CSD HIBSIW
_database_code_depnum_ccdc_archive 'CCDC 934929'
_chemical_formula_sum 'C15 H21 N3 O3'
_chemical_formula_moiety
;
C15 H21 N3 O3
;
_journal_coden_Cambridge 182
_journal_volume 49
_journal_year 2013
_journal_page_first 7031
_journal_name_full 'Chem.Commun. '
loop_
_publ_author_name
"Ka-Ho Ng"
"Zhongyuan Zhou"
"Wing-Yiu Yu"
_chemical_name_systematic
;
N-Cyclohexyl-2-(N-methoxyethanimidoyl)-5-nitroaniline
;
_cell_volume    744.167
_exptl_crystal_colour 'gold'
_exptl_crystal_density_diffrn 1.568
_exptl_crystal_description 'BLOCK'
_exptl_crystal_preparation 'acetonitrile'
_diffrn_ambient_temperature 296
#These two values have been output from a single CSD field.
_refine_ls_R_factor_gt 0.0423
_refine_ls_wR_factor_gt 0.0423
_symmetry_cell_setting triclinic
_symmetry_space_group_name_H-M 'P -1'
_symmetry_Int_Tables_number 2
loop_
_symmetry_equiv_pos_site_id
_symmetry_equiv_pos_as_xyz
1 x,y,z
2 -x,-y,-z
_cell_length_a 7.2262(2)
_cell_length_b 9.2507(2)
_cell_length_c 11.4120(3)
_cell_angle_alpha 102.150(1)
_cell_angle_beta 92.359(1)
_cell_angle_gamma 92.367(1)
_cell_formula_units_Z 2
loop_
_atom_type_symbol
_atom_type_radius_bond
C 0.68
H 0.23
N 0.68
O 0.68
loop_
_atom_site_label
_atom_site_type_symbol
_atom_site_fract_x
_atom_site_fract_y
_atom_site_fract_z
O1 O 0.28226(18) 0.09449(11) 0.16783(7)
O2 O 0.23529(14) -0.01145(9) 0.31320(7)
O3 O 0.20272(13) 0.82511(7) 0.76250(7)
N1 N 0.21155(12) 0.67720(8) 0.70089(7)
N2 N 0.19049(12) 0.38455(8) 0.67277(7)
H1 H 0.1842(15) 0.4697(12) 0.7181(10)
N3 N 0.25917(13) 0.09914(10) 0.27310(7)
C1 C 0.24353(12) 0.51749(10) 0.51201(8)
C2 C 0.22152(12) 0.38328(9) 0.55599(7)
C3 C 0.22950(13) 0.24795(10) 0.47350(8)
H2 H 0.2170(14) 0.1588(12) 0.4971(9)
C4 C 0.25747(13) 0.24512(11) 0.35494(8)
C5 C 0.28266(15) 0.37142(12) 0.31056(8)
H3 H 0.3034(16) 0.3700(13) 0.2327(11)
C6 C 0.27460(14) 0.50448(11) 0.39062(9)
H4 H 0.2932(15) 0.5948(13) 0.3604(10)
C7 C 0.23463(12) 0.66695(10) 0.58857(8)
C8 C 0.25201(17) 0.80152(11) 0.5346(1)
H5 H 0.186(2) 0.7856(17) 0.4561(14)
H6 H 0.194(2) 0.8834(19) 0.5832(14)
H7 H 0.371(2) 0.8222(19) 0.5242(15)
C9 C 0.1898(2) 0.82893(14) 0.88663(11)
H8 H 0.181(2) 0.9227(17) 0.9220(13)
H9 H 0.087(3) 0.762(2) 0.8997(17)
H10 H 0.301(3) 0.788(2) 0.9174(18)
C10 C 0.17197(13) 0.25281(10) 0.72359(8)
H11 H 0.0938(13) 0.1765(10) 0.6683(8)
C11 C 0.07393(14) 0.29064(12) 0.84167(9)
H12 H 0.0364(16) 0.1955(13) 0.8639(10)
H13 H -0.0383(16) 0.3401(12) 0.8294(10)
C12 C 0.19609(15) 0.38612(11) 0.94285(8)
H14 H 0.1328(16) 0.4034(12) 1.0184(10)
H15 H 0.2215(14) 0.4821(12) 0.9254(9)
C13 C 0.37756(15) 0.31538(11) 0.95946(8)
H16 H 0.3502(15) 0.2219(13) 0.9833(10)
H17 H 0.4556(15) 0.3773(12) 1.0233(10)
C14 C 0.47950(14) 0.28609(11) 0.84359(9)
H18 H 0.5085(14) 0.3834(12) 0.8214(9)
H19 H 0.5963(17) 0.2420(13) 0.8537(10)
C15 C 0.35922(14) 0.18847(10) 0.74285(8)
H20 H 0.4284(14) 0.1701(11) 0.6687(9)
H21 H 0.3346(16) 0.0904(13) 0.7601(10)
#END
