
#######################################################################
#
#                 Cambridge Crystallographic Data Centre
#                                CCDC
#
#######################################################################
#
# If this CIF has been generated from an entry in the Cambridge
# Structural Database, then it will include bibliographic, chemical,
# crystal, experimental, refinement or atomic coordinate data resulting
# from the CCDC's data processing and validation procedures.
#
#######################################################################

data_CSD_CIF_HICDAY
_audit_creation_date 1995-06-19
_audit_creation_method CSD-ConQuest-V1
_database_code_CSD HICDAY
_chemical_formula_sum 'C15 H13 N1 O4'
_chemical_formula_moiety
;
C15 H13 N1 O4
;
_journal_coeditor_code "IUCr LI1058"
_journal_coden_Cambridge 591
_journal_volume 51
_journal_year 1995
_journal_page_first 311
_journal_name_full 'Acta Crystallogr.,Sect.C:Cryst.Struct.Commun. '
loop_
_publ_author_name
"Li Zheng-Dong"
"S.Genbo"
_chemical_name_systematic
;
trans-2-Methoxy-5-(4-nitrostyryl)phenol
;
_cell_volume   1327.149
_exptl_crystal_colour 'yellow'
_exptl_crystal_density_diffrn 1.36
_diffrn_ambient_temperature ?
_diffrn_special_details
;
The study was carried out at room temperature,in the range 283-303K

;
#These two values have been output from a single CSD field.
_refine_ls_R_factor_gt 0.066
_refine_ls_wR_factor_gt 0.066
_symmetry_cell_setting monoclinic
_symmetry_space_group_name_H-M 'P 21/n'
_symmetry_Int_Tables_number 14
loop_
_symmetry_equiv_pos_site_id
_symmetry_equiv_pos_as_xyz
1 x,y,z
2 1/2-x,1/2+y,1/2-z
3 -x,-y,-z
4 -1/2+x,-1/2-y,-1/2+z
_cell_length_a 6.281(4)
_cell_length_b 7.613(5)
_cell_length_c 27.78(2)
_cell_angle_alpha 90
_cell_angle_beta 92.45(6)
_cell_angle_gamma 90
_cell_formula_units_Z 4
loop_
_atom_type_symbol
_atom_type_radius_bond
C 0.68
H 0.23
N 0.68
O 0.68
loop_
_atom_site_label
_atom_site_type_symbol
_atom_site_fract_x
_atom_site_fract_y
_atom_site_fract_z
O1 O 0.4339(4) 0.1888(4) 0.06046(7)
O2 O 0.0689(4) 0.3427(4) 0.07641(8)
O3 O -0.3019(5) 0.1297(6) 0.4784(1)
O4 O -0.5811(7) 0.2623(6) 0.4510(1)
N1 N -0.4108(7) 0.1924(6) 0.4453(1)
C1 C 0.0941(6) 0.1383(6) 0.2435(1)
C2 C -0.0959(6) 0.1828(6) 0.2562(1)
C3 C 0.1823(5) 0.1573(3) 0.1956(1)
C4 C 0.3784(6) 0.0801(6) 0.1878(1)
C5 C 0.4682(5) 0.0856(6) 0.1435(1)
C6 C 0.3670(5) 0.1707(5) 0.1059(1)
C7 C 0.1705(5) 0.2537(5) 0.1131(1)
C8 C 0.0796(5) 0.2460(5) 0.1572(1)
C9 C 0.6302(7) 0.1104(8) 0.0493(1)
C10 C -0.1773(5) 0.1726(5) 0.3054(1)
C11 C -0.0643(6) 0.0984(6) 0.3440(1)
C12 C -0.1378(6) 0.1002(6) 0.3899(1)
C13 C -0.3329(6) 0.1804(5) 0.3970(1)
C14 C -0.4523(5) 0.2518(6) 0.3592(1)
C15 C -0.3729(6) 0.2462(6) 0.3141(1)
H1 H 0.13440 0.32110 0.04840
H2 H 0.20920 0.10430 0.27860
H3 H -0.21440 0.23020 0.22800
H4 H 0.44740 0.02050 0.21510
H5 H 0.59790 0.01990 0.14090
H6 H -0.04740 0.30490 0.16140
H7 H 0.62100 -0.01320 0.05370
H8 H 0.65890 0.13460 0.01660
H9 H 0.74070 0.15660 0.06970
H10 H 0.05140 0.03060 0.33790
H11 H -0.08690 0.05610 0.41740
H12 H -0.60790 0.31430 0.36310
H13 H -0.45270 0.29840 0.28700
#END
