
#######################################################################
#
#                 Cambridge Crystallographic Data Centre
#                                CCDC
#
#######################################################################
#
# If this CIF has been generated from an entry in the Cambridge
# Structural Database, then it will include bibliographic, chemical,
# crystal, experimental, refinement or atomic coordinate data resulting
# from the CCDC's data processing and validation procedures.
#
#######################################################################

data_CSD_CIF_HICFAA
_audit_creation_date 1995-06-19
_audit_creation_method CSD-ConQuest-V1
_database_code_CSD HICFAA
_chemical_formula_sum 'C24 H20 N2 O5'
_chemical_formula_moiety
;
C24 H20 N2 O5
;
_journal_coeditor_code "IUCr AB1138"
_journal_coden_Cambridge 591
_journal_volume 51
_journal_year 1995
_journal_page_first 324
_journal_name_full 'Acta Crystallogr.,Sect.C:Cryst.Struct.Commun. '
loop_
_publ_author_name
"Xiao-Lan Liu"
"Jin-Ling Wang"
"Jing-Wang Liu"
"Fang-Ming Miao"
_chemical_name_systematic
;
6'-Diethylamino-2'-nitrospiro(isobenzofuran-1(3H),9'-(9H)xanthen)-3-one
;
_cell_volume   1008.101
_exptl_crystal_colour 'light yellow'
_exptl_crystal_density_diffrn 1.372
_diffrn_ambient_temperature ?
_diffrn_special_details
;
The study was carried out at room temperature,in the range 283-303K

;
#These two values have been output from a single CSD field.
_refine_ls_R_factor_gt 0.034
_refine_ls_wR_factor_gt 0.034
_symmetry_cell_setting triclinic
_symmetry_space_group_name_H-M 'P -1'
_symmetry_Int_Tables_number 2
loop_
_symmetry_equiv_pos_site_id
_symmetry_equiv_pos_as_xyz
1 x,y,z
2 -x,-y,-z
_cell_length_a 8.342(3)
_cell_length_b 9.861(2)
_cell_length_c 12.735(2)
_cell_angle_alpha 80.41(2)
_cell_angle_beta 79.91(2)
_cell_angle_gamma 80.96(2)
_cell_formula_units_Z 2
loop_
_atom_type_symbol
_atom_type_radius_bond
C 0.68
H 0.23
N 0.68
O 0.68
loop_
_atom_site_label
_atom_site_type_symbol
_atom_site_fract_x
_atom_site_fract_y
_atom_site_fract_z
O1 O 0.6912(3) 0.4355(2) 0.1180(2)
O2 O 0.9686(3) 0.7396(2) 0.1105(3)
O3 O 1.0858(3) 0.9290(3) 0.1116(3)
O4 O 0.9293(5) 0.8466(4) -0.2853(4)
O5 O 0.8371(6) 0.6974(4) -0.3576(3)
N1 N 0.6553(5) 0.3107(4) 0.4952(3)
N2 N 0.8688(5) 0.7414(4) -0.2812(4)
C1 C 0.9622(4) 0.8780(4) 0.1164(4)
C2 C 0.8009(4) 0.7010(4) 0.1196(4)
C3 C 0.6807(6) 0.3298(5) 0.6017(5)
C4 C 0.8439(7) 0.2726(7) 0.6266(5)
C5 C 0.5944(6) 0.1815(5) 0.4879(5)
C6 C 0.7247(7) 0.0684(5) 0.4574(6)
C7 C 0.7541(5) 0.5274(4) 0.4101(4)
C8 C 0.6955(5) 0.4011(4) 0.4035(4)
C9 C 0.6772(5) 0.3772(4) 0.3037(4)
C10 C 0.7136(4) 0.4712(4) 0.2146(4)
C11 C 0.7696(4) 0.5973(4) 0.2162(4)
C12 C 0.7844(5) 0.6190(4) 0.3190(4)
C13 C 0.7351(5) 0.5168(4) 0.0224(4)
C14 C 0.7178(5) 0.4660(4) -0.0686(4)
C15 C 0.7610(6) 0.5395(4) -0.1661(4)
C16 C 0.8232(5) 0.6625(4) -0.1748(4)
C17 C 0.8397(5) 0.7120(4) -0.0827(4)
C18 C 0.7940(4) 0.6424(4) 0.0193(4)
C19 C 0.7887(4) 0.9397(4) 0.1275(4)
C20 C 0.7218(5) 1.0746(4) 0.1372(4)
C21 C 0.5532(5) 1.1042(4) 0.1469(4)
C22 C 0.4564(4) 1.0016(4) 0.1482(4)
C23 C 0.5250(4) 0.8678(4) 0.1372(4)
C24 C 0.6935(4) 0.8383(3) 0.1275(4)
H1 H 0.77080 0.55000 0.47750
H2 H 0.64340 0.29310 0.28570
H3 H 0.67690 0.37490 -0.05690
H4 H 0.74600 0.50840 -0.22490
H5 H 0.88940 0.80030 -0.08640
H6 H 0.79160 1.14250 0.13520
H7 H 0.50420 1.19500 0.15470
H8 H 0.34730 1.02290 0.15050
H9 H 0.46520 0.79570 0.14020
H10 H 0.59430 0.28570 0.66780
H11 H 0.65480 0.43290 0.61030
H12 H 0.49380 0.20640 0.43500
H13 H 0.53900 0.15240 0.55170
H14 H 0.86980 0.28120 0.71620
H15 H 0.89620 0.16780 0.63450
H16 H 0.93150 0.31610 0.57830
H17 H 0.68360 -0.01750 0.45320
H18 H 0.79030 0.08370 0.38740
H19 H 0.79680 0.02640 0.51900
H20 H 0.82850 0.71030 0.31950
#END
