
#######################################################################
#
#                 Cambridge Crystallographic Data Centre
#                                CCDC
#
#######################################################################
#
# If this CIF has been generated from an entry in the Cambridge
# Structural Database, then it will include bibliographic, chemical,
# crystal, experimental, refinement or atomic coordinate data resulting
# from the CCDC's data processing and validation procedures.
#
#######################################################################

data_CSD_CIF_HIFPUJ
_audit_creation_date 2013-07-05
_audit_creation_method CSD-ConQuest-V1
_database_code_CSD HIFPUJ
_database_code_depnum_ccdc_archive 'CCDC 947415'
_chemical_formula_sum 'C33 H28 N2 O3'
_chemical_formula_moiety
;
C33 H28 N2 O3
;
_journal_coden_Cambridge 35
_journal_volume 78
_journal_year 2013
_journal_page_first 5731
_journal_name_full 'J.Org.Chem. '
loop_
_publ_author_name
"Yushang Shao"
"Kai Zhu"
"Zhengchen Qin"
"Ende Li"
"Yanzhong Li"
_chemical_name_systematic
;
(6-Methyl-1-(4-nitrophenyl)-6-phenyl-4-(2-phenylethylidene)-1,4,5,6-tetrahydro
pyridin-3-yl)(phenyl)methanone
;
_cell_volume  10682.153
_exptl_crystal_colour 'yellow'
_exptl_crystal_density_diffrn 1.245
_exptl_crystal_description 'prismatic'
_diffrn_ambient_temperature 293
#These two values have been output from a single CSD field.
_refine_ls_R_factor_gt 0.0484
_refine_ls_wR_factor_gt 0.0484
_symmetry_cell_setting orthorhombic
_symmetry_space_group_name_H-M 'F d d 2'
_symmetry_Int_Tables_number 43
loop_
_symmetry_equiv_pos_site_id
_symmetry_equiv_pos_as_xyz
1 x,y,z
2 -x,-y,z
3 1/4+x,1/4-y,1/4+z
4 1/4-x,1/4+y,1/4+z
5 x,1/2+y,1/2+z
6 -x,1/2-y,1/2+z
7 1/4+x,3/4-y,3/4+z
8 1/4-x,3/4+y,3/4+z
9 1/2+x,y,1/2+z
10 1/2-x,-y,1/2+z
11 3/4+x,1/4-y,3/4+z
12 3/4-x,1/4+y,3/4+z
13 1/2+x,1/2+y,z
14 1/2-x,1/2-y,z
15 3/4+x,3/4-y,1/4+z
16 3/4-x,3/4+y,1/4+z
_cell_length_a 18.050(2)
_cell_length_b 35.092(4)
_cell_length_c 16.8645(19)
_cell_angle_alpha 90
_cell_angle_beta 90
_cell_angle_gamma 90
_cell_formula_units_Z 16
loop_
_atom_type_symbol
_atom_type_radius_bond
C 0.68
H 0.23
N 0.68
O 0.68
loop_
_atom_site_label
_atom_site_type_symbol
_atom_site_fract_x
_atom_site_fract_y
_atom_site_fract_z
N1 N 0.10314(12) 0.04860(7) 0.39706(17)
N2 N 0.1105(2) -0.03952(13) 0.6758(2)
O1 O -0.06856(14) 0.11923(7) 0.24184(15)
O2 O 0.1410(2) -0.06988(11) 0.6742(2)
O3 O 0.0829(2) -0.02623(11) 0.7353(2)
C1 C 0.04111(16) 0.06980(8) 0.3815(2)
H1 H 0.00400 0.06960 0.41970
C2 C 0.02863(17) 0.09103(8) 0.3159(2)
C3 C 0.08828(18) 0.09442(9) 0.2558(3)
C4 C 0.1631(2) 0.08723(9) 0.2952(3)
H2 H 0.17330 0.10800 0.33160
H3 H 0.20120 0.08760 0.25470
C5 C 0.16828(16) 0.04962(9) 0.3405(2)
C6 C 0.23929(18) 0.05113(11) 0.3902(3)
H4 H 0.23450 0.07050 0.43010
H5 H 0.28060 0.05700 0.35640
H6 H 0.24720 0.02690 0.41510
C7 C -0.04529(18) 0.10801(9) 0.3069(2)
C8 C -0.09536(16) 0.11346(8) 0.3756(2)
C9 C -0.17065(17) 0.10525(9) 0.3673(2)
H7 H -0.18720 0.09330 0.32140
C10 C -0.22008(19) 0.11439(11) 0.4248(2)
H8 H -0.26990 0.10840 0.41870
C11 C -0.1961(2) 0.13261(11) 0.4925(2)
H9 H -0.23010 0.13940 0.53150
C12 C -0.1231(2) 0.14072(10) 0.5025(2)
H10 H -0.10730 0.15290 0.54850
C13 C -0.07247(18) 0.13099(9) 0.4451(2)
H11 H -0.02250 0.13620 0.45290
C14 C 0.16550(18) 0.01599(9) 0.2838(2)
C15 C 0.23033(19) -0.00024(10) 0.2557(3)
H12 H 0.27580 0.00830 0.27450
C16 C 0.2279(3) -0.02904(12) 0.2000(3)
H13 H 0.27190 -0.03930 0.18070
C17 C 0.1620(3) -0.04266(11) 0.1731(3)
H14 H 0.16090 -0.06270 0.13700
C18 C 0.0966(2) -0.02657(12) 0.1998(3)
H15 H 0.05120 -0.03520 0.18080
C19 C 0.09944(19) 0.00262(10) 0.2553(2)
H16 H 0.05550 0.01330 0.27360
C20 C 0.10594(16) 0.02666(8) 0.4675(2)
C21 C 0.08294(17) 0.04241(9) 0.5384(2)
H17 H 0.06660 0.06750 0.53980
C22 C 0.08400(17) 0.02103(10) 0.6076(2)
H18 H 0.06840 0.03140 0.65540
C23 C 0.10880(19) -0.01603(10) 0.6034(2)
C24 C 0.1328(2) -0.03192(9) 0.5341(2)
H19 H 0.15040 -0.05680 0.53360
C25 C 0.13111(18) -0.01110(9) 0.4650(2)
H20 H 0.14640 -0.02190 0.41740
C26 C 0.0782(2) 0.10291(12) 0.1801(3)
H21 H 0.02950 0.10750 0.16480
C27 C 0.1351(3) 0.10601(16) 0.1163(4)
H22 H 0.13450 0.13170 0.09480
H23 H 0.18380 0.10150 0.13870
C28 C 0.1217(3) 0.07858(15) 0.0519(4)
C29 C 0.1531(4) 0.04357(19) 0.0546(4)
H24 H 0.18490 0.03740 0.09610
C30 C 0.1390(5) 0.0182(2) -0.0011(5)
H25 H 0.16120 -0.00560 0.00380
C31 C 0.0951(5) 0.0240(2) -0.0647(5)
H26 H 0.08880 0.00570 -0.10390
C32 C 0.0601(5) 0.0587(3) -0.0676(4)
H27 H 0.02690 0.06390 -0.10830
C33 C 0.0743(4) 0.08639(19) -0.0096(4)
H28 H 0.05150 0.11010 -0.01280
#END
