
#######################################################################
#
#                 Cambridge Crystallographic Data Centre
#                                CCDC
#
#######################################################################
#
# If this CIF has been generated from an entry in the Cambridge
# Structural Database, then it will include bibliographic, chemical,
# crystal, experimental, refinement or atomic coordinate data resulting
# from the CCDC's data processing and validation procedures.
#
#######################################################################

data_CSD_CIF_HIFSUL
_audit_creation_date 2007-07-25
_audit_creation_method CSD-ConQuest-V1
_database_code_CSD HIFSUL
_database_code_depnum_ccdc_archive 'CCDC 652524'
_chemical_formula_sum 'C11 H11 N1 O5'
_chemical_formula_moiety
;
C11 H11 N1 O5
;
_journal_coeditor_code "IUCr GA3047"
_journal_coden_Cambridge 591
_journal_volume 63
_journal_year 2007
_journal_page_first o365
_journal_name_full 'Acta Crystallogr.,Sect.C:Cryst.Struct.Commun. '
loop_
_publ_author_name
"G.Calvet"
"N.Blanchard"
"C.Kouklovsky"
"R.Guillot"
_chemical_name_systematic
;
5-nitroso-1,3-dioxan-5-yl benzoate
;
_cell_volume   1082.576
_exptl_crystal_colour 'blue'
_exptl_crystal_density_diffrn 1.455
_exptl_crystal_description 'plate'
_exptl_crystal_preparation 'pentane/diethyl ether'
_diffrn_ambient_temperature 100.0
#These two values have been output from a single CSD field.
_refine_ls_R_factor_gt 0.0339
_refine_ls_wR_factor_gt 0.0339
_symmetry_cell_setting orthorhombic
_symmetry_space_group_name_H-M 'P 21 21 21'
_symmetry_Int_Tables_number 19
loop_
_symmetry_equiv_pos_site_id
_symmetry_equiv_pos_as_xyz
1 x,y,z
2 1/2-x,-y,1/2+z
3 -x,1/2+y,1/2-z
4 1/2+x,1/2-y,-z
_cell_length_a 9.3969(5)
_cell_length_b 9.4328(5)
_cell_length_c 12.2133(7)
_cell_angle_alpha 90
_cell_angle_beta 90
_cell_angle_gamma 90
_cell_formula_units_Z 4
loop_
_atom_type_symbol
_atom_type_radius_bond
C 0.68
H 0.23
N 0.68
O 0.68
loop_
_atom_site_label
_atom_site_type_symbol
_atom_site_fract_x
_atom_site_fract_y
_atom_site_fract_z
C1 C 0.41257(16) 1.10525(16) 0.66731(11)
H1 H 0.40960 1.20160 0.63960
H2 H 0.41030 1.04130 0.60520
O1 O 0.29252(10) 1.08076(11) 0.73385(7)
C2 C 0.28660(14) 1.18248(14) 0.82006(10)
H3 H 0.20410 1.16460 0.86580
H4 H 0.27780 1.27700 0.78960
C3 C 0.42241(13) 1.17229(12) 0.88889(10)
C4 C 0.55148(14) 1.18430(15) 0.81322(11)
H5 H 0.55690 1.27950 0.78350
H6 H 0.63780 1.16640 0.85450
O2 O 0.53999(11) 1.08459(12) 0.72621(8)
N1 N 0.42062(13) 1.29968(12) 0.96344(9)
O3 O 0.37322(11) 1.27543(11) 1.05311(8)
O4 O 0.41342(10) 1.04097(9) 0.94535(7)
C5 C 0.51737(13) 1.01089(13) 1.01934(10)
O5 O 0.61208(10) 1.09256(10) 1.04222(8)
C6 C 0.50125(13) 0.86631(12) 1.06546(9)
C7 C 0.60143(14) 0.82179(13) 1.14258(10)
H7 H 0.67370 0.88270 1.16490
C8 C 0.59237(16) 0.68547(14) 1.18585(10)
H8 H 0.65820 0.65530 1.23770
C9 C 0.48514(16) 0.59493(15) 1.15159(11)
H9 H 0.47980 0.50380 1.18030
C10 C 0.38535(15) 0.63910(14) 1.07467(11)
H10 H 0.31390 0.57760 1.05190
C11 C 0.39276(13) 0.77570(13) 1.03195(10)
H11 H 0.32560 0.80630 0.98130
#END
