
#######################################################################
#
#                 Cambridge Crystallographic Data Centre
#                                CCDC
#
#######################################################################
#
# If this CIF has been generated from an entry in the Cambridge
# Structural Database, then it will include bibliographic, chemical,
# crystal, experimental, refinement or atomic coordinate data resulting
# from the CCDC's data processing and validation procedures.
#
#######################################################################

data_CSD_CIF_HIFXEB
_audit_creation_date 2013-07-05
_audit_creation_method CSD-ConQuest-V1
_database_code_CSD HIFXEB
_database_code_depnum_ccdc_archive 'CCDC 906046'
_chemical_formula_sum 'C15 H15 N1 O1'
_chemical_formula_moiety
;
C15 H15 N1 O1
;
_journal_coden_Cambridge 35
_journal_volume 78
_journal_year 2013
_journal_page_first 3676
_journal_name_full 'J.Org.Chem. '
loop_
_publ_author_name
"D.D.Dolliver"
"B.T.Bhattarai"
"A.Pandey"
"M.L.Lanier"
"A.S.Bordelon"
"S.Adhikari"
"J.A.Dinser"
"P.F.Flowers"
"V.S.Wills"
"C.L.Schneider"
"K.H.Shaughnessy"
"J.N.Moore"
"S.M.Raders"
"T.Snowden"
"A.S.McKim"
"F.R.Fronczek"
_chemical_name_systematic
;
N-Methoxy-1-(2-methylphenyl)-1-phenylmethanimine
;
_cell_volume   1220.085
_exptl_crystal_colour 'colorless'
_exptl_crystal_density_diffrn 1.226
_exptl_crystal_description 'prism'
_diffrn_ambient_temperature 90
_refine_special_details
;
C10,C11,C12,C13,C14,C8,C9 and C10A,C11A,C12A,C13A, C14A,C8A,C9A disordered 
over two sites with occupancies 0.9470:0.0530.
;
#These two values have been output from a single CSD field.
_refine_ls_R_factor_gt 0.0413
_refine_ls_wR_factor_gt 0.0413
_symmetry_cell_setting monoclinic
_symmetry_space_group_name_H-M 'P 21/c'
_symmetry_Int_Tables_number 14
loop_
_symmetry_equiv_pos_site_id
_symmetry_equiv_pos_as_xyz
1 x,y,z
2 -x,1/2+y,1/2-z
3 -x,-y,-z
4 x,-1/2-y,-1/2+z
_cell_length_a 12.793(2)
_cell_length_b 7.5861(10)
_cell_length_c 12.616(2)
_cell_angle_alpha 90
_cell_angle_beta 94.795(5)
_cell_angle_gamma 90
_cell_formula_units_Z 4
loop_
_atom_type_symbol
_atom_type_radius_bond
C 0.68
H 0.23
N 0.68
O 0.68
loop_
_atom_site_label
_atom_site_type_symbol
_atom_site_fract_x
_atom_site_fract_y
_atom_site_fract_z
O1 O 0.43462(4) 0.50625(8) 0.73982(5)
N1 N 0.34892(5) 0.39096(9) 0.74454(5)
C1 C 0.27395(6) 0.43219(10) 0.67414(6)
C2 C 0.17733(6) 0.32364(10) 0.66980(6)
C3 C 0.10492(6) 0.33363(11) 0.58028(7)
H1 H 0.11730 0.41220 0.52400
C4 C 0.01492(6) 0.22913(12) 0.57306(8)
H2 H -0.03330 0.23580 0.51170
C5 C -0.00428(7) 0.11539(13) 0.65546(8)
H3 H -0.06570 0.04440 0.65070
C6 C 0.06662(8) 0.10565(13) 0.74504(8)
H4 H 0.05330 0.02830 0.80160
C7 C 0.15702(7) 0.20857(12) 0.75236(7)
H5 H 0.20520 0.20070 0.81370
C8 C 0.27919(6) 0.58419(11) 0.59932(6)
C9 C 0.23297(7) 0.74420(12) 0.62328(7)
H6 H 0.19910 0.75610 0.68710
C10 C 0.23621(7) 0.88675(11) 0.55395(7)
H7 H 0.20550 0.99620 0.57080
C11 C 0.28460(7) 0.86756(13) 0.46014(7)
H8 H 0.28670 0.96410 0.41240
C12 C 0.33004(7) 0.70742(13) 0.43573(8)
H9 H 0.36250 0.69580 0.37110
C13 C 0.32869(6) 0.56332(11) 0.50492(6)
C14 C 0.37890(8) 0.39049(13) 0.47967(8)
H10 H 0.40400 0.39630 0.40850
H11 H 0.32720 0.29550 0.48190
H12 H 0.43810 0.36720 0.53220
C15 C 0.51462(6) 0.45859(12) 0.82139(7)
H13 H 0.48720 0.47080 0.89120
H14 H 0.57540 0.53630 0.81750
H15 H 0.53590 0.33610 0.81110
C16? C 0.3005(12) 0.5220(18) 0.5702(11)
C17? C 0.3487(13) 0.441(2) 0.4912(11)
H16? H 0.37170 0.32330 0.50270
C18? C 0.3667(11) 0.5196(17) 0.3951(10)
H17? H 0.39600 0.45800 0.33910
C19? C 0.3381(12) 0.6948(18) 0.3880(13)
H18? H 0.35040 0.75720 0.32500
C20? C 0.2942(12) 0.781(2) 0.4649(10)
H19? H 0.27890 0.90310 0.45510
C21? C 0.2688(11) 0.6977(17) 0.5629(10)
C22? C 0.2161(14) 0.779(2) 0.6501(13)
#END
