
#######################################################################
#
#                 Cambridge Crystallographic Data Centre
#                                CCDC
#
#######################################################################
#
# If this CIF has been generated from an entry in the Cambridge
# Structural Database, then it will include bibliographic, chemical,
# crystal, experimental, refinement or atomic coordinate data resulting
# from the CCDC's data processing and validation procedures.
#
#######################################################################

data_CSD_CIF_HIFYUS
_audit_creation_date 2013-07-05
_audit_creation_method CSD-ConQuest-V1
_database_code_CSD HIFYUS
_database_code_depnum_ccdc_archive 'CCDC 906054'
_chemical_formula_sum 'C17 H15 N1 O2'
_chemical_formula_moiety
;
C17 H15 N1 O2
;
_journal_coden_Cambridge 35
_journal_volume 78
_journal_year 2013
_journal_page_first 3676
_journal_name_full 'J.Org.Chem. '
loop_
_publ_author_name
"D.D.Dolliver"
"B.T.Bhattarai"
"A.Pandey"
"M.L.Lanier"
"A.S.Bordelon"
"S.Adhikari"
"J.A.Dinser"
"P.F.Flowers"
"V.S.Wills"
"C.L.Schneider"
"K.H.Shaughnessy"
"J.N.Moore"
"S.M.Raders"
"T.Snowden"
"A.S.McKim"
"F.R.Fronczek"
_chemical_name_systematic
;
N-Methoxy-1-(4-methoxyphenyl)-3-phenylprop-2-yn-1-imine
;
_cell_volume    682.382
_exptl_crystal_colour 'yellow'
_exptl_crystal_density_diffrn 1.291
_exptl_crystal_description 'plate'
_diffrn_ambient_temperature 90
#These two values have been output from a single CSD field.
_refine_ls_R_factor_gt 0.0327
_refine_ls_wR_factor_gt 0.0327
_symmetry_cell_setting monoclinic
_symmetry_space_group_name_H-M 'P 21'
_symmetry_Int_Tables_number 4
loop_
_symmetry_equiv_pos_site_id
_symmetry_equiv_pos_as_xyz
1 x,y,z
2 -x,1/2+y,-z
_cell_length_a 8.0955(10)
_cell_length_b 5.7255(6)
_cell_length_c 14.7233(15)
_cell_angle_alpha 90
_cell_angle_beta 90.723(5)
_cell_angle_gamma 90
_cell_formula_units_Z 2
loop_
_atom_type_symbol
_atom_type_radius_bond
C 0.68
H 0.23
N 0.68
O 0.68
loop_
_atom_site_label
_atom_site_type_symbol
_atom_site_fract_x
_atom_site_fract_y
_atom_site_fract_z
O1 O 0.55990(7) 0.65960(11) 0.80006(4)
O2 O 0.10100(7) 0.61158(11) 0.33860(4)
N1 N 0.50292(8) 0.69747(12) 0.71125(4)
C1 C 0.39504(9) 0.54130(13) 0.68664(5)
C2 C 0.32150(9) 0.56249(13) 0.59456(5)
C3 C 0.35451(9) 0.75755(13) 0.54044(5)
H1 H 0.42570 0.87660 0.56300
C4 C 0.28473(9) 0.77959(13) 0.45412(5)
H2 H 0.30830 0.91240 0.41780
C5 C 0.17962(9) 0.60463(13) 0.42119(5)
C6 C 0.14678(9) 0.40839(13) 0.47401(5)
H3 H 0.07620 0.28890 0.45110
C7 C 0.21736(9) 0.38765(13) 0.56016(5)
H4 H 0.19470 0.25370 0.59600
C8 C 0.34569(9) 0.35598(14) 0.74543(5)
C9 C 0.30360(9) 0.20450(14) 0.79733(5)
C10 C 0.25355(9) 0.03103(13) 0.86099(5)
C11 C 0.31743(10) 0.03494(14) 0.94978(5)
H5 H 0.39470 0.15200 0.96730
C12 C 0.26793(10) -0.13239(16) 1.01254(5)
H6 H 0.31210 -0.13020 1.07260
C13 C 0.15371(10) -0.30287(14) 0.98709(5)
H7 H 0.11830 -0.41530 1.03010
C14 C 0.09144(10) -0.30850(15) 0.89866(5)
H8 H 0.01480 -0.42650 0.88140
C15 C 0.14032(9) -0.14289(14) 0.83529(5)
H9 H 0.09730 -0.14760 0.77500
C16 C 0.12694(11) 0.81267(16) 0.28366(5)
H10 H 0.08760 0.95180 0.31560
H11 H 0.06600 0.79550 0.22610
H12 H 0.24510 0.82920 0.27150
C17 C 0.67305(10) 0.84364(16) 0.82169(5)
H13 H 0.76590 0.83900 0.77960
H14 H 0.71440 0.82370 0.88410
H15 H 0.61650 0.99440 0.81620
#END
