
#######################################################################
#
#                 Cambridge Crystallographic Data Centre
#                                CCDC
#
#######################################################################
#
# If this CIF has been generated from an entry in the Cambridge
# Structural Database, then it will include bibliographic, chemical,
# crystal, experimental, refinement or atomic coordinate data resulting
# from the CCDC's data processing and validation procedures.
#
#######################################################################

data_CSD_CIF_HIFYAY
_audit_creation_date 2013-07-05
_audit_creation_method CSD-ConQuest-V1
_database_code_CSD HIFYAY
_database_code_depnum_ccdc_archive 'CCDC 906050'
_chemical_formula_sum 'C17 H19 N1 O1'
_chemical_formula_moiety
;
C17 H19 N1 O1
;
_journal_coden_Cambridge 35
_journal_volume 78
_journal_year 2013
_journal_page_first 3676
_journal_name_full 'J.Org.Chem. '
loop_
_publ_author_name
"D.D.Dolliver"
"B.T.Bhattarai"
"A.Pandey"
"M.L.Lanier"
"A.S.Bordelon"
"S.Adhikari"
"J.A.Dinser"
"P.F.Flowers"
"V.S.Wills"
"C.L.Schneider"
"K.H.Shaughnessy"
"J.N.Moore"
"S.M.Raders"
"T.Snowden"
"A.S.McKim"
"F.R.Fronczek"
_chemical_name_systematic
;
N-Isopropoxy-1-(4-methylphenyl)-1-phenylmethanimine
;
_cell_volume   1429.434
_exptl_crystal_colour 'colorless'
_exptl_crystal_density_diffrn 1.177
_diffrn_ambient_temperature 90
#These two values have been output from a single CSD field.
_refine_ls_R_factor_gt 0.0376
_refine_ls_wR_factor_gt 0.0376
_symmetry_cell_setting orthorhombic
_symmetry_space_group_name_H-M 'P n a 21'
_symmetry_Int_Tables_number 33
loop_
_symmetry_equiv_pos_site_id
_symmetry_equiv_pos_as_xyz
1 x,y,z
2 -x,-y,1/2+z
3 1/2-x,1/2+y,1/2+z
4 1/2+x,1/2-y,z
_cell_length_a 17.454(5)
_cell_length_b 5.917(2)
_cell_length_c 13.841(5)
_cell_angle_alpha 90
_cell_angle_beta 90
_cell_angle_gamma 90
_cell_formula_units_Z 4
loop_
_atom_type_symbol
_atom_type_radius_bond
C 0.68
H 0.23
N 0.68
O 0.68
loop_
_atom_site_label
_atom_site_type_symbol
_atom_site_fract_x
_atom_site_fract_y
_atom_site_fract_z
O1 O 0.42360(7) 0.9056(2) 0.56837(10)
N1 N 0.39097(8) 0.7432(2) 0.50608(12)
C1 C 0.44284(10) 0.6362(3) 0.45778(14)
C2 C 0.41556(10) 0.4536(3) 0.39245(14)
C3 C 0.45777(10) 0.3929(3) 0.31085(16)
H1 H 0.50390 0.47120 0.29660
C4 C 0.43355(10) 0.2196(3) 0.24986(14)
H2 H 0.46240 0.18420 0.19370
C5 C 0.36711(11) 0.0977(3) 0.27085(15)
C6 C 0.32468(11) 0.1596(3) 0.35218(15)
H3 H 0.27900 0.07950 0.36700
C7 C 0.3478(1) 0.3356(3) 0.41184(14)
H4 H 0.31740 0.37610 0.46610
C8 C 0.52687(10) 0.6778(3) 0.46607(13)
C9 C 0.55913(11) 0.8837(3) 0.43815(14)
H5 H 0.52720 1.00180 0.41480
C10 C 0.6379(1) 0.9160(3) 0.44441(15)
H6 H 0.65970 1.05510 0.42400
C11 C 0.68489(10) 0.7461(3) 0.48035(14)
H7 H 0.73870 0.76870 0.48490
C12 C 0.65252(10) 0.5431(3) 0.50952(16)
H8 H 0.68420 0.42760 0.53550
C13 C 0.57438(10) 0.5074(3) 0.50111(16)
H9 H 0.55310 0.36600 0.51930
C14 C 0.34252(12) -0.0984(3) 0.20853(17)
H10 H 0.38250 -0.13060 0.16070
H11 H 0.29470 -0.06000 0.17520
H12 H 0.33440 -0.23190 0.24920
C15 C 0.36307(10) 1.0055(3) 0.62644(14)
H13 H 0.32080 1.05790 0.58320
C16 C 0.33160(13) 0.8364(3) 0.69855(16)
H14 H 0.31240 0.70330 0.66400
H15 H 0.28970 0.90590 0.73510
H16 H 0.37240 0.79060 0.74310
C17 C 0.40025(11) 1.2085(3) 0.67422(15)
H17 H 0.44470 1.15880 0.71190
H18 H 0.36320 1.28200 0.71710
H19 H 0.41690 1.31570 0.62450
#END
