
#######################################################################
#
#                 Cambridge Crystallographic Data Centre
#                                CCDC
#
#######################################################################
#
# If this CIF has been generated from an entry in the Cambridge
# Structural Database, then it will include bibliographic, chemical,
# crystal, experimental, refinement or atomic coordinate data resulting
# from the CCDC's data processing and validation procedures.
#
#######################################################################

data_CSD_CIF_HIGCIJ
_audit_creation_date 1996-04-05
_audit_creation_method CSD-ConQuest-V1
_database_code_CSD HIGCIJ
_database_code_depnum_ccdc_archive 'CCDC 124382'
_chemical_formula_sum 'C18 H17 N1 O3'
_chemical_formula_moiety
;
C18 H17 N1 O3
;
_journal_coeditor_code "IUCr SX1007"
_journal_coden_Cambridge 591
_journal_volume 52
_journal_year 1996
_journal_page_first 486
_journal_name_full 'Acta Crystallogr.,Sect.C:Cryst.Struct.Commun. '
loop_
_publ_author_name
"S.Niwayama"
"Ying You"
"K.N.Houk"
"S.I.Khan"
_chemical_name_systematic
;
(3\a,3a\a,6aalpha 
)-(Hexahydro-2-phenylfuro(3,2-d)isoxazol-3-yl)phenylmethanone
;
_cell_volume   2963.199
_exptl_crystal_colour 'pale yellow'
_exptl_crystal_density_diffrn 1.324
_diffrn_ambient_temperature ?
_diffrn_special_details
;
The study was carried out at room temperature,in the range 283-303K

;
#These two values have been output from a single CSD field.
_refine_ls_R_factor_gt 0.048
_refine_ls_wR_factor_gt 0.048
_symmetry_cell_setting orthorhombic
_symmetry_space_group_name_H-M 'P b c a'
_symmetry_Int_Tables_number 61
loop_
_symmetry_equiv_pos_site_id
_symmetry_equiv_pos_as_xyz
1 x,y,z
2 1/2-x,-y,1/2+z
3 1/2+x,1/2-y,-z
4 -x,1/2+y,1/2-z
5 -x,-y,-z
6 -1/2+x,y,-1/2-z
7 -1/2-x,-1/2+y,z
8 x,-1/2-y,-1/2+z
_cell_length_a 10.181(4)
_cell_length_b 28.90(1)
_cell_length_c 10.071(2)
_cell_angle_alpha 90
_cell_angle_beta 90
_cell_angle_gamma 90
_cell_formula_units_Z 8
loop_
_atom_type_symbol
_atom_type_radius_bond
C 0.68
H 0.23
N 0.68
O 0.68
loop_
_atom_site_label
_atom_site_type_symbol
_atom_site_fract_x
_atom_site_fract_y
_atom_site_fract_z
O1 O 0.5295(3) 0.3394(1) 0.2706(3)
O2 O 0.5307(3) 0.5048(1) 0.3408(3)
O3 O 0.5079(2) 0.4381(1) 0.2114(2)
N1 N 0.6422(3) 0.4231(1) 0.1841(3)
C1 C 0.8181(4) 0.3275(1) 0.4736(4)
C2 C 0.8690(4) 0.2983(2) 0.5710(4)
C3 C 0.7916(5) 0.2648(1) 0.6273(5)
C4 C 0.6627(5) 0.2596(1) 0.5887(5)
C5 C 0.6110(4) 0.2886(1) 0.4926(4)
C6 C 0.6881(4) 0.3226(1) 0.4347(4)
C7 C 0.6271(4) 0.3523(1) 0.3309(4)
C8 C 0.6849(4) 0.4009(1) 0.3058(3)
C9 C 0.6319(4) 0.4350(1) 0.4109(3)
C10 C 0.7228(4) 0.4767(1) 0.4369(4)
C11 C 0.6683(5) 0.5144(2) 0.3490(4)
C12 C 0.5118(4) 0.4569(1) 0.3419(4)
C13 C 0.6483(4) 0.4016(1) 0.0588(3)
C14 C 0.7464(4) 0.3690(1) 0.0336(4)
C15 C 0.7614(5) 0.3517(1) -0.0941(4)
C16 C 0.6801(5) 0.3661(2) -0.1958(4)
C17 C 0.5836(5) 0.3985(2) -0.1697(4)
C18 C 0.5678(4) 0.4164(1) -0.0432(4)
H1 H 0.87410 0.35220 0.43300
H2 H 0.96340 0.30130 0.59700
H3 H 0.82960 0.24410 0.69700
H4 H 0.60710 0.23540 0.63210
H5 H 0.51770 0.28450 0.46380
H6 H 0.78150 0.39470 0.30580
H7 H 0.62220 0.41850 0.49750
H8 H 0.81550 0.46870 0.41320
H9 H 0.71860 0.48630 0.53220
H10 H 0.68440 0.54580 0.38750
H11 H 0.70900 0.51250 0.25880
H12 H 0.42740 0.45020 0.38890
H13 H 0.80370 0.35770 0.10740
H14 H 0.83270 0.32880 -0.11280
H15 H 0.69260 0.35320 -0.28700
H16 H 0.52380 0.40850 -0.24300
H17 H 0.49800 0.43990 -0.02520
#END
