
#######################################################################
#
#                 Cambridge Crystallographic Data Centre
#                                CCDC
#
#######################################################################
#
# If this CIF has been generated from an entry in the Cambridge
# Structural Database, then it will include bibliographic, chemical,
# crystal, experimental, refinement or atomic coordinate data resulting
# from the CCDC's data processing and validation procedures.
#
#######################################################################

data_CSD_CIF_HIGDUY
_audit_creation_date 2013-07-05
_audit_creation_method CSD-ConQuest-V1
_database_code_CSD HIGDUY
_database_code_depnum_ccdc_archive 'CCDC 948950'
_chemical_formula_sum 'C23 H29 N1 O5'
_chemical_formula_moiety
;
C23 H29 N1 O5
;
_journal_coden_Cambridge 35
_journal_volume 78
_journal_year 2013
_journal_page_first 9
_journal_name_full 'J.Org.Chem. '
loop_
_publ_author_name
"S.M.Canham"
"D.J.France"
"L.E.Overman"
_chemical_name_systematic
;
13-((4-Methoxybenzyl)oxy)-17-oxa-13-azatetracyclo[12.2.1.0^1,9^.0^4,9^]heptade
cane-2,8-dione
;
_cell_volume    986.158
_exptl_crystal_colour 'colorless'
_exptl_crystal_density_diffrn 1.345
_exptl_crystal_description 'irregular'
_diffrn_ambient_temperature 103
#These two values have been output from a single CSD field.
_refine_ls_R_factor_gt 0.0358
_refine_ls_wR_factor_gt 0.0358
_symmetry_cell_setting triclinic
_symmetry_space_group_name_H-M 'P -1'
_symmetry_Int_Tables_number 2
loop_
_symmetry_equiv_pos_site_id
_symmetry_equiv_pos_as_xyz
1 x,y,z
2 -x,-y,-z
_cell_length_a 8.3685(3)
_cell_length_b 10.2980(4)
_cell_length_c 12.6902(5)
_cell_angle_alpha 70.9236(4)
_cell_angle_beta 83.1057(4)
_cell_angle_gamma 72.6356(4)
_cell_formula_units_Z 2
loop_
_atom_type_symbol
_atom_type_radius_bond
C 0.68
H 0.23
N 0.68
O 0.68
loop_
_atom_site_label
_atom_site_type_symbol
_atom_site_fract_x
_atom_site_fract_y
_atom_site_fract_z
O1 O 0.73648(9) 0.99461(8) 1.00785(6)
O2 O 0.59963(9) 1.17392(8) 0.74100(6)
O3 O 1.20991(9) 0.80536(8) 0.59674(6)
O4 O 0.91892(8) 0.94623(7) 0.69758(6)
O5 O 1.98176(9) 0.45921(8) 0.69387(7)
N1 N 1.21772(11) 0.89524(9) 0.66283(7)
C1 C 1.05752(12) 1.00381(10) 0.64966(8)
C2 C 1.05058(14) 1.11738(11) 0.70470(9)
C3 C 0.95314(13) 1.07648(11) 0.81559(9)
C4 C 0.85600(12) 0.98037(10) 0.80020(8)
C5 C 0.66871(12) 1.04737(11) 0.77514(8)
C6 C 0.58894(13) 0.92563(11) 0.79825(8)
C7 C 0.72854(12) 0.78656(10) 0.84736(8)
C8 C 0.66887(14) 0.66644(11) 0.93505(9)
C9 C 1.25518(13) 0.79940(11) 0.77725(9)
C10 C 1.14670(13) 0.69597(11) 0.83197(9)
C11 C 1.02590(13) 0.73088(11) 0.92620(8)
C12 C 0.85414(12) 0.84029(10) 0.89348(8)
C13 C 0.76973(12) 0.87490(11) 0.99917(8)
C14 C 0.72091(14) 0.75403(12) 1.08902(9)
C15 C 0.59705(14) 0.70414(12) 1.04150(9)
C16 C 1.34628(13) 0.80350(11) 0.51590(8)
C17 C 1.51530(13) 0.71763(11) 0.56550(8)
C18 C 1.65201(13) 0.77372(11) 0.54229(9)
C19 C 1.81047(13) 0.69163(11) 0.58397(9)
C20 C 1.83172(13) 0.55033(11) 0.65013(8)
C21 C 1.69542(13) 0.49267(11) 0.67586(10)
C22 C 1.54003(13) 0.57554(12) 0.63311(10)
C23 C 2.13040(13) 0.48874(12) 0.63514(9)
H1 H 1.0395(15) 1.0444(13) 0.5704(10)
H2 H 1.1627(19) 1.1205(16) 0.7148(12)
H3 H 0.9862(18) 1.2121(16) 0.6557(12)
H4 H 1.0282(17) 1.0261(14) 0.8782(11)
H5 H 0.8777(17) 1.1608(14) 0.8326(11)
H6 H 0.4935(17) 0.9431(15) 0.8512(12)
H7 H 0.5458(17) 0.9281(15) 0.7289(12)
H8 H 0.7872(16) 0.7498(14) 0.7874(11)
H9 H 0.7642(18) 0.5775(16) 0.9543(12)
H10 H 0.5852(19) 0.6423(16) 0.9023(13)
H11 H 1.2516(17) 0.8604(15) 0.8232(11)
H12 H 1.3701(18) 0.7448(15) 0.7722(11)
H13 H 1.0857(18) 0.6865(15) 0.7730(12)
H14 H 1.2260(18) 0.6016(16) 0.8658(12)
H15 H 1.0045(17) 0.6417(16) 0.9749(12)
H16 H 1.0825(18) 0.7630(15) 0.9740(12)
H17 H 0.8216(18) 0.6728(16) 1.1131(12)
H18 H 0.6710(19) 0.7877(16) 1.1528(13)
H19 H 0.4924(18) 0.7824(15) 1.0266(12)
H20 H 0.5708(18) 0.6200(16) 1.0988(12)
H21 H 1.3470(17) 0.9027(16) 0.4722(12)
H22 H 1.3157(17) 0.7597(15) 0.4660(12)
H23 H 1.6377(18) 0.8728(16) 0.4945(12)
H24 H 1.9034(18) 0.7338(15) 0.5664(12)
H25 H 1.711(2) 0.3962(18) 0.7215(13)
H26 H 1.447(2) 0.5336(17) 0.6492(13)
H27 H 2.1506(19) 0.5695(17) 0.6462(13)
H28 H 2.1201(19) 0.5059(16) 0.5562(13)
H29 H 2.224(2) 0.4031(18) 0.6665(13)
#END
