
#######################################################################
#
#                 Cambridge Crystallographic Data Centre
#                                CCDC
#
#######################################################################
#
# If this CIF has been generated from an entry in the Cambridge
# Structural Database, then it will include bibliographic, chemical,
# crystal, experimental, refinement or atomic coordinate data resulting
# from the CCDC's data processing and validation procedures.
#
#######################################################################

data_CSD_CIF_HIGYII
_audit_creation_date 2018-06-20
_audit_creation_method CSD-ConQuest-V1
_database_code_CSD HIGYII
_database_code_depnum_ccdc_archive 'CCDC 1826563'
_chemical_formula_sum 'C24 H18 N2 O3'
_chemical_formula_moiety
;
C24 H18 N2 O3
;
_journal_coden_Cambridge 179
_journal_volume 57
_journal_year 2018
_journal_page_first 9028
_journal_name_full 'Angew.Chem.,Int.Ed. '
loop_
_publ_author_name
"Dong Ding"
"Guohao Zhu"
"Xuefeng Jiang"
_chemical_name_systematic
;
12-benzyl-6-(methoxyimino)-6,12-dihydro-11H-[2]benzopyrano[4,3-c]quinolin-11-o
ne
;
_cell_volume   1876.559
_exptl_crystal_colour 'colorless'
_exptl_crystal_density_diffrn 1.354
_exptl_crystal_description 'block'
_diffrn_ambient_temperature 293
#These two values have been output from a single CSD field.
_refine_ls_R_factor_gt 0.0762
_refine_ls_wR_factor_gt 0.0762
_symmetry_cell_setting monoclinic
_symmetry_space_group_name_H-M 'P 21/n'
_symmetry_Int_Tables_number 14
loop_
_symmetry_equiv_pos_site_id
_symmetry_equiv_pos_as_xyz
1 x,y,z
2 1/2-x,1/2+y,1/2-z
3 -x,-y,-z
4 -1/2+x,-1/2-y,-1/2+z
_cell_length_a 5.5229(3)
_cell_length_b 16.3716(7)
_cell_length_c 20.8214(8)
_cell_angle_alpha 90
_cell_angle_beta 94.608(4)
_cell_angle_gamma 90
_cell_formula_units_Z 4
loop_
_atom_type_symbol
_atom_type_radius_bond
C 0.68
H 0.23
N 0.68
O 0.68
loop_
_atom_site_label
_atom_site_type_symbol
_atom_site_fract_x
_atom_site_fract_y
_atom_site_fract_z
O1 O 0.6996(4) 0.43648(15) 0.46527(10)
O2 O 0.4862(5) 0.44006(15) 0.23916(10)
O3 O 0.4290(7) 0.50487(18) 0.13207(13)
N1 N 0.3682(5) 0.36831(15) 0.42283(11)
N2 N 0.6219(7) 0.5376(2) 0.17006(15)
C1 C 0.5406(8) 0.2305(3) 0.5062(3)
H1 H 0.64352 0.24858 0.47600
C2 C 0.5893(10) 0.1568(3) 0.5384(3)
H2 H 0.72877 0.12768 0.53083
C3 C 0.4389(9) 0.1272(3) 0.5801(2)
H3 H 0.46898 0.07680 0.59971
C4 C 0.2458(10) 0.1710(3) 0.5930(2)
H4 H 0.14143 0.15153 0.62235
C5 C 0.5712(6) 0.41695(18) 0.41656(14)
C6 C 0.1993(8) 0.2455(2) 0.56289(18)
H5 H 0.06533 0.27591 0.57307
C7 C 0.3462(6) 0.2754(2) 0.51856(15)
C8 C 0.2893(6) 0.3578(2) 0.48775(15)
H6 H 0.11515 0.36638 0.48601
H7 H 0.36540 0.39982 0.51531
C9 C 0.2255(6) 0.33640(17) 0.37052(14)
C10 C 0.0358(6) 0.2823(2) 0.37863(17)
H8 H 0.00347 0.26613 0.41989
C11 C -0.1036(7) 0.2527(2) 0.32638(18)
H9 H -0.22904 0.21637 0.33255
C12 C -0.0599(7) 0.2763(2) 0.26426(19)
H10 H -0.15677 0.25646 0.22912
C13 C 0.1265(7) 0.3291(2) 0.25509(17)
H11 H 0.15638 0.34474 0.21353
C14 C 0.2734(6) 0.35969(18) 0.30794(15)
C15 C 0.4657(6) 0.41586(18) 0.30152(14)
C16 C 0.6165(6) 0.44404(17) 0.35156(14)
C17 C 0.8138(6) 0.50118(18) 0.33916(15)
C18 C 0.9895(6) 0.53001(19) 0.38568(17)
H12 H 0.98538 0.51294 0.42818
C19 C 1.1686(7) 0.5831(2) 0.3699(2)
H13 H 1.28225 0.60214 0.40180
C20 C 1.1801(7) 0.6083(2) 0.3069(2)
H14 H 1.30271 0.64364 0.29635
C21 C 1.0110(7) 0.5814(2) 0.2601(2)
H15 H 1.01948 0.59855 0.21775
C22 C 0.8262(6) 0.52845(19) 0.27505(16)
C23 C 0.6414(7) 0.5022(2) 0.22605(16)
C24 C 0.3926(16) 0.5569(4) 0.0765(2)
H16 H 0.31756 0.52626 0.04101
H17 H 0.54654 0.57751 0.06538
H18 H 0.28951 0.60179 0.08610
#END
