
#######################################################################
#
#                 Cambridge Crystallographic Data Centre
#                                CCDC
#
#######################################################################
#
# If this CIF has been generated from an entry in the Cambridge
# Structural Database, then it will include bibliographic, chemical,
# crystal, experimental, refinement or atomic coordinate data resulting
# from the CCDC's data processing and validation procedures.
#
#######################################################################

data_CSD_CIF_HIHHAH
_audit_creation_date 1996-07-16
_audit_creation_method CSD-ConQuest-V1
_database_code_CSD HIHHAH
_database_code_depnum_ccdc_archive 'CCDC 126819'
_chemical_formula_sum 'C8 H7 N1 O3'
_chemical_formula_moiety
;
C8 H7 N1 O3
;
_journal_coeditor_code "IUCr HA1154"
_journal_coden_Cambridge 591
_journal_volume 52
_journal_year 1996
_journal_page_first 1454
_journal_name_full 'Acta Crystallogr.,Sect.C:Cryst.Struct.Commun. '
loop_
_publ_author_name
"N.Feeder"
"W.Jones"
"A.P.Chorlton"
"R.Docherty"
_chemical_name_systematic
;
1-(3-Nitrophenyl)ethanone
;
_chemical_name_common
;
3-Nitroacetophenone
;
_cell_volume    779.372
_exptl_crystal_colour 'colorless'
_exptl_crystal_density_diffrn 1.407
_diffrn_ambient_temperature ?
_diffrn_special_details
;
The study was carried out at room temperature,in the range 283-303K

;
#These two values have been output from a single CSD field.
_refine_ls_R_factor_gt 0.0613
_refine_ls_wR_factor_gt 0.0613
_symmetry_cell_setting monoclinic
_symmetry_space_group_name_H-M 'P 21/n'
_symmetry_Int_Tables_number 14
loop_
_symmetry_equiv_pos_site_id
_symmetry_equiv_pos_as_xyz
1 x,y,z
2 1/2-x,1/2+y,1/2-z
3 -x,-y,-z
4 -1/2+x,-1/2-y,-1/2+z
_cell_length_a 7.392(1)
_cell_length_b 9.888(2)
_cell_length_c 10.814(2)
_cell_angle_alpha 90
_cell_angle_beta 99.59(3)
_cell_angle_gamma 90
_cell_formula_units_Z 4
loop_
_atom_type_symbol
_atom_type_radius_bond
C 0.68
H 0.23
N 0.68
O 0.68
loop_
_atom_site_label
_atom_site_type_symbol
_atom_site_fract_x
_atom_site_fract_y
_atom_site_fract_z
N1 N 0.1177(6) 0.3249(4) 0.3214(4)
O1 O 0.0257(5) 0.3622(4) 0.2233(3)
O2 O 0.1544(7) 0.2074(4) 0.3447(4)
O3 O 0.0619(5) 0.8299(3) 0.3557(3)
C1 C 0.2145(5) 0.6573(4) 0.4778(4)
C2 C 0.1519(5) 0.5605(4) 0.3898(4)
H1 H 0.0850(5) 0.5857(4) 0.3127(4)
C3 C 0.1882(5) 0.4267(5) 0.4159(4)
C4 C 0.2889(6) 0.3845(5) 0.5299(4)
H2 H 0.3128(6) 0.2934(5) 0.5461(4)
C5 C 0.3514(6) 0.4806(5) 0.6168(4)
H3 H 0.4189(6) 0.4547(5) 0.6935(4)
C6 C 0.3156(5) 0.6165(5) 0.5922(4)
H4 H 0.3592(5) 0.6809(5) 0.6526(4)
C7 C 0.1691(6) 0.8025(4) 0.4495(4)
C8 C 0.2583(7) 0.9084(5) 0.5340(4)
H5 H 0.2149(7) 0.9955(5) 0.5031(4)
H6 H 0.3888(7) 0.9037(5) 0.5375(4)
H7 H 0.2295(7) 0.8951(5) 0.6165(4)
#END
