
#######################################################################
#
#                 Cambridge Crystallographic Data Centre
#                                CCDC
#
#######################################################################
#
# If this CIF has been generated from an entry in the Cambridge
# Structural Database, then it will include bibliographic, chemical,
# crystal, experimental, refinement or atomic coordinate data resulting
# from the CCDC's data processing and validation procedures.
#
#######################################################################

data_CSD_CIF_HIHLOC
_audit_creation_date 2018-06-21
_audit_creation_method CSD-ConQuest-V1
_database_code_CSD HIHLOC
_database_code_depnum_ccdc_archive 'CCDC 1850830'
_chemical_formula_sum 'C28 H30 N2 O6'
_chemical_formula_moiety
;
C28 H30 N2 O6
;
_journal_coden_Cambridge 24
_journal_volume 57
_journal_year 2016
_journal_page_first 423
_journal_name_full 'Tetrahedron Lett. '
loop_
_publ_author_name
"S.A.Steiger"
"Chun Li"
"C.F.Campana"
"N.R.Natale"
_chemical_name_systematic
;
diethyl 
4-[3-(2-methoxynaphthalen-1-yl)-5-methyl-1,2-oxazol-4-yl]-2,6-dimethyl-1,4-dih
ydropyridine-3,5-dicarboxylate
;
_cell_volume   4897.509
_exptl_crystal_colour 'pale yellow'
_exptl_crystal_density_diffrn 1.331
_exptl_crystal_description 'Prism'
_diffrn_ambient_temperature 100
#These two values have been output from a single CSD field.
_refine_ls_R_factor_gt 0.091
_refine_ls_wR_factor_gt 0.091
_symmetry_cell_setting monoclinic
_symmetry_space_group_name_H-M 'C 2/c'
_symmetry_Int_Tables_number 15
loop_
_symmetry_equiv_pos_site_id
_symmetry_equiv_pos_as_xyz
1 x,y,z
2 -x,y,1/2-z
3 1/2+x,1/2+y,z
4 1/2-x,1/2+y,1/2-z
5 -x,-y,-z
6 x,-y,-1/2+z
7 -1/2-x,-1/2-y,-z
8 -1/2+x,-1/2-y,-1/2+z
_cell_length_a 19.5698(9)
_cell_length_b 15.3341(7)
_cell_length_c 17.2324(7)
_cell_angle_alpha 90
_cell_angle_beta 108.724(3)
_cell_angle_gamma 90
_cell_formula_units_Z 8
loop_
_atom_type_symbol
_atom_type_radius_bond
C 0.68
H 0.23
N 0.68
O 0.68
loop_
_atom_site_label
_atom_site_type_symbol
_atom_site_fract_x
_atom_site_fract_y
_atom_site_fract_z
C1 C 0.2954(3) 0.1503(4) 0.1965(3)
C2 C 0.3697(3) 0.1356(4) 0.2216(4)
H1 H 0.39160 0.09630 0.26500
C3 C 0.4110(3) 0.1797(5) 0.1818(4)
H2 H 0.46090 0.16620 0.19550
C4 C 0.3811(3) 0.2439(4) 0.1214(4)
H3 H 0.41090 0.27600 0.09760
C5 C 0.3089(3) 0.2585(4) 0.0982(3)
H4 H 0.28910 0.30180 0.05790
C6 C 0.2622(3) 0.2133(3) 0.1306(3)
C7 C 0.1877(3) 0.2201(4) 0.1039(3)
H5 H 0.16650 0.26120 0.06190
C8 C 0.1436(3) 0.1738(4) 0.1322(3)
H6 H 0.09270 0.17960 0.10970
C9 C 0.1758(3) 0.1148(3) 0.1981(3)
C10 C 0.2499(3) 0.1047(3) 0.2314(3)
O1 O 0.13394(19) 0.0664(2) 0.2320(2)
C11 C 0.0585(3) 0.0649(5) 0.1913(4)
H7 H 0.04910 0.06080 0.13210
H8 H 0.03680 0.11840 0.20390
H9 H 0.03740 0.01420 0.20990
C12 C 0.2782(3) 0.0475(3) 0.3053(3)
N1 N 0.2837(2) -0.0365(3) 0.2965(2)
O2 O 0.30517(18) -0.0714(2) 0.37685(19)
C13 C 0.2945(2) 0.1617(3) 0.4256(3)
H10 H 0.30740 0.15420 0.48630
C14 C 0.3513(3) 0.2222(3) 0.4109(3)
C15 C 0.3312(3) 0.2877(3) 0.3549(3)
N2 N 0.2593(2) 0.3067(3) 0.3197(3)
H11 H 0.254(2) 0.342(3) 0.290(2)
C16 C 0.2052(3) 0.2705(3) 0.3434(3)
C17 C 0.2203(2) 0.2021(3) 0.3963(3)
C18 C 0.4274(3) 0.2093(4) 0.4574(3)
O3 O 0.4782(2) 0.2532(3) 0.4535(2)
O4 O 0.43654(17) 0.1419(2) 0.5114(2)
C19 C 0.5097(3) 0.1325(4) 0.5677(4)
H12 H 0.52250 0.18320 0.60500
H13 H 0.54440 0.12920 0.53670
C20 C 0.5127(3) 0.0508(4) 0.6156(3)
H14 H 0.48110 0.05640 0.64930
H15 H 0.56240 0.04060 0.65100
H16 H 0.49670 0.00150 0.57790
C21 C 0.3800(3) 0.3442(3) 0.3250(3)
H17 H 0.42000 0.36500 0.37180
H18 H 0.35270 0.39430 0.29520
H19 H 0.39910 0.31040 0.28830
C22 C 0.1332(3) 0.3122(3) 0.3069(3)
H20 H 0.10130 0.27250 0.26670
H21 H 0.13860 0.36660 0.27980
H22 H 0.11220 0.32470 0.35030
C23 C 0.2959(2) 0.0727(3) 0.3903(3)
C24 C 0.3109(3) -0.0043(3) 0.4303(3)
C25 C 0.3294(3) -0.0291(4) 0.5176(3)
H23 H 0.33800 0.02360 0.55150
H24 H 0.37310 -0.06510 0.53330
H25 H 0.28950 -0.06230 0.52570
C26 C 0.1623(3) 0.1613(3) 0.4205(3)
O5 O 0.09834(18) 0.1762(2) 0.39425(19)
O6 O 0.18973(17) 0.0985(2) 0.47811(19)
C27 C 0.1372(3) 0.0462(4) 0.4997(3)
H26 H 0.09550 0.08310 0.49940
H27 H 0.15900 0.02270 0.55580
C28 C 0.1118(3) -0.0277(4) 0.4403(4)
H28 H 0.08360 -0.00460 0.38660
H29 H 0.08160 -0.06720 0.46010
H30 H 0.15350 -0.05980 0.43550
#END
