
#######################################################################
#
#                 Cambridge Crystallographic Data Centre
#                                CCDC
#
#######################################################################
#
# If this CIF has been generated from an entry in the Cambridge
# Structural Database, then it will include bibliographic, chemical,
# crystal, experimental, refinement or atomic coordinate data resulting
# from the CCDC's data processing and validation procedures.
#
#######################################################################

data_CSD_CIF_HIHWIE
_audit_creation_date 1996-07-16
_audit_creation_method CSD-ConQuest-V1
_database_code_CSD HIHWIE
_database_code_depnum_ccdc_archive 'CCDC 126803'
_chemical_formula_sum 'C19 H20 N2 O6'
_chemical_formula_moiety
;
C19 H20 N2 O6
;
_journal_coeditor_code "IUCr FG1105"
_journal_coden_Cambridge 591
_journal_volume 52
_journal_year 1996
_journal_page_first 1565
_journal_name_full 'Acta Crystallogr.,Sect.C:Cryst.Struct.Commun. '
loop_
_publ_author_name
"K.R.Rowan"
"E.M.Holt"
_chemical_name_systematic
;
Diethyl 2,6-dimethyl-4-(3-nitrophenyl)-pyridine-3,5-dicarboxylate
;
_cell_volume   1897.810
_exptl_crystal_density_diffrn 1.303
_diffrn_ambient_temperature ?
_diffrn_special_details
;
The study was carried out at room temperature,in the range 283-303K

;
_refine_special_details
;
H(6'A)-H(6'F) are all disordered with occupancies of 0.5.

;
#These two values have been output from a single CSD field.
_refine_ls_R_factor_gt 0.0587
_refine_ls_wR_factor_gt 0.0587
_symmetry_cell_setting monoclinic
_symmetry_space_group_name_H-M 'P 21/c'
_symmetry_Int_Tables_number 14
loop_
_symmetry_equiv_pos_site_id
_symmetry_equiv_pos_as_xyz
1 x,y,z
2 -x,1/2+y,1/2-z
3 -x,-y,-z
4 x,-1/2-y,-1/2+z
_cell_length_a 12.018(1)
_cell_length_b 19.517(2)
_cell_length_c 8.606(1)
_cell_angle_alpha 90
_cell_angle_beta 109.92(1)
_cell_angle_gamma 90
_cell_formula_units_Z 4
loop_
_atom_type_symbol
_atom_type_radius_bond
C 0.68
H 0.23
N 0.68
O 0.68
loop_
_atom_site_label
_atom_site_type_symbol
_atom_site_fract_x
_atom_site_fract_y
_atom_site_fract_z
N1 N 0.8611(6) 0.4858(3) 0.1636(8)
H1? H 0.80390 0.51560 0.16310
C1 C 0.8301(6) 0.4265(5) 0.0794(9)
C2 C 0.6999(5) 0.4178(4) -0.0093(8)
H2 H 0.65770 0.45670 0.01040
H3 H 0.68550 0.41360 -0.12570
H4 H 0.67340 0.37710 0.03000
C3 C 0.9168(6) 0.3799(4) 0.0775(8)
C4 C 0.8852(6) 0.3182(4) -0.0293(9)
C5 C 0.7720(6) 0.2170(4) -0.0896(10)
H5 H 0.74110 0.22810 -0.20510
H6 H 0.84030 0.18840 -0.07110
C6 C 0.6838(7) 0.1807(4) -0.0432(10)
H7 H 0.66240 0.13970 -0.10790
H8 H 0.71500 0.16900 0.07200
H9 H 0.61500 0.20910 -0.06320
O1 O 0.9289(4) 0.3041(2) -0.1301(6)
O2 O 0.8055(4) 0.2795(2) 0.0063(5)
C7 C 1.0358(6) 0.3953(4) 0.1657(8)
C8 C 1.0624(6) 0.4570(4) 0.2519(8)
C9 C 1.1870(6) 0.4758(4) 0.3504(9)
C10 C 1.3485(6) 0.4491(4) 0.5981(10)
H10 H 1.36240 0.49760 0.60780
H11 H 1.35570 0.43140 0.70510
C11 C 1.4337(7) 0.4160(4) 0.5364(11)
H12 H 1.51230 0.42460 0.61160
H13 H 1.41930 0.36760 0.52750
H14 H 1.42600 0.43430 0.42960
O3 O 1.2294(4) 0.4347(3) 0.4785(6)
O4 O 1.2399(4) 0.5232(2) 0.3211(6)
C12 C 0.9733(7) 0.5018(4) 0.2481(9)
C13 C 0.9968(6) 0.5685(3) 0.3428(9)
H15 H 0.92410 0.59300 0.32490
H16 H 1.03340 0.55900 0.45850
H17 H 1.04920 0.59590 0.30560
C14 C 1.1307(5) 0.3458(4) 0.1698(8)
C15 C 1.1272(6) 0.2780(4) 0.2207(8)
H18 H 1.06240 0.26320 0.25370
C16 C 1.2155(8) 0.2323(4) 0.224(1)
H19 H 1.21090 0.18580 0.25770
C17 C 1.3093(7) 0.2527(5) 0.1802(10)
H20 H 1.37140 0.22120 0.18340
C18 C 1.3113(6) 0.3186(5) 0.1319(9)
C19 C 1.2243(6) 0.3654(3) 0.1221(7)
H21 H 1.22810 0.41090 0.08210
N2 N 1.4115(6) 0.3410(4) 0.0798(9)
O5 O 1.4221(6) 0.4009(4) 0.0577(11)
O6 O 1.4805(5) 0.2976(3) 0.0704(8)
H22? H 0.96800 0.60130 0.20580
H23? H 0.93640 0.58110 0.41640
H24? H 1.11370 0.58110 0.42090
#END
