
#######################################################################
#
#                 Cambridge Crystallographic Data Centre
#                                CCDC
#
#######################################################################
#
# If this CIF has been generated from an entry in the Cambridge
# Structural Database, then it will include bibliographic, chemical,
# crystal, experimental, refinement or atomic coordinate data resulting
# from the CCDC's data processing and validation procedures.
#
#######################################################################

data_CSD_CIF_HIHWEA
_audit_creation_date 1996-07-16
_audit_creation_method CSD-ConQuest-V1
_database_code_CSD HIHWEA
_database_code_depnum_ccdc_archive 'CCDC 126802'
_chemical_formula_sum 'C19 H22 N2 O6'
_chemical_formula_moiety
;
C19 H22 N2 O6
;
_journal_coeditor_code "IUCr FG1105"
_journal_coden_Cambridge 591
_journal_volume 52
_journal_year 1996
_journal_page_first 1565
_journal_name_full 'Acta Crystallogr.,Sect.C:Cryst.Struct.Commun. '
loop_
_publ_author_name
"K.R.Rowan"
"E.M.Holt"
_chemical_name_systematic
;
Diethyl 2,6-dimethyl-4-(3-nitrophenyl)-1,4-dihydro-pyridine-3,5-dicarboxylate
;
_cell_volume   1900.287
_exptl_crystal_colour 'yellow'
_exptl_crystal_density_diffrn 1.308
_diffrn_ambient_temperature ?
_diffrn_special_details
;
The study was carried out at room temperature,in the range 283-303K

;
#These two values have been output from a single CSD field.
_refine_ls_R_factor_gt 0.0482
_refine_ls_wR_factor_gt 0.0482
_symmetry_cell_setting orthorhombic
_symmetry_space_group_name_H-M 'P n a 21'
_symmetry_Int_Tables_number 33
loop_
_symmetry_equiv_pos_site_id
_symmetry_equiv_pos_as_xyz
1 x,y,z
2 -x,-y,1/2+z
3 1/2-x,1/2+y,1/2+z
4 1/2+x,1/2-y,z
_cell_length_a 14.328(4)
_cell_length_b 15.292(3)
_cell_length_c 8.673(2)
_cell_angle_alpha 90
_cell_angle_beta 90
_cell_angle_gamma 90
_cell_formula_units_Z 4
loop_
_atom_type_symbol
_atom_type_radius_bond
C 0.68
H 0.23
N 0.68
O 0.68
loop_
_atom_site_label
_atom_site_type_symbol
_atom_site_fract_x
_atom_site_fract_y
_atom_site_fract_z
N1 N 0.2054(3) 0.2890(3) 0.635(1)
H1 H 0.27070 0.27210 0.66350
C1 C 0.1452(4) 0.2315(3) 0.705(1)
C2 C 0.1939(4) 0.1541(4) 0.776(1)
H2 H 0.14830 0.11690 0.82430
H3 H 0.22590 0.12220 0.69710
H4 H 0.23800 0.17340 0.85240
C3 C 0.0533(4) 0.2483(4) 0.704(1)
C4 C -0.0203(4) 0.1948(3) 0.773(1)
C5 C -0.0609(4) 0.0644(4) 0.907(1)
C6 C -0.0092(5) -0.0056(5) 0.991(1)
H5 H -0.09690 0.03970 0.82460
H6 H -0.10200 0.09520 0.97570
H7 H -0.05230 -0.04700 1.03490
H8 H 0.03190 -0.03510 0.92140
H9 H 0.02670 0.02050 1.07300
O1 O -0.1022(3) 0.2123(3) 0.765(6)
O2 O 0.0094(3) 0.1224(2) 0.847(2)
C7 C 0.0131(3) 0.3279(3) 0.61820
H10 H -0.03270 0.35480 0.68360
C8 C 0.0899(4) 0.3945(3) 0.582(1)
C9 C 0.0615(4) 0.4840(4) 0.543(1)
C10 C -0.0678(6) 0.5800(4) 0.527(1)
C11 C -0.1642(6) 0.5832(5) 0.556(1)
H11 H -0.05310 0.59700 0.42370
H12 H -0.04020 0.62160 0.59660
H13 H -0.18920 0.64030 0.53650
H14 H -0.19140 0.54180 0.48660
H15 H -0.17840 0.56650 0.66070
O3 O 0.1102(3) 0.5418(3) 0.497(1)
O4 O -0.0301(3) 0.4963(2) 0.5635(9)
C12 C 0.1802(4) 0.3717(4) 0.586(1)
C13 C 0.2612(4) 0.4276(4) 0.535(1)
H16 H 0.23910 0.48390 0.50350
H17 H 0.30340 0.43460 0.62090
H18 H 0.29300 0.39970 0.45180
C14 C -0.0344(3) 0.3006(3) 0.468(1)
C15 C 0.0098(4) 0.2474(4) 0.362(1)
H19 H 0.07070 0.22530 0.38710
C16 C -0.0327(4) 0.2266(4) 0.225(1)
H20 H 0.00020 0.19010 0.15340
C17 C -0.1207(4) 0.2572(4) 0.188(1)
H21 H -0.15060 0.24320 0.09230
C18 C -0.1637(4) 0.3099(4) 0.293(1)
C19 C -0.1224(4) 0.3324(3) 0.433(1)
H22 H -0.15460 0.37020 0.50390
N2 N -0.2567(4) 0.3435(4) 0.261(1)
O5 O -0.2986(3) 0.3143(4) 0.148(1)
O6 O -0.2914(4) 0.3974(3) 0.348(1)
#END
