
#######################################################################
#
#                 Cambridge Crystallographic Data Centre
#                                CCDC
#
#######################################################################
#
# If this CIF has been generated from an entry in the Cambridge
# Structural Database, then it will include bibliographic, chemical,
# crystal, experimental, refinement or atomic coordinate data resulting
# from the CCDC's data processing and validation procedures.
#
#######################################################################

data_CSD_CIF_HIHWEA01
_audit_creation_date 2009-09-27
_audit_creation_method CSD-ConQuest-V1
_database_code_CSD HIHWEA01
_database_code_depnum_ccdc_archive 'CCDC 699221'
_chemical_formula_sum 'C19 H22 N2 O6'
_chemical_formula_moiety
;
C19 H22 N2 O6
;
_journal_coeditor_code "IUCr EB5001"
_journal_coden_Cambridge 622
_journal_volume 65
_journal_year 2009
_journal_page_first 375
_journal_name_full 'Acta Crystallogr.,Sect.B:Struct.Sci. '
loop_
_publ_author_name
"R.S.Rathore"
"B.P.Reddy"
"V.Vijayakumar"
"R.V.Ragavan"
"T.Narasimhamurthy"
_chemical_name_systematic
;
Diethyl-2,6-dimethyl-1,4 dihydro-4-(3-nitrophenyl)-3,5-pyridine dicarboxylate
;
_chemical_melting_point 438
_cell_volume   1903.034
_exptl_crystal_colour 'yellow'
_exptl_crystal_density_diffrn 1.307
_exptl_crystal_description 'plate'
_exptl_crystal_preparation 'acetone/ether'
_diffrn_ambient_temperature 294
#These two values have been output from a single CSD field.
_refine_ls_R_factor_gt 0.0454
_refine_ls_wR_factor_gt 0.0454
_symmetry_cell_setting orthorhombic
_symmetry_space_group_name_H-M 'P n a 21'
_symmetry_Int_Tables_number 33
loop_
_symmetry_equiv_pos_site_id
_symmetry_equiv_pos_as_xyz
1 x,y,z
2 -x,-y,1/2+z
3 1/2-x,1/2+y,1/2+z
4 1/2+x,1/2-y,z
_cell_length_a 14.3479(10)
_cell_length_b 15.2867(11)
_cell_length_c 8.6765(6)
_cell_angle_alpha 90
_cell_angle_beta 90
_cell_angle_gamma 90
_cell_formula_units_Z 4
loop_
_atom_type_symbol
_atom_type_radius_bond
C 0.68
H 0.23
N 0.68
O 0.68
loop_
_atom_site_label
_atom_site_type_symbol
_atom_site_fract_x
_atom_site_fract_y
_atom_site_fract_z
O1 O 0.1099(2) 0.5416(2) 0.7079(7)
O2 O -0.02997(18) 0.49610(16) 0.6423(4)
O3 O -0.10235(16) 0.21219(16) 0.4399(3)
O4 O 0.00957(15) 0.12283(14) 0.3577(3)
O5 O -0.2906(2) 0.3970(2) 0.8589(5)
O6 O -0.2984(2) 0.3136(2) 1.0551(4)
N1 N 0.20504(18) 0.28925(19) 0.5691(4)
H1 H 0.26180 0.27290 0.58270
N2 N -0.2570(2) 0.3430(2) 0.9443(4)
C1 C 0.1800(2) 0.3717(2) 0.6197(5)
C2 C 0.0900(2) 0.3948(2) 0.6227(4)
C3 C 0.0136(2) 0.3278(2) 0.5863(4)
H2 H -0.03250 0.35600 0.51950
C4 C 0.0520(2) 0.2491(2) 0.5018(4)
C5 C 0.1449(2) 0.2316(2) 0.4985(4)
C6 C 0.2624(3) 0.4263(3) 0.6678(6)
H3 H 0.28080 0.46340 0.58390
H4 H 0.31330 0.38860 0.69530
H5 H 0.24570 0.46170 0.75500
C7 C 0.1945(2) 0.1544(3) 0.4298(5)
H6 H 0.18280 0.10350 0.49160
H7 H 0.26020 0.16580 0.42700
H8 H 0.17210 0.14460 0.32700
C8 C 0.0615(3) 0.4837(3) 0.6633(5)
C9 C -0.0672(3) 0.5807(3) 0.6774(8)
H9 H -0.03670 0.62470 0.61450
H10 H -0.05570 0.59450 0.78480
C10 C -0.1675(4) 0.5815(4) 0.6473(11)
H11 H -0.17840 0.57170 0.53950
H12 H -0.19280 0.63720 0.67660
H13 H -0.19700 0.53610 0.70610
C11 C -0.0201(2) 0.1946(2) 0.4317(4)
C12 C -0.0602(2) 0.0643(2) 0.2961(5)
H14 H -0.10100 0.09520 0.22560
H15 H -0.09770 0.03990 0.37870
C13 C -0.0092(3) -0.0062(4) 0.2140(7)
H16 H 0.02670 0.01880 0.13180
H17 H -0.05310 -0.04740 0.17250
H18 H 0.03160 -0.03560 0.28480
C14 C -0.0351(2) 0.3015(2) 0.7361(4)
C15 C -0.1226(2) 0.3322(2) 0.7727(4)
H19 H -0.15420 0.36850 0.70440
C16 C -0.1629(2) 0.3092(2) 0.9099(4)
C17 C -0.1201(3) 0.2569(2) 1.0170(5)
H20 H -0.14900 0.24270 1.10970
C18 C -0.0322(3) 0.2262(3) 0.9813(5)
H21 H -0.00040 0.19100 1.05110
C19 C 0.0087(2) 0.2476(2) 0.8422(5)
H22 H 0.06730 0.22520 0.81900
#END
