
#######################################################################
#
#                 Cambridge Crystallographic Data Centre
#                                CCDC
#
#######################################################################
#
# If this CIF has been generated from an entry in the Cambridge
# Structural Database, then it will include bibliographic, chemical,
# crystal, experimental, refinement or atomic coordinate data resulting
# from the CCDC's data processing and validation procedures.
#
#######################################################################

data_CSD_CIF_HIHZUT
_audit_creation_date 1996-07-31
_audit_creation_method CSD-ConQuest-V1
_database_code_CSD HIHZUT
_database_code_depnum_ccdc_archive 'CCDC 131573'
_chemical_formula_sum 'C8 H4 N4 O6'
_chemical_formula_moiety
;
C8 H4 N4 O6
;
_journal_coeditor_code "IUCr CR0473"
_journal_coden_Cambridge 622
_journal_volume 52
_journal_year 1996
_journal_page_first 487
_journal_name_full 'Acta Crystallogr.,Sect.B:Struct.Sci. '
loop_
_publ_author_name
"M.Kubicki"
"T.W.Kindopp"
"M.V.Cappareli"
"P.W.Codding"
_chemical_name_systematic
;
6,7-Dinitro-1,4-dihydro-2,3-quinoxalinedione
;
_cell_volume    902.739
_exptl_crystal_colour 'yellow'
_exptl_crystal_density_diffrn 1.855
_exptl_special_details
;
agent exhibiting antagonist activity in the neurotransmission system

;
_diffrn_ambient_temperature ?
_diffrn_special_details
;
The study was carried out at room temperature,in the range 283-303K

;
#These two values have been output from a single CSD field.
_refine_ls_R_factor_gt 0.0314
_refine_ls_wR_factor_gt 0.0314
_symmetry_cell_setting monoclinic
_symmetry_space_group_name_H-M 'P 21/c'
_symmetry_Int_Tables_number 14
loop_
_symmetry_equiv_pos_site_id
_symmetry_equiv_pos_as_xyz
1 x,y,z
2 -x,1/2+y,1/2-z
3 -x,-y,-z
4 x,-1/2-y,-1/2+z
_cell_length_a 8.4668(3)
_cell_length_b 8.5533(4)
_cell_length_c 12.4657(6)
_cell_angle_alpha 90
_cell_angle_beta 90.341(3)
_cell_angle_gamma 90
_cell_formula_units_Z 4
loop_
_atom_type_symbol
_atom_type_radius_bond
C 0.68
H 0.23
N 0.68
O 0.68
loop_
_atom_site_label
_atom_site_type_symbol
_atom_site_fract_x
_atom_site_fract_y
_atom_site_fract_z
N1 N 0.7743(1) 0.2607(1) 0.4651(1)
C1 C 0.7091(2) 0.3201(1) 0.3737(1)
O1 O 0.7255(1) 0.4546(1) 0.3455(1)
C2 C 0.6107(2) 0.2074(1) 0.3065(1)
O2 O 0.5446(1) 0.2549(1) 0.2263(1)
N2 N 0.6002(1) 0.0574(1) 0.3413(1)
C3 C 0.6775(1) 0.0011(1) 0.4322(1)
C4 C 0.6693(1) -0.1566(1) 0.4598(1)
C5 C 0.7498(1) -0.2070(1) 0.5495(1)
N3 N 0.7518(1) -0.3761(1) 0.5687(1)
O3 O 0.8808(1) -0.4401(1) 0.5685(1)
O4 O 0.6260(1) -0.4421(1) 0.5791(1)
C6 C 0.8372(1) -0.1047(1) 0.6128(1)
N4 N 0.9187(1) -0.1605(1) 0.7093(1)
O5 O 1.0455(1) -0.1011(1) 0.7321(1)
O6 O 0.8554(1) -0.2644(1) 0.7608(1)
C7 C 0.8458(2) 0.0518(1) 0.5865(1)
C8 C 0.7656(1) 0.1047(1) 0.4956(1)
H1 H 0.8286(21) 0.3282(20) 0.5045(14)
H2 H 0.5450(21) -0.0058(22) 0.3036(4)
H3 H 0.6124(20) -0.2279(18) 0.4153(13)
H4 H 0.9042(19) 0.1220(18) 0.6282(12)
#END
