
#######################################################################
#
#                 Cambridge Crystallographic Data Centre
#                                CCDC
#
#######################################################################
#
# If this CIF has been generated from an entry in the Cambridge
# Structural Database, then it will include bibliographic, chemical,
# crystal, experimental, refinement or atomic coordinate data resulting
# from the CCDC's data processing and validation procedures.
#
#######################################################################

data_CSD_CIF_HIJZOQ
_audit_creation_date 2007-11-16
_audit_creation_method CSD-ConQuest-V1
_database_code_CSD HIJZOQ
_database_code_depnum_ccdc_archive 'CCDC 602368'
_chemical_formula_sum 'C17 H19 N1 O5'
_chemical_formula_moiety
;
C17 H19 N1 O5
;
_journal_coden_Cambridge 1336
_journal_volume 9
_journal_year 2007
_journal_page_first 3069
_journal_name_full 'Org.Lett. '
loop_
_publ_author_name
"C.E.Henry"
"Ohyun Kwon"
_chemical_name_systematic
;
2-Ethoxy-1,6-dimethyl-1,2,6,12c-tetrahydro-7H-chromeno[4,3-d]isoxazolo[2,3-b][
1,2]oxazin-7-one
;
_cell_volume   1518.618
_exptl_crystal_colour 'colorless'
_exptl_crystal_density_diffrn 1.388
_exptl_crystal_description 'block'
_diffrn_ambient_temperature 100
#These two values have been output from a single CSD field.
_refine_ls_R_factor_gt 0.0387
_refine_ls_wR_factor_gt 0.0387
_symmetry_cell_setting monoclinic
_symmetry_space_group_name_H-M 'P 21/c'
_symmetry_Int_Tables_number 14
loop_
_symmetry_equiv_pos_site_id
_symmetry_equiv_pos_as_xyz
1 x,y,z
2 -x,1/2+y,1/2-z
3 -x,-y,-z
4 x,-1/2-y,-1/2+z
_cell_length_a 8.2199(6)
_cell_length_b 24.5947(17)
_cell_length_c 8.0807(6)
_cell_angle_alpha 90
_cell_angle_beta 111.629(1)
_cell_angle_gamma 90
_cell_formula_units_Z 4
loop_
_atom_type_symbol
_atom_type_radius_bond
C 0.68
H 0.23
N 0.68
O 0.68
loop_
_atom_site_label
_atom_site_type_symbol
_atom_site_fract_x
_atom_site_fract_y
_atom_site_fract_z
O1 O 0.48505(12) 0.69734(4) -0.06334(12)
O2 O 0.77374(11) 0.67896(3) 0.05418(12)
O3 O 0.99340(11) 0.50070(4) 0.24854(12)
O4 O 1.15457(12) 0.55516(4) 0.15406(13)
O5 O 0.29683(11) 0.71820(3) 0.07909(12)
N1 N 0.60163(13) 0.65522(4) -0.05454(14)
C1 C 0.46741(15) 0.70278(5) 0.11010(16)
H1 H 0.55170 0.73040 0.18540
C2 C 0.50690(15) 0.64643(5) 0.19683(16)
H2 H 0.39550 0.63030 0.19770
C3 C 0.56505(15) 0.61429(5) 0.06284(15)
H3 H 0.46210 0.59250 -0.01340
C4 C 0.71795(15) 0.57578(5) 0.13397(15)
C5 C 0.87240(15) 0.58757(5) 0.11830(15)
C6 C 0.90398(16) 0.64150(5) 0.04618(16)
H4 H 1.02010 0.65530 0.12840
C7 C 0.91173(18) 0.63746(6) -0.13900(18)
H5 H 0.80640 0.61910 -0.21920
H6 H 1.01560 0.61670 -0.13260
H7 H 0.91820 0.67410 -0.18420
C8 C 1.01617(15) 0.54852(5) 0.17187(16)
C9 C 0.83986(16) 0.48939(5) 0.27419(16)
C10 C 0.83575(17) 0.44122(5) 0.36213(17)
H8 H 0.93440 0.41770 0.40100
C11 C 0.68532(18) 0.42808(5) 0.39205(17)
H9 H 0.68110 0.39560 0.45380
C12 C 0.53978(17) 0.46225(5) 0.33222(17)
H10 H 0.43630 0.45260 0.35160
C13 C 0.54537(16) 0.51004(5) 0.24488(16)
H11 H 0.44560 0.53310 0.20450
C14 C 0.69759(15) 0.52491(5) 0.21531(15)
C15 C 0.63871(17) 0.64906(5) 0.38756(16)
H12 H 0.66040 0.61230 0.43790
H13 H 0.59190 0.67180 0.45910
H14 H 0.74860 0.66470 0.38840
C16 C 0.26206(17) 0.77359(5) 0.01799(17)
H15 H 0.26360 0.77680 -0.10360
H16 H 0.35300 0.79800 0.09790
C17 C 0.08581(19) 0.78927(6) 0.0176(2)
H17 H -0.00280 0.76420 -0.05860
H18 H 0.05780 0.82640 -0.02820
H19 H 0.08710 0.78750 0.13920
#END
