
#######################################################################
#
#                 Cambridge Crystallographic Data Centre
#                                CCDC
#
#######################################################################
#
# If this CIF has been generated from an entry in the Cambridge
# Structural Database, then it will include bibliographic, chemical,
# crystal, experimental, refinement or atomic coordinate data resulting
# from the CCDC's data processing and validation procedures.
#
#######################################################################

data_CSD_CIF_HIKQOH
_audit_creation_date 1999-05-27
_audit_creation_method CSD-ConQuest-V1
_database_code_CSD HIKQOH
_chemical_formula_sum 'C24 H18 N4 O1'
_chemical_formula_moiety
;
C24 H18 N4 O1
;
_journal_coden_Cambridge 388
_journal_volume 34
_journal_year 1998
_journal_page_first 429
_journal_name_full 'Zh.Org.Khim.(Russ.)(Russ.J.Org.Chem.) '
loop_
_publ_author_name
"V.L.Rusinov"
"D.N.Kozhevnikov"
"E.N.Ulomsky"
"O.N.Chupakhin"
"G.G.Aleksandrov"
"H.Neunhoeffer"
_chemical_name_systematic
;
5-(1-Methylindol-3-yl)-3,6-diphenyl-1,2,4-triazine-N^4^-oxide
;
_chemical_melting_point 523.15
_cell_volume   1846.188
_exptl_crystal_density_diffrn 1.371
_exptl_special_details
;
Melts with decomposition.

;
_diffrn_ambient_temperature ?
_diffrn_special_details
;
The study was carried out at room temperature,in the range 283-303K

;
#These two values have been output from a single CSD field.
_refine_ls_R_factor_gt 0.057
_refine_ls_wR_factor_gt 0.057
_symmetry_cell_setting orthorhombic
_symmetry_space_group_name_H-M 'P 21 21 21'
_symmetry_Int_Tables_number 19
loop_
_symmetry_equiv_pos_site_id
_symmetry_equiv_pos_as_xyz
1 x,y,z
2 1/2-x,-y,1/2+z
3 1/2+x,1/2-y,-z
4 -x,1/2+y,1/2-z
_cell_length_a 7.061(3)
_cell_length_b 14.140(5)
_cell_length_c 18.491(5)
_cell_angle_alpha 90
_cell_angle_beta 90
_cell_angle_gamma 90
_cell_formula_units_Z 4
loop_
_atom_type_symbol
_atom_type_radius_bond
C 0.68
N 0.68
O 0.68
loop_
_atom_site_label
_atom_site_type_symbol
_atom_site_fract_x
_atom_site_fract_y
_atom_site_fract_z
O1 O -0.101(2) 0.8135(6) 0.2422(5)
N1 N 0.115(2) 0.5714(7) 0.1786(5)
N2 N -0.037(2) 0.6076(8) 0.1457(5)
N3 N -0.031(3) 0.7342(7) 0.2256(5)
N4 N 0.150(2) 0.8274(6) 0.4336(5)
C1 C -0.106(2) 0.6880(8) 0.1658(6)
C2 C 0.101(2) 0.6928(8) 0.2668(5)
C3 C 0.188(2) 0.6123(8) 0.2372(6)
C4 C 0.125(2) 0.818(1) 0.3619(6)
C5 C 0.133(2) 0.7290(8) 0.3394(6)
C6 C 0.145(2) 0.6744(7) 0.4045(5)
C7 C 0.161(2) 0.7393(8) 0.4624(6)
C8 C 0.169(2) 0.709(1) 0.5353(6)
C9 C 0.171(2) 0.617(1) 0.5466(7)
C10 C 0.156(2) 0.551(1) 0.4910(7)
C11 C 0.150(2) 0.5795(8) 0.4199(6)
C12 C 0.153(2) 0.9114(9) 0.4772(7)
C13 C 0.369(2) 0.5737(9) 0.2645(5)
C14 C 0.508(2) 0.6257(9) 0.2959(6)
C15 C 0.680(2) 0.583(1) 0.3146(6)
C16 C 0.705(3) 0.490(1) 0.3022(8)
C17 C 0.569(3) 0.437(1) 0.2721(8)
C18 C 0.400(3) 0.477(1) 0.2530(6)
C19 C -0.266(2) 0.7263(9) 0.1284(5)
C20 C -0.417(2) 0.6665(9) 0.1135(6)
C21 C -0.576(2) 0.699(1) 0.0767(6)
C22 C -0.584(3) 0.791(1) 0.0549(7)
C23 C -0.437(3) 0.850(1) 0.068(7)
C24 C -0.279(2) 0.8177(8) 0.1055(7)
#END
