
#######################################################################
#
#                 Cambridge Crystallographic Data Centre
#                                CCDC
#
#######################################################################
#
# If this CIF has been generated from an entry in the Cambridge
# Structural Database, then it will include bibliographic, chemical,
# crystal, experimental, refinement or atomic coordinate data resulting
# from the CCDC's data processing and validation procedures.
#
#######################################################################

data_CSD_CIF_HIMSUS
_audit_creation_date 2008-02-11
_audit_creation_method CSD-ConQuest-V1
_database_code_CSD HIMSUS
_database_code_depnum_ccdc_archive 'CCDC 631930'
_chemical_formula_sum 'C14 H13 N1 O7'
_chemical_formula_moiety
;
C14 H13 N1 O7
;
_journal_coden_Cambridge 4
_journal_volume 129
_journal_year 2007
_journal_page_first 10886
_journal_name_full 'J.Am.Chem.Soc. '
loop_
_publ_author_name
"Hexin Xie"
"Liansuo Zu"
"Hao Li"
"Jian Wang"
"Wei Wang"
_chemical_name_systematic
;
(E)-Dimethyl 2-(1-(4-nitrophenyl)-3-oxoprop-1-en-2-yl)malonate
;
_cell_volume    709.025
_exptl_crystal_colour 'colorless'
_exptl_crystal_density_diffrn 1.439
_exptl_crystal_description 'needle'
_diffrn_ambient_temperature 228
#These two values have been output from a single CSD field.
_refine_ls_R_factor_gt 0.0337
_refine_ls_wR_factor_gt 0.0337
_symmetry_cell_setting monoclinic
_symmetry_space_group_name_H-M 'P 21'
_symmetry_Int_Tables_number 4
loop_
_symmetry_equiv_pos_site_id
_symmetry_equiv_pos_as_xyz
1 x,y,z
2 -x,1/2+y,-z
_cell_length_a 8.9216(8)
_cell_length_b 6.9662(6)
_cell_length_c 11.5578(10)
_cell_angle_alpha 90
_cell_angle_beta 99.224(4)
_cell_angle_gamma 90
_cell_formula_units_Z 2
loop_
_atom_type_symbol
_atom_type_radius_bond
C 0.68
H 0.23
N 0.68
O 0.68
loop_
_atom_site_label
_atom_site_type_symbol
_atom_site_fract_x
_atom_site_fract_y
_atom_site_fract_z
O1 O 0.39345(18) 0.1770(2) 0.43761(13)
O2 O 0.23225(15) 0.3524(3) 0.51048(11)
O3 O 0.77469(12) 0.8450(2) 0.01476(9)
O4 O 0.92680(12) 0.71982(18) 0.16951(9)
O5 O 0.99235(12) 1.1170(2) 0.25678(12)
O6 O 0.78826(11) 1.22448(17) 0.32782(9)
O7 O 0.71057(13) 1.29265(19) 0.06982(11)
N1 N 0.32541(15) 0.3272(2) 0.44425(11)
C1 C 0.35527(15) 0.4882(2) 0.36893(12)
C2 C 0.26726(16) 0.6507(2) 0.36393(14)
H1 H 0.18560 0.65810 0.40600
C3 C 0.30072(15) 0.8030(2) 0.29602(14)
H2 H 0.23930 0.91330 0.28980
C4 C 0.42535(14) 0.7946(2) 0.23621(12)
C5 C 0.50837(15) 0.6243(2) 0.23980(14)
H3 H 0.58880 0.61450 0.19660
C6 C 0.47405(16) 0.4699(2) 0.30591(13)
H4 H 0.53000 0.35520 0.30800
C7 C 0.46008(14) 0.9642(2) 0.17064(12)
H5 H 0.37580 1.03410 0.13350
C8 C 0.59717(14) 1.0333(2) 0.15656(11)
C9 C 0.75011(13) 0.95176(19) 0.20902(11)
H6 H 0.73340 0.86230 0.27230
C10 C 0.81817(14) 0.8360(2) 0.11817(12)
C11 C 1.00074(19) 0.6028(3) 0.09102(16)
H7 H 0.92470 0.53100 0.03900
H8 H 1.07050 0.51420 0.13660
H9 H 1.05640 0.68500 0.04510
C12 C 0.86045(15) 1.1070(2) 0.26420(12)
C13 C 0.8772(2) 1.3801(3) 0.38613(16)
H10 H 0.96020 1.32810 0.44190
H11 H 0.81340 1.45940 0.42710
H12 H 0.91780 1.45730 0.32850
C14 C 0.59706(16) 1.2087(2) 0.08539(13)
H13 H 0.50290 1.25830 0.04990
#END
