
#######################################################################
#
#                 Cambridge Crystallographic Data Centre
#                                CCDC
#
#######################################################################
#
# If this CIF has been generated from an entry in the Cambridge
# Structural Database, then it will include bibliographic, chemical,
# crystal, experimental, refinement or atomic coordinate data resulting
# from the CCDC's data processing and validation procedures.
#
#######################################################################

data_CSD_CIF_HIMWIJ
_audit_creation_date 1999-06-08
_audit_creation_method CSD-ConQuest-V1
_database_code_CSD HIMWIJ
_database_code_depnum_ccdc_fiz 'CSD 406612'
_chemical_formula_sum 'C15 H13 N1 O4'
_chemical_formula_moiety
;
C15 H13 N1 O4
;
_journal_coden_Cambridge 643
_journal_volume 213
_journal_year 1998
_journal_page_first 411
_journal_name_full 'Z.Krist.Cryst.Mater. '
loop_
_publ_author_name
"A.Gleixner"
"J.Hiller"
"T.Debaerdemaeker"
"A.Lentz"
"L.Walz"
_chemical_name_systematic
;
4-Hydroxy-3-methoxy-4'-nitro-trans-stilbene
;
_chemical_melting_point 449
_cell_volume   2576.425
_exptl_crystal_colour 'red'
_exptl_crystal_density_diffrn 1.399
_exptl_special_details
;
polymorph 1
CSD 406612 - number is incorrect

;
_exptl_crystal_preparation 'acetonitrile or nitromethane'
_diffrn_ambient_temperature ?
_diffrn_special_details
;
The study was carried out at room temperature,in the range 283-303K

;
#These two values have been output from a single CSD field.
_refine_ls_R_factor_gt 0.0328
_refine_ls_wR_factor_gt 0.0328
_symmetry_cell_setting orthorhombic
_symmetry_space_group_name_H-M 'P b c a'
_symmetry_Int_Tables_number 61
loop_
_symmetry_equiv_pos_site_id
_symmetry_equiv_pos_as_xyz
1 x,y,z
2 1/2-x,-y,1/2+z
3 1/2+x,1/2-y,-z
4 -x,1/2+y,1/2-z
5 -x,-y,-z
6 -1/2+x,y,-1/2-z
7 -1/2-x,-1/2+y,z
8 x,-1/2-y,-1/2+z
_cell_length_a 7.811(2)
_cell_length_b 13.410(4)
_cell_length_c 24.597(5)
_cell_angle_alpha 90
_cell_angle_beta 90
_cell_angle_gamma 90
_cell_formula_units_Z 8
loop_
_atom_type_symbol
_atom_type_radius_bond
C 0.68
N 0.68
O 0.68
loop_
_atom_site_label
_atom_site_type_symbol
_atom_site_fract_x
_atom_site_fract_y
_atom_site_fract_z
C1 C 0.7052(3) 0.7123(1) 0.4391(2)
C2 C 0.7903(3) 0.6227(1) 0.4299(1)
C3 C 0.7826(2) 0.5482(1) 0.4683(1)
C4 C 0.6887(2) 0.5600(1) 0.5161(1)
C5 C 0.6006(3) 0.6492(1) 0.5237(1)
C6 C 0.6098(3) 0.7243(1) 0.4854(1)
C7 C 0.6852(3) 0.4780(1) 0.5553(1)
C8 C 0.6051(3) 0.4729(1) 0.6029(1)
C9 C 0.6105(2) 0.3888(1) 0.6405(1)
C10 C 0.6890(3) 0.2987(1) 0.6278(1)
C11 C 0.6983(3) 0.2220(1) 0.6644(1)
C12 C 0.6285(2) 0.2347(1) 0.7152(1)
C13 C 0.5465(3) 0.3214(2) 0.7293(1)
C14 C 0.5376(3) 0.3972(1) 0.6919(1)
N1 N 0.6468(2) 0.1547(2) 0.7552(1)
O1 O 0.7106(3) 0.0763(1) 0.7409(1)
O2 O 0.5955(2) 0.1693(1) 0.8016(1)
O3 O 0.7128(2) 0.7880(1) 0.4022(1)
O4 O 0.8768(2) 0.6178(1) 0.3814(2)
C15 C 0.9225(3) 0.5224(2) 0.3614(1)
#END
