
#######################################################################
#
#                 Cambridge Crystallographic Data Centre
#                                CCDC
#
#######################################################################
#
# If this CIF has been generated from an entry in the Cambridge
# Structural Database, then it will include bibliographic, chemical,
# crystal, experimental, refinement or atomic coordinate data resulting
# from the CCDC's data processing and validation procedures.
#
#######################################################################

data_CSD_CIF_HINHAN
_audit_creation_date 1999-06-09
_audit_creation_method CSD-ConQuest-V1
_database_code_CSD HINHAN
_chemical_formula_sum 'C18 H18 N2 O2'
_chemical_formula_moiety
;
C18 H18 N2 O2
;
_journal_coden_Cambridge 35
_journal_volume 63
_journal_year 1998
_journal_page_first 6348
_journal_name_full 'J.Org.Chem. '
loop_
_publ_author_name
"H.Yamada"
"T.Kawate"
"M.Matsumizu"
"A.Nishida"
"K.Yamaguchi"
"M.Nakagawa"
_chemical_name_systematic
;
(S)-2-Hydroxy-1-(4-methoxyphenyl)-1,2,3,4-tetrahydro-\b-carboline
;
_chemical_melting_point 475.15
_cell_volume   1505.350
_exptl_crystal_colour 'colorless'
_exptl_crystal_density_diffrn 1.299
_exptl_special_details
;
Melting point range 475.15-476.15K

;
_exptl_crystal_description 'prisms'
_exptl_crystal_preparation 'ethyl acetate/n-hexane'
_diffrn_ambient_temperature ?
_diffrn_special_details
;
The study was carried out at room temperature,in the range 283-303K

;
#These two values have been output from a single CSD field.
_refine_ls_R_factor_gt 0.048
_refine_ls_wR_factor_gt 0.048
_symmetry_cell_setting orthorhombic
_symmetry_space_group_name_H-M 'P 21 21 21'
_symmetry_Int_Tables_number 19
loop_
_symmetry_equiv_pos_site_id
_symmetry_equiv_pos_as_xyz
1 x,y,z
2 1/2-x,-y,1/2+z
3 1/2+x,1/2-y,-z
4 -x,1/2+y,1/2-z
_cell_length_a 8.174(2)
_cell_length_b 29.537(3)
_cell_length_c 6.235(2)
_cell_angle_alpha 90
_cell_angle_beta 90
_cell_angle_gamma 90
_cell_formula_units_Z 4
loop_
_atom_type_symbol
_atom_type_radius_bond
C 0.68
H 0.23
N 0.68
O 0.68
loop_
_atom_site_label
_atom_site_type_symbol
_atom_site_fract_x
_atom_site_fract_y
_atom_site_fract_z
O1 O -0.7672(4) -0.18566(9) -0.2641(6)
O2 O -1.4245(4) -0.2249(1) -0.7801(6)
N1 N -0.8534(5) -0.1446(1) -0.1958(6)
N2 N -1.0488(4) -0.0481(1) -0.4759(5)
C1 C -0.9109(6) -0.1237(1) -0.3977(7)
C2 C -0.7267(6) -0.1170(1) -0.0931(8)
C3 C -0.8007(6) -0.0741(1) -0.0021(7)
C4 C -0.9060(5) -0.0529(1) -0.1678(7)
C5 C -0.9712(5) -0.0075(1) -0.1865(7)
C6 C -0.9603(5) 0.0309(1) -0.0574(7)
C7 C -1.0406(6) 0.0697(2) -0.1249(8)
C8 C -1.1275(6) 0.0705(1) -0.3158(9)
C9 C -1.1401(6) 0.0331(1) -0.4475(8)
C10 C -1.0595(5) -0.0058(1) -0.3783(7)
C11 C -0.9587(5) -0.0758(1) -0.3447(6)
C12 C -1.0499(6) -0.1508(1) -0.4938(7)
C13 C -1.0343(6) -0.1702(1) -0.6936(7)
C14 C -1.1623(7) -0.1946(1) -0.7850(7)
C15 C -1.3065(6) -0.2002(1) -0.6744(8)
C16 C -1.3252(6) -0.1813(1) -0.4731(7)
C17 C -1.1957(6) -0.1568(1) -0.3849(7)
C18 C -1.5848(7) -0.2225(2) -0.698(1)
H1 H -0.64120 -0.10940 -0.19430
H2 H -0.67400 -0.13460 0.01970
H3 H -0.71310 -0.05280 0.04290
H4 H -0.86110 -0.08050 0.12720
H5 H -1.09400 -0.05700 -0.61400
H6 H -0.89480 0.03030 0.07450
H7 H -1.04000 0.09620 -0.03400
H8 H -1.17620 0.09950 -0.36000
H9 H -1.20630 0.03410 -0.58200
H10 H -0.81910 -0.12280 -0.50470
H11 H -0.92900 -0.16640 -0.77210
H12 H -1.15020 -0.20860 -0.92680
H13 H -1.42760 -0.18550 -0.39280
H14 H -1.20990 -0.14250 -0.24790
H15 H -1.63060 -0.19330 -0.69310
H16 H -1.59000 -0.23450 -0.54830
H17 H -1.66220 -0.24210 -0.77550
H18 H -0.83940 -0.21410 -0.20260
#END
