
#######################################################################
#
#                 Cambridge Crystallographic Data Centre
#                                CCDC
#
#######################################################################
#
# If this CIF has been generated from an entry in the Cambridge
# Structural Database, then it will include bibliographic, chemical,
# crystal, experimental, refinement or atomic coordinate data resulting
# from the CCDC's data processing and validation procedures.
#
#######################################################################

data_CSD_CIF_HIPSUU
_audit_creation_date 1999-06-09
_audit_creation_method CSD-ConQuest-V1
_database_code_CSD HIPSUU
_database_code_depnum_ccdc_archive 'CCDC 112377'
_database_code_depnum_ccdc_fiz 'CSD 409380'
_chemical_formula_sum 'C17 H20 N2 O3'
_chemical_formula_moiety
;
C17 H20 N2 O3
;
_journal_coden_Cambridge 1267
_journal_volume 214
_journal_year 1999
_journal_page_first 113
_journal_name_full 'Z.Kristallogr.-New Cryst.Struct. '
loop_
_publ_author_name
"A.Hergold-Brundic"
"E.Mestrovic"
"A.Nagl"
"A.-D.Mance"
"K.Jakopcic"
_chemical_name_systematic
;
N-p-Tolyl-4,4-dimethyl-5-nitro-3a,4,5,7a-tetrahydro-5,7a-epoxyisoindoline
;
_cell_volume   1507.042
_exptl_crystal_colour 'yellow'
_exptl_crystal_density_diffrn 1.324
_exptl_crystal_description 'prismatic'
_diffrn_ambient_temperature ?
_diffrn_special_details
;
The study was carried out at room temperature,in the range 283-303K

;
#These two values have been output from a single CSD field.
_refine_ls_R_factor_gt 0.0464
_refine_ls_wR_factor_gt 0.0464
_symmetry_cell_setting monoclinic
_symmetry_space_group_name_H-M 'P 21/c'
_symmetry_Int_Tables_number 14
loop_
_symmetry_equiv_pos_site_id
_symmetry_equiv_pos_as_xyz
1 x,y,z
2 -x,1/2+y,1/2-z
3 -x,-y,-z
4 x,-1/2-y,-1/2+z
_cell_length_a 13.465(3)
_cell_length_b 7.859(1)
_cell_length_c 14.819(4)
_cell_angle_alpha 90
_cell_angle_beta 106.05(2)
_cell_angle_gamma 90
_cell_formula_units_Z 4
loop_
_atom_type_symbol
_atom_type_radius_bond
C 0.68
H 0.23
N 0.68
O 0.68
loop_
_atom_site_label
_atom_site_type_symbol
_atom_site_fract_x
_atom_site_fract_y
_atom_site_fract_z
O1 O 0.74564(10) 0.12247(20) 0.55234(10)
O2 O 1.01162(10) 0.12924(30) 0.57514(20)
O3 O 0.91096(20) -0.06583(30) 0.6040(2)
N1 N 0.92734(20) 0.07505(30) 0.57779(20)
N2 N 0.56947(20) 0.33168(30) 0.59807(20)
C1 C 0.5713(2) 0.24834(40) 0.51055(20)
C2 C 0.66716(20) 0.4049(4) 0.64937(20)
C3 C 0.73126(20) 0.4107(3) 0.57881(20)
C4 C 0.84841(20) 0.3605(3) 0.61018(20)
C5 C 0.83893(20) 0.19674(30) 0.54529(20)
C6 C 0.81533(20) 0.24522(40) 0.44298(20)
C7 C 0.71638(20) 0.28814(40) 0.41979(20)
C8 C 0.68192(20) 0.26689(30) 0.50824(20)
C9 C 0.88901(20) 0.30881(40) 0.71281(20)
C10 C 0.9163(2) 0.5000(4) 0.58669(20)
C11 C 0.4858(2) 0.32169(30) 0.63477(20)
C12 C 0.39422(20) 0.23818(30) 0.58644(20)
C13 C 0.31003(20) 0.23341(30) 0.62335(20)
C14 C 0.3119(2) 0.31039(30) 0.70757(20)
C15 C 0.40337(20) 0.39104(30) 0.75653(20)
C16 C 0.48859(20) 0.39704(30) 0.72075(20)
C17 C 0.2189(2) 0.31305(40) 0.74632(20)
H1 H 0.17873(20) 0.1926(4) 0.73524(20)
H2 H 0.86357 0.24794 0.40225
H3 H 0.67283 0.33932 0.35983
H4 H 0.38693 0.18540 0.52011
H5 H 0.24300 0.17536 0.57977
H6 H 0.41145 0.45977 0.82335
H7 H 0.54923 0.46270 0.75815
H8 H 0.52240 0.30283 0.45428
H9 H 0.55272 0.11270 0.51313
H10 H 0.65747 0.50991 0.68398
H11 H 0.69904 0.31634 0.70553
H12 H 0.71986 0.51981 0.54439
H13 H 0.84140 0.21084 0.72560
H14 H 0.87991 0.39227 0.75631
H15 H 0.96461 0.27695 0.72266
H16 H 0.89236 0.55063 0.51929
H17 H 0.91381 0.60684 0.62502
H18 H 0.99097 0.46764 0.60037
H19 H 0.15877 0.38311 0.70765
H20 H 0.23814 0.30793 0.82698
#END
