
#######################################################################
#
#                 Cambridge Crystallographic Data Centre
#                                CCDC
#
#######################################################################
#
# If this CIF has been generated from an entry in the Cambridge
# Structural Database, then it will include bibliographic, chemical,
# crystal, experimental, refinement or atomic coordinate data resulting
# from the CCDC's data processing and validation procedures.
#
#######################################################################

data_CSD_CIF_HIPSII
_audit_creation_date 1999-06-09
_audit_creation_method CSD-ConQuest-V1
_database_code_CSD HIPSII
_database_code_depnum_ccdc_archive 'CCDC 112375'
_database_code_depnum_ccdc_fiz 'CSD 409378'
_chemical_formula_sum 'C16 H18 N2 O3'
_chemical_formula_moiety
;
C16 H18 N2 O3
;
_journal_coden_Cambridge 1267
_journal_volume 214
_journal_year 1999
_journal_page_first 113
_journal_name_full 'Z.Kristallogr.-New Cryst.Struct. '
loop_
_publ_author_name
"A.Hergold-Brundic"
"E.Mestrovic"
"A.Nagl"
"A.-D.Mance"
"K.Jakopcic"
_chemical_name_systematic
;
N-p-Tolyl-4-methyl-5-nitro-3a,4,5,7a-tetrahydro-5,7a-epoxyisoindoline
;
_cell_volume   1397.149
_exptl_crystal_colour 'colorless'
_exptl_crystal_density_diffrn 1.355
_exptl_crystal_description 'prismatic'
_diffrn_ambient_temperature ?
_diffrn_special_details
;
The study was carried out at room temperature,in the range 283-303K

;
#These two values have been output from a single CSD field.
_refine_ls_R_factor_gt 0.0567
_refine_ls_wR_factor_gt 0.0567
_symmetry_cell_setting monoclinic
_symmetry_space_group_name_H-M 'P 21/c'
_symmetry_Int_Tables_number 14
loop_
_symmetry_equiv_pos_site_id
_symmetry_equiv_pos_as_xyz
1 x,y,z
2 -x,1/2+y,1/2-z
3 -x,-y,-z
4 x,-1/2-y,-1/2+z
_cell_length_a 15.669(2)
_cell_length_b 6.418(1)
_cell_length_c 15.093(3)
_cell_angle_alpha 90
_cell_angle_beta 113.00(1)
_cell_angle_gamma 90
_cell_formula_units_Z 4
loop_
_atom_type_symbol
_atom_type_radius_bond
C 0.68
H 0.23
N 0.68
O 0.68
loop_
_atom_site_label
_atom_site_type_symbol
_atom_site_fract_x
_atom_site_fract_y
_atom_site_fract_z
O1 O 0.7277(1) 0.0314(3) 0.3128(1)
O2 O 0.5926(2) 0.1148(4) 0.3662(2)
O3 O 0.4877(2) 0.0874(5) 0.2231(2)
N1 N 0.9096(2) 0.1929(4) 0.3052(2)
N2 N 0.5681(2) 0.0895(4) 0.2805(2)
C1 C 0.8354(2) 0.3444(5) 0.2657(2)
H1 H 0.8577(24) 0.4543(61) 0.2297(26)
H2 H 0.8167(25) 0.4137(60) 0.3158(26)
C2 C 0.7548(2) 0.2171(5) 0.1964(2)
H3 H 0.7585(25) 0.2124(61) 0.1346(27)
C3 C 0.6559(2) 0.2671(5) 0.1894(2)
H4 H 0.6555(25) 0.3954(60) 0.2341(26)
C4 C 0.6396(2) 0.0644(5) 0.2391(2)
C5 C 0.6264(2) -0.1221(5) 0.1736(2)
H5 H 0.5679(24) -0.1805(56) 0.1340(24)
C6 C 0.7112(2) -0.1614(5) 0.1786(2)
H6 H 0.7313(23) -0.2586(57) 0.1411(24)
C7 C 0.7737(2) -0.0009(5) 0.2459(2)
C8 C 0.8765(2) -0.0222(5) 0.2973(3)
H7 H 0.8918(19) -0.0886(47) 0.3613(22)
H8 H 0.9037(19) -0.1140(47) 0.2567(20)
C9 C 0.5844(3) 0.3077(7) 0.0884(3)
H9 H 0.6017(20) 0.4302(50) 0.0596(21)
H10 H 0.5841(20) 0.1936(50) 0.0445(21)
H11 H 0.5244(22) 0.3137(49) 0.0829(21)
C10 C 0.9982(2) 0.2450(5) 0.3669(2)
C11 C 1.0244(2) 0.4510(5) 0.3936(3)
H12 H 0.9812(22) 0.5552(55) 0.3750(23)
C12 C 1.1142(2) 0.4997(6) 0.4543(3)
H13 H 1.1312(22) 0.6403(54) 0.4776(24)
C13 C 1.1822(2) 0.3509(5) 0.4910(2)
C14 C 1.1564(2) 0.1447(6) 0.4649(2)
H14 H 1.2037(22) 0.0420(53) 0.4907(23)
C15 C 1.0666(2) 0.0924(5) 0.4046(3)
H15 H 1.0485(22) -0.0435(56) 0.3812(23)
C16 C 1.2802(2) 0.4062(6) 0.5571(3)
H16 H 1.3110(2) 0.2696(6) 0.5993(3)
H17 H 1.2761(2) 0.5292(6) 0.6041(3)
H18 H 1.3233(14) 0.4567(20) 0.5207(12)
#END
