
#######################################################################
#
#                 Cambridge Crystallographic Data Centre
#                                CCDC
#
#######################################################################
#
# If this CIF has been generated from an entry in the Cambridge
# Structural Database, then it will include bibliographic, chemical,
# crystal, experimental, refinement or atomic coordinate data resulting
# from the CCDC's data processing and validation procedures.
#
#######################################################################

data_CSD_CIF_HIPXEL
_audit_creation_date 2013-11-15
_audit_creation_method CSD-ConQuest-V1
_database_code_CSD HIPXEL
_database_code_depnum_ccdc_archive 'CCDC 952465'
_chemical_formula_sum 'C22 H20 N2 O3'
_chemical_formula_moiety
;
C22 H20 N2 O3
;
_journal_coden_Cambridge 182
_journal_volume 50
_journal_year 2014
_journal_page_first 332
_journal_name_full 'Chem.Commun. '
loop_
_publ_author_name
"S.Mahato"
"S.Haldar"
"C.K.Jana"
_chemical_name_systematic
;
rac-(7aS,12R)-12-(3-Nitrophenyl)-8,9,10,11-tetrahydro-7aH,12H-7-oxa-11a-aza-be
nzo[a]anthracene
;
_cell_volume   1829.618
_exptl_crystal_density_diffrn 1.308
_diffrn_ambient_temperature 296
#These two values have been output from a single CSD field.
_refine_ls_R_factor_gt 0.0456
_refine_ls_wR_factor_gt 0.0456
_symmetry_cell_setting orthorhombic
_symmetry_space_group_name_H-M 'P c a 21'
_symmetry_Int_Tables_number 29
loop_
_symmetry_equiv_pos_site_id
_symmetry_equiv_pos_as_xyz
1 x,y,z
2 -x,-y,1/2+z
3 1/2+x,-y,z
4 1/2-x,y,1/2+z
_cell_length_a 8.8679(18)
_cell_length_b 15.764(3)
_cell_length_c 13.088(3)
_cell_angle_alpha 90
_cell_angle_beta 90
_cell_angle_gamma 90
_cell_formula_units_Z 4
loop_
_atom_type_symbol
_atom_type_radius_bond
C 0.68
H 0.23
N 0.68
O 0.68
loop_
_atom_site_label
_atom_site_type_symbol
_atom_site_fract_x
_atom_site_fract_y
_atom_site_fract_z
O1 O 0.17976(17) 0.27288(11) 0.68205(12)
N1 N 0.11732(18) 0.21884(12) 0.51322(14)
C1 C 0.4634(2) 0.35933(14) 0.50198(18)
C2 C 0.2964(2) 0.31740(15) 0.63977(17)
C3 C 0.3443(2) 0.30691(14) 0.54008(16)
C4 C 0.5329(2) 0.41959(15) 0.5685(2)
C5 C 0.3649(3) 0.37779(16) 0.7051(2)
H1 H 0.33040 0.38430 0.77170
C6 C 0.2687(2) 0.24108(13) 0.47286(17)
H2 H 0.25520 0.26600 0.40490
C7 C 0.4802(3) 0.42591(17) 0.6708(2)
H3 H 0.52630 0.46410 0.71510
C8 C 0.1238(2) 0.20063(16) 0.62071(18)
H4 H 0.19310 0.15290 0.63060
C9 C 0.5149(2) 0.35532(16) 0.3994(2)
H5 H 0.47090 0.31690 0.35450
C10 C 0.6286(3) 0.40721(17) 0.3655(2)
H6 H 0.65990 0.40400 0.29780
C11 C 0.6977(3) 0.46482(18) 0.4318(2)
H7 H 0.77620 0.49880 0.40850
C12 C 0.6504(3) 0.47122(16) 0.5305(2)
H8 H 0.69620 0.51030 0.57370
C13 C 0.3579(2) 0.15912(14) 0.46054(18)
C14 C 0.3827(2) 0.02558(16) 0.3757(2)
C15 C 0.4710(2) 0.13424(16) 0.52699(19)
H9 H 0.50250 0.17110 0.57820
C16 C 0.3154(2) 0.10394(16) 0.38209(18)
H10 H 0.24250 0.12000 0.33480
C17 C 0.5381(3) 0.05485(17) 0.5182(2)
H11 H 0.61430 0.03920 0.56320
C18 C 0.4921(3) -0.00078(19) 0.4431(2)
H12 H 0.53400 -0.05470 0.43810
N2 N 0.3374(3) -0.03178(19) 0.2922(2)
O2 O 0.2437(3) -0.00611(14) 0.23028(18)
O3 O 0.3955(3) -0.10157(17) 0.2872(2)
C19 C 0.0000(2) 0.27999(16) 0.4838(2)
H13 H -0.00240 0.28560 0.41010
H14 H 0.02310 0.33510 0.51280
C20 C -0.0265(2) 0.17630(18) 0.6656(2)
H15 H -0.01780 0.17350 0.73940
H16 H -0.05450 0.12040 0.64120
C21 C -0.1490(3) 0.23922(18) 0.6373(2)
H17 H -0.12930 0.29330 0.66990
H18 H -0.24600 0.21870 0.66100
C22 C -0.1525(2) 0.25050(19) 0.5219(2)
H19 H -0.17850 0.19710 0.48960
H20 H -0.22880 0.29190 0.50370
#END
