
#######################################################################
#
#                 Cambridge Crystallographic Data Centre
#                                CCDC
#
#######################################################################
#
# If this CIF has been generated from an entry in the Cambridge
# Structural Database, then it will include bibliographic, chemical,
# crystal, experimental, refinement or atomic coordinate data resulting
# from the CCDC's data processing and validation procedures.
#
#######################################################################

data_CSD_CIF_HIQLAU
_audit_creation_date 1999-06-09
_audit_creation_method CSD-ConQuest-V1
_database_code_CSD HIQLAU
_database_code_depnum_ccdc_archive 'CCDC 131123'
_chemical_formula_sum 'C20 H19 N1 O3'
_chemical_formula_moiety
;
C20 H19 N1 O3
;
_journal_coeditor_code "IUCr BK1435"
_journal_coden_Cambridge 591
_journal_volume 55
_journal_year 1999
_journal_page_first 585
_journal_name_full 'Acta Crystallogr.,Sect.C:Cryst.Struct.Commun. '
loop_
_publ_author_name
"K.Chinnakali"
"Hoong-Kun Fun"
"D.Mal"
"N.K.Hazra"
"S.K.Ghorai"
"G.D.Nigam"
_chemical_name_systematic
;
5,10-Dimethoxy-1,4-methano-1,4,4a,11a-tetrahydrobenzo(b)fluoren-11-one oxime
;
_cell_volume    805.517
_exptl_crystal_colour 'colorless'
_exptl_crystal_density_diffrn 1.325
_exptl_crystal_description 'block'
_exptl_crystal_preparation 'methanol'
_diffrn_ambient_temperature ?
_diffrn_special_details
;
The study was carried out at room temperature,in the range 283-303K

;
#These two values have been output from a single CSD field.
_refine_ls_R_factor_gt 0.0576
_refine_ls_wR_factor_gt 0.0576
_symmetry_cell_setting triclinic
_symmetry_space_group_name_H-M 'P -1'
_symmetry_Int_Tables_number 2
loop_
_symmetry_equiv_pos_site_id
_symmetry_equiv_pos_as_xyz
1 x,y,z
2 -x,-y,-z
_cell_length_a 8.8166(6)
_cell_length_b 9.9326(6)
_cell_length_c 9.9764(6)
_cell_angle_alpha 76.875(2)
_cell_angle_beta 76.582(1)
_cell_angle_gamma 74.331(1)
_cell_formula_units_Z 2
loop_
_atom_type_symbol
_atom_type_radius_bond
C 0.68
H 0.23
N 0.68
O 0.68
loop_
_atom_site_label
_atom_site_type_symbol
_atom_site_fract_x
_atom_site_fract_y
_atom_site_fract_z
O1 O 0.22559(19) 0.62930(18) 1.33959(17)
O2 O 0.33088(18) 0.34486(17) 0.89261(14)
O3 O 0.4778(2) -0.04310(16) 1.17449(17)
N1 N 0.4292(2) 0.09597(18) 1.10147(18)
C1 C 0.2635(2) 0.5585(2) 1.2274(2)
C2 C 0.2471(2) 0.6385(2) 1.0916(2)
C3 C 0.2729(2) 0.5651(2) 0.9780(2)
C4 C 0.3133(2) 0.4144(2) 1.0027(2)
C5 C 0.3352(2) 0.3403(2) 1.13343(19)
C6 C 0.3855(2) 0.1869(2) 1.1836(2)
C7 C 0.3827(2) 0.1595(2) 1.3398(2)
H1 H 0.48940 0.11230 1.36130
C8 C 0.2541(3) 0.0800(2) 1.4325(2)
H2 H 0.28540 -0.02400 1.44600
C9 C 0.1020(3) 0.1480(3) 1.3756(3)
H3 H 0.05320 0.10700 1.32720
C10 C 0.0500(3) 0.2786(3) 1.4076(2)
H4 H -0.04070 0.34540 1.38400
C11 C 0.1647(3) 0.2978(2) 1.4884(2)
H5 H 0.12250 0.37110 1.54720
C12 C 0.3250(2) 0.3095(2) 1.3825(2)
H6 H 0.40290 0.32740 1.42820
C13 C 0.3076(2) 0.4132(2) 1.2477(2)
C14 C 0.2164(3) 0.1453(3) 1.5658(2)
H7 H 0.13030 0.11360 1.63520
H8 H 0.30990 0.13100 1.60740
C15 C 0.2039(3) 0.7892(2) 1.0657(3)
H9 H 0.18470 0.83850 1.13910
C16 C 0.1905(3) 0.8623(3) 0.9333(3)
H10 H 0.16270 0.96110 0.91740
C17 C 0.2181(3) 0.7902(3) 0.8218(3)
H11 H 0.20990 0.84140 0.73230
C18 C 0.2568(3) 0.6461(3) 0.8428(2)
H12 H 0.27310 0.59970 0.76770
C19 C 0.3554(3) 0.6537(3) 1.3830(3)
H13 H 0.31640 0.69980 1.46320
H14 H 0.40970 0.71330 1.30840
H15 H 0.42850 0.56480 1.40710
C20 C 0.1861(3) 0.3092(3) 0.8872(3)
H16 H 0.20600 0.25390 0.81490
H17 H 0.10610 0.39460 0.86740
H18 H 0.14880 0.25500 0.97570
H19 H 0.513(3) -0.089(3) 1.099(3)
#END
