
#######################################################################
#
#                 Cambridge Crystallographic Data Centre
#                                CCDC
#
#######################################################################
#
# If this CIF has been generated from an entry in the Cambridge
# Structural Database, then it will include bibliographic, chemical,
# crystal, experimental, refinement or atomic coordinate data resulting
# from the CCDC's data processing and validation procedures.
#
#######################################################################

data_CSD_CIF_HIQMID
_audit_creation_date 1999-06-09
_audit_creation_method CSD-ConQuest-V1
_database_code_CSD HIQMID
_database_code_depnum_ccdc_archive 'CCDC 131190'
_chemical_formula_sum 'C23 H26 N2 O4'
_chemical_formula_moiety
;
C23 H26 N2 O4
;
_journal_coeditor_code "IUCr NA1388"
_journal_coden_Cambridge 591
_journal_volume 55
_journal_year 1999
_journal_page_first 596
_journal_name_full 'Acta Crystallogr.,Sect.C:Cryst.Struct.Commun. '
loop_
_publ_author_name
"H.N.de Armas"
"N.M.Blaton"
"O.M.Peeters"
"C.J.De Ranter"
"M.S.Navarro"
"Y.V.Reyes"
"E.O.Rodriguez"
"E.Salfran"
_chemical_name_systematic
;
3,3,6,6-Tetramethyl-9-(3-nitrophenyl)-3,4,5,6,10-hexahydroacridine-1,8(2H,7H)-
dione
;
_cell_volume   2157.053
_exptl_crystal_colour 'light yellow'
_exptl_crystal_density_diffrn 1.215
_exptl_special_details
;
May possess activity as a calcium antagonist

;
_exptl_crystal_description 'prism'
_exptl_crystal_preparation 'ethanol'
_diffrn_ambient_temperature ?
_diffrn_special_details
;
The study was carried out at room temperature,in the range 283-303K

;
#These two values have been output from a single CSD field.
_refine_ls_R_factor_gt 0.059
_refine_ls_wR_factor_gt 0.059
_symmetry_cell_setting monoclinic
_symmetry_space_group_name_H-M 'P 21/n'
_symmetry_Int_Tables_number 14
loop_
_symmetry_equiv_pos_site_id
_symmetry_equiv_pos_as_xyz
1 x,y,z
2 1/2-x,1/2+y,1/2-z
3 -x,-y,-z
4 -1/2+x,-1/2-y,-1/2+z
_cell_length_a 11.8787(8)
_cell_length_b 15.483(1)
_cell_length_c 12.3467(8)
_cell_angle_alpha 90
_cell_angle_beta 108.21(1)
_cell_angle_gamma 90
_cell_formula_units_Z 4
loop_
_atom_type_symbol
_atom_type_radius_bond
C 0.68
H 0.23
N 0.68
O 0.68
loop_
_atom_site_label
_atom_site_type_symbol
_atom_site_fract_x
_atom_site_fract_y
_atom_site_fract_z
O1 O 0.72008(17) 0.21764(13) 0.69777(16)
O2 O 0.26773(18) 0.21688(18) 0.8305(3)
O3 O 0.3386(2) 0.12426(19) 0.7408(3)
O4 O 0.74453(19) -0.03031(14) 0.9757(2)
N1 N 1.00889(18) 0.20421(13) 1.05772(18)
N2 N 0.3506(2) 0.17722(19) 0.8158(3)
C1 C 0.8155(2) 0.24368(17) 0.7647(2)
C2 C 0.6799(2) 0.17734(16) 0.9364(2)
C3 C 0.8894(3) 0.3093(2) 0.7289(3)
C4 C 0.5662(2) 0.15811(17) 0.8676(2)
C5 C 0.9615(2) 0.36813(19) 0.8245(3)
C6 C 0.4712(2) 0.19642(18) 0.8918(3)
C7 C 1.0337(2) 0.31084(17) 0.9225(3)
C8 C 0.4836(3) 0.2521(2) 0.9805(3)
C9 C 0.9623(2) 0.23996(15) 0.9512(2)
C10 C 1.0413(2) 0.08701(17) 1.1958(2)
C11 C 0.5969(3) 0.2713(3) 1.0488(3)
C12 C 0.9750(2) 0.01854(17) 1.2422(2)
C13 C 0.6934(3) 0.2341(2) 1.0260(3)
C14 C 0.9112(2) -0.04096(17) 1.1445(2)
C15 C 0.8322(2) 0.00498(17) 1.0410(3)
C16 C 0.8665(2) 0.09158(15) 1.0169(2)
C17 C 0.7887(2) 0.13917(16) 0.9131(2)
C18 C 0.86032(19) 0.20869(15) 0.8784(2)
C19 C 0.9668(2) 0.12733(16) 1.0865(2)
C20 C 0.8784(3) 0.4272(2) 0.8628(3)
C21 C 1.0470(3) 0.4227(3) 0.7816(3)
C22 C 0.8847(3) 0.0609(2) 1.2908(3)
C23 C 1.0646(3) -0.0324(2) 1.3366(3)
H1 H 1.06569 0.23037 1.10768
H2 H 0.55370 0.12034 0.80635
H3 H 0.83763 0.34479 0.66917
H4 H 0.94323 0.27932 0.69678
H5 H 0.41784 0.27628 0.99440
H6 H 1.09898 0.28557 0.90208
H7 H 1.06696 0.34641 0.98955
H8 H 0.60864 0.30902 1.10990
H9 H 1.06908 0.13197 1.25262
H10 H 1.11022 0.06050 1.18339
H11 H 0.76941 0.24783 1.07243
H12 H 0.96976 -0.07398 1.12224
H13 H 0.86352 -0.08149 1.17131
H14 H 0.76162 0.09781 0.85023
H15 H 0.83294 0.46153 0.79953
H16 H 0.92403 0.46431 0.92273
H17 H 0.82580 0.39274 0.89033
H18 H 1.00256 0.45625 0.71703
H19 H 1.10058 0.38528 0.75973
H20 H 1.09116 0.46059 0.84132
H21 H 0.82974 0.09440 1.23235
H22 H 0.92524 0.09784 1.35319
H23 H 0.84257 0.01695 1.31715
H24 H 1.02392 -0.07592 1.36544
H25 H 1.10497 0.00611 1.39726
H26 H 1.12116 -0.05936 1.30640
#END
