
#######################################################################
#
#                 Cambridge Crystallographic Data Centre
#                                CCDC
#
#######################################################################
#
# If this CIF has been generated from an entry in the Cambridge
# Structural Database, then it will include bibliographic, chemical,
# crystal, experimental, refinement or atomic coordinate data resulting
# from the CCDC's data processing and validation procedures.
#
#######################################################################

data_CSD_CIF_HIQWOT
_audit_creation_date 1999-06-09
_audit_creation_method CSD-ConQuest-V1
_database_code_CSD HIQWOT
_database_code_depnum_ccdc_archive 'CCDC 131170'
_chemical_formula_sum 'C28 H25 N1 O2'
_chemical_formula_moiety
;
C28 H25 N1 O2
;
_journal_coeditor_code "IUCr GS1028"
_journal_coden_Cambridge 591
_journal_volume 55
_journal_year 1999
_journal_page_first 677
_journal_name_full 'Acta Crystallogr.,Sect.C:Cryst.Struct.Commun. '
loop_
_publ_author_name
"F.Djapa"
"K.Ciamala"
"J.Vebrel"
"M.M.Kubicki"
"O.Blacque"
_chemical_name_systematic
;
4-(4-Methylbenzoyl)-6-(4-methylbenzylidene)-3-phenyl-2-oxa-3-azabicyclo(3.3.0)
oct-7-ene
;
_cell_volume   2233.566
_exptl_crystal_colour 'colorless'
_exptl_crystal_density_diffrn 1.212
_exptl_crystal_description 'irregular'
_exptl_crystal_preparation 'ethanol'
_diffrn_ambient_temperature ?
_diffrn_special_details
;
The study was carried out at room temperature,in the range 283-303K

;
#These two values have been output from a single CSD field.
_refine_ls_R_factor_gt 0.0502
_refine_ls_wR_factor_gt 0.0502
_symmetry_cell_setting monoclinic
_symmetry_space_group_name_H-M 'P 21/n'
_symmetry_Int_Tables_number 14
loop_
_symmetry_equiv_pos_site_id
_symmetry_equiv_pos_as_xyz
1 x,y,z
2 1/2-x,1/2+y,1/2-z
3 -x,-y,-z
4 -1/2+x,-1/2-y,-1/2+z
_cell_length_a 12.7246(15)
_cell_length_b 9.5273(17)
_cell_length_c 18.451(2)
_cell_angle_alpha 90
_cell_angle_beta 93.098(12)
_cell_angle_gamma 90
_cell_formula_units_Z 4
loop_
_atom_type_symbol
_atom_type_radius_bond
C 0.68
H 0.23
N 0.68
O 0.68
loop_
_atom_site_label
_atom_site_type_symbol
_atom_site_fract_x
_atom_site_fract_y
_atom_site_fract_z
O1 O 0.42961(15) 0.8209(2) 0.15172(11)
O2 O 0.38920(18) 0.5739(3) 0.02488(14)
N1 N 0.49734(19) 0.7089(3) 0.17776(13)
C1 C 0.5277(2) 0.6428(3) 0.10997(16)
H1 H 0.59160 0.58650 0.11840
C2 C 0.5473(2) 0.7646(3) 0.05925(16)
H2 H 0.52860 0.73960 0.00870
C3 C 0.4745(2) 0.8777(4) 0.08617(18)
H3 H 0.41870 0.89940 0.04920
C4 C 0.5441(3) 1.0018(4) 0.09993(18)
H4 H 0.52080 1.08900 0.11510
C5 C 0.6435(3) 0.9722(4) 0.08786(17)
H5 H 0.69800 1.03720 0.09230
C6 C 0.6574(2) 0.8277(4) 0.06710(16)
C7 C 0.7440(2) 0.7536(4) 0.05683(16)
H6 H 0.73190 0.66060 0.04350
C8 C 0.8554(2) 0.7943(4) 0.06301(17)
C9 C 0.9277(3) 0.7159(4) 0.02633(19)
H7 H 0.90470 0.63870 -0.00100
C10 C 1.0336(3) 0.7510(5) 0.0298(2)
H8 H 1.07980 0.69660 0.00440
C11 C 1.0720(3) 0.8617(5) 0.0688(2)
C12 C 1.0009(3) 0.9382(4) 0.1068(2)
H9 H 1.02490 1.01440 0.13460
C13 C 0.8957(3) 0.9048(4) 0.10466(19)
H10 H 0.85060 0.95750 0.13180
C14 C 1.1881(3) 0.8967(5) 0.0714(2)
H11 H 1.20120 0.97730 0.10170
H12 H 1.20890 0.91660 0.02320
H13 H 1.22780 0.81830 0.09080
C15 C 0.4353(2) 0.5502(4) 0.0831(2)
C16 C 0.4023(3) 0.4345(4) 0.13040(19)
C17 C 0.4652(3) 0.3800(4) 0.1877(2)
H14 H 0.53230 0.41640 0.19760
C18 C 0.4292(3) 0.2733(4) 0.2295(2)
H15 H 0.47330 0.23660 0.26670
C19 C 0.3291(4) 0.2188(4) 0.2179(2)
C20 C 0.2674(3) 0.2732(5) 0.1611(3)
H16 H 0.19990 0.23780 0.15190
C21 C 0.3026(3) 0.3782(4) 0.1176(2)
H17 H 0.25930 0.41170 0.07930
C22 C 0.2883(4) 0.1065(4) 0.2662(3)
H18 H 0.21750 0.08280 0.25010
H19 H 0.28920 0.14040 0.31520
H20 H 0.33210 0.02480 0.26400
C23 C 0.5762(3) 0.7575(3) 0.23005(17)
C24 C 0.6725(3) 0.6915(4) 0.23963(18)
H21 H 0.68970 0.61800 0.20930
C25 C 0.7436(3) 0.7355(5) 0.2946(2)
H22 H 0.80910 0.69240 0.29990
C26 C 0.7196(4) 0.8405(5) 0.3412(2)
H23 H 0.76740 0.86780 0.37850
C27 C 0.6237(4) 0.9046(5) 0.3319(2)
H24 H 0.60650 0.97680 0.36310
C28 C 0.5516(3) 0.8640(4) 0.2769(2)
H25 H 0.48660 0.90860 0.27150
#END
