
#######################################################################
#
#                 Cambridge Crystallographic Data Centre
#                                CCDC
#
#######################################################################
#
# If this CIF has been generated from an entry in the Cambridge
# Structural Database, then it will include bibliographic, chemical,
# crystal, experimental, refinement or atomic coordinate data resulting
# from the CCDC's data processing and validation procedures.
#
#######################################################################

data_CSD_CIF_HIRZUE
_audit_creation_date 2008-02-11
_audit_creation_method CSD-ConQuest-V1
_database_code_CSD HIRZUE
_database_code_depnum_ccdc_archive 'CCDC 674662'
_chemical_formula_sum 'C8 H10 N2 O2'
_chemical_formula_moiety
;
C8 H10 N2 O2
;
_journal_coeditor_code "IUCr LW2044"
_journal_coden_Cambridge 1370
_journal_volume 63
_journal_year 2007
_journal_page_first o4763
_journal_name_full 'Acta Crystallogr.,Sect.E:Struct.Rep.Online '
loop_
_publ_author_name
"Hai-lin Li"
"Hai-su Zeng"
"Si-shun Kang"
"Hai-bo Wang"
_chemical_name_systematic
;
4-Methoxybenzamide oxime
;
_chemical_melting_point 390
_cell_volume    809.291
_exptl_crystal_colour 'colorless'
_exptl_crystal_density_diffrn 1.364
_exptl_crystal_description 'block'
_exptl_crystal_preparation 'ethyl acetate'
_diffrn_ambient_temperature 293
#These two values have been output from a single CSD field.
_refine_ls_R_factor_gt 0.0737
_refine_ls_wR_factor_gt 0.0737
_symmetry_cell_setting monoclinic
_symmetry_space_group_name_H-M 'P 21/c'
_symmetry_Int_Tables_number 14
loop_
_symmetry_equiv_pos_site_id
_symmetry_equiv_pos_as_xyz
1 x,y,z
2 -x,1/2+y,1/2-z
3 -x,-y,-z
4 x,-1/2-y,-1/2+z
_cell_length_a 14.924(3)
_cell_length_b 5.082(1)
_cell_length_c 10.784(2)
_cell_angle_alpha 90
_cell_angle_beta 98.32(3)
_cell_angle_gamma 90
_cell_formula_units_Z 4
loop_
_atom_type_symbol
_atom_type_radius_bond
C 0.68
H 0.23
N 0.68
O 0.68
loop_
_atom_site_label
_atom_site_type_symbol
_atom_site_fract_x
_atom_site_fract_y
_atom_site_fract_z
O1 O 0.09171(17) 1.0551(6) 0.6300(2)
N1 N 0.39977(19) 1.0978(6) 1.1139(2)
H1 H 0.44210 1.06890 1.17540
H2 H 0.36950 1.24220 1.11060
C1 C 0.0286(3) 1.2658(10) 0.6303(4)
H3 H -0.01660 1.25300 0.55760
H4 H 0.05990 1.43070 0.62910
H5 H 0.00010 1.25560 0.70450
O2 O 0.49656(15) 0.6850(5) 1.1236(2)
H6 H 0.52300 0.54360 1.12340
N2 N 0.42404(17) 0.6930(6) 1.0210(2)
C2 C 0.1603(2) 1.0373(7) 0.7280(3)
C3 C 0.1666(2) 1.1836(8) 0.8375(3)
H7 H 0.12250 1.30790 0.84760
C4 C 0.2388(2) 1.1439(8) 0.9315(3)
H8 H 0.24290 1.24560 1.00390
C5 C 0.3045(2) 0.9588(6) 0.9215(3)
C6 C 0.2972(2) 0.8165(8) 0.8104(3)
H9 H 0.34190 0.69470 0.79940
C7 C 0.2257(3) 0.8512(8) 0.7167(3)
H10 H 0.22140 0.74820 0.64480
C8 C 0.3808(2) 0.9153(7) 1.0217(3)
#END
