
#######################################################################
#
#                 Cambridge Crystallographic Data Centre
#                                CCDC
#
#######################################################################
#
# If this CIF has been generated from an entry in the Cambridge
# Structural Database, then it will include bibliographic, chemical,
# crystal, experimental, refinement or atomic coordinate data resulting
# from the CCDC's data processing and validation procedures.
#
#######################################################################

data_CSD_CIF_HIVWIU
_audit_creation_date 2014-04-07
_audit_creation_method CSD-ConQuest-V1
_database_code_CSD HIVWIU
_database_code_depnum_ccdc_archive 'CCDC 969881'
_chemical_formula_sum 'C16 H17 N1 O6'
_chemical_formula_moiety
;
C16 H17 N1 O6
;
_journal_coden_Cambridge 1336
_journal_volume 16
_journal_year 2014
_journal_page_first 1660
_journal_name_full 'Org.Lett. '
loop_
_publ_author_name
"A.Boyer"
_chemical_name_systematic
;
(5-allyl-5-methyl-4-oxotetrahydrofuran-2-yl)methyl 4-nitrobenzoate
;
_cell_volume    806.439
_exptl_crystal_colour 'colorless'
_exptl_crystal_density_diffrn 1.315
_exptl_crystal_description 'plate'
_diffrn_ambient_temperature 298
#These two values have been output from a single CSD field.
_refine_ls_R_factor_gt 0.0422
_refine_ls_wR_factor_gt 0.0422
_symmetry_cell_setting triclinic
_symmetry_space_group_name_H-M 'P -1'
_symmetry_Int_Tables_number 2
loop_
_symmetry_equiv_pos_site_id
_symmetry_equiv_pos_as_xyz
1 x,y,z
2 -x,-y,-z
_cell_length_a 7.5175(3)
_cell_length_b 10.5792(4)
_cell_length_c 11.8536(5)
_cell_angle_alpha 115.153(2)
_cell_angle_beta 102.950(2)
_cell_angle_gamma 96.901(2)
_cell_formula_units_Z 2
loop_
_atom_type_symbol
_atom_type_radius_bond
C 0.68
H 0.23
N 0.68
O 0.68
loop_
_atom_site_label
_atom_site_type_symbol
_atom_site_fract_x
_atom_site_fract_y
_atom_site_fract_z
O1 O 0.61345(15) 0.23788(11) 0.19539(11)
O2 O 0.9791(3) 0.54827(15) 0.36246(18)
O3 O 0.78597(16) 0.03817(12) 0.2513(1)
O4 O 0.5422(2) -0.14605(14) 0.18654(12)
O5 O 0.9314(2) 0.18705(16) 0.89075(13)
O6 O 0.7914(2) -0.03206(17) 0.82728(14)
N1 N 0.8434(2) 0.06681(18) 0.80529(15)
C1 C 0.6647(3) 0.39202(17) 0.25509(16)
C2 C 0.8788(3) 0.42841(19) 0.29452(18)
C3 C 0.9397(3) 0.29199(19) 0.23490(19)
H1 H 0.99780 0.26590 0.30100
H2 H 1.02770 0.30050 0.18840
C4 C 0.7569(2) 0.18269(17) 0.14141(15)
H3 H 0.73630 0.18020 0.05580
C5 C 0.7397(3) 0.03181(17) 0.12301(16)
H4 H 0.61240 -0.02560 0.07160
H5 H 0.82520 -0.01230 0.07700
C6 C 0.6719(2) -0.05084(16) 0.27145(15)
C7 C 0.5938(4) 0.4502(2) 0.3733(2)
H6 H 0.45890 0.42040 0.34510
H7 H 0.63290 0.55350 0.41790
H8 H 0.64470 0.41350 0.43170
C8 C 0.5872(3) 0.44435(19) 0.15501(18)
H9 H 0.63420 0.54800 0.19560
H10 H 0.63530 0.40180 0.08140
C9 C 0.3784(3) 0.4084(2) 0.1053(2)
H11 H 0.31620 0.31180 0.06680
C10 C 0.2746(3) 0.4991(2) 0.1105(2)
H12 H 0.33050 0.59690 0.14810
H13 H 0.14430 0.46630 0.07670
C11 C 0.7225(2) -0.01783(15) 0.41164(15)
C12 C 0.8321(2) 0.11591(16) 0.51138(15)
H14 H 0.87970 0.18600 0.49100
C13 C 0.8703(2) 0.14447(17) 0.64037(16)
H15 H 0.94200 0.23390 0.70760
C14 C 0.7999(2) 0.03784(17) 0.66777(15)
C15 C 0.6905(2) -0.09564(17) 0.57064(17)
H16 H 0.64460 -0.16600 0.59140
C16 C 0.6512(2) -0.12189(17) 0.44257(16)
H17 H 0.57600 -0.21050 0.37590
#END
