
#######################################################################
#
#                 Cambridge Crystallographic Data Centre
#                                CCDC
#
#######################################################################
#
# If this CIF has been generated from an entry in the Cambridge
# Structural Database, then it will include bibliographic, chemical,
# crystal, experimental, refinement or atomic coordinate data resulting
# from the CCDC's data processing and validation procedures.
#
#######################################################################

data_CSD_CIF_HIWRIO
_audit_creation_date 1999-06-22
_audit_creation_method CSD-ConQuest-V1
_database_code_CSD HIWRIO
_database_code_depnum_ccdc_archive 'CCDC 116463'
_database_code_depnum_ccdc_journal 1267/71
_chemical_formula_sum 'C17 H25 N1 O7'
_chemical_formula_moiety
;
C17 H25 N1 O7
;
_journal_coden_Cambridge 1267
_journal_volume 214
_journal_year 1999
_journal_page_first 261
_journal_name_full 'Z.Kristallogr.-New Cryst.Struct. '
loop_
_publ_author_name
"K.Peters"
"E.-M.Peters"
"J.Raczko"
"V.Jaeger"
_chemical_name_systematic
;
(1'S)-4,6-Di-O-benzylidene-2,5-dideoxy-2-nitro-L-ribo-hexose diethyl acetal
;
_chemical_melting_point 388
_cell_volume    930.932
_exptl_crystal_colour 'colorless'
_exptl_special_details
;
Melting point range 388-389K

;
_exptl_crystal_description 'plate'
_exptl_crystal_preparation 'toluene/hexane'
_diffrn_ambient_temperature ?
_diffrn_special_details
;
The study was carried out at room temperature,in the range 283-303K

;
#These two values have been output from a single CSD field.
_refine_ls_R_factor_gt 0.0395
_refine_ls_wR_factor_gt 0.0395
_symmetry_cell_setting monoclinic
_symmetry_space_group_name_H-M 'P 21'
_symmetry_Int_Tables_number 4
loop_
_symmetry_equiv_pos_site_id
_symmetry_equiv_pos_as_xyz
1 x,y,z
2 -x,1/2+y,-z
_cell_length_a 12.2955(86)
_cell_length_b 8.8655(31)
_cell_length_c 8.7820(39)
_cell_angle_alpha 90
_cell_angle_beta 103.476(46)
_cell_angle_gamma 90
_cell_formula_units_Z 2
loop_
_atom_type_symbol
_atom_type_radius_bond
C 0.68
H 0.23
N 0.68
O 0.68
loop_
_atom_site_label
_atom_site_type_symbol
_atom_site_fract_x
_atom_site_fract_y
_atom_site_fract_z
C1 C 0.12405(23) 0.68319(41) 0.21200(32)
H1 H 0.13124(23) 0.78581(41) 0.18085(32)
C2 C 0.23110(22) 0.59344(40) 0.21500(27)
H2 H 0.21913(22) 0.4982(4) 0.26049(27)
C3 C 0.33900(23) 0.66069(36) 0.31510(32)
H3 H 0.39966(23) 0.61290(36) 0.28199(32)
O1 O 0.33792(19) 0.81984(31) 0.29204(27)
H4 H 0.4068(28) 0.8435(41) 0.2667(37)
C4 C 0.35513(21) 0.62991(36) 0.48946(30)
H5 H 0.30008(21) 0.68488(36) 0.52852(30)
O2 O 0.34484(14) 0.46871 0.50887(18)
C5 C 0.47049(22) 0.68111(40) 0.58106(32)
H6 H 0.47417(22) 0.78927(40) 0.58050(32)
H7 H 0.52665(22) 0.64043(40) 0.53293(32)
C6 C 0.49096(24) 0.62546(41) 0.74901(33)
H8 H 0.44122(24) 0.67677(41) 0.80119(33)
H9 H 0.56696(24) 0.64646(41) 0.80199(33)
O3 O 0.47126(15) 0.46414(31) 0.75218(20)
C7 C 0.35992(20) 0.43110(36) 0.66896(27)
H10 H 0.30812(20) 0.48937(36) 0.71135(27)
O4 O 0.10228(15) 0.69524(33) 0.36114(23)
C8 C 0.06238(28) 0.56223(52) 0.42182(39)
H11 H -0.00797(28) 0.53259(52) 0.35551(39)
H12 H 0.11557(28) 0.48203(52) 0.42694(39)
C9 C 0.04776(29) 0.59741(70) 0.58265(39)
H13 H 0.02087(29) 0.5094(7) 0.62598(39)
H14 H -0.00526(29) 0.67794(70) 0.57682(39)
H15 H 0.11828(29) 0.62737(70) 0.64826(39)
O5 O 0.03857(16) 0.61233(33) 0.10351(23)
C10 C -0.05909(26) 0.70472(54) 0.05243(46)
H16 H -0.09514(26) 0.71855(54) 0.13734(46)
H17 H -0.03748(26) 0.80106(54) 0.01917(46)
C11 C -0.13623(30) 0.63180(57) -0.07820(43)
H18 H -0.20144(30) 0.69366(57) -0.11239(43)
H19 H -0.15783(30) 0.53546(57) -0.04493(43)
H20 H -0.10017(30) 0.61796(57) -0.16310(43)
C12 C 0.33869(22) 0.26406(36) 0.68550(31)
C13 C 0.38286(29) 0.19211(43) 0.82627(33)
H21 H 0.43038(29) 0.24653(43) 0.91067(33)
C14 C 0.35866(34) 0.04086(43) 0.84541(40)
H22 H 0.38965(34) -0.00878(43) 0.94303(40)
C15 C 0.29034(27) -0.03730(43) 0.72510(36)
H23 H 0.27256(27) -0.14084(43) 0.74023(36)
C16 C 0.24741(27) 0.03080(42) 0.58371(40)
H24 H 0.20144(27) -0.02527(42) 0.49922(40)
C17 C 0.27140(22) 0.18392(39) 0.56372(31)
H25 H 0.24109(22) 0.23280(39) 0.46545(31)
N1 N 0.24813(24) 0.58289(42) 0.05151(28)
O6 O 0.28190(29) 0.46595(44) 0.01063(30)
O7 O 0.22994(29) 0.69393(44) -0.03151(30)
#END
