
#######################################################################
#
#                 Cambridge Crystallographic Data Centre
#                                CCDC
#
#######################################################################
#
# If this CIF has been generated from an entry in the Cambridge
# Structural Database, then it will include bibliographic, chemical,
# crystal, experimental, refinement or atomic coordinate data resulting
# from the CCDC's data processing and validation procedures.
#
#######################################################################

data_CSD_CIF_HIWSUD
_audit_creation_date 2014-04-08
_audit_creation_method CSD-ConQuest-V1
_database_code_CSD HIWSUD
_database_code_depnum_ccdc_archive 'CCDC 958680'
_chemical_formula_sum 'C23 H22 N4 O13'
_chemical_formula_moiety
;
C23 H22 N4 O13
;
_journal_coden_Cambridge 1220
_journal_volume 20
_journal_year 2014
_journal_page_first 3306
_journal_name_full 'Chem.-Eur.J. '
loop_
_publ_author_name
"N.Bartlett"
"L.Gross"
"F.Peron"
"D.J.Asby"
"M.D.Selby"
"A.Tavassoli"
"B.Linclau"
_chemical_name_systematic
;
3-((3,5-Dinitrobenzoyl)oxy)-2-hydroxy-2-propylhex-5-en-1-yl 
3,5-dinitrobenzoate
;
_cell_volume   2407.392
_exptl_crystal_colour 'colorless'
_exptl_crystal_density_diffrn 1.552
_exptl_crystal_description 'Needle'
_diffrn_ambient_temperature 120
_diffrn_radiation_probe x-ray
_diffrn_source synchrotron
#These two values have been output from a single CSD field.
_refine_ls_R_factor_gt 0.0372
_refine_ls_wR_factor_gt 0.0372
_symmetry_cell_setting orthorhombic
_symmetry_space_group_name_H-M 'P 21 21 21'
_symmetry_Int_Tables_number 19
loop_
_symmetry_equiv_pos_site_id
_symmetry_equiv_pos_as_xyz
1 x,y,z
2 1/2-x,-y,1/2+z
3 1/2+x,1/2-y,-z
4 -x,1/2+y,1/2-z
_cell_length_a 5.011(3)
_cell_length_b 20.820(12)
_cell_length_c 23.075(13)
_cell_angle_alpha 90
_cell_angle_beta 90
_cell_angle_gamma 90
_cell_formula_units_Z 4
loop_
_atom_type_symbol
_atom_type_radius_bond
C 0.68
H 0.23
N 0.68
O 0.68
loop_
_atom_site_label
_atom_site_type_symbol
_atom_site_fract_x
_atom_site_fract_y
_atom_site_fract_z
O1 O 0.4413(5) 0.67277(9) 1.05822(8)
O2 O 0.0883(5) 0.70854(9) 1.01540(8)
O3 O -0.0002(4) 0.68341(10) 0.80698(9)
O4 O 0.3394(5) 0.64616(10) 0.75941(8)
O5 O 0.8162(5) 0.69951(9) 0.66147(9)
O6 O 1.1724(5) 0.70844(9) 0.61005(9)
O7 O 1.6795(4) 0.52198(9) 0.56000(8)
O8 O 1.5243(5) 0.42785(9) 0.58105(9)
O9 O 1.0399(4) 0.52382(8) 0.95335(8)
O10 O 0.9161(4) 0.49838(8) 0.86227(7)
O11 O 0.5842(4) 0.49086(8) 0.74889(7)
O12 O 0.9270(4) 0.42039(8) 0.75084(7)
O13 O 1.2054(4) 0.34226(9) 0.84297(7)
H1 H 1.143(9) 0.3004(19) 0.8434(15)
N1 N 0.3008(5) 0.67964(10) 1.01561(9)
N2 N 0.2191(5) 0.65781(10) 0.80455(10)
N3 N 1.0134(5) 0.67695(10) 0.63809(9)
N4 N 1.5164(5) 0.48638(11) 0.58330(9)
C1 C 0.3908(6) 0.65133(11) 0.9604(1)
C2 C 0.2591(6) 0.66873(12) 0.91029(11)
H2 H 0.11560 0.69850 0.91050
C3 C 0.3481(6) 0.64030(12) 0.85967(11)
C4 C 0.5497(6) 0.59520(11) 0.85855(11)
H3 H 0.60150 0.57560 0.82310
C5 C 0.6758(6) 0.57888(11) 0.91005(11)
C6 C 0.5980(6) 0.60823(11) 0.96183(11)
H4 H 0.68650 0.59860 0.99720
C7 C 0.8956(6) 0.53132(11) 0.9122(1)
C8 C 1.1155(6) 0.44848(11) 0.85917(11)
H5 H 1.22160 0.44800 0.89540
H6 H 1.23820 0.45710 0.82640
C9 C 0.9801(6) 0.38331(11) 0.85063(10)
C10 C 0.8000(6) 0.38277(11) 0.7969(1)
H7 H 0.62480 0.40290 0.80700
C11 C 0.7987(6) 0.47250(11) 0.73218(10)
C12 C 0.9590(6) 0.50789(11) 0.68844(10)
C13 C 0.9065(6) 0.57318(11) 0.68202(11)
H8 H 0.76860 0.59330 0.70360
C14 C 1.0593(6) 0.60782(11) 0.64360(11)
C15 C 1.2609(6) 0.58110(12) 0.61062(11)
H9 H 1.36600 0.60620 0.58480
C16 C 1.3009(6) 0.51602(12) 0.61724(10)
C17 C 1.1585(6) 0.47858(12) 0.65567(10)
H10 H 1.19530 0.43400 0.65970
C18 C 0.8121(6) 0.36479(12) 0.90362(10)
H11 H 0.68840 0.40060 0.91220
H12 H 0.70220 0.32700 0.89330
C19 C 0.9663(6) 0.34921(12) 0.95838(11)
H13 H 1.06170 0.38800 0.97200
H14 H 1.10070 0.31560 0.95000
C20 C 0.7786(7) 0.32578(13) 1.00551(11)
H15 H 0.67990 0.28820 0.99150
H16 H 0.65270 0.36010 1.01550
H17 H 0.88210 0.31400 1.03990
C21 C 0.7498(6) 0.31613(12) 0.77122(11)
H18 H 0.92070 0.29820 0.75710
H19 H 0.68130 0.28740 0.80200
C22 C 0.5531(7) 0.31788(12) 0.72208(11)
H20 H 0.37020 0.32370 0.73160
C23 C 0.6144(8) 0.31200(13) 0.66720(12)
H21 H 0.79510 0.30610 0.65600
H22 H 0.47810 0.31360 0.63860
#END
