
#######################################################################
#
#                 Cambridge Crystallographic Data Centre
#                                CCDC
#
#######################################################################
#
# If this CIF has been generated from an entry in the Cambridge
# Structural Database, then it will include bibliographic, chemical,
# crystal, experimental, refinement or atomic coordinate data resulting
# from the CCDC's data processing and validation procedures.
#
#######################################################################

data_CSD_CIF_HIXDOI
_audit_creation_date 2008-05-27
_audit_creation_method CSD-ConQuest-V1
_database_code_CSD HIXDOI
_database_code_depnum_ccdc_archive 'CCDC 678633'
_chemical_formula_sum 'C19 H21 N1 O6'
_chemical_formula_moiety
;
C19 H21 N1 O6
;
_journal_coden_Cambridge 4
_journal_volume 130
_journal_year 2008
_journal_page_first 269
_journal_name_full 'J.Am.Chem.Soc. '
loop_
_publ_author_name
"C.Nieto-Oberhuber"
"P.Perez-Galan"
"E.Herrero-Gomez"
"T.Lauterbach"
"C.Rodriguez"
"S.Lopez"
"C.Bour"
"A.Rosellon"
"D.J.Cardenas"
"A.M.Echavarren"
_chemical_name_systematic
;
Dimethyl 
6-nitro-4,4-dimethyl-3a,4-dihydro-1H-cyclopenta[b]naphthalene-2,2(3H)-dicarbox
ylate
;
_chemical_melting_point 398.15
_cell_volume    860.405
_exptl_crystal_colour 'orange'
_exptl_crystal_density_diffrn 1.387
_exptl_special_details
;
Melting point range 398.15-400.15K
The structure is for compound 10h in the paper, not 10i as stated
;
_exptl_crystal_description 'plate'
_diffrn_ambient_temperature 100
#These two values have been output from a single CSD field.
_refine_ls_R_factor_gt 0.0744
_refine_ls_wR_factor_gt 0.0744
_symmetry_cell_setting triclinic
_symmetry_space_group_name_H-M 'P -1'
_symmetry_Int_Tables_number 2
loop_
_symmetry_equiv_pos_site_id
_symmetry_equiv_pos_as_xyz
1 x,y,z
2 -x,-y,-z
_cell_length_a 6.8152(11)
_cell_length_b 10.669(2)
_cell_length_c 12.389(2)
_cell_angle_alpha 81.193(5)
_cell_angle_beta 75.297(5)
_cell_angle_gamma 85.650(5)
_cell_formula_units_Z 2
loop_
_atom_type_symbol
_atom_type_radius_bond
C 0.68
H 0.23
N 0.68
O 0.68
loop_
_atom_site_label
_atom_site_type_symbol
_atom_site_fract_x
_atom_site_fract_y
_atom_site_fract_z
C1 C 0.3282(4) 0.3411(3) 0.86855(19)
N1 N 0.2447(4) 1.0859(3) 0.51179(19)
O1 O 0.2252(4) 1.0570(2) 0.42249(16)
C2 C 0.2409(5) 0.3912(3) 0.7654(2)
H1 H 0.293(7) 0.345(5) 0.706(3)
H2 H 0.105(6) 0.376(4) 0.789(3)
O2 O 0.2512(4) 1.1954(2) 0.52877(18)
C3 C 0.3001(4) 0.5313(3) 0.7400(2)
H3 H 0.44680 0.53350 0.69900
O3 O 0.6828(3) 0.3754(2) 0.85310(16)
C4 C 0.1813(5) 0.6262(3) 0.6697(2)
O4 O 0.6032(3) 0.2231(2) 0.76595(15)
C5 C 0.2372(4) 0.7598(3) 0.6764(2)
O5 O 0.0906(4) 0.1696(2) 0.92227(17)
O6 O 0.3316(3) 0.1750(2) 1.01611(17)
C6 C 0.2318(4) 0.8596(3) 0.5895(2)
H4 H 0.188(7) 0.851(5) 0.521(3)
C7 C 0.2609(4) 0.9821(3) 0.6032(2)
C8 C 0.2960(5) 1.0134(3) 0.7011(2)
H5 H 0.310(7) 1.092(5) 0.711(3)
C9 C 0.3026(5) 0.9141(3) 0.7874(2)
H6 H 0.323(6) 0.941(4) 0.861(3)
C10 C 0.2724(4) 0.7900(3) 0.7777(2)
C11 C 0.2737(4) 0.6877(3) 0.8727(2)
H7 H 0.268(6) 0.716(4) 0.945(2)
C12 C 0.2826(4) 0.5677(3) 0.85589(19)
C13 C 0.2781(4) 0.4483(3) 0.9408(2)
H8 H 0.382(6) 0.447(4) 0.992(3)
H9 H 0.127(6) 0.435(4) 0.992(3)
C14 C -0.0500(5) 0.6190(3) 0.7172(3)
H10 H -0.100(6) 0.537(4) 0.708(2)
H11 H -0.108(6) 0.670(4) 0.668(3)
H12 H -0.079(6) 0.628(4) 0.797(3)
C15 C 0.2353(6) 0.5947(3) 0.5482(2)
H13 H 0.382(8) 0.618(5) 0.511(3)
H14 H 0.210(6) 0.504(4) 0.547(3)
H15 H 0.120(9) 0.650(6) 0.509(4)
C16 C 0.5582(4) 0.3167(3) 0.83023(19)
C17 C 0.8178(5) 0.1949(3) 0.7236(2)
H16 H 0.884(6) 0.179(4) 0.784(3)
H17 H 0.820(6) 0.121(5) 0.678(3)
H18 H 0.882(6) 0.264(4) 0.673(3)
C18 C 0.2332(4) 0.2182(3) 0.9357(2)
C19 C 0.2495(5) 0.0641(4) 1.0939(3)
H19 H 0.111(10) 0.084(7) 1.127(4)
H20 H 0.284(8) 0.070(5) 1.158(4)
H21 H 0.225(9) 0.011(6) 1.055(4)
#END
