
#######################################################################
#
#                 Cambridge Crystallographic Data Centre
#                                CCDC
#
#######################################################################
#
# If this CIF has been generated from an entry in the Cambridge
# Structural Database, then it will include bibliographic, chemical,
# crystal, experimental, refinement or atomic coordinate data resulting
# from the CCDC's data processing and validation procedures.
#
#######################################################################

data_CSD_CIF_HIZTEQ
_audit_creation_date 2008-10-15
_audit_creation_method CSD-ConQuest-V1
_database_code_CSD HIZTEQ
_database_code_depnum_ccdc_archive 'CCDC 664575'
_chemical_formula_sum 'C2 H3 N5 O2'
_chemical_formula_moiety
;
C2 H3 N5 O2
;
_journal_coden_Cambridge 1290
_journal_year 2008
_journal_page_first 2560
_journal_name_full 'Eur.J.Inorg.Chem. '
loop_
_publ_author_name
"Yangen Huang"
"Haixiang Gao"
"B.Twamley"
"J.M.Shreeve"
_chemical_name_systematic
;
3-(Nitroamido)-1H-1,2,3-triazol-3-ium
;
_chemical_melting_point 378.15
_cell_volume    477.437
_exptl_crystal_colour 'colorless'
_exptl_crystal_density_diffrn 1.796
_exptl_special_details
;
Melts with decomposition.
shock-sensitive

;
_exptl_crystal_description 'block'
_exptl_crystal_preparation 'ethyl acetate/diethyl ether'
_diffrn_ambient_temperature 90
#These two values have been output from a single CSD field.
_refine_ls_R_factor_gt 0.0293
_refine_ls_wR_factor_gt 0.0293
_symmetry_cell_setting monoclinic
_symmetry_space_group_name_H-M 'P 21/n'
_symmetry_Int_Tables_number 14
loop_
_symmetry_equiv_pos_site_id
_symmetry_equiv_pos_as_xyz
1 x,y,z
2 1/2-x,1/2+y,1/2-z
3 -x,-y,-z
4 -1/2+x,-1/2-y,-1/2+z
_cell_length_a 5.6122(3)
_cell_length_b 6.4941(3)
_cell_length_c 13.1089(6)
_cell_angle_alpha 90
_cell_angle_beta 92.137(1)
_cell_angle_gamma 90
_cell_formula_units_Z 4
loop_
_atom_type_symbol
_atom_type_radius_bond
C 0.68
H 0.23
N 0.68
O 0.68
loop_
_atom_site_label
_atom_site_type_symbol
_atom_site_fract_x
_atom_site_fract_y
_atom_site_fract_z
C1 C 0.67337(18) 0.13140(16) 0.36232(8)
H1 H 0.600(2) 0.070(2) 0.3057(11)
C2 C 0.58307(18) 0.22638(16) 0.44546(8)
H2 H 0.426(3) 0.251(2) 0.4635(11)
N1 N 0.77264(15) 0.28615(14) 0.50429(7)
N2 N 0.97761(15) 0.23620(14) 0.46505(6)
N3 N 0.91385(15) 0.14283(13) 0.37836(6)
N4 N 1.10484(15) 0.05126(14) 0.32954(6)
N5 N 1.09030(15) 0.08745(14) 0.23077(6)
O1 O 0.92164(13) 0.17425(12) 0.18389(6)
O2 O 1.27002(13) 0.02005(12) 0.18369(5)
H3 H 0.771(3) 0.353(2) 0.5695(12)
#END
