
#######################################################################
#
#                 Cambridge Crystallographic Data Centre
#                                CCDC
#
#######################################################################
#
# If this CIF has been generated from an entry in the Cambridge
# Structural Database, then it will include bibliographic, chemical,
# crystal, experimental, refinement or atomic coordinate data resulting
# from the CCDC's data processing and validation procedures.
#
#######################################################################

data_CSD_CIF_HMORBP
_audit_creation_date 1979-03-22
_audit_creation_method CSD-ConQuest-V1
_database_code_CSD HMORBP
_database_code_depnum_ccdc_archive 'CCDC 1177120'
_chemical_formula_sum 'C20 H18 N2 O6'
_chemical_formula_moiety
;
C20 H18 N2 O6
;
_journal_coden_Cambridge 207
_journal_year 1978
_journal_page_first 1351
_journal_name_full 'J.Chem.Soc.,Perkin Trans.1 '
loop_
_publ_author_name
"G.V.Boyd"
"R.L.Monteil"
"P.F.Lindley"
"M.M.Mahmoud"
_chemical_name_systematic
;
cis-3,4-Dihydro-4-morpholinocarbonyl-3-p-nitrophenyl-1H-2-benzopyran-1-one
;
_chemical_melting_point 523.15
_cell_volume   1772.814
_exptl_crystal_density_diffrn 1.432
_diffrn_ambient_temperature ?
_diffrn_special_details
;
The study was carried out at room temperature,in the range 283-303K

;
#These two values have been output from a single CSD field.
_refine_ls_R_factor_gt 0.186
_refine_ls_wR_factor_gt 0.186
_symmetry_cell_setting monoclinic
_symmetry_space_group_name_H-M 'P 21/c'
_symmetry_Int_Tables_number 14
loop_
_symmetry_equiv_pos_site_id
_symmetry_equiv_pos_as_xyz
1 x,y,z
2 -x,1/2+y,1/2-z
3 -x,-y,-z
4 x,-1/2-y,-1/2+z
_cell_length_a 11.491(2)
_cell_length_b 10.592(1)
_cell_length_c 14.689(2)
_cell_angle_alpha 90
_cell_angle_beta 97.433(4)
_cell_angle_gamma 90
_cell_formula_units_Z 4
loop_
_atom_type_symbol
_atom_type_radius_bond
C 0.68
N 0.68
O 0.68
loop_
_atom_site_label
_atom_site_type_symbol
_atom_site_fract_x
_atom_site_fract_y
_atom_site_fract_z
C1 C 0.61800 0.57300 0.78800
O1 O 0.69000 0.65500 0.81700
O2 O 0.54100 0.54000 0.85000
C2 C 0.46500 0.43500 0.82400
C3 C 0.41700 0.44200 0.72400
C4 C 0.51900 0.43600 0.66500
C5 C 0.51500 0.37200 0.58000
C6 C 0.62000 0.37300 0.54100
C7 C 0.72000 0.43600 0.58100
C8 C 0.72500 0.49600 0.66400
C9 C 0.61900 0.50000 0.70900
C10 C 0.37200 0.43500 0.88200
C11 C 0.33300 0.54500 0.92700
C12 C 0.24800 0.54300 0.97900
C13 C 0.19800 0.42500 0.99600
C14 C 0.23200 0.31400 0.96000
C15 C 0.31800 0.32100 0.90200
N1 N 0.10800 0.41800 1.05300
O3 O 0.05300 0.31900 1.06300
O4 O 0.08700 0.51500 1.09800
C16 C 0.34100 0.56300 0.69900
O5 O 0.40000 0.66500 0.69400
N2 N 0.22700 0.56300 0.68900
C17 C 0.17100 0.68500 0.67700
C18 C 0.06400 0.68000 0.69500
O6 O -0.01300 0.57800 0.64100
C19 C 0.05000 0.45700 0.67200
C20 C 0.15900 0.45000 0.68600
#END
