
#######################################################################
#
#                 Cambridge Crystallographic Data Centre
#                                CCDC
#
#######################################################################
#
# If this CIF has been generated from an entry in the Cambridge
# Structural Database, then it will include bibliographic, chemical,
# crystal, experimental, refinement or atomic coordinate data resulting
# from the CCDC's data processing and validation procedures.
#
#######################################################################

data_CSD_CIF_HMPYRO10
_audit_creation_date 1972-06-20
_audit_creation_method CSD-ConQuest-V1
_database_code_CSD HMPYRO10
_database_code_depnum_ccdc_archive 'CCDC 1177187'
_chemical_formula_sum 'C6 H7 N1 O2'
_chemical_formula_moiety
;
C6 H7 N1 O2
;
_journal_coden_Cambridge 34
_journal_volume 8
_journal_year 1971
_journal_page_first 617
_journal_name_full 'J.Heterocycl.Chem. '
loop_
_publ_author_name
"R.Desiderato"
"J.C.Terry"
_chemical_name_systematic
;
2-Hydroxymethylpyridine N-oxide
;
_cell_volume    588.174
_diffrn_ambient_temperature ?
_diffrn_special_details
;
The study was carried out at room temperature,in the range 283-303K

;
#These two values have been output from a single CSD field.
_refine_ls_R_factor_gt 0.06
_refine_ls_wR_factor_gt 0.06
_symmetry_cell_setting monoclinic
_symmetry_space_group_name_H-M 'P 21/c'
_symmetry_Int_Tables_number 14
loop_
_symmetry_equiv_pos_site_id
_symmetry_equiv_pos_as_xyz
1 x,y,z
2 -x,1/2+y,1/2-z
3 -x,-y,-z
4 x,-1/2-y,-1/2+z
_cell_length_a 7.079
_cell_length_b 8.046
_cell_length_c 10.599
_cell_angle_alpha 90
_cell_angle_beta 103.02
_cell_angle_gamma 90
_cell_formula_units_Z 4
loop_
_atom_type_symbol
_atom_type_radius_bond
C 0.68
H 0.20
N 0.68
O 0.68
loop_
_atom_site_label
_atom_site_type_symbol
_atom_site_fract_x
_atom_site_fract_y
_atom_site_fract_z
C1 C 0.26170 0.14440 0.50020
C2 C 0.32580 0.05120 0.61130
C3 C 0.31190 -0.11920 0.60790
C4 C 0.23170 -0.19610 0.49200
C5 C 0.16770 -0.10280 0.38270
C6 C 0.26750 0.33100 0.49300
H1 H 0.38000 0.11300 0.69000
H2 H 0.36000 -0.19100 0.68900
H3 H 0.21700 -0.31000 0.48100
H4 H 0.10200 -0.14700 0.30100
H5 H 0.13200 0.36900 0.45600
H6 H 0.34600 0.36400 0.43000
H7 H 0.25800 0.38800 0.66300
N1 N 0.18460 0.06430 0.38770
O1 O 0.12410 0.15330 0.28150
O2 O 0.35040 0.40490 0.61310
#END
