
#######################################################################
#
#                 Cambridge Crystallographic Data Centre
#                                CCDC
#
#######################################################################
#
# If this CIF has been generated from an entry in the Cambridge
# Structural Database, then it will include bibliographic, chemical,
# crystal, experimental, refinement or atomic coordinate data resulting
# from the CCDC's data processing and validation procedures.
#
#######################################################################

data_CSD_CIF_HMTRAO10
_audit_creation_date 1979-10-24
_audit_creation_method CSD-ConQuest-V1
_database_code_CSD HMTRAO10
_database_code_depnum_ccdc_archive 'CCDC 1177241'
_chemical_formula_sum 'C6 H12 N4 O1'
_chemical_formula_moiety
;
C6 H12 N4 O1
;
_journal_coden_Cambridge 188
_journal_year 1979
_journal_page_first 593
_journal_name_full 'J.Chem.Soc.,Perkin Trans.2 '
loop_
_publ_author_name
"T.C.W.Mak"
"M.F.C.Ladd"
"D.C.Povey"
_chemical_name_systematic
;
Hexamethylenetetramine-oxide
;
_cell_volume    526.606
_exptl_crystal_density_diffrn 1.477
_diffrn_ambient_temperature ?
_diffrn_special_details
;
The study was carried out at room temperature,in the range 283-303K

;
#These two values have been output from a single CSD field.
_refine_ls_R_factor_gt 0.053
_refine_ls_wR_factor_gt 0.053
_symmetry_cell_setting rhombohedral
_symmetry_space_group_name_H-M 'R 3 m'
_symmetry_Int_Tables_number 160
loop_
_symmetry_equiv_pos_site_id
_symmetry_equiv_pos_as_xyz
1 x,y,z
2 1/3+x,2/3+y,2/3+z
3 2/3+x,1/3+y,1/3+z
4 -y,x-y,z
5 -x+y,-x,z
6 1/3-y,2/3+x-y,2/3+z
7 1/3-x+y,2/3-x,2/3+z
8 2/3-y,1/3+x-y,1/3+z
9 2/3-x+y,1/3-x,1/3+z
10 -y,-x,z
11 1/3-y,2/3-x,2/3+z
12 2/3-y,1/3-x,1/3+z
13 -x+y,y,z
14 x,x-y,z
15 1/3-x+y,2/3+y,2/3+z
16 1/3+x,2/3+x-y,2/3+z
17 2/3-x+y,1/3+y,1/3+z
18 2/3+x,1/3+x-y,1/3+z
_cell_length_a 9.464(1)
_cell_length_b 9.464(1)
_cell_length_c 6.789(1)
_cell_angle_alpha 90
_cell_angle_beta 90
_cell_angle_gamma 120
_cell_formula_units_Z 3
loop_
_atom_type_symbol
_atom_type_radius_bond
C 0.68
H 0.23
N 0.68
O 0.68
loop_
_atom_site_label
_atom_site_type_symbol
_atom_site_fract_x
_atom_site_fract_y
_atom_site_fract_z
O1 O 0.00000 0.00000 -0.20070
N1 N 0.00000 0.00000 0.00000
N2 N -0.08590 0.08590 0.29430
C1 C -0.08600 0.08600 0.08150
C2 C 0.08360 0.16720 0.36680
H1 H -0.20180 0.02700 0.03430
H2 H 0.14120 0.28240 0.31570
H3 H 0.08200 0.16400 0.51260
C1C C -0.08600 -0.17200 0.08150
C1D C 0.17200 0.08600 0.08150
H1I H -0.02700 0.20180 0.03430
C2C C -0.16720 -0.08360 0.36680
N2D N 0.17180 0.08590 0.29430
N2C N -0.08590 -0.17180 0.29430
H1C H -0.02700 -0.22880 0.03430
H1M H -0.20180 -0.22880 0.03430
H1D H 0.22880 0.20180 0.03430
H1L H 0.22880 0.02700 0.03430
H2C H -0.28240 -0.14120 0.31570
H3C H -0.16400 -0.08200 0.51260
C2D C 0.08360 -0.08360 0.36680
H2D H 0.14120 -0.14120 0.31570
H3D H 0.08200 -0.08200 0.51260
#END
