
#######################################################################
#
#                 Cambridge Crystallographic Data Centre
#                                CCDC
#
#######################################################################
#
# If this CIF has been generated from an entry in the Cambridge
# Structural Database, then it will include bibliographic, chemical,
# crystal, experimental, refinement or atomic coordinate data resulting
# from the CCDC's data processing and validation procedures.
#
#######################################################################

data_CSD_CIF_HNIDPA03
_audit_creation_date 2012-02-14
_audit_creation_method CSD-ConQuest-V1
_database_code_CSD HNIDPA03
_database_code_depnum_ccdc_archive 'CCDC 822227'
_chemical_formula_sum 'C12 H5 N7 O12'
_chemical_formula_moiety
;
C12 H5 N7 O12
;
_journal_coden_Cambridge 1220
_journal_volume 17
_journal_year 2011
_journal_page_first 13593
_journal_name_full 'Chem.-Eur.J. '
loop_
_publ_author_name
"Haifeng Huang"
"Zhiming Zhou"
"Jinhong Song"
"Lixuan Liang"
"Kai Wang"
"Dan Cao"
"Wenwen Sun"
"Xuemin Dong"
"Min Xue"
_chemical_name_systematic
;
Dipicrylamine
;
_chemical_melting_point 505
_cell_volume   1598.344
_exptl_crystal_colour 'colorless'
_exptl_crystal_density_diffrn 1.825
_exptl_crystal_description 'prism'
_diffrn_ambient_temperature 113
#These two values have been output from a single CSD field.
_refine_ls_R_factor_gt 0.0312
_refine_ls_wR_factor_gt 0.0312
_symmetry_cell_setting orthorhombic
_symmetry_space_group_name_H-M 'P 21 21 21'
_symmetry_Int_Tables_number 19
loop_
_symmetry_equiv_pos_site_id
_symmetry_equiv_pos_as_xyz
1 x,y,z
2 1/2+x,1/2-y,-z
3 -x,1/2+y,1/2-z
4 1/2-x,-y,1/2+z
_cell_length_a 7.3398(8)
_cell_length_b 11.6240(14)
_cell_length_c 18.734(2)
_cell_angle_alpha 90
_cell_angle_beta 90
_cell_angle_gamma 90
_cell_formula_units_Z 4
loop_
_atom_type_symbol
_atom_type_radius_bond
C 0.68
H 0.23
N 0.68
O 0.68
loop_
_atom_site_label
_atom_site_type_symbol
_atom_site_fract_x
_atom_site_fract_y
_atom_site_fract_z
O1 O 0.69345(18) 0.41741(14) 0.23775(7)
O2 O 0.5932(2) 0.57574(14) 0.28442(9)
O3 O 0.08110(19) 0.48685(12) 0.44384(7)
O4 O -0.14977(19) 0.39986(15) 0.39575(8)
O5 O -0.0859(2) 0.19099(15) 0.18480(8)
O6 O 0.15991(19) 0.18856(14) 0.12167(8)
O7 O 0.58401(18) 0.18209(12) 0.07723(7)
O8 O 0.8309(2) 0.22310(13) 0.02073(8)
O9 O 1.01883(19) 0.60007(13) -0.02913(8)
O10 O 0.8871(2) 0.74437(13) 0.02173(9)
O11 O 0.3494(2) 0.68771(14) 0.16409(9)
O12 O 0.18992(19) 0.54142(14) 0.12878(8)
N1 N 0.4090(2) 0.34168(14) 0.14538(8)
N2 N 0.5732(2) 0.47795(15) 0.26183(8)
N3 N 0.0094(2) 0.43199(14) 0.39622(8)
N4 N 0.0702(2) 0.22215(15) 0.17291(8)
N5 N 0.6972(2) 0.25096(14) 0.05481(8)
N6 N 0.9037(2) 0.64145(15) 0.01019(8)
N7 N 0.3342(2) 0.59202(15) 0.13719(9)
C1 C 0.3207(2) 0.35855(16) 0.20915(9)
C2 C 0.3856(2) 0.42999(16) 0.2646(1)
C3 C 0.2879(3) 0.45459(17) 0.32536(10)
H1 H 0.33440 0.50570 0.36050
C4 C 0.1205(2) 0.40286(17) 0.33365(9)
C5 C 0.0535(3) 0.32490(17) 0.28493(10)
H2 H -0.05890 0.28660 0.29320
C6 C 0.1529(2) 0.30340(16) 0.22375(10)
C7 C 0.5222(2) 0.41610(16) 0.10950(9)
C8 C 0.6690(2) 0.37478(16) 0.06782(9)
C9 C 0.7940(2) 0.44734(17) 0.03610(9)
H3 H 0.89120 0.41730 0.00830
C10 C 0.7748(2) 0.56420(16) 0.04552(10)
C11 C 0.6292(2) 0.61063(16) 0.08153(9)
H4 H 0.61620 0.69160 0.08620
C12 C 0.5026(2) 0.53700(17) 0.11063(9)
H5 H 0.402(3) 0.268(2) 0.1253(13)
#END
