
#######################################################################
#
#                 Cambridge Crystallographic Data Centre
#                                CCDC
#
#######################################################################
#
# If this CIF has been generated from an entry in the Cambridge
# Structural Database, then it will include bibliographic, chemical,
# crystal, experimental, refinement or atomic coordinate data resulting
# from the CCDC's data processing and validation procedures.
#
#######################################################################

data_CSD_CIF_HOBGUC
_audit_creation_date 2014-04-10
_audit_creation_method CSD-ConQuest-V1
_database_code_CSD HOBGUC
_database_code_depnum_ccdc_archive 'CCDC 996404'
_chemical_formula_sum 'C30 H22 N2 O10'
_chemical_formula_moiety
;
C30 H22 N2 O10
;
_journal_coden_Cambridge 1336
_journal_volume 16
_journal_year 2014
_journal_page_first 1642
_journal_name_full 'Org.Lett. '
loop_
_publ_author_name
"E.B.Castillo-Contreras"
"G.R.Dake"
_chemical_name_systematic
;
4-(benzyloxy)-7-ethynyl-5-methoxy-9-oxo-2,3,4,9-tetrahydro-1H-xanthen-1-yl 
3,5-dinitrobenzoate
;
_cell_volume   2582.055
_exptl_crystal_colour 'yellow'
_exptl_crystal_density_diffrn 1.468
_exptl_crystal_description 'rod'
_diffrn_ambient_temperature 100
#These two values have been output from a single CSD field.
_refine_ls_R_factor_gt 0.0441
_refine_ls_wR_factor_gt 0.0441
_symmetry_cell_setting monoclinic
_symmetry_space_group_name_H-M 'P 21/c'
_symmetry_Int_Tables_number 14
loop_
_symmetry_equiv_pos_site_id
_symmetry_equiv_pos_as_xyz
1 x,y,z
2 -x,1/2+y,1/2-z
3 -x,-y,-z
4 x,-1/2-y,-1/2+z
_cell_length_a 8.395(5)
_cell_length_b 14.767(5)
_cell_length_c 20.845(5)
_cell_angle_alpha 90
_cell_angle_beta 92.298(5)
_cell_angle_gamma 90
_cell_formula_units_Z 4
loop_
_atom_type_symbol
_atom_type_radius_bond
C 0.68
H 0.23
N 0.68
O 0.68
loop_
_atom_site_label
_atom_site_type_symbol
_atom_site_fract_x
_atom_site_fract_y
_atom_site_fract_z
O1 O -0.19015(14) 0.33070(8) 0.09826(6)
O2 O 0.10334(14) 0.26998(8) 0.18051(5)
O3 O -0.04161(15) 0.17762(8) 0.24204(6)
O4 O 0.30626(14) 0.15714(8) -0.01747(5)
O5 O 0.17312(13) 0.33271(8) -0.02618(5)
O6 O -0.17045(16) 0.29801(9) 0.45497(6)
O7 O 0.17024(14) 0.42141(9) -0.13263(5)
O8 O 0.34045(16) 0.54128(9) 0.26369(6)
O9 O 0.29543(16) 0.58678(10) 0.36026(7)
O10 O -0.12187(19) 0.43886(11) 0.47622(7)
C1 C 0.0695(2) 0.21182(11) 0.12449(7)
H1 H -0.03350 0.18170 0.12880
C2 C -0.09109(19) 0.38398(11) -0.00040(7)
C3 C -0.22668(19) 0.43440(11) -0.01890(8)
H2 H -0.31330 0.43690 0.00750
C4 C 0.03550(19) 0.42863(11) -0.09895(7)
N1 N 0.27620(17) 0.53399(11) 0.31513(7)
C5 C 0.32922(19) 0.22510(11) 0.03132(7)
H3 H 0.42040 0.26340 0.02150
N2 N -0.10759(18) 0.37050(11) 0.44359(7)
C6 C 0.06013(19) 0.31661(11) 0.28543(7)
C7 C -0.3720(2) 0.53391(12) -0.09650(7)
C8 C 0.03728(18) 0.38115(11) -0.04030(7)
C9 C 0.17832(19) 0.28006(11) 0.02698(7)
C10 C 0.4890(2) 0.15830(13) -0.10614(8)
C11 C 0.3543(2) 0.18418(12) 0.09784(8)
H4 H 0.38840 0.23100 0.12800
H5 H 0.43740 0.13860 0.09710
C12 C -0.4801(2) 0.57659(13) -0.11097(8)
H6 H -0.56860 0.61150 -0.12280
C13 C 0.05981(19) 0.27537(11) 0.06841(7)
C14 C -0.08361(19) 0.33066(11) 0.05929(8)
C15 C -0.0260(2) 0.30837(12) 0.34101(8)
H7 H -0.09100 0.25840 0.34750
C16 C 0.1785(2) 0.47630(12) -0.18882(8)
H8 H 0.27820 0.46590 -0.20860
H9 H 0.17060 0.53900 -0.17720
H10 H 0.09230 0.46090 -0.21850
C17 C -0.23071(19) 0.48059(11) -0.07683(8)
C18 C -0.0119(2) 0.37677(12) 0.38622(8)
C19 C 0.4498(2) 0.12055(13) -0.04139(8)
H11 H 0.43940 0.05530 -0.04470
H12 H 0.53740 0.13340 -0.01100
C20 C 0.16019(19) 0.39035(12) 0.27689(8)
H13 H 0.21940 0.39520 0.24030
C21 C -0.09924(19) 0.47723(12) -0.11675(7)
H14 H -0.10350 0.50820 -0.15560
C22 C 0.5633(2) 0.10327(13) -0.15001(9)
H15 H 0.58560 0.04320 -0.13960
C23 C 0.0850(2) 0.45152(12) 0.37943(8)
H16 H 0.09270 0.49650 0.41060
C24 C 0.16963(19) 0.45630(12) 0.32409(8)
C25 C 0.03456(19) 0.24583(11) 0.23481(7)
C26 C 0.4565(2) 0.24752(14) -0.12339(9)
H17 H 0.40430 0.28520 -0.09530
C27 C 0.6048(2) 0.13716(15) -0.20942(9)
H18 H 0.65320 0.09930 -0.23850
C28 C 0.5749(2) 0.22597(16) -0.22535(9)
H19 H 0.60390 0.24880 -0.26480
C29 C 0.5012(3) 0.28080(16) -0.18206(10)
H20 H 0.48110 0.34110 -0.19240
C30 C 0.1999(2) 0.14125(12) 0.11955(8)
H21 H 0.16550 0.09490 0.08910
H22 H 0.21900 0.11260 0.16100
#END
