
#######################################################################
#
#                 Cambridge Crystallographic Data Centre
#                                CCDC
#
#######################################################################
#
# If this CIF has been generated from an entry in the Cambridge
# Structural Database, then it will include bibliographic, chemical,
# crystal, experimental, refinement or atomic coordinate data resulting
# from the CCDC's data processing and validation procedures.
#
#######################################################################

data_CSD_CIF_HOBRUN
_audit_creation_date 2014-04-10
_audit_creation_method CSD-ConQuest-V1
_database_code_CSD HOBRUN
_database_code_depnum_ccdc_archive 'CCDC 985950'
_chemical_formula_sum 'C22 H12 N2 O6'
_chemical_formula_moiety
;
C22 H12 N2 O6
;
_journal_coden_Cambridge 179
_journal_volume 53
_journal_year 2014
_journal_page_first 5405
_journal_name_full 'Angew.Chem.,Int.Ed. '
loop_
_publ_author_name
"M.Chiarucci"
"A.Ciogli"
"M.Mancinelli"
"S.Ranieri"
"A.Mazzanti"
_chemical_name_systematic
;
2,3-bis(2-Nitrophenyl)naphthalene-1,4-dione
;
_chemical_name_common
;
2,3-bis(2-Nitrophenyl)-1,4-naphthoquinone
;
_cell_volume   1811.816
_exptl_crystal_colour 'yellow'
_exptl_crystal_density_diffrn 1.468
_exptl_crystal_description 'cube'
_diffrn_ambient_temperature 296
#These two values have been output from a single CSD field.
_refine_ls_R_factor_gt 0.0431
_refine_ls_wR_factor_gt 0.0431
_symmetry_cell_setting monoclinic
_symmetry_space_group_name_H-M 'P 21/n'
_symmetry_Int_Tables_number 14
loop_
_symmetry_equiv_pos_site_id
_symmetry_equiv_pos_as_xyz
1 x,y,z
2 1/2-x,1/2+y,1/2-z
3 -x,-y,-z
4 -1/2+x,-1/2-y,-1/2+z
_cell_length_a 8.3329(11)
_cell_length_b 14.4599(19)
_cell_length_c 15.305(2)
_cell_angle_alpha 90
_cell_angle_beta 100.744(2)
_cell_angle_gamma 90
_cell_formula_units_Z 4
loop_
_atom_type_symbol
_atom_type_radius_bond
C 0.68
H 0.23
N 0.68
O 0.68
loop_
_atom_site_label
_atom_site_type_symbol
_atom_site_fract_x
_atom_site_fract_y
_atom_site_fract_z
C1 C 0.8535(2) 0.88262(14) 0.01333(12)
C2 C 0.8456(2) 0.84742(13) 0.10427(12)
C3 C 0.7847(2) 0.90110(13) 0.16251(12)
C4 C 0.7177(2) 0.99541(13) 0.13689(13)
C5 C 0.7122(2) 1.02748(13) 0.04483(12)
C6 C 0.6409(2) 1.11180(14) 0.01745(14)
H1 H 0.59600 1.14800 0.05700
C7 C 0.6366(3) 1.14186(15) -0.06842(15)
H2 H 0.58890 1.19840 -0.08680
C8 C 0.7031(3) 1.08804(15) -0.12729(14)
H3 H 0.69860 1.10840 -0.18530
C9 C 0.7758(3) 1.00465(14) -0.10091(13)
H4 H 0.82210 0.96940 -0.14060
C10 C 0.7799(2) 0.97319(13) -0.01455(12)
C11 C 0.9231(2) 0.75581(14) 0.12870(13)
C12 C 0.8884(2) 0.67545(14) 0.07880(14)
C13 C 0.9752(3) 0.59419(15) 0.09935(17)
H5 H 0.94940 0.54160 0.06460
C14 C 1.1003(3) 0.59257(19) 0.17206(19)
H6 H 1.16100 0.53890 0.18620
C15 C 1.1355(3) 0.67004(19) 0.22373(18)
H7 H 1.21870 0.66820 0.27350
C16 C 1.0488(2) 0.75030(16) 0.20263(14)
H8 H 1.07460 0.80210 0.23850
C17 C 0.7663(2) 0.87013(14) 0.25253(12)
C18 C 0.8265(2) 0.91816(15) 0.33050(13)
C19 C 0.7892(3) 0.89402(18) 0.41182(14)
H9 H 0.83110 0.92770 0.46270
C20 C 0.6892(3) 0.81938(18) 0.41605(16)
H10 H 0.66100 0.80320 0.47000
C21 C 0.6307(3) 0.76846(17) 0.34121(16)
H11 H 0.56500 0.71710 0.34490
C22 C 0.6691(2) 0.79340(15) 0.26051(14)
H12 H 0.62910 0.75820 0.21030
O1 O 0.92181(18) 0.83712(10) -0.03605(9)
O2 O 0.66631(19) 1.04337(10) 0.19101(10)
O3 O 0.63909(19) 0.72662(11) 0.00123(11)
O4 O 0.7576(2) 0.61562(13) -0.05582(12)
O5 O 1.0204(2) 0.99726(12) 0.27018(11)
O6 O 0.9459(2) 1.05631(13) 0.38527(12)
N1 N 0.7523(2) 0.67275(13) 0.00235(13)
N2 N 0.9377(2) 0.99618(14) 0.32858(12)
#END
