
#######################################################################
#
#                 Cambridge Crystallographic Data Centre
#                                CCDC
#
#######################################################################
#
# If this CIF has been generated from an entry in the Cambridge
# Structural Database, then it will include bibliographic, chemical,
# crystal, experimental, refinement or atomic coordinate data resulting
# from the CCDC's data processing and validation procedures.
#
#######################################################################

data_CSD_CIF_HOBSAU
_audit_creation_date 2014-04-10
_audit_creation_method CSD-ConQuest-V1
_database_code_CSD HOBSAU
_database_code_depnum_ccdc_archive 'CCDC 985951'
_chemical_formula_sum 'C23 H15 N3 O6'
_chemical_formula_moiety
;
C23 H15 N3 O6
;
_journal_coden_Cambridge 179
_journal_volume 53
_journal_year 2014
_journal_page_first 5405
_journal_name_full 'Angew.Chem.,Int.Ed. '
loop_
_publ_author_name
"M.Chiarucci"
"A.Ciogli"
"M.Mancinelli"
"S.Ranieri"
"A.Mazzanti"
_chemical_name_systematic
;
1-Benzyl-3,4-bis(2-nitrophenyl)-1H-pyrrole-2,5-dione
;
_cell_volume   3973.418
_exptl_crystal_colour 'yellow'
_exptl_crystal_density_diffrn 1.436
_exptl_crystal_description 'plate'
_diffrn_ambient_temperature 296
#These two values have been output from a single CSD field.
_refine_ls_R_factor_gt 0.0365
_refine_ls_wR_factor_gt 0.0365
_symmetry_cell_setting orthorhombic
_symmetry_space_group_name_H-M 'P b c a'
_symmetry_Int_Tables_number 61
loop_
_symmetry_equiv_pos_site_id
_symmetry_equiv_pos_as_xyz
1 x,y,z
2 1/2-x,-y,1/2+z
3 -x,1/2+y,1/2-z
4 1/2+x,1/2-y,-z
5 -x,-y,-z
6 -1/2+x,y,-1/2-z
7 x,-1/2-y,-1/2+z
8 -1/2-x,-1/2+y,z
_cell_length_a 19.3273(19)
_cell_length_b 10.5131(10)
_cell_length_c 19.5552(19)
_cell_angle_alpha 90
_cell_angle_beta 90
_cell_angle_gamma 90
_cell_formula_units_Z 8
loop_
_atom_type_symbol
_atom_type_radius_bond
C 0.68
H 0.23
N 0.68
O 0.68
loop_
_atom_site_label
_atom_site_type_symbol
_atom_site_fract_x
_atom_site_fract_y
_atom_site_fract_z
C1 C 0.11929(6) 0.91597(11) 0.50608(6)
C2 C 0.18828(6) 0.89683(11) 0.47274(6)
C3 C 0.23643(6) 0.89394(11) 0.52158(6)
C4 C 0.20065(6) 0.90425(11) 0.58981(6)
C5 C 0.19621(6) 0.89315(12) 0.39795(6)
C6 C 0.15550(7) 0.81813(13) 0.35506(6)
C7 C 0.16207(9) 0.82057(17) 0.28484(7)
H1 H 0.13350 0.77060 0.25750
C8 C 0.21146(10) 0.89792(19) 0.25567(8)
H2 H 0.21700 0.89920 0.20840
C9 C 0.25247(9) 0.97321(18) 0.29635(8)
H3 H 0.28570 1.02550 0.27650
C10 C 0.24476(7) 0.97185(14) 0.36661(7)
H4 H 0.27240 1.02430 0.39340
C11 C 0.31102(6) 0.86904(11) 0.51437(6)
C12 C 0.36330(6) 0.94225(12) 0.54398(6)
C13 C 0.43233(7) 0.91012(15) 0.53882(8)
H5 H 0.46590 0.95900 0.56060
C14 C 0.45095(8) 0.80532(15) 0.50128(8)
H6 H 0.49730 0.78310 0.49730
C15 C 0.40106(8) 0.73314(14) 0.46945(8)
H7 H 0.41400 0.66380 0.44280
C16 C 0.33188(7) 0.76314(13) 0.47678(7)
H8 H 0.29860 0.71180 0.45630
C17 C 0.07593(7) 0.93380(14) 0.62657(7)
H9 H 0.07400 0.85490 0.65220
H10 H 0.03220 0.94330 0.60280
C18 C 0.08371(7) 1.04251(14) 0.67646(7)
C19 C 0.05003(9) 1.03350(17) 0.73870(8)
H11 H 0.02480 0.96080 0.74930
C20 C 0.05379(12) 1.1327(2) 0.78537(9)
H12 H 0.03100 1.12600 0.82710
C21 C 0.09071(11) 1.2402(2) 0.77063(9)
H13 H 0.09290 1.30640 0.80210
C22 C 0.12456(10) 1.24994(16) 0.70916(9)
H14 H 0.14990 1.32270 0.69900
C23 C 0.12096(8) 1.15171(15) 0.66243(7)
H15 H 0.14400 1.15910 0.62080
O1 O 0.06384(4) 0.92443(9) 0.47815(5)
O2 O 0.22580(5) 0.89481(10) 0.64568(4)
O3 O 0.05361(6) 0.70410(15) 0.35270(6)
O4 O 0.12269(6) 0.67273(10) 0.43753(5)
O5 O 0.29026(5) 1.11122(9) 0.56795(5)
O6 O 0.39080(7) 1.11201(13) 0.61386(7)
N1 N 0.13111(5) 0.92385(11) 0.57568(5)
N2 N 0.10674(6) 0.72559(12) 0.38379(6)
N3 N 0.34667(6) 1.06289(11) 0.57788(6)
#END
