
#######################################################################
#
#                 Cambridge Crystallographic Data Centre
#                                CCDC
#
#######################################################################
#
# If this CIF has been generated from an entry in the Cambridge
# Structural Database, then it will include bibliographic, chemical,
# crystal, experimental, refinement or atomic coordinate data resulting
# from the CCDC's data processing and validation procedures.
#
#######################################################################

data_CSD_CIF_HOBZEE
_audit_creation_date 2008-10-15
_audit_creation_method CSD-ConQuest-V1
_database_code_CSD HOBZEE
_database_code_depnum_ccdc_archive 'CCDC 678355'
_chemical_formula_sum 'C3 H5 N5 O8'
_chemical_formula_moiety
;
C3 H5 N5 O8
;
_journal_coden_Cambridge 29
_journal_volume 634
_journal_year 2008
_journal_page_first 1244
_journal_name_full 'Z.Anorg.Allg.Chem. '
loop_
_publ_author_name
"T.M.Klapotke"
"B.Krumm"
"M.Scherr"
"G.Spiess"
"F.X.Steemann"
_chemical_name_systematic
;
1,1,1,3-Tetranitro-3-azabutane
;
_cell_volume    852.797
_exptl_crystal_colour 'colorless'
_exptl_crystal_density_diffrn 1.862
_exptl_special_details
;
sensitive towards impact

;
_exptl_crystal_description 'needle'
_exptl_crystal_preparation 'hexane/dichloromethane'
_diffrn_ambient_temperature 100
#These two values have been output from a single CSD field.
_refine_ls_R_factor_gt 0.0558
_refine_ls_wR_factor_gt 0.0558
_symmetry_cell_setting orthorhombic
_symmetry_space_group_name_H-M 'P 21 21 21'
_symmetry_Int_Tables_number 19
loop_
_symmetry_equiv_pos_site_id
_symmetry_equiv_pos_as_xyz
1 x,y,z
2 1/2-x,-y,1/2+z
3 1/2+x,1/2-y,-z
4 -x,1/2+y,1/2-z
_cell_length_a 5.8340(3)
_cell_length_b 8.1289(3)
_cell_length_c 17.9824(6)
_cell_angle_alpha 90
_cell_angle_beta 90
_cell_angle_gamma 90
_cell_formula_units_Z 4
loop_
_atom_type_symbol
_atom_type_radius_bond
C 0.68
H 0.23
N 0.68
O 0.68
loop_
_atom_site_label
_atom_site_type_symbol
_atom_site_fract_x
_atom_site_fract_y
_atom_site_fract_z
C1 C -0.2896(8) -0.4349(5) 0.3591(2)
H1 H -0.16870 -0.51470 0.37050
H2 H -0.37460 -0.47130 0.31510
H3 H -0.39460 -0.42630 0.40150
C2 C -0.3182(8) -0.1290(5) 0.3269(2)
H4 H -0.47830 -0.16190 0.31640
H5 H -0.25510 -0.07800 0.28130
C3 C -0.3179(7) -0.0019(5) 0.3894(2)
N1 N -0.1863(6) -0.2738(4) 0.34450(18)
N2 N 0.0353(6) -0.2759(4) 0.31871(17)
N3 N -0.4045(6) -0.0692(5) 0.46367(18)
N4 N -0.4749(6) 0.1438(4) 0.37037(18)
N5 N -0.0804(7) 0.0722(5) 0.40146(19)
O1 O 0.1197(5) -0.1438(4) 0.29907(16)
O2 O 0.1381(5) -0.4084(4) 0.31879(16)
O3 O -0.5370(5) -0.1842(4) 0.45917(16)
O4 O -0.3431(6) 0.0002(5) 0.51969(15)
O5 O -0.5435(6) 0.1499(4) 0.30650(16)
O6 O -0.5114(6) 0.2421(4) 0.41979(17)
O7 O -0.0378(6) 0.1961(4) 0.36610(18)
O8 O 0.0491(6) -0.0053(4) 0.44153(16)
#END
