
#######################################################################
#
#                 Cambridge Crystallographic Data Centre
#                                CCDC
#
#######################################################################
#
# If this CIF has been generated from an entry in the Cambridge
# Structural Database, then it will include bibliographic, chemical,
# crystal, experimental, refinement or atomic coordinate data resulting
# from the CCDC's data processing and validation procedures.
#
#######################################################################

data_CSD_CIF_HODGAJ
_audit_creation_date 2008-10-15
_audit_creation_method CSD-ConQuest-V1
_database_code_CSD HODGAJ
_database_code_depnum_ccdc_archive 'CCDC 696493'
_chemical_formula_sum 'C26 H28 N2 O3'
_chemical_formula_moiety
;
C26 H28 N2 O3
;
_journal_coeditor_code "IUCr WN2266"
_journal_coden_Cambridge 1370
_journal_volume 64
_journal_year 2008
_journal_page_first o1211
_journal_name_full 'Acta Crystallogr.,Sect.E:Struct.Rep.Online '
loop_
_publ_author_name
"J.Jayabharathi"
"A.Thangamani"
"S.Balamurugan"
"A.Thiruvalluvar"
"A.Linden"
_chemical_name_systematic
;
t-3-Benzyl-r-2,c-6-bis(4-methoxyphenyl)piperidin-4-one oxime
;
_chemical_melting_point 460
_cell_volume   4437.737
_exptl_crystal_colour 'colorless'
_exptl_crystal_density_diffrn 1.247
_exptl_crystal_description 'tablet'
_exptl_crystal_preparation 'ethanol'
_diffrn_ambient_temperature 160.0
#These two values have been output from a single CSD field.
_refine_ls_R_factor_gt 0.0703
_refine_ls_wR_factor_gt 0.0703
_symmetry_cell_setting orthorhombic
_symmetry_space_group_name_H-M 'P b c a'
_symmetry_Int_Tables_number 61
loop_
_symmetry_equiv_pos_site_id
_symmetry_equiv_pos_as_xyz
1 x,y,z
2 1/2-x,-y,1/2+z
3 1/2+x,1/2-y,-z
4 -x,1/2+y,1/2-z
5 -x,-y,-z
6 -1/2+x,y,-1/2-z
7 -1/2-x,-1/2+y,z
8 x,-1/2-y,-1/2+z
_cell_length_a 10.2472(4)
_cell_length_b 11.2723(4)
_cell_length_c 38.4188(15)
_cell_angle_alpha 90
_cell_angle_beta 90
_cell_angle_gamma 90
_cell_formula_units_Z 8
loop_
_atom_type_symbol
_atom_type_radius_bond
C 0.68
H 0.23
N 0.68
O 0.68
loop_
_atom_site_label
_atom_site_type_symbol
_atom_site_fract_x
_atom_site_fract_y
_atom_site_fract_z
O1 O 0.0668(2) 0.34156(19) 0.18566(6)
O2 O 0.9150(2) 0.03452(19) 0.09433(6)
O3 O 0.7048(2) 0.5478(2) -0.05739(5)
N1 N 0.5498(3) 0.2892(2) 0.08373(6)
N2 N 0.8055(2) 0.0468(2) 0.11664(6)
C1 C 0.5128(3) 0.1965(3) 0.10941(8)
C2 C 0.6286(3) 0.1719(3) 0.13407(8)
C3 C 0.7480(3) 0.1470(3) 0.11248(8)
C4 C 0.7802(3) 0.2386(3) 0.08540(8)
C5 C 0.6613(3) 0.2506(3) 0.06163(8)
C6 C -0.0455(3) 0.2668(3) 0.18763(10)
C7 C 0.5957(3) 0.0740(3) 0.16052(8)
C8 C 0.8212(3) 0.6119(3) -0.06432(9)
C9 C 0.3912(3) 0.2353(3) 0.12845(7)
C10 C 0.3900(3) 0.3387(3) 0.14823(8)
C11 C 0.2808(3) 0.3721(3) 0.16668(8)
C12 C 0.1683(3) 0.3020(3) 0.16566(8)
C13 C 0.1667(3) 0.1996(3) 0.14565(8)
C14 C 0.2785(3) 0.1679(3) 0.12733(8)
C15 C 0.6756(3) 0.0789(3) 0.19370(8)
C16 C 0.6473(3) 0.1655(3) 0.21837(8)
C17 C 0.7156(4) 0.1699(4) 0.24939(10)
C18 C 0.8112(4) 0.0882(4) 0.25647(10)
C19 C 0.8412(4) 0.0025(3) 0.23256(10)
C20 C 0.7748(3) -0.0020(3) 0.20113(9)
C21 C 0.6775(3) 0.3337(3) 0.03083(8)
C22 C 0.7835(3) 0.4086(3) 0.02694(8)
C23 C 0.7969(3) 0.4812(3) -0.00223(8)
C24 C 0.7021(3) 0.4801(3) -0.02775(8)
C25 C 0.5951(3) 0.4067(3) -0.02416(8)
C26 C 0.5834(3) 0.3338(3) 0.00450(8)
H1 H 0.473(3) 0.304(2) 0.0698(8)
H2 H 0.49258 0.12179 0.09644
H3 H 0.64551 0.24632 0.14749
H4 H 0.94084 -0.03620 0.09464
H5 H 0.85738 0.21356 0.07175
H6 H 0.79998 0.31560 0.09663
H7 H 0.64031 0.17003 0.05231
H8 H -0.11135 0.30392 0.20258
H9 H -0.02061 0.18972 0.19741
H10 H -0.08165 0.25535 0.16425
H11 H 0.50211 0.08010 0.16667
H12 H 0.60941 -0.00410 0.14934
H13 H 0.81134 0.65636 -0.08607
H14 H 0.89431 0.55628 -0.06650
H15 H 0.83840 0.66712 -0.04517
H16 H 0.46583 0.38715 0.14903
H17 H 0.28182 0.44291 0.18010
H18 H 0.09043 0.15182 0.14448
H19 H 0.27738 0.09781 0.11362
H20 H 0.58053 0.22197 0.21388
H21 H 0.69611 0.23001 0.26593
H22 H 0.85656 0.09114 0.27801
H23 H 0.90752 -0.05401 0.23749
H24 H 0.79716 -0.06079 0.18445
H25 H 0.84854 0.41066 0.04454
H26 H 0.87098 0.53122 -0.00453
H27 H 0.52922 0.40631 -0.04155
H28 H 0.50995 0.28279 0.00639
#END
