
#######################################################################
#
#                 Cambridge Crystallographic Data Centre
#                                CCDC
#
#######################################################################
#
# If this CIF has been generated from an entry in the Cambridge
# Structural Database, then it will include bibliographic, chemical,
# crystal, experimental, refinement or atomic coordinate data resulting
# from the CCDC's data processing and validation procedures.
#
#######################################################################

data_CSD_CIF_HODSEZ
_audit_creation_date 2008-10-15
_audit_creation_method CSD-ConQuest-V1
_database_code_CSD HODSEZ
_database_code_depnum_ccdc_archive 'CCDC 691717'
_chemical_formula_sum 'C21 H21 N3 O3'
_chemical_formula_moiety
;
C21 H21 N3 O3
;
_journal_coeditor_code "IUCr OM2246"
_journal_coden_Cambridge 1370
_journal_volume 64
_journal_year 2008
_journal_page_first o1490
_journal_name_full 'Acta Crystallogr.,Sect.E:Struct.Rep.Online '
loop_
_publ_author_name
"Y.Sarrafi"
"K.Alimohammadi"
_chemical_name_systematic
;
2'-Methyl-2'-nitro-1'-phenyl-2',3',5',6',7',7a'-hexahydrospiro(indoline-3,3'-1
'H-pyrrolizin)-2-one
;
_cell_volume   1731.796
_exptl_crystal_colour 'colorless'
_exptl_crystal_density_diffrn 1.394
_exptl_crystal_description 'prism'
_exptl_crystal_preparation 'ethanol'
_diffrn_ambient_temperature 120
#These two values have been output from a single CSD field.
_refine_ls_R_factor_gt 0.0507
_refine_ls_wR_factor_gt 0.0507
_symmetry_cell_setting monoclinic
_symmetry_space_group_name_H-M 'P 21/n'
_symmetry_Int_Tables_number 14
loop_
_symmetry_equiv_pos_site_id
_symmetry_equiv_pos_as_xyz
1 x,y,z
2 1/2-x,1/2+y,1/2-z
3 -x,-y,-z
4 -1/2+x,-1/2-y,-1/2+z
_cell_length_a 7.8524(16)
_cell_length_b 25.656(6)
_cell_length_c 9.1767(19)
_cell_angle_alpha 90
_cell_angle_beta 110.489(4)
_cell_angle_gamma 90
_cell_formula_units_Z 4
loop_
_atom_type_symbol
_atom_type_radius_bond
C 0.68
H 0.23
N 0.68
O 0.68
loop_
_atom_site_label
_atom_site_type_symbol
_atom_site_fract_x
_atom_site_fract_y
_atom_site_fract_z
N1 N 0.1573(3) 0.19274(7) 0.7966(2)
C1 C 0.1056(3) 0.17387(9) 0.6367(3)
C2 C 0.2848(3) 0.14420(9) 0.6478(3)
C3 C 0.3236(3) 0.11281(9) 0.8003(3)
H1 H 0.22950 0.08590 0.77960
C4 C 0.2810(3) 0.15438(9) 0.9046(3)
H2 H 0.39440 0.17220 0.96450
C5 C 0.1843(3) 0.13826(9) 1.0155(3)
H3 H 0.27020 0.12840 1.11660
H4 H 0.10050 0.10970 0.97350
C6 C 0.0836(3) 0.18844(9) 1.0247(3)
H5 H -0.01400 0.18170 1.06400
H6 H 0.16570 0.21410 1.09060
C7 C 0.0098(3) 0.20643(10) 0.8562(3)
H7 H -0.10200 0.18830 0.79860
H8 H -0.01290 0.24370 0.84950
C8 C 0.4441(3) 0.17830(9) 0.6496(3)
H9 H 0.54370 0.15660 0.64960
H10 H 0.48120 0.19960 0.74130
H11 H 0.40790 0.20020 0.55890
C9 C 0.5061(3) 0.08576(9) 0.8734(3)
C10 C 0.5235(3) 0.03378(10) 0.8389(3)
H12 H 0.42850 0.01730 0.76220
C11 C 0.6799(4) 0.00634(10) 0.9170(3)
H13 H 0.69050 -0.02820 0.89020
C12 C 0.8199(3) 0.02934(10) 1.0338(3)
H14 H 0.92260 0.01010 1.08940
C13 C 0.8070(3) 0.08119(10) 1.0682(3)
H15 H 0.90180 0.09720 1.14650
C14 C 0.6529(3) 0.10927(10) 0.9861(3)
H16 H 0.64750 0.14460 1.00680
N2 N 0.2395(3) 0.11023(8) 0.5039(2)
O1 O 0.2495(2) 0.06314(7) 0.5158(2)
O2 O 0.1929(2) 0.13377(7) 0.37859(19)
N3 N -0.1068(3) 0.21391(8) 0.4167(2)
H17 H -0.16470 0.23770 0.35350
C15 C 0.0582(3) 0.22165(9) 0.5263(3)
O3 O 0.1511(2) 0.26105(6) 0.54370(19)
C16 C -0.0662(3) 0.14082(9) 0.5689(3)
C17 C -0.1202(3) 0.09354(9) 0.6109(3)
H18 H -0.04550 0.07610 0.69890
C18 C -0.2865(3) 0.07228(10) 0.5209(3)
H19 H -0.32240 0.04030 0.54820
C19 C -0.3983(3) 0.09824(10) 0.3915(3)
H20 H -0.50860 0.08330 0.33160
C20 C -0.3494(3) 0.14616(10) 0.3490(3)
H21 H -0.42590 0.16410 0.26280
C21 C -0.1828(3) 0.16639(9) 0.4391(3)
#END
