
#######################################################################
#
#                 Cambridge Crystallographic Data Centre
#                                CCDC
#
#######################################################################
#
# If this CIF has been generated from an entry in the Cambridge
# Structural Database, then it will include bibliographic, chemical,
# crystal, experimental, refinement or atomic coordinate data resulting
# from the CCDC's data processing and validation procedures.
#
#######################################################################

data_CSD_CIF_HOFDOV01
_audit_creation_date 1999-10-05
_audit_creation_method CSD-ConQuest-V1
_database_code_CSD HOFDOV01
_database_code_depnum_ccdc_archive 'CCDC 135715'
_chemical_formula_sum 'C6 H7 N3 O3'
_chemical_formula_moiety
;
C6 H7 N3 O3
;
_journal_coeditor_code "IUCr GD1027"
_journal_coden_Cambridge 591
_journal_volume 55
_journal_year 1999
_journal_page_first 1292
_journal_name_full 'Acta Crystallogr.,Sect.C:Cryst.Struct.Commun. '
loop_
_publ_author_name
"J.Zaleski"
"Z.Daszkiewicz"
"J.B.Kyziol"
_chemical_name_systematic
;
4-(N-Methylnitramino)pyridinium 1-oxide
;
_chemical_melting_point 401
_cell_volume   1426.256
_exptl_crystal_colour 'light yellow'
_exptl_crystal_density_diffrn 1.575
_exptl_special_details
;
Melts with decomposition.

;
_exptl_crystal_description 'plate'
_exptl_crystal_preparation 'methanol'
_diffrn_ambient_temperature ?
_diffrn_special_details
;
The study was carried out at room temperature,in the range 283-303K

;
#These two values have been output from a single CSD field.
_refine_ls_R_factor_gt 0.0585
_refine_ls_wR_factor_gt 0.0585
_symmetry_cell_setting orthorhombic
_symmetry_space_group_name_H-M 'P b c a'
_symmetry_Int_Tables_number 61
loop_
_symmetry_equiv_pos_site_id
_symmetry_equiv_pos_as_xyz
1 x,y,z
2 1/2-x,-y,1/2+z
3 -x,1/2+y,1/2-z
4 1/2+x,1/2-y,-z
5 -x,-y,-z
6 -1/2+x,y,-1/2-z
7 x,-1/2-y,-1/2+z
8 -1/2-x,-1/2+y,z
_cell_length_a 12.758(3)
_cell_length_b 6.964(1)
_cell_length_c 16.053(3)
_cell_angle_alpha 90
_cell_angle_beta 90
_cell_angle_gamma 90
_cell_formula_units_Z 8
loop_
_atom_type_symbol
_atom_type_radius_bond
C 0.68
H 0.23
N 0.68
O 0.68
loop_
_atom_site_label
_atom_site_type_symbol
_atom_site_fract_x
_atom_site_fract_y
_atom_site_fract_z
O1 O 0.37636(16) 0.2114(3) 0.52021(16)
N1 N 0.28343(18) 0.2325(4) 0.55178(16)
C1 C 0.2713(2) 0.2986(4) 0.6302(2)
C2 C 0.1741(2) 0.3189(4) 0.6645(2)
C3 C 0.0862(2) 0.2722(4) 0.61802(18)
C4 C 0.0992(2) 0.2053(4) 0.53795(18)
C5 C 0.1977(2) 0.1852(4) 0.50611(19)
N2 N -0.01555(19) 0.3056(4) 0.65257(16)
N3 N -0.0813(2) 0.1543(4) 0.65851(16)
O2 O -0.0443(2) -0.0078(3) 0.64907(16)
O3 O -0.17248(18) 0.1887(4) 0.67699(17)
C6 C -0.0604(3) 0.4987(6) 0.6543(3)
H1 H 0.216(2) 0.148(4) 0.451(2)
H2 H 0.166(2) 0.366(4) 0.7208(19)
H3 H 0.038(2) 0.170(4) 0.5029(19)
H4 H 0.331(3) 0.324(6) 0.655(2)
H5 H -0.104(3) 0.521(7) 0.595(3)
H6 H -0.088(3) 0.525(7) 0.716(3)
H7 H -0.006(4) 0.570(8) 0.651(3)
#END
