
#######################################################################
#
#                 Cambridge Crystallographic Data Centre
#                                CCDC
#
#######################################################################
#
# If this CIF has been generated from an entry in the Cambridge
# Structural Database, then it will include bibliographic, chemical,
# crystal, experimental, refinement or atomic coordinate data resulting
# from the CCDC's data processing and validation procedures.
#
#######################################################################

data_CSD_CIF_HOFFIT
_audit_creation_date 2014-04-11
_audit_creation_method CSD-ConQuest-V1
_database_code_CSD HOFFIT
_database_code_depnum_ccdc_archive 'CCDC 995062'
_chemical_formula_sum 'C27 H29 N3 O2'
_chemical_formula_moiety
;
C27 H29 N3 O2
;
_journal_coeditor_code "IUCr su2680"
_journal_coden_Cambridge 1370
_journal_volume 70
_journal_year 2014
_journal_page_first o551
_journal_name_full 'Acta Crystallogr.,Sect.E:Struct.Rep.Online '
loop_
_publ_author_name
"T.Vinuchakkaravarthy"
"R.Sivakumar"
"T.Srinivasan"
"V.Thanikachalam"
"D.Velmurugan"
_chemical_name_systematic
;
(E)-(((3-isopropyl-1-methyl-2,6-diphenylpiperidin-4-ylidene)amino)oxy)(pyridin
-3-yl)methanone
;
_cell_volume   2372.082
_exptl_crystal_colour 'colorless'
_exptl_crystal_density_diffrn 1.197
_exptl_crystal_description 'block'
_diffrn_ambient_temperature 293
#These two values have been output from a single CSD field.
_refine_ls_R_factor_gt 0.0471
_refine_ls_wR_factor_gt 0.0471
_symmetry_cell_setting orthorhombic
_symmetry_space_group_name_H-M 'P n a 21'
_symmetry_Int_Tables_number 33
loop_
_symmetry_equiv_pos_site_id
_symmetry_equiv_pos_as_xyz
1 x,y,z
2 -x,-y,1/2+z
3 1/2-x,1/2+y,1/2+z
4 1/2+x,1/2-y,z
_cell_length_a 12.7717(6)
_cell_length_b 16.2765(7)
_cell_length_c 11.4109(9)
_cell_angle_alpha 90
_cell_angle_beta 90
_cell_angle_gamma 90
_cell_formula_units_Z 4
loop_
_atom_type_symbol
_atom_type_radius_bond
C 0.68
H 0.23
N 0.68
O 0.68
loop_
_atom_site_label
_atom_site_type_symbol
_atom_site_fract_x
_atom_site_fract_y
_atom_site_fract_z
C1 C 0.20093(18) 0.54079(15) 0.4090(2)
H1 H 0.19200 0.58540 0.35230
C2 C 0.29009(17) 0.48375(15) 0.3647(2)
H2 H 0.29690 0.44050 0.42400
C3 C 0.39055(18) 0.53079(15) 0.3689(2)
C4 C 0.41492(19) 0.56519(17) 0.4867(2)
H3 H 0.47960 0.59630 0.48320
H4 H 0.42410 0.52080 0.54250
C5 C 0.32572(18) 0.62083(15) 0.5264(2)
H5 H 0.32160 0.66770 0.47270
C6 C 0.09879(17) 0.49393(16) 0.4170(2)
C7 C 0.0836(2) 0.43621(18) 0.5037(2)
H6 H 0.13610 0.42670 0.55850
C8 C -0.0087(2) 0.39242(19) 0.5100(3)
H7 H -0.01780 0.35340 0.56880
C9 C -0.0869(2) 0.4060(2) 0.4306(4)
H8 H -0.14920 0.37650 0.43550
C10 C -0.0733(2) 0.4626(2) 0.3444(3)
H9 H -0.12590 0.47130 0.28940
C11 C 0.0187(2) 0.5076(2) 0.3384(3)
H10 H 0.02650 0.54750 0.28070
C12 C 0.2629(2) 0.43909(18) 0.2496(3)
H11 H 0.19520 0.41250 0.26280
C13 C 0.3406(2) 0.3698(2) 0.2243(4)
H12 H 0.31680 0.33860 0.15800
H13 H 0.34560 0.33450 0.29140
H14 H 0.40820 0.39280 0.20750
C14 C 0.2487(2) 0.4935(2) 0.1429(3)
H15 H 0.31580 0.51270 0.11670
H16 H 0.20540 0.53960 0.16300
H17 H 0.21590 0.46250 0.08140
C15 C 0.5761(2) 0.62544(18) 0.2066(3)
C16 C 0.6794(2) 0.66287(17) 0.2345(3)
C17 C 0.7231(3) 0.7185(2) 0.1568(4)
H18 H 0.68830 0.73290 0.08830
C18 C 0.8190(4) 0.7520(2) 0.1830(4)
H19 H 0.84970 0.79060 0.13380
C19 C 0.8680(3) 0.7271(3) 0.2831(5)
H20 H 0.93360 0.74920 0.29890
N1 N 0.8297(2) 0.67423(19) 0.3587(3)
C20 C 0.7358(3) 0.64310(19) 0.3324(3)
H21 H 0.70670 0.60540 0.38430
C21 C 0.35138(17) 0.65246(16) 0.6471(2)
C22 C 0.3903(2) 0.73080(17) 0.6616(3)
H22 H 0.39440 0.76590 0.59750
C23 C 0.4232(2) 0.7578(2) 0.7699(3)
H23 H 0.44910 0.81090 0.77810
C24 C 0.4180(2) 0.7075(2) 0.8649(3)
H24 H 0.44080 0.72590 0.93770
C25 C 0.3788(2) 0.6292(2) 0.8524(3)
H25 H 0.37430 0.59480 0.91730
C26 C 0.34641(19) 0.60174(18) 0.7443(2)
H26 H 0.32090 0.54850 0.73640
C27 C 0.1417(2) 0.63578(19) 0.5558(3)
H27 H 0.15670 0.65920 0.63110
H28 H 0.07580 0.60750 0.55880
H29 H 0.13840 0.67870 0.49820
N2 N 0.22489(14) 0.57741(12) 0.52408(17)
N3 N 0.44194(16) 0.54136(15) 0.27484(19)
O1 O 0.53751(13) 0.58708(12) 0.29990(16)
O2 O 0.53326(18) 0.63179(16) 0.1144(2)
#END
