
#######################################################################
#
#                 Cambridge Crystallographic Data Centre
#                                CCDC
#
#######################################################################
#
# If this CIF has been generated from an entry in the Cambridge
# Structural Database, then it will include bibliographic, chemical,
# crystal, experimental, refinement or atomic coordinate data resulting
# from the CCDC's data processing and validation procedures.
#
#######################################################################

data_CSD_CIF_HOFFIS
_audit_creation_date 2008-10-15
_audit_creation_method CSD-ConQuest-V1
_database_code_CSD HOFFIS
_database_code_depnum_ccdc_archive 'CCDC 702494'
_chemical_formula_sum 'C10 H9 N1 O6'
_chemical_formula_moiety
;
C10 H9 N1 O6
;
_journal_coeditor_code "IUCr CS2086"
_journal_coden_Cambridge 1370
_journal_volume 64
_journal_year 2008
_journal_page_first o1736
_journal_name_full 'Acta Crystallogr.,Sect.E:Struct.Rep.Online '
loop_
_publ_author_name
"M.-H.Xie"
"P.Zou"
"Y.-J.He"
"Y.-L.Liu"
"B.Huang"
_chemical_name_systematic
;
Dimethyl 5-nitrobenzene-1,3-dicarboxylate
;
_chemical_name_common
;
Dimethyl 5-nitroisophthalate
;
_cell_volume    517.968
_exptl_crystal_colour 'colorless'
_exptl_crystal_density_diffrn 1.534
_exptl_crystal_description 'needle'
_diffrn_ambient_temperature 293
#These two values have been output from a single CSD field.
_refine_ls_R_factor_gt 0.0725
_refine_ls_wR_factor_gt 0.0725
_symmetry_cell_setting triclinic
_symmetry_space_group_name_H-M 'P -1'
_symmetry_Int_Tables_number 2
loop_
_symmetry_equiv_pos_site_id
_symmetry_equiv_pos_as_xyz
1 x,y,z
2 -x,-y,-z
_cell_length_a 4.0130(8)
_cell_length_b 10.660(2)
_cell_length_c 12.643(3)
_cell_angle_alpha 106.11(3)
_cell_angle_beta 93.74(3)
_cell_angle_gamma 91.46(3)
_cell_formula_units_Z 2
loop_
_atom_type_symbol
_atom_type_radius_bond
C 0.68
H 0.23
N 0.68
O 0.68
loop_
_atom_site_label
_atom_site_type_symbol
_atom_site_fract_x
_atom_site_fract_y
_atom_site_fract_z
N1 N 0.5209(9) 0.7040(3) 0.8012(3)
O1 O 0.7307(7) 0.1642(2) 0.5059(2)
C1 C 0.8443(12) 0.0907(4) 0.4027(3)
H1 H 0.82150 -0.00100 0.39650
H2 H 1.07480 0.11450 0.39920
H3 H 0.71260 0.10940 0.34310
O2 O 0.8638(9) 0.3487(3) 0.4668(2)
C2 C 0.7532(9) 0.2943(3) 0.5284(3)
O3 O 0.2103(7) 0.1601(2) 0.8322(2)
C3 C 0.0691(12) 0.0824(4) 0.8961(4)
H4 H 0.08330 -0.00860 0.85830
H5 H -0.16100 0.10220 0.90540
H6 H 0.19060 0.10160 0.96710
O4 O 0.1018(8) 0.3426(3) 0.9595(2)
C4 C 0.2108(9) 0.2883(3) 0.8735(3)
C5 C 0.3639(8) 0.3588(3) 0.8013(3)
O5 O 0.3683(10) 0.7593(3) 0.8783(3)
C6 C 0.3703(9) 0.4947(3) 0.8341(3)
H7 H 0.28390 0.54010 0.89960
O6 O 0.6840(9) 0.7614(3) 0.7524(3)
C7 C 0.5090(8) 0.5598(3) 0.7663(3)
C8 C 0.6352(8) 0.4972(3) 0.6687(3)
H8 H 0.72760 0.54470 0.62540
C9 C 0.6236(9) 0.3612(3) 0.6351(3)
C10 C 0.4871(8) 0.2942(3) 0.7022(3)
H9 H 0.47810 0.20330 0.68020
#END
