
#######################################################################
#
#                 Cambridge Crystallographic Data Centre
#                                CCDC
#
#######################################################################
#
# If this CIF has been generated from an entry in the Cambridge
# Structural Database, then it will include bibliographic, chemical,
# crystal, experimental, refinement or atomic coordinate data resulting
# from the CCDC's data processing and validation procedures.
#
#######################################################################

data_CSD_CIF_HOFFIR
_audit_creation_date 1999-10-05
_audit_creation_method CSD-ConQuest-V1
_database_code_CSD HOFFIR
_database_code_depnum_ccdc_archive 'CCDC 135724'
_chemical_formula_sum 'C13 H14 N2 O4'
_chemical_formula_moiety
;
C13 H14 N2 O4
;
_journal_coeditor_code "IUCr KA1321"
_journal_coden_Cambridge 591
_journal_volume 55
_journal_year 1999
_journal_page_first 1300
_journal_name_full 'Acta Crystallogr.,Sect.C:Cryst.Struct.Commun. '
loop_
_publ_author_name
"A.Danilovski"
"M.Vinkovic"
"D.Filic"
_chemical_name_systematic
;
3-(3'-Nitrophenyl)-3-ethylpiperidine-2,6-dione
;
_chemical_name_common
;
m-Nitroglutethimide
;
_cell_volume   1238.551
_exptl_crystal_colour 'colorless'
_exptl_crystal_density_diffrn 1.406
_exptl_crystal_description 'irregular'
_exptl_crystal_preparation 'methanol'
_diffrn_ambient_temperature ?
_diffrn_special_details
;
The study was carried out at room temperature,in the range 283-303K

;
#These two values have been output from a single CSD field.
_refine_ls_R_factor_gt 0.0388
_refine_ls_wR_factor_gt 0.0388
_symmetry_cell_setting monoclinic
_symmetry_space_group_name_H-M 'P 21/n'
_symmetry_Int_Tables_number 14
loop_
_symmetry_equiv_pos_site_id
_symmetry_equiv_pos_as_xyz
1 x,y,z
2 1/2-x,1/2+y,1/2-z
3 -x,-y,-z
4 -1/2+x,-1/2-y,-1/2+z
_cell_length_a 9.4376(7)
_cell_length_b 13.168(2)
_cell_length_c 10.035(2)
_cell_angle_alpha 90
_cell_angle_beta 96.71(2)
_cell_angle_gamma 90
_cell_formula_units_Z 4
loop_
_atom_type_symbol
_atom_type_radius_bond
C 0.68
H 0.23
N 0.68
O 0.68
loop_
_atom_site_label
_atom_site_type_symbol
_atom_site_fract_x
_atom_site_fract_y
_atom_site_fract_z
O1 O 0.03747(15) 0.26995(10) 0.37801(13)
O2 O 0.07522(15) 0.00992(9) 0.66940(15)
O3 O 0.0522(3) 0.60783(12) 0.92037(17)
O4 O -0.1750(2) 0.62081(15) 0.9270(2)
N1 N 0.06242(15) 0.14368(10) 0.52878(15)
N2 N -0.0707(3) 0.58008(14) 0.88809(19)
C1 C 0.07371(17) 0.24489(13) 0.49335(17)
C2 C 0.12834(17) 0.31958(12) 0.60406(16)
C3 C 0.21574(19) 0.40276(13) 0.54143(19)
C4 C 0.3404(2) 0.36469(16) 0.4719(2)
C5 C 0.22135(18) 0.26425(12) 0.71738(17)
C6 C 0.1474(2) 0.17092(13) 0.76548(18)
C7 C 0.09417(18) 0.10104(13) 0.65397(18)
C8 C -0.00129(18) 0.36658(12) 0.65930(17)
C9 C 0.0190(2) 0.44924(13) 0.74641(18)
C10 C -0.0964(2) 0.49110(14) 0.79784(19)
C11 C -0.2328(2) 0.45334(17) 0.7701(2)
C12 C -0.2531(2) 0.37091(17) 0.6866(2)
C13 C -0.13928(18) 0.32854(14) 0.6308(2)
H1 H 0.03200 0.10270 0.46500
H2 H 0.15190 0.44050 0.47670
H3 H 0.25220 0.44970 0.61170
H4 H 0.38790 0.42140 0.43640
H5 H 0.30570 0.31980 0.40010
H6 H 0.40630 0.32890 0.53540
H7 H 0.31030 0.24390 0.68560
H8 H 0.24380 0.31050 0.79210
H9 H 0.21370 0.13440 0.82950
H10 H 0.06770 0.19240 0.81150
H11 H 0.10980 0.47580 0.76950
H12 H -0.30890 0.48290 0.80700
H13 H -0.34380 0.34330 0.66730
H14 H -0.15530 0.27350 0.57300
#END
