
#######################################################################
#
#                 Cambridge Crystallographic Data Centre
#                                CCDC
#
#######################################################################
#
# If this CIF has been generated from an entry in the Cambridge
# Structural Database, then it will include bibliographic, chemical,
# crystal, experimental, refinement or atomic coordinate data resulting
# from the CCDC's data processing and validation procedures.
#
#######################################################################

data_CSD_CIF_HOFGEP
_audit_creation_date 2008-10-15
_audit_creation_method CSD-ConQuest-V1
_database_code_CSD HOFGEP
_database_code_depnum_ccdc_archive 'CCDC 691716'
_chemical_formula_sum 'C20 H18 N4 O5'
_chemical_formula_moiety
;
C20 H18 N4 O5
;
_journal_coeditor_code "IUCr OM2253"
_journal_coden_Cambridge 1370
_journal_volume 64
_journal_year 2008
_journal_page_first o1740
_journal_name_full 'Acta Crystallogr.,Sect.E:Struct.Rep.Online '
loop_
_publ_author_name
"Y.Sarrafi"
"K.Alimohammadi"
_chemical_name_systematic
;
1',5-Dinitro-2'-phenyl-2',3',5',6',7',7a'-hexahydrospiro(indoline-3,3'-1'H-pyr
rolizin)-2-one
;
_cell_volume   1797.431
_exptl_crystal_colour 'yellow'
_exptl_crystal_density_diffrn 1.457
_exptl_crystal_description 'prism'
_diffrn_ambient_temperature 120
#These two values have been output from a single CSD field.
_refine_ls_R_factor_gt 0.0572
_refine_ls_wR_factor_gt 0.0572
_symmetry_cell_setting monoclinic
_symmetry_space_group_name_H-M 'P 21/c'
_symmetry_Int_Tables_number 14
loop_
_symmetry_equiv_pos_site_id
_symmetry_equiv_pos_as_xyz
1 x,y,z
2 -x,1/2+y,1/2-z
3 -x,-y,-z
4 x,-1/2-y,-1/2+z
_cell_length_a 13.998(4)
_cell_length_b 7.963(3)
_cell_length_c 16.359(6)
_cell_angle_alpha 90
_cell_angle_beta 99.695(11)
_cell_angle_gamma 90
_cell_formula_units_Z 4
loop_
_atom_type_symbol
_atom_type_radius_bond
C 0.68
H 0.23
N 0.68
O 0.68
loop_
_atom_site_label
_atom_site_type_symbol
_atom_site_fract_x
_atom_site_fract_y
_atom_site_fract_z
O1 O 0.42737(11) 0.8306(2) 0.53311(9)
O2 O -0.02802(13) 1.0541(3) 0.22715(12)
O3 O 0.03964(13) 1.2271(2) 0.15286(11)
O4 O 0.27784(16) 0.2753(2) 0.54074(12)
O5 O 0.17142(13) 0.3390(2) 0.43381(11)
N1 N 0.39099(13) 1.0143(2) 0.42331(11)
H1 H 0.44650 1.06250 0.42660
N2 N 0.21896(13) 0.8303(2) 0.52112(11)
N3 N 0.04377(16) 1.1279(3) 0.21107(13)
N4 N 0.23870(16) 0.3752(3) 0.48895(13)
C1 C 0.37153(16) 0.8895(3) 0.47458(14)
C2 C 0.26499(15) 0.8336(3) 0.44673(13)
C3 C 0.23048(16) 0.9555(3) 0.37701(13)
C4 C 0.14310(17) 0.9760(3) 0.32541(13)
H2 H 0.08960 0.91100 0.33150
C5 C 0.13764(17) 1.0973(3) 0.26379(14)
C6 C 0.21565(18) 1.1911(3) 0.24975(15)
H3 H 0.20900 1.26810 0.20640
C7 C 0.30444(17) 1.1698(3) 0.30081(14)
H4 H 0.35860 1.23090 0.29240
C8 C 0.30976(16) 1.0547(3) 0.36449(13)
C9 C 0.12231(17) 0.9058(3) 0.52006(15)
H5 H 0.08750 0.91540 0.46380
H6 H 0.12790 1.01640 0.54530
C10 C 0.07094(18) 0.7847(3) 0.57053(16)
H7 H 0.08810 0.80640 0.62950
H8 H 0.00110 0.79110 0.55440
C11 C 0.10985(18) 0.6159(3) 0.54746(17)
H9 H 0.09990 0.52930 0.58680
H10 H 0.08010 0.58140 0.49220
C12 C 0.21678(17) 0.6552(3) 0.55171(14)
H11 H 0.24970 0.64970 0.60950
C13 C 0.27408(17) 0.5532(3) 0.49667(14)
H12 H 0.34290 0.55400 0.52150
C14 C 0.26082(16) 0.6474(3) 0.41508(13)
H13 H 0.19450 0.62640 0.38670
C15 C 0.32836(17) 0.6039(3) 0.35484(14)
C16 C 0.42558(18) 0.5628(3) 0.38008(15)
H14 H 0.45130 0.56180 0.43630
C17 C 0.48456(19) 0.5237(3) 0.32300(16)
H15 H 0.54930 0.49690 0.34110
C18 C 0.44760(19) 0.5243(3) 0.23930(15)
H16 H 0.48700 0.49600 0.20100
C19 C 0.35159(19) 0.5672(3) 0.21255(15)
H17 H 0.32660 0.57020 0.15620
C20 C 0.29304(18) 0.6057(3) 0.27026(14)
H18 H 0.22850 0.63350 0.25190
#END
