
#######################################################################
#
#                 Cambridge Crystallographic Data Centre
#                                CCDC
#
#######################################################################
#
# If this CIF has been generated from an entry in the Cambridge
# Structural Database, then it will include bibliographic, chemical,
# crystal, experimental, refinement or atomic coordinate data resulting
# from the CCDC's data processing and validation procedures.
#
#######################################################################

data_CSD_CIF_HOFGOA
_audit_creation_date 2014-04-11
_audit_creation_method CSD-ConQuest-V1
_database_code_CSD HOFGOA
_database_code_depnum_ccdc_archive 'CCDC 995953'
_chemical_formula_sum 'C15 H17 N1 O4'
_chemical_formula_moiety
;
C15 H17 N1 O4
;
_journal_coeditor_code "IUCr is5351"
_journal_coden_Cambridge 1370
_journal_volume 70
_journal_year 2014
_journal_page_first o544
_journal_name_full 'Acta Crystallogr.,Sect.E:Struct.Rep.Online '
loop_
_publ_author_name
"A.J.Lough"
"J.R.Nagireddy"
"W.Tam"
_chemical_name_systematic
;
3,6-dimethoxy-8,12-dimethyl-10,14-dioxa-11-azatetracyclo[6.5.1.0^2,7^.0^9,13^]
tetradeca-2,4,6,11-tetraene
;
_cell_volume   1281.817
_exptl_crystal_colour 'colorless'
_exptl_crystal_density_diffrn 1.427
_exptl_crystal_description 'needle'
_diffrn_ambient_temperature 147
#These two values have been output from a single CSD field.
_refine_ls_R_factor_gt 0.0393
_refine_ls_wR_factor_gt 0.0393
_symmetry_cell_setting monoclinic
_symmetry_space_group_name_H-M 'P 21/n'
_symmetry_Int_Tables_number 14
loop_
_symmetry_equiv_pos_site_id
_symmetry_equiv_pos_as_xyz
1 x,y,z
2 1/2-x,1/2+y,1/2-z
3 -x,-y,-z
4 -1/2+x,-1/2-y,-1/2+z
_cell_length_a 9.0608(12)
_cell_length_b 14.3998(17)
_cell_length_c 10.1631(12)
_cell_angle_alpha 90
_cell_angle_beta 104.835(3)
_cell_angle_gamma 90
_cell_formula_units_Z 4
loop_
_atom_type_symbol
_atom_type_radius_bond
C 0.68
H 0.23
N 0.68
O 0.68
loop_
_atom_site_label
_atom_site_type_symbol
_atom_site_fract_x
_atom_site_fract_y
_atom_site_fract_z
O1 O 0.50314(11) 0.25637(7) 0.36251(9)
O2 O 0.59142(11) 0.27152(7) 0.66027(10)
O3 O 0.27204(11) 0.49102(7) 0.15675(10)
O4 O 0.89378(11) 0.43196(7) 0.37701(10)
N1 N 0.44029(14) 0.24274(9) 0.65909(12)
C1 C 0.39743(15) 0.33293(10) 0.34640(13)
H1 H 0.29090 0.31900 0.29270
C2 C 0.63942(15) 0.30606(9) 0.43544(13)
C3 C 0.77661(17) 0.24375(10) 0.46760(15)
H2 H 0.80810 0.23090 0.38410
H3 H 0.75100 0.18530 0.50600
H4 H 0.86030 0.27430 0.53380
C4 C 0.58557(15) 0.3434(1) 0.55933(13)
H5 H 0.64180 0.40070 0.59920
C5 C 0.41454(15) 0.36162(10) 0.49764(13)
H6 H 0.38330 0.42720 0.50860
C6 C 0.34470(16) 0.29242(10) 0.57416(14)
C7 C 0.17703(16) 0.27995(11) 0.55319(15)
H7 H 0.15800 0.22820 0.60920
H8 H 0.13000 0.26650 0.45700
H9 H 0.13280 0.33690 0.57950
C8 C 0.47998(16) 0.40647(10) 0.28645(13)
C9 C 0.42749(16) 0.48105(10) 0.20091(14)
C10 C 0.53678(17) 0.53792(10) 0.16776(14)
H10 H 0.50520 0.58850 0.10700
C11 C 0.69228(17) 0.52157(10) 0.22265(14)
H11 H 0.76470 0.56090 0.19760
C12 C 0.74383(16) 0.44869(10) 0.31354(13)
C13 C 0.63422(15) 0.39029(9) 0.34279(13)
C14 C 0.21634(18) 0.5738(1) 0.08270(15)
H12 H 0.10460 0.57510 0.06220
H13 H 0.24810 0.57480 -0.00250
H14 H 0.25810 0.62820 0.13760
C15 C 1.00530(17) 0.47219(11) 0.31725(16)
H15 H 1.10700 0.44990 0.36520
H16 H 1.00190 0.54000 0.32440
H17 H 0.98350 0.45430 0.22120
#END
