
#######################################################################
#
#                 Cambridge Crystallographic Data Centre
#                                CCDC
#
#######################################################################
#
# If this CIF has been generated from an entry in the Cambridge
# Structural Database, then it will include bibliographic, chemical,
# crystal, experimental, refinement or atomic coordinate data resulting
# from the CCDC's data processing and validation procedures.
#
#######################################################################

data_CSD_CIF_HOFJES
_audit_creation_date 2008-10-15
_audit_creation_method CSD-ConQuest-V1
_database_code_CSD HOFJES
_database_code_depnum_ccdc_archive 'CCDC 702504'
_chemical_formula_sum 'C10 H9 N1 O4'
_chemical_formula_moiety
;
C10 H9 N1 O4
;
_journal_coeditor_code "IUCr FL2212"
_journal_coden_Cambridge 1370
_journal_volume 64
_journal_year 2008
_journal_page_first o1751
_journal_name_full 'Acta Crystallogr.,Sect.E:Struct.Rep.Online '
loop_
_publ_author_name
"Yun-Hua Xu"
"Fanqi Qu"
_chemical_name_systematic
;
4-Nitrophenyl methacrylate
;
_cell_volume   1919.015
_exptl_crystal_colour 'colorless'
_exptl_crystal_density_diffrn 1.434
_exptl_crystal_description 'thin rod'
_exptl_crystal_preparation 'ethyl acetate'
_diffrn_ambient_temperature 90.0
#These two values have been output from a single CSD field.
_refine_ls_R_factor_gt 0.0532
_refine_ls_wR_factor_gt 0.0532
_symmetry_cell_setting monoclinic
_symmetry_space_group_name_H-M 'C 2/c'
_symmetry_Int_Tables_number 15
loop_
_symmetry_equiv_pos_site_id
_symmetry_equiv_pos_as_xyz
1 x,y,z
2 1/2+x,1/2+y,z
3 -x,y,1/2-z
4 1/2-x,1/2+y,1/2-z
5 -x,-y,-z
6 -1/2-x,-1/2-y,-z
7 x,-y,-1/2+z
8 -1/2+x,-1/2-y,-1/2+z
_cell_length_a 24.491(6)
_cell_length_b 3.753(1)
_cell_length_c 23.428(6)
_cell_angle_alpha 90
_cell_angle_beta 116.98(1)
_cell_angle_gamma 90
_cell_formula_units_Z 8
loop_
_atom_type_symbol
_atom_type_radius_bond
C 0.68
H 0.23
N 0.68
O 0.68
loop_
_atom_site_label
_atom_site_type_symbol
_atom_site_fract_x
_atom_site_fract_y
_atom_site_fract_z
C1 C 0.34238(9) 0.3043(6) 0.08125(9)
H1 H 0.30220 0.26360 0.04810
H2 H 0.37690 0.23880 0.07530
C2 C 0.41131(8) 0.5324(6) 0.19114(9)
H3 H 0.44370 0.45510 0.18030
H4 H 0.41530 0.40420 0.22930
H5 H 0.41500 0.78910 0.19980
C3 C 0.35044(8) 0.4545(6) 0.13665(9)
C4 C 0.29729(8) 0.5595(5) 0.14726(9)
C5 C 0.18934(8) 0.4978(5) 0.10638(9)
C6 C 0.18535(8) 0.3892(5) 0.16081(8)
H6 H 0.21960 0.28580 0.19580
C7 C 0.13046(8) 0.4341(5) 0.16321(9)
H7 H 0.12620 0.36070 0.19980
C8 C 0.08165(8) 0.5879(5) 0.11143(8)
C9 C 0.08549(8) 0.6948(5) 0.05692(8)
H8 H 0.05110 0.79630 0.02180
C10 C 0.14063(8) 0.6505(5) 0.05472(8)
H9 H 0.14490 0.72420 0.01820
N1 N 0.02377(7) 0.6382(5) 0.11468(7)
O1 O 0.30028(5) 0.7338(4) 0.19146(6)
O2 O 0.24257(5) 0.4394(4) 0.09952(6)
O3 O 0.01867(6) 0.5094(4) 0.16001(7)
O4 O -0.01732(6) 0.8076(4) 0.07152(6)
#END
