
#######################################################################
#
#                 Cambridge Crystallographic Data Centre
#                                CCDC
#
#######################################################################
#
# If this CIF has been generated from an entry in the Cambridge
# Structural Database, then it will include bibliographic, chemical,
# crystal, experimental, refinement or atomic coordinate data resulting
# from the CCDC's data processing and validation procedures.
#
#######################################################################

data_CSD_CIF_HOFNEW
_audit_creation_date 2008-10-14
_audit_creation_method CSD-ConQuest-V1
_database_code_CSD HOFNEW
_database_code_depnum_ccdc_archive 'CCDC 702526'
_chemical_formula_sum 'C17 H14 N4 O4'
_chemical_formula_moiety
;
C17 H14 N4 O4
;
_journal_coeditor_code "IUCr BQ2091"
_journal_coden_Cambridge 1370
_journal_volume 64
_journal_year 2008
_journal_page_first o1777
_journal_name_full 'Acta Crystallogr.,Sect.E:Struct.Rep.Online '
loop_
_publ_author_name
"S.Puvaneswary"
"H.M.Ali"
"W.T.Robinson"
"S.W.Ng"
_chemical_name_systematic
;
N'-(2-Hydroxy-5-nitrobenzylidene)-2-(1H-indol-3-yl)acetohydrazide
;
_cell_volume   3202.023
_exptl_crystal_colour 'yellow'
_exptl_crystal_density_diffrn 1.404
_exptl_crystal_description 'Irregular block'
_diffrn_ambient_temperature 100
#These two values have been output from a single CSD field.
_refine_ls_R_factor_gt 0.0442
_refine_ls_wR_factor_gt 0.0442
_symmetry_cell_setting orthorhombic
_symmetry_space_group_name_H-M 'P b c a'
_symmetry_Int_Tables_number 61
loop_
_symmetry_equiv_pos_site_id
_symmetry_equiv_pos_as_xyz
1 x,y,z
2 1/2-x,-y,1/2+z
3 -x,1/2+y,1/2-z
4 1/2+x,1/2-y,-z
5 -x,-y,-z
6 -1/2+x,y,-1/2-z
7 x,-1/2-y,-1/2+z
8 -1/2-x,-1/2+y,z
_cell_length_a 9.5387(2)
_cell_length_b 11.2724(3)
_cell_length_c 29.7796(7)
_cell_angle_alpha 90
_cell_angle_beta 90
_cell_angle_gamma 90
_cell_formula_units_Z 8
loop_
_atom_type_symbol
_atom_type_radius_bond
C 0.68
H 0.23
N 0.68
O 0.68
loop_
_atom_site_label
_atom_site_type_symbol
_atom_site_fract_x
_atom_site_fract_y
_atom_site_fract_z
O1 O 0.76143(16) 0.34962(15) 0.66810(5)
H1 H 0.73440 0.40580 0.68450
O2 O 0.50825(18) 0.27110(16) 0.47819(5)
O3 O 0.36688(19) 0.40496(16) 0.50246(5)
O4 O 0.78329(15) 0.61201(15) 0.75230(5)
N1 N 0.4670(2) 0.33901(17) 0.50757(6)
N2 N 0.60812(15) 0.52866(14) 0.69094(5)
N3 N 0.56843(16) 0.61209(15) 0.72184(5)
H2 H 0.48210 0.63970 0.72230
N4 N 0.79603(19) 0.75966(17) 0.89103(6)
H3 H 0.85980 0.78790 0.90950
C1 C 0.6858(2) 0.34823(18) 0.63004(7)
C2 C 0.7229(2) 0.26733(18) 0.59698(8)
H4 H 0.79800 0.21370 0.60220
C3 C 0.6523(2) 0.26386(18) 0.55689(7)
H5 H 0.67870 0.20900 0.53420
C4 C 0.5426(2) 0.34134(17) 0.55005(6)
C5 C 0.5011(2) 0.42048(16) 0.58253(6)
H6 H 0.42370 0.47150 0.57720
C6 C 0.57211(19) 0.42584(16) 0.62300(6)
C7 C 0.53086(19) 0.51242(17) 0.65658(6)
H7 H 0.44680 0.55670 0.65300
C8 C 0.6644(2) 0.65087(18) 0.75150(6)
C9 C 0.6133(2) 0.7485(2) 0.78219(6)
H8 H 0.64270 0.82620 0.76990
H9 H 0.50950 0.74720 0.78320
C10 C 0.6695(2) 0.73543(17) 0.82885(6)
C11 C 0.7735(2) 0.7979(2) 0.84821(7)
H10 H 0.82420 0.86000 0.83400
C12 C 0.62245(19) 0.65262(16) 0.86168(7)
C13 C 0.5173(2) 0.56695(18) 0.86298(8)
H11 H 0.45990 0.55300 0.83740
C14 C 0.4978(3) 0.50326(19) 0.90151(9)
H12 H 0.42620 0.44470 0.90240
C15 C 0.5803(3) 0.5221(2) 0.93952(8)
H13 H 0.56400 0.47600 0.96570
C16 C 0.6847(2) 0.6062(2) 0.93974(7)
H14 H 0.74110 0.61940 0.96550
C17 C 0.7037(2) 0.67047(18) 0.90073(7)
#END
