
#######################################################################
#
#                 Cambridge Crystallographic Data Centre
#                                CCDC
#
#######################################################################
#
# If this CIF has been generated from an entry in the Cambridge
# Structural Database, then it will include bibliographic, chemical,
# crystal, experimental, refinement or atomic coordinate data resulting
# from the CCDC's data processing and validation procedures.
#
#######################################################################

data_CSD_CIF_HOFNEW01
_audit_creation_date 2010-11-24
_audit_creation_method CSD-ConQuest-V1
_database_code_CSD HOFNEW01
_database_code_depnum_ccdc_archive 'CCDC 763515'
_chemical_formula_sum 'C17 H14 N4 O4'
_chemical_formula_moiety
;
C17 H14 N4 O4
;
_journal_coden_Cambridge 119
_journal_volume 970
_journal_year 2010
_journal_page_first 147
_journal_name_full 'J.Mol.Struct. '
loop_
_publ_author_name
"K.Pyta"
"P.Przybylski"
"A.Huczynski"
"A.Hoser"
"K.Wozniak"
"W.Schilf"
"B.Kamienski"
"E.Grech"
"B.Brzezinski"
_chemical_name_systematic
;
N'-(2-Hydroxy-5-nitrobenzylidene)-2-(1H-indol-3-yl)acetohydrazide
;
_cell_volume   3141.314
_exptl_crystal_colour 'colorless'
_exptl_crystal_density_diffrn 1.431
_exptl_crystal_description 'prismatic'
_diffrn_ambient_temperature 100
#These two values have been output from a single CSD field.
_refine_ls_R_factor_gt 0.0357
_refine_ls_wR_factor_gt 0.0357
_symmetry_cell_setting orthorhombic
_symmetry_space_group_name_H-M 'P b c a'
_symmetry_Int_Tables_number 61
loop_
_symmetry_equiv_pos_site_id
_symmetry_equiv_pos_as_xyz
1 x,y,z
2 1/2-x,-y,1/2+z
3 -x,1/2+y,1/2-z
4 1/2+x,1/2-y,-z
5 -x,-y,-z
6 -1/2+x,y,-1/2-z
7 x,-1/2-y,-1/2+z
8 -1/2-x,-1/2+y,z
_cell_length_a 9.5435(7)
_cell_length_b 11.0932(8)
_cell_length_c 29.672(2)
_cell_angle_alpha 90
_cell_angle_beta 90
_cell_angle_gamma 90
_cell_formula_units_Z 8
loop_
_atom_type_symbol
_atom_type_radius_bond
C 0.68
H 0.23
N 0.68
O 0.68
loop_
_atom_site_label
_atom_site_type_symbol
_atom_site_fract_x
_atom_site_fract_y
_atom_site_fract_z
N1 N 0.10552(10) 0.03424(9) 0.30977(3)
O1 O 0.25926(10) -0.14763(9) 0.33260(3)
O2 O 0.28211(9) 0.11927(9) 0.24803(3)
N2 N 0.06552(11) 0.1190(1) 0.27864(3)
O3 O -0.13562(10) -0.09126(8) 0.49931(3)
C1 C 0.03992(13) -0.15636(11) 0.45156(4)
C2 C 0.02736(12) 0.01815(11) 0.34444(4)
N3 N -0.03439(11) -0.15882(10) 0.49432(4)
C3 C 0.06961(12) -0.06984(11) 0.37822(4)
O4 O 0.00726(10) -0.22763(9) 0.52415(3)
C4 C -0.00212(13) -0.07533(11) 0.41895(4)
C5 C 0.11962(13) 0.15661(11) 0.13740(4)
C6 C 0.22076(14) -0.23207(12) 0.40426(5)
N4 N 0.29419(12) 0.26564(10) 0.10775(4)
C7 C 0.16651(13) 0.24206(11) 0.17042(4)
C8 C 0.16205(13) 0.15768(12) 0.24858(4)
C9 C 0.18234(15) 0.10709(12) 0.05907(5)
C10 C 0.20161(13) 0.17410(11) 0.09840(4)
C11 C 0.18354(13) -0.14952(11) 0.37104(4)
C12 C 0.11044(15) 0.25613(13) 0.21721(4)
C13 C 0.01334(14) 0.06862(12) 0.13680(5)
C14 C 0.07807(14) 0.02139(12) 0.05957(5)
C15 C 0.15035(13) -0.23568(11) 0.44465(4)
C16 C 0.27179(14) 0.30622(12) 0.15097(4)
C17 C -0.00553(15) 0.00267(13) 0.09807(5)
H1 H -0.0483(12) 0.0582(11) 0.1644(4)
H2 H -0.0809(14) -0.0231(12) 0.4252(4)
H3 H 0.2389(14) 0.1224(11) 0.0332(4)
H4 H -0.0583(14) 0.0608(12) 0.3488(4)
H5 H 0.0128(15) 0.2551(12) 0.2183(4)
H6 H 0.1771(15) -0.2919(12) 0.4683(4)
H7 H 0.1429(15) 0.3359(14) 0.2298(5)
H8 H -0.0192(16) 0.1356(13) 0.2761(4)
H9 H 0.2982(15) -0.2864(12) 0.3976(4)
H10 H 0.3297(16) 0.3709(12) 0.1635(5)
H11 H -0.0816(15) -0.0589(14) 0.0962(5)
H12 H 0.0593(15) -0.0258(14) 0.0330(5)
H13 H 0.3541(17) 0.2959(14) 0.0892(5)
H14 H 0.2246(19) -0.0853(17) 0.3157(6)
#END
