
#######################################################################
#
#                 Cambridge Crystallographic Data Centre
#                                CCDC
#
#######################################################################
#
# If this CIF has been generated from an entry in the Cambridge
# Structural Database, then it will include bibliographic, chemical,
# crystal, experimental, refinement or atomic coordinate data resulting
# from the CCDC's data processing and validation procedures.
#
#######################################################################

data_CSD_CIF_HOGYAE
_audit_creation_date 2009-03-13
_audit_creation_method CSD-ConQuest-V1
_database_code_CSD HOGYAE
_database_code_depnum_ccdc_archive 'CCDC 707572'
_chemical_formula_sum 'C20 H19 N3 O2'
_chemical_formula_moiety
;
C20 H19 N3 O2
;
_journal_coden_Cambridge 392
_journal_volume 74
_journal_year 2007
_journal_page_first 553
_journal_name_full 'Heterocycles '
loop_
_publ_author_name
"Hongyan Li"
"Linfeng You"
"Xuejun Zhang"
"W.L.Johnson"
"R.Figueroa"
"R.P.Hsung"
_chemical_name_systematic
;
1,5-dimethyl-4-phenyl-3-(3-phenyl-1,2-oxazol-5-yl)imidazolidin-2-one
;
_chemical_melting_point 469.15
_cell_volume   1682.586
_exptl_crystal_colour 'colorless'
_exptl_crystal_density_diffrn 1.316
_exptl_special_details
;
Melting point range 469.15-471.15K

;
_exptl_crystal_description 'Needle'
_diffrn_ambient_temperature 173
#These two values have been output from a single CSD field.
_refine_ls_R_factor_gt 0.0311
_refine_ls_wR_factor_gt 0.0311
_symmetry_cell_setting orthorhombic
_symmetry_space_group_name_H-M 'P 21 21 21'
_symmetry_Int_Tables_number 19
loop_
_symmetry_equiv_pos_site_id
_symmetry_equiv_pos_as_xyz
1 x,y,z
2 1/2-x,-y,1/2+z
3 -x,1/2+y,1/2-z
4 1/2+x,1/2-y,-z
_cell_length_a 6.4999(12)
_cell_length_b 11.197(2)
_cell_length_c 23.119(4)
_cell_angle_alpha 90
_cell_angle_beta 90
_cell_angle_gamma 90
_cell_formula_units_Z 4
loop_
_atom_type_symbol
_atom_type_radius_bond
C 0.68
H 0.23
N 0.68
O 0.68
loop_
_atom_site_label
_atom_site_type_symbol
_atom_site_fract_x
_atom_site_fract_y
_atom_site_fract_z
O1 O 0.46465(17) 0.38365(10) 0.49328(5)
O2 O -0.02175(15) 0.27613(10) 0.38765(5)
N1 N 0.12865(19) 0.38537(11) 0.45953(5)
N2 N 0.2169(2) 0.51442(12) 0.52729(5)
N3 N 0.0274(2) 0.18874(11) 0.34492(6)
C1 C 0.2902(2) 0.42355(13) 0.49423(6)
C2 C -0.0067(2) 0.52314(14) 0.52413(7)
H1 H -0.06700 0.47310 0.55570
C3 C -0.0542(2) 0.46238(13) 0.46526(7)
H2 H -0.18070 0.41200 0.46870
C4 C 0.3316(3) 0.55971(16) 0.57664(7)
H3 H 0.47250 0.52870 0.57540
H4 H 0.26470 0.53380 0.61250
H5 H 0.33470 0.64720 0.57520
C5 C -0.0854(3) 0.64995(15) 0.53102(7)
H6 H -0.05550 0.67830 0.57020
H7 H -0.23430 0.65150 0.52450
H8 H -0.01720 0.70190 0.50280
C6 C -0.0753(2) 0.54727(13) 0.41438(6)
C7 C -0.2678(3) 0.57239(14) 0.39241(7)
H9 H -0.38560 0.53520 0.40880
C8 C -0.2912(3) 0.65153(15) 0.34654(7)
H10 H -0.42460 0.66880 0.33200
C9 C -0.1215(3) 0.70485(15) 0.32225(7)
H11 H -0.13730 0.75830 0.29060
C10 C 0.0714(3) 0.68066(15) 0.34383(7)
H12 H 0.18880 0.71790 0.32730
C11 C 0.0946(3) 0.60208(14) 0.38962(7)
H13 H 0.22830 0.58550 0.40420
C12 C 0.1523(2) 0.30286(13) 0.41619(7)
C13 C 0.3132(2) 0.23992(12) 0.39539(6)
H14 H 0.45280 0.24250 0.40750
C14 C 0.2247(2) 0.16922(12) 0.35128(6)
C15 C 0.3282(3) 0.08133(13) 0.31325(6)
C16 C 0.2167(3) -0.01279(14) 0.28880(7)
H15 H 0.07560 -0.02310 0.29830
C17 C 0.3116(3) -0.09095(15) 0.25082(7)
H16 H 0.23490 -0.15440 0.23410
C18 C 0.5161(3) -0.07730(15) 0.23715(8)
H17 H 0.58000 -0.13070 0.21070
C19 C 0.6292(3) 0.01467(15) 0.26201(7)
H18 H 0.77090 0.02370 0.25290
C20 C 0.5353(2) 0.09345(14) 0.30021(7)
H19 H 0.61330 0.15580 0.31740
#END
