
#######################################################################
#
#                 Cambridge Crystallographic Data Centre
#                                CCDC
#
#######################################################################
#
# If this CIF has been generated from an entry in the Cambridge
# Structural Database, then it will include bibliographic, chemical,
# crystal, experimental, refinement or atomic coordinate data resulting
# from the CCDC's data processing and validation procedures.
#
#######################################################################

data_CSD_CIF_HOHCIR
_audit_creation_date 2009-03-13
_audit_creation_method CSD-ConQuest-V1
_database_code_CSD HOHCIR
_database_code_depnum_ccdc_archive 'CCDC 632025'
_chemical_formula_sum 'C16 H15 N3 O4'
_chemical_formula_moiety
;
C16 H15 N3 O4
;
_journal_coden_Cambridge 1090
_journal_volume 19
_journal_year 2008
_journal_page_first 2078
_journal_name_full 'Tetrahedron:Asymm. '
loop_
_publ_author_name
"Lijun Peng"
"Jiantao Wang"
"Chuanmin Sun"
"Zhongquan Liu"
"Longmin Wu"
_chemical_name_systematic
;
(2S,4S)-4-benzyl-2-(4-nitrophenyl)-3-nitroso-1,3-oxazolidine
;
_chemical_melting_point 342.15
_cell_volume    740.994
_exptl_crystal_density_diffrn 1.4
_diffrn_ambient_temperature 294
#These two values have been output from a single CSD field.
_refine_ls_R_factor_gt 0.0423
_refine_ls_wR_factor_gt 0.0423
_symmetry_cell_setting monoclinic
_symmetry_space_group_name_H-M 'P 21'
_symmetry_Int_Tables_number 4
loop_
_symmetry_equiv_pos_site_id
_symmetry_equiv_pos_as_xyz
1 x,y,z
2 -x,1/2+y,-z
_cell_length_a 6.7170(3)
_cell_length_b 13.5145(7)
_cell_length_c 8.2169(4)
_cell_angle_alpha 90
_cell_angle_beta 96.578(2)
_cell_angle_gamma 90
_cell_formula_units_Z 2
loop_
_atom_type_symbol
_atom_type_radius_bond
C 0.68
H 0.23
N 0.68
O 0.68
loop_
_atom_site_label
_atom_site_type_symbol
_atom_site_fract_x
_atom_site_fract_y
_atom_site_fract_z
C1 C 0.0363(5) 0.1321(2) 0.8170(4)
C2 C 0.6249(5) 0.0364(3) 0.2994(4)
H1 H 0.76290 0.01550 0.32650
H2 H 0.61710 0.07980 0.20490
C3 C 0.3447(4) 0.0859(2) 0.4017(3)
H3 H 0.30430 0.13710 0.32000
C4 C 0.2402(4) 0.1027(2) 0.5509(3)
C5 C 0.0488(4) 0.1414(2) 0.5313(3)
H4 H -0.00970 0.15880 0.42720
C6 C 0.2287(5) 0.0968(3) 0.8416(4)
H5 H 0.28960 0.08380 0.94680
C7 C 0.3303(5) 0.0807(3) 0.7074(4)
H6 H 0.45960 0.05510 0.72170
C8 C -0.0570(5) 0.1546(2) 0.6642(3)
H7 H -0.18790 0.17820 0.65050
C9 C 0.6052(5) -0.1466(2) 0.5330(4)
C10 C 0.7946(6) -0.1234(3) 0.6103(5)
H8 H 0.89610 -0.10700 0.54710
C11 C 0.4881(5) -0.0526(3) 0.2651(4)
H9 H 0.46180 -0.06290 0.14650
C12 C 0.5631(5) -0.1493(3) 0.3482(4)
H10 H 0.46390 -0.20030 0.31860
H11 H 0.68510 -0.16880 0.30410
C13 C 0.4570(6) -0.1705(3) 0.6303(5)
H12 H 0.32860 -0.18580 0.58210
C14 C 0.8352(7) -0.1239(3) 0.7790(5)
H13 H 0.96240 -0.10740 0.82840
C15 C 0.4998(8) -0.1717(3) 0.8005(6)
H14 H 0.39980 -0.18800 0.86530
C16 C 0.6879(9) -0.1490(3) 0.8726(5)
H15 H 0.71560 -0.15060 0.98610
N1 N -0.0765(5) 0.1476(2) 0.9575(3)
N2 N 0.1225(4) -0.0452(2) 0.2908(4)
N3 N 0.3067(4) -0.0136(2) 0.3272(3)
O1 O 0.0135(4) 0.1409(3) 1.0948(3)
O2 O -0.2547(4) 0.1656(2) 0.9335(3)
O3 O 0.1081(4) -0.1216(2) 0.2055(3)
O4 O 0.5527(3) 0.08575(18) 0.4366(2)
#END
