
#######################################################################
#
#                 Cambridge Crystallographic Data Centre
#                                CCDC
#
#######################################################################
#
# If this CIF has been generated from an entry in the Cambridge
# Structural Database, then it will include bibliographic, chemical,
# crystal, experimental, refinement or atomic coordinate data resulting
# from the CCDC's data processing and validation procedures.
#
#######################################################################

data_CSD_CIF_HOHDUE
_audit_creation_date 2009-03-13
_audit_creation_method CSD-ConQuest-V1
_database_code_CSD HOHDUE
_database_code_depnum_ccdc_archive 'CCDC 695851'
_chemical_formula_sum 'C26 H16 N4 O12'
_chemical_formula_moiety
;
C26 H16 N4 O12
;
_journal_coden_Cambridge 24
_journal_volume 49
_journal_year 2008
_journal_page_first 6831
_journal_name_full 'Tetrahedron Lett. '
loop_
_publ_author_name
"H.Konishi"
"T.Mita"
"Y.Yasukawa"
"O.Morikawa"
"K.Kobayashi"
_chemical_name_systematic
;
syn-1^2^,5^2^-dimethyl-3^4^,3^6^,7^4^,7^6^-tetranitro-1,3,5,7(1,3)-tetrabenzen
acyclooctaphane
;
_chemical_name_common
;
syn-2,8,14,20-tetraoxa-25,27-dimethyl-4,6,16,18-tetranitrocalix(4)arene
;
_cell_volume   2425.022
_exptl_crystal_colour 'colorless'
_exptl_crystal_density_diffrn 1.579
_exptl_crystal_description 'prism'
_exptl_crystal_preparation 'nitrobenzene'
_diffrn_ambient_temperature 173
#These two values have been output from a single CSD field.
_refine_ls_R_factor_gt 0.0507
_refine_ls_wR_factor_gt 0.0507
_symmetry_cell_setting monoclinic
_symmetry_space_group_name_H-M 'P 21/a'
_symmetry_Int_Tables_number 14
loop_
_symmetry_equiv_pos_site_id
_symmetry_equiv_pos_as_xyz
1 x,y,z
2 1/2-x,1/2+y,-z
3 -x,-y,-z
4 -1/2+x,-1/2-y,z
_cell_length_a 11.525(2)
_cell_length_b 11.090(2)
_cell_length_c 19.061(4)
_cell_angle_alpha 90
_cell_angle_beta 95.498(7)
_cell_angle_gamma 90
_cell_formula_units_Z 4
loop_
_atom_type_symbol
_atom_type_radius_bond
C 0.68
H 0.23
N 0.68
O 0.68
loop_
_atom_site_label
_atom_site_type_symbol
_atom_site_fract_x
_atom_site_fract_y
_atom_site_fract_z
O1 O 0.30238(13) 0.39591(14) 0.08075(7)
O2 O 0.27129(12) 0.71310(13) 0.38266(8)
O3 O 0.52572(12) 0.40449(14) 0.30742(8)
O4 O 0.02963(13) 0.67866(14) 0.16223(8)
N1 N 0.69741(15) 0.46611(16) 0.41387(10)
O5 O -0.04603(15) 0.79303(16) -0.04048(9)
N2 N 0.24711(16) 0.47710(17) -0.06144(9)
O6 O 0.72834(14) 0.42535(16) 0.47257(9)
O7 O 0.20267(16) 0.50280(16) -0.12053(8)
N3 N -0.04175(16) 0.74914(17) 0.0190(1)
C1 C -0.00486(18) 0.5528(2) 0.26008(12)
H1 H -0.06630 0.51690 0.23250
N4 N 0.44367(16) 0.77707(17) 0.49482(10)
C2 C 0.16529(18) 0.53603(19) 0.12200(11)
H2 H 0.18430 0.51020 0.16810
C3 C 0.08141(18) 0.62516(19) 0.10912(11)
O8 O 0.33455(15) 0.41483(17) -0.05080(9)
C4 C 0.41690(18) 0.40437(19) 0.19301(11)
O9 O 0.75255(14) 0.45647(17) 0.36267(9)
C5 C 0.06239(17) 0.64043(19) 0.23218(11)
C6 C 0.43211(17) 0.35883(19) 0.26153(11)
C7 C 0.56547(18) 0.62079(19) 0.45106(11)
H3 H 0.62110 0.63940 0.48810
C8 C 0.58602(17) 0.53073(19) 0.40444(11)
O10 O 0.37415(16) 0.85823(16) 0.47877(10)
C9 C 0.22181(18) 0.48400(19) 0.06828(11)
C10 C 0.39638(17) 0.5590(2) 0.34354(11)
H4 H 0.33910 0.53650 0.30830
O11 O -0.11197(15) 0.77147(17) 0.06112(9)
O12 O 0.49894(17) 0.76918(18) 0.55230(9)
C11 C 0.15695(17) 0.69653(19) 0.27021(11)
C12 C 0.25175(19) 0.2659(2) 0.17312(12)
H5 H 0.19130 0.23450 0.14270
C13 C 0.50194(17) 0.49773(19) 0.35024(11)
C14 C 0.10758(18) 0.61229(19) -0.01494(11)
H6 H 0.08840 0.63830 -0.06100
C15 C 0.46139(18) 0.68382(19) 0.44260(11)
C16 C 0.17847(17) 0.65854(19) 0.34009(11)
C17 C 0.32325(18) 0.35485(19) 0.15074(10)
C18 C 0.05138(18) 0.66174(18) 0.03914(11)
C19 C 0.11293(18) 0.5721(2) 0.37039(12)
H7 H 0.13050 0.54990 0.41730
C20 C 0.19217(18) 0.52434(19) -0.00124(11)
C21 C 0.36220(19) 0.2710(2) 0.28647(12)
H8 H 0.37570 0.24360 0.33260
C22 C 0.37486(17) 0.65302(19) 0.38833(11)
C23 C 0.02080(19) 0.5191(2) 0.33004(12)
H9 H -0.02410 0.46070 0.34970
C24 C 0.2716(2) 0.2241(2) 0.24175(12)
H10 H 0.22390 0.16450 0.25780
C25 C 0.4935(2) 0.5005(2) 0.16751(13)
H11 H 0.46890 0.51880 0.11910
H12 H 0.57280 0.47270 0.17140
H13 H 0.48810 0.57170 0.19560
C26 C 0.2323(2) 0.7876(2) 0.23862(13)
H14 H 0.29180 0.81460 0.27380
H15 H 0.18550 0.85510 0.22160
H16 H 0.26780 0.75160 0.20020
#END
