
#######################################################################
#
#                 Cambridge Crystallographic Data Centre
#                                CCDC
#
#######################################################################
#
# If this CIF has been generated from an entry in the Cambridge
# Structural Database, then it will include bibliographic, chemical,
# crystal, experimental, refinement or atomic coordinate data resulting
# from the CCDC's data processing and validation procedures.
#
#######################################################################

data_CSD_CIF_HOHFIU
_audit_creation_date 2009-03-13
_audit_creation_method CSD-ConQuest-V1
_database_code_CSD HOHFIU
_database_code_depnum_ccdc_archive 'CCDC 691500'
_chemical_formula_sum 'C29 H26 N4 O8'
_chemical_formula_moiety
;
C29 H26 N4 O8
;
_journal_coden_Cambridge 24
_journal_volume 49
_journal_year 2008
_journal_page_first 5480
_journal_name_full 'Tetrahedron Lett. '
loop_
_publ_author_name
"Bor-Cherng Hong"
"Kwan-Liang Liu"
"Chih-Wei Tsai"
"Ju-Hsiou Liao"
_chemical_name_systematic
;
(2-(2-nitrophenyl)-3-(2-(2-nitrophenyl)ethenyl)hexahydro-1H-pyrrolizin-1-yl)me
thyl 4-nitrobenzoate
;
_cell_volume   5406.194
_exptl_crystal_colour 'colorless'
_exptl_crystal_density_diffrn 1.372
_exptl_crystal_description 'parallelepiped'
_diffrn_ambient_temperature 298
_refine_special_details
;
Two nitro O atoms are disordered over two sites with occupancies of 
0.585:0.415.
;
#These two values have been output from a single CSD field.
_refine_ls_R_factor_gt 0.1398
_refine_ls_wR_factor_gt 0.1398
_symmetry_cell_setting monoclinic
_symmetry_space_group_name_H-M 'C 2/c'
_symmetry_Int_Tables_number 15
loop_
_symmetry_equiv_pos_site_id
_symmetry_equiv_pos_as_xyz
1 x,y,z
2 1/2+x,1/2+y,z
3 -x,y,1/2-z
4 1/2-x,1/2+y,1/2-z
5 -x,-y,-z
6 -1/2-x,-1/2-y,-z
7 x,-y,-1/2+z
8 -1/2+x,-1/2-y,-1/2+z
_cell_length_a 24.094(5)
_cell_length_b 15.547(3)
_cell_length_c 16.556(3)
_cell_angle_alpha 90
_cell_angle_beta 119.34(3)
_cell_angle_gamma 90
_cell_formula_units_Z 8
loop_
_atom_type_symbol
_atom_type_radius_bond
C 0.68
H 0.23
N 0.68
O 0.68
loop_
_atom_site_label
_atom_site_type_symbol
_atom_site_fract_x
_atom_site_fract_y
_atom_site_fract_z
C1 C 0.0408(3) 0.0247(4) 0.1521(5)
H1 H 0.00760 0.02960 0.08800
H2 H 0.02430 0.04490 0.19170
C2 C 0.0635(3) -0.0668(4) 0.1751(5)
H3 H 0.02890 -0.10690 0.14120
H4 H 0.08180 -0.07770 0.24100
C3 C 0.1133(3) -0.0741(4) 0.1453(5)
H5 H 0.09380 -0.08520 0.07930
H6 H 0.14330 -0.11970 0.17880
C4 C 0.1456(3) 0.0135(3) 0.1697(4)
H7 H 0.18170 0.01090 0.23290
C5 C 0.1684(2) 0.0523(3) 0.1070(4)
H8 H 0.14230 0.02910 0.04430
C6 C 0.1518(2) 0.1476(3) 0.1065(3)
H9 H 0.18150 0.17240 0.16690
C7 C 0.0860(3) 0.1405(3) 0.0993(4)
H10 H 0.05540 0.11890 0.03770
C8 C 0.2370(3) 0.0387(3) 0.1356(4)
H11 H 0.24850 0.07300 0.09720
H12 H 0.26350 0.05610 0.19960
C9 C 0.1528(3) 0.2029(3) 0.0315(4)
C10 C 0.1209(3) 0.1780(4) -0.0616(4)
H13 H 0.10100 0.12460 -0.07770
C11 C 0.1185(3) 0.2308(4) -0.1297(4)
H14 H 0.09720 0.21210 -0.19090
C12 C 0.1462(3) 0.3096(4) -0.1103(4)
H15 H 0.14390 0.34440 -0.15760
C13 C 0.1776(3) 0.3370(3) -0.0204(4)
H16 H 0.19660 0.39100 -0.00560
C14 C 0.1806(2) 0.2834(3) 0.0480(4)
C15 C 0.0623(3) 0.2231(3) 0.1159(4)
H17 H 0.08090 0.24340 0.17640
C16 C 0.0172(3) 0.2689(4) 0.0511(4)
H18 H -0.00350 0.24440 -0.00760
C17 C -0.0048(3) 0.3546(4) 0.0600(4)
C18 C 0.0303(3) 0.4031(4) 0.1398(5)
H19 H 0.06760 0.37970 0.18720
C19 C 0.0125(4) 0.4834(4) 0.1519(5)
H20 H 0.03730 0.51320 0.20680
C20 C -0.0413(4) 0.5199(4) 0.0837(6)
H21 H -0.05310 0.57500 0.09120
C21 C -0.0790(3) 0.4741(5) 0.0020(6)
H22 H -0.11660 0.49740 -0.04480
C22 C -0.0591(3) 0.3947(4) -0.0073(5)
C23 C 0.3312(3) -0.3368(4) 0.1133(4)
C24 C 0.2782(3) -0.3121(4) 0.1180(4)
H23 H 0.24940 -0.35280 0.11640
C25 C 0.2686(3) -0.2260(4) 0.1252(4)
H24 H 0.23280 -0.20810 0.12810
C26 C 0.3116(2) -0.1660(4) 0.1282(3)
C27 C 0.3647(3) -0.1930(4) 0.1231(4)
H25 H 0.39380 -0.15270 0.12500
C28 C 0.3745(3) -0.2789(4) 0.1154(4)
H26 H 0.40990 -0.29730 0.11160
C29 C 0.3038(3) -0.0717(4) 0.1375(4)
N1 N 0.0972(2) 0.0739(3) 0.1686(3)
N2 N 0.2164(3) 0.3180(3) 0.1424(4)
N3 N -0.1010(4) 0.3511(5) -0.0975(6)
N4 N 0.3411(3) -0.4289(4) 0.1041(3)
O1 O 0.2611(2) 0.2763(3) 0.1999(3)
O2 O 0.2003(3) 0.3845(3) 0.1595(4)
O3 O -0.0699(5) 0.3148(6) -0.1399(6)
O4 O -0.1554(9) 0.3568(16) -0.1416(17)
O5 O 0.2991(2) -0.4793(3) 0.0921(3)
O6 O 0.3917(2) -0.4506(3) 0.1100(3)
O7 O 0.24676(17) -0.0519(2) 0.1253(3)
O8 O 0.3444(2) -0.0206(3) 0.1532(4)
O9? O -0.1142(6) 0.2764(10) -0.0774(10)
O10? O -0.1378(13) 0.3937(19) -0.147(2)
#END
