
#######################################################################
#
#                 Cambridge Crystallographic Data Centre
#                                CCDC
#
#######################################################################
#
# If this CIF has been generated from an entry in the Cambridge
# Structural Database, then it will include bibliographic, chemical,
# crystal, experimental, refinement or atomic coordinate data resulting
# from the CCDC's data processing and validation procedures.
#
#######################################################################

data_CSD_CIF_HOHMEW
_audit_creation_date 1999-10-14
_audit_creation_method CSD-ConQuest-V1
_database_code_CSD HOHMEW
_chemical_formula_sum 'C17 H20 N4 O2'
_chemical_formula_moiety
;
C17 H20 N4 O2
;
_journal_coden_Cambridge 574
_journal_volume 23
_journal_year 1993
_journal_page_first 159
_journal_name_full 'Dyes Pigm. '
loop_
_publ_author_name
"S.J.Maginn"
"J.F.Bullock"
"R.Docherty"
_chemical_name_systematic
;
2'-Methyl-4'-diethylamino-4-nitroazobenzene
;
_cell_volume   1675.722
_exptl_crystal_colour 'pink'
_exptl_special_details
;
y(H16) is given as 0.650, we calculate 0.0650

;
_exptl_crystal_description 'plates'
_exptl_crystal_preparation 'ethanol'
_diffrn_ambient_temperature ?
_diffrn_special_details
;
The study was carried out at room temperature,in the range 283-303K

;
#These two values have been output from a single CSD field.
_refine_ls_R_factor_gt 0.08
_refine_ls_wR_factor_gt 0.08
_symmetry_cell_setting monoclinic
_symmetry_space_group_name_H-M 'P 21/a'
_symmetry_Int_Tables_number 14
loop_
_symmetry_equiv_pos_site_id
_symmetry_equiv_pos_as_xyz
1 x,y,z
2 1/2-x,1/2+y,-z
3 -x,-y,-z
4 -1/2+x,-1/2-y,z
_cell_length_a 13.049(12)
_cell_length_b 7.925(4)
_cell_length_c 16.754(7)
_cell_angle_alpha 90
_cell_angle_beta 104.72(5)
_cell_angle_gamma 90
_cell_formula_units_Z 4
loop_
_atom_type_symbol
_atom_type_radius_bond
C 0.68
H 0.23
N 0.68
O 0.68
loop_
_atom_site_label
_atom_site_type_symbol
_atom_site_fract_x
_atom_site_fract_y
_atom_site_fract_z
O1 O 0.744(1) 0.024(2) 0.1463(7)
O2 O 0.634(1) 0.226(2) 0.1248(6)
N1 N 0.6632(8) 0.068(1) 0.5016(5)
N2 N 0.5914(8) 0.154(1) 0.5202(5)
N3 N 0.687(1) 0.121(2) 0.1697(8)
N4 N 0.580(1) 0.139(2) 0.8523(6)
C1 C 0.434(1) 0.335(2) 0.5681(7)
C2 C 0.493(1) 0.224(2) 0.8798(9)
C3 C 0.526(1) 0.406(3) 0.899(1)
C4 C 0.664(1) 0.060(2) 0.918(1)
C5 C 0.633(1) -0.117(2) 0.927(1)
H1 H 0.78990 -0.06620 0.42990
H2 H 0.80440 -0.04320 0.29360
H3 H 0.55220 0.27500 0.24060
H4 H 0.53770 0.25210 0.37680
H5 H 0.46190 0.29830 0.72890
H6 H 0.71300 -0.02180 0.78500
H7 H 0.71790 -0.02470 0.64600
H8 H 0.44310 0.45670 0.58320
H9 H 0.44540 0.32940 0.51330
H10 H 0.36470 0.30600 0.56620
H11 H 0.42340 0.23080 0.83700
H12 H 0.47210 0.17520 0.92750
H13 H 0.58980 0.40490 0.94600
H14 H 0.54110 0.46060 0.85550
H15 H 0.47450 0.47270 0.92000
H16 H 0.73170 0.06500 0.90430
H17 H 0.67490 0.12110 0.97070
H18 H 0.56390 -0.11850 0.94140
H19 H 0.62100 -0.17460 0.87510
H20 H 0.68110 -0.17740 0.96770
C6 C 0.6623(8) 0.091(1) 0.4165(4)
C7 C 0.7396(6) -0.001(1) 0.3914(5)
C8 C 0.7476(6) 0.010(1) 0.3101(6)
C9 C 0.6784(8) 0.114(1) 0.2540(4)
C10 C 0.6011(6) 0.207(1) 0.2791(5)
C11 C 0.5931(6) 0.195(1) 0.3604(6)
C12 C 0.5915(7) 0.140(1) 0.6037(3)
C13 C 0.5150(6) 0.235(1) 0.6284(5)
C14 C 0.5113(5) 0.235(1) 0.7109(5)
C15 C 0.5842(7) 0.139(1) 0.7687(3)
C16 C 0.6607(6) 0.044(1) 0.7440(4)
C17 C 0.6644(5) 0.045(1) 0.6615(5)
#END
