
#######################################################################
#
#                 Cambridge Crystallographic Data Centre
#                                CCDC
#
#######################################################################
#
# If this CIF has been generated from an entry in the Cambridge
# Structural Database, then it will include bibliographic, chemical,
# crystal, experimental, refinement or atomic coordinate data resulting
# from the CCDC's data processing and validation procedures.
#
#######################################################################

data_CSD_CIF_HOHMIA
_audit_creation_date 1999-10-14
_audit_creation_method CSD-ConQuest-V1
_database_code_CSD HOHMIA
_chemical_formula_sum 'C17 H17 N5 O2'
_chemical_formula_moiety
;
C17 H17 N5 O2
;
_journal_coden_Cambridge 574
_journal_volume 23
_journal_year 1993
_journal_page_first 159
_journal_name_full 'Dyes Pigm. '
loop_
_publ_author_name
"S.J.Maginn"
"J.F.Bullock"
"R.Docherty"
_chemical_name_systematic
;
2-Cyano-4'-diethylamino-4-nitroazobenzene
;
_cell_volume    832.546
_exptl_crystal_colour 'deep blue'
_exptl_crystal_description 'long needles'
_diffrn_ambient_temperature ?
_diffrn_special_details
;
The study was carried out at room temperature,in the range 283-303K

;
#These two values have been output from a single CSD field.
_refine_ls_R_factor_gt 0.054
_refine_ls_wR_factor_gt 0.054
_symmetry_cell_setting triclinic
_symmetry_space_group_name_H-M 'P -1'
_symmetry_Int_Tables_number 2
loop_
_symmetry_equiv_pos_site_id
_symmetry_equiv_pos_as_xyz
1 x,y,z
2 -x,-y,-z
_cell_length_a 10.086(5)
_cell_length_b 11.445(2)
_cell_length_c 7.500(1)
_cell_angle_alpha 100.86(2)
_cell_angle_beta 96.21(3)
_cell_angle_gamma 79.10(3)
_cell_formula_units_Z 2
loop_
_atom_type_symbol
_atom_type_radius_bond
C 0.68
H 0.23
N 0.68
O 0.68
loop_
_atom_site_label
_atom_site_type_symbol
_atom_site_fract_x
_atom_site_fract_y
_atom_site_fract_z
O1 O 0.8598(4) 0.8821(3) 0.7049(5)
O2 O 0.6581(4) 0.9876(3) 0.7050(5)
N1 N 0.5337(4) 0.4906(3) 0.2534(5)
N2 N 0.4056(4) 0.5078(3) 0.2229(5)
N3 N 0.7384(6) 0.8932(4) 0.6648(5)
N4 N 0.1534(4) 0.1331(3) -0.1595(5)
N5 N 0.8822(5) 0.3876(4) 0.3126(7)
C1 C 0.8074(5) 0.4737(5) 0.3496(7)
C2 C 0.0070(5) 0.1416(5) -0.1587(8)
C3 C -0.0709(6) 0.2028(6) -0.307(1)
C4 C 0.2223(5) 0.0226(4) -0.2635(6)
C5 C 0.2540(6) -0.0819(5) -0.1653(8)
C6 C 0.5785(4) 0.5953(4) 0.3583(6)
C7 C 0.7177(4) 0.5869(4) 0.4050(6)
C8 C 0.7703(4) 0.6844(4) 0.5085(6)
C9 C 0.6832(4) 0.7892(4) 0.5604(6)
C10 C 0.5454(5) 0.8007(4) 0.5155(6)
C11 C 0.4938(5) 0.7038(4) 0.4165(6)
C12 C 0.3530(4) 0.4104(4) 0.1211(6)
C13 C 0.2118(5) 0.4254(4) 0.1007(6)
C14 C 0.1463(4) 0.3342(4) 0.0106(6)
C15 C 0.2192(4) 0.2229(4) -0.0689(6)
C16 C 0.3621(4) 0.2092(4) -0.0488(5)
C17 C 0.4260(4) 0.3005(4) 0.0446(6)
H1 H -0.01740 0.06260 -0.16660
H2 H -0.02430 0.18700 -0.03960
H3 H -0.04960 0.28350 -0.29660
H4 H -0.04200 0.15910 -0.42390
H5 H -0.16560 0.20990 -0.30880
H6 H 0.16630 -0.00070 -0.37530
H7 H 0.30530 0.03610 -0.30380
H8 H 0.17390 -0.10160 -0.12820
H9 H 0.30030 -0.15500 -0.23720
H10 H 0.31280 -0.06470 -0.05640
H11 H 0.86490 0.67750 0.53700
H12 H 0.48560 0.87530 0.55520
H13 H 0.39760 0.70970 0.38400
H14 H 0.15990 0.50100 0.15660
H15 H 0.04930 0.34500 -0.00050
H16 H 0.41310 0.13290 -0.10360
H17 H 0.52370 0.28890 0.05340
#END
