
#######################################################################
#
#                 Cambridge Crystallographic Data Centre
#                                CCDC
#
#######################################################################
#
# If this CIF has been generated from an entry in the Cambridge
# Structural Database, then it will include bibliographic, chemical,
# crystal, experimental, refinement or atomic coordinate data resulting
# from the CCDC's data processing and validation procedures.
#
#######################################################################

data_CSD_CIF_HOHPOK
_audit_creation_date 2009-03-13
_audit_creation_method CSD-ConQuest-V1
_database_code_CSD HOHPOK
_database_code_depnum_ccdc_archive 'CCDC 707402'
_chemical_formula_sum 'C20 H18 N2 O6'
_chemical_formula_moiety
;
C20 H18 N2 O6
;
_journal_coden_Cambridge 35
_journal_volume 73
_journal_year 2008
_journal_page_first 6905
_journal_name_full 'J.Org.Chem. '
loop_
_publ_author_name
"T.Sasada"
"N.Sakai"
"T.Konakahara"
_chemical_name_systematic
;
dimethyl 
6-(4-methoxyphenyl)-5-(3-methyl-1,2-oxazol-5-yl)pyridine-3,4-dicarboxylate
;
_cell_volume   1807.929
_exptl_crystal_colour 'colorless'
_exptl_crystal_density_diffrn 1.405
_exptl_crystal_description 'Plate'
_diffrn_ambient_temperature 273
#These two values have been output from a single CSD field.
_refine_ls_R_factor_gt 0.1298
_refine_ls_wR_factor_gt 0.1298
_symmetry_cell_setting monoclinic
_symmetry_space_group_name_H-M 'P 21/c'
_symmetry_Int_Tables_number 14
loop_
_symmetry_equiv_pos_site_id
_symmetry_equiv_pos_as_xyz
1 x,y,z
2 -x,1/2+y,1/2-z
3 -x,-y,-z
4 x,-1/2-y,-1/2+z
_cell_length_a 6.7232(10)
_cell_length_b 24.783(4)
_cell_length_c 10.9025(16)
_cell_angle_alpha 90
_cell_angle_beta 95.596(2)
_cell_angle_gamma 90
_cell_formula_units_Z 4
loop_
_atom_type_symbol
_atom_type_radius_bond
C 0.68
H 0.23
N 0.68
O 0.68
loop_
_atom_site_label
_atom_site_type_symbol
_atom_site_fract_x
_atom_site_fract_y
_atom_site_fract_z
O1 O 0.4229(5) 0.71327(14) 0.3071(3)
O2 O -0.0415(6) 0.70345(15) 0.0946(4)
O3 O 0.0961(6) 0.66686(16) -0.0663(3)
O4 O -0.2050(6) 0.51033(16) 0.0721(4)
O5 O -0.2278(6) 0.59481(16) -0.0007(4)
N1 N 0.3349(7) 0.54135(17) 0.2690(4)
O6 O 1.1576(6) 0.60342(18) 0.5623(4)
N2 N 0.5001(7) 0.76555(17) 0.2903(4)
C1 C 0.3281(7) 0.6322(2) 0.1950(4)
C2 C 0.7673(8) 0.6306(2) 0.3186(5)
H1 H 0.75040 0.65290 0.24980
C3 C 0.0616(8) 0.5715(2) 0.1266(5)
C4 C 0.4092(7) 0.68778(19) 0.1963(4)
C5 C 0.1489(7) 0.6225(2) 0.1228(4)
C6 C 0.0508(7) 0.6688(2) 0.0497(5)
C7 C 0.6127(7) 0.59563(18) 0.3457(4)
C8 C 0.9421(8) 0.6316(2) 0.3933(5)
H2 H 1.04340 0.65480 0.37450
C9 C 0.4197(8) 0.59020(19) 0.2670(4)
C10 C 0.9728(8) 0.5990(2) 0.4963(5)
C11 C 0.4675(7) 0.7205(2) 0.1092(4)
H3 H 0.47140 0.71320 0.02580
C12 C 0.5224(7) 0.7692(2) 0.1733(5)
C13 C 0.1626(8) 0.5329(2) 0.2023(5)
H4 H 0.10480 0.49890 0.20610
C14 C 0.8230(9) 0.5648(2) 0.5254(5)
H5 H 0.84140 0.54280 0.59480
C15 C 0.6447(8) 0.5633(2) 0.4501(5)
H6 H 0.54380 0.54020 0.46980
C16 C -0.1347(8) 0.5547(2) 0.0633(5)
C17 C -0.4235(8) 0.5822(2) -0.0613(5)
H7 H -0.40990 0.55720 -0.12740
H8 H -0.48620 0.61460 -0.09370
H9 H -0.50410 0.56620 -0.00300
C18 C 0.6046(10) 0.8196(2) 0.1212(5)
H10 H 0.63550 0.84520 0.18620
H11 H 0.50720 0.83470 0.06060
H12 H 0.72390 0.81100 0.08340
C19 C 0.0187(10) 0.7118(3) -0.1435(6)
H13 H -0.12360 0.71420 -0.14180
H14 H 0.04920 0.70610 -0.22670
H15 H 0.07950 0.74490 -0.11280
C20 C 1.1934(10) 0.5715(3) 0.6703(6)
H16 H 1.09960 0.58110 0.72760
H17 H 1.32690 0.57780 0.70720
H18 H 1.17790 0.53400 0.64910
#END
