
#######################################################################
#
#                 Cambridge Crystallographic Data Centre
#                                CCDC
#
#######################################################################
#
# If this CIF has been generated from an entry in the Cambridge
# Structural Database, then it will include bibliographic, chemical,
# crystal, experimental, refinement or atomic coordinate data resulting
# from the CCDC's data processing and validation procedures.
#
#######################################################################

data_CSD_CIF_HOJNAX
_audit_creation_date 2014-08-29
_audit_creation_method CSD-ConQuest-V1
_database_code_CSD HOJNAX
_database_code_depnum_ccdc_archive 'CCDC 1021767'
_chemical_formula_sum 'C20 H24 N2 O4'
_chemical_formula_moiety
;
C20 H24 N2 O4
;
_journal_coden_Cambridge 799
_journal_volume 23
_journal_year 2014
_journal_page_first 2985
_journal_name_full 'Med.Chem.Res. '
loop_
_publ_author_name
"Juan Sun"
"Ming-Hui Li"
"Xin-Yi Wang"
"Yang Zhang"
"Rong-Ju Yuan"
"Han-Yu Liu"
"Hai-Liang Zhu"
_chemical_name_systematic
;
4-((2,6-diisopropylphenyl)carbonoimidoyl)-2-methoxy-3-nitrophenol
;
_cell_volume   3888.402
_exptl_crystal_density_diffrn 1.218
_diffrn_ambient_temperature 273
#These two values have been output from a single CSD field.
_refine_ls_R_factor_gt 0.075
_refine_ls_wR_factor_gt 0.075
_symmetry_cell_setting monoclinic
_symmetry_space_group_name_H-M 'C 2/c'
_symmetry_Int_Tables_number 15
loop_
_symmetry_equiv_pos_site_id
_symmetry_equiv_pos_as_xyz
1 x,y,z
2 -x,y,1/2-z
3 1/2+x,1/2+y,z
4 1/2-x,1/2+y,1/2-z
5 -x,-y,-z
6 x,-y,-1/2+z
7 -1/2-x,-1/2-y,-z
8 -1/2+x,-1/2-y,-1/2+z
_cell_length_a 28.315(2)
_cell_length_b 7.8580(6)
_cell_length_c 18.0219(13)
_cell_angle_alpha 90
_cell_angle_beta 104.138(2)
_cell_angle_gamma 90
_cell_formula_units_Z 8
loop_
_atom_type_symbol
_atom_type_radius_bond
C 0.68
H 0.23
N 0.68
O 0.68
loop_
_atom_site_label
_atom_site_type_symbol
_atom_site_fract_x
_atom_site_fract_y
_atom_site_fract_z
O1 O 0.03454(7) -0.33232(17) -0.09687(10)
H1 H 0.03890 -0.42790 -0.07820
O2 O 0.02880(6) 0.00480(19) -0.13880(9)
O3 O 0.10205(8) 0.3079(2) -0.08873(10)
O4 O 0.04430(7) 0.3234(2) -0.03174(14)
N1 N 0.07703(7) 0.2486(2) -0.04939(10)
N2 N 0.14531(5) 0.31308(18) 0.08412(8)
C1 C 0.06263(7) -0.2199(2) -0.04923(11)
C2 C 0.09585(8) -0.2645(2) 0.01722(12)
H2 H 0.09950 -0.37830 0.03160
C3 C 0.12385(7) -0.1427(2) 0.06295(11)
H3 H 0.14650 -0.17660 0.10710
C4 C 0.11909(6) 0.0300(2) 0.04474(10)
C5 C 0.08538(7) 0.0707(2) -0.02293(10)
C6 C 0.05776(7) -0.0478(2) -0.07069(11)
C7 C 0.14823(7) 0.1555(2) 0.09647(10)
H4 H 0.17000 0.11670 0.14060
C8 C 0.17198(6) 0.4303(2) 0.13880(9)
C9 C 0.15172(7) 0.4847(3) 0.19831(11)
C10 C 0.17667(9) 0.6094(3) 0.24790(13)
H5 H 0.16440 0.64560 0.28860
C11 C 0.21895(9) 0.6795(3) 0.23754(14)
H6 H 0.23480 0.76390 0.27060
C12 C 0.23798(7) 0.6257(3) 0.17858(13)
H7 H 0.26670 0.67450 0.17240
C13 C 0.21542(7) 0.4998(2) 0.12766(11)
C14 C 0.10449(8) 0.4116(3) 0.20985(12)
H8 H 0.09000 0.34290 0.16460
C15 C 0.11446(13) 0.2932(5) 0.27873(19)
H9 H 0.13040 0.35550 0.32370
H10 H 0.13510 0.20160 0.27070
H11 H 0.08420 0.24790 0.28520
C16 C 0.0678(1) 0.5495(5) 0.21617(19)
H12 H 0.08110 0.62000 0.25980
H13 H 0.03830 0.49750 0.22210
H14 H 0.06100 0.61790 0.17070
C17 C 0.23651(7) 0.4387(3) 0.06276(12)
H15 H 0.23000 0.31630 0.05700
C18 C 0.21088(10) 0.5223(4) -0.01226(14)
H16 H 0.17760 0.48510 -0.02670
H17 H 0.22700 0.49100 -0.05140
H18 H 0.21190 0.64370 -0.00610
C19 C 0.29146(9) 0.4614(4) 0.07813(17)
H19 H 0.30310 0.40640 0.03850
H20 H 0.30680 0.41170 0.12670
H21 H 0.29910 0.58060 0.07890
C20 C -0.02094(11) -0.0120(4) -0.1466(3)
H22 H -0.02920 -0.13040 -0.14610
H23 H -0.03820 0.03810 -0.19410
H24 H -0.02990 0.04480 -0.10490
#END
