
#######################################################################
#
#                 Cambridge Crystallographic Data Centre
#                                CCDC
#
#######################################################################
#
# If this CIF has been generated from an entry in the Cambridge
# Structural Database, then it will include bibliographic, chemical,
# crystal, experimental, refinement or atomic coordinate data resulting
# from the CCDC's data processing and validation procedures.
#
#######################################################################

data_CSD_CIF_HOJTAD
_audit_creation_date 2014-08-29
_audit_creation_method CSD-ConQuest-V1
_database_code_CSD HOJTAD
_database_code_depnum_ccdc_archive 'CCDC 988781'
_chemical_formula_sum 'C26 H24 N4 O6'
_chemical_formula_moiety
;
C26 H24 N4 O6
;
_journal_coden_Cambridge 35
_journal_volume 79
_journal_year 2014
_journal_page_first 6895
_journal_name_full 'J.Org.Chem. '
loop_
_publ_author_name
"A.Bhaumik"
"S.Samanta"
"T.Pathak"
_chemical_name_systematic
;
(1-benzyl-5-(2-(benzyloxy)-1-hydroxyethyl)-1H-1,2,3-triazol-4-yl)methyl 
4-nitrobenzoate
;
_cell_volume   1177.267
_exptl_crystal_colour 'colorless'
_exptl_crystal_density_diffrn 1.378
_exptl_crystal_description 'block'
_diffrn_ambient_temperature 293
#These two values have been output from a single CSD field.
_refine_ls_R_factor_gt 0.0547
_refine_ls_wR_factor_gt 0.0547
_symmetry_cell_setting monoclinic
_symmetry_space_group_name_H-M 'P 21'
_symmetry_Int_Tables_number 4
loop_
_symmetry_equiv_pos_site_id
_symmetry_equiv_pos_as_xyz
1 x,y,z
2 -x,1/2+y,-z
_cell_length_a 10.4494(13)
_cell_length_b 6.9551(9)
_cell_length_c 16.365(2)
_cell_angle_alpha 90
_cell_angle_beta 98.175(4)
_cell_angle_gamma 90
_cell_formula_units_Z 2
loop_
_atom_type_symbol
_atom_type_radius_bond
C 0.68
H 0.23
N 0.68
O 0.68
loop_
_atom_site_label
_atom_site_type_symbol
_atom_site_fract_x
_atom_site_fract_y
_atom_site_fract_z
C1 C 0.0201(4) 0.0339(5) -0.1035(2)
C2 C 0.0111(4) -0.1801(6) -0.1142(2)
H1 H -0.05380 -0.22980 -0.08200
C3 C -0.0282(4) -0.2332(6) -0.2043(2)
H2 H -0.01940 -0.37080 -0.21160
H3 H -0.11780 -0.19830 -0.22180
C4 C 0.0159(4) -0.1591(7) -0.3384(2)
H4 H -0.07690 -0.14320 -0.35260
H5 H 0.03840 -0.28770 -0.35440
C5 C 0.0847(4) -0.0139(7) -0.3831(2)
C6 C 0.1141(4) 0.1681(8) -0.3510(3)
H6 H 0.09150 0.20130 -0.29990
C7 C 0.1763(4) 0.2994(8) -0.3941(3)
H7 H 0.19520 0.42120 -0.37220
C8 C 0.2106(5) 0.2514(9) -0.4693(3)
H8 H 0.25370 0.33990 -0.49810
C9 C 0.1812(5) 0.0735(10) -0.5017(3)
H9 H 0.20440 0.04100 -0.55270
C10 C 0.1176(4) -0.0580(8) -0.4594(2)
H10 H 0.09660 -0.17800 -0.48260
C11 C -0.2232(3) 0.1012(6) -0.1160(2)
H11 H -0.26420 0.18310 -0.07930
H12 H -0.23250 -0.03080 -0.09860
C12 C -0.2933(4) 0.1245(6) -0.2031(2)
C13 C -0.2312(4) 0.1545(6) -0.2703(2)
H13 H -0.14170 0.16610 -0.26320
C14 C -0.3010(5) 0.1680(7) -0.3493(3)
H14 H -0.25800 0.18580 -0.39470
C15 C -0.4330(5) 0.1550(7) -0.3598(3)
H15 H -0.47980 0.16430 -0.41240
C16 C -0.4964(4) 0.1283(7) -0.2930(3)
H16 H -0.58610 0.12070 -0.30010
C17 C -0.4263(4) 0.1127(6) -0.2150(2)
H17 H -0.46970 0.09380 -0.16980
C18 C 0.1209(4) 0.1598(6) -0.0942(2)
C19 C 0.2632(3) 0.1260(6) -0.0829(2)
H18 H 0.28270 0.00390 -0.10690
H19 H 0.30660 0.22750 -0.10900
C20 C 0.4305(4) 0.1096(6) 0.0314(2)
C21 C 0.4575(3) 0.1160(6) 0.1233(2)
C22 C 0.5829(4) 0.1486(7) 0.1611(2)
H20 H 0.64920 0.16020 0.12900
C23 C 0.6106(4) 0.1641(7) 0.2462(2)
H21 H 0.69440 0.18740 0.27190
C24 C 0.5103(4) 0.1439(7) 0.2914(2)
C25 C 0.3856(4) 0.1107(6) 0.2558(2)
H22 H 0.31990 0.09780 0.28820
C26 C 0.3594(4) 0.0968(6) 0.1715(2)
H23 H 0.27510 0.07430 0.14650
N1 N -0.0855(3) 0.1484(5) -0.10710(17)
N2 N -0.0530(4) 0.3353(5) -0.10036(19)
N3 N 0.0748(4) 0.3415(5) -0.09265(18)
N4 N 0.5366(4) 0.1619(6) 0.3824(2)
O1 O 0.0521(2) -0.1341(4) -0.25181(15)
O2 O 0.1334(2) -0.2567(4) -0.08198(15)
H24 H 0.13160 -0.37420 -0.08640
O3 O 0.3049(2) 0.1250(4) 0.00524(14)
O4 O 0.5116(3) 0.0924(6) -0.01334(18)
O5 O 0.4465(4) 0.1575(7) 0.42037(18)
O6 O 0.6482(3) 0.1827(6) 0.41361(19)
#END
