
#######################################################################
#
#                 Cambridge Crystallographic Data Centre
#                                CCDC
#
#######################################################################
#
# If this CIF has been generated from an entry in the Cambridge
# Structural Database, then it will include bibliographic, chemical,
# crystal, experimental, refinement or atomic coordinate data resulting
# from the CCDC's data processing and validation procedures.
#
#######################################################################

data_CSD_CIF_HOKLUO
_audit_creation_date 1999-10-14
_audit_creation_method CSD-ConQuest-V1
_database_code_CSD HOKLUO
_database_code_depnum_ccdc_archive 'CCDC 133076'
_database_code_depnum_ccdc_journal 440/111
_chemical_formula_sum 'C15 H17 N1 O3'
_chemical_formula_moiety
;
C15 H17 N1 O3
;
_journal_coden_Cambridge 440
_journal_volume 23
_journal_year 1999
_journal_page_first 743
_journal_name_full 'New J.Chem. '
loop_
_publ_author_name
"J.-L.Avril"
"B.Marcot"
"M.Coquillay"
"C.De Rango"
"H.Moskowitz"
"J.Mayrargue"
_chemical_name_systematic
;
7-Hydroxy-2-methyl-3a,8a-butano-3a,8a-dihydro-3H-benzo(4,5)furo(2,3-b)pyrrole-
1-oxide
;
_cell_volume    613.991
_exptl_crystal_colour 'white'
_exptl_crystal_density_diffrn 1.403
_exptl_crystal_description 'block'
_diffrn_ambient_temperature ?
_diffrn_special_details
;
The study was carried out at room temperature,in the range 283-303K

;
#These two values have been output from a single CSD field.
_refine_ls_R_factor_gt 0.0431
_refine_ls_wR_factor_gt 0.0431
_symmetry_cell_setting triclinic
_symmetry_space_group_name_H-M 'P -1'
_symmetry_Int_Tables_number 2
loop_
_symmetry_equiv_pos_site_id
_symmetry_equiv_pos_as_xyz
1 x,y,z
2 -x,-y,-z
_cell_length_a 7.161(2)
_cell_length_b 8.296(3)
_cell_length_c 11.377(3)
_cell_angle_alpha 77.42(3)
_cell_angle_beta 82.78(3)
_cell_angle_gamma 68.75(3)
_cell_formula_units_Z 2
loop_
_atom_type_symbol
_atom_type_radius_bond
C 0.68
H 0.23
N 0.68
O 0.68
loop_
_atom_site_label
_atom_site_type_symbol
_atom_site_fract_x
_atom_site_fract_y
_atom_site_fract_z
N1 N 0.7008(3) 0.1329(2) 0.12101(16)
O1 O 0.6206(3) 0.1770(2) 0.01713(14)
C1 C 0.7284(3) -0.0135(3) 0.1978(2)
C2 C 0.8302(3) -0.0167(3) 0.3042(2)
H1 H 0.971(2) -0.0934(13) 0.3013(2)
H2 H 0.7637(11) -0.0583(8) 0.3792(12)
C3 C 0.8122(3) 0.1759(3) 0.29545(19)
C4 C 0.6115(3) 0.2847(3) 0.34545(19)
C5 C 0.5177(3) 0.2648(3) 0.4586(2)
H3 H 0.5774(15) 0.171(2) 0.5191(15)
C6 C 0.3319(4) 0.3883(3) 0.4788(2)
H4 H 0.262(2) 0.3768(5) 0.559(2)
C7 C 0.2436(4) 0.5280(3) 0.3885(2)
H5 H 0.118(3) 0.609(2) 0.4046(5)
C8 C 0.3364(3) 0.5508(3) 0.2741(2)
O2 O 0.2392(2) 0.6895(2) 0.18981(16)
H6 H 0.310(5) 0.706(4) 0.117(3)
C9 C 0.5230(3) 0.4251(3) 0.25618(19)
O3 O 0.6373(2) 0.42512(18) 0.14852(13)
C10 C 0.7867(3) 0.2541(3) 0.15925(19)
C11 C 0.9716(3) 0.2572(3) 0.0800(2)
H7 H 0.9316(7) 0.3458(15) 0.0074(12)
H8 H 1.0368(11) 0.1434(19) 0.0557(5)
C12 C 1.1214(4) 0.2973(3) 0.1430(2)
H9 H 1.246(2) 0.2861(4) 0.0904(9)
H10 H 1.0629(10) 0.420(2) 0.1574(3)
C13 C 1.1719(4) 0.1706(3) 0.2621(2)
H11 H 1.2227(10) 0.047(2) 0.2483(3)
H12 H 1.2797(18) 0.1898(4) 0.2991(6)
C14 C 0.9864(3) 0.1999(3) 0.3469(2)
H13 H 0.9423(8) 0.321(2) 0.3641(4)
H14 H 1.0212(6) 0.1158(14) 0.4244(13)
C15 C 0.6702(4) -0.1568(3) 0.1749(2)
H15 H 0.60820 -0.12110 0.09890
H16 H 0.57720 -0.18250 0.23810
H17 H 0.78740 -0.26000 0.17270
#END
