
#######################################################################
#
#                 Cambridge Crystallographic Data Centre
#                                CCDC
#
#######################################################################
#
# If this CIF has been generated from an entry in the Cambridge
# Structural Database, then it will include bibliographic, chemical,
# crystal, experimental, refinement or atomic coordinate data resulting
# from the CCDC's data processing and validation procedures.
#
#######################################################################

data_CSD_CIF_HOLJIC
_audit_creation_date 2009-03-13
_audit_creation_method CSD-ConQuest-V1
_database_code_CSD HOLJIC
_database_code_depnum_ccdc_archive 'CCDC 722107'
_chemical_formula_sum 'C13 H16 N4 O4'
_chemical_formula_moiety
;
C13 H16 N4 O4
;
_journal_coeditor_code "IUCr KJ2114"
_journal_coden_Cambridge 1370
_journal_volume 65
_journal_year 2009
_journal_page_first o382
_journal_name_full 'Acta Crystallogr.,Sect.E:Struct.Rep.Online '
loop_
_publ_author_name
"R.Kia"
"H.-K.Fun"
"H.Kargar"
_chemical_name_systematic
;
1-Cycloheptylidene-2-(2,4-dinitrophenyl)hydrazine
;
_cell_volume   1330.033
_exptl_crystal_colour 'yellow'
_exptl_crystal_density_diffrn 1.46
_exptl_crystal_description 'plate'
_exptl_crystal_preparation 'dimethylformamide'
_diffrn_ambient_temperature 100.00
#These two values have been output from a single CSD field.
_refine_ls_R_factor_gt 0.0388
_refine_ls_wR_factor_gt 0.0388
_symmetry_cell_setting monoclinic
_symmetry_space_group_name_H-M 'P 21/n'
_symmetry_Int_Tables_number 14
loop_
_symmetry_equiv_pos_site_id
_symmetry_equiv_pos_as_xyz
1 x,y,z
2 1/2-x,1/2+y,1/2-z
3 -x,-y,-z
4 -1/2+x,-1/2-y,-1/2+z
_cell_length_a 6.9721(1)
_cell_length_b 23.7359(5)
_cell_length_c 8.2274(2)
_cell_angle_alpha 90
_cell_angle_beta 102.351(1)
_cell_angle_gamma 90
_cell_formula_units_Z 4
loop_
_atom_type_symbol
_atom_type_radius_bond
C 0.68
H 0.23
N 0.68
O 0.68
loop_
_atom_site_label
_atom_site_type_symbol
_atom_site_fract_x
_atom_site_fract_y
_atom_site_fract_z
O1 O 0.71910(9) -0.13041(2) 0.17783(8)
O2 O 0.81378(8) -0.04726(2) 0.11828(8)
O3 O 0.01157(8) -0.08982(3) 0.49098(7)
O4 O 0.17434(9) -0.16037(2) 0.41905(8)
N1 N 0.62623(9) 0.04321(3) 0.18111(8)
N2 N 0.58494(9) 0.10007(2) 0.19219(8)
N3 N 0.70085(9) -0.07900(3) 0.17430(8)
N4 N 0.14350(9) -0.10960(3) 0.42854(8)
C1 C 0.34898(10) 0.02454(3) 0.30373(9)
H1 H 0.32280 0.06380 0.30540
C2 C 0.23044(10) -0.01240(3) 0.36477(9)
H2 H 0.12310 0.00120 0.40770
C3 C 0.26847(10) -0.07040(3) 0.36355(8)
C4 C 0.42249(10) -0.09135(3) 0.30138(8)
H3 H 0.44700 -0.13070 0.30170
C5 C 0.54189(9) -0.05386(3) 0.23798(8)
C6 C 0.51047(9) 0.00541(3) 0.23793(8)
C7 C 0.71332(10) 0.13537(3) 0.16026(9)
C8 C 0.90306(10) 0.11873(3) 0.11327(9)
H4 H 0.87340 0.10780 -0.00560
H5 H 0.95490 0.08490 0.17840
C9 C 1.06529(10) 0.16349(3) 0.13962(9)
H6 H 1.07780 0.17960 0.25240
H7 H 1.19110 0.14470 0.13620
C10 C 1.03488(12) 0.21200(3) 0.01374(11)
H8 H 1.16290 0.23070 0.01870
H9 H 0.99200 0.19590 -0.09930
C11 C 0.88606(11) 0.25661(3) 0.03869(10)
H10 H 0.93360 0.27470 0.14830
H11 H 0.88010 0.28600 -0.04750
C12 C 0.67896(11) 0.23445(3) 0.03073(10)
H12 H 0.63590 0.21310 -0.07410
H13 H 0.58900 0.26690 0.02760
C13 C 0.66109(11) 0.19625(3) 0.17764(10)
H14 H 0.74710 0.21150 0.27970
H15 H 0.52420 0.19820 0.19300
H16 H 0.727(2) 0.0296(6) 0.1432(17)
#END
