
#######################################################################
#
#                 Cambridge Crystallographic Data Centre
#                                CCDC
#
#######################################################################
#
# If this CIF has been generated from an entry in the Cambridge
# Structural Database, then it will include bibliographic, chemical,
# crystal, experimental, refinement or atomic coordinate data resulting
# from the CCDC's data processing and validation procedures.
#
#######################################################################

data_CSD_CIF_HOLRUW
_audit_creation_date 2009-03-13
_audit_creation_method CSD-ConQuest-V1
_database_code_CSD HOLRUW
_database_code_depnum_ccdc_archive 'CCDC 723010'
_chemical_formula_sum 'C19 H25 N1 O6'
_chemical_formula_moiety
;
C19 H25 N1 O6
;
_journal_coeditor_code "IUCr NG2545"
_journal_coden_Cambridge 1370
_journal_volume 65
_journal_year 2009
_journal_page_first o633
_journal_name_full 'Acta Crystallogr.,Sect.E:Struct.Rep.Online '
loop_
_publ_author_name
"A.Burkhardt"
"L.Eriksson"
"G.Widmalm"
"I.Cumpstey"
_chemical_name_systematic
;
(Z)-1,2:5,6-Di-O-isopropylidene-\a-D-ribo-hexofuranos-3-ulose O-benzyloxime
;
_chemical_melting_point 402
_cell_volume    966.639
_exptl_crystal_colour 'colorless'
_exptl_crystal_density_diffrn 1.249
_exptl_special_details
;
Melting point range 402-404K

;
_exptl_crystal_description 'prism'
_exptl_crystal_preparation 'pentane/ethyl acetate'
_diffrn_ambient_temperature 293
#These two values have been output from a single CSD field.
_refine_ls_R_factor_gt 0.0522
_refine_ls_wR_factor_gt 0.0522
_symmetry_cell_setting monoclinic
_symmetry_space_group_name_H-M 'P 21'
_symmetry_Int_Tables_number 4
loop_
_symmetry_equiv_pos_site_id
_symmetry_equiv_pos_as_xyz
1 x,y,z
2 -x,1/2+y,-z
_cell_length_a 11.8012(12)
_cell_length_b 6.0019(5)
_cell_length_c 13.7021(11)
_cell_angle_alpha 90
_cell_angle_beta 95.122(11)
_cell_angle_gamma 90
_cell_formula_units_Z 2
loop_
_atom_type_symbol
_atom_type_radius_bond
C 0.68
H 0.23
N 0.68
O 0.68
loop_
_atom_site_label
_atom_site_type_symbol
_atom_site_fract_x
_atom_site_fract_y
_atom_site_fract_z
N1 N -0.06053(17) 0.2232(4) 0.27810(14)
O1 O 0.02900(13) 0.5554(3) 0.09073(11)
O2 O 0.11981(15) 0.8375(3) 0.18283(13)
O3 O 0.07981(16) 0.6561(4) 0.32044(12)
O4 O -0.06093(18) 0.2884(3) 0.37689(13)
O5 O -0.21517(14) 0.5609(3) 0.09506(14)
O6 O -0.34050(19) 0.2785(5) 0.0706(3)
C1 C 0.01554(19) 0.7319(4) 0.15833(17)
H1 H -0.04230 0.83850 0.13210
C2 C -0.01695(19) 0.6276(4) 0.25278(17)
H2 H -0.08410 0.70010 0.27580
C3 C -0.04108(17) 0.3891(4) 0.22521(16)
C4 C -0.03742(18) 0.3679(4) 0.11580(16)
H3 H 0.00120 0.22940 0.10040
C5 C -0.15390(19) 0.3778(4) 0.05929(18)
H4 H -0.14550 0.39850 -0.01060
C6 C -0.2320(2) 0.1834(5) 0.0731(3)
H5 H -0.22830 0.07540 0.02080
H6 H -0.21190 0.11030 0.13540
C7 C 0.1722(2) 0.7382(5) 0.27004(19)
C8 C 0.2295(3) 0.9206(6) 0.3320(3)
H7 H 0.26560 0.85760 0.39130
H8 H 0.17380 1.02800 0.34790
H9 H 0.28570 0.99220 0.29630
C9 C 0.2493(3) 0.5495(8) 0.2465(3)
H10 H 0.28370 0.48600 0.30630
H11 H 0.30760 0.60480 0.20840
H12 H 0.20580 0.43750 0.20990
C10 C -0.0865(2) 0.0973(5) 0.43327(18)
H13 H -0.06550 0.12850 0.50200
H14 H -0.04030 -0.02660 0.41460
C11 C -0.2096(2) 0.0296(5) 0.42074(18)
C12 C -0.2392(3) -0.1738(7) 0.4566(4)
H15 H -0.18300 -0.26740 0.48560
C13 C -0.3520(3) -0.2411(8) 0.4502(4)
H16 H -0.37110 -0.37890 0.47510
C14 C -0.4337(3) -0.1078(10) 0.4081(4)
H17 H -0.50950 -0.15150 0.40580
C15 C -0.4060(3) 0.0900(11) 0.3690(5)
H18 H -0.46230 0.17950 0.33760
C16 C -0.2925(3) 0.1590(7) 0.3761(3)
H19 H -0.27380 0.29560 0.34980
C17 C -0.3326(2) 0.5127(6) 0.0709(3)
C18 C -0.3984(3) 0.6133(11) 0.1487(4)
H20 H -0.39310 0.77280 0.14580
H21 H -0.36740 0.56230 0.21190
H22 H -0.47670 0.56930 0.13800
C19 C -0.3701(3) 0.5986(8) -0.0303(3)
H23 H -0.36490 0.75820 -0.03070
H24 H -0.44730 0.55450 -0.04810
H25 H -0.32180 0.53780 -0.07650
#END
