
#######################################################################
#
#                 Cambridge Crystallographic Data Centre
#                                CCDC
#
#######################################################################
#
# If this CIF has been generated from an entry in the Cambridge
# Structural Database, then it will include bibliographic, chemical,
# crystal, experimental, refinement or atomic coordinate data resulting
# from the CCDC's data processing and validation procedures.
#
#######################################################################

data_CSD_CIF_HOLXIR
_audit_creation_date 2014-09-01
_audit_creation_method CSD-ConQuest-V1
_database_code_CSD HOLXIR
_database_code_depnum_ccdc_archive 'CCDC 1003334'
_chemical_formula_sum 'C11 H13 N1 O3'
_chemical_formula_moiety
;
C11 H13 N1 O3
;
_journal_coden_Cambridge 182
_journal_volume 50
_journal_year 2014
_journal_page_first 12135
_journal_name_full 'Chem.Commun. '
loop_
_publ_author_name
"Pingping Duan"
"Xia Lan"
"Ying Chen"
"Shao-Song Qian"
"Jie Jack Li"
"Liang Lu"
"Yanbo Lu"
"Bo Chen"
"Mei Hong"
"Jing Zhao"
_chemical_name_systematic
;
1-(3-hydroxy-4,5-dihydro-1,2-benzoxazepin-2(3H)-yl)ethanone
;
_cell_volume   1010.950
_exptl_crystal_colour 'colorless'
_exptl_crystal_density_diffrn 1.362
_exptl_crystal_description 'platelet'
_diffrn_ambient_temperature 293
#These two values have been output from a single CSD field.
_refine_ls_R_factor_gt 0.0303
_refine_ls_wR_factor_gt 0.0303
_symmetry_cell_setting orthorhombic
_symmetry_space_group_name_H-M 'P c a 21'
_symmetry_Int_Tables_number 29
loop_
_symmetry_equiv_pos_site_id
_symmetry_equiv_pos_as_xyz
1 x,y,z
2 -x,-y,1/2+z
3 1/2-x,y,1/2+z
4 1/2+x,-y,z
_cell_length_a 13.1081(9)
_cell_length_b 9.6334(3)
_cell_length_c 8.0059(3)
_cell_angle_alpha 90
_cell_angle_beta 90
_cell_angle_gamma 90
_cell_formula_units_Z 4
loop_
_atom_type_symbol
_atom_type_radius_bond
C 0.68
H 0.23
N 0.68
O 0.68
loop_
_atom_site_label
_atom_site_type_symbol
_atom_site_fract_x
_atom_site_fract_y
_atom_site_fract_z
O1 O 0.17620(12) 0.26409(16) 0.8567(2)
O2 O 0.25637(16) 0.00375(19) 1.1280(3)
O3 O 0.06743(16) -0.0103(2) 0.8445(3)
H1 H 0.122(2) -0.014(4) 0.797(4)
N1 N 0.16786(15) 0.1617(2) 0.9820(3)
C1 C 0.1214(2) 0.6648(3) 1.0234(5)
H2 H 0.11060 0.75500 1.06050
C2 C 0.2013(2) 0.6359(3) 0.9174(5)
H3 H 0.24360 0.70710 0.88040
C3 C 0.2186(2) 0.5009(3) 0.8661(4)
H4 H 0.27300 0.48050 0.79580
C4 C 0.15441(18) 0.3972(2) 0.9202(3)
C5 C 0.25799(19) 0.1060(3) 1.0371(4)
C6 C 0.3533(2) 0.1782(3) 0.9841(4)
H5 H 0.40920 0.14690 1.05180
H6 H 0.34500 0.27650 0.99750
H7 H 0.36700 0.15750 0.86900
C7 C 0.0577(2) 0.5592(3) 1.0740(4)
H8 H 0.00370 0.58040 1.14500
C8 C 0.07071(19) 0.4215(3) 1.0233(3)
C9 C 0.07191(18) 0.0852(3) 0.9771(4)
H9 H 0.06440 0.03410 1.08230
C10 C -0.01516(19) 0.1874(3) 0.9627(4)
H10 H -0.07860 0.13990 0.98780
H11 H -0.01900 0.22040 0.84840
C11 C -0.0041(2) 0.3117(3) 1.0793(4)
H12 H -0.07050 0.35470 1.09240
H13 H 0.01690 0.27810 1.18820
#END
