
#######################################################################
#
#                 Cambridge Crystallographic Data Centre
#                                CCDC
#
#######################################################################
#
# If this CIF has been generated from an entry in the Cambridge
# Structural Database, then it will include bibliographic, chemical,
# crystal, experimental, refinement or atomic coordinate data resulting
# from the CCDC's data processing and validation procedures.
#
#######################################################################

data_CSD_CIF_HOLXUD
_audit_creation_date 2014-09-01
_audit_creation_method CSD-ConQuest-V1
_database_code_CSD HOLXUD
_database_code_depnum_ccdc_archive 'CCDC 1003336'
_chemical_formula_sum 'C18 H25 N1 O4'
_chemical_formula_moiety
;
C18 H25 N1 O4
;
_journal_coden_Cambridge 182
_journal_volume 50
_journal_year 2014
_journal_page_first 12135
_journal_name_full 'Chem.Commun. '
loop_
_publ_author_name
"Pingping Duan"
"Xia Lan"
"Ying Chen"
"Shao-Song Qian"
"Jie Jack Li"
"Liang Lu"
"Yanbo Lu"
"Bo Chen"
"Mei Hong"
"Jing Zhao"
_chemical_name_systematic
;
N-(2,6-bis(3-oxopentyl)phenoxy)acetamide
;
_cell_volume    895.667
_exptl_crystal_colour 'colorless'
_exptl_crystal_density_diffrn 1.18
_exptl_crystal_description 'block'
_diffrn_ambient_temperature 293
#These two values have been output from a single CSD field.
_refine_ls_R_factor_gt 0.047
_refine_ls_wR_factor_gt 0.047
_symmetry_cell_setting monoclinic
_symmetry_space_group_name_H-M 'P c'
_symmetry_Int_Tables_number 7
loop_
_symmetry_equiv_pos_site_id
_symmetry_equiv_pos_as_xyz
1 x,y,z
2 x,-y,1/2+z
_cell_length_a 12.7071(2)
_cell_length_b 4.847
_cell_length_c 14.6978(10)
_cell_angle_alpha 90
_cell_angle_beta 98.347(7)
_cell_angle_gamma 90
_cell_formula_units_Z 2
loop_
_atom_type_symbol
_atom_type_radius_bond
C 0.68
H 0.23
N 0.68
O 0.68
loop_
_atom_site_label
_atom_site_type_symbol
_atom_site_fract_x
_atom_site_fract_y
_atom_site_fract_z
O1 O 0.6709(2) 0.9315(5) 0.0658(2)
O2 O 0.40956(15) 0.3333(4) 0.17133(12)
O3 O 0.2708(2) -0.0195(5) 0.07731(16)
O4 O 0.1036(3) -0.1810(6) 0.2439(3)
N1 N 0.30456(19) 0.4102(5) 0.13525(16)
C1 C 0.8249(7) 0.6705(16) -0.0189(6)
H1 H 0.76780 0.75220 -0.06000
H2 H 0.85910 0.53200 -0.05100
H3 H 0.87560 0.81030 0.00350
C2 C 0.7819(4) 0.5417(9) 0.0599(3)
H4 H 0.84020 0.50990 0.10910
H5 H 0.75190 0.36340 0.04060
C3 C 0.6984(2) 0.7087(6) 0.0970(2)
C4 C 0.6490(2) 0.5816(6) 0.1746(2)
H6 H 0.70400 0.55300 0.22680
H7 H 0.61990 0.40250 0.15520
C5 C 0.5612(2) 0.7571(7) 0.2049(2)
H8 H 0.50670 0.78910 0.15260
H9 H 0.59040 0.93480 0.22590
C6 C 0.5112(2) 0.6227(6) 0.28145(19)
C7 C 0.4350(2) 0.4184(6) 0.26375(18)
C8 C 0.3871(2) 0.2893(6) 0.33258(18)
C9 C 0.3016(2) 0.0741(6) 0.3131(2)
H10 H 0.31640 -0.07750 0.35610
H11 H 0.30080 0.00220 0.25150
C10 C 0.1937(3) 0.1986(7) 0.3220(2)
H12 H 0.19170 0.23600 0.38660
H13 H 0.18810 0.37440 0.29020
C11 C 0.0985(3) 0.0321(7) 0.2866(2)
C12 C -0.0062(3) 0.1461(12) 0.3041(5)
H14 H -0.00350 0.16800 0.37000
H15 H -0.01420 0.32870 0.27700
C13 C -0.1023(4) -0.0148(13) 0.2695(5)
H16 H -0.11300 -0.01330 0.20350
H17 H -0.16290 0.06570 0.29150
H18 H -0.09340 -0.20150 0.29100
C14 C 0.2455(2) 0.2212(6) 0.08457(18)
C15 C 0.1401(3) 0.3342(9) 0.0398(3)
H19 H 0.13160 0.29900 -0.02510
H20 H 0.13780 0.52950 0.05030
H21 H 0.08360 0.24620 0.06580
C16 C 0.4198(3) 0.3790(7) 0.42240(19)
H22 H 0.39010 0.29860 0.47020
C17 C 0.4943(3) 0.5819(8) 0.4421(2)
H23 H 0.51400 0.63860 0.50260
C18 C 0.5404(3) 0.7027(7) 0.3727(2)
H24 H 0.59160 0.83920 0.38700
#END
