
#######################################################################
#
#                 Cambridge Crystallographic Data Centre
#                                CCDC
#
#######################################################################
#
# If this CIF has been generated from an entry in the Cambridge
# Structural Database, then it will include bibliographic, chemical,
# crystal, experimental, refinement or atomic coordinate data resulting
# from the CCDC's data processing and validation procedures.
#
#######################################################################

data_CSD_CIF_HOMDAO
_audit_creation_date 1999-10-14
_audit_creation_method CSD-ConQuest-V1
_database_code_CSD HOMDAO
_database_code_depnum_ccdc_archive 'CCDC 134491'
_chemical_formula_sum 'C13 H10 N2 O4'
_chemical_formula_moiety
;
C13 H10 N2 O4
;
_journal_coden_Cambridge 122
_journal_year 1999
_journal_page_first 542
_journal_name_full 'Khim.Get.Soedin.,SSSR(Russ.)(Chem.Heterocycl.Compd.) '
loop_
_publ_author_name
"E.B.Babaev"
"V.B.Rybakov"
"S.G.Zhukov"
"I.A.Orlova"
_chemical_name_systematic
;
N-(p-Nitrophenylcarbonylmethylene)-2-pyridone
;
_cell_volume    585.952
_exptl_crystal_density_diffrn 1.464
_diffrn_ambient_temperature ?
_diffrn_special_details
;
The study was carried out at room temperature,in the range 283-303K

;
#These two values have been output from a single CSD field.
_refine_ls_R_factor_gt 0.0525
_refine_ls_wR_factor_gt 0.0525
_symmetry_cell_setting monoclinic
_symmetry_space_group_name_H-M 'P 21'
_symmetry_Int_Tables_number 4
loop_
_symmetry_equiv_pos_site_id
_symmetry_equiv_pos_as_xyz
1 x,y,z
2 -x,1/2+y,-z
_cell_length_a 7.1325(15)
_cell_length_b 8.778(10)
_cell_length_c 9.8333(12)
_cell_angle_alpha 90
_cell_angle_beta 107.87(1)
_cell_angle_gamma 90
_cell_formula_units_Z 2
loop_
_atom_type_symbol
_atom_type_radius_bond
C 0.68
H 0.23
N 0.68
O 0.68
loop_
_atom_site_label
_atom_site_type_symbol
_atom_site_fract_x
_atom_site_fract_y
_atom_site_fract_z
N1 N -0.1588(2) -0.1158(2) 1.0214(2)
C1 C -0.3110(3) -0.2162(3) 0.9752(2)
C2 C -0.4458(3) -0.2319(3) 1.0420(2)
C3 C -0.4342(3) -0.1405(3) 1.1616(2)
C4 C -0.2846(3) -0.0389(3) 1.2078(2)
C5 C -0.1344(3) -0.0223(3) 1.1394(2)
C6 C -0.0209(3) -0.0965(3) 0.9403(2)
C7 C -0.0875(3) 0.0304(2) 0.8311(2)
O1 O -0.2299(2) 0.1067(2) 0.8244(2)
C8 C 0.0275(3) 0.0542(3) 0.7279(2)
C9 C 0.1963(3) -0.0278(3) 0.7351(2)
C10 C 0.3008(3) -0.0031(3) 0.6412(2)
C11 C 0.2319(3) 0.1089(3) 0.5386(2)
C12 C 0.0673(3) 0.1928(3) 0.5292(2)
C13 C -0.0350(3) 0.1647(3) 0.6234(2)
N2 N 0.3466(2) 0.1473(4) 0.4390(2)
O2 O 0.4625(3) 0.0499(4) 0.4285(2)
O3 O 0.3106(3) 0.2667(3) 0.3732(2)
O4 O 0.0070(2) 0.0649(2) 1.1774(2)
H1 H -0.3133(27) -0.2808(28) 0.8981(21)
H2 H -0.5494(31) -0.3112(34) 1.0143(25)
H3 H -0.5346(24) -0.1477(25) 1.2131(19)
H4 H -0.2652(31) 0.0151(31) 1.2855(23)
H5 H -0.0213(31) -0.1868(34) 0.8867(24)
H6 H 0.1159(25) -0.0739(29) 1.0116(21)
H7 H 0.2365(35) -0.1000(38) 0.8018(25)
H8 H 0.4209(29) -0.0576(30) 0.6471(22)
H9 H 0.0217(33) 0.2696(34) 0.4560(24)
H10 H -0.1572(34) 0.2269(37) 0.6147(27)
#END
