
#######################################################################
#
#                 Cambridge Crystallographic Data Centre
#                                CCDC
#
#######################################################################
#
# If this CIF has been generated from an entry in the Cambridge
# Structural Database, then it will include bibliographic, chemical,
# crystal, experimental, refinement or atomic coordinate data resulting
# from the CCDC's data processing and validation procedures.
#
#######################################################################

data_CSD_CIF_HOMDIW
_audit_creation_date 1999-10-14
_audit_creation_method CSD-ConQuest-V1
_database_code_CSD HOMDIW
_chemical_formula_sum 'C6 H2 N8 O1'
_chemical_formula_moiety
;
C6 H2 N8 O1
;
_journal_coden_Cambridge 122
_journal_year 1999
_journal_page_first 564
_journal_name_full 'Khim.Get.Soedin.,SSSR(Russ.)(Chem.Heterocycl.Compd.) '
loop_
_publ_author_name
"I.B.Starchenkov"
"V.G.Andrianov"
"A.F.Mishnev"
_chemical_name_systematic
;
1,2,4-Triazolo(3,4-d)-1,2,4-triazolo(3,4-f)furazano(3,4-b)pyrazine
;
_chemical_melting_point 573.15
_cell_volume    388.733
_exptl_crystal_density_diffrn 1.73
_exptl_special_details
;
x(C2) is 1.1531, not 1.5131

;
_diffrn_ambient_temperature ?
_diffrn_special_details
;
The study was carried out at room temperature,in the range 283-303K

;
#These two values have been output from a single CSD field.
_refine_ls_R_factor_gt 0.088
_refine_ls_wR_factor_gt 0.088
_symmetry_cell_setting monoclinic
_symmetry_space_group_name_H-M 'P 21'
_symmetry_Int_Tables_number 4
loop_
_symmetry_equiv_pos_site_id
_symmetry_equiv_pos_as_xyz
1 x,y,z
2 -x,1/2+y,-z
_cell_length_a 7.204(4)
_cell_length_b 6.419(2)
_cell_length_c 8.562(3)
_cell_angle_alpha 90
_cell_angle_beta 100.94(4)
_cell_angle_gamma 90
_cell_formula_units_Z 2
loop_
_atom_type_symbol
_atom_type_radius_bond
C 0.68
N 0.68
O 0.68
loop_
_atom_site_label
_atom_site_type_symbol
_atom_site_fract_x
_atom_site_fract_y
_atom_site_fract_z
N1 N 1.1857(8) 0.2126(1) 0.3538(9)
C1 C 1.1513(9) 0.0268(17) 0.2675(8)
N2 N 1.2726(11) -0.1174(18) 0.2497(10)
O1 O 1.1616(12) -0.2548(15) 0.1498(1)
N3 N 0.9772(10) -0.1929(16) 0.107(1)
C2 C 0.9723(11) -0.0159(15) 0.1801(9)
N4 N 0.8269(11) 0.1232(17) 0.184(1)
C3 C 0.6362(12) 0.1218(16) 0.1148(11)
N5 N 0.5609(13) 0.2942(17) 0.1581(10)
N6 N 0.6972(13) 0.4129(14) 0.2568(10)
C4 C 0.8517(12) 0.3039(18) 0.2686(11)
C5 C 1.0436(14) 0.3504(16) 0.3594(12)
N7 N 1.0991(13) 0.5104(17) 0.4510(11)
N8 N 1.2889(14) 0.4731(18) 0.5104(11)
C6 C 1.3423(15) 0.3005(18) 0.4542(12)
#END
