
#######################################################################
#
#                 Cambridge Crystallographic Data Centre
#                                CCDC
#
#######################################################################
#
# If this CIF has been generated from an entry in the Cambridge
# Structural Database, then it will include bibliographic, chemical,
# crystal, experimental, refinement or atomic coordinate data resulting
# from the CCDC's data processing and validation procedures.
#
#######################################################################

data_CSD_CIF_HONPUV
_audit_creation_date 1999-10-26
_audit_creation_method CSD-ConQuest-V1
_database_code_CSD HONPUV
_database_code_depnum_ccdc_journal 207/269
_chemical_formula_sum 'C10 H16 N2 O4'
_chemical_formula_moiety
;
C10 H16 N2 O4
;
_journal_coden_Cambridge 207
_journal_year 1998
_journal_page_first 3717
_journal_name_full 'J.Chem.Soc.,Perkin Trans.1 '
loop_
_publ_author_name
"S.Baskaran"
"H.G.Aurich"
"F.Biesemeier"
"K.Harms"
_chemical_name_systematic
;
(1R,2S,3R,4S,7S,8S,11S,14R)-(-)-3-Hydroxy-4-methyl-6,9,13-trioxa-1,3-diazatetr
acyclo(6.5.1.0^2,7^.0^11,14^)tetradecane
;
_cell_volume   1095.021
_exptl_crystal_colour 'colorless'
_exptl_crystal_density_diffrn 1.385
_exptl_crystal_description 'regular'
_diffrn_ambient_temperature ?
_diffrn_special_details
;
The study was carried out at room temperature,in the range 283-303K

;
#These two values have been output from a single CSD field.
_refine_ls_R_factor_gt 0.0638
_refine_ls_wR_factor_gt 0.0638
_symmetry_cell_setting orthorhombic
_symmetry_space_group_name_H-M 'P 21 21 21'
_symmetry_Int_Tables_number 19
loop_
_symmetry_equiv_pos_site_id
_symmetry_equiv_pos_as_xyz
1 x,y,z
2 1/2-x,-y,1/2+z
3 1/2+x,1/2-y,-z
4 -x,1/2+y,1/2-z
_cell_length_a 5.968(1)
_cell_length_b 8.448(1)
_cell_length_c 21.719(1)
_cell_angle_alpha 90
_cell_angle_beta 90
_cell_angle_gamma 90
_cell_formula_units_Z 4
loop_
_atom_type_symbol
_atom_type_radius_bond
C 0.68
H 0.23
N 0.68
O 0.68
loop_
_atom_site_label
_atom_site_type_symbol
_atom_site_fract_x
_atom_site_fract_y
_atom_site_fract_z
N1 N 0.2260(5) 0.7660(3) 0.82384(12)
C1 C 0.1315(6) 0.7443(4) 0.88633(14)
N2 N 0.0147(5) 0.8785(3) 0.91226(13)
C2 C 0.1600(7) 1.0167(5) 0.91954(18)
C3 C 0.3465(8) 0.9633(7) 0.9622(2)
O1 O 0.4727(4) 0.8358(4) 0.93659(13)
C4 C 0.3349(6) 0.7009(4) 0.92526(15)
C5 C 0.4690(7) 0.5949(5) 0.88296(18)
O2 O 0.3760(5) 0.4401(3) 0.88388(13)
C6 C 0.4017(11) 0.3775(6) 0.8228(2)
C7 C 0.3450(9) 0.5148(5) 0.78082(19)
C8 C 0.0971(10) 0.5453(6) 0.7732(2)
O3 O 0.0707(6) 0.7130(3) 0.77776(12)
C9 C 0.4227(7) 0.6593(4) 0.81836(17)
O4 O -0.1597(5) 0.9204(3) 0.86890(13)
C10 C 0.0315(10) 1.1535(6) 0.9480(3)
H1 H 0.037(7) 0.653(5) 0.8865(17)
H2 H 0.206(7) 1.043(5) 0.879(2)
H3 H 0.294(11) 0.952(7) 1.003(3)
H4 H 0.453(8) 1.048(5) 0.9673(19)
H5 H 0.305(7) 0.664(5) 0.9683(19)
H6 H 0.629(8) 0.591(5) 0.892(2)
H7 H 0.557(10) 0.335(7) 0.819(3)
H8 H 0.325(8) 0.299(6) 0.819(2)
H9 H 0.396(8) 0.503(6) 0.741(2)
H10 H 0.032(8) 0.495(6) 0.802(2)
H11 H 0.045(9) 0.523(6) 0.734(2)
H12 H 0.539(7) 0.719(5) 0.801(2)
H13 H -0.269(9) 0.895(6) 0.892(3)
H14 H -0.011(11) 1.132(7) 0.986(3)
H15 H -0.080(16) 1.18(1) 0.919(4)
H16 H 0.151(10) 1.233(7) 0.950(3)
#END
