
#######################################################################
#
#                 Cambridge Crystallographic Data Centre
#                                CCDC
#
#######################################################################
#
# If this CIF has been generated from an entry in the Cambridge
# Structural Database, then it will include bibliographic, chemical,
# crystal, experimental, refinement or atomic coordinate data resulting
# from the CCDC's data processing and validation procedures.
#
#######################################################################

data_CSD_CIF_HOPINA
_audit_creation_date 1980-10-28
_audit_creation_method CSD-ConQuest-V1
_database_code_CSD HOPINA
_chemical_formula_sum 'C20 H14 N1 O2'
_chemical_formula_moiety
;
C20 H14 N1 O2
;
_journal_coden_Cambridge 188
_journal_year 1980
_journal_page_first 786
_journal_name_full 'J.Chem.Soc.,Perkin Trans.2 '
loop_
_publ_author_name
"R.Benassi"
"F.Taddei"
"L.Greci"
"L.Marchetti"
"G.D.Andreetti"
"G.Bocelli"
"P.Sgarabotto"
_chemical_name_systematic
;
1,2-Dihydro-3-oxo-2,2-diphenyl-3H-indole-1-oxyl radical
;
_cell_volume    768.674
_exptl_crystal_colour 'deep red'
_exptl_special_details
;
H19 deleted for suspected coordinate errors

;
_diffrn_ambient_temperature ?
_diffrn_special_details
;
The study was carried out at room temperature,in the range 283-303K

;
#These two values have been output from a single CSD field.
_refine_ls_R_factor_gt 0.07
_refine_ls_wR_factor_gt 0.07
_symmetry_cell_setting triclinic
_symmetry_space_group_name_H-M 'P -1'
_symmetry_Int_Tables_number 2
loop_
_symmetry_equiv_pos_site_id
_symmetry_equiv_pos_as_xyz
1 x,y,z
2 -x,-y,-z
_cell_length_a 9.44(1)
_cell_length_b 8.59(1)
_cell_length_c 14.88(1)
_cell_angle_alpha 54.6(2)
_cell_angle_beta 128.5(2)
_cell_angle_gamma 109.1(2)
_cell_formula_units_Z 2
loop_
_atom_type_symbol
_atom_type_radius_bond
C 0.68
H 0.23
N 0.68
O 0.68
loop_
_atom_site_label
_atom_site_type_symbol
_atom_site_fract_x
_atom_site_fract_y
_atom_site_fract_z
O1 O 0.12070 0.35730 0.48980
O2 O -0.30200 0.46950 0.05010
N1 N -0.22340 0.40580 0.17140
C1 C -0.05380 0.48850 0.25070
C2 C -0.01400 0.35130 0.38880
C3 C -0.15670 0.22390 0.38460
C4 C -0.18160 0.08720 0.48730
C5 C -0.33730 -0.01450 0.45310
C6 C -0.46270 0.01850 0.32290
C7 C -0.43810 0.15410 0.22130
C8 C -0.28190 0.25670 0.25500
C9 C 0.10650 0.48220 0.25000
C10 C 0.26810 0.55660 0.31800
C11 C 0.41930 0.54810 0.32340
C12 C 0.40700 0.46850 0.26020
C13 C 0.24610 0.39710 0.19130
C14 C 0.09570 0.40150 0.18780
C15 C -0.11050 0.68710 0.19650
C16 C -0.12610 0.83800 0.07970
C17 C -0.19520 1.01740 0.02070
C18 C -0.25070 1.04460 0.07900
C19 C -0.23340 0.89430 0.19500
C20 C -0.16340 0.71520 0.25510
H1 H -0.08800 0.06100 0.58500
H2 H -0.35800 -0.11900 0.52500
H3 H -0.57200 -0.06200 0.30400
H4 H -0.52700 0.17800 0.12800
H5 H 0.27600 0.61800 0.36400
H6 H 0.53600 0.60400 0.37300
H7 H 0.52800 0.47300 0.27400
H8 H 0.23500 0.33900 0.14200
H9 H -0.01800 0.34100 0.14100
H10 H -0.09000 0.81600 0.03600
H11 H -0.20600 1.13000 -0.06400
H12 H -0.30000 1.17300 0.03700
H13 H -0.15000 0.60500 0.34000
#END
