
#######################################################################
#
#                 Cambridge Crystallographic Data Centre
#                                CCDC
#
#######################################################################
#
# If this CIF has been generated from an entry in the Cambridge
# Structural Database, then it will include bibliographic, chemical,
# crystal, experimental, refinement or atomic coordinate data resulting
# from the CCDC's data processing and validation procedures.
#
#######################################################################

data_CSD_CIF_HOPLAA
_audit_creation_date 2009-07-03
_audit_creation_method CSD-ConQuest-V1
_database_code_CSD HOPLAA
_database_code_depnum_ccdc_archive 'CCDC 689203'
_chemical_formula_sum 'C2 H3 N5 O2'
_chemical_formula_moiety
;
C2 H3 N5 O2
;
_journal_coden_Cambridge 440
_journal_volume 33
_journal_year 2009
_journal_page_first 136
_journal_name_full 'New J.Chem. '
loop_
_publ_author_name
"T.M.Klapotke"
"C.M.Sabate"
"J.Stierstorfer"
_chemical_name_systematic
;
2-Methyl-5-nitro-2H-tetrazole
;
_chemical_melting_point 348.15
_cell_volume    513.979
_exptl_crystal_colour 'colorless'
_exptl_crystal_density_diffrn 1.668
_exptl_crystal_description 'platelet'
_exptl_crystal_preparation 'acetone'
_diffrn_ambient_temperature 200
#These two values have been output from a single CSD field.
_refine_ls_R_factor_gt 0.0364
_refine_ls_wR_factor_gt 0.0364
_symmetry_cell_setting monoclinic
_symmetry_space_group_name_H-M 'P 21/c'
_symmetry_Int_Tables_number 14
loop_
_symmetry_equiv_pos_site_id
_symmetry_equiv_pos_as_xyz
1 x,y,z
2 -x,1/2+y,1/2-z
3 -x,-y,-z
4 x,-1/2-y,-1/2+z
_cell_length_a 6.3305(13)
_cell_length_b 4.9929(10)
_cell_length_c 16.388(3)
_cell_angle_alpha 90
_cell_angle_beta 97.13(3)
_cell_angle_gamma 90
_cell_formula_units_Z 4
loop_
_atom_type_symbol
_atom_type_radius_bond
C 0.68
H 0.23
N 0.68
O 0.68
loop_
_atom_site_label
_atom_site_type_symbol
_atom_site_fract_x
_atom_site_fract_y
_atom_site_fract_z
O1 O 0.89302(16) 0.2876(2) 0.35871(7)
O2 O 0.70216(16) 0.6456(2) 0.36624(7)
N1 N 0.74465(17) 0.3904(2) 0.11908(7)
N2 N 0.62437(18) 0.6699(2) 0.19860(8)
N3 N 0.82254(17) 0.3011(2) 0.19245(7)
N4 N 0.62597(18) 0.6096(3) 0.12044(8)
N5 N 0.78212(17) 0.4707(2) 0.32789(7)
C1 C 0.74302(18) 0.4812(3) 0.23919(8)
C2 C 0.7811(3) 0.2600(4) 0.04229(10)
H1 H 0.934(3) 0.249(4) 0.0385(15)
H2 H 0.726(4) 0.076(5) 0.0407(15)
H3 H 0.717(3) 0.372(5) -0.0043(15)
#END
