
#######################################################################
#
#                 Cambridge Crystallographic Data Centre
#                                CCDC
#
#######################################################################
#
# If this CIF has been generated from an entry in the Cambridge
# Structural Database, then it will include bibliographic, chemical,
# crystal, experimental, refinement or atomic coordinate data resulting
# from the CCDC's data processing and validation procedures.
#
#######################################################################

data_CSD_CIF_HOPWUG
_audit_creation_date 2014-09-04
_audit_creation_method CSD-ConQuest-V1
_database_code_CSD HOPWUG
_database_code_depnum_ccdc_archive 'CCDC 1022834'
_chemical_formula_sum 'C13 H20 N4 O3'
_chemical_formula_moiety
;
C13 H20 N4 O3
;
_journal_coden_Cambridge 1078
_journal_year 2014
_journal_name_full 'CSD Communication(Private Communication) '
loop_
_publ_author_name
"J.M.White"
"C.E.Skene"
_chemical_name_systematic
;
3-(4-(3-amino-4-nitrophenyl)piperazin-1-yl)propan-1-ol
;
_chemical_melting_point 427
_cell_volume   1321.699
_exptl_crystal_colour 'yellow'
_exptl_crystal_density_diffrn 1.409
_exptl_special_details
;
Melting point range 427-429K
contribution from School of Chemistry, The University of Melbourne, Victoria, 
3010, Australia
;
_exptl_crystal_description 'slab'
_exptl_crystal_preparation 'acetonitrile'
_diffrn_ambient_temperature 130
#These two values have been output from a single CSD field.
_refine_ls_R_factor_gt 0.0364
_refine_ls_wR_factor_gt 0.0364
_symmetry_cell_setting monoclinic
_symmetry_space_group_name_H-M 'P 21/c'
_symmetry_Int_Tables_number 14
loop_
_symmetry_equiv_pos_site_id
_symmetry_equiv_pos_as_xyz
1 x,y,z
2 -x,1/2+y,1/2-z
3 -x,-y,-z
4 x,-1/2-y,-1/2+z
_cell_length_a 13.8338(5)
_cell_length_b 7.1779(2)
_cell_length_c 14.2283(4)
_cell_angle_alpha 90
_cell_angle_beta 110.692(4)
_cell_angle_gamma 90
_cell_formula_units_Z 4
loop_
_atom_type_symbol
_atom_type_radius_bond
C 0.68
H 0.23
N 0.68
O 0.68
loop_
_atom_site_label
_atom_site_type_symbol
_atom_site_fract_x
_atom_site_fract_y
_atom_site_fract_z
H1 H 0.8893(15) 0.082(3) 0.1720(15)
H2 H 1.7401(15) -0.679(2) 0.5175(13)
H3 H 1.6744(12) -0.504(2) 0.4729(12)
O1 O 0.89941(6) 0.10054(11) 0.11819(6)
O2 O 1.76207(6) -0.96011(12) 0.54823(7)
N1 N 1.13230(7) -0.44528(12) 0.19487(7)
N2 N 1.32778(7) -0.64234(12) 0.25881(7)
C1 C 1.02118(8) -0.15919(15) 0.15717(8)
H4 H 1.01730 -0.17010 0.22370
H5 H 1.07790 -0.07600 0.16160
C2 C 1.59593(8) -0.93049(16) 0.43392(8)
O3 O 1.67271(7) -1.21090(12) 0.49428(7)
C3 C 1.22808(8) -0.34761(15) 0.20414(8)
H6 H 1.22430 -0.22080 0.22620
H7 H 1.23510 -0.34200 0.13880
N3 N 1.68360(8) -0.62830(14) 0.47679(8)
C4 C 1.50680(8) -0.64173(15) 0.37231(8)
H8 H 1.50630 -0.51220 0.37110
C5 C 1.41842(9) -0.93426(16) 0.31987(9)
H9 H 1.36010 -1.00150 0.28230
C6 C 0.92078(8) -0.07721(15) 0.08569(8)
H10 H 0.92510 -0.06540 0.01940
H11 H 0.86440 -0.16150 0.08070
C7 C 1.04212(8) -0.35026(15) 0.12186(8)
H12 H 0.98150 -0.42790 0.10940
H13 H 1.05360 -0.33630 0.05880
C8 C 1.14069(8) -0.63295(15) 0.15768(8)
H14 H 1.15200 -0.62370 0.09430
H15 H 1.07640 -0.69950 0.14570
C9 C 1.50560(9) -1.02581(16) 0.37771(9)
H16 H 1.50500 -1.15530 0.37990
C10 C 1.59893(8) -0.73300(15) 0.43016(8)
C11 C 1.32284(8) -0.44259(15) 0.27815(8)
H17 H 1.38440 -0.38270 0.27490
H18 H 1.32240 -0.42580 0.34570
C12 C 1.22886(8) -0.74127(16) 0.23225(9)
H19 H 1.21340 -0.76320 0.29270
H20 H 1.23480 -0.86140 0.20360
N4 N 1.68101(7) -1.03825(14) 0.49486(7)
C13 C 1.41652(8) -0.73551(15) 0.31689(8)
#END
