
#######################################################################
#
#                 Cambridge Crystallographic Data Centre
#                                CCDC
#
#######################################################################
#
# If this CIF has been generated from an entry in the Cambridge
# Structural Database, then it will include bibliographic, chemical,
# crystal, experimental, refinement or atomic coordinate data resulting
# from the CCDC's data processing and validation procedures.
#
#######################################################################

data_CSD_CIF_HOQQUA
_audit_creation_date 2009-07-03
_audit_creation_method CSD-ConQuest-V1
_database_code_CSD HOQQUA
_database_code_depnum_ccdc_archive 'CCDC 704278'
_chemical_formula_sum 'C15 H17 N1 O3'
_chemical_formula_moiety
;
C15 H17 N1 O3
;
_journal_coden_Cambridge 1336
_journal_volume 10
_journal_year 2008
_journal_page_first 5409
_journal_name_full 'Org.Lett. '
loop_
_publ_author_name
"D.Bonne"
"L.Salat"
"J.-P.Dulcere"
"J.Rodriguez"
_chemical_name_systematic
;
(3aR,5R,6S)-5-(1,3-dioxolan-2-yl)-6-phenyl-3a,4,5,6-tetrahydro-3H-cyclopenta[c
]isoxazole
;
_chemical_melting_point 384.15
_cell_volume    660.896
_exptl_crystal_colour 'colorless'
_exptl_crystal_density_diffrn 1.303
_exptl_special_details
;
Melting point range 384.15-385.15K

;
_exptl_crystal_description 'prism'
_exptl_crystal_preparation 'ethyl acetate/petroleum ether'
_diffrn_ambient_temperature 293
#These two values have been output from a single CSD field.
_refine_ls_R_factor_gt 0.0344
_refine_ls_wR_factor_gt 0.0344
_symmetry_cell_setting monoclinic
_symmetry_space_group_name_H-M 'P 21'
_symmetry_Int_Tables_number 4
loop_
_symmetry_equiv_pos_site_id
_symmetry_equiv_pos_as_xyz
1 x,y,z
2 -x,1/2+y,-z
_cell_length_a 5.7133(1)
_cell_length_b 8.3317(2)
_cell_length_c 13.9177(5)
_cell_angle_alpha 90
_cell_angle_beta 93.992(1)
_cell_angle_gamma 90
_cell_formula_units_Z 2
loop_
_atom_type_symbol
_atom_type_radius_bond
C 0.68
H 0.23
N 0.68
O 0.68
loop_
_atom_site_label
_atom_site_type_symbol
_atom_site_fract_x
_atom_site_fract_y
_atom_site_fract_z
C1 C 1.3571(4) 0.3887(3) 0.77361(15)
H1 H 1.45450 0.48320 0.78930
C2 C 1.4936(4) 0.2414(3) 0.81923(15)
H2 H 1.66040 0.26980 0.82620
C3 C 1.4058(4) 0.2264(3) 0.92129(16)
H3 H 1.42440 0.11750 0.94510
H4 H 1.49130 0.29860 0.96580
C4 C 1.1471(4) 0.2726(3) 0.90912(15)
H5 H 1.05210 0.18110 0.88530
C5 C 1.1484(4) 0.4006(3) 0.83442(15)
C6 C 1.3062(4) 0.3907(3) 0.66529(15)
C7 C 1.1090(5) 0.3198(4) 0.62024(18)
H6 H 1.00210 0.26770 0.65690
C8 C 1.0694(6) 0.3259(5) 0.5207(2)
H7 H 0.93600 0.27850 0.49100
C9 C 1.2275(6) 0.4021(5) 0.4663(2)
H8 H 1.19990 0.40700 0.39970
C10 C 1.4235(6) 0.4702(5) 0.5092(2)
H9 H 1.53020 0.52120 0.47200
C11 C 1.4654(5) 0.4641(4) 0.60849(18)
H10 H 1.60150 0.50970 0.63730
C12 C 1.4708(4) 0.0889(3) 0.76213(19)
H11 H 1.50930 0.10990 0.69580
C13 C 1.2796(7) -0.1465(4) 0.7467(2)
H12 H 1.27080 -0.17180 0.67860
H13 H 1.16230 -0.20890 0.77740
C14 C 1.5180(7) -0.1801(4) 0.7917(2)
H14 H 1.50860 -0.23310 0.85340
H15 H 1.60510 -0.24810 0.75030
C15 C 1.0226(5) 0.3643(4) 0.98403(17)
H16 H 0.92190 0.29380 1.01830
H17 H 1.13430 0.41510 1.03010
N1 N 1.0112(4) 0.5176(3) 0.84426(17)
O1 O 1.2451(3) 0.0208(2) 0.76143(14)
O2 O 1.6278(4) -0.0276(2) 0.80395(14)
O3 O 0.8852(3) 0.4836(2) 0.92871(12)
#END
