
#######################################################################
#
#                 Cambridge Crystallographic Data Centre
#                                CCDC
#
#######################################################################
#
# If this CIF has been generated from an entry in the Cambridge
# Structural Database, then it will include bibliographic, chemical,
# crystal, experimental, refinement or atomic coordinate data resulting
# from the CCDC's data processing and validation procedures.
#
#######################################################################

data_CSD_CIF_HOQZUK
_audit_creation_date 2014-09-04
_audit_creation_method CSD-ConQuest-V1
_database_code_CSD HOQZUK
_database_code_depnum_ccdc_archive 'CCDC 864128'
_chemical_formula_sum 'C24 H29 N1 O13'
_chemical_formula_moiety
;
C24 H29 N1 O13
;
_journal_coden_Cambridge 1500
_journal_volume 4
_journal_year 2014
_journal_page_first 41010
_journal_name_full 'RSC Advances '
loop_
_publ_author_name
"A.Hemamalini"
"Thangamuthu Mohan Das"
_chemical_name_systematic
;
2-(acetoxymethyl)-6-(4-hydroxy-4-(2-nitrophenyl)-2-oxobutyl)tetrahydro-2H-pyra
n-3,4,5-triyl triacetate
;
_cell_volume   1337.005
_exptl_crystal_colour 'colorless'
_exptl_crystal_density_diffrn 1.34
_exptl_crystal_description 'block'
_diffrn_ambient_temperature 293
#These two values have been output from a single CSD field.
_refine_ls_R_factor_gt 0.0396
_refine_ls_wR_factor_gt 0.0396
_symmetry_cell_setting monoclinic
_symmetry_space_group_name_H-M 'P 21'
_symmetry_Int_Tables_number 4
loop_
_symmetry_equiv_pos_site_id
_symmetry_equiv_pos_as_xyz
1 x,y,z
2 -x,1/2+y,-z
_cell_length_a 9.523(5)
_cell_length_b 5.419(5)
_cell_length_c 26.034(5)
_cell_angle_alpha 90
_cell_angle_beta 95.631(5)
_cell_angle_gamma 90
_cell_formula_units_Z 2
loop_
_atom_type_symbol
_atom_type_radius_bond
C 0.68
H 0.23
N 0.68
O 0.68
loop_
_atom_site_label
_atom_site_type_symbol
_atom_site_fract_x
_atom_site_fract_y
_atom_site_fract_z
C1 C 0.3355(2) 0.1675(5) 0.69715(8)
H1 H 0.30120 0.33350 0.68770
C2 C 0.3923(2) 0.0460(4) 0.65147(8)
H2 H 0.41330 -0.12750 0.65960
C3 C 0.5233(2) 0.1704(4) 0.63575(8)
H3 H 0.49840 0.32810 0.61880
C4 C 0.6302(2) 0.2118(4) 0.68178(9)
H4 H 0.67390 0.05510 0.69340
C5 C 0.5592(2) 0.3333(5) 0.72570(9)
H5 H 0.52340 0.49650 0.71480
C6 C 0.2333(2) -0.1500(5) 0.58751(9)
C7 C 0.1225(3) -0.0974(6) 0.54451(10)
H6 H 0.16490 -0.02160 0.51650
H7 H 0.05340 0.01220 0.55640
H8 H 0.07770 -0.24880 0.53290
C8 C 0.6314(2) 0.0930(5) 0.55764(9)
C9 C 0.6838(3) -0.1073(6) 0.52630(11)
H9 H 0.66840 -0.06450 0.49040
H10 H 0.63420 -0.25710 0.53230
H11 H 0.78290 -0.13070 0.53570
C10 C 0.8585(3) 0.2950(5) 0.65443(12)
C11 C 0.9520(3) 0.4928(7) 0.64142(15)
H12 H 1.03260 0.42370 0.62720
H13 H 0.98260 0.58500 0.67200
H14 H 0.90260 0.60030 0.61650
C12 C 0.6582(3) 0.3575(6) 0.77379(10)
H15 H 0.66860 0.20030 0.79160
H16 H 0.75040 0.41150 0.76540
C13 C 0.6503(3) 0.5538(6) 0.85451(10)
C14 C 0.5824(4) 0.7488(6) 0.88282(12)
H17 H 0.61040 0.73250 0.91910
H18 H 0.48180 0.73330 0.87660
H19 H 0.61080 0.90760 0.87120
C15 C 0.2188(3) 0.0185(5) 0.71726(9)
H20 H 0.25460 -0.14380 0.72730
H21 H 0.14320 -0.00270 0.68980
C16 C 0.1602(3) 0.1398(5) 0.76325(10)
C17 C 0.1520(3) -0.0181(5) 0.80924(9)
H22 H 0.24720 -0.06150 0.82290
H23 H 0.10380 -0.16990 0.79840
C18 C 0.0773(2) 0.0954(5) 0.85235(9)
H24 H 0.10180 0.27050 0.85610
C19 C 0.1194(2) -0.0395(5) 0.90234(9)
C20 C 0.0348(3) -0.2329(6) 0.91556(11)
H25 H -0.04630 -0.26890 0.89400
C21 C 0.0649(5) -0.3729(7) 0.95884(17)
H26 H 0.00550 -0.50240 0.96580
C22 C 0.1786(6) -0.3249(10) 0.99111(16)
H27 H 0.19810 -0.42100 1.02060
C23 C 0.2661(4) -0.1381(10) 0.98149(13)
H28 H 0.34500 -0.10350 1.00430
C24 C 0.2359(3) 0.0037(6) 0.93635(10)
N1 N 0.3362(3) 0.1942(7) 0.92739(16)
O1 O 0.44609(16) 0.1821(3) 0.73803(6)
O2 O 0.28587(15) 0.0598(3) 0.60833(6)
O3 O 0.2702(2) -0.3493(3) 0.60188(8)
O4 O 0.57936(16) 0.0035(3) 0.59959(6)
O5 O 0.6363(3) 0.3059(4) 0.54805(9)
O6 O 0.8841(2) 0.0806(4) 0.65324(12)
O7 O 0.73546(17) 0.3821(3) 0.66823(7)
O8 O 0.59743(19) 0.5378(4) 0.80573(7)
O9 O 0.7418(2) 0.4211(5) 0.87291(8)
O10 O 0.1248(3) 0.3546(4) 0.76101(8)
O11 O -0.06856(18) 0.0698(5) 0.83737(7)
H29 H -0.11210 0.17650 0.85150
O12 O 0.3384(3) 0.2754(7) 0.88523(15)
O13 O 0.4146(3) 0.2681(7) 0.96397(16)
#END
