
#######################################################################
#
#                 Cambridge Crystallographic Data Centre
#                                CCDC
#
#######################################################################
#
# If this CIF has been generated from an entry in the Cambridge
# Structural Database, then it will include bibliographic, chemical,
# crystal, experimental, refinement or atomic coordinate data resulting
# from the CCDC's data processing and validation procedures.
#
#######################################################################

data_CSD_CIF_HOSSIR
_audit_creation_date 2000-03-29
_audit_creation_method CSD-ConQuest-V1
_database_code_CSD HOSSIR
_chemical_formula_sum 'C20 H27 N1 O6'
_chemical_formula_moiety
;
C20 H27 N1 O6
;
_journal_coden_Cambridge 24
_journal_volume 40
_journal_year 1999
_journal_page_first 167
_journal_name_full 'Tetrahedron Lett. '
loop_
_publ_author_name
"P.Micuch"
"L.Fisera"
"M.K.Cyranski"
"T.M.Krygowski"
_chemical_name_systematic
;
3-(2,4,6-Trimethylphenyl)-5-(methoxycarbonyl)-5-(hydroxy-(2'',2''-dimethyl-1''
,3''-dioxolan-4''-yl)methyl)-2-isoxazoline
;
_cell_volume    984.034
_exptl_crystal_density_diffrn 1.274
_diffrn_ambient_temperature ?
_diffrn_special_details
;
The study was carried out at room temperature,in the range 283-303K

;
#These two values have been output from a single CSD field.
_refine_ls_R_factor_gt 0.0352
_refine_ls_wR_factor_gt 0.0352
_symmetry_cell_setting monoclinic
_symmetry_space_group_name_H-M 'P 21'
_symmetry_Int_Tables_number 4
loop_
_symmetry_equiv_pos_site_id
_symmetry_equiv_pos_as_xyz
1 x,y,z
2 -x,1/2+y,-z
_cell_length_a 9.598(2)
_cell_length_b 9.951(2)
_cell_length_c 10.707(2)
_cell_angle_alpha 90
_cell_angle_beta 105.79(3)
_cell_angle_gamma 90
_cell_formula_units_Z 2
loop_
_atom_type_symbol
_atom_type_radius_bond
C 0.68
H 0.23
N 0.68
O 0.68
loop_
_atom_site_label
_atom_site_type_symbol
_atom_site_fract_x
_atom_site_fract_y
_atom_site_fract_z
O1 O 0.56400 0.6994(1) 0.4491(1)
N1 N 0.4109(2) 0.7167(2) 0.3992(1)
C1 C 0.3843(2) 0.8409(2) 0.3724(1)
C2 C 0.5148(2) 0.9289(2) 0.4038(2)
C3 C 0.6368(2) 0.8262(2) 0.4376(2)
C4 C 0.6988(2) 0.8027(2) 0.3211(2)
O2 O 0.8133(2) 0.7230(2) 0.3512(1)
O3 O 0.6453(2) 0.8465(2) 0.2155(1)
C5 C 0.8752(3) 0.6855(3) 0.2473(3)
C6 C 0.7565(2) 0.8564(2) 0.5638(2)
C7 C 0.7196(2) 0.8114(2) 0.6863(2)
O4 O 0.7946(1) 0.9943(2) 0.5657(1)
C8 C 0.8328(2) 0.8508(3) 0.8122(2)
O5 O 0.7538(2) 0.9080(3) 0.8909(2)
C9 C 0.6047(2) 0.8880(2) 0.8342(2)
C10 C 0.5256(4) 1.0102(3) 0.8582(2)
C11 C 0.5528(6) 0.7614(4) 0.8830(3)
O6 O 0.5920(1) 0.8779(2) 0.6984(1)
C12 C 0.1827(2) 0.9283(2) 0.1908(2)
C13 C 0.0524(2) 0.9979(2) 0.1500(2)
C14 C -0.0245(2) 1.0379(2) 0.2361(2)
C15 C 0.0288(2) 1.0024(2) 0.3662(2)
C16 C 0.1570(2) 0.9310(2) 0.4108(2)
C17 C 0.2361(2) 0.8969(2) 0.3228(2)
C18 C 0.2636(3) 0.8874(3) 0.0942(2)
C19 C -0.1623(3) 1.1169(3) 0.1904(3)
C20 C 0.2094(3) 0.8926(3) 0.5513(2)
H1 H 0.5100(26) 0.9827(27) 0.4754(23)
H2 H 0.5179(23) 0.9908(27) 0.3314(21)
H3 H 0.9744(45) 0.6568(41) 0.2870(37)
H4 H 0.8125(33) 0.6379(37) 0.1922(29)
H5 H 0.8894(39) 0.7598(43) 0.2015(32)
H6 H 0.8470(26) 0.7989(24) 0.5618(21)
H7 H 0.7060(26) 0.7115(31) 0.6817(22)
H8 H 0.7260(29) 1.0479(30) 0.5953(24)
H9 H 0.9111(28) 0.9326(32) 0.8012(25)
H10 H 0.8853(32) 0.7789(32) 0.8594(26)
H11 H 0.5575(45) 1.0863(45) 0.8244(37)
H12 H 0.4205(40) 0.9967(42) 0.8086(31)
H13 H 0.5409(32) 1.0205(33) 0.9545(27)
H14 H 0.6397(55) 0.6931(59) 0.8604(49)
H15 H 0.5572(35) 0.7689(35) 0.9691(31)
H16 H 0.4563(48) 0.7585(51) 0.8365(40)
H17 H 0.0148(24) 1.0256(26) 0.0587(20)
H18 H -0.0286(22) 1.0324(23) 0.4229(19)
H19 H 0.2182(37) 0.9350(39) 0.0173(34)
H20 H 0.3682(32) 0.9149(33) 0.1216(26)
H21 H 0.2615(52) 0.7962(58) 0.0735(43)
H22 H -0.2168(42) 1.0870(44) 0.1127(36)
H23 H -0.2256(48) 1.1122(54) 0.2406(40)
H24 H -0.1273(41) 1.2298(49) 0.2013(35)
H25 H 0.1391(25) 0.9155(29) 0.6001(23)
H26 H 0.2226(37) 0.7949(41) 0.5600(31)
H27 H 0.3100(31) 0.9024(35) 0.5859(27)
#END
