
#######################################################################
#
#                 Cambridge Crystallographic Data Centre
#                                CCDC
#
#######################################################################
#
# If this CIF has been generated from an entry in the Cambridge
# Structural Database, then it will include bibliographic, chemical,
# crystal, experimental, refinement or atomic coordinate data resulting
# from the CCDC's data processing and validation procedures.
#
#######################################################################

data_CSD_CIF_HOTFUS
_audit_creation_date 2009-07-03
_audit_creation_method CSD-ConQuest-V1
_database_code_CSD HOTFUS
_database_code_depnum_ccdc_archive 'CCDC 731277'
_chemical_formula_sum 'C25 H18 N1 O1'
_chemical_formula_moiety
;
C25 H18 N1 O1
;
_journal_coeditor_code "IUCr FB2149"
_journal_coden_Cambridge 1370
_journal_volume 65
_journal_year 2009
_journal_page_first o1045
_journal_name_full 'Acta Crystallogr.,Sect.E:Struct.Rep.Online '
loop_
_publ_author_name
"C.Rizzoli"
"E.Marku"
"L.Greci"
"P.Astolfi"
_chemical_name_systematic
;
6,6-Diphenylbenzo(c)quinoline-5-oxyl
;
_chemical_melting_point 449
_cell_volume   1811.398
_exptl_crystal_colour 'red'
_exptl_crystal_density_diffrn 1.278
_exptl_special_details
;
Melting point range 449-450K

;
_exptl_crystal_description 'block'
_exptl_crystal_preparation 'ethanol'
_diffrn_ambient_temperature 295
#These two values have been output from a single CSD field.
_refine_ls_R_factor_gt 0.0368
_refine_ls_wR_factor_gt 0.0368
_symmetry_cell_setting monoclinic
_symmetry_space_group_name_H-M 'P 21/c'
_symmetry_Int_Tables_number 14
loop_
_symmetry_equiv_pos_site_id
_symmetry_equiv_pos_as_xyz
1 x,y,z
2 -x,1/2+y,1/2-z
3 -x,-y,-z
4 x,-1/2-y,-1/2+z
_cell_length_a 12.6188(12)
_cell_length_b 8.8704(8)
_cell_length_c 16.6083(15)
_cell_angle_alpha 90
_cell_angle_beta 102.998(2)
_cell_angle_gamma 90
_cell_formula_units_Z 4
loop_
_atom_type_symbol
_atom_type_radius_bond
C 0.68
H 0.23
N 0.68
O 0.68
loop_
_atom_site_label
_atom_site_type_symbol
_atom_site_fract_x
_atom_site_fract_y
_atom_site_fract_z
N1 N 0.26974(9) 0.84150(12) 0.17884(7)
O1 O 0.29038(8) 0.90766(11) 0.24920(6)
C1 C 0.29264(10) 0.61901(15) 0.09755(8)
C2 C 0.1382(1) 0.64080(15) 0.17300(7)
C3 C 0.22201(11) 0.92305(16) 0.10729(9)
C4 C 0.21679(11) 0.85600(16) 0.03064(8)
C5 C 0.33392(11) 0.60524(16) 0.25222(8)
C6 C 0.25883(11) 0.67236(14) 0.17575(8)
C7 C 0.26972(11) 0.70981(15) 0.02684(8)
C8 C 0.30162(12) 0.66030(18) -0.04392(9)
H1 H 0.28960 0.72170 -0.09050
C9 C 0.07658(13) 0.54387(17) 0.11658(9)
H2 H 0.10750 0.49640 0.07750
C10 C 0.34171(12) 0.48029(16) 0.09411(9)
H3 H 0.35600 0.41860 0.14060
C11 C 0.08830(12) 0.71122(17) 0.22877(9)
H4 H 0.12800 0.77850 0.26680
C12 C -0.01884(13) 0.68398(18) 0.22926(10)
H5 H -0.05060 0.73280 0.26750
C13 C 0.35039(12) 0.52270(19) -0.04600(9)
H6 H 0.37030 0.49080 -0.09380
C14 C -0.07899(13) 0.58527(19) 0.17372(10)
H7 H -0.15120 0.56560 0.17440
C15 C 0.18124(13) 1.06672(18) 0.11352(10)
H8 H 0.18840 1.11220 0.16490
C16 C 0.30015(13) 0.48928(18) 0.29547(9)
H9 H 0.22850 0.45600 0.28070
C17 C -0.03136(13) 0.51648(19) 0.11758(10)
H10 H -0.07180 0.45010 0.07930
C18 C 0.16276(13) 0.9348(2) -0.03924(10)
H11 H 0.15620 0.89140 -0.09110
C19 C 0.44123(12) 0.65176(19) 0.27533(9)
H12 H 0.46580 0.72910 0.24640
C20 C 0.36960(13) 0.43243(19) 0.02258(10)
H13 H 0.40160 0.33840 0.02100
C21 C 0.11911(15) 1.0748(2) -0.03309(13)
H14 H 0.08210 1.12450 -0.08040
C22 C 0.13017(15) 1.1411(2) 0.04279(13)
H15 H 0.10280 1.23750 0.04650
C23 C 0.51180(15) 0.5847(2) 0.34067(11)
H16 H 0.58350 0.61780 0.35580
C24 C 0.37243(17) 0.4214(2) 0.36115(10)
H17 H 0.34910 0.34260 0.38990
C25 C 0.47781(18) 0.4703(3) 0.38350(11)
H18 H 0.52600 0.42570 0.42770
#END
