
#######################################################################
#
#                 Cambridge Crystallographic Data Centre
#                                CCDC
#
#######################################################################
#
# If this CIF has been generated from an entry in the Cambridge
# Structural Database, then it will include bibliographic, chemical,
# crystal, experimental, refinement or atomic coordinate data resulting
# from the CCDC's data processing and validation procedures.
#
#######################################################################

data_CSD_CIF_HOTHOP
_audit_creation_date 2015-02-20
_audit_creation_method CSD-ConQuest-V1
_database_code_CSD HOTHOP
_database_code_depnum_ccdc_archive 'CCDC 1010800'
_chemical_formula_sum 'C21 H20 N2 O2'
_chemical_formula_moiety
;
C21 H20 N2 O2
;
_journal_coden_Cambridge 16
_journal_volume 71
_journal_year 2015
_journal_page_first 1952
_journal_name_full 'Tetrahedron '
loop_
_publ_author_name
"M.S.Ledovskaya"
"A.P.Molchanov"
"V.M.Boitsov"
"R.R.Kostikov"
"A.V.Stepakov"
_chemical_name_systematic
;
rac-(6S,8aR,11aS,11bR)-6-methyl-9-(4-methylphenyl)-5,8a,11a,11b-tetrahydroisox
azolo[5',4':3,4]pyrrolo[2,1-a]isoquinolin-8(6H)-one
;
_cell_volume   1720.419
_exptl_crystal_density_diffrn 1.241
_diffrn_ambient_temperature 293
_refine_special_details
;
C5 and C5A disordered over two sites with occupancies 0.795:0.205.

;
#These two values have been output from a single CSD field.
_refine_ls_R_factor_gt 0.0556
_refine_ls_wR_factor_gt 0.0556
loop_
_citation_database_id_CSD
_citation_special_details
HOTHUV "is a stereoisomer of this entry"
_symmetry_cell_setting monoclinic
_symmetry_space_group_name_H-M 'P 21/c'
_symmetry_Int_Tables_number 14
loop_
_symmetry_equiv_pos_site_id
_symmetry_equiv_pos_as_xyz
1 x,y,z
2 -x,1/2+y,1/2-z
3 -x,-y,-z
4 x,-1/2-y,-1/2+z
_cell_length_a 7.9071(2)
_cell_length_b 18.4496(6)
_cell_length_c 11.7939(4)
_cell_angle_alpha 90
_cell_angle_beta 90.645(3)
_cell_angle_gamma 90
_cell_formula_units_Z 4
loop_
_atom_type_symbol
_atom_type_radius_bond
C 0.68
H 0.23
N 0.68
O 0.68
loop_
_atom_site_label
_atom_site_type_symbol
_atom_site_fract_x
_atom_site_fract_y
_atom_site_fract_z
O1 O 0.2800(2) 0.42751(9) 0.15833(13)
N1 N 0.1149(2) 0.51218(10) 0.24571(15)
C1 C 0.3980(2) 0.34849(11) 0.42940(17)
C2 C 0.3627(2) 0.48084(10) 0.34178(17)
H1 H 0.48060 0.48930 0.32090
C3 C 0.3615(3) 0.30144(12) 0.51860(19)
H2 H 0.30340 0.31850 0.58130
O2 O 0.2735(2) 0.52749(8) 0.51841(12)
C4 C 0.2505(3) 0.46834(11) 0.23699(17)
C5 C 0.1118(2) 0.55797(11) 0.34634(17)
H3 H 0.02590 0.53950 0.39810
C6 C 0.4986(3) 0.20268(12) 0.4226(2)
C7 C 0.0694(3) 0.63519(12) 0.31586(19)
C8 C 0.2876(2) 0.54644(11) 0.40037(16)
H4 H 0.35920 0.58930 0.39060
C9 C 0.4113(3) 0.22975(12) 0.5143(2)
H5 H 0.38550 0.19910 0.57420
C10 C -0.0171(3) 0.51779(12) 0.15870(18)
H6 H 0.01880 0.48740 0.09520
C11 C -0.0050(3) 0.65159(13) 0.2111(2)
C12 C 0.4860(3) 0.32164(13) 0.3376(2)
H7 H 0.51140 0.35210 0.27730
C13 C 0.5363(3) 0.24963(13) 0.3350(2)
H8 H 0.59660 0.23260 0.27310
C14 C 0.1004(4) 0.68934(15) 0.3933(3)
H9 H 0.14990 0.67820 0.46310
C15 C -0.1821(4) 0.48719(18) 0.1990(3)
H10 H -0.16300 0.44030 0.23220
H11 H -0.25920 0.48260 0.13590
H12 H -0.22960 0.51900 0.25460
C16 C -0.0479(4) 0.72397(15) 0.1895(3)
H13 H -0.10040 0.73590 0.12110
C17 C -0.0231(4) 0.59452(14) 0.1153(2)
H14 H -0.12970 0.60220 0.07550
H15 H 0.06720 0.60140 0.06140
C18 C -0.0146(4) 0.77727(17) 0.2662(3)
H16 H -0.04160 0.82510 0.24910
C19 C 0.0582(5) 0.76050(17) 0.3678(3)
H17 H 0.07970 0.79690 0.42060
C20 C 0.5494(4) 0.12349(15) 0.4178(4)
H18 H 0.54120 0.10250 0.49200
H19 H 0.66380 0.11970 0.39200
H20 H 0.47540 0.09810 0.36630
N2 N 0.2994(2) 0.45192(9) 0.52968(14)
C21 C 0.3494(2) 0.42513(10) 0.43554(16)
C22? C -0.1162(10) 0.5887(3) 0.1748(15)
H21? H -0.17300 0.60110 0.10410
H22? H -0.20230 0.58120 0.23150
#END
