
#######################################################################
#
#                 Cambridge Crystallographic Data Centre
#                                CCDC
#
#######################################################################
#
# If this CIF has been generated from an entry in the Cambridge
# Structural Database, then it will include bibliographic, chemical,
# crystal, experimental, refinement or atomic coordinate data resulting
# from the CCDC's data processing and validation procedures.
#
#######################################################################

data_CSD_CIF_HOTHAB
_audit_creation_date 2015-02-20
_audit_creation_method CSD-ConQuest-V1
_database_code_CSD HOTHAB
_database_code_depnum_ccdc_archive 'CCDC 1010495'
_chemical_formula_sum 'C20 H20 N2 O3'
_chemical_formula_moiety
;
C20 H20 N2 O3
;
_journal_coden_Cambridge 16
_journal_volume 71
_journal_year 2015
_journal_page_first 1952
_journal_name_full 'Tetrahedron '
loop_
_publ_author_name
"M.S.Ledovskaya"
"A.P.Molchanov"
"V.M.Boitsov"
"R.R.Kostikov"
"A.V.Stepakov"
_chemical_name_systematic
;
6-hydroxy-5-(1-methyl-2-phenyl-ethyl)-3-phenyl-3a,5,6,6a-tetrahydro-pyrrolo[3,
4-d]isoxazol-4-one
;
_cell_volume   3313.703
_exptl_crystal_colour 'colorless'
_exptl_crystal_density_diffrn 1.348
_diffrn_ambient_temperature 100
#These two values have been output from a single CSD field.
_refine_ls_R_factor_gt 0.066
_refine_ls_wR_factor_gt 0.066
_symmetry_cell_setting monoclinic
_symmetry_space_group_name_H-M 'C 2/c'
_symmetry_Int_Tables_number 15
loop_
_symmetry_equiv_pos_site_id
_symmetry_equiv_pos_as_xyz
1 x,y,z
2 -x,y,1/2-z
3 1/2+x,1/2+y,z
4 1/2-x,1/2+y,1/2-z
5 -x,-y,-z
6 x,-y,-1/2+z
7 -1/2-x,-1/2-y,-z
8 -1/2+x,-1/2-y,-1/2+z
_cell_length_a 14.7373(19)
_cell_length_b 10.3765(13)
_cell_length_c 22.407(4)
_cell_angle_alpha 90
_cell_angle_beta 104.743(4)
_cell_angle_gamma 90
_cell_formula_units_Z 8
loop_
_atom_type_symbol
_atom_type_radius_bond
C 0.68
H 0.23
N 0.68
O 0.68
loop_
_atom_site_label
_atom_site_type_symbol
_atom_site_fract_x
_atom_site_fract_y
_atom_site_fract_z
C1 C 1.06279(7) 0.88566(13) 0.58436(6)
H1 H 1.07190 0.80920 0.56500
C2 C 1.09171(9) 1.0019(2) 0.56437(10)
H2 H 1.11930 1.00270 0.53140
C3 C 1.07996(10) 1.11522(16) 0.59273(14)
H3 H 1.09980 1.19250 0.57920
C4 C 1.0386(1) 1.11423(12) 0.64139(14)
H4 H 1.03060 1.19110 0.66080
C5 C 1.00858(8) 0.99820(12) 0.66169(8)
H5 H 0.98060 0.99840 0.69450
C6 C 0.83178(5) 0.48247(7) 0.79553(3)
C7 C 0.81748(5) 0.52496(7) 0.85496(3)
C8 C 0.77353(5) 0.52240(7) 0.73274(3)
H6 H 0.70580 0.51710 0.72850
C9 C 0.80596(5) 0.65547(7) 0.71654(3)
C10 C 0.87782(5) 0.75469(7) 0.64012(3)
H7 H 0.85880 0.83130 0.65950
C11 C 0.83531(5) 0.51252(7) 0.64124(3)
H8 H 0.78240 0.51420 0.60450
C12 C 0.73877(6) 0.59880(8) 0.85644(4)
H9 H 0.69650 0.62260 0.81970
C13 C 0.80795(5) 0.42990(7) 0.69091(3)
H10 H 0.76110 0.36420 0.67310
C14 C 1.02021(6) 0.88300(8) 0.63336(4)
C15 C 0.88098(6) 0.49037(9) 0.91094(4)
H11 H 0.93340 0.44080 0.91050
C16 C 0.98547(5) 0.75760(8) 0.65322(4)
H12 H 1.01260 0.74530 0.69710
H13 H 1.00610 0.68710 0.63150
C17 C 0.82946(7) 0.76157(9) 0.57152(4)
H14 H 0.76270 0.75770 0.56580
H15 H 0.84940 0.69030 0.55060
H16 H 0.84580 0.84100 0.55490
C18 C 0.78685(7) 0.60273(10) 0.96793(4)
H17 H 0.77660 0.62850 1.00540
C19 C 0.86582(6) 0.52991(10) 0.96683(4)
H18 H 0.90850 0.50770 1.00360
C20 C 0.72329(7) 0.63698(9) 0.91281(4)
H19 H 0.67050 0.68530 0.91350
O1 O 0.89318(4) 0.37424(6) 0.73028(3)
O2 O 0.79851(5) 0.75603(6) 0.74329(3)
O3 O 0.91451(4) 0.46803(6) 0.62423(3)
H20 H 0.95450 0.44580 0.65510
N1 N 0.84653(4) 0.64155(6) 0.66889(3)
N2 N 0.89958(5) 0.40687(7) 0.79233(3)
#END
