
#######################################################################
#
#                 Cambridge Crystallographic Data Centre
#                                CCDC
#
#######################################################################
#
# If this CIF has been generated from an entry in the Cambridge
# Structural Database, then it will include bibliographic, chemical,
# crystal, experimental, refinement or atomic coordinate data resulting
# from the CCDC's data processing and validation procedures.
#
#######################################################################

data_CSD_CIF_HOTMEI
_audit_creation_date 2000-03-29
_audit_creation_method CSD-ConQuest-V1
_database_code_CSD HOTMEI
_database_code_depnum_ccdc_archive 'CCDC 136508'
_chemical_formula_sum 'C26 H42 N2 O3'
_chemical_formula_moiety
;
C26 H42 N2 O3
;
_journal_coden_Cambridge 1336
_journal_volume 1
_journal_year 1999
_journal_page_first 693
_journal_name_full 'Org.Lett. '
loop_
_publ_author_name
"A.D.Allen"
"B.Cheng"
"M.H.Fenwick"
"Wen-wei Huang"
"S.Missiha"
"D.Tahmassebi"
"T.T.Tidwell"
_chemical_name_systematic
;
1-Aza-2,2,6,6-tetramethylcyclohexyl 
2-(1-aza-2,2,6,6-tetramethyl-cyclohexyloxy)-2-phenylethanoate
;
_cell_volume   1270.896
_exptl_crystal_colour 'colorless'
_exptl_crystal_density_diffrn 1.125
_exptl_crystal_description 'block'
_diffrn_ambient_temperature 125.0
#These two values have been output from a single CSD field.
_refine_ls_R_factor_gt 0.0463
_refine_ls_wR_factor_gt 0.0463
_symmetry_cell_setting triclinic
_symmetry_space_group_name_H-M 'P -1'
_symmetry_Int_Tables_number 2
loop_
_symmetry_equiv_pos_site_id
_symmetry_equiv_pos_as_xyz
1 x,y,z
2 -x,-y,-z
_cell_length_a 7.4729(4)
_cell_length_b 12.4337(7)
_cell_length_c 14.4929(9)
_cell_angle_alpha 79.296(3)
_cell_angle_beta 80.363(3)
_cell_angle_gamma 75.546(3)
_cell_formula_units_Z 2
loop_
_atom_type_symbol
_atom_type_radius_bond
C 0.68
H 0.23
N 0.68
O 0.68
loop_
_atom_site_label
_atom_site_type_symbol
_atom_site_fract_x
_atom_site_fract_y
_atom_site_fract_z
O1 O 0.47458(17) 0.29311(10) 0.18446(9)
O2 O 0.28591(15) 0.43937(9) 0.25482(9)
O3 O 0.22387(15) 0.16234(9) 0.26188(8)
N1 N 0.41583(19) 0.50993(11) 0.20776(11)
N2 N 0.05523(18) 0.15226(11) 0.22826(10)
C1 C 0.3387(2) 0.33170(14) 0.23536(12)
C2 C 0.1969(2) 0.26741(13) 0.29404(12)
H1 H 0.06750 0.31230 0.28690
C3 C 0.2308(2) 0.25110(14) 0.39701(13)
C4 C 0.1224(3) 0.32140(15) 0.45898(14)
H2 H 0.02200 0.37940 0.43770
C5 C 0.1588(3) 0.30788(17) 0.55173(14)
H3 H 0.08320 0.35630 0.59370
C6 C 0.3057(3) 0.22360(16) 0.58311(14)
H4 H 0.33120 0.21420 0.64650
C7 C 0.4144(3) 0.15363(15) 0.52193(14)
H5 H 0.51500 0.09590 0.54340
C8 C 0.3781(3) 0.16679(14) 0.42894(13)
H6 H 0.45390 0.11820 0.38720
C9 C 0.5110(2) 0.53158(15) 0.28283(14)
C10 C 0.6390(3) 0.60846(16) 0.23051(16)
H7 H 0.70110 0.63000 0.27720
H8 H 0.73700 0.56630 0.18730
C11 C 0.5359(3) 0.71465(16) 0.17335(15)
H9 H 0.44320 0.76030 0.21630
H10 H 0.62520 0.76020 0.13980
C12 C 0.4381(3) 0.68260(16) 0.10210(15)
H11 H 0.53320 0.64380 0.05560
H12 H 0.36710 0.75190 0.06720
C13 C 0.3042(2) 0.60573(14) 0.14786(13)
C14 C 0.6324(3) 0.41741(17) 0.32192(18)
H13 H 0.70580 0.38060 0.26910
H14 H 0.55190 0.36950 0.35940
H15 H 0.71650 0.42970 0.36210
C15 C 0.3846(3) 0.58159(16) 0.36638(14)
H16 H 0.32560 0.66010 0.34540
H17 H 0.45920 0.57780 0.41690
H18 H 0.28830 0.53880 0.39020
C16 C 0.2502(3) 0.55526(16) 0.07061(14)
H19 H 0.14890 0.51720 0.09750
H20 H 0.35830 0.50100 0.04560
H21 H 0.20880 0.61530 0.01940
C17 C 0.1250(2) 0.67211(15) 0.19875(14)
H22 H 0.05460 0.61970 0.23810
H23 H 0.04880 0.72100 0.15170
H24 H 0.15720 0.71810 0.23880
C18 C 0.1041(2) 0.14329(15) 0.12507(12)
C19 C -0.0678(3) 0.12244(16) 0.09179(13)
H25 H -0.16960 0.19070 0.09440
H26 H -0.03640 0.10980 0.02500
C20 C -0.1371(3) 0.02248(15) 0.15055(14)
H27 H -0.25040 0.01500 0.12770
H28 H -0.04040 -0.04760 0.14490
C21 C -0.1809(3) 0.04219(15) 0.25325(13)
H29 H -0.22420 -0.02300 0.29220
H30 H -0.28420 0.10930 0.25810
C22 C -0.0145(2) 0.05923(13) 0.29406(12)
C23 C 0.2801(3) 0.05424(18) 0.09865(15)
H31 H 0.25290 -0.02060 0.11560
H32 H 0.37990 0.05810 0.13310
H33 H 0.31970 0.06850 0.03040
C24 C 0.1337(3) 0.25863(17) 0.07492(14)
H34 H 0.03290 0.31770 0.09910
H35 H 0.13370 0.26350 0.00660
H36 H 0.25340 0.26850 0.08700
C25 C 0.1318(3) -0.05197(14) 0.31090(15)
H37 H 0.24580 -0.03660 0.32510
H38 H 0.15980 -0.08810 0.25390
H39 H 0.08270 -0.10190 0.36440
C26 C -0.0862(3) 0.10007(15) 0.38937(13)
H40 H 0.01900 0.10670 0.41850
H41 H -0.15080 0.04610 0.43100
H42 H -0.17270 0.17350 0.37980
#END
