
#######################################################################
#
#                 Cambridge Crystallographic Data Centre
#                                CCDC
#
#######################################################################
#
# If this CIF has been generated from an entry in the Cambridge
# Structural Database, then it will include bibliographic, chemical,
# crystal, experimental, refinement or atomic coordinate data resulting
# from the CCDC's data processing and validation procedures.
#
#######################################################################

data_CSD_CIF_HOTNAF
_audit_creation_date 2000-03-29
_audit_creation_method CSD-ConQuest-V1
_database_code_CSD HOTNAF
_database_code_depnum_ccdc_archive 'CCDC 133655'
_chemical_formula_sum 'C7 H7 N3 O3'
_chemical_formula_moiety
;
C7 H7 N3 O3
;
_journal_coden_Cambridge 24
_journal_volume 40
_journal_year 1999
_journal_page_first 8157
_journal_name_full 'Tetrahedron Lett. '
loop_
_publ_author_name
"A.Taher"
"A.M.Z.Slawin"
"G.W.Weaver"
_chemical_name_systematic
;
1-Methyl-6-methoxycarbonylimidazo(4,5-c)isoxazole
;
_cell_volume    798.569
_exptl_crystal_colour 'colorless'
_exptl_crystal_density_diffrn 1.507
_exptl_crystal_description 'plate'
_diffrn_ambient_temperature ?
_diffrn_special_details
;
The study was carried out at room temperature,in the range 283-303K

;
#These two values have been output from a single CSD field.
_refine_ls_R_factor_gt 0.0447
_refine_ls_wR_factor_gt 0.0447
_symmetry_cell_setting monoclinic
_symmetry_space_group_name_H-M 'P 21/a'
_symmetry_Int_Tables_number 14
loop_
_symmetry_equiv_pos_site_id
_symmetry_equiv_pos_as_xyz
1 x,y,z
2 1/2+x,1/2-y,z
3 -x,-y,-z
4 -1/2-x,-1/2+y,-z
_cell_length_a 7.784(4)
_cell_length_b 14.272(2)
_cell_length_c 7.871(3)
_cell_angle_alpha 90
_cell_angle_beta 114.04(3)
_cell_angle_gamma 90
_cell_formula_units_Z 4
loop_
_atom_type_symbol
_atom_type_radius_bond
C 0.68
H 0.23
N 0.68
O 0.68
loop_
_atom_site_label
_atom_site_type_symbol
_atom_site_fract_x
_atom_site_fract_y
_atom_site_fract_z
O1 O 0.0864(5) 0.9360(2) 0.3429(4)
O2 O 0.2862(5) 1.0899(2) 0.5322(4)
O3 O 0.0582(4) 1.1832(2) 0.3359(4)
N1 N -0.2744(5) 1.0620(3) -0.0192(5)
N2 N -0.3150(6) 0.9035(3) -0.0748(5)
N3 N -0.0332(6) 0.8699(3) 0.2154(5)
C1 C -0.1323(7) 1.0197(3) 0.1268(6)
C2 C -0.3775(7) 0.9890(4) -0.1329(6)
C3 C -0.1610(7) 0.9217(3) 0.0884(6)
C4 C 0.0227(7) 1.0257(3) 0.2839(6)
C5 C 0.1404(7) 1.1005(4) 0.3993(6)
C6 C 0.1591(8) 1.2655(3) 0.4381(7)
C7 C -0.3177(7) 1.1629(3) -0.0505(6)
H1 H -0.48530 1.00040 -0.24430
H2 H 0.20110 1.25460 0.56810
H3 H 0.26420 1.27720 0.40940
H4 H 0.07730 1.31810 0.40380
H5 H -0.24910 1.18890 -0.11590
H6 H -0.28220 1.19370 0.06540
H7 H -0.44830 1.17100 -0.12260
#END
