
#######################################################################
#
#                 Cambridge Crystallographic Data Centre
#                                CCDC
#
#######################################################################
#
# If this CIF has been generated from an entry in the Cambridge
# Structural Database, then it will include bibliographic, chemical,
# crystal, experimental, refinement or atomic coordinate data resulting
# from the CCDC's data processing and validation procedures.
#
#######################################################################

data_CSD_CIF_HOTYIA
_audit_creation_date 2015-02-21
_audit_creation_method CSD-ConQuest-V1
_database_code_CSD HOTYIA
_database_code_depnum_ccdc_archive 'CCDC 937567'
_chemical_formula_sum 'C24 H23 N1 O2'
_chemical_formula_moiety
;
C24 H23 N1 O2
;
_journal_coden_Cambridge 1290
_journal_year 2015
_journal_page_first 1529
_journal_name_full 'Eur.J.Inorg.Chem. '
loop_
_publ_author_name
"P.Jewula"
"J.-C.Berthet"
"J.-C.Chambron"
"Y.Rousselin"
"P.Thuery"
"M.Meyer"
_chemical_name_systematic
;
N-(trityloxy)pent-4-enamide
;
_cell_volume   1955.861
_exptl_crystal_colour 'colorless'
_exptl_crystal_density_diffrn 1.214
_exptl_crystal_description 'prism'
_exptl_crystal_preparation 'heptane'
_diffrn_ambient_temperature 115
#These two values have been output from a single CSD field.
_refine_ls_R_factor_gt 0.0622
_refine_ls_wR_factor_gt 0.0622
_symmetry_cell_setting orthorhombic
_symmetry_space_group_name_H-M 'P n a 21'
_symmetry_Int_Tables_number 33
loop_
_symmetry_equiv_pos_site_id
_symmetry_equiv_pos_as_xyz
1 x,y,z
2 -x,-y,1/2+z
3 1/2-x,1/2+y,1/2+z
4 1/2+x,1/2-y,z
_cell_length_a 9.3309(3)
_cell_length_b 14.6304(9)
_cell_length_c 14.3271(7)
_cell_angle_alpha 90
_cell_angle_beta 90
_cell_angle_gamma 90
_cell_formula_units_Z 4
loop_
_atom_type_symbol
_atom_type_radius_bond
C 0.68
H 0.23
N 0.68
O 0.68
loop_
_atom_site_label
_atom_site_type_symbol
_atom_site_fract_x
_atom_site_fract_y
_atom_site_fract_z
C1 C 0.5897(4) 0.0677(3) 0.9899(3)
C2 C 0.7058(4) 0.1249(3) 1.0083(3)
H1 H 0.69190 0.18920 1.01060
C3 C 0.8424(4) 0.0886(3) 1.0233(3)
H2 H 0.92090 0.12840 1.03460
C4 C 0.8638(4) -0.0048(3) 1.0219(3)
H3 H 0.95660 -0.02940 1.03250
C5 C 0.7489(4) -0.0623(3) 1.0048(3)
H4 H 0.76280 -0.12660 1.00420
C6 C 0.6132(4) -0.0263(3) 0.9885(3)
H5 H 0.53540 -0.06640 0.97620
C7 C 0.3671(4) 0.1041(3) 1.0754(3)
C8 C 0.3611(5) 0.1801(3) 1.1328(3)
H6 H 0.40090 0.23640 1.11240
C9 C 0.2969(6) 0.1742(4) 1.2204(3)
H7 H 0.29330 0.22680 1.25920
C10 C 0.2386(5) 0.0934(4) 1.2515(3)
H8 H 0.19300 0.09050 1.31070
C11 C 0.2471(5) 0.0163(3) 1.1956(3)
H9 H 0.20930 -0.04030 1.21690
C12 C 0.3111(5) 0.0221(3) 1.1080(3)
H10 H 0.31670 -0.03090 1.06990
C13 C 0.3468(4) 0.0608(3) 0.9038(3)
C14 C 0.1982(4) 0.0676(3) 0.9087(3)
H11 H 0.15550 0.09980 0.95910
C15 C 0.1116(4) 0.0284(3) 0.8415(3)
H12 H 0.01030 0.03320 0.84630
C16 C 0.1726(5) -0.0179(3) 0.7675(3)
H13 H 0.11300 -0.04620 0.72220
C17 C 0.3198(5) -0.0232(3) 0.7592(3)
H14 H 0.36170 -0.05380 0.70740
C18 C 0.4065(4) 0.0165(3) 0.8273(3)
H15 H 0.50780 0.01340 0.82120
C19 C 0.4386(4) 0.1072(2) 0.9784(3)
C20 C 0.4232(4) 0.2601(3) 0.8027(3)
C21 C 0.4999(4) 0.2771(3) 0.7109(3)
H16 H 0.51780 0.34340 0.70340
H17 H 0.59350 0.24530 0.71130
C22 C 0.4105(5) 0.2428(4) 0.6304(3)
H18 H 0.38790 0.17750 0.64080
H19 H 0.31880 0.27680 0.62930
C23 C 0.4827(5) 0.2529(3) 0.5372(3)
H20 H 0.57490 0.22620 0.53030
C24 C 0.4287(6) 0.2958(4) 0.4641(3)
H21 H 0.33680 0.32340 0.46810
H22 H 0.48180 0.29900 0.40770
N1 N 0.5045(3) 0.2185(2) 0.8674(2)
H23 H 0.60140 0.21470 0.86300
O1 O 0.4481(3) 0.20507(18) 0.95673(19)
O2 O 0.2971(3) 0.2824(2) 0.8141(2)
#END
