
#######################################################################
#
#                 Cambridge Crystallographic Data Centre
#                                CCDC
#
#######################################################################
#
# If this CIF has been generated from an entry in the Cambridge
# Structural Database, then it will include bibliographic, chemical,
# crystal, experimental, refinement or atomic coordinate data resulting
# from the CCDC's data processing and validation procedures.
#
#######################################################################

data_CSD_CIF_HOWSOD
_audit_creation_date 2015-02-23
_audit_creation_method CSD-ConQuest-V1
_database_code_CSD HOWSOD
_database_code_depnum_ccdc_archive 'CCDC 1011453'
_chemical_formula_sum 'C22 H16 N2 O5'
_chemical_formula_moiety
;
C22 H16 N2 O5
;
_journal_coden_Cambridge 9
_journal_volume 53
_journal_year 2014
_journal_page_first 12199
_journal_name_full 'Inorg.Chem. '
loop_
_publ_author_name
"Zhong-Xuan Xu"
"Yan-Xi Tan"
"Hong-Ru Fu"
"Juan Liu"
"Jian Zhang"
_chemical_name_systematic
;
3-benzoyl-1-(4-nitrobenzyl)-1-azaspiro[3.5]nona-5,8-diene-2,7-dione
;
_chemical_melting_point 414.2
_cell_volume    889.469
_exptl_crystal_colour 'colorless'
_exptl_crystal_density_diffrn 1.45
_exptl_special_details
;
Melting point range 414.2-416.5K

;
_exptl_crystal_description 'block'
_diffrn_ambient_temperature 293
#These two values have been output from a single CSD field.
_refine_ls_R_factor_gt 0.0493
_refine_ls_wR_factor_gt 0.0493
_symmetry_cell_setting triclinic
_symmetry_space_group_name_H-M 'P -1'
_symmetry_Int_Tables_number 2
loop_
_symmetry_equiv_pos_site_id
_symmetry_equiv_pos_as_xyz
1 x,y,z
2 -x,-y,-z
_cell_length_a 8.1161(6)
_cell_length_b 10.6291(9)
_cell_length_c 11.2955(7)
_cell_angle_alpha 70.929(7)
_cell_angle_beta 79.274(6)
_cell_angle_gamma 76.625(7)
_cell_formula_units_Z 2
loop_
_atom_type_symbol
_atom_type_radius_bond
C 0.68
H 0.23
N 0.68
O 0.68
loop_
_atom_site_label
_atom_site_type_symbol
_atom_site_fract_x
_atom_site_fract_y
_atom_site_fract_z
O1 O 0.38316(18) 0.06239(14) 0.63734(13)
O2 O 0.20201(17) -0.10083(14) 0.52954(13)
O3 O -0.37744(19) 0.20856(17) -0.05997(15)
N1 N 0.24291(19) 0.06760(16) 0.33800(14)
O4 O 0.26497(19) 0.52595(15) 0.00955(14)
N2 N -0.2331(2) 0.23284(18) -0.10109(16)
C1 C 0.3012(2) 0.16487(19) 0.57304(16)
C2 C -0.1017(2) 0.1805(2) -0.01506(18)
O5 O -0.1927(2) 0.29609(18) -0.21097(14)
C3 C 0.2257(2) 0.4210(2) 0.50066(17)
H1 H 0.16820 0.41780 0.43810
C4 C 0.3902(2) 0.26004(19) 0.28224(17)
H2 H 0.48670 0.21790 0.32320
C5 C 0.0853(2) 0.40444(19) 0.17348(18)
H3 H -0.01360 0.45770 0.14080
C6 C 0.3014(2) 0.30140(19) 0.58337(16)
C7 C 0.2266(2) 0.21005(18) 0.33655(16)
C8 C -0.1471(2) 0.1100(2) 0.10940(18)
H4 H -0.25930 0.09930 0.13910
C9 C 0.1875(2) 0.15294(18) 0.48583(17)
H5 H 0.06740 0.18380 0.51330
C10 C 0.2825(2) 0.0107(2) 0.23301(17)
H6 H 0.28920 -0.08660 0.26510
H7 H 0.39280 0.02820 0.18790
C11 C 0.1888(2) 0.1444(2) 0.01808(18)
H8 H 0.30080 0.15580 -0.01190
C12 C 0.2117(2) 0.01347(19) 0.46404(17)
C13 C 0.4024(2) 0.3627(2) 0.17735(17)
H9 H 0.50820 0.38710 0.14440
C14 C 0.2520(2) 0.4387(2) 0.11188(18)
C15 C 0.0741(2) 0.29819(19) 0.27533(17)
H10 H -0.03310 0.27760 0.31020
C16 C 0.3850(2) 0.3077(2) 0.67869(18)
H11 H 0.43590 0.22810 0.73400
C17 C -0.0201(2) 0.0562(2) 0.18802(18)
H12 H -0.04760 0.00910 0.27210
C18 C 0.1481(2) 0.07126(19) 0.14320(17)
C19 C 0.0633(3) 0.2002(2) -0.06212(18)
H13 H 0.08950 0.24970 -0.14560
C20 C 0.3924(2) 0.4313(2) 0.69102(19)
H14 H 0.44560 0.43480 0.75570
C21 C 0.2367(2) 0.5450(2) 0.51207(18)
H15 H 0.18790 0.62490 0.45610
C22 C 0.3204(2) 0.5503(2) 0.60687(19)
H16 H 0.32800 0.63360 0.61380
#END
