
#######################################################################
#
#                 Cambridge Crystallographic Data Centre
#                                CCDC
#
#######################################################################
#
# If this CIF has been generated from an entry in the Cambridge
# Structural Database, then it will include bibliographic, chemical,
# crystal, experimental, refinement or atomic coordinate data resulting
# from the CCDC's data processing and validation procedures.
#
#######################################################################

data_CSD_CIF_HOWVUM
_audit_creation_date 2015-02-23
_audit_creation_method CSD-ConQuest-V1
_database_code_CSD HOWVUM
_database_code_depnum_ccdc_archive 'CCDC 1002355'
_chemical_formula_sum 'C30 H28 N4 O5'
_chemical_formula_moiety
;
C30 H28 N4 O5
;
_journal_coden_Cambridge 1336
_journal_volume 16
_journal_year 2014
_journal_page_first 4742
_journal_name_full 'Org.Lett. '
loop_
_publ_author_name
"Dengke Ma"
"Youai Qiu"
"Jianxin Dai"
"Chunling Fu"
"Shengming Ma"
_chemical_name_systematic
;
1-((2-cyclohexyl-4,6-diphenyl-4H-pyran-3-yl)methylene)-2-(2,4-dinitrophenyl)hy
drazine unknown solvate
;
_cell_volume   3007.688
_exptl_crystal_colour 'yellow'
_exptl_crystal_density_diffrn 1.158
_exptl_crystal_description 'platelet'
_diffrn_ambient_temperature 293
_refine_special_details
;
The SQUEEZE/PLATON program has been used to model some disorder.

;
#These two values have been output from a single CSD field.
_refine_ls_R_factor_gt 0.0682
_refine_ls_wR_factor_gt 0.0682
_symmetry_cell_setting monoclinic
_symmetry_space_group_name_H-M 'P 21/c'
_symmetry_Int_Tables_number 14
loop_
_symmetry_equiv_pos_site_id
_symmetry_equiv_pos_as_xyz
1 x,y,z
2 -x,1/2+y,1/2-z
3 -x,-y,-z
4 x,-1/2-y,-1/2+z
_cell_length_a 13.1313(15)
_cell_length_b 19.0446(14)
_cell_length_c 12.9434(16)
_cell_angle_alpha 90
_cell_angle_beta 111.691(14)
_cell_angle_gamma 90
_cell_formula_units_Z 4
loop_
_atom_type_symbol
_atom_type_radius_bond
C 0.68
H 0.23
N 0.68
O 0.68
loop_
_atom_site_label
_atom_site_type_symbol
_atom_site_fract_x
_atom_site_fract_y
_atom_site_fract_z
O1 O 0.28799(16) 0.83619(10) 0.38167(17)
O2 O 0.2455(2) 0.44277(12) 0.5497(2)
O3 O 0.1801(2) 0.35739(12) 0.6112(3)
O4 O -0.0493(3) 0.39182(15) 0.8175(3)
O5 O -0.0979(4) 0.49436(19) 0.8411(4)
N1 N 0.15761(18) 0.64054(11) 0.5215(2)
N2 N 0.17029(18) 0.57026(12) 0.5472(2)
H1 H 0.21390 0.54530 0.52650
N3 N 0.1857(2) 0.41946(13) 0.5948(2)
N4 N -0.0540(3) 0.45345(17) 0.7968(3)
C1 C 0.2260(3) 1.01031(17) 0.4650(3)
H2 H 0.17380 1.00030 0.49580
C2 C 0.2554(4) 1.0790(2) 0.4580(4)
H3 H 0.22310 1.11460 0.48450
C3 C 0.3297(3) 1.0954(2) 0.4136(4)
H4 H 0.34860 1.14200 0.40890
C4 C 0.3772(3) 1.0431(2) 0.3757(4)
H5 H 0.42960 1.05400 0.34560
C5 C 0.3480(3) 0.97299(19) 0.3815(4)
H6 H 0.38010 0.93770 0.35410
C6 C 0.2727(2) 0.95594(15) 0.4270(2)
C7 C 0.2378(2) 0.88237(14) 0.4321(2)
C8 C 0.1676(2) 0.85932(14) 0.4756(2)
H7 H 0.14030 0.89060 0.51420
C9 C 0.1304(2) 0.78399(14) 0.4646(2)
H8 H 0.12460 0.76950 0.53480
C10 C 0.2153(2) 0.73807(14) 0.4442(2)
C11 C 0.2869(2) 0.76578(14) 0.4030(2)
C12 C 0.0167(2) 0.78021(13) 0.3735(2)
C13 C -0.0723(2) 0.80418(17) 0.3968(3)
H9 H -0.06220 0.81900 0.46840
C14 C -0.1769(3) 0.8063(2) 0.3140(4)
H10 H -0.23580 0.82240 0.33070
C15 C -0.1930(3) 0.78477(19) 0.2092(4)
H11 H -0.26280 0.78610 0.15420
C16 C -0.1060(3) 0.76108(18) 0.1846(3)
H12 H -0.11720 0.74630 0.11270
C17 C -0.0017(2) 0.75897(16) 0.2654(3)
H13 H 0.05660 0.74320 0.24730
C18 C 0.2181(2) 0.66466(14) 0.4731(2)
H14 H 0.26540 0.63460 0.45590
C19 C 0.1143(2) 0.54028(14) 0.6049(2)
C20 C 0.0472(2) 0.58169(15) 0.6428(3)
H15 H 0.04050 0.62940 0.62620
C21 C -0.0087(3) 0.55384(16) 0.7036(3)
H16 H -0.05210 0.58250 0.72870
C22 C -0.0004(2) 0.48251(16) 0.7280(3)
C23 C 0.0628(2) 0.43925(15) 0.6917(2)
H17 H 0.06740 0.39150 0.70770
C24 C 0.1197(2) 0.46805(14) 0.6308(2)
C25 C 0.3727(2) 0.72883(15) 0.3720(2)
H18 H 0.37680 0.68040 0.39880
C26 C 0.4863(2) 0.7613(2) 0.4282(3)
H19 H 0.48360 0.81040 0.40750
H20 H 0.50700 0.75900 0.50830
C27 C 0.5727(2) 0.7242(2) 0.3962(3)
H21 H 0.64190 0.74880 0.42900
H22 H 0.58270 0.67680 0.42600
C28 C 0.5416(3) 0.7209(2) 0.2728(3)
H23 H 0.59600 0.69390 0.25580
H24 H 0.54060 0.76800 0.24400
C29 C 0.4308(3) 0.6877(2) 0.2169(3)
H25 H 0.43410 0.63890 0.23890
H26 H 0.41100 0.68930 0.13690
C30 C 0.3427(2) 0.7255(2) 0.2474(3)
H27 H 0.33330 0.77280 0.21750
H28 H 0.27340 0.70100 0.21370
#END
