
#######################################################################
#
#                 Cambridge Crystallographic Data Centre
#                                CCDC
#
#######################################################################
#
# If this CIF has been generated from an entry in the Cambridge
# Structural Database, then it will include bibliographic, chemical,
# crystal, experimental, refinement or atomic coordinate data resulting
# from the CCDC's data processing and validation procedures.
#
#######################################################################

data_CSD_CIF_HOXFAD
_audit_creation_date 2015-02-23
_audit_creation_method CSD-ConQuest-V1
_database_code_CSD HOXFAD
_database_code_depnum_ccdc_archive 'CCDC 963948'
_chemical_formula_sum 'C22 H20 N2 O2'
_chemical_formula_moiety
;
C22 H20 N2 O2
;
_journal_coden_Cambridge 1366
_journal_volume 356
_journal_year 2014
_journal_page_first 2813
_journal_name_full 'Adv.Synth.Catal. '
loop_
_publ_author_name
"G.Pandey"
"D.Jadhav"
"S.K.Tiwari"
"Bhawana Singh"
_chemical_name_systematic
;
10-methyl-9-(2-nitro-1-phenylethyl)-9,10-dihydroacridine
;
_cell_volume   1756.839
_exptl_crystal_colour 'colorless'
_exptl_crystal_density_diffrn 1.302
_exptl_crystal_description 'Plate'
_diffrn_ambient_temperature 293
#These two values have been output from a single CSD field.
_refine_ls_R_factor_gt 0.0765
_refine_ls_wR_factor_gt 0.0765
_symmetry_cell_setting monoclinic
_symmetry_space_group_name_H-M 'P 21/c'
_symmetry_Int_Tables_number 14
loop_
_symmetry_equiv_pos_site_id
_symmetry_equiv_pos_as_xyz
1 x,y,z
2 -x,1/2+y,1/2-z
3 -x,-y,-z
4 x,-1/2-y,-1/2+z
_cell_length_a 18.092(2)
_cell_length_b 5.5893(7)
_cell_length_c 19.173(3)
_cell_angle_alpha 90
_cell_angle_beta 115.022(17)
_cell_angle_gamma 90
_cell_formula_units_Z 4
loop_
_atom_type_symbol
_atom_type_radius_bond
C 0.68
H 0.23
N 0.68
O 0.68
loop_
_atom_site_label
_atom_site_type_symbol
_atom_site_fract_x
_atom_site_fract_y
_atom_site_fract_z
C1 C 0.14899(16) 0.3610(6) 0.23944(18)
C2 C 0.25094(17) 0.5413(6) 0.19511(17)
H1 H 0.23150 0.70030 0.20110
C3 C 0.27925(17) 0.5509(7) 0.13101(19)
C4 C 0.0965(2) 0.3723(8) 0.3556(2)
H2 H 0.07910 0.37670 0.39480
C5 C 0.42103(19) 0.0268(7) 0.1915(2)
H3 H 0.40110 -0.03550 0.14010
H4 H 0.42150 -0.09830 0.22600
H5 H 0.47540 0.08670 0.20690
C6 C 0.18019(16) 0.3565(6) 0.17740(18)
H6 H 0.20270 0.19680 0.17780
C7 C 0.3591(2) 0.3797(8) 0.0710(2)
H7 H 0.39650 0.26690 0.07010
C8 C 0.32129(17) 0.4730(6) 0.26913(19)
C9 C 0.33604(17) 0.3813(7) 0.13232(19)
C10 C 0.24910(19) 0.7179(7) 0.0726(2)
H8 H 0.21280 0.83390 0.07370
C11 C 0.37504(18) 0.2966(7) 0.2664(2)
C12 C 0.10201(18) 0.5477(7) 0.2450(2)
H9 H 0.08770 0.67150 0.20930
C13 C 0.43374(19) 0.2054(7) 0.3351(2)
H10 H 0.46860 0.08460 0.33410
C14 C 0.11265(17) 0.3975(7) 0.09754(19)
H11 H 0.09140 0.55860 0.09420
H12 H 0.13460 0.38180 0.05950
C15 C 0.0759(2) 0.5532(8) 0.3031(2)
H13 H 0.04430 0.68020 0.30640
C16 C 0.1688(2) 0.1780(7) 0.2928(2)
H14 H 0.20000 0.04980 0.28960
C17 C 0.4402(2) 0.2937(9) 0.4045(2)
H15 H 0.47910 0.22990 0.45000
C18 C 0.1425(2) 0.1842(8) 0.3509(2)
H16 H 0.15610 0.06080 0.38670
C19 C 0.3903(2) 0.4741(8) 0.4076(2)
H17 H 0.39660 0.53660 0.45470
C20 C 0.2722(2) 0.7151(8) 0.0124(2)
H18 H 0.25130 0.82670 -0.02720
C21 C 0.3308(2) 0.5615(8) 0.3402(2)
H19 H 0.29630 0.68190 0.34220
C22 C 0.3268(2) 0.5436(9) 0.0124(2)
H20 H 0.34210 0.53850 -0.02820
N1 N 0.04583(16) 0.2228(7) 0.08084(15)
N2 N 0.36824(14) 0.2196(5) 0.19384(17)
O1 O -0.02327(14) 0.2981(6) 0.05969(15)
O2 O 0.06347(16) 0.0099(6) 0.08982(16)
#END
