
#######################################################################
#
#                 Cambridge Crystallographic Data Centre
#                                CCDC
#
#######################################################################
#
# If this CIF has been generated from an entry in the Cambridge
# Structural Database, then it will include bibliographic, chemical,
# crystal, experimental, refinement or atomic coordinate data resulting
# from the CCDC's data processing and validation procedures.
#
#######################################################################

data_CSD_CIF_HOXROC
_audit_creation_date 2009-10-28
_audit_creation_method CSD-ConQuest-V1
_database_code_CSD HOXROC
_database_code_depnum_ccdc_archive 'CCDC 632862'
_chemical_formula_sum 'C19 H15 N1 O8'
_chemical_formula_moiety
;
C19 H15 N1 O8
;
_journal_coden_Cambridge 1241
_journal_volume 19
_journal_year 2008
_journal_page_first 18
_journal_name_full 'J.Braz.Chem.Soc. '
loop_
_publ_author_name
"M.M.Sa"
"G.P.Silveira"
"M.S.B.Caro"
"J.Ellena"
_chemical_name_systematic
;
6-Oxo-2-phenyltetrahydro-4H-[1,3]dioxolo[4,5-c]pyran-7-yl 4-nitrobenzoate
;
_chemical_name_common
;
O-(4'-Nitrobenzoyl)-3,4-O-benzylidene-D-ribono-1,5-lactone
;
_chemical_melting_point 510.15
_cell_volume   1683.603
_exptl_crystal_colour 'colorless'
_exptl_crystal_density_diffrn 1.52
_exptl_special_details
;
Melting point range 510.15-511.15K

;
_exptl_crystal_description 'prism'
_exptl_crystal_preparation 'acetone/ethanol'
_diffrn_ambient_temperature 120
#These two values have been output from a single CSD field.
_refine_ls_R_factor_gt 0.0311
_refine_ls_wR_factor_gt 0.0311
_symmetry_cell_setting orthorhombic
_symmetry_space_group_name_H-M 'P 21 21 21'
_symmetry_Int_Tables_number 19
loop_
_symmetry_equiv_pos_site_id
_symmetry_equiv_pos_as_xyz
1 x,y,z
2 1/2-x,-y,1/2+z
3 1/2+x,1/2-y,-z
4 -x,1/2+y,1/2-z
_cell_length_a 6.7160(2)
_cell_length_b 11.2840(3)
_cell_length_c 22.2160(6)
_cell_angle_alpha 90
_cell_angle_beta 90
_cell_angle_gamma 90
_cell_formula_units_Z 4
loop_
_atom_type_symbol
_atom_type_radius_bond
C 0.68
H 0.23
N 0.68
O 0.68
loop_
_atom_site_label
_atom_site_type_symbol
_atom_site_fract_x
_atom_site_fract_y
_atom_site_fract_z
O1 O 0.5647(2) 0.71623(14) 0.26511(5)
O2 O 0.4197(2) 0.56091(15) 0.22366(6)
O3 O 0.9482(2) 0.51283(13) 0.25198(4)
O4 O 0.9289(2) 0.65469(13) 0.32317(5)
O5 O 0.7295(2) 0.51052(13) 0.15032(5)
O6 O 0.6061(2) 0.60883(14) 0.07044(5)
O7 O 0.6025(3) -0.01786(15) 0.00401(6)
O8 O 0.6454(3) 0.07100(16) -0.08140(5)
N1 N 0.6279(3) 0.07149(18) -0.02659(7)
C1 C 0.5593(3) 0.62666(18) 0.22499(7)
C2 C 0.7395(3) 0.61850(18) 0.18366(7)
H1 H 0.73720 0.68680 0.15500
C3 C 0.9337(3) 0.62129(18) 0.21894(7)
H2 H 1.05040 0.63170 0.19150
C4 C 0.9280(3) 0.7195(2) 0.26744(7)
H3 H 1.04780 0.77180 0.26440
C5 C 0.7395(4) 0.7917(2) 0.26540(7)
H4 H 0.73450 0.84480 0.30080
H5 H 0.73960 0.84170 0.22880
C6 C 1.0142(3) 0.5432(2) 0.31099(7)
H6 H 1.16280 0.54810 0.31230
C7 C 0.9400(3) 0.45029(19) 0.35397(7)
C8 C 0.7385(4) 0.4212(2) 0.35494(8)
H7 H 0.64710 0.46350 0.33030
C9 C 0.6714(4) 0.3309(2) 0.39170(8)
H8 H 0.53370 0.31170 0.39250
C10 C 0.8033(3) 0.2681(2) 0.42734(7)
H9 H 0.75680 0.20450 0.45160
C11 C 1.0026(3) 0.2981(2) 0.42762(7)
H10 H 1.09290 0.25670 0.45300
C12 C 1.0712(4) 0.3890(2) 0.39077(7)
H11 H 1.20850 0.40920 0.39080
C13 C 0.6554(3) 0.5179(2) 0.09381(7)
C14 C 0.6490(3) 0.39936(19) 0.06415(7)
C15 C 0.6413(3) 0.3972(2) 0.00130(7)
H12 H 0.63910 0.46930 -0.02080
C16 C 0.6370(3) 0.2893(2) -0.02880(7)
H13 H 0.63600 0.28620 -0.07150
C17 C 0.6343(3) 0.1868(2) 0.00499(7)
C18 C 0.6364(3) 0.1870(2) 0.06732(7)
H14 H 0.63070 0.11480 0.08920
C19 C 0.6468(3) 0.2943(2) 0.09697(7)
H15 H 0.65260 0.29640 0.13970
#END
