
#######################################################################
#
#                 Cambridge Crystallographic Data Centre
#                                CCDC
#
#######################################################################
#
# If this CIF has been generated from an entry in the Cambridge
# Structural Database, then it will include bibliographic, chemical,
# crystal, experimental, refinement or atomic coordinate data resulting
# from the CCDC's data processing and validation procedures.
#
#######################################################################

data_CSD_CIF_HOYBON
_audit_creation_date 2009-10-28
_audit_creation_method CSD-ConQuest-V1
_database_code_CSD HOYBON
_database_code_depnum_ccdc_archive 'CCDC 719476'
_chemical_formula_sum 'C16 H24 N2 O3'
_chemical_formula_moiety
;
C16 H24 N2 O3
;
_journal_coden_Cambridge 179
_journal_volume 48
_journal_year 2009
_journal_page_first 2514
_journal_name_full 'Angew.Chem.,Int.Ed. '
loop_
_publ_author_name
"K.L.Cubbage"
"A.J.Orr-Ewing"
"K.I.Booker-Milburn"
_chemical_name_systematic
;
4-(t-Butoxy)-2,3,3a,4,6,7,8,9-octahydro-1H-pyrrolo[1,2-b][2,4]benzodiazepine-5
,10-dione
;
_chemical_melting_point 456.15
_cell_volume   1496.152
_exptl_crystal_colour 'white'
_exptl_special_details
;
Melting point range 456.15-457.15K
No Study temperature or R-factor given in the paper or deposited cif
;
_diffrn_ambient_temperature ?
_diffrn_special_details
;
The study was carried out at room temperature,in the range 283-303K

;
_symmetry_cell_setting monoclinic
_symmetry_space_group_name_H-M 'P 21/c'
_symmetry_Int_Tables_number 14
loop_
_symmetry_equiv_pos_site_id
_symmetry_equiv_pos_as_xyz
1 x,y,z
2 -x,1/2+y,1/2-z
3 -x,-y,-z
4 x,-1/2-y,-1/2+z
_cell_length_a 11.0491(3)
_cell_length_b 9.2956(2)
_cell_length_c 15.5574(4)
_cell_angle_alpha 90
_cell_angle_beta 110.554(1)
_cell_angle_gamma 90
_cell_formula_units_Z 4
loop_
_atom_type_symbol
_atom_type_radius_bond
C 0.68
H 0.23
N 0.68
O 0.68
loop_
_atom_site_label
_atom_site_type_symbol
_atom_site_fract_x
_atom_site_fract_y
_atom_site_fract_z
C1 C 0.90541(16) 0.6638(2) 0.00624(11)
H1 H 0.95520 0.61950 -0.02880
H2 H 0.90410 0.76940 -0.00200
C2 C 0.76865(17) 0.60290(19) -0.02364(11)
H3 H 0.73950 0.57020 -0.08830
H4 H 0.70710 0.67570 -0.01700
C3 C 0.78021(17) 0.47612(19) 0.04148(11)
H5 H 0.69610 0.45620 0.04850
H6 H 0.80900 0.38840 0.01810
C4 C 0.88048(16) 0.52254(18) 0.13282(11)
H7 H 0.93450 0.43750 0.16250
C5 C 0.91525(16) 0.66609(19) 0.26927(11)
C6 C 1.05093(16) 0.60830(18) 0.30420(11)
C7 C 1.09562(17) 0.5626(2) 0.40369(11)
H8 H 1.03160 0.49520 0.41250
H9 H 1.09990 0.64810 0.44260
C8 C 1.22816(18) 0.4898(2) 0.43460(12)
H10 H 1.26420 0.48560 0.50250
H11 H 1.21890 0.39010 0.41090
C9 C 1.32027(17) 0.5728(2) 0.39935(12)
H12 H 1.32790 0.67330 0.42170
H13 H 1.40710 0.52830 0.42310
C10 C 1.27027(16) 0.5716(2) 0.29470(12)
H14 H 1.32090 0.64070 0.27260
H15 H 1.28300 0.47460 0.27300
C11 C 1.12889(16) 0.61071(18) 0.25469(11)
C12 C 1.08345(16) 0.66017(19) 0.15650(11)
C13 C 0.60401(16) 0.60599(19) 0.18850(12)
C14 C 0.64212(18) 0.6177(2) 0.29241(12)
H16 H 0.71380 0.55170 0.32220
H17 H 0.56800 0.59240 0.31010
H18 H 0.66910 0.71650 0.31170
C15 C 0.57074(18) 0.4513(2) 0.15913(13)
H19 H 0.53610 0.44580 0.09200
H20 H 0.50580 0.41600 0.18370
H21 H 0.64880 0.39190 0.18270
C16 C 0.49500(17) 0.7083(2) 0.13873(13)
H22 H 0.51950 0.80650 0.16090
H23 H 0.41670 0.68040 0.15050
H24 H 0.47840 0.70410 0.07260
N1 N 0.96020(13) 0.62458(16) 0.10432(9)
N2 N 0.82731(13) 0.58886(15) 0.19860(9)
O1 O 0.70789(11) 0.66027(13) 0.15775(8)
O2 O 0.88663(11) 0.76914(13) 0.30683(8)
O3 O 1.15335(12) 0.72905(14) 0.12519(9)
#END
