
#######################################################################
#
#                 Cambridge Crystallographic Data Centre
#                                CCDC
#
#######################################################################
#
# If this CIF has been generated from an entry in the Cambridge
# Structural Database, then it will include bibliographic, chemical,
# crystal, experimental, refinement or atomic coordinate data resulting
# from the CCDC's data processing and validation procedures.
#
#######################################################################

data_CSD_CIF_HUBMAS
_audit_creation_date 2001-04-19
_audit_creation_method CSD-ConQuest-V1
_database_code_CSD HUBMAS
_database_code_depnum_ccdc_archive 'CCDC 149521'
_chemical_formula_sum 'C39 H32 N2 O5'
_chemical_formula_moiety
;
C39 H32 N2 O5
;
_journal_coden_Cambridge 661
_journal_volume 47
_journal_year 2000
_journal_page_first 173
_journal_name_full 'J.Chin.Chem.Soc.(Taipei) '
loop_
_publ_author_name
"Chun-Mei Shu"
"Wei-Ling Lin"
"Gene-Hsiang Lee"
"Shie-Ming Peng"
"Wen-Sheng Chung"
_chemical_name_systematic
;
5-(3'-(p-Cyanophenyl)-4',5'-dihydro-\D^2^-isoxazolinomethyl)-25,26,27,28-tetra
hydroxycalix(4)arene
;
_chemical_melting_point 527.15
_cell_volume   6213.276
_exptl_crystal_colour 'pale blue'
_exptl_crystal_density_diffrn 1.301
_exptl_special_details
;
Melting point range 527.15-529.15K

;
_exptl_crystal_description 'plate'
_exptl_crystal_preparation 'chloroform/hexane'
_diffrn_ambient_temperature ?
_diffrn_special_details
;
The study was carried out at room temperature,in the range 283-303K

;
#These two values have been output from a single CSD field.
_refine_ls_R_factor_gt 0.0585
_refine_ls_wR_factor_gt 0.0585
_symmetry_cell_setting orthorhombic
_symmetry_space_group_name_H-M 'P b c a'
_symmetry_Int_Tables_number 61
loop_
_symmetry_equiv_pos_site_id
_symmetry_equiv_pos_as_xyz
1 x,y,z
2 1/2-x,-y,1/2+z
3 -x,1/2+y,1/2-z
4 1/2+x,1/2-y,-z
5 -x,-y,-z
6 -1/2+x,y,-1/2-z
7 x,-1/2-y,-1/2+z
8 -1/2-x,-1/2+y,z
_cell_length_a 17.8131(2)
_cell_length_b 16.6211(2)
_cell_length_c 20.9856(2)
_cell_angle_alpha 90
_cell_angle_beta 90
_cell_angle_gamma 90
_cell_formula_units_Z 8
loop_
_atom_type_symbol
_atom_type_radius_bond
C 0.68
H 0.23
N 0.68
O 0.68
loop_
_atom_site_label
_atom_site_type_symbol
_atom_site_fract_x
_atom_site_fract_y
_atom_site_fract_z
O1 O -0.04433(11) 0.86344(11) 0.17846(9)
H1 H -0.04290(11) 0.85731(11) 0.21722(9)
O2 O 0.06878(12) 0.81318(13) 0.10547(10)
H2 H 0.10615(12) 0.79091(13) 0.11996(10)
O3 O 0.13779(11) 0.72159(12) 0.19764(10)
H3 H 0.15186(11) 0.74837(12) 0.16708(10)
O4 O 0.01096(11) 0.75846(12) 0.26291(9)
H4 H -0.01533(11) 0.79709(12) 0.25331(9)
O5 O -0.11704(12) 0.40618(13) 0.28219(11)
N1 N -0.1061(2) 0.4373(2) 0.22027(13)
N2 N -0.2032(2) 0.6712(2) -0.0806(2)
C1 C -0.1605(2) 0.7923(2) 0.19572(15)
C2 C -0.1480(2) 0.7855(2) 0.26719(14)
H5 H -0.1169(2) 0.8302(2) 0.28082(14)
H6 H -0.1961(2) 0.7907(2) 0.28848(14)
C3 C -0.1113(2) 0.7077(2) 0.28878(13)
C4 C -0.1539(2) 0.6447(2) 0.31403(14)
H7 H -0.2056(2) 0.6513(2) 0.31772(14)
C5 C -0.1220(2) 0.5727(2) 0.33382(14)
C6 C -0.0452(2) 0.5647(2) 0.32825(14)
H8 H -0.0228(2) 0.5171(2) 0.34167(14)
C7 C -0.0001(2) 0.6250(2) 0.30343(13)
C8 C 0.0833(2) 0.6115(2) 0.29280(15)
H9 H 0.1009(2) 0.5687(2) 0.32049(15)
H10 H 0.1108(2) 0.6601(2) 0.30318(15)
C9 C 0.0974(2) 0.5888(2) 0.2236(2)
C10 C 0.0806(2) 0.5111(2) 0.2033(2)
H11 H 0.0634(2) 0.4735(2) 0.2327(2)
C11 C 0.0887(2) 0.4891(2) 0.1410(2)
H12 H 0.0773(2) 0.4368(2) 0.1285(2)
C12 C 0.1136(2) 0.5440(2) 0.0967(2)
H13 H 0.1185(2) 0.5284(2) 0.0544(2)
C13 C 0.1316(2) 0.6223(2) 0.1142(2)
C14 C 0.1577(2) 0.6811(2) 0.0634(2)
H14 H 0.1844(2) 0.7250(2) 0.0838(2)
H15 H 0.1926(2) 0.6540(2) 0.0351(2)
C15 C 0.0938(2) 0.7153(2) 0.02430(14)
C16 C 0.0751(2) 0.6838(2) -0.0346(2)
H16 H 0.1037(2) 0.6420(2) -0.0513(2)
C17 C 0.0153(2) 0.7129(2) -0.0690(2)
H17 H 0.0042(2) 0.6917(2) -0.1089(2)
C18 C -0.0283(2) 0.7739(2) -0.0439(2)
H18 H -0.0692(2) 0.7929(2) -0.0670(2)
C19 C -0.0124(2) 0.8076(2) 0.01507(14)
C20 C -0.0640(2) 0.8710(2) 0.0439(2)
H19 H -0.0339(2) 0.9100(2) 0.0668(2)
H20 H -0.0898(2) 0.8991(2) 0.0098(2)
C21 C -0.1217(2) 0.8351(2) 0.08897(15)
C22 C -0.1881(2) 0.8035(2) 0.0651(2)
H21 H -0.1977(2) 0.8065(2) 0.0216(2)
C23 C -0.2402(2) 0.7677(2) 0.1046(2)
H22 H -0.2846(2) 0.7475(2) 0.0878(2)
C24 C -0.2262(2) 0.7619(2) 0.1686(2)
H23 H -0.2615(2) 0.7371(2) 0.1947(2)
C25 C -0.1097(2) 0.8294(2) 0.15460(14)
C26 C 0.0498(2) 0.7783(2) 0.04774(14)
C27 C 0.12223(15) 0.6435(2) 0.1778(2)
C28 C -0.0340(2) 0.6965(2) 0.28459(13)
C29 C -0.1685(2) 0.5028(2) 0.3586(2)
H24 H -0.2151(2) 0.5236(2) 0.3758(2)
H25 H -0.1414(2) 0.4772(2) 0.3932(2)
C30 C -0.1867(2) 0.4395(2) 0.3083(2)
H26 H -0.2159(2) 0.3961(2) 0.3279(2)
C31 C -0.2282(2) 0.4709(2) 0.2506(2)
H27 H -0.2681(2) 0.4348(2) 0.2377(2)
H28 H -0.2488(2) 0.5241(2) 0.2582(2)
C32 C -0.1662(2) 0.4731(2) 0.2027(2)
C33 C -0.1712(2) 0.5137(2) 0.1406(2)
C34 C -0.2389(2) 0.5137(2) 0.1078(2)
H29 H -0.2801(2) 0.4867(2) 0.1246(2)
C35 C -0.2457(2) 0.5535(2) 0.0503(2)
H30 H -0.2913(2) 0.5527(2) 0.0287(2)
C36 C -0.1855(2) 0.5945(2) 0.0248(2)
C37 C -0.1175(2) 0.5946(2) 0.0571(2)
H31 H -0.0765(2) 0.6217(2) 0.0401(2)
C38 C -0.1106(2) 0.5545(2) 0.1145(2)
H32 H -0.0649(2) 0.5549(2) 0.1359(2)
C39 C -0.1946(2) 0.6375(2) -0.0338(2)
#END
