
#######################################################################
#
#                 Cambridge Crystallographic Data Centre
#                                CCDC
#
#######################################################################
#
# If this CIF has been generated from an entry in the Cambridge
# Structural Database, then it will include bibliographic, chemical,
# crystal, experimental, refinement or atomic coordinate data resulting
# from the CCDC's data processing and validation procedures.
#
#######################################################################

data_CSD_CIF_HUCTEF
_audit_creation_date 2009-10-28
_audit_creation_method CSD-ConQuest-V1
_database_code_CSD HUCTEF
_database_code_depnum_ccdc_archive 'CCDC 747196'
_chemical_formula_sum 'C16 H23 N2 O5'
_chemical_formula_moiety
;
C16 H23 N2 O5
;
_journal_coeditor_code "IUCr DN2472"
_journal_coden_Cambridge 1370
_journal_volume 65
_journal_year 2009
_journal_page_first o2090
_journal_name_full 'Acta Crystallogr.,Sect.E:Struct.Rep.Online '
loop_
_publ_author_name
"Hai-Bo Wang"
"Lin-Lin Jing"
"Peng Gao"
"Xiao-Li Sun"
_chemical_name_systematic
;
2-(3,4,5-trimethoxyphenyl)-4,4,5,5-tetramethyl-4,5-dihydro-1H-imidazoline-1-ox
yl 3-oxide radical
;
_cell_volume   3397.985
_exptl_crystal_colour 'blue'
_exptl_crystal_density_diffrn 1.264
_exptl_crystal_description 'block'
_exptl_crystal_preparation 'n-heptane/dichloromethane'
_diffrn_ambient_temperature 296
#These two values have been output from a single CSD field.
_refine_ls_R_factor_gt 0.0462
_refine_ls_wR_factor_gt 0.0462
_symmetry_cell_setting orthorhombic
_symmetry_space_group_name_H-M 'P b c a'
_symmetry_Int_Tables_number 61
loop_
_symmetry_equiv_pos_site_id
_symmetry_equiv_pos_as_xyz
1 x,y,z
2 1/2-x,-y,1/2+z
3 -x,1/2+y,1/2-z
4 1/2+x,1/2-y,-z
5 -x,-y,-z
6 -1/2+x,y,-1/2-z
7 x,-1/2-y,-1/2+z
8 -1/2-x,-1/2+y,z
_cell_length_a 20.623(3)
_cell_length_b 7.2168(12)
_cell_length_c 22.831(4)
_cell_angle_alpha 90
_cell_angle_beta 90
_cell_angle_gamma 90
_cell_formula_units_Z 8
loop_
_atom_type_symbol
_atom_type_radius_bond
C 0.68
H 0.23
N 0.68
O 0.68
loop_
_atom_site_label
_atom_site_type_symbol
_atom_site_fract_x
_atom_site_fract_y
_atom_site_fract_z
N1 N 0.06793(9) 0.2073(3) 0.49665(8)
N2 N 0.15280(9) 0.0432(3) 0.47376(8)
O1 O 0.01712(9) 0.2652(3) 0.52296(7)
O2 O 0.20243(8) -0.0630(3) 0.47707(7)
O3 O 0.07153(8) 0.1394(2) 0.72841(6)
O4 O 0.12645(7) -0.1894(2) 0.74689(6)
O5 O 0.17240(8) -0.3947(2) 0.65885(7)
C1 C 0.08745(10) 0.2830(3) 0.43780(9)
C2 C 0.13132(10) 0.1227(3) 0.41649(9)
C3 C 0.11082(10) 0.0839(3) 0.51744(9)
C4 C 0.11306(10) 0.0103(3) 0.57690(9)
C5 C 0.1414(1) -0.1615(3) 0.58697(10)
H1 H 0.15740 -0.23130 0.55590
C6 C 0.14551(10) -0.2276(3) 0.64375(10)
C7 C 0.1221(1) -0.1231(3) 0.69035(10)
C8 C 0.09320(11) 0.0479(3) 0.67984(9)
C9 C 0.0884(1) 0.1132(3) 0.62324(9)
H2 H 0.06860 0.22660 0.61610
C10 C 0.03918(13) 0.3130(4) 0.71996(10)
H3 H 0.06930 0.40220 0.70470
H4 H 0.02240 0.35620 0.75670
H5 H 0.00410 0.29710 0.69280
C11 C 0.18747(13) -0.1598(5) 0.77318(11)
H6 H 0.22030 -0.22340 0.75110
H7 H 0.18680 -0.20640 0.81260
H8 H 0.19680 -0.02950 0.77370
C12 C 0.19952(13) -0.5035(4) 0.61337(12)
H9 H 0.16630 -0.53540 0.58570
H10 H 0.21770 -0.61460 0.62960
H11 H 0.23290 -0.43430 0.59400
C13 C 0.12386(12) 0.4629(3) 0.45043(11)
H12 H 0.09650 0.54490 0.47240
H13 H 0.13580 0.52090 0.41410
H14 H 0.16220 0.43600 0.47270
C14 C 0.02814(11) 0.3224(3) 0.40075(10)
H15 H 0.00190 0.21290 0.39840
H16 H 0.04140 0.35860 0.36210
H17 H 0.00350 0.42070 0.41830
C15 C 0.18983(12) 0.1816(4) 0.38065(10)
H18 H 0.21680 0.26190 0.40370
H19 H 0.17560 0.24620 0.34620
H20 H 0.21410 0.07390 0.36940
C16 C 0.09402(13) -0.0316(3) 0.38572(10)
H21 H 0.12140 -0.13850 0.38180
H22 H 0.08080 0.00990 0.34760
H23 H 0.05640 -0.06330 0.40840
#END
