
#######################################################################
#
#                 Cambridge Crystallographic Data Centre
#                                CCDC
#
#######################################################################
#
# If this CIF has been generated from an entry in the Cambridge
# Structural Database, then it will include bibliographic, chemical,
# crystal, experimental, refinement or atomic coordinate data resulting
# from the CCDC's data processing and validation procedures.
#
#######################################################################

data_CSD_CIF_HUCTEG
_audit_creation_date 2015-02-25
_audit_creation_method CSD-ConQuest-V1
_database_code_CSD HUCTEG
_database_code_depnum_ccdc_archive 'CCDC 908614; not CCDC 90614 as published'
_chemical_formula_sum 'C6 H9 N1 O2'
_chemical_formula_moiety
;
C6 H9 N1 O2
;
_journal_coden_Cambridge 1290
_journal_year 2015
_journal_page_first 1529
_journal_name_full 'Eur.J.Inorg.Chem. '
loop_
_publ_author_name
"P.Jewula"
"J.-C.Berthet"
"J.-C.Chambron"
"Y.Rousselin"
"P.Thuery"
"M.Meyer"
_chemical_name_systematic
;
1-hydroxy-1,3,4,7-tetrahydro-2H-azepin-2-one
;
_cell_volume   1243.451
_exptl_crystal_colour 'colorless'
_exptl_crystal_density_diffrn 1.358
_exptl_crystal_description 'prism'
_exptl_crystal_preparation 'sublimation'
_diffrn_ambient_temperature 115
#These two values have been output from a single CSD field.
_refine_ls_R_factor_gt 0.0428
_refine_ls_wR_factor_gt 0.0428
_symmetry_cell_setting monoclinic
_symmetry_space_group_name_H-M 'C 2/c'
_symmetry_Int_Tables_number 15
loop_
_symmetry_equiv_pos_site_id
_symmetry_equiv_pos_as_xyz
1 x,y,z
2 -x,y,1/2-z
3 1/2+x,1/2+y,z
4 1/2-x,1/2+y,1/2-z
5 -x,-y,-z
6 x,-y,-1/2+z
7 -1/2-x,-1/2-y,-z
8 -1/2+x,-1/2-y,-1/2+z
_cell_length_a 6.6764(4)
_cell_length_b 13.3930(7)
_cell_length_c 13.9189(8)
_cell_angle_alpha 90
_cell_angle_beta 92.448(3)
_cell_angle_gamma 90
_cell_formula_units_Z 8
loop_
_atom_type_symbol
_atom_type_radius_bond
C 0.68
H 0.23
N 0.68
O 0.68
loop_
_atom_site_label
_atom_site_type_symbol
_atom_site_fract_x
_atom_site_fract_y
_atom_site_fract_z
C1 C 0.8368(2) 0.06395(11) 0.09752(10)
H1 H 0.83320 0.06360 0.02630
H2 H 0.95220 0.02260 0.12030
C2 C 0.8703(2) 0.16946(12) 0.13198(10)
H3 H 1.00400 0.18660 0.15160
C3 C 0.7347(3) 0.24118(11) 0.13802(10)
H4 H 0.78190 0.30270 0.16430
C4 C 0.5167(2) 0.23744(11) 0.10866(10)
H5 H 0.48300 0.29750 0.06970
H6 H 0.43800 0.24050 0.16730
C5 C 0.4517(2) 0.14486(10) 0.05093(9)
H7 H 0.31140 0.15340 0.02630
H8 H 0.53730 0.13770 -0.00500
C6 C 0.46723(19) 0.0516(1) 0.11138(9)
N1 N 0.65255(17) 0.01822(8) 0.12975(8)
O1 O 0.67753(16) -0.06958(7) 0.18267(7)
H9 H 0.67480 -0.05650 0.24160
O2 O 0.31616(14) 0.01089(7) 0.14323(7)
#END
