
#######################################################################
#
#                 Cambridge Crystallographic Data Centre
#                                CCDC
#
#######################################################################
#
# If this CIF has been generated from an entry in the Cambridge
# Structural Database, then it will include bibliographic, chemical,
# crystal, experimental, refinement or atomic coordinate data resulting
# from the CCDC's data processing and validation procedures.
#
#######################################################################

data_CSD_CIF_HUDCUF
_audit_creation_date 2009-10-28
_audit_creation_method CSD-ConQuest-V1
_database_code_CSD HUDCUF
_database_code_depnum_ccdc_archive 'CCDC 747262'
_chemical_formula_sum 'C13 H12 N2 O6'
_chemical_formula_moiety
;
C13 H12 N2 O6
;
_journal_coeditor_code "IUCr ZQ2002"
_journal_coden_Cambridge 1370
_journal_volume 65
_journal_year 2009
_journal_page_first o2171
_journal_name_full 'Acta Crystallogr.,Sect.E:Struct.Rep.Online '
loop_
_publ_author_name
"Meng Zhou"
"Rui Li"
"Zhen-Yu Ding"
_chemical_name_systematic
;
2,2-Dimethyl-5-[(3-nitroanilino)methylene]-1,3-dioxane-4,6-dione
;
_cell_volume   1329.611
_exptl_crystal_colour 'colorless'
_exptl_crystal_density_diffrn 1.46
_exptl_crystal_description 'block'
_diffrn_ambient_temperature 153
#These two values have been output from a single CSD field.
_refine_ls_R_factor_gt 0.036
_refine_ls_wR_factor_gt 0.036
_symmetry_cell_setting monoclinic
_symmetry_space_group_name_H-M 'P 21/c'
_symmetry_Int_Tables_number 14
loop_
_symmetry_equiv_pos_site_id
_symmetry_equiv_pos_as_xyz
1 x,y,z
2 -x,1/2+y,1/2-z
3 -x,-y,-z
4 x,-1/2-y,-1/2+z
_cell_length_a 11.7900(13)
_cell_length_b 8.7699(9)
_cell_length_c 14.0614(15)
_cell_angle_alpha 90
_cell_angle_beta 113.864(1)
_cell_angle_gamma 90
_cell_formula_units_Z 4
loop_
_atom_type_symbol
_atom_type_radius_bond
C 0.68
H 0.23
N 0.68
O 0.68
loop_
_atom_site_label
_atom_site_type_symbol
_atom_site_fract_x
_atom_site_fract_y
_atom_site_fract_z
O1 O 0.45433(8) -0.09916(10) 1.23372(6)
O2 O 0.47419(8) -0.05487(12) 1.08661(7)
O3 O 0.25826(8) -0.13984(11) 1.23681(6)
C1 C 0.40464(11) -0.06725(13) 1.13054(9)
N1 N 0.26298(10) 0.01843(13) 0.91248(8)
C2 C 0.19585(11) 0.06369(14) 0.80763(9)
C3 C 0.24224(11) 0.02544(14) 0.73506(9)
H1 H 0.31480 -0.03120 0.75380
C4 C 0.37852(11) -0.07324(14) 1.29110(9)
O4 O 0.08565(9) -0.12773(15) 1.09442(8)
C5 C 0.21114(11) -0.01291(14) 0.97781(9)
H2 H 0.12520 -0.00550 0.95190
O5 O 0.30012(13) -0.07262(15) 0.57581(10)
C6 C 0.19637(11) -0.10611(15) 1.13438(9)
C7 C 0.27159(11) -0.05534(14) 1.08029(9)
C8 C 0.17796(12) 0.07365(16) 0.63388(9)
C9 C 0.08587(14) 0.14495(19) 0.77793(11)
H3 H 0.05450 0.17050 0.82680
C10 C 0.43836(14) -0.16096(17) 1.39116(10)
H4 H 0.38760 -0.15390 1.42990
H5 H 0.51880 -0.11890 1.43150
H6 H 0.44680 -0.26600 1.37590
N2 N 0.22862(12) 0.03454(17) 0.55739(9)
C11 C 0.36712(15) 0.09463(15) 1.30692(11)
H7 H 0.32850 0.14400 1.24060
H8 H 0.44810 0.13720 1.34440
H9 H 0.31740 0.10990 1.34590
C12 C 0.06978(15) 0.1552(2) 0.60191(11)
H10 H 0.02930 0.18740 0.53340
O6 O 0.19778(16) 0.1124(2) 0.47934(10)
C13 C 0.02320(15) 0.1877(2) 0.67512(13)
H11 H -0.05180 0.23930 0.65500
H12 H 0.3441(15) 0.0100(18) 0.9339(12)
#END
