
#######################################################################
#
#                 Cambridge Crystallographic Data Centre
#                                CCDC
#
#######################################################################
#
# If this CIF has been generated from an entry in the Cambridge
# Structural Database, then it will include bibliographic, chemical,
# crystal, experimental, refinement or atomic coordinate data resulting
# from the CCDC's data processing and validation procedures.
#
#######################################################################

data_CSD_CIF_HUDJEW01
_audit_creation_date 2013-04-04
_audit_creation_method CSD-ConQuest-V1
_database_code_CSD HUDJEW01
_database_code_depnum_ccdc_archive 'CCDC 782593'
_chemical_formula_sum 'C26 H18 N4 O5'
_chemical_formula_moiety
;
C26 H18 N4 O5
;
_journal_coden_Cambridge 119
_journal_volume 1033
_journal_year 2013
_journal_page_first 298
_journal_name_full 'J.Mol.Struct. '
loop_
_publ_author_name
"R.Kadu"
"V.K.Singh"
"S.K.Verma"
"P.Raghavaiah"
"M.M.Shaikh"
_chemical_name_systematic
;
4,4'-Oxybis(N-(4-nitrobenzylidene)aniline)
;
_cell_volume   1112.707
_exptl_crystal_colour 'golden yellow'
_exptl_crystal_density_diffrn 1.392
_exptl_crystal_description 'block'
_diffrn_ambient_temperature 150
#These two values have been output from a single CSD field.
_refine_ls_R_factor_gt 0.0422
_refine_ls_wR_factor_gt 0.0422
_symmetry_cell_setting triclinic
_symmetry_space_group_name_H-M 'P -1'
_symmetry_Int_Tables_number 2
loop_
_symmetry_equiv_pos_site_id
_symmetry_equiv_pos_as_xyz
1 x,y,z
2 -x,-y,-z
_cell_length_a 8.3067(8)
_cell_length_b 9.0591(9)
_cell_length_c 17.0515(17)
_cell_angle_alpha 74.718(9)
_cell_angle_beta 78.865(8)
_cell_angle_gamma 64.522(10)
_cell_formula_units_Z 2
loop_
_atom_type_symbol
_atom_type_radius_bond
C 0.68
H 0.23
N 0.68
O 0.68
loop_
_atom_site_label
_atom_site_type_symbol
_atom_site_fract_x
_atom_site_fract_y
_atom_site_fract_z
O1 O -0.2702(3) 0.9707(2) -0.02708(10)
O2 O -0.1087(2) 0.87044(17) -0.12922(9)
O3 O -0.33730(16) -0.41908(14) 0.27179(8)
O4 O 0.7468(2) -1.5788(2) 0.75001(9)
O5 O 0.8300(2) -1.6842(2) 0.64351(11)
N1 N -0.2020(2) 0.86030(19) -0.06525(10)
N2 N -0.36741(19) 0.22199(16) 0.13724(8)
N3 N 0.2106(2) -0.96102(18) 0.43288(9)
N4 N 0.7396(2) -1.5702(2) 0.67857(11)
C1 C -0.2342(2) 0.70693(19) -0.03292(10)
C2 C -0.3341(3) 0.6925(2) 0.04105(10)
H1 H -0.38750 0.78270 0.06890
C3 C -0.3552(2) 0.5457(2) 0.07379(10)
H2 H -0.42410 0.53410 0.12460
C4 C -0.2763(2) 0.41384(19) 0.03298(9)
C5 C -0.1815(2) 0.4351(2) -0.04279(10)
H3 H -0.13130 0.34710 -0.07210
C6 C -0.1595(2) 0.5822(2) -0.07594(10)
H4 H -0.09380 0.59620 -0.12750
C7 C -0.2829(2) 0.2503(2) 0.06916(10)
H5 H -0.22110 0.16230 0.04010
C8 C -0.3526(2) 0.0561(2) 0.17073(9)
C9 C -0.5061(2) 0.0298(2) 0.20344(9)
H6 H -0.61870 0.12240 0.20240
C10 C -0.4984(2) -0.1290(2) 0.23768(10)
H7 H -0.60510 -0.14610 0.25840
C11 C -0.3348(2) -0.2621(2) 0.24142(9)
C12 C -0.1787(2) -0.2389(2) 0.21231(10)
H8 H -0.06590 -0.33110 0.21660
C13 C -0.1884(2) -0.0793(2) 0.17677(10)
H9 H -0.08150 -0.06250 0.15630
C14 C -0.1913(2) -0.5457(2) 0.30985(10)
C15 C -0.1176(2) -0.6949(2) 0.28466(10)
H10 H -0.15840 -0.70610 0.23910
C16 C 0.0167(2) -0.8289(2) 0.32627(10)
H11 H 0.06930 -0.93190 0.30840
C17 C 0.0756(2) -0.8155(2) 0.39337(10)
C18 C 0.0023(3) -0.6610(2) 0.41614(11)
H12 H 0.04400 -0.64820 0.46100
C19 C -0.1302(3) -0.5269(2) 0.37407(11)
H13 H -0.17900 -0.42160 0.38960
C20 C 0.2367(2) -0.9767(2) 0.50469(11)
H14 H 0.16560 -0.88850 0.53270
C21 C 0.3745(2) -1.1276(2) 0.54724(10)
C22 C 0.4719(3) -1.2635(2) 0.51128(11)
H15 H 0.45550 -1.25730 0.45670
C23 C 0.5929(3) -1.4084(2) 0.55351(11)
H16 H 0.65960 -1.50220 0.52870
C24 C 0.6153(2) -1.4144(2) 0.63197(10)
C25 C 0.5244(2) -1.2813(2) 0.66863(11)
H17 H 0.54360 -1.28740 0.72280
C26 C 0.4044(3) -1.1380(2) 0.62581(11)
H18 H 0.34050 -1.04390 0.65070
#END
