
#######################################################################
#
#                 Cambridge Crystallographic Data Centre
#                                CCDC
#
#######################################################################
#
# If this CIF has been generated from an entry in the Cambridge
# Structural Database, then it will include bibliographic, chemical,
# crystal, experimental, refinement or atomic coordinate data resulting
# from the CCDC's data processing and validation procedures.
#
#######################################################################

data_CSD_CIF_HUDJEW
_audit_creation_date 2009-10-28
_audit_creation_method CSD-ConQuest-V1
_database_code_CSD HUDJEW
_database_code_depnum_ccdc_archive 'CCDC 747338'
_chemical_formula_sum 'C26 H18 N4 O5'
_chemical_formula_moiety
;
C26 H18 N4 O5
;
_journal_coeditor_code "IUCr CV2603"
_journal_coden_Cambridge 1370
_journal_volume 65
_journal_year 2009
_journal_page_first o2263
_journal_name_full 'Acta Crystallogr.,Sect.E:Struct.Rep.Online '
loop_
_publ_author_name
"H.K.Lee"
"S.W.Lee"
_chemical_name_systematic
;
N,N'-bis[(E)-4-Nitrobenzylidene]-4,4'-oxydianiline
;
_chemical_melting_point 457
_cell_volume   1122.399
_exptl_crystal_colour 'yellow'
_exptl_crystal_density_diffrn 1.38
_exptl_special_details
;
Melting point range 457-459K

;
_exptl_crystal_description 'block'
_exptl_crystal_preparation 'dichloromethane/hexane'
_diffrn_ambient_temperature 293
#These two values have been output from a single CSD field.
_refine_ls_R_factor_gt 0.0409
_refine_ls_wR_factor_gt 0.0409
_symmetry_cell_setting triclinic
_symmetry_space_group_name_H-M 'P -1'
_symmetry_Int_Tables_number 2
loop_
_symmetry_equiv_pos_site_id
_symmetry_equiv_pos_as_xyz
1 x,y,z
2 -x,-y,-z
_cell_length_a 8.3322(11)
_cell_length_b 9.0716(16)
_cell_length_c 17.107(2)
_cell_angle_alpha 74.714(9)
_cell_angle_beta 78.885(10)
_cell_angle_gamma 64.643(10)
_cell_formula_units_Z 2
loop_
_atom_type_symbol
_atom_type_radius_bond
C 0.68
H 0.23
N 0.68
O 0.68
loop_
_atom_site_label
_atom_site_type_symbol
_atom_site_fract_x
_atom_site_fract_y
_atom_site_fract_z
O1 O 1.7461(2) -1.5786(2) 0.74989(10)
O2 O 1.8293(3) -1.6837(2) 0.64341(12)
O3 O 0.66294(17) -0.41925(15) 0.27173(8)
O4 O 0.8910(2) 0.87019(18) -0.12942(11)
O5 O 0.7292(3) 0.9709(2) -0.02700(11)
N1 N 1.7396(2) -1.5702(2) 0.67832(12)
N2 N 1.2107(2) -0.96099(19) 0.43282(10)
N3 N 0.6330(2) 0.22173(17) 0.13724(9)
N4 N 0.7983(2) 0.86027(19) -0.06546(11)
C1 C 1.6151(2) -1.4143(2) 0.63208(11)
C2 C 1.5930(3) -1.4084(3) 0.55334(13)
C3 C 1.4715(3) -1.2638(3) 0.51122(13)
C4 C 1.3747(2) -1.1275(2) 0.54727(11)
C5 C 1.4043(3) -1.1372(3) 0.62583(12)
C6 C 1.5244(3) -1.2814(3) 0.66859(12)
C7 C 1.2366(3) -0.9765(3) 0.50481(13)
C8 C 1.0753(2) -0.8152(2) 0.39338(11)
C9 C 1.0170(3) -0.8290(2) 0.32617(11)
C10 C 0.8827(3) -0.6950(2) 0.28467(12)
C11 C 0.8091(2) -0.5460(2) 0.30985(11)
C12 C 0.8703(3) -0.5267(2) 0.37428(12)
C13 C 1.0025(3) -0.6607(2) 0.41617(13)
C14 C 0.6656(2) -0.2624(2) 0.24132(10)
C15 C 0.5020(2) -0.1291(2) 0.23764(11)
C16 C 0.4942(2) 0.0295(2) 0.20338(11)
C17 C 0.6481(2) 0.0556(2) 0.17089(9)
C18 C 0.8120(2) -0.0792(2) 0.17666(11)
C19 C 0.8211(2) -0.2388(2) 0.21218(11)
C20 C 0.7171(2) 0.2500(2) 0.06917(11)
C21 C 0.7241(2) 0.4137(2) 0.03302(10)
C22 C 0.8183(3) 0.4350(2) -0.04281(11)
C23 C 0.8408(3) 0.5821(2) -0.07591(12)
C24 C 0.7657(2) 0.70731(19) -0.03286(11)
C25 C 0.6657(3) 0.6929(2) 0.04074(11)
C26 C 0.6447(3) 0.5455(2) 0.07374(11)
H1 H 1.657(3) -1.501(3) 0.5313(12)
H2 H 1.454(3) -1.258(3) 0.4561(14)
H3 H 1.332(3) -1.034(3) 0.6515(13)
H4 H 1.542(3) -1.293(2) 0.7242(13)
H5 H 1.167(3) -0.892(3) 0.5362(14)
H6 H 1.073(3) -0.939(2) 0.3098(11)
H7 H 0.839(3) -0.707(2) 0.2398(12)
H8 H 0.822(3) -0.421(3) 0.3907(12)
H9 H 1.044(2) -0.650(2) 0.4595(12)
H10 H 0.397(3) -0.151(2) 0.2596(11)
H11 H 0.381(3) 0.125(2) 0.2019(11)
H12 H 0.923(3) -0.061(2) 0.1556(11)
H13 H 0.934(3) -0.331(2) 0.2162(11)
H14 H 0.784(3) 0.161(2) 0.0355(11)
H15 H 0.876(3) 0.342(2) -0.0724(11)
H16 H 0.904(3) 0.597(2) -0.1244(12)
H17 H 0.616(3) 0.777(2) 0.0689(12)
H18 H 0.577(3) 0.528(2) 0.1242(12)
#END
