
#######################################################################
#
#                 Cambridge Crystallographic Data Centre
#                                CCDC
#
#######################################################################
#
# If this CIF has been generated from an entry in the Cambridge
# Structural Database, then it will include bibliographic, chemical,
# crystal, experimental, refinement or atomic coordinate data resulting
# from the CCDC's data processing and validation procedures.
#
#######################################################################

data_CSD_CIF_HUDKIB
_audit_creation_date 2009-10-28
_audit_creation_method CSD-ConQuest-V1
_database_code_CSD HUDKIB
_database_code_depnum_ccdc_archive 'CCDC 747344'
_chemical_formula_sum 'C16 H12 N2 O3'
_chemical_formula_moiety
;
C16 H12 N2 O3
;
_journal_coeditor_code "IUCr HK2759"
_journal_coden_Cambridge 1370
_journal_volume 65
_journal_year 2009
_journal_page_first o2270
_journal_name_full 'Acta Crystallogr.,Sect.E:Struct.Rep.Online '
loop_
_publ_author_name
"Yuan Zhang"
"Yong Hua Li"
_chemical_name_systematic
;
8-((4-Nitrobenzyl)oxy)quinoline
;
_cell_volume    662.670
_exptl_crystal_colour 'pale yellow'
_exptl_crystal_density_diffrn 1.405
_exptl_crystal_description 'block'
_exptl_crystal_preparation 'ethyl acetate/THF'
_diffrn_ambient_temperature 294
#These two values have been output from a single CSD field.
_refine_ls_R_factor_gt 0.0422
_refine_ls_wR_factor_gt 0.0422
_symmetry_cell_setting monoclinic
_symmetry_space_group_name_H-M 'P n'
_symmetry_Int_Tables_number 7
loop_
_symmetry_equiv_pos_site_id
_symmetry_equiv_pos_as_xyz
1 x,y,z
2 1/2+x,-y,1/2+z
_cell_length_a 4.176(3)
_cell_length_b 7.395(3)
_cell_length_c 21.513(18)
_cell_angle_alpha 90
_cell_angle_beta 94.08(3)
_cell_angle_gamma 90
_cell_formula_units_Z 2
loop_
_atom_type_symbol
_atom_type_radius_bond
C 0.68
H 0.23
N 0.68
O 0.68
loop_
_atom_site_label
_atom_site_type_symbol
_atom_site_fract_x
_atom_site_fract_y
_atom_site_fract_z
O1 O 0.8658(4) 0.5082(2) 0.23916(8)
O2 O 0.1576(6) -0.2236(3) 0.0857(1)
O3 O 0.3470(9) -0.1172(4) 0.00328(11)
N1 N 1.2733(5) 0.4283(2) 0.33661(9)
N2 N 0.2926(6) -0.1057(3) 0.05809(11)
C1 C 1.4711(6) 0.3933(4) 0.38541(12)
H1 H 1.54510 0.27520 0.39030
C2 C 1.5794(6) 0.5201(4) 0.43068(12)
H2 H 1.71600 0.48580 0.46470
C3 C 1.4798(6) 0.6939(4) 0.42365(11)
H3 H 1.55180 0.78090 0.45260
C4 C 1.2677(5) 0.7427(3) 0.37262(11)
C5 C 1.1593(7) 0.9231(4) 0.36205(14)
H4 H 1.22250 1.01400 0.39020
C6 C 0.9646(6) 0.9620(4) 0.31112(14)
H5 H 0.89820 1.08070 0.30400
C7 C 0.8594(6) 0.8260(3) 0.26827(12)
H6 H 0.72380 0.85550 0.23360
C8 C 0.9567(5) 0.6509(3) 0.27772(11)
C9 C 1.1702(5) 0.6040(3) 0.33024(11)
C10 C 0.6534(6) 0.5515(3) 0.18613(12)
H7 H 0.75770 0.63280 0.15850
H8 H 0.46140 0.61000 0.19920
C11 C 0.5679(5) 0.3764(3) 0.15321(11)
C12 C 0.6351(5) 0.3513(4) 0.09144(11)
H9 H 0.74040 0.44170 0.07080
C13 C 0.5469(6) 0.1932(3) 0.06027(12)
H10 H 0.59180 0.17690 0.01890
C14 C 0.3921(6) 0.0609(3) 0.09139(11)
C15 C 0.3210(6) 0.0814(3) 0.15294(11)
H11 H 0.21550 -0.00960 0.17330
C16 C 0.4104(5) 0.2402(3) 0.18354(10)
H12 H 0.36460 0.25600 0.22490
#END
