
#######################################################################
#
#                 Cambridge Crystallographic Data Centre
#                                CCDC
#
#######################################################################
#
# If this CIF has been generated from an entry in the Cambridge
# Structural Database, then it will include bibliographic, chemical,
# crystal, experimental, refinement or atomic coordinate data resulting
# from the CCDC's data processing and validation procedures.
#
#######################################################################

data_CSD_CIF_HUFNON
_audit_creation_date 2015-07-03
_audit_creation_method CSD-ConQuest-V1
_database_code_CSD HUFNON
_database_code_depnum_ccdc_archive 'CCDC 1052135'
_chemical_formula_sum 'C12 H9 N3 O2'
_chemical_formula_moiety
;
C12 H9 N3 O2
;
_journal_coden_Cambridge 177
_journal_volume 13
_journal_year 2015
_journal_page_first 8232
_journal_name_full 'Org.Biomol.Chem. '
loop_
_publ_author_name
"O.Obulesu"
"J.B.Nanubolu"
"S.Suresh"
_chemical_name_systematic
;
2-methyl-3-nitropyrazolo[1,5-a]quinoline
;
_chemical_melting_point 465.15
_cell_volume   2065.373
_exptl_crystal_colour 'pale yellow'
_exptl_crystal_density_diffrn 1.461
_exptl_special_details
;
Melting point range 465.15-467.15K

;
_exptl_crystal_description 'Needle'
_exptl_crystal_preparation 'Methanol'
_diffrn_ambient_temperature 293
#These two values have been output from a single CSD field.
_refine_ls_R_factor_gt 0.084
_refine_ls_wR_factor_gt 0.084
_symmetry_cell_setting orthorhombic
_symmetry_space_group_name_H-M 'P b c a'
_symmetry_Int_Tables_number 61
loop_
_symmetry_equiv_pos_site_id
_symmetry_equiv_pos_as_xyz
1 x,y,z
2 1/2-x,-y,1/2+z
3 1/2+x,1/2-y,-z
4 -x,1/2+y,1/2-z
5 -x,-y,-z
6 -1/2+x,y,-1/2-z
7 -1/2-x,-1/2+y,z
8 x,-1/2-y,-1/2+z
_cell_length_a 7.4947(11)
_cell_length_b 13.0618(18)
_cell_length_c 21.098(3)
_cell_angle_alpha 90
_cell_angle_beta 90
_cell_angle_gamma 90
_cell_formula_units_Z 8
loop_
_atom_type_symbol
_atom_type_radius_bond
C 0.68
H 0.23
N 0.68
O 0.68
loop_
_atom_site_label
_atom_site_type_symbol
_atom_site_fract_x
_atom_site_fract_y
_atom_site_fract_z
C1 C 0.1239(4) 0.0723(2) 0.38892(15)
C2 C 0.0488(4) 0.1705(2) 0.38655(15)
C3 C -0.0058(6) 0.2399(3) 0.43932(17)
H1 H -0.06660 0.29840 0.42220
H2 H 0.09820 0.26200 0.46210
H3 H -0.08410 0.20380 0.46760
C4 C 0.1478(4) 0.0401(2) 0.32659(15)
C5 C 0.2172(4) -0.0479(2) 0.29532(17)
H4 H 0.26130 -0.10290 0.31860
C6 C 0.2180(5) -0.0501(3) 0.23142(17)
H5 H 0.26280 -0.10760 0.21080
C7 C 0.1523(4) 0.0327(2) 0.19475(15)
C8 C 0.0841(4) 0.1201(2) 0.22505(14)
C9 C 0.0175(4) 0.2032(3) 0.19172(16)
H6 H -0.02740 0.26000 0.21290
C10 C 0.0194(5) 0.1995(3) 0.12659(17)
H7 H -0.02420 0.25470 0.10340
C11 C 0.0856(5) 0.1142(3) 0.09505(17)
H8 H 0.08480 0.11250 0.05100
C12 C 0.1515(5) 0.0333(3) 0.12802(16)
H9 H 0.19690 -0.02270 0.10610
N1 N 0.1769(4) 0.0180(3) 0.44356(15)
N2 N 0.0241(4) 0.19918(19) 0.32710(12)
N3 N 0.0856(3) 0.11870(18) 0.29141(11)
O1 O 0.1755(4) 0.0622(3) 0.49491(13)
O2 O 0.2234(5) -0.0722(2) 0.43706(14)
#END
