
#######################################################################
#
#                 Cambridge Crystallographic Data Centre
#                                CCDC
#
#######################################################################
#
# If this CIF has been generated from an entry in the Cambridge
# Structural Database, then it will include bibliographic, chemical,
# crystal, experimental, refinement or atomic coordinate data resulting
# from the CCDC's data processing and validation procedures.
#
#######################################################################

data_CSD_CIF_HUHCIY
_audit_creation_date 2015-07-06
_audit_creation_method CSD-ConQuest-V1
_database_code_CSD HUHCIY
_database_code_depnum_ccdc_archive 'CCDC 1044542'
_chemical_formula_sum 'C16 H15 N1 O4'
_chemical_formula_moiety
;
C16 H15 N1 O4
;
_journal_coden_Cambridge 35
_journal_volume 80
_journal_year 2015
_journal_page_first 5566
_journal_name_full 'J.Org.Chem. '
loop_
_publ_author_name
"A.S.Murthy"
"S.Donikela"
"C.S.Reddy"
"R.Chegondi"
_chemical_name_systematic
;
7a-methyl-3-(3-nitrobenzylidene)-2,3,3a,7a-tetrahydro-1-benzofuran-5-ol
;
_cell_volume   1404.433
_exptl_crystal_density_diffrn 1.349
_exptl_crystal_description 'block'
_diffrn_ambient_temperature 293
#These two values have been output from a single CSD field.
_refine_ls_R_factor_gt 0.0867
_refine_ls_wR_factor_gt 0.0867
_symmetry_cell_setting monoclinic
_symmetry_space_group_name_H-M 'P 21/n'
_symmetry_Int_Tables_number 14
loop_
_symmetry_equiv_pos_site_id
_symmetry_equiv_pos_as_xyz
1 x,y,z
2 1/2-x,1/2+y,1/2-z
3 -x,-y,-z
4 -1/2+x,-1/2-y,-1/2+z
_cell_length_a 10.9511(5)
_cell_length_b 7.0532(3)
_cell_length_c 18.2429(9)
_cell_angle_alpha 90
_cell_angle_beta 94.658(5)
_cell_angle_gamma 90
_cell_formula_units_Z 4
loop_
_atom_type_symbol
_atom_type_radius_bond
C 0.68
H 0.23
N 0.68
O 0.68
loop_
_atom_site_label
_atom_site_type_symbol
_atom_site_fract_x
_atom_site_fract_y
_atom_site_fract_z
C1 C 0.0931(4) 0.1917(6) 0.3639(2)
C2 C -0.0576(4) 0.4151(6) 0.3980(2)
O1 O -0.3626(3) 0.8235(5) 0.49147(17)
N1 N 0.1518(5) 0.0042(6) 0.3747(2)
O2 O -0.4383(4) 0.4155(5) 0.2568(2)
O3 O 0.1182(4) -0.0947(6) 0.4246(3)
C3 C -0.2746(4) 0.7413(5) 0.3824(2)
H1 H -0.20670 0.83090 0.37980
C4 C -0.2399(4) 0.5994(6) 0.4414(2)
C5 C -0.3077(4) 0.6615(6) 0.3052(2)
H2 H -0.26010 0.68120 0.26590
C6 C -0.3833(4) 0.8468(6) 0.4129(2)
C7 C -0.0154(4) 0.5401(6) 0.3466(2)
H3 H -0.05110 0.65920 0.34020
C8 C -0.1539(4) 0.4661(6) 0.4469(2)
H4 H -0.15430 0.39170 0.48890
C9 C 0.1336(5) 0.3132(7) 0.3133(2)
H5 H 0.19680 0.27780 0.28510
O4 O 0.2292(4) -0.0412(6) 0.3343(3)
C10 C -0.4241(5) 0.5486(6) 0.2989(2)
C11 C -0.0011(4) 0.2390(6) 0.4075(2)
H6 H -0.02590 0.15420 0.44240
C12 C -0.5209(4) 0.6138(7) 0.3432(2)
H7 H -0.59710 0.55500 0.33760
C13 C -0.5038(4) 0.7529(7) 0.3910(2)
H8 H -0.57210 0.79690 0.41300
C14 C -0.3214(4) 0.6338(8) 0.5023(2)
H9 H -0.39000 0.54630 0.49910
H10 H -0.27630 0.61940 0.55000
C15 C 0.0805(5) 0.4878(7) 0.3043(2)
H11 H 0.10800 0.57200 0.27010
C16 C -0.3881(6) 1.0566(7) 0.3970(4)
H12 H -0.45670 1.11160 0.41890
H13 H -0.39700 1.07660 0.34480
H14 H -0.31380 1.11530 0.41730
#END
