
#######################################################################
#
#                 Cambridge Crystallographic Data Centre
#                                CCDC
#
#######################################################################
#
# If this CIF has been generated from an entry in the Cambridge
# Structural Database, then it will include bibliographic, chemical,
# crystal, experimental, refinement or atomic coordinate data resulting
# from the CCDC's data processing and validation procedures.
#
#######################################################################

data_CSD_CIF_HUHYAK
_audit_creation_date 2003-02-11
_audit_creation_method CSD-ConQuest-V1
_database_code_CSD HUHYAK
_database_code_depnum_ccdc_archive 'CCDC 198979'
_chemical_formula_sum 'C10 H9 N1 O3'
_chemical_formula_moiety
;
C10 H9 N1 O3
;
_journal_coeditor_code "IUCr OM6108"
_journal_coden_Cambridge 1370
_journal_volume 58
_journal_year 2002
_journal_page_first o1161
_journal_name_full 'Acta Crystallogr.,Sect.E:Struct.Rep.Online '
loop_
_publ_author_name
"V.M.Kolb"
"M.G.Donahue"
"E.A.Putnam"
"C.Y.Meyers"
"P.D.Robinson"
_chemical_name_systematic
;
Cyclopropyl m-nitrophenyl ketone
;
_chemical_melting_point 346
_cell_volume   1868.745
_exptl_crystal_colour 'colorless'
_exptl_crystal_density_diffrn 1.359
_exptl_special_details
;
Melting point range 346-347K

;
_exptl_crystal_description 'tetragonal bipyramid'
_exptl_crystal_preparation 'absolute ethanol'
_diffrn_ambient_temperature 296
#These two values have been output from a single CSD field.
_refine_ls_R_factor_gt 0.04
_refine_ls_wR_factor_gt 0.04
_symmetry_cell_setting tetragonal
_symmetry_space_group_name_H-M 'P 41 21 2'
_symmetry_Int_Tables_number 92
loop_
_symmetry_equiv_pos_site_id
_symmetry_equiv_pos_as_xyz
1 x,y,z
2 -x,-y,1/2+z
3 1/2-y,1/2+x,1/4+z
4 1/2+y,1/2-x,-1/4+z
5 y,x,-z
6 -y,-x,1/2-z
7 1/2-x,1/2+y,1/4-z
8 1/2+x,1/2-y,-1/4-z
_cell_length_a 11.438(2)
_cell_length_b 11.438(2)
_cell_length_c 14.284(2)
_cell_angle_alpha 90
_cell_angle_beta 90
_cell_angle_gamma 90
_cell_formula_units_Z 8
loop_
_atom_type_symbol
_atom_type_radius_bond
C 0.68
H 0.23
N 0.68
O 0.68
loop_
_atom_site_label
_atom_site_type_symbol
_atom_site_fract_x
_atom_site_fract_y
_atom_site_fract_z
O1 O 0.5835(2) 0.1546(2) 0.8732(2)
O2 O 0.7178(3) 0.2844(2) 0.8664(2)
O3 O 0.67925(16) -0.25389(17) 0.83853(16)
N1 N 0.6860(3) 0.1832(2) 0.8689(2)
C1 C 0.8225(2) -0.1111(2) 0.86664(18)
C2 C 0.7393(2) -0.0229(2) 0.8639(2)
C3 C 0.7758(2) 0.0911(2) 0.86886(19)
C4 C 0.8904(3) 0.1220(2) 0.8753(2)
C5 C 0.9728(2) 0.0348(2) 0.8778(2)
C6 C 0.9396(2) -0.0810(2) 0.87492(19)
C7 C 0.7798(2) -0.2347(2) 0.8628(2)
C8 C 0.8578(3) -0.3308(2) 0.8892(2)
C9 C 0.8395(4) -0.4474(2) 0.8436(2)
C10 C 0.8028(3) -0.4318(3) 0.9397(2)
H1 H 0.66020 -0.04080 0.85890
H2 H 0.91230 0.20020 0.87790
H3 H 1.05170 0.05400 0.88140
H4 H 0.99600 -0.13940 0.87860
H5 H 0.93810 -0.31010 0.90670
H6 H 0.77910 -0.45320 0.79610
H7 H 0.90800 -0.49540 0.83210
H8 H 0.84840 -0.47000 0.98810
H9 H 0.71950 -0.42790 0.95210
#END
