
#######################################################################
#
#                 Cambridge Crystallographic Data Centre
#                                CCDC
#
#######################################################################
#
# If this CIF has been generated from an entry in the Cambridge
# Structural Database, then it will include bibliographic, chemical,
# crystal, experimental, refinement or atomic coordinate data resulting
# from the CCDC's data processing and validation procedures.
#
#######################################################################

data_CSD_CIF_HUKVAL
_audit_creation_date 2010-08-30
_audit_creation_method CSD-ConQuest-V1
_database_code_CSD HUKVAL
_database_code_depnum_ccdc_archive 'CCDC 737612'
_chemical_formula_sum 'C3 H8 N6 O6'
_chemical_formula_moiety
;
C3 H8 N6 O6
;
_journal_coden_Cambridge 182
_journal_volume 46
_journal_year 2010
_journal_page_first 142
_journal_name_full 'Chem.Commun. '
loop_
_publ_author_name
"Young-Hyuk Joo"
"J.M.Shreeve"
_chemical_name_systematic
;
N,N',N''-Trinitropropane-1,2,3-triamine
;
_chemical_melting_point 406.15
_cell_volume    849.261
_exptl_crystal_colour 'colorless'
_exptl_crystal_density_diffrn 1.753
_exptl_special_details
;
impact-sensitive

;
_exptl_crystal_description 'prism'
_diffrn_ambient_temperature 293
#These two values have been output from a single CSD field.
_refine_ls_R_factor_gt 0.0354
_refine_ls_wR_factor_gt 0.0354
_symmetry_cell_setting orthorhombic
_symmetry_space_group_name_H-M 'P n m a'
_symmetry_Int_Tables_number 62
loop_
_symmetry_equiv_pos_site_id
_symmetry_equiv_pos_as_xyz
1 x,y,z
2 1/2-x,-y,1/2+z
3 -x,1/2+y,-z
4 1/2+x,1/2-y,1/2-z
5 -x,-y,-z
6 -1/2+x,y,-1/2-z
7 x,-1/2-y,z
8 -1/2-x,-1/2+y,-1/2+z
_cell_length_a 6.7812(7)
_cell_length_b 13.9258(13)
_cell_length_c 8.9932(9)
_cell_angle_alpha 90
_cell_angle_beta 90
_cell_angle_gamma 90
_cell_formula_units_Z 4
loop_
_atom_type_symbol
_atom_type_radius_bond
C 0.68
H 0.23
N 0.68
O 0.68
loop_
_atom_site_label
_atom_site_type_symbol
_atom_site_fract_x
_atom_site_fract_y
_atom_site_fract_z
C1 C 0.7436(3) 0.25000 0.0391(2)
H1 H 0.80540 0.25000 0.13760
C2 C 0.6148(2) 0.33976(10) 0.02294(16)
H2 H 0.54640 0.33690 -0.07170
H3 H 0.51600 0.33950 0.10090
N1 N 0.7242(2) 0.42878(9) 0.03060(14)
H4 H 0.76050 0.45630 -0.05050
N2 N 0.7699(2) 0.46905(9) 0.15971(14)
O1 O 0.8551(3) 0.54684(9) 0.15659(16)
O2 O 0.7264(2) 0.42672(8) 0.27424(13)
N3 N 0.8958(2) 0.25000 -0.07391(18)
H5 H 0.86020 0.25000 -0.16570
N4 N 1.0873(2) 0.25000 -0.04331(19)
O3 O 1.1408(2) 0.25000 0.08405(19)
O4 O 1.1984(2) 0.25000 -0.15174(19)
C2F C 0.6148(2) 0.16024(10) 0.02294(16)
H2F H 0.54640 0.16310 -0.07170
H3F H 0.51600 0.16050 0.10090
N1F N 0.7242(2) 0.07122(9) 0.03060(14)
H4F H 0.76050 0.04370 -0.05050
N2F N 0.7699(2) 0.03095(9) 0.15971(14)
O1F O 0.8551(3) -0.04684(9) 0.15659(16)
O2F O 0.7264(2) 0.07328(8) 0.27424(13)
#END
