
#######################################################################
#
#                 Cambridge Crystallographic Data Centre
#                                CCDC
#
#######################################################################
#
# If this CIF has been generated from an entry in the Cambridge
# Structural Database, then it will include bibliographic, chemical,
# crystal, experimental, refinement or atomic coordinate data resulting
# from the CCDC's data processing and validation procedures.
#
#######################################################################

data_CSD_CIF_HULJON
_audit_creation_date 2003-02-11
_audit_creation_method CSD-ConQuest-V1
_database_code_CSD HULJON
_database_code_depnum_ccdc_archive 'CCDC 200758'
_chemical_formula_sum 'C11 H13 N3 O2'
_chemical_formula_moiety
;
C11 H13 N3 O2
;
_journal_coeditor_code "IUCr CV6152"
_journal_coden_Cambridge 1370
_journal_volume 58
_journal_year 2002
_journal_page_first o1218
_journal_name_full 'Acta Crystallogr.,Sect.E:Struct.Rep.Online '
loop_
_publ_author_name
"Shang Shan"
"Duan-Jun Xu"
"Jing-Yun Wu"
"M.Y.Chiang"
_chemical_name_systematic
;
Cyclopentanone 4-nitrophenylhydrazone
;
_cell_volume   2266.239
_exptl_crystal_colour 'orange'
_exptl_crystal_density_diffrn 1.285
_exptl_crystal_description 'prism'
_exptl_crystal_preparation 'chloroform'
_diffrn_ambient_temperature 298
#These two values have been output from a single CSD field.
_refine_ls_R_factor_gt 0.0492
_refine_ls_wR_factor_gt 0.0492
_symmetry_cell_setting orthorhombic
_symmetry_space_group_name_H-M 'P b c a'
_symmetry_Int_Tables_number 61
loop_
_symmetry_equiv_pos_site_id
_symmetry_equiv_pos_as_xyz
1 x,y,z
2 1/2-x,-y,1/2+z
3 1/2+x,1/2-y,-z
4 -x,1/2+y,1/2-z
5 -x,-y,-z
6 -1/2+x,y,-1/2-z
7 -1/2-x,-1/2+y,z
8 x,-1/2-y,-1/2+z
_cell_length_a 21.372(3)
_cell_length_b 14.705(4)
_cell_length_c 7.211(2)
_cell_angle_alpha 90
_cell_angle_beta 90
_cell_angle_gamma 90
_cell_formula_units_Z 8
loop_
_atom_type_symbol
_atom_type_radius_bond
C 0.68
H 0.23
N 0.68
O 0.68
loop_
_atom_site_label
_atom_site_type_symbol
_atom_site_fract_x
_atom_site_fract_y
_atom_site_fract_z
O1 O 0.31816(12) 0.29629(18) 0.8614(6)
O2 O 0.37818(13) 0.18363(19) 0.9198(6)
N1 N 0.32661(15) 0.2152(2) 0.8849(6)
N2 N 0.12358(11) -0.01858(17) 0.8275(4)
H1 H 0.12890 -0.07550 0.85000
N3 N 0.06469(12) 0.01408(17) 0.7798(4)
C1 C 0.17287(14) 0.0401(2) 0.8386(4)
C2 C 0.23131(14) 0.0074(2) 0.8927(6)
H2 H 0.23630 -0.05400 0.92020
C3 C 0.28102(15) 0.0645(2) 0.9057(5)
H3 H 0.31990 0.04200 0.94160
C4 C 0.27422(14) 0.1548(2) 0.8663(5)
C5 C 0.21710(16) 0.1886(2) 0.8088(6)
H4 H 0.21280 0.24990 0.77970
C6 C 0.16698(14) 0.1313(2) 0.7950(5)
H5 H 0.12850 0.15390 0.75590
C7 C 0.02092(16) -0.0454(2) 0.7755(5)
C8 C 0.02464(16) -0.1444(2) 0.8125(6)
H6 H 0.04000 -0.15600 0.93700
H7 H 0.05210 -0.17420 0.72420
C9 C -0.0420(2) -0.1775(3) 0.7909(9)
H8 H -0.04290 -0.23370 0.72050
H9 H -0.06050 -0.18860 0.91160
C10 C -0.0762(2) -0.1079(4) 0.6950(8)
H10 H -0.11880 -0.10530 0.74170
H11 H -0.07790 -0.12180 0.56360
C11 C -0.04477(15) -0.0184(3) 0.7238(5)
H12 H -0.06460 0.01570 0.82290
H13 H -0.04530 0.01770 0.61130
#END
