
#######################################################################
#
#                 Cambridge Crystallographic Data Centre
#                                CCDC
#
#######################################################################
#
# If this CIF has been generated from an entry in the Cambridge
# Structural Database, then it will include bibliographic, chemical,
# crystal, experimental, refinement or atomic coordinate data resulting
# from the CCDC's data processing and validation procedures.
#
#######################################################################

data_CSD_CIF_HULVUF
_audit_creation_date 2003-02-11
_audit_creation_method CSD-ConQuest-V1
_database_code_CSD HULVUF
_database_code_depnum_ccdc_archive 'CCDC 170510'
_chemical_formula_sum 'C17 H23 N2 O5'
_chemical_formula_moiety
;
C17 H23 N2 O5
;
_journal_coden_Cambridge 1145
_journal_volume 12
_journal_year 2002
_journal_page_first 570
_journal_name_full 'J.Mater.Chem. '
loop_
_publ_author_name
"M.Minguet"
"D.B.Amabilino"
"J.Vidal-Gancedo"
"K.Wurst"
"J.Veciana"
_chemical_name_systematic
;
(RS)-Methyl 
2-(4-(4,5-dihydro-4,4,5,5-tetramethyl-3-oxido-1H-imidazol-3-ium-1-oxyl-2-yl)ph
enoxy)propionate radical
;
_chemical_melting_point 414.15
_cell_volume   1746.476
_exptl_crystal_colour 'dark blue'
_exptl_crystal_density_diffrn 1.275
_exptl_crystal_description 'prism'
_diffrn_ambient_temperature 218
#These two values have been output from a single CSD field.
_refine_ls_R_factor_gt 0.0445
_refine_ls_wR_factor_gt 0.0445
_symmetry_cell_setting monoclinic
_symmetry_space_group_name_H-M 'P 21/c'
_symmetry_Int_Tables_number 14
loop_
_symmetry_equiv_pos_site_id
_symmetry_equiv_pos_as_xyz
1 x,y,z
2 x,1/2-y,1/2+z
3 -x,-y,-z
4 -x,-1/2+y,-1/2-z
_cell_length_a 8.307(3)
_cell_length_b 10.366(3)
_cell_length_c 20.439(4)
_cell_angle_alpha 90
_cell_angle_beta 97.11(2)
_cell_angle_gamma 90
_cell_formula_units_Z 4
loop_
_atom_type_symbol
_atom_type_radius_bond
C 0.68
H 0.23
N 0.68
O 0.68
loop_
_atom_site_label
_atom_site_type_symbol
_atom_site_fract_x
_atom_site_fract_y
_atom_site_fract_z
O1 O 0.3477(2) 0.0065(2) 0.24587(8)
O2 O 0.1062(3) -0.3524(2) 0.32761(8)
O3 O 0.2636(2) 0.08504(13) 0.55425(6)
O4 O 0.1029(2) 0.3024(2) 0.49944(8)
O5 O 0.3406(2) 0.40440(15) 0.50632(8)
N1 N 0.2743(2) -0.1013(2) 0.25037(8)
N2 N 0.1576(2) -0.2694(2) 0.28836(8)
C1 C 0.2299(2) -0.1551(2) 0.30557(9)
C2 C 0.2430(3) -0.1867(2) 0.19112(10)
C3 C 0.1242(3) -0.2867(2) 0.21502(11)
C4 C 0.2487(2) -0.0970(2) 0.37133(9)
C5 C 0.3442(2) 0.0130(2) 0.38461(10)
H1 H 0.40350 0.04540 0.35190
C6 C 0.3534(2) 0.0754(2) 0.4446(1)
H2 H 0.41880 0.14910 0.45250
C7 C 0.2659(2) 0.0291(2) 0.49344(9)
C8 C 0.1733(2) -0.0818(2) 0.48161(9)
H3 H 0.11630 -0.11490 0.51490
C9 C 0.1641(2) -0.1441(2) 0.42177(9)
H4 H 0.10040 -0.21890 0.41460
C10 C 0.3369(2) 0.2095(2) 0.56514(10)
H5 H 0.45160 0.20610 0.55650
C11 C 0.3287(3) 0.2430(2) 0.63698(10)
H6 H 0.3804(17) 0.3257(8) 0.6470(2)
H7 H 0.3842(17) 0.1770(8) 0.66492(10)
H8 H 0.2161(3) 0.2475(15) 0.6449(2)
C12 C 0.2443(3) 0.3083(2) 0.51963(10)
C13 C 0.2653(3) 0.5059(3) 0.46371(14)
H9 H 0.2372(21) 0.4723(6) 0.4195(3)
H10 H 0.3406(9) 0.5772(8) 0.4626(8)
H11 H 0.1679(13) 0.5359(13) 0.4807(5)
C14 C 0.4062(3) -0.2416(3) 0.17945(15)
H12 H 0.3942(6) -0.2910(17) 0.1388(6)
H13 H 0.4466(12) -0.2974(16) 0.2159(5)
H14 H 0.4823(8) -0.1717(3) 0.1761(10)
C15 C 0.1741(4) -0.1061(3) 0.13234(12)
H15 H 0.1357(21) -0.1625(3) 0.0958(3)
H16 H 0.2579(7) -0.0497(13) 0.1195(6)
H17 H 0.0845(15) -0.0545(13) 0.1441(3)
C16 C 0.1523(6) -0.4252(3) 0.19740(15)
H18 H 0.1387(33) -0.4346(6) 0.14982(15)
H19 H 0.0748(21) -0.4799(4) 0.2160(11)
H20 H 0.2616(12) -0.4504(8) 0.2150(11)
C17 C -0.0556(3) -0.2511(4) 0.19674(14)
H21 H -0.0877(8) -0.2687(21) 0.1504(3)
H22 H -0.0707(6) -0.1601(6) 0.2053(10)
H23 H -0.1216(4) -0.3019(16) 0.2230(8)
#END
