
#######################################################################
#
#                 Cambridge Crystallographic Data Centre
#                                CCDC
#
#######################################################################
#
# If this CIF has been generated from an entry in the Cambridge
# Structural Database, then it will include bibliographic, chemical,
# crystal, experimental, refinement or atomic coordinate data resulting
# from the CCDC's data processing and validation procedures.
#
#######################################################################

data_CSD_CIF_HULWEQ
_audit_creation_date 2003-02-11
_audit_creation_method CSD-ConQuest-V1
_database_code_CSD HULWEQ
_database_code_depnum_ccdc_archive 'CCDC 170508'
_chemical_formula_sum 'C16 H21 N2 O5'
_chemical_formula_moiety
;
C16 H21 N2 O5
;
_journal_coden_Cambridge 1145
_journal_volume 12
_journal_year 2002
_journal_page_first 570
_journal_name_full 'J.Mater.Chem. '
loop_
_publ_author_name
"M.Minguet"
"D.B.Amabilino"
"J.Vidal-Gancedo"
"K.Wurst"
"J.Veciana"
_chemical_name_systematic
;
(R)-2-(4-(4,5-dihydro-4,4,5,5-tetramethyl-3-oxido-1H-imidazol-3-ium-1-oxyl-2-y
l)phenoxy)propionic acid radical
;
_chemical_melting_point 425.15
_cell_volume   1603.249
_exptl_crystal_colour 'blue'
_exptl_crystal_density_diffrn 1.331
_exptl_crystal_description 'platelet'
_exptl_crystal_preparation 'dichloromethane/hexane'
_diffrn_ambient_temperature 213
#These two values have been output from a single CSD field.
_refine_ls_R_factor_gt 0.0322
_refine_ls_wR_factor_gt 0.0322
loop_
_citation_database_id_CSD
_citation_special_details
HULWAM "is a racemate of this entry"
_symmetry_cell_setting orthorhombic
_symmetry_space_group_name_H-M 'P 21 21 21'
_symmetry_Int_Tables_number 19
loop_
_symmetry_equiv_pos_site_id
_symmetry_equiv_pos_as_xyz
1 x,y,z
2 1/2-x,-y,1/2+z
3 -x,1/2+y,1/2-z
4 1/2+x,1/2-y,-z
_cell_length_a 6.910(2)
_cell_length_b 11.910(3)
_cell_length_c 19.481(5)
_cell_angle_alpha 90
_cell_angle_beta 90
_cell_angle_gamma 90
_cell_formula_units_Z 4
loop_
_atom_type_symbol
_atom_type_radius_bond
C 0.68
H 0.23
N 0.68
O 0.68
loop_
_atom_site_label
_atom_site_type_symbol
_atom_site_fract_x
_atom_site_fract_y
_atom_site_fract_z
O1 O 0.3851(4) 0.7617(2) 0.28064(14)
O2 O 0.2418(4) 0.4027(2) 0.35595(12)
O3 O -0.5448(4) 0.6535(2) -0.03445(15)
H1 H -0.6068(72) 0.6145(42) -0.0764(24)
O4 O -0.4938(4) 0.4723(2) -0.01283(13)
O5 O -0.2889(4) 0.5217(2) 0.09860(13)
N1 N 0.3834(5) 0.6715(3) 0.3160(2)
N2 N 0.3217(5) 0.5010(3) 0.3497(2)
C1 C 0.2706(6) 0.5793(3) 0.3036(2)
C2 C 0.4956(6) 0.6604(3) 0.3818(2)
C3 C 0.5040(6) 0.5309(3) 0.3875(2)
C4 C 0.1252(6) 0.5677(3) 0.2503(2)
C5 C 0.0228(6) 0.6601(3) 0.2257(2)
H2 H 0.04960 0.73180 0.24350
C6 C -0.1167(6) 0.6484(3) 0.1759(2)
H3 H -0.18580 0.71160 0.16060
C7 C -0.1554(6) 0.5442(3) 0.1485(2)
C8 C -0.0503(6) 0.4512(3) 0.1712(2)
H4 H -0.07320 0.38020 0.15180
C9 C 0.0861(6) 0.4630(3) 0.2217(2)
H5 H 0.15410 0.39960 0.23730
C10 C -0.4011(6) 0.6117(3) 0.0706(2)
H6 H -0.31790 0.67800 0.06230
C11 C -0.4822(6) 0.5689(4) 0.0037(2)
C12 C -0.5686(6) 0.6429(4) 0.1173(2)
H7 H -0.51850 0.67060 0.16070
H8 H -0.64820 0.57720 0.12560
H9 H -0.64600 0.70090 0.09570
C13 C 0.6916(7) 0.7177(4) 0.3757(2)
H10 H 0.76710 0.68120 0.34020
H11 H 0.75940 0.71240 0.41920
H12 H 0.67310 0.79620 0.36400
C14 C 0.3725(7) 0.7160(4) 0.4375(2)
H13 H 0.24840 0.67820 0.44050
H14 H 0.35240 0.79440 0.42610
H15 H 0.43870 0.71060 0.48130
C15 C 0.6687(7) 0.4782(4) 0.3461(2)
H16 H 0.66840 0.50890 0.30000
H17 H 0.65070 0.39750 0.34400
H18 H 0.79130 0.49490 0.36810
C16 C 0.4964(6) 0.4864(3) 0.4603(2)
H19 H 0.39030 0.52180 0.48480
H20 H 0.61730 0.50310 0.48350
H21 H 0.47660 0.40570 0.45940
#END
