
#######################################################################
#
#                 Cambridge Crystallographic Data Centre
#                                CCDC
#
#######################################################################
#
# If this CIF has been generated from an entry in the Cambridge
# Structural Database, then it will include bibliographic, chemical,
# crystal, experimental, refinement or atomic coordinate data resulting
# from the CCDC's data processing and validation procedures.
#
#######################################################################

data_CSD_CIF_HUMMAE
_audit_creation_date 2010-08-16
_audit_creation_method CSD-ConQuest-V1
_database_code_CSD HUMMAE
_database_code_depnum_ccdc_archive 'CCDC 615811'
_chemical_formula_sum 'C16 H8 N4 O12'
_chemical_formula_moiety
;
C16 H8 N4 O12
;
_journal_coden_Cambridge 1392
_journal_volume 38
_journal_year 2008
_journal_page_first 593
_journal_name_full 'Xibei Daxue Xuebao,Ziran Kexueban(Chin.)(J.Northwest Univ.,Nat.Sci.Ed.) '
loop_
_publ_author_name
"Xiao-qing Zhang"
"Bei Qin"
"Yan-qing Miao"
_chemical_name_systematic
;
7-Hydroxy-3-(4-methoxy-3,5-dinitrophenyl)-6,8-dinitro-4H-chromen-4-one
;
_chemical_melting_point 531.15
_cell_volume   1761.002
_exptl_crystal_colour 'yellow'
_exptl_crystal_density_diffrn 1.691
_exptl_crystal_description 'needle'
_diffrn_ambient_temperature 296
_refine_special_details
;
The oxygen atoms of two nitro groups are disordered.

;
#These two values have been output from a single CSD field.
_refine_ls_R_factor_gt 0.0423
_refine_ls_wR_factor_gt 0.0423
_symmetry_cell_setting monoclinic
_symmetry_space_group_name_H-M 'P 21/c'
_symmetry_Int_Tables_number 14
loop_
_symmetry_equiv_pos_site_id
_symmetry_equiv_pos_as_xyz
1 x,y,z
2 -x,1/2+y,1/2-z
3 -x,-y,-z
4 x,-1/2-y,-1/2+z
_cell_length_a 4.9136(11)
_cell_length_b 22.333(5)
_cell_length_c 16.124(4)
_cell_angle_alpha 90
_cell_angle_beta 95.576(4)
_cell_angle_gamma 90
_cell_formula_units_Z 4
loop_
_atom_type_symbol
_atom_type_radius_bond
C 0.68
H 0.23
N 0.68
O 0.68
loop_
_atom_site_label
_atom_site_type_symbol
_atom_site_fract_x
_atom_site_fract_y
_atom_site_fract_z
C1 C -0.1889(5) 0.48222(12) 0.73448(15)
C2 C -0.2632(5) 0.53358(13) 0.77401(18)
C3 C -0.1212(5) 0.54659(12) 0.85186(17)
C4 C 0.0853(5) 0.51039(11) 0.88604(16)
H1 H 0.18110 0.52120 0.93640
C5 C 0.1540(5) 0.45783(11) 0.84675(15)
C6 C 0.0106(5) 0.44404(11) 0.77063(15)
C7 C 0.2446(5) 0.35368(11) 0.76394(16)
H2 H 0.27010 0.31840 0.73500
C8 C 0.3968(5) 0.36112(11) 0.83720(15)
C9 C 0.3694(5) 0.41729(11) 0.88299(17)
C10 C 0.5809(5) 0.31227(11) 0.86982(16)
C11 C 0.7178(5) 0.27704(12) 0.81682(16)
H3 H 0.70730 0.28600 0.76030
C12 C 0.8692(5) 0.22887(11) 0.84776(17)
C13 C 0.8981(6) 0.21325(13) 0.93117(18)
C14 C 0.7590(7) 0.24974(13) 0.98274(16)
C15 C 0.6046(6) 0.29789(11) 0.95379(16)
H4 H 0.51540 0.32100 0.99070
C16 C 0.951(1) 0.11334(16) 0.9742(3)
H5 H 0.80640 0.11910 1.00940
H6 H 1.08900 0.08800 1.00200
H7 H 0.87880 0.09490 0.92300
N1 N -0.3229(6) 0.46839(12) 0.65106(16)
N2 N -0.1908(6) 0.59951(11) 0.89796(17)
N3 N 1.0080(6) 0.19086(12) 0.79015(17)
N4 N 0.7780(14) 0.2372(2) 1.0734(2)
O1 O -0.5065(6) 0.43438(15) 0.64510(15)
O2 O -0.2384(6) 0.49120(12) 0.59358(14)
O3 O -0.4650(4) 0.56622(9) 0.73523(12)
H8 H -0.49680 0.59500 0.76440
O4 O -0.4038(5) 0.62664(9) 0.87278(12)
O5 O -0.0468(4) 0.61377(9) 0.96003(14)
O6 O 0.5179(4) 0.43038(8) 0.94579(11)
O7 O 0.0567(3) 0.39309(8) 0.72834(10)
O8 O 1.0629(5) 0.16738(11) 0.95755(14)
O9 O 1.0248(18) 0.2326(4) 1.1061(4)
O10 O 0.5570(15) 0.2355(3) 1.1037(4)
O11 O 0.868(3) 0.1614(5) 0.7421(6)
O12 O 1.214(3) 0.2063(5) 0.7637(10)
O13? O 0.774(4) 0.1905(3) 1.1022(5)
O14? O 0.790(3) 0.2770(4) 1.1214(5)
O15? O 0.919(3) 0.1412(5) 0.7739(7)
O16? O 1.242(3) 0.1958(6) 0.7938(11)
#END
