
#######################################################################
#
#                 Cambridge Crystallographic Data Centre
#                                CCDC
#
#######################################################################
#
# If this CIF has been generated from an entry in the Cambridge
# Structural Database, then it will include bibliographic, chemical,
# crystal, experimental, refinement or atomic coordinate data resulting
# from the CCDC's data processing and validation procedures.
#
#######################################################################

data_CSD_CIF_HUMPOU
_audit_creation_date 2003-02-11
_audit_creation_method CSD-ConQuest-V1
_database_code_CSD HUMPOU
_database_code_depnum_ccdc_archive 'CCDC 190945'
_chemical_formula_sum 'C11 H22 N2 O4'
_chemical_formula_moiety
;
C11 H22 N2 O4
;
_journal_coeditor_code "IUCr CM6021"
_journal_coden_Cambridge 1370
_journal_volume 58
_journal_year 2002
_journal_page_first o1415
_journal_name_full 'Acta Crystallogr.,Sect.E:Struct.Rep.Online '
loop_
_publ_author_name
"P.Sawatzki"
"T.Mikeska"
"M.Nieger"
"H.Hupfer"
"T.Kolter"
_chemical_name_systematic
;
2(S)-(N-(t-Butoxycarbonyl)amino)-N-methoxy-N-methylbutanamide
;
_cell_volume   1369.911
_exptl_crystal_colour 'colorless'
_exptl_crystal_density_diffrn 1.194
_exptl_crystal_description 'prisms'
_exptl_crystal_preparation 'cyclohexane/ethyl acetate'
_diffrn_ambient_temperature 123
#These two values have been output from a single CSD field.
_refine_ls_R_factor_gt 0.034
_refine_ls_wR_factor_gt 0.034
_symmetry_cell_setting orthorhombic
_symmetry_space_group_name_H-M 'P 21 21 21'
_symmetry_Int_Tables_number 19
loop_
_symmetry_equiv_pos_site_id
_symmetry_equiv_pos_as_xyz
1 x,y,z
2 1/2-x,-y,1/2+z
3 -x,1/2+y,1/2-z
4 1/2+x,1/2-y,-z
_cell_length_a 6.6315(1)
_cell_length_b 9.8478(2)
_cell_length_c 20.9769(5)
_cell_angle_alpha 90
_cell_angle_beta 90
_cell_angle_gamma 90
_cell_formula_units_Z 4
loop_
_atom_type_symbol
_atom_type_radius_bond
C 0.68
H 0.23
N 0.68
O 0.68
loop_
_atom_site_label
_atom_site_type_symbol
_atom_site_fract_x
_atom_site_fract_y
_atom_site_fract_z
C1 C 0.3483(2) 0.80113(13) 0.56443(7)
H1 H 0.47010 0.85530 0.57180
H2 H 0.23010 0.85120 0.57970
H3 H 0.33390 0.78320 0.51870
O1 O 0.36423(13) 0.67448(9) 0.59820(4)
N1 N 0.53544(16) 0.60343(11) 0.57723(5)
C2 C 0.7155(2) 0.62789(14) 0.61501(6)
H4 H 0.68730 0.60770 0.65990
H5 H 0.75570 0.72320 0.61080
H6 H 0.82480 0.56930 0.59990
C3 C 0.50610(17) 0.48948(12) 0.54203(5)
O2 O 0.64865(13) 0.41643(8) 0.52818(4)
C4 C 0.28824(19) 0.45748(12) 0.52326(5)
H7 H 0.21580 0.54480 0.51500
C5 C 0.18403(18) 0.38390(14) 0.57853(6)
H8 H 0.17230 0.44740 0.61490
H9 H 0.04570 0.35900 0.56510
C6 C 0.2923(2) 0.25629(15) 0.60096(6)
H10 H 0.21720 0.21540 0.63630
H11 H 0.42850 0.28000 0.61530
H12 H 0.30110 0.19130 0.56570
N2 N 0.28131(16) 0.37545(10) 0.46600(4)
H13 H 0.239(2) 0.2936(14) 0.4662(7)
C7 C 0.31868(17) 0.43294(11) 0.40907(5)
O3 O 0.37025(16) 0.55113(9) 0.40194(4)
O4 O 0.29209(14) 0.34248(8) 0.36164(4)
C8 C 0.28089(19) 0.38672(13) 0.29463(5)
C9 C 0.1209(3) 0.49283(17) 0.28593(7)
H14 H -0.00830 0.45790 0.30150
H15 H 0.10910 0.51550 0.24060
H16 H 0.15760 0.57450 0.31000
C10 C 0.4827(3) 0.4343(3) 0.27165(8)
H17 H 0.58260 0.36220 0.27810
H18 H 0.52310 0.51520 0.29560
H19 H 0.47450 0.45640 0.22620
C11 C 0.2141(5) 0.25698(17) 0.26163(7)
H20 H 0.08140 0.22990 0.27770
H21 H 0.31190 0.18470 0.27030
H22 H 0.20590 0.27260 0.21560
#END
