
#######################################################################
#
#                 Cambridge Crystallographic Data Centre
#                                CCDC
#
#######################################################################
#
# If this CIF has been generated from an entry in the Cambridge
# Structural Database, then it will include bibliographic, chemical,
# crystal, experimental, refinement or atomic coordinate data resulting
# from the CCDC's data processing and validation procedures.
#
#######################################################################

data_CSD_CIF_HUQLOU
_audit_creation_date 2003-03-31
_audit_creation_method CSD-ConQuest-V1
_database_code_CSD HUQLOU
_database_code_depnum_ccdc_archive 'CCDC 195519'
_chemical_formula_sum 'C30 H35 N1 O12'
_chemical_formula_moiety
;
C30 H35 N1 O12
;
_journal_coden_Cambridge 1336
_journal_volume 4
_journal_year 2002
_journal_page_first 4693
_journal_name_full 'Org.Lett. '
loop_
_publ_author_name
"Zhixiang Yang"
"D.Shannon"
"Vouy-Linh Truong"
"P.Deslongchamps"
_chemical_name_systematic
;
Methyl 
5-(acetyloxy)-9b-hydroxy-3a-methyl-3-((4-nitrobenzoyloxy)methyl)-9-oxo-7-(5-ox
otetrahydrofuran-2-yl)dodecahydro-1H-cyclopenta(a)naphthalene-6-carboxylate
;
_chemical_melting_point 432.15
_cell_volume   2855.100
_exptl_crystal_colour 'colorless'
_exptl_crystal_density_diffrn 1.4
_exptl_special_details
;
Melting point range 432.15-435.15K

;
_exptl_crystal_description 'plate'
_diffrn_ambient_temperature 173
#These two values have been output from a single CSD field.
_refine_ls_R_factor_gt 0.0309
_refine_ls_wR_factor_gt 0.0309
_symmetry_cell_setting monoclinic
_symmetry_space_group_name_H-M 'C 2'
_symmetry_Int_Tables_number 5
loop_
_symmetry_equiv_pos_site_id
_symmetry_equiv_pos_as_xyz
1 x,y,z
2 -x,y,-z
3 1/2+x,1/2+y,z
4 1/2-x,1/2+y,-z
_cell_length_a 28.625(3)
_cell_length_b 6.7023(6)
_cell_length_c 17.446(2)
_cell_angle_alpha 90
_cell_angle_beta 121.459(3)
_cell_angle_gamma 90
_cell_formula_units_Z 4
loop_
_atom_type_symbol
_atom_type_radius_bond
C 0.68
H 0.23
N 0.68
O 0.68
loop_
_atom_site_label
_atom_site_type_symbol
_atom_site_fract_x
_atom_site_fract_y
_atom_site_fract_z
C1 C 0.03830(7) 0.5625(3) 0.35963(12)
O1 O 0.02052(6) 0.7240(3) 0.32909(11)
C2 C 0.06070(8) 0.4881(4) 0.45305(12)
C3 C 0.06912(8) 0.2677(3) 0.44868(12)
C4 C 0.06650(6) 0.2377(3) 0.35933(11)
O2 O 0.04084(5) 0.4178(2) 0.30823(7)
C5 C 0.12105(6) 0.2080(3) 0.36556(9)
C6 C 0.16264(6) 0.3730(3) 0.41673(10)
C7 C 0.21706(6) 0.3226(2) 0.42785(9)
C8 C 0.21478(6) 0.2166(2) 0.34917(9)
C9 C 0.15971(6) 0.2590(2) 0.26299(9)
C10 C 0.11167(6) 0.1782(2) 0.27075(10)
C11 C 0.15867(6) 0.1780(2) 0.18088(9)
C12 C 0.20819(7) 0.2379(3) 0.17688(10)
C13 C 0.26236(6) 0.1728(2) 0.26032(10)
C14 C 0.26551(6) 0.2633(2) 0.34384(10)
C15 C 0.27719(7) 0.4827(3) 0.33862(12)
C16 C 0.31937(9) 0.4757(3) 0.30953(16)
C17 C 0.30962(7) 0.2785(2) 0.25724(12)
C18 C 0.26535(8) -0.0532(2) 0.26467(12)
C19 C 0.10158(6) -0.0407(3) 0.24627(10)
C20 C 0.36299(7) 0.1646(3) 0.29721(11)
O3 O 0.35626(5) 0.01092(19) 0.23371(8)
C21 C 0.39506(6) -0.1287(3) 0.26486(11)
O4 O 0.43518(5) -0.1269(2) 0.33854(9)
C22 C 0.38137(6) -0.2920(3) 0.19837(11)
C23 C 0.41888(7) -0.4452(3) 0.22149(12)
C24 C 0.40707(7) -0.6059(3) 0.16488(12)
C25 C 0.35692(7) -0.6106(3) 0.08584(11)
C26 C 0.31872(7) -0.4610(3) 0.06115(12)
C27 C 0.33162(7) -0.2995(3) 0.11777(11)
N1 N 0.34287(7) -0.7840(3) 0.02646(11)
O5 O 0.37623(7) -0.9176(2) 0.05012(11)
O6 O 0.29822(6) -0.7863(3) -0.04283(11)
O7 O 0.13230(5) -0.17384(19) 0.28898(8)
O8 O 0.05429(5) -0.06806(18) 0.17018(7)
C28 C 0.04045(11) -0.2721(3) 0.13878(15)
O9 O 0.25987(4) 0.3609(2) 0.49597(7)
O10 O 0.11052(5) 0.26303(18) 0.10359(7)
C29 C 0.08500(7) 0.1495(3) 0.02926(10)
O11 O 0.09621(6) -0.0218(2) 0.02740(8)
C30 C 0.04215(8) 0.2642(4) -0.04865(12)
O12 O 0.31241(4) 0.17792(18) 0.42083(7)
H1 H 0.0330(9) 0.525(4) 0.4691(14)
H2 H 0.0944(10) 0.562(4) 0.4906(16)
H3 H 0.0391(9) 0.196(4) 0.4495(14)
H4 H 0.1037(8) 0.225(3) 0.4986(14)
H5 H 0.0422(8) 0.125(3) 0.3254(13)
H6 H 0.1354(6) 0.083(3) 0.3957(11)
H7 H 0.1510(7) 0.502(3) 0.3841(12)
H8 H 0.1692(7) 0.392(3) 0.4757(12)
H9 H 0.2161(7) 0.083(3) 0.3652(11)
H10 H 0.1551(7) 0.401(3) 0.2561(10)
H11 H 0.0814(8) 0.247(3) 0.2317(12)
H12 H 0.1545(6) 0.036(3) 0.1791(10)
H13 H 0.2065(7) 0.384(4) 0.1690(12)
H14 H 0.2055(7) 0.177(3) 0.1255(12)
H15 H 0.2447(7) 0.551(3) 0.2970(11)
H16 H 0.2919(7) 0.547(3) 0.3948(13)
H17 H 0.3187(9) 0.584(4) 0.2763(14)
H18 H 0.3556(11) 0.467(4) 0.3629(17)
H19 H 0.2986(8) 0.304(3) 0.1977(14)
H20 H 0.2993(9) -0.098(3) 0.3133(13)
H21 H 0.2600(8) -0.112(3) 0.2098(13)
H22 H 0.2353(8) -0.110(4) 0.2735(13)
H23 H 0.3928(7) 0.253(3) 0.3046(11)
H24 H 0.3725(7) 0.103(3) 0.3524(12)
H25 H 0.4534(8) -0.442(3) 0.2785(13)
H26 H 0.4299(8) -0.713(3) 0.1737(13)
H27 H 0.2880(9) -0.472(3) 0.0102(14)
H28 H 0.3050(8) -0.198(3) 0.1007(12)
H29 H 0.0675(9) -0.319(4) 0.1231(14)
H30 H 0.0053(11) -0.271(4) 0.0875(18)
H31 H 0.0426(9) -0.351(4) 0.1862(15)
H32 H 0.0090(13) 0.190(5) -0.080(2)
H33 H 0.0544(12) 0.285(5) -0.086(2)
H34 H 0.0365(11) 0.392(5) -0.0305(18)
H35 H 0.3131(10) 0.226(4) 0.4675(17)
#END
