
#######################################################################
#
#                 Cambridge Crystallographic Data Centre
#                                CCDC
#
#######################################################################
#
# If this CIF has been generated from an entry in the Cambridge
# Structural Database, then it will include bibliographic, chemical,
# crystal, experimental, refinement or atomic coordinate data resulting
# from the CCDC's data processing and validation procedures.
#
#######################################################################

data_CSD_CIF_HUQNAK
_audit_creation_date 2015-11-11
_audit_creation_method CSD-ConQuest-V1
_database_code_CSD HUQNAK
_database_code_depnum_ccdc_archive 'CCDC 1429645'
_chemical_formula_sum 'C24 H22 N1 O1'
_chemical_formula_moiety
;
C24 H22 N1 O1
;
_journal_coden_Cambridge 1326
_journal_volume 17
_journal_year 2015
_journal_page_first 31646
_journal_name_full 'Phys.Chem.Chem.Phys.(PCCP) '
loop_
_publ_author_name
"Yoshio Teki"
"S.Miyamoto"
"K.Koide"
_chemical_name_systematic
;
3-(9-anthryl)-N-t-butyl-N-hydroxyaniline
;
_cell_volume   3658.412
_exptl_crystal_colour 'red'
_exptl_crystal_density_diffrn 1.236
_exptl_special_details
;
mounted on the CryoLoop with Palaton oil and placed in N2 stream at 150(2) K

;
_exptl_crystal_description 'Block'
_diffrn_ambient_temperature 150
#These two values have been output from a single CSD field.
_refine_ls_R_factor_gt 0.0517
_refine_ls_wR_factor_gt 0.0517
_symmetry_cell_setting monoclinic
_symmetry_space_group_name_H-M 'C 2/c'
_symmetry_Int_Tables_number 15
loop_
_symmetry_equiv_pos_site_id
_symmetry_equiv_pos_as_xyz
1 x,y,z
2 -x,y,1/2-z
3 1/2+x,1/2+y,z
4 1/2-x,1/2+y,1/2-z
5 -x,-y,-z
6 x,-y,-1/2+z
7 -1/2-x,-1/2-y,-z
8 -1/2+x,-1/2-y,-1/2+z
_cell_length_a 17.6732(11)
_cell_length_b 7.1183(4)
_cell_length_c 29.6076(17)
_cell_angle_alpha 90
_cell_angle_beta 100.828(2)
_cell_angle_gamma 90
_cell_formula_units_Z 8
loop_
_atom_type_symbol
_atom_type_radius_bond
C 0.68
H 0.23
N 0.68
O 0.68
loop_
_atom_site_label
_atom_site_type_symbol
_atom_site_fract_x
_atom_site_fract_y
_atom_site_fract_z
C1 C 0.73306(7) 0.44700(16) 0.14912(4)
C2 C 0.68730(7) 0.35051(16) 0.17581(4)
C3 C 0.60679(7) 0.38748(17) 0.17272(4)
H1 H 0.5815(9) 0.484(2) 0.1500(5)
C4 C 0.56454(8) 0.29450(18) 0.19970(5)
H2 H 0.5072(10) 0.318(2) 0.1966(6)
C5 C 0.59959(8) 0.15789(19) 0.23192(5)
H3 H 0.5692(10) 0.092(2) 0.2519(6)
C6 C 0.67534(8) 0.11647(18) 0.23537(5)
H4 H 0.7022(10) 0.021(2) 0.2573(6)
C7 C 0.72167(7) 0.20793(16) 0.20749(4)
C8 C 0.79969(7) 0.16673(16) 0.21143(4)
H5 H 0.8232(9) 0.070(2) 0.2338(5)
C9 C 0.84562(7) 0.26238(16) 0.18573(4)
C10 C 0.92673(8) 0.22982(18) 0.19203(5)
H6 H 0.9497(9) 0.136(2) 0.2153(5)
C11 C 0.97185(8) 0.32915(19) 0.16804(5)
H7 H 1.0280(11) 0.307(2) 0.1735(6)
C12 C 0.93811(8) 0.46482(19) 0.13510(5)
H8 H 0.9704(9) 0.534(2) 0.1161(5)
C13 C 0.86117(8) 0.50056(18) 0.12811(5)
H9 H 0.8390(9) 0.595(2) 0.1058(5)
C14 C 0.81192(7) 0.40395(16) 0.15346(4)
C15 C 0.69623(7) 0.59863(16) 0.11752(4)
C16 C 0.67740(7) 0.56600(16) 0.07042(4)
H10 H 0.6945(9) 0.445(2) 0.0580(5)
C17 C 0.63602(7) 0.70048(16) 0.04109(4)
C18 C 0.61514(8) 0.86968(17) 0.05969(5)
H11 H 0.5861(9) 0.960(2) 0.0403(5)
C19 C 0.63664(8) 0.90369(17) 0.10614(5)
H12 H 0.6237(9) 1.023(2) 0.1195(5)
C20 C 0.67701(8) 0.76968(17) 0.13530(4)
H13 H 0.6910(9) 0.795(2) 0.1689(5)
N1 N 0.61479(7) 0.67566(14) -0.00697(4)
O1 O 0.59254(10) 0.82212(16) -0.03075(4)
C21 C 0.61918(8) 0.49721(17) -0.03354(4)
C22 C 0.70191(11) 0.4716(3) -0.03953(7)
H14 H 0.7380(11) 0.449(3) -0.0101(7)
H15 H 0.7048(13) 0.355(3) -0.0589(8)
H16 H 0.7171(13) 0.581(3) -0.0579(8)
C23 C 0.5897(1) 0.32717(19) -0.01035(5)
H17 H 0.6260(11) 0.280(3) 0.0177(7)
H18 H 0.5806(11) 0.224(3) -0.0321(7)
H19 H 0.5422(14) 0.358(3) 0.0014(8)
C24 C 0.56610(14) 0.5237(2) -0.07996(6)
H20 H 0.5819(12) 0.623(3) -0.0981(7)
H21 H 0.5096(19) 0.551(4) -0.0766(10)
H22 H 0.5697(13) 0.403(3) -0.0983(7)
#END
