
#######################################################################
#
#                 Cambridge Crystallographic Data Centre
#                                CCDC
#
#######################################################################
#
# If this CIF has been generated from an entry in the Cambridge
# Structural Database, then it will include bibliographic, chemical,
# crystal, experimental, refinement or atomic coordinate data resulting
# from the CCDC's data processing and validation procedures.
#
#######################################################################

data_CSD_CIF_HURBUR
_audit_creation_date 2003-03-31
_audit_creation_method CSD-ConQuest-V1
_database_code_CSD HURBUR
_database_code_depnum_ccdc_archive 'CCDC 180381'
_chemical_formula_sum 'C11 H12 N4 O3'
_chemical_formula_moiety
;
C11 H12 N4 O3
;
_journal_coden_Cambridge 119
_journal_volume 642
_journal_year 2002
_journal_page_first 41
_journal_name_full 'J.Mol.Struct. '
loop_
_publ_author_name
"P.Simunek"
"V.Bertolasi"
"V.Machacek"
_chemical_name_systematic
;
(3Z)-4-amino-3-((E)-4-nitrophenylazo)pent-3-en-2-one
;
_cell_volume   1178.053
_exptl_crystal_colour 'red'
_exptl_crystal_density_diffrn 1.4
_exptl_crystal_description 'prism'
_diffrn_ambient_temperature 296
_refine_special_details
;
The two tautomeric H atoms are refined with partial occupancy of 0.20:0.80.

;
#These two values have been output from a single CSD field.
_refine_ls_R_factor_gt 0.0442
_refine_ls_wR_factor_gt 0.0442
_symmetry_cell_setting monoclinic
_symmetry_space_group_name_H-M 'P 21/c'
_symmetry_Int_Tables_number 14
loop_
_symmetry_equiv_pos_site_id
_symmetry_equiv_pos_as_xyz
1 x,y,z
2 x,1/2-y,1/2+z
3 -x,-y,-z
4 -x,-1/2+y,-1/2-z
_cell_length_a 10.7326(5)
_cell_length_b 8.6743(4)
_cell_length_c 12.7371(6)
_cell_angle_alpha 90
_cell_angle_beta 96.551(2)
_cell_angle_gamma 90
_cell_formula_units_Z 4
loop_
_atom_type_symbol
_atom_type_radius_bond
C 0.68
H 0.23
N 0.68
O 0.68
loop_
_atom_site_label
_atom_site_type_symbol
_atom_site_fract_x
_atom_site_fract_y
_atom_site_fract_z
O1 O 0.43265(12) 0.28392(15) 0.19921(9)
O2 O -0.26224(12) 1.00977(15) -0.01155(11)
O3 O -0.24148(13) 1.04314(16) -0.17632(10)
N1 N 0.19460(11) 0.56724(14) -0.05672(10)
H1? H 0.204(9) 0.535(10) -0.118(8)
N2 N 0.23756(11) 0.52962(13) 0.03845(9)
N3 N 0.36062(13) 0.38513(17) -0.12402(10)
H2 H 0.298(2) 0.456(3) -0.1413(18)
N4 N -0.21134(12) 0.98162(14) -0.09063(11)
C1 C 0.33318(12) 0.42621(15) 0.05554(10)
C2 C 0.39444(13) 0.35196(15) -0.02466(11)
C3 C 0.36628(14) 0.39363(18) 0.16820(11)
C4 C 0.49864(16) 0.23867(19) -0.00286(14)
C5 C 0.3164(3) 0.4983(3) 0.24758(15)
C6 C 0.09184(12) 0.67020(15) -0.06033(11)
C7 C 0.03012(14) 0.70688(17) 0.02714(11)
C8 C -0.06988(13) 0.80747(17) 0.01684(11)
C9 C -0.10793(13) 0.87160(16) -0.08109(11)
C10 C -0.04939(15) 0.83560(19) -0.16936(12)
C11 C 0.05043(15) 0.73442(19) -0.15842(12)
H3 H 0.3965(18) 0.334(2) -0.1745(16)
H4 H 0.5617(19) 0.277(2) 0.0483(16)
H5 H 0.4708(19) 0.147(2) 0.0289(16)
H6 H 0.533(2) 0.216(2) -0.0704(18)
H7 H 0.326(3) 0.603(4) 0.234(2)
H8 H 0.345(3) 0.471(3) 0.315(2)
H9 H 0.231(4) 0.484(4) 0.243(3)
H10 H 0.0588(16) 0.660(2) 0.0942(15)
H11 H -0.1125(17) 0.835(2) 0.0762(15)
H12 H 0.0925(18) 0.706(2) -0.2207(17)
H13 H -0.0778(17) 0.882(2) -0.2346(16)
#END
