
#######################################################################
#
#                 Cambridge Crystallographic Data Centre
#                                CCDC
#
#######################################################################
#
# If this CIF has been generated from an entry in the Cambridge
# Structural Database, then it will include bibliographic, chemical,
# crystal, experimental, refinement or atomic coordinate data resulting
# from the CCDC's data processing and validation procedures.
#
#######################################################################

data_CSD_CIF_HURHOS
_audit_creation_date 2010-12-14
_audit_creation_method CSD-ConQuest-V1
_database_code_CSD HURHOS
_database_code_depnum_ccdc_archive 'CCDC 773262'
_chemical_formula_sum 'C24 H35 N3 O9'
_chemical_formula_moiety
;
C24 H35 N3 O9
;
_journal_coden_Cambridge 16
_journal_volume 66
_journal_year 2010
_journal_page_first 6162
_journal_name_full 'Tetrahedron '
loop_
_publ_author_name
"S.Kollmann"
"E.Nauha"
"D.Hoppe"
_chemical_name_systematic
;
2-(3-((Diisopropylcarbamoyl)oxy)oxiran-2-yl)-1-(2,2-dimethyl-1,3-dioxolan-4-yl
)propyl (3-nitrophenyl)carbamate
;
_cell_volume   2639.679
_exptl_crystal_colour 'colorless'
_exptl_crystal_density_diffrn 1.282
_exptl_special_details
;
Absolute configuration

;
_exptl_crystal_description 'needle'
_diffrn_ambient_temperature 223
#These two values have been output from a single CSD field.
_refine_ls_R_factor_gt 0.0468
_refine_ls_wR_factor_gt 0.0468
_symmetry_cell_setting orthorhombic
_symmetry_space_group_name_H-M 'P 21 21 21'
_symmetry_Int_Tables_number 19
loop_
_symmetry_equiv_pos_site_id
_symmetry_equiv_pos_as_xyz
1 x,y,z
2 1/2-x,-y,1/2+z
3 -x,1/2+y,1/2-z
4 1/2+x,1/2-y,-z
_cell_length_a 7.1888(3)
_cell_length_b 9.1608(3)
_cell_length_c 40.0831(17)
_cell_angle_alpha 90
_cell_angle_beta 90
_cell_angle_gamma 90
_cell_formula_units_Z 4
loop_
_atom_type_symbol
_atom_type_radius_bond
C 0.68
H 0.23
N 0.68
O 0.68
loop_
_atom_site_label
_atom_site_type_symbol
_atom_site_fract_x
_atom_site_fract_y
_atom_site_fract_z
C1 C -0.0504(5) 0.5597(4) 0.10797(8)
H1 H -0.14820 0.63580 0.10790
O1 O 0.0014(3) 0.5036(3) 0.13891(5)
C2 C 0.0923(4) 0.5700(4) 0.08247(8)
H2 H 0.07680 0.65120 0.06640
O2 O -0.0519(3) 0.4583(3) 0.08131(5)
C3 C 0.2892(4) 0.5214(4) 0.08812(8)
H3 H 0.29050 0.46110 0.10860
C4 C 0.3599(4) 0.4263(4) 0.05951(8)
H4 H 0.26870 0.34790 0.05490
O3 O 0.5364(3) 0.3619(2) 0.06905(5)
C5 C 0.4104(5) 0.5034(4) 0.02706(8)
H5 H 0.52390 0.56290 0.03030
O4 O 0.2608(3) 0.5940(2) 0.01617(5)
C6 C 0.4383(6) 0.3981(4) -0.00179(9)
H6 H 0.53400 0.43370 -0.01720
H7 H 0.47390 0.30100 0.00630
O5 O 0.2605(4) 0.3951(2) -0.01733(6)
C7 C 0.1919(5) 0.5404(4) -0.01504(8)
C8 C 0.2655(6) 0.6359(4) -0.04288(8)
H8 H 0.40010 0.62880 -0.04360
H9 H 0.22990 0.73650 -0.03880
H10 H 0.21390 0.60370 -0.06400
C9 C -0.0174(6) 0.5351(5) -0.01383(11)
H11 H -0.06430 0.49130 -0.03420
H12 H -0.06620 0.63340 -0.01170
H13 H -0.05670 0.47720 0.00520
C10 C 0.4087(5) 0.6557(4) 0.09477(9)
H14 H 0.39210 0.72550 0.07680
H15 H 0.53840 0.62710 0.09600
H16 H 0.37160 0.69980 0.11570
N1 N 0.7106(4) 0.2058(3) 0.09588(7)
H17 H 0.787(5) 0.263(4) 0.0881(9)
C11 C 0.7711(4) 0.0939(4) 0.11679(8)
C12 C 0.6541(5) 0.0190(4) 0.13815(8)
H18 H 0.52570 0.03830 0.13830
C13 C 0.7291(5) -0.0841(4) 0.15912(9)
C14 C 0.9154(6) -0.1193(4) 0.15945(11)
H19 H 0.96260 -0.19070 0.17400
C15 C 1.0295(6) -0.0456(5) 0.13766(11)
H20 H 1.15710 -0.06790 0.13710
C16 C 0.9607(5) 0.0603(4) 0.11653(10)
H21 H 1.04140 0.10990 0.10200
N2 N 0.6027(6) -0.1561(4) 0.18329(8)
O6 O 0.4352(5) -0.1461(3) 0.17862(8)
O7 O 0.6735(5) -0.2196(4) 0.20676(9)
C17 C -0.1447(5) 0.4754(4) 0.16021(9)
O8 O -0.3043(3) 0.4912(4) 0.15123(6)
N3 N -0.0854(4) 0.4318(3) 0.19036(6)
C18 C 0.1115(5) 0.4043(4) 0.19919(9)
H22 H 0.11040 0.37390 0.22290
C19 C 0.1988(6) 0.2786(5) 0.18023(10)
H23 H 0.12150 0.19240 0.18250
H24 H 0.32160 0.25880 0.18920
H25 H 0.20930 0.30420 0.15680
C20 C 0.2299(5) 0.5414(5) 0.19793(10)
H26 H 0.26220 0.56290 0.17490
H27 H 0.34260 0.52640 0.21080
H28 H 0.16060 0.62260 0.20720
C21 C -0.2316(5) 0.3988(5) 0.21524(9)
H29 H -0.34990 0.43750 0.20620
C22 C -0.1983(6) 0.4753(5) 0.24810(9)
H30 H -0.08850 0.43480 0.25870
H31 H -0.30520 0.46150 0.26250
H32 H -0.17980 0.57880 0.24420
C23 C -0.2571(7) 0.2362(5) 0.21945(11)
H33 H -0.28560 0.19250 0.19800
H34 H -0.35860 0.21780 0.23480
H35 H -0.14360 0.19380 0.22820
C24 C 0.5319(5) 0.2399(4) 0.08770(8)
O9 O 0.3941(3) 0.1732(3) 0.09529(6)
#END
