
#######################################################################
#
#                 Cambridge Crystallographic Data Centre
#                                CCDC
#
#######################################################################
#
# If this CIF has been generated from an entry in the Cambridge
# Structural Database, then it will include bibliographic, chemical,
# crystal, experimental, refinement or atomic coordinate data resulting
# from the CCDC's data processing and validation procedures.
#
#######################################################################

data_CSD_CIF_HURQOC
_audit_creation_date 2015-11-11
_audit_creation_method CSD-ConQuest-V1
_database_code_CSD HURQOC
_database_code_depnum_ccdc_archive 'CCDC 1414777'
_chemical_formula_sum 'C13 H21 N1 O6'
_chemical_formula_moiety
;
C13 H21 N1 O6
;
_journal_coden_Cambridge 1336
_journal_volume 17
_journal_year 2015
_journal_page_first 5408
_journal_name_full 'Org.Lett. '
loop_
_publ_author_name
"C.Berini"
"M.Sebban"
"H.Oulyadi"
"M.Sanselme"
"V.Levacher"
"J.-F.Briere"
_chemical_name_systematic
;
t-butyl 3-(2,2-dimethyl-1,3-dioxolan-4-yl)-5-oxo-1,2-oxazolidine-2-carboxylate
;
_cell_volume   1549.774
_exptl_crystal_colour 'colorless'
_exptl_crystal_density_diffrn 1.231
_exptl_crystal_description 'prism'
_diffrn_ambient_temperature 293
#These two values have been output from a single CSD field.
_refine_ls_R_factor_gt 0.0587
_refine_ls_wR_factor_gt 0.0587
_symmetry_cell_setting orthorhombic
_symmetry_space_group_name_H-M 'P 21 21 21'
_symmetry_Int_Tables_number 19
loop_
_symmetry_equiv_pos_site_id
_symmetry_equiv_pos_as_xyz
1 x,y,z
2 1/2-x,-y,1/2+z
3 1/2+x,1/2-y,-z
4 -x,1/2+y,1/2-z
_cell_length_a 6.282(2)
_cell_length_b 9.924(4)
_cell_length_c 24.859(10)
_cell_angle_alpha 90
_cell_angle_beta 90
_cell_angle_gamma 90
_cell_formula_units_Z 4
loop_
_atom_type_symbol
_atom_type_radius_bond
C 0.68
H 0.23
N 0.68
O 0.68
loop_
_atom_site_label
_atom_site_type_symbol
_atom_site_fract_x
_atom_site_fract_y
_atom_site_fract_z
C1 C 0.4026(7) -0.2188(4) 0.10264(18)
H1 H 0.35700 -0.20330 0.13900
H2 H 0.41480 -0.31400 0.09640
H3 H 0.30010 -0.18130 0.07820
C2 C 0.6826(8) -0.1602(4) 0.03546(13)
H4 H 0.58370 -0.11020 0.01380
H5 H 0.68350 -0.25270 0.02410
H6 H 0.82260 -0.12280 0.03140
C3 C 0.6165(7) -0.1524(3) 0.09367(14)
C4 C 0.7835(8) -0.2020(4) 0.13197(15)
H7 H 0.91070 -0.14960 0.12770
H8 H 0.81400 -0.29500 0.12460
H9 H 0.73260 -0.19330 0.16820
C5 C 0.7036(7) 0.0881(4) 0.09906(14)
C6 C 0.6572(8) 0.3893(5) 0.05607(18)
C7 C 0.4470(7) 0.3346(4) 0.04256(13)
H10 H 0.45240 0.28420 0.00910
H11 H 0.34300 0.40630 0.03900
C8 C 0.3922(5) 0.2435(3) 0.08905(12)
H12 H 0.32160 0.16180 0.07590
C9 C 0.2569(6) 0.3111(4) 0.13044(13)
H13 H 0.12060 0.33600 0.11400
C10 C 0.2143(7) 0.2315(4) 0.18070(15)
H14 H 0.06260 0.21660 0.18500
H15 H 0.28470 0.14460 0.17890
C11 C 0.3508(9) 0.4332(4) 0.20676(15)
C12 C 0.1959(15) 0.5340(7) 0.2246(2)
H16 H 0.05750 0.51110 0.21100
H17 H 0.23670 0.62110 0.21140
H18 H 0.19200 0.53580 0.26320
C13 C 0.5687(11) 0.4564(7) 0.2273(2)
H19 H 0.57280 0.43780 0.26510
H20 H 0.60830 0.54860 0.22110
H21 H 0.66630 0.39800 0.20890
N1 N 0.6023(4) 0.2100(3) 0.11116(10)
O1 O 0.8872(5) 0.0785(3) 0.08794(11)
O2 O 0.5632(4) -0.0086(2) 0.10633(9)
O3 O 0.7439(4) 0.3178(2) 0.09724(13)
O4 O 0.7553(7) 0.4815(3) 0.03716(14)
O5 O 0.3593(4) 0.4301(2) 0.14928(9)
O6 O 0.2901(8) 0.3032(3) 0.22195(11)
#END
