
#######################################################################
#
#                 Cambridge Crystallographic Data Centre
#                                CCDC
#
#######################################################################
#
# If this CIF has been generated from an entry in the Cambridge
# Structural Database, then it will include bibliographic, chemical,
# crystal, experimental, refinement or atomic coordinate data resulting
# from the CCDC's data processing and validation procedures.
#
#######################################################################

data_CSD_CIF_HUTPET
_audit_creation_date 2015-11-12
_audit_creation_method CSD-ConQuest-V1
_database_code_CSD HUTPET
_database_code_depnum_ccdc_archive 'CCDC 953776'
_chemical_formula_sum 'C17 H25 N5 O7'
_chemical_formula_moiety
;
C17 H25 N5 O7
;
_journal_coden_Cambridge 24
_journal_volume 56
_journal_year 2015
_journal_page_first 7168
_journal_name_full 'Tetrahedron Lett. '
loop_
_publ_author_name
"R.Dere"
"C.Monasterolo"
"M.Moccia"
"M.F.A.Adamo"
_chemical_name_systematic
;
(Z)-diethyl 
1-(1-(3-methyl-4-nitro-1,2-oxazol-5-yl)-2-(piperidin-1-yl)vinyl)hydrazine-1,2-
dicarboxylate
;
_chemical_melting_point 395
_cell_volume   2017.517
_exptl_crystal_colour 'colorless'
_exptl_crystal_density_diffrn 1.354
_diffrn_ambient_temperature 108
#These two values have been output from a single CSD field.
_refine_ls_R_factor_gt 0.1523
_refine_ls_wR_factor_gt 0.1523
_symmetry_cell_setting monoclinic
_symmetry_space_group_name_H-M 'P 21/c'
_symmetry_Int_Tables_number 14
loop_
_symmetry_equiv_pos_site_id
_symmetry_equiv_pos_as_xyz
1 x,y,z
2 -x,1/2+y,1/2-z
3 -x,-y,-z
4 x,-1/2-y,-1/2+z
_cell_length_a 12.825(4)
_cell_length_b 10.547(5)
_cell_length_c 17.951(9)
_cell_angle_alpha 90
_cell_angle_beta 123.81(2)
_cell_angle_gamma 90
_cell_formula_units_Z 4
loop_
_atom_type_symbol
_atom_type_radius_bond
C 0.68
H 0.23
N 0.68
O 0.68
loop_
_atom_site_label
_atom_site_type_symbol
_atom_site_fract_x
_atom_site_fract_y
_atom_site_fract_z
O1 O -0.0618(4) -0.0066(4) 0.0476(3)
O2 O 0.1150(3) 0.0522(4) 0.1664(2)
O3 O -0.0172(3) 0.4138(3) 0.0709(2)
O4 O 0.4488(3) 0.4412(4) 0.3096(2)
O5 O 0.4162(3) 0.5202(5) 0.1804(2)
O6 O 0.0846(3) 0.5536(4) 0.2819(2)
O7 O 0.2086(3) 0.6722(4) 0.2537(3)
N1 N -0.1208(3) 0.3718(4) -0.0158(2)
N2 N 0.0120(4) 0.0763(4) 0.0993(3)
N3 N 0.1931(3) 0.4617(4) 0.2299(2)
N4 N 0.2265(4) 0.2678(5) 0.3719(3)
N5 N 0.2530(3) 0.4843(4) 0.1856(2)
H1 H 0.20900 0.50170 0.12790
C1 C 0.251(2) 0.1811(17) 0.4970(5)
H2 H 0.30310 0.10340 0.52070
H3 H 0.18580 0.17280 0.50970
C2 C 0.4179(9) 0.3379(12) 0.5055(7)
H4 H 0.47040 0.41380 0.53540
H5 H 0.47090 0.26880 0.50650
C3 C 0.0386(4) 0.3115(4) 0.1273(3)
C4 C 0.1347(4) 0.3410(5) 0.2175(3)
C5 C 0.1525(4) 0.2615(5) 0.2832(3)
H6 H 0.10220 0.18720 0.26140
C6 C 0.2030(9) 0.1762(8) 0.4251(4)
H7 H 0.11220 0.18070 0.40030
H8 H 0.21880 0.09030 0.41110
C7 C 0.3810(4) 0.4791(6) 0.2330(3)
C8 C -0.0253(4) 0.2046(4) 0.0756(3)
C9 C -0.1247(4) 0.2489(5) -0.0104(3)
C10 C -0.2259(4) 0.1760(5) -0.0896(3)
H9 H -0.28020 0.23480 -0.13850
H10 H -0.27580 0.12940 -0.07270
H11 H -0.18770 0.11600 -0.10950
C11 C 0.3372(17) 0.2916(14) 0.5563(5)
H12 H 0.39710 0.26060 0.61810
H13 H 0.28910 0.36330 0.55840
C12 C 0.5505(5) 0.5127(8) 0.2179(4)
H14 H 0.57730 0.42310 0.22410
H15 H 0.59950 0.55330 0.27770
C13 C 0.5704(6) 0.5807(9) 0.1541(5)
H16 H 0.51060 0.54920 0.09320
H17 H 0.65620 0.56580 0.17070
H18 H 0.55730 0.67180 0.15640
C14 C 0.1547(4) 0.5651(5) 0.2565(3)
C15 C 0.1827(6) 0.7848(6) 0.2878(5)
H19 H 0.09590 0.78050 0.27260
H20 H 0.18960 0.86100 0.25860
C16 C 0.2721(8) 0.7960(8) 0.3870(6)
H21 H 0.26530 0.72070 0.41600
H22 H 0.25180 0.87180 0.40810
H23 H 0.35800 0.80300 0.40200
C17 C 0.3251(7) 0.3630(8) 0.4257(4)
H24 H 0.36040 0.38790 0.39090
H25 H 0.28290 0.43890 0.42950
#END
