
#######################################################################
#
#                 Cambridge Crystallographic Data Centre
#                                CCDC
#
#######################################################################
#
# If this CIF has been generated from an entry in the Cambridge
# Structural Database, then it will include bibliographic, chemical,
# crystal, experimental, refinement or atomic coordinate data resulting
# from the CCDC's data processing and validation procedures.
#
#######################################################################

data_CSD_CIF_HUVDIM
_audit_creation_date 2010-12-14
_audit_creation_method CSD-ConQuest-V1
_database_code_CSD HUVDIM
_database_code_depnum_ccdc_archive 'CCDC 765959'
_chemical_formula_sum 'C16 H28 N2 O6'
_chemical_formula_moiety
;
C16 H28 N2 O6
;
_journal_coden_Cambridge 24
_journal_volume 51
_journal_year 2010
_journal_page_first 2160
_journal_name_full 'Tetrahedron Lett. '
loop_
_publ_author_name
"L.Bollans"
"J.Bacsa"
"D.A.O'Farrell"
"S.Waterson"
"A.V.Stachulski"
_chemical_name_systematic
;
t-butyl 
6-([(t-butoxycarbonyl)amino]methyl)-3-(hydroxymethyl)-3,6-dihydro-2H-1,2-oxazi
ne-2-carboxylate
;
_cell_volume   1833.301
_exptl_crystal_colour 'colorless'
_exptl_crystal_density_diffrn 1.248
_exptl_crystal_description 'prism'
_diffrn_ambient_temperature 100
#These two values have been output from a single CSD field.
_refine_ls_R_factor_gt 0.0497
_refine_ls_wR_factor_gt 0.0497
_symmetry_cell_setting monoclinic
_symmetry_space_group_name_H-M 'P 21/c'
_symmetry_Int_Tables_number 14
loop_
_symmetry_equiv_pos_site_id
_symmetry_equiv_pos_as_xyz
1 x,y,z
2 -x,1/2+y,1/2-z
3 -x,-y,-z
4 x,-1/2-y,-1/2+z
_cell_length_a 14.519(3)
_cell_length_b 10.675(2)
_cell_length_c 12.344(3)
_cell_angle_alpha 90
_cell_angle_beta 106.617(4)
_cell_angle_gamma 90
_cell_formula_units_Z 4
loop_
_atom_type_symbol
_atom_type_radius_bond
C 0.68
H 0.23
N 0.68
O 0.68
loop_
_atom_site_label
_atom_site_type_symbol
_atom_site_fract_x
_atom_site_fract_y
_atom_site_fract_z
O1 O 0.28733(9) 0.28893(12) 0.13503(10)
O2 O 0.35027(10) -0.02175(12) 0.19724(10)
O3 O 0.36078(10) 0.14885(12) 0.31086(10)
O4 O 0.37294(10) 0.09801(12) -0.13016(10)
O5 O 0.15542(9) 0.60924(12) 0.33293(10)
O6 O 0.05296(9) 0.59077(12) 0.15512(10)
N1 N 0.28590(12) 0.15664(14) 0.12229(12)
N2 N 0.20877(12) 0.52659(15) 0.19797(13)
C1 C 0.33648(13) 0.09821(18) 0.21946(15)
C2 C 0.40720(14) -0.10479(18) 0.28851(15)
C3 C 0.35244(16) -0.1258(2) 0.37444(18)
C4 C 0.41375(16) -0.22419(19) 0.22470(18)
C5 C 0.50613(14) -0.04866(19) 0.33954(17)
C6 C 0.28249(13) 0.11835(18) 0.00688(14)
C7 C 0.38029(14) 0.13097(18) -0.01631(15)
C8 C 0.20368(14) 0.19272(18) -0.07238(16)
C9 C 0.16029(14) 0.28765(19) -0.03901(16)
C10 C 0.19160(13) 0.33490(18) 0.08030(15)
C11 C 0.19941(15) 0.47608(18) 0.08616(15)
C12 C 0.13165(14) 0.57620(17) 0.22291(15)
C13 C 0.08366(14) 0.67083(18) 0.37938(16)
C14 C 0.05752(14) 0.79833(18) 0.32427(17)
C15 C 0.13834(16) 0.6855(2) 0.50401(16)
C16 C -0.00344(15) 0.58662(19) 0.36582(17)
H1 H 0.28900 -0.16080 0.33660
H2 H 0.34480 -0.04580 0.40990
H3 H 0.38810 -0.18440 0.43250
H4 H 0.44710 -0.20700 0.16760
H5 H 0.34890 -0.25530 0.18750
H6 H 0.44950 -0.28750 0.27770
H7 H 0.50050 0.02670 0.38250
H8 H 0.53450 -0.02660 0.27900
H9 H 0.54730 -0.10990 0.39010
H10 H 0.3602(17) 0.1741(13) -0.1699(17)
H11 H 0.40340 0.21840 -0.00210
H12 H 0.42760 0.07560 0.03560
H13 H 0.02130 0.78720 0.24470
H14 H 0.11640 0.84580 0.32920
H15 H 0.01800 0.84420 0.36340
H16 H 0.19850 0.73070 0.51100
H17 H 0.15270 0.60260 0.53880
H18 H 0.09890 0.73260 0.54240
H19 H -0.04190 0.58580 0.28640
H20 H -0.04250 0.61850 0.41270
H21 H 0.01800 0.50130 0.38960
H22 H 0.2638(11) 0.5095(19) 0.2597(13)
H23 H 0.25590 0.50210 0.06190
H24 H 0.14150 0.51260 0.03230
H25 H 0.14600 0.30530 0.12210
H26 H 0.10780 0.32710 -0.09210
H27 H 0.18420 0.17040 -0.15010
H28 H 0.26360 0.02800 -0.00190
#END
