
#######################################################################
#
#                 Cambridge Crystallographic Data Centre
#                                CCDC
#
#######################################################################
#
# If this CIF has been generated from an entry in the Cambridge
# Structural Database, then it will include bibliographic, chemical,
# crystal, experimental, refinement or atomic coordinate data resulting
# from the CCDC's data processing and validation procedures.
#
#######################################################################

data_CSD_CIF_HUXXEE
_audit_creation_date 2010-12-14
_audit_creation_method CSD-ConQuest-V1
_database_code_CSD HUXXEE
_database_code_depnum_ccdc_archive 'CCDC 775694'
_chemical_formula_sum 'C33 H30 N4 O6'
_chemical_formula_moiety
;
C33 H30 N4 O6
;
_journal_coden_Cambridge 24
_journal_volume 51
_journal_year 2010
_journal_page_first 4419
_journal_name_full 'Tetrahedron Lett. '
loop_
_publ_author_name
"A.T.Khan"
"M.Lal"
"Md.M.Khan"
_chemical_name_systematic
;
Methyl 
2,6-bis(4-methylphenyl)-1-(4-nitrophenyl)-4-((4-nitrophenyl)amino)-1,2,5,6-tet
rahydropyridine-3-carboxylate
;
_cell_volume   1494.138
_exptl_crystal_colour 'yellow'
_exptl_crystal_density_diffrn 1.286
_exptl_crystal_description 'block'
_diffrn_ambient_temperature 296
#These two values have been output from a single CSD field.
_refine_ls_R_factor_gt 0.0602
_refine_ls_wR_factor_gt 0.0602
_symmetry_cell_setting triclinic
_symmetry_space_group_name_H-M 'P -1'
_symmetry_Int_Tables_number 2
loop_
_symmetry_equiv_pos_site_id
_symmetry_equiv_pos_as_xyz
1 x,y,z
2 -x,-y,-z
_cell_length_a 6.9024(5)
_cell_length_b 11.3349(8)
_cell_length_c 20.6948(14)
_cell_angle_alpha 75.901(4)
_cell_angle_beta 89.398(4)
_cell_angle_gamma 72.491(4)
_cell_formula_units_Z 2
loop_
_atom_type_symbol
_atom_type_radius_bond
C 0.68
H 0.23
N 0.68
O 0.68
loop_
_atom_site_label
_atom_site_type_symbol
_atom_site_fract_x
_atom_site_fract_y
_atom_site_fract_z
N1 N 0.7728(4) 0.5820(3) 0.41093(15)
N2 N 0.1765(7) 0.1767(4) 1.02122(16)
O1 O 0.8333(3) 0.4784(2) 0.39637(10)
O2 O 0.7352(4) 0.6843(3) 0.36884(12)
O3 O -0.0049(6) 0.2003(3) 1.02348(15)
O4 O 0.2974(6) 0.0746(3) 1.04902(17)
O5 O 0.8023(4) 0.8026(2) 0.76615(11)
O6 O 0.7348(4) 0.7077(2) 0.86825(13)
C1 C 0.7374(4) 0.5840(3) 0.47974(15)
C2 C 0.6456(4) 0.5893(3) 0.61090(15)
N3 N 0.5925(4) 0.5923(2) 0.67474(12)
C3 C 0.5632(5) 0.7098(3) 0.69742(14)
H1 H 0.67460 0.74360 0.68110
C4 C 0.7393(4) 0.4731(3) 0.52556(16)
H2 H 0.77160 0.39660 0.51280
C5 C 0.6936(4) 0.4749(3) 0.59007(15)
H3 H 0.69430 0.39940 0.62060
C6 C 0.5418(5) 0.4837(3) 0.71869(14)
H4 H 0.47370 0.44770 0.69070
C7 C 0.6975(4) 0.6971(3) 0.49862(16)
H5 H 0.69990 0.77140 0.46770
C8 C 0.5836(5) 0.6790(3) 0.77322(15)
N4 N 0.4924(5) 0.5607(3) 0.87572(16)
C9 C 0.4883(5) 0.5967(3) 0.80785(17)
C10 C 0.6542(4) 0.6996(3) 0.56312(16)
H6 H 0.62990 0.77590 0.57570
C11 C 0.7259(5) 0.3768(3) 0.75589(14)
C12 C 0.4092(6) 0.4658(4) 0.91350(17)
C13 C 0.3639(5) 0.8143(3) 0.66803(15)
C14 C 0.7097(5) 0.7289(3) 0.8074(2)
C15 C 0.3879(5) 0.5350(3) 0.76760(15)
H7 H 0.26570 0.59690 0.74310
H8 H 0.35020 0.46550 0.79680
C16 C 0.2591(7) 0.2781(4) 0.98402(17)
C17 C 0.7012(6) 0.2680(4) 0.7991(2)
H9 H 0.57060 0.26160 0.80490
C18 C 1.0842(6) 0.2776(4) 0.78241(19)
H10 H 1.21550 0.28150 0.77510
C19 C 0.2143(6) 0.7931(3) 0.63296(16)
H11 H 0.23410 0.71260 0.62570
C20 C 0.5350(6) 0.3548(4) 0.9539(2)
H12 H 0.67410 0.34300 0.95730
C21 C 1.0597(7) 0.1716(4) 0.82585(17)
C22 C 0.9219(6) 0.3791(3) 0.74897(17)
H13 H 0.94660 0.45030 0.72120
C23 C 0.3275(7) 0.9382(4) 0.67624(17)
H14 H 0.42570 0.95700 0.69880
C24 C 0.4605(7) 0.2608(4) 0.9892(2)
H15 H 0.54780 0.18610 1.01640
C25 C 0.0355(6) 0.8896(4) 0.60842(18)
H16 H -0.06220 0.87150 0.58520
C26 C 0.1460(9) 1.0329(4) 0.6509(2)
H17 H 0.12470 1.11430 0.65720
C27 C 0.1306(6) 0.3864(5) 0.9469(2)
H18 H -0.00840 0.39730 0.94450
C28 C -0.0040(7) 1.0099(4) 0.6167(2)
C29 C 0.2053(7) 0.4826(4) 0.9118(2)
H19 H 0.11550 0.55910 0.88710
C30 C 1.2374(7) 0.0602(4) 0.8621(2)
H20 H 1.28550 0.00250 0.83410
H21 H 1.19440 0.01600 0.90260
H22 H 1.34520 0.09120 0.87260
C31 C 0.8643(8) 0.1695(3) 0.8335(2)
H23 H 0.84050 0.09960 0.86280
C32 C 0.9311(7) 0.8575(4) 0.79661(18)
H24 H 0.84940 0.91530 0.82050
H25 H 0.99610 0.90300 0.76250
H26 H 1.03280 0.79040 0.82700
C33 C -0.2047(8) 1.1137(4) 0.5907(3)
H27 H -0.30280 1.07540 0.58010
H28 H -0.18370 1.17250 0.55120
H29 H -0.25400 1.15860 0.62430
H30 H 0.570(5) 0.593(3) 0.8941(15)
#END
