
#######################################################################
#
#                 Cambridge Crystallographic Data Centre
#                                CCDC
#
#######################################################################
#
# If this CIF has been generated from an entry in the Cambridge
# Structural Database, then it will include bibliographic, chemical,
# crystal, experimental, refinement or atomic coordinate data resulting
# from the CCDC's data processing and validation procedures.
#
#######################################################################

data_CSD_CIF_HUYMUK
_audit_creation_date 2010-12-14
_audit_creation_method CSD-ConQuest-V1
_database_code_CSD HUYMUK
_database_code_depnum_ccdc_archive 'CCDC 755775'
_chemical_formula_sum 'C30 H21 N1 O2'
_chemical_formula_moiety
;
C30 H21 N1 O2
;
_journal_coden_Cambridge 222
_journal_volume 39
_journal_year 2010
_journal_page_first 3799
_journal_name_full 'Dalton Trans. '
loop_
_publ_author_name
"R.C.Jones"
"A.J.Canty"
"T.Caradoc-Davies"
"N.W.Davies"
"M.G.Gardiner"
"P.J.Marriott"
"C.P.G.Ruhle"
"V.-A.Tolhurst"
_chemical_name_systematic
;
1-(4-nitrophenyl)-2,4,6-triphenylbenzene
;
_cell_volume   1119.727
_exptl_crystal_colour 'yellow'
_exptl_crystal_density_diffrn 1.268
_exptl_crystal_description 'rod'
_diffrn_ambient_temperature 100
_diffrn_radiation_probe x-ray
_diffrn_source synchrotron
#These two values have been output from a single CSD field.
_refine_ls_R_factor_gt 0.0604
_refine_ls_wR_factor_gt 0.0604
_symmetry_cell_setting triclinic
_symmetry_space_group_name_H-M 'P -1'
_symmetry_Int_Tables_number 2
loop_
_symmetry_equiv_pos_site_id
_symmetry_equiv_pos_as_xyz
1 x,y,z
2 -x,-y,-z
_cell_length_a 10.588(4)
_cell_length_b 10.867(5)
_cell_length_c 10.920(4)
_cell_angle_alpha 87.032(11)
_cell_angle_beta 77.218(13)
_cell_angle_gamma 66.155(17)
_cell_formula_units_Z 2
loop_
_atom_type_symbol
_atom_type_radius_bond
C 0.68
H 0.23
N 0.68
O 0.68
loop_
_atom_site_label
_atom_site_type_symbol
_atom_site_fract_x
_atom_site_fract_y
_atom_site_fract_z
O1 O -0.21752(18) 0.80961(17) -0.49903(14)
O2 O -0.36125(17) 1.00265(18) -0.40803(14)
N1 N -0.26331(19) 0.89213(19) -0.41008(15)
C1 C -0.0070(2) 0.7519(2) 0.01414(17)
C2 C -0.0708(2) 0.7008(2) 0.11997(17)
C3 C -0.0106(2) 0.6669(2) 0.22474(17)
H1 H -0.05220 0.62890 0.29390
C4 C 0.1096(2) 0.6879(2) 0.22967(17)
C5 C 0.1700(2) 0.7414(2) 0.12631(17)
H2 H 0.25000 0.75890 0.13020
C6 C 0.1172(2) 0.7703(2) 0.01702(17)
C7 C -0.0733(2) 0.7887(2) -0.09689(17)
C8 C -0.2023(2) 0.6791(2) 0.12508(17)
C9 C 0.17375(19) 0.6519(2) 0.34200(17)
C10 C 0.1969(2) 0.8182(2) -0.09153(17)
C11 C -0.0044(2) 0.7175(2) -0.21193(17)
H3 H 0.08620 0.64560 -0.21980
C12 C -0.2153(2) 0.6044(2) 0.03135(18)
H4 H -0.14100 0.57110 -0.04130
C13 C 0.1994(2) 0.5260(2) 0.39339(18)
H5 H 0.17140 0.46490 0.35910
C14 C 0.3454(2) 0.7552(2) -0.12146(19)
H6 H 0.39250 0.68050 -0.07540
C15 C -0.0664(2) 0.7502(2) -0.31453(18)
H7 H -0.02020 0.70080 -0.39240
C16 C -0.3350(2) 0.5786(2) 0.04331(19)
H8 H -0.34250 0.52820 -0.02130
C17 C 0.2656(2) 0.4892(2) 0.49442(19)
H9 H 0.28440 0.40260 0.52770
C18 C 0.4243(2) 0.8003(2) -0.2172(2)
H10 H 0.52460 0.75650 -0.23600
C19 C -0.1967(2) 0.8560(2) -0.30133(17)
C20 C -0.4443(2) 0.6258(2) 0.1492(2)
H11 H -0.52550 0.60610 0.15830
C21 C 0.3043(2) 0.5791(3) 0.54667(18)
H12 H 0.34970 0.55390 0.61540
C22 C 0.3576(2) 0.9087(2) -0.28544(19)
H13 H 0.41170 0.93990 -0.35080
C23 C -0.2683(2) 0.9310(2) -0.18884(18)
H14 H -0.35730 1.00470 -0.18260
C24 C -0.4339(2) 0.7020(2) 0.24169(19)
H15 H -0.50910 0.73600 0.31360
C25 C 0.2766(2) 0.7049(2) 0.49851(18)
H16 H 0.30130 0.76700 0.53520
C26 C 0.2116(2) 0.9714(2) -0.25752(19)
H17 H 0.16510 1.04550 -0.30450
C27 C -0.2058(2) 0.8947(2) -0.08664(17)
H18 H -0.25380 0.94280 -0.00830
C28 C -0.3146(2) 0.7288(2) 0.22980(18)
H19 H -0.30890 0.78150 0.29350
C29 C 0.2123(2) 0.7412(2) 0.39613(18)
H20 H 0.19460 0.82770 0.36290
C30 C 0.1315(2) 0.9268(2) -0.16082(18)
H21 H 0.03120 0.97130 -0.14230
#END
