
#######################################################################
#
#                 Cambridge Crystallographic Data Centre
#                                CCDC
#
#######################################################################
#
# If this CIF has been generated from an entry in the Cambridge
# Structural Database, then it will include bibliographic, chemical,
# crystal, experimental, refinement or atomic coordinate data resulting
# from the CCDC's data processing and validation procedures.
#
#######################################################################

data_CSD_CIF_HUYWEF
_audit_creation_date 2015-11-14
_audit_creation_method CSD-ConQuest-V1
_database_code_CSD HUYWEF
_database_code_depnum_ccdc_archive 'CCDC 1436135'
_chemical_formula_sum 'C21 H14 N4 O4'
_chemical_formula_moiety
;
C21 H14 N4 O4
;
_journal_coeditor_code "qm2114"
_journal_coden_Cambridge 1828
_journal_volume 71
_journal_year 2015
_journal_page_first o931
_journal_name_full 'Acta Crystallogr.,Sect.E:Cryst.Commun. '
loop_
_publ_author_name
"S.K.Mohamed"
"J.T.Mague"
"M.Akkurt"
"M.R.Albayati"
"A.F.Mohamed"
_chemical_name_systematic
;
1-(2,4-Dinitrophenyl)-3,5-diphenyl-1H-pyrazole
;
_chemical_melting_point 421
_cell_volume   1803.377
_exptl_crystal_colour 'yellow orange'
_exptl_crystal_density_diffrn 1.423
_exptl_special_details
;
Melting point range 421-423K

;
_exptl_crystal_description 'block'
_exptl_crystal_preparation 'ethanol'
_diffrn_ambient_temperature 150
#These two values have been output from a single CSD field.
_refine_ls_R_factor_gt 0.0421
_refine_ls_wR_factor_gt 0.0421
_symmetry_cell_setting orthorhombic
_symmetry_space_group_name_H-M 'P 21 21 21'
_symmetry_Int_Tables_number 19
loop_
_symmetry_equiv_pos_site_id
_symmetry_equiv_pos_as_xyz
1 x,y,z
2 1/2-x,-y,1/2+z
3 -x,1/2+y,1/2-z
4 1/2+x,1/2-y,-z
_cell_length_a 7.2170(5)
_cell_length_b 12.9467(10)
_cell_length_c 19.3006(14)
_cell_angle_alpha 90
_cell_angle_beta 90
_cell_angle_gamma 90
_cell_formula_units_Z 4
loop_
_atom_type_symbol
_atom_type_radius_bond
C 0.68
H 0.23
N 0.68
O 0.68
loop_
_atom_site_label
_atom_site_type_symbol
_atom_site_fract_x
_atom_site_fract_y
_atom_site_fract_z
O1 O 0.0335(2) 0.48865(13) 0.50537(9)
O2 O 0.1081(3) 0.56459(13) 0.40944(10)
O3 O 0.1707(3) 0.33782(17) 0.21292(9)
O4 O 0.2274(3) 0.17545(18) 0.22859(9)
N1 N 0.2445(3) 0.26495(13) 0.58248(9)
N2 N 0.3024(2) 0.33719(12) 0.53522(9)
N3 N 0.1040(2) 0.48950(14) 0.44764(10)
N4 N 0.2043(3) 0.2633(2) 0.24971(11)
C1 C 0.3782(3) 0.42265(15) 0.56610(11)
C2 C 0.3640(3) 0.40575(17) 0.63603(11)
H1 H 0.40210 0.45110 0.67200
C3 C 0.2814(3) 0.30750(17) 0.64398(11)
C4 C 0.4636(3) 0.50690(16) 0.52632(11)
C5 C 0.5697(3) 0.48621(18) 0.46740(12)
H2 H 0.59170 0.41670 0.45390
C6 C 0.6430(3) 0.56641(17) 0.42857(12)
H3 H 0.71230 0.55190 0.38790
C7 C 0.6152(3) 0.66760(18) 0.44903(13)
H4 H 0.66390 0.72260 0.42200
C8 C 0.5167(4) 0.68884(19) 0.50876(13)
H5 H 0.50100 0.75830 0.52350
C9 C 0.4406(3) 0.60891(17) 0.54720(12)
H6 H 0.37230 0.62390 0.58810
C10 C 0.2384(3) 0.24957(17) 0.70755(11)
C11 C 0.2507(3) 0.29519(19) 0.77262(12)
H7 H 0.28660 0.36560 0.77640
C12 C 0.2113(4) 0.2394(2) 0.83180(13)
H8 H 0.22200 0.27150 0.87590
C13 C 0.1569(4) 0.1382(2) 0.82749(13)
H9 H 0.12950 0.10040 0.86840
C14 C 0.1421(4) 0.0917(2) 0.76378(14)
H10 H 0.10380 0.02170 0.76050
C15 C 0.1830(4) 0.14687(18) 0.70429(13)
H11 H 0.17310 0.11390 0.66050
C16 C 0.2618(3) 0.31836(16) 0.46461(10)
C17 C 0.1820(3) 0.39223(16) 0.42117(11)
C18 C 0.1647(3) 0.37515(18) 0.35076(12)
H12 H 0.11680 0.42710 0.32100
C19 C 0.2188(3) 0.28098(18) 0.32499(11)
C20 C 0.2869(3) 0.20328(18) 0.36702(12)
H13 H 0.31710 0.13760 0.34820
C21 C 0.3104(3) 0.22280(16) 0.43688(11)
H14 H 0.36000 0.17070 0.46620
#END
