
#######################################################################
#
#                 Cambridge Crystallographic Data Centre
#                                CCDC
#
#######################################################################
#
# If this CIF has been generated from an entry in the Cambridge
# Structural Database, then it will include bibliographic, chemical,
# crystal, experimental, refinement or atomic coordinate data resulting
# from the CCDC's data processing and validation procedures.
#
#######################################################################

data_CSD_CIF_HUZJAN
_audit_creation_date 2003-06-11
_audit_creation_method CSD-ConQuest-V1
_database_code_CSD HUZJAN
_database_code_depnum_ccdc_archive 'CCDC 209983'
_chemical_formula_sum 'C7 H8 N2 O6'
_chemical_formula_moiety
;
C7 H8 N2 O6
;
_journal_coeditor_code "IUCr OM6137"
_journal_coden_Cambridge 1370
_journal_volume 59
_journal_year 2003
_journal_page_first o550
_journal_name_full 'Acta Crystallogr.,Sect.E:Struct.Rep.Online '
loop_
_publ_author_name
"S.Ozturk"
"B.Buyukkidan"
"M.Akkurt"
"O.Cakmak"
"H.-K.Fun"
_chemical_name_systematic
;
endo,endo-3,5-Dinitroxytricyclo(2.2.1.0^2,6^)heptane
;
_cell_volume    891.969
_exptl_crystal_colour 'colorless'
_exptl_crystal_density_diffrn 1.602
_exptl_crystal_description 'prism'
_exptl_crystal_preparation 'acetone/n-hexane'
_diffrn_ambient_temperature 293
#These two values have been output from a single CSD field.
_refine_ls_R_factor_gt 0.0458
_refine_ls_wR_factor_gt 0.0458
_symmetry_cell_setting orthorhombic
_symmetry_space_group_name_H-M 'C m c 21'
_symmetry_Int_Tables_number 36
loop_
_symmetry_equiv_pos_site_id
_symmetry_equiv_pos_as_xyz
1 x,y,z
2 -x,-y,1/2+z
3 -x,y,z
4 x,-y,1/2+z
5 1/2+x,1/2+y,z
6 1/2-x,1/2-y,1/2+z
7 1/2-x,1/2+y,z
8 1/2+x,1/2-y,1/2+z
_cell_length_a 13.4146(9)
_cell_length_b 6.6414(5)
_cell_length_c 10.0118(6)
_cell_angle_alpha 90
_cell_angle_beta 90
_cell_angle_gamma 90
_cell_formula_units_Z 4
loop_
_atom_type_symbol
_atom_type_radius_bond
C 0.68
H 0.23
N 0.68
O 0.68
loop_
_atom_site_label
_atom_site_type_symbol
_atom_site_fract_x
_atom_site_fract_y
_atom_site_fract_z
O1 O 0.09919(13) 0.3326(3) -0.1242(2)
O2 O 0.1928(2) 0.3300(5) -0.2994(3)
O3 O 0.2510(2) 0.1972(4) -0.1175(4)
N1 N 0.1888(2) 0.2810(4) -0.1851(3)
C1 C 0.0892(2) 0.2661(4) 0.0132(3)
C2 C 0.0559(2) 0.0535(5) 0.0289(4)
C3 C 0.00000 0.0464(8) 0.1590(5)
C4 C 0.00000 0.2629(7) 0.2134(6)
C5 C 0.00000 0.3707(7) 0.0772(5)
H1 H 0.14888 0.29156 0.06311
H2 H 0.09476 -0.05742 -0.00351
H3 H 0.00000 -0.06945 0.21613
H4 H 0.05854 0.29235 0.26473
H5 H 0.00000 0.51504 0.07740
C2B C -0.0559(2) 0.0535(5) 0.0289(4)
C1B C -0.0892(2) 0.2661(4) 0.0132(3)
O1B O -0.09919(13) 0.3326(3) -0.1242(2)
N1B N -0.1888(2) 0.2810(4) -0.1851(3)
O2B O -0.1928(2) 0.3300(5) -0.2994(3)
O3B O -0.2510(2) 0.1972(4) -0.1175(4)
H2B H -0.09476 -0.05742 -0.00351
H4B H -0.05854 0.29235 0.26473
H1B H -0.14888 0.29156 0.06311
#END
