
#######################################################################
#
#                 Cambridge Crystallographic Data Centre
#                                CCDC
#
#######################################################################
#
# If this CIF has been generated from an entry in the Cambridge
# Structural Database, then it will include bibliographic, chemical,
# crystal, experimental, refinement or atomic coordinate data resulting
# from the CCDC's data processing and validation procedures.
#
#######################################################################

data_CSD_CIF_HYAZCD
_audit_creation_date 1971-12-31
_audit_creation_method CSD-ConQuest-V1
_database_code_CSD HYAZCD
_chemical_formula_sum 'C12 H26 N2 O2'
_chemical_formula_moiety
;
C12 H26 N2 O2
;
_journal_coden_Cambridge 87
_journal_year 1966
_journal_page_first 1108
_journal_name_full 'J.Chem.Soc.C '
loop_
_publ_author_name
"C.J.Brown"
_chemical_name_systematic
;
1,8-Dihydroxy-1,8-diazacyclotetradecane
;
_cell_volume    666.982
_exptl_crystal_density_diffrn 1.147
_diffrn_ambient_temperature ?
_diffrn_special_details
;
The study was carried out at room temperature,in the range 283-303K

;
#These two values have been output from a single CSD field.
_refine_ls_R_factor_gt 0.085
_refine_ls_wR_factor_gt 0.085
_symmetry_cell_setting monoclinic
_symmetry_space_group_name_H-M 'P 21/a'
_symmetry_Int_Tables_number 14
loop_
_symmetry_equiv_pos_site_id
_symmetry_equiv_pos_as_xyz
1 x,y,z
2 1/2-x,1/2+y,-z
3 -x,-y,-z
4 -1/2+x,-1/2-y,z
_cell_length_a 16.233
_cell_length_b 6.748
_cell_length_c 7.169
_cell_angle_alpha 90
_cell_angle_beta 121.86
_cell_angle_gamma 90
_cell_formula_units_Z 2
loop_
_atom_type_symbol
_atom_type_radius_bond
C 0.68
H 0.20
N 0.68
O 0.68
loop_
_atom_site_label
_atom_site_type_symbol
_atom_site_fract_x
_atom_site_fract_y
_atom_site_fract_z
C1 C 0.12300 0.24420 0.36130
C2 C 0.19860 0.25330 0.29810
C3 C 0.16610 0.16790 0.07310
C4 C 0.12960 -0.04640 0.03460
C5 C 0.08440 -0.10510 -0.20260
C6 C 0.04240 -0.31410 -0.26030
H1 H 0.15320 0.31010 0.52190
H2 H 0.02660 -0.00200 -0.30150
H3 H 0.10060 -0.41890 -0.16990
H4 H 0.01050 -0.33700 -0.43430
H5 H 0.02360 0.59430 0.07970
H6 H 0.10590 0.09060 0.36750
H7 H 0.26160 0.17180 0.41930
H8 H 0.21790 0.40680 0.29970
H9 H 0.22700 0.17410 0.05130
H10 H 0.10810 0.25980 -0.04890
H11 H 0.07610 -0.06060 0.07980
H12 H 0.18990 -0.14370 0.13570
H13 H 0.13950 -0.09370 -0.24350
N1 N 0.03270 0.34890 0.20690
O1 O 0.05740 0.56000 0.25220
N1B N -0.03270 -0.34890 -0.20690
C6B C -0.04240 0.31410 0.26030
C1B C -0.12300 -0.24420 -0.36130
O1B O -0.05740 -0.56000 -0.25220
C5B C -0.08440 0.10510 0.20260
H3B H -0.10060 0.41890 0.16990
H4B H -0.01050 0.33700 0.43430
C2B C -0.19860 -0.25330 -0.29810
H1B H -0.15320 -0.31010 -0.52190
H6B H -0.10590 -0.09060 -0.36750
H5B H -0.02360 -0.59430 -0.07970
C4B C -0.12960 0.04640 -0.03460
H2B H -0.02660 0.00200 0.30150
H13B H -0.13950 0.09370 0.24350
C3B C -0.16610 -0.16790 -0.07310
H7B H -0.26160 -0.17180 -0.41930
H8B H -0.21790 -0.40680 -0.29970
H11B H -0.07610 0.06060 -0.07980
H12B H -0.18990 0.14370 -0.13570
H9B H -0.22700 -0.17410 -0.05130
H10B H -0.10810 -0.25980 0.04890
#END
