
#######################################################################
#
#                 Cambridge Crystallographic Data Centre
#                                CCDC
#
#######################################################################
#
# If this CIF has been generated from an entry in the Cambridge
# Structural Database, then it will include bibliographic, chemical,
# crystal, experimental, refinement or atomic coordinate data resulting
# from the CCDC's data processing and validation procedures.
#
#######################################################################

data_CSD_CIF_IBABUJ
_audit_creation_date 2004-11-03
_audit_creation_method CSD-ConQuest-V1
_database_code_CSD IBABUJ
_database_code_depnum_ccdc_archive 'CCDC 231998'
_chemical_formula_sum 'C18 H21 N1 O5'
_chemical_formula_moiety
;
C18 H21 N1 O5
;
_journal_coden_Cambridge 24
_journal_volume 45
_journal_year 2004
_journal_page_first 4097
_journal_name_full 'Tetrahedron Lett. '
loop_
_publ_author_name
"T.Kawai"
"K.Kodama"
"T.Ooi"
"T.Kusumi"
_chemical_name_systematic
;
(3R^*^,3aR^*^,6R^*^)-2-(E)-Methoxycarbonylmethylene-6-methyl-6-phenyl-hexahydr
o-pyrrolo(1,2-b)isoxazole-3-carboxylic acid methyl ester
;
_cell_volume   3357.153
_exptl_crystal_colour 'colorless'
_exptl_crystal_density_diffrn 1.311
_exptl_crystal_description 'prism'
_exptl_crystal_preparation 'hexane/dichloromethane'
_diffrn_ambient_temperature 93.1
#These two values have been output from a single CSD field.
_refine_ls_R_factor_gt 0.029
_refine_ls_wR_factor_gt 0.029
loop_
_citation_database_id_CSD
_citation_special_details
IBABOD "is a stereoisomer of this entry"
_symmetry_cell_setting orthorhombic
_symmetry_space_group_name_H-M 'P b c a'
_symmetry_Int_Tables_number 61
loop_
_symmetry_equiv_pos_site_id
_symmetry_equiv_pos_as_xyz
1 x,y,z
2 1/2-x,1/2+y,z
3 x,1/2-y,1/2+z
4 1/2+x,y,1/2-z
5 -x,-y,-z
6 -1/2+x,-1/2-y,-z
7 -x,-1/2+y,-1/2-z
8 -1/2-x,-y,-1/2+z
_cell_length_a 7.911(2)
_cell_length_b 16.772(6)
_cell_length_c 25.302(6)
_cell_angle_alpha 90
_cell_angle_beta 90
_cell_angle_gamma 90
_cell_formula_units_Z 8
loop_
_atom_type_symbol
_atom_type_radius_bond
C 0.68
H 0.23
N 0.68
O 0.68
loop_
_atom_site_label
_atom_site_type_symbol
_atom_site_fract_x
_atom_site_fract_y
_atom_site_fract_z
O1 O 0.2180(1) 0.33662(4) 0.57104(3)
O2 O 0.4558(1) 0.36173(4) 0.73026(3)
O3 O 0.6962(1) 0.41907(4) 0.62029(3)
O4 O 0.3011(1) 0.44779(4) 0.68180(3)
O5 O 0.7041(1) 0.48949(5) 0.54484(3)
N1 N 0.1327(1) 0.29184(5) 0.61554(3)
C1 C 0.3700(1) 0.36234(6) 0.58849(4)
C2 C 0.3348(1) 0.18098(6) 0.61519(4)
C3 C 0.0505(1) 0.22066(6) 0.59020(4)
C4 C -0.0530(1) 0.18465(6) 0.63579(4)
C5 C 0.3814(1) 0.38722(6) 0.68567(4)
C6 C -0.1711(1) 0.23270(6) 0.66158(4)
C7 C 0.6296(1) 0.43835(6) 0.57908(4)
C8 C -0.0344(1) 0.10624(6) 0.65264(4)
C9 C 0.4087(1) 0.32663(6) 0.64173(4)
C10 C 0.4648(1) 0.41218(7) 0.55978(4)
C11 C 0.1994(1) 0.16859(7) 0.57240(4)
C12 C -0.1320(1) 0.07689(7) 0.69407(4)
C13 C 0.2806(1) 0.25848(6) 0.64425(4)
C14 C -0.2671(1) 0.20348(7) 0.70323(4)
C15 C 0.4196(1) 0.40955(7) 0.77710(4)
C16 C -0.2475(1) 0.12500(7) 0.71958(4)
C17 C 0.8658(2) 0.52018(8) 0.56214(5)
C18 C -0.0666(1) 0.24619(7) 0.54535(4)
H1 H 0.52180 0.30650 0.64280
H2 H 0.24680 0.24750 0.68000
H3 H 0.44820 0.18690 0.60000
H4 H 0.34290 0.13630 0.64070
H5 H 0.24070 0.18910 0.53830
H6 H 0.16690 0.11370 0.56750
H7 H 0.04710 0.07130 0.63720
H8 H -0.11640 0.02340 0.70470
H9 H -0.31110 0.10560 0.74770
H10 H -0.34570 0.23890 0.72060
H11 H -0.18600 0.28780 0.65000
H12 H -0.13180 0.20000 0.53200
H13 H -0.15090 0.28690 0.55610
H14 H -0.00210 0.26980 0.51570
H15 H 0.42770 0.43310 0.52690
H16 H 0.94620 0.47710 0.56570
H17 H 0.90070 0.55520 0.53420
H18 H 0.85180 0.54970 0.59520
H19 H 0.45430 0.46590 0.77210
H20 H 0.48320 0.38470 0.80470
H21 H 0.29670 0.40670 0.78500
#END
