
#######################################################################
#
#                 Cambridge Crystallographic Data Centre
#                                CCDC
#
#######################################################################
#
# If this CIF has been generated from an entry in the Cambridge
# Structural Database, then it will include bibliographic, chemical,
# crystal, experimental, refinement or atomic coordinate data resulting
# from the CCDC's data processing and validation procedures.
#
#######################################################################

data_CSD_CIF_IBAMIK
_audit_creation_date 2016-11-16
_audit_creation_method CSD-ConQuest-V1
_database_code_CSD IBAMIK
_database_code_depnum_ccdc_archive 'CCDC 1515348'
_chemical_formula_sum 'C16 H16 N2 O2'
_chemical_formula_moiety
;
C16 H16 N2 O2
;
_journal_coeditor_code "su4073"
_journal_coden_Cambridge 1959
_journal_volume 1
_journal_year 2016
_journal_page_first x161776
_journal_name_full 'IUCrData '
loop_
_publ_author_name
"Z.Ping"
"Z.Ting"
"C.-C.Song"
_chemical_name_systematic
;
9-butyl-3-nitro-9H-carbazole
;
_cell_volume    678.365
_exptl_crystal_colour 'light yellow'
_exptl_crystal_density_diffrn 1.314
_exptl_crystal_description 'block'
_diffrn_ambient_temperature 296
#These two values have been output from a single CSD field.
_refine_ls_R_factor_gt 0.0392
_refine_ls_wR_factor_gt 0.0392
_symmetry_cell_setting triclinic
_symmetry_space_group_name_H-M 'P -1'
_symmetry_Int_Tables_number 2
loop_
_symmetry_equiv_pos_site_id
_symmetry_equiv_pos_as_xyz
1 x,y,z
2 -x,-y,-z
_cell_length_a 8.1948(9)
_cell_length_b 9.5630(11)
_cell_length_c 9.7528(11)
_cell_angle_alpha 68.106(1)
_cell_angle_beta 73.141(1)
_cell_angle_gamma 85.379(1)
_cell_formula_units_Z 2
loop_
_atom_type_symbol
_atom_type_radius_bond
C 0.68
H 0.23
N 0.68
O 0.68
loop_
_atom_site_label
_atom_site_type_symbol
_atom_site_fract_x
_atom_site_fract_y
_atom_site_fract_z
N1 N 0.37033(15) 0.13986(14) 0.84237(13)
N2 N -0.13392(18) 0.18235(19) 1.34577(17)
O1 O -0.18313(17) 0.30664(17) 1.34766(18)
O2 O -0.19381(19) 0.06376(19) 1.45000(16)
C1 C 0.37310(18) -0.01575(16) 0.88088(16)
C2 C 0.04843(19) 0.03728(17) 1.20382(17)
H1 H -0.00230 -0.05140 1.28210
C3 C 0.17430(17) 0.03417(16) 1.07446(16)
C4 C 0.24994(18) 0.17125(16) 0.95749(16)
C5 C 0.00093(19) 0.17611(18) 1.21260(17)
C6 C 0.25369(17) -0.08540(16) 1.02448(16)
C7 C 0.0748(2) 0.31103(18) 1.09844(19)
H2 H 0.03930 0.40210 1.10940
C8 C 0.4732(2) -0.09885(19) 0.79835(18)
H3 H 0.55210 -0.05210 0.70350
C9 C 0.4756(2) 0.24856(19) 0.69959(17)
H4 H 0.59050 0.21190 0.67820
H5 H 0.48140 0.34340 0.71300
C10 C 0.2000(2) 0.31044(17) 0.96963(18)
H6 H 0.25010 0.40010 0.89270
C11 C 0.2343(2) -0.24194(17) 1.08728(18)
H7 H 0.15600 -0.28990 1.18220
C12 C 0.4502(2) -0.2532(2) 0.8634(2)
H8 H 0.51460 -0.31160 0.81070
C13 C 0.4070(2) 0.2762(2) 0.56171(17)
H9 H 0.48750 0.34200 0.46950
H10 H 0.40030 0.18090 0.54950
C14 C 0.2347(2) 0.3454(2) 0.5750(2)
H11 H 0.24260 0.44470 0.57830
H12 H 0.15510 0.28390 0.67060
C15 C 0.3336(2) -0.32454(19) 1.0057(2)
H13 H 0.32230 -0.42920 1.04650
C16 C 0.1674(3) 0.3591(3) 0.4412(2)
H14 H 0.23810 0.43000 0.34780
H15 H 0.05260 0.39350 0.45920
H16 H 0.16880 0.26250 0.43210
#END
