
#######################################################################
#
#                 Cambridge Crystallographic Data Centre
#                                CCDC
#
#######################################################################
#
# If this CIF has been generated from an entry in the Cambridge
# Structural Database, then it will include bibliographic, chemical,
# crystal, experimental, refinement or atomic coordinate data resulting
# from the CCDC's data processing and validation procedures.
#
#######################################################################

data_CSD_CIF_IBAPOR
_audit_creation_date 2004-11-03
_audit_creation_method CSD-ConQuest-V1
_database_code_CSD IBAPOR
_database_code_depnum_ccdc_archive 'CCDC 251836'
_chemical_formula_sum 'C16 H17 N3 O6'
_chemical_formula_moiety
;
C16 H17 N3 O6
;
_journal_coden_Cambridge 388
_journal_volume 40
_journal_year 2004
_journal_page_first 266
_journal_name_full 'Zh.Org.Khim.(Russ.)(Russ.J.Org.Chem.) '
loop_
_publ_author_name
"I.E.Yakunina"
"I.V.Shakhkel'dyan"
"Yu.M.Atroshchenko"
"O.Ya.Borbulevych"
"V.V.Nesterov"
"M.V.Kopyshev"
"N.A.Troitskii"
"Yu.A.Efremov"
"E.N.Alifanova"
"V.A.Subbotin"
_chemical_name_systematic
;
11-Methyl-13-(2-oxopropyl)-1,9-dinitro-11-aza-tricyclo(7.3.1.0^2,7^)trideca-2(
7),3,5-triene-8-one
;
_chemical_melting_point 459.15
_cell_volume    790.873
_exptl_crystal_colour 'red'
_exptl_crystal_density_diffrn 1.459
_exptl_special_details
;
Melts with decomposition.

;
_exptl_crystal_description 'prism'
_exptl_crystal_preparation 'toluene'
_diffrn_ambient_temperature 110
#These two values have been output from a single CSD field.
_refine_ls_R_factor_gt 0.0589
_refine_ls_wR_factor_gt 0.0589
_symmetry_cell_setting triclinic
_symmetry_space_group_name_H-M 'P -1'
_symmetry_Int_Tables_number 2
loop_
_symmetry_equiv_pos_site_id
_symmetry_equiv_pos_as_xyz
1 x,y,z
2 -x,-y,-z
_cell_length_a 8.024(2)
_cell_length_b 9.651(2)
_cell_length_c 11.509(2)
_cell_angle_alpha 76.825(5)
_cell_angle_beta 70.273(5)
_cell_angle_gamma 72.164(5)
_cell_formula_units_Z 2
loop_
_atom_type_symbol
_atom_type_radius_bond
C 0.68
H 0.23
N 0.68
O 0.68
loop_
_atom_site_label
_atom_site_type_symbol
_atom_site_fract_x
_atom_site_fract_y
_atom_site_fract_z
O1 O 0.2298(2) 0.52069(17) 1.00126(14)
O2 O 0.32856(19) 0.45824(14) 0.47745(13)
O3 O 0.1826(2) 0.13658(19) 1.04787(14)
O4 O 0.45425(19) 0.16655(15) 0.95556(14)
O5 O -0.0022(2) 0.65032(16) 0.58635(15)
O6 O 0.0922(2) 0.67742(15) 0.73384(14)
N1 N 0.3010(2) 0.16813(17) 0.95511(16)
N2 N 0.0730(2) 0.60182(17) 0.66946(15)
N3 N 0.0381(2) 0.21174(17) 0.72706(15)
C1 C 0.4258(4) 0.6668(3) 0.8624(3)
C2 C 0.3313(3) 0.5451(2) 0.89768(19)
C3 C 0.3695(3) 0.4518(2) 0.79760(19)
C4 C 0.2082(2) 0.38959(19) 0.81066(17)
C5 C 0.1436(2) 0.43444(18) 0.69305(18)
C6 C 0.3069(2) 0.38349(19) 0.57900(17)
C7 C 0.4330(2) 0.2381(2) 0.60456(18)
C8 C 0.5731(3) 0.1800(2) 0.5025(2)
C9 C 0.6898(3) 0.0424(2) 0.5199(2)
C10 C 0.6673(3) -0.0379(2) 0.6378(2)
C11 C 0.5304(3) 0.0185(2) 0.7396(2)
C12 C 0.4120(2) 0.1568(2) 0.72384(18)
C13 C 0.2526(2) 0.21880(19) 0.83116(17)
C14 C 0.0846(3) 0.1647(2) 0.84435(19)
C15 C -0.1071(3) 0.1491(2) 0.7283(2)
C16 C -0.0172(3) 0.3722(2) 0.70403(19)
H1 H 0.550(4) 0.640(3) 0.808(3)
H2 H 0.357(4) 0.741(3) 0.815(3)
H3 H 0.431(4) 0.700(3) 0.931(3)
H4 H 0.407(3) 0.511(3) 0.719(2)
H5 H 0.475(3) 0.375(2) 0.802(2)
H6 H 0.110(3) 0.419(2) 0.885(2)
H7 H 0.587(3) 0.235(2) 0.421(2)
H8 H 0.787(3) 0.005(2) 0.448(2)
H9 H 0.752(3) -0.133(3) 0.652(2)
H10 H 0.516(3) -0.036(2) 0.817(2)
H11 H -0.011(3) 0.202(2) 0.913(2)
H12 H 0.116(3) 0.059(2) 0.8605(18)
H13 H -0.065(3) 0.039(3) 0.739(2)
H14 H -0.217(3) 0.173(2) 0.799(2)
H15 H -0.130(3) 0.185(3) 0.648(2)
H16 H -0.050(3) 0.407(2) 0.625(2)
H17 H -0.125(3) 0.408(3) 0.778(2)
#END
