
#######################################################################
#
#                 Cambridge Crystallographic Data Centre
#                                CCDC
#
#######################################################################
#
# If this CIF has been generated from an entry in the Cambridge
# Structural Database, then it will include bibliographic, chemical,
# crystal, experimental, refinement or atomic coordinate data resulting
# from the CCDC's data processing and validation procedures.
#
#######################################################################

data_CSD_CIF_IBAQAD
_audit_creation_date 2001-10-05
_audit_creation_method CSD-ConQuest-V1
_database_code_CSD IBAQAD
_chemical_formula_sum 'C22 H30 N2 O2'
_chemical_formula_moiety
;
C22 H30 N2 O2
;
_journal_coden_Cambridge 4
_journal_volume 122
_journal_year 2000
_journal_page_first 5539
_journal_name_full 'J.Am.Chem.Soc. '
loop_
_publ_author_name
"N.Arulsamy"
"D.S.Bohle"
"J.A.Imonigie"
"E.S.Sagan"
_chemical_name_systematic
;
trans-Di-O-p-t-butylbenzyl hyponitrite
;
_cell_volume   2081.248
_exptl_crystal_colour 'colorless'
_exptl_crystal_density_diffrn 1.131
_exptl_crystal_preparation 'ether'
_diffrn_ambient_temperature 173.15
#These two values have been output from a single CSD field.
_refine_ls_R_factor_gt 0.0463
_refine_ls_wR_factor_gt 0.0463
_symmetry_cell_setting monoclinic
_symmetry_space_group_name_H-M 'C 2/c'
_symmetry_Int_Tables_number 15
loop_
_symmetry_equiv_pos_site_id
_symmetry_equiv_pos_as_xyz
1 x,y,z
2 -x,y,1/2-z
3 1/2+x,1/2+y,z
4 1/2-x,1/2+y,1/2-z
5 -x,-y,-z
6 x,-y,-1/2+z
7 -1/2-x,-1/2-y,-z
8 -1/2+x,-1/2-y,-1/2+z
_cell_length_a 13.076(2)
_cell_length_b 10.113(2)
_cell_length_c 15.780(2)
_cell_angle_alpha 90
_cell_angle_beta 94.146(8)
_cell_angle_gamma 90
_cell_formula_units_Z 4
loop_
_atom_type_symbol
_atom_type_radius_bond
C 0.68
H 0.23
N 0.68
O 0.68
loop_
_atom_site_label
_atom_site_type_symbol
_atom_site_fract_x
_atom_site_fract_y
_atom_site_fract_z
O1 O 0.4507(1) 0.1448(1) 0.4701(1)
N1 N 0.5062(1) 0.0540(2) 0.5175(1)
C1 C 0.4601(2) 0.2729(2) 0.5137(2)
C2 C 0.4045(2) 0.3737(2) 0.4587(1)
C3 C 0.4464(2) 0.4213(2) 0.3865(1)
C4 C 0.3966(2) 0.5168(2) 0.3364(1)
C5 C 0.3031(1) 0.5699(2) 0.3565(1)
C6 C 0.2617(1) 0.5208(2) 0.4290(1)
C7 C 0.3107(2) 0.4241(2) 0.4790(1)
C8 C 0.2471(2) 0.6780(2) 0.3036(1)
C9 C 0.3030(2) 0.7152(3) 0.2257(2)
C10 C 0.2390(2) 0.8020(2) 0.3587(2)
C11 C 0.1389(2) 0.6301(3) 0.2742(2)
H1 H 0.4308(19) 0.2527(25) 0.5740(16)
H2 H 0.5366(23) 0.2895(27) 0.5232(17)
H3 H 0.5132(18) 0.3857(22) 0.3709(14)
H4 H 0.4281(17) 0.5468(22) 0.2844(15)
H5 H 0.1974(17) 0.5549(21) 0.4466(13)
H6 H 0.2781(18) 0.3913(24) 0.5279(16)
H7 H 0.3741(19) 0.7536(24) 0.2418(14)
H8 H 0.3116(19) 0.6404(26) 0.1860(16)
H9 H 0.267(2) 0.7856(28) 0.1926(16)
H10 H 0.1996(19) 0.8711(26) 0.3235(15)
H11 H 0.1976(19) 0.7832(25) 0.4075(17)
H12 H 0.3159(22) 0.8404(27) 0.3791(16)
H13 H 0.1444(20) 0.5505(28) 0.2395(16)
H14 H 0.1024(20) 0.7010(29) 0.2397(16)
H15 H 0.0960(22) 0.6063(28) 0.3248(19)
N1D N 0.4938(1) -0.0540(2) 0.4825(1)
O1D O 0.5493(1) -0.1448(1) 0.5299(1)
C1D C 0.5399(2) -0.2729(2) 0.4863(2)
C2D C 0.5955(2) -0.3737(2) 0.5413(1)
C3D C 0.5536(2) -0.4213(2) 0.6135(1)
C4D C 0.6034(2) -0.5168(2) 0.6636(1)
C5D C 0.6969(1) -0.5699(2) 0.6435(1)
C6D C 0.7383(1) -0.5208(2) 0.5710(1)
C7D C 0.6893(2) -0.4241(2) 0.5210(1)
H6D H 0.7219(18) -0.3913(24) 0.4721(16)
H5D H 0.8026(17) -0.5549(21) 0.5534(13)
C8D C 0.7529(2) -0.6780(2) 0.6964(1)
C9D C 0.6970(2) -0.7152(3) 0.7743(2)
H7D H 0.6259(19) -0.7536(24) 0.7582(14)
H8D H 0.6884(19) -0.6404(26) 0.8140(16)
H9D H 0.733(2) -0.7856(28) 0.8074(16)
C10D C 0.7610(2) -0.8020(2) 0.6413(2)
H10D H 0.8004(19) -0.8711(26) 0.6765(15)
H11D H 0.8024(19) -0.7832(25) 0.5925(17)
H12D H 0.6841(22) -0.8404(27) 0.6209(16)
C11D C 0.8611(2) -0.6301(3) 0.7258(2)
H13D H 0.8556(20) -0.5505(28) 0.7605(16)
H14D H 0.8976(20) -0.7010(29) 0.7603(16)
H15D H 0.9040(22) -0.6063(28) 0.6752(19)
H4D H 0.5719(17) -0.5468(22) 0.7156(15)
H3D H 0.4868(18) -0.3857(22) 0.6291(14)
H1D H 0.5692(19) -0.2527(25) 0.4260(16)
H2D H 0.4634(23) -0.2895(27) 0.4768(17)
#END
