
#######################################################################
#
#                 Cambridge Crystallographic Data Centre
#                                CCDC
#
#######################################################################
#
# If this CIF has been generated from an entry in the Cambridge
# Structural Database, then it will include bibliographic, chemical,
# crystal, experimental, refinement or atomic coordinate data resulting
# from the CCDC's data processing and validation procedures.
#
#######################################################################

data_CSD_CIF_IBEROX
_audit_creation_date 2004-11-03
_audit_creation_method CSD-ConQuest-V1
_database_code_CSD IBEROX
_database_code_depnum_ccdc_archive 'CCDC 252001'
_chemical_formula_sum 'C16 H21 N3 O2'
_chemical_formula_moiety
;
C16 H21 N3 O2
;
_journal_coden_Cambridge 82
_journal_volume 45
_journal_year 2004
_journal_page_first 374
_journal_name_full 'Zh.Strukt.Khim.(Russ.)(J.Struct.Chem.) '
loop_
_publ_author_name
"G.I.Roshchupkina"
"T.V.Rybalova"
"Yu.V.Gatilov"
"V.A.Reznikov"
_chemical_name_systematic
;
3-hydroxy-5,5,6,7,7-pentamethyl-3-phenyl-3,5,6,7-tetrahydroisoxazolo(4,3-d)pyr
imidine
;
_chemical_melting_point 398.15
_cell_volume   1515.944
_exptl_crystal_colour 'colorless'
_exptl_crystal_density_diffrn 1.259
_exptl_special_details
;
Melting point range 398.15-401.15K

;
_exptl_crystal_description 'prism'
_diffrn_ambient_temperature 295
#These two values have been output from a single CSD field.
_refine_ls_R_factor_gt 0.042
_refine_ls_wR_factor_gt 0.042
_symmetry_cell_setting monoclinic
_symmetry_space_group_name_H-M 'P 21/c'
_symmetry_Int_Tables_number 14
loop_
_symmetry_equiv_pos_site_id
_symmetry_equiv_pos_as_xyz
1 x,y,z
2 x,1/2-y,1/2+z
3 -x,-y,-z
4 -x,-1/2+y,-1/2-z
_cell_length_a 8.9530(6)
_cell_length_b 15.1387(9)
_cell_length_c 11.6102(6)
_cell_angle_alpha 90
_cell_angle_beta 105.559(5)
_cell_angle_gamma 90
_cell_formula_units_Z 4
loop_
_atom_type_symbol
_atom_type_radius_bond
C 0.68
H 0.23
N 0.68
O 0.68
loop_
_atom_site_label
_atom_site_type_symbol
_atom_site_fract_x
_atom_site_fract_y
_atom_site_fract_z
N1 N 0.34531(14) 0.43273(9) 0.15363(11)
C1 C 0.35583(17) 0.52543(11) 0.20091(14)
N2 N 0.50168(15) 0.56959(9) 0.20073(13)
C2 C 0.61524(17) 0.52061(10) 0.19848(13)
C3 C 0.77657(18) 0.55175(12) 0.19868(14)
O1 O 0.85682(13) 0.46639(9) 0.20192(11)
N3 N 0.75399(17) 0.39517(10) 0.20051(13)
C4 C 0.61953(17) 0.42571(10) 0.19825(13)
C5 C 0.4808(2) 0.37177(11) 0.20025(15)
C6 C 0.4697(3) 0.29333(15) 0.1151(3)
H1 H 0.449(3) 0.3148(19) 0.028(3)
H2 H 0.393(3) 0.2534(18) 0.120(2)
H3 H 0.564(3) 0.2614(17) 0.136(2)
C7 C 0.5002(3) 0.3362(2) 0.3282(2)
H4 H 0.520(3) 0.384(2) 0.389(3)
H5 H 0.582(3) 0.2960(18) 0.351(2)
H6 H 0.408(3) 0.307(2) 0.337(2)
C8 C 0.1989(2) 0.38972(17) 0.15679(19)
H7 H 0.107(3) 0.4265(17) 0.117(2)
H8 H 0.192(2) 0.3823(15) 0.240(2)
H9 H 0.184(3) 0.3351(17) 0.108(2)
C9 C 0.3398(3) 0.53550(17) 0.32860(19)
H10 H 0.427(3) 0.5071(18) 0.384(2)
H11 H 0.249(3) 0.5087(16) 0.337(2)
H12 H 0.347(3) 0.5983(18) 0.350(2)
C10 C 0.2303(2) 0.58087(16) 0.1166(2)
H13 H 0.240(3) 0.5767(17) 0.036(2)
H14 H 0.246(3) 0.6435(18) 0.146(2)
H15 H 0.129(3) 0.5630(17) 0.119(2)
O2 O 0.78300(16) 0.59732(11) 0.09777(12)
H16 H 0.729(3) 0.5734(16) 0.032(2)
C11 C 0.86336(17) 0.60259(12) 0.30808(14)
C12 C 0.96137(19) 0.67073(12) 0.29906(17)
H17 H 0.965(2) 0.6898(13) 0.2214(18)
C13 C 1.0484(2) 0.71267(13) 0.40113(19)
H18 H 1.116(3) 0.7593(16) 0.3952(19)
C14 C 1.0357(2) 0.68821(13) 0.51154(18)
H19 H 1.097(3) 0.7213(15) 0.583(2)
C15 C 0.9376(3) 0.62157(18) 0.52088(19)
H20 H 0.933(3) 0.6047(18) 0.600(3)
C16 C 0.8515(3) 0.57866(17) 0.41971(17)
H21 H 0.794(3) 0.5277(17) 0.428(2)
#END
