
#######################################################################
#
#                 Cambridge Crystallographic Data Centre
#                                CCDC
#
#######################################################################
#
# If this CIF has been generated from an entry in the Cambridge
# Structural Database, then it will include bibliographic, chemical,
# crystal, experimental, refinement or atomic coordinate data resulting
# from the CCDC's data processing and validation procedures.
#
#######################################################################

data_CSD_CIF_IBIVEX
_audit_creation_date 2017-01-04
_audit_creation_method CSD-ConQuest-V1
_database_code_CSD IBIVEX
_database_code_depnum_ccdc_archive 'CCDC 1510190'
_chemical_formula_sum 'C19 H23 N1 O5'
_chemical_formula_moiety
;
C19 H23 N1 O5
;
_journal_coden_Cambridge 179
_journal_volume 55
_journal_year 2016
_journal_page_first 16153
_journal_name_full 'Angew.Chem.,Int.Ed. '
loop_
_publ_author_name
"S.Dochain"
"F.Vetica"
"R.Puttreddy"
"K.Rissanen"
"D.Enders"
_chemical_name_systematic
;
4-ethoxy-8-nitro-9-phenyl-3a,7,8,9,9a,9b-hexahydro-1H,3H,4H-pyrano[3,4,5-de]is
ochromene
;
_cell_volume   1700.021
_exptl_crystal_colour 'colorless'
_exptl_crystal_density_diffrn 1.349
_exptl_special_details
;
Absolute configuration

;
_exptl_crystal_description 'block'
_diffrn_ambient_temperature 120
#These two values have been output from a single CSD field.
_refine_ls_R_factor_gt 0.0303
_refine_ls_wR_factor_gt 0.0303
_symmetry_cell_setting orthorhombic
_symmetry_space_group_name_H-M 'P 21 21 21'
_symmetry_Int_Tables_number 19
loop_
_symmetry_equiv_pos_site_id
_symmetry_equiv_pos_as_xyz
1 x,y,z
2 1/2-x,-y,1/2+z
3 -x,1/2+y,1/2-z
4 1/2+x,1/2-y,-z
_cell_length_a 7.90795(9)
_cell_length_b 8.09877(10)
_cell_length_c 26.5443(4)
_cell_angle_alpha 90
_cell_angle_beta 90
_cell_angle_gamma 90
_cell_formula_units_Z 4
loop_
_atom_type_symbol
_atom_type_radius_bond
C 0.68
H 0.23
N 0.68
O 0.68
loop_
_atom_site_label
_atom_site_type_symbol
_atom_site_fract_x
_atom_site_fract_y
_atom_site_fract_z
O1 O 0.18731(18) 0.80529(16) 0.47004(5)
O2 O 0.0835(2) 0.30069(19) 0.56353(6)
O3 O 0.20430(18) 0.52798(17) 0.60053(5)
O4 O -0.0298(2) 0.3480(2) 0.32419(7)
O5 O 0.1862(3) 0.1972(3) 0.30518(7)
N1 N 0.1025(3) 0.2784(2) 0.33501(7)
C1 C 0.2215(3) 0.6476(3) 0.31948(8)
H1 H 0.10670 0.66900 0.32340
C2 C 0.3076(3) 0.7111(3) 0.27807(8)
H2 H 0.25080 0.77750 0.25500
C3 C 0.4770(3) 0.6761(3) 0.27101(8)
H3 H 0.53400 0.71820 0.24320
C4 C 0.5618(3) 0.5774(3) 0.30575(9)
H4 H 0.67520 0.55140 0.30080
C5 C 0.4770(3) 0.5180(3) 0.34769(8)
H5 H 0.53510 0.45440 0.37120
C6 C 0.3061(3) 0.5518(2) 0.35528(8)
C7 C 0.2162(3) 0.4754(2) 0.40014(7)
H6 H 0.30040 0.47030 0.42720
C8 C 0.1673(3) 0.2922(2) 0.38840(8)
H7 H 0.26930 0.22420 0.39140
C9 C 0.0319(3) 0.2212(2) 0.42394(8)
H8 H -0.07920 0.23680 0.40920
H9 H 0.05030 0.10370 0.42830
C10 C 0.0392(2) 0.3050(2) 0.47399(8)
C11 C 0.0179(2) 0.4904(2) 0.47399(7)
H10 H -0.10020 0.51670 0.48190
C12 C 0.0632(3) 0.5681(2) 0.42233(8)
H11 H -0.03290 0.54930 0.39970
C13 C 0.0825(3) 0.7559(2) 0.42881(8)
H12 H 0.12930 0.80130 0.39800
H13 H -0.02890 0.80360 0.43340
C14 C 0.1225(3) 0.7448(2) 0.51685(7)
H14 H 0.00660 0.78110 0.52140
H15 H 0.18950 0.78720 0.54460
C15 C 0.1303(3) 0.5572(2) 0.51608(8)
H16 H 0.24700 0.52510 0.50850
C16 C 0.0828(3) 0.4805(3) 0.56599(8)
H17 H -0.02870 0.52010 0.57670
C17 C 0.0735(3) 0.2281(2) 0.51669(8)
H18 H 0.09260 0.11500 0.51500
C18 C 0.1676(3) 0.4944(3) 0.65265(8)
H19 H 0.16160 0.37630 0.65840
H20 H 0.06030 0.54330 0.66210
C19 C 0.3089(3) 0.5688(3) 0.68299(8)
H21 H 0.41380 0.51720 0.67390
H22 H 0.28750 0.55170 0.71820
H23 H 0.31540 0.68510 0.67620
#END
