
#######################################################################
#
#                 Cambridge Crystallographic Data Centre
#                                CCDC
#
#######################################################################
#
# If this CIF has been generated from an entry in the Cambridge
# Structural Database, then it will include bibliographic, chemical,
# crystal, experimental, refinement or atomic coordinate data resulting
# from the CCDC's data processing and validation procedures.
#
#######################################################################

data_CSD_CIF_IBIYOK
_audit_creation_date 2017-01-04
_audit_creation_method CSD-ConQuest-V1
_database_code_CSD IBIYOK
_database_code_depnum_ccdc_archive 'CCDC 1525440'
_chemical_formula_sum 'C15 H17 N3 O8'
_chemical_formula_moiety
;
C15 H17 N3 O8
;
_journal_coden_Cambridge 1336
_journal_volume 19
_journal_year 2017
_journal_page_first 1358
_journal_name_full 'Org.Lett. '
loop_
_publ_author_name
"Chieh-Kai Chan"
"Yu-Lin Tsai"
"Meng-Yang Chang"
_chemical_name_systematic
;
6-butoxy-5-methoxy-3,10-dinitro-12,13-dioxa-11-azatricyclo[7.3.1.0^2,7^]tridec
a-2,4,6,10-tetraene
;
_cell_volume   1577.373
_exptl_crystal_colour 'colorless'
_exptl_crystal_density_diffrn 1.547
_diffrn_ambient_temperature 100
_diffrn_special_details
;
twin

;
#These two values have been output from a single CSD field.
_refine_ls_R_factor_gt 0.0266
_refine_ls_wR_factor_gt 0.0266
_symmetry_cell_setting orthorhombic
_symmetry_space_group_name_H-M 'P 21 21 21'
_symmetry_Int_Tables_number 19
loop_
_symmetry_equiv_pos_site_id
_symmetry_equiv_pos_as_xyz
1 x,y,z
2 1/2+x,1/2-y,-z
3 -x,1/2+y,1/2-z
4 1/2-x,-y,1/2+z
_cell_length_a 4.6736(6)
_cell_length_b 17.606(2)
_cell_length_c 19.170(3)
_cell_angle_alpha 90
_cell_angle_beta 90
_cell_angle_gamma 90
_cell_formula_units_Z 4
loop_
_atom_type_symbol
_atom_type_radius_bond
C 0.68
H 0.23
N 0.68
O 0.68
loop_
_atom_site_label
_atom_site_type_symbol
_atom_site_fract_x
_atom_site_fract_y
_atom_site_fract_z
O1 O 0.6364(3) 0.34211(8) 0.16923(8)
O2 O 0.5951(3) 0.30877(9) 0.48618(9)
O3 O 0.5038(3) 0.22860(8) 0.40263(8)
O4 O 0.0379(3) 0.45591(8) 0.40380(7)
O5 O -0.1639(3) 0.35898(8) 0.33665(8)
O6 O -0.1011(3) 0.58832(9) 0.32861(9)
O7 O 0.0451(4) 0.64924(9) 0.23758(9)
O8 O 0.7241(3) 0.48111(8) 0.11418(8)
N1 N 0.4671(4) 0.28918(10) 0.43360(9)
N2 N 0.2308(4) 0.40463(10) 0.43235(9)
N3 N 0.0346(4) 0.59163(10) 0.27392(9)
C1 C 0.5936(5) 0.09912(12) 0.03950(13)
H1 H 0.80280 0.09990 0.03590
H2 H 0.51260 0.07560 -0.00240
H3 H 0.53700 0.06980 0.08070
C2 C 0.4825(5) 0.18007(11) 0.04622(11)
H4 H 0.27140 0.17860 0.05050
H5 H 0.52950 0.20820 0.00300
C3 C 0.6050(5) 0.22312(12) 0.10846(11)
H6 H 0.54930 0.19680 0.15200
H7 H 0.81650 0.22290 0.10560
C4 C 0.5006(5) 0.30423(11) 0.11111(11)
H8 H 0.54890 0.33060 0.06710
H9 H 0.29020 0.30520 0.11690
C5 C 0.4849(5) 0.40315(11) 0.19435(11)
C6 C 0.2883(4) 0.39099(12) 0.24807(11)
C7 C 0.2377(5) 0.31064(12) 0.27210(11)
H10 H 0.42320 0.28400 0.27680
H11 H 0.12180 0.28330 0.23690
C8 C 0.0825(4) 0.31026(12) 0.34177(11)
H12 H 0.01860 0.25740 0.35270
C9 C 0.2538(4) 0.34055(12) 0.40177(11)
C10 C -0.0783(4) 0.43547(12) 0.33584(11)
H13 H -0.25160 0.46740 0.32720
C11 C 0.1384(4) 0.45186(12) 0.27799(11)
C12 C 0.1913(5) 0.52403(12) 0.24965(11)
C13 C 0.3825(5) 0.53664(12) 0.19536(11)
H14 H 0.41040 0.58650 0.17780
C14 C 0.5326(5) 0.47602(11) 0.16694(11)
C15 C 0.7551(6) 0.55408(12) 0.08058(12)
H15 H 0.56890 0.57080 0.06280
H16 H 0.89050 0.54970 0.04180
H17 H 0.82690 0.59120 0.11440
#END
