
#######################################################################
#
#                 Cambridge Crystallographic Data Centre
#                                CCDC
#
#######################################################################
#
# If this CIF has been generated from an entry in the Cambridge
# Structural Database, then it will include bibliographic, chemical,
# crystal, experimental, refinement or atomic coordinate data resulting
# from the CCDC's data processing and validation procedures.
#
#######################################################################

data_CSD_CIF_IBORAV
_audit_creation_date 2017-01-04
_audit_creation_method CSD-ConQuest-V1
_database_code_CSD IBORAV
_database_code_depnum_ccdc_archive 'CCDC 1505407'
_chemical_formula_sum 'C11 H7 N1 O6'
_chemical_formula_moiety
;
C11 H7 N1 O6
;
_journal_coden_Cambridge 1500
_journal_volume 7
_journal_year 2017
_journal_page_first 389
_journal_name_full 'RSC Advances '
loop_
_publ_author_name
"A.Pramanik"
"D.Haldar"
_chemical_name_systematic
;
methyl 6-nitro-2-oxo-2H-chromene-3-carboxylate
;
_cell_volume   2081.069
_exptl_crystal_colour 'yellow'
_exptl_crystal_density_diffrn 1.591
_exptl_crystal_description 'needle'
_diffrn_ambient_temperature 293
#These two values have been output from a single CSD field.
_refine_ls_R_factor_gt 0.0641
_refine_ls_wR_factor_gt 0.0641
_symmetry_cell_setting monoclinic
_symmetry_space_group_name_H-M 'I 2/a'
_symmetry_Int_Tables_number 15
loop_
_symmetry_equiv_pos_site_id
_symmetry_equiv_pos_as_xyz
1 x,y,z
2 1/2-x,y,-z
3 1/2+x,1/2+y,1/2+z
4 -x,1/2+y,1/2-z
5 -x,-y,-z
6 -1/2+x,-y,z
7 -1/2-x,-1/2-y,-1/2-z
8 x,-1/2-y,-1/2+z
_cell_length_a 20.178(2)
_cell_length_b 4.0966(4)
_cell_length_c 25.538(2)
_cell_angle_alpha 90
_cell_angle_beta 99.660(9)
_cell_angle_gamma 90
_cell_formula_units_Z 8
loop_
_atom_type_symbol
_atom_type_radius_bond
C 0.68
H 0.23
N 0.68
O 0.68
loop_
_atom_site_label
_atom_site_type_symbol
_atom_site_fract_x
_atom_site_fract_y
_atom_site_fract_z
O1 O 0.44982(10) -0.0125(6) 0.27534(8)
C1 C 0.37673(15) -0.3076(8) 0.32278(11)
O2 O 0.34039(12) -0.3727(6) 0.13333(8)
C2 C 0.35603(15) -0.3154(8) 0.22643(11)
C3 C 0.43387(15) -0.1187(8) 0.32232(11)
C4 C 0.40342(17) -0.3140(9) 0.41720(12)
O3 O 0.43107(12) 0.0284(6) 0.18830(9)
C5 C 0.33850(15) -0.4042(8) 0.27314(11)
H1 H 0.30040 -0.53220 0.27290
C6 C 0.36097(16) -0.4050(8) 0.37195(12)
H2 H 0.32270 -0.52810 0.37370
O4 O 0.42534(15) -0.3410(9) 0.50905(10)
C7 C 0.46110(17) -0.1299(9) 0.41642(12)
H3 H 0.48890 -0.07420 0.44800
N1 N 0.38775(17) -0.4195(9) 0.46877(11)
C8 C 0.47672(17) -0.0308(9) 0.36847(13)
H4 H 0.51510 0.09230 0.36700
C9 C 0.41305(15) -0.0951(8) 0.22589(12)
O5 O 0.26908(12) -0.6288(7) 0.17707(9)
C10 C 0.31703(16) -0.4537(8) 0.17686(12)
C11 C 0.3083(2) -0.5263(11) 0.08437(13)
H5 H 0.32600 -0.43510 0.05500
H6 H 0.26070 -0.48840 0.07950
H7 H 0.31680 -0.75690 0.08620
O6 O 0.33770(18) -0.5821(10) 0.46933(10)
#END
