
#######################################################################
#
#                 Cambridge Crystallographic Data Centre
#                                CCDC
#
#######################################################################
#
# If this CIF has been generated from an entry in the Cambridge
# Structural Database, then it will include bibliographic, chemical,
# crystal, experimental, refinement or atomic coordinate data resulting
# from the CCDC's data processing and validation procedures.
#
#######################################################################

data_CSD_CIF_IBOSAU
_audit_creation_date 2005-02-10
_audit_creation_method CSD-ConQuest-V1
_database_code_CSD IBOSAU
_database_code_depnum_ccdc_archive 'CCDC 246148'
_chemical_formula_sum 'C22 H19 N3 O3'
_chemical_formula_moiety
;
C22 H19 N3 O3
;
_journal_coden_Cambridge 16
_journal_volume 60
_journal_year 2004
_journal_page_first 9463
_journal_name_full 'Tetrahedron '
loop_
_publ_author_name
"R.U.Braun"
"T.J.J.Muller"
_chemical_name_systematic
;
2-(4-Nitrophenyl)-4-(4-methoxyphenyl)-2,3-dihydrobenzo(b)(1,4)diazepine
;
_chemical_melting_point 459.15
_cell_volume    911.415
_exptl_crystal_colour 'orange'
_exptl_crystal_density_diffrn 1.361
_exptl_special_details
;
Melting point range 459.15-460.15K

;
_exptl_crystal_description 'plate'
_exptl_crystal_preparation 'ethanol'
_diffrn_ambient_temperature 293
#These two values have been output from a single CSD field.
_refine_ls_R_factor_gt 0.0619
_refine_ls_wR_factor_gt 0.0619
_symmetry_cell_setting triclinic
_symmetry_space_group_name_H-M 'P -1'
_symmetry_Int_Tables_number 2
loop_
_symmetry_equiv_pos_site_id
_symmetry_equiv_pos_as_xyz
1 x,y,z
2 -x,-y,-z
_cell_length_a 8.3912(15)
_cell_length_b 8.9405(13)
_cell_length_c 12.209(4)
_cell_angle_alpha 90.99(2)
_cell_angle_beta 94.19(3)
_cell_angle_gamma 93.650(13)
_cell_formula_units_Z 2
loop_
_atom_type_symbol
_atom_type_radius_bond
C 0.68
H 0.23
N 0.68
O 0.68
loop_
_atom_site_label
_atom_site_type_symbol
_atom_site_fract_x
_atom_site_fract_y
_atom_site_fract_z
O1 O -0.1680(4) 1.2474(3) 0.5579(3)
O2 O -0.3413(4) 1.1172(4) 0.4528(3)
O3 O -0.4475(3) 0.1082(3) 1.1240(2)
N1 N 0.1710(4) 0.5929(4) 0.6873(3)
H1 H 0.2065(4) 0.6714(4) 0.6415(3)
N2 N 0.1025(3) 0.3193(3) 0.8300(2)
N3 N -0.2345(4) 1.1274(4) 0.5252(3)
C1 C 0.0081(5) 0.5880(4) 0.6957(3)
H2 H -0.0369(5) 0.5093(4) 0.6435(3)
C2 C 0.2674(4) 0.4765(4) 0.7020(3)
C3 C 0.4130(4) 0.4879(4) 0.6525(3)
H3 H 0.4349(4) 0.5697(4) 0.6088(3)
C4 C 0.5232(4) 0.3839(4) 0.6659(3)
H4 H 0.6184(4) 0.3948(4) 0.6316(3)
C5 C 0.4935(5) 0.2623(4) 0.7305(3)
H5 H 0.5682(5) 0.1904(4) 0.7408(3)
C6 C 0.3517(4) 0.2491(4) 0.7794(3)
H6 H 0.3314(4) 0.1658(4) 0.8221(3)
C7 C 0.2361(4) 0.3545(3) 0.7685(2)
C8 C -0.0177(4) 0.3948(3) 0.8462(2)
C9 C -0.0533(5) 0.5465(4) 0.8027(3)
H7 H -0.1686(5) 0.5524(4) 0.7962(3)
H8 H -0.0101(5) 0.6215(4) 0.8571(3)
C10 C -0.0613(4) 0.7312(4) 0.6553(3)
C11 C -0.0034(4) 0.8691(4) 0.6984(3)
H9 H 0.0758(4) 0.8736(4) 0.7560(3)
C12 C -0.0599(4) 1.0015(4) 0.6584(3)
H10 H -0.0195(4) 1.0942(4) 0.6875(3)
C13 C -0.1777(4) 0.9904(4) 0.5740(3)
C14 C -0.2397(4) 0.8545(4) 0.5315(3)
H11 H -0.3213(4) 0.8494(4) 0.4755(3)
C15 C -0.1800(4) 0.7261(4) 0.5727(3)
H12 H -0.2213(4) 0.6336(4) 0.5436(3)
C16 C -0.1349(4) 0.3244(3) 0.9194(2)
C17 C -0.2514(4) 0.4037(4) 0.9656(3)
H13 H -0.2579(4) 0.5047(4) 0.9502(3)
C18 C -0.3589(4) 0.3360(4) 1.0345(3)
H14 H -0.4356(4) 0.3914(4) 1.0648(3)
C19 C -0.3503(4) 0.1870(4) 1.0570(3)
C20 C -0.2350(5) 0.1063(4) 1.0129(3)
H15 H -0.2288(5) 0.0054(4) 1.0288(3)
C21 C -0.1293(4) 0.1739(4) 0.9457(3)
H16 H -0.0519(4) 0.1178(4) 0.9170(3)
C22 C -0.5710(5) 0.1820(5) 1.1695(4)
H17 H -0.6278(22) 0.1145(11) 1.2155(18)
H18 H -0.6434(18) 0.2145(27) 1.1115(4)
H19 H -0.5260(6) 0.2674(19) 1.2125(19)
#END
