
#######################################################################
#
#                 Cambridge Crystallographic Data Centre
#                                CCDC
#
#######################################################################
#
# If this CIF has been generated from an entry in the Cambridge
# Structural Database, then it will include bibliographic, chemical,
# crystal, experimental, refinement or atomic coordinate data resulting
# from the CCDC's data processing and validation procedures.
#
#######################################################################

data_CSD_CIF_IBUQAX
_audit_creation_date 2001-10-05
_audit_creation_method CSD-ConQuest-V1
_database_code_CSD IBUQAX
_database_code_depnum_ccdc_archive 'CCDC 168650'
_chemical_formula_sum 'C17 H11 N1 O2'
_chemical_formula_moiety
;
C17 H11 N1 O2
;
_journal_coden_Cambridge 24
_journal_volume 42
_journal_year 2001
_journal_page_first 5257
_journal_name_full 'Tetrahedron Lett. '
loop_
_publ_author_name
"H.Igarashi"
"S.Sakamoto"
"K.Yamaguchi"
"T.Ohwada"
_chemical_name_systematic
;
2-Nitrospiro(cyclopenta-2,4-diene-1,9'-fluorene)
;
_cell_volume   1323.255
_exptl_crystal_colour 'yellow'
_exptl_crystal_density_diffrn 1.311
_exptl_crystal_description 'prism'
_diffrn_ambient_temperature 298.2
#These two values have been output from a single CSD field.
_refine_ls_R_factor_gt 0.043
_refine_ls_wR_factor_gt 0.043
_symmetry_cell_setting monoclinic
_symmetry_space_group_name_H-M 'P 21/n'
_symmetry_Int_Tables_number 14
loop_
_symmetry_equiv_pos_site_id
_symmetry_equiv_pos_as_xyz
1 x,y,z
2 1/2+x,1/2-y,1/2+z
3 -x,-y,-z
4 -1/2-x,-1/2+y,-1/2-z
_cell_length_a 10.076(2)
_cell_length_b 11.618(2)
_cell_length_c 11.317(2)
_cell_angle_alpha 90
_cell_angle_beta 92.769(2)
_cell_angle_gamma 90
_cell_formula_units_Z 4
loop_
_atom_type_symbol
_atom_type_radius_bond
C 0.68
H 0.23
N 0.68
O 0.68
loop_
_atom_site_label
_atom_site_type_symbol
_atom_site_fract_x
_atom_site_fract_y
_atom_site_fract_z
O1 O 0.8141(2) -0.1403(2) 0.8884(2)
O2 O 0.6296(2) -0.2067(2) 0.9425(2)
N1 N 0.6929(2) -0.1425(2) 0.8814(2)
C1 C 0.2712(2) 0.0325(2) 0.6961(2)
C2 C 0.2708(2) 0.1201(2) 0.5951(2)
C3 C 0.1630(3) 0.1714(2) 0.5361(2)
C4 C 0.1875(3) 0.2508(2) 0.4472(2)
C5 C 0.3152(3) 0.2764(2) 0.4181(2)
C6 C 0.4233(3) 0.2254(2) 0.4762(2)
C7 C 0.4002(2) 0.1463(2) 0.5653(2)
C8 C 0.4926(2) 0.0787(2) 0.6398(2)
C9 C 0.6310(2) 0.0722(2) 0.6431(2)
C10 C 0.6957(2) -0.0009(2) 0.7220(2)
C11 C 0.6218(2) -0.0654(2) 0.7984(2)
C12 C 0.4838(2) -0.0617(2) 0.7974(2)
C13 C 0.4200(2) 0.0114(2) 0.7168(2)
C14 C 0.2057(2) 0.0753(2) 0.8054(2)
C15 C 0.1100(3) 0.0042(3) 0.8340(2)
C16 C 0.1014(2) -0.0902(2) 0.7489(2)
C17 C 0.1917(2) -0.0760(2) 0.6690(2)
H1 H 0.073(2) 0.154(2) 0.559(2)
H2 H 0.116(2) 0.283(2) 0.410(2)
H3 H 0.328(3) 0.330(2) 0.348(2)
H4 H 0.515(2) 0.242(2) 0.454(2)
H5 H 0.683(2) 0.119(2) 0.587(2)
H6 H 0.791(2) -0.007(2) 0.724(2)
H7 H 0.436(2) -0.108(2) 0.853(2)
H8 H 0.207(2) -0.128(2) 0.601(2)
H9 H 0.037(3) -0.157(2) 0.752(2)
H10 H 0.038(2) 0.011(2) 0.908(2)
H11 H 0.236(2) 0.145(2) 0.849(2)
#END
