
#######################################################################
#
#                 Cambridge Crystallographic Data Centre
#                                CCDC
#
#######################################################################
#
# If this CIF has been generated from an entry in the Cambridge
# Structural Database, then it will include bibliographic, chemical,
# crystal, experimental, refinement or atomic coordinate data resulting
# from the CCDC's data processing and validation procedures.
#
#######################################################################

data_CSD_CIF_ICOLAP
_audit_creation_date 2012-02-03
_audit_creation_method CSD-ConQuest-V1
_database_code_CSD ICOLAP
_database_code_depnum_ccdc_archive 'CCDC 291612'
_chemical_formula_sum 'C16 H17 N1 O6'
_chemical_formula_moiety
;
C16 H17 N1 O6
;
_journal_coden_Cambridge 15
_journal_volume 87
_journal_year 2009
_journal_page_first 760
_journal_name_full 'Can.J.Chem. '
loop_
_publ_author_name
"K.Itoh"
"S.Kishimoto"
"K.Sagi"
_chemical_name_systematic
;
Ethyl 
5-(3-methoxy-3-oxoprop-1-en-1-yl)-4-phenyl-4,5-dihydro-1,2-oxazole-3-carboxyla
te 2-oxide
;
_cell_volume    827.674
_exptl_crystal_colour 'colorless'
_exptl_crystal_density_diffrn 1.28
_exptl_crystal_description 'prismatic'
_diffrn_ambient_temperature 295.2
#These two values have been output from a single CSD field.
_refine_ls_R_factor_gt 0.1082
_refine_ls_wR_factor_gt 0.1082
_symmetry_cell_setting triclinic
_symmetry_space_group_name_H-M 'P -1'
_symmetry_Int_Tables_number 2
loop_
_symmetry_equiv_pos_site_id
_symmetry_equiv_pos_as_xyz
1 x,y,z
2 -x,-y,-z
_cell_length_a 9.753(7)
_cell_length_b 10.28(1)
_cell_length_c 9.25(1)
_cell_angle_alpha 106.0(2)
_cell_angle_beta 109.3(1)
_cell_angle_gamma 94.13(8)
_cell_formula_units_Z 2
loop_
_atom_type_symbol
_atom_type_radius_bond
C 0.68
H 0.23
N 0.68
O 0.68
loop_
_atom_site_label
_atom_site_type_symbol
_atom_site_fract_x
_atom_site_fract_y
_atom_site_fract_z
O1 O 0.0288(5) 0.0003(4) 0.8565(6)
O2 O 0.0354(6) -0.1419(5) 0.6298(6)
O3 O 0.1410(6) 0.3988(5) 1.1907(6)
O4 O -0.0481(6) 0.4975(5) 1.2201(6)
O5 O 0.2167(6) -0.0222(6) 0.5008(6)
O6 O 0.2956(6) 0.2043(7) 0.6368(5)
N1 N 0.0785(7) -0.0248(6) 0.7256(7)
C1 C 0.0681(8) 0.1482(6) 0.9391(7)
C2 C 0.1902(7) 0.1982(6) 0.8865(7)
C3 C 0.1637(7) 0.0845(7) 0.7341(7)
C4 C -0.0683(7) 0.2073(7) 0.8945(8)
C5 C -0.0944(8) 0.3216(7) 0.9844(9)
C6 C 0.0132(10) 0.4068(7) 1.1414(9)
C7 C 0.053(1) 0.5911(9) 1.374(1)
C8 C 0.3437(8) 0.2174(8) 1.0066(8)
C9 C 0.3823(9) 0.1183(9) 1.0811(9)
C10 C 0.525(1) 0.133(1) 1.190(1)
C11 C 0.626(1) 0.247(2) 1.222(1)
C12 C 0.588(1) 0.344(1) 1.151(1)
C13 C 0.4477(10) 0.3309(9) 1.043(1)
C14 C 0.2262(9) 0.078(1) 0.6099(9)
C15 C 0.35820 0.22020 0.51680
C16 C 0.47360 0.31540 0.58120
H1 H 0.10680 0.16470 1.05280
H2 H 0.17430 0.28140 0.86390
H3 H -0.14380 0.16190 0.79270
H4 H -0.18820 0.34800 0.94630
H5 H 0.09660 0.53750 1.44370
H6 H 0.13060 0.64020 1.35930
H7 H 0.00310 0.65180 1.42470
H8 H 0.31260 0.03870 1.05710
H9 H 0.55070 0.06740 1.24260
H10 H 0.72620 0.25460 1.29740
H11 H 0.66090 0.42010 1.17580
H12 H 0.42270 0.39910 0.99670
H13 H 0.29080 0.23740 0.43370
H14 H 0.39340 0.13520 0.48010
H15 H 0.51510 0.31810 0.50230
H16 H 0.54520 0.29990 0.67040
H17 H 0.44350 0.40060 0.61680
#END
