
#######################################################################
#
#                 Cambridge Crystallographic Data Centre
#                                CCDC
#
#######################################################################
#
# If this CIF has been generated from an entry in the Cambridge
# Structural Database, then it will include bibliographic, chemical,
# crystal, experimental, refinement or atomic coordinate data resulting
# from the CCDC's data processing and validation procedures.
#
#######################################################################

data_CSD_CIF_ICOXEF
_audit_creation_date 2012-02-14
_audit_creation_method CSD-ConQuest-V1
_database_code_CSD ICOXEF
_database_code_depnum_ccdc_archive 'CCDC 770779'
_chemical_formula_sum 'C13 H19 N5 O5'
_chemical_formula_moiety
;
C13 H19 N5 O5
;
_journal_coden_Cambridge 603
_journal_volume 30
_journal_year 2011
_journal_page_first 1452
_journal_name_full 'Jiegou Huaxue(Chin.)(Chin.J.Struct.Chem.) '
loop_
_publ_author_name
"Ting Fang"
"Hong-Fei Bu"
"Si-Jia Xue"
"Li Liu"
"Li Ding"
"Jing Wang"
_chemical_name_systematic
;
Ethyl 2-(3-(2-furylmethyl)-4-(nitroimino)-1,3,5-triazinan-1-yl)propanoate
;
_cell_volume    770.426
_exptl_crystal_colour 'colorless'
_exptl_crystal_density_diffrn 1.402
_exptl_crystal_description 'block'
_diffrn_ambient_temperature 298
#These two values have been output from a single CSD field.
_refine_ls_R_factor_gt 0.0543
_refine_ls_wR_factor_gt 0.0543
_symmetry_cell_setting monoclinic
_symmetry_space_group_name_H-M 'P 21'
_symmetry_Int_Tables_number 4
loop_
_symmetry_equiv_pos_site_id
_symmetry_equiv_pos_as_xyz
1 x,y,z
2 -x,1/2+y,-z
_cell_length_a 8.7076(17)
_cell_length_b 8.3211(17)
_cell_length_c 10.642(2)
_cell_angle_alpha 90
_cell_angle_beta 92.370(3)
_cell_angle_gamma 90
_cell_formula_units_Z 2
loop_
_atom_type_symbol
_atom_type_radius_bond
C 0.68
H 0.23
N 0.68
O 0.68
loop_
_atom_site_label
_atom_site_type_symbol
_atom_site_fract_x
_atom_site_fract_y
_atom_site_fract_z
C1 C 0.9227(3) 0.1828(3) 0.1604(2)
C2 C 0.9489(4) 0.3119(5) 0.0943(3)
H1 H 0.99740 0.40550 0.12260
C3 C 0.8882(4) 0.2801(6) -0.0304(3)
H2 H 0.89390 0.34780 -0.09960
C4 C 0.8254(4) 0.1432(6) -0.0292(3)
H3 H 0.77310 0.09580 -0.09760
C5 C 0.9695(3) 0.1413(4) 0.2914(2)
H4 H 1.05100 0.06180 0.29080
H5 H 1.01040 0.23650 0.33350
C6 C 0.7224(3) 0.1960(3) 0.3910(2)
H6 H 0.75470 0.25680 0.46530
H7 H 0.70950 0.27070 0.32140
C7 C 0.6077(3) 0.0004(3) 0.51099(19)
H8 H 0.64740 0.05420 0.58640
H9 H 0.51320 -0.05400 0.53090
C8 C 0.8343(3) -0.0755(3) 0.39915(18)
C9 C 0.5086(2) 0.0495(3) 0.29591(18)
H10 H 0.58930 -0.00780 0.25260
C10 C 0.3785(3) -0.0677(3) 0.3190(3)
H11 H 0.41950 -0.16260 0.35930
H12 H 0.32830 -0.09640 0.24020
H13 H 0.30570 -0.01810 0.37220
C11 C 0.4463(3) 0.1829(3) 0.2102(2)
C12 C 0.3714(4) 0.2379(4) -0.0030(3)
H14 H 0.43610 0.33170 -0.01260
H15 H 0.27080 0.27340 0.02140
C13 C 0.3581(5) 0.1477(5) -0.1217(3)
H16 H 0.45860 0.11660 -0.14650
H17 H 0.31040 0.21430 -0.18590
H18 H 0.29660 0.05350 -0.11040
N1 N 0.8422(2) 0.0778(2) 0.36252(16)
N2 N 0.5762(2) 0.1182(2) 0.41245(14)
N3 N 0.7187(2) -0.1161(3) 0.47065(17)
H19 H 0.709(3) -0.214(4) 0.492(3)
N4 N 0.9469(2) -0.1718(3) 0.35711(18)
N5 N 0.9390(3) -0.3305(3) 0.3793(2)
O1 O 0.8455(3) 0.0743(3) 0.08781(18)
O2 O 1.0500(3) -0.4093(3) 0.34315(19)
O3 O 0.8300(3) -0.3978(2) 0.4309(2)
O4 O 0.4394(2) 0.1305(2) 0.09209(14)
O5 O 0.4037(3) 0.3106(2) 0.24152(19)
#END
