
#######################################################################
#
#                 Cambridge Crystallographic Data Centre
#                                CCDC
#
#######################################################################
#
# If this CIF has been generated from an entry in the Cambridge
# Structural Database, then it will include bibliographic, chemical,
# crystal, experimental, refinement or atomic coordinate data resulting
# from the CCDC's data processing and validation procedures.
#
#######################################################################

data_CSD_CIF_ICUWUB
_audit_creation_date 2017-01-04
_audit_creation_method CSD-ConQuest-V1
_database_code_CSD ICUWUB
_database_code_depnum_ccdc_archive 'CCDC 1480610'
_chemical_formula_sum 'C19 H22 N2 O2'
_chemical_formula_moiety
;
C19 H22 N2 O2
;
_journal_coden_Cambridge 1220
_journal_volume 22
_journal_year 2016
_journal_page_first 15881
_journal_name_full 'Chem.-Eur.J. '
loop_
_publ_author_name
"P.Sharma"
"Rai-Shung Liu"
_chemical_name_systematic
;
1-anilino-4-(hydroxy(2-methylphenyl)amino)-4-methylpent-1-en-3-one
;
_cell_volume    844.719
_exptl_crystal_colour 'colorless'
_exptl_crystal_density_diffrn 1.22
_exptl_crystal_description 'Acicular'
_diffrn_ambient_temperature 100
_diffrn_special_details
;
twin

;
#These two values have been output from a single CSD field.
_refine_ls_R_factor_gt 0.0668
_refine_ls_wR_factor_gt 0.0668
_symmetry_cell_setting monoclinic
_symmetry_space_group_name_H-M 'P 21'
_symmetry_Int_Tables_number 4
loop_
_symmetry_equiv_pos_site_id
_symmetry_equiv_pos_as_xyz
1 x,y,z
2 -x,1/2+y,-z
_cell_length_a 5.9705(16)
_cell_length_b 7.259(2)
_cell_length_c 19.611(6)
_cell_angle_alpha 90
_cell_angle_beta 96.353(11)
_cell_angle_gamma 90
_cell_formula_units_Z 2
loop_
_atom_type_symbol
_atom_type_radius_bond
C 0.68
H 0.23
N 0.68
O 0.68
loop_
_atom_site_label
_atom_site_type_symbol
_atom_site_fract_x
_atom_site_fract_y
_atom_site_fract_z
C1 C 0.352(1) 0.8128(9) 0.3616(3)
H1 H 0.38990 0.82090 0.31590
C2 C 0.1508(11) 0.8830(9) 0.3781(3)
H2 H 0.04790 0.93500 0.34290
C3 C 0.0949(10) 0.8797(8) 0.4447(3)
H3 H -0.04450 0.92930 0.45510
C4 C 0.2460(9) 0.8024(8) 0.4963(3)
C5 C 0.0296(9) 0.8723(8) 0.5938(3)
H4 H -0.08370 0.93280 0.56410
C6 C 0.0032(8) 0.8650(8) 0.6621(3)
H5 H -0.12730 0.91930 0.67730
C7 C 0.1622(8) 0.7800(8) 0.7112(3)
C8 C 0.1350(8) 0.7879(8) 0.7886(3)
C9 C -0.1664(7) 0.8281(8) 0.8658(2)
C10 C -0.1827(8) 0.6726(8) 0.9072(3)
H6 H -0.15390 0.55350 0.89000
C11 C -0.2411(9) 0.6928(10) 0.9735(3)
H7 H -0.25430 0.58760 1.00160
C12 C -0.2799(9) 0.867(1) 0.9984(3)
H8 H -0.31770 0.88150 1.04380
C13 C -0.2640(9) 1.0182(10) 0.9576(3)
H9 H -0.29100 1.13690 0.97530
C14 C -0.2089(9) 1.0021(8) 0.8904(3)
C15 C -0.2089(10) 1.1719(9) 0.8464(4)
H10 H -0.23520 1.13690 0.79790
H11 H -0.06290 1.23410 0.85520
H12 H -0.32870 1.25540 0.85750
C16 C 0.2527(9) 0.9658(9) 0.8147(3)
H13 H 0.24290 0.97830 0.86410
H14 H 0.17910 1.07140 0.79050
H15 H 0.41140 0.96140 0.80630
C17 C 0.2411(9) 0.6195(9) 0.8256(3)
H16 H 0.15580 0.50910 0.81010
H17 H 0.23850 0.63430 0.87520
H18 H 0.39740 0.60680 0.81540
C18 C 0.4474(10) 0.7254(8) 0.4797(3)
H19 H 0.54920 0.66980 0.51440
C19 C 0.4985(10) 0.7304(9) 0.4121(3)
H20 H 0.63470 0.67690 0.40060
N1 N 0.2057(7) 0.7992(7) 0.5659(2)
H21 H 0.30760 0.74270 0.59430
N2 N -0.1129(7) 0.8072(6) 0.7951(2)
O1 O 0.3418(6) 0.7079(6) 0.69489(18)
O2 O -0.2132(6) 0.6345(5) 0.76823(18)
H22 H -0.33120 0.65720 0.74210
#END
