
#######################################################################
#
#                 Cambridge Crystallographic Data Centre
#                                CCDC
#
#######################################################################
#
# If this CIF has been generated from an entry in the Cambridge
# Structural Database, then it will include bibliographic, chemical,
# crystal, experimental, refinement or atomic coordinate data resulting
# from the CCDC's data processing and validation procedures.
#
#######################################################################

data_CSD_CIF_IDEFOP
_audit_creation_date 2017-01-04
_audit_creation_method CSD-ConQuest-V1
_database_code_CSD IDEFOP
_database_code_depnum_ccdc_archive 'CCDC 1476968'
_chemical_formula_sum 'C13 H17 N1 O3'
_chemical_formula_moiety
;
C13 H17 N1 O3
;
_journal_coden_Cambridge 493
_journal_volume 127
_journal_year 2017
_journal_page_first 210
_journal_name_full 'Eur.J.Med.Chem. '
loop_
_publ_author_name
"Gagandeep Singh"
"Gurjit Singh"
"R.Bhatti"
"V.Gupta"
"A.Mahajan"
"P.Singh"
"Mohan Paul Singh Ishar"
_chemical_name_systematic
;
8-methoxy-1,9b-dimethyl-1,3a,4,9b-tetrahydro-3H-chromeno[4,3-c][1,2]oxazole
;
_cell_volume   1179.333
_exptl_crystal_colour 'white'
_exptl_crystal_density_diffrn 1.325
_exptl_special_details
;
potent anti-nociception in vivo and exhibited significant inhibition of TNF-  
and IL-6 also
;
_exptl_crystal_description 'block'
_diffrn_ambient_temperature 293
#These two values have been output from a single CSD field.
_refine_ls_R_factor_gt 0.0543
_refine_ls_wR_factor_gt 0.0543
_symmetry_cell_setting monoclinic
_symmetry_space_group_name_H-M 'P 21/c'
_symmetry_Int_Tables_number 14
loop_
_symmetry_equiv_pos_site_id
_symmetry_equiv_pos_as_xyz
1 x,y,z
2 -x,1/2+y,1/2-z
3 -x,-y,-z
4 x,-1/2-y,-1/2+z
_cell_length_a 8.4303(9)
_cell_length_b 10.672(1)
_cell_length_c 13.6885(18)
_cell_angle_alpha 90
_cell_angle_beta 106.741(13)
_cell_angle_gamma 90
_cell_formula_units_Z 4
loop_
_atom_type_symbol
_atom_type_radius_bond
C 0.68
H 0.23
N 0.68
O 0.68
loop_
_atom_site_label
_atom_site_type_symbol
_atom_site_fract_x
_atom_site_fract_y
_atom_site_fract_z
O1 O 0.6280(2) 0.70823(15) 0.42028(11)
C1 C 0.6767(2) 0.76017(17) 0.25878(15)
C2 C 0.7697(2) 0.82929(18) 0.20880(16)
H1 H 0.74490 0.82490 0.13810
C3 C 0.5352(2) 0.67930(17) 0.19704(15)
N1 N 0.4211(2) 0.76319(16) 0.12327(12)
O2 O 0.9933(2) 0.97821(17) 0.22090(14)
C4 C 0.7152(2) 0.76801(19) 0.36372(15)
C5 C 0.8983(2) 0.9041(2) 0.26301(17)
C6 C 0.8461(3) 0.8424(2) 0.41767(17)
H2 H 0.87250 0.84640 0.48840
C7 C 0.9361(3) 0.9097(2) 0.36780(17)
H3 H 1.02340 0.95950 0.40460
C8 C 0.6016(3) 0.5753(2) 0.14375(17)
H4 H 0.51340 0.51870 0.11180
H5 H 0.68720 0.53050 0.19290
H6 H 0.64620 0.61100 0.09290
C9 C 0.4314(3) 0.63050(19) 0.26461(16)
H7 H 0.37380 0.55400 0.23410
C10 C 0.2978(3) 0.6984(2) 0.04227(18)
H8 H 0.24850 0.63240 0.07120
H9 H 0.35020 0.66360 -0.00530
H10 H 0.21370 0.75670 0.00750
C11 C 0.9603(3) 0.9787(3) 0.1148(2)
H11 H 0.97410 0.89570 0.09160
H12 H 1.03560 1.03480 0.09590
H13 H 0.84860 1.00620 0.08400
O3 O 0.33327(18) 0.82427(14) 0.18621(12)
C12 C 0.5358(3) 0.6017(2) 0.37166(18)
H14 H 0.46460 0.57330 0.41160
H15 H 0.61190 0.53430 0.36960
C13 C 0.3051(3) 0.7336(2) 0.25664(19)
H16 H 0.19370 0.70010 0.23210
H17 H 0.31860 0.77180 0.32280
#END
