
#######################################################################
#
#                 Cambridge Crystallographic Data Centre
#                                CCDC
#
#######################################################################
#
# If this CIF has been generated from an entry in the Cambridge
# Structural Database, then it will include bibliographic, chemical,
# crystal, experimental, refinement or atomic coordinate data resulting
# from the CCDC's data processing and validation procedures.
#
#######################################################################

data_CSD_CIF_IDEFOM
_audit_creation_date 2002-05-01
_audit_creation_method CSD-ConQuest-V1
_database_code_CSD IDEFOM
_chemical_formula_sum 'C22 H28 N2 O6'
_chemical_formula_moiety
;
C22 H28 N2 O6
;
_journal_coden_Cambridge 35
_journal_volume 65
_journal_year 2000
_journal_page_first 7786
_journal_name_full 'J.Org.Chem. '
loop_
_publ_author_name
"J.C.Racero"
"A.J.Macias-Sanchez"
"R.Hernandez-Galan"
"P.B.Hitchcock"
"J.R.Hanson"
"I.G.Collado"
_chemical_name_systematic
;
(1S,2S,5R,8S)-8-((3,5-dinitrobenzoato)methyl)-1,4,4-trimethyltricyclo(6.2.1.0^
2,5^)undecane
;
_chemical_melting_point 407.15
_cell_volume   1063.842
_exptl_crystal_density_diffrn 1.3
_exptl_special_details
;
Melting point range 407.15-410.15K

;
_diffrn_ambient_temperature 293
#These two values have been output from a single CSD field.
_refine_ls_R_factor_gt 0.063
_refine_ls_wR_factor_gt 0.063
_symmetry_cell_setting monoclinic
_symmetry_space_group_name_H-M 'P 21'
_symmetry_Int_Tables_number 4
loop_
_symmetry_equiv_pos_site_id
_symmetry_equiv_pos_as_xyz
1 x,y,z
2 -x,1/2+y,-z
_cell_length_a 9.771(3)
_cell_length_b 6.120(3)
_cell_length_c 18.254(6)
_cell_angle_alpha 90
_cell_angle_beta 102.94(2)
_cell_angle_gamma 90
_cell_formula_units_Z 2
loop_
_atom_type_symbol
_atom_type_radius_bond
C 0.68
H 0.23
N 0.68
O 0.68
loop_
_atom_site_label
_atom_site_type_symbol
_atom_site_fract_x
_atom_site_fract_y
_atom_site_fract_z
O1 O -0.0462(3) 0.2016(7) 0.2460(2)
O2 O 0.0059(4) 0.5393(8) 0.2103(2)
O3 O 0.3825(6) 0.9136(10) 0.3933(3)
O4 O 0.4181(4) 0.8348(8) 0.5104(3)
O5 O 0.1951(5) 0.1823(9) 0.5853(2)
O6 O 0.0977(4) -0.0388(7) 0.4985(2)
N1 N 0.3632(5) 0.8003(10) 0.4444(3)
N2 N 0.1533(4) 0.1345(8) 0.5196(2)
C1 C -0.5906(4) 0.0546(8) 0.1085(2)
C2 C -0.4916(4) -0.0924(9) 0.0789(2)
C3 C -0.3406(4) -0.0034(10) 0.0954(2)
C4 C -0.2763(4) 0.0857(8) 0.1745(2)
C5 C -0.2806(4) -0.0795(8) 0.2383(2)
C6 C -0.3519(4) 0.0390(8) 0.2927(2)
C7 C -0.4529(4) 0.1994(7) 0.2428(2)
C8 C -0.5732(4) 0.0639(7) 0.1939(2)
C9 C -0.7312(4) 0.1172(9) 0.1789(2)
C10 C -0.7492(4) 0.0078(9) 0.1011(2)
C11 C -0.3548(4) 0.2861(8) 0.1957(2)
C12 C -0.1255(4) 0.1435(12) 0.1717(2)
C13 C -0.5060(5) 0.3766(10) 0.2880(3)
C14 C -0.8488(4) 0.1189(12) 0.0357(3)
C15 C -0.7847(5) -0.2364(10) 0.1014(3)
C16 C 0.0147(5) 0.3984(10) 0.2570(3)
C17 C 0.0982(4) 0.4181(9) 0.3355(3)
C18 C 0.1890(5) 0.5945(9) 0.3544(3)
C19 C 0.2665(4) 0.6134(10) 0.4265(3)
C20 C 0.2575(4) 0.4696(9) 0.4821(3)
C21 C 0.1680(4) 0.2949(9) 0.4617(2)
C22 C 0.0888(4) 0.2648(9) 0.3899(2)
H1 H -0.58080 0.20320 0.09030
H2 H -0.52520 -0.10890 0.02500
H3 H -0.49140 -0.23580 0.10160
H4 H -0.33730 0.11270 0.05960
H5 H -0.28000 -0.11960 0.08510
H6 H -0.33360 -0.20870 0.21830
H7 H -0.18640 -0.12350 0.26320
H8 H -0.28360 0.11660 0.33060
H9 H -0.40290 -0.06260 0.31750
H10 H -0.56170 -0.08680 0.21240
H11 H -0.75190 0.27250 0.17650
H12 H -0.78030 0.04290 0.21230
H13 H -0.28900 0.39010 0.22430
H14 H -0.40770 0.35810 0.15090
H15 H -0.08160 0.01960 0.15300
H16 H -0.12560 0.26510 0.13770
H17 H -0.56800 0.31290 0.31610
H18 H -0.55570 0.48550 0.25450
H19 H -0.42780 0.44310 0.32200
H20 H -0.82680 0.27170 0.03550
H21 H -0.94380 0.10120 0.04100
H22 H -0.83890 0.05380 -0.01070
H23 H -0.72240 -0.30640 0.14290
H24 H -0.77410 -0.30180 0.05520
H25 H -0.87990 -0.25380 0.10630
H26 H 0.19700 0.69850 0.31850
H27 H 0.30880 0.48820 0.53120
H28 H 0.03030 0.14400 0.37820
#END
