
#######################################################################
#
#                 Cambridge Crystallographic Data Centre
#                                CCDC
#
#######################################################################
#
# If this CIF has been generated from an entry in the Cambridge
# Structural Database, then it will include bibliographic, chemical,
# crystal, experimental, refinement or atomic coordinate data resulting
# from the CCDC's data processing and validation procedures.
#
#######################################################################

data_CSD_CIF_IDIBOO
_audit_creation_date 2013-08-05
_audit_creation_method CSD-ConQuest-V1
_database_code_CSD IDIBOO
_database_code_depnum_ccdc_archive 'CCDC 947163'
_chemical_formula_sum 'C36 H24 N2 O2'
_chemical_formula_moiety
;
C36 H24 N2 O2
;
_journal_coden_Cambridge 1695
_journal_volume 1
_journal_year 2013
_journal_page_first 5694
_journal_name_full 'J.Mater.Chem.C '
loop_
_publ_author_name
"Di Jiang"
"Zheng Xue"
"Yongjun Li"
"Huibiao Liu"
"Wensheng Yang"
_chemical_name_systematic
;
4-(4-(2-(4-(9H-Carbazol-9-yl)phenyl)vinyl)benzylidene)-3-phenyl-1,2-oxazol-5(4
H)-one
;
_cell_volume   2587.120
_exptl_crystal_colour 'orange'
_exptl_crystal_density_diffrn 1.326
_exptl_crystal_description 'rodlike'
_diffrn_ambient_temperature 173
#These two values have been output from a single CSD field.
_refine_ls_R_factor_gt 0.0528
_refine_ls_wR_factor_gt 0.0528
_symmetry_cell_setting monoclinic
_symmetry_space_group_name_H-M 'P 21/n'
_symmetry_Int_Tables_number 14
loop_
_symmetry_equiv_pos_site_id
_symmetry_equiv_pos_as_xyz
1 x,y,z
2 1/2-x,1/2+y,1/2-z
3 -x,-y,-z
4 -1/2+x,-1/2-y,-1/2+z
_cell_length_a 16.6077(15)
_cell_length_b 8.2169(8)
_cell_length_c 20.052(2)
_cell_angle_alpha 90
_cell_angle_beta 109.011(11)
_cell_angle_gamma 90
_cell_formula_units_Z 4
loop_
_atom_type_symbol
_atom_type_radius_bond
C 0.68
H 0.23
N 0.68
O 0.68
loop_
_atom_site_label
_atom_site_type_symbol
_atom_site_fract_x
_atom_site_fract_y
_atom_site_fract_z
C1 C -0.15573(14) 0.6979(3) 0.15163(13)
C2 C 0.42022(15) 0.7584(3) 0.28891(13)
C3 C 0.05432(15) 0.7006(3) 0.13479(14)
C4 C -0.00197(14) 0.7617(3) 0.16708(13)
C5 C 0.74155(15) 0.8093(3) 0.45949(13)
N1 N -0.09132(11) 0.7635(3) 0.12908(11)
C6 C 0.14099(15) 0.7049(3) 0.16985(14)
C7 C -0.23453(14) 0.7203(3) 0.09739(13)
C8 C 0.56521(16) 0.7334(3) 0.28902(14)
C9 C 0.11660(15) 0.8244(3) 0.26984(15)
O1 O 0.80203(12) 0.9317(3) 0.56642(10)
C10 C 0.83405(15) 0.7990(3) 0.48357(13)
C11 C 0.17408(15) 0.7695(3) 0.23803(13)
C12 C 0.95641(15) 0.8207(3) 0.43867(14)
C13 C -0.12821(14) 0.8295(3) 0.06199(13)
C14 C -0.21720(14) 0.8058(3) 0.04066(12)
C15 C 0.59726(14) 0.7628(3) 0.36166(13)
C16 C 0.26604(15) 0.7806(3) 0.27631(15)
C17 C -0.30870(15) 0.6601(3) 0.10679(14)
C18 C 0.88202(16) 0.5665(3) 0.42436(14)
C19 C 0.53900(16) 0.7906(4) 0.39729(15)
C20 C 0.32855(16) 0.7508(3) 0.24998(15)
C21 C 0.68931(15) 0.7601(3) 0.39527(13)
C22 C 0.02905(15) 0.8216(3) 0.23427(14)
C23 C -0.30360(16) 0.5811(3) 0.16827(15)
C24 C 0.72352(17) 0.8986(3) 0.51584(14)
C25 C 0.93930(16) 0.5006(4) 0.39461(15)
C26 C -0.15035(16) 0.6183(3) 0.21290(15)
C27 C 0.47845(16) 0.7328(3) 0.25304(15)
C28 C -0.22528(17) 0.5599(4) 0.22119(16)
N2 N 0.86909(14) 0.8672(3) 0.54392(12)
C29 C 1.00439(16) 0.5944(4) 0.38651(15)
C30 C 0.89057(14) 0.7272(3) 0.44752(13)
C31 C -0.26774(16) 0.8650(3) -0.02500(14)
C32 C -0.23095(17) 0.9460(4) -0.06710(15)
C33 C 0.45215(16) 0.7887(4) 0.36114(14)
C34 C -0.09129(16) 0.9116(4) 0.01954(15)
C35 C -0.14319(17) 0.9699(4) -0.04461(15)
C36 C 1.01181(16) 0.7557(4) 0.40767(15)
O2 O 0.65959(12) 0.9483(3) 0.52578(10)
H1 H 0.1349(16) 0.868(3) 0.3139(14)
H2 H 0.2762(14) 0.818(3) 0.3219(12)
H3 H 0.4603(17) 0.721(3) 0.2014(14)
H4 H 0.5549(15) 0.818(3) 0.4437(13)
H5 H 0.6043(17) 0.717(3) 0.2610(13)
H6 H -0.0058(15) 0.864(3) 0.2581(12)
H7 H -0.3641(16) 0.672(3) 0.0692(13)
H8 H 0.4140(17) 0.814(3) 0.3885(13)
H9 H -0.2260(15) 0.504(3) 0.2602(14)
H10 H 0.3170(17) 0.720(3) 0.1993(15)
H11 H 0.1779(16) 0.655(3) 0.1433(13)
H12 H -0.3530(16) 0.534(3) 0.1805(12)
H13 H 0.9597(18) 0.939(4) 0.4574(15)
H14 H 1.0590(19) 0.829(3) 0.4020(14)
H15 H 0.0319(16) 0.656(3) 0.0883(14)
H16 H 0.8333(17) 0.501(3) 0.4323(13)
H17 H -0.3254(17) 0.846(3) -0.0390(13)
H18 H -0.2652(16) 0.991(3) -0.1113(14)
H19 H -0.0983(17) 0.601(3) 0.2511(13)
H20 H 0.7200(14) 0.718(3) 0.3626(11)
H21 H -0.0343(18) 0.925(4) 0.0338(15)
H22 H -0.1183(16) 1.024(3) -0.0761(14)
H23 H 1.0439(17) 0.540(3) 0.3595(15)
H24 H 0.9359(18) 0.377(4) 0.3776(15)
#END
