
#######################################################################
#
#                 Cambridge Crystallographic Data Centre
#                                CCDC
#
#######################################################################
#
# If this CIF has been generated from an entry in the Cambridge
# Structural Database, then it will include bibliographic, chemical,
# crystal, experimental, refinement or atomic coordinate data resulting
# from the CCDC's data processing and validation procedures.
#
#######################################################################

data_CSD_CIF_IDODEL
_audit_creation_date 2006-08-03
_audit_creation_method CSD-ConQuest-V1
_database_code_CSD IDODEL
_database_code_depnum_ccdc_archive 'CCDC 611202'
_chemical_formula_sum 'C30 H25 N5 O4'
_chemical_formula_moiety
;
C30 H25 N5 O4
;
_journal_coeditor_code "IUCr BT2086"
_journal_coden_Cambridge 1370
_journal_volume 62
_journal_year 2006
_journal_page_first o2462
_journal_name_full 'Acta Crystallogr.,Sect.E:Struct.Rep.Online '
loop_
_publ_author_name
"Xiao-Chen Yan"
"Hai-Bo Wang"
"Zhi-Qian Liu"
_chemical_name_systematic
;
1-Acetyl-3,3-bis(3-(4-methylphenyl)-1,2,4-oxadiazol-5-ylmethyl)-1H-indol-2(3H)
-one
;
_cell_volume   2658.332
_exptl_crystal_colour 'colorless'
_exptl_crystal_density_diffrn 1.298
_exptl_crystal_description 'block'
_exptl_crystal_preparation 'ethanol'
_diffrn_ambient_temperature 293
#These two values have been output from a single CSD field.
_refine_ls_R_factor_gt 0.0435
_refine_ls_wR_factor_gt 0.0435
_symmetry_cell_setting monoclinic
_symmetry_space_group_name_H-M 'C 2'
_symmetry_Int_Tables_number 5
loop_
_symmetry_equiv_pos_site_id
_symmetry_equiv_pos_as_xyz
1 x,y,z
2 -x,y,-z
3 1/2+x,1/2+y,z
4 1/2-x,1/2+y,-z
_cell_length_a 15.5510(16)
_cell_length_b 6.9695(14)
_cell_length_c 25.220(2)
_cell_angle_alpha 90
_cell_angle_beta 103.46(3)
_cell_angle_gamma 90
_cell_formula_units_Z 4
loop_
_atom_type_symbol
_atom_type_radius_bond
C 0.68
H 0.23
N 0.68
O 0.68
loop_
_atom_site_label
_atom_site_type_symbol
_atom_site_fract_x
_atom_site_fract_y
_atom_site_fract_z
O1 O 0.4685(2) 0.7002(4) 0.86621(11)
O2 O 0.78398(15) 0.4738(5) 0.74647(13)
O3 O 0.51625(15) 0.3550(4) 0.70346(11)
O4 O 0.45346(15) 0.9437(5) 0.60830(11)
N1 N 0.5095(3) 0.6260(6) 0.91871(15)
N2 N 0.50774(18) 0.4057(5) 0.85383(12)
N3 N 0.5157(2) 0.9869(6) 0.57666(13)
N4 N 0.57534(16) 0.7915(4) 0.64624(11)
N5 N 0.64051(15) 0.5322(4) 0.74468(11)
C1 C 0.7061(3) -0.0515(10) 1.0820(2)
H1 H 0.69460 -0.18280 1.07110
H2 H 0.68270 -0.02560 1.11330
H3 H 0.76880 -0.02930 1.09110
C2 C 0.6624(3) 0.0800(7) 1.03555(19)
C3 C 0.6696(4) 0.2766(8) 1.0404(2)
H4 H 0.70400 0.32920 1.07220
C4 C 0.6278(4) 0.3957(7) 0.99972(19)
H5 H 0.63340 0.52780 1.00460
C5 C 0.5776(2) 0.3244(6) 0.95161(15)
C6 C 0.5706(3) 0.1281(6) 0.94561(19)
H6 H 0.53740 0.07530 0.91340
C7 C 0.6129(3) 0.0104(7) 0.9875(2)
H7 H 0.60750 -0.12180 0.98280
C8 C 0.5322(2) 0.4530(5) 0.90796(15)
C9 C 0.4715(2) 0.5622(5) 0.83098(15)
C10 C 0.4321(2) 0.6054(6) 0.77353(15)
H8 H 0.38790 0.70470 0.77190
H9 H 0.40200 0.49150 0.75640
C11 C 0.49868(18) 0.6724(5) 0.74004(13)
C12 C 0.57251(19) 0.8004(5) 0.77020(13)
C13 C 0.5681(2) 0.9772(6) 0.79358(14)
H10 H 0.51360 1.03450 0.79220
C14 C 0.6456(2) 1.0689(6) 0.81915(15)
H11 H 0.64350 1.18880 0.83500
C15 C 0.7261(2) 0.9816(6) 0.82098(16)
H12 H 0.77790 1.04440 0.83830
C16 C 0.7320(2) 0.8019(5) 0.79763(14)
H13 H 0.78650 0.74450 0.79900
C17 C 0.65412(18) 0.7129(5) 0.77239(12)
C18 C 0.54967(19) 0.4971(5) 0.72633(13)
C19 C 0.6825(3) 0.2680(7) 0.68912(18)
H14 H 0.73480 0.21080 0.68190
H15 H 0.64600 0.31620 0.65570
H16 H 0.65030 0.17330 0.70430
C20 C 0.7080(2) 0.4284(6) 0.72852(15)
C21 C 0.4433(2) 0.7608(6) 0.68741(14)
H17 H 0.40030 0.66660 0.66950
H18 H 0.41080 0.86930 0.69690
C22 C 0.4952(2) 0.8266(6) 0.64798(13)
C23 C 0.5851(2) 0.8925(5) 0.60135(12)
C24 C 0.6695(2) 0.9026(5) 0.58370(13)
C25 C 0.6728(2) 0.9900(6) 0.53497(15)
H19 H 0.62130 1.03620 0.51200
C26 C 0.7531(3) 1.0089(7) 0.52035(17)
H20 H 0.75460 1.06810 0.48750
C27 C 0.8303(2) 0.9420(5) 0.55329(17)
C28 C 0.8259(2) 0.8507(6) 0.60107(16)
H21 H 0.87730 0.80130 0.62340
C29 C 0.7462(2) 0.8308(6) 0.61666(14)
H22 H 0.74470 0.76930 0.64920
C30 C 0.9181(3) 0.9625(8) 0.5372(2)
H23 H 0.96430 0.90850 0.56520
H24 H 0.93000 1.09590 0.53280
H25 H 0.91530 0.89600 0.50350
#END
