
#######################################################################
#
#                 Cambridge Crystallographic Data Centre
#                                CCDC
#
#######################################################################
#
# If this CIF has been generated from an entry in the Cambridge
# Structural Database, then it will include bibliographic, chemical,
# crystal, experimental, refinement or atomic coordinate data resulting
# from the CCDC's data processing and validation procedures.
#
#######################################################################

data_CSD_CIF_IDODEK
_audit_creation_date 2002-05-01
_audit_creation_method CSD-ConQuest-V1
_database_code_CSD IDODEK
_database_code_depnum_ccdc_archive 'CCDC 167063'
_chemical_formula_sum 'C24 H41 N1 O5'
_chemical_formula_moiety
;
C24 H41 N1 O5
;
_journal_coden_Cambridge 1291
_journal_year 2002
_journal_page_first 718
_journal_name_full 'Eur.J.Org.Chem. '
loop_
_publ_author_name
"U.Jahn"
"P.Hartmann"
"I.Dix"
"P.G.Jones"
_chemical_name_systematic
;
diethyl 
2-[(1E)-3-(2,2,6,6-tetramethylpiperidin-1-yloxy)but-1-en-1-yl]cyclopentane-1,1
-dicarboxylate
;
_chemical_melting_point 309.15
_cell_volume   1214.885
_exptl_crystal_colour 'colorless'
_exptl_crystal_density_diffrn 1.158
_exptl_special_details
;
Melting point range 309.15-310.15K

;
_exptl_crystal_description 'irregular prism'
_diffrn_ambient_temperature 183
#These two values have been output from a single CSD field.
_refine_ls_R_factor_gt 0.0473
_refine_ls_wR_factor_gt 0.0473
_symmetry_cell_setting triclinic
_symmetry_space_group_name_H-M 'P -1'
_symmetry_Int_Tables_number 2
loop_
_symmetry_equiv_pos_site_id
_symmetry_equiv_pos_as_xyz
1 x,y,z
2 -x,-y,-z
_cell_length_a 9.2765(10)
_cell_length_b 11.4527(14)
_cell_length_c 11.8692(14)
_cell_angle_alpha 98.597(3)
_cell_angle_beta 101.010(3)
_cell_angle_gamma 95.100(3)
_cell_formula_units_Z 2
loop_
_atom_type_symbol
_atom_type_radius_bond
C 0.68
H 0.23
N 0.68
O 0.68
loop_
_atom_site_label
_atom_site_type_symbol
_atom_site_fract_x
_atom_site_fract_y
_atom_site_fract_z
O1 O 0.76805(14) 0.26636(13) 0.75952(11)
O2 O 0.65573(13) 0.08665(12) 0.66558(12)
O3 O 0.28555(14) 0.10787(12) 0.61257(12)
O4 O 0.41145(14) 0.15839(12) 0.79734(11)
O5 O 0.85650(13) 0.23943(10) 0.2791(1)
N1 N 0.79998(15) 0.33823(12) 0.22660(12)
C1 C 0.51210(18) 0.24419(15) 0.65752(15)
C2 C 0.4981(2) 0.37334(17) 0.70813(18)
H1 H 0.47010 0.37860 0.78500
H2 H 0.59180 0.42550 0.71630
C3 C 0.3762(4) 0.4061(2) 0.6179(2)
H3 H 0.27880 0.38680 0.63760
H4 H 0.39100 0.49250 0.61630
C4 C 0.3809(2) 0.33778(19) 0.5031(2)
H5 H 0.41360 0.39170 0.45260
H6 H 0.28140 0.29660 0.46450
C5 C 0.49163(18) 0.24590(16) 0.52408(15)
H7 H 0.44740 0.16580 0.47890
C6 C 0.63442(18) 0.28274(16) 0.49108(15)
H8 H 0.67860 0.36240 0.51970
C7 C 0.70436(18) 0.21449(16) 0.42580(15)
H9 H 0.65840 0.13640 0.39210
C8 C 0.85215(19) 0.25317(17) 0.40180(15)
H10 H 0.88380 0.33830 0.43870
C9 C 0.9659(2) 0.1770(2) 0.45157(19)
H11 H 0.93360 0.09330 0.41740
H12 H 0.97600 0.18720 0.53630
H13 H 1.06150 0.20150 0.43310
C10 C 0.66112(19) 0.20337(17) 0.70329(15)
C11 C 0.7923(2) 0.0321(2) 0.6861(2)
H14 H 0.87770 0.09500 0.71100
H15 H 0.80320 -0.01690 0.61280
C12 C 0.7916(3) -0.0431(2) 0.7764(2)
H16 H 0.78770 0.00640 0.85030
H17 H 0.88180 -0.08230 0.78590
H18 H 0.70490 -0.10350 0.75310
C13 C 0.38947(19) 0.16113(15) 0.68251(16)
C14 C 0.2997(2) 0.08960(18) 0.83865(19)
H19 H 0.34760 0.05470 0.90560
H20 H 0.24940 0.02350 0.77600
C15 C 0.1885(2) 0.1649(2) 0.8749(2)
H21 H 0.23890 0.23320 0.93320
H22 H 0.11910 0.11800 0.90830
H23 H 0.13420 0.19310 0.80690
C16 C 0.6844(2) 0.28397(16) 0.12098(15)
C17 C 0.6328(2) 0.38539(17) 0.05973(16)
H24 H 0.56130 0.35130 -0.01350
H25 H 0.58010 0.43530 0.11000
C18 C 0.7568(2) 0.46367(17) 0.03143(17)
H26 H 0.71700 0.53050 -0.00340
H27 H 0.80410 0.41700 -0.02540
C19 C 0.8697(2) 0.51121(17) 0.14332(17)
H28 H 0.82320 0.56430 0.19580
H29 H 0.95310 0.55950 0.12470
C20 C 0.93061(19) 0.41370(16) 0.20781(17)
C21 C 0.5540(2) 0.22800(18) 0.16325(16)
H30 H 0.58100 0.15710 0.19540
H31 H 0.46900 0.20550 0.09780
H32 H 0.52790 0.28540 0.22380
C22 C 0.7334(2) 0.18759(17) 0.03607(17)
H33 H 0.78990 0.22560 -0.01330
H34 H 0.64590 0.13770 -0.01290
H35 H 0.79550 0.13820 0.08040
C23 C 1.0203(2) 0.47536(19) 0.32725(18)
H36 H 0.95410 0.51280 0.37300
H37 H 1.09560 0.53630 0.31700
H38 H 1.06860 0.41650 0.36820
C24 C 1.0368(2) 0.3480(2) 0.1426(2)
H39 H 1.05860 0.27640 0.17560
H40 H 1.12890 0.40050 0.15100
H41 H 0.99020 0.32530 0.05990
#END
