
#######################################################################
#
#                 Cambridge Crystallographic Data Centre
#                                CCDC
#
#######################################################################
#
# If this CIF has been generated from an entry in the Cambridge
# Structural Database, then it will include bibliographic, chemical,
# crystal, experimental, refinement or atomic coordinate data resulting
# from the CCDC's data processing and validation procedures.
#
#######################################################################

data_CSD_CIF_IDOMEV
_audit_creation_date 2013-08-06
_audit_creation_method CSD-ConQuest-V1
_database_code_CSD IDOMEV
_database_code_depnum_ccdc_archive 'CCDC 954302'
_chemical_formula_sum 'C13 H13 N1 O3'
_chemical_formula_moiety
;
C13 H13 N1 O3
;
_journal_coeditor_code "IUCr rz5055"
_journal_coden_Cambridge 1370
_journal_volume 69
_journal_year 2013
_journal_page_first o733
_journal_name_full 'Acta Crystallogr.,Sect.E:Struct.Rep.Online '
loop_
_publ_author_name
"L.Wang"
"X.-Y.Liu"
"Z.-W.Li"
"S.-Y.Zhang"
_chemical_name_systematic
;
Isopropyl 3-phenyl-1,2-oxazole-5-carboxylate
;
_chemical_name_common
;
Isopropyl 3-phenylisoxazole-5-carboxylate
;
_cell_volume   1208.945
_exptl_crystal_colour 'colorless'
_exptl_crystal_density_diffrn 1.271
_exptl_crystal_description 'block'
_diffrn_ambient_temperature 296
#These two values have been output from a single CSD field.
_refine_ls_R_factor_gt 0.0458
_refine_ls_wR_factor_gt 0.0458
_symmetry_cell_setting monoclinic
_symmetry_space_group_name_H-M 'P 21/n'
_symmetry_Int_Tables_number 14
loop_
_symmetry_equiv_pos_site_id
_symmetry_equiv_pos_as_xyz
1 x,y,z
2 1/2-x,1/2+y,1/2-z
3 -x,-y,-z
4 -1/2+x,-1/2-y,-1/2+z
_cell_length_a 4.6311(10)
_cell_length_b 16.596(4)
_cell_length_c 15.897(3)
_cell_angle_alpha 90
_cell_angle_beta 98.321(4)
_cell_angle_gamma 90
_cell_formula_units_Z 4
loop_
_atom_type_symbol
_atom_type_radius_bond
C 0.68
H 0.23
N 0.68
O 0.68
loop_
_atom_site_label
_atom_site_type_symbol
_atom_site_fract_x
_atom_site_fract_y
_atom_site_fract_z
N1 N 1.1576(4) 0.66232(10) 0.15016(9)
O1 O 1.0131(3) 0.60739(8) 0.19660(7)
O2 O 0.4550(3) 0.46825(8) 0.12822(8)
O3 O 0.6627(3) 0.50549(7) 0.25802(7)
C1 C 0.9997(5) 0.69977(13) -0.07802(12)
H1 H 0.85490 0.66150 -0.09300
C2 C 1.0757(6) 0.75230(15) -0.13884(14)
H2 H 0.98020 0.74960 -0.19440
C3 C 1.2896(6) 0.80792(14) -0.11749(17)
H3 H 1.33910 0.84330 -0.15840
C4 C 1.4315(5) 0.81193(13) -0.03635(16)
H4 H 1.57930 0.84960 -0.02220
C5 C 1.3566(5) 0.76046(12) 0.02457(14)
H5 H 1.45410 0.76360 0.07990
C6 C 1.1380(4) 0.70408(10) 0.00457(11)
C7 C 1.0454(4) 0.6523(1) 0.07063(10)
C8 C 0.8306(4) 0.59153(11) 0.06221(10)
H6 H 0.72130 0.57280 0.01240
C9 C 0.8187(4) 0.56698(10) 0.14107(10)
C10 C 0.6272(4) 0.50799(11) 0.17418(11)
C11 C 0.4715(5) 0.45151(12) 0.29747(12)
H7 H 0.27880 0.45010 0.26270
C12 C 0.4454(7) 0.48786(17) 0.38172(15)
H8 H 0.63420 0.48960 0.41580
H9 H 0.31590 0.45580 0.40990
H10 H 0.36920 0.54160 0.37380
C13 C 0.6001(6) 0.36909(14) 0.30211(16)
H11 H 0.61650 0.35050 0.24580
H12 H 0.47650 0.33310 0.32800
H13 H 0.79010 0.37050 0.33550
#END
