
#######################################################################
#
#                 Cambridge Crystallographic Data Centre
#                                CCDC
#
#######################################################################
#
# If this CIF has been generated from an entry in the Cambridge
# Structural Database, then it will include bibliographic, chemical,
# crystal, experimental, refinement or atomic coordinate data resulting
# from the CCDC's data processing and validation procedures.
#
#######################################################################

data_CSD_CIF_IDOTIG
_audit_creation_date 2013-08-06
_audit_creation_method CSD-ConQuest-V1
_database_code_CSD IDOTIG
_database_code_depnum_ccdc_archive 'CCDC 954248'
_chemical_formula_sum 'C19 H17 N1 O5'
_chemical_formula_moiety
;
C19 H17 N1 O5
;
_journal_coeditor_code "IUCr is5259"
_journal_coden_Cambridge 1370
_journal_volume 69
_journal_year 2013
_journal_page_first o664
_journal_name_full 'Acta Crystallogr.,Sect.E:Struct.Rep.Online '
loop_
_publ_author_name
"S.Paramasivam"
"J.Srinivasan"
"P.R.Seshadri"
"M.Bakthadoss"
_chemical_name_systematic
;
rac-Methyl 
3-(2-methoxyphenyl)-3a,4-dihydro-3H-chihromeno[4,3-c]isoxazole-3a-carboxylate
;
_cell_volume    845.707
_exptl_crystal_colour 'colorless'
_exptl_crystal_density_diffrn 1.333
_exptl_crystal_description 'block'
_diffrn_ambient_temperature 298
#These two values have been output from a single CSD field.
_refine_ls_R_factor_gt 0.04
_refine_ls_wR_factor_gt 0.04
_symmetry_cell_setting triclinic
_symmetry_space_group_name_H-M 'P -1'
_symmetry_Int_Tables_number 2
loop_
_symmetry_equiv_pos_site_id
_symmetry_equiv_pos_as_xyz
1 x,y,z
2 -x,-y,-z
_cell_length_a 9.4804(4)
_cell_length_b 9.6401(4)
_cell_length_c 10.7013(5)
_cell_angle_alpha 81.308(2)
_cell_angle_beta 67.801(2)
_cell_angle_gamma 69.085(2)
_cell_formula_units_Z 2
loop_
_atom_type_symbol
_atom_type_radius_bond
C 0.68
H 0.23
N 0.68
O 0.68
loop_
_atom_site_label
_atom_site_type_symbol
_atom_site_fract_x
_atom_site_fract_y
_atom_site_fract_z
C1 C 0.76808(16) 0.07314(16) 0.63411(13)
C2 C 0.7901(2) -0.0399(2) 0.55433(17)
H1 H 0.84900 -0.13760 0.56800
C3 C 0.7231(2) -0.0043(3) 0.4548(2)
H2 H 0.73550 -0.07910 0.40210
C4 C 0.6378(3) 0.1410(3) 0.4322(2)
H3 H 0.59610 0.16330 0.36300
C5 C 0.6143(2) 0.2526(2) 0.51121(16)
H4 H 0.55640 0.35000 0.49570
C6 C 0.67764(16) 0.21950(16) 0.61527(13)
C7 C 0.65159(14) 0.32946(14) 0.70800(12)
C8 C 0.70310(13) 0.27662(13) 0.82869(12)
C9 C 0.86085(15) 0.14797(14) 0.78248(14)
H5 H 0.94230 0.18210 0.71190
H6 H 0.89860 0.11030 0.85750
C10 C 0.57037(15) 0.22930(13) 0.94184(12)
C11 C 0.5050(2) 0.09585(19) 1.14593(15)
H7 H 0.44360 0.17730 1.20680
H8 H 0.55730 0.01160 1.19170
H9 H 0.43430 0.07070 1.11530
C12 C 0.70663(14) 0.42463(13) 0.86467(12)
H10 H 0.66160 0.43540 0.96290
C13 C 0.87197(14) 0.44101(14) 0.81075(13)
C14 C 0.92427(19) 0.51937(18) 0.69297(15)
H11 H 0.85570 0.56570 0.64470
C15 C 1.0783(2) 0.5294(2) 0.64626(18)
H12 H 1.11320 0.58170 0.56670
C16 C 1.1786(2) 0.4619(3) 0.7180(2)
H13 H 1.28150 0.46920 0.68660
C17 C 1.12966(19) 0.3833(2) 0.8361(2)
H14 H 1.19900 0.33780 0.88370
C18 C 0.97535(16) 0.37288(15) 0.88296(15)
C19 C 1.0138(3) 0.2223(2) 1.0745(2)
H15 H 1.10420 0.14420 1.02190
H16 H 0.95310 0.18070 1.15510
H17 H 1.05170 0.29090 1.09830
N1 N 0.59522(14) 0.47046(13) 0.69528(12)
O1 O 0.83574(12) 0.03193(10) 0.73258(10)
O2 O 0.59926(11) 0.53548(10) 0.80421(10)
O3 O 0.43272(12) 0.27371(14) 0.94996(11)
O4 O 0.62574(12) 0.13826(11) 1.03084(10)
O5 O 0.91320(14) 0.29842(12) 0.99727(11)
#END
