
#######################################################################
#
#                 Cambridge Crystallographic Data Centre
#                                CCDC
#
#######################################################################
#
# If this CIF has been generated from an entry in the Cambridge
# Structural Database, then it will include bibliographic, chemical,
# crystal, experimental, refinement or atomic coordinate data resulting
# from the CCDC's data processing and validation procedures.
#
#######################################################################

data_CSD_CIF_IDOWOO
_audit_creation_date 2006-08-03
_audit_creation_method CSD-ConQuest-V1
_database_code_CSD IDOWOO
_database_code_depnum_ccdc_archive 'CCDC 613639'
_chemical_formula_sum 'C21 H16 N2 O5'
_chemical_formula_moiety
;
C21 H16 N2 O5
;
_journal_coeditor_code "IUCr CI2078"
_journal_coden_Cambridge 1370
_journal_volume 62
_journal_year 2006
_journal_page_first o2995
_journal_name_full 'Acta Crystallogr.,Sect.E:Struct.Rep.Online '
loop_
_publ_author_name
"Cheng Guo"
"Dong-Mei Zhang"
"Qing-Gang Tang"
"Jun-Jie Zha"
_chemical_name_systematic
;
Methyl 3-amino-1-(3-nitrophenyl)-1H-naphtho(2,1-b)pyran-2-carboxylate
;
_chemical_melting_point 446
_cell_volume   1781.397
_exptl_crystal_colour 'colorless'
_exptl_crystal_density_diffrn 1.403
_exptl_special_details
;
Melting point range 446-448K

;
_exptl_crystal_description 'Block'
_exptl_crystal_preparation 'ethanol'
_diffrn_ambient_temperature 293
#These two values have been output from a single CSD field.
_refine_ls_R_factor_gt 0.0616
_refine_ls_wR_factor_gt 0.0616
_symmetry_cell_setting monoclinic
_symmetry_space_group_name_H-M 'P 21/c'
_symmetry_Int_Tables_number 14
loop_
_symmetry_equiv_pos_site_id
_symmetry_equiv_pos_as_xyz
1 x,y,z
2 -x,1/2+y,1/2-z
3 -x,-y,-z
4 x,-1/2-y,-1/2+z
_cell_length_a 12.094(2)
_cell_length_b 8.5620(17)
_cell_length_c 18.186(4)
_cell_angle_alpha 90
_cell_angle_beta 108.92(3)
_cell_angle_gamma 90
_cell_formula_units_Z 4
loop_
_atom_type_symbol
_atom_type_radius_bond
C 0.68
H 0.23
N 0.68
O 0.68
loop_
_atom_site_label
_atom_site_type_symbol
_atom_site_fract_x
_atom_site_fract_y
_atom_site_fract_z
O1 O 0.0783(2) 0.3470(3) -0.13490(12)
O2 O 0.1384(3) 0.2208(3) -0.22294(13)
O3 O 0.4631(2) 0.1599(3) -0.05165(14)
O4 O -0.1041(2) 0.3351(4) 0.0420(2)
O5 O -0.1095(2) 0.1322(4) 0.11090(16)
N1 N 0.3520(3) 0.0912(3) -0.17013(17)
H1 H 0.28880 0.08760 -0.20930
H2 H 0.41380 0.04380 -0.17200
N2 N -0.0615(2) 0.2156(4) 0.07601(18)
C1 C -0.0358(4) 0.3802(6) -0.1936(2)
H3 H -0.08400 0.43630 -0.16980
H4 H -0.07330 0.28370 -0.21460
H5 H -0.02450 0.44210 -0.23460
C2 C 0.1594(3) 0.2675(4) -0.15602(18)
C3 C 0.2661(3) 0.2512(3) -0.09329(16)
C4 C 0.3544(3) 0.1709(4) -0.10586(19)
C5 C 0.4900(3) 0.2569(3) 0.01385(18)
C6 C 0.6083(3) 0.2640(4) 0.0562(2)
H6 H 0.66220 0.20730 0.04040
C7 C 0.6444(3) 0.3539(4) 0.1207(2)
H7 H 0.72360 0.35890 0.14900
C8 C 0.5635(3) 0.4408(3) 0.14578(16)
C9 C 0.5984(3) 0.5334(4) 0.21285(18)
H8 H 0.67720 0.53820 0.24220
C10 C 0.5197(3) 0.6166(4) 0.23616(18)
H9 H 0.54470 0.67670 0.28120
C11 C 0.4020(3) 0.6113(4) 0.19236(17)
H10 H 0.34840 0.66910 0.20800
C12 C 0.3639(3) 0.5227(3) 0.12677(16)
H11 H 0.28470 0.52090 0.09840
C13 C 0.4430(2) 0.4330(3) 0.10089(15)
C14 C 0.4061(2) 0.3369(3) 0.03324(15)
C15 C 0.2796(2) 0.3182(3) -0.01415(15)
H12 H 0.24340 0.42190 -0.02160
C16 C 0.2153(2) 0.2162(3) 0.02856(14)
C17 C 0.2586(3) 0.0694(3) 0.05726(16)
H13 H 0.32890 0.03530 0.05240
C18 C 0.1991(3) -0.0260(4) 0.09276(17)
H14 H 0.22990 -0.12300 0.11170
C19 C 0.0945(3) 0.0210(4) 0.10051(16)
H15 H 0.05360 -0.04250 0.12420
C20 C 0.0529(2) 0.1659(4) 0.07174(16)
C21 C 0.1104(2) 0.2630(3) 0.03579(16)
H16 H 0.07860 0.35940 0.01650
#END
