
#######################################################################
#
#                 Cambridge Crystallographic Data Centre
#                                CCDC
#
#######################################################################
#
# If this CIF has been generated from an entry in the Cambridge
# Structural Database, then it will include bibliographic, chemical,
# crystal, experimental, refinement or atomic coordinate data resulting
# from the CCDC's data processing and validation procedures.
#
#######################################################################

data_CSD_CIF_IEFNPZ
_audit_creation_date 1977-02-08
_audit_creation_method CSD-ConQuest-V1
_database_code_CSD IEFNPZ
_chemical_formula_sum 'C20 H21 N3 O9'
_chemical_formula_moiety
;
C20 H21 N3 O9
;
_journal_coeditor_code "IUCr A13634"
_journal_coden_Cambridge 107
_journal_volume 32
_journal_year 1976
_journal_page_first 2549
_journal_name_full 'Acta Crystallogr.,Sect.B:Struct.Crystallogr.Cryst.Chem. '
loop_
_publ_author_name
"B.W.Liebich"
_chemical_name_systematic
;
4,5-bis(Methoxycarbonyl)-3-(2,3-O-isopropylidene-\b-D-erythrofuranosyl)-1-p-ni
trophenylpyrazole
;
_cell_volume   1048.129
_exptl_crystal_density_diffrn 1.417
_exptl_special_details
;
REMOVED H(C5),H(C4') BECAUSE OF LONG C-H

;
_diffrn_ambient_temperature ?
_diffrn_special_details
;
The study was carried out at room temperature,in the range 283-303K

;
#These two values have been output from a single CSD field.
_refine_ls_R_factor_gt 0.062
_refine_ls_wR_factor_gt 0.062
_symmetry_cell_setting monoclinic
_symmetry_space_group_name_H-M 'P 21'
_symmetry_Int_Tables_number 4
loop_
_symmetry_equiv_pos_site_id
_symmetry_equiv_pos_as_xyz
1 x,y,z
2 -x,1/2+y,-z
_cell_length_a 14.276(7)
_cell_length_b 12.852(6)
_cell_length_c 5.735(3)
_cell_angle_alpha 90
_cell_angle_beta 95.06(4)
_cell_angle_gamma 90
_cell_formula_units_Z 2
loop_
_atom_type_symbol
_atom_type_radius_bond
C 0.68
H 0.23
N 0.68
O 0.68
loop_
_atom_site_label
_atom_site_type_symbol
_atom_site_fract_x
_atom_site_fract_y
_atom_site_fract_z
C1 C 0.23040 0.36180 -0.32260
C2 C 0.22830 0.47000 -0.23500
C3 C 0.16400 0.08290 -0.40580
C4 C 0.10370 -0.04790 -0.66190
C5 C 0.17340 0.27750 -0.26170
C6 C 0.29240 0.54490 -0.35990
C7 C 0.19920 0.19550 -0.39070
C8 C 0.22400 0.60440 -0.53970
C9 C 0.32860 0.17230 -0.66470
C10 C 0.12910 0.54970 -0.51940
C11 C 0.35760 0.07140 -0.59860
C12 C 0.30430 0.72170 -0.29310
C13 C 0.41760 0.02070 -0.73800
C14 C 0.38140 0.76250 -0.43090
C15 C 0.44780 0.07110 -0.93060
C16 C 0.28650 0.79630 -0.09420
C17 C 0.42060 0.17060 -0.98970
C18 C 0.10580 0.28230 -0.08520
C19 C 0.35950 0.22130 -0.85150
C20 C -0.03100 0.20920 0.05110
H1 H 0.24800 0.45700 -0.05400
H2 H 0.16000 -0.08500 -0.62600
H3 H 0.06000 -0.07500 -0.51200
H4 H 0.08200 -0.05500 -0.77600
H5 H 0.36800 0.52300 -0.44100
H6 H 0.23600 0.60600 -0.73700
H7 H 0.12800 0.48300 -0.62100
H8 H 0.44100 -0.04400 -0.68600
H9 H 0.34500 0.83300 -0.56000
H10 H 0.40000 0.73700 -0.52700
H11 H 0.44400 0.80800 -0.38700
H12 H 0.23700 0.77500 -0.01000
H13 H 0.26800 0.85900 -0.15000
H14 H 0.35100 0.81700 -0.02000
H15 H 0.44200 0.19800 -1.16100
H16 H 0.33000 0.28400 -0.91500
H17 H -0.09200 0.25100 0.00800
H18 H -0.04800 0.13300 0.08000
H19 H 0.00900 0.24300 0.20800
N1 N 0.26980 0.22790 -0.52020
N2 N 0.29010 0.33180 -0.47600
N3 N 0.51510 0.01520 -1.07800
O1 O 0.54340 -0.06870 -1.00100
O2 O 0.13490 0.50990 -0.28730
O3 O 0.53880 0.06050 -1.24580
O4 O 0.32770 0.62300 -0.19750
O5 O 0.22040 0.70760 -0.43900
O6 O 0.03450 0.21760 -0.14150
O7 O 0.11410 0.33500 0.08760
O8 O 0.13570 0.05870 -0.62490
O9 O 0.16240 0.02930 -0.23930
#END
