
#######################################################################
#
#                 Cambridge Crystallographic Data Centre
#                                CCDC
#
#######################################################################
#
# If this CIF has been generated from an entry in the Cambridge
# Structural Database, then it will include bibliographic, chemical,
# crystal, experimental, refinement or atomic coordinate data resulting
# from the CCDC's data processing and validation procedures.
#
#######################################################################

data_CSD_CIF_IFAYEV01
_audit_creation_date 2013-08-08
_audit_creation_method CSD-ConQuest-V1
_database_code_CSD IFAYEV01
_database_code_depnum_ccdc_archive 'CCDC 913292'
_chemical_formula_sum 'C5 H8 N4 O1'
_chemical_formula_moiety
;
C5 H8 N4 O1
;
_journal_coden_Cambridge 1078
_journal_year 2013
_journal_name_full 'CSD Communication(Private Communication) '
loop_
_publ_author_name
"C.Froschauer"
"H.Schottenberger"
"R.Salchner"
"V.Kahlenberg"
"G.Laus"
"T.S.Hofer"
_chemical_name_systematic
;
1,3-Dimethyl-N-nitroso-1,3-dihydro-2H-imidazol-2-imine
;
_cell_volume    644.563
_exptl_crystal_colour 'yellow'
_exptl_crystal_density_diffrn 1.444
_exptl_crystal_description 'platy'
_diffrn_ambient_temperature 173
#These two values have been output from a single CSD field.
_refine_ls_R_factor_gt 0.0376
_refine_ls_wR_factor_gt 0.0376
_symmetry_cell_setting monoclinic
_symmetry_space_group_name_H-M 'P 21/c'
_symmetry_Int_Tables_number 14
loop_
_symmetry_equiv_pos_site_id
_symmetry_equiv_pos_as_xyz
1 x,y,z
2 -x,1/2+y,1/2-z
3 -x,-y,-z
4 x,-1/2-y,-1/2+z
_cell_length_a 6.0051(4)
_cell_length_b 14.4828(8)
_cell_length_c 7.4482(6)
_cell_angle_alpha 90
_cell_angle_beta 95.708(7)
_cell_angle_gamma 90
_cell_formula_units_Z 4
loop_
_atom_type_symbol
_atom_type_radius_bond
C 0.68
H 0.23
N 0.68
O 0.68
loop_
_atom_site_label
_atom_site_type_symbol
_atom_site_fract_x
_atom_site_fract_y
_atom_site_fract_z
O1 O 0.20375(17) 0.06310(7) 0.19165(15)
N1 N 0.73529(19) 0.19954(8) 0.45374(15)
N2 N 0.55755(18) 0.32514(8) 0.36793(15)
N3 N 0.3598(2) 0.19092(8) 0.27657(18)
N4 N 0.3706(2) 0.10244(9) 0.2714(2)
C1 C 0.5449(2) 0.23226(9) 0.36297(18)
C2 C 0.3806(2) 0.38704(10) 0.2914(2)
H1 H 0.33920 0.37080 0.16470
H2 H 0.43440 0.45090 0.29900
H3 H 0.24950 0.38090 0.35900
C3 C 0.7572(2) 0.35147(10) 0.46214(19)
H4 H 0.80710 0.41300 0.48530
C4 C 0.8674(2) 0.27398(10) 0.5149(2)
H5 H 1.01030 0.27070 0.58200
C5 C 0.8082(3) 0.10355(10) 0.4776(2)
H6 H 0.68310 0.06580 0.51050
H7 H 0.93190 0.10010 0.57360
H8 H 0.85840 0.08050 0.36460
#END
