
#######################################################################
#
#                 Cambridge Crystallographic Data Centre
#                                CCDC
#
#######################################################################
#
# If this CIF has been generated from an entry in the Cambridge
# Structural Database, then it will include bibliographic, chemical,
# crystal, experimental, refinement or atomic coordinate data resulting
# from the CCDC's data processing and validation procedures.
#
#######################################################################

data_CSD_CIF_IFAYAR
_audit_creation_date 2013-08-07
_audit_creation_method CSD-ConQuest-V1
_database_code_CSD IFAYAR
_database_code_depnum_ccdc_archive 'CCDC 954645'
_chemical_formula_sum 'C19 H20 N4 O1'
_chemical_formula_moiety
;
C19 H20 N4 O1
;
_journal_coden_Cambridge 4
_journal_volume 135
_journal_year 2013
_journal_page_first 9486
_journal_name_full 'J.Am.Chem.Soc. '
loop_
_publ_author_name
"A.G.Tskhovrebov"
"B.Vuichoud"
"E.Solari"
"R.Scopelliti"
"K.Severin"
_chemical_name_systematic
;
1,3-bis(2,6-Dimethylphenyl)-N-nitroso-1,3-dihydro-2H-imidazol-2-imine
;
_cell_volume   1706.766
_exptl_crystal_colour 'yellow'
_exptl_crystal_density_diffrn 1.247
_exptl_crystal_description 'prismatic'
_diffrn_ambient_temperature 140
#These two values have been output from a single CSD field.
_refine_ls_R_factor_gt 0.0814
_refine_ls_wR_factor_gt 0.0814
_symmetry_cell_setting monoclinic
_symmetry_space_group_name_H-M 'P 21/n'
_symmetry_Int_Tables_number 14
loop_
_symmetry_equiv_pos_site_id
_symmetry_equiv_pos_as_xyz
1 x,y,z
2 1/2-x,1/2+y,1/2-z
3 -x,-y,-z
4 -1/2+x,-1/2-y,-1/2+z
_cell_length_a 8.2250(16)
_cell_length_b 15.862(3)
_cell_length_c 13.308(3)
_cell_angle_alpha 90
_cell_angle_beta 100.57(3)
_cell_angle_gamma 90
_cell_formula_units_Z 4
loop_
_atom_type_symbol
_atom_type_radius_bond
C 0.68
H 0.23
N 0.68
O 0.68
loop_
_atom_site_label
_atom_site_type_symbol
_atom_site_fract_x
_atom_site_fract_y
_atom_site_fract_z
O1 O 0.3471(4) 0.3532(2) 0.1812(2)
N1 N 0.3730(5) 0.1050(2) 0.1178(3)
N2 N 0.3223(4) 0.0785(2) 0.2703(3)
N3 N 0.3160(6) 0.2242(3) 0.2265(3)
N4 N 0.3674(6) 0.2768(3) 0.1675(3)
C1 C 0.3388(5) 0.1423(3) 0.2037(3)
C2 C 0.3754(6) 0.0173(3) 0.1330(4)
H1 H 0.39660 -0.02380 0.08500
C3 C 0.3430(6) 0.0008(3) 0.2259(3)
H2 H 0.33570 -0.05320 0.25560
C4 C 0.3960(6) 0.1435(3) 0.0221(3)
C5 C 0.5573(5) 0.1650(3) 0.0121(3)
C6 C 0.5799(6) 0.1969(3) -0.0816(3)
H3 H 0.68740 0.21320 -0.09060
C7 C 0.4465(6) 0.2054(3) -0.1624(3)
H4 H 0.46460 0.22580 -0.22660
C8 C 0.2888(6) 0.1843(3) -0.1500(3)
H5 H 0.19930 0.19140 -0.20560
C9 C 0.2576(6) 0.1528(3) -0.0570(3)
C10 C 0.7012(6) 0.1531(3) 0.1001(4)
H6 H 0.80160 0.17720 0.08170
H7 H 0.71800 0.09280 0.11440
H8 H 0.67710 0.18170 0.16100
C11 C 0.0857(6) 0.1311(4) -0.0416(4)
H9 H 0.05640 0.16650 0.01270
H10 H 0.08160 0.07160 -0.02220
H11 H 0.00700 0.14100 -0.10530
C12 C 0.2930(6) 0.0915(3) 0.3744(3)
C13 C 0.1315(5) 0.0826(3) 0.3922(3)
C14 C 0.1081(6) 0.0960(3) 0.4928(3)
H12 H 0.00050 0.09060 0.50860
C15 C 0.2406(7) 0.1171(3) 0.5698(3)
H13 H 0.22240 0.12600 0.63740
C16 C 0.3989(6) 0.1254(3) 0.5489(3)
H14 H 0.48780 0.14010 0.60220
C17 C 0.4288(6) 0.1122(3) 0.4503(3)
C18 C -0.0101(6) 0.0591(3) 0.3066(3)
H15 H -0.00270 0.09250 0.24560
H16 H -0.11560 0.07070 0.32810
H17 H -0.00330 -0.00100 0.29090
C19 C 0.6024(6) 0.1188(3) 0.4281(4)
H18 H 0.68030 0.12940 0.49200
H19 H 0.60760 0.16540 0.38040
H20 H 0.63160 0.06600 0.39770
#END
