
#######################################################################
#
#                 Cambridge Crystallographic Data Centre
#                                CCDC
#
#######################################################################
#
# If this CIF has been generated from an entry in the Cambridge
# Structural Database, then it will include bibliographic, chemical,
# crystal, experimental, refinement or atomic coordinate data resulting
# from the CCDC's data processing and validation procedures.
#
#######################################################################

data_CSD_CIF_IFIGAF
_audit_creation_date 2002-09-05
_audit_creation_method CSD-ConQuest-V1
_database_code_CSD IFIGAF
_database_code_depnum_ccdc_archive 'CCDC 188625'
_chemical_formula_sum 'C18 H16 N4 O3'
_chemical_formula_moiety
;
C18 H16 N4 O3
;
_journal_coeditor_code "IUCr SK1553"
_journal_coden_Cambridge 591
_journal_volume 58
_journal_year 2002
_journal_page_first o355
_journal_name_full 'Acta Crystallogr.,Sect.C:Cryst.Struct.Commun. '
loop_
_publ_author_name
"A.Quesada"
"J.N.Low"
"M.Melguizo"
"M.Nogueras"
"C.Glidewell"
_chemical_name_systematic
;
2-Amino-4,6-bis(benzyloxy)-5-nitrosopyrimidine
;
_cell_volume   1738.938
_exptl_crystal_colour 'blue'
_exptl_crystal_density_diffrn 1.285
_exptl_crystal_description 'needle'
_exptl_crystal_preparation 'acetone'
_diffrn_ambient_temperature 298
#These two values have been output from a single CSD field.
_refine_ls_R_factor_gt 0.063
_refine_ls_wR_factor_gt 0.063
_symmetry_cell_setting monoclinic
_symmetry_space_group_name_H-M 'P 21/c'
_symmetry_Int_Tables_number 14
loop_
_symmetry_equiv_pos_site_id
_symmetry_equiv_pos_as_xyz
1 x,y,z
2 x,1/2-y,1/2+z
3 -x,-y,-z
4 -x,-1/2+y,-1/2-z
_cell_length_a 11.0731(5)
_cell_length_b 7.3642(3)
_cell_length_c 22.9129(11)
_cell_angle_alpha 90
_cell_angle_beta 111.456(2)
_cell_angle_gamma 90
_cell_formula_units_Z 4
loop_
_atom_type_symbol
_atom_type_radius_bond
C 0.68
H 0.23
N 0.68
O 0.68
loop_
_atom_site_label
_atom_site_type_symbol
_atom_site_fract_x
_atom_site_fract_y
_atom_site_fract_z
N1 N 0.2250(3) -0.1634(3) 0.00421(13)
C1 C 0.1619(3) -0.1771(5) 0.04435(17)
N2 N 0.1348(3) -0.3428(4) 0.05732(14)
N3 N 0.1232(3) -0.0393(3) 0.07247(12)
C2 C 0.1563(3) 0.1226(4) 0.05998(15)
O1 O 0.1272(2) 0.2660(3) 0.08853(10)
C3 C 0.0702(4) 0.2280(4) 0.13540(17)
C4 C 0.0557(4) 0.4087(4) 0.16239(17)
C5 C -0.0578(4) 0.5044(5) 0.13773(17)
C6 C -0.0697(4) 0.6740(5) 0.1610(2)
C7 C 0.0316(6) 0.7469(6) 0.2091(2)
C8 C 0.1440(5) 0.6533(6) 0.2343(2)
C9 C 0.1576(4) 0.4845(5) 0.21121(18)
C10 C 0.2240(3) 0.1590(4) 0.01983(14)
N4 N 0.2524(3) 0.3375(4) 0.01281(13)
O2 O 0.3201(2) 0.3712(3) -0.01890(12)
C11 C 0.2565(3) 0.0008(4) -0.00656(15)
O3 O 0.3226(2) 0.0224(3) -0.04448(11)
C12 C 0.3601(4) -0.1411(5) -0.06850(19)
C13 C 0.4320(4) -0.0870(6) -0.10946(18)
C14 C 0.4577(4) 0.0886(7) -0.11957(18)
C15 C 0.5258(5) 0.1308(9) -0.1582(2)
C16 C 0.5695(6) -0.0060(13) -0.1862(3)
C17 C 0.5435(6) -0.1804(12) -0.1766(3)
C18 C 0.4765(4) -0.2256(7) -0.1381(2)
H1 H 0.15720 -0.43460 0.04040
H2 H 0.09460 -0.35920 0.08270
H3 H 0.12630 0.14900 0.16790
H4 H -0.01370 0.16970 0.11620
H5 H -0.12740 0.45500 0.10510
H6 H -0.14690 0.73830 0.14380
H7 H 0.02350 0.86100 0.22460
H8 H 0.21260 0.70310 0.26730
H9 H 0.23540 0.42150 0.22860
H10 H 0.28370 -0.21090 -0.09240
H11 H 0.41490 -0.21560 -0.03410
H12 H 0.42930 0.18180 -0.10040
H13 H 0.54170 0.25140 -0.16500
H14 H 0.61640 0.02120 -0.21150
H15 H 0.57140 -0.27260 -0.19640
H16 H 0.46120 -0.34660 -0.13150
#END
