
#######################################################################
#
#                 Cambridge Crystallographic Data Centre
#                                CCDC
#
#######################################################################
#
# If this CIF has been generated from an entry in the Cambridge
# Structural Database, then it will include bibliographic, chemical,
# crystal, experimental, refinement or atomic coordinate data resulting
# from the CCDC's data processing and validation procedures.
#
#######################################################################

data_CSD_CIF_IFOFIT
_audit_creation_date 2008-12-02
_audit_creation_method CSD-ConQuest-V1
_database_code_CSD IFOFIT
_database_code_depnum_ccdc_archive 'CCDC 682983'
_chemical_formula_sum 'C23 H23 N1 O1'
_chemical_formula_moiety
;
C23 H23 N1 O1
;
_journal_coden_Cambridge 182
_journal_year 2008
_journal_page_first 3522
_journal_name_full 'Chem.Commun. '
loop_
_publ_author_name
"Jun Yong Kang"
"A.Bugarin"
"B.T.Connell"
_chemical_name_systematic
;
2-Phenyl-3,5-bis(o-tolyl)isoxazolidine
;
_cell_volume   1782.588
_exptl_crystal_colour 'colorless'
_exptl_crystal_density_diffrn 1.228
_exptl_crystal_description 'block'
_diffrn_ambient_temperature 140
#These two values have been output from a single CSD field.
_refine_ls_R_factor_gt 0.0548
_refine_ls_wR_factor_gt 0.0548
_symmetry_cell_setting monoclinic
_symmetry_space_group_name_H-M 'C c'
_symmetry_Int_Tables_number 9
loop_
_symmetry_equiv_pos_site_id
_symmetry_equiv_pos_as_xyz
1 x,y,z
2 x,-y,1/2+z
3 1/2+x,1/2+y,z
4 1/2+x,1/2-y,1/2+z
_cell_length_a 11.227(7)
_cell_length_b 32.76(2)
_cell_length_c 5.358(3)
_cell_angle_alpha 90
_cell_angle_beta 115.235(8)
_cell_angle_gamma 90
_cell_formula_units_Z 4
loop_
_atom_type_symbol
_atom_type_radius_bond
C 0.68
H 0.23
N 0.68
O 0.68
loop_
_atom_site_label
_atom_site_type_symbol
_atom_site_fract_x
_atom_site_fract_y
_atom_site_fract_z
C1 C 0.2185(4) 0.18952(10) 0.9957(7)
H1 H 0.30600 0.18540 1.15570
C2 C 0.1127(4) 0.16421(11) 1.0297(7)
H2 H 0.02370 0.17460 0.91000
H3 H 0.12470 0.16440 1.22380
C3 C 0.1329(3) 0.12118(11) 0.9418(7)
H4 H 0.19520 0.10560 1.10610
C4 C 0.0070(4) 0.09757(11) 0.7994(8)
C5 C -0.0843(4) 0.10982(13) 0.5373(9)
H5 H -0.06370 0.13290 0.45530
C6 C -0.2019(5) 0.09032(15) 0.3925(10)
H6 H -0.25970 0.09900 0.21190
C7 C -0.2337(4) 0.05838(14) 0.5127(10)
H7 H -0.31600 0.04510 0.41670
C8 C -0.1503(4) 0.04489(12) 0.7684(10)
H8 H -0.17520 0.02210 0.84560
C9 C -0.0261(4) 0.06420(11) 0.9231(8)
C10 C 0.0615(5) 0.04825(14) 1.194(1)
H9 H 0.14360 0.03880 1.19030
H10 H 0.01870 0.02540 1.24120
H11 H 0.08110 0.06980 1.33260
C11 C 0.1873(3) 0.23451(11) 0.9450(7)
C12 C 0.0971(4) 0.24710(11) 0.6832(8)
H12 H 0.05920 0.22770 0.53910
C13 C 0.0630(4) 0.28788(12) 0.6335(8)
H13 H 0.00230 0.29640 0.45480
C14 C 0.1163(4) 0.31610(12) 0.8411(8)
H14 H 0.09210 0.34400 0.80680
C15 C 0.2056(4) 0.30367(12) 1.1007(8)
H15 H 0.24270 0.32350 1.24270
C16 C 0.2425(4) 0.26279(11) 1.1598(7)
C17 C 0.3393(4) 0.25070(12) 1.4426(7)
H16 H 0.35430 0.27380 1.56910
H17 H 0.42260 0.24290 1.43810
H18 H 0.30440 0.22750 1.50630
C18 C 0.3055(3) 0.10544(11) 0.7775(7)
C19 C 0.3129(4) 0.06458(12) 0.8566(8)
H19 H 0.24890 0.05360 0.91000
C20 C 0.4127(4) 0.04032(12) 0.8571(8)
H20 H 0.41620 0.01240 0.90760
C21 C 0.5090(4) 0.05603(12) 0.7847(8)
H21 H 0.57930 0.03930 0.79050
C22 C 0.5005(4) 0.09618(12) 0.7047(8)
H22 H 0.56510 0.10700 0.65260
C23 C 0.4000(3) 0.12118(12) 0.6982(7)
H23 H 0.39520 0.14880 0.64050
N1 N 0.1953(3) 0.12908(9) 0.7496(6)
O1 O 0.2182(2) 0.17236(7) 0.7452(4)
#END
