
#######################################################################
#
#                 Cambridge Crystallographic Data Centre
#                                CCDC
#
#######################################################################
#
# If this CIF has been generated from an entry in the Cambridge
# Structural Database, then it will include bibliographic, chemical,
# crystal, experimental, refinement or atomic coordinate data resulting
# from the CCDC's data processing and validation procedures.
#
#######################################################################

data_CSD_CIF_IFOFOY
_audit_creation_date 2002-09-05
_audit_creation_method CSD-ConQuest-V1
_database_code_CSD IFOFOY
_database_code_depnum_ccdc_archive 'CCDC 189224'
_chemical_formula_sum 'C24 H22 N2 O7'
_chemical_formula_moiety
;
C24 H22 N2 O7
;
_journal_coden_Cambridge 1336
_journal_volume 4
_journal_year 2002
_journal_page_first 885
_journal_name_full 'Org.Lett. '
loop_
_publ_author_name
"Y.Koseki"
"H.Sato"
"Y.Watanabe"
"T.Nagasaka"
_chemical_name_systematic
;
2-(4-Nitrobenzoato-O)-1,2,3,5,6,8,9,14b-octahydro-4H-cyclopenta(a)-1,3-dioxolo
(4,5-h)pyrrolo(2,1-b)(3)-benzazepin-7-one
;
_cell_volume   2131.769
_exptl_crystal_colour 'colorless'
_exptl_crystal_density_diffrn 1.404
_exptl_crystal_description 'prism'
_diffrn_ambient_temperature 150
#These two values have been output from a single CSD field.
_refine_ls_R_factor_gt 0.055
_refine_ls_wR_factor_gt 0.055
_symmetry_cell_setting monoclinic
_symmetry_space_group_name_H-M 'P 21/a'
_symmetry_Int_Tables_number 14
loop_
_symmetry_equiv_pos_site_id
_symmetry_equiv_pos_as_xyz
1 x,y,z
2 1/2+x,1/2-y,z
3 -x,-y,-z
4 -1/2-x,-1/2+y,-z
_cell_length_a 9.621(1)
_cell_length_b 12.799(1)
_cell_length_c 17.359(3)
_cell_angle_alpha 90
_cell_angle_beta 94.223(9)
_cell_angle_gamma 90
_cell_formula_units_Z 4
loop_
_atom_type_symbol
_atom_type_radius_bond
C 0.68
H 0.23
N 0.68
O 0.68
loop_
_atom_site_label
_atom_site_type_symbol
_atom_site_fract_x
_atom_site_fract_y
_atom_site_fract_z
C1 C 0.5141(3) -0.1113(2) 0.8243(2)
C2 C 0.4132(3) -0.1112(2) 0.7521(2)
C3 C 0.4056(3) 0.0015(2) 0.7226(2)
C4 C 0.5149(3) 0.0603(2) 0.7754(2)
C5 C 0.6579(3) 0.0618(2) 0.7410(2)
C6 C 0.6558(4) 0.1659(2) 0.6975(2)
C7 C 0.5653(3) 0.2339(2) 0.7426(2)
C8 C 0.3982(3) 0.2102(2) 0.8427(2)
C9 C 0.4644(4) 0.2132(2) 0.9224(2)
C10 C 0.5831(3) 0.1399(2) 0.9490(2)
C11 C 0.6688(3) 0.1746(2) 1.0127(2)
C12 C 0.7683(3) 0.1086(2) 1.0441(2)
C13 C 0.7876(3) 0.0115(2) 1.0146(2)
C14 C 0.7086(3) -0.0248(2) 0.9516(2)
C15 C 0.6037(3) 0.0401(2) 0.9180(2)
C16 C 0.5078(3) 0.0015(2) 0.8521(2)
C17 C 0.9360(4) 0.0294(3) 1.1192(2)
C18 C 0.4475(3) -0.2816(2) 0.7022(2)
C19 C 0.5229(3) -0.3441(2) 0.6460(2)
C20 C 0.6042(4) -0.2979(2) 0.5932(2)
C21 C 0.6793(4) -0.3593(3) 0.5451(2)
C22 C 0.6678(4) -0.4657(2) 0.5525(2)
C23 C 0.5891(4) -0.5131(2) 0.6033(2)
C24 C 0.5145(3) -0.4521(2) 0.6510(2)
H1 H 0.4858(2) -0.1597(2) 0.8624(1)
H2 H 0.6065(4) -0.1288(3) 0.8113(2)
H3 H 0.3231(3) -0.1343(2) 0.7654(1)
H4 H 0.3144(3) 0.0303(2) 0.7270(2)
H5 H 0.4276(3) 0.0049(2) 0.6696(1)
H6 H 0.6687(2) 0.0033(1) 0.7074(1)
H7 H 0.7321(3) 0.0610(2) 0.7811(1)
H8 H 0.7477(4) 0.1946(2) 0.6957(2)
H9 H 0.6156(5) 0.1565(2) 0.6457(2)
H10 H 0.31670 0.16690 0.84190
H11 H 0.37060 0.28030 0.82900
H12 H 0.49690 0.28330 0.93190
H13 H 0.39120 0.19840 0.95550
H14 H 0.65680 0.24310 1.03380
H15 H 0.72420 -0.09270 0.93040
H16 H 0.42220 0.01530 0.87530
H17 H 1.03480 0.04120 1.11940
H18 H 0.91510 -0.00080 1.16760
H19 H 0.60600 -0.22310 0.58910
H20 H 0.73730 -0.32870 0.50850
H21 H 0.58530 -0.58800 0.60590
H22 H 0.45770 -0.48400 0.68760
N1 N 0.48750 0.17210 0.78410
N2 N 0.75540 -0.53100 0.50330
O1 O 0.56090 0.33050 0.74230
O2 O 0.85970 0.12540 1.10760
O3 O 0.89190 -0.04010 1.05830
O4 O 0.46570 -0.17910 0.69320
O5 O 0.38000 -0.31910 0.75120
O6 O 0.81770 -0.49170 0.45470
O7 O 0.74970 -0.62410 0.51370
#END
