
#######################################################################
#
#                 Cambridge Crystallographic Data Centre
#                                CCDC
#
#######################################################################
#
# If this CIF has been generated from an entry in the Cambridge
# Structural Database, then it will include bibliographic, chemical,
# crystal, experimental, refinement or atomic coordinate data resulting
# from the CCDC's data processing and validation procedures.
#
#######################################################################

data_CSD_CIF_IFOSII
_audit_creation_date 2018-08-09
_audit_creation_method CSD-ConQuest-V1
_database_code_CSD IFOSII
_database_code_depnum_ccdc_archive 'CCDC 1837163'
_chemical_formula_sum 'C25 H22 N4 O6'
_chemical_formula_moiety
;
C25 H22 N4 O6
;
_journal_coden_Cambridge 177
_journal_volume 16
_journal_year 2018
_journal_page_first 6096
_journal_name_full 'Org.Biomol.Chem. '
loop_
_publ_author_name
"Xing Gao"
"Chunhui Shan"
"Zhihao Chen"
"Yan Liu"
"Xia Zhao"
"Ao Zhang"
"Peng Yu"
"H.Galons"
"Yu Lan"
"Kui Lu"
_chemical_name_systematic
;
methyl 
[2-(benzylcarbamoyl)-1-(4-nitrophenyl)-4-oxo-2-(pyridin-2-yl)azetidin-3-yl]ace
tate
;
_cell_volume   2235.997
_exptl_crystal_colour 'colorless'
_exptl_crystal_density_diffrn 1.409
_exptl_crystal_description 'block'
_diffrn_ambient_temperature 100
_diffrn_special_details
;
twin

;
#These two values have been output from a single CSD field.
_refine_ls_R_factor_gt 0.0527
_refine_ls_wR_factor_gt 0.0527
_symmetry_cell_setting monoclinic
_symmetry_space_group_name_H-M 'P 21/c'
_symmetry_Int_Tables_number 14
loop_
_symmetry_equiv_pos_site_id
_symmetry_equiv_pos_as_xyz
1 x,y,z
2 -x,1/2+y,1/2-z
3 -x,-y,-z
4 x,-1/2-y,-1/2+z
_cell_length_a 7.6583(9)
_cell_length_b 11.7333(12)
_cell_length_c 25.007(2)
_cell_angle_alpha 90
_cell_angle_beta 95.687(11)
_cell_angle_gamma 90
_cell_formula_units_Z 4
loop_
_atom_type_symbol
_atom_type_radius_bond
C 0.68
H 0.23
N 0.68
O 0.68
loop_
_atom_site_label
_atom_site_type_symbol
_atom_site_fract_x
_atom_site_fract_y
_atom_site_fract_z
O1 O 0.4116(4) 0.93597(18) 0.70332(9)
O2 O 0.3937(4) 0.80800(19) 0.76454(9)
O3 O 0.7727(4) 0.59010(19) 0.50705(9)
O4 O 0.9551(3) 0.16223(19) 0.54015(10)
O5 O 0.6929(3) 0.11664(18) 0.49737(9)
O6 O 1.0276(3) 0.49350(19) 0.64796(10)
N1 N 0.7119(4) 0.5116(2) 0.58974(10)
N2 N 0.4290(4) 0.8374(2) 0.71956(11)
N3 N 0.9795(4) 0.3147(2) 0.67656(10)
H1 H 0.91600 0.25440 0.67150
N4 N 0.6886(4) 0.2080(2) 0.63006(10)
C1 C 0.4971(5) 0.7525(3) 0.68525(12)
C2 C 0.5336(5) 0.6440(3) 0.70558(13)
H2 H 0.50940 0.62510 0.74020
C3 C 0.6057(5) 0.5654(3) 0.67373(13)
H3 H 0.63090 0.49250 0.68690
C4 C 0.6418(5) 0.5937(3) 0.62169(12)
C5 C 0.6037(5) 0.7033(2) 0.60150(13)
H4 H 0.62620 0.72240 0.56670
C6 C 0.5324(5) 0.7824(3) 0.63373(13)
H5 H 0.50800 0.85570 0.62100
C7 C 0.7760(5) 0.5159(3) 0.54037(13)
C8 C 0.8473(5) 0.3947(3) 0.54561(12)
H6 H 0.97560 0.39260 0.54740
C9 C 0.7791(5) 0.3959(3) 0.60359(13)
C10 C 0.7619(5) 0.3113(3) 0.50449(12)
H7 H 0.63540 0.31670 0.50400
H8 H 0.79290 0.33200 0.46910
C11 C 0.8180(5) 0.1902(3) 0.51657(13)
C12 C 0.7345(5) -0.0025(3) 0.50764(16)
H9 H 0.63980 -0.04910 0.49210
H10 H 0.75120 -0.01540 0.54570
H11 H 0.84010 -0.02170 0.49200
C13 C 0.6346(5) 0.3113(3) 0.61174(12)
C14 C 0.4600(5) 0.3360(3) 0.59717(13)
H12 H 0.42690 0.40820 0.58450
C15 C 0.3352(5) 0.2528(3) 0.60156(13)
H13 H 0.21730 0.26750 0.59140
C16 C 0.3893(5) 0.1466(3) 0.62144(13)
H14 H 0.30850 0.08880 0.62540
C17 C 0.5652(5) 0.1293(3) 0.63503(13)
H15 H 0.60080 0.05830 0.64860
C18 C 0.9397(5) 0.4059(3) 0.64615(13)
C19 C 1.1272(5) 0.3134(3) 0.71812(13)
H16 H 1.21260 0.36970 0.70940
H17 H 1.18310 0.23920 0.71840
C20 C 1.0730(5) 0.3381(3) 0.77330(13)
C21 C 1.0817(5) 0.4477(3) 0.79382(14)
H18 H 1.12380 0.50640 0.77370
C22 C 1.0285(5) 0.4710(3) 0.84390(14)
H19 H 1.03460 0.54490 0.85740
C23 C 0.9660(5) 0.3833(3) 0.87392(14)
H20 H 0.92900 0.39860 0.90750
C24 C 0.9586(5) 0.2733(3) 0.85420(13)
H21 H 0.91700 0.21450 0.87440
C25 C 1.0133(5) 0.2514(3) 0.80420(13)
H22 H 1.00990 0.17710 0.79110
#END
