
#######################################################################
#
#                 Cambridge Crystallographic Data Centre
#                                CCDC
#
#######################################################################
#
# If this CIF has been generated from an entry in the Cambridge
# Structural Database, then it will include bibliographic, chemical,
# crystal, experimental, refinement or atomic coordinate data resulting
# from the CCDC's data processing and validation procedures.
#
#######################################################################

data_CSD_CIF_IFUNII
_audit_creation_date 2013-08-07
_audit_creation_method CSD-ConQuest-V1
_database_code_CSD IFUNII
_database_code_depnum_ccdc_archive 'CCDC 923456'
_chemical_formula_sum 'C24 H26 N2 O6'
_chemical_formula_moiety
;
C24 H26 N2 O6
;
_journal_coden_Cambridge 1366
_journal_volume 355
_journal_year 2013
_journal_page_first 1881
_journal_name_full 'Adv.Synth.Catal. '
loop_
_publ_author_name
"G.Rassu"
"V.Zambrano"
"L.Pinna"
"C.Curti"
"L.Battistini"
"A.Sartori"
"G.Pelosi"
"F.Zanardi"
"G.Casiraghi"
_chemical_name_systematic
;
(Z)-1-Methoxycarbonyl-3-((4R,5R)-5-(4-methoxyphenyl)-4-methyl-6-nitrohexan-3-y
lidene)indolin-2-one
;
_chemical_melting_point 432
_cell_volume   2252.253
_exptl_crystal_colour 'colorless'
_exptl_crystal_density_diffrn 1.293
_exptl_crystal_description 'prism'
_diffrn_ambient_temperature 293
#These two values have been output from a single CSD field.
_refine_ls_R_factor_gt 0.0336
_refine_ls_wR_factor_gt 0.0336
_symmetry_cell_setting orthorhombic
_symmetry_space_group_name_H-M 'P 21 21 21'
_symmetry_Int_Tables_number 19
loop_
_symmetry_equiv_pos_site_id
_symmetry_equiv_pos_as_xyz
1 x,y,z
2 1/2-x,-y,1/2+z
3 1/2+x,1/2-y,-z
4 -x,1/2+y,1/2-z
_cell_length_a 9.2410(6)
_cell_length_b 10.9000(8)
_cell_length_c 22.3600(15)
_cell_angle_alpha 90
_cell_angle_beta 90
_cell_angle_gamma 90
_cell_formula_units_Z 4
loop_
_atom_type_symbol
_atom_type_radius_bond
C 0.68
H 0.23
N 0.68
O 0.68
loop_
_atom_site_label
_atom_site_type_symbol
_atom_site_fract_x
_atom_site_fract_y
_atom_site_fract_z
C1 C 0.19314(16) 0.19818(12) 0.65218(6)
C2 C 0.07050(15) 0.11524(12) 0.67048(6)
C3 C -0.05536(16) 0.15418(13) 0.63441(7)
C4 C -0.19956(19) 0.11726(18) 0.63238(9)
C5 C -0.2949(2) 0.1735(2) 0.59265(10)
C6 C -0.2466(2) 0.26345(19) 0.55477(9)
C7 C -0.1049(2) 0.30364(18) 0.55611(8)
C8 C -0.01141(17) 0.24957(14) 0.59647(6)
C9 C 0.08303(16) 0.02239(12) 0.71059(6)
C10 C -0.04374(16) -0.05981(14) 0.72512(8)
C11 C -0.1488(2) -0.00410(19) 0.77098(11)
C12 C 0.22269(16) -0.00595(12) 0.74328(6)
C13 C 0.2012(2) -0.00533(18) 0.81137(8)
C14 C 0.28567(15) -0.13045(12) 0.72156(7)
C15 C 0.43454(18) -0.14729(15) 0.75049(8)
C16 C 0.29114(15) -0.13920(12) 0.65392(6)
C17 C 0.38878(19) -0.07009(15) 0.62041(7)
C18 C 0.3939(2) -0.07909(18) 0.55892(8)
C19 C 0.3001(2) -0.15709(17) 0.52931(7)
C20 C 0.2009(2) -0.22492(17) 0.56106(8)
C21 C 0.19799(19) -0.21566(14) 0.62313(7)
C22 C 0.20748(18) 0.37746(14) 0.58116(7)
C23 C 0.4265(3) 0.4808(3) 0.56782(18)
C24 C 0.2412(6) -0.2511(4) 0.43678(13)
N1 N 0.13774(14) 0.27610(11) 0.60668(5)
N2 N 0.51229(16) -0.25269(13) 0.72332(6)
O1 O 0.31538(13) 0.20401(11) 0.67055(6)
O2 O 0.34810(14) 0.37642(11) 0.59140(7)
O3 O 0.14583(16) 0.45386(12) 0.55302(7)
O4 O 0.62802(18) -0.23341(15) 0.69886(7)
O5 O 0.45619(16) -0.35212(12) 0.72655(10)
O6 O 0.3183(2) -0.16152(17) 0.46828(6)
H1 H 0.236(3) -0.337(3) 0.4537(14)
H2 H 0.130(4) -0.244(3) 0.4484(14)
H3 H 0.466(2) -0.031(2) 0.5350(9)
H4 H 0.140(2) -0.279(2) 0.5401(9)
H5 H 0.129(2) -0.2671(19) 0.6459(8)
H6 H 0.496(2) -0.0810(18) 0.7420(8)
H7 H 0.425(2) -0.1700(17) 0.7945(9)
H8 H 0.2259(16) -0.1922(15) 0.7364(7)
H9 H 0.301(2) -0.0130(19) 0.8326(10)
H10 H 0.140(2) -0.072(2) 0.8238(9)
H11 H 0.2895(16) 0.0566(14) 0.7344(6)
H12 H -0.0935(18) -0.0828(16) 0.6860(8)
H13 H -0.008(2) -0.1368(18) 0.7417(8)
H14 H -0.099(3) 0.015(2) 0.8116(12)
H15 H -0.186(2) 0.073(2) 0.7561(9)
H16 H -0.232(3) -0.055(2) 0.7753(10)
H17 H -0.309(2) 0.297(2) 0.5274(10)
H18 H -0.068(2) 0.3693(19) 0.5326(9)
H19 H -0.393(3) 0.149(2) 0.5947(12)
H20 H -0.242(2) 0.047(2) 0.6606(10)
H21 H 0.402(4) 0.547(3) 0.5871(14)
H22 H 0.415(4) 0.480(3) 0.5299(14)
H23 H 0.534(3) 0.472(2) 0.5796(11)
H24 H 0.157(2) 0.068(2) 0.8263(10)
H25 H 0.265(3) -0.243(3) 0.3979(15)
H26 H 0.453(2) -0.0136(18) 0.6401(8)
#END
