
#######################################################################
#
#                 Cambridge Crystallographic Data Centre
#                                CCDC
#
#######################################################################
#
# If this CIF has been generated from an entry in the Cambridge
# Structural Database, then it will include bibliographic, chemical,
# crystal, experimental, refinement or atomic coordinate data resulting
# from the CCDC's data processing and validation procedures.
#
#######################################################################

data_CSD_CIF_IFUQAE
_audit_creation_date 2018-08-10
_audit_creation_method CSD-ConQuest-V1
_database_code_CSD IFUQAE
_database_code_depnum_ccdc_archive 'CCDC 1849077'
_chemical_formula_sum 'C26 H23 N3 O5'
_chemical_formula_moiety
;
C26 H23 N3 O5
;
_journal_coden_Cambridge 1350
_journal_year 2018
_journal_name_full 'CrystEngComm '
loop_
_publ_author_name
"A.Sekine"
"M.Tanaka"
"H.Uekusa"
"N.Yasuda"
_chemical_name_systematic
;
2-(3',3'-dimethyl-6-nitrospiro[1-benzopyran-2,2'-indol]-1'(3'H)-yl)ethyl 
pyridine-4-carboxylate
;
_cell_volume   2243.554
_exptl_crystal_colour 'colorless'
_exptl_crystal_density_diffrn 1.354
_exptl_crystal_description 'block'
_diffrn_ambient_temperature 173
#These two values have been output from a single CSD field.
_refine_ls_R_factor_gt 0.0434
_refine_ls_wR_factor_gt 0.0434
_symmetry_cell_setting monoclinic
_symmetry_space_group_name_H-M 'P 21/c'
_symmetry_Int_Tables_number 14
loop_
_symmetry_equiv_pos_site_id
_symmetry_equiv_pos_as_xyz
1 x,y,z
2 -x,1/2+y,1/2-z
3 -x,-y,-z
4 x,-1/2-y,-1/2+z
_cell_length_a 22.4072(6)
_cell_length_b 8.3342(3)
_cell_length_c 12.0143(4)
_cell_angle_alpha 90
_cell_angle_beta 90.452(2)
_cell_angle_gamma 90
_cell_formula_units_Z 4
loop_
_atom_type_symbol
_atom_type_radius_bond
C 0.68
H 0.23
N 0.68
O 0.68
loop_
_atom_site_label
_atom_site_type_symbol
_atom_site_fract_x
_atom_site_fract_y
_atom_site_fract_z
O1 O 0.49998(6) 0.80801(18) 0.55573(13)
C1 C 0.44914(6) 0.63436(18) 0.43777(14)
N1 N 0.49658(6) 0.75183(18) 0.46221(15)
O2 O 0.31640(4) 0.31017(12) 0.36753(8)
H1 H 0.3932(7) 0.406(2) 0.2352(16)
C2 C 0.39908(6) 0.45959(19) 0.31009(14)
N2 N -0.09969(5) 0.01825(14) 0.37155(11)
O3 O 0.53079(7) 0.7855(2) 0.38741(14)
H2 H 0.4723(8) 0.601(2) 0.2735(15)
C3 C 0.44407(7) 0.5696(2) 0.33208(15)
N3 N 0.21801(5) 0.24056(13) 0.40513(9)
O4 O 0.04055(4) 0.38800(12) 0.58185(8)
C4 C 0.36500(6) 0.48353(16) 0.50124(12)
O5 O 0.08854(4) 0.32591(11) 0.42365(8)
C5 C 0.36008(6) 0.41697(16) 0.39441(12)
C6 C 0.27742(6) 0.23693(16) 0.45206(12)
C7 C 0.28118(7) 0.32549(19) 0.56068(13)
H3 H 0.2503(8) 0.291(2) 0.6155(15)
C8 C 0.32173(7) 0.43646(19) 0.58378(14)
H4 H 0.3224(8) 0.496(2) 0.6544(16)
C9 C 0.41041(6) 0.59459(18) 0.52244(15)
H5 H 0.4145(7) 0.6449(18) 0.6039(14)
C10 C 0.25034(6) -0.01450(15) 0.37054(12)
C11 C 0.35813(7) 0.0164(2) 0.4380(2)
H6 H 0.3830(8) 0.064(2) 0.4959(16)
H7 H 0.3709(8) 0.050(2) 0.3617(17)
H8 H 0.3643(9) -0.096(3) 0.4473(17)
C12 C 0.27334(9) -0.0161(2) 0.57193(15)
H9 H 0.2975(8) 0.022(2) 0.6290(16)
H10 H 0.2312(9) 0.003(2) 0.5863(15)
H11 H 0.2775(8) -0.134(2) 0.5670(15)
C13 C 0.29230(6) 0.05241(17) 0.45837(12)
C14 C 0.24601(7) -0.16687(17) 0.32599(13)
H12 H 0.2761(8) -0.249(2) 0.3473(14)
C15 C 0.19835(7) -0.20324(17) 0.25487(13)
H13 H 0.1953(7) -0.305(2) 0.2265(13)
C16 C 0.18943(6) 0.39381(16) 0.38045(13)
H14 H 0.2171(7) 0.480(2) 0.3946(13)
H15 H 0.1759(7) 0.3945(18) 0.3011(14)
C17 C 0.20734(5) 0.10099(15) 0.34381(11)
C18 C 0.16052(6) 0.06784(16) 0.27109(11)
H16 H 0.1303(7) 0.1455(17) 0.2523(12)
C19 C 0.15650(6) -0.08762(17) 0.22818(12)
H17 H 0.1230(7) -0.1134(19) 0.1791(13)
C20 C 0.13794(6) 0.42893(17) 0.45611(14)
H18 H 0.1504(7) 0.402(2) 0.5318(15)
H19 H 0.1244(7) 0.5439(19) 0.4471(13)
C21 C 0.04236(6) 0.31831(15) 0.49347(11)
C22 C -0.00628(6) 0.21384(15) 0.44925(11)
C23 C -0.05440(6) 0.17685(17) 0.51670(13)
H20 H 0.0271(7) 0.1705(18) 0.2939(13)
H21 H -0.0536(7) 0.0087(19) 0.2318(15)
H22 H -0.1350(8) 0.057(2) 0.5218(15)
H23 H -0.0582(7) 0.218(2) 0.5897(15)
C24 C -0.09952(7) 0.08103(18) 0.47475(14)
C25 C -0.05271(6) 0.05481(18) 0.30796(13)
C26 C -0.00589(6) 0.15126(16) 0.34183(12)
#END
