
#######################################################################
#
#                 Cambridge Crystallographic Data Centre
#                                CCDC
#
#######################################################################
#
# If this CIF has been generated from an entry in the Cambridge
# Structural Database, then it will include bibliographic, chemical,
# crystal, experimental, refinement or atomic coordinate data resulting
# from the CCDC's data processing and validation procedures.
#
#######################################################################

data_CSD_CIF_IGABUO
_audit_creation_date 2008-12-02
_audit_creation_method CSD-ConQuest-V1
_database_code_CSD IGABUO
_database_code_depnum_ccdc_archive 'CCDC 709404'
_chemical_formula_sum 'C20 H18 N2 O8'
_chemical_formula_moiety
;
C20 H18 N2 O8
;
_journal_coeditor_code "IUCr SI2117"
_journal_coden_Cambridge 1370
_journal_volume 64
_journal_year 2008
_journal_page_first o2174
_journal_name_full 'Acta Crystallogr.,Sect.E:Struct.Rep.Online '
loop_
_publ_author_name
"S.T.Tong"
"D.Barker"
"K.W.Choi"
"P.D.W.Boyd"
"M.A.Brimble"
_chemical_name_systematic
;
(+-)-Cyclohexane-1,2-diyl bis(4-nitrobenzoate)
;
_chemical_melting_point 381.0
_cell_volume   1942.394
_exptl_crystal_colour 'yellow'
_exptl_crystal_density_diffrn 1.417
_exptl_crystal_description 'needle'
_exptl_crystal_preparation 'methanol'
_diffrn_ambient_temperature 89
#These two values have been output from a single CSD field.
_refine_ls_R_factor_gt 0.0413
_refine_ls_wR_factor_gt 0.0413
_symmetry_cell_setting monoclinic
_symmetry_space_group_name_H-M 'P 21/c'
_symmetry_Int_Tables_number 14
loop_
_symmetry_equiv_pos_site_id
_symmetry_equiv_pos_as_xyz
1 x,y,z
2 -x,1/2+y,1/2-z
3 -x,-y,-z
4 x,-1/2-y,-1/2+z
_cell_length_a 12.6510(2)
_cell_length_b 12.2720(2)
_cell_length_c 13.2186(2)
_cell_angle_alpha 90
_cell_angle_beta 108.830(1)
_cell_angle_gamma 90
_cell_formula_units_Z 4
loop_
_atom_type_symbol
_atom_type_radius_bond
C 0.68
H 0.23
N 0.68
O 0.68
loop_
_atom_site_label
_atom_site_type_symbol
_atom_site_fract_x
_atom_site_fract_y
_atom_site_fract_z
O1 O 0.13143(8) 0.12316(9) 0.12240(8)
O2 O 0.07109(9) 0.29575(9) 0.08144(8)
O3 O 0.36109(8) 0.08691(8) 0.21140(7)
O4 O 0.26940(8) -0.03067(9) 0.28553(8)
O5 O 0.62313(9) 0.29785(10) 0.71389(8)
O6 O -0.20229(9) 0.24599(10) 0.45414(8)
O7 O 0.55152(10) 0.16681(9) 0.78095(8)
O8 O -0.16503(10) 0.07314(10) 0.46935(9)
C1 C 0.39653(12) 0.09399(12) 0.39838(11)
N1 N 0.56407(11) 0.21667(11) 0.70528(10)
N2 N -0.16168(10) 0.16318(12) 0.42995(10)
C2 C -0.10386(12) 0.17208(13) 0.34967(11)
C3 C 0.29657(12) 0.04900(13) 0.10370(11)
H1 H 0.26460 -0.02290 0.10800
C4 C 0.50482(13) 0.17579(12) 0.59718(11)
C5 C 0.20401(12) 0.13022(13) 0.05672(11)
H2 H 0.23540 0.20380 0.06140
C6 C 0.00784(12) 0.19370(13) 0.20538(10)
C7 C 0.02556(12) 0.10200(13) 0.27072(11)
H3 H 0.07570 0.04870 0.26550
C8 C 0.35143(13) 0.07916(13) 0.48064(12)
H4 H 0.28430 0.04200 0.46760
C9 C -0.03163(12) 0.09018(13) 0.34374(11)
H5 H -0.02150 0.02890 0.38730
C10 C 0.49575(13) 0.15077(13) 0.41674(11)
H6 H 0.52540 0.16030 0.36150
C11 C -0.06729(12) 0.27323(13) 0.21196(11)
H7 H -0.07990 0.33350 0.16690
C12 C 0.40625(13) 0.11952(13) 0.58144(12)
H8 H 0.37760 0.10910 0.63730
C13 C 0.21805(13) 0.09860(14) -0.12498(12)
H9 H 0.17630 0.07910 -0.19810
H10 H 0.25140 0.16970 -0.12570
C14 C 0.55089(13) 0.19336(13) 0.51698(12)
H11 H 0.61690 0.23260 0.52990
C15 C 0.33501(12) 0.04317(13) 0.29358(12)
C16 C 0.13918(13) 0.10373(15) -0.05883(11)
H12 H 0.08290 0.15920 -0.08780
H13 H 0.10160 0.03420 -0.06250
C17 C 0.07180(12) 0.21209(13) 0.12914(11)
C18 C -0.12367(12) 0.26323(13) 0.28548(11)
H14 H -0.17350 0.31660 0.29140
C19 C 0.30937(13) 0.01510(14) -0.07859(12)
H15 H 0.35990 0.01420 -0.12030
H16 H 0.27630 -0.05680 -0.08260
C20 C 0.37471(12) 0.04183(14) 0.03779(11)
H17 H 0.43020 -0.01430 0.06700
H18 H 0.41340 0.11070 0.04120
#END
