
#######################################################################
#
#                 Cambridge Crystallographic Data Centre
#                                CCDC
#
#######################################################################
#
# If this CIF has been generated from an entry in the Cambridge
# Structural Database, then it will include bibliographic, chemical,
# crystal, experimental, refinement or atomic coordinate data resulting
# from the CCDC's data processing and validation procedures.
#
#######################################################################

data_CSD_CIF_IGALAF
_audit_creation_date 2013-08-08
_audit_creation_method CSD-ConQuest-V1
_database_code_CSD IGALAF
_database_code_depnum_ccdc_archive 'CCDC 955004'
_chemical_formula_sum 'C18 H13 N1 O2'
_chemical_formula_moiety
;
C18 H13 N1 O2
;
_journal_coden_Cambridge 179
_journal_volume 51
_journal_year 2012
_journal_page_first 12343
_journal_name_full 'Angew.Chem.,Int.Ed. '
loop_
_publ_author_name
"a.Karthikeyan"
"R.Haridharan"
"Chien-Hong Cheng"
_chemical_name_systematic
;
5-Methoxybenzo[c]phenanthridin-6(5H)-one
;
_cell_volume   2566.663
_exptl_crystal_colour 'orange'
_exptl_crystal_density_diffrn 1.425
_exptl_crystal_description 'Columnar'
_diffrn_ambient_temperature 100
#These two values have been output from a single CSD field.
_refine_ls_R_factor_gt 0.0401
_refine_ls_wR_factor_gt 0.0401
_symmetry_cell_setting monoclinic
_symmetry_space_group_name_H-M 'C 2/c'
_symmetry_Int_Tables_number 15
loop_
_symmetry_equiv_pos_site_id
_symmetry_equiv_pos_as_xyz
1 x,y,z
2 -x,y,1/2-z
3 1/2+x,1/2+y,z
4 1/2-x,1/2+y,1/2-z
5 -x,-y,-z
6 x,-y,-1/2+z
7 -1/2-x,-1/2-y,-z
8 -1/2+x,-1/2-y,-1/2+z
_cell_length_a 32.227(3)
_cell_length_b 5.3990(5)
_cell_length_c 15.1906(14)
_cell_angle_alpha 90
_cell_angle_beta 103.810(4)
_cell_angle_gamma 90
_cell_formula_units_Z 8
loop_
_atom_type_symbol
_atom_type_radius_bond
C 0.68
H 0.23
N 0.68
O 0.68
loop_
_atom_site_label
_atom_site_type_symbol
_atom_site_fract_x
_atom_site_fract_y
_atom_site_fract_z
C1 C 0.55973(5) 1.3091(3) 0.20183(10)
H1 H 0.55210 1.43720 0.23790
C2 C 0.52916(5) 1.1398(3) 0.15753(10)
H2 H 0.50070 1.15210 0.16430
C3 C 0.58146(4) 0.9318(3) 0.09210(9)
C4 C 0.59380(4) 0.7427(3) 0.03411(9)
C5 C 0.57326(4) 0.3986(3) -0.06928(10)
H3 H 0.55170 0.29060 -0.10180
C6 C 0.61600(4) 0.3686(3) -0.07664(9)
C7 C 0.62601(4) 0.1765(3) -0.13163(10)
H4 H 0.60390 0.06960 -0.16270
C8 C 0.66670(5) 0.1417(3) -0.1409(1)
H5 H 0.67300 0.00990 -0.17700
C9 C 0.60122(5) 1.2885(3) 0.19272(10)
H6 H 0.62240 1.40160 0.22320
C10 C 0.61204(4) 1.1007(3) 0.13855(9)
C11 C 0.65675(4) 1.0801(3) 0.13391(9)
C12 C 0.73176(4) 0.7386(3) 0.16102(10)
H7 H 0.72820 0.82450 0.21550
H8 H 0.76220 0.73120 0.16140
H9 H 0.72040 0.57010 0.16000
C13 C 0.69906(4) 0.3029(3) -0.09649(10)
H10 H 0.72730 0.28100 -0.10360
C14 C 0.69058(5) 0.4921(3) -0.04287(10)
H11 H 0.71310 0.59960 -0.01430
C15 C 0.64888(4) 0.5313(3) -0.02891(9)
C16 C 0.63642(4) 0.7199(3) 0.02845(9)
C17 C 0.56266(4) 0.5787(3) -0.01667(9)
H12 H 0.53370 0.59580 -0.01360
C18 C 0.53952(4) 0.9550(3) 0.1041(1)
H13 H 0.51810 0.84140 0.07490
N1 N 0.66574(3) 0.8869(2) 0.08081(8)
O1 O 0.68544(3) 1.21348(18) 0.17630(7)
O2 O 0.70885(3) 0.87198(18) 0.08101(6)
#END
