
#######################################################################
#
#                 Cambridge Crystallographic Data Centre
#                                CCDC
#
#######################################################################
#
# If this CIF has been generated from an entry in the Cambridge
# Structural Database, then it will include bibliographic, chemical,
# crystal, experimental, refinement or atomic coordinate data resulting
# from the CCDC's data processing and validation procedures.
#
#######################################################################

data_CSD_CIF_IGAQUD
_audit_creation_date 2008-12-02
_audit_creation_method CSD-ConQuest-V1
_database_code_CSD IGAQUD
_database_code_depnum_ccdc_archive 'CCDC 696143'
_chemical_formula_sum 'C21 H26 N2 O4'
_chemical_formula_moiety
;
C21 H26 N2 O4
;
_journal_coeditor_code "IUCr GW2048"
_journal_coden_Cambridge 1370
_journal_volume 64
_journal_year 2008
_journal_page_first o2059
_journal_name_full 'Acta Crystallogr.,Sect.E:Struct.Rep.Online '
loop_
_publ_author_name
"Wen-Kui Dong"
"Zhong-Wu Lv"
"Xue-Ni He"
"Yong-Hong Guan"
"Jun-Feng Tong"
_chemical_name_systematic
;
2,2'-(1,1'-(Pentane-1,5-diylbis(oxynitrilo))diethylidyne)diphenol
;
_chemical_name_common
;
1,5-bis(1-(2-Hydroxyphenyl)ethylideneaminoxy)pentane
;
_cell_volume    976.056
_exptl_crystal_colour 'colorless'
_exptl_crystal_density_diffrn 1.26
_exptl_crystal_description 'needle-like'
_exptl_crystal_preparation 'diethyl ether'
_diffrn_ambient_temperature 298
#These two values have been output from a single CSD field.
_refine_ls_R_factor_gt 0.0469
_refine_ls_wR_factor_gt 0.0469
_symmetry_cell_setting monoclinic
_symmetry_space_group_name_H-M 'C 2'
_symmetry_Int_Tables_number 5
loop_
_symmetry_equiv_pos_site_id
_symmetry_equiv_pos_as_xyz
1 x,y,z
2 -x,y,-z
3 1/2+x,1/2+y,z
4 1/2-x,1/2+y,-z
_cell_length_a 12.9690(13)
_cell_length_b 4.601(1)
_cell_length_c 16.3640(16)
_cell_angle_alpha 90
_cell_angle_beta 91.620(1)
_cell_angle_gamma 90
_cell_formula_units_Z 2
loop_
_atom_type_symbol
_atom_type_radius_bond
C 0.68
H 0.23
N 0.68
O 0.68
loop_
_atom_site_label
_atom_site_type_symbol
_atom_site_fract_x
_atom_site_fract_y
_atom_site_fract_z
N1 N 0.1855(2) 0.7553(6) 0.30492(15)
O1 O 0.22994(17) 0.6006(7) 0.37055(13)
O2 O 0.03359(18) 0.9262(7) 0.21468(15)
H1 H 0.06270 0.82220 0.24890
C1 C 0.1513(2) 0.4345(9) 0.40829(19)
H2 H 0.18350 0.29340 0.44490
H3 H 0.11270 0.32830 0.36640
C2 C 0.0777(2) 0.6170(8) 0.45572(19)
H4 H 0.11670 0.73360 0.49510
H5 H 0.04160 0.74850 0.41840
C3 C 0.00000 0.4390(11) 0.50000
H6 H -0.03620 0.31460 0.46090
H7 H 0.03620 0.31460 0.53910
C4 C 0.3608(2) 0.9296(12) 0.2926(2)
H8 H 0.37340 0.80360 0.33860
H9 H 0.37860 1.12540 0.30750
H10 H 0.40210 0.86830 0.24800
C5 C 0.2496(2) 0.9161(8) 0.26734(18)
C6 C 0.2083(2) 1.0862(8) 0.19855(17)
C7 C 0.1043(3) 1.0869(9) 0.1759(2)
C8 C 0.0682(3) 1.2542(9) 0.1117(2)
H11 H -0.00170 1.25340 0.09720
C9 C 0.1347(4) 1.4209(11) 0.0693(2)
H12 H 0.10980 1.53380 0.02590
C10 C 0.2362(3) 1.4252(10) 0.0891(2)
H13 H 0.28090 1.53920 0.05940
C11 C 0.2733(3) 1.2603(8) 0.1535(2)
H14 H 0.34340 1.26540 0.16710
N1A N -0.1855(2) 0.7553(6) 0.69508(15)
O1A O -0.22994(17) 0.6006(7) 0.62945(13)
O2A O -0.03359(18) 0.9262(7) 0.78532(15)
H1A H -0.06270 0.82220 0.75110
C1A C -0.1513(2) 0.4345(9) 0.59171(19)
H2A H -0.18350 0.29340 0.55510
H3A H -0.11270 0.32830 0.63360
C2A C -0.0777(2) 0.6170(8) 0.54428(19)
H4A H -0.11670 0.73360 0.50490
H5A H -0.04160 0.74850 0.58160
C4A C -0.3608(2) 0.9296(12) 0.7074(2)
H8A H -0.37340 0.80360 0.66140
H9A H -0.37860 1.12540 0.69250
H10A H -0.40210 0.86830 0.75200
C5A C -0.2496(2) 0.9161(8) 0.73266(18)
C6A C -0.2083(2) 1.0862(8) 0.80145(17)
C7A C -0.1043(3) 1.0869(9) 0.8241(2)
C8A C -0.0682(3) 1.2542(9) 0.8883(2)
H11A H 0.00170 1.25340 0.90280
C9A C -0.1347(4) 1.4209(11) 0.9307(2)
H12A H -0.10980 1.53380 0.97410
C10A C -0.2362(3) 1.4252(10) 0.9109(2)
H13A H -0.28090 1.53920 0.94060
C11A C -0.2733(3) 1.2603(8) 0.8465(2)
H14A H -0.34340 1.26540 0.83290
#END
