
#######################################################################
#
#                 Cambridge Crystallographic Data Centre
#                                CCDC
#
#######################################################################
#
# If this CIF has been generated from an entry in the Cambridge
# Structural Database, then it will include bibliographic, chemical,
# crystal, experimental, refinement or atomic coordinate data resulting
# from the CCDC's data processing and validation procedures.
#
#######################################################################

data_CSD_CIF_IGAQIR
_audit_creation_date 2008-12-02
_audit_creation_method CSD-ConQuest-V1
_database_code_CSD IGAQIR
_database_code_depnum_ccdc_archive 'CCDC 709467'
_chemical_formula_sum 'C25 H22 N4 O4'
_chemical_formula_moiety
;
C25 H22 N4 O4
;
_journal_coeditor_code "IUCr HB2829"
_journal_coden_Cambridge 1370
_journal_volume 64
_journal_year 2008
_journal_page_first o2245
_journal_name_full 'Acta Crystallogr.,Sect.E:Struct.Rep.Online '
loop_
_publ_author_name
"Shou-Xin Liu"
"Xia Tian"
"Xiao-Li Zhen"
"Zhen-Chao Li"
"Jian-Rong Han"
_chemical_name_systematic
;
(E)-1,5-Dimethyl-4-(3-(4-nitrobenzyloxy)benzylideneamino)-2-phenyl-1H-pyrazol-
3(2H)-one
;
_cell_volume   1108.368
_exptl_crystal_colour 'yellow'
_exptl_crystal_density_diffrn 1.326
_exptl_crystal_description 'block'
_exptl_crystal_preparation 'acetonitrile'
_diffrn_ambient_temperature 294
#These two values have been output from a single CSD field.
_refine_ls_R_factor_gt 0.0459
_refine_ls_wR_factor_gt 0.0459
_symmetry_cell_setting triclinic
_symmetry_space_group_name_H-M 'P -1'
_symmetry_Int_Tables_number 2
loop_
_symmetry_equiv_pos_site_id
_symmetry_equiv_pos_as_xyz
1 x,y,z
2 -x,-y,-z
_cell_length_a 8.003(2)
_cell_length_b 9.798(3)
_cell_length_c 14.425(5)
_cell_angle_alpha 90.844(5)
_cell_angle_beta 92.310(6)
_cell_angle_gamma 101.202(6)
_cell_formula_units_Z 2
loop_
_atom_type_symbol
_atom_type_radius_bond
C 0.68
H 0.23
N 0.68
O 0.68
loop_
_atom_site_label
_atom_site_type_symbol
_atom_site_fract_x
_atom_site_fract_y
_atom_site_fract_z
N1 N 1.8078(5) 0.2593(4) 0.4869(2)
N2 N 0.7686(2) 0.2222(2) 0.00080(12)
N3 N 0.5534(2) -0.05908(19) -0.14560(13)
N4 N 0.4987(2) 0.05116(19) -0.19115(13)
O1 O 1.9568(4) 0.3106(3) 0.4734(2)
O2 O 1.7631(4) 0.1619(4) 0.5360(2)
O3 O 1.2066(2) 0.43844(16) 0.24686(11)
O4 O 0.5147(2) 0.28509(17) -0.15735(12)
C1 C 1.3860(3) 0.3378(3) 0.42021(17)
H1 H 1.27250 0.30700 0.43380
C2 C 1.5095(4) 0.2734(3) 0.45952(17)
H2 H 1.48050 0.19870 0.49860
C3 C 1.6757(4) 0.3223(3) 0.43939(19)
C4 C 1.7205(4) 0.4273(3) 0.3794(2)
H3 H 1.83400 0.45700 0.36540
C5 C 1.5966(4) 0.4887(3) 0.3400(2)
H4 H 1.62620 0.55970 0.29810
C6 C 1.4285(3) 0.4471(2) 0.36121(16)
C7 C 1.2964(3) 0.5206(3) 0.32183(17)
H5 H 1.21810 0.53410 0.36920
H6 H 1.35000 0.61110 0.30010
C8 C 1.0789(3) 0.4895(2) 0.20062(15)
C9 C 0.9887(3) 0.4033(2) 0.13208(15)
H7 H 1.01850 0.31810 0.11910
C10 C 0.8547(3) 0.4415(2) 0.08225(15)
C11 C 0.8139(3) 0.5693(2) 0.10135(17)
H8 H 0.72450 0.59690 0.06820
C12 C 0.9050(3) 0.6558(3) 0.16911(17)
H9 H 0.87680 0.74190 0.18110
C13 C 1.0377(3) 0.6174(2) 0.21982(16)
H10 H 1.09820 0.67640 0.26600
C14 C 0.7563(3) 0.3497(2) 0.01004(15)
H11 H 0.68270 0.38530 -0.03030
C15 C 0.6729(3) 0.1381(2) -0.06885(15)
C16 C 0.6681(3) -0.0010(2) -0.07688(16)
C17 C 0.5600(3) 0.1751(3) -0.14076(16)
C18 C 0.7646(3) -0.0883(3) -0.02119(19)
H12 H 0.68850 -0.17120 -0.00350
H13 H 0.81510 -0.03700 0.03350
H14 H 0.85260 -0.11310 -0.05750
C19 C 0.5755(4) -0.1761(3) -0.2039(2)
H15 H 0.66260 -0.14520 -0.24700
H16 H 0.47020 -0.21360 -0.23740
H17 H 0.60850 -0.24670 -0.16570
C20 C 0.3426(3) 0.0258(2) -0.24550(15)
C21 C 0.2107(3) -0.0796(3) -0.22521(17)
H18 H 0.22180 -0.13760 -0.17580
C22 C 0.0611(3) -0.0984(3) -0.2790(2)
H19 H -0.02700 -0.17240 -0.26730
C23 C 0.0401(4) -0.0105(3) -0.34928(19)
H20 H -0.06260 -0.02210 -0.38380
C24 C 0.1725(4) 0.0950(3) -0.36802(19)
H21 H 0.15930 0.15570 -0.41550
C25 C 0.3243(3) 0.1123(3) -0.31772(17)
H22 H 0.41480 0.18240 -0.33240
#END
