
#######################################################################
#
#                 Cambridge Crystallographic Data Centre
#                                CCDC
#
#######################################################################
#
# If this CIF has been generated from an entry in the Cambridge
# Structural Database, then it will include bibliographic, chemical,
# crystal, experimental, refinement or atomic coordinate data resulting
# from the CCDC's data processing and validation procedures.
#
#######################################################################

data_CSD_CIF_IGASAL
_audit_creation_date 2008-12-02
_audit_creation_method CSD-ConQuest-V1
_database_code_CSD IGASAL
_database_code_depnum_ccdc_archive 'CCDC 689261'
_chemical_formula_sum 'C11 H12 N4 O4'
_chemical_formula_moiety
;
C11 H12 N4 O4
;
_journal_coeditor_code "IUCr FB2114"
_journal_coden_Cambridge 1370
_journal_volume 64
_journal_year 2008
_journal_page_first o2141
_journal_name_full 'Acta Crystallogr.,Sect.E:Struct.Rep.Online '
loop_
_publ_author_name
"Ning-Ning Ji"
"Zhi-Qiang Shi"
_chemical_name_systematic
;
1-Cyclopentylidene-2-(2,4-dinitrophenyl)hydrazine
;
_cell_volume   1227.311
_exptl_crystal_colour 'colorless'
_exptl_crystal_density_diffrn 1.43
_exptl_crystal_description 'block'
_exptl_crystal_preparation 'tetrahydrofuran'
_diffrn_ambient_temperature 295
_refine_special_details
;
Two methylene moieties in the cyclopentane ring are disordered which has been 
modelled with distance restraints.
;
#These two values have been output from a single CSD field.
_refine_ls_R_factor_gt 0.0508
_refine_ls_wR_factor_gt 0.0508
_symmetry_cell_setting monoclinic
_symmetry_space_group_name_H-M 'P 21/n'
_symmetry_Int_Tables_number 14
loop_
_symmetry_equiv_pos_site_id
_symmetry_equiv_pos_as_xyz
1 x,y,z
2 1/2-x,1/2+y,1/2-z
3 -x,-y,-z
4 -1/2+x,-1/2-y,-1/2+z
_cell_length_a 6.962(3)
_cell_length_b 21.84(1)
_cell_length_c 8.162(4)
_cell_angle_alpha 90
_cell_angle_beta 98.528(9)
_cell_angle_gamma 90
_cell_formula_units_Z 4
loop_
_atom_type_symbol
_atom_type_radius_bond
C 0.68
H 0.23
N 0.68
O 0.68
loop_
_atom_site_label
_atom_site_type_symbol
_atom_site_fract_x
_atom_site_fract_y
_atom_site_fract_z
O1 O 0.7331(3) -0.13246(10) 0.3023(3)
O2 O 0.6596(3) -0.04174(10) 0.3749(3)
O3 O 1.2740(4) -0.17279(11) 0.0326(3)
O4 O 1.4638(3) -0.09973(10) -0.0180(3)
N1 N 0.7660(3) -0.07796(12) 0.3140(3)
N2 N 1.3235(4) -0.11927(13) 0.0399(3)
N3 N 0.8812(3) 0.05130(9) 0.3323(2)
H1 H 0.77290 0.04160 0.36420
N4 N 0.9488(3) 0.11104(10) 0.3470(3)
C1 C 0.9878(3) 0.00878(11) 0.2672(3)
C2 C 0.9370(4) -0.05382(11) 0.2532(3)
C3 C 1.0472(4) -0.09547(12) 0.1803(3)
H2 H 1.01120 -0.13650 0.17200
C4 C 1.2096(4) -0.07578(12) 0.1204(3)
C5 C 1.2662(4) -0.01497(13) 0.1343(3)
H3 H 1.37820 -0.00230 0.09450
C6 C 1.1585(4) 0.02597(12) 0.2058(3)
H4 H 1.19840 0.06660 0.21450
C7 C 0.8309(4) 0.15004(12) 0.3926(3)
C8 C 0.6296(4) 0.14137(13) 0.4294(4)
H5 H 0.62770 0.11370 0.52210
H6 H 0.54530 0.12530 0.33380
C9 C 0.5680(6) 0.20514(17) 0.4717(6)
H7 H 0.46530 0.21940 0.38690
H8 H 0.51820 0.20440 0.57650
C10 C 0.7236(6) 0.24409(18) 0.4823(7)
H9 H 0.76410 0.25520 0.59720
H10 H 0.68490 0.28120 0.42090
C11 C 0.8882(5) 0.21595(13) 0.4158(5)
H11 H 1.00730 0.22010 0.49330
H12 H 0.90610 0.23460 0.31130
#END
