
#######################################################################
#
#                 Cambridge Crystallographic Data Centre
#                                CCDC
#
#######################################################################
#
# If this CIF has been generated from an entry in the Cambridge
# Structural Database, then it will include bibliographic, chemical,
# crystal, experimental, refinement or atomic coordinate data resulting
# from the CCDC's data processing and validation procedures.
#
#######################################################################

data_CSD_CIF_IGAZIB
_audit_creation_date 2015-05-05
_audit_creation_method CSD-ConQuest-V1
_database_code_CSD IGAZIB
_database_code_depnum_ccdc_archive 'CCDC 1050759'
_chemical_formula_sum 'C18 H19 N1 O4'
_chemical_formula_moiety
;
C18 H19 N1 O4
;
_journal_coden_Cambridge 35
_journal_volume 80
_journal_year 2015
_journal_page_first 4108
_journal_name_full 'J.Org.Chem. '
loop_
_publ_author_name
"W.F.Bailey"
"K.M.Lambert"
"K.B.Wiberg"
"B.Q.Mercado"
_chemical_name_systematic
;
4,6-dimethyl-2-(4-nitrophenyl)-2-phenyl-1,3-dioxane
;
_cell_volume   1603.558
_exptl_crystal_colour 'colorless'
_exptl_crystal_density_diffrn 1.298
_exptl_crystal_description 'Block'
_diffrn_ambient_temperature 93
#These two values have been output from a single CSD field.
_refine_ls_R_factor_gt 0.0394
_refine_ls_wR_factor_gt 0.0394
loop_
_citation_database_id_CSD
_citation_special_details
IGAZOH "is a stereoisomer of this entry"
_symmetry_cell_setting monoclinic
_symmetry_space_group_name_H-M 'P 21/n'
_symmetry_Int_Tables_number 14
loop_
_symmetry_equiv_pos_site_id
_symmetry_equiv_pos_as_xyz
1 x,y,z
2 1/2-x,1/2+y,1/2-z
3 -x,-y,-z
4 -1/2+x,-1/2-y,-1/2+z
_cell_length_a 9.0607(3)
_cell_length_b 12.9754(4)
_cell_length_c 13.6636(10)
_cell_angle_alpha 90
_cell_angle_beta 93.395(7)
_cell_angle_gamma 90
_cell_formula_units_Z 4
loop_
_atom_type_symbol
_atom_type_radius_bond
C 0.68
H 0.23
N 0.68
O 0.68
loop_
_atom_site_label
_atom_site_type_symbol
_atom_site_fract_x
_atom_site_fract_y
_atom_site_fract_z
O1 O 0.21423(11) 0.54261(7) 0.30743(7)
C1 C 0.24531(15) 0.63371(11) 0.2551(1)
O2 O 0.37662(10) 0.68180(8) 0.29353(7)
C2 C 0.37685(16) 0.70601(12) 0.39685(11)
H1 H 0.29790 0.75790 0.40770
C3 C 0.34531(17) 0.60821(12) 0.45252(11)
H2 H 0.33660 0.62470 0.52270
H3 H 0.42860 0.55940 0.44750
C4 C 0.20346(17) 0.55813(11) 0.41179(10)
H4 H 0.11820 0.60480 0.42280
C5 C 0.17380(18) 0.45323(12) 0.45454(11)
H5 H 0.08390 0.42420 0.42200
H6 H 0.16070 0.46000 0.52490
H7 H 0.25760 0.40750 0.44440
C6 C 0.52621(17) 0.75250(13) 0.42489(12)
H8 H 0.60390 0.70270 0.41190
H9 H 0.53180 0.77000 0.49480
H10 H 0.53980 0.81500 0.38620
C7 C 0.11340(15) 0.70801(11) 0.25098(10)
C8 C -0.03024(16) 0.66891(11) 0.24938(10)
H11 H -0.04520 0.59700 0.25710
C9 C -0.15100(16) 0.73384(12) 0.23661(11)
H12 H -0.24890 0.70750 0.23520
C10 C -0.12484(16) 0.83858(11) 0.2259(1)
C11 C 0.01635(16) 0.87982(11) 0.22846(10)
H13 H 0.03090 0.95190 0.22200
C12 C 0.13575(16) 0.81357(11) 0.24067(10)
H14 H 0.23350 0.84020 0.24200
C13 C 0.27245(16) 0.60058(11) 0.15072(11)
C14 C 0.19235(18) 0.51962(12) 0.10758(11)
H15 H 0.12190 0.48400 0.14380
C15 C 0.2147(2) 0.49032(13) 0.01175(12)
H16 H 0.16010 0.43450 -0.01720
C16 C 0.3165(2) 0.54237(14) -0.04149(12)
H17 H 0.33280 0.52170 -0.10670
C17 C 0.39438(19) 0.62437(14) 0.00020(12)
H18 H 0.46280 0.66080 -0.03690
C18 C 0.37316(17) 0.65394(13) 0.09635(11)
H19 H 0.42710 0.71030 0.12480
N1 N -0.25084(14) 0.90849(11) 0.21064(9)
O3 O -0.22564(13) 1.00126(9) 0.20275(9)
O4 O -0.37620(13) 0.87224(11) 0.20545(10)
#END
