
#######################################################################
#
#                 Cambridge Crystallographic Data Centre
#                                CCDC
#
#######################################################################
#
# If this CIF has been generated from an entry in the Cambridge
# Structural Database, then it will include bibliographic, chemical,
# crystal, experimental, refinement or atomic coordinate data resulting
# from the CCDC's data processing and validation procedures.
#
#######################################################################

data_CSD_CIF_IGAZOH
_audit_creation_date 2015-05-05
_audit_creation_method CSD-ConQuest-V1
_database_code_CSD IGAZOH
_database_code_depnum_ccdc_archive 'CCDC 1050760'
_chemical_formula_sum 'C18 H19 N1 O4'
_chemical_formula_moiety
;
C18 H19 N1 O4
;
_journal_coden_Cambridge 35
_journal_volume 80
_journal_year 2015
_journal_page_first 4108
_journal_name_full 'J.Org.Chem. '
loop_
_publ_author_name
"W.F.Bailey"
"K.M.Lambert"
"K.B.Wiberg"
"B.Q.Mercado"
_chemical_name_systematic
;
4,6-dimethyl-2-(4-nitrophenyl)-2-phenyl-1,3-dioxane
;
_cell_volume    822.563
_exptl_crystal_colour 'colorless'
_exptl_crystal_density_diffrn 1.265
_exptl_special_details
;
Absolute configuration

;
_exptl_crystal_description 'Block'
_diffrn_ambient_temperature 93
#These two values have been output from a single CSD field.
_refine_ls_R_factor_gt 0.0615
_refine_ls_wR_factor_gt 0.0615
loop_
_citation_database_id_CSD
_citation_special_details
IGAZIB "is a stereoisomer of this entry"
_symmetry_cell_setting monoclinic
_symmetry_space_group_name_H-M 'P 21'
_symmetry_Int_Tables_number 4
loop_
_symmetry_equiv_pos_site_id
_symmetry_equiv_pos_as_xyz
1 x,y,z
2 -x,1/2+y,-z
_cell_length_a 7.7461(2)
_cell_length_b 13.7554(3)
_cell_length_c 8.0544(6)
_cell_angle_alpha 90
_cell_angle_beta 106.570(7)
_cell_angle_gamma 90
_cell_formula_units_Z 2
loop_
_atom_type_symbol
_atom_type_radius_bond
C 0.68
H 0.23
N 0.68
O 0.68
loop_
_atom_site_label
_atom_site_type_symbol
_atom_site_fract_x
_atom_site_fract_y
_atom_site_fract_z
O1 O 0.3223(4) 0.4560(2) 0.0659(5)
C1 C 0.4826(6) 0.3997(3) 0.1081(6)
O2 O 0.4744(4) 0.3223(2) 0.2215(4)
C2 C 0.3213(7) 0.2588(4) 0.1554(7)
H1 H 0.33040 0.22820 0.04550
C3 C 0.1518(7) 0.3187(4) 0.1164(7)
H2 H 0.13730 0.34590 0.22540
H3 H 0.04640 0.27680 0.06380
C4 C 0.1595(7) 0.4006(4) -0.0064(7)
H4 H 0.16320 0.37230 -0.11980
C5 C 0.0092(7) 0.4734(5) -0.0387(8)
H5 H 0.00370 0.50090 0.07190
H6 H -0.10520 0.44120 -0.09580
H7 H 0.03100 0.52550 -0.11320
C6 C 0.3344(8) 0.1802(4) 0.2888(8)
H8 H 0.32510 0.20940 0.39700
H9 H 0.45040 0.14680 0.31010
H10 H 0.23630 0.13350 0.24630
C7 C 0.6310(6) 0.4667(3) 0.2122(6)
C8 C 0.6140(8) 0.5671(4) 0.1886(7)
H11 H 0.51140 0.59360 0.10630
C9 C 0.7481(7) 0.6282(4) 0.2861(7)
H12 H 0.73840 0.69670 0.27170
C10 C 0.8939(7) 0.5877(4) 0.4029(7)
C11 C 0.9178(7) 0.4889(4) 0.4274(8)
H13 H 1.02210 0.46320 0.50840
C12 C 0.7822(7) 0.4276(4) 0.3283(7)
H14 H 0.79450 0.35910 0.34100
C13 C 0.5283(7) 0.3640(3) -0.0525(7)
C14 C 0.4746(7) 0.4156(4) -0.2068(7)
H15 H 0.40370 0.47270 -0.21340
C15 C 0.5233(8) 0.3849(4) -0.3522(7)
H16 H 0.48270 0.42000 -0.45780
C16 C 0.6303(7) 0.3036(4) -0.3435(7)
H17 H 0.66440 0.28310 -0.44230
C17 C 0.6871(8) 0.2525(4) -0.1908(7)
H18 H 0.76020 0.19640 -0.18460
C18 C 0.6383(7) 0.2824(4) -0.0445(7)
H19 H 0.67990 0.24710 0.06080
N1 N 1.0303(7) 0.6535(4) 0.5110(7)
O3 O 1.1594(6) 0.6181(4) 0.6208(6)
O4 O 1.0083(7) 0.7408(3) 0.4870(7)
#END
