
#######################################################################
#
#                 Cambridge Crystallographic Data Centre
#                                CCDC
#
#######################################################################
#
# If this CIF has been generated from an entry in the Cambridge
# Structural Database, then it will include bibliographic, chemical,
# crystal, experimental, refinement or atomic coordinate data resulting
# from the CCDC's data processing and validation procedures.
#
#######################################################################

data_CSD_CIF_IGAZEX
_audit_creation_date 2015-05-05
_audit_creation_method CSD-ConQuest-V1
_database_code_CSD IGAZEX
_database_code_depnum_ccdc_archive 'CCDC 1049096'
_chemical_formula_sum 'C23 H17 N1 O5'
_chemical_formula_moiety
;
C23 H17 N1 O5
;
_journal_coden_Cambridge 35
_journal_volume 80
_journal_year 2015
_journal_page_first 4084
_journal_name_full 'J.Org.Chem. '
loop_
_publ_author_name
"A.Leela Siva Kumari"
"K.C.Kumara Swamy"
_chemical_name_systematic
;
ethyl 2-(2-nitrophenyl)-7-phenyl-1-benzofuran-4-carboxylate
;
_cell_volume   3850.873
_exptl_crystal_colour 'colorless'
_exptl_crystal_density_diffrn 1.336
_exptl_crystal_description 'block'
_diffrn_ambient_temperature 293
#These two values have been output from a single CSD field.
_refine_ls_R_factor_gt 0.0666
_refine_ls_wR_factor_gt 0.0666
_symmetry_cell_setting monoclinic
_symmetry_space_group_name_H-M 'C 2/c'
_symmetry_Int_Tables_number 15
loop_
_symmetry_equiv_pos_site_id
_symmetry_equiv_pos_as_xyz
1 x,y,z
2 -x,y,1/2-z
3 1/2+x,1/2+y,z
4 1/2-x,1/2+y,1/2-z
5 -x,-y,-z
6 x,-y,-1/2+z
7 -1/2-x,-1/2-y,-z
8 -1/2+x,-1/2-y,-1/2+z
_cell_length_a 15.4744(3)
_cell_length_b 16.1876(3)
_cell_length_c 15.6267(3)
_cell_angle_alpha 90
_cell_angle_beta 100.3353(18)
_cell_angle_gamma 90
_cell_formula_units_Z 8
loop_
_atom_type_symbol
_atom_type_radius_bond
C 0.68
H 0.23
N 0.68
O 0.68
loop_
_atom_site_label
_atom_site_type_symbol
_atom_site_fract_x
_atom_site_fract_y
_atom_site_fract_z
O1 O 0.56253(7) 0.23405(6) 0.17619(6)
C1 C 0.50057(9) 0.35699(9) 0.13080(9)
O2 O 0.42799(8) 0.56871(8) 0.08293(9)
C2 C 0.57510(9) 0.31795(9) 0.17644(9)
C3 C 0.49974(10) 0.44383(10) 0.12592(10)
C4 C 0.42124(10) 0.48673(11) 0.07746(11)
C5 C 0.65056(9) 0.35794(10) 0.21839(9)
C6 C 0.47974(10) 0.22085(10) 0.12861(9)
C7 C 0.43988(10) 0.29213(10) 0.10011(10)
H1 H 0.38400 0.29810 0.06700
C8 C 0.64654(10) 0.44391(10) 0.21322(11)
H2 H 0.69430 0.47460 0.24080
O3 O 0.61677(10) 0.12348(10) 0.06367(10)
C9 C 0.57371(11) 0.48532(10) 0.16827(11)
H3 H 0.57450 0.54270 0.16650
C10 C 0.72861(10) 0.31273(10) 0.2641(1)
N1 N 0.59811(11) 0.07693(10) 0.11915(12)
C11 C 0.77665(11) 0.34227(11) 0.34216(11)
H4 H 0.76000 0.39110 0.36610
C12 C 0.75566(11) 0.23978(11) 0.22982(11)
H5 H 0.72450 0.21940 0.17770
C13 C 0.35340(12) 0.61501(13) 0.03681(14)
H6 H 0.30170 0.60450 0.06230
H7 H 0.34080 0.59860 -0.02390
C14 C 0.44945(11) 0.13503(10) 0.12149(10)
C15 C 0.50430(12) 0.06684(11) 0.12350(11)
C16 C 0.37685(14) 0.70426(13) 0.04430(16)
H8 H 0.39130 0.71930 0.10460
H9 H 0.32790 0.73670 0.01640
H10 H 0.42650 0.71440 0.01670
C17 C 0.84899(14) 0.29908(13) 0.38386(13)
H11 H 0.88080 0.31930 0.43580
C18 C 0.35984(13) 0.11927(12) 0.11591(12)
H12 H 0.32110 0.16330 0.11500
C19 C 0.87476(14) 0.22661(14) 0.34977(15)
H13 H 0.92320 0.19770 0.37880
C20 C 0.82816(14) 0.19719(13) 0.27216(14)
H14 H 0.84560 0.14860 0.24840
C21 C 0.38439(19) -0.02646(14) 0.11730(17)
H15 H 0.36260 -0.08000 0.11660
C22 C 0.47385(17) -0.01327(13) 0.12392(15)
H16 H 0.51270 -0.05760 0.12860
C23 C 0.32794(16) 0.03965(15) 0.11181(16)
H17 H 0.26780 0.03060 0.10530
O4 O 0.65150(13) 0.03738(12) 0.16934(16)
O5 O 0.35847(9) 0.45169(9) 0.03747(11)
#END
