
#######################################################################
#
#                 Cambridge Crystallographic Data Centre
#                                CCDC
#
#######################################################################
#
# If this CIF has been generated from an entry in the Cambridge
# Structural Database, then it will include bibliographic, chemical,
# crystal, experimental, refinement or atomic coordinate data resulting
# from the CCDC's data processing and validation procedures.
#
#######################################################################

data_CSD_CIF_IGEDIJ
_audit_creation_date 2015-05-05
_audit_creation_method CSD-ConQuest-V1
_database_code_CSD IGEDIJ
_database_code_depnum_ccdc_archive 'CCDC 1063200'
_chemical_formula_sum 'C19 H24 N2 O5'
_chemical_formula_moiety
;
C19 H24 N2 O5
;
_journal_coden_Cambridge 35
_journal_volume 80
_journal_year 2015
_journal_page_first 4783
_journal_name_full 'J.Org.Chem. '
loop_
_publ_author_name
"Yilin Zhang"
"J.W.Hubbard"
"N.G.Akhmedov"
"J.L.Petersen"
"B.C.G.Soderberg"
_chemical_name_systematic
;
t-butyl 
2-methyl-7-nitro-1,3a,6,11a-tetrahydro[1]benzoxocino[3,2-b]pyrrole-3(2H)-carbo
xylate
;
_cell_volume   1876.207
_exptl_crystal_colour 'colorless'
_exptl_crystal_density_diffrn 1.276
_exptl_crystal_description 'block'
_diffrn_ambient_temperature 296
#These two values have been output from a single CSD field.
_refine_ls_R_factor_gt 0.062
_refine_ls_wR_factor_gt 0.062
_symmetry_cell_setting orthorhombic
_symmetry_space_group_name_H-M 'P 21 21 21'
_symmetry_Int_Tables_number 19
loop_
_symmetry_equiv_pos_site_id
_symmetry_equiv_pos_as_xyz
1 x,y,z
2 1/2-x,-y,1/2+z
3 -x,1/2+y,1/2-z
4 1/2+x,1/2-y,-z
_cell_length_a 8.7785(9)
_cell_length_b 13.8258(13)
_cell_length_c 15.4586(17)
_cell_angle_alpha 90
_cell_angle_beta 90
_cell_angle_gamma 90
_cell_formula_units_Z 4
loop_
_atom_type_symbol
_atom_type_radius_bond
C 0.68
H 0.23
N 0.68
O 0.68
loop_
_atom_site_label
_atom_site_type_symbol
_atom_site_fract_x
_atom_site_fract_y
_atom_site_fract_z
O1 O 0.0150(4) 0.2735(2) 0.2945(2)
O2 O 0.5688(5) 0.3780(3) 0.3635(3)
O3 O 0.5679(5) 0.5122(3) 0.2923(3)
O4 O -0.0390(4) -0.0736(3) 0.5073(3)
O5 O 0.1603(4) -0.0549(2) 0.4144(2)
N1 N -0.0137(4) 0.0604(3) 0.4238(3)
N2 N 0.5004(6) 0.4428(3) 0.3247(3)
C1 C -0.1674(6) 0.0998(3) 0.4413(3)
H1 H -0.17250 0.12370 0.50090
C2 C -0.1726(6) 0.1854(4) 0.3780(3)
H2 H -0.20920 0.16480 0.32170
H3 H -0.23870 0.23610 0.39970
C3 C -0.0125(6) 0.2195(3) 0.3726(3)
H4 H 0.01030 0.26030 0.42280
C4 C 0.1010(6) 0.3569(3) 0.3052(3)
C5 C 0.0258(7) 0.4434(3) 0.3101(3)
H5 H -0.08000 0.44450 0.30660
C6 C 0.1045(7) 0.5288(4) 0.3203(4)
H6 H 0.05230 0.58720 0.32460
C7 C 0.2618(6) 0.5269(3) 0.3241(3)
H7 H 0.31710 0.58380 0.33070
C8 C 0.3351(6) 0.4392(3) 0.3179(3)
C9 C 0.2605(6) 0.3506(3) 0.3078(3)
C10 C 0.3353(6) 0.2526(3) 0.2987(3)
H8 H 0.27730 0.21360 0.25830
H9 H 0.43700 0.26080 0.27530
C11 C 0.3456(6) 0.2003(3) 0.3839(3)
H10 H 0.43520 0.20770 0.41530
C12 C 0.2389(5) 0.1447(3) 0.4184(4)
H11 H 0.25900 0.11480 0.47100
C13 C 0.0860(5) 0.1274(3) 0.3763(3)
H12 H 0.10160 0.10290 0.31750
C14 C -0.2938(6) 0.0274(4) 0.4257(4)
H13 H -0.28090 -0.00170 0.36980
H14 H -0.39050 0.05980 0.42810
H15 H -0.29020 -0.02180 0.46950
C15 C 0.0308(6) -0.0271(3) 0.4537(3)
C16 C 0.2447(6) -0.1401(3) 0.4445(3)
C17 C 0.1516(8) -0.2295(4) 0.4313(5)
H16 H 0.06230 -0.22670 0.46710
H17 H 0.21090 -0.28530 0.44660
H18 H 0.12180 -0.23390 0.37160
C18 C 0.2925(9) -0.1255(6) 0.5372(4)
H19 H 0.20400 -0.12500 0.57370
H20 H 0.34530 -0.06500 0.54260
H21 H 0.35880 -0.17730 0.55450
C19 C 0.3783(7) -0.1425(5) 0.3846(5)
H22 H 0.44990 -0.19020 0.40420
H23 H 0.42640 -0.08010 0.38370
H24 H 0.34450 -0.15880 0.32740
#END
