
#######################################################################
#
#                 Cambridge Crystallographic Data Centre
#                                CCDC
#
#######################################################################
#
# If this CIF has been generated from an entry in the Cambridge
# Structural Database, then it will include bibliographic, chemical,
# crystal, experimental, refinement or atomic coordinate data resulting
# from the CCDC's data processing and validation procedures.
#
#######################################################################

data_CSD_CIF_IGIHUB
_audit_creation_date 2003-01-14
_audit_creation_method CSD-ConQuest-V1
_database_code_CSD IGIHUB
_database_code_depnum_ccdc_archive 'CCDC 175459 (not 101430 as published)'
_chemical_formula_sum 'C12 H15 N1 O2'
_chemical_formula_moiety
;
C12 H15 N1 O2
;
_journal_coden_Cambridge 180
_journal_volume 337
_journal_year 1995
_journal_page_first 686
_journal_name_full 'J.Prakt.Chem.-Chem.-Zeitung '
loop_
_publ_author_name
"I.Engel"
"W.Pritzkow"
"T.Gelbrich"
"J.Sieler"
_chemical_name_systematic
;
1-(2-Methoxy-4,6-dimethylphenyl)-2-nitrosoprop-1-ene
;
_chemical_melting_point 356.15
_cell_volume    563.334
_exptl_crystal_colour 'blue'
_exptl_crystal_density_diffrn 1.21
_exptl_special_details
;
Melting point range 356.15-357.15K

;
_exptl_crystal_description 'block'
_exptl_crystal_preparation 'diethyl ether'
_diffrn_ambient_temperature 200
#These two values have been output from a single CSD field.
_refine_ls_R_factor_gt 0.0357
_refine_ls_wR_factor_gt 0.0357
_symmetry_cell_setting triclinic
_symmetry_space_group_name_H-M 'P -1'
_symmetry_Int_Tables_number 2
loop_
_symmetry_equiv_pos_site_id
_symmetry_equiv_pos_as_xyz
1 x,y,z
2 -x,-y,-z
_cell_length_a 7.637(1)
_cell_length_b 8.550(2)
_cell_length_c 8.873(2)
_cell_angle_alpha 101.19
_cell_angle_beta 95.00(3)
_cell_angle_gamma 94.66
_cell_formula_units_Z 2
loop_
_atom_type_symbol
_atom_type_radius_bond
C 0.68
H 0.23
N 0.68
O 0.68
loop_
_atom_site_label
_atom_site_type_symbol
_atom_site_fract_x
_atom_site_fract_y
_atom_site_fract_z
O1 O 0.2355(2) 0.52983(16) 0.02177(13)
O2 O 0.36446(13) 0.65906(11) 0.57618(10)
N1 N 0.28657(19) 0.66264(16) 0.10336(14)
C1 C 0.27917(16) 0.89449(15) 0.50387(14)
C2 C 0.23634(16) 1.05311(15) 0.54559(15)
C3 C 0.22048(17) 1.11764(16) 0.69905(16)
C4 C 0.24858(17) 1.03076(16) 0.81491(15)
C5 C 0.29356(17) 0.87497(16) 0.77491(15)
C6 C 0.31053(16) 0.80772(15) 0.62194(14)
C7 C 0.29899(18) 0.82727(16) 0.34223(15)
C8 C 0.23397(17) 0.68393(16) 0.25566(14)
C9 C 0.2031(2) 1.15150(18) 0.42451(19)
C10 C 0.2341(3) 1.1048(2) 0.9816(2)
C11 C 0.4067(2) 0.56921(17) 0.69118(17)
C12 C 0.1158(2) 0.55613(19) 0.29749(19)
H1 H 0.189(2) 1.225(2) 0.7258(17)
H2 H 0.315(2) 0.8158(18) 0.8578(17)
H3 H 0.368(2) 0.8945(19) 0.2889(18)
H4 H 0.108(3) 1.104(2) 0.344(2)
H5 H 0.303(3) 1.163(2) 0.368(2)
H6 H 0.172(3) 1.259(3) 0.470(2)
H7 H 0.148(5) 1.178(5) 0.997(4)
H8 H 0.348(6) 1.170(6) 1.033(5)
H9 H 0.192(6) 1.025(5) 1.045(4)
H10? H 0.316(6) 1.056(5) 1.058(4)
H11? H 0.272(7) 1.227(7) 0.991(5)
H12? H 0.098(8) 1.095(6) 1.006(5)
H13 H 0.446(2) 0.468(2) 0.6345(18)
H14 H 0.501(2) 0.627(2) 0.765(2)
H15 H 0.310(3) 0.549(2) 0.743(2)
H16 H 0.074(2) 0.593(2) 0.395(2)
H17 H 0.020(2) 0.518(2) 0.214(2)
H18 H 0.175(3) 0.465(2) 0.303(2)
#END
