
#######################################################################
#
#                 Cambridge Crystallographic Data Centre
#                                CCDC
#
#######################################################################
#
# If this CIF has been generated from an entry in the Cambridge
# Structural Database, then it will include bibliographic, chemical,
# crystal, experimental, refinement or atomic coordinate data resulting
# from the CCDC's data processing and validation procedures.
#
#######################################################################

data_CSD_CIF_IGOTEE
_audit_creation_date 2010-05-14
_audit_creation_method CSD-ConQuest-V1
_database_code_CSD IGOTEE
_database_code_depnum_ccdc_archive 'CCDC 728930'
_chemical_formula_sum 'C12 H19 N1 O4'
_chemical_formula_moiety
;
C12 H19 N1 O4
;
_journal_coden_Cambridge 182
_journal_year 2009
_journal_page_first 5150
_journal_name_full 'Chem.Commun. '
loop_
_publ_author_name
"Yunfeng Chen"
"Cheng Zhong"
"Xiaohua Sun"
"N.G.Akhmedov"
"J.L.Petersen"
"Xiaodong Shi"
_chemical_name_systematic
;
1-((1S*,2R*,5R*)-2-Hydroxy-2-methyl-5-nitro-5-(prop-1-en-2-yl)cyclohexyl)ethan
one
;
_chemical_melting_point 335.75
_cell_volume    647.411
_exptl_crystal_colour 'colorless'
_exptl_crystal_density_diffrn 1.238
_exptl_special_details
;
Melting point range 335.75-336.05K

;
_exptl_crystal_description 'block'
_diffrn_ambient_temperature 293
_refine_special_details
;
C7,C8,C9 and C7',C8',C9' disordered over two sites with occupancies 
0.564:0.436.
;
#These two values have been output from a single CSD field.
_refine_ls_R_factor_gt 0.059
_refine_ls_wR_factor_gt 0.059
_symmetry_cell_setting triclinic
_symmetry_space_group_name_H-M 'P -1'
_symmetry_Int_Tables_number 2
loop_
_symmetry_equiv_pos_site_id
_symmetry_equiv_pos_as_xyz
1 x,y,z
2 -x,-y,-z
_cell_length_a 6.8860(4)
_cell_length_b 9.8204(6)
_cell_length_c 10.8548(7)
_cell_angle_alpha 107.871(1)
_cell_angle_beta 103.942(1)
_cell_angle_gamma 101.569(1)
_cell_formula_units_Z 2
loop_
_atom_type_symbol
_atom_type_radius_bond
C 0.68
H 0.23
N 0.68
O 0.68
loop_
_atom_site_label
_atom_site_type_symbol
_atom_site_fract_x
_atom_site_fract_y
_atom_site_fract_z
O1 O 0.3619(2) 0.63011(16) 1.01309(11)
O2 O 0.6372(2) 0.73238(17) 0.97990(13)
O3 O 0.17775(18) 0.35066(13) 0.48752(9)
H1 H 0.05490 0.30050 0.46260
O4 O -0.1626(2) 0.21279(17) 0.54793(13)
N1 N 0.4502(2) 0.67265(14) 0.94189(11)
C1 C 0.3166(2) 0.65695(15) 0.79683(12)
C2 C 0.4489(2) 0.62748(17) 0.70272(14)
H2 H 0.37800 0.63260 0.61620
H3 H 0.58220 0.70570 0.74370
C3 C 0.4893(2) 0.47605(18) 0.67563(15)
H4 H 0.57310 0.47470 0.76080
H5 H 0.56930 0.46280 0.61280
C4 C 0.2883(2) 0.34621(16) 0.61565(13)
C5 C 0.1624(2) 0.37284(15) 0.71599(12)
H6 H 0.24500 0.37100 0.80240
C6 C 0.11966(19) 0.52526(15) 0.74619(13)
H7 H 0.02530 0.52450 0.66350
H8 H 0.04960 0.53930 0.81470
C7 C 0.2754(14) 0.8067(7) 0.8211(9)
C8 C 0.3564(18) 0.9117(13) 0.7811(11)
H9 H 0.44960 0.89730 0.73240
H10 H 0.32050 1.00050 0.80140
C9 C 0.1217(14) 0.8449(10) 0.8959(13)
H11 H 0.14200 0.81210 0.97150
H12 H -0.01900 0.79550 0.83420
H13 H 0.14490 0.95130 0.92920
C10 C 0.3353(3) 0.1976(2) 0.5931(2)
H14 H 0.20690 0.11700 0.54660
H15 H 0.40230 0.19360 0.67990
H16 H 0.42660 0.18800 0.53870
C11 C -0.0466(2) 0.25186(17) 0.66331(15)
C12 C -0.1053(3) 0.1855(3) 0.7597(2)
H17 H -0.24000 0.11140 0.71430
H18 H -0.11160 0.26280 0.83700
H19 H -0.00250 0.13950 0.79020
C13? C 0.2647(16) 0.8082(8) 0.8241(12)
C14? C 0.0936(18) 0.8173(15) 0.8557(15)
C15? C 0.4259(19) 0.9244(15) 0.8085(15)
H20? H 0.05820 0.90620 0.87210
H21? H 0.00820 0.73480 0.86150
H22? H 0.41960 0.89480 0.71440
H23? H 0.56290 0.93350 0.86410
H24? H 0.39790 1.01910 0.83710
#END
