
#######################################################################
#
#                 Cambridge Crystallographic Data Centre
#                                CCDC
#
#######################################################################
#
# If this CIF has been generated from an entry in the Cambridge
# Structural Database, then it will include bibliographic, chemical,
# crystal, experimental, refinement or atomic coordinate data resulting
# from the CCDC's data processing and validation procedures.
#
#######################################################################

data_CSD_CIF_IGOTII
_audit_creation_date 2010-05-14
_audit_creation_method CSD-ConQuest-V1
_database_code_CSD IGOTII
_database_code_depnum_ccdc_archive 'CCDC 728931'
_chemical_formula_sum 'C16 H19 N1 O4'
_chemical_formula_moiety
;
C16 H19 N1 O4
;
_journal_coden_Cambridge 182
_journal_year 2009
_journal_page_first 5150
_journal_name_full 'Chem.Commun. '
loop_
_publ_author_name
"Yunfeng Chen"
"Cheng Zhong"
"Xiaohua Sun"
"N.G.Akhmedov"
"J.L.Petersen"
"Xiaodong Shi"
_chemical_name_systematic
;
(1S*,2R*,5R*)-2-Hydroxy-2-methyl-5-nitro-5-(1-phenylvinyl)cyclohexanecarbaldeh
yde
;
_chemical_melting_point 376.25
_cell_volume   1472.063
_exptl_crystal_colour 'colorless'
_exptl_crystal_density_diffrn 1.305
_exptl_special_details
;
Melting point range 376.25-377.45K

;
_exptl_crystal_description 'block'
_exptl_crystal_preparation 'dichloromethane/hexane'
_diffrn_ambient_temperature 293
#These two values have been output from a single CSD field.
_refine_ls_R_factor_gt 0.0531
_refine_ls_wR_factor_gt 0.0531
_symmetry_cell_setting monoclinic
_symmetry_space_group_name_H-M 'P 21/n'
_symmetry_Int_Tables_number 14
loop_
_symmetry_equiv_pos_site_id
_symmetry_equiv_pos_as_xyz
1 x,y,z
2 1/2-x,1/2+y,1/2-z
3 -x,-y,-z
4 -1/2+x,-1/2-y,-1/2+z
_cell_length_a 14.4068(11)
_cell_length_b 6.3085(5)
_cell_length_c 16.3698(13)
_cell_angle_alpha 90
_cell_angle_beta 98.334(1)
_cell_angle_gamma 90
_cell_formula_units_Z 4
loop_
_atom_type_symbol
_atom_type_radius_bond
C 0.68
H 0.23
N 0.68
O 0.68
loop_
_atom_site_label
_atom_site_type_symbol
_atom_site_fract_x
_atom_site_fract_y
_atom_site_fract_z
O1 O 0.89119(12) -0.0994(2) 0.44160(11)
O2 O 0.91668(10) 0.1783(2) 0.37402(10)
O3 O 0.78703(9) 0.4614(2) 0.63701(8)
H1 H 0.78950 0.47170 0.68720
O4 O 0.72677(13) -0.0045(3) 0.68805(10)
N1 N 0.87266(10) 0.0811(2) 0.41939(9)
C1 C 0.78648(11) 0.1907(2) 0.44764(9)
C2 C 0.76343(12) 0.0815(3) 0.52592(9)
H2 H 0.75440 -0.06860 0.51470
H3 H 0.70470 0.13800 0.53890
C3 C 0.83865(12) 0.1081(3) 0.60167(10)
H4 H 0.89470 0.03020 0.59140
C4 C 0.86673(11) 0.3445(3) 0.61852(10)
C5 C 0.89238(12) 0.4395(3) 0.53971(10)
H5 H 0.94780 0.36830 0.52600
H6 H 0.90800 0.58790 0.54920
C6 C 0.81418(12) 0.4220(2) 0.46659(10)
H7 H 0.83480 0.48560 0.41830
H8 H 0.75980 0.50010 0.47870
C7 C 0.70555(12) 0.1651(3) 0.3763(1)
C8 C 0.70867(16) 0.0358(4) 0.31309(13)
H9 H 0.65680 0.02280 0.27230
H10 H 0.76270 -0.04220 0.30940
C9 C 0.61814(12) 0.2899(3) 0.38166(10)
C10 C 0.60751(15) 0.4936(3) 0.34967(13)
H11 H 0.65650 0.55620 0.32720
C11 C 0.52464(18) 0.6047(4) 0.35089(16)
H12 H 0.51860 0.74120 0.32930
C12 C 0.45211(17) 0.5156(5) 0.38335(15)
H13 H 0.39670 0.59080 0.38400
C13 C 0.46107(15) 0.3142(5) 0.41509(14)
H14 H 0.41150 0.25290 0.43710
C14 C 0.54358(13) 0.2012(4) 0.41455(12)
H15 H 0.54900 0.06500 0.43640
C15 C 0.80511(16) 0.0135(4) 0.67691(12)
H16 H 0.85100 -0.03520 0.71850
C16 C 0.94914(14) 0.3655(4) 0.68837(12)
H17 H 0.96670 0.51190 0.69520
H18 H 1.00150 0.28510 0.67500
H19 H 0.93100 0.31260 0.73870
#END
