
#######################################################################
#
#                 Cambridge Crystallographic Data Centre
#                                CCDC
#
#######################################################################
#
# If this CIF has been generated from an entry in the Cambridge
# Structural Database, then it will include bibliographic, chemical,
# crystal, experimental, refinement or atomic coordinate data resulting
# from the CCDC's data processing and validation procedures.
#
#######################################################################

data_CSD_CIF_IHAJEI
_audit_creation_date 2015-05-06
_audit_creation_method CSD-ConQuest-V1
_database_code_CSD IHAJEI
_database_code_depnum_ccdc_archive 'CCDC 1025569'
_chemical_formula_sum 'C18 H18 N2 O4'
_chemical_formula_moiety
;
C18 H18 N2 O4
;
_journal_coden_Cambridge 179
_journal_volume 54
_journal_year 2015
_journal_page_first 5255
_journal_name_full 'Angew.Chem.,Int.Ed. '
loop_
_publ_author_name
"Xing-Feng Bai"
"Tao Song"
"Zheng Xu"
"Chun-Gu Xia"
"Wei-Sheng Huang"
"Li-Wen Xu"
_chemical_name_systematic
;
methyl 4-nitro-3,5-diphenylprolinate
;
_cell_volume   1600.988
_exptl_crystal_colour 'colorless'
_exptl_crystal_density_diffrn 1.354
_exptl_special_details
;
Heat-sensitive

;
_exptl_crystal_description 'block'
_diffrn_ambient_temperature 296
#These two values have been output from a single CSD field.
_refine_ls_R_factor_gt 0.0304
_refine_ls_wR_factor_gt 0.0304
_symmetry_cell_setting orthorhombic
_symmetry_space_group_name_H-M 'P 21 21 21'
_symmetry_Int_Tables_number 19
loop_
_symmetry_equiv_pos_site_id
_symmetry_equiv_pos_as_xyz
1 x,y,z
2 1/2+x,1/2-y,-z
3 -x,1/2+y,1/2-z
4 1/2-x,-y,1/2+z
_cell_length_a 8.1586(9)
_cell_length_b 12.1735(14)
_cell_length_c 16.1197(18)
_cell_angle_alpha 90
_cell_angle_beta 90
_cell_angle_gamma 90
_cell_formula_units_Z 4
loop_
_atom_type_symbol
_atom_type_radius_bond
C 0.68
H 0.23
N 0.68
O 0.68
loop_
_atom_site_label
_atom_site_type_symbol
_atom_site_fract_x
_atom_site_fract_y
_atom_site_fract_z
C1 C 0.3084(2) -0.04018(13) 0.58695(11)
H1 H 0.36660 -0.09320 0.61630
C2 C 0.1626(2) -0.00108(14) 0.61724(10)
H2 H 0.12170 -0.02760 0.66720
C3 C 0.0755(2) 0.07815(13) 0.57336(9)
H3 H -0.02280 0.10490 0.59450
N1 N 0.13284(16) 0.29457(10) 0.41964(7)
O1 O -0.19282(18) 0.00501(11) 0.42096(9)
O2 O -0.33283(14) 0.14964(11) 0.39224(8)
O3 O 0.31499(14) 0.36598(10) 0.24920(7)
O4 O 0.26403(15) 0.18646(10) 0.26655(7)
C4 C 0.03398(17) 0.20108(12) 0.45045(8)
H4 H -0.05220 0.22960 0.48690
C5 C -0.04713(17) 0.15494(12) 0.37069(8)
H5 H 0.02650 0.10240 0.34360
C6 C -0.07120(17) 0.25531(11) 0.31563(8)
H6 H -0.16130 0.29810 0.33950
C7 C -0.11244(17) 0.23600(11) 0.22492(8)
C8 C -0.0762(2) 0.31671(14) 0.16676(9)
H7 H -0.02380 0.38070 0.18380
C9 C 0.08828(18) 0.31938(11) 0.33269(8)
H8 H 0.07010 0.39840 0.32560
N2 N -0.20434(17) 0.09901(11) 0.39527(7)
C10 C 0.3689(2) -0.00045(13) 0.51252(10)
H9 H 0.46820 -0.02650 0.49220
C11 C 0.13401(17) 0.11757(12) 0.49827(8)
C12 C -0.1170(2) 0.30354(16) 0.08363(10)
H10 H -0.09040 0.35790 0.04540
C13 C -0.1969(2) 0.20982(16) 0.05802(10)
H11 H -0.22610 0.20130 0.00260
C14 C -0.19027(19) 0.14139(13) 0.19751(9)
H12 H -0.21400 0.08560 0.23500
C15 C -0.2333(2) 0.12901(16) 0.11452(10)
H13 H -0.28690 0.06560 0.09720
C16 C 0.23023(18) 0.28122(13) 0.27863(8)
C17 C 0.4569(3) 0.3388(2) 0.19895(14)
H14 H 0.53120 0.29450 0.23080
H15 H 0.51110 0.40520 0.18210
H16 H 0.42240 0.29870 0.15070
C18 C 0.28211(19) 0.07796(13) 0.46815(9)
H17 H 0.32320 0.10410 0.41810
H18 H 0.116(2) 0.3506(15) 0.4504(11)
#END
