
#######################################################################
#
#                 Cambridge Crystallographic Data Centre
#                                CCDC
#
#######################################################################
#
# If this CIF has been generated from an entry in the Cambridge
# Structural Database, then it will include bibliographic, chemical,
# crystal, experimental, refinement or atomic coordinate data resulting
# from the CCDC's data processing and validation procedures.
#
#######################################################################

data_CSD_CIF_IHEHUA
_audit_creation_date 2015-05-06
_audit_creation_method CSD-ConQuest-V1
_database_code_CSD IHEHUA
_database_code_depnum_ccdc_archive 'CCDC 1007248'
_chemical_formula_sum 'C17 H27 N1 O4'
_chemical_formula_moiety
;
C17 H27 N1 O4
;
_journal_coden_Cambridge 1291
_journal_year 2015
_journal_page_first 3923
_journal_name_full 'Eur.J.Org.Chem. '
loop_
_publ_author_name
"P.Shpak-Kraievskyi"
"A.M.Makaya"
"A.Beauchard"
"A.Martel"
"Mathieu Y.Laurent"
"G.Dujardin"
_chemical_name_systematic
;
2-(5-t-butoxy-3-(hydroxymethyl)-3-methyl-1,2-oxazolidin-2-yl)-2-phenylethanol
;
_cell_volume   1727.256
_diffrn_ambient_temperature 296
#These two values have been output from a single CSD field.
_refine_ls_R_factor_gt 0.063
_refine_ls_wR_factor_gt 0.063
_symmetry_cell_setting orthorhombic
_symmetry_space_group_name_H-M 'P 21 21 21'
_symmetry_Int_Tables_number 19
loop_
_symmetry_equiv_pos_site_id
_symmetry_equiv_pos_as_xyz
1 x,y,z
2 1/2+x,1/2-y,-z
3 -x,1/2+y,1/2-z
4 1/2-x,-y,1/2+z
_cell_length_a 5.9150(7)
_cell_length_b 15.3691(15)
_cell_length_c 19.000(3)
_cell_angle_alpha 90
_cell_angle_beta 90
_cell_angle_gamma 90
_cell_formula_units_Z 4
loop_
_atom_type_symbol
_atom_type_radius_bond
C 0.68
H 0.23
N 0.68
O 0.68
loop_
_atom_site_label
_atom_site_type_symbol
_atom_site_fract_x
_atom_site_fract_y
_atom_site_fract_z
O1 O 1.0223(4) 0.92265(13) 0.10213(11)
O2 O 0.4102(5) 0.79113(16) 0.16895(15)
O3 O 0.8455(5) 1.14457(16) 0.29775(18)
C1 C 0.4888(9) 0.7197(3) 0.4274(2)
H1 H 0.43210 0.69210 0.46720
C2 C 0.6936(10) 0.6951(3) 0.3995(2)
H2 H 0.77820 0.65180 0.42130
C3 C 0.7729(8) 0.7346(2) 0.3399(2)
H3 H 0.91120 0.71700 0.32140
C4 C 0.6546(6) 0.7990(2) 0.30677(17)
C5 C 0.7399(6) 0.83638(18) 0.23868(17)
H4 H 0.90530 0.83270 0.23820
N1 N 0.6729(4) 0.92984(16) 0.23263(14)
O4 O 0.6762(4) 0.95593(13) 0.15882(12)
C6 C 0.9012(5) 0.98553(19) 0.14069(18)
H5 H 0.89170 1.03970 0.11360
C7 C 0.9899(6) 0.9195(2) 0.02670(17)
C8 C 0.7420(6) 0.9163(3) 0.0065(2)
H6 H 0.66960 0.86930 0.03100
H7 H 0.72870 0.90730 -0.04330
H8 H 0.67080 0.97030 0.01910
C9 C 1.1010(8) 0.9980(3) -0.0079(2)
H9 H 1.02090 1.04990 0.00510
H10 H 1.09700 0.99130 -0.05810
H11 H 1.25520 1.00230 0.00740
C10 C 0.3707(7) 0.7842(3) 0.3963(2)
H12 H 0.23460 0.80250 0.41590
C11 C 0.4504(6) 0.8233(3) 0.33573(19)
H13 H 0.36510 0.86660 0.31420
C12 C 0.6482(8) 0.7843(2) 0.17736(19)
H14 H 0.72110 0.80400 0.13450
H15 H 0.68740 0.72360 0.18400
C13 C 0.8297(5) 0.99336(19) 0.26468(17)
C14 C 0.6974(6) 1.0790(2) 0.2728(2)
H16 H 0.63440 1.09610 0.22770
H17 H 0.57380 1.07100 0.30570
C15 C 0.9201(6) 0.9657(2) 0.33689(18)
H18 H 0.79600 0.95810 0.36890
H19 H 1.02000 1.00970 0.35460
H20 H 1.00100 0.91180 0.33240
C16 C 1.0188(6) 1.00217(19) 0.20981(18)
H21 H 1.08440 1.06000 0.21090
H22 H 1.13720 0.95970 0.21800
C17 C 1.1083(8) 0.8360(2) 0.0051(2)
H23 H 1.26630 0.84010 0.01620
H24 H 1.09030 0.82720 -0.04460
H25 H 1.04320 0.78780 0.03010
#END
