
#######################################################################
#
#                 Cambridge Crystallographic Data Centre
#                                CCDC
#
#######################################################################
#
# If this CIF has been generated from an entry in the Cambridge
# Structural Database, then it will include bibliographic, chemical,
# crystal, experimental, refinement or atomic coordinate data resulting
# from the CCDC's data processing and validation procedures.
#
#######################################################################

data_CSD_CIF_IHEJAI
_audit_creation_date 2015-05-06
_audit_creation_method CSD-ConQuest-V1
_database_code_CSD IHEJAI
_database_code_depnum_ccdc_archive 'CCDC 1007249'
_chemical_formula_sum 'C16 H19 N1 O5'
_chemical_formula_moiety
;
C16 H19 N1 O5
;
_journal_coden_Cambridge 1291
_journal_year 2015
_journal_page_first 3923
_journal_name_full 'Eur.J.Org.Chem. '
loop_
_publ_author_name
"P.Shpak-Kraievskyi"
"A.M.Makaya"
"A.Beauchard"
"A.Martel"
"Mathieu Y.Laurent"
"G.Dujardin"
_chemical_name_systematic
;
methyl 
2,3a-dimethyl-4-oxo-7-phenylhexahydro[1,2]oxazolo[3,2-c][1,4]oxazine-2-carboxy
late
;
_cell_volume    830.193
_exptl_crystal_density_diffrn 1.221
_diffrn_ambient_temperature 296
#These two values have been output from a single CSD field.
_refine_ls_R_factor_gt 0.0506
_refine_ls_wR_factor_gt 0.0506
_symmetry_cell_setting monoclinic
_symmetry_space_group_name_H-M 'P 21'
_symmetry_Int_Tables_number 4
loop_
_symmetry_equiv_pos_site_id
_symmetry_equiv_pos_as_xyz
1 x,y,z
2 -x,1/2+y,-z
_cell_length_a 11.113(3)
_cell_length_b 6.5612(17)
_cell_length_c 11.417(3)
_cell_angle_alpha 90
_cell_angle_beta 94.235(16)
_cell_angle_gamma 90
_cell_formula_units_Z 2
loop_
_atom_type_symbol
_atom_type_radius_bond
C 0.68
H 0.23
N 0.68
O 0.68
loop_
_atom_site_label
_atom_site_type_symbol
_atom_site_fract_x
_atom_site_fract_y
_atom_site_fract_z
O1 O 0.85787(18) 0.5831(3) 0.4948(2)
O2 O 0.39538(19) 0.3672(4) 0.1344(2)
C1 C 0.9110(3) 0.7787(6) 0.5391(3)
H1 H 0.89890 0.88140 0.47950
H2 H 0.99590 0.76100 0.55860
H3 H 0.87260 0.82010 0.60790
C2 C 0.7385(3) 0.5824(5) 0.4673(3)
C3 C 0.6903(2) 0.3678(4) 0.4286(3)
O3 O 0.77227(16) 0.2721(3) 0.34750(16)
N1 N 0.7205(2) 0.3005(4) 0.2252(2)
C4 C 0.7498(3) 0.5105(5) 0.1830(3)
H4 H 0.71600 0.61300 0.23360
C5 C 0.8856(3) 0.5463(5) 0.1783(3)
C6 C 0.9619(3) 0.3906(6) 0.1395(3)
H5 H 0.93050 0.26260 0.12000
C7 C 1.0854(3) 0.4303(6) 0.1305(3)
H6 H 1.13540 0.32870 0.10460
C8 C 1.1339(3) 0.6246(7) 0.1608(3)
H7 H 1.21570 0.64970 0.15610
O4 O 0.67286(19) 0.7311(3) 0.4772(2)
C9 C 0.6945(3) 0.2337(5) 0.5412(3)
H8 H 0.66670 0.09890 0.52100
H9 H 0.64360 0.29250 0.59650
H10 H 0.77590 0.22700 0.57550
C10 C 0.5650(3) 0.3789(5) 0.3576(3)
H11 H 0.53900 0.51930 0.34670
H12 H 0.50440 0.30510 0.39750
C11 C 0.5870(3) 0.2761(5) 0.2364(3)
C12 C 0.5571(3) 0.0437(5) 0.2350(3)
H13 H 0.57620 -0.01400 0.16130
H14 H 0.47270 0.02490 0.24480
H15 H 0.60390 -0.02280 0.29790
C13 C 0.5045(3) 0.3844(5) 0.1383(3)
O5 O 0.55344(19) 0.5080(4) 0.0588(2)
C14 C 0.6859(3) 0.5227(6) 0.0578(3)
H16 H 0.70660 0.65070 0.02190
H17 H 0.71480 0.41300 0.01040
C15 C 1.0590(3) 0.7773(7) 0.1976(3)
H18 H 1.09080 0.90540 0.21610
C16 C 0.9345(3) 0.7399(6) 0.2071(3)
H19 H 0.88510 0.84290 0.23240
#END
