
#######################################################################
#
#                 Cambridge Crystallographic Data Centre
#                                CCDC
#
#######################################################################
#
# If this CIF has been generated from an entry in the Cambridge
# Structural Database, then it will include bibliographic, chemical,
# crystal, experimental, refinement or atomic coordinate data resulting
# from the CCDC's data processing and validation procedures.
#
#######################################################################

data_CSD_CIF_IHETEU
_audit_creation_date 2003-01-14
_audit_creation_method CSD-ConQuest-V1
_database_code_CSD IHETEU
_database_code_depnum_ccdc_archive 'CCDC 199448'
_chemical_formula_sum 'C20 H15 N5 O5'
_chemical_formula_moiety
;
C20 H15 N5 O5
;
_journal_coeditor_code "IUCr HW0101"
_journal_coden_Cambridge 228
_journal_volume 35
_journal_year 2002
_journal_page_first 669
_journal_name_full 'J.Appl.Crystallogr. '
loop_
_publ_author_name
"V.V.Chernyshev"
"A.V.Yatsenko"
"A.M.Kuvshinov"
"A.A.Shevelev"
_chemical_name_systematic
;
N-methyl-2,4-dinitro-N-phenyl-6-(phenylazo)benzamide
;
_cell_volume   1948.056
_exptl_crystal_density_diffrn 1.382
_diffrn_ambient_temperature 295
#These two values have been output from a single CSD field.
_refine_ls_R_factor_gt 0.043
_refine_ls_wR_factor_gt 0.043
_symmetry_cell_setting monoclinic
_symmetry_space_group_name_H-M 'P 21/c'
_symmetry_Int_Tables_number 14
loop_
_symmetry_equiv_pos_site_id
_symmetry_equiv_pos_as_xyz
1 x,y,z
2 x,1/2-y,1/2+z
3 -x,-y,-z
4 -x,-1/2+y,-1/2-z
_cell_length_a 8.676(4)
_cell_length_b 18.560(7)
_cell_length_c 12.098(6)
_cell_angle_alpha 90
_cell_angle_beta 90.38(2)
_cell_angle_gamma 90
_cell_formula_units_Z 4
loop_
_atom_type_symbol
_atom_type_radius_bond
C 0.68
H 0.23
N 0.68
O 0.68
loop_
_atom_site_label
_atom_site_type_symbol
_atom_site_fract_x
_atom_site_fract_y
_atom_site_fract_z
C1 C 0.078(2) 0.4394(6) 0.3423(8)
C2 C 0.038(2) 0.3678(7) 0.3334(9)
C3 C 0.091(2) 0.3160(6) 0.4124(9)
C4 C 0.1790(18) 0.3409(6) 0.5018(9)
C5 C 0.2190(19) 0.4133(6) 0.5128(9)
C6 C 0.167(2) 0.4635(7) 0.4352(9)
C7 C 0.022(2) 0.4981(6) 0.2654(8)
N1 N 0.2353(19) 0.2899(7) 0.5882(10)
O1 O 0.2047(14) 0.2294(4) 0.5706(6)
O2 O 0.2975(17) 0.3172(6) 0.6674(8)
N2 N -0.0542(18) 0.3403(6) 0.2374(8)
O3 O -0.0791(17) 0.2774(5) 0.2353(7)
O4 O -0.0820(14) 0.3863(4) 0.1676(6)
N3 N 0.2048(14) 0.5381(5) 0.4432(6)
N4 N 0.2882(14) 0.5530(5) 0.5234(6)
C8 C 0.3310(18) 0.6248(6) 0.5423(9)
C9 C 0.434(2) 0.6415(6) 0.6296(9)
C10 C 0.477(2) 0.7123(6) 0.6476(9)
C11 C 0.419(2) 0.7671(5) 0.5785(9)
C12 C 0.320(2) 0.7505(6) 0.4913(9)
C13 C 0.2761(18) 0.6807(6) 0.4729(9)
N5 N 0.1203(16) 0.5315(5) 0.1918(7)
O5 O -0.1139(13) 0.5184(4) 0.2799(5)
C14 C 0.2722(19) 0.5111(6) 0.1767(8)
C15 C 0.393(2) 0.5578(6) 0.2091(8)
C16 C 0.5455(19) 0.5371(6) 0.1916(8)
C17 C 0.5776(19) 0.4707(6) 0.1437(8)
C18 C 0.460(2) 0.4237(6) 0.1126(8)
C19 C 0.3063(19) 0.4434(6) 0.1285(8)
C20 C 0.070(3) 0.5933(10) 0.1248(13)
H1 H 0.27910 0.42830 0.57320
H2 H 0.06480 0.26810 0.40440
H3 H 0.47280 0.60500 0.67460
H4 H 0.54410 0.72380 0.70510
H5 H 0.44690 0.81480 0.59120
H6 H 0.28270 0.78700 0.44610
H7 H 0.21020 0.66960 0.41440
H8 H 0.37070 0.60310 0.23830
H9 H 0.62540 0.56750 0.21260
H10 H 0.67980 0.45720 0.13260
H11 H 0.48310 0.37940 0.08060
H12 H 0.22680 0.41280 0.10700
H13 H -0.03600 0.60340 0.14050
H14 H 0.08510 0.58370 0.04910
H15 H 0.13220 0.63460 0.14740
#END
