
#######################################################################
#
#                 Cambridge Crystallographic Data Centre
#                                CCDC
#
#######################################################################
#
# If this CIF has been generated from an entry in the Cambridge
# Structural Database, then it will include bibliographic, chemical,
# crystal, experimental, refinement or atomic coordinate data resulting
# from the CCDC's data processing and validation procedures.
#
#######################################################################

data_CSD_CIF_IHETAQ
_audit_creation_date 2003-01-14
_audit_creation_method CSD-ConQuest-V1
_database_code_CSD IHETAQ
_database_code_depnum_ccdc_archive 'CCDC 199447'
_chemical_formula_sum 'C21 H17 N5 O7'
_chemical_formula_moiety
;
C21 H17 N5 O7
;
_journal_coeditor_code "IUCr HW0101"
_journal_coden_Cambridge 228
_journal_volume 35
_journal_year 2002
_journal_page_first 669
_journal_name_full 'J.Appl.Crystallogr. '
loop_
_publ_author_name
"V.V.Chernyshev"
"A.V.Yatsenko"
"A.M.Kuvshinov"
"A.A.Shevelev"
_chemical_name_systematic
;
N-(2-methoxyphenyl)-2-(methoxyphenyldiazo)-4,6-dinitrobenzamide
;
_cell_volume   2052.847
_exptl_crystal_density_diffrn 1.461
_diffrn_ambient_temperature 295
#These two values have been output from a single CSD field.
_refine_ls_R_factor_gt 0.05
_refine_ls_wR_factor_gt 0.05
_symmetry_cell_setting orthorhombic
_symmetry_space_group_name_H-M 'P 21 21 21'
_symmetry_Int_Tables_number 19
loop_
_symmetry_equiv_pos_site_id
_symmetry_equiv_pos_as_xyz
1 x,y,z
2 1/2-x,-y,1/2+z
3 1/2+x,1/2-y,-z
4 -x,1/2+y,1/2-z
_cell_length_a 22.788(8)
_cell_length_b 13.018(6)
_cell_length_c 6.920(3)
_cell_angle_alpha 90
_cell_angle_beta 90
_cell_angle_gamma 90
_cell_formula_units_Z 4
loop_
_atom_type_symbol
_atom_type_radius_bond
C 0.68
H 0.23
N 0.68
O 0.68
loop_
_atom_site_label
_atom_site_type_symbol
_atom_site_fract_x
_atom_site_fract_y
_atom_site_fract_z
C1 C 0.3077(4) 0.1227(8) 0.065(3)
C2 C 0.3655(4) 0.1415(9) 0.067(3)
C3 C 0.4090(4) 0.0624(7) 0.057(3)
C4 C 0.3872(4) -0.0383(7) 0.041(3)
C5 C 0.3268(4) -0.0607(8) 0.037(3)
C6 C 0.2868(4) 0.0149(8) 0.047(3)
C7 C 0.2573(5) 0.1913(9) 0.070(3)
N1 N 0.3892(4) 0.2508(8) 0.083(3)
O1 O 0.3527(3) 0.3163(6) 0.105(2)
O2 O 0.4401(3) 0.2632(5) 0.059(2)
N2 N 0.4282(3) -0.1255(7) 0.030(3)
O3 O 0.4783(2) -0.1019(6) 0.042(2)
O4 O 0.4114(3) -0.2128(5) 0.002(2)
N3 N 0.2250(4) 0.0116(8) 0.045(3)
N4 N 0.2009(3) -0.0681(7) 0.102(3)
C8 C 0.1394(3) -0.0749(8) 0.074(3)
C9 C 0.1130(4) -0.1735(8) 0.094(3)
C10 C 0.0528(4) -0.1805(7) 0.066(3)
C11 C 0.0194(3) -0.0946(9) 0.022(3)
C12 C 0.0452(4) 0.0021(7) 0.005(3)
C13 C 0.1050(4) 0.0117(7) 0.032(3)
N5 N 0.2415(4) 0.2398(6) -0.098(2)
C14 C 0.1927(4) 0.3052(8) -0.117(3)
C15 C 0.1449(4) 0.2997(8) 0.012(3)
C16 C 0.0962(4) 0.3634(9) -0.004(3)
C17 C 0.0935(4) 0.4342(9) -0.153(3)
C18 C 0.1390(4) 0.4398(9) -0.287(3)
C19 C 0.1885(4) 0.3766(9) -0.271(3)
O5 O 0.2347(3) 0.3838(6) -0.405(2)
O6 O 0.1482(3) -0.2562(5) 0.136(2)
C20 C 0.2186(4) 0.4368(9) -0.574(3)
O7 O 0.2361(3) 0.2095(6) 0.2347(17)
C21 C 0.1198(5) -0.352(1) 0.118(3)
H1 H 0.31480 -0.13020 0.02710
H2 H 0.44880 0.07650 0.05990
H3 H 0.03440 -0.24430 0.07680
H4 H -0.02090 -0.10170 0.00530
H5 H 0.02240 0.05950 -0.02300
H6 H 0.12280 0.07570 0.01990
H7 H 0.26890 0.24320 -0.18500
H8 H 0.14750 0.25350 0.11420
H9 H 0.06570 0.35790 0.08460
H10 H 0.06050 0.47560 -0.16640
H11 H 0.13670 0.48670 -0.38680
H12 H 0.24980 0.43420 -0.66630
H13 H 0.21000 0.50720 -0.54160
H14 H 0.18380 0.40590 -0.62810
H15 H 0.14670 -0.40590 0.15150
H16 H 0.10720 -0.36100 -0.01360
H17 H 0.08640 -0.35410 0.20180
#END
