
#######################################################################
#
#                 Cambridge Crystallographic Data Centre
#                                CCDC
#
#######################################################################
#
# If this CIF has been generated from an entry in the Cambridge
# Structural Database, then it will include bibliographic, chemical,
# crystal, experimental, refinement or atomic coordinate data resulting
# from the CCDC's data processing and validation procedures.
#
#######################################################################

data_CSD_CIF_IHOGIV
_audit_creation_date 2003-10-14
_audit_creation_method CSD-ConQuest-V1
_database_code_CSD IHOGIV
_database_code_depnum_ccdc_archive 'CCDC 198855'
_chemical_formula_sum 'C32 H25 N3 O8'
_chemical_formula_moiety
;
C32 H25 N3 O8
;
_journal_coden_Cambridge 35
_journal_volume 68
_journal_year 2003
_journal_page_first 4235
_journal_name_full 'J.Org.Chem. '
loop_
_publ_author_name
"F.F.Fleming"
"Qunzhao Wang"
"O.W.Steward"
_chemical_name_systematic
;
2-Cyano-1,3-diphenyl-1,4-bis(4-nitrobenzoyloxy)pentane
;
_chemical_melting_point 461
_cell_volume   2957.755
_exptl_crystal_colour 'colorless'
_exptl_crystal_density_diffrn 1.301
_exptl_special_details
;
Melting point range 461-463K

;
_exptl_crystal_description 'plate'
_exptl_crystal_preparation 'ethyl acetate/hexanes'
_diffrn_ambient_temperature 294
#These two values have been output from a single CSD field.
_refine_ls_R_factor_gt 0.0342
_refine_ls_wR_factor_gt 0.0342
_symmetry_cell_setting orthorhombic
_symmetry_space_group_name_H-M 'P c a 21'
_symmetry_Int_Tables_number 29
loop_
_symmetry_equiv_pos_site_id
_symmetry_equiv_pos_as_xyz
1 x,y,z
2 -x,-y,1/2+z
3 1/2-x,y,1/2+z
4 1/2+x,-y,z
_cell_length_a 13.401(2)
_cell_length_b 11.024(2)
_cell_length_c 20.021(2)
_cell_angle_alpha 90
_cell_angle_beta 90
_cell_angle_gamma 90
_cell_formula_units_Z 4
loop_
_atom_type_symbol
_atom_type_radius_bond
C 0.68
H 0.23
N 0.68
O 0.68
loop_
_atom_site_label
_atom_site_type_symbol
_atom_site_fract_x
_atom_site_fract_y
_atom_site_fract_z
O1 O 0.3047(3) 0.2939(4) 0.2583(7)
O2 O 0.2775(5) 0.0944(5) 0.2531(8)
O3 O 0.7537(7) 0.230(1) 0.4090(9)
O4 O 0.7427(6) 0.031(1) 0.4012(8)
O5 O 0.2532(3) 0.6475(4) 0.1020(8)
O6 O 0.2705(4) 0.7299(4) 0.2034(8)
O7 O -0.0822(5) 1.0833(6) 0.0138(8)
O8 O -0.0636(7) 1.1658(8) 0.1084(8)
N1 N 0.0484(4) 0.5432(5) 0.1738(8)
N2 N 0.7133(7) 0.137(1) 0.3920(9)
N3 N -0.0486(6) 1.0863(7) 0.0687(9)
C1 C 0.2072(4) 0.3194(6) 0.2316(8)
C2 C 0.2215(4) 0.4444(5) 0.1977(8)
C3 C 0.2884(4) 0.4355(5) 0.1349(8)
C4 C 0.3322(5) 0.5592(6) 0.1145(8)
C5 C 0.3937(5) 0.5528(6) 0.0511(9)
C6 C 0.1251(5) 0.4983(6) 0.1829(8)
C7 C 0.1304(5) 0.3188(6) 0.2863(8)
C8 C 0.1539(6) 0.3441(8) 0.3515(8)
C9 C 0.0814(8) 0.344(1) 0.3995(8)
C10 C -0.0153(7) 0.3214(9) 0.3844(8)
C11 C -0.0423(5) 0.2980(8) 0.3192(8)
C12 C 0.0293(5) 0.2939(6) 0.2706(8)
C13 C 0.2441(5) 0.3606(6) 0.0796(8)
C14 C 0.1720(5) 0.4040(6) 0.0372(8)
C15 C 0.1327(5) 0.3312(9) -0.0130(8)
C16 C 0.1647(7) 0.2130(9) -0.0201(8)
C17 C 0.2350(7) 0.1684(7) 0.0215(9)
C18 C 0.2755(5) 0.2407(7) 0.0708(8)
C19 C 0.3297(6) 0.1764(7) 0.2676(8)
C20 C 0.4312(5) 0.1689(7) 0.2991(8)
C21 C 0.4651(6) 0.0541(7) 0.3176(8)
C22 C 0.5587(8) 0.042(1) 0.3478(9)
C23 C 0.6124(6) 0.146(1) 0.3585(8)
C24 C 0.5816(6) 0.2580(8) 0.3414(8)
C25 C 0.4895(6) 0.2716(7) 0.3112(9)
C26 C 0.2347(5) 0.7313(6) 0.1483(9)
C27 C 0.1616(5) 0.8220(5) 0.1251(8)
C28 C 0.1227(6) 0.8203(6) 0.0627(8)
C29 C 0.0543(6) 0.9083(8) 0.0431(8)
C30 C 0.0245(5) 0.9927(7) 0.0887(8)
C31 C 0.0638(6) 0.9982(7) 0.1501(8)
C32 C 0.1328(6) 0.9124(7) 0.1687(8)
H1 H 0.19030 0.26060 0.19790
H2 H 0.25490 0.49570 0.22850
H3 H 0.34480 0.38930 0.14870
H4 H 0.37430 0.58770 0.14920
H5 H 0.44750 0.49630 0.05610
H6 H 0.35300 0.52610 0.01450
H7 H 0.42060 0.63020 0.04040
H8 H 0.22090 0.36360 0.36300
H9 H 0.09950 0.36030 0.44540
H10 H -0.06440 0.32100 0.41840
H11 H -0.11020 0.28520 0.30760
H12 H 0.01150 0.27500 0.22570
H13 H 0.14850 0.48540 0.04200
H14 H 0.08310 0.36320 -0.04370
H15 H 0.13820 0.16260 -0.05400
H16 H 0.25850 0.08660 0.01670
H17 H 0.32550 0.20950 0.09950
H18 H 0.42350 -0.01420 0.30910
H19 H 0.58060 -0.03810 0.35850
H20 H 0.62290 0.32700 0.35020
H21 H 0.46570 0.34950 0.29760
H22 H 0.14120 0.75810 0.03190
H23 H 0.02960 0.91120 -0.00210
H24 H 0.04470 1.06080 0.17980
H25 H 0.16070 0.91500 0.21190
#END
