
#######################################################################
#
#                 Cambridge Crystallographic Data Centre
#                                CCDC
#
#######################################################################
#
# If this CIF has been generated from an entry in the Cambridge
# Structural Database, then it will include bibliographic, chemical,
# crystal, experimental, refinement or atomic coordinate data resulting
# from the CCDC's data processing and validation procedures.
#
#######################################################################

data_CSD_CIF_IHOQUT
_audit_creation_date 2015-05-07
_audit_creation_method CSD-ConQuest-V1
_database_code_CSD IHOQUT
_database_code_depnum_ccdc_archive 'CCDC 1024448'
_chemical_formula_sum 'C25 H17 N5 O1'
_chemical_formula_moiety
;
C25 H17 N5 O1
;
_journal_coden_Cambridge 24
_journal_volume 56
_journal_year 2015
_journal_page_first 1865
_journal_name_full 'Tetrahedron Lett. '
loop_
_publ_author_name
"N.A.Kazin"
"Y.A.Kvashnin"
"R.A.Irgashev"
"Wim Dehaen"
"G.L.Rusinov"
"V.N.Charushin"
_chemical_name_systematic
;
(E)-5-(2-(9-methyl-9H-carbazol-3-yl)vinyl)-6-phenyl-[1,2,5]oxadiazolo[3,4-b]py
razine
;
_chemical_name_common
;
9-methyl-3-(2-(6-phenyl[1,2,5]oxadiazolo[3,4-b]pyrazin-5-yl)vinyl)-9H-carbazol
e
;
_cell_volume   2023.540
_exptl_crystal_colour 'red'
_exptl_crystal_density_diffrn 1.324
_exptl_crystal_description 'prism'
_diffrn_ambient_temperature 295
#These two values have been output from a single CSD field.
_refine_ls_R_factor_gt 0.0496
_refine_ls_wR_factor_gt 0.0496
_symmetry_cell_setting monoclinic
_symmetry_space_group_name_H-M 'P 21/c'
_symmetry_Int_Tables_number 14
loop_
_symmetry_equiv_pos_site_id
_symmetry_equiv_pos_as_xyz
1 x,y,z
2 -x,1/2+y,1/2-z
3 -x,-y,-z
4 x,-1/2-y,-1/2+z
_cell_length_a 7.5252(1)
_cell_length_b 7.7760(9)
_cell_length_c 34.756(3)
_cell_angle_alpha 90
_cell_angle_beta 95.752(9)
_cell_angle_gamma 90
_cell_formula_units_Z 4
loop_
_atom_type_symbol
_atom_type_radius_bond
C 0.68
H 0.23
N 0.68
O 0.68
loop_
_atom_site_label
_atom_site_type_symbol
_atom_site_fract_x
_atom_site_fract_y
_atom_site_fract_z
N1 N 0.3544(2) 0.6224(2) 0.08724(5)
O1 O 0.7673(2) 0.8192(2) 0.09216(6)
C1 C 0.1207(3) 0.4665(3) 0.11215(7)
H1 H 0.094(3) 0.396(3) 0.1358(7)
N2 N 0.6125(3) 0.7725(3) 0.07017(6)
C2 C 0.5173(3) 0.6974(3) 0.09501(6)
N3 N 0.7670(3) 0.7728(3) 0.13069(7)
C3 C 0.6129(3) 0.6986(3) 0.13187(7)
N4 N 0.5445(3) 0.6371(2) 0.16404(6)
C4 C 0.0145(3) 0.4684(3) 0.07909(7)
H2 H 0.055(3) 0.529(3) 0.0577(6)
N5 N -0.6519(2) 0.1481(3) 0.05268(6)
C5 C 0.3825(3) 0.5757(3) 0.15749(6)
C6 C 0.2886(3) 0.5603(3) 0.11789(6)
C7 C -0.4875(3) 0.2268(3) 0.05390(6)
C8 C -0.4032(3) 0.3002(3) 0.02413(7)
H3 H -0.45500 0.29760 -0.00130
C9 C -0.2412(3) 0.3765(3) 0.03372(7)
H4 H -0.18410 0.42780 0.01410
C10 C -0.1562(3) 0.3816(3) 0.07164(6)
C11 C -0.2427(3) 0.3049(3) 0.10091(7)
H5 H -0.183(3) 0.310(3) 0.1262(7)
C12 C -0.4085(3) 0.2287(3) 0.09251(6)
C13 C -0.5340(3) 0.1483(3) 0.11558(7)
C14 C -0.5375(3) 0.1161(3) 0.15456(8)
H6 H -0.44000 0.14470 0.17200
C15 C -0.6863(4) 0.0415(4) 0.16745(9)
H7 H -0.68980 0.02120 0.19370
C16 C -0.8311(4) -0.0037(3) 0.14157(10)
H8 H -0.93040 -0.05350 0.15100
C17 C -0.8323(3) 0.0228(3) 0.10254(10)
H9 H -0.92910 -0.01020 0.08540
C18 C -0.6827(3) 0.1011(3) 0.08965(8)
C19 C -0.7746(3) 0.1184(4) 0.01810(8)
H10 H -0.87990 0.06150 0.02510
H11 H -0.71760 0.04760 0.00030
H12 H -0.80730 0.22650 0.00610
C20 C 0.2979(4) 0.5253(3) 0.19262(6)
C21 C 0.1216(4) 0.5694(3) 0.19717(8)
H13 H 0.05250 0.62580 0.17740
C22 C 0.0494(5) 0.5291(5) 0.23119(11)
H14 H -0.06810 0.55900 0.23420
C23 C 0.1493(8) 0.4460(5) 0.26029(11)
H15 H 0.09980 0.41910 0.28300
C24 C 0.3211(7) 0.4021(4) 0.25619(9)
H16 H 0.38840 0.34480 0.27610
C25 C 0.3975(4) 0.4420(4) 0.22252(8)
H17 H 0.51570 0.41260 0.22010
#END
