
#######################################################################
#
#                 Cambridge Crystallographic Data Centre
#                                CCDC
#
#######################################################################
#
# If this CIF has been generated from an entry in the Cambridge
# Structural Database, then it will include bibliographic, chemical,
# crystal, experimental, refinement or atomic coordinate data resulting
# from the CCDC's data processing and validation procedures.
#
#######################################################################

data_CSD_CIF_IHOVOS
_audit_creation_date 2015-05-07
_audit_creation_method CSD-ConQuest-V1
_database_code_CSD IHOVOS
_database_code_depnum_ccdc_archive 'CCDC 1030711'
_chemical_formula_sum 'C15 H18 N4 O4'
_chemical_formula_moiety
;
C15 H18 N4 O4
;
_journal_coden_Cambridge 24
_journal_volume 56
_journal_year 2015
_journal_page_first 1020
_journal_name_full 'Tetrahedron Lett. '
loop_
_publ_author_name
"O.Bouaziz"
"M.Amari"
"R.Bachar"
"N.Khier"
"M.Fodili"
"F.A.A.Paz"
"O.Talhi"
"A.M.S.Silva"
_chemical_name_systematic
;
N,N-dimethyl-N'-(4-nitro-2-((1-(2-oxodihydrofuran-3(2H)-ylidene)ethyl)amino)ph
enyl)imidoformamide
;
_cell_volume   1534.433
_exptl_crystal_colour 'yellow'
_exptl_crystal_density_diffrn 1.378
_exptl_crystal_description 'Plate'
_diffrn_ambient_temperature 180
#These two values have been output from a single CSD field.
_refine_ls_R_factor_gt 0.0871
_refine_ls_wR_factor_gt 0.0871
_symmetry_cell_setting monoclinic
_symmetry_space_group_name_H-M 'P 21/c'
_symmetry_Int_Tables_number 14
loop_
_symmetry_equiv_pos_site_id
_symmetry_equiv_pos_as_xyz
1 x,y,z
2 -x,1/2+y,1/2-z
3 -x,-y,-z
4 x,-1/2-y,-1/2+z
_cell_length_a 17.223(5)
_cell_length_b 12.009(3)
_cell_length_c 7.4580(19)
_cell_angle_alpha 90
_cell_angle_beta 95.879(11)
_cell_angle_gamma 90
_cell_formula_units_Z 4
loop_
_atom_type_symbol
_atom_type_radius_bond
C 0.68
H 0.23
N 0.68
O 0.68
loop_
_atom_site_label
_atom_site_type_symbol
_atom_site_fract_x
_atom_site_fract_y
_atom_site_fract_z
O1 O 1.10394(18) 0.3765(3) 0.7071(5)
O2 O 1.04602(18) 0.2558(3) 0.5225(5)
O3 O 0.61671(17) 0.4154(2) 0.2956(4)
O4 O 0.54315(16) 0.2663(2) 0.2120(4)
N1 N 0.6980(2) 0.7318(3) 0.6108(5)
N2 N 0.75903(19) 0.5608(3) 0.6225(5)
N3 N 1.0450(2) 0.3375(3) 0.6234(5)
N4 N 0.76149(19) 0.3582(3) 0.4730(4)
H1 H 0.7214(16) 0.409(2) 0.433(5)
C1 C 0.7037(3) 0.8531(3) 0.6099(7)
H2 H 0.67530 0.88380 0.70600
H3 H 0.68090 0.88180 0.49320
H4 H 0.75860 0.87520 0.63000
C2 C 0.6207(2) 0.6823(4) 0.5931(7)
H5 H 0.62220 0.61100 0.52970
H6 H 0.58390 0.73250 0.52460
H7 H 0.60390 0.66990 0.71310
C3 C 0.7618(2) 0.6689(3) 0.6228(5)
H8 H 0.81130 0.70440 0.63190
C4 C 0.8306(2) 0.5055(3) 0.6415(5)
C5 C 0.8984(2) 0.5435(3) 0.7410(6)
H9 H 0.89610 0.60970 0.81020
C6 C 0.9684(2) 0.4882(3) 0.7422(6)
H10 H 1.01420 0.51540 0.81000
C7 C 0.9700(2) 0.3912(3) 0.6410(6)
C8 C 0.9036(2) 0.3460(3) 0.5494(5)
H11 H 0.90680 0.27920 0.48240
C9 C 0.8322(2) 0.3985(3) 0.5556(5)
C10 C 0.7862(2) 0.1562(3) 0.5272(6)
H12 H 0.75320 0.09390 0.55760
H13 H 0.81820 0.18130 0.63600
H14 H 0.82030 0.13190 0.43720
C11 C 0.7358(2) 0.2501(3) 0.4521(5)
C12 C 0.6637(2) 0.2290(3) 0.3659(5)
C13 C 0.6097(2) 0.3135(4) 0.2918(6)
C14 C 0.5475(3) 0.1446(4) 0.2278(6)
H15 H 0.54360 0.11000 0.10670
H16 H 0.50410 0.11620 0.29260
C15 C 0.6258(2) 0.1165(3) 0.3322(6)
H17 H 0.61850 0.07850 0.44710
H18 H 0.65740 0.06840 0.26020
#END
