
#######################################################################
#
#                 Cambridge Crystallographic Data Centre
#                                CCDC
#
#######################################################################
#
# If this CIF has been generated from an entry in the Cambridge
# Structural Database, then it will include bibliographic, chemical,
# crystal, experimental, refinement or atomic coordinate data resulting
# from the CCDC's data processing and validation procedures.
#
#######################################################################

data_CSD_CIF_IHOXOS
_audit_creation_date 2003-10-14
_audit_creation_method CSD-ConQuest-V1
_database_code_CSD IHOXOS
_database_code_depnum_ccdc_archive 'CCDC 185411'
_chemical_formula_sum 'C19 H32 N2 O7'
_chemical_formula_moiety
;
C19 H32 N2 O7
;
_journal_coden_Cambridge 1336
_journal_volume 5
_journal_year 2003
_journal_page_first 1019
_journal_name_full 'Org.Lett. '
loop_
_publ_author_name
"S.Fioravanti"
"F.Marchetti"
"A.Morreale"
"L.Pellacani"
"P.A.Tardella"
_chemical_name_systematic
;
7-t-Butyl 1-ethyl 
(1R*,5R*)-9-t-butoxy-6-hydroxy-8-oxo-7,9-diazabicyclo(4.3.0)nonane-1,7-dicarbo
xylate
;
_chemical_melting_point 401.15
_cell_volume   1074.528
_exptl_crystal_colour 'colorless'
_exptl_crystal_density_diffrn 1.238
_exptl_special_details
;
Melting point range 401.15-402.15K

;
_exptl_crystal_description 'prism'
_diffrn_ambient_temperature 293
#These two values have been output from a single CSD field.
_refine_ls_R_factor_gt 0.0397
_refine_ls_wR_factor_gt 0.0397
_symmetry_cell_setting triclinic
_symmetry_space_group_name_H-M 'P -1'
_symmetry_Int_Tables_number 2
loop_
_symmetry_equiv_pos_site_id
_symmetry_equiv_pos_as_xyz
1 x,y,z
2 -x,-y,-z
_cell_length_a 8.9860(7)
_cell_length_b 11.2672(10)
_cell_length_c 11.3425(9)
_cell_angle_alpha 80.390(7)
_cell_angle_beta 72.819(6)
_cell_angle_gamma 80.909(7)
_cell_formula_units_Z 2
loop_
_atom_type_symbol
_atom_type_radius_bond
C 0.68
H 0.23
N 0.68
O 0.68
loop_
_atom_site_label
_atom_site_type_symbol
_atom_site_fract_x
_atom_site_fract_y
_atom_site_fract_z
C1 C 0.2591(2) 0.51488(18) 0.12469(18)
H1 H 0.19980 0.54740 0.06520
H2 H 0.36810 0.49930 0.07820
C2 C 0.2016(3) 0.39563(18) 0.1920(2)
H3 H 0.08950 0.40820 0.23040
H4 H 0.22080 0.33830 0.13270
C3 C 0.2851(3) 0.34440(18) 0.2909(2)
H5 H 0.39710 0.33080 0.25270
H6 H 0.24900 0.26740 0.33220
C4 C 0.2511(2) 0.43346(16) 0.38507(18)
H7 H 0.30640 0.40100 0.44720
H8 H 0.13970 0.44120 0.42710
C5 C 0.2987(2) 0.55893(16) 0.32773(16)
O1 O 0.46039(14) 0.56225(12) 0.29445(12)
H9 H 0.49490 0.52960 0.35270
N1 N 0.20925(17) 0.64862(13) 0.41356(13)
C6 C 0.2568(2) 0.66286(17) 0.51518(17)
O2 O 0.36433(18) 0.59745(13) 0.54327(13)
O3 O 0.17133(17) 0.75312(13) 0.57293(14)
C7 C 0.2215(3) 0.80701(19) 0.6635(2)
C8 C 0.2308(3) 0.7158(2) 0.7758(2)
H10 H 0.13050 0.68680 0.81410
H11 H 0.25970 0.75360 0.83430
H12 H 0.30800 0.64900 0.75020
C9 C 0.3763(4) 0.8561(3) 0.5979(3)
H13 H 0.36490 0.91390 0.52780
H14 H 0.45460 0.79070 0.56980
H15 H 0.40770 0.89490 0.65450
C10 C 0.0866(4) 0.9058(2) 0.6994(3)
H16 H 0.08210 0.96330 0.62740
H17 H 0.10270 0.94620 0.76200
H18 H -0.01010 0.87040 0.73140
C11 C 0.0835(2) 0.71453(16) 0.37254(16)
O4 O -0.01070(16) 0.79251(12) 0.41929(13)
N2 N 0.08323(17) 0.66268(13) 0.26717(13)
O5 O 0.02547(14) 0.74948(11) 0.18005(11)
C12 C -0.1312(2) 0.73391(18) 0.17258(18)
C13 C -0.2543(3) 0.7568(3) 0.2917(2)
H19 H -0.24890 0.83540 0.31150
H20 H -0.23640 0.69600 0.35770
H21 H -0.35610 0.75380 0.28190
C14 C -0.1494(3) 0.8332(2) 0.0681(2)
H22 H -0.14770 0.91050 0.09250
H23 H -0.24740 0.83150 0.05080
H24 H -0.06480 0.82050 -0.00510
C15 C -0.1332(3) 0.6114(2) 0.1376(3)
H25 H -0.05260 0.59960 0.06180
H26 H -0.23350 0.60660 0.12590
H27 H -0.11480 0.54980 0.20290
C16 C 0.2453(2) 0.61058(16) 0.20917(16)
C17 C 0.3407(2) 0.71504(18) 0.13292(17)
O6 O 0.4232(2) 0.71256(15) 0.02892(14)
O7 O 0.31560(16) 0.80849(12) 0.19675(13)
C18 C 0.3780(3) 0.9190(2) 0.1310(2)
H28 H 0.31730 0.95780 0.07430
H29 H 0.48580 0.90080 0.08270
C19 C 0.3710(4) 1.0000(2) 0.2210(3)
H30 H 0.41170 1.07390 0.17780
H31 H 0.43250 0.96160 0.27610
H32 H 0.26410 1.01790 0.26830
#END
