
#######################################################################
#
#                 Cambridge Crystallographic Data Centre
#                                CCDC
#
#######################################################################
#
# If this CIF has been generated from an entry in the Cambridge
# Structural Database, then it will include bibliographic, chemical,
# crystal, experimental, refinement or atomic coordinate data resulting
# from the CCDC's data processing and validation procedures.
#
#######################################################################

data_CSD_CIF_IHULIH
_audit_creation_date 2010-05-13
_audit_creation_method CSD-ConQuest-V1
_database_code_CSD IHULIH
_database_code_depnum_ccdc_archive 'CCDC 690600'
_chemical_formula_sum 'C20 H19 N3 O5'
_chemical_formula_moiety
;
C20 H19 N3 O5
;
_journal_coden_Cambridge 1088
_journal_volume 2009
_journal_year 2009
_journal_page_first 2305
_journal_name_full 'Synlett '
loop_
_publ_author_name
"Zhi-Qiang Zhu"
"Ming-Yue Jiang"
"Jin-Hong Lin"
"Cheng-Pan Zhang"
"Xiao-Chun Hang"
"Chang-Ge Zheng"
"Qing-Yun Chen"
"Ji-Chang Xiao"
_chemical_name_systematic
;
Methyl 3-(1-(4-methoxyphenyl)-1H-imidazol-2-yl)-2-(4-nitrophenyl)propanoate
;
_cell_volume   1874.696
_exptl_crystal_colour 'colorless'
_exptl_crystal_density_diffrn 1.351
_exptl_crystal_description 'prismatic'
_diffrn_ambient_temperature 293
#These two values have been output from a single CSD field.
_refine_ls_R_factor_gt 0.066
_refine_ls_wR_factor_gt 0.066
_symmetry_cell_setting monoclinic
_symmetry_space_group_name_H-M 'P 21/c'
_symmetry_Int_Tables_number 14
loop_
_symmetry_equiv_pos_site_id
_symmetry_equiv_pos_as_xyz
1 x,y,z
2 -x,1/2+y,1/2-z
3 -x,-y,-z
4 x,-1/2-y,-1/2+z
_cell_length_a 6.7751(9)
_cell_length_b 38.829(5)
_cell_length_c 7.5838(11)
_cell_angle_alpha 90
_cell_angle_beta 110.005(3)
_cell_angle_gamma 90
_cell_formula_units_Z 4
loop_
_atom_type_symbol
_atom_type_radius_bond
C 0.68
H 0.23
N 0.68
O 0.68
loop_
_atom_site_label
_atom_site_type_symbol
_atom_site_fract_x
_atom_site_fract_y
_atom_site_fract_z
N1 N 0.9161(4) 0.16917(5) 0.0720(3)
N2 N 1.1628(4) 0.13391(5) 0.2503(3)
N3 N 0.3248(5) -0.03034(7) 0.2152(4)
O1 O 0.8166(3) 0.12538(5) 0.5395(3)
O2 O 1.0794(3) 0.08752(5) 0.6379(3)
O3 O 0.1388(4) -0.02538(6) 0.1801(5)
O4 O 0.4000(4) -0.05888(6) 0.2248(4)
O5 O 0.1331(3) 0.22580(4) -0.3180(3)
C1 C 1.1074(5) 0.18538(7) 0.1056(4)
H1 H 1.13050 0.20700 0.06320
C2 C 1.2530(5) 0.16344(7) 0.2123(5)
H2 H 1.39680 0.16770 0.25510
C3 C 0.9595(4) 0.13820(6) 0.1632(4)
C4 C 0.7919(4) 0.11276(6) 0.1619(4)
H3 H 0.74190 0.10110 0.04160
H4 H 0.67410 0.12490 0.17830
C5 C 0.8760(4) 0.08617(6) 0.3185(4)
H5 H 1.00950 0.07740 0.31310
C6 C 0.9188(4) 0.10239(6) 0.5086(4)
C7 C 1.1304(5) 0.09955(8) 0.8283(4)
H6 H 1.13340 0.12430 0.82990
H7 H 1.26560 0.09080 0.90350
H8 H 1.02610 0.09160 0.87820
C8 C 0.7283(4) 0.05570(6) 0.2959(4)
C9 C 0.8036(4) 0.02252(6) 0.3016(4)
H9 H 0.94570 0.01920 0.32240
C10 C 0.6733(5) -0.00586(7) 0.2771(4)
H10 H 0.72610 -0.02810 0.28180
C11 C 0.4660(5) -0.00037(7) 0.2461(4)
C12 C 0.3832(4) 0.03206(7) 0.2397(4)
H11 H 0.24040 0.03520 0.21660
C13 C 0.5173(4) 0.06015(6) 0.2683(4)
H12 H 0.46460 0.08220 0.26900
C14 C 0.7156(4) 0.18327(6) -0.0330(4)
C15 C 0.5804(5) 0.16611(7) -0.1862(4)
H13 H 0.62180 0.14530 -0.22310
C16 C 0.3854(5) 0.17929(7) -0.2852(4)
H14 H 0.29500 0.16730 -0.38690
C17 C 0.3242(5) 0.21080(6) -0.2319(4)
C18 C 0.4611(5) 0.22848(7) -0.0817(4)
H15 H 0.42240 0.24980 -0.04830
C19 C 0.6542(5) 0.21484(7) 0.0191(4)
H16 H 0.74380 0.22670 0.12200
C20 C -0.0213(5) 0.20664(8) -0.4555(5)
H17 H 0.02740 0.20140 -0.55730
H18 H -0.14850 0.21990 -0.50140
H19 H -0.04810 0.18560 -0.40120
#END
