
#######################################################################
#
#                 Cambridge Crystallographic Data Centre
#                                CCDC
#
#######################################################################
#
# If this CIF has been generated from an entry in the Cambridge
# Structural Database, then it will include bibliographic, chemical,
# crystal, experimental, refinement or atomic coordinate data resulting
# from the CCDC's data processing and validation procedures.
#
#######################################################################

data_CSD_CIF_IJESUL01
_audit_creation_date 2003-10-14
_audit_creation_method CSD-ConQuest-V1
_database_code_CSD IJESUL01
_database_code_depnum_ccdc_archive 'CCDC 219303'
_chemical_formula_sum 'C9 H15 N5 O2'
_chemical_formula_moiety
;
C9 H15 N5 O2
;
_journal_coeditor_code "IUCr AV0064"
_journal_coden_Cambridge 622
_journal_volume 59
_journal_year 2003
_journal_page_first 492
_journal_name_full 'Acta Crystallogr.,Sect.B:Struct.Sci. '
loop_
_publ_author_name
"V.A.Tafeenko"
"V.V.Chernyshev"
"A.V.Yatsenko"
"V.A.Makarov"
"E.J.Sonneveld"
"P.Peschar"
"H.Schenk"
_chemical_name_systematic
;
(1E)-N'-((E)-2-Cyano-1-(dimethylamino)-2-nitrovinyl)-N,N-dimethylethanimidamid
e
;
_chemical_melting_point 415.15
_cell_volume   1177.731
_exptl_crystal_colour 'colorless'
_exptl_crystal_density_diffrn 1.27
_exptl_special_details
;
Melting point range 415.15-417.15K
monoclinic polymorph

;
_exptl_crystal_description 'cubic'
_exptl_crystal_preparation 'ethyl acetate'
_diffrn_ambient_temperature 303
#These two values have been output from a single CSD field.
_refine_ls_R_factor_gt 0.054
_refine_ls_wR_factor_gt 0.054
_symmetry_cell_setting monoclinic
_symmetry_space_group_name_H-M 'P 21/c'
_symmetry_Int_Tables_number 14
loop_
_symmetry_equiv_pos_site_id
_symmetry_equiv_pos_as_xyz
1 x,y,z
2 x,1/2-y,1/2+z
3 -x,-y,-z
4 -x,-1/2+y,-1/2-z
_cell_length_a 8.844(1)
_cell_length_b 16.436(1)
_cell_length_c 8.926(1)
_cell_angle_alpha 90
_cell_angle_beta 114.81(2)
_cell_angle_gamma 90
_cell_formula_units_Z 4
loop_
_atom_type_symbol
_atom_type_radius_bond
C 0.68
H 0.23
N 0.68
O 0.68
loop_
_atom_site_label
_atom_site_type_symbol
_atom_site_fract_x
_atom_site_fract_y
_atom_site_fract_z
O1 O -0.1792(2) 0.16347(14) 0.5037(2)
O2 O -0.0277(2) 0.11884(15) 0.3822(2)
N1 N 0.1858(2) 0.12887(14) 0.9515(3)
N2 N -0.0509(3) 0.12912(15) 0.5091(3)
N3 N -0.0870(2) 0.08831(14) 0.8245(3)
N4 N 0.4494(2) 0.17705(13) 1.0663(3)
N5 N 0.3571(3) 0.07410(17) 0.6699(3)
C1 C 0.0528(3) 0.10993(16) 0.8120(3)
C2 C 0.0697(3) 0.10408(16) 0.6588(3)
C3 C 0.2946(3) 0.18506(16) 0.9553(3)
C4 C 0.2484(5) 0.2597(2) 0.8497(4)
C5 C 0.2263(3) 0.08616(16) 0.6618(3)
C6 C 0.5042(5) 0.1018(2) 1.1601(5)
C7 C 0.5768(4) 0.2398(2) 1.0974(5)
C8 C -0.1105(5) 0.1087(3) 0.9728(5)
C9 C -0.2153(4) 0.0377(2) 0.7027(5)
H1 H 0.272(5) 0.308(3) 0.923(5)
H2 H 0.136(5) 0.260(2) 0.782(5)
H3 H 0.309(5) 0.258(2) 0.781(5)
H4 H 0.469(5) 0.101(3) 1.253(6)
H5 H 0.616(5) 0.097(2) 1.213(5)
H6 H 0.441(5) 0.059(3) 1.104(5)
H7 H 0.598(4) 0.250(2) 0.998(5)
H8 H 0.671(5) 0.226(2) 1.185(5)
H9 H 0.538(5) 0.295(3) 1.122(5)
H10 H -0.042(7) 0.153(3) 1.033(7)
H11 H -0.081(6) 0.070(3) 1.042(6)
H12 H -0.220(7) 0.115(3) 0.942(6)
H13 H -0.173(4) 0.010(2) 0.629(4)
H14 H -0.239(4) -0.005(2) 0.768(4)
H15 H -0.308(5) 0.068(2) 0.633(5)
#END
