
#######################################################################
#
#                 Cambridge Crystallographic Data Centre
#                                CCDC
#
#######################################################################
#
# If this CIF has been generated from an entry in the Cambridge
# Structural Database, then it will include bibliographic, chemical,
# crystal, experimental, refinement or atomic coordinate data resulting
# from the CCDC's data processing and validation procedures.
#
#######################################################################

data_CSD_CIF_IJICUB
_audit_creation_date 2016-04-05
_audit_creation_method CSD-ConQuest-V1
_database_code_CSD IJICUB
_database_code_depnum_ccdc_archive 'CCDC 1409068'
_chemical_formula_sum 'C12 H16 N4 O2'
_chemical_formula_moiety
;
C12 H16 N4 O2
;
_journal_coden_Cambridge 1077
_journal_volume 30
_journal_year 2016
_journal_page_first 170
_journal_name_full 'Appl.Organomet.Chem. '
loop_
_publ_author_name
"S.P.Netalkar"
"P.P.Netalkar"
"A.A.N.andVidyan"
"K.Revankar"
_chemical_name_systematic
;
2-anilino-N'-(3-(hydroxyimino)butan-2-ylidene)acetohydrazide
;
_cell_volume   2705.676
_exptl_crystal_colour 'yellow'
_exptl_crystal_density_diffrn 1.219
_exptl_crystal_description 'block'
_diffrn_ambient_temperature 296
#These two values have been output from a single CSD field.
_refine_ls_R_factor_gt 0.058
_refine_ls_wR_factor_gt 0.058
_symmetry_cell_setting monoclinic
_symmetry_space_group_name_H-M 'C 2/c'
_symmetry_Int_Tables_number 15
loop_
_symmetry_equiv_pos_site_id
_symmetry_equiv_pos_as_xyz
1 x,y,z
2 1/2+x,1/2+y,z
3 -x,y,1/2-z
4 1/2-x,1/2+y,1/2-z
5 -x,-y,-z
6 -1/2-x,-1/2-y,-z
7 x,-y,-1/2+z
8 -1/2+x,-1/2-y,-1/2+z
_cell_length_a 19.3126(4)
_cell_length_b 7.2705(2)
_cell_length_c 19.3154(5)
_cell_angle_alpha 90
_cell_angle_beta 93.950(2)
_cell_angle_gamma 90
_cell_formula_units_Z 8
loop_
_atom_type_symbol
_atom_type_radius_bond
C 0.68
H 0.23
N 0.68
O 0.68
loop_
_atom_site_label
_atom_site_type_symbol
_atom_site_fract_x
_atom_site_fract_y
_atom_site_fract_z
H1 H 0.38810 0.63750 0.16130
H2 H -0.08750 0.25830 0.05780
H3 H 0.06530 0.38670 0.23050
H4 H 0.04110 0.24930 -0.06110
H5 H 0.02130 0.15440 -0.17680
O1 O -0.04643(8) 0.3180(3) 0.17131(8)
O2 O 0.35188(10) 0.5629(4) 0.13420(12)
N1 N -0.0520(1) 0.2788(3) 0.03227(10)
N2 N 0.06687(9) 0.3826(3) 0.18178(9)
N3 N 0.12766(9) 0.3960(3) 0.14983(10)
N4 N 0.29482(10) 0.5596(3) 0.17563(11)
C1 C -0.00479(15) 0.2110(4) -0.07836(13)
C2 C -0.0164(2) 0.1535(5) -0.14680(15)
C3 C -0.0797(2) 0.0961(5) -0.17252(16)
C4 C -0.1339(2) 0.0950(5) -0.13010(19)
C5 C -0.12447(14) 0.1529(4) -0.06166(15)
C6 C -0.05946(12) 0.2133(3) -0.03511(12)
C7 C 0.01546(11) 0.2996(3) 0.06763(11)
C8 C 0.00886(11) 0.3338(3) 0.14378(11)
C9 C 0.18091(11) 0.4630(3) 0.18472(11)
C10 C 0.18284(12) 0.5288(4) 0.25783(13)
C11 C 0.24354(12) 0.4727(4) 0.14582(13)
C12 C 0.24301(19) 0.3881(7) 0.07520(19)
H6 H -0.08550 0.05190 -0.21920
H7 H -0.17910 0.05580 -0.14850
H8 H -0.16290 0.15370 -0.03210
H9 H 0.03900 0.40130 0.04830
H10 H 0.04210 0.19110 0.06200
H11 H 0.22780 0.57250 0.27250
H12 H 0.15020 0.62720 0.26200
H13 H 0.17070 0.43140 0.28810
H14 H 0.19920 0.33070 0.06470
H15 H 0.25190 0.47590 0.04190
H16 H 0.27830 0.29380 0.07630
#END
