
#######################################################################
#
#                 Cambridge Crystallographic Data Centre
#                                CCDC
#
#######################################################################
#
# If this CIF has been generated from an entry in the Cambridge
# Structural Database, then it will include bibliographic, chemical,
# crystal, experimental, refinement or atomic coordinate data resulting
# from the CCDC's data processing and validation procedures.
#
#######################################################################

data_CSD_CIF_IJIRAU
_audit_creation_date 2003-11-28
_audit_creation_method CSD-ConQuest-V1
_database_code_CSD IJIRAU
_chemical_formula_sum 'C11 H7 N5 O2'
_chemical_formula_moiety
;
C11 H7 N5 O2
;
_journal_coden_Cambridge 119
_journal_volume 646
_journal_year 2003
_journal_page_first 1
_journal_name_full 'J.Mol.Struct. '
loop_
_publ_author_name
"J.Jazwinski"
"B.Kamienski"
"O.Staszewska-Krajewska"
"G.A.Webb"
_chemical_name_systematic
;
(1-Methyl-3-nitro-1,8a-dihydroimidazolio(1,2-a)pyridin-2-yl)dicyanomethanide
;
_cell_volume   1060.395
_exptl_special_details
;
No Rfactor given

;
_diffrn_ambient_temperature 293
_symmetry_cell_setting monoclinic
_symmetry_space_group_name_H-M 'P 21/c'
_symmetry_Int_Tables_number 14
loop_
_symmetry_equiv_pos_site_id
_symmetry_equiv_pos_as_xyz
1 x,y,z
2 -x,1/2+y,1/2-z
3 -x,-y,-z
4 x,-1/2-y,-1/2+z
_cell_length_a 9.670(2)
_cell_length_b 7.067(4)
_cell_length_c 16.006(2)
_cell_angle_alpha 90
_cell_angle_beta 104.2(3)
_cell_angle_gamma 90
_cell_formula_units_Z 4
loop_
_atom_type_symbol
_atom_type_radius_bond
C 0.68
N 0.68
O 0.68
loop_
_atom_site_label
_atom_site_type_symbol
_atom_site_fract_x
_atom_site_fract_y
_atom_site_fract_z
N1 N 0.84489(19) 0.20324(27) 0.08762(11)
C1 C 0.70156(23) 0.21998(30) 0.05718(14)
N2 N 0.63853(19) 0.19275(27) 0.12307(12)
C2 C 0.74733(22) 0.15350(33) 0.19755(13)
C3 C 0.87809(23) 0.16222(30) 0.17475(13)
C4 C 1.01905(23) 0.13444(34) 0.22337(15)
C5 C 1.06531(23) 0.16749(39) 0.31299(16)
N3 N 1.11617(26) 0.19850(45) 0.38476(16)
C6 C 1.12740(24) 0.07082(38) 0.18549(17)
N4 N 1.21731(25) 0.01267(40) 0.15721(20)
N5 N 0.71779(21) 0.08493(32) 0.27190(12)
O1 O 0.81977(19) 0.03741(31) 0.33145(11)
O2 O 0.59378(19) 0.07134(42) 0.27739(13)
C7 C 0.94249(29) 0.25823(44) 0.03590(16)
C8 C 0.62193(30) 0.25841(39) -0.02562(16)
C9 C 0.47742(30) 0.26822(41) -0.03851(17)
C10 C 0.41348(27) 0.24288(43) 0.02934(18)
C11 C 0.49319(25) 0.20570(39) 0.11081(17)
#END
