
#######################################################################
#
#                 Cambridge Crystallographic Data Centre
#                                CCDC
#
#######################################################################
#
# If this CIF has been generated from an entry in the Cambridge
# Structural Database, then it will include bibliographic, chemical,
# crystal, experimental, refinement or atomic coordinate data resulting
# from the CCDC's data processing and validation procedures.
#
#######################################################################

data_CSD_CIF_IJIVIG
_audit_creation_date 2003-11-28
_audit_creation_method CSD-ConQuest-V1
_database_code_CSD IJIVIG
_chemical_formula_sum 'C5 H5 N3 O3'
_chemical_formula_moiety
;
C5 H5 N3 O3
;
_journal_coden_Cambridge 119
_journal_volume 449
_journal_year 1998
_journal_page_first 77
_journal_name_full 'J.Mol.Struct. '
loop_
_publ_author_name
"A.Szemik-Hojniak"
"T.Glowiak"
"A.Puszko"
"Z.Talik"
_chemical_name_systematic
;
3-(Nitramino)pyridine N-oxide
;
_cell_volume    319.382
_exptl_crystal_colour 'salmon-pink'
_exptl_crystal_density_diffrn 1.613
_exptl_special_details
;
y(C5) should be -0.3387 (not -0.3887)

;
_exptl_crystal_preparation 'methanol/water'
_diffrn_ambient_temperature 297.15
#These two values have been output from a single CSD field.
_refine_ls_R_factor_gt 0.048
_refine_ls_wR_factor_gt 0.048
_symmetry_cell_setting monoclinic
_symmetry_space_group_name_H-M 'P n'
_symmetry_Int_Tables_number 7
loop_
_symmetry_equiv_pos_site_id
_symmetry_equiv_pos_as_xyz
1 x,y,z
2 1/2+x,-y,1/2+z
_cell_length_a 8.599(2)
_cell_length_b 3.707(1)
_cell_length_c 10.198(2)
_cell_angle_alpha 90
_cell_angle_beta 100.74(3)
_cell_angle_gamma 90
_cell_formula_units_Z 2
loop_
_atom_type_symbol
_atom_type_radius_bond
C 0.68
H 0.23
N 0.68
O 0.68
loop_
_atom_site_label
_atom_site_type_symbol
_atom_site_fract_x
_atom_site_fract_y
_atom_site_fract_z
O1 O 0.10000 -0.4830(8) 0.20000
O2 O 0.6290(5) -0.2035(10) 0.3252(4)
O3 O 0.7850(4) 0.1046(10) 0.4775(4)
N1 N 0.1636(4) -0.3445(8) 0.3181(4)
N2 N 0.5361(4) 0.0608(9) 0.4905(4)
N3 N 0.6549(4) -0.0193(10) 0.4270(4)
C1 C 0.3136(5) -0.2171(10) 0.3364(4)
C2 C 0.3835(5) -0.0866(9) 0.4595(4)
C3 C 0.2980(5) -0.079(1) 0.5626(4)
C4 C 0.1451(5) -0.2074(13) 0.5381(4)
C5 C 0.0792(5) -0.3387(11) 0.4157(4)
H1 H 0.574(5) 0.170(13) 0.577(5)
H2 H 0.359(6) -0.232(14) 0.262(5)
H3 H 0.351(5) 0.019(13) 0.651(4)
H4 H 0.080(5) -0.244(15) 0.608(5)
H5 H -0.028(5) -0.451(13) 0.395(5)
#END
