
#######################################################################
#
#                 Cambridge Crystallographic Data Centre
#                                CCDC
#
#######################################################################
#
# If this CIF has been generated from an entry in the Cambridge
# Structural Database, then it will include bibliographic, chemical,
# crystal, experimental, refinement or atomic coordinate data resulting
# from the CCDC's data processing and validation procedures.
#
#######################################################################

data_CSD_CIF_IJOYIP
_audit_creation_date 2003-11-28
_audit_creation_method CSD-ConQuest-V1
_database_code_CSD IJOYIP
_database_code_depnum_ccdc_archive 'CCDC 199580'
_chemical_formula_sum 'C29 H29 N3 O7'
_chemical_formula_moiety
;
C29 H29 N3 O7
;
_journal_coden_Cambridge 24
_journal_volume 44
_journal_year 2003
_journal_page_first 5091
_journal_name_full 'Tetrahedron Lett. '
loop_
_publ_author_name
"L.W.A.van Berkom"
"G.J.T.Kuster"
"F.Kalmoua"
"R.de Gelder"
"H.W.Scheeren"
_chemical_name_systematic
;
8a-Methoxy-3,6-dinitro-2,4,7-triphenylperhydrobenzo(e)isoxazolo(2,3-b)(1,2)oxa
zine
;
_cell_volume   2651.898
_exptl_crystal_colour 'colorless'
_exptl_crystal_density_diffrn 1.331
_diffrn_ambient_temperature 208
#These two values have been output from a single CSD field.
_refine_ls_R_factor_gt 0.062
_refine_ls_wR_factor_gt 0.062
_symmetry_cell_setting monoclinic
_symmetry_space_group_name_H-M 'P 21/c'
_symmetry_Int_Tables_number 14
loop_
_symmetry_equiv_pos_site_id
_symmetry_equiv_pos_as_xyz
1 x,y,z
2 x,1/2-y,1/2+z
3 -x,-y,-z
4 -x,-1/2+y,-1/2-z
_cell_length_a 8.1545(2)
_cell_length_b 22.4097(9)
_cell_length_c 14.6603(6)
_cell_angle_alpha 90
_cell_angle_beta 98.160(7)
_cell_angle_gamma 90
_cell_formula_units_Z 4
loop_
_atom_type_symbol
_atom_type_radius_bond
C 0.68
H 0.23
N 0.68
O 0.68
loop_
_atom_site_label
_atom_site_type_symbol
_atom_site_fract_x
_atom_site_fract_y
_atom_site_fract_z
O1 O 0.8014(3) 0.27989(8) 0.26083(12)
O2 O 0.7837(3) 0.45619(10) -0.08971(17)
O3 O 0.7514(3) 0.42213(11) -0.22838(16)
O4 O 0.3219(4) 0.31980(19) 0.1968(3)
O5 O 0.3947(5) 0.4082(2) 0.1700(3)
O6 O 0.8780(2) 0.28321(7) 0.11853(11)
O7 O 0.8670(3) 0.19524(8) 0.02976(13)
N1 N 0.7813(3) 0.41593(11) -0.14562(18)
N2 N 0.4205(4) 0.35499(18) 0.1782(2)
N3 N 0.7673(3) 0.25144(10) 0.17454(14)
C1 C 0.7013(4) 0.33476(12) 0.26372(18)
H1 H 0.62890 0.32970 0.31200
C2 C 0.5920(4) 0.33512(13) 0.16993(18)
H2 H 0.64090 0.36150 0.12680
C3 C 0.5985(4) 0.27006(12) 0.13827(18)
H3 H 0.52260 0.24710 0.17200
C4 C 0.5498(4) 0.25624(12) 0.03571(17)
H4 H 0.45580 0.28300 0.01390
C5 C 0.6890(3) 0.27210(11) -0.02269(17)
H5 H 0.67190 0.24630 -0.07810
C6 C 0.6715(4) 0.33692(12) -0.05681(19)
H6 H 0.56610 0.34170 -0.09750
H7 H 0.67100 0.36380 -0.00410
C7 C 0.8137(4) 0.35345(11) -0.10875(18)
H8 H 0.81520 0.32560 -0.16100
C8 C 0.9781(3) 0.34974(12) -0.04588(18)
H9 H 0.96940 0.37370 0.01000
C9 C 1.0012(4) 0.28438(12) -0.01725(18)
H10 H 1.01430 0.26070 -0.07190
H11 H 1.10400 0.28070 0.02600
C10 C 0.8600(3) 0.25790(11) 0.02759(16)
C11 C 1.1187(4) 0.37521(13) -0.0921(2)
C12 C 1.1645(4) 0.35043(18) -0.1704(2)
H12 H 1.11570 0.31450 -0.19340
C13 C 1.2825(5) 0.3781(2) -0.2160(3)
H13 H 1.31340 0.36080 -0.26940
C14 C 1.3531(5) 0.4304(2) -0.1829(4)
H14 H 1.42930 0.45000 -0.21490
C15 C 1.3138(5) 0.45378(19) -0.1044(4)
H15 H 1.36780 0.48860 -0.08040
C16 C 1.1956(4) 0.42779(15) -0.0582(3)
H16 H 1.16740 0.44550 -0.00430
C17 C 0.8073(4) 0.38893(12) 0.28688(17)
C18 C 0.9272(4) 0.40562(13) 0.2344(2)
H17 H 0.94710 0.38180 0.18440
C19 C 1.0179(4) 0.45703(14) 0.2547(2)
H18 H 1.09820 0.46840 0.21800
C20 C 0.9913(5) 0.49165(14) 0.3282(2)
H19 H 1.05230 0.52690 0.34160
C21 C 0.8757(5) 0.47464(17) 0.3818(3)
H20 H 0.85880 0.49810 0.43290
C22 C 0.7829(4) 0.42321(16) 0.3619(2)
H21 H 0.70390 0.41180 0.39940
C23 C 0.4857(4) 0.19322(12) 0.01757(19)
C24 C 0.5356(4) 0.14536(13) 0.0751(2)
H22 H 0.61120 0.15150 0.12890
C25 C 0.4741(5) 0.08820(14) 0.0532(3)
H23 H 0.50690 0.05610 0.09290
C26 C 0.3662(5) 0.07889(16) -0.0255(3)
H24 H 0.32640 0.04020 -0.04030
C27 C 0.3154(5) 0.12593(17) -0.0835(3)
H25 H 0.24110 0.11930 -0.13770
C28 C 0.3743(4) 0.18282(14) -0.0616(2)
H26 H 0.33830 0.21480 -0.10080
C29 C 1.0092(5) 0.16917(15) 0.0837(2)
H27 H 1.10730 0.17830 0.05590
H28 H 0.99510 0.12620 0.08600
H29 H 1.02150 0.18530 0.14570
#END
