
#######################################################################
#
#                 Cambridge Crystallographic Data Centre
#                                CCDC
#
#######################################################################
#
# If this CIF has been generated from an entry in the Cambridge
# Structural Database, then it will include bibliographic, chemical,
# crystal, experimental, refinement or atomic coordinate data resulting
# from the CCDC's data processing and validation procedures.
#
#######################################################################

data_CSD_CIF_IJUHIG
_audit_creation_date 2016-04-05
_audit_creation_method CSD-ConQuest-V1
_database_code_CSD IJUHIG
_database_code_depnum_ccdc_archive 'CCDC 1013621'
_chemical_formula_sum 'C19 H22 N4 O6'
_chemical_formula_moiety
;
C19 H22 N4 O6
;
_journal_coden_Cambridge 388
_journal_volume 51
_journal_year 2015
_journal_page_first 515
_journal_name_full 'Zh.Org.Khim.(Russ.)(Russ.J.Org.Chem.) '
loop_
_publ_author_name
"E.V.Ivanova"
"I.V.Blokhin"
"I.V.Fedyanin"
"I.V.Shashkel'dyan"
"Yu.M.Atroshenko"
_chemical_name_systematic
;
6-(3,4-Dimethylbenzyl)-4,8-dinitro-2,6-diazatricyclo[6.4.0.0^4,9^]dodecane-3,1
1-dione
;
_cell_volume    912.935
_exptl_crystal_colour 'yellow'
_exptl_crystal_density_diffrn 1.464
_exptl_crystal_description 'rod'
_diffrn_ambient_temperature 120
#These two values have been output from a single CSD field.
_refine_ls_R_factor_gt 0.0454
_refine_ls_wR_factor_gt 0.0454
_symmetry_cell_setting monoclinic
_symmetry_space_group_name_H-M 'P c'
_symmetry_Int_Tables_number 7
loop_
_symmetry_equiv_pos_site_id
_symmetry_equiv_pos_as_xyz
1 x,y,z
2 x,-y,1/2+z
_cell_length_a 10.0754(10)
_cell_length_b 11.1703(12)
_cell_length_c 8.2501(8)
_cell_angle_alpha 90
_cell_angle_beta 100.509(2)
_cell_angle_gamma 90
_cell_formula_units_Z 2
loop_
_atom_type_symbol
_atom_type_radius_bond
C 0.68
H 0.23
N 0.68
O 0.68
loop_
_atom_site_label
_atom_site_type_symbol
_atom_site_fract_x
_atom_site_fract_y
_atom_site_fract_z
O1 O 0.56537(15) 0.45263(12) 0.20284(18)
O2 O 0.99411(17) 0.41526(15) 0.3588(2)
O3 O 0.73625(17) 0.32329(13) 0.03333(19)
O4 O 0.59475(17) 0.17608(14) -0.02324(18)
O5 O 0.85744(17) 0.02113(13) 0.5968(2)
O6 O 0.83572(18) 0.14084(16) 0.79554(18)
N1 N 0.66488(18) 0.40138(15) 0.4619(2)
H1 H 0.643(2) 0.471(2) 0.496(3)
N2 N 0.65698(19) 0.24964(15) 0.0702(2)
N3 N 0.47486(17) 0.20045(15) 0.4235(2)
N4 N 0.81499(18) 0.11310(16) 0.6508(2)
C1 C 0.7482(2) 0.32410(17) 0.5840(2)
H2 H 0.72290 0.33630 0.69450
C2 C 0.6221(2) 0.37907(16) 0.3018(2)
C3 C 0.6365(2) 0.24791(17) 0.2492(2)
C4 C 0.5018(2) 0.18593(19) 0.2563(2)
H3 H 0.42840 0.22260 0.17540
H4 H 0.50720 0.09990 0.22960
C5 C 0.5812(2) 0.14480(17) 0.5434(2)
H5 H 0.57940 0.05710 0.52560
H6 H 0.56390 0.16000 0.65590
C6 C 0.7221(2) 0.19339(17) 0.5298(2)
C7 C 0.7529(2) 0.17858(17) 0.3553(2)
H7 H 0.74410 0.09200 0.32450
C8 C 0.8974(2) 0.22018(19) 0.3466(3)
H8 H 0.96200 0.15960 0.40160
H9 H 0.90700 0.22380 0.22940
C9 C 0.9349(2) 0.3405(2) 0.4248(3)
C10 C 0.8963(2) 0.36025(19) 0.5910(3)
H10 H 0.90860 0.44560 0.62240
H11 H 0.95530 0.31180 0.67530
C11 C 0.3426(2) 0.14962(19) 0.4354(3)
H12 H 0.34780 0.06130 0.42840
H13 H 0.27530 0.17760 0.34030
C12 C 0.2947(2) 0.1827(2) 0.5924(3)
C13 C 0.3221(2) 0.2943(2) 0.6670(3)
H14 H 0.37850 0.34870 0.62270
C14 C 0.2689(2) 0.3280(2) 0.8044(3)
C15 C 0.1864(2) 0.2470(2) 0.8711(3)
C16 C 0.1610(2) 0.1356(2) 0.7985(3)
H15 H 0.10600 0.08030 0.84350
C17 C 0.2145(2) 0.1033(2) 0.6609(3)
H16 H 0.19600 0.02630 0.61340
C18 C 0.2989(2) 0.4500(2) 0.8788(3)
H17 H 0.35850 0.49330 0.81750
H18 H 0.34340 0.44170 0.99420
H19 H 0.21440 0.49460 0.87310
C19 C 0.1224(3) 0.2825(3) 1.0162(3)
H20 H 0.08250 0.21170 1.05870
H21 H 0.05180 0.34220 0.98070
H22 H 0.19130 0.31660 1.10310
#END
