
#######################################################################
#
#                 Cambridge Crystallographic Data Centre
#                                CCDC
#
#######################################################################
#
# If this CIF has been generated from an entry in the Cambridge
# Structural Database, then it will include bibliographic, chemical,
# crystal, experimental, refinement or atomic coordinate data resulting
# from the CCDC's data processing and validation procedures.
#
#######################################################################

data_CSD_CIF_IJUKEE
_audit_creation_date 2011-03-04
_audit_creation_method CSD-ConQuest-V1
_database_code_CSD IJUKEE
_database_code_depnum_ccdc_archive 'CCDC 811282'
_chemical_formula_sum 'C14 H11 N3 O5'
_chemical_formula_moiety
;
C14 H11 N3 O5
;
_journal_coeditor_code "IUCr SU2243"
_journal_coden_Cambridge 1370
_journal_volume 67
_journal_year 2011
_journal_page_first o300
_journal_name_full 'Acta Crystallogr.,Sect.E:Struct.Rep.Online '
loop_
_publ_author_name
"Zhen Zhang"
_chemical_name_systematic
;
(E)-4-Hydroxy-N'-(4-hydroxy-3-nitrobenzylidene)benzohydrazide
;
_cell_volume   1347.347
_exptl_crystal_colour 'yellow'
_exptl_crystal_density_diffrn 1.485
_exptl_crystal_description 'block'
_diffrn_ambient_temperature 298
#These two values have been output from a single CSD field.
_refine_ls_R_factor_gt 0.0544
_refine_ls_wR_factor_gt 0.0544
_symmetry_cell_setting monoclinic
_symmetry_space_group_name_H-M 'P 21/n'
_symmetry_Int_Tables_number 14
loop_
_symmetry_equiv_pos_site_id
_symmetry_equiv_pos_as_xyz
1 x,y,z
2 1/2-x,1/2+y,1/2-z
3 -x,-y,-z
4 -1/2+x,-1/2-y,-1/2+z
_cell_length_a 8.786(3)
_cell_length_b 14.882(2)
_cell_length_c 10.3064(17)
_cell_angle_alpha 90
_cell_angle_beta 91.100(2)
_cell_angle_gamma 90
_cell_formula_units_Z 4
loop_
_atom_type_symbol
_atom_type_radius_bond
C 0.68
H 0.23
N 0.68
O 0.68
loop_
_atom_site_label
_atom_site_type_symbol
_atom_site_fract_x
_atom_site_fract_y
_atom_site_fract_z
N1 N 0.4602(3) 0.40859(16) 0.1386(3)
N2 N 0.3606(3) 0.34194(16) 0.0989(3)
O1 O 1.0054(2) 0.64891(13) 0.3680(3)
H1 H 0.97040 0.69980 0.36140
O2 O 0.6482(2) 0.30744(13) 0.1654(2)
O3 O -0.2256(3) 0.12672(15) -0.0998(3)
H2 H -0.30470 0.15290 -0.12000
O4 O -0.3830(3) 0.26935(19) -0.1553(3)
O5 O -0.2875(3) 0.40196(19) -0.1256(3)
C1 C 0.7049(3) 0.45812(18) 0.2226(3)
C2 C 0.6644(3) 0.54841(18) 0.2232(3)
H3 H 0.56910 0.56550 0.19090
C3 C 0.7623(3) 0.61274(19) 0.2707(3)
H4 H 0.73320 0.67280 0.26990
C4 C 0.9033(3) 0.58892(19) 0.3194(3)
C5 C 0.9456(4) 0.49917(19) 0.3202(3)
H5 H 1.04060 0.48240 0.35340
C6 C 0.8471(3) 0.4349(2) 0.2720(3)
H6 H 0.87660 0.37490 0.27260
C7 C 0.6036(3) 0.38575(19) 0.1743(3)
C8 C 0.2280(4) 0.3678(2) 0.0654(3)
H7 H 0.20470 0.42870 0.06850
C9 C 0.1110(3) 0.3044(2) 0.0222(3)
C10 C -0.0244(3) 0.3372(2) -0.0261(3)
H8 H -0.03980 0.39890 -0.03010
C11 C -0.1385(3) 0.2798(2) -0.0692(3)
C12 C -0.1193(4) 0.1874(2) -0.0631(3)
C13 C 0.0193(4) 0.1544(2) -0.0147(3)
H9 H 0.03470 0.09260 -0.01020
C14 C 0.1324(4) 0.2110(2) 0.0262(3)
H10 H 0.22430 0.18750 0.05690
N3 N -0.2779(3) 0.3202(2) -0.1195(3)
H11 H 0.424(3) 0.4649(10) 0.144(3)
#END
