
#######################################################################
#
#                 Cambridge Crystallographic Data Centre
#                                CCDC
#
#######################################################################
#
# If this CIF has been generated from an entry in the Cambridge
# Structural Database, then it will include bibliographic, chemical,
# crystal, experimental, refinement or atomic coordinate data resulting
# from the CCDC's data processing and validation procedures.
#
#######################################################################

data_CSD_CIF_IJUKUT
_audit_creation_date 2003-11-28
_audit_creation_method CSD-ConQuest-V1
_database_code_CSD IJUKUT
_database_code_depnum_ccdc_archive 'CCDC 201933'
_chemical_formula_sum 'C23 H18 N2 O5'
_chemical_formula_moiety
;
C23 H18 N2 O5
;
_journal_coden_Cambridge 16
_journal_volume 59
_journal_year 2003
_journal_page_first 5259
_journal_name_full 'Tetrahedron '
loop_
_publ_author_name
"P.Del Buttero"
"G.Molteni"
"A.Papagni"
"T.Pilati"
_chemical_name_systematic
;
3'-Nitro-2,3-benzo-5-phenyl-7-(4-methoxyphenyl)-(1S,5S,6R)-4-oxa-7-azabicyclo(
4.2.0)octane-8-one
;
_chemical_melting_point 478.15
_cell_volume   3870.089
_exptl_crystal_colour 'brown-yellow'
_exptl_crystal_density_diffrn 1.381
_exptl_special_details
;
Melting point range 478.15-479.15K

;
_exptl_crystal_description 'prism'
_exptl_crystal_preparation 'isopropyl ether'
_diffrn_ambient_temperature 295
#These two values have been output from a single CSD field.
_refine_ls_R_factor_gt 0.0385
_refine_ls_wR_factor_gt 0.0385
_symmetry_cell_setting orthorhombic
_symmetry_space_group_name_H-M 'P c c n'
_symmetry_Int_Tables_number 56
loop_
_symmetry_equiv_pos_site_id
_symmetry_equiv_pos_as_xyz
1 x,y,z
2 1/2+x,1/2+y,-z
3 x,1/2-y,1/2+z
4 1/2-x,y,1/2+z
5 -x,-y,-z
6 -1/2-x,-1/2-y,z
7 -x,-1/2+y,-1/2-z
8 -1/2+x,-y,-1/2-z
_cell_length_a 35.026(6)
_cell_length_b 8.872(2)
_cell_length_c 12.454(3)
_cell_angle_alpha 90
_cell_angle_beta 90
_cell_angle_gamma 90
_cell_formula_units_Z 8
loop_
_atom_type_symbol
_atom_type_radius_bond
C 0.68
H 0.23
N 0.68
O 0.68
loop_
_atom_site_label
_atom_site_type_symbol
_atom_site_fract_x
_atom_site_fract_y
_atom_site_fract_z
N1 N 0.56369(2) 0.16906(10) 0.47039(7)
C1 C 0.59721(3) 0.07081(13) 0.45659(9)
H1 H 0.5918(3) -0.0340(13) 0.4778(8)
C2 C 0.61520(3) 0.07903(11) 0.34598(9)
H2 H 0.5955(3) 0.0679(11) 0.2930(8)
O1 O 0.63197(2) 0.22796(8) 0.32623(5)
C3 C 0.65796(3) 0.27551(11) 0.40005(8)
C4 C 0.68934(4) 0.35421(13) 0.36368(9)
H3 H 0.6920(3) 0.3671(13) 0.2913(9)
C5 C 0.71566(4) 0.40903(13) 0.43519(9)
H4 H 0.7377(3) 0.4611(13) 0.4102(10)
C6 C 0.70996(3) 0.38369(12) 0.54324(8)
C7 C 0.67869(3) 0.30597(12) 0.58122(9)
H5 H 0.6749(3) 0.2922(13) 0.6539(10)
C8 C 0.65231(3) 0.25084(11) 0.50929(8)
C9 C 0.61726(3) 0.16814(13) 0.54455(9)
H6 H 0.6209(3) 0.1123(13) 0.6131(9)
C10 C 0.58009(3) 0.26005(14) 0.54573(9)
C11 C 0.52728(3) 0.16259(12) 0.42154(9)
C12 C 0.50075(4) 0.27339(15) 0.44033(11)
H7 H 0.5075(3) 0.3570(14) 0.4868(10)
C13 C 0.46593(4) 0.26811(18) 0.39025(13)
H8 H 0.4481(4) 0.3467(17) 0.4005(11)
C14 C 0.45733(4) 0.15013(18) 0.32206(13)
C15 C 0.48334(4) 0.03854(17) 0.30460(13)
H9 H 0.4773(4) -0.0419(16) 0.2564(12)
C16 C 0.51824(4) 0.04406(15) 0.35500(11)
H10 H 0.5357(4) -0.0322(15) 0.3431(11)
O2 O 0.42205(3) 0.15473(16) 0.27623(11)
C17 C 0.41487(7) 0.0706(3) 0.1843(2)
H11 H 0.3894(7) 0.092(2) 0.1608(17)
H12 H 0.4186(7) -0.037(3) 0.1974(19)
H13 H 0.4325(6) 0.094(2) 0.1299(17)
C18 C 0.64398(3) -0.04255(11) 0.32413(8)
C19 C 0.64583(4) -0.10607(13) 0.22280(9)
H14 H 0.6289(3) -0.0750(12) 0.1702(9)
C20 C 0.67285(4) -0.21555(15) 0.20022(11)
H15 H 0.6732(3) -0.2565(15) 0.1322(11)
C21 C 0.69758(4) -0.26374(15) 0.27798(12)
H16 H 0.7160(4) -0.3372(15) 0.2627(10)
C22 C 0.69570(4) -0.20295(15) 0.37918(12)
H17 H 0.7130(4) -0.2351(16) 0.4309(11)
C23 C 0.66922(3) -0.09409(14) 0.40168(10)
H18 H 0.6682(3) -0.0527(13) 0.4708(11)
N2 N 0.73776(3) 0.44291(12) 0.62003(9)
O3 O 0.76410(3) 0.51735(14) 0.58670(8)
O4 O 0.73347(3) 0.41335(11) 0.71443(8)
O5 O 0.56917(2) 0.36904(12) 0.59279(8)
#END
