
#######################################################################
#
#                 Cambridge Crystallographic Data Centre
#                                CCDC
#
#######################################################################
#
# If this CIF has been generated from an entry in the Cambridge
# Structural Database, then it will include bibliographic, chemical,
# crystal, experimental, refinement or atomic coordinate data resulting
# from the CCDC's data processing and validation procedures.
#
#######################################################################

data_CSD_CIF_IJUVEQ
_audit_creation_date 2016-04-05
_audit_creation_method CSD-ConQuest-V1
_database_code_CSD IJUVEQ
_database_code_depnum_ccdc_archive 'CCDC 933224'
_chemical_formula_sum 'C21 H21 N3 O5'
_chemical_formula_moiety
;
C21 H21 N3 O5
;
_journal_coden_Cambridge 917
_journal_volume 11
_journal_year 2015
_journal_page_first 1973
_journal_name_full 'Beilstein J.Org.Chem. '
loop_
_publ_author_name
"C.Garcias-Morales"
"D.Ortegon-Reyna"
"A.Ariza-Castolo"
_chemical_name_systematic
;
1-methyl-2,4-bis(3-nitrophenyl)-3-azabicyclo[3.3.1]nonan-9-one
;
_cell_volume   1910.689
_exptl_crystal_colour 'colorless'
_exptl_crystal_density_diffrn 1.375
_exptl_crystal_description 'prism'
_diffrn_ambient_temperature 293
#These two values have been output from a single CSD field.
_refine_ls_R_factor_gt 0.0616
_refine_ls_wR_factor_gt 0.0616
_symmetry_cell_setting orthorhombic
_symmetry_space_group_name_H-M 'P n a 21'
_symmetry_Int_Tables_number 33
loop_
_symmetry_equiv_pos_site_id
_symmetry_equiv_pos_as_xyz
1 x,y,z
2 -x,-y,1/2+z
3 1/2-x,1/2+y,1/2+z
4 1/2+x,1/2-y,z
_cell_length_a 6.861(4)
_cell_length_b 11.744(5)
_cell_length_c 23.713(2)
_cell_angle_alpha 90
_cell_angle_beta 90
_cell_angle_gamma 90
_cell_formula_units_Z 4
loop_
_atom_type_symbol
_atom_type_radius_bond
C 0.68
H 0.23
N 0.68
O 0.68
loop_
_atom_site_label
_atom_site_type_symbol
_atom_site_fract_x
_atom_site_fract_y
_atom_site_fract_z
C1 C 0.7883(7) 0.9691(5) 0.6516(2)
H1 H 0.85550 0.93910 0.68490
C2 C 0.4460(7) 0.8891(5) 0.7474(2)
H2 H 0.50670 0.81830 0.74720
N1 N 0.4772(3) 0.96234(18) 0.5972(2)
C3 C 0.4619(6) 0.9615(4) 0.49542(19)
O1 O 1.0306(3) 0.8674(2) 0.5992(3)
C4 C 0.8866(4) 0.9282(2) 0.5992(3)
O2 O 0.2587(9) 0.8782(5) 0.8870(2)
C5 C 0.8169(7) 1.0994(6) 0.5443(2)
H3 H 0.74870 1.12990 0.51180
H4 H 0.95430 1.11710 0.54010
C6 C 0.5738(7) 0.9248(4) 0.65008(18)
C7 C 0.3481(7) 0.9216(6) 0.4013(2)
C8 C 0.4525(8) 0.8876(5) 0.4491(2)
C9 C 0.7369(4) 1.1585(2) 0.5996(4)
H5 H 0.77960 1.23720 0.60020
H6 H 0.59560 1.15820 0.59860
C10 C 0.4590(7) 0.9590(4) 0.7011(2)
O3 O 0.2674(7) 0.8800(5) 0.30953(18)
C11 C 0.5777(7) 0.9250(5) 0.5470(2)
H7 H 0.58240 0.84160 0.54750
C12 C 0.3609(9) 1.0664(5) 0.7038(3)
H8 H 0.36510 1.11650 0.67340
N2 N 0.3320(7) 0.8458(5) 0.8434(2)
C13 C 0.2575(9) 1.0268(6) 0.3982(3)
N3 N 0.3416(8) 0.8443(7) 0.3535(2)
C14 C 0.2492(10) 1.0239(6) 0.7979(2)
H9 H 0.18000 1.04420 0.83010
C15 C 0.8017(8) 1.1028(5) 0.6506(2)
H10 H 0.72530 1.13220 0.68190
H11 H 0.93630 1.12420 0.65730
C16 C 0.7905(7) 0.9699(5) 0.5459(2)
O4 O 0.4099(10) 0.7480(5) 0.3607(2)
C17 C 0.3429(7) 0.9240(5) 0.7943(2)
C18 C 0.3706(8) 1.0633(4) 0.4912(2)
H12 H 0.37710 1.11210 0.52200
C19 C 0.8976(6) 0.9153(4) 0.4972(2)
H13 H 0.84040 0.93980 0.46230
H14 H 0.88820 0.83400 0.50020
H15 H 1.03220 0.93760 0.49820
O5 O 0.4010(12) 0.7529(5) 0.8385(3)
C20 C 0.2682(8) 1.1000(6) 0.4443(2)
H16 H 0.20850 1.17100 0.44370
C21 C 0.2598(10) 1.0947(6) 0.7522(3)
H17 H 0.19640 1.16460 0.75370
H18 H 0.190(6) 1.043(4) 0.362(2)
H19 H 0.608(5) 0.841(3) 0.6516(12)
H20 H 0.355(5) 0.932(3) 0.6063(19)
H21 H 0.514(5) 0.814(3) 0.4508(13)
#END
