
#######################################################################
#
#                 Cambridge Crystallographic Data Centre
#                                CCDC
#
#######################################################################
#
# If this CIF has been generated from an entry in the Cambridge
# Structural Database, then it will include bibliographic, chemical,
# crystal, experimental, refinement or atomic coordinate data resulting
# from the CCDC's data processing and validation procedures.
#
#######################################################################

data_CSD_CIF_IKABUS
_audit_creation_date 2011-02-21
_audit_creation_method CSD-ConQuest-V1
_database_code_CSD IKABUS
_database_code_depnum_ccdc_archive 'CCDC 811355'
_chemical_formula_sum 'C13 H9 N3 O3'
_chemical_formula_moiety
;
C13 H9 N3 O3
;
_journal_coeditor_code "IUCr HG2791"
_journal_coden_Cambridge 1370
_journal_volume 67
_journal_year 2011
_journal_page_first o409
_journal_name_full 'Acta Crystallogr.,Sect.E:Struct.Rep.Online '
loop_
_publ_author_name
"Jingya Sun"
"Xiangdi Tong"
_chemical_name_systematic
;
2-(1H-Benzimidazol-2-yl)-4-nitrophenol
;
_cell_volume   1130.299
_exptl_crystal_colour 'yellow'
_exptl_crystal_density_diffrn 1.5
_exptl_crystal_description 'block'
_diffrn_ambient_temperature 298
#These two values have been output from a single CSD field.
_refine_ls_R_factor_gt 0.0677
_refine_ls_wR_factor_gt 0.0677
_symmetry_cell_setting monoclinic
_symmetry_space_group_name_H-M 'P 21/c'
_symmetry_Int_Tables_number 14
loop_
_symmetry_equiv_pos_site_id
_symmetry_equiv_pos_as_xyz
1 x,y,z
2 -x,1/2+y,1/2-z
3 -x,-y,-z
4 x,-1/2-y,-1/2+z
_cell_length_a 8.117(3)
_cell_length_b 6.769(2)
_cell_length_c 20.842(3)
_cell_angle_alpha 90
_cell_angle_beta 99.235(2)
_cell_angle_gamma 90
_cell_formula_units_Z 4
loop_
_atom_type_symbol
_atom_type_radius_bond
C 0.68
H 0.23
N 0.68
O 0.68
loop_
_atom_site_label
_atom_site_type_symbol
_atom_site_fract_x
_atom_site_fract_y
_atom_site_fract_z
O1 O 0.7974(3) 0.7492(3) 0.12518(10)
H1 H 0.81720 0.77760 0.08890
O2 O 0.4484(3) -0.0641(3) 0.07368(10)
O3 O 0.4555(3) -0.0423(3) 0.17662(11)
N1 N 0.8286(3) 0.7006(4) 0.00445(12)
N2 N 0.7411(3) 0.4267(3) -0.04913(12)
N3 N 0.4870(3) 0.0226(4) 0.12571(12)
C1 C 0.6985(3) 0.4551(4) 0.06634(13)
C2 C 0.7228(4) 0.5722(4) 0.12303(15)
C3 C 0.6712(4) 0.5046(5) 0.17926(14)
H2 H 0.68780 0.58280 0.21640
C4 C 0.5966(4) 0.3252(4) 0.18085(14)
H3 H 0.56320 0.27990 0.21890
C5 C 0.5710(3) 0.2113(4) 0.12517(14)
C6 C 0.6205(3) 0.2741(4) 0.06832(13)
H4 H 0.60160 0.19500 0.03140
C7 C 0.7560(3) 0.5267(4) 0.00778(14)
C8 C 0.8628(4) 0.7151(4) -0.05876(14)
C9 C 0.8092(3) 0.5440(4) -0.09285(15)
C10 C 0.8259(4) 0.5165(5) -0.15689(15)
H5 H 0.79020 0.40110 -0.17910
C11 C 0.8983(4) 0.6692(5) -0.18671(16)
H6 H 0.91140 0.65650 -0.23000
C12 C 0.9518(4) 0.8413(5) -0.15324(18)
H7 H 0.99960 0.94140 -0.17470
C13 C 0.9354(4) 0.8666(5) -0.08904(17)
H8 H 0.97190 0.98160 -0.06680
H9 H 0.698(4) 0.307(2) -0.0610(15)
#END
