
#######################################################################
#
#                 Cambridge Crystallographic Data Centre
#                                CCDC
#
#######################################################################
#
# If this CIF has been generated from an entry in the Cambridge
# Structural Database, then it will include bibliographic, chemical,
# crystal, experimental, refinement or atomic coordinate data resulting
# from the CCDC's data processing and validation procedures.
#
#######################################################################

data_CSD_CIF_IKACIH
_audit_creation_date 2011-02-21
_audit_creation_method CSD-ConQuest-V1
_database_code_CSD IKACIH
_database_code_depnum_ccdc_archive 'CCDC 811358'
_chemical_formula_sum 'C13 H12 N2 O6'
_chemical_formula_moiety
;
C13 H12 N2 O6
;
_journal_coeditor_code "IUCr PB2051"
_journal_coden_Cambridge 1370
_journal_volume 67
_journal_year 2011
_journal_page_first o412
_journal_name_full 'Acta Crystallogr.,Sect.E:Struct.Rep.Online '
loop_
_publ_author_name
"Ying-Hong Yang"
"Zi-Cheng Li"
"You-Fu Luo"
_chemical_name_systematic
;
2,2-Dimethyl-5-([(4-nitrophenyl)amino]methylidene)-1,3-dioxane-4,6-dione
;
_chemical_name_common
;
2,2-Dimethyl-5-(((4-nitrophenyl)amino)methylene)-1,3-dioxane-4,6-dione
;
_cell_volume   1340.081
_exptl_crystal_colour 'colorless'
_exptl_crystal_density_diffrn 1.449
_exptl_crystal_description 'block'
_diffrn_ambient_temperature 292.9
#These two values have been output from a single CSD field.
_refine_ls_R_factor_gt 0.0519
_refine_ls_wR_factor_gt 0.0519
_symmetry_cell_setting monoclinic
_symmetry_space_group_name_H-M 'P 21/c'
_symmetry_Int_Tables_number 14
loop_
_symmetry_equiv_pos_site_id
_symmetry_equiv_pos_as_xyz
1 x,y,z
2 -x,1/2+y,1/2-z
3 -x,-y,-z
4 x,-1/2-y,-1/2+z
_cell_length_a 12.2822(8)
_cell_length_b 12.2762(7)
_cell_length_c 9.2760(6)
_cell_angle_alpha 90
_cell_angle_beta 106.636(7)
_cell_angle_gamma 90
_cell_formula_units_Z 4
loop_
_atom_type_symbol
_atom_type_radius_bond
C 0.68
H 0.23
N 0.68
O 0.68
loop_
_atom_site_label
_atom_site_type_symbol
_atom_site_fract_x
_atom_site_fract_y
_atom_site_fract_z
O1 O 0.69558(14) 0.20994(13) 0.55007(17)
O2 O 0.68603(13) 0.02148(12) 0.59936(18)
O3 O 0.58804(16) 0.33063(14) 0.6199(2)
O4 O 0.55320(14) -0.04417(12) 0.69224(19)
O5 O 0.07063(17) 0.30379(18) 1.0992(2)
O6 O 0.02953(19) 0.13441(18) 1.1075(2)
N1 N 0.08472(19) 0.2076(2) 1.0746(2)
N2 N 0.42612(16) 0.10150(15) 0.80560(19)
H1 H 0.43890 0.03320 0.79790
C1 C 0.1735(2) 0.1808(2) 1.0033(3)
C2 C 0.2364(2) 0.2628(2) 0.9673(3)
H2 H 0.22250 0.33490 0.98720
C3 C 0.3200(2) 0.23774(19) 0.9015(3)
H3 H 0.36250 0.29310 0.87520
C4 C 0.3412(2) 0.13024(18) 0.8742(2)
C5 C 0.2780(2) 0.04875(19) 0.9127(2)
H4 H 0.29300 -0.02370 0.89590
C6 C 0.1926(2) 0.0739(2) 0.9760(3)
H5 H 0.14850 0.01910 0.99980
C7 C 0.4875(2) 0.17060(19) 0.7523(2)
H6 H 0.47280 0.24420 0.76150
C8 C 0.5701(2) 0.14631(17) 0.6851(2)
C9 C 0.6166(2) 0.2361(2) 0.6219(3)
C10 C 0.60071(19) 0.03607(19) 0.6628(2)
C11 C 0.7596(2) 0.11232(19) 0.5931(3)
C12 C 0.8456(2) 0.1284(2) 0.7444(3)
H7 H 0.80680 0.14460 0.81830
H8 H 0.89500 0.18780 0.73870
H9 H 0.88960 0.06320 0.77260
C13 C 0.8114(2) 0.0867(2) 0.4690(3)
H10 H 0.85430 0.02040 0.49200
H11 H 0.86070 0.14520 0.45930
H12 H 0.75230 0.07820 0.37620
#END
