
#######################################################################
#
#                 Cambridge Crystallographic Data Centre
#                                CCDC
#
#######################################################################
#
# If this CIF has been generated from an entry in the Cambridge
# Structural Database, then it will include bibliographic, chemical,
# crystal, experimental, refinement or atomic coordinate data resulting
# from the CCDC's data processing and validation procedures.
#
#######################################################################

data_CSD_CIF_IKAGIM
_audit_creation_date 2016-04-05
_audit_creation_method CSD-ConQuest-V1
_database_code_CSD IKAGIM
_database_code_depnum_ccdc_archive 'CCDC 848867'
_chemical_formula_sum 'C24 H23 N3 O9'
_chemical_formula_moiety
;
C24 H23 N3 O9
;
_journal_coden_Cambridge 1273
_journal_volume 24
_journal_year 2012
_journal_page_first 441
_journal_name_full 'Huaxue Yanjiu Yu Yingyong(Chin.)(Chem.Res.Appln.) '
loop_
_publ_author_name
"Guang-Qi Jiang"
_chemical_name_systematic
;
1-(2,2-bis((4-Nitrophenoxy)methyl)butoxy)-4-nitrobenzene
;
_cell_volume   1209.104
_diffrn_ambient_temperature 293
#These two values have been output from a single CSD field.
_refine_ls_R_factor_gt 0.0512
_refine_ls_wR_factor_gt 0.0512
_symmetry_cell_setting triclinic
_symmetry_space_group_name_H-M 'P -1'
_symmetry_Int_Tables_number 2
loop_
_symmetry_equiv_pos_site_id
_symmetry_equiv_pos_as_xyz
1 x,y,z
2 -x,-y,-z
_cell_length_a 7.8731(11)
_cell_length_b 12.5683(18)
_cell_length_c 13.1155(18)
_cell_angle_alpha 97.554(6)
_cell_angle_beta 103.184(5)
_cell_angle_gamma 102.840(6)
_cell_formula_units_Z 2
loop_
_atom_type_symbol
_atom_type_radius_bond
C 0.68
H 0.23
N 0.68
O 0.68
loop_
_atom_site_label
_atom_site_type_symbol
_atom_site_fract_x
_atom_site_fract_y
_atom_site_fract_z
O1 O 0.7886(2) 0.18053(13) 0.87597(11)
O2 O 0.6690(2) 0.25697(16) 0.56990(12)
O3 O 1.15516(19) 0.27910(13) 0.78678(12)
O4 O 0.6793(3) -0.07443(19) 1.24528(17)
C1 C 0.5265(3) 0.2943(2) 0.52338(16)
O5 O 1.9136(3) 0.61001(19) 0.97612(17)
C2 C 1.2989(3) 0.36955(18) 0.82009(15)
C3 C 0.8440(3) 0.18258(19) 0.70299(16)
C4 C 1.4652(3) 0.34838(19) 0.86029(16)
H1 H 1.47120 0.27570 0.86280
O6 O 1.7617(3) 0.7262(2) 0.9279(2)
N1 N 1.7731(3) 0.6318(2) 0.93482(18)
C5 C 0.8314(3) 0.11612(19) 0.79191(17)
H2 H 0.73840 0.04670 0.76430
H3 H 0.94560 0.09900 0.81880
C6 C 1.2905(3) 0.47823(19) 0.81547(17)
H4 H 1.18060 0.49330 0.78780
C7 C 0.6593(3) 0.2044(2) 0.65947(17)
H5 H 0.56550 0.13490 0.63780
H6 H 0.63110 0.25220 0.71400
C8 C 1.6202(3) 0.4335(2) 0.89622(16)
H7 H 1.73130 0.41910 0.92250
O7 O 0.1344(3) 0.4597(2) 0.2822(2)
C9 C 1.6086(3) 0.5403(2) 0.89275(16)
N2 N 0.6843(3) 0.0206(2) 1.23863(19)
C10 C 0.3701(3) 0.2855(2) 0.55573(18)
H8 H 0.35660 0.25300 0.61410
C11 C 0.9797(3) 0.29573(19) 0.74481(17)
H9 H 0.98240 0.33720 0.68750
H10 H 0.94490 0.33790 0.80040
C12 C 0.7692(3) 0.13546(19) 0.96311(17)
C13 C 0.7187(3) 0.0614(2) 1.14424(18)
O8 O -0.0293(3) 0.4025(3) 0.3828(2)
C14 C 0.7663(3) 0.0262(2) 0.97131(19)
H11 H 0.78230 -0.02170 0.91600
N3 N 0.1108(4) 0.4152(2) 0.3566(2)
C15 C 0.2343(3) 0.3253(2) 0.50086(19)
H12 H 0.12820 0.31950 0.52210
C16 C 1.4465(3) 0.5633(2) 0.85227(18)
H13 H 1.44230 0.63630 0.84980
C17 C 0.5474(3) 0.3440(3) 0.4369(2)
H14 H 0.65300 0.34980 0.41510
C18 C 0.7521(4) 0.2075(2) 1.04764(19)
H15 H 0.75780 0.28120 1.04270
C19 C 0.2547(3) 0.3732(2) 0.41507(19)
C20 C 0.7391(3) -0.0108(2) 1.06307(19)
H16 H 0.73490 -0.08420 1.06930
C21 C 0.9007(3) 0.1150(2) 0.61517(18)
H17 H 0.90510 0.15670 0.55820
H18 H 1.02230 0.10950 0.64510
C22 C 0.4119(4) 0.3847(3) 0.3835(2)
H19 H 0.42620 0.41970 0.32660
C23 C 0.7270(4) 0.1710(2) 1.1379(2)
H20 H 0.71570 0.21950 1.19450
O9 O 0.6549(6) 0.0840(2) 1.3065(2)
C24 C 0.7824(4) -0.0008(3) 0.5667(2)
H21 H 0.83010 -0.03460 0.51350
H22 H 0.66200 0.00280 0.53440
H23 H 0.77980 -0.04450 0.62150
#END
