
#######################################################################
#
#                 Cambridge Crystallographic Data Centre
#                                CCDC
#
#######################################################################
#
# If this CIF has been generated from an entry in the Cambridge
# Structural Database, then it will include bibliographic, chemical,
# crystal, experimental, refinement or atomic coordinate data resulting
# from the CCDC's data processing and validation procedures.
#
#######################################################################

data_CSD_CIF_IKAYAV
_audit_creation_date 2011-02-28
_audit_creation_method CSD-ConQuest-V1
_database_code_CSD IKAYAV
_database_code_depnum_ccdc_archive 'CCDC 811465'
_chemical_formula_sum 'C22 H18 N2 O5'
_chemical_formula_moiety
;
C22 H18 N2 O5
;
_journal_coeditor_code "IUCr BV2175"
_journal_coden_Cambridge 1370
_journal_volume 67
_journal_year 2011
_journal_page_first o537
_journal_name_full 'Acta Crystallogr.,Sect.E:Struct.Rep.Online '
loop_
_publ_author_name
"Z.Baktir"
"M.Akkurt"
"A.Jarrahpour"
"R.Heiran"
_chemical_name_systematic
;
1-(4-Methoxyphenyl)-4-(3-nitrophenyl)-3-phenoxyazetidin-2-one
;
_cell_volume    961.178
_exptl_crystal_colour 'white'
_exptl_crystal_density_diffrn 1.349
_exptl_crystal_description 'block'
_diffrn_ambient_temperature 294
#These two values have been output from a single CSD field.
_refine_ls_R_factor_gt 0.059
_refine_ls_wR_factor_gt 0.059
_symmetry_cell_setting triclinic
_symmetry_space_group_name_H-M 'P -1'
_symmetry_Int_Tables_number 2
loop_
_symmetry_equiv_pos_site_id
_symmetry_equiv_pos_as_xyz
1 x,y,z
2 -x,-y,-z
_cell_length_a 7.7934(4)
_cell_length_b 11.2813(3)
_cell_length_c 11.8818(2)
_cell_angle_alpha 77.771(4)
_cell_angle_beta 80.948(5)
_cell_angle_gamma 71.052(4)
_cell_formula_units_Z 2
loop_
_atom_type_symbol
_atom_type_radius_bond
C 0.68
H 0.23
N 0.68
O 0.68
loop_
_atom_site_label
_atom_site_type_symbol
_atom_site_fract_x
_atom_site_fract_y
_atom_site_fract_z
O1 O 0.3243(3) 0.0941(2) 0.8790(2)
O2 O 0.1966(3) 0.7038(2) 0.9341(2)
O3 O 0.4720(3) 0.83418(19) 0.77456(17)
O4 O 1.1375(4) 0.6731(3) 0.5285(3)
O5 O 1.0633(4) 0.6949(3) 0.3578(2)
N1 N 0.4469(3) 0.5569(2) 0.85135(19)
N2 N 1.0324(4) 0.6750(3) 0.4631(3)
C1 C 0.2353(4) 0.4324(3) 0.8902(2)
C2 C 0.2021(4) 0.3172(3) 0.8986(2)
C3 C 0.3412(5) 0.2117(3) 0.8731(3)
C4 C 0.5155(4) 0.2219(3) 0.8378(3)
C5 C 0.5496(4) 0.3360(3) 0.8297(2)
C6 C 0.4099(4) 0.4414(3) 0.8569(2)
C7 C 0.1492(5) 0.0772(4) 0.9103(4)
C8 C 0.6129(4) 0.5948(3) 0.8068(2)
C9 C 0.5111(4) 0.7211(3) 0.8556(3)
C10 C 0.3500(5) 0.6679(3) 0.8888(3)
C11 C 0.6576(4) 0.6108(3) 0.6781(2)
C12 C 0.8247(4) 0.6260(3) 0.6300(2)
C13 C 0.8581(4) 0.6524(3) 0.5124(3)
C14 C 0.7338(4) 0.6619(3) 0.4389(3)
C15 C 0.5691(4) 0.6437(3) 0.4861(3)
C16 C 0.5310(4) 0.6203(3) 0.6038(2)
C17 C 0.6128(5) 0.8875(3) 0.7357(3)
C18 C 0.7756(5) 0.8490(3) 0.7842(3)
C19 C 0.9081(5) 0.9080(4) 0.7365(3)
C20 C 0.8791(6) 1.0018(4) 0.6426(4)
C21 C 0.7173(6) 1.0394(4) 0.5945(3)
C22 C 0.5827(5) 0.9832(3) 0.6415(3)
H1 H 0.14070 0.50350 0.90690
H2 H 0.08510 0.31120 0.92160
H3 H 0.60970 0.15120 0.81950
H4 H 0.66640 0.34220 0.80600
H5 H 0.10340 0.09920 0.98540
H6 H 0.15800 -0.01000 0.91200
H7 H 0.06770 0.13100 0.85450
H8 H 0.71820 0.54210 0.84860
H9 H 0.56390 0.72760 0.92280
H10 H 0.91340 0.61820 0.67740
H11 H 0.75970 0.68020 0.35910
H12 H 0.48370 0.64740 0.43790
H13 H 0.41810 0.61050 0.63460
H14 H 0.79670 0.78430 0.84820
H15 H 1.01790 0.88290 0.76940
H16 H 0.96880 1.04030 0.61090
H17 H 0.69770 1.10320 0.52980
H18 H 0.47220 1.01030 0.60930
#END
