
#######################################################################
#
#                 Cambridge Crystallographic Data Centre
#                                CCDC
#
#######################################################################
#
# If this CIF has been generated from an entry in the Cambridge
# Structural Database, then it will include bibliographic, chemical,
# crystal, experimental, refinement or atomic coordinate data resulting
# from the CCDC's data processing and validation procedures.
#
#######################################################################

data_CSD_CIF_IKEJUD
_audit_creation_date 2007-03-05
_audit_creation_method CSD-ConQuest-V1
_database_code_CSD IKEJUD
_database_code_depnum_ccdc_archive 'CCDC 217988'
_chemical_formula_sum 'C20 H17 N1 O7'
_chemical_formula_moiety
;
C20 H17 N1 O7
;
_journal_coden_Cambridge 16
_journal_volume 61
_journal_year 2005
_journal_page_first 8956
_journal_name_full 'Tetrahedron '
loop_
_publ_author_name
"R.Venkateswarlu"
"C.Kamakshi"
"P.V.Subhash"
"S.G.A.Moinuddin"
"M.P.Gowri"
"R.S.Ward"
"A.Pelter"
"M.B.Hursthouse"
"S.J.Coles"
"M.E.Light"
_chemical_name_systematic
;
2,5-bis(1,3-Benzodioxol-5-yl)-3-(hydroxymethyl)-2,3-dihydro-4H-pyran-4-one 
oxime
;
_chemical_melting_point 395.15
_cell_volume    861.993
_exptl_crystal_density_diffrn 1.477
_exptl_crystal_preparation 'methanol'
_diffrn_ambient_temperature 150
#These two values have been output from a single CSD field.
_refine_ls_R_factor_gt 0.0461
_refine_ls_wR_factor_gt 0.0461
_symmetry_cell_setting monoclinic
_symmetry_space_group_name_H-M 'P 21'
_symmetry_Int_Tables_number 4
loop_
_symmetry_equiv_pos_site_id
_symmetry_equiv_pos_as_xyz
1 x,y,z
2 -x,1/2+y,-z
_cell_length_a 7.3943(2)
_cell_length_b 17.9631(8)
_cell_length_c 7.4227(3)
_cell_angle_alpha 90
_cell_angle_beta 119.037(2)
_cell_angle_gamma 90
_cell_formula_units_Z 2
loop_
_atom_type_symbol
_atom_type_radius_bond
C 0.68
H 0.23
N 0.68
O 0.68
loop_
_atom_site_label
_atom_site_type_symbol
_atom_site_fract_x
_atom_site_fract_y
_atom_site_fract_z
C1 C 0.5085(6) 0.1388(2) 1.2416(7)
H1 H 0.38640 0.10780 1.21190
H2 H 0.58100 0.15120 1.39020
C2 C 0.7046(5) 0.15253(19) 1.0931(6)
C3 C 0.8558(5) 0.1466(2) 1.0386(6)
H3 H 0.93530 0.10250 1.06330
C4 C 0.8874(5) 0.20875(19) 0.9448(6)
H4 H 0.99370 0.20720 0.90790
C5 C 0.7695(5) 0.27238(17) 0.9037(5)
C6 C 0.6135(5) 0.27649(18) 0.9612(6)
H5 H 0.52990 0.31960 0.93570
C7 C 0.5900(5) 0.2149(2) 1.0557(6)
C8 C 0.8144(5) 0.33777(17) 0.8003(5)
H6 H 0.81680 0.31800 0.67550
C9 C 1.0230(5) 0.37487(18) 0.9359(5)
H7 H 1.13160 0.33530 0.99320
C10 C 1.0170(5) 0.41373(16) 1.1133(5)
C11 C 0.8229(5) 0.45324(17) 1.0602(5)
C12 C 0.6607(5) 0.44132(18) 0.8761(5)
H8 H 0.54040 0.47000 0.84230
C13 C 1.0810(5) 0.43030(18) 0.8148(5)
H9 H 0.96340 0.46410 0.73320
H10 H 1.20110 0.46070 0.91080
C14 C 0.8058(5) 0.50635(17) 1.2048(5)
C15 C 0.9314(5) 0.56985(18) 1.2716(5)
H11 H 1.04530 0.57550 1.24710
C16 C 0.8846(5) 0.62346(19) 1.3734(5)
C17 C 0.7244(6) 0.61504(19) 1.4173(6)
C18 C 0.6079(5) 0.5520(2) 1.3656(6)
H12 H 0.50330 0.54530 1.40340
C19 C 0.6476(5) 0.4973(2) 1.2545(6)
H13 H 0.56560 0.45340 1.21240
C20 C 0.8494(6) 0.7306(2) 1.5081(7)
H14 H 0.93440 0.75450 1.64390
H15 H 0.76990 0.76970 1.40610
N1 N 1.1633(4) 0.41656(14) 1.2993(4)
O1 O 0.4454(4) 0.20512(14) 1.1215(5)
O2 O 0.6446(4) 0.09909(13) 1.1887(4)
O3 O 0.6484(3) 0.39228(11) 0.7304(3)
O4 O 1.1309(5) 0.38885(16) 0.6820(5)
O5 O 1.3381(3) 0.37679(14) 1.3241(4)
O6 O 0.7124(4) 0.67719(13) 1.5198(4)
O7 O 0.9802(4) 0.69069(13) 1.4457(4)
H16 H 1.437(6) 0.382(2) 1.463(7)
H17 H 1.112(11) 0.420(4) 0.596(12)
#END
