
#######################################################################
#
#                 Cambridge Crystallographic Data Centre
#                                CCDC
#
#######################################################################
#
# If this CIF has been generated from an entry in the Cambridge
# Structural Database, then it will include bibliographic, chemical,
# crystal, experimental, refinement or atomic coordinate data resulting
# from the CCDC's data processing and validation procedures.
#
#######################################################################

data_CSD_CIF_IKIMIY
_audit_creation_date 2004-01-22
_audit_creation_method CSD-ConQuest-V1
_database_code_CSD IKIMIY
_database_code_depnum_ccdc_archive 'CCDC 273637'
_chemical_formula_sum 'C6 H6 N8 O8'
_chemical_formula_moiety
;
C6 H6 N8 O8
;
_journal_coden_Cambridge 119
_journal_volume 606
_journal_year 2002
_journal_page_first 139
_journal_name_full 'J.Mol.Struct. '
loop_
_publ_author_name
"B.B.Averkiev"
"M.Yu.Antipin"
"I.L.Yudin"
"A.B.Sheremetev"
_chemical_name_systematic
;
2,6-bis(N-Nitromethylamino)-3,5-dinitropyrazine
;
_chemical_melting_point 433.15
_cell_volume   2454.090
_exptl_crystal_colour 'yellow'
_exptl_crystal_density_diffrn 1.722
_exptl_special_details
;
Melts with decomposition.

;
_exptl_crystal_description 'prism'
_exptl_crystal_preparation 'acetic acid'
_diffrn_ambient_temperature 293
#These two values have been output from a single CSD field.
_refine_ls_R_factor_gt 0.0567
_refine_ls_wR_factor_gt 0.0567
_symmetry_cell_setting orthorhombic
_symmetry_space_group_name_H-M 'P b c a'
_symmetry_Int_Tables_number 61
loop_
_symmetry_equiv_pos_site_id
_symmetry_equiv_pos_as_xyz
1 x,y,z
2 1/2-x,-y,1/2+z
3 1/2+x,1/2-y,-z
4 -x,1/2+y,1/2-z
5 -x,-y,-z
6 -1/2+x,y,-1/2-z
7 -1/2-x,-1/2+y,z
8 x,-1/2-y,-1/2+z
_cell_length_a 11.071(4)
_cell_length_b 13.966(8)
_cell_length_c 15.872(7)
_cell_angle_alpha 90
_cell_angle_beta 90
_cell_angle_gamma 90
_cell_formula_units_Z 8
loop_
_atom_type_symbol
_atom_type_radius_bond
C 0.68
H 0.23
N 0.68
O 0.68
loop_
_atom_site_label
_atom_site_type_symbol
_atom_site_fract_x
_atom_site_fract_y
_atom_site_fract_z
N1 N 0.28075(19) 0.17260(16) 0.37377(14)
C1 C 0.3198(2) 0.2201(2) 0.43978(17)
C2 C 0.2907(2) 0.31581(19) 0.45349(16)
N2 N 0.20750(19) 0.35618(15) 0.40538(13)
C3 C 0.1614(2) 0.30768(19) 0.34127(16)
C4 C 0.2070(2) 0.21716(19) 0.32308(17)
N3 N 0.1837(2) 0.1659(2) 0.24298(17)
O1 O 0.1715(2) 0.21514(19) 0.18061(14)
O2 O 0.1827(2) 0.07894(18) 0.24512(17)
N4 N 0.3923(2) 0.16200(18) 0.49817(19)
O3 O 0.3721(3) 0.17481(19) 0.57322(16)
O4 O 0.4608(3) 0.10354(18) 0.46975(18)
N5 N 0.0746(2) 0.35727(16) 0.29480(14)
N6 N -0.0247(2) 0.30815(19) 0.26435(16)
O5 O -0.0946(2) 0.35528(18) 0.22352(17)
O6 O -0.03424(19) 0.22338(16) 0.28119(14)
C5 C 0.0687(4) 0.4616(3) 0.2934(3)
H1 H 0.060(4) 0.485(3) 0.240(3)
H2 H 0.152(4) 0.478(3) 0.305(3)
H3 H 0.008(5) 0.483(4) 0.336(3)
N7 N 0.3383(2) 0.37578(17) 0.51604(15)
N8 N 0.4620(2) 0.37526(19) 0.52989(16)
O7 O 0.5002(2) 0.43501(17) 0.57850(15)
O8 O 0.5228(2) 0.31577(18) 0.49331(18)
C6 C 0.2736(3) 0.4610(3) 0.5440(2)
H4 H 0.294(3) 0.474(2) 0.602(2)
H5 H 0.301(4) 0.516(3) 0.511(3)
H6 H 0.189(3) 0.450(2) 0.535(2)
#END
