
#######################################################################
#
#                 Cambridge Crystallographic Data Centre
#                                CCDC
#
#######################################################################
#
# If this CIF has been generated from an entry in the Cambridge
# Structural Database, then it will include bibliographic, chemical,
# crystal, experimental, refinement or atomic coordinate data resulting
# from the CCDC's data processing and validation procedures.
#
#######################################################################

data_CSD_CIF_IKOBUF
_audit_creation_date 2004-01-22
_audit_creation_method CSD-ConQuest-V1
_database_code_CSD IKOBUF
_database_code_depnum_ccdc_archive 'CCDC 218629'
_chemical_formula_sum 'C19 H19 N1 O6'
_chemical_formula_moiety
;
C19 H19 N1 O6
;
_journal_coden_Cambridge 4
_journal_volume 125
_journal_year 2003
_journal_page_first 8432
_journal_name_full 'J.Am.Chem.Soc. '
loop_
_publ_author_name
"Y.Hachisu"
"J.W.Bode"
"K.Suzuki"
_chemical_name_systematic
;
Ethyl 
5a-hydroxy-10-methoxy-4-methyl-6-oxo-4,5,5a,6-tetrahydro-3H-anthra(9,1-cd)isox
azole-5-carboxylate
;
_chemical_melting_point 453.15
_cell_volume    848.217
_exptl_crystal_colour 'colorless'
_exptl_crystal_density_diffrn 1.399
_exptl_special_details
;
Melts with decomposition.
polymorph I

;
_exptl_crystal_description 'plate'
_diffrn_ambient_temperature 293
#These two values have been output from a single CSD field.
_refine_ls_R_factor_gt 0.0563
_refine_ls_wR_factor_gt 0.0563
_symmetry_cell_setting triclinic
_symmetry_space_group_name_H-M 'P -1'
_symmetry_Int_Tables_number 2
loop_
_symmetry_equiv_pos_site_id
_symmetry_equiv_pos_as_xyz
1 x,y,z
2 -x,-y,-z
_cell_length_a 7.565(2)
_cell_length_b 10.303(3)
_cell_length_c 11.618(4)
_cell_angle_alpha 102.588(6)
_cell_angle_beta 105.928(7)
_cell_angle_gamma 89.890(5)
_cell_formula_units_Z 2
loop_
_atom_type_symbol
_atom_type_radius_bond
C 0.68
H 0.23
N 0.68
O 0.68
loop_
_atom_site_label
_atom_site_type_symbol
_atom_site_fract_x
_atom_site_fract_y
_atom_site_fract_z
N1 N 0.3938(2) 0.18195(14) 0.46152(14)
O1 O 0.6214(2) 0.36757(12) 0.41538(14)
O2 O 0.6320(2) -0.20134(13) 0.17539(15)
O3 O 0.25323(18) 0.09820(12) 0.47618(11)
O4 O 0.24196(18) -0.08753(12) 0.09946(11)
H1 H 0.23010 -0.17310 0.04640
O5 O 0.2224(2) -0.36223(13) 0.02306(12)
O6 O 0.3699(2) -0.46693(12) 0.16850(13)
C1 C 0.6823(2) 0.26807(16) 0.34094(17)
C2 C 0.8268(3) 0.28301(19) 0.29155(19)
H2 H 0.88820 0.36610 0.30860
C3 C 0.8801(3) 0.1744(2) 0.2167(2)
H3 H 0.97740 0.18520 0.18450
C4 C 0.7899(3) 0.05146(19) 0.19034(18)
H4 H 0.82620 -0.02050 0.14010
C5 C 0.6446(2) 0.03396(16) 0.23819(15)
C6 C 0.5532(2) -0.10366(16) 0.20744(15)
C7 C 0.3532(2) -0.11458(15) 0.21215(14)
C8 C 0.2949(2) -0.24712(14) 0.23625(14)
H5 H 0.38430 -0.26270 0.31010
C9 C 0.1022(2) -0.23738(16) 0.25997(16)
H6 H 0.01800 -0.20970 0.19020
C10 C 0.1043(2) -0.13099(17) 0.37785(16)
H7 H -0.01950 -0.10370 0.37420
H8 H 0.14910 -0.16820 0.44960
C11 C 0.2258(2) -0.01456(16) 0.38713(15)
C12 C 0.3333(2) -0.00819(15) 0.31465(14)
C13 C 0.4392(2) 0.11426(14) 0.36496(14)
C14 C 0.5896(2) 0.14268(15) 0.31551(15)
C15 C 0.6938(3) 0.50068(18) 0.4326(2)
H9 H 0.82430 0.50630 0.47040
H10 H 0.63600 0.56090 0.48470
H11 H 0.66980 0.52420 0.35450
C16 C 0.0234(3) -0.3700(2) 0.2682(2)
H12 H 0.10890 -0.40410 0.33070
H13 H 0.00260 -0.43240 0.19060
H14 H -0.09110 -0.35700 0.28860
C17 C 0.2920(2) -0.36300(16) 0.13005(16)
C18 C 0.3694(4) -0.59069(18) 0.0793(2)
H15 H 0.49460 -0.61680 0.08670
H16 H 0.31650 -0.57810 -0.00330
C19 C 0.2616(4) -0.6940(2) 0.1019(3)
H17 H 0.30040 -0.69480 0.18760
H18 H 0.27970 -0.77900 0.05430
H19 H 0.13360 -0.67640 0.07870
#END
