
#######################################################################
#
#                 Cambridge Crystallographic Data Centre
#                                CCDC
#
#######################################################################
#
# If this CIF has been generated from an entry in the Cambridge
# Structural Database, then it will include bibliographic, chemical,
# crystal, experimental, refinement or atomic coordinate data resulting
# from the CCDC's data processing and validation procedures.
#
#######################################################################

data_CSD_CIF_ILADEF
_audit_creation_date 2011-05-12
_audit_creation_method CSD-ConQuest-V1
_database_code_CSD ILADEF
_database_code_depnum_ccdc_archive 'CCDC 816208'
_chemical_formula_sum 'C17 H19 N1 O6'
_chemical_formula_moiety
;
C17 H19 N1 O6
;
_journal_coden_Cambridge 1336
_journal_volume 12
_journal_year 2010
_journal_page_first 3556
_journal_name_full 'Org.Lett. '
loop_
_publ_author_name
"Silong Xu"
"Wen Zou"
"Guiping Wu"
"Haibin Song"
"Zhengjie He"
_chemical_name_systematic
;
Diethyl 2-(1-(4-nitrophenyl)prop-1-en-2-yl)but-2-enedioate
;
_cell_volume    837.051
_exptl_crystal_density_diffrn 1.323
_diffrn_ambient_temperature 113
#These two values have been output from a single CSD field.
_refine_ls_R_factor_gt 0.0618
_refine_ls_wR_factor_gt 0.0618
_symmetry_cell_setting triclinic
_symmetry_space_group_name_H-M 'P -1'
_symmetry_Int_Tables_number 2
loop_
_symmetry_equiv_pos_site_id
_symmetry_equiv_pos_as_xyz
1 x,y,z
2 -x,-y,-z
_cell_length_a 8.8667(18)
_cell_length_b 9.0480(18)
_cell_length_c 11.101(2)
_cell_angle_alpha 105.71(3)
_cell_angle_beta 98.61(3)
_cell_angle_gamma 96.29(3)
_cell_formula_units_Z 2
loop_
_atom_type_symbol
_atom_type_radius_bond
C 0.68
H 0.23
N 0.68
O 0.68
loop_
_atom_site_label
_atom_site_type_symbol
_atom_site_fract_x
_atom_site_fract_y
_atom_site_fract_z
O1 O -0.60261(19) 0.24205(19) 0.18873(17)
O2 O -0.73949(17) 0.42352(19) 0.24668(16)
O3 O 0.15220(16) 0.86470(16) 0.83853(13)
O4 O 0.11350(15) 1.09299(16) 0.80301(13)
O5 O 0.44834(15) 1.06732(16) 0.83365(13)
O6 O 0.59135(16) 1.06726(17) 0.68233(14)
N1 N -0.6157(2) 0.3750(2) 0.24706(17)
C1 C -0.2028(2) 0.5293(2) 0.3933(2)
H1 H -0.10630 0.49910 0.38890
C2 C -0.3331(2) 0.4318(2) 0.3165(2)
H2 H -0.32560 0.33620 0.26150
C3 C -0.4746(2) 0.4804(2) 0.32371(19)
C4 C -0.4903(2) 0.6219(2) 0.4041(2)
H3 H -0.58680 0.65260 0.40590
C5 C -0.3592(2) 0.7167(2) 0.4819(2)
H4 H -0.36800 0.81120 0.53800
C6 C -0.2137(2) 0.6722(2) 0.47721(19)
C7 C -0.0774(2) 0.7745(2) 0.56548(19)
H5 H -0.08880 0.81630 0.64930
C8 C 0.0604(2) 0.8136(2) 0.53791(19)
C9 C 0.0923(2) 0.7644(3) 0.40440(19)
H6 H 0.15300 0.68190 0.39610
H7 H 0.14790 0.85130 0.38720
H8 H -0.00360 0.72880 0.34480
C10 C 0.1891(2) 0.9079(2) 0.63997(19)
C11 C 0.1524(2) 0.9512(2) 0.77244(19)
C12 C 0.0710(3) 1.1461(3) 0.9283(2)
H9 H 0.15480 1.14360 0.99450
H10 H -0.01990 1.07900 0.93270
C13 C 0.0385(3) 1.3089(3) 0.9466(2)
H11 H 0.12850 1.37390 0.94060
H12 H 0.01240 1.34770 1.02910
H13 H -0.04620 1.30960 0.88190
C14 C 0.3308(2) 0.9471(2) 0.61870(19)
H14 H 0.34300 0.91650 0.53420
C15 C 0.4694(2) 1.0329(2) 0.71265(19)
C16 C 0.5826(2) 1.1492(2) 0.9314(2)
H15 H 0.67510 1.11210 0.90640
H16 H 0.57180 1.12800 1.01110
C17 C 0.5980(3) 1.3209(3) 0.9500(2)
H17 H 0.62070 1.34290 0.87410
H18 H 0.68020 1.37380 1.02040
H19 H 0.50300 1.35600 0.96730
#END
