
#######################################################################
#
#                 Cambridge Crystallographic Data Centre
#                                CCDC
#
#######################################################################
#
# If this CIF has been generated from an entry in the Cambridge
# Structural Database, then it will include bibliographic, chemical,
# crystal, experimental, refinement or atomic coordinate data resulting
# from the CCDC's data processing and validation procedures.
#
#######################################################################

data_CSD_CIF_ILAFEG
_audit_creation_date 2004-01-22
_audit_creation_method CSD-ConQuest-V1
_database_code_CSD ILAFEG
_database_code_depnum_ccdc_archive 'CCDC 195775'
_chemical_formula_sum 'C9 H15 N6 O2'
_chemical_formula_moiety
;
C9 H15 N6 O2
;
_journal_coden_Cambridge 580
_journal_volume 22
_journal_year 2003
_journal_page_first 1965
_journal_name_full 'Polyhedron '
loop_
_publ_author_name
"E.V.Tretyakov"
"S.V.Fokin"
"G.V.Romanenko"
"V.I.Ovcharenko"
_chemical_name_systematic
;
2-(2-methyl-2H-tetrazol-5-yl)-4,4,5,5-tetramethyl-4,5-dihydro-1H-imidazol-3-ox
ide-1-oxyl
;
_cell_volume   1186.007
_exptl_crystal_density_diffrn 1.34
_exptl_crystal_preparation 'heptane/dichloromethane'
_diffrn_ambient_temperature 293
#These two values have been output from a single CSD field.
_refine_ls_R_factor_gt 0.0584
_refine_ls_wR_factor_gt 0.0584
_symmetry_cell_setting monoclinic
_symmetry_space_group_name_H-M 'P 21/c'
_symmetry_Int_Tables_number 14
loop_
_symmetry_equiv_pos_site_id
_symmetry_equiv_pos_as_xyz
1 x,y,z
2 x,1/2-y,1/2+z
3 -x,-y,-z
4 -x,-1/2+y,-1/2-z
_cell_length_a 9.6950(19)
_cell_length_b 10.346(2)
_cell_length_c 12.227(2)
_cell_angle_alpha 90
_cell_angle_beta 104.75(3)
_cell_angle_gamma 90
_cell_formula_units_Z 4
loop_
_atom_type_symbol
_atom_type_radius_bond
C 0.68
H 0.23
N 0.68
O 0.68
loop_
_atom_site_label
_atom_site_type_symbol
_atom_site_fract_x
_atom_site_fract_y
_atom_site_fract_z
O1 O 0.9438(3) -0.0146(3) 0.1962(2)
N1 N 0.8369(3) 0.0536(3) 0.1485(2)
C1 C 0.7637(4) 0.1420(3) 0.2133(3)
C2 C 0.8717(5) 0.2077(5) 0.3084(4)
H1 H 0.808(4) 0.261(4) 0.347(3)
H2 H 0.919(4) 0.149(4) 0.358(3)
H3 H 0.944(5) 0.250(4) 0.283(3)
C3 C 0.6659(5) 0.0563(4) 0.2606(4)
H4 H 0.611(3) 0.103(3) 0.299(3)
H5 H 0.727(4) -0.007(4) 0.308(3)
H6 H 0.586(4) 0.016(4) 0.201(3)
C4 C 0.6845(4) 0.2329(3) 0.1168(3)
C5 C 0.7773(6) 0.3437(4) 0.0949(4)
H7 H 0.793(4) 0.403(4) 0.153(3)
H8 H 0.864(4) 0.315(4) 0.083(3)
H9 H 0.727(4) 0.384(4) 0.025(3)
C6 C 0.5404(5) 0.2806(5) 0.1277(4)
H10 H 0.462(7) 0.197(6) 0.121(5)
H11 H 0.563(4) 0.330(4) 0.192(3)
H12 H 0.495(5) 0.332(4) 0.067(3)
N2 N 0.6657(3) 0.1433(3) 0.0177(2)
O2 O 0.5732(3) 0.1643(3) -0.07627(19)
C7 C 0.7644(4) 0.0487(3) 0.0379(3)
C8 C 0.7868(4) -0.0467(3) -0.0421(3)
N3 N 0.8597(4) -0.1570(4) -0.0116(3)
N4 N 0.8527(4) -0.2209(3) -0.1057(3)
N5 N 0.7779(3) -0.1494(3) -0.1872(2)
C9 C 0.7423(7) -0.1909(5) -0.3067(4)
H13 H 0.788(6) -0.272(6) -0.304(5)
H14 H 0.776(5) -0.131(5) -0.356(4)
H15 H 0.634(7) -0.204(6) -0.336(5)
N6 N 0.7321(3) -0.0391(3) -0.1537(2)
#END
