
#######################################################################
#
#                 Cambridge Crystallographic Data Centre
#                                CCDC
#
#######################################################################
#
# If this CIF has been generated from an entry in the Cambridge
# Structural Database, then it will include bibliographic, chemical,
# crystal, experimental, refinement or atomic coordinate data resulting
# from the CCDC's data processing and validation procedures.
#
#######################################################################

data_CSD_CIF_ILOFEW
_audit_creation_date 2016-05-09
_audit_creation_method CSD-ConQuest-V1
_database_code_CSD ILOFEW
_database_code_depnum_ccdc_archive 'CCDC 1439321'
_chemical_formula_sum 'C4 H6 N6 O5'
_chemical_formula_moiety
;
C4 H6 N6 O5
;
_journal_coden_Cambridge 440
_journal_volume 40
_journal_year 2016
_journal_page_first 6059
_journal_name_full 'New J.Chem. '
loop_
_publ_author_name
"T.M.Klapotke"
"A.Penger"
"C.Pfluger"
"J.Stierstorfer"
_chemical_name_systematic
;
1-(3-Nitro-1H-1,2,4-triazol-5-on-4-yl)-2-nitrazapropane
;
_chemical_name_common
;
4-((Methyl(nitro)amino)methyl)-5-nitro-2,4-dihydro-3H-1,2,4-triazol-3-one
;
_cell_volume    420.902
_exptl_crystal_colour 'colorless'
_exptl_crystal_density_diffrn 1.721
_exptl_crystal_description 'block'
_diffrn_ambient_temperature 173
#These two values have been output from a single CSD field.
_refine_ls_R_factor_gt 0.0344
_refine_ls_wR_factor_gt 0.0344
_symmetry_cell_setting monoclinic
_symmetry_space_group_name_H-M 'P 21'
_symmetry_Int_Tables_number 4
loop_
_symmetry_equiv_pos_site_id
_symmetry_equiv_pos_as_xyz
1 x,y,z
2 -x,1/2+y,-z
_cell_length_a 6.7610(6)
_cell_length_b 5.5064(6)
_cell_length_c 11.3925(10)
_cell_angle_alpha 90
_cell_angle_beta 97.072(9)
_cell_angle_gamma 90
_cell_formula_units_Z 2
loop_
_atom_type_symbol
_atom_type_radius_bond
C 0.68
H 0.23
N 0.68
O 0.68
loop_
_atom_site_label
_atom_site_type_symbol
_atom_site_fract_x
_atom_site_fract_y
_atom_site_fract_z
O1 O 0.6050(2) 0.7904(3) 0.59511(13)
O2 O 1.2640(3) 0.1642(3) 0.69802(15)
O3 O 0.7402(3) 0.5158(4) 1.00738(15)
N1 N 0.8030(3) 0.7509(4) 0.85949(15)
N2 N 1.2138(3) 0.3758(4) 0.70273(16)
O4 O 0.9759(2) 0.4162(3) 0.90062(13)
N3 N 0.9154(3) 0.6431(3) 0.67397(15)
N4 N 0.9161(3) 0.2955(4) 0.57346(16)
N5 N 0.7422(3) 0.4206(4) 0.54299(17)
N6 N 0.8408(3) 0.5524(4) 0.92669(17)
O5 O 1.3170(2) 0.5423(4) 0.74473(16)
C1 C 0.6476(4) 0.9163(6) 0.8880(3)
C2 C 0.9415(4) 0.8065(5) 0.7758(2)
C3 C 1.0111(3) 0.4354(5) 0.65236(18)
C4 C 0.7342(4) 0.6364(5) 0.59986(19)
H1 H 1.083(3) 0.799(4) 0.8122(16)
H2 H 0.636(3) 0.357(4) 0.4929(18)
H3 H 0.911(3) 0.972(4) 0.7421(16)
H4 H 0.689(4) 0.991(5) 0.966(2)
H5 H 0.632(4) 1.052(7) 0.827(2)
H6 H 0.528(4) 0.820(6) 0.886(2)
#END
