
#######################################################################
#
#                 Cambridge Crystallographic Data Centre
#                                CCDC
#
#######################################################################
#
# If this CIF has been generated from an entry in the Cambridge
# Structural Database, then it will include bibliographic, chemical,
# crystal, experimental, refinement or atomic coordinate data resulting
# from the CCDC's data processing and validation procedures.
#
#######################################################################

data_CSD_CIF_ILOGEX
_audit_creation_date 2016-05-09
_audit_creation_method CSD-ConQuest-V1
_database_code_CSD ILOGEX
_database_code_depnum_ccdc_archive 'CCDC 1439319'
_chemical_formula_sum 'C5 H6 N6 O6'
_chemical_formula_moiety
;
C5 H6 N6 O6
;
_journal_coden_Cambridge 440
_journal_volume 40
_journal_year 2016
_journal_page_first 6059
_journal_name_full 'New J.Chem. '
loop_
_publ_author_name
"T.M.Klapotke"
"A.Penger"
"C.Pfluger"
"J.Stierstorfer"
_chemical_name_systematic
;
1-(2,4-Dinitroimidazol-1-yl)-2-nitrazapropane
;
_chemical_name_common
;
1-(2,4-Dinitro-1H-imidazol-1-yl)-N-methyl-N-nitromethanamine
;
_chemical_melting_point 403.15
_cell_volume    942.329
_exptl_crystal_colour 'colorless'
_exptl_crystal_density_diffrn 1.735
_exptl_crystal_description 'block'
_diffrn_ambient_temperature 173
#These two values have been output from a single CSD field.
_refine_ls_R_factor_gt 0.0322
_refine_ls_wR_factor_gt 0.0322
_symmetry_cell_setting monoclinic
_symmetry_space_group_name_H-M 'P 21/c'
_symmetry_Int_Tables_number 14
loop_
_symmetry_equiv_pos_site_id
_symmetry_equiv_pos_as_xyz
1 x,y,z
2 -x,1/2+y,1/2-z
3 -x,-y,-z
4 x,-1/2-y,-1/2+z
_cell_length_a 11.4913(12)
_cell_length_b 6.9525(5)
_cell_length_c 12.8652(11)
_cell_angle_alpha 90
_cell_angle_beta 113.537(10)
_cell_angle_gamma 90
_cell_formula_units_Z 4
loop_
_atom_type_symbol
_atom_type_radius_bond
C 0.68
H 0.23
N 0.68
O 0.68
loop_
_atom_site_label
_atom_site_type_symbol
_atom_site_fract_x
_atom_site_fract_y
_atom_site_fract_z
O1 O 0.10811(12) 0.14298(19) 0.01676(10)
O2 O 0.06034(12) 0.33699(19) 0.12669(11)
O3 O 0.53182(12) 0.03494(19) 0.63688(11)
O4 O 0.35342(13) 0.17828(17) 0.53482(10)
N1 N 0.19610(12) -0.10195(19) 0.35724(10)
N2 N 0.36102(13) -0.1403(2) 0.54436(11)
N3 N 0.18472(12) -0.1315(2) 0.18005(10)
N4 N 0.41819(15) 0.0340(2) 0.57408(12)
O5 O 0.24831(17) -0.49427(18) 0.37508(12)
N5 N 0.10131(14) 0.1842(2) 0.10664(12)
O6 O 0.30586(14) -0.47707(18) 0.23626(11)
N6 N 0.26198(14) -0.4117(2) 0.30012(12)
C1 C 0.22703(17) -0.1397(3) 0.47905(13)
C2 C 0.14465(16) 0.0444(2) 0.19710(13)
C3 C 0.15137(16) 0.0684(3) 0.30447(15)
C4 C 0.4351(2) -0.3092(3) 0.60021(19)
C5 C 0.21474(15) -0.2136(2) 0.27802(13)
H1 H 0.3781(18) -0.425(3) 0.5726(15)
H2 H 0.1837(15) -0.038(2) 0.5006(12)
H3 H 0.1945(14) -0.269(2) 0.4864(12)
H4 H 0.1355(16) 0.177(2) 0.3442(14)
H5 H 0.4666(19) -0.293(3) 0.6807(19)
H6 H 0.507(2) -0.329(3) 0.5740(17)
#END
