
#######################################################################
#
#                 Cambridge Crystallographic Data Centre
#                                CCDC
#
#######################################################################
#
# If this CIF has been generated from an entry in the Cambridge
# Structural Database, then it will include bibliographic, chemical,
# crystal, experimental, refinement or atomic coordinate data resulting
# from the CCDC's data processing and validation procedures.
#
#######################################################################

data_CSD_CIF_ILOGAT
_audit_creation_date 2016-05-09
_audit_creation_method CSD-ConQuest-V1
_database_code_CSD ILOGAT
_database_code_depnum_ccdc_archive 'CCDC 1439315'
_chemical_formula_sum 'C8 H10 N12 O8'
_chemical_formula_moiety
;
C8 H10 N12 O8
;
_journal_coden_Cambridge 440
_journal_volume 40
_journal_year 2016
_journal_page_first 6059
_journal_name_full 'New J.Chem. '
loop_
_publ_author_name
"T.M.Klapotke"
"A.Penger"
"C.Pfluger"
"J.Stierstorfer"
_chemical_name_systematic
;
(5,5'-Dinitro-2H,2'H-3,3'-bi-1,2,4-triazole-2,2'-diyl)bis(N-methyl-N-nitrometh
anamine)
;
_chemical_melting_point 498.15
_cell_volume   1573.749
_exptl_crystal_colour 'colorless'
_exptl_crystal_density_diffrn 1.698
_exptl_crystal_description 'plate'
_diffrn_ambient_temperature 173
#These two values have been output from a single CSD field.
_refine_ls_R_factor_gt 0.0411
_refine_ls_wR_factor_gt 0.0411
_symmetry_cell_setting monoclinic
_symmetry_space_group_name_H-M 'C 2/c'
_symmetry_Int_Tables_number 15
loop_
_symmetry_equiv_pos_site_id
_symmetry_equiv_pos_as_xyz
1 x,y,z
2 -x,y,1/2-z
3 1/2+x,1/2+y,z
4 1/2-x,1/2+y,1/2-z
5 -x,-y,-z
6 x,-y,-1/2+z
7 -1/2-x,-1/2-y,-z
8 -1/2+x,-1/2-y,-1/2+z
_cell_length_a 17.5192(17)
_cell_length_b 6.4082(6)
_cell_length_c 14.2000(14)
_cell_angle_alpha 90
_cell_angle_beta 99.184(9)
_cell_angle_gamma 90
_cell_formula_units_Z 4
loop_
_atom_type_symbol
_atom_type_radius_bond
C 0.68
H 0.23
N 0.68
O 0.68
loop_
_atom_site_label
_atom_site_type_symbol
_atom_site_fract_x
_atom_site_fract_y
_atom_site_fract_z
O1 O 0.21270(9) 0.0337(3) 0.10273(11)
O2 O 0.28739(9) 0.0903(3) 0.23718(12)
O3 O -0.00748(9) 0.4972(2) 0.35222(11)
O4 O 0.06314(10) 0.7311(2) 0.43782(11)
N1 N 0.08435(9) 0.0486(3) 0.18786(11)
N2 N 0.16353(9) 0.1203(3) 0.32751(12)
N3 N 0.08866(9) 0.1261(3) 0.34005(11)
N4 N 0.22385(10) 0.0645(3) 0.18851(13)
N5 N 0.09279(10) 0.3976(3) 0.45741(12)
N6 N 0.04699(11) 0.5494(3) 0.41310(13)
C1 C 0.04223(11) 0.0830(3) 0.25654(14)
C2 C 0.15617(11) 0.0753(3) 0.23608(14)
C3 C 0.07005(13) 0.1862(3) 0.43398(14)
C4 C 0.15644(16) 0.4545(5) 0.53177(19)
H1 H 0.0161(12) 0.167(3) 0.4315(13)
H2 H 0.1005(11) 0.096(3) 0.4818(14)
H3 H 0.1374(16) 0.497(4) 0.583(2)
H4 H 0.1839(15) 0.568(4) 0.5104(18)
H5 H 0.1931(18) 0.338(5) 0.547(2)
O1A O -0.21270(9) 0.0337(3) 0.39727(11)
O2A O -0.28739(9) 0.0903(3) 0.26282(12)
O3A O 0.00748(9) 0.4972(2) 0.14778(11)
O4A O -0.06314(10) 0.7311(2) 0.06218(11)
N1A N -0.08435(9) 0.0486(3) 0.31214(11)
N2A N -0.16353(9) 0.1203(3) 0.17249(12)
N3A N -0.08866(9) 0.1261(3) 0.15995(11)
N4A N -0.22385(10) 0.0645(3) 0.31149(13)
N5A N -0.09279(10) 0.3976(3) 0.04259(12)
N6A N -0.04699(11) 0.5494(3) 0.08690(13)
C1A C -0.04223(11) 0.0830(3) 0.24346(14)
C2A C -0.15617(11) 0.0753(3) 0.26392(14)
C3A C -0.07005(13) 0.1862(3) 0.06602(14)
C4A C -0.15644(16) 0.4545(5) -0.03177(19)
H1A H -0.0161(12) 0.167(3) 0.0685(13)
H2A H -0.1005(11) 0.096(3) 0.0182(14)
H3A H -0.1374(16) 0.497(4) -0.083(2)
H4A H -0.1839(15) 0.568(4) -0.0104(18)
H5A H -0.1931(18) 0.338(5) -0.047(2)
#END
