
#######################################################################
#
#                 Cambridge Crystallographic Data Centre
#                                CCDC
#
#######################################################################
#
# If this CIF has been generated from an entry in the Cambridge
# Structural Database, then it will include bibliographic, chemical,
# crystal, experimental, refinement or atomic coordinate data resulting
# from the CCDC's data processing and validation procedures.
#
#######################################################################

data_CSD_CIF_ILOHIC
_audit_creation_date 2016-05-09
_audit_creation_method CSD-ConQuest-V1
_database_code_CSD ILOHIC
_database_code_depnum_ccdc_archive 'CCDC 1439316'
_chemical_formula_sum 'C5 H7 N7 O6'
_chemical_formula_moiety
;
C5 H7 N7 O6
;
_journal_coden_Cambridge 440
_journal_volume 40
_journal_year 2016
_journal_page_first 6059
_journal_name_full 'New J.Chem. '
loop_
_publ_author_name
"T.M.Klapotke"
"A.Penger"
"C.Pfluger"
"J.Stierstorfer"
_chemical_name_systematic
;
1-(4-Amino-3,5-dinitropyrazol-1-yl)-2-nitrazapropane
;
_chemical_name_common
;
1-((Methyl(nitro)amino)methyl)-3,5-dinitro-1H-pyrazol-4-amine
;
_chemical_melting_point 414.15
_cell_volume    953.131
_exptl_crystal_colour 'yellow'
_exptl_crystal_density_diffrn 1.82
_exptl_crystal_description 'block'
_diffrn_ambient_temperature 173
#These two values have been output from a single CSD field.
_refine_ls_R_factor_gt 0.0433
_refine_ls_wR_factor_gt 0.0433
_symmetry_cell_setting monoclinic
_symmetry_space_group_name_H-M 'P 21/c'
_symmetry_Int_Tables_number 14
loop_
_symmetry_equiv_pos_site_id
_symmetry_equiv_pos_as_xyz
1 x,y,z
2 -x,1/2+y,1/2-z
3 -x,-y,-z
4 x,-1/2-y,-1/2+z
_cell_length_a 15.9508(16)
_cell_length_b 5.6426(7)
_cell_length_c 10.6832(11)
_cell_angle_alpha 90
_cell_angle_beta 97.579(9)
_cell_angle_gamma 90
_cell_formula_units_Z 4
loop_
_atom_type_symbol
_atom_type_radius_bond
C 0.68
H 0.23
N 0.68
O 0.68
loop_
_atom_site_label
_atom_site_type_symbol
_atom_site_fract_x
_atom_site_fract_y
_atom_site_fract_z
O1 O 0.18117(10) -0.4836(3) 0.51139(14)
O2 O 0.06221(9) -0.2906(3) 0.47551(15)
O3 O 0.12755(9) 0.4677(3) 0.19142(15)
O4 O 0.26000(9) 0.4419(3) 0.16522(14)
O5 O 0.44726(9) -0.3399(3) 0.08670(13)
O6 O 0.42632(9) -0.3692(3) 0.28361(13)
N1 N 0.27396(9) 0.0255(3) 0.31238(14)
N2 N 0.25804(10) -0.1587(3) 0.38257(14)
N3 N 0.13813(11) -0.3170(3) 0.46617(16)
N4 N 0.05401(11) 0.1226(4) 0.32555(19)
N5 N 0.19746(10) 0.3669(3) 0.20818(15)
N6 N 0.3799(1) -0.0513(3) 0.17161(14)
N7 N 0.42015(10) -0.2640(3) 0.18169(15)
C1 C 0.17622(12) -0.1416(4) 0.39526(18)
C2 C 0.13558(12) 0.0555(4) 0.33355(17)
C3 C 0.20205(12) 0.1589(4) 0.28063(18)
C4 C 0.36232(11) 0.0596(4) 0.28689(17)
H1 H 0.37380 0.23160 0.28220
H2 H 0.40120 -0.00600 0.35840
C5 C 0.38392(13) 0.0805(4) 0.05476(18)
H3 H 0.35080 0.22670 0.05590
H4 H 0.36070 -0.01680 -0.01760
H5 H 0.44290 0.12020 0.04760
H6 H 0.0243(14) 0.053(4) 0.379(2)
H7 H 0.0412(15) 0.261(5) 0.294(2)
#END
