
#######################################################################
#
#                 Cambridge Crystallographic Data Centre
#                                CCDC
#
#######################################################################
#
# If this CIF has been generated from an entry in the Cambridge
# Structural Database, then it will include bibliographic, chemical,
# crystal, experimental, refinement or atomic coordinate data resulting
# from the CCDC's data processing and validation procedures.
#
#######################################################################

data_CSD_CIF_IMEYEG
_audit_creation_date 2016-05-11
_audit_creation_method CSD-ConQuest-V1
_database_code_CSD IMEYEG
_database_code_depnum_ccdc_archive 'CCDC 1449550'
_chemical_formula_sum 'C28 H24 N2 O5'
_chemical_formula_moiety
;
C28 H24 N2 O5
;
_journal_coden_Cambridge 24
_journal_volume 57
_journal_year 2016
_journal_page_first 2638
_journal_name_full 'Tetrahedron Lett. '
loop_
_publ_author_name
"T.A.Shah"
"Z.Ahmad"
"N.P.Rath"
"M.Muneer"
_chemical_name_systematic
;
(2-(t-butylamino)-5-(2-nitrophenyl)furan-3,4-diyl)bis(phenylmethanone)
;
_chemical_melting_point 410
_cell_volume   2357.975
_exptl_crystal_colour 'yellow'
_exptl_crystal_density_diffrn 1.32
_exptl_special_details
;
Melting point range 410-411K

;
_exptl_crystal_description 'rectangular'
_exptl_crystal_preparation 'acetonitrile'
_diffrn_ambient_temperature 100
#These two values have been output from a single CSD field.
_refine_ls_R_factor_gt 0.0461
_refine_ls_wR_factor_gt 0.0461
_symmetry_cell_setting monoclinic
_symmetry_space_group_name_H-M 'P 21/n'
_symmetry_Int_Tables_number 14
loop_
_symmetry_equiv_pos_site_id
_symmetry_equiv_pos_as_xyz
1 x,y,z
2 1/2-x,1/2+y,1/2-z
3 -x,-y,-z
4 -1/2+x,-1/2-y,-1/2+z
_cell_length_a 8.0688(5)
_cell_length_b 22.9812(15)
_cell_length_c 13.1638(8)
_cell_angle_alpha 90
_cell_angle_beta 104.984(3)
_cell_angle_gamma 90
_cell_formula_units_Z 4
loop_
_atom_type_symbol
_atom_type_radius_bond
C 0.68
H 0.23
N 0.68
O 0.68
loop_
_atom_site_label
_atom_site_type_symbol
_atom_site_fract_x
_atom_site_fract_y
_atom_site_fract_z
O1 O 0.60354(15) 0.82525(5) 0.56827(9)
O2 O 0.48101(17) 0.64679(6) 0.61511(11)
O3 O 1.09237(17) 0.76960(6) 0.71534(11)
O4 O 0.33963(17) 0.84980(6) 0.65766(10)
O5 O 0.2341(2) 0.91105(6) 0.53257(12)
N1 N 0.8747(2) 0.86062(6) 0.64962(12)
H1 H 0.98530 0.85300 0.66470
N2 N 0.2712(2) 0.86150(7) 0.56577(12)
C1 C 0.5244(2) 0.77052(8) 0.54773(13)
C2 C 0.6401(2) 0.72779(8) 0.58468(13)
C3 C 0.8028(2) 0.75597(8) 0.63195(13)
C4 C 0.7696(2) 0.81552(8) 0.61883(14)
C5 C 0.3466(2) 0.77041(8) 0.48509(13)
C6 C 0.2260(2) 0.81337(8) 0.48972(14)
C7 C 0.0605(2) 0.81381(9) 0.42517(15)
H2 H -0.01640 0.84430 0.43000
C8 C 0.0089(2) 0.76891(9) 0.35328(14)
H3 H -0.10520 0.76760 0.30990
C9 C 0.1251(2) 0.72636(9) 0.34577(14)
H4 H 0.09090 0.69590 0.29590
C10 C 0.2904(2) 0.72712(8) 0.40938(14)
H5 H 0.36820 0.69740 0.40150
C11 C 0.5947(2) 0.66422(8) 0.57757(14)
C12 C 0.6868(2) 0.62421(8) 0.52206(13)
C13 C 0.6708(2) 0.56428(8) 0.53432(14)
H6 H 0.60150 0.54990 0.57710
C14 C 0.7551(3) 0.52605(9) 0.48456(15)
H7 H 0.74400 0.48530 0.49310
C15 C 0.8560(3) 0.54684(9) 0.42214(15)
H8 H 0.91490 0.52030 0.38860
C16 C 0.8716(3) 0.60606(9) 0.40826(15)
H9 H 0.94000 0.62010 0.36470
C17 C 0.7871(2) 0.64485(8) 0.45808(14)
H10 H 0.79760 0.68550 0.44860
C18 C 0.9691(2) 0.73531(8) 0.68970(14)
C19 C 0.9977(2) 0.67292(8) 0.72116(13)
C20 C 0.8901(2) 0.64406(8) 0.77174(14)
H11 H 0.79180 0.66320 0.78280
C21 C 0.9267(3) 0.58748(8) 0.80593(14)
H12 H 0.85480 0.56800 0.84190
C22 C 1.0679(3) 0.55914(9) 0.78784(15)
H13 H 1.09180 0.52010 0.81060
C23 C 1.1744(3) 0.58757(9) 0.73672(16)
H14 H 1.27060 0.56790 0.72400
C24 C 1.1408(2) 0.64466(8) 0.70403(14)
H15 H 1.21500 0.66440 0.67010
C25 C 0.8271(2) 0.92220(8) 0.66143(14)
C26 C 0.9952(3) 0.95489(9) 0.7011(2)
H16 H 1.06050 0.93770 0.76750
H17 H 0.97120 0.99580 0.71240
H18 H 1.06220 0.95220 0.64890
C27 C 0.7281(3) 0.94675(9) 0.55615(15)
H19 H 0.79190 0.93940 0.50340
H20 H 0.71300 0.98880 0.56280
H21 H 0.61540 0.92800 0.53430
C28 C 0.7240(3) 0.92619(9) 0.74312(16)
H22 H 0.61480 0.90560 0.71740
H23 H 0.70150 0.96710 0.75550
H24 H 0.78920 0.90840 0.80900
#END
