
#######################################################################
#
#                 Cambridge Crystallographic Data Centre
#                                CCDC
#
#######################################################################
#
# If this CIF has been generated from an entry in the Cambridge
# Structural Database, then it will include bibliographic, chemical,
# crystal, experimental, refinement or atomic coordinate data resulting
# from the CCDC's data processing and validation procedures.
#
#######################################################################

data_CSD_CIF_IMICUE
_audit_creation_date 2016-05-11
_audit_creation_method CSD-ConQuest-V1
_database_code_CSD IMICUE
_database_code_depnum_ccdc_archive 'CCDC 1426267'
_chemical_formula_sum 'C7 H8 N2 O3'
_chemical_formula_moiety
;
C7 H8 N2 O3
;
_journal_coden_Cambridge 119
_journal_volume 1119
_journal_year 2016
_journal_page_first 505
_journal_name_full 'J.Mol.Struct. '
loop_
_publ_author_name
"J.Hernandez-Paredes"
"R.C.Carrillo-Torres"
"A.A.Lopez-Zavala"
"R.R.Sotelo-Mundo"
"O.Hernandez-Negrete"
"J.Z.Ramirez"
"M.E.Alvarez-Ramos"
_chemical_name_systematic
;
5-methoxy-2-nitroaniline
;
_cell_volume    360.377
_exptl_crystal_colour 'yellow'
_exptl_crystal_density_diffrn 1.55
_exptl_crystal_description 'plate'
_exptl_crystal_preparation 'acetone'
_diffrn_ambient_temperature 100
#These two values have been output from a single CSD field.
_refine_ls_R_factor_gt 0.0338
_refine_ls_wR_factor_gt 0.0338
_symmetry_cell_setting triclinic
_symmetry_space_group_name_H-M 'P -1'
_symmetry_Int_Tables_number 2
loop_
_symmetry_equiv_pos_site_id
_symmetry_equiv_pos_as_xyz
1 x,y,z
2 -x,-y,-z
_cell_length_a 6.9923(3)
_cell_length_b 7.1510(4)
_cell_length_c 7.8961(4)
_cell_angle_alpha 92.273(2)
_cell_angle_beta 94.057(2)
_cell_angle_gamma 113.426(2)
_cell_formula_units_Z 2
loop_
_atom_type_symbol
_atom_type_radius_bond
C 0.68
H 0.23
N 0.68
O 0.68
loop_
_atom_site_label
_atom_site_type_symbol
_atom_site_fract_x
_atom_site_fract_y
_atom_site_fract_z
O1 O 0.73434(13) 0.86360(12) 0.78345(9)
O2 O 0.72898(14) 1.09304(13) 0.61453(10)
O3 O 0.75559(13) 0.48002(12) 0.05404(9)
N1 N 0.75915(14) 0.52525(15) 0.66210(12)
N2 N 0.73620(14) 0.92530(14) 0.63799(11)
C1 C 0.75387(15) 0.60914(16) 0.51330(13)
C2 C 0.74555(15) 0.80215(16) 0.49616(13)
C3 C 0.74473(17) 0.87957(17) 0.33478(14)
H1 H 0.74030 1.01000 0.32640
C4 C 0.75013(17) 0.77170(18) 0.19084(14)
H2 H 0.75060 0.82600 0.08290
C5 C 0.75504(16) 0.57731(17) 0.20493(13)
C6 C 0.75809(15) 0.49858(16) 0.36111(13)
H3 H 0.76310 0.36820 0.36710
C7 C 0.74915(18) 0.27705(17) 0.05532(14)
H4 H 0.74750 0.22440 -0.06150
H5 H 0.62260 0.18820 0.10470
H6 H 0.87300 0.27990 0.12370
H7 H 0.740(2) 0.583(2) 0.756(2)
H8 H 0.753(2) 0.399(3) 0.6608(18)
#END
