
#######################################################################
#
#                 Cambridge Crystallographic Data Centre
#                                CCDC
#
#######################################################################
#
# If this CIF has been generated from an entry in the Cambridge
# Structural Database, then it will include bibliographic, chemical,
# crystal, experimental, refinement or atomic coordinate data resulting
# from the CCDC's data processing and validation procedures.
#
#######################################################################

data_CSD_CIF_IMIPIF
_audit_creation_date 2016-05-11
_audit_creation_method CSD-ConQuest-V1
_database_code_CSD IMIPIF
_database_code_depnum_ccdc_archive 'CCDC 1451744'
_chemical_formula_sum 'C12 H13 N1 O2'
_chemical_formula_moiety
;
C12 H13 N1 O2
;
_journal_coden_Cambridge 1336
_journal_volume 18
_journal_year 2016
_journal_page_first 2146
_journal_name_full 'Org.Lett. '
loop_
_publ_author_name
"A.J.Fraboni"
"S.E.Brenner-Moyer"
_chemical_name_systematic
;
(E)-N-((E)-6-oxohex-4-en-3-ylidene)aniline oxide
;
_chemical_name_common
;
6-oxo-N-phenylhex-4-en-3-imine N-oxide
;
_cell_volume   1074.263
_exptl_crystal_colour 'light yellow'
_exptl_crystal_density_diffrn 1.257
_exptl_special_details
;
Heat-sensitive

;
_exptl_crystal_description 'block'
_exptl_crystal_preparation 'diethyl ether'
_diffrn_ambient_temperature 100
#These two values have been output from a single CSD field.
_refine_ls_R_factor_gt 0.049
_refine_ls_wR_factor_gt 0.049
_symmetry_cell_setting monoclinic
_symmetry_space_group_name_H-M 'P 21/n'
_symmetry_Int_Tables_number 14
loop_
_symmetry_equiv_pos_site_id
_symmetry_equiv_pos_as_xyz
1 x,y,z
2 1/2-x,1/2+y,1/2-z
3 -x,-y,-z
4 -1/2+x,-1/2-y,-1/2+z
_cell_length_a 9.8079(17)
_cell_length_b 8.8394(15)
_cell_length_c 12.567(2)
_cell_angle_alpha 90
_cell_angle_beta 99.596(3)
_cell_angle_gamma 90
_cell_formula_units_Z 4
loop_
_atom_type_symbol
_atom_type_radius_bond
C 0.68
H 0.23
N 0.68
O 0.68
loop_
_atom_site_label
_atom_site_type_symbol
_atom_site_fract_x
_atom_site_fract_y
_atom_site_fract_z
O1 O 0.63708(6) 0.70923(7) 0.12526(5)
O2 O 0.45066(8) 0.21619(8) 0.52496(6)
N1 N 0.65239(7) 0.62157(7) 0.20838(5)
C1 C 0.54696(8) 0.56118(9) 0.24773(6)
C2 C 0.40387(8) 0.60793(10) 0.19705(7)
H1 H 0.4100(13) 0.7086(15) 0.1706(10)
H2 H 0.3494(13) 0.6107(14) 0.255(1)
C3 C 0.3393(1) 0.50248(13) 0.10581(8)
H3 H 0.2467(16) 0.5442(17) 0.0729(12)
H4 H 0.3308(16) 0.3999(18) 0.1317(13)
H5 H 0.3974(15) 0.5027(17) 0.0487(11)
C4 C 0.57581(8) 0.45013(9) 0.33234(6)
H6 H 0.6719(13) 0.4200(15) 0.3541(10)
C5 C 0.48054(8) 0.38474(9) 0.38381(7)
H7 H 0.3814(14) 0.4061(15) 0.3665(11)
C6 C 0.52622(9) 0.27606(9) 0.46945(7)
H8 H 0.6275(13) 0.2490(15) 0.4798(10)
C7 C 0.79559(7) 0.59922(8) 0.25920(6)
C8 C 0.83999(8) 0.66033(9) 0.36086(6)
H9 H 0.7730(12) 0.7102(14) 0.3995(9)
C9 C 0.97880(9) 0.64498(10) 0.40655(7)
H10 H 1.0126(15) 0.6851(17) 0.4769(12)
C10 C 1.06904(9) 0.56976(11) 0.35029(8)
H11 H 1.1690(15) 0.5561(16) 0.3858(12)
C11 C 1.02234(9) 0.50979(10) 0.24833(7)
H12 H 1.0858(13) 0.4566(15) 0.209(1)
C12 C 0.88423(8) 0.52480(9) 0.20172(6)
H13 H 0.8498(14) 0.4836(15) 0.1306(11)
#END
