
#######################################################################
#
#                 Cambridge Crystallographic Data Centre
#                                CCDC
#
#######################################################################
#
# If this CIF has been generated from an entry in the Cambridge
# Structural Database, then it will include bibliographic, chemical,
# crystal, experimental, refinement or atomic coordinate data resulting
# from the CCDC's data processing and validation procedures.
#
#######################################################################

data_CSD_CIF_IMISAY
_audit_creation_date 2004-03-03
_audit_creation_method CSD-ConQuest-V1
_database_code_CSD IMISAY
_database_code_depnum_ccdc_archive 'CCDC 228333'
_chemical_formula_sum 'C6 H14 N10 O10'
_chemical_formula_moiety
;
C6 H14 N10 O10
;
_journal_coden_Cambridge 95
_journal_year 2003
_journal_page_first 726
_journal_name_full 'Izv.Akad.Nauk SSSR,Ser.Khim.(Russ.)(Russ.Chem.Bull.) '
loop_
_publ_author_name
"I.N.Zyuzin"
"N.I.Golovina"
"B.S.Fedorov"
"G.V.Shilov"
"G.N.Nechiporenko"
_chemical_name_systematic
;
2,3,6,8,10,13,14-Heptaaza-6,8,10-trinitro-4,12-dioxapentadeca-2,13-diene-2,14-
dioxide
;
_chemical_melting_point 159
_cell_volume    787.173
_exptl_crystal_density_diffrn 1.628
_exptl_special_details
;
Melting point range 159-161K

;
_exptl_crystal_preparation 'acetone/chloroform'
_diffrn_ambient_temperature 295
#These two values have been output from a single CSD field.
_refine_ls_R_factor_gt 0.0393
_refine_ls_wR_factor_gt 0.0393
_symmetry_cell_setting triclinic
_symmetry_space_group_name_H-M 'P -1'
_symmetry_Int_Tables_number 2
loop_
_symmetry_equiv_pos_site_id
_symmetry_equiv_pos_as_xyz
1 x,y,z
2 -x,-y,-z
_cell_length_a 10.829(2)
_cell_length_b 11.187(5)
_cell_length_c 7.4120(2)
_cell_angle_alpha 76.57(4)
_cell_angle_beta 78.90(3)
_cell_angle_gamma 65.03(4)
_cell_formula_units_Z 2
loop_
_atom_type_symbol
_atom_type_radius_bond
C 0.68
H 0.23
N 0.68
O 0.68
loop_
_atom_site_label
_atom_site_type_symbol
_atom_site_fract_x
_atom_site_fract_y
_atom_site_fract_z
O1 O 0.2733(2) 0.22042(19) 0.2477(3)
N1 N 0.2789(2) 0.1185(2) 0.2059(3)
O2 O 0.38091(19) 0.01414(19) 0.2058(3)
O3 O 0.3838(2) -0.23353(19) -0.1643(3)
O4 O -0.1076(2) 0.51710(18) 0.3086(3)
N2 N 0.1628(2) 0.1208(2) 0.1582(3)
N3 N 0.3342(3) -0.4046(2) -0.0506(3)
N4 N -0.3180(3) 0.6596(2) 0.3255(3)
N5 N 0.2508(3) -0.0176(2) -0.0841(3)
N6 N 0.3255(3) -0.2974(2) -0.0122(3)
N7 N -0.0256(2) 0.2825(2) 0.3231(4)
O5 O -0.2939(3) 0.7209(2) 0.1689(3)
N8 N -0.2350(3) 0.5547(2) 0.4134(3)
N9 N -0.1066(2) 0.2168(2) 0.4186(4)
O6 O -0.1025(3) 0.1253(2) 0.3523(4)
C1 C 0.1731(3) 0.0026(3) 0.0961(4)
N10 N 0.1924(4) 0.0645(3) -0.2382(4)
C2 C 0.3858(3) -0.1196(3) -0.1119(5)
O7 O -0.1742(3) 0.2521(3) 0.5625(4)
C3 C -0.0207(3) 0.3884(3) 0.3946(5)
O8 O 0.0738(3) 0.1463(2) -0.2119(4)
C4 C 0.0449(3) 0.2462(3) 0.1446(4)
O9 O 0.3888(3) -0.4478(3) -0.1995(4)
O10 O 0.2608(4) 0.0508(3) -0.3890(3)
C5 C -0.4591(4) 0.7076(5) 0.4199(7)
C6 C 0.2767(5) -0.4848(4) 0.0961(6)
H1 H 0.074(4) 0.022(3) 0.089(5)
H2 H 0.219(2) -0.074(3) 0.183(4)
H3 H 0.437(3) -0.086(3) -0.207(5)
H4 H 0.428(4) -0.141(3) -0.001(6)
H5 H -0.010(3) 0.236(3) 0.080(4)
H6 H 0.070(3) 0.308(3) 0.098(5)
H7 H -0.040(3) 0.380(3) 0.525(5)
H8 H 0.065(4) 0.384(3) 0.359(5)
H9 H 0.303(5) -0.568(5) 0.069(7)
H10 H 0.296(6) -0.503(5) 0.189(8)
H11 H 0.202(6) -0.432(5) 0.124(7)
H12 H -0.519(5) 0.775(6) 0.385(8)
H13 H -0.481(6) 0.646(6) 0.361(9)
H14 H -0.467(6) 0.692(6) 0.526(9)
#END
