
#######################################################################
#
#                 Cambridge Crystallographic Data Centre
#                                CCDC
#
#######################################################################
#
# If this CIF has been generated from an entry in the Cambridge
# Structural Database, then it will include bibliographic, chemical,
# crystal, experimental, refinement or atomic coordinate data resulting
# from the CCDC's data processing and validation procedures.
#
#######################################################################

data_CSD_CIF_IMODUL
_audit_creation_date 2016-05-11
_audit_creation_method CSD-ConQuest-V1
_database_code_CSD IMODUL
_database_code_depnum_ccdc_archive 'CCDC 1431913'
_chemical_formula_sum 'C20 H22 N4 O6'
_chemical_formula_moiety
;
C20 H22 N4 O6
;
_journal_coden_Cambridge 1336
_journal_volume 18
_journal_year 2016
_journal_page_first 2252
_journal_name_full 'Org.Lett. '
loop_
_publ_author_name
"T.A.Reekie"
"E.J.Donckele"
"G.Manenti"
"S.Puntener"
"N.Trapp"
"F.Diederich"
_chemical_name_systematic
;
diethyl (4-cyano-5-(dimethylamino)-3-(4-nitrophenyl)-1H-pyrrol-2-yl)malonate
;
_cell_volume   2008.270
_exptl_crystal_colour 'orange'
_exptl_crystal_density_diffrn 1.371
_exptl_crystal_description 'block'
_diffrn_ambient_temperature 100
_refine_special_details
;
C2A,C3A,O3A and C2,C3,O3 disordered over two sites with occupancies 
0.528:0.472.
;
#These two values have been output from a single CSD field.
_refine_ls_R_factor_gt 0.0478
_refine_ls_wR_factor_gt 0.0478
_symmetry_cell_setting monoclinic
_symmetry_space_group_name_H-M 'P 21/c'
_symmetry_Int_Tables_number 14
loop_
_symmetry_equiv_pos_site_id
_symmetry_equiv_pos_as_xyz
1 x,y,z
2 -x,1/2+y,1/2-z
3 -x,-y,-z
4 x,-1/2-y,-1/2+z
_cell_length_a 9.5426(6)
_cell_length_b 13.1663(9)
_cell_length_c 16.2954(10)
_cell_angle_alpha 90
_cell_angle_beta 101.215(2)
_cell_angle_gamma 90
_cell_formula_units_Z 4
loop_
_atom_type_symbol
_atom_type_radius_bond
C 0.68
H 0.23
N 0.68
O 0.68
loop_
_atom_site_label
_atom_site_type_symbol
_atom_site_fract_x
_atom_site_fract_y
_atom_site_fract_z
O1 O 0.17021(13) 0.57761(9) 0.63972(8)
O2 O -0.18144(13) 0.71707(11) 0.45337(8)
O3 O -0.05039(14) 0.52641(10) 0.58018(9)
N1 N 0.15409(15) 0.68323(12) 0.45777(9)
H1 H 0.1239(19) 0.6219(12) 0.4418(11)
O4 O 0.01069(16) 1.20825(11) 0.73114(8)
O5 O 0.23235(17) 1.24456(11) 0.73170(8)
N2 N 0.29860(15) 0.69424(11) 0.35415(9)
N3 N 0.12815(19) 1.18927(12) 0.71355(9)
N4 N 0.37043(17) 0.99301(12) 0.40303(10)
C1 C 0.14223(19) 1.09501(13) 0.66767(11)
C2 C -0.14263(18) 0.71432(13) 0.52758(11)
C3 C 0.16479(18) 0.92266(13) 0.57380(11)
C4 C 0.02470(19) 1.03258(14) 0.64593(11)
H2 H -0.06220 1.04780 0.66360
C5 C 0.24184(17) 0.73717(13) 0.41664(10)
C6 C 0.11383(17) 0.74204(13) 0.5197(1)
C7 C 0.03907(18) 0.59127(13) 0.59726(11)
C8 C 0.25948(17) 0.83273(13) 0.45383(11)
C9 C 0.32437(18) 0.91961(14) 0.42581(11)
C10 C 0.03586(18) 0.94709(14) 0.59782(11)
H3 H -0.04510 0.90460 0.58100
C11 C 0.27174(19) 1.07278(14) 0.64548(11)
H4 H 0.35170 1.11630 0.66160
C12 C 0.17683(17) 0.83469(13) 0.51974(11)
C13 C 0.28241(19) 0.98600(14) 0.59941(11)
H5 H 0.37130 0.96920 0.58490
C14 C 0.01328(17) 0.70224(13) 0.57203(11)
H6 H 0.02720 0.74360 0.62450
C15 C 0.2397(2) 0.59901(16) 0.31921(13)
H7 H 0.24890 0.54790 0.36360
H8 H 0.29170 0.57640 0.27620
H9 H 0.13850 0.60820 0.29410
C16 C 0.2087(2) 0.47507(14) 0.67200(13)
H10 H 0.16170 0.42330 0.63180
H11 H 0.17750 0.46480 0.72590
C17 C 0.3550(2) 0.76122(16) 0.29767(13)
H12 H 0.27710 0.80190 0.26570
H13 H 0.39910 0.72060 0.25910
H14 H 0.42680 0.80630 0.33010
C18 C 0.3672(2) 0.46581(16) 0.68386(15)
H15 H 0.39650 0.47500 0.63000
H16 H 0.39670 0.39840 0.70620
H17 H 0.41230 0.51800 0.72320
O6 O -0.2244(10) 0.7351(12) 0.5850(7)
C19 C -0.3806(8) 0.7232(6) 0.5418(5)
H18 H -0.41090 0.78040 0.50300
H19 H -0.39510 0.65880 0.50990
C20 C -0.4636(4) 0.7229(4) 0.6116(3)
H20 H -0.56610 0.72470 0.58780
H21 H -0.43750 0.78270 0.64710
H22 H -0.44110 0.66120 0.64520
O7? O -0.2297(10) 0.7120(13) 0.5807(7)
C21? C -0.3785(10) 0.7513(7) 0.5568(7)
H23? H -0.40300 0.77190 0.49730
H24? H -0.39740 0.80800 0.59310
C22? C -0.4518(5) 0.6551(5) 0.5737(4)
H25? H -0.43190 0.60180 0.53560
H26? H -0.55500 0.66680 0.56500
H27? H -0.41630 0.63380 0.63170
#END
