
#######################################################################
#
#                 Cambridge Crystallographic Data Centre
#                                CCDC
#
#######################################################################
#
# If this CIF has been generated from an entry in the Cambridge
# Structural Database, then it will include bibliographic, chemical,
# crystal, experimental, refinement or atomic coordinate data resulting
# from the CCDC's data processing and validation procedures.
#
#######################################################################

data_CSD_CIF_IMUWES
_audit_creation_date 2004-04-06
_audit_creation_method CSD-ConQuest-V1
_database_code_CSD IMUWES
_database_code_depnum_ccdc_archive 'CCDC 153455'
_chemical_formula_sum 'C18 H24 N4 O4'
_chemical_formula_moiety
;
C18 H24 N4 O4
;
_journal_coden_Cambridge 1088
_journal_volume 2003
_journal_year 2003
_journal_page_first 1267
_journal_name_full 'Synlett '
loop_
_publ_author_name
"Kyung-Ho Park"
"M.M.Olmstead"
"M.J.Kurth"
_chemical_name_systematic
;
3,3''-Diethyl-3a,3a'',4,4'',6,6'',6a,6a''-octahydro-3'H,6'H-dispiro(cyclopenta
(d)isoxazole-5,2'-piperazine-5',5''-cyclopenta(d)isoxazole)-3',6'-dione
;
_chemical_melting_point 573.15
_cell_volume    444.609
_exptl_crystal_colour 'colorless'
_exptl_crystal_density_diffrn 1.346
_exptl_special_details
;
Melts above 573.15K

;
_exptl_crystal_description 'needle'
_diffrn_ambient_temperature 130
_refine_special_details
;
The ethyl group is disordered over two sites.

;
#These two values have been output from a single CSD field.
_refine_ls_R_factor_gt 0.0569
_refine_ls_wR_factor_gt 0.0569
_symmetry_cell_setting triclinic
_symmetry_space_group_name_H-M 'P -1'
_symmetry_Int_Tables_number 2
loop_
_symmetry_equiv_pos_site_id
_symmetry_equiv_pos_as_xyz
1 x,y,z
2 -x,-y,-z
_cell_length_a 6.0067(9)
_cell_length_b 6.0102(8)
_cell_length_c 14.110(2)
_cell_angle_alpha 87.8760(11)
_cell_angle_beta 86.761(11)
_cell_angle_gamma 60.959(9)
_cell_formula_units_Z 1
loop_
_atom_type_symbol
_atom_type_radius_bond
C 0.68
H 0.23
N 0.68
O 0.68
loop_
_atom_site_label
_atom_site_type_symbol
_atom_site_fract_x
_atom_site_fract_y
_atom_site_fract_z
O1 O 0.6765(4) 0.0622(4) 0.4070(2)
O2 O 1.2164(4) 0.2264(5) 0.2460(2)
N1 N 0.4466(5) 0.3136(5) 0.5291(2)
N2 N 1.1136(6) 0.4301(6) 0.1786(2)
C1 C 0.5918(6) 0.2662(6) 0.4500(2)
C2 C 0.6554(6) 0.4650(6) 0.4096(2)
C3 C 0.9455(6) 0.3485(6) 0.3926(2)
C4 C 1.0060(6) 0.2149(6) 0.2972(3)
C5 C 0.7707(6) 0.3767(6) 0.2389(2)
C6 C 0.5529(6) 0.5465(6) 0.3080(2)
C7 C 0.8746(7) 0.5118(7) 0.1738(3)
C8 C 0.7182(8) 0.7224(8) 0.1080(3)
C9 C 0.8607(16) 0.8519(16) 0.0557(6)
H1 H 0.40640 0.19530 0.54700
H2 H 1.03650 0.22530 0.44370
H3 H 0.99610 0.48280 0.39030
H4 H 1.03860 0.03560 0.30490
H5 H 0.72430 0.26690 0.20230
H6 H 0.54210 0.72780 0.29580
H7 H 0.40290 0.52250 0.30090
H8 H 0.58670 0.86190 0.14430
H9 H 0.65220 0.65570 0.06050
H10 H 0.74390 0.98200 0.01510
H11 H 1.00010 0.72430 0.01830
H12 H 0.92030 0.91900 0.10110
C10? C 0.435(2) 0.358(2) 0.9549(8)
H13? H 0.17190 0.23400 0.93120
H14? H 0.53630 0.22470 0.99910
H15? H 0.54630 0.40360 0.91720
H16? H 0.31870 0.50820 0.99300
C2A C 0.3446(6) 0.5350(6) 0.5904(2)
C1A C 0.4082(6) 0.7338(6) 0.5500(2)
O1A O 0.3235(4) 0.9378(4) 0.5930(2)
N1A N 0.5534(5) 0.6864(5) 0.4709(2)
H1A H 0.59360 0.80470 0.45300
C3A C 0.0545(6) 0.6515(6) 0.6074(2)
C4A C -0.0060(6) 0.7851(6) 0.7028(3)
O2A O -0.2164(4) 0.7736(5) 0.7540(2)
N2A N -0.1136(6) 0.5699(6) 0.8214(2)
C7A C 0.1254(7) 0.4882(7) 0.8262(3)
C5A C 0.2293(6) 0.6233(6) 0.7611(2)
H4A H -0.03860 0.96440 0.69510
C6A C 0.4471(6) 0.4535(6) 0.6920(2)
H6A H 0.45790 0.27220 0.70420
H7A H 0.59710 0.47750 0.69910
H5A H 0.27570 0.73310 0.79770
C8A C 0.2818(8) 0.2776(8) 0.8920(3)
C9A C 0.1393(16) 0.1481(16) 0.9443(6)
H10A H 0.25610 0.01800 0.98490
H11A H -0.00010 0.27570 0.98170
H12A H 0.07970 0.08100 0.89890
H8A H 0.41330 0.13810 0.85570
H9A H 0.34780 0.34430 0.93950
H2A H -0.03650 0.77470 0.55630
H3A H 0.00390 0.51720 0.60970
#END
