
#######################################################################
#
#                 Cambridge Crystallographic Data Centre
#                                CCDC
#
#######################################################################
#
# If this CIF has been generated from an entry in the Cambridge
# Structural Database, then it will include bibliographic, chemical,
# crystal, experimental, refinement or atomic coordinate data resulting
# from the CCDC's data processing and validation procedures.
#
#######################################################################

data_CSD_CIF_INEJOA
_audit_creation_date 2004-04-07
_audit_creation_method CSD-ConQuest-V1
_database_code_CSD INEJOA
_database_code_depnum_ccdc_archive 'CCDC 227892'
_chemical_formula_sum 'C4 H5 N1 O3'
_chemical_formula_moiety
;
C4 H5 N1 O3
;
_journal_coeditor_code "IUCr BT6380"
_journal_coden_Cambridge 1370
_journal_volume 59
_journal_year 2003
_journal_page_first o1951
_journal_name_full 'Acta Crystallogr.,Sect.E:Struct.Rep.Online '
loop_
_publ_author_name
"P.G.Jones"
_chemical_name_systematic
;
N-Hydroxysuccinimide
;
_cell_volume    489.075
_exptl_crystal_colour 'colorless'
_exptl_crystal_density_diffrn 1.563
_exptl_crystal_description 'irregular tablet'
_diffrn_ambient_temperature 133
#These two values have been output from a single CSD field.
_refine_ls_R_factor_gt 0.0409
_refine_ls_wR_factor_gt 0.0409
_symmetry_cell_setting orthorhombic
_symmetry_space_group_name_H-M 'P 21 21 21'
_symmetry_Int_Tables_number 19
loop_
_symmetry_equiv_pos_site_id
_symmetry_equiv_pos_as_xyz
1 x,y,z
2 1/2-x,-y,1/2+z
3 -x,1/2+y,1/2-z
4 1/2+x,1/2-y,-z
_cell_length_a 5.4266(8)
_cell_length_b 7.2419(12)
_cell_length_c 12.445(2)
_cell_angle_alpha 90
_cell_angle_beta 90
_cell_angle_gamma 90
_cell_formula_units_Z 4
loop_
_atom_type_symbol
_atom_type_radius_bond
C 0.68
H 0.23
N 0.68
O 0.68
loop_
_atom_site_label
_atom_site_type_symbol
_atom_site_fract_x
_atom_site_fract_y
_atom_site_fract_z
C1 C 0.3418(3) 0.45792(19) 0.36706(11)
C2 C 0.4766(3) 0.5929(2) 0.29615(11)
H1 H 0.36750 0.69660 0.27550
H2 H 0.53670 0.53140 0.23010
C3 C 0.6938(3) 0.6623(2) 0.36469(12)
H3 H 0.85270 0.62130 0.33370
H4 H 0.69340 0.79880 0.36890
C4 C 0.6549(3) 0.5788(2) 0.47386(13)
N1 N 0.4578(2) 0.45687(16) 0.46436(10)
O1 O 0.1590(2) 0.36643(15) 0.34513(9)
O2 O 0.7672(3) 0.60296(19) 0.55634(10)
O3 O 0.3621(2) 0.36006(16) 0.54995(9)
H5 H 0.494(7) 0.282(4) 0.575(2)
#END
