
#######################################################################
#
#                 Cambridge Crystallographic Data Centre
#                                CCDC
#
#######################################################################
#
# If this CIF has been generated from an entry in the Cambridge
# Structural Database, then it will include bibliographic, chemical,
# crystal, experimental, refinement or atomic coordinate data resulting
# from the CCDC's data processing and validation procedures.
#
#######################################################################

data_CSD_CIF_INEQIB
_audit_creation_date 2004-04-07
_audit_creation_method CSD-ConQuest-V1
_database_code_CSD INEQIB
_database_code_depnum_ccdc_archive 'CCDC 227920'
_chemical_formula_sum 'C26 H19 N3 O5'
_chemical_formula_moiety
;
C26 H19 N3 O5
;
_journal_coeditor_code "IUCr BT6378"
_journal_coden_Cambridge 1370
_journal_volume 59
_journal_year 2003
_journal_page_first o2025
_journal_name_full 'Acta Crystallogr.,Sect.E:Struct.Rep.Online '
loop_
_publ_author_name
"P.R.Seshadri"
"S.Selvanayagam"
"D.Velmurugan"
"K.Ravikumar"
"A.R.Sureshbabu"
"R.Raghunathan"
_chemical_name_systematic
;
1'-Methyl-4'-(3-nitrophenyl)-1H-indole-3-spiro-2'-pyrrolidine-3'-spiro-2''-ind
an-2,1'',3''-trione
;
_cell_volume   1081.979
_exptl_crystal_colour 'yellow'
_exptl_crystal_density_diffrn 1.392
_exptl_special_details
;
potential anticonvulsant activity

;
_exptl_crystal_description 'needles'
_exptl_crystal_preparation 'methanol'
_diffrn_ambient_temperature 293
#These two values have been output from a single CSD field.
_refine_ls_R_factor_gt 0.0519
_refine_ls_wR_factor_gt 0.0519
_symmetry_cell_setting triclinic
_symmetry_space_group_name_H-M 'P -1'
_symmetry_Int_Tables_number 2
loop_
_symmetry_equiv_pos_site_id
_symmetry_equiv_pos_as_xyz
1 x,y,z
2 -x,-y,-z
_cell_length_a 7.7610(6)
_cell_length_b 11.6696(10)
_cell_length_c 11.9952(9)
_cell_angle_alpha 93.392(2)
_cell_angle_beta 91.092(1)
_cell_angle_gamma 93.660(1)
_cell_formula_units_Z 2
loop_
_atom_type_symbol
_atom_type_radius_bond
C 0.68
H 0.23
N 0.68
O 0.68
loop_
_atom_site_label
_atom_site_type_symbol
_atom_site_fract_x
_atom_site_fract_y
_atom_site_fract_z
N1 N 0.0636(2) 0.02827(15) 0.14814(14)
H1 H -0.01600 -0.01610 0.11420
C1 C 0.1514(3) 0.11612(18) 0.10045(17)
O1 O 0.1462(2) 0.13715(14) 0.00201(12)
C2 C 0.2656(2) 0.18439(16) 0.19517(14)
C3 C 0.2429(2) 0.10601(15) 0.28967(15)
C4 C 0.3245(2) 0.10738(16) 0.39291(17)
H2 H 0.41080 0.16400 0.41370
C5 C 0.2763(3) 0.02350(18) 0.46520(18)
H3 H 0.33030 0.02390 0.53510
C6 C 0.1484(3) -0.06093(18) 0.4342(2)
H4 H 0.11610 -0.11570 0.48440
C7 C 0.0678(3) -0.06564(17) 0.33022(19)
H5 H -0.01700 -0.12320 0.30910
C8 C 0.1176(2) 0.01804(16) 0.25889(16)
C9 C 0.2000(2) 0.30860(15) 0.21580(14)
C10 C 0.2879(2) 0.37348(17) 0.12103(15)
H6 H 0.21270 0.35810 0.05460
C11 C 0.4519(3) 0.31045(19) 0.09801(19)
H7 H 0.45590 0.28520 0.01970
H8 H 0.55380 0.36070 0.11730
N2 N 0.44401(19) 0.21205(13) 0.16730(13)
C12 C 0.5400(3) 0.1160(2) 0.1256(2)
H9 H 0.52820 0.05500 0.17580
H10 H 0.65980 0.14080 0.12060
H11 H 0.49540 0.08890 0.05300
C13 C 0.3070(2) 0.50315(16) 0.14180(14)
C14 C 0.1677(3) 0.56849(19) 0.11844(16)
H12 H 0.06500 0.53110 0.09080
C15 C 0.1773(3) 0.6870(2) 0.13506(18)
H13 H 0.08190 0.72780 0.11850
C16 C 0.3270(3) 0.74446(19) 0.17598(18)
H14 H 0.33520 0.82410 0.18830
C17 C 0.4643(3) 0.68013(18) 0.19809(16)
N3 N 0.6288(3) 0.7408(2) 0.23596(19)
O2 O 0.7586(3) 0.6863(2) 0.2372(2)
O3 O 0.6306(4) 0.8442(2) 0.2582(3)
C18 C 0.4578(3) 0.56196(18) 0.18234(16)
H15 H 0.55420 0.52210 0.19880
C19 C 0.0016(2) 0.31102(16) 0.21594(15)
O4 O -0.09065(18) 0.30536(16) 0.13356(12)
C20 C -0.0520(2) 0.32635(15) 0.33292(15)
C21 C -0.2186(3) 0.32476(18) 0.37410(18)
H16 H -0.31530 0.31090 0.32700
C22 C -0.2339(3) 0.34456(19) 0.48762(19)
H17 H -0.34330 0.34550 0.51780
C23 C -0.0903(3) 0.36305(18) 0.55766(17)
H18 H -0.10560 0.37390 0.63420
C24 C 0.0754(3) 0.36588(16) 0.51733(15)
H19 H 0.17140 0.37940 0.56490
C25 C 0.0924(2) 0.34762(15) 0.40279(14)
C26 C 0.2507(2) 0.35300(14) 0.33584(14)
O5 O 0.39307(16) 0.38840(12) 0.36893(11)
#END
