
#######################################################################
#
#                 Cambridge Crystallographic Data Centre
#                                CCDC
#
#######################################################################
#
# If this CIF has been generated from an entry in the Cambridge
# Structural Database, then it will include bibliographic, chemical,
# crystal, experimental, refinement or atomic coordinate data resulting
# from the CCDC's data processing and validation procedures.
#
#######################################################################

data_CSD_CIF_INIDOA
_audit_creation_date 2016-06-08
_audit_creation_method CSD-ConQuest-V1
_database_code_CSD INIDOA
_database_code_depnum_ccdc_archive 'CCDC 1475209'
_chemical_formula_sum 'C14 H12 N2 O2'
_chemical_formula_moiety
;
C14 H12 N2 O2
;
_journal_coden_Cambridge 1078
_journal_year 2016
_journal_name_full 'CSD Communication(Private Communication) '
loop_
_publ_author_name
"Bi-Yun Su"
"Xiao-Teng Li"
_chemical_name_systematic
;
3-phenyl-5-(pyridin-2-yl)-4,5-dihydro-1,2-oxazol-5-ol
;
_chemical_melting_point 398.35
_cell_volume   1264.421
_exptl_crystal_colour 'colorless'
_exptl_crystal_density_diffrn 1.262
_exptl_special_details
;
Melting point range 398.35-399.95K
The College of Chemistry and Chemical Engineering, Xi an Shiyou University, 
Xi an, China
;
_exptl_crystal_description 'block'
_diffrn_ambient_temperature 296
#These two values have been output from a single CSD field.
_refine_ls_R_factor_gt 0.046
_refine_ls_wR_factor_gt 0.046
_symmetry_cell_setting orthorhombic
_symmetry_space_group_name_H-M 'P 21 21 21'
_symmetry_Int_Tables_number 19
loop_
_symmetry_equiv_pos_site_id
_symmetry_equiv_pos_as_xyz
1 x,y,z
2 1/2-x,-y,1/2+z
3 -x,1/2+y,1/2-z
4 1/2+x,1/2-y,-z
_cell_length_a 9.382(2)
_cell_length_b 11.151(3)
_cell_length_c 12.086(3)
_cell_angle_alpha 90
_cell_angle_beta 90
_cell_angle_gamma 90
_cell_formula_units_Z 4
loop_
_atom_type_symbol
_atom_type_radius_bond
C 0.68
H 0.23
N 0.68
O 0.68
loop_
_atom_site_label
_atom_site_type_symbol
_atom_site_fract_x
_atom_site_fract_y
_atom_site_fract_z
N1 N 0.8701(2) 0.88477(17) 0.90293(16)
N2 N 0.7985(2) 0.61242(19) 1.07875(18)
O1 O 0.87650(18) 0.85075(14) 1.01546(13)
O2 O 1.10536(17) 0.80333(16) 1.07514(13)
H1 H 1.16170 0.82070 1.02580
C1 C 0.8666(3) 0.9042(2) 0.6647(2)
H2 H 0.80940 0.95770 0.70360
C2 C 0.8727(3) 0.9109(3) 0.5510(2)
H3 H 0.82010 0.96890 0.51390
C3 C 0.9566(4) 0.8319(3) 0.4919(2)
H4 H 0.96210 0.83740 0.41530
C4 C 1.0316(4) 0.7453(4) 0.5473(3)
H5 H 1.08570 0.69050 0.50730
C5 C 1.0284(3) 0.7377(3) 0.6615(2)
H6 H 1.08150 0.67930 0.69790
C6 C 0.9450(2) 0.8181(2) 0.72205(19)
C7 C 0.9383(2) 0.80800(19) 0.8438(2)
C8 C 1.0024(2) 0.70891(18) 0.91086(18)
H7 H 1.10240 0.69780 0.89300
H8 H 0.95210 0.63400 0.89940
C9 C 0.9835(2) 0.75448(19) 1.02907(18)
C10 C 0.9217(2) 0.6627(2) 1.10955(19)
C11 C 0.9935(3) 0.6294(3) 1.2040(2)
H9 H 1.07840 0.66670 1.22380
C12 C 0.9362(4) 0.5390(3) 1.2689(2)
H10 H 0.98240 0.51470 1.33320
C13 C 0.8104(4) 0.4854(3) 1.2374(3)
H11 H 0.77060 0.42410 1.27940
C14 C 0.7449(3) 0.5249(3) 1.1421(3)
H12 H 0.65960 0.48920 1.12080
#END
