
#######################################################################
#
#                 Cambridge Crystallographic Data Centre
#                                CCDC
#
#######################################################################
#
# If this CIF has been generated from an entry in the Cambridge
# Structural Database, then it will include bibliographic, chemical,
# crystal, experimental, refinement or atomic coordinate data resulting
# from the CCDC's data processing and validation procedures.
#
#######################################################################

data_CSD_CIF_INIFOC
_audit_creation_date 2016-06-08
_audit_creation_method CSD-ConQuest-V1
_database_code_CSD INIFOC
_database_code_depnum_ccdc_archive 'CCDC 1475232'
_chemical_formula_sum 'C17 H20 N2 O5'
_chemical_formula_moiety
;
C17 H20 N2 O5
;
_journal_coden_Cambridge 1078
_journal_year 2016
_journal_name_full 'CSD Communication(Private Communication) '
loop_
_publ_author_name
"K.S.-L Huang"
"M.J.Kurth"
"M.M.Olmstead"
_chemical_name_systematic
;
1-(7a-allyl-7-phenylhexahydro-1H-pyrano[3,4-c][1,2]oxazol-1-yl)-2-nitroethanon
e
;
_cell_volume   1639.271
_exptl_crystal_colour 'colorless'
_exptl_crystal_density_diffrn 1.347
_exptl_crystal_description 'plate'
_exptl_crystal_preparation 'Re-crystallisation from solvent'
_diffrn_ambient_temperature 295
#These two values have been output from a single CSD field.
_refine_ls_R_factor_gt 0.0321
_refine_ls_wR_factor_gt 0.0321
_symmetry_cell_setting monoclinic
_symmetry_space_group_name_H-M 'P 21/c'
_symmetry_Int_Tables_number 14
loop_
_symmetry_equiv_pos_site_id
_symmetry_equiv_pos_as_xyz
1 x,y,z
2 -x,1/2+y,1/2-z
3 -x,-y,-z
4 x,-1/2-y,-1/2+z
_cell_length_a 9.4035(15)
_cell_length_b 8.2831(11)
_cell_length_c 21.053(2)
_cell_angle_alpha 90
_cell_angle_beta 91.484(11)
_cell_angle_gamma 90
_cell_formula_units_Z 4
loop_
_atom_type_symbol
_atom_type_radius_bond
C 0.68
H 0.23
N 0.68
O 0.68
loop_
_atom_site_label
_atom_site_type_symbol
_atom_site_fract_x
_atom_site_fract_y
_atom_site_fract_z
O1 O 0.50993(13) 0.40359(15) 0.36826(6)
O2 O 0.28372(15) 0.59085(16) 0.44365(6)
O3 O 0.37468(14) 0.07087(16) 0.44915(6)
O4 O 0.61287(18) 0.0663(2) 0.32701(7)
O5 O 0.79569(17) 0.2011(2) 0.36020(8)
N1 N 0.40629(15) 0.30283(18) 0.39542(7)
N2 N 0.67937(19) 0.1412(2) 0.36775(8)
C1 C 0.4497(2) 0.4380(3) 0.30622(9)
H1 H 0.46450 0.34820 0.27750
H2 H 0.49230 0.53410 0.28850
C2 C 0.2926(2) 0.4638(2) 0.31654(8)
H3 H 0.23810 0.42480 0.27930
C3 C 0.2539(2) 0.6392(2) 0.32919(10)
H4 H 0.28950 0.70640 0.29540
H5 H 0.15120 0.65000 0.32900
C4 C 0.3148(2) 0.6974(2) 0.39197(10)
H6 H 0.41720 0.70770 0.38890
H7 H 0.27670 0.80350 0.40090
C5 C 0.1950(2) 0.4563(2) 0.42847(8)
H8 H 0.10310 0.49760 0.41260
C6 C 0.26133(19) 0.3539(2) 0.37488(8)
C7 C 0.4539(2) 0.1696(2) 0.42539(8)
C8 C 0.61465(19) 0.1534(3) 0.43118(8)
H9 H 0.65360 0.24650 0.45350
H10 H 0.63860 0.05790 0.45590
C9 C 0.1666(2) 0.2094(2) 0.35625(9)
H11 H 0.15360 0.14360 0.39380
H12 H 0.07380 0.25020 0.34300
C10 C 0.2203(2) 0.1040(2) 0.30487(9)
H13 H 0.31120 0.06140 0.31070
C11 C 0.1521(3) 0.0664(3) 0.25308(11)
H14 H 0.06080 0.10630 0.24530
H15 H 0.19410 -0.00060 0.22350
C12 C 0.1704(2) 0.3653(2) 0.48931(8)
C13 C 0.0466(2) 0.2771(2) 0.49596(10)
H16 H -0.02250 0.27790 0.46350
C14 C 0.0246(2) 0.1876(3) 0.55038(11)
H17 H -0.05720 0.12540 0.55360
C15 C 0.1234(3) 0.1906(3) 0.59959(11)
H18 H 0.10810 0.13190 0.63640
C16 C 0.2449(3) 0.2810(3) 0.59391(10)
H19 H 0.31130 0.28460 0.62740
C17 C 0.2695(2) 0.3665(3) 0.53918(9)
H20 H 0.35320 0.42530 0.53570
#END
