
#######################################################################
#
#                 Cambridge Crystallographic Data Centre
#                                CCDC
#
#######################################################################
#
# If this CIF has been generated from an entry in the Cambridge
# Structural Database, then it will include bibliographic, chemical,
# crystal, experimental, refinement or atomic coordinate data resulting
# from the CCDC's data processing and validation procedures.
#
#######################################################################

data_CSD_CIF_ININIC
_audit_creation_date 2004-04-07
_audit_creation_method CSD-ConQuest-V1
_database_code_CSD ININIC
_database_code_depnum_ccdc_archive 'CCDC 203085'
_chemical_formula_sum 'C14 H19 N1 O7'
_chemical_formula_moiety
;
C14 H19 N1 O7
;
_journal_coden_Cambridge 599
_journal_volume 22
_journal_year 2003
_journal_page_first 613
_journal_name_full 'J.Carbohydr.Chem. '
loop_
_publ_author_name
"K.Pasniczek"
"D.Socha"
"M.Jurczak"
"J.Frelek"
"A.Suszczynska"
"Z.Urbanczyk-Lipkowska"
"M.Chmielewski"
_chemical_name_systematic
;
(1aR,2S,3R,5aS,5bR)-2-Acetoxy-3-(acetoxymethyl)-5-oxopyrrolidino(1,2-b)isoxazo
lidino(4,5-c)tetrahydropyran
;
_chemical_melting_point 374.15
_cell_volume   1508.533
_exptl_crystal_density_diffrn 1.379
_exptl_special_details
;
Melting point range 374.15-375.15K

;
_diffrn_ambient_temperature 293
_refine_special_details
;
An oxygen atom of the acetoxy group is disordered over two positions.

;
#These two values have been output from a single CSD field.
_refine_ls_R_factor_gt 0.0498
_refine_ls_wR_factor_gt 0.0498
_symmetry_cell_setting monoclinic
_symmetry_space_group_name_H-M 'I 2'
_symmetry_Int_Tables_number 5
loop_
_symmetry_equiv_pos_site_id
_symmetry_equiv_pos_as_xyz
1 x,y,z
2 -x,y,-z
3 1/2+x,1/2+y,1/2+z
4 1/2-x,1/2+y,1/2-z
_cell_length_a 16.334(3)
_cell_length_b 5.2363(10)
_cell_length_c 17.667(4)
_cell_angle_alpha 90
_cell_angle_beta 93.31(3)
_cell_angle_gamma 90
_cell_formula_units_Z 4
loop_
_atom_type_symbol
_atom_type_radius_bond
C 0.68
H 0.23
N 0.68
O 0.68
loop_
_atom_site_label
_atom_site_type_symbol
_atom_site_fract_x
_atom_site_fract_y
_atom_site_fract_z
C1 C 0.2797(4) 0.7223(13) 0.6504(4)
O1 O 0.3117(2) 0.8632(9) 0.6969(2)
O2 O 0.19423(18) 0.5112(6) 0.4353(2)
O3 O 0.1379(2) 0.9560(8) 0.54313(19)
O4 O 0.3261(2) 0.5836(8) 0.6064(2)
O5 O 0.3977(2) 0.5644(8) 0.4700(2)
N1 N 0.1084(3) 1.0603(10) 0.6112(3)
C2 C 0.1370(4) 0.8870(13) 0.6739(3)
O6 O 0.2421(3) 0.8256(9) 0.3659(2)
C3 C 0.2861(3) 0.4466(11) 0.5437(3)
H1 H 0.25560 0.30140 0.56280
C4 C 0.2275(3) 0.6310(11) 0.5033(3)
H2 H 0.25670 0.78750 0.49070
C5 C 0.1596(3) 0.6931(11) 0.5545(3)
H3 H 0.11210 0.58210 0.54350
C6 C 0.2076(3) 0.6273(14) 0.3695(3)
C7 C 0.4681(3) 0.7864(12) 0.3821(3)
H4 H 0.42990 0.91800 0.36650
H5 H 0.50350 0.75150 0.34180
H6 H 0.50040 0.84210 0.42620
C8 C 0.4232(5) 0.5534(19) 0.4003(5)
C9 C 0.1753(3) 0.4649(12) 0.3044(3)
H7 H 0.18320 0.55190 0.25760
H8 H 0.11790 0.43360 0.30900
H9 H 0.20430 0.30520 0.30510
C10 C 0.0607(4) 0.7989(15) 0.7094(4)
H10 H 0.05100 0.61900 0.69950
H11 H 0.06520 0.82570 0.76380
C11 C 0.3526(4) 0.3520(13) 0.4961(3)
H12 H 0.38900 0.23920 0.52580
H13 H 0.32890 0.25660 0.45320
C12 C 0.0193(5) 1.0379(19) 0.6070(3)
H14 H -0.00560 1.20300 0.59610
H15 H 0.00150 0.92030 0.56690
C13 C 0.1870(4) 0.6818(13) 0.6384(3)
H16 H 0.183(3) 0.53(1) 0.664(3)
O7 O 0.388(2) 0.381(5) 0.3568(10)
O8? O 0.437(4) 0.381(5) 0.367(2)
C14 C -0.0035(5) 0.950(2) 0.6751(6)
H17 H -0.05300 0.84810 0.66790
H18 H -0.01510 1.09270 0.70780
H19 H 0.185(3) 1.002(10) 0.706(2)
#END
