
#######################################################################
#
#                 Cambridge Crystallographic Data Centre
#                                CCDC
#
#######################################################################
#
# If this CIF has been generated from an entry in the Cambridge
# Structural Database, then it will include bibliographic, chemical,
# crystal, experimental, refinement or atomic coordinate data resulting
# from the CCDC's data processing and validation procedures.
#
#######################################################################

data_CSD_CIF_INODUK01
_audit_creation_date 2004-04-06
_audit_creation_method CSD-ConQuest-V1
_database_code_CSD INODUK01
_database_code_depnum_ccdc_archive 'CCDC 233129'
_chemical_formula_sum 'C14 H10 N2 O5'
_chemical_formula_moiety
;
C14 H10 N2 O5
;
_journal_coeditor_code "IUCr GG1204"
_journal_coden_Cambridge 591
_journal_volume 60
_journal_year 2004
_journal_page_first o120
_journal_name_full 'Acta Crystallogr.,Sect.C:Cryst.Struct.Commun. '
loop_
_publ_author_name
"C.Glidewell"
"J.N.Low"
"J.M.S.Skakle"
"J.L.Wardell"
_chemical_name_systematic
;
2-(4-Nitrophenylaminocarbonyl)benzoic acid
;
_chemical_name_common
;
N-(4-Nitrophenyl)benzamide-2-carboxylic acid
;
_chemical_melting_point 475
_cell_volume   1377.610
_exptl_crystal_colour 'colorless'
_exptl_crystal_density_diffrn 1.38
_exptl_special_details
;
Melting point range 475-477K
orthorhombic polymorph

;
_exptl_crystal_description 'needle'
_exptl_crystal_preparation 'ethanol'
_diffrn_ambient_temperature 120
#These two values have been output from a single CSD field.
_refine_ls_R_factor_gt 0.055
_refine_ls_wR_factor_gt 0.055
_symmetry_cell_setting orthorhombic
_symmetry_space_group_name_H-M 'P 21 21 21'
_symmetry_Int_Tables_number 19
loop_
_symmetry_equiv_pos_site_id
_symmetry_equiv_pos_as_xyz
1 x,y,z
2 1/2-x,-y,1/2+z
3 -x,1/2+y,1/2-z
4 1/2+x,1/2-y,-z
_cell_length_a 3.9188(2)
_cell_length_b 12.6896(6)
_cell_length_c 27.7029(16)
_cell_angle_alpha 90
_cell_angle_beta 90
_cell_angle_gamma 90
_cell_formula_units_Z 4
loop_
_atom_type_symbol
_atom_type_radius_bond
C 0.68
H 0.23
N 0.68
O 0.68
loop_
_atom_site_label
_atom_site_type_symbol
_atom_site_fract_x
_atom_site_fract_y
_atom_site_fract_z
N1 N 0.4342(8) 0.5589(2) 0.70323(8)
C1 C 0.5423(9) 0.5098(2) 0.78643(10)
C2 C 0.6198(10) 0.6014(2) 0.81186(10)
C3 C 0.5374(10) 0.6055(3) 0.86087(11)
C4 C 0.3895(10) 0.5198(3) 0.88373(11)
C5 C 0.3207(11) 0.4297(3) 0.85830(11)
C6 C 0.3992(10) 0.4238(2) 0.80935(11)
C7 C 0.6123(10) 0.4948(3) 0.73279(11)
C8 C 0.8051(9) 0.6899(2) 0.78949(10)
O1 O 0.8145(7) 0.77547(16) 0.81683(7)
O2 O 0.9420(6) 0.68670(16) 0.74998(7)
O3 O 0.8074(7) 0.42565(17) 0.71936(7)
C9 C 0.4494(9) 0.5637(2) 0.65252(10)
C10 C 0.5861(10) 0.4840(3) 0.62427(11)
C11 C 0.5869(10) 0.4974(3) 0.57478(11)
C12 C 0.4558(10) 0.5856(3) 0.55435(11)
C13 C 0.3161(10) 0.6659(3) 0.58184(10)
C14 C 0.313(1) 0.6534(3) 0.63148(10)
N2 N 0.4617(9) 0.5952(3) 0.50187(10)
O4 O 0.2980(9) 0.6661(3) 0.48315(8)
O5 O 0.6302(9) 0.5322(3) 0.47881(9)
H1 H 0.30110 0.60270 0.71910
H2 H 0.58330 0.66780 0.87870
H3 H 0.33570 0.52360 0.91710
H4 H 0.21910 0.37110 0.87410
H5 H 0.35460 0.36090 0.79180
H6 H 0.93030 0.82230 0.80300
H7 H 0.67680 0.42200 0.63850
H8 H 0.68070 0.44400 0.55480
H9 H 0.22540 0.72740 0.56710
H10 H 0.21660 0.70680 0.65130
#END
