
#######################################################################
#
#                 Cambridge Crystallographic Data Centre
#                                CCDC
#
#######################################################################
#
# If this CIF has been generated from an entry in the Cambridge
# Structural Database, then it will include bibliographic, chemical,
# crystal, experimental, refinement or atomic coordinate data resulting
# from the CCDC's data processing and validation procedures.
#
#######################################################################

data_CSD_CIF_INODAQ
_audit_creation_date 2004-04-06
_audit_creation_method CSD-ConQuest-V1
_database_code_CSD INODAQ
_database_code_depnum_ccdc_archive 'CCDC 233126'
_chemical_formula_sum 'C16 H16 N2 O2'
_chemical_formula_moiety
;
C16 H16 N2 O2
;
_journal_coeditor_code "IUCr DN1035"
_journal_coden_Cambridge 591
_journal_volume 60
_journal_year 2004
_journal_page_first o115
_journal_name_full 'Acta Crystallogr.,Sect.C:Cryst.Struct.Commun. '
loop_
_publ_author_name
"S.Soylu"
"M.Tas"
"H.Saracoglu"
"H.Bati"
"N.Caliskan"
"O.Buyukgungor"
_chemical_name_systematic
;
N^1^-(2,6-Dimethylphenyl)-N^2^-hydroxy-\a-oxo-\a-phenylacetamidine
;
_cell_volume   1475.512
_exptl_crystal_colour 'colorless'
_exptl_crystal_density_diffrn 1.208
_exptl_crystal_description 'prism'
_diffrn_ambient_temperature 293
#These two values have been output from a single CSD field.
_refine_ls_R_factor_gt 0.042
_refine_ls_wR_factor_gt 0.042
_symmetry_cell_setting monoclinic
_symmetry_space_group_name_H-M 'P 21/n'
_symmetry_Int_Tables_number 14
loop_
_symmetry_equiv_pos_site_id
_symmetry_equiv_pos_as_xyz
1 x,y,z
2 1/2-x,1/2+y,1/2-z
3 -x,-y,-z
4 -1/2+x,-1/2-y,-1/2+z
_cell_length_a 8.1002(10)
_cell_length_b 7.8837(10)
_cell_length_c 23.108(3)
_cell_angle_alpha 90
_cell_angle_beta 90.828(10)
_cell_angle_gamma 90
_cell_formula_units_Z 4
loop_
_atom_type_symbol
_atom_type_radius_bond
C 0.68
H 0.23
N 0.68
O 0.68
loop_
_atom_site_label
_atom_site_type_symbol
_atom_site_fract_x
_atom_site_fract_y
_atom_site_fract_z
C1 C -0.2014(3) 0.4467(3) 0.31533(12)
H1 H -0.30860 0.41480 0.32420
C2 C 0.2019(4) -0.0671(4) 0.37992(16)
H2 H 0.13970 -0.04110 0.41380
H3 H 0.18510 -0.18390 0.36960
H4 H 0.16590 0.00420 0.34850
C3 C -0.1729(4) 0.5500(4) 0.26919(12)
H5 H -0.26120 0.58930 0.24680
C4 C -0.0703(3) 0.3900(3) 0.34865(10)
H6 H -0.09030 0.31990 0.38010
O1 O 0.1117(2) 0.34282(19) 0.51940(6)
H7 H 0.04460 0.39650 0.53830
C5 C 0.3817(3) -0.0369(3) 0.39211(11)
N1 N 0.1069(2) 0.3994(2) 0.46136(7)
C6 C -0.0158(4) 0.5961(4) 0.25567(12)
H8 H 0.00210 0.66690 0.22420
C7 C 0.5015(5) -0.1436(3) 0.36988(12)
H9 H 0.46970 -0.23330 0.34610
C8 C 0.0907(3) 0.4351(2) 0.33628(9)
C9 C 0.2158(3) 0.3189(2) 0.43162(9)
N2 N 0.3167(2) 0.2002(2) 0.45496(8)
H10 H 0.30850 0.18510 0.49170
C10 C 0.4345(3) 0.0970(3) 0.42672(9)
C11 C 0.1165(3) 0.5384(3) 0.28824(10)
H11 H 0.22330 0.56850 0.27820
C12 C 0.2352(3) 0.3777(2) 0.37040(9)
C13 C 0.6643(5) -0.1196(4) 0.38224(13)
H12 H 0.74220 -0.19370 0.36730
C14 C 0.6001(3) 0.1248(3) 0.43946(10)
O2 O 0.3731(2) 0.3817(2) 0.35085(7)
C15 C 0.7146(3) 0.0128(4) 0.41663(12)
H13 H 0.82640 0.02800 0.42480
C16 C 0.6534(3) 0.2719(3) 0.47589(12)
H14 H 0.63110 0.37560 0.45550
H15 H 0.76970 0.26360 0.48410
H16 H 0.59390 0.27110 0.51150
#END
