
#######################################################################
#
#                 Cambridge Crystallographic Data Centre
#                                CCDC
#
#######################################################################
#
# If this CIF has been generated from an entry in the Cambridge
# Structural Database, then it will include bibliographic, chemical,
# crystal, experimental, refinement or atomic coordinate data resulting
# from the CCDC's data processing and validation procedures.
#
#######################################################################

data_CSD_CIF_INOLUU
_audit_creation_date 2016-06-09
_audit_creation_method CSD-ConQuest-V1
_database_code_CSD INOLUU
_database_code_depnum_ccdc_archive 'CCDC 1035698'
_chemical_formula_sum 'C15 H12 N4 O2'
_chemical_formula_moiety
;
C15 H12 N4 O2
;
_journal_coden_Cambridge 24
_journal_volume 57
_journal_year 2016
_journal_page_first 3105
_journal_name_full 'Tetrahedron Lett. '
loop_
_publ_author_name
"D.Gangaprasad"
"J.Paul Raj"
"T.Kiranmye"
"R.Sasikala"
"K.Karthikeyan"
"S.Kutti Rani"
"J.Elangovan"
_chemical_name_systematic
;
1-benzyl-4-nitro-5-phenyl-1H-1,2,3-triazole
;
_cell_volume   1377.481
_exptl_crystal_colour 'colorless'
_exptl_crystal_density_diffrn 1.352
_exptl_crystal_description 'block'
_diffrn_ambient_temperature 296
#These two values have been output from a single CSD field.
_refine_ls_R_factor_gt 0.0426
_refine_ls_wR_factor_gt 0.0426
_symmetry_cell_setting monoclinic
_symmetry_space_group_name_H-M 'P 21/n'
_symmetry_Int_Tables_number 14
loop_
_symmetry_equiv_pos_site_id
_symmetry_equiv_pos_as_xyz
1 x,y,z
2 1/2-x,1/2+y,1/2-z
3 -x,-y,-z
4 -1/2+x,-1/2-y,-1/2+z
_cell_length_a 13.6433(8)
_cell_length_b 6.6801(4)
_cell_length_c 15.2134(10)
_cell_angle_alpha 90
_cell_angle_beta 96.549(4)
_cell_angle_gamma 90
_cell_formula_units_Z 4
loop_
_atom_type_symbol
_atom_type_radius_bond
C 0.68
H 0.23
N 0.68
O 0.68
loop_
_atom_site_label
_atom_site_type_symbol
_atom_site_fract_x
_atom_site_fract_y
_atom_site_fract_z
C1 C 0.75464(13) 0.3324(3) 0.85494(11)
C2 C 0.81526(14) 0.4983(3) 0.86418(12)
H1 H 0.78840 0.62540 0.85450
C3 C 0.95555(16) 0.2906(4) 0.90376(15)
H2 H 1.02310 0.27670 0.91950
C4 C 0.79661(15) 0.1450(3) 0.87144(13)
H3 H 0.75690 0.03150 0.86540
C5 C 0.89638(16) 0.1250(4) 0.89663(14)
H4 H 0.92340 -0.00120 0.90880
C6 C 0.64615(13) 0.3572(3) 0.82538(12)
H5 H 0.63390 0.49370 0.80530
H6 H 0.62770 0.26900 0.77560
C7 C 0.91562(16) 0.4770(4) 0.88779(15)
H7 H 0.95610 0.58940 0.89280
C8 C 0.48780(11) 0.2561(3) 0.88705(10)
C9 C 0.42834(12) 0.2251(3) 0.80137(11)
C10 C 0.41511(13) 0.3803(3) 0.74002(12)
H8 H 0.44280 0.50540 0.75350
C11 C 0.31906(15) 0.1613(5) 0.63954(15)
H9 H 0.28220 0.13970 0.58510
C12 C 0.47011(12) 0.2393(3) 0.97418(10)
C13 C 0.38604(13) 0.0395(3) 0.78089(12)
H10 H 0.39420 -0.06430 0.82180
C14 C 0.36060(17) 0.3474(5) 0.65905(14)
H11 H 0.35180 0.45020 0.61770
C15 C 0.33184(15) 0.0091(4) 0.69982(14)
H12 H 0.30380 -0.11550 0.68610
N1 N 0.62141(10) 0.3302(2) 0.98180(9)
N2 N 0.58379(10) 0.3127(2) 0.89583(9)
N3 N 0.55133(10) 0.2839(2) 1.03016(9)
N4 N 0.37947(11) 0.1949(2) 1.00963(11)
O1 O 0.3047(1) 0.1772(2) 0.95801(10)
O2 O 0.38254(10) 0.1799(2) 1.09046(9)
#END
