
#######################################################################
#
#                 Cambridge Crystallographic Data Centre
#                                CCDC
#
#######################################################################
#
# If this CIF has been generated from an entry in the Cambridge
# Structural Database, then it will include bibliographic, chemical,
# crystal, experimental, refinement or atomic coordinate data resulting
# from the CCDC's data processing and validation procedures.
#
#######################################################################

data_CSD_CIF_IPAQEX
_audit_creation_date 2016-06-09
_audit_creation_method CSD-ConQuest-V1
_database_code_CSD IPAQEX
_database_code_depnum_ccdc_archive 'CCDC 1454907'
_chemical_formula_sum 'C24 H35 N1 O5'
_chemical_formula_moiety
;
C24 H35 N1 O5
;
_journal_coden_Cambridge 1336
_journal_volume 18
_journal_year 2016
_journal_page_first 2684
_journal_name_full 'Org.Lett. '
loop_
_publ_author_name
"K.Nagaraju"
"R.Chegondi"
"S.Chandrasekhar"
_chemical_name_systematic
;
(4aS,4bR,6R,10bR)-8,9-dimethoxy-1,1,4a,10b-tetramethyl-7-nitro-1,2,3,4,4a,4b,5
,6,10b,11,12,12a,-dodecahydrochrysen-6-ol
;
_chemical_melting_point 512
_cell_volume    557.030
_exptl_crystal_colour 'colorless'
_exptl_crystal_density_diffrn 1.245
_exptl_crystal_description 'block'
_diffrn_ambient_temperature 298
#These two values have been output from a single CSD field.
_refine_ls_R_factor_gt 0.0617
_refine_ls_wR_factor_gt 0.0617
_symmetry_cell_setting triclinic
_symmetry_space_group_name_H-M 'P 1'
_symmetry_Int_Tables_number 1
loop_
_symmetry_equiv_pos_site_id
_symmetry_equiv_pos_as_xyz
1 x,y,z
_cell_length_a 5.9846(16)
_cell_length_b 7.913(2)
_cell_length_c 12.691(3)
_cell_angle_alpha 99.814(10)
_cell_angle_beta 95.953(9)
_cell_angle_gamma 107.509(10)
_cell_formula_units_Z 1
loop_
_atom_type_symbol
_atom_type_radius_bond
C 0.68
H 0.23
N 0.68
O 0.68
loop_
_atom_site_label
_atom_site_type_symbol
_atom_site_fract_x
_atom_site_fract_y
_atom_site_fract_z
O1 O 0.6567(7) 0.9947(5) 0.5874(3)
O2 O 1.1552(6) 0.9573(5) 0.6800(3)
O3 O 0.9869(7) 1.0894(5) 0.7944(3)
O4 O 1.0315(5) 0.7831(4) 0.8930(2)
O5 O 0.7264(5) 0.4492(5) 0.8906(2)
N1 N 0.9972(6) 0.9571(5) 0.7330(3)
C1 C 0.1824(10) 0.3860(8) 0.1187(4)
H1 H 0.27250 0.43850 0.06620
H2 H 0.02360 0.39320 0.10390
C2 C 0.1673(9) 0.1880(8) 0.1056(4)
H3 H 0.32690 0.18080 0.11010
H4 H 0.08160 0.12300 0.03390
C3 C 0.0446(8) 0.0930(6) 0.1902(3)
C4 C 0.1626(6) 0.2126(5) 0.3045(3)
H5 H 0.32860 0.21620 0.31000
C5 C 0.1785(6) 0.4162(6) 0.3232(3)
C6 C 0.2995(8) 0.4945(7) 0.2318(3)
H6 H 0.29750 0.61780 0.23730
H7 H 0.46430 0.49920 0.24280
C7 C 0.0766(7) 0.1298(6) 0.3990(3)
H8 H -0.08070 0.13660 0.40560
H9 H 0.06550 0.00290 0.38490
C8 C 0.2454(7) 0.2288(5) 0.5049(3)
H10 H 0.39930 0.21430 0.49930
H11 H 0.18540 0.17280 0.56310
C9 C 0.2774(6) 0.4323(5) 0.5344(3)
C10 C 0.3436(6) 0.5139(5) 0.4339(3)
H12 H 0.49730 0.49860 0.42440
C11 C 0.4814(6) 0.5299(5) 0.6298(3)
C12 C 0.6340(7) 0.7044(5) 0.6340(3)
C13 C 0.6226(7) 0.8086(5) 0.5452(3)
H13 H 0.75470 0.80450 0.50630
C14 C 0.3961(7) 0.7197(6) 0.4635(3)
H14 H 0.41230 0.76900 0.39870
H15 H 0.26470 0.74580 0.49380
C15 C 0.5091(7) 0.4434(6) 0.7159(3)
H16 H 0.40300 0.32880 0.71300
C16 C 0.6877(7) 0.5220(6) 0.8045(3)
C17 C 0.8472(7) 0.6955(6) 0.8085(3)
C18 C 0.8131(7) 0.7798(5) 0.7253(3)
C19 C -0.2274(10) 0.0500(9) 0.1664(4)
H17 H -0.29230 -0.04300 0.10180
H18 H -0.26250 0.15740 0.15650
H19 H -0.29640 0.00870 0.22620
C20 C 0.0885(10) -0.0913(7) 0.1803(4)
H20 H -0.00800 -0.16270 0.22310
H21 H 0.25300 -0.07130 0.20580
H22 H 0.04790 -0.15450 0.10570
C21 C 1.2239(9) 0.7103(9) 0.8949(5)
H23 H 1.16550 0.58460 0.89820
H24 H 1.34230 0.77590 0.95730
H25 H 1.29290 0.72180 0.83040
C22 C 0.5821(9) 0.2700(8) 0.8895(4)
H26 H 0.42020 0.26630 0.88890
H27 H 0.63590 0.23290 0.95290
H28 H 0.59250 0.18950 0.82580
C23 C -0.0628(7) 0.4500(7) 0.3202(4)
H29 H -0.04010 0.56860 0.36220
H30 H -0.16940 0.36040 0.35000
H31 H -0.12880 0.44190 0.24660
C24 C 0.0491(7) 0.4529(7) 0.5735(3)
H32 H 0.03290 0.41100 0.63980
H33 H -0.08610 0.38220 0.51930
H34 H 0.05870 0.57810 0.58550
H35 H 0.541(12) 0.997(9) 0.610(5)
#END
