
#######################################################################
#
#                 Cambridge Crystallographic Data Centre
#                                CCDC
#
#######################################################################
#
# If this CIF has been generated from an entry in the Cambridge
# Structural Database, then it will include bibliographic, chemical,
# crystal, experimental, refinement or atomic coordinate data resulting
# from the CCDC's data processing and validation procedures.
#
#######################################################################

data_CSD_CIF_IPCDNB
_audit_creation_date 1976-05-03
_audit_creation_method CSD-ConQuest-V1
_database_code_CSD IPCDNB
_chemical_formula_sum 'C35 H46 N2 O6'
_chemical_formula_moiety
;
C35 H46 N2 O6
;
_journal_coeditor_code "IUCr A12535"
_journal_coden_Cambridge 107
_journal_volume 31
_journal_year 1975
_journal_page_first 2818
_journal_name_full 'Acta Crystallogr.,Sect.B:Struct.Crystallogr.Cryst.Chem. '
loop_
_publ_author_name
"A.J.de Kok"
"C.Romers"
"J.Hoogendorp"
_chemical_name_systematic
;
Isopyrocalciferyl 3,5-dinitrobenzoate
;
_cell_volume   1589.183
_exptl_crystal_density_diffrn 1.23
_diffrn_ambient_temperature 103.15
#These two values have been output from a single CSD field.
_refine_ls_R_factor_gt 0.0459
_refine_ls_wR_factor_gt 0.0459
loop_
_citation_database_id_CSD
_citation_special_details
PYCALN "is a stereoisomer of this entry"
_symmetry_cell_setting monoclinic
_symmetry_space_group_name_H-M 'P 21'
_symmetry_Int_Tables_number 4
loop_
_symmetry_equiv_pos_site_id
_symmetry_equiv_pos_as_xyz
1 x,y,z
2 -x,1/2+y,-z
_cell_length_a 18.364(5)
_cell_length_b 5.955(5)
_cell_length_c 14.568(5)
_cell_angle_alpha 90
_cell_angle_beta 94.03(5)
_cell_angle_gamma 90
_cell_formula_units_Z 2
loop_
_atom_type_symbol
_atom_type_radius_bond
C 0.68
H 0.23
N 0.68
O 0.68
loop_
_atom_site_label
_atom_site_type_symbol
_atom_site_fract_x
_atom_site_fract_y
_atom_site_fract_z
C1 C -0.13110 -0.44210 0.42970
C2 C -0.15310 -0.23960 0.48730
C3 C -0.19890 -0.51780 0.60860
C4 C -0.25070 -0.54520 0.68710
C5 C -0.32790 -0.45240 0.66400
C6 C -0.34250 -0.44180 0.55790
C7 C -0.42410 -0.40690 0.54150
C8 C -0.45690 -0.52420 0.62390
C9 C -0.39260 -0.59930 0.69060
C10 C -0.33540 -0.21280 0.70450
C11 C -0.08640 -0.15000 0.54680
C12 C -0.07430 -0.37790 0.36080
C13 C -0.41150 -0.59860 0.79180
C14 C -0.34670 -0.65540 0.85900
C15 C -0.47250 -0.76310 0.80790
C16 C -0.54130 -0.71400 0.81840
C17 C -0.59890 -0.87950 0.84410
C18 C -0.64410 -0.78590 0.92090
C19 C -0.69510 -0.59410 0.89040
C20 C -0.59490 -0.71550 1.00420
C21 C -0.64700 -0.95820 0.76100
C22 C -0.09890 -0.18600 0.29950
C23 C 0.04120 -0.09840 0.13090
C24 C 0.07060 0.10280 0.16280
C25 C 0.12640 0.19730 0.11650
C26 C 0.15290 0.10200 0.03870
C27 C 0.12190 -0.09690 0.00950
C28 C 0.06630 -0.19950 0.05320
C29 C -0.01800 -0.21680 0.17850
C30 C -0.12540 0.01760 0.35260
C31 C -0.18110 -0.06340 0.41760
C32 C -0.25100 -0.01640 0.40270
C33 C -0.30820 -0.13920 0.44780
C34 C -0.29050 -0.28760 0.51430
C35 C -0.21190 -0.30050 0.55520
H1 H -0.17500 -0.51200 0.39300
H2 H -0.21200 -0.63500 0.56000
H3 H -0.14700 -0.53900 0.63800
H4 H -0.25200 -0.70000 0.71200
H5 H -0.22600 -0.49400 0.74400
H6 H -0.32800 -0.59200 0.54300
H7 H -0.43200 -0.22900 0.54200
H8 H -0.44600 -0.45000 0.47900
H9 H -0.49100 -0.41600 0.65500
H10 H -0.48700 -0.65500 0.60800
H11 H -0.37700 -0.72600 0.67400
H12 H -0.30000 -0.13000 0.67700
H13 H -0.32600 -0.22200 0.77400
H14 H -0.38200 -0.16200 0.69400
H15 H -0.04800 -0.12300 0.50800
H16 H -0.06600 -0.27700 0.59700
H17 H -0.10400 -0.01900 0.58000
H18 H -0.06300 -0.48100 0.32600
H19 H -0.43600 -0.45000 0.79800
H20 H -0.32600 -0.80100 0.84200
H21 H -0.36100 -0.67500 0.92000
H22 H -0.30100 -0.53800 0.86500
H23 H -0.46000 -0.90900 0.81000
H24 H -0.56300 -0.56400 0.81000
H25 H -0.57000 -1.02000 0.87100
H26 H -0.68000 -0.91300 0.93700
H27 H -0.66400 -0.46900 0.86800
H28 H -0.71900 -0.52400 0.95000
H29 H -0.73100 -0.63000 0.83400
H30 H -0.56500 -0.85000 1.01400
H31 H -0.62300 -0.70200 1.06300
H32 H -0.56300 -0.58500 0.99200
H33 H -0.69300 -1.08600 0.77800
H34 H -0.61600 -1.01000 0.71500
H35 H -0.66900 -0.82300 0.73100
H36 H -0.13700 -0.21800 0.25700
H37 H 0.05300 0.17400 0.21700
H38 H 0.19400 0.16700 0.01300
H39 H 0.04700 -0.33900 0.03200
H40 H -0.14400 0.10000 0.30800
H41 H -0.08000 0.07000 0.38700
H42 H -0.10600 -0.56200 0.47500
H43 H -0.02600 -0.33600 0.39400
H44 H -0.26600 0.07300 0.35700
H45 H -0.36000 -0.12100 0.42200
H46 H -0.20500 -0.19500 0.60100
N1 N 0.15910 0.41070 0.15160
N2 N 0.14910 -0.20840 -0.07260
O1 O 0.13750 0.48850 0.22260
O2 O 0.20690 0.49530 0.10800
O3 O -0.03710 -0.10110 0.25100
O4 O -0.04380 -0.39310 0.15220
O5 O 0.12320 -0.39200 -0.09460
O6 O 0.19540 -0.11140 -0.11330
#END
