
#######################################################################
#
#                 Cambridge Crystallographic Data Centre
#                                CCDC
#
#######################################################################
#
# If this CIF has been generated from an entry in the Cambridge
# Structural Database, then it will include bibliographic, chemical,
# crystal, experimental, refinement or atomic coordinate data resulting
# from the CCDC's data processing and validation procedures.
#
#######################################################################

data_CSD_CIF_IPEHAM
_audit_creation_date 2004-04-20
_audit_creation_method CSD-ConQuest-V1
_database_code_CSD IPEHAM
_database_code_depnum_ccdc_archive 'CCDC 222311'
_chemical_formula_sum 'C13 H15 N1 O1'
_chemical_formula_moiety
;
C13 H15 N1 O1
;
_journal_coden_Cambridge 392
_journal_volume 62
_journal_year 2004
_journal_page_first 679
_journal_name_full 'Heterocycles '
loop_
_publ_author_name
"J.R.Malpass"
"P.S.Skerry"
"S.L.Rimmington"
_chemical_name_systematic
;
N-Benzyl-N-(cyclopenta-1,3-dienylmethyl)hydroxylamine
;
_cell_volume   1126.084
_exptl_crystal_colour 'yellow'
_exptl_crystal_density_diffrn 1.187
_exptl_crystal_description 'needle'
_diffrn_ambient_temperature 150
#These two values have been output from a single CSD field.
_refine_ls_R_factor_gt 0.0658
_refine_ls_wR_factor_gt 0.0658
_symmetry_cell_setting monoclinic
_symmetry_space_group_name_H-M 'P 21/n'
_symmetry_Int_Tables_number 14
loop_
_symmetry_equiv_pos_site_id
_symmetry_equiv_pos_as_xyz
1 x,y,z
2 1/2-x,1/2+y,1/2-z
3 -x,-y,-z
4 -1/2+x,-1/2-y,-1/2+z
_cell_length_a 8.983(4)
_cell_length_b 10.458(5)
_cell_length_c 12.008(6)
_cell_angle_alpha 90
_cell_angle_beta 93.411(8)
_cell_angle_gamma 90
_cell_formula_units_Z 4
loop_
_atom_type_symbol
_atom_type_radius_bond
C 0.68
H 0.23
N 0.68
O 0.68
loop_
_atom_site_label
_atom_site_type_symbol
_atom_site_fract_x
_atom_site_fract_y
_atom_site_fract_z
O1 O 0.0379(2) 0.35680(18) -0.04115(15)
H1 H -0.03090 0.40740 -0.06200
N1 N 0.1212(2) 0.4097(2) 0.05536(16)
C1 C 0.0860(3) 0.3260(3) 0.1498(2)
H2 H 0.13060 0.24060 0.13950
H3 H -0.02350 0.31520 0.15040
C2 C 0.1435(3) 0.3800(3) 0.2582(2)
C3 C 0.2573(4) 0.3375(3) 0.3233(2)
H4 H 0.31590 0.26530 0.30600
C4 C 0.2820(5) 0.4128(5) 0.4227(3)
H5 H 0.35800 0.40010 0.48010
C5 C 0.1674(8) 0.5130(4) 0.4187(4)
H6 H 0.15400 0.57790 0.47250
C6 C 0.0746(5) 0.4909(3) 0.3102(3)
H7 H -0.03050 0.47250 0.32510
H8 H 0.07750 0.56690 0.26120
C7 C 0.2794(3) 0.3976(3) 0.0312(2)
H9 H 0.30150 0.30710 0.01460
H10 H 0.34240 0.42290 0.09800
C8 C 0.3181(3) 0.4789(3) -0.0655(2)
C9 C 0.3187(3) 0.6119(3) -0.0584(2)
H11 H 0.29770 0.65210 0.00980
C10 C 0.3491(3) 0.6853(4) -0.1489(3)
H12 H 0.34940 0.77590 -0.14330
C11 C 0.3787(4) 0.6284(4) -0.2457(3)
H13 H 0.39420 0.67970 -0.30920
C12 C 0.3867(4) 0.5008(4) -0.2541(3)
H14 H 0.41490 0.46270 -0.32150
C13 C 0.3540(3) 0.4249(3) -0.1653(2)
H15 H 0.35600 0.33450 -0.17270
#END
