
#######################################################################
#
#                 Cambridge Crystallographic Data Centre
#                                CCDC
#
#######################################################################
#
# If this CIF has been generated from an entry in the Cambridge
# Structural Database, then it will include bibliographic, chemical,
# crystal, experimental, refinement or atomic coordinate data resulting
# from the CCDC's data processing and validation procedures.
#
#######################################################################

data_CSD_CIF_IPEZUZ
_audit_creation_date 2011-06-24
_audit_creation_method CSD-ConQuest-V1
_database_code_CSD IPEZUZ
_database_code_depnum_ccdc_archive 'CCDC 789261'
_chemical_formula_sum 'C3 H1 N11 O2'
_chemical_formula_moiety
;
C3 H1 N11 O2
;
_journal_coden_Cambridge 1220
_journal_volume 17
_journal_year 2011
_journal_page_first 1538
_journal_name_full 'Chem.-Eur.J. '
loop_
_publ_author_name
"Yangen Huang"
"Yanqiang Zhang"
"J.M.Shreeve"
_chemical_name_systematic
;
4,6-Diazido-N-nitro-1,3,5-triazin-2-amine
;
_cell_volume    807.460
_exptl_crystal_colour 'colorless'
_exptl_crystal_density_diffrn 1.836
_exptl_crystal_description 'plate'
_exptl_crystal_preparation 'water'
_diffrn_ambient_temperature 143
#These two values have been output from a single CSD field.
_refine_ls_R_factor_gt 0.0285
_refine_ls_wR_factor_gt 0.0285
_symmetry_cell_setting orthorhombic
_symmetry_space_group_name_H-M 'P n m a'
_symmetry_Int_Tables_number 62
loop_
_symmetry_equiv_pos_site_id
_symmetry_equiv_pos_as_xyz
1 x,y,z
2 1/2-x,-y,1/2+z
3 -x,1/2+y,-z
4 1/2+x,1/2-y,1/2-z
5 -x,-y,-z
6 -1/2+x,y,-1/2-z
7 x,-1/2-y,z
8 -1/2-x,-1/2+y,-1/2+z
_cell_length_a 14.1327(16)
_cell_length_b 5.8806(7)
_cell_length_c 9.7157(11)
_cell_angle_alpha 90
_cell_angle_beta 90
_cell_angle_gamma 90
_cell_formula_units_Z 4
loop_
_atom_type_symbol
_atom_type_radius_bond
C 0.68
H 0.23
N 0.68
O 0.68
loop_
_atom_site_label
_atom_site_type_symbol
_atom_site_fract_x
_atom_site_fract_y
_atom_site_fract_z
C1 C 0.99455(7) 0.75000 -0.19486(12)
N1 N 0.96875(7) 0.75000 -0.32751(10)
C2 C 1.04260(8) 0.75000 -0.41331(11)
N2 N 1.13403(7) 0.75000 -0.37912(10)
C3 C 1.14788(7) 0.75000 -0.24380(12)
N3 N 1.08198(7) 0.75000 -0.14468(10)
N4 N 0.91585(7) 0.75000 -0.10974(10)
H1 H 0.8596(12) 0.75000 -0.1468(18)
N5 N 0.91415(7) 0.75000 0.03153(10)
O1 O 0.98817(6) 0.75000 0.09489(9)
O2 O 0.83456(6) 0.75000 0.0813(1)
N6 N 1.01705(7) 0.75000 -0.55191(10)
N7 N 1.08823(7) 0.75000 -0.63149(10)
N8 N 1.14314(7) 0.75000 -0.71395(11)
N9 N 1.24331(7) 0.75000 -0.20743(11)
N10 N 1.25695(7) 0.75000 -0.07784(12)
N11 N 1.27968(8) 0.75000 0.03179(12)
#END
