
#######################################################################
#
#                 Cambridge Crystallographic Data Centre
#                                CCDC
#
#######################################################################
#
# If this CIF has been generated from an entry in the Cambridge
# Structural Database, then it will include bibliographic, chemical,
# crystal, experimental, refinement or atomic coordinate data resulting
# from the CCDC's data processing and validation procedures.
#
#######################################################################

data_CSD_CIF_IPIGEU
_audit_creation_date 2011-06-24
_audit_creation_method CSD-ConQuest-V1
_database_code_CSD IPIGEU
_database_code_depnum_ccdc_archive 'CCDC 790949'
_chemical_formula_sum 'C18 H24 N4 O2'
_chemical_formula_moiety
;
C18 H24 N4 O2
;
_journal_coden_Cambridge 1295
_journal_volume 14
_journal_year 2011
_journal_page_first 194
_journal_name_full 'Inorg.Chem.Commun. '
loop_
_publ_author_name
"K.Koide"
"T.Ishida"
_chemical_name_systematic
;
N,N'-Di-t-butyl-N,N'-dioxy-2,2'-bipyridine-6,6'-diamine
;
_chemical_melting_point 426
_cell_volume    875.599
_exptl_crystal_colour 'red'
_exptl_crystal_density_diffrn 1.246
_exptl_crystal_description 'block'
_diffrn_ambient_temperature 90
#These two values have been output from a single CSD field.
_refine_ls_R_factor_gt 0.0381
_refine_ls_wR_factor_gt 0.0381
_symmetry_cell_setting monoclinic
_symmetry_space_group_name_H-M 'P 21/n'
_symmetry_Int_Tables_number 14
loop_
_symmetry_equiv_pos_site_id
_symmetry_equiv_pos_as_xyz
1 x,y,z
2 1/2-x,1/2+y,1/2-z
3 -x,-y,-z
4 -1/2+x,-1/2-y,-1/2+z
_cell_length_a 6.129(6)
_cell_length_b 10.281(6)
_cell_length_c 14.193(9)
_cell_angle_alpha 90
_cell_angle_beta 101.748(6)
_cell_angle_gamma 90
_cell_formula_units_Z 2
loop_
_atom_type_symbol
_atom_type_radius_bond
C 0.68
H 0.23
N 0.68
O 0.68
loop_
_atom_site_label
_atom_site_type_symbol
_atom_site_fract_x
_atom_site_fract_y
_atom_site_fract_z
O1 O 0.65164(15) -0.15490(8) 0.27248(6)
N1 N 0.20637(14) -0.02254(7) 0.10868(6)
N2 N 0.49864(15) -0.07319(8) 0.23814(6)
C1 C 0.10480(16) -0.03773(8) 0.01605(7)
C2 C 0.18662(17) -0.11938(10) -0.04707(7)
C3 C 0.38555(18) -0.1858(1) -0.01234(7)
C4 C 0.49427(18) -0.17020(9) 0.08217(7)
C5 C 0.39576(16) -0.08721(9) 0.13988(7)
C6 C 0.43642(16) 0.02810(9) 0.30515(7)
C7 C 0.21435(18) -0.00954(10) 0.33034(8)
C8 C 0.42450(19) 0.16269(9) 0.25815(7)
C9 C 0.62165(18) 0.02824(10) 0.39534(7)
H1 H 0.108(2) -0.1280(12) -0.1118(9)
H2 H 0.447(2) -0.2426(13) -0.0540(11)
H3 H 0.634(2) -0.2130(14) 0.1083(10)
H4 H 0.092(2) -0.0114(13) 0.2733(11)
H5 H 0.226(2) -0.0944(15) 0.3597(10)
H6 H 0.175(2) 0.0607(16) 0.3737(12)
H7 H 0.294(2) 0.1711(12) 0.2026(10)
H8 H 0.408(2) 0.2261(13) 0.3060(11)
H9 H 0.565(2) 0.1823(12) 0.2359(9)
H10 H 0.589(2) 0.0971(14) 0.4404(11)
H11 H 0.638(2) -0.0560(14) 0.4278(11)
H12 H 0.770(2) 0.0480(13) 0.3794(11)
O1B O -0.65164(15) 0.15490(8) -0.27248(6)
N1B N -0.20637(14) 0.02254(7) -0.10868(6)
N2B N -0.49864(15) 0.07319(8) -0.23814(6)
C1B C -0.10480(16) 0.03773(8) -0.01605(7)
C2B C -0.18662(17) 0.11938(10) 0.04707(7)
C3B C -0.38555(18) 0.1858(1) 0.01234(7)
C4B C -0.49427(18) 0.17020(9) -0.08217(7)
C5B C -0.39576(16) 0.08721(9) -0.13988(7)
C6B C -0.43642(16) -0.02810(9) -0.30515(7)
C7B C -0.21435(18) 0.00954(10) -0.33034(8)
C8B C -0.42450(19) -0.16269(9) -0.25815(7)
C9B C -0.62165(18) -0.02824(10) -0.39534(7)
H1B H -0.108(2) 0.1280(12) 0.1118(9)
H2B H -0.447(2) 0.2426(13) 0.0540(11)
H3B H -0.634(2) 0.2130(14) -0.1083(10)
H4B H -0.092(2) 0.0114(13) -0.2733(11)
H5B H -0.226(2) 0.0944(15) -0.3597(10)
H6B H -0.175(2) -0.0607(16) -0.3737(12)
H7B H -0.294(2) -0.1711(12) -0.2026(10)
H8B H -0.408(2) -0.2261(13) -0.3060(11)
H9B H -0.565(2) -0.1823(12) -0.2359(9)
H10B H -0.589(2) -0.0971(14) -0.4404(11)
H11B H -0.638(2) 0.0560(14) -0.4278(11)
H12B H -0.770(2) -0.0480(13) -0.3794(11)
#END
