
#######################################################################
#
#                 Cambridge Crystallographic Data Centre
#                                CCDC
#
#######################################################################
#
# If this CIF has been generated from an entry in the Cambridge
# Structural Database, then it will include bibliographic, chemical,
# crystal, experimental, refinement or atomic coordinate data resulting
# from the CCDC's data processing and validation procedures.
#
#######################################################################

data_CSD_CIF_IPITIM
_audit_creation_date 2016-06-10
_audit_creation_method CSD-ConQuest-V1
_database_code_CSD IPITIM
_database_code_depnum_ccdc_archive 'CCDC 1474899'
_chemical_formula_sum 'C5 H6 N10 O4'
_chemical_formula_moiety
;
C5 H6 N10 O4
;
_journal_coden_Cambridge 1699
_journal_volume 4
_journal_year 2016
_journal_page_first 9931
_journal_name_full 'J.Mater.Chem.A '
loop_
_publ_author_name
"D.Kumar"
"L.A.Mitchell"
"D.A.Parrish"
"J.M.Shreeve"
_chemical_name_systematic
;
N-nitro-1-(2-(3-nitro-1H-1,2,4-triazol-1-yl)ethyl)-1,4-dihydro-5H-tetrazol-5-i
mine
;
_cell_volume   1034.678
_exptl_crystal_colour 'colorless'
_exptl_crystal_density_diffrn 1.735
_exptl_crystal_description 'plate'
_diffrn_ambient_temperature 150
#These two values have been output from a single CSD field.
_refine_ls_R_factor_gt 0.037
_refine_ls_wR_factor_gt 0.037
_symmetry_cell_setting monoclinic
_symmetry_space_group_name_H-M 'P 21/n'
_symmetry_Int_Tables_number 14
loop_
_symmetry_equiv_pos_site_id
_symmetry_equiv_pos_as_xyz
1 x,y,z
2 1/2-x,1/2+y,1/2-z
3 -x,-y,-z
4 -1/2+x,-1/2-y,-1/2+z
_cell_length_a 7.9667(5)
_cell_length_b 12.8656(9)
_cell_length_c 10.6222(7)
_cell_angle_alpha 90
_cell_angle_beta 108.131(2)
_cell_angle_gamma 90
_cell_formula_units_Z 4
loop_
_atom_type_symbol
_atom_type_radius_bond
C 0.68
H 0.23
N 0.68
O 0.68
loop_
_atom_site_label
_atom_site_type_symbol
_atom_site_fract_x
_atom_site_fract_y
_atom_site_fract_z
O1 O 0.80465(12) 0.49237(8) 0.62702(10)
O2 O 0.69878(14) 0.36379(8) 0.49287(10)
N1 N 0.68867(14) 0.42619(8) 0.57899(10)
N2 N 0.54094(14) 0.41899(8) 0.61624(10)
C1 C 0.53355(16) 0.48412(9) 0.71205(12)
N3 N 0.64001(16) 0.55496(9) 0.79060(11)
N4 N 0.55948(15) 0.59827(9) 0.87398(12)
N5 N 0.40766(16) 0.55658(8) 0.85068(12)
N6 N 0.38782(14) 0.48535(8) 0.75232(11)
C2 C 0.21742(16) 0.43421(9) 0.69370(13)
H1 H 0.19060 0.43260 0.59620
H2 H 0.12430 0.47570 0.71390
C3 C 0.21208(17) 0.32366(9) 0.74357(13)
H3 H 0.25520 0.32330 0.84160
H4 H 0.08860 0.29840 0.71480
N7 N 0.32091(14) 0.25406(8) 0.69308(10)
N8 N 0.28247(14) 0.23933(8) 0.56091(10)
C4 C 0.41599(16) 0.18094(9) 0.55830(12)
N9 N 0.53536(14) 0.15606(8) 0.67433(10)
C5 C 0.47063(17) 0.20509(10) 0.75887(13)
H5 H 0.52290 0.20540 0.85240
N10 N 0.43590(14) 0.14758(8) 0.43361(11)
O3 O 0.33264(14) 0.18296(9) 0.33166(9)
O4 O 0.55682(13) 0.08719(7) 0.43853(10)
H6 H 0.742(2) 0.5769(12) 0.7896(16)
#END
