
#######################################################################
#
#                 Cambridge Crystallographic Data Centre
#                                CCDC
#
#######################################################################
#
# If this CIF has been generated from an entry in the Cambridge
# Structural Database, then it will include bibliographic, chemical,
# crystal, experimental, refinement or atomic coordinate data resulting
# from the CCDC's data processing and validation procedures.
#
#######################################################################

data_CSD_CIF_IPIWIN
_audit_creation_date 2004-04-21
_audit_creation_method CSD-ConQuest-V1
_database_code_CSD IPIWIN
_database_code_depnum_ccdc_archive 'CCDC 218021'
_chemical_formula_sum 'C17 H18 N4 O4'
_chemical_formula_moiety
;
C17 H18 N4 O4
;
_journal_coden_Cambridge 1078
_journal_year 2003
_journal_name_full 'CSD Communication(Private Communication) '
loop_
_publ_author_name
"M.B.Hursthouse"
"M.E.Light"
"I.A.Fallis"
_chemical_name_systematic
;
1,4-bis(2-Nitrophenyl)-perhydro-1,4-diazepine
;
_cell_volume    784.160
_exptl_crystal_density_diffrn 1.45
_exptl_special_details
;
contribution from Department of Chemistry, University of Cardiff, Cardiff 
CF10 3TB, UK
;
_diffrn_ambient_temperature 120
#These two values have been output from a single CSD field.
_refine_ls_R_factor_gt 0.0402
_refine_ls_wR_factor_gt 0.0402
_symmetry_cell_setting triclinic
_symmetry_space_group_name_H-M 'P -1'
_symmetry_Int_Tables_number 2
loop_
_symmetry_equiv_pos_site_id
_symmetry_equiv_pos_as_xyz
1 x,y,z
2 -x,-y,-z
_cell_length_a 7.8855(3)
_cell_length_b 8.2780(3)
_cell_length_c 13.8819(5)
_cell_angle_alpha 73.232(2)
_cell_angle_beta 89.911(2)
_cell_angle_gamma 65.782(2)
_cell_formula_units_Z 2
loop_
_atom_type_symbol
_atom_type_radius_bond
C 0.68
H 0.23
N 0.68
O 0.68
loop_
_atom_site_label
_atom_site_type_symbol
_atom_site_fract_x
_atom_site_fract_y
_atom_site_fract_z
C1 C -0.7829(2) 0.9037(2) 0.13100(12)
C2 C -0.9542(2) 1.0525(2) 0.12529(14)
C3 C -1.0503(3) 1.0523(3) 0.20792(15)
C4 C -0.9734(2) 0.9019(2) 0.29662(14)
C5 C -0.7998(2) 0.7573(2) 0.30344(13)
C6 C -0.6931(2) 0.7554(2) 0.22247(11)
C7 C -0.3660(2) 0.6653(3) 0.18401(12)
C8 C -0.2157(2) 0.6562(2) 0.25864(12)
C9 C 0.0833(2) 0.3808(2) 0.28020(11)
C10 C 0.1063(2) 0.4486(2) 0.17722(12)
C11 C 0.2613(2) 0.3521(3) 0.13705(14)
C12 C 0.4014(2) 0.1801(2) 0.19461(14)
C13 C 0.3874(2) 0.1122(2) 0.29551(13)
C14 C 0.2364(2) 0.2145(2) 0.33796(11)
C15 C -0.1320(2) 0.3734(2) 0.41069(12)
C16 C -0.3436(2) 0.4381(2) 0.40992(12)
C17 C -0.4463(2) 0.4439(2) 0.31515(12)
N1 N -0.70880(19) 0.9017(2) 0.03469(10)
N2 N -0.51183(18) 0.62071(19) 0.23293(10)
N3 N -0.07996(17) 0.46830(17) 0.31741(9)
N4 N 0.26168(17) 0.15152(18) 0.4491(1)
O1 O -0.73742(18) 1.05297(18) -0.02848(9)
O2 O -0.62943(17) 0.75183(18) 0.01798(9)
O3 O 0.23952(15) 0.26861(15) 0.49229(8)
O4 O 0.31345(16) -0.01574(15) 0.49480(9)
H1 H -1.003(3) 1.153(3) 0.0595(15)
H2 H -1.169(3) 1.158(3) 0.2002(14)
H3 H -1.040(3) 0.899(3) 0.3546(15)
H4 H -0.749(3) 0.655(3) 0.3681(15)
H5 H -0.417(2) 0.795(2) 0.1387(13)
H6 H -0.308(2) 0.580(2) 0.1449(13)
H7 H -0.272(2) 0.720(2) 0.3060(12)
H8 H -0.150(2) 0.731(2) 0.2197(12)
H9 H 0.011(3) 0.564(2) 0.1345(14)
H10 H 0.268(2) 0.407(2) 0.0680(15)
H11 H 0.507(3) 0.115(2) 0.1643(13)
H12 H 0.486(3) -0.003(3) 0.3408(14)
H13 H -0.079(2) 0.389(2) 0.4729(13)
H14 H -0.076(2) 0.240(2) 0.4197(12)
H15 H -0.401(2) 0.564(2) 0.4195(11)
H16 H -0.359(2) 0.345(2) 0.4676(13)
H17 H -0.553(2) 0.414(2) 0.3328(13)
H18 H -0.362(2) 0.343(2) 0.2892(12)
#END
