
#######################################################################
#
#                 Cambridge Crystallographic Data Centre
#                                CCDC
#
#######################################################################
#
# If this CIF has been generated from an entry in the Cambridge
# Structural Database, then it will include bibliographic, chemical,
# crystal, experimental, refinement or atomic coordinate data resulting
# from the CCDC's data processing and validation procedures.
#
#######################################################################

data_CSD_CIF_IPOCEV01
_audit_creation_date 2004-04-21
_audit_creation_method CSD-ConQuest-V1
_database_code_CSD IPOCEV01
_database_code_depnum_ccdc_archive 'CCDC 223215'
_chemical_formula_sum 'C20 H14 N4 O1'
_chemical_formula_moiety
;
C20 H14 N4 O1
;
_journal_coden_Cambridge 1078
_journal_year 2003
_journal_name_full 'CSD Communication(Private Communication) '
loop_
_publ_author_name
"M.B.Hursthouse"
"M.E.Light"
"A.Amoroso"
_chemical_name_systematic
;
4-(2,6-bis(2-Pyridyl)-4-pyridyl)pyridine N-oxide
;
_cell_volume   1559.266
_exptl_crystal_density_diffrn 1.39
_exptl_special_details
;
contribution from Department of Chemistry, University of Cardiff, Cardiff 
CF10 3TB, UK
;
_diffrn_ambient_temperature 150
#These two values have been output from a single CSD field.
_refine_ls_R_factor_gt 0.1028
_refine_ls_wR_factor_gt 0.1028
_symmetry_cell_setting orthorhombic
_symmetry_space_group_name_H-M 'P b c n'
_symmetry_Int_Tables_number 60
loop_
_symmetry_equiv_pos_site_id
_symmetry_equiv_pos_as_xyz
1 x,y,z
2 1/2+x,1/2+y,1/2-z
3 x,-y,1/2+z
4 1/2-x,1/2+y,z
5 -x,-y,-z
6 -1/2-x,-1/2-y,-1/2+z
7 -x,y,-1/2-z
8 -1/2+x,-1/2-y,-z
_cell_length_a 10.4903(1)
_cell_length_b 12.1430(2)
_cell_length_c 12.2407(2)
_cell_angle_alpha 90
_cell_angle_beta 90
_cell_angle_gamma 90
_cell_formula_units_Z 4
loop_
_atom_type_symbol
_atom_type_radius_bond
C 0.68
H 0.23
N 0.68
O 0.68
loop_
_atom_site_label
_atom_site_type_symbol
_atom_site_fract_x
_atom_site_fract_y
_atom_site_fract_z
C1 C 0.1523(4) 0.4039(4) -0.0045(3)
H1 H 0.14210 0.48150 -0.00850
C2 C 0.2266(4) 0.3486(4) -0.0811(3)
H2 H 0.26840 0.38780 -0.13790
C3 C 0.2383(4) 0.2367(5) -0.0732(3)
H3 H 0.28930 0.19970 -0.12570
C4 C 0.1822(3) 0.1770(3) 0.0038(2)
H4 H 0.19210 0.09920 0.00590
C5 C 0.1106(4) 0.2300(3) 0.0793(3)
C6 C 0.0527(3) 0.1619(3) 0.1682(3)
C7 C 0.0534(4) 0.0474(4) 0.1645(3)
H5 H 0.09010 0.01020 0.10390
C8 C 0.00000 -0.0121(5) 0.25000
C9 C 0.00000 -0.1355(4) 0.25000
C10 C 0.0757(4) -0.1955(3) 0.1783(3)
H6 H 0.12860 -0.15770 0.12770
C11 C 0.0751(4) -0.3087(4) 0.1794(3)
H7 H 0.12800 -0.34800 0.12990
N1 N 0.0933(4) 0.3441(3) 0.0779(3)
N2 N 0.00000 0.2177(4) 0.25000
N3 N 0.00000 -0.3650(4) 0.25000
O1 O 0.00000 -0.4724(3) 0.25000
C7F C -0.0534(4) 0.0474(4) 0.3355(3)
C6F C -0.0527(3) 0.1619(3) 0.3318(3)
C5F C -0.1106(4) 0.2300(3) 0.4207(3)
C4F C -0.1822(3) 0.1770(3) 0.4962(2)
C3F C -0.2383(4) 0.2367(5) 0.5732(3)
C2F C -0.2266(4) 0.3486(4) 0.5811(3)
C1F C -0.1523(4) 0.4039(4) 0.5045(3)
H1F H -0.14210 0.48150 0.50850
N1F N -0.0933(4) 0.3441(3) 0.4221(3)
H2F H -0.26840 0.38780 0.63790
H3F H -0.28930 0.19970 0.62570
H4F H -0.19210 0.09920 0.49410
H5F H -0.09010 0.01020 0.39610
C11F C -0.0751(4) -0.3087(4) 0.3206(3)
C10F C -0.0757(4) -0.1955(3) 0.3217(3)
H6F H -0.12860 -0.15770 0.37230
H7F H -0.12800 -0.34800 0.37010
#END
