
#######################################################################
#
#                 Cambridge Crystallographic Data Centre
#                                CCDC
#
#######################################################################
#
# If this CIF has been generated from an entry in the Cambridge
# Structural Database, then it will include bibliographic, chemical,
# crystal, experimental, refinement or atomic coordinate data resulting
# from the CCDC's data processing and validation procedures.
#
#######################################################################

data_CSD_CIF_IPOVAM
_audit_creation_date 2016-06-13
_audit_creation_method CSD-ConQuest-V1
_database_code_CSD IPOVAM
_database_code_depnum_ccdc_archive 'CCDC 1421017'
_chemical_formula_sum 'C14 H12 N2 O4'
_chemical_formula_moiety
;
C14 H12 N2 O4
;
_journal_coden_Cambridge 1381
_journal_volume 55
_journal_year 2016
_journal_page_first 4170
_journal_name_full 'Ind.Eng.Chem.Res. '
loop_
_publ_author_name
"M.Piechowicz"
"C.W.Abney"
"Xin Zhou"
"N.C.Thacker"
"Zhong Li"
"Wenbin Lin"
_chemical_name_systematic
;
2-[2-[(Z)-N'-hydroxycarbamimidoyl]phenoxy]benzoate
;
_chemical_name_common
;
2-(2-(amino(hydroxyiminio)methyl)phenoxy)benzoate
;
_cell_volume   1252.017
_exptl_crystal_colour 'white'
_exptl_crystal_density_diffrn 1.444
_exptl_crystal_description 'Needle-like'
_exptl_crystal_preparation 'methanol'
_diffrn_ambient_temperature 296.1
_diffrn_radiation_probe x-ray
_diffrn_source synchrotron
#These two values have been output from a single CSD field.
_refine_ls_R_factor_gt 0.0602
_refine_ls_wR_factor_gt 0.0602
_symmetry_cell_setting orthorhombic
_symmetry_space_group_name_H-M 'P n a 21'
_symmetry_Int_Tables_number 33
loop_
_symmetry_equiv_pos_site_id
_symmetry_equiv_pos_as_xyz
1 x,y,z
2 -x,-y,1/2+z
3 1/2+x,1/2-y,z
4 1/2-x,1/2+y,1/2+z
_cell_length_a 10.2721(15)
_cell_length_b 12.9900(19)
_cell_length_c 9.3830(14)
_cell_angle_alpha 90
_cell_angle_beta 90
_cell_angle_gamma 90
_cell_formula_units_Z 4
loop_
_atom_type_symbol
_atom_type_radius_bond
C 0.68
H 0.23
N 0.68
O 0.68
loop_
_atom_site_label
_atom_site_type_symbol
_atom_site_fract_x
_atom_site_fract_y
_atom_site_fract_z
O1 O 0.65252(19) 0.41130(16) 0.5306(2)
O2 O 0.8468(2) 0.38889(17) 0.1351(2)
N1 N 0.8776(3) 0.4842(2) 0.8645(2)
H1 H 0.91520 0.54290 0.87430
H2 H 0.86080 0.44720 0.93830
O3 O 0.9053(2) 0.60855(18) 0.6378(3)
H3 H 0.98480 0.61350 0.63940
O4 O 0.8701(2) 0.40717(18) 0.3689(2)
N2 N 0.8707(2) 0.5061(2) 0.6235(3)
C1 C 0.8458(3) 0.4509(2) 0.7367(3)
C2 C 0.7841(3) 0.3487(2) 0.7187(3)
C3 C 0.6904(3) 0.3287(2) 0.6126(3)
C4 C 0.5872(3) 0.3892(2) 0.4036(3)
C5 C 0.6765(3) 0.1532(3) 0.6889(3)
H4 H 0.64080 0.08780 0.67890
C6 C 0.6378(3) 0.2315(2) 0.5987(3)
H5 H 0.57610 0.21860 0.52840
C7 C 0.4521(3) 0.3800(3) 0.4104(3)
H6 H 0.40910 0.38710 0.49710
C8 C 0.7684(3) 0.1717(3) 0.7943(3)
H7 H 0.79360 0.11890 0.85540
C9 C 0.5809(3) 0.3636(2) 0.1523(3)
H8 H 0.62250 0.35890 0.06450
C10 C 0.4476(3) 0.3523(3) 0.1588(3)
H9 H 0.40090 0.33910 0.07590
C11 C 0.8218(3) 0.2679(3) 0.8083(3)
H10 H 0.88400 0.27970 0.87840
C12 C 0.8003(3) 0.3931(2) 0.2601(3)
C13 C 0.6546(3) 0.3818(2) 0.2743(3)
C14 C 0.3826(3) 0.3604(3) 0.2872(4)
H11 H 0.29260 0.35270 0.29080
H12 H 0.857(3) 0.484(3) 0.538(5)
#END
