
#######################################################################
#
#                 Cambridge Crystallographic Data Centre
#                                CCDC
#
#######################################################################
#
# If this CIF has been generated from an entry in the Cambridge
# Structural Database, then it will include bibliographic, chemical,
# crystal, experimental, refinement or atomic coordinate data resulting
# from the CCDC's data processing and validation procedures.
#
#######################################################################

data_CSD_CIF_IPOXAZ
_audit_creation_date 1972-11-03
_audit_creation_method CSD-ConQuest-V1
_database_code_CSD IPOXAZ
_chemical_formula_sum 'C10 H12 N2 O3'
_chemical_formula_moiety
;
C10 H12 N2 O3
;
_journal_coden_Cambridge 188
_journal_year 1972
_journal_page_first 1137
_journal_name_full 'J.Chem.Soc.,Perkin Trans.2 '
loop_
_publ_author_name
"J.F.Cannon"
"J.Daly"
"J.V.Silverton"
"D.R.Boyd"
"D.M.Jerina"
_chemical_name_systematic
;
cis-2-Isopropyl-3-(p-nitrophenyl)-oxaziridine
;
_chemical_melting_point 375.15
_cell_volume   1065.695
_exptl_crystal_density_diffrn 1.3
_exptl_special_details
;
Melting point range 375.15-376.15K

;
_diffrn_ambient_temperature ?
_diffrn_special_details
;
The study was carried out at room temperature,in the range 283-303K

;
#These two values have been output from a single CSD field.
_refine_ls_R_factor_gt 0.05
_refine_ls_wR_factor_gt 0.05
_symmetry_cell_setting monoclinic
_symmetry_space_group_name_H-M 'P 21/n'
_symmetry_Int_Tables_number 14
loop_
_symmetry_equiv_pos_site_id
_symmetry_equiv_pos_as_xyz
1 x,y,z
2 1/2-x,1/2+y,1/2-z
3 -x,-y,-z
4 -1/2+x,-1/2-y,-1/2+z
_cell_length_a 11.206(9)
_cell_length_b 6.516(6)
_cell_length_c 14.757(14)
_cell_angle_alpha 90
_cell_angle_beta 98.5(1)
_cell_angle_gamma 90
_cell_formula_units_Z 4
loop_
_atom_type_symbol
_atom_type_radius_bond
C 0.68
H 0.20
N 0.68
O 0.68
loop_
_atom_site_label
_atom_site_type_symbol
_atom_site_fract_x
_atom_site_fract_y
_atom_site_fract_z
C1 C 0.14350 0.38090 -0.43420
C2 C 0.47520 0.51710 -0.64010
C3 C 0.12720 0.30130 -0.52160
C4 C 0.15160 0.42280 -0.59230
C5 C 0.19460 0.62280 -0.57630
C6 C 0.20850 0.70000 -0.48730
C7 C 0.18370 0.57950 -0.41540
C8 C 0.21850 0.74910 -0.65570
C9 C 0.43990 0.72940 -0.61110
C10 C 0.53990 0.88340 -0.61280
H1 H 0.40610 0.42340 -0.63260
H2 H 0.50060 0.52770 -0.70560
H3 H 0.55280 0.46550 -0.60280
H4 H 0.09430 0.16090 -0.52960
H5 H 0.14760 0.36440 -0.65520
H6 H 0.23460 0.83860 -0.47710
H7 H 0.19240 0.63580 -0.35610
H8 H 0.15920 0.72570 -0.71030
H9 H 0.41350 0.71640 -0.54680
H10 H 0.50450 1.01690 -0.59930
H11 H 0.56520 0.88990 -0.67470
H12 H 0.60780 0.85500 -0.56550
N1 N 0.33620 0.79100 -0.67840
N2 N 0.11870 0.25180 -0.35830
O1 O 0.26210 0.94950 -0.63830
O2 O 0.13660 0.31970 -0.28130
O3 O 0.07700 0.08090 -0.37560
#END
