
#######################################################################
#
#                 Cambridge Crystallographic Data Centre
#                                CCDC
#
#######################################################################
#
# If this CIF has been generated from an entry in the Cambridge
# Structural Database, then it will include bibliographic, chemical,
# crystal, experimental, refinement or atomic coordinate data resulting
# from the CCDC's data processing and validation procedures.
#
#######################################################################

data_CSD_CIF_IPUNOY
_audit_creation_date 2016-07-05
_audit_creation_method CSD-ConQuest-V1
_database_code_CSD IPUNOY
_database_code_depnum_ccdc_archive 'CCDC 1474806'
_chemical_formula_sum 'C18 H17 N1 O3'
_chemical_formula_moiety
;
C18 H17 N1 O3
;
_journal_coden_Cambridge 1336
_journal_volume 18
_journal_year 2016
_journal_page_first 2738
_journal_name_full 'Org.Lett. '
loop_
_publ_author_name
"Chao Li"
"Kun Jiang"
"Qin Ouyang"
"Tian-Yu Liu"
"Ying-Chun Chen"
_chemical_name_systematic
;
4-benzoyl-1-(benzyloxy)-3-methylazetidin-2-one
;
_cell_volume    773.368
_exptl_crystal_colour 'colorless'
_exptl_crystal_density_diffrn 1.268
_exptl_crystal_description 'block'
_diffrn_ambient_temperature 289
#These two values have been output from a single CSD field.
_refine_ls_R_factor_gt 0.052
_refine_ls_wR_factor_gt 0.052
_symmetry_cell_setting triclinic
_symmetry_space_group_name_H-M 'P -1'
_symmetry_Int_Tables_number 2
loop_
_symmetry_equiv_pos_site_id
_symmetry_equiv_pos_as_xyz
1 x,y,z
2 -x,-y,-z
_cell_length_a 9.2442(10)
_cell_length_b 9.4365(10)
_cell_length_c 10.1285(11)
_cell_angle_alpha 109.029(10)
_cell_angle_beta 92.163(9)
_cell_angle_gamma 110.061(10)
_cell_formula_units_Z 2
loop_
_atom_type_symbol
_atom_type_radius_bond
C 0.68
H 0.23
N 0.68
O 0.68
loop_
_atom_site_label
_atom_site_type_symbol
_atom_site_fract_x
_atom_site_fract_y
_atom_site_fract_z
O1 O 0.1328(2) -1.0657(2) 0.2047(2)
O2 O 0.2177(3) -0.7047(3) 0.1687(2)
O3 O -0.2020(3) -1.1016(3) 0.2489(3)
N1 N 0.0618(3) -0.9551(3) 0.2553(3)
C1 C 0.1352(3) -0.7889(3) 0.3586(3)
H1 H 0.19670 -0.78250 0.44280
C2 C 0.2243(3) -0.6652(3) 0.2965(3)
C3 C 0.3249(3) -0.4466(3) 0.5399(3)
H2 H 0.27030 -0.51960 0.58090
C4 C 0.3154(3) -0.4962(3) 0.3939(3)
C5 C 0.4985(4) -0.1808(4) 0.5655(4)
H3 H 0.56060 -0.07540 0.62330
C6 C -0.0742(4) -0.7748(4) 0.5278(3)
H4 H -0.02680 -0.82670 0.57320
H5 H -0.18540 -0.81910 0.52260
H6 H -0.03470 -0.66080 0.58150
C7 C 0.1273(4) -1.3714(4) -0.0688(3)
H7 H 0.02050 -1.39930 -0.09250
C8 C 0.4154(4) -0.2890(4) 0.6245(3)
H8 H 0.42000 -0.25590 0.72220
C9 C -0.0357(3) -0.8031(4) 0.3795(3)
H9 H -0.07240 -0.74220 0.33340
C10 C 0.2213(4) -1.2125(3) 0.0102(3)
C11 C 0.4438(4) -1.2909(5) -0.0013(4)
H10 H 0.55060 -1.26450 0.02080
C12 C 0.3980(4) -0.3846(4) 0.3355(3)
H11 H 0.39110 -0.41570 0.23760
C13 C 0.4898(4) -0.2286(4) 0.4207(4)
H12 H 0.54600 -0.15540 0.38060
C14 C 0.3459(5) -1.4485(5) -0.0798(4)
H13 H 0.38780 -1.52800 -0.11030
C15 C 0.1507(5) -1.0866(4) 0.0588(3)
H14 H 0.21860 -0.98550 0.05240
H15 H 0.05010 -1.12210 0.00060
C16 C 0.3811(4) -1.1732(4) 0.0439(3)
H16 H 0.44610 -1.06710 0.09720
C17 C 0.1899(5) -1.4891(4) -0.1129(3)
H17 H 0.12540 -1.59570 -0.16510
C18 C -0.0857(4) -0.9825(4) 0.2833(3)
#END
