
#######################################################################
#
#                 Cambridge Crystallographic Data Centre
#                                CCDC
#
#######################################################################
#
# If this CIF has been generated from an entry in the Cambridge
# Structural Database, then it will include bibliographic, chemical,
# crystal, experimental, refinement or atomic coordinate data resulting
# from the CCDC's data processing and validation procedures.
#
#######################################################################

data_CSD_CIF_IPUQAL
_audit_creation_date 2004-04-29
_audit_creation_method CSD-ConQuest-V1
_database_code_CSD IPUQAL
_database_code_depnum_ccdc_archive 'CCDC 222397'
_chemical_formula_sum 'C40 H55 N3 O9'
_chemical_formula_moiety
;
C40 H55 N3 O9
;
_journal_coden_Cambridge 1078
_journal_year 2003
_journal_name_full 'CSD Communication(Private Communication) '
loop_
_publ_author_name
"A.Yu.Kovalevsky"
"P.Coppens"
_chemical_name_systematic
;
2,3-Dimethoxy-N-(5-(((2-methoxy-5-methylphenyl)amino)carbonyl)-2,4-bis(octylox
y)phenyl)-4-nitrobenzamide
;
_cell_volume   1908.510
_exptl_crystal_colour 'yellow'
_exptl_crystal_density_diffrn 1.256
_exptl_special_details
;
contribution from Coppens Crystallography Laboratory, Chemistry Department, 
738 Natural Sciences Complex, SUNY at Buffalo, Buffalo, NY 14260, USA
;
_exptl_crystal_description 'leaves'
_exptl_crystal_preparation 'acetonitrile'
_diffrn_ambient_temperature 90
#These two values have been output from a single CSD field.
_refine_ls_R_factor_gt 0.0537
_refine_ls_wR_factor_gt 0.0537
_symmetry_cell_setting triclinic
_symmetry_space_group_name_H-M 'P -1'
_symmetry_Int_Tables_number 2
loop_
_symmetry_equiv_pos_site_id
_symmetry_equiv_pos_as_xyz
1 x,y,z
2 -x,-y,-z
_cell_length_a 8.308(1)
_cell_length_b 12.737(1)
_cell_length_c 19.394(3)
_cell_angle_alpha 72.437(6)
_cell_angle_beta 77.744(3)
_cell_angle_gamma 89.552(5)
_cell_formula_units_Z 2
loop_
_atom_type_symbol
_atom_type_radius_bond
C 0.68
H 0.23
N 0.68
O 0.68
loop_
_atom_site_label
_atom_site_type_symbol
_atom_site_fract_x
_atom_site_fract_y
_atom_site_fract_z
N1 N 0.09078(14) 0.32460(9) 0.86756(6)
N2 N 0.31479(14) 0.63938(9) 0.52356(6)
H1 H 0.210(2) 0.6375(12) 0.5429(9)
N3 N 0.80127(13) 0.89443(9) 0.23456(6)
H2 H 0.7233(19) 0.9362(12) 0.2200(8)
O1 O -0.03410(12) 0.35651(8) 0.89982(5)
O2 O 0.16524(12) 0.24584(8) 0.89726(5)
O3 O -0.10789(11) 0.43030(7) 0.76498(5)
O4 O 0.03282(11) 0.54568(7) 0.62244(5)
O5 O 0.10043(11) 0.77235(7) 0.47317(5)
O6 O 0.49942(11) 0.96823(7) 0.25161(5)
O7 O 0.55317(11) 0.56513(7) 0.55029(5)
O8 O 0.84691(11) 0.75326(7) 0.33172(5)
O9 O 0.84290(11) 1.06243(7) 0.11399(5)
C1 C 0.16107(17) 0.38562(10) 0.78955(7)
C2 C 0.06023(16) 0.43928(10) 0.74268(7)
C3 C 0.13498(16) 0.49626(10) 0.66887(7)
C4 C 0.30676(16) 0.50518(10) 0.64385(7)
C5 C 0.40221(16) 0.44951(10) 0.69318(7)
H3 H 0.51890 0.45380 0.67700
C6 C 0.32971(16) 0.38832(10) 0.76514(7)
H4 H 0.39570 0.34840 0.79750
C7 C 0.40337(15) 0.57175(10) 0.56743(7)
C8 C 0.37161(16) 0.7188(1) 0.45389(7)
C9 C 0.25325(15) 0.79043(10) 0.42825(7)
C10 C 0.29557(16) 0.87338(10) 0.36080(7)
H5 H 0.21480 0.92160 0.34370
C11 C 0.45546(16) 0.88618(10) 0.31817(7)
C12 C 0.57581(15) 0.81524(10) 0.34203(7)
C13 C 0.52923(16) 0.73171(10) 0.41061(7)
H6 H 0.60920 0.68260 0.42760
C14 C 0.75269(15) 0.81775(10) 0.30271(7)
C15 C 0.95771(16) 0.91099(10) 0.18614(7)
C16 C 0.97754(16) 1.00103(10) 0.12088(7)
C17 C 1.12577(17) 1.02220(11) 0.06870(7)
H7 H 1.13880 1.08300 0.02470
C18 C 1.25515(16) 0.95417(11) 0.08106(8)
H8 H 1.35620 0.96880 0.04500
C19 C 1.23923(16) 0.86535(11) 0.14505(8)
C20 C 1.08984(16) 0.84481(11) 0.19759(7)
H9 H 1.07820 0.78470 0.24190
C21 C -0.17847(19) 0.52768(12) 0.77800(8)
H10 H -0.29860 0.51480 0.79470
H11 H -0.15180 0.58950 0.73200
H12 H -0.13330 0.54520 0.81630
C22 C -0.05838(18) 0.46876(12) 0.60094(8)
H13 H -0.13640 0.50850 0.57240
H14 H -0.11900 0.41250 0.64540
H15 H 0.01860 0.43330 0.57040
C23 C 0.86507(18) 1.15907(11) 0.05035(7)
H16 H 0.76170 1.19670 0.05040
H17 H 0.89630 1.13750 0.00510
H18 H 0.95230 1.20900 0.05210
C24 C 1.37875(17) 0.79131(12) 0.15843(8)
H19 H 1.48400 0.83250 0.13160
H20 H 1.36640 0.72800 0.14080
H21 H 1.37670 0.76520 0.21160
C25 C -0.02369(15) 0.84643(11) 0.45031(7)
H22 H -0.03350 0.84930 0.39980
H23 H 0.00690 0.92180 0.44960
C26 C -0.18514(16) 0.80442(11) 0.50461(7)
H24 H -0.21010 0.72770 0.50630
H25 H -0.27350 0.84960 0.48610
C27 C -0.18915(16) 0.80623(11) 0.58271(7)
H26 H -0.15780 0.88190 0.58100
H27 H -0.10640 0.75680 0.60290
C28 C -0.35803(16) 0.77004(11) 0.63456(7)
H28 H -0.35020 0.76700 0.68530
H29 H -0.38970 0.69460 0.63570
C29 C -0.49299(16) 0.84653(11) 0.61179(7)
H30 H -0.45350 0.92370 0.60260
H31 H -0.51350 0.84020 0.56470
C30 C -0.65472(16) 0.82110(11) 0.66984(8)
H32 H -0.69420 0.74400 0.67880
H33 H -0.63380 0.82700 0.71700
C31 C -0.79008(17) 0.89718(13) 0.64798(8)
H34 H -0.81590 0.88850 0.60240
H35 H -0.74940 0.97470 0.63670
C32 C -0.94717(18) 0.87324(14) 0.70879(9)
H36 H -1.03020 0.92420 0.69240
H37 H -0.92270 0.88300 0.75380
H38 H -0.98960 0.79720 0.71930
C33 C 0.37737(15) 1.04476(10) 0.22972(7)
H39 H 0.34220 1.08410 0.26680
H40 H 0.27930 1.00480 0.22610
C34 C 0.45431(16) 1.12583(10) 0.15537(7)
H41 H 0.48340 1.08630 0.11800
H42 H 0.55700 1.16110 0.15860
C35 C 0.33505(16) 1.21449(10) 0.13094(7)
H43 H 0.22600 1.17830 0.13650
H44 H 0.32090 1.26140 0.16400
C36 C 0.39390(16) 1.2875(1) 0.05077(7)
H45 H 0.50570 1.32060 0.04430
H46 H 0.40160 1.24140 0.01740
C37 C 0.27840(17) 1.37950(11) 0.02882(7)
H47 H 0.16750 1.34590 0.03430
H48 H 0.26820 1.42380 0.06350
C38 C 0.33522(17) 1.45595(11) -0.05000(7)
H49 H 0.34450 1.41230 -0.08500
H50 H 0.44600 1.48990 -0.05580
C39 C 0.21672(18) 1.54703(11) -0.06963(8)
H51 H 0.10540 1.51280 -0.06240
H52 H 0.20950 1.59150 -0.03520
C40 C 0.2687(2) 1.62300(11) -0.14880(8)
H53 H 0.19310 1.68270 -0.15690
H54 H 0.26550 1.58090 -0.18330
H55 H 0.38120 1.65430 -0.15720
#END
