
#######################################################################
#
#                 Cambridge Crystallographic Data Centre
#                                CCDC
#
#######################################################################
#
# If this CIF has been generated from an entry in the Cambridge
# Structural Database, then it will include bibliographic, chemical,
# crystal, experimental, refinement or atomic coordinate data resulting
# from the CCDC's data processing and validation procedures.
#
#######################################################################

data_CSD_CIF_IPUQEP
_audit_creation_date 2004-04-29
_audit_creation_method CSD-ConQuest-V1
_database_code_CSD IPUQEP
_database_code_depnum_ccdc_archive 'CCDC 222398'
_chemical_formula_sum 'C17 H18 N2 O6'
_chemical_formula_moiety
;
C17 H18 N2 O6
;
_journal_coden_Cambridge 1078
_journal_year 2003
_journal_name_full 'CSD Communication(Private Communication) '
loop_
_publ_author_name
"A.Yu.Kovalevsky"
"P.Coppens"
_chemical_name_systematic
;
2,3-Dimethoxy-N-(2-methoxy-4-methylphenyl)-4-nitrobenzamide
;
_cell_volume    817.694
_exptl_crystal_colour 'yellow'
_exptl_crystal_density_diffrn 1.407
_exptl_special_details
;
contribution from Coppens Crystallography Laboratory, Chemistry Department, 
738 Natural Sciences Complex, SUNY at Buffalo, Buffalo, NY 14260, USA
;
_exptl_crystal_description 'parallelepiped'
_exptl_crystal_preparation 'ethanol'
_diffrn_ambient_temperature 293
#These two values have been output from a single CSD field.
_refine_ls_R_factor_gt 0.0421
_refine_ls_wR_factor_gt 0.0421
_symmetry_cell_setting triclinic
_symmetry_space_group_name_H-M 'P -1'
_symmetry_Int_Tables_number 2
loop_
_symmetry_equiv_pos_site_id
_symmetry_equiv_pos_as_xyz
1 x,y,z
2 -x,-y,-z
_cell_length_a 8.5612(2)
_cell_length_b 9.6856(2)
_cell_length_c 10.1660(3)
_cell_angle_alpha 91.921(1)
_cell_angle_beta 98.761(1)
_cell_angle_gamma 100.449(1)
_cell_formula_units_Z 2
loop_
_atom_type_symbol
_atom_type_radius_bond
C 0.68
H 0.23
N 0.68
O 0.68
loop_
_atom_site_label
_atom_site_type_symbol
_atom_site_fract_x
_atom_site_fract_y
_atom_site_fract_z
O1 O 0.24541(13) -0.13462(13) 0.07810(11)
O2 O -0.18422(13) 0.00105(13) 0.27608(12)
O3 O 0.32201(12) 0.08777(11) 0.35395(10)
O4 O 0.47437(12) 0.30547(11) 0.53665(11)
O5 O 0.41150(17) 0.44808(15) 0.75281(14)
O6 O 0.23438(18) 0.56764(14) 0.67665(17)
N1 N 0.04222(16) -0.05362(14) 0.21624(13)
H1 H 0.150(2) -0.0324(18) 0.2327(17)
N2 N 0.29544(18) 0.46324(15) 0.67504(15)
C1 C 0.08914(18) -0.20095(16) 0.03876(15)
C2 C 0.0376(2) -0.30294(16) -0.06434(15)
H2 H 0.11130 -0.32750 -0.11500
C3 C -0.1221(2) -0.36935(16) -0.09356(15)
C4 C -0.2295(2) -0.33179(18) -0.01713(17)
H3 H -0.33660 -0.37740 -0.03430
C5 C -0.1804(2) -0.22708(18) 0.08504(17)
H4 H -0.25490 -0.20190 0.13450
C6 C -0.02120(18) -0.16020(16) 0.11359(14)
C7 C -0.03755(18) 0.01997(16) 0.28771(14)
C8 C 0.06426(18) 0.13348(15) 0.38732(14)
C9 C 0.23181(18) 0.16602(15) 0.41507(14)
C10 C 0.31125(17) 0.27296(15) 0.51151(14)
C11 C 0.2181(2) 0.34929(16) 0.57380(15)
C12 C 0.0528(2) 0.32137(18) 0.54560(17)
H5 H -0.00690 0.37520 0.58760
C13 C -0.02259(19) 0.21328(17) 0.45493(16)
H6 H -0.13450 0.19240 0.43790
C14 C -0.1743(2) -0.48076(19) -0.20729(18)
H7 H -0.10850 -0.55120 -0.19530
H8 H -0.16280 -0.43830 -0.29010
H9 H -0.28490 -0.52360 -0.20860
C15 C 0.3621(2) -0.1759(2) 0.0081(2)
H10 H 0.46640 -0.12230 0.04410
H11 H 0.33650 -0.15910 -0.08460
H12 H 0.36220 -0.27420 0.01720
C16 C 0.4343(2) 0.1603(2) 0.27616(19)
H13 H 0.43790 0.25970 0.28680
H14 H 0.40060 0.12920 0.18380
H15 H 0.53930 0.14030 0.30590
C17 C 0.5495(2) 0.2059(2) 0.6115(2)
H16 H 0.50510 0.19160 0.69230
H17 H 0.66320 0.24110 0.63300
H18 H 0.53050 0.11820 0.55940
#END
