
#######################################################################
#
#                 Cambridge Crystallographic Data Centre
#                                CCDC
#
#######################################################################
#
# If this CIF has been generated from an entry in the Cambridge
# Structural Database, then it will include bibliographic, chemical,
# crystal, experimental, refinement or atomic coordinate data resulting
# from the CCDC's data processing and validation procedures.
#
#######################################################################

data_CSD_CIF_IPUWEW
_audit_creation_date 2011-08-02
_audit_creation_method CSD-ConQuest-V1
_database_code_CSD IPUWEW
_database_code_depnum_ccdc_archive 'CCDC 794723'
_chemical_formula_sum 'C15 H20 N4 O6'
_chemical_formula_moiety
;
C15 H20 N4 O6
;
_journal_coden_Cambridge 643
_journal_volume 226
_journal_year 2011
_journal_page_first 483
_journal_name_full 'Z.Krist.Cryst.Mater. '
loop_
_publ_author_name
"R.A.Howie"
"M.V.N.de Souza"
"A.Pinheiro"
"C.R.Kaiser"
"J.L.Wardell"
"S.M.S.V.Wardell"
_chemical_name_systematic
;
t-butyl 
(1S)-1-(hydroxymethyl)-2-[(2E)-2-(3-nitrobenzylidene)hydrazino]-2-oxoethylcarb
amate
;
_chemical_name_common
;
t-Butyl 
(3-hydroxy-1-(2-(3-nitrobenzylidene)hydrazino)-1-oxopropan-2-yl)carbamate
;
_cell_volume    420.975
_exptl_crystal_colour 'colorless'
_exptl_crystal_density_diffrn 1.39
_exptl_crystal_description 'plate'
_diffrn_ambient_temperature 120
#These two values have been output from a single CSD field.
_refine_ls_R_factor_gt 0.066
_refine_ls_wR_factor_gt 0.066
_symmetry_cell_setting triclinic
_symmetry_space_group_name_H-M 'P 1'
_symmetry_Int_Tables_number 1
loop_
_symmetry_equiv_pos_site_id
_symmetry_equiv_pos_as_xyz
1 x,y,z
_cell_length_a 5.1176(8)
_cell_length_b 6.1315(9)
_cell_length_c 13.670(2)
_cell_angle_alpha 80.794(9)
_cell_angle_beta 89.478(7)
_cell_angle_gamma 83.857(10)
_cell_formula_units_Z 1
loop_
_atom_type_symbol
_atom_type_radius_bond
C 0.68
H 0.23
N 0.68
O 0.68
loop_
_atom_site_label
_atom_site_type_symbol
_atom_site_fract_x
_atom_site_fract_y
_atom_site_fract_z
O1 O 0.4082(7) 0.9077(6) 0.4861(3)
O2 O 0.9083(8) 1.1490(6) 0.4653(3)
H1 H 1.060(15) 1.072(12) 0.481(5)
O3 O 1.2330(7) 0.6731(7) 0.2887(3)
O4 O 0.9403(7) 0.5624(8) 0.1863(3)
O5 O -0.3751(8) 0.5418(7) 0.8083(3)
O6 O -0.4938(8) 0.2465(7) 0.8983(3)
N1 N 0.3827(8) 0.4811(8) 0.5759(3)
N2 N 0.5839(9) 0.5455(8) 0.5129(4)
H2 H 0.705(13) 0.443(11) 0.493(5)
N3 N 0.7923(8) 0.7108(8) 0.3155(4)
H3 H 0.645(14) 0.688(10) 0.294(5)
N4 N -0.3532(9) 0.3390(8) 0.8367(4)
C1 C 0.2184(10) 0.1781(9) 0.6825(4)
C2 C 0.0152(10) 0.3096(9) 0.7205(4)
H4 H -0.01420 0.46500 0.69770
C3 C -0.1416(10) 0.2063(9) 0.7924(4)
C4 C -0.1107(10) -0.0217(9) 0.8285(4)
H5 H -0.22480 -0.08700 0.87730
C5 C 0.0939(11) -0.1477(9) 0.7900(4)
H6 H 0.12390 -0.30280 0.81330
C6 C 0.2555(10) -0.0502(9) 0.7177(4)
H7 H 0.39350 -0.13970 0.69170
C7 C 0.406(1) 0.2727(9) 0.6109(4)
H8 H 0.54760 0.17840 0.58990
C8 C 0.5815(9) 0.7607(9) 0.4718(4)
C9 C 0.8153(10) 0.8104(8) 0.4048(4)
H9 H 0.97920 0.73870 0.44100
C10 C 0.8356(10) 1.0581(8) 0.3804(4)
H10 H 0.96800 1.08580 0.32790
H11 H 0.66420 1.13460 0.35440
C11 C 1.0102(9) 0.6514(9) 0.2645(4)
C12 C 1.1411(10) 0.5037(10) 0.1131(4)
C13 C 1.3388(11) 0.3144(10) 0.1611(5)
H12 H 1.45600 0.37080 0.20520
H13 H 1.44250 0.25220 0.10960
H14 H 1.24510 0.19840 0.19950
C14 C 0.9743(12) 0.4190(13) 0.0376(5)
H15 H 0.89000 0.29090 0.07050
H16 H 1.08690 0.37440 -0.01570
H17 H 0.83910 0.53750 0.00970
C15 C 1.2653(12) 0.7072(11) 0.0648(5)
H18 H 1.12790 0.83090 0.04670
H19 H 1.35920 0.67440 0.00520
H20 H 1.38900 0.74780 0.11140
#END
