
#######################################################################
#
#                 Cambridge Crystallographic Data Centre
#                                CCDC
#
#######################################################################
#
# If this CIF has been generated from an entry in the Cambridge
# Structural Database, then it will include bibliographic, chemical,
# crystal, experimental, refinement or atomic coordinate data resulting
# from the CCDC's data processing and validation procedures.
#
#######################################################################

data_CSD_CIF_IPUZEZ
_audit_creation_date 2011-07-17
_audit_creation_method CSD-ConQuest-V1
_database_code_CSD IPUZEZ
_database_code_depnum_ccdc_archive 'CCDC 773051'
_chemical_formula_sum 'C15 H15 N1 O5'
_chemical_formula_moiety
;
C15 H15 N1 O5
;
_journal_coden_Cambridge 24
_journal_volume 52
_journal_year 2011
_journal_page_first 2379
_journal_name_full 'Tetrahedron Lett. '
loop_
_publ_author_name
"Jian-Wu Xie"
"Ping Li"
"Ting Wang"
"Fei-Ting Zhou"
_chemical_name_systematic
;
3-(4-Methoxyphenyl)-2-nitro-3,5,6,7-tetrahydro-1-benzofuran-4(2H)-one
;
_cell_volume   2856.485
_exptl_crystal_colour 'colorless'
_exptl_crystal_density_diffrn 1.345
_exptl_crystal_description 'block'
_diffrn_ambient_temperature 296
#These two values have been output from a single CSD field.
_refine_ls_R_factor_gt 0.0431
_refine_ls_wR_factor_gt 0.0431
_symmetry_cell_setting monoclinic
_symmetry_space_group_name_H-M 'C 2/c'
_symmetry_Int_Tables_number 15
loop_
_symmetry_equiv_pos_site_id
_symmetry_equiv_pos_as_xyz
1 x,y,z
2 -x,y,1/2-z
3 1/2+x,1/2+y,z
4 1/2-x,1/2+y,1/2-z
5 -x,-y,-z
6 x,-y,-1/2+z
7 -1/2-x,-1/2-y,-z
8 -1/2+x,-1/2-y,-1/2+z
_cell_length_a 22.0833(10)
_cell_length_b 7.0950(3)
_cell_length_c 20.918(1)
_cell_angle_alpha 90
_cell_angle_beta 119.360(6)
_cell_angle_gamma 90
_cell_formula_units_Z 8
loop_
_atom_type_symbol
_atom_type_radius_bond
C 0.68
H 0.23
N 0.68
O 0.68
loop_
_atom_site_label
_atom_site_type_symbol
_atom_site_fract_x
_atom_site_fract_y
_atom_site_fract_z
N1 N 0.61514(8) 0.3815(2) 0.38804(10)
O1 O 0.57908(10) 0.2577(2) 0.34799(12)
O2 O 0.67104(8) 0.3587(2) 0.44222(10)
O3 O 0.63729(5) 0.70790(15) 0.40636(5)
O4 O 0.49947(6) 0.73919(16) 0.51477(6)
O5 O 0.26631(6) 0.86773(18) 0.17807(6)
C1 C 0.25811(10) 1.0442(3) 0.14375(11)
H1 H 0.20990 1.06470 0.10950
H2 H 0.28430 1.04600 0.11820
H3 H 0.27460 1.14190 0.18020
C2 C 0.33191(7) 0.8132(2) 0.22922(7)
C3 C 0.39071(7) 0.9222(2) 0.25301(7)
H4 H 0.38780 1.04150 0.23330
C4 C 0.45425(7) 0.85256(19) 0.30657(7)
H5 H 0.49370 0.92720 0.32280
C5 C 0.46037(7) 0.67569(19) 0.33637(7)
C6 C 0.40094(8) 0.5664(2) 0.31051(9)
H6 H 0.40390 0.44560 0.32910
C7 C 0.33740(8) 0.6342(2) 0.25755(9)
H7 H 0.29800 0.55890 0.24080
C8 C 0.52939(7) 0.59945(19) 0.39509(7)
H8 H 0.52230 0.47730 0.41230
C9 C 0.58371(7) 0.5785(2) 0.36852(8)
H9 H 0.56180 0.59970 0.31550
C10 C 0.62845(7) 0.78212(19) 0.46203(7)
C11 C 0.56975(7) 0.7274(2) 0.45959(7)
C12 C 0.55325(8) 0.7849(2) 0.51607(7)
C13 C 0.60955(9) 0.8968(3) 0.57806(8)
H10 H 0.64030 0.81010 0.61600
H11 H 0.58830 0.97710 0.59910
C14 C 0.6523(1) 1.0182(3) 0.55563(10)
H12 H 0.68990 1.07520 0.59910
H13 H 0.62330 1.11890 0.52420
C15 C 0.68252(8) 0.9084(2) 0.51547(9)
H14 H 0.69790 0.99470 0.49030
H15 H 0.72220 0.83530 0.55020
#END
