
#######################################################################
#
#                 Cambridge Crystallographic Data Centre
#                                CCDC
#
#######################################################################
#
# If this CIF has been generated from an entry in the Cambridge
# Structural Database, then it will include bibliographic, chemical,
# crystal, experimental, refinement or atomic coordinate data resulting
# from the CCDC's data processing and validation procedures.
#
#######################################################################

data_CSD_CIF_IQADIN
_audit_creation_date 2004-04-29
_audit_creation_method CSD-ConQuest-V1
_database_code_CSD IQADIN
_database_code_depnum_ccdc_archive 'CCDC 227721'
_chemical_formula_sum 'C28 H23 N3 O4'
_chemical_formula_moiety
;
C28 H23 N3 O4
;
_journal_coden_Cambridge 1336
_journal_volume 5
_journal_year 2003
_journal_page_first 4693
_journal_name_full 'Org.Lett. '
loop_
_publ_author_name
"O.Renaudet"
"J.-L.Reymond"
_chemical_name_systematic
;
3-Hydroxybenzaldehyde 
O-(4-((3-((benzyloxy)iminomethyl)phenoxy)iminomethyl)phenyl)oxime
;
_cell_volume   2357.702
_exptl_crystal_colour 'colorless'
_exptl_crystal_density_diffrn 1.311
_exptl_special_details
;
low protease inhibition

;
_exptl_crystal_description 'plate'
_diffrn_ambient_temperature 153
#These two values have been output from a single CSD field.
_refine_ls_R_factor_gt 0.0578
_refine_ls_wR_factor_gt 0.0578
_symmetry_cell_setting monoclinic
_symmetry_space_group_name_H-M 'P 21/c'
_symmetry_Int_Tables_number 14
loop_
_symmetry_equiv_pos_site_id
_symmetry_equiv_pos_as_xyz
1 x,y,z
2 x,1/2-y,1/2+z
3 -x,-y,-z
4 -x,-1/2+y,-1/2-z
_cell_length_a 10.1436(11)
_cell_length_b 8.0346(6)
_cell_length_c 29.122(4)
_cell_angle_alpha 90
_cell_angle_beta 96.601(10)
_cell_angle_gamma 90
_cell_formula_units_Z 4
loop_
_atom_type_symbol
_atom_type_radius_bond
C 0.68
H 0.23
N 0.68
O 0.68
loop_
_atom_site_label
_atom_site_type_symbol
_atom_site_fract_x
_atom_site_fract_y
_atom_site_fract_z
O1 O -0.14016(14) -0.04837(19) 0.45436(5)
H1 H -0.18890 -0.06850 0.47510
O2 O 0.00209(12) 0.16513(16) 0.25251(4)
O3 O 0.70088(13) -0.01801(17) 0.18703(5)
O4 O 0.72433(14) 0.59593(16) 0.03273(5)
N1 N -0.03746(15) 0.10976(18) 0.29502(5)
N2 N 0.57683(15) 0.06271(18) 0.18745(5)
N3 N 0.71810(16) 0.47332(19) 0.06755(5)
C1 C -0.21669(19) -0.0008(2) 0.41511(6)
C2 C -0.35468(19) 0.0047(2) 0.41190(7)
H2 H -0.39920 -0.02850 0.43740
C3 C -0.4263(2) 0.0587(2) 0.37160(7)
H3 H -0.52040 0.06390 0.36960
C4 C -0.36277(18) 0.1054(2) 0.33402(6)
H4 H -0.41300 0.14430 0.30660
C5 C -0.22507(18) 0.0952(2) 0.33654(6)
C6 C -0.15223(18) 0.0431(2) 0.37745(6)
H5 H -0.05820 0.03760 0.37950
C7 C -0.16003(19) 0.1372(2) 0.29581(6)
H6 H -0.21030 0.18560 0.26960
C8 C 0.13066(17) 0.1212(2) 0.24725(6)
C9 C 0.20743(19) 0.0150(2) 0.27670(6)
H7 H 0.17450 -0.03020 0.30330
C10 C 0.33381(18) -0.0235(2) 0.26620(6)
H8 H 0.38770 -0.09680 0.28590
C11 C 0.38374(18) 0.0424(2) 0.22750(6)
C12 C 0.30446(18) 0.1500(2) 0.19875(6)
H9 H 0.33720 0.19620 0.17230
C13 C 0.17887(18) 0.1894(2) 0.20865(6)
H10 H 0.12510 0.26320 0.18910
C14 C 0.51669(18) -0.0068(2) 0.21859(6)
H11 H 0.56020 -0.09370 0.23660
C15 C 0.77823(18) 0.0455(2) 0.15540(6)
C16 C 0.75023(17) 0.1860(2) 0.12882(6)
H12 H 0.67120 0.24760 0.13090
C17 C 0.84126(17) 0.2355(2) 0.09868(6)
C18 C 0.95770(18) 0.1459(2) 0.09651(6)
H13 H 1.02010 0.18140 0.07660
C19 C 0.98240(19) 0.0051(2) 0.12332(7)
H14 H 1.06140 -0.05690 0.12150
C20 C 0.89322(19) -0.0460(2) 0.15265(7)
H15 H 0.91020 -0.14330 0.17090
C21 C 0.81912(18) 0.3790(2) 0.06797(6)
H16 H 0.88280 0.40290 0.04740
C22 C 0.6343(2) 0.7299(3) 0.03862(8)
H17 H 0.65520 0.78220 0.06940
H18 H 0.54150 0.68930 0.03560
C23 C 0.65388(19) 0.8513(2) 0.00091(6)
C24 C 0.5626(2) 0.8649(2) -0.03812(7)
H19 H 0.48370 0.80030 -0.04060
C25 C 0.5855(2) 0.9718(3) -0.07350(7)
H20 H 0.52280 0.97940 -0.10030
C26 C 0.6982(2) 1.0667(2) -0.07010(8)
H21 H 0.71420 1.13930 -0.09460
C27 C 0.7885(2) 1.0564(2) -0.03095(8)
H22 H 0.86590 1.12400 -0.02820
C28 C 0.7665(2) 0.9483(2) 0.00410(7)
H23 H 0.82970 0.94060 0.03070
#END
