
#######################################################################
#
#                 Cambridge Crystallographic Data Centre
#                                CCDC
#
#######################################################################
#
# If this CIF has been generated from an entry in the Cambridge
# Structural Database, then it will include bibliographic, chemical,
# crystal, experimental, refinement or atomic coordinate data resulting
# from the CCDC's data processing and validation procedures.
#
#######################################################################

data_CSD_CIF_IQEPIE
_audit_creation_date 2011-07-18
_audit_creation_method CSD-ConQuest-V1
_database_code_CSD IQEPIE
_database_code_depnum_ccdc_archive 'CCDC 784375'
_chemical_formula_sum 'C26 H24 N4 O4'
_chemical_formula_moiety
;
C26 H24 N4 O4
;
_journal_coden_Cambridge 1366
_journal_volume 353
_journal_year 2011
_journal_page_first 913
_journal_name_full 'Adv.Synth.Catal. '
loop_
_publ_author_name
"Jian Li"
"Yuejin Liu"
"Chunju Li"
"Xueshun Jia"
_chemical_name_systematic
;
Ethyl 
2-(3,3-dicyano-2-((2,6-dimethylphenyl)imino)-4-(3-nitrophenyl)cyclopentylidene
)propanoate
;
_cell_volume   1240.041
_exptl_crystal_colour 'yellow'
_exptl_crystal_density_diffrn 1.223
_exptl_crystal_description 'prismatic'
_diffrn_ambient_temperature 293
_refine_special_details
;
C26 and C26' disordered over two sites with occupancies 0.60:0.40.

;
#These two values have been output from a single CSD field.
_refine_ls_R_factor_gt 0.0851
_refine_ls_wR_factor_gt 0.0851
_symmetry_cell_setting triclinic
_symmetry_space_group_name_H-M 'P -1'
_symmetry_Int_Tables_number 2
loop_
_symmetry_equiv_pos_site_id
_symmetry_equiv_pos_as_xyz
1 x,y,z
2 -x,-y,-z
_cell_length_a 9.378(3)
_cell_length_b 11.949(4)
_cell_length_c 12.942(5)
_cell_angle_alpha 109.060(6)
_cell_angle_beta 94.761(7)
_cell_angle_gamma 111.591(6)
_cell_formula_units_Z 2
loop_
_atom_type_symbol
_atom_type_radius_bond
C 0.68
H 0.23
N 0.68
O 0.68
loop_
_atom_site_label
_atom_site_type_symbol
_atom_site_fract_x
_atom_site_fract_y
_atom_site_fract_z
N1 N 0.3180(3) 0.8990(3) 0.2248(2)
N2 N -0.2855(7) 0.4530(5) 0.4745(4)
N3 N -0.0367(6) 0.8319(5) 0.3906(5)
N4 N -0.1180(6) 0.6885(7) 0.0317(6)
O1 O -0.1686(7) 0.5313(4) 0.5504(4)
O2 O -0.4061(9) 0.3889(6) 0.4933(4)
O3 O 0.5724(4) 0.8255(3) 0.1051(3)
O4 O 0.6553(3) 0.9069(3) 0.2915(3)
C1 C 0.2364(4) 0.7861(3) 0.2205(3)
C2 C 0.0533(4) 0.7197(3) 0.2154(3)
C3 C 0.0182(7) 0.5693(6) 0.1875(6)
H1 H -0.00730 0.52440 0.10560
C4? C 0.0535(12) 0.6137(11) 0.2664(12)
C5 C 0.1704(5) 0.5742(4) 0.2322(5)
H2 H 0.17820 0.49370 0.19040
H3 H 0.18080 0.58540 0.31050
H4? H 0.12640 0.50180 0.16090
H5? H 0.21320 0.55030 0.28730
C6 C 0.2996(4) 0.6896(4) 0.2203(3)
C7 C 0.4446(4) 0.7016(4) 0.2101(4)
C8 C 0.5082(6) 0.6031(6) 0.2125(7)
H6 H 0.42300 0.52360 0.20550
H7 H 0.58330 0.63710 0.28230
H8 H 0.55860 0.58600 0.15120
C9 C 0.2593(4) 0.9944(4) 0.2264(3)
C10 C 0.2596(4) 1.0820(4) 0.3321(4)
C11 C 0.2052(5) 1.1765(4) 0.3280(5)
H9 H 0.19800 1.23230 0.39480
C12 C 0.1629(5) 1.1897(5) 0.2310(6)
H10 H 0.12780 1.25340 0.23240
C13 C 0.1726(5) 1.1067(5) 0.1287(5)
H11 H 0.14500 1.11660 0.06260
C14 C 0.2233(4) 1.0089(4) 0.1252(4)
C15 C 0.2418(6) 0.9243(5) 0.0166(4)
H12 H 0.14370 0.84950 -0.02170
H13 H 0.32190 0.89630 0.03230
H14 H 0.27150 0.97330 -0.03000
C16 C 0.3182(6) 1.0788(5) 0.4406(4)
H15 H 0.37530 1.02520 0.42860
H16 H 0.23060 1.04340 0.47140
H17 H 0.38680 1.16580 0.49210
C17 C -0.1249(5) 0.4997(5) 0.2313(5)
C18 C -0.1366(5) 0.5122(4) 0.3399(4)
H18 H -0.05070 0.57010 0.39990
C19 C -0.2779(5) 0.4373(4) 0.3587(4)
C20 C -0.4055(5) 0.3466(4) 0.2715(4)
H19 H -0.49880 0.29650 0.28530
C21 C -0.3912(6) 0.3327(4) 0.1652(4)
H20 H -0.47580 0.27130 0.10540
C22 C -0.2557(7) 0.4066(5) 0.1437(5)
H21 H -0.25010 0.39500 0.06970
C23 C 0.0051(5) 0.7882(5) 0.3132(5)
C24 C -0.0432(6) 0.7058(5) 0.1143(5)
C25 C 0.5606(4) 0.8179(4) 0.1944(4)
C26 C 0.7815(7) 1.0201(7) 0.2900(5)
H22? H 0.87120 1.04860 0.35050
H23? H 0.81370 0.99650 0.21970
H24 H 0.76880 1.02190 0.21630
H25 H 0.87860 1.01390 0.30950
C27 C 0.7395(15) 1.1217(15) 0.3019(15)
H26 H 0.72850 1.13200 0.23160
H27 H 0.81960 1.20060 0.35810
H28 H 0.64120 1.10340 0.32440
C28? C 0.791(3) 1.1463(15) 0.3828(17)
H29? H 0.82970 1.21760 0.35850
H30? H 0.86110 1.16590 0.45090
H31? H 0.68790 1.13330 0.39600
#END
