
#######################################################################
#
#                 Cambridge Crystallographic Data Centre
#                                CCDC
#
#######################################################################
#
# If this CIF has been generated from an entry in the Cambridge
# Structural Database, then it will include bibliographic, chemical,
# crystal, experimental, refinement or atomic coordinate data resulting
# from the CCDC's data processing and validation procedures.
#
#######################################################################

data_CSD_CIF_IQIKIC
_audit_creation_date 2004-04-29
_audit_creation_method CSD-ConQuest-V1
_database_code_CSD IQIKIC
_database_code_depnum_ccdc_archive 'CCDC 217042'
_chemical_formula_sum 'C11 H11 N3 O2'
_chemical_formula_moiety
;
C11 H11 N3 O2
;
_journal_coden_Cambridge 177
_journal_volume 2
_journal_year 2004
_journal_page_first 160
_journal_name_full 'Org.Biomol.Chem. '
loop_
_publ_author_name
"J.Siu"
"I.R.Baxendale"
"S.V.Ley"
_chemical_name_systematic
;
trans-4-(\b-(Dimethylamino)vinyl)-3-nitrobenzonitrile
;
_chemical_melting_point 407.15
_cell_volume    537.479
_exptl_crystal_colour 'deep red'
_exptl_crystal_density_diffrn 1.342
_diffrn_ambient_temperature 180
#These two values have been output from a single CSD field.
_refine_ls_R_factor_gt 0.0787
_refine_ls_wR_factor_gt 0.0787
_symmetry_cell_setting triclinic
_symmetry_space_group_name_H-M 'P -1'
_symmetry_Int_Tables_number 2
loop_
_symmetry_equiv_pos_site_id
_symmetry_equiv_pos_as_xyz
1 x,y,z
2 -x,-y,-z
_cell_length_a 7.2055(6)
_cell_length_b 7.8564(7)
_cell_length_c 9.9993(8)
_cell_angle_alpha 101.554(6)
_cell_angle_beta 92.508(6)
_cell_angle_gamma 103.229(3)
_cell_formula_units_Z 2
loop_
_atom_type_symbol
_atom_type_radius_bond
C 0.68
H 0.23
N 0.68
O 0.68
loop_
_atom_site_label
_atom_site_type_symbol
_atom_site_fract_x
_atom_site_fract_y
_atom_site_fract_z
O1 O 0.2754(4) 0.7115(3) 0.8951(3)
O2 O 0.1962(4) 0.6083(3) 1.0725(2)
N1 N 0.5797(5) 0.2837(4) 0.4672(3)
N2 N 0.2535(4) 0.5897(4) 0.9580(3)
N3 N 0.1262(4) 0.1055(4) 1.2664(3)
C1 C 0.4245(5) 0.2768(4) 0.6960(3)
C2 C 0.3983(5) 0.1222(5) 0.7510(3)
H1 H 0.43190 0.01840 0.70230
C3 C 0.3249(5) 0.1216(4) 0.8738(3)
H2 H 0.30790 0.01510 0.90800
C4 C 0.2718(4) 0.2716(4) 0.9546(3)
C5 C 0.2970(4) 0.4230(4) 0.8926(3)
C6 C 0.3732(4) 0.4257(4) 0.7669(3)
H3 H 0.38970 0.53020 0.73030
C7 C 0.5106(5) 0.2818(4) 0.5695(3)
C8 C 0.2020(5) 0.2613(4) 1.0854(3)
H4 H 0.16300 0.36170 1.13480
C9 C 0.1879(4) 0.1159(5) 1.1438(3)
H5 H 0.22480 0.01500 1.09320
C10 C 0.0666(6) 0.2540(5) 1.3516(4)
H6 H -0.03620 0.28420 1.30060
H7 H 0.17590 0.35840 1.37620
H8 H 0.02020 0.21900 1.43520
C11 C 0.1208(5) -0.0520(5) 1.3221(4)
H9 H 0.16340 -0.14160 1.25560
H10 H -0.01040 -0.10210 1.34120
H11 H 0.20580 -0.01890 1.40730
#END
