
#######################################################################
#
#                 Cambridge Crystallographic Data Centre
#                                CCDC
#
#######################################################################
#
# If this CIF has been generated from an entry in the Cambridge
# Structural Database, then it will include bibliographic, chemical,
# crystal, experimental, refinement or atomic coordinate data resulting
# from the CCDC's data processing and validation procedures.
#
#######################################################################

data_CSD_CIF_IQILAW02
_audit_creation_date 2012-03-05
_audit_creation_method CSD-ConQuest-V1
_database_code_CSD IQILAW02
_database_code_depnum_ccdc_archive 'CCDC 830151'
_chemical_formula_sum 'C14 H20 N2 O3'
_chemical_formula_moiety
;
C14 H20 N2 O3
;
_journal_coden_Cambridge 1350
_journal_volume 14
_journal_year 2012
_journal_page_first 362
_journal_name_full 'CrystEngComm '
loop_
_publ_author_name
"C.Puigjaner"
"R.Barbas"
"A.Portell"
"I.Valverde"
"X.Vila"
"X.Alcobe"
"M.Font-Bardia"
"R.Prohens"
_chemical_name_systematic
;
N-Hydroxy-N'-phenyloctanediamide
;
_chemical_name_common
;
Vorinostat; Zolinza; DrugBank: DB02546
;
_cell_volume   1355.732
_exptl_crystal_colour 'colorless'
_exptl_crystal_density_diffrn 1.295
_exptl_special_details
;
C2 polymorph II
inhibits histone deacetylases

;
_exptl_crystal_description 'prism'
_diffrn_ambient_temperature 293
#These two values have been output from a single CSD field.
_refine_ls_R_factor_gt 0.0519
_refine_ls_wR_factor_gt 0.0519
_symmetry_cell_setting monoclinic
_symmetry_space_group_name_H-M 'C 2'
_symmetry_Int_Tables_number 5
loop_
_symmetry_equiv_pos_site_id
_symmetry_equiv_pos_as_xyz
1 x,y,z
2 -x,y,-z
3 1/2+x,1/2+y,z
4 1/2-x,1/2+y,-z
_cell_length_a 15.027(11)
_cell_length_b 5.096(3)
_cell_length_c 18.258(7)
_cell_angle_alpha 90
_cell_angle_beta 104.15(3)
_cell_angle_gamma 90
_cell_formula_units_Z 4
loop_
_atom_type_symbol
_atom_type_radius_bond
C 0.68
H 0.23
N 0.68
O 0.68
loop_
_atom_site_label
_atom_site_type_symbol
_atom_site_fract_x
_atom_site_fract_y
_atom_site_fract_z
O1 O 0.63410(13) 0.1173(3) 0.56466(10)
O2 O 0.64414(13) -0.1767(4) 0.04461(10)
O3 O 0.67880(14) 0.2290(4) -0.0376(1)
H1 H 0.72630 0.14270 -0.02750
N1 N 0.63137(13) -0.3093(4) 0.59959(10)
H2 H 0.62820 -0.46740 0.58270
N2 N 0.64623(14) 0.2569(4) 0.02681(10)
H3 H 0.63900 0.41070 0.04380
C1 C 0.68217(15) -0.0814(5) 0.72187(12)
H4 H 0.71270 0.04390 0.70010
C2 C 0.68553(15) -0.0697(4) 0.79791(12)
H5 H 0.71820 0.06420 0.82720
C3 C 0.64052(16) -0.2561(5) 0.83103(13)
H6 H 0.64220 -0.24540 0.88220
C4 C 0.59331(16) -0.4569(5) 0.78799(13)
H7 H 0.56390 -0.58350 0.81030
C5 C 0.58957(15) -0.4708(5) 0.71083(12)
H8 H 0.55800 -0.60670 0.68160
C6 C 0.63355(14) -0.2791(4) 0.67799(11)
C7 C 0.63371(15) -0.1160(4) 0.54917(11)
C8 C 0.64061(17) -0.2157(5) 0.47260(12)
H9 H 0.70410 -0.26110 0.47560
H10 H 0.60470 -0.37540 0.46140
C9 C 0.60875(16) -0.0271(5) 0.40782(12)
H11 H 0.63710 0.14270 0.42160
H12 H 0.54280 -0.00500 0.39830
C10 C 0.63282(15) -0.1236(5) 0.33595(12)
H13 H 0.69910 -0.12540 0.34430
H14 H 0.61150 -0.30300 0.32650
C11 C 0.59270(14) 0.0387(5) 0.26602(12)
H15 H 0.60950 0.22110 0.27640
H16 H 0.52630 0.02710 0.25430
C12 C 0.62598(16) -0.0518(5) 0.19776(12)
H17 H 0.61190 -0.23660 0.18900
H18 H 0.69210 -0.03170 0.20850
C13 C 0.58135(17) 0.1044(5) 0.12556(12)
H19 H 0.51670 0.05970 0.10960
H20 H 0.58590 0.29060 0.13690
C14 C 0.62649(15) 0.0479(5) 0.06168(12)
#END
