
#######################################################################
#
#                 Cambridge Crystallographic Data Centre
#                                CCDC
#
#######################################################################
#
# If this CIF has been generated from an entry in the Cambridge
# Structural Database, then it will include bibliographic, chemical,
# crystal, experimental, refinement or atomic coordinate data resulting
# from the CCDC's data processing and validation procedures.
#
#######################################################################

data_CSD_CIF_IQONOS
_audit_creation_date 2011-06-16
_audit_creation_method CSD-ConQuest-V1
_database_code_CSD IQONOS
_database_code_depnum_ccdc_archive 'CCDC 771916'
_chemical_formula_sum 'C20 H19 N1 O7'
_chemical_formula_moiety
;
C20 H19 N1 O7
;
_journal_coden_Cambridge 1078
_journal_year 2010
_journal_name_full 'CSD Communication(Private Communication) '
loop_
_publ_author_name
"H.Reinke"
"B.Kuhla"
"K.Peseke"
_chemical_name_systematic
;
2-(2-(Benzyloxy)-5-hydroxy-3,7-dioxabicyclo[4.1.0]hept-5-yl)-1-(4-nitrophenyl)
ethanone
;
_cell_volume    918.886
_exptl_crystal_colour 'colorless'
_exptl_crystal_density_diffrn 1.393
_exptl_special_details
;
contribution from Institut fur Chemie, Universitat Rostock, 
Albert-Einstein-Str. 3a, D-18059 Rostock, Germany
;
_exptl_crystal_description 'prism'
_diffrn_ambient_temperature 293
#These two values have been output from a single CSD field.
_refine_ls_R_factor_gt 0.0501
_refine_ls_wR_factor_gt 0.0501
_symmetry_cell_setting monoclinic
_symmetry_space_group_name_H-M 'P 21'
_symmetry_Int_Tables_number 4
loop_
_symmetry_equiv_pos_site_id
_symmetry_equiv_pos_as_xyz
1 x,y,z
2 -x,1/2+y,-z
_cell_length_a 5.236(2)
_cell_length_b 10.873(4)
_cell_length_c 16.144(6)
_cell_angle_alpha 90
_cell_angle_beta 91.22(2)
_cell_angle_gamma 90
_cell_formula_units_Z 2
loop_
_atom_type_symbol
_atom_type_radius_bond
C 0.68
H 0.23
N 0.68
O 0.68
loop_
_atom_site_label
_atom_site_type_symbol
_atom_site_fract_x
_atom_site_fract_y
_atom_site_fract_z
O1 O 0.3630(5) 0.4818(3) 0.25481(16)
O2 O 0.5313(5) 0.4058(3) 0.38025(15)
O3 O 0.2452(5) 0.2354(2) 0.20757(16)
O4 O 0.8475(5) 0.3549(3) 0.12005(17)
H1 H 0.94660 0.34020 0.15880
O5 O 0.4500(6) 0.1928(3) 0.02627(18)
O6 O -0.5199(7) 0.4666(4) -0.2384(2)
O7 O -0.4990(8) 0.2759(3) -0.2696(2)
N1 N -0.4259(7) 0.3655(4) -0.2297(2)
C1 C 0.3513(8) 0.3881(4) 0.3153(2)
H2 H 0.17990 0.38780 0.33850
C2 C 0.4029(7) 0.2645(4) 0.2796(2)
H3 H 0.43830 0.19750 0.31880
C3 C 0.5160(7) 0.2541(4) 0.1967(2)
H4 H 0.61760 0.18010 0.18670
C4 C 0.5968(7) 0.3708(4) 0.1506(2)
C5 C 0.5969(8) 0.4774(4) 0.2113(3)
H5 H 0.73840 0.46820 0.25060
H6 H 0.62010 0.55390 0.18150
C6 C 0.4237(7) 0.3993(4) 0.0759(2)
H7 H 0.26550 0.43330 0.09610
H8 H 0.50500 0.46300 0.04370
C7 C 0.3574(8) 0.2940(4) 0.0183(2)
C8 C 0.1635(8) 0.3189(4) -0.0496(2)
C9 C 0.0763(9) 0.4357(4) -0.0696(2)
H9 H 0.14590 0.50390 -0.04260
C10 C -0.1158(9) 0.4518(4) -0.1302(3)
H10 H -0.17500 0.52990 -0.14390
C11 C -0.2151(8) 0.3488(4) -0.1690(2)
C12 C -0.1297(8) 0.2322(4) -0.1516(3)
H11 H -0.19660 0.16460 -0.17990
C13 C 0.0584(8) 0.2176(4) -0.0908(3)
H12 H 0.11570 0.13900 -0.07740
C14 C 0.4714(10) 0.5115(5) 0.4306(3)
H13 H 0.31080 0.49810 0.45810
H14 H 0.45400 0.58390 0.39590
C15 C 0.6813(9) 0.5307(5) 0.4940(3)
C16 C 0.8139(11) 0.6407(5) 0.4982(3)
H15 H 0.77760 0.70330 0.46050
C17 C 1.0034(11) 0.6568(6) 0.5598(4)
H16 H 1.08990 0.73130 0.56370
C18 C 1.0619(11) 0.5657(7) 0.6134(4)
H17 H 1.19070 0.57720 0.65320
C19 C 0.9351(11) 0.4577(7) 0.6097(3)
H18 H 0.97540 0.39540 0.64730
C20 C 0.7442(11) 0.4396(5) 0.5499(3)
H19 H 0.65780 0.36490 0.54760
#END
