
#######################################################################
#
#                 Cambridge Crystallographic Data Centre
#                                CCDC
#
#######################################################################
#
# If this CIF has been generated from an entry in the Cambridge
# Structural Database, then it will include bibliographic, chemical,
# crystal, experimental, refinement or atomic coordinate data resulting
# from the CCDC's data processing and validation procedures.
#
#######################################################################

data_CSD_CIF_IQONEI
_audit_creation_date 2011-06-16
_audit_creation_method CSD-ConQuest-V1
_database_code_CSD IQONEI
_database_code_depnum_ccdc_archive 'CCDC 771914'
_chemical_formula_sum 'C17 H18 N2 O4'
_chemical_formula_moiety
;
C17 H18 N2 O4
;
_journal_coden_Cambridge 1078
_journal_year 2010
_journal_name_full 'CSD Communication(Private Communication) '
loop_
_publ_author_name
"H.Reinke"
"L.Goetze"
"K.Peseke"
_chemical_name_systematic
;
9-Methyl-11-(5-methyl-2-furyl)-12-nitro-13-oxa-8-azatricyclo[7.3.1.0^2,7^]trid
eca-2,4,6-triene
;
_cell_volume   1590.032
_exptl_crystal_colour 'yellow'
_exptl_crystal_density_diffrn 1.313
_exptl_special_details
;
contribution from Institut fur Chemie, Universitat Rostock, 
Albert-Einstein-Str. 3a, D-18059 Rostock, Germany
;
_exptl_crystal_description 'plate'
_diffrn_ambient_temperature 293
#These two values have been output from a single CSD field.
_refine_ls_R_factor_gt 0.0533
_refine_ls_wR_factor_gt 0.0533
_symmetry_cell_setting monoclinic
_symmetry_space_group_name_H-M 'P 21/n'
_symmetry_Int_Tables_number 14
loop_
_symmetry_equiv_pos_site_id
_symmetry_equiv_pos_as_xyz
1 x,y,z
2 1/2-x,1/2+y,1/2-z
3 -x,-y,-z
4 -1/2+x,-1/2-y,-1/2+z
_cell_length_a 7.654(2)
_cell_length_b 16.043(2)
_cell_length_c 13.145(2)
_cell_angle_alpha 90
_cell_angle_beta 99.91
_cell_angle_gamma 90
_cell_formula_units_Z 4
loop_
_atom_type_symbol
_atom_type_radius_bond
C 0.68
H 0.23
N 0.68
O 0.68
loop_
_atom_site_label
_atom_site_type_symbol
_atom_site_fract_x
_atom_site_fract_y
_atom_site_fract_z
O1 O 0.6914(3) -0.10404(13) 0.35473(15)
O2 O 0.7187(5) 0.06143(17) 0.50323(18)
O3 O 0.6760(6) 0.1697(2) 0.4087(2)
O4 O 0.9929(3) 0.12471(14) 0.21981(15)
N1 N 0.6891(4) -0.16017(17) 0.1895(2)
H1 H 0.75890 -0.17260 0.14400
N2 N 0.6985(4) 0.0954(2) 0.4200(2)
C1 C 0.8029(5) -0.1293(2) 0.2814(2)
C2 C 0.9110(5) -0.05366(19) 0.2558(2)
H2 H 1.03270 -0.07080 0.25630
H3 H 0.86300 -0.03410 0.18680
C3 C 0.9088(4) 0.0179(2) 0.3323(2)
H4 H 0.95050 -0.00410 0.40180
C4 C 0.7147(4) 0.04449(19) 0.3266(2)
H5 H 0.68050 0.07930 0.26510
C5 C 0.5906(5) -0.03215(19) 0.3178(2)
H6 H 0.50220 -0.02270 0.36230
C6 C 0.9169(6) -0.1998(2) 0.3335(3)
H7 H 0.99190 -0.17910 0.39440
H8 H 0.98890 -0.22170 0.28680
H9 H 0.84210 -0.24310 0.35240
C7 C 0.4937(5) -0.0454(2) 0.2090(2)
C8 C 0.5428(5) -0.1112(2) 0.1498(2)
C9 C 0.4437(6) -0.1264(2) 0.0520(3)
H10 H 0.47360 -0.17050 0.01240
C10 C 0.3021(6) -0.0759(3) 0.0143(3)
H11 H 0.23610 -0.08690 -0.05050
C11 C 0.2554(6) -0.0090(3) 0.0708(3)
H12 H 0.16100 0.02540 0.04380
C12 C 0.3514(5) 0.0055(2) 0.1675(3)
H13 H 0.32080 0.05020 0.20600
C13 C 1.0246(5) 0.0894(2) 0.3165(2)
C14 C 1.1522(5) 0.1324(2) 0.3773(3)
H14 H 1.19720 0.12160 0.44640
C15 C 1.2060(5) 0.1979(2) 0.3157(3)
H15 H 1.29320 0.23760 0.33700
C16 C 1.1072(5) 0.1915(2) 0.2214(3)
C17 C 1.0975(6) 0.2372(3) 0.1225(3)
H16 H 1.16210 0.28860 0.13460
H17 H 0.97580 0.24890 0.09440
H18 H 1.14840 0.20370 0.07460
#END
