
#######################################################################
#
#                 Cambridge Crystallographic Data Centre
#                                CCDC
#
#######################################################################
#
# If this CIF has been generated from an entry in the Cambridge
# Structural Database, then it will include bibliographic, chemical,
# crystal, experimental, refinement or atomic coordinate data resulting
# from the CCDC's data processing and validation procedures.
#
#######################################################################

data_CSD_CIF_IQOPOT
_audit_creation_date 2004-04-29
_audit_creation_method CSD-ConQuest-V1
_database_code_CSD IQOPOT
_database_code_depnum_ccdc_archive 'CCDC 227979'
_chemical_formula_sum 'C31 H29 N3 O5'
_chemical_formula_moiety
;
C31 H29 N3 O5
;
_journal_coden_Cambridge 1078
_journal_year 2004
_journal_name_full 'CSD Communication(Private Communication) '
loop_
_publ_author_name
"M.Nieger"
"A.Schallenberg"
"H.Wamhoff"
_chemical_name_systematic
;
[(cyanomethoxy)imino](2,2-dimethyl-6[(trityloxy)methyl]tetrahydrofuro(3,4-d)(1
,3)dioxol-4-yl)acetonitrile
;
_chemical_name_common
;
2-(2',3'-O-Isopropylidene-5'-O-tritylribofuranosyl)-2-cyanomethylene-oximinoac
etonitrile
;
_cell_volume   2787.845
_exptl_crystal_colour 'colorless'
_exptl_crystal_density_diffrn 1.247
_exptl_special_details
;
contribution from Department of Inorganic Chemistry, Universitat of Bonn, 
Gerhard-Domagk-Str. 1, D-53121 Bonn, Germany
;
_exptl_crystal_description 'prisms'
_diffrn_ambient_temperature 293
#These two values have been output from a single CSD field.
_refine_ls_R_factor_gt 0.0416
_refine_ls_wR_factor_gt 0.0416
_symmetry_cell_setting orthorhombic
_symmetry_space_group_name_H-M 'P 21 21 21'
_symmetry_Int_Tables_number 19
loop_
_symmetry_equiv_pos_site_id
_symmetry_equiv_pos_as_xyz
1 x,y,z
2 1/2-x,-y,1/2+z
3 -x,1/2+y,1/2-z
4 1/2+x,1/2-y,-z
_cell_length_a 8.265(1)
_cell_length_b 11.305(1)
_cell_length_c 29.837(1)
_cell_angle_alpha 90
_cell_angle_beta 90
_cell_angle_gamma 90
_cell_formula_units_Z 4
loop_
_atom_type_symbol
_atom_type_radius_bond
C 0.68
H 0.23
N 0.68
O 0.68
loop_
_atom_site_label
_atom_site_type_symbol
_atom_site_fract_x
_atom_site_fract_y
_atom_site_fract_z
C1 C 0.2944(4) 0.9000(2) 0.14098(10)
H1 H 0.1860(4) 0.8688(2) 0.13483(10)
C2 C 0.3640(4) 0.8375(2) 0.18178(9)
H2 H 0.2791(4) 0.8016(2) 0.20025(9)
C3 C 0.4782(3) 0.7442(2) 0.16217(9)
H3 H 0.4522(3) 0.6643(2) 0.17261(9)
C4 C 0.4645(3) 0.7557(2) 0.11173(9)
H4 H 0.5740(3) 0.7540(2) 0.09915(9)
O1 O 0.3984(3) 0.8723(2) 0.10436(6)
C5 C 0.2859(4) 1.0331(2) 0.14415(10)
N1 N 0.1446(3) 1.0781(2) 0.14847(9)
O2 O 0.1519(3) 1.2021(2) 0.14986(8)
C6 C -0.0097(5) 1.2450(3) 0.15468(12)
H5 H -0.0804(5) 1.2026(3) 0.13432(12)
H6 H -0.0131(5) 1.3282(3) 0.14675(12)
C7 C -0.0672(4) 1.2300(3) 0.20031(14)
N2 N -0.1080(5) 1.2187(3) 0.23583(13)
C8 C 0.4305(4) 1.1009(3) 0.13971(11)
N3 N 0.5451(4) 1.1556(3) 0.13476(11)
O3 O 0.4655(3) 0.9133(2) 0.20724(7)
C9 C 0.6142(4) 0.8513(3) 0.21526(11)
C10 C 0.7504(6) 0.9379(4) 0.2179(2)
H7 H 0.7357(23) 0.988(2) 0.2435(7)
H8 H 0.7520(27) 0.9854(21) 0.1912(5)
H9 H 0.8510(7) 0.8961(4) 0.2206(12)
C11 C 0.5990(5) 0.7737(4) 0.25621(12)
H10 H 0.5852(34) 0.8224(4) 0.2823(2)
H11 H 0.6951(16) 0.7268(19) 0.2594(6)
H12 H 0.5069(22) 0.7226(18) 0.2529(4)
O4 O 0.6333(2) 0.7813(2) 0.17616(7)
C12 C 0.3666(3) 0.6615(2) 0.08892(10)
H13 H 0.3413(3) 0.6860(2) 0.05857(10)
H14 H 0.4289(3) 0.5889(2) 0.08736(10)
O5 O 0.2197(2) 0.6409(2) 0.11326(6)
C13 C 0.0752(3) 0.6148(2) 0.08740(9)
C14 C -0.0472(3) 0.5692(2) 0.12205(10)
C15 C -0.1875(4) 0.5140(3) 0.10816(12)
H15 H -0.2090(4) 0.5065(3) 0.07770(12)
C16 C -0.2978(4) 0.4691(3) 0.13943(14)
H16 H -0.3912(4) 0.4311(3) 0.12970(14)
C17 C -0.2683(4) 0.4812(3) 0.18429(13)
H17 H -0.3418(4) 0.4518(3) 0.20512(13)
C18 C -0.1312(5) 0.5361(3) 0.19832(12)
H18 H -0.1113(5) 0.5439(3) 0.22886(12)
C19 C -0.0206(4) 0.5807(2) 0.16792(10)
H19 H 0.0721(4) 0.6187(2) 0.17817(10)
C20 C 0.0212(3) 0.7320(2) 0.06598(9)
C21 C -0.0869(4) 0.8047(2) 0.08863(11)
H20 H -0.1361(4) 0.7777(2) 0.11474(11)
C22 C -0.1226(4) 0.9174(3) 0.07272(13)
H21 H -0.1973(4) 0.9642(3) 0.08788(13)
C23 C -0.0494(5) 0.9596(3) 0.03523(15)
H22 H -0.0714(5) 1.0358(3) 0.02521(15)
C24 C 0.0573(5) 0.8890(3) 0.01222(13)
H23 H 0.1070(5) 0.9176(3) -0.01357(13)
C25 C 0.0920(4) 0.7753(3) 0.02705(11)
H24 H 0.1629(4) 0.7279(3) 0.01084(11)
C26 C 0.1066(4) 0.5140(2) 0.05447(10)
C27 C 0.1993(4) 0.4182(3) 0.06871(11)
H25 H 0.2491(4) 0.4204(3) 0.09665(11)
C28 C 0.2179(5) 0.3197(3) 0.0417(2)
H26 H 0.2802(5) 0.2562(3) 0.0514(2)
C29 C 0.1444(7) 0.3158(4) 0.0005(2)
H27 H 0.1572(7) 0.2494(4) -0.0176(2)
C30 C 0.0527(6) 0.4084(4) -0.01409(14)
H28 H 0.0032(6) 0.4053(4) -0.04205(14)
C31 C 0.0336(5) 0.5069(3) 0.01280(11)
H29 H -0.0294(5) 0.5696(3) 0.00272(11)
#END
