
#######################################################################
#
#                 Cambridge Crystallographic Data Centre
#                                CCDC
#
#######################################################################
#
# If this CIF has been generated from an entry in the Cambridge
# Structural Database, then it will include bibliographic, chemical,
# crystal, experimental, refinement or atomic coordinate data resulting
# from the CCDC's data processing and validation procedures.
#
#######################################################################

data_CSD_CIF_IQOQUA
_audit_creation_date 2004-04-29
_audit_creation_method CSD-ConQuest-V1
_database_code_CSD IQOQUA
_database_code_depnum_ccdc_archive 'CCDC 227985'
_chemical_formula_sum 'C36 H40 N2 O7'
_chemical_formula_moiety
;
C36 H40 N2 O7
;
_journal_coden_Cambridge 1078
_journal_year 2004
_journal_name_full 'CSD Communication(Private Communication) '
loop_
_publ_author_name
"M.Nieger"
"A.Schallenberg"
"H.Wamhoff"
_chemical_name_systematic
;
3-methylbutyl 
(((1-cyano(2,2-dimethyl-6-((trityloxy)methyl)tetrahydrofuro(3,4-d)(1,3)dioxol-
4-yl)methylene)amino)oxy)acetate
;
_cell_volume   1662.502
_exptl_crystal_colour 'colorless'
_exptl_crystal_density_diffrn 1.224
_exptl_special_details
;
contribution from Department of Inorganic Chemistry, Universitat of Bonn, 
Gerhard-Domagk-Str. 1, D-53121 Bonn, Germany
;
_exptl_crystal_description 'blocks'
_diffrn_ambient_temperature 293
#These two values have been output from a single CSD field.
_refine_ls_R_factor_gt 0.0576
_refine_ls_wR_factor_gt 0.0576
_symmetry_cell_setting monoclinic
_symmetry_space_group_name_H-M 'P 21'
_symmetry_Int_Tables_number 4
loop_
_symmetry_equiv_pos_site_id
_symmetry_equiv_pos_as_xyz
1 x,y,z
2 -x,1/2+y,-z
_cell_length_a 9.107(4)
_cell_length_b 22.595(12)
_cell_length_c 9.260(4)
_cell_angle_alpha 90
_cell_angle_beta 119.25(3)
_cell_angle_gamma 90
_cell_formula_units_Z 2
loop_
_atom_type_symbol
_atom_type_radius_bond
C 0.68
H 0.23
N 0.68
O 0.68
loop_
_atom_site_label
_atom_site_type_symbol
_atom_site_fract_x
_atom_site_fract_y
_atom_site_fract_z
O1 O 0.0544(2) 0.02811(9) 0.7205(3)
O2 O -0.1416(3) 0.15037(9) 0.6049(3)
O3 O -0.1412(3) 0.10787(9) 0.8238(3)
O4 O -0.0386(2) -0.09247(8) 0.7427(2)
O5 O 0.2130(3) 0.12543(12) 0.3986(3)
O6 O 0.3985(4) 0.02865(15) 0.4080(3)
O7 O 0.2855(4) 0.03092(15) 0.1329(3)
N1 N 0.2852(5) 0.16826(19) 0.7699(5)
N2 N 0.0992(3) 0.08743(13) 0.4078(4)
C1 C -0.0302(4) 0.05724(13) 0.5651(4)
H1 H -0.07470 0.02720 0.47760
C2 C -0.1791(4) 0.09064(13) 0.5612(4)
H2 H -0.28220 0.08600 0.45470
C3 C -0.1958(4) 0.06224(13) 0.7038(4)
H3 H -0.31110 0.04940 0.66920
C4 C -0.0721(4) 0.01125(13) 0.7631(4)
H4 H -0.02070 0.00760 0.88360
C5 C -0.1575(4) -0.04606(13) 0.6830(4)
H5 H -0.24700 -0.05430 0.70830
H6 H -0.20670 -0.04300 0.56380
C6 C -0.1807(4) 0.16209(14) 0.7345(4)
C7 C -0.0652(5) 0.21002(17) 0.8457(6)
H7 H -0.09130 0.24670 0.78610
H8 H 0.04950 0.19940 0.88100
H9 H -0.08040 0.21430 0.94070
C8 C -0.3662(5) 0.17706(17) 0.6631(5)
H10 H -0.39010 0.21370 0.60350
H11 H -0.39230 0.18080 0.75140
H12 H -0.43340 0.14610 0.58930
C9 C -0.0860(3) -0.14645(12) 0.6478(4)
C10 C -0.0885(4) -0.13654(14) 0.4825(4)
C11 C -0.1818(4) -0.17178(16) 0.3436(4)
H13 H -0.25110 -0.20120 0.34730
C12 C -0.1725(6) -0.1635(2) 0.2006(5)
H14 H -0.23520 -0.18740 0.10890
C13 C -0.0709(6) -0.1201(2) 0.1934(6)
H15 H -0.06750 -0.11370 0.09590
C14 C 0.0253(5) -0.08644(19) 0.3303(5)
H16 H 0.09740 -0.05810 0.32650
C15 C 0.0169(4) -0.09392(16) 0.4735(4)
H17 H 0.08220 -0.07030 0.56510
C16 C 0.0574(3) -0.19053(13) 0.7469(4)
C17 C 0.1954(4) -0.17482(15) 0.8978(4)
H18 H 0.19970 -0.13760 0.94260
C18 C 0.3265(5) -0.21461(19) 0.9815(5)
H19 H 0.41950 -0.20320 1.08050
C19 C 0.3214(4) -0.26965(18) 0.9215(5)
H20 H 0.40930 -0.29600 0.97940
C20 C 0.1858(5) -0.28603(17) 0.7752(5)
H21 H 0.18110 -0.32370 0.73270
C21 C 0.0548(5) -0.24641(15) 0.6899(5)
H22 H -0.03740 -0.25830 0.59100
C22 C -0.2549(4) -0.16793(13) 0.6301(4)
C23 C -0.2571(4) -0.20200(16) 0.7526(4)
H23 H -0.15650 -0.21620 0.83890
C24 C -0.4085(5) -0.2155(2) 0.7488(5)
H24 H -0.40830 -0.23880 0.83170
C25 C -0.5569(5) -0.1946(2) 0.6237(6)
H25 H -0.65740 -0.20310 0.62230
C26 C -0.5578(4) -0.16133(18) 0.5015(6)
H26 H -0.65950 -0.14730 0.41670
C27 C -0.4063(4) -0.14764(16) 0.5007(5)
H27 H -0.40820 -0.12550 0.41520
C28 C 0.0942(4) 0.09467(14) 0.5442(4)
C29 C 0.1973(4) 0.13551(16) 0.6694(5)
C30 C 0.2212(5) 0.10968(19) 0.2536(5)
H28 H 0.27810 0.14080 0.22770
H29 H 0.10810 0.10600 0.16100
C31 C 0.3140(4) 0.05209(18) 0.2775(4)
C32 C 0.3646(8) -0.0246(2) 0.1309(8)
H30 H 0.38160 -0.04790 0.22580
H31 H 0.28820 -0.04640 0.03220
C33 C 0.5207(9) -0.0188(3) 0.1341(10)
H32 H 0.56500 -0.05810 0.13760
H33 H 0.59850 0.00110 0.23590
C34 C 0.5179(7) 0.0146(3) -0.0098(7)
H34 H 0.43570 0.04680 -0.04150
C35 C 0.6882(9) 0.0413(4) 0.0486(8)
H35 H 0.71760 0.06530 0.14460
H36 H 0.68620 0.06540 -0.03770
H37 H 0.76980 0.01030 0.07640
C36 C 0.4722(9) -0.0228(5) -0.1598(9)
H38 H 0.36310 -0.03990 -0.19750
H39 H 0.55400 -0.05370 -0.13200
H40 H 0.47040 0.00140 -0.24590
#END
