
#######################################################################
#
#                 Cambridge Crystallographic Data Centre
#                                CCDC
#
#######################################################################
#
# If this CIF has been generated from an entry in the Cambridge
# Structural Database, then it will include bibliographic, chemical,
# crystal, experimental, refinement or atomic coordinate data resulting
# from the CCDC's data processing and validation procedures.
#
#######################################################################

data_CSD_CIF_IQOQUB
_audit_creation_date 2011-06-24
_audit_creation_method CSD-ConQuest-V1
_database_code_CSD IQOQUB
_database_code_depnum_ccdc_archive 'CCDC 799862'
_chemical_formula_sum 'C26 H21 N3 O7'
_chemical_formula_moiety
;
C26 H21 N3 O7
;
_journal_coden_Cambridge 1078
_journal_year 2010
_journal_name_full 'CSD Communication(Private Communication) '
loop_
_publ_author_name
"H.Reinke"
"H.Schulz"
"K.Peseke"
_chemical_name_systematic
;
2-(Methyl-4,6-O-benzylidene-2,3-dideoxy-\a-D-erythro-hex-2-eno-pyranosid-2-yl)
-2-[1-(4-nitro-phenyl)-3-oxo-propenyl]malononitrile
;
_chemical_name_common
;
(6-Methoxy-2-phenyl-4,4a,6,8a-tetrahydropyrano[3,2-d][1,3]dioxin-7-yl)(1-(4-ni
trophenyl)-3-oxoprop-1-en-1-yl)malononitrile
;
_chemical_melting_point 409
_cell_volume   1217.187
_exptl_crystal_colour 'colorless'
_exptl_crystal_density_diffrn 1.33
_exptl_special_details
;
contribution from Institut fur Chemie, Universitat Rostock, 
Albert-Einstein-Str. 3a, D-18059 Rostock, Germany
;
_exptl_crystal_description 'block'
_diffrn_ambient_temperature 293
#These two values have been output from a single CSD field.
_refine_ls_R_factor_gt 0.0379
_refine_ls_wR_factor_gt 0.0379
_symmetry_cell_setting monoclinic
_symmetry_space_group_name_H-M 'P 21'
_symmetry_Int_Tables_number 4
loop_
_symmetry_equiv_pos_site_id
_symmetry_equiv_pos_as_xyz
1 x,y,z
2 -x,1/2+y,-z
_cell_length_a 8.355(1)
_cell_length_b 14.891(2)
_cell_length_c 9.975(2)
_cell_angle_alpha 90
_cell_angle_beta 101.25(1)
_cell_angle_gamma 90
_cell_formula_units_Z 2
loop_
_atom_type_symbol
_atom_type_radius_bond
C 0.68
H 0.23
N 0.68
O 0.68
loop_
_atom_site_label
_atom_site_type_symbol
_atom_site_fract_x
_atom_site_fract_y
_atom_site_fract_z
O1 O -0.08017(16) 0.08017(10) 0.53503(14)
O2 O 0.30142(16) 0.18405(10) 0.49776(13)
O3 O 0.11994(18) 0.18924(12) 0.28431(14)
O4 O -0.16757(15) 0.18267(11) 0.68349(15)
O5 O -0.0825(3) 0.42150(13) 1.0937(2)
O6 O 0.4988(4) 0.48974(18) 0.5791(2)
O7 O 0.6971(3) 0.42499(19) 0.7155(3)
N1 N 0.3658(3) 0.07923(16) 1.0534(2)
N2 N -0.1532(2) 0.08084(15) 0.99676(19)
N3 N 0.5517(4) 0.43918(17) 0.6737(3)
C1 C -0.0801(2) 0.10395(14) 0.67248(19)
H1 H -0.12950 0.05490 0.71580
C2 C 0.0892(2) 0.12139(13) 0.75444(18)
C3 C 0.2191(2) 0.12611(13) 0.69730(18)
H2 H 0.32200 0.13420 0.75150
C4 C 0.2004(2) 0.11838(14) 0.54574(18)
H3 H 0.23110 0.05790 0.52120
C5 C 0.0263(2) 0.13796(15) 0.4785(2)
H4 H 0.00110 0.20050 0.49690
C6 C 0.0108(3) 0.12558(18) 0.3264(2)
H5 H 0.04070 0.06490 0.30600
H6 H -0.10040 0.13670 0.27950
C7 C 0.2848(2) 0.17739(16) 0.35245(19)
H7 H 0.32500 0.11890 0.32840
C8 C -0.3416(3) 0.1710(2) 0.6515(3)
H8 H -0.37030 0.13290 0.57280
H9 H -0.39340 0.22840 0.63250
H10 H -0.37740 0.14380 0.72790
C9 C 0.0978(2) 0.14537(13) 0.90605(18)
C10 C 0.2488(3) 0.10780(14) 0.98987(19)
C11 C -0.0429(3) 0.10637(14) 0.9572(2)
C12 C 0.0978(2) 0.24945(13) 0.92703(19)
C13 C -0.0034(3) 0.28862(15) 0.9973(2)
H11 H -0.07960 0.25350 1.02980
C14 C 0.0020(3) 0.38525(16) 1.0249(3)
H12 H 0.07420 0.42040 0.98740
C15 C 0.2168(3) 0.30054(14) 0.8637(2)
C16 C 0.3817(3) 0.30263(17) 0.9242(3)
H13 H 0.41810 0.27260 1.00620
C17 C 0.4915(3) 0.34894(18) 0.8636(3)
H14 H 0.60170 0.35070 0.90390
C18 C 0.4341(3) 0.39263(16) 0.7416(3)
C19 C 0.2726(4) 0.39406(17) 0.6808(3)
H15 H 0.23720 0.42580 0.60020
C20 C 0.1627(3) 0.34688(16) 0.7422(2)
H16 H 0.05250 0.34630 0.70190
C21 C 0.3877(3) 0.25087(16) 0.3107(2)
C22 C 0.3303(4) 0.3379(2) 0.2934(3)
H17 H 0.22450 0.35110 0.30340
C23 C 0.4303(4) 0.4056(2) 0.2608(4)
H18 H 0.39090 0.46410 0.24900
C24 C 0.5870(4) 0.3872(2) 0.2459(3)
H19 H 0.65360 0.43280 0.22420
C25 C 0.6443(3) 0.3007(2) 0.2635(3)
H20 H 0.75070 0.28790 0.25460
C26 C 0.5448(3) 0.23176(18) 0.2944(3)
H21 H 0.58370 0.17310 0.30400
#END
