
#######################################################################
#
#                 Cambridge Crystallographic Data Centre
#                                CCDC
#
#######################################################################
#
# If this CIF has been generated from an entry in the Cambridge
# Structural Database, then it will include bibliographic, chemical,
# crystal, experimental, refinement or atomic coordinate data resulting
# from the CCDC's data processing and validation procedures.
#
#######################################################################

data_CSD_CIF_IQOROW
_audit_creation_date 2011-06-24
_audit_creation_method CSD-ConQuest-V1
_database_code_CSD IQOROW
_database_code_depnum_ccdc_archive 'CCDC 811472'
_chemical_formula_sum 'C15 H17 N1 O6'
_chemical_formula_moiety
;
C15 H17 N1 O6
;
_journal_coden_Cambridge 1078
_journal_year 2010
_journal_name_full 'CSD Communication(Private Communication) '
loop_
_publ_author_name
"H.Reinke"
"B.Stobik"
"K.Peseke"
_chemical_name_systematic
;
Methyl-4,6-O-benzylidene-2,3-dideoxy-3-C-nitromethyl-\a-D-glycero-hex-3-eno-py
ranoside
;
_chemical_name_common
;
6-Methoxy-8-(nitromethyl)-2-phenyl-4,4a,6,7-tetrahydropyrano[3,2-d][1,3]dioxin
e
;
_cell_volume   1480.190
_exptl_crystal_colour 'colorless'
_exptl_crystal_density_diffrn 1.379
_exptl_special_details
;
contribution from Institut fur Chemie, Universitat Rostock, 
Albert-Einstein-Str. 3a, D-18059 Rostock, Germany
;
_exptl_crystal_description 'rod'
_diffrn_ambient_temperature 293
#These two values have been output from a single CSD field.
_refine_ls_R_factor_gt 0.0474
_refine_ls_wR_factor_gt 0.0474
_symmetry_cell_setting orthorhombic
_symmetry_space_group_name_H-M 'P 21 21 21'
_symmetry_Int_Tables_number 19
loop_
_symmetry_equiv_pos_site_id
_symmetry_equiv_pos_as_xyz
1 x,y,z
2 1/2-x,-y,1/2+z
3 -x,1/2+y,1/2-z
4 1/2+x,1/2-y,-z
_cell_length_a 4.932(1)
_cell_length_b 15.331(1)
_cell_length_c 19.576(2)
_cell_angle_alpha 90
_cell_angle_beta 90
_cell_angle_gamma 90
_cell_formula_units_Z 4
loop_
_atom_type_symbol
_atom_type_radius_bond
C 0.68
H 0.23
N 0.68
O 0.68
loop_
_atom_site_label
_atom_site_type_symbol
_atom_site_fract_x
_atom_site_fract_y
_atom_site_fract_z
O1 O 0.5366(5) 0.30912(16) 0.76438(11)
O2 O 0.1152(5) 0.45067(13) 0.6579(1)
O3 O 0.1123(5) 0.30950(14) 0.61289(11)
O4 O 0.3631(6) 0.36469(16) 0.86644(11)
O5 O 0.0698(7) 0.66370(19) 0.6920(2)
O6 O 0.1430(9) 0.6261(2) 0.79573(19)
N1 N 0.2004(7) 0.62705(19) 0.7362(2)
C1 C 0.5841(8) 0.3665(2) 0.82037(17)
H1 H 0.74650 0.34650 0.84460
C2 C 0.6291(8) 0.4600(2) 0.79805(18)
H2 H 0.59380 0.49850 0.83630
H3 H 0.81740 0.46730 0.78490
C3 C 0.4505(7) 0.4859(2) 0.73913(16)
C4 C 0.2992(7) 0.4269(2) 0.70813(17)
C5 C 0.3058(7) 0.3312(2) 0.72414(16)
H4 H 0.13950 0.31430 0.74820
C6 C 0.3271(8) 0.2815(2) 0.65683(17)
H5 H 0.50100 0.29300 0.63550
H6 H 0.31280 0.21930 0.66510
C7 C 0.4529(7) 0.5785(2) 0.71440(18)
H7 H 0.46550 0.57900 0.66500
H8 H 0.61140 0.60800 0.73250
C8 C 0.3477(12) 0.2864(3) 0.9051(2)
H9 H 0.19440 0.28910 0.93530
H10 H 0.51060 0.27960 0.93150
H11 H 0.32760 0.23760 0.87480
C9 C 0.1394(7) 0.39815(19) 0.59696(15)
H12 H 0.31720 0.40820 0.57610
C10 C -0.0787(7) 0.4264(2) 0.54832(16)
C11 C -0.1930(8) 0.3679(2) 0.50279(15)
H13 H -0.13780 0.30990 0.50300
C12 C -0.3902(8) 0.3954(3) 0.45667(16)
H14 H -0.46770 0.35560 0.42660
C13 C -0.4718(9) 0.4821(3) 0.45530(18)
H15 H -0.60260 0.50080 0.42440
C14 C -0.3560(9) 0.5397(2) 0.50042(19)
H16 H -0.40970 0.59780 0.49980
C15 C -0.1615(8) 0.5131(2) 0.54675(18)
H17 H -0.08590 0.55320 0.57690
#END
