
#######################################################################
#
#                 Cambridge Crystallographic Data Centre
#                                CCDC
#
#######################################################################
#
# If this CIF has been generated from an entry in the Cambridge
# Structural Database, then it will include bibliographic, chemical,
# crystal, experimental, refinement or atomic coordinate data resulting
# from the CCDC's data processing and validation procedures.
#
#######################################################################

data_CSD_CIF_IQORIQ
_audit_creation_date 2011-06-24
_audit_creation_method CSD-ConQuest-V1
_database_code_CSD IQORIQ
_database_code_depnum_ccdc_archive 'CCDC 811471'
_chemical_formula_sum 'C15 H19 N1 O6'
_chemical_formula_moiety
;
C15 H19 N1 O6
;
_journal_coden_Cambridge 1078
_journal_year 2010
_journal_name_full 'CSD Communication(Private Communication) '
loop_
_publ_author_name
"H.Reinke"
"B.Stobik"
"K.Peseke"
_chemical_name_systematic
;
Methyl-4,6-O-benzylidene-2,3-dideoxy-2-C-nitromethyl-\a-D-arabino-hexopyranosi
de
;
_chemical_name_common
;
6-Methoxy-7-(nitromethyl)-2-phenylhexahydropyrano[3,2-d][1,3]dioxine
;
_cell_volume   1580.042
_exptl_crystal_colour 'colorless'
_exptl_crystal_density_diffrn 1.3
_exptl_special_details
;
contribution from Institut fur Chemie, Universitat Rostock, 
Albert-Einstein-Str. 3a, D-18059 Rostock, Germany
;
_exptl_crystal_description 'prism'
_diffrn_ambient_temperature 293
_refine_special_details
;
O5,O6 and O5',O6' disordered over two sites with occupancies 0.602:0.398.

;
#These two values have been output from a single CSD field.
_refine_ls_R_factor_gt 0.0676
_refine_ls_wR_factor_gt 0.0676
_symmetry_cell_setting orthorhombic
_symmetry_space_group_name_H-M 'P 21 21 21'
_symmetry_Int_Tables_number 19
loop_
_symmetry_equiv_pos_site_id
_symmetry_equiv_pos_as_xyz
1 x,y,z
2 1/2-x,-y,1/2+z
3 -x,1/2+y,1/2-z
4 1/2+x,1/2-y,-z
_cell_length_a 5.166(1)
_cell_length_b 8.293(2)
_cell_length_c 36.881(7)
_cell_angle_alpha 90
_cell_angle_beta 90
_cell_angle_gamma 90
_cell_formula_units_Z 4
loop_
_atom_type_symbol
_atom_type_radius_bond
C 0.68
H 0.23
N 0.68
O 0.68
loop_
_atom_site_label
_atom_site_type_symbol
_atom_site_fract_x
_atom_site_fract_y
_atom_site_fract_z
O1 O 0.6850(7) 0.4899(4) 0.86853(8)
O2 O 1.0651(10) 0.6975(4) 0.93743(8)
O3 O 1.0947(6) 0.8405(3) 0.88349(7)
O4 O 0.9230(8) 0.3721(4) 0.82142(9)
O5 O 0.3826(13) 0.4790(9) 0.76262(19)
O6 O 0.6277(17) 0.4825(10) 0.7183(2)
N1 N 0.5905(8) 0.5132(6) 0.75032(11)
C1 C 0.7092(10) 0.4662(6) 0.83066(12)
H1 H 0.55340 0.41040 0.82220
C2 C 0.7303(8) 0.6254(5) 0.81013(11)
H2 H 0.56310 0.68060 0.81210
C3 C 0.9355(9) 0.7349(5) 0.82675(11)
H3 H 1.10630 0.69170 0.82180
H4 H 0.92460 0.84130 0.81590
C4 C 0.8960(9) 0.7474(5) 0.86704(11)
H5 H 0.72820 0.79830 0.87180
C5 C 0.8972(10) 0.5808(5) 0.88319(11)
H6 H 1.06140 0.52670 0.87780
C6 C 0.8609(16) 0.5954(7) 0.92369(13)
H7 H 0.69320 0.64230 0.92910
H8 H 0.86970 0.48980 0.93490
C7 C 1.056(1) 0.8501(5) 0.92138(11)
H9 H 0.88640 0.89860 0.92610
C8 C 0.900(2) 0.2065(6) 0.83292(19)
H10 H 1.05190 0.14790 0.82570
H11 H 0.75030 0.15880 0.82180
H12 H 0.88270 0.20240 0.85880
C9 C 0.7896(8) 0.6031(5) 0.77014(11)
H13 H 0.80940 0.70840 0.75900
H14 H 0.95330 0.54680 0.76780
C10 C 1.2617(10) 0.9548(5) 0.93756(12)
C11 C 1.3843(10) 0.9192(5) 0.96951(11)
H15 H 1.34350 0.82420 0.98170
C12 C 1.5663(10) 1.0214(6) 0.98389(12)
H16 H 1.64960 0.99450 1.00540
C13 C 1.6255(12) 1.1620(6) 0.96675(13)
H17 H 1.74860 1.23120 0.97650
C14 C 1.5039(14) 1.2007(7) 0.93529(16)
H18 H 1.54240 1.29750 0.92370
C15 C 1.3244(14) 1.0980(7) 0.92040(16)
H19 H 1.24450 1.12480 0.89860
O7? O 0.385(3) 0.5702(18) 0.7489(4)
O8? O 0.676(3) 0.3842(18) 0.7368(4)
#END
