
#######################################################################
#
#                 Cambridge Crystallographic Data Centre
#                                CCDC
#
#######################################################################
#
# If this CIF has been generated from an entry in the Cambridge
# Structural Database, then it will include bibliographic, chemical,
# crystal, experimental, refinement or atomic coordinate data resulting
# from the CCDC's data processing and validation procedures.
#
#######################################################################

data_CSD_CIF_IQUSAQ
_audit_creation_date 2016-07-08
_audit_creation_method CSD-ConQuest-V1
_database_code_CSD IQUSAQ
_database_code_depnum_ccdc_archive 'CCDC 1408127'
_chemical_formula_sum 'C9 H9 N1 O4'
_chemical_formula_moiety
;
C9 H9 N1 O4
;
_journal_coden_Cambridge 971
_journal_volume 53
_journal_year 2016
_journal_page_first 37
_journal_name_full 'Solid State Sciences '
loop_
_publ_author_name
"M.R.Silva"
"B.Milne"
"J.T.Coutinho"
"L.C.J.Pereira"
"P.Martin-Ramos"
"P.S.P.da Silva"
"J.Martin-Gil"
_chemical_name_systematic
;
methyl 2-(4-nitrophenyl)acetate
;
_cell_volume    918.984
_exptl_crystal_colour 'colorless'
_exptl_crystal_density_diffrn 1.411
_exptl_crystal_description 'prism'
_diffrn_ambient_temperature 293
#These two values have been output from a single CSD field.
_refine_ls_R_factor_gt 0.033
_refine_ls_wR_factor_gt 0.033
_symmetry_cell_setting orthorhombic
_symmetry_space_group_name_H-M 'P n 21 a'
_symmetry_Int_Tables_number 33
loop_
_symmetry_equiv_pos_site_id
_symmetry_equiv_pos_as_xyz
1 x,y,z
2 -x,1/2+y,-z
3 1/2+x,y,1/2-z
4 1/2-x,1/2+y,1/2+z
_cell_length_a 7.4844(2)
_cell_length_b 7.9473(2)
_cell_length_c 15.4501(4)
_cell_angle_alpha 90
_cell_angle_beta 90
_cell_angle_gamma 90
_cell_formula_units_Z 4
loop_
_atom_type_symbol
_atom_type_radius_bond
C 0.68
H 0.23
N 0.68
O 0.68
loop_
_atom_site_label
_atom_site_type_symbol
_atom_site_fract_x
_atom_site_fract_y
_atom_site_fract_z
N1 N 0.2423(3) 0.1961(3) 0.69798(19)
O1 O 0.2945(2) 1.0061(2) 0.97154(12)
O2 O 0.1230(2) 0.7942(2) 0.92546(11)
O3 O 0.2387(4) 0.2033(3) 0.61908(16)
O4 O 0.2025(4) 0.0696(3) 0.73801(19)
C1 C 0.2771(3) 0.8744(3) 0.93378(14)
C2 C 0.4306(3) 0.7824(3) 0.89227(17)
H1 H 0.49340 0.86050 0.85480
H2 H 0.51300 0.74840 0.93750
C3 C 0.3823(3) 0.6292(3) 0.83998(15)
C4 C 0.3585(3) 0.4762(3) 0.88125(15)
H3 H 0.37430 0.46930 0.94090
C5 C 0.3117(3) 0.3342(3) 0.83545(16)
H4 H 0.29350 0.23210 0.86350
C6 C 0.2926(3) 0.3473(3) 0.74671(15)
C7 C 0.3182(4) 0.4962(3) 0.70341(16)
H5 H 0.30570 0.50220 0.64360
C8 C 0.3633(3) 0.6372(3) 0.75134(16)
H6 H 0.38110 0.73930 0.72320
C9 C -0.0302(4) 0.8701(5) 0.9662(2)
H7 H -0.00260 0.89540 1.02550
H8 H -0.12930 0.79360 0.96400
H9 H -0.06070 0.97210 0.93640
#END
