
#######################################################################
#
#                 Cambridge Crystallographic Data Centre
#                                CCDC
#
#######################################################################
#
# If this CIF has been generated from an entry in the Cambridge
# Structural Database, then it will include bibliographic, chemical,
# crystal, experimental, refinement or atomic coordinate data resulting
# from the CCDC's data processing and validation procedures.
#
#######################################################################

data_CSD_CIF_IQUTIY
_audit_creation_date 2011-08-01
_audit_creation_method CSD-ConQuest-V1
_database_code_CSD IQUTIY
_database_code_depnum_ccdc_archive 'CCDC 789178'
_chemical_formula_sum 'C16 H20 N2 O6'
_chemical_formula_moiety
;
C16 H20 N2 O6
;
_journal_coden_Cambridge 1088
_journal_year 2010
_journal_page_first 3011
_journal_name_full 'Synlett '
loop_
_publ_author_name
"W.J.Nodes"
"K.Shankland"
"S.Rajkumar"
"A.J.A.Cobb"
_chemical_name_systematic
;
rac-methyl 2-(((benzyloxy)carbonyl)amino)-2-(2-nitrocyclopentyl)acetate
;
_chemical_name_common
;
Methyl (((benzyloxy)carbonyl)amino)(2-nitrocyclopentyl)acetate
;
_cell_volume    829.281
_exptl_crystal_colour 'colorless'
_exptl_crystal_density_diffrn 1.347
_exptl_crystal_description 'block'
_exptl_crystal_preparation 'heptane/dichloroethane'
_diffrn_ambient_temperature 150
#These two values have been output from a single CSD field.
_refine_ls_R_factor_gt 0.1155
_refine_ls_wR_factor_gt 0.1155
_symmetry_cell_setting triclinic
_symmetry_space_group_name_H-M 'P -1'
_symmetry_Int_Tables_number 2
loop_
_symmetry_equiv_pos_site_id
_symmetry_equiv_pos_as_xyz
1 x,y,z
2 -x,-y,-z
_cell_length_a 7.9027(7)
_cell_length_b 9.3253(6)
_cell_length_c 12.3325(9)
_cell_angle_alpha 73.135(6)
_cell_angle_beta 72.932(7)
_cell_angle_gamma 81.305(6)
_cell_formula_units_Z 2
loop_
_atom_type_symbol
_atom_type_radius_bond
C 0.68
H 0.23
N 0.68
O 0.68
loop_
_atom_site_label
_atom_site_type_symbol
_atom_site_fract_x
_atom_site_fract_y
_atom_site_fract_z
O1 O -0.1311(5) 0.3313(4) 1.1114(3)
O2 O 0.2080(6) 0.1616(5) 0.6876(4)
O3 O 0.0049(6) 0.1170(4) 1.0766(4)
O4 O 0.1485(7) 0.4035(5) 0.6917(4)
N1 N 0.0212(6) 0.2143(4) 0.8449(4)
H1 H 0.01430 0.11860 0.86920
C1 C -0.0791(7) 0.3054(5) 0.9203(4)
H2 H -0.03020 0.40410 0.89110
C2 C -0.2798(8) 0.3297(6) 0.9253(5)
H3 H -0.33830 0.39100 0.98030
C3 C -0.0610(7) 0.2382(5) 1.0441(5)
C4 C -0.1323(10) 0.2735(6) 1.2337(5)
H4 H -0.19910 0.18610 1.26760
H5 H -0.18590 0.34900 1.27480
H6 H -0.01270 0.24720 1.23990
C5 C 0.6347(9) 0.2878(6) 0.5239(5)
H7 H 0.59770 0.38110 0.48140
C6 C 0.5181(8) 0.1788(7) 0.5796(5)
C7 C 0.1250(7) 0.2713(6) 0.7386(5)
C8 C 0.3291(9) 0.2112(10) 0.5710(6)
H8 H 0.30600 0.31810 0.53930
H9 H 0.31020 0.15900 0.51850
C9 C 0.5762(9) 0.0410(7) 0.6420(6)
H10 H 0.49690 -0.03340 0.68070
C10 C -0.3151(10) 0.4080(8) 0.8075(6)
H11 H -0.23540 0.36410 0.74610
N2 N -0.3068(10) 0.5629(7) 0.7758(6)
C11 C -0.3746(8) 0.1871(8) 0.9626(6)
H12 H -0.29170 0.10600 0.94040
H13 H -0.42220 0.15900 1.04720
O5 O -0.3046(10) 0.6299(5) 0.8432(5)
C12 C 0.8123(10) 0.2574(9) 0.5313(6)
H14 H 0.89490 0.32920 0.49290
C13 C -0.5082(11) 0.3754(11) 0.8269(8)
H15 H -0.53340 0.38440 0.75270
H16 H -0.59040 0.44420 0.86650
C14 C 0.7468(10) 0.0131(9) 0.6476(8)
H17 H 0.78450 -0.08160 0.68760
C15 C 0.8598(10) 0.1177(9) 0.5975(7)
H18 H 0.97450 0.09760 0.60650
C16 C -0.5221(13) 0.2121(11) 0.9044(10)
H19 H -0.63620 0.20040 0.96220
H20 H -0.50670 0.14210 0.85680
O6 O -0.294(2) 0.6250(8) 0.6756(9)
#END
