
#######################################################################
#
#                 Cambridge Crystallographic Data Centre
#                                CCDC
#
#######################################################################
#
# If this CIF has been generated from an entry in the Cambridge
# Structural Database, then it will include bibliographic, chemical,
# crystal, experimental, refinement or atomic coordinate data resulting
# from the CCDC's data processing and validation procedures.
#
#######################################################################

data_CSD_CIF_IQUVIB
_audit_creation_date 2016-07-08
_audit_creation_method CSD-ConQuest-V1
_database_code_CSD IQUVIB
_database_code_depnum_ccdc_archive 'CCDC 1445106'
_chemical_formula_sum 'C11 H19 N3 O4'
_chemical_formula_moiety
;
C11 H19 N3 O4
;
_journal_coden_Cambridge 24
_journal_volume 57
_journal_year 2016
_journal_page_first 1790
_journal_name_full 'Tetrahedron Lett. '
loop_
_publ_author_name
"N.Kise"
"Takashi Tuji"
"T.Sakurai"
_chemical_name_systematic
;
(4aR*,7S*,7aS*)-7a-hydroxy-7-(methoxyamino)-1,3,4a- 
trimethylhexahydro-2H-cyclopenta[d]pyrimidine-2,4(3H)-dione
;
_chemical_melting_point 409
_cell_volume   1266.643
_exptl_crystal_colour 'colorless'
_exptl_crystal_density_diffrn 1.349
_exptl_special_details
;
Melting point range 409-410K

;
_exptl_crystal_description 'block'
_diffrn_ambient_temperature 296
#These two values have been output from a single CSD field.
_refine_ls_R_factor_gt 0.0543
_refine_ls_wR_factor_gt 0.0543
_symmetry_cell_setting monoclinic
_symmetry_space_group_name_H-M 'P 21/c'
_symmetry_Int_Tables_number 14
loop_
_symmetry_equiv_pos_site_id
_symmetry_equiv_pos_as_xyz
1 x,y,z
2 -x,1/2+y,1/2-z
3 -x,-y,-z
4 x,-1/2-y,-1/2+z
_cell_length_a 11.0747(11)
_cell_length_b 8.3731(8)
_cell_length_c 13.9452(10)
_cell_angle_alpha 90
_cell_angle_beta 101.617(4)
_cell_angle_gamma 90
_cell_formula_units_Z 4
loop_
_atom_type_symbol
_atom_type_radius_bond
C 0.68
H 0.23
N 0.68
O 0.68
loop_
_atom_site_label
_atom_site_type_symbol
_atom_site_fract_x
_atom_site_fract_y
_atom_site_fract_z
N1 N 0.37777(14) 0.07335(19) 0.79921(11)
C1 C 0.4608(2) 0.1710(3) 0.87230(18)
H1 H 0.46470 0.12660 0.93630
H2 H 0.42990 0.27830 0.87070
H3 H 0.54170 0.17160 0.85750
C2 C 0.38139(18) -0.0864(2) 0.81288(14)
O1 O 0.46174(15) -0.1519(2) 0.87429(12)
N2 N 0.29038(16) -0.17964(17) 0.75521(12)
C3 C 0.2860(3) -0.3494(2) 0.7814(2)
H4 H 0.24840 -0.36010 0.83730
H5 H 0.36830 -0.39160 0.79670
H6 H 0.23860 -0.40740 0.72730
C4 C 0.19831(18) -0.1206(2) 0.68254(14)
O2 O 0.11413(15) -0.20525(18) 0.64326(12)
C5 C 0.21686(17) 0.0478(2) 0.64756(13)
C6 C 0.2945(2) 0.0292(3) 0.56814(16)
H7 H 0.30260 0.13110 0.53850
H8 H 0.25460 -0.04440 0.51910
H9 H 0.37480 -0.01070 0.59740
C7 C 0.0923(2) 0.1307(3) 0.60938(17)
H10 H 0.09300 0.18420 0.54780
H11 H 0.02600 0.05310 0.59910
C8 C 0.0743(2) 0.2522(3) 0.68724(18)
H12 H 0.08350 0.36010 0.66440
H13 H -0.00730 0.24150 0.70190
C9 C 0.17189(18) 0.2169(2) 0.77710(14)
H14 H 0.19510 0.31400 0.81560
N3 N 0.12826(16) 0.0943(2) 0.83578(12)
O3 O 0.20422(14) 0.10494(19) 0.93317(10)
C10 C 0.1947(3) -0.0370(3) 0.98458(17)
H15 H 0.11060 -0.05280 0.99020
H16 H 0.24590 -0.02990 1.04870
H17 H 0.22110 -0.12530 0.95000
C11 C 0.27950(16) 0.15615(19) 0.73253(13)
O4 O 0.32652(14) 0.29606(15) 0.69822(11)
H18 H 0.38900 0.27470 0.67780
H19 H 0.053(2) 0.129(3) 0.8451(17)
#END
