
#######################################################################
#
#                 Cambridge Crystallographic Data Centre
#                                CCDC
#
#######################################################################
#
# If this CIF has been generated from an entry in the Cambridge
# Structural Database, then it will include bibliographic, chemical,
# crystal, experimental, refinement or atomic coordinate data resulting
# from the CCDC's data processing and validation procedures.
#
#######################################################################

data_CSD_CIF_IRAGAJ
_audit_creation_date 2004-05-25
_audit_creation_method CSD-ConQuest-V1
_database_code_CSD IRAGAJ
_database_code_depnum_ccdc_archive 'CCDC 220238'
_chemical_formula_sum 'C11 H12 N2 O3'
_chemical_formula_moiety
;
C11 H12 N2 O3
;
_journal_coden_Cambridge 182
_journal_year 2004
_journal_page_first 216
_journal_name_full 'Chem.Commun. '
loop_
_publ_author_name
"T.Sugihara"
"K.Kuwahara"
"A.Wakabayashi"
"H.Takao"
"H.Imagawa"
"M.Nishizawa"
_chemical_name_systematic
;
5-(2-(4-Methoxyphenyl)ethyl)-1,2,3-oxadiazole 3-oxide
;
_chemical_melting_point 349.15
_cell_volume   1104.600
_exptl_crystal_colour 'colorless'
_exptl_crystal_density_diffrn 1.324
_exptl_crystal_description 'plate'
_exptl_crystal_preparation 'ethyl acetate/n-hexane'
_diffrn_ambient_temperature 298
#These two values have been output from a single CSD field.
_refine_ls_R_factor_gt 0.0538
_refine_ls_wR_factor_gt 0.0538
_symmetry_cell_setting monoclinic
_symmetry_space_group_name_H-M 'P 21/c'
_symmetry_Int_Tables_number 14
loop_
_symmetry_equiv_pos_site_id
_symmetry_equiv_pos_as_xyz
1 x,y,z
2 x,1/2-y,1/2+z
3 -x,-y,-z
4 -x,-1/2+y,-1/2-z
_cell_length_a 5.6130(4)
_cell_length_b 8.9250(5)
_cell_length_c 22.154(2)
_cell_angle_alpha 90
_cell_angle_beta 95.563(3)
_cell_angle_gamma 90
_cell_formula_units_Z 4
loop_
_atom_type_symbol
_atom_type_radius_bond
C 0.68
H 0.23
N 0.68
O 0.68
loop_
_atom_site_label
_atom_site_type_symbol
_atom_site_fract_x
_atom_site_fract_y
_atom_site_fract_z
N1 N 0.2762(3) 0.17174(19) 0.51164(8)
C1 C 0.8731(4) -0.0575(2) 0.18234(8)
O1 O 1.0095(3) -0.08965(19) 0.13600(6)
C2 C 0.6115(4) -0.0120(2) 0.28184(9)
C3 C 0.2837(4) 0.1031(2) 0.45599(9)
C4 C 0.4670(4) 0.1648(2) 0.43143(9)
C5 C 0.9407(4) -0.1268(2) 0.23726(9)
O2 O 0.5675(3) 0.26679(19) 0.47131(8)
C6 C 0.5465(4) 0.0547(2) 0.22634(10)
C7 C 0.6751(4) 0.0341(2) 0.17703(9)
O3 O 0.1291(3) 0.14538(19) 0.55044(7)
C8 C 0.5798(4) 0.1449(2) 0.37425(9)
C9 C 0.8125(4) -0.1031(2) 0.28604(9)
C10 C 0.4740(4) 0.0163(3) 0.33594(10)
C11 C 0.9760(6) -0.0029(3) 0.08279(11)
N2 N 0.4443(4) 0.2703(2) 0.52256(9)
H1 H 0.14970 0.01680 0.44320
H2 H 1.07670 -0.19240 0.24150
H3 H 0.40540 0.11600 0.22140
H4 H 0.62880 0.08420 0.13940
H5 H 0.56240 0.23480 0.35040
H6 H 0.74670 0.12320 0.38370
H7 H 0.86420 -0.15120 0.32380
H8 H 0.31170 0.04170 0.32200
H9 H 0.47560 -0.07260 0.36040
H10 H 1.08210 -0.03780 0.05430
H11 H 1.00970 0.10040 0.09230
H12 H 0.81330 -0.01250 0.06540
#END
