
#######################################################################
#
#                 Cambridge Crystallographic Data Centre
#                                CCDC
#
#######################################################################
#
# If this CIF has been generated from an entry in the Cambridge
# Structural Database, then it will include bibliographic, chemical,
# crystal, experimental, refinement or atomic coordinate data resulting
# from the CCDC's data processing and validation procedures.
#
#######################################################################

data_CSD_CIF_IRARUQ
_audit_creation_date 2016-07-11
_audit_creation_method CSD-ConQuest-V1
_database_code_CSD IRARUQ
_database_code_depnum_ccdc_archive 'CCDC 1433223'
_chemical_formula_sum 'C24 H23 N3 O2'
_chemical_formula_moiety
;
C24 H23 N3 O2
;
_journal_coden_Cambridge 1366
_journal_volume 358
_journal_year 2016
_journal_page_first 1826
_journal_name_full 'Adv.Synth.Catal. '
loop_
_publ_author_name
"Hong-Wu Zhao"
"Hai-Liang Pang"
"Ting Tian"
"Bo Li"
"Xiao-Qin Chen"
"Xiu-Qing Song"
"Wei Meng"
"Zhao Yang"
"Yue-Yang Liu"
"Yu-Di Zhao"
_chemical_name_systematic
;
1-(2-benzyl-3,6-diphenyl-2,3-dihydro-1,2,4,5-oxatriazepin-4(7H)-yl)ethanone
;
_cell_volume    998.512
_exptl_crystal_colour 'colorless'
_exptl_crystal_density_diffrn 1.282
_exptl_crystal_description 'Prism'
_diffrn_ambient_temperature 113
#These two values have been output from a single CSD field.
_refine_ls_R_factor_gt 0.0335
_refine_ls_wR_factor_gt 0.0335
_symmetry_cell_setting triclinic
_symmetry_space_group_name_H-M 'P -1'
_symmetry_Int_Tables_number 2
loop_
_symmetry_equiv_pos_site_id
_symmetry_equiv_pos_as_xyz
1 x,y,z
2 -x,-y,-z
_cell_length_a 9.7093(12)
_cell_length_b 10.1931(18)
_cell_length_c 11.0444(18)
_cell_angle_alpha 107.992(4)
_cell_angle_beta 100.241(5)
_cell_angle_gamma 98.555(6)
_cell_formula_units_Z 2
loop_
_atom_type_symbol
_atom_type_radius_bond
C 0.68
H 0.23
N 0.68
O 0.68
loop_
_atom_site_label
_atom_site_type_symbol
_atom_site_fract_x
_atom_site_fract_y
_atom_site_fract_z
O1 O 0.08904(8) 0.89547(8) 0.45834(7)
O2 O 0.29358(9) 0.73080(9) 0.08744(8)
N1 N 0.34044(10) 1.00648(10) 0.37737(9)
N2 N 0.28075(10) 0.87504(10) 0.28480(9)
N3 N 0.15437(10) 0.77616(10) 0.41444(9)
C1 C 0.19758(12) 1.00793(12) 0.54853(11)
H1 H 0.24490 0.97580 0.61790
H2 H 0.15320 1.08600 0.59060
C2 C 0.30972(11) 1.06353(12) 0.48779(11)
C3 C 0.39644(11) 1.20921(12) 0.56573(11)
C4 C 0.37346(14) 1.28536(14) 0.68657(12)
H3 H 0.30490 1.24210 0.72200
C5 C 0.44905(15) 1.42313(15) 0.75570(13)
H4 H 0.43160 1.47340 0.83760
C6 C 0.54935(14) 1.48732(14) 0.70594(13)
H5 H 0.60010 1.58220 0.75240
C7 C 0.57531(13) 1.41236(14) 0.58788(13)
H6 H 0.64530 1.45570 0.55380
C8 C 0.50083(13) 1.27507(13) 0.51866(13)
H7 H 0.52090 1.22480 0.43800
C9 C 0.33678(12) 0.84563(13) 0.17468(11)
C10 C 0.44820(14) 0.95989(15) 0.16596(13)
H8 H 0.48020 0.92420 0.08500
H9 H 0.53020 0.98800 0.24150
H10 H 0.40670 1.04180 0.16570
C11 C 0.16205(12) 0.76178(12) 0.28049(11)
H11 H 0.18900 0.66950 0.24190
C12 C 0.02335(12) 0.76020(12) 0.19003(10)
C13 C -0.01490(12) 0.88485(12) 0.18357(11)
H12 H 0.04830 0.97330 0.23370
C14 C -0.14475(13) 0.88027(13) 0.10422(11)
H13 H -0.17030 0.96560 0.10030
C15 C -0.23725(13) 0.75174(14) 0.03065(11)
H14 H -0.32690 0.74910 -0.02230
C16 C -0.19935(13) 0.62676(13) 0.03417(11)
H15 H -0.26180 0.53840 -0.01780
C17 C -0.06947(13) 0.63158(12) 0.11414(11)
H16 H -0.04380 0.54600 0.11700
C18 C 0.05543(13) 0.65598(12) 0.42217(11)
H17 H 0.08780 0.56750 0.38550
H18 H -0.04200 0.64630 0.36990
C19 C 0.05157(13) 0.68007(11) 0.56355(11)
C20 C 0.17032(13) 0.67805(13) 0.65387(12)
H19 H 0.25530 0.66100 0.62640
C21 C 0.16615(14) 0.70061(13) 0.78354(12)
H20 H 0.24790 0.69840 0.84410
C22 C 0.04278(14) 0.72632(13) 0.82502(12)
H21 H 0.03980 0.74200 0.91380
C23 C -0.07589(14) 0.72890(13) 0.73609(13)
H22 H -0.16050 0.74660 0.76390
C24 C -0.07149(13) 0.70558(12) 0.60601(12)
H23 H -0.15360 0.70710 0.54550
#END
