
#######################################################################
#
#                 Cambridge Crystallographic Data Centre
#                                CCDC
#
#######################################################################
#
# If this CIF has been generated from an entry in the Cambridge
# Structural Database, then it will include bibliographic, chemical,
# crystal, experimental, refinement or atomic coordinate data resulting
# from the CCDC's data processing and validation procedures.
#
#######################################################################

data_CSD_CIF_IREJIZ
_audit_creation_date 2011-07-22
_audit_creation_method CSD-ConQuest-V1
_database_code_CSD IREJIZ
_database_code_depnum_ccdc_archive 'CCDC 784304'
_chemical_formula_sum 'C17 H23 N1 O8'
_chemical_formula_moiety
;
C17 H23 N1 O8
;
_journal_coden_Cambridge 1291
_journal_year 2010
_journal_page_first 6741
_journal_name_full 'Eur.J.Org.Chem. '
loop_
_publ_author_name
"F.Cagide-Fagin"
"R.Alonso"
_chemical_name_systematic
;
6-(2-Furyl)-2,2,2',2'-tetramethyl-7-nitrotetrahydro-3aH-spiro[1,3-benzodioxole
-4,4'-[1,3]dioxolan]-5-ol
;
_cell_volume   1793.017
_exptl_crystal_colour 'colorless'
_exptl_crystal_density_diffrn 1.368
_exptl_special_details
;
Study temperature given as 100 K and 373 K in the CIF

;
_exptl_crystal_description 'needle'
_diffrn_ambient_temperature 100
#These two values have been output from a single CSD field.
_refine_ls_R_factor_gt 0.039
_refine_ls_wR_factor_gt 0.039
_symmetry_cell_setting monoclinic
_symmetry_space_group_name_H-M 'P 21/c'
_symmetry_Int_Tables_number 14
loop_
_symmetry_equiv_pos_site_id
_symmetry_equiv_pos_as_xyz
1 x,y,z
2 -x,1/2+y,1/2-z
3 -x,-y,-z
4 x,-1/2-y,-1/2+z
_cell_length_a 12.1821(5)
_cell_length_b 11.2998(5)
_cell_length_c 13.2478(6)
_cell_angle_alpha 90
_cell_angle_beta 100.513(2)
_cell_angle_gamma 90
_cell_formula_units_Z 4
loop_
_atom_type_symbol
_atom_type_radius_bond
C 0.68
H 0.23
N 0.68
O 0.68
loop_
_atom_site_label
_atom_site_type_symbol
_atom_site_fract_x
_atom_site_fract_y
_atom_site_fract_z
C1 C 0.71604(11) 0.04356(13) 0.96597(11)
C2 C 0.66946(11) 0.05831(13) 0.85118(11)
H1 H 0.68600 -0.01330 0.81510
C3 C 0.71372(12) 0.16528(13) 0.80119(11)
H2 H 0.78360 0.14520 0.77850
C4 C 0.72949(11) 0.27607(13) 0.86891(11)
H3 H 0.65600 0.30880 0.87320
C5 C 0.79285(11) 0.25179(13) 0.97749(11)
H4 H 0.86500 0.21650 0.97220
C6 C 0.72500(11) 0.15955(13) 1.02616(11)
H5 H 0.76330 0.14410 1.09660
C7 C 0.65910(12) -0.05500(13) 1.01621(12)
H6 H 0.66290 -0.03990 1.08880
H7 H 0.58150 -0.06360 0.98350
C8 C 0.83515(12) -0.12048(13) 1.00564(12)
C9 C 0.88677(13) -0.19349(15) 0.93109(13)
H8 H 0.89560 -0.27370 0.95520
H9 H 0.95840 -0.16130 0.92580
H10 H 0.83910 -0.19200 0.86490
C10 C 0.90082(13) -0.12433(15) 1.11433(12)
H11 H 0.86310 -0.07820 1.15840
H12 H 0.97410 -0.09250 1.11550
H13 H 0.90690 -0.20480 1.13800
C11 C 0.52537(12) 0.12812(14) 0.73022(11)
C12 C 0.49836(14) 0.03575(15) 0.64667(12)
H14 H 0.55810 -0.02080 0.65310
H15 H 0.48950 0.07340 0.58070
H16 H 0.43030 -0.00400 0.65310
C13 C 0.43303(13) 0.21673(15) 0.72948(13)
H17 H 0.36680 0.17660 0.74050
H18 H 0.41830 0.25640 0.66430
H19 H 0.45510 0.27370 0.78310
C14 C 0.81441(11) 0.36276(13) 1.03965(11)
C15 C 0.89598(12) 0.39692(14) 1.11754(12)
H20 H 0.95730 0.35230 1.14800
C16 C 0.86984(13) 0.51503(14) 1.14412(12)
H21 H 0.91050 0.56190 1.19540
C17 C 0.77530(14) 0.54477(14) 1.08056(12)
H22 H 0.73970 0.61760 1.08050
N1 N 0.79213(10) 0.36423(11) 0.81521(9)
O1 O 0.82836(8) 0.00111(9) 0.97125(8)
O2 O 0.72263(8) -0.15778(9) 1.00009(8)
O3 O 0.55175(8) 0.07793(9) 0.83023(7)
O4 O 0.62767(8) 0.18732(9) 0.71453(8)
O5 O 0.74288(10) 0.45194(10) 0.77701(9)
O6 O 0.88899(9) 0.34048(11) 0.80924(9)
O7 O 0.73846(9) 0.45275(10) 1.01567(8)
O8 O 0.61548(8) 0.20000(9) 1.02883(8)
H23 H 0.6184(14) 0.2391(16) 1.0836(14)
#END
