
#######################################################################
#
#                 Cambridge Crystallographic Data Centre
#                                CCDC
#
#######################################################################
#
# If this CIF has been generated from an entry in the Cambridge
# Structural Database, then it will include bibliographic, chemical,
# crystal, experimental, refinement or atomic coordinate data resulting
# from the CCDC's data processing and validation procedures.
#
#######################################################################

data_CSD_CIF_IREJEV
_audit_creation_date 2011-07-21
_audit_creation_method CSD-ConQuest-V1
_database_code_CSD IREJEV
_database_code_depnum_ccdc_archive 'CCDC 784303'
_chemical_formula_sum 'C23 H27 N3 O9'
_chemical_formula_moiety
;
C23 H27 N3 O9
;
_journal_coden_Cambridge 1291
_journal_year 2010
_journal_page_first 6741
_journal_name_full 'Eur.J.Org.Chem. '
loop_
_publ_author_name
"F.Cagide-Fagin"
"R.Alonso"
_chemical_name_systematic
;
1-(3,12-bis(2-Furyl)-6,6-dimethyl-2,11-dinitro-5,7,10-trioxatricyclo[6.2.2.0^4
,9^]dodec-9-yl)pyrrolidine
;
_chemical_melting_point 385
_cell_volume   2364.371
_exptl_crystal_colour 'colorless'
_exptl_crystal_density_diffrn 1.375
_exptl_special_details
;
Melting point range 385-397K

;
_exptl_crystal_description 'prism'
_exptl_crystal_preparation 'diethyl ether'
_diffrn_ambient_temperature 293
#These two values have been output from a single CSD field.
_refine_ls_R_factor_gt 0.0716
_refine_ls_wR_factor_gt 0.0716
_symmetry_cell_setting monoclinic
_symmetry_space_group_name_H-M 'P 21/n'
_symmetry_Int_Tables_number 14
loop_
_symmetry_equiv_pos_site_id
_symmetry_equiv_pos_as_xyz
1 x,y,z
2 1/2-x,1/2+y,1/2-z
3 -x,-y,-z
4 -1/2+x,-1/2-y,-1/2+z
_cell_length_a 10.893(5)
_cell_length_b 20.356(5)
_cell_length_c 11.778(5)
_cell_angle_alpha 90
_cell_angle_beta 115.133(5)
_cell_angle_gamma 90
_cell_formula_units_Z 4
loop_
_atom_type_symbol
_atom_type_radius_bond
C 0.68
H 0.23
N 0.68
O 0.68
loop_
_atom_site_label
_atom_site_type_symbol
_atom_site_fract_x
_atom_site_fract_y
_atom_site_fract_z
O1 O 0.5928(3) 0.08311(15) 0.5320(3)
C1 C 0.6301(5) 0.0943(2) 0.3295(4)
H1 H 0.53190 0.09270 0.30340
C2 C 0.6885(5) 0.0314(2) 0.4015(5)
H2 H 0.78610 0.02990 0.42420
C3 C 0.6657(5) 0.0277(2) 0.5219(4)
H3 H 0.61030 -0.01130 0.51550
C4 C 0.7942(5) 0.0223(2) 0.6440(5)
H4 H 0.76440 0.01830 0.71130
C5 C 0.8842(6) 0.0822(2) 0.6743(5)
H5 H 0.92980 0.08210 0.61830
C6 C 0.7996(5) 0.1459(2) 0.6490(4)
H6 H 0.77970 0.15210 0.72210
C7 C 0.6623(5) 0.1461(2) 0.5348(4)
C8 C 0.6826(5) 0.1534(2) 0.4130(4)
H7 H 0.63590 0.19290 0.36780
O2 O 0.8247(3) 0.15887(17) 0.4463(3)
C9 C 0.8911(6) 0.2100(3) 0.5292(5)
O3 O 0.8783(4) 0.20131(17) 0.6467(4)
C10 C 0.6519(6) 0.0980(2) 0.2119(5)
O4 O 0.5417(4) 0.0834(2) 0.1078(4)
C11 C 0.5792(9) 0.0879(3) 0.0106(5)
H8 H 0.52080 0.08110 -0.07320
C12 C 0.7061(8) 0.1029(3) 0.0503(6)
H9 H 0.75590 0.10760 0.00330
C13 C 0.7523(7) 0.1105(4) 0.1818(6)
H10 H 0.83960 0.12240 0.23760
N1 N 0.6229(7) -0.0268(3) 0.3243(4)
O5 O 0.4973(6) -0.0275(2) 0.2749(4)
O6 O 0.6886(6) -0.0706(3) 0.3129(5)
N2 N 0.8676(6) -0.0399(3) 0.6451(5)
O7 O 0.9534(6) -0.0368(2) 0.6015(5)
O8 O 0.8402(6) -0.0887(2) 0.6822(5)
C14 C 0.9906(6) 0.0795(3) 0.8051(5)
O9 O 0.9491(4) 0.0887(2) 0.8982(4)
C15 C 1.0642(10) 0.0825(4) 1.0078(6)
H11 H 1.06670 0.08720 1.08730
C16 C 1.1679(8) 0.0696(4) 0.9870(7)
H12 H 1.25630 0.06300 1.04680
C17 C 1.1222(8) 0.0672(4) 0.8576(7)
H13 H 1.17530 0.05830 0.81500
N3 N 0.5783(4) 0.1971(2) 0.5437(4)
C18 C 0.5601(6) 0.2041(3) 0.6601(5)
H14 H 0.55300 0.16130 0.69320
H15 H 0.63590 0.22760 0.72310
C19 C 0.4336(8) 0.2415(4) 0.6248(7)
H16 H 0.38050 0.22310 0.66560
H17 H 0.45380 0.28690 0.65060
C20 C 0.3590(8) 0.2375(5) 0.4909(8)
H18 H 0.33360 0.28130 0.45600
H19 H 0.27680 0.21220 0.46990
C21 C 0.4445(6) 0.2058(3) 0.4374(6)
H20 H 0.40670 0.16370 0.40050
H21 H 0.45170 0.23330 0.37330
C22 C 0.8324(7) 0.2771(3) 0.4798(7)
H22 H 0.82980 0.28350 0.39810
H23 H 0.88800 0.31040 0.53570
H24 H 0.74210 0.28000 0.47450
C23 C 1.0392(7) 0.2044(4) 0.5548(8)
H25 H 1.07160 0.16120 0.58550
H26 H 1.09090 0.23640 0.61640
H27 H 1.04890 0.21220 0.47860
#END
