
#######################################################################
#
#                 Cambridge Crystallographic Data Centre
#                                CCDC
#
#######################################################################
#
# If this CIF has been generated from an entry in the Cambridge
# Structural Database, then it will include bibliographic, chemical,
# crystal, experimental, refinement or atomic coordinate data resulting
# from the CCDC's data processing and validation procedures.
#
#######################################################################

data_CSD_CIF_IRENEY
_audit_creation_date 2004-05-25
_audit_creation_method CSD-ConQuest-V1
_database_code_CSD IRENEY
_database_code_depnum_ccdc_archive 'CCDC 230647'
_chemical_formula_sum 'C22 H30 N2 O8'
_chemical_formula_moiety
;
C22 H30 N2 O8
;
_journal_coden_Cambridge 35
_journal_volume 69
_journal_year 2004
_journal_page_first 130
_journal_name_full 'J.Org.Chem. '
loop_
_publ_author_name
"J.Marin"
"C.Didierjean"
"A.Aubry"
"J.-R.Casimir"
"J.-P.Briand"
"G.Guichard"
_chemical_name_systematic
;
Di-t-butyl (2S,4S)-4-((4-nitrobenzoyl)oxy)piperidine-1,2-dicarboxylate
;
_chemical_melting_point 438.15
_cell_volume   2511.214
_exptl_crystal_colour 'colorless'
_exptl_crystal_density_diffrn 1.192
_exptl_special_details
;
Melting point range 438.15-440.15K

;
_exptl_crystal_description 'prismatic'
_diffrn_ambient_temperature 293
#These two values have been output from a single CSD field.
_refine_ls_R_factor_gt 0.0405
_refine_ls_wR_factor_gt 0.0405
_symmetry_cell_setting orthorhombic
_symmetry_space_group_name_H-M 'P 21 21 21'
_symmetry_Int_Tables_number 19
loop_
_symmetry_equiv_pos_site_id
_symmetry_equiv_pos_as_xyz
1 x,y,z
2 1/2-x,-y,1/2+z
3 1/2+x,1/2-y,-z
4 -x,1/2+y,1/2-z
_cell_length_a 6.2400(2)
_cell_length_b 13.5460(4)
_cell_length_c 29.7090(9)
_cell_angle_alpha 90
_cell_angle_beta 90
_cell_angle_gamma 90
_cell_formula_units_Z 4
loop_
_atom_type_symbol
_atom_type_radius_bond
C 0.68
H 0.23
N 0.68
O 0.68
loop_
_atom_site_label
_atom_site_type_symbol
_atom_site_fract_x
_atom_site_fract_y
_atom_site_fract_z
O1 O 0.2131(3) 0.80848(15) 0.66401(7)
O2 O 0.2094(4) 0.77797(17) 0.58947(7)
O3 O -0.3376(4) 1.19016(15) 0.65735(6)
O4 O -0.4989(4) 1.11686(17) 0.71724(7)
O5 O -0.1559(4) 1.0303(2) 0.55963(6)
N1 N -0.2258(4) 1.04174(18) 0.67942(7)
O6 O -0.4187(4) 0.9700(2) 0.60189(8)
O7 O 1.1431(5) 0.5125(2) 0.62197(10)
C1 C 0.0884(5) 0.9711(2) 0.6407(1)
H1 H 0.15160 0.96260 0.61110
H2 H 0.19500 1.00110 0.66010
C2 C 0.4843(5) 0.7068(2) 0.63504(10)
N2 N 1.0387(5) 0.5353(2) 0.65470(12)
C3 C 0.5396(5) 0.6760(2) 0.6776(1)
H3 H 0.45430 0.69360 0.70200
C4 C 0.8426(5) 0.5959(2) 0.64812(11)
C5 C 0.6117(6) 0.6807(3) 0.59855(11)
H4 H 0.57390 0.70100 0.56970
C6 C 0.2884(5) 0.7677(2) 0.62627(12)
O8 O 1.0867(5) 0.5128(3) 0.69269(11)
C7 C -0.3676(5) 1.1167(2) 0.68713(10)
C8 C -0.1073(4) 1.0390(2) 0.63726(8)
H5 H -0.05530 1.10590 0.63120
C9 C -0.2498(6) 1.0087(3) 0.59812(9)
C10 C -0.2676(5) 0.9488(2) 0.70291(10)
H6 H -0.37950 0.91290 0.68720
H7 H -0.31850 0.96290 0.73310
C11 C 0.0252(5) 0.8721(2) 0.65936(10)
H8 H -0.08000 0.84070 0.63950
C12 C -0.0693(5) 0.8850(2) 0.70572(9)
H9 H 0.03520 0.91590 0.72540
H10 H -0.10600 0.82110 0.71820
C13 C 0.7924(6) 0.6252(2) 0.60486(11)
H11 H 0.87910 0.60770 0.58070
C14 C 0.7200(5) 0.6193(2) 0.68448(11)
H12 H 0.75700 0.59770 0.71320
C15 C -0.4652(6) 1.2805(3) 0.65839(12)
C16 C -0.3762(8) 1.3377(3) 0.61913(13)
H13 H -0.40090 1.30160 0.59180
H14 H -0.22500 1.34720 0.62320
H15 H -0.44590 1.40080 0.61730
C17 C -0.4277(10) 1.3360(3) 0.70124(13)
H16 H -0.48470 1.29900 0.72610
H17 H -0.49760 1.39900 0.69970
H18 H -0.27660 1.34550 0.70550
C18 C -0.6999(7) 1.2563(4) 0.6509(2)
H19 H -0.71590 1.22100 0.62310
H20 H -0.78140 1.31640 0.64970
H21 H -0.75110 1.21620 0.67530
C19 C -0.2512(7) 1.0031(4) 0.51534(11)
C20 C -0.2827(11) 0.8942(5) 0.51300(15)
H22 H -0.14720 0.86170 0.51680
H23 H -0.34230 0.87700 0.48430
H24 H -0.37880 0.87390 0.53650
C21 C -0.4588(11) 1.0610(6) 0.50995(16)
H25 H -0.42930 1.13030 0.51220
H26 H -0.55750 1.04210 0.53320
H27 H -0.52060 1.04690 0.48110
C22 C -0.0816(11) 1.0385(7) 0.48319(14)
H28 H -0.06650 1.10880 0.48580
H29 H -0.12240 1.02200 0.45300
H30 H 0.05230 1.00730 0.49030
#END
