
#######################################################################
#
#                 Cambridge Crystallographic Data Centre
#                                CCDC
#
#######################################################################
#
# If this CIF has been generated from an entry in the Cambridge
# Structural Database, then it will include bibliographic, chemical,
# crystal, experimental, refinement or atomic coordinate data resulting
# from the CCDC's data processing and validation procedures.
#
#######################################################################

data_CSD_CIF_IREPOM
_audit_creation_date 2016-07-11
_audit_creation_method CSD-ConQuest-V1
_database_code_CSD IREPOM
_database_code_depnum_ccdc_archive 'CCDC 1469964'
_chemical_formula_sum 'C4 H2 N6 O9'
_chemical_formula_moiety
;
C4 H2 N6 O9
;
_journal_coden_Cambridge 1290
_journal_year 2016
_journal_page_first 3086
_journal_name_full 'Eur.J.Inorg.Chem. '
loop_
_publ_author_name
"T.M.Klapotke"
"B.Krumm"
"R.Scharf"
_chemical_name_systematic
;
2,2,2-trinitroethyl azido(oxo)acetate
;
_cell_volume   1033.257
_exptl_crystal_colour 'colorless'
_exptl_crystal_density_diffrn 1.788
_exptl_crystal_description 'block'
_diffrn_ambient_temperature 173
#These two values have been output from a single CSD field.
_refine_ls_R_factor_gt 0.0325
_refine_ls_wR_factor_gt 0.0325
_symmetry_cell_setting monoclinic
_symmetry_space_group_name_H-M 'P 21/c'
_symmetry_Int_Tables_number 14
loop_
_symmetry_equiv_pos_site_id
_symmetry_equiv_pos_as_xyz
1 x,y,z
2 -x,1/2+y,1/2-z
3 -x,-y,-z
4 x,-1/2-y,-1/2+z
_cell_length_a 6.3221(3)
_cell_length_b 16.7221(8)
_cell_length_c 10.0367(5)
_cell_angle_alpha 90
_cell_angle_beta 103.147(5)
_cell_angle_gamma 90
_cell_formula_units_Z 4
loop_
_atom_type_symbol
_atom_type_radius_bond
C 0.68
H 0.23
N 0.68
O 0.68
loop_
_atom_site_label
_atom_site_type_symbol
_atom_site_fract_x
_atom_site_fract_y
_atom_site_fract_z
C1 C 0.3656(2) 0.13547(9) 0.46176(15)
C2 C 0.1586(2) 0.16108(8) 0.50526(14)
C3 C 0.0092(2) 0.18632(9) 0.69410(15)
C4 C -0.0143(2) 0.12712(9) 0.80346(14)
N1 N 0.3401(2) 0.15079(8) 0.32348(13)
N2 N 0.5021(2) 0.12592(9) 0.27949(13)
N3 N 0.6322(2) 0.10594(11) 0.22951(16)
N4 N -0.1104(2) 0.04723(8) 0.74669(14)
N5 N 0.2024(2) 0.11065(9) 0.90211(13)
N6 N -0.1674(2) 0.16036(8) 0.88675(13)
O1 O 0.51926(19) 0.10702(9) 0.53843(12)
O2 O -0.00715(16) 0.17723(7) 0.42722(10)
O3 O 0.19320(15) 0.16293(6) 0.64223(9)
O4 O -0.0552(2) 0.02308(7) 0.64631(12)
O5 O -0.2337(3) 0.01578(9) 0.80654(16)
O6 O 0.2624(3) 0.04226(9) 0.91696(14)
O7 O 0.29556(18) 0.16962(8) 0.95650(12)
O8 O -0.1210(2) 0.14891(8) 1.00933(12)
O9 O -0.32352(18) 0.19561(8) 0.81985(12)
H1 H 0.037(2) 0.2377(10) 0.7353(15)
H2 H -0.122(2) 0.1873(9) 0.6271(15)
#END
