
#######################################################################
#
#                 Cambridge Crystallographic Data Centre
#                                CCDC
#
#######################################################################
#
# If this CIF has been generated from an entry in the Cambridge
# Structural Database, then it will include bibliographic, chemical,
# crystal, experimental, refinement or atomic coordinate data resulting
# from the CCDC's data processing and validation procedures.
#
#######################################################################

data_CSD_CIF_IRIFOF
_audit_creation_date 2011-07-22
_audit_creation_method CSD-ConQuest-V1
_database_code_CSD IRIFOF
_database_code_depnum_ccdc_archive 'CCDC 800111'
_chemical_formula_sum 'C9 H9 N1 O6'
_chemical_formula_moiety
;
C9 H9 N1 O6
;
_journal_coden_Cambridge 1291
_journal_year 2011
_journal_page_first 1721
_journal_name_full 'Eur.J.Org.Chem. '
loop_
_publ_author_name
"B.Schmidt"
"L.Staude"
"A.Kelling"
"U.Schilde"
_chemical_name_systematic
;
(3aR,4aR,7aR,7bR)-4-Nitrohexahydro-2H-furo[3',2':4,5]cyclopenta[1,2-b]furan-2,
6(3H)-dione
;
_chemical_melting_point 452
_cell_volume    933.196
_exptl_crystal_colour 'colorless'
_exptl_crystal_density_diffrn 1.617
_exptl_special_details
;
Absolute configuration

;
_exptl_crystal_description 'prism'
_exptl_crystal_preparation 'acetone'
_diffrn_ambient_temperature 210
#These two values have been output from a single CSD field.
_refine_ls_R_factor_gt 0.0239
_refine_ls_wR_factor_gt 0.0239
_symmetry_cell_setting orthorhombic
_symmetry_space_group_name_H-M 'P 21 21 21'
_symmetry_Int_Tables_number 19
loop_
_symmetry_equiv_pos_site_id
_symmetry_equiv_pos_as_xyz
1 x,y,z
2 1/2-x,-y,1/2+z
3 1/2+x,1/2-y,-z
4 -x,1/2+y,1/2-z
_cell_length_a 7.8617(6)
_cell_length_b 8.2347(6)
_cell_length_c 14.4148(14)
_cell_angle_alpha 90
_cell_angle_beta 90
_cell_angle_gamma 90
_cell_formula_units_Z 4
loop_
_atom_type_symbol
_atom_type_radius_bond
C 0.68
H 0.23
N 0.68
O 0.68
loop_
_atom_site_label
_atom_site_type_symbol
_atom_site_fract_x
_atom_site_fract_y
_atom_site_fract_z
C1 C 0.87244(18) 0.55203(18) 0.09062(11)
C2 C 1.01660(18) 0.55161(19) 0.02237(11)
H1 H 0.995(3) 0.623(2) -0.0327(14)
H2 H 1.025(2) 0.441(2) 0.0002(12)
C3 C 1.17224(16) 0.60216(16) 0.07855(10)
H3 H 1.197(2) 0.7100(19) 0.0677(10)
C4 C 1.32858(17) 0.49403(16) 0.06862(9)
H4 H 1.4266(19) 0.5471(19) 0.0943(10)
C5 C 1.28711(18) 0.33720(16) 0.1202(1)
H5 H 1.213(2) 0.267(2) 0.0822(11)
C6 C 1.4397(2) 0.25016(19) 0.16196(10)
H6 H 1.554(2) 0.264(2) 0.1286(12)
H7 H 1.407(2) 0.139(2) 0.1729(11)
C7 C 1.46162(18) 0.33109(18) 0.25443(10)
C8 C 1.19236(18) 0.40354(18) 0.20551(10)
H8 H 1.108(2) 0.333(2) 0.2288(11)
C9 C 1.11711(16) 0.56854(18) 0.17929(9)
H9 H 1.150(2) 0.653(2) 0.2243(10)
N1 N 1.38028(15) 0.46927(15) -0.03097(8)
O1 O 0.93257(12) 0.56011(13) 0.17824(7)
O2 O 0.72286(13) 0.54442(16) 0.07569(10)
O3 O 1.32452(13) 0.42435(13) 0.27497(6)
O4 O 1.58019(14) 0.32411(15) 0.30677(7)
O5 O 1.42440(15) 0.58831(14) -0.07434(7)
O6 O 1.37751(19) 0.33233(15) -0.06347(8)
#END
