
#######################################################################
#
#                 Cambridge Crystallographic Data Centre
#                                CCDC
#
#######################################################################
#
# If this CIF has been generated from an entry in the Cambridge
# Structural Database, then it will include bibliographic, chemical,
# crystal, experimental, refinement or atomic coordinate data resulting
# from the CCDC's data processing and validation procedures.
#
#######################################################################

data_CSD_CIF_IRIQAC
_audit_creation_date 2011-06-06
_audit_creation_method CSD-ConQuest-V1
_database_code_CSD IRIQAC
_database_code_depnum_ccdc_archive 'CCDC 796636'
_chemical_formula_sum 'C13 H12 N2 O2'
_chemical_formula_moiety
;
C13 H12 N2 O2
;
_journal_coden_Cambridge 16
_journal_volume 67
_journal_year 2011
_journal_page_first 1907
_journal_name_full 'Tetrahedron '
loop_
_publ_author_name
"M.G.Memeo"
"B.Bovio"
"P.Quadrelli"
_chemical_name_systematic
;
5-Phenyl-3-oxa-4,9-diaza-tricyclo(5.2.1.0^2,6^)dec-4-en-8-one
;
_cell_volume   2222.853
_exptl_crystal_colour 'colorless'
_exptl_crystal_density_diffrn 1.364
_exptl_crystal_description 'Prisms'
_diffrn_ambient_temperature 293
#These two values have been output from a single CSD field.
_refine_ls_R_factor_gt 0.0453
_refine_ls_wR_factor_gt 0.0453
_symmetry_cell_setting orthorhombic
_symmetry_space_group_name_H-M 'P b c a'
_symmetry_Int_Tables_number 61
loop_
_symmetry_equiv_pos_site_id
_symmetry_equiv_pos_as_xyz
1 x,y,z
2 1/2-x,-y,1/2+z
3 1/2+x,1/2-y,-z
4 -x,1/2+y,1/2-z
5 -x,-y,-z
6 -1/2+x,y,-1/2-z
7 -1/2-x,-1/2+y,z
8 x,-1/2-y,-1/2+z
_cell_length_a 9.303(1)
_cell_length_b 9.793(1)
_cell_length_c 24.399(4)
_cell_angle_alpha 90
_cell_angle_beta 90
_cell_angle_gamma 90
_cell_formula_units_Z 8
loop_
_atom_type_symbol
_atom_type_radius_bond
C 0.68
H 0.23
N 0.68
O 0.68
loop_
_atom_site_label
_atom_site_type_symbol
_atom_site_fract_x
_atom_site_fract_y
_atom_site_fract_z
C1 C 0.4242(2) 0.18937(16) 0.02893(7)
C2 C 0.30561(18) 0.22669(16) 0.06942(6)
O1 O 0.23019(15) 0.10558(13) 0.08778(5)
N1 N 0.25458(18) 0.08768(15) 0.14454(6)
C3 C 0.33701(16) 0.18179(15) 0.16260(6)
C4 C 0.38823(14) 0.27922(14) 0.11937(5)
C5 C 0.54790(15) 0.25862(15) 0.10159(6)
C6 C 0.56662(17) 0.36604(18) 0.05714(6)
N2 N 0.49503(17) 0.31758(15) 0.01318(5)
C7 C 0.53727(22) 0.12890(19) 0.06700(8)
O2 O 0.62748(13) 0.47753(13) 0.06028(4)
C8 C 0.36924(16) 0.19076(15) 0.22140(6)
C9 C 0.31042(22) 0.09761(19) 0.25852(8)
C10 C 0.33828(24) 0.10831(23) 0.31327(8)
C11 C 0.42448(24) 0.21080(25) 0.33300(8)
C12 C 0.48210(23) 0.30490(24) 0.29708(8)
C13 C 0.45571(20) 0.29359(19) 0.24145(7)
H1 H 0.3969(18) 0.1435(18) -0.0034(7)
H2 H 0.2385(20) 0.2938(17) 0.0537(6)
H3 H 0.3713(15) 0.3755(16) 0.1293(6)
H4 H 0.6170(17) 0.2610(15) 0.1306(6)
H5 H 0.4621(21) 0.3702(20) -0.0145(8)
H6 H 0.6296(23) 0.1088(20) 0.0455(8)
H7 H 0.4954(22) 0.0488(21) 0.0878(8)
H8 H 0.2457(28) 0.0356(23) 0.2450(8)
H9 H 0.2997(21) 0.0402(21) 0.3363(8)
H10 H 0.4373(22) 0.221(2) 0.3728(9)
H11 H 0.5467(25) 0.3736(23) 0.3095(9)
H12 H 0.4940(19) 0.3523(19) 0.2189(7)
#END
