
#######################################################################
#
#                 Cambridge Crystallographic Data Centre
#                                CCDC
#
#######################################################################
#
# If this CIF has been generated from an entry in the Cambridge
# Structural Database, then it will include bibliographic, chemical,
# crystal, experimental, refinement or atomic coordinate data resulting
# from the CCDC's data processing and validation procedures.
#
#######################################################################

data_CSD_CIF_IROYUK
_audit_creation_date 2011-08-21
_audit_creation_method CSD-ConQuest-V1
_database_code_CSD IROYUK
_database_code_depnum_ccdc_archive 'CCDC 802308'
_chemical_formula_sum 'C24 H21 N3 O4'
_chemical_formula_moiety
;
C24 H21 N3 O4
;
_journal_coden_Cambridge 1476
_journal_volume 2
_journal_year 2011
_journal_page_first 626
_journal_name_full 'MedChemComm '
loop_
_publ_author_name
"S.M.Rajesh"
"S.Perumal"
"J.C.Menendez"
"P.Yogeeswari"
"D.Sriram"
_chemical_name_systematic
;
3'-(4-Methoxyphenyl)-4'-nitro-5'-phenylspiro[indole-3,2'-pyrrolidin]-2(1H)-one
;
_cell_volume   4088.987
_exptl_crystal_colour 'colorless'
_exptl_crystal_density_diffrn 1.35
_exptl_crystal_description 'block'
_diffrn_ambient_temperature 293
#These two values have been output from a single CSD field.
_refine_ls_R_factor_gt 0.077
_refine_ls_wR_factor_gt 0.077
_symmetry_cell_setting monoclinic
_symmetry_space_group_name_H-M 'I 2/a'
_symmetry_Int_Tables_number 15
loop_
_symmetry_equiv_pos_site_id
_symmetry_equiv_pos_as_xyz
1 x,y,z
2 1/2-x,y,-z
3 1/2+x,1/2+y,1/2+z
4 -x,1/2+y,1/2-z
5 -x,-y,-z
6 -1/2+x,-y,z
7 -1/2-x,-1/2-y,-1/2-z
8 x,-1/2-y,-1/2+z
_cell_length_a 17.888(4)
_cell_length_b 11.260(3)
_cell_length_c 21.426(2)
_cell_angle_alpha 90
_cell_angle_beta 108.65(4)
_cell_angle_gamma 90
_cell_formula_units_Z 8
loop_
_atom_type_symbol
_atom_type_radius_bond
C 0.68
H 0.23
N 0.68
O 0.68
loop_
_atom_site_label
_atom_site_type_symbol
_atom_site_fract_x
_atom_site_fract_y
_atom_site_fract_z
H1 H 0.010(3) 0.151(3) 0.0796(19)
H2 H -0.002(3) 0.512(4) 0.063(2)
O1 O 0.06185(15) 0.3632(2) 0.00584(11)
O2 O 0.26050(18) 0.0375(3) 0.15594(18)
C1 C 0.17903(17) 0.2595(2) 0.13147(13)
H3 H 0.19930 0.21910 0.17410
N1 N 0.06187(17) 0.1531(2) 0.09922(15)
C2 C 0.22647(17) 0.3727(3) 0.13644(15)
C3 C 0.0132(2) 0.4625(4) 0.2565(2)
H4 H -0.00330 0.50860 0.28560
C4 C 0.18393(18) 0.1707(3) 0.07875(15)
H5 H 0.18970 0.21450 0.04100
O3 O 0.3477(2) 0.6906(3) 0.14068(18)
C5 C 0.10892(18) -0.0315(3) 0.05955(15)
N2 N 0.25391(17) 0.0928(3) 0.10624(17)
C6 C 0.10352(18) 0.1024(3) 0.05646(15)
H6 H 0.07490 0.12520 0.01090
C7 C 0.2370(2) 0.4483(3) 0.18873(19)
H7 H 0.21720 0.42790 0.22240
N3 N 0.02074(17) 0.4547(3) 0.08543(16)
C8 C 0.0768(2) 0.2857(3) 0.23524(18)
H8 H 0.10240 0.21390 0.24930
C9 C 0.06451(17) 0.3260(3) 0.17190(16)
C10 C 0.02644(18) 0.4330(3) 0.15132(17)
C11 C 0.2613(3) 0.4059(4) 0.0900(2)
H9 H 0.25670 0.35490 0.05480
C12 C 0.05632(18) 0.3674(3) 0.06152(16)
C13 C 0.08901(17) 0.2740(3) 0.11642(15)
C14 C 0.3080(2) 0.5868(3) 0.1429(2)
C15 C 0.0004(2) 0.5032(3) 0.1933(2)
H10 H -0.02490 0.57510 0.17940
C16 C 0.1309(2) -0.0921(3) 0.01176(19)
H11 H 0.14030 -0.04990 -0.02230
O4 O 0.3022(2) 0.0899(4) 0.0772(2)
C17 C 0.0933(3) -0.0974(3) 0.1083(2)
H12 H 0.07780 -0.05940 0.14070
C18 C 0.2780(2) 0.5576(3) 0.1920(2)
H13 H 0.28430 0.60890 0.22740
C19 C 0.0500(2) 0.3550(4) 0.27777(19)
H14 H 0.05680 0.32890 0.32040
C20 C 0.1006(3) -0.2203(4) 0.1090(2)
H15 H 0.08940 -0.26410 0.14170
C21 C 0.1239(2) -0.2774(3) 0.0623(2)
H16 H 0.12940 -0.35960 0.06360
C22 C 0.1392(3) -0.2142(4) 0.0141(2)
H17 H 0.15530 -0.25310 -0.01770
C23 C 0.3021(3) 0.5094(5) 0.0931(2)
H18 H 0.32560 0.52670 0.06120
C24 C 0.3488(3) 0.7792(4) 0.1855(4)
H19 H 0.37830 0.84580 0.17790
H20 H 0.37320 0.74990 0.22940
H21 H 0.29580 0.80370 0.18030
#END
