
#######################################################################
#
#                 Cambridge Crystallographic Data Centre
#                                CCDC
#
#######################################################################
#
# If this CIF has been generated from an entry in the Cambridge
# Structural Database, then it will include bibliographic, chemical,
# crystal, experimental, refinement or atomic coordinate data resulting
# from the CCDC's data processing and validation procedures.
#
#######################################################################

data_CSD_CIF_IROYOE
_audit_creation_date 2011-08-22
_audit_creation_method CSD-ConQuest-V1
_database_code_CSD IROYOE
_database_code_depnum_ccdc_archive 'CCDC 800956'
_chemical_formula_sum 'C22 H23 N3 O5'
_chemical_formula_moiety
;
C22 H23 N3 O5
;
_journal_coden_Cambridge 1476
_journal_volume 2
_journal_year 2011
_journal_page_first 626
_journal_name_full 'MedChemComm '
loop_
_publ_author_name
"S.M.Rajesh"
"S.Perumal"
"J.C.Menendez"
"P.Yogeeswari"
"D.Sriram"
_chemical_name_systematic
;
2'-(2,5-Dimethoxyphenyl)-1'-nitro-1',2',5',6',7',7a'-hexahydrospiro[indole-3,3
'-pyrrolizin]-2(1H)-one
;
_cell_volume   1993.196
_exptl_crystal_colour 'colorless'
_exptl_crystal_density_diffrn 1.364
_exptl_crystal_description 'block'
_diffrn_ambient_temperature 293
#These two values have been output from a single CSD field.
_refine_ls_R_factor_gt 0.0492
_refine_ls_wR_factor_gt 0.0492
_symmetry_cell_setting monoclinic
_symmetry_space_group_name_H-M 'P 21/a'
_symmetry_Int_Tables_number 14
loop_
_symmetry_equiv_pos_site_id
_symmetry_equiv_pos_as_xyz
1 x,y,z
2 1/2-x,1/2+y,-z
3 -x,-y,-z
4 -1/2+x,-1/2-y,z
_cell_length_a 9.676(5)
_cell_length_b 14.400(5)
_cell_length_c 14.309(5)
_cell_angle_alpha 90
_cell_angle_beta 91.333(5)
_cell_angle_gamma 90
_cell_formula_units_Z 4
loop_
_atom_type_symbol
_atom_type_radius_bond
C 0.68
H 0.23
N 0.68
O 0.68
loop_
_atom_site_label
_atom_site_type_symbol
_atom_site_fract_x
_atom_site_fract_y
_atom_site_fract_z
O1 O 0.20067(17) 0.40556(12) 0.90587(11)
O2 O 0.41309(18) 0.57424(12) 0.58361(10)
C1 C 0.3372(2) 0.42465(14) 0.89132(14)
N1 N 0.3878(2) 0.41689(14) 0.56370(14)
C2 C 0.2455(2) 0.52696(13) 0.76168(13)
H1 H 0.16110 0.51090 0.79460
C3 C 0.3647(2) 0.48847(14) 0.81980(13)
C4 C 0.2392(2) 0.63022(14) 0.74358(14)
H2 H 0.33140 0.65180 0.72670
O3 O 0.2035(3) 0.76919(14) 0.81938(16)
C5 C 0.5803(3) 0.41128(17) 0.92692(16)
H3 H 0.65200 0.38540 0.96270
N2 N 0.12081(19) 0.54784(13) 0.61667(11)
C6 C 0.5007(2) 0.51213(15) 0.80440(15)
H4 H 0.52050 0.55470 0.75760
C7 C 0.2057(2) 0.38362(15) 0.65597(14)
O4 O 0.1388(2) 0.64750(14) 0.89024(13)
C8 C 0.1393(3) 0.64259(16) 0.65761(15)
H5 H 0.18340 0.68270 0.61170
N3 N 0.1918(2) 0.68546(14) 0.82541(14)
C9 C 0.2279(2) 0.48747(14) 0.66130(13)
C10 C 0.4449(3) 0.38678(16) 0.94402(16)
H6 H 0.42610 0.34460 0.99120
C11 C 0.1168(3) 0.32524(17) 0.70265(17)
H7 H 0.05200 0.34950 0.74300
C12 C -0.0244(3) 0.52106(18) 0.62714(17)
H8 H -0.03950 0.49370 0.68800
H9 H -0.05390 0.47750 0.57890
C13 C 0.1255(3) 0.22971(18) 0.6884(2)
H10 H 0.06690 0.18980 0.71990
C14 C 0.3029(2) 0.34576(16) 0.59765(14)
C15 C 0.3569(2) 0.50000(16) 0.59963(14)
C16 C 0.6094(2) 0.47349(16) 0.85762(16)
C17 C 0.3120(3) 0.25131(18) 0.58178(18)
H11 H 0.37710 0.22720 0.54160
C18 C -0.0989(3) 0.6127(2) 0.6167(2)
H12 H -0.19110 0.60960 0.64170
H13 H -0.10520 0.63190 0.55170
C19 C -0.0069(3) 0.6778(2) 0.6737(2)
H14 H -0.02880 0.67480 0.73940
H15 H -0.01740 0.74130 0.65220
C20 C 0.1695(4) 0.3315(2) 0.9669(3)
H16 H 0.07100 0.32540 0.97110
H17 H 0.20880 0.34400 1.02780
H18 H 0.20740 0.27480 0.94320
C21 C 0.2214(3) 0.19397(19) 0.6273(2)
H19 H 0.22450 0.13030 0.61700
O5 O 0.73933(18) 0.50248(14) 0.83539(13)
C22 C 0.8515(3) 0.4615(3) 0.8865(2)
H20 H 0.93700 0.48760 0.86600
H21 H 0.85180 0.39570 0.87590
H22 H 0.84160 0.47360 0.95200
H23 H 0.446(3) 0.4114(19) 0.526(2)
#END
