
#######################################################################
#
#                 Cambridge Crystallographic Data Centre
#                                CCDC
#
#######################################################################
#
# If this CIF has been generated from an entry in the Cambridge
# Structural Database, then it will include bibliographic, chemical,
# crystal, experimental, refinement or atomic coordinate data resulting
# from the CCDC's data processing and validation procedures.
#
#######################################################################

data_CSD_CIF_IROZIY
_audit_creation_date 2004-05-25
_audit_creation_method CSD-ConQuest-V1
_database_code_CSD IROZIY
_database_code_depnum_ccdc_archive 'CCDC 236595'
_chemical_formula_sum 'C19 H20 N2 O7'
_chemical_formula_moiety
;
C19 H20 N2 O7
;
_journal_coden_Cambridge 95
_journal_year 2003
_journal_page_first 1103
_journal_name_full 'Izv.Akad.Nauk SSSR,Ser.Khim.(Russ.)(Russ.Chem.Bull.) '
loop_
_publ_author_name
"A.M.Shestopalov"
"Yu.M.Emel'yanova"
"V.N.Nesterov"
_chemical_name_systematic
;
2-methoxyethyl 
2-amino-4-(2-nitrophenyl)-5-oxo-5,6,7,8-tetrahydro-4H-benzo(b)pyran-3-carboxyl
ate
;
_chemical_melting_point 408.15
_cell_volume   1846.081
_exptl_crystal_colour 'pale yellow'
_exptl_crystal_density_diffrn 1.397
_exptl_crystal_description 'prism'
_exptl_crystal_preparation 'ethanol'
_diffrn_ambient_temperature 295
#These two values have been output from a single CSD field.
_refine_ls_R_factor_gt 0.0539
_refine_ls_wR_factor_gt 0.0539
_symmetry_cell_setting monoclinic
_symmetry_space_group_name_H-M 'P 21/n'
_symmetry_Int_Tables_number 14
loop_
_symmetry_equiv_pos_site_id
_symmetry_equiv_pos_as_xyz
1 x,y,z
2 1/2+x,1/2-y,1/2+z
3 -x,-y,-z
4 -1/2-x,-1/2+y,-1/2-z
_cell_length_a 8.4550(16)
_cell_length_b 8.9156(18)
_cell_length_c 24.670(5)
_cell_angle_alpha 90
_cell_angle_beta 96.928(15)
_cell_angle_gamma 90
_cell_formula_units_Z 4
loop_
_atom_type_symbol
_atom_type_radius_bond
C 0.68
H 0.23
N 0.68
O 0.68
loop_
_atom_site_label
_atom_site_type_symbol
_atom_site_fract_x
_atom_site_fract_y
_atom_site_fract_z
O1 O 0.31306(16) 0.80311(15) 0.08475(5)
O2 O 0.51447(19) 0.99477(18) 0.25737(6)
O3 O 0.86640(18) 1.11505(19) 0.20734(6)
O4 O 0.7610(2) 1.24016(17) 0.26811(6)
O5 O 0.73682(19) 0.89174(18) 0.01784(6)
O6 O 0.80283(16) 1.05186(16) 0.08698(6)
O7 O 0.8422(2) 1.35511(19) 0.05049(8)
N1 N 0.4472(2) 0.7644(2) 0.01456(7)
H1 H 0.52670 0.77240 -0.00390
H2 H 0.36490 0.71300 0.00180
N2 N 0.7638(2) 1.19654(17) 0.22115(6)
C1 C 0.7071(2) 0.9478(2) 0.06078(7)
C2 C 0.4515(2) 0.83185(19) 0.06293(7)
C3 C 0.5708(2) 0.91696(18) 0.08915(7)
C4 C 0.5603(2) 0.98179(17) 0.14558(6)
H3 H 0.65790 0.95510 0.16920
C5 C 0.4200(2) 0.91274(18) 0.16923(7)
C6 C 0.4128(2) 0.9260(2) 0.22848(8)
C7 C 0.2786(3) 0.8449(3) 0.25119(11)
H4 H 0.31290 0.74390 0.26140
H5 H 0.25450 0.89600 0.28390
C8 C 0.1306(3) 0.8369(3) 0.21141(13)
H6 H 0.08740 0.93710 0.20530
H7 H 0.05170 0.77680 0.22700
C9 C 0.1606(3) 0.7703(2) 0.1579(1)
H8 H 0.17290 0.66250 0.16180
H9 H 0.06980 0.78950 0.13080
C10 C 0.3069(2) 0.8354(2) 0.13897(8)
C11 C 0.54424(19) 1.15324(18) 0.14495(6)
C12 C 0.6377(2) 1.25037(19) 0.17949(7)
C13 C 0.6194(3) 1.4051(2) 0.17780(8)
H10 H 0.68310 1.46580 0.20210
C14 C 0.5065(3) 1.4673(2) 0.13987(9)
H11 H 0.49620 1.57100 0.13710
C15 C 0.4083(2) 1.3748(2) 0.10582(8)
H12 H 0.32970 1.41630 0.08060
C16 C 0.4262(2) 1.2206(2) 0.10908(7)
H13 H 0.35700 1.16020 0.08650
C17 C 0.9345(3) 1.1055(3) 0.06053(11)
H14 H 0.90940 1.09770 0.02120
H15 H 1.02850 1.04540 0.07160
C18 C 0.9654(3) 1.2646(3) 0.07634(11)
H16 H 0.97040 1.27500 0.11560
H17 H 1.06680 1.29630 0.06550
C19 C 0.8608(4) 1.5100(3) 0.06439(16)
H18 H 0.77050 1.56520 0.04750
H19 H 0.95610 1.54780 0.05170
H20 H 0.86840 1.52120 0.10330
#END
