
#######################################################################
#
#                 Cambridge Crystallographic Data Centre
#                                CCDC
#
#######################################################################
#
# If this CIF has been generated from an entry in the Cambridge
# Structural Database, then it will include bibliographic, chemical,
# crystal, experimental, refinement or atomic coordinate data resulting
# from the CCDC's data processing and validation procedures.
#
#######################################################################

data_CSD_CIF_IRUCAZ
_audit_creation_date 2004-05-25
_audit_creation_method CSD-ConQuest-V1
_database_code_CSD IRUCAZ
_database_code_depnum_ccdc_archive 'CCDC 236601'
_chemical_formula_sum 'C8 H7 N3 O3'
_chemical_formula_moiety
;
C8 H7 N3 O3
;
_journal_coden_Cambridge 95
_journal_year 2003
_journal_page_first 1337
_journal_name_full 'Izv.Akad.Nauk SSSR,Ser.Khim.(Russ.)(Russ.Chem.Bull.) '
loop_
_publ_author_name
"A.B.Sheremetev"
"S.M.Konkina"
"I.L.Yudin"
"D.E.Dmitriev"
"B.B.Averkiev"
"M.Yu.Antipin"
_chemical_name_systematic
;
Methyl 3-(pyrrol-1-yl)furazan-4-carboxylate
;
_chemical_melting_point 311.15
_cell_volume   1696.460
_exptl_crystal_colour 'colorless'
_exptl_crystal_density_diffrn 1.513
_exptl_special_details
;
Melting point range 311.15-313.15K

;
_exptl_crystal_description 'plate'
_diffrn_ambient_temperature 110
#These two values have been output from a single CSD field.
_refine_ls_R_factor_gt 0.0487
_refine_ls_wR_factor_gt 0.0487
_symmetry_cell_setting monoclinic
_symmetry_space_group_name_H-M 'C 2/c'
_symmetry_Int_Tables_number 15
loop_
_symmetry_equiv_pos_site_id
_symmetry_equiv_pos_as_xyz
1 x,y,z
2 1/2+x,1/2+y,z
3 x,-y,1/2+z
4 1/2+x,1/2-y,1/2+z
5 -x,-y,-z
6 -1/2-x,-1/2-y,-z
7 -x,y,-1/2-z
8 -1/2-x,-1/2+y,-1/2-z
_cell_length_a 15.161(6)
_cell_length_b 9.819(4)
_cell_length_c 13.368(6)
_cell_angle_alpha 90
_cell_angle_beta 121.518(8)
_cell_angle_gamma 90
_cell_formula_units_Z 8
loop_
_atom_type_symbol
_atom_type_radius_bond
C 0.68
H 0.23
N 0.68
O 0.68
loop_
_atom_site_label
_atom_site_type_symbol
_atom_site_fract_x
_atom_site_fract_y
_atom_site_fract_z
C1 C 0.12567(16) 0.0880(2) 0.08487(18)
O1 O 0.11853(11) -0.25302(15) 0.32603(12)
N1 N 0.12652(12) 0.04198(17) 0.18544(13)
H1 H 0.1320(13) 0.023(2) 0.0362(16)
O2 O 0.10073(11) -0.39563(14) 0.03649(11)
N2 N 0.12370(13) -0.11139(18) 0.31686(14)
C2 C 0.12785(16) 0.2263(2) 0.08837(19)
H2 H 0.1322(15) 0.279(2) 0.0315(18)
O3 O 0.14869(11) -0.18739(14) 0.00932(12)
C3 C 0.12999(17) 0.2688(2) 0.19162(19)
N3 N 0.11565(13) -0.31911(18) 0.23372(14)
H3 H 0.1356(13) 0.3616(18) 0.2166(15)
C4 C 0.12902(16) 0.1551(2) 0.2492(2)
H4 H 0.1293(15) 0.142(2) 0.3238(19)
C5 C 0.12412(14) -0.0922(2) 0.21916(16)
C6 C 0.11879(15) -0.2233(2) 0.16707(17)
C7 C 0.12392(16) -0.2634(2) 0.06162(18)
C8 C 0.1063(2) -0.4449(3) -0.0638(2)
H5 H 0.1800(18) -0.455(2) -0.0353(19)
H6 H 0.0755(17) -0.372(2) -0.1286(19)
H7 H 0.0595(16) -0.526(2) -0.0922(17)
#END
