
#######################################################################
#
#                 Cambridge Crystallographic Data Centre
#                                CCDC
#
#######################################################################
#
# If this CIF has been generated from an entry in the Cambridge
# Structural Database, then it will include bibliographic, chemical,
# crystal, experimental, refinement or atomic coordinate data resulting
# from the CCDC's data processing and validation procedures.
#
#######################################################################

data_CSD_CIF_IRUQIX
_audit_creation_date 2016-08-12
_audit_creation_method CSD-ConQuest-V1
_database_code_CSD IRUQIX
_database_code_depnum_ccdc_archive 'CCDC 1444513'
_chemical_formula_sum 'C4 H4 N6 O5'
_chemical_formula_moiety
;
C4 H4 N6 O5
;
_journal_coden_Cambridge 1135
_journal_volume 26
_journal_year 2016
_journal_page_first 323
_journal_name_full 'Mendeleev Commun. '
loop_
_publ_author_name
"V.M.Berestovitskaya"
"O.Yu.Ozerova"
"T.P.Efimova"
"V.V.Gurzhiy"
"T.A.Novikova"
_chemical_name_systematic
;
3-(nitroimino)-6-(nitromethyl)-3,4-dihydro-1,2,4-triazin-5(2H)-one
;
_cell_volume    769.438
_exptl_crystal_colour 'light orange'
_exptl_crystal_density_diffrn 1.866
_exptl_crystal_description 'prism'
_diffrn_ambient_temperature 150
#These two values have been output from a single CSD field.
_refine_ls_R_factor_gt 0.0357
_refine_ls_wR_factor_gt 0.0357
_symmetry_cell_setting monoclinic
_symmetry_space_group_name_H-M 'P 21/c'
_symmetry_Int_Tables_number 14
loop_
_symmetry_equiv_pos_site_id
_symmetry_equiv_pos_as_xyz
1 x,y,z
2 -x,1/2+y,1/2-z
3 -x,-y,-z
4 x,-1/2-y,-1/2+z
_cell_length_a 5.2937(10)
_cell_length_b 9.7054(17)
_cell_length_c 15.059(3)
_cell_angle_alpha 90
_cell_angle_beta 96.012(3)
_cell_angle_gamma 90
_cell_formula_units_Z 4
loop_
_atom_type_symbol
_atom_type_radius_bond
C 0.68
H 0.23
N 0.68
O 0.68
loop_
_atom_site_label
_atom_site_type_symbol
_atom_site_fract_x
_atom_site_fract_y
_atom_site_fract_z
O1 O 0.6497(3) 0.15974(14) 0.61143(9)
O2 O 0.4779(3) -0.02506(14) 0.65980(9)
O3 O 0.0291(3) 0.61885(14) 0.43108(8)
O4 O -0.1770(3) 0.70185(14) 0.31046(9)
O5 O 0.5142(3) 0.47497(14) 0.39948(9)
N1 N 0.0420(3) 0.17029(16) 0.42665(10)
H1 H -0.04890 0.09690 0.42740
N2 N -0.0400(3) 0.27025(16) 0.3679(1)
N3 N 0.4127(3) 0.28286(15) 0.47457(10)
H2 H 0.55190 0.28720 0.50950
N4 N 0.2761(3) 0.07324(16) 0.54284(10)
N5 N 0.4789(3) 0.07212(17) 0.60686(11)
N6 N -0.0486(3) 0.61300(16) 0.35153(11)
C1 C 0.1105(4) 0.37474(19) 0.36139(12)
C2 C 0.3619(3) 0.38598(19) 0.41100(12)
C3 C 0.2544(3) 0.17664(19) 0.48404(12)
C4 C 0.0205(4) 0.48811(19) 0.29930(12)
H3 H -0.12670 0.45750 0.26050
H4 H 0.15310 0.51220 0.26220
#END
