
#######################################################################
#
#                 Cambridge Crystallographic Data Centre
#                                CCDC
#
#######################################################################
#
# If this CIF has been generated from an entry in the Cambridge
# Structural Database, then it will include bibliographic, chemical,
# crystal, experimental, refinement or atomic coordinate data resulting
# from the CCDC's data processing and validation procedures.
#
#######################################################################

data_CSD_CIF_IRUXID
_audit_creation_date 2011-08-04
_audit_creation_method CSD-ConQuest-V1
_database_code_CSD IRUXID
_database_code_depnum_ccdc_archive 'CCDC 778912'
_chemical_formula_sum 'C22 H18 N2 O5'
_chemical_formula_moiety
;
C22 H18 N2 O5
;
_journal_coden_Cambridge 692
_journal_year 2011
_journal_page_first 924
_journal_name_full 'Synthesis '
loop_
_publ_author_name
"A.Sar"
"S.Lindeman"
"W.A.Donaldson"
_chemical_name_systematic
;
(+-)-2-(3-(Hydroxy(phenyl)acetyl)-2-oxa-3-azabicyclo[2.2.2]oct-7-en-6-yl)-1H-i
soindole-1,3(2H)-dione
;
_chemical_name_common
;
(+-)-3-Mandeloyl-7-phthalimido-2-oxa-3-azabicyclo[2.2.2]oct-5-ene
;
_chemical_melting_point 433.15
_cell_volume   3610.740
_exptl_crystal_colour 'colorless'
_exptl_crystal_density_diffrn 1.436
_exptl_special_details
;
Melting point range 433.15-435.15K

;
_exptl_crystal_description 'block'
_diffrn_ambient_temperature 100
#These two values have been output from a single CSD field.
_refine_ls_R_factor_gt 0.0253
_refine_ls_wR_factor_gt 0.0253
_symmetry_cell_setting orthorhombic
_symmetry_space_group_name_H-M 'A b a 2'
_symmetry_Int_Tables_number 41
loop_
_symmetry_equiv_pos_site_id
_symmetry_equiv_pos_as_xyz
1 x,y,z
2 -x,-y,z
3 1/2+x,1/2-y,z
4 1/2-x,1/2+y,z
5 x,1/2+y,1/2+z
6 -x,1/2-y,1/2+z
7 1/2+x,-y,1/2+z
8 1/2-x,y,1/2+z
_cell_length_a 21.9065(4)
_cell_length_b 28.3819(6)
_cell_length_c 5.8074(1)
_cell_angle_alpha 90
_cell_angle_beta 90
_cell_angle_gamma 90
_cell_formula_units_Z 8
loop_
_atom_type_symbol
_atom_type_radius_bond
C 0.68
H 0.23
N 0.68
O 0.68
loop_
_atom_site_label
_atom_site_type_symbol
_atom_site_fract_x
_atom_site_fract_y
_atom_site_fract_z
O1 O 0.38788(5) 0.50134(3) 0.70937(18)
O2 O 0.28624(4) 0.37321(3) 0.94828(18)
O3 O 0.39370(4) 0.35304(3) 0.27643(19)
O4 O 0.31301(4) 0.57285(3) 0.30645(19)
O5 O 0.29013(5) 0.62417(3) 0.6928(2)
H1 H 0.2592(10) 0.6144(6) 0.741(4)
N1 N 0.37066(6) 0.52002(4) 0.4903(2)
N2 N 0.34423(5) 0.37637(4) 0.6148(2)
C1 C 0.34152(6) 0.42770(5) 0.5965(3)
H2 H 0.30840 0.43850 0.70270
C2 C 0.40164(6) 0.45098(4) 0.6801(3)
H3 H 0.41480 0.43690 0.83000
C3 C 0.45128(6) 0.44606(5) 0.5043(3)
H4 H 0.48930 0.43110 0.53360
C4 C 0.43639(6) 0.46477(5) 0.3044(3)
H5 H 0.46300 0.46520 0.17530
C5 C 0.37315(6) 0.48545(5) 0.3004(3)
H6 H 0.36430 0.50070 0.14890
C6 C 0.32597(6) 0.44679(5) 0.3559(3)
H7 H 0.28420 0.46010 0.35440
H8 H 0.32820 0.42120 0.24030
C7 C 0.32158(6) 0.30223(5) 0.7553(3)
C8 C 0.35217(6) 0.29638(5) 0.5478(2)
C9 C 0.36323(6) 0.25194(5) 0.4582(3)
H9 H 0.38460 0.24780 0.31720
C10 C 0.34165(7) 0.21334(5) 0.5842(3)
H10 H 0.34760 0.18240 0.52570
C11 C 0.31167(6) 0.21934(5) 0.7931(3)
H11 H 0.29810 0.19250 0.87600
C12 C 0.30127(6) 0.26422(5) 0.8829(3)
H12 H 0.28100 0.26850 1.02600
C13 C 0.31379(5) 0.35351(4) 0.7960(3)
C14 C 0.36727(6) 0.34382(5) 0.4530(3)
C15 C 0.33691(6) 0.55977(5) 0.4876(3)
C16 C 0.33516(6) 0.58858(5) 0.7101(3)
H13 H 0.32570 0.56750 0.84330
C17 C 0.39650(6) 0.61236(5) 0.7473(3)
C18 C 0.42946(6) 0.60489(5) 0.9488(3)
H14 H 0.41520 0.58280 1.05940
C19 C 0.48345(6) 0.62975(5) 0.9890(3)
H15 H 0.50580 0.62450 1.12680
C20 C 0.50444(6) 0.66194(5) 0.8295(3)
H16 H 0.54060 0.67940 0.85920
C21 C 0.47247(6) 0.66875(5) 0.6250(3)
H17 H 0.48740 0.69030 0.51310
C22 C 0.41855(6) 0.64396(5) 0.5842(3)
H18 H 0.39680 0.64870 0.44450
#END
