
#######################################################################
#
#                 Cambridge Crystallographic Data Centre
#                                CCDC
#
#######################################################################
#
# If this CIF has been generated from an entry in the Cambridge
# Structural Database, then it will include bibliographic, chemical,
# crystal, experimental, refinement or atomic coordinate data resulting
# from the CCDC's data processing and validation procedures.
#
#######################################################################

data_CSD_CIF_ISABEJ
_audit_creation_date 2004-06-17
_audit_creation_method CSD-ConQuest-V1
_database_code_CSD ISABEJ
_database_code_depnum_ccdc_archive 'CCDC 232225'
_chemical_formula_sum 'C14 H17 N4 O2'
_chemical_formula_moiety
;
C14 H17 N4 O2
;
_journal_coden_Cambridge 1147
_journal_volume 4
_journal_year 2004
_journal_page_first 19
_journal_name_full 'Cryst.Growth Des. '
loop_
_publ_author_name
"H.Nagashima"
"S.Fujita"
"H.Inoue"
"N.Yoshioka"
_chemical_name_systematic
;
2-(5-Azaindol-2-yl)-4,4,5,5-tetramethyl-4,5-dihydro-1H-imidazoline-1-oxyl-3-ox
ide
;
_chemical_melting_point 469
_cell_volume   1432.295
_exptl_crystal_colour 'dark blue'
_exptl_crystal_density_diffrn 1.267
_exptl_special_details
;
Melting point range 469-479K

;
_exptl_crystal_description 'needle'
_exptl_crystal_preparation 'dichloromethane/n-hexane'
_diffrn_ambient_temperature 297.2
#These two values have been output from a single CSD field.
_refine_ls_R_factor_gt 0.045
_refine_ls_wR_factor_gt 0.045
_symmetry_cell_setting monoclinic
_symmetry_space_group_name_H-M 'P 21/a'
_symmetry_Int_Tables_number 14
loop_
_symmetry_equiv_pos_site_id
_symmetry_equiv_pos_as_xyz
1 x,y,z
2 1/2+x,1/2-y,z
3 -x,-y,-z
4 -1/2-x,-1/2+y,-z
_cell_length_a 13.537(3)
_cell_length_b 9.918(1)
_cell_length_c 11.304(2)
_cell_angle_alpha 90
_cell_angle_beta 109.31(1)
_cell_angle_gamma 90
_cell_formula_units_Z 4
loop_
_atom_type_symbol
_atom_type_radius_bond
C 0.68
H 0.23
N 0.68
O 0.68
loop_
_atom_site_label
_atom_site_type_symbol
_atom_site_fract_x
_atom_site_fract_y
_atom_site_fract_z
O1 O 0.76637(9) 0.1818(2) 0.8930(1)
O2 O 1.0514(1) 0.1482(2) 0.7593(2)
N1 N 0.8228(1) 0.1527(1) 0.8255(1)
N2 N 0.9589(1) 0.1342(2) 0.7634(1)
N3 N 1.0856(1) 0.3036(1) 0.9711(1)
N4 N 1.1613(1) 0.5136(2) 1.3029(1)
C1 C 0.9242(1) 0.1847(2) 0.8532(1)
C2 C 0.7839(1) 0.0611(2) 0.7142(2)
C3 C 0.8734(1) 0.0737(2) 0.6563(2)
C4 C 0.6769(2) 0.1098(3) 0.6305(2)
C5 C 0.7756(3) -0.0784(2) 0.7671(3)
C6 C 0.8518(2) 0.1766(2) 0.5498(2)
C7 C 0.9107(2) -0.0582(3) 0.6179(3)
C8 C 0.9853(1) 0.2614(2) 0.9595(1)
C9 C 0.9593(1) 0.3076(2) 1.0601(2)
C10 C 1.1242(1) 0.3772(2) 1.0783(1)
C11 C 1.0472(1) 0.3815(2) 1.1367(1)
C12 C 1.0710(1) 0.4521(2) 1.2498(2)
C13 C 1.2330(2) 0.5074(2) 1.2430(2)
C14 C 1.2199(1) 0.4418(2) 1.1322(2)
H1 H 1.121(2) 0.285(2) 0.921(2)
H2 H 0.626(2) 0.109(3) 0.678(2)
H3 H 0.654(2) 0.056(3) 0.554(3)
H4 H 0.687(2) 0.210(3) 0.607(2)
H5 H 0.726(2) -0.069(3) 0.813(3)
H6 H 0.845(3) -0.112(3) 0.823(3)
H7 H 0.744(2) -0.143(3) 0.690(3)
H8 H 0.829(2) 0.271(3) 0.573(2)
H9 H 0.793(2) 0.142(3) 0.477(2)
H10 H 0.914(2) 0.184(3) 0.528(2)
H11 H 0.931(2) -0.117(3) 0.697(3)
H12 H 0.973(2) -0.038(3) 0.592(2)
H13 H 0.857(2) -0.103(3) 0.556(3)
H14 H 0.894(1) 0.290(2) 1.071(2)
H15 H 1.019(2) 0.457(2) 1.292(2)
H16 H 1.298(2) 0.556(2) 1.284(2)
H17 H 1.272(2) 0.439(2) 1.097(2)
#END
