
#######################################################################
#
#                 Cambridge Crystallographic Data Centre
#                                CCDC
#
#######################################################################
#
# If this CIF has been generated from an entry in the Cambridge
# Structural Database, then it will include bibliographic, chemical,
# crystal, experimental, refinement or atomic coordinate data resulting
# from the CCDC's data processing and validation procedures.
#
#######################################################################

data_CSD_CIF_ISAXUV01
_audit_creation_date 2014-10-15
_audit_creation_method CSD-ConQuest-V1
_database_code_CSD ISAXUV01
_database_code_depnum_ccdc_archive 'CCDC 1029258'
_chemical_formula_sum 'C7 H7 N3 O4'
_chemical_formula_moiety
;
C7 H7 N3 O4
;
_journal_coden_Cambridge 1078
_journal_year 2014
_journal_name_full 'CSD Communication(Private Communication) '
loop_
_publ_author_name
"T.Junk"
"F.R.Fronczek"
_chemical_name_systematic
;
2-Methyl-3,5-dinitroaniline
;
_chemical_name_common
;
2-Amino-4,6-dinitrotoluene
;
_cell_volume    834.984
_exptl_crystal_colour 'yellow'
_exptl_crystal_density_diffrn 1.568
_exptl_crystal_description 'prism'
_diffrn_ambient_temperature 90
_diffrn_special_details
;
pseudomerohedral twin

;
#These two values have been output from a single CSD field.
_refine_ls_R_factor_gt 0.0335
_refine_ls_wR_factor_gt 0.0335
_symmetry_cell_setting monoclinic
_symmetry_space_group_name_H-M 'P 21/c'
_symmetry_Int_Tables_number 14
loop_
_symmetry_equiv_pos_site_id
_symmetry_equiv_pos_as_xyz
1 x,y,z
2 -x,1/2+y,1/2-z
3 -x,-y,-z
4 x,-1/2-y,-1/2+z
_cell_length_a 8.0556(4)
_cell_length_b 15.9201(8)
_cell_length_c 6.5108(3)
_cell_angle_alpha 90
_cell_angle_beta 90.033(1)
_cell_angle_gamma 90
_cell_formula_units_Z 4
loop_
_atom_type_symbol
_atom_type_radius_bond
C 0.68
H 0.23
N 0.68
O 0.68
loop_
_atom_site_label
_atom_site_type_symbol
_atom_site_fract_x
_atom_site_fract_y
_atom_site_fract_z
O1 O 0.34395(7) 0.61848(4) 0.16525(10)
O2 O 0.33004(7) 0.70581(4) 0.42067(10)
O3 O 0.76552(6) 0.92178(3) 0.26606(9)
O4 O 1.01918(6) 0.87542(3) 0.25962(10)
N1 N 0.98019(7) 0.56601(3) 0.24635(11)
H1 H 1.0792(15) 0.5779(8) 0.2349(19)
H2 H 0.9422(14) 0.5130(8) 0.2409(19)
N2 N 0.40788(6) 0.66686(3) 0.28974(9)
N3 N 0.86795(6) 0.86428(3) 0.26366(8)
C1 C 0.86751(7) 0.62947(3) 0.25530(9)
C2 C 0.69442(7) 0.61125(3) 0.26662(9)
C3 C 0.58819(7) 0.68008(3) 0.27901(9)
C4 C 0.63768(7) 0.76394(3) 0.28234(9)
H3 H 0.56050 0.80880 0.29460
C5 C 0.80705(7) 0.77747(3) 0.26662(9)
C6 C 0.92210(7) 0.71322(3) 0.25353(10)
H4 H 1.03720 0.72560 0.24340
C7 C 0.64193(8) 0.52071(4) 0.27070(11)
H5 H 0.52270 0.51720 0.29950
H6 H 0.70370 0.49100 0.37810
H7 H 0.66520 0.49490 0.13720
#END
