
#######################################################################
#
#                 Cambridge Crystallographic Data Centre
#                                CCDC
#
#######################################################################
#
# If this CIF has been generated from an entry in the Cambridge
# Structural Database, then it will include bibliographic, chemical,
# crystal, experimental, refinement or atomic coordinate data resulting
# from the CCDC's data processing and validation procedures.
#
#######################################################################

data_CSD_CIF_ISAXUV
_audit_creation_date 2004-06-16
_audit_creation_method CSD-ConQuest-V1
_database_code_CSD ISAXUV
_database_code_depnum_ccdc_archive 'CCDC 220762'
_chemical_formula_sum 'C7 H7 N3 O4'
_chemical_formula_moiety
;
C7 H7 N3 O4
;
_journal_coden_Cambridge 440
_journal_volume 28
_journal_year 2004
_journal_page_first 161
_journal_name_full 'New J.Chem. '
loop_
_publ_author_name
"D.Graham"
"A.R.Kennedy"
"C.J.McHugh"
"W.E.Smith"
"W.I.F.David"
"K.Shankland"
"N.Shankland"
_chemical_name_systematic
;
2-Amino-4,6-dinitrotoluene
;
_cell_volume    872.070
_exptl_crystal_colour 'yellow'
_exptl_crystal_density_diffrn 1.502
_exptl_crystal_description 'oblong plate'
_diffrn_ambient_temperature 295
_refine_special_details
;
The oxygen atoms of the nitro group are disordered.

;
#These two values have been output from a single CSD field.
_refine_ls_R_factor_gt 0.0645
_refine_ls_wR_factor_gt 0.0645
_symmetry_cell_setting monoclinic
_symmetry_space_group_name_H-M 'P 21/a'
_symmetry_Int_Tables_number 14
loop_
_symmetry_equiv_pos_site_id
_symmetry_equiv_pos_as_xyz
1 x,y,z
2 1/2-x,1/2+y,-z
3 -x,-y,-z
4 -1/2+x,-1/2-y,z
_cell_length_a 6.7072(5)
_cell_length_b 16.0387(11)
_cell_length_c 8.1083(5)
_cell_angle_alpha 90
_cell_angle_beta 91.160(4)
_cell_angle_gamma 90
_cell_formula_units_Z 4
loop_
_atom_type_symbol
_atom_type_radius_bond
C 0.68
H 0.23
N 0.68
O 0.54
loop_
_atom_site_label
_atom_site_type_symbol
_atom_site_fract_x
_atom_site_fract_y
_atom_site_fract_z
O1 O 0.7523(4) 0.37595(14) 1.0140(3)
O2 O 0.7461(4) 0.41961(12) 0.7626(3)
O3 O 0.5907(6) 0.1985(3) 0.3353(4)
O4 O 0.8480(6) 0.1215(2) 0.3539(4)
N1 N 0.7578(5) 0.06932(16) 0.9849(3)
H1 H 0.767(5) 0.084(3) 1.092(5)
H2 H 0.753(5) 0.018(3) 0.944(5)
N2 N 0.7481(4) 0.36388(13) 0.8652(3)
N3 N 0.7317(5) 0.16452(19) 0.4147(3)
C1 C 0.7452(4) 0.11231(15) 0.7007(3)
C2 C 0.7526(4) 0.13114(15) 0.8713(3)
C3 C 0.7539(4) 0.21434(15) 0.9220(3)
H3 H 0.75980 0.22730 1.03380
C4 C 0.7466(4) 0.27690(15) 0.8068(3)
C5 C 0.7361(4) 0.26256(16) 0.6408(3)
H4 H 0.72880 0.30570 0.56430
C6 C 0.7370(4) 0.17935(17) 0.5939(3)
C7 C 0.7407(6) 0.02202(17) 0.6494(4)
H5 H 0.72470 0.01840 0.53170
H6 H 0.63110 -0.00550 0.70090
H7 H 0.86340 -0.00440 0.68300
O5? O 0.634(2) 0.1208(10) 0.3553(17)
O6? O 0.896(2) 0.1974(12) 0.337(2)
#END
