
#######################################################################
#
#                 Cambridge Crystallographic Data Centre
#                                CCDC
#
#######################################################################
#
# If this CIF has been generated from an entry in the Cambridge
# Structural Database, then it will include bibliographic, chemical,
# crystal, experimental, refinement or atomic coordinate data resulting
# from the CCDC's data processing and validation procedures.
#
#######################################################################

data_CSD_CIF_ISEQON
_audit_creation_date 2011-08-04
_audit_creation_method CSD-ConQuest-V1
_database_code_CSD ISEQON
_database_code_depnum_ccdc_archive 'CCDC 808233'
_chemical_formula_sum 'C2 H2 N8 O2'
_chemical_formula_moiety
;
C2 H2 N8 O2
;
_journal_coden_Cambridge 29
_journal_volume 637
_journal_year 2011
_journal_page_first 660
_journal_name_full 'Z.Anorg.Allg.Chem. '
loop_
_publ_author_name
"D.Fischer"
"T.M.Klapotke"
"J.Stierstorfer"
_chemical_name_systematic
;
(Z,Z)-N'''^1^,N'''^2^-Dihydroxyethanebis(imidoyl) diazide
;
_chemical_name_common
;
bisazidoglyoxim
;
_cell_volume    299.569
_exptl_crystal_colour 'colorless'
_exptl_crystal_density_diffrn 1.886
_exptl_crystal_description 'plates'
_diffrn_ambient_temperature 173
#These two values have been output from a single CSD field.
_refine_ls_R_factor_gt 0.0277
_refine_ls_wR_factor_gt 0.0277
_symmetry_cell_setting monoclinic
_symmetry_space_group_name_H-M 'P 21/n'
_symmetry_Int_Tables_number 14
loop_
_symmetry_equiv_pos_site_id
_symmetry_equiv_pos_as_xyz
1 x,y,z
2 1/2-x,1/2+y,1/2-z
3 -x,-y,-z
4 -1/2+x,-1/2-y,-1/2+z
_cell_length_a 4.4211(3)
_cell_length_b 13.7797(9)
_cell_length_c 4.9750(3)
_cell_angle_alpha 90
_cell_angle_beta 98.735(6)
_cell_angle_gamma 90
_cell_formula_units_Z 2
loop_
_atom_type_symbol
_atom_type_radius_bond
C 0.68
H 0.23
N 0.68
O 0.68
loop_
_atom_site_label
_atom_site_type_symbol
_atom_site_fract_x
_atom_site_fract_y
_atom_site_fract_z
O1 O 1.0242(2) 0.40202(7) 0.8069(2)
N1 N 0.8060(2) 0.47555(8) 0.7544(2)
N2 N 0.8051(2) 0.32440(8) 0.3612(2)
N3 N 0.5980(2) 0.38750(8) 0.3436(2)
N4 N 0.9606(3) 0.26178(8) 0.3345(2)
C1 C 0.6188(3) 0.46266(9) 0.5346(3)
H1 H 1.133(4) 0.4225(12) 0.959(3)
O1B O -0.0242(2) 0.59798(7) 0.1931(2)
N1B N 0.1940(2) 0.52445(8) 0.2456(2)
N2B N 0.1949(2) 0.67560(8) 0.6388(2)
N3B N 0.4020(2) 0.61250(8) 0.6564(2)
N4B N 0.0394(3) 0.73822(8) 0.6655(2)
C1B C 0.3812(3) 0.53734(9) 0.4654(3)
H1B H -0.133(4) 0.5775(12) 0.041(3)
#END
