
#######################################################################
#
#                 Cambridge Crystallographic Data Centre
#                                CCDC
#
#######################################################################
#
# If this CIF has been generated from an entry in the Cambridge
# Structural Database, then it will include bibliographic, chemical,
# crystal, experimental, refinement or atomic coordinate data resulting
# from the CCDC's data processing and validation procedures.
#
#######################################################################

data_CSD_CIF_ISONEL
_audit_creation_date 2016-08-16
_audit_creation_method CSD-ConQuest-V1
_database_code_CSD ISONEL
_database_code_depnum_ccdc_archive 'CCDC 1492783'
_chemical_formula_sum 'C22 H23 N3 O4'
_chemical_formula_moiety
;
C22 H23 N3 O4
;
_journal_coden_Cambridge 1500
_journal_volume 6
_journal_year 2016
_journal_page_first 77474
_journal_name_full 'RSC Advances '
loop_
_publ_author_name
"M.Amireddy"
"Kwunmin Chen"
_chemical_name_systematic
;
6-hydroxy-4,6-dimethyl-9-nitro-2,10-diphenyl-2,3-diazaspiro[4.5]dec-3-en-1-one
;
_cell_volume   2048.056
_exptl_crystal_colour 'colorless'
_exptl_crystal_density_diffrn 1.276
_exptl_crystal_description 'prism'
_diffrn_ambient_temperature 296
#These two values have been output from a single CSD field.
_refine_ls_R_factor_gt 0.0468
_refine_ls_wR_factor_gt 0.0468
_symmetry_cell_setting orthorhombic
_symmetry_space_group_name_H-M 'P 21 21 21'
_symmetry_Int_Tables_number 19
loop_
_symmetry_equiv_pos_site_id
_symmetry_equiv_pos_as_xyz
1 x,y,z
2 1/2-x,-y,1/2+z
3 -x,1/2+y,1/2-z
4 1/2+x,1/2-y,-z
_cell_length_a 8.2009(3)
_cell_length_b 11.6802(4)
_cell_length_c 21.3811(8)
_cell_angle_alpha 90
_cell_angle_beta 90
_cell_angle_gamma 90
_cell_formula_units_Z 4
loop_
_atom_type_symbol
_atom_type_radius_bond
C 0.68
H 0.23
N 0.68
O 0.68
loop_
_atom_site_label
_atom_site_type_symbol
_atom_site_fract_x
_atom_site_fract_y
_atom_site_fract_z
C1 C 0.6159(3) 0.4860(2) 0.15203(13)
H1 H 0.68410 0.48200 0.11450
C2 C 0.4365(3) 0.4720(2) 0.13334(12)
H2 H 0.37160 0.48020 0.17160
C3 C 0.3992(4) 0.3553(3) 0.10663(15)
C4 C 0.2861(4) 0.2857(3) 0.13494(19)
H3 H 0.23280 0.31230 0.17050
C5 C 0.2484(5) 0.1784(4) 0.1129(3)
H4 H 0.17100 0.13380 0.13340
C6 C 0.3249(7) 0.1376(4) 0.0609(3)
H5 H 0.29940 0.06520 0.04560
C7 C 0.4403(6) 0.2038(4) 0.03116(19)
H6 H 0.49300 0.17650 -0.00430
C8 C 0.4772(4) 0.3115(3) 0.05450(16)
H7 H 0.55640 0.35540 0.03460
C9 C 0.3877(3) 0.5729(2) 0.08897(11)
C10 C 0.4251(3) 0.6905(2) 0.12052(13)
C11 C 0.3886(4) 0.7900(3) 0.07680(15)
H8 H 0.27680 0.78620 0.06360
H9 H 0.45850 0.78560 0.04090
H10 H 0.40740 0.86090 0.09830
C12 C 0.6011(3) 0.6966(3) 0.14258(13)
H11 H 0.67250 0.69620 0.10640
H12 H 0.61780 0.76830 0.16460
C13 C 0.6474(3) 0.5982(3) 0.18536(13)
H13 H 0.76180 0.60380 0.19650
H14 H 0.58340 0.60160 0.22350
C14 C 0.4716(4) 0.5674(2) 0.02555(12)
C15 C 0.3647(3) 0.5451(3) -0.08366(13)
C16 C 0.4713(4) 0.6121(3) -0.11650(16)
H15 H 0.53530 0.66590 -0.09590
C17 C 0.4831(4) 0.5990(4) -0.18046(18)
H16 H 0.55590 0.64420 -0.20290
C18 C 0.3906(6) 0.5219(4) -0.21074(18)
H17 H 0.40120 0.51290 -0.25380
C19 C 0.2815(6) 0.4569(4) -0.1785(2)
H18 H 0.21590 0.40480 -0.19970
C20 C 0.2683(4) 0.4682(3) -0.11408(17)
H19 H 0.19410 0.42370 -0.09190
C21 C 0.2115(3) 0.5603(2) 0.06858(14)
C22 C 0.0627(3) 0.5529(3) 0.10878(14)
H20 H -0.03210 0.54550 0.08280
H21 H 0.05370 0.62100 0.13370
H22 H 0.07110 0.48740 0.13570
N1 N 0.6626(4) 0.3898(3) 0.19608(14)
N2 N 0.3516(3) 0.55819(19) -0.0178(1)
N3 N 0.1952(3) 0.5511(2) 0.00940(12)
O1 O 0.7879(4) 0.3389(2) 0.18623(12)
O2 O 0.5758(4) 0.3728(2) 0.24079(12)
O3 O 0.3164(2) 0.69346(18) 0.17360(9)
H23 H 0.34270 0.75360 0.19460
O4 O 0.6178(2) 0.57339(16) 0.01444(8)
#END
