
#######################################################################
#
#                 Cambridge Crystallographic Data Centre
#                                CCDC
#
#######################################################################
#
# If this CIF has been generated from an entry in the Cambridge
# Structural Database, then it will include bibliographic, chemical,
# crystal, experimental, refinement or atomic coordinate data resulting
# from the CCDC's data processing and validation procedures.
#
#######################################################################

data_CSD_CIF_ISORAK
_audit_creation_date 2011-08-04
_audit_creation_method CSD-ConQuest-V1
_database_code_CSD ISORAK
_database_code_depnum_ccdc_archive 'CCDC 805444'
_chemical_formula_sum 'C27 H34 N2 O1'
_chemical_formula_moiety
;
C27 H34 N2 O1
;
_journal_coden_Cambridge 179
_journal_volume 50
_journal_year 2011
_journal_page_first 5927
_journal_name_full 'Angew.Chem.,Int.Ed. '
loop_
_publ_author_name
"Yi-Feng Wang"
"Kah Kah Toh"
"Jian-Yuan Lee"
"S.Chiba"
_chemical_name_systematic
;
4-Methyl-3-phenyl-1-(1-((2,2,6,6-tetramethylpiperidin-1-yl)oxy)ethyl)isoquinol
ine
;
_cell_volume   1106.965
_exptl_crystal_colour 'colorless'
_exptl_crystal_density_diffrn 1.208
_exptl_crystal_description 'prism'
_diffrn_ambient_temperature 103
#These two values have been output from a single CSD field.
_refine_ls_R_factor_gt 0.0411
_refine_ls_wR_factor_gt 0.0411
_symmetry_cell_setting triclinic
_symmetry_space_group_name_H-M 'P -1'
_symmetry_Int_Tables_number 2
loop_
_symmetry_equiv_pos_site_id
_symmetry_equiv_pos_as_xyz
1 x,y,z
2 -x,-y,-z
_cell_length_a 7.9267(2)
_cell_length_b 9.6626(3)
_cell_length_c 14.4528(4)
_cell_angle_alpha 89.841(1)
_cell_angle_beta 89.962(1)
_cell_angle_gamma 89.800(1)
_cell_formula_units_Z 2
loop_
_atom_type_symbol
_atom_type_radius_bond
C 0.68
H 0.23
N 0.68
O 0.68
loop_
_atom_site_label
_atom_site_type_symbol
_atom_site_fract_x
_atom_site_fract_y
_atom_site_fract_z
C1 C 0.56313(7) 0.38393(5) 0.23552(4)
C2 C 0.66828(7) 0.42435(6) 0.16088(4)
H1 H 0.62400 0.48090 0.11280
C3 C 0.83389(8) 0.38219(7) 0.15777(4)
H2 H 0.90380 0.41060 0.10780
C4 C 0.90077(8) 0.29714(7) 0.22816(5)
H3 H 1.01490 0.26730 0.22490
C5 C 0.80212(8) 0.25715(6) 0.30143(4)
H4 H 0.84850 0.19960 0.34840
C6 C 0.63123(7) 0.30095(5) 0.30772(4)
C7 C 0.52811(7) 0.26780(5) 0.38582(4)
C8 C 0.60035(8) 0.18079(6) 0.46276(4)
H5 H 0.51520 0.16860 0.51120
H6 H 0.69940 0.22700 0.48870
H7 H 0.63350 0.09010 0.43840
C9 C 0.36644(7) 0.32126(5) 0.38795(4)
C10 C 0.24904(7) 0.30114(6) 0.46760(4)
C11 C 0.19887(9) 0.41524(6) 0.52008(4)
H8 H 0.24270 0.50420 0.50590
C12 C 0.08523(9) 0.40007(7) 0.59293(4)
H9 H 0.05220 0.47850 0.62810
C13 C 0.02017(9) 0.27058(7) 0.61420(4)
H10 H -0.05830 0.26030 0.66340
C14 C 0.07067(9) 0.15587(7) 0.56292(4)
H11 H 0.02770 0.06690 0.57780
C15 C 0.18405(8) 0.17119(6) 0.48992(4)
H12 H 0.21740 0.09250 0.45500
C16 C 0.39098(7) 0.42793(5) 0.24399(4)
C17 C 0.29589(7) 0.50230(5) 0.16678(4)
H13 H 0.18040 0.52580 0.19000
C18 C 0.27724(8) 0.40869(6) 0.08225(4)
H14 H 0.20500 0.45430 0.03630
H15 H 0.22610 0.32080 0.10110
H16 H 0.38860 0.39100 0.05520
C19 C 0.20521(8) 0.83026(6) 0.11770(4)
C20 C 0.04749(8) 0.74457(7) 0.09688(5)
H17 H 0.07930 0.66270 0.06090
H18 H -0.03270 0.80080 0.06130
H19 H -0.00500 0.71540 0.15510
C21 C 0.29069(9) 0.86643(7) 0.02524(4)
H20 H 0.37200 0.94120 0.03490
H21 H 0.20500 0.89650 -0.01940
H22 H 0.34950 0.78460 0.00130
C22 C 0.14775(9) 0.96241(6) 0.16809(5)
H23 H 0.08580 1.02240 0.12400
H24 H 0.06880 0.93670 0.21830
C23 C 0.29362(10) 1.04394(7) 0.20917(6)
H25 H 0.36770 1.07840 0.15910
H26 H 0.24960 1.12460 0.24380
C24 C 0.39330(9) 0.95004(6) 0.27372(5)
H27 H 0.32030 0.92290 0.32630
H28 H 0.48990 1.00240 0.29900
C25 C 0.45993(7) 0.81877(6) 0.22646(4)
C26 C 0.60581(9) 0.85287(8) 0.16006(5)
H29 H 0.62820 0.77310 0.12010
H30 H 0.70730 0.87430 0.19590
H31 H 0.57500 0.93290 0.12180
C27 C 0.52953(9) 0.72336(6) 0.30177(4)
H32 H 0.43610 0.68700 0.33890
H33 H 0.60630 0.77550 0.34160
H34 H 0.59080 0.64640 0.27310
N1 N 0.29893(6) 0.39945(5) 0.31743(3)
N2 N 0.31103(6) 0.74870(5) 0.18429(3)
O1 O 0.37417(5) 0.62806(4) 0.13440(3)
#END
