
#######################################################################
#
#                 Cambridge Crystallographic Data Centre
#                                CCDC
#
#######################################################################
#
# If this CIF has been generated from an entry in the Cambridge
# Structural Database, then it will include bibliographic, chemical,
# crystal, experimental, refinement or atomic coordinate data resulting
# from the CCDC's data processing and validation procedures.
#
#######################################################################

data_CSD_CIF_ISUHOV
_audit_creation_date 2016-08-16
_audit_creation_method CSD-ConQuest-V1
_database_code_CSD ISUHOV
_database_code_depnum_ccdc_archive 'CCDC 1484546'
_chemical_formula_sum 'C21 H26 N2 O6'
_chemical_formula_moiety
;
C21 H26 N2 O6
;
_journal_coden_Cambridge 177
_journal_volume 14
_journal_year 2016
_journal_page_first 8433
_journal_name_full 'Org.Biomol.Chem. '
loop_
_publ_author_name
"H.C.Gallantree-Smith"
"S.G.Antonsen"
"C.H.Gorbitz"
"T.V.Hansen"
"J.M.J.Nolse"
"Y.H.Stenstrm"
_chemical_name_systematic
;
(1S,6S,7S,8R)-8-Butyl-7-((3,5-dinitrobenzoyl)oxymethyl)bicyclo[4.3.0]non-3-ene
;
_cell_volume   1006.762
_exptl_crystal_colour 'colorless'
_exptl_crystal_density_diffrn 1.327
_exptl_crystal_description 'plate'
_diffrn_ambient_temperature 110
_refine_special_details
;
C10,C18,C19,C20,C21 and C10B,C18B,C19B,C20B,C21B disordered over two sites 
with occupancies 0.74:0.26.
;
#These two values have been output from a single CSD field.
_refine_ls_R_factor_gt 0.0854
_refine_ls_wR_factor_gt 0.0854
_symmetry_cell_setting monoclinic
_symmetry_space_group_name_H-M 'P 21'
_symmetry_Int_Tables_number 4
loop_
_symmetry_equiv_pos_site_id
_symmetry_equiv_pos_as_xyz
1 x,y,z
2 -x,1/2+y,-z
_cell_length_a 10.866(5)
_cell_length_b 5.196(2)
_cell_length_c 18.617(10)
_cell_angle_alpha 90
_cell_angle_beta 106.703(11)
_cell_angle_gamma 90
_cell_formula_units_Z 2
loop_
_atom_type_symbol
_atom_type_radius_bond
C 0.68
H 0.23
N 0.68
O 0.68
loop_
_atom_site_label
_atom_site_type_symbol
_atom_site_fract_x
_atom_site_fract_y
_atom_site_fract_z
O1 O 0.4965(7) 0.0115(19) 0.3931(4)
N1 N 0.770(1) 0.288(2) 0.6525(7)
C1 C 0.5467(10) 0.212(3) 0.3832(7)
O2 O 0.5244(7) 0.3323(19) 0.3180(5)
N2 N 0.8755(9) 0.896(2) 0.4771(7)
C2 C 0.6411(11) 0.353(3) 0.4451(7)
O3 O 0.7262(8) 0.077(2) 0.6594(5)
C3 C 0.6602(11) 0.265(2) 0.5163(7)
H1 H 0.61210 0.12200 0.52540
C4 C 0.7491(10) 0.382(3) 0.5752(6)
O4 O 0.8317(8) 0.420(2) 0.7046(5)
C5 C 0.8206(10) 0.596(2) 0.5648(7)
H2 H 0.87980 0.68150 0.60530
O5 O 0.9445(7) 1.0018(19) 0.5311(5)
C6 C 0.799(1) 0.672(2) 0.4921(7)
O6 O 0.8619(7) 0.9540(18) 0.4128(5)
C7 C 0.712(1) 0.562(2) 0.4316(6)
H3 H 0.70030 0.62650 0.38230
C8 C 0.4292(12) 0.208(3) 0.2553(7)
H4 H 0.34910 0.17720 0.26920
H5 H 0.46260 0.03970 0.24450
C9 C 0.3164(15) 0.342(3) 0.0499(8)
H6 H 0.33290 0.18000 0.02530
C10 C 0.2879(13) 0.270(3) 0.1245(7)
H7 H 0.28900 0.07760 0.12850
C11 C 0.1617(12) 0.364(3) 0.1326(8)
H8 H 0.09290 0.24170 0.10760
H9 H 0.16630 0.37030 0.18650
C12 C 0.1292(13) 0.625(3) 0.0990(9)
H10 H 0.09280 0.75050 0.12410
C13 C 0.1501(12) 0.682(3) 0.0365(10)
H11 H 0.13340 0.85080 0.01670
C14 C 0.2006(14) 0.483(3) -0.0052(8)
H12 H 0.22860 0.56530 -0.04580
H13 H 0.13210 0.35730 -0.02810
C15 C 0.4010(11) 0.375(3) 0.1869(7)
H14 H 0.37970 0.55220 0.20030
C16 C 0.4409(12) 0.494(3) 0.0739(8)
H15 H 0.42300 0.68020 0.07690
H16 H 0.49110 0.46960 0.03770
C17 C 0.5144(12) 0.391(4) 0.1509(8)
H17 H 0.54190 0.21080 0.14400
C18 C 0.6307(14) 0.537(6) 0.1938(9)
H18 H 0.66680 0.45290 0.24310
H19 H 0.60390 0.71300 0.20330
C19 C 0.7354(15) 0.558(7) 0.1554(11)
H20 H 0.74650 0.38890 0.13350
H21 H 0.70920 0.68390 0.11390
C20 C 0.8620(16) 0.641(4) 0.2089(12)
H22 H 0.84700 0.80210 0.23330
H23 H 0.92110 0.68270 0.17870
C21 C 0.932(4) 0.453(7) 0.271(2)
H24 H 1.01700 0.52120 0.29640
H25 H 0.94030 0.28620 0.24820
H26 H 0.88190 0.43280 0.30660
H27? H 0.37500 0.54740 0.20130
H28? H 0.42170 0.68090 0.07200
H29? H 0.49290 0.45880 0.03920
C22? C 0.5162(13) 0.418(5) 0.1535(9)
H30? H 0.55700 0.24730 0.15100
C23? C 0.619(2) 0.598(8) 0.1954(11)
H31? H 0.65330 0.53550 0.24760
H32? H 0.58030 0.76950 0.19750
C24? C 0.730(3) 0.630(9) 0.162(3)
H33? H 0.69600 0.65140 0.10730
H34? H 0.77860 0.78760 0.18290
C25? C 0.820(3) 0.402(9) 0.179(3)
H35? H 0.87330 0.40810 0.14380
H36? H 0.76730 0.24380 0.16730
C26? C 0.911(13) 0.37(3) 0.258(5)
H37? H 0.96590 0.22270 0.26050
H38? H 0.86050 0.35210 0.29390
H39? H 0.96450 0.52810 0.27140
#END
