
#######################################################################
#
#                 Cambridge Crystallographic Data Centre
#                                CCDC
#
#######################################################################
#
# If this CIF has been generated from an entry in the Cambridge
# Structural Database, then it will include bibliographic, chemical,
# crystal, experimental, refinement or atomic coordinate data resulting
# from the CCDC's data processing and validation procedures.
#
#######################################################################

data_CSD_CIF_ISUQES01
_audit_creation_date 2012-03-13
_audit_creation_method CSD-ConQuest-V1
_database_code_CSD ISUQES01
_database_code_depnum_ccdc_archive 'CCDC 823720'
_chemical_formula_sum 'C11 H8 N4 O2'
_chemical_formula_moiety
;
C11 H8 N4 O2
;
_journal_coden_Cambridge 1277
_journal_volume 115
_journal_year 2011
_journal_page_first 12941
_journal_name_full 'J.Phys.Chem.A '
loop_
_publ_author_name
"A.Paul"
"M.Kubicki"
"A.Kubas"
"C.Jelsch"
"K.Fink"
"C.Lecomte"
_chemical_name_systematic
;
2-Methyl-4-nitro-1-phenyl-1H-imidazole-5-carbonitrile
;
_cell_volume   1043.960
_exptl_crystal_colour 'colorless'
_exptl_crystal_density_diffrn 1.452
_diffrn_ambient_temperature 100
_refine_special_details
;
multipole refinement

;
#These two values have been output from a single CSD field.
_refine_ls_R_factor_gt 0.023
_refine_ls_wR_factor_gt 0.023
_symmetry_cell_setting monoclinic
_symmetry_space_group_name_H-M 'P 21/n'
_symmetry_Int_Tables_number 14
loop_
_symmetry_equiv_pos_site_id
_symmetry_equiv_pos_as_xyz
1 x,y,z
2 1/2-x,1/2+y,1/2-z
3 -x,-y,-z
4 -1/2+x,-1/2-y,-1/2+z
_cell_length_a 9.84837(11)
_cell_length_b 9.36141(11)
_cell_length_c 11.64875(12)
_cell_angle_alpha 90
_cell_angle_beta 103.5726(11)
_cell_angle_gamma 90
_cell_formula_units_Z 4
loop_
_atom_type_symbol
_atom_type_radius_bond
C 0.68
H 0.23
N 0.68
O 0.68
loop_
_atom_site_label
_atom_site_type_symbol
_atom_site_fract_x
_atom_site_fract_y
_atom_site_fract_z
C1 C 0.72978(3) 0.05485(3) 0.74536(2)
C2 C 0.64651(3) -0.02588(3) 0.65542(2)
C3 C 0.68664(3) -0.03966(3) 0.54896(2)
C4 C 0.80676(3) 0.02829(4) 0.53275(2)
C5 C 0.88881(3) 0.10918(3) 0.62354(2)
C6 C 0.85096(3) 0.12170(3) 0.73125(2)
C7 C 0.58693(3) 0.16148(3) 0.87604(2)
C8 C 0.67903(3) 0.06337(3) 1.03982(2)
C9 C 0.74919(3) 0.00665(3) 0.96090(2)
C10 C 0.49749(3) 0.25115(4) 0.78354(3)
C11 C 0.85571(3) -0.09702(3) 0.97380(2)
N1 N 0.68859(2) 0.07198(2) 0.85517(2)
N2 N 0.57957(2) 0.15736(3) 0.98804(2)
N3 N 0.70325(3) 0.02920(3) 1.16310(2)
N4 N 0.94356(3) -0.18158(3) 0.98399(2)
O1 O 0.63090(3) 0.08798(3) 1.22143(2)
O2 O 0.79570(3) -0.05752(3) 1.20257(2)
H1 H 0.9135(5) 0.1810(6) 0.8041(4)
H2 H 0.5540(5) -0.0755(5) 0.6694(4)
H3 H 0.6234(6) -0.1027(6) 0.4796(5)
H4 H 0.8348(5) 0.0174(6) 0.4500(4)
H5 H 0.9800(5) 0.1628(6) 0.6117(5)
H6 H 0.4251(7) 0.3046(8) 0.8219(5)
H7 H 0.4423(8) 0.1881(7) 0.7116(6)
H8 H 0.5594(7) 0.3259(8) 0.7525(6)
#END
