
#######################################################################
#
#                 Cambridge Crystallographic Data Centre
#                                CCDC
#
#######################################################################
#
# If this CIF has been generated from an entry in the Cambridge
# Structural Database, then it will include bibliographic, chemical,
# crystal, experimental, refinement or atomic coordinate data resulting
# from the CCDC's data processing and validation procedures.
#
#######################################################################

data_CSD_CIF_ISUQES
_audit_creation_date 2004-06-17
_audit_creation_method CSD-ConQuest-V1
_database_code_CSD ISUQES
_database_code_depnum_ccdc_archive 'CCDC 237936'
_chemical_formula_sum 'C11 H8 N4 O2'
_chemical_formula_moiety
;
C11 H8 N4 O2
;
_journal_coeditor_code "IUCr GD1304"
_journal_coden_Cambridge 591
_journal_volume 60
_journal_year 2004
_journal_page_first o255
_journal_name_full 'Acta Crystallogr.,Sect.C:Cryst.Struct.Commun. '
loop_
_publ_author_name
"M.Kubicki"
_chemical_name_systematic
;
2-Methyl-4-nitro-1-phenyl-1H-imidazole-5-carbonitrile
;
_cell_volume   1080.938
_exptl_crystal_colour 'colorless'
_exptl_crystal_density_diffrn 1.402
_exptl_crystal_description 'prism'
_exptl_crystal_preparation 'methanol'
_diffrn_ambient_temperature 293
#These two values have been output from a single CSD field.
_refine_ls_R_factor_gt 0.0386
_refine_ls_wR_factor_gt 0.0386
_symmetry_cell_setting monoclinic
_symmetry_space_group_name_H-M 'P 21/n'
_symmetry_Int_Tables_number 14
loop_
_symmetry_equiv_pos_site_id
_symmetry_equiv_pos_as_xyz
1 x,y,z
2 1/2+x,1/2-y,1/2+z
3 -x,-y,-z
4 -1/2-x,-1/2+y,-1/2-z
_cell_length_a 9.8976(9)
_cell_length_b 9.6168(9)
_cell_length_c 11.670(1)
_cell_angle_alpha 90
_cell_angle_beta 103.313(7)
_cell_angle_gamma 90
_cell_formula_units_Z 4
loop_
_atom_type_symbol
_atom_type_radius_bond
C 0.68
H 0.23
N 0.68
O 0.68
loop_
_atom_site_label
_atom_site_type_symbol
_atom_site_fract_x
_atom_site_fract_y
_atom_site_fract_z
N1 N 0.68836(11) 0.07163(12) 0.35541(10)
C1 C 0.72914(14) 0.05299(14) 0.24477(12)
C2 C 0.64864(17) -0.02692(16) 0.15774(13)
H1 H 0.5670(16) -0.0706(15) 0.1701(12)
C3 C 0.68759(18) -0.0407(2) 0.05250(15)
H2 H 0.6374(17) -0.0988(17) -0.0065(15)
C4 C 0.80361(18) 0.02539(19) 0.03470(16)
H3 H 0.8225(16) 0.0164(18) -0.0381(17)
C5 C 0.88281(19) 0.10485(19) 0.12165(15)
H4 H 0.9612(18) 0.1520(16) 0.1141(14)
C6 C 0.84701(16) 0.11851(17) 0.22847(15)
H5 H 0.9023(16) 0.1678(14) 0.2905(14)
C7 C 0.58798(14) 0.15987(15) 0.37605(13)
C8 C 0.50057(17) 0.24700(17) 0.28327(15)
H6 H 0.43760 0.30090 0.31670
H7 H 0.44880 0.18840 0.22210
H8 H 0.55870 0.30830 0.25080
N2 N 0.58068(12) 0.15680(13) 0.48740(11)
C9 C 0.67827(15) 0.06517(16) 0.53828(12)
N3 N 0.70230(15) 0.03338(16) 0.66203(12)
O1 O 0.63201(15) 0.09102(14) 0.72030(11)
O2 O 0.79373(14) -0.05070(16) 0.70153(10)
C10 C 0.74742(14) 0.00858(15) 0.46121(12)
C11 C 0.85333(16) -0.09359(17) 0.47370(12)
N4 N 0.93848(15) -0.17517(16) 0.48416(12)
#END
