
#######################################################################
#
#                 Cambridge Crystallographic Data Centre
#                                CCDC
#
#######################################################################
#
# If this CIF has been generated from an entry in the Cambridge
# Structural Database, then it will include bibliographic, chemical,
# crystal, experimental, refinement or atomic coordinate data resulting
# from the CCDC's data processing and validation procedures.
#
#######################################################################

data_CSD_CIF_ISURUJ
_audit_creation_date 2004-06-17
_audit_creation_method CSD-ConQuest-V1
_database_code_CSD ISURUJ
_database_code_depnum_ccdc_archive 'CCDC 237944'
_chemical_formula_sum 'C8 H13 N1 O3'
_chemical_formula_moiety
;
C8 H13 N1 O3
;
_journal_coeditor_code "IUCr GG1209"
_journal_coden_Cambridge 591
_journal_volume 60
_journal_year 2004
_journal_page_first o270
_journal_name_full 'Acta Crystallogr.,Sect.C:Cryst.Struct.Commun. '
loop_
_publ_author_name
"C.Glidewell"
"J.N.Low"
"J.M.S.Skakle"
"J.L.Wardell"
_chemical_name_systematic
;
(Cyclohexylideneamino)oxyacetic acid
;
_chemical_melting_point 365
_cell_volume    425.879
_exptl_crystal_colour 'colorless'
_exptl_crystal_density_diffrn 1.335
_exptl_special_details
;
Melting point range 365-367K

;
_exptl_crystal_description 'block'
_exptl_crystal_preparation 'ethanol'
_diffrn_ambient_temperature 120
#These two values have been output from a single CSD field.
_refine_ls_R_factor_gt 0.0379
_refine_ls_wR_factor_gt 0.0379
_symmetry_cell_setting triclinic
_symmetry_space_group_name_H-M 'P -1'
_symmetry_Int_Tables_number 2
loop_
_symmetry_equiv_pos_site_id
_symmetry_equiv_pos_as_xyz
1 x,y,z
2 -x,-y,-z
_cell_length_a 5.0776(1)
_cell_length_b 8.6533(3)
_cell_length_c 10.7804(3)
_cell_angle_alpha 111.2609(15)
_cell_angle_beta 102.437(2)
_cell_angle_gamma 93.597(2)
_cell_formula_units_Z 2
loop_
_atom_type_symbol
_atom_type_radius_bond
C 0.68
H 0.23
N 0.68
O 0.68
loop_
_atom_site_label
_atom_site_type_symbol
_atom_site_fract_x
_atom_site_fract_y
_atom_site_fract_z
O1 O 0.25509(18) 0.43807(11) 0.58143(9)
O2 O 0.63107(18) 0.63065(11) 0.66261(9)
O3 O 0.53648(16) 0.7510(1) 0.92037(8)
N1 N 0.76773(19) 0.68931(12) 0.97793(10)
C1 C 0.4331(2) 0.56279(14) 0.67960(12)
C2 C 0.3569(2) 0.61259(14) 0.81506(11)
C3 C 0.9316(2) 0.80606(14) 1.08118(11)
C4 C 1.1796(2) 0.75439(15) 1.15083(13)
C5 C 1.2053(3) 0.81203(15) 1.30557(13)
C6 C 1.1915(2) 0.99871(15) 1.36960(12)
C7 C 0.9271(2) 1.03967(15) 1.29856(12)
C8 C 0.9009(2) 0.98760(14) 1.14378(11)
H1 H 0.29400 0.41910 0.50590
H2 H 0.16940 0.64060 0.80250
H3 H 0.35690 0.51590 0.84350
H4 H 1.34480 0.80420 1.13570
H5 H 1.16650 0.63070 1.10980
H6 H 1.05610 0.74770 1.32100
H7 H 1.38100 0.78890 1.35090
H8 H 1.34950 1.06370 1.36110
H9 H 1.20170 1.03180 1.46880
H10 H 0.92370 1.16170 1.34080
H11 H 0.76960 0.98020 1.31220
H12 H 0.72040 1.00510 1.09850
H13 H 1.04350 1.05790 1.12940
#END
