
#######################################################################
#
#                 Cambridge Crystallographic Data Centre
#                                CCDC
#
#######################################################################
#
# If this CIF has been generated from an entry in the Cambridge
# Structural Database, then it will include bibliographic, chemical,
# crystal, experimental, refinement or atomic coordinate data resulting
# from the CCDC's data processing and validation procedures.
#
#######################################################################

data_CSD_CIF_ISUXEA
_audit_creation_date 2011-08-30
_audit_creation_method CSD-ConQuest-V1
_database_code_CSD ISUXEA
_database_code_depnum_ccdc_archive 'CCDC 773156'
_chemical_formula_sum 'C7 H8 N2 O3'
_chemical_formula_moiety
;
C7 H8 N2 O3
;
_journal_coden_Cambridge 644
_journal_volume 66
_journal_year 2011
_journal_page_first 611
_journal_name_full 'Z.Naturforsch.,B:Chem.Sci. '
loop_
_publ_author_name
"M.Schulz"
"K.Wimmer"
"H.Gorls"
"M.Westerhausen"
_chemical_name_systematic
;
2-Nitro-1-(pyridin-2-yl)ethanol
;
_chemical_melting_point 343.15
_cell_volume    794.336
_exptl_crystal_colour 'colorless'
_exptl_crystal_density_diffrn 1.406
_exptl_special_details
;
Melting point range 343.15-345.15K

;
_exptl_crystal_description 'prism'
_diffrn_ambient_temperature 183
#These two values have been output from a single CSD field.
_refine_ls_R_factor_gt 0.0391
_refine_ls_wR_factor_gt 0.0391
_symmetry_cell_setting orthorhombic
_symmetry_space_group_name_H-M 'P 21 21 21'
_symmetry_Int_Tables_number 19
loop_
_symmetry_equiv_pos_site_id
_symmetry_equiv_pos_as_xyz
1 x,y,z
2 1/2-x,-y,1/2+z
3 -x,1/2+y,1/2-z
4 1/2+x,1/2-y,-z
_cell_length_a 7.1450(5)
_cell_length_b 9.7128(7)
_cell_length_c 11.4461(6)
_cell_angle_alpha 90
_cell_angle_beta 90
_cell_angle_gamma 90
_cell_formula_units_Z 4
loop_
_atom_type_symbol
_atom_type_radius_bond
C 0.68
H 0.23
N 0.68
O 0.68
loop_
_atom_site_label
_atom_site_type_symbol
_atom_site_fract_x
_atom_site_fract_y
_atom_site_fract_z
O1 O -0.06432(18) -0.22669(13) -0.33685(10)
O2 O -0.4169(3) 0.01587(16) -0.36322(14)
O3 O -0.3226(2) -0.02262(16) -0.18822(15)
N1 N -0.3754(2) -0.43461(15) -0.50873(12)
N2 N -0.3773(2) -0.06131(17) -0.28349(15)
C1 C -0.4037(3) -0.5674(2) -0.53448(17)
H1 H -0.489(3) -0.581(2) -0.5984(17)
C2 C -0.3220(3) -0.6750(2) -0.47447(15)
H2 H -0.351(3) -0.767(2) -0.4953(18)
C3 C -0.2034(3) -0.6431(2) -0.38335(16)
H3 H -0.145(3) -0.717(2) -0.3408(15)
C4 C -0.1707(3) -0.5066(2) -0.35652(16)
H4 H -0.089(3) -0.486(2) -0.2960(17)
C5 C -0.2599(2) -0.40513(18) -0.42039(14)
C6 C -0.2376(2) -0.25344(17) -0.39103(15)
H5 H -0.247(2) -0.1944(19) -0.4640(14)
C7 C -0.3924(3) -0.21243(18) -0.30613(18)
H6 H -0.377(3) -0.254(2) -0.2312(17)
H7 H -0.524(3) -0.230(2) -0.3398(15)
H8 H 0.007(3) -0.178(3) -0.387(2)
#END
