
#######################################################################
#
#                 Cambridge Crystallographic Data Centre
#                                CCDC
#
#######################################################################
#
# If this CIF has been generated from an entry in the Cambridge
# Structural Database, then it will include bibliographic, chemical,
# crystal, experimental, refinement or atomic coordinate data resulting
# from the CCDC's data processing and validation procedures.
#
#######################################################################

data_CSD_CIF_ISXZCB
_audit_creation_date 1981-05-19
_audit_creation_method CSD-ConQuest-V1
_database_code_CSD ISXZCB
_database_code_depnum_ccdc_archive 'CCDC 1181007'
_chemical_formula_sum 'C12 H21 N3 O3'
_chemical_formula_moiety
;
C12 H21 N3 O3
;
_journal_coden_Cambridge 7
_journal_volume 53
_journal_year 1980
_journal_page_first 3240
_journal_name_full 'Bull.Chem.Soc.Jpn. '
loop_
_publ_author_name
"T.Ota"
"S.Masuda"
"M.Kido"
_chemical_name_systematic
;
2,4,7-Trimethylperhydro-isoxazole(2,3-a)pyridine-2,7-dicarbaldehyde dioxime
;
_cell_volume   1362.265
_exptl_crystal_colour 'colorless'
_exptl_crystal_density_diffrn 1.243
_exptl_special_details
;
Space group is P21/c, not P21/a

;
_diffrn_ambient_temperature ?
_diffrn_special_details
;
The study was carried out at room temperature,in the range 283-303K

;
#These two values have been output from a single CSD field.
_refine_ls_R_factor_gt 0.078
_refine_ls_wR_factor_gt 0.078
loop_
_citation_database_id_CSD
_citation_special_details
ISXZCC "is a stereoisomer of this entry"
_symmetry_cell_setting monoclinic
_symmetry_space_group_name_H-M 'P 21/c'
_symmetry_Int_Tables_number 14
loop_
_symmetry_equiv_pos_site_id
_symmetry_equiv_pos_as_xyz
1 x,y,z
2 -x,1/2+y,1/2-z
3 -x,-y,-z
4 x,-1/2-y,-1/2+z
_cell_length_a 7.858(3)
_cell_length_b 13.186(6)
_cell_length_c 17.259(6)
_cell_angle_alpha 90
_cell_angle_beta 130.38(3)
_cell_angle_gamma 90
_cell_formula_units_Z 4
loop_
_atom_type_symbol
_atom_type_radius_bond
C 0.68
H 0.23
N 0.68
O 0.68
loop_
_atom_site_label
_atom_site_type_symbol
_atom_site_fract_x
_atom_site_fract_y
_atom_site_fract_z
O1 O 0.52540 0.37160 0.41790
O2 O 1.25110 0.31870 0.73710
O3 O -0.09090 0.53480 0.20730
N1 N 0.61570 0.28780 0.39900
N2 N 1.12210 0.25210 0.65370
N3 N 0.14600 0.54010 0.28530
C1 C 0.48660 0.45670 0.35340
C2 C 0.58440 0.42100 0.30380
C3 C 0.82330 0.25720 0.34250
C4 C 0.97330 0.18450 0.43330
C5 C 0.85160 0.14210 0.46750
C6 C 0.75480 0.22370 0.49220
C7 C 0.75060 0.34010 0.37870
C8 C 0.95630 0.30280 0.31530
C9 C 0.59820 0.17650 0.50730
C10 C 0.92660 0.28630 0.58470
C11 C 0.60750 0.54670 0.42340
C12 C 0.23680 0.46830 0.27710
H1 H 1.35400 0.28300 0.77900
H2 H -0.12900 0.59200 0.22000
H3 H 0.64800 0.47800 0.29700
H4 H 0.46000 0.38800 0.23400
H5 H 0.66200 0.22200 0.25800
H6 H 1.11900 0.22000 0.49400
H7 H 0.99700 0.12700 0.41000
H8 H 0.71300 0.09800 0.40400
H9 H 0.96400 0.09800 0.53800
H10 H 0.89600 0.37400 0.45200
H11 H 0.82800 0.35000 0.24900
H12 H 1.10300 0.34400 0.38700
H13 H 0.95900 0.23500 0.27000
H14 H 0.69000 0.12300 0.56600
H15 H 0.47900 0.13700 0.44300
H16 H 0.55200 0.23700 0.53500
H17 H 0.88000 0.34500 0.60000
H18 H 0.75600 0.53500 0.46700
H19 H 0.57700 0.60400 0.38300
H20 H 0.56700 0.55900 0.46300
H21 H 0.15300 0.41800 0.21700
#END
