
#######################################################################
#
#                 Cambridge Crystallographic Data Centre
#                                CCDC
#
#######################################################################
#
# If this CIF has been generated from an entry in the Cambridge
# Structural Database, then it will include bibliographic, chemical,
# crystal, experimental, refinement or atomic coordinate data resulting
# from the CCDC's data processing and validation procedures.
#
#######################################################################

data_CSD_CIF_ITAFIT
_audit_creation_date 2011-08-30
_audit_creation_method CSD-ConQuest-V1
_database_code_CSD ITAFIT
_database_code_depnum_ccdc_archive 'CCDC 771106'
_chemical_formula_sum 'C25 H21 N1 O4'
_chemical_formula_moiety
;
C25 H21 N1 O4
;
_journal_coden_Cambridge 1094
_journal_volume 22
_journal_year 2011
_journal_page_first 671
_journal_name_full 'Struct.Chem. '
loop_
_publ_author_name
"A.Sethukumar"
"M.M.Chandy"
"B.A.Prakasam"
"R.Pallepogu"
_chemical_name_systematic
;
9,9-Dimethyl-12-(2-nitrophenyl)-8,9,10,12-tetrahydro-11H-benzo[a]xanthen-11-on
e
;
_cell_volume   3927.335
_exptl_crystal_colour 'colorless'
_exptl_crystal_density_diffrn 1.351
_exptl_crystal_description 'block'
_diffrn_ambient_temperature 298
#These two values have been output from a single CSD field.
_refine_ls_R_factor_gt 0.0424
_refine_ls_wR_factor_gt 0.0424
_symmetry_cell_setting monoclinic
_symmetry_space_group_name_H-M 'C 2/c'
_symmetry_Int_Tables_number 15
loop_
_symmetry_equiv_pos_site_id
_symmetry_equiv_pos_as_xyz
1 x,y,z
2 -x,y,1/2-z
3 1/2+x,1/2+y,z
4 1/2-x,1/2+y,1/2-z
5 -x,-y,-z
6 x,-y,-1/2+z
7 -1/2-x,-1/2-y,-z
8 -1/2+x,-1/2-y,-1/2+z
_cell_length_a 24.563(7)
_cell_length_b 10.5519(10)
_cell_length_c 20.361(6)
_cell_angle_alpha 90
_cell_angle_beta 131.91(5)
_cell_angle_gamma 90
_cell_formula_units_Z 8
loop_
_atom_type_symbol
_atom_type_radius_bond
C 0.68
H 0.23
N 0.68
O 0.68
loop_
_atom_site_label
_atom_site_type_symbol
_atom_site_fract_x
_atom_site_fract_y
_atom_site_fract_z
C1 C 0.10696(9) 0.92169(14) 0.79208(11)
H1 H 0.06160 0.95240 0.73540
C2 C 0.17079(9) 0.94939(14) 0.79679(11)
C3 C 0.23658(9) 0.88446(16) 0.85912(12)
H2 H 0.23920 0.82450 0.89460
C4 C 0.29723(10) 0.90514(19) 0.87027(14)
H3 H 0.33930 0.85770 0.91150
C5 C 0.29654(11) 0.9951(2) 0.82116(15)
H4 H 0.33780 1.00910 0.82880
C6 C 0.23391(11) 1.06442(18) 0.76055(14)
H5 H 0.23300 1.12780 0.72810
C7 C 0.17209(9) 1.03951(15) 0.74796(11)
C8 C 0.09968(8) 0.78022(14) 0.79859(11)
C9 C 0.03422(9) 0.74032(16) 0.64010(12)
H6 H 0.03520 0.82630 0.63100
C10 C 0.00019(10) 0.65838(17) 0.57051(12)
H7 H -0.02240 0.68920 0.51460
C11 C -0.00077(10) 0.52812(18) 0.58324(14)
H8 H -0.02470 0.47290 0.53560
C12 C 0.03293(10) 0.48225(17) 0.66469(14)
H9 H 0.03320 0.39540 0.67260
C13 C 0.10018(10) 0.51753(16) 0.82184(13)
H10 H 0.10220 0.43050 0.83060
C14 C 0.12856(10) 0.59767(15) 0.89029(12)
H11 H 0.14900 0.56630 0.94530
C15 C 0.12660(9) 0.72811(15) 0.87679(11)
C16 C 0.06788(9) 0.69683(15) 0.72555(11)
C17 C 0.06771(9) 0.56421(16) 0.73784(12)
C18 C 0.13877(9) 0.92810(15) 0.93730(11)
C19 C 0.14666(10) 0.98430(15) 1.01034(12)
H12 H 0.18940 0.94770 1.06570
H13 H 0.10430 0.96110 1.00220
C20 C 0.15432(9) 1.12851(15) 1.01704(12)
C21 C 0.10157(10) 1.18491(15) 0.92368(12)
H14 H 0.05230 1.17970 0.90150
H15 H 0.11320 1.27400 0.92780
C22 C 0.10197(9) 1.12392(15) 0.85705(12)
C23 C 0.11740(9) 0.98865(14) 0.86577(11)
C24 C 0.23291(10) 1.16571(19) 1.06438(14)
H16 H 0.26500 1.13300 1.12350
H17 H 0.23680 1.25640 1.06610
H18 H 0.24640 1.13110 1.03330
C25 C 0.13451(11) 1.17936(17) 1.06904(13)
H19 H 0.08620 1.15150 1.04170
H20 H 0.13590 1.27030 1.06950
H21 H 0.16900 1.14820 1.12850
N1 N 0.10655(10) 1.11131(16) 0.67532(11)
O1 O 0.15358(7) 0.80134(10) 0.95030(7)
O2 O 0.08785(7) 1.18490(11) 0.79588(8)
O3 O 0.04818(8) 1.05591(13) 0.62480(9)
O4 O 0.11437(8) 1.22261(13) 0.66655(10)
#END
