
#######################################################################
#
#                 Cambridge Crystallographic Data Centre
#                                CCDC
#
#######################################################################
#
# If this CIF has been generated from an entry in the Cambridge
# Structural Database, then it will include bibliographic, chemical,
# crystal, experimental, refinement or atomic coordinate data resulting
# from the CCDC's data processing and validation procedures.
#
#######################################################################

data_CSD_CIF_ITICAR
_audit_creation_date 2016-08-17
_audit_creation_method CSD-ConQuest-V1
_database_code_CSD ITICAR
_database_code_depnum_ccdc_archive 'CCDC 1482030'
_chemical_formula_sum 'C15 H14 N2 O3'
_chemical_formula_moiety
;
C15 H14 N2 O3
;
_journal_coden_Cambridge 119
_journal_volume 1127
_journal_year 2017
_journal_page_first 689
_journal_name_full 'J.Mol.Struct. '
loop_
_publ_author_name
"M.Maldonado"
"A.Perez-Redondo"
"R.Quevedo"
_chemical_name_systematic
;
4-(2-((4-nitrobenzylidene)amino)ethyl)phenol
;
_cell_volume   1322.806
_exptl_crystal_colour 'yellow'
_exptl_crystal_density_diffrn 1.357
_exptl_crystal_description 'prism'
_exptl_crystal_preparation 'ethanol'
_diffrn_ambient_temperature 200
#These two values have been output from a single CSD field.
_refine_ls_R_factor_gt 0.0406
_refine_ls_wR_factor_gt 0.0406
_symmetry_cell_setting orthorhombic
_symmetry_space_group_name_H-M 'P 21 21 21'
_symmetry_Int_Tables_number 19
loop_
_symmetry_equiv_pos_site_id
_symmetry_equiv_pos_as_xyz
1 x,y,z
2 1/2-x,-y,1/2+z
3 1/2+x,1/2-y,-z
4 -x,1/2+y,1/2-z
_cell_length_a 7.6821(6)
_cell_length_b 12.5694(11)
_cell_length_c 13.6994(11)
_cell_angle_alpha 90
_cell_angle_beta 90
_cell_angle_gamma 90
_cell_formula_units_Z 4
loop_
_atom_type_symbol
_atom_type_radius_bond
C 0.68
H 0.23
N 0.68
O 0.68
loop_
_atom_site_label
_atom_site_type_symbol
_atom_site_fract_x
_atom_site_fract_y
_atom_site_fract_z
C1 C 0.6244(3) 0.77139(19) 0.12858(16)
C2 C 0.7036(3) 0.6749(2) 0.14360(17)
H1 H 0.76490 0.64020 0.09250
C3 C 0.6917(3) 0.62955(19) 0.23562(17)
H2 H 0.74220 0.56170 0.24730
C4 C 0.6066(3) 0.68209(19) 0.31097(16)
C5 C 0.5287(3) 0.7798(2) 0.29311(17)
H3 H 0.47000 0.81570 0.34450
C6 C 0.5357(3) 0.8253(2) 0.20133(17)
H4 H 0.48110 0.89160 0.18850
C7 C 0.6099(3) 0.63336(19) 0.40889(17)
H5 H 0.63350 0.55930 0.41320
C8 C 0.5946(3) 0.6220(2) 0.57786(17)
H6 H 0.68510 0.65320 0.62050
H7 H 0.62900 0.54790 0.56270
C9 C 0.4217(3) 0.6217(2) 0.63104(18)
H8 H 0.38470 0.69600 0.64280
H9 H 0.33280 0.58740 0.58930
C10 C 0.4312(3) 0.56359(19) 0.72735(17)
C11 C 0.5159(3) 0.60849(19) 0.80727(18)
H10 H 0.56570 0.67740 0.80120
C12 C 0.5291(4) 0.55517(19) 0.89515(17)
H11 H 0.58700 0.58770 0.94870
C13 C 0.4580(3) 0.45420(19) 0.90564(17)
C14 C 0.3700(3) 0.4091(2) 0.82757(18)
H12 H 0.31780 0.34100 0.83430
C15 C 0.3583(3) 0.4635(2) 0.73948(18)
H13 H 0.29900 0.43130 0.68630
N1 N 0.6376(3) 0.82132(17) 0.03180(15)
N2 N 0.5834(3) 0.68333(15) 0.48731(14)
O1 O 0.5556(3) 0.90270(16) 0.01676(15)
O2 O 0.7308(3) 0.77875(17) -0.02937(14)
O3 O 0.4789(2) 0.40460(14) 0.99363(12)
H14 H 0.453(5) 0.330(3) 0.993(3)
#END
