
#######################################################################
#
#                 Cambridge Crystallographic Data Centre
#                                CCDC
#
#######################################################################
#
# If this CIF has been generated from an entry in the Cambridge
# Structural Database, then it will include bibliographic, chemical,
# crystal, experimental, refinement or atomic coordinate data resulting
# from the CCDC's data processing and validation procedures.
#
#######################################################################

data_CSD_CIF_ITIKAY01
_audit_creation_date 2011-08-15
_audit_creation_method CSD-ConQuest-V1
_database_code_CSD ITIKAY01
_database_code_depnum_ccdc_archive 'CCDC 784261'
_chemical_formula_sum 'C12 H13 N3 O6'
_chemical_formula_moiety
;
C12 H13 N3 O6
;
_journal_coden_Cambridge 9
_journal_volume 50
_journal_year 2011
_journal_page_first 918
_journal_name_full 'Inorg.Chem. '
loop_
_publ_author_name
"M.N.Kopylovich"
"K.T.Mahmudov"
"M.F.C.G.da Silva"
"P.J.Figiel"
"Y.Yu.Karabach"
"M.L.Kuznetsov"
"K.V.Luzyanin"
"A.J.L.Pombeiro"
_chemical_name_systematic
;
Ethyl 2-((2-hydroxy-4-nitrophenyl)hydrazono)-3-oxobutanoate
;
_cell_volume   1376.279
_exptl_crystal_colour 'yellow'
_exptl_crystal_density_diffrn 1.425
_exptl_crystal_description 'plate'
_diffrn_ambient_temperature 299
#These two values have been output from a single CSD field.
_refine_ls_R_factor_gt 0.0592
_refine_ls_wR_factor_gt 0.0592
_symmetry_cell_setting orthorhombic
_symmetry_space_group_name_H-M 'P n a 21'
_symmetry_Int_Tables_number 33
loop_
_symmetry_equiv_pos_site_id
_symmetry_equiv_pos_as_xyz
1 x,y,z
2 -x,-y,1/2+z
3 1/2-x,1/2+y,1/2+z
4 1/2+x,1/2-y,z
_cell_length_a 22.4633(5)
_cell_length_b 13.0385(13)
_cell_length_c 4.699(2)
_cell_angle_alpha 90
_cell_angle_beta 90
_cell_angle_gamma 90
_cell_formula_units_Z 4
loop_
_atom_type_symbol
_atom_type_radius_bond
C 0.68
H 0.23
N 0.68
O 0.68
loop_
_atom_site_label
_atom_site_type_symbol
_atom_site_fract_x
_atom_site_fract_y
_atom_site_fract_z
C1 C 0.83178(19) 0.1546(3) 0.6236(10)
C2 C 0.8795(2) 0.1982(3) 0.7634(10)
H1 H 0.87340 0.24970 0.89730
C3 C 0.9359(2) 0.1646(3) 0.7021(11)
C4 C 0.9469(2) 0.0889(4) 0.5094(12)
H2 H 0.98550 0.06580 0.47810
C5 C 0.8998(2) 0.0469(4) 0.3612(11)
H3 H 0.90650 -0.00290 0.22330
C6 C 0.8432(2) 0.0791(3) 0.4186(10)
C7 C 0.8299(2) -0.1905(4) -0.2738(14)
H4 H 0.84060 -0.21560 -0.08870
H5 H 0.85720 -0.13740 -0.32920
H6 H 0.83170 -0.24550 -0.40910
C8 C 0.7679(2) -0.1480(3) -0.2653(11)
C9 C 0.7531(2) -0.0675(3) -0.054(1)
C10 C 0.6926(2) -0.0269(4) -0.0040(13)
C11 C 0.5888(3) -0.0447(6) -0.090(2)
H7 H 0.56130 -0.09880 -0.14380
H8 H 0.58350 -0.02920 0.11020
C12 C 0.5799(4) 0.0464(7) -0.265(2)
H9 H 0.58560 0.10660 -0.15050
H10 H 0.54020 0.04620 -0.34040
H11 H 0.60810 0.04630 -0.41850
N1 N 0.79312(17) 0.0409(3) 0.2784(8)
H12 H 0.75840 0.06490 0.31720
N2 N 0.79929(15) -0.0325(3) 0.0851(8)
N3 N 0.9861(2) 0.2103(4) 0.8526(12)
O1 O 0.73070(14) -0.1801(2) -0.4290(7)
O2 O 0.77433(12) 0.1796(2) 0.6689(7)
O3 O 0.65134(17) -0.0744(4) -0.1521(10)
O4 O 0.68138(13) 0.0400(3) 0.1605(9)
O5 O 0.97633(16) 0.2799(3) 1.0211(11)
O6 O 1.03518(16) 0.1766(3) 0.8078(13)
H13 H 0.76790 0.23740 0.83310
#END
