
#######################################################################
#
#                 Cambridge Crystallographic Data Centre
#                                CCDC
#
#######################################################################
#
# If this CIF has been generated from an entry in the Cambridge
# Structural Database, then it will include bibliographic, chemical,
# crystal, experimental, refinement or atomic coordinate data resulting
# from the CCDC's data processing and validation procedures.
#
#######################################################################

data_CSD_CIF_ITIKAY
_audit_creation_date 2011-08-15
_audit_creation_method CSD-ConQuest-V1
_database_code_CSD ITIKAY
_database_code_depnum_ccdc_archive 'CCDC 784260'
_chemical_formula_sum 'C12 H13 N3 O6'
_chemical_formula_moiety
;
C12 H13 N3 O6
;
_journal_coden_Cambridge 9
_journal_volume 50
_journal_year 2011
_journal_page_first 918
_journal_name_full 'Inorg.Chem. '
loop_
_publ_author_name
"M.N.Kopylovich"
"K.T.Mahmudov"
"M.F.C.G.da Silva"
"P.J.Figiel"
"Y.Yu.Karabach"
"M.L.Kuznetsov"
"K.V.Luzyanin"
"A.J.L.Pombeiro"
_chemical_name_systematic
;
Ethyl 2-((2-hydroxy-4-nitrophenyl)hydrazono)-3-oxobutanoate
;
_cell_volume   1355.620
_exptl_crystal_colour 'orange'
_exptl_crystal_density_diffrn 1.447
_exptl_crystal_description 'prism'
_diffrn_ambient_temperature 150
#These two values have been output from a single CSD field.
_refine_ls_R_factor_gt 0.0544
_refine_ls_wR_factor_gt 0.0544
_symmetry_cell_setting orthorhombic
_symmetry_space_group_name_H-M 'P n a 21'
_symmetry_Int_Tables_number 33
loop_
_symmetry_equiv_pos_site_id
_symmetry_equiv_pos_as_xyz
1 x,y,z
2 -x,-y,1/2+z
3 1/2-x,1/2+y,1/2+z
4 1/2+x,1/2-y,z
_cell_length_a 22.278(3)
_cell_length_b 13.1202(16)
_cell_length_c 4.6379(6)
_cell_angle_alpha 90
_cell_angle_beta 90
_cell_angle_gamma 90
_cell_formula_units_Z 4
loop_
_atom_type_symbol
_atom_type_radius_bond
C 0.68
H 0.23
N 0.68
O 0.68
loop_
_atom_site_label
_atom_site_type_symbol
_atom_site_fract_x
_atom_site_fract_y
_atom_site_fract_z
C1 C 0.3332(3) 0.8543(4) -0.2113(14)
C2 C 0.3805(3) 0.8077(4) -0.3508(14)
H1 H 0.37380 0.75620 -0.49110
C3 C 0.4379(3) 0.8385(4) -0.2796(15)
C4 C 0.4498(3) 0.9142(4) -0.0742(16)
H2 H 0.48980 0.93360 -0.02900
C5 C 0.4017(3) 0.9593(4) 0.0594(14)
H3 H 0.40830 1.01120 0.19860
C6 C 0.3445(3) 0.9304(4) -0.0056(14)
C7 C 0.3300(3) 1.1999(5) 0.6860(17)
H4 H 0.33110 1.26040 0.80960
H5 H 0.34320 1.21820 0.49110
H6 H 0.35690 1.14770 0.76480
C8 C 0.2669(3) 1.1587(4) 0.6743(14)
C9 C 0.2519(3) 1.0789(4) 0.4634(13)
C10 C 0.1905(3) 1.0404(5) 0.4051(16)
C11 C 0.0876(3) 1.0554(7) 0.489(2)
H7 H 0.08220 1.04630 0.27850
H8 H 0.05880 1.10790 0.55520
C12 C 0.0753(4) 0.9577(7) 0.639(2)
H9 H 0.09920 0.90330 0.55030
H10 H 0.03260 0.94120 0.62260
H11 H 0.08620 0.96410 0.84290
N1 N 0.2935(2) 0.9708(3) 0.1282(11)
H12 H 0.25760 0.94850 0.08120
N2 N 0.2996(2) 1.0430(3) 0.3260(11)
N3 N 0.4891(2) 0.7908(4) -0.4237(14)
O1 O 0.22873(18) 1.1898(3) 0.8424(10)
O2 O 0.27467(16) 0.8322(3) -0.2616(10)
H13 H 0.27210 0.79240 -0.40300
O3 O 0.14828(19) 1.0886(3) 0.5481(11)
O4 O 0.18040(18) 0.9736(3) 0.2270(12)
O5 O 0.4784(2) 0.7238(4) -0.6037(13)
O6 O 0.5397(2) 0.8181(3) -0.3610(15)
#END
