
#######################################################################
#
#                 Cambridge Crystallographic Data Centre
#                                CCDC
#
#######################################################################
#
# If this CIF has been generated from an entry in the Cambridge
# Structural Database, then it will include bibliographic, chemical,
# crystal, experimental, refinement or atomic coordinate data resulting
# from the CCDC's data processing and validation procedures.
#
#######################################################################

data_CSD_CIF_ITINEE
_audit_creation_date 2004-07-08
_audit_creation_method CSD-ConQuest-V1
_database_code_CSD ITINEE
_database_code_depnum_ccdc_archive 'CCDC 224945'
_chemical_formula_sum 'C9 H8 N8 O8'
_chemical_formula_moiety
;
C9 H8 N8 O8
;
_journal_coden_Cambridge 24
_journal_volume 45
_journal_year 2004
_journal_page_first 2159
_journal_name_full 'Tetrahedron Lett. '
loop_
_publ_author_name
"P.R.Dave"
"R.Duddu"
"K.Yang"
"R.Damavarapu"
"N.Gelber"
"R.Surapaneni"
"R.Gilardi"
_chemical_name_systematic
;
1,3-bis(4-Carboxy-1,2,3-triazol-1-yl)-2,2-dinitropropane
;
_cell_volume   2655.958
_exptl_crystal_colour 'colorless'
_exptl_crystal_density_diffrn 1.782
_exptl_crystal_description 'plate'
_diffrn_ambient_temperature 294
#These two values have been output from a single CSD field.
_refine_ls_R_factor_gt 0.0492
_refine_ls_wR_factor_gt 0.0492
_symmetry_cell_setting monoclinic
_symmetry_space_group_name_H-M 'C 2/c'
_symmetry_Int_Tables_number 15
loop_
_symmetry_equiv_pos_site_id
_symmetry_equiv_pos_as_xyz
1 x,y,z
2 1/2+x,1/2+y,z
3 x,-y,1/2+z
4 1/2+x,1/2-y,1/2+z
5 -x,-y,-z
6 -1/2-x,-1/2-y,-z
7 -x,y,-1/2-z
8 -1/2-x,-1/2+y,-1/2-z
_cell_length_a 29.7164(12)
_cell_length_b 5.9130(3)
_cell_length_c 16.3778(7)
_cell_angle_alpha 90
_cell_angle_beta 112.644(3)
_cell_angle_gamma 90
_cell_formula_units_Z 8
loop_
_atom_type_symbol
_atom_type_radius_bond
C 0.68
H 0.23
N 0.68
O 0.68
loop_
_atom_site_label
_atom_site_type_symbol
_atom_site_fract_x
_atom_site_fract_y
_atom_site_fract_z
C1 C 0.31838(10) 0.5196(5) 0.4107(2)
N1 N 0.29588(10) 0.3200(4) 0.44279(19)
O1 O 0.30742(9) 0.3021(4) 0.52210(16)
O2 O 0.26714(9) 0.2020(4) 0.38641(16)
N2 N 0.29051(11) 0.7142(4) 0.43163(19)
O3 O 0.31223(10) 0.8266(5) 0.49617(18)
O4 O 0.24746(9) 0.7321(4) 0.38339(19)
C2 C 0.30476(11) 0.4919(5) 0.3117(2)
H1 H 0.31400 0.34190 0.29970
H2 H 0.26970 0.50680 0.28110
N3 N 0.32899(8) 0.6604(4) 0.27857(17)
N4 N 0.32033(9) 0.8835(5) 0.28632(19)
N5 N 0.34642(9) 0.9969(4) 0.25263(18)
C3 C 0.37140(11) 0.8476(5) 0.2230(2)
C4 C 0.40717(11) 0.9245(6) 0.1867(2)
O5 O 0.41479(8) 1.1293(4) 0.18225(16)
O6 O 0.42937(8) 0.7616(4) 0.16497(17)
H3 H 0.4559(10) 0.810(6) 0.146(3)
C5 C 0.36036(11) 0.6318(6) 0.2397(2)
H4 H 0.37210 0.49650 0.22670
C6 C 0.37212(11) 0.5455(5) 0.4695(2)
H5 H 0.38290 0.69620 0.46220
H6 H 0.37630 0.52820 0.53090
N6 N 0.40193(9) 0.3790(4) 0.44815(17)
N7 N 0.39456(10) 0.1550(5) 0.45805(18)
N8 N 0.42564(9) 0.0423(5) 0.43589(18)
C7 C 0.45332(11) 0.1934(5) 0.4133(2)
C8 C 0.49181(11) 0.1160(6) 0.3843(2)
O7 O 0.49646(8) -0.0871(4) 0.37153(15)
O8 O 0.51841(9) 0.2769(4) 0.37324(17)
H7 H 0.5439(11) 0.238(7) 0.350(3)
C9 C 0.43885(11) 0.4085(6) 0.4217(2)
H8 H 0.45170 0.54400 0.41140
#END
