
#######################################################################
#
#                 Cambridge Crystallographic Data Centre
#                                CCDC
#
#######################################################################
#
# If this CIF has been generated from an entry in the Cambridge
# Structural Database, then it will include bibliographic, chemical,
# crystal, experimental, refinement or atomic coordinate data resulting
# from the CCDC's data processing and validation procedures.
#
#######################################################################

data_CSD_CIF_ITOHEG
_audit_creation_date 2016-09-12
_audit_creation_method CSD-ConQuest-V1
_database_code_CSD ITOHEG
_database_code_depnum_ccdc_archive 'CCDC 1472136; not CCDC 1472316 as published'
_chemical_formula_sum 'C16 H15 N1 O2'
_chemical_formula_moiety
;
C16 H15 N1 O2
;
_journal_coden_Cambridge 35
_journal_volume 81
_journal_year 2016
_journal_page_first 7931
_journal_name_full 'J.Org.Chem. '
loop_
_publ_author_name
"Changkun Xia"
"A.J.P.White"
"King Kuok Mimi Hii"
_chemical_name_systematic
;
3-benzyl-2-methoxyisoindolin-1-one
;
_cell_volume   1322.424
_exptl_crystal_colour 'colorless'
_exptl_crystal_density_diffrn 1.272
_exptl_crystal_description 'blocky needles'
_diffrn_ambient_temperature 173
#These two values have been output from a single CSD field.
_refine_ls_R_factor_gt 0.0368
_refine_ls_wR_factor_gt 0.0368
_symmetry_cell_setting orthorhombic
_symmetry_space_group_name_H-M 'P 21 21 21'
_symmetry_Int_Tables_number 19
loop_
_symmetry_equiv_pos_site_id
_symmetry_equiv_pos_as_xyz
1 x,y,z
2 1/2-x,-y,1/2+z
3 -x,1/2+y,1/2-z
4 1/2+x,1/2-y,-z
_cell_length_a 8.5662(4)
_cell_length_b 10.7642(6)
_cell_length_c 14.3417(7)
_cell_angle_alpha 90
_cell_angle_beta 90
_cell_angle_gamma 90
_cell_formula_units_Z 4
loop_
_atom_type_symbol
_atom_type_radius_bond
C 0.68
H 0.23
N 0.68
O 0.68
loop_
_atom_site_label
_atom_site_type_symbol
_atom_site_fract_x
_atom_site_fract_y
_atom_site_fract_z
N1 N 0.9943(2) 0.79241(17) 0.34073(11)
C1 C 1.1075(3) 0.8783(2) 0.32827(15)
O1 O 1.1708(2) 0.94131(17) 0.38784(11)
C2 C 1.1348(2) 0.87650(19) 0.22590(13)
C3 C 1.2457(3) 0.9404(2) 0.17519(15)
H1 H 1.31960 0.99270 0.20510
C4 C 1.2456(3) 0.9258(2) 0.07937(15)
H2 H 1.31930 0.96960 0.04230
C5 C 1.1386(3) 0.8478(2) 0.03749(15)
H3 H 1.13850 0.84080 -0.02850
C6 C 1.0313(3) 0.7793(2) 0.08855(14)
H4 H 0.96100 0.72370 0.05890
C7 C 1.0307(2) 0.79525(19) 0.18445(14)
C8 C 0.9305(2) 0.7342(2) 0.25733(13)
H5 H 0.95220 0.64290 0.25870
O2 O 0.92384(19) 0.77191(16) 0.42637(9)
C9 C 1.0110(3) 0.6814(2) 0.47875(16)
H6 H 0.95180 0.65770 0.53440
H7 H 1.11140 0.71720 0.49750
H8 H 1.02920 0.60790 0.44000
C10 C 0.7542(2) 0.7562(2) 0.24744(15)
H9 H 0.71550 0.70700 0.19390
H10 H 0.70160 0.72460 0.30410
C11 C 0.7080(2) 0.8897(2) 0.23340(15)
C12 C 0.6974(3) 0.9713(2) 0.30819(17)
H11 H 0.71830 0.94210 0.36940
C13 C 0.6568(3) 1.0945(2) 0.29491(18)
H12 H 0.65020 1.14920 0.34670
C14 C 0.6257(3) 1.1378(2) 0.20602(18)
H13 H 0.59740 1.22230 0.19680
C15 C 0.6357(3) 1.0589(2) 0.13113(17)
H14 H 0.61460 1.08840 0.07000
C16 C 0.6767(3) 0.9360(2) 0.14519(16)
H15 H 0.68360 0.88190 0.09300
#END
