
#######################################################################
#
#                 Cambridge Crystallographic Data Centre
#                                CCDC
#
#######################################################################
#
# If this CIF has been generated from an entry in the Cambridge
# Structural Database, then it will include bibliographic, chemical,
# crystal, experimental, refinement or atomic coordinate data resulting
# from the CCDC's data processing and validation procedures.
#
#######################################################################

data_CSD_CIF_ITUNUI
_audit_creation_date 2016-09-13
_audit_creation_method CSD-ConQuest-V1
_database_code_CSD ITUNUI
_database_code_depnum_ccdc_archive 'CCDC 1420684'
_chemical_formula_sum 'C20 H32 N3 O1'
_chemical_formula_moiety
;
C20 H32 N3 O1
;
_journal_coden_Cambridge 1220
_journal_volume 22
_journal_year 2016
_journal_page_first 9591
_journal_name_full 'Chem.-Eur.J. '
loop_
_publ_author_name
"Jan Philipp Golz"
"Y.NejatyJahromy"
"M.Bauer"
"A.Muhammad"
"G.Schnakenburg"
"S.Grimme"
"O.Schiemann"
"Dirk Menche"
_chemical_name_systematic
;
N-(adamantan-1-yl)-N'-(1-oxy-2,2,6,6-tetramethylpiperidin-4-yl)carbodi-imide 
radical
;
_cell_volume    918.107
_exptl_crystal_colour 'orange red'
_exptl_crystal_density_diffrn 1.195
_exptl_crystal_description 'block'
_diffrn_ambient_temperature 123
#These two values have been output from a single CSD field.
_refine_ls_R_factor_gt 0.0415
_refine_ls_wR_factor_gt 0.0415
_symmetry_cell_setting triclinic
_symmetry_space_group_name_H-M 'P -1'
_symmetry_Int_Tables_number 2
loop_
_symmetry_equiv_pos_site_id
_symmetry_equiv_pos_as_xyz
1 x,y,z
2 -x,-y,-z
_cell_length_a 6.3656(2)
_cell_length_b 11.7054(4)
_cell_length_c 12.5920(4)
_cell_angle_alpha 93.155(2)
_cell_angle_beta 97.590(2)
_cell_angle_gamma 98.121(2)
_cell_formula_units_Z 2
loop_
_atom_type_symbol
_atom_type_radius_bond
C 0.68
H 0.23
N 0.68
O 0.68
loop_
_atom_site_label
_atom_site_type_symbol
_atom_site_fract_x
_atom_site_fract_y
_atom_site_fract_z
C1 C 0.58715(17) 0.26595(9) 0.63905(9)
C2 C 0.43984(17) 0.35135(9) 0.59915(9)
H1 H 0.46890 0.37200 0.52670
H2 H 0.28920 0.31310 0.59240
C3 C 0.46647(17) 0.46165(9) 0.67238(9)
H3 H 0.61850 0.50060 0.67960
C4 C 0.41385(18) 0.42989(10) 0.78256(9)
H4 H 0.26170 0.39410 0.77520
H5 H 0.43130 0.50160 0.83030
C5 C 0.55334(18) 0.3466(1) 0.83553(9)
C6 C 0.51123(19) 0.1479(1) 0.57774(10)
H6 H 0.50900 0.15580 0.50050
H7 H 0.36660 0.11820 0.59200
H8 H 0.60930 0.09390 0.60130
C7 C 0.82119(17) 0.30696(10) 0.62434(10)
H9 H 0.86690 0.38540 0.65850
H10 H 0.83280 0.30720 0.54750
H11 H 0.91300 0.25450 0.65760
C8 C 0.77748(18) 0.40861(11) 0.88352(10)
H12 H 0.76570 0.46200 0.94440
H13 H 0.84210 0.45210 0.82860
H14 H 0.86770 0.35130 0.90810
C9 C 0.4414(2) 0.29002(11) 0.92425(10)
H15 H 0.53000 0.23680 0.95900
H16 H 0.30170 0.24700 0.89280
H17 H 0.42110 0.35010 0.97770
C10 C 0.18577(17) 0.58095(9) 0.66059(9)
C11 C 0.03249(17) 0.73798(9) 0.73474(9)
C12 C 0.23115(17) 0.82065(10) 0.71608(9)
H18 H 0.23600 0.82350 0.63800
H19 H 0.36210 0.79210 0.74880
C13 C 0.22422(18) 0.94239(9) 0.76615(9)
H20 H 0.35410 0.99590 0.75360
C14 C 0.21903(18) 0.93753(10) 0.88686(9)
H21 H 0.21500 1.01590 0.91960
H22 H 0.35020 0.91020 0.92090
C15 C 0.02039(17) 0.85506(10) 0.90637(9)
H23 H 0.01740 0.85170 0.98540
C16 C 0.02772(18) 0.7338(1) 0.85565(9)
H24 H 0.15700 0.70440 0.88940
H25 H -0.09990 0.68030 0.86850
C17 C -0.16862(17) 0.78251(9) 0.68269(9)
H26 H -0.29800 0.72910 0.69350
H27 H -0.16590 0.78560 0.60450
C18 C -0.17713(17) 0.90352(10) 0.73327(9)
H28 H -0.30910 0.93210 0.69950
C19 C -0.18189(18) 0.89894(10) 0.85426(9)
H29 H -0.31090 0.84650 0.86710
H30 H -0.18860 0.97710 0.88670
C20 C 0.02151(18) 0.98631(10) 0.71419(10)
H31 H 0.01590 1.06490 0.74590
H32 H 0.02450 0.99050 0.63610
N1 N 0.57577(14) 0.25123(8) 0.75565(8)
N2 N 0.32466(15) 0.53828(8) 0.62152(8)
N3 N 0.02934(14) 0.61931(8) 0.68641(8)
O1 O 0.66389(13) 0.16728(7) 0.79523(7)
#END
