
#######################################################################
#
#                 Cambridge Crystallographic Data Centre
#                                CCDC
#
#######################################################################
#
# If this CIF has been generated from an entry in the Cambridge
# Structural Database, then it will include bibliographic, chemical,
# crystal, experimental, refinement or atomic coordinate data resulting
# from the CCDC's data processing and validation procedures.
#
#######################################################################

data_CSD_CIF_ITUPEU
_audit_creation_date 2016-09-13
_audit_creation_method CSD-ConQuest-V1
_database_code_CSD ITUPEU
_database_code_depnum_ccdc_archive 'CCDC 1420686'
_chemical_formula_sum 'C17 H24 N3 O2'
_chemical_formula_moiety
;
C17 H24 N3 O2
;
_journal_coden_Cambridge 1220
_journal_volume 22
_journal_year 2016
_journal_page_first 9591
_journal_name_full 'Chem.-Eur.J. '
loop_
_publ_author_name
"Jan Philipp Golz"
"Y.NejatyJahromy"
"M.Bauer"
"A.Muhammad"
"G.Schnakenburg"
"S.Grimme"
"O.Schiemann"
"Dirk Menche"
_chemical_name_systematic
;
N-(1-oxy-2,2,6,6-tetramethylpiperidin-4-yl)-N'-(4-methoxyphenyl)carbodi-imide 
radical
;
_cell_volume    821.779
_exptl_crystal_colour 'orange'
_exptl_crystal_density_diffrn 1.222
_exptl_crystal_description 'rod'
_diffrn_ambient_temperature 123
#These two values have been output from a single CSD field.
_refine_ls_R_factor_gt 0.0426
_refine_ls_wR_factor_gt 0.0426
_symmetry_cell_setting triclinic
_symmetry_space_group_name_H-M 'P -1'
_symmetry_Int_Tables_number 2
loop_
_symmetry_equiv_pos_site_id
_symmetry_equiv_pos_as_xyz
1 x,y,z
2 -x,-y,-z
_cell_length_a 5.7558(2)
_cell_length_b 7.8723(2)
_cell_length_c 18.7493(5)
_cell_angle_alpha 86.9632(14)
_cell_angle_beta 87.9183(14)
_cell_angle_gamma 75.6831(16)
_cell_formula_units_Z 2
loop_
_atom_type_symbol
_atom_type_radius_bond
C 0.68
H 0.23
N 0.68
O 0.68
loop_
_atom_site_label
_atom_site_type_symbol
_atom_site_fract_x
_atom_site_fract_y
_atom_site_fract_z
C1 C 0.32085(19) 0.58460(14) 0.32662(6)
C2 C 0.1979(2) 0.51285(15) 0.26820(6)
H1 H 0.07140 0.60940 0.24710
H2 H 0.31710 0.46870 0.22990
C3 C 0.08655(19) 0.36611(14) 0.29608(6)
H3 H -0.02730 0.41020 0.33640
C4 C 0.28295(19) 0.21422(14) 0.32465(6)
H4 H 0.40220 0.17400 0.28590
H5 H 0.21240 0.11530 0.34020
C5 C 0.40990(19) 0.26526(14) 0.38770(6)
C6 C 0.1383(2) 0.69903(16) 0.37701(7)
H6 H 0.02130 0.63430 0.39480
H7 H 0.05520 0.80700 0.35100
H8 H 0.22200 0.72880 0.41730
C7 C 0.4843(2) 0.69322(16) 0.29163(7)
H9 H 0.38920 0.78840 0.26120
H10 H 0.60890 0.61790 0.26250
H11 H 0.55950 0.74300 0.32880
C8 C 0.2512(2) 0.28430(17) 0.45569(6)
H12 H 0.22880 0.16910 0.47220
H13 H 0.09490 0.36390 0.44540
H14 H 0.32840 0.33210 0.49300
C9 C 0.6427(2) 0.12589(16) 0.40139(7)
H15 H 0.72130 0.15630 0.44270
H16 H 0.74950 0.12050 0.35920
H17 H 0.60660 0.01140 0.41100
C10 C -0.0616(2) 0.17409(16) 0.22143(6)
C11 C -0.0082(2) -0.06030(14) 0.14418(6)
C12 C 0.1928(2) -0.03547(16) 0.10640(7)
H18 H 0.27070 0.04980 0.12090
C13 C 0.2823(2) -0.13333(15) 0.04765(7)
H19 H 0.42070 -0.11530 0.02220
C14 C 0.1692(2) -0.25714(15) 0.02631(6)
C15 C -0.0290(2) -0.28660(15) 0.06525(6)
H20 H -0.10380 -0.37440 0.05160
C16 C -0.1169(2) -0.18846(15) 0.12354(6)
H21 H -0.25260 -0.20870 0.14980
C17 C 0.4352(2) -0.32910(17) -0.07474(7)
H22 H 0.57890 -0.35260 -0.04570
H23 H 0.39840 -0.20690 -0.09330
H24 H 0.46390 -0.40770 -0.11470
N1 N 0.47570(15) 0.43502(12) 0.36876(5)
N2 N -0.05013(17) 0.31733(13) 0.23875(5)
N3 N -0.11327(17) 0.04040(13) 0.20329(5)
O1 O 0.62735(13) 0.47471(11) 0.40984(4)
O2 O 0.23815(15) -0.35829(11) -0.03179(5)
#END
