
#######################################################################
#
#                 Cambridge Crystallographic Data Centre
#                                CCDC
#
#######################################################################
#
# If this CIF has been generated from an entry in the Cambridge
# Structural Database, then it will include bibliographic, chemical,
# crystal, experimental, refinement or atomic coordinate data resulting
# from the CCDC's data processing and validation procedures.
#
#######################################################################

data_CSD_CIF_ITUPAQ
_audit_creation_date 2016-09-13
_audit_creation_method CSD-ConQuest-V1
_database_code_CSD ITUPAQ
_database_code_depnum_ccdc_archive 'CCDC 1420685'
_chemical_formula_sum 'C18 H26 N3 O1'
_chemical_formula_moiety
;
C18 H26 N3 O1
;
_journal_coden_Cambridge 1220
_journal_volume 22
_journal_year 2016
_journal_page_first 9591
_journal_name_full 'Chem.-Eur.J. '
loop_
_publ_author_name
"Jan Philipp Golz"
"Y.NejatyJahromy"
"M.Bauer"
"A.Muhammad"
"G.Schnakenburg"
"S.Grimme"
"O.Schiemann"
"Dirk Menche"
_chemical_name_systematic
;
N-(2,6-dimethylphenyl)-N'-(1-oxy-2,2,6,6-tetramethylpiperidin-4-yl)carbodi-imi
de radical
;
_cell_volume   1702.034
_exptl_crystal_colour 'orange'
_exptl_crystal_density_diffrn 1.172
_exptl_crystal_description 'rod'
_diffrn_ambient_temperature 123
#These two values have been output from a single CSD field.
_refine_ls_R_factor_gt 0.0461
_refine_ls_wR_factor_gt 0.0461
_symmetry_cell_setting monoclinic
_symmetry_space_group_name_H-M 'P 21/c'
_symmetry_Int_Tables_number 14
loop_
_symmetry_equiv_pos_site_id
_symmetry_equiv_pos_as_xyz
1 x,y,z
2 -x,1/2+y,1/2-z
3 -x,-y,-z
4 x,-1/2-y,-1/2+z
_cell_length_a 5.6680(2)
_cell_length_b 21.8346(8)
_cell_length_c 13.8242(5)
_cell_angle_alpha 90
_cell_angle_beta 95.823(2)
_cell_angle_gamma 90
_cell_formula_units_Z 4
loop_
_atom_type_symbol
_atom_type_radius_bond
C 0.68
H 0.23
N 0.68
O 0.68
loop_
_atom_site_label
_atom_site_type_symbol
_atom_site_fract_x
_atom_site_fract_y
_atom_site_fract_z
O1 O 0.08665(15) 0.29884(5) 0.59437(7)
N1 N -0.07203(18) 0.33905(5) 0.60951(8)
N2 N -0.62303(19) 0.46541(5) 0.65533(8)
N3 N -0.4991(2) 0.55841(6) 0.74263(8)
C1 C -0.2005(2) 0.36727(7) 0.52056(9)
C2 C -0.3423(2) 0.42306(6) 0.54915(10)
H1 H -0.23190 0.45760 0.56460
H2 H -0.45470 0.43530 0.49300
C3 C -0.4800(2) 0.41116(6) 0.63587(9)
H3 H -0.58890 0.37570 0.62060
C4 C -0.3049(2) 0.39454(6) 0.72239(9)
H4 H -0.39190 0.38940 0.78040
H5 H -0.19100 0.42860 0.73550
C5 C -0.1676(2) 0.33575(6) 0.70631(9)
C6 C -0.3609(3) 0.31875(7) 0.46757(10)
H6 H -0.42350 0.33440 0.40360
H7 H -0.49270 0.30940 0.50590
H8 H -0.26890 0.28140 0.45940
C7 C -0.0141(2) 0.38855(8) 0.45569(11)
H9 H 0.07480 0.35310 0.43550
H10 H 0.09510 0.41720 0.49190
H11 H -0.09240 0.40910 0.39810
C8 C -0.3249(2) 0.27874(6) 0.71061(10)
H12 H -0.47290 0.28480 0.66850
H13 H -0.36090 0.27210 0.77770
H14 H -0.24120 0.24290 0.68840
C9 C 0.0441(2) 0.33126(7) 0.78406(10)
H15 H -0.01220 0.33290 0.84870
H16 H 0.15270 0.36550 0.77660
H17 H 0.12740 0.29250 0.77660
C10 C -0.5551(2) 0.50920(7) 0.70542(10)
C11 C -0.5098(2) 0.58352(6) 0.83643(10)
C12 C -0.3560(2) 0.63243(7) 0.86137(10)
C13 C -0.3650(3) 0.66049(7) 0.95096(10)
H18 H -0.26020 0.69340 0.96930
C14 C -0.5242(3) 0.64123(8) 1.01362(11)
H19 H -0.52960 0.66100 1.07460
C15 C -0.6753(3) 0.59329(8) 0.98768(12)
H20 H -0.78410 0.58030 1.03150
C16 C -0.6727(3) 0.56332(8) 0.89877(11)
C17 C -0.1874(3) 0.65503(8) 0.79261(12)
H21 H -0.27590 0.66560 0.73030
H22 H -0.07180 0.62290 0.78250
H23 H -0.10410 0.69140 0.82010
C18 C -0.8428(4) 0.51185(10) 0.87103(14)
H24 H -0.75880 0.47260 0.87870
H25 H -0.90850 0.51680 0.80310
H26 H -0.97180 0.51260 0.91320
#END
