
#######################################################################
#
#                 Cambridge Crystallographic Data Centre
#                                CCDC
#
#######################################################################
#
# If this CIF has been generated from an entry in the Cambridge
# Structural Database, then it will include bibliographic, chemical,
# crystal, experimental, refinement or atomic coordinate data resulting
# from the CCDC's data processing and validation procedures.
#
#######################################################################

data_CSD_CIF_IVAGUH
_audit_creation_date 2004-07-08
_audit_creation_method CSD-ConQuest-V1
_database_code_CSD IVAGUH
_database_code_depnum_ccdc_archive 'CCDC 240601'
_chemical_formula_sum 'C5 H9 N1 O5'
_chemical_formula_moiety
;
C5 H9 N1 O5
;
_journal_coden_Cambridge 95
_journal_year 2003
_journal_page_first 1763
_journal_name_full 'Izv.Akad.Nauk SSSR,Ser.Khim.(Russ.)(Russ.Chem.Bull.) '
loop_
_publ_author_name
"A.M.Korolev"
"L.T.Eremenko"
"L.V.Meshikhina"
"I.L.Eremenko"
"G.G.Aleksandrov"
"N.P.Konovalova"
"V.P.Lodygina"
_chemical_name_systematic
;
3-Hydroxymethyl-3-methylnitratooxetane
;
_chemical_melting_point 390.15
_cell_volume    710.922
_exptl_crystal_density_diffrn 1.524
_exptl_special_details
;
Melting point range 390.15-392.15K

;
_diffrn_ambient_temperature 110
#These two values have been output from a single CSD field.
_refine_ls_R_factor_gt 0.0599
_refine_ls_wR_factor_gt 0.0599
_symmetry_cell_setting monoclinic
_symmetry_space_group_name_H-M 'P 21/n'
_symmetry_Int_Tables_number 14
loop_
_symmetry_equiv_pos_site_id
_symmetry_equiv_pos_as_xyz
1 x,y,z
2 1/2+x,1/2-y,1/2+z
3 -x,-y,-z
4 -1/2-x,-1/2+y,-1/2-z
_cell_length_a 8.285(9)
_cell_length_b 9.306(9)
_cell_length_c 9.259(6)
_cell_angle_alpha 90
_cell_angle_beta 95.21(10)
_cell_angle_gamma 90
_cell_formula_units_Z 4
loop_
_atom_type_symbol
_atom_type_radius_bond
C 0.68
H 0.23
N 0.68
O 0.68
loop_
_atom_site_label
_atom_site_type_symbol
_atom_site_fract_x
_atom_site_fract_y
_atom_site_fract_z
O1 O -0.30710(19) 0.69950(16) 0.45633(19)
O2 O 0.4156(2) 0.64639(18) 0.7225(2)
O3 O 0.34735(19) 0.86312(16) 0.65568(19)
O4 O 0.16319(18) 0.68828(15) 0.65556(19)
O5 O -0.1365(2) 0.81768(17) 0.87466(18)
H1 H -0.04090 0.83030 0.91110
N1 N 0.3209(2) 0.7386(2) 0.6791(2)
C1 C -0.1179(3) 0.7337(2) 0.6276(3)
C2 C -0.1697(3) 0.6141(2) 0.5172(3)
H2 H -0.08870 0.59500 0.44730
H3 H -0.20200 0.52370 0.56310
C3 C -0.2571(3) 0.8210(2) 0.5496(3)
H4 H -0.34020 0.85050 0.61410
H5 H -0.21960 0.90470 0.49570
C4 C -0.1427(3) 0.6946(2) 0.7827(3)
H6 H -0.24920 0.64690 0.78540
H7 H -0.05780 0.62560 0.81960
C5 C 0.0462(3) 0.8001(2) 0.6114(3)
H8 H 0.05550 0.82900 0.50960
H9 H 0.06340 0.88580 0.67430
#END
