
#######################################################################
#
#                 Cambridge Crystallographic Data Centre
#                                CCDC
#
#######################################################################
#
# If this CIF has been generated from an entry in the Cambridge
# Structural Database, then it will include bibliographic, chemical,
# crystal, experimental, refinement or atomic coordinate data resulting
# from the CCDC's data processing and validation procedures.
#
#######################################################################

data_CSD_CIF_IVATUV
_audit_creation_date 2011-09-07
_audit_creation_method CSD-ConQuest-V1
_database_code_CSD IVATUV
_database_code_depnum_ccdc_archive 'CCDC 811022'
_chemical_formula_sum 'C19 H17 N1 O5'
_chemical_formula_moiety
;
C19 H17 N1 O5
;
_journal_coden_Cambridge 119
_journal_volume 998
_journal_year 2011
_journal_page_first 157
_journal_name_full 'J.Mol.Struct. '
loop_
_publ_author_name
"G.Brancatelli"
"G.Bruno"
"F.Nicolo"
"M.Cordaro"
"G.Grassi"
"F.Risitano"
"A.Scala"
_chemical_name_systematic
;
(E)-3-phenyl-4-(2,4,6-trimethoxybenzylidene)isoxazol-5(4H)-one
;
_chemical_name_common
;
3-Phenyl-4-(2,4,6-trimethoxybenzylidene)-1,2-oxazol-5(4H)-one
;
_cell_volume    818.512
_exptl_crystal_colour 'yellow'
_exptl_crystal_density_diffrn 1.377
_exptl_crystal_description 'prismatic'
_diffrn_ambient_temperature 293
#These two values have been output from a single CSD field.
_refine_ls_R_factor_gt 0.0324
_refine_ls_wR_factor_gt 0.0324
_symmetry_cell_setting triclinic
_symmetry_space_group_name_H-M 'P -1'
_symmetry_Int_Tables_number 2
loop_
_symmetry_equiv_pos_site_id
_symmetry_equiv_pos_as_xyz
1 x,y,z
2 -x,-y,-z
_cell_length_a 8.9601(8)
_cell_length_b 9.4049(8)
_cell_length_c 10.4677(10)
_cell_angle_alpha 73.968(6)
_cell_angle_beta 74.898(7)
_cell_angle_gamma 85.745(7)
_cell_formula_units_Z 2
loop_
_atom_type_symbol
_atom_type_radius_bond
C 0.68
H 0.23
N 0.68
O 0.68
loop_
_atom_site_label
_atom_site_type_symbol
_atom_site_fract_x
_atom_site_fract_y
_atom_site_fract_z
C1 C 0.59258(17) -0.21190(16) 0.18328(15)
C2 C 0.65623(15) -0.08054(14) 0.19923(13)
C3 C 0.71354(15) 0.00826(15) 0.05896(13)
C4 C 0.81193(15) 0.14114(15) 0.00293(13)
C5 C 0.92505(16) 0.16074(16) 0.06615(14)
H1 H 0.93560 0.09210 0.14640
C6 C 1.02134(18) 0.28203(18) 0.00959(16)
H2 H 1.09570 0.29530 0.05280
C7 C 1.0084(2) 0.38331(19) -0.10986(17)
H3 H 1.07340 0.46510 -0.14710
C8 C 0.8985(2) 0.3632(2) -0.17455(17)
H4 H 0.89080 0.43080 -0.25630
C9 C 0.80036(19) 0.24345(18) -0.11847(15)
H5 H 0.72600 0.23110 -0.16210
C10 C 0.64929(16) -0.06898(14) 0.32708(13)
H6 H 0.61660 -0.15480 0.39650
C11 C 0.68319(15) 0.05184(14) 0.37527(13)
C12 C 0.74440(17) 0.01980(15) 0.49183(13)
C13 C 0.78009(18) 0.13044(16) 0.54192(14)
H7 H 0.82300 0.10760 0.61700
C14 C 0.75099(17) 0.27676(15) 0.47861(14)
C15 C 0.68114(16) 0.31361(15) 0.36975(13)
H8 H 0.65700 0.41140 0.33170
C16 C 0.64828(15) 0.20075(14) 0.31908(12)
C17 C 0.8187(2) -0.16812(18) 0.67040(16)
H9 H 0.83290 -0.27340 0.69680
H10 H 0.74100 -0.13920 0.74120
H11 H 0.91430 -0.11990 0.65740
C18 C 0.7533(2) 0.52852(17) 0.48702(17)
H12 H 0.79460 0.58660 0.53210
H13 H 0.64260 0.53590 0.51010
H14 H 0.79270 0.56460 0.38940
C19 C 0.5471(2) 0.37254(16) 0.14626(17)
H15 H 0.49500 0.37200 0.07700
H16 H 0.64370 0.42380 0.10390
H17 H 0.48370 0.42180 0.21040
N1 N 0.68394(15) -0.05247(14) -0.02891(12)
O1 O 0.77061(13) -0.12619(11) 0.54499(10)
O2 O 0.60295(12) -0.18884(11) 0.04615(10)
O3 O 0.53639(14) -0.32378(12) 0.26502(12)
O4 O 0.79781(14) 0.37772(11) 0.53072(12)
O5 O 0.57521(12) 0.22413(10) 0.21680(9)
#END
