
#######################################################################
#
#                 Cambridge Crystallographic Data Centre
#                                CCDC
#
#######################################################################
#
# If this CIF has been generated from an entry in the Cambridge
# Structural Database, then it will include bibliographic, chemical,
# crystal, experimental, refinement or atomic coordinate data resulting
# from the CCDC's data processing and validation procedures.
#
#######################################################################

data_CSD_CIF_IVATOP
_audit_creation_date 2011-09-07
_audit_creation_method CSD-ConQuest-V1
_database_code_CSD IVATOP
_database_code_depnum_ccdc_archive 'CCDC 811021'
_chemical_formula_sum 'C19 H17 N1 O2'
_chemical_formula_moiety
;
C19 H17 N1 O2
;
_journal_coden_Cambridge 119
_journal_volume 998
_journal_year 2011
_journal_page_first 157
_journal_name_full 'J.Mol.Struct. '
loop_
_publ_author_name
"G.Brancatelli"
"G.Bruno"
"F.Nicolo"
"M.Cordaro"
"G.Grassi"
"F.Risitano"
"A.Scala"
_chemical_name_systematic
;
(Z)-3-phenyl-4-(2,4,6-trimethylbenzylidene)isoxazol-5(4H)-one
;
_chemical_name_common
;
4-(Mesitylmethylene)-3-phenyl-1,2-oxazol-5(4H)-one
;
_cell_volume   1563.492
_exptl_crystal_colour 'yellow'
_exptl_crystal_density_diffrn 1.238
_exptl_crystal_description 'irregular'
_diffrn_ambient_temperature 295
#These two values have been output from a single CSD field.
_refine_ls_R_factor_gt 0.0447
_refine_ls_wR_factor_gt 0.0447
_symmetry_cell_setting monoclinic
_symmetry_space_group_name_H-M 'P 21/c'
_symmetry_Int_Tables_number 14
loop_
_symmetry_equiv_pos_site_id
_symmetry_equiv_pos_as_xyz
1 x,y,z
2 -x,1/2+y,1/2-z
3 -x,-y,-z
4 x,-1/2-y,-1/2+z
_cell_length_a 11.5631(12)
_cell_length_b 12.3679(10)
_cell_length_c 12.1226(13)
_cell_angle_alpha 90
_cell_angle_beta 115.599(8)
_cell_angle_gamma 90
_cell_formula_units_Z 4
loop_
_atom_type_symbol
_atom_type_radius_bond
C 0.68
H 0.23
N 0.68
O 0.68
loop_
_atom_site_label
_atom_site_type_symbol
_atom_site_fract_x
_atom_site_fract_y
_atom_site_fract_z
O1 O 0.43985(15) 0.15620(13) -0.20442(13)
O2 O 0.59600(15) 0.05040(12) -0.07459(13)
C1 C 0.64444(18) 0.12550(16) 0.10592(18)
N1 N 0.67963(17) 0.04788(15) 0.05518(16)
C2 C 0.25272(19) 0.44092(17) -0.21958(17)
H1 H 0.26180 0.49150 -0.27210
C3 C 0.22550(18) 0.29268(16) -0.06112(17)
C4 C 0.13144(19) 0.42145(18) -0.22719(18)
C5 C 0.1199(2) 0.34582(17) -0.14781(18)
H2 H 0.03900 0.33040 -0.15300
C6 C 0.36091(18) 0.38792(16) -0.13670(17)
C7 C 0.71635(18) 0.14440(17) 0.23856(18)
C8 C 0.34686(18) 0.31281(16) -0.05667(16)
C9 C 0.45886(18) 0.25693(16) 0.03698(17)
H3 H 0.47820 0.27250 0.11810
C10 C 0.7390(2) 0.2489(2) 0.2841(2)
H4 H 0.70770 0.30720 0.23100
C11 C 0.2094(2) 0.21361(19) 0.0260(2)
H5 H 0.12190 0.21420 0.01440
H6 H 0.26450 0.23400 0.10860
H7 H 0.23170 0.14230 0.01040
C12 C 0.5132(2) 0.13688(17) -0.10049(19)
C13 C 0.53589(18) 0.18595(16) 0.01753(17)
C14 C 0.7643(2) 0.0581(2) 0.3188(2)
H8 H 0.75020 -0.01250 0.28950
C15 C 0.8080(2) 0.2669(2) 0.4082(2)
H9 H 0.82270 0.33730 0.43810
C16 C 0.4895(2) 0.41489(19) -0.1335(2)
H10 H 0.51120 0.36160 -0.17910
H11 H 0.55360 0.41530 -0.05030
H12 H 0.48550 0.48490 -0.16920
C17 C 0.8333(2) 0.0776(3) 0.4427(2)
H13 H 0.86550 0.01990 0.49660
C18 C 0.0165(2) 0.4819(2) -0.3180(2)
H14 H 0.01240 0.55200 -0.28570
H15 H -0.06010 0.44220 -0.33260
H16 H 0.02400 0.49010 -0.39340
C19 C 0.8546(2) 0.1821(3) 0.4870(2)
H17 H 0.90060 0.19460 0.57040
#END
