
#######################################################################
#
#                 Cambridge Crystallographic Data Centre
#                                CCDC
#
#######################################################################
#
# If this CIF has been generated from an entry in the Cambridge
# Structural Database, then it will include bibliographic, chemical,
# crystal, experimental, refinement or atomic coordinate data resulting
# from the CCDC's data processing and validation procedures.
#
#######################################################################

data_CSD_CIF_IVENUU
_audit_creation_date 2016-09-13
_audit_creation_method CSD-ConQuest-V1
_database_code_CSD IVENUU
_database_code_depnum_ccdc_archive 'CCDC 1459329'
_chemical_formula_sum 'C19 H20 N2 O3'
_chemical_formula_moiety
;
C19 H20 N2 O3
;
_journal_coden_Cambridge 1220
_journal_volume 22
_journal_year 2016
_journal_page_first 11064
_journal_name_full 'Chem.-Eur.J. '
loop_
_publ_author_name
"I.Mendez"
"R.Rodriguez"
"V.Polo"
"V.Passarelli"
"F.J.Lahoz"
"P.Garcia-Orduna"
"D.Carmona"
_chemical_name_systematic
;
3-(1-(4-methoxyphenyl)-2-nitroethyl)-1,2-dimethyl-1H-indole
;
_cell_volume   3319.331
_exptl_crystal_colour 'yellow'
_exptl_crystal_density_diffrn 1.298
_exptl_crystal_description 'plate'
_diffrn_ambient_temperature 100
#These two values have been output from a single CSD field.
_refine_ls_R_factor_gt 0.087
_refine_ls_wR_factor_gt 0.087
_symmetry_cell_setting monoclinic
_symmetry_space_group_name_H-M 'C 2/c'
_symmetry_Int_Tables_number 15
loop_
_symmetry_equiv_pos_site_id
_symmetry_equiv_pos_as_xyz
1 x,y,z
2 -x,y,1/2-z
3 1/2+x,1/2+y,z
4 1/2-x,1/2+y,1/2-z
5 -x,-y,-z
6 x,-y,-1/2+z
7 -1/2-x,-1/2-y,-z
8 -1/2+x,-1/2-y,-1/2+z
_cell_length_a 24.566(3)
_cell_length_b 9.0321(10)
_cell_length_c 15.8229(17)
_cell_angle_alpha 90
_cell_angle_beta 109.011(2)
_cell_angle_gamma 90
_cell_formula_units_Z 8
loop_
_atom_type_symbol
_atom_type_radius_bond
C 0.68
H 0.23
N 0.68
O 0.68
loop_
_atom_site_label
_atom_site_type_symbol
_atom_site_fract_x
_atom_site_fract_y
_atom_site_fract_z
N1 N 0.24993(11) 0.1161(3) 0.12632(18)
N2 N 0.06603(10) 0.0681(3) 0.10135(16)
O1 O 0.25661(13) 0.2486(3) 0.12026(19)
O2 O 0.25299(10) 0.0542(3) 0.19622(15)
O3 O 0.11256(10) -0.4326(3) -0.28170(16)
C1 C 0.23629(13) 0.0239(4) 0.0428(2)
C2 C 0.18691(13) -0.0812(4) 0.0352(2)
C3 C 0.17066(12) -0.1701(4) -0.0524(2)
C4 C 0.19614(14) -0.1558(4) -0.1186(2)
C5 C 0.17854(14) -0.2423(4) -0.1961(2)
C6 C 0.13434(13) -0.3432(3) -0.2084(2)
C7 C 0.10841(15) -0.3568(4) -0.1428(2)
C8 C 0.12644(14) -0.2727(4) -0.0669(2)
C9 C 0.13486(12) -0.0007(4) 0.0449(2)
C10 C 0.11331(13) -0.0221(3) 0.1133(2)
C11 C 0.13246(16) -0.1238(4) 0.1922(2)
H1 H 0.16540 -0.18250 0.18940
H2 H 0.10080 -0.19020 0.19150
H3 H 0.14380 -0.06530 0.24740
C12 C 0.03077(15) 0.0793(4) 0.1593(2)
H4 H 0.03030 0.18220 0.17880
H5 H 0.04690 0.01560 0.21170
H6 H -0.00860 0.04770 0.12650
C13 C 0.05636(12) 0.1472(3) 0.0236(2)
C14 C 0.01479(14) 0.2536(4) -0.0176(2)
C15 C 0.01655(15) 0.3162(4) -0.0973(2)
C16 C 0.05830(15) 0.2729(4) -0.1342(2)
C17 C 0.09996(14) 0.1710(3) -0.0941(2)
C18 C 0.09947(13) 0.1066(3) -0.01350(19)
C19 C 0.13863(16) -0.4239(4) -0.3500(2)
H7 H 0.13730 -0.32140 -0.37090
H8 H 0.11770 -0.48790 -0.40010
H9 H 0.17880 -0.45650 -0.32600
H10 H 0.2272(14) 0.096(4) -0.007(2)
H11 H 0.2716(15) -0.019(4) 0.048(2)
H12 H 0.2026(14) -0.157(4) 0.090(2)
H13 H 0.2252(15) -0.087(4) -0.117(2)
H14 H 0.1968(13) -0.225(3) -0.237(2)
H15 H 0.0795(16) -0.424(4) -0.150(2)
H16 H 0.1072(16) -0.279(4) -0.025(2)
H17 H -0.0095(14) 0.281(3) 0.014(2)
H18 H -0.0113(14) 0.388(4) -0.124(2)
H19 H 0.0580(17) 0.324(5) -0.193(3)
H20 H 0.1311(14) 0.138(4) -0.122(2)
#END
