
#######################################################################
#
#                 Cambridge Crystallographic Data Centre
#                                CCDC
#
#######################################################################
#
# If this CIF has been generated from an entry in the Cambridge
# Structural Database, then it will include bibliographic, chemical,
# crystal, experimental, refinement or atomic coordinate data resulting
# from the CCDC's data processing and validation procedures.
#
#######################################################################

data_CSD_CIF_IVEREH
_audit_creation_date 2011-09-07
_audit_creation_method CSD-ConQuest-V1
_database_code_CSD IVEREH
_database_code_depnum_ccdc_archive 'CCDC 838977'
_chemical_formula_sum 'C9 H10 N2 O3'
_chemical_formula_moiety
;
C9 H10 N2 O3
;
_journal_coden_Cambridge 1277
_journal_volume 101
_journal_year 1997
_journal_page_first 9399
_journal_name_full 'J.Phys.Chem.A '
loop_
_publ_author_name
"T.M.Krygowski"
"K.Wozniak"
"R.Anulewicz"
"D.Pawlak"
"W.Kolodziejski"
"E.Grech"
"A.Szady"
_chemical_name_systematic
;
2-((Ethyliminio)methyl)-4-nitrophenolate
;
_cell_volume    457.217
_exptl_crystal_density_diffrn 1.411
_diffrn_ambient_temperature 293
#These two values have been output from a single CSD field.
_refine_ls_R_factor_gt 0.0478
_refine_ls_wR_factor_gt 0.0478
_symmetry_cell_setting triclinic
_symmetry_space_group_name_H-M 'P -1'
_symmetry_Int_Tables_number 2
loop_
_symmetry_equiv_pos_site_id
_symmetry_equiv_pos_as_xyz
1 x,y,z
2 -x,-y,-z
_cell_length_a 4.988(1)
_cell_length_b 9.102(2)
_cell_length_c 11.057(2)
_cell_angle_alpha 68.80(3)
_cell_angle_beta 78.24(3)
_cell_angle_gamma 89.20(3)
_cell_formula_units_Z 2
loop_
_atom_type_symbol
_atom_type_radius_bond
C 0.68
H 0.23
N 0.68
O 0.68
loop_
_atom_site_label
_atom_site_type_symbol
_atom_site_fract_x
_atom_site_fract_y
_atom_site_fract_z
O1 O 0.0465(2) 0.5934(1) 0.3509(1)
N1 N 0.3797(2) 0.3690(1) 0.4383(1)
C1 C 0.4513(3) 0.5553(2) 0.2154(1)
C2 C 0.2089(3) 0.6374(2) 0.2395(1)
C3 C 0.1639(3) 0.7712(2) 0.1296(2)
C4 C 0.3336(3) 0.8139(2) 0.0079(2)
C5 C 0.5621(3) 0.7274(2) -0.0122(1)
N2 N 0.7349(3) 0.7707(2) -0.1424(1)
O2 O 0.6687(3) 0.8768(2) -0.2343(1)
O3 O 0.9422(3) 0.6997(2) -0.1581(1)
C6 C 0.6221(3) 0.6014(2) 0.0895(1)
C7 C 0.5206(3) 0.4244(2) 0.3180(1)
C8 C 0.4447(3) 0.2310(2) 0.5423(2)
C9 C 0.2343(4) 0.0969(2) 0.5808(2)
H1 H 0.230(5) 0.419(3) 0.458(2)
H2 H 0.017(5) 0.828(3) 0.146(2)
H3 H 0.294(5) 0.909(3) -0.065(3)
H4 H 0.782(5) 0.540(3) 0.080(2)
H5 H 0.683(4) 0.374(3) 0.300(2)
H6 H 0.454(4) 0.263(2) 0.615(2)
H7 H 0.623(4) 0.206(2) 0.509(2)
H8 H 0.284(5) 0.003(3) 0.653(2)
H9 H 0.227(4) 0.072(2) 0.504(2)
H10 H 0.050(4) 0.127(2) 0.619(2)
#END
