
#######################################################################
#
#                 Cambridge Crystallographic Data Centre
#                                CCDC
#
#######################################################################
#
# If this CIF has been generated from an entry in the Cambridge
# Structural Database, then it will include bibliographic, chemical,
# crystal, experimental, refinement or atomic coordinate data resulting
# from the CCDC's data processing and validation procedures.
#
#######################################################################

data_CSD_CIF_IVEXEO
_audit_creation_date 2016-09-13
_audit_creation_method CSD-ConQuest-V1
_database_code_CSD IVEXEO
_database_code_depnum_ccdc_archive 'CCDC 784497'
_chemical_formula_sum 'C33 H23 N1 O2'
_chemical_formula_moiety
;
C33 H23 N1 O2
;
_journal_coden_Cambridge 1220
_journal_volume 22
_journal_year 2016
_journal_page_first 11291
_journal_name_full 'Chem.-Eur.J. '
loop_
_publ_author_name
"S.C.Everhart"
"U.K.Jayasundara"
"HyunJong Kim"
"R.Procupez-Schtirbu"
"W.A.Stanbery"
"C.H.Mishler"
"B.J.Frost"
"J.I.Cline"
"T.W.Bell"
_chemical_name_systematic
;
2-Nitro-9-(2,2,2-triphenylethylidene)-9H-fluorene
;
_cell_volume   1171.643
_exptl_crystal_colour 'yellow'
_exptl_crystal_density_diffrn 1.32
_exptl_crystal_description 'block'
_diffrn_ambient_temperature 100
#These two values have been output from a single CSD field.
_refine_ls_R_factor_gt 0.0536
_refine_ls_wR_factor_gt 0.0536
_symmetry_cell_setting triclinic
_symmetry_space_group_name_H-M 'P -1'
_symmetry_Int_Tables_number 2
loop_
_symmetry_equiv_pos_site_id
_symmetry_equiv_pos_as_xyz
1 x,y,z
2 -x,-y,-z
_cell_length_a 8.5786(2)
_cell_length_b 9.7671(3)
_cell_length_c 15.6403(4)
_cell_angle_alpha 100.033(1)
_cell_angle_beta 104.219(1)
_cell_angle_gamma 106.952(1)
_cell_formula_units_Z 2
loop_
_atom_type_symbol
_atom_type_radius_bond
C 0.68
H 0.23
N 0.68
O 0.68
loop_
_atom_site_label
_atom_site_type_symbol
_atom_site_fract_x
_atom_site_fract_y
_atom_site_fract_z
C1 C 0.82520(12) 0.63592(10) 0.10045(7)
C2 C 0.72033(13) 0.57299(11) 0.14856(7)
H1 H 0.72880 0.62580 0.20760
C3 C 0.60216(14) 0.42969(12) 0.10734(8)
C4 C 0.58388(16) 0.34725(12) 0.02133(9)
H2 H 0.50390 0.24860 -0.00320
C5 C 0.68471(15) 0.41184(12) -0.02809(8)
H3 H 0.67280 0.35900 -0.08780
C6 C 0.80385(13) 0.55550(11) 0.01104(7)
C7 C 0.91968(14) 0.64845(12) -0.02722(7)
C8 C 0.94682(16) 0.62048(14) -0.11205(7)
H4 H 0.88380 0.52780 -0.15620
C9 C 1.06748(17) 0.73073(16) -0.13042(8)
H5 H 1.08810 0.71350 -0.18760
C10 C 1.15904(17) 0.86700(15) -0.06540(8)
H6 H 1.24140 0.94140 -0.07910
C11 C 1.13206(14) 0.89621(12) 0.01932(7)
H7 H 1.19430 0.98960 0.06300
C12 C 1.01200(13) 0.78558(11) 0.03836(6)
C13 C 0.96030(12) 0.78399(10) 0.12236(6)
C14 C 1.03589(11) 0.90166(10) 0.19698(6)
H8 H 1.11620 0.98400 0.18810
C15 C 1.01771(11) 0.92853(10) 0.29298(6)
C16 C 1.00207(12) 0.78925(10) 0.32831(6)
C17 C 1.10855(14) 0.70880(11) 0.31394(7)
H9 H 1.18990 0.74190 0.28350
C18 C 1.09673(17) 0.58093(12) 0.34365(7)
H10 H 1.16920 0.52700 0.33300
C19 C 0.97942(19) 0.53197(13) 0.38876(8)
H11 H 0.96960 0.44340 0.40780
C20 C 0.87629(17) 0.61316(13) 0.40600(8)
H12 H 0.79750 0.58120 0.43800
C21 C 0.88839(14) 0.74175(11) 0.37627(7)
H13 H 0.81850 0.79730 0.38890
C22 C 0.86219(12) 0.97874(10) 0.29231(6)
C23 C 0.71334(12) 0.92333(11) 0.21697(7)
H14 H 0.70700 0.85340 0.16450
C24 C 0.57374(14) 0.96898(13) 0.21740(8)
H15 H 0.47360 0.93040 0.16540
C25 C 0.58061(14) 1.07074(13) 0.29367(8)
H16 H 0.48610 1.10260 0.29390
C26 C 0.72736(14) 1.12532(12) 0.36962(8)
H17 H 0.73270 1.19420 0.42220
C27 C 0.86653(13) 1.07969(12) 0.36903(7)
H18 H 0.96590 1.11760 0.42150
C28 C 1.18175(11) 1.05795(10) 0.35662(6)
C29 C 1.27864(12) 1.04835(11) 0.43981(6)
H19 H 1.24620 0.95880 0.45770
C30 C 1.42260(13) 1.16866(12) 0.49711(7)
H20 H 1.48690 1.16060 0.55370
C31 C 1.47207(13) 1.30007(11) 0.47165(7)
H21 H 1.57070 1.38150 0.51020
C32 C 1.37576(13) 1.31135(11) 0.38908(7)
H22 H 1.40880 1.40100 0.37130
C33 C 1.23156(12) 1.19212(10) 0.33255(6)
H23 H 1.16590 1.20170 0.27690
N1 N 0.48769(14) 0.36565(13) 0.15704(9)
O1 O 0.47623(15) 0.44973(14) 0.22185(8)
O2 O 0.40567(15) 0.23153(13) 0.13037(10)
#END
