
#######################################################################
#
#                 Cambridge Crystallographic Data Centre
#                                CCDC
#
#######################################################################
#
# If this CIF has been generated from an entry in the Cambridge
# Structural Database, then it will include bibliographic, chemical,
# crystal, experimental, refinement or atomic coordinate data resulting
# from the CCDC's data processing and validation procedures.
#
#######################################################################

data_CSD_CIF_IVIDIB
_audit_creation_date 2011-09-07
_audit_creation_method CSD-ConQuest-V1
_database_code_CSD IVIDIB
_database_code_depnum_ccdc_archive 'CCDC 816422'
_chemical_formula_sum 'C13 H13 N1 O5'
_chemical_formula_moiety
;
C13 H13 N1 O5
;
_journal_coden_Cambridge 692
_journal_year 2011
_journal_page_first 1905
_journal_name_full 'Synthesis '
loop_
_publ_author_name
"D.Enders"
"G.Urbanietz"
"G.Raabe"
_chemical_name_systematic
;
Methyl 2-methyl-4-(nitromethyl)-4H-chromene-3-carboxylate
;
_cell_volume    642.220
_exptl_crystal_colour 'colorless'
_exptl_crystal_density_diffrn 1.361
_exptl_crystal_description 'needle'
_diffrn_ambient_temperature 293
#These two values have been output from a single CSD field.
_refine_ls_R_factor_gt 0.031
_refine_ls_wR_factor_gt 0.031
_symmetry_cell_setting monoclinic
_symmetry_space_group_name_H-M 'P 21'
_symmetry_Int_Tables_number 4
loop_
_symmetry_equiv_pos_site_id
_symmetry_equiv_pos_as_xyz
1 x,y,z
2 -x,1/2+y,-z
_cell_length_a 10.5097(3)
_cell_length_b 5.0912(2)
_cell_length_c 12.5407(4)
_cell_angle_alpha 90
_cell_angle_beta 106.846(2)
_cell_angle_gamma 90
_cell_formula_units_Z 2
loop_
_atom_type_symbol
_atom_type_radius_bond
C 0.68
H 0.23
N 0.68
O 0.68
loop_
_atom_site_label
_atom_site_type_symbol
_atom_site_fract_x
_atom_site_fract_y
_atom_site_fract_z
C1 C 0.23798(15) 0.8883(8) 0.66869(12)
C2 C 0.09591(14) 0.9302(8) 0.79498(11)
C3 C 0.15740(15) 0.6951(8) 0.61479(12)
C4 C 0.04449(17) 1.0728(8) 0.86775(14)
C5 C 0.33759(16) 1.0056(8) 0.62098(13)
C6 C 0.23216(14) 0.9813(8) 0.78210(12)
C7 C 0.34174(16) 0.8399(8) 0.87095(13)
C8 C 0.01865(14) 0.7319(8) 0.73397(12)
C9 C -0.07925(19) 1.0122(8) 0.87951(18)
C10 C -0.10534(18) 0.6693(8) 0.74452(16)
C11 C -0.1524(2) 0.8106(9) 0.81844(18)
C12 C 0.1531(2) 0.5634(8) 0.50767(17)
C13 C 0.5212(3) 1.2994(11) 0.6579(3)
O1 O 0.36415(15) 1.1789(8) 0.99947(12)
O2 O 0.34793(15) 0.9710(8) 0.52872(12)
O3 O 0.34910(19) 0.7883(8) 1.05645(13)
N1 N 0.35294(13) 0.9436(8) 0.98456(11)
O4 O 0.06090(11) 0.5898(7) 0.65577(9)
O5 O 0.41670(12) 1.1724(8) 0.69304(10)
H1 H 0.232(2) 0.593(5) 0.4862(17)
H2 H 0.4299(17) 0.873(3) 0.8601(12)
H3 H -0.154(2) 0.516(5) 0.698(2)
H4 H -0.107(2) 1.120(4) 0.9309(16)
H5 H 0.1013(19) 1.216(5) 0.9072(16)
H6 H 0.3288(17) 0.662(4) 0.8749(14)
H7 H 0.083(2) 0.631(5) 0.4525(18)
H8 H -0.239(2) 0.773(5) 0.8274(17)
H9 H 0.569(3) 1.387(7) 0.714(3)
H10 H 0.485(3) 1.385(7) 0.594(3)
H11 H 0.580(3) 1.155(7) 0.657(2)
H12 H 0.127(3) 0.359(7) 0.515(2)
H13 H 0.2484(14) 1.16(2) 0.7882(12)
#END
