
#######################################################################
#
#                 Cambridge Crystallographic Data Centre
#                                CCDC
#
#######################################################################
#
# If this CIF has been generated from an entry in the Cambridge
# Structural Database, then it will include bibliographic, chemical,
# crystal, experimental, refinement or atomic coordinate data resulting
# from the CCDC's data processing and validation procedures.
#
#######################################################################

data_CSD_CIF_IVIDUN
_audit_creation_date 2011-09-07
_audit_creation_method CSD-ConQuest-V1
_database_code_CSD IVIDUN
_database_code_depnum_ccdc_archive 'CCDC 816424'
_chemical_formula_sum 'C14 H15 N1 O6'
_chemical_formula_moiety
;
C14 H15 N1 O6
;
_journal_coden_Cambridge 692
_journal_year 2011
_journal_page_first 1905
_journal_name_full 'Synthesis '
loop_
_publ_author_name
"D.Enders"
"G.Urbanietz"
"G.Raabe"
_chemical_name_systematic
;
Methyl 8-methoxy-2-methyl-4-(nitromethyl)-4H-chromene-3-carboxylate
;
_cell_volume   1417.604
_exptl_crystal_colour 'colorless'
_exptl_crystal_density_diffrn 1.374
_exptl_crystal_description 'irregular'
_diffrn_ambient_temperature 293
#These two values have been output from a single CSD field.
_refine_ls_R_factor_gt 0.027
_refine_ls_wR_factor_gt 0.027
_symmetry_cell_setting orthorhombic
_symmetry_space_group_name_H-M 'P 21 21 21'
_symmetry_Int_Tables_number 19
loop_
_symmetry_equiv_pos_site_id
_symmetry_equiv_pos_as_xyz
1 x,y,z
2 1/2-x,-y,1/2+z
3 1/2+x,1/2-y,-z
4 -x,1/2+y,1/2-z
_cell_length_a 5.0678(1)
_cell_length_b 9.9952(3)
_cell_length_c 27.9862(7)
_cell_angle_alpha 90
_cell_angle_beta 90
_cell_angle_gamma 90
_cell_formula_units_Z 4
loop_
_atom_type_symbol
_atom_type_radius_bond
C 0.68
H 0.23
N 0.68
O 0.68
loop_
_atom_site_label
_atom_site_type_symbol
_atom_site_fract_x
_atom_site_fract_y
_atom_site_fract_z
C1 C 1.1053(3) -0.06552(14) 0.08527(4)
C2 C 0.9183(3) 0.01991(13) 0.06736(4)
C3 C 0.8751(3) 0.03456(14) 0.01827(4)
C4 C 1.2621(3) -0.13876(15) 0.05381(5)
C5 C 1.2232(3) -0.12355(16) 0.00530(5)
C6 C 1.1301(3) -0.07657(15) 0.13887(4)
C7 C 1.0327(3) -0.03883(15) -0.01253(5)
C8 C 0.8766(3) 0.13478(15) 0.14083(5)
C9 C 1.0593(3) 0.05670(16) 0.16155(5)
C10 C 0.6452(5) 0.1446(2) -0.04442(6)
C11 C 0.9447(3) -0.18282(16) 0.15965(5)
C12 C 1.1855(3) 0.09378(18) 0.20711(5)
C13 C 1.5060(6) 0.0290(3) 0.26418(7)
O1 O 0.76939(19) 0.10169(10) 0.09740(3)
O2 O 1.3612(3) 0.00158(13) 0.22103(4)
O3 O 0.8303(4) -0.37275(17) 0.11640(6)
O4 O 1.2185(4) -0.36495(17) 0.14617(6)
N1 N 1.0003(3) -0.31816(15) 0.13983(4)
O5 O 0.6851(2) 0.12282(11) 0.00527(3)
O6 O 1.1439(3) 0.19460(15) 0.23001(4)
C14 C 0.7598(5) 0.26251(19) 0.15795(7)
H1 H 0.801(4) 0.188(2) -0.0569(7)
H2 H 1.397(3) -0.2010(16) 0.0649(5)
H3 H 0.474(4) 0.199(2) -0.0474(7)
H4 H 1.019(3) -0.0280(16) -0.0475(6)
H5 H 1.333(3) -0.1666(17) -0.0177(6)
H6 H 0.612(4) 0.058(2) -0.0594(7)
H7 H 1.385(4) 0.040(2) 0.2898(9)
H8 H 0.758(5) 0.267(2) 0.1908(10)
H9 H 0.565(6) 0.277(3) 0.1428(10)
H10 H 1.640(7) -0.036(4) 0.2680(11)
H11 H 1.596(5) 0.109(3) 0.2611(8)
H12 H 0.987(3) -0.1908(19) 0.1941(6)
H13 H 0.755(4) -0.163(2) 0.1504(6)
H14 H 0.795(7) 0.332(4) 0.1412(12)
H15 H 1.313(3) -0.1040(15) 0.1466(5)
#END
