
#######################################################################
#
#                 Cambridge Crystallographic Data Centre
#                                CCDC
#
#######################################################################
#
# If this CIF has been generated from an entry in the Cambridge
# Structural Database, then it will include bibliographic, chemical,
# crystal, experimental, refinement or atomic coordinate data resulting
# from the CCDC's data processing and validation procedures.
#
#######################################################################

data_CSD_CIF_IVOQAN
_audit_creation_date 2016-09-14
_audit_creation_method CSD-ConQuest-V1
_database_code_CSD IVOQAN
_database_code_depnum_ccdc_archive 'CCDC 1484173'
_chemical_formula_sum 'C5 H6 N8 O9'
_chemical_formula_moiety
;
C5 H6 N8 O9
;
_journal_coden_Cambridge 29
_journal_volume 642
_journal_year 2016
_journal_page_first 887
_journal_name_full 'Z.Anorg.Allg.Chem. '
loop_
_publ_author_name
"T.M.Klapoetke"
"B.Krumm"
"R.Scharf"
_chemical_name_systematic
;
3-(nitro(2,2,2-trinitroethyl)amino)propanoyl azide
;
_chemical_melting_point 338
_cell_volume   1234.124
_exptl_crystal_colour 'colorless'
_exptl_crystal_density_diffrn 1.734
_exptl_crystal_description 'plates'
_exptl_crystal_preparation 'chloroform/n-hexane'
_diffrn_ambient_temperature 173
#These two values have been output from a single CSD field.
_refine_ls_R_factor_gt 0.0487
_refine_ls_wR_factor_gt 0.0487
_symmetry_cell_setting monoclinic
_symmetry_space_group_name_H-M 'P 21/n'
_symmetry_Int_Tables_number 14
loop_
_symmetry_equiv_pos_site_id
_symmetry_equiv_pos_as_xyz
1 x,y,z
2 1/2-x,1/2+y,1/2-z
3 -x,-y,-z
4 -1/2+x,-1/2-y,-1/2+z
_cell_length_a 12.953(1)
_cell_length_b 6.7406(5)
_cell_length_c 14.1505(11)
_cell_angle_alpha 90
_cell_angle_beta 92.699(7)
_cell_angle_gamma 90
_cell_formula_units_Z 4
loop_
_atom_type_symbol
_atom_type_radius_bond
C 0.68
H 0.23
N 0.68
O 0.68
loop_
_atom_site_label
_atom_site_type_symbol
_atom_site_fract_x
_atom_site_fract_y
_atom_site_fract_z
C1 C 0.28648(18) 0.4182(4) 0.47031(16)
C2 C 0.2860(2) 0.2173(4) 0.4251(2)
C3 C 0.1794(2) 0.1410(4) 0.39766(19)
C4 C 0.04900(18) 0.4037(4) 0.3324(2)
C5 C -0.06113(17) 0.3267(3) 0.31982(16)
N1 N 0.41036(19) 0.7966(4) 0.56155(18)
N2 N 0.39436(15) 0.6539(3) 0.52519(16)
N3 N 0.38797(15) 0.4887(3) 0.48259(15)
N4 N 0.12676(14) 0.2536(3) 0.32011(13)
N5 N 0.16157(16) 0.2311(3) 0.23112(15)
N6 N -0.07838(15) 0.2100(3) 0.22857(15)
N7 N -0.13967(17) 0.4982(3) 0.31673(15)
O1 O 0.21051(13) 0.5050(3) 0.49348(13)
O2 O 0.11852(13) 0.3276(3) 0.16654(12)
O3 O 0.23308(13) 0.1131(3) 0.22190(13)
O4 O -0.04457(13) 0.0410(3) 0.23133(13)
O5 O -0.11759(14) 0.2970(3) 0.16135(12)
O6 O -0.22937(14) 0.4534(3) 0.30421(14)
O7 O -0.10354(15) 0.6627(3) 0.32938(16)
O8 O -0.04369(13) 0.2154(3) 0.47615(12)
N8 N -0.09389(16) 0.1942(3) 0.40179(15)
O9 O -0.16744(14) 0.0862(3) 0.38716(13)
H1 H 0.0568(16) 0.515(3) 0.2849(17)
H2 H 0.0583(16) 0.455(3) 0.3954(17)
H3 H 0.1832(17) 0.005(3) 0.3786(16)
H4 H 0.3216(18) 0.116(4) 0.4687(18)
H5 H 0.330(2) 0.222(4) 0.375(2)
H6 H 0.1303(18) 0.152(3) 0.4495(18)
#END
