
#######################################################################
#
#                 Cambridge Crystallographic Data Centre
#                                CCDC
#
#######################################################################
#
# If this CIF has been generated from an entry in the Cambridge
# Structural Database, then it will include bibliographic, chemical,
# crystal, experimental, refinement or atomic coordinate data resulting
# from the CCDC's data processing and validation procedures.
#
#######################################################################

data_CSD_CIF_IVURAS
_audit_creation_date 2004-08-04
_audit_creation_method CSD-ConQuest-V1
_database_code_CSD IVURAS
_database_code_depnum_ccdc_archive 'CCDC 202080'
_chemical_formula_sum 'C16 H13 N1 O7'
_chemical_formula_moiety
;
C16 H13 N1 O7
;
_journal_coden_Cambridge 83
_journal_volume 93
_journal_year 2004
_journal_page_first 521
_journal_name_full 'J.Pharm.Sci. '
loop_
_publ_author_name
"A.Foppoli"
"M.E.Sangalli"
"A.Maroni"
"A.Gazzaniga"
"M.R.Caira"
"F.Giordano"
_chemical_name_systematic
;
2-Acetoxybenzoic acid 3'-(nitro-oxymethyl)phenyl ester
;
_chemical_name_common
;
NCX4016
;
_chemical_melting_point 337
_cell_volume   1533.672
_exptl_crystal_colour 'colorless'
_exptl_crystal_density_diffrn 1.435
_exptl_special_details
;
higher melting polymorph I
aspirin derivative with improved antiinflammatory, analgesic and 
antithrombotic activity and increased gastrointestinal safety
;
_exptl_crystal_description 'plate'
_exptl_crystal_preparation 'isopropyl alcohol'
_diffrn_ambient_temperature 295
#These two values have been output from a single CSD field.
_refine_ls_R_factor_gt 0.0455
_refine_ls_wR_factor_gt 0.0455
_symmetry_cell_setting orthorhombic
_symmetry_space_group_name_H-M 'P 21 21 21'
_symmetry_Int_Tables_number 19
loop_
_symmetry_equiv_pos_site_id
_symmetry_equiv_pos_as_xyz
1 x,y,z
2 1/2-x,-y,1/2+z
3 1/2+x,1/2-y,-z
4 -x,1/2+y,1/2-z
_cell_length_a 5.3148(2)
_cell_length_b 13.2937(5)
_cell_length_c 21.7070(1)
_cell_angle_alpha 90
_cell_angle_beta 90
_cell_angle_gamma 90
_cell_formula_units_Z 4
loop_
_atom_type_symbol
_atom_type_radius_bond
C 0.68
H 0.23
N 0.68
O 0.68
loop_
_atom_site_label
_atom_site_type_symbol
_atom_site_fract_x
_atom_site_fract_y
_atom_site_fract_z
C1 C 0.3652(5) 0.0880(2) 0.02528(14)
C2 C 0.2881(6) 0.1527(2) -0.02066(15)
H1 H 0.14400 0.19130 -0.01530
C3 C 0.4240(6) 0.1600(2) -0.07423(16)
H2 H 0.37180 0.20380 -0.10510
C4 C 0.6359(6) 0.1032(2) -0.08240(15)
H3 H 0.72930 0.10930 -0.11840
C5 C 0.7112(5) 0.0365(2) -0.03700(14)
H4 H 0.85370 -0.00290 -0.04310
C6 C 0.5760(5) 0.0277(2) 0.01774(13)
O1 O 0.2119(3) 0.07910(14) 0.07737(9)
C7 C 0.2850(6) 0.1305(3) 0.12931(15)
O2 O 0.4666(4) 0.18346(18) 0.13003(11)
C8 C 0.1081(7) 0.1106(3) 0.18069(15)
H5 H 0.13370 0.15940 0.21270
H6 H 0.13770 0.04440 0.19680
H7 H -0.06180 0.11500 0.16590
C9 C 0.6493(5) -0.0466(2) 0.06525(15)
O3 O 0.5926(4) -0.04639(16) 0.11842(10)
O4 O 0.7954(4) -0.12044(16) 0.04003(9)
C10 C 0.8723(6) -0.1989(2) 0.07949(14)
C11 C 0.7599(6) -0.2911(2) 0.07346(15)
H8 H 0.63170 -0.30090 0.04490
C12 C 0.8394(6) -0.3687(3) 0.11017(15)
H9 H 0.76360 -0.43150 0.10680
C13 C 1.0318(6) -0.3542(3) 0.15228(15)
H10 H 1.08510 -0.40730 0.17700
C14 C 1.1447(6) -0.2608(3) 0.15761(13)
C15 C 1.0633(5) -0.1825(2) 0.12040(14)
H11 H 1.13800 -0.11940 0.12330
C16 C 1.3583(6) -0.2442(3) 0.20190(15)
H12 H 1.37770 -0.30210 0.22870
H13 H 1.51440 -0.23410 0.17960
O5 O 1.2980(4) -0.1562(2) 0.23750(11)
N1 N 1.5033(7) -0.1096(3) 0.26447(15)
O6 O 1.4470(6) -0.0341(3) 0.29096(17)
O7 O 1.7034(5) -0.1481(2) 0.26015(11)
#END
