
#######################################################################
#
#                 Cambridge Crystallographic Data Centre
#                                CCDC
#
#######################################################################
#
# If this CIF has been generated from an entry in the Cambridge
# Structural Database, then it will include bibliographic, chemical,
# crystal, experimental, refinement or atomic coordinate data resulting
# from the CCDC's data processing and validation procedures.
#
#######################################################################

data_CSD_CIF_IWATOR
_audit_creation_date 2016-09-15
_audit_creation_method CSD-ConQuest-V1
_database_code_CSD IWATOR
_database_code_depnum_ccdc_archive 'CCDC 1495597'
_chemical_formula_sum 'C11 H14 N2 O3'
_chemical_formula_moiety
;
C11 H14 N2 O3
;
_journal_coden_Cambridge 1127
_journal_volume 26
_journal_year 2016
_journal_page_first 4446
_journal_name_full 'Bioorg.Med.Chem.Lett. '
loop_
_publ_author_name
"Ha T.Do"
"Nenggang Zhang"
"D.Pati"
"S.R.Gilbertson"
_chemical_name_systematic
;
5-ethoxy-2,2-dimethyl-2H-benzimidazole 1,3-dioxide
;
_cell_volume   1070.426
_exptl_crystal_colour 'dark orange'
_exptl_crystal_density_diffrn 1.379
_exptl_crystal_description 'block'
_diffrn_ambient_temperature 100
#These two values have been output from a single CSD field.
_refine_ls_R_factor_gt 0.0841
_refine_ls_wR_factor_gt 0.0841
_symmetry_cell_setting monoclinic
_symmetry_space_group_name_H-M 'P 21/c'
_symmetry_Int_Tables_number 14
loop_
_symmetry_equiv_pos_site_id
_symmetry_equiv_pos_as_xyz
1 x,y,z
2 -x,1/2+y,1/2-z
3 -x,-y,-z
4 x,-1/2-y,-1/2+z
_cell_length_a 9.7420(16)
_cell_length_b 14.507(2)
_cell_length_c 8.032(1)
_cell_angle_alpha 90
_cell_angle_beta 109.440(4)
_cell_angle_gamma 90
_cell_formula_units_Z 4
loop_
_atom_type_symbol
_atom_type_radius_bond
C 0.68
H 0.23
N 0.68
O 0.68
loop_
_atom_site_label
_atom_site_type_symbol
_atom_site_fract_x
_atom_site_fract_y
_atom_site_fract_z
O1 O 0.6308(2) 0.24870(15) 0.3096(3)
O2 O 1.1254(2) 0.20636(14) 0.1397(3)
N1 N 1.0915(3) 0.44017(17) 0.2483(3)
O3 O 1.1355(3) 0.52465(15) 0.2705(3)
C1 C 0.7498(4) 0.2911(2) 0.2888(4)
N2 N 1.0870(3) 0.28527(17) 0.1854(3)
C2 C 0.9726(4) 0.4028(2) 0.2665(4)
C3 C 0.9683(3) 0.3064(2) 0.2273(4)
C4 C 0.8544(3) 0.2491(2) 0.2385(4)
H1 H 0.85110 0.18510 0.21250
C5 C 0.7514(4) 0.3894(2) 0.3256(4)
H2 H 0.67400 0.41520 0.35740
C6 C 1.1804(4) 0.3682(2) 0.1988(4)
C7 C 0.6276(4) 0.1494(2) 0.2984(5)
H3 H 0.71990 0.12330 0.37870
H4 H 0.61560 0.12950 0.17640
C8 C 1.3232(4) 0.3572(2) 0.3475(4)
H5 H 1.37550 0.41610 0.36840
H6 H 1.38230 0.31020 0.31570
H7 H 1.30430 0.33820 0.45500
C9 C 1.1930(4) 0.3906(2) 0.0202(4)
H8 H 1.09560 0.40000 -0.06590
H9 H 1.24080 0.33940 -0.01830
H10 H 1.25070 0.44690 0.02930
C10 C 0.8598(3) 0.4451(2) 0.3158(4)
H11 H 0.86060 0.50920 0.34060
C11 C 0.5010(4) 0.1161(2) 0.3509(5)
H12 H 0.51350 0.13670 0.47130
H13 H 0.49710 0.04860 0.34610
H14 H 0.41020 0.14140 0.26940
#END
