
#######################################################################
#
#                 Cambridge Crystallographic Data Centre
#                                CCDC
#
#######################################################################
#
# If this CIF has been generated from an entry in the Cambridge
# Structural Database, then it will include bibliographic, chemical,
# crystal, experimental, refinement or atomic coordinate data resulting
# from the CCDC's data processing and validation procedures.
#
#######################################################################

data_CSD_CIF_IWAVIN
_audit_creation_date 2016-09-15
_audit_creation_method CSD-ConQuest-V1
_database_code_CSD IWAVIN
_database_code_depnum_ccdc_archive 'CCDC 1495601'
_chemical_formula_sum 'C15 H11 N3 O6'
_chemical_formula_moiety
;
C15 H11 N3 O6
;
_journal_coden_Cambridge 1127
_journal_volume 26
_journal_year 2016
_journal_page_first 4446
_journal_name_full 'Bioorg.Med.Chem.Lett. '
loop_
_publ_author_name
"Ha T.Do"
"Nenggang Zhang"
"D.Pati"
"S.R.Gilbertson"
_chemical_name_systematic
;
4-(2-methyl-5-nitro-1,3-dioxido-2H-benzimidazol-2-yl)benzoic acid
;
_cell_volume    676.660
_exptl_crystal_colour 'black'
_exptl_crystal_density_diffrn 1.616
_exptl_crystal_description 'block'
_diffrn_ambient_temperature 100
#These two values have been output from a single CSD field.
_refine_ls_R_factor_gt 0.0791
_refine_ls_wR_factor_gt 0.0791
_symmetry_cell_setting triclinic
_symmetry_space_group_name_H-M 'P -1'
_symmetry_Int_Tables_number 2
loop_
_symmetry_equiv_pos_site_id
_symmetry_equiv_pos_as_xyz
1 x,y,z
2 -x,-y,-z
_cell_length_a 6.098440(38)
_cell_length_b 7.853030(1)
_cell_length_c 14.6479(4)
_cell_angle_alpha 101.3734(65)
_cell_angle_beta 97.6475(66)
_cell_angle_gamma 95.2031(62)
_cell_formula_units_Z 2
loop_
_atom_type_symbol
_atom_type_radius_bond
C 0.68
H 0.23
N 0.68
O 0.68
loop_
_atom_site_label
_atom_site_type_symbol
_atom_site_fract_x
_atom_site_fract_y
_atom_site_fract_z
O1 O 0.7076(3) -0.3678(3) 0.48634(15)
O2 O 1.0159(4) 0.0906(3) 0.16255(16)
O3 O 0.3446(3) -0.3444(3) 0.44827(16)
H1 H 0.32970 -0.43050 0.47400
O4 O 0.4535(4) 0.4165(3) 0.27194(16)
O5 O 0.2510(5) 0.2941(3) -0.18770(17)
N1 N 0.5657(4) 0.3285(3) 0.21699(19)
N2 N 0.8422(4) 0.1707(3) 0.16367(18)
C1 C 0.6041(5) -0.1556(4) 0.3988(2)
N3 N 0.2178(5) 0.3267(4) -0.1065(2)
C2 C 0.4347(5) -0.0873(4) 0.3503(2)
H2 H 0.28390 -0.13280 0.34810
O6 O 0.0614(4) 0.3981(4) -0.07920(18)
C3 C 0.7058(5) 0.1130(4) 0.3072(2)
C4 C 0.8747(5) 0.0442(4) 0.3571(2)
H3 H 1.02560 0.09110 0.36090
C5 C 0.5575(5) -0.2990(4) 0.4482(2)
C6 C 0.7065(5) 0.1961(4) 0.0900(2)
C7 C 0.5335(5) 0.2906(4) 0.1226(2)
C8 C 0.3629(5) 0.3332(4) 0.0586(2)
H4 H 0.24300 0.39250 0.07860
C9 C 0.5599(6) 0.1947(4) -0.0683(2)
H5 H 0.56540 0.16790 -0.13400
C10 C 0.4840(5) 0.0470(4) 0.3048(2)
H6 H 0.36720 0.09410 0.27200
C11 C 0.8250(5) -0.0907(4) 0.4010(2)
H7 H 0.94160 -0.13970 0.43270
C12 C 0.3844(5) 0.2823(4) -0.0343(2)
C13 C 0.7683(5) 0.2530(4) 0.2549(2)
C14 C 0.7205(5) 0.1489(4) -0.0072(2)
H8 H 0.83740 0.08770 -0.02890
C15 C 0.9429(5) 0.4008(4) 0.3083(2)
H9 H 1.08110 0.35330 0.32710
H10 H 0.88920 0.46150 0.36470
H11 H 0.97140 0.48340 0.26790
#END
