
#######################################################################
#
#                 Cambridge Crystallographic Data Centre
#                                CCDC
#
#######################################################################
#
# If this CIF has been generated from an entry in the Cambridge
# Structural Database, then it will include bibliographic, chemical,
# crystal, experimental, refinement or atomic coordinate data resulting
# from the CCDC's data processing and validation procedures.
#
#######################################################################

data_CSD_CIF_IWAVEJ
_audit_creation_date 2016-09-15
_audit_creation_method CSD-ConQuest-V1
_database_code_CSD IWAVEJ
_database_code_depnum_ccdc_archive 'CCDC 1495600'
_chemical_formula_sum 'C15 H14 N2 O2'
_chemical_formula_moiety
;
C15 H14 N2 O2
;
_journal_coden_Cambridge 1127
_journal_volume 26
_journal_year 2016
_journal_page_first 4446
_journal_name_full 'Bioorg.Med.Chem.Lett. '
loop_
_publ_author_name
"Ha T.Do"
"Nenggang Zhang"
"D.Pati"
"S.R.Gilbertson"
_chemical_name_systematic
;
2,2-dimethyl-5-phenyl-2H-benzimidazole 1,3-dioxide
;
_cell_volume   1238.894
_exptl_crystal_colour 'black'
_exptl_crystal_density_diffrn 1.363
_exptl_special_details
;
low inhibitory activity toward separase

;
_exptl_crystal_description 'block'
_diffrn_ambient_temperature 100
#These two values have been output from a single CSD field.
_refine_ls_R_factor_gt 0.0476
_refine_ls_wR_factor_gt 0.0476
_symmetry_cell_setting monoclinic
_symmetry_space_group_name_H-M 'P 21/c'
_symmetry_Int_Tables_number 14
loop_
_symmetry_equiv_pos_site_id
_symmetry_equiv_pos_as_xyz
1 x,y,z
2 -x,1/2+y,1/2-z
3 -x,-y,-z
4 x,-1/2-y,-1/2+z
_cell_length_a 12.333(1)
_cell_length_b 10.462(1)
_cell_length_c 10.060(1)
_cell_angle_alpha 90
_cell_angle_beta 107.360(1)
_cell_angle_gamma 90
_cell_formula_units_Z 4
loop_
_atom_type_symbol
_atom_type_radius_bond
C 0.68
H 0.23
N 0.68
O 0.68
loop_
_atom_site_label
_atom_site_type_symbol
_atom_site_fract_x
_atom_site_fract_y
_atom_site_fract_z
N1 N 0.74233(11) 0.15687(13) -0.15435(13)
O1 O 0.7217(1) 0.21474(12) -0.27151(12)
O2 O 0.66447(9) -0.01392(11) 0.10708(12)
C1 C 0.95046(13) 0.19001(15) -0.05055(16)
H1 H 0.96320 0.23250 -0.12800
C2 C 1.11763(13) 0.09591(15) 0.31704(16)
C3 C 1.12843(13) -0.00758(16) 0.40848(17)
H2 H 1.07530 -0.07580 0.38520
C4 C 0.91535(13) 0.05798(15) 0.18353(16)
H3 H 0.90420 0.01330 0.26060
C5 C 1.02029(13) 0.10528(14) 0.18805(15)
C6 C 1.19933(13) 0.19349(15) 0.35248(16)
H4 H 1.19460 0.26340 0.29070
N2 N 0.71448(11) 0.04689(12) 0.03132(13)
C7 C 1.03629(14) 0.17010(15) 0.06839(16)
H5 H 1.11010 0.20010 0.07330
C8 C 0.82453(13) 0.07774(14) 0.06073(16)
C9 C 0.64968(13) 0.09674(15) -0.10898(16)
C10 C 1.21609(14) -0.01136(17) 0.53290(17)
H6 H 1.22220 -0.08160 0.59450
C11 C 1.28692(14) 0.18890(16) 0.47680(17)
H7 H 1.34160 0.25560 0.49970
C12 C 0.84125(13) 0.14524(14) -0.05501(16)
C13 C 1.29484(14) 0.08735(17) 0.56747(17)
H8 H 1.35410 0.08520 0.65320
C14 C 0.56626(14) 0.19835(16) -0.09461(18)
H9 H 0.50600 0.15860 -0.06360
H10 H 0.53280 0.23990 -0.18490
H11 H 0.60610 0.26220 -0.02610
C15 C 0.59673(14) -0.01215(16) -0.20570(17)
H12 H 0.65470 -0.07690 -0.20330
H13 H 0.56580 0.02050 -0.30090
H14 H 0.53550 -0.05040 -0.17560
#END
