
#######################################################################
#
#                 Cambridge Crystallographic Data Centre
#                                CCDC
#
#######################################################################
#
# If this CIF has been generated from an entry in the Cambridge
# Structural Database, then it will include bibliographic, chemical,
# crystal, experimental, refinement or atomic coordinate data resulting
# from the CCDC's data processing and validation procedures.
#
#######################################################################

data_CSD_CIF_IWEFIB
_audit_creation_date 2016-09-15
_audit_creation_method CSD-ConQuest-V1
_database_code_CSD IWEFIB
_database_code_depnum_ccdc_archive 'CCDC 1470621'
_chemical_formula_sum 'C21 H20 N4 O6'
_chemical_formula_moiety
;
C21 H20 N4 O6
;
_journal_coden_Cambridge 1127
_journal_volume 26
_journal_year 2016
_journal_page_first 4436
_journal_name_full 'Bioorg.Med.Chem.Lett. '
loop_
_publ_author_name
"Hao Zhou"
"Xin Che"
"Guochen Bao"
"Na Wang"
"Li Peng"
"K.D.Barnash"
"S.V.Frye"
"L.I.James"
"Xu Bai"
_chemical_name_systematic
;
hexahydro-1H-pyrrolo[3,2-c]pyridine-1,5(4H)-diylbis((4-nitrophenyl)methanone)
;
_cell_volume   1924.579
_exptl_special_details
;
protein methyltransferase activity tested

;
_diffrn_ambient_temperature 134
#These two values have been output from a single CSD field.
_refine_ls_R_factor_gt 0.0528
_refine_ls_wR_factor_gt 0.0528
_symmetry_cell_setting monoclinic
_symmetry_space_group_name_H-M 'C c'
_symmetry_Int_Tables_number 9
loop_
_symmetry_equiv_pos_site_id
_symmetry_equiv_pos_as_xyz
1 x,y,z
2 x,-y,1/2+z
3 1/2+x,1/2+y,z
4 1/2+x,1/2-y,1/2+z
_cell_length_a 11.6541(4)
_cell_length_b 22.2547(9)
_cell_length_c 7.4256(3)
_cell_angle_alpha 90
_cell_angle_beta 92.116(3)
_cell_angle_gamma 90
_cell_formula_units_Z 4
loop_
_atom_type_symbol
_atom_type_radius_bond
C 0.68
H 0.23
N 0.68
O 0.68
loop_
_atom_site_label
_atom_site_type_symbol
_atom_site_fract_x
_atom_site_fract_y
_atom_site_fract_z
C1 C 0.9700(6) 0.3012(3) 0.1818(12)
C2 C 0.9244(7) 0.2696(3) 0.3225(11)
H1 H 0.97300 0.24950 0.40840
C3 C 0.8075(7) 0.2680(3) 0.3354(10)
H2 H 0.77500 0.24710 0.43290
C4 C 0.7360(7) 0.2962(3) 0.2084(12)
C5 C 0.7856(8) 0.3266(3) 0.0657(11)
H3 H 0.73770 0.34530 -0.02400
C6 C 0.9023(7) 0.3296(3) 0.0541(11)
H4 H 0.93570 0.35110 -0.04120
C7 C 0.6094(7) 0.2881(4) 0.2219(10)
C8 C 0.4149(6) 0.3283(3) 0.2353(10)
H5 H 0.39360 0.28650 0.20280
H6 H 0.37300 0.35580 0.15110
C9 C 0.3813(6) 0.3413(3) 0.4266(10)
H7 H 0.41700 0.31090 0.50830
H8 H 0.29700 0.33770 0.43390
C10 C 0.4185(6) 0.4038(3) 0.4897(11)
H9 H 0.36630 0.43510 0.43480
C11 C 0.5434(6) 0.4171(3) 0.4457(10)
H10 H 0.55530 0.46150 0.45790
C12 C 0.5771(7) 0.3993(3) 0.2575(10)
H11 H 0.54100 0.42710 0.16790
H12 H 0.66150 0.40220 0.24830
C13 C 0.6115(6) 0.3866(3) 0.6027(10)
H13 H 0.61760 0.34270 0.58350
H14 H 0.68960 0.40380 0.61840
C14 C 0.5392(6) 0.4007(3) 0.7627(10)
H15 H 0.54180 0.36710 0.85000
H16 H 0.56720 0.43760 0.82450
C15 C 0.3436(7) 0.4354(3) 0.7872(14)
C16 C 0.2259(6) 0.4461(4) 0.7055(10)
C17 C 0.1828(7) 0.5037(4) 0.6757(11)
H17 H 0.22950 0.53750 0.70640
C18 C 0.0744(7) 0.5127(4) 0.6030(9)
H18 H 0.04570 0.55220 0.58380
C19 C 0.0084(7) 0.4639(3) 0.5586(11)
C20 C 0.0459(7) 0.4067(4) 0.5909(10)
H19 H -0.00270 0.37360 0.56210
C21 C 0.1553(8) 0.3971(3) 0.666(1)
H20 H 0.18160 0.35740 0.69010
N1 N 1.0943(6) 0.3036(3) 0.1658(9)
N2 N 0.5386(5) 0.3365(3) 0.2193(7)
N3 N 0.4229(5) 0.4093(3) 0.6893(9)
N4 N -0.1031(6) 0.4735(4) 0.4691(9)
O1 O 1.1517(4) 0.2630(2) 0.2421(8)
O2 O 1.1377(4) 0.3441(2) 0.0856(7)
O3 O 0.5693(4) 0.2369(2) 0.2304(7)
O4 O 0.3678(4) 0.4513(2) 0.9456(8)
O5 O -0.1422(5) 0.5235(3) 0.4536(8)
O6 O -0.1542(5) 0.4289(3) 0.4097(8)
#END
