
#######################################################################
#
#                 Cambridge Crystallographic Data Centre
#                                CCDC
#
#######################################################################
#
# If this CIF has been generated from an entry in the Cambridge
# Structural Database, then it will include bibliographic, chemical,
# crystal, experimental, refinement or atomic coordinate data resulting
# from the CCDC's data processing and validation procedures.
#
#######################################################################

data_CSD_CIF_IWOPAM
_audit_creation_date 2011-10-18
_audit_creation_method CSD-ConQuest-V1
_database_code_CSD IWOPAM
_database_code_depnum_ccdc_archive 'CCDC 806308'
_chemical_formula_sum 'C21 H24 N2 O7'
_chemical_formula_moiety
;
C21 H24 N2 O7
;
_journal_coden_Cambridge 24
_journal_volume 52
_journal_year 2011
_journal_page_first 3705
_journal_name_full 'Tetrahedron Lett. '
loop_
_publ_author_name
"O.V.Kulikov"
"C.Incarvito"
"A.D.Hamilton"
_chemical_name_systematic
;
Methyl 3-isopropoxy-4-((3-isopropoxy-4-nitrobenzoyl)amino)benzoate
;
_cell_volume   2017.718
_exptl_crystal_colour 'colorless'
_exptl_crystal_density_diffrn 1.371
_exptl_crystal_description 'block'
_diffrn_ambient_temperature 93
#These two values have been output from a single CSD field.
_refine_ls_R_factor_gt 0.0418
_refine_ls_wR_factor_gt 0.0418
_symmetry_cell_setting monoclinic
_symmetry_space_group_name_H-M 'P 21/c'
_symmetry_Int_Tables_number 14
loop_
_symmetry_equiv_pos_site_id
_symmetry_equiv_pos_as_xyz
1 x,y,z
2 -x,1/2+y,1/2-z
3 -x,-y,-z
4 x,-1/2-y,-1/2+z
_cell_length_a 11.0295(3)
_cell_length_b 12.7043(3)
_cell_length_c 14.6477(10)
_cell_angle_alpha 90
_cell_angle_beta 100.558(7)
_cell_angle_gamma 90
_cell_formula_units_Z 4
loop_
_atom_type_symbol
_atom_type_radius_bond
C 0.68
H 0.23
N 0.68
O 0.68
loop_
_atom_site_label
_atom_site_type_symbol
_atom_site_fract_x
_atom_site_fract_y
_atom_site_fract_z
O1 O 0.69136(15) -0.48141(12) 0.05493(10)
O2 O 0.83259(14) -0.40912(12) 0.15944(11)
O3 O 0.83066(12) -0.20900(11) 0.09652(10)
O4 O 0.31184(12) -0.05358(10) 0.05696(9)
O5 O 0.61271(12) 0.20142(10) 0.15029(9)
O6 O 0.33356(13) 0.52436(11) 0.17256(9)
O7 O 0.15135(12) 0.45925(11) 0.10013(9)
N1 N 0.73264(19) -0.40708(15) 0.10556(13)
N2 N 0.46915(17) 0.03835(13) 0.14506(12)
C1 C 0.65604(19) -0.31234(16) 0.10228(13)
C2 C 0.53160(19) -0.32780(16) 0.09967(13)
C3 C 0.45589(19) -0.24086(16) 0.09833(13)
C4 C 0.50591(18) -0.13988(16) 0.09920(13)
C5 C 0.63131(18) -0.12588(17) 0.09921(12)
C6 C 0.70887(19) -0.21301(17) 0.10055(14)
C7 C 0.89205(18) -0.10879(16) 0.09073(14)
C8 C 0.92163(19) -0.05842(16) 0.18561(14)
C9 C 1.00630(17) -0.13698(17) 0.05210(14)
C10 C 0.4198(2) -0.04847(16) 0.09779(14)
C11 C 0.41317(19) 0.13809(16) 0.14415(13)
C12 C 0.28794(18) 0.15296(17) 0.14129(13)
C13 C 0.23896(18) 0.25393(16) 0.13878(13)
C14 C 0.31595(19) 0.34065(17) 0.13989(13)
C15 C 0.44259(18) 0.32576(16) 0.14473(13)
C16 C 0.49150(18) 0.22590(16) 0.14709(13)
C17 C 0.69934(17) 0.28520(16) 0.14214(14)
C18 C 0.73364(17) 0.34447(16) 0.23300(13)
C19 C 0.81013(17) 0.23188(16) 0.11517(14)
C20 C 0.2708(2) 0.44999(17) 0.14039(14)
C21 C 0.10444(19) 0.56591(16) 0.09546(15)
H1 H 0.49860 -0.39690 0.09880
H2 H 0.37000 -0.24980 0.09680
H3 H 0.66410 -0.05680 0.09830
H4 H 0.83800 -0.06100 0.04660
H5 H 0.96990 0.00570 0.18220
H6 H 0.96940 -0.10770 0.22960
H7 H 0.84480 -0.04060 0.20660
H8 H 0.98190 -0.17090 -0.00860
H9 H 1.05770 -0.18530 0.09480
H10 H 1.05320 -0.07290 0.04510
H11 H 0.23530 0.09370 0.14110
H12 H 0.15300 0.26360 0.13630
H13 H 0.49540 0.38510 0.14640
H14 H 0.66190 0.33500 0.09190
H15 H 0.65850 0.36980 0.25270
H16 H 0.78620 0.40450 0.22450
H17 H 0.77830 0.29740 0.28060
H18 H 0.78490 0.19510 0.05590
H19 H 0.84460 0.18100 0.16330
H20 H 0.87260 0.28490 0.10880
H21 H 0.15310 0.60990 0.06070
H22 H 0.11050 0.59390 0.15850
H23 H 0.01800 0.56610 0.06410
H24 H 0.550(2) 0.0335(18) 0.1793(16)
#END
