
#######################################################################
#
#                 Cambridge Crystallographic Data Centre
#                                CCDC
#
#######################################################################
#
# If this CIF has been generated from an entry in the Cambridge
# Structural Database, then it will include bibliographic, chemical,
# crystal, experimental, refinement or atomic coordinate data resulting
# from the CCDC's data processing and validation procedures.
#
#######################################################################

data_CSD_CIF_IWOPEQ
_audit_creation_date 2011-10-18
_audit_creation_method CSD-ConQuest-V1
_database_code_CSD IWOPEQ
_database_code_depnum_ccdc_archive 'CCDC 806309'
_chemical_formula_sum 'C27 H36 N2 O7'
_chemical_formula_moiety
;
C27 H36 N2 O7
;
_journal_coden_Cambridge 24
_journal_volume 52
_journal_year 2011
_journal_page_first 3705
_journal_name_full 'Tetrahedron Lett. '
loop_
_publ_author_name
"O.V.Kulikov"
"C.Incarvito"
"A.D.Hamilton"
_chemical_name_systematic
;
Methyl 3-(2-ethylbutoxy)-4-((3-(2-ethylbutoxy)-4-nitrobenzoyl)amino)benzoate
;
_cell_volume   1261.940
_exptl_crystal_colour 'colorless'
_exptl_crystal_density_diffrn 1.317
_exptl_crystal_description 'plate'
_diffrn_ambient_temperature 93
#These two values have been output from a single CSD field.
_refine_ls_R_factor_gt 0.0431
_refine_ls_wR_factor_gt 0.0431
_symmetry_cell_setting triclinic
_symmetry_space_group_name_H-M 'P -1'
_symmetry_Int_Tables_number 2
loop_
_symmetry_equiv_pos_site_id
_symmetry_equiv_pos_as_xyz
1 x,y,z
2 -x,-y,-z
_cell_length_a 7.36308(13)
_cell_length_b 12.3256(2)
_cell_length_c 14.6024(10)
_cell_angle_alpha 76.465(5)
_cell_angle_beta 80.493(6)
_cell_angle_gamma 81.301(6)
_cell_formula_units_Z 2
loop_
_atom_type_symbol
_atom_type_radius_bond
C 0.68
H 0.23
N 0.68
O 0.68
loop_
_atom_site_label
_atom_site_type_symbol
_atom_site_fract_x
_atom_site_fract_y
_atom_site_fract_z
O1 O 0.36192(19) 1.0617(1) 0.3589(1)
O2 O 0.29928(18) 0.98491(10) 0.25021(10)
O3 O 0.52373(17) 0.80131(10) 0.23650(9)
O4 O 0.59700(17) 0.54614(10) 0.63730(9)
O5 O 0.93472(17) 0.35493(10) 0.39943(9)
O6 O 1.13708(19) -0.01977(11) 0.62576(9)
O7 O 1.14811(17) 0.0440(1) 0.75667(9)
N1 N 0.3613(2) 0.97939(13) 0.32433(12)
N2 N 0.7700(2) 0.48880(13) 0.50953(12)
C1 C 0.4372(3) 0.86986(15) 0.37795(14)
C2 C 0.4258(3) 0.85762(15) 0.47511(14)
C3 C 0.4924(2) 0.75704(15) 0.52949(14)
C4 C 0.5764(2) 0.66915(15) 0.48614(13)
C5 C 0.5888(2) 0.68247(15) 0.38838(13)
C6 C 0.5172(2) 0.78278(15) 0.33200(13)
C7 C 0.6105(3) 0.71471(15) 0.18722(13)
C8 C 0.5753(3) 0.75466(15) 0.08417(13)
C9 C 0.3685(3) 0.76178(16) 0.07606(14)
C10 C 0.2973(3) 0.64725(18) 0.09562(15)
C11 C 0.6509(3) 0.86522(16) 0.03575(14)
C12 C 0.8582(3) 0.86307(17) 0.03142(15)
C13 C 0.6474(3) 0.56321(15) 0.55141(14)
C14 C 0.8564(2) 0.38360(14) 0.55404(13)
C15 C 0.8660(2) 0.35138(15) 0.65095(13)
C16 C 0.9528(2) 0.24596(15) 0.68793(13)
C17 C 1.0267(2) 0.17196(15) 0.62928(13)
C18 C 1.0214(2) 0.20487(15) 0.53171(14)
C19 C 0.9403(2) 0.31160(15) 0.49366(13)
C20 C 1.0419(3) 0.29133(15) 0.33336(12)
C21 C 1.0378(3) 0.36218(15) 0.23384(13)
C22 C 0.8392(3) 0.38369(16) 0.20844(13)
C23 C 0.8184(3) 0.46264(16) 0.11364(13)
C24 C 1.1772(3) 0.30741(17) 0.16385(14)
C25 C 1.3784(3) 0.30687(16) 0.17432(14)
C26 C 1.1083(3) 0.05575(16) 0.66836(14)
C27 C 1.2174(3) -0.06718(15) 0.80196(14)
H1 H 0.37230 0.91840 0.50430
H2 H 0.48120 0.74740 0.59660
H3 H 0.64690 0.62240 0.35930
H4 H 0.55690 0.64350 0.21610
H5 H 0.74540 0.70170 0.19080
H6 H 0.64220 0.69650 0.04910
H7 H 0.29620 0.80550 0.12160
H8 H 0.34660 0.80300 0.01130
H9 H 0.31610 0.60630 0.16010
H10 H 0.36540 0.60410 0.04960
H11 H 0.16490 0.65780 0.08970
H12 H 0.61920 0.88710 -0.02990
H13 H 0.58760 0.92400 0.06990
H14 H 0.88780 0.86090 0.09490
H15 H 0.89900 0.93060 -0.01270
H16 H 0.92190 0.79620 0.00940
H17 H 0.81340 0.40120 0.69160
H18 H 0.96180 0.22430 0.75400
H19 H 1.07310 0.15450 0.49140
H20 H 0.98850 0.22060 0.33920
H21 H 1.17140 0.27220 0.34740
H22 H 1.07760 0.43650 0.23300
H23 H 0.79840 0.31100 0.20780
H24 H 0.75590 0.41530 0.25870
H25 H 0.89640 0.43070 0.06300
H26 H 0.85690 0.53530 0.11370
H27 H 0.68850 0.47310 0.10270
H28 H 1.15220 0.22880 0.17180
H29 H 1.15710 0.34730 0.09850
H30 H 1.40060 0.26720 0.23870
H31 H 1.40700 0.38440 0.16320
H32 H 1.45800 0.26860 0.12790
H33 H 1.32120 -0.09670 0.75980
H34 H 1.11850 -0.11600 0.81550
H35 H 1.26000 -0.06490 0.86160
H36 H 0.799(3) 0.5064(17) 0.4472(14)
#END
