
#######################################################################
#
#                 Cambridge Crystallographic Data Centre
#                                CCDC
#
#######################################################################
#
# If this CIF has been generated from an entry in the Cambridge
# Structural Database, then it will include bibliographic, chemical,
# crystal, experimental, refinement or atomic coordinate data resulting
# from the CCDC's data processing and validation procedures.
#
#######################################################################

data_CSD_CIF_IWOPUH
_audit_creation_date 2016-10-11
_audit_creation_method CSD-ConQuest-V1
_database_code_CSD IWOPUH
_database_code_depnum_ccdc_archive 'CCDC 1509211'
_chemical_formula_sum 'C31 H35 N3 O2'
_chemical_formula_moiety
;
C31 H35 N3 O2
;
_journal_coden_Cambridge 1078
_journal_year 2016
_journal_name_full 'CSD Communication(Private Communication) '
loop_
_publ_author_name
"Jiahui Kong"
_chemical_name_systematic
;
N-(2,2,6,6-tetramethyl-1-((4-methylbenzo[h]quinolin-2-yl)methoxy)piperidin-4-y
l)benzamide
;
_cell_volume   2627.764
_exptl_crystal_colour 'colorless'
_exptl_crystal_density_diffrn 1.217
_exptl_crystal_description 'prismatic'
_diffrn_ambient_temperature 293
#These two values have been output from a single CSD field.
_refine_ls_R_factor_gt 0.0541
_refine_ls_wR_factor_gt 0.0541
_symmetry_cell_setting monoclinic
_symmetry_space_group_name_H-M 'P 21/c'
_symmetry_Int_Tables_number 14
loop_
_symmetry_equiv_pos_site_id
_symmetry_equiv_pos_as_xyz
1 x,y,z
2 -x,1/2+y,1/2-z
3 -x,-y,-z
4 x,-1/2-y,-1/2+z
_cell_length_a 11.4456(18)
_cell_length_b 22.211(3)
_cell_length_c 10.3680(16)
_cell_angle_alpha 90
_cell_angle_beta 94.457(4)
_cell_angle_gamma 90
_cell_formula_units_Z 4
loop_
_atom_type_symbol
_atom_type_radius_bond
C 0.68
H 0.23
N 0.68
O 0.68
loop_
_atom_site_label
_atom_site_type_symbol
_atom_site_fract_x
_atom_site_fract_y
_atom_site_fract_z
N1 N 0.71228(15) -0.15771(7) 0.10323(15)
N2 N 0.77096(16) 0.04341(7) 0.23432(15)
N3 N 0.77262(15) 0.22841(7) 0.31470(16)
O1 O 0.78823(15) -0.02017(6) 0.25909(13)
O2 O 0.74866(13) 0.24900(6) 0.52365(12)
C1 C 0.65616(17) -0.25840(9) 0.04479(19)
C2 C 0.58192(18) -0.23783(10) -0.0602(2)
H1 H 0.57460 -0.19670 -0.07580
C3 C 0.5203(2) -0.27767(12) -0.1398(2)
H2 H 0.47110 -0.26350 -0.20880
C4 C 0.5310(2) -0.33899(12) -0.1178(3)
H3 H 0.48920 -0.36580 -0.17270
C5 C 0.6018(2) -0.36039(11) -0.0171(3)
H4 H 0.60840 -0.40170 -0.00380
C6 C 0.66566(19) -0.32031(9) 0.0680(2)
C7 C 0.7389(2) -0.34101(10) 0.1740(2)
H5 H 0.74420 -0.38220 0.18970
C8 C 0.80192(19) -0.30294(10) 0.2536(2)
H6 H 0.84840 -0.31840 0.32340
C9 C 0.79853(17) -0.23967(8) 0.23283(18)
C10 C 0.72427(17) -0.21718(8) 0.12887(18)
C11 C 0.77345(19) -0.11963(9) 0.17941(19)
C12 C 0.84962(19) -0.13827(9) 0.28317(19)
H7 H 0.89120 -0.10970 0.33370
C13 C 0.86407(17) -0.19815(9) 0.31171(18)
C14 C 0.9455(2) -0.21813(10) 0.4234(2)
H8 H 1.00720 -0.24210 0.39220
H9 H 0.90300 -0.24160 0.48180
H10 H 0.97860 -0.18350 0.46800
C15 C 0.7565(3) -0.05460(9) 0.1456(2)
H11 H 0.80530 -0.04350 0.07700
H12 H 0.67530 -0.04710 0.11610
C16 C 0.6788(2) 0.06360(9) 0.3184(2)
C17 C 0.66848(18) 0.13176(9) 0.30377(19)
H13 H 0.63780 0.14110 0.21620
H14 H 0.61300 0.14670 0.36230
C18 C 0.78437(17) 0.16384(8) 0.33176(17)
H15 H 0.81360 0.15550 0.42130
C19 C 0.87131(17) 0.13989(8) 0.24227(17)
H16 H 0.94600 0.15980 0.26180
H17 H 0.84430 0.14990 0.15390
C20 C 0.88957(18) 0.07198(8) 0.25231(18)
C21 C 0.9617(2) 0.05516(10) 0.3776(2)
H18 H 0.92880 0.07420 0.44950
H19 H 1.04110 0.06840 0.37300
H20 H 0.96050 0.01230 0.38880
C22 C 0.9573(2) 0.05217(10) 0.1387(2)
H21 H 0.97350 0.00980 0.14550
H22 H 1.02970 0.07410 0.14000
H23 H 0.91130 0.06010 0.05910
C23 C 0.5628(2) 0.03575(12) 0.2638(3)
H24 H 0.55170 0.04380 0.17270
H25 H 0.49930 0.05300 0.30660
H26 H 0.56480 -0.00700 0.27800
C24 C 0.6977(3) 0.04579(11) 0.4616(2)
H27 H 0.72480 0.00490 0.46830
H28 H 0.62510 0.04940 0.50150
H29 H 0.75500 0.07190 0.50470
C25 C 0.75567(16) 0.26594(8) 0.41223(17)
C26 C 0.74744(17) 0.33100(8) 0.37750(17)
C27 C 0.6598(2) 0.36592(10) 0.4223(2)
H30 H 0.60470 0.34870 0.47240
C28 C 0.6537(3) 0.42644(11) 0.3929(2)
H31 H 0.59370 0.44970 0.42230
C29 C 0.7348(3) 0.45241(11) 0.3212(2)
H32 H 0.73020 0.49330 0.30210
C30 C 0.8227(3) 0.41863(11) 0.2776(2)
H33 H 0.87860 0.43660 0.22960
C31 C 0.8290(2) 0.35788(9) 0.3042(2)
H34 H 0.88840 0.33480 0.27280
H35 H 0.7675(18) 0.2427(9) 0.237(2)
#END
