
#######################################################################
#
#                 Cambridge Crystallographic Data Centre
#                                CCDC
#
#######################################################################
#
# If this CIF has been generated from an entry in the Cambridge
# Structural Database, then it will include bibliographic, chemical,
# crystal, experimental, refinement or atomic coordinate data resulting
# from the CCDC's data processing and validation procedures.
#
#######################################################################

data_CSD_CIF_IWUQUO
_audit_creation_date 2016-10-11
_audit_creation_method CSD-ConQuest-V1
_database_code_CSD IWUQUO
_database_code_depnum_ccdc_archive 'CCDC 1471110'
_chemical_formula_sum 'C25 H27 N1 O3'
_chemical_formula_moiety
;
C25 H27 N1 O3
;
_journal_coden_Cambridge 35
_journal_volume 81
_journal_year 2016
_journal_page_first 8722
_journal_name_full 'J.Org.Chem. '
loop_
_publ_author_name
"H.Tanimoto"
"T.Shitaoka"
"K.Yokoyama"
"T.Morimoto"
"Y.Nishiyama"
"K.Kakiuchi"
_chemical_name_systematic
;
3-butyl-4-(diphenylmethylene)-8a-hydroxy-4a,6,7,8a-tetrahydro-4H-1,2-benzoxazi
n-8(5H)-one
;
_cell_volume   2087.545
_exptl_crystal_colour 'colorless'
_exptl_crystal_density_diffrn 1.239
_exptl_crystal_description 'block'
_diffrn_ambient_temperature 123
#These two values have been output from a single CSD field.
_refine_ls_R_factor_gt 0.0527
_refine_ls_wR_factor_gt 0.0527
_symmetry_cell_setting monoclinic
_symmetry_space_group_name_H-M 'P 21/c'
_symmetry_Int_Tables_number 14
loop_
_symmetry_equiv_pos_site_id
_symmetry_equiv_pos_as_xyz
1 x,y,z
2 -x,1/2+y,1/2-z
3 -x,-y,-z
4 x,-1/2-y,-1/2+z
_cell_length_a 9.28844(17)
_cell_length_b 9.16769(17)
_cell_length_c 24.8234(5)
_cell_angle_alpha 90
_cell_angle_beta 99.040(7)
_cell_angle_gamma 90
_cell_formula_units_Z 4
loop_
_atom_type_symbol
_atom_type_radius_bond
C 0.68
H 0.23
N 0.68
O 0.68
loop_
_atom_site_label
_atom_site_type_symbol
_atom_site_fract_x
_atom_site_fract_y
_atom_site_fract_z
O1 O 0.26969(13) 0.46724(13) 0.32259(5)
O2 O 0.32891(12) 0.42350(12) 0.22070(4)
O3 O 0.40450(11) 0.20088(12) 0.26099(4)
N1 N 0.42501(14) 0.09444(14) 0.22143(5)
C1 C 0.25004(16) 0.34504(17) 0.30520(6)
C2 C 0.1852(2) 0.2251(2) 0.33469(6)
C3 C 0.0538(2) 0.1570(2) 0.29821(7)
C4 C 0.09664(17) 0.10537(17) 0.24456(6)
C5 C 0.15492(15) 0.23250(15) 0.21374(5)
C6 C 0.28690(15) 0.30489(16) 0.24843(6)
C7 C 0.20898(15) 0.18668(15) 0.16217(6)
C8 C 0.33846(15) 0.09144(16) 0.17522(6)
C9 C 0.36344(16) -0.03831(16) 0.13993(6)
C10 C 0.2289(2) -0.1366(2) 0.1275(1)
C11 C 0.2387(2) -0.2463(2) 0.0803(1)
C12 C 0.3559(2) -0.3599(2) 0.09578(9)
C13 C 0.14647(15) 0.22827(15) 0.11159(6)
C14 C 0.00103(15) 0.30059(16) 0.10111(6)
C15 C -0.11766(16) 0.24348(17) 0.12246(6)
C16 C -0.25377(17) 0.30931(19) 0.11154(7)
C17 C -0.27372(17) 0.43223(19) 0.07861(7)
C18 C -0.15716(18) 0.48913(17) 0.05661(6)
C19 C -0.02109(17) 0.42365(16) 0.06755(6)
C20 C 0.21567(15) 0.20261(15) 0.06231(6)
C21 C 0.13595(16) 0.13492(16) 0.01669(6)
C22 C 0.20167(18) 0.09871(17) -0.02806(6)
C23 C 0.34648(18) 0.13512(18) -0.02874(6)
C24 C 0.42468(17) 0.20901(19) 0.01523(6)
C25 C 0.35971(16) 0.24251(17) 0.06048(6)
H1 H 0.39442 0.46956 0.24097
H2 H 0.15409 0.26458 0.36814
H3 H 0.25979 0.14907 0.34569
H4 H 0.01706 0.07332 0.31730
H5 H -0.02542 0.22992 0.29075
H6 H 0.01069 0.06189 0.22151
H7 H 0.17256 0.02904 0.25201
H8 H 0.07599 0.30672 0.20456
H9 H 0.44621 -0.09638 0.15877
H10 H 0.39020 -0.00271 0.10517
H11 H 0.14133 -0.07485 0.11761
H12 H 0.21718 -0.19182 0.16081
H13 H 0.14350 -0.29566 0.07030
H14 H 0.25954 -0.19199 0.04792
H15 H 0.33611 -0.41359 0.12795
H16 H 0.45108 -0.31183 0.10407
H17 H 0.35655 -0.42785 0.06534
H18 H -0.10507 0.15866 0.14469
H19 H -0.33332 0.27014 0.12664
H20 H -0.36681 0.47732 0.07114
H21 H -0.17066 0.57317 0.03399
H22 H 0.05788 0.46280 0.05209
H23 H 0.03572 0.11344 0.01626
H24 H 0.14751 0.04900 -0.05820
H25 H 0.39187 0.10959 -0.05915
H26 H 0.52284 0.23676 0.01438
H27 H 0.41392 0.29303 0.09041
#END
