
#######################################################################
#
#                 Cambridge Crystallographic Data Centre
#                                CCDC
#
#######################################################################
#
# If this CIF has been generated from an entry in the Cambridge
# Structural Database, then it will include bibliographic, chemical,
# crystal, experimental, refinement or atomic coordinate data resulting
# from the CCDC's data processing and validation procedures.
#
#######################################################################

data_CSD_CIF_IWUQOI
_audit_creation_date 2016-10-11
_audit_creation_method CSD-ConQuest-V1
_database_code_CSD IWUQOI
_database_code_depnum_ccdc_archive 'CCDC 1471109'
_chemical_formula_sum 'C25 H27 N1 O3'
_chemical_formula_moiety
;
C25 H27 N1 O3
;
_journal_coden_Cambridge 35
_journal_volume 81
_journal_year 2016
_journal_page_first 8722
_journal_name_full 'J.Org.Chem. '
loop_
_publ_author_name
"H.Tanimoto"
"T.Shitaoka"
"K.Yokoyama"
"T.Morimoto"
"Y.Nishiyama"
"K.Kakiuchi"
_chemical_name_systematic
;
2-butyl-4,4-diphenyl-1-azaspiro[4.5]dec-1-ene-3,7-dione 1-oxide
;
_cell_volume   2033.559
_exptl_crystal_colour 'colorless'
_exptl_crystal_density_diffrn 1.272
_exptl_crystal_description 'prism'
_diffrn_ambient_temperature 123
#These two values have been output from a single CSD field.
_refine_ls_R_factor_gt 0.0372
_refine_ls_wR_factor_gt 0.0372
_symmetry_cell_setting monoclinic
_symmetry_space_group_name_H-M 'P 21/c'
_symmetry_Int_Tables_number 14
loop_
_symmetry_equiv_pos_site_id
_symmetry_equiv_pos_as_xyz
1 x,y,z
2 -x,1/2+y,1/2-z
3 -x,-y,-z
4 x,-1/2-y,-1/2+z
_cell_length_a 8.31353(15)
_cell_length_b 15.2799(3)
_cell_length_c 16.3755(3)
_cell_angle_alpha 90
_cell_angle_beta 102.153(7)
_cell_angle_gamma 90
_cell_formula_units_Z 4
loop_
_atom_type_symbol
_atom_type_radius_bond
C 0.68
H 0.23
N 0.68
O 0.68
loop_
_atom_site_label
_atom_site_type_symbol
_atom_site_fract_x
_atom_site_fract_y
_atom_site_fract_z
O1 O 0.48792(10) 0.37146(6) 0.54778(5)
O2 O 0.4119(1) 0.20003(5) 0.31022(5)
O3 O 0.21327(10) 0.53976(6) 0.56832(5)
N1 N 0.42672(11) 0.33340(6) 0.47930(6)
C1 C 0.49735(13) 0.27578(7) 0.43870(7)
C2 C 0.38658(13) 0.25501(7) 0.35959(7)
C3 C 0.23997(13) 0.31989(7) 0.34697(6)
C4 C 0.24713(12) 0.34876(7) 0.43958(6)
C5 C 0.20134(13) 0.44310(7) 0.45407(7)
H1 H 0.28500 0.48200 0.43830
H2 H 0.09470 0.45630 0.41610
C6 C 0.18725(13) 0.46537(7) 0.54256(7)
C7 C 0.12035(14) 0.39691(8) 0.59263(7)
H3 H -0.00120 0.40090 0.57970
H4 H 0.15890 0.41030 0.65270
C8 C 0.16928(15) 0.30336(8) 0.57698(7)
H5 H 0.10050 0.26200 0.60130
H6 H 0.28560 0.29360 0.60480
C9 C 0.14734(14) 0.28589(7) 0.48360(7)
H7 H 0.02920 0.29130 0.45710
H8 H 0.18140 0.22500 0.47540
C10 C 0.66265(14) 0.23732(8) 0.47127(8)
H9 H 0.73200 0.28020 0.50820
H10 H 0.71620 0.22430 0.42410
C11 C 0.64935(13) 0.15281(7) 0.52031(7)
H11 H 0.60850 0.16730 0.57130
H12 H 0.56820 0.11330 0.48560
C12 C 0.81324(14) 0.10542(8) 0.54519(8)
H13 H 0.89230 0.14380 0.58250
H14 H 0.85720 0.09430 0.49440
C13 C 0.80054(16) 0.01891(8) 0.58933(9)
H15 H 0.72420 -0.01990 0.55230
H16 H 0.75990 0.02950 0.64040
H17 H 0.90930 -0.00860 0.60370
C14 C 0.07249(13) 0.28070(7) 0.30715(7)
C15 C 0.04828(14) 0.19157(7) 0.29136(7)
H18 H 0.13920 0.15260 0.30410
C16 C -0.10800(15) 0.15887(8) 0.25697(8)
H19 H -0.12230 0.09800 0.24610
C17 C -0.24254(14) 0.21441(8) 0.23848(7)
H20 H -0.34860 0.19200 0.21470
C18 C -0.22046(14) 0.30329(8) 0.25521(7)
H21 H -0.31220 0.34180 0.24390
C19 C -0.06458(13) 0.33599(7) 0.28846(7)
H22 H -0.05070 0.39700 0.29870
C20 C 0.29351(12) 0.39121(7) 0.29089(7)
C21 C 0.22367(14) 0.39204(7) 0.20563(7)
H23 H 0.13780 0.35200 0.18390
C22 C 0.27713(16) 0.45021(8) 0.15182(7)
H24 H 0.22840 0.44930 0.09390
C23 C 0.40129(15) 0.50958(8) 0.18233(7)
H25 H 0.43670 0.55020 0.14590
C24 C 0.47290(13) 0.50888(7) 0.26660(7)
H26 H 0.55800 0.54940 0.28800
C25 C 0.42194(13) 0.44964(7) 0.32034(7)
H27 H 0.47500 0.44880 0.37770
#END
