
#######################################################################
#
#                 Cambridge Crystallographic Data Centre
#                                CCDC
#
#######################################################################
#
# If this CIF has been generated from an entry in the Cambridge
# Structural Database, then it will include bibliographic, chemical,
# crystal, experimental, refinement or atomic coordinate data resulting
# from the CCDC's data processing and validation procedures.
#
#######################################################################

data_CSD_CIF_IWUQIC
_audit_creation_date 2016-10-11
_audit_creation_method CSD-ConQuest-V1
_database_code_CSD IWUQIC
_database_code_depnum_ccdc_archive 'CCDC 1471108'
_chemical_formula_sum 'C31 H23 N3 O1'
_chemical_formula_moiety
;
C31 H23 N3 O1
;
_journal_coden_Cambridge 35
_journal_volume 81
_journal_year 2016
_journal_page_first 8722
_journal_name_full 'J.Org.Chem. '
loop_
_publ_author_name
"H.Tanimoto"
"T.Shitaoka"
"K.Yokoyama"
"T.Morimoto"
"Y.Nishiyama"
"K.Kakiuchi"
_chemical_name_systematic
;
2-benzyl-4-(diphenylmethylene)-3-imino-5-phenyl-3,4-dihydro-2H-pyrrole-2-carbo
nitrile 1-oxide
;
_cell_volume   2408.661
_exptl_crystal_colour 'orange'
_exptl_crystal_density_diffrn 1.251
_exptl_crystal_description 'prism'
_diffrn_ambient_temperature 123
#These two values have been output from a single CSD field.
_refine_ls_R_factor_gt 0.0289
_refine_ls_wR_factor_gt 0.0289
_symmetry_cell_setting orthorhombic
_symmetry_space_group_name_H-M 'P 21 21 21'
_symmetry_Int_Tables_number 19
loop_
_symmetry_equiv_pos_site_id
_symmetry_equiv_pos_as_xyz
1 x,y,z
2 1/2-x,-y,1/2+z
3 1/2+x,1/2-y,-z
4 -x,1/2+y,1/2-z
_cell_length_a 9.58019(17)
_cell_length_b 13.2112(2)
_cell_length_c 19.0309(4)
_cell_angle_alpha 90
_cell_angle_beta 90
_cell_angle_gamma 90
_cell_formula_units_Z 4
loop_
_atom_type_symbol
_atom_type_radius_bond
C 0.68
H 0.23
N 0.68
O 0.68
loop_
_atom_site_label
_atom_site_type_symbol
_atom_site_fract_x
_atom_site_fract_y
_atom_site_fract_z
O1 O 0.11036(12) 0.64747(9) 0.21367(6)
N1 N 0.18357(13) 0.61536(9) 0.26537(7)
N2 N 0.23182(17) 0.86594(11) 0.30345(8)
N3 N 0.34295(15) 0.67273(10) 0.42815(7)
H1 H 0.410(3) 0.6394(18) 0.4494(13)
C1 C 0.18349(16) 0.67532(11) 0.33121(8)
C2 C 0.30353(15) 0.62880(11) 0.37315(8)
C3 C 0.33586(15) 0.53105(11) 0.33754(7)
C4 C 0.26290(15) 0.53339(11) 0.27006(8)
C5 C 0.21039(17) 0.78252(12) 0.31415(9)
C6 C 0.04197(16) 0.66411(12) 0.36977(9)
H2 H 0.04450 0.70480 0.41340
H3 H -0.03290 0.69180 0.33950
C7 C 0.00673(16) 0.55578(12) 0.38833(8)
C8 C 0.04774(19) 0.51524(15) 0.45291(9)
H4 H 0.10030 0.55530 0.48480
C9 C 0.0121(2) 0.41683(16) 0.47067(10)
H5 H 0.04010 0.38970 0.51470
C10 C -0.0641(2) 0.35804(14) 0.42452(10)
H6 H -0.08930 0.29090 0.43710
C11 C -0.10364(18) 0.39683(13) 0.36013(10)
H7 H -0.15470 0.35600 0.32810
C12 C -0.06886(16) 0.49543(13) 0.34223(9)
H8 H -0.09700 0.52190 0.29800
C13 C 0.40322(15) 0.45153(11) 0.36853(8)
C14 C 0.49379(16) 0.46702(11) 0.43087(8)
C15 C 0.60289(17) 0.53733(13) 0.43022(9)
H9 H 0.61980 0.57660 0.38930
C16 C 0.68640(18) 0.54991(15) 0.48907(10)
H10 H 0.75970 0.59830 0.48860
C17 C 0.6630(2) 0.49190(15) 0.54862(9)
H11 H 0.72080 0.50030 0.58880
C18 C 0.5559(2) 0.42179(15) 0.54971(9)
H12 H 0.53990 0.38230 0.59060
C19 C 0.4717(2) 0.40911(13) 0.49119(9)
H13 H 0.39850 0.36060 0.49210
C20 C 0.38636(16) 0.34540(11) 0.34558(7)
C21 C 0.50096(17) 0.27982(12) 0.34546(8)
H14 H 0.58980 0.30370 0.36010
C22 C 0.48547(19) 0.18006(13) 0.32405(9)
H15 H 0.56390 0.13610 0.32350
C23 C 0.3553(2) 0.14440(12) 0.30347(9)
H16 H 0.34510 0.07620 0.28840
C24 C 0.24028(19) 0.20788(13) 0.30485(9)
H17 H 0.15120 0.18300 0.29130
C25 C 0.25528(17) 0.30799(12) 0.32607(8)
H18 H 0.17610 0.35120 0.32730
C26 C 0.27553(16) 0.46401(11) 0.20974(7)
C27 C 0.40430(17) 0.42006(11) 0.19364(8)
H19 H 0.48400 0.43510 0.22150
C28 C 0.41576(19) 0.35449(12) 0.13696(8)
H20 H 0.50330 0.32460 0.12610
C29 C 0.2997(2) 0.33255(12) 0.09610(9)
H21 H 0.30760 0.28700 0.05770
C30 C 0.17303(19) 0.37688(12) 0.11130(9)
H22 H 0.09420 0.36230 0.08280
C31 C 0.15943(17) 0.44254(12) 0.16787(8)
H23 H 0.07170 0.47270 0.17800
#END
