
#######################################################################
#
#                 Cambridge Crystallographic Data Centre
#                                CCDC
#
#######################################################################
#
# If this CIF has been generated from an entry in the Cambridge
# Structural Database, then it will include bibliographic, chemical,
# crystal, experimental, refinement or atomic coordinate data resulting
# from the CCDC's data processing and validation procedures.
#
#######################################################################

data_CSD_CIF_IWURID
_audit_creation_date 2016-10-11
_audit_creation_method CSD-ConQuest-V1
_database_code_CSD IWURID
_database_code_depnum_ccdc_archive 'CCDC 1471113'
_chemical_formula_sum 'C34 H33 N1 O2'
_chemical_formula_moiety
;
C34 H33 N1 O2
;
_journal_coden_Cambridge 35
_journal_volume 81
_journal_year 2016
_journal_page_first 8722
_journal_name_full 'J.Org.Chem. '
loop_
_publ_author_name
"H.Tanimoto"
"T.Shitaoka"
"K.Yokoyama"
"T.Morimoto"
"Y.Nishiyama"
"K.Kakiuchi"
_chemical_name_systematic
;
3-benzyl-5-butyl-4-(diphenylmethylene)-2-phenyl-3,4-dihydro-2H-pyrrol-3-ol 
1-oxide
;
_cell_volume   2713.670
_exptl_crystal_colour 'colorless'
_exptl_crystal_density_diffrn 1.193
_exptl_crystal_description 'needle'
_diffrn_ambient_temperature 123
#These two values have been output from a single CSD field.
_refine_ls_R_factor_gt 0.0561
_refine_ls_wR_factor_gt 0.0561
_symmetry_cell_setting monoclinic
_symmetry_space_group_name_H-M 'P 21/c'
_symmetry_Int_Tables_number 14
loop_
_symmetry_equiv_pos_site_id
_symmetry_equiv_pos_as_xyz
1 x,y,z
2 -x,1/2+y,1/2-z
3 -x,-y,-z
4 x,-1/2-y,-1/2+z
_cell_length_a 14.7141(5)
_cell_length_b 17.5011(6)
_cell_length_c 10.6302(3)
_cell_angle_alpha 90
_cell_angle_beta 97.552(7)
_cell_angle_gamma 90
_cell_formula_units_Z 4
loop_
_atom_type_symbol
_atom_type_radius_bond
C 0.68
H 0.23
N 0.68
O 0.68
loop_
_atom_site_label
_atom_site_type_symbol
_atom_site_fract_x
_atom_site_fract_y
_atom_site_fract_z
O1 O 0.2129(1) 0.20307(8) 0.98090(13)
O2 O 0.35723(9) 0.31981(8) 0.66399(13)
H1 H 0.31030 0.31150 0.61180
N1 N 0.23615(12) 0.25616(10) 0.90444(15)
C1 C 0.32614(14) 0.25175(12) 0.8576(2)
H2 H 0.37540 0.25050 0.93190
C2 C 0.33159(14) 0.32954(12) 0.78637(19)
C3 C 0.23472(14) 0.36290(12) 0.78381(19)
C4 C 0.33142(15) 0.17954(12) 0.7811(2)
C5 C 0.18398(15) 0.31278(12) 0.85939(19)
C6 C 0.25689(16) 0.15288(13) 0.6995(2)
H3 H 0.20130 0.18120 0.68910
C7 C 0.26257(17) 0.08526(13) 0.6328(2)
H4 H 0.21110 0.06750 0.57700
C8 C 0.34314(17) 0.04379(13) 0.6475(2)
H5 H 0.34700 -0.00280 0.60260
C9 C 0.41762(17) 0.07001(13) 0.7272(2)
H6 H 0.47330 0.04180 0.73660
C10 C 0.41183(16) 0.13773(13) 0.7941(2)
H7 H 0.46360 0.15540 0.84930
C11 C 0.40318(14) 0.38176(12) 0.8608(2)
H8 H 0.40150 0.43180 0.81720
H9 H 0.38500 0.39050 0.94600
C12 C 0.50074(15) 0.35295(12) 0.8771(2)
C13 C 0.54087(15) 0.32409(12) 0.9933(2)
H10 H 0.50520 0.31940 1.06120
C14 C 0.63227(16) 0.30208(13) 1.0114(2)
H11 H 0.65850 0.28200 1.09100
C15 C 0.68522(16) 0.30926(13) 0.9141(2)
H12 H 0.74820 0.29540 0.92710
C16 C 0.64627(15) 0.33673(12) 0.7977(2)
H13 H 0.68230 0.34100 0.73020
C17 C 0.55479(15) 0.35806(12) 0.7791(2)
H14 H 0.52850 0.37640 0.69830
C18 C 0.20339(15) 0.42878(12) 0.7277(2)
C19 C 0.26048(15) 0.48370(12) 0.6640(2)
C20 C 0.27492(16) 0.47393(13) 0.5382(2)
H15 H 0.25240 0.42940 0.49330
C21 C 0.32178(16) 0.52857(13) 0.4783(2)
H16 H 0.33150 0.52110 0.39260
C22 C 0.35464(16) 0.59393(13) 0.5419(2)
H17 H 0.38640 0.63150 0.50000
C23 C 0.34083(15) 0.60401(13) 0.6665(2)
H18 H 0.36390 0.64850 0.71110
C24 C 0.29377(15) 0.54993(12) 0.7270(2)
H19 H 0.28390 0.55790 0.81260
C25 C 0.10534(15) 0.45351(12) 0.7208(2)
C26 C 0.07762(17) 0.50683(13) 0.8052(3)
H20 H 0.12160 0.52880 0.86830
C27 C -0.01369(18) 0.52817(15) 0.7978(3)
H21 H -0.03210 0.56410 0.85650
C28 C -0.07776(19) 0.49733(16) 0.7054(3)
H22 H -0.14040 0.51140 0.70110
C29 C -0.05067(17) 0.44617(16) 0.6198(3)
H23 H -0.09470 0.42580 0.55510
C30 C 0.04064(16) 0.42393(15) 0.6267(2)
H24 H 0.05870 0.38850 0.56700
C31 C 0.08862(14) 0.31465(12) 0.8927(2)
H25 H 0.06440 0.36740 0.88350
H26 H 0.08920 0.29910 0.98240
C32 C 0.02613(15) 0.26094(13) 0.8068(2)
H27 H 0.02880 0.27490 0.71710
H28 H 0.04910 0.20800 0.81940
C33 C -0.07270(16) 0.26398(14) 0.8328(2)
H29 H -0.07610 0.24550 0.92010
H30 H -0.09400 0.31770 0.82760
C34 C -0.13531(18) 0.21631(17) 0.7406(3)
H31 H -0.19770 0.21830 0.76320
H32 H -0.11380 0.16330 0.74410
H33 H -0.13510 0.23630 0.65450
#END
