
#######################################################################
#
#                 Cambridge Crystallographic Data Centre
#                                CCDC
#
#######################################################################
#
# If this CIF has been generated from an entry in the Cambridge
# Structural Database, then it will include bibliographic, chemical,
# crystal, experimental, refinement or atomic coordinate data resulting
# from the CCDC's data processing and validation procedures.
#
#######################################################################

data_CSD_CIF_IXAGIX
_audit_creation_date 2004-08-24
_audit_creation_method CSD-ConQuest-V1
_database_code_CSD IXAGIX
_database_code_depnum_ccdc_archive 'CCDC 245274'
_chemical_formula_sum 'C12 H8 N4 O1'
_chemical_formula_moiety
;
C12 H8 N4 O1
;
_journal_coeditor_code "IUCr LH6216"
_journal_coden_Cambridge 1370
_journal_volume 60
_journal_year 2004
_journal_page_first o1131
_journal_name_full 'Acta Crystallogr.,Sect.E:Struct.Rep.Online '
loop_
_publ_author_name
"A.Anaflous"
"N.-E.Benchat"
"T.Ben-Hadda"
"B.El Bali"
"M.Bolte"
_chemical_name_systematic
;
3-Nitroso-2-phenylimidazo(1,2-a)pyrimidine
;
_cell_volume   1002.834
_exptl_crystal_colour 'green'
_exptl_crystal_density_diffrn 1.485
_exptl_crystal_description 'block'
_exptl_crystal_preparation 'carbon tetrachloride'
_diffrn_ambient_temperature 173
#These two values have been output from a single CSD field.
_refine_ls_R_factor_gt 0.0541
_refine_ls_wR_factor_gt 0.0541
_symmetry_cell_setting monoclinic
_symmetry_space_group_name_H-M 'P 21/n'
_symmetry_Int_Tables_number 14
loop_
_symmetry_equiv_pos_site_id
_symmetry_equiv_pos_as_xyz
1 x,y,z
2 1/2+x,1/2-y,1/2+z
3 -x,-y,-z
4 -1/2-x,-1/2+y,-1/2-z
_cell_length_a 7.0734(16)
_cell_length_b 9.2564(16)
_cell_length_c 15.704(4)
_cell_angle_alpha 90
_cell_angle_beta 102.755(18)
_cell_angle_gamma 90
_cell_formula_units_Z 4
loop_
_atom_type_symbol
_atom_type_radius_bond
C 0.68
H 0.23
N 0.68
O 0.68
loop_
_atom_site_label
_atom_site_type_symbol
_atom_site_fract_x
_atom_site_fract_y
_atom_site_fract_z
O1 O 0.6379(4) 0.1527(2) 0.58614(15)
N1 N 0.6869(4) 0.2853(2) 0.58655(17)
C1 C 0.6946(5) 0.3410(3) 0.50862(18)
C2 C 0.7380(5) 0.4856(3) 0.48993(19)
N2 N 0.7325(4) 0.5029(2) 0.40418(16)
C3 C 0.6889(5) 0.3721(3) 0.36644(19)
N3 N 0.6631(4) 0.2698(2) 0.42729(15)
C4 C 0.6199(5) 0.1294(3) 0.4029(2)
H1 H 0.60090 0.05840 0.44390
C5 C 0.6056(5) 0.0966(3) 0.3176(2)
H2 H 0.57740 0.00050 0.29750
C6 C 0.6324(5) 0.2047(3) 0.2594(2)
H3 H 0.62250 0.17890 0.20000
N4 N 0.6713(4) 0.3422(3) 0.28226(16)
C7 C 0.7838(4) 0.6087(3) 0.55058(19)
C8 C 0.7843(5) 0.5967(3) 0.63890(19)
H4 H 0.75120 0.50740 0.66160
C9 C 0.8330(5) 0.7151(3) 0.6942(2)
H5 H 0.83320 0.70640 0.75450
C10 C 0.8811(5) 0.8457(3) 0.6611(2)
H6 H 0.91620 0.92620 0.69880
C11 C 0.8778(5) 0.8581(3) 0.5733(2)
H7 H 0.90930 0.94810 0.55090
C12 C 0.8293(5) 0.7420(3) 0.5172(2)
H8 H 0.82690 0.75230 0.45680
#END
