
#######################################################################
#
#                 Cambridge Crystallographic Data Centre
#                                CCDC
#
#######################################################################
#
# If this CIF has been generated from an entry in the Cambridge
# Structural Database, then it will include bibliographic, chemical,
# crystal, experimental, refinement or atomic coordinate data resulting
# from the CCDC's data processing and validation procedures.
#
#######################################################################

data_CSD_CIF_IXAHIY01
_audit_creation_date 2009-02-06
_audit_creation_method CSD-ConQuest-V1
_database_code_CSD IXAHIY01
_database_code_depnum_ccdc_archive 'CCDC 703339'
_chemical_formula_sum 'C14 H17 N3 O1'
_chemical_formula_moiety
;
C14 H17 N3 O1
;
_journal_coden_Cambridge 9
_journal_volume 47
_journal_year 2008
_journal_page_first 7114
_journal_name_full 'Inorg.Chem. '
loop_
_publ_author_name
"C.W.Belock"
"A.Cetin"
"N.V.Barone"
"C.J.Ziegler"
_chemical_name_systematic
;
N,N-bis(2-(2-Pyridyl)ethyl)hydroxylamine
;
_cell_volume   1292.417
_exptl_crystal_density_diffrn 1.25
_exptl_special_details
;
air-sensitive

;
_exptl_crystal_description 'needle'
_exptl_crystal_preparation 'dichloromethane/hexane'
_diffrn_ambient_temperature 100
#These two values have been output from a single CSD field.
_refine_ls_R_factor_gt 0.0413
_refine_ls_wR_factor_gt 0.0413
_symmetry_cell_setting orthorhombic
_symmetry_space_group_name_H-M 'P 21 21 21'
_symmetry_Int_Tables_number 19
loop_
_symmetry_equiv_pos_site_id
_symmetry_equiv_pos_as_xyz
1 x,y,z
2 1/2-x,-y,1/2+z
3 -x,1/2+y,1/2-z
4 1/2+x,1/2-y,-z
_cell_length_a 5.8483(14)
_cell_length_b 14.582(4)
_cell_length_c 15.155(4)
_cell_angle_alpha 90
_cell_angle_beta 90
_cell_angle_gamma 90
_cell_formula_units_Z 4
loop_
_atom_type_symbol
_atom_type_radius_bond
C 0.68
H 0.23
N 0.68
O 0.68
loop_
_atom_site_label
_atom_site_type_symbol
_atom_site_fract_x
_atom_site_fract_y
_atom_site_fract_z
C1 C 0.0311(3) -0.10867(11) 1.08358(11)
C2 C 0.1871(3) -0.14276(11) 1.14304(11)
C3 C 0.3974(3) -0.17162(11) 1.11152(11)
C4 C 0.4416(3) -0.1652(1) 1.02208(10)
C5 C 0.2749(3) -0.13055(10) 0.96573(10)
C6 C 0.3166(3) -0.12265(11) 0.86814(11)
C7 C 0.3845(3) -0.02595(11) 0.84032(11)
C8 C 0.6422(3) 0.10052(11) 0.86431(11)
C9 C 0.8304(3) 0.13883(11) 0.92356(11)
C10 C 0.9076(3) 0.23209(10) 0.89446(10)
C11 C 0.8008(3) 0.31104(12) 0.92456(12)
C12 C 0.8752(4) 0.39597(12) 0.89627(12)
C13 C 1.0542(3) 0.40006(11) 0.83801(11)
C14 C 1.1529(3) 0.31879(12) 0.81130(11)
H1 H -0.113(3) -0.0844(12) 1.1036(12)
H2 H 0.143(3) -0.1468(11) 1.2041(12)
H3 H 0.511(3) -0.1947(12) 1.1545(12)
H4 H 0.587(3) -0.1835(11) 0.9984(11)
H5 H 0.670(4) 0.3047(15) 0.9664(15)
H6 H 0.802(4) 0.4510(16) 0.9206(16)
H7 H 1.109(3) 0.4563(13) 0.8157(12)
H8 H 1.277(3) 0.3200(13) 0.7678(13)
H9 H 0.178(3) -0.141(1) 0.8351(11)
H10 H 0.268(3) 0.0182(11) 0.8545(11)
H11 H 0.506(3) 0.1370(12) 0.8715(11)
H12 H 0.963(3) 0.0982(12) 0.9221(12)
H13 H 0.432(4) -0.1658(12) 0.8485(12)
H14 H 0.422(3) -0.0247(11) 0.7790(11)
H15 H 0.693(3) 0.1050(11) 0.8017(12)
H16 H 0.771(3) 0.1408(11) 0.9847(13)
H17 H 0.846(4) -0.0640(14) 0.9087(14)
N1 N 0.0703(2) -0.10234(9) 0.99617(9)
N2 N 0.5840(2) 0.00683(8) 0.88978(8)
N3 N 1.0848(3) 0.23563(9) 0.83826(9)
O1 O 0.7719(2) -0.05007(8) 0.85973(8)
#END
