
#######################################################################
#
#                 Cambridge Crystallographic Data Centre
#                                CCDC
#
#######################################################################
#
# If this CIF has been generated from an entry in the Cambridge
# Structural Database, then it will include bibliographic, chemical,
# crystal, experimental, refinement or atomic coordinate data resulting
# from the CCDC's data processing and validation procedures.
#
#######################################################################

data_CSD_CIF_IXAHIY
_audit_creation_date 2004-08-24
_audit_creation_method CSD-ConQuest-V1
_database_code_CSD IXAHIY
_database_code_depnum_ccdc_archive 'CCDC 245278'
_chemical_formula_sum 'C14 H17 N3 O1'
_chemical_formula_moiety
;
C14 H17 N3 O1
;
_journal_coeditor_code "IUCr DN6145"
_journal_coden_Cambridge 1370
_journal_volume 60
_journal_year 2004
_journal_page_first o1143
_journal_name_full 'Acta Crystallogr.,Sect.E:Struct.Rep.Online '
loop_
_publ_author_name
"J.K.Bjernemose"
"A.D.Bond"
_chemical_name_systematic
;
N,N-bis(2-(2-Pyridyl)ethyl)hydroxylamine
;
_cell_volume   1313.991
_exptl_crystal_colour 'colorless'
_exptl_crystal_density_diffrn 1.23
_exptl_crystal_description 'block'
_diffrn_ambient_temperature 180
#These two values have been output from a single CSD field.
_refine_ls_R_factor_gt 0.034
_refine_ls_wR_factor_gt 0.034
_symmetry_cell_setting orthorhombic
_symmetry_space_group_name_H-M 'P 21 21 21'
_symmetry_Int_Tables_number 19
loop_
_symmetry_equiv_pos_site_id
_symmetry_equiv_pos_as_xyz
1 x,y,z
2 1/2-x,-y,1/2+z
3 -x,1/2+y,1/2-z
4 1/2+x,1/2-y,-z
_cell_length_a 5.8501(4)
_cell_length_b 14.7210(9)
_cell_length_c 15.2578(10)
_cell_angle_alpha 90
_cell_angle_beta 90
_cell_angle_gamma 90
_cell_formula_units_Z 4
loop_
_atom_type_symbol
_atom_type_radius_bond
C 0.68
H 0.23
N 0.68
O 0.68
loop_
_atom_site_label
_atom_site_type_symbol
_atom_site_fract_x
_atom_site_fract_y
_atom_site_fract_z
O1 O 0.7795(2) 0.44983(8) 0.36003(8)
H1 H 0.853(4) 0.4370(16) 0.4101(16)
N1 N 0.5902(2) 0.50545(8) 0.38993(8)
N2 N 1.0828(3) 0.73507(10) 0.33801(10)
N3 N 0.0778(2) 0.39875(9) 0.49638(9)
C1 C 0.6456(3) 0.59867(11) 0.36448(10)
H2 H 0.50720 0.63700 0.36950
H3 H 0.69620 0.59960 0.30260
C2 C 0.8336(3) 0.63726(11) 0.42245(11)
H4 H 0.77820 0.64020 0.48370
H5 H 0.96720 0.59600 0.42100
C3 C 0.9070(3) 0.73032(11) 0.39383(10)
C4 C 0.7995(4) 0.80765(13) 0.42379(14)
H6 H 0.67520 0.80280 0.46360
C5 C 0.8719(5) 0.89218(13) 0.39612(14)
H7 H 0.80010 0.94580 0.41710
C6 C 1.0480(4) 0.89715(12) 0.33820(12)
H8 H 1.10030 0.95410 0.31690
C7 C 1.1478(4) 0.81789(13) 0.31149(12)
H9 H 1.27160 0.82180 0.27140
C8 C 0.3920(3) 0.47228(11) 0.34149(10)
H10 H 0.42720 0.47230 0.27800
H11 H 0.26140 0.51380 0.35130
C9 C 0.3248(3) 0.37632(11) 0.36984(10)
H12 H 0.18510 0.35780 0.33790
H13 H 0.44860 0.33370 0.35360
C10 C 0.2814(3) 0.3696(1) 0.46696(10)
C11 C 0.4456(3) 0.33506(11) 0.52349(11)
H14 H 0.58890 0.31520 0.50130
C12 C 0.3996(3) 0.32966(11) 0.61220(11)
H15 H 0.51010 0.30580 0.65160
C13 C 0.1908(3) 0.35953(12) 0.64252(11)
H16 H 0.15400 0.35670 0.70310
C14 C 0.0371(3) 0.39360(12) 0.58269(12)
H17 H -0.10620 0.41470 0.60380
#END
