
#######################################################################
#
#                 Cambridge Crystallographic Data Centre
#                                CCDC
#
#######################################################################
#
# If this CIF has been generated from an entry in the Cambridge
# Structural Database, then it will include bibliographic, chemical,
# crystal, experimental, refinement or atomic coordinate data resulting
# from the CCDC's data processing and validation procedures.
#
#######################################################################

data_CSD_CIF_IXEWUD
_audit_creation_date 2004-09-28
_audit_creation_method CSD-ConQuest-V1
_database_code_CSD IXEWUD
_database_code_depnum_ccdc_archive 'CCDC 235984'
_chemical_formula_sum 'C18 H18 N2 O2'
_chemical_formula_moiety
;
C18 H18 N2 O2
;
_journal_coden_Cambridge 1078
_journal_year 2004
_journal_name_full 'CSD Communication(Private Communication) '
loop_
_publ_author_name
"C.Beaudry"
_chemical_name_systematic
;
1,3,5-Trimethyl-8-(4-nitrophenyl)bicyclo(4.2.0)octa-2,4-diene-7-carbonitrile
;
_chemical_melting_point 408
_cell_volume   3206.705
_exptl_crystal_colour 'colorless'
_exptl_crystal_density_diffrn 1.219
_exptl_special_details
;
contribution from College of Chemistry, UC Berkeley, CA 94720, USA

;
_exptl_crystal_description 'tablets'
_diffrn_ambient_temperature 153
#These two values have been output from a single CSD field.
_refine_ls_R_factor_gt 0.1498
_refine_ls_wR_factor_gt 0.1498
_symmetry_cell_setting orthorhombic
_symmetry_space_group_name_H-M 'P b c a'
_symmetry_Int_Tables_number 61
loop_
_symmetry_equiv_pos_site_id
_symmetry_equiv_pos_as_xyz
1 x,y,z
2 1/2-x,1/2+y,z
3 x,1/2-y,1/2+z
4 1/2+x,y,1/2-z
5 -x,-y,-z
6 -1/2+x,-1/2-y,-z
7 -x,-1/2+y,-1/2-z
8 -1/2-x,-y,-1/2+z
_cell_length_a 13.804(1)
_cell_length_b 13.912(2)
_cell_length_c 16.698(2)
_cell_angle_alpha 90
_cell_angle_beta 90
_cell_angle_gamma 90
_cell_formula_units_Z 8
loop_
_atom_type_symbol
_atom_type_radius_bond
C 0.68
H 0.23
N 0.68
O 0.68
loop_
_atom_site_label
_atom_site_type_symbol
_atom_site_fract_x
_atom_site_fract_y
_atom_site_fract_z
O1 O -0.1762(9) -0.0257(9) -0.1125(7)
O2 O -0.1346(9) 0.0854(9) -0.1938(7)
N1 N 0.427(1) 0.174(1) -0.0752(8)
N2 N -0.113(1) 0.024(1) -0.1458(9)
C1 C 0.3358(10) -0.1391(9) -0.0868(7)
C2 C 0.2949(10) -0.1888(9) -0.1638(8)
C3 C 0.3616(10) -0.2009(9) -0.2254(7)
C4 C 0.458(1) -0.173(1) -0.2235(8)
C5 C 0.498(1) -0.1183(9) -0.1671(8)
C6 C 0.429(1) -0.0834(10) -0.0982(7)
C7 C 0.364(1) 0.009(1) -0.1203(8)
C8 C 0.2783(10) -0.0414(8) -0.0700(7)
C9 C 0.336(1) -0.2132(10) -0.0173(8)
C10 C 0.324(1) -0.2552(10) -0.3009(8)
C11 C 0.597(1) -0.087(1) -0.1617(10)
C12 C 0.397(1) 0.100(1) -0.0964(9)
C13 C 0.178(1) -0.0237(9) -0.0904(7)
C14 C 0.108(1) -0.0872(9) -0.0647(7)
C15 C 0.013(1) -0.0721(9) -0.0816(7)
C16 C -0.016(1) 0.006(1) -0.1279(8)
C17 C 0.054(1) 0.068(1) -0.1542(8)
C18 C 0.151(1) 0.0493(10) -0.1373(8)
H1 H 0.22850 -0.20970 -0.16770
H2 H 0.50120 -0.19330 -0.26550
H3 H 0.46390 -0.07420 -0.04890
H4 H 0.34890 0.00840 -0.17480
H5 H 0.28780 -0.02450 -0.01480
H6 H 0.37680 -0.26610 -0.03050
H7 H 0.35890 -0.18390 0.03050
H8 H 0.27180 -0.23660 -0.00840
H9 H 0.37230 -0.26240 -0.34000
H10 H 0.29820 -0.31630 -0.28640
H11 H 0.27060 -0.21840 -0.32470
H12 H 0.61190 -0.04680 -0.20850
H13 H 0.60360 -0.04350 -0.11590
H14 H 0.63930 -0.13630 -0.15800
H15 H 0.12710 -0.14330 -0.03480
H16 H -0.03520 -0.11520 -0.06170
H17 H 0.03800 0.12390 -0.18540
H18 H 0.19910 0.09150 -0.15980
#END
