
#######################################################################
#
#                 Cambridge Crystallographic Data Centre
#                                CCDC
#
#######################################################################
#
# If this CIF has been generated from an entry in the Cambridge
# Structural Database, then it will include bibliographic, chemical,
# crystal, experimental, refinement or atomic coordinate data resulting
# from the CCDC's data processing and validation procedures.
#
#######################################################################

data_CSD_CIF_IXOFIK
_audit_creation_date 2005-10-07
_audit_creation_method CSD-ConQuest-V1
_database_code_CSD IXOFIK
_database_code_depnum_ccdc_archive 'CCDC 166186'
_chemical_formula_sum 'C25 H37 N1 O14'
_chemical_formula_moiety
;
C25 H37 N1 O14
;
_journal_coden_Cambridge 24
_journal_volume 46
_journal_year 2005
_journal_page_first 3673
_journal_name_full 'Tetrahedron Lett. '
loop_
_publ_author_name
"M.V.Berrocal"
"M.V.Gil"
"E.Roman"
"J.A.Serrano"
"M.B.Hursthouse"
"M.E.Light"
_chemical_name_systematic
;
(1R,2S,4R)-2-Acetyl-4-(2',3',4',5',6'-penta-O-acetyl-1'-deoxy-D-galacto-hexito
l-1'-yl)-1-methyl-4-nitrocyclohexanol
;
_chemical_melting_point 440.15
_cell_volume   1432.522
_exptl_crystal_colour 'colorless'
_exptl_crystal_density_diffrn 1.332
_exptl_crystal_preparation 'ethanol'
_diffrn_ambient_temperature 120
#These two values have been output from a single CSD field.
_refine_ls_R_factor_gt 0.1081
_refine_ls_wR_factor_gt 0.1081
_symmetry_cell_setting monoclinic
_symmetry_space_group_name_H-M 'P 21'
_symmetry_Int_Tables_number 4
loop_
_symmetry_equiv_pos_site_id
_symmetry_equiv_pos_as_xyz
1 x,y,z
2 -x,1/2+y,-z
_cell_length_a 8.9593(1)
_cell_length_b 11.7185(2)
_cell_length_c 13.7627(2)
_cell_angle_alpha 90
_cell_angle_beta 97.517(3)
_cell_angle_gamma 90
_cell_formula_units_Z 2
loop_
_atom_type_symbol
_atom_type_radius_bond
C 0.68
H 0.23
N 0.68
O 0.68
loop_
_atom_site_label
_atom_site_type_symbol
_atom_site_fract_x
_atom_site_fract_y
_atom_site_fract_z
C1 C 0.2851(8) 0.0478(6) 0.1872(6)
C2 C 0.4542(8) 0.0658(7) 0.1895(6)
H1 H 0.50850 0.00460 0.22920
H2 H 0.48260 0.13960 0.22170
C3 C 0.5039(8) 0.0654(7) 0.0856(6)
H3 H 0.48180 -0.01210 0.05680
C4 C 0.6727(9) 0.0807(8) 0.0992(6)
C5 C 0.7645(10) -0.0252(9) 0.1151(8)
H4 H 0.87170 -0.00540 0.12260
H5 H 0.74110 -0.07610 0.05860
H6 H 0.74130 -0.06370 0.17450
C6 C 0.4183(9) 0.1518(7) 0.0169(6)
C7 C 0.4636(10) 0.1421(7) -0.0866(6)
H7 H 0.40780 0.19850 -0.12950
H8 H 0.44020 0.06530 -0.11230
H9 H 0.57190 0.15630 -0.08390
C8 C 0.2488(8) 0.1293(7) 0.0120(6)
H10 H 0.19280 0.18850 -0.02920
H11 H 0.22470 0.05430 -0.01920
C9 C 0.1979(9) 0.1302(7) 0.1141(6)
H12 H 0.08960 0.11040 0.10760
H13 H 0.20920 0.20860 0.14100
C10 C 0.2263(8) 0.0587(6) 0.2867(6)
H14 H 0.11950 0.03460 0.27770
H15 H 0.22840 0.14060 0.30450
C11 C 0.3070(8) -0.0075(5) 0.3748(5)
H16 H 0.41490 0.01650 0.38720
C12 C 0.2307(7) 0.0141(6) 0.4662(5)
H17 H 0.25360 0.09350 0.49030
C13 C -0.0184(8) 0.0965(6) 0.4395(6)
C14 C -0.1778(8) 0.0712(8) 0.3996(7)
H18 H -0.18790 -0.01010 0.38330
H19 H -0.20660 0.11680 0.34040
H20 H -0.24350 0.09020 0.44880
C15 C 0.4292(8) -0.1880(7) 0.3527(6)
C16 C 0.3972(9) -0.3105(6) 0.3342(7)
H21 H 0.28810 -0.32280 0.32450
H22 H 0.44270 -0.35540 0.39050
H23 H 0.43960 -0.33440 0.27530
C17 C 0.2766(7) -0.0694(6) 0.5483(5)
H24 H 0.25550 -0.14910 0.52430
C18 C 0.5256(8) -0.1491(7) 0.5872(5)
C19 C 0.6875(8) -0.1178(7) 0.6083(7)
H25 H 0.69820 -0.03480 0.60370
H26 H 0.74370 -0.15480 0.56050
H27 H 0.72730 -0.14310 0.67450
C20 C 0.1968(8) -0.0475(6) 0.6394(6)
H28 H 0.08810 -0.06820 0.62300
C21 C 0.0776(8) 0.1257(6) 0.6807(6)
C22 C 0.1029(10) 0.2510(6) 0.7001(7)
H29 H 0.20890 0.26960 0.69740
H30 H 0.07680 0.26980 0.76520
H31 H 0.03930 0.29530 0.65040
C23 C 0.2616(8) -0.1138(6) 0.7297(5)
H32 H 0.25180 -0.19670 0.71670
H33 H 0.36980 -0.09570 0.74640
C24 C 0.0451(9) -0.1349(8) 0.8107(6)
C25 C -0.0316(10) -0.0901(9) 0.8928(7)
H34 H 0.03380 -0.03430 0.93050
H35 H -0.05250 -0.15330 0.93560
H36 H -0.12640 -0.05340 0.86610
N1 N 0.2448(7) -0.0732(5) 0.1517(5)
O1 O 0.1085(6) -0.0993(5) 0.1340(5)
O2 O 0.3439(6) -0.1450(4) 0.1412(4)
O3 O 0.7303(7) 0.1754(6) 0.0974(5)
O4 O 0.4428(7) 0.2673(4) 0.0531(4)
O5 O 0.0694(5) 0.0009(4) 0.4420(4)
O6 O 0.0287(6) 0.1887(4) 0.4658(4)
O7 O 0.2976(5) -0.1283(4) 0.3533(4)
O8 O 0.5506(5) -0.1422(4) 0.3674(4)
O9 O 0.4392(5) -0.0536(4) 0.5735(4)
O10 O 0.4736(5) -0.2446(4) 0.5865(5)
O11 O 0.2070(5) 0.0733(4) 0.6617(4)
O12 O -0.0406(6) 0.0763(5) 0.6790(5)
O13 O 0.1821(6) -0.0839(4) 0.8099(4)
O14 O -0.0020(6) -0.2063(5) 0.7511(5)
#END
