
#######################################################################
#
#                 Cambridge Crystallographic Data Centre
#                                CCDC
#
#######################################################################
#
# If this CIF has been generated from an entry in the Cambridge
# Structural Database, then it will include bibliographic, chemical,
# crystal, experimental, refinement or atomic coordinate data resulting
# from the CCDC's data processing and validation procedures.
#
#######################################################################

data_CSD_CIF_IXOGAD02
_audit_creation_date 2013-11-08
_audit_creation_method CSD-ConQuest-V1
_database_code_CSD IXOGAD02
_database_code_depnum_ccdc_archive 'CCDC 968365'
_chemical_formula_sum 'C12 H8 N2 O5'
_chemical_formula_moiety
;
C12 H8 N2 O5
;
_journal_coeditor_code "IUCr ds2235"
_journal_coden_Cambridge 1370
_journal_volume 69
_journal_year 2013
_journal_page_first o1747
_journal_name_full 'Acta Crystallogr.,Sect.E:Struct.Rep.Online '
loop_
_publ_author_name
"M.Naz"
"Z.Akhter"
"V.McKee"
"A.Nadeem"
_chemical_name_systematic
;
1-Nitro-4-(4-nitrophenoxy)benzene
;
_chemical_name_common
;
bis(4-nitrophenyl) ether
;
_chemical_melting_point 416
_cell_volume   1147.371
_exptl_crystal_colour 'yellow'
_exptl_crystal_density_diffrn 1.506
_exptl_special_details
;
P21/c polymorph

;
_exptl_crystal_description 'block'
_diffrn_ambient_temperature 150
#These two values have been output from a single CSD field.
_refine_ls_R_factor_gt 0.0387
_refine_ls_wR_factor_gt 0.0387
_symmetry_cell_setting monoclinic
_symmetry_space_group_name_H-M 'P 21/c'
_symmetry_Int_Tables_number 14
loop_
_symmetry_equiv_pos_site_id
_symmetry_equiv_pos_as_xyz
1 x,y,z
2 -x,1/2+y,1/2-z
3 -x,-y,-z
4 x,-1/2-y,-1/2+z
_cell_length_a 8.1114(5)
_cell_length_b 11.8942(7)
_cell_length_c 12.3970(7)
_cell_angle_alpha 90
_cell_angle_beta 106.402(1)
_cell_angle_gamma 90
_cell_formula_units_Z 4
loop_
_atom_type_symbol
_atom_type_radius_bond
C 0.68
H 0.23
N 0.68
O 0.68
loop_
_atom_site_label
_atom_site_type_symbol
_atom_site_fract_x
_atom_site_fract_y
_atom_site_fract_z
O1 O 0.44094(13) 0.19652(8) 0.09931(8)
C1 C 0.32514(17) 0.12641(11) 0.02667(11)
C2 C 0.3348(2) 0.01415(11) 0.05873(12)
H1 H 0.41000 -0.00820 0.12900
C3 C 0.2350(2) -0.06452(11) -0.01166(12)
H2 H 0.24060 -0.14160 0.00920
C4 C 0.12673(16) -0.0294(1) -0.11323(11)
N1 N 0.02465(15) -0.11328(10) -0.18957(11)
O2 O -0.07448(13) -0.08066(10) -0.27901(11)
O3 O 0.04440(16) -0.21295(9) -0.16171(11)
C5 C 0.11403(17) 0.08250(11) -0.14550(12)
H3 H 0.03680 0.10480 -0.21510
C6 C 0.21520(17) 0.16134(10) -0.07512(11)
H4 H 0.20950 0.23840 -0.09610
C7 C 0.41096(18) 0.31038(11) 0.10392(11)
C8 C 0.55556(17) 0.37841(12) 0.12879(11)
H5 H 0.66610 0.34640 0.13840
C9 C 0.53798(17) 0.49294(11) 0.13949(10)
H6 H 0.63570 0.54080 0.15520
C10 C 0.37637(17) 0.53685(11) 0.12704(10)
N2 N 0.35664(16) 0.65877(9) 0.13676(9)
O4 O 0.21649(15) 0.69525(9) 0.13919(11)
O5 O 0.48044(14) 0.71924(8) 0.14138(9)
C11 C 0.23130(18) 0.46974(12) 0.10442(12)
H7 H 0.12150 0.50180 0.09750
C12 C 0.24867(18) 0.35511(12) 0.09212(13)
H8 H 0.15070 0.30750 0.07580
#END
