
#######################################################################
#
#                 Cambridge Crystallographic Data Centre
#                                CCDC
#
#######################################################################
#
# If this CIF has been generated from an entry in the Cambridge
# Structural Database, then it will include bibliographic, chemical,
# crystal, experimental, refinement or atomic coordinate data resulting
# from the CCDC's data processing and validation procedures.
#
#######################################################################

data_CSD_CIF_IXOGAD
_audit_creation_date 2004-09-27
_audit_creation_method CSD-ConQuest-V1
_database_code_CSD IXOGAD
_database_code_depnum_ccdc_archive 'CCDC 176978'
_chemical_formula_sum 'C12 H8 N2 O5'
_chemical_formula_moiety
;
C12 H8 N2 O5
;
_journal_coden_Cambridge 1078
_journal_year 2004
_journal_name_full 'CSD Communication(Private Communication) '
loop_
_publ_author_name
"M.Meciarova"
"S.Toma"
"J.Podlesna"
"M.Kiripolsky"
"I.Cisarova"
_chemical_name_systematic
;
bis(4-Nitrophenyl) ether
;
_cell_volume   1135.919
_exptl_crystal_colour 'yellow'
_exptl_crystal_density_diffrn 1.522
_exptl_special_details
;
space group no. 15 polymorph
contribution from Department of Inorganic Chemistry, Faculty of Science, 
Charles University, Hlavova 2030, 128 40 Praha 2, Czech Republic
;
_exptl_crystal_description 'plate'
_diffrn_ambient_temperature 150
#These two values have been output from a single CSD field.
_refine_ls_R_factor_gt 0.0439
_refine_ls_wR_factor_gt 0.0439
_symmetry_cell_setting monoclinic
_symmetry_space_group_name_H-M 'C 2/c'
_symmetry_Int_Tables_number 15
loop_
_symmetry_equiv_pos_site_id
_symmetry_equiv_pos_as_xyz
1 x,y,z
2 1/2+x,1/2+y,z
3 -x,y,1/2-z
4 1/2-x,1/2+y,1/2-z
5 -x,-y,-z
6 -1/2-x,-1/2-y,-z
7 x,-y,-1/2+z
8 -1/2+x,-1/2-y,-1/2+z
_cell_length_a 12.4860(5)
_cell_length_b 9.3010(4)
_cell_length_c 9.8180(4)
_cell_angle_alpha 90
_cell_angle_beta 94.959(2)
_cell_angle_gamma 90
_cell_formula_units_Z 4
loop_
_atom_type_symbol
_atom_type_radius_bond
C 0.68
H 0.23
N 0.68
O 0.68
loop_
_atom_site_label
_atom_site_type_symbol
_atom_site_fract_x
_atom_site_fract_y
_atom_site_fract_z
C1 C 0.04026(12) 0.38122(15) 0.86462(14)
C2 C 0.12784(11) 0.44175(15) 0.94119(16)
H1 H 0.15330 0.53890 0.90540
C3 C 0.16750(11) 0.37654(15) 1.06140(16)
H2 H 0.22950 0.42420 1.11720
C4 C 0.11873(11) 0.25167(14) 1.10203(14)
C5 C 0.03055(11) 0.19178(15) 1.02735(15)
H3 H -0.00080 0.09590 1.06290
C6 C -0.00953(11) 0.25713(15) 0.90745(15)
H4 H -0.07390 0.20450 0.85010
N1 N 0.16171(9) 0.17854(14) 1.22672(13)
O1 O 0.00000 0.45615(15) 0.75000
O2 O 0.22782(9) 0.24198(13) 1.30480(11)
O3 O 0.13040(9) 0.05572(13) 1.24743(12)
C1B C -0.04026(12) 0.38122(15) 0.63538(14)
C2B C -0.12784(11) 0.44175(15) 0.55881(16)
H1B H -0.15330 0.53890 0.59460
C3B C -0.16750(11) 0.37654(15) 0.43860(16)
H2B H -0.22950 0.42420 0.38280
C4B C -0.11873(11) 0.25167(14) 0.39797(14)
C5B C -0.03055(11) 0.19178(15) 0.47265(15)
H3B H 0.00080 0.09590 0.43710
C6B C 0.00953(11) 0.25713(15) 0.59255(15)
H4B H 0.07390 0.20450 0.64990
N1B N -0.16171(9) 0.17854(14) 0.27328(13)
O2B O -0.22782(9) 0.24198(13) 0.19520(11)
O3B O -0.13040(9) 0.05572(13) 0.25257(12)
#END
