
#######################################################################
#
#                 Cambridge Crystallographic Data Centre
#                                CCDC
#
#######################################################################
#
# If this CIF has been generated from an entry in the Cambridge
# Structural Database, then it will include bibliographic, chemical,
# crystal, experimental, refinement or atomic coordinate data resulting
# from the CCDC's data processing and validation procedures.
#
#######################################################################

data_CSD_CIF_IXOZAY02
_audit_creation_date 2016-10-13
_audit_creation_method CSD-ConQuest-V1
_database_code_CSD IXOZAY02
_database_code_depnum_ccdc_archive 'CCDC 1504601'
_chemical_formula_sum 'C18 H19 N1 O3'
_chemical_formula_moiety
;
C18 H19 N1 O3
;
_journal_coden_Cambridge 24
_journal_volume 57
_journal_year 2016
_journal_page_first 5201
_journal_name_full 'Tetrahedron Lett. '
loop_
_publ_author_name
"Ling Ni"
"J.Schinnerl"
"Mei-fen Bao"
"Bing-jie Zhang"
"Jing Wu"
"Xiang-hai Cai"
_chemical_name_systematic
;
12-methoxy-5,6,9,10-tetrahydrodibenzo[d,f]azecin-13-ol 7-oxide
;
_cell_volume   2918.193
_exptl_crystal_colour 'colorless'
_exptl_crystal_density_diffrn 1.354
_exptl_crystal_description 'prism'
_diffrn_ambient_temperature 100
#These two values have been output from a single CSD field.
_refine_ls_R_factor_gt 0.0365
_refine_ls_wR_factor_gt 0.0365
_symmetry_cell_setting orthorhombic
_symmetry_space_group_name_H-M 'P c c n'
_symmetry_Int_Tables_number 56
loop_
_symmetry_equiv_pos_site_id
_symmetry_equiv_pos_as_xyz
1 x,y,z
2 1/2+x,-y,1/2-z
3 -x,1/2+y,1/2-z
4 1/2-x,1/2-y,z
5 -x,-y,-z
6 -1/2-x,y,-1/2+z
7 x,-1/2-y,-1/2+z
8 -1/2+x,-1/2+y,-z
_cell_length_a 15.0206(2)
_cell_length_b 15.7775(3)
_cell_length_c 12.3137(2)
_cell_angle_alpha 90
_cell_angle_beta 90
_cell_angle_gamma 90
_cell_formula_units_Z 8
loop_
_atom_type_symbol
_atom_type_radius_bond
C 0.68
H 0.23
N 0.68
O 0.68
loop_
_atom_site_label
_atom_site_type_symbol
_atom_site_fract_x
_atom_site_fract_y
_atom_site_fract_z
O1 O 0.21599(6) 0.40979(6) 0.84339(8)
O2 O 0.18952(6) 0.52343(6) 0.99760(8)
H1 H 0.18700 0.56310 1.04290
O3 O 0.32269(6) 0.64524(6) 0.64608(8)
N1 N 0.39599(7) 0.68829(7) 0.66569(9)
C1 C 0.22363(9) 0.36114(9) 0.74664(13)
H2 H 0.23030 0.39920 0.68430
H3 H 0.17000 0.32650 0.73730
H4 H 0.27590 0.32410 0.75170
C2 C 0.28289(8) 0.46759(7) 0.86043(11)
C3 C 0.36234(8) 0.46838(7) 0.8044(1)
H5 H 0.37260 0.42660 0.75020
C4 C 0.42843(8) 0.52889(7) 0.82494(10)
C5 C 0.51156(8) 0.52586(7) 0.75551(11)
H6 H 0.52980 0.46610 0.74560
H7 H 0.56040 0.55580 0.79360
C6 C 0.49707(8) 0.56703(8) 0.64284(11)
H8 H 0.55160 0.56140 0.59820
H9 H 0.44750 0.53850 0.60440
C7 C 0.47569(8) 0.65793(8) 0.65965(10)
H10 H 0.52400 0.69650 0.66640
C8 C 0.38146(9) 0.77452(8) 0.70979(11)
H11 H 0.32650 0.79890 0.67830
H12 H 0.43200 0.81150 0.68940
C9 C 0.26748(8) 0.52791(8) 0.94226(11)
C10 C 0.33182(8) 0.58922(7) 0.96098(11)
H13 H 0.32140 0.63100 1.01510
C11 C 0.41192(8) 0.59142(7) 0.90243(10)
C12 C 0.37317(8) 0.77103(8) 0.83337(11)
H14 H 0.35430 0.82740 0.86000
H15 H 0.32590 0.73000 0.85270
C13 C 0.45827(8) 0.74592(8) 0.89103(10)
C14 C 0.47659(8) 0.66204(8) 0.92297(10)
C15 C 0.55749(8) 0.64421(8) 0.97424(10)
H16 H 0.56960 0.58790 0.99710
C16 C 0.62059(8) 0.70708(8) 0.99245(11)
H17 H 0.67520 0.69360 1.02740
C17 C 0.60347(8) 0.78955(8) 0.95943(11)
H18 H 0.64650 0.83280 0.97040
C18 C 0.52266(8) 0.80813(8) 0.91012(10)
H19 H 0.51080 0.86490 0.88870
#END
