
#######################################################################
#
#                 Cambridge Crystallographic Data Centre
#                                CCDC
#
#######################################################################
#
# If this CIF has been generated from an entry in the Cambridge
# Structural Database, then it will include bibliographic, chemical,
# crystal, experimental, refinement or atomic coordinate data resulting
# from the CCDC's data processing and validation procedures.
#
#######################################################################

data_CSD_CIF_IXUQID01
_audit_creation_date 2016-10-13
_audit_creation_method CSD-ConQuest-V1
_database_code_CSD IXUQID01
_database_code_depnum_ccdc_archive 'CCDC 1425965'
_chemical_formula_sum 'C30 H24 N4 O8'
_chemical_formula_moiety
;
C30 H24 N4 O8
;
_journal_coden_Cambridge 119
_journal_volume 1130
_journal_year 2017
_journal_page_first 103
_journal_name_full 'J.Mol.Struct. '
loop_
_publ_author_name
"Xian-Rui Zhang"
"Sai-Fei He"
"Shuo Zhang"
"Jing Li"
"Shan Li"
"Jin-Song Liu"
"Lei Zhang"
_chemical_name_systematic
;
Azilsartan medoxomil
;
_chemical_name_common
;
(5-methyl-2-oxo-1,3-dioxol-4-yl)methyl 
2-ethoxy-1-((2'-(5-oxo-4,5-dihydro-1,2,4-oxadiazol-3-yl)biphenyl-4-yl)methyl)-
1H-benzimidazole-7-carboxylate
;
_cell_volume   5923.850
_exptl_crystal_colour 'colorless'
_exptl_crystal_density_diffrn 1.275
_exptl_special_details
;
polymorph B

;
_exptl_crystal_description 'needle'
_diffrn_ambient_temperature 298
_refine_special_details
;
The structure is disordered.

;
#These two values have been output from a single CSD field.
_refine_ls_R_factor_gt 0.0502
_refine_ls_wR_factor_gt 0.0502
_symmetry_cell_setting monoclinic
_symmetry_space_group_name_H-M 'C 2/c'
_symmetry_Int_Tables_number 15
loop_
_symmetry_equiv_pos_site_id
_symmetry_equiv_pos_as_xyz
1 x,y,z
2 -x,y,1/2-z
3 1/2+x,1/2+y,z
4 1/2-x,1/2+y,1/2-z
5 -x,-y,-z
6 x,-y,-1/2+z
7 -1/2-x,-1/2-y,-z
8 -1/2+x,-1/2-y,-1/2+z
_cell_length_a 26.7661(12)
_cell_length_b 10.7467(5)
_cell_length_c 20.7113(8)
_cell_angle_alpha 90
_cell_angle_beta 96.097(4)
_cell_angle_gamma 90
_cell_formula_units_Z 8
loop_
_atom_type_symbol
_atom_type_radius_bond
C 0.68
H 0.23
N 0.68
O 0.68
loop_
_atom_site_label
_atom_site_type_symbol
_atom_site_fract_x
_atom_site_fract_y
_atom_site_fract_z
C1 C 0.34066(10) 0.3056(2) 0.04795(11)
C2 C 0.32292(8) 0.5059(2) 0.04838(10)
C3 C 0.32968(9) 0.6415(2) 0.04886(11)
C4 C 0.31528(10) 0.7051(3) -0.00840(12)
H1 H 0.30000 0.66260 -0.04430
C5 C 0.32361(11) 0.8311(3) -0.01194(14)
H2 H 0.31420 0.87380 -0.05040
C6 C 0.34584(12) 0.8937(3) 0.04122(15)
H3 H 0.35150 0.97890 0.03860
C7 C 0.35996(11) 0.8315(2) 0.09894(13)
H4 H 0.37500 0.87530 0.13460
C8 C 0.35185(9) 0.7037(2) 0.10403(11)
C9 C 0.36574(9) 0.6375(2) 0.16648(11)
C10 C 0.33080(9) 0.5623(2) 0.19341(11)
H5 H 0.29870 0.55290 0.17190
C11 C 0.41329(9) 0.6490(2) 0.19972(11)
H6 H 0.43700 0.69970 0.18300
C12 C 0.34340(9) 0.5016(2) 0.25188(11)
H7 H 0.31940 0.45370 0.26970
C13 C 0.42604(9) 0.5861(3) 0.25756(11)
H8 H 0.45830 0.59420 0.27870
C14 C 0.39125(9) 0.5112(2) 0.28430(11)
C15 C 0.40365(9) 0.4366(3) 0.34603(11)
H9 H 0.37590 0.44280 0.37240
H10 H 0.40740 0.34970 0.33480
C16 C 0.24564(11) 0.7559(3) 0.22069(13)
C17 C 0.27755(10) 0.7735(2) 0.32343(12)
C18 C 0.24738(9) 0.6760(3) 0.31998(11)
C19 C 0.23126(11) 0.5841(3) 0.36587(13)
H11 H 0.24730 0.60140 0.40860
H12 H 0.24050 0.50220 0.35290
H13 H 0.19550 0.58850 0.36620
C20 C 0.30711(9) 0.8377(3) 0.37773(13)
H14 H 0.30050 0.92630 0.37400
H15 H 0.29570 0.80960 0.41820
C21 C 0.37726(10) 0.7061(3) 0.40440(11)
C22 C 0.43263(9) 0.7017(3) 0.41981(11)
C23 C 0.45830(11) 0.8029(3) 0.44906(14)
C24 C 0.50888(11) 0.7964(3) 0.47191(14)
C25 C 0.53653(10) 0.6898(3) 0.46580(12)
C26 C 0.51246(9) 0.5886(3) 0.43489(11)
C27 C 0.46056(9) 0.5939(2) 0.41312(11)
C28 C 0.49401(10) 0.4149(3) 0.38876(12)
C29 C 0.53957(14) 0.2318(4) 0.3683(2)
C30 C 0.5282(6) 0.1064(13) 0.3522(10)
H16 H 0.51410 0.10130 0.30770
H17 H 0.50440 0.07530 0.37980
H18 H 0.55830 0.05760 0.35830
H19 H 0.3926(12) 0.433(3) 0.0656(15)
H20 H 0.4403(11) 0.877(3) 0.4555(13)
H21 H 0.5236(11) 0.867(3) 0.4931(14)
H22 H 0.5712(11) 0.684(3) 0.4827(13)
N1 N 0.36088(8) 0.42139(19) 0.05889(9)
N2 N 0.27946(8) 0.4530(2) 0.03501(10)
N3 N 0.44966(8) 0.4788(2) 0.38424(9)
N4 N 0.53253(8) 0.4740(2) 0.41905(9)
O1 O 0.36031(7) 0.20465(17) 0.04805(10)
O2 O 0.29025(7) 0.32238(17) 0.03538(8)
O3 O 0.34884(6) 0.62214(18) 0.41411(8)
O4 O 0.36123(6) 0.81767(18) 0.38082(8)
O5 O 0.49290(7) 0.30248(19) 0.36231(9)
O6 O 0.27707(7) 0.82612(17) 0.26090(8)
O7 O 0.22652(7) 0.66332(18) 0.25489(8)
O8 O 0.23499(8) 0.7741(2) 0.16386(9)
H23 H 0.5545(11) 0.241(3) 0.4148(16)
H24 H 0.5621(12) 0.280(3) 0.3452(17)
C31? C 0.5409(14) 0.139(3) 0.320(2)
H25? H 0.52810 0.17250 0.27860
H26? H 0.52060 0.06960 0.33030
H27? H 0.57490 0.11180 0.31840
C32? C 0.5700(3) 0.2597(9) 0.3133(4)
H28? H 0.58030 0.34530 0.31540
H29? H 0.54990 0.24460 0.27280
H30? H 0.59910 0.20710 0.31640
#END
