
#######################################################################
#
#                 Cambridge Crystallographic Data Centre
#                                CCDC
#
#######################################################################
#
# If this CIF has been generated from an entry in the Cambridge
# Structural Database, then it will include bibliographic, chemical,
# crystal, experimental, refinement or atomic coordinate data resulting
# from the CCDC's data processing and validation procedures.
#
#######################################################################

data_CSD_CIF_IYAJAV
_audit_creation_date 2016-10-13
_audit_creation_method CSD-ConQuest-V1
_database_code_CSD IYAJAV
_database_code_depnum_ccdc_archive 'CCDC 1474481'
_chemical_formula_sum 'C18 H16 N4 O5'
_chemical_formula_moiety
;
C18 H16 N4 O5
;
_journal_coden_Cambridge 493
_journal_volume 125
_journal_year 2017
_journal_page_first 751
_journal_name_full 'Eur.J.Med.Chem. '
loop_
_publ_author_name
"Zhibing Weng"
"Xiaoxia Shao"
"D.Graf"
"Chunguang Wang"
"C.D.Klein"
"Jing Wang"
"Guo-Chun Zhou"
_chemical_name_systematic
;
(3R,7\aS)-2,3-bis(4-nitrophenyl)hexahydro-1H-pyrrolo[1,2-c]imidazol-1-one
;
_chemical_melting_point 398.45
_cell_volume   1752.734
_exptl_crystal_density_diffrn 1.396
_exptl_special_details
;
Melting point range 398.45-415.25K
Antiviral activity against wild-type DENV-2 virus
;
_diffrn_ambient_temperature 293
#These two values have been output from a single CSD field.
_refine_ls_R_factor_gt 0.0518
_refine_ls_wR_factor_gt 0.0518
_symmetry_cell_setting monoclinic
_symmetry_space_group_name_H-M 'C 2'
_symmetry_Int_Tables_number 5
loop_
_symmetry_equiv_pos_site_id
_symmetry_equiv_pos_as_xyz
1 x,y,z
2 -x,y,-z
3 1/2+x,1/2+y,z
4 1/2-x,1/2+y,-z
_cell_length_a 31.746(6)
_cell_length_b 6.9740(14)
_cell_length_c 8.1230(16)
_cell_angle_alpha 90
_cell_angle_beta 102.94(3)
_cell_angle_gamma 90
_cell_formula_units_Z 4
loop_
_atom_type_symbol
_atom_type_radius_bond
C 0.68
H 0.23
N 0.68
O 0.68
loop_
_atom_site_label
_atom_site_type_symbol
_atom_site_fract_x
_atom_site_fract_y
_atom_site_fract_z
O1 O 0.68410(12) 0.8079(8) 1.0202(4)
C1 C 0.65736(14) 0.7214(10) 0.9187(5)
N1 N 0.59719(11) 0.5240(8) 0.8041(4)
N2 N 0.65973(10) 0.6664(7) 0.7590(4)
O2 O 0.50369(16) 1.2280(9) 0.2277(7)
C2 C 0.61314(15) 0.6560(11) 0.9422(6)
H1 H 0.59360 0.76560 0.93720
O3 O 0.46913(13) 0.9773(8) 0.1185(5)
N3 N 0.49908(15) 1.0538(9) 0.2170(6)
C3 C 0.61510(19) 0.5386(16) 1.1044(7)
H2 H 0.64450 0.53210 1.17100
H3 H 0.59700 0.59630 1.17250
N4 N 0.80520(13) 0.7034(7) 0.4727(6)
O4 O 0.84071(10) 0.7215(8) 0.5653(5)
C4 C 0.5990(2) 0.3435(14) 1.0473(7)
H4 H 0.56820 0.33210 1.04080
H5 H 0.61420 0.24530 1.12230
O5 O 0.79962(12) 0.6899(9) 0.3194(5)
C5 C 0.60888(19) 0.3294(11) 0.8751(6)
H6 H 0.63920 0.30190 0.88290
H7 H 0.59150 0.23120 0.80740
C6 C 0.61857(12) 0.5768(8) 0.6698(5)
H8 H 0.62470 0.46110 0.61090
C7 C 0.58909(13) 0.7090(9) 0.5456(5)
C8 C 0.55324(13) 0.6264(8) 0.4399(5)
H9 H 0.54910 0.49450 0.44280
C9 C 0.52393(14) 0.7374(9) 0.3315(6)
H10 H 0.49990 0.68240 0.26070
C10 C 0.53079(15) 0.9313(10) 0.3294(6)
C11 C 0.56667(16) 1.0155(10) 0.4308(7)
H11 H 0.57130 1.14690 0.42580
C12 C 0.59547(15) 0.9017(9) 0.5393(6)
H12 H 0.61960 0.95680 0.60940
C13 C 0.69625(12) 0.6822(8) 0.6881(5)
C14 C 0.69109(13) 0.6892(8) 0.5149(5)
H13 H 0.66340 0.68920 0.44570
C15 C 0.72678(13) 0.6961(8) 0.4431(5)
H14 H 0.72330 0.70170 0.32650
C16 C 0.76735(13) 0.6946(8) 0.5473(6)
C17 C 0.77335(13) 0.6867(10) 0.7194(6)
H15 H 0.80110 0.68590 0.78740
C18 C 0.73787(13) 0.6798(10) 0.7911(6)
H16 H 0.74170 0.67360 0.90790
#END
