
#######################################################################
#
#                 Cambridge Crystallographic Data Centre
#                                CCDC
#
#######################################################################
#
# If this CIF has been generated from an entry in the Cambridge
# Structural Database, then it will include bibliographic, chemical,
# crystal, experimental, refinement or atomic coordinate data resulting
# from the CCDC's data processing and validation procedures.
#
#######################################################################

data_CSD_CIF_IYAYAK
_audit_creation_date 2016-10-13
_audit_creation_method CSD-ConQuest-V1
_database_code_CSD IYAYAK
_database_code_depnum_ccdc_archive 'CCDC 1448468'
_chemical_formula_sum 'C5 H12 N4 O6'
_chemical_formula_moiety
;
C5 H12 N4 O6
;
_journal_coden_Cambridge 233
_journal_volume 61
_journal_year 2016
_journal_page_first 712
_journal_name_full 'Zh.Neorg.Khim.(Russ.)(Russ.J.Inorg.Chem.) '
loop_
_publ_author_name
"O.V.Kovalchukova"
"N.Namichemazi"
"A.I.Stash"
"S.B.Strashnova"
"I.N.Zuzin"
_chemical_name_systematic
;
bis(methoxy-N,N,O-azoxy)bis(hydroxymethyl)methane
;
_cell_volume    515.828
_exptl_crystal_colour 'colorless'
_exptl_crystal_density_diffrn 1.443
_exptl_crystal_description 'plate'
_diffrn_ambient_temperature 293
#These two values have been output from a single CSD field.
_refine_ls_R_factor_gt 0.0406
_refine_ls_wR_factor_gt 0.0406
_symmetry_cell_setting triclinic
_symmetry_space_group_name_H-M 'P -1'
_symmetry_Int_Tables_number 2
loop_
_symmetry_equiv_pos_site_id
_symmetry_equiv_pos_as_xyz
1 x,y,z
2 -x,-y,-z
_cell_length_a 6.9560(14)
_cell_length_b 9.1170(18)
_cell_length_c 9.2920(19)
_cell_angle_alpha 66.78(3)
_cell_angle_beta 72.51(3)
_cell_angle_gamma 80.59(3)
_cell_formula_units_Z 2
loop_
_atom_type_symbol
_atom_type_radius_bond
C 0.68
H 0.23
N 0.68
O 0.68
loop_
_atom_site_label
_atom_site_type_symbol
_atom_site_fract_x
_atom_site_fract_y
_atom_site_fract_z
O1 O 0.4285(2) 0.10936(19) 0.7082(2)
O2 O 0.8104(2) 0.35080(18) 0.39959(16)
O3 O 0.9642(2) 0.38493(17) 0.68696(18)
O4 O 0.7310(2) 0.61727(17) 0.70511(19)
O5 O 0.6622(2) 0.12669(17) 0.97385(16)
O6 O 0.8618(2) -0.12298(16) 0.96481(16)
N1 N 0.7803(2) 0.38451(18) 0.69435(18)
N2 N 0.6458(3) 0.4941(2) 0.7045(2)
N3 N 0.7455(2) 0.10968(18) 0.83961(18)
N4 N 0.8510(2) -0.01081(19) 0.81772(19)
C1 C 0.7105(3) 0.2409(2) 0.6893(2)
C2 C 0.4841(3) 0.2542(2) 0.6996(2)
H1 H 0.40680 0.27690 0.79510
H2 H 0.45630 0.34070 0.60480
C3 C 0.8419(3) 0.2156(2) 0.5339(2)
H3 H 0.98310 0.20240 0.53380
H4 H 0.80450 0.12030 0.52850
C4 C 0.5796(4) 0.7456(3) 0.7109(4)
H5 H 0.63930 0.83330 0.71100
H6 H 0.47220 0.70820 0.80780
H7 H 0.52660 0.78040 0.61780
C5 C 0.9765(4) -0.2620(3) 0.9401(3)
H8 H 0.98490 -0.34240 1.04300
H9 H 1.11000 -0.23290 0.87330
H10 H 0.91100 -0.30310 0.88750
H11 H 0.910(4) 0.411(3) 0.372(3)
H12 H 0.375(5) 0.060(4) 0.798(4)
#END
