
#######################################################################
#
#                 Cambridge Crystallographic Data Centre
#                                CCDC
#
#######################################################################
#
# If this CIF has been generated from an entry in the Cambridge
# Structural Database, then it will include bibliographic, chemical,
# crystal, experimental, refinement or atomic coordinate data resulting
# from the CCDC's data processing and validation procedures.
#
#######################################################################

data_CSD_CIF_IYENOR
_audit_creation_date 2016-10-13
_audit_creation_method CSD-ConQuest-V1
_database_code_CSD IYENOR
_database_code_depnum_ccdc_archive 'CCDC 1501147'
_chemical_formula_sum 'C23 H30 N4 O8'
_chemical_formula_moiety
;
C23 H30 N4 O8
;
_journal_coden_Cambridge 179
_journal_volume 55
_journal_year 2016
_journal_page_first 13813
_journal_name_full 'Angew.Chem.,Int.Ed. '
loop_
_publ_author_name
"E.Kiss"
"C.D.Campbell"
"R.W.Driver"
"J.D.Jolliffe"
"Rosemary Lang"
"T.Sergeieva"
"S.Okovytyy"
"R.S.Paton"
"M.D.Smith"
_chemical_name_systematic
;
diisopropyl 
(3aS*,7aR*,E)-7-((2,4-dinitrophenyl)hydrazono)octahydro-4H-indene-4,4-dicarbox
ylate
;
_cell_volume   1210.563
_exptl_crystal_colour 'colorless'
_exptl_crystal_density_diffrn 1.346
_exptl_crystal_description 'plate'
_exptl_crystal_preparation 'ethyl acetate/pentanes'
_diffrn_ambient_temperature 150
#These two values have been output from a single CSD field.
_refine_ls_R_factor_gt 0.0482
_refine_ls_wR_factor_gt 0.0482
loop_
_citation_database_id_CSD
_citation_special_details
IYEPEJ "is a stereoisomer of this entry"
_symmetry_cell_setting triclinic
_symmetry_space_group_name_H-M 'P -1'
_symmetry_Int_Tables_number 2
loop_
_symmetry_equiv_pos_site_id
_symmetry_equiv_pos_as_xyz
1 x,y,z
2 -x,-y,-z
_cell_length_a 8.6692(2)
_cell_length_b 9.3702(2)
_cell_length_c 16.0180(4)
_cell_angle_alpha 90.4796(10)
_cell_angle_beta 92.8552(10)
_cell_angle_gamma 111.2682(12)
_cell_formula_units_Z 2
loop_
_atom_type_symbol
_atom_type_radius_bond
C 0.68
H 0.23
N 0.68
O 0.68
loop_
_atom_site_label
_atom_site_type_symbol
_atom_site_fract_x
_atom_site_fract_y
_atom_site_fract_z
O1 O 0.77333(13) 0.70681(13) 0.30201(6)
C1 C 0.69645(16) 0.67929(15) 0.23560(8)
O2 O 0.75833(11) 0.65984(12) 0.16322(6)
C2 C 0.93426(17) 0.67871(17) 0.16510(9)
C3 C 0.9558(2) 0.5978(2) 0.08766(10)
C4 C 1.0391(2) 0.8457(2) 0.16948(17)
C5 C 0.51453(16) 0.66428(16) 0.22194(8)
C6 C 0.44598(17) 0.68901(16) 0.30578(9)
C7 C 0.42254(19) 0.55832(17) 0.36710(9)
C8 C 0.32439(17) 0.40428(16) 0.32698(8)
N1 N 0.19804(15) 0.29702(14) 0.35467(7)
N2 N 0.14718(15) 0.32675(13) 0.43109(7)
C9 C 0.01004(16) 0.22508(15) 0.46249(8)
C10 C -0.05030(16) 0.25291(15) 0.53955(8)
N3 N 0.02326(15) 0.39727(13) 0.58605(7)
O3 O 0.15277(13) 0.49498(12) 0.56252(7)
O4 O -0.04692(13) 0.41990(12) 0.64695(6)
C11 C -0.18645(17) 0.14369(16) 0.57324(9)
C12 C -0.26579(16) 0.00676(16) 0.53082(9)
N4 N -0.40711(15) -0.10663(15) 0.56741(8)
O5 O -0.47861(15) -0.22859(14) 0.52870(8)
O6 O -0.44916(16) -0.07600(14) 0.63551(8)
C13 C -0.21325(17) -0.02452(16) 0.45369(9)
C14 C -0.07966(17) 0.08311(16) 0.42008(8)
C15 C 0.38557(18) 0.37705(17) 0.24488(9)
C16 C 0.39620(18) 0.50862(18) 0.18532(9)
C17 C 0.4191(2) 0.4447(2) 0.10079(10)
C18 C 0.3141(3) 0.2734(2) 0.10204(12)
C19 C 0.2819(2) 0.2327(2) 0.19340(11)
C20 C 0.51210(17) 0.79619(18) 0.16675(10)
O7 O 0.63856(13) 0.92485(12) 0.19026(7)
C21 C 0.6481(2) 1.0677(2) 0.14982(12)
C22 C 0.7412(3) 1.1941(2) 0.21260(14)
C23 C 0.7319(3) 1.0784(2) 0.06873(13)
O8 O 0.40570(15) 0.78680(17) 0.11343(9)
H1 H 0.95730 0.62710 0.21430
H2 H 1.07090 0.60730 0.08610
H3 H 0.92660 0.64520 0.03740
H4 H 0.88620 0.49080 0.08660
H5 H 1.15500 0.85700 0.16860
H6 H 1.02160 0.89650 0.21970
H7 H 1.01110 0.89120 0.11960
H8 H 0.51880 0.78790 0.33250
H9 H 0.33820 0.69640 0.29200
H10 H 0.37010 0.57860 0.41600
H11 H 0.53060 0.55660 0.38560
H12 H -0.22160 0.16460 0.62390
H13 H -0.26810 -0.11750 0.42500
H14 H -0.04390 0.06260 0.36710
H15 H 0.50030 0.37860 0.25480
H16 H 0.27950 0.51060 0.17960
H17 H 0.53690 0.45640 0.09700
H18 H 0.38570 0.49690 0.05450
H19 H 0.36650 0.20740 0.07310
H20 H 0.20840 0.25650 0.07160
H21 H 0.31320 0.14580 0.20890
H22 H 0.16410 0.20770 0.20170
H23 H 0.53530 1.06410 0.13880
H24 H 0.74800 1.29100 0.18920
H25 H 0.85420 1.19400 0.22360
H26 H 0.68260 1.18020 0.26450
H27 H 0.73410 1.17250 0.04180
H28 H 0.84410 1.08560 0.08130
H29 H 0.66990 0.98840 0.03380
H30 H 0.19990 0.41270 0.45900
#END
