
#######################################################################
#
#                 Cambridge Crystallographic Data Centre
#                                CCDC
#
#######################################################################
#
# If this CIF has been generated from an entry in the Cambridge
# Structural Database, then it will include bibliographic, chemical,
# crystal, experimental, refinement or atomic coordinate data resulting
# from the CCDC's data processing and validation procedures.
#
#######################################################################

data_CSD_CIF_IYENUX
_audit_creation_date 2016-10-13
_audit_creation_method CSD-ConQuest-V1
_database_code_CSD IYENUX
_database_code_depnum_ccdc_archive 'CCDC 1501148'
_chemical_formula_sum 'C18 H20 N4 O6'
_chemical_formula_moiety
;
C18 H20 N4 O6
;
_journal_coden_Cambridge 179
_journal_volume 55
_journal_year 2016
_journal_page_first 13813
_journal_name_full 'Angew.Chem.,Int.Ed. '
loop_
_publ_author_name
"E.Kiss"
"C.D.Campbell"
"R.W.Driver"
"J.D.Jolliffe"
"Rosemary Lang"
"T.Sergeieva"
"S.Okovytyy"
"R.S.Paton"
"M.D.Smith"
_chemical_name_systematic
;
ethyl 
(1aS*,1bR*,4aS*,5aR*,E)-5-((2,4-dinitrophenyl)hydrazono)octahydro-1aH-cyclopro
pa[a]pentalene-1a-carboxylate
;
_cell_volume   1827.133
_exptl_crystal_colour 'dark red'
_exptl_crystal_density_diffrn 1.412
_exptl_crystal_description 'plate'
_exptl_crystal_preparation 'ethyl acetate/pentanes'
_diffrn_ambient_temperature 100
_diffrn_radiation_probe x-ray
_diffrn_source synchrotron
#These two values have been output from a single CSD field.
_refine_ls_R_factor_gt 0.0355
_refine_ls_wR_factor_gt 0.0355
loop_
_citation_database_id_CSD
_citation_special_details
IYEPAF "is a stereoisomer of this entry"
_symmetry_cell_setting monoclinic
_symmetry_space_group_name_H-M 'P 21/c'
_symmetry_Int_Tables_number 14
loop_
_symmetry_equiv_pos_site_id
_symmetry_equiv_pos_as_xyz
1 x,y,z
2 -x,1/2+y,1/2-z
3 -x,-y,-z
4 x,-1/2-y,-1/2+z
_cell_length_a 19.3518(5)
_cell_length_b 6.3277(1)
_cell_length_c 16.0896(4)
_cell_angle_alpha 90
_cell_angle_beta 111.970(3)
_cell_angle_gamma 90
_cell_formula_units_Z 4
loop_
_atom_type_symbol
_atom_type_radius_bond
C 0.68
H 0.23
N 0.68
O 0.68
loop_
_atom_site_label
_atom_site_type_symbol
_atom_site_fract_x
_atom_site_fract_y
_atom_site_fract_z
O1 O 0.90189(5) 0.56158(15) 0.70868(7)
C1 C 0.88862(7) 0.5866(2) 0.62101(10)
O2 O 0.91522(6) 0.72603(17) 0.59154(8)
C2 C 0.83757(7) 0.4218(2) 0.56470(9)
C3 C 0.77309(7) 0.3408(2) 0.58944(8)
C4 C 0.83938(7) 0.2018(2) 0.60137(10)
C5 C 0.70812(7) 0.31785(18) 0.50470(8)
N1 N 0.64348(6) 0.28481(16) 0.50720(7)
N2 N 0.58609(6) 0.27288(17) 0.42383(7)
C6 C 0.51511(7) 0.25587(17) 0.41822(8)
C7 C 0.49828(7) 0.25124(17) 0.49700(8)
C8 C 0.42678(7) 0.23065(18) 0.49280(8)
C9 C 0.36816(7) 0.21323(18) 0.40918(8)
N3 N 0.29238(6) 0.18915(16) 0.40509(7)
O3 O 0.28206(5) 0.19432(15) 0.47610(6)
O4 O 0.24189(5) 0.16692(17) 0.33112(7)
C10 C 0.38053(7) 0.22024(19) 0.33084(8)
C11 C 0.45347(7) 0.24194(18) 0.33501(8)
N4 N 0.46230(6) 0.25022(17) 0.25020(7)
O5 O 0.52591(5) 0.25831(17) 0.24837(6)
O6 O 0.40605(6) 0.2501(2) 0.18123(6)
C12 C 0.72921(7) 0.3575(2) 0.42444(8)
C13 C 0.81090(7) 0.4434(2) 0.46322(9)
C14 C 0.85344(9) 0.3151(3) 0.41599(11)
C15 C 0.79287(9) 0.2257(3) 0.33252(10)
C16 C 0.73018(8) 0.1668(2) 0.36475(9)
C17 C 0.94712(8) 0.7246(2) 0.76755(11)
C18 C 0.95911(10) 0.6659(3) 0.86205(12)
H1 H 0.76540 0.38720 0.64230
H2 H 0.87230 0.17340 0.66400
H3 H 0.83420 0.08500 0.56100
H4 H 0.53820 0.26160 0.55260
H5 H 0.41630 0.22780 0.54600
H6 H 0.34170 0.20830 0.27620
H7 H 0.69590 0.46630 0.38820
H8 H 0.81100 0.59360 0.44990
H9 H 0.88920 0.39890 0.40160
H10 H 0.87980 0.19970 0.45410
H11 H 0.81030 0.10540 0.30810
H12 H 0.77490 0.33800 0.28570
H13 H 0.74300 0.03740 0.40130
H14 H 0.68150 0.14430 0.31680
H15 H 0.99360 0.73230 0.75730
H16 H 0.92100 0.85840 0.75140
H17 H 0.99000 0.77380 0.90380
H18 H 0.98330 0.52850 0.87630
H19 H 0.91090 0.66020 0.86850
H20 H 0.5957(8) 0.275(3) 0.3746(9)
#END
