
#######################################################################
#
#                 Cambridge Crystallographic Data Centre
#                                CCDC
#
#######################################################################
#
# If this CIF has been generated from an entry in the Cambridge
# Structural Database, then it will include bibliographic, chemical,
# crystal, experimental, refinement or atomic coordinate data resulting
# from the CCDC's data processing and validation procedures.
#
#######################################################################

data_CSD_CIF_IYEPAF
_audit_creation_date 2016-10-13
_audit_creation_method CSD-ConQuest-V1
_database_code_CSD IYEPAF
_database_code_depnum_ccdc_archive 'CCDC 1501149'
_chemical_formula_sum 'C18 H20 N4 O6'
_chemical_formula_moiety
;
C18 H20 N4 O6
;
_journal_coden_Cambridge 179
_journal_volume 55
_journal_year 2016
_journal_page_first 13813
_journal_name_full 'Angew.Chem.,Int.Ed. '
loop_
_publ_author_name
"E.Kiss"
"C.D.Campbell"
"R.W.Driver"
"J.D.Jolliffe"
"Rosemary Lang"
"T.Sergeieva"
"S.Okovytyy"
"R.S.Paton"
"M.D.Smith"
_chemical_name_systematic
;
ethyl 
(1aR*,1bR*,4aS*,5aS*,Z)-5-((2,4-dinitrophenyl)hydrazono)octahydro-1aH-cyclopro
pa[a]pentalene-1a-carboxylate
;
_cell_volume   1802.907
_exptl_crystal_colour 'colorless'
_exptl_crystal_density_diffrn 1.431
_exptl_crystal_description 'prism'
_exptl_crystal_preparation 'ethyl acetate/pentanes'
_diffrn_ambient_temperature 100
_diffrn_radiation_probe x-ray
_diffrn_source synchrotron
#These two values have been output from a single CSD field.
_refine_ls_R_factor_gt 0.0738
_refine_ls_wR_factor_gt 0.0738
loop_
_citation_database_id_CSD
_citation_special_details
IYENUX "is a stereoisomer of this entry"
_symmetry_cell_setting monoclinic
_symmetry_space_group_name_H-M 'P 21/n'
_symmetry_Int_Tables_number 14
loop_
_symmetry_equiv_pos_site_id
_symmetry_equiv_pos_as_xyz
1 x,y,z
2 1/2-x,1/2+y,1/2-z
3 -x,-y,-z
4 -1/2+x,-1/2-y,-1/2+z
_cell_length_a 7.289(7)
_cell_length_b 11.811(11)
_cell_length_c 21.18(2)
_cell_angle_alpha 90
_cell_angle_beta 98.597(9)
_cell_angle_gamma 90
_cell_formula_units_Z 4
loop_
_atom_type_symbol
_atom_type_radius_bond
C 0.68
H 0.23
N 0.68
O 0.68
loop_
_atom_site_label
_atom_site_type_symbol
_atom_site_fract_x
_atom_site_fract_y
_atom_site_fract_z
O1 O 0.4658(6) 0.7508(3) 0.11280(17)
C1 C 0.4177(7) 0.8150(4) 0.1517(2)
O2 O 0.3843(6) 0.9253(3) 0.14012(15)
C2 C 0.4087(9) 0.9662(4) 0.0769(2)
C3 C 0.2311(11) 0.9654(7) 0.0336(3)
H1 H 0.24070 1.01140 -0.00290
H2 H 0.13900 0.99890 0.05570
H3 H 0.19470 0.89050 0.02010
H4 H 0.46040 1.04180 0.08090
H5 H 0.49370 0.91500 0.05890
C4 C 0.3842(7) 0.7800(3) 0.2168(2)
C5 C 0.2154(7) 0.8274(4) 0.2407(2)
C6 C 0.4045(7) 0.8655(4) 0.2725(2)
C7 C 0.4833(6) 0.8004(4) 0.3304(2)
N1 N 0.5621(5) 0.8360(3) 0.38526(17)
N2 N 0.5673(5) 0.9538(3) 0.39093(16)
C8 C 0.6594(6) 1.0017(3) 0.44491(19)
C9 C 0.6712(6) 1.1219(3) 0.4532(2)
N3 N 0.5843(6) 1.1996(3) 0.40437(18)
O3 O 0.6040(6) 1.3028(3) 0.41353(17)
O4 O 0.4920(5) 1.1606(3) 0.35550(16)
C10 C 0.7644(6) 1.1704(3) 0.5085(2)
C11 C 0.8474(6) 1.1009(3) 0.55641(19)
N4 N 0.9481(5) 1.1516(3) 0.61438(17)
O5 O 0.9472(5) 1.2562(3) 0.61988(15)
O6 O 1.0299(5) 1.0879(3) 0.65519(15)
C12 C 0.8383(6) 0.9830(3) 0.5513(2)
C13 C 0.7462(6) 0.9342(3) 0.49614(19)
H6 H 0.73910 0.85540 0.49310
H7 H 0.89490 0.93770 0.58530
H8 H 0.76890 1.24890 0.51310
H9 H 0.51250 1.00440 0.34970
C14 C 0.4632(7) 0.6730(4) 0.3166(2)
C15 C 0.4584(7) 0.6665(4) 0.2432(2)
C16 C 0.6605(7) 0.6429(4) 0.2368(2)
C17 C 0.7267(8) 0.5615(4) 0.2906(3)
C18 C 0.6269(7) 0.5994(4) 0.3468(2)
H10 H 0.70970 0.64210 0.37840
H11 H 0.57970 0.53330 0.36700
H12 H 0.86220 0.56660 0.30230
H13 H 0.69250 0.48500 0.27780
H14 H 0.73230 0.71220 0.24330
H15 H 0.67110 0.61270 0.19480
H16 H 0.37920 0.60360 0.22450
H17 H 0.34410 0.64550 0.32870
H18 H 0.44790 0.94240 0.26610
H19 H 0.13520 0.87980 0.21350
H20 H 0.14020 0.77840 0.26310
#END
