
#######################################################################
#
#                 Cambridge Crystallographic Data Centre
#                                CCDC
#
#######################################################################
#
# If this CIF has been generated from an entry in the Cambridge
# Structural Database, then it will include bibliographic, chemical,
# crystal, experimental, refinement or atomic coordinate data resulting
# from the CCDC's data processing and validation procedures.
#
#######################################################################

data_CSD_CIF_IYIBAT
_audit_creation_date 2004-10-12
_audit_creation_method CSD-ConQuest-V1
_database_code_CSD IYIBAT
_database_code_depnum_ccdc_archive 'CCDC 232921'
_chemical_formula_sum 'C18 H16 N2 O10'
_chemical_formula_moiety
;
C18 H16 N2 O10
;
_journal_coden_Cambridge 16
_journal_volume 60
_journal_year 2004
_journal_page_first 4205
_journal_name_full 'Tetrahedron '
loop_
_publ_author_name
"D.L.J.Clive"
"Hua Cheng"
"P.Gangopadhyay"
"Xiaojun Huang"
"B.Prabhudas"
_chemical_name_systematic
;
(2-endo,3-exo,7-anti)-2,3-bis(Methoxycarbonyl)-7-(3,5-dinitrobenzoyloxy)bicycl
o(2.2.1)hept-5-ene
;
_cell_volume    930.359
_exptl_crystal_colour 'colorless'
_exptl_crystal_density_diffrn 1.5
_exptl_crystal_description 'needle'
_exptl_crystal_preparation 'methanol/hexane 1'
_diffrn_ambient_temperature 193
#These two values have been output from a single CSD field.
_refine_ls_R_factor_gt 0.0503
_refine_ls_wR_factor_gt 0.0503
_symmetry_cell_setting triclinic
_symmetry_space_group_name_H-M 'P -1'
_symmetry_Int_Tables_number 2
loop_
_symmetry_equiv_pos_site_id
_symmetry_equiv_pos_as_xyz
1 x,y,z
2 -x,-y,-z
_cell_length_a 6.0015(12)
_cell_length_b 10.3352(19)
_cell_length_c 15.199(3)
_cell_angle_alpha 87.429(4)
_cell_angle_beta 83.526(4)
_cell_angle_gamma 83.579(4)
_cell_formula_units_Z 2
loop_
_atom_type_symbol
_atom_type_radius_bond
C 0.68
H 0.23
N 0.68
O 0.68
loop_
_atom_site_label
_atom_site_type_symbol
_atom_site_fract_x
_atom_site_fract_y
_atom_site_fract_z
O1 O 0.6483(3) -0.05821(15) 0.10624(12)
O2 O 0.9729(2) 0.01701(14) 0.12629(11)
O3 O 0.5721(2) 0.33357(14) -0.03375(10)
O4 O 0.1993(2) 0.32586(14) -0.00389(9)
O5 O 0.2991(2) 0.20686(14) 0.33536(9)
O6 O 0.0473(3) 0.05964(15) 0.3417(1)
O7 O -0.5328(3) 0.0753(2) 0.59683(14)
O8 O -0.5500(3) 0.2231(2) 0.69406(14)
O9 O 0.3145(3) 0.4891(2) 0.57665(13)
O10 O 0.0489(3) 0.5003(3) 0.68406(15)
N1 N -0.4610(3) 0.1672(2) 0.62795(14)
N2 N 0.1423(3) 0.4542(2) 0.61557(14)
C1 C 0.6209(3) 0.2124(2) 0.22247(14)
H1 H 0.73750 0.17540 0.26140
C2 C 0.6615(3) 0.17300(19) 0.12240(13)
H2 H 0.76900 0.22890 0.08830
C3 C 0.4244(3) 0.20333(19) 0.09119(13)
H3 H 0.36820 0.11970 0.07760
C4 C 0.2785(3) 0.2611(2) 0.17515(13)
H4 H 0.11120 0.26460 0.17560
C5 C 0.3697(4) 0.3878(2) 0.19127(14)
H5 H 0.29550 0.47280 0.18270
C6 C 0.5695(4) 0.3596(2) 0.21930(13)
H6 H 0.66470 0.42050 0.23480
C7 C 0.3848(3) 0.1713(2) 0.24544(13)
H7 H 0.37800 0.07710 0.23500
C8 C 0.7536(3) 0.0312(2) 0.11625(13)
C9 C 1.0775(4) -0.1158(2) 0.1307(2)
H8 H 1.23620 -0.11600 0.14040
H9 H 1.06810 -0.15780 0.07490
H10 H 0.99910 -0.16360 0.17970
C10 C 0.4149(3) 0.29413(19) 0.01126(13)
C11 C 0.1661(4) 0.4081(2) -0.08128(16)
H11 H 0.00440 0.42580 -0.08680
H12 H 0.24190 0.36400 -0.13400
H13 H 0.22940 0.49030 -0.07570
C12 C 0.1246(3) 0.1472(2) 0.37287(14)
C13 C 0.0327(3) 0.2049(2) 0.46005(14)
C14 C -0.1626(4) 0.1609(2) 0.50294(14)
H14 H -0.23230 0.09510 0.47810
C15 C -0.2541(4) 0.2144(2) 0.58243(15)
C16 C -0.1588(4) 0.3105(2) 0.62073(15)
H15 H -0.22460 0.34710 0.67510
C17 C 0.0352(4) 0.3510(2) 0.57681(15)
C18 C 0.1349(4) 0.3009(2) 0.49675(14)
H16 H 0.26900 0.33120 0.46790
#END
