
#######################################################################
#
#                 Cambridge Crystallographic Data Centre
#                                CCDC
#
#######################################################################
#
# If this CIF has been generated from an entry in the Cambridge
# Structural Database, then it will include bibliographic, chemical,
# crystal, experimental, refinement or atomic coordinate data resulting
# from the CCDC's data processing and validation procedures.
#
#######################################################################

data_CSD_CIF_IYIYOF
_audit_creation_date 2011-10-27
_audit_creation_method CSD-ConQuest-V1
_database_code_CSD IYIYOF
_database_code_depnum_ccdc_archive 'CCDC 845077'
_chemical_formula_sum 'C13 H17 N3 O7'
_chemical_formula_moiety
;
C13 H17 N3 O7
;
_journal_coden_Cambridge 1336
_journal_volume 13
_journal_year 2011
_journal_page_first 3936
_journal_name_full 'Org.Lett. '
loop_
_publ_author_name
"D.E.Williams"
"D.S.Dalisay"
"B.O.Patrick"
"T.Matainaho"
"K.Andrusiak"
"R.Deshpande"
"C.L.Myers"
"J.S.Piotrowski"
"C.Boone"
"M.Yoshida"
"R.J.Andersen"
_chemical_name_systematic
;
Methyl N-(2,4-dinitrophenyl)-3-hydroxy-D-leucinate
;
_cell_volume   1525.496
_exptl_crystal_colour 'yellow'
_exptl_crystal_density_diffrn 1.425
_exptl_special_details
;
Absolute configuration

;
_exptl_crystal_description 'prism'
_diffrn_ambient_temperature 90
#These two values have been output from a single CSD field.
_refine_ls_R_factor_gt 0.0232
_refine_ls_wR_factor_gt 0.0232
_symmetry_cell_setting orthorhombic
_symmetry_space_group_name_H-M 'P 21 21 21'
_symmetry_Int_Tables_number 19
loop_
_symmetry_equiv_pos_site_id
_symmetry_equiv_pos_as_xyz
1 x,y,z
2 1/2+x,1/2-y,-z
3 -x,1/2+y,1/2-z
4 1/2-x,-y,1/2+z
_cell_length_a 6.8458(2)
_cell_length_b 8.1555(3)
_cell_length_c 27.3235(9)
_cell_angle_alpha 90
_cell_angle_beta 90
_cell_angle_gamma 90
_cell_formula_units_Z 4
loop_
_atom_type_symbol
_atom_type_radius_bond
C 0.68
H 0.23
N 0.68
O 0.68
loop_
_atom_site_label
_atom_site_type_symbol
_atom_site_fract_x
_atom_site_fract_y
_atom_site_fract_z
C1 C 0.44867(17) 0.33436(15) 0.40436(4)
C2 C 0.55618(19) 0.45467(14) 0.37124(4)
H1 H 0.46540 0.54340 0.36020
C3 C 0.73367(18) 0.53044(14) 0.39911(4)
H2 H 0.82640 0.57630 0.37440
C4 C 0.6818(2) 0.66627(16) 0.43516(5)
H3 H 0.59720 0.61870 0.46140
C5 C 0.5707(3) 0.80555(17) 0.41058(6)
H4 H 0.64450 0.84440 0.38210
H5 H 0.55370 0.89580 0.43390
H6 H 0.44230 0.76600 0.39990
C6 C 0.8679(2) 0.73208(19) 0.45884(5)
H7 H 0.95150 0.78100 0.43370
H8 H 0.93790 0.64200 0.47480
H9 H 0.83380 0.81550 0.48320
C7 C 0.68735(17) 0.41945(15) 0.28730(4)
C8 C 0.75065(17) 0.31957(15) 0.24739(4)
C9 C 0.82043(18) 0.38627(15) 0.20398(4)
H10 H 0.86230 0.31690 0.17810
C10 C 0.82808(18) 0.55330(16) 0.19901(4)
C11 C 0.76446(17) 0.65847(15) 0.23628(4)
H11 H 0.76880 0.77400 0.23190
C12 C 0.69589(17) 0.59253(15) 0.27902(4)
H12 H 0.65240 0.66440 0.30410
C13 C 0.2522(2) 0.30768(18) 0.47426(5)
H13 H 0.16630 0.23080 0.45700
H14 H 0.17450 0.37510 0.49670
H15 H 0.35010 0.24630 0.49290
N1 N 0.74731(14) 0.14247(12) 0.24977(4)
N2 N 0.91117(15) 0.62213(13) 0.15472(4)
N3 N 0.62148(16) 0.35909(14) 0.32953(4)
O1 O 0.45564(13) 0.18840(11) 0.39919(3)
O2 O 0.34961(14) 0.41281(11) 0.43890(3)
O3 O 0.83029(14) 0.40287(11) 0.42476(3)
O4 O 0.70527(13) 0.07422(10) 0.28900(3)
O5 O 0.78585(14) 0.06401(11) 0.21257(3)
O6 O 0.96394(16) 0.53077(12) 0.12202(3)
O7 O 0.92641(13) 0.77379(11) 0.15258(3)
H16 H 0.618(2) 0.261(2) 0.3319(6)
H17 H 0.901(3) 0.362(3) 0.4044(8)
#END
