
#######################################################################
#
#                 Cambridge Crystallographic Data Centre
#                                CCDC
#
#######################################################################
#
# If this CIF has been generated from an entry in the Cambridge
# Structural Database, then it will include bibliographic, chemical,
# crystal, experimental, refinement or atomic coordinate data resulting
# from the CCDC's data processing and validation procedures.
#
#######################################################################

data_CSD_CIF_IYOZEC
_audit_creation_date 2011-11-07
_audit_creation_method CSD-ConQuest-V1
_database_code_CSD IYOZEC
_database_code_depnum_ccdc_archive 'CCDC 805604'
_chemical_formula_sum 'C16 H20 N2 O7'
_chemical_formula_moiety
;
C16 H20 N2 O7
;
_journal_coden_Cambridge 182
_journal_volume 47
_journal_year 2011
_journal_page_first 10037
_journal_name_full 'Chem.Commun. '
loop_
_publ_author_name
"A.F.Kyle"
"P.Jakubec"
"D.M.Cockfield"
"E.Cleator"
"J.Skidmore"
"D.J.Dixon"
_chemical_name_systematic
;
(S,S)-Methyl 
6-(1-(3-furyl)-2-nitroethyl)-3,3-dimethyl-5-oxotetrahydro-1H-pyrrolo[1,2-c][1,
3]oxazole-6-carboxylate
;
_cell_volume    845.527
_exptl_crystal_colour 'colorless'
_exptl_crystal_density_diffrn 1.384
_exptl_crystal_description 'plate'
_diffrn_ambient_temperature 150
_refine_special_details
;
One of the oxygen atoms is slightly disordered, although this was not 
modelled.
;
#These two values have been output from a single CSD field.
_refine_ls_R_factor_gt 0.0387
_refine_ls_wR_factor_gt 0.0387
loop_
_citation_database_id_CSD
_citation_special_details
IYOZIG "is a stereoisomer of this entry"
_symmetry_cell_setting monoclinic
_symmetry_space_group_name_H-M 'P 21'
_symmetry_Int_Tables_number 4
loop_
_symmetry_equiv_pos_site_id
_symmetry_equiv_pos_as_xyz
1 x,y,z
2 -x,1/2+y,-z
_cell_length_a 9.5453(3)
_cell_length_b 6.9928(2)
_cell_length_c 13.4491(4)
_cell_angle_alpha 90
_cell_angle_beta 109.6310(13)
_cell_angle_gamma 90
_cell_formula_units_Z 2
loop_
_atom_type_symbol
_atom_type_radius_bond
C 0.68
H 0.23
N 0.68
O 0.68
loop_
_atom_site_label
_atom_site_type_symbol
_atom_site_fract_x
_atom_site_fract_y
_atom_site_fract_z
O1 O 0.3956(2) 0.7171(3) 0.27189(17)
C1 C 0.3964(3) 0.5446(5) 0.2553(2)
N1 N 0.3695(3) 0.4029(4) 0.31362(18)
C2 C 0.3849(3) 0.2100(5) 0.2779(2)
C3 C 0.3950(3) 0.2378(5) 0.1674(2)
C4 C 0.4342(3) 0.4555(5) 0.1625(2)
C5 C 0.6006(3) 0.4849(5) 0.1756(2)
C6 C 0.7051(3) 0.4036(5) 0.2770(2)
C7 C 0.7422(4) 0.4798(6) 0.3818(2)
C8 C 0.8436(4) 0.3625(6) 0.4459(3)
O2 O 0.8743(2) 0.2154(5) 0.3908(2)
C9 C 0.7885(3) 0.2433(5) 0.2867(3)
C10 C 0.6350(3) 0.6978(5) 0.1679(2)
N2 N 0.7884(3) 0.7198(4) 0.1631(2)
O3 O 0.8768(3) 0.8214(4) 0.2283(2)
O4 O 0.8171(3) 0.6349(4) 0.09216(19)
C11 C 0.3323(3) 0.5373(5) 0.0593(2)
O5 O 0.3660(2) 0.5664(4) -0.01808(16)
O6 O 0.1957(2) 0.5636(4) 0.06347(17)
C12 C 0.0856(4) 0.6376(7) -0.0317(3)
C13 C 0.2495(4) 0.1162(5) 0.2923(3)
O7 O 0.2434(2) 0.2059(3) 0.38686(17)
C14 C 0.2772(3) 0.4055(5) 0.3827(2)
C15 C 0.3642(4) 0.4699(6) 0.4936(2)
C16 C 0.1363(3) 0.5210(5) 0.3335(3)
H1 H 0.47890 0.15350 0.32790
H2 H 0.29660 0.21300 0.11480
H3 H 0.47130 0.15660 0.15630
H4 H 0.62290 0.42030 0.11600
H5 H 0.70210 0.59170 0.40160
H6 H 0.88910 0.37860 0.52060
H7 H 0.78980 0.16010 0.23240
H8 H 0.56490 0.75370 0.10240
H9 H 0.63370 0.76550 0.23200
H10 H -0.00500 0.66270 -0.01460
H11 H 0.06710 0.54070 -0.08830
H12 H 0.12520 0.75710 -0.05000
H13 H 0.15850 0.14670 0.23120
H14 H 0.26280 -0.02550 0.30220
H15 H 0.29940 0.45630 0.53600
H16 H 0.45470 0.39440 0.52300
H17 H 0.38760 0.60580 0.48900
H18 H 0.07530 0.50330 0.37940
H19 H 0.08480 0.46970 0.26330
H20 H 0.16320 0.65510 0.33150
#END
