
#######################################################################
#
#                 Cambridge Crystallographic Data Centre
#                                CCDC
#
#######################################################################
#
# If this CIF has been generated from an entry in the Cambridge
# Structural Database, then it will include bibliographic, chemical,
# crystal, experimental, refinement or atomic coordinate data resulting
# from the CCDC's data processing and validation procedures.
#
#######################################################################

data_CSD_CIF_IYUPUP
_audit_creation_date 2016-11-10
_audit_creation_method CSD-ConQuest-V1
_database_code_CSD IYUPUP
_database_code_depnum_ccdc_archive 'CCDC 1477555'
_chemical_formula_sum 'C23 H19 N3 O2'
_chemical_formula_moiety
;
C23 H19 N3 O2
;
_journal_coden_Cambridge 1500
_journal_volume 6
_journal_year 2016
_journal_page_first 107081
_journal_name_full 'RSC Advances '
loop_
_publ_author_name
"Jonathon Young"
"C.Schafer"
"A.Solan"
"A.Baldrica"
"M.Belcher"
"B.Nisanci"
"K.A.Wheeler"
"E.R.Trivedi"
"B.Torok"
"R.Dembinski"
_chemical_name_systematic
;
4-(4-methylbenzyl)-7-nitro-2-phenyl-3H-1,5-benzodiazepine
;
_cell_volume   1912.047
_exptl_crystal_colour 'light yellow'
_exptl_crystal_density_diffrn 1.283
_exptl_crystal_description 'rod'
_diffrn_ambient_temperature 100
#These two values have been output from a single CSD field.
_refine_ls_R_factor_gt 0.0472
_refine_ls_wR_factor_gt 0.0472
_symmetry_cell_setting orthorhombic
_symmetry_space_group_name_H-M 'P n a 21'
_symmetry_Int_Tables_number 33
loop_
_symmetry_equiv_pos_site_id
_symmetry_equiv_pos_as_xyz
1 x,y,z
2 -x,-y,1/2+z
3 1/2-x,1/2+y,1/2+z
4 1/2+x,1/2-y,z
_cell_length_a 21.4737(10)
_cell_length_b 16.0302(8)
_cell_length_c 5.5546(3)
_cell_angle_alpha 90
_cell_angle_beta 90
_cell_angle_gamma 90
_cell_formula_units_Z 4
loop_
_atom_type_symbol
_atom_type_radius_bond
C 0.68
H 0.23
N 0.68
O 0.68
loop_
_atom_site_label
_atom_site_type_symbol
_atom_site_fract_x
_atom_site_fract_y
_atom_site_fract_z
O1 O 0.91318(14) 0.26405(19) 0.7521(7)
O2 O 0.82867(13) 0.21890(17) 0.5777(6)
N1 N 0.89334(13) 0.53085(18) -0.0776(6)
N2 N 0.78961(13) 0.40461(18) -0.1098(6)
N3 N 0.87247(16) 0.2675(2) 0.5928(7)
C1 C 0.84635(16) 0.5733(2) -0.1578(8)
C2 C 0.78161(15) 0.5552(2) -0.0615(8)
H1 H 0.78210 0.55020 0.11620
H2 H 0.75210 0.59970 -0.10800
C3 C 0.76404(16) 0.4732(2) -0.1771(7)
C4 C 0.83431(16) 0.3394(2) 0.2344(8)
H3 H 0.80320 0.29750 0.22100
C5 C 0.87839(16) 0.3351(2) 0.4142(7)
C6 C 0.92729(17) 0.3917(2) 0.4309(8)
H4 H 0.95770 0.38660 0.55430
C7 C 0.93071(17) 0.4549(2) 0.2651(8)
H5 H 0.96490 0.49250 0.27050
C8 C 0.88453(16) 0.4654(2) 0.0867(8)
C9 C 0.83564(16) 0.4058(2) 0.0722(8)
C10 C 0.85580(16) 0.6357(2) -0.3508(7)
C11 C 0.80594(17) 0.6756(2) -0.4652(8)
H6 H 0.76460 0.66420 -0.41420
C12 C 0.81584(19) 0.7314(2) -0.6506(9)
H7 H 0.78130 0.75780 -0.72550
C13 C 0.87541(18) 0.7491(3) -0.7284(10)
H8 H 0.88220 0.78730 -0.85640
C14 C 0.92560(19) 0.7097(3) -0.6158(9)
H9 H 0.96690 0.72140 -0.66770
C15 C 0.91586(16) 0.6541(2) -0.4297(9)
H10 H 0.95050 0.62810 -0.35450
C16 C 0.71691(17) 0.4724(2) -0.3764(8)
H11 H 0.70900 0.41410 -0.42640
H12 H 0.73380 0.50300 -0.51690
C17 C 0.65610(16) 0.5124(2) -0.2991(7)
C18 C 0.62606(17) 0.4845(3) -0.0909(8)
H13 H 0.64320 0.43970 -0.00080
C19 C 0.57111(18) 0.5223(3) -0.0153(8)
H14 H 0.55100 0.50220 0.12540
C20 C 0.54507(17) 0.5883(3) -0.1392(8)
C21 C 0.48573(18) 0.6296(3) -0.0518(9)
H15 H 0.45740 0.58700 0.01200
H16 H 0.46570 0.65860 -0.18620
H17 H 0.49580 0.66980 0.07540
C22 C 0.57481(17) 0.6156(3) -0.3454(8)
H18 H 0.55760 0.66060 -0.43440
C23 C 0.62976(17) 0.5781(2) -0.4253(8)
H19 H 0.64930 0.59780 -0.56780
#END
