
#######################################################################
#
#                 Cambridge Crystallographic Data Centre
#                                CCDC
#
#######################################################################
#
# If this CIF has been generated from an entry in the Cambridge
# Structural Database, then it will include bibliographic, chemical,
# crystal, experimental, refinement or atomic coordinate data resulting
# from the CCDC's data processing and validation procedures.
#
#######################################################################

data_CSD_CIF_IZARUX
_audit_creation_date 2011-10-11
_audit_creation_method CSD-ConQuest-V1
_database_code_CSD IZARUX
_database_code_depnum_ccdc_archive 'CCDC 760627'
_chemical_formula_sum 'C21 H21 N3 O2'
_chemical_formula_moiety
;
C21 H21 N3 O2
;
_journal_coden_Cambridge 151
_journal_volume 53
_journal_year 2010
_journal_page_first 6164
_journal_name_full 'J.Med.Chem. '
loop_
_publ_author_name
"Chih-Hua Tseng"
"Cherng-Chyi Tzeng"
"Chiao-Li Yang"
"Pei-Jung Lu"
"Hui-Ling Chen"
"Hao-Yi Li"
"You-Chung Chuang"
"Chia-Ning Yang"
"Yeh-Long Chen"
_chemical_name_systematic
;
2-(((9-Methoxy-11H-indeno[1,2-c]quinolin-11-ylidene)amino)oxy)-N,N-dimethyleth
anamine
;
_cell_volume   1781.479
_exptl_crystal_density_diffrn 1.295
_diffrn_ambient_temperature 295
#These two values have been output from a single CSD field.
_refine_ls_R_factor_gt 0.0565
_refine_ls_wR_factor_gt 0.0565
_symmetry_cell_setting monoclinic
_symmetry_space_group_name_H-M 'P 21/n'
_symmetry_Int_Tables_number 14
loop_
_symmetry_equiv_pos_site_id
_symmetry_equiv_pos_as_xyz
1 x,y,z
2 1/2-x,1/2+y,1/2-z
3 -x,-y,-z
4 -1/2+x,-1/2-y,-1/2+z
_cell_length_a 14.5476(3)
_cell_length_b 8.4212(2)
_cell_length_c 14.9701(3)
_cell_angle_alpha 90
_cell_angle_beta 103.740(1)
_cell_angle_gamma 90
_cell_formula_units_Z 4
loop_
_atom_type_symbol
_atom_type_radius_bond
C 0.68
H 0.23
N 0.68
O 0.68
loop_
_atom_site_label
_atom_site_type_symbol
_atom_site_fract_x
_atom_site_fract_y
_atom_site_fract_z
O1 O 0.79117(10) 0.44216(16) 0.21549(9)
O2 O 0.91029(10) -0.10640(15) 0.18755(8)
N1 N 0.84663(11) 0.0303(2) -0.24551(10)
N2 N 0.90937(10) -0.14350(18) 0.09673(10)
N3 N 0.99824(12) -0.3007(2) 0.41026(11)
C1 C 0.88153(12) -0.1136(2) -0.20898(12)
C2 C 0.90534(14) -0.2261(3) -0.26921(14)
H1 H 0.89850 -0.20020 -0.33080
C3 C 0.93819(14) -0.3722(3) -0.23842(14)
H2 H 0.95300 -0.44570 -0.27920
C4 C 0.94981(14) -0.4121(3) -0.14597(14)
H3 H 0.97230 -0.51230 -0.12580
C5 C 0.92875(14) -0.3068(2) -0.08484(14)
H4 H 0.93730 -0.33540 -0.02340
C6 C 0.89391(12) -0.1536(2) -0.11423(12)
C7 C 0.87044(12) -0.0336(2) -0.05715(11)
C8 C 0.87657(12) -0.0267(2) 0.04288(12)
C9 C 0.84256(12) 0.1337(2) 0.06156(12)
C10 C 0.83381(13) 0.2031(2) 0.14312(13)
H5 H 0.84830 0.14690 0.19820
C11 C 0.80250(12) 0.3601(2) 0.13989(12)
C12 C 0.78122(14) 0.4426(2) 0.05741(14)
H6 H 0.76160 0.54780 0.05680
C13 C 0.78845(13) 0.3722(2) -0.02377(14)
H7 H 0.77280 0.42820 -0.07880
C14 C 0.81953(12) 0.2164(2) -0.02174(12)
C15 C 0.83654(12) 0.1114(2) -0.09475(12)
C16 C 0.82529(13) 0.1368(3) -0.18939(13)
H8 H 0.80150 0.23410 -0.21370
C17 C 0.81739(16) 0.3665(3) 0.30258(14)
H9 H 0.80610 0.43720 0.34910
H10 H 0.88330 0.33920 0.31580
H11 H 0.78040 0.27180 0.30170
C18 C 0.95116(14) -0.2349(2) 0.24690(12)
H12 H 1.01470 -0.25730 0.24050
H13 H 0.91310 -0.33020 0.23180
C19 C 0.95330(16) -0.1823(3) 0.34262(13)
H14 H 0.98770 -0.08300 0.35500
H15 H 0.88910 -0.16380 0.34830
C20 C 1.10088(17) -0.2878(4) 0.43081(18)
H16 H 1.12200 -0.29780 0.37500
H17 H 1.12850 -0.37070 0.47270
H18 H 1.11990 -0.18640 0.45830
C21 C 0.9639(2) -0.2857(3) 0.49354(16)
H19 H 0.89620 -0.29450 0.47840
H20 H 0.98220 -0.18430 0.52140
H21 H 0.99070 -0.36860 0.53580
#END
