
#######################################################################
#
#                 Cambridge Crystallographic Data Centre
#                                CCDC
#
#######################################################################
#
# If this CIF has been generated from an entry in the Cambridge
# Structural Database, then it will include bibliographic, chemical,
# crystal, experimental, refinement or atomic coordinate data resulting
# from the CCDC's data processing and validation procedures.
#
#######################################################################

data_CSD_CIF_IZEGAV
_audit_creation_date 2004-10-12
_audit_creation_method CSD-ConQuest-V1
_database_code_CSD IZEGAV
_database_code_depnum_ccdc_archive 'CCDC 251340'
_chemical_formula_sum 'C18 H20 N2 O2'
_chemical_formula_moiety
;
C18 H20 N2 O2
;
_journal_coeditor_code "IUCr GA1061"
_journal_coden_Cambridge 591
_journal_volume 60
_journal_year 2004
_journal_page_first o702
_journal_name_full 'Acta Crystallogr.,Sect.C:Cryst.Struct.Commun. '
loop_
_publ_author_name
"S.Soylu"
"M.Tas"
"H.Saracoglu"
"H.Bati"
"N.Caliskan"
"O.Buyukgungor"
_chemical_name_systematic
;
N^1^-(4-t-Butylphenyl)-N^2^-hydroxy-\a-oxo-\a-phenylacetamidine
;
_cell_volume    796.026
_exptl_crystal_colour 'yellow'
_exptl_crystal_density_diffrn 1.236
_exptl_crystal_description 'rod'
_diffrn_ambient_temperature 293
#These two values have been output from a single CSD field.
_refine_ls_R_factor_gt 0.0612
_refine_ls_wR_factor_gt 0.0612
_symmetry_cell_setting triclinic
_symmetry_space_group_name_H-M 'P -1'
_symmetry_Int_Tables_number 2
loop_
_symmetry_equiv_pos_site_id
_symmetry_equiv_pos_as_xyz
1 x,y,z
2 -x,-y,-z
_cell_length_a 6.4331(10)
_cell_length_b 10.7150(15)
_cell_length_c 12.299(2)
_cell_angle_alpha 75.054(12)
_cell_angle_beta 82.120(12)
_cell_angle_gamma 77.258(11)
_cell_formula_units_Z 2
loop_
_atom_type_symbol
_atom_type_radius_bond
C 0.68
H 0.23
N 0.68
O 0.68
loop_
_atom_site_label
_atom_site_type_symbol
_atom_site_fract_x
_atom_site_fract_y
_atom_site_fract_z
N1 N 1.0008(4) 0.1449(2) 0.4568(2)
N2 N 0.8023(5) 0.3598(2) 0.4180(3)
O1 O 0.8108(4) 0.1207(2) 0.5250(2)
O2 O 1.3367(4) 0.3021(2) 0.3709(2)
C1 C 0.9814(5) 0.2679(3) 0.4085(3)
C2 C 1.1764(5) 0.3008(3) 0.3307(3)
C3 C 1.1644(5) 0.3210(3) 0.2085(3)
C4 C 0.9908(6) 0.2968(3) 0.1664(3)
H1 H 0.87560 0.27210 0.21550
C5 C 0.9896(7) 0.3093(4) 0.0524(3)
H2 H 0.87430 0.29210 0.02460
C6 C 1.1580(8) 0.3472(4) -0.0204(4)
H3 H 1.15600 0.35690 -0.09760
C7 C 1.3293(7) 0.3706(4) 0.0211(4)
H4 H 1.44390 0.39530 -0.02850
C8 C 1.3342(6) 0.3581(3) 0.1344(3)
H5 H 1.45120 0.37450 0.16150
C9 C 0.7698(5) 0.4966(3) 0.3703(3)
C10 C 0.5712(5) 0.5613(3) 0.3357(3)
H6 H 0.46330 0.51410 0.34190
C11 C 0.5313(5) 0.6955(3) 0.2921(3)
H7 H 0.39500 0.73680 0.27080
C12 C 0.6850(5) 0.7710(3) 0.2787(2)
C13 C 0.8820(5) 0.7039(3) 0.3160(3)
H8 H 0.99000 0.75110 0.31000
C14 C 0.9247(5) 0.5697(3) 0.3617(3)
H9 H 1.05860 0.52880 0.38670
C15 C 0.6424(5) 0.9203(3) 0.2287(3)
C16 C 0.4223(6) 0.9697(3) 0.1826(3)
H10 H 0.40160 1.06310 0.15190
H11 H 0.31340 0.95040 0.24260
H12 H 0.41380 0.92660 0.12440
C17 C 0.8119(6) 0.9551(3) 0.1315(3)
H13 H 0.78450 1.04850 0.10050
H14 H 0.80630 0.91060 0.07380
H15 H 0.95110 0.92810 0.15940
C18 C 0.6534(6) 0.9902(3) 0.3209(3)
H16 H 0.62720 1.08370 0.29020
H17 H 0.79270 0.96230 0.34860
H18 H 0.54710 0.96860 0.38180
H19 H 0.693(5) 0.330(3) 0.445(3)
H20 H 0.836(6) 0.031(4) 0.545(3)
#END
