
#######################################################################
#
#                 Cambridge Crystallographic Data Centre
#                                CCDC
#
#######################################################################
#
# If this CIF has been generated from an entry in the Cambridge
# Structural Database, then it will include bibliographic, chemical,
# crystal, experimental, refinement or atomic coordinate data resulting
# from the CCDC's data processing and validation procedures.
#
#######################################################################

data_CSD_CIF_IZEQUA
_audit_creation_date 2011-11-16
_audit_creation_method CSD-ConQuest-V1
_database_code_CSD IZEQUA
_database_code_depnum_ccdc_archive 'CCDC 808425'
_chemical_formula_sum 'C16 H12 N4 O4'
_chemical_formula_moiety
;
C16 H12 N4 O4
;
_journal_coden_Cambridge 574
_journal_volume 91
_journal_year 2011
_journal_page_first 105
_journal_name_full 'Dyes Pigm. '
loop_
_publ_author_name
"Bin Hu"
"Gang Wang"
"Wei You"
"Wei Huang"
"Xiao-Zeng You"
_chemical_name_systematic
;
1-Methyl-3-((4-nitrophenyl)hydrazono)quinoline-2,4(1H,3H)-dione
;
_cell_volume    718.758
_exptl_crystal_colour 'yellow'
_exptl_crystal_density_diffrn 1.498
_exptl_crystal_description 'block'
_diffrn_ambient_temperature 291
#These two values have been output from a single CSD field.
_refine_ls_R_factor_gt 0.044
_refine_ls_wR_factor_gt 0.044
_symmetry_cell_setting triclinic
_symmetry_space_group_name_H-M 'P -1'
_symmetry_Int_Tables_number 2
loop_
_symmetry_equiv_pos_site_id
_symmetry_equiv_pos_as_xyz
1 x,y,z
2 -x,-y,-z
_cell_length_a 7.8700(14)
_cell_length_b 8.0484(15)
_cell_length_c 11.469(2)
_cell_angle_alpha 94.770(2)
_cell_angle_beta 92.856(3)
_cell_angle_gamma 95.972(2)
_cell_formula_units_Z 2
loop_
_atom_type_symbol
_atom_type_radius_bond
C 0.68
H 0.23
N 0.68
O 0.68
loop_
_atom_site_label
_atom_site_type_symbol
_atom_site_fract_x
_atom_site_fract_y
_atom_site_fract_z
C1 C 0.8450(3) 0.4096(3) 0.5882(2)
C2 C 0.8268(3) 0.5840(3) 0.6294(2)
C3 C 0.6781(3) 0.6171(3) 0.4431(2)
C4 C 0.6902(3) 0.4499(3) 0.4010(2)
C5 C 0.7729(3) 0.3375(3) 0.4719(2)
C6 C 0.5995(3) 0.7215(4) 0.3721(2)
H1 H 0.59200 0.83240 0.39960
C7 C 0.5331(3) 0.6634(4) 0.2621(3)
H2 H 0.48070 0.73480 0.21550
C8 C 0.5435(3) 0.4988(5) 0.2199(2)
H3 H 0.49850 0.45980 0.14490
C9 C 0.6204(3) 0.3929(3) 0.2888(2)
H4 H 0.62590 0.28210 0.26040
C10 C 0.7217(4) 0.8517(3) 0.5989(2)
H5 H 0.76180 0.87200 0.67970
H6 H 0.60270 0.86780 0.59130
H7 H 0.78600 0.92830 0.55350
C11 C 1.0641(3) 0.2436(3) 0.8232(2)
C12 C 1.0777(3) 0.0803(3) 0.7801(2)
H8 H 1.03620 0.04230 0.70420
C13 C 1.1524(3) -0.0249(3) 0.8497(2)
H9 H 1.15930 -0.13590 0.82220
C14 C 1.2169(3) 0.0341(3) 0.9602(2)
C15 C 1.2061(3) 0.1975(3) 1.0032(2)
H10 H 1.25050 0.23590 1.07840
C16 C 1.1300(3) 0.3026(3) 0.9346(2)
H11 H 1.12240 0.41310 0.96270
N1 N 0.7442(2) 0.6796(2) 0.55631(17)
N2 N 0.9202(2) 0.3046(2) 0.65071(18)
N3 N 0.9855(2) 0.3547(2) 0.75549(17)
H12 H 0.98040 0.45640 0.78350
N4 N 1.2980(3) -0.0773(4) 1.0342(2)
O1 O 0.8851(2) 0.6436(2) 0.72844(15)
O2 O 0.7830(3) 0.1904(2) 0.43668(15)
O3 O 1.2941(3) -0.2261(3) 0.99960(19)
O4 O 1.3684(3) -0.0180(3) 1.12808(19)
#END
