
#######################################################################
#
#                 Cambridge Crystallographic Data Centre
#                                CCDC
#
#######################################################################
#
# If this CIF has been generated from an entry in the Cambridge
# Structural Database, then it will include bibliographic, chemical,
# crystal, experimental, refinement or atomic coordinate data resulting
# from the CCDC's data processing and validation procedures.
#
#######################################################################

data_CSD_CIF_IZIBUP
_audit_creation_date 2011-11-16
_audit_creation_method CSD-ConQuest-V1
_database_code_CSD IZIBUP
_database_code_depnum_ccdc_archive 'CCDC 847727'
_chemical_formula_sum 'C16 H19 N3 O9'
_chemical_formula_moiety
;
C16 H19 N3 O9
;
_journal_coden_Cambridge 4
_journal_volume 133
_journal_year 2011
_journal_page_first 5791
_journal_name_full 'J.Am.Chem.Soc. '
loop_
_publ_author_name
"Yingjie Xu"
"Luqing Lin"
"M.Kanai"
"S.Matsunaga"
"M.Shibasaki"
_chemical_name_systematic
;
Dimethyl (3-((3,5-dinitrobenzoyl)amino)butan-2-yl)malonate
;
_cell_volume   1804.610
_exptl_crystal_colour 'colorless'
_exptl_crystal_density_diffrn 1.462
_exptl_crystal_description 'block'
_diffrn_ambient_temperature 118.1
#These two values have been output from a single CSD field.
_refine_ls_R_factor_gt 0.0409
_refine_ls_wR_factor_gt 0.0409
_symmetry_cell_setting orthorhombic
_symmetry_space_group_name_H-M 'P 21 21 21'
_symmetry_Int_Tables_number 19
loop_
_symmetry_equiv_pos_site_id
_symmetry_equiv_pos_as_xyz
1 x,y,z
2 1/2+x,1/2-y,-z
3 -x,1/2+y,1/2-z
4 1/2-x,-y,1/2+z
_cell_length_a 7.12514(13)
_cell_length_b 8.22811(15)
_cell_length_c 30.7815(6)
_cell_angle_alpha 90
_cell_angle_beta 90
_cell_angle_gamma 90
_cell_formula_units_Z 4
loop_
_atom_type_symbol
_atom_type_radius_bond
C 0.68
H 0.23
N 0.68
O 0.68
loop_
_atom_site_label
_atom_site_type_symbol
_atom_site_fract_x
_atom_site_fract_y
_atom_site_fract_z
O1 O 1.1239(2) 0.3417(2) 0.61521(6)
O2 O 0.7527(2) 0.2543(2) 0.68953(6)
O3 O 1.2470(2) 0.0102(2) 0.59221(6)
O4 O -0.0429(2) -0.0887(2) 0.68615(6)
O5 O -0.1436(2) -0.0372(2) 0.75106(6)
O6 O 0.5488(2) 0.2716(2) 0.83818(6)
O7 O 1.0725(3) 0.4451(2) 0.54871(6)
O8 O 1.1413(2) -0.0436(2) 0.52531(6)
O9 O 0.3110(2) 0.1255(2) 0.85889(6)
N1 N 0.5508(3) 0.1994(2) 0.63477(6)
N2 N 0.4105(3) 0.1856(2) 0.83066(7)
N3 N -0.0242(3) -0.0302(2) 0.72256(7)
C1 C 0.4485(3) 0.1601(3) 0.70967(8)
C2 C 1.1415(3) 0.0385(3) 0.56225(8)
C3 C 0.8327(3) 0.1114(3) 0.59478(8)
C4 C 0.9879(3) 0.1661(3) 0.56275(8)
C5 C 0.5979(3) 0.2074(3) 0.67701(8)
C6 C 0.4928(3) 0.1917(3) 0.75340(8)
C7 C 0.2779(3) 0.0885(3) 0.69953(8)
C8 C 0.1554(3) 0.0497(3) 0.73272(8)
C9 C 1.0666(3) 0.3346(3) 0.57382(8)
C10 C 0.5788(4) 0.2904(3) 0.55955(9)
C11 C 0.6842(3) 0.2470(3) 0.60080(8)
C12 C 0.3654(3) 0.1508(3) 0.78484(8)
C13 C 0.1922(3) 0.0790(3) 0.77610(8)
C14 C 0.7480(4) -0.0493(3) 0.57939(9)
C15 C 1.2751(4) -0.1768(3) 0.52186(10)
C16 C 1.1858(4) 0.5008(3) 0.62985(10)
H1 H 0.43010 0.16070 0.62670
H2 H 0.60940 0.24030 0.76090
H3 H 0.24530 0.06690 0.67020
H4 H 0.10600 0.05110 0.79840
H5 H 0.56640 0.19580 0.54210
H6 H 0.64660 0.37090 0.54400
H7 H 0.45770 0.33090 0.56660
H8 H 0.64390 -0.02720 0.56100
H9 H 0.70740 -0.11130 0.60370
H10 H 0.83990 -0.10880 0.56370
H11 H 1.38930 -0.13650 0.51010
H12 H 1.22600 -0.25850 0.50320
H13 H 1.29790 -0.22180 0.54980
H14 H 1.31660 0.51210 0.62470
H15 H 1.16140 0.51160 0.66010
H16 H 1.11970 0.58260 0.61440
H17 H 0.89100 0.09220 0.62210
H18 H 0.93440 0.17130 0.53450
H19 H 0.74720 0.34190 0.61060
#END
