
#######################################################################
#
#                 Cambridge Crystallographic Data Centre
#                                CCDC
#
#######################################################################
#
# If this CIF has been generated from an entry in the Cambridge
# Structural Database, then it will include bibliographic, chemical,
# crystal, experimental, refinement or atomic coordinate data resulting
# from the CCDC's data processing and validation procedures.
#
#######################################################################

data_CSD_CIF_IZIJOQ
_audit_creation_date 2004-11-03
_audit_creation_method CSD-ConQuest-V1
_database_code_CSD IZIJOQ
_database_code_depnum_ccdc_archive 'CCDC 241264'
_chemical_formula_sum 'C10 H15 N1 O2'
_chemical_formula_moiety
;
C10 H15 N1 O2
;
_journal_coden_Cambridge 35
_journal_volume 69
_journal_year 2004
_journal_page_first 3025
_journal_name_full 'J.Org.Chem. '
loop_
_publ_author_name
"S.M.Sparks"
"C.P.Chow"
"Liang Zhu"
"K.J.Shea"
_chemical_name_systematic
;
1-Aza-11-oxabicyclo(6.3.1)dodec-8-en-2-one
;
_cell_volume    922.646
_exptl_crystal_colour 'colorless'
_exptl_crystal_density_diffrn 1.305
_exptl_crystal_description 'parallelepiped'
_diffrn_ambient_temperature 163
#These two values have been output from a single CSD field.
_refine_ls_R_factor_gt 0.0347
_refine_ls_wR_factor_gt 0.0347
_symmetry_cell_setting monoclinic
_symmetry_space_group_name_H-M 'P 21/c'
_symmetry_Int_Tables_number 14
loop_
_symmetry_equiv_pos_site_id
_symmetry_equiv_pos_as_xyz
1 x,y,z
2 x,1/2-y,1/2+z
3 -x,-y,-z
4 -x,-1/2+y,-1/2-z
_cell_length_a 13.6734(6)
_cell_length_b 5.9670(3)
_cell_length_c 11.9961(5)
_cell_angle_alpha 90
_cell_angle_beta 109.494(1)
_cell_angle_gamma 90
_cell_formula_units_Z 4
loop_
_atom_type_symbol
_atom_type_radius_bond
C 0.68
H 0.23
N 0.68
O 0.68
loop_
_atom_site_label
_atom_site_type_symbol
_atom_site_fract_x
_atom_site_fract_y
_atom_site_fract_z
N1 N 0.81486(6) 0.62852(14) 0.42694(7)
O1 O 0.90345(5) 0.76958(13) 0.45826(6)
O2 O 0.71492(6) 0.94311(13) 0.36894(7)
C1 C 0.83981(8) 0.42267(16) 0.37406(9)
C2 C 0.85197(8) 0.48663(17) 0.25723(9)
C3 C 0.79778(9) 0.34828(18) 0.14898(9)
C4 C 0.67887(9) 0.34526(18) 0.12191(10)
C5 C 0.63102(8) 0.58173(19) 0.11212(9)
C6 C 0.56836(8) 0.6305(2) 0.19444(9)
C7 C 0.62619(8) 0.59141(18) 0.32705(9)
C8 C 0.72176(8) 0.73940(17) 0.37330(8)
C9 C 0.93039(8) 0.84100(18) 0.35600(9)
C10 C 0.89548(8) 0.68432(18) 0.25297(9)
H1 H 0.9046(11) 0.366(2) 0.4297(12)
H2 H 0.7865(10) 0.314(2) 0.3651(11)
H3 H 0.8135(11) 0.417(2) 0.0802(13)
H4 H 0.8248(11) 0.193(2) 0.1587(12)
H5 H 0.6616(11) 0.256(2) 0.1815(13)
H6 H 0.6483(11) 0.261(2) 0.0474(13)
H7 H 0.687(1) 0.697(2) 0.1279(11)
H8 H 0.5859(11) 0.605(2) 0.0307(13)
H9 H 0.5058(11) 0.539(2) 0.1719(12)
H10 H 0.5448(10) 0.789(2) 0.1833(12)
H11 H 0.6443(10) 0.434(2) 0.3451(11)
H12 H 0.5791(11) 0.639(2) 0.3680(13)
H13 H 1.0063(12) 0.856(2) 0.3866(13)
H14 H 0.8990(11) 0.990(2) 0.3307(12)
H15 H 0.9001(10) 0.744(2) 0.1808(13)
#END
