
#######################################################################
#
#                 Cambridge Crystallographic Data Centre
#                                CCDC
#
#######################################################################
#
# If this CIF has been generated from an entry in the Cambridge
# Structural Database, then it will include bibliographic, chemical,
# crystal, experimental, refinement or atomic coordinate data resulting
# from the CCDC's data processing and validation procedures.
#
#######################################################################

data_CSD_CIF_IZINOU
_audit_creation_date 2004-11-03
_audit_creation_method CSD-ConQuest-V1
_database_code_CSD IZINOU
_database_code_depnum_ccdc_archive 'CCDC 217301'
_chemical_formula_sum 'C25 H31 N9 O4'
_chemical_formula_moiety
;
C25 H31 N9 O4
;
_journal_coden_Cambridge 1291
_journal_year 2004
_journal_page_first 2367
_journal_name_full 'Eur.J.Org.Chem. '
loop_
_publ_author_name
"G.Zoppellaro"
"A.Geies"
"V.Enkelmann"
"M.Baumgarten"
_chemical_name_systematic
;
2,6-bis(4-(1-Oxyl-3-oxo-4,4,5,5-tetramethyl-imidazolin-2-yl)pyrazol-1-yl)pyrid
ine
;
_cell_volume   2523.017
_exptl_crystal_colour 'dark blue'
_exptl_crystal_density_diffrn 1.373
_exptl_crystal_description 'needles'
_exptl_crystal_preparation 'hexane/chloroform'
_diffrn_ambient_temperature 120
#These two values have been output from a single CSD field.
_refine_ls_R_factor_gt 0.0384
_refine_ls_wR_factor_gt 0.0384
_symmetry_cell_setting monoclinic
_symmetry_space_group_name_H-M 'C 2/c'
_symmetry_Int_Tables_number 15
loop_
_symmetry_equiv_pos_site_id
_symmetry_equiv_pos_as_xyz
1 x,y,z
2 1/2+x,1/2+y,z
3 x,-y,1/2+z
4 1/2+x,1/2-y,1/2+z
5 -x,-y,-z
6 -1/2-x,-1/2-y,-z
7 -x,y,-1/2-z
8 -1/2-x,-1/2+y,-1/2-z
_cell_length_a 18.5194(7)
_cell_length_b 9.6934(5)
_cell_length_c 14.4537(6)
_cell_angle_alpha 90
_cell_angle_beta 103.4964(10)
_cell_angle_gamma 90
_cell_formula_units_Z 4
loop_
_atom_type_symbol
_atom_type_radius_bond
C 0.68
H 0.23
N 0.68
O 0.68
loop_
_atom_site_label
_atom_site_type_symbol
_atom_site_fract_x
_atom_site_fract_y
_atom_site_fract_z
O1 O 0.16819(7) 0.29480(13) 0.21678(8)
O2 O 0.09939(7) 0.06153(13) -0.06941(8)
N1 N 0.00000 0.5053(2) -0.25000
N2 N 0.06011(7) 0.50054(14) -0.08957(9)
N3 N 0.08569(8) 0.56951(14) -0.0058(1)
N4 N 0.15939(7) 0.19810(14) 0.15475(9)
N5 N 0.12690(7) 0.08694(14) 0.01888(9)
C1 C 0.02902(8) 0.57878(17) -0.17237(11)
C2 C 0.10210(8) 0.33892(17) 0.01479(11)
C3 C 0.12732(8) 0.21076(17) 0.06118(11)
C4 C 0.19728(8) 0.06120(17) 0.17653(11)
C5 C 0.15500(8) -0.02570(17) 0.09002(11)
C6 C 0.03113(9) 0.72206(17) -0.16753(11)
C7 C 0.000000(7) 0.7934(2) -0.250000(7)
C8 C 0.11066(9) 0.47230(17) 0.05652(12)
C9 C 0.06850(8) 0.36230(17) -0.08009(11)
H1 H 0.05308(9) 0.76866(17) -0.11001(11)
H2 H 0.000000(7) 0.8914(2) -0.250000(7)
H3 H 0.13171(9) 0.48888(17) 0.12204(12)
H4 H 0.05429(8) 0.29485(17) -0.12862(11)
C10 C 0.27880(9) 0.08734(18) 0.17613(12)
H5 H 0.30591(9) 0.00366(18) 0.18973(12)
H6 H 0.29894(9) 0.15412(18) 0.22320(12)
H7 H 0.28211(9) 0.12032(18) 0.11537(12)
C11 C 0.1900(1) 0.01160(18) 0.27336(12)
H8 H 0.2140(1) -0.07509(18) 0.28703(12)
H9 H 0.2124(1) 0.07672(18) 0.32047(12)
H10 H 0.1389(1) 0.00212(18) 0.27327(12)
C12 C 0.2037(1) -0.12559(19) 0.05047(13)
H11 H 0.2210(1) -0.19637(19) 0.09569(13)
H12 H 0.2449(1) -0.07723(19) 0.03768(13)
H13 H 0.1756(1) -0.16541(19) -0.00671(13)
C13 C 0.08615(9) -0.09939(19) 0.10715(13)
H14 H 0.10095(9) -0.17217(19) 0.15155(13)
H15 H 0.05682(9) -0.03504(19) 0.13190(13)
H16 H 0.05787(9) -0.13600(19) 0.04893(13)
C1F C -0.02902(8) 0.57878(17) -0.32763(11)
N2F N -0.06011(7) 0.50054(14) -0.41043(9)
N3F N -0.08569(8) 0.56951(14) -0.4942(1)
C8F C -0.11066(9) 0.47230(17) -0.55652(12)
C2F C -0.10210(8) 0.33892(17) -0.51479(11)
C3F C -0.12732(8) 0.21076(17) -0.56118(11)
N4F N -0.15939(7) 0.19810(14) -0.65475(9)
O1F O -0.16819(7) 0.29480(13) -0.71678(8)
C4F C -0.19728(8) 0.06120(17) -0.67653(11)
C5F C -0.15500(8) -0.02570(17) -0.59002(11)
N5F N -0.12690(7) 0.08694(14) -0.51888(9)
O2F O -0.09939(7) 0.06153(13) -0.43059(8)
C12F C -0.2037(1) -0.12559(19) -0.55047(13)
H11F H -0.2210(1) -0.19637(19) -0.59569(13)
H12F H -0.2449(1) -0.07723(19) -0.53768(13)
H13F H -0.1756(1) -0.16541(19) -0.49329(13)
C13F C -0.08615(9) -0.09939(19) -0.60715(13)
H14F H -0.10095(9) -0.17217(19) -0.65155(13)
H15F H -0.05682(9) -0.03504(19) -0.63190(13)
H16F H -0.05787(9) -0.13600(19) -0.54893(13)
C10F C -0.27880(9) 0.08734(18) -0.67613(12)
H5F H -0.30591(9) 0.00366(18) -0.68973(12)
H6F H -0.29894(9) 0.15412(18) -0.72320(12)
H7F H -0.28211(9) 0.12032(18) -0.61537(12)
C11F C -0.1900(1) 0.01160(18) -0.77336(12)
H8F H -0.2140(1) -0.07509(18) -0.78703(12)
H9F H -0.2124(1) 0.07672(18) -0.82047(12)
H10F H -0.1389(1) 0.00212(18) -0.77327(12)
C9F C -0.06850(8) 0.36230(17) -0.41991(11)
H4F H -0.05429(8) 0.29485(17) -0.37138(11)
H3F H -0.13171(9) 0.48888(17) -0.62204(12)
C6F C -0.03113(9) 0.72206(17) -0.33247(11)
H1F H -0.05308(9) 0.76866(17) -0.38999(11)
#END
