
#######################################################################
#
#                 Cambridge Crystallographic Data Centre
#                                CCDC
#
#######################################################################
#
# If this CIF has been generated from an entry in the Cambridge
# Structural Database, then it will include bibliographic, chemical,
# crystal, experimental, refinement or atomic coordinate data resulting
# from the CCDC's data processing and validation procedures.
#
#######################################################################

data_CSD_CIF_IZIPOY
_audit_creation_date 2016-11-14
_audit_creation_method CSD-ConQuest-V1
_database_code_CSD IZIPOY
_database_code_depnum_ccdc_archive 'CCDC 1504986'
_chemical_formula_sum 'C26 H23 N3 O3'
_chemical_formula_moiety
;
C26 H23 N3 O3
;
_journal_coden_Cambridge 35
_journal_volume 81
_journal_year 2016
_journal_page_first 9912
_journal_name_full 'J.Org.Chem. '
loop_
_publ_author_name
"S.Kumar"
"R.K.Saunthwal"
"M.Mujahid"
"T.Aggarwal"
"A.K.Verma"
_chemical_name_systematic
;
1-(4-t-butylphenyl)-2-(3-(4-nitrophenyl)quinoxalin-2-yl)ethenol
;
_cell_volume   1066.730
_exptl_crystal_colour 'colorless'
_exptl_crystal_density_diffrn 1.325
_exptl_crystal_description 'block'
_diffrn_ambient_temperature 293
#These two values have been output from a single CSD field.
_refine_ls_R_factor_gt 0.0615
_refine_ls_wR_factor_gt 0.0615
_symmetry_cell_setting triclinic
_symmetry_space_group_name_H-M 'P -1'
_symmetry_Int_Tables_number 2
loop_
_symmetry_equiv_pos_site_id
_symmetry_equiv_pos_as_xyz
1 x,y,z
2 -x,-y,-z
_cell_length_a 5.7605(19)
_cell_length_b 11.654(4)
_cell_length_c 16.447(6)
_cell_angle_alpha 75.46(3)
_cell_angle_beta 87.95(3)
_cell_angle_gamma 86.69(3)
_cell_formula_units_Z 2
loop_
_atom_type_symbol
_atom_type_radius_bond
C 0.68
H 0.23
N 0.68
O 0.68
loop_
_atom_site_label
_atom_site_type_symbol
_atom_site_fract_x
_atom_site_fract_y
_atom_site_fract_z
C1 C 0.4410(7) 0.8733(3) -0.0484(2)
C2 C 0.2297(6) 0.8609(4) -0.0059(2)
H1 H 0.11478 0.92179 -0.01677
C3 C 0.1926(6) 0.7559(3) 0.0531(2)
H2 H 0.05066 0.74573 0.08211
C4 C 0.3648(5) 0.6655(3) 0.06976(18)
C5 C 0.5737(5) 0.6816(3) 0.0243(2)
H3 H 0.68927 0.62092 0.03445
C6 C 0.6135(6) 0.7851(3) -0.0354(2)
H4 H 0.75314 0.79495 -0.06587
C7 C 0.3154(5) 0.5526(3) 0.13119(19)
C8 C 0.0936(5) 0.3883(3) 0.1695(2)
C9 C -0.0952(5) 0.3251(3) 0.1546(2)
H5 H -0.18949 0.35639 0.10872
C10 C -0.1392(6) 0.2172(4) 0.2081(2)
H6 H -0.26585 0.17635 0.19890
C11 C 0.0044(6) 0.1679(3) 0.2762(2)
H7 H -0.02528 0.09408 0.31149
C12 C 0.1875(6) 0.2282(3) 0.2908(2)
H8 H 0.28220 0.19522 0.33621
C13 C 0.2347(5) 0.3381(3) 0.2386(2)
C14 C 0.4577(5) 0.5080(3) 0.20526(18)
C15 C 0.6345(5) 0.5750(3) 0.22572(17)
H9 H 0.65769 0.65045 0.19173
C16 C 0.7750(5) 0.5313(3) 0.29525(19)
C17 C 0.9522(5) 0.6012(3) 0.32102(18)
C18 C 0.9852(5) 0.7190(3) 0.28130(18)
H10 H 0.90472 0.75474 0.23267
C19 C 1.1359(5) 0.7843(3) 0.31283(19)
H11 H 1.15354 0.86337 0.28504
C20 C 1.2625(5) 0.7351(3) 0.38511(18)
C21 C 1.2362(5) 0.6163(3) 0.4210(2)
H12 H 1.32318 0.57910 0.46775
C22 C 1.0856(5) 0.5507(3) 0.3902(2)
H13 H 1.07364 0.47066 0.41653
C23 C 1.4054(5) 0.8125(3) 0.42500(19)
C24 C 1.5165(5) 0.9121(3) 0.3587(2)
H14 H 1.60741 0.87860 0.31944
H15 H 1.61503 0.95439 0.38562
H16 H 1.39670 0.96572 0.32938
C25 C 1.2378(5) 0.8670(3) 0.4824(2)
H17 H 1.11384 0.91247 0.44961
H18 H 1.32116 0.91776 0.50755
H19 H 1.17424 0.80462 0.52568
C26 C 1.5994(5) 0.7391(3) 0.4790(2)
H20 H 1.53215 0.68116 0.52446
H21 H 1.68938 0.79061 0.50124
H22 H 1.69834 0.69968 0.44515
N1 N 0.4845(8) 0.9867(3) -0.1109(2)
N2 N 0.1393(4) 0.4958(3) 0.11555(16)
N3 N 0.4159(4) 0.4009(2) 0.25452(15)
O1 O 0.3259(6) 1.0630(3) -0.1241(2)
O2 O 0.6775(6) 0.9979(3) -0.1443(2)
O3 O 0.7521(3) 0.4258(2) 0.34403(12)
H23 H 0.68883 0.38459 0.31847
#END
