
#######################################################################
#
#                 Cambridge Crystallographic Data Centre
#                                CCDC
#
#######################################################################
#
# If this CIF has been generated from an entry in the Cambridge
# Structural Database, then it will include bibliographic, chemical,
# crystal, experimental, refinement or atomic coordinate data resulting
# from the CCDC's data processing and validation procedures.
#
#######################################################################

data_CSD_CIF_IZISOA
_audit_creation_date 2011-11-21
_audit_creation_method CSD-ConQuest-V1
_database_code_CSD IZISOA
_database_code_depnum_ccdc_archive 'CCDC 753455'
_chemical_formula_sum 'C15 H22 N2 O3'
_chemical_formula_moiety
;
C15 H22 N2 O3
;
_journal_coden_Cambridge 587
_journal_volume 31
_journal_year 2010
_journal_page_first 2467
_journal_name_full 'Bull.Korean Chem.Soc. '
loop_
_publ_author_name
"Zhao Yong Zhu"
"Qing Ming Shi"
"Bao Feng Han"
"Xian Feng Wang"
"Sheng Qiang"
"Chun Long Yang"
_chemical_name_systematic
;
3-(1-((Allyloxy)amino)ethylidene)-1-cyclohexylpyrrolidine-2,4-dione
;
_cell_volume   2993.719
_exptl_crystal_colour 'colorless'
_exptl_crystal_density_diffrn 1.235
_exptl_crystal_description 'needle'
_diffrn_ambient_temperature 296
#These two values have been output from a single CSD field.
_refine_ls_R_factor_gt 0.0678
_refine_ls_wR_factor_gt 0.0678
_symmetry_cell_setting monoclinic
_symmetry_space_group_name_H-M 'C 2/c'
_symmetry_Int_Tables_number 15
loop_
_symmetry_equiv_pos_site_id
_symmetry_equiv_pos_as_xyz
1 x,y,z
2 -x,y,1/2-z
3 1/2+x,1/2+y,z
4 1/2-x,1/2+y,1/2-z
5 -x,-y,-z
6 x,-y,-1/2+z
7 -1/2-x,-1/2-y,-z
8 -1/2+x,-1/2-y,-1/2+z
_cell_length_a 32.778(9)
_cell_length_b 5.1948(14)
_cell_length_c 18.025(5)
_cell_angle_alpha 90
_cell_angle_beta 102.734(3)
_cell_angle_gamma 90
_cell_formula_units_Z 8
loop_
_atom_type_symbol
_atom_type_radius_bond
C 0.68
H 0.23
N 0.68
O 0.68
loop_
_atom_site_label
_atom_site_type_symbol
_atom_site_fract_x
_atom_site_fract_y
_atom_site_fract_z
C1 C 0.07968(13) 1.0254(11) 0.3756(3)
H1 H 0.08090 1.19990 0.38730
H2 H 0.05490 0.93500 0.37220
C2 C 0.11332(11) 0.9055(10) 0.3636(3)
H3 H 0.11010 0.73110 0.35210
C3 C 0.15495(9) 1.0135(7) 0.36630(18)
H4 H 0.15940 1.04190 0.31550
H5 H 0.15880 1.17470 0.39410
C4 C 0.24848(8) 0.7768(6) 0.37603(15)
C5 C 0.29040(8) 0.8513(5) 0.39099(14)
C6 C 0.32393(8) 0.7421(6) 0.35870(14)
C7 C 0.30736(8) 1.0479(6) 0.44262(16)
C8 C 0.35352(8) 1.0677(7) 0.44419(18)
H6 H 0.36050 1.23540 0.42680
H7 H 0.37020 1.03770 0.49500
C9 C 0.39953(8) 0.8296(6) 0.36925(16)
H8 H 0.39610 0.68090 0.33500
C10 C 0.43499(9) 0.7689(7) 0.43603(18)
H9 H 0.42840 0.61370 0.46090
H10 H 0.43800 0.90850 0.47260
C11 C 0.47627(9) 0.7310(7) 0.4114(2)
H11 H 0.49850 0.70370 0.45610
H12 H 0.47440 0.57870 0.37970
C12 C 0.48670(9) 0.9594(7) 0.3681(2)
H13 H 0.49200 1.10740 0.40170
H14 H 0.51200 0.92410 0.35030
C13 C 0.45183(11) 1.0203(9) 0.3015(2)
H15 H 0.44890 0.88080 0.26500
H16 H 0.45870 1.17540 0.27690
C14 C 0.41039(10) 1.0589(8) 0.3254(2)
H17 H 0.41220 1.21190 0.35680
H18 H 0.38830 1.08550 0.28040
C15 C 0.23064(9) 0.5721(6) 0.32077(18)
H19 H 0.22020 0.43460 0.34690
H20 H 0.25200 0.50720 0.29690
H21 H 0.20820 0.64230 0.28270
N1 N 0.36007(7) 0.8664(5) 0.39228(14)
N2 N 0.22356(7) 0.8972(5) 0.41290(14)
H22 H 0.23290 1.02520 0.44190
O1 O 0.32249(6) 0.5713(4) 0.31114(12)
O2 O 0.28964(6) 1.1861(5) 0.48167(12)
O3 O 0.18243(6) 0.8189(4) 0.40523(12)
#END
