
#######################################################################
#
#                 Cambridge Crystallographic Data Centre
#                                CCDC
#
#######################################################################
#
# If this CIF has been generated from an entry in the Cambridge
# Structural Database, then it will include bibliographic, chemical,
# crystal, experimental, refinement or atomic coordinate data resulting
# from the CCDC's data processing and validation procedures.
#
#######################################################################

data_CSD_CIF_IZOMOZ
_audit_creation_date 2004-11-03
_audit_creation_method CSD-ConQuest-V1
_database_code_CSD IZOMOZ
_database_code_depnum_ccdc_archive 'CCDC 205950'
_chemical_formula_sum 'C22 H26 N2 O6'
_chemical_formula_moiety
;
C22 H26 N2 O6
;
_journal_coden_Cambridge 504
_journal_volume 58
_journal_year 2003
_journal_page_first 776
_journal_name_full 'Pharmazie '
loop_
_publ_author_name
"K.Gorlitzer"
"J.Trittmacher"
"P.G.Jones"
"P.Frohberg"
"G.Drutkowski"
_chemical_name_systematic
;
Dimethyl 
(1RS,2SR)-4-methyl-2-(2-nitrophenyl)-6-(piperidin-1-yl)-cyclohexa-3,5-diene-1,
3-dicarboxylate
;
_chemical_melting_point 436.15
_cell_volume   2047.761
_exptl_crystal_colour 'red'
_exptl_crystal_density_diffrn 1.344
_exptl_crystal_description 'tablet'
_diffrn_ambient_temperature 133
#These two values have been output from a single CSD field.
_refine_ls_R_factor_gt 0.0413
_refine_ls_wR_factor_gt 0.0413
_symmetry_cell_setting monoclinic
_symmetry_space_group_name_H-M 'P 21/c'
_symmetry_Int_Tables_number 14
loop_
_symmetry_equiv_pos_site_id
_symmetry_equiv_pos_as_xyz
1 x,y,z
2 x,1/2-y,1/2+z
3 -x,-y,-z
4 -x,-1/2+y,-1/2-z
_cell_length_a 9.9699(12)
_cell_length_b 27.367(3)
_cell_length_c 7.5327(8)
_cell_angle_alpha 90
_cell_angle_beta 94.899(3)
_cell_angle_gamma 90
_cell_formula_units_Z 4
loop_
_atom_type_symbol
_atom_type_radius_bond
C 0.68
H 0.23
N 0.68
O 0.68
loop_
_atom_site_label
_atom_site_type_symbol
_atom_site_fract_x
_atom_site_fract_y
_atom_site_fract_z
C1 C 0.4948(1) 0.12667(3) 0.60599(13)
H1 H 0.44540 0.09810 0.54970
C2 C 0.64839(10) 0.11629(4) 0.61056(13)
H2 H 0.67240 0.09350 0.71200
C3 C 0.73134(11) 0.16230(4) 0.64353(13)
C4 C 0.67887(11) 0.20620(4) 0.58517(13)
C5 C 0.54507(11) 0.20928(4) 0.49585(14)
H3 H 0.51910 0.23840 0.43330
C6 C 0.45466(11) 0.17188(4) 0.49818(13)
C7 C 0.45402(11) 0.13220(4) 0.79655(14)
O1 O 0.44569(14) 0.16968(3) 0.87555(14)
O2 O 0.42884(10) 0.08851(3) 0.86509(11)
C8 C 0.39045(14) 0.08760(5) 1.04605(16)
H4 H 0.43830 0.11350 1.11530
H5 H 0.41390 0.05580 1.10010
H6 H 0.29320 0.09290 1.04530
C9 C 0.86845(11) 0.15671(4) 0.72734(14)
O3 O 0.94977(9) 0.18834(3) 0.77092(13)
O4 O 0.89815(8) 0.10810(3) 0.75385(11)
C10 C 1.02780(12) 0.09717(5) 0.84290(17)
H7 H 1.09640 0.11750 0.79320
H8 H 1.04880 0.06260 0.82580
H9 H 1.02670 0.10400 0.97050
C11 C 0.75541(12) 0.25373(4) 0.60433(15)
H10 H 0.77130 0.26210 0.73090
H11 H 0.70280 0.27970 0.54180
H12 H 0.84190 0.25020 0.55280
N1 N 0.32808(9) 0.17206(3) 0.41027(12)
C12 C 0.28774(12) 0.21532(4) 0.30268(15)
H13 H 0.36320 0.22540 0.23360
H14 H 0.26840 0.24260 0.38290
C13 C 0.16385(12) 0.20541(4) 0.17508(15)
H15 H 0.18910 0.18330 0.07940
H16 H 0.13250 0.23650 0.11890
C14 C 0.04873(12) 0.18249(4) 0.26671(16)
H17 H 0.01440 0.20610 0.35130
H18 H -0.02590 0.17400 0.17680
C15 C 0.09842(11) 0.13676(4) 0.36598(15)
H19 H 0.02480 0.12270 0.43010
H20 H 0.12590 0.11210 0.28000
C16 C 0.21728(11) 0.14913(4) 0.49807(14)
H21 H 0.18730 0.17170 0.58950
H22 H 0.25060 0.11890 0.55900
C17 C 0.68266(10) 0.09078(4) 0.43940(13)
C18 C 0.69368(12) 0.04027(4) 0.41806(15)
C19 C 0.72708(14) 0.01830(4) 0.26110(17)
H23 H 0.73410 -0.01620 0.25350
C20 C 0.74982(14) 0.04720(5) 0.11667(17)
H24 H 0.77080 0.03280 0.00770
C21 C 0.74172(13) 0.09748(5) 0.13255(15)
H25 H 0.75810 0.11770 0.03420
C22 C 0.70994(12) 0.11857(4) 0.29106(14)
H26 H 0.70660 0.15320 0.29910
N2 N 0.67110(12) 0.00664(4) 0.56459(14)
O5 O 0.58542(10) 0.01679(3) 0.66634(12)
O6 O 0.73798(13) -0.03097(4) 0.57646(17)
#END
