
#######################################################################
#
#                 Cambridge Crystallographic Data Centre
#                                CCDC
#
#######################################################################
#
# If this CIF has been generated from an entry in the Cambridge
# Structural Database, then it will include bibliographic, chemical,
# crystal, experimental, refinement or atomic coordinate data resulting
# from the CCDC's data processing and validation procedures.
#
#######################################################################

data_CSD_CIF_IZOMUF
_audit_creation_date 2004-11-03
_audit_creation_method CSD-ConQuest-V1
_database_code_CSD IZOMUF
_database_code_depnum_ccdc_archive 'CCDC 205951'
_chemical_formula_sum 'C18 H19 N1 O7'
_chemical_formula_moiety
;
C18 H19 N1 O7
;
_journal_coden_Cambridge 504
_journal_volume 58
_journal_year 2003
_journal_page_first 776
_journal_name_full 'Pharmazie '
loop_
_publ_author_name
"K.Gorlitzer"
"J.Trittmacher"
"P.G.Jones"
"P.Frohberg"
"G.Drutkowski"
_chemical_name_systematic
;
Ethyl methyl 
(RS)-4-hydroxy-6-methyl-2-(2-nitrophenyl)cyclohexa-1(6),3-diene-1,3-dicarboxyl
ate
;
_chemical_melting_point 368.15
_cell_volume    834.625
_exptl_crystal_colour 'colorless'
_exptl_crystal_density_diffrn 1.438
_exptl_crystal_description 'tablet'
_diffrn_ambient_temperature 133
_refine_special_details
;
The ethoxycarbonyl ligand is disordered over two sites with occupancies 
0.841:0.159.
;
#These two values have been output from a single CSD field.
_refine_ls_R_factor_gt 0.0428
_refine_ls_wR_factor_gt 0.0428
_symmetry_cell_setting triclinic
_symmetry_space_group_name_H-M 'P -1'
_symmetry_Int_Tables_number 2
loop_
_symmetry_equiv_pos_site_id
_symmetry_equiv_pos_as_xyz
1 x,y,z
2 -x,-y,-z
_cell_length_a 7.8831(8)
_cell_length_b 11.0529(11)
_cell_length_c 11.1387(11)
_cell_angle_alpha 111.809(3)
_cell_angle_beta 106.593(3)
_cell_angle_gamma 97.021(3)
_cell_formula_units_Z 2
loop_
_atom_type_symbol
_atom_type_radius_bond
C 0.68
H 0.23
N 0.68
O 0.68
loop_
_atom_site_label
_atom_site_type_symbol
_atom_site_fract_x
_atom_site_fract_y
_atom_site_fract_z
C1 C 0.64742(17) 0.16000(12) 0.68138(12)
C2 C 0.53104(15) 0.24760(11) 0.63833(11)
H1 H 0.40060 0.20840 0.62140
C3 C 0.54119(16) 0.25707(11) 0.50813(11)
C4 C 0.66436(17) 0.21000(12) 0.45191(12)
C5 C 0.78674(18) 0.13405(13) 0.50321(13)
H2 H 0.91520 0.18480 0.53340
H3 H 0.76710 0.04640 0.42500
C6 C 0.76177(17) 0.10751(12) 0.62097(13)
C7 C 0.61827(19) 0.14002(12) 0.80073(13)
O1 O 0.4723(4) 0.1247(5) 0.8136(4)
O2 O 0.7779(2) 0.15234(19) 0.89834(16)
C8 C 0.7649(4) 0.1319(2) 1.01750(19)
H4 H 0.66510 0.16820 1.04290
H5 H 0.88100 0.18140 1.09750
C9 C 0.7277(3) -0.01509(19) 0.9855(2)
H6 H 0.61030 -0.06340 0.90880
H7 H 0.72280 -0.02670 1.06760
H8 H 0.82570 -0.05120 0.95910
O3? O 0.463(2) 0.122(4) 0.805(3)
O4? O 0.7460(18) 0.1178(16) 0.8823(14)
C10? C 0.704(2) 0.0969(18) 0.9967(15)
H9? H 0.68720 0.18110 1.06070
H10? H 0.58890 0.02520 0.95820
C11? C 0.8516(17) 0.0591(14) 1.0686(13)
H11? H 0.82490 0.04270 1.14280
H12? H 0.96370 0.13180 1.10880
H13? H 0.86830 -0.02320 1.00410
O5 O 0.28177(11) 0.34177(9) 0.48934(9)
C12 C 0.41639(16) 0.31862(12) 0.44026(12)
O6 O 0.42758(14) 0.34456(10) 0.34401(10)
C13 C 0.14790(18) 0.39676(15) 0.42129(15)
H14 H 0.20430 0.49040 0.44430
H15 H 0.04400 0.39360 0.45280
H16 H 0.10480 0.34340 0.32080
O7 O 0.68651(14) 0.22459(10) 0.34195(9)
H17 H 0.596(3) 0.269(2) 0.318(2)
C14 C 0.8769(2) 0.01907(14) 0.65939(15)
H18 H 1.00530 0.07080 0.70810
H19 H 0.86570 -0.05860 0.57520
H20 H 0.83470 -0.01250 0.71990
C15 C 0.59610(15) 0.38983(11) 0.75776(11)
C16 C 0.48681(17) 0.46854(14) 0.81193(12)
C17 C 0.5596(2) 0.59874(14) 0.91792(13)
H21 H 0.48090 0.64920 0.95200
C18 C 0.7457(2) 0.65379(13) 0.97288(13)
H22 H 0.79670 0.74170 1.04660
C19 C 0.85826(19) 0.58019(13) 0.92003(13)
H23 H 0.98680 0.61830 0.95620
C20 C 0.78401(16) 0.45114(12) 0.81467(12)
H24 H 0.86370 0.40240 0.77970
N1 N 0.28618(16) 0.41992(15) 0.76036(12)
O8 O 0.21623(13) 0.30106(13) 0.72591(11)
O9 O 0.19664(17) 0.50331(16) 0.75648(14)
#END
