
#######################################################################
#
#                 Cambridge Crystallographic Data Centre
#                                CCDC
#
#######################################################################
#
# If this CIF has been generated from an entry in the Cambridge
# Structural Database, then it will include bibliographic, chemical,
# crystal, experimental, refinement or atomic coordinate data resulting
# from the CCDC's data processing and validation procedures.
#
#######################################################################

data_CSD_CIF_IZONAM
_audit_creation_date 2004-11-03
_audit_creation_method CSD-ConQuest-V1
_database_code_CSD IZONAM
_database_code_depnum_ccdc_archive 'CCDC 205952'
_chemical_formula_sum 'C18 H19 N1 O7'
_chemical_formula_moiety
;
C18 H19 N1 O7
;
_journal_coden_Cambridge 504
_journal_volume 58
_journal_year 2003
_journal_page_first 776
_journal_name_full 'Pharmazie '
loop_
_publ_author_name
"K.Gorlitzer"
"J.Trittmacher"
"P.G.Jones"
"P.Frohberg"
"G.Drutkowski"
_chemical_name_systematic
;
Ethyl methyl 
(1RS,2SR)-4-hydroxy-6-methyl-2-(2-nitrophenyl)cyclohexa-3,5-diene-1,3-dicarbox
ylate
;
_chemical_melting_point 416.15
_cell_volume   1738.399
_exptl_crystal_colour 'pale yellow'
_exptl_crystal_density_diffrn 1.381
_exptl_crystal_description 'plate'
_diffrn_ambient_temperature 133
#These two values have been output from a single CSD field.
_refine_ls_R_factor_gt 0.0392
_refine_ls_wR_factor_gt 0.0392
_symmetry_cell_setting monoclinic
_symmetry_space_group_name_H-M 'P 21/n'
_symmetry_Int_Tables_number 14
loop_
_symmetry_equiv_pos_site_id
_symmetry_equiv_pos_as_xyz
1 x,y,z
2 1/2+x,1/2-y,1/2+z
3 -x,-y,-z
4 -1/2-x,-1/2+y,-1/2-z
_cell_length_a 10.0375(12)
_cell_length_b 14.6865(16)
_cell_length_c 12.0113(14)
_cell_angle_alpha 90
_cell_angle_beta 100.953(4)
_cell_angle_gamma 90
_cell_formula_units_Z 4
loop_
_atom_type_symbol
_atom_type_radius_bond
C 0.68
H 0.23
N 0.68
O 0.68
loop_
_atom_site_label
_atom_site_type_symbol
_atom_site_fract_x
_atom_site_fract_y
_atom_site_fract_z
C1 C 0.51690(12) 0.39637(8) 0.86330(11)
H1 H 0.48040 0.40630 0.93420
C2 C 0.40098(12) 0.41339(8) 0.75984(11)
H2 H 0.39040 0.48080 0.75010
C3 C 0.43900(12) 0.37584(9) 0.65297(12)
C4 C 0.52434(13) 0.30308(9) 0.65969(12)
C5 C 0.57753(13) 0.25958(9) 0.76735(12)
H3 H 0.61620 0.20050 0.76790
C6 C 0.57327(12) 0.30065(9) 0.86530(12)
C7 C 0.63221(13) 0.46409(9) 0.86133(12)
O1 O 0.7432(1) 0.44524(7) 0.84684(11)
O2 O 0.59238(9) 0.54935(6) 0.87743(9)
C8 C 0.69338(15) 0.61888(10) 0.87339(15)
H4 H 0.77650 0.60390 0.92750
H5 H 0.65880 0.67790 0.89320
H6 H 0.71330 0.62190 0.79670
C9 C 0.38278(13) 0.41465(9) 0.54353(12)
O3 O 0.41202(10) 0.39018(7) 0.45271(8)
O4 O 0.29184(9) 0.48036(6) 0.54944(8)
C10 C 0.22781(15) 0.52371(10) 0.44406(13)
H7 H 0.17170 0.47920 0.39370
H8 H 0.29740 0.54870 0.40410
C11 C 0.14081(17) 0.59871(11) 0.47579(14)
H9 H 0.07600 0.57340 0.51910
H10 H 0.09130 0.62790 0.40690
H11 H 0.19830 0.64390 0.52220
O5 O 0.56353(11) 0.26509(7) 0.56942(9)
H12 H 0.522(2) 0.3001(12) 0.5097(18)
C12 C 0.62911(15) 0.25910(9) 0.97780(12)
H13 H 0.65380 0.19550 0.96730
H14 H 0.56040 0.26150 1.02580
H15 H 0.70980 0.29300 1.01420
C13 C 0.26557(12) 0.37561(9) 0.78108(11)
C14 C 0.16301(13) 0.42974(8) 0.81015(12)
C15 C 0.03918(13) 0.39668(10) 0.82575(12)
H16 H -0.02770 0.43680 0.84400
C16 C 0.01390(14) 0.30453(10) 0.81453(12)
H17 H -0.06990 0.28020 0.82650
C17 C 0.11214(13) 0.24784(9) 0.78562(12)
H18 H 0.09560 0.18430 0.77790
C18 C 0.23504(13) 0.28335(9) 0.76783(12)
H19 H 0.30000 0.24340 0.74600
N1 N 0.18286(12) 0.52838(8) 0.82554(11)
O6 O 0.29148(10) 0.55595(7) 0.87929(10)
O7 O 0.08875(11) 0.57849(7) 0.78467(13)
#END
