
#######################################################################
#
#                 Cambridge Crystallographic Data Centre
#                                CCDC
#
#######################################################################
#
# If this CIF has been generated from an entry in the Cambridge
# Structural Database, then it will include bibliographic, chemical,
# crystal, experimental, refinement or atomic coordinate data resulting
# from the CCDC's data processing and validation procedures.
#
#######################################################################

data_CSD_CIF_IZUGER
_audit_creation_date 2016-11-15
_audit_creation_method CSD-ConQuest-V1
_database_code_CSD IZUGER
_database_code_depnum_ccdc_archive 'CCDC 865683'
_chemical_formula_sum 'C50 H46 N2 O2'
_chemical_formula_moiety
;
C50 H46 N2 O2
;
_journal_coden_Cambridge 15
_journal_volume 95
_journal_year 2017
_journal_page_first 303
_journal_name_full 'Can.J.Chem. '
loop_
_publ_author_name
"D.Lehnherr"
"M.Adam"
"A.Murray"
"F.Hampel"
"R.McDonald"
"R.R.Tykwinski"
_chemical_name_systematic
;
N,N-dihexyl-4-((13-((4-nitrophenyl)ethynyl)pentacen-6-yl)ethynyl)aniline
;
_cell_volume   1951.088
_exptl_crystal_colour 'violet'
_exptl_crystal_density_diffrn 1.203
_exptl_crystal_description 'prism'
_diffrn_ambient_temperature 173
#These two values have been output from a single CSD field.
_refine_ls_R_factor_gt 0.0444
_refine_ls_wR_factor_gt 0.0444
_symmetry_cell_setting triclinic
_symmetry_space_group_name_H-M 'P -1'
_symmetry_Int_Tables_number 2
loop_
_symmetry_equiv_pos_site_id
_symmetry_equiv_pos_as_xyz
1 x,y,z
2 -x,-y,-z
_cell_length_a 11.3590(8)
_cell_length_b 12.7835(8)
_cell_length_c 14.8035(10)
_cell_angle_alpha 74.2113(8)
_cell_angle_beta 72.9134(8)
_cell_angle_gamma 76.7681(8)
_cell_formula_units_Z 2
loop_
_atom_type_symbol
_atom_type_radius_bond
C 0.68
H 0.23
N 0.68
O 0.68
loop_
_atom_site_label
_atom_site_type_symbol
_atom_site_fract_x
_atom_site_fract_y
_atom_site_fract_z
O1 O 0.5047(2) -0.34772(15) -0.53674(11)
O2 O 0.47780(16) -0.17678(14) -0.60894(11)
N1 N 0.47840(15) -0.24996(16) -0.53576(12)
N2 N 0.10580(12) 0.18454(10) 0.68697(9)
C1 C 0.36038(13) -0.06259(12) -0.01934(10)
C2 C 0.33998(13) -0.14227(12) 0.06994(11)
C3 C 0.34347(14) -0.25379(12) 0.07273(12)
H1 H 0.36090 -0.27680 0.01360
C4 C 0.32208(15) -0.33108(13) 0.15962(12)
C5 C 0.32325(16) -0.44443(13) 0.16287(14)
H2 H 0.34170 -0.46840 0.10410
C6 C 0.29827(18) -0.51794(14) 0.24875(15)
H3 H 0.29660 -0.59210 0.24950
C7 C 0.27464(18) -0.48545(15) 0.33732(15)
H4 H 0.25830 -0.53820 0.39680
C8 C 0.27501(17) -0.37962(14) 0.33820(13)
H5 H 0.26050 -0.35940 0.39820
C9 C 0.29711(14) -0.29795(13) 0.24945(11)
C10 C 0.29453(14) -0.18832(13) 0.24753(11)
H6 H 0.27910 -0.16650 0.30690
C11 C 0.31412(13) -0.10848(12) 0.15992(10)
C12 C 0.30673(13) 0.00437(12) 0.15931(10)
C13 C 0.32591(13) 0.08390(12) 0.06997(10)
C14 C 0.31495(14) 0.19636(12) 0.06835(11)
H7 H 0.29650 0.21880 0.12780
C15 C 0.33047(14) 0.27512(12) -0.01790(11)
C16 C 0.31212(16) 0.39025(13) -0.01985(13)
H8 H 0.28890 0.41400 0.03930
C17 C 0.32742(17) 0.46583(14) -0.10515(14)
H9 H 0.31370 0.54200 -0.10500
C18 C 0.36361(16) 0.43222(14) -0.19423(13)
H10 H 0.37580 0.48600 -0.25330
C19 C 0.38109(15) 0.32411(13) -0.19638(12)
H11 H 0.40550 0.30310 -0.25690
C20 C 0.36305(13) 0.24150(12) -0.10822(11)
C21 C 0.37378(13) 0.13077(12) -0.10754(11)
H12 H 0.39500 0.10870 -0.16740
C22 C 0.35393(13) 0.05056(12) -0.02033(10)
C23 C 0.38548(13) -0.09633(12) -0.10794(11)
C24 C 0.40292(14) -0.12545(12) -0.18227(11)
C25 C 0.41807(13) -0.15746(12) -0.27065(11)
C26 C 0.44634(15) -0.26868(13) -0.27525(11)
H13 H 0.45340 -0.32380 -0.21840
C27 C 0.46399(16) -0.29897(14) -0.36147(12)
H14 H 0.48380 -0.37450 -0.36460
C28 C 0.45242(15) -0.21806(15) -0.44297(12)
C29 C 0.42098(15) -0.10788(14) -0.44041(12)
H15 H 0.41080 -0.05370 -0.49710
C30 C 0.40465(15) -0.07754(13) -0.35477(11)
H16 H 0.38410 -0.00180 -0.35260
C31 C 0.27617(14) 0.03749(12) 0.24877(11)
C32 C 0.24815(15) 0.06290(12) 0.32585(11)
C33 C 0.21333(14) 0.09248(12) 0.41728(10)
C34 C 0.14167(14) 0.03111(12) 0.50009(11)
H17 H 0.11730 -0.03310 0.49530
C35 C 0.10555(14) 0.06060(12) 0.58783(11)
H18 H 0.05600 0.01710 0.64190
C36 C 0.14060(14) 0.15464(12) 0.59956(10)
C37 C 0.21482(14) 0.21532(12) 0.51620(11)
H19 H 0.24200 0.27810 0.52100
C38 C 0.24839(14) 0.18556(12) 0.42864(11)
H20 H 0.29680 0.22930 0.37400
C39 C 0.02387(14) 0.12386(12) 0.77050(11)
H21 H -0.04080 0.10420 0.74850
H22 H -0.01900 0.17250 0.81630
C40 C 0.09196(14) 0.01906(13) 0.82382(11)
H23 H 0.15460 -0.01890 0.77570
H24 H 0.13710 0.03910 0.86300
C41 C 0.00428(15) -0.05965(13) 0.88990(11)
H25 H -0.04330 -0.07680 0.85080
H26 H -0.05640 -0.02200 0.93900
C42 C 0.06882(15) -0.16740(13) 0.94185(11)
H27 H 0.13530 -0.20190 0.89340
H28 H 0.10890 -0.15130 0.98650
C43 C -0.02009(16) -0.24838(13) 0.99911(12)
H29 H -0.06090 -0.26330 0.95430
H30 H -0.08610 -0.21360 1.04760
C44 C 0.04151(18) -0.35738(14) 1.05111(14)
H31 H -0.02150 -0.40500 1.08600
H32 H 0.08000 -0.34390 1.09720
H33 H 0.10570 -0.39350 1.00360
C45 C 0.14541(15) 0.28074(12) 0.69796(11)
H34 H 0.23370 0.28220 0.66170
H35 H 0.14070 0.27310 0.76730
C46 C 0.06686(16) 0.38968(13) 0.66198(12)
H36 H -0.01840 0.39350 0.70520
H37 H 0.06020 0.39210 0.59620
C47 C 0.12162(17) 0.48988(13) 0.65867(13)
H38 H 0.12440 0.48930 0.72500
H39 H 0.20840 0.48390 0.61820
C48 C 0.04757(18) 0.59885(14) 0.61823(15)
H40 H -0.03850 0.60520 0.66000
H41 H 0.04230 0.59780 0.55290
C49 C 0.1015(2) 0.70101(15) 0.61069(16)
H42 H 0.19040 0.69120 0.57480
H43 H 0.05710 0.76560 0.57240
C50 C 0.0929(3) 0.72514(18) 0.70609(18)
H44 H 0.12990 0.79100 0.69510
H45 H 0.13800 0.66240 0.74420
H46 H 0.00500 0.73780 0.74140
#END
