
#######################################################################
#
#                 Cambridge Crystallographic Data Centre
#                                CCDC
#
#######################################################################
#
# If this CIF has been generated from an entry in the Cambridge
# Structural Database, then it will include bibliographic, chemical,
# crystal, experimental, refinement or atomic coordinate data resulting
# from the CCDC's data processing and validation procedures.
#
#######################################################################

data_CSD_CIF_IZURIG
_audit_creation_date 2016-11-15
_audit_creation_method CSD-ConQuest-V1
_database_code_CSD IZURIG
_database_code_depnum_ccdc_archive 'CCDC 1506870'
_chemical_formula_sum 'C28 H21 N1 O2'
_chemical_formula_moiety
;
C28 H21 N1 O2
;
_journal_coden_Cambridge 179
_journal_volume 55
_journal_year 2016
_journal_page_first 15351
_journal_name_full 'Angew.Chem.,Int.Ed. '
loop_
_publ_author_name
"Fang Xie"
"Songjie Yu"
"Zisong Qi"
"Xingwei Li"
_chemical_name_systematic
;
9,10,11-triphenyl-12-oxa-1-azatricyclo[7.2.1.0^2,7^]dodeca-2,4,6-trien-8-one
;
_cell_volume   2040.656
_exptl_crystal_colour 'colorless'
_exptl_crystal_density_diffrn 1.313
_exptl_crystal_description 'prismatic'
_diffrn_ambient_temperature 133
#These two values have been output from a single CSD field.
_refine_ls_R_factor_gt 0.0361
_refine_ls_wR_factor_gt 0.0361
_symmetry_cell_setting monoclinic
_symmetry_space_group_name_H-M 'P 21/n'
_symmetry_Int_Tables_number 14
loop_
_symmetry_equiv_pos_site_id
_symmetry_equiv_pos_as_xyz
1 x,y,z
2 1/2-x,1/2+y,1/2-z
3 -x,-y,-z
4 -1/2+x,-1/2-y,-1/2+z
_cell_length_a 9.0705(1)
_cell_length_b 20.0798(3)
_cell_length_c 11.2141(2)
_cell_angle_alpha 90
_cell_angle_beta 92.413(1)
_cell_angle_gamma 90
_cell_formula_units_Z 4
loop_
_atom_type_symbol
_atom_type_radius_bond
C 0.68
H 0.23
N 0.68
O 0.68
loop_
_atom_site_label
_atom_site_type_symbol
_atom_site_fract_x
_atom_site_fract_y
_atom_site_fract_z
N1 N 0.75143(12) 0.22290(5) 0.33492(9)
O1 O 0.88529(11) 0.15851(5) 0.01289(8)
O2 O 0.70613(9) 0.25059(4) 0.22009(8)
C1 C 0.77744(13) 0.15271(6) 0.31837(12)
C2 C 0.75281(15) 0.10952(7) 0.41198(13)
H1 H 0.72090 0.12610 0.48590
C3 C 0.77545(15) 0.04168(7) 0.39619(13)
H2 H 0.75950 0.01180 0.46000
C4 C 0.82116(16) 0.01716(7) 0.28812(14)
H3 H 0.83640 -0.02930 0.27820
C5 C 0.84444(15) 0.06041(7) 0.19478(13)
H4 H 0.87510 0.04360 0.12060
C6 C 0.82305(14) 0.12866(6) 0.20931(12)
C7 C 0.85176(13) 0.17622(6) 0.11114(12)
C8 C 0.83687(13) 0.24979(6) 0.14933(11)
C9 C 0.96851(13) 0.26455(6) 0.24203(11)
H5 H 1.03660 0.22550 0.23920
C10 C 0.88928(14) 0.25970(6) 0.36473(11)
H6 H 0.95180 0.23180 0.42080
C11 C 0.85763(14) 0.32503(6) 0.42577(11)
C12 C 0.71739(15) 0.35333(6) 0.42319(12)
H7 H 0.63740 0.33140 0.38230
C13 C 0.69439(17) 0.41346(7) 0.48028(13)
H8 H 0.59830 0.43240 0.47850
C14 C 0.80974(18) 0.44628(7) 0.53982(13)
H9 H 0.79370 0.48810 0.57670
C15 C 0.94887(18) 0.41760(8) 0.54521(13)
H10 H 1.02810 0.43930 0.58750
C16 C 0.97240(16) 0.35738(7) 0.48898(13)
H11 H 1.06790 0.33780 0.49350
C17 C 1.06233(14) 0.32583(6) 0.22557(11)
C18 C 1.00430(14) 0.38943(6) 0.20541(12)
H12 H 0.90040 0.39520 0.19690
C19 C 1.09610(16) 0.44425(7) 0.19763(12)
H13 H 1.05510 0.48710 0.18240
C20 C 1.24837(16) 0.43667(7) 0.21205(12)
H14 H 1.31140 0.47430 0.20750
C21 C 1.30706(15) 0.37413(7) 0.23302(12)
H15 H 1.41080 0.36870 0.24370
C22 C 1.21496(14) 0.31900(7) 0.23860(12)
H16 H 1.25670 0.27610 0.25150
C23 C 0.81177(13) 0.29609(6) 0.04463(11)
C24 C 0.68418(14) 0.33465(6) 0.03259(12)
H17 H 0.61320 0.33310 0.09240
C25 C 0.66050(15) 0.37529(6) -0.06671(13)
H18 H 0.57410 0.40200 -0.07380
C26 C 0.76212(16) 0.37709(7) -0.15531(13)
H19 H 0.74450 0.40410 -0.22400
C27 C 0.88996(15) 0.33929(7) -0.14328(12)
H20 H 0.96040 0.34070 -0.20360
C28 C 0.91524(14) 0.29942(6) -0.04336(12)
H21 H 1.00370 0.27420 -0.03500
#END
