
#######################################################################
#
#                 Cambridge Crystallographic Data Centre
#                                CCDC
#
#######################################################################
#
# If this CIF has been generated from an entry in the Cambridge
# Structural Database, then it will include bibliographic, chemical,
# crystal, experimental, refinement or atomic coordinate data resulting
# from the CCDC's data processing and validation procedures.
#
#######################################################################

data_CSD_CIF_JABBIA
_audit_creation_date 2015-12-10
_audit_creation_method CSD-ConQuest-V1
_database_code_CSD JABBIA
_database_code_depnum_ccdc_archive 'CCDC 1419693'
_chemical_formula_sum 'C6 H6 N6 O3'
_chemical_formula_moiety
;
C6 H6 N6 O3
;
_journal_coden_Cambridge 122
_journal_volume 51
_journal_year 2015
_journal_page_first 819
_journal_name_full 'Khim.Get.Soedin.,SSSR(Russ.)(Chem.Heterocycl.Compd.) '
loop_
_publ_author_name
"I.L.Dalinger"
"A.V.Kormanov"
"I.A.Vatsadze"
"T.K.Shkineva"
"A.M.Kozeev"
"B.B.Averkiev"
"A.B.Sheremetev"
_chemical_name_systematic
;
3-(4-methyl-1,2,5-oxadiazol-3-yl)-4-nitro-1H-pyrazol-1-amine
;
_cell_volume    427.759
_exptl_crystal_colour 'pale yellow'
_exptl_crystal_density_diffrn 1.632
_exptl_crystal_description 'Prism'
_diffrn_ambient_temperature 100
#These two values have been output from a single CSD field.
_refine_ls_R_factor_gt 0.0353
_refine_ls_wR_factor_gt 0.0353
_symmetry_cell_setting triclinic
_symmetry_space_group_name_H-M 'P -1'
_symmetry_Int_Tables_number 2
loop_
_symmetry_equiv_pos_site_id
_symmetry_equiv_pos_as_xyz
1 x,y,z
2 -x,-y,-z
_cell_length_a 7.0276(7)
_cell_length_b 7.4834(7)
_cell_length_c 9.3681(9)
_cell_angle_alpha 110.853(2)
_cell_angle_beta 104.802(2)
_cell_angle_gamma 99.145(2)
_cell_formula_units_Z 2
loop_
_atom_type_symbol
_atom_type_radius_bond
C 0.68
H 0.23
N 0.68
O 0.68
loop_
_atom_site_label
_atom_site_type_symbol
_atom_site_fract_x
_atom_site_fract_y
_atom_site_fract_z
O1 O 1.11231(12) 0.15542(14) 0.90054(10)
O2 O 0.24027(12) 0.27667(11) 0.64467(10)
O3 O 0.56378(12) 0.37506(11) 0.78991(10)
N1 N 1.05706(15) 0.25170(15) 1.03452(12)
N2 N 0.94050(14) 0.04329(15) 0.76541(11)
N3 N 0.51736(13) -0.23099(13) 0.62567(10)
N4 N 0.31623(13) -0.27819(12) 0.53585(10)
N5 N 0.40276(13) 0.24360(13) 0.70211(11)
N6 N 0.20045(14) -0.47507(13) 0.43444(12)
C1 C 0.85771(16) 0.20199(15) 0.98317(13)
C2 C 0.78509(15) 0.07101(15) 0.81389(12)
C3 C 0.57402(15) -0.03274(14) 0.70353(12)
C4 C 0.40537(15) 0.04199(14) 0.66110(12)
C5 C 0.24172(15) -0.12122(14) 0.55292(12)
C6 C 0.73851(19) 0.2697(2) 1.09284(15)
H1 H 0.106(2) -0.137(2) 0.4986(18)
H2 H 0.215(3) -0.544(3) 0.495(2)
H3 H 0.259(3) -0.526(3) 0.358(2)
H4 H 0.827(3) 0.351(3) 1.202(2)
H5 H 0.648(3) 0.159(3) 1.096(2)
H6 H 0.659(4) 0.339(4) 1.056(3)
#END
