
#######################################################################
#
#                 Cambridge Crystallographic Data Centre
#                                CCDC
#
#######################################################################
#
# If this CIF has been generated from an entry in the Cambridge
# Structural Database, then it will include bibliographic, chemical,
# crystal, experimental, refinement or atomic coordinate data resulting
# from the CCDC's data processing and validation procedures.
#
#######################################################################

data_CSD_CIF_JABCAT
_audit_creation_date 2015-12-10
_audit_creation_method CSD-ConQuest-V1
_database_code_CSD JABCAT
_database_code_depnum_ccdc_archive 'CCDC 1419695'
_chemical_formula_sum 'C6 H5 N7 O5'
_chemical_formula_moiety
;
C6 H5 N7 O5
;
_journal_coden_Cambridge 122
_journal_volume 51
_journal_year 2015
_journal_page_first 819
_journal_name_full 'Khim.Get.Soedin.,SSSR(Russ.)(Chem.Heterocycl.Compd.) '
loop_
_publ_author_name
"I.L.Dalinger"
"A.V.Kormanov"
"I.A.Vatsadze"
"T.K.Shkineva"
"A.M.Kozeev"
"B.B.Averkiev"
"A.B.Sheremetev"
_chemical_name_systematic
;
5-(4-methyl-1,2,5-oxadiazol-3-yl)-3,4-dinitro-1H-pyrazol-1-amine
;
_cell_volume    941.184
_exptl_crystal_colour 'pale yellow'
_exptl_crystal_density_diffrn 1.801
_exptl_crystal_description 'Prism'
_diffrn_ambient_temperature 100
#These two values have been output from a single CSD field.
_refine_ls_R_factor_gt 0.0342
_refine_ls_wR_factor_gt 0.0342
_symmetry_cell_setting monoclinic
_symmetry_space_group_name_H-M 'P 21/c'
_symmetry_Int_Tables_number 14
loop_
_symmetry_equiv_pos_site_id
_symmetry_equiv_pos_as_xyz
1 x,y,z
2 -x,1/2+y,1/2-z
3 -x,-y,-z
4 x,-1/2-y,-1/2+z
_cell_length_a 10.4808(6)
_cell_length_b 6.7316(4)
_cell_length_c 13.8350(8)
_cell_angle_alpha 90
_cell_angle_beta 105.370(1)
_cell_angle_gamma 90
_cell_formula_units_Z 4
loop_
_atom_type_symbol
_atom_type_radius_bond
C 0.68
H 0.23
N 0.68
O 0.68
loop_
_atom_site_label
_atom_site_type_symbol
_atom_site_fract_x
_atom_site_fract_y
_atom_site_fract_z
O1 O 1.03260(7) 0.75273(12) 0.34953(6)
O2 O 0.69802(8) 0.41600(13) 0.33814(6)
O3 O 0.61378(8) 0.22591(11) 0.21034(7)
O4 O 0.36404(8) 0.38931(12) 0.14115(6)
O5 O 0.29980(7) 0.58148(12) 0.01052(6)
N1 N 1.07889(9) 0.75407(13) 0.26402(7)
N2 N 0.89768(8) 0.73238(13) 0.32502(6)
N3 N 0.65868(8) 0.81454(12) 0.09650(6)
N4 N 0.53153(8) 0.76694(12) 0.05642(6)
N5 N 0.64725(8) 0.38815(13) 0.24868(6)
N6 N 0.38218(8) 0.52067(13) 0.08533(6)
N7 N 0.72078(9) 0.96961(14) 0.05982(7)
C1 C 0.97479(10) 0.73582(14) 0.18791(7)
C2 C 0.86070(9) 0.72219(14) 0.22710(7)
C3 C 0.72139(9) 0.69608(14) 0.17410(7)
C4 C 0.62657(9) 0.55894(14) 0.18329(7)
C5 C 0.51265(9) 0.61039(14) 0.10885(7)
C6 C 0.98520(11) 0.72813(17) 0.08257(8)
H1 H 0.7068(18) 0.950(3) -0.0076(14)
H2 H 0.682(2) 1.080(3) 0.0701(15)
H3 H 0.9190(16) 0.645(3) 0.0435(12)
H4 H 0.9670(17) 0.857(3) 0.0529(13)
H5 H 1.0724(17) 0.690(3) 0.0813(12)
#END
