
#######################################################################
#
#                 Cambridge Crystallographic Data Centre
#                                CCDC
#
#######################################################################
#
# If this CIF has been generated from an entry in the Cambridge
# Structural Database, then it will include bibliographic, chemical,
# crystal, experimental, refinement or atomic coordinate data resulting
# from the CCDC's data processing and validation procedures.
#
#######################################################################

data_CSD_CIF_JABCEX
_audit_creation_date 2015-12-10
_audit_creation_method CSD-ConQuest-V1
_database_code_CSD JABCEX
_database_code_depnum_ccdc_archive 'CCDC 1419696'
_chemical_formula_sum 'C6 H6 N6 O3'
_chemical_formula_moiety
;
C6 H6 N6 O3
;
_journal_coden_Cambridge 122
_journal_volume 51
_journal_year 2015
_journal_page_first 819
_journal_name_full 'Khim.Get.Soedin.,SSSR(Russ.)(Chem.Heterocycl.Compd.) '
loop_
_publ_author_name
"I.L.Dalinger"
"A.V.Kormanov"
"I.A.Vatsadze"
"T.K.Shkineva"
"A.M.Kozeev"
"B.B.Averkiev"
"A.B.Sheremetev"
_chemical_name_systematic
;
5-(4-methyl-1,2,5-oxadiazol-3-yl)-3-nitro-1H-pyrazol-1-amine
;
_cell_volume    853.124
_exptl_crystal_colour 'pale yellow'
_exptl_crystal_density_diffrn 1.636
_exptl_crystal_description 'Prism'
_diffrn_ambient_temperature 100
#These two values have been output from a single CSD field.
_refine_ls_R_factor_gt 0.0437
_refine_ls_wR_factor_gt 0.0437
_symmetry_cell_setting monoclinic
_symmetry_space_group_name_H-M 'P 21/c'
_symmetry_Int_Tables_number 14
loop_
_symmetry_equiv_pos_site_id
_symmetry_equiv_pos_as_xyz
1 x,y,z
2 -x,1/2+y,1/2-z
3 -x,-y,-z
4 x,-1/2-y,-1/2+z
_cell_length_a 10.3110(7)
_cell_length_b 10.6341(8)
_cell_length_c 8.2955(6)
_cell_angle_alpha 90
_cell_angle_beta 110.294(1)
_cell_angle_gamma 90
_cell_formula_units_Z 4
loop_
_atom_type_symbol
_atom_type_radius_bond
C 0.68
H 0.23
N 0.68
O 0.68
loop_
_atom_site_label
_atom_site_type_symbol
_atom_site_fract_x
_atom_site_fract_y
_atom_site_fract_z
O1 O 1.3603(1) 0.49442(9) 0.04657(13)
O2 O 0.77568(11) 0.70345(9) 0.26155(14)
O3 O 0.76194(10) 0.89802(9) 0.17579(13)
N1 N 1.45952(12) 0.54846(11) 0.18881(15)
N2 N 1.23326(12) 0.55036(11) 0.01527(15)
N3 N 1.12775(11) 0.83666(10) 0.13204(14)
N4 N 1.01225(11) 0.88334(10) 0.14912(14)
N5 N 0.81992(11) 0.79514(10) 0.20698(14)
N6 N 1.22719(12) 0.91218(10) 0.09976(16)
C1 C 1.39585(13) 0.63565(11) 0.24325(16)
C2 C 1.25357(13) 0.63660(11) 0.13405(16)
C3 C 1.13675(13) 0.70877(11) 0.14783(16)
C4 C 1.02030(13) 0.66847(11) 0.17909(16)
C5 C 0.94977(13) 0.78073(11) 0.17811(16)
C6 C 1.46621(15) 0.71498(14) 0.39585(19)
H1 H 0.9939(19) 0.5854(18) 0.196(2)
H2 H 1.181(2) 0.963(2) 0.014(3)
H3 H 1.269(2) 0.9575(19) 0.194(3)
H4 H 1.448(3) 0.800(3) 0.371(3)
H5 H 1.437(3) 0.694(3) 0.487(4)
H6 H 1.563(3) 0.702(3) 0.438(4)
#END
