
#######################################################################
#
#                 Cambridge Crystallographic Data Centre
#                                CCDC
#
#######################################################################
#
# If this CIF has been generated from an entry in the Cambridge
# Structural Database, then it will include bibliographic, chemical,
# crystal, experimental, refinement or atomic coordinate data resulting
# from the CCDC's data processing and validation procedures.
#
#######################################################################

data_CSD_CIF_JABHUS
_audit_creation_date 2015-12-10
_audit_creation_method CSD-ConQuest-V1
_database_code_CSD JABHUS
_database_code_depnum_ccdc_archive 'CCDC 1060616'
_chemical_formula_sum 'C9 H6 N2 O4'
_chemical_formula_moiety
;
C9 H6 N2 O4
;
_journal_coden_Cambridge 1501
_journal_volume 17
_journal_year 2015
_journal_page_first 493
_journal_name_full 'ACS Comb. Sci. '
loop_
_publ_author_name
"C.G.Neochoritis"
"T.Zarganes-Tzitzikas"
"S.Stotani"
"Adrian Domling"
"E.Herdtweck"
"K.Khoury"
"Alexander Domling"
_chemical_name_systematic
;
methylidyne((6-nitro-1,3-benzodioxol-5-yl)methyl)-azane
;
_cell_volume   1726.157
_exptl_crystal_colour 'brown'
_exptl_crystal_density_diffrn 1.587
_diffrn_ambient_temperature 100
#These two values have been output from a single CSD field.
_refine_ls_R_factor_gt 0.0319
_refine_ls_wR_factor_gt 0.0319
_symmetry_cell_setting monoclinic
_symmetry_space_group_name_H-M 'C 2/c'
_symmetry_Int_Tables_number 15
loop_
_symmetry_equiv_pos_site_id
_symmetry_equiv_pos_as_xyz
1 x,y,z
2 -x,y,1/2-z
3 1/2+x,1/2+y,z
4 1/2-x,1/2+y,1/2-z
5 -x,-y,-z
6 x,-y,-1/2+z
7 -1/2-x,-1/2-y,-z
8 -1/2+x,-1/2-y,-1/2+z
_cell_length_a 15.8530(5)
_cell_length_b 9.4451(3)
_cell_length_c 13.6157(7)
_cell_angle_alpha 90
_cell_angle_beta 122.147(1)
_cell_angle_gamma 90
_cell_formula_units_Z 8
loop_
_atom_type_symbol
_atom_type_radius_bond
C 0.68
H 0.23
N 0.68
O 0.68
loop_
_atom_site_label
_atom_site_type_symbol
_atom_site_fract_x
_atom_site_fract_y
_atom_site_fract_z
O1 O 0.32167(7) -0.15313(9) -0.00889(8)
O2 O 0.25969(6) 0.07523(9) -0.05948(8)
O3 O 0.72500(7) 0.09693(12) 0.27847(11)
O4 O 0.68647(7) -0.11859(11) 0.28340(9)
N1 N 0.54096(8) 0.43266(11) 0.14822(10)
N2 N 0.66332(8) 0.00278(12) 0.24789(9)
C1 C 0.50466(12) 0.54282(16) 0.12480(15)
C2 C 0.59354(9) 0.30053(14) 0.18061(12)
C3 C 0.52381(9) 0.17432(13) 0.13563(10)
C4 C 0.55770(9) 0.03458(13) 0.16653(10)
C5 C 0.49548(9) -0.08409(13) 0.12412(10)
C6 C 0.39672(9) -0.05751(12) 0.04883(10)
C7 C 0.2314(1) -0.07172(14) -0.06430(13)
C8 C 0.36033(9) 0.07901(13) 0.01777(10)
C9 C 0.42115(9) 0.19565(13) 0.05864(10)
H1 H 0.6354(12) 0.2975(17) 0.2667(14)
H2 H 0.6362(12) 0.3000(17) 0.1503(13)
H3 H 0.5209(11) -0.1766(17) 0.1449(12)
H4 H 0.1994(11) -0.0813(16) -0.0205(13)
H5 H 0.1905(12) -0.1012(18) -0.1438(14)
H6 H 0.3937(10) 0.2860(16) 0.0329(12)
#END
