
#######################################################################
#
#                 Cambridge Crystallographic Data Centre
#                                CCDC
#
#######################################################################
#
# If this CIF has been generated from an entry in the Cambridge
# Structural Database, then it will include bibliographic, chemical,
# crystal, experimental, refinement or atomic coordinate data resulting
# from the CCDC's data processing and validation procedures.
#
#######################################################################

data_CSD_CIF_JABHOM
_audit_creation_date 2015-12-10
_audit_creation_method CSD-ConQuest-V1
_database_code_CSD JABHOM
_database_code_depnum_ccdc_archive 'CCDC 1060615'
_chemical_formula_sum 'C9 H8 N2 O5'
_chemical_formula_moiety
;
C9 H8 N2 O5
;
_journal_coden_Cambridge 1501
_journal_volume 17
_journal_year 2015
_journal_page_first 493
_journal_name_full 'ACS Comb. Sci. '
loop_
_publ_author_name
"C.G.Neochoritis"
"T.Zarganes-Tzitzikas"
"S.Stotani"
"Adrian Domling"
"E.Herdtweck"
"K.Khoury"
"Alexander Domling"
_chemical_name_systematic
;
N-((6-nitro-1,3-benzodioxol-5-yl)methyl)formamide
;
_cell_volume    925.755
_exptl_crystal_colour 'colorless'
_exptl_crystal_density_diffrn 1.608
_exptl_crystal_description 'column'
_diffrn_ambient_temperature 123
#These two values have been output from a single CSD field.
_refine_ls_R_factor_gt 0.0292
_refine_ls_wR_factor_gt 0.0292
_symmetry_cell_setting monoclinic
_symmetry_space_group_name_H-M 'P 21/c'
_symmetry_Int_Tables_number 14
loop_
_symmetry_equiv_pos_site_id
_symmetry_equiv_pos_as_xyz
1 x,y,z
2 -x,1/2+y,1/2-z
3 -x,-y,-z
4 x,-1/2-y,-1/2+z
_cell_length_a 7.9570(2)
_cell_length_b 13.4803(4)
_cell_length_c 8.6455(2)
_cell_angle_alpha 90
_cell_angle_beta 93.3500(11)
_cell_angle_gamma 90
_cell_formula_units_Z 4
loop_
_atom_type_symbol
_atom_type_radius_bond
C 0.68
H 0.23
N 0.68
O 0.68
loop_
_atom_site_label
_atom_site_type_symbol
_atom_site_fract_x
_atom_site_fract_y
_atom_site_fract_z
O1 O 0.78719(12) 0.34398(7) 0.43889(11)
O2 O 0.90099(12) -0.03826(7) 0.29662(11)
O3 O 0.67765(12) -0.09170(7) 0.13294(11)
O4 O 0.23910(13) 0.17943(7) 0.46695(12)
O5 O 0.19393(14) 0.13879(10) 0.22721(14)
N1 N 0.72012(15) 0.24564(9) 0.63877(14)
N2 N 0.28404(14) 0.14140(8) 0.34691(14)
C1 C 0.81691(17) 0.31011(10) 0.57022(16)
C2 C 0.56131(17) 0.2120(1) 0.56644(16)
C3 C 0.58206(16) 0.12920(9) 0.44862(14)
C4 C 0.74118(16) 0.08468(9) 0.43791(15)
C5 C 0.75890(16) 0.01345(9) 0.32669(15)
C6 C 0.85663(19) -0.09706(12) 0.1611(2)
C7 C 0.62621(17) -0.01662(9) 0.22654(14)
C8 C 0.46966(17) 0.02436(10) 0.23095(15)
C9 C 0.45194(16) 0.09757(9) 0.34459(15)
H1 H 0.746(2) 0.2239(12) 0.726(2)
H2 H 0.918(2) 0.3272(11) 0.6306(18)
H3 H 0.5057(19) 0.2683(11) 0.5150(18)
H4 H 0.4878(19) 0.1886(12) 0.6475(19)
H5 H 0.8343(19) 0.1029(10) 0.5045(17)
H6 H 0.908(2) -0.0645(13) 0.071(2)
H7 H 0.892(2) -0.1633(15) 0.179(2)
H8 H 0.378(2) 0.0042(12) 0.1629(19)
#END
