
#######################################################################
#
#                 Cambridge Crystallographic Data Centre
#                                CCDC
#
#######################################################################
#
# If this CIF has been generated from an entry in the Cambridge
# Structural Database, then it will include bibliographic, chemical,
# crystal, experimental, refinement or atomic coordinate data resulting
# from the CCDC's data processing and validation procedures.
#
#######################################################################

data_CSD_CIF_JABLUW
_audit_creation_date 2015-12-10
_audit_creation_method CSD-ConQuest-V1
_database_code_CSD JABLUW
_database_code_depnum_ccdc_archive 'CCDC 1407781'
_chemical_formula_sum 'C4 H3 N7 O2'
_chemical_formula_moiety
;
C4 H3 N7 O2
;
_journal_coden_Cambridge 122
_journal_volume 51
_journal_year 2015
_journal_page_first 695
_journal_name_full 'Khim.Get.Soedin.,SSSR(Russ.)(Chem.Heterocycl.Compd.) '
loop_
_publ_author_name
"I.A.Vatsadze"
"O.V.Serushkina"
"M.D.Dutov"
"T.K.Shkineva"
"K.Yu.Suponitsky"
"B.I.Ugrak"
"I.L.Dalinger"
_chemical_name_systematic
;
1-(1-nitro-1H-pyrazol-3-yl)-1H-tetrazole
;
_cell_volume    697.749
_exptl_crystal_colour 'colorless'
_exptl_crystal_density_diffrn 1.724
_exptl_crystal_description 'Prism'
_diffrn_ambient_temperature 100
#These two values have been output from a single CSD field.
_refine_ls_R_factor_gt 0.0615
_refine_ls_wR_factor_gt 0.0615
_symmetry_cell_setting orthorhombic
_symmetry_space_group_name_H-M 'P 21 21 21'
_symmetry_Int_Tables_number 19
loop_
_symmetry_equiv_pos_site_id
_symmetry_equiv_pos_as_xyz
1 x,y,z
2 1/2-x,-y,1/2+z
3 -x,1/2+y,1/2-z
4 1/2+x,1/2-y,-z
_cell_length_a 5.1037(6)
_cell_length_b 7.3451(8)
_cell_length_c 18.613(2)
_cell_angle_alpha 90
_cell_angle_beta 90
_cell_angle_gamma 90
_cell_formula_units_Z 4
loop_
_atom_type_symbol
_atom_type_radius_bond
C 0.68
H 0.23
N 0.68
O 0.68
loop_
_atom_site_label
_atom_site_type_symbol
_atom_site_fract_x
_atom_site_fract_y
_atom_site_fract_z
O1 O 0.8508(5) 1.0879(3) 0.04748(12)
O2 O 0.5187(5) 0.9460(3) -0.00009(12)
N1 N 0.7379(5) 0.8175(3) 0.09063(14)
N2 N 0.5767(5) 0.6700(3) 0.08849(13)
N3 N 0.5788(5) 0.3950(3) 0.15421(14)
N4 N 0.6958(6) 0.2885(4) 0.20421(15)
N5 N 0.5632(6) 0.1393(4) 0.20628(14)
N6 N 0.3584(6) 0.1436(4) 0.15868(14)
N7 N 0.6981(6) 0.9617(3) 0.04166(14)
C1 C 0.9382(7) 0.8077(4) 0.13925(16)
C2 C 0.9070(6) 0.6434(4) 0.17220(16)
C3 C 0.6842(6) 0.5684(4) 0.13879(16)
C4 C 0.3722(7) 0.3030(4) 0.12698(17)
H1 H 1.061(8) 0.906(5) 0.143(2)
H2 H 0.994(8) 0.599(5) 0.2066(19)
H3 H 0.270(8) 0.345(5) 0.090(2)
#END
