
#######################################################################
#
#                 Cambridge Crystallographic Data Centre
#                                CCDC
#
#######################################################################
#
# If this CIF has been generated from an entry in the Cambridge
# Structural Database, then it will include bibliographic, chemical,
# crystal, experimental, refinement or atomic coordinate data resulting
# from the CCDC's data processing and validation procedures.
#
#######################################################################

data_CSD_CIF_JABLUW01
_audit_creation_date 2015-12-10
_audit_creation_method CSD-ConQuest-V1
_database_code_CSD JABLUW01
_database_code_depnum_ccdc_archive 'CCDC 1407783'
_chemical_formula_sum 'C4 H3 N7 O2'
_chemical_formula_moiety
;
C4 H3 N7 O2
;
_journal_coden_Cambridge 122
_journal_volume 51
_journal_year 2015
_journal_page_first 695
_journal_name_full 'Khim.Get.Soedin.,SSSR(Russ.)(Chem.Heterocycl.Compd.) '
loop_
_publ_author_name
"I.A.Vatsadze"
"O.V.Serushkina"
"M.D.Dutov"
"T.K.Shkineva"
"K.Yu.Suponitsky"
"B.I.Ugrak"
"I.L.Dalinger"
_chemical_name_systematic
;
1-(1-nitro-1H-pyrazol-3-yl)-1H-tetrazole
;
_cell_volume    721.174
_exptl_crystal_colour 'colorless'
_exptl_crystal_density_diffrn 1.668
_exptl_crystal_description 'Prism'
_diffrn_ambient_temperature 298
#These two values have been output from a single CSD field.
_refine_ls_R_factor_gt 0.0645
_refine_ls_wR_factor_gt 0.0645
_symmetry_cell_setting orthorhombic
_symmetry_space_group_name_H-M 'P 21 21 21'
_symmetry_Int_Tables_number 19
loop_
_symmetry_equiv_pos_site_id
_symmetry_equiv_pos_as_xyz
1 x,y,z
2 1/2-x,-y,1/2+z
3 -x,1/2+y,1/2-z
4 1/2+x,1/2-y,-z
_cell_length_a 5.1383(6)
_cell_length_b 7.3537(8)
_cell_length_c 19.086(2)
_cell_angle_alpha 90
_cell_angle_beta 90
_cell_angle_gamma 90
_cell_formula_units_Z 4
loop_
_atom_type_symbol
_atom_type_radius_bond
C 0.68
H 0.23
N 0.68
O 0.68
loop_
_atom_site_label
_atom_site_type_symbol
_atom_site_fract_x
_atom_site_fract_y
_atom_site_fract_z
O1 O 0.8590(6) 1.0860(3) 0.04609(13)
O2 O 0.5291(6) 0.9432(4) 0.00134(13)
N1 N 0.7457(5) 0.8193(3) 0.09044(13)
N2 N 0.5875(5) 0.6719(3) 0.08940(13)
N3 N 0.5865(5) 0.4008(3) 0.15458(13)
N4 N 0.6958(6) 0.2960(4) 0.20485(15)
N5 N 0.5630(6) 0.1481(4) 0.20667(14)
N6 N 0.3655(6) 0.1510(4) 0.15911(15)
N7 N 0.7075(7) 0.9605(4) 0.04179(15)
C1 C 0.9418(7) 0.8112(5) 0.13886(17)
C2 C 0.9111(7) 0.6498(5) 0.17172(17)
C3 C 0.6914(6) 0.5727(4) 0.13912(15)
C4 C 0.3840(7) 0.3084(5) 0.12832(18)
H1 H 1.064(6) 0.911(4) 0.1410(16)
H2 H 0.999(7) 0.604(5) 0.2090(17)
H3 H 0.285(6) 0.346(5) 0.0898(17)
#END
