
#######################################################################
#
#                 Cambridge Crystallographic Data Centre
#                                CCDC
#
#######################################################################
#
# If this CIF has been generated from an entry in the Cambridge
# Structural Database, then it will include bibliographic, chemical,
# crystal, experimental, refinement or atomic coordinate data resulting
# from the CCDC's data processing and validation procedures.
#
#######################################################################

data_CSD_CIF_JACYOB
_audit_creation_date 1989-07-31
_audit_creation_method CSD-ConQuest-V1
_database_code_CSD JACYOB
_database_code_depnum_ccdc_archive 'CCDC 1181630'
_chemical_formula_sum 'C7 H6 N2 O3'
_chemical_formula_moiety
;
C7 H6 N2 O3
;
_journal_coden_Cambridge 149
_journal_volume 36
_journal_year 1987
_journal_page_first 15
_journal_name_full 'Mem.Osaka Kyoiku Univ.Ser.3 '
loop_
_publ_author_name
"K.Nakata"
_chemical_name_systematic
;
m-Nitrobenzamide
;
_cell_volume    748.432
_exptl_crystal_colour 'yellowish'
_exptl_crystal_density_diffrn 1.474
_diffrn_ambient_temperature ?
_diffrn_special_details
;
The study was carried out at room temperature,in the range 283-303K

;
#These two values have been output from a single CSD field.
_refine_ls_R_factor_gt 0.052
_refine_ls_wR_factor_gt 0.052
_symmetry_cell_setting monoclinic
_symmetry_space_group_name_H-M 'P 21/a'
_symmetry_Int_Tables_number 14
loop_
_symmetry_equiv_pos_site_id
_symmetry_equiv_pos_as_xyz
1 x,y,z
2 1/2-x,1/2+y,-z
3 -x,-y,-z
4 -1/2+x,-1/2-y,z
_cell_length_a 12.776(3)
_cell_length_b 7.809(2)
_cell_length_c 7.842(2)
_cell_angle_alpha 90
_cell_angle_beta 106.94(2)
_cell_angle_gamma 90
_cell_formula_units_Z 4
loop_
_atom_type_symbol
_atom_type_radius_bond
C 0.68
H 0.23
N 0.68
O 0.68
loop_
_atom_site_label
_atom_site_type_symbol
_atom_site_fract_x
_atom_site_fract_y
_atom_site_fract_z
C1 C 0.0182(2) 0.2358(3) 0.8909(3)
C2 C 0.0272(2) 0.4086(3) 0.8126(3)
C3 C -0.0626(2) 0.4941(3) 0.7026(3)
C4 C -0.0463(2) 0.6525(3) 0.6381(3)
C5 C 0.0546(2) 0.7306(3) 0.6764(3)
C6 C 0.1433(2) 0.6446(3) 0.7877(3)
C7 C 0.1297(2) 0.4855(3) 0.8546(3)
N1 N -0.0731(2) 0.1461(3) 0.8239(3)
N2 N -0.1415(2) 0.7417(3) 0.5205(2)
O1 O 0.0933(1) 0.1812(2) 1.0157(2)
O2 O -0.2317(1) 0.6809(2) 0.5042(3)
O3 O -0.1263(2) 0.8695(2) 0.4420(3)
H1 H -0.086(2) 0.042(4) 0.875(3)
H2 H -0.120(2) 0.175(3) 0.743(3)
H3 H -0.131(2) 0.451(3) 0.677(3)
H4 H 0.064(2) 0.839(3) 0.632(3)
H5 H 0.215(2) 0.693(3) 0.819(3)
H6 H 0.194(2) 0.430(3) 0.932(3)
#END
