
#######################################################################
#
#                 Cambridge Crystallographic Data Centre
#                                CCDC
#
#######################################################################
#
# If this CIF has been generated from an entry in the Cambridge
# Structural Database, then it will include bibliographic, chemical,
# crystal, experimental, refinement or atomic coordinate data resulting
# from the CCDC's data processing and validation procedures.
#
#######################################################################

data_CSD_CIF_JADKIJ
_audit_creation_date 2003-09-04
_audit_creation_method CSD-ConQuest-V1
_database_code_CSD JADKIJ
_database_code_depnum_ccdc_archive 'CCDC 191162'
_chemical_formula_sum 'C21 H32 N2 O5'
_chemical_formula_moiety
;
C21 H32 N2 O5
;
_journal_coden_Cambridge 16
_journal_volume 59
_journal_year 2003
_journal_page_first 3333
_journal_name_full 'Tetrahedron '
loop_
_publ_author_name
"I.Blanarikova-Hlobilova"
"Z.Kubanova"
"L.Fisera"
"M.K.Cyranski"
"P.Salanski"
"J.Jurczak"
"N.Pronayova"
_chemical_name_systematic
;
(3R,5R,1'S)-(2-Benzyl-3-(1'-(t-butoxycarbonylamino)-2'-methylpropyl)isoxazolid
in-5-yl)carboxylic acid methyl ester
;
_chemical_melting_point 355.15
_cell_volume   2290.160
_exptl_crystal_colour 'colorless'
_exptl_crystal_density_diffrn 1.138
_exptl_special_details
;
Melting point range 355.15-356.15K

;
_diffrn_ambient_temperature 293
#These two values have been output from a single CSD field.
_refine_ls_R_factor_gt 0.061
_refine_ls_wR_factor_gt 0.061
_symmetry_cell_setting orthorhombic
_symmetry_space_group_name_H-M 'P 21 21 21'
_symmetry_Int_Tables_number 19
loop_
_symmetry_equiv_pos_site_id
_symmetry_equiv_pos_as_xyz
1 x,y,z
2 1/2-x,-y,1/2+z
3 -x,1/2+y,1/2-z
4 1/2+x,1/2-y,-z
_cell_length_a 10.218(2)
_cell_length_b 12.344(3)
_cell_length_c 18.157(4)
_cell_angle_alpha 90
_cell_angle_beta 90
_cell_angle_gamma 90
_cell_formula_units_Z 4
loop_
_atom_type_symbol
_atom_type_radius_bond
C 0.68
H 0.23
N 0.68
O 0.68
loop_
_atom_site_label
_atom_site_type_symbol
_atom_site_fract_x
_atom_site_fract_y
_atom_site_fract_z
O1 O 0.70656(13) 0.83704(12) 1.02881(7)
N1 N 0.78910(15) 0.75218(13) 1.05861(9)
C1 C 0.89358(17) 0.74424(18) 1.00280(11)
H1 H 0.97380 0.71630 1.02550
C2 C 0.9159(2) 0.85890(16) 0.97564(12)
H2 H 0.93270 0.86000 0.92310
H3 H 0.98880 0.89250 1.00110
C3 C 0.7878(2) 0.91560(18) 0.99383(12)
H4 H 0.74610 0.93760 0.94760
C4 C 0.84742(19) 0.66671(19) 0.94231(11)
H5 H 0.77020 0.69890 0.91900
C5 C 0.8079(2) 0.55491(19) 0.97197(13)
H6 H 0.74580 0.56700 1.01230
C6 C 0.9234(2) 0.49136(17) 1.00367(13)
H7 H 0.89220 0.42510 1.02510
H8 H 0.96600 0.53400 1.04080
H9 H 0.98440 0.47510 0.96500
C7 C 0.7368(2) 0.4898(2) 0.91307(13)
H10 H 0.79650 0.47260 0.87400
H11 H 0.66540 0.53180 0.89380
H12 H 0.70350 0.42410 0.93430
H13 H 1.0322(17) 0.6450(13) 0.9039(9)
N2 N 0.94999(19) 0.65904(15) 0.88645(9)
C8 C 0.9242(2) 0.67761(19) 0.81514(13)
O2 O 0.82035(14) 0.70009(13) 0.78932(7)
O3 O 1.03704(13) 0.66866(12) 0.77601(7)
C9 C 1.0386(2) 0.6822(2) 0.69623(12)
C10 C 0.9948(2) 0.7943(2) 0.67742(13)
H14 H 0.90170 0.79950 0.68340
H15 H 1.01760 0.81020 0.62730
H16 H 1.03710 0.84520 0.70950
C11 C 1.17999(19) 0.6653(2) 0.67657(11)
H17 H 1.23270 0.71840 0.70140
H18 H 1.19090 0.67280 0.62430
H19 H 1.20670 0.59410 0.69140
C12 C 0.9540(3) 0.5961(2) 0.66137(13)
H20 H 0.98190 0.52600 0.67800
H21 H 0.96190 0.60010 0.60880
H22 H 0.86440 0.60750 0.67520
C13 C 0.8024(3) 1.0143(3) 1.04215(18)
O4 O 0.8874(2) 1.08196(16) 1.02053(11)
O5 O 0.7390(2) 1.02882(15) 1.09766(12)
C14 C 0.9044(3) 1.1814(2) 1.06658(16)
H23 H 0.83530 1.23170 1.05590
H24 H 0.98730 1.21420 1.05560
H25 H 0.90150 1.16200 1.11780
C15 C 0.84015(19) 0.78954(17) 1.13144(10)
H26 H 0.76910 0.81710 1.16150
H27 H 0.90370 0.84700 1.12460
C16 C 0.9032(2) 0.6939(2) 1.16823(11)
C17 C 0.8309(2) 0.6035(2) 1.18468(12)
H28 H 0.74230 0.60190 1.17300
C18 C 0.8873(3) 0.5151(2) 1.21826(14)
H29 H 0.83750 0.45420 1.22920
C19 C 1.0191(3) 0.5181(2) 1.23555(14)
H30 H 1.05870 0.45870 1.25780
C20 C 1.0912(2) 0.6088(3) 1.21975(14)
H31 H 1.17980 0.61120 1.23140
C21 C 1.0318(2) 0.6964(2) 1.18652(11)
H32 H 1.08070 0.75820 1.17650
#END
