
#######################################################################
#
#                 Cambridge Crystallographic Data Centre
#                                CCDC
#
#######################################################################
#
# If this CIF has been generated from an entry in the Cambridge
# Structural Database, then it will include bibliographic, chemical,
# crystal, experimental, refinement or atomic coordinate data resulting
# from the CCDC's data processing and validation procedures.
#
#######################################################################

data_CSD_CIF_JADNOS
_audit_creation_date 2003-09-04
_audit_creation_method CSD-ConQuest-V1
_database_code_CSD JADNOS
_database_code_depnum_ccdc_archive 'CCDC 201183'
_chemical_formula_sum 'C8 H15 N2 O2'
_chemical_formula_moiety
;
C8 H15 N2 O2
;
_journal_coden_Cambridge 10
_journal_volume 86
_journal_year 2003
_journal_page_first 1234
_journal_name_full 'Helv.Chim.Acta '
loop_
_publ_author_name
"A.Zakrassov"
"V.Shteiman"
"Y.Sheynin"
"M.Botoshansky"
"M.Kapon"
"M.Kaftory"
"R.E.Del Sesto"
"J.S.Miller"
_chemical_name_systematic
;
2,4,4,5,5-Pentamethyl-2-imidazolin-3-oxide-1-oxyl
;
_cell_volume   1952.626
_exptl_crystal_colour 'dark red'
_exptl_crystal_density_diffrn 1.165
_exptl_special_details
;
orthorhombic polymorph

;
_exptl_crystal_description 'plate'
_diffrn_ambient_temperature 293
#These two values have been output from a single CSD field.
_refine_ls_R_factor_gt 0.0696
_refine_ls_wR_factor_gt 0.0696
_symmetry_cell_setting orthorhombic
_symmetry_space_group_name_H-M 'P b c a'
_symmetry_Int_Tables_number 61
loop_
_symmetry_equiv_pos_site_id
_symmetry_equiv_pos_as_xyz
1 x,y,z
2 1/2+x,y,1/2-z
3 x,1/2-y,1/2+z
4 1/2-x,1/2+y,z
5 -x,-y,-z
6 -1/2-x,-y,-1/2+z
7 -x,-1/2+y,-1/2-z
8 -1/2+x,-1/2-y,-z
_cell_length_a 16.897(4)
_cell_length_b 10.242(4)
_cell_length_c 11.283(4)
_cell_angle_alpha 90
_cell_angle_beta 90
_cell_angle_gamma 90
_cell_formula_units_Z 8
loop_
_atom_type_symbol
_atom_type_radius_bond
C 0.68
H 0.23
N 0.68
O 0.68
loop_
_atom_site_label
_atom_site_type_symbol
_atom_site_fract_x
_atom_site_fract_y
_atom_site_fract_z
O1 O 0.40092(15) 0.1870(2) 0.7355(2)
O2 O 0.3734(2) -0.1359(3) 1.0141(2)
N1 N 0.38818(16) 0.0746(3) 0.7823(2)
N2 N 0.37495(18) -0.0783(3) 0.9139(2)
C1 C 0.3910(2) 0.0471(3) 0.8968(3)
C2 C 0.3769(2) -0.0464(3) 0.7083(3)
C3 C 0.3489(2) -0.1459(3) 0.8040(3)
C4 C 0.3190(3) -0.0199(4) 0.6107(3)
H1 H 0.27070 0.01310 0.64370
H2 H 0.30850 -0.09930 0.56840
H3 H 0.34090 0.04360 0.55730
C5 C 0.4585(3) -0.0778(4) 0.6572(3)
H4 H 0.45500 -0.15370 0.60760
H5 H 0.49490 -0.09430 0.72080
H6 H 0.47700 -0.00500 0.61120
C6 C 0.2594(3) -0.1567(6) 0.8134(5)
H7 H 0.24560 -0.20180 0.88510
H8 H 0.23930 -0.20430 0.74650
H9 H 0.23660 -0.07090 0.81440
C7 C 0.3882(3) -0.2808(4) 0.7972(3)
H10 H 0.44450 -0.27140 0.80560
H11 H 0.37650 -0.32020 0.72200
H12 H 0.36830 -0.33520 0.85970
C8 C 0.4098(3) 0.1423(4) 0.9906(4)
H13 H 0.46610 0.14660 1.00110
H14 H 0.38540 0.11550 1.06340
H15 H 0.39020 0.22670 0.96830
#END
