
#######################################################################
#
#                 Cambridge Crystallographic Data Centre
#                                CCDC
#
#######################################################################
#
# If this CIF has been generated from an entry in the Cambridge
# Structural Database, then it will include bibliographic, chemical,
# crystal, experimental, refinement or atomic coordinate data resulting
# from the CCDC's data processing and validation procedures.
#
#######################################################################

data_CSD_CIF_JADNIM
_audit_creation_date 2003-09-04
_audit_creation_method CSD-ConQuest-V1
_database_code_CSD JADNIM
_database_code_depnum_ccdc_archive 'CCDC 201182'
_chemical_formula_sum 'C13 H17 N3 O3'
_chemical_formula_moiety
;
C13 H17 N3 O3
;
_journal_coden_Cambridge 10
_journal_volume 86
_journal_year 2003
_journal_page_first 1234
_journal_name_full 'Helv.Chim.Acta '
loop_
_publ_author_name
"A.Zakrassov"
"V.Shteiman"
"Y.Sheynin"
"M.Botoshansky"
"M.Kapon"
"M.Kaftory"
"R.E.Del Sesto"
"J.S.Miller"
_chemical_name_systematic
;
2-(4',5'-Dihydro-4',4',5',5'-tetramethyl-1'H,3'H-imidazolium-2'-yl)-4-nitrophe
nolate
;
_cell_volume   1357.559
_exptl_crystal_colour 'white'
_exptl_crystal_density_diffrn 1.288
_exptl_crystal_description 'cube'
_diffrn_ambient_temperature 293
#These two values have been output from a single CSD field.
_refine_ls_R_factor_gt 0.0631
_refine_ls_wR_factor_gt 0.0631
_symmetry_cell_setting monoclinic
_symmetry_space_group_name_H-M 'P 21/n'
_symmetry_Int_Tables_number 14
loop_
_symmetry_equiv_pos_site_id
_symmetry_equiv_pos_as_xyz
1 x,y,z
2 1/2+x,1/2-y,1/2+z
3 -x,-y,-z
4 -1/2-x,-1/2+y,-1/2-z
_cell_length_a 12.057(4)
_cell_length_b 10.381(3)
_cell_length_c 12.197(4)
_cell_angle_alpha 90
_cell_angle_beta 117.22(3)
_cell_angle_gamma 90
_cell_formula_units_Z 4
loop_
_atom_type_symbol
_atom_type_radius_bond
C 0.68
H 0.23
N 0.68
O 0.68
loop_
_atom_site_label
_atom_site_type_symbol
_atom_site_fract_x
_atom_site_fract_y
_atom_site_fract_z
O1 O 0.80383(18) 0.7556(2) 0.20291(17)
O2 O 0.3120(3) 1.0281(3) 0.1156(3)
O3 O 0.2429(2) 0.9030(3) -0.0419(3)
N1 N 0.7246(2) 0.6281(3) -0.0027(2)
N2 N 0.5422(2) 0.6676(3) -0.1534(2)
N3 N 0.3285(3) 0.9466(3) 0.0516(3)
C1 C 0.6188(2) 0.6903(3) -0.0363(2)
C2 C 0.7356(3) 0.5782(3) -0.1109(3)
C3 C 0.5929(3) 0.5684(3) -0.2041(3)
C4 C 0.8046(3) 0.6767(4) -0.1479(3)
H1 H 0.81500 0.64970 -0.22140
H2 H 0.88800 0.68600 -0.08050
H3 H 0.76070 0.76330 -0.16690
C5 C 0.8043(3) 0.4505(4) -0.0807(3)
H4 H 0.80960 0.41920 -0.15170
H5 H 0.76370 0.38280 -0.05620
H6 H 0.89050 0.46610 -0.01660
C6 C 0.5607(3) 0.5991(4) -0.3370(3)
H7 H 0.58870 0.69080 -0.34080
H8 H 0.60260 0.53930 -0.36830
H9 H 0.47110 0.59210 -0.38410
C7 C 0.5353(3) 0.4404(4) -0.1977(4)
H10 H 0.55430 0.42140 -0.11030
H11 H 0.56660 0.36480 -0.23040
H12 H 0.44190 0.44740 -0.24110
C8 C 0.5941(2) 0.7718(3) 0.0463(2)
C9 C 0.4754(2) 0.8202(3) 0.0115(2)
H13 H 0.41070 0.79910 -0.06520
C10 C 0.4528(3) 0.8989(3) 0.0892(3)
C11 C 0.5485(3) 0.9355(4) 0.2024(3)
H14 H 0.53270 0.99140 0.25320
C12 C 0.6651(3) 0.8892(4) 0.2384(3)
H15 H 0.72850 0.91520 0.31420
C13 C 0.6948(3) 0.8026(3) 0.1654(2)
H16 H 0.464(3) 0.688(3) -0.189(3)
H17 H 0.789(3) 0.650(3) 0.062(3)
#END
