
#######################################################################
#
#                 Cambridge Crystallographic Data Centre
#                                CCDC
#
#######################################################################
#
# If this CIF has been generated from an entry in the Cambridge
# Structural Database, then it will include bibliographic, chemical,
# crystal, experimental, refinement or atomic coordinate data resulting
# from the CCDC's data processing and validation procedures.
#
#######################################################################

data_CSD_CIF_JADRAI
_audit_creation_date 2003-09-04
_audit_creation_method CSD-ConQuest-V1
_database_code_CSD JADRAI
_database_code_depnum_ccdc_archive 'CCDC 193514'
_chemical_formula_sum 'C25 H22 N2 O5'
_chemical_formula_moiety
;
C25 H22 N2 O5
;
_journal_coden_Cambridge 692
_journal_year 2003
_journal_page_first 251
_journal_name_full 'Synthesis '
loop_
_publ_author_name
"E.Suna"
_chemical_name_systematic
;
(R)-2-((R)-O-Acetylmandelyl)-1-(2-nitrophenyl)-1,2,3,4-tetrahydroisoquinoline
;
_chemical_melting_point 486.15
_cell_volume   2211.016
_exptl_crystal_colour 'colorless'
_exptl_crystal_density_diffrn 1.293
_exptl_special_details
;
Melting point range 486.15-487.15K
Absolute configuration

;
_exptl_crystal_description 'needles'
_exptl_crystal_preparation 'petroleum ether/ethyl acetate'
_diffrn_ambient_temperature 133
#These two values have been output from a single CSD field.
_refine_ls_R_factor_gt 0.0356
_refine_ls_wR_factor_gt 0.0356
_symmetry_cell_setting orthorhombic
_symmetry_space_group_name_H-M 'P 21 21 21'
_symmetry_Int_Tables_number 19
loop_
_symmetry_equiv_pos_site_id
_symmetry_equiv_pos_as_xyz
1 x,y,z
2 1/2-x,-y,1/2+z
3 -x,1/2+y,1/2-z
4 1/2+x,1/2-y,-z
_cell_length_a 8.1269(2)
_cell_length_b 16.2685(2)
_cell_length_c 16.7232(3)
_cell_angle_alpha 90
_cell_angle_beta 90
_cell_angle_gamma 90
_cell_formula_units_Z 4
loop_
_atom_type_symbol
_atom_type_radius_bond
C 0.68
H 0.23
N 0.68
O 0.68
loop_
_atom_site_label
_atom_site_type_symbol
_atom_site_fract_x
_atom_site_fract_y
_atom_site_fract_z
C1 C 0.2627(3) 0.30145(12) 0.32981(12)
H1 H 0.36890 0.33250 0.32890
N1 N 0.2879(2) 0.22413(10) 0.28446(10)
C2 C 0.3973(2) 0.22691(12) 0.22303(12)
C3 C 0.4368(2) 0.14639(13) 0.17843(12)
H2 H 0.44640 0.10000 0.21740
O1 O 0.59186(17) 0.15791(9) 0.13683(8)
C4 C 0.7286(3) 0.15765(13) 0.18304(13)
O2 O 0.72645(19) 0.14631(10) 0.25466(9)
C5 C 0.8782(3) 0.17526(19) 0.13381(15)
H3 H 0.85680 0.16050 0.07790
H4 H 0.97100 0.14290 0.15400
H5 H 0.90480 0.23390 0.13720
C6 C 0.1340(3) 0.35391(13) 0.28704(12)
C7 C -0.0325(3) 0.33149(14) 0.29031(14)
H6 H -0.06490 0.28840 0.32520
C8 C -0.1514(3) 0.37026(14) 0.24417(15)
H7 H -0.26290 0.35310 0.24720
C9 C -0.1069(3) 0.43437(14) 0.19337(15)
H8 H -0.18760 0.46020 0.16080
C10 C 0.0553(3) 0.46046(15) 0.19035(14)
H9 H 0.08650 0.50470 0.15650
C11 C 0.1715(3) 0.42106(13) 0.23756(13)
N2 N 0.3397(2) 0.45556(11) 0.23578(12)
O3 O 0.3943(2) 0.48013(10) 0.17135(10)
O4 O 0.4146(2) 0.46176(10) 0.29959(11)
C12 C 0.2195(2) 0.28526(13) 0.41672(12)
C13 C 0.2067(3) 0.35378(13) 0.46779(13)
H10 H 0.22030 0.40750 0.44650
C14 C 0.1746(3) 0.34397(15) 0.54869(13)
H11 H 0.16870 0.39050 0.58290
C15 C 0.1511(3) 0.26520(15) 0.57912(13)
H12 H 0.12710 0.25790 0.63430
C16 C 0.1625(3) 0.19728(14) 0.52928(13)
H13 H 0.14590 0.14380 0.55060
C17 C 0.1982(3) 0.20654(13) 0.44809(12)
C18 C 0.2180(3) 0.13203(13) 0.39474(12)
H14 H 0.13940 0.08890 0.41170
H15 H 0.33070 0.10980 0.40090
C19 C 0.1881(3) 0.15292(13) 0.30752(12)
H16 H 0.21720 0.10520 0.27360
H17 H 0.07010 0.16540 0.29920
O5 O 0.46677(18) 0.29144(9) 0.20380(9)
C20 C 0.3147(3) 0.12444(14) 0.11318(13)
C21 C 0.2724(3) 0.18171(15) 0.05455(13)
H18 H 0.31330 0.23630 0.05770
C22 C 0.1703(3) 0.1589(2) -0.00865(14)
H19 H 0.14340 0.19760 -0.04910
C23 C 0.1083(3) 0.0798(2) -0.01248(16)
H20 H 0.03790 0.06460 -0.05530
C24 C 0.1481(3) 0.02279(18) 0.04565(16)
H21 H 0.10480 -0.03140 0.04280
C25 C 0.2518(3) 0.04499(14) 0.10835(14)
H22 H 0.27980 0.00570 0.14810
#END
