
#######################################################################
#
#                 Cambridge Crystallographic Data Centre
#                                CCDC
#
#######################################################################
#
# If this CIF has been generated from an entry in the Cambridge
# Structural Database, then it will include bibliographic, chemical,
# crystal, experimental, refinement or atomic coordinate data resulting
# from the CCDC's data processing and validation procedures.
#
#######################################################################

data_CSD_CIF_JADXER
_audit_creation_date 1989-07-30
_audit_creation_method CSD-ConQuest-V1
_database_code_CSD JADXER
_database_code_depnum_ccdc_archive 'CCDC 1181730'
_chemical_formula_sum 'C12 H19 N1 O7'
_chemical_formula_moiety
;
C12 H19 N1 O7
;
_journal_coden_Cambridge 15
_journal_volume 66
_journal_year 1988
_journal_page_first 1600
_journal_name_full 'Can.J.Chem. '
loop_
_publ_author_name
"W.A.Szarek"
"G.W.Hay"
"R.K.Sood"
"K.Trouton"
"S.Fortier"
_chemical_name_systematic
;
1,2-Anhydro-3,4:5,6-di-O-isopropylidene-1-C-nitro-D-mannitol
;
_cell_volume   1442.732
_exptl_crystal_colour 'colorless'
_exptl_crystal_density_diffrn 1.336
_diffrn_ambient_temperature ?
_diffrn_special_details
;
The study was carried out at room temperature,in the range 283-303K

;
#These two values have been output from a single CSD field.
_refine_ls_R_factor_gt 0.052
_refine_ls_wR_factor_gt 0.052
_symmetry_cell_setting orthorhombic
_symmetry_space_group_name_H-M 'P 21 21 21'
_symmetry_Int_Tables_number 19
loop_
_symmetry_equiv_pos_site_id
_symmetry_equiv_pos_as_xyz
1 x,y,z
2 1/2+x,1/2-y,-z
3 -x,1/2+y,1/2-z
4 1/2-x,-y,1/2+z
_cell_length_a 10.269(3)
_cell_length_b 15.115(7)
_cell_length_c 9.295(8)
_cell_angle_alpha 90
_cell_angle_beta 90
_cell_angle_gamma 90
_cell_formula_units_Z 4
loop_
_atom_type_symbol
_atom_type_radius_bond
C 0.68
H 0.23
N 0.68
O 0.68
loop_
_atom_site_label
_atom_site_type_symbol
_atom_site_fract_x
_atom_site_fract_y
_atom_site_fract_z
O1 O 0.2403(3) -0.0133(2) 0.3139(3)
O2 O 0.0251(4) 0.0055(3) 0.0271(4)
O3 O 0.1041(5) 0.1062(3) 0.1626(5)
O4 O 0.3860(3) -0.1628(2) 0.2058(3)
O5 O 0.5332(3) -0.1704(2) 0.0234(3)
O6 O 0.5959(3) 0.0639(2) 0.0600(3)
O7 O 0.6190(3) 0.0578(2) -0.1836(4)
N1 N 0.1005(4) 0.0336(3) 0.1173(5)
C1 C 0.1934(4) -0.0325(3) 0.1770(5)
C2 C 0.3287(4) -0.0090(3) 0.1916(5)
C3 C 0.4355(4) -0.0750(3) 0.1852(5)
C4 C 0.5014(4) -0.0790(2) 0.0358(4)
C5 C 0.6261(4) -0.0272(3) 0.0249(5)
C6 C 0.6783(4) -0.0232(3) -0.1288(6)
C7 C 0.4332(4) -0.2190(3) 0.0942(5)
C8 C 0.4945(6) -0.2998(3) 0.1595(6)
C9 C 0.3253(6) -0.2390(5) -0.0084(8)
C10 C 0.6161(5) 0.1178(3) -0.0635(5)
C11 C 0.5011(6) 0.1759(4) -0.0813(6)
C12 C 0.7438(5) 0.1675(4) -0.0506(7)
H1 H 0.15420 -0.08000 0.15420
H2 H 0.36320 0.04680 0.15230
H3 H 0.50000 -0.05660 0.26950
H4 H 0.44920 -0.05850 -0.03710
H5 H 0.77730 -0.02140 -0.15420
H6 H 0.55270 -0.29100 0.23240
H7 H 0.43160 -0.34760 0.15230
H8 H 0.34370 -0.27930 -0.07810
H9 H 0.29290 -0.19720 -0.03710
H10 H 0.24020 -0.27920 0.03710
H11 H 0.41210 0.13860 -0.07810
H12 H 0.51750 0.22070 -0.03710
H13 H 0.50000 0.18750 -0.15420
H14 H 0.75780 0.20890 -0.15420
H15 H 0.74020 0.19920 0.00000
H16 H 0.80850 0.12890 -0.03710
H17? H 0.69140 -0.05850 -0.07810
H18? H 0.65620 0.05660 -0.15230
H19? H 0.41210 -0.34960 0.19140
#END
