
#######################################################################
#
#                 Cambridge Crystallographic Data Centre
#                                CCDC
#
#######################################################################
#
# If this CIF has been generated from an entry in the Cambridge
# Structural Database, then it will include bibliographic, chemical,
# crystal, experimental, refinement or atomic coordinate data resulting
# from the CCDC's data processing and validation procedures.
#
#######################################################################

data_CSD_CIF_JAFZIC
_audit_creation_date 2015-12-14
_audit_creation_method CSD-ConQuest-V1
_database_code_CSD JAFZIC
_database_code_depnum_ccdc_archive 'CCDC 1017177'
_chemical_formula_sum 'C16 H11 N3 O2'
_chemical_formula_moiety
;
C16 H11 N3 O2
;
_journal_coden_Cambridge 1500
_journal_volume 5
_journal_year 2016
_journal_page_first 105825
_journal_name_full 'RSC Advances '
loop_
_publ_author_name
"Yun-Hao Zhang"
"Ming-Yue Wu"
"Wen-Cai Huang"
_chemical_name_systematic
;
N-(2-cyanophenyl)-1-methyl-2-oxo-1,2-dihydro-3H-indol-3-imine N-oxide
;
_cell_volume    684.390
_exptl_crystal_colour 'colorless'
_exptl_crystal_density_diffrn 1.345
_exptl_crystal_description 'prism'
_diffrn_ambient_temperature 293
#These two values have been output from a single CSD field.
_refine_ls_R_factor_gt 0.1344
_refine_ls_wR_factor_gt 0.1344
_symmetry_cell_setting triclinic
_symmetry_space_group_name_H-M 'P -1'
_symmetry_Int_Tables_number 2
loop_
_symmetry_equiv_pos_site_id
_symmetry_equiv_pos_as_xyz
1 x,y,z
2 -x,-y,-z
_cell_length_a 7.012(4)
_cell_length_b 7.844(4)
_cell_length_c 12.691(8)
_cell_angle_alpha 81.83(4)
_cell_angle_beta 85.86(4)
_cell_angle_gamma 82.76(3)
_cell_formula_units_Z 2
loop_
_atom_type_symbol
_atom_type_radius_bond
C 0.68
H 0.23
N 0.68
O 0.68
loop_
_atom_site_label
_atom_site_type_symbol
_atom_site_fract_x
_atom_site_fract_y
_atom_site_fract_z
O1 O 1.1466(5) 0.7072(4) 0.8173(3)
O2 O 0.5968(5) 0.9651(5) 0.7134(3)
N1 N 0.7522(6) 0.8817(4) 0.7523(3)
N2 N 1.1810(5) 0.6756(4) 0.6371(3)
N3 N 0.7321(10) 0.4366(6) 0.8308(5)
C1 C 1.0840(7) 0.7289(5) 0.7279(4)
C2 C 0.8935(7) 0.8127(5) 0.5777(4)
C3 C 0.7561(7) 0.8638(5) 0.8678(4)
C4 C 0.7459(7) 0.7034(5) 0.9276(4)
C5 C 0.7618(7) 0.8780(6) 0.5014(4)
C6 C 0.8942(7) 0.8157(5) 0.6911(4)
C7 C 0.7376(9) 0.5540(6) 0.8741(5)
C8 C 0.7562(8) 1.0097(6) 0.9167(5)
C9 C 1.1169(8) 0.6948(6) 0.4448(5)
C10 C 0.9817(9) 0.7595(7) 0.3690(5)
C11 C 0.7360(8) 0.6893(8) 1.0377(5)
C12 C 1.0704(7) 0.7238(5) 0.5478(4)
C13 C 0.7486(9) 0.9933(10) 1.0261(6)
C14 C 0.8093(9) 0.8484(7) 0.3969(5)
C15 C 1.3756(8) 0.5858(7) 0.6385(5)
C16 C 0.7382(9) 0.8332(10) 1.0862(6)
H1 H 0.64500 0.93980 0.51970
H2 H 0.76140 1.11780 0.87630
H3 H 1.23430 0.63430 0.42590
H4 H 1.00950 0.74170 0.29830
H5 H 0.72800 0.58190 1.07850
H6 H 0.75050 1.09070 1.05990
H7 H 0.72200 0.88990 0.34480
H8 H 1.41720 0.55990 0.56820
H9 H 1.37740 0.47990 0.68690
H10 H 1.46080 0.65840 0.66130
H11 H 0.73260 0.82360 1.16020
#END
