
#######################################################################
#
#                 Cambridge Crystallographic Data Centre
#                                CCDC
#
#######################################################################
#
# If this CIF has been generated from an entry in the Cambridge
# Structural Database, then it will include bibliographic, chemical,
# crystal, experimental, refinement or atomic coordinate data resulting
# from the CCDC's data processing and validation procedures.
#
#######################################################################

data_CSD_CIF_JAGMEM
_audit_creation_date 2015-12-14
_audit_creation_method CSD-ConQuest-V1
_database_code_CSD JAGMEM
_database_code_depnum_ccdc_archive 'CCDC 1055750'
_chemical_formula_sum 'C5 H9 N1 O4'
_chemical_formula_moiety
;
C5 H9 N1 O4
;
_journal_coden_Cambridge 524
_journal_volume 348
_journal_year 2015
_journal_page_first 589
_journal_name_full 'Arch.Pharm.Chem.Life Sci. '
loop_
_publ_author_name
"J.Frohlich"
"K.Lehmkuhl"
"R.Frohlich"
"B.Wunsch"
_chemical_name_systematic
;
2-Nitrocyclopentane-1,3-diol
;
_cell_volume    500.299
_exptl_crystal_colour 'colorless'
_exptl_crystal_density_diffrn 1.465
_exptl_crystal_description 'needle'
_diffrn_ambient_temperature 223
#These two values have been output from a single CSD field.
_refine_ls_R_factor_gt 0.0533
_refine_ls_wR_factor_gt 0.0533
_symmetry_cell_setting hexagonal
_symmetry_space_group_name_H-M 'P 31'
_symmetry_Int_Tables_number 144
loop_
_symmetry_equiv_pos_site_id
_symmetry_equiv_pos_as_xyz
1 x,y,z
2 -y,x-y,1/3+z
3 -x+y,-x,2/3+z
_cell_length_a 6.5281(3)
_cell_length_b 6.5281(3)
_cell_length_c 13.5558(6)
_cell_angle_alpha 90
_cell_angle_beta 90
_cell_angle_gamma 120
_cell_formula_units_Z 3
loop_
_atom_type_symbol
_atom_type_radius_bond
C 0.68
H 0.23
N 0.68
O 0.68
loop_
_atom_site_label
_atom_site_type_symbol
_atom_site_fract_x
_atom_site_fract_y
_atom_site_fract_z
C1 C -0.8060(7) 0.0974(7) -0.6747(3)
H1 H -0.89560 0.10190 -0.73270
C2 C -0.6409(7) 0.0099(7) -0.7065(3)
H2 H -0.56900 -0.01800 -0.64740
O1 O -0.7556(5) -0.1995(5) -0.76306(19)
H3 H -0.757(8) -0.308(8) -0.734(3)
C3 C -0.4516(8) 0.2185(8) -0.7640(3)
H4 H -0.48860 0.20030 -0.83470
H5 H -0.29660 0.23190 -0.75440
C4 C -0.4522(11) 0.4368(9) -0.7231(4)
H6 H -0.29580 0.55060 -0.69710
H7 H -0.49360 0.51410 -0.77510
C5 C -0.6368(8) 0.3492(7) -0.6407(3)
H8 H -0.56290 0.34670 -0.57730
O2 O -0.7438(6) 0.4887(5) -0.6318(2)
H9 H -0.783(9) 0.497(9) -0.576(4)
N1 N -0.9745(6) -0.0435(6) -0.5955(3)
O3 O -0.9122(7) -0.1381(6) -0.5341(2)
O4 O -1.1614(6) -0.0483(7) -0.5920(3)
#END
