
#######################################################################
#
#                 Cambridge Crystallographic Data Centre
#                                CCDC
#
#######################################################################
#
# If this CIF has been generated from an entry in the Cambridge
# Structural Database, then it will include bibliographic, chemical,
# crystal, experimental, refinement or atomic coordinate data resulting
# from the CCDC's data processing and validation procedures.
#
#######################################################################

data_CSD_CIF_JAGNOX01
_audit_creation_date 2017-01-26
_audit_creation_method CSD-ConQuest-V1
_database_code_CSD JAGNOX01
_database_code_depnum_ccdc_archive 'CCDC 956819'
_chemical_formula_sum 'C22 H21 N3 O6'
_chemical_formula_moiety
;
C22 H21 N3 O6
;
_journal_coden_Cambridge 1078
_journal_year 2016
_journal_name_full 'CSD Communication(Private Communication) '
loop_
_publ_author_name
"Qing Liu"
_chemical_name_systematic
;
3-((4-methoxy-2-nitrophenyl)amino)-1-(4-nitrophenyl)-3-phenylpropan-1-ol
;
_cell_volume   4181.239
_exptl_crystal_colour 'red'
_exptl_crystal_density_diffrn 1.345
_exptl_special_details
;
Absolute configuration

;
_exptl_crystal_description 'block'
_diffrn_ambient_temperature 296
#These two values have been output from a single CSD field.
_refine_ls_R_factor_gt 0.0357
_refine_ls_wR_factor_gt 0.0357
_symmetry_cell_setting tetragonal
_symmetry_space_group_name_H-M 'P 41 21 2'
_symmetry_Int_Tables_number 92
loop_
_symmetry_equiv_pos_site_id
_symmetry_equiv_pos_as_xyz
1 x,y,z
2 1/2-y,1/2+x,1/4+z
3 1/2+y,1/2-x,3/4+z
4 1/2+x,1/2-y,3/4-z
5 1/2-x,1/2+y,1/4-z
6 -x,-y,1/2+z
7 y,x,-z
8 -y,-x,1/2-z
_cell_length_a 10.9338(1)
_cell_length_b 10.9338(1)
_cell_length_c 34.9754(4)
_cell_angle_alpha 90
_cell_angle_beta 90
_cell_angle_gamma 90
_cell_formula_units_Z 8
loop_
_atom_type_symbol
_atom_type_radius_bond
C 0.68
H 0.23
N 0.68
O 0.68
loop_
_atom_site_label
_atom_site_type_symbol
_atom_site_fract_x
_atom_site_fract_y
_atom_site_fract_z
N1 N 0.55016(18) 0.7852(2) 0.00929(6)
N2 N 0.68436(17) 0.70437(19) 0.07663(5)
H1 H 0.70640 0.76940 0.06460
N3 N 1.3869(2) 1.0188(3) 0.08445(7)
O1 O 0.64354(18) 0.84448(19) 0.01746(5)
O2 O 0.48925(19) 0.8116(2) -0.01915(6)
O3 O 0.26708(17) 0.45270(19) 0.03147(6)
O4 O 0.98947(18) 0.5969(2) 0.07043(7)
H2 H 0.94770 0.56390 0.05390
O5 O 1.4857(2) 0.9669(3) 0.0856(1)
O6 O 1.3752(2) 1.1296(2) 0.08323(7)
C1 C 0.51472(19) 0.6821(2) 0.03164(5)
C2 C 0.4081(2) 0.6206(2) 0.01985(6)
H3 H 0.36440 0.64850 -0.00120
C3 C 0.3687(2) 0.5197(2) 0.03950(6)
C4 C 0.4354(2) 0.4803(2) 0.07123(7)
H4 H 0.40910 0.41200 0.08470
C5 C 0.5387(2) 0.5400(2) 0.08282(6)
H5 H 0.58120 0.51060 0.10390
C6 C 0.58307(18) 0.6453(2) 0.06380(6)
C7 C 0.1955(3) 0.4888(4) -0.00018(9)
H6 H 0.16590 0.57040 0.00380
H7 H 0.12750 0.43400 -0.00290
H8 H 0.24450 0.48650 -0.02290
C8 C 0.7585(2) 0.6662(2) 0.10911(6)
H9 H 0.78010 0.57990 0.10560
C9 C 0.87604(19) 0.7412(2) 0.10882(6)
H10 H 0.92320 0.72090 0.13140
H11 H 0.85490 0.82720 0.11040
C10 C 0.9562(2) 0.7212(3) 0.07350(7)
H12 H 0.91040 0.74520 0.05060
C11 C 1.07060(19) 0.7992(2) 0.07655(6)
C12 C 1.1828(2) 0.7478(2) 0.08489(7)
H13 H 1.18890 0.66370 0.08840
C13 C 1.2860(2) 0.8195(3) 0.08805(7)
H14 H 1.36130 0.78430 0.09370
C14 C 1.2762(2) 0.9431(3) 0.08280(7)
C15 C 1.1658(2) 0.9988(3) 0.07517(7)
H15 H 1.16020 1.08320 0.07240
C16 C 1.0635(2) 0.9249(3) 0.07184(7)
H16 H 0.98830 0.96040 0.06630
C17 C 0.6943(2) 0.6796(2) 0.14748(6)
C18 C 0.5993(2) 0.7610(2) 0.15288(8)
H17 H 0.57200 0.80840 0.13250
C19 C 0.5444(3) 0.7726(3) 0.18840(9)
H18 H 0.47930 0.82640 0.19160
C20 C 0.5857(3) 0.7048(3) 0.21884(8)
H19 H 0.54920 0.71320 0.24270
C21 C 0.6807(3) 0.6251(3) 0.21390(8)
H20 H 0.70910 0.57960 0.23450
C22 C 0.7347(2) 0.6116(3) 0.17839(7)
H21 H 0.79870 0.55650 0.17530
#END
