
#######################################################################
#
#                 Cambridge Crystallographic Data Centre
#                                CCDC
#
#######################################################################
#
# If this CIF has been generated from an entry in the Cambridge
# Structural Database, then it will include bibliographic, chemical,
# crystal, experimental, refinement or atomic coordinate data resulting
# from the CCDC's data processing and validation procedures.
#
#######################################################################

data_CSD_CIF_JAGNOX
_audit_creation_date 2017-01-26
_audit_creation_method CSD-ConQuest-V1
_database_code_CSD JAGNOX
_database_code_depnum_ccdc_archive 'CCDC 953818'
_chemical_formula_sum 'C22 H21 N3 O6'
_chemical_formula_moiety
;
C22 H21 N3 O6
;
_journal_coden_Cambridge 1078
_journal_year 2016
_journal_name_full 'CSD Communication(Private Communication) '
loop_
_publ_author_name
"Qing Liu"
_chemical_name_systematic
;
3-((4-methoxy-2-nitrophenyl)amino)-1-(4-nitrophenyl)-3-phenylpropan-1-ol
;
_cell_volume   1971.142
_exptl_crystal_colour 'red'
_exptl_crystal_density_diffrn 1.427
_exptl_crystal_description 'block'
_diffrn_ambient_temperature 100
#These two values have been output from a single CSD field.
_refine_ls_R_factor_gt 0.0297
_refine_ls_wR_factor_gt 0.0297
loop_
_citation_database_id_CSD
_citation_special_details
JAGNUD "is a stereoisomer of this entry"
JAGPAL "is a stereoisomer of this entry"
_symmetry_cell_setting orthorhombic
_symmetry_space_group_name_H-M 'P 21 21 21'
_symmetry_Int_Tables_number 19
loop_
_symmetry_equiv_pos_site_id
_symmetry_equiv_pos_as_xyz
1 x,y,z
2 1/2+x,1/2-y,-z
3 -x,1/2+y,1/2-z
4 1/2-x,-y,1/2+z
_cell_length_a 9.6466(7)
_cell_length_b 13.1501(9)
_cell_length_c 15.5387(11)
_cell_angle_alpha 90
_cell_angle_beta 90
_cell_angle_gamma 90
_cell_formula_units_Z 4
loop_
_atom_type_symbol
_atom_type_radius_bond
C 0.68
H 0.23
N 0.68
O 0.68
loop_
_atom_site_label
_atom_site_type_symbol
_atom_site_fract_x
_atom_site_fract_y
_atom_site_fract_z
O1 O -0.15185(10) 0.56614(8) 0.20003(6)
O2 O 1.25706(10) 0.28368(8) 0.37344(8)
O3 O 1.23088(12) 0.30613(9) 0.23641(8)
O4 O 0.54449(11) 0.32723(8) 0.42706(7)
H1 H 0.472(2) 0.3143(15) 0.4114(13)
O5 O 0.28274(10) 0.56731(8) 0.03041(6)
O6 O 0.4528(1) 0.57752(8) 0.12087(6)
N1 N 0.40808(11) 0.53857(8) 0.28465(7)
H2 H 0.46810 0.52940 0.24450
N2 N 1.18413(13) 0.29794(9) 0.30936(8)
N3 N 0.32658(11) 0.56902(8) 0.10504(7)
C1 C -0.19408(14) 0.54622(12) 0.11322(9)
H3 H -0.15620 0.59730 0.07590
H4 H -0.29340 0.54750 0.10980
H5 H -0.16090 0.48050 0.09590
C2 C -0.01168(13) 0.56179(9) 0.21466(8)
C3 C 0.02867(14) 0.55625(10) 0.30121(8)
H6 H -0.03880 0.55600 0.34390
C4 C 0.16576(14) 0.55122(9) 0.32398(8)
H7 H 0.18910 0.54740 0.38200
C5 C 0.27352(13) 0.55164(9) 0.26132(8)
C6 C 0.45780(13) 0.53910(9) 0.37402(8)
H8 H 0.39750 0.49540 0.40870
C7 C 0.60445(13) 0.49383(9) 0.37321(8)
H9 H 0.64810 0.50680 0.42840
H10 H 0.65880 0.52790 0.32930
C8 C 0.60618(14) 0.37857(10) 0.35564(8)
H11 H 0.55330 0.36390 0.30330
C9 C 0.75505(14) 0.34395(10) 0.34405(8)
C10 C 0.84174(14) 0.3315(1) 0.41497(8)
H12 H 0.80480 0.33540 0.47010
C11 C 0.98256(14) 0.31331(10) 0.40455(9)
H13 H 1.04060 0.30510 0.45180
C12 C 1.03371(15) 0.30784(10) 0.32142(9)
C13 C 0.80943(15) 0.33183(10) 0.26144(9)
H14 H 0.75090 0.33530 0.21400
C14 C 0.94989(15) 0.3146(1) 0.24943(9)
H15 H 0.98680 0.30780 0.19440
C15 C 0.08811(13) 0.56459(9) 0.15166(8)
H16 H 0.06280 0.56850 0.09400
C16 C 0.22872(13) 0.56153(9) 0.17500(8)
C17 C 0.45525(13) 0.64604(10) 0.41122(8)
C18 C 0.38952(15) 0.66746(11) 0.48895(9)
H17 H 0.34720 0.61540 0.51980
C19 C 0.38684(17) 0.76670(11) 0.52072(9)
H18 H 0.34190 0.78060 0.57230
C20 C 0.45088(16) 0.84457(11) 0.47568(9)
H19 H 0.44920 0.91070 0.49700
C21 C 0.51753(15) 0.82335(11) 0.39864(9)
H20 H 0.56130 0.87520 0.36840
C22 C 0.51892(15) 0.72486(10) 0.36666(9)
H21 H 0.56310 0.71140 0.31470
#END
