
#######################################################################
#
#                 Cambridge Crystallographic Data Centre
#                                CCDC
#
#######################################################################
#
# If this CIF has been generated from an entry in the Cambridge
# Structural Database, then it will include bibliographic, chemical,
# crystal, experimental, refinement or atomic coordinate data resulting
# from the CCDC's data processing and validation procedures.
#
#######################################################################

data_CSD_CIF_JAHLIN
_audit_creation_date 1989-09-22
_audit_creation_method CSD-ConQuest-V1
_database_code_CSD JAHLIN
_chemical_formula_sum 'C12 H15 N3 O6'
_chemical_formula_moiety
;
C12 H15 N3 O6
;
_journal_coden_Cambridge 156
_journal_volume 172
_journal_year 1988
_journal_page_first 171
_journal_name_full 'Carbohydr.Res. '
loop_
_publ_author_name
"Z.Smiatacz"
"H.Myszka"
"Z.Ciunik"
_chemical_name_systematic
;
1-(3,4-Di-O-acetyl-2-deoxy-2-hydroxyimino-\a-D-erythro-pentopyranosyl)pyrazole
;
_chemical_melting_point 435.15
_cell_volume    693.822
_exptl_crystal_density_diffrn 1.42
_exptl_special_details
;
Melting point range 435.15-436.15K

;
_diffrn_ambient_temperature ?
_diffrn_special_details
;
The study was carried out at room temperature,in the range 283-303K

;
#These two values have been output from a single CSD field.
_refine_ls_R_factor_gt 0.051
_refine_ls_wR_factor_gt 0.051
_symmetry_cell_setting monoclinic
_symmetry_space_group_name_H-M 'P 21'
_symmetry_Int_Tables_number 4
loop_
_symmetry_equiv_pos_site_id
_symmetry_equiv_pos_as_xyz
1 x,y,z
2 -x,1/2+y,-z
_cell_length_a 6.811(2)
_cell_length_b 11.456(4)
_cell_length_c 9.244(3)
_cell_angle_alpha 90
_cell_angle_beta 105.86(2)
_cell_angle_gamma 90
_cell_formula_units_Z 2
loop_
_atom_type_symbol
_atom_type_radius_bond
C 0.68
H 0.23
N 0.68
O 0.68
loop_
_atom_site_label
_atom_site_type_symbol
_atom_site_fract_x
_atom_site_fract_y
_atom_site_fract_z
O1 O 0.8032(5) 1.0958(4) 0.9977(4)
O2 O 0.4564(7) 0.8619(5) 0.4493(4)
O3 O 0.3576(5) 0.9828(4) 0.6060(3)
O4 O 0.1877(4) 0.7733(4) 0.6368(3)
O5 O 0.2623(4) 0.95150 0.9684(3)
O6 O 0.3872(7) 0.6176(4) 0.6902(4)
N1 N 0.3078(5) 1.1442(4) 0.8917(3)
N2 N 0.7352(6) 1.0197(4) 0.8822(4)
N3 N 0.1534(5) 1.1873(4) 0.9417(4)
C1 C 0.4071(6) 1.0343(5) 0.9554(4)
C2 C 0.5439(6) 0.9913(5) 0.8612(4)
C3 C 0.4605(6) 0.9108(5) 0.7347(5)
C4 C 0.3057(6) 0.8297(4) 0.7703(5)
C5 C 0.1524(6) 0.8986(5) 0.8296(4)
C6 C 0.3620(8) 0.9436(6) 0.4679(5)
C7 C 0.2205(9) 1.0159(7) 0.3480(6)
C8 C 0.2523(7) 0.6685(5) 0.6047(5)
C9 C 0.1402(8) 0.6251(5) 0.4542(5)
C10 C 0.1203(7) 1.2925(5) 0.8840(5)
C11 C 0.2554(7) 1.3193(5) 0.7997(6)
C12 C 0.3724(6) 1.2225(5) 0.8090(5)
H1 H 0.49100 1.04600 1.05400
H2 H 0.94000 1.12000 0.99200
H3 H 0.57000 0.86400 0.71700
H4 H 0.38200 0.77500 0.84500
H5 H 0.05000 0.84700 0.84600
H6 H 0.08900 0.95800 0.75900
H7 H 0.25300 1.10700 0.37800
H8 H 0.23900 0.99800 0.25900
H9 H 0.08200 1.00500 0.34300
H10 H 0.20800 0.66700 0.37500
H11 H 0.00200 0.64000 0.43000
H12 H 0.16400 0.54200 0.44800
H13 H 0.01700 1.34500 0.89700
H14 H 0.26700 1.39000 0.74900
H15 H 0.48300 1.21100 0.76400
#END
