
#######################################################################
#
#                 Cambridge Crystallographic Data Centre
#                                CCDC
#
#######################################################################
#
# If this CIF has been generated from an entry in the Cambridge
# Structural Database, then it will include bibliographic, chemical,
# crystal, experimental, refinement or atomic coordinate data resulting
# from the CCDC's data processing and validation procedures.
#
#######################################################################

data_CSD_CIF_JAHROC
_audit_creation_date 2017-01-26
_audit_creation_method CSD-ConQuest-V1
_database_code_CSD JAHROC
_database_code_depnum_ccdc_archive 'CCDC 800575'
_chemical_formula_sum 'C33 H30 N4 O6'
_chemical_formula_moiety
;
C33 H30 N4 O6
;
_journal_coden_Cambridge 24
_journal_volume 52
_journal_year 2011
_journal_page_first 5835
_journal_name_full 'Tetrahedron Lett. '
loop_
_publ_author_name
"C.Mukhopadhyaya"
"S.Rana"
"R.J.Butcher"
"A.M.Schmiedekamp"
_chemical_name_systematic
;
methyl 
syn-1-(4-methylphenyl)-4-((4-methylphenyl)amino)-2,6-bis(3-nitrophenyl)-1,2,5,
6-tetrahydropyridine-3-carboxylate
;
_cell_volume   2871.357
_exptl_crystal_colour 'yellow'
_exptl_crystal_density_diffrn 1.338
_exptl_crystal_description 'plate'
_diffrn_ambient_temperature 296
#These two values have been output from a single CSD field.
_refine_ls_R_factor_gt 0.0414
_refine_ls_wR_factor_gt 0.0414
_symmetry_cell_setting monoclinic
_symmetry_space_group_name_H-M 'P 21/n'
_symmetry_Int_Tables_number 14
loop_
_symmetry_equiv_pos_site_id
_symmetry_equiv_pos_as_xyz
1 x,y,z
2 1/2-x,1/2+y,1/2-z
3 -x,-y,-z
4 -1/2+x,-1/2-y,-1/2+z
_cell_length_a 15.9388(15)
_cell_length_b 10.7728(10)
_cell_length_c 16.8025(16)
_cell_angle_alpha 90
_cell_angle_beta 95.591(3)
_cell_angle_gamma 90
_cell_formula_units_Z 4
loop_
_atom_type_symbol
_atom_type_radius_bond
C 0.68
H 0.23
N 0.68
O 0.68
loop_
_atom_site_label
_atom_site_type_symbol
_atom_site_fract_x
_atom_site_fract_y
_atom_site_fract_z
O1 O 0.04024(10) 1.28937(12) 0.04384(8)
O2 O -0.03986(9) 1.27975(11) 0.14591(8)
O3 O 0.19559(14) 0.47659(17) 0.02105(12)
O4 O 0.23317(13) 0.35403(16) 0.11814(13)
O5 O 0.07172(13) 0.85629(18) 0.47686(11)
O6 O 0.12175(15) 1.0015(2) 0.55485(10)
N1 N 0.15140(11) 1.09976(15) 0.03235(10)
H1 H 0.13350 1.16990 0.01290
N2 N 0.00780(9) 0.91306(12) 0.19074(8)
C1 C -0.10405(11) 0.76113(16) 0.14815(10)
H2 H -0.06890 0.72060 0.11550
N3 N 0.19931(12) 0.44842(16) 0.09103(13)
C2 C 0.42009(17) 0.8814(3) -0.12311(17)
H3 H 0.44370 0.81190 -0.09300
H4 H 0.46300 0.94280 -0.12770
H5 H 0.39830 0.85430 -0.17550
C3 C 0.34951(14) 0.9371(2) -0.08072(12)
C4 C 0.27079(14) 0.8836(2) -0.08611(12)
H6 H 0.26130 0.81090 -0.11550
C5 C 0.20540(13) 0.93498(18) -0.04892(12)
H7 H 0.15270 0.89730 -0.05370
C6 C 0.21855(12) 1.04248(17) -0.00465(11)
C7 C 0.11336(11) 1.05542(16) 0.09427(10)
C8 C 0.14066(11) 0.93375(16) 0.13133(11)
H8 H 0.17050 0.94790 0.18370
H9 H 0.17880 0.89240 0.09830
C9 C 0.06407(11) 0.85155(15) 0.13946(10)
H10 H 0.03380 0.83990 0.08630
C10 C -0.07367(11) 0.86269(15) 0.19412(10)
C11 C -0.12704(11) 0.91436(16) 0.24616(11)
H11 H -0.10720 0.97760 0.28070
C12 C -0.20892(12) 0.87317(17) 0.24727(12)
H12 H -0.24350 0.91120 0.28150
C13 C -0.24119(12) 0.77675(17) 0.19881(11)
C14 C -0.33151(14) 0.7370(2) 0.19856(15)
H13 H -0.34570 0.68180 0.15450
H14 H -0.36740 0.80870 0.19330
H15 H -0.33910 0.69510 0.24780
C15 C 0.36129(14) 1.0452(2) -0.03682(13)
H16 H 0.41390 1.08330 -0.03240
C16 C 0.29638(13) 1.09811(19) 0.00071(12)
H17 H 0.30550 1.17130 0.02960
C17 C 0.04910(11) 1.11300(15) 0.12858(10)
C18 C 0.01797(11) 1.23225(16) 0.10097(10)
C19 C -0.06859(17) 1.4043(2) 0.12805(16)
H18 H -0.03320 1.44210 0.09180
H19 H -0.06600 1.45180 0.17660
H20 H -0.12570 1.40200 0.10390
C20 C 0.01569(11) 1.04991(15) 0.19988(10)
H21 H -0.04190 1.08090 0.20140
C21 C -0.18612(12) 0.72047(17) 0.15099(11)
H22 H -0.20500 0.65300 0.11970
C22 C 0.09571(11) 0.72564(15) 0.17097(10)
C23 C 0.12640(12) 0.64273(16) 0.11808(11)
H23 H 0.12230 0.66030 0.06370
C24 C 0.16323(12) 0.53360(16) 0.14682(12)
C25 C 0.16940(13) 0.50255(18) 0.22625(13)
H24 H 0.19470 0.42860 0.24430
C26 C 0.13726(17) 0.5834(2) 0.27844(14)
H25 H 0.13980 0.56380 0.33250
C27 C 0.10103(15) 0.69445(19) 0.25106(12)
H26 H 0.08000 0.74880 0.28720
C28 C 0.06273(11) 1.08517(16) 0.28084(11)
C29 C 0.06236(12) 1.00767(17) 0.34666(11)
H27 H 0.03730 0.92980 0.34130
C30 C 0.09911(13) 1.04613(19) 0.41999(11)
N4 N 0.09771(13) 0.9614(2) 0.48867(11)
C31 C 0.13601(16) 1.1602(2) 0.43235(13)
H28 H 0.15970 1.18450 0.48270
C32 C 0.13657(19) 1.2373(2) 0.36705(15)
H29 H 0.16120 1.31540 0.37310
C33 C 0.10092(16) 1.2002(2) 0.29262(13)
H30 H 0.10260 1.25360 0.24940
#END
