
#######################################################################
#
#                 Cambridge Crystallographic Data Centre
#                                CCDC
#
#######################################################################
#
# If this CIF has been generated from an entry in the Cambridge
# Structural Database, then it will include bibliographic, chemical,
# crystal, experimental, refinement or atomic coordinate data resulting
# from the CCDC's data processing and validation procedures.
#
#######################################################################

data_CSD_CIF_JAJSOF
_audit_creation_date 2017-01-27
_audit_creation_method CSD-ConQuest-V1
_database_code_CSD JAJSOF
_database_code_depnum_ccdc_archive 'CCDC 1034993'
_chemical_formula_sum 'C15 H11 N3 O2'
_chemical_formula_moiety
;
C15 H11 N3 O2
;
_journal_coden_Cambridge 692
_journal_volume 47
_journal_year 2015
_journal_page_first 2680
_journal_name_full 'Synthesis '
loop_
_publ_author_name
"F.Lassagne"
"F.Chevallier"
"T.Roisnel"
"V.Dorcet"
"Florence Mongin"
"L.R.Domingo"
_chemical_name_systematic
;
8-methyl-2-(2-nitrophenyl)quinoxaline
;
_cell_volume   1254.336
_exptl_crystal_colour 'colorless'
_exptl_crystal_density_diffrn 1.405
_exptl_crystal_description 'block'
_diffrn_ambient_temperature 150
#These two values have been output from a single CSD field.
_refine_ls_R_factor_gt 0.0385
_refine_ls_wR_factor_gt 0.0385
_symmetry_cell_setting monoclinic
_symmetry_space_group_name_H-M 'P 21/n'
_symmetry_Int_Tables_number 14
loop_
_symmetry_equiv_pos_site_id
_symmetry_equiv_pos_as_xyz
1 x,y,z
2 1/2-x,1/2+y,1/2-z
3 -x,-y,-z
4 -1/2+x,-1/2-y,-1/2+z
_cell_length_a 7.7038(3)
_cell_length_b 13.4722(6)
_cell_length_c 12.1711(6)
_cell_angle_alpha 90
_cell_angle_beta 96.793(2)
_cell_angle_gamma 90
_cell_formula_units_Z 4
loop_
_atom_type_symbol
_atom_type_radius_bond
C 0.68
H 0.23
N 0.68
O 0.68
loop_
_atom_site_label
_atom_site_type_symbol
_atom_site_fract_x
_atom_site_fract_y
_atom_site_fract_z
C1 C 0.16463(17) 0.38347(9) 0.57820(11)
H1 H 0.08400 0.34140 0.53040
H2 H 0.10480 0.40960 0.63870
H3 H 0.26600 0.34410 0.60880
C2 C 0.22469(15) 0.46827(8) 0.51169(10)
C3 C 0.20323(15) 0.46757(9) 0.39795(10)
H4 H 0.14600 0.41280 0.36010
C4 C 0.26420(16) 0.54624(10) 0.33575(10)
H5 H 0.24590 0.54360 0.25720
C5 C 0.34914(16) 0.62618(9) 0.38675(10)
H6 H 0.38990 0.67840 0.34410
C6 C 0.37543(15) 0.63005(8) 0.50391(10)
N1 N 0.46415(13) 0.70870(7) 0.55507(9)
C7 C 0.48381(16) 0.70786(9) 0.66376(10)
H7 H 0.54800 0.76010 0.70200
C8 C 0.41316(15) 0.63210(8) 0.72682(10)
N2 N 0.32836(12) 0.55529(7) 0.67938(8)
C9 C 0.30995(14) 0.55184(8) 0.5663(1)
C10 C 0.43396(15) 0.63518(8) 0.84975(10)
C11 C 0.59942(16) 0.64334(9) 0.90961(11)
H8 H 0.69850 0.65390 0.87140
C12 C 0.62122(17) 0.63622(10) 1.02432(11)
H9 H 0.73490 0.64180 1.06360
C13 C 0.47860(19) 0.62111(10) 1.08207(11)
H10 H 0.49470 0.61650 1.16050
C14 C 0.31210(18) 0.61277(9) 1.02475(10)
H11 H 0.21330 0.60200 1.06310
C15 C 0.29326(15) 0.62053(8) 0.91061(10)
N3 N 0.11420(13) 0.61638(8) 0.85354(9)
O1 O 0.07025(12) 0.67943(7) 0.78256(7)
O2 O 0.01661(13) 0.55211(9) 0.88172(9)
#END
