
#######################################################################
#
#                 Cambridge Crystallographic Data Centre
#                                CCDC
#
#######################################################################
#
# If this CIF has been generated from an entry in the Cambridge
# Structural Database, then it will include bibliographic, chemical,
# crystal, experimental, refinement or atomic coordinate data resulting
# from the CCDC's data processing and validation procedures.
#
#######################################################################

data_CSD_CIF_JAKQUI
_audit_creation_date 2005-03-21
_audit_creation_method CSD-ConQuest-V1
_database_code_CSD JAKQUI
_database_code_depnum_ccdc_archive 'CCDC 244254'
_chemical_formula_sum 'C27 H20 N6 O14'
_chemical_formula_moiety
;
C27 H20 N6 O14
;
_journal_coden_Cambridge 182
_journal_year 2004
_journal_page_first 2552
_journal_name_full 'Chem.Commun. '
loop_
_publ_author_name
"D.Schwaebisch"
"K.Tchabanenko"
"R.M.Adlington"
"A.M.Cowley"
"J.E.Baldwin"
_chemical_name_systematic
;
Methyl 
3-(3,5-dinitrobenozyl)-9b-((3,5-dinitrobenzoyl)oxy)-5-methyl-1,2,3,3a,5,9b-hex
ahydropyrrolo(2,3-c)(2,1)benzoxazine-2-carboxylate
;
_cell_volume   1401.023
_exptl_crystal_colour 'yellow'
_exptl_crystal_density_diffrn 1.547
_exptl_crystal_description 'block'
_diffrn_ambient_temperature 150
#These two values have been output from a single CSD field.
_refine_ls_R_factor_gt 0.0326
_refine_ls_wR_factor_gt 0.0326
_symmetry_cell_setting monoclinic
_symmetry_space_group_name_H-M 'P 21'
_symmetry_Int_Tables_number 4
loop_
_symmetry_equiv_pos_site_id
_symmetry_equiv_pos_as_xyz
1 x,y,z
2 -x,1/2+y,-z
_cell_length_a 12.4739(2)
_cell_length_b 8.0449(2)
_cell_length_c 14.3256(3)
_cell_angle_alpha 90
_cell_angle_beta 102.9509(11)
_cell_angle_gamma 90
_cell_formula_units_Z 2
loop_
_atom_type_symbol
_atom_type_radius_bond
C 0.68
H 0.23
N 0.68
O 0.68
loop_
_atom_site_label
_atom_site_type_symbol
_atom_site_fract_x
_atom_site_fract_y
_atom_site_fract_z
O1 O 0.42106(12) 0.4217(2) 0.16815(11)
N1 N 0.50413(15) 0.2945(3) 0.20413(15)
C1 C 0.47058(18) 0.1421(3) 0.15644(16)
C2 C 0.5472(2) 0.0249(4) 0.14016(18)
C3 C 0.5124(2) -0.1289(3) 0.10010(19)
C4 C 0.4018(2) -0.1684(3) 0.07517(17)
C5 C 0.32488(19) -0.0523(3) 0.09037(16)
C6 C 0.35836(18) 0.1011(3) 0.13164(15)
C7 C 0.27460(17) 0.2266(3) 0.14673(15)
C8 C 0.21040(18) 0.3032(3) 0.05252(15)
C9 C 0.17071(18) 0.4738(3) 0.08071(15)
N2 N 0.24562(15) 0.5072(2) 0.17344(13)
C10 C 0.32601(17) 0.3781(3) 0.20305(15)
C11 C 0.6067(2) 0.3695(4) 0.1912(2)
O2 O 0.19014(12) 0.1563(2) 0.19038(11)
C12 C 0.21803(18) 0.0946(3) 0.28011(16)
O3 O 0.31031(13) 0.0846(2) 0.32826(11)
C13 C 0.11720(18) 0.0413(3) 0.31206(16)
C14 C 0.1214(2) 0.0286(3) 0.40948(17)
C15 C 0.0289(2) -0.0300(3) 0.43728(18)
C16 C -0.0650(2) -0.0814(3) 0.37416(18)
C17 C -0.06628(18) -0.0590(3) 0.27823(17)
C18 C 0.02100(19) 0.0036(3) 0.24500(16)
N3 N 0.0292(2) -0.0327(3) 0.54074(16)
O4 O -0.04725(19) -0.1029(4) 0.56529(15)
O5 O 0.1047(2) 0.0371(3) 0.59523(14)
N4 N -0.16774(16) -0.0981(3) 0.20788(17)
O6 O -0.19049(15) -0.0103(3) 0.13569(13)
O7 O -0.22470(16) -0.2133(3) 0.2246(2)
C19 C 0.04962(19) 0.4704(3) 0.08327(16)
O8 O -0.02105(15) 0.4944(3) 0.01187(13)
O9 O 0.03031(13) 0.4321(2) 0.16812(12)
C20 C -0.0851(2) 0.4204(4) 0.1714(2)
C21 C 0.23388(18) 0.6466(3) 0.22333(16)
O10 O 0.16132(15) 0.7475(2) 0.19350(13)
C22 C 0.31021(19) 0.6671(3) 0.32026(16)
C23 C 0.42327(19) 0.6919(3) 0.33217(18)
C24 C 0.4847(2) 0.7128(3) 0.42474(19)
C25 C 0.4424(2) 0.7045(3) 0.50534(18)
C26 C 0.3302(2) 0.6793(3) 0.48912(17)
C27 C 0.26234(19) 0.6640(3) 0.39900(17)
N5 N 0.6040(2) 0.7405(4) 0.4379(2)
O11 O 0.65184(17) 0.8136(3) 0.50992(15)
O12 O 0.6485(2) 0.6910(5) 0.3767(2)
N6 N 0.2801(2) 0.6576(3) 0.57184(16)
O13 O 0.1842(2) 0.7014(3) 0.56332(16)
O14 O 0.3363(2) 0.5937(3) 0.64387(14)
H1 H 0.62750 0.05180 0.15740
H2 H 0.56810 -0.21180 0.08920
H3 H 0.37740 -0.27920 0.04650
H4 H 0.24470 -0.07940 0.07150
H5 H 0.25920 0.31730 0.00640
H6 H 0.14630 0.23150 0.02290
H7 H 0.17370 0.56460 0.03370
H8 H 0.34600 0.36040 0.27390
H9 H 0.66900 0.29060 0.21410
H10 H 0.62070 0.47510 0.22880
H11 H 0.60060 0.39410 0.12170
H12 H 0.18910 0.06080 0.45800
H13 H -0.12840 -0.13160 0.39620
H14 H 0.01540 0.02150 0.17500
H15 H -0.09120 0.39120 0.23790
H16 H -0.12190 0.52960 0.15270
H17 H -0.12150 0.33230 0.12590
H18 H 0.45860 0.69450 0.27600
H19 H 0.48970 0.71600 0.57130
H20 H 0.18100 0.65100 0.39070
#END
