
#######################################################################
#
#                 Cambridge Crystallographic Data Centre
#                                CCDC
#
#######################################################################
#
# If this CIF has been generated from an entry in the Cambridge
# Structural Database, then it will include bibliographic, chemical,
# crystal, experimental, refinement or atomic coordinate data resulting
# from the CCDC's data processing and validation procedures.
#
#######################################################################

data_CSD_CIF_JALJOY
_audit_creation_date 2017-01-28
_audit_creation_method CSD-ConQuest-V1
_database_code_CSD JALJOY
_database_code_depnum_ccdc_archive 'CCDC 1529245'
_chemical_formula_sum 'C7 H8 N2 O4'
_chemical_formula_moiety
;
C7 H8 N2 O4
;
_journal_coeditor_code "su5346"
_journal_coden_Cambridge 1828
_journal_volume 73
_journal_year 2017
_journal_page_first 254
_journal_name_full 'Acta Crystallogr.,Sect.E:Cryst.Commun. '
loop_
_publ_author_name
"A.R.Kennedy"
"A.I.Khalaf"
"F.J.Scott"
"C.J.Suckling"
_chemical_name_systematic
;
ethyl 4-nitro-1H-pyrrole-2-carboxylate
;
_cell_volume    817.325
_exptl_crystal_colour 'colorless'
_exptl_crystal_density_diffrn 1.497
_exptl_crystal_description 'plate'
_diffrn_ambient_temperature 123
#These two values have been output from a single CSD field.
_refine_ls_R_factor_gt 0.0733
_refine_ls_wR_factor_gt 0.0733
_symmetry_cell_setting monoclinic
_symmetry_space_group_name_H-M 'P 21/c'
_symmetry_Int_Tables_number 14
loop_
_symmetry_equiv_pos_site_id
_symmetry_equiv_pos_as_xyz
1 x,y,z
2 -x,1/2+y,1/2-z
3 -x,-y,-z
4 x,-1/2-y,-1/2+z
_cell_length_a 11.0318(13)
_cell_length_b 10.4108(13)
_cell_length_c 7.1659(8)
_cell_angle_alpha 90
_cell_angle_beta 96.734(10)
_cell_angle_gamma 90
_cell_formula_units_Z 4
loop_
_atom_type_symbol
_atom_type_radius_bond
C 0.68
H 0.23
N 0.68
O 0.68
loop_
_atom_site_label
_atom_site_type_symbol
_atom_site_fract_x
_atom_site_fract_y
_atom_site_fract_z
O1 O 0.6535(2) 0.5757(2) 0.6758(3)
O2 O 0.8216(2) 0.5067(2) 0.8325(3)
O3 O 0.6242(2) -0.0697(2) 0.6309(3)
O4 O 0.79942(18) -0.0218(2) 0.8128(3)
N1 N 0.7216(2) 0.4878(3) 0.7390(3)
N2 N 0.5700(2) 0.1948(3) 0.6026(3)
C1 C 0.5726(3) 0.3226(3) 0.6068(4)
H1 H 0.51020 0.37880 0.55300
C2 C 0.6831(3) 0.3584(3) 0.7041(4)
C3 C 0.7498(3) 0.2472(3) 0.7609(4)
H2 H 0.82870 0.24280 0.83000
C4 C 0.6769(2) 0.1465(3) 0.6954(4)
C5 C 0.6964(3) 0.0084(3) 0.7088(4)
C6 C 0.8251(3) -0.1596(3) 0.8261(5)
H3 H 0.82140 -0.19780 0.69910
H4 H 0.76450 -0.20340 0.89540
C7 C 0.9511(3) -0.1739(4) 0.9291(5)
H5 H 1.01000 -0.12980 0.85920
H6 H 0.97200 -0.26530 0.94060
H7 H 0.95330 -0.13600 1.05460
H8 H 0.513(4) 0.143(4) 0.546(6)
#END
