
#######################################################################
#
#                 Cambridge Crystallographic Data Centre
#                                CCDC
#
#######################################################################
#
# If this CIF has been generated from an entry in the Cambridge
# Structural Database, then it will include bibliographic, chemical,
# crystal, experimental, refinement or atomic coordinate data resulting
# from the CCDC's data processing and validation procedures.
#
#######################################################################

data_CSD_CIF_JANKEP
_audit_creation_date 2005-03-21
_audit_creation_method CSD-ConQuest-V1
_database_code_CSD JANKEP
_database_code_depnum_ccdc_archive 'CCDC 247472'
_chemical_formula_sum 'C18 H22 N2 O8'
_chemical_formula_moiety
;
C18 H22 N2 O8
;
_journal_coden_Cambridge 24
_journal_volume 45
_journal_year 2004
_journal_page_first 8913
_journal_name_full 'Tetrahedron Lett. '
loop_
_publ_author_name
"K.W.J.Baker"
"K.S.Horner"
"S.A.Moggach"
"R.M.Paton"
"I.A.S.Smellie"
_chemical_name_systematic
;
N-Phenyl-C-(2,3,4-tri-O-acetyl-\b-D-xylopyranosyl)formamide oxime
;
_cell_volume    949.625
_exptl_crystal_colour 'colorless'
_exptl_crystal_density_diffrn 1.379
_exptl_crystal_description 'block'
_diffrn_ambient_temperature 150
#These two values have been output from a single CSD field.
_refine_ls_R_factor_gt 0.0399
_refine_ls_wR_factor_gt 0.0399
_symmetry_cell_setting monoclinic
_symmetry_space_group_name_H-M 'P 21'
_symmetry_Int_Tables_number 4
loop_
_symmetry_equiv_pos_site_id
_symmetry_equiv_pos_as_xyz
1 x,y,z
2 -x,1/2+y,-z
_cell_length_a 9.440(3)
_cell_length_b 8.007(2)
_cell_length_c 12.932(4)
_cell_angle_alpha 90
_cell_angle_beta 103.711(4)
_cell_angle_gamma 90
_cell_formula_units_Z 2
loop_
_atom_type_symbol
_atom_type_radius_bond
C 0.68
H 0.23
N 0.68
O 0.68
loop_
_atom_site_label
_atom_site_type_symbol
_atom_site_fract_x
_atom_site_fract_y
_atom_site_fract_z
C1 C 0.2186(2) 0.0125(3) -0.80877(18)
C2 C 0.3644(3) -0.0138(4) -0.75723(19)
C3 C 0.4340(2) -0.1599(4) -0.7744(2)
C4 C 0.3594(3) -0.2805(3) -0.8417(2)
C5 C 0.2132(2) -0.2555(3) -0.89119(17)
C6 C 0.1426(2) -0.1114(3) -0.87361(15)
C7 C -0.1256(2) -0.0585(3) -0.89020(15)
C8 C -0.1075(2) -0.0047(3) -0.77647(15)
C9 C -0.2315(2) 0.1069(3) -0.75943(15)
C10 C -0.2073(2) 0.1422(3) -0.64076(16)
C11 C -0.1852(2) -0.0188(3) -0.57643(15)
C12 C -0.0662(3) -0.1239(3) -0.60537(16)
C13 C -0.3417(2) 0.3416(3) -0.86164(17)
C14 C -0.3119(3) 0.5016(3) -0.9117(2)
C15 C -0.3235(3) 0.3932(3) -0.60418(17)
C16 C -0.4549(3) 0.4578(4) -0.5717(3)
C17 C -0.1455(2) -0.0800(3) -0.39129(16)
C18 C -0.0946(3) -0.0059(3) -0.28296(17)
N1 N -0.00520(19) -0.0918(3) -0.93046(13)
N2 N -0.25612(19) -0.0802(2) -0.94430(13)
O1 O -0.25433(16) -0.1483(2) -1.04547(11)
O2 O -0.10447(19) -0.1554(2) -0.71713(12)
O3 O -0.21796(15) 0.26063(19) -0.81451(11)
O4 O -0.45985(17) 0.2894(3) -0.85938(15)
O5 O -0.33246(16) 0.2250(2) -0.61761(12)
O6 O -0.2236(2) 0.4758(2) -0.61700(16)
O7 O -0.14131(16) 0.0347(2) -0.46687(11)
O8 O -0.1842(2) -0.2210(2) -0.41085(14)
H1 H -0.3517(12) -0.157(5) -1.070(2)
H2 H -0.030(3) -0.152(4) -0.9907(18)
H3 H 0.16940 0.11990 -0.79900
H4 H 0.41880 0.07300 -0.70780
H5 H 0.53880 -0.17770 -0.73780
H6 H 0.41000 -0.38530 -0.85490
H7 H 0.15870 -0.34310 -0.94000
H8 H -0.01250 0.05530 -0.75190
H9 H -0.32850 0.05350 -0.78830
H10 H -0.11940 0.21490 -0.61720
H11 H -0.27840 -0.08330 -0.58890
H12 H 0.02860 -0.06240 -0.58610
H13 H -0.05660 -0.23220 -0.56580
H14 H -0.40620 0.55740 -0.94560
H15 H -0.25640 0.47810 -0.96710
H16 H -0.25290 0.57670 -0.85590
H17 H -0.44670 0.58160 -0.56210
H18 H -0.54430 0.43060 -0.62810
H19 H -0.46160 0.40440 -0.50310
H20 H -0.09840 -0.09260 -0.22800
H21 H -0.15920 0.08980 -0.27500
H22 H 0.00790 0.03470 -0.27330
#END
