
#######################################################################
#
#                 Cambridge Crystallographic Data Centre
#                                CCDC
#
#######################################################################
#
# If this CIF has been generated from an entry in the Cambridge
# Structural Database, then it will include bibliographic, chemical,
# crystal, experimental, refinement or atomic coordinate data resulting
# from the CCDC's data processing and validation procedures.
#
#######################################################################

data_CSD_CIF_JAPNEU
_audit_creation_date 2005-10-07
_audit_creation_method CSD-ConQuest-V1
_database_code_CSD JAPNEU
_database_code_depnum_ccdc_archive 'CCDC 274529'
_chemical_formula_sum 'C13 H13 N1 O6'
_chemical_formula_moiety
;
C13 H13 N1 O6
;
_journal_coden_Cambridge 1336
_journal_volume 7
_journal_year 2005
_journal_page_first 2125
_journal_name_full 'Org.Lett. '
loop_
_publ_author_name
"Hanfeng Ding"
"Cheng Ma"
"Yewei Yang"
"Yanguang Wang"
_chemical_name_systematic
;
(E)-Dimethyl 2-(4-nitrobenzylidene)succinate
;
_cell_volume    663.159
_exptl_crystal_colour 'colorless'
_exptl_crystal_density_diffrn 1.398
_exptl_crystal_description 'block'
_diffrn_ambient_temperature 293
#These two values have been output from a single CSD field.
_refine_ls_R_factor_gt 0.054
_refine_ls_wR_factor_gt 0.054
_symmetry_cell_setting triclinic
_symmetry_space_group_name_H-M 'P -1'
_symmetry_Int_Tables_number 2
loop_
_symmetry_equiv_pos_site_id
_symmetry_equiv_pos_as_xyz
1 x,y,z
2 -x,-y,-z
_cell_length_a 8.136(1)
_cell_length_b 8.542(2)
_cell_length_c 10.627(3)
_cell_angle_alpha 84.959(6)
_cell_angle_beta 73.671(7)
_cell_angle_gamma 69.347(5)
_cell_formula_units_Z 2
loop_
_atom_type_symbol
_atom_type_radius_bond
C 0.68
H 0.23
N 0.68
O 0.68
loop_
_atom_site_label
_atom_site_type_symbol
_atom_site_fract_x
_atom_site_fract_y
_atom_site_fract_z
O1 O 1.2308(3) 0.4270(3) 0.2633(2)
O2 O 1.0988(3) 0.5080(3) 0.1083(2)
O3 O 0.7372(3) -0.0387(3) 0.8507(2)
O4 O 0.5624(2) 0.2212(2) 0.8196(2)
O5 O 0.1702(2) 0.2145(3) 0.6310(2)
O6 O 0.3059(2) 0.0438(2) 0.7717(2)
N1 N 1.1046(3) 0.4465(3) 0.2154(2)
C1 C 0.4922(3) 0.1458(3) 0.6025(2)
C2 C 0.5022(3) 0.2591(3) 0.5088(2)
C3 C 0.6614(3) 0.3040(3) 0.4353(2)
C4 C 0.6687(3) 0.3618(3) 0.3073(2)
C5 C 0.8133(3) 0.4079(3) 0.2340(2)
C6 C 0.9501(3) 0.3972(3) 0.2909(2)
C7 C 0.9451(3) 0.3464(3) 0.4181(2)
C8 C 0.8001(3) 0.3003(3) 0.4904(2)
C9 C 0.6472(3) 0.0243(3) 0.6511(2)
C10 C 0.6553(3) 0.0621(3) 0.7848(2)
C11 C 0.5567(5) 0.2682(4) 0.9485(3)
C12 C 0.3052(3) 0.1401(3) 0.6668(2)
C13 C 0.1288(4) 0.0431(4) 0.8504(3)
H1 H 0.67810 0.25090 0.95290
H2 H 0.38800 0.32080 0.48570
H3 H 0.06710 0.01450 0.79590
H4 H 0.56970 0.36960 0.26910
H5 H 0.81890 0.44720 0.14390
H6 H 1.04260 0.34300 0.45650
H7 H 0.79400 0.26470 0.58130
H8 H 0.63670 -0.08560 0.65390
H9 H 0.76060 0.02290 0.58860
H10 H 0.48360 0.38410 0.96560
H11 H 0.50370 0.20150 1.01330
H12 H 0.14360 -0.03760 0.91890
H13 H 0.05770 0.15230 0.88830
#END
