
#######################################################################
#
#                 Cambridge Crystallographic Data Centre
#                                CCDC
#
#######################################################################
#
# If this CIF has been generated from an entry in the Cambridge
# Structural Database, then it will include bibliographic, chemical,
# crystal, experimental, refinement or atomic coordinate data resulting
# from the CCDC's data processing and validation procedures.
#
#######################################################################

data_CSD_CIF_JAPPAR
_audit_creation_date 1990-02-14
_audit_creation_method CSD-ConQuest-V1
_database_code_CSD JAPPAR
_chemical_formula_sum 'C11 H14 N2 O4'
_chemical_formula_moiety
;
C11 H14 N2 O4
;
_journal_coeditor_code "IUCr CR0126"
_journal_coden_Cambridge 591
_journal_volume 45
_journal_year 1989
_journal_page_first 1655
_journal_name_full 'Acta Crystallogr.,Sect.C:Cryst.Struct.Commun. '
loop_
_publ_author_name
"M.Shoja"
"S.Saba"
"R.Kabbani"
_chemical_name_systematic
;
2-Ethyl-6-(p-nitrophenyl)dihydro-1,5,2-dioxazine
;
_cell_volume    580.307
_exptl_crystal_colour 'colorless'
_exptl_crystal_density_diffrn 1.37
_diffrn_ambient_temperature ?
_diffrn_special_details
;
The study was carried out at room temperature,in the range 283-303K

;
#These two values have been output from a single CSD field.
_refine_ls_R_factor_gt 0.047
_refine_ls_wR_factor_gt 0.047
_symmetry_cell_setting triclinic
_symmetry_space_group_name_H-M 'P -1'
_symmetry_Int_Tables_number 2
loop_
_symmetry_equiv_pos_site_id
_symmetry_equiv_pos_as_xyz
1 x,y,z
2 -x,-y,-z
_cell_length_a 5.383(1)
_cell_length_b 10.940(2)
_cell_length_c 12.074(2)
_cell_angle_alpha 103.09(2)
_cell_angle_beta 100.16(2)
_cell_angle_gamma 117.59(2)
_cell_formula_units_Z 2
loop_
_atom_type_symbol
_atom_type_radius_bond
C 0.68
H 0.23
N 0.68
O 0.68
loop_
_atom_site_label
_atom_site_type_symbol
_atom_site_fract_x
_atom_site_fract_y
_atom_site_fract_z
O1 O 0.0973(4) 0.1315(2) 0.3827(2)
O2 O -0.2476(6) -0.4743(2) -0.0813(2)
O3 O -0.5888(6) -0.4476(3) -0.1744(2)
O4 O -0.0313(4) 0.2230(2) 0.2411(2)
N1 N -0.3707(6) -0.4061(3) -0.0902(2)
N2 N 0.2534(5) 0.2770(2) 0.4800(2)
C1 C -0.0101(6) 0.0071(3) 0.1794(2)
C2 C -0.2616(6) -0.0489(3) 0.0846(3)
C3 C 0.0711(7) 0.3401(3) 0.4530(3)
C4 C -0.3831(7) -0.1847(3) -0.0039(3)
C5 C 0.0784(7) 0.3609(3) 0.3341(3)
C6 C -0.2464(6) -0.2627(3) 0.0065(2)
C7 C 0.0024(7) -0.2120(3) 0.1009(3)
C8 C 0.1273(6) 0.1560(3) 0.2747(2)
C9 C 0.1217(7) -0.0754(3) 0.1882(3)
C10 C 0.2383(7) 0.2400(3) 0.5891(3)
C11 C 0.4645(8) 0.2008(3) 0.6290(3)
H1 H -0.358(5) 0.011(2) 0.082(2)
H2 H -0.561(6) -0.222(3) -0.075(3)
H3 H 0.085(6) -0.276(3) 0.103(3)
H4 H 0.300(6) -0.035(3) 0.261(3)
H5 H 0.370(5) 0.228(2) 0.290(2)
H6 H 0.191(6) 0.449(3) 0.525(3)
H7 H -0.03900 0.40100 0.31400
H8 H 0.030(5) 0.162(2) 0.577(2)
H9 H 0.462(7) 0.191(4) 0.698(3)
H10 H -0.151(5) 0.276(2) 0.454(2)
H11 H 0.27900 0.42800 0.34100
H12 H 0.291(5) 0.339(2) 0.651(2)
H13 H 0.432(6) 0.110(3) 0.559(3)
H14 H 0.657(6) 0.274(3) 0.648(3)
#END
