
#######################################################################
#
#                 Cambridge Crystallographic Data Centre
#                                CCDC
#
#######################################################################
#
# If this CIF has been generated from an entry in the Cambridge
# Structural Database, then it will include bibliographic, chemical,
# crystal, experimental, refinement or atomic coordinate data resulting
# from the CCDC's data processing and validation procedures.
#
#######################################################################

data_CSD_CIF_JAPWON
_audit_creation_date 2005-10-07
_audit_creation_method CSD-ConQuest-V1
_database_code_CSD JAPWON
_database_code_depnum_ccdc_archive 'CCDC 250775'
_chemical_formula_sum 'C17 H17 N1 O8'
_chemical_formula_moiety
;
C17 H17 N1 O8
;
_journal_coden_Cambridge 35
_journal_volume 70
_journal_year 2005
_journal_page_first 4524
_journal_name_full 'J.Org.Chem. '
loop_
_publ_author_name
"H.S.P.Rao"
"S.Sivakumar"
_chemical_name_systematic
;
2,2,2-tris((2-Furyl)methoxy)-1-nitroethane
;
_chemical_melting_point 356.15
_cell_volume    863.435
_exptl_crystal_colour 'colorless'
_exptl_crystal_density_diffrn 1.397
_exptl_special_details
;
Melting point range 356.15-358.15K

;
_diffrn_ambient_temperature 293
#These two values have been output from a single CSD field.
_refine_ls_R_factor_gt 0.0495
_refine_ls_wR_factor_gt 0.0495
_symmetry_cell_setting triclinic
_symmetry_space_group_name_H-M 'P -1'
_symmetry_Int_Tables_number 2
loop_
_symmetry_equiv_pos_site_id
_symmetry_equiv_pos_as_xyz
1 x,y,z
2 -x,-y,-z
_cell_length_a 9.169(3)
_cell_length_b 9.702(3)
_cell_length_c 10.523(4)
_cell_angle_alpha 92.443(5)
_cell_angle_beta 93.616(5)
_cell_angle_gamma 112.089(5)
_cell_formula_units_Z 2
loop_
_atom_type_symbol
_atom_type_radius_bond
C 0.68
H 0.23
N 0.68
O 0.68
loop_
_atom_site_label
_atom_site_type_symbol
_atom_site_fract_x
_atom_site_fract_y
_atom_site_fract_z
O1 O 0.35079(18) 0.16308(17) 0.96163(14)
O2 O 0.12424(18) -0.04717(17) 0.90616(15)
O3 O 0.1924(2) 0.14668(17) 0.78531(15)
O4 O -0.0221(2) -0.37492(19) 0.87563(16)
O5 O 0.3866(3) 0.2193(3) 1.2442(2)
C1 C 0.2544(3) 0.0663(3) 0.8634(2)
C2 C 0.3701(3) 0.3097(3) 1.1539(2)
O6 O 0.5994(3) 0.1939(3) 0.7854(2)
O7 O 0.1378(3) 0.2339(3) 0.5256(2)
C3 C 0.0697(4) 0.0596(3) 0.6874(2)
H1 H 0.10670 -0.00490 0.63710
H2 H -0.02300 -0.00270 0.72700
N1 N 0.4778(3) 0.1143(3) 0.7261(2)
C4 C 0.2720(3) 0.2398(3) 1.0375(2)
H3 H 0.25320 0.31490 0.98860
H4 H 0.17080 0.16880 1.05830
C5 C 0.3584(3) 0.0004(3) 0.7942(2)
H5 H 0.41140 -0.04040 0.85580
H6 H 0.29230 -0.08030 0.73340
C6 C 0.1298(3) -0.2931(3) 0.9222(2)
C7 C 0.0285(3) 0.1580(3) 0.6050(2)
C8 C 0.1553(3) -0.1490(3) 0.9904(2)
H7 H 0.08640 -0.16560 1.05930
H8 H 0.26360 -0.10430 1.02770
O8 O 0.4466(3) 0.1202(4) 0.6151(2)
C9 C 0.1254(4) -0.5002(3) 0.8254(3)
H9 H 0.15730 -0.57380 0.79270
C10 C 0.2213(4) -0.3662(3) 0.8933(3)
H10 H 0.32950 -0.33420 0.91440
C11 C -0.0201(4) -0.5016(3) 0.8169(2)
H11 H -0.10820 -0.57830 0.77640
C12 C 0.4455(4) 0.4527(4) 1.1972(3)
H12 H 0.45100 0.53560 1.15350
C13 C 0.5148(5) 0.4547(6) 1.3207(4)
H13 H 0.57570 0.53830 1.37390
C14 C -0.1013(5) 0.1891(4) 0.5836(3)
H14 H -0.19460 0.15330 0.62370
C15 C 0.0781(8) 0.3122(5) 0.4551(5)
H15 H 0.13140 0.37370 0.39380
C16 C -0.0609(7) 0.2936(4) 0.4810(4)
H16 H -0.12540 0.33740 0.44280
C17 C 0.4761(5) 0.3142(7) 1.3458(3)
H17 H 0.50530 0.28300 1.42220
#END
