
#######################################################################
#
#                 Cambridge Crystallographic Data Centre
#                                CCDC
#
#######################################################################
#
# If this CIF has been generated from an entry in the Cambridge
# Structural Database, then it will include bibliographic, chemical,
# crystal, experimental, refinement or atomic coordinate data resulting
# from the CCDC's data processing and validation procedures.
#
#######################################################################

data_CSD_CIF_JAPXIK
_audit_creation_date 2017-01-31
_audit_creation_method CSD-ConQuest-V1
_database_code_CSD JAPXIK
_database_code_depnum_ccdc_archive 'CCDC 1406835'
_chemical_formula_sum 'C17 H15 N3 O2'
_chemical_formula_moiety
;
C17 H15 N3 O2
;
_journal_coden_Cambridge 983
_journal_volume 120
_journal_year 2016
_journal_page_first 14813
_journal_name_full 'J.Phys.Chem.C '
loop_
_publ_author_name
"A.Szukalski"
"A.Miniewicz"
"K.Haupa"
"B.Przybyl"
"J.Janczak"
"A.L.Sobolewski"
"J.Mysliwiec"
_chemical_name_systematic
;
3-(2-(4-nitrophenyl)vinyl)-1-phenyl-4,5-dihydro-1H-pyrazole
;
_cell_volume   1490.059
_exptl_crystal_colour 'red'
_exptl_crystal_density_diffrn 1.308
_exptl_crystal_description 'parallelepiped'
_diffrn_ambient_temperature 295
#These two values have been output from a single CSD field.
_refine_ls_R_factor_gt 0.0548
_refine_ls_wR_factor_gt 0.0548
loop_
_citation_database_id_CSD
_citation_special_details
JAPXOQ "is a stereoisomer of this entry"
_symmetry_cell_setting monoclinic
_symmetry_space_group_name_H-M 'P 21/c'
_symmetry_Int_Tables_number 14
loop_
_symmetry_equiv_pos_site_id
_symmetry_equiv_pos_as_xyz
1 x,y,z
2 -x,1/2+y,1/2-z
3 -x,-y,-z
4 x,-1/2-y,-1/2+z
_cell_length_a 14.1516(10)
_cell_length_b 5.9117(4)
_cell_length_c 18.1609(14)
_cell_angle_alpha 90
_cell_angle_beta 101.267(7)
_cell_angle_gamma 90
_cell_formula_units_Z 4
loop_
_atom_type_symbol
_atom_type_radius_bond
C 0.68
H 0.23
N 0.68
O 0.68
loop_
_atom_site_label
_atom_site_type_symbol
_atom_site_fract_x
_atom_site_fract_y
_atom_site_fract_z
C1 C 0.59453(11) 0.5905(2) 0.34099(9)
C2 C 0.62427(12) 0.4175(3) 0.30002(10)
H1 H 0.58880 0.28430 0.29220
C3 C 0.70542(14) 0.4411(3) 0.27096(11)
H2 H 0.72490 0.32320 0.24340
C4 C 0.75925(13) 0.6370(3) 0.28174(11)
H3 H 0.81470 0.65150 0.26190
C5 C 0.73015(12) 0.8081(3) 0.32163(10)
H4 H 0.76630 0.94030 0.32960
C6 C 0.64775(11) 0.7879(3) 0.35035(9)
H5 H 0.62760 0.90840 0.37640
N1 N 0.51165(10) 0.5660(2) 0.37051(9)
N2 N 0.48148(9) 0.7366(2) 0.41075(7)
C7 C 0.40024(11) 0.6825(2) 0.42707(9)
C8 C 0.36622(12) 0.4516(3) 0.39781(10)
H6 H 0.30630 0.46110 0.36140
H7 H 0.35760 0.35140 0.43830
C9 C 0.44819(11) 0.3740(2) 0.36167(10)
H8 H 0.47990 0.24220 0.38710
H9 H 0.42560 0.33840 0.30900
C10 C 0.35546(12) 0.8366(3) 0.47148(9)
H10 H 0.39290 0.95890 0.49200
C11 C 0.26795(13) 0.8261(3) 0.48677(10)
H11 H 0.25320 0.93470 0.51980
C12 C 0.19138(11) 0.6635(3) 0.45784(10)
C13 C 0.16384(14) 0.4990(4) 0.50317(11)
H12 H 0.19490 0.49040 0.55320
C14 C 0.09249(15) 0.3490(4) 0.47662(12)
H13 H 0.07500 0.23890 0.50800
C15 C 0.04687(12) 0.3622(3) 0.40316(10)
C16 C 0.06908(14) 0.5216(4) 0.35728(11)
H14 H 0.03640 0.53020 0.30770
C17 C 0.14179(14) 0.6738(4) 0.38513(10)
H15 H 0.15730 0.78590 0.35360
N3 N -0.02864(12) 0.1991(3) 0.37381(13)
O1 O -0.06466(12) 0.2020(3) 0.30875(11)
O2 O -0.05851(15) 0.0746(4) 0.41806(14)
#END
