
#######################################################################
#
#                 Cambridge Crystallographic Data Centre
#                                CCDC
#
#######################################################################
#
# If this CIF has been generated from an entry in the Cambridge
# Structural Database, then it will include bibliographic, chemical,
# crystal, experimental, refinement or atomic coordinate data resulting
# from the CCDC's data processing and validation procedures.
#
#######################################################################

data_CSD_CIF_JAPXOQ
_audit_creation_date 2017-01-31
_audit_creation_method CSD-ConQuest-V1
_database_code_CSD JAPXOQ
_database_code_depnum_ccdc_archive 'CCDC 1406836'
_chemical_formula_sum 'C17 H15 N3 O2'
_chemical_formula_moiety
;
C17 H15 N3 O2
;
_journal_coden_Cambridge 983
_journal_volume 120
_journal_year 2016
_journal_page_first 14813
_journal_name_full 'J.Phys.Chem.C '
loop_
_publ_author_name
"A.Szukalski"
"A.Miniewicz"
"K.Haupa"
"B.Przybyl"
"J.Janczak"
"A.L.Sobolewski"
"J.Mysliwiec"
_chemical_name_systematic
;
3-(2-(4-nitrophenyl)vinyl)-1-phenyl-4,5-dihydro-1H-pyrazole
;
_cell_volume   1425.059
_exptl_crystal_colour 'red'
_exptl_crystal_density_diffrn 1.367
_exptl_crystal_description 'parallelepiped'
_diffrn_ambient_temperature 295
#These two values have been output from a single CSD field.
_refine_ls_R_factor_gt 0.0781
_refine_ls_wR_factor_gt 0.0781
loop_
_citation_database_id_CSD
_citation_special_details
JAPXIK "is a stereoisomer of this entry"
_symmetry_cell_setting monoclinic
_symmetry_space_group_name_H-M 'P 21/c'
_symmetry_Int_Tables_number 14
loop_
_symmetry_equiv_pos_site_id
_symmetry_equiv_pos_as_xyz
1 x,y,z
2 -x,1/2+y,1/2-z
3 -x,-y,-z
4 x,-1/2-y,-1/2+z
_cell_length_a 6.4715(6)
_cell_length_b 16.5381(16)
_cell_length_c 13.3805(18)
_cell_angle_alpha 90
_cell_angle_beta 95.670(11)
_cell_angle_gamma 90
_cell_formula_units_Z 4
loop_
_atom_type_symbol
_atom_type_radius_bond
C 0.68
H 0.23
N 0.68
O 0.68
loop_
_atom_site_label
_atom_site_type_symbol
_atom_site_fract_x
_atom_site_fract_y
_atom_site_fract_z
C1 C 0.8377(4) -0.06819(14) 0.87508(18)
C2 C 0.6423(4) -0.09989(15) 0.88553(19)
H1 H 0.53250 -0.06550 0.89540
C3 C 0.6108(4) -0.18217(16) 0.8814(2)
H2 H 0.47920 -0.20280 0.88780
C4 C 0.7712(4) -0.23414(16) 0.8680(2)
H3 H 0.74840 -0.28970 0.86500
C5 C 0.9656(5) -0.20330(15) 0.8590(2)
H4 H 1.07520 -0.23820 0.85070
C6 C 0.9997(4) -0.12077(14) 0.86218(19)
H5 H 1.13180 -0.10050 0.85570
N1 N 0.8732(3) 0.01471(12) 0.87866(17)
N2 N 0.7131(3) 0.06789(12) 0.88536(16)
C7 C 0.7845(4) 0.14080(15) 0.87959(18)
C8 C 1.0130(4) 0.14343(15) 0.8693(2)
H6 H 1.08880 0.16840 0.92740
H7 H 1.04200 0.17250 0.80930
C9 C 1.0662(4) 0.05435(15) 0.8620(2)
H8 H 1.10820 0.04120 0.79640
H9 H 1.17640 0.03920 0.91300
C10 C 0.6516(4) 0.20971(14) 0.88421(19)
H10 H 0.51310 0.20030 0.89350
C11 C 0.7121(4) 0.28627(14) 0.87612(19)
H11 H 0.85160 0.29430 0.86800
C12 C 0.5856(4) 0.35872(15) 0.87854(17)
C13 C 0.6663(4) 0.43244(15) 0.85142(19)
H12 H 0.80110 0.43420 0.83300
C14 C 0.5535(4) 0.50297(15) 0.85083(19)
H13 H 0.61030 0.55160 0.83170
C15 C 0.3561(3) 0.50014(14) 0.87904(17)
C16 C 0.2707(4) 0.42844(16) 0.9085(2)
H14 H 0.13720 0.42760 0.92860
C17 C 0.3850(4) 0.35831(15) 0.9079(2)
H15 H 0.32740 0.30990 0.92730
N3 N 0.2356(4) 0.57465(13) 0.87933(16)
O1 O 0.3203(3) 0.63829(12) 0.86037(16)
O2 O 0.0546(3) 0.57095(12) 0.89764(17)
#END
