
#######################################################################
#
#                 Cambridge Crystallographic Data Centre
#                                CCDC
#
#######################################################################
#
# If this CIF has been generated from an entry in the Cambridge
# Structural Database, then it will include bibliographic, chemical,
# crystal, experimental, refinement or atomic coordinate data resulting
# from the CCDC's data processing and validation procedures.
#
#######################################################################

data_CSD_CIF_JAQTOK
_audit_creation_date 1999-06-30
_audit_creation_method CSD-ConQuest-V1
_database_code_CSD JAQTOK
_chemical_formula_sum 'C17 H9 N3 O3'
_chemical_formula_moiety
;
C17 H9 N3 O3
;
_journal_coden_Cambridge 151
_journal_volume 41
_journal_year 1998
_journal_page_first 3812
_journal_name_full 'J.Med.Chem. '
loop_
_publ_author_name
"C.Altomare"
"S.Cellamare"
"L.Summo"
"M.Catto"
"A.Carotti"
_chemical_name_systematic
;
3-(2'-Nitrophenyl)-5H-indeno[1,2-c]pyridazin-5-one
;
_cell_volume    693.028
_exptl_crystal_colour 'orange'
_exptl_crystal_density_diffrn 1.453
_exptl_crystal_description 'thin plates'
_exptl_crystal_preparation 'ethanol'
_diffrn_ambient_temperature ?
_diffrn_special_details
;
The study was carried out at room temperature,in the range 283-303K

;
#These two values have been output from a single CSD field.
_refine_ls_R_factor_gt 0.0883
_refine_ls_wR_factor_gt 0.0883
_symmetry_cell_setting triclinic
_symmetry_space_group_name_H-M 'P -1'
_symmetry_Int_Tables_number 2
loop_
_symmetry_equiv_pos_site_id
_symmetry_equiv_pos_as_xyz
1 x,y,z
2 -x,-y,-z
_cell_length_a 7.888(3)
_cell_length_b 8.973(3)
_cell_length_c 11.565(4)
_cell_angle_alpha 105.08(2)
_cell_angle_beta 99.57(2)
_cell_angle_gamma 113.10(2)
_cell_formula_units_Z 2
loop_
_atom_type_symbol
_atom_type_radius_bond
C 0.68
H 0.23
N 0.68
O 0.68
loop_
_atom_site_label
_atom_site_type_symbol
_atom_site_fract_x
_atom_site_fract_y
_atom_site_fract_z
O1 O 0.3719(9) 0.0496(8) 1.1552(5)
N1 N 0.1752(9) 0.3678(8) 0.9403(6)
N2 N 0.2814(9) 0.3697(8) 0.8585(5)
C1 C 0.3883(10) 0.2839(10) 0.8544(6)
C2 C 0.4092(10) 0.2000(9) 0.9376(7)
C3 C 0.3078(10) 0.2042(9) 1.0224(6)
C4 C 0.2863(10) 0.1248(10) 1.1222(7)
C5 C 0.1392(10) 0.1644(9) 1.1723(7)
C6 C 0.0674(11) 0.1203(10) 1.2665(7)
C7 C -0.0736(12) 0.1669(11) 1.2935(7)
C8 C -0.1347(12) 0.2573(11) 1.2306(8)
C9 C -0.0581(11) 0.3031(10) 1.1394(7)
C10 C 0.0821(10) 0.2583(9) 1.1097(6)
C11 C 0.1895(10) 0.2829(9) 1.0196(6)
C12 C 0.4894(10) 0.2916(9) 0.7586(7)
C13 C 0.4244(11) 0.309(1) 0.6433(7)
C14 C 0.5262(12) 0.3236(11) 0.5619(8)
C15 C 0.6961(13) 0.3104(11) 0.5826(8)
C16 C 0.7630(12) 0.2880(11) 0.6892(9)
C17 C 0.6625(11) 0.2774(9) 0.7776(7)
N3 N 0.2348(11) 0.3089(11) 0.6091(6)
O2 O 0.0918(9) 0.1797(9) 0.5957(5)
O3 O 0.2340(9) 0.4350(9) 0.5922(6)
H1 H 0.4872(10) 0.1446(9) 0.9355(7)
H2 H 0.1117(11) 0.0622(10) 1.3097(7)
H3 H -0.1279(12) 0.1370(11) 1.3546(7)
H4 H -0.2292(12) 0.2875(11) 1.2505(8)
H5 H -0.1005(11) 0.3639(10) 1.0980(7)
H6 H 0.4818(12) 0.3430(11) 0.4903(8)
H7 H 0.7640(13) 0.3168(11) 0.5240(8)
H8 H 0.8778(12) 0.2796(11) 0.7037(9)
H9 H 0.7103(11) 0.2607(9) 0.8497(7)
#END
