
#######################################################################
#
#                 Cambridge Crystallographic Data Centre
#                                CCDC
#
#######################################################################
#
# If this CIF has been generated from an entry in the Cambridge
# Structural Database, then it will include bibliographic, chemical,
# crystal, experimental, refinement or atomic coordinate data resulting
# from the CCDC's data processing and validation procedures.
#
#######################################################################

data_CSD_CIF_JARDUE
_audit_creation_date 2017-01-31
_audit_creation_method CSD-ConQuest-V1
_database_code_CSD JARDUE
_database_code_depnum_ccdc_archive 'CCDC 688539'
_chemical_formula_sum 'C20 H15 N1 O2'
_chemical_formula_moiety
;
C20 H15 N1 O2
;
_journal_coden_Cambridge 860
_journal_volume 4
_journal_year 2003
_journal_page_first 21
_journal_name_full 'Khim.Komp.Model.Butlerov.Soobshchen.(Russ.)(Chem.Computat.Simul.Butlerov Commun.) '
loop_
_publ_author_name
"V.V.Sharutin"
"O.V.Molokova"
"O.K.Sharutina"
"M.A.Pushilin"
"A.V.Gerasimenko"
_chemical_name_systematic
;
(((diphenylmethylene)amino)oxy)(phenyl)methanone
;
_chemical_name_common
;
benzophenone O-benzoyl oxime
;
_chemical_melting_point 372
_cell_volume   1582.557
_exptl_crystal_colour 'colorless'
_exptl_crystal_density_diffrn 1.265
_exptl_crystal_description 'prism'
_diffrn_ambient_temperature 293
#These two values have been output from a single CSD field.
_refine_ls_R_factor_gt 0.0436
_refine_ls_wR_factor_gt 0.0436
_symmetry_cell_setting monoclinic
_symmetry_space_group_name_H-M 'P 21/c'
_symmetry_Int_Tables_number 14
loop_
_symmetry_equiv_pos_site_id
_symmetry_equiv_pos_as_xyz
1 x,y,z
2 -x,1/2+y,1/2-z
3 -x,-y,-z
4 x,-1/2-y,-1/2+z
_cell_length_a 15.831(4)
_cell_length_b 5.9330(16)
_cell_length_c 16.879(5)
_cell_angle_alpha 90
_cell_angle_beta 93.411(6)
_cell_angle_gamma 90
_cell_formula_units_Z 4
loop_
_atom_type_symbol
_atom_type_radius_bond
C 0.68
H 0.23
N 0.68
O 0.68
loop_
_atom_site_label
_atom_site_type_symbol
_atom_site_fract_x
_atom_site_fract_y
_atom_site_fract_z
O1 O 0.74905(6) 0.07279(15) -0.01866(6)
O2 O 0.74735(7) 0.36087(19) -0.10522(7)
N1 N 0.66598(7) 0.14249(19) 0.00256(7)
C1 C 0.64808(8) 0.0396(2) 0.06631(8)
C2 C 0.78129(9) 0.1989(2) -0.07578(9)
C3 C 0.70384(8) -0.1252(2) 0.11043(8)
C4 C 0.72880(8) -0.3234(2) 0.07538(9)
H1 H 0.71200 -0.35380 0.02270
C5 C 0.77854(9) -0.4754(3) 0.11858(10)
H2 H 0.79470 -0.60930 0.09510
C6 C 0.80449(9) -0.4308(3) 0.19617(10)
H3 H 0.83810 -0.53410 0.22500
C7 C 0.78082(9) -0.2342(3) 0.23087(9)
H4 H 0.79900 -0.20310 0.28310
C8 C 0.73023(8) -0.0825(2) 0.18874(8)
H5 H 0.71360 0.04970 0.21300
C9 C 0.56554(8) 0.0983(2) 0.09776(8)
C10 C 0.52537(9) -0.0521(3) 0.14503(9)
H6 H 0.55090 -0.18940 0.15820
C11 C 0.44732(10) -0.0003(3) 0.17304(10)
H7 H 0.42060 -0.10210 0.20520
C12 C 0.40953(10) 0.2010(3) 0.15331(10)
H8 H 0.35660 0.23440 0.17140
C13 C 0.44895(10) 0.3534(3) 0.1073(1)
H9 H 0.42340 0.49100 0.09470
C14 C 0.52628(9) 0.3021(3) 0.07994(9)
H10 H 0.55300 0.40620 0.04870
C15 C 0.86551(8) 0.1126(2) -0.09521(8)
C16 C 0.91505(9) 0.2458(3) -0.14065(9)
H11 H 0.89480 0.38510 -0.15850
C17 C 0.99369(10) 0.1757(3) -0.15991(11)
H12 H 1.02620 0.26640 -0.19110
C18 C 1.02421(10) -0.0276(3) -0.13318(11)
H13 H 1.07810 -0.07340 -0.14530
C19 C 0.97599(10) -0.1641(3) -0.08881(11)
H14 H 0.99660 -0.30400 -0.07200
C20 C 0.89653(9) -0.0944(3) -0.06878(10)
H15 H 0.86410 -0.18610 -0.03780
#END
