
#######################################################################
#
#                 Cambridge Crystallographic Data Centre
#                                CCDC
#
#######################################################################
#
# If this CIF has been generated from an entry in the Cambridge
# Structural Database, then it will include bibliographic, chemical,
# crystal, experimental, refinement or atomic coordinate data resulting
# from the CCDC's data processing and validation procedures.
#
#######################################################################

data_CSD_CIF_JARLOD
_audit_creation_date 1990-02-23
_audit_creation_method CSD-ConQuest-V1
_database_code_CSD JARLOD
_chemical_formula_sum 'C18 H30 N6 O6'
_chemical_formula_moiety
;
C18 H30 N6 O6
;
_journal_coden_Cambridge 4
_journal_volume 111
_journal_year 1989
_journal_page_first 5940
_journal_name_full 'J.Am.Chem.Soc. '
loop_
_publ_author_name
"J.M.Chance"
"B.Kahr"
"A.B.Buda"
"J.S.Siegel"
_chemical_name_systematic
;
1,3,5-tris(Diethylamino)-2,4,6-trinitrobenzene
;
_chemical_melting_point 372.15
_cell_volume   2192.912
_exptl_crystal_colour 'bright yellow'
_exptl_crystal_density_diffrn 1.29
_exptl_special_details
;
Melting point range 372.15-373.15K

;
_diffrn_ambient_temperature ?
_diffrn_special_details
;
The study was carried out at room temperature,in the range 283-303K

;
#These two values have been output from a single CSD field.
_refine_ls_R_factor_gt 0.046
_refine_ls_wR_factor_gt 0.046
_symmetry_cell_setting monoclinic
_symmetry_space_group_name_H-M 'P 21/c'
_symmetry_Int_Tables_number 14
loop_
_symmetry_equiv_pos_site_id
_symmetry_equiv_pos_as_xyz
1 x,y,z
2 -x,1/2+y,1/2-z
3 -x,-y,-z
4 x,-1/2-y,-1/2+z
_cell_length_a 10.005(2)
_cell_length_b 21.452(5)
_cell_length_c 10.544(2)
_cell_angle_alpha 90
_cell_angle_beta 104.3(2)
_cell_angle_gamma 90
_cell_formula_units_Z 4
loop_
_atom_type_symbol
_atom_type_radius_bond
C 0.68
H 0.23
N 0.68
O 0.68
loop_
_atom_site_label
_atom_site_type_symbol
_atom_site_fract_x
_atom_site_fract_y
_atom_site_fract_z
C1 C 0.5959(2) 1.1083(1) 0.2361(2)
C2 C 0.5713(2) 1.0427(1) 0.2115(2)
C3 C 0.4468(2) 1.0144(1) 0.2299(2)
C4 C 0.3303(2) 1.0541(1) 0.2085(2)
C5 C 0.3452(2) 1.1147(1) 0.1488(2)
C6 C 0.4767(2) 1.1461(1) 0.2124(2)
C7 C 0.7589(3) 1.1949(1) 0.2450(3)
C8 C 0.8781(3) 1.1979(2) 0.1816(3)
C9 C 0.8384(3) 1.0916(1) 0.3497(3)
C10 C 0.9048(4) 1.1184(2) 0.4812(3)
C11 C 0.5665(3) 0.9213(1) 0.3330(3)
C12 C 0.5426(4) 0.8897(2) 0.4537(3)
C13 C 0.3158(3) 0.9171(1) 0.2183(3)
C14 C 0.3398(4) 0.8592(1) 0.1455(3)
C15 C 0.1270(3) 1.1014(1) -0.0098(3)
C16 C 0.0820(3) 1.1035(2) -0.1574(3)
C17 C 0.2731(3) 1.1967(1) -0.0128(3)
C18 C 0.1621(4) 1.2439(2) -0.0063(4)
N1 N 0.7246(2) 1.1306(1) 0.2752(2)
N2 N 0.6463(2) 1.0111(1) 0.1336(2)
N3 N 0.4424(2) 0.9543(1) 0.2610(2)
N4 N 0.2312(2) 1.0514(1) 0.2821(2)
N5 N 0.2541(2) 1.1367(1) 0.0493(2)
N6 N 0.4643(2) 1.1983(1) 0.2889(2)
O1 O 0.7435(2) 1.0377(1) 0.1022(2)
O2 O 0.6093(2) 0.9580(1) 0.0915(2)
O3 O 0.2321(2) 1.0087(1) 0.3614(2)
O4 O 0.1473(2) 1.0953(1) 0.2699(2)
O5 O 0.3507(2) 1.2250(1) 0.2675(2)
O6 O 0.5632(2) 1.2152(1) 0.3790(2)
H1 H 0.67950 1.21320 0.18660
H2 H 0.78230 1.21840 0.32490
H3 H 0.89540 1.24050 0.16310
H4 H 0.85600 1.17450 0.10150
H5 H 0.95870 1.18050 0.23980
H6 H 0.80260 1.05110 0.36170
H7 H 0.90690 1.08780 0.30050
H8 H 0.97800 1.09140 0.52580
H9 H 0.83740 1.12210 0.53160
H10 H 0.94160 1.15880 0.47050
H11 H 0.59090 0.89040 0.27680
H12 H 0.64060 0.95070 0.35890
H13 H 0.62550 0.86880 0.49910
H14 H 0.46930 0.85990 0.42840
H15 H 0.51800 0.92040 0.51020
H16 H 0.28460 0.90500 0.29380
H17 H 0.24640 0.94210 0.15160
H18 H 0.25530 0.83610 0.11890
H19 H 0.40870 0.83380 0.20180
H20 H 0.37080 0.87090 0.06960
H21 H 0.14230 1.05860 0.01630
H22 H 0.05370 1.11820 0.02380
H23 H -0.00100 1.07960 -0.18700
H24 H 0.15330 1.08630 -0.19330
H25 H 0.06500 1.14590 -0.18570
H26 H 0.36120 1.21370 0.03110
H27 H 0.27110 1.18930 -0.10300
H28 H 0.18000 1.28220 -0.04620
H29 H 0.16240 1.25150 0.08350
H30 H 0.07370 1.22800 -0.05200
#END
