
#######################################################################
#
#                 Cambridge Crystallographic Data Centre
#                                CCDC
#
#######################################################################
#
# If this CIF has been generated from an entry in the Cambridge
# Structural Database, then it will include bibliographic, chemical,
# crystal, experimental, refinement or atomic coordinate data resulting
# from the CCDC's data processing and validation procedures.
#
#######################################################################

data_CSD_CIF_JASLEV
_audit_creation_date 2005-10-07
_audit_creation_method CSD-ConQuest-V1
_database_code_CSD JASLEV
_database_code_depnum_ccdc_archive 'CCDC 264137'
_chemical_formula_sum 'C4 H6 N4 O5'
_chemical_formula_moiety
;
C4 H6 N4 O5
;
_journal_coden_Cambridge 16
_journal_volume 61
_journal_year 2005
_journal_page_first 6743
_journal_name_full 'Tetrahedron '
loop_
_publ_author_name
"G.Herve"
"G.Jacob"
"N.Latypov"
_chemical_name_systematic
;
1-Amino-1-(N-acetylamino)-2,2-dinitroethene
;
_chemical_melting_point 405.15
_cell_volume    760.667
_exptl_crystal_colour 'yellow'
_exptl_crystal_density_diffrn 1.66
_exptl_special_details
;
Melting point range 405.15-406.15K

;
_exptl_crystal_description 'platelet'
_exptl_crystal_preparation 'acetone/hexane'
_diffrn_ambient_temperature 293
#These two values have been output from a single CSD field.
_refine_ls_R_factor_gt 0.0549
_refine_ls_wR_factor_gt 0.0549
_symmetry_cell_setting monoclinic
_symmetry_space_group_name_H-M 'P 21/c'
_symmetry_Int_Tables_number 14
loop_
_symmetry_equiv_pos_site_id
_symmetry_equiv_pos_as_xyz
1 x,y,z
2 -x,1/2+y,1/2-z
3 -x,-y,-z
4 x,-1/2-y,-1/2+z
_cell_length_a 9.7808(6)
_cell_length_b 4.6112(2)
_cell_length_c 18.9990(9)
_cell_angle_alpha 90
_cell_angle_beta 117.412(2)
_cell_angle_gamma 90
_cell_formula_units_Z 4
loop_
_atom_type_symbol
_atom_type_radius_bond
C 0.68
H 0.23
N 0.68
O 0.68
loop_
_atom_site_label
_atom_site_type_symbol
_atom_site_fract_x
_atom_site_fract_y
_atom_site_fract_z
O1 O -0.4652(3) -0.4214(5) -0.85637(12)
O2 O -0.3983(2) -0.1952(4) -0.74585(12)
O3 O -0.2140(3) -0.5695(5) -0.85868(12)
O4 O -0.1131(3) -0.9193(5) -0.77589(13)
O5 O -0.1147(3) -0.7721(5) -0.50533(13)
N1 N -0.3760(3) -0.3859(5) -0.78551(14)
N2 N -0.1911(3) -0.6948(5) -0.79738(14)
N3 N -0.0746(3) -0.8361(5) -0.63240(15)
H1 H -0.04020 -0.87740 -0.58300
H2 H -0.03530 -0.91770 -0.65960
N4 N -0.2459(3) -0.5248(5) -0.62092(13)
H3 H -0.31120 -0.38710 -0.64290
C1 C -0.2490(3) -0.5738(5) -0.74769(15)
C2 C -0.1862(3) -0.6493(6) -0.66594(15)
C3 C -0.2131(3) -0.5956(6) -0.54341(17)
C4 C -0.3071(4) -0.4407(7) -0.51279(19)
H4 H -0.28180 -0.51140 -0.46070
H5 H -0.41440 -0.47370 -0.54740
H6 H -0.28580 -0.23660 -0.51020
#END
