
#######################################################################
#
#                 Cambridge Crystallographic Data Centre
#                                CCDC
#
#######################################################################
#
# If this CIF has been generated from an entry in the Cambridge
# Structural Database, then it will include bibliographic, chemical,
# crystal, experimental, refinement or atomic coordinate data resulting
# from the CCDC's data processing and validation procedures.
#
#######################################################################

data_CSD_CIF_JATKIY
_audit_creation_date 1990-04-21
_audit_creation_method CSD-ConQuest-V1
_database_code_CSD JATKIY
_chemical_formula_sum 'C14 H18 N4 O6'
_chemical_formula_moiety
;
C14 H18 N4 O6
;
_journal_coeditor_code "IUCr BX0325"
_journal_coden_Cambridge 622
_journal_volume 45
_journal_year 1989
_journal_page_first 512
_journal_name_full 'Acta Crystallogr.,Sect.B:Struct.Sci. '
loop_
_publ_author_name
"Z.Ciunik"
"H.Paulsen"
"P.Luger"
"Z.Smiatacz"
"H.Myszka"
_chemical_name_systematic
;
1-(3-Acetamido-2-acetoxyimino-4-O-acetyl-2,3-dideoxy-\a-D-threo-pentopyranosyl
)pyrazole
;
_cell_volume   1686.904
_exptl_crystal_density_diffrn 1.324
_diffrn_ambient_temperature ?
_diffrn_special_details
;
The study was carried out at room temperature,in the range 283-303K

;
#These two values have been output from a single CSD field.
_refine_ls_R_factor_gt 0.041
_refine_ls_wR_factor_gt 0.041
_symmetry_cell_setting orthorhombic
_symmetry_space_group_name_H-M 'P 21 21 21'
_symmetry_Int_Tables_number 19
loop_
_symmetry_equiv_pos_site_id
_symmetry_equiv_pos_as_xyz
1 x,y,z
2 1/2+x,1/2-y,-z
3 -x,1/2+y,1/2-z
4 1/2-x,-y,1/2+z
_cell_length_a 9.257(2)
_cell_length_b 9.306(2)
_cell_length_c 19.582(5)
_cell_angle_alpha 90
_cell_angle_beta 90
_cell_angle_gamma 90
_cell_formula_units_Z 4
loop_
_atom_type_symbol
_atom_type_radius_bond
C 0.68
H 0.23
N 0.68
O 0.68
loop_
_atom_site_label
_atom_site_type_symbol
_atom_site_fract_x
_atom_site_fract_y
_atom_site_fract_z
O1 O 0.1638(3) 0.1061(2) 0.4882(1)
O2 O 0.1906(3) 0.6358(2) 0.3234(1)
O3 O -0.0209(3) 0.4755(3) 0.4605(1)
O4 O 0.2231(4) -0.1024(3) 0.4370(1)
O5 O 0.4932(3) 0.3543(3) 0.3216(1)
O6 O -0.0144(3) 0.7112(3) 0.2761(1)
N1 N 0.1579(4) 0.4141(3) 0.5422(1)
N2 N 0.2099(4) 0.1767(3) 0.4272(1)
N3 N 0.2551(4) 0.3257(3) 0.3108(1)
N4 N 0.2989(4) 0.4397(4) 0.5356(2)
C1 C 0.0699(4) 0.3660(4) 0.4850(2)
C2 C 0.1654(4) 0.3065(3) 0.4295(2)
C3 C 0.2198(4) 0.4049(3) 0.3730(1)
C4 C 0.1106(4) 0.5253(4) 0.3593(2)
C5 C 0.0564(4) 0.5865(4) 0.4255(2)
C6 C 0.3397(6) 0.4800(6) 0.5980(2)
C7 C 0.2249(7) 0.4808(5) 0.6419(2)
C8 C 0.1099(6) 0.4402(6) 0.6057(2)
C9 C 0.1819(5) -0.0402(4) 0.4854(2)
C10 C 0.1369(6) -0.1011(4) 0.5534(2)
C11 C 0.3904(4) 0.3019(4) 0.2923(2)
C12 C 0.4054(5) 0.2049(5) 0.2310(2)
C13 C 0.1119(5) 0.7286(4) 0.2864(2)
C14 C 0.2014(5) 0.8511(5) 0.2618(2)
H1 H 0.00400 0.29100 0.50100
H2 H 0.30900 0.45000 0.38800
H3 H 0.02900 0.48800 0.33400
H4 H 0.44200 0.50200 0.61000
H5 H 0.23200 0.50900 0.68900
H6 H 0.00800 0.43500 0.62200
H7 H 0.16100 -0.02300 0.58500
H8 H 0.17400 -0.18300 0.56500
H9 H 0.04500 -0.13900 0.54600
H10 H 0.32100 0.18300 0.20300
H11 H 0.45800 0.25000 0.19900
H12 H 0.46200 0.12400 0.24700
H13 H 0.183(4) 0.290(3) 0.290(2)
H14 H 0.28500 0.82400 0.23700
H15 H 0.14400 0.93200 0.24900
H16 H 0.26100 0.88500 0.30100
H17 H 0.08000 0.66700 0.41800
H18 H 0.13400 0.61900 0.45400
#END
