
#######################################################################
#
#                 Cambridge Crystallographic Data Centre
#                                CCDC
#
#######################################################################
#
# If this CIF has been generated from an entry in the Cambridge
# Structural Database, then it will include bibliographic, chemical,
# crystal, experimental, refinement or atomic coordinate data resulting
# from the CCDC's data processing and validation procedures.
#
#######################################################################

data_CSD_CIF_JATYEL
_audit_creation_date 2017-06-13
_audit_creation_method CSD-ConQuest-V1
_database_code_CSD JATYEL
_database_code_depnum_ccdc_archive 'CCDC 1528774'
_chemical_formula_sum 'C16 H13 N1 O4'
_chemical_formula_moiety
;
C16 H13 N1 O4
;
_journal_coden_Cambridge 16
_journal_volume 73
_journal_year 2017
_journal_page_first 4439
_journal_name_full 'Tetrahedron '
loop_
_publ_author_name
"V.A.Migulin"
"A.G.Lvov"
"M.M.Krayushkin"
_chemical_name_systematic
;
3-[3-(4-nitrophenyl)-5,6-dihydro-4H-cyclopenta[c]furan-1-yl]prop-2-enal
;
_cell_volume    643.179
_exptl_crystal_colour 'colorless'
_exptl_crystal_density_diffrn 1.463
_exptl_crystal_description 'prism'
_diffrn_ambient_temperature 120
#These two values have been output from a single CSD field.
_refine_ls_R_factor_gt 0.0572
_refine_ls_wR_factor_gt 0.0572
_symmetry_cell_setting triclinic
_symmetry_space_group_name_H-M 'P -1'
_symmetry_Int_Tables_number 2
loop_
_symmetry_equiv_pos_site_id
_symmetry_equiv_pos_as_xyz
1 x,y,z
2 -x,-y,-z
_cell_length_a 7.7646(16)
_cell_length_b 8.7169(17)
_cell_length_c 10.538(2)
_cell_angle_alpha 66.30(3)
_cell_angle_beta 89.05(3)
_cell_angle_gamma 80.51(3)
_cell_formula_units_Z 2
loop_
_atom_type_symbol
_atom_type_radius_bond
C 0.68
H 0.23
N 0.68
O 0.68
loop_
_atom_site_label
_atom_site_type_symbol
_atom_site_fract_x
_atom_site_fract_y
_atom_site_fract_z
C1 C 0.8768(3) 0.7033(3) 0.2611(3)
C2 C 0.7693(3) 0.7464(3) 0.3526(3)
C3 C 0.7177(4) 0.9351(3) 0.3025(3)
H1 H 0.78190 0.97990 0.35670
H2 H 0.59040 0.96820 0.30780
C4 C 0.7703(4) 0.9980(4) 0.1519(3)
H3 H 0.66820 1.01810 0.08870
H4 H 0.81590 1.10570 0.12530
O1 O 1.1714(3) -0.0219(3) 0.3471(2)
O2 O 0.8359(2) 0.4647(2) 0.43365(17)
O3 O 0.2887(2) 0.5218(3) 0.96462(19)
O4 O 0.3849(3) 0.2572(3) 1.0096(2)
N1 N 0.3745(3) 0.4097(3) 0.9372(2)
C5 C 0.9123(4) 0.8587(3) 0.1431(3)
H5 H 0.90110 0.84840 0.05350
H6 H 1.03060 0.88140 0.15450
C6 C 0.9157(3) 0.5310(3) 0.3119(3)
C7 C 1.0130(3) 0.4110(3) 0.2688(3)
H7 H 1.06990 0.45340 0.18420
C8 C 1.0317(4) 0.2424(3) 0.3374(3)
H8 H 0.97200 0.19570 0.42010
C9 C 0.7459(3) 0.5985(3) 0.4570(3)
C10 C 1.1397(4) 0.1321(4) 0.2882(3)
H9 H 1.19140 0.18290 0.20220
C11 C 0.6514(3) 0.5523(3) 0.5795(3)
C12 C 0.5470(3) 0.6752(3) 0.6114(3)
H10 H 0.53850 0.79190 0.55120
C13 C 0.4568(3) 0.6293(3) 0.7285(3)
H11 H 0.38470 0.71280 0.75120
C14 C 0.4720(3) 0.4591(3) 0.8137(3)
C15 C 0.5718(3) 0.3347(3) 0.7851(3)
H12 H 0.57790 0.21820 0.84530
C16 C 0.6628(3) 0.3812(3) 0.6678(3)
H13 H 0.73450 0.29660 0.64610
#END
