
#######################################################################
#
#                 Cambridge Crystallographic Data Centre
#                                CCDC
#
#######################################################################
#
# If this CIF has been generated from an entry in the Cambridge
# Structural Database, then it will include bibliographic, chemical,
# crystal, experimental, refinement or atomic coordinate data resulting
# from the CCDC's data processing and validation procedures.
#
#######################################################################

data_CSD_CIF_JATZEM
_audit_creation_date 2017-06-13
_audit_creation_method CSD-ConQuest-V1
_database_code_CSD JATZEM
_database_code_depnum_ccdc_archive 'CCDC 1528779'
_chemical_formula_sum 'C16 H13 N1 O4'
_chemical_formula_moiety
;
C16 H13 N1 O4
;
_journal_coden_Cambridge 16
_journal_volume 73
_journal_year 2017
_journal_page_first 4439
_journal_name_full 'Tetrahedron '
loop_
_publ_author_name
"V.A.Migulin"
"A.G.Lvov"
"M.M.Krayushkin"
_chemical_name_systematic
;
[2-(furan-2-yl)cyclopent-1-en-1-yl](4-nitrophenyl)methanone
;
_cell_volume   1290.232
_exptl_crystal_colour 'colorless'
_exptl_crystal_density_diffrn 1.458
_exptl_crystal_description 'prism'
_diffrn_ambient_temperature 120
#These two values have been output from a single CSD field.
_refine_ls_R_factor_gt 0.0638
_refine_ls_wR_factor_gt 0.0638
_symmetry_cell_setting monoclinic
_symmetry_space_group_name_H-M 'P 21/c'
_symmetry_Int_Tables_number 14
loop_
_symmetry_equiv_pos_site_id
_symmetry_equiv_pos_as_xyz
1 x,y,z
2 -x,1/2+y,1/2-z
3 -x,-y,-z
4 x,-1/2-y,-1/2+z
_cell_length_a 11.495(4)
_cell_length_b 7.581(3)
_cell_length_c 15.517(5)
_cell_angle_alpha 90
_cell_angle_beta 107.414(6)
_cell_angle_gamma 90
_cell_formula_units_Z 4
loop_
_atom_type_symbol
_atom_type_radius_bond
C 0.68
H 0.23
N 0.68
O 0.68
loop_
_atom_site_label
_atom_site_type_symbol
_atom_site_fract_x
_atom_site_fract_y
_atom_site_fract_z
O1 O 0.99155(17) 0.3726(3) 0.09792(11)
N1 N 0.51189(19) -0.0606(3) -0.14642(13)
C1 C 0.9363(2) 0.3755(3) 0.23482(14)
O2 O 0.74078(17) 0.6121(2) 0.08478(12)
C2 C 0.8180(2) 0.4067(3) 0.19995(15)
O3 O 0.53396(17) -0.2155(3) -0.12872(13)
C3 C 0.7511(2) 0.4049(4) 0.26969(16)
H1 H 0.68240 0.32020 0.25340
H2 H 0.71950 0.52360 0.27730
O4 O 0.43744(19) -0.0094(3) -0.21535(12)
C4 C 0.8487(3) 0.3474(4) 0.35427(18)
H3 H 0.84990 0.42710 0.40510
H4 H 0.83220 0.22590 0.37100
C5 C 0.9699(2) 0.3540(4) 0.33484(15)
H5 H 1.01950 0.45500 0.36610
H6 H 1.01650 0.24370 0.35430
C6 C 1.0305(2) 0.3662(3) 0.18818(15)
C7 C 1.0951(3) 0.3593(4) 0.07291(18)
H7 H 1.09690 0.36080 0.01210
C8 C 1.1920(3) 0.3441(4) 0.14313(18)
H8 H 1.27410 0.33220 0.14280
C9 C 1.1493(2) 0.3489(4) 0.21974(17)
H9 H 1.19690 0.34120 0.28130
C10 C 0.7512(2) 0.4582(4) 0.10585(15)
C11 C 0.6919(2) 0.3187(3) 0.04073(15)
C12 C 0.7146(2) 0.1424(3) 0.05898(15)
H10 H 0.77100 0.10790 0.11480
C13 C 0.6572(2) 0.0154(3) -0.00201(15)
H11 H 0.67310 -0.10650 0.01000
C14 C 0.5755(2) 0.0727(3) -0.08134(15)
C15 C 0.5511(2) 0.2462(3) -0.10198(15)
H12 H 0.49450 0.27990 -0.15780
C16 C 0.6097(2) 0.3706(3) -0.04072(15)
H13 H 0.59440 0.49230 -0.05380
#END
