
#######################################################################
#
#                 Cambridge Crystallographic Data Centre
#                                CCDC
#
#######################################################################
#
# If this CIF has been generated from an entry in the Cambridge
# Structural Database, then it will include bibliographic, chemical,
# crystal, experimental, refinement or atomic coordinate data resulting
# from the CCDC's data processing and validation procedures.
#
#######################################################################

data_CSD_CIF_JAXTUY
_audit_creation_date 2006-01-09
_audit_creation_method CSD-ConQuest-V1
_database_code_CSD JAXTUY
_database_code_depnum_ccdc_archive 'CCDC 273829'
_chemical_formula_sum 'C21 H23 N5 O10'
_chemical_formula_moiety
;
C21 H23 N5 O10
;
_journal_coeditor_code "IUCr WW6404"
_journal_coden_Cambridge 1370
_journal_volume 61
_journal_year 2005
_journal_page_first o3297
_journal_name_full 'Acta Crystallogr.,Sect.E:Struct.Rep.Online '
loop_
_publ_author_name
"Bao-Han Zhou"
"Jiang-Lan Qu"
"An-Xin Wu"
_chemical_name_systematic
;
Diethyl 
5,10-dihydro-9-methoxy-6-nitro-4,11-dioxo-cis-1H,3H,4H,11H-2-oxa-3a,4a,10a,11a
-tetraazabenz(f)indeno(2,1,7-ija)azulene-11b,11c-dicarboxylate
;
_cell_volume   1120.004
_exptl_crystal_colour 'yellow'
_exptl_crystal_density_diffrn 1.499
_exptl_crystal_description 'block'
_exptl_crystal_preparation 'methanol/1,2-dichloroethane'
_diffrn_ambient_temperature 292
#These two values have been output from a single CSD field.
_refine_ls_R_factor_gt 0.0448
_refine_ls_wR_factor_gt 0.0448
_symmetry_cell_setting triclinic
_symmetry_space_group_name_H-M 'P -1'
_symmetry_Int_Tables_number 2
loop_
_symmetry_equiv_pos_site_id
_symmetry_equiv_pos_as_xyz
1 x,y,z
2 -x,-y,-z
_cell_length_a 9.756(2)
_cell_length_b 10.608(2)
_cell_length_c 11.716(3)
_cell_angle_alpha 110.123(4)
_cell_angle_beta 98.754(4)
_cell_angle_gamma 92.119(4)
_cell_formula_units_Z 2
loop_
_atom_type_symbol
_atom_type_radius_bond
C 0.68
H 0.23
N 0.68
O 0.68
loop_
_atom_site_label
_atom_site_type_symbol
_atom_site_fract_x
_atom_site_fract_y
_atom_site_fract_z
C1 C 0.6843(3) -0.2774(2) 0.4461(2)
H1 H 0.71160 -0.27960 0.52760
H2 H 0.70150 -0.36070 0.38620
H3 H 0.58690 -0.26540 0.43260
C2 C 0.7505(2) -0.0408(2) 0.50995(19)
C3 C 0.6793(2) -0.0129(2) 0.6080(2)
H4 H 0.63390 -0.08290 0.62280
C4 C 0.6757(2) 0.1178(2) 0.6835(2)
H5 H 0.62490 0.13730 0.74750
C5 C 0.7479(2) 0.2202(2) 0.66358(17)
C6 C 0.81973(19) 0.19730(19) 0.56482(16)
C7 C 0.81672(18) 0.06393(18) 0.48470(17)
C8 C 0.87676(19) 0.03312(19) 0.36697(17)
H6 H 0.97410 0.06840 0.38780
H7 H 0.87220 -0.06390 0.32610
C9 C 0.8897(2) 0.30903(19) 0.53468(16)
H8 H 0.89470 0.39350 0.60330
H9 H 0.98410 0.28950 0.52340
C10 C 0.67423(18) 0.03475(17) 0.21357(16)
C11 C 0.6829(2) 0.36657(17) 0.42607(16)
C12 C 0.82507(18) 0.23392(17) 0.30060(15)
C13 C 0.96537(19) 0.26171(19) 0.26505(18)
C14 C 1.0811(3) 0.2167(3) 0.0922(3)
H10 H 1.15500 0.16700 0.11560
H11 H 1.11520 0.31140 0.12200
C15 C 1.0384(4) 0.1660(3) -0.0441(3)
H12 H 0.99390 0.07580 -0.07160
H13 H 1.11910 0.16590 -0.08180
H14 H 0.97450 0.22340 -0.06710
C16 C 0.69285(18) 0.25597(17) 0.21718(15)
C17 C 0.7186(2) 0.31826(19) 0.12066(17)
C18 C 0.8069(3) 0.5209(3) 0.1019(3)
H15 H 0.89040 0.58270 0.13920
H16 H 0.81890 0.46270 0.02030
C19 C 0.6869(3) 0.5974(3) 0.0909(3)
H17 H 0.60310 0.53690 0.06120
H18 H 0.69700 0.64260 0.03390
H19 H 0.68180 0.66280 0.17030
C20 C 0.46796(19) 0.1200(2) 0.12854(18)
H20 H 0.44460 0.15350 0.06140
H21 H 0.42660 0.02760 0.10110
C21 C 0.4703(2) 0.3364(2) 0.27194(19)
H22 H 0.43070 0.39070 0.34190
H23 H 0.44690 0.37130 0.20570
N1 N 0.7426(2) 0.3560(2) 0.75081(16)
N2 N 0.80236(15) 0.09153(14) 0.28193(13)
N3 N 0.81338(16) 0.32315(14) 0.42234(13)
N4 N 0.61829(15) 0.12341(14) 0.15920(13)
N5 N 0.61892(16) 0.34618(14) 0.30650(13)
O1 O 0.76296(16) -0.16808(14) 0.43397(14)
O2 O 0.8501(2) 0.42990(19) 0.79215(16)
O3 O 0.6308(2) 0.38728(18) 0.78133(16)
O4 O 0.62129(14) -0.07552(13) 0.19868(14)
O5 O 0.63453(16) 0.41730(14) 0.51834(12)
O6 O 1.06315(16) 0.32901(19) 0.33582(15)
O7 O 0.95947(14) 0.19839(14) 0.14557(13)
O8 O 0.67792(18) 0.26598(17) 0.01277(13)
O9 O 0.78743(16) 0.43882(14) 0.17747(13)
O10 O 0.41237(13) 0.20003(14) 0.23236(13)
#END
