
#######################################################################
#
#                 Cambridge Crystallographic Data Centre
#                                CCDC
#
#######################################################################
#
# If this CIF has been generated from an entry in the Cambridge
# Structural Database, then it will include bibliographic, chemical,
# crystal, experimental, refinement or atomic coordinate data resulting
# from the CCDC's data processing and validation procedures.
#
#######################################################################

data_CSD_CIF_JAXTAE01
_audit_creation_date 2006-10-06
_audit_creation_method CSD-ConQuest-V1
_database_code_CSD JAXTAE01
_database_code_depnum_ccdc_archive 'CCDC 618474'
_chemical_formula_sum 'C14 H10 N4 O4'
_chemical_formula_moiety
;
C14 H10 N4 O4
;
_journal_coeditor_code "IUCr BM5032"
_journal_coden_Cambridge 622
_journal_volume 62
_journal_year 2006
_journal_page_first 666
_journal_name_full 'Acta Crystallogr.,Sect.B:Struct.Sci. '
loop_
_publ_author_name
"C.Glidewell"
"J.N.Low"
"J.M.S.Skakle"
"J.L.Wardell"
_chemical_name_systematic
;
(E,E)-1,4-bis(3-Nitrophenyl)-2,3-diaza-1,3-butadiene
;
_chemical_melting_point 475
_cell_volume    659.286
_exptl_crystal_colour 'yellow'
_exptl_crystal_density_diffrn 1.502
_exptl_special_details
;
Melting point range 475-477K

;
_exptl_crystal_description 'plate'
_exptl_crystal_preparation '1,2-dichloroethane'
_diffrn_ambient_temperature 120
#These two values have been output from a single CSD field.
_refine_ls_R_factor_gt 0.0444
_refine_ls_wR_factor_gt 0.0444
_symmetry_cell_setting monoclinic
_symmetry_space_group_name_H-M 'P 21/n'
_symmetry_Int_Tables_number 14
loop_
_symmetry_equiv_pos_site_id
_symmetry_equiv_pos_as_xyz
1 x,y,z
2 1/2-x,1/2+y,1/2-z
3 -x,-y,-z
4 -1/2+x,-1/2-y,-1/2+z
_cell_length_a 7.0128(4)
_cell_length_b 7.6318(5)
_cell_length_c 12.8037(5)
_cell_angle_alpha 90
_cell_angle_beta 105.825(3)
_cell_angle_gamma 90
_cell_formula_units_Z 2
loop_
_atom_type_symbol
_atom_type_radius_bond
C 0.68
H 0.23
N 0.68
O 0.68
loop_
_atom_site_label
_atom_site_type_symbol
_atom_site_fract_x
_atom_site_fract_y
_atom_site_fract_z
O1 O -0.09983(16) 0.27543(15) 0.68104(8)
O2 O -0.34487(15) 0.11164(15) 0.59533(9)
N1 N 0.41253(17) 0.46167(16) 0.50700(9)
N2 N -0.19378(18) 0.19608(16) 0.59948(10)
C1 C 0.1283(2) 0.29160(18) 0.41783(11)
C2 C 0.0541(2) 0.28839(19) 0.50926(11)
C3 C -0.1216(2) 0.20250(19) 0.50200(11)
C4 C -0.2296(2) 0.1181(2) 0.40910(12)
C5 C -0.1544(2) 0.1209(2) 0.31907(12)
C6 C 0.0221(2) 0.20644(19) 0.32335(11)
C7 C 0.3159(2) 0.37952(19) 0.42187(11)
H1 H 0.12380 0.34440 0.57480
H2 H -0.35060 0.06030 0.40680
H3 H -0.22470 0.06360 0.25410
H4 H 0.07130 0.20710 0.26120
H5 H 0.36660 0.37550 0.36030
O1B O 1.09983(16) 0.72457(15) 0.31896(8)
O2B O 1.34487(15) 0.88836(15) 0.40467(9)
N1B N 0.58747(17) 0.53833(16) 0.49300(9)
N2B N 1.19378(18) 0.80392(16) 0.40052(10)
C1B C 0.8717(2) 0.70840(18) 0.58217(11)
C2B C 0.9459(2) 0.71161(19) 0.49074(11)
C3B C 1.1216(2) 0.79750(19) 0.49800(11)
C4B C 1.2296(2) 0.8819(2) 0.59090(12)
C5B C 1.1544(2) 0.8791(2) 0.68093(12)
C6B C 0.9779(2) 0.79356(19) 0.67665(11)
C7B C 0.6841(2) 0.62048(19) 0.57813(11)
H1B H 0.87620 0.65560 0.42520
H2B H 1.35060 0.93970 0.59320
H3B H 1.22470 0.93640 0.74590
H4B H 0.92870 0.79290 0.73880
H5B H 0.63340 0.62450 0.63970
#END
