
#######################################################################
#
#                 Cambridge Crystallographic Data Centre
#                                CCDC
#
#######################################################################
#
# If this CIF has been generated from an entry in the Cambridge
# Structural Database, then it will include bibliographic, chemical,
# crystal, experimental, refinement or atomic coordinate data resulting
# from the CCDC's data processing and validation procedures.
#
#######################################################################

data_CSD_CIF_JAYNIH
_audit_creation_date 2006-01-09
_audit_creation_method CSD-ConQuest-V1
_database_code_CSD JAYNIH
_database_code_depnum_ccdc_archive 'CCDC 290011'
_chemical_formula_sum 'C13 H15 N1 O6'
_chemical_formula_moiety
;
C13 H15 N1 O6
;
_journal_coeditor_code "IUCr CV6584"
_journal_coden_Cambridge 1370
_journal_volume 61
_journal_year 2005
_journal_page_first o3757
_journal_name_full 'Acta Crystallogr.,Sect.E:Struct.Rep.Online '
loop_
_publ_author_name
"Chun-Nian Xia"
"Wei-Xiao Hu"
"Wei Zhou"
_chemical_name_systematic
;
(E)-2-Methyl-2-nitropropyl 3-(3,4-dihydroxyphenyl)prop-2-enoate
;
_chemical_melting_point 417
_cell_volume   1342.326
_exptl_crystal_colour 'light brown'
_exptl_crystal_density_diffrn 1.392
_exptl_special_details
;
Melting point range 417-420K

;
_exptl_crystal_description 'plate'
_exptl_crystal_preparation 'benzene/diethyl ether'
_diffrn_ambient_temperature 295
#These two values have been output from a single CSD field.
_refine_ls_R_factor_gt 0.0428
_refine_ls_wR_factor_gt 0.0428
_symmetry_cell_setting monoclinic
_symmetry_space_group_name_H-M 'P 21/c'
_symmetry_Int_Tables_number 14
loop_
_symmetry_equiv_pos_site_id
_symmetry_equiv_pos_as_xyz
1 x,y,z
2 -x,1/2+y,1/2-z
3 -x,-y,-z
4 x,-1/2-y,-1/2+z
_cell_length_a 5.739(4)
_cell_length_b 10.7660(17)
_cell_length_c 22.112(5)
_cell_angle_alpha 90
_cell_angle_beta 100.73(4)
_cell_angle_gamma 90
_cell_formula_units_Z 4
loop_
_atom_type_symbol
_atom_type_radius_bond
C 0.68
H 0.23
N 0.68
O 0.68
loop_
_atom_site_label
_atom_site_type_symbol
_atom_site_fract_x
_atom_site_fract_y
_atom_site_fract_z
O1 O 0.3313(4) -1.37014(19) -0.00007(10)
H1 H 0.236(5) -1.348(3) 0.0213(14)
O2 O 0.7019(4) -1.4027(2) -0.05916(12)
H2 H 0.668(6) -1.450(3) -0.0331(12)
O3 O -0.0262(4) -0.7172(2) -0.07424(9)
O4 O 0.1810(3) -0.64476(16) -0.14333(8)
O5 O -0.0245(5) -0.6416(3) -0.29729(11)
O6 O 0.1490(4) -0.4713(3) -0.26910(12)
N1 N 0.0086(4) -0.5529(3) -0.26387(11)
C1 C 0.3612(4) -1.0617(2) -0.07067(10)
C2 C 0.2869(4) -1.1586(2) -0.03775(11)
H3 H 0.15840 -1.14630 -0.01830
C3 C 0.3964(5) -1.2717(2) -0.03298(11)
C4 C 0.5887(5) -1.2915(2) -0.06213(12)
C5 C 0.6654(5) -1.1961(2) -0.09488(12)
H4 H 0.79360 -1.20910 -0.11440
C6 C 0.5563(4) -1.0823(2) -0.09926(11)
H5 H 0.61180 -1.01860 -0.12120
C7 C 0.2349(4) -0.9431(2) -0.07435(11)
H6 H 0.10850 -0.93950 -0.05350
C8 C 0.2762(5) -0.8409(2) -0.10323(11)
H7 H 0.40380 -0.83870 -0.12370
C9 C 0.1276(5) -0.7312(3) -0.10401(11)
C10 C 0.0405(5) -0.5326(2) -0.15310(13)
H8 H 0.14390 -0.46180 -0.15450
H9 H -0.04210 -0.52070 -0.11910
C11 C -0.1374(4) -0.5402(2) -0.21257(11)
C12 C -0.2713(5) -0.4182(2) -0.22434(13)
H10 H -0.37130 -0.42040 -0.26430
H11 H -0.16020 -0.35110 -0.22260
H12 H -0.36690 -0.40610 -0.19350
C13 C -0.3040(5) -0.6492(3) -0.21551(15)
H13 H -0.21400 -0.72480 -0.21000
H14 H -0.40820 -0.65050 -0.25490
H15 H -0.39580 -0.64170 -0.18360
#END
