
#######################################################################
#
#                 Cambridge Crystallographic Data Centre
#                                CCDC
#
#######################################################################
#
# If this CIF has been generated from an entry in the Cambridge
# Structural Database, then it will include bibliographic, chemical,
# crystal, experimental, refinement or atomic coordinate data resulting
# from the CCDC's data processing and validation procedures.
#
#######################################################################

data_CSD_CIF_JAZLAX
_audit_creation_date 1990-07-27
_audit_creation_method CSD-ConQuest-V1
_database_code_CSD JAZLAX
_database_code_depnum_ccdc_archive 'CCDC 1183599'
_chemical_formula_sum 'C9 H7 N1 O3'
_chemical_formula_moiety
;
C9 H7 N1 O3
;
_journal_coden_Cambridge 3
_journal_volume 43
_journal_year 1989
_journal_page_first 787
_journal_name_full 'Acta Chem.Scand. '
loop_
_publ_author_name
"K.Rissanen"
"K.Laihia"
"M.Pitaken"
"E.Kantolahti"
_chemical_name_systematic
;
(E)-3-(4-Nitrophenyl)propenal
;
_cell_volume    428.287
_exptl_crystal_density_diffrn 1.37
_diffrn_ambient_temperature ?
_diffrn_special_details
;
The study was carried out at room temperature,in the range 283-303K

;
#These two values have been output from a single CSD field.
_refine_ls_R_factor_gt 0.047
_refine_ls_wR_factor_gt 0.047
_symmetry_cell_setting monoclinic
_symmetry_space_group_name_H-M 'P 21'
_symmetry_Int_Tables_number 4
loop_
_symmetry_equiv_pos_site_id
_symmetry_equiv_pos_as_xyz
1 x,y,z
2 -x,1/2+y,-z
_cell_length_a 3.847(2)
_cell_length_b 15.046(3)
_cell_length_c 7.422(3)
_cell_angle_alpha 90
_cell_angle_beta 94.48(2)
_cell_angle_gamma 90
_cell_formula_units_Z 2
loop_
_atom_type_symbol
_atom_type_radius_bond
C 0.68
H 0.23
N 0.68
O 0.68
loop_
_atom_site_label
_atom_site_type_symbol
_atom_site_fract_x
_atom_site_fract_y
_atom_site_fract_z
O1 O -0.177(2) 0.5135(4) 1.2359(7)
O2 O 0.569(2) 0.2160(6) 0.1671(7)
O3 O 0.332(2) 0.1139(4) 0.3167(9)
N1 N 0.427(2) 0.1921(5) 0.2967(8)
C1 C -0.020(2) 0.5134(6) 1.1019(9)
C2 C 0.021(2) 0.4351(5) 0.9898(9)
C3 C 0.179(2) 0.4440(5) 0.8407(9)
C4 C 0.242(2) 0.3758(5) 0.7049(8)
C5 C 0.373(2) 0.4027(5) 0.5452(9)
C6 C 0.434(2) 0.3427(5) 0.4130(9)
C7 C 0.364(2) 0.2542(5) 0.4417(9)
C8 C 0.239(2) 0.2241(5) 0.5968(9)
C9 C 0.183(2) 0.2855(5) 0.7322(9)
H1 H 0.08500 0.57000 1.06400
H2 H -0.07000 0.37600 1.02600
H3 H 0.26900 0.50500 0.81600
H4 H 0.43100 0.46700 0.52900
H5 H 0.52300 0.36200 0.29600
H6 H 0.19000 0.15900 0.61300
H7 H 0.10200 0.26500 0.85000
#END
