
#######################################################################
#
#                 Cambridge Crystallographic Data Centre
#                                CCDC
#
#######################################################################
#
# If this CIF has been generated from an entry in the Cambridge
# Structural Database, then it will include bibliographic, chemical,
# crystal, experimental, refinement or atomic coordinate data resulting
# from the CCDC's data processing and validation procedures.
#
#######################################################################

data_CSD_CIF_JEBBAW
_audit_creation_date 2017-06-16
_audit_creation_method CSD-ConQuest-V1
_database_code_CSD JEBBAW
_database_code_depnum_ccdc_archive 'CCDC 1536055'
_chemical_formula_sum 'C11 H12 N2 O3'
_chemical_formula_moiety
;
C11 H12 N2 O3
;
_journal_coden_Cambridge 1267
_journal_volume 232
_journal_year 2017
_journal_page_first 463
_journal_name_full 'Z.Kristallogr.-New Cryst.Struct. '
loop_
_publ_author_name
"Aka Joseph Ngouan"
"F.Mansilla-Koblavi"
"A.Timotou"
"Ane Adjou"
"J.A.Tenon"
_chemical_name_systematic
;
5-nitro-2-(pyrrolidin-1-yl)benzaldehyde
;
_cell_volume   1061.430
_exptl_crystal_colour 'yellow'
_exptl_crystal_density_diffrn 1.378
_exptl_crystal_description 'prism'
_diffrn_ambient_temperature 298
_refine_special_details
;
C101,C111,C81,C91 and C102,C112,C82,C92 disordered over two sites with 
occupancies 0.584:0.416.
;
#These two values have been output from a single CSD field.
_refine_ls_R_factor_gt 0.0533
_refine_ls_wR_factor_gt 0.0533
_symmetry_cell_setting monoclinic
_symmetry_space_group_name_H-M 'P 21/n'
_symmetry_Int_Tables_number 14
loop_
_symmetry_equiv_pos_site_id
_symmetry_equiv_pos_as_xyz
1 x,y,z
2 1/2-x,1/2+y,1/2-z
3 -x,-y,-z
4 -1/2+x,-1/2-y,-1/2+z
_cell_length_a 8.1726(2)
_cell_length_b 7.1419(2)
_cell_length_c 18.4875(6)
_cell_angle_alpha 90
_cell_angle_beta 100.376(1)
_cell_angle_gamma 90
_cell_formula_units_Z 4
loop_
_atom_type_symbol
_atom_type_radius_bond
C 0.68
H 0.23
N 0.68
O 0.68
loop_
_atom_site_label
_atom_site_type_symbol
_atom_site_fract_x
_atom_site_fract_y
_atom_site_fract_z
C1 C 0.11867(19) 0.6525(2) 0.44714(9)
C2 C 0.18913(19) 0.4822(2) 0.43860(9)
H1 H 0.16690 0.42390 0.39290
C3 C 0.29255(18) 0.3941(2) 0.49601(9)
C4 C 0.32592(19) 0.4832(2) 0.56631(9)
C5 C 0.2534(2) 0.6625(3) 0.57158(10)
H2 H 0.27650 0.72610 0.61610
C6 C 0.1520(2) 0.7442(2) 0.51437(10)
H3 H 0.10510 0.86070 0.52000
C7 C 0.3595(3) 0.2144(3) 0.47637(13)
H4 H 0.470(3) 0.178(4) 0.5064(15)
N1 N 0.41897(18) 0.4084(2) 0.62709(8)
O1 O -0.06345(18) 0.8828(2) 0.39664(8)
N2 N 0.0071(2) 0.7370(2) 0.38666(9)
O2 O -0.0159(3) 0.6579(3) 0.32697(9)
O3 O 0.3292(2) 0.1401(2) 0.41944(9)
C8 C 0.4946(10) 0.1911(8) 0.7157(3)
H5 H 0.38800 0.16980 0.73040
H6 H 0.56880 0.08820 0.73310
C9 C 0.5666(16) 0.372(2) 0.7434(6)
H7 H 0.68390 0.37790 0.74070
H8 H 0.55360 0.39190 0.79400
C10 C 0.4670(15) 0.5185(19) 0.6922(6)
H9 H 0.37110 0.56310 0.71130
H10 H 0.53570 0.62410 0.68370
C11 C 0.475(3) 0.215(3) 0.6322(8)
H11 H 0.57970 0.19930 0.61520
H12 H 0.39240 0.13060 0.60570
C12? C 0.6168(10) 0.2426(10) 0.7129(3)
H13? H 0.71730 0.31070 0.70860
H14? H 0.64670 0.12000 0.73370
C13? C 0.5127(19) 0.350(2) 0.7586(8)
H15? H 0.43510 0.26730 0.77700
H16? H 0.58230 0.41090 0.79990
C14? C 0.424(2) 0.489(2) 0.7066(9)
H17? H 0.48170 0.60770 0.71210
H18? H 0.31180 0.50730 0.71570
C15? C 0.503(3) 0.228(3) 0.6404(11)
H19? H 0.56520 0.19990 0.60180
H20? H 0.42200 0.12860 0.64170
#END
