
#######################################################################
#
#                 Cambridge Crystallographic Data Centre
#                                CCDC
#
#######################################################################
#
# If this CIF has been generated from an entry in the Cambridge
# Structural Database, then it will include bibliographic, chemical,
# crystal, experimental, refinement or atomic coordinate data resulting
# from the CCDC's data processing and validation procedures.
#
#######################################################################

data_CSD_CIF_JEBXIX
_audit_creation_date 1990-09-07
_audit_creation_method CSD-ConQuest-V1
_database_code_CSD JEBXIX
_chemical_formula_sum 'C16 H27 N1 O4'
_chemical_formula_moiety
;
C16 H27 N1 O4
;
_journal_coden_Cambridge 4
_journal_volume 112
_journal_year 1990
_journal_page_first 311
_journal_name_full 'J.Am.Chem.Soc. '
loop_
_publ_author_name
"S.E.Denmark"
"Young-Choon Moon"
"C.B.W.Senanayake"
_chemical_name_systematic
;
Ethyl 
rel-(1R,3S,6aR,8aR,8bS)-5,5,6,6,8b-pentamethyl-6a,7,8,8a-tetrahydrocyclopenta(
1,2,3-hj)iso-oxazolo(2,3-b)(1,2)oxazine-1-carboxylate
;
_chemical_melting_point 331.15
_cell_volume   1609.868
_exptl_crystal_colour 'colorless'
_exptl_crystal_density_diffrn 1.227
_exptl_special_details
;
Melting point range 331.15-332.15K

;
_diffrn_ambient_temperature ?
_diffrn_special_details
;
The study was carried out at room temperature,in the range 283-303K

;
_symmetry_cell_setting monoclinic
_symmetry_space_group_name_H-M 'P 21/c'
_symmetry_Int_Tables_number 14
loop_
_symmetry_equiv_pos_site_id
_symmetry_equiv_pos_as_xyz
1 x,y,z
2 -x,1/2+y,1/2-z
3 -x,-y,-z
4 x,-1/2-y,-1/2+z
_cell_length_a 7.175(3)
_cell_length_b 10.929(6)
_cell_length_c 20.532(9)
_cell_angle_alpha 90
_cell_angle_beta 90.81(3)
_cell_angle_gamma 90
_cell_formula_units_Z 4
loop_
_atom_type_symbol
_atom_type_radius_bond
C 0.68
H 0.23
N 0.68
O 0.68
loop_
_atom_site_label
_atom_site_type_symbol
_atom_site_fract_x
_atom_site_fract_y
_atom_site_fract_z
O1 O 0.2338(8) 0.2360(5) 0.7968(3)
O2 O 0.3048(7) 0.1692(5) 0.6974(3)
O3 O 0.300(1) 0.2452(8) 0.9272(3)
O4 O 0.5476(8) 0.1259(6) 0.9152(3)
N1 N 0.1457(9) 0.1841(6) 0.7408(3)
C1 C 0.350(1) 0.1429(8) 0.8248(4)
C2 C 0.242(1) 0.1329(9) 0.6328(4)
C3 C 0.114(1) 0.0186(8) 0.6402(5)
C4 C 0.135(1) -0.0358(8) 0.7093(4)
C5 C 0.325(1) -0.0934(8) 0.7267(4)
C6 C 0.331(1) -0.0913(8) 0.8011(5)
C7 C 0.230(1) 0.0268(9) 0.8198(4)
C8 C 0.096(1) 0.0584(8) 0.7630(4)
C9 C -0.105(1) 0.0629(9) 0.7866(4)
C10 C 0.152(1) 0.2447(8) 0.6000(4)
C11 C 0.426(1) 0.1107(9) 0.5993(4)
C12 C -0.093(1) 0.0487(8) 0.6262(4)
C13 C 0.160(1) -0.0831(8) 0.5902(5)
C14 C 0.393(1) 0.1803(10) 0.8944(5)
C15 C 0.608(1) 0.1512(9) 0.9813(4)
C16 C 0.795(1) 0.0936(9) 0.9904(4)
H1 H 0.46790 0.13020 0.80410
H2 H 0.04330 -0.09990 0.70760
H3 H 0.42490 -0.04580 0.70920
H4 H 0.33230 -0.17570 0.71070
H5 H 0.26780 -0.16130 0.81840
H6 H 0.45750 -0.09020 0.81690
H7 H 0.17810 0.00960 0.86160
H8 H -0.14120 -0.01680 0.80120
H9 H -0.18540 0.08840 0.75140
H10 H -0.11340 0.12010 0.82190
H11 H 0.10930 0.22300 0.55710
H12 H 0.24230 0.30930 0.59720
H13 H 0.04850 0.27190 0.62530
H14 H 0.40320 0.08550 0.55510
H15 H 0.49430 0.04770 0.62200
H16 H 0.49820 0.18480 0.59960
H17 H -0.13280 0.11170 0.65540
H18 H -0.16670 -0.02330 0.63250
H19 H -0.10690 0.07650 0.58210
H20 H 0.28780 -0.10740 0.59570
H21 H 0.14020 -0.05240 0.54690
H22 H 0.08040 -0.15230 0.59730
H23 H 0.61680 0.23800 0.98800
H24 H 0.52150 0.11690 1.01150
H25 H 0.83940 0.10870 1.03390
H26 H 0.88010 0.12810 0.95990
H27 H 0.78480 0.00710 0.98330
#END
