
#######################################################################
#
#                 Cambridge Crystallographic Data Centre
#                                CCDC
#
#######################################################################
#
# If this CIF has been generated from an entry in the Cambridge
# Structural Database, then it will include bibliographic, chemical,
# crystal, experimental, refinement or atomic coordinate data resulting
# from the CCDC's data processing and validation procedures.
#
#######################################################################

data_CSD_CIF_JECSAO
_audit_creation_date 2017-06-19
_audit_creation_method CSD-ConQuest-V1
_database_code_CSD JECSAO
_database_code_depnum_ccdc_archive 'CCDC 1525988'
_chemical_formula_sum 'C20 H24 N4 O4'
_chemical_formula_moiety
;
C20 H24 N4 O4
;
_journal_coden_Cambridge 35
_journal_volume 82
_journal_year 2017
_journal_page_first 6268
_journal_name_full 'J.Org.Chem. '
loop_
_publ_author_name
"R.Sahu"
"V.Singh"
_chemical_name_systematic
;
1-(2,4-dinitrophenyl)-2-(3,7,10-trimethyltricyclo[5.2.2.0^1,5^]undec-10-en-9-y
lidene)hydrazine
;
_cell_volume   1968.914
_exptl_crystal_colour 'yellowish orange'
_exptl_crystal_density_diffrn 1.297
_exptl_crystal_description 'plate'
_diffrn_ambient_temperature 150
#These two values have been output from a single CSD field.
_refine_ls_R_factor_gt 0.0743
_refine_ls_wR_factor_gt 0.0743
_symmetry_cell_setting monoclinic
_symmetry_space_group_name_H-M 'P 21/c'
_symmetry_Int_Tables_number 14
loop_
_symmetry_equiv_pos_site_id
_symmetry_equiv_pos_as_xyz
1 x,y,z
2 -x,1/2+y,1/2-z
3 -x,-y,-z
4 x,-1/2-y,-1/2+z
_cell_length_a 17.300(4)
_cell_length_b 7.8692(10)
_cell_length_c 16.258(3)
_cell_angle_alpha 90
_cell_angle_beta 117.18(3)
_cell_angle_gamma 90
_cell_formula_units_Z 4
loop_
_atom_type_symbol
_atom_type_radius_bond
C 0.68
H 0.23
N 0.68
O 0.68
loop_
_atom_site_label
_atom_site_type_symbol
_atom_site_fract_x
_atom_site_fract_y
_atom_site_fract_z
O1 O 0.4961(2) 0.3114(5) 0.3543(2)
O2 O 0.3740(2) 0.1749(5) 0.3003(2)
O3 O 0.2722(2) -0.0891(4) 0.4922(3)
N1 N 0.6577(3) 0.4210(5) 0.6108(2)
N2 N 0.4392(3) 0.2310(5) 0.3655(2)
N3 N 0.5860(2) 0.3638(5) 0.5310(2)
H1 H 0.58220 0.38740 0.47640
O4 O 0.3393(3) -0.0542(5) 0.6408(3)
N4 N 0.3311(3) -0.0297(5) 0.5628(3)
C1 C 0.3960(3) 0.0752(6) 0.5538(3)
C2 C 0.7197(3) 0.4845(5) 0.5975(3)
C3 C 0.5263(3) 0.2433(6) 0.6247(3)
H2 H 0.57210 0.29150 0.67840
C4 C 0.4640(3) 0.1454(6) 0.6329(3)
H3 H 0.46730 0.12570 0.69210
C5 C 0.5224(3) 0.2726(5) 0.5369(3)
C6 C 0.4501(3) 0.2053(6) 0.4589(3)
C7 C 0.3882(3) 0.1051(6) 0.4677(3)
H4 H 0.34110 0.05810 0.41460
C8 C 0.8825(3) 0.4401(6) 0.5870(3)
H5 H 0.87450 0.33030 0.55440
H6 H 0.94140 0.48340 0.60270
C9 C 0.8272(3) 0.7325(6) 0.5785(3)
H7 H 0.83900 0.83770 0.55780
C10 C 0.8140(3) 0.5957(7) 0.4309(3)
H8 H 0.87110 0.63860 0.44190
H9 H 0.76910 0.67800 0.39350
H10 H 0.80270 0.48710 0.39790
C11 C 0.8032(3) 0.5393(6) 0.6788(3)
C12 C 0.8226(3) 0.7188(6) 0.6576(3)
C13 C 0.7222(3) 0.5004(6) 0.5061(3)
H11 H 0.67590 0.57870 0.46480
H12 H 0.71200 0.38800 0.47560
C14 C 0.8126(3) 0.5700(6) 0.5235(3)
C15 C 0.8365(3) 0.8653(6) 0.7221(3)
H13 H 0.88700 0.84230 0.78160
H14 H 0.78480 0.87990 0.73150
H15 H 0.84660 0.96920 0.69520
C16 C 0.8136(3) 0.5062(7) 0.7761(3)
H16 H 0.78090 0.40340 0.77670
H17 H 0.79190 0.60420 0.79780
C17 C 0.9513(3) 0.4515(7) 0.7699(3)
H18 H 0.98300 0.55380 0.76650
H19 H 0.99190 0.35400 0.79020
C18 C 0.8731(3) 0.4149(6) 0.6757(3)
H20 H 0.85350 0.29560 0.67630
C19 C 0.9119(3) 0.4809(7) 0.8378(3)
H21 H 0.93630 0.58910 0.87230
C20 C 0.9306(4) 0.3426(8) 0.9063(3)
H22 H 0.89780 0.36220 0.94110
H23 H 0.99290 0.34090 0.94900
H24 H 0.91340 0.23330 0.87400
#END
