
#######################################################################
#
#                 Cambridge Crystallographic Data Centre
#                                CCDC
#
#######################################################################
#
# If this CIF has been generated from an entry in the Cambridge
# Structural Database, then it will include bibliographic, chemical,
# crystal, experimental, refinement or atomic coordinate data resulting
# from the CCDC's data processing and validation procedures.
#
#######################################################################

data_CSD_CIF_JECVUI
_audit_creation_date 1990-10-01
_audit_creation_method CSD-ConQuest-V1
_database_code_CSD JECVUI
_chemical_formula_sum 'C6 H11 N3 O4'
_chemical_formula_moiety
;
C6 H11 N3 O4
;
_journal_coeditor_code "IUCr AB0076"
_journal_coden_Cambridge 591
_journal_volume 46
_journal_year 1990
_journal_page_first 600
_journal_name_full 'Acta Crystallogr.,Sect.C:Cryst.Struct.Commun. '
loop_
_publ_author_name
"I.K.Larsen"
_chemical_name_systematic
;
N-Acetyl-N,O-di(methylcarbamoyl)hydroxylamine
;
_chemical_melting_point 389
_cell_volume    862.513
_exptl_crystal_colour 'colorless'
_exptl_crystal_density_diffrn 1.457
_exptl_special_details
;
Melting point range 389-391K
antitumour agent

;
_diffrn_ambient_temperature 105
#These two values have been output from a single CSD field.
_refine_ls_R_factor_gt 0.034
_refine_ls_wR_factor_gt 0.034
_symmetry_cell_setting monoclinic
_symmetry_space_group_name_H-M 'P 21/c'
_symmetry_Int_Tables_number 14
loop_
_symmetry_equiv_pos_site_id
_symmetry_equiv_pos_as_xyz
1 x,y,z
2 -x,1/2+y,1/2-z
3 -x,-y,-z
4 x,-1/2-y,-1/2+z
_cell_length_a 5.012(1)
_cell_length_b 11.989(2)
_cell_length_c 14.375(2)
_cell_angle_alpha 90
_cell_angle_beta 93.10(2)
_cell_angle_gamma 90
_cell_formula_units_Z 4
loop_
_atom_type_symbol
_atom_type_radius_bond
C 0.68
H 0.23
N 0.68
O 0.68
loop_
_atom_site_label
_atom_site_type_symbol
_atom_site_fract_x
_atom_site_fract_y
_atom_site_fract_z
C1 C 1.0901(3) 0.0957(2) 0.6880(1)
C2 C 0.9315(3) 0.1004(1) 0.5964(1)
O1 O 0.7362(2) 0.0421(1) 0.57715(8)
N1 N 1.0217(3) 0.1754(1) 0.53266(9)
O2 O 1.2506(2) 0.2357(1) 0.55928(8)
C3 C 1.1881(3) 0.3452(1) 0.5852(1)
O3 O 0.9620(2) 0.3751(1) 0.59829(9)
N2 N 1.4102(3) 0.4044(1) 0.5944(1)
C4 C 1.4048(3) 0.5207(1) 0.6223(1)
C5 C 0.9233(3) 0.2011(1) 0.4394(1)
O4 O 1.0404(2) 0.2696(1) 0.39468(8)
N3 N 0.7038(3) 0.1451(1) 0.4095(1)
C6 C 0.5842(3) 0.1691(2) 0.3174(1)
H1 H 1.025(4) 0.033(2) 0.721(1)
H2 H 1.277(4) 0.088(2) 0.678(2)
H3 H 1.069(4) 0.164(2) 0.721(1)
H4 H 1.562(4) 0.369(2) 0.583(1)
H5 H 1.572(4) 0.555(2) 0.608(1)
H6 H 1.263(4) 0.559(2) 0.592(1)
H7 H 1.391(4) 0.529(2) 0.689(1)
H8 H 0.626(4) 0.098(2) 0.449(1)
H9 H 0.433(4) 0.119(2) 0.305(2)
H10 H 0.531(4) 0.248(2) 0.309(1)
H11 H 0.705(4) 0.154(2) 0.269(1)
#END
