
#######################################################################
#
#                 Cambridge Crystallographic Data Centre
#                                CCDC
#
#######################################################################
#
# If this CIF has been generated from an entry in the Cambridge
# Structural Database, then it will include bibliographic, chemical,
# crystal, experimental, refinement or atomic coordinate data resulting
# from the CCDC's data processing and validation procedures.
#
#######################################################################

data_CSD_CIF_JECVOC
_audit_creation_date 1990-10-01
_audit_creation_method CSD-ConQuest-V1
_database_code_CSD JECVOC
_chemical_formula_sum 'C19 H21 N1 O3'
_chemical_formula_moiety
;
C19 H21 N1 O3
;
_journal_coeditor_code "IUCr AS0254"
_journal_coden_Cambridge 591
_journal_volume 46
_journal_year 1990
_journal_page_first 640
_journal_name_full 'Acta Crystallogr.,Sect.C:Cryst.Struct.Commun. '
loop_
_publ_author_name
"Y.Inouye"
"Y.Kohno"
"H.Kakisawa"
_chemical_name_systematic
;
cis-5-(Ethoxymethyl)-2-phenyl-3-isoxazolidinyl phenyl ketone
;
_cell_volume   3316.509
_exptl_crystal_colour 'colorless'
_exptl_crystal_density_diffrn 1.25
_diffrn_ambient_temperature ?
_diffrn_special_details
;
The study was carried out at room temperature,in the range 283-303K

;
#These two values have been output from a single CSD field.
_refine_ls_R_factor_gt 0.066
_refine_ls_wR_factor_gt 0.066
_symmetry_cell_setting orthorhombic
_symmetry_space_group_name_H-M 'P b c a'
_symmetry_Int_Tables_number 61
loop_
_symmetry_equiv_pos_site_id
_symmetry_equiv_pos_as_xyz
1 x,y,z
2 1/2-x,1/2+y,z
3 x,1/2-y,1/2+z
4 1/2-x,-y,1/2+z
5 -x,-y,-z
6 -1/2+x,-1/2-y,-z
7 -x,-1/2+y,-1/2-z
8 -1/2+x,y,-1/2-z
_cell_length_a 18.213(3)
_cell_length_b 20.451(4)
_cell_length_c 8.904(2)
_cell_angle_alpha 90
_cell_angle_beta 90
_cell_angle_gamma 90
_cell_formula_units_Z 8
loop_
_atom_type_symbol
_atom_type_radius_bond
C 0.68
H 0.23
N 0.68
O 0.68
loop_
_atom_site_label
_atom_site_type_symbol
_atom_site_fract_x
_atom_site_fract_y
_atom_site_fract_z
O1 O 0.7052(2) 0.4351(2) -0.0400(4)
N1 N 0.7533(3) 0.4814(2) 0.0294(5)
C1 C 0.7092(3) 0.5058(3) 0.1562(6)
C2 C 0.6680(4) 0.4466(3) 0.2139(7)
C3 C 0.6662(3) 0.4010(3) 0.0787(7)
C4 C 0.6593(3) 0.5590(3) 0.0913(6)
O2 O 0.5935(2) 0.5513(2) 0.0861(6)
C5 C 0.6945(3) 0.6187(3) 0.0283(6)
C6 C 0.6610(4) 0.6497(3) -0.0931(7)
C7 C 0.6931(4) 0.7048(3) -0.1546(8)
C8 C 0.7572(4) 0.7296(3) -0.0962(8)
C9 C 0.7893(4) 0.7001(3) 0.0236(8)
C10 C 0.7590(4) 0.6443(3) 0.0847(7)
C11 C 0.5916(4) 0.3857(3) 0.0202(8)
O3 O 0.5971(3) 0.3390(2) -0.0941(6)
C12 C 0.5278(5) 0.3254(4) -0.1501(12)
C13 C 0.5263(5) 0.2581(4) -0.2271(11)
C14 C 0.8240(3) 0.4545(3) 0.0587(6)
C15 C 0.8739(3) 0.4897(3) 0.1443(7)
C16 C 0.9451(4) 0.4675(4) 0.1606(9)
C17 C 0.9668(4) 0.4102(4) 0.0935(9)
C18 C 0.9176(4) 0.3750(4) 0.0114(8)
C19 C 0.8463(4) 0.3965(3) -0.0074(7)
H1 H 0.744(3) 0.522(2) 0.236(5)
H2 H 0.691(3) 0.425(3) 0.301(6)
H3 H 0.619(3) 0.462(3) 0.247(6)
H4 H 0.692(2) 0.362(2) 0.101(5)
H5 H 0.616(3) 0.632(3) -0.132(6)
H6? H 0.671(3) 0.726(3) -0.231(7)
H7 H 0.778(3) 0.771(3) -0.141(6)
H8 H 0.784(3) 0.625(2) 0.171(5)
H9 H 0.566(3) 0.429(3) -0.016(7)
H10 H 0.564(3) 0.367(3) 0.109(6)
H11 H 0.49100 0.32400 -0.06100
H12 H 0.51200 0.36200 -0.22600
H13 H 0.47400 0.24800 -0.26700
H14 H 0.54200 0.22200 -0.15100
H15 H 0.56300 0.25900 -0.31600
H16 H 0.859(3) 0.529(3) 0.193(6)
H17 H 0.979(3) 0.491(3) 0.218(6)
H18 H 1.017(3) 0.397(3) 0.108(6)
H19 H 0.930(3) 0.331(3) -0.038(6)
H20 H 0.811(3) 0.372(2) -0.069(5)
#END
