
#######################################################################
#
#                 Cambridge Crystallographic Data Centre
#                                CCDC
#
#######################################################################
#
# If this CIF has been generated from an entry in the Cambridge
# Structural Database, then it will include bibliographic, chemical,
# crystal, experimental, refinement or atomic coordinate data resulting
# from the CCDC's data processing and validation procedures.
#
#######################################################################

data_CSD_CIF_JECVES
_audit_creation_date 1990-10-01
_audit_creation_method CSD-ConQuest-V1
_database_code_CSD JECVES
_chemical_formula_sum 'C9 H14 N4 O3'
_chemical_formula_moiety
;
C9 H14 N4 O3
;
_journal_coeditor_code "IUCr MU0120"
_journal_coden_Cambridge 591
_journal_volume 46
_journal_year 1990
_journal_page_first 614
_journal_name_full 'Acta Crystallogr.,Sect.C:Cryst.Struct.Commun. '
loop_
_publ_author_name
"A.R.Walton"
"T.C.Jenkins"
_chemical_name_systematic
;
1-(2-Methyl-1-aziridinyl)-3-(2-nitro-1-imidazolyl)-2-propanol
;
_chemical_name_common
;
RSU-1131
;
_chemical_melting_point 383.5
_cell_volume    562.283
_exptl_crystal_colour 'yellow'
_exptl_crystal_density_diffrn 1.334
_exptl_special_details
;
Melting point range 383.5-384K
some anticancer activity

;
_diffrn_ambient_temperature ?
_diffrn_special_details
;
The study was carried out at room temperature,in the range 283-303K

;
#These two values have been output from a single CSD field.
_refine_ls_R_factor_gt 0.051
_refine_ls_wR_factor_gt 0.051
_symmetry_cell_setting triclinic
_symmetry_space_group_name_H-M 'P -1'
_symmetry_Int_Tables_number 2
loop_
_symmetry_equiv_pos_site_id
_symmetry_equiv_pos_as_xyz
1 x,y,z
2 -x,-y,-z
_cell_length_a 7.111(2)
_cell_length_b 9.305(1)
_cell_length_c 10.395(2)
_cell_angle_alpha 62.00(1)
_cell_angle_beta 67.80(1)
_cell_angle_gamma 79.66(1)
_cell_formula_units_Z 2
loop_
_atom_type_symbol
_atom_type_radius_bond
C 0.68
H 0.23
N 0.68
O 0.68
loop_
_atom_site_label
_atom_site_type_symbol
_atom_site_fract_x
_atom_site_fract_y
_atom_site_fract_z
N1 N 0.3267(2) 0.2808(2) 0.5698(2)
C1 C 0.4763(3) 0.2824(2) 0.6198(2)
N2 N 0.4272(3) 0.3569(2) 0.7082(2)
C2 C 0.2329(4) 0.4070(3) 0.7165(3)
C3 C 0.1689(3) 0.3611(2) 0.6332(3)
N3 N 0.6738(3) 0.2110(2) 0.5808(2)
O1 O 0.7268(2) 0.1729(2) 0.4747(2)
O2 O 0.7779(3) 0.1949(3) 0.6568(2)
C4 C 0.3186(3) 0.2115(2) 0.4710(2)
C5 C 0.3991(3) 0.3311(2) 0.2997(2)
O3 O 0.2799(3) 0.4755(2) 0.2699(2)
C6 C 0.3922(4) 0.2541(3) 0.2010(3)
N4 N 0.5482(3) 0.1284(2) 0.2020(2)
C7 C 0.6252(5) 0.1053(3) 0.0605(3)
C8 C 0.7475(4) 0.1934(3) 0.0865(3)
C9 C 0.9301(4) 0.1190(4) 0.1328(3)
H1 H 0.14730 0.47140 0.77530
H2 H 0.02940 0.38190 0.62070
H3 H 0.40340 0.10960 0.48830
H4 H 0.17510 0.18380 0.49680
H5 H 0.54390 0.35780 0.27440
H6 H 0.28510 0.52780 0.33410
H7 H 0.41480 0.34090 0.09070
H8 H 0.25370 0.20560 0.24180
H9 H 0.55930 0.16300 -0.02190
H10 H 0.66910 -0.00630 0.06530
H11 H 0.81660 0.30500 0.01810
H12 H 0.99540 0.19960 0.14410
H13 H 0.88930 0.02070 0.23540
H14 H 1.03440 0.08730 0.05390
#END
