
#######################################################################
#
#                 Cambridge Crystallographic Data Centre
#                                CCDC
#
#######################################################################
#
# If this CIF has been generated from an entry in the Cambridge
# Structural Database, then it will include bibliographic, chemical,
# crystal, experimental, refinement or atomic coordinate data resulting
# from the CCDC's data processing and validation procedures.
#
#######################################################################

data_CSD_CIF_JEDTAN
_audit_creation_date 1990-10-01
_audit_creation_method CSD-ConQuest-V1
_database_code_CSD JEDTAN
_database_code_depnum_ccdc_archive 'CCDC 1183963'
_chemical_formula_sum 'C13 H11 N1 O3'
_chemical_formula_moiety
;
C13 H11 N1 O3
;
_journal_coeditor_code "IUCr HU0283"
_journal_coden_Cambridge 591
_journal_volume 46
_journal_year 1990
_journal_page_first 704
_journal_name_full 'Acta Crystallogr.,Sect.C:Cryst.Struct.Commun. '
loop_
_publ_author_name
"S.Garcia-Granda"
"E.Perez-Carreno"
"F.Gomez-Beltran"
_chemical_name_systematic
;
5-Phenyl-3,10-dioxa-4-azatricyclo(5.2.1.0^2,6^)dec-4-en-8-one
;
_cell_volume   1077.113
_exptl_crystal_colour 'colorless'
_exptl_crystal_density_diffrn 1.41
_diffrn_ambient_temperature ?
_diffrn_special_details
;
The study was carried out at room temperature,in the range 283-303K

;
#These two values have been output from a single CSD field.
_refine_ls_R_factor_gt 0.023
_refine_ls_wR_factor_gt 0.023
_symmetry_cell_setting orthorhombic
_symmetry_space_group_name_H-M 'P n a 21'
_symmetry_Int_Tables_number 33
loop_
_symmetry_equiv_pos_site_id
_symmetry_equiv_pos_as_xyz
1 x,y,z
2 1/2-x,1/2+y,1/2+z
3 1/2+x,1/2-y,z
4 -x,-y,1/2+z
_cell_length_a 5.8737(4)
_cell_length_b 17.1877(12)
_cell_length_c 10.6692(10)
_cell_angle_alpha 90
_cell_angle_beta 90
_cell_angle_gamma 90
_cell_formula_units_Z 4
loop_
_atom_type_symbol
_atom_type_radius_bond
C 0.68
H 0.23
N 0.68
O 0.68
loop_
_atom_site_label
_atom_site_type_symbol
_atom_site_fract_x
_atom_site_fract_y
_atom_site_fract_z
C1 C 0.310(1) 0.1635(3) 0.7771(7)
C2 C 0.355(1) 0.1641(3) 0.9171(6)
O1 O 0.5287(8) 0.1853(2) 0.9692(5)
C3 C 0.149(1) 0.1249(4) 0.9761(7)
C4 C 0.026(1) 0.1008(3) 0.8573(6)
O2 O 0.064(6) 0.1663(2) 0.77520
C5 C 0.154(9) 0.0363(3) 0.7916(6)
O3 O 0.032(6) 0.0051(2) 0.6850(5)
C6 C 0.358(1) 0.0804(3) 0.7344(7)
N1 N 0.137(8) 0.0297(3) 0.5727(6)
C7 C 0.316(1) 0.0693(3) 0.5972(5)
C8 C 0.4536(9) 0.1038(3) 0.4977(6)
C9 C 0.378(1) 0.1028(4) 0.3731(7)
C10 C 0.511(1) 0.1378(3) 0.2816(7)
C11 C 0.716(1) 0.1733(4) 0.3093(7)
C12 C 0.790(1) 0.1746(3) 0.4326(7)
C13 C 0.660(1) 0.1387(3) 0.5242(7)
H1 H 0.38(1) 0.215(3) 0.731(5)
H2 H -0.141(9) 0.095(2) 0.862(5)
H3 H 0.205(8) -0.010(3) 0.850(5)
H4 H 0.498(8) 0.058(3) 0.748(5)
H5 H 0.071(6) 0.170(3) 1.026(4)
H6 H 0.196(8) 0.073(3) 1.019(5)
H7 H 0.47(1) 0.136(3) 0.194(5)
H8 H 0.82(1) 0.196(3) 0.248(6)
H9 H 0.94(1) 0.194(3) 0.470(6)
H10 H 0.70(1) 0.144(4) 0.611(5)
H11? H 0.22(1) 0.081(3) 0.346(5)
#END
