
#######################################################################
#
#                 Cambridge Crystallographic Data Centre
#                                CCDC
#
#######################################################################
#
# If this CIF has been generated from an entry in the Cambridge
# Structural Database, then it will include bibliographic, chemical,
# crystal, experimental, refinement or atomic coordinate data resulting
# from the CCDC's data processing and validation procedures.
#
#######################################################################

data_CSD_CIF_JEDTIV
_audit_creation_date 1990-10-01
_audit_creation_method CSD-ConQuest-V1
_database_code_CSD JEDTIV
_chemical_formula_sum 'C20 H29 N1 O14'
_chemical_formula_moiety
;
C20 H29 N1 O14
;
_journal_coeditor_code "IUCr GE0108"
_journal_coden_Cambridge 591
_journal_volume 46
_journal_year 1990
_journal_page_first 713
_journal_name_full 'Acta Crystallogr.,Sect.C:Cryst.Struct.Commun. '
loop_
_publ_author_name
"M.Millan"
"A.Conde"
_chemical_name_systematic
;
3,4,5,6,7,8-Hexa-O-acetyl-1,2-dideoxy-2-C-nitro-D-threo-L-talo-octitol
;
_cell_volume   2538.027
_exptl_crystal_colour 'colorless'
_exptl_crystal_density_diffrn 1.328
_diffrn_ambient_temperature ?
_diffrn_special_details
;
The study was carried out at room temperature,in the range 283-303K

;
#These two values have been output from a single CSD field.
_refine_ls_R_factor_gt 0.037
_refine_ls_wR_factor_gt 0.037
_symmetry_cell_setting orthorhombic
_symmetry_space_group_name_H-M 'P 21 21 21'
_symmetry_Int_Tables_number 19
loop_
_symmetry_equiv_pos_site_id
_symmetry_equiv_pos_as_xyz
1 x,y,z
2 1/2+x,1/2-y,-z
3 -x,1/2+y,1/2-z
4 1/2-x,-y,1/2+z
_cell_length_a 12.950(3)
_cell_length_b 19.713(6)
_cell_length_c 9.942(10)
_cell_angle_alpha 90
_cell_angle_beta 90
_cell_angle_gamma 90
_cell_formula_units_Z 4
loop_
_atom_type_symbol
_atom_type_radius_bond
C 0.68
H 0.23
N 0.68
O 0.68
loop_
_atom_site_label
_atom_site_type_symbol
_atom_site_fract_x
_atom_site_fract_y
_atom_site_fract_z
C1 C 0.6783(7) 0.4475(5) -0.0329(9)
C2 C 0.5785(7) 0.4306(5) 0.0466(9)
C3 C 0.4981(8) 0.3913(5) -0.0386(9)
C4 C 0.4028(7) 0.3746(4) 0.0415(9)
C5 C 0.3143(7) 0.3444(5) -0.0477(9)
C6 C 0.2158(8) 0.3328(5) 0.0310(9)
C7 C 0.1297(8) 0.2963(5) -0.048(1)
C8 C 0.7449(8) 0.3879(5) -0.0736(10)
C9 C 0.6079(8) 0.4117(6) 0.2828(11)
C10 C 0.6244(8) 0.3537(5) 0.3809(8)
C11 C 0.4936(9) 0.4155(6) -0.2772(11)
C12 C 0.4583(8) 0.4706(6) -0.3778(9)
C13 C 0.3508(8) 0.4367(6) 0.2429(10)
C14 C 0.2999(7) 0.5004(5) 0.2873(10)
C15 C 0.3455(9) 0.2699(7) -0.2349(12)
C16 C 0.3973(8) 0.2067(7) -0.2731(12)
C17 C 0.1970(9) 0.3071(7) 0.2662(12)
C18 C 0.2358(9) 0.2574(6) 0.3676(9)
C19 C 0.0278(8) 0.3223(6) -0.2358(12)
C20 C 0.0073(9) 0.3736(6) -0.3454(11)
N1 N 0.7374(9) 0.4958(6) 0.0604(10)
O1 O 0.8063(7) 0.4706(5) 0.1274(8)
O2 O 0.7100(7) 0.5553(4) 0.0589(9)
O3 O 0.6030(5) 0.3832(3) 0.1537(6)
O4 O 0.5944(6) 0.4696(4) 0.3061(7)
O5 O 0.4695(5) 0.4386(3) -0.1470(6)
O6 O 0.5390(6) 0.3640(5) -0.2975(7)
O7 O 0.3590(5) 0.4355(3) 0.1020(6)
O8 O 0.3830(5) 0.3920(4) 0.3092(6)
O9 O 0.3568(5) 0.2828(3) -0.0998(6)
O10 O 0.2978(7) 0.3081(5) -0.3060(7)
O11 O 0.2414(5) 0.2882(3) 0.1436(6)
O12 O 0.1396(6) 0.3527(5) 0.2787(8)
O13 O 0.0992(5) 0.3452(3) -0.1499(7)
O14 O -0.0127(6) 0.2689(4) -0.2253(9)
H1 H 0.65800 0.46200 -0.13500
H2 H 0.54900 0.47700 0.08100
H3 H 0.53500 0.34400 -0.06900
H4 H 0.42800 0.33700 0.11000
H5 H 0.28700 0.38100 -0.11900
H6 H 0.18500 0.38100 0.05200
H7 H 0.15400 0.24800 -0.08800
H8 H 0.07000 0.27700 0.01500
H9 H 0.69800 0.35100 -0.13000
H10 H 0.76800 0.36200 0.01500
H11 H 0.81100 0.39400 -0.13200
H12 H 0.69700 0.32300 0.35900
H13 H 0.56600 0.31400 0.37800
H14 H 0.63300 0.36700 0.48300
H15 H 0.49400 0.51800 -0.35800
H16 H 0.37700 0.47700 -0.37100
H17 H 0.47600 0.45600 -0.47800
H18 H 0.22200 0.50600 0.24100
H19 H 0.34000 0.54600 0.25300
H20 H 0.28700 0.50800 0.39000
H21 H 0.36400 0.16200 -0.21900
H22 H 0.47700 0.20500 -0.25000
H23 H 0.39500 0.18600 -0.37700
H24 H 0.31700 0.25500 0.37600
H25 H 0.21100 0.20500 0.34300
H26 H 0.20400 0.26700 0.46400
H27 H 0.07700 0.38700 -0.39900
H28 H -0.02100 0.42100 -0.30400
H29 H -0.04700 0.35900 -0.41900
#END
