
#######################################################################
#
#                 Cambridge Crystallographic Data Centre
#                                CCDC
#
#######################################################################
#
# If this CIF has been generated from an entry in the Cambridge
# Structural Database, then it will include bibliographic, chemical,
# crystal, experimental, refinement or atomic coordinate data resulting
# from the CCDC's data processing and validation procedures.
#
#######################################################################

data_CSD_CIF_JEDVUJ
_audit_creation_date 1990-10-01
_audit_creation_method CSD-ConQuest-V1
_database_code_CSD JEDVUJ
_chemical_formula_sum 'C11 H12 N2 O3'
_chemical_formula_moiety
;
C11 H12 N2 O3
;
_journal_coeditor_code "IUCr AS0221"
_journal_coden_Cambridge 591
_journal_volume 46
_journal_year 1990
_journal_page_first 624
_journal_name_full 'Acta Crystallogr.,Sect.C:Cryst.Struct.Commun. '
loop_
_publ_author_name
"Y.Yokomori"
"A.Katoh"
"M.Akiyama"
_chemical_name_systematic
;
3-Benzyl-1-hydroxy-2,5-piperazinedione
;
_chemical_name_common
;
Cyclo(N-hydroxyglycyl-L-phenylalanyl); PEPSEQ C=2 GLY*-PHE-
;
_cell_volume   1062.172
_exptl_crystal_colour 'colorless'
_exptl_crystal_density_diffrn 1.377
_diffrn_ambient_temperature ?
_diffrn_special_details
;
The study was carried out at room temperature,in the range 283-303K

;
_refine_special_details
;
Disorder of a hydroxyl hydrogen atom.

;
#These two values have been output from a single CSD field.
_refine_ls_R_factor_gt 0.055
_refine_ls_wR_factor_gt 0.055
_symmetry_cell_setting orthorhombic
_symmetry_space_group_name_H-M 'P 21 21 21'
_symmetry_Int_Tables_number 19
loop_
_symmetry_equiv_pos_site_id
_symmetry_equiv_pos_as_xyz
1 x,y,z
2 1/2+x,1/2-y,-z
3 -x,1/2+y,1/2-z
4 1/2-x,-y,1/2+z
_cell_length_a 14.523(7)
_cell_length_b 11.622(4)
_cell_length_c 6.293(1)
_cell_angle_alpha 90
_cell_angle_beta 90
_cell_angle_gamma 90
_cell_formula_units_Z 4
loop_
_atom_type_symbol
_atom_type_radius_bond
C 0.68
H 0.23
N 0.68
O 0.68
loop_
_atom_site_label
_atom_site_type_symbol
_atom_site_fract_x
_atom_site_fract_y
_atom_site_fract_z
O1 O -0.9444(2) -0.0852(2) -0.8054(5)
O2 O -0.9853(2) -0.3873(3) -0.1705(5)
O3 O -0.9177(2) -0.4607(2) -0.5437(6)
N1 N -0.9486(2) -0.3491(2) -0.5126(5)
N2 N -0.9843(2) -0.1207(2) -0.4650(5)
C1 C -0.9344(4) -0.2766(3) -0.6908(7)
C2 C -0.9567(2) -0.1525(3) -0.6568(6)
C3 C -1.0097(3) -0.1977(3) -0.2935(6)
C4 C -0.9788(3) -0.3202(3) -0.3204(7)
C5 C -1.1155(3) -0.1929(4) -0.2567(8)
C6 C -1.1686(3) -0.2333(4) -0.4485(8)
C7 C -1.2041(3) -0.1565(4) -0.5934(10)
C8 C -1.2517(4) -0.1928(6) -0.7741(10)
C9 C -1.2646(3) -0.3082(6) -0.8062(10)
C10 C -1.2303(3) -0.3854(5) -0.6662(12)
C11 C -1.1820(3) -0.3502(4) -0.4846(9)
H1 H -0.92500 -0.54000 -0.55500
H2? H -1.06000 -0.50500 -0.70000
H3 H -0.98853 -0.03630 -0.43581
H4 H -0.86284 -0.28384 -0.73872
H5 H -0.97662 -0.30938 -0.82142
H6 H -0.97343 -0.16402 -0.15562
H7 H -1.13195 -0.24828 -0.12016
H8 H -1.13579 -0.10623 -0.21565
H9 H -1.19652 -0.06515 -0.56176
H10 H -1.27763 -0.13095 -0.88789
H11 H -1.30308 -0.33789 -0.94706
H12 H -1.23953 -0.47896 -0.69764
H13 H -1.15790 -0.41254 -0.36645
#END
