
#######################################################################
#
#                 Cambridge Crystallographic Data Centre
#                                CCDC
#
#######################################################################
#
# If this CIF has been generated from an entry in the Cambridge
# Structural Database, then it will include bibliographic, chemical,
# crystal, experimental, refinement or atomic coordinate data resulting
# from the CCDC's data processing and validation procedures.
#
#######################################################################

data_CSD_CIF_JEGBOP
_audit_creation_date 2017-10-18
_audit_creation_method CSD-ConQuest-V1
_database_code_CSD JEGBOP
_database_code_depnum_ccdc_archive 'CCDC 1508474'
_chemical_formula_sum 'C24 H19 N3 O6'
_chemical_formula_moiety
;
C24 H19 N3 O6
;
_journal_coden_Cambridge 692
_journal_volume 49
_journal_year 2017
_journal_page_first 2223
_journal_name_full 'Synthesis '
loop_
_publ_author_name
"A.Yu.Dubovtsev"
"M.V.Dmitriev"
"P.S.Silaichev"
"D.I.Antonov"
"?.N.Maslivets"
_chemical_name_systematic
;
methyl 
5-(anilino(oxo)acetyl)-6-(4-methoxyphenyl)-3-methyl[1,2]oxazolo[5,4-b]pyridine
-4-carboxylate
;
_cell_volume   2161.282
_exptl_crystal_colour 'colorless'
_exptl_crystal_density_diffrn 1.369
_exptl_crystal_description 'prism'
_diffrn_ambient_temperature 295
#These two values have been output from a single CSD field.
_refine_ls_R_factor_gt 0.0569
_refine_ls_wR_factor_gt 0.0569
_symmetry_cell_setting monoclinic
_symmetry_space_group_name_H-M 'P 21/c'
_symmetry_Int_Tables_number 14
loop_
_symmetry_equiv_pos_site_id
_symmetry_equiv_pos_as_xyz
1 x,y,z
2 -x,1/2+y,1/2-z
3 -x,-y,-z
4 x,-1/2-y,-1/2+z
_cell_length_a 13.467(3)
_cell_length_b 19.044(4)
_cell_length_c 8.644(2)
_cell_angle_alpha 90
_cell_angle_beta 102.86(2)
_cell_angle_gamma 90
_cell_formula_units_Z 4
loop_
_atom_type_symbol
_atom_type_radius_bond
C 0.68
H 0.23
N 0.68
O 0.68
loop_
_atom_site_label
_atom_site_type_symbol
_atom_site_fract_x
_atom_site_fract_y
_atom_site_fract_z
H1 H 0.2394(15) 0.7665(11) 1.087(3)
O1 O 0.13628(11) 0.68034(7) 1.14399(14)
O2 O 0.21963(10) 0.67968(7) 0.79271(14)
N1 N -0.02638(13) 0.53014(8) 0.74831(17)
C1 C 0.13094(14) 0.67070(9) 1.0048(2)
N2 N 0.26043(12) 0.75576(8) 1.00253(18)
O3 O -0.19668(11) 0.53915(8) 0.61726(16)
O4 O 0.01195(11) 0.77942(7) 0.88922(17)
C2 C 0.05248(14) 0.56328(10) 0.84464(19)
C3 C 0.04223(13) 0.63184(9) 0.90255(19)
C4 C 0.15004(15) 0.52469(9) 0.8811(2)
C5 C -0.05107(14) 0.66637(10) 0.8661(2)
C6 C 0.20995(13) 0.70246(9) 0.9210(2)
C7 C -0.13332(14) 0.63132(11) 0.7695(2)
C8 C -0.11252(15) 0.56560(11) 0.7168(2)
C9 C 0.33147(13) 0.80145(10) 0.95497(19)
C10 C 0.33403(16) 0.87048(11) 1.0034(2)
H2 H 0.29010 0.88590 1.06530
C11 C -0.06246(16) 0.74024(11) 0.9188(2)
C12 C 0.39700(14) 0.77888(11) 0.8622(2)
H3 H 0.39570 0.73230 0.82940
C13 C 0.21517(16) 0.52488(10) 1.0302(2)
H4 H 0.19790 0.55100 1.11120
C14 C 0.33215(17) 0.44838(12) 0.9425(3)
C15 C 0.30533(16) 0.48702(11) 1.0613(2)
H5 H 0.34760 0.48770 1.16230
O5 O 0.41988(13) 0.40999(10) 0.9591(2)
C16 C 0.46679(17) 0.89440(13) 0.8666(3)
H6 H 0.51190 0.92590 0.83670
N3 N -0.27557(14) 0.59077(11) 0.6033(2)
O6 O -0.12955(14) 0.75988(10) 0.9788(2)
C17 C 0.46446(16) 0.82593(13) 0.8185(3)
H7 H 0.50830 0.81080 0.75610
C18 C -0.23805(15) 0.64412(13) 0.6918(2)
C19 C 0.40189(17) 0.91662(12) 0.9599(3)
H8 H 0.40400 0.96310 0.99360
C20 C 0.17898(16) 0.48515(12) 0.7629(2)
H9 H 0.13680 0.48400 0.66190
C21 C 0.26823(18) 0.44789(13) 0.7920(3)
H10 H 0.28610 0.42220 0.71090
C22 C 0.0152(2) 0.85258(11) 0.9351(3)
H11 H -0.05300 0.87050 0.91920
H12 H 0.05210 0.87890 0.87160
H13 H 0.04850 0.85690 1.04510
C23 C -0.30397(18) 0.70618(15) 0.6971(3)
H14 H -0.37010 0.69800 0.63050
H15 H -0.27410 0.74680 0.66000
H16 H -0.31030 0.71380 0.80420
C24 C 0.4916(2) 0.41206(16) 1.1074(3)
H17 H 0.50910 0.46000 1.13550
H18 H 0.55180 0.38670 1.09900
H19 H 0.46240 0.39090 1.18770
#END
