
#######################################################################
#
#                 Cambridge Crystallographic Data Centre
#                                CCDC
#
#######################################################################
#
# If this CIF has been generated from an entry in the Cambridge
# Structural Database, then it will include bibliographic, chemical,
# crystal, experimental, refinement or atomic coordinate data resulting
# from the CCDC's data processing and validation procedures.
#
#######################################################################

data_CSD_CIF_JEGPAN
_audit_creation_date 2006-08-22
_audit_creation_method CSD-ConQuest-V1
_database_code_CSD JEGPAN
_database_code_depnum_ccdc_archive 'CCDC 298951'
_chemical_formula_sum 'C26 H16 N8 O8'
_chemical_formula_moiety
;
C26 H16 N8 O8
;
_journal_coden_Cambridge 702
_journal_volume 22
_journal_year 2006
_journal_page_first 817
_journal_name_full 'Wuji Huaxue Xuebao(Chin.)(Chin.J.Inorg.Chem.) '
loop_
_publ_author_name
"Sheng-Ju Ou"
"Bing-Guang Zhang"
"Hai-Ping Liao"
"Zhi-Ping Bai"
_chemical_name_systematic
;
bis((2,4-Dinitrophenyl)hydrazone)benzil
;
_cell_volume   2614.786
_exptl_crystal_density_diffrn 1.444
_exptl_special_details
;
The b and c cell values are transposed in the paper

;
_diffrn_ambient_temperature 293
_refine_special_details
;
A benzene ring is disordered.

;
#These two values have been output from a single CSD field.
_refine_ls_R_factor_gt 0.0594
_refine_ls_wR_factor_gt 0.0594
_symmetry_cell_setting orthorhombic
_symmetry_space_group_name_H-M 'P n a m'
_symmetry_Int_Tables_number 62
loop_
_symmetry_equiv_pos_site_id
_symmetry_equiv_pos_as_xyz
1 x,y,z
2 1/2-x,1/2+y,-z
3 1/2+x,1/2-y,1/2-z
4 -x,-y,1/2+z
5 -x,-y,-z
6 -1/2+x,-1/2-y,z
7 -1/2-x,-1/2+y,-1/2+z
8 x,y,-1/2-z
_cell_length_a 19.685(5)
_cell_length_b 19.781(5)
_cell_length_c 6.7151(15)
_cell_angle_alpha 90
_cell_angle_beta 90
_cell_angle_gamma 90
_cell_formula_units_Z 4
loop_
_atom_type_symbol
_atom_type_radius_bond
C 0.68
H 0.23
N 0.68
O 0.68
loop_
_atom_site_label
_atom_site_type_symbol
_atom_site_fract_x
_atom_site_fract_y
_atom_site_fract_z
O1 O 0.38973(7) 0.43564(8) 0.25000
O2 O 0.37981(8) 0.32936(8) 0.25000
O3 O 0.17320(8) 0.21646(9) 0.25000
O4 O 0.07833(8) 0.27095(9) 0.25000
O5 O 0.17962(7) 0.89666(8) 0.25000
O6 O 0.20555(9) 1.00201(8) 0.25000
O7 O 0.43619(18) 1.08261(14) 0.25000
O8 O 0.51511(14) 1.00769(15) 0.25000
O9? O 0.4276(2) 1.0700(2) 0.1575(9)
O10? O 0.51254(16) 1.0091(3) 0.1942(14)
N1 N 0.35551(9) 0.38513(10) 0.25000
N2 N 0.14009(10) 0.26853(10) 0.25000
N3 N 0.28492(9) 0.51149(9) 0.25000
N4 N 0.25124(8) 0.57254(10) 0.25000
N5 N 0.30079(8) 0.74136(10) 0.25000
N6 N 0.27088(8) 0.80413(9) 0.25000
N7 N 0.22126(9) 0.94334(10) 0.25000
N8 N 0.45401(11) 1.02247(12) 0.25000
C1 C 0.24837(11) 0.45440(11) 0.25000
C2 C 0.28136(10) 0.39193(11) 0.25000
C3 C 0.24637(11) 0.33148(12) 0.25000
H1 H 0.26970 0.29060 0.25000
C4 C 0.17720(12) 0.33244(11) 0.25000
C5 C 0.14204(11) 0.39245(12) 0.25000
H2 H 0.09480 0.39220 0.25000
C6 C 0.17628(10) 0.45260(13) 0.25000
H3 H 0.15200 0.49290 0.25000
C7 C 0.29033(11) 0.62387(12) 0.25000
C8 C 0.36719(11) 0.61656(12) 0.25000
C9 C 0.39989(8) 0.61138(9) 0.0747(3)
H4 H 0.37650 0.61670 -0.04460
C10 C 0.46984(8) 0.59775(10) 0.0749(3)
H5 H 0.49330 0.59240 -0.04440
C11 C 0.50251(14) 0.59251(14) 0.25000
H6 H 0.54920 0.58500 0.25000
C12 C 0.26003(10) 0.69082(12) 0.25000
C13 C 0.18458(10) 0.69776(12) 0.25000
C14 C 0.14853(12) 0.70324(18) 0.0758(4)
H7 H 0.17110 0.69670 -0.04430
C15 C 0.08035(12) 0.71794(17) 0.0720(5)
H8 H 0.05580 0.71770 -0.04620
C16 C 0.05038(17) 0.7329(2) 0.25000
H9 H 0.00820 0.75400 0.25000
C17? C 0.1621(3) 0.6798(4) 0.0176(12)
H10? H 0.19460 0.66390 -0.07820
C18? C 0.0926(3) 0.6919(4) -0.0440(12)
H11? H 0.07160 0.67760 -0.16600
C19? C 0.0491(3) 0.7239(4) 0.1235(11)
H12? H 0.00460 0.74000 0.08960
C20? C 0.0784(2) 0.7440(3) 0.3116(12)
H13? H 0.04750 0.75850 0.41350
C21? C 0.1440(3) 0.7310(3) 0.3499(11)
H14? H 0.16190 0.75030 0.46990
C22 C 0.31432(10) 0.85722(12) 0.25000
C23 C 0.29281(11) 0.92448(12) 0.25000
C24 C 0.33791(11) 0.97823(13) 0.25000
H15 H 0.32210 1.02250 0.25000
C25 C 0.40634(12) 0.96496(13) 0.25000
C26 C 0.42949(12) 0.90036(12) 0.25000
H16 H 0.47600 0.89240 0.25000
C27 C 0.38578(11) 0.84712(12) 0.25000
H17 H 0.40300 0.80330 0.25000
C9G C 0.39989(8) 0.61138(9) 0.4253(3)
H4G H 0.37650 0.61670 0.54460
C10G C 0.46984(8) 0.59775(10) 0.4251(3)
H5G H 0.49330 0.59240 0.54440
C14G C 0.14853(12) 0.70324(18) 0.4242(4)
H7G H 0.17110 0.69670 0.54430
C15G C 0.08035(12) 0.71794(17) 0.4280(5)
H8G H 0.05580 0.71770 0.54620
#END
