
#######################################################################
#
#                 Cambridge Crystallographic Data Centre
#                                CCDC
#
#######################################################################
#
# If this CIF has been generated from an entry in the Cambridge
# Structural Database, then it will include bibliographic, chemical,
# crystal, experimental, refinement or atomic coordinate data resulting
# from the CCDC's data processing and validation procedures.
#
#######################################################################

data_CSD_CIF_JEGTEX
_audit_creation_date 2017-10-19
_audit_creation_method CSD-ConQuest-V1
_database_code_CSD JEGTEX
_database_code_depnum_ccdc_archive 'CCDC 1572633'
_chemical_formula_sum 'C19 H17 N3 O4'
_chemical_formula_moiety
;
C19 H17 N3 O4
;
_journal_coden_Cambridge 177
_journal_volume 15
_journal_year 2017
_journal_page_first 9108
_journal_name_full 'Org.Biomol.Chem. '
loop_
_publ_author_name
"Jyoti Chauhan"
"T.Luthra"
"R.Gundla"
"A.Ferraro"
"U.Holzgrabe"
"S.Sen"
_chemical_name_systematic
;
methyl 
1-(2-nitrophenyl)-2,3,4,9-tetrahydro-1H-pyrido[3,4-b]indole-3-carboxylate
;
_chemical_name_common
;
methyl 1-(2-nitrophenyl)-2,3,4,9-tetrahydro-1H-beta-carboline-3-carboxylate
;
_cell_volume   1730.770
_exptl_crystal_colour 'yellow'
_exptl_crystal_density_diffrn 1.348
_exptl_crystal_description 'block'
_diffrn_ambient_temperature 295
#These two values have been output from a single CSD field.
_refine_ls_R_factor_gt 0.0483
_refine_ls_wR_factor_gt 0.0483
_symmetry_cell_setting orthorhombic
_symmetry_space_group_name_H-M 'P 21 21 21'
_symmetry_Int_Tables_number 19
loop_
_symmetry_equiv_pos_site_id
_symmetry_equiv_pos_as_xyz
1 x,y,z
2 1/2-x,-y,1/2+z
3 -x,1/2+y,1/2-z
4 1/2+x,1/2-y,-z
_cell_length_a 8.962(3)
_cell_length_b 9.634(5)
_cell_length_c 20.046(11)
_cell_angle_alpha 90
_cell_angle_beta 90
_cell_angle_gamma 90
_cell_formula_units_Z 4
loop_
_atom_type_symbol
_atom_type_radius_bond
C 0.68
H 0.23
N 0.68
O 0.68
loop_
_atom_site_label
_atom_site_type_symbol
_atom_site_fract_x
_atom_site_fract_y
_atom_site_fract_z
O1 O 0.9702(3) 0.5631(4) 0.74442(19)
N1 N 0.2863(3) 0.6790(3) 0.76642(17)
H1 H 0.21990 0.66700 0.73600
N2 N 0.6696(3) 0.5861(3) 0.71081(18)
H2 H 0.73300 0.61430 0.68160
O2 O 0.2250(4) 0.4885(4) 0.6510(2)
O3 O 0.9091(3) 0.4188(4) 0.8260(2)
N3 N 0.2717(4) 0.5201(4) 0.5959(2)
C1 C 0.4732(4) 0.6747(4) 0.6390(2)
C2 C 0.3997(4) 0.7376(4) 0.8618(2)
C3 C 0.3694(4) 0.6426(5) 0.5900(2)
O4 O 0.2417(5) 0.4561(4) 0.5450(2)
C4 C 0.5072(4) 0.5853(4) 0.6994(2)
H3 H 0.47200 0.49020 0.69190
C5 C 0.5081(4) 0.6786(4) 0.8177(2)
C6 C 0.8790(4) 0.5092(4) 0.7786(2)
C7 C 0.4357(4) 0.6451(4) 0.7608(2)
C8 C 0.2613(4) 0.7348(4) 0.8280(2)
C9 C 0.5519(4) 0.7976(4) 0.6300(2)
H4 H 0.62200 0.82390 0.66180
C10 C 0.1298(4) 0.7829(4) 0.8569(2)
H5 H 0.03920 0.77980 0.83420
C11 C 0.7122(4) 0.5349(4) 0.7759(2)
H6 H 0.65900 0.44810 0.78510
C12 C 0.6699(4) 0.6432(5) 0.8283(2)
H7 H 0.68480 0.60610 0.87280
H8 H 0.73130 0.72550 0.82330
C13 C 0.1406(5) 0.8349(5) 0.9202(2)
H9 H 0.05480 0.86790 0.94090
C14 C 0.4048(5) 0.7924(5) 0.9262(2)
H10 H 0.49440 0.79660 0.94960
C15 C 0.2744(6) 0.8402(5) 0.9546(2)
H11 H 0.27630 0.87660 0.99760
C16 C 0.5288(5) 0.8826(5) 0.5748(3)
H12 H 0.58140 0.96540 0.57060
C17 C 0.3478(6) 0.7242(6) 0.5345(3)
H13 H 0.27870 0.69820 0.50230
C18 C 0.4291(6) 0.8446(6) 0.5269(3)
H14 H 0.41590 0.89960 0.48930
C19 C 1.0646(5) 0.3856(6) 0.8377(4)
H15 H 1.10960 0.35540 0.79670
H16 H 1.07160 0.31270 0.87020
H17 H 1.11570 0.46640 0.85380
#END
