
#######################################################################
#
#                 Cambridge Crystallographic Data Centre
#                                CCDC
#
#######################################################################
#
# If this CIF has been generated from an entry in the Cambridge
# Structural Database, then it will include bibliographic, chemical,
# crystal, experimental, refinement or atomic coordinate data resulting
# from the CCDC's data processing and validation procedures.
#
#######################################################################

data_CSD_CIF_JEGTAT
_audit_creation_date 2017-10-19
_audit_creation_method CSD-ConQuest-V1
_database_code_CSD JEGTAT
_database_code_depnum_ccdc_archive 'CCDC 1572513'
_chemical_formula_sum 'C27 H22 N4 O5'
_chemical_formula_moiety
;
C27 H22 N4 O5
;
_journal_coden_Cambridge 177
_journal_volume 15
_journal_year 2017
_journal_page_first 9108
_journal_name_full 'Org.Biomol.Chem. '
loop_
_publ_author_name
"Jyoti Chauhan"
"T.Luthra"
"R.Gundla"
"A.Ferraro"
"U.Holzgrabe"
"S.Sen"
_chemical_name_systematic
;
1-benzyl-3-((2-(2-nitrobenzene-1-carbonyl)-1H-indol-3-yl)methyl)piperazine-2,5
-dione
;
_chemical_name_common
;
1-benzyl-3-((2-(2-nitrobenzoyl)-1H-indol-3-yl)methyl)piperazine-2,5-dione
;
_cell_volume   1167.545
_exptl_crystal_colour 'yellow'
_exptl_crystal_density_diffrn 1.372
_exptl_crystal_description 'Plate'
_diffrn_ambient_temperature 296
#These two values have been output from a single CSD field.
_refine_ls_R_factor_gt 0.0652
_refine_ls_wR_factor_gt 0.0652
_symmetry_cell_setting monoclinic
_symmetry_space_group_name_H-M 'P 21'
_symmetry_Int_Tables_number 4
loop_
_symmetry_equiv_pos_site_id
_symmetry_equiv_pos_as_xyz
1 x,y,z
2 -x,1/2+y,-z
_cell_length_a 13.2852(18)
_cell_length_b 6.7684(10)
_cell_length_c 14.0755(19)
_cell_angle_alpha 90
_cell_angle_beta 112.709(4)
_cell_angle_gamma 90
_cell_formula_units_Z 2
loop_
_atom_type_symbol
_atom_type_radius_bond
C 0.68
H 0.23
N 0.68
O 0.68
loop_
_atom_site_label
_atom_site_type_symbol
_atom_site_fract_x
_atom_site_fract_y
_atom_site_fract_z
O1 O 0.1720(4) 0.6624(9) 0.4419(3)
O2 O 0.2037(4) 0.9281(8) 0.8489(4)
N1 N 0.4244(5) 0.5487(11) 0.4028(5)
O3 O 0.4177(5) 0.6872(9) 0.4542(4)
O4 O 0.0643(5) 0.3281(9) 0.5800(4)
N2 N 0.1784(5) 0.5992(9) 0.8202(4)
N3 N 0.3959(4) 0.4322(9) 0.6474(4)
H1 H 0.41030 0.32720 0.62070
N4 N 0.0771(4) 0.6593(10) 0.6112(4)
H2 H 0.02640 0.68420 0.55220
C1 C 0.1747(6) 0.7862(12) 0.7882(5)
O5 O 0.4928(6) 0.5422(10) 0.3641(6)
C2 C 0.3136(5) 0.5690(11) 0.5969(5)
C3 C 0.3149(6) 0.7175(10) 0.6653(5)
C4 C 0.1366(6) 0.8256(11) 0.6733(5)
H3 H 0.08690 0.93900 0.65700
C5 C 0.1456(6) 0.5769(12) 0.9849(5)
C6 C 0.2706(6) 0.3837(11) 0.4266(5)
C7 C 0.3481(6) 0.3818(11) 0.3841(5)
C8 C 0.4500(6) 0.4953(11) 0.7479(5)
C9 C 0.0357(6) 0.5944(12) 0.9339(6)
H4 H 0.00620 0.60410 0.86250
C10 C 0.4037(5) 0.6715(12) 0.7610(5)
C11 C 0.2355(6) 0.8830(11) 0.6469(5)
H5 H 0.20980 0.92220 0.57510
H6 H 0.27220 0.99560 0.68850
C12 C 0.2486(6) 0.5519(12) 0.4872(5)
C13 C 0.1996(7) 0.2236(12) 0.4050(6)
H7 H 0.14690 0.21940 0.43330
C14 C 0.1880(7) 0.5649(13) 1.0918(5)
H8 H 0.26280 0.55000 1.12750
C15 C 0.2245(6) 0.5564(14) 0.9313(5)
H9 H 0.28560 0.64470 0.96430
H10 H 0.25270 0.42260 0.94120
C16 C 0.0962(6) 0.4721(14) 0.6399(6)
C17 C 0.4478(6) 0.7700(14) 0.8573(5)
H11 H 0.41740 0.88700 0.86860
C18 C 0.3552(7) 0.2312(12) 0.3197(6)
H12 H 0.40730 0.23480 0.29060
C19 C 0.5416(6) 0.4110(15) 0.8262(6)
H13 H 0.57320 0.29450 0.81620
C20 C -0.0323(7) 0.5980(12) 0.9869(7)
H14 H -0.10740 0.60700 0.95090
C21 C 0.5369(7) 0.6866(18) 0.9333(6)
H15 H 0.56810 0.75000 0.99660
C22 C 0.2823(8) 0.0758(14) 0.3003(6)
H16 H 0.28570 -0.02690 0.25780
C23 C 0.2057(7) 0.0707(14) 0.3423(6)
H17 H 0.15770 -0.03530 0.32900
C24 C 0.1568(7) 0.4295(12) 0.7523(5)
H18 H 0.11510 0.33420 0.77360
H19 H 0.22590 0.36840 0.76130
C25 C 0.0106(9) 0.5884(13) 1.0943(7)
H20 H -0.03520 0.59130 1.13030
C26 C 0.5813(7) 0.5109(19) 0.9180(7)
H21 H 0.64050 0.45810 0.97220
C27 C 0.1211(9) 0.5747(15) 1.1455(6)
H22 H 0.15110 0.57200 1.21710
#END
