
#######################################################################
#
#                 Cambridge Crystallographic Data Centre
#                                CCDC
#
#######################################################################
#
# If this CIF has been generated from an entry in the Cambridge
# Structural Database, then it will include bibliographic, chemical,
# crystal, experimental, refinement or atomic coordinate data resulting
# from the CCDC's data processing and validation procedures.
#
#######################################################################

data_CSD_CIF_JEGVOJ
_audit_creation_date 2017-10-19
_audit_creation_method CSD-ConQuest-V1
_database_code_CSD JEGVOJ
_database_code_depnum_ccdc_archive 'CCDC 1580877'
_chemical_formula_sum 'C19 H23 N3 O6'
_chemical_formula_moiety
;
C19 H23 N3 O6
;
_journal_coden_Cambridge 4
_journal_volume 139
_journal_year 2017
_journal_page_first 13110
_journal_name_full 'J.Am.Chem.Soc. '
loop_
_publ_author_name
"Kun Shen"
"Qiu Wang"
_chemical_name_systematic
;
t-butyl 
{[4-(1,3-dioxo-1,3-dihydro-2H-isoindol-2-yl)-1-methoxy-5-oxopyrrolidin-2-yl]me
thyl}carbamate
;
_cell_volume   1912.717
_exptl_crystal_colour 'colorless'
_exptl_crystal_density_diffrn 1.352
_exptl_crystal_description 'block'
_diffrn_ambient_temperature 100
#These two values have been output from a single CSD field.
_refine_ls_R_factor_gt 0.0431
_refine_ls_wR_factor_gt 0.0431
_symmetry_cell_setting monoclinic
_symmetry_space_group_name_H-M 'P 21/c'
_symmetry_Int_Tables_number 14
loop_
_symmetry_equiv_pos_site_id
_symmetry_equiv_pos_as_xyz
1 x,y,z
2 -x,1/2+y,1/2-z
3 -x,-y,-z
4 x,-1/2-y,-1/2+z
_cell_length_a 14.2012(8)
_cell_length_b 10.1164(5)
_cell_length_c 13.3572(7)
_cell_angle_alpha 90
_cell_angle_beta 94.624(3)
_cell_angle_gamma 90
_cell_formula_units_Z 4
loop_
_atom_type_symbol
_atom_type_radius_bond
C 0.68
H 0.23
N 0.68
O 0.68
loop_
_atom_site_label
_atom_site_type_symbol
_atom_site_fract_x
_atom_site_fract_y
_atom_site_fract_z
O1 O 0.45335(8) 0.36717(12) 0.15619(9)
O2 O 0.56905(8) 0.57912(12) 0.10914(9)
O3 O 0.22052(8) 0.80673(13) -0.02179(10)
O4 O 0.22896(8) 0.64013(12) -0.13604(9)
O5 O 0.14023(8) 0.43140(12) 0.20738(9)
O6 O 0.43492(8) 0.49342(12) 0.36627(9)
N1 N 0.47623(9) 0.58963(14) 0.13396(11)
N2 N 0.35691(10) 0.69526(15) -0.03932(11)
H1 H 0.3831(14) 0.634(2) -0.0724(15)
N3 N 0.29588(9) 0.47231(14) 0.26445(10)
C1 C 0.42663(11) 0.48229(17) 0.15476(12)
C2 C 0.32828(11) 0.53399(17) 0.17530(12)
H2 H 0.28270 0.51330 0.11640
C3 C 0.34011(12) 0.68453(17) 0.18410(13)
H3 H 0.34560 0.71180 0.25550
H4 H 0.28510 0.73020 0.14930
C4 C 0.43094(12) 0.71876(16) 0.13438(12)
H5 H 0.47040 0.78030 0.17870
C5 C 0.41633(12) 0.77684(17) 0.02938(12)
H6 H 0.38720 0.86540 0.03350
H7 H 0.47860 0.78830 0.00210
C6 C 0.63118(13) 0.5970(2) 0.19965(15)
H8 H 0.69690 0.59970 0.18230
H9 H 0.62300 0.52320 0.24570
H10 H 0.61570 0.68020 0.23220
C7 C 0.26437(12) 0.72189(17) -0.06162(13)
C8 C 0.12557(11) 0.63098(18) -0.15939(14)
C9 C 0.08552(13) 0.76157(18) -0.19938(15)
H11 H 0.11950 0.78960 -0.25680
H12 H 0.09290 0.82870 -0.14640
H13 H 0.01830 0.75070 -0.22070
C10 C 0.08007(13) 0.5847(2) -0.06739(15)
H14 H 0.08400 0.65490 -0.01670
H15 H 0.11310 0.50590 -0.04000
H16 H 0.01360 0.56310 -0.08570
C11 C 0.11694(13) 0.5267(2) -0.24150(16)
H17 H 0.14320 0.44300 -0.21500
H18 H 0.15180 0.55550 -0.29800
H19 H 0.05020 0.51440 -0.26440
C12 C 0.20361(12) 0.42863(17) 0.27380(13)
C13 C 0.20239(12) 0.37923(16) 0.37854(13)
C14 C 0.12976(13) 0.32623(18) 0.42778(13)
H20 H 0.06820 0.31650 0.39520
C15 C 0.15001(13) 0.28740(19) 0.52703(14)
H21 H 0.10150 0.25060 0.56330
C16 C 0.24073(13) 0.30185(18) 0.57403(13)
H22 H 0.25290 0.27340 0.64160
C17 C 0.31348(13) 0.35642(17) 0.52488(13)
H23 H 0.37500 0.36680 0.55740
C18 C 0.29259(12) 0.39520(16) 0.42642(13)
C19 C 0.35303(12) 0.45841(16) 0.35472(12)
#END
