
#######################################################################
#
#                 Cambridge Crystallographic Data Centre
#                                CCDC
#
#######################################################################
#
# If this CIF has been generated from an entry in the Cambridge
# Structural Database, then it will include bibliographic, chemical,
# crystal, experimental, refinement or atomic coordinate data resulting
# from the CCDC's data processing and validation procedures.
#
#######################################################################

data_CSD_CIF_JEHDEF
_audit_creation_date 1990-12-10
_audit_creation_method CSD-ConQuest-V1
_database_code_CSD JEHDEF
_chemical_formula_sum 'C14 H17 N1 O5'
_chemical_formula_moiety
;
C14 H17 N1 O5
;
_journal_coden_Cambridge 10
_journal_volume 72
_journal_year 1989
_journal_page_first 1107
_journal_name_full 'Helv.Chim.Acta '
loop_
_publ_author_name
"P.Sandmeier"
"C.Tamm"
_chemical_name_systematic
;
(4R*,5S*,6R*,10R*)-4,6-Dihydroxy-2-methoxy-3-methylidene-10-((E)-prop-1-enyl)-
2-azaspiro(4,5)dec-8-en-1,7-dione
;
_chemical_name_common
;
Spirostaphylotrichin K
;
_chemical_melting_point 473.15
_cell_volume    707.946
_exptl_special_details
;
Melting point range 473.15-478.15K

;
_diffrn_ambient_temperature ?
_diffrn_special_details
;
The study was carried out at room temperature,in the range 283-303K

;
#These two values have been output from a single CSD field.
_refine_ls_R_factor_gt 0.087
_refine_ls_wR_factor_gt 0.087
_symmetry_cell_setting monoclinic
_symmetry_space_group_name_H-M 'P 21'
_symmetry_Int_Tables_number 4
loop_
_symmetry_equiv_pos_site_id
_symmetry_equiv_pos_as_xyz
1 x,y,z
2 -x,1/2+y,-z
_cell_length_a 8.068(2)
_cell_length_b 9.034(4)
_cell_length_c 9.717(3)
_cell_angle_alpha 90
_cell_angle_beta 91.64(2)
_cell_angle_gamma 90
_cell_formula_units_Z 2
loop_
_atom_type_symbol
_atom_type_radius_bond
C 0.68
H 0.23
N 0.68
O 0.68
loop_
_atom_site_label
_atom_site_type_symbol
_atom_site_fract_x
_atom_site_fract_y
_atom_site_fract_z
C1 C 0.3140(13) 0.19930 0.3822(12)
N1 N 0.3641(14) 0.2123(17) 0.2549(11)
C2 C 0.3767(16) 0.3582(18) 0.2046(14)
C3 C 0.3707(15) 0.4532(17) 0.3290(13)
H1 H 0.4933(15) 0.4871(17) 0.3634(13)
C4 C 0.2825(14) 0.3537(17) 0.4375(11)
C5 C 0.0941(15) 0.3848(19) 0.4409(15)
H2 H 0.0771(15) 0.5031(19) 0.4487(15)
C6 C 0.0188(18) 0.3234(21) 0.5678(15)
H3 H -0.1150(18) 0.3234(21) 0.5687(15)
C7 C 0.0954(19) 0.2688(21) 0.6792(16)
H4 H 0.0250(19) 0.2258(21) 0.7632(16)
C8 C 0.2791(20) 0.2678(18) 0.6869(14)
C9 C 0.3690(17) 0.3683(17) 0.5814(14)
H5 H 0.3620(17) 0.4832(17) 0.6111(14)
C10 C 0.3976(19) 0.3984(23) 0.0751(14)
H6 H 0.2985(19) 0.4356(23) 0.0065(14)
H7 H 0.5155(19) 0.4294(23) 0.0338(14)
C11 C 0.0074(16) 0.3453(22) 0.3109(16)
H8 H 0.0312(16) 0.4170(22) 0.2247(16)
C12 C -0.0919(21) 0.2383(23) 0.2856(20)
H9 H -0.1240(21) 0.1698(23) 0.372(2)
C13 C -0.1690(22) 0.1976(30) 0.1484(22)
H10 H -0.2394(22) 0.0986(30) 0.1683(22)
H11 H -0.0868(22) 0.1775(30) 0.0646(22)
H12 H -0.2528(22) 0.2868(30) 0.1210(22)
O1 O 0.2940(11) 0.0836(14) 0.4479(9)
O2 O 0.4040(11) 0.0897(16) 0.1769(10)
C14 C 0.2552(24) 0.0245(25) 0.1144(18)
H13 H 0.2911(24) -0.0787(25) 0.0676(18)
H14 H 0.2202(24) 0.1030(25) 0.0349(18)
H15 H 0.1513(24) 0.0056(25) 0.1797(18)
O3 O 0.2904(11) 0.5907(16) 0.3066(10)
O4 O 0.3577(14) 0.2036(19) 0.7715(11)
O5 O 0.5343(10) 0.3281(15) 0.5798(9)
H16 H 0.602(17) 0.401(18) 0.594(13)
#END
