
#######################################################################
#
#                 Cambridge Crystallographic Data Centre
#                                CCDC
#
#######################################################################
#
# If this CIF has been generated from an entry in the Cambridge
# Structural Database, then it will include bibliographic, chemical,
# crystal, experimental, refinement or atomic coordinate data resulting
# from the CCDC's data processing and validation procedures.
#
#######################################################################

data_CSD_CIF_JEJWEA
_audit_creation_date 1991-01-07
_audit_creation_method CSD-ConQuest-V1
_database_code_CSD JEJWEA
_chemical_formula_sum 'C27 H26 N4 O5'
_chemical_formula_moiety
;
C27 H26 N4 O5
;
_journal_coden_Cambridge 188
_journal_year 1990
_journal_page_first 679
_journal_name_full 'J.Chem.Soc.,Perkin Trans.2 '
loop_
_publ_author_name
"P.D.Croce"
"C.La Rosa"
"R.Destro"
_chemical_name_systematic
;
2,3'-Diphenyl-3-p-nitrophenyl-5'-morpholinospiro(isoxazolidine-5,4'-isoxazolin
e)
;
_chemical_melting_point 460.15
_cell_volume   2448.546
_exptl_crystal_density_diffrn 1.32
_exptl_special_details
;
Melting point range 460.15-461.15K

;
_diffrn_ambient_temperature ?
_diffrn_special_details
;
The study was carried out at room temperature,in the range 283-303K

;
#These two values have been output from a single CSD field.
_refine_ls_R_factor_gt 0.034
_refine_ls_wR_factor_gt 0.034
_symmetry_cell_setting monoclinic
_symmetry_space_group_name_H-M 'P 21/n'
_symmetry_Int_Tables_number 14
loop_
_symmetry_equiv_pos_site_id
_symmetry_equiv_pos_as_xyz
1 x,y,z
2 1/2-x,1/2+y,1/2-z
3 -x,-y,-z
4 -1/2+x,-1/2-y,-1/2+z
_cell_length_a 15.106(2)
_cell_length_b 10.920(2)
_cell_length_c 15.226(2)
_cell_angle_alpha 90
_cell_angle_beta 102.87(1)
_cell_angle_gamma 90
_cell_formula_units_Z 4
loop_
_atom_type_symbol
_atom_type_radius_bond
C 0.68
H 0.23
N 0.68
O 0.68
loop_
_atom_site_label
_atom_site_type_symbol
_atom_site_fract_x
_atom_site_fract_y
_atom_site_fract_z
O1 O 0.23299(6) 0.08114(9) 0.82192(6)
O2 O 0.15215(7) 0.0132(1) 0.62161(7)
O3 O -0.09919(8) 0.2541(1) 0.50060(9)
O4 O -0.25690(9) 0.3579(2) 0.8653(1)
O5 O -0.2023(1) 0.5378(2) 0.8818(1)
N1 N 0.17405(7) 0.1165(1) 0.88186(8)
N2 N 0.23750(8) 0.0616(1) 0.61807(9)
N3 N 0.04084(7) 0.1617(1) 0.64145(8)
N4 N -0.1941(1) 0.4287(2) 0.8751(1)
C1 C 0.1623(1) 0.2504(2) 0.8715(1)
C2 C 0.1821(1) 0.2775(2) 0.7787(1)
C3 C 0.19696(9) 0.1512(1) 0.74207(9)
C4 C 0.1136(1) 0.0860(2) 0.6857(1)
C5 C 0.26376(9) 0.1380(1) 0.6825(1)
C6 C 0.0679(1) 0.2915(2) 0.8768(1)
C7 C -0.0053(1) 0.2132(2) 0.8667(1)
C8 C -0.0911(1) 0.2577(2) 0.8666(1)
C9 C -0.1026(1) 0.3801(2) 0.8762(1)
C10 C -0.0316(1) 0.4593(2) 0.8870(2)
C11 C 0.0536(1) 0.4136(2) 0.8881(1)
C12 C 0.21284(9) 0.0704(2) 0.9691(1)
C13 C 0.2670(1) -0.0325(2) 0.9799(1)
C14 C 0.3023(1) -0.0793(2) 1.0641(1)
C15 C 0.2834(1) -0.0265(2) 1.1388(1)
C16 C 0.2291(1) 0.0752(2) 1.1291(1)
C17 C 0.1936(1) 0.1243(2) 1.0448(1)
C18 C 0.35153(9) 0.2011(1) 0.6928(1)
C19 C 0.3823(1) 0.2376(2) 0.6179(1)
C20 C 0.4655(1) 0.2939(2) 0.6280(2)
C21 C 0.5187(1) 0.3148(2) 0.7119(2)
C22 C 0.4885(1) 0.2798(2) 0.7859(2)
C23 C 0.4054(1) 0.2242(2) 0.7772(1)
C24 C -0.0437(1) 0.0932(2) 0.6077(1)
C25 C -0.1195(1) 0.1807(3) 0.5703(2)
C26 C -0.0196(2) 0.3217(2) 0.5347(2)
C27 C 0.0603(1) 0.2384(2) 0.5698(1)
H1 H 0.2065(9) 0.294(1) 0.9171(9)
H2 H 0.237(1) 0.329(1) 0.7863(9)
H3 H 0.131(1) 0.320(1) 0.739(1)
H4 H 0.0912(9) 0.026(1) 0.7236(9)
H5 H 0.003(1) 0.128(2) 0.859(1)
H6 H -0.138(1) 0.204(2) 0.859(1)
H7 H -0.044(1) 0.541(2) 0.890(1)
H8 H 0.102(1) 0.470(2) 0.893(1)
H9 H 0.278(1) -0.0710(2) 0.928(1)
H10 H 0.337(1) -0.153(2) 1.071(1)
H11 H 0.308(1) -0.062(2) 1.197(1)
H12 H 0.217(1) 0.118(2) 1.179(1)
H13 H 0.158(1) 0.197(1) 1.039(1)
H14 H 0.343(1) 0.225(1) 0.561(1)
H15 H 0.485(1) 0.320(2) 0.576(1)
H16 H 0.577(1) 0.357(2) 0.718(1)
H17 H 0.524(1) 0.293(2) 0.846(1)
H18 H 0.386(1) 0.201(1) 0.828(1)
H19 H -0.058(1) 0.050(1) 0.661(1)
H20 H -0.037(1) 0.033(2) 0.561(1)
H21 H -0.176(1) 0.137(2) 0.544(1)
H22 H -0.128(1) 0.235(2) 0.625(1)
H23 H -0.026(1) 0.377(2) 0.585(1)
H24 H -0.008(1) 0.371(2) 0.487(1)
H25 H 0.073(1) 0.186(1) 0.519(1)
H26 H 0.118(1) 0.287(1) 0.5951(9)
#END
