
#######################################################################
#
#                 Cambridge Crystallographic Data Centre
#                                CCDC
#
#######################################################################
#
# If this CIF has been generated from an entry in the Cambridge
# Structural Database, then it will include bibliographic, chemical,
# crystal, experimental, refinement or atomic coordinate data resulting
# from the CCDC's data processing and validation procedures.
#
#######################################################################

data_CSD_CIF_JEKGIS
_audit_creation_date 2017-10-20
_audit_creation_method CSD-ConQuest-V1
_database_code_CSD JEKGIS
_database_code_depnum_ccdc_archive 'CCDC 1560178'
_chemical_formula_sum 'C26 H24 N2 O5'
_chemical_formula_moiety
;
C26 H24 N2 O5
;
_journal_coden_Cambridge 182
_journal_volume 53
_journal_year 2017
_journal_page_first 11952
_journal_name_full 'Chem.Commun. '
loop_
_publ_author_name
"Yuhuang Wang"
"Xingxing Wu"
"Yonggui Robin Chi"
_chemical_name_systematic
;
2-(2-nitro-3-(2-(4-nitrophenyl)propan-2-yl)-2,3-dihydro-1H-inden-1-yl)-1-pheny
lethan-1-one
;
_cell_volume   2216.970
_exptl_crystal_colour 'colorless'
_exptl_crystal_density_diffrn 1.332
_exptl_crystal_description 'block'
_diffrn_ambient_temperature 103
#These two values have been output from a single CSD field.
_refine_ls_R_factor_gt 0.0537
_refine_ls_wR_factor_gt 0.0537
_symmetry_cell_setting monoclinic
_symmetry_space_group_name_H-M 'P 21/c'
_symmetry_Int_Tables_number 14
loop_
_symmetry_equiv_pos_site_id
_symmetry_equiv_pos_as_xyz
1 x,y,z
2 -x,1/2+y,1/2-z
3 -x,-y,-z
4 x,-1/2-y,-1/2+z
_cell_length_a 13.234(4)
_cell_length_b 11.140(3)
_cell_length_c 15.953(5)
_cell_angle_alpha 90
_cell_angle_beta 109.502(9)
_cell_angle_gamma 90
_cell_formula_units_Z 4
loop_
_atom_type_symbol
_atom_type_radius_bond
C 0.68
H 0.23
N 0.68
O 0.68
loop_
_atom_site_label
_atom_site_type_symbol
_atom_site_fract_x
_atom_site_fract_y
_atom_site_fract_z
C1 C 0.18763(14) 0.42938(15) 0.37307(10)
H1 H 0.12190 0.38640 0.35560
C2 C 0.24420(14) 0.44365(15) 0.31458(10)
H2 H 0.21720 0.41010 0.25660
C3 C 0.33997(14) 0.50667(15) 0.34029(10)
H3 H 0.37790 0.51580 0.29960
C4 C 0.38144(13) 0.55680(14) 0.42488(10)
H4 H 0.44730 0.59960 0.44220
C5 C 0.32450(12) 0.54299(13) 0.48344(9)
C6 C 0.22883(12) 0.47909(14) 0.45771(9)
C7 C 0.18077(12) 0.47659(14) 0.53111(10)
H5 H 0.12550 0.54150 0.51810
C8 C 0.12535(13) 0.35993(14) 0.5404(1)
H6 H 0.07480 0.33630 0.48150
H7 H 0.17970 0.29560 0.56090
C9 C 0.06469(12) 0.37154(15) 0.60549(10)
C10 C 0.01611(13) 0.26169(15) 0.63013(10)
C11 C -0.04769(14) 0.27545(18) 0.68393(11)
H8 H -0.05700 0.35260 0.70570
C12 C -0.09720(15) 0.17623(19) 0.70528(12)
H9 H -0.14000 0.18550 0.74230
C13 C -0.08507(16) 0.06390(19) 0.67337(13)
H10 H -0.12020 -0.00340 0.68780
C14 C -0.02197(16) 0.04941(18) 0.62048(13)
H11 H -0.01350 -0.02790 0.59860
C15 C 0.02910(14) 0.14792(16) 0.59923(12)
H12 H 0.07310 0.13760 0.56340
C16 C 0.27555(12) 0.51667(14) 0.61400(9)
H13 H 0.24910 0.56970 0.65280
C17 C 0.35433(12) 0.58614(13) 0.57889(9)
H14 H 0.42880 0.55860 0.61230
C18 C 0.34824(12) 0.72531(13) 0.59211(9)
C19 C 0.38928(14) 0.75362(15) 0.69213(10)
H15 H 0.39790 0.84060 0.70080
H16 H 0.45860 0.71410 0.72010
H17 H 0.33760 0.72420 0.71930
C20 C 0.23347(13) 0.77172(15) 0.55262(11)
H18 H 0.18980 0.73840 0.58600
H19 H 0.20350 0.74700 0.49020
H20 H 0.23340 0.85950 0.55630
C21 C 0.42206(12) 0.78315(13) 0.54753(9)
C22 C 0.53269(13) 0.76935(14) 0.58559(10)
H21 H 0.56120 0.73140 0.64190
C23 C 0.60180(14) 0.80975(15) 0.54303(12)
H22 H 0.67700 0.79920 0.56930
C24 C 0.55927(15) 0.86554(14) 0.46173(11)
C25 C 0.45070(15) 0.88431(14) 0.42272(11)
H23 H 0.42310 0.92470 0.36730
C26 C 0.38265(14) 0.84294(14) 0.46612(10)
H24 H 0.30760 0.85550 0.44000
N1 N 0.32854(11) 0.40636(12) 0.66462(9)
N2 N 0.63169(15) 0.90629(13) 0.41537(12)
O1 O 0.05153(10) 0.47004(11) 0.63367(8)
O2 O 0.30131(11) 0.37537(14) 0.72742(9)
O3 O 0.39159(10) 0.35028(10) 0.63862(8)
O4 O 0.72892(13) 0.89956(13) 0.45475(12)
O5 O 0.59186(14) 0.94553(13) 0.33978(10)
#END
