
#######################################################################
#
#                 Cambridge Crystallographic Data Centre
#                                CCDC
#
#######################################################################
#
# If this CIF has been generated from an entry in the Cambridge
# Structural Database, then it will include bibliographic, chemical,
# crystal, experimental, refinement or atomic coordinate data resulting
# from the CCDC's data processing and validation procedures.
#
#######################################################################

data_CSD_CIF_JEKZOR
_audit_creation_date 2017-10-20
_audit_creation_method CSD-ConQuest-V1
_database_code_CSD JEKZOR
_database_code_depnum_ccdc_archive 'CCDC 1476881'
_chemical_formula_sum 'C7 H5 N3 O8'
_chemical_formula_moiety
;
C7 H5 N3 O8
;
_journal_coden_Cambridge 2187
_journal_volume 1
_journal_year 2016
_journal_page_first 8
_journal_name_full 'Jacobs J.Inorg.Chem. '
loop_
_publ_author_name
"A.Drechsel"
"T.M.Klapotke"
"T.G.Witkowski"
_chemical_name_systematic
;
5-methyl-2,4,6-trinitrobenzene-1,3-diol
;
_cell_volume    978.264
_exptl_crystal_colour 'pale yellow'
_exptl_crystal_density_diffrn 1.759
_exptl_crystal_description 'rod'
_diffrn_ambient_temperature 123
#These two values have been output from a single CSD field.
_refine_ls_R_factor_gt 0.0366
_refine_ls_wR_factor_gt 0.0366
_symmetry_cell_setting orthorhombic
_symmetry_space_group_name_H-M 'P 21 21 21'
_symmetry_Int_Tables_number 19
loop_
_symmetry_equiv_pos_site_id
_symmetry_equiv_pos_as_xyz
1 x,y,z
2 1/2-x,-y,1/2+z
3 1/2+x,1/2-y,-z
4 -x,1/2+y,1/2-z
_cell_length_a 5.5309(2)
_cell_length_b 8.0469(3)
_cell_length_c 21.9802(8)
_cell_angle_alpha 90
_cell_angle_beta 90
_cell_angle_gamma 90
_cell_formula_units_Z 4
loop_
_atom_type_symbol
_atom_type_radius_bond
C 0.68
H 0.23
N 0.68
O 0.68
loop_
_atom_site_label
_atom_site_type_symbol
_atom_site_fract_x
_atom_site_fract_y
_atom_site_fract_z
N1 N 0.7590(3) 0.0865(2) 0.52361(7)
H1 H 0.394(7) -0.252(5) 0.5402(18)
O1 O -0.0611(3) -0.2021(2) 0.66514(7)
H2 H 0.005(6) -0.011(4) 0.7113(13)
O2 O 0.7196(3) 0.1904(2) 0.48443(6)
O3 O 0.1439(3) -0.3273(2) 0.59505(7)
O4 O 0.4748(3) -0.1739(2) 0.53519(7)
O5 O 0.9251(3) -0.01446(18) 0.52184(7)
N2 N 0.1088(4) -0.2071(2) 0.62864(8)
C1 C 0.4147(4) 0.1939(2) 0.66306(8)
C2 C 0.2518(4) 0.0629(3) 0.66764(8)
C3 C 0.5865(3) 0.2096(2) 0.61728(8)
C4 C 0.7462(4) 0.3598(3) 0.61227(9)
H3 H 0.896(3) 0.3282(6) 0.5990(8)
H4 H 0.760(2) 0.4095(15) 0.6496(6)
H5 H 0.6802(19) 0.4333(15) 0.5852(7)
O6 O 0.2437(4) 0.4233(2) 0.70835(9)
N3 N 0.4012(3) 0.3193(2) 0.71118(8)
O7 O 0.0926(3) 0.0723(2) 0.71315(7)
C5 C 0.2704(4) -0.0666(3) 0.62514(8)
C6 C 0.5948(3) 0.0793(2) 0.57602(8)
C7 C 0.4463(4) -0.0598(2) 0.57850(8)
O8 O 0.5454(4) 0.3076(3) 0.75260(9)
#END
