
#######################################################################
#
#                 Cambridge Crystallographic Data Centre
#                                CCDC
#
#######################################################################
#
# If this CIF has been generated from an entry in the Cambridge
# Structural Database, then it will include bibliographic, chemical,
# crystal, experimental, refinement or atomic coordinate data resulting
# from the CCDC's data processing and validation procedures.
#
#######################################################################

data_CSD_CIF_JELWIG
_audit_creation_date 1991-02-22
_audit_creation_method CSD-ConQuest-V1
_database_code_CSD JELWIG
_database_code_depnum_ccdc_archive 'CCDC 1184568'
_chemical_formula_sum 'C17 H18 N2 O3'
_chemical_formula_moiety
;
C17 H18 N2 O3
;
_journal_coden_Cambridge 207
_journal_year 1990
_journal_page_first 1497
_journal_name_full 'J.Chem.Soc.,Perkin Trans.1 '
loop_
_publ_author_name
"E.C.K.Lai"
"D.Mackay"
"N.J.Taylor"
"K.N.Watson"
_chemical_name_systematic
;
cis,syn,cis-12-Acetyl-9-phenyl-2,10-dioxa-1,11-diazatricyclo(7.4.0.0^3,7^)trid
eca-4,11-diene
;
_chemical_melting_point 383
_cell_volume   1524.486
_exptl_crystal_density_diffrn 1.3
_exptl_special_details
;
z(O2) is 0.0400 not 0.0340. z(C13) is 0.1429 not 0.1439

;
_diffrn_ambient_temperature ?
_diffrn_special_details
;
The study was carried out at room temperature,in the range 283-303K

;
#These two values have been output from a single CSD field.
_refine_ls_R_factor_gt 0.028
_refine_ls_wR_factor_gt 0.028
_symmetry_cell_setting monoclinic
_symmetry_space_group_name_H-M 'P 21/c'
_symmetry_Int_Tables_number 14
loop_
_symmetry_equiv_pos_site_id
_symmetry_equiv_pos_as_xyz
1 x,y,z
2 -x,1/2+y,1/2-z
3 -x,-y,-z
4 x,-1/2-y,-1/2+z
_cell_length_a 12.916(3)
_cell_length_b 5.907(1)
_cell_length_c 20.060(4)
_cell_angle_alpha 90
_cell_angle_beta 95.07(2)
_cell_angle_gamma 90
_cell_formula_units_Z 4
loop_
_atom_type_symbol
_atom_type_radius_bond
C 0.68
H 0.23
N 0.68
O 0.68
loop_
_atom_site_label
_atom_site_type_symbol
_atom_site_fract_x
_atom_site_fract_y
_atom_site_fract_z
N1 N 0.2708(1) 0.1314(3) 0.0729(1)
O1 O 0.1660(1) 0.1513(3) 0.0400(1)
C1 C 0.1718(1) 0.1507(4) -0.0316(1)
C2 C 0.0630(2) 0.1908(5) -0.0601(1)
C3 C 0.0488(2) 0.4058(6) -0.0748(1)
C4 C 0.1458(2) 0.5444(5) -0.0609(1)
C5 C 0.2298(2) 0.3606(4) -0.0526(1)
C6 C 0.3281(2) 0.4077(5) -0.0064(1)
C7 C 0.3201(2) 0.3506(4) 0.0670(1)
O2 O 0.2586(1) 0.5344(2) 0.0917(1)
N2 N 0.2121(1) 0.4990(3) 0.1508(1)
C8 C 0.2105(2) 0.2969(4) 0.1741(1)
C9 C 0.2511(2) 0.0894(4) 0.1429(1)
C10 C 0.4262(2) 0.3434(4) 0.1067(1)
C11 C 0.4912(2) 0.1604(5) 0.0995(1)
C12 C 0.5876(2) 0.1498(5) 0.1360(2)
C13 C 0.6201(2) 0.3221(6) 0.1788(2)
C14 C 0.5569(2) 0.5044(5) 0.1856(1)
C15 C 0.4596(2) 0.5159(5) 0.1492(1)
C16 C 0.1596(2) 0.2736(4) 0.2376(1)
O3 O 0.1629(1) 0.0901(3) 0.2650(1)
C17 C 0.1056(3) 0.4717(6) 0.2645(2)
H1 H 0.206(2) 0.006(4) -0.044(1)
H2 H -0.017(2) 0.474(4) -0.092(1)
H3 H 0.158(2) 0.656(4) -0.099(1)
H4 H 0.142(2) 0.628(4) -0.016(1)
H5 H 0.250(2) 0.329(4) -0.098(1)
H6 H 0.388(2) 0.313(4) -0.020(1)
H7 H 0.352(2) 0.570(4) -0.008(1)
H8 H 0.319(2) 0.044(4) 0.168(1)
H9 H 0.201(2) -0.037(4) 0.145(1)
H10 H 0.470(2) 0.035(4) 0.071(1)
H11 H 0.630(2) 0.018(5) 0.132(1)
H12 H 0.412(2) 0.652(4) 0.155(1)
H13 H 0.079(2) 0.432(6) 0.305(2)
H14 H 0.047(3) 0.516(6) 0.231(2)
H15 H 0.140(3) 0.606(6) 0.257(2)
H16? H 0.009(2) 0.067(4) -0.063(1)
H17? H 0.691(2) 0.307(4) 0.206(1)
H18? H 0.580(2) 0.634(5) 0.216(1)
#END
