
#######################################################################
#
#                 Cambridge Crystallographic Data Centre
#                                CCDC
#
#######################################################################
#
# If this CIF has been generated from an entry in the Cambridge
# Structural Database, then it will include bibliographic, chemical,
# crystal, experimental, refinement or atomic coordinate data resulting
# from the CCDC's data processing and validation procedures.
#
#######################################################################

data_CSD_CIF_JELWEC
_audit_creation_date 1991-02-22
_audit_creation_method CSD-ConQuest-V1
_database_code_CSD JELWEC
_chemical_formula_sum 'C22 H22 N2 O3'
_chemical_formula_moiety
;
C22 H22 N2 O3
;
_journal_coden_Cambridge 207
_journal_year 1990
_journal_page_first 1497
_journal_name_full 'J.Chem.Soc.,Perkin Trans.1 '
loop_
_publ_author_name
"E.C.K.Lai"
"D.Mackay"
"N.J.Taylor"
"K.N.Watson"
_chemical_name_systematic
;
5,7-Dimethyl-9,11-diphenyl-2,6-dioxa-1,10-diazatricyclo(7.3.0.0^3,7^)dodeca-4,
10-dien-10-one
;
_chemical_melting_point 441.15
_cell_volume   1884.669
_exptl_crystal_density_diffrn 1.277
_exptl_special_details
;
Melting point range 441.15-442.15K

;
_diffrn_ambient_temperature ?
_diffrn_special_details
;
The study was carried out at room temperature,in the range 283-303K

;
#These two values have been output from a single CSD field.
_refine_ls_R_factor_gt 0.036
_refine_ls_wR_factor_gt 0.036
_symmetry_cell_setting monoclinic
_symmetry_space_group_name_H-M 'P 21/c'
_symmetry_Int_Tables_number 14
loop_
_symmetry_equiv_pos_site_id
_symmetry_equiv_pos_as_xyz
1 x,y,z
2 -x,1/2+y,1/2-z
3 -x,-y,-z
4 x,-1/2-y,-1/2+z
_cell_length_a 12.021(2)
_cell_length_b 12.459(2)
_cell_length_c 13.015(2)
_cell_angle_alpha 90
_cell_angle_beta 104.79(1)
_cell_angle_gamma 90
_cell_formula_units_Z 4
loop_
_atom_type_symbol
_atom_type_radius_bond
C 0.68
H 0.23
N 0.68
O 0.68
loop_
_atom_site_label
_atom_site_type_symbol
_atom_site_fract_x
_atom_site_fract_y
_atom_site_fract_z
N1 N 0.6913(2) 0.1447(2) 0.0832(2)
O1 O 0.6136(2) 0.0544(2) 0.0856(2)
C1 C 0.6766(3) -0.0436(3) 0.0768(3)
C2 C 0.7819(3) -0.0622(3) 0.1640(3)
C3 C 0.8737(3) -0.0505(6) 0.1266(3)
O2 O 0.8491(2) -0.0274(2) 0.0200(2)
C4 C 0.7249(3) -0.0403(3) -0.0219(3)
C5 C 0.6795(3) 0.0559(3) -0.0912(3)
C6 C 0.6920(2) 0.1610(3) -0.0283(2)
N2 N 0.5852(2) 0.2295(2) -0.0721(2)
C7 C 0.5504(3) 0.2755(3) 0.0049(2)
C8 C 0.6282(3) 0.2392(3) 0.1085(2)
C9 C 0.9995(3) -0.0532(4) 0.1791(4)
C10 C 0.7068(3) -0.1450(3) -0.0842(3)
C11 C 0.7982(3) 0.2264(3) -0.0323(2)
C12 C 0.8017(3) 0.2835(3) -0.1231(3)
C13 C 0.8985(3) 0.3408(3) -0.1272(3)
C14 C 0.9925(3) 0.3424(3) -0.0425(4)
C15 C 0.9909(3) 0.2855(3) 0.0482(4)
C16 C 0.8935(3) 0.2283(3) 0.0538(3)
O3 O 0.5420(2) 0.2357(2) -0.1738(2)
C17 C 0.4550(2) 0.3495(3) -0.0061(2)
C18 C 0.3778(3) 0.3712(3) -0.1040(3)
C19 C 0.2872(3) 0.4434(3) -0.1094(3)
C20 C 0.2736(3) 0.4927(3) -0.0187(3)
C21 C 0.3496(3) 0.4720(3) 0.0782(3)
C22 C 0.4393(3) 0.4001(3) 0.0849(3)
H1 H 0.613(3) -0.101(2) 0.069(2)
H2 H 0.779(2) -0.080(2) 0.236(2)
H3 H 0.717(2) 0.058(2) -0.153(2)
H4 H 0.597(3) 0.047(2) -0.127(2)
H5 H 0.690(2) 0.296(2) 0.144(2)
H6 H 0.585(2) 0.219(2) 0.158(2)
H7 H 1.033(3) -0.114(3) 0.148(3)
H8 H 1.037(3) 0.009(3) 0.164(3)
H9 H 1.011(4) -0.073(3) 0.254(4)
H10 H 0.621(3) -0.155(3) -0.116(2)
H11 H 0.736(3) -0.209(3) -0.039(3)
H12 H 0.752(3) -0.143(3) -0.140(3)
H13 H 0.729(3) 0.283(3) -0.181(3)
H14 H 0.894(3) 0.381(3) -0.193(3)
H15 H 1.066(3) 0.377(3) -0.042(3)
H16 H 1.058(3) 0.283(3) 0.108(3)
H17 H 0.893(3) 0.187(3) 0.119(3)
H18 H 0.389(3) 0.334(3) -0.165(2)
H19 H 0.234(3) 0.455(3) -0.178(3)
H20 H 0.208(3) 0.546(3) -0.028(3)
H21 H 0.343(3) 0.508(3) 0.148(3)
H22 H 0.494(2) 0.386(2) 0.155(2)
#END
