
#######################################################################
#
#                 Cambridge Crystallographic Data Centre
#                                CCDC
#
#######################################################################
#
# If this CIF has been generated from an entry in the Cambridge
# Structural Database, then it will include bibliographic, chemical,
# crystal, experimental, refinement or atomic coordinate data resulting
# from the CCDC's data processing and validation procedures.
#
#######################################################################

data_CSD_CIF_JEMGIS
_audit_creation_date 2006-08-21
_audit_creation_method CSD-ConQuest-V1
_database_code_CSD JEMGIS
_database_code_depnum_ccdc_archive 'CCDC 258587'
_chemical_formula_sum 'C5 H4 N4 O4'
_chemical_formula_moiety
;
C5 H4 N4 O4
;
_journal_coden_Cambridge 34
_journal_volume 42
_journal_year 2005
_journal_page_first 691
_journal_name_full 'J.Heterocycl.Chem. '
loop_
_publ_author_name
"I.L.Yudin"
"A.B.Sheremetev"
"B.B.Averkiev"
"M.Yu.Antipin"
_chemical_name_systematic
;
6-Methoxy-5-oxo-4,5-dihydro(1,2,5)oxadiazolo(3,4-b)pyrazin-1-ium-1-olate
;
_chemical_melting_point 489.15
_cell_volume    714.453
_exptl_crystal_colour 'colorless'
_exptl_crystal_density_diffrn 1.712
_exptl_special_details
;
Melting point range 489.15-491.15K

;
_exptl_crystal_description 'prism'
_diffrn_ambient_temperature 293
#These two values have been output from a single CSD field.
_refine_ls_R_factor_gt 0.0363
_refine_ls_wR_factor_gt 0.0363
_symmetry_cell_setting orthorhombic
_symmetry_space_group_name_H-M 'P 21 21 21'
_symmetry_Int_Tables_number 19
loop_
_symmetry_equiv_pos_site_id
_symmetry_equiv_pos_as_xyz
1 x,y,z
2 1/2-x,-y,1/2+z
3 -x,1/2+y,1/2-z
4 1/2+x,1/2-y,-z
_cell_length_a 5.7690(12)
_cell_length_b 8.1880(16)
_cell_length_c 15.125(3)
_cell_angle_alpha 90
_cell_angle_beta 90
_cell_angle_gamma 90
_cell_formula_units_Z 4
loop_
_atom_type_symbol
_atom_type_radius_bond
C 0.68
H 0.23
N 0.68
O 0.68
loop_
_atom_site_label
_atom_site_type_symbol
_atom_site_fract_x
_atom_site_fract_y
_atom_site_fract_z
N1 N 0.0636(2) 0.47808(15) 0.90159(8)
O1 O -0.3752(2) 0.63823(19) 0.96660(8)
C1 C 0.2733(4) 0.1884(2) 0.92199(14)
H1 H 0.343(4) 0.799(3) 0.7584(14)
N2 N 0.2732(2) 0.71857(15) 0.78716(9)
O2 O -0.2463(2) 0.85115(15) 0.88072(9)
C2 C -0.0259(2) 0.62912(18) 0.88484(9)
H2 H 0.249(4) 0.230(3) 0.9819(14)
O3 O 0.3726(2) 0.31539(13) 0.86710(8)
N3 N -0.2205(2) 0.68893(18) 0.91730(9)
C3 C 0.0683(3) 0.75010(16) 0.82972(10)
H3 H 0.377(6) 0.093(4) 0.9145(18)
O4 O 0.5613(2) 0.53459(15) 0.76403(8)
C4 C 0.2559(3) 0.45293(16) 0.86052(9)
N4 N -0.0570(3) 0.88258(17) 0.82501(10)
H4 H 0.125(5) 0.166(3) 0.9004(17)
C5 C 0.3788(3) 0.57117(17) 0.79923(10)
#END
