
#######################################################################
#
#                 Cambridge Crystallographic Data Centre
#                                CCDC
#
#######################################################################
#
# If this CIF has been generated from an entry in the Cambridge
# Structural Database, then it will include bibliographic, chemical,
# crystal, experimental, refinement or atomic coordinate data resulting
# from the CCDC's data processing and validation procedures.
#
#######################################################################

data_CSD_CIF_JENHIT
_audit_creation_date 1991-02-22
_audit_creation_method CSD-ConQuest-V1
_database_code_CSD JENHIT
_chemical_formula_sum 'C18 H20 N2 O6'
_chemical_formula_moiety
;
C18 H20 N2 O6
;
_journal_coden_Cambridge 151
_journal_volume 33
_journal_year 1990
_journal_page_first 1413
_journal_name_full 'J.Med.Chem. '
loop_
_publ_author_name
"S.Goldmann"
"L.Born"
"S.Kazda"
"B.Pittel"
"M.Schramm"
_chemical_name_systematic
;
(S)-Dimethyl 
4-(3-nitrophenyl)-2,4,6-trimethyl-1,4-dihydropyridine-3,5-dicarboxylate
;
_chemical_melting_point 408.15
_cell_volume   1820.315
_exptl_crystal_density_diffrn 1.314
_exptl_special_details
;
Melting point range 408.15-410.15K
pharmacological activity

;
_diffrn_ambient_temperature ?
_diffrn_special_details
;
The study was carried out at room temperature,in the range 283-303K

;
#These two values have been output from a single CSD field.
_refine_ls_R_factor_gt 0.042
_refine_ls_wR_factor_gt 0.042
_symmetry_cell_setting monoclinic
_symmetry_space_group_name_H-M 'P 21/c'
_symmetry_Int_Tables_number 14
loop_
_symmetry_equiv_pos_site_id
_symmetry_equiv_pos_as_xyz
1 x,y,z
2 -x,1/2+y,1/2-z
3 -x,-y,-z
4 x,-1/2-y,-1/2+z
_cell_length_a 9.3185(7)
_cell_length_b 16.124(1)
_cell_length_c 14.779(2)
_cell_angle_alpha 90
_cell_angle_beta 124.94(1)
_cell_angle_gamma 90
_cell_formula_units_Z 4
loop_
_atom_type_symbol
_atom_type_radius_bond
C 0.68
H 0.23
N 0.68
O 0.68
loop_
_atom_site_label
_atom_site_type_symbol
_atom_site_fract_x
_atom_site_fract_y
_atom_site_fract_z
C1 C 0.2203(3) 0.6967(2) 0.7914(2)
C2 C 0.2074(3) 0.6646(2) 0.7004(2)
C3 C 0.0725(4) 0.6902(2) 0.5962(2)
C4 C -0.0518(4) 0.7463(2) 0.5768(2)
C5 C -0.0390(4) 0.7792(2) 0.6667(3)
C6 C 0.0955(3) 0.7542(2) 0.7724(2)
C7 C 0.3596(3) 0.6686(2) 0.9108(2)
C8 C 0.4556(3) 0.7453(2) 0.9826(2)
C9 C 0.5056(3) 0.7495(2) 1.0886(2)
C10 C 0.2619(4) 0.6269(2) 0.9544(2)
C11 C 0.3162(4) 0.6347(2) 1.0594(2)
C12 C 0.6185(4) 0.8137(2) 1.1741(2)
C13 C 0.2494(4) 0.5877(3) 1.1154(2)
C14 C 0.1062(4) 0.5754(2) 0.8789(2)
C15 C 0.5072(3) 0.8066(2) 0.9330(2)
C16 C -0.0349(6) 0.4915(3) 0.7202(3)
C17 C 0.6007(5) 0.9438(2) 0.9357(3)
C18 C 0.4944(4) 0.6079(2) 0.9193(2)
N1 N 0.0597(3) 0.6535(2) 0.5007(2)
N2 N 0.4509(3) 0.6889(2) 1.1274(2)
O1 O -0.0685(3) 0.6694(2) 0.4082(2)
O2 O 0.1792(3) 0.6102(2) 0.5172(2)
O3 O -0.0274(3) 0.5747(2) 0.8754(2)
O4 O 0.1262(3) 0.5308(2) 0.8114(2)
O5 O 0.5158(2) 0.7924(1) 0.8557(1)
O6 O 0.5416(3) 0.8823(1) 0.9788(2)
H1 H 0.286(3) 0.627(2) 0.709(2)
H2 H -0.148(3) 0.762(2) 0.500(2)
H3 H -0.128(3) 0.819(2) 0.656(2)
H4 H 0.101(3) 0.776(2) 0.832(2)
H5 H 0.715(3) 0.834(2) 1.171(2)
H6 H 0.555(4) 0.858(2) 1.171(3)
H7 H 0.684(3) 0.791(2) 1.246(2)
H8 H 0.150(4) 0.558(2) 1.072(3)
H9 H 0.325(5) 0.547(3) 1.158(3)
H10 H 0.246(4) 0.619(3) 1.165(3)
H11 H 0.051(4) 0.462(3) 0.704(3)
H12 H -0.071(4) 0.454(3) 0.749(3)
H13 H -0.122(6) 0.535(4) 0.663(4)
H14 H 0.648(4) 0.990(2) 0.987(2)
H15 H 0.712(5) 0.918(3) 0.935(3)
H16 H 0.510(4) 0.957(2) 0.873(3)
H17 H 0.583(3) 0.594(2) 0.997(2)
H18 H 0.436(3) 0.558(2) 0.877(2)
H19 H 0.568(3) 0.634(2) 0.897(2)
H20 H 0.478(3) 0.694(2) 1.186(2)
#END
