
#######################################################################
#
#                 Cambridge Crystallographic Data Centre
#                                CCDC
#
#######################################################################
#
# If this CIF has been generated from an entry in the Cambridge
# Structural Database, then it will include bibliographic, chemical,
# crystal, experimental, refinement or atomic coordinate data resulting
# from the CCDC's data processing and validation procedures.
#
#######################################################################

data_CSD_CIF_JENZAG
_audit_creation_date 2017-10-23
_audit_creation_method CSD-ConQuest-V1
_database_code_CSD JENZAG
_database_code_depnum_ccdc_archive 'CCDC 1486178'
_chemical_formula_sum 'C13 H8 N2 O3'
_chemical_formula_moiety
;
C13 H8 N2 O3
;
_journal_coden_Cambridge 574
_journal_volume 141
_journal_year 2017
_journal_page_first 333
_journal_name_full 'Dyes Pigm. '
loop_
_publ_author_name
"P.Szlachcic"
"A.A.Fedorchuk"
"A.Danel"
"B.Jarosz"
"A.M.El Naggar"
"A.A.Albassam"
"A.Wojciechowski"
"E.Gondek"
"T.Uchacz"
"K.Stadnicka"
"G.Lakshminarayana"
"I.V.Kityk"
_chemical_name_systematic
;
5-nitro-2-phenyl-1,3-benzoxazole
;
_cell_volume   1089.973
_exptl_crystal_colour 'colorless'
_exptl_crystal_density_diffrn 1.464
_exptl_crystal_description 'plate'
_diffrn_ambient_temperature 293
#These two values have been output from a single CSD field.
_refine_ls_R_factor_gt 0.0522
_refine_ls_wR_factor_gt 0.0522
_symmetry_cell_setting monoclinic
_symmetry_space_group_name_H-M 'C c'
_symmetry_Int_Tables_number 9
loop_
_symmetry_equiv_pos_site_id
_symmetry_equiv_pos_as_xyz
1 x,y,z
2 x,-y,1/2+z
3 1/2+x,1/2+y,z
4 1/2+x,1/2-y,1/2+z
_cell_length_a 5.8430(7)
_cell_length_b 26.558(3)
_cell_length_c 7.1410(11)
_cell_angle_alpha 90
_cell_angle_beta 100.386(7)
_cell_angle_gamma 90
_cell_formula_units_Z 4
loop_
_atom_type_symbol
_atom_type_radius_bond
C 0.68
H 0.23
N 0.68
O 0.68
loop_
_atom_site_label
_atom_site_type_symbol
_atom_site_fract_x
_atom_site_fract_y
_atom_site_fract_z
O1 O 0.2423(5) -0.04121(9) 0.4724(4)
C1 C 0.0343(7) -0.06407(14) 0.3903(6)
N1 N -0.1312(6) -0.03330(12) 0.3232(5)
C2 C -0.0327(6) 0.01452(15) 0.3592(5)
C3 C -0.1279(7) 0.06213(15) 0.3214(6)
H1 H -0.28080 0.06690 0.26010
C4 C 0.0188(8) 0.10200(14) 0.3805(7)
C5 C 0.2501(9) 0.09647(15) 0.4715(7)
H2 H 0.34110 0.12480 0.50690
C6 C 0.3433(7) 0.04924(16) 0.5087(6)
H3 H 0.49640 0.04440 0.56940
C7 C 0.1957(7) 0.00921(15) 0.4505(6)
N2 N -0.0755(7) 0.15332(15) 0.3517(5)
O2 O -0.2838(7) 0.15790(12) 0.2900(6)
O3 O 0.0579(7) 0.18876(11) 0.3930(7)
C8 C 0.0285(8) -0.11874(15) 0.3891(6)
C9 C 0.2254(8) -0.14713(16) 0.4555(7)
H4 H 0.36530 -0.13130 0.50500
C10 C 0.2126(10) -0.19938(18) 0.4478(8)
H5 H 0.34490 -0.21860 0.49060
C11 C 0.0059(10) -0.22267(16) 0.3774(9)
H6 H -0.00160 -0.25760 0.37310
C12 C -0.1903(10) -0.19474(16) 0.3130(8)
H7 H -0.33020 -0.21090 0.26600
C13 C -0.1805(8) -0.14282(15) 0.3181(7)
H8 H -0.31340 -0.12400 0.27400
#END
