
#######################################################################
#
#                 Cambridge Crystallographic Data Centre
#                                CCDC
#
#######################################################################
#
# If this CIF has been generated from an entry in the Cambridge
# Structural Database, then it will include bibliographic, chemical,
# crystal, experimental, refinement or atomic coordinate data resulting
# from the CCDC's data processing and validation procedures.
#
#######################################################################

data_CSD_CIF_JEPBUB
_audit_creation_date 1991-02-12
_audit_creation_method CSD-ConQuest-V1
_database_code_CSD JEPBUB
_database_code_depnum_ccdc_archive 'CCDC 1184788'
_chemical_formula_sum 'C22 H27 N1 O4'
_chemical_formula_moiety
;
C22 H27 N1 O4
;
_journal_coden_Cambridge 376
_journal_volume 28
_journal_year 1989
_journal_page_first 2397
_journal_name_full 'Phytochemistry '
loop_
_publ_author_name
"P.Joseph-Nathan"
"J.R.Villagomez"
"M.Rojas-Gardida"
"L.U.Roman"
"J.D.Hernandez"
_chemical_name_systematic
;
(1R,5S,6S,8S)-7-(Z)-Ethylidene-5-isopropyl-2-methylenebicyclo(4.3.0)nonan-8-ol
 4-nitrobenzoate
;
_chemical_melting_point 383.15
_cell_volume   1044.256
_exptl_crystal_colour 'light yellow'
_exptl_crystal_density_diffrn 1.17
_exptl_special_details
;
Melting point range 383.15-385.15K

;
_diffrn_ambient_temperature ?
_diffrn_special_details
;
The study was carried out at room temperature,in the range 283-303K

;
#These two values have been output from a single CSD field.
_refine_ls_R_factor_gt 0.0668
_refine_ls_wR_factor_gt 0.0668
_chemical_compound_source
;
Roots of Senecio mexicanus
;
_symmetry_cell_setting monoclinic
_symmetry_space_group_name_H-M 'P 21'
_symmetry_Int_Tables_number 4
loop_
_symmetry_equiv_pos_site_id
_symmetry_equiv_pos_as_xyz
1 x,y,z
2 -x,1/2+y,-z
_cell_length_a 11.3314(52)
_cell_length_b 7.5408(29)
_cell_length_c 13.1701(83)
_cell_angle_alpha 90
_cell_angle_beta 111.885(41)
_cell_angle_gamma 90
_cell_formula_units_Z 2
loop_
_atom_type_symbol
_atom_type_radius_bond
C 0.68
H 0.23
N 0.68
O 0.68
loop_
_atom_site_label
_atom_site_type_symbol
_atom_site_fract_x
_atom_site_fract_y
_atom_site_fract_z
C1 C 0.1904(7) 0.13580 0.5617(5)
C2 C 0.3216(7) 0.1582(10) 0.5628(5)
O1 O 0.3943(4) 0.2866(6) 0.6492(3)
C3 C 0.3132(7) 0.2311(9) 0.4528(4)
C4 C 0.1698(6) 0.2558(10) 0.3872(4)
C5 C 0.1128(7) 0.2496(13) 0.2600(5)
C6 C -0.0315(8) 0.2483(17) 0.2226(6)
C7 C -0.0901(8) 0.1082(16) 0.2772(7)
C8 C -0.0312(9) 0.1254(12) 0.3982(7)
C9 C 0.1131(6) 0.1123(10) 0.4394(5)
C10 C -0.0961(8) 0.1455(1) 0.4629(8)
C11 C 0.1618(8) 0.3976(15) 0.2036(5)
C12 C 0.1446(10) 0.5885(15) 0.2408(7)
C13 C 0.1008(11) 0.3872(21) 0.0771(6)
C14 C 0.4117(7) 0.2494(10) 0.4225(5)
C15 C 0.5490(6) 0.2105(12) 0.4972(6)
C16 C 0.4686(7) 0.2192(11) 0.7451(5)
O2 O 0.4857(6) 0.0622(8) 0.7649(4)
C17 C 0.5318(6) 0.3601(9) 0.8287(4)
C18 C 0.5083(7) 0.5398(10) 0.8053(5)
C19 C 0.5650(7) 0.6685(10) 0.8843(4)
C20 C 0.6429(7) 0.6089(11) 0.9869(4)
N1 N 0.7023(6) 0.7439(11) 1.0726(4)
O3 O 0.6792(6) 0.8987(10) 1.0509(4)
O4 O 0.7734(7) 0.6903(9) 1.1625(4)
C21 C 0.6664(7) 0.4308(12) 1.0124(5)
C22 C 0.6096(7) 0.3056(10) 0.9325(5)
H1 H 0.18350 0.01930 0.60820
H2 H 0.16000 0.25280 0.59410
H3 H 0.36940 0.02990 0.57900
H4 H 0.14540 0.39400 0.39370
H5 H 0.14600 0.12850 0.23400
H6 H -0.06150 0.37890 0.23910
H7 H -0.07020 0.22380 0.13470
H8 H -0.07230 -0.02440 0.25330
H9 H -0.19230 0.12990 0.25040
H10 H 0.12210 -0.02480 0.41710
H11 H -0.19960 0.15000 0.42800
H12 H -0.04580 0.15730 0.55110
H13 H 0.26360 0.37290 0.25030
H14 H 0.19130 0.59870 0.32940
H15 H 0.04350 0.61650 0.21700
H16 H 0.18660 0.68390 0.20190
H17 H 0.09650 0.24900 0.05160
H18 H 0.15810 0.46270 0.04160
H19 H 0.00500 0.44210 0.04910
H20 H 0.39360 0.29480 0.33940
H21 H 0.61160 0.23620 0.45300
H22 H 0.55760 0.07200 0.52260
H23 H 0.57590 0.29560 0.56910
H24 H 0.44460 0.58020 0.72380
H25 H 0.54860 0.80950 0.86620
H26 H 0.72890 0.39010 1.09430
H27 H 0.62570 0.16470 0.95110
#END
