
#######################################################################
#
#                 Cambridge Crystallographic Data Centre
#                                CCDC
#
#######################################################################
#
# If this CIF has been generated from an entry in the Cambridge
# Structural Database, then it will include bibliographic, chemical,
# crystal, experimental, refinement or atomic coordinate data resulting
# from the CCDC's data processing and validation procedures.
#
#######################################################################

data_CSD_CIF_JEQZIR
_audit_creation_date 2018-03-02
_audit_creation_method CSD-ConQuest-V1
_database_code_CSD JEQZIR
_database_code_depnum_ccdc_archive 'CCDC 1827126'
_chemical_formula_sum 'C14 H16 N2 O4'
_chemical_formula_moiety
;
C14 H16 N2 O4
;
_journal_coden_Cambridge 1078
_journal_year 2018
_journal_name_full 'CSD Communication(Private Communication) '
loop_
_publ_author_name
"B.W.Skelton"
"M.J.Piggott"
"M.R.Buccini"
_chemical_name_systematic
;
ethyl 1-hydroxy-2-[2-(methylamino)-2-oxoethyl]-1H-indole-3-carboxylate
;
_cell_volume   1338.364
_exptl_crystal_colour 'colorless'
_exptl_crystal_density_diffrn 1.371
_exptl_crystal_description 'needle'
_diffrn_ambient_temperature 200
#These two values have been output from a single CSD field.
_refine_ls_R_factor_gt 0.063
_refine_ls_wR_factor_gt 0.063
_symmetry_cell_setting monoclinic
_symmetry_space_group_name_H-M 'P 21/c'
_symmetry_Int_Tables_number 14
loop_
_symmetry_equiv_pos_site_id
_symmetry_equiv_pos_as_xyz
1 x,y,z
2 -x,1/2+y,1/2-z
3 -x,-y,-z
4 x,-1/2-y,-1/2+z
_cell_length_a 6.2144(12)
_cell_length_b 30.714(5)
_cell_length_c 7.1614(11)
_cell_angle_alpha 90
_cell_angle_beta 101.726(19)
_cell_angle_gamma 90
_cell_formula_units_Z 4
loop_
_atom_type_symbol
_atom_type_radius_bond
C 0.68
H 0.23
N 0.68
O 0.68
loop_
_atom_site_label
_atom_site_type_symbol
_atom_site_fract_x
_atom_site_fract_y
_atom_site_fract_z
N1 N 0.0114(5) 0.09344(9) 0.4550(4)
O1 O -0.1823(4) 0.07074(9) 0.4571(4)
H1 H -0.151(8) 0.0484(18) 0.541(8)
C1 C 0.1296(7) 0.09013(12) 0.3148(5)
C2 C 0.2886(6) 0.12213(12) 0.3453(5)
C3 C 0.2607(6) 0.14651(11) 0.5117(5)
C4 C 0.3645(7) 0.18244(12) 0.6107(5)
H2 H 0.48771 0.19561 0.57377
C5 C 0.2843(7) 0.19843(14) 0.7634(6)
H3 H 0.35197 0.22321 0.83001
C6 C 0.1044(8) 0.17882(14) 0.8225(6)
H4 H 0.05454 0.19057 0.92882
C7 C -0.0002(7) 0.14335(13) 0.7309(5)
H5 H -0.12155 0.13011 0.77063
C8 C 0.0813(6) 0.12750(12) 0.5750(5)
C9 C 0.4546(6) 0.12823(12) 0.2290(5)
O2 O 0.4944(4) 0.10318(8) 0.1086(3)
C10 C 0.7330(6) 0.17678(12) 0.1683(5)
H6 H 0.67377 0.17991 0.02981
H7 H 0.84518 0.15343 0.18792
O3 O 0.5571(4) 0.16652(8) 0.2685(4)
C11 C 0.8304(7) 0.21850(13) 0.2502(6)
H8 H 0.72113 0.24180 0.21953
H9 H 0.95886 0.22554 0.19605
H10 H 0.87533 0.21568 0.38896
C12 C 0.0692(7) 0.05753(12) 0.1571(5)
H11 H 0.11472 0.06855 0.04109
H12 H -0.09228 0.05356 0.12706
C13 C 0.1791(6) 0.01432(12) 0.2134(5)
O4 O 0.0752(4) -0.01633(8) 0.2624(4)
N2 N 0.3934(5) 0.01168(10) 0.2094(4)
H13 H 0.45798 0.03459 0.17150
C14 C 0.5241(7) -0.02715(12) 0.2648(6)
H14 H 0.52638 -0.03375 0.39905
H15 H 0.67455 -0.02221 0.24731
H16 H 0.45959 -0.05170 0.18532
#END
