
#######################################################################
#
#                 Cambridge Crystallographic Data Centre
#                                CCDC
#
#######################################################################
#
# If this CIF has been generated from an entry in the Cambridge
# Structural Database, then it will include bibliographic, chemical,
# crystal, experimental, refinement or atomic coordinate data resulting
# from the CCDC's data processing and validation procedures.
#
#######################################################################

data_CSD_CIF_JERHUJ
_audit_creation_date 1991-05-01
_audit_creation_method CSD-ConQuest-V1
_database_code_CSD JERHUJ
_chemical_formula_sum 'C6 H13 N1 O7'
_chemical_formula_moiety
;
C6 H13 N1 O7
;
_journal_coden_Cambridge 156
_journal_volume 200
_journal_year 1990
_journal_page_first 339
_journal_name_full 'Carbohydr.Res. '
loop_
_publ_author_name
"J.Kopf"
"H.Brandenburg"
"W.Seelhorst"
"P.Koll"
_chemical_name_systematic
;
1-Deoxy-1-nitro-L-gluco-hexitol
;
_chemical_melting_point 380.15
_cell_volume    912.398
_exptl_crystal_density_diffrn 1.537
_exptl_special_details
;
Melting point range 380.15-381.15K

;
_diffrn_ambient_temperature ?
_diffrn_special_details
;
The study was carried out at room temperature,in the range 283-303K

;
#These two values have been output from a single CSD field.
_refine_ls_R_factor_gt 0.031
_refine_ls_wR_factor_gt 0.031
_symmetry_cell_setting orthorhombic
_symmetry_space_group_name_H-M 'P 21 21 21'
_symmetry_Int_Tables_number 19
loop_
_symmetry_equiv_pos_site_id
_symmetry_equiv_pos_as_xyz
1 x,y,z
2 1/2+x,1/2-y,-z
3 -x,1/2+y,1/2-z
4 1/2-x,-y,1/2+z
_cell_length_a 5.998(5)
_cell_length_b 8.532(5)
_cell_length_c 17.829(6)
_cell_angle_alpha 90
_cell_angle_beta 90
_cell_angle_gamma 90
_cell_formula_units_Z 4
loop_
_atom_type_symbol
_atom_type_radius_bond
C 0.68
H 0.23
N 0.68
O 0.68
loop_
_atom_site_label
_atom_site_type_symbol
_atom_site_fract_x
_atom_site_fract_y
_atom_site_fract_z
O1 O 0.4686(2) 0.6909(2) 0.0840(1)
O2 O 0.1344(2) 0.9493(2) 0.0592(1)
O3 O 0.4128(2) 0.8421(2) -0.0563(1)
O4 O 0.5017(3) 1.2546(2) -0.0165(1)
O5 O 0.8154(2) 1.1117(2) -0.1125(1)
O6 O 0.6358(4) 0.6967(3) 0.2416(1)
O7 O 0.3108(5) 0.6454(3) 0.2854(1)
N1 N 0.4332(4) 0.7144(2) 0.2428(1)
C1 C 0.3283(4) 0.8292(2) 0.1893(1)
C2 C 0.4645(3) 0.8423(2) 0.1183(1)
C3 C 0.3697(3) 0.9694(2) 0.0667(1)
C4 C 0.4862(3) 0.9687(2) -0.0099(1)
C5 C 0.4441(3) 1.1160(2) -0.0571(1)
C6 C 0.5817(3) 1.1165(3) -0.1284(1)
H1 H 0.328(5) 0.925(3) 0.215(1)
H2 H 0.196(5) 0.785(3) 0.182(1)
H3 H 0.624(5) 0.878(31) 0.132(1)
H4 H 0.405(4) 1.068(3) 0.093(1)
H5 H 0.651(5) 0.956(3) 0.001(1)
H6 H 0.285(4) 1.123(3) -0.073(1)
H7 H 0.559(6) 1.215(3) -0.156(2)
H8 H 0.544(5) 1.021(3) -0.159(1)
H9 H 0.601(6) 0.672(4) 0.074(2)
H10 H 0.084(5) 1.044(3) 0.050(1)
H11 H 0.466(5) 0.765(3) -0.041(2)
H12 H 0.412(5) 1.269(3) 0.021(1)
H13 H 0.855(7) 1.020(4) -0.109(2)
#END
