
#######################################################################
#
#                 Cambridge Crystallographic Data Centre
#                                CCDC
#
#######################################################################
#
# If this CIF has been generated from an entry in the Cambridge
# Structural Database, then it will include bibliographic, chemical,
# crystal, experimental, refinement or atomic coordinate data resulting
# from the CCDC's data processing and validation procedures.
#
#######################################################################

data_CSD_CIF_JERHOD
_audit_creation_date 1991-05-01
_audit_creation_method CSD-ConQuest-V1
_database_code_CSD JERHOD
_chemical_formula_sum 'C6 H13 N1 O7'
_chemical_formula_moiety
;
C6 H13 N1 O7
;
_journal_coden_Cambridge 156
_journal_volume 200
_journal_year 1990
_journal_page_first 339
_journal_name_full 'Carbohydr.Res. '
loop_
_publ_author_name
"J.Kopf"
"H.Brandenburg"
"W.Seelhorst"
"P.Koll"
_chemical_name_systematic
;
1-Deoxy-1-nitro-L-manno-hexitol
;
_chemical_melting_point 406.15
_cell_volume   1340.483
_exptl_crystal_density_diffrn 1.569
_exptl_special_details
;
Melting point range 406.15-407.15K

;
_diffrn_ambient_temperature ?
_diffrn_special_details
;
The study was carried out at room temperature,in the range 283-303K

;
#These two values have been output from a single CSD field.
_refine_ls_R_factor_gt 0.029
_refine_ls_wR_factor_gt 0.029
_symmetry_cell_setting hexagonal
_symmetry_space_group_name_H-M 'P 61'
_symmetry_Int_Tables_number 169
loop_
_symmetry_equiv_pos_site_id
_symmetry_equiv_pos_as_xyz
1 x,y,z
2 -y,x-y,1/3+z
3 -x+y,-x,2/3+z
4 -x,-y,1/2+z
5 y,-x+y,5/6+z
6 x-y,x,1/6+z
_cell_length_a 5.022(1)
_cell_length_b 5.022(1)
_cell_length_c 61.373(4)
_cell_angle_alpha 90
_cell_angle_beta 90
_cell_angle_gamma 120
_cell_formula_units_Z 6
loop_
_atom_type_symbol
_atom_type_radius_bond
C 0.68
H 0.23
N 0.68
O 0.68
loop_
_atom_site_label
_atom_site_type_symbol
_atom_site_fract_x
_atom_site_fract_y
_atom_site_fract_z
O1 O 0.6542(4) 0.9529(5) 0.10700
O2 O 0.2172(4) 1.3105(5) 0.0891(1)
O3 O 0.2444(4) 0.7898(4) 0.0672(1)
O4 O 0.6991(5) 1.5710(4) 0.0466(1)
O5 O 0.6805(6) 1.0359(6) 0.0242(1)
O6 O 0.2396(6) 0.8490(7) 0.1514(1)
O7 O 0.7130(7) 1.1338(7) 0.1583(1)
N1 N 0.4883(7) 1.0692(6) 0.1476(1)
C1 C 0.5178(8) 1.2701(7) 0.1286(1)
C2 C 0.4587(6) 1.0779(6) 0.1080(1)
C3 C 0.4778(6) 1.2686(6) 0.0879(1)
C4 C 0.4764(6) 1.1056(6) 0.0669(1)
C5 C 0.4435(6) 1.2657(6) 0.0465(1)
C6 C 0.4320(7) 1.0982(8) 0.0257(1)
H1 H 0.37(1) 1.335(9) 0.130(1)
H2 H 0.702(11) 1.439(10) 0.129(1)
H3 H 0.246(6) 0.900(7) 0.109(1)
H4 H 0.664(8) 1.458(8) 0.089(1)
H5 H 0.672(8) 1.110(8) 0.066(1)
H6 H 0.236(7) 1.268(7) 0.048(1)
H7 H 0.231(8) 0.897(8) 0.025(1)
H8 H 0.440(6) 1.224(6) 0.014(1)
H9 H 0.815(7) 1.071(7) 0.104(1)
H10 H 0.265(8) 1.481(8) 0.085(1)
H11 H 0.098(8) 0.768(7) 0.064(1)
H12 H 0.667(7) 1.691(8) 0.040(1)
H13 H 0.796(8) 1.130(8) 0.014(1)
#END
