
#######################################################################
#
#                 Cambridge Crystallographic Data Centre
#                                CCDC
#
#######################################################################
#
# If this CIF has been generated from an entry in the Cambridge
# Structural Database, then it will include bibliographic, chemical,
# crystal, experimental, refinement or atomic coordinate data resulting
# from the CCDC's data processing and validation procedures.
#
#######################################################################

data_CSD_CIF_JERHET
_audit_creation_date 1991-05-01
_audit_creation_method CSD-ConQuest-V1
_database_code_CSD JERHET
_chemical_formula_sum 'C5 H11 N1 O6'
_chemical_formula_moiety
;
C5 H11 N1 O6
;
_journal_coden_Cambridge 156
_journal_volume 200
_journal_year 1990
_journal_page_first 339
_journal_name_full 'Carbohydr.Res. '
loop_
_publ_author_name
"J.Kopf"
"H.Brandenburg"
"W.Seelhorst"
"P.Koll"
_chemical_name_systematic
;
1-Deoxy-1-nitro-D-arabinitol
;
_chemical_melting_point 418.15
_cell_volume    398.366
_exptl_crystal_density_diffrn 1.51
_exptl_special_details
;
Melting point range 418.15-419.15K

;
_diffrn_ambient_temperature ?
_diffrn_special_details
;
The study was carried out at room temperature,in the range 283-303K

;
#These two values have been output from a single CSD field.
_refine_ls_R_factor_gt 0.029
_refine_ls_wR_factor_gt 0.029
_symmetry_cell_setting monoclinic
_symmetry_space_group_name_H-M 'P 21'
_symmetry_Int_Tables_number 4
loop_
_symmetry_equiv_pos_site_id
_symmetry_equiv_pos_as_xyz
1 x,y,z
2 -x,1/2+y,-z
_cell_length_a 4.858(3)
_cell_length_b 13.500(1)
_cell_length_c 6.077(1)
_cell_angle_alpha 90
_cell_angle_beta 91.73(1)
_cell_angle_gamma 90
_cell_formula_units_Z 2
loop_
_atom_type_symbol
_atom_type_radius_bond
C 0.68
H 0.23
N 0.68
O 0.68
loop_
_atom_site_label
_atom_site_type_symbol
_atom_site_fract_x
_atom_site_fract_y
_atom_site_fract_z
O1 O 0.4986(3) 0.48620 0.5109(2)
O2 O -0.0134(3) 0.5609(2) 0.6613(2)
O3 O 0.5514(3) 0.5308(2) 1.0699(2)
O4 O 0.0417(3) 0.6145(2) 1.2256(2)
O5 O 0.5225(6) 0.2522(2) 0.4810(4)
O6 O 0.2917(5) 0.3088(2) 0.2037(3)
N1 N 0.3368(5) 0.3027(2) 0.3995(3)
C1 C 0.1650(5) 0.3614(2) 0.5515(4)
C2 C 0.3481(4) 0.4356(2) 0.6734(3)
C3 C 0.1756(3) 0.5090(2) 0.8034(3)
C4 C 0.3596(4) 0.5831(2) 0.9296(3)
C5 C 0.1982(5) 0.6586(2) 1.0570(3)
H1 H 0.086(7) 0.320(3) 0.657(5)
H2 H 0.048(9) 0.395(9) 0.460(6)
H3 H 0.461(6) 0.402(3) 0.771(5)
H4 H 0.069(6) 0.473(2) 0.909(4)
H5 H 0.459(5) 0.619(2) 0.821(3)
H6 H 0.076(7) 0.693(2) 0.958(5)
H7 H 0.328(6) 0.705(2) 1.136(4)
H8 H 0.659(7) 0.506(3) 0.588(5)
H9 H 0.050(7) 0.581(3) 0.536(5)
H10 H 0.476(7) 0.519(3) 1.195(5)
H11 H -0.125(8) 0.591(3) 1.161(5)
#END
