
#######################################################################
#
#                 Cambridge Crystallographic Data Centre
#                                CCDC
#
#######################################################################
#
# If this CIF has been generated from an entry in the Cambridge
# Structural Database, then it will include bibliographic, chemical,
# crystal, experimental, refinement or atomic coordinate data resulting
# from the CCDC's data processing and validation procedures.
#
#######################################################################

data_CSD_CIF_JERHUK
_audit_creation_date 2007-01-19
_audit_creation_method CSD-ConQuest-V1
_database_code_CSD JERHUK
_database_code_depnum_ccdc_archive 'CCDC 605922'
_chemical_formula_sum 'C12 H13 N1 O3'
_chemical_formula_moiety
;
C12 H13 N1 O3
;
_journal_coden_Cambridge 1291
_journal_year 2006
_journal_page_first 4093
_journal_name_full 'Eur.J.Org.Chem. '
loop_
_publ_author_name
"Lin Dong"
"Yan-Jun Xu"
"Wei-Cheng Yuan"
"Xin Cui"
"Lin-Feng Cun"
"Liu-Zhu Gong"
_chemical_name_systematic
;
1-Nitro-2-phenyl-7-oxabicyclo[4.1.0]heptane
;
_chemical_melting_point 366.85
_cell_volume   1114.472
_exptl_crystal_density_diffrn 1.307
_exptl_special_details
;
Melting point range 366.85-368.25K

;
_diffrn_ambient_temperature 296
#These two values have been output from a single CSD field.
_refine_ls_R_factor_gt 0.0392
_refine_ls_wR_factor_gt 0.0392
_symmetry_cell_setting monoclinic
_symmetry_space_group_name_H-M 'P 21/c'
_symmetry_Int_Tables_number 14
loop_
_symmetry_equiv_pos_site_id
_symmetry_equiv_pos_as_xyz
1 x,y,z
2 -x,1/2+y,1/2-z
3 -x,-y,-z
4 x,-1/2-y,-1/2+z
_cell_length_a 5.754(1)
_cell_length_b 26.725(4)
_cell_length_c 7.623(1)
_cell_angle_alpha 90
_cell_angle_beta 108.061(8)
_cell_angle_gamma 90
_cell_formula_units_Z 4
loop_
_atom_type_symbol
_atom_type_radius_bond
C 0.68
H 0.23
N 0.68
O 0.68
loop_
_atom_site_label
_atom_site_type_symbol
_atom_site_fract_x
_atom_site_fract_y
_atom_site_fract_z
O1 O 0.9250(2) 0.40135(5) 0.66026(18)
O2 O 0.4688(4) 0.46332(6) 0.3169(2)
O3 O 0.8553(3) 0.45600(6) 0.3638(2)
N1 N 0.6701(4) 0.44905(5) 0.4049(2)
C1 C 0.6913(3) 0.42046(5) 0.5791(2)
C2 C 0.8465(3) 0.44407(6) 0.7481(2)
H1 H 0.91680 0.47670 0.73420
C3 C 0.8029(4) 0.43424(8) 0.9281(2)
H2 H 0.79840 0.46590 0.98910
H3 H 0.93880 0.41500 1.00610
C4 C 0.5679(4) 0.40618(8) 0.9084(2)
H4 H 0.43360 0.42990 0.87860
H5 H 0.57770 0.39100 1.02600
C5 C 0.5126(3) 0.36571(7) 0.7612(2)
H6 H 0.36640 0.34780 0.76190
H7 H 0.64690 0.34200 0.78920
C6 C 0.4750(3) 0.38805(5) 0.56917(19)
H8 H 0.33040 0.40970 0.54010
C7 C 0.4311(3) 0.34909(5) 0.4184(2)
C8 C 0.2017(3) 0.34349(6) 0.2934(2)
H9 H 0.07470 0.36390 0.30160
C9 C 0.1577(4) 0.30760(8) 0.1551(3)
H10 H 0.00130 0.30400 0.07250
C10 C 0.3414(5) 0.27762(7) 0.1393(3)
H11 H 0.31150 0.25400 0.04550
C11 C 0.5696(4) 0.28261(7) 0.2623(3)
H12 H 0.69530 0.26210 0.25230
C12 C 0.6168(3) 0.31787(6) 0.4021(3)
H13 H 0.77330 0.32070 0.48540
#END
