
#######################################################################
#
#                 Cambridge Crystallographic Data Centre
#                                CCDC
#
#######################################################################
#
# If this CIF has been generated from an entry in the Cambridge
# Structural Database, then it will include bibliographic, chemical,
# crystal, experimental, refinement or atomic coordinate data resulting
# from the CCDC's data processing and validation procedures.
#
#######################################################################

data_CSD_CIF_JERHIY
_audit_creation_date 2007-01-19
_audit_creation_method CSD-ConQuest-V1
_database_code_CSD JERHIY
_database_code_depnum_ccdc_archive 'CCDC 605920'
_chemical_formula_sum 'C15 H19 N1 O4'
_chemical_formula_moiety
;
C15 H19 N1 O4
;
_journal_coden_Cambridge 1291
_journal_year 2006
_journal_page_first 4093
_journal_name_full 'Eur.J.Org.Chem. '
loop_
_publ_author_name
"Lin Dong"
"Yan-Jun Xu"
"Wei-Cheng Yuan"
"Xin Cui"
"Lin-Feng Cun"
"Liu-Zhu Gong"
_chemical_name_systematic
;
Methyl 2-(2-nitro-3-phenylcyclohexyl)acetate
;
_chemical_melting_point 379.95
_cell_volume   1440.701
_exptl_crystal_density_diffrn 1.279
_exptl_special_details
;
Melting point range 379.95-381.85K

;
_diffrn_ambient_temperature 293
#These two values have been output from a single CSD field.
_refine_ls_R_factor_gt 0.036
_refine_ls_wR_factor_gt 0.036
_symmetry_cell_setting monoclinic
_symmetry_space_group_name_H-M 'P 21/c'
_symmetry_Int_Tables_number 14
loop_
_symmetry_equiv_pos_site_id
_symmetry_equiv_pos_as_xyz
1 x,y,z
2 -x,1/2+y,1/2-z
3 -x,-y,-z
4 x,-1/2-y,-1/2+z
_cell_length_a 9.955(2)
_cell_length_b 10.050(2)
_cell_length_c 15.080(2)
_cell_angle_alpha 90
_cell_angle_beta 107.27(1)
_cell_angle_gamma 90
_cell_formula_units_Z 4
loop_
_atom_type_symbol
_atom_type_radius_bond
C 0.68
H 0.23
N 0.68
O 0.68
loop_
_atom_site_label
_atom_site_type_symbol
_atom_site_fract_x
_atom_site_fract_y
_atom_site_fract_z
O1 O 0.80685(14) 0.35709(14) 0.02229(10)
O2 O 0.94370(13) 0.29120(14) 0.15116(9)
O3 O 0.85879(12) -0.18308(12) 0.01840(8)
O4 O 0.62550(13) -0.17154(12) -0.02029(10)
N1 N 0.82933(14) 0.29530(13) 0.09404(10)
C1 C 0.75743(18) 0.49865(18) 0.26595(12)
H1 H 0.83650 0.46310 0.30900
C2 C 0.7350(2) 0.63433(19) 0.26388(13)
H2 H 0.79910 0.68900 0.30550
C3 C 0.6199(2) 0.68910(19) 0.20152(14)
H3 H 0.60540 0.78060 0.20040
C4 C 0.5261(2) 0.60811(19) 0.14072(13)
H4 H 0.44720 0.64460 0.09820
C5 C 0.54792(18) 0.47254(18) 0.14212(12)
H5 H 0.48330 0.41880 0.10010
C6 C 0.66392(15) 0.41466(15) 0.20483(10)
C7 C 0.68437(16) 0.26514(15) 0.20284(10)
H6 H 0.59360 0.22670 0.20210
C8 C 0.7905(2) 0.20557(17) 0.28801(11)
H7 H 0.88270 0.24320 0.29460
H8 H 0.76410 0.22840 0.34300
C9 C 0.7977(2) 0.05512(17) 0.28034(12)
H9 H 0.86870 0.02050 0.33430
H10 H 0.70790 0.01690 0.27940
C10 C 0.83322(18) 0.01426(17) 0.19313(11)
H11 H 0.83350 -0.08210 0.18910
H12 H 0.92690 0.04560 0.19680
C11 C 0.72826(16) 0.07048(15) 0.10597(10)
H13 H 0.63740 0.03030 0.10320
C12 C 0.70746(15) 0.22098(15) 0.11114(10)
H14 H 0.62270 0.24470 0.06110
C13 C 0.75832(19) 0.02908(16) 0.01630(11)
H15 H 0.69560 0.07630 -0.03580
H16 H 0.85430 0.05240 0.01970
C14 C 0.73764(19) -0.11813(18) 0.00166(11)
C15 C 0.8483(2) -0.32679(18) 0.01350(14)
H17 H 0.80460 -0.35820 0.05830
H18 H 0.94070 -0.36450 0.02650
H19 H 0.79270 -0.35290 -0.04760
#END
