
#######################################################################
#
#                 Cambridge Crystallographic Data Centre
#                                CCDC
#
#######################################################################
#
# If this CIF has been generated from an entry in the Cambridge
# Structural Database, then it will include bibliographic, chemical,
# crystal, experimental, refinement or atomic coordinate data resulting
# from the CCDC's data processing and validation procedures.
#
#######################################################################

data_CSD_CIF_JERJAS
_audit_creation_date 2007-01-19
_audit_creation_method CSD-ConQuest-V1
_database_code_CSD JERJAS
_database_code_depnum_ccdc_archive 'CCDC 605923'
_chemical_formula_sum 'C17 H19 N1 O6'
_chemical_formula_moiety
;
C17 H19 N1 O6
;
_journal_coden_Cambridge 1291
_journal_year 2006
_journal_page_first 4093
_journal_name_full 'Eur.J.Org.Chem. '
loop_
_publ_author_name
"Lin Dong"
"Yan-Jun Xu"
"Wei-Cheng Yuan"
"Xin Cui"
"Lin-Feng Cun"
"Liu-Zhu Gong"
_chemical_name_systematic
;
Methyl 3-(3-nitro-4-(3,4-methylenedioxyphenyl)cyclohexen-3-yl)propanoate
;
_chemical_melting_point 386.55
_cell_volume    796.192
_exptl_crystal_density_diffrn 1.39
_exptl_special_details
;
Melting point range 386.55-387.65K

;
_diffrn_ambient_temperature 296
#These two values have been output from a single CSD field.
_refine_ls_R_factor_gt 0.0369
_refine_ls_wR_factor_gt 0.0369
_symmetry_cell_setting monoclinic
_symmetry_space_group_name_H-M 'P 21'
_symmetry_Int_Tables_number 4
loop_
_symmetry_equiv_pos_site_id
_symmetry_equiv_pos_as_xyz
1 x,y,z
2 -x,1/2+y,-z
_cell_length_a 9.102(2)
_cell_length_b 7.185(1)
_cell_length_c 12.243(2)
_cell_angle_alpha 90
_cell_angle_beta 96.06(2)
_cell_angle_gamma 90
_cell_formula_units_Z 2
loop_
_atom_type_symbol
_atom_type_radius_bond
C 0.68
H 0.23
N 0.68
O 0.68
loop_
_atom_site_label
_atom_site_type_symbol
_atom_site_fract_x
_atom_site_fract_y
_atom_site_fract_z
O1 O 0.1308(2) 0.9045(3) 0.06674(13)
O2 O 0.1313(2) 0.8162(3) -0.11457(13)
O3 O 0.66838(19) 0.6601(3) 0.21548(14)
O4 O 0.5556(2) 0.7874(3) 0.34094(16)
O5 O 0.88847(17) 0.3473(3) 0.62686(12)
O6 O 0.9412(2) 0.2334(4) 0.46634(15)
N1 N 0.5856(2) 0.6526(3) 0.28762(15)
C1 C 0.5227(2) 0.4598(3) 0.31250(17)
C2 C 0.4085(3) 0.4819(4) 0.39092(19)
H1 H 0.42880 0.56030 0.45110
C3 C 0.2806(3) 0.3952(5) 0.3784(2)
H2 H 0.21630 0.41380 0.43160
C4 C 0.2321(3) 0.2706(5) 0.2859(3)
H3 H 0.16090 0.33500 0.23480
H4 H 0.18380 0.16240 0.31330
C5 C 0.3621(3) 0.2081(4) 0.2264(3)
H5 H 0.32540 0.14830 0.15790
H6 H 0.41980 0.11730 0.27120
C6 C 0.4615(3) 0.3719(3) 0.20231(17)
H7 H 0.54570 0.32080 0.16850
C7 C 0.3776(2) 0.5006(3) 0.11794(16)
C8 C 0.2959(2) 0.6561(3) 0.14476(17)
H8 H 0.29270 0.69240 0.21740
C9 C 0.2209(2) 0.7525(3) 0.05989(17)
C10 C 0.2205(2) 0.6988(4) -0.04781(17)
C11 C 0.2967(3) 0.5474(4) -0.07625(18)
H9 H 0.29530 0.51040 -0.14910
C12 C 0.3773(3) 0.4496(4) 0.00812(18)
H10 H 0.43260 0.34700 -0.00940
C13 C 0.0911(4) 0.9592(5) -0.0444(2)
H11 H -0.01450 0.98130 -0.05670
H12 H 0.14170 1.07360 -0.05970
C14 C 0.6591(2) 0.3502(4) 0.36309(17)
H13 H 0.63170 0.22050 0.36960
H14 H 0.73510 0.35640 0.31330
C15 C 0.7233(2) 0.4202(4) 0.47527(18)
H15 H 0.74350 0.55230 0.47030
H16 H 0.65030 0.40420 0.52680
C16 C 0.8625(2) 0.3219(4) 0.51872(18)
C17 C 1.0267(3) 0.2779(6) 0.6799(2)
H17 H 1.03140 0.14560 0.66990
H18 H 1.03360 0.30590 0.75690
H19 H 1.10710 0.33610 0.64810
#END
