
#######################################################################
#
#                 Cambridge Crystallographic Data Centre
#                                CCDC
#
#######################################################################
#
# If this CIF has been generated from an entry in the Cambridge
# Structural Database, then it will include bibliographic, chemical,
# crystal, experimental, refinement or atomic coordinate data resulting
# from the CCDC's data processing and validation procedures.
#
#######################################################################

data_CSD_CIF_JERJOF
_audit_creation_date 1991-05-01
_audit_creation_method CSD-ConQuest-V1
_database_code_CSD JERJOF
_chemical_formula_sum 'C9 H15 N1 O8'
_chemical_formula_moiety
;
C9 H15 N1 O8
;
_journal_coden_Cambridge 156
_journal_volume 199
_journal_year 1990
_journal_page_first 129
_journal_name_full 'Carbohydr.Res. '
loop_
_publ_author_name
"F.C.Escribano"
"R.Fernandez-Fernandez"
"A.Lopez-Castro"
"M.D.Estrada"
_chemical_name_systematic
;
Methyl 3,6-dideoxy-3-C-methoxycarbonyl-3-C-nitro-\a-L-galacto-hexopyranoside
;
_chemical_melting_point 441.15
_cell_volume   1227.834
_exptl_crystal_density_diffrn 1.43
_exptl_special_details
;
Melting point range 441.15-443.15K

;
_diffrn_ambient_temperature ?
_diffrn_special_details
;
The study was carried out at room temperature,in the range 283-303K

;
#These two values have been output from a single CSD field.
_refine_ls_R_factor_gt 0.04
_refine_ls_wR_factor_gt 0.04
_symmetry_cell_setting orthorhombic
_symmetry_space_group_name_H-M 'P 21 21 21'
_symmetry_Int_Tables_number 19
loop_
_symmetry_equiv_pos_site_id
_symmetry_equiv_pos_as_xyz
1 x,y,z
2 1/2+x,1/2-y,-z
3 -x,1/2+y,1/2-z
4 1/2-x,-y,1/2+z
_cell_length_a 10.009(3)
_cell_length_b 15.3610(3)
_cell_length_c 7.986(3)
_cell_angle_alpha 90
_cell_angle_beta 90
_cell_angle_gamma 90
_cell_formula_units_Z 4
loop_
_atom_type_symbol
_atom_type_radius_bond
C 0.68
H 0.23
N 0.68
O 0.68
loop_
_atom_site_label
_atom_site_type_symbol
_atom_site_fract_x
_atom_site_fract_y
_atom_site_fract_z
O1 O 0.5927(3) 0.1248(2) -0.4351(4)
O2 O 0.7041(3) 0.2480(2) -0.2250(4)
O3 O 0.5263(4) 0.3316(3) 0.0102(4)
O4 O 0.3344(4) 0.3490(2) -0.1075(5)
O5 O 0.3796(3) 0.1491(2) 0.0460(4)
O6 O 0.5151(3) 0.0447(2) -0.2026(4)
O7 O 0.5071(3) 0.3150(2) -0.4315(4)
O8 O 0.3230(3) 0.2318(2) -0.4471(4)
N1 N 0.4400(4) 0.3099(2) -0.0888(5)
C1 C 0.6089(5) 0.1048(3) -0.2641(6)
C2 C 0.5997(4) 0.1914(3) -0.1740(5)
C3 C 0.4578(4) 0.2282(3) -0.1955(5)
C4 C 0.3574(4) 0.1602(3) -0.1275(5)
C5 C 0.3778(5) 0.0740(3) -0.2184(6)
C6 C 0.2909(5) 0.0017(3) -0.1478(8)
C7 C 0.6214(8) 0.0555(4) -0.5494(9)
C8 C 0.4200(4) 0.2574(3) -0.3743(5)
C9 C 0.4892(6) 0.3448(5) -0.6022(6)
H1 H 0.70000 0.25000 -0.33000
H2 H 0.32000 0.17500 0.12000
H3 H 0.70500 0.07200 -0.24700
H4 H 0.61600 0.18300 -0.04000
H5 H 0.25500 0.18300 -0.14900
H6 H 0.35000 0.08600 -0.34900
H7 H 0.31400 -0.01000 -0.01900
H8 H 0.30600 -0.05900 -0.21900
H9 H 0.18800 0.02200 -0.16200
H10 H 0.55900 0.00000 -0.52000
H11 H 0.72700 0.03600 -0.53100
H12 H 0.61100 0.07000 -0.68000
H13 H 0.39100 0.37500 -0.61300
H14 H 0.49300 0.28900 -0.68600
H15 H 0.56000 0.39200 -0.65200
#END
