
#######################################################################
#
#                 Cambridge Crystallographic Data Centre
#                                CCDC
#
#######################################################################
#
# If this CIF has been generated from an entry in the Cambridge
# Structural Database, then it will include bibliographic, chemical,
# crystal, experimental, refinement or atomic coordinate data resulting
# from the CCDC's data processing and validation procedures.
#
#######################################################################

data_CSD_CIF_JESHAR
_audit_creation_date 2007-01-19
_audit_creation_method CSD-ConQuest-V1
_database_code_CSD JESHAR
_database_code_depnum_ccdc_archive 'CCDC 626808'
_chemical_formula_sum 'C17 H15 N1 O6'
_chemical_formula_moiety
;
C17 H15 N1 O6
;
_journal_coden_Cambridge 35
_journal_volume 71
_journal_year 2006
_journal_page_first 7494
_journal_name_full 'J.Org.Chem. '
loop_
_publ_author_name
"S.H.McCooey"
"T.McCabe"
"S.J.Connon"
_chemical_name_systematic
;
trans-2-(Naphthalen-1-yl)-3-nitrocyclopropane-1,1-dicarboxylic acid dimethyl 
ester
;
_chemical_melting_point 391.15
_cell_volume   1547.836
_exptl_crystal_colour 'colorless'
_exptl_crystal_density_diffrn 1.413
_exptl_special_details
;
Melting point range 391.15-392.15K

;
_exptl_crystal_description 'plate'
_exptl_crystal_preparation 'diethyl ether'
_diffrn_ambient_temperature 298
#These two values have been output from a single CSD field.
_refine_ls_R_factor_gt 0.0424
_refine_ls_wR_factor_gt 0.0424
_symmetry_cell_setting monoclinic
_symmetry_space_group_name_H-M 'P 21/c'
_symmetry_Int_Tables_number 14
loop_
_symmetry_equiv_pos_site_id
_symmetry_equiv_pos_as_xyz
1 x,y,z
2 -x,1/2+y,1/2-z
3 -x,-y,-z
4 x,-1/2-y,-1/2+z
_cell_length_a 12.609(2)
_cell_length_b 14.633(2)
_cell_length_c 8.6593(14)
_cell_angle_alpha 90
_cell_angle_beta 104.353(3)
_cell_angle_gamma 90
_cell_formula_units_Z 4
loop_
_atom_type_symbol
_atom_type_radius_bond
C 0.68
H 0.23
N 0.68
O 0.68
loop_
_atom_site_label
_atom_site_type_symbol
_atom_site_fract_x
_atom_site_fract_y
_atom_site_fract_z
O1 O 0.66047(9) 0.16942(6) 0.13601(11)
O2 O 0.69160(8) 0.07227(6) 0.34294(10)
O3 O 0.58297(7) -0.08947(6) 0.19125(13)
C1 C 0.67993(9) 0.09438(8) 0.19111(14)
C2 C 0.96757(9) 0.08243(8) 0.14089(14)
O4 O 0.75418(8) -0.13579(6) 0.20671(15)
C3 C 0.86764(9) 0.09052(8) 0.01929(14)
C4 C 0.78592(9) 0.01540(8) 0.00433(14)
H1 H 0.81530 -0.04480 -0.01240
N1 N 0.61574(9) -0.04487(9) -0.19204(14)
C5 C 0.68280(9) -0.08053(8) 0.16929(15)
C6 C 0.69724(9) 0.01152(8) 0.09686(14)
C7 C 1.04855(10) 0.15184(9) 0.15274(15)
O5 O 0.57939(9) -0.02254(9) -0.33014(13)
C8 C 0.85188(10) 0.16335(9) -0.08282(16)
H2 H 0.78730 0.16760 -0.16250
C9 C 0.9893(1) 0.00890(9) 0.25012(16)
H3 H 0.93710 -0.03670 0.24460
C10 C 0.66860(9) 0.02716(9) -0.08074(14)
H4 H 0.64690 0.08980 -0.11460
C11 C 1.08645(11) 0.00395(10) 0.36420(16)
H5 H 1.09960 -0.04500 0.43480
C12 C 1.16647(10) 0.07254(10) 0.37521(16)
H6 H 1.23220 0.06840 0.45260
O6 O 0.61482(13) -0.12231(8) -0.14179(16)
C13 C 1.14784(10) 0.14469(10) 0.27304(17)
H7 H 1.20080 0.18990 0.28210
C14 C 0.93220(12) 0.23219(10) -0.06926(18)
H8 H 0.91970 0.28170 -0.13890
C15 C 0.67018(12) 0.14360(9) 0.44700(16)
H9 H 0.72730 0.18850 0.46280
H10 H 0.66780 0.11760 0.54790
H11 H 0.60120 0.17200 0.39930
C16 C 1.02803(11) 0.22645(9) 0.04543(18)
H12 H 1.08050 0.27200 0.05320
C17 C 0.56497(13) -0.17352(11) 0.2689(2)
H13 H 0.56740 -0.22420 0.19950
H14 H 0.49460 -0.17150 0.29280
H15 H 0.62100 -0.18070 0.36600
#END
