
#######################################################################
#
#                 Cambridge Crystallographic Data Centre
#                                CCDC
#
#######################################################################
#
# If this CIF has been generated from an entry in the Cambridge
# Structural Database, then it will include bibliographic, chemical,
# crystal, experimental, refinement or atomic coordinate data resulting
# from the CCDC's data processing and validation procedures.
#
#######################################################################

data_CSD_CIF_JESHIZ
_audit_creation_date 2007-01-19
_audit_creation_method CSD-ConQuest-V1
_database_code_CSD JESHIZ
_database_code_depnum_ccdc_archive 'CCDC 619879'
_database_code_depnum_ccdc_journal 1135/249
_chemical_formula_sum 'C15 H12 N4 O2'
_chemical_formula_moiety
;
C15 H12 N4 O2
;
_journal_coden_Cambridge 1135
_journal_year 2006
_journal_page_first 259
_journal_name_full 'Mendeleev Commun. '
loop_
_publ_author_name
"S.I.Molotov"
"M.A.Epishina"
"A.S.Kulikov"
"Yu.V.Nelyubina"
"K.A.Lyssenko"
"K.Yu.Suponitsky"
"N.N.Makhova"
_chemical_name_systematic
;
5-((Hydroxyimino)(phenyl)methyl)-2-phenyl-2H-1,2,3-triazole 1-oxide
;
_chemical_melting_point 448.15
_cell_volume    659.519
_exptl_crystal_colour 'colorless'
_exptl_crystal_density_diffrn 1.411
_exptl_special_details
;
Melting point range 448.15-449.15K

;
_exptl_crystal_description 'prism'
_diffrn_ambient_temperature 178
#These two values have been output from a single CSD field.
_refine_ls_R_factor_gt 0.0373
_refine_ls_wR_factor_gt 0.0373
_symmetry_cell_setting monoclinic
_symmetry_space_group_name_H-M 'P n'
_symmetry_Int_Tables_number 7
loop_
_symmetry_equiv_pos_site_id
_symmetry_equiv_pos_as_xyz
1 x,y,z
2 1/2+x,-y,1/2+z
_cell_length_a 9.940(1)
_cell_length_b 6.2098(9)
_cell_length_c 11.4307(13)
_cell_angle_alpha 90
_cell_angle_beta 110.814(9)
_cell_angle_gamma 90
_cell_formula_units_Z 2
loop_
_atom_type_symbol
_atom_type_radius_bond
C 0.68
H 0.23
N 0.68
O 0.68
loop_
_atom_site_label
_atom_site_type_symbol
_atom_site_fract_x
_atom_site_fract_y
_atom_site_fract_z
O1 O 0.94481(9) 0.67167(12) 0.76681(7)
O2 O 0.69828(10) 0.21240(14) 0.44389(8)
N1 N 0.93532(10) 0.46678(12) 0.75353(8)
N2 N 0.95058(11) 0.32804(14) 0.85030(8)
N3 N 0.93435(14) 0.12246(15) 0.81110(9)
N4 N 0.77530(11) 0.38893(15) 0.42506(9)
C1 C 0.90554(15) 0.13214(17) 0.68818(10)
C2 C 0.90551(12) 0.34577(15) 0.64854(9)
C3 C 0.99099(12) 0.38574(17) 0.97925(9)
C4 C 0.94596(15) 0.5788(2) 1.01503(11)
C5 C 0.98707(17) 0.6235(2) 1.14254(12)
C6 C 1.07059(16) 0.4787(3) 1.23158(11)
C7 C 1.11349(14) 0.2859(2) 1.19343(10)
C8 C 1.07480(12) 0.23802(19) 1.06667(10)
C9 C 0.87738(11) 0.44878(17) 0.52606(9)
C10 C 0.96783(11) 0.63150(16) 0.51429(9)
C11 C 0.90858(13) 0.79535(19) 0.42709(10)
C12 C 0.99433(16) 0.9661(2) 0.41584(12)
C13 C 1.13917(18) 0.9738(3) 0.49089(13)
C14 C 1.19866(16) 0.8106(3) 0.57743(13)
C15 C 1.11343(13) 0.6407(2) 0.58981(11)
H1 H 0.625(2) 0.219(3) 0.3807(19)
H2 H 0.886(2) 0.005(3) 0.6405(17)
H3 H 0.883(2) 0.676(3) 0.9546(18)
H4 H 0.961(2) 0.748(3) 1.1715(19)
H5 H 1.095(2) 0.509(4) 1.324(2)
H6 H 1.167(2) 0.185(4) 1.252(2)
H7 H 1.101(2) 0.103(3) 1.0359(18)
H8 H 0.809(2) 0.785(3) 0.377(2)
H9 H 0.955(2) 1.074(3) 0.3595(18)
H10 H 1.200(2) 1.090(3) 0.481(2)
H11 H 1.304(3) 0.817(4) 0.637(2)
H12 H 1.152(2) 0.534(3) 0.649(2)
#END
