
#######################################################################
#
#                 Cambridge Crystallographic Data Centre
#                                CCDC
#
#######################################################################
#
# If this CIF has been generated from an entry in the Cambridge
# Structural Database, then it will include bibliographic, chemical,
# crystal, experimental, refinement or atomic coordinate data resulting
# from the CCDC's data processing and validation procedures.
#
#######################################################################

data_CSD_CIF_JESVAF
_audit_creation_date 2007-01-19
_audit_creation_method CSD-ConQuest-V1
_database_code_CSD JESVAF
_database_code_depnum_ccdc_archive 'CCDC 628518'
_chemical_formula_sum 'C8 H7 N1 O4'
_chemical_formula_moiety
;
C8 H7 N1 O4
;
_journal_coeditor_code "IUCr SK3059"
_journal_coden_Cambridge 591
_journal_volume 62
_journal_year 2006
_journal_page_first o647
_journal_name_full 'Acta Crystallogr.,Sect.C:Cryst.Struct.Commun. '
loop_
_publ_author_name
"S.M.S.V.Wardell"
"J.L.Wardell"
"J.N.Low"
"C.Glidewell"
_chemical_name_systematic
;
3-Nitrophenylacetic acid
;
_cell_volume   1560.780
_exptl_crystal_colour 'colorless'
_exptl_crystal_density_diffrn 1.542
_exptl_crystal_description 'needle'
_exptl_crystal_preparation 'water'
_diffrn_ambient_temperature 120
#These two values have been output from a single CSD field.
_refine_ls_R_factor_gt 0.0387
_refine_ls_wR_factor_gt 0.0387
_symmetry_cell_setting monoclinic
_symmetry_space_group_name_H-M 'C 2/c'
_symmetry_Int_Tables_number 15
loop_
_symmetry_equiv_pos_site_id
_symmetry_equiv_pos_as_xyz
1 x,y,z
2 1/2+x,1/2+y,z
3 -x,y,1/2-z
4 1/2-x,1/2+y,1/2-z
5 -x,-y,-z
6 -1/2-x,-1/2-y,-z
7 x,-y,-1/2+z
8 -1/2+x,-1/2-y,-1/2+z
_cell_length_a 21.9690(6)
_cell_length_b 9.2901(7)
_cell_length_c 7.9642(2)
_cell_angle_alpha 90
_cell_angle_beta 106.216(2)
_cell_angle_gamma 90
_cell_formula_units_Z 8
loop_
_atom_type_symbol
_atom_type_radius_bond
C 0.68
H 0.23
N 0.68
O 0.68
loop_
_atom_site_label
_atom_site_type_symbol
_atom_site_fract_x
_atom_site_fract_y
_atom_site_fract_z
O1 O 0.47049(5) 0.16282(10) 0.51651(13)
O2 O 0.43311(5) -0.04557(10) 0.58490(15)
O3 O 0.22765(5) 0.56092(11) 0.29531(14)
O4 O 0.28282(5) 0.75666(10) 0.35972(13)
N1 N 0.27493(5) 0.62691(12) 0.37843(15)
C1 C 0.37313(6) 0.32274(14) 0.61287(17)
C2 C 0.32437(6) 0.39825(14) 0.49749(16)
C3 C 0.32499(6) 0.54757(13) 0.50499(17)
C4 C 0.37157(6) 0.62561(14) 0.62303(17)
C5 C 0.41941(6) 0.54895(14) 0.73923(18)
C6 C 0.42016(6) 0.39950(14) 0.73416(17)
C7 C 0.37434(6) 0.16061(14) 0.60971(18)
C8 C 0.43087(6) 0.09578(13) 0.56546(16)
H1 H 0.29130 0.34870 0.41530
H2 H 0.37080 0.72780 0.62440
H3 H 0.45190 0.59900 0.82280
H4 H 0.45320 0.34860 0.81460
H5 H 0.33540 0.12630 0.52320
H6 H 0.37340 0.12460 0.72590
H7 H 0.46440 -0.07820 0.55610
#END
