
#######################################################################
#
#                 Cambridge Crystallographic Data Centre
#                                CCDC
#
#######################################################################
#
# If this CIF has been generated from an entry in the Cambridge
# Structural Database, then it will include bibliographic, chemical,
# crystal, experimental, refinement or atomic coordinate data resulting
# from the CCDC's data processing and validation procedures.
#
#######################################################################

data_CSD_CIF_JESZEN
_audit_creation_date 2007-04-19
_audit_creation_method CSD-ConQuest-V1
_database_code_CSD JESZEN
_database_code_depnum_ccdc_archive 'CCDC 264377'
_chemical_formula_sum 'C22 H19 N3 O3'
_chemical_formula_moiety
;
C22 H19 N3 O3
;
_journal_coden_Cambridge 1268
_journal_volume 12
_journal_year 2007
_journal_page_first 173
_journal_name_full 'Molecules '
loop_
_publ_author_name
"J.Escalante"
"C.Ortiz-Nava"
"P.Flores"
"J.M.Priego"
"C.Garcia-Martinez"
_chemical_name_systematic
;
2,3-Dihydro-2(R)-(p-nitrophenyl)-3-((S)-\a-methylbenzyl)-4(1H)-quinazolinone
;
_chemical_melting_point 467.15
_cell_volume   1892.438
_exptl_crystal_colour 'yellow'
_exptl_crystal_density_diffrn 1.311
_exptl_special_details
;
Melting point range 467.15-469.15K
propeller-like conformer

;
_diffrn_ambient_temperature 298
#These two values have been output from a single CSD field.
_refine_ls_R_factor_gt 0.0471
_refine_ls_wR_factor_gt 0.0471
loop_
_citation_database_id_CSD
_citation_special_details
HETYIP "is a stereoisomer of this entry"
_symmetry_cell_setting orthorhombic
_symmetry_space_group_name_H-M 'P 21 21 21'
_symmetry_Int_Tables_number 19
loop_
_symmetry_equiv_pos_site_id
_symmetry_equiv_pos_as_xyz
1 x,y,z
2 1/2-x,-y,1/2+z
3 -x,1/2+y,1/2-z
4 1/2+x,1/2-y,-z
_cell_length_a 9.1085(9)
_cell_length_b 18.4087(17)
_cell_length_c 11.2863(11)
_cell_angle_alpha 90
_cell_angle_beta 90
_cell_angle_gamma 90
_cell_formula_units_Z 4
loop_
_atom_type_symbol
_atom_type_radius_bond
C 0.68
H 0.23
N 0.68
O 0.68
loop_
_atom_site_label
_atom_site_type_symbol
_atom_site_fract_x
_atom_site_fract_y
_atom_site_fract_z
N1 N 0.6306(3) -0.02041(11) 0.3566(2)
N2 N 0.7295(2) 0.06629(10) 0.49139(16)
N3 N 0.4038(2) 0.26398(11) 0.09513(18)
O1 O 0.6513(2) 0.06305(10) 0.68147(17)
O2 O 0.3172(2) 0.30398(11) 0.1454(2)
O3 O 0.4293(3) 0.26766(13) -0.00985(17)
C1 C 0.7062(2) 0.04764(11) 0.3670(2)
H1 H 0.80320 0.04140 0.33080
C2 C 0.6338(3) 0.04648(12) 0.5773(2)
C3 C 0.5088(2) 0.00062(12) 0.5391(2)
C4 C 0.3925(3) -0.01324(14) 0.6164(3)
H2 H 0.38780 0.01040 0.68910
C5 C 0.2854(3) -0.06165(17) 0.5851(4)
H3 H 0.20770 -0.07060 0.63650
C6 C 0.2920(3) -0.09728(17) 0.4780(4)
H4 H 0.21940 -0.13060 0.45810
C7 C 0.4045(3) -0.08414(14) 0.4006(3)
H5 H 0.40770 -0.10830 0.32820
C8 C 0.5147(3) -0.03444(12) 0.4301(3)
C9 C 0.6273(2) 0.10691(11) 0.29806(18)
C10 C 0.6708(3) 0.12238(12) 0.1840(2)
H6 H 0.75060 0.09780 0.15200
C11 C 0.5990(3) 0.17335(13) 0.1162(2)
H7 H 0.62860 0.18300 0.03890
C12 C 0.4827(2) 0.20954(11) 0.16546(19)
C13 C 0.4370(3) 0.19606(13) 0.27882(19)
H8 H 0.35830 0.22150 0.31090
C14 C 0.5089(3) 0.14455(13) 0.34437(19)
H9 H 0.47760 0.13470 0.42120
C15 C 0.8658(3) 0.10455(14) 0.5237(2)
H10 H 0.85160 0.12410 0.60370
C16 C 0.9906(3) 0.04999(19) 0.5309(4)
H11 H 0.96830 0.01410 0.59000
H12 H 1.07980 0.07470 0.55190
H13 H 1.00270 0.02670 0.45540
C17 C 0.8919(3) 0.16864(12) 0.4427(2)
C18 C 0.9985(3) 0.16884(17) 0.3560(3)
H14 H 1.05910 0.12860 0.34670
C19 C 1.0159(4) 0.2279(3) 0.2836(3)
H15 H 1.08780 0.22690 0.22510
C20 C 0.9310(6) 0.2874(2) 0.2955(4)
H16 H 0.94510 0.32740 0.24660
C21 C 0.8237(5) 0.28808(16) 0.3806(3)
H17 H 0.76430 0.32880 0.38900
C22 C 0.8029(3) 0.22863(13) 0.4543(2)
H18 H 0.72920 0.22930 0.51130
H19 H 0.665(3) -0.0483(15) 0.309(3)
#END
