
#######################################################################
#
#                 Cambridge Crystallographic Data Centre
#                                CCDC
#
#######################################################################
#
# If this CIF has been generated from an entry in the Cambridge
# Structural Database, then it will include bibliographic, chemical,
# crystal, experimental, refinement or atomic coordinate data resulting
# from the CCDC's data processing and validation procedures.
#
#######################################################################

data_CSD_CIF_JETDOE
_audit_creation_date 2018-03-03
_audit_creation_method CSD-ConQuest-V1
_database_code_CSD JETDOE
_database_code_depnum_ccdc_archive 'CCDC 1570099'
_chemical_formula_sum 'C25 H20 N2 O2'
_chemical_formula_moiety
;
C25 H20 N2 O2
;
_journal_coden_Cambridge 24
_journal_volume 59
_journal_year 2018
_journal_page_first 1484
_journal_name_full 'Tetrahedron Lett. '
loop_
_publ_author_name
"Hwa Jung Roh"
"Gieun Kim"
"Sung Cho"
"Ji Yeon Ryu"
"Junseong Lee"
"Jae Nyoung Kim"
_chemical_name_systematic
;
3-(1-hydroxy-2-phenyl-3H-1\l^5^-indol-3-ylidene)-1,5,7-trimethyl-1,3-dihydro-2
H-indol-2-one
;
_cell_volume    973.336
_exptl_crystal_density_diffrn 1.298
_exptl_crystal_description 'block'
_diffrn_ambient_temperature 296
#These two values have been output from a single CSD field.
_refine_ls_R_factor_gt 0.0353
_refine_ls_wR_factor_gt 0.0353
_symmetry_cell_setting triclinic
_symmetry_space_group_name_H-M 'P -1'
_symmetry_Int_Tables_number 2
loop_
_symmetry_equiv_pos_site_id
_symmetry_equiv_pos_as_xyz
1 x,y,z
2 -x,-y,-z
_cell_length_a 8.5334(6)
_cell_length_b 10.7746(7)
_cell_length_c 11.3844(7)
_cell_angle_alpha 73.097(3)
_cell_angle_beta 80.962(3)
_cell_angle_gamma 77.669(3)
_cell_formula_units_Z 2
loop_
_atom_type_symbol
_atom_type_radius_bond
C 0.68
H 0.23
N 0.68
O 0.68
loop_
_atom_site_label
_atom_site_type_symbol
_atom_site_fract_x
_atom_site_fract_y
_atom_site_fract_z
N1 N 0.27132(12) 0.66197(11) 0.43347(9)
C1 C 0.25363(14) 0.57356(12) 0.37602(11)
C2 C 0.24873(15) 0.79185(13) 0.35169(12)
C3 C 0.22598(14) 0.64255(12) 0.24893(11)
C4 C 0.20869(15) 0.78478(13) 0.24044(12)
C5 C 0.17721(18) 0.90217(14) 0.14895(14)
H1 H 0.15000 0.90250 0.07290
C6 C 0.1873(2) 1.01914(15) 0.17371(17)
H2 H 0.16490 1.09810 0.11330
C7 C 0.26147(19) 0.90654(15) 0.37729(15)
H3 H 0.29010 0.90630 0.45290
C8 C 0.2296(2) 1.02162(16) 0.28517(17)
H4 H 0.23660 1.10150 0.29820
O1 O 0.29362(12) 0.64208(10) 0.54647(8)
O2 O 0.06771(13) 0.74980(11) 0.00922(10)
C9 C 0.23088(14) 0.43913(12) 0.44341(10)
C10 C 0.11536(15) 0.38555(13) 0.40921(11)
H5 H 0.05370 0.43600 0.34560
C11 C 0.31843(17) 0.36311(14) 0.54069(12)
H6 H 0.39400 0.39770 0.56640
C12 C 0.09150(16) 0.25892(14) 0.46841(13)
H7 H 0.01500 0.22420 0.44400
C13 C 0.2936(2) 0.23646(15) 0.59938(14)
H8 H 0.35360 0.18590 0.66390
C14 C 0.1806(2) 0.18378(15) 0.56349(14)
H9 H 0.16500 0.09820 0.60340
N2 N 0.19783(13) 0.55494(12) -0.03066(9)
C15 C 0.32759(14) 0.45571(12) 0.14292(10)
C16 C 0.16054(16) 0.64498(14) 0.03746(12)
C17 C 0.24014(14) 0.58385(12) 0.15419(11)
C18 C 0.30171(15) 0.44126(13) 0.02884(11)
C19 C 0.1310(2) 0.58126(19) -0.14741(13)
H10 H 0.05000 0.65960 -0.15790
H11 H 0.08350 0.50810 -0.14730
H12 H 0.21530 0.59350 -0.21400
C20 C 0.43821(15) 0.36183(12) 0.21473(11)
H13 H 0.46000 0.37350 0.28790
C21 C 0.51579(16) 0.25102(13) 0.17715(13)
C22 C 0.48207(18) 0.23808(15) 0.06591(14)
H14 H 0.53270 0.16250 0.04210
C23 C 0.37755(17) 0.33094(15) -0.01182(13)
C24 C 0.3555(2) 0.3068(2) -0.13213(16)
H15 H 0.42570 0.22710 -0.14160
H16 H 0.38140 0.37950 -0.19950
H17 H 0.24560 0.29860 -0.13160
C25 C 0.6323(2) 0.14628(15) 0.25459(16)
H18 H 0.66580 0.18120 0.31320
H19 H 0.72470 0.11830 0.20240
H20 H 0.58070 0.07240 0.29760
#END
