
#######################################################################
#
#                 Cambridge Crystallographic Data Centre
#                                CCDC
#
#######################################################################
#
# If this CIF has been generated from an entry in the Cambridge
# Structural Database, then it will include bibliographic, chemical,
# crystal, experimental, refinement or atomic coordinate data resulting
# from the CCDC's data processing and validation procedures.
#
#######################################################################

data_CSD_CIF_JEXFOH
_audit_creation_date 1991-07-04
_audit_creation_method CSD-ConQuest-V1
_database_code_CSD JEXFOH
_database_code_depnum_ccdc_archive 'CCDC 1185401'
_chemical_formula_sum 'C24 H31 N1 O10'
_chemical_formula_moiety
;
C24 H31 N1 O10
;
_journal_coden_Cambridge 182
_journal_year 1990
_journal_page_first 1508
_journal_name_full 'Chem.Commun. '
loop_
_publ_author_name
"A.Bhattacharjya"
"P.Chattopadhyay"
"A.T.McPhail"
"D.R.McPhail"
_chemical_name_systematic
;
4-Acetoxy-2-benzyl-5-(1,2,3-triacetoxypropyl)-1,6-dioxa-3,8-methano-2-azaocane
;
_chemical_melting_point 438.15
_cell_volume   1292.229
_exptl_crystal_density_diffrn 1.268
_exptl_special_details
;
Melting point range 438.15-439.15K

;
_diffrn_ambient_temperature ?
_diffrn_special_details
;
The study was carried out at room temperature,in the range 283-303K

;
#These two values have been output from a single CSD field.
_refine_ls_R_factor_gt 0.048
_refine_ls_wR_factor_gt 0.048
_symmetry_cell_setting monoclinic
_symmetry_space_group_name_H-M 'P 21'
_symmetry_Int_Tables_number 4
loop_
_symmetry_equiv_pos_site_id
_symmetry_equiv_pos_as_xyz
1 x,y,z
2 -x,1/2+y,-z
_cell_length_a 12.571(1)
_cell_length_b 9.025(1)
_cell_length_c 11.390(1)
_cell_angle_alpha 90
_cell_angle_beta 90.14(1)
_cell_angle_gamma 90
_cell_formula_units_Z 2
loop_
_atom_type_symbol
_atom_type_radius_bond
C 0.68
H 0.23
N 0.68
O 0.68
loop_
_atom_site_label
_atom_site_type_symbol
_atom_site_fract_x
_atom_site_fract_y
_atom_site_fract_z
C1 C -0.0125(3) 0.1088(4) 0.3981(3)
C2 C -0.0499(2) 0.0281(5) 0.2888(3)
O1 O 0.0346(2) -0.0288(3) 0.2189(2)
C3 C 0.1081(2) -0.1247(4) 0.2768(3)
C4 C 0.2015(2) -0.0381(4) 0.3262(2)
C5 C 0.1728(2) 0.0744(4) 0.4213(3)
N1 N 0.1210(2) -0.0049(4) 0.5182(2)
O2 O 0.0084(2) 0.00000 0.4897(2)
C6 C 0.0919(3) 0.1911(4) 0.3814(3)
C7 C 0.1416(2) -0.2340(4) 0.1794(3)
C8 C 0.2294(3) -0.3425(4) 0.2120(3)
C9 C 0.2019(3) -0.4414(5) 0.3145(4)
O3 O 0.0467(2) -0.3160(3) 0.1516(2)
C10 C 0.0109(3) -0.3079(5) 0.0398(3)
O4 O 0.0621(2) -0.2563(5) -0.0385(2)
C11 C -0.0982(3) -0.3738(7) 0.0310(4)
O5 O 0.2470(2) -0.4380(3) 0.1130(2)
C12 C 0.3132(3) -0.3892(5) 0.0279(3)
O6 O 0.3632(2) -0.2770(4) 0.0359(3)
C13 C 0.3147(4) -0.4936(7) -0.0738(4)
O7 O 0.2969(2) -0.5223(4) 0.3494(3)
C14 C 0.3282(4) -0.5207(9) 0.4553(4)
O8 O 0.2699(4) -0.4811(14) 0.5317(5)
C15 C 0.4259(4) -0.6034(11) 0.4779(6)
O9 O 0.2485(2) 0.0396(3) 0.2276(2)
C16 C 0.3545(3) 0.0532(6) 0.2206(3)
O10 O 0.4120(2) 0.0022(8) 0.2915(3)
C17 C 0.3847(3) 0.1352(9) 0.1142(4)
C18 C 0.1311(3) 0.0747(6) 0.6317(3)
C19 C 0.2404(3) 0.0513(6) 0.6835(3)
C20 C 0.3053(4) 0.1701(6) 0.7114(4)
C21 C 0.4039(4) 0.1471(8) 0.7639(5)
C22 C 0.4365(4) 0.0114(11) 0.7873(5)
C23 C 0.3746(5) -0.1044(10) 0.7619(7)
C24 C 0.2771(4) -0.0875(8) 0.7098(6)
H1 H -0.07270 0.18480 0.41880
H2 H -0.09450 0.10210 0.23730
H3 H -0.09840 -0.06080 0.31460
H4 H 0.07560 -0.17950 0.34960
H5 H 0.25290 -0.11350 0.36750
H6 H 0.24420 0.12730 0.44430
H7 H 0.09550 0.28640 0.43400
H8 H 0.10340 0.22060 0.29310
H9 H 0.17360 -0.17230 0.10970
H10 H 0.29600 -0.27890 0.23540
H11 H 0.14210 -0.51640 0.28960
H12 H 0.17490 -0.37660 0.38500
H13 H -0.12510 -0.36680 -0.05600
H14 H -0.09540 -0.48530 0.05700
H15 H -0.15030 -0.31530 0.08600
H16 H 0.26320 -0.58270 -0.05700
H17 H 0.28960 -0.43780 -0.14990
H18 H 0.39230 -0.53370 -0.08590
H19 H 0.46410 -0.62610 0.39800
H20 H 0.47650 -0.54020 0.53160
H21 H 0.40740 -0.70340 0.52030
H22 H 0.46780 0.14450 0.11050
H23 H 0.35710 0.07800 0.03980
H24 H 0.35060 0.24130 0.11640
H25 H 0.07370 0.03440 0.69040
H26 H 0.11880 0.18840 0.61780
H27 H 0.28100 0.27320 0.69360
H28 H 0.45010 0.23370 0.78390
H29 H 0.50780 -0.00470 0.82410
H30 H 0.40010 -0.20640 0.78130
H31 H 0.23260 -0.17640 0.69100
#END
