
#######################################################################
#
#                 Cambridge Crystallographic Data Centre
#                                CCDC
#
#######################################################################
#
# If this CIF has been generated from an entry in the Cambridge
# Structural Database, then it will include bibliographic, chemical,
# crystal, experimental, refinement or atomic coordinate data resulting
# from the CCDC's data processing and validation procedures.
#
#######################################################################

data_CSD_CIF_JEXFEA
_audit_creation_date 2018-03-05
_audit_creation_method CSD-ConQuest-V1
_database_code_CSD JEXFEA
_database_code_depnum_ccdc_archive 'CCDC 1451834'
_chemical_formula_sum 'C21 H21 N1 O4'
_chemical_formula_moiety
;
C21 H21 N1 O4
;
_journal_coden_Cambridge 179
_journal_volume 57
_journal_year 2018
_journal_page_first 668
_journal_name_full 'Angew.Chem.,Int.Ed. '
loop_
_publ_author_name
"M.de G.Retamosa"
"A.Ruiz-Olalla"
"T.Bello"
"A.de Cozar"
"F.P.Cossio"
_chemical_name_systematic
;
1-(benzoyloxy)-7a-hydroxy-3-phenyloctahydro-2H-indol-2-one
;
_cell_volume    897.744
_exptl_crystal_colour 'colorless'
_exptl_crystal_density_diffrn 1.3
_exptl_special_details
;
Absolute configuration

;
_exptl_crystal_description 'prism'
_diffrn_ambient_temperature 100
#These two values have been output from a single CSD field.
_refine_ls_R_factor_gt 0.0262
_refine_ls_wR_factor_gt 0.0262
_symmetry_cell_setting monoclinic
_symmetry_space_group_name_H-M 'P 21'
_symmetry_Int_Tables_number 4
loop_
_symmetry_equiv_pos_site_id
_symmetry_equiv_pos_as_xyz
1 x,y,z
2 -x,1/2+y,-z
_cell_length_a 8.8731(1)
_cell_length_b 9.8039(2)
_cell_length_c 10.3325(2)
_cell_angle_alpha 90
_cell_angle_beta 92.823(1)
_cell_angle_gamma 90
_cell_formula_units_Z 2
loop_
_atom_type_symbol
_atom_type_radius_bond
C 0.68
H 0.23
N 0.68
O 0.68
loop_
_atom_site_label
_atom_site_type_symbol
_atom_site_fract_x
_atom_site_fract_y
_atom_site_fract_z
O1 O -0.15313(14) 0.36713(13) 0.55323(12)
O2 O 0.17178(15) 0.62583(14) 0.31422(11)
H1 H 0.16090 0.70060 0.35240
O3 O -0.09210(14) 0.44544(13) 0.30493(11)
O4 O -0.24442(15) 0.62696(14) 0.33956(13)
N1 N -0.00748(17) 0.48781(16) 0.41645(14)
C1 C -0.03680(19) 0.42772(18) 0.53115(16)
C2 C 0.10283(19) 0.44922(18) 0.61992(16)
H2 H 0.15980 0.36130 0.62610
C3 C 0.19691(19) 0.55278(17) 0.54433(15)
H3 H 0.15800 0.64620 0.56260
C4 C 0.3674(2) 0.5535(2) 0.57402(17)
H4 H 0.41050 0.63680 0.53630
H5 H 0.38700 0.55770 0.66910
C5 C 0.4480(2) 0.4290(2) 0.52151(19)
H6 H 0.55840 0.43990 0.53650
H7 H 0.41680 0.34620 0.56800
C6 C 0.4096(2) 0.4127(2) 0.3766(2)
H8 H 0.46230 0.33180 0.34340
H9 H 0.44420 0.49400 0.32960
C7 C 0.2389(2) 0.39563(19) 0.35245(17)
H10 H 0.21520 0.38380 0.25850
H11 H 0.20510 0.31270 0.39740
C8 C 0.1544(2) 0.51920(18) 0.40119(16)
C9 C 0.0709(2) 0.49491(18) 0.75559(16)
C10 C -0.0465(2) 0.58482(18) 0.77766(17)
H12 H -0.11280 0.61220 0.70750
C11 C -0.0677(2) 0.6350(2) 0.90114(18)
H13 H -0.14840 0.69610 0.91510
C12 C 0.0291(2) 0.5959(2) 1.00434(18)
H14 H 0.01590 0.63120 1.08870
C13 C 0.1447(2) 0.5054(2) 0.98339(18)
H15 H 0.21060 0.47810 1.05380
C14 C 0.1654(2) 0.4537(2) 0.85970(18)
H16 H 0.24420 0.39030 0.84660
C15 C -0.2110(2) 0.53228(18) 0.27354(17)
C16 C -0.2852(2) 0.49212(18) 0.14722(16)
C17 C -0.2438(2) 0.37562(19) 0.08049(17)
H17 H -0.17220 0.31390 0.11900
C18 C -0.3075(2) 0.3500(2) -0.04250(18)
H18 H -0.27920 0.27080 -0.08840
C19 C -0.4125(2) 0.4401(2) -0.09851(18)
H19 H -0.45450 0.42320 -0.18330
C20 C -0.4562(2) 0.5545(2) -0.03105(19)
H20 H -0.52950 0.61500 -0.06900
C21 C -0.3931(2) 0.58088(19) 0.09184(18)
H21 H -0.42330 0.65910 0.13820
#END
