
#######################################################################
#
#                 Cambridge Crystallographic Data Centre
#                                CCDC
#
#######################################################################
#
# If this CIF has been generated from an entry in the Cambridge
# Structural Database, then it will include bibliographic, chemical,
# crystal, experimental, refinement or atomic coordinate data resulting
# from the CCDC's data processing and validation procedures.
#
#######################################################################

data_CSD_CIF_JEXKOM
_audit_creation_date 1991-07-03
_audit_creation_method CSD-ConQuest-V1
_database_code_CSD JEXKOM
_database_code_depnum_ccdc_archive 'CCDC 1185425'
_chemical_formula_sum 'C15 H15 N1 O4'
_chemical_formula_moiety
;
C15 H15 N1 O4
;
_journal_coden_Cambridge 154
_journal_volume 43
_journal_year 1990
_journal_page_first 1519
_journal_name_full 'Aust.J.Chem. '
loop_
_publ_author_name
"M.P.Hartshorn"
"M.C.Judd"
"R.J.Martyn"
"W.T.Robinson"
"G.J.Wright"
"R.W.Vannoort"
_chemical_name_systematic
;
4-Hydroxy-3,4,5-trimethyl-2-nitro-6-phenylcyclohexa-2,5-dienone
;
_chemical_melting_point 470.15
_cell_volume   1385.095
_exptl_crystal_colour 'colorless'
_exptl_crystal_density_diffrn 1.31
_exptl_special_details
;
Melting point range 470.15-472.15K

;
_diffrn_ambient_temperature 173
#These two values have been output from a single CSD field.
_refine_ls_R_factor_gt 0.063
_refine_ls_wR_factor_gt 0.063
_symmetry_cell_setting orthorhombic
_symmetry_space_group_name_H-M 'P n a 21'
_symmetry_Int_Tables_number 33
loop_
_symmetry_equiv_pos_site_id
_symmetry_equiv_pos_as_xyz
1 x,y,z
2 1/2-x,1/2+y,1/2+z
3 1/2+x,1/2-y,z
4 -x,-y,1/2+z
_cell_length_a 20.380(7)
_cell_length_b 6.304(3)
_cell_length_c 10.781(5)
_cell_angle_alpha 90
_cell_angle_beta 90
_cell_angle_gamma 90
_cell_formula_units_Z 4
loop_
_atom_type_symbol
_atom_type_radius_bond
C 0.68
H 0.23
N 0.68
O 0.68
loop_
_atom_site_label
_atom_site_type_symbol
_atom_site_fract_x
_atom_site_fract_y
_atom_site_fract_z
O1 O 0.4962(3) 0.4998(11) 0.92560
O2 O 0.4623(3) 0.1023(10) 0.4929(8)
O3 O 0.3440(3) 0.5828(11) 0.8051(8)
O4 O 0.3589(3) 0.3592(10) 0.9549(9)
N1 N 0.3710(4) 0.4301(12) 0.8529(9)
C1 C 0.4915(4) 0.3899(14) 0.8301(10)
C2 C 0.4267(4) 0.3276(14) 0.7831(11)
C3 C 0.4143(4) 0.2039(14) 0.6876(11)
C4 C 0.4730(4) 0.0965(16) 0.6246(11)
C5 C 0.5384(4) 0.1891(14) 0.6590(11)
C6 C 0.5478(4) 0.3177(14) 0.759(1)
C7 C 0.3469(4) 0.1592(16) 0.6399(11)
C8 C 0.4724(4) -0.1389(14) 0.6631(11)
C9 C 0.5961(4) 0.1234(15) 0.5796(10)
C10 C 0.6138(4) 0.3888(14) 0.8016(10)
C11 C 0.6401(4) 0.5828(17) 0.7648(11)
C12 C 0.7009(5) 0.6495(16) 0.8091(11)
C13 C 0.7354(4) 0.5259(15) 0.8893(11)
C14 C 0.7107(5) 0.3362(16) 0.9280(12)
C15 C 0.6486(4) 0.2679(16) 0.8834(10)
H1 H 0.33870 0.00610 0.64220
H2 H 0.34870 0.20700 0.55350
H3 H 0.31150 0.23370 0.68330
H4 H 0.50900 -0.20800 0.62000
H5 H 0.43120 -0.20960 0.64070
H6 H 0.47910 -0.14880 0.75290
H7 H 0.59920 -0.03070 0.56900
H8 H 0.63900 0.17950 0.60440
H9 H 0.58270 0.18880 0.50120
H10 H 0.61590 0.67210 0.70910
H11 H 0.71890 0.78260 0.78240
H12 H 0.77740 0.57220 0.91920
H13 H 0.73480 0.24960 0.98540
H14 H 0.63100 0.13450 0.91050
#END
