
#######################################################################
#
#                 Cambridge Crystallographic Data Centre
#                                CCDC
#
#######################################################################
#
# If this CIF has been generated from an entry in the Cambridge
# Structural Database, then it will include bibliographic, chemical,
# crystal, experimental, refinement or atomic coordinate data resulting
# from the CCDC's data processing and validation procedures.
#
#######################################################################

data_CSD_CIF_JEXVEO
_audit_creation_date 2007-04-27
_audit_creation_method CSD-ConQuest-V1
_database_code_CSD JEXVEO
_database_code_depnum_ccdc_archive 'CCDC 639510'
_chemical_formula_sum 'C11 H7 N1 O6'
_chemical_formula_moiety
;
C11 H7 N1 O6
;
_journal_coden_Cambridge 9
_journal_volume 46
_journal_year 2007
_journal_page_first 351
_journal_name_full 'Inorg.Chem. '
loop_
_publ_author_name
"M.Seitz"
"M.D.Pluth"
"K.N.Raymond"
_chemical_name_systematic
;
5-Nitro-isocoumarin-3-carboxylic acid methyl ester
;
_chemical_melting_point 444
_cell_volume    518.062
_exptl_crystal_colour 'colorless'
_exptl_crystal_density_diffrn 1.597
_exptl_special_details
;
CIF given in the supporting information associated with the paper but the 
structure has not been described in the paper
;
_exptl_crystal_description 'block'
_diffrn_ambient_temperature 155
#These two values have been output from a single CSD field.
_refine_ls_R_factor_gt 0.0473
_refine_ls_wR_factor_gt 0.0473
_symmetry_cell_setting triclinic
_symmetry_space_group_name_H-M 'P -1'
_symmetry_Int_Tables_number 2
loop_
_symmetry_equiv_pos_site_id
_symmetry_equiv_pos_as_xyz
1 x,y,z
2 -x,-y,-z
_cell_length_a 7.473(2)
_cell_length_b 7.939(3)
_cell_length_c 10.195(3)
_cell_angle_alpha 73.012(5)
_cell_angle_beta 69.945(5)
_cell_angle_gamma 68.208(4)
_cell_formula_units_Z 2
loop_
_atom_type_symbol
_atom_type_radius_bond
C 0.68
H 0.23
N 0.68
O 0.68
loop_
_atom_site_label
_atom_site_type_symbol
_atom_site_fract_x
_atom_site_fract_y
_atom_site_fract_z
O1 O 0.3916(2) 0.13994(19) 0.37038(15)
O2 O 0.4630(2) 0.4028(2) 0.27940(16)
O3 O 0.8231(2) -0.2804(2) -0.13443(15)
O4 O 0.8185(2) -0.37827(19) 0.08822(15)
O5 O 0.1762(2) -0.0533(2) 0.58480(14)
C1 C 0.6168(3) 0.1762(3) 0.1328(2)
C2 C 0.7641(3) -0.0644(3) -0.0015(2)
C3 C 0.5312(3) -0.1112(3) 0.2463(2)
H1 H 0.54420 -0.23210 0.24570
N1 N 0.8047(2) -0.2553(2) -0.01687(18)
O6 O 0.2870(2) -0.2816(2) 0.46100(15)
C4 C 0.4100(3) -0.0333(3) 0.3580(2)
C5 C 0.6418(3) -0.0069(3) 0.1266(2)
C6 C 0.8484(3) 0.0488(3) -0.1171(2)
H2 H 0.92390 0.00590 -0.20120
C7 C 0.4888(3) 0.2518(3) 0.2616(2)
C8 C 0.2782(3) -0.1214(3) 0.4815(2)
C9 C 0.8192(3) 0.2286(3) -0.1069(2)
H3 H 0.87620 0.30670 -0.18390
C10 C 0.1671(3) -0.3856(3) 0.5739(2)
H4 H 0.18590 -0.49880 0.54760
H5 H 0.02870 -0.31400 0.58940
H6 H 0.20710 -0.41280 0.65970
C11 C 0.7057(3) 0.2900(3) 0.0178(2)
H7 H 0.68820 0.40950 0.02520
#END
