
#######################################################################
#
#                 Cambridge Crystallographic Data Centre
#                                CCDC
#
#######################################################################
#
# If this CIF has been generated from an entry in the Cambridge
# Structural Database, then it will include bibliographic, chemical,
# crystal, experimental, refinement or atomic coordinate data resulting
# from the CCDC's data processing and validation procedures.
#
#######################################################################

data_CSD_CIF_JEYKEG
_audit_creation_date 2018-03-06
_audit_creation_method CSD-ConQuest-V1
_database_code_CSD JEYKEG
_database_code_depnum_ccdc_archive 'CCDC 1827832'
_chemical_formula_sum 'C20 H20 N2 O5'
_chemical_formula_moiety
;
C20 H20 N2 O5
;
_journal_coden_Cambridge 4
_journal_volume 140
_journal_year 2018
_journal_page_first 2080
_journal_name_full 'J.Am.Chem.Soc. '
loop_
_publ_author_name
"Xiaohong Huo"
"Jiacheng Zhang"
"Jingke Fu"
"Rui He"
"Wanbin Zhang"
_chemical_name_systematic
;
methyl \b-ethenyl-\a-methyl-N-(4-nitrobenzene-1-carbonyl)phenylalaninate
;
_cell_volume    906.483
_exptl_crystal_colour 'colorless'
_exptl_crystal_density_diffrn 1.35
_exptl_special_details
;
Absolute configuration

;
_exptl_crystal_description 'block'
_diffrn_ambient_temperature 173
_diffrn_special_details
;
twin

;
#These two values have been output from a single CSD field.
_refine_ls_R_factor_gt 0.1194
_refine_ls_wR_factor_gt 0.1194
loop_
_citation_database_id_CSD
_citation_special_details
JEYKAC "is a stereoisomer of this entry"
_symmetry_cell_setting monoclinic
_symmetry_space_group_name_H-M 'P 21'
_symmetry_Int_Tables_number 4
loop_
_symmetry_equiv_pos_site_id
_symmetry_equiv_pos_as_xyz
1 x,y,z
2 -x,1/2+y,-z
_cell_length_a 7.3510(4)
_cell_length_b 6.8049(4)
_cell_length_c 18.1326(11)
_cell_angle_alpha 90
_cell_angle_beta 92.015(3)
_cell_angle_gamma 90
_cell_formula_units_Z 2
loop_
_atom_type_symbol
_atom_type_radius_bond
C 0.68
H 0.23
N 0.68
O 0.68
loop_
_atom_site_label
_atom_site_type_symbol
_atom_site_fract_x
_atom_site_fract_y
_atom_site_fract_z
O1 O 0.4773(12) 0.1971(13) 0.2206(5)
C1 C 0.4300(19) 0.640(2) 0.1135(7)
N1 N 0.6314(14) 0.5139(15) 0.3045(5)
H1 H 0.74160 0.55360 0.29420
N2 N 1.1569(16) 0.4087(17) 0.5976(5)
O2 O 0.2144(10) 0.3531(12) 0.2348(4)
C2 C 0.3516(18) 0.817(2) 0.0935(7)
H2 H 0.37770 0.93160 0.12200
O3 O 0.4536(12) 0.3434(17) 0.3824(5)
C3 C 0.2332(18) 0.829(3) 0.0310(7)
H3 H 0.18320 0.95260 0.01600
O4 O 1.1035(15) 0.3836(17) 0.6611(5)
C4 C 0.2646(19) 0.483(2) 0.0110(7)
H4 H 0.23550 0.36980 -0.01760
O5 O 1.3184(13) 0.4173(17) 0.5840(6)
C5 C 0.1905(18) 0.663(3) -0.0081(8)
H5 H 0.10790 0.67160 -0.04950
C6 C 0.7366(15) 0.536(2) 0.1590(6)
H6 H 0.73110 0.39980 0.14780
C7 C 0.5647(15) 0.630(2) 0.1791(7)
H7 H 0.59700 0.76960 0.19080
C8 C 0.3823(18) 0.470(2) 0.0726(7)
H8 H 0.43080 0.34580 0.08710
C9 C 0.8923(16) 0.618(3) 0.1548(8)
H9 H 0.90550 0.75450 0.16540
H10 H 0.99480 0.54330 0.14120
C10 C 0.4805(17) 0.545(2) 0.2526(7)
C11 C 0.3455(17) 0.694(2) 0.2808(7)
H11 H 0.24790 0.71470 0.24340
H12 H 0.40810 0.81860 0.29100
H13 H 0.29330 0.64450 0.32630
C12 C 0.3949(14) 0.3440(17) 0.2353(5)
C13 C 0.1171(19) 0.170(2) 0.2193(9)
H14 H 0.13510 0.13070 0.16810
H15 H -0.01300 0.18910 0.22690
H16 H 0.16410 0.06690 0.25260
C14 C 0.5993(17) 0.421(2) 0.3702(7)
C15 C 0.7486(16) 0.4249(18) 0.4269(6)
C16 C 0.704(2) 0.433(2) 0.5015(8)
H17 H 0.58060 0.44070 0.51460
C17 C 0.8390(15) 0.431(2) 0.5555(7)
H18 H 0.80780 0.43930 0.60580
C18 C 1.0145(16) 0.419(2) 0.5382(7)
C19 C 1.0756(16) 0.4144(19) 0.4656(7)
H19 H 1.20080 0.41130 0.45420
C20 C 0.9322(19) 0.415(2) 0.4107(7)
H20 H 0.96340 0.40900 0.36030
#END
