
#######################################################################
#
#                 Cambridge Crystallographic Data Centre
#                                CCDC
#
#######################################################################
#
# If this CIF has been generated from an entry in the Cambridge
# Structural Database, then it will include bibliographic, chemical,
# crystal, experimental, refinement or atomic coordinate data resulting
# from the CCDC's data processing and validation procedures.
#
#######################################################################

data_CSD_CIF_JEZZUJ
_audit_creation_date 1991-07-04
_audit_creation_method CSD-ConQuest-V1
_database_code_CSD JEZZUJ
_chemical_formula_sum 'C9 H6 N4 O5'
_chemical_formula_moiety
;
C9 H6 N4 O5
;
_journal_coden_Cambridge 35
_journal_volume 55
_journal_year 1990
_journal_page_first 5746
_journal_name_full 'J.Org.Chem. '
loop_
_publ_author_name
"P.E.Eaton"
"K.Pramod"
"R.Gilardi"
_chemical_name_systematic
;
3,5-Dinitro-3,5-diazahexacyclo(5.4.0.0^2,6^.0^2,10^.0^6,9^.0^8,11^)undecan-4-o
ne
;
_chemical_name_common
;
N,N'-Dinitrocubanourea
;
_chemical_melting_point 483.15
_cell_volume    957.431
_exptl_crystal_colour 'colorless'
_exptl_crystal_density_diffrn 1.736
_diffrn_ambient_temperature ?
_diffrn_special_details
;
The study was carried out at room temperature,in the range 283-303K

;
#These two values have been output from a single CSD field.
_refine_ls_R_factor_gt 0.034
_refine_ls_wR_factor_gt 0.034
_symmetry_cell_setting monoclinic
_symmetry_space_group_name_H-M 'P 21/c'
_symmetry_Int_Tables_number 14
loop_
_symmetry_equiv_pos_site_id
_symmetry_equiv_pos_as_xyz
1 x,y,z
2 -x,1/2+y,1/2-z
3 -x,-y,-z
4 x,-1/2-y,-1/2+z
_cell_length_a 9.669(3)
_cell_length_b 5.972(1)
_cell_length_c 16.584(6)
_cell_angle_alpha 90
_cell_angle_beta 91.12(3)
_cell_angle_gamma 90
_cell_formula_units_Z 4
loop_
_atom_type_symbol
_atom_type_radius_bond
C 0.68
H 0.23
N 0.68
O 0.68
loop_
_atom_site_label
_atom_site_type_symbol
_atom_site_fract_x
_atom_site_fract_y
_atom_site_fract_z
C1 C 1.1909(2) 0.3717(4) 0.1443(1)
C2 C 1.2774(2) 0.3146(3) 0.0706(1)
C3 C 1.3577(2) 0.5392(4) 0.0793(1)
C4 C 1.4628(2) 0.4124(5) 0.1352(1)
C5 C 1.3835(2) 0.1870(4) 0.1246(1)
C6 C 1.2954(2) 0.2454(4) 0.2004(1)
C7 C 1.3755(2) 0.4700(5) 0.2096(1)
C8 C 1.2684(2) 0.5971(4) 0.1551(1)
N1 N 1.0523(2) 0.3236(3) 0.1186(1)
N2 N 0.9412(2) 0.3741(3) 0.1683(1)
O1 O 0.9749(2) 0.4411(3) 0.2347(1)
O2 O 0.8250(2) 0.3463(3) 0.1414(1)
C9 C 1.0383(2) 0.2652(3) 0.0363(1)
O3 O 0.9353(2) 0.2403(3) -0.0027(1)
N3 N 1.1770(2) 0.2442(3) 0.0117(1)
N4 N 1.2153(2) 0.1809(3) -0.0657(1)
O4 O 1.3397(2) 0.1652(3) -0.0736(1)
O5 O 1.1257(2) 0.1507(3) -0.1160(1)
H1 H 1.3753(22) 0.6462(40) 0.0372(14)
H2 H 1.5580(24) 0.4191(41) 0.1301(14)
H3 H 1.4234(24) 0.0464(42) 0.1125(14)
H4 H 1.2729(24) 0.1488(43) 0.2461(16)
H5 H 1.4054(22) 0.5222(41) 0.2618(15)
H6 H 1.2238(22) 0.7369(40) 0.1663(12)
#END
