
#######################################################################
#
#                 Cambridge Crystallographic Data Centre
#                                CCDC
#
#######################################################################
#
# If this CIF has been generated from an entry in the Cambridge
# Structural Database, then it will include bibliographic, chemical,
# crystal, experimental, refinement or atomic coordinate data resulting
# from the CCDC's data processing and validation procedures.
#
#######################################################################

data_CSD_CIF_JIDBIH
_audit_creation_date 1991-08-27
_audit_creation_method CSD-ConQuest-V1
_database_code_CSD JIDBIH
_chemical_formula_sum 'C12 H20 N2 O4'
_chemical_formula_moiety
;
C12 H20 N2 O4
;
_journal_coden_Cambridge 188
_journal_year 1990
_journal_page_first 2039
_journal_name_full 'J.Chem.Soc.,Perkin Trans.2 '
loop_
_publ_author_name
"Yu Lin Lam"
"Hsing Hua Huang"
"T.W.Hambley"
_chemical_name_systematic
;
1,1'-Dinitrobicyclohexyl
;
_cell_volume   1279.004
_exptl_crystal_colour 'colorless'
_exptl_crystal_density_diffrn 1.331
_diffrn_ambient_temperature ?
_diffrn_special_details
;
The study was carried out at room temperature,in the range 283-303K

;
#These two values have been output from a single CSD field.
_refine_ls_R_factor_gt 0.035
_refine_ls_wR_factor_gt 0.035
_symmetry_cell_setting monoclinic
_symmetry_space_group_name_H-M 'C 2/c'
_symmetry_Int_Tables_number 15
loop_
_symmetry_equiv_pos_site_id
_symmetry_equiv_pos_as_xyz
1 x,y,z
2 1/2+x,1/2+y,z
3 -x,y,1/2-z
4 1/2-x,1/2+y,1/2-z
5 -x,-y,-z
6 -1/2-x,-1/2-y,-z
7 x,-y,-1/2+z
8 -1/2+x,-1/2-y,-1/2+z
_cell_length_a 6.461(1)
_cell_length_b 11.012(1)
_cell_length_c 17.978(3)
_cell_angle_alpha 90
_cell_angle_beta 90.73(1)
_cell_angle_gamma 90
_cell_formula_units_Z 4
loop_
_atom_type_symbol
_atom_type_radius_bond
C 0.68
H 0.23
N 0.68
O 0.68
loop_
_atom_site_label
_atom_site_type_symbol
_atom_site_fract_x
_atom_site_fract_y
_atom_site_fract_z
C1 C 0.5076(2) 0.5669(1) 0.7939(1)
C2 C 0.6392(3) 0.6733(2) 0.8225(1)
C3 C 0.6532(3) 0.6784(2) 0.9075(1)
C4 C 0.4411(3) 0.6814(2) 0.9419(1)
C5 C 0.3152(3) 0.5731(2) 0.9170(1)
C6 C 0.2982(3) 0.5655(2) 0.8324(1)
N1 N 0.6236(2) 0.4488(1) 0.8160(1)
O1 O 0.5214(2) 0.3592(1) 0.8299(1)
O2 O 0.8112(2) 0.4500(1) 0.8182(1)
H1 H 0.577(3) 0.748(2) 0.805(1)
H2 H 0.779(3) 0.670(2) 0.800(1)
H3 H 0.729(3) 0.607(2) 0.926(1)
H4 H 0.732(3) 0.753(2) 0.921(1)
H5 H 0.367(3) 0.756(2) 0.927(1)
H6 H 0.452(3) 0.681(2) 0.997(1)
H7 H 0.184(4) 0.573(2) 0.936(1)
H8 H 0.380(3) 0.496(2) 0.936(1)
H9 H 0.219(2) 0.498(2) 0.818(1)
H10 H 0.229(2) 0.636(2) 0.817(1)
C1B C 0.4924(2) 0.5669(1) 0.7061(1)
C2B C 0.3608(3) 0.6733(2) 0.6775(1)
C6B C 0.7018(3) 0.5655(2) 0.6676(1)
N1B N 0.3764(2) 0.4488(1) 0.6840(1)
C3B C 0.3468(3) 0.6784(2) 0.5925(1)
H1B H 0.423(3) 0.748(2) 0.695(1)
H2B H 0.221(3) 0.670(2) 0.700(1)
C5B C 0.6848(3) 0.5731(2) 0.5830(1)
H9B H 0.781(2) 0.498(2) 0.682(1)
H10B H 0.771(2) 0.636(2) 0.683(1)
O1B O 0.4786(2) 0.3592(1) 0.6701(1)
O2B O 0.1888(2) 0.4500(1) 0.6818(1)
C4B C 0.5589(3) 0.6814(2) 0.5581(1)
H3B H 0.271(3) 0.607(2) 0.574(1)
H4B H 0.268(3) 0.753(2) 0.579(1)
H7B H 0.816(4) 0.573(2) 0.564(1)
H8B H 0.620(3) 0.496(2) 0.564(1)
H5B H 0.633(3) 0.756(2) 0.573(1)
H6B H 0.548(3) 0.681(2) 0.503(1)
#END
