
#######################################################################
#
#                 Cambridge Crystallographic Data Centre
#                                CCDC
#
#######################################################################
#
# If this CIF has been generated from an entry in the Cambridge
# Structural Database, then it will include bibliographic, chemical,
# crystal, experimental, refinement or atomic coordinate data resulting
# from the CCDC's data processing and validation procedures.
#
#######################################################################

data_CSD_CIF_JIDBED
_audit_creation_date 1991-08-27
_audit_creation_method CSD-ConQuest-V1
_database_code_CSD JIDBED
_chemical_formula_sum 'C10 H16 N2 O4'
_chemical_formula_moiety
;
C10 H16 N2 O4
;
_journal_coden_Cambridge 188
_journal_year 1990
_journal_page_first 2039
_journal_name_full 'J.Chem.Soc.,Perkin Trans.2 '
loop_
_publ_author_name
"Yu Lin Lam"
"Hsing Hua Huang"
"T.W.Hambley"
_chemical_name_systematic
;
1,1'-Dinitrobicyclopentyl
;
_cell_volume   1138.562
_exptl_crystal_colour 'colorless'
_exptl_crystal_density_diffrn 1.331
_diffrn_ambient_temperature ?
_diffrn_special_details
;
The study was carried out at room temperature,in the range 283-303K

;
_refine_special_details
;
The molecule is disordered over two sites with occupancies of 0.516:0.484.

;
#These two values have been output from a single CSD field.
_refine_ls_R_factor_gt 0.043
_refine_ls_wR_factor_gt 0.043
_symmetry_cell_setting monoclinic
_symmetry_space_group_name_H-M 'C 2/c'
_symmetry_Int_Tables_number 15
loop_
_symmetry_equiv_pos_site_id
_symmetry_equiv_pos_as_xyz
1 x,y,z
2 1/2+x,1/2+y,z
3 -x,y,1/2-z
4 1/2-x,1/2+y,1/2-z
5 -x,-y,-z
6 -1/2-x,-1/2-y,-z
7 x,-y,-1/2+z
8 -1/2+x,-1/2-y,-1/2+z
_cell_length_a 16.247(2)
_cell_length_b 6.4535(5)
_cell_length_c 11.161(2)
_cell_angle_alpha 90
_cell_angle_beta 103.36(1)
_cell_angle_gamma 90
_cell_formula_units_Z 4
loop_
_atom_type_symbol
_atom_type_radius_bond
C 0.68
H 0.23
N 0.68
O 0.68
loop_
_atom_site_label
_atom_site_type_symbol
_atom_site_fract_x
_atom_site_fract_y
_atom_site_fract_z
C1 C 0.4532(1) 0.3034(3) 0.7400(2)
C2 C 0.4368(3) 0.1252(6) 0.8406(4)
C3? C 0.3938(3) 0.2810(9) 0.8121(5)
C4 C 0.3430(2) 0.0739(6) 0.7811(4)
C5 C 0.3354(2) 0.0782(7) 0.6467(4)
C6 C 0.3851(3) 0.2816(7) 0.6365(4)
C7? C 0.4259(3) 0.1286(7) 0.6245(5)
N1 N 0.4385(2) 0.5035(5) 0.8234(3)
N2? N 0.4291(3) 0.5056(6) 0.6459(4)
O1 O 0.5058(1) 0.6069(2) 0.8779(2)
O2 O 0.3662(2) 0.5438(6) 0.8255(4)
O3? O 0.3544(3) 0.5459(7) 0.6110(4)
H1 H 0.443(1) 0.184(1) 0.922(1)
H2 H 0.474(1) 0.006(1) 0.845(1)
H3? H 0.424(1) 0.277(1) 0.898(1)
H4? H 0.355(1) 0.398(1) 0.799(1)
H5 H 0.287(3) 0.148(7) 0.800(4)
H6 H 0.330(3) -0.055(9) 0.836(4)
H7 H 0.281(2) 0.138(5) 0.594(3)
H8 H 0.332(3) -0.052(7) 0.619(4)
H9 H 0.347(1) 0.399(1) 0.631(1)
H10 H 0.408(1) 0.276(1) 0.563(1)
H11? H 0.463(1) 0.009(1) 0.635(1)
H12? H 0.423(1) 0.191(1) 0.545(1)
C1B C 0.5468(1) 0.3034(3) 0.7600(2)
C2B C 0.5632(3) 0.1252(6) 0.6594(4)
C6B C 0.6149(3) 0.2816(7) 0.8635(4)
N1B N 0.5615(2) 0.5035(5) 0.6766(3)
C4B C 0.6570(2) 0.0739(6) 0.7189(4)
H1B H 0.557(1) 0.184(1) 0.578(1)
H2B H 0.526(1) 0.006(1) 0.655(1)
C5B C 0.6646(2) 0.0782(7) 0.8533(4)
H9B H 0.653(1) 0.399(1) 0.869(1)
H10B H 0.592(1) 0.276(1) 0.937(1)
O1B O 0.4942(1) 0.6069(2) 0.6221(2)
O2B O 0.6338(2) 0.5438(6) 0.6745(4)
H5B H 0.713(3) 0.148(7) 0.700(4)
H6B H 0.670(3) -0.055(9) 0.664(4)
H7B H 0.719(2) 0.138(5) 0.906(3)
H8B H 0.668(3) -0.052(7) 0.881(4)
#END
