
#######################################################################
#
#                 Cambridge Crystallographic Data Centre
#                                CCDC
#
#######################################################################
#
# If this CIF has been generated from an entry in the Cambridge
# Structural Database, then it will include bibliographic, chemical,
# crystal, experimental, refinement or atomic coordinate data resulting
# from the CCDC's data processing and validation procedures.
#
#######################################################################

data_CSD_CIF_JIFMIU
_audit_creation_date 1991-08-13
_audit_creation_method CSD-ConQuest-V1
_database_code_CSD JIFMIU
_database_code_depnum_ccdc_archive 'CCDC 1186028'
_chemical_formula_sum 'C26 H32 N2 O2'
_chemical_formula_moiety
;
C26 H32 N2 O2
;
_journal_coden_Cambridge 582
_journal_volume 16
_journal_year 1986
_journal_page_first 785
_journal_name_full 'J.Crystallogr.Spectrosc.Res. '
loop_
_publ_author_name
"B.Bovio"
"S.Locchi"
_chemical_name_systematic
;
3-Mesityl-4-methyl-5-(3'-mesityl-5'-methyl-\L^2'^-isoxazolin-4'-yl)-\L^2^-isox
azoline
;
_cell_volume   2354.961
_exptl_crystal_density_diffrn 1.14
_diffrn_ambient_temperature ?
_diffrn_special_details
;
The study was carried out at room temperature,in the range 283-303K

;
#These two values have been output from a single CSD field.
_refine_ls_R_factor_gt 0.084
_refine_ls_wR_factor_gt 0.084
_symmetry_cell_setting monoclinic
_symmetry_space_group_name_H-M 'P 21/c'
_symmetry_Int_Tables_number 14
loop_
_symmetry_equiv_pos_site_id
_symmetry_equiv_pos_as_xyz
1 x,y,z
2 -x,1/2+y,1/2-z
3 -x,-y,-z
4 x,-1/2-y,-1/2+z
_cell_length_a 13.338(9)
_cell_length_b 17.364(12)
_cell_length_c 10.320(8)
_cell_angle_alpha 90
_cell_angle_beta 99.84(6)
_cell_angle_gamma 90
_cell_formula_units_Z 4
loop_
_atom_type_symbol
_atom_type_radius_bond
C 0.68
H 0.23
N 0.68
O 0.68
loop_
_atom_site_label
_atom_site_type_symbol
_atom_site_fract_x
_atom_site_fract_y
_atom_site_fract_z
O1 O 0.2833(4) 0.0654(3) 0.7514(5)
N1 N 0.2132(5) 0.0086(4) 0.6903(6)
C1 C 0.2159(5) 0.0082(4) 0.5647(7)
C2 C 0.2885(6) 0.0671(4) 0.5212(7)
C3 C 0.3479(6) 0.0927(4) 0.6554(7)
C4 C 0.1565(5) -0.0495(4) 0.4799(7)
C5 C 0.1738(6) -0.1279(4) 0.5061(7)
C6 C 0.1207(6) -0.1828(5) 0.4204(9)
C7 C 0.0501(6) -0.1601(6) 0.3109(9)
C8 C 0.0312(6) -0.0824(6) 0.2903(8)
C9 C 0.0831(6) -0.0252(5) 0.3708(7)
C10 C 0.2510(7) -0.1563(5) 0.6222(9)
C11 C -0.0023(8) -0.2216(7) 0.2157(11)
C12 C 0.0610(6) 0.0590(5) 0.3436(9)
C13 C 0.3553(7) 0.0364(6) 0.4296(9)
O2 O 0.3117(4) 0.2834(3) 0.7933(5)
N2 N 0.4085(5) 0.2572(4) 0.8607(6)
C14 C 0.4365(5) 0.1991(4) 0.7991(6)
C15 C 0.3635(5) 0.1788(4) 0.6733(6)
C16 C 0.2689(6) 0.2257(5) 0.6967(8)
C17 C 0.5343(5) 0.1591(4) 0.8487(6)
C18 C 0.5451(6) 0.1169(4) 0.9681(7)
C19 C 0.6362(6) 0.0811(5) 1.0118(7)
C20 C 0.7158(6) 0.0822(5) 0.9432(7)
C21 C 0.7039(6) 0.1237(4) 0.8240(7)
C22 C 0.6117(5) 0.1617(4) 0.7791(7)
C23 C 0.4589(6) 0.1102(5) 1.0484(7)
C24 C 0.8169(8) 0.0388(7) 0.9894(10)
C25 C 0.6063(6) 0.2084(5) 0.6513(8)
C26 C 0.2115(7) 0.2686(6) 0.5800(9)
H1 H 0.250(5) 0.110(4) 0.477(6)
H2 H 0.426(4) 0.063(3) 0.670(5)
H3 H 0.134(6) -0.239(5) 0.436(7)
H4 H -0.022(6) -0.066(5) 0.212(8)
H5 H 0.320(6) -0.137(5) 0.616(7)
H6 H 0.230(6) -0.138(5) 0.706(8)
H7 H 0.251(6) -0.214(5) 0.623(7)
H8 H -0.011(7) -0.269(5) 0.264(9)
H9 H -0.070(8) -0.204(8) 0.182(11)
H10 H 0.034(7) -0.232(5) 0.149(5)
H11 H 0.032(6) 0.082(4) 0.420(8)
H12 H 0.121(6) 0.087(4) 0.330(7)
H13 H 0.005(6) 0.063(5) 0.263(8)
H14 H 0.399(6) -0.007(5) 0.477(8)
H15 H 0.312(6) 0.013(5) 0.349(8)
H16 H 0.400(7) 0.076(5) 0.403(8)
H17 H 0.392(4) 0.198(3) 0.602(6)
H18 H 0.221(5) 0.188(4) 0.735(6)
H19 H 0.647(6) 0.051(5) 1.098(8)
H20 H 0.762(5) 0.127(4) 0.773(7)
H21 H 0.438(5) 0.163(4) 1.080(7)
H22 H 0.396(6) 0.085(4) 0.998(7)
H23 H 0.481(5) 0.078(4) 1.133(8)
H24 H 0.848(6) 0.061(5) 1.079(9)
H25 H 0.804(8) -0.016(6) 0.998(9)
H26 H 0.864(7) 0.049(5) 0.927(8)
H27 H 0.549(8) 0.187(6) 0.582(8)
H28 H 0.594(6) 0.263(5) 0.665(7)
H29 H 0.671(5) 0.201(4) 0.614(7)
H30 H 0.149(6) 0.284(5) 0.602(8)
H31 H 0.202(7) 0.236(5) 0.504(9)
H32 H 0.253(7) 0.318(6) 0.563(9)
#END
