
#######################################################################
#
#                 Cambridge Crystallographic Data Centre
#                                CCDC
#
#######################################################################
#
# If this CIF has been generated from an entry in the Cambridge
# Structural Database, then it will include bibliographic, chemical,
# crystal, experimental, refinement or atomic coordinate data resulting
# from the CCDC's data processing and validation procedures.
#
#######################################################################

data_CSD_CIF_JIFVOM
_audit_creation_date 2018-07-17
_audit_creation_method CSD-ConQuest-V1
_database_code_CSD JIFVOM
_database_code_depnum_ccdc_archive 'CCDC 1821824'
_chemical_formula_sum 'C23 H17 N1 O1'
_chemical_formula_moiety
;
C23 H17 N1 O1
;
_journal_coden_Cambridge 1366
_journal_volume 360
_journal_year 2018
_journal_page_first 2707
_journal_name_full 'Adv.Synth.Catal. '
loop_
_publ_author_name
"Jianxiao Li"
"Miao Hu"
"Chunsheng Li"
"Can Li"
"Jiawei Li"
"Wanqing Wu"
"Huanfeng Jiang"
_chemical_name_systematic
;
3,5-diphenyl-4-(2-phenylethenyl)-1,2-oxazole
;
_cell_volume   3462.727
_exptl_crystal_colour 'colorless'
_exptl_crystal_density_diffrn 1.241
_exptl_crystal_description 'block'
_diffrn_ambient_temperature 100
#These two values have been output from a single CSD field.
_refine_ls_R_factor_gt 0.0646
_refine_ls_wR_factor_gt 0.0646
_symmetry_cell_setting orthorhombic
_symmetry_space_group_name_H-M 'P b c a'
_symmetry_Int_Tables_number 61
loop_
_symmetry_equiv_pos_site_id
_symmetry_equiv_pos_as_xyz
1 x,y,z
2 1/2-x,-y,1/2+z
3 -x,1/2+y,1/2-z
4 1/2+x,1/2-y,-z
5 -x,-y,-z
6 -1/2+x,y,-1/2-z
7 x,-1/2-y,-1/2+z
8 -1/2-x,-1/2+y,z
_cell_length_a 7.3968(5)
_cell_length_b 20.2979(15)
_cell_length_c 23.0634(19)
_cell_angle_alpha 90
_cell_angle_beta 90
_cell_angle_gamma 90
_cell_formula_units_Z 8
loop_
_atom_type_symbol
_atom_type_radius_bond
C 0.68
H 0.23
N 0.68
O 0.68
loop_
_atom_site_label
_atom_site_type_symbol
_atom_site_fract_x
_atom_site_fract_y
_atom_site_fract_z
N1 N 0.7427(3) 0.68847(11) 0.19622(9)
O1 O 0.7530(3) 0.63056(10) 0.23014(9)
C1 C 0.7107(3) 0.73860(14) 0.23195(12)
C2 C 0.6966(3) 0.71719(13) 0.28901(11)
C3 C 0.6972(3) 0.80529(14) 0.20678(11)
C4 C 0.6620(4) 0.79420(14) 0.44150(11)
C5 C 0.7246(3) 0.64880(14) 0.28498(12)
C6 C 0.7254(4) 0.59681(13) 0.32946(12)
C7 C 0.7599(3) 0.85949(14) 0.23780(13)
H1 H 0.81300 0.85370 0.27400
C8 C 0.5981(4) 0.59752(14) 0.37365(12)
H2 H 0.51060 0.63040 0.37460
C9 C 0.7078(4) 0.75113(14) 0.39224(12)
H3 H 0.78210 0.71520 0.39980
C10 C 0.6519(4) 0.75930(14) 0.33803(12)
H4 H 0.57720 0.79520 0.33070
C11 C 0.8533(4) 0.54708(14) 0.32786(13)
H5 H 0.93900 0.54620 0.29830
C12 C 0.6199(4) 0.81450(15) 0.15216(12)
H6 H 0.58090 0.77840 0.13070
C13 C 0.6002(4) 0.54964(14) 0.41640(13)
H7 H 0.51560 0.55080 0.44620
C14 C 0.7430(4) 0.92197(15) 0.21470(14)
H8 H 0.78650 0.95810 0.23520
C15 C 0.5307(4) 0.84327(14) 0.44027(13)
H9 H 0.46680 0.85110 0.40620
C16 C 0.7282(4) 0.50000(15) 0.41474(14)
H10 H 0.72980 0.46780 0.44340
C17 C 0.7545(4) 0.78417(15) 0.49321(13)
H11 H 0.84360 0.75190 0.49490
C18 C 0.8540(4) 0.49843(15) 0.37032(14)
H12 H 0.93910 0.46480 0.36890
C19 C 0.6018(4) 0.87767(17) 0.13015(13)
H13 H 0.54870 0.88390 0.09400
C20 C 0.6617(4) 0.93118(17) 0.16121(15)
H14 H 0.64770 0.97350 0.14630
C21 C 0.7175(5) 0.82077(17) 0.54174(13)
H15 H 0.78050 0.81280 0.57590
C22 C 0.4943(5) 0.88037(16) 0.48887(15)
H16 H 0.40650 0.91310 0.48730
C23 C 0.5872(6) 0.86942(17) 0.54014(14)
H17 H 0.56220 0.89440 0.57300
#END
