
#######################################################################
#
#                 Cambridge Crystallographic Data Centre
#                                CCDC
#
#######################################################################
#
# If this CIF has been generated from an entry in the Cambridge
# Structural Database, then it will include bibliographic, chemical,
# crystal, experimental, refinement or atomic coordinate data resulting
# from the CCDC's data processing and validation procedures.
#
#######################################################################

data_CSD_CIF_JIGBEG
_audit_creation_date 1991-08-13
_audit_creation_method CSD-ConQuest-V1
_database_code_CSD JIGBEG
_chemical_formula_sum 'C7 H15 N1 O8'
_chemical_formula_moiety
;
C7 H15 N1 O8
;
_journal_coden_Cambridge 156
_journal_volume 205
_journal_year 1990
_journal_page_first 1
_journal_name_full 'Carbohydr.Res. '
loop_
_publ_author_name
"P.Koll"
"B.Malzahn"
"J.Kopf"
_chemical_name_systematic
;
7-Desoxy-7-nitro-D-glycero-L-galacto-heptitol
;
_chemical_melting_point 425.15
_cell_volume    506.216
_exptl_crystal_density_diffrn 1.582
_exptl_special_details
;
Melting point range 425.15-426.15K

;
_diffrn_ambient_temperature ?
_diffrn_special_details
;
The study was carried out at room temperature,in the range 283-303K

;
#These two values have been output from a single CSD field.
_refine_ls_R_factor_gt 0.039
_refine_ls_wR_factor_gt 0.039
_symmetry_cell_setting monoclinic
_symmetry_space_group_name_H-M 'P 21'
_symmetry_Int_Tables_number 4
loop_
_symmetry_equiv_pos_site_id
_symmetry_equiv_pos_as_xyz
1 x,y,z
2 -x,1/2+y,-z
_cell_length_a 4.783(5)
_cell_length_b 21.628(9)
_cell_length_c 5.414(3)
_cell_angle_alpha 90
_cell_angle_beta 115.33(5)
_cell_angle_gamma 90
_cell_formula_units_Z 2
loop_
_atom_type_symbol
_atom_type_radius_bond
C 0.68
H 0.23
N 0.68
O 0.68
loop_
_atom_site_label
_atom_site_type_symbol
_atom_site_fract_x
_atom_site_fract_y
_atom_site_fract_z
O1 O 0.6036(5) 0.3548(2) 0.5722(4)
O2 O -0.0685(5) 0.4285(2) 0.0259(5)
O3 O 0.1729(5) 0.5028(1) 0.4707(4)
O4 O 0.5272(5) 0.51820 -0.0065(4)
O5 O 0.7695(5) 0.5916(2) 0.5207(4)
O6 O 0.7399(5) 0.6419(2) 0.0296(5)
O7 O 0.3242(7) 0.7645(2) -0.1842(6)
O8 O 0.7805(7) 0.7874(2) 0.1220(6)
N1 N 0.5403(7) 0.7579(2) 0.0421(6)
C1 C 0.2860(7) 0.3706(2) 0.4119(6)
C2 C 0.2516(6) 0.4211(2) 0.2047(5)
C3 C 0.3653(6) 0.4834(2) 0.3438(5)
C4 C 0.3583(6) 0.5348(2) 0.1473(5)
C5 C 0.4751(6) 0.5966(2) 0.2916(5)
C6 C 0.4803(6) 0.6468(2) 0.0942(6)
C7 C 0.5100(8) 0.7097(2) 0.2256(7)
H1 H 0.213(10) 0.383(2) 0.553(8)
H2 H 0.180(9) 0.334(2) 0.311(9)
H3 H 0.364(8) 0.408(2) 0.103(7)
H4 H 0.597(8) 0.480(2) 0.497(7)
H5 H 0.142(8) 0.544(2) 0.003(7)
H6 H 0.334(8) 0.611(2) 0.364(6)
H7 H 0.285(7) 0.644(2) -0.089(7)
H8 H 0.701(10) 0.710(2) 0.423(8)
H9 H 0.364(13) 0.719(3) 0.28(1)
H10 H 0.656(12) 0.329(3) 0.446(10)
H11 H -0.114(9) 0.400(2) -0.096(8)
H12 H 0.258(11) 0.503(2) 0.632(9)
H13 H 0.621(12) 0.494(3) 0.076(9)
H14 H 0.873(12) 0.567(3) 0.454(10)
H15 H 0.707(13) 0.608(4) -0.098(12)
#END
