
#######################################################################
#
#                 Cambridge Crystallographic Data Centre
#                                CCDC
#
#######################################################################
#
# If this CIF has been generated from an entry in the Cambridge
# Structural Database, then it will include bibliographic, chemical,
# crystal, experimental, refinement or atomic coordinate data resulting
# from the CCDC's data processing and validation procedures.
#
#######################################################################

data_CSD_CIF_JIGXAB
_audit_creation_date 2018-07-18
_audit_creation_method CSD-ConQuest-V1
_database_code_CSD JIGXAB
_database_code_depnum_ccdc_archive 'CCDC 1826027'
_chemical_formula_sum 'C16 H13 N5 O2'
_chemical_formula_moiety
;
C16 H13 N5 O2
;
_journal_coden_Cambridge 1291
_journal_volume 2018
_journal_year 2018
_journal_page_first 4996
_journal_name_full 'Eur.J.Org.Chem. '
loop_
_publ_author_name
"V.G.Nenajdenko"
"A.Shastin"
"V.Muzalevskiy"
"V.Khrustalev"
"P.Sergeev"
"AnnaLukianova"
"P.Dorovatovskii"
_chemical_name_systematic
;
3-(4-nitrophenyl)-1-phenyl-5,6-dihydro-1H-imidazo[1,2-c][1,2,3]triazole
;
_cell_volume   1445.438
_exptl_crystal_colour 'yellow'
_exptl_crystal_density_diffrn 1.412
_exptl_crystal_description 'plate'
_diffrn_ambient_temperature 100
_diffrn_radiation_probe x-ray
_diffrn_source synchrotron
#These two values have been output from a single CSD field.
_refine_ls_R_factor_gt 0.071
_refine_ls_wR_factor_gt 0.071
_symmetry_cell_setting monoclinic
_symmetry_space_group_name_H-M 'P 21/n'
_symmetry_Int_Tables_number 14
loop_
_symmetry_equiv_pos_site_id
_symmetry_equiv_pos_as_xyz
1 x,y,z
2 1/2-x,1/2+y,1/2-z
3 -x,-y,-z
4 -1/2+x,-1/2-y,-1/2+z
_cell_length_a 8.7063(17)
_cell_length_b 5.9197(12)
_cell_length_c 28.066(6)
_cell_angle_alpha 90
_cell_angle_beta 92.18(3)
_cell_angle_gamma 90
_cell_formula_units_Z 4
loop_
_atom_type_symbol
_atom_type_radius_bond
C 0.68
H 0.23
N 0.68
O 0.68
loop_
_atom_site_label
_atom_site_type_symbol
_atom_site_fract_x
_atom_site_fract_y
_atom_site_fract_z
O1 O 0.96889(18) 0.1947(3) 0.44362(6)
O2 O 0.87179(18) 0.4912(3) 0.40707(6)
N1 N 0.5807(2) 0.4700(3) 0.65030(6)
N2 N 0.4926(2) 0.5653(3) 0.68477(6)
N3 N 0.4504(2) 0.7888(3) 0.66975(6)
N4 N 0.3913(2) 0.9340(3) 0.59478(7)
N5 N 0.8864(2) 0.3672(3) 0.44235(7)
C1 C 0.5730(2) 0.5981(4) 0.61149(8)
C2 C 0.4739(2) 0.7921(4) 0.62027(8)
C3 C 0.2920(2) 0.8818(4) 0.67425(8)
H1 H 0.28060 0.96410 0.70460
H2 H 0.21220 0.76320 0.67090
C4 C 0.2910(3) 1.0437(4) 0.63052(8)
H3 H 0.18510 1.06310 0.61700
H4 H 0.33220 1.19370 0.63990
C5 C 0.6490(2) 0.5360(3) 0.56761(8)
C6 C 0.7305(2) 0.3293(4) 0.56460(8)
H5 H 0.73260 0.22750 0.59080
C7 C 0.8070(2) 0.2746(4) 0.52387(8)
H6 H 0.86180 0.13630 0.52190
C8 C 0.8027(2) 0.4259(3) 0.48553(7)
C9 C 0.7211(2) 0.6279(4) 0.48660(8)
H7 H 0.71730 0.72610 0.45980
C10 C 0.6447(2) 0.6833(4) 0.52814(8)
H8 H 0.58950 0.82140 0.52970
C11 C 0.5316(2) 0.5232(4) 0.73384(8)
C12 C 0.5127(2) 0.6901(4) 0.76836(8)
H9 H 0.47450 0.83480 0.75930
C13 C 0.5500(2) 0.6432(4) 0.81611(8)
H10 H 0.53710 0.75710 0.83950
C14 C 0.6061(2) 0.4312(4) 0.83014(8)
H11 H 0.63130 0.40020 0.86270
C15 C 0.6243(2) 0.2654(4) 0.79519(8)
H12 H 0.66200 0.12060 0.80430
C16 C 0.5880(2) 0.3089(4) 0.74717(8)
H13 H 0.60130 0.19510 0.72380
#END
