
#######################################################################
#
#                 Cambridge Crystallographic Data Centre
#                                CCDC
#
#######################################################################
#
# If this CIF has been generated from an entry in the Cambridge
# Structural Database, then it will include bibliographic, chemical,
# crystal, experimental, refinement or atomic coordinate data resulting
# from the CCDC's data processing and validation procedures.
#
#######################################################################

data_CSD_CIF_JIHDEJ
_audit_creation_date 1991-08-27
_audit_creation_method CSD-ConQuest-V1
_database_code_CSD JIHDEJ
_chemical_formula_sum 'C7 H10 N2 O6'
_chemical_formula_moiety
;
C7 H10 N2 O6
;
_journal_coden_Cambridge 4
_journal_volume 112
_journal_year 1990
_journal_page_first 9426
_journal_name_full 'J.Am.Chem.Soc. '
loop_
_publ_author_name
"E.H.White"
"S.Paik"
"L.J.Todaro"
"T.A.Marean"
_chemical_name_systematic
;
rac-5-Acetoxy-(cis)-3,5-dimethyl-4-nitro-oxazolid-2-one
;
_chemical_name_common
;
rac-Paik-1-75
;
_chemical_melting_point 360.15
_cell_volume    470.867
_exptl_crystal_density_diffrn 1.539
_exptl_special_details
;
Melting point range 360.15-361.15K

;
_diffrn_ambient_temperature 110
_refine_special_details
;
Methyl carbon C(3) is slightly disordered.

;
#These two values have been output from a single CSD field.
_refine_ls_R_factor_gt 0.047
_refine_ls_wR_factor_gt 0.047
_symmetry_cell_setting triclinic
_symmetry_space_group_name_H-M 'P -1'
_symmetry_Int_Tables_number 2
loop_
_symmetry_equiv_pos_site_id
_symmetry_equiv_pos_as_xyz
1 x,y,z
2 -x,-y,-z
_cell_length_a 7.065(3)
_cell_length_b 7.151(3)
_cell_length_c 10.420(2)
_cell_angle_alpha 83.77(3)
_cell_angle_beta 82.98(3)
_cell_angle_gamma 64.55(3)
_cell_formula_units_Z 2
loop_
_atom_type_symbol
_atom_type_radius_bond
C 0.68
H 0.23
N 0.68
O 0.68
loop_
_atom_site_label
_atom_site_type_symbol
_atom_site_fract_x
_atom_site_fract_y
_atom_site_fract_z
O1 O 0.7492(2) 0.7568(2) 0.6185(1)
O2 O 0.6663(2) 0.6927(2) 0.4333(1)
O3 O 0.8333(2) 0.6004(2) 0.8233(1)
O4 O 0.4358(2) 0.7271(2) 0.9692(1)
O5 O 0.2563(2) 0.6302(2) 0.8560(1)
O6 O 0.8155(2) 0.3490(2) 0.7173(1)
N1 N 0.4785(2) 0.7505(2) 0.7541(1)
N2 N 0.3871(2) 0.6959(2) 0.8671(1)
C1 C 0.6285(2) 0.7089(2) 0.5474(2)
C2 C 0.4450(2) 0.6918(2) 0.6316(2)
C3 C 0.6804(2) 0.7647(2) 0.7534(2)
C4 C 0.2338(2) 0.8347(3) 0.5799(2)
C5 C 0.6635(2) 0.9625(2) 0.8013(2)
C6 C 0.8950(2) 0.3982(2) 0.7944(2)
C7 C 1.0715(3) 0.2570(2) 0.8725(2)
H1 H 0.44000 0.55400 0.63700
H2 H 0.22200 0.78500 0.49600
H3 H 0.11700 0.83400 0.64400
H4 H 0.22400 0.97900 0.56500
H5 H 0.80700 0.95900 0.79800
H6 H 0.57300 1.08300 0.74500
H7 H 0.59900 0.97700 0.89300
H8 H 1.11500 0.11000 0.85100
H9 H 1.19300 0.29500 0.85200
H10 H 1.02400 0.27100 0.96700
H11? H 0.24800 0.83600 0.48300
H12? H 0.12600 0.78300 0.61500
H13? H 0.19000 0.97900 0.60700
#END
