
#######################################################################
#
#                 Cambridge Crystallographic Data Centre
#                                CCDC
#
#######################################################################
#
# If this CIF has been generated from an entry in the Cambridge
# Structural Database, then it will include bibliographic, chemical,
# crystal, experimental, refinement or atomic coordinate data resulting
# from the CCDC's data processing and validation procedures.
#
#######################################################################

data_CSD_CIF_JIJCOU
_audit_creation_date 1991-08-27
_audit_creation_method CSD-ConQuest-V1
_database_code_CSD JIJCOU
_database_code_depnum_ccdc_archive 'CCDC 1186286'
_chemical_formula_sum 'C13 H12 N2 O2'
_chemical_formula_moiety
;
C13 H12 N2 O2
;
_journal_coden_Cambridge 7
_journal_volume 63
_journal_year 1990
_journal_page_first 3340
_journal_name_full 'Bull.Chem.Soc.Jpn. '
loop_
_publ_author_name
"J.Yamamoto"
"H.Yamashita"
"H.Miyagawa"
"T.Abe"
"T.Tsukihara"
_chemical_name_systematic
;
4-Methoxy-O,N,N-azoxybenzene
;
_chemical_melting_point 340.15
_cell_volume    520.058
_exptl_crystal_colour 'yellow'
_exptl_crystal_density_diffrn 1.339
_exptl_special_details
;
Melting point range 340.15-341.15K
Some bond length discrepancies

;
_diffrn_ambient_temperature ?
_diffrn_special_details
;
The study was carried out at room temperature,in the range 283-303K

;
#These two values have been output from a single CSD field.
_refine_ls_R_factor_gt 0.066
_refine_ls_wR_factor_gt 0.066
_symmetry_cell_setting monoclinic
_symmetry_space_group_name_H-M 'P 21'
_symmetry_Int_Tables_number 4
loop_
_symmetry_equiv_pos_site_id
_symmetry_equiv_pos_as_xyz
1 x,y,z
2 -x,1/2+y,-z
_cell_length_a 13.305(5)
_cell_length_b 3.693(2)
_cell_length_c 11.148(4)
_cell_angle_alpha 90
_cell_angle_beta 108.30(2)
_cell_angle_gamma 90
_cell_formula_units_Z 2
loop_
_atom_type_symbol
_atom_type_radius_bond
C 0.68
H 0.23
N 0.68
O 0.68
loop_
_atom_site_label
_atom_site_type_symbol
_atom_site_fract_x
_atom_site_fract_y
_atom_site_fract_z
O1 O 0.23490(3) 0.4773(1) 0.64882(3)
O2 O -0.10777(3) 0.3746(1) 0.09786(3)
N1 N 0.29225(3) 0.3174(1) 0.59670(3)
N2 N 0.26664(3) 0.2204(1) 0.48256(4)
C1 C 0.16775(3) 0.2806(1) 0.39710(4)
C2 C 0.15712(4) 0.1590(1) 0.27510(4)
C3 C 0.06586(4) 0.1957(1) 0.17959(4)
C4 C -0.01977(3) 0.3474(1) 0.19982(4)
C5 C -0.01144(4) 0.4724(1) 0.32080(4)
C6 C 0.07991(4) 0.4380(1) 0.41790(4)
C7 C 0.39868(3) 0.2456(1) 0.67251(4)
C8 C 0.46674(4) 0.0866(2) 0.62136(4)
C9 C 0.56945(4) 0.0367(2) 0.69544(5)
C10 C 0.60239(4) 0.1326(2) 0.81835(5)
C11 C 0.53245(4) 0.2860(2) 0.87163(4)
C12 C 0.43138(4) 0.3458(2) 0.79859(4)
C13 C -0.19390(4) 0.5440(2) 0.11268(5)
H1 H 0.228(4) 0.03(2) 0.260(4)
H2 H 0.062(3) 0.09(1) 0.102(4)
H3 H -0.074(4) 0.54(2) 0.335(5)
H4 H 0.087(4) 0.48(1) 0.504(4)
H5 H 0.439(5) 0.03(2) 0.537(6)
H6 H 0.617(4) -0.06(2) 0.661(5)
H7 H 0.673(3) 0.13(1) 0.871(4)
H8 H 0.555(3) 0.32(1) 0.965(3)
H9 H 0.375(4) 0.44(2) 0.833(5)
H10 H -0.177(4) 0.80(2) 0.156(5)
H11 H -0.251(4) 0.55(1) 0.039(4)
H12 H -0.230(5) 0.42(2) 0.168(6)
#END
