
#######################################################################
#
#                 Cambridge Crystallographic Data Centre
#                                CCDC
#
#######################################################################
#
# If this CIF has been generated from an entry in the Cambridge
# Structural Database, then it will include bibliographic, chemical,
# crystal, experimental, refinement or atomic coordinate data resulting
# from the CCDC's data processing and validation procedures.
#
#######################################################################

data_CSD_CIF_JIJROJ
_audit_creation_date 1991-08-27
_audit_creation_method CSD-ConQuest-V1
_database_code_CSD JIJROJ
_chemical_formula_sum 'C7 H11 N3 O12'
_chemical_formula_moiety
;
C7 H11 N3 O12
;
_journal_coden_Cambridge 41
_journal_volume 34
_journal_year 1989
_journal_page_first 1164
_journal_name_full 'Kristallografiya(Russ.)(Crystallogr.Rep.) '
loop_
_publ_author_name
"A.V.Nikitin"
"T.A.Shibanova"
"I.A.Verin"
"S.I.Firgang"
"A.I.Usov"
"V.F.Sopin"
"R.M.Myasnikova"
_chemical_name_systematic
;
Methyl \b-D-glucopyranoside 2,4,6-trinitrate
;
_chemical_melting_point 391.15
_cell_volume   1356.254
_exptl_crystal_density_diffrn 1.61
_diffrn_ambient_temperature ?
_diffrn_special_details
;
The study was carried out at room temperature,in the range 283-303K

;
#These two values have been output from a single CSD field.
_refine_ls_R_factor_gt 0.047
_refine_ls_wR_factor_gt 0.047
_symmetry_cell_setting orthorhombic
_symmetry_space_group_name_H-M 'P 21 21 21'
_symmetry_Int_Tables_number 19
loop_
_symmetry_equiv_pos_site_id
_symmetry_equiv_pos_as_xyz
1 x,y,z
2 1/2+x,1/2-y,-z
3 -x,1/2+y,1/2-z
4 1/2-x,-y,1/2+z
_cell_length_a 5.085(1)
_cell_length_b 16.296(2)
_cell_length_c 16.367(2)
_cell_angle_alpha 90
_cell_angle_beta 90
_cell_angle_gamma 90
_cell_formula_units_Z 4
loop_
_atom_type_symbol
_atom_type_radius_bond
C 0.68
H 0.23
N 0.68
O 0.68
loop_
_atom_site_label
_atom_site_type_symbol
_atom_site_fract_x
_atom_site_fract_y
_atom_site_fract_z
C1 C 0.2241(25) 0.1753(7) 0.2472(7)
C2 C 0.2254(20) 0.2265(6) 0.3255(5)
C3 C 0.4561(20) 0.2047(5) 0.3814(5)
C4 C 0.4739(20) 0.1119(5) 0.3934(5)
C5 C 0.4425(23) 0.0663(5) 0.3107(6)
C6 C 0.4357(24) -0.0291(6) 0.3221(6)
C7 C -0.0155(41) 0.1573(8) 0.1277(7)
O1 O -0.0102(16) 0.1946(4) 0.2074(4)
O2 O 0.2669(16) 0.3111(4) 0.2996(4)
O3 O 0.1115(20) 0.4343(4) 0.2993(5)
O4 O -0.1038(20) 0.3442(5) 0.3688(7)
O5 O 0.4257(15) 0.2451(3) 0.4562(4)
O6 O 0.7338(15) 0.0997(4) 0.4276(4)
O7 O 0.9612(17) 0.0476(5) 0.5278(4)
O8 O 0.5637(20) 0.0038(5) 0.5109(5)
O9 O 0.2116(13) 0.0911(4) 0.2725(4)
O10 O 0.2034(16) -0.0440(4) 0.3693(5)
O11 O -0.0003(23) -0.1346(5) 0.4429(7)
O12 O 0.3746(26) -0.1673(5) 0.3871(8)
N1 N 0.0705(21) 0.3670(5) 0.3241(5)
N2 N 0.7528(21) 0.0454(5) 0.4949(5)
N3 N 0.1975(25) -0.1211(6) 0.4013(8)
H1 H 0.38400 0.19100 0.21700
H2 H 0.05500 0.22000 0.36000
H3 H 0.62000 0.22700 0.35400
H4 H 0.60200 0.27200 0.46800
H5 H 0.33100 0.08900 0.43300
H6 H 0.59800 0.08200 0.27600
H7 H 0.61000 -0.05000 0.35000
H8 H 0.43000 -0.00600 0.26000
H9 H -0.16400 0.16900 0.09000
H10 H 0.00000 0.09700 0.12900
H11 H 0.14000 0.18000 0.09000
#END
