
#######################################################################
#
#                 Cambridge Crystallographic Data Centre
#                                CCDC
#
#######################################################################
#
# If this CIF has been generated from an entry in the Cambridge
# Structural Database, then it will include bibliographic, chemical,
# crystal, experimental, refinement or atomic coordinate data resulting
# from the CCDC's data processing and validation procedures.
#
#######################################################################

data_CSD_CIF_JIJWOR
_audit_creation_date 2018-07-19
_audit_creation_method CSD-ConQuest-V1
_database_code_CSD JIJWOR
_database_code_depnum_ccdc_archive 'CCDC 1843270'
_chemical_formula_sum 'C29 H24 N2 O2'
_chemical_formula_moiety
;
C29 H24 N2 O2
;
_journal_coden_Cambridge 179
_journal_volume 57
_journal_year 2018
_journal_page_first 11025
_journal_name_full 'Angew.Chem.,Int.Ed. '
loop_
_publ_author_name
"B.M.Trost"
"Youliang Wang"
_chemical_name_systematic
;
N-[5-methylidene-2-(naphthalen-2-yl)-3-nitrocyclopentyl]-1,1-diphenylmethanimi
ne
;
_cell_volume   1163.605
_exptl_crystal_colour 'colorless'
_exptl_crystal_density_diffrn 1.234
_exptl_special_details
;
Absolute configuration

;
_exptl_crystal_description 'block'
_diffrn_ambient_temperature 100
#These two values have been output from a single CSD field.
_refine_ls_R_factor_gt 0.0342
_refine_ls_wR_factor_gt 0.0342
_symmetry_cell_setting monoclinic
_symmetry_space_group_name_H-M 'P 21'
_symmetry_Int_Tables_number 4
loop_
_symmetry_equiv_pos_site_id
_symmetry_equiv_pos_as_xyz
1 x,y,z
2 -x,1/2+y,-z
_cell_length_a 10.5498(12)
_cell_length_b 7.8114(9)
_cell_length_c 14.3561(16)
_cell_angle_alpha 90
_cell_angle_beta 100.407(5)
_cell_angle_gamma 90
_cell_formula_units_Z 2
loop_
_atom_type_symbol
_atom_type_radius_bond
C 0.68
H 0.23
N 0.68
O 0.68
loop_
_atom_site_label
_atom_site_type_symbol
_atom_site_fract_x
_atom_site_fract_y
_atom_site_fract_z
O1 O -0.09867(17) 0.3412(3) 0.42136(15)
O2 O 0.0204(2) 0.4860(3) 0.53165(14)
N1 N 0.31152(16) 0.2985(2) 0.30667(12)
N2 N 0.0065(2) 0.3916(3) 0.46305(14)
C1 C 0.0688(2) 0.4807(3) 0.21408(15)
H1 H 0.09420 0.36450 0.21090
C2 C -0.00469(19) 0.5565(3) 0.13638(14)
H2 H -0.02820 0.49200 0.07980
C3 C -0.04625(19) 0.7287(3) 0.13860(14)
C4 C -0.1223(2) 0.8093(3) 0.05950(15)
H3 H -0.14580 0.74800 0.00180
C5 C -0.1624(2) 0.9760(3) 0.06556(16)
H4 H -0.21310 1.02910 0.01190
C6 C -0.1286(2) 1.0686(3) 0.15100(17)
H5 H -0.15730 1.18330 0.15470
C7 C -0.0547(2) 0.9937(3) 0.22837(16)
H6 H -0.03280 1.05670 0.28560
C8 C -0.01038(19) 0.8228(3) 0.22409(14)
C9 C 0.06766(19) 0.7424(3) 0.30276(14)
H7 H 0.09340 0.80610 0.35940
C10 C 0.10719(19) 0.5749(3) 0.29951(14)
C11 C 0.18570(19) 0.4957(3) 0.38682(14)
H8 H 0.19650 0.58480 0.43760
C12 C 0.1242(2) 0.3374(3) 0.42564(15)
H9 H 0.10010 0.25110 0.37400
C13 C 0.2305(2) 0.2648(3) 0.50231(16)
H10 H 0.22010 0.30480 0.56590
H11 H 0.22960 0.13810 0.50150
C14 C 0.3541(2) 0.3332(3) 0.47669(15)
C15 C 0.3224(2) 0.4249(3) 0.38229(14)
H12 H 0.38550 0.51760 0.37570
C16 C 0.4695(3) 0.3282(4) 0.52966(18)
H13 H 0.48130 0.27790 0.59090
H14 H 0.54110 0.37500 0.50680
C17 C 0.38318(19) 0.3072(3) 0.24379(14)
C18 C 0.36343(19) 0.1760(3) 0.16643(14)
C19 C 0.27045(19) 0.0473(3) 0.16577(14)
H15 H 0.22320 0.04040 0.21600
C20 C 0.2473(2) -0.0697(3) 0.09226(15)
H16 H 0.18350 -0.15560 0.09190
C21 C 0.3173(2) -0.0620(3) 0.01865(15)
H17 H 0.30150 -0.14300 -0.03150
C22 C 0.4094(2) 0.0635(3) 0.01865(15)
H18 H 0.45720 0.06890 -0.03140
C23 C 0.4323(2) 0.1821(3) 0.09230(14)
H19 H 0.49580 0.26830 0.09200
C24 C 0.48209(19) 0.4438(3) 0.23940(14)
C25 C 0.6132(2) 0.4087(3) 0.26279(15)
H20 H 0.64180 0.29660 0.28160
C26 C 0.7030(2) 0.5390(3) 0.25849(16)
H21 H 0.79250 0.51480 0.27410
C27 C 0.6619(2) 0.7023(3) 0.23169(15)
H22 H 0.72340 0.79020 0.22880
C28 C 0.5316(2) 0.7387(3) 0.20902(15)
H23 H 0.50370 0.85150 0.19100
C29 C 0.4413(2) 0.6098(3) 0.21272(14)
H24 H 0.35190 0.63470 0.19710
#END
