
#######################################################################
#
#                 Cambridge Crystallographic Data Centre
#                                CCDC
#
#######################################################################
#
# If this CIF has been generated from an entry in the Cambridge
# Structural Database, then it will include bibliographic, chemical,
# crystal, experimental, refinement or atomic coordinate data resulting
# from the CCDC's data processing and validation procedures.
#
#######################################################################

data_CSD_CIF_JIKNUP
_audit_creation_date 2018-07-20
_audit_creation_method CSD-ConQuest-V1
_database_code_CSD JIKNUP
_database_code_depnum_ccdc_archive 'CCDC 1563968'
_chemical_formula_sum 'C12 H10 N8 O8'
_chemical_formula_moiety
;
C12 H10 N8 O8
;
_journal_coden_Cambridge 119
_journal_volume 1173
_journal_year 2018
_journal_page_first 750
_journal_name_full 'J.Mol.Struct. '
loop_
_publ_author_name
"E.Kucharska"
"I.Bryndal"
"T.Lis"
"K.Hermanowicz"
"J.Hanuza"
_chemical_name_systematic
;
2,2'-(hydrazine-1,2-diyl)bis(4-methyl-3,5-dinitropyridine)
;
_cell_volume   1508.218
_exptl_crystal_colour 'red'
_exptl_crystal_density_diffrn 1.736
_exptl_crystal_description 'plate'
_diffrn_ambient_temperature 100
#These two values have been output from a single CSD field.
_refine_ls_R_factor_gt 0.0359
_refine_ls_wR_factor_gt 0.0359
_symmetry_cell_setting monoclinic
_symmetry_space_group_name_H-M 'C 2/c'
_symmetry_Int_Tables_number 15
loop_
_symmetry_equiv_pos_site_id
_symmetry_equiv_pos_as_xyz
1 x,y,z
2 -x,y,1/2-z
3 1/2+x,1/2+y,z
4 1/2-x,1/2+y,1/2-z
5 -x,-y,-z
6 x,-y,-1/2+z
7 -1/2-x,-1/2-y,-z
8 -1/2+x,-1/2-y,-1/2+z
_cell_length_a 14.863(4)
_cell_length_b 5.117(2)
_cell_length_c 20.230(6)
_cell_angle_alpha 90
_cell_angle_beta 101.40(3)
_cell_angle_gamma 90
_cell_formula_units_Z 4
loop_
_atom_type_symbol
_atom_type_radius_bond
C 0.68
H 0.23
N 0.68
O 0.68
loop_
_atom_site_label
_atom_site_type_symbol
_atom_site_fract_x
_atom_site_fract_y
_atom_site_fract_z
N1 N 0.28643(4) -0.17587(12) 0.01665(3)
H1 H 0.3406(8) -0.230(3) 0.0118(6)
N2 N 0.17938(4) 0.04663(12) 0.06060(3)
C1 C 0.26857(5) 0.01772(13) 0.05734(3)
C2 C 0.33717(4) 0.18770(13) 0.09325(3)
C3 C 0.31650(5) 0.37152(13) 0.13924(3)
C4 C 0.22269(5) 0.38675(14) 0.14170(3)
C5 C 0.15795(5) 0.22639(14) 0.10200(4)
H2 H 0.09530 0.24690 0.10470
N3 N 0.42967(4) 0.17092(13) 0.07979(3)
O1 O 0.45517(4) -0.04380(12) 0.06212(3)
O2 O 0.47694(4) 0.36801(13) 0.08448(3)
N4 N 0.18669(4) 0.57439(13) 0.18391(3)
O3 O 0.23002(4) 0.77825(11) 0.19979(3)
O4 O 0.11306(4) 0.52350(13) 0.20030(3)
C6 C 0.38996(5) 0.52162(15) 0.18607(4)
H3 H 0.44770 0.42360 0.19290
H4 H 0.37140 0.54660 0.22950
H5 H 0.39850 0.69230 0.16620
N1F N 0.21357(4) -0.32413(12) -0.01665(3)
H1F H 0.1594(8) -0.270(3) -0.0118(6)
N2F N 0.32062(4) -0.54663(12) -0.06060(3)
C1F C 0.23143(5) -0.51772(13) -0.05734(3)
C2F C 0.16283(4) -0.68770(13) -0.09325(3)
C3F C 0.18350(5) -0.87152(13) -0.13924(3)
C4F C 0.27731(5) -0.88675(14) -0.14170(3)
C5F C 0.34205(5) -0.72639(14) -0.10200(4)
H2F H 0.40470 -0.74690 -0.10470
N3F N 0.07033(4) -0.67092(13) -0.07979(3)
O1F O 0.04483(4) -0.45620(12) -0.06212(3)
O2F O 0.02306(4) -0.86801(13) -0.08448(3)
N4F N 0.31331(4) -1.07439(13) -0.18391(3)
O3F O 0.26998(4) -1.27825(11) -0.19979(3)
O4F O 0.38694(4) -1.02350(13) -0.20030(3)
C6F C 0.11004(5) -1.02162(15) -0.18607(4)
H3F H 0.05230 -0.92360 -0.19290
H4F H 0.12860 -1.04660 -0.22950
H5F H 0.10150 -1.19230 -0.16620
#END
