
#######################################################################
#
#                 Cambridge Crystallographic Data Centre
#                                CCDC
#
#######################################################################
#
# If this CIF has been generated from an entry in the Cambridge
# Structural Database, then it will include bibliographic, chemical,
# crystal, experimental, refinement or atomic coordinate data resulting
# from the CCDC's data processing and validation procedures.
#
#######################################################################

data_CSD_CIF_JILMUP
_audit_creation_date 2018-07-20
_audit_creation_method CSD-ConQuest-V1
_database_code_CSD JILMUP
_database_code_depnum_ccdc_archive 'CCDC 1812863'
_chemical_formula_sum 'C10 H11 N3 O3'
_chemical_formula_moiety
;
C10 H11 N3 O3
;
_journal_coden_Cambridge 179
_journal_volume 57
_journal_year 2018
_journal_page_first 5679
_journal_name_full 'Angew.Chem.,Int.Ed. '
loop_
_publ_author_name
"R.O.Torres-Ochoa"
"T.Buyck"
"Qian Wang"
"Jieping Zhu"
_chemical_name_systematic
;
(S)-3-amino-3-(2-nitrophenyl)pyrrolidin-2-one
;
_chemical_melting_point 447
_cell_volume   1012.064
_exptl_crystal_colour 'colorless'
_exptl_crystal_density_diffrn 1.452
_exptl_special_details
;
Melting point range 447-449K
Absolute configuration

;
_exptl_crystal_description 'needle'
_exptl_crystal_preparation 'dichloromethane/petroleum ether'
_diffrn_ambient_temperature 100.0
#These two values have been output from a single CSD field.
_refine_ls_R_factor_gt 0.0415
_refine_ls_wR_factor_gt 0.0415
_symmetry_cell_setting orthorhombic
_symmetry_space_group_name_H-M 'P 21 21 21'
_symmetry_Int_Tables_number 19
loop_
_symmetry_equiv_pos_site_id
_symmetry_equiv_pos_as_xyz
1 x,y,z
2 1/2-x,-y,1/2+z
3 -x,1/2+y,1/2-z
4 1/2+x,1/2-y,-z
_cell_length_a 7.1701(3)
_cell_length_b 8.5032(3)
_cell_length_c 16.5997(7)
_cell_angle_alpha 90
_cell_angle_beta 90
_cell_angle_gamma 90
_cell_formula_units_Z 4
loop_
_atom_type_symbol
_atom_type_radius_bond
C 0.68
H 0.23
N 0.68
O 0.68
loop_
_atom_site_label
_atom_site_type_symbol
_atom_site_fract_x
_atom_site_fract_y
_atom_site_fract_z
O1 O 0.8840(2) 0.6674(2) 0.49475(10)
O2 O 0.5421(3) 0.3842(2) 0.74963(12)
O3 O 0.3562(3) 0.3023(3) 0.65578(14)
N1 N 0.6128(3) 0.6137(3) 0.62284(14)
H1 H 0.598(5) 0.708(3) 0.6460(19)
H2 H 0.588(5) 0.637(4) 0.5708(16)
N2 N 1.0900(3) 0.6836(3) 0.60033(13)
H3 H 1.183(6) 0.734(5) 0.569(2)
N3 N 0.5115(3) 0.3292(3) 0.68298(14)
C1 C 0.8059(3) 0.5589(3) 0.62815(14)
C2 C 0.9303(3) 0.6428(3) 0.56526(14)
C3 C 1.1052(4) 0.6389(3) 0.68463(16)
H4 H 1.15799 0.72550 0.71736
H5 H 1.18372 0.54402 0.69124
C4 C 0.9020(4) 0.6057(3) 0.70781(15)
H6 H 0.84297 0.70060 0.73115
H7 H 0.89469 0.51909 0.74753
C5 C 0.8150(3) 0.3814(3) 0.61323(13)
C6 C 0.6726(4) 0.2773(3) 0.63458(15)
C7 C 0.6743(4) 0.1195(3) 0.61701(15)
H8 H 0.57096 0.05482 0.63057
C8 C 0.8297(4) 0.0560(3) 0.57909(16)
H9 H 0.83343 -0.05279 0.56615
C9 C 0.9790(4) 0.1522(3) 0.56030(16)
H10 H 1.08843 0.10848 0.53707
C10 C 0.9693(4) 0.3134(3) 0.57538(15)
H11 H 1.07028 0.37868 0.55949
#END
