
#######################################################################
#
#                 Cambridge Crystallographic Data Centre
#                                CCDC
#
#######################################################################
#
# If this CIF has been generated from an entry in the Cambridge
# Structural Database, then it will include bibliographic, chemical,
# crystal, experimental, refinement or atomic coordinate data resulting
# from the CCDC's data processing and validation procedures.
#
#######################################################################

data_CSD_CIF_JILXAG
_audit_creation_date 2018-07-20
_audit_creation_method CSD-ConQuest-V1
_database_code_CSD JILXAG
_database_code_depnum_ccdc_archive 'CCDC 1586125'
_chemical_formula_sum 'C24 H22 N2 O4'
_chemical_formula_moiety
;
C24 H22 N2 O4
;
_journal_coden_Cambridge 179
_journal_volume 57
_journal_year 2018
_journal_page_first 5888
_journal_name_full 'Angew.Chem.,Int.Ed. '
loop_
_publ_author_name
"Bin Feng"
"Liang-Qiu Lu"
"Jia-Rong Chen"
"Guoqiang Feng"
"Bin-Qing He"
"Bin Lu"
"Wen-Jing Xiao"
_chemical_name_systematic
;
methyl 3-nitro-2,4,5-triphenylprolinate
;
_cell_volume   2116.858
_exptl_crystal_colour 'colorless'
_exptl_crystal_density_diffrn 1.263
_exptl_special_details
;
Absolute configuration

;
_exptl_crystal_description 'block'
_diffrn_ambient_temperature 291
#These two values have been output from a single CSD field.
_refine_ls_R_factor_gt 0.0349
_refine_ls_wR_factor_gt 0.0349
_symmetry_cell_setting orthorhombic
_symmetry_space_group_name_H-M 'P 21 21 21'
_symmetry_Int_Tables_number 19
loop_
_symmetry_equiv_pos_site_id
_symmetry_equiv_pos_as_xyz
1 x,y,z
2 1/2+x,1/2-y,-z
3 -x,1/2+y,1/2-z
4 1/2-x,-y,1/2+z
_cell_length_a 10.8215(4)
_cell_length_b 13.2612(4)
_cell_length_c 14.7510(5)
_cell_angle_alpha 90
_cell_angle_beta 90
_cell_angle_gamma 90
_cell_formula_units_Z 4
loop_
_atom_type_symbol
_atom_type_radius_bond
C 0.68
H 0.23
N 0.68
O 0.68
loop_
_atom_site_label
_atom_site_type_symbol
_atom_site_fract_x
_atom_site_fract_y
_atom_site_fract_z
C1 C 0.90741(19) 0.91337(16) 0.25500(14)
H1 H 0.94000 0.85350 0.28570
C2 C 0.79797(18) 0.88005(16) 0.19550(13)
H2 H 0.76840 0.93900 0.16190
C3 C 0.70313(18) 0.85527(16) 0.26876(14)
H3 H 0.71770 0.78640 0.29040
C4 C 0.7324(2) 0.93208(16) 0.34879(14)
C5 C 1.01329(19) 0.96507(17) 0.20782(14)
C6 C 1.1325(2) 0.9377(2) 0.2292(2)
H4 H 1.14620 0.88550 0.27020
C7 C 1.2321(2) 0.9867(3) 0.1907(2)
H5 H 1.31210 0.96730 0.20590
C8 C 1.2143(2) 1.0628(2) 0.1308(2)
H6 H 1.28150 1.09600 0.10530
C9 C 1.0971(3) 1.0903(2) 0.1084(2)
H7 H 1.08430 1.14220 0.06700
C10 C 0.9967(2) 1.0417(2) 0.14679(19)
H8 H 0.91700 1.06130 0.13100
C11 C 0.82220(18) 0.79635(16) 0.12820(13)
C12 C 0.7763(4) 0.8024(2) 0.04220(18)
H9 H 0.72910 0.85810 0.02560
C13 C 0.7986(5) 0.7274(3) -0.02075(19)
H10 H 0.76420 0.73170 -0.07840
C14 C 0.8715(3) 0.6464(2) 0.0019(2)
H11 H 0.89170 0.59810 -0.04140
C15 C 0.9132(3) 0.6377(3) 0.0875(3)
H12 H 0.95840 0.58100 0.10440
C16 C 0.8894(3) 0.7118(2) 0.1500(2)
H13 H 0.91970 0.70470 0.20870
C17 C 0.74400(19) 0.87579(16) 0.43963(13)
C18 C 0.8379(2) 0.90130(18) 0.49936(16)
H14 H 0.89300 0.95250 0.48440
C19 C 0.8501(3) 0.8506(2) 0.58177(17)
H15 H 0.91290 0.86850 0.62170
C20 C 0.7705(3) 0.7748(2) 0.60397(18)
H16 H 0.78030 0.74000 0.65820
C21 C 0.6754(3) 0.7497(2) 0.54573(17)
H17 H 0.62020 0.69890 0.56140
C22 C 0.6622(2) 0.80019(17) 0.46413(15)
H18 H 0.59780 0.78310 0.42530
C23 C 0.6360(2) 1.01700(17) 0.35475(15)
C24 C 0.4377(3) 1.0640(3) 0.4030(3)
H19 H 0.46510 1.11540 0.44410
H20 H 0.36370 1.03340 0.42600
H21 H 0.42120 1.09350 0.34480
N1 N 0.85011(19) 0.97833(15) 0.32369(13)
H22 H 0.834(3) 1.0375(13) 0.3016(17)
N2 N 0.57338(17) 0.86234(18) 0.23298(14)
O1 O 0.54520(16) 0.93604(18) 0.18826(15)
O2 O 0.5039(2) 0.7935(2) 0.2512(2)
O3 O 0.6558(2) 1.09992(14) 0.32594(14)
O4 O 0.53357(17) 0.98748(15) 0.39377(15)
#END
