
#######################################################################
#
#                 Cambridge Crystallographic Data Centre
#                                CCDC
#
#######################################################################
#
# If this CIF has been generated from an entry in the Cambridge
# Structural Database, then it will include bibliographic, chemical,
# crystal, experimental, refinement or atomic coordinate data resulting
# from the CCDC's data processing and validation procedures.
#
#######################################################################

data_CSD_CIF_JIMCAJ
_audit_creation_date 1991-10-24
_audit_creation_method CSD-ConQuest-V1
_database_code_CSD JIMCAJ
_chemical_formula_sum 'C21 H18 N2 O1'
_chemical_formula_moiety
;
C21 H18 N2 O1
;
_journal_coden_Cambridge 4
_journal_volume 113
_journal_year 1991
_journal_page_first 2308
_journal_name_full 'J.Am.Chem.Soc. '
loop_
_publ_author_name
"R.N.Loeppky"
"Qing Feng"
"A.Srinivasan"
"R.Glaser"
"C.L.Barnes"
"P.R.Sharp"
_chemical_name_systematic
;
1-Benzyl-1,4-dihydro-3,4-diphenyl-1,2-diazete 2-oxide
;
_cell_volume   1620.291
_exptl_crystal_colour 'colorless'
_exptl_crystal_density_diffrn 1.289
_diffrn_ambient_temperature 163.15
#These two values have been output from a single CSD field.
_refine_ls_R_factor_gt 0.065
_refine_ls_wR_factor_gt 0.065
_symmetry_cell_setting monoclinic
_symmetry_space_group_name_H-M 'P 21/c'
_symmetry_Int_Tables_number 14
loop_
_symmetry_equiv_pos_site_id
_symmetry_equiv_pos_as_xyz
1 x,y,z
2 -x,1/2+y,1/2-z
3 -x,-y,-z
4 x,-1/2-y,-1/2+z
_cell_length_a 12.138(4)
_cell_length_b 5.599(3)
_cell_length_c 23.969(13)
_cell_angle_alpha 90
_cell_angle_beta 95.91(3)
_cell_angle_gamma 90
_cell_formula_units_Z 4
loop_
_atom_type_symbol
_atom_type_radius_bond
C 0.68
H 0.23
N 0.68
O 0.68
loop_
_atom_site_label
_atom_site_type_symbol
_atom_site_fract_x
_atom_site_fract_y
_atom_site_fract_z
O1 O 0.7470(3) 0.1052(7) 0.9572(1)
N1 N 0.7322(3) 0.2868(8) 0.9284(2)
N2 N 0.8128(3) 0.3950(8) 0.8947(2)
C1 C 0.7285(4) 0.596(1) 0.8819(2)
C2 C 0.6541(4) 0.445(1) 0.9148(2)
C3 C 0.9155(4) 0.466(1) 0.9289(2)
C4 C 0.9837(4) 0.620(1) 0.8923(2)
C5 C 1.0358(4) 0.820(1) 0.9119(2)
C6 C 1.0964(4) 0.960(1) 0.8772(3)
C7 C 1.1059(4) 0.886(1) 0.8229(2)
C8 C 1.0555(4) 0.681(1) 0.8031(2)
C9 C 0.9951(4) 0.540(1) 0.8370(2)
C10 C 0.6947(4) 0.6347(9) 0.8199(2)
C11 C 0.7271(4) 0.834(1) 0.7935(2)
C12 C 0.6966(4) 0.867(1) 0.7363(2)
C13 C 0.6348(4) 0.700(1) 0.7062(2)
C14 C 0.6019(4) 0.494(1) 0.7320(2)
C15 C 0.6313(4) 0.461(1) 0.7895(2)
C16 C 0.5371(4) 0.451(1) 0.9232(2)
C17 C 0.4756(4) 0.644(1) 0.9030(2)
C18 C 0.3621(4) 0.659(1) 0.9092(2)
C19 C 0.3132(4) 0.469(1) 0.9353(2)
C20 C 0.3740(4) 0.274(1) 0.9557(2)
C21 C 0.4869(4) 0.263(1) 0.9492(2)
H1 H 0.750(5) 0.75(1) 0.902(2)
H2 H 0.960(5) 0.31(1) 0.942(2)
H3 H 0.903(5) 0.61(1) 0.961(2)
H4 H 1.032(5) 0.87(1) 0.949(2)
H5 H 1.132(5) 1.14(1) 0.896(2)
H6 H 1.144(5) 1.00(1) 0.800(2)
H7 H 1.063(5) 0.67(1) 0.765(2)
H8 H 0.958(5) 0.37(1) 0.822(2)
H9 H 0.772(5) 0.99(1) 0.815(2)
H10 H 0.725(5) 1.02(1) 0.718(2)
H11 H 0.613(5) 0.74(1) 0.667(2)
H12 H 0.548(5) 0.34(1) 0.715(2)
H13 H 0.609(5) 0.29(1) 0.809(2)
H14 H 0.513(5) 0.80(1) 0.885(2)
H15 H 0.314(5) 0.79(1) 0.892(2)
H16 H 0.238(5) 0.44(1) 0.941(2)
H17 H 0.332(5) 0.15(1) 0.975(2)
H18 H 0.531(5) 0.12(1) 0.965(2)
#END
