
#######################################################################
#
#                 Cambridge Crystallographic Data Centre
#                                CCDC
#
#######################################################################
#
# If this CIF has been generated from an entry in the Cambridge
# Structural Database, then it will include bibliographic, chemical,
# crystal, experimental, refinement or atomic coordinate data resulting
# from the CCDC's data processing and validation procedures.
#
#######################################################################

data_CSD_CIF_JIMCEQ
_audit_creation_date 2018-07-20
_audit_creation_method CSD-ConQuest-V1
_database_code_CSD JIMCEQ
_database_code_depnum_ccdc_archive 'CCDC 1564701'
_chemical_formula_sum 'C31 H35 N2 O2'
_chemical_formula_moiety
;
C31 H35 N2 O2
;
_journal_coden_Cambridge 1500
_journal_volume 8
_journal_year 2018
_journal_page_first 26099
_journal_name_full 'RSC Advances '
loop_
_publ_author_name
"Y.A.Ten"
"O.G.Salnikov"
"S.A.Amitina"
"D.V.Stass"
"T.V.Rybalova"
"M.S.Kazantsev"
"A.S.Bogomyakov"
"E.A.Mostovich"
"D.G.Mazhukin"
_chemical_name_systematic
;
4-[4-([1,1'-biphenyl]-4-yl)-1-oxy-5,5-dimethyl-1,5-dihydro-2H-imidazol-2-ylide
ne]-2,6-di-t-butylcyclohexa-2,5-dien-1-one radical
;
_cell_volume   2649.311
_exptl_crystal_colour 'black'
_exptl_crystal_density_diffrn 1.172
_exptl_special_details
;
Magnetic properties

;
_exptl_crystal_description 'plate'
_exptl_crystal_preparation 'Re-crystallisation from solvent'
_diffrn_ambient_temperature 296
#These two values have been output from a single CSD field.
_refine_ls_R_factor_gt 0.0954
_refine_ls_wR_factor_gt 0.0954
_symmetry_cell_setting monoclinic
_symmetry_space_group_name_H-M 'P 21/c'
_symmetry_Int_Tables_number 14
loop_
_symmetry_equiv_pos_site_id
_symmetry_equiv_pos_as_xyz
1 x,y,z
2 -x,1/2+y,1/2-z
3 -x,-y,-z
4 x,-1/2-y,-1/2+z
_cell_length_a 11.5429(7)
_cell_length_b 14.3317(8)
_cell_length_c 16.9947(10)
_cell_angle_alpha 90
_cell_angle_beta 109.552(2)
_cell_angle_gamma 90
_cell_formula_units_Z 4
loop_
_atom_type_symbol
_atom_type_radius_bond
C 0.68
H 0.23
N 0.68
O 0.68
loop_
_atom_site_label
_atom_site_type_symbol
_atom_site_fract_x
_atom_site_fract_y
_atom_site_fract_z
O1 O 0.1361(2) 0.64184(17) 0.23805(14)
N1 N 0.1378(2) 0.70495(16) 0.18597(13)
C1 C 0.2264(2) 0.76885(18) 0.19091(14)
O2 O 0.67241(19) 0.81771(18) 0.43562(13)
N2 N 0.19193(19) 0.82298(16) 0.11855(12)
C2 C 0.0849(2) 0.79602(19) 0.06954(15)
C3 C 0.0332(2) 0.7159(2) 0.10520(16)
C4 C -0.0822(3) 0.7385(3) 0.1255(2)
H1 H -0.09470 0.69170 0.16230
H2 H -0.15170 0.73960 0.07490
H3 H -0.07320 0.79840 0.15210
C5 C 0.0200(4) 0.6244(2) 0.0570(2)
H4 H 0.09150 0.61480 0.04110
H5 H -0.05170 0.62710 0.00790
H6 H 0.01200 0.57370 0.09180
C6 C 0.3374(2) 0.78278(17) 0.25721(14)
C7 C 0.3669(2) 0.73520(17) 0.33471(14)
H7 H 0.30990 0.69360 0.34270
C8 C 0.4751(2) 0.74814(17) 0.39753(14)
C9 C 0.5670(2) 0.81158(19) 0.38340(15)
C10 C 0.5315(2) 0.86770(18) 0.30605(14)
C11 C 0.4211(2) 0.85054(18) 0.24667(15)
H8 H 0.39930 0.88440 0.19720
C12 C 0.0273(2) 0.84223(19) -0.01098(15)
C13 C 0.0881(3) 0.9164(2) -0.03265(17)
H9 H 0.16330 0.93610 0.00440
C14 C 0.0385(3) 0.9612(2) -0.10822(18)
H10 H 0.08170 1.01030 -0.12120
C15 C -0.0746(2) 0.9351(2) -0.16600(15)
C16 C -0.1350(3) 0.8625(3) -0.14329(19)
H11 H -0.21120 0.84380 -0.17990
C17 C -0.0858(3) 0.8161(3) -0.06736(19)
H12 H -0.12920 0.76720 -0.05430
C18 C -0.1261(3) 0.9846(2) -0.24732(16)
C19 C -0.0571(4) 1.0499(3) -0.2723(2)
H13 H 0.02320 1.06200 -0.23810
C20 C -0.1050(4) 1.0978(3) -0.3472(2)
H14 H -0.05770 1.14270 -0.36180
C21 C -0.2216(4) 1.0794(3) -0.39965(19)
H15 H -0.25350 1.11110 -0.45010
C22 C -0.2895(4) 1.0148(3) -0.3774(2)
H16 H -0.36840 1.00150 -0.41320
C23 C -0.2434(3) 0.9675(3) -0.3016(2)
H17 H -0.29240 0.92360 -0.28740
C24 C 0.5046(3) 0.6990(2) 0.48197(15)
C25 C 0.6191(3) 0.9434(2) 0.29618(17)
C26 C 0.6103(3) 0.6301(2) 0.4940(2)
H18 H 0.62970 0.60070 0.54760
H19 H 0.68120 0.66280 0.49090
H20 H 0.58620 0.58350 0.45100
C27 C 0.5397(4) 0.7711(3) 0.55296(19)
H21 H 0.55260 0.74000 0.60530
H22 H 0.47450 0.81580 0.54360
H23 H 0.61380 0.80260 0.55430
C28 C 0.3926(3) 0.6447(3) 0.4862(2)
H24 H 0.37080 0.59760 0.44360
H25 H 0.32470 0.68670 0.47770
H26 H 0.41200 0.61570 0.54000
C29 C 0.6458(4) 1.0132(3) 0.3684(2)
H27 H 0.68680 0.98180 0.42020
H28 H 0.56990 1.03920 0.36990
H29 H 0.69730 1.06230 0.36050
C30 C 0.5623(4) 0.9980(3) 0.2150(2)
H30 H 0.61900 1.04490 0.21040
H31 H 0.48760 1.02720 0.21530
H32 H 0.54460 0.95610 0.16840
C31 C 0.7386(4) 0.9005(3) 0.2930(3)
H33 H 0.79200 0.94920 0.28680
H34 H 0.72060 0.85860 0.24640
H35 H 0.77810 0.86690 0.34370
#END
