
#######################################################################
#
#                 Cambridge Crystallographic Data Centre
#                                CCDC
#
#######################################################################
#
# If this CIF has been generated from an entry in the Cambridge
# Structural Database, then it will include bibliographic, chemical,
# crystal, experimental, refinement or atomic coordinate data resulting
# from the CCDC's data processing and validation procedures.
#
#######################################################################

data_CSD_CIF_JIMHIX
_audit_creation_date 2008-02-05
_audit_creation_method CSD-ConQuest-V1
_database_code_CSD JIMHIX
_database_code_depnum_ccdc_archive 'CCDC 642256'
_chemical_formula_sum 'C17 H18 N2 O6'
_chemical_formula_moiety
;
C17 H18 N2 O6
;
_journal_coden_Cambridge 179
_journal_volume 46
_journal_year 2007
_journal_page_first 6545
_journal_name_full 'Angew.Chem.,Int.Ed. '
loop_
_publ_author_name
"T.Kurahashi"
"S.I.Kozhushkov"
"H.Schill"
"K.Meindl"
"S.Ruhl"
"A.de Meijere"
_chemical_name_systematic
;
1''-methyl-1,1':1',1''-ter(cyclopropan)-1-yl 3,5-dinitrobenzoate
;
_chemical_melting_point 382.15
_cell_volume   1671.053
_exptl_crystal_colour 'colorless'
_exptl_crystal_density_diffrn 1.377
_exptl_special_details
;
Melting point range 382.15-384.15K

;
_exptl_crystal_description 'needle'
_exptl_crystal_preparation 'hexane'
_diffrn_ambient_temperature 100
#These two values have been output from a single CSD field.
_refine_ls_R_factor_gt 0.0239
_refine_ls_wR_factor_gt 0.0239
_symmetry_cell_setting orthorhombic
_symmetry_space_group_name_H-M 'P 21 21 21'
_symmetry_Int_Tables_number 19
loop_
_symmetry_equiv_pos_site_id
_symmetry_equiv_pos_as_xyz
1 x,y,z
2 1/2-x,-y,1/2+z
3 -x,1/2+y,1/2-z
4 1/2+x,1/2-y,-z
_cell_length_a 6.247(2)
_cell_length_b 9.076(2)
_cell_length_c 29.473(2)
_cell_angle_alpha 90
_cell_angle_beta 90
_cell_angle_gamma 90
_cell_formula_units_Z 4
loop_
_atom_type_symbol
_atom_type_radius_bond
C 0.68
H 0.23
N 0.68
O 0.68
loop_
_atom_site_label
_atom_site_type_symbol
_atom_site_fract_x
_atom_site_fract_y
_atom_site_fract_z
N1 N 0.7244(2) 0.87854(13) 1.00413(4)
N2 N 1.3310(2) 1.06640(14) 0.91545(4)
O1 O 1.22403(16) 1.10298(11) 1.11880(3)
O2 O 1.51092(17) 1.18455(12) 1.07882(3)
O3 O 0.64862(18) 0.85376(12) 1.04175(4)
O4 O 0.63968(17) 0.84080(12) 0.96830(4)
O5 O 1.24751(19) 1.01517(13) 0.88144(3)
O6 O 1.5039(2) 1.13043(13) 0.91561(4)
C1 C 1.1731(3) 0.8550(2) 1.21480(5)
H1 H 1.10750 0.75700 1.21580
H2 H 1.06370 0.92850 1.20730
H3 H 1.23540 0.87800 1.24450
C2 C 1.3461(3) 0.85741(18) 1.17918(5)
C3 C 1.4632(3) 0.7135(2) 1.17223(6)
H4 H 1.61770 0.71790 1.16490
H5 H 1.41980 0.62830 1.19110
C4 C 1.3072(3) 0.76806(19) 1.13697(6)
H6 H 1.36630 0.80570 1.10800
H7 H 1.16840 0.71610 1.13420
C5 C 1.4658(3) 1.00187(17) 1.17539(5)
C6 C 1.6967(2) 1.0056(2) 1.16058(5)
H8 H 1.74570 1.09220 1.14300
H9 H 1.76460 0.91110 1.15200
C7 C 1.6415(2) 1.0285(2) 1.20987(5)
H10 H 1.65640 1.12920 1.22240
H11 H 1.67530 0.94800 1.23140
C8 C 1.3302(2) 1.13057(17) 1.16166(5)
C9 C 1.3812(3) 1.28837(18) 1.17114(6)
H12 H 1.34980 1.36150 1.14710
H13 H 1.50970 1.31000 1.18970
C10 C 1.1945(3) 1.21466(19) 1.19423(5)
H14 H 1.20840 1.19120 1.22690
H15 H 1.04850 1.24270 1.18440
C11 C 1.3353(2) 1.12950(16) 1.08092(5)
C12 C 1.2164(2) 1.08004(16) 1.03953(5)
C13 C 1.0202(2) 1.00858(15) 1.04167(5)
H16 H 0.95020 0.99400 1.06990
C14 C 0.9283(2) 0.95892(16) 1.00161(5)
C15 C 1.0234(2) 0.97665(16) 0.95962(5)
H17 H 0.95810 0.94130 0.93260
C16 C 1.2189(2) 1.04857(16) 0.95897(5)
C17 C 1.3160(2) 1.10114(16) 0.99777(5)
H18 H 1.44930 1.15120 0.99600
#END
