
#######################################################################
#
#                 Cambridge Crystallographic Data Centre
#                                CCDC
#
#######################################################################
#
# If this CIF has been generated from an entry in the Cambridge
# Structural Database, then it will include bibliographic, chemical,
# crystal, experimental, refinement or atomic coordinate data resulting
# from the CCDC's data processing and validation procedures.
#
#######################################################################

data_CSD_CIF_JIMTOO
_audit_creation_date 1991-10-24
_audit_creation_method CSD-ConQuest-V1
_database_code_CSD JIMTOO
_chemical_formula_sum 'C20 H27 N1 O7'
_chemical_formula_moiety
;
C20 H27 N1 O7
;
_journal_coden_Cambridge 1090
_journal_volume 2
_journal_year 1991
_journal_page_first 179
_journal_name_full 'Tetrahedron:Asymm. '
loop_
_publ_author_name
"K.Fuji"
"K.Tanaka"
"H.Abe"
"A.Itoh"
"M.Node"
"T.Taga"
"Y.Miwa"
"M.Shiro"
_chemical_name_systematic
;
endo-(4-Methoxy-3a-nitro-4,5-dihydro-indan-6-yl) (S)-camphanate
;
_chemical_name_common
;
1,2,2-Trimethyl-3-(4-methoxy-3a-nitro-4,5-dihydroindan-6-ol)carbonylcyclopropa
ne-1,3-carbolactone
;
_cell_volume   2021.375
_exptl_crystal_density_diffrn 1.293
_diffrn_ambient_temperature ?
_diffrn_special_details
;
The study was carried out at room temperature,in the range 283-303K

;
loop_
_citation_database_id_CSD
_citation_special_details
JIMTII "is a stereoisomer of this entry"
_symmetry_cell_setting orthorhombic
_symmetry_space_group_name_H-M 'P 21 21 21'
_symmetry_Int_Tables_number 19
loop_
_symmetry_equiv_pos_site_id
_symmetry_equiv_pos_as_xyz
1 x,y,z
2 1/2+x,1/2-y,-z
3 -x,1/2+y,1/2-z
4 1/2-x,-y,1/2+z
_cell_length_a 21.718(2)
_cell_length_b 12.216(1)
_cell_length_c 7.619(1)
_cell_angle_alpha 90
_cell_angle_beta 90
_cell_angle_gamma 90
_cell_formula_units_Z 4
loop_
_atom_type_symbol
_atom_type_radius_bond
C 0.68
H 0.23
N 0.68
O 0.68
loop_
_atom_site_label
_atom_site_type_symbol
_atom_site_fract_x
_atom_site_fract_y
_atom_site_fract_z
C1 C 0.1807(2) -0.2552(3) 0.0351(4)
C2 C 0.1690(2) -0.1442(3) 0.1182(5)
C3 C 0.1075(2) -0.1465(3) 0.2121(5)
C4 C 0.1005(2) -0.2426(3) 0.3296(5)
C5 C 0.1347(2) -0.3324(3) 0.3144(5)
C6 C 0.1261(2) -0.4417(3) 0.4014(6)
C7 C 0.1534(2) -0.5254(3) 0.2785(7)
C8 C 0.1710(2) -0.4625(3) 0.1107(6)
C9 C 0.1828(1) -0.3459(3) 0.1708(4)
C10 C 0.2311(2) -0.2320(6) -0.2358(6)
C11 C 0.0470(1) -0.0104(3) 0.3568(5)
C12 C 0.0502(1) 0.0904(3) 0.4679(5)
C13 C 0.0817(2) 0.0832(3) 0.6491(5)
C14 C 0.0584(2) 0.1996(3) 0.7015(4)
C15 C 0.0811(2) 0.2704(3) 0.5477(5)
C16 C 0.0762(2) 0.1950(3) 0.3864(5)
C17 C 0.1527(2) 0.0738(4) 0.6441(6)
C18 C 0.0558(2) -0.0073(3) 0.7667(7)
C19 C 0.0720(2) 0.2424(4) 0.8834(6)
C20 C -0.0091(2) 0.1834(3) 0.6618(5)
N1 N 0.2469(1) -0.3414(3) 0.2594(4)
O1 O 0.2368(1) -0.2572(2) -0.0617(3)
O2 O 0.2861(1) -0.4078(3) 0.2146(5)
O3 O 0.2566(1) -0.2702(3) 0.3647(4)
O4 O 0.1033(1) -0.0439(2) 0.3150(3)
O5 O 0.0005(1) -0.0573(2) 0.3170(4)
O6 O -0.0134(1) 0.1190(2) 0.5178(3)
O7 O -0.0537(1) 0.2193(2) 0.7340(4)
H1 H 0.145(2) -0.272(4) -0.050(7)
H2 H 0.203(2) -0.126(4) 0.202(6)
H3 H 0.169(2) -0.086(4) 0.028(6)
H4 H 0.072(2) -0.151(4) 0.129(7)
H5 H 0.068(2) -0.240(4) 0.420(7)
H6 H 0.148(2) -0.444(4) 0.517(7)
H7 H 0.081(2) -0.459(4) 0.416(7)
H8 H 0.191(2) -0.558(4) 0.335(7)
H9 H 0.123(2) -0.584(4) 0.249(7)
H10 H 0.135(2) -0.462(4) 0.026(7)
H11 H 0.208(2) -0.494(4) 0.056(7)
H12 H 0.212(2) -0.145(5) -0.243(8)
H13 H 0.271(2) -0.230(4) -0.300(7)
H14 H 0.203(2) -0.276(4) -0.299(7)
H15 H 0.054(2) 0.340(4) 0.536(7)
H16 H 0.124(2) 0.296(4) 0.569(7)
H17 H 0.115(2) 0.184(3) 0.336(6)
H18 H 0.046(2) 0.222(4) 0.300(7)
H19 H 0.164(2) 0.000(4) 0.613(7)
H20 H 0.170(2) 0.092(4) 0.765(7)
H21 H 0.171(2) 0.131(4) 0.558(7)
H22 H 0.072(2) -0.078(4) 0.725(7)
H23 H 0.011(2) -0.007(4) 0.765(7)
H24 H 0.070(2) 0.006(4) 0.889(8)
H25 H 0.118(2) 0.251(4) 0.897(7)
H26 H 0.056(2) 0.194(4) 0.972(7)
H27 H 0.052(2) 0.315(4) 0.896(8)
#END
