
#######################################################################
#
#                 Cambridge Crystallographic Data Centre
#                                CCDC
#
#######################################################################
#
# If this CIF has been generated from an entry in the Cambridge
# Structural Database, then it will include bibliographic, chemical,
# crystal, experimental, refinement or atomic coordinate data resulting
# from the CCDC's data processing and validation procedures.
#
#######################################################################

data_CSD_CIF_JINYEK
_audit_creation_date 1991-11-25
_audit_creation_method CSD-ConQuest-V1
_database_code_CSD JINYEK
_database_code_depnum_ccdc_archive 'CCDC 1186773'
_database_code_depnum_ccdc_fiz 'CSD 54530'
_chemical_formula_sum 'C12 H15 N7 O4'
_chemical_formula_moiety
;
C12 H15 N7 O4
;
_journal_coden_Cambridge 167
_journal_year 1991
_journal_page_first 409
_journal_name_full 'Liebigs Ann. '
loop_
_publ_author_name
"H.Quast"
"D.Regnat"
"J.Balthasar"
"K.Banert"
"E.-M.Peters"
"K.Peters"
"H.G.von Schnering"
_chemical_name_systematic
;
Z-5-((2,4-Dinitrophenyl)imino)-1,4,6,6-tetramethyl-1,4,5,6-tetrahydro-1,2,3,4-
tetrazine
;
_chemical_melting_point 380.15
_cell_volume   1544.355
_exptl_crystal_colour 'yellow'
_exptl_crystal_density_diffrn 1.381
_exptl_special_details
;
Melting point range 380.15-381.15K

;
_diffrn_ambient_temperature ?
_diffrn_special_details
;
The study was carried out at room temperature,in the range 283-303K

;
#These two values have been output from a single CSD field.
_refine_ls_R_factor_gt 0.068
_refine_ls_wR_factor_gt 0.068
_symmetry_cell_setting monoclinic
_symmetry_space_group_name_H-M 'P 21/c'
_symmetry_Int_Tables_number 14
loop_
_symmetry_equiv_pos_site_id
_symmetry_equiv_pos_as_xyz
1 x,y,z
2 -x,1/2+y,1/2-z
3 -x,-y,-z
4 x,-1/2-y,-1/2+z
_cell_length_a 15.627(5)
_cell_length_b 6.990(2)
_cell_length_c 15.980(4)
_cell_angle_alpha 90
_cell_angle_beta 117.78(2)
_cell_angle_gamma 90
_cell_formula_units_Z 4
loop_
_atom_type_symbol
_atom_type_radius_bond
C 0.68
H 0.23
N 0.68
O 0.68
loop_
_atom_site_label
_atom_site_type_symbol
_atom_site_fract_x
_atom_site_fract_y
_atom_site_fract_z
N1 N 0.6895(2) 0.0863(3) 0.7861(2)
C1 C 0.6228(2) 0.1248(5) 0.8249(2)
N2 N 0.7557(2) -0.0449(4) 0.8387(2)
N3 N 0.8145(2) -0.1110(4) 0.8132(2)
N4 N 0.8090(1) -0.0470(3) 0.7271(2)
C2 C 0.8877(2) -0.1269(5) 0.7127(2)
C3 C 0.7361(2) 0.0574(4) 0.6625(2)
C4 C 0.6489(2) 0.0818(4) 0.6811(2)
N5 N 0.7249(2) 0.1196(3) 0.5827(1)
C5 C 0.7880(2) 0.1181(4) 0.5446(2)
C6 C 0.8660(2) 0.2470(4) 0.5738(2)
C7 C 0.9178(2) 0.2654(4) 0.5244(2)
C8 C 0.8909(2) 0.1569(4) 0.4427(2)
N6 N 0.9412(2) 0.1839(4) 0.3865(2)
C9 C 0.8169(2) 0.0285(4) 0.4126(2)
C10 C 0.7678(2) 0.0093(4) 0.4645(2)
N7 N 0.6866(2) -0.1275(4) 0.4301(2)
C11 C 0.5833(2) -0.0918(4) 0.6396(2)
C12 C 0.5978(2) 0.2685(5) 0.6407(2)
O1 O 0.9114(2) 0.1009(4) 0.3110(2)
O2 O 1.0134(2) 0.2874(3) 0.4186(2)
O3 O 0.6811(2) -0.2304(4) 0.4899(2)
O4 O 0.6315(1) -0.1317(3) 0.3457(2)
H1 H 0.57700 0.21900 0.78560
H2 H 0.65770 0.17280 0.88830
H3 H 0.58920 0.00990 0.82500
H4 H 0.88260 -0.08170 0.65380
H5 H 0.88360 -0.26400 0.71140
H6 H 0.94860 -0.08760 0.76360
H7 H 0.88410 0.32210 0.62980
H8 H 0.97120 0.35280 0.54540
H9 H 0.79970 -0.04690 0.35690
H10 H 0.52770 -0.07900 0.64980
H11 H 0.61810 -0.20570 0.67030
H12 H 0.56280 -0.10010 0.57290
H13 H 0.57070 0.26810 0.57300
H14 H 0.64400 0.37040 0.66650
H15 H 0.54710 0.28700 0.65790
#END
