
#######################################################################
#
#                 Cambridge Crystallographic Data Centre
#                                CCDC
#
#######################################################################
#
# If this CIF has been generated from an entry in the Cambridge
# Structural Database, then it will include bibliographic, chemical,
# crystal, experimental, refinement or atomic coordinate data resulting
# from the CCDC's data processing and validation procedures.
#
#######################################################################

data_CSD_CIF_JIPDOC
_audit_creation_date 2008-02-05
_audit_creation_method CSD-ConQuest-V1
_database_code_CSD JIPDOC
_database_code_depnum_ccdc_archive 'CCDC 637933'
_chemical_formula_sum 'C22 H31 N1 O4'
_chemical_formula_moiety
;
C22 H31 N1 O4
;
_journal_coden_Cambridge 1078
_journal_year 2007
_journal_name_full 'CSD Communication(Private Communication) '
loop_
_publ_author_name
"F.R.Fronczek"
_chemical_name_systematic
;
1-(8b-((Benzyloxy)methyl)-8a-methoxy-7-methyldecahydro-2H-naphtho(1,8-bc)furan
-6-yl)-N-hydroxymethanimine
;
_cell_volume    961.331
_exptl_crystal_colour 'colorless'
_exptl_crystal_density_diffrn 1.29
_exptl_special_details
;
contribution from Department of Chemistry, Louisiana State University, Baton 
Rouge, LA 70803-1804, USA
;
_diffrn_ambient_temperature 100
#These two values have been output from a single CSD field.
_refine_ls_R_factor_gt 0.048
_refine_ls_wR_factor_gt 0.048
_symmetry_cell_setting triclinic
_symmetry_space_group_name_H-M 'P -1'
_symmetry_Int_Tables_number 2
loop_
_symmetry_equiv_pos_site_id
_symmetry_equiv_pos_as_xyz
1 x,y,z
2 -x,-y,-z
_cell_length_a 8.399(2)
_cell_length_b 9.028(3)
_cell_length_c 13.463(4)
_cell_angle_alpha 96.815(12)
_cell_angle_beta 106.631(17)
_cell_angle_gamma 95.828(17)
_cell_formula_units_Z 2
loop_
_atom_type_symbol
_atom_type_radius_bond
C 0.68
H 0.23
N 0.68
O 0.68
loop_
_atom_site_label
_atom_site_type_symbol
_atom_site_fract_x
_atom_site_fract_y
_atom_site_fract_z
O1 O 0.40327(15) 0.44299(13) 0.08069(10)
H1 H 0.472(3) 0.401(2) 0.0334(16)
O2 O 0.26659(14) 1.14635(12) 0.26634(9)
O3 O 0.28003(14) 0.99053(13) 0.39401(9)
O4 O 0.64858(13) 0.78435(12) 0.32012(9)
N1 N 0.39539(17) 0.59093(15) 0.05418(11)
C1 C 0.5573(2) 1.11400(18) 0.33538(13)
H2 H 0.58490 1.11380 0.41270
C2 C 0.7229(2) 1.1428(2) 0.30917(13)
H3 H 0.77230 1.24950 0.33560
H4 H 0.80210 1.07960 0.34710
C3 C 0.7069(2) 1.11018(19) 0.19254(14)
H5 H 0.82040 1.11530 0.18390
H6 H 0.65020 1.18840 0.15640
C4 C 0.6069(2) 0.95438(19) 0.14137(13)
H7 H 0.59260 0.93880 0.06510
H8 H 0.66720 0.87440 0.17270
C5 C 0.43526(19) 0.94816(18) 0.16047(12)
H9 H 0.39680 1.04460 0.14020
C6 C 0.2944(2) 0.82616(18) 0.08779(13)
H10 H 0.29430 0.83350 0.01420
C7 C 0.1251(2) 0.86979(19) 0.09736(13)
H11 H 0.11450 0.96970 0.07290
C8 C 0.1237(2) 0.89211(19) 0.21176(13)
H12 H 0.02020 0.93340 0.21500
H13 H 0.11930 0.79250 0.23540
C9 C 0.2743(2) 0.99640(17) 0.28755(12)
C10 C 0.44699(19) 0.96284(17) 0.27879(12)
C11 C 0.4347(2) 1.22909(19) 0.30571(14)
H14 H 0.44460 1.30390 0.36800
H15 H 0.46060 1.28330 0.25120
C12 C 0.3156(2) 0.66663(18) 0.10414(13)
H16 H 0.26910 0.62230 0.15210
C13 C 0.1353(2) 1.0298(2) 0.41893(15)
H17 H 0.10320 1.12030 0.38910
H18 H 0.15970 1.05000 0.49530
H19 H 0.04280 0.94650 0.38960
C14 C -0.0274(2) 0.7610(2) 0.02766(14)
H20 H -0.01910 0.65980 0.04640
H21 H -0.03150 0.75860 -0.04600
H22 H -0.12980 0.79470 0.03780
C15 C 0.49743(19) 0.82975(18) 0.33523(13)
H23 H 0.51430 0.85840 0.41120
H24 H 0.40560 0.74380 0.30840
C16 C 0.6884(2) 0.6549(2) 0.36775(15)
H25 H 0.59190 0.57320 0.34070
H26 H 0.71180 0.67960 0.44460
C17 C 0.8399(2) 0.60333(18) 0.34360(14)
C18 C 0.9955(2) 0.6270(2) 0.41855(15)
H27 H 1.00950 0.68120 0.48610
C19 C 1.1319(2) 0.5718(3) 0.39552(18)
H28 H 1.23880 0.58900 0.44720
C20 C 1.1119(3) 0.4925(2) 0.2981(2)
H29 H 1.20390 0.45170 0.28310
C21 C 0.9581(3) 0.4723(2) 0.22207(18)
H30 H 0.94500 0.42010 0.15400
C22 C 0.8227(2) 0.5278(2) 0.24467(15)
H31 H 0.71720 0.51400 0.19190
#END
