
#######################################################################
#
#                 Cambridge Crystallographic Data Centre
#                                CCDC
#
#######################################################################
#
# If this CIF has been generated from an entry in the Cambridge
# Structural Database, then it will include bibliographic, chemical,
# crystal, experimental, refinement or atomic coordinate data resulting
# from the CCDC's data processing and validation procedures.
#
#######################################################################

data_CSD_CIF_JIPNIF
_audit_creation_date 1991-12-13
_audit_creation_method CSD-ConQuest-V1
_database_code_CSD JIPNIF
_chemical_formula_sum 'C13 H7 N5 O7'
_chemical_formula_moiety
;
C13 H7 N5 O7
;
_journal_coeditor_code "IUCr BX0484"
_journal_coden_Cambridge 591
_journal_volume 47
_journal_year 1991
_journal_page_first 1700
_journal_name_full 'Acta Crystallogr.,Sect.C:Cryst.Struct.Commun. '
loop_
_publ_author_name
"M.Ramm"
"B.Schulz"
"R.Rudert"
"B.Gohrmann"
"H.-J.Niclas"
_chemical_name_systematic
;
7-(N-Formyl-N-phenyl)amino-4,6-dinitrobenzofurazan 1-oxide
;
_cell_volume   2894.235
_exptl_crystal_colour 'red'
_exptl_crystal_density_diffrn 1.585
_diffrn_ambient_temperature ?
_diffrn_special_details
;
The study was carried out at room temperature,in the range 283-303K

;
#These two values have been output from a single CSD field.
_refine_ls_R_factor_gt 0.036
_refine_ls_wR_factor_gt 0.036
_symmetry_cell_setting tetragonal
_symmetry_space_group_name_H-M 'I -4'
_symmetry_Int_Tables_number 82
loop_
_symmetry_equiv_pos_site_id
_symmetry_equiv_pos_as_xyz
1 x,y,z
2 1/2+x,1/2+y,1/2+z
3 -y,x,-z
4 1/2-y,1/2+x,1/2-z
5 -x,-y,z
6 1/2-x,1/2-y,1/2+z
7 y,-x,-z
8 1/2+y,1/2-x,1/2-z
_cell_length_a 11.129(3)
_cell_length_b 11.129(3)
_cell_length_c 23.368(6)
_cell_angle_alpha 90
_cell_angle_beta 90
_cell_angle_gamma 90
_cell_formula_units_Z 8
loop_
_atom_type_symbol
_atom_type_radius_bond
C 0.68
H 0.23
N 0.68
O 0.68
loop_
_atom_site_label
_atom_site_type_symbol
_atom_site_fract_x
_atom_site_fract_y
_atom_site_fract_z
O1 O 0.6506(4) -0.0149(4) 0.1327(2)
O2 O 1.0666(4) 0.3682(4) 0.1890(3)
O3 O 1.1318(4) 0.2463(4) 0.2505(2)
O4 O 0.7051(5) -0.0651(4) 0.3063(2)
O5 O 0.8444(6) 0.0210(6) 0.3501(5)
O6 O 1.1212(4) 0.1453(6) 0.1071(2)
O7 O 0.7271(4) 0.1001(4) 0.0602(2)
N1 N 0.9400(4) 0.2396(4) 0.1025(2)
N2 N 0.7301(5) 0.0727(5) 0.1098(3)
N3 N 0.6747(5) -0.0357(5) 0.1896(3)
N4 N 1.0592(4) 0.2759(5) 0.2142(2)
N5 N 0.7904(5) 0.0011(5) 0.3081(3)
C1 C 0.8683(4) 0.3298(5) 0.0736(2)
C2 C 0.8082(6) 0.4141(6) 0.1040(3)
C3 C 0.7428(7) 0.4974(7) 0.0747(4)
C4 C 0.7443(7) 0.5053(7) 0.0168(4)
C5 C 0.8018(7) 0.4159(7) -0.0143(3)
C6 C 0.8651(6) 0.3293(6) 0.0142(3)
C7 C 0.8994(4) 0.1852(4) 0.1543(2)
C8 C 0.8017(4) 0.1054(5) 0.1547(2)
C9 C 0.7646(4) 0.0408(5) 0.2029(2)
C10 C 0.8256(5) 0.0599(4) 0.2544(2)
C11 C 0.9189(5) 0.1363(4) 0.2562(2)
C12 C 0.9565(4) 0.1982(4) 0.2057(2)
C13 C 1.0563(6) 0.2125(7) 0.0849(3)
H1 H 1.070(4) 0.263(4) 0.050(2)
H2 H 0.818(5) 0.417(5) 0.154(3)
H3 H 0.699(5) 0.557(5) 0.100(2)
H4 H 0.692(5) 0.560(5) 0.006(2)
H5 H 0.802(7) 0.451(7) -0.063(3)
H6 H 0.974(3) 0.171(3) 0.288(1)
#END
