
#######################################################################
#
#                 Cambridge Crystallographic Data Centre
#                                CCDC
#
#######################################################################
#
# If this CIF has been generated from an entry in the Cambridge
# Structural Database, then it will include bibliographic, chemical,
# crystal, experimental, refinement or atomic coordinate data resulting
# from the CCDC's data processing and validation procedures.
#
#######################################################################

data_CSD_CIF_JIPPUU
_audit_creation_date 2008-02-05
_audit_creation_method CSD-ConQuest-V1
_database_code_CSD JIPPUU
_database_code_depnum_ccdc_archive 'CCDC 250064'
_chemical_formula_sum 'C19 H24 N2 O8'
_chemical_formula_moiety
;
C19 H24 N2 O8
;
_journal_coden_Cambridge 1320
_journal_year 2004
_journal_name_full 'Thesis '
loop_
_publ_author_name
"T.Ritter"
_chemical_name_systematic
;
N-(6-(2,2-Dimethyl-1,3-dioxolan-4-yl)-2,2-dimethyltetrahydrofuro(3,4-d)(1,3)di
oxol-4-yl)-N-(4-nitrobenzylidene)amine oxide
;
_cell_volume    976.930
_exptl_crystal_colour 'yellow'
_exptl_crystal_density_diffrn 1.388
_exptl_special_details
;
contribution from Laboratory for Organic Chemistry, ETH Zurich, 
Wolfang-Pauli-Strasse 10, 8092 Zurich, Switzerland
;
_diffrn_ambient_temperature 223
#These two values have been output from a single CSD field.
_refine_ls_R_factor_gt 0.0411
_refine_ls_wR_factor_gt 0.0411
_symmetry_cell_setting monoclinic
_symmetry_space_group_name_H-M 'P 21'
_symmetry_Int_Tables_number 4
loop_
_symmetry_equiv_pos_site_id
_symmetry_equiv_pos_as_xyz
1 x,y,z
2 -x,1/2+y,-z
_cell_length_a 5.4727(2)
_cell_length_b 15.6920(4)
_cell_length_c 11.3916(5)
_cell_angle_alpha 90
_cell_angle_beta 93.014(1)
_cell_angle_gamma 90
_cell_formula_units_Z 2
loop_
_atom_type_symbol
_atom_type_radius_bond
C 0.68
H 0.23
N 0.68
O 0.68
loop_
_atom_site_label
_atom_site_type_symbol
_atom_site_fract_x
_atom_site_fract_y
_atom_site_fract_z
C1 C 0.6605(4) 0.72816(12) 0.88556(17)
H1 H 0.49080 0.74650 0.86420
C2 C 0.8350(4) 0.80138(12) 0.86554(17)
H2 H 0.92230 0.79600 0.79190
C3 C 1.0068(4) 0.80374(12) 0.97649(17)
H3 H 1.18070 0.79850 0.95760
C4 C 0.9249(4) 0.72962(12) 1.05159(17)
H4 H 1.03490 0.68050 1.04070
O1 O 0.6810(3) 0.70783(9) 1.00532(12)
O2 O 0.6966(3) 0.87822(9) 0.87207(13)
C5 C 0.8396(4) 0.93677(13) 0.94323(18)
O3 O 0.9577(3) 0.88307(8) 1.03104(12)
C6 C 1.0248(5) 0.98157(16) 0.8724(3)
H5 H 1.12710 0.93970 0.83610
H6 H 1.12580 1.01810 0.92360
H7 H 0.94090 1.01580 0.81190
C7 C 0.6717(5) 0.99629(14) 1.0037(2)
H8 H 0.55750 0.96350 1.04770
H9 H 0.58190 1.03080 0.94540
H10 H 0.76730 1.03300 1.05690
C8 C 0.9197(4) 0.74960(12) 1.18210(17)
H11 H 1.07660 0.77660 1.20850
C9 C 0.7103(4) 0.80440(14) 1.22174(17)
H12 H 0.75770 0.86460 1.22710
H13 H 0.56530 0.79880 1.16800
O4 O 0.6665(3) 0.77019(10) 1.33506(14)
C10 C 0.7152(4) 0.68139(14) 1.33079(19)
O5 O 0.8930(3) 0.67156(9) 1.24489(13)
C11 C 0.4910(5) 0.63186(19) 1.2912(3)
H14 H 0.43030 0.65240 1.21480
H15 H 0.36590 0.63920 1.34750
H16 H 0.53210 0.57190 1.28550
C12 C 0.8232(5) 0.65435(17) 1.4483(2)
H17 H 0.96690 0.68860 1.46860
H18 H 0.86920 0.59470 1.44530
H19 H 0.70350 0.66220 1.50720
N1 N 0.7211(3) 0.65144(9) 0.81460(14)
O6 O 0.9482(3) 0.62938(9) 0.82102(13)
C13 C 0.5447(4) 0.61356(12) 0.75336(17)
H20 H 0.38730 0.63690 0.75790
C14 C 0.5661(3) 0.53900(11) 0.67871(16)
C15 C 0.3694(4) 0.52446(14) 0.59787(18)
H21 H 0.23150 0.56020 0.59760
C16 C 0.3758(4) 0.45809(13) 0.51846(19)
H22 H 0.24460 0.44860 0.46340
C17 C 0.5776(4) 0.40638(13) 0.52185(18)
C18 C 0.7721(4) 0.41683(12) 0.60220(18)
H23 H 0.90630 0.37940 0.60330
C19 C 0.7660(4) 0.48394(12) 0.68173(17)
H24 H 0.89660 0.49210 0.73750
N2 N 0.5857(5) 0.33592(13) 0.43650(18)
O7 O 0.3993(4) 0.31751(13) 0.38016(16)
O8 O 0.7774(5) 0.29931(18) 0.4259(3)
#END
