
#######################################################################
#
#                 Cambridge Crystallographic Data Centre
#                                CCDC
#
#######################################################################
#
# If this CIF has been generated from an entry in the Cambridge
# Structural Database, then it will include bibliographic, chemical,
# crystal, experimental, refinement or atomic coordinate data resulting
# from the CCDC's data processing and validation procedures.
#
#######################################################################

data_CSD_CIF_JIRGIB
_audit_creation_date 2008-02-05
_audit_creation_method CSD-ConQuest-V1
_database_code_CSD JIRGIB
_database_code_depnum_ccdc_archive 'CCDC 299739'
_chemical_formula_sum 'C30 H36 N4 O5'
_chemical_formula_moiety
;
C30 H36 N4 O5
;
_journal_coden_Cambridge 95
_journal_year 2006
_journal_page_first 1956
_journal_name_full 'Izv.Akad.Nauk SSSR,Ser.Khim.(Russ.)(Russ.Chem.Bull.) '
loop_
_publ_author_name
"V.I.Minkin"
"S.M.Aldoshin"
"V.N.Komissarov"
"I.V.Dorogan"
"Yu.A.Sayapin"
"V.V.Tkachev"
"A.G.Starikov"
_chemical_name_systematic
;
1,7-Di-t-butyl-3-(8-methyl-5-nitro-4-piperidino-2-quinolyl)-2-azabicyclo(3.3.0
)octa-2,7-diene-4,6-dione-N-oxide
;
_chemical_melting_point 492.15
_cell_volume   1446.563
_exptl_crystal_colour 'yellow'
_exptl_crystal_density_diffrn 1.223
_exptl_special_details
;
Melting point range 492.15-494.15K

;
_diffrn_ambient_temperature 295
#These two values have been output from a single CSD field.
_refine_ls_R_factor_gt 0.0441
_refine_ls_wR_factor_gt 0.0441
_symmetry_cell_setting triclinic
_symmetry_space_group_name_H-M 'P -1'
_symmetry_Int_Tables_number 2
loop_
_symmetry_equiv_pos_site_id
_symmetry_equiv_pos_as_xyz
1 x,y,z
2 -x,-y,-z
_cell_length_a 10.055(2)
_cell_length_b 11.376(1)
_cell_length_c 14.489(3)
_cell_angle_alpha 67.38(2)
_cell_angle_beta 74.17(2)
_cell_angle_gamma 74.41(2)
_cell_formula_units_Z 2
loop_
_atom_type_symbol
_atom_type_radius_bond
C 0.68
H 0.23
N 0.68
O 0.68
loop_
_atom_site_label
_atom_site_type_symbol
_atom_site_fract_x
_atom_site_fract_y
_atom_site_fract_z
C1 C 0.4432(2) 0.29753(19) 0.26726(14)
N1 N 0.48083(17) 0.24454(16) 0.17964(13)
C2 C 0.4279(2) 0.32421(19) 0.09853(15)
C3 C 0.3505(2) 0.4441(2) 0.11608(15)
C4 C 0.3584(2) 0.4322(2) 0.22290(15)
C5 C 0.2150(2) 0.4319(2) 0.29369(15)
C6 C 0.2107(2) 0.29666(19) 0.36489(15)
C7 C 0.3363(2) 0.2242(2) 0.34708(15)
N2 N 0.32961(18) 0.31939(16) -0.02975(12)
C8 C 0.4449(2) 0.29092(19) 0.00681(15)
C9 C 0.5756(2) 0.2290(2) -0.03316(16)
C10 C 0.5907(2) 0.19801(19) -0.11872(15)
C11 C 0.4714(2) 0.2406(2) -0.16782(15)
C12 C 0.4699(3) 0.2339(2) -0.26307(17)
C13 C 0.3492(3) 0.2633(3) -0.2989(2)
C14 C 0.2214(3) 0.3069(3) -0.2438(2)
C15 C 0.2144(2) 0.3259(2) -0.15494(17)
C16 C 0.3413(2) 0.2943(2) -0.11692(15)
C17 C 0.5776(2) 0.2922(2) 0.30399(16)
C18 C 0.5362(3) 0.3734(3) 0.3743(2)
H1 H 0.46620 0.33840 0.43160
H2 H 0.49880 0.46120 0.33750
H3 H 0.61760 0.37140 0.39770
C19 C 0.6889(2) 0.3468(3) 0.21227(19)
H4 H 0.71410 0.29540 0.16870
H5 H 0.77070 0.34480 0.23530
H6 H 0.65190 0.43460 0.17510
C20 C 0.6387(3) 0.1536(2) 0.36499(19)
H7 H 0.56890 0.11910 0.42280
H8 H 0.71940 0.15420 0.38790
H9 H 0.66600 0.10060 0.32250
C21 C 0.0822(2) 0.2554(2) 0.44310(16)
C22 C 0.1113(3) 0.1111(2) 0.5017(2)
H10 H 0.02890 0.08680 0.55090
H11 H 0.18790 0.09170 0.53600
H12 H 0.13560 0.06370 0.45530
C23 C 0.0456(3) 0.3276(3) 0.5179(2)
H13 H -0.03580 0.30190 0.56780
H14 H 0.02620 0.41910 0.48220
H15 H 0.12340 0.30750 0.55130
C24 C -0.0397(3) 0.2828(4) 0.3895(2)
H16 H -0.12110 0.25670 0.43920
H17 H -0.01410 0.23520 0.34310
H18 H -0.06060 0.37390 0.35240
N3 N 0.71512(18) 0.12588(17) -0.15680(13)
C25 C 0.7024(3) -0.0063(2) -0.1411(2)
H19 H 0.61730 -0.00360 -0.16180
H20 H 0.69500 -0.05720 -0.06930
C26 C 0.8279(3) -0.0700(3) -0.2016(3)
H21 H 0.82050 -0.15920 -0.18580
H22 H 0.82830 -0.02550 -0.27380
C27 C 0.9636(3) -0.0668(3) -0.1779(3)
H23 H 0.97040 -0.12340 -0.10880
H24 H 1.04240 -0.09860 -0.22360
C28 C 0.9714(3) 0.0685(3) -0.1893(2)
H25 H 0.97880 0.12220 -0.26050
H26 H 1.05490 0.06650 -0.16710
C29 C 0.8423(2) 0.1268(3) -0.1270(2)
H27 H 0.83890 0.07740 -0.05520
H28 H 0.84760 0.21520 -0.13770
N4 N 0.6016(3) 0.2144(3) -0.33649(16)
C30 C 0.0789(3) 0.3820(3) -0.0991(2)
H29 H 0.09480 0.38790 -0.03880
H30 H 0.01140 0.32710 -0.08050
H31 H 0.04360 0.46690 -0.14230
O1 O 0.55023(17) 0.13124(14) 0.19152(12)
O2 O 0.29165(17) 0.53847(14) 0.05695(11)
O3 O 0.12341(18) 0.52648(16) 0.28956(12)
O4 O 0.6796(2) 0.2916(2) -0.36280(16)
O5 O 0.6203(3) 0.1276(3) -0.37113(17)
H32 H 0.397(4) 0.500(3) 0.217(3)
H33 H 0.363(4) 0.133(3) 0.380(3)
H34 H 0.653(4) 0.207(3) 0.001(3)
H35 H 0.358(4) 0.255(3) -0.363(3)
H36 H 0.139(4) 0.328(3) -0.270(3)
#END
