
#######################################################################
#
#                 Cambridge Crystallographic Data Centre
#                                CCDC
#
#######################################################################
#
# If this CIF has been generated from an entry in the Cambridge
# Structural Database, then it will include bibliographic, chemical,
# crystal, experimental, refinement or atomic coordinate data resulting
# from the CCDC's data processing and validation procedures.
#
#######################################################################

data_CSD_CIF_JIRHEY
_audit_creation_date 2008-02-05
_audit_creation_method CSD-ConQuest-V1
_database_code_CSD JIRHEY
_database_code_depnum_ccdc_archive 'CCDC 622011'
_chemical_formula_sum 'C23 H27 N6 O2'
_chemical_formula_moiety
;
C23 H27 N6 O2
;
_journal_coden_Cambridge 95
_journal_year 2006
_journal_page_first 2035
_journal_name_full 'Izv.Akad.Nauk SSSR,Ser.Khim.(Russ.)(Russ.Chem.Bull.) '
loop_
_publ_author_name
"E.V.Verbitsky"
"G.L.Rusinov"
"P.A.Slepukhin"
"A.I.Matern"
"Yu.N.Shvachko"
"D.V.Starichenko"
"V.N.Charushin"
"O.N.Chupakhin"
_chemical_name_systematic
;
2,2,6,6-Tetramethyl-4-(3-phenyl-5,6-dicyano-1-ethyl-1,2-dihydropyrazin-2-yloxy
imino)piperidine-1-oxyl radical
;
_chemical_melting_point 153
_cell_volume   2253.213
_exptl_crystal_colour 'yellow'
_exptl_crystal_density_diffrn 1.237
_exptl_special_details
;
Melts with decomposition.

;
_exptl_crystal_description 'prism'
_exptl_crystal_preparation 'acetone/hexane'
_diffrn_ambient_temperature 295
#These two values have been output from a single CSD field.
_refine_ls_R_factor_gt 0.0468
_refine_ls_wR_factor_gt 0.0468
_symmetry_cell_setting monoclinic
_symmetry_space_group_name_H-M 'P 21/n'
_symmetry_Int_Tables_number 14
loop_
_symmetry_equiv_pos_site_id
_symmetry_equiv_pos_as_xyz
1 x,y,z
2 1/2-x,1/2+y,1/2-z
3 -x,-y,-z
4 -1/2+x,-1/2-y,-1/2+z
_cell_length_a 13.616(2)
_cell_length_b 11.830(1)
_cell_length_c 14.356(1)
_cell_angle_alpha 90
_cell_angle_beta 102.994(10)
_cell_angle_gamma 90
_cell_formula_units_Z 4
loop_
_atom_type_symbol
_atom_type_radius_bond
C 0.68
H 0.23
N 0.68
O 0.68
loop_
_atom_site_label
_atom_site_type_symbol
_atom_site_fract_x
_atom_site_fract_y
_atom_site_fract_z
O1 O 0.11971(6) 0.68499(7) 0.05194(6)
N1 N -0.02598(8) 0.78050(8) 0.07881(7)
N2 N 0.10658(8) 0.77735(9) 0.25710(7)
C1 C 0.09008(9) 0.68519(10) 0.20747(9)
C2 C 0.03992(9) 0.68441(11) 0.10255(9)
C3 C -0.00168(10) 0.87687(11) 0.12929(9)
N3 N 0.08584(8) 0.62753(9) -0.03782(7)
C4 C 0.25614(9) 0.68030(11) -0.05161(9)
H1 H 0.28450 0.65610 0.01340
H2 H 0.24730 0.76160 -0.05050
C5 C 0.12261(9) 0.5766(1) 0.25434(9)
C6 C 0.15555(10) 0.62698(10) -0.08419(9)
C7 C 0.13584(10) 0.48144(11) 0.20281(9)
H3 H 0.12420 0.48540 0.13650
N4 N 0.28017(9) 0.66689(10) -0.21422(8)
C8 C 0.06699(10) 0.87638(11) 0.21426(9)
C9 C -0.05449(11) 0.97954(12) 0.09563(10)
C10 C 0.13215(11) 0.57222(11) -0.18036(9)
H4 H 0.05970 0.56440 -0.20200
H5 H 0.16130 0.49700 -0.17520
C11 C 0.33137(10) 0.65371(11) -0.11237(10)
C12 C 0.16603(11) 0.38062(12) 0.24842(10)
H6 H 0.17360 0.31680 0.21290
C13 C -0.10753(10) 0.77402(11) -0.00771(9)
H7 H -0.07960 0.74990 -0.06090
H8 H -0.13600 0.84880 -0.02240
C14 C 0.09302(11) 0.97832(13) 0.26827(11)
C15 C 0.17262(11) 0.63966(12) -0.25397(9)
C16 C -0.19016(11) 0.69391(12) 0.00235(10)
H9 H -0.24110 0.69290 -0.05600
H10 H -0.21940 0.71830 0.05390
H11 H -0.16280 0.61930 0.01560
C17 C 0.14068(11) 0.56803(12) 0.35297(10)
H12 H 0.13170 0.63090 0.38910
O2 O 0.33141(9) 0.70141(12) -0.27258(8)
N5 N -0.09463(11) 1.06259(11) 0.0722(1)
N6 N 0.11329(11) 1.05890(12) 0.31208(11)
C18 C 0.17175(13) 0.46769(14) 0.39782(11)
H13 H 0.18410 0.46290 0.46410
C19 C 0.18470(12) 0.37444(13) 0.34526(11)
H14 H 0.20630 0.30670 0.37600
C20 C 0.16501(14) 0.56839(14) -0.34386(11)
H15 H 0.20190 0.49930 -0.32770
H16 H 0.19280 0.60970 -0.38950
H17 H 0.09550 0.55130 -0.37100
C21 C 0.37173(13) 0.53373(14) -0.09570(12)
H18 H 0.31670 0.48110 -0.11080
H19 H 0.40590 0.52500 -0.02990
H20 H 0.41800 0.51940 -0.13590
C22 C 0.11483(13) 0.74949(14) -0.27709(12)
H21 H 0.12130 0.79340 -0.21980
H22 H 0.04500 0.73320 -0.30310
H23 H 0.14160 0.79130 -0.32300
C23 C 0.41850(12) 0.73683(15) -0.08849(12)
H24 H 0.39320 0.81250 -0.09930
H25 H 0.46490 0.72210 -0.12840
H26 H 0.45250 0.72840 -0.02260
H27 H -0.0004(8) 0.6159(9) 0.0839(7)
#END
