
#######################################################################
#
#                 Cambridge Crystallographic Data Centre
#                                CCDC
#
#######################################################################
#
# If this CIF has been generated from an entry in the Cambridge
# Structural Database, then it will include bibliographic, chemical,
# crystal, experimental, refinement or atomic coordinate data resulting
# from the CCDC's data processing and validation procedures.
#
#######################################################################

data_CSD_CIF_JIRTUA
_audit_creation_date 2008-02-05
_audit_creation_method CSD-ConQuest-V1
_database_code_CSD JIRTUA
_database_code_depnum_ccdc_archive 'CCDC 672540'
_chemical_formula_sum 'C11 H11 N5 O3'
_chemical_formula_moiety
;
C11 H11 N5 O3
;
_journal_coeditor_code "IUCr SK3172"
_journal_coden_Cambridge 591
_journal_volume 63
_journal_year 2007
_journal_page_first o697
_journal_name_full 'Acta Crystallogr.,Sect.C:Cryst.Struct.Commun. '
loop_
_publ_author_name
"R.Rodriguez"
"J.Cobo"
"M.Nogueras"
"J.N.Low"
"C.Glidewell"
_chemical_name_systematic
;
2-Amino-6-(N-methylanilino)-5-nitropyrimidin-4(3H)-one
;
_chemical_melting_point 585
_cell_volume   1161.833
_exptl_crystal_colour 'yellow'
_exptl_crystal_density_diffrn 1.493
_exptl_special_details
;
Melting point range 585-588K

;
_exptl_crystal_description 'plate'
_diffrn_ambient_temperature 120
#These two values have been output from a single CSD field.
_refine_ls_R_factor_gt 0.0544
_refine_ls_wR_factor_gt 0.0544
_symmetry_cell_setting orthorhombic
_symmetry_space_group_name_H-M 'P 21 21 21'
_symmetry_Int_Tables_number 19
loop_
_symmetry_equiv_pos_site_id
_symmetry_equiv_pos_as_xyz
1 x,y,z
2 1/2-x,-y,1/2+z
3 1/2+x,1/2-y,-z
4 -x,1/2+y,1/2-z
_cell_length_a 8.955(3)
_cell_length_b 11.2165(15)
_cell_length_c 11.5670(15)
_cell_angle_alpha 90
_cell_angle_beta 90
_cell_angle_gamma 90
_cell_formula_units_Z 4
loop_
_atom_type_symbol
_atom_type_radius_bond
C 0.68
H 0.23
N 0.68
O 0.68
loop_
_atom_site_label
_atom_site_type_symbol
_atom_site_fract_x
_atom_site_fract_y
_atom_site_fract_z
N1 N 0.3771(4) 0.6396(3) 0.8030(3)
C1 C 0.3091(4) 0.6763(3) 0.7084(3)
N2 N 0.1616(4) 0.6755(3) 0.7050(3)
N3 N 0.3820(4) 0.7154(3) 0.6128(3)
C2 C 0.5375(4) 0.7283(4) 0.6109(3)
O1 O 0.5987(3) 0.7719(2) 0.5250(2)
C3 C 0.6088(4) 0.6946(3) 0.7157(3)
N4 N 0.7627(4) 0.7276(3) 0.7223(3)
O2 O 0.8462(3) 0.7031(3) 0.6411(2)
O3 O 0.8067(3) 0.7805(3) 0.8104(3)
C4 C 0.5281(4) 0.6463(3) 0.8086(3)
N5 N 0.5892(4) 0.6038(3) 0.9073(3)
C5 C 0.4899(4) 0.5663(4) 1.0026(4)
C6 C 0.7436(4) 0.5716(3) 0.9177(3)
C7 C 0.8086(5) 0.4956(4) 0.8391(3)
C8 C 0.9581(5) 0.4656(4) 0.8498(4)
C9 C 1.0402(5) 0.5102(4) 0.9414(4)
C10 C 0.9747(4) 0.5831(4) 1.0209(4)
C11 C 0.8255(4) 0.6142(4) 1.0112(4)
H1 H 0.11030 0.65070 0.76520
H2 H 0.11460 0.69970 0.64240
H3 H 0.33030 0.73320 0.55050
H4 H 0.44600 0.48860 0.98430
H5 H 0.41020 0.62530 1.01250
H6 H 0.54780 0.56030 1.07430
H7 H 0.75110 0.46380 0.77740
H8 H 1.00390 0.41460 0.79460
H9 H 1.14280 0.48990 0.94900
H10 H 1.03200 0.61290 1.08360
H11 H 0.77990 0.66390 1.06750
#END
