
#######################################################################
#
#                 Cambridge Crystallographic Data Centre
#                                CCDC
#
#######################################################################
#
# If this CIF has been generated from an entry in the Cambridge
# Structural Database, then it will include bibliographic, chemical,
# crystal, experimental, refinement or atomic coordinate data resulting
# from the CCDC's data processing and validation procedures.
#
#######################################################################

data_CSD_CIF_JISVUC
_audit_creation_date 1992-02-25
_audit_creation_method CSD-ConQuest-V1
_database_code_CSD JISVUC
_chemical_formula_sum 'C24 H31 N1 O3'
_chemical_formula_moiety
;
C24 H31 N1 O3
;
_journal_coden_Cambridge 188
_journal_year 1991
_journal_page_first 1001
_journal_name_full 'J.Chem.Soc.,Perkin Trans.2 '
loop_
_publ_author_name
"S.Bottle"
"W.K.Busfield"
"I.D.Jenkins"
"B.W.Skelton"
"A.H.White"
"E.Rizzardo"
"D.H.Solomon"
_chemical_name_systematic
;
2-t-Butoxy-1-phenyl-2-(1,1,3,3-tetramethyl-2,3-dihydro-1H-isoindol-2-yloxy)eth
an-1-one
;
_cell_volume   2304.637
_exptl_crystal_density_diffrn 1.1
_diffrn_ambient_temperature ?
_diffrn_special_details
;
The study was carried out at room temperature,in the range 283-303K

;
#These two values have been output from a single CSD field.
_refine_ls_R_factor_gt 0.073
_refine_ls_wR_factor_gt 0.073
_symmetry_cell_setting orthorhombic
_symmetry_space_group_name_H-M 'P 21 21 21'
_symmetry_Int_Tables_number 19
loop_
_symmetry_equiv_pos_site_id
_symmetry_equiv_pos_as_xyz
1 x,y,z
2 1/2+x,1/2-y,-z
3 -x,1/2+y,1/2-z
4 1/2-x,-y,1/2+z
_cell_length_a 22.447(9)
_cell_length_b 11.937(5)
_cell_length_c 8.601(4)
_cell_angle_alpha 90
_cell_angle_beta 90
_cell_angle_gamma 90
_cell_formula_units_Z 4
loop_
_atom_type_symbol
_atom_type_radius_bond
C 0.68
H 0.23
N 0.68
O 0.68
loop_
_atom_site_label
_atom_site_type_symbol
_atom_site_fract_x
_atom_site_fract_y
_atom_site_fract_z
C1 C 0.0908(4) 0.8945(8) -0.020(1)
O1 O 0.1503(2) 0.8925(4) 0.0499(7)
C2 C 0.0622(4) 0.994(1) 0.076(1)
O2 O 0.0206(4) 0.9671(7) 0.153(1)
C3 C 0.0831(5) 1.1086(9) 0.059(1)
C4 C 0.1277(5) 1.1383(8) -0.036(1)
C5 C 0.1458(5) 1.2547(9) -0.045(2)
C6 C 0.1132(9) 1.323(1) 0.067(2)
C7 C 0.070(1) 1.298(3) 0.162(3)
C8 C 0.0576(5) 1.192(1) 0.159(1)
N1 N 0.1779(3) 0.7858(5) 0.0166(8)
C9 C 0.2396(4) 0.8044(7) -0.041(1)
C10 C 0.2685(4) 0.7012(7) 0.023(1)
C11 C 0.3254(4) 0.657(1) -0.020(1)
C12 C 0.3439(5) 0.561(1) 0.060(2)
C13 C 0.3100(7) 0.5123(8) 0.167(2)
C14 C 0.2553(5) 0.5556(8) 0.207(1)
C15 C 0.2360(4) 0.6509(7) 0.132(1)
C16 C 0.1799(4) 0.7169(7) 0.166(1)
C17 C 0.1854(5) 0.784(1) 0.310(1)
C18 C 0.1235(4) 0.6424(8) 0.166(2)
C19 C 0.2376(4) 0.8123(9) -0.214(1)
C20 C 0.2713(4) 0.9102(6) 0.026(1)
O3 O 0.0960(2) 0.9210(5) -0.1742(8)
C21 C 0.0518(4) 0.8727(9) -0.276(1)
C22 C 0.0647(5) 0.753(1) -0.305(2)
C23 C -0.0083(5) 0.897(1) -0.225(2)
C24 C 0.0628(5) 0.937(1) -0.429(1)
H1 H 0.06760 0.82430 -0.01180
H2 H 0.14910 1.08100 -0.10400
H3 H 0.17660 1.28610 -0.11370
H4 H 0.12220 1.39950 0.08090
H5 H 0.04700 1.34740 0.23020
H6 H 0.02870 1.16250 0.23650
H7 H 0.35100 0.69740 -0.09720
H8 H 0.38180 0.52340 0.03620
H9 H 0.32220 0.44620 0.23030
H10 H 0.22880 0.51850 0.28530
H11 H 0.22290 0.82790 0.30430
H12 H 0.15420 0.83730 0.31850
H13 H 0.18800 0.74430 0.40600
H14 H 0.08770 0.68410 0.15870
H15 H 0.12420 0.59190 0.07470
H16 H 0.12400 0.59740 0.25610
H17 H 0.22230 0.74230 -0.26000
H18 H 0.21220 0.87070 -0.25070
H19 H 0.27660 0.82310 -0.25790
H20 H 0.24860 0.97490 0.00240
H21 H 0.27420 0.90240 0.13630
H22 H 0.31120 0.92340 -0.01140
H23 H 0.10530 0.74710 -0.35360
H24 H 0.06730 0.71120 -0.21150
H25 H 0.03830 0.71870 -0.37510
H26 H -0.01490 0.86410 -0.12410
H27 H -0.01580 0.97350 -0.22150
H28 H -0.03860 0.86260 -0.29310
H29 H 0.05650 1.01720 -0.42080
H30 H 0.10240 0.92710 -0.47090
H31 H 0.03430 0.90700 -0.50230
#END
