
#######################################################################
#
#                 Cambridge Crystallographic Data Centre
#                                CCDC
#
#######################################################################
#
# If this CIF has been generated from an entry in the Cambridge
# Structural Database, then it will include bibliographic, chemical,
# crystal, experimental, refinement or atomic coordinate data resulting
# from the CCDC's data processing and validation procedures.
#
#######################################################################

data_CSD_CIF_JITLUT
_audit_creation_date 1992-02-25
_audit_creation_method CSD-ConQuest-V1
_database_code_CSD JITLUT
_chemical_formula_sum 'C13 H18 N2 O3'
_chemical_formula_moiety
;
C13 H18 N2 O3
;
_journal_coeditor_code "IUCr CR0290"
_journal_coden_Cambridge 591
_journal_volume 47
_journal_year 1991
_journal_page_first 1994
_journal_name_full 'Acta Crystallogr.,Sect.C:Cryst.Struct.Commun. '
loop_
_publ_author_name
"M.Shoja"
"S.Saba"
_chemical_name_systematic
;
3-Isopropyl-2-(4-nitrophenyl)-2,3,4,5-tetrahydro-1,3-oxazine
;
_cell_volume   1352.794
_exptl_crystal_density_diffrn 1.23
_diffrn_ambient_temperature ?
_diffrn_special_details
;
The study was carried out at room temperature,in the range 283-303K

;
#These two values have been output from a single CSD field.
_refine_ls_R_factor_gt 0.055
_refine_ls_wR_factor_gt 0.055
_symmetry_cell_setting monoclinic
_symmetry_space_group_name_H-M 'P 21/c'
_symmetry_Int_Tables_number 14
loop_
_symmetry_equiv_pos_site_id
_symmetry_equiv_pos_as_xyz
1 x,y,z
2 -x,1/2+y,1/2-z
3 -x,-y,-z
4 x,-1/2-y,-1/2+z
_cell_length_a 11.196(2)
_cell_length_b 16.490(3)
_cell_length_c 7.733(1)
_cell_angle_alpha 90
_cell_angle_beta 108.64(2)
_cell_angle_gamma 90
_cell_formula_units_Z 4
loop_
_atom_type_symbol
_atom_type_radius_bond
C 0.68
H 0.23
N 0.68
O 0.68
loop_
_atom_site_label
_atom_site_type_symbol
_atom_site_fract_x
_atom_site_fract_y
_atom_site_fract_z
O1 O 0.7958(2) 0.1697(1) 0.8977(2)
C1 C 0.9719(2) 0.1595(2) 1.1600(3)
N1 N 0.7834(2) 0.0730(2) 1.1167(3)
C2 C 0.8295(2) 0.1534(2) 1.0871(3)
C3 C 0.6618(3) 0.1731(2) 0.8135(4)
C4 C 1.0295(3) 0.2205(2) 1.2791(4)
C5 C 1.0452(2) 0.1045(2) 1.1014(4)
C6 C 1.1595(3) 0.2262(2) 1.3429(4)
C7 C 1.2299(2) 0.1698(2) 1.2875(4)
C8 C 1.1746(2) 0.1090(2) 1.1665(4)
C9 C 0.6452(3) 0.0723(2) 1.0394(4)
N2 N 1.3675(2) 0.1756(2) 1.3574(4)
C10 C 0.6041(3) 0.0946(2) 0.8395(4)
C11 C 0.8324(3) 0.0452(2) 1.3087(4)
C12 C 0.8102(3) -0.0452(2) 1.3188(5)
O2 O 1.4301(2) 0.1251(2) 1.3126(4)
O3 O 1.4144(3) 0.2311(2) 1.4610(4)
C13 C 0.7834(3) 0.0911(3) 1.4436(4)
H1 H 1.22600 0.07100 1.12500
H2 H 1.00500 0.06100 1.01600
H3 H 0.79400 0.19100 1.15400
H4 H 0.64100 0.18700 0.68600
H5 H 0.62600 0.21600 0.86800
H6 H 0.63200 0.05200 0.77200
H7 H 0.51300 0.09600 0.78800
H8 H 0.61000 0.11100 1.10500
H9 H 0.61400 0.01900 1.05900
H10 H 0.92300 0.05500 1.35100
H11 H 0.84200 -0.06500 1.44200
H12 H 0.72100 -0.05700 1.27500
H13 H 0.85000 -0.07600 1.24700
H14 H 0.81800 0.07100 1.56400
H15 H 0.80100 0.14700 1.44300
H16 H 0.69200 0.08500 1.40700
H17 H 0.97900 0.26000 1.31700
H18 H 1.20000 0.27000 1.42700
#END
