
#######################################################################
#
#                 Cambridge Crystallographic Data Centre
#                                CCDC
#
#######################################################################
#
# If this CIF has been generated from an entry in the Cambridge
# Structural Database, then it will include bibliographic, chemical,
# crystal, experimental, refinement or atomic coordinate data resulting
# from the CCDC's data processing and validation procedures.
#
#######################################################################

data_CSD_CIF_JITVUD
_audit_creation_date 1992-02-25
_audit_creation_method CSD-ConQuest-V1
_database_code_CSD JITVUD
_chemical_formula_sum 'C15 H11 N1 O4'
_chemical_formula_moiety
;
C15 H11 N1 O4
;
_journal_coden_Cambridge 4
_journal_volume 113
_journal_year 1991
_journal_page_first 4917
_journal_name_full 'J.Am.Chem.Soc. '
loop_
_publ_author_name
"V.Bertolasi"
"P.Gilli"
"V.Ferretti"
"G.Gilli"
_chemical_name_systematic
;
1-Phenyl-3-(p-nitrophenyl)-1,3-propanedione enol
;
_cell_volume   1251.461
_exptl_crystal_density_diffrn 1.43
_diffrn_ambient_temperature ?
_diffrn_special_details
;
The study was carried out at room temperature,in the range 283-303K

;
#These two values have been output from a single CSD field.
_refine_ls_R_factor_gt 0.052
_refine_ls_wR_factor_gt 0.052
_symmetry_cell_setting monoclinic
_symmetry_space_group_name_H-M 'P 21/c'
_symmetry_Int_Tables_number 14
loop_
_symmetry_equiv_pos_site_id
_symmetry_equiv_pos_as_xyz
1 x,y,z
2 -x,1/2+y,1/2-z
3 -x,-y,-z
4 x,-1/2-y,-1/2+z
_cell_length_a 8.306(2)
_cell_length_b 6.785(4)
_cell_length_c 22.233(4)
_cell_angle_alpha 90
_cell_angle_beta 92.81(2)
_cell_angle_gamma 90
_cell_formula_units_Z 4
loop_
_atom_type_symbol
_atom_type_radius_bond
C 0.68
H 0.23
N 0.68
O 0.68
loop_
_atom_site_label
_atom_site_type_symbol
_atom_site_fract_x
_atom_site_fract_y
_atom_site_fract_z
O1 O 0.5379(3) 0.4168(3) 0.3394(1)
O2 O 0.7111(3) 0.4844(3) 0.2549(1)
O3 O 0.2899(4) -0.4374(4) 0.5023(1)
O4 O 0.1518(3) -0.1915(4) 0.5303(1)
N1 N 0.2534(3) -0.2633(4) 0.4997(1)
C1 C 0.5683(4) 0.2316(5) 0.3343(1)
C2 C 0.6689(4) 0.1639(5) 0.2902(1)
C3 C 0.7392(4) 0.2945(5) 0.2510(1)
C4 C 0.8465(4) 0.2349(5) 0.2039(1)
C5 C 0.8663(4) 0.0370(5) 0.1869(1)
C6 C 0.9660(4) -0.0105(5) 0.1412(2)
C7 C 1.0493(4) 0.1348(6) 0.1121(2)
C8 C 1.0320(4) 0.3305(6) 0.1291(2)
C9 C 0.9328(4) 0.3808(5) 0.1742(2)
C10 C 0.4888(4) 0.0980(5) 0.3772(1)
C11 C 0.5248(4) -0.1027(5) 0.3817(1)
C12 C 0.4488(4) -0.2200(5) 0.4220(2)
C13 C 0.3366(4) -0.1373(4) 0.4576(1)
C14 C 0.2962(4) 0.0616(5) 0.4542(1)
C15 C 0.3747(4) 0.1764(5) 0.4139(2)
H1 H 0.635(5) 0.481(5) 0.295(2)
H2 H 0.687(4) 0.018(5) 0.286(1)
H3 H 0.807(4) -0.062(5) 0.205(1)
H4 H 0.977(4) -0.157(5) 0.126(1)
H5 H 1.118(3) 0.110(4) 0.080(1)
H6 H 1.091(4) 0.435(5) 0.108(1)
H7 H 0.913(3) 0.505(4) 0.186(1)
H8 H 0.607(3) -0.160(4) 0.357(1)
H9 H 0.472(4) -0.342(5) 0.426(1)
H10 H 0.216(3) 0.112(5) 0.480(1)
H11 H 0.356(4) 0.307(5) 0.412(1)
#END
