
#######################################################################
#
#                 Cambridge Crystallographic Data Centre
#                                CCDC
#
#######################################################################
#
# If this CIF has been generated from an entry in the Cambridge
# Structural Database, then it will include bibliographic, chemical,
# crystal, experimental, refinement or atomic coordinate data resulting
# from the CCDC's data processing and validation procedures.
#
#######################################################################

data_CSD_CIF_JITWUE
_audit_creation_date 1992-02-25
_audit_creation_method CSD-ConQuest-V1
_database_code_CSD JITWUE
_chemical_formula_sum 'C18 H17 N1 O4'
_chemical_formula_moiety
;
C18 H17 N1 O4
;
_journal_coden_Cambridge 4
_journal_volume 113
_journal_year 1991
_journal_page_first 4917
_journal_name_full 'J.Am.Chem.Soc. '
loop_
_publ_author_name
"V.Bertolasi"
"P.Gilli"
"V.Ferretti"
"G.Gilli"
_chemical_name_systematic
;
(2Z)-3-hydroxy-3-mesityl-1-(2-nitrophenyl)-2-propen-1-one
;
_cell_volume   3159.223
_exptl_crystal_density_diffrn 1.31
_diffrn_ambient_temperature ?
_diffrn_special_details
;
The study was carried out at room temperature,in the range 283-303K

;
#These two values have been output from a single CSD field.
_refine_ls_R_factor_gt 0.043
_refine_ls_wR_factor_gt 0.043
_symmetry_cell_setting orthorhombic
_symmetry_space_group_name_H-M 'P b c a'
_symmetry_Int_Tables_number 61
loop_
_symmetry_equiv_pos_site_id
_symmetry_equiv_pos_as_xyz
1 x,y,z
2 1/2-x,1/2+y,z
3 x,1/2-y,1/2+z
4 1/2-x,-y,1/2+z
5 -x,-y,-z
6 -1/2+x,-1/2-y,-z
7 -x,-1/2+y,-1/2-z
8 -1/2+x,y,-1/2-z
_cell_length_a 10.387(2)
_cell_length_b 15.458(2)
_cell_length_c 19.676(2)
_cell_angle_alpha 90
_cell_angle_beta 90
_cell_angle_gamma 90
_cell_formula_units_Z 8
loop_
_atom_type_symbol
_atom_type_radius_bond
C 0.68
H 0.23
N 0.68
O 0.68
loop_
_atom_site_label
_atom_site_type_symbol
_atom_site_fract_x
_atom_site_fract_y
_atom_site_fract_z
O1 O -0.0132(1) 0.2023(1) -0.04809(8)
O2 O 0.0407(1) 0.3147(1) -0.13889(8)
O3 O 0.1134(2) 0.3214(1) 0.08397(8)
O4 O 0.2676(2) 0.2987(1) 0.15484(8)
N1 N 0.1905(2) 0.2741(1) 0.11217(8)
C1 C 0.0974(2) 0.2132(1) -0.02502(9)
C2 C 0.1859(2) 0.2732(1) -0.05386(9)
C3 C 0.1535(2) 0.3222(1) -0.10845(9)
C4 C 0.2373(2) 0.3900(1) -0.13864(8)
C5 C 0.3444(2) 0.3676(1) -0.17750(8)
C6 C 0.4176(2) 0.4335(1) -0.20635(9)
C7 C 0.3883(2) 0.5198(1) -0.19655(9)
C8 C 0.2831(2) 0.5400(1) -0.1571(1)
C9 C 0.2056(2) 0.4772(1) -0.12768(9)
C10 C 0.1392(2) 0.1552(1) 0.03213(9)
C11 C 0.1328(2) 0.0666(1) 0.0205(1)
C12 C 0.1760(2) 0.0084(1) 0.0689(1)
C13 C 0.2278(2) 0.0365(1) 0.1283(1)
C14 C 0.2348(2) 0.1238(1) 0.14166(9)
C15 C 0.1896(2) 0.1816(1) 0.09383(9)
C16 C 0.3806(2) 0.2750(1) -0.1902(1)
C17 C 0.4696(2) 0.5900(2) -0.2284(1)
C18 C 0.0923(2) 0.5024(2) -0.0840(1)
H1 H -0.002(2) 0.275(2) -0.113(2)
H2 H 0.270(2) 0.281(1) -0.0327(9)
H3 H 0.491(2) 0.420(1) -0.2344(8)
H4 H 0.266(2) 0.599(1) -0.1496(9)
H5 H 0.092(2) 0.050(1) -0.021(1)
H6 H 0.177(2) -0.052(1) 0.055(1)
H7 H 0.258(2) -0.002(1) 0.168(1)
H8 H 0.267(2) 0.145(1) 0.1862(9)
H9 H 0.403(2) 0.247(1) -0.148(1)
H10 H 0.447(2) 0.272(1) -0.223(1)
H11 H 0.309(2) 0.246(1) -0.203(1)
H12 H 0.516(3) 0.620(2) -0.198(2)
H13 H 0.420(4) 0.629(2) -0.252(2)
H14 H 0.534(3) 0.566(2) -0.260(2)
H15 H 0.079(3) 0.467(2) -0.048(2)
H16 H 0.103(2) 0.562(2) -0.072(1)
H17 H 0.023(3) 0.497(2) -0.110(1)
#END
