
#######################################################################
#
#                 Cambridge Crystallographic Data Centre
#                                CCDC
#
#######################################################################
#
# If this CIF has been generated from an entry in the Cambridge
# Structural Database, then it will include bibliographic, chemical,
# crystal, experimental, refinement or atomic coordinate data resulting
# from the CCDC's data processing and validation procedures.
#
#######################################################################

data_CSD_CIF_JITWUE01
_audit_creation_date 2004-07-16
_audit_creation_method CSD-ConQuest-V1
_database_code_CSD JITWUE01
_database_code_depnum_ccdc_archive 'CCDC 235415'
_chemical_formula_sum 'C18 H17 N1 O4'
_chemical_formula_moiety
;
C18 H17 N1 O4
;
_journal_coden_Cambridge 4
_journal_volume 126
_journal_year 2004
_journal_page_first 3845
_journal_name_full 'J.Am.Chem.Soc. '
loop_
_publ_author_name
"P.Gilli"
"V.Bertolasi"
"L.Pretto"
"V.Ferretti"
"G.Gilli"
_chemical_name_systematic
;
(2Z)-3-hydroxy-3-mesityl-1-(2-nitrophenyl)-2-propen-1-one
;
_chemical_name_common
;
(2Z)-3-mesityl-1-(2-nitrophenyl)-1,3-propanedione enol
;
_cell_volume   3065.793
_exptl_crystal_colour 'colorless'
_exptl_crystal_density_diffrn 1.349
_exptl_crystal_description 'prism'
_diffrn_ambient_temperature 100
_refine_special_details
;
Enol H atoms are disordered over two positions with s.o.f.s 0.80:0.20.

;
#These two values have been output from a single CSD field.
_refine_ls_R_factor_gt 0.0428
_refine_ls_wR_factor_gt 0.0428
_symmetry_cell_setting orthorhombic
_symmetry_space_group_name_H-M 'P b c a'
_symmetry_Int_Tables_number 61
loop_
_symmetry_equiv_pos_site_id
_symmetry_equiv_pos_as_xyz
1 x,y,z
2 1/2+x,y,1/2-z
3 1/2-x,1/2+y,z
4 x,1/2-y,1/2+z
5 -x,-y,-z
6 -1/2-x,-y,-1/2+z
7 -1/2+x,-1/2-y,-z
8 -x,-1/2+y,-1/2-z
_cell_length_a 10.4208(1)
_cell_length_b 15.3407(2)
_cell_length_c 19.1777(3)
_cell_angle_alpha 90
_cell_angle_beta 90
_cell_angle_gamma 90
_cell_formula_units_Z 8
loop_
_atom_type_symbol
_atom_type_radius_bond
C 0.68
H 0.23
N 0.68
O 0.68
loop_
_atom_site_label
_atom_site_type_symbol
_atom_site_fract_x
_atom_site_fract_y
_atom_site_fract_z
O1 O 0.48728(8) 0.29469(6) 0.04813(5)
H1? H 0.487(8) 0.251(4) 0.078(3)
O2 O 0.54039(8) 0.17789(6) 0.13887(5)
H2 H 0.496(2) 0.2177(14) 0.1154(11)
O3 O 0.62062(9) 0.17946(6) -0.08796(5)
O4 O 0.77686(9) 0.20605(6) -0.15971(5)
N1 N 0.69829(10) 0.22897(7) -0.11549(5)
C1 C 0.59837(11) 0.28589(8) 0.02502(6)
C2 C 0.68899(11) 0.22478(8) 0.05379(6)
C3 C 0.65506(11) 0.17252(7) 0.10835(6)
C4 C 0.73884(11) 0.10344(7) 0.13809(6)
C5 C 0.70303(11) 0.01577(8) 0.12860(6)
C6 C 0.77925(12) -0.04894(8) 0.15822(7)
C7 C 0.88816(11) -0.02934(8) 0.19714(6)
C8 C 0.92226(11) 0.05787(8) 0.20529(6)
C9 C 0.84982(11) 0.12494(7) 0.17589(6)
C10 C 0.64111(11) 0.34653(8) -0.03189(6)
C11 C 0.63154(12) 0.43603(8) -0.01864(7)
C12 C 0.67520(12) 0.49688(8) -0.06690(7)
C13 C 0.72977(12) 0.46978(8) -0.12887(7)
C14 C 0.73978(12) 0.38159(8) -0.14361(7)
C15 C 0.69498(11) 0.32171(8) -0.09543(6)
C16 C 0.58753(14) -0.00847(10) 0.08547(9)
C17 C 0.89024(13) 0.21829(8) 0.18696(7)
C18 C 0.96732(14) -0.10093(9) 0.22959(8)
H3 H 0.7736(15) 0.2194(10) 0.0324(8)
H4 H 0.7573(14) -0.1122(11) 0.1521(8)
H5 H 0.9999(15) 0.072(1) 0.2328(8)
H6 H 0.5940(15) 0.4559(11) 0.0261(9)
H7 H 0.6693(15) 0.5583(11) -0.0575(8)
H8 H 0.7616(16) 0.5129(12) -0.1631(9)
H9 H 0.7748(14) 0.3627(10) -0.1865(8)
H10 H 0.5893(18) -0.0702(14) 0.0753(10)
H11 H 0.5830(18) 0.0269(13) 0.0420(11)
H12 H 0.510(2) 0.0029(14) 0.1109(11)
H13 H 1.047(4) -0.117(3) 0.201(2)
H14 H 0.922(4) -0.161(3) 0.232(2)
H15 H 0.997(4) -0.086(2) 0.277(2)
H16? H 0.980(4) -0.148(3) 0.1981(19)
H17? H 0.931(3) -0.117(2) 0.2738(18)
H18? H 1.054(3) -0.0814(19) 0.2401(17)
H19 H 0.9153(15) 0.2461(11) 0.1439(9)
H20 H 0.9606(17) 0.2197(12) 0.2196(10)
H21 H 0.8242(17) 0.2516(12) 0.2063(9)
#END
