
#######################################################################
#
#                 Cambridge Crystallographic Data Centre
#                                CCDC
#
#######################################################################
#
# If this CIF has been generated from an entry in the Cambridge
# Structural Database, then it will include bibliographic, chemical,
# crystal, experimental, refinement or atomic coordinate data resulting
# from the CCDC's data processing and validation procedures.
#
#######################################################################

data_CSD_CIF_JITWUE04
_audit_creation_date 2004-07-16
_audit_creation_method CSD-ConQuest-V1
_database_code_CSD JITWUE04
_database_code_depnum_ccdc_archive 'CCDC 235418'
_chemical_formula_sum 'C18 H17 N1 O4'
_chemical_formula_moiety
;
C18 H17 N1 O4
;
_journal_coden_Cambridge 4
_journal_volume 126
_journal_year 2004
_journal_page_first 3845
_journal_name_full 'J.Am.Chem.Soc. '
loop_
_publ_author_name
"P.Gilli"
"V.Bertolasi"
"L.Pretto"
"V.Ferretti"
"G.Gilli"
_chemical_name_systematic
;
(2Z)-3-hydroxy-3-mesityl-1-(2-nitrophenyl)-2-propen-1-one
;
_chemical_name_common
;
(2Z)-3-mesityl-1-(2-nitrophenyl)-1,3-propanedione enol
;
_cell_volume   3165.992
_exptl_crystal_colour 'colorless'
_exptl_crystal_density_diffrn 1.306
_exptl_crystal_description 'prism'
_diffrn_ambient_temperature 295
_refine_special_details
;
Enol H atoms are disordered over two positions with s.o.f.s 0.77:0.23.

;
#These two values have been output from a single CSD field.
_refine_ls_R_factor_gt 0.0511
_refine_ls_wR_factor_gt 0.0511
_symmetry_cell_setting orthorhombic
_symmetry_space_group_name_H-M 'P b c a'
_symmetry_Int_Tables_number 61
loop_
_symmetry_equiv_pos_site_id
_symmetry_equiv_pos_as_xyz
1 x,y,z
2 1/2+x,y,1/2-z
3 1/2-x,1/2+y,z
4 x,1/2-y,1/2+z
5 -x,-y,-z
6 -1/2-x,-y,-1/2+z
7 -1/2+x,-1/2-y,-z
8 -x,-1/2+y,-1/2-z
_cell_length_a 10.4126(2)
_cell_length_b 15.4723(2)
_cell_length_c 19.6515(4)
_cell_angle_alpha 90
_cell_angle_beta 90
_cell_angle_gamma 90
_cell_formula_units_Z 8
loop_
_atom_type_symbol
_atom_type_radius_bond
C 0.68
H 0.23
N 0.68
O 0.68
loop_
_atom_site_label
_atom_site_type_symbol
_atom_site_fract_x
_atom_site_fract_y
_atom_site_fract_z
O1 O 0.48676(13) 0.29722(11) 0.04784(9)
H1? H 0.46600 0.25470 0.07020
O2 O 0.54027(14) 0.18511(11) 0.13905(8)
H2 H 0.499(3) 0.2216(18) 0.1166(16)
O3 O 0.61395(17) 0.17852(10) -0.08471(9)
O4 O 0.76807(19) 0.20138(11) -0.15495(9)
N1 N 0.69085(16) 0.22600(11) -0.11215(9)
C1 C 0.59740(18) 0.28681(12) 0.02503(10)
C2 C 0.68567(17) 0.22661(12) 0.05395(10)
C3 C 0.65327(16) 0.17733(11) 0.10848(9)
C4 C 0.73715(16) 0.10972(11) 0.13858(8)
C5 C 0.70547(17) 0.02284(12) 0.12785(10)
C6 C 0.78297(19) -0.04027(12) 0.15734(11)
C7 C 0.88826(18) -0.02001(12) 0.19640(9)
C8 C 0.91778(17) 0.06627(12) 0.20597(9)
C9 C 0.84469(16) 0.13206(11) 0.17739(9)
C10 C 0.63921(16) 0.34485(11) -0.03192(9)
C11 C 0.6324(2) 0.43309(14) -0.02067(12)
C12 C 0.6762(2) 0.49128(14) -0.06874(13)
C13 C 0.7276(2) 0.46280(15) -0.12847(13)
C14 C 0.73494(19) 0.37600(14) -0.14156(11)
C15 C 0.69018(16) 0.31829(11) -0.09382(9)
C16 C 0.5918(3) -0.0027(2) 0.08462(19)
C17 C 0.8805(3) 0.22474(14) 0.19007(14)
C18 C 0.9695(3) -0.09015(19) 0.22863(17)
H3 H 0.7692(19) 0.2206(12) 0.0341(10)
H4 H 0.763(2) -0.1028(14) 0.1487(10)
H5 H 0.9933(19) 0.0802(12) 0.2347(10)
H6 H 0.600(2) 0.4520(16) 0.0224(13)
H7 H 0.675(2) 0.5500(17) -0.0581(12)
H8 H 0.758(2) 0.5029(17) -0.1626(13)
H9 H 0.768(2) 0.3525(15) -0.1830(12)
H10 H 0.598(3) -0.061(2) 0.0727(16)
H11 H 0.582(3) 0.030(2) 0.042(2)
H12 H 0.514(3) 0.007(2) 0.1093(17)
H13 H 1.017(6) -0.118(4) 0.190(3)
H14 H 0.906(6) -0.137(4) 0.247(4)
H15? H 1.033(5) -0.061(3) 0.267(3)
H16? H 0.950(8) -0.145(5) 0.207(4)
H17? H 0.951(6) -0.100(4) 0.279(3)
H18 H 1.054(5) -0.081(4) 0.220(3)
H19 H 0.904(2) 0.2542(16) 0.1509(13)
H20 H 0.954(3) 0.2272(18) 0.2218(14)
H21 H 0.812(3) 0.2586(19) 0.2060(15)
#END
