
#######################################################################
#
#                 Cambridge Crystallographic Data Centre
#                                CCDC
#
#######################################################################
#
# If this CIF has been generated from an entry in the Cambridge
# Structural Database, then it will include bibliographic, chemical,
# crystal, experimental, refinement or atomic coordinate data resulting
# from the CCDC's data processing and validation procedures.
#
#######################################################################

data_CSD_CIF_JITWUE03
_audit_creation_date 2004-07-16
_audit_creation_method CSD-ConQuest-V1
_database_code_CSD JITWUE03
_database_code_depnum_ccdc_archive 'CCDC 235417'
_chemical_formula_sum 'C18 H17 N1 O4'
_chemical_formula_moiety
;
C18 H17 N1 O4
;
_journal_coden_Cambridge 4
_journal_volume 126
_journal_year 2004
_journal_page_first 3845
_journal_name_full 'J.Am.Chem.Soc. '
loop_
_publ_author_name
"P.Gilli"
"V.Bertolasi"
"L.Pretto"
"V.Ferretti"
"G.Gilli"
_chemical_name_systematic
;
(2Z)-3-hydroxy-3-mesityl-1-(2-nitrophenyl)-2-propen-1-one
;
_chemical_name_common
;
(2Z)-3-mesityl-1-(2-nitrophenyl)-1,3-propanedione enol
;
_cell_volume   3099.273
_exptl_crystal_colour 'colorless'
_exptl_crystal_density_diffrn 1.334
_exptl_crystal_description 'prism'
_diffrn_ambient_temperature 175
_refine_special_details
;
Enol H atoms are disordered over two positions with s.o.f.s 0.82:0.18.

;
#These two values have been output from a single CSD field.
_refine_ls_R_factor_gt 0.0434
_refine_ls_wR_factor_gt 0.0434
_symmetry_cell_setting orthorhombic
_symmetry_space_group_name_H-M 'P b c a'
_symmetry_Int_Tables_number 61
loop_
_symmetry_equiv_pos_site_id
_symmetry_equiv_pos_as_xyz
1 x,y,z
2 1/2+x,y,1/2-z
3 1/2-x,1/2+y,z
4 x,1/2-y,1/2+z
5 -x,-y,-z
6 -1/2-x,-y,-1/2+z
7 -1/2+x,-1/2-y,-z
8 -x,-1/2+y,-1/2-z
_cell_length_a 10.4219(1)
_cell_length_b 15.3837(2)
_cell_length_c 19.3309(3)
_cell_angle_alpha 90
_cell_angle_beta 90
_cell_angle_gamma 90
_cell_formula_units_Z 8
loop_
_atom_type_symbol
_atom_type_radius_bond
C 0.68
H 0.23
N 0.68
O 0.68
loop_
_atom_site_label
_atom_site_type_symbol
_atom_site_fract_x
_atom_site_fract_y
_atom_site_fract_z
O1 O 0.48722(10) 0.29548(8) 0.04785(6)
H1? H 0.46740 0.25270 0.07070
O2 O 0.54046(10) 0.18029(8) 0.13888(6)
H2 H 0.499(2) 0.2201(13) 0.1167(12)
O3 O 0.61871(11) 0.17925(7) -0.08705(6)
O4 O 0.77404(12) 0.20458(8) -0.15830(6)
N1 N 0.69605(12) 0.22804(8) -0.11451(6)
C1 C 0.59779(13) 0.28609(9) 0.02487(7)
C2 C 0.68777(13) 0.22526(9) 0.05368(7)
C3 C 0.65467(13) 0.17405(9) 0.10821(7)
C4 C 0.73833(12) 0.10551(8) 0.13811(6)
C5 C 0.70392(13) 0.01804(9) 0.12819(7)
C6 C 0.78051(14) -0.04596(9) 0.15771(8)
C7 C 0.88831(14) -0.02623(9) 0.19672(7)
C8 C 0.92060(13) 0.06064(9) 0.20541(7)
C9 C 0.84800(13) 0.12729(9) 0.17621(7)
C10 C 0.64040(13) 0.34593(9) -0.03210(7)
C11 C 0.63178(15) 0.43514(10) -0.01939(8)
C12 C 0.67550(15) 0.49526(10) -0.06760(9)
C13 C 0.72918(15) 0.46772(10) -0.12875(9)
C14 C 0.73832(14) 0.37985(10) -0.14301(8)
C15 C 0.69343(12) 0.32070(9) -0.09501(7)
C16 C 0.58920(18) -0.00650(13) 0.08502(12)
C17 C 0.88682(17) 0.22039(10) 0.18784(9)
C18 C 0.96813(18) -0.09736(12) 0.22881(10)
H3 H 0.7726(17) 0.2188(10) 0.0332(9)
H4 H 0.7598(16) -0.1091(12) 0.1503(8)
H5 H 0.9965(16) 0.0762(10) 0.2328(8)
H6 H 0.5958(17) 0.4542(12) 0.0248(10)
H7 H 0.6701(18) 0.5564(13) -0.0574(10)
H8 H 0.7611(17) 0.5088(12) -0.1636(9)
H9 H 0.7725(17) 0.3591(11) -0.1857(9)
H10 H 0.592(2) -0.0654(17) 0.0743(12)
H11 H 0.585(2) 0.0287(16) 0.0424(14)
H12 H 0.513(2) 0.0027(16) 0.1110(12)
H13 H 1.032(4) -0.122(3) 0.193(2)
H14 H 0.908(5) -0.150(3) 0.245(3)
H15 H 1.017(4) -0.073(3) 0.270(2)
H16? H 0.964(5) -0.151(3) 0.202(2)
H17? H 0.946(4) -0.107(3) 0.277(2)
H18? H 1.058(4) -0.082(2) 0.232(2)
H19 H 0.9120(16) 0.2491(12) 0.1465(10)
H20 H 0.9584(19) 0.2229(12) 0.2209(10)
H21 H 0.8189(19) 0.2535(14) 0.2071(11)
#END
