
#######################################################################
#
#                 Cambridge Crystallographic Data Centre
#                                CCDC
#
#######################################################################
#
# If this CIF has been generated from an entry in the Cambridge
# Structural Database, then it will include bibliographic, chemical,
# crystal, experimental, refinement or atomic coordinate data resulting
# from the CCDC's data processing and validation procedures.
#
#######################################################################

data_CSD_CIF_JITWUE02
_audit_creation_date 2004-07-16
_audit_creation_method CSD-ConQuest-V1
_database_code_CSD JITWUE02
_database_code_depnum_ccdc_archive 'CCDC 235416'
_chemical_formula_sum 'C18 H17 N1 O4'
_chemical_formula_moiety
;
C18 H17 N1 O4
;
_journal_coden_Cambridge 4
_journal_volume 126
_journal_year 2004
_journal_page_first 3845
_journal_name_full 'J.Am.Chem.Soc. '
loop_
_publ_author_name
"P.Gilli"
"V.Bertolasi"
"L.Pretto"
"V.Ferretti"
"G.Gilli"
_chemical_name_systematic
;
(2Z)-3-hydroxy-3-mesityl-1-(2-nitrophenyl)-2-propen-1-one
;
_chemical_name_common
;
(2Z)-3-mesityl-1-(2-nitrophenyl)-1,3-propanedione enol
;
_cell_volume   3076.182
_exptl_crystal_colour 'colorless'
_exptl_crystal_density_diffrn 1.344
_exptl_crystal_description 'prism'
_diffrn_ambient_temperature 125
_refine_special_details
;
Enol H atoms are disordered over two positions with s.o.f.s 0.81:0.19.

;
#These two values have been output from a single CSD field.
_refine_ls_R_factor_gt 0.0405
_refine_ls_wR_factor_gt 0.0405
_symmetry_cell_setting orthorhombic
_symmetry_space_group_name_H-M 'P b c a'
_symmetry_Int_Tables_number 61
loop_
_symmetry_equiv_pos_site_id
_symmetry_equiv_pos_as_xyz
1 x,y,z
2 1/2+x,y,1/2-z
3 1/2-x,1/2+y,z
4 x,1/2-y,1/2+z
5 -x,-y,-z
6 -1/2-x,-y,-1/2+z
7 -1/2+x,-1/2-y,-z
8 -x,-1/2+y,-1/2-z
_cell_length_a 10.4213(1)
_cell_length_b 15.3544(2)
_cell_length_c 19.2246(3)
_cell_angle_alpha 90
_cell_angle_beta 90
_cell_angle_gamma 90
_cell_formula_units_Z 8
loop_
_atom_type_symbol
_atom_type_radius_bond
C 0.68
H 0.23
N 0.68
O 0.68
loop_
_atom_site_label
_atom_site_type_symbol
_atom_site_fract_x
_atom_site_fract_y
_atom_site_fract_z
O1 O 0.48731(9) 0.29493(7) 0.04805(6)
H1? H 0.46770 0.25190 0.07100
O2 O 0.54042(9) 0.17859(7) 0.13890(5)
H2 H 0.500(2) 0.2184(12) 0.1159(11)
O3 O 0.6200(1) 0.17940(6) -0.08765(6)
O4 O 0.77582(11) 0.20559(7) -0.15925(6)
N1 N 0.69755(11) 0.22870(7) -0.11522(6)
C1 C 0.59821(12) 0.28598(9) 0.02506(7)
C2 C 0.68847(12) 0.22487(8) 0.05373(7)
C3 C 0.65490(12) 0.17302(8) 0.10828(7)
C4 C 0.73872(12) 0.10413(8) 0.13810(6)
C5 C 0.70323(12) 0.01657(8) 0.12851(7)
C6 C 0.77968(13) -0.04797(9) 0.15799(7)
C7 C 0.88819(12) -0.02842(8) 0.19695(7)
C8 C 0.92155(12) 0.05871(9) 0.20526(7)
C9 C 0.84920(12) 0.12566(8) 0.17598(6)
C10 C 0.64097(12) 0.34635(8) -0.03202(7)
C11 C 0.63157(13) 0.43570(9) -0.01887(7)
C12 C 0.67541(14) 0.49636(9) -0.06699(8)
C13 C 0.72965(13) 0.46913(9) -0.12887(8)
C14 C 0.73930(13) 0.38104(9) -0.14342(7)
C15 C 0.69446(12) 0.32144(8) -0.09521(7)
C16 C 0.58789(15) -0.00786(11) 0.0854(1)
C17 C 0.88909(15) 0.21898(9) 0.18727(8)
C18 C 0.96751(16) -0.09981(10) 0.22923(9)
H3 H 0.7725(16) 0.2191(10) 0.0334(9)
H4 H 0.7573(15) -0.1115(11) 0.1516(8)
H5 H 0.9978(15) 0.0732(10) 0.2325(8)
H6 H 0.5942(16) 0.4543(11) 0.0262(9)
H7 H 0.6684(16) 0.5582(12) -0.0575(9)
H8 H 0.7620(17) 0.5113(12) -0.1631(9)
H9 H 0.7741(15) 0.3610(11) -0.1866(9)
H10 H 0.5904(19) -0.0691(14) 0.0747(10)
H11 H 0.5850(19) 0.0263(14) 0.0427(12)
H12 H 0.511(2) 0.0038(14) 0.1106(11)
H13 H 1.042(4) -0.116(3) 0.200(2)
H14 H 0.917(4) -0.160(3) 0.232(3)
H15 H 0.998(4) -0.084(3) 0.277(2)
H16? H 0.976(4) -0.150(3) 0.197(2)
H17? H 0.932(3) -0.118(2) 0.2723(19)
H18? H 1.054(3) -0.080(2) 0.2409(19)
H19 H 0.9136(16) 0.2468(11) 0.1448(10)
H20 H 0.9598(18) 0.2216(12) 0.2197(10)
H21 H 0.8208(17) 0.2533(12) 0.2063(10)
#END
