
#######################################################################
#
#                 Cambridge Crystallographic Data Centre
#                                CCDC
#
#######################################################################
#
# If this CIF has been generated from an entry in the Cambridge
# Structural Database, then it will include bibliographic, chemical,
# crystal, experimental, refinement or atomic coordinate data resulting
# from the CCDC's data processing and validation procedures.
#
#######################################################################

data_CSD_CIF_JIWPIO
_audit_creation_date 1999-07-06
_audit_creation_method CSD-ConQuest-V1
_database_code_CSD JIWPIO
_database_code_depnum_ccdc_journal 182/917
_chemical_formula_sum 'C19 H17 N3 O3'
_chemical_formula_moiety
;
C19 H17 N3 O3
;
_journal_coden_Cambridge 182
_journal_year 1998
_journal_page_first 1679
_journal_name_full 'Chem.Commun. '
loop_
_publ_author_name
"Kyung-Ho Park"
"E.Abbate"
"S.Najdi"
"M.M.Olmstead"
"M.J.Kurth"
_chemical_name_systematic
;
3-Phenyl-5-(3-phenyl-4,5-dihydroisoxazol-5-ylmethyl)imidazolidine-2,4-dione
;
_cell_volume   3247.270
_exptl_crystal_colour 'colorless'
_exptl_crystal_density_diffrn 1.372
_exptl_crystal_description 'plate'
_diffrn_ambient_temperature 130
#These two values have been output from a single CSD field.
_refine_ls_R_factor_gt 0.0392
_refine_ls_wR_factor_gt 0.0392
_symmetry_cell_setting orthorhombic
_symmetry_space_group_name_H-M 'P b c a'
_symmetry_Int_Tables_number 61
loop_
_symmetry_equiv_pos_site_id
_symmetry_equiv_pos_as_xyz
1 x,y,z
2 1/2-x,-y,1/2+z
3 1/2+x,1/2-y,-z
4 -x,1/2+y,1/2-z
5 -x,-y,-z
6 -1/2+x,y,-1/2-z
7 -1/2-x,-1/2+y,z
8 x,-1/2-y,-1/2+z
_cell_length_a 9.0062(11)
_cell_length_b 11.1037(10)
_cell_length_c 32.472(3)
_cell_angle_alpha 90
_cell_angle_beta 90
_cell_angle_gamma 90
_cell_formula_units_Z 8
loop_
_atom_type_symbol
_atom_type_radius_bond
C 0.68
H 0.23
N 0.68
O 0.68
loop_
_atom_site_label
_atom_site_type_symbol
_atom_site_fract_x
_atom_site_fract_y
_atom_site_fract_z
O1 O 0.2345(2) 0.1097(1) 0.1223(1)
O2 O -0.0436(2) 0.1484(1) -0.0075(1)
O3 O 0.4309(2) 0.0583(1) -0.0475(1)
N1 N 0.1324(2) 0.1332(2) 0.1545(1)
N2 N 0.3240(2) 0.0754(2) 0.0172(1)
N3 N 0.1862(2) 0.1175(1) -0.0376(1)
C1 C 0.1118(2) 0.2477(2) 0.1572(1)
C2 C 0.0126(2) 0.2981(2) 0.1889(1)
C3 C -0.0520(2) 0.2244(2) 0.2189(1)
C4 C -0.1407(3) 0.2731(2) 0.2493(1)
C5 C -0.1687(3) 0.3962(2) 0.2501(1)
C6 C -0.1067(2) 0.4691(2) 0.2203(1)
C7 C -0.0160(2) 0.4214(2) 0.1898(1)
C8 C 0.2026(2) 0.3197(2) 0.1273(1)
C9 C 0.2569(2) 0.2203(2) 0.0988(1)
C10 C 0.1667(2) 0.2170(2) 0.0596(1)
C11 C 0.1769(2) 0.1025(2) 0.0336(1)
C12 C 0.0878(2) 0.1245(2) -0.0052(1)
C13 C 0.3285(2) 0.0807(2) -0.0240(1)
C14 C 0.1592(2) 0.1548(2) -0.0793(1)
C15 C 0.1915(2) 0.2725(2) -0.0901(1)
C16 C 0.1691(2) 0.3092(2) -0.1302(1)
C17 C 0.1149(2) 0.2289(2) -0.1592(1)
C18 C 0.0819(2) 0.1118(2) -0.1480(1)
C19 C 0.1032(2) 0.0750(2) -0.1078(1)
H1 H 0.3973(29) 0.0398(23) 0.0311(8)
H2 H -0.0345(2) 0.1401(2) 0.2184(1)
H3 H -0.1829(3) 0.2223(2) 0.2697(1)
H4 H -0.2299(3) 0.4298(2) 0.2710(1)
H5 H -0.1264(2) 0.5532(2) 0.2206(1)
H6 H 0.0265(2) 0.4727(2) 0.1696(1)
H7 H 0.2862(2) 0.3612(2) 0.1411(1)
H8 H 0.1413(2) 0.3795(2) 0.1124(1)
H9 H 0.3646(2) 0.2316(2) 0.0923(1)
H10 H 0.1976(2) 0.2858(2) 0.0422(1)
H11 H 0.0612(2) 0.2298(2) 0.0670(1)
H12 H 0.1365(2) 0.0319(2) 0.0491(1)
H13 H 0.2287(2) 0.3273(2) -0.0702(1)
H14 H 0.1909(2) 0.3897(2) -0.1380(1)
H15 H 0.1005(2) 0.2544(2) -0.1868(1)
H16 H 0.0445(2) 0.0569(2) -0.1678(1)
H17 H 0.0795(2) -0.0051(2) -0.0999(1)
#END
