
#######################################################################
#
#                 Cambridge Crystallographic Data Centre
#                                CCDC
#
#######################################################################
#
# If this CIF has been generated from an entry in the Cambridge
# Structural Database, then it will include bibliographic, chemical,
# crystal, experimental, refinement or atomic coordinate data resulting
# from the CCDC's data processing and validation procedures.
#
#######################################################################

data_CSD_CIF_JIZJAD
_audit_creation_date 1992-04-15
_audit_creation_method CSD-ConQuest-V1
_database_code_CSD JIZJAD
_chemical_formula_sum 'C26 H28 N2 O10'
_chemical_formula_moiety
;
C26 H28 N2 O10
;
_journal_coeditor_code "IUCr CR0348"
_journal_coden_Cambridge 591
_journal_volume 47
_journal_year 1991
_journal_page_first 2693
_journal_name_full 'Acta Crystallogr.,Sect.C:Cryst.Struct.Commun. '
loop_
_publ_author_name
"H.L.Ammon"
"P.DeShong"
"D.Simpson"
_chemical_name_systematic
;
2,4,6-Trideoxy-4,6-dimethyl-2-(2-oxopropyl)-7-O-(phenylmethyl)-L-glycero-D-man
no-heptono-1,5-lactone 3-(3,5-dinitrobenzoate)
;
_cell_volume   1292.995
_exptl_crystal_colour 'colorless'
_exptl_crystal_density_diffrn 1.357
_diffrn_ambient_temperature ?
_diffrn_special_details
;
The study was carried out at room temperature,in the range 283-303K

;
#These two values have been output from a single CSD field.
_refine_ls_R_factor_gt 0.039
_refine_ls_wR_factor_gt 0.039
_symmetry_cell_setting triclinic
_symmetry_space_group_name_H-M 'P -1'
_symmetry_Int_Tables_number 2
loop_
_symmetry_equiv_pos_site_id
_symmetry_equiv_pos_as_xyz
1 x,y,z
2 -x,-y,-z
_cell_length_a 9.524(1)
_cell_length_b 11.8187(8)
_cell_length_c 12.615(1)
_cell_angle_alpha 66.512(7)
_cell_angle_beta 83.321(9)
_cell_angle_gamma 88.758(8)
_cell_formula_units_Z 2
loop_
_atom_type_symbol
_atom_type_radius_bond
C 0.68
H 0.23
N 0.68
O 0.68
loop_
_atom_site_label
_atom_site_type_symbol
_atom_site_fract_x
_atom_site_fract_y
_atom_site_fract_z
O1 O 0.6900(2) 0.6886(2) 0.5824(2)
O2 O 0.5936(2) 0.5177(2) 0.5889(2)
O3 O 0.8606(2) 0.3674(2) 0.5529(2)
O4 O 0.6352(2) 0.7545(2) 0.3145(1)
O5 O 0.6921(2) 0.9432(2) 0.1756(2)
O6 O 0.2470(3) 0.5538(2) 0.2020(3)
O7 O 0.0535(3) 0.6548(2) 0.1815(2)
O8 O 0.0931(3) 1.0991(2) 0.0183(2)
O9 O 0.2957(3) 1.1872(2) -0.0005(2)
O10 O 0.9571(2) 0.7571(2) 0.7299(2)
N1 N 0.1813(3) 0.6469(3) 0.1859(2)
N2 N 0.2176(3) 1.0961(2) 0.0324(2)
C1 C 0.6823(3) 0.5986(3) 0.5427(2)
C2 C 0.7855(3) 0.6129(2) 0.4378(2)
C3 C 0.7790(3) 0.7448(2) 0.3496(3)
C4 C 0.8076(3) 0.8395(2) 0.4001(2)
C5 C 0.8076(3) 0.7773(3) 0.5311(2)
C6 C 0.7583(4) 0.5159(3) 0.3924(3)
C7 C 0.7853(3) 0.3867(3) 0.4762(3)
C8 C 0.7164(7) 0.2834(4) 0.4596(5)
C9 C 0.6096(3) 0.8568(3) 0.2252(2)
C10 C 0.4655(3) 0.8565(2) 0.1896(2)
C11 C 0.3908(3) 0.7496(3) 0.2092(3)
C12 C 0.2605(3) 0.7598(3) 0.1684(2)
C13 C 0.2006(3) 0.8710(3) 0.1119(2)
C14 C 0.2773(3) 0.9748(2) 0.0942(2)
C15 C 0.4085(3) 0.9705(3) 0.1300(2)
C16 C 0.9463(4) 0.9116(4) 0.3414(3)
C17 C 0.7922(4) 0.8632(3) 0.5952(3)
C18 C 0.6510(5) 0.9265(5) 0.5865(5)
C19 C 0.8154(4) 0.7947(4) 0.7208(3)
C20 C 0.9765(5) 0.6780(5) 0.8479(3)
C21 C 1.1311(4) 0.6581(3) 0.8566(3)
C22 C 1.1861(5) 0.5448(4) 0.8737(3)
C23 C 1.3264(6) 0.5225(5) 0.8829(4)
C24 C 1.4137(6) 0.6149(6) 0.8742(4)
C25 C 1.3614(6) 0.7278(5) 0.8586(5)
C26 C 1.2209(5) 0.7496(4) 0.8505(4)
H1 H 0.884(3) 0.603(2) 0.462(2)
H2 H 0.845(2) 0.756(2) 0.282(2)
H3 H 0.734(2) 0.898(2) 0.382(2)
H4 H 0.894(2) 0.734(2) 0.548(2)
H5 H 0.824(3) 0.532(3) 0.318(3)
H6 H 0.662(3) 0.519(2) 0.376(2)
H7 H 0.734(6) 0.296(5) 0.383(5)
H8 H 0.746(5) 0.213(5) 0.515(4)
H9 H 0.624(6) 0.290(5) 0.465(5)
H10 H 0.425(3) 0.677(2) 0.245(2)
H11 H 0.109(3) 0.873(2) 0.090(2)
H12 H 0.462(3) 1.041(2) 0.116(2)
H13 H 0.952(4) 0.975(4) 0.368(3)
H14 H 1.033(4) 0.855(3) 0.359(3)
H15 H 0.946(3) 0.948(3) 0.254(3)
H16 H 0.867(3) 0.922(3) 0.558(2)
H17 H 0.576(4) 0.865(3) 0.624(3)
H18 H 0.648(4) 0.980(3) 0.628(3)
H19 H 0.646(4) 0.976(4) 0.507(4)
H20 H 0.742(3) 0.722(3) 0.760(2)
H21 H 0.795(3) 0.853(3) 0.762(3)
H22 H 0.920(5) 0.596(4) 0.872(4)
H23 H 0.947(4) 0.735(4) 0.888(4)
H24 H 1.127(4) 0.485(3) 0.880(3)
H25 H 1.369(5) 0.446(5) 0.891(4)
H26 H 1.504(4) 0.601(4) 0.876(4)
H27 H 1.418(5) 0.789(4) 0.857(4)
H28 H 1.188(4) 0.827(4) 0.839(3)
#END
