
#######################################################################
#
#                 Cambridge Crystallographic Data Centre
#                                CCDC
#
#######################################################################
#
# If this CIF has been generated from an entry in the Cambridge
# Structural Database, then it will include bibliographic, chemical,
# crystal, experimental, refinement or atomic coordinate data resulting
# from the CCDC's data processing and validation procedures.
#
#######################################################################

data_CSD_CIF_JOBDOU
_audit_creation_date 2008-09-29
_audit_creation_method CSD-ConQuest-V1
_database_code_CSD JOBDOU
_database_code_depnum_ccdc_archive 'CCDC 669305'
_chemical_formula_sum 'C28 H27 N3 O9'
_chemical_formula_moiety
;
C28 H27 N3 O9
;
_journal_coden_Cambridge 1200
_journal_volume 16
_journal_year 2008
_journal_page_first 5570
_journal_name_full 'Bioorg.Med.Chem. '
loop_
_publ_author_name
"S.Libnow"
"K.Methling"
"M.Hein"
"D.Michalik"
"M.Harms"
"K.Wende"
"A.Flemming"
"M.Kockerling"
"H.Reinke"
"P.J.Bednarski"
"M.Lalk"
"P.Langer"
_chemical_name_systematic
;
1'-(2'',3'',4''-Tri-O-acetyl-\b-L-rhamnopyranosyl)indirubin-3-monoxime
;
_chemical_melting_point 368
_cell_volume   2765.918
_exptl_crystal_colour 'red'
_exptl_crystal_density_diffrn 1.32
_exptl_crystal_description 'irregular'
_diffrn_ambient_temperature 293
#These two values have been output from a single CSD field.
_refine_ls_R_factor_gt 0.0385
_refine_ls_wR_factor_gt 0.0385
_symmetry_cell_setting orthorhombic
_symmetry_space_group_name_H-M 'P 21 21 2'
_symmetry_Int_Tables_number 18
loop_
_symmetry_equiv_pos_site_id
_symmetry_equiv_pos_as_xyz
1 x,y,z
2 -x,-y,z
3 1/2-x,1/2+y,-z
4 1/2+x,1/2-y,-z
_cell_length_a 14.6163(4)
_cell_length_b 28.0145(7)
_cell_length_c 6.7549(2)
_cell_angle_alpha 90
_cell_angle_beta 90
_cell_angle_gamma 90
_cell_formula_units_Z 4
loop_
_atom_type_symbol
_atom_type_radius_bond
C 0.68
H 0.23
N 0.68
O 0.68
loop_
_atom_site_label
_atom_site_type_symbol
_atom_site_fract_x
_atom_site_fract_y
_atom_site_fract_z
O1 O -0.38225(10) -0.49658(4) -0.46615(19)
O2 O -0.20223(10) -0.47082(5) -0.3396(2)
C1 C -0.0664(2) -0.43421(12) -0.4367(6)
H1 H -0.01660 -0.41550 -0.38620
H2 H -0.09720 -0.41680 -0.53940
H3 H -0.04320 -0.46360 -0.48940
O3 O -0.17965(10) -0.55307(5) -0.1094(2)
O4 O -0.20759(16) -0.52741(8) 0.1993(3)
O5 O -0.30085(11) -0.61401(5) -0.3017(3)
O6 O -0.17451(18) -0.63392(7) -0.4667(4)
O7 O -0.46829(11) -0.41038(5) -0.0473(2)
O8 O -0.44777(16) -0.18527(5) -0.2998(4)
H4 H -0.41090 -0.17100 -0.36940
N1 N -0.37764(11) -0.42117(5) -0.3242(2)
N2 N -0.51916(15) -0.32047(6) 0.0066(3)
H5 H -0.52450 -0.34890 0.05350
N3 N -0.43276(16) -0.23436(6) -0.3154(4)
C2 C -0.36556(13) -0.47152(6) -0.2885(3)
H6 H -0.41220 -0.48140 -0.19270
C3 C -0.27271(14) -0.48382(6) -0.2012(3)
H7 H -0.26380 -0.46710 -0.07530
C4 C -0.26964(14) -0.53725(7) -0.1695(3)
H8 H -0.31380 -0.54580 -0.06640
C5 C -0.29337(14) -0.56400(6) -0.3579(3)
H9 H -0.24610 -0.55950 -0.45900
C6 C -0.38657(15) -0.54750(7) -0.4328(3)
H10 H -0.43250 -0.55400 -0.33060
C7 C -0.41664(19) -0.57050(8) -0.6232(4)
H11 H -0.47580 -0.55860 -0.65960
H12 H -0.41980 -0.60450 -0.60570
H13 H -0.37340 -0.56320 -0.72580
C8 C -0.13191(17) -0.44467(9) -0.2738(5)
O9 O -0.12580(16) -0.4317(1) -0.1070(4)
C9 C -0.1582(2) -0.54813(10) 0.0841(4)
C10 C -0.0699(2) -0.57027(13) 0.1330(5)
H14 H -0.05740 -0.56610 0.27140
H15 H -0.02230 -0.55550 0.05660
H16 H -0.07220 -0.60370 0.10280
C11 C -0.2348(2) -0.64400(8) -0.3534(5)
C12 C -0.2448(3) -0.69123(10) -0.2522(6)
H17 H -0.19650 -0.71210 -0.29370
H18 H -0.30280 -0.70510 -0.28650
H19 H -0.24170 -0.68680 -0.11150
C13 C -0.42912(14) -0.39366(7) -0.1955(3)
C14 C -0.42762(14) -0.34450(7) -0.2686(3)
C15 C -0.37537(14) -0.34517(7) -0.4518(3)
C16 C -0.35307(16) -0.31138(7) -0.5954(4)
H20 H -0.37220 -0.27990 -0.58040
C17 C -0.30293(19) -0.32428(8) -0.7591(4)
H21 H -0.28790 -0.30140 -0.85340
C18 C -0.27458(18) -0.37111(8) -0.7851(4)
H22 H -0.24060 -0.37910 -0.89660
C19 C -0.29601(16) -0.40619(7) -0.6477(3)
H23 H -0.27770 -0.43770 -0.66610
C20 C -0.34548(14) -0.39269(7) -0.4826(3)
C21 C -0.47148(15) -0.30966(7) -0.1591(3)
C22 C -0.47796(15) -0.25678(7) -0.1812(4)
C23 C -0.53643(17) -0.24034(8) -0.0191(4)
C24 C -0.5723(2) -0.19579(9) 0.0371(5)
H24 H -0.55910 -0.16850 -0.03580
C25 C -0.6270(3) -0.19340(11) 0.2014(6)
H25 H -0.65180 -0.16420 0.23890
C26 C -0.6460(3) -0.23337(12) 0.3120(6)
H26 H -0.68260 -0.23050 0.42410
C27 C -0.6121(3) -0.27793(11) 0.2606(5)
H27 H -0.62480 -0.30490 0.33610
C28 C -0.5585(2) -0.28048(8) 0.0921(4)
#END
