
#######################################################################
#
#                 Cambridge Crystallographic Data Centre
#                                CCDC
#
#######################################################################
#
# If this CIF has been generated from an entry in the Cambridge
# Structural Database, then it will include bibliographic, chemical,
# crystal, experimental, refinement or atomic coordinate data resulting
# from the CCDC's data processing and validation procedures.
#
#######################################################################

data_CSD_CIF_JOBHAJ01
_audit_creation_date 2018-04-04
_audit_creation_method CSD-ConQuest-V1
_database_code_CSD JOBHAJ01
_database_code_depnum_ccdc_archive 'CCDC 1834769'
_chemical_formula_sum 'C14 H16 N2 O4'
_chemical_formula_moiety
;
C14 H16 N2 O4
;
_journal_coden_Cambridge 392
_journal_volume 90
_journal_year 2015
_journal_page_first 1038
_journal_name_full 'Heterocycles '
loop_
_publ_author_name
"T.Kawasaki"
"M.Tabata"
"K.Nakagawa"
"K.Kobayashi"
"A.Kodama"
"T.Kobayashi"
"M.Hasegawa"
"K.Tanii"
"M.Somei"
_chemical_name_systematic
;
methyl N-acetyl-1-hydroxytryptophanate
;
_cell_volume    693.156
_exptl_crystal_density_diffrn 1.324
_diffrn_ambient_temperature 293
#These two values have been output from a single CSD field.
_refine_ls_R_factor_gt 0.039
_refine_ls_wR_factor_gt 0.039
_symmetry_cell_setting triclinic
_symmetry_space_group_name_H-M 'P -1'
_symmetry_Int_Tables_number 2
loop_
_symmetry_equiv_pos_site_id
_symmetry_equiv_pos_as_xyz
1 x,y,z
2 -x,-y,-z
_cell_length_a 8.163(1)
_cell_length_b 12.086(1)
_cell_length_c 8.0126(9)
_cell_angle_alpha 107.940(8)
_cell_angle_beta 109.560(9)
_cell_angle_gamma 73.161(8)
_cell_formula_units_Z 2
loop_
_atom_type_symbol
_atom_type_radius_bond
C 0.68
H 0.23
N 0.68
O 0.68
loop_
_atom_site_label
_atom_site_type_symbol
_atom_site_fract_x
_atom_site_fract_y
_atom_site_fract_z
O1 O 0.7722(2) 0.3704(2) 0.0440(2)
C1 C 0.0586(3) 0.5761(2) 0.3249(3)
O2 O 0.4835(2) 0.3861(1) 0.5934(2)
C2 C 0.0700(4) 0.7014(2) 0.3501(4)
O3 O 0.3578(2) 0.2287(1) 0.5073(2)
H1 H 0.441(3) 0.441(2) 0.071(3)
O4 O -0.0859(2) 0.5469(1) 0.2748(2)
H2 H 0.509(3) 0.058(2) 0.232(3)
N1 N 0.6773(2) 0.3248(2) 0.1124(2)
H3 H 0.789(3) -0.067(3) 0.274(4)
N2 N 0.2116(2) 0.4990(1) 0.3592(3)
H4 H 1.031(4) -0.022(3) 0.232(4)
C3 C 0.4998(3) 0.3658(2) 0.1011(3)
H5 H 0.991(3) 0.158(2) 0.153(3)
C4 C 0.4390(2) 0.2864(2) 0.1411(2)
H6 H 0.235(3) 0.220(2) 0.140(3)
C5 C 0.5868(2) 0.1893(2) 0.1740(3)
H7 H 0.167(3) 0.338(2) 0.063(3)
C6 C 0.6091(3) 0.0825(2) 0.2188(3)
H8 H 0.115(3) 0.363(2) 0.349(3)
C7 C 0.7725(4) 0.0071(2) 0.2374(4)
H9 H 0.475(5) 0.101(3) 0.634(4)
C8 C 0.9146(4) 0.0347(3) 0.2131(4)
H10 H 0.605(4) 0.156(3) 0.612(4)
C9 C 0.8983(3) 0.1383(2) 0.1673(4)
H11 H 0.512(7) 0.232(3) 0.753(5)
C10 C 0.7338(3) 0.2156(2) 0.1512(3)
H12 H 0.159(5) 0.722(3) 0.444(4)
C11 C 0.2568(3) 0.2983(2) 0.1559(3)
H13 H 0.059(6) 0.720(3) 0.246(4)
C12 C 0.2237(2) 0.3742(2) 0.3400(3)
H14 H -0.027(5) 0.754(3) 0.376(4)
C13 C 0.3691(3) 0.3336(2) 0.4964(3)
H15 H 0.818(5) 0.428(3) 0.143(4)
C14 C 0.4935(5) 0.1790(3) 0.6500(5)
H16 H 0.304(3) 0.526(2) 0.388(3)
#END
