
#######################################################################
#
#                 Cambridge Crystallographic Data Centre
#                                CCDC
#
#######################################################################
#
# If this CIF has been generated from an entry in the Cambridge
# Structural Database, then it will include bibliographic, chemical,
# crystal, experimental, refinement or atomic coordinate data resulting
# from the CCDC's data processing and validation procedures.
#
#######################################################################

data_CSD_CIF_JOBMES
_audit_creation_date 1992-04-15
_audit_creation_method CSD-ConQuest-V1
_database_code_CSD JOBMES
_chemical_formula_sum 'C22 H26 N2 O10'
_chemical_formula_moiety
;
C22 H26 N2 O10
;
_journal_coden_Cambridge 16
_journal_volume 47
_journal_year 1991
_journal_page_first 8417
_journal_name_full 'Tetrahedron '
loop_
_publ_author_name
"M.J.Begley"
"N.Housden"
"A.Johns"
"J.A.Murphy"
_chemical_name_systematic
;
1-(3,5-Dinitrobenzoyloxy)-2-methyl-3-(1'-methylethenyl)-4,4-dicarbethoxy-cyclo
pentane
;
_chemical_melting_point 368.15
_cell_volume   1249.398
_exptl_crystal_colour 'white'
_exptl_crystal_density_diffrn 1.27
_exptl_special_details
;
Melting point range 368.15-369.15K

;
_diffrn_ambient_temperature ?
_diffrn_special_details
;
The study was carried out at room temperature,in the range 283-303K

;
#These two values have been output from a single CSD field.
_refine_ls_R_factor_gt 0.0514
_refine_ls_wR_factor_gt 0.0514
_symmetry_cell_setting triclinic
_symmetry_space_group_name_H-M 'P -1'
_symmetry_Int_Tables_number 2
loop_
_symmetry_equiv_pos_site_id
_symmetry_equiv_pos_as_xyz
1 x,y,z
2 -x,-y,-z
_cell_length_a 7.187(4)
_cell_length_b 10.722(6)
_cell_length_c 16.945(4)
_cell_angle_alpha 100.65(3)
_cell_angle_beta 96.45(3)
_cell_angle_gamma 100.05(4)
_cell_formula_units_Z 2
loop_
_atom_type_symbol
_atom_type_radius_bond
C 0.68
H 0.23
N 0.68
O 0.68
loop_
_atom_site_label
_atom_site_type_symbol
_atom_site_fract_x
_atom_site_fract_y
_atom_site_fract_z
C1 C 0.4510(6) 0.1216(4) 0.7871(3)
C2 C 0.4705(5) 0.2707(3) 0.8217(2)
C3 C 0.6549(5) 0.3354(4) 0.7935(3)
C4 C 0.6958(6) 0.2337(4) 0.7277(2)
C5 C 0.6435(6) 0.1093(4) 0.7576(3)
C6 C 0.6412(9) -0.0142(6) 0.6980(4)
C7 C 0.3790(8) 0.0329(4) 0.8410(3)
C8 C 0.493(1) -0.0099(6) 0.8904(4)
C9 C 0.167(1) -0.0070(7) 0.8333(6)
C10 C 0.4898(6) 0.2996(4) 0.9131(2)
O1 O 0.6363(5) 0.3225(4) 0.9588(2)
O2 O 0.3193(4) 0.2926(3) 0.9377(2)
C11 C 0.3165(9) 0.3137(7) 1.0251(3)
C12 C 0.120(1) 0.310(2) 1.0388(7)
C13 C 0.2981(5) 0.3199(4) 0.7867(2)
O3 O 0.1628(4) 0.2556(3) 0.7406(2)
O4 O 0.3231(3) 0.4464(2) 0.8124(2)
C14 C 0.1696(7) 0.5079(5) 0.7837(4)
C15 C 0.2344(9) 0.6493(5) 0.8135(5)
O5 O 0.5575(3) 0.2217(3) 0.6544(2)
C16 C 0.6039(6) 0.2947(4) 0.6013(2)
O6 O 0.7552(4) 0.3647(3) 0.6048(2)
C17 C 0.4381(5) 0.2800(4) 0.5360(2)
C18 C 0.2545(6) 0.2190(4) 0.5428(3)
C19 C 0.1092(5) 0.2126(4) 0.4804(2)
C20 C 0.1371(7) 0.2625(4) 0.4130(3)
C21 C 0.3198(7) 0.3219(4) 0.4087(2)
C22 C 0.4707(6) 0.3327(4) 0.4689(2)
N1 N -0.0858(5) 0.1467(4) 0.4877(3)
O7 O -0.1086(5) 0.0978(4) 0.5454(2)
O8 O -0.2139(5) 0.1456(5) 0.4335(3)
N2 N 0.3574(7) 0.3746(4) 0.3368(2)
O9 O 0.5127(7) 0.4425(4) 0.3391(2)
O10 O 0.2297(7) 0.3491(4) 0.2792(2)
H1 H 0.362(5) 0.102(3) 0.740(2)
H2 H 0.754(5) 0.359(3) 0.842(2)
H3 H 0.644(6) 0.414(4) 0.780(2)
H4 H 0.822(7) 0.254(4) 0.714(2)
H5 H 0.728(6) 0.120(4) 0.806(2)
H6 H 0.557(8) -0.021(5) 0.641(4)
H7 H 0.776(9) -0.011(5) 0.685(3)
H8 H 0.602(8) -0.088(6) 0.715(3)
H9 H 0.624(6) 0.020(4) 0.900(2)
H10 H 0.433(9) -0.061(6) 0.928(4)
H11 H 0.115(8) 0.070(6) 0.845(3)
H12 H 0.10(1) -0.056(9) 0.775(6)
H13 H 0.134(9) -0.061(6) 0.870(4)
H14 H 0.393(8) 0.403(6) 1.055(3)
H15 H 0.28(2) 0.22(1) 1.038(6)
H16 H 0.12(1) 0.330(7) 1.092(5)
H17 H 0.09(2) 0.41(1) 1.018(7)
H18 H 0.108(9) 0.200(5) 1.024(3)
H19 H 0.077(7) 0.487(4) 0.810(3)
H20 H 0.146(8) 0.474(6) 0.716(4)
H21 H 0.12(1) 0.698(6) 0.808(4)
H22 H 0.24(1) 0.671(8) 0.884(5)
H23 H 0.362(9) 0.682(5) 0.790(3)
H24 H 0.231(6) 0.185(4) 0.594(3)
H25 H 0.053(7) 0.255(5) 0.373(3)
H26 H 0.591(6) 0.372(4) 0.469(2)
#END
