
#######################################################################
#
#                 Cambridge Crystallographic Data Centre
#                                CCDC
#
#######################################################################
#
# If this CIF has been generated from an entry in the Cambridge
# Structural Database, then it will include bibliographic, chemical,
# crystal, experimental, refinement or atomic coordinate data resulting
# from the CCDC's data processing and validation procedures.
#
#######################################################################

data_CSD_CIF_JOCJAM
_audit_creation_date 1992-05-18
_audit_creation_method CSD-ConQuest-V1
_database_code_CSD JOCJAM
_database_code_depnum_ccdc_archive 'CCDC 1187941'
_chemical_formula_sum 'C12 H19 N1 O2'
_chemical_formula_moiety
;
C12 H19 N1 O2
;
_journal_coden_Cambridge 392
_journal_volume 32
_journal_year 1991
_journal_page_first 1757
_journal_name_full 'Heterocycles '
loop_
_publ_author_name
"C.Polo"
"V.Ramos"
"T.Torroba"
"M.L.Rodriguez"
"R.Bossio"
"S.Marcaccini"
"R.Pepino"
_chemical_name_systematic
;
(1S*,2R*,5S*)-2,5-Dimethyl-1-(3',5'-dimethylisoxazol-4'-yl)cyclopentan-1-ol
;
_chemical_melting_point 340.15
_cell_volume   1266.150
_exptl_crystal_density_diffrn 1.09
_exptl_special_details
;
Melting point range 340.15-341.15K
The space group is P21/n not P21/c

;
_diffrn_ambient_temperature ?
_diffrn_special_details
;
The study was carried out at room temperature,in the range 283-303K

;
#These two values have been output from a single CSD field.
_refine_ls_R_factor_gt 0.087
_refine_ls_wR_factor_gt 0.087
_symmetry_cell_setting monoclinic
_symmetry_space_group_name_H-M 'P 21/n'
_symmetry_Int_Tables_number 14
loop_
_symmetry_equiv_pos_site_id
_symmetry_equiv_pos_as_xyz
1 x,y,z
2 1/2-x,1/2+y,1/2-z
3 -x,-y,-z
4 -1/2+x,-1/2-y,-1/2+z
_cell_length_a 7.763(1)
_cell_length_b 12.757(1)
_cell_length_c 12.789(1)
_cell_angle_alpha 90
_cell_angle_beta 91.40(1)
_cell_angle_gamma 90
_cell_formula_units_Z 4
loop_
_atom_type_symbol
_atom_type_radius_bond
C 0.68
N 0.68
O 0.68
loop_
_atom_site_label
_atom_site_type_symbol
_atom_site_fract_x
_atom_site_fract_y
_atom_site_fract_z
O1 O 0.1527(4) 0.3552(2) 0.4863(2)
O2 O -0.0468(5) 0.2563(3) 0.2069(3)
N1 N 0.2655(6) 0.2721(3) 0.5119(3)
C1 C 0.2527(6) 0.2069(4) 0.4334(4)
C2 C 0.1357(5) 0.2417(3) 0.3543(3)
C3 C 0.0783(6) 0.3352(3) 0.3920(3)
C4 C 0.0837(5) 0.1911(4) 0.2525(3)
C5 C 0.2320(7) 0.1784(4) 0.1759(4)
C6 C 0.1558(8) 0.1049(5) 0.0926(5)
C7 C 0.0236(9) 0.0364(5) 0.1499(5)
C8 C 0.0241(8) 0.0773(4) 0.2607(4)
C9 C -0.0438(7) 0.4175(4) 0.3557(4)
C10 C 0.3605(9) 0.1088(5) 0.4405(5)
C11 C 0.2994(11) 0.2826(6) 0.1329(6)
C12 C -0.1474(11) 0.0638(8) 0.3159(7)
#END
