
#######################################################################
#
#                 Cambridge Crystallographic Data Centre
#                                CCDC
#
#######################################################################
#
# If this CIF has been generated from an entry in the Cambridge
# Structural Database, then it will include bibliographic, chemical,
# crystal, experimental, refinement or atomic coordinate data resulting
# from the CCDC's data processing and validation procedures.
#
#######################################################################

data_CSD_CIF_JODRUQ
_audit_creation_date 2008-09-29
_audit_creation_method CSD-ConQuest-V1
_database_code_CSD JODRUQ
_database_code_depnum_ccdc_archive 'CCDC 696139'
_chemical_formula_sum 'C22 H28 N2 O6'
_chemical_formula_moiety
;
C22 H28 N2 O6
;
_journal_coeditor_code "IUCr HG2411"
_journal_coden_Cambridge 1370
_journal_volume 64
_journal_year 2008
_journal_page_first o1323
_journal_name_full 'Acta Crystallogr.,Sect.E:Struct.Rep.Online '
loop_
_publ_author_name
"Wen-Kui Dong"
"Chun-Yu Zhao"
"Jin-Kui Zhong"
"Xiao-Lu Tang"
"Tian-Zhi Yu"
_chemical_name_systematic
;
6,6'-Dimethoxy-2,2'-((hexane-1,6-diyldioxy)bis(nitrilomethylidyne))diphenol
;
_cell_volume   2169.034
_exptl_crystal_colour 'colorless'
_exptl_crystal_density_diffrn 1.275
_exptl_crystal_description 'prismatic'
_exptl_crystal_preparation 'ethanol/acetone'
_diffrn_ambient_temperature 298
#These two values have been output from a single CSD field.
_refine_ls_R_factor_gt 0.0468
_refine_ls_wR_factor_gt 0.0468
_symmetry_cell_setting monoclinic
_symmetry_space_group_name_H-M 'P 21/n'
_symmetry_Int_Tables_number 14
loop_
_symmetry_equiv_pos_site_id
_symmetry_equiv_pos_as_xyz
1 x,y,z
2 1/2-x,1/2+y,1/2-z
3 -x,-y,-z
4 -1/2+x,-1/2-y,-1/2+z
_cell_length_a 6.2913(9)
_cell_length_b 29.063(3)
_cell_length_c 12.0481(15)
_cell_angle_alpha 90
_cell_angle_beta 100.063(2)
_cell_angle_gamma 90
_cell_formula_units_Z 4
loop_
_atom_type_symbol
_atom_type_radius_bond
C 0.68
H 0.23
N 0.68
O 0.68
loop_
_atom_site_label
_atom_site_type_symbol
_atom_site_fract_x
_atom_site_fract_y
_atom_site_fract_z
N1 N 1.1005(3) 0.21438(7) 0.56103(16)
N2 N -0.1743(4) -0.00593(7) 0.76432(19)
O1 O 0.9073(3) 0.19166(6) 0.52040(13)
O2 O 0.0109(3) 0.02112(6) 0.78379(15)
O3 O 1.4536(3) 0.23525(5) 0.70115(13)
H1 H 1.33770 0.22220 0.68100
O4 O 1.8128(3) 0.27994(6) 0.74024(14)
O5 O -0.5254(3) -0.04977(6) 0.66091(13)
H2 H -0.41500 -0.03440 0.66440
O6 O -0.8662(3) -0.09771(6) 0.67802(14)
C1 C 0.8437(4) 0.16557(8) 0.6096(2)
H3 H 0.81460 0.18610 0.66860
H4 H 0.95930 0.14490 0.64160
C2 C 0.6460(4) 0.13858(9) 0.5642(2)
H5 H 0.67930 0.11660 0.50920
H6 H 0.53550 0.15920 0.52630
C3 C 0.5602(4) 0.11318(9) 0.6573(2)
H7 H 0.67540 0.09440 0.69830
H8 H 0.52030 0.13560 0.70960
C4 C 0.3675(4) 0.08263(9) 0.6171(2)
H9 H 0.25650 0.10040 0.56980
H10 H 0.41040 0.05780 0.57180
C5 C 0.2762(4) 0.06249(9) 0.7145(2)
H11 H 0.38770 0.04440 0.76060
H12 H 0.23860 0.08750 0.76070
C6 C 0.0802(4) 0.03258(9) 0.6804(2)
H13 H -0.03190 0.04910 0.63060
H14 H 0.11680 0.00510 0.64230
C7 C 1.1556(4) 0.24225(8) 0.4897(2)
H15 H 1.06690 0.24600 0.41990
C8 C 1.3543(4) 0.26824(7) 0.51555(19)
C9 C 1.4944(4) 0.26352(7) 0.61737(19)
C10 C 1.6878(4) 0.28817(8) 0.6385(2)
C11 C 1.7384(4) 0.31800(8) 0.5586(2)
H16 H 1.86680 0.33460 0.57220
C12 C 1.5961(5) 0.32325(9) 0.4574(2)
H17 H 1.62970 0.34370 0.40360
C13 C 1.4083(5) 0.29895(9) 0.4357(2)
H18 H 1.31530 0.30280 0.36740
C14 C 2.0134(4) 0.30314(9) 0.7683(2)
H19 H 2.09540 0.29890 0.70900
H20 H 2.09230 0.29080 0.83740
H21 H 1.98810 0.33540 0.77770
C15 C -0.2267(4) -0.01909(8) 0.8565(2)
H22 H -0.13920 -0.01030 0.92350
C16 C -0.4139(4) -0.04678(8) 0.8628(2)
C17 C -0.5556(4) -0.06051(8) 0.7667(2)
C18 C -0.7374(4) -0.08642(8) 0.7769(2)
C19 C -0.7739(4) -0.09855(9) 0.8825(2)
H23 H -0.89470 -0.11600 0.88940
C20 C -0.6334(5) -0.08513(9) 0.9779(2)
H24 H -0.65940 -0.09360 1.04880
C21 C -0.4562(5) -0.05942(9) 0.9683(2)
H25 H -0.36250 -0.05020 1.03290
C22 C -1.0452(4) -0.12698(9) 0.6835(2)
H26 H -0.99470 -0.15550 0.71850
H27 H -1.12170 -0.13280 0.60860
H28 H -1.14020 -0.11230 0.72690
#END
