
#######################################################################
#
#                 Cambridge Crystallographic Data Centre
#                                CCDC
#
#######################################################################
#
# If this CIF has been generated from an entry in the Cambridge
# Structural Database, then it will include bibliographic, chemical,
# crystal, experimental, refinement or atomic coordinate data resulting
# from the CCDC's data processing and validation procedures.
#
#######################################################################

data_CSD_CIF_JOFGUH
_audit_creation_date 2009-02-06
_audit_creation_method CSD-ConQuest-V1
_database_code_CSD JOFGUH
_database_code_depnum_ccdc_archive 'CCDC 696597'
_chemical_formula_sum 'C15 H15 N3 O3'
_chemical_formula_moiety
;
C15 H15 N3 O3
;
_journal_coeditor_code "IUCr OM2241"
_journal_coden_Cambridge 1370
_journal_volume 64
_journal_year 2008
_journal_page_first o1341
_journal_name_full 'Acta Crystallogr.,Sect.E:Struct.Rep.Online '
loop_
_publ_author_name
"Zheng Fan"
"Shang Shan"
"Shan-Heng Wang"
"Wen-Long Wang"
_chemical_name_systematic
;
(E)-1-(3-Methoxyphenyl)ethanone 4-nitrophenylhydrazone
;
_cell_volume   1386.004
_exptl_crystal_colour 'red'
_exptl_crystal_density_diffrn 1.367
_exptl_crystal_description 'prism'
_exptl_crystal_preparation 'ethanol'
_diffrn_ambient_temperature 295
#These two values have been output from a single CSD field.
_refine_ls_R_factor_gt 0.0487
_refine_ls_wR_factor_gt 0.0487
_symmetry_cell_setting monoclinic
_symmetry_space_group_name_H-M 'P 21/c'
_symmetry_Int_Tables_number 14
loop_
_symmetry_equiv_pos_site_id
_symmetry_equiv_pos_as_xyz
1 x,y,z
2 -x,1/2+y,1/2-z
3 -x,-y,-z
4 x,-1/2-y,-1/2+z
_cell_length_a 4.2977(17)
_cell_length_b 24.709(9)
_cell_length_c 13.132(5)
_cell_angle_alpha 90
_cell_angle_beta 96.332(11)
_cell_angle_gamma 90
_cell_formula_units_Z 4
loop_
_atom_type_symbol
_atom_type_radius_bond
C 0.68
H 0.23
N 0.68
O 0.68
loop_
_atom_site_label
_atom_site_type_symbol
_atom_site_fract_x
_atom_site_fract_y
_atom_site_fract_z
N1 N 0.2858(3) 0.59466(6) 0.29114(11)
N2 N 0.4535(3) 0.63991(6) 0.27160(11)
H1 H 0.44050 0.65330 0.21090
N3 N 1.2264(4) 0.73954(7) 0.58666(13)
O1 O -0.4958(3) 0.41329(6) 0.10899(10)
O2 O 1.2533(4) 0.71902(6) 0.67268(11)
O3 O 1.3617(4) 0.78225(6) 0.56823(11)
C1 C -0.0634(4) 0.52365(7) 0.24122(12)
C2 C -0.2090(4) 0.48991(7) 0.16601(13)
H2 H -0.20110 0.49850 0.09740
C3 C -0.3663(4) 0.44357(8) 0.19125(13)
C4 C -0.3852(5) 0.43034(8) 0.29148(15)
H3 H -0.49000 0.39930 0.30870
C5 C -0.2442(5) 0.46436(9) 0.36672(14)
H4 H -0.25760 0.45600 0.43510
C6 C -0.0856(5) 0.51000(8) 0.34328(14)
H5 H 0.00750 0.53190 0.39550
C7 C 0.1106(4) 0.57271(7) 0.21575(13)
C8 C 0.0787(5) 0.59459(9) 0.10844(15)
H6 H 0.03960 0.63280 0.10990
H7 H -0.09260 0.57690 0.06860
H8 H 0.26860 0.58800 0.07820
C9 C -0.6460(5) 0.36382(8) 0.13053(16)
H9 H -0.50450 0.34190 0.17460
H10 H -0.70580 0.34480 0.06770
H11 H -0.82900 0.37150 0.16380
C10 C 0.6430(4) 0.66358(7) 0.35048(13)
C11 C 0.6824(4) 0.64122(7) 0.44883(14)
H12 H 0.57940 0.60940 0.46250
C12 C 0.8742(4) 0.66645(8) 0.52547(14)
H13 H 0.89930 0.65180 0.59110
C13 C 1.0288(4) 0.71338(7) 0.50517(13)
C14 C 0.9974(4) 0.73569(7) 0.40765(14)
H14 H 1.10540 0.76700 0.39420
C15 C 0.8043(4) 0.71083(7) 0.33116(14)
H15 H 0.78090 0.72570 0.26570
#END
