
#######################################################################
#
#                 Cambridge Crystallographic Data Centre
#                                CCDC
#
#######################################################################
#
# If this CIF has been generated from an entry in the Cambridge
# Structural Database, then it will include bibliographic, chemical,
# crystal, experimental, refinement or atomic coordinate data resulting
# from the CCDC's data processing and validation procedures.
#
#######################################################################

data_CSD_CIF_JOFWIK
_audit_creation_date 1992-06-24
_audit_creation_method CSD-ConQuest-V1
_database_code_CSD JOFWIK
_chemical_formula_sum 'C35 H39 N1 O7'
_chemical_formula_moiety
;
C35 H39 N1 O7
;
_journal_coden_Cambridge 207
_journal_year 1991
_journal_page_first 2801
_journal_name_full 'J.Chem.Soc.,Perkin Trans.1 '
loop_
_publ_author_name
"M.Yokoyama"
"K.Sujino"
"M.Irie"
"N.Yamazaki"
"T.Hiyama"
"N.Yamada"
"H.Togo"
_chemical_name_systematic
;
(3S,5R,7R,8R,9R)-3-Acetyl-8,9-isopropylidenedioxy-1-(3-oxobutyl)-7-trityloxyme
thyl-2,6-dioxa-1-azaspiro(4.4)nonane
;
_chemical_melting_point 450.15
_cell_volume   1580.516
_exptl_crystal_density_diffrn 1.231
_exptl_special_details
;
Melting point range 450.15-451.15K
Space group appears to be P21 rather than P21/n
;
_diffrn_ambient_temperature ?
_diffrn_special_details
;
The study was carried out at room temperature,in the range 283-303K

;
#These two values have been output from a single CSD field.
_refine_ls_R_factor_gt 0.0559
_refine_ls_wR_factor_gt 0.0559
_symmetry_cell_setting monoclinic
_symmetry_space_group_name_H-M 'P 21'
_symmetry_Int_Tables_number 4
loop_
_symmetry_equiv_pos_site_id
_symmetry_equiv_pos_as_xyz
1 x,y,z
2 -x,1/2+y,-z
_cell_length_a 11.722(1)
_cell_length_b 15.789(6)
_cell_length_c 8.593(7)
_cell_angle_alpha 90
_cell_angle_beta 96.385(8)
_cell_angle_gamma 90
_cell_formula_units_Z 2
loop_
_atom_type_symbol
_atom_type_radius_bond
C 0.68
H 0.23
N 0.68
O 0.68
loop_
_atom_site_label
_atom_site_type_symbol
_atom_site_fract_x
_atom_site_fract_y
_atom_site_fract_z
N1 N 0.35560 0.49300 0.90480
O1 O 0.37790 0.52980 1.06210
O2 O 0.51550 0.39900 0.93720
O3 O 0.53000 0.67840 0.66820
O4 O 0.39640 0.43060 1.42770
O5 O 0.73870 0.33310 0.97350
O6 O 0.25300 0.30140 0.80490
O7 O 0.39840 0.20850 0.80840
C1 C 0.34450 0.46720 1.16510
C2 C 0.34640 0.38200 1.07950
C3 C 0.39170 0.40470 0.92520
C4 C 0.54080 0.31310 0.89780
C5 C 0.44640 0.28670 0.76850
C6 C 0.35020 0.35100 0.78180
C7 C 0.42350 0.54520 0.80580
C8 C 0.36110 0.62790 0.76940
C9 C 0.42870 0.68980 0.68270
C10 C 0.37040 0.77110 0.63090
C11 C 0.42410 0.46760 1.31900
C12 C 0.54670 0.50530 1.31490
C13 C 0.65850 0.30950 0.84500
C14 C 0.85850 0.33780 0.94490
C15 C 0.88170 0.41960 0.85850
C16 C 0.99310 0.43510 0.81520
C17 C 1.01750 0.51170 0.74660
C18 C 0.93280 0.57250 0.71600
C19 C 0.82360 0.55820 0.75880
C20 C 0.79820 0.48290 0.82890
C21 C 0.92510 0.34530 1.10930
C22 C 1.03580 0.31480 1.14170
C23 C 1.09630 0.32750 1.28720
C24 C 1.04670 0.37170 1.40110
C25 C 0.93950 0.40290 1.36970
C26 C 0.87620 0.39200 1.22490
C27 C 0.88750 0.25720 0.85740
C28 C 0.89140 0.18070 0.93310
C29 C 0.91310 0.10710 0.69610
C30 C 0.90690 0.10600 0.85320
C31 C 0.90830 0.18310 0.61660
C32 C 0.89490 0.25760 0.69770
C33 C 0.27850 0.21450 0.77410
C34 C 0.24120 0.19260 0.60730
C35 C 0.22240 0.15900 0.88700
H1 H 0.25840 0.48370 1.19130
H2 H 0.40270 0.34530 1.14290
H3 H 0.25320 0.36580 1.04850
H4 H 0.54220 0.27260 1.00070
H5 H 0.47880 0.28620 0.65550
H6 H 0.32640 0.38570 0.67880
H7 H 0.43310 0.51150 0.69740
H8 H 0.50790 0.55790 0.86830
H9 H 0.67730 0.24550 0.80780
H10 H 0.66450 0.35340 0.74830
H11 H 1.06010 0.38810 0.83460
H12 H 1.10300 0.52400 0.71680
H13 H 0.95190 0.63100 0.65910
H14 H 0.75790 0.60600 0.73720
H15 H 0.71250 0.47340 0.86080
H16 H 1.07540 0.28080 1.05280
H17 H 1.18240 0.30290 1.31180
H18 H 1.09220 0.38200 1.51580
H19 H 0.90380 0.43700 1.46180
H20 H 0.79140 0.41910 1.20270
H21 H 0.88230 0.17920 1.05680
H22 H 0.92180 0.04800 0.63500
H23 H 0.91430 0.04610 0.91430
H24 H 0.91490 0.18440 0.49230
H25 H 0.89010 0.31700 0.63520
H26 H 0.26130 0.12650 0.58660
H27 H 0.14900 0.20250 0.58240
H28 H 0.28620 0.23290 0.53110
H29 H 0.24120 0.09280 0.86470
H30 H 0.25580 0.17520 1.00670
H31 H 0.12980 0.16900 0.87090
H32 H 0.34340 0.65810 0.87830
H33 H 0.28050 0.61560 0.69680
H34 H 0.28090 0.76870 0.65370
H35 H 0.41330 0.82370 0.69530
H36 H 0.37480 0.77990 0.50590
H37 H 0.55180 0.53640 1.20270
H38 H 0.56390 0.55130 1.40920
H39 H 0.61000 0.45460 1.33010
#END
