
#######################################################################
#
#                 Cambridge Crystallographic Data Centre
#                                CCDC
#
#######################################################################
#
# If this CIF has been generated from an entry in the Cambridge
# Structural Database, then it will include bibliographic, chemical,
# crystal, experimental, refinement or atomic coordinate data resulting
# from the CCDC's data processing and validation procedures.
#
#######################################################################

data_CSD_CIF_JOGGUH
_audit_creation_date 1992-06-24
_audit_creation_method CSD-ConQuest-V1
_database_code_CSD JOGGUH
_chemical_formula_sum 'C12 H14 N2 O6'
_chemical_formula_moiety
;
C12 H14 N2 O6
;
_journal_coden_Cambridge 1086
_journal_volume 3
_journal_year 1991
_journal_page_first 76
_journal_name_full 'Chirality '
loop_
_publ_author_name
"U.Palm"
"A.Mosandl"
"W.Bensch"
_chemical_name_systematic
;
trans-2-(3',5'-Dinitrobenzyloxy)-5-methyl-tetrahydrofuran
;
_cell_volume   1348.268
_exptl_crystal_colour 'colorless'
_exptl_crystal_density_diffrn 1.39
_diffrn_ambient_temperature ?
_diffrn_special_details
;
The study was carried out at room temperature,in the range 283-303K

;
#These two values have been output from a single CSD field.
_refine_ls_R_factor_gt 0.066
_refine_ls_wR_factor_gt 0.066
loop_
_citation_database_id_CSD
_citation_special_details
JOGHAO "is a stereoisomer of this entry"
_symmetry_cell_setting monoclinic
_symmetry_space_group_name_H-M 'P 21/n'
_symmetry_Int_Tables_number 14
loop_
_symmetry_equiv_pos_site_id
_symmetry_equiv_pos_as_xyz
1 x,y,z
2 1/2-x,1/2+y,1/2-z
3 -x,-y,-z
4 -1/2+x,-1/2-y,-1/2+z
_cell_length_a 12.675(2)
_cell_length_b 5.479(2)
_cell_length_c 19.441(4)
_cell_angle_alpha 90
_cell_angle_beta 92.99(2)
_cell_angle_gamma 90
_cell_formula_units_Z 4
loop_
_atom_type_symbol
_atom_type_radius_bond
C 0.68
H 0.23
N 0.68
O 0.68
loop_
_atom_site_label
_atom_site_type_symbol
_atom_site_fract_x
_atom_site_fract_y
_atom_site_fract_z
O1 O 0.9283(2) 0.2463(6) 0.3992(1)
O2 O 0.7997(2) 0.2524(6) 0.4790(1)
O3 O 0.8492(3) -0.6350(6) 0.6856(1)
O4 O 0.6888(3) -0.6828(6) 0.7141(1)
O5 O 0.4239(3) -0.0971(10) 0.6382(2)
O6 O 0.4654(3) 0.1981(10) 0.5730(2)
N1 N 0.7563(4) -0.5757(7) 0.6839(1)
N2 N 0.4858(3) 0.0127(11) 0.6043(2)
C1 C 0.8667(5) 0.3923(11) 0.4411(3)
C2 C 0.7987(8) 0.5523(15) 0.3924(3)
C3 C 0.8189(6) 0.4627(14) 0.3226(3)
C4 C 0.8751(4) 0.2255(11) 0.3339(2)
C5 C 0.9524(4) 0.1554(12) 0.2814(2)
C6 C 0.8515(4) 0.0879(11) 0.5256(2)
C7 C 0.7693(3) -0.0407(8) 0.5649(1)
C8 C 0.6657(4) 0.0378(10) 0.5650(2)
C9 C 0.5954(3) -0.0837(10) 0.6034(2)
C10 C 0.6222(4) -0.2835(11) 0.6424(2)
C11 C 0.7253(3) -0.3606(8) 0.6421(2)
C12 C 0.7987(3) -0.2455(9) 0.6046(2)
H1 H 0.906(5) 0.452(13) 0.481(4)
H2 H 0.822(5) 0.084(13) 0.346(3)
#END
