
#######################################################################
#
#                 Cambridge Crystallographic Data Centre
#                                CCDC
#
#######################################################################
#
# If this CIF has been generated from an entry in the Cambridge
# Structural Database, then it will include bibliographic, chemical,
# crystal, experimental, refinement or atomic coordinate data resulting
# from the CCDC's data processing and validation procedures.
#
#######################################################################

data_CSD_CIF_JOHMUQ
_audit_creation_date 2014-05-20
_audit_creation_method CSD-ConQuest-V1
_database_code_CSD JOHMUQ
_database_code_depnum_ccdc_archive 'CCDC 979586'
_chemical_formula_sum 'C21 H19 N1 O4'
_chemical_formula_moiety
;
C21 H19 N1 O4
;
_journal_coden_Cambridge 179
_journal_volume 53
_journal_year 2014
_journal_page_first 6523
_journal_name_full 'Angew.Chem.,Int.Ed. '
loop_
_publ_author_name
"B.M.Partridge"
"J.S.Gonzalez"
"Hon Wai Lam"
_chemical_name_systematic
;
9b-hydroxy-3a-methyl-5-(4-nitrobenzylidene)-1,2,3a,4,5,9b-hexahydro-3H-cyclope
nta[a]naphthalen-3-one
;
_cell_volume    853.079
_exptl_crystal_colour 'colorless'
_exptl_crystal_density_diffrn 1.36
_exptl_crystal_description 'block'
_diffrn_ambient_temperature 120
#These two values have been output from a single CSD field.
_refine_ls_R_factor_gt 0.0519
_refine_ls_wR_factor_gt 0.0519
_symmetry_cell_setting triclinic
_symmetry_space_group_name_H-M 'P -1'
_symmetry_Int_Tables_number 2
loop_
_symmetry_equiv_pos_site_id
_symmetry_equiv_pos_as_xyz
1 x,y,z
2 -x,-y,-z
_cell_length_a 7.5109(4)
_cell_length_b 10.1850(5)
_cell_length_c 12.3307(6)
_cell_angle_alpha 89.167(4)
_cell_angle_beta 76.270(4)
_cell_angle_gamma 69.034(5)
_cell_formula_units_Z 2
loop_
_atom_type_symbol
_atom_type_radius_bond
C 0.68
H 0.23
N 0.68
O 0.68
loop_
_atom_site_label
_atom_site_type_symbol
_atom_site_fract_x
_atom_site_fract_y
_atom_site_fract_z
C1 C 0.5274(2) 0.29768(17) 0.57620(13)
H1 H 0.587(3) 0.369(2) 0.5652(16)
H2 H 0.600(3) 0.224(2) 0.6183(16)
C2 C 0.3105(2) 0.36393(14) 0.64231(11)
C3 C 0.2165(2) 0.25991(15) 0.61434(11)
C4 C 0.3424(2) 0.19243(16) 0.49764(12)
C5 C 0.5207(3) 0.23421(19) 0.46647(13)
H3 H 0.494(3) 0.307(2) 0.4150(18)
H4 H 0.645(3) 0.148(2) 0.4312(17)
O1 O 0.30379(18) 0.11509(13) 0.44117(9)
C6 C -0.0011(2) 0.32435(17) 0.61515(13)
H5 H -0.081(3) 0.364(2) 0.6911(17)
H6 H -0.028(3) 0.398(2) 0.5618(17)
H7 H -0.044(3) 0.252(2) 0.5919(17)
C7 C 0.29109(19) 0.38915(14) 0.76613(11)
C8 C 0.21434(19) 0.31242(14) 0.84757(11)
C9 C 0.15124(19) 0.20045(14) 0.81334(11)
C10 C 0.2491(2) 0.13947(15) 0.69438(11)
H8 H 0.194(2) 0.0745(18) 0.6726(14)
H9 H 0.388(3) 0.0887(19) 0.6858(14)
C11 C 0.3538(2) 0.49234(15) 0.79943(12)
H10 H 0.401(3) 0.547(2) 0.7433(16)
C12 C 0.3404(2) 0.52099(16) 0.91109(13)
H11 H 0.382(3) 0.593(2) 0.9338(17)
C13 C 0.2639(2) 0.44547(16) 0.99214(12)
H12 H 0.254(3) 0.464(2) 1.0700(17)
C14 C 0.2024(2) 0.34191(15) 0.96050(12)
H13 H 0.155(3) 0.288(2) 1.0163(16)
O2 O 0.23371(17) 0.49584(11) 0.59451(9)
H14 H 0.109(4) 0.535(2) 0.6280(19)
C15 C 0.0077(2) 0.16714(15) 0.88178(12)
H15 H -0.060(3) 0.225(2) 0.9537(16)
C16 C -0.0707(2) 0.06053(15) 0.85607(11)
C17 C -0.2745(2) 0.09322(16) 0.88445(12)
H16 H -0.363(3) 0.188(2) 0.9184(16)
C18 C -0.3541(2) -0.00253(16) 0.85895(12)
H17 H -0.495(3) 0.019(2) 0.8769(16)
C19 C -0.2268(2) -0.13190(15) 0.80471(11)
C20 C -0.0241(2) -0.16968(15) 0.77745(12)
H18 H 0.060(3) -0.261(2) 0.7431(15)
C21 C 0.0530(2) -0.07356(15) 0.80468(12)
H19 H 0.192(3) -0.1009(19) 0.7905(15)
N1 N -0.30847(18) -0.23510(13) 0.77964(11)
O3 O -0.48637(16) -0.20664(13) 0.81374(10)
O4 O -0.19611(17) -0.34798(12) 0.72745(11)
#END
