
#######################################################################
#
#                 Cambridge Crystallographic Data Centre
#                                CCDC
#
#######################################################################
#
# If this CIF has been generated from an entry in the Cambridge
# Structural Database, then it will include bibliographic, chemical,
# crystal, experimental, refinement or atomic coordinate data resulting
# from the CCDC's data processing and validation procedures.
#
#######################################################################

data_CSD_CIF_JOKCIX
_audit_creation_date 2014-05-21
_audit_creation_method CSD-ConQuest-V1
_database_code_CSD JOKCIX
_database_code_depnum_ccdc_archive 'CCDC 977839'
_chemical_formula_sum 'C28 H36 N2 O5'
_chemical_formula_moiety
;
C28 H36 N2 O5
;
_journal_coden_Cambridge 692
_journal_volume 46
_journal_year 2014
_journal_page_first 1329
_journal_name_full 'Synthesis '
loop_
_publ_author_name
"Hwa-Jung Lee"
"P.K.Shyam"
"Woojin Yoon"
"Hoseop Yun"
"Hye-Young Jang"
_chemical_name_systematic
;
2-hydroxy-5-nitro-4,6-diphenyl-3-((2,2,6,6-tetramethylpiperidin-1-yl)oxy)cyclo
hexanecarbaldehyde
;
_cell_volume   2689.650
_exptl_crystal_colour 'colorless'
_exptl_crystal_density_diffrn 1.187
_exptl_crystal_description 'Block'
_diffrn_ambient_temperature 293
#These two values have been output from a single CSD field.
_refine_ls_R_factor_gt 0.0309
_refine_ls_wR_factor_gt 0.0309
_symmetry_cell_setting orthorhombic
_symmetry_space_group_name_H-M 'P 21 21 21'
_symmetry_Int_Tables_number 19
loop_
_symmetry_equiv_pos_site_id
_symmetry_equiv_pos_as_xyz
1 x,y,z
2 1/2-x,-y,1/2+z
3 1/2+x,1/2-y,-z
4 -x,1/2+y,1/2-z
_cell_length_a 8.7335(4)
_cell_length_b 15.6355(5)
_cell_length_c 19.6968(6)
_cell_angle_alpha 90
_cell_angle_beta 90
_cell_angle_gamma 90
_cell_formula_units_Z 4
loop_
_atom_type_symbol
_atom_type_radius_bond
C 0.68
H 0.23
N 0.68
O 0.68
loop_
_atom_site_label
_atom_site_type_symbol
_atom_site_fract_x
_atom_site_fract_y
_atom_site_fract_z
C1 C 0.88125(16) 0.5694(1) -0.00188(7)
C2 C 0.88096(18) 0.67525(10) 0.12307(7)
C3 C 0.65676(17) 0.52015(9) 0.07617(7)
C4 C 0.75182(18) 0.67601(10) 0.07113(7)
C5 C 1.02132(17) 0.56862(10) 0.04400(7)
C6 C 1.03111(18) 0.65126(10) 0.08628(7)
C7 C 0.72922(17) 0.59011(9) 0.03326(7)
C8 C 0.89943(19) 0.76079(11) 0.15927(8)
C9 C 0.7326(2) 0.47129(10) 0.12490(8)
C10 C 1.1585(2) 0.63975(13) 0.13786(9)
C11 C 0.9913(2) 0.36309(10) -0.05635(8)
C12 C 0.5022(3) 0.39564(12) 0.15229(10)
C13 C 0.9569(2) 0.47729(11) -0.14884(7)
C14 C 0.5015(2) 0.50466(12) 0.06723(9)
C15 C 0.6568(2) 0.40901(11) 0.16174(9)
C16 C 0.9178(2) 0.83582(12) 0.12281(11)
C17 C 1.1220(3) 0.32553(15) -0.09888(11)
C18 C 0.4255(3) 0.44388(14) 0.10592(11)
C19 C 1.0882(3) 0.43461(15) -0.18801(12)
C20 C 0.9741(4) 0.57417(13) -0.15718(10)
C21 C 1.0342(4) 0.35703(15) 0.01863(11)
C22 C 0.8020(3) 0.45126(19) -0.17762(12)
C23 C 1.1036(3) 0.33989(15) -0.17420(12)
C24 C 0.8435(3) 0.31213(14) -0.06537(13)
C25 C 0.9009(3) 0.76431(17) 0.22946(10)
C26 C 0.9394(3) 0.9165(2) 0.2243(2)
C27 C 0.9210(3) 0.8438(3) 0.26160(16)
C28 C 0.9389(3) 0.91275(15) 0.15544(18)
N1 N 0.98192(16) 0.45651(8) -0.07482(6)
N2 N 0.60010(16) 0.69950(8) 0.10257(7)
O1 O 0.50049(15) 0.72593(8) 0.06399(6)
O2 O 1.15826(13) 0.56473(9) 0.00458(6)
O3 O 0.85059(12) 0.48998(6) -0.03649(5)
O4 O 1.1487(2) 0.59753(14) 0.18560(9)
O5 O 0.58056(15) 0.68855(9) 0.16299(6)
H1 H 0.8596(19) 0.6315(11) 0.1577(8)
H2 H 0.7695(17) 0.7208(9) 0.0378(8)
H3 H 1.0598(19) 0.6991(11) 0.0562(9)
H4 H 0.9011(17) 0.6163(10) -0.0367(8)
H5 H 0.6533(18) 0.6035(9) -0.0031(8)
H6 H 1.0194(17) 0.5202(10) 0.0760(7)
H7 H 0.875(3) 0.6081(14) -0.1392(11)
H8 H 0.987(3) 0.5865(13) -0.2051(12)
H9 H 1.066(3) 0.5963(15) -0.1328(12)
H10 H 1.010(3) 0.3074(15) -0.1910(11)
H11 H 0.840(2) 0.4811(11) 0.1343(8)
H12 H 0.714(3) 0.3781(15) 0.1949(11)
H13 H 0.918(3) 0.8339(15) 0.0696(12)
H14 H 0.784(3) 0.4833(16) -0.2184(14)
H15 H 1.072(3) 0.4469(15) -0.2378(13)
H16 H 0.447(3) 0.3563(14) 0.1790(11)
H17 H 0.960(3) 0.975(2) 0.2453(14)
H18 H 1.189(3) 0.4626(14) -0.1732(10)
H19 H 1.050(3) 0.2976(17) 0.0298(12)
H20 H 0.445(3) 0.5404(13) 0.0317(11)
H21 H 1.135(3) 0.5213(16) -0.0301(13)
H22 H 0.951(3) 0.3779(14) 0.0478(11)
H23 H 1.250(4) 0.676(2) 0.1269(14)
H24 H 1.128(2) 0.2617(14) -0.0874(9)
H25 H 1.132(3) 0.3910(16) 0.0247(11)
H26 H 0.950(3) 0.9681(18) 0.1303(13)
H27 H 0.796(3) 0.3933(19) -0.1883(13)
H28 H 0.716(3) 0.4571(15) -0.1414(13)
H29 H 0.751(3) 0.3439(14) -0.0474(11)
H30 H 0.899(2) 0.7081(15) 0.2563(11)
H31 H 1.189(3) 0.3165(17) -0.1995(13)
H32 H 1.220(3) 0.3539(13) -0.0822(10)
H33 H 0.310(3) 0.4314(15) 0.0979(11)
H34 H 0.818(3) 0.2995(16) -0.1148(15)
H35 H 0.920(3) 0.835(2) 0.3081(17)
H36 H 0.858(3) 0.2589(18) -0.0406(13)
#END
