
#######################################################################
#
#                 Cambridge Crystallographic Data Centre
#                                CCDC
#
#######################################################################
#
# If this CIF has been generated from an entry in the Cambridge
# Structural Database, then it will include bibliographic, chemical,
# crystal, experimental, refinement or atomic coordinate data resulting
# from the CCDC's data processing and validation procedures.
#
#######################################################################

data_CSD_CIF_JOKQOR
_audit_creation_date 2014-05-21
_audit_creation_method CSD-ConQuest-V1
_database_code_CSD JOKQOR
_database_code_depnum_ccdc_archive 'CCDC 977261'
_chemical_formula_sum 'C9 H8 N6 O3'
_chemical_formula_moiety
;
C9 H8 N6 O3
;
_journal_coden_Cambridge 24
_journal_volume 55
_journal_year 2014
_journal_page_first 1879
_journal_name_full 'Tetrahedron Lett. '
loop_
_publ_author_name
"P.Mani"
"Ashawani Kumar Singh"
"S.K.Awasthi"
_chemical_name_systematic
;
N-(2-nitro-4-(1H-tetrazol-5-yl)phenyl)acetamide
;
_cell_volume   1025.407
_exptl_crystal_density_diffrn 1.608
_diffrn_ambient_temperature 293
#These two values have been output from a single CSD field.
_refine_ls_R_factor_gt 0.0536
_refine_ls_wR_factor_gt 0.0536
_symmetry_cell_setting monoclinic
_symmetry_space_group_name_H-M 'P 21/n'
_symmetry_Int_Tables_number 14
loop_
_symmetry_equiv_pos_site_id
_symmetry_equiv_pos_as_xyz
1 x,y,z
2 1/2-x,1/2+y,1/2-z
3 -x,-y,-z
4 -1/2+x,-1/2-y,-1/2+z
_cell_length_a 8.350(2)
_cell_length_b 8.9383(17)
_cell_length_c 13.990(4)
_cell_angle_alpha 90
_cell_angle_beta 100.87(2)
_cell_angle_gamma 90
_cell_formula_units_Z 4
loop_
_atom_type_symbol
_atom_type_radius_bond
C 0.68
H 0.23
N 0.68
O 0.68
loop_
_atom_site_label
_atom_site_type_symbol
_atom_site_fract_x
_atom_site_fract_y
_atom_site_fract_z
O1 O 0.1866(2) -0.22168(17) 0.15165(13)
O2 O 0.69423(19) 0.04307(18) 0.20991(13)
O3 O 0.6364(2) 0.27179(18) 0.23458(12)
N1 N 0.6068(2) 0.1530(2) 0.19257(12)
N2 N 0.4350(2) -0.12945(18) 0.14333(13)
H1 H 0.53820 -0.14590 0.15690
N3 N 0.0294(2) 0.5751(2) -0.12072(13)
N4 N 0.2678(2) 0.5429(2) -0.02807(14)
N5 N 0.0503(2) 0.43031(18) -0.09767(12)
H2 H -0.01930 0.36030 -0.11630
N6 N 0.1609(3) 0.6414(2) -0.07853(14)
C1 C 0.2608(3) 0.2709(2) 0.00210(14)
C2 C 0.1959(2) 0.4120(2) -0.04145(14)
C3 C 0.2445(3) 0.0042(2) 0.02080(15)
H3 H 0.19220 -0.08570 0.00150
C4 C 0.4178(3) -0.3646(2) 0.2248(2)
H4 H 0.53370 -0.35370 0.23140
H5 H 0.38350 -0.45520 0.19010
H6 H 0.38970 -0.36870 0.28820
C5 C 0.3819(3) 0.0039(2) 0.09502(14)
C6 C 0.4019(3) 0.2719(2) 0.07273(14)
H7 H 0.45740 0.36110 0.08950
C7 C 0.1851(3) 0.1342(2) -0.02417(15)
H8 H 0.09270 0.13120 -0.07310
C8 C 0.3347(3) -0.2344(2) 0.17010(15)
C9 C 0.4593(2) 0.1408(2) 0.11782(14)
#END
