
#######################################################################
#
#                 Cambridge Crystallographic Data Centre
#                                CCDC
#
#######################################################################
#
# If this CIF has been generated from an entry in the Cambridge
# Structural Database, then it will include bibliographic, chemical,
# crystal, experimental, refinement or atomic coordinate data resulting
# from the CCDC's data processing and validation procedures.
#
#######################################################################

data_CSD_CIF_JOKSOS
_audit_creation_date 2009-02-06
_audit_creation_method CSD-ConQuest-V1
_database_code_CSD JOKSOS
_database_code_depnum_ccdc_archive 'CCDC 619079'
_chemical_formula_sum 'C12 H11 N4 O2'
_chemical_formula_moiety
;
C12 H11 N4 O2
;
_journal_coden_Cambridge 115
_journal_volume 81
_journal_year 2007
_journal_page_first 2284
_journal_name_full 'Zh.Fiz.Khim.(Russ.)(Russ.J.Phys.Chem) '
loop_
_publ_author_name
"E.V.Tret'yakov"
"G.V.Romanenko"
"V.N.Ikorskii"
"E.V.Gorelik"
"D.V.Stas'"
"V.I.Ovcharenko"
"R.Z.Sagdeev"
_chemical_name_systematic
;
2-(1-Ethyl-1H-pyrazol-4-yl)-1H-benzo(d)imidazol-1-oxyl-3-oxide
;
_chemical_melting_point ?
_cell_volume    288.036
_exptl_crystal_colour 'dark green'
_exptl_crystal_density_diffrn 1.402
_exptl_special_details
;
Decomposes above 403.15K

;
_exptl_crystal_description 'needle'
_exptl_crystal_preparation 'dichloromethane/n-heptane'
_diffrn_ambient_temperature 295
#These two values have been output from a single CSD field.
_refine_ls_R_factor_gt 0.0411
_refine_ls_wR_factor_gt 0.0411
_symmetry_cell_setting triclinic
_symmetry_space_group_name_H-M 'P 1'
_symmetry_Int_Tables_number 1
loop_
_symmetry_equiv_pos_site_id
_symmetry_equiv_pos_as_xyz
1 x,y,z
_cell_length_a 4.4863(18)
_cell_length_b 7.510(3)
_cell_length_c 8.847(3)
_cell_angle_alpha 93.174(6)
_cell_angle_beta 102.290(6)
_cell_angle_gamma 97.026(6)
_cell_formula_units_Z 1
loop_
_atom_type_symbol
_atom_type_radius_bond
C 0.68
H 0.23
N 0.68
O 0.68
loop_
_atom_site_label
_atom_site_type_symbol
_atom_site_fract_x
_atom_site_fract_y
_atom_site_fract_z
O1 O 0.98190 0.84670 0.84480
N1 N 0.9861(9) 1.0131(5) 0.8889(4)
C1 C 0.7830(11) 1.1267(6) 0.8127(5)
C2 C 0.5432(12) 1.0938(7) 0.6833(6)
H1 H 0.510(9) 0.982(5) 0.636(4)
C3 C 0.3913(12) 1.2382(7) 0.6388(6)
H2 H 0.226(9) 1.216(5) 0.552(4)
C4 C 0.4744(12) 1.4057(7) 0.7205(6)
H3 H 0.356(9) 1.500(5) 0.681(4)
C5 C 0.7163(11) 1.4391(7) 0.8500(6)
H4 H 0.801(10) 1.565(6) 0.904(5)
C6 C 0.8640(11) 1.2937(6) 0.8939(5)
N2 N 1.1134(10) 1.2780(5) 1.0166(5)
O2 O 1.2515(8) 1.4090(5) 1.1169(4)
C7 C 1.1830(11) 1.1062(5) 1.0129(5)
C8 C 1.4204(10) 1.0375(5) 1.1204(5)
C9 C 1.6176(12) 1.1291(7) 1.2546(6)
H5 H 1.607(11) 1.240(7) 1.296(5)
N3 N 1.8058(11) 1.0239(6) 1.3291(5)
N4 N 1.7305(11) 0.8647(6) 1.2435(5)
C10 C 1.8914(14) 0.7110(9) 1.2935(7)
H6 H 1.831(9) 0.614(6) 1.201(5)
H7 H 2.116(13) 0.753(6) 1.303(6)
C11 C 1.8103(16) 0.6401(8) 1.4342(7)
H8 H 1.917(13) 0.531(8) 1.462(6)
H9 H 1.867(12) 0.732(7) 1.514(6)
H10 H 1.596(14) 0.603(7) 1.420(5)
C12 C 1.5038(11) 0.8668(7) 1.1175(6)
H11 H 1.438(9) 0.777(5) 1.049(4)
#END
