
#######################################################################
#
#                 Cambridge Crystallographic Data Centre
#                                CCDC
#
#######################################################################
#
# If this CIF has been generated from an entry in the Cambridge
# Structural Database, then it will include bibliographic, chemical,
# crystal, experimental, refinement or atomic coordinate data resulting
# from the CCDC's data processing and validation procedures.
#
#######################################################################

data_CSD_CIF_JOKTOS
_audit_creation_date 1992-10-02
_audit_creation_method CSD-ConQuest-V1
_database_code_CSD JOKTOS
_chemical_formula_sum 'C15 H8 N4 O7'
_chemical_formula_moiety
;
C15 H8 N4 O7
;
_journal_coden_Cambridge 388
_journal_volume 27
_journal_year 1991
_journal_page_first 192
_journal_name_full 'Zh.Org.Khim.(Russ.)(Russ.J.Org.Chem.) '
loop_
_publ_author_name
"V.N.Knyazev"
"V.N.Drozd"
"N.S.Patalakha"
"D.S.Yufit"
"Yu.T.Struchkov"
_chemical_name_systematic
;
8-(Picroyloxy)quinoline
;
_cell_volume   2976.322
_diffrn_ambient_temperature ?
_diffrn_special_details
;
The study was carried out at room temperature,in the range 283-303K

;
_refine_special_details
;
Nitro oxygen atoms O(6) and O(7) each are disordered over two sites with 
equal occupancies.
;
#These two values have been output from a single CSD field.
_refine_ls_R_factor_gt 0.069
_refine_ls_wR_factor_gt 0.069
_symmetry_cell_setting monoclinic
_symmetry_space_group_name_H-M 'C 2/c'
_symmetry_Int_Tables_number 15
loop_
_symmetry_equiv_pos_site_id
_symmetry_equiv_pos_as_xyz
1 x,y,z
2 1/2+x,1/2+y,z
3 -x,y,1/2-z
4 1/2-x,1/2+y,1/2-z
5 -x,-y,-z
6 -1/2-x,-1/2-y,-z
7 x,-y,-1/2+z
8 -1/2+x,-1/2-y,-1/2+z
_cell_length_a 27.258(7)
_cell_length_b 8.632(3)
_cell_length_c 13.642(2)
_cell_angle_alpha 90
_cell_angle_beta 111.99(2)
_cell_angle_gamma 90
_cell_formula_units_Z 8
loop_
_atom_type_symbol
_atom_type_radius_bond
C 0.68
H 0.23
N 0.68
O 0.68
loop_
_atom_site_label
_atom_site_type_symbol
_atom_site_fract_x
_atom_site_fract_y
_atom_site_fract_z
O1 O 0.3846(1) 0.0855(5) 0.5345(3)
O2 O 0.3762(2) 0.3562(6) 0.2873(4)
O3 O 0.4141(1) 0.1389(6) 0.3541(4)
O4 O 0.1852(2) 0.2989(6) 0.1475(3)
O5 O 0.1497(2) 0.2035(8) 0.2475(5)
O6 O 0.3272(5) 0.0014(15) 0.6411(10)
O7? O 0.3300(3) -0.1045(10) 0.6013(6)
O8 O 0.2641(6) -0.1218(20) 0.5419(12)
O9? O 0.2567(2) 0.0071(8) 0.5931(5)
N1 N 0.3758(1) 0.4109(6) 0.5432(3)
N2 N 0.3786(2) 0.2331(6) 0.3324(4)
N3 N 0.1871(2) 0.2343(6) 0.2281(4)
N4 N 0.2938(2) -0.0113(6) 0.5591(4)
C1 C 0.3743(2) 0.5616(7) 0.5498(5)
C2 C 0.4188(2) 0.6600(7) 0.5812(5)
C3 C 0.4673(2) 0.5943(8) 0.6109(5)
C4 C 0.4724(2) 0.4331(7) 0.6073(4)
C5 C 0.5220(2) 0.3553(8) 0.6383(5)
C6 C 0.5240(2) 0.1986(8) 0.6339(5)
C7 C 0.4773(2) 0.1102(7) 0.5963(5)
C8 C 0.4295(2) 0.1831(7) 0.5657(4)
C9 C 0.4248(2) 0.3443(7) 0.5710(4)
C10 C 0.3387(2) 0.1218(6) 0.4546(4)
C11 C 0.3325(2) 0.1937(6) 0.3591(4)
C12 C 0.2836(2) 0.2308(6) 0.2841(4)
C13 C 0.2393(2) 0.1892(7) 0.3050(4)
C14 C 0.2428(2) 0.1091(7) 0.3926(4)
C15 C 0.2924(2) 0.0750(6) 0.4655(4)
H1 H 0.341(2) 0.608(7) 0.525(4)
H2 H 0.410(2) 0.771(6) 0.587(4)
H3 H 0.551(2) 0.427(7) 0.647(4)
H4 H 0.561(2) 0.150(6) 0.649(4)
H5 H 0.479(2) 0.000(6) 0.600(4)
H6 H 0.495(2) 0.661(6) 0.638(4)
H7 H 0.284(2) 0.289(6) 0.206(4)
H8 H 0.218(2) 0.086(7) 0.396(4)
#END
