
#######################################################################
#
#                 Cambridge Crystallographic Data Centre
#                                CCDC
#
#######################################################################
#
# If this CIF has been generated from an entry in the Cambridge
# Structural Database, then it will include bibliographic, chemical,
# crystal, experimental, refinement or atomic coordinate data resulting
# from the CCDC's data processing and validation procedures.
#
#######################################################################

data_CSD_CIF_JOKWEN
_audit_creation_date 2014-05-21
_audit_creation_method CSD-ConQuest-V1
_database_code_CSD JOKWEN
_database_code_depnum_ccdc_archive 'CCDC 959252'
_chemical_formula_sum 'C18 H16 N2 O2'
_chemical_formula_moiety
;
C18 H16 N2 O2
;
_journal_coden_Cambridge 24
_journal_volume 55
_journal_year 2014
_journal_page_first 2434
_journal_name_full 'Tetrahedron Lett. '
loop_
_publ_author_name
"L.M.Deck"
"R.T.Paine"
"E.R.Bright"
"S.Ouizem"
"D.A.Dickie"
_chemical_name_systematic
;
2-((1-oxidopyridin-4-yl)methyl)-2,3-dihydro-1H-naphtho[1,2-e][1,3]oxazine
;
_chemical_name_common
;
3,4-Dihydro-3-(4-pyridinylmethyl-N-oxide)-2H-naphth[2,1-e][1,3]oxazine
;
_cell_volume   1401.133
_exptl_crystal_colour 'colorless'
_exptl_crystal_density_diffrn 1.386
_exptl_crystal_description 'plate'
_diffrn_ambient_temperature 173
#These two values have been output from a single CSD field.
_refine_ls_R_factor_gt 0.0487
_refine_ls_wR_factor_gt 0.0487
_symmetry_cell_setting monoclinic
_symmetry_space_group_name_H-M 'P 21/c'
_symmetry_Int_Tables_number 14
loop_
_symmetry_equiv_pos_site_id
_symmetry_equiv_pos_as_xyz
1 x,y,z
2 -x,1/2+y,1/2-z
3 -x,-y,-z
4 x,-1/2-y,-1/2+z
_cell_length_a 13.9731(12)
_cell_length_b 11.0404(9)
_cell_length_c 9.1838(7)
_cell_angle_alpha 90
_cell_angle_beta 98.521(4)
_cell_angle_gamma 90
_cell_formula_units_Z 4
loop_
_atom_type_symbol
_atom_type_radius_bond
C 0.68
H 0.23
N 0.68
O 0.68
loop_
_atom_site_label
_atom_site_type_symbol
_atom_site_fract_x
_atom_site_fract_y
_atom_site_fract_z
N1 N 0.29878(12) 1.00485(16) 0.25543(18)
N2 N 0.42983(12) 1.09278(15) 0.78633(18)
O1 O 0.26109(10) 0.86499(13) 0.05236(15)
O2 O 0.45936(11) 1.14551(13) 0.91349(15)
C1 C 0.16533(14) 0.86465(18) 0.0731(2)
C2 C 0.10581(16) 0.78115(19) -0.0141(2)
H1 H 0.13230 0.73130 -0.08240
C3 C 0.01063(16) 0.77190(19) -0.0006(2)
H2 H -0.02910 0.71560 -0.06010
C4 C -0.03036(15) 0.84517(18) 0.1011(2)
C5 C -0.12871(16) 0.8350(2) 0.1199(2)
H3 H -0.16860 0.77670 0.06410
C6 C -0.16741(16) 0.9076(2) 0.2170(2)
H4 H -0.23340 0.89870 0.22920
C7 C -0.10993(16) 0.9947(2) 0.2981(2)
H5 H -0.13740 1.04610 0.36390
C8 C -0.01405(15) 1.00679(19) 0.2838(2)
H6 H 0.02400 1.06650 0.34000
C9 C 0.02921(14) 0.93165(18) 0.1865(2)
C10 C 0.12958(14) 0.93973(17) 0.1718(2)
C11 C 0.19583(14) 1.02979(19) 0.2599(2)
H7 H 0.18020 1.11220 0.22090
H8 H 0.18400 1.02810 0.36350
C12 C 0.31312(15) 0.9731(2) 0.1098(2)
H9 H 0.38310 0.96030 0.10870
H10 H 0.29240 1.04190 0.04330
C13 C 0.34045(15) 0.91930(19) 0.3692(2)
H11 H 0.39820 0.88070 0.33870
H12 H 0.29270 0.85490 0.37970
C14 C 0.36893(14) 0.98121(18) 0.5163(2)
C15 C 0.37666(15) 1.10670(19) 0.5291(2)
H13 H 0.36090 1.15580 0.44400
C16 C 0.40678(14) 1.16029(19) 0.6628(2)
H14 H 0.41160 1.24600 0.66890
C17 C 0.42405(15) 0.96971(19) 0.7773(2)
H15 H 0.44140 0.92190 0.86310
C18 C 0.39325(15) 0.91447(19) 0.6445(2)
H16 H 0.38850 0.82870 0.64040
#END
