
#######################################################################
#
#                 Cambridge Crystallographic Data Centre
#                                CCDC
#
#######################################################################
#
# If this CIF has been generated from an entry in the Cambridge
# Structural Database, then it will include bibliographic, chemical,
# crystal, experimental, refinement or atomic coordinate data resulting
# from the CCDC's data processing and validation procedures.
#
#######################################################################

data_CSD_CIF_JOLDIX
_audit_creation_date 1992-10-02
_audit_creation_method CSD-ConQuest-V1
_database_code_CSD JOLDIX
_database_code_depnum_ccdc_archive 'CCDC 1188638'
_chemical_formula_sum 'C25 H22 N2 O8'
_chemical_formula_moiety
;
C25 H22 N2 O8
;
_journal_coden_Cambridge 182
_journal_year 1992
_journal_page_first 130
_journal_name_full 'Chem.Commun. '
loop_
_publ_author_name
"A.K.Mallik"
"M.M.Saha"
"U.K.Mallik"
"S.Goswami"
"D.R.McPhail"
"A.T.McPhail"
_chemical_name_systematic
;
2,3,7-Trimethoxy-3-(p-formylphenylamino)-4'-nitroflavanone
;
_chemical_melting_point 526.15
_cell_volume   1161.221
_exptl_crystal_density_diffrn 1.368
_exptl_special_details
;
Melting point range 526.15-527.15K

;
_diffrn_ambient_temperature ?
_diffrn_special_details
;
The study was carried out at room temperature,in the range 283-303K

;
#These two values have been output from a single CSD field.
_refine_ls_R_factor_gt 0.048
_refine_ls_wR_factor_gt 0.048
_symmetry_cell_setting triclinic
_symmetry_space_group_name_H-M 'P -1'
_symmetry_Int_Tables_number 2
loop_
_symmetry_equiv_pos_site_id
_symmetry_equiv_pos_as_xyz
1 x,y,z
2 -x,-y,-z
_cell_length_a 11.117(1)
_cell_length_b 13.110(1)
_cell_length_c 8.937(1)
_cell_angle_alpha 91.88(1)
_cell_angle_beta 112.45(1)
_cell_angle_gamma 75.27(1)
_cell_formula_units_Z 2
loop_
_atom_type_symbol
_atom_type_radius_bond
C 0.68
H 0.23
N 0.68
O 0.68
loop_
_atom_site_label
_atom_site_type_symbol
_atom_site_fract_x
_atom_site_fract_y
_atom_site_fract_z
O1 O 0.2800(2) 0.0127(1) -0.1858(2)
C1 C 0.2033(2) 0.0588(2) -0.0916(3)
C2 C 0.2539(2) -0.0101(2) 0.0696(3)
C3 C 0.2261(2) -0.1180(2) 0.0204(3)
C4 C 0.2641(2) -0.1596(2) -0.1142(3)
C5 C 0.2703(3) -0.2638(2) -0.1548(3)
C6 C 0.3034(3) -0.3026(2) -0.2838(4)
C7 C 0.3292(2) -0.2334(2) -0.3762(3)
C8 C 0.3225(2) -0.1287(2) -0.3404(3)
C9 C 0.2898(2) -0.0924(2) -0.2108(3)
O2 O 0.0685(2) 0.0546(1) -0.1689(2)
C10 C -0.0021(3) 0.1023(2) -0.3311(3)
O3 O 0.3949(2) -0.0230(1) 0.1406(2)
C11 C 0.4634(3) -0.0913(3) 0.2863(3)
O4 O 0.1797(2) -0.1651(1) 0.0919(2)
O5 O 0.3612(2) -0.2606(2) -0.5075(2)
C12 C 0.3536(4) -0.3621(3) -0.5672(4)
C13 C 0.2183(2) 0.1705(2) -0.0699(3)
C14 C 0.1125(2) 0.2509(2) -0.0607(3)
C15 C 0.1286(3) 0.3522(2) -0.0301(4)
C16 C 0.2509(3) 0.3700(2) -0.0065(4)
C17 C 0.3573(2) 0.2922(2) -0.0170(4)
C18 C 0.3399(2) 0.1917(2) -0.0486(3)
N1 N 0.2705(3) 0.4759(2) 0.0327(4)
O6 O 0.1744(3) 0.5467(2) 0.0228(5)
O7 O 0.3810(3) 0.4892(2) 0.0712(5)
C19 C 0.1948(2) 0.1196(2) 0.2645(3)
C20 C 0.3048(2) 0.1652(2) 0.3111(3)
C21 C 0.3053(3) 0.2527(2) 0.3984(4)
C22 C 0.1989(3) 0.2985(2) 0.4469(3)
C23 C 0.0907(3) 0.2529(3) 0.4024(4)
C24 C 0.0886(3) 0.1651(2) 0.3145(3)
N2 N 0.1854(2) 0.0320(2) 0.1755(2)
C25 C 0.1974(4) 0.3905(3) 0.5425(5)
O8 O 0.2807(4) 0.4373(3) 0.5867(4)
H1 H 0.259(3) -0.310(2) -0.089(4)
H2 H 0.311(3) -0.382(2) -0.304(3)
H3 H 0.335(3) -0.080(2) -0.414(3)
H4 H -0.098(4) 0.095(3) -0.380(5)
H5 H 0.002(4) 0.174(3) -0.343(4)
H6 H 0.051(4) 0.070(3) -0.394(5)
H7 H 0.562(3) -0.090(3) 0.325(4)
H8 H 0.426(3) -0.062(3) 0.363(4)
H9 H 0.459(3) -0.164(3) 0.258(4)
H10 H 0.370(4) -0.362(3) -0.661(4)
H11 H 0.422(4) -0.410(3) -0.470(5)
H12 H 0.259(5) -0.371(4) -0.601(6)
H13 H 0.028(3) 0.233(2) -0.072(4)
H14 H 0.056(3) 0.410(2) -0.021(4)
H15 H 0.445(3) 0.307(2) 0.001(4)
H16 H 0.411(2) 0.138(2) -0.052(3)
H17 H 0.378(3) 0.139(2) 0.275(3)
H18 H 0.371(3) 0.286(2) 0.435(3)
H19 H 0.015(3) 0.283(3) 0.437(4)
H20 H 0.008(3) 0.131(2) 0.275(3)
H21 H 0.124(3) 0.008(2) 0.160(3)
H22 H 0.124(2) 0.441(2) 0.584(3)
#END
