
#######################################################################
#
#                 Cambridge Crystallographic Data Centre
#                                CCDC
#
#######################################################################
#
# If this CIF has been generated from an entry in the Cambridge
# Structural Database, then it will include bibliographic, chemical,
# crystal, experimental, refinement or atomic coordinate data resulting
# from the CCDC's data processing and validation procedures.
#
#######################################################################

data_CSD_CIF_JOLNED
_audit_creation_date 1992-10-02
_audit_creation_method CSD-ConQuest-V1
_database_code_CSD JOLNED
_chemical_formula_sum 'C8 H10 N4 O2'
_chemical_formula_moiety
;
C8 H10 N4 O2
;
_journal_coeditor_code "IUCr LI0113"
_journal_coden_Cambridge 622
_journal_volume 48
_journal_year 1992
_journal_page_first 213
_journal_name_full 'Acta Crystallogr.,Sect.B:Struct.Sci. '
loop_
_publ_author_name
"S.Neidle"
"D.E.V.Wilman"
_chemical_name_systematic
;
3,3-Dimethyl-1-(4-nitrophenyl)triazene
;
_cell_volume    464.712
_exptl_crystal_colour 'colorless'
_exptl_crystal_density_diffrn 1.388
_diffrn_ambient_temperature ?
_diffrn_special_details
;
The study was carried out at room temperature,in the range 283-303K

;
#These two values have been output from a single CSD field.
_refine_ls_R_factor_gt 0.063
_refine_ls_wR_factor_gt 0.063
_symmetry_cell_setting triclinic
_symmetry_space_group_name_H-M 'P -1'
_symmetry_Int_Tables_number 2
loop_
_symmetry_equiv_pos_site_id
_symmetry_equiv_pos_as_xyz
1 x,y,z
2 -x,-y,-z
_cell_length_a 5.966(1)
_cell_length_b 7.681(1)
_cell_length_c 10.483(1)
_cell_angle_alpha 103.29(1)
_cell_angle_beta 93.08(1)
_cell_angle_gamma 94.61(1)
_cell_formula_units_Z 2
loop_
_atom_type_symbol
_atom_type_radius_bond
C 0.68
H 0.23
N 0.68
O 0.68
loop_
_atom_site_label
_atom_site_type_symbol
_atom_site_fract_x
_atom_site_fract_y
_atom_site_fract_z
O1 O 1.3771(4) 0.5123(4) 1.2255(3)
O2 O 1.0481(5) 0.4880(4) 1.2976(2)
N1 N 0.8725(4) 0.0022(3) 0.7195(2)
N2 N 0.6610(4) -0.0497(3) 0.7047(2)
N3 N 0.5949(4) -0.1584(3) 0.5912(2)
N4 N 1.1791(5) 0.4540(3) 1.2109(2)
C1 C 0.9337(5) 0.1167(3) 0.8448(2)
C2 C 0.7929(5) 0.1522(4) 0.9482(3)
C3 C 0.8708(5) 0.2634(4) 1.0671(3)
C4 C 1.0933(5) 0.3382(3) 1.0842(2)
C5 C 1.2349(5) 0.3047(4) 0.9841(3)
C6 C 1.1551(5) 0.1950(4) 0.8655(3)
C7 C 0.3622(6) -0.2303(5) 0.5740(3)
C8 C 0.7529(6) -0.2236(5) 0.4944(3)
H1 H 0.624(6) 0.095(5) 0.938(4)
H2 H 0.780(6) 0.291(5) 1.129(4)
H3 H 1.380(5) 0.360(4) 0.999(3)
H4 H 1.234(5) 0.169(4) 0.800(3)
H5 H 0.90000 -0.16100 0.52200
H6 H 0.76400 -0.34900 0.48700
H7 H 0.70600 -0.20500 0.41100
H8 H 0.28200 -0.17400 0.64400
H9 H 0.29500 -0.21400 0.49300
H10 H 0.35300 -0.35700 0.56900
#END
