
#######################################################################
#
#                 Cambridge Crystallographic Data Centre
#                                CCDC
#
#######################################################################
#
# If this CIF has been generated from an entry in the Cambridge
# Structural Database, then it will include bibliographic, chemical,
# crystal, experimental, refinement or atomic coordinate data resulting
# from the CCDC's data processing and validation procedures.
#
#######################################################################

data_CSD_CIF_JONHEB
_audit_creation_date 2014-10-17
_audit_creation_method CSD-ConQuest-V1
_database_code_CSD JONHEB
_database_code_depnum_ccdc_archive 'CCDC 1012430'
_chemical_formula_sum 'C15 H15 N1 O8'
_chemical_formula_moiety
;
C15 H15 N1 O8
;
_journal_coden_Cambridge 182
_journal_volume 50
_journal_year 2014
_journal_page_first 14881
_journal_name_full 'Chem.Commun. '
loop_
_publ_author_name
"P.V.Chouthaiwale"
"F.Tanaka"
_chemical_name_systematic
;
dimethyl 2-hydroxy-4-(4-nitrophenyl)-3,4-dihydro-2H-pyran-2,6-dicarboxylate
;
_cell_volume    758.945
_exptl_crystal_colour 'colorless'
_exptl_crystal_density_diffrn 1.476
_exptl_crystal_description 'block'
_diffrn_ambient_temperature 93
#These two values have been output from a single CSD field.
_refine_ls_R_factor_gt 0.0463
_refine_ls_wR_factor_gt 0.0463
_symmetry_cell_setting triclinic
_symmetry_space_group_name_H-M 'P -1'
_symmetry_Int_Tables_number 2
loop_
_symmetry_equiv_pos_site_id
_symmetry_equiv_pos_as_xyz
1 x,y,z
2 -x,-y,-z
_cell_length_a 7.86237(14)
_cell_length_b 8.12348(15)
_cell_length_c 13.2849(2)
_cell_angle_alpha 75.630(5)
_cell_angle_beta 74.174(5)
_cell_angle_gamma 70.759(5)
_cell_formula_units_Z 2
loop_
_atom_type_symbol
_atom_type_radius_bond
C 0.68
H 0.23
N 0.68
O 0.68
loop_
_atom_site_label
_atom_site_type_symbol
_atom_site_fract_x
_atom_site_fract_y
_atom_site_fract_z
O1 O 0.56225(17) 0.11598(18) 0.10354(11)
O2 O 0.21467(18) 0.48488(18) 0.01640(11)
O3 O 0.48211(18) -0.12530(18) 0.21983(11)
O4 O 0.48357(18) 0.33376(19) -0.07362(11)
O5 O 0.90271(19) -0.0372(2) 0.18897(14)
O6 O 0.1398(2) 0.6541(2) 0.67684(12)
O7 O 0.2435(3) 0.8290(2) 0.54083(13)
O8 O 0.8449(2) -0.2329(3) 0.12316(19)
N1 N 0.2058(2) 0.6894(3) 0.58241(14)
C1 C 0.2424(3) 0.5576(3) 0.51535(16)
C2 C 0.3356(3) 0.1894(3) 0.31159(15)
C3 C 0.5891(3) -0.0108(3) 0.19937(16)
C4 C 0.3521(3) 0.4752(3) 0.34468(16)
C5 C 0.3016(3) 0.3185(3) 0.38506(15)
C6 C 0.1938(3) 0.4027(3) 0.55877(16)
C7 C 0.4006(3) 0.2500(3) 0.11405(16)
C8 C 0.2230(3) 0.2833(3) 0.49280(16)
C9 C 0.2902(3) 0.2866(3) 0.20589(15)
C10 C 0.3230(3) 0.5965(3) 0.40897(16)
C11 C 0.5393(3) 0.0805(3) 0.29426(16)
C12 C 0.1769(3) 0.6015(3) -0.08195(17)
C13 C 0.7947(3) -0.1093(3) 0.16731(17)
C14 C 1.0996(3) -0.1142(4) 0.1535(2)
C15 C 0.3718(3) 0.3578(3) 0.00862(16)
H1 H 0.51518 -0.18390 0.17041
H2 H 0.25657 0.10757 0.34488
H3 H 0.40758 0.49925 0.27158
H4 H 0.14145 0.37809 0.63234
H5 H 0.18899 0.17649 0.52139
H6 H 0.17775 0.37809 0.20477
H7 H 0.35726 0.70332 0.38100
H8 H 0.61826 0.15948 0.28225
H9 H 0.56174 -0.00925 0.35854
H10 H 0.17258 0.53218 -0.13148
H11 H 0.27454 0.66038 -0.11357
H12 H 0.05818 0.69079 -0.06723
H13 H 1.13310 -0.24059 0.18390
H14 H 1.16798 -0.05443 0.17696
H15 H 1.13029 -0.09947 0.07579
#END
