
#######################################################################
#
#                 Cambridge Crystallographic Data Centre
#                                CCDC
#
#######################################################################
#
# If this CIF has been generated from an entry in the Cambridge
# Structural Database, then it will include bibliographic, chemical,
# crystal, experimental, refinement or atomic coordinate data resulting
# from the CCDC's data processing and validation procedures.
#
#######################################################################

data_CSD_CIF_JONHIF
_audit_creation_date 2014-10-17
_audit_creation_method CSD-ConQuest-V1
_database_code_CSD JONHIF
_database_code_depnum_ccdc_archive 'CCDC 1012431'
_chemical_formula_sum 'C18 H22 N2 O10'
_chemical_formula_moiety
;
C18 H22 N2 O10
;
_journal_coden_Cambridge 182
_journal_volume 50
_journal_year 2014
_journal_page_first 14881
_journal_name_full 'Chem.Commun. '
loop_
_publ_author_name
"P.V.Chouthaiwale"
"F.Tanaka"
_chemical_name_systematic
;
diethyl 1,3-dihydroxy-2-nitro-5-(4-nitrophenyl)cyclohexane-1,3-dicarboxylate
;
_cell_volume    978.719
_exptl_crystal_colour 'colorless'
_exptl_crystal_density_diffrn 1.447
_exptl_crystal_description 'block'
_diffrn_ambient_temperature 93
_refine_special_details
;
C20B,C21B,C22B,C24B and C20A,C21A,C22A,C24A disordered over two sites with 
occupancies 0.529:0.471; O13A,O8A and O13B,O8B disordered over two sites with 
occupancies 0.579:0.421.
;
#These two values have been output from a single CSD field.
_refine_ls_R_factor_gt 0.0575
_refine_ls_wR_factor_gt 0.0575
_symmetry_cell_setting triclinic
_symmetry_space_group_name_H-M 'P -1'
_symmetry_Int_Tables_number 2
loop_
_symmetry_equiv_pos_site_id
_symmetry_equiv_pos_as_xyz
1 x,y,z
2 -x,-y,-z
_cell_length_a 5.36680(16)
_cell_length_b 9.7102(3)
_cell_length_c 19.0151(6)
_cell_angle_alpha 85.986(6)
_cell_angle_beta 84.364(6)
_cell_angle_gamma 83.867(6)
_cell_formula_units_Z 2
loop_
_atom_type_symbol
_atom_type_radius_bond
C 0.68
H 0.23
N 0.68
O 0.68
loop_
_atom_site_label
_atom_site_type_symbol
_atom_site_fract_x
_atom_site_fract_y
_atom_site_fract_z
O1 O 1.1900(3) -0.18257(15) 0.09493(8)
O2 O 0.8250(3) 0.36380(14) 0.25263(9)
O3 O 1.4077(3) -0.08282(14) 0.19553(9)
O4 O 1.3383(3) 0.12952(17) 0.08459(9)
O5 O 0.8487(3) -0.02799(16) 0.10568(8)
O6 O 1.4143(3) 0.16460(17) 0.26929(13)
O7 O 0.6319(10) -0.4780(4) 0.5768(5)
O8 O 1.1814(4) 0.41316(19) 0.29116(17)
O9 O 0.3366(8) -0.3099(5) 0.5731(5)
O10 O 1.2391(5) 0.32137(19) 0.13534(15)
N1 N 0.5547(3) -0.35934(16) 0.55318(10)
N2 N 1.2377(4) 0.19646(19) 0.13312(13)
C1 C 1.0782(5) -0.0581(2) 0.32506(12)
C2 C 1.0569(5) 0.3340(2) 0.26942(15)
C3 C 1.0961(4) 0.1228(2) 0.19509(12)
C4 C 1.0476(4) -0.0794(2) 0.12500(11)
C5 C 1.0167(5) 0.0991(2) 0.32662(13)
C6 C 0.6917(5) -0.2833(3) 0.49707(13)
C7 C 1.0987(5) -0.2308(3) 0.03184(12)
C8 C 1.1523(4) 0.1789(2) 0.26444(14)
C9 C 0.7234(5) 0.5110(2) 0.25319(15)
C10 C 1.2608(5) -0.3608(3) 0.01313(14)
C11 C 0.9433(5) -0.1352(2) 0.38688(12)
C12 C 0.7092(9) 0.5695(3) 0.18165(18)
C13 C 0.7856(15) -0.0737(6) 0.4410(3)
C14 C 0.8478(8) -0.3597(4) 0.4467(2)
C15 C 0.9704(8) -0.2824(4) 0.3932(2)
C16 C 1.0055(4) -0.1051(2) 0.25486(11)
C17 C 0.6662(15) -0.1497(6) 0.4962(3)
C18 C 1.1525(4) -0.0359(2) 0.19122(11)
H1 H 1.26368 -0.08074 0.32704
H2 H 0.91232 0.14631 0.19029
H3 H 1.46016 0.24112 0.27813
H4 H 1.06459 0.12984 0.37154
H5 H 0.83276 0.12202 0.32563
H6 H 1.11075 -0.15924 -0.00776
H7 H 0.92068 -0.24984 0.04161
H8 H 0.55351 0.51889 0.27899
H9 H 0.83329 0.56313 0.27805
H10 H 1.24233 -0.43183 0.05198
H11 H 1.43715 -0.34124 0.00525
H12 H 1.20905 -0.39435 -0.03009
H13 H 0.61369 0.51237 0.15579
H14 H 0.87952 0.57179 0.15800
H15 H 0.62477 0.66404 0.18255
H16 H 0.75862 0.02464 0.43994
H17 H 0.86741 -0.45829 0.44944
H18 H 1.07937 -0.33042 0.35860
H19 H 1.04077 -0.20717 0.25382
H20 H 0.82285 -0.08102 0.25166
H21 H 0.56614 -0.10364 0.53324
H22 H 1.49286 -0.05342 0.15923
O11? O 0.6029(18) -0.48833(19) 0.5565(4)
O12? O 0.4018(15) -0.3046(7) 0.5995(3)
C19? C 0.6892(10) -0.1051(6) 0.4012(4)
C20? C 0.9461(12) -0.3029(7) 0.4844(3)
C21? C 1.0748(10) -0.2304(6) 0.4301(3)
C22? C 0.5579(11) -0.1751(6) 0.4549(4)
H23? H 0.60248 -0.03421 0.37321
H24? H 1.03826 -0.36855 0.51388
H25? H 1.25293 -0.24590 0.42264
H26? H 0.38158 -0.15304 0.46450
#END
