
#######################################################################
#
#                 Cambridge Crystallographic Data Centre
#                                CCDC
#
#######################################################################
#
# If this CIF has been generated from an entry in the Cambridge
# Structural Database, then it will include bibliographic, chemical,
# crystal, experimental, refinement or atomic coordinate data resulting
# from the CCDC's data processing and validation procedures.
#
#######################################################################

data_CSD_CIF_JONPUZ
_audit_creation_date 2014-10-20
_audit_creation_method CSD-ConQuest-V1
_database_code_CSD JONPUZ
_database_code_depnum_ccdc_archive 'CCDC 1029831'
_chemical_formula_sum 'C8 H7 N1 O4'
_chemical_formula_moiety
;
C8 H7 N1 O4
;
_journal_coden_Cambridge 1078
_journal_year 2014
_journal_name_full 'CSD Communication(Private Communication) '
loop_
_publ_author_name
"H.Gardarsson"
"B.Schweizer"
"F.Diederich"
_chemical_name_systematic
;
3-methyl-2-nitrobenzoic acid
;
_chemical_name_common
;
2-Nitrotoluic acid
;
_chemical_melting_point 488
_cell_volume    388.662
_exptl_crystal_colour 'colorless'
_exptl_crystal_density_diffrn 1.548
_exptl_special_details
;
Melting point range 488-491K

;
_exptl_crystal_description 'plate'
_exptl_crystal_preparation 'ethanol'
_diffrn_ambient_temperature 100
#These two values have been output from a single CSD field.
_refine_ls_R_factor_gt 0.0448
_refine_ls_wR_factor_gt 0.0448
_symmetry_cell_setting triclinic
_symmetry_space_group_name_H-M 'P -1'
_symmetry_Int_Tables_number 2
loop_
_symmetry_equiv_pos_site_id
_symmetry_equiv_pos_as_xyz
1 x,y,z
2 -x,-y,-z
_cell_length_a 6.0832(12)
_cell_length_b 6.8221(13)
_cell_length_c 9.7917(18)
_cell_angle_alpha 90.777(8)
_cell_angle_beta 91.609(8)
_cell_angle_gamma 106.848(7)
_cell_formula_units_Z 2
loop_
_atom_type_symbol
_atom_type_radius_bond
C 0.68
H 0.23
N 0.68
O 0.68
loop_
_atom_site_label
_atom_site_type_symbol
_atom_site_fract_x
_atom_site_fract_y
_atom_site_fract_z
O1 O -0.19361(19) 1.24850(18) -0.00226(12)
H1 H -0.169(5) 1.372(5) -0.043(3)
O2 O 0.11752(19) 1.40263(17) 0.12807(12)
O3 O 0.2904(2) 1.29096(19) 0.39951(13)
O4 O 0.45710(19) 1.19605(18) 0.22905(13)
N1 N 0.2909(2) 1.1840(2) 0.29904(14)
C1 C -0.0797(3) 1.0522(2) 0.16484(16)
C2 C 0.0770(3) 1.0190(2) 0.26247(16)
C3 C 0.0494(3) 0.8350(2) 0.32791(16)
C4 C -0.1506(3) 0.6787(3) 0.29299(18)
H2 H -0.176(3) 0.550(3) 0.3356(18)
C5 C -0.3103(3) 0.7054(3) 0.19731(18)
H3 H -0.436(3) 0.595(3) 0.1738(19)
C6 C -0.2746(3) 0.8908(3) 0.13307(18)
H4 H -0.374(3) 0.917(3) 0.0697(18)
C7 C -0.0416(3) 1.2510(2) 0.09589(16)
C8 C 0.2225(3) 0.8019(3) 0.4301(2)
H5 H 0.376(4) 0.852(3) 0.397(2)
H6 H 0.214(4) 0.868(4) 0.514(3)
H7 H 0.198(4) 0.671(4) 0.442(2)
#END
