
#######################################################################
#
#                 Cambridge Crystallographic Data Centre
#                                CCDC
#
#######################################################################
#
# If this CIF has been generated from an entry in the Cambridge
# Structural Database, then it will include bibliographic, chemical,
# crystal, experimental, refinement or atomic coordinate data resulting
# from the CCDC's data processing and validation procedures.
#
#######################################################################

data_CSD_CIF_JOPNUX
_audit_creation_date 1992-11-02
_audit_creation_method CSD-ConQuest-V1
_database_code_CSD JOPNUX
_chemical_formula_sum 'C12 H17 N3 O4'
_chemical_formula_moiety
;
C12 H17 N3 O4
;
_journal_coden_Cambridge 35
_journal_volume 57
_journal_year 1992
_journal_page_first 1625
_journal_name_full 'J.Org.Chem. '
loop_
_publ_author_name
"R.A.Bartsch"
"T.W.Robison"
"D.H.Desai"
"J.Krzykawski"
"N.K.Dalley"
"Weiming Jiang"
_chemical_name_systematic
;
4,10-Diaza-5'-nitro-2,3-dibenzo-12-crown-4
;
_chemical_melting_point 411.15
_cell_volume    639.667
_exptl_crystal_colour 'yellow'
_exptl_crystal_density_diffrn 1.39
_exptl_special_details
;
Melting point range 411.15-412.15K

;
_diffrn_ambient_temperature ?
_diffrn_special_details
;
The study was carried out at room temperature,in the range 283-303K

;
#These two values have been output from a single CSD field.
_refine_ls_R_factor_gt 0.065
_refine_ls_wR_factor_gt 0.065
_symmetry_cell_setting triclinic
_symmetry_space_group_name_H-M 'P -1'
_symmetry_Int_Tables_number 2
loop_
_symmetry_equiv_pos_site_id
_symmetry_equiv_pos_as_xyz
1 x,y,z
2 -x,-y,-z
_cell_length_a 8.500(3)
_cell_length_b 9.262(4)
_cell_length_c 9.738(3)
_cell_angle_alpha 64.89(2)
_cell_angle_beta 78.98(3)
_cell_angle_gamma 67.21(3)
_cell_formula_units_Z 2
loop_
_atom_type_symbol
_atom_type_radius_bond
C 0.68
H 0.23
N 0.68
O 0.68
loop_
_atom_site_label
_atom_site_type_symbol
_atom_site_fract_x
_atom_site_fract_y
_atom_site_fract_z
C1 C 0.1326(4) 0.1874(4) 0.9850(3)
C2 C 0.1592(5) 0.0402(4) 1.1132(4)
H1 H 0.05390 0.00460 1.13870
C3 C 0.2991(5) -0.0221(4) 1.2010(4)
H2 H 0.31670 -0.12340 1.30680
C4 C 0.4103(4) 0.0659(4) 1.1559(4)
C5 C 0.3881(4) 0.2139(4) 1.0253(3)
H3 H 0.48060 0.26390 1.00130
C6 C 0.2479(4) 0.2772(4) 0.9367(3)
N1 N 0.5592(4) 0.0041(4) 1.2465(3)
O1 O 0.5871(4) -0.1355(4) 1.3527(3)
O2 O 0.6461(4) 0.0913(4) 1.2172(3)
O3 O -0.0029(3) 0.2440(3) 0.8940(2)
C7 C -0.1435(4) 0.3867(5) 0.9067(4)
H4 H -0.11150 0.46860 0.93610
H5 H -0.26770 0.39110 0.96320
C8 C -0.2317(4) 0.4866(5) 0.7545(4)
H6 H -0.23970 0.39260 0.72760
H7 H -0.34680 0.57720 0.76410
N2 N -0.1176(3) 0.5551(3) 0.6338(3)
H8 H -0.12560 0.53570 0.54230
C9 C -0.1294(5) 0.7268(4) 0.6084(4)
H9 H -0.10770 0.72000 0.71060
H10 H -0.26790 0.81760 0.58340
C10 C -0.0072(5) 0.7842(4) 0.4832(4)
H11 H -0.02970 0.79080 0.38530
H12 H -0.01080 0.89480 0.46570
O4 O 0.1686(3) 0.6757(3) 0.5115(2)
C11 C 0.2458(5) 0.6869(4) 0.6234(4)
H13 H 0.15060 0.75160 0.67620
H14 H 0.33470 0.75520 0.60160
C12 C 0.3346(4) 0.5086(4) 0.7354(4)
H15 H 0.44240 0.43880 0.68240
H16 H 0.39720 0.53400 0.80350
N3 N 0.2119(4) 0.4237(3) 0.8079(3)
H17 H 0.15700 0.42830 0.72910
#END
