
#######################################################################
#
#                 Cambridge Crystallographic Data Centre
#                                CCDC
#
#######################################################################
#
# If this CIF has been generated from an entry in the Cambridge
# Structural Database, then it will include bibliographic, chemical,
# crystal, experimental, refinement or atomic coordinate data resulting
# from the CCDC's data processing and validation procedures.
#
#######################################################################

data_CSD_CIF_JOPWUG
_audit_creation_date 1992-12-16
_audit_creation_method CSD-ConQuest-V1
_database_code_CSD JOPWUG
_chemical_formula_sum 'C16 H29 N3 O5'
_chemical_formula_moiety
;
C16 H29 N3 O5
;
_journal_coden_Cambridge 10
_journal_volume 75
_journal_year 1992
_journal_page_first 913
_journal_name_full 'Helv.Chim.Acta '
loop_
_publ_author_name
"D.Seebach"
"B.Lamatsch"
"R.Amstutz"
"A.K.Beck"
"M.Dobler"
"M.Egli"
"R.Fitzi"
"M.Gautschi"
"B.Herradon"
"P.C.Hidber"
"J.J.Irwin"
"R.Locher"
"M.Maestro"
"T.Maetzke"
"A.Mourino"
"E.Pfammatter"
"D.A.Plattner"
"C.Schickli"
"W.B.Schweizer"
"P.Seiler"
"G.Stucky"
_chemical_name_systematic
;
(2S,5S,1'S)-2-t-Butyl-1-t-butyloxycarbonyl-3-methyl-5-(nitroprop-2-yl)-4-imida
zolidinone
;
_cell_volume   1974.376
_exptl_crystal_density_diffrn 1.16
_diffrn_ambient_temperature ?
_diffrn_special_details
;
The study was carried out at room temperature,in the range 283-303K

;
#These two values have been output from a single CSD field.
_refine_ls_R_factor_gt 0.033
_refine_ls_wR_factor_gt 0.033
_symmetry_cell_setting orthorhombic
_symmetry_space_group_name_H-M 'P 21 21 21'
_symmetry_Int_Tables_number 19
loop_
_symmetry_equiv_pos_site_id
_symmetry_equiv_pos_as_xyz
1 x,y,z
2 1/2+x,1/2-y,-z
3 -x,1/2+y,1/2-z
4 1/2-x,-y,1/2+z
_cell_length_a 6.270(2)
_cell_length_b 10.528(5)
_cell_length_c 29.91(15)
_cell_angle_alpha 90
_cell_angle_beta 90
_cell_angle_gamma 90
_cell_formula_units_Z 4
loop_
_atom_type_symbol
_atom_type_radius_bond
C 0.68
H 0.23
N 0.68
O 0.68
loop_
_atom_site_label
_atom_site_type_symbol
_atom_site_fract_x
_atom_site_fract_y
_atom_site_fract_z
C1 C 0.914(2) 0.030(1) -0.0074(4)
C2 C 0.918(2) -0.400(1) 0.1579(5)
C3 C 0.763(3) -0.177(2) 0.2484(4)
C4 C 0.997(2) -0.1073(7) 0.1879(3)
C5 C 0.980(1) -0.0769(7) 0.1387(2)
C6 C 0.979(1) 0.0681(8) 0.1322(3)
C7 C 0.822(2) 0.135(1) 0.1635(4)
C8 C 1.206(2) 0.1151(9) 0.1387(3)
C9 C 0.711(2) -0.0135(8) 0.0147(2)
C10 C 0.574(3) 0.101(1) 0.0246(4)
C11 C 0.592(3) -0.115(1) -0.0117(4)
C12 C 0.660(2) -0.1079(7) 0.0893(3)
C13 C 0.683(1) -0.2072(9) 0.1642(3)
C14 C 0.686(2) -0.3518(8) 0.1577(3)
C15 C 0.584(3) -0.391(1) 0.1134(4)
C16 C 0.562(3) -0.416(1) 0.1958(4)
N1 N 0.776(1) -0.1367(5) 0.1268(2)
N2 N 0.814(1) -0.1629(6) 0.2009(2)
N3 N 1.221(1) 0.2497(7) 0.1208(3)
O1 O 0.7920(8) -0.0686(4) 0.0570(1)
O2 O 0.469(1) -0.1216(5) 0.0863(2)
O3 O 1.145(1) -0.0760(5) 0.2113(2)
O4 O 1.130(1) 0.2830(6) 0.0886(2)
O5 O 1.334(1) 0.3175(7) 0.1421(3)
H1 H 0.99(1) -0.355(6) 0.133(2)
H2 H 0.88(2) -0.51(1) 0.154(3)
H3 H 0.93(2) -0.400(9) 0.190(3)
H4 H 0.91(1) 0.072(6) -0.038(2)
H5 H 0.66(1) -0.210(8) 0.252(2)
H6 H 0.82(2) -0.106(7) 0.261(3)
H7 H 0.83(2) -0.268(9) 0.252(3)
H8 H 1.02(1) -0.042(7) -0.009(2)
H9 H 1.00(2) 0.080(8) 0.013(2)
H10 H 1.103(8) -0.117(4) 0.120(1)
H11 H 0.93(1) 0.088(5) 0.100(2)
H12 H 0.69(2) 0.11(1) 0.156(3)
H13 H 0.81(1) 0.228(7) 0.154(2)
H14 H 0.89(2) 0.137(8) 0.203(3)
H15 H 1.27(1) 0.073(7) 0.119(2)
H16 H 1.24(1) 0.120(5) 0.175(2)
H17 H 0.49(2) 0.140(8) -0.003(3)
H18 H 0.63(1) 0.148(8) 0.049(3)
H19 H 0.43(2) 0.063(9) 0.037(3)
H20 H 0.59(1) -0.068(6) -0.042(2)
H21 H 0.47(2) -0.17(1) 0.007(3)
H22 H 0.68(1) -0.176(7) -0.017(2)
H23 H 0.548(7) -0.185(4) 0.168(1)
H24 H 0.63(1) -0.350(8) 0.089(2)
H25 H 0.44(1) -0.362(9) 0.111(3)
H26 H 0.57(2) -0.493(9) 0.112(2)
H27 H 0.59(2) -0.393(8) 0.228(3)
H28 H 0.55(1) -0.512(7) 0.189(2)
H29 H 0.43(1) -0.384(9) 0.197(3)
#END
