
#######################################################################
#
#                 Cambridge Crystallographic Data Centre
#                                CCDC
#
#######################################################################
#
# If this CIF has been generated from an entry in the Cambridge
# Structural Database, then it will include bibliographic, chemical,
# crystal, experimental, refinement or atomic coordinate data resulting
# from the CCDC's data processing and validation procedures.
#
#######################################################################

data_CSD_CIF_JOPXUJ
_audit_creation_date 2014-10-20
_audit_creation_method CSD-ConQuest-V1
_database_code_CSD JOPXUJ
_database_code_depnum_ccdc_archive 'CCDC 1029999'
_chemical_formula_sum 'C29 H23 N3 O4'
_chemical_formula_moiety
;
C29 H23 N3 O4
;
_journal_coden_Cambridge 1078
_journal_year 2014
_journal_name_full 'CSD Communication(Private Communication) '
loop_
_publ_author_name
"H.Gardarsson"
"N.Trapp"
"F.Diederich"
_chemical_name_systematic
;
phenyl 
3-methyl-2-(13-nitro-1,9-diazatetracyclo[7.7.1.0^2,7^.0^10,15^]heptadeca-2,4,6
,10,12,14-hexaen-5-yl)benzoate
;
_chemical_melting_point 462
_cell_volume   2289.348
_exptl_crystal_colour 'yellow'
_exptl_crystal_density_diffrn 1.385
_exptl_special_details
;
Melting point range 462-464K

;
_exptl_crystal_description 'irregular'
_exptl_crystal_preparation 'dichloromethane/n-hexane'
_diffrn_ambient_temperature 100.2
#These two values have been output from a single CSD field.
_refine_ls_R_factor_gt 0.0455
_refine_ls_wR_factor_gt 0.0455
_symmetry_cell_setting monoclinic
_symmetry_space_group_name_H-M 'P 21/c'
_symmetry_Int_Tables_number 14
loop_
_symmetry_equiv_pos_site_id
_symmetry_equiv_pos_as_xyz
1 x,y,z
2 -x,1/2+y,1/2-z
3 -x,-y,-z
4 x,-1/2-y,-1/2+z
_cell_length_a 10.096(2)
_cell_length_b 12.467(2)
_cell_length_c 20.773(4)
_cell_angle_alpha 90
_cell_angle_beta 118.885(8)
_cell_angle_gamma 90
_cell_formula_units_Z 4
loop_
_atom_type_symbol
_atom_type_radius_bond
C 0.68
H 0.23
N 0.68
O 0.68
loop_
_atom_site_label
_atom_site_type_symbol
_atom_site_fract_x
_atom_site_fract_y
_atom_site_fract_z
O1 O 0.94227(14) -0.05863(11) 0.66407(7)
O2 O 1.08728(16) 0.33935(11) 0.43457(8)
O3 O 0.73634(15) -0.07646(13) 0.55277(7)
O4 O 1.22507(15) 0.38570(11) 0.54897(8)
N1 N 0.73098(16) 0.39121(11) 0.66022(8)
N2 N 1.10232(18) 0.36379(12) 0.49552(9)
N3 N 0.57918(16) 0.37277(11) 0.52804(8)
C1 C 1.2052(2) 0.08246(16) 0.58354(10)
H1 H 1.26740 0.11520 0.56650
C2 C 1.1777(2) -0.02724(17) 0.57448(11)
H2 H 1.22060 -0.06950 0.55110
C3 C 1.0872(2) -0.07446(16) 0.59979(10)
H3 H 1.06780 -0.14940 0.59430
C4 C 1.0258(2) -0.01106(15) 0.63302(9)
C5 C 0.7976(2) -0.08717(14) 0.61817(9)
C6 C 0.72596(19) -0.13176(14) 0.66084(9)
C7 C 0.66667(19) -0.06103(14) 0.69297(9)
C8 C 0.68058(19) 0.05723(13) 0.68496(9)
C9 C 0.78394(19) 0.11970(14) 0.74415(9)
H4 H 0.84320 0.08740 0.79090
C10 C 0.80043(19) 0.22796(14) 0.73499(9)
H5 H 0.87120 0.26920 0.77550
C11 C 0.71393(19) 0.27732(14) 0.66660(9)
C12 C 0.86951(19) 0.41948(14) 0.65719(9)
H6 H 0.95580 0.37860 0.69530
H7 H 0.89090 0.49680 0.66820
C13 C 0.85530(19) 0.39550(13) 0.58232(9)
C14 C 0.9821(2) 0.39466(13) 0.57216(10)
H8 H 1.07860 0.41340 0.61160
C15 C 0.9671(2) 0.36643(14) 0.50443(10)
C16 C 1.1430(2) 0.14358(16) 0.61695(10)
H9 H 1.16270 0.21840 0.62300
C17 C 1.0514(2) 0.09724(15) 0.64212(10)
H10 H 1.00770 0.13950 0.66500
C18 C 0.7195(2) -0.24257(14) 0.66738(10)
H11 H 0.76110 -0.28920 0.64560
C19 C 0.6511(2) -0.28364(15) 0.70622(10)
H12 H 0.64780 -0.35900 0.71220
C20 C 0.5875(2) -0.21465(15) 0.73648(10)
H13 H 0.53810 -0.24390 0.76150
C21 C 0.59468(19) -0.10340(14) 0.73083(9)
C22 C 0.5248(2) -0.03056(16) 0.76418(11)
H14 H 0.44940 -0.07060 0.77140
H15 H 0.47580 0.03020 0.73120
H16 H 0.60380 -0.00390 0.81170
C23 C 0.59549(19) 0.10659(13) 0.61709(9)
H17 H 0.52510 0.06500 0.57670
C24 C 0.61081(19) 0.21578(13) 0.60675(9)
C25 C 0.71381(19) 0.36857(13) 0.52244(9)
C26 C 0.6022(2) 0.43297(14) 0.59320(9)
H18 H 0.50960 0.42860 0.59810
H19 H 0.62020 0.50940 0.58700
C27 C 0.51928(19) 0.26587(14) 0.53090(9)
H20 H 0.52310 0.21860 0.49350
H21 H 0.41230 0.27260 0.51920
C28 C 0.7028(2) 0.33814(14) 0.45505(10)
H22 H 0.60750 0.31740 0.41560
C29 C 0.8291(2) 0.33800(13) 0.44546(10)
H23 H 0.82150 0.31890 0.39950
#END
