
#######################################################################
#
#                 Cambridge Crystallographic Data Centre
#                                CCDC
#
#######################################################################
#
# If this CIF has been generated from an entry in the Cambridge
# Structural Database, then it will include bibliographic, chemical,
# crystal, experimental, refinement or atomic coordinate data resulting
# from the CCDC's data processing and validation procedures.
#
#######################################################################

data_CSD_CIF_JORBUN
_audit_creation_date 1992-12-16
_audit_creation_method CSD-ConQuest-V1
_database_code_CSD JORBUN
_database_code_depnum_ccdc_archive 'CCDC 1189034'
_chemical_formula_sum 'C5 H9 N3 O6'
_chemical_formula_moiety
;
C5 H9 N3 O6
;
_journal_coden_Cambridge 7
_journal_volume 65
_journal_year 1992
_journal_page_first 489
_journal_name_full 'Bull.Chem.Soc.Jpn. '
loop_
_publ_author_name
"Swee Yong Lee"
"Lip Lin Koh"
"Yu Lin Lam"
"Hsing Hua Huang"
_chemical_name_systematic
;
2-Methyl-2,3,3-trinitrobutane
;
_chemical_melting_point 463.15
_cell_volume    885.829
_exptl_crystal_density_diffrn 1.533
_exptl_special_details
;
Melts with decomposition.

;
_diffrn_ambient_temperature ?
_diffrn_special_details
;
The study was carried out at room temperature,in the range 283-303K

;
#These two values have been output from a single CSD field.
_refine_ls_R_factor_gt 0.032
_refine_ls_wR_factor_gt 0.032
_symmetry_cell_setting monoclinic
_symmetry_space_group_name_H-M 'P 21/n'
_symmetry_Int_Tables_number 14
loop_
_symmetry_equiv_pos_site_id
_symmetry_equiv_pos_as_xyz
1 x,y,z
2 1/2-x,1/2+y,1/2-z
3 -x,-y,-z
4 -1/2+x,-1/2-y,-1/2+z
_cell_length_a 6.305(1)
_cell_length_b 13.106(3)
_cell_length_c 10.720(2)
_cell_angle_alpha 90
_cell_angle_beta 90.05(2)
_cell_angle_gamma 90
_cell_formula_units_Z 4
loop_
_atom_type_symbol
_atom_type_radius_bond
C 0.68
H 0.23
N 0.68
O 0.68
loop_
_atom_site_label
_atom_site_type_symbol
_atom_site_fract_x
_atom_site_fract_y
_atom_site_fract_z
C1 C 0.0022(6) 0.7383(2) 0.3412(4)
C2 C 0.0926(5) 0.7922(2) 0.2248(3)
C3 C 0.1029(6) 0.9101(2) 0.2393(3)
C4 C -0.1181(6) 0.9574(2) 0.2578(4)
C5 C -0.0272(8) 0.7621(2) 0.1117(4)
N1 N 0.3228(5) 0.7503(2) 0.2164(3)
N2 N 0.2041(5) 0.9588(2) 0.1219(3)
N3 N 0.2452(6) 0.9474(2) 0.3455(3)
O1 O 0.3605(4) 0.6871(2) 0.1357(2)
O2 O 0.4485(5) 0.7779(2) 0.2955(3)
O3 O 0.1509(5) 1.0441(2) 0.0939(3)
O4 O 0.3380(5) 0.9089(2) 0.0678(3)
O5 O 0.4053(5) 0.9956(2) 0.3194(3)
O6 O 0.1812(6) 0.9299(2) 0.4496(3)
H1 H -0.00030 0.66590 0.32770
H2 H 0.09230 0.75360 0.41090
H3 H -0.13890 0.76200 0.35820
H4 H -0.18490 0.92840 0.33000
H5 H -0.10360 1.02980 0.26880
H6 H -0.20350 0.94410 0.18540
H7 H 0.02960 0.79660 0.04010
H8 H -0.01480 0.68970 0.10040
H9 H -0.17390 0.77990 0.12160
#END
