
#######################################################################
#
#                 Cambridge Crystallographic Data Centre
#                                CCDC
#
#######################################################################
#
# If this CIF has been generated from an entry in the Cambridge
# Structural Database, then it will include bibliographic, chemical,
# crystal, experimental, refinement or atomic coordinate data resulting
# from the CCDC's data processing and validation procedures.
#
#######################################################################

data_CSD_CIF_JOSWIX
_audit_creation_date 1992-11-02
_audit_creation_method CSD-ConQuest-V1
_database_code_CSD JOSWIX
_chemical_formula_sum 'C12 H14 N2 O4'
_chemical_formula_moiety
;
C12 H14 N2 O4
;
_journal_coeditor_code "IUCr GE0293"
_journal_coden_Cambridge 591
_journal_volume 48
_journal_year 1992
_journal_page_first 1464
_journal_name_full 'Acta Crystallogr.,Sect.C:Cryst.Struct.Commun. '
loop_
_publ_author_name
"V.Busetti"
"M.Crisma"
"C.Toniolo"
_chemical_name_systematic
;
1-((Benzyloxycarbonyl)amino)cyclopropane-1-carbohydroxamic acid
;
_cell_volume   1253.179
_exptl_crystal_colour 'colorless'
_exptl_crystal_density_diffrn 1.326
_diffrn_ambient_temperature ?
_diffrn_special_details
;
The study was carried out at room temperature,in the range 283-303K

;
#These two values have been output from a single CSD field.
_refine_ls_R_factor_gt 0.053
_refine_ls_wR_factor_gt 0.053
_symmetry_cell_setting monoclinic
_symmetry_space_group_name_H-M 'P 21/n'
_symmetry_Int_Tables_number 14
loop_
_symmetry_equiv_pos_site_id
_symmetry_equiv_pos_as_xyz
1 x,y,z
2 1/2-x,1/2+y,1/2-z
3 -x,-y,-z
4 -1/2+x,-1/2-y,-1/2+z
_cell_length_a 25.010(2)
_cell_length_b 6.144(1)
_cell_length_c 8.169(1)
_cell_angle_alpha 90
_cell_angle_beta 93.30(2)
_cell_angle_gamma 90
_cell_formula_units_Z 4
loop_
_atom_type_symbol
_atom_type_radius_bond
C 0.68
N 0.68
O 0.68
loop_
_atom_site_label
_atom_site_type_symbol
_atom_site_fract_x
_atom_site_fract_y
_atom_site_fract_z
C1 C 0.16056(9) 0.9397(4) 0.4343(3)
C2 C 0.1729(1) 1.0674(5) 0.3020(3)
C3 C 0.2073(1) 1.2411(6) 0.3213(4)
C4 C 0.2298(1) 1.2923(5) 0.4730(5)
C5 C 0.2175(1) 1.1687(6) 0.6074(4)
C6 C 0.1835(1) 0.9927(5) 0.5874(3)
C7 C 0.1242(1) 0.7486(5) 0.4042(3)
O1 O 0.10980(6) 0.6625(3) 0.5583(2)
C8 C 0.07587(9) 0.4933(4) 0.5508(3)
O2 O 0.05965(7) 0.4073(3) 0.4243(2)
N1 N 0.06170(8) 0.4357(3) 0.7008(2)
C9 C 0.07880(9) 0.5462(4) 0.8489(3)
C10 C 0.0906(1) 0.4093(4) 0.9995(3)
C11 C 0.1353(1) 0.5144(4) 0.9174(3)
C12 C 0.05523(9) 0.7651(4) 0.8769(3)
O3 O 0.07282(7) 0.8792(3) 0.9933(2)
N2 N 0.01539(8) 0.8260(3) 0.7749(2)
O4 O -0.00496(7) 1.0365(3) 0.7823(2)
#END
