
#######################################################################
#
#                 Cambridge Crystallographic Data Centre
#                                CCDC
#
#######################################################################
#
# If this CIF has been generated from an entry in the Cambridge
# Structural Database, then it will include bibliographic, chemical,
# crystal, experimental, refinement or atomic coordinate data resulting
# from the CCDC's data processing and validation procedures.
#
#######################################################################

data_CSD_CIF_JOTDOL
_audit_creation_date 1992-11-02
_audit_creation_method CSD-ConQuest-V1
_database_code_CSD JOTDOL
_chemical_formula_sum 'C10 H16 N4 O5'
_chemical_formula_moiety
;
C10 H16 N4 O5
;
_journal_coeditor_code "IUCr HH0576"
_journal_coden_Cambridge 591
_journal_volume 48
_journal_year 1992
_journal_page_first 1528
_journal_name_full 'Acta Crystallogr.,Sect.C:Cryst.Struct.Commun. '
loop_
_publ_author_name
"R.Gilardi"
"C.George"
"J.L.Flippen-Anderson"
_chemical_name_systematic
;
6-Nitro-2,4-dipropionyl-8-oxa-2,4,6-triazabicyclo(3.3.0)octane
;
_cell_volume   1257.617
_exptl_crystal_colour 'colorless'
_exptl_crystal_density_diffrn 1.438
_diffrn_ambient_temperature ?
_diffrn_special_details
;
The study was carried out at room temperature,in the range 283-303K

;
#These two values have been output from a single CSD field.
_refine_ls_R_factor_gt 0.038
_refine_ls_wR_factor_gt 0.038
_symmetry_cell_setting monoclinic
_symmetry_space_group_name_H-M 'P 21/n'
_symmetry_Int_Tables_number 14
loop_
_symmetry_equiv_pos_site_id
_symmetry_equiv_pos_as_xyz
1 x,y,z
2 1/2-x,1/2+y,1/2-z
3 -x,-y,-z
4 -1/2+x,-1/2-y,-1/2+z
_cell_length_a 6.151(2)
_cell_length_b 13.484(7)
_cell_length_c 15.165(9)
_cell_angle_alpha 90
_cell_angle_beta 90.94(5)
_cell_angle_gamma 90
_cell_formula_units_Z 4
loop_
_atom_type_symbol
_atom_type_radius_bond
C 0.68
H 0.23
N 0.68
O 0.68
loop_
_atom_site_label
_atom_site_type_symbol
_atom_site_fract_x
_atom_site_fract_y
_atom_site_fract_z
C1 C 0.1985(5) 0.3068(2) 0.0367(2)
N1 N 0.1069(4) 0.2077(2) 0.0320(2)
C2 C 0.1882(6) 0.1498(3) -0.0416(3)
N2 N 0.3824(4) 0.2052(2) -0.0646(2)
C3 C 0.3801(5) 0.3056(2) -0.0319(2)
N3 N 0.3017(3) 0.3763(2) -0.0990(2)
C4 C 0.0708(5) 0.3923(3) -0.0834(3)
O1 O 0.0512(3) 0.3825(1) 0.0096(2)
C5 C -0.0662(5) 0.1735(2) 0.0785(2)
O2 O -0.1495(4) 0.0949(2) 0.0586(2)
C6 C -0.1421(7) 0.2371(3) 0.1535(3)
C7 C -0.3535(8) 0.2033(4) 0.1911(4)
C8 C 0.5458(5) 0.1727(2) -0.1169(2)
O3 O 0.6949(4) 0.2278(2) -0.1363(2)
C9 C 0.5287(7) 0.0670(3) -0.1490(3)
C10 C 0.7140(9) 0.0350(4) -0.2045(5)
N4 N 0.4243(4) 0.4633(2) -0.1095(2)
O4 O 0.6130(4) 0.4634(2) -0.0830(2)
O5 O 0.3356(4) 0.5306(2) -0.1500(2)
H1 H 0.2437(38) 0.3212(18) 0.0987(18)
H2 H 0.2232(50) 0.0851(25) -0.0209(21)
H3 H 0.0748(65) 0.1478(25) -0.0951(27)
H4 H 0.5151(41) 0.3263(17) -0.0105(16)
H5 H -0.0126(45) 0.3367(21) -0.1146(18)
H6 H 0.0278(45) 0.4589(24) -0.1036(20)
H7 H -0.0164(62) 0.2360(25) 0.2010(26)
H8 H -0.1537(54) 0.3036(26) 0.1348(21)
H9 H -0.3300(55) 0.1341(29) 0.2194(25)
H10 H -0.4628(69) 0.1944(29) 0.1438(29)
H11 H -0.4024(66) 0.2464(30) 0.2353(29)
H12 H 0.5156(61) 0.0296(29) -0.1001(28)
H13 H 0.4037(63) 0.0643(26) -0.1821(26)
H14 H 0.7007(49) -0.0343(26) -0.2254(21)
H15 H 0.8302(90) 0.0308(37) -0.1685(35)
H16 H 0.752(10) 0.0795(44) -0.2483(40)
#END
