
#######################################################################
#
#                 Cambridge Crystallographic Data Centre
#                                CCDC
#
#######################################################################
#
# If this CIF has been generated from an entry in the Cambridge
# Structural Database, then it will include bibliographic, chemical,
# crystal, experimental, refinement or atomic coordinate data resulting
# from the CCDC's data processing and validation procedures.
#
#######################################################################

data_CSD_CIF_JOTFED
_audit_creation_date 1992-11-02
_audit_creation_method CSD-ConQuest-V1
_database_code_CSD JOTFED
_chemical_formula_sum 'C8 H12 N6 O6'
_chemical_formula_moiety
;
C8 H12 N6 O6
;
_journal_coeditor_code "IUCr HH0606"
_journal_coden_Cambridge 591
_journal_volume 48
_journal_year 1992
_journal_page_first 1532
_journal_name_full 'Acta Crystallogr.,Sect.C:Cryst.Struct.Commun. '
loop_
_publ_author_name
"R.Gilardi"
"C.George"
"J.L.Flippen-Anderson"
_chemical_name_systematic
;
6,8-Diacetyl-2,4-dinitro-2,4,6,8-tetra-azabicyclo(3.3.0)octane
;
_cell_volume   1199.803
_exptl_crystal_colour 'colorless'
_exptl_crystal_density_diffrn 1.596
_diffrn_ambient_temperature ?
_diffrn_special_details
;
The study was carried out at room temperature,in the range 283-303K

;
#These two values have been output from a single CSD field.
_refine_ls_R_factor_gt 0.035
_refine_ls_wR_factor_gt 0.035
_symmetry_cell_setting orthorhombic
_symmetry_space_group_name_H-M 'P 21 21 21'
_symmetry_Int_Tables_number 19
loop_
_symmetry_equiv_pos_site_id
_symmetry_equiv_pos_as_xyz
1 x,y,z
2 1/2+x,1/2-y,-z
3 -x,1/2+y,1/2-z
4 1/2-x,-y,1/2+z
_cell_length_a 8.482(1)
_cell_length_b 11.844(2)
_cell_length_c 11.943(2)
_cell_angle_alpha 90
_cell_angle_beta 90
_cell_angle_gamma 90
_cell_formula_units_Z 4
loop_
_atom_type_symbol
_atom_type_radius_bond
C 0.68
H 0.23
N 0.68
O 0.68
loop_
_atom_site_label
_atom_site_type_symbol
_atom_site_fract_x
_atom_site_fract_y
_atom_site_fract_z
C1 C 0.7326(3) 0.2537(2) 0.3635(3)
N1 N 0.8669(3) 0.2012(2) 0.3087(2)
C2 C 0.8539(4) 0.2000(3) 0.1885(3)
N2 N 0.6905(3) 0.2375(2) 0.1713(2)
C3 C 0.6001(3) 0.2536(2) 0.2750(3)
N3 N 0.5334(3) 0.3650(2) 0.2820(2)
C4 C 0.6528(3) 0.4452(3) 0.3186(3)
N4 N 0.7572(3) 0.3734(2) 0.3846(2)
N5 N 0.9393(3) 0.1090(2) 0.3573(3)
O1 O 0.9125(4) 0.0908(2) 0.4555(3)
O2 O 1.0326(3) 0.0575(2) 0.2977(3)
N6 N 0.6153(3) 0.1944(2) 0.0802(2)
O3 O 0.6979(4) 0.1576(2) 0.0048(2)
O4 O 0.4728(3) 0.2016(2) 0.0787(2)
C5 C 0.3791(3) 0.3988(3) 0.2730(3)
O5 O 0.3508(2) 0.5002(2) 0.2737(2)
C6 C 0.2531(4) 0.3113(3) 0.2653(3)
C7 C 0.8525(4) 0.4085(3) 0.4696(3)
O6 O 0.9268(3) 0.3407(2) 0.5242(2)
C8 C 0.8576(4) 0.5335(3) 0.4907(3)
H1 H 0.7226(39) 0.2138(25) 0.4219(27)
H2 H 0.9167(47) 0.2383(31) 0.1487(32)
H3 H 0.8758(41) 0.1158(31) 0.158(3)
H4 H 0.5187(37) 0.1927(26) 0.2842(25)
H5 H 0.7070(36) 0.4893(26) 0.2550(26)
H6 H 0.6076(39) 0.5046(28) 0.3586(28)
H7 H 0.28890 0.24280 0.30000
H8 H 0.22900 0.29710 0.18800
H9 H 0.16010 0.33760 0.30300
H10 H 0.85440 0.57280 0.42030
H11 H 0.95310 0.55240 0.52950
H12 H 0.76850 0.55530 0.53530
#END
