
#######################################################################
#
#                 Cambridge Crystallographic Data Centre
#                                CCDC
#
#######################################################################
#
# If this CIF has been generated from an entry in the Cambridge
# Structural Database, then it will include bibliographic, chemical,
# crystal, experimental, refinement or atomic coordinate data resulting
# from the CCDC's data processing and validation procedures.
#
#######################################################################

data_CSD_CIF_JOWSAR
_audit_creation_date 2014-10-23
_audit_creation_method CSD-ConQuest-V1
_database_code_CSD JOWSAR
_database_code_depnum_ccdc_archive 'CCDC 1005366'
_chemical_formula_sum 'C15 H10 N2 O6'
_chemical_formula_moiety
;
C15 H10 N2 O6
;
_journal_coden_Cambridge 119
_journal_volume 1079
_journal_year 2015
_journal_page_first 298
_journal_name_full 'J.Mol.Struct. '
loop_
_publ_author_name
"L.C.Dias"
"G.M.de Lima"
"C.B.Pinheiro"
"B.L.Rodrigues"
"C.L.Donnici"
"R.T.Fujiwara"
"D.C.Bartholomeu"
"R.A.Ferreira"
"S.R.Ferreira"
"T.A.O.Mendes"
"J.G.da Silva"
"M.R.A.Alves"
_chemical_name_systematic
;
2-(((6-nitro-1,3-benzodioxol-5-yl)methylene)amino)benzoic acid
;
_cell_volume   1296.847
_exptl_crystal_colour 'yellow'
_exptl_crystal_density_diffrn 1.61
_exptl_crystal_description 'prism'
_diffrn_ambient_temperature 120
_refine_special_details
;
C8B and C8A disordered over two sites with occupancies 0.53:0.47; O5,O6 and 
O7,O8 disordered over two sites with occupancies 0.517:0.483.
;
#These two values have been output from a single CSD field.
_refine_ls_R_factor_gt 0.0433
_refine_ls_wR_factor_gt 0.0433
_symmetry_cell_setting monoclinic
_symmetry_space_group_name_H-M 'P 21/c'
_symmetry_Int_Tables_number 14
loop_
_symmetry_equiv_pos_site_id
_symmetry_equiv_pos_as_xyz
1 x,y,z
2 -x,1/2+y,1/2-z
3 -x,-y,-z
4 x,-1/2-y,-1/2+z
_cell_length_a 7.1876(2)
_cell_length_b 16.4187(5)
_cell_length_c 11.0134(3)
_cell_angle_alpha 90
_cell_angle_beta 93.799(3)
_cell_angle_gamma 90
_cell_formula_units_Z 4
loop_
_atom_type_symbol
_atom_type_radius_bond
C 0.68
H 0.23
N 0.68
O 0.68
loop_
_atom_site_label
_atom_site_type_symbol
_atom_site_fract_x
_atom_site_fract_y
_atom_site_fract_z
O1 O 0.04241(19) -0.06516(7) -0.42580(11)
O2 O 0.0463(2) 0.01682(7) -0.26541(12)
O3 O 0.23204(19) 0.27932(7) 0.01054(10)
O4 O 0.32737(18) 0.29804(7) 0.21397(10)
O5 O 0.3675(5) -0.05638(18) 0.2792(4)
O6 O 0.5469(4) 0.02922(15) 0.3789(2)
C1 C 0.0697(2) -0.05247(9) -0.31209(14)
C2 C 0.1317(2) -0.12351(9) -0.23478(14)
C3 C 0.1089(2) -0.20172(9) -0.28321(15)
H1 H 0.05920 -0.20810 -0.36280
C4 C 0.1589(2) -0.26979(9) -0.21476(15)
H2 H 0.14280 -0.32150 -0.24820
C5 C 0.2329(2) -0.26079(9) -0.09660(15)
H3 H 0.26620 -0.30660 -0.05040
C6 C 0.2576(2) -0.18377(10) -0.04667(15)
H4 H 0.30810 -0.17810 0.03280
C7 C 0.2073(2) -0.11442(9) -0.11499(15)
C8 C 0.2291(18) -0.0178(2) 0.0294(4)
C9 C 0.2935(2) 0.06315(9) 0.08694(15)
C10 C 0.2488(2) 0.13069(9) 0.01278(14)
H5 H 0.20870 0.12440 -0.06870
C11 C 0.2663(2) 0.20614(9) 0.06471(14)
C12 C 0.2665(3) 0.34009(10) 0.10388(15)
H6 H 0.36190 0.37780 0.08080
H7 H 0.15350 0.37060 0.11560
C13 C 0.3250(2) 0.21763(9) 0.18595(14)
C14 C 0.3753(2) 0.15402(10) 0.26041(14)
H8 H 0.41860 0.16140 0.34110
C15 C 0.3574(2) 0.07687(10) 0.20744(15)
N1 N 0.2331(3) -0.03528(9) -0.06739(16)
N2 N 0.4148(2) 0.00868(10) 0.28672(16)
H9 H 0.01720 -0.02220 -0.47770
H10 H 0.16280 -0.05770 0.08600
O7? O 0.3986(6) 0.01230(18) 0.3880(3)
O8? O 0.4308(6) -0.05957(19) 0.2249(4)
C16? C 0.3154(19) -0.0194(3) 0.0398(5)
H11? H 0.09370 0.00420 -0.17860
H12? H 0.39560 -0.05890 0.08140
#END
