
#######################################################################
#
#                 Cambridge Crystallographic Data Centre
#                                CCDC
#
#######################################################################
#
# If this CIF has been generated from an entry in the Cambridge
# Structural Database, then it will include bibliographic, chemical,
# crystal, experimental, refinement or atomic coordinate data resulting
# from the CCDC's data processing and validation procedures.
#
#######################################################################

data_CSD_CIF_JOXHOV
_audit_creation_date 2015-03-13
_audit_creation_method CSD-ConQuest-V1
_database_code_CSD JOXHOV
_database_code_depnum_ccdc_archive 'CCDC 1015514'
_chemical_formula_sum 'C16 H17 N3 O3'
_chemical_formula_moiety
;
C16 H17 N3 O3
;
_journal_coden_Cambridge 35
_journal_volume 79
_journal_year 2014
_journal_page_first 9389
_journal_name_full 'J.Org.Chem. '
loop_
_publ_author_name
"R.J.Holland"
"J.R.Klose"
"J.R.Deschamps"
"Zhao Cao"
"L.K.Keefer"
"J.E.Saavedra"
_chemical_name_systematic
;
N-benzyl-N-((benzyloxy)-NNO-azoxy)acetamide
;
_cell_volume    764.776
_exptl_crystal_colour 'colorless'
_exptl_crystal_density_diffrn 1.3
_exptl_crystal_description 'needle'
_diffrn_ambient_temperature 150
#These two values have been output from a single CSD field.
_refine_ls_R_factor_gt 0.0772
_refine_ls_wR_factor_gt 0.0772
_symmetry_cell_setting triclinic
_symmetry_space_group_name_H-M 'P -1'
_symmetry_Int_Tables_number 2
loop_
_symmetry_equiv_pos_site_id
_symmetry_equiv_pos_as_xyz
1 x,y,z
2 -x,-y,-z
_cell_length_a 5.429(4)
_cell_length_b 8.743(5)
_cell_length_c 16.342(11)
_cell_angle_alpha 96.30(3)
_cell_angle_beta 96.60(3)
_cell_angle_gamma 92.33(3)
_cell_formula_units_Z 2
loop_
_atom_type_symbol
_atom_type_radius_bond
C 0.68
H 0.23
N 0.68
O 0.68
loop_
_atom_site_label
_atom_site_type_symbol
_atom_site_fract_x
_atom_site_fract_y
_atom_site_fract_z
N1 N 0.4969(14) 0.3291(8) 0.3858(4)
O1 O 0.3625(10) 0.5475(7) 0.3665(3)
N2 N 0.4537(14) 0.1638(8) 0.3777(5)
C1 C 0.1360(15) 0.620(1) 0.3405(5)
H1 H 0.13540 0.72210 0.37330
H2 H -0.00780 0.55640 0.35240
O2 O 0.7062(11) 0.3843(7) 0.4148(4)
N3 N 0.3064(13) 0.3905(8) 0.3546(4)
C2 C 0.1067(15) 0.6405(10) 0.2492(6)
C3 C 0.2545(15) 0.5754(11) 0.1935(6)
H3 H 0.38500 0.51310 0.21140
C4 C 0.2118(16) 0.6011(11) 0.1112(6)
H4 H 0.32160 0.56120 0.07390
C5 C 0.0174(16) 0.6816(11) 0.0818(6)
H5 H -0.01490 0.69240 0.02440
C6 C -0.1305(17) 0.7469(11) 0.1374(6)
H6 H -0.26120 0.80860 0.11900
C7 C -0.0895(15) 0.7227(11) 0.2201(6)
H7 H -0.19860 0.76350 0.25740
C8 C 0.3166(15) 0.1031(12) 0.4355(6)
O3 O 0.2849(11) -0.0368(7) 0.4294(4)
C9 C 0.2175(15) 0.2120(11) 0.4988(5)
H8 H 0.15160 0.15420 0.54030
H9 H 0.08450 0.26810 0.47180
H10 H 0.35120 0.28530 0.52590
C10 C 0.6139(16) 0.0759(11) 0.3262(6)
H11 H 0.57010 -0.03540 0.32480
H12 H 0.78860 0.09510 0.35140
C11 C 0.5903(16) 0.1183(11) 0.2382(6)
C12 C 0.3880(16) 0.0573(11) 0.1837(6)
H13 H 0.26880 -0.01110 0.20090
C13 C 0.3620(16) 0.0968(11) 0.1046(7)
H14 H 0.22450 0.05400 0.06660
C14 C 0.5327(18) 0.1986(12) 0.0783(6)
H15 H 0.51270 0.22440 0.02300
C15 C 0.7304(16) 0.2611(12) 0.1337(6)
H16 H 0.84690 0.33240 0.11740
C16 C 0.7580(16) 0.2189(11) 0.2136(6)
H17 H 0.89580 0.26070 0.25170
#END
