
#######################################################################
#
#                 Cambridge Crystallographic Data Centre
#                                CCDC
#
#######################################################################
#
# If this CIF has been generated from an entry in the Cambridge
# Structural Database, then it will include bibliographic, chemical,
# crystal, experimental, refinement or atomic coordinate data resulting
# from the CCDC's data processing and validation procedures.
#
#######################################################################

data_CSD_CIF_JOXQUI
_audit_creation_date 1999-07-15
_audit_creation_method CSD-ConQuest-V1
_database_code_CSD JOXQUI
_database_code_depnum_ccdc_journal 182/1034
_chemical_formula_sum 'C16 H26 N4 O4'
_chemical_formula_moiety
;
C16 H26 N4 O4
;
_journal_coden_Cambridge 182
_journal_year 1998
_journal_page_first 2337
_journal_name_full 'Chem.Commun. '
loop_
_publ_author_name
"C.Stroh"
"P.Turek"
"R.Ziessel"
_chemical_name_systematic
;
2,2'-(1,2-trans-Ethenediyl)-bis(4,5-dihydro-4,4,5,5-tetramethyl-4H-imidazol-1-
yloxy-3-oxide)
;
_cell_volume    888.179
_exptl_crystal_colour 'dark red'
_exptl_crystal_density_diffrn 1.27
_diffrn_ambient_temperature ?
_diffrn_special_details
;
The study was carried out at room temperature,in the range 283-303K

;
#These two values have been output from a single CSD field.
_refine_ls_R_factor_gt 0.053
_refine_ls_wR_factor_gt 0.053
_symmetry_cell_setting monoclinic
_symmetry_space_group_name_H-M 'P 21/c'
_symmetry_Int_Tables_number 14
loop_
_symmetry_equiv_pos_site_id
_symmetry_equiv_pos_as_xyz
1 x,y,z
2 -x,1/2+y,1/2-z
3 -x,-y,-z
4 x,-1/2-y,-1/2+z
_cell_length_a 6.1877(5)
_cell_length_b 11.095(2)
_cell_length_c 13.130(1)
_cell_angle_alpha 90
_cell_angle_beta 99.828(7)
_cell_angle_gamma 90
_cell_formula_units_Z 2
loop_
_atom_type_symbol
_atom_type_radius_bond
C 0.68
H 0.23
N 0.68
O 0.68
loop_
_atom_site_label
_atom_site_type_symbol
_atom_site_fract_x
_atom_site_fract_y
_atom_site_fract_z
C1 C 0.9005(3) 0.1447(2) 0.9309(2)
N1 N 0.7299(3) 0.1245(2) 0.8538(1)
C2 C 0.6656(4) 0.2346(2) 0.7903(2)
C3 C 0.7792(3) 0.3359(2) 0.8618(2)
N2 N 0.9457(3) 0.2641(2) 0.9342(1)
O1 O 0.6421(3) 0.0220(1) 0.8291(1)
C4 C 0.7688(6) 0.2191(3) 0.6919(2)
C5 C 0.4217(4) 0.2426(3) 0.7619(3)
C6 C 0.6290(5) 0.3962(2) 0.9271(2)
C7 C 0.8947(4) 0.4324(2) 0.8095(2)
O2 O 1.0992(3) 0.3139(2) 0.9974(1)
C8 C 1.0212(4) 0.0596(2) 0.9999(2)
H1 H 0.73340 0.28700 0.64810
H2 H 0.92360 0.21290 0.71070
H3 H 0.71280 0.14810 0.65650
H4 H 0.38340 0.31300 0.72160
H5 H 0.36780 0.17340 0.72300
H6 H 0.35880 0.24650 0.82290
H7 H 0.52130 0.44250 0.88370
H8 H 0.55880 0.33630 0.96160
H9 H 0.71310 0.44750 0.97670
H10 H 0.78940 0.47760 0.76390
H11 H 0.97260 0.48450 0.86040
H12 H 0.99460 0.39560 0.77150
H13 H 1.13980 0.08900 1.04920
C8B C 0.9788(4) -0.0596(2) 1.0001(2)
C1B C 1.0995(3) -0.1447(2) 1.0691(2)
N1B N 1.2701(3) -0.1245(2) 1.1462(1)
C2B C 1.3344(4) -0.2346(2) 1.2097(2)
C3B C 1.2208(3) -0.3359(2) 1.1382(2)
N2B N 1.0543(3) -0.2641(2) 1.0658(1)
O2B O 0.9008(3) -0.3139(2) 1.0026(1)
C6B C 1.3710(5) -0.3962(2) 1.0729(2)
H7B H 1.47870 -0.44250 1.11630
H8B H 1.44120 -0.33630 1.03840
H9B H 1.28690 -0.44750 1.02330
C7B C 1.1053(4) -0.4324(2) 1.1905(2)
H10B H 1.21060 -0.47760 1.23610
H11B H 1.02740 -0.48450 1.13960
H12B H 1.00540 -0.39560 1.22850
C4B C 1.2312(6) -0.2191(3) 1.3081(2)
H1B H 1.26660 -0.28700 1.35190
H2B H 1.07640 -0.21290 1.28930
H3B H 1.28720 -0.14810 1.34350
C5B C 1.5783(4) -0.2426(3) 1.2381(3)
H4B H 1.61660 -0.31300 1.27840
H5B H 1.63220 -0.17340 1.27700
H6B H 1.64120 -0.24650 1.17710
O1B O 1.3579(3) -0.0220(1) 1.1709(1)
H13B H 0.86020 -0.08900 0.95080
#END
