
#######################################################################
#
#                 Cambridge Crystallographic Data Centre
#                                CCDC
#
#######################################################################
#
# If this CIF has been generated from an entry in the Cambridge
# Structural Database, then it will include bibliographic, chemical,
# crystal, experimental, refinement or atomic coordinate data resulting
# from the CCDC's data processing and validation procedures.
#
#######################################################################

data_CSD_CIF_JOYRAQ
_audit_creation_date 1999-07-15
_audit_creation_method CSD-ConQuest-V1
_database_code_CSD JOYRAQ
_chemical_formula_sum 'C16 H12 N4 O3'
_chemical_formula_moiety
;
C16 H12 N4 O3
;
_journal_coden_Cambridge 692
_journal_year 1998
_journal_page_first 1467
_journal_name_full 'Synthesis '
loop_
_publ_author_name
"T.Okawa"
"M.Toda"
"S.Eguchi"
"A.Kakehi"
_chemical_name_systematic
;
3-Allyl-2-(4-nitrophenyl)-4(3H)-pyrido(2,3-d)pyrimidinone
;
_chemical_melting_point 413.15
_cell_volume   2926.383
_exptl_crystal_colour 'pale yellow'
_exptl_crystal_density_diffrn 1.399
_exptl_special_details
;
Melting point range 413.15-417.15K

;
_exptl_crystal_description 'prism'
_diffrn_ambient_temperature ?
_diffrn_special_details
;
The study was carried out at room temperature,in the range 283-303K

;
#These two values have been output from a single CSD field.
_refine_ls_R_factor_gt 0.057
_refine_ls_wR_factor_gt 0.057
_symmetry_cell_setting orthorhombic
_symmetry_space_group_name_H-M 'P b c a'
_symmetry_Int_Tables_number 61
loop_
_symmetry_equiv_pos_site_id
_symmetry_equiv_pos_as_xyz
1 x,y,z
2 1/2-x,-y,1/2+z
3 1/2+x,1/2-y,-z
4 -x,1/2+y,1/2-z
5 -x,-y,-z
6 -1/2+x,y,-1/2-z
7 -1/2-x,-1/2+y,z
8 x,-1/2-y,-1/2+z
_cell_length_a 27.380(4)
_cell_length_b 13.579(3)
_cell_length_c 7.871(4)
_cell_angle_alpha 90
_cell_angle_beta 90
_cell_angle_gamma 90
_cell_formula_units_Z 8
loop_
_atom_type_symbol
_atom_type_radius_bond
C 0.68
H 0.23
N 0.68
O 0.68
loop_
_atom_site_label
_atom_site_type_symbol
_atom_site_fract_x
_atom_site_fract_y
_atom_site_fract_z
O1 O 0.16537(9) 0.2018(2) 0.1399(3)
O2 O 0.1076(1) 0.8726(2) -0.0548(5)
O3 O 0.1705(1) 0.8400(2) -0.2084(5)
N1 N 0.0625(1) 0.3683(2) -0.1021(3)
N2 N 0.13671(9) 0.3512(2) 0.0543(3)
N3 N 0.0164(1) 0.2324(2) -0.1727(4)
N4 N 0.1352(2) 0.8161(3) -0.1227(5)
C1 C 0.0574(1) 0.2671(3) -0.0964(4)
C2 C 0.1013(1) 0.4050(2) -0.0332(4)
C3 C 0.1342(1) 0.2486(3) 0.0627(4)
C4 C 0.0923(1) 0.2062(2) -0.0212(4)
C5 C 0.0855(1) 0.1042(3) -0.0261(5)
C6 C 0.0447(2) 0.0691(3) -0.1057(5)
C7 C 0.0117(2) 0.1346(4) -0.1740(5)
C8 C 0.1100(1) 0.5123(2) -0.0539(4)
C9 C 0.1497(1) 0.5450(3) -0.1490(5)
C10 C 0.1579(2) 0.6443(3) -0.1739(5)
C11 C 0.1257(2) 0.7090(3) -0.1020(5)
C12 C 0.0854(2) 0.6799(3) -0.0118(5)
C13 C 0.0772(1) 0.5810(3) 0.0120(5)
C14 C 0.1769(1) 0.3994(3) 0.1511(5)
C15 C 0.2246(1) 0.4008(3) 0.0573(5)
C16 C 0.2535(2) 0.4780(4) 0.0517(6)
H1 H 0.111(1) 0.062(2) 0.037(4)
H2 H 0.039(1) -0.005(2) -0.106(4)
H3 H -0.018(1) 0.107(3) -0.224(5)
H4 H 0.172(1) 0.501(2) -0.198(4)
H5 H 0.186(1) 0.669(2) -0.240(4)
H6 H 0.061(1) 0.730(3) 0.042(4)
H7 H 0.049(1) 0.559(2) 0.077(3)
H8 H 0.165(1) 0.468(2) 0.184(4)
H9 H 0.183(1) 0.359(2) 0.254(4)
H10 H 0.232(1) 0.341(2) -0.014(4)
H11 H 0.241(1) 0.546(3) 0.110(5)
H12 H 0.286(1) 0.468(3) -0.018(5)
#END
