
#######################################################################
#
#                 Cambridge Crystallographic Data Centre
#                                CCDC
#
#######################################################################
#
# If this CIF has been generated from an entry in the Cambridge
# Structural Database, then it will include bibliographic, chemical,
# crystal, experimental, refinement or atomic coordinate data resulting
# from the CCDC's data processing and validation procedures.
#
#######################################################################

data_CSD_CIF_JOZRUL
_audit_creation_date 1993-02-23
_audit_creation_method CSD-ConQuest-V1
_database_code_CSD JOZRUL
_database_code_depnum_ccdc_archive 'CCDC 1189852'
_chemical_formula_sum 'C6 H10 N2 O2'
_chemical_formula_moiety
;
C6 H10 N2 O2
;
_journal_coden_Cambridge 55
_journal_volume 111
_journal_year 1992
_journal_page_first 41
_journal_name_full 'Rec.Trav.Chim.Pays-Bas(Fr.)(Rec.J.R.Neth.Chem.Soc.) '
loop_
_publ_author_name
"F.Stunnenberg"
"H.Cerfontain"
"K.Goubitz"
"D.Heydenrijk"
"C.H.Stam"
_chemical_name_systematic
;
(E)-4,5-Dihydro-4-(hydroxyimino)-3,5,5-trimethylisoxazole
;
_cell_volume    752.909
_diffrn_ambient_temperature ?
_diffrn_special_details
;
The study was carried out at room temperature,in the range 283-303K

;
_symmetry_cell_setting monoclinic
_symmetry_space_group_name_H-M 'P 21/c'
_symmetry_Int_Tables_number 14
loop_
_symmetry_equiv_pos_site_id
_symmetry_equiv_pos_as_xyz
1 x,y,z
2 -x,1/2+y,1/2-z
3 -x,-y,-z
4 x,-1/2-y,-1/2+z
_cell_length_a 15.7867
_cell_length_b 6.7754
_cell_length_c 7.109
_cell_angle_alpha 90
_cell_angle_beta 98.042
_cell_angle_gamma 90
_cell_formula_units_Z 4
loop_
_atom_type_symbol
_atom_type_radius_bond
C 0.68
H 0.23
N 0.68
O 0.68
loop_
_atom_site_label
_atom_site_type_symbol
_atom_site_fract_x
_atom_site_fract_y
_atom_site_fract_z
H1 H 0.0561(15) 0.1954(39) -0.1042(35)
H2 H 0.3847(23) 0.00000 -0.4077(53)
H3 H 0.2079(23) 0.00000 0.2148(52)
H4 H 0.1048(15) 0.2981(38) -0.2540(35)
H5 H 0.0123(15) 0.1946(39) -0.3025(34)
H6 H 0.3768(15) 0.1076(36) -0.2337(35)
C1 C 0.21034(21) 0.00000 -0.16312(39)
C2 C 0.11989(23) 0.00000 -0.26064(41)
C3 C 0.26535(23) 0.00000 -0.31179(43)
C4 C 0.07141(20) 0.18588(61) -0.22891(42)
C5 C 0.35923(27) 0.00000 -0.28565(57)
N1 N 0.22035(20) 0.00000 -0.47673(38)
N2 N 0.24218(20) 0.00000 0.01305(37)
O1 O 0.13270(17) 0.00000 -0.46211(29)
O2 O 0.17628(17) 0.00000 0.12658(30)
#END
