
#######################################################################
#
#                 Cambridge Crystallographic Data Centre
#                                CCDC
#
#######################################################################
#
# If this CIF has been generated from an entry in the Cambridge
# Structural Database, then it will include bibliographic, chemical,
# crystal, experimental, refinement or atomic coordinate data resulting
# from the CCDC's data processing and validation procedures.
#
#######################################################################

data_CSD_CIF_JUBCOY
_audit_creation_date 1993-03-04
_audit_creation_method CSD-ConQuest-V1
_database_code_CSD JUBCOY
_chemical_formula_sum 'C10 H6 N4 O4'
_chemical_formula_moiety
;
C10 H6 N4 O4
;
_journal_coeditor_code "IUCr AL0537"
_journal_coden_Cambridge 591
_journal_volume 48
_journal_year 1992
_journal_page_first 1988
_journal_name_full 'Acta Crystallogr.,Sect.C:Cryst.Struct.Commun. '
loop_
_publ_author_name
"C.R.Rice"
"J.D.Wallis"
"D.C.Povey"
_chemical_name_systematic
;
3,3'-Dinitro-2,2'-bipyridine
;
_chemical_melting_point 484
_cell_volume   1044.126
_exptl_crystal_colour 'pale yellow'
_exptl_crystal_density_diffrn 1.57
_exptl_special_details
;
Melting point range 484-485K

;
_diffrn_ambient_temperature ?
_diffrn_special_details
;
The study was carried out at room temperature,in the range 283-303K

;
#These two values have been output from a single CSD field.
_refine_ls_R_factor_gt 0.035
_refine_ls_wR_factor_gt 0.035
_symmetry_cell_setting monoclinic
_symmetry_space_group_name_H-M 'P 21/c'
_symmetry_Int_Tables_number 14
loop_
_symmetry_equiv_pos_site_id
_symmetry_equiv_pos_as_xyz
1 x,y,z
2 -x,1/2+y,1/2-z
3 -x,-y,-z
4 x,-1/2-y,-1/2+z
_cell_length_a 8.259(7)
_cell_length_b 13.111(4)
_cell_length_c 9.978(4)
_cell_angle_alpha 90
_cell_angle_beta 104.90(5)
_cell_angle_gamma 90
_cell_formula_units_Z 4
loop_
_atom_type_symbol
_atom_type_radius_bond
C 0.68
H 0.23
N 0.68
O 0.68
loop_
_atom_site_label
_atom_site_type_symbol
_atom_site_fract_x
_atom_site_fract_y
_atom_site_fract_z
O1 O 0.2680(2) 0.6521(1) 0.1270(1)
O2 O 0.4949(2) 0.6955(1) 0.2762(1)
N1 N 0.1975(2) 0.4323(1) 0.4055(1)
N2 N 0.3642(2) 0.6476(1) 0.2416(1)
C1 C 0.2496(2) 0.4873(1) 0.3119(2)
C2 C 0.3191(2) 0.5832(1) 0.3461(1)
C3 C 0.3429(2) 0.6218(1) 0.4777(2)
C4 C 0.2892(2) 0.5643(2) 0.5731(2)
C5 C 0.2151(2) 0.4718(1) 0.5316(2)
O3 O -0.1088(2) 0.4492(1) 0.1686(1)
O4 O -0.0938(2) 0.2845(1) 0.1787(1)
N3 N 0.3817(2) 0.4426(1) 0.1335(1)
N4 N -0.0409(2) 0.3683(1) 0.1580(1)
C6 C 0.2448(2) 0.4345(1) 0.1791(1)
C7 C 0.1142(2) 0.3712(1) 0.1130(2)
C8 C 0.1249(2) 0.3125(1) 0.0013(2)
C9 C 0.2661(2) 0.3221(1) -0.0453(2)
C10 C 0.3890(2) 0.3883(1) 0.0217(2)
H1 H 0.389(2) 0.685(2) 0.500(2)
H2 H 0.294(2) 0.590(2) 0.661(2)
H3 H 0.174(2) 0.429(1) 0.597(2)
H4 H 0.032(3) 0.270(2) -0.040(2)
H5 H 0.276(2) 0.284(1) -0.122(2)
H6 H 0.489(3) 0.397(1) -0.008(2)
#END
