
#######################################################################
#
#                 Cambridge Crystallographic Data Centre
#                                CCDC
#
#######################################################################
#
# If this CIF has been generated from an entry in the Cambridge
# Structural Database, then it will include bibliographic, chemical,
# crystal, experimental, refinement or atomic coordinate data resulting
# from the CCDC's data processing and validation procedures.
#
#######################################################################

data_CSD_CIF_JUBKOI
_audit_creation_date 2015-03-16
_audit_creation_method CSD-ConQuest-V1
_database_code_CSD JUBKOI
_database_code_depnum_ccdc_archive 'CCDC 1054400'
_chemical_formula_sum 'C18 H23 N1 O5'
_chemical_formula_moiety
;
C18 H23 N1 O5
;
_journal_coden_Cambridge 35
_journal_volume 80
_journal_year 2015
_journal_page_first 1136
_journal_name_full 'J.Org.Chem. '
loop_
_publ_author_name
"S.N.Das"
"A.Chowdhury"
"N.Tripathi"
"P.K.Jana"
"S.B.Mandal"
_chemical_name_systematic
;
(3S,6aS,7aR,10aR,10bR)-1-Benzyl-9,9-dimethylhexahydro-1H-3,10b-methano[1,3]dio
xolo[4',5':4,5]furo[3,2-c][1,6,2]dioxazocine
;
_chemical_name_common
;
(1R,2R,6S,8S,12S)-14-Benzyl-4,4-dimethyl-3,5,7,10,13-pentaoxa-14-azatetracyclo
[10.2.1.0$1,8!.0$2,6!]pentadecane
;
_chemical_melting_point 465.15
_cell_volume   1655.673
_exptl_crystal_density_diffrn 1.337
_exptl_special_details
;
Melting point range 465.15-466.15K

;
_diffrn_ambient_temperature 296.1
#These two values have been output from a single CSD field.
_refine_ls_R_factor_gt 0.0345
_refine_ls_wR_factor_gt 0.0345
_symmetry_cell_setting orthorhombic
_symmetry_space_group_name_H-M 'P 21 21 21'
_symmetry_Int_Tables_number 19
loop_
_symmetry_equiv_pos_site_id
_symmetry_equiv_pos_as_xyz
1 x,y,z
2 1/2-x,-y,1/2+z
3 -x,1/2+y,1/2-z
4 1/2+x,1/2-y,-z
_cell_length_a 5.906(2)
_cell_length_b 9.576(4)
_cell_length_c 29.275(13)
_cell_angle_alpha 90
_cell_angle_beta 90
_cell_angle_gamma 90
_cell_formula_units_Z 4
loop_
_atom_type_symbol
_atom_type_radius_bond
C 0.68
H 0.23
N 0.68
O 0.68
loop_
_atom_site_label
_atom_site_type_symbol
_atom_site_fract_x
_atom_site_fract_y
_atom_site_fract_z
N1 N 0.1645(4) 0.3260(3) 0.88528(8)
O1 O -0.1637(4) 0.0298(2) 0.84727(7)
O2 O -0.2660(4) 0.1370(3) 0.77949(8)
O3 O -0.0901(4) 0.3295(2) 0.80442(7)
O4 O 0.2534(3) 0.2818(2) 0.92916(7)
O5 O 0.0740(4) -0.0267(3) 0.93620(8)
C1 C -0.2935(5) 0.1343(4) 0.82690(11)
H1 H -0.45360 0.12430 0.83510
C2 C -0.2006(5) 0.2754(3) 0.84323(10)
H2 H -0.31910 0.33750 0.85490
C3 C -0.0312(5) 0.2337(3) 0.87961(10)
C4 C 0.0451(5) 0.0919(3) 0.86152(11)
H3 H 0.13810 0.10780 0.83430
C5 C 0.1707(6) -0.0073(4) 0.89246(11)
H4 H 0.18000 -0.09750 0.87740
H5 H 0.32420 0.02690 0.89630
C6 C 0.1405(7) 0.0735(4) 0.96875(12)
H6 H 0.30360 0.06930 0.97230
H7 H 0.07300 0.04980 0.99790
C7 C 0.0746(5) 0.2203(4) 0.95654(11)
H8 H 0.05080 0.27540 0.98430
C8 C -0.1351(5) 0.2245(4) 0.92696(10)
H9 H -0.22770 0.30560 0.93370
H10 H -0.22550 0.14060 0.93050
C9 C 0.0948(6) 0.4744(3) 0.88980(12)
H11 H -0.01650 0.48230 0.91400
H12 H 0.02390 0.50450 0.86160
C10 C 0.2907(5) 0.5679(3) 0.90018(11)
C11 C 0.4410(6) 0.6068(4) 0.86664(12)
H13 H 0.42560 0.57190 0.83720
C12 C 0.6158(7) 0.6985(4) 0.87692(15)
H14 H 0.71660 0.72580 0.85420
C13 C 0.6397(7) 0.7483(4) 0.91982(17)
H15 H 0.75780 0.80910 0.92660
C14 C 0.4932(7) 0.7102(4) 0.95292(15)
H16 H 0.51040 0.74450 0.98240
C15 C 0.3185(6) 0.6208(3) 0.94286(12)
H17 H 0.21720 0.59580 0.96580
C16 C -0.1923(6) 0.2700(4) 0.76515(11)
C17 C -0.0145(7) 0.2525(5) 0.72929(12)
H18 H 0.10190 0.19130 0.74040
H19 H 0.05020 0.34190 0.72210
H20 H -0.08130 0.21320 0.70230
C18 C -0.3900(6) 0.3564(5) 0.74960(13)
H21 H -0.45720 0.31400 0.72310
H22 H -0.33900 0.44870 0.74200
H23 H -0.50010 0.36160 0.77360
#END
