
#######################################################################
#
#                 Cambridge Crystallographic Data Centre
#                                CCDC
#
#######################################################################
#
# If this CIF has been generated from an entry in the Cambridge
# Structural Database, then it will include bibliographic, chemical,
# crystal, experimental, refinement or atomic coordinate data resulting
# from the CCDC's data processing and validation procedures.
#
#######################################################################

data_CSD_CIF_JUBKAU
_audit_creation_date 2015-03-16
_audit_creation_method CSD-ConQuest-V1
_database_code_CSD JUBKAU
_database_code_depnum_ccdc_archive 'CCDC 1054394'
_chemical_formula_sum 'C24 H32 N2 O6'
_chemical_formula_moiety
;
C24 H32 N2 O6
;
_journal_coden_Cambridge 35
_journal_volume 80
_journal_year 2015
_journal_page_first 1116
_journal_name_full 'J.Org.Chem. '
loop_
_publ_author_name
"A.J.Nocket"
"Yiqing Feng"
"S.M.Weinreb"
_chemical_name_systematic
;
Dimethyl 
((Z)-1-(2-benzyl-1-oxo-2-azaspiro[5.5]undec-7-yl)-2-(hydroxyimino)ethyl)malona
te
;
_cell_volume    582.534
_exptl_crystal_colour 'colorless'
_exptl_crystal_density_diffrn 1.267
_exptl_crystal_description 'block'
_diffrn_ambient_temperature 298
#These two values have been output from a single CSD field.
_refine_ls_R_factor_gt 0.0816
_refine_ls_wR_factor_gt 0.0816
loop_
_citation_database_id_CSD
_citation_special_details
JUBJUN "is a stereoisomer of this entry"
_symmetry_cell_setting triclinic
_symmetry_space_group_name_H-M 'P 1'
_symmetry_Int_Tables_number 1
loop_
_symmetry_equiv_pos_site_id
_symmetry_equiv_pos_as_xyz
1 x,y,z
_cell_length_a 7.2974(14)
_cell_length_b 8.3147(15)
_cell_length_c 9.9690(19)
_cell_angle_alpha 75.788(3)
_cell_angle_beta 83.489(3)
_cell_angle_gamma 89.109(4)
_cell_formula_units_Z 1
loop_
_atom_type_symbol
_atom_type_radius_bond
C 0.68
H 0.23
N 0.68
O 0.68
loop_
_atom_site_label
_atom_site_type_symbol
_atom_site_fract_x
_atom_site_fract_y
_atom_site_fract_z
C1 C 0.8086(7) 0.3096(6) 1.0105(5)
C2 C 0.6855(9) 0.3290(8) 0.9133(5)
H1 H 0.71670 0.39790 0.82510
C3 C 0.5174(9) 0.2489(9) 0.9436(6)
H2 H 0.43470 0.26590 0.87710
C4 C 0.4722(9) 0.1457(8) 1.0698(8)
H3 H 0.35900 0.09030 1.09010
C5 C 0.5928(9) 0.1222(8) 1.1684(6)
H4 H 0.56180 0.05020 1.25520
C6 C 0.7602(8) 0.2054(7) 1.1389(6)
H5 H 0.84070 0.19060 1.20670
C7 C 0.9911(8) 0.4023(7) 0.9788(6)
H6 H 1.04770 0.38850 1.06430
H7 H 1.07270 0.35450 0.91550
C8 C 0.8243(9) 0.6642(9) 0.9851(6)
H8 H 0.82760 0.62940 1.08500
H9 H 0.70600 0.62980 0.96510
C9 C 0.8392(10) 0.8475(9) 0.9406(6)
H10 H 0.94040 0.88590 0.98050
H11 H 0.72630 0.89640 0.97290
C10 C 0.8726(7) 0.8995(7) 0.7835(6)
H12 H 0.86950 1.01960 0.75270
H13 H 0.77540 0.85420 0.74420
C11 C 1.0603(6) 0.8377(6) 0.7314(5)
C12 C 1.0901(6) 0.6582(6) 0.8062(5)
C13 C 1.2179(8) 0.9448(8) 0.7566(6)
H14 H 1.20540 0.94670 0.85420
H15 H 1.33510 0.89440 0.73600
C14 C 1.2183(10) 1.1215(9) 0.6680(7)
H16 H 1.10700 1.17630 0.69550
H17 H 1.32320 1.18180 0.68390
C15 C 1.2282(9) 1.1258(7) 0.5148(7)
H18 H 1.34610 1.08320 0.48460
H19 H 1.21940 1.23960 0.46160
C16 C 1.0735(8) 1.0227(6) 0.4867(6)
H20 H 1.08640 1.02320 0.38870
H21 H 0.95580 1.07170 0.50850
C17 C 1.0764(6) 0.8437(6) 0.5741(5)
H22 H 1.19900 0.80140 0.55090
C18 C 0.9345(6) 0.7217(6) 0.5433(4)
H23 H 0.88330 0.65410 0.63450
C19 C 0.7738(7) 0.8005(6) 0.4752(5)
H24 H 0.80240 0.87850 0.39110
C20 C 1.0306(6) 0.5988(6) 0.4657(5)
H25 H 1.11280 0.53020 0.52700
C21 C 1.1436(8) 0.6751(8) 0.3285(6)
C22 C 1.3886(13) 0.6186(12) 0.1707(9)
H26 H 1.31310 0.64420 0.09560
H27 H 1.46950 0.52940 0.15990
H28 H 1.46050 0.71470 0.16960
C23 C 0.8894(8) 0.4857(7) 0.4361(6)
C24 C 0.6503(10) 0.2984(10) 0.5328(8)
H29 H 0.55290 0.37700 0.51440
H30 H 0.61320 0.21470 0.61640
H31 H 0.67570 0.24750 0.45620
N1 N 0.9717(6) 0.5797(6) 0.9164(4)
N2 N 0.6023(6) 0.7763(6) 0.5157(5)
O1 O 0.5729(5) 0.6593(5) 0.6437(4)
H32 H 0.66300 0.59940 0.65440
O2 O 1.2229(4) 0.5802(5) 0.7635(4)
O3 O 1.1217(6) 0.8078(6) 0.2546(4)
O4 O 1.2729(7) 0.5698(6) 0.3011(5)
O5 O 0.8475(9) 0.4874(7) 0.3257(5)
O6 O 0.8147(5) 0.3830(5) 0.5502(4)
#END
