
#######################################################################
#
#                 Cambridge Crystallographic Data Centre
#                                CCDC
#
#######################################################################
#
# If this CIF has been generated from an entry in the Cambridge
# Structural Database, then it will include bibliographic, chemical,
# crystal, experimental, refinement or atomic coordinate data resulting
# from the CCDC's data processing and validation procedures.
#
#######################################################################

data_CSD_CIF_JUDPEF
_audit_creation_date 2015-03-18
_audit_creation_method CSD-ConQuest-V1
_database_code_CSD JUDPEF
_database_code_depnum_ccdc_archive 'CCDC 1052631'
_chemical_formula_sum 'C18 H22 N2 O5'
_chemical_formula_moiety
;
C18 H22 N2 O5
;
_journal_coeditor_code "hb7342"
_journal_coden_Cambridge 1828
_journal_volume 71
_journal_year 2015
_journal_page_first o238
_journal_name_full 'Acta Crystallogr.,Sect.E:Cryst.Commun. '
loop_
_publ_author_name
"G.-B.Hu"
"D.-W.Jiang"
"J.-Y.Li"
"Y.Rao"
"L.-Y.Jiang"
_chemical_name_systematic
;
(5S*,8S*)-3-(2,5-Dimethylphenyl)-8-methoxy-3-nitro-1-azaspiro[4.5]decane-2,4-d
ione
;
_cell_volume   1810.673
_exptl_crystal_colour 'colorless'
_exptl_crystal_density_diffrn 1.271
_exptl_crystal_description 'block'
_exptl_crystal_preparation 'ethanol'
_diffrn_ambient_temperature 170.1
#These two values have been output from a single CSD field.
_refine_ls_R_factor_gt 0.05
_refine_ls_wR_factor_gt 0.05
_symmetry_cell_setting monoclinic
_symmetry_space_group_name_H-M 'P 21/c'
_symmetry_Int_Tables_number 14
loop_
_symmetry_equiv_pos_site_id
_symmetry_equiv_pos_as_xyz
1 x,y,z
2 -x,1/2+y,1/2-z
3 -x,-y,-z
4 x,-1/2-y,-1/2+z
_cell_length_a 9.5707(9)
_cell_length_b 8.4181(7)
_cell_length_c 22.8720(19)
_cell_angle_alpha 90
_cell_angle_beta 100.703(8)
_cell_angle_gamma 90
_cell_formula_units_Z 4
loop_
_atom_type_symbol
_atom_type_radius_bond
C 0.68
H 0.23
N 0.68
O 0.68
loop_
_atom_site_label
_atom_site_type_symbol
_atom_site_fract_x
_atom_site_fract_y
_atom_site_fract_z
O1 O 0.18294(17) 1.31285(17) 0.34437(6)
O2 O 0.09810(17) 1.2327(2) 0.42014(7)
O3 O 0.44250(14) 1.14145(16) 0.43813(5)
O4 O -0.00240(16) 0.9051(2) 0.37430(8)
O5 O 0.32239(19) 0.4533(2) 0.56929(7)
N1 N 0.16126(17) 1.2114(2) 0.37880(7)
N2 N 0.33749(16) 0.90936(19) 0.45886(6)
H1 H 0.40570 0.87900 0.48800
C1 C 0.2650(2) 1.0141(2) 0.31529(8)
C2 C 0.1642(2) 1.0202(3) 0.26206(9)
C3 C 0.2143(3) 0.9836(3) 0.21029(10)
H2 H 0.14910 0.98590 0.17350
C4 C 0.3526(3) 0.9447(3) 0.20978(11)
H3 H 0.38010 0.91870 0.17310
C5 C 0.4534(3) 0.9422(3) 0.26167(10)
C6 C 0.4058(2) 0.9761(2) 0.31421(9)
H4 H 0.47210 0.97320 0.35070
C7 C 0.0114(3) 1.0702(3) 0.25703(10)
H5 H -0.01250 1.07610 0.29680
H6 H -0.05050 0.99240 0.23300
H7 H -0.00240 1.17470 0.23790
C8 C 0.6086(3) 0.9084(4) 0.26190(13)
H8 H 0.62630 0.79410 0.26710
H9 H 0.66740 0.96630 0.29470
H10 H 0.63270 0.94280 0.22410
C9 C 0.22283(19) 1.0470(2) 0.37501(8)
C10 C 0.1216(2) 0.9211(2) 0.39383(8)
C11 C 0.20633(19) 0.8179(2) 0.44258(8)
C12 C 0.34921(19) 1.0401(2) 0.42782(8)
C13 C 0.1293(2) 0.8034(3) 0.49537(9)
H11 H 0.11770 0.91040 0.51180
H12 H 0.03340 0.75820 0.48150
C14 C 0.2111(2) 0.6980(3) 0.54417(9)
H13 H 0.30250 0.74940 0.56130
H14 H 0.15550 0.68570 0.57630
C15 C 0.2394(2) 0.5373(3) 0.52057(9)
H15 H 0.14700 0.48060 0.50740
C16 C 0.3164(2) 0.5505(2) 0.46846(9)
H16 H 0.32960 0.44300 0.45270
H17 H 0.41170 0.59740 0.48230
C17 C 0.2336(2) 0.6532(2) 0.41893(9)
H18 H 0.14170 0.60150 0.40260
H19 H 0.28820 0.66350 0.38640
C18 C 0.3060(3) 0.2894(3) 0.56796(12)
H20 H 0.33020 0.24750 0.53110
H21 H 0.20710 0.26270 0.56960
H22 H 0.36910 0.24240 0.60230
#END
