
#######################################################################
#
#                 Cambridge Crystallographic Data Centre
#                                CCDC
#
#######################################################################
#
# If this CIF has been generated from an entry in the Cambridge
# Structural Database, then it will include bibliographic, chemical,
# crystal, experimental, refinement or atomic coordinate data resulting
# from the CCDC's data processing and validation procedures.
#
#######################################################################

data_CSD_CIF_JUDVEJ
_audit_creation_date 1993-03-24
_audit_creation_method CSD-ConQuest-V1
_database_code_CSD JUDVEJ
_chemical_formula_sum 'C31 H51 N1 O5'
_chemical_formula_moiety
;
C31 H51 N1 O5
;
_journal_coden_Cambridge 1090
_journal_volume 3
_journal_year 1992
_journal_page_first 613
_journal_name_full 'Tetrahedron:Asymm. '
loop_
_publ_author_name
"H.Duddeck"
"J.Frelek"
"C.Kruger"
"G.Snatzke"
"W.J.Szczepek"
"P.Wagner"
"S.Werner"
_chemical_name_systematic
;
(6E)-6-Hydroxyimino-5\b-cholestane-3\b,5-diol
;
_cell_volume   3080.310
_exptl_crystal_density_diffrn 1.12
_diffrn_ambient_temperature ?
_diffrn_special_details
;
The study was carried out at room temperature,in the range 283-303K

;
#These two values have been output from a single CSD field.
_refine_ls_R_factor_gt 0.056
_refine_ls_wR_factor_gt 0.056
_symmetry_cell_setting orthorhombic
_symmetry_space_group_name_H-M 'P 21 21 21'
_symmetry_Int_Tables_number 19
loop_
_symmetry_equiv_pos_site_id
_symmetry_equiv_pos_as_xyz
1 x,y,z
2 1/2+x,1/2-y,-z
3 -x,1/2+y,1/2-z
4 1/2-x,-y,1/2+z
_cell_length_a 9.585(1)
_cell_length_b 10.815(1)
_cell_length_c 29.715(2)
_cell_angle_alpha 90
_cell_angle_beta 90
_cell_angle_gamma 90
_cell_formula_units_Z 4
loop_
_atom_type_symbol
_atom_type_radius_bond
C 0.68
H 0.23
N 0.68
O 0.68
loop_
_atom_site_label
_atom_site_type_symbol
_atom_site_fract_x
_atom_site_fract_y
_atom_site_fract_z
O1 O 0.6620(3) 0.8035(3) 0.8879(1)
O2 O 0.4467(2) 0.9825(2) 1.0832(1)
O3 O 0.4283(3) 0.7968(3) 1.1164(1)
O4 O 0.6123(2) 1.0023(2) 1.0002(1)
O5 O 0.6721(3) 0.8184(3) 1.0312(1)
N1 N 0.6428(3) 0.8649(3) 0.9297(1)
C1 C 0.3664(4) 1.1545(3) 1.0108(1)
C2 C 0.2705(3) 1.0777(3) 1.0400(1)
C3 C 0.3339(3) 0.9543(3) 1.0515(1)
C4 C 0.3890(3) 0.8869(3) 1.0106(1)
C5 C 0.4811(3) 0.9639(3) 0.9791(1)
C6 C 0.5144(4) 0.8945(3) 0.9355(1)
C7 C 0.3965(4) 0.8717(3) 0.9037(1)
C8 C 0.3179(3) 0.9936(3) 0.8927(1)
C9 C 0.2788(3) 1.0601(3) 0.9366(1)
C10 C 0.4084(3) 1.0898(3) 0.9666(1)
C11 C 0.1866(4) 1.1733(4) 0.9273(1)
C12 C 0.0564(4) 1.1420(4) 0.8993(1)
C13 C 0.0948(4) 1.0799(3) 0.8548(1)
C14 C 0.1859(4) 0.9662(3) 0.8663(1)
C15 C 0.1978(4) 0.8984(4) 0.8217(1)
C16 C 0.0538(5) 0.9176(4) 0.7992(1)
C17 C -0.0249(4) 1.0151(4) 0.8288(1)
C18 C 0.1711(4) 1.1702(4) 0.8233(1)
C19 C 0.5120(4) 1.1738(4) 0.9411(1)
C20 C -0.1316(4) 1.0908(1) 0.8022(1)
C21 C -0.2051(6) 1.1858(6) 0.8298(2)
C22 C -0.2369(5) 1.0050(5) 0.7791(1)
C23 C -0.3416(4) 1.0690(5) 0.7486(1)
C24 C -0.4209(5) 0.9878(6) 0.7188(2)
C25 C -0.5153(6) 1.0507(6) 0.6850(2)
C26 C -0.6356(7) 1.1006(9) 0.7053(2)
C27 C -0.5421(8) 0.9767(7) 0.6457(2)
C28 C 0.4815(4) 0.8968(5) 1.1132(1)
C29 C 0.5971(5) 0.9405(5) 1.1433(2)
C30 C 0.7002(4) 0.9199(4) 1.0195(1)
C31 C 0.8413(4) 0.9774(4) 1.0245(2)
H1 H 0.747(5) 0.781(4) 0.892(1)
H2 H 0.44910 1.17160 1.02730
H3 H 0.32070 1.22960 1.00350
H4 H 0.25240 1.12170 1.06690
H5 H 0.18560 1.06430 1.02420
H6 H 0.26600 0.90010 1.06420
H7 H 0.31110 0.85810 0.99370
H8 H 0.44220 0.81810 1.02070
H9 H 0.33350 0.81470 0.91680
H10 H 0.43260 0.83740 0.87640
H11 H 0.37740 1.04460 0.87490
H12 H 0.22460 1.00460 0.95390
H13 H 0.23900 1.23310 0.91120
H14 H 0.15600 1.20680 0.95500
H15 H 0.00710 1.21640 0.89290
H16 H -0.00150 1.08800 0.91590
H17 H 0.14490 0.91290 0.88800
H18 H 0.21540 0.81330 0.82630
H19 H 0.26960 0.93350 0.80380
H20 H 0.00300 0.84220 0.79850
H21 H 0.06470 0.94780 0.76930
H22 H -0.08760 0.98330 0.85040
H23 H 0.11130 1.23850 0.81710
H24 H 0.25340 1.19800 0.83730
H25 H 0.19280 1.12910 0.79600
H26 H 0.46800 1.25110 0.93460
H27 H 0.59180 1.18740 0.95900
H28 H 0.53770 1.13530 0.91360
H29 H -0.07950 1.13420 0.77970
H30 H -0.25370 1.14670 0.85330
H31 H -0.13900 1.24240 0.84150
H32 H -0.26960 1.22940 0.81100
H33 H -0.28680 0.93600 0.80190
H34 H -0.18650 0.94740 0.76130
H35 H -0.29270 1.12620 0.73050
H36 H -0.40590 1.11180 0.76750
H37 H -0.47910 0.93720 0.73750
H38 H -0.35760 0.93810 0.70300
H39 H -0.46550 1.11940 0.67300
H40 H -0.68430 1.03970 0.72040
H41 H -0.60340 1.16240 0.72740
H42 H -0.68900 1.14170 0.68380
H43 H -0.45580 0.95910 0.63200
H44 H -0.58590 0.90300 0.65530
H45 H -0.60030 1.02190 0.62650
H46 H 0.67600 0.95880 1.12630
H47 H 0.56610 1.01180 1.15940
H48 H 0.61770 0.87670 1.16480
H49 H 0.87540 1.00050 0.99590
H50 H 0.83350 1.04840 1.04320
H51 H 0.90320 0.91970 1.03810
#END
