
#######################################################################
#
#                 Cambridge Crystallographic Data Centre
#                                CCDC
#
#######################################################################
#
# If this CIF has been generated from an entry in the Cambridge
# Structural Database, then it will include bibliographic, chemical,
# crystal, experimental, refinement or atomic coordinate data resulting
# from the CCDC's data processing and validation procedures.
#
#######################################################################

data_CSD_CIF_JUFKIE
_audit_creation_date 1993-03-24
_audit_creation_method CSD-ConQuest-V1
_database_code_CSD JUFKIE
_chemical_formula_sum 'C14 H13 N5 O4'
_chemical_formula_moiety
;
C14 H13 N5 O4
;
_journal_coden_Cambridge 388
_journal_volume 27
_journal_year 1991
_journal_page_first 1151
_journal_name_full 'Zh.Org.Khim.(Russ.)(Russ.J.Org.Chem.) '
loop_
_publ_author_name
"N.G.Furmanova"
"A.V.Lesin"
"S.V.Kurbatov"
"N.I.Kirillova"
"A.I.Gusev"
"Z.N.Budarina"
"L.P.Olekhnovich"
_chemical_name_systematic
;
Spiro-2',2'-(1-methylimino-2-methylaminotroponyl)-1'-aza-3,5-dinitrocyclohexad
iene
;
_chemical_melting_point 566.15
_cell_volume    719.341
_exptl_crystal_density_diffrn 1.45
_exptl_special_details
;
x(N4) is 0.4195 not 0.4152

;
_diffrn_ambient_temperature ?
_diffrn_special_details
;
The study was carried out at room temperature,in the range 283-303K

;
#These two values have been output from a single CSD field.
_refine_ls_R_factor_gt 0.034
_refine_ls_wR_factor_gt 0.034
_symmetry_cell_setting triclinic
_symmetry_space_group_name_H-M 'P -1'
_symmetry_Int_Tables_number 2
loop_
_symmetry_equiv_pos_site_id
_symmetry_equiv_pos_as_xyz
1 x,y,z
2 -x,-y,-z
_cell_length_a 8.385(1)
_cell_length_b 8.636(3)
_cell_length_c 10.017(2)
_cell_angle_alpha 88.49(2)
_cell_angle_beta 82.85(1)
_cell_angle_gamma 88.74(2)
_cell_formula_units_Z 2
loop_
_atom_type_symbol
_atom_type_radius_bond
C 0.68
H 0.23
N 0.68
O 0.68
loop_
_atom_site_label
_atom_site_type_symbol
_atom_site_fract_x
_atom_site_fract_y
_atom_site_fract_z
C1 C 0.7494(2) 0.3555(2) 0.9531(2)
C2 C 0.7627(2) 0.1906(2) 0.9332(2)
C3 C 0.8297(2) 0.1129(2) 0.8205(2)
C4 C 0.8982(2) 0.1762(3) 0.7003(2)
C5 C 0.9159(3) 0.3306(3) 0.6599(2)
C6 C 0.8693(3) 0.4601(3) 0.7323(2)
C7 C 0.7965(3) 0.4773(2) 0.8625(2)
C8 C 0.6478(2) 0.2297(2) 1.1537(2)
C9 C 0.7392(2) 0.2108(2) 1.2721(2)
C10 C 0.6647(2) 0.2022(2) 1.4001(2)
C11 C 0.4995(2) 0.2033(2) 1.4215(2)
C12 C 0.4115(2) 0.2063(2) 1.3100(2)
C13 C 0.6576(3) 0.5243(2) 1.1454(2)
C14 C 0.7022(2) -0.0451(2) 1.0746(2)
N1 N 0.6809(2) 0.3763(1) 1.0783(1)
N2 N 0.7004(2) 0.1211(1) 1.0466(1)
N3 N 0.9088(1) 0.2073(1) 1.2513(1)
N4 N 0.4195(2) 0.1988(2) 1.5532(2)
N5 N 0.4738(1) 0.2167(2) 1.1875(1)
O1 O 0.9857(1) 0.1864(1) 1.3482(1)
O2 O 0.9781(1) 0.2263(1) 1.1368(1)
O3 O 0.2723(2) 0.1914(3) 1.5698(2)
O4 O 0.4987(2) 0.2010(2) 1.6477(1)
H1 H 0.831(3) -0.003(2) 0.830(2)
H2 H 0.940(2) 0.094(2) 0.631(2)
H3 H 0.965(2) 0.347(2) 0.569(2)
H4 H 0.895(3) 0.563(3) 0.687(2)
H5 H 0.776(2) 0.580(2) 0.896(2)
H6 H 0.728(2) 0.193(2) 1.474(2)
H7 H 0.294(2) 0.201(2) 1.329(2)
H8 H 0.585(3) 0.506(3) 1.227(3)
H9 H 0.760(3) 0.561(3) 1.162(3)
H10 H 0.606(4) 0.603(3) 1.091(3)
H11 H 0.638(3) -0.066(3) 1.158(2)
H12 H 0.664(3) -0.100(3) 1.002(2)
H13 H 0.814(3) -0.078(3) 1.078(3)
#END
