
#######################################################################
#
#                 Cambridge Crystallographic Data Centre
#                                CCDC
#
#######################################################################
#
# If this CIF has been generated from an entry in the Cambridge
# Structural Database, then it will include bibliographic, chemical,
# crystal, experimental, refinement or atomic coordinate data resulting
# from the CCDC's data processing and validation procedures.
#
#######################################################################

data_CSD_CIF_JUGQAF
_audit_creation_date 2015-03-19
_audit_creation_method CSD-ConQuest-V1
_database_code_CSD JUGQAF
_database_code_depnum_ccdc_archive 'CCDC 1037286'
_chemical_formula_sum 'C20 H17 N3 O4'
_chemical_formula_moiety
;
C20 H17 N3 O4
;
_journal_coden_Cambridge 35
_journal_volume 80
_journal_year 2015
_journal_page_first 2376
_journal_name_full 'J.Org.Chem. '
loop_
_publ_author_name
"Taekyu Ryu"
"Yonghyeon Baek"
"Phil Ho Lee"
_chemical_name_systematic
;
ethyl 5-(4-methylphenyl)-3-(4-nitrophenyl)pyrazine-2-carboxylate
;
_cell_volume    900.468
_exptl_crystal_colour 'colorless'
_exptl_crystal_density_diffrn 1.34
_exptl_crystal_description 'block'
_diffrn_ambient_temperature 296
#These two values have been output from a single CSD field.
_refine_ls_R_factor_gt 0.104
_refine_ls_wR_factor_gt 0.104
_symmetry_cell_setting triclinic
_symmetry_space_group_name_H-M 'P -1'
_symmetry_Int_Tables_number 2
loop_
_symmetry_equiv_pos_site_id
_symmetry_equiv_pos_as_xyz
1 x,y,z
2 -x,-y,-z
_cell_length_a 8.8975(3)
_cell_length_b 8.9207(3)
_cell_length_c 11.9762(4)
_cell_angle_alpha 78.8932(18)
_cell_angle_beta 88.2809(18)
_cell_angle_gamma 74.9253(18)
_cell_formula_units_Z 2
loop_
_atom_type_symbol
_atom_type_radius_bond
C 0.68
H 0.23
N 0.68
O 0.68
loop_
_atom_site_label
_atom_site_type_symbol
_atom_site_fract_x
_atom_site_fract_y
_atom_site_fract_z
C1 C 1.5649(7) -0.3104(7) 0.5625(5)
H1 H 1.65350 -0.28460 0.52380
H2 H 1.57800 -0.42270 0.57470
H3 H 1.55560 -0.27700 0.63450
C2 C 1.4193(6) -0.2271(6) 0.4909(4)
C3 C 1.2852(7) -0.2780(6) 0.5070(4)
H4 H 1.28560 -0.36700 0.56230
C4 C 1.1510(6) -0.2021(6) 0.4444(4)
H5 H 1.06310 -0.24060 0.45730
C5 C 1.1459(6) -0.0675(6) 0.3616(4)
C6 C 1.2813(6) -0.0156(6) 0.3448(4)
H6 H 1.28130 0.07350 0.28970
C7 C 1.4140(6) -0.0932(6) 0.4078(4)
H7 H 1.50240 -0.05570 0.39480
C8 C 1.0041(6) 0.0165(6) 0.2919(4)
C9 C 0.8545(6) 0.0080(6) 0.3273(4)
H8 H 0.84260 -0.04460 0.40070
C10 C 0.7503(5) 0.1520(6) 0.1573(4)
C11 C 0.8977(5) 0.1733(5) 0.1242(4)
C12 C 0.9257(5) 0.2669(6) 0.0122(4)
C13 C 1.0563(5) 0.2046(6) -0.0469(4)
H9 H 1.12500 0.10910 -0.01470
C14 C 1.0848(5) 0.2828(6) -0.1526(4)
H10 H 1.17060 0.23990 -0.19320
C15 C 0.9836(5) 0.4262(6) -0.1972(4)
C16 C 0.8570(5) 0.4943(6) -0.1393(4)
H11 H 0.79190 0.59270 -0.17000
C17 C 0.8289(5) 0.4133(6) -0.0348(4)
H12 H 0.74310 0.45740 0.00560
C18 C 0.6090(5) 0.2051(6) 0.0805(4)
C19 C 0.5119(7) 0.1884(8) -0.0995(5)
H13 H 0.41270 0.20530 -0.06150
H14 H 0.52180 0.10010 -0.13800
C20 C 0.5146(8) 0.3322(8) -0.1847(5)
H15 H 0.49650 0.42140 -0.14770
H16 H 0.43480 0.35060 -0.24170
H17 H 0.61440 0.31750 -0.22000
N1 N 0.7294(5) 0.0721(5) 0.2603(4)
N2 N 1.0226(4) 0.1026(5) 0.1909(3)
N3 N 1.0129(5) 0.5082(6) -0.3117(4)
O1 O 0.9321(6) 0.6399(6) -0.3471(4)
O2 O 1.1176(6) 0.4378(6) -0.3657(4)
O3 O 0.4858(5) 0.2825(6) 0.1039(4)
O4 O 0.6378(4) 0.1498(4) -0.0150(3)
#END
