
#######################################################################
#
#                 Cambridge Crystallographic Data Centre
#                                CCDC
#
#######################################################################
#
# If this CIF has been generated from an entry in the Cambridge
# Structural Database, then it will include bibliographic, chemical,
# crystal, experimental, refinement or atomic coordinate data resulting
# from the CCDC's data processing and validation procedures.
#
#######################################################################

data_CSD_CIF_JUHFUN
_audit_creation_date 1993-05-12
_audit_creation_method CSD-ConQuest-V1
_database_code_CSD JUHFUN
_chemical_formula_sum 'C9 H16 N4 O4'
_chemical_formula_moiety
;
C9 H16 N4 O4
;
_journal_coden_Cambridge 93
_journal_volume 320
_journal_year 1991
_journal_page_first 1392
_journal_name_full 'Dokl.Akad.Nauk SSSR(Russ.)(Proc.Nat.Acad.Sci.USSR) '
loop_
_publ_author_name
"N.S.Zefirov"
"V.A.Palyulin"
"G.A.Yefimov"
"O.A.Subbotin"
"O.I.Levina"
"K.A.Potekhin"
"Yu.T.Struchkov"
_chemical_name_systematic
;
3,7-Dimethyl-1,5-dinitro-3,7-diazabicyclo(3.3.1)nonane
;
_chemical_melting_point 389.15
_cell_volume   1192.263
_exptl_crystal_density_diffrn 1.36
_exptl_special_details
;
Melting point range 389.15-390.15K

;
_diffrn_ambient_temperature ?
_diffrn_special_details
;
The study was carried out at room temperature,in the range 283-303K

;
_refine_special_details
;
O1 and O2 are disordered.

;
#These two values have been output from a single CSD field.
_refine_ls_R_factor_gt 0.082
_refine_ls_wR_factor_gt 0.082
_symmetry_cell_setting orthorhombic
_symmetry_space_group_name_H-M 'P n a m'
_symmetry_Int_Tables_number 62
loop_
_symmetry_equiv_pos_site_id
_symmetry_equiv_pos_as_xyz
1 x,y,z
2 1/2-x,1/2+y,1/2+z
3 1/2+x,1/2-y,z
4 -x,-y,1/2+z
5 -x,-y,-z
6 -1/2+x,-1/2-y,-1/2-z
7 -1/2-x,-1/2+y,-z
8 x,y,-1/2-z
_cell_length_a 8.6885(7)
_cell_length_b 11.1880(7)
_cell_length_c 12.2652(7)
_cell_angle_alpha 90
_cell_angle_beta 90
_cell_angle_gamma 90
_cell_formula_units_Z 4
loop_
_atom_type_symbol
_atom_type_radius_bond
C 0.68
N 0.68
O 0.68
loop_
_atom_site_label
_atom_site_type_symbol
_atom_site_fract_x
_atom_site_fract_y
_atom_site_fract_z
N1 N 0.2516(8) 0.8254(5) 0.0504(6)
N2 N 0.3585(8) 1.0601(7) 0.25000
N3 N 0.0013(9) 0.9296(7) 0.25000
C1 C 0.2431(7) 0.9002(5) 0.1543(5)
C2 C 0.3741(7) 0.9896(6) 0.1508(5)
C3 C 0.0835(8) 0.9605(5) 0.1489(6)
C4 C 0.2589(10) 0.8167(7) 0.25000
C5 C 0.4626(11) 1.1685(8) 0.25000
C6 C -0.1532(11) 0.9840(9) 0.25000
O1 O 0.1734(16) 0.7288(9) 0.0511(10)
O2? O 0.2498(15) 0.8842(10) -0.0396(8)
O3 O 0.3476(20) 0.8360(13) -0.0109(12)
O4? O 0.2804(15) 0.7286(10) 0.0461(8)
C2G C 0.3741(7) 0.9896(6) 0.3492(5)
C3G C 0.0835(8) 0.9605(5) 0.3511(6)
C1G C 0.2431(7) 0.9002(5) 0.3457(5)
N1G N 0.2516(8) 0.8254(5) 0.4496(6)
O1G O 0.1734(16) 0.7288(9) 0.4489(10)
O3G O 0.3476(20) 0.8360(13) 0.5109(12)
#END
