
#######################################################################
#
#                 Cambridge Crystallographic Data Centre
#                                CCDC
#
#######################################################################
#
# If this CIF has been generated from an entry in the Cambridge
# Structural Database, then it will include bibliographic, chemical,
# crystal, experimental, refinement or atomic coordinate data resulting
# from the CCDC's data processing and validation procedures.
#
#######################################################################

data_CSD_CIF_JUKDOI
_audit_creation_date 1993-05-14
_audit_creation_method CSD-ConQuest-V1
_database_code_CSD JUKDOI
_chemical_formula_sum 'C18 H26 N2 O4'
_chemical_formula_moiety
;
C18 H26 N2 O4
;
_journal_coden_Cambridge 16
_journal_volume 48
_journal_year 1992
_journal_page_first 8213
_journal_name_full 'Tetrahedron '
loop_
_publ_author_name
"J.W.Huffman"
"M.M.Cooper"
"B.B.Miburo"
"W.T.Pennington"
_chemical_name_systematic
;
(1S*,5S*,10R*,11R*,13S*)-5-(4-Morpholinyl)-3-aza-4-oxatetracyclo(11.3.0.0^2,11
^.0^5,10^)hexadeca-1-en-6-one N-oxide
;
_chemical_melting_point 441.15
_cell_volume    837.736
_exptl_crystal_colour 'colorless'
_exptl_crystal_density_diffrn 1.33
_exptl_special_details
;
Melting point range 441.15-442.15K

;
_diffrn_ambient_temperature ?
_diffrn_special_details
;
The study was carried out at room temperature,in the range 283-303K

;
#These two values have been output from a single CSD field.
_refine_ls_R_factor_gt 0.0742
_refine_ls_wR_factor_gt 0.0742
_symmetry_cell_setting triclinic
_symmetry_space_group_name_H-M 'P -1'
_symmetry_Int_Tables_number 2
loop_
_symmetry_equiv_pos_site_id
_symmetry_equiv_pos_as_xyz
1 x,y,z
2 -x,-y,-z
_cell_length_a 7.466(4)
_cell_length_b 9.182(4)
_cell_length_c 13.185(7)
_cell_angle_alpha 110.98(4)
_cell_angle_beta 94.75(4)
_cell_angle_gamma 93.03(4)
_cell_formula_units_Z 2
loop_
_atom_type_symbol
_atom_type_radius_bond
C 0.68
H 0.23
N 0.68
O 0.68
loop_
_atom_site_label
_atom_site_type_symbol
_atom_site_fract_x
_atom_site_fract_y
_atom_site_fract_z
O1 O 0.5162(4) 0.4511(3) 0.2056(3)
O2 O 0.2797(5) 0.3984(4) 0.0792(3)
O3 O 0.3793(5) 0.6304(4) 0.3882(3)
O4 O 0.9659(5) 0.2126(4) 0.3218(3)
N1 N 0.3966(5) 0.5069(5) 0.1384(3)
N2 N 0.7773(5) 0.4766(4) 0.3213(3)
C1 C 0.6416(6) 0.5647(5) 0.2913(4)
C2 C 0.5418(7) 0.6481(5) 0.3916(4)
C3 C 0.6605(8) 0.7635(6) 0.4870(4)
C4 C 0.7576(8) 0.8868(6) 0.4534(4)
C5 C 0.8497(7) 0.8138(6) 0.3489(4)
C6 C 0.7204(6) 0.6956(5) 0.2547(4)
C7 C 0.5630(7) 0.7681(5) 0.2162(4)
C8 C 0.6042(7) 0.8663(6) 0.1454(4)
C9 C 0.4224(7) 0.8613(6) 0.0792(4)
C10 C 0.3008(8) 0.9902(7) 0.1341(5)
C11 C 0.1133(10) 0.9108(8) 0.0972(7)
C12 C 0.1237(7) 0.7467(7) 0.0945(5)
C13 C 0.3139(7) 0.7049(6) 0.0646(4)
C14 C 0.4196(6) 0.6484(5) 0.1419(3)
C15 C 0.8981(7) 0.4027(6) 0.2373(4)
C16 C 1.0416(7) 0.3281(6) 0.2844(4)
C17 C 0.8511(8) 0.2837(6) 0.4030(4)
C18 C 0.7020(7) 0.3579(6) 0.3613(4)
H1 H 0.74870 0.70970 0.51360
H2 H 0.58770 0.81200 0.54460
H3 H 0.84560 0.95040 0.51200
H4 H 0.67050 0.95340 0.44080
H5 H 0.95060 0.76220 0.36530
H6 H 0.89500 0.89520 0.32560
H7 H 0.78650 0.64760 0.19360
H8 H 0.51040 0.83260 0.27920
H9 H 0.69410 0.82110 0.09840
H10 H 0.64650 0.97230 0.19050
H11 H 0.44280 0.86400 0.00890
H12 H 0.31960 1.07890 0.11270
H13 H 0.32440 1.02370 0.21210
H14 H 0.07580 0.90930 0.02540
H15 H 0.02940 0.96460 0.14600
H16 H 0.03320 0.67560 0.04130
H17 H 0.10770 0.74270 0.16500
H18 H 0.30960 0.63110 -0.00890
H19 H 0.95150 0.48040 0.21330
H20 H 0.83040 0.32310 0.17540
H21 H 1.12190 0.28130 0.23090
H22 H 1.11050 0.40880 0.34520
H23 H 0.92120 0.36280 0.46410
H24 H 0.80030 0.20610 0.42800
H25 H 0.62770 0.27840 0.30260
H26 H 0.62790 0.40610 0.41830
#END
