
#######################################################################
#
#                 Cambridge Crystallographic Data Centre
#                                CCDC
#
#######################################################################
#
# If this CIF has been generated from an entry in the Cambridge
# Structural Database, then it will include bibliographic, chemical,
# crystal, experimental, refinement or atomic coordinate data resulting
# from the CCDC's data processing and validation procedures.
#
#######################################################################

data_CSD_CIF_JULGAY
_audit_creation_date 1993-04-29
_audit_creation_method CSD-ConQuest-V1
_database_code_CSD JULGAY
_chemical_formula_sum 'C10 H11 N1 O3'
_chemical_formula_moiety
;
C10 H11 N1 O3
;
_journal_coeditor_code "IUCr CD1007"
_journal_coden_Cambridge 591
_journal_volume 49
_journal_year 1993
_journal_page_first 387
_journal_name_full 'Acta Crystallogr.,Sect.C:Cryst.Struct.Commun. '
loop_
_publ_author_name
"D.Boys"
"V.Manriquez"
"B.K.Cassels"
_chemical_name_systematic
;
(E)-1-(4-Methoxyphenyl)-2-nitropropene
;
_cell_volume    975.909
_exptl_crystal_colour 'Yellow'
_exptl_crystal_density_diffrn 1.315
_exptl_special_details
;
possible antitumour activity

;
_diffrn_ambient_temperature ?
_diffrn_special_details
;
The study was carried out at room temperature,in the range 283-303K

;
#These two values have been output from a single CSD field.
_refine_ls_R_factor_gt 0.039
_refine_ls_wR_factor_gt 0.039
_symmetry_cell_setting orthorhombic
_symmetry_space_group_name_H-M 'P 21 21 21'
_symmetry_Int_Tables_number 19
loop_
_symmetry_equiv_pos_site_id
_symmetry_equiv_pos_as_xyz
1 x,y,z
2 1/2+x,1/2-y,-z
3 -x,1/2+y,1/2-z
4 1/2-x,-y,1/2+z
_cell_length_a 7.387(1)
_cell_length_b 10.719(2)
_cell_length_c 12.325(2)
_cell_angle_alpha 90
_cell_angle_beta 90
_cell_angle_gamma 90
_cell_formula_units_Z 4
loop_
_atom_type_symbol
_atom_type_radius_bond
C 0.68
H 0.23
N 0.68
O 0.68
loop_
_atom_site_label
_atom_site_type_symbol
_atom_site_fract_x
_atom_site_fract_y
_atom_site_fract_z
N1 N 0.1550(4) 0.3321(3) 1.2706(2)
O1 O 0.1926(5) 0.2342(3) 1.3158(2)
O2 O 0.1345(5) 0.4289(3) 1.3207(2)
O3 O 0.1242(3) 0.1017(2) 0.6575(1)
C1 C 0.1490(4) 0.2024(2) 0.9839(2)
C2 C 0.1054(4) 0.0821(3) 0.9500(2)
C3 C 0.0960(3) 0.0509(3) 0.8412(2)
C4 C 0.1345(3) 0.1411(3) 0.7635(2)
C5 C 0.1793(3) 0.2603(2) 0.7943(2)
C6 C 0.1863(3) 0.2902(2) 0.9041(2)
C7 C 0.1581(3) 0.2271(3) 1.1009(2)
C8 C 0.1383(3) 0.3352(3) 1.1515(2)
C9 C 0.0907(5) 0.4600(3) 1.1072(3)
C10 C 0.1574(6) 0.1915(3) 0.5759(2)
H1 H 0.08230 0.01900 1.00350
H2 H 0.06310 -0.03200 0.81950
H3 H 0.20570 0.32260 0.74060
H4 H 0.21900 0.37350 0.92510
H5 H 0.18200 0.15620 1.14620
H6 H 0.0252(49) 0.4492(36) 1.0402(32)
H7 H 0.1874(70) 0.5031(44) 1.1056(46)
H8 H 0.0136(47) 0.509(3) 1.1650(27)
H9 H 0.1416(52) 0.1415(33) 0.5080(29)
H10 H 0.2884(59) 0.2267(38) 0.5831(36)
H11 H 0.0665(50) 0.2533(31) 0.5780(31)
#END
