
#######################################################################
#
#                 Cambridge Crystallographic Data Centre
#                                CCDC
#
#######################################################################
#
# If this CIF has been generated from an entry in the Cambridge
# Structural Database, then it will include bibliographic, chemical,
# crystal, experimental, refinement or atomic coordinate data resulting
# from the CCDC's data processing and validation procedures.
#
#######################################################################

data_CSD_CIF_JULHED02
_audit_creation_date 2006-10-06
_audit_creation_method CSD-ConQuest-V1
_database_code_CSD JULHED02
_database_code_depnum_ccdc_archive 'CCDC 618472'
_chemical_formula_sum 'C14 H10 N4 O4'
_chemical_formula_moiety
;
C14 H10 N4 O4
;
_journal_coeditor_code "IUCr BM5032"
_journal_coden_Cambridge 622
_journal_volume 62
_journal_year 2006
_journal_page_first 666
_journal_name_full 'Acta Crystallogr.,Sect.B:Struct.Sci. '
loop_
_publ_author_name
"C.Glidewell"
"J.N.Low"
"J.M.S.Skakle"
"J.L.Wardell"
_chemical_name_systematic
;
(E,E)-1,4-bis(2-Nitrophenyl)-2,3-diaza-1,3-butadiene
;
_chemical_melting_point 443
_cell_volume    657.998
_exptl_crystal_colour 'yellow'
_exptl_crystal_density_diffrn 1.505
_exptl_special_details
;
Melting point range 443-446K
polymorph II
phase transition at 423 K

;
_exptl_crystal_description 'block'
_exptl_crystal_preparation '1,2-dichloroethane'
_diffrn_ambient_temperature 120
#These two values have been output from a single CSD field.
_refine_ls_R_factor_gt 0.0599
_refine_ls_wR_factor_gt 0.0599
_symmetry_cell_setting monoclinic
_symmetry_space_group_name_H-M 'P 21/c'
_symmetry_Int_Tables_number 14
loop_
_symmetry_equiv_pos_site_id
_symmetry_equiv_pos_as_xyz
1 x,y,z
2 -x,1/2+y,1/2-z
3 -x,-y,-z
4 x,-1/2-y,-1/2+z
_cell_length_a 7.7809(2)
_cell_length_b 14.7825(6)
_cell_length_c 6.2196(2)
_cell_angle_alpha 90
_cell_angle_beta 113.106(2)
_cell_angle_gamma 90
_cell_formula_units_Z 2
loop_
_atom_type_symbol
_atom_type_radius_bond
C 0.68
H 0.23
N 0.68
O 0.68
loop_
_atom_site_label
_atom_site_type_symbol
_atom_site_fract_x
_atom_site_fract_y
_atom_site_fract_z
O1 O 0.7127(2) 0.61167(11) 0.0804(3)
O2 O 0.6322(2) 0.71425(11) -0.1895(3)
N1 N 0.4327(3) 0.50685(13) 0.3852(3)
N2 N 0.5951(3) 0.65689(12) -0.0702(3)
C1 C 0.3442(3) 0.60172(14) 0.0518(4)
C2 C 0.3975(3) 0.64220(14) -0.1167(4)
C3 C 0.2679(3) 0.66893(15) -0.3334(4)
C4 C 0.0765(4) 0.65544(17) -0.3887(4)
C5 C 0.0223(3) 0.61676(17) -0.2229(4)
C6 C 0.1530(3) 0.59099(16) -0.0072(4)
C7 C 0.4746(3) 0.57464(15) 0.2876(4)
H1 H 0.30820 0.69620 -0.44380
H2 H -0.01390 0.67260 -0.53720
H3 H -0.10680 0.60780 -0.25770
H4 H 0.11150 0.56530 0.10410
H5 H 0.58760 0.60700 0.36560
O1B O 0.2873(2) 0.38833(11) 0.9196(3)
O2B O 0.3678(2) 0.28575(11) 1.1895(3)
N1B N 0.5673(3) 0.49315(13) 0.6148(3)
N2B N 0.4049(3) 0.34311(12) 1.0702(3)
C1B C 0.6558(3) 0.39828(14) 0.9482(4)
C2B C 0.6025(3) 0.35780(14) 1.1167(4)
C3B C 0.7321(3) 0.33107(15) 1.3334(4)
C4B C 0.9235(4) 0.34456(17) 1.3887(4)
C5B C 0.9777(3) 0.38324(17) 1.2229(4)
C6B C 0.8470(3) 0.40901(16) 1.0072(4)
C7B C 0.5254(3) 0.42536(15) 0.7124(4)
H1B H 0.69180 0.30380 1.44380
H2B H 1.01390 0.32740 1.53720
H3B H 1.10680 0.39220 1.25770
H4B H 0.88850 0.43470 0.89590
H5B H 0.41240 0.39300 0.63440
#END
