
#######################################################################
#
#                 Cambridge Crystallographic Data Centre
#                                CCDC
#
#######################################################################
#
# If this CIF has been generated from an entry in the Cambridge
# Structural Database, then it will include bibliographic, chemical,
# crystal, experimental, refinement or atomic coordinate data resulting
# from the CCDC's data processing and validation procedures.
#
#######################################################################

data_CSD_CIF_JULHAZ
_audit_creation_date 1993-04-29
_audit_creation_method CSD-ConQuest-V1
_database_code_CSD JULHAZ
_chemical_formula_sum 'C16 H14 N4 O4'
_chemical_formula_moiety
;
C16 H14 N4 O4
;
_journal_coeditor_code "IUCr SP1003"
_journal_coden_Cambridge 591
_journal_volume 49
_journal_year 1993
_journal_page_first 394
_journal_name_full 'Acta Crystallogr.,Sect.C:Cryst.Struct.Commun. '
loop_
_publ_author_name
"Leh-Yeh Hsu"
"C.E.Nordman"
"D.H.Kenny"
_chemical_name_systematic
;
(E,Z)-o-Nitroacetophenone azine
;
_cell_volume   1579.332
_exptl_crystal_colour 'Pale yellow'
_exptl_crystal_density_diffrn 1.372
_diffrn_ambient_temperature ?
_diffrn_special_details
;
The study was carried out at room temperature,in the range 283-303K

;
#These two values have been output from a single CSD field.
_refine_ls_R_factor_gt 0.033
_refine_ls_wR_factor_gt 0.033
loop_
_citation_database_id_CSD
_citation_special_details
JULGUS "is a stereoisomer of this entry"
_symmetry_cell_setting monoclinic
_symmetry_space_group_name_H-M 'P 21/c'
_symmetry_Int_Tables_number 14
loop_
_symmetry_equiv_pos_site_id
_symmetry_equiv_pos_as_xyz
1 x,y,z
2 -x,1/2+y,1/2-z
3 -x,-y,-z
4 x,-1/2-y,-1/2+z
_cell_length_a 7.713(1)
_cell_length_b 13.359(2)
_cell_length_c 15.557(2)
_cell_angle_alpha 90
_cell_angle_beta 99.85(1)
_cell_angle_gamma 90
_cell_formula_units_Z 4
loop_
_atom_type_symbol
_atom_type_radius_bond
C 0.68
H 0.23
N 0.68
O 0.68
loop_
_atom_site_label
_atom_site_type_symbol
_atom_site_fract_x
_atom_site_fract_y
_atom_site_fract_z
C1 C 0.0954(3) 0.1940(2) 0.7111(1)
C2 C 0.0567(3) 0.1538(2) 0.6274(1)
C3 C -0.0223(3) 0.2077(2) 0.5553(2)
C4 C -0.0661(4) 0.3063(2) 0.5670(2)
C5 C -0.0303(4) 0.3494(2) 0.6484(2)
C6 C 0.0502(3) 0.2940(2) 0.7201(2)
C7 C 0.1843(3) 0.1363(2) 0.7880(1)
C8 C 0.1262(4) 0.1538(2) 0.8744(2)
N1 N 0.3040(2) 0.0753(1) 0.7738(1)
N2 N 0.0862(3) 0.0465(1) 0.6121(1)
O1 O 0.0108(2) -0.0146(1) 0.6513(1)
O2 O 0.1785(2) 0.0251(1) 0.5584(1)
C9 C 0.4916(3) -0.0862(2) 0.7405(1)
C10 C 0.5732(3) -0.0313(2) 0.6826(1)
C11 C 0.5846(3) -0.0634(2) 0.5992(2)
C12 C 0.5137(4) -0.1558(2) 0.5726(2)
C13 C 0.4332(4) -0.2127(2) 0.6278(2)
C14 C 0.4214(4) -0.1784(2) 0.7111(2)
C15 C 0.4739(3) -0.0528(2) 0.8309(1)
C16 C 0.5628(4) -0.1164(3) 0.9047(2)
N3 N 0.3830(2) 0.0216(2) 0.8491(1)
N4 N 0.6548(3) 0.0651(2) 0.7097(1)
O3 O 0.7262(2) 0.0748(1) 0.7859(1)
O4 O 0.6496(3) 0.1310(1) 0.6542(1)
H1 H -0.051(4) 0.174(2) 0.499(2)
H2 H -0.125(4) 0.342(2) 0.517(2)
H3 H -0.053(4) 0.416(2) 0.656(2)
H4 H 0.082(4) 0.323(2) 0.780(2)
H5 H 0.011(4) 0.166(2) 0.870(2)
H6 H 0.176(4) 0.102(2) 0.918(2)
H7 H 0.183(4) 0.202(2) 0.905(2)
H8 H 0.648(4) -0.022(2) 0.562(2)
H9 H 0.524(4) -0.178(2) 0.514(2)
H10 H 0.386(4) -0.280(2) 0.609(2)
H11 H 0.365(4) -0.217(2) 0.750(2)
H12 H 0.535(4) -0.090(2) 0.962(2)
H13 H 0.692(4) -0.117(2) 0.912(2)
H14 H 0.515(4) -0.179(2) 0.902(2)
#END
