
#######################################################################
#
#                 Cambridge Crystallographic Data Centre
#                                CCDC
#
#######################################################################
#
# If this CIF has been generated from an entry in the Cambridge
# Structural Database, then it will include bibliographic, chemical,
# crystal, experimental, refinement or atomic coordinate data resulting
# from the CCDC's data processing and validation procedures.
#
#######################################################################

data_CSD_CIF_JULHED01
_audit_creation_date 2006-10-06
_audit_creation_method CSD-ConQuest-V1
_database_code_CSD JULHED01
_database_code_depnum_ccdc_archive 'CCDC 618471'
_chemical_formula_sum 'C14 H10 N4 O4'
_chemical_formula_moiety
;
C14 H10 N4 O4
;
_journal_coeditor_code "IUCr BM5032"
_journal_coden_Cambridge 622
_journal_volume 62
_journal_year 2006
_journal_page_first 666
_journal_name_full 'Acta Crystallogr.,Sect.B:Struct.Sci. '
loop_
_publ_author_name
"C.Glidewell"
"J.N.Low"
"J.M.S.Skakle"
"J.L.Wardell"
_chemical_name_systematic
;
(E,E)-1,4-bis(2-Nitrophenyl)-2,3-diaza-1,3-butadiene
;
_chemical_melting_point 483
_cell_volume    662.817
_exptl_crystal_colour 'yellow'
_exptl_crystal_density_diffrn 1.494
_exptl_special_details
;
Melting point range 483-486K
polymorph I
phase transition at 423 K

;
_exptl_crystal_description 'block'
_exptl_crystal_preparation '1,2-dichloroethane'
_diffrn_ambient_temperature 120
#These two values have been output from a single CSD field.
_refine_ls_R_factor_gt 0.039
_refine_ls_wR_factor_gt 0.039
_symmetry_cell_setting monoclinic
_symmetry_space_group_name_H-M 'P 21/n'
_symmetry_Int_Tables_number 14
loop_
_symmetry_equiv_pos_site_id
_symmetry_equiv_pos_as_xyz
1 x,y,z
2 1/2-x,1/2+y,1/2-z
3 -x,-y,-z
4 -1/2+x,-1/2-y,-1/2+z
_cell_length_a 9.1379(4)
_cell_length_b 6.1776(3)
_cell_length_c 11.7682(4)
_cell_angle_alpha 90
_cell_angle_beta 93.853(3)
_cell_angle_gamma 90
_cell_formula_units_Z 2
loop_
_atom_type_symbol
_atom_type_radius_bond
C 0.68
H 0.23
N 0.68
O 0.68
loop_
_atom_site_label
_atom_site_type_symbol
_atom_site_fract_x
_atom_site_fract_y
_atom_site_fract_z
O1 O 0.46979(8) 0.98902(15) 0.69804(7)
O2 O 0.30848(9) 1.22318(15) 0.74435(7)
N1 N 0.46268(10) 0.58815(16) 0.47246(8)
N2 N 0.35647(10) 1.09231(16) 0.67747(8)
C1 C 0.29761(12) 0.87752(18) 0.50217(9)
C2 C 0.27452(12) 1.06186(19) 0.56715(9)
C3 C 0.17968(12) 1.22613(19) 0.53063(10)
C4 C 0.10725(14) 1.2111(2) 0.42404(11)
C5 C 0.12914(13) 1.0315(2) 0.35656(10)
C6 C 0.22146(13) 0.8663(2) 0.39507(10)
C7 C 0.39007(12) 0.69393(18) 0.54258(9)
H1 H 0.16460 1.34740 0.57810
H2 H 0.04280 1.32320 0.39710
H3 H 0.08010 1.02210 0.28300
H4 H 0.23350 0.74320 0.34820
H5 H 0.39550 0.65460 0.62080
O1B O 0.53021(8) 0.01098(15) 0.30196(7)
O2B O 0.69152(9) -0.22318(15) 0.25565(7)
N1B N 0.53732(10) 0.41185(16) 0.52754(8)
N2B N 0.64353(10) -0.09231(16) 0.32253(8)
C1B C 0.70239(12) 0.12248(18) 0.49783(9)
C2B C 0.72548(12) -0.06186(19) 0.43285(9)
C3B C 0.82032(12) -0.22613(19) 0.46937(10)
C4B C 0.89275(14) -0.2111(2) 0.57596(11)
C5B C 0.87086(13) -0.0315(2) 0.64344(10)
C6B C 0.77854(13) 0.1337(2) 0.60493(10)
C7B C 0.60993(12) 0.30607(18) 0.45742(9)
H1B H 0.83540 -0.34740 0.42190
H2B H 0.95720 -0.32320 0.60290
H3B H 0.91990 -0.02210 0.71700
H4B H 0.76650 0.25680 0.65180
H5B H 0.60450 0.34540 0.37920
#END
