
#######################################################################
#
#                 Cambridge Crystallographic Data Centre
#                                CCDC
#
#######################################################################
#
# If this CIF has been generated from an entry in the Cambridge
# Structural Database, then it will include bibliographic, chemical,
# crystal, experimental, refinement or atomic coordinate data resulting
# from the CCDC's data processing and validation procedures.
#
#######################################################################

data_CSD_CIF_JUNGOO
_audit_creation_date 1993-06-02
_audit_creation_method CSD-ConQuest-V1
_database_code_CSD JUNGOO
_database_code_depnum_ccdc_archive 'CCDC 1190911'
_chemical_formula_sum 'C21 H23 N1 O6'
_chemical_formula_moiety
;
C21 H23 N1 O6
;
_journal_coden_Cambridge 15
_journal_volume 70
_journal_year 1992
_journal_page_first 1385
_journal_name_full 'Can.J.Chem. '
loop_
_publ_author_name
"E.Piers"
"R.W.Friesen"
"S.J.Rettig"
_chemical_name_systematic
;
2-(8a-Methoxycarbonyl-1,2,3,5,6,7,8-heptanaphth-5-yl)-2-ethylidene 
p-nitrobenzoate
;
_chemical_melting_point 404.15
_cell_volume    980.811
_exptl_crystal_density_diffrn 1.305
_exptl_special_details
;
Melting point range 404.15-405.15K

;
_diffrn_ambient_temperature ?
_diffrn_special_details
;
The study was carried out at room temperature,in the range 283-303K

;
#These two values have been output from a single CSD field.
_refine_ls_R_factor_gt 0.049
_refine_ls_wR_factor_gt 0.049
_symmetry_cell_setting triclinic
_symmetry_space_group_name_H-M 'P -1'
_symmetry_Int_Tables_number 2
loop_
_symmetry_equiv_pos_site_id
_symmetry_equiv_pos_as_xyz
1 x,y,z
2 -x,-y,-z
_cell_length_a 7.4619(9)
_cell_length_b 7.6458(7)
_cell_length_c 19.027(1)
_cell_angle_alpha 94.547(8)
_cell_angle_beta 96.718(9)
_cell_angle_gamma 113.290(6)
_cell_formula_units_Z 2
loop_
_atom_type_symbol
_atom_type_radius_bond
C 0.68
H 0.23
N 0.68
O 0.68
loop_
_atom_site_label
_atom_site_type_symbol
_atom_site_fract_x
_atom_site_fract_y
_atom_site_fract_z
O1 O 0.0103(3) 0.6184(3) 0.2770(1)
O2 O -0.1615(4) 0.5029(4) 0.3619(1)
O3 O 0.4186(3) 0.6023(3) 0.1822(1)
O4 O 0.3264(5) 0.7518(4) 0.1008(1)
O5 O 0.2197(5) -0.1628(4) -0.0726(2)
O6 O 0.1079(5) -0.0290(4) -0.1500(2)
N1 N 0.1798(5) -0.0316(5) -0.0907(2)
C1 C 0.3216(4) 0.8857(4) 0.3629(1)
C2 C 0.3794(2) 1.0542(5) 0.3380(2)
C3 C 0.2615(6) 1.1707(5) 0.3298(2)
C4 C 0.0488(6) 1.0592(5) 0.3376(2)
C5 C 0.0383(5) 0.9506(5) 0.4003(2)
C6 C 0.1286(4) 0.8024(4) 0.3922(1)
C7 C 0.1686(5) 0.7407(4) 0.4657(2)
C8 C 0.2765(5) 0.6088(5) 0.4635(2)
C9 C 0.4699(5) 0.7012(5) 0.4359(2)
C10 C 0.4381(4) 0.7699(4) 0.3654(2)
C11 C -0.0231(5) 0.6259(5) 0.3436(2)
C12 C -0.1238(6) 0.4535(6) 0.2276(2)
C13 C 0.5018(5) 0.7179(5) 0.3074(2)
C14 C 0.4700(5) 0.7735(5) 0.2352(2)
C15 C 0.3490(5) 0.6132(6) 0.1181(2)
C16 C 0.3022(5) 0.4383(5) 0.0657(2)
C17 C 0.3395(5) 0.2832(5) 0.0835(2)
C18 C 0.2994(5) 0.1294(5) 0.0330(2)
C19 C 0.2212(5) 0.1332(5) -0.0351(2)
C20 C 0.1797(5) 0.2822(6) -0.0543(2)
C21 C 0.2206(5) 0.4354(5) -0.0042(2)
H1 H 0.50950 1.10500 0.32410
H2 H 0.31990 1.28410 0.36640
H3 H 0.26570 1.21210 0.28230
H4 H -0.01420 1.14860 0.34480
H5 H -0.02090 0.96850 0.29410
H6 H 0.10990 1.04250 0.44340
H7 H -0.10080 0.88330 0.40550
H8 H 0.24920 0.85610 0.49980
H9 H 0.04190 0.67320 0.48170
H10 H 0.30340 0.57970 0.51180
H11 H 0.19240 0.48920 0.43200
H12 H 0.56120 0.81090 0.47070
H13 H 0.52740 0.60690 0.42960
H14 H -0.25880 0.44470 0.22620
H15 H -0.08680 0.46710 0.17990
H16 H -0.11620 0.33720 0.24320
H17 H 0.57440 0.63770 0.31290
H18 H 0.36190 0.81620 0.23160
H19 H 0.59090 0.87780 0.22690
H20 H 0.39470 0.28320 0.13230
H21 H 0.32590 0.02030 0.04530
H22 H 0.12180 0.27920 -0.10300
H23 H 0.19270 0.54320 -0.01730
#END
