
#######################################################################
#
#                 Cambridge Crystallographic Data Centre
#                                CCDC
#
#######################################################################
#
# If this CIF has been generated from an entry in the Cambridge
# Structural Database, then it will include bibliographic, chemical,
# crystal, experimental, refinement or atomic coordinate data resulting
# from the CCDC's data processing and validation procedures.
#
#######################################################################

data_CSD_CIF_JUPGIK
_audit_creation_date 1999-07-15
_audit_creation_method CSD-ConQuest-V1
_database_code_CSD JUPGIK
_database_code_depnum_ccdc_archive 'CCDC 116655'
_database_code_depnum_ccdc_journal 182/1172
_chemical_formula_sum 'C13 H11 N2 O2'
_chemical_formula_moiety
;
C13 H11 N2 O2
;
_journal_coden_Cambridge 182
_journal_year 1999
_journal_page_first 539
_journal_name_full 'Chem.Commun. '
loop_
_publ_author_name
"V.A.Reznikov"
"I.V.Ovcharenko"
"N.V.Pervukhina"
"V.N.Ikorskii"
"A.Grand"
"V.I.Ovcharenko"
_chemical_name_systematic
;
3-Cyano-5,5-dimethyl-2-phenyl-1-azacyclopent-2-en-4-one-1-oxyl
;
_chemical_melting_point 416.15
_cell_volume   2348.556
_exptl_crystal_density_diffrn 1.285
_exptl_special_details
;
Melting point range 416.15-418.15K

;
_exptl_crystal_preparation 'hexane'
_diffrn_ambient_temperature ?
_diffrn_special_details
;
The study was carried out at room temperature,in the range 283-303K

;
#These two values have been output from a single CSD field.
_refine_ls_R_factor_gt 0.0204
_refine_ls_wR_factor_gt 0.0204
_symmetry_cell_setting orthorhombic
_symmetry_space_group_name_H-M 'A b a 2'
_symmetry_Int_Tables_number 41
loop_
_symmetry_equiv_pos_site_id
_symmetry_equiv_pos_as_xyz
1 x,y,z
2 -x,-y,z
3 1/2+x,1/2-y,z
4 1/2-x,1/2+y,z
5 x,1/2+y,1/2+z
6 -x,1/2-y,1/2+z
7 1/2+x,-y,1/2+z
8 1/2-x,y,1/2+z
_cell_length_a 15.334(3)
_cell_length_b 18.203(4)
_cell_length_c 8.414(2)
_cell_angle_alpha 90
_cell_angle_beta 90
_cell_angle_gamma 90
_cell_formula_units_Z 8
loop_
_atom_type_symbol
_atom_type_radius_bond
C 0.68
H 0.23
N 0.68
O 0.68
loop_
_atom_site_label
_atom_site_type_symbol
_atom_site_fract_x
_atom_site_fract_y
_atom_site_fract_z
O1 O 0.94681(16) 0.25095(13) 0.3739(3)
N1 N 0.9279(2) 0.28342(11) 0.2464(3)
C1 C 0.88496(18) 0.25180(18) 0.1193(4)
C2 C 0.8595(2) 0.17524(16) 0.1181(4)
C3 C 0.7820(3) 0.1547(2) 0.0452(5)
H1 H 0.745(2) 0.1939(13) 0.016(4)
C4 C 0.7563(3) 0.0813(2) 0.0453(5)
H2 H 0.704(2) 0.0655(18) -0.004(5)
C5 C 0.8076(4) 0.0289(2) 0.1155(6)
H3 H 0.7935(17) -0.0265(18) 0.119(4)
C6 C 0.8856(3) 0.0481(2) 0.1863(5)
H4 H 0.927(2) 0.0072(17) 0.216(5)
C7 C 0.9108(3) 0.1210(2) 0.1888(4)
H5 H 0.9627(16) 0.1396(12) 0.240(3)
C8 C 0.8714(2) 0.30550(17) 0.0077(4)
C9 C 0.8348(2) 0.29941(17) -0.1459(5)
N2 N 0.8065(2) 0.30072(17) -0.2724(5)
C10 C 0.9051(2) 0.3758(2) 0.0643(4)
O2 O 0.90139(17) 0.43469(13) -0.0029(3)
C11 C 0.9468(2) 0.36269(16) 0.2240(4)
C12 C 0.9040(4) 0.4073(3) 0.3547(6)
H6 H 0.917(3) 0.385(3) 0.442(6)
H7 H 0.833(3) 0.396(2) 0.360(7)
H8 H 0.914(2) 0.4620(18) 0.335(5)
C13 C 1.0449(3) 0.3747(3) 0.2122(7)
H9 H 1.077(3) 0.349(3) 0.282(7)
H10 H 1.0504(17) 0.4252(16) 0.184(4)
H11 H 1.076(3) 0.339(3) 0.118(7)
#END
