
#######################################################################
#
#                 Cambridge Crystallographic Data Centre
#                                CCDC
#
#######################################################################
#
# If this CIF has been generated from an entry in the Cambridge
# Structural Database, then it will include bibliographic, chemical,
# crystal, experimental, refinement or atomic coordinate data resulting
# from the CCDC's data processing and validation procedures.
#
#######################################################################

data_CSD_CIF_JUPLAJ
_audit_creation_date 2015-08-15
_audit_creation_method CSD-ConQuest-V1
_database_code_CSD JUPLAJ
_database_code_depnum_ccdc_archive 'CCDC 1415866'
_chemical_formula_sum 'C15 H17 N1 O2'
_chemical_formula_moiety
;
C15 H17 N1 O2
;
_journal_coeditor_code "is5409"
_journal_coden_Cambridge 1828
_journal_volume 71
_journal_year 2015
_journal_page_first o659
_journal_name_full 'Acta Crystallogr.,Sect.E:Cryst.Commun. '
loop_
_publ_author_name
"A.Benharref"
"J.Elkarroumi"
"L.El Ammari"
"M.Saadi"
"M.Berraho"
_chemical_name_systematic
;
4-isopropyl-1,6-dimethyl-2-nitronaphthalene
;
_cell_volume   1311.818
_exptl_crystal_colour 'colorless'
_exptl_crystal_density_diffrn 1.232
_exptl_crystal_description 'box'
_diffrn_ambient_temperature 296
#These two values have been output from a single CSD field.
_refine_ls_R_factor_gt 0.047
_refine_ls_wR_factor_gt 0.047
_symmetry_cell_setting monoclinic
_symmetry_space_group_name_H-M 'P 21/n'
_symmetry_Int_Tables_number 14
loop_
_symmetry_equiv_pos_site_id
_symmetry_equiv_pos_as_xyz
1 x,y,z
2 1/2-x,1/2+y,1/2-z
3 -x,-y,-z
4 -1/2+x,-1/2-y,-1/2+z
_cell_length_a 9.7637(7)
_cell_length_b 12.6508(9)
_cell_length_c 11.6162(8)
_cell_angle_alpha 90
_cell_angle_beta 113.897(2)
_cell_angle_gamma 90
_cell_formula_units_Z 4
loop_
_atom_type_symbol
_atom_type_radius_bond
C 0.68
H 0.23
N 0.68
O 0.68
loop_
_atom_site_label
_atom_site_type_symbol
_atom_site_fract_x
_atom_site_fract_y
_atom_site_fract_z
C1 C 0.48931(16) 0.74540(11) 0.55728(13)
C2 C 0.53127(17) 0.79068(11) 0.46989(14)
H1 H 0.48560 0.85300 0.43050
C3 C 0.64274(16) 0.74433(12) 0.43844(13)
C4 C 0.71449(15) 0.65180(12) 0.48818(13)
C5 C 0.66896(14) 0.60094(11) 0.57753(12)
C6 C 0.73317(18) 0.50374(13) 0.63462(15)
H2 H 0.80810 0.47350 0.61530
C7 C 0.68819(19) 0.45344(13) 0.71690(15)
H3 H 0.73230 0.38940 0.75200
C8 C 0.57617(17) 0.49648(12) 0.74988(13)
C9 C 0.51403(16) 0.59105(12) 0.69828(13)
H4 H 0.44100 0.62040 0.72080
C10 C 0.55666(14) 0.64644(11) 0.61141(12)
C11 C 0.37186(18) 0.79765(12) 0.59387(16)
H5 H 0.39620 0.77930 0.68200
C12 C 0.2168(2) 0.75490(16) 0.5164(2)
H6 H 0.19100 0.76900 0.42890
H7 H 0.14550 0.78860 0.54200
H8 H 0.21550 0.68000 0.52930
C13 C 0.3728(2) 0.91812(14) 0.5855(2)
H9 H 0.47270 0.94380 0.63170
H10 H 0.30740 0.94720 0.62070
H11 H 0.33880 0.93910 0.49890
C14 C 0.82959(18) 0.60027(15) 0.45058(17)
H12 H 0.83020 0.63480 0.37720
H13 H 0.80500 0.52700 0.43220
H14 H 0.92680 0.60620 0.51840
C15 C 0.5277(2) 0.43966(15) 0.84114(16)
H15 H 0.59860 0.45300 0.92570
H16 H 0.52280 0.36510 0.82470
H17 H 0.43070 0.46470 0.83120
N1 N 0.67771(18) 0.80420(11) 0.34458(13)
O1 O 0.5730(2) 0.84079(13) 0.25427(14)
O2 O 0.80848(18) 0.81719(14) 0.36267(14)
#END
