
#######################################################################
#
#                 Cambridge Crystallographic Data Centre
#                                CCDC
#
#######################################################################
#
# If this CIF has been generated from an entry in the Cambridge
# Structural Database, then it will include bibliographic, chemical,
# crystal, experimental, refinement or atomic coordinate data resulting
# from the CCDC's data processing and validation procedures.
#
#######################################################################

data_CSD_CIF_JUQZEA
_audit_creation_date 1999-07-15
_audit_creation_method CSD-ConQuest-V1
_database_code_CSD JUQZEA
_database_code_depnum_ccdc_archive 'CCDC 115399'
_database_code_depnum_ccdc_journal 207/295
_chemical_formula_sum 'C29 H24 N4 O2'
_chemical_formula_moiety
;
C29 H24 N4 O2
;
_journal_coden_Cambridge 207
_journal_year 1999
_journal_page_first 615
_journal_name_full 'J.Chem.Soc.,Perkin Trans.1 '
loop_
_publ_author_name
"A.K.Sharma"
"G.Hundal"
"S.Obrai"
"M.P.Mahajan"
_chemical_name_systematic
;
2-(Anilino(phenyl)methyleneamino)-1-(p-methoxyphenyl)-4-phenylimidazole
;
_chemical_melting_point 448.15
_cell_volume   2389.382
_exptl_crystal_density_diffrn 1.28
_exptl_special_details
;
Melting point range 448.15-449.15K

;
_exptl_crystal_preparation '1,4-dioxane'
_diffrn_ambient_temperature ?
_diffrn_special_details
;
The study was carried out at room temperature,in the range 283-303K

;
#These two values have been output from a single CSD field.
_refine_ls_R_factor_gt 0.0447
_refine_ls_wR_factor_gt 0.0447
_symmetry_cell_setting monoclinic
_symmetry_space_group_name_H-M 'P 21/c'
_symmetry_Int_Tables_number 14
loop_
_symmetry_equiv_pos_site_id
_symmetry_equiv_pos_as_xyz
1 x,y,z
2 x,1/2-y,1/2+z
3 -x,-y,-z
4 -x,-1/2+y,-1/2-z
_cell_length_a 12.295(1)
_cell_length_b 9.554(1)
_cell_length_c 20.636(2)
_cell_angle_alpha 90
_cell_angle_beta 99.70(1)
_cell_angle_gamma 90
_cell_formula_units_Z 4
loop_
_atom_type_symbol
_atom_type_radius_bond
C 0.68
H 0.23
N 0.68
O 0.68
loop_
_atom_site_label
_atom_site_type_symbol
_atom_site_fract_x
_atom_site_fract_y
_atom_site_fract_z
N1 N 0.4362(4) 0.0114(4) 0.2591(2)
N2 N 0.4797(4) 0.0821(4) 0.3603(2)
N3 N 0.2966(4) 0.1431(4) 0.2994(2)
N4 N 0.3542(4) 0.3460(4) 0.3590(2)
O1 O 0.4718(3) 0.1416(3) 0.41790(14)
O2 O 0.1770(3) -0.0545(4) 0.0128(2)
C1 C 0.3995(6) 0.0899(5) 0.3069(2)
C2 C 0.5670(5) 0.0003(5) 0.3474(2)
C3 C 0.5373(5) -0.0417(5) 0.2838(2)
H1 H 0.57960 -0.09790 0.26090
C4 C 0.2754(5) 0.2656(5) 0.3233(2)
C5 C 0.1591(6) 0.3103(5) 0.3108(2)
C6 C 0.1114(7) 0.3780(6) 0.3586(3)
H2 H 0.15350 0.39530 0.39970
C7 C 0.0035(8) 0.4195(7) 0.3461(4)
H3 H -0.02790 0.46200 0.37910
C8 C -0.0586(6) 0.3987(8) 0.2852(5)
H4 H -0.13090 0.43100 0.27640
C9 C -0.0143(8) 0.3300(8) 0.2370(4)
H5 H -0.05680 0.31470 0.19590
C10 C 0.0935(6) 0.2840(6) 0.2502(3)
H6 H 0.12280 0.23490 0.21830
C11 C 0.3503(4) 0.4928(5) 0.3709(2)
C12 C 0.4064(6) 0.5413(6) 0.4291(3)
H7 H 0.44070 0.47760 0.46010
C13 C 0.4138(6) 0.6815(6) 0.4432(3)
H8 H 0.45300 0.71140 0.48330
C14 C 0.3645(5) 0.7768(5) 0.3992(3)
H9 H 0.36950 0.87200 0.40870
C15 C 0.3074(5) 0.7306(5) 0.3410(3)
H10 H 0.27290 0.79510 0.31050
C16 C 0.2999(5) 0.5895(5) 0.3261(2)
H11 H 0.26080 0.55990 0.28600
C17 C 0.3737(4) -0.0100(5) 0.1937(2)
C18 C 0.3387(5) 0.1022(5) 0.1548(3)
H12 H 0.35860 0.19230 0.16940
C19 C 0.2742(5) 0.0831(5) 0.0943(2)
H13 H 0.25010 0.16030 0.06840
C20 C 0.2455(5) -0.0477(5) 0.0721(2)
C21 C 0.2841(5) -0.1603(5) 0.1099(2)
H14 H 0.26700 -0.25050 0.09450
C22 C 0.3486(5) -0.1411(5) 0.1711(2)
H15 H 0.37460 -0.21810 0.19670
C23 C 0.1355(6) -0.1873(6) -0.0092(3)
H16 H 0.08880 -0.17770 -0.05120
H17 H 0.09370 -0.22570 0.02190
H18 H 0.19580 -0.24860 -0.01330
C24 C 0.6664(7) -0.0281(5) 0.3959(2)
C25 C 0.7686(8) -0.0392(5) 0.3758(3)
H19 H 0.77360 -0.02730 0.33160
C26 C 0.8619(6) -0.0675(6) 0.4203(4)
H20 H 0.92960 -0.07320 0.40600
C27 C 0.8573(7) -0.0872(6) 0.4847(3)
H21 H 0.92110 -0.10630 0.51450
C28 C 0.7571(8) -0.0786(5) 0.5057(3)
H22 H 0.75330 -0.09270 0.54980
C29 C 0.6619(5) -0.0491(5) 0.4617(3)
H23 H 0.59460 -0.04330 0.47650
H24 H 0.44110 0.27710 0.38780
#END
