
#######################################################################
#
#                 Cambridge Crystallographic Data Centre
#                                CCDC
#
#######################################################################
#
# If this CIF has been generated from an entry in the Cambridge
# Structural Database, then it will include bibliographic, chemical,
# crystal, experimental, refinement or atomic coordinate data resulting
# from the CCDC's data processing and validation procedures.
#
#######################################################################

data_CSD_CIF_JURKAK
_audit_creation_date 2015-08-18
_audit_creation_method CSD-ConQuest-V1
_database_code_CSD JURKAK
_database_code_depnum_ccdc_archive 'CCDC 1408469'
_chemical_formula_sum 'C6 H8 N2 O6'
_chemical_formula_moiety
;
C6 H8 N2 O6
;
_journal_coden_Cambridge 177
_journal_volume 13
_journal_year 2015
_journal_page_first 9850
_journal_name_full 'Org.Biomol.Chem. '
loop_
_publ_author_name
"S.K.Kutty"
"N.Barraud"
"K.K.K.Ho"
"G.M.Iskander"
"R.Griffith"
"S.A.Rice"
"M.Bhadbhade"
"M.D.P.Willcox"
"D.S.Black"
"N.Kumar"
_chemical_name_systematic
;
2-oxo-2-((2-oxotetrahydrofuran-3-yl)amino)ethyl nitrate
;
_cell_volume    831.663
_exptl_crystal_colour 'yellow'
_exptl_crystal_density_diffrn 1.63
_exptl_special_details
;
QS inhibitor activity

;
_exptl_crystal_description 'Plates'
_diffrn_ambient_temperature 152
#These two values have been output from a single CSD field.
_refine_ls_R_factor_gt 0.0322
_refine_ls_wR_factor_gt 0.0322
_symmetry_cell_setting monoclinic
_symmetry_space_group_name_H-M 'P 21/n'
_symmetry_Int_Tables_number 14
loop_
_symmetry_equiv_pos_site_id
_symmetry_equiv_pos_as_xyz
1 x,y,z
2 1/2-x,1/2+y,1/2-z
3 -x,-y,-z
4 -1/2+x,-1/2-y,-1/2+z
_cell_length_a 10.0324(6)
_cell_length_b 5.2469(2)
_cell_length_c 16.1420(9)
_cell_angle_alpha 90
_cell_angle_beta 101.826(3)
_cell_angle_gamma 90
_cell_formula_units_Z 4
loop_
_atom_type_symbol
_atom_type_radius_bond
C 0.68
H 0.23
N 0.68
O 0.68
loop_
_atom_site_label
_atom_site_type_symbol
_atom_site_fract_x
_atom_site_fract_y
_atom_site_fract_z
O1 O 0.19963(10) -0.24964(17) -0.01049(6)
O2 O 0.02500(9) -0.25327(16) 0.05549(6)
O3 O 0.14619(10) 0.08327(18) 0.25801(6)
O4 O -0.04401(9) 0.39222(17) 0.29615(6)
O5 O -0.1569(1) 0.0602(2) 0.22818(7)
O6 O -0.13746(13) 0.1088(2) 0.36369(7)
N1 N 0.1237(1) 0.23599(19) 0.12441(7)
H1 H 0.08670 0.35460 0.08840
N2 N -0.11918(12) 0.1661(2) 0.29488(8)
C1 C 0.13245(13) -0.1642(2) 0.04736(8)
C2 C 0.21193(12) 0.0494(2) 0.09843(8)
H2 H 0.27050 -0.02590 0.15030
C3 C 0.30354(14) 0.1413(3) 0.04013(9)
H3 H 0.39050 0.21020 0.07260
H4 H 0.25790 0.27270 0.00010
C4 C 0.32546(14) -0.1042(3) -0.00558(9)
H5 H 0.34140 -0.06720 -0.06290
H6 H 0.40450 -0.19960 0.02650
C5 C 0.09683(12) 0.2327(2) 0.20213(8)
C6 C -0.00257(13) 0.4390(2) 0.21721(8)
H7 H 0.04150 0.60820 0.21890
H8 H -0.08340 0.43890 0.17030
#END
