
#######################################################################
#
#                 Cambridge Crystallographic Data Centre
#                                CCDC
#
#######################################################################
#
# If this CIF has been generated from an entry in the Cambridge
# Structural Database, then it will include bibliographic, chemical,
# crystal, experimental, refinement or atomic coordinate data resulting
# from the CCDC's data processing and validation procedures.
#
#######################################################################

data_CSD_CIF_JURPOB
_audit_creation_date 1999-07-15
_audit_creation_method CSD-ConQuest-V1
_database_code_CSD JURPOB
_database_code_depnum_ccdc_archive 'CCDC 113363'
_chemical_formula_sum 'C26 H31 N1 O6'
_chemical_formula_moiety
;
C26 H31 N1 O6
;
_journal_coden_Cambridge 35
_journal_volume 64
_journal_year 1999
_journal_page_first 884
_journal_name_full 'J.Org.Chem. '
loop_
_publ_author_name
"S.E.Denmark"
"M.Seierstad"
"B.Herbert"
_chemical_name_systematic
;
rel-(2R,3aS,4R,6R)-4-Benzoyloxy-2-hydroxymethyl-6-((1S,2R)-(2-phenylcyclohexyl
)oxy)hexahydroisoxazolo(2,3-b)(1,2)oxazine
;
_chemical_melting_point 411
_cell_volume   1152.488
_exptl_crystal_colour 'colorless'
_exptl_crystal_density_diffrn 1.307
_exptl_special_details
;
Melting point range 411-412K

;
_exptl_crystal_description 'spiny needles'
_exptl_crystal_preparation 't-butyl methyl ether/pentane'
_diffrn_ambient_temperature 198
#These two values have been output from a single CSD field.
_refine_ls_R_factor_gt 0.0979
_refine_ls_wR_factor_gt 0.0979
_symmetry_cell_setting triclinic
_symmetry_space_group_name_H-M 'P 1'
_symmetry_Int_Tables_number 1
loop_
_symmetry_equiv_pos_site_id
_symmetry_equiv_pos_as_xyz
1 x,y,z
_cell_length_a 5.6313(5)
_cell_length_b 10.6452(8)
_cell_length_c 19.4462(15)
_cell_angle_alpha 96.247(2)
_cell_angle_beta 95.844(2)
_cell_angle_gamma 90.648(1)
_cell_formula_units_Z 2
loop_
_atom_type_symbol
_atom_type_radius_bond
C 0.68
H 0.23
N 0.68
O 0.68
loop_
_atom_site_label
_atom_site_type_symbol
_atom_site_fract_x
_atom_site_fract_y
_atom_site_fract_z
N1 N -0.2721(8) -0.4830(4) -0.1697(2)
O1 O -0.1915(6) -0.4158(4) -0.1049(2)
O2 O -0.1888(6) -0.6149(3) -0.1617(2)
O3 O 0.1391(7) -0.3316(4) 0.0169(2)
H1 H 0.167(10) -0.3736(26) 0.0509(7)
O4 O -0.1525(6) -0.4813(3) -0.3468(2)
O5 O 0.2257(7) -0.4074(4) -0.3280(2)
O6 O -0.5381(6) -0.7333(3) -0.2054(2)
C1 C 0.0536(9) -0.3646(5) -0.1053(3)
H2 H 0.0480(9) -0.2703(5) -0.1021(3)
C2 C 0.1267(9) -0.4143(5) -0.1759(3)
H3 H 0.2225(9) -0.3504(5) -0.1950(3)
H4 H 0.2195(9) -0.4924(5) -0.1733(3)
C3 C -0.1112(9) -0.4408(5) -0.2192(3)
H5 H -0.1713(9) -0.3598(5) -0.2353(3)
C4 C -0.1188(9) -0.5406(5) -0.2822(2)
H6 H 0.0329(9) -0.5886(5) -0.2806(2)
C5 C -0.3305(9) -0.6312(5) -0.2848(3)
H7 H -0.4812(9) -0.5843(5) -0.2887(3)
H8 H -0.3321(9) -0.6951(5) -0.3258(3)
C6 C -0.3099(9) -0.6958(5) -0.2186(3)
H9 H -0.2135(9) -0.7733(5) -0.2266(3)
C7 C 0.2115(10) -0.4010(5) -0.0441(3)
H10 H 0.1955(10) -0.4929(5) -0.0411(3)
H11 H 0.3805(10) -0.3807(5) -0.0490(3)
C8 C 0.0363(9) -0.4177(5) -0.3639(3)
C9 C -0.0153(10) -0.3627(5) -0.4300(3)
C10 C -0.2279(11) -0.3867(6) -0.4726(3)
H12 H -0.3481(11) -0.4391(6) -0.4587(3)
C11 C -0.2660(13) -0.3355(7) -0.5347(3)
H13 H -0.4123(13) -0.3515(7) -0.5634(3)
C12 C -0.0899(15) -0.2606(7) -0.5548(3)
H14 H -0.1154(15) -0.2263(7) -0.5980(3)
C13 C 0.1202(13) -0.2348(6) -0.5139(4)
H15 H 0.2386(13) -0.1823(6) -0.5284(4)
C14 C 0.1605(11) -0.2853(6) -0.4512(3)
H16 H 0.3067(11) -0.2676(6) -0.4227(3)
C15 C -0.5431(9) -0.8251(4) -0.1556(3)
H17 H -0.3757(9) -0.8411(4) -0.1367(3)
C16 C -0.6804(9) -0.7725(5) -0.0965(3)
H18 H -0.8422(9) -0.7496(5) -0.1153(3)
H19 H -0.5982(9) -0.6947(5) -0.0725(3)
C17 C -0.7010(11) -0.8682(5) -0.0444(3)
H20 H -0.5403(11) -0.8846(5) -0.0219(3)
H21 H -0.7995(11) -0.8334(5) -0.0078(3)
C18 C -0.8139(10) -0.9907(5) -0.0805(3)
H22 H -0.9805(10) -0.9756(5) -0.0988(3)
H23 H -0.8179(10) -1.0532(5) -0.0465(3)
C19 C -0.6754(11) -1.0448(5) -0.1406(3)
H24 H -0.5134(11) -1.0676(5) -0.1220(3)
H25 H -0.7580(11) -1.1225(5) -0.1645(3)
C20 C -0.6558(9) -0.9483(5) -0.1930(3)
H26 H -0.8223(9) -0.9291(5) -0.2112(3)
C21 C -0.5273(10) -0.9954(5) -0.2549(3)
C22 C -0.6096(11) -0.9648(6) -0.3214(3)
H27 H -0.7525(11) -0.9188(6) -0.3274(3)
C23 C -0.4887(12) -0.9997(6) -0.3781(3)
H28 H -0.5487(12) -0.9778(6) -0.4225(3)
C24 C -0.2795(12) -1.0667(6) -0.3708(3)
H29 H -0.1948(12) -1.0893(6) -0.4100(3)
C25 C -0.1951(11) -1.1003(6) -0.3065(3)
H30 H -0.0529(11) -1.1471(6) -0.3012(3)
C26 C -0.3191(10) -1.0655(5) -0.2492(3)
H31 H -0.2609(10) -1.0901(5) -0.2051(3)
#END
