
#######################################################################
#
#                 Cambridge Crystallographic Data Centre
#                                CCDC
#
#######################################################################
#
# If this CIF has been generated from an entry in the Cambridge
# Structural Database, then it will include bibliographic, chemical,
# crystal, experimental, refinement or atomic coordinate data resulting
# from the CCDC's data processing and validation procedures.
#
#######################################################################

data_CSD_CIF_JUTDEJ
_audit_creation_date 2015-08-19
_audit_creation_method CSD-ConQuest-V1
_database_code_CSD JUTDEJ
_database_code_depnum_ccdc_archive 'CCDC 1058069'
_chemical_formula_sum 'C25 H26 N6 O5'
_chemical_formula_moiety
;
C25 H26 N6 O5
;
_journal_coden_Cambridge 1500
_journal_volume 5
_journal_year 2015
_journal_page_first 70958
_journal_name_full 'RSC Advances '
loop_
_publ_author_name
"Ajay Kanungo"
"D.Patra"
"S.Mukherjee"
"T.Mahata"
"P.R.Maulik"
"S.Dutta"
_chemical_name_systematic
;
(E)-Methyl 
2-(4-benzyl-1-(3-(dimethylamino)propyl)-8-nitro-3-oxo-3,4-dihydropyrazino[2,3-
b]quinoxalin-2(1H)-ylidene)acetate
;
_cell_volume   1202.020
_exptl_crystal_colour 'yellow'
_exptl_crystal_density_diffrn 1.355
_exptl_special_details
;
Luminescent

;
_exptl_crystal_description 'block'
_exptl_crystal_preparation 'chloroform/methanol'
_diffrn_ambient_temperature 296.1
#These two values have been output from a single CSD field.
_refine_ls_R_factor_gt 0.0558
_refine_ls_wR_factor_gt 0.0558
_symmetry_cell_setting triclinic
_symmetry_space_group_name_H-M 'P -1'
_symmetry_Int_Tables_number 2
loop_
_symmetry_equiv_pos_site_id
_symmetry_equiv_pos_as_xyz
1 x,y,z
2 -x,-y,-z
_cell_length_a 5.8603(5)
_cell_length_b 11.0162(13)
_cell_length_c 19.371(2)
_cell_angle_alpha 76.719(7)
_cell_angle_beta 87.487(6)
_cell_angle_gamma 80.980(6)
_cell_formula_units_Z 2
loop_
_atom_type_symbol
_atom_type_radius_bond
C 0.68
H 0.23
N 0.68
O 0.68
loop_
_atom_site_label
_atom_site_type_symbol
_atom_site_fract_x
_atom_site_fract_y
_atom_site_fract_z
O1 O 1.1090(2) 0.42769(16) 0.10131(10)
O2 O 0.8958(3) 0.68216(16) 0.10617(9)
N1 N 0.5641(3) 0.74006(18) 0.16261(10)
N2 N 0.6927(3) 0.53781(17) 0.27926(10)
N3 N 0.2215(3) 0.79580(18) 0.22013(10)
N4 N 0.3500(3) 0.59198(18) 0.33674(10)
O3 O 1.3758(3) 0.50756(19) 0.14896(11)
N5 N 1.0638(3) 0.1789(2) 0.36782(13)
C1 C 0.4154(4) 0.7184(2) 0.22092(12)
O4 O -0.5572(3) 0.7766(2) 0.45265(11)
N6 N -0.3734(4) 0.7057(3) 0.45457(15)
C2 C 0.1445(3) 0.6722(2) 0.33696(13)
C3 C 0.4834(3) 0.6148(2) 0.28062(13)
C4 C 0.0794(3) 0.7723(2) 0.27900(13)
C5 C 0.8339(3) 0.5504(2) 0.21833(13)
C6 C 0.5778(4) 0.9670(2) 0.10731(12)
C7 C 0.7682(4) 0.6611(2) 0.15795(14)
C8 C 1.1870(4) 0.4756(2) 0.15175(15)
C9 C 1.0283(4) 0.4707(2) 0.21322(14)
H1 H 1.06730 0.40520 0.25260
C10 C -0.2114(4) 0.7297(3) 0.39460(14)
O5 O -0.3182(4) 0.6177(3) 0.50431(13)
C11 C -0.0044(4) 0.6519(2) 0.39603(14)
H2 H 0.03710 0.58670 0.43540
C12 C -0.1347(4) 0.8513(2) 0.27976(13)
H3 H -0.17720 0.91810 0.24130
C13 C 0.7551(4) 0.4303(2) 0.33984(13)
H4 H 0.67890 0.44980 0.38230
H5 H 0.92050 0.41840 0.34720
C14 C 0.4932(4) 0.8470(2) 0.10134(13)
H6 H 0.32600 0.86230 0.09840
H7 H 0.55390 0.82400 0.05790
C15 C -0.2797(4) 0.8298(3) 0.33706(15)
H8 H -0.42160 0.88100 0.33780
C16 C 0.7818(4) 1.0001(3) 0.07508(14)
H9 H 0.86700 0.94840 0.04840
C17 C 0.4572(4) 1.0474(3) 0.14687(15)
H10 H 0.31850 1.02880 0.16880
C18 C 0.6874(4) 0.3075(3) 0.32885(15)
H11 H 0.52220 0.30930 0.33600
H12 H 0.72390 0.30010 0.28050
C19 C 0.8139(4) 0.1944(3) 0.37982(16)
H13 H 0.78150 0.20380 0.42800
H14 H 0.75660 0.11900 0.37470
C20 C 0.8612(5) 1.1087(3) 0.08190(17)
H15 H 0.99820 1.12920 0.05950
C21 C 0.5407(5) 1.1548(3) 0.15415(17)
H16 H 0.45950 1.20610 0.18180
C22 C 0.7408(5) 1.1862(3) 0.12114(17)
H17 H 0.79440 1.25930 0.12530
C23 C 1.2523(4) 0.4310(3) 0.03806(15)
H18 H 1.19090 0.38650 0.00770
H19 H 1.40700 0.39160 0.05130
H20 H 1.25390 0.51710 0.01330
C24 C 1.1355(5) 0.1149(3) 0.31175(19)
H21 H 1.10290 0.02980 0.32530
H22 H 1.29840 0.11380 0.30340
H23 H 1.05310 0.15830 0.26920
C25 C 1.1841(5) 0.1082(4) 0.43276(19)
H24 H 1.13970 0.15060 0.47050
H25 H 1.34790 0.10290 0.42500
H26 H 1.14350 0.02480 0.44540
#END
