
#######################################################################
#
#                 Cambridge Crystallographic Data Centre
#                                CCDC
#
#######################################################################
#
# If this CIF has been generated from an entry in the Cambridge
# Structural Database, then it will include bibliographic, chemical,
# crystal, experimental, refinement or atomic coordinate data resulting
# from the CCDC's data processing and validation procedures.
#
#######################################################################

data_CSD_CIF_JUVMIW
_audit_creation_date 1993-09-15
_audit_creation_method CSD-ConQuest-V1
_database_code_CSD JUVMIW
_chemical_formula_sum 'C7 H8 N4 O8'
_chemical_formula_moiety
;
C7 H8 N4 O8
;
_journal_coden_Cambridge 35
_journal_volume 58
_journal_year 1993
_journal_page_first 763
_journal_name_full 'J.Org.Chem. '
loop_
_publ_author_name
"G.A.Olah"
"P.Ramaiah"
"G.K.S.Prakash"
"R.Gilardi"
_chemical_name_systematic
;
2,2,5,5-Tetranitrobicyclo(2.2.1)heptane
;
_chemical_melting_point 467.15
_cell_volume   1073.771
_exptl_crystal_colour 'colorless'
_exptl_crystal_density_diffrn 1.708
_diffrn_ambient_temperature ?
_diffrn_special_details
;
The study was carried out at room temperature,in the range 283-303K

;
#These two values have been output from a single CSD field.
_refine_ls_R_factor_gt 0.039
_refine_ls_wR_factor_gt 0.039
_symmetry_cell_setting orthorhombic
_symmetry_space_group_name_H-M 'P 21 21 21'
_symmetry_Int_Tables_number 19
loop_
_symmetry_equiv_pos_site_id
_symmetry_equiv_pos_as_xyz
1 x,y,z
2 1/2+x,1/2-y,-z
3 -x,1/2+y,1/2-z
4 1/2-x,-y,1/2+z
_cell_length_a 8.583(1)
_cell_length_b 10.700(2)
_cell_length_c 11.692(2)
_cell_angle_alpha 90
_cell_angle_beta 90
_cell_angle_gamma 90
_cell_formula_units_Z 4
loop_
_atom_type_symbol
_atom_type_radius_bond
C 0.68
H 0.23
N 0.68
O 0.68
loop_
_atom_site_label
_atom_site_type_symbol
_atom_site_fract_x
_atom_site_fract_y
_atom_site_fract_z
C1 C 0.3747(5) 0.5124(4) 0.5102(4)
C2 C 0.3253(4) 0.4919(4) 0.3873(3)
N1 N 0.2842(5) 0.6127(4) 0.3259(3)
O1 O 0.3739(5) 0.6531(4) 0.2550(3)
O2 O 0.1640(5) 0.6629(3) 0.3540(4)
N2 N 0.1722(4) 0.4199(3) 0.3765(4)
O3 O 0.1299(4) 0.3955(4) 0.2799(3)
O4 O 0.1046(4) 0.3913(3) 0.4641(3)
C3 C 0.4573(5) 0.4172(5) 0.3345(4)
C4 C 0.5696(5) 0.3961(4) 0.4356(4)
C5 C 0.6476(5) 0.5204(4) 0.4649(3)
N3 N 0.7325(4) 0.5785(5) 0.3646(3)
O5 O 0.7130(5) 0.6869(4) 0.3415(4)
O6 O 0.8184(4) 0.5077(5) 0.3119(3)
N4 N 0.7809(4) 0.5025(4) 0.5502(3)
O7 O 0.8545(5) 0.5971(4) 0.5741(3)
O8 O 0.8050(4) 0.4002(3) 0.5892(3)
C6 C 0.5161(5) 0.5998(5) 0.5147(4)
C7 C 0.4545(5) 0.3885(5) 0.5364(4)
H1 H 0.2903(46) 0.5252(36) 0.5520(35)
H2 H 0.4974(52) 0.4538(40) 0.2734(38)
H3 H 0.4107(48) 0.3412(42) 0.3220(33)
H4 H 0.6455(43) 0.3276(36) 0.4245(32)
H5 H 0.5085(49) 0.6639(40) 0.4872(37)
H6 H 0.5365(46) 0.6304(58) 0.5908(37)
H7 H 0.5057(46) 0.3986(41) 0.6013(40)
H8 H 0.4045(49) 0.3252(37) 0.5191(36)
#END
