
#######################################################################
#
#                 Cambridge Crystallographic Data Centre
#                                CCDC
#
#######################################################################
#
# If this CIF has been generated from an entry in the Cambridge
# Structural Database, then it will include bibliographic, chemical,
# crystal, experimental, refinement or atomic coordinate data resulting
# from the CCDC's data processing and validation procedures.
#
#######################################################################

data_CSD_CIF_JUWXEG
_audit_creation_date 2015-12-09
_audit_creation_method CSD-ConQuest-V1
_database_code_CSD JUWXEG
_database_code_depnum_ccdc_archive 'CCDC 1412830'
_chemical_formula_sum 'C12 H9 N1 O5'
_chemical_formula_moiety
;
C12 H9 N1 O5
;
_journal_coden_Cambridge 388
_journal_volume 51
_journal_year 2015
_journal_page_first 1312
_journal_name_full 'Zh.Org.Khim.(Russ.)(Russ.J.Org.Chem.) '
loop_
_publ_author_name
"V.M.Berestovitskaya"
"S.V.Makarenko"
"K.A.Lyssenko"
"S.S.Eliseenko"
"R.I.Baichurin"
_chemical_name_systematic
;
3-(5-Nitro-2-furyl)-6,7-dihydro-1-benzofuran-4(5H)-one
;
_cell_volume   1044.078
_exptl_crystal_colour 'brown'
_exptl_crystal_density_diffrn 1.573
_exptl_crystal_description 'plate'
_diffrn_ambient_temperature 100
#These two values have been output from a single CSD field.
_refine_ls_R_factor_gt 0.0633
_refine_ls_wR_factor_gt 0.0633
_symmetry_cell_setting monoclinic
_symmetry_space_group_name_H-M 'P 21/n'
_symmetry_Int_Tables_number 14
loop_
_symmetry_equiv_pos_site_id
_symmetry_equiv_pos_as_xyz
1 x,y,z
2 1/2-x,1/2+y,1/2-z
3 -x,-y,-z
4 -1/2+x,-1/2-y,-1/2+z
_cell_length_a 11.5368(12)
_cell_length_b 5.5005(6)
_cell_length_c 16.5000(18)
_cell_angle_alpha 90
_cell_angle_beta 94.325(2)
_cell_angle_gamma 90
_cell_formula_units_Z 4
loop_
_atom_type_symbol
_atom_type_radius_bond
C 0.68
H 0.23
N 0.68
O 0.68
loop_
_atom_site_label
_atom_site_type_symbol
_atom_site_fract_x
_atom_site_fract_y
_atom_site_fract_z
O1 O 0.17182(12) -0.4347(3) 0.20419(9)
O2 O -0.34103(14) -0.0482(3) 0.2034(1)
O3 O -0.38638(13) 0.2992(3) 0.14503(10)
O4 O 0.20465(12) 0.2085(3) 0.02783(9)
O5 O -0.12857(11) -0.0262(3) 0.15872(8)
N1 N -0.31730(14) 0.1333(4) 0.16400(11)
C1 C 0.24766(16) 0.0313(4) 0.06299(12)
C2 C 0.37495(17) -0.0338(4) 0.05561(13)
H1 H 0.42340 0.06680 0.09470
H2 H 0.39560 0.01000 0.00030
C3 C 0.40587(17) -0.3023(4) 0.07101(13)
H3 H 0.36880 -0.40270 0.02650
H4 H 0.49110 -0.32350 0.07110
C4 C 0.36543(17) -0.3896(4) 0.15207(12)
H5 H 0.37200 -0.56870 0.15610
H6 H 0.41420 -0.31650 0.19770
C5 C 0.24251(17) -0.3143(4) 0.15593(12)
C6 C 0.18598(16) -0.1259(4) 0.11669(11)
C7 C -0.20378(16) 0.1556(4) 0.13690(12)
C8 C -0.15714(17) 0.3294(4) 0.09123(12)
H7 H -0.19340 0.47320 0.06990
C9 C 0.06571(17) -0.3185(4) 0.19575(12)
H8 H -0.00050 -0.36510 0.22290
C10 C -0.04161(17) 0.2485(4) 0.08226(12)
H9 H 0.01500 0.32760 0.05270
C11 C -0.02776(16) 0.0348(4) 0.12435(12)
C12 C 0.06856(16) -0.1283(4) 0.14332(11)
#END
