
#######################################################################
#
#                 Cambridge Crystallographic Data Centre
#                                CCDC
#
#######################################################################
#
# If this CIF has been generated from an entry in the Cambridge
# Structural Database, then it will include bibliographic, chemical,
# crystal, experimental, refinement or atomic coordinate data resulting
# from the CCDC's data processing and validation procedures.
#
#######################################################################

data_CSD_CIF_JUXJET
_audit_creation_date 2015-12-09
_audit_creation_method CSD-ConQuest-V1
_database_code_CSD JUXJET
_database_code_depnum_ccdc_archive 'CCDC 885614'
_chemical_formula_sum 'C6 H14 N2 O3'
_chemical_formula_moiety
;
C6 H14 N2 O3
;
_journal_coden_Cambridge 95
_journal_year 2015
_journal_page_first 62
_journal_name_full 'Izv.Akad.Nauk SSSR,Ser.Khim.(Russ.)(Russ.Chem.Bull.) '
loop_
_publ_author_name
"V.G.Shtamburg"
"R.G.Kostyanovsky"
"A.V.Tsygankov"
"V.V.Shtamburg"
"O.V.Shishkin"
"R.I.Zubatyuk"
"A.V.Mazepa"
"S.V.Kravchenko"
_chemical_name_systematic
;
1-t-Butoxy-1-methoxyurea
;
_cell_volume    892.613
_exptl_crystal_density_diffrn 1.207
_diffrn_ambient_temperature 293
#These two values have been output from a single CSD field.
_refine_ls_R_factor_gt 0.0439
_refine_ls_wR_factor_gt 0.0439
_symmetry_cell_setting monoclinic
_symmetry_space_group_name_H-M 'P 21/c'
_symmetry_Int_Tables_number 14
loop_
_symmetry_equiv_pos_site_id
_symmetry_equiv_pos_as_xyz
1 x,y,z
2 -x,1/2+y,1/2-z
3 -x,-y,-z
4 x,-1/2-y,-1/2+z
_cell_length_a 14.429(5)
_cell_length_b 6.332(2)
_cell_length_c 10.334(5)
_cell_angle_alpha 90
_cell_angle_beta 109.02(4)
_cell_angle_gamma 90
_cell_formula_units_Z 4
loop_
_atom_type_symbol
_atom_type_radius_bond
C 0.68
H 0.23
N 0.68
O 0.68
loop_
_atom_site_label
_atom_site_type_symbol
_atom_site_fract_x
_atom_site_fract_y
_atom_site_fract_z
O1 O 0.22499(10) 0.0650(2) 0.02070(14)
O2 O 0.19472(10) 0.0253(2) 0.22521(15)
O3 O 0.07345(11) 0.3500(2) 0.15269(16)
N1 N 0.20449(12) 0.1713(3) 0.12798(17)
N2 N 0.09827(12) 0.3649(3) -0.05188(19)
H1 H 0.05110 0.45250 -0.08640
H2 H 0.13290 0.32070 -0.10020
C1 C 0.11754(15) 0.2981(3) 0.0754(2)
C2 C 0.33028(16) 0.0701(4) 0.0393(2)
C3 C 0.36343(17) 0.2952(4) 0.0385(3)
H3 H 0.32340 0.36390 -0.04360
H4 H 0.43070 0.29750 0.04160
H5 H 0.35730 0.36800 0.11680
C4 C 0.33360(19) -0.0482(4) -0.0868(3)
H6 H 0.30850 -0.18840 -0.08620
H7 H 0.40010 -0.05570 -0.08650
H8 H 0.29430 0.02470 -0.16750
C5 C 0.38798(17) -0.0433(4) 0.1699(3)
H9 H 0.38320 0.03400 0.24740
H10 H 0.45550 -0.05310 0.17510
H11 H 0.36180 -0.18260 0.16980
C6 C 0.11787(18) -0.1257(3) 0.1690(3)
H12 H 0.12840 -0.19600 0.09260
H13 H 0.05580 -0.05430 0.13900
H14 H 0.11810 -0.22770 0.23780
#END
