
#######################################################################
#
#                 Cambridge Crystallographic Data Centre
#                                CCDC
#
#######################################################################
#
# If this CIF has been generated from an entry in the Cambridge
# Structural Database, then it will include bibliographic, chemical,
# crystal, experimental, refinement or atomic coordinate data resulting
# from the CCDC's data processing and validation procedures.
#
#######################################################################

data_CSD_CIF_JUXLEV
_audit_creation_date 2015-12-09
_audit_creation_method CSD-ConQuest-V1
_database_code_CSD JUXLEV
_database_code_depnum_ccdc_archive 'CCDC 948639'
_chemical_formula_sum 'C2 H6 N2 O2'
_chemical_formula_moiety
;
C2 H6 N2 O2
;
_journal_coden_Cambridge 95
_journal_year 2015
_journal_page_first 62
_journal_name_full 'Izv.Akad.Nauk SSSR,Ser.Khim.(Russ.)(Russ.Chem.Bull.) '
loop_
_publ_author_name
"V.G.Shtamburg"
"R.G.Kostyanovsky"
"A.V.Tsygankov"
"V.V.Shtamburg"
"O.V.Shishkin"
"R.I.Zubatyuk"
"A.V.Mazepa"
"S.V.Kravchenko"
_chemical_name_systematic
;
1-Methoxyurea
;
_cell_volume    227.504
_exptl_crystal_density_diffrn 1.315
_diffrn_ambient_temperature 293
#These two values have been output from a single CSD field.
_refine_ls_R_factor_gt 0.0587
_refine_ls_wR_factor_gt 0.0587
_symmetry_cell_setting triclinic
_symmetry_space_group_name_H-M 'P -1'
_symmetry_Int_Tables_number 2
loop_
_symmetry_equiv_pos_site_id
_symmetry_equiv_pos_as_xyz
1 x,y,z
2 -x,-y,-z
_cell_length_a 4.9905(16)
_cell_length_b 6.842(3)
_cell_length_c 7.412(3)
_cell_angle_alpha 77.33(4)
_cell_angle_beta 72.60(3)
_cell_angle_gamma 72.07(4)
_cell_formula_units_Z 2
loop_
_atom_type_symbol
_atom_type_radius_bond
C 0.68
H 0.23
N 0.68
O 0.68
loop_
_atom_site_label
_atom_site_type_symbol
_atom_site_fract_x
_atom_site_fract_y
_atom_site_fract_z
O1 O -0.1196(3) 0.7642(2) 0.0624(2)
O2 O 0.4607(3) 0.4204(2) 0.2237(2)
N1 N 0.1773(4) 0.4901(3) 0.1952(3)
N2 N 0.2403(4) 0.8180(3) 0.1566(3)
C1 C 0.0963(4) 0.6975(3) 0.1309(3)
C2 C 0.4633(8) 0.2785(6) 0.3917(5)
H1 H 0.40480 0.16120 0.38100
H2 H 0.33080 0.34420 0.49810
H3 H 0.65600 0.23300 0.41120
H4 H 0.154(5) 0.411(5) 0.127(4)
H5 H 0.409(5) 0.761(4) 0.188(3)
H6 H 0.187(5) 0.946(5) 0.107(4)
#END
