
#######################################################################
#
#                 Cambridge Crystallographic Data Centre
#                                CCDC
#
#######################################################################
#
# If this CIF has been generated from an entry in the Cambridge
# Structural Database, then it will include bibliographic, chemical,
# crystal, experimental, refinement or atomic coordinate data resulting
# from the CCDC's data processing and validation procedures.
#
#######################################################################

data_CSD_CIF_JUYKEV
_audit_creation_date 2015-12-10
_audit_creation_method CSD-ConQuest-V1
_database_code_CSD JUYKEV
_database_code_depnum_ccdc_archive 'CCDC 1045605'
_chemical_formula_sum 'C11 H7 N5 O6'
_chemical_formula_moiety
;
C11 H7 N5 O6
;
_journal_coden_Cambridge 95
_journal_year 2015
_journal_page_first 1369
_journal_name_full 'Izv.Akad.Nauk SSSR,Ser.Khim.(Russ.)(Russ.Chem.Bull.) '
loop_
_publ_author_name
"V.A.Chistyakov"
"Yu.P.Semenyuk"
"P.G.Morozov"
"E.V.Prazdnova"
"V.K.Chmyhalo"
"E.Yu.Kharchenko"
"M.E.Kletskiy"
"G.S.Borodkin"
"A.V.Lisovin"
"O.N.Burov"
"S.V.Kurbatov"
_chemical_name_systematic
;
4-(1-Methyl-1H-pyrrol-3-yl)-5,7-dinitro-2,1,3-benzoxadiazole 1-oxide
;
_cell_volume   1197.727
_exptl_crystal_colour 'yellow'
_exptl_crystal_density_diffrn 1.693
_exptl_crystal_description 'needle'
_diffrn_ambient_temperature 120
#These two values have been output from a single CSD field.
_refine_ls_R_factor_gt 0.0547
_refine_ls_wR_factor_gt 0.0547
_symmetry_cell_setting monoclinic
_symmetry_space_group_name_H-M 'P 21/c'
_symmetry_Int_Tables_number 14
loop_
_symmetry_equiv_pos_site_id
_symmetry_equiv_pos_as_xyz
1 x,y,z
2 -x,1/2+y,1/2-z
3 -x,-y,-z
4 x,-1/2-y,-1/2+z
_cell_length_a 9.840(5)
_cell_length_b 12.421(7)
_cell_length_c 9.849(5)
_cell_angle_alpha 90
_cell_angle_beta 95.744(10)
_cell_angle_gamma 90
_cell_formula_units_Z 4
loop_
_atom_type_symbol
_atom_type_radius_bond
C 0.68
H 0.23
N 0.68
O 0.68
loop_
_atom_site_label
_atom_site_type_symbol
_atom_site_fract_x
_atom_site_fract_y
_atom_site_fract_z
O1 O 0.44573(16) 1.03288(13) 0.62335(16)
O2 O 0.66594(17) 0.48048(13) 0.61400(17)
O3 O 0.39212(18) 0.74815(14) 0.35475(18)
O4 O 0.62890(17) 1.00833(13) 0.78509(17)
O5 O 0.87035(17) 0.53931(14) 0.68257(18)
N1 N 0.7173(2) 0.92725(16) 0.8285(2)
N2 N 0.7459(2) 0.55265(15) 0.6561(2)
N3 N 0.53171(19) 0.96834(16) 0.67328(19)
O6 O 0.30605(17) 0.86388(14) 0.49092(18)
N4 N 0.3953(2) 0.80030(16) 0.4620(2)
C1 C 0.5739(2) 0.68468(19) 0.5709(2)
H1 H 0.53930 0.62910 0.51080
N5 N 1.0175(2) 0.74928(17) 1.0450(2)
C2 C 0.5137(2) 0.78278(19) 0.5628(2)
C3 C 0.6824(2) 0.84231(19) 0.7507(2)
C4 C 0.8504(2) 0.71735(19) 0.8784(2)
C5 C 0.7470(2) 0.73627(18) 0.7637(2)
C6 C 0.6892(2) 0.66287(18) 0.6684(2)
C7 C 0.5669(2) 0.86538(18) 0.6541(2)
C8 C 0.8722(2) 0.6216(2) 0.9594(2)
H2 H 0.82500 0.55520 0.94540
C9 C 0.9741(3) 0.6444(2) 1.0610(3)
H3 H 1.00910 0.59610 1.13080
C10 C 0.9426(2) 0.7944(2) 0.9365(2)
H4 H 0.95120 0.86620 0.90530
C11 C 1.1240(3) 0.8045(2) 1.1345(3)
H5 H 1.17020 0.85740 1.08140
H6 H 1.19060 0.75170 1.17400
H7 H 1.08210 0.84130 1.20790
#END
