
#######################################################################
#
#                 Cambridge Crystallographic Data Centre
#                                CCDC
#
#######################################################################
#
# If this CIF has been generated from an entry in the Cambridge
# Structural Database, then it will include bibliographic, chemical,
# crystal, experimental, refinement or atomic coordinate data resulting
# from the CCDC's data processing and validation procedures.
#
#######################################################################

data_CSD_CIF_JUYKIZ
_audit_creation_date 2015-12-10
_audit_creation_method CSD-ConQuest-V1
_database_code_CSD JUYKIZ
_database_code_depnum_ccdc_archive 'CCDC 1045606'
_chemical_formula_sum 'C19 H17 N5 O3'
_chemical_formula_moiety
;
C19 H17 N5 O3
;
_journal_coden_Cambridge 95
_journal_year 2015
_journal_page_first 1369
_journal_name_full 'Izv.Akad.Nauk SSSR,Ser.Khim.(Russ.)(Russ.Chem.Bull.) '
loop_
_publ_author_name
"V.A.Chistyakov"
"Yu.P.Semenyuk"
"P.G.Morozov"
"E.V.Prazdnova"
"V.K.Chmyhalo"
"E.Yu.Kharchenko"
"M.E.Kletskiy"
"G.S.Borodkin"
"A.V.Lisovin"
"O.N.Burov"
"S.V.Kurbatov"
_chemical_name_systematic
;
4-(1,2-Dimethyl-1H-indol-3-yl)-7-methyl-5-nitro-7,8-dihydro-6H-[1,2,5]oxadiazo
lo[3,4-e]isoindole
;
_cell_volume   1691.983
_exptl_crystal_colour 'yellow'
_exptl_crystal_density_diffrn 1.426
_exptl_crystal_description 'prism'
_diffrn_ambient_temperature 110
_refine_special_details
;
C6,C8,C9,N7 and C6',C8',C9',N7' disordered over two sites with occupancies 
0.846:0.154.
;
#These two values have been output from a single CSD field.
_refine_ls_R_factor_gt 0.046
_refine_ls_wR_factor_gt 0.046
_symmetry_cell_setting monoclinic
_symmetry_space_group_name_H-M 'P 21/c'
_symmetry_Int_Tables_number 14
loop_
_symmetry_equiv_pos_site_id
_symmetry_equiv_pos_as_xyz
1 x,y,z
2 -x,1/2+y,1/2-z
3 -x,-y,-z
4 x,-1/2-y,-1/2+z
_cell_length_a 14.697(2)
_cell_length_b 13.757(2)
_cell_length_c 8.5245(14)
_cell_angle_alpha 90
_cell_angle_beta 100.981(3)
_cell_angle_gamma 90
_cell_formula_units_Z 4
loop_
_atom_type_symbol
_atom_type_radius_bond
C 0.68
H 0.23
N 0.68
O 0.68
loop_
_atom_site_label
_atom_site_type_symbol
_atom_site_fract_x
_atom_site_fract_y
_atom_site_fract_z
N1 N 0.14886(13) 0.44311(14) 0.8840(2)
O1 O 0.24091(11) 0.41413(12) 0.8982(2)
N2 N 0.28580(13) 0.46258(14) 0.7930(2)
O2 O 0.09253(14) 0.69556(14) 0.2715(2)
C1 C 0.22307(13) 0.52183(15) 0.7142(2)
O3 O 0.20695(11) 0.77367(11) 0.4151(2)
C2 C 0.23355(14) 0.58894(15) 0.5882(2)
C3 C 0.06495(14) 0.61993(15) 0.5709(3)
C4 C 0.15206(14) 0.63474(15) 0.5226(3)
C5 C 0.13793(14) 0.50881(15) 0.7702(3)
C6 C -0.0270(3) 0.6674(3) 0.5044(4)
H1 H -0.02730 0.73680 0.53540
H2 H -0.04250 0.66220 0.38650
N3 N -0.09128(14) 0.60996(15) 0.5802(3)
C7 C -0.0391(3) 0.5657(2) 0.7264(3)
H3 H -0.06290 0.50000 0.74320
H4 H -0.04200 0.60650 0.82100
C8 C -0.17323(18) 0.6644(3) 0.6035(5)
H5 H -0.21600 0.62070 0.64400
H6 H -0.20410 0.69220 0.50130
H7 H -0.15440 0.71680 0.68070
C9 C 0.05761(14) 0.56097(16) 0.6952(3)
C10 C 0.32316(14) 0.60038(14) 0.5396(3)
C11 C 0.34069(14) 0.59680(14) 0.3857(3)
N4 N 0.43373(12) 0.61102(13) 0.3905(2)
C12 C 0.47792(14) 0.62417(14) 0.5473(2)
C13 C 0.57166(15) 0.64147(15) 0.6085(3)
H8 H 0.61590 0.64510 0.54070
C14 C 0.59723(14) 0.65316(16) 0.7724(3)
H9 H 0.66040 0.66490 0.81800
C15 C 0.53175(15) 0.64808(16) 0.8730(2)
H10 H 0.55160 0.65610 0.98500
C16 C 0.41080(13) 0.61806(14) 0.6458(3)
C17 C 0.43837(14) 0.63158(15) 0.8111(3)
H11 H 0.39430 0.62950 0.87930
C18 C 0.27712(16) 0.57834(18) 0.2299(3)
H12 H 0.30530 0.53060 0.16840
H13 H 0.26640 0.63920 0.16940
H14 H 0.21790 0.55320 0.24950
C19 C 0.47811(16) 0.61218(17) 0.2515(3)
H15 H 0.45980 0.55410 0.18650
H16 H 0.54560 0.61270 0.28680
H17 H 0.45880 0.67040 0.18760
N5 N 0.15130(13) 0.70713(13) 0.3942(2)
C20? C -0.0269(19) 0.670(2) 0.550(2)
H18? H -0.01850 0.74110 0.53550
H19? H -0.06870 0.64520 0.45340
N6? N -0.0681(7) 0.6533(9) 0.6918(16)
C21? C -0.0324(19) 0.5641(12) 0.775(3)
H20? H -0.07380 0.50750 0.74610
H21? H -0.01730 0.57190 0.89280
C22? C -0.1692(7) 0.6591(18) 0.670(3)
H22? H -0.18940 0.62990 0.76300
H23? H -0.19740 0.62390 0.57340
H24? H -0.18850 0.72740 0.66080
#END
