
#######################################################################
#
#                 Cambridge Crystallographic Data Centre
#                                CCDC
#
#######################################################################
#
# If this CIF has been generated from an entry in the Cambridge
# Structural Database, then it will include bibliographic, chemical,
# crystal, experimental, refinement or atomic coordinate data resulting
# from the CCDC's data processing and validation procedures.
#
#######################################################################

data_CSD_CIF_JUZHET
_audit_creation_date 2015-12-10
_audit_creation_method CSD-ConQuest-V1
_database_code_CSD JUZHET
_database_code_depnum_ccdc_archive 'CCDC 1057029'
_chemical_formula_sum 'C24 H26 N1 O5'
_chemical_formula_moiety
;
C24 H26 N1 O5
;
_journal_coden_Cambridge 1278
_journal_volume 119
_journal_year 2015
_journal_page_first 13649
_journal_name_full 'J.Phys.Chem.B '
loop_
_publ_author_name
"P.Ravat"
"M.Baumgarten"
_chemical_name_systematic
;
(t-butyl(4,5,9,10-tetramethoxypyren-1-yl)amino)oxidanyl radical
;
_cell_volume   1041.367
_exptl_crystal_colour 'red'
_exptl_crystal_density_diffrn 1.303
_exptl_crystal_description 'prism'
_diffrn_ambient_temperature 120
#These two values have been output from a single CSD field.
_refine_ls_R_factor_gt 0.0539
_refine_ls_wR_factor_gt 0.0539
_symmetry_cell_setting triclinic
_symmetry_space_group_name_H-M 'P -1'
_symmetry_Int_Tables_number 2
loop_
_symmetry_equiv_pos_site_id
_symmetry_equiv_pos_as_xyz
1 x,y,z
2 -x,-y,-z
_cell_length_a 9.6761(3)
_cell_length_b 10.5020(4)
_cell_length_c 10.8995(4)
_cell_angle_alpha 76.6369(19)
_cell_angle_beta 80.4476(18)
_cell_angle_gamma 76.735(2)
_cell_formula_units_Z 2
loop_
_atom_type_symbol
_atom_type_radius_bond
C 0.68
H 0.23
N 0.68
O 0.68
loop_
_atom_site_label
_atom_site_type_symbol
_atom_site_fract_x
_atom_site_fract_y
_atom_site_fract_z
N1 N 0.62584(10) 0.33636(10) 0.78714(9)
O1 O 1.01154(9) 0.17533(10) 0.13349(8)
O2 O 0.98490(9) 0.40509(9) 0.24439(8)
O3 O 0.59484(8) 0.08335(8) 0.81538(8)
O4 O 0.62947(9) -0.13829(8) 0.71515(9)
O5 O 0.68748(10) 0.35666(10) 0.87521(8)
C1 C 0.80929(11) 0.1858(1) 0.50576(10)
C2 C 0.82556(11) 0.06939(11) 0.45416(10)
C3 C 0.76539(12) -0.04120(11) 0.52466(11)
C4 C 0.78290(13) -0.15489(12) 0.47224(13)
C5 C 0.85776(14) -0.15907(13) 0.35262(13)
C6 C 0.91432(13) -0.05069(13) 0.28145(12)
C7 C 0.89918(11) 0.06454(12) 0.33066(11)
C8 C 0.95223(12) 0.17981(12) 0.25709(10)
C9 C 0.94198(11) 0.28937(11) 0.30736(10)
C10 C 0.87214(11) 0.29409(11) 0.43444(10)
C11 C 0.86430(11) 0.40498(11) 0.48796(11)
C12 C 0.78703(12) 0.41325(11) 0.60589(10)
C13 C 0.71565(11) 0.31201(11) 0.67276(10)
C14 C 0.73016(10) 0.19381(10) 0.62754(10)
C15 C 0.67139(11) 0.07952(11) 0.69719(10)
C16 C 0.68668(12) -0.03085(11) 0.64704(11)
C17 C 0.90946(15) 0.23613(16) 0.04458(12)
C18 C 1.11511(13) 0.39732(14) 0.15862(12)
C19 C 0.68184(14) 0.02685(14) 0.91718(12)
C20 C 0.47671(14) -0.11593(14) 0.72188(17)
C21 C 0.46958(12) 0.39693(12) 0.78539(11)
C22 C 0.45575(16) 0.54850(14) 0.75658(15)
C23 C 0.39284(16) 0.35015(18) 0.91617(15)
C24 C 0.40937(13) 0.35487(14) 0.68347(13)
H1 H 0.74400 -0.22940 0.51940
H2 H 0.86970 -0.23680 0.31840
H3 H 0.96440 -0.05500 0.19930
H4 H 0.91190 0.47470 0.44290
H5 H 0.78300 0.48830 0.64210
H6 H 0.95400 0.23110 -0.03910
H7 H 0.87510 0.32710 0.05050
H8 H 0.83180 0.19070 0.06370
H9 H 1.13140 0.48470 0.12210
H10 H 1.19250 0.34780 0.20420
H11 H 1.10770 0.35390 0.09330
H12 H 0.62440 0.03160 0.99630
H13 H 0.75590 0.07530 0.90830
H14 H 0.72270 -0.06380 0.91410
H15 H 0.44400 -0.19340 0.76990
H16 H 0.43450 -0.04220 0.76130
H17 H 0.45060 -0.09740 0.63840
H18 H 0.35790 0.59070 0.75490
H19 H 0.49350 0.57390 0.82040
H20 H 0.50770 0.57510 0.67630
H21 H 0.29350 0.38730 0.91780
H22 H 0.43060 0.37840 0.97810
H23 H 0.40680 0.25550 0.93430
H24 H 0.31050 0.39390 0.68360
H25 H 0.45910 0.38420 0.60270
H26 H 0.42140 0.26030 0.70040
#END
