
#######################################################################
#
#                 Cambridge Crystallographic Data Centre
#                                CCDC
#
#######################################################################
#
# If this CIF has been generated from an entry in the Cambridge
# Structural Database, then it will include bibliographic, chemical,
# crystal, experimental, refinement or atomic coordinate data resulting
# from the CCDC's data processing and validation procedures.
#
#######################################################################

data_CSD_CIF_KABDAS
_audit_creation_date 1989-07-19
_audit_creation_method CSD-ConQuest-V1
_database_code_CSD KABDAS
_chemical_formula_sum 'C22 H26 N4 O6'
_chemical_formula_moiety
;
C22 H26 N4 O6
;
_journal_coden_Cambridge 4
_journal_volume 110
_journal_year 1988
_journal_page_first 6785
_journal_name_full 'J.Am.Chem.Soc. '
loop_
_publ_author_name
"S.Wolff"
"B.R.Venepalli"
"C.F.George"
"W.C.Agosta"
_chemical_name_systematic
;
t-Butyl 
4-(4-(2,4-dinitrophenylhydrazono)pent-2-ene-1-spiro-2'-(1'-methylcyclopropyl))
but-2-enecarboxylate
;
_cell_volume   2291.060
_exptl_crystal_colour 'red'
_diffrn_ambient_temperature ?
_diffrn_special_details
;
The study was carried out at room temperature,in the range 283-303K

;
#These two values have been output from a single CSD field.
_refine_ls_R_factor_gt 0.093
_refine_ls_wR_factor_gt 0.093
_symmetry_cell_setting monoclinic
_symmetry_space_group_name_H-M 'P 21/c'
_symmetry_Int_Tables_number 14
loop_
_symmetry_equiv_pos_site_id
_symmetry_equiv_pos_as_xyz
1 x,y,z
2 -x,1/2+y,1/2-z
3 -x,-y,-z
4 x,-1/2-y,-1/2+z
_cell_length_a 12.029(5)
_cell_length_b 5.990(2)
_cell_length_c 33.500(17)
_cell_angle_alpha 90
_cell_angle_beta 108.35(3)
_cell_angle_gamma 90
_cell_formula_units_Z 4
loop_
_atom_type_symbol
_atom_type_radius_bond
C 0.68
H 0.23
N 0.68
O 0.68
loop_
_atom_site_label
_atom_site_type_symbol
_atom_site_fract_x
_atom_site_fract_y
_atom_site_fract_z
C1 C 0.4637(5) -0.2766(10) -0.1659(2)
C2 C 0.5277(5) -0.4564(10) -0.1385(2)
C3 C 0.5837(5) -0.2272(10) -0.1344(2)
C4 C 0.6014(5) -0.0787(10) -0.0961(2)
C5 C 0.7168(5) 0.037(1) -0.0917(2)
C6 C 0.7620(6) -0.0521(12) -0.1228(2)
C7 C 0.6868(5) -0.1931(11) -0.1470(2)
C8 C 0.4475(5) -0.2842(11) -0.2123(2)
C9 C 0.3625(5) -0.4623(12) -0.2329(2)
C10 C 0.2600(6) -0.4412(11) -0.2618(2)
C11 C 0.2000(6) -0.2364(11) -0.2813(2)
O1 O 0.2462(4) -0.0572(8) -0.2817(2)
O2 O 0.0861(4) -0.2754(7) -0.3007(1)
C12 C 0.3608(5) -0.1726(13) -0.1566(2)
C13 C 0.0023(6) -0.1072(11) -0.3233(2)
C14 C -0.1120(6) -0.2283(14) -0.3347(3)
C15 C -0.0011(8) 0.0850(14) -0.2944(3)
C16 C 0.0300(7) -0.0473(17) -0.3621(3)
N1 N 0.7680(5) 0.1919(9) -0.0653(2)
N2 N 0.7119(5) 0.256(1) -0.0369(2)
C17 C 0.7495(5) 0.4370(9) -0.0135(2)
C18 C 0.7002(5) 0.5109(10) 0.0184(2)
C19 C 0.7362(5) 0.7066(9) 0.0403(2)
C20 C 0.8249(5) 0.8288(9) 0.0335(2)
C21 C 0.8766(5) 0.7617(10) 0.0043(2)
C22 C 0.8386(5) 0.5691(10) -0.0191(2)
N3 N 0.6110(5) 0.3837(9) 0.0283(2)
O3 O 0.5743(4) 0.2099(8) 0.0099(2)
O4 O 0.5724(5) 0.4544(9) 0.0557(2)
N4 N 0.8626(5) 1.0301(9) 0.0573(2)
O5 O 0.8107(4) 1.0968(7) 0.0807(2)
O6 O 0.9477(5) 1.1321(8) 0.0525(2)
H1 H 0.50030 -0.51230 -0.11650
H2 H 0.55960 -0.57720 -0.15040
H3 H 0.60620 -0.16600 -0.07160
H4 H 0.53900 0.02780 -0.10070
H5 H 0.83660 -0.01450 -0.12580
H6 H 0.69920 -0.26650 -0.17070
H7 H 0.52160 -0.31420 -0.21640
H8 H 0.41840 -0.14260 -0.22460
H9 H 0.38610 -0.61220 -0.22410
H10 H 0.21860 -0.57790 -0.27140
H11 H 0.37220 -0.17320 -0.12690
H12 H 0.29190 -0.25690 -0.17090
H13 H 0.35140 -0.02160 -0.16670
H14 H -0.16940 -0.11960 -0.34900
H15 H -0.12880 -0.27950 -0.31010
H16 H -0.11450 -0.35230 -0.35310
H17 H -0.06750 0.17990 -0.29740
H18 H 0.06140 0.17090 -0.29870
H19 H 0.02430 0.02220 -0.26660
H20 H -0.03530 0.05020 -0.37410
H21 H 0.03370 -0.15720 -0.38250
H22 H 0.10110 0.03820 -0.35390
H23 H 0.69940 0.75710 0.06030
H24 H 0.93930 0.84810 0.00020
H25 H 0.87480 0.52600 -0.03980
H26 H 0.6540(66) 0.1547(98) -0.0388(26)
#END
