
#######################################################################
#
#                 Cambridge Crystallographic Data Centre
#                                CCDC
#
#######################################################################
#
# If this CIF has been generated from an entry in the Cambridge
# Structural Database, then it will include bibliographic, chemical,
# crystal, experimental, refinement or atomic coordinate data resulting
# from the CCDC's data processing and validation procedures.
#
#######################################################################

data_CSD_CIF_KABHED
_audit_creation_date 2016-01-19
_audit_creation_method CSD-ConQuest-V1
_database_code_CSD KABHED
_database_code_depnum_ccdc_archive 'CCDC 1427919'
_chemical_formula_sum 'C19 H12 N2 O4'
_chemical_formula_moiety
;
C19 H12 N2 O4
;
_journal_coden_Cambridge 1336
_journal_volume 18
_journal_year 2016
_journal_page_first 332
_journal_name_full 'Org.Lett. '
loop_
_publ_author_name
"K.B.Manjappa"
"Jia-Ru Syu"
"Ding-Yah Yang"
_chemical_name_systematic
;
3-Nitro-4-(quinolin-2-ylmethyl)-2H-chromen-2-one
;
_cell_volume    749.996
_exptl_crystal_colour 'yellow'
_exptl_crystal_density_diffrn 1.471
_exptl_special_details
;
Photo-sensitive

;
_exptl_crystal_description 'parallelepiped'
_diffrn_ambient_temperature 150
#These two values have been output from a single CSD field.
_refine_ls_R_factor_gt 0.0463
_refine_ls_wR_factor_gt 0.0463
_symmetry_cell_setting triclinic
_symmetry_space_group_name_H-M 'P -1'
_symmetry_Int_Tables_number 2
loop_
_symmetry_equiv_pos_site_id
_symmetry_equiv_pos_as_xyz
1 x,y,z
2 -x,-y,-z
_cell_length_a 7.1803(5)
_cell_length_b 8.0598(6)
_cell_length_c 13.9214(10)
_cell_angle_alpha 98.659(6)
_cell_angle_beta 92.733(6)
_cell_angle_gamma 108.798(7)
_cell_formula_units_Z 2
loop_
_atom_type_symbol
_atom_type_radius_bond
C 0.68
H 0.23
N 0.68
O 0.68
loop_
_atom_site_label
_atom_site_type_symbol
_atom_site_fract_x
_atom_site_fract_y
_atom_site_fract_z
O1 O 0.21292(16) -0.21068(14) 0.48692(8)
O2 O 0.09325(19) -0.44948(14) 0.37157(9)
O3 O 0.13939(18) -0.33887(14) 0.18703(8)
O4 O -0.11317(18) -0.24655(16) 0.18854(9)
N1 N 0.0383(2) -0.25905(17) 0.22769(10)
N2 N 0.37823(19) 0.07687(16) 0.20645(9)
C1 C 0.2636(2) -0.0291(2) 0.51815(11)
C2 C 0.3543(2) 0.0345(2) 0.61256(12)
H1 H 0.37920 -0.04420 0.65190
C3 C 0.4080(2) 0.2148(2) 0.64858(12)
H2 H 0.47230 0.26090 0.71290
C4 C 0.3686(2) 0.3289(2) 0.59127(13)
H3 H 0.40350 0.45220 0.61720
C5 C 0.2793(2) 0.2648(2) 0.49724(12)
H4 H 0.25400 0.34440 0.45870
C6 C 0.2249(2) 0.0820(2) 0.45744(11)
C7 C 0.1389(2) 0.0054(2) 0.35779(11)
C8 C 0.1044(2) -0.1706(2) 0.32991(11)
C9 C 0.1344(2) -0.2903(2) 0.39354(12)
C10 C 0.1047(2) 0.1234(2) 0.28921(11)
H5 H 0.08560 0.22930 0.32780
H6 H -0.01800 0.05770 0.24530
C11 C 0.2756(2) 0.18404(19) 0.22778(11)
C12 C 0.3109(3) 0.3469(2) 0.19329(12)
H7 H 0.23070 0.41850 0.20920
C13 C 0.4613(3) 0.3990(2) 0.13704(12)
H8 H 0.48860 0.50900 0.11440
C14 C 0.5775(2) 0.2900(2) 0.11203(11)
C15 C 0.5277(2) 0.1262(2) 0.14790(11)
C16 C 0.6338(2) 0.0095(2) 0.12136(12)
H9 H 0.60060 -0.10080 0.14410
C17 C 0.7837(3) 0.0533(2) 0.06340(12)
H10 H 0.85340 -0.02690 0.04580
C18 C 0.8360(3) 0.2169(2) 0.02937(12)
H11 H 0.94200 0.24690 -0.01020
C19 C 0.7350(3) 0.3323(2) 0.05303(12)
H12 H 0.77100 0.44200 0.02960
#END
