
#######################################################################
#
#                 Cambridge Crystallographic Data Centre
#                                CCDC
#
#######################################################################
#
# If this CIF has been generated from an entry in the Cambridge
# Structural Database, then it will include bibliographic, chemical,
# crystal, experimental, refinement or atomic coordinate data resulting
# from the CCDC's data processing and validation procedures.
#
#######################################################################

data_CSD_CIF_KABWUF
_audit_creation_date 1989-07-11
_audit_creation_method CSD-ConQuest-V1
_database_code_CSD KABWUF
_database_code_depnum_ccdc_archive 'CCDC 1191860'
_chemical_formula_sum 'C6 H6 N4 O3'
_chemical_formula_moiety
;
C6 H6 N4 O3
;
_journal_coden_Cambridge 167
_journal_year 1989
_journal_page_first 1017
_journal_name_full 'Liebigs Ann. '
loop_
_publ_author_name
"R.Fruttero"
"B.Ferrarotti"
"A.Gasco"
"G.Calestani"
"C.Rizzoli"
_chemical_name_systematic
;
4,7-Dimethyl(1,2,5)oxadiazolo(3,4-d)pyridazine 5,6-dioxide
;
_chemical_melting_point 465.15
_cell_volume    392.318
_exptl_crystal_density_diffrn 1.542
_exptl_special_details
;
Melting point range 465.15-466.15K

;
_diffrn_ambient_temperature ?
_diffrn_special_details
;
The study was carried out at room temperature,in the range 283-303K

;
#These two values have been output from a single CSD field.
_refine_ls_R_factor_gt 0.078
_refine_ls_wR_factor_gt 0.078
_symmetry_cell_setting monoclinic
_symmetry_space_group_name_H-M 'P 21'
_symmetry_Int_Tables_number 4
loop_
_symmetry_equiv_pos_site_id
_symmetry_equiv_pos_as_xyz
1 x,y,z
2 -x,1/2+y,-z
_cell_length_a 8.887(1)
_cell_length_b 5.874(1)
_cell_length_c 7.779(1)
_cell_angle_alpha 90
_cell_angle_beta 104.96(5)
_cell_angle_gamma 90
_cell_formula_units_Z 2
loop_
_atom_type_symbol
_atom_type_radius_bond
C 0.68
H 0.23
N 0.68
O 0.68
loop_
_atom_site_label
_atom_site_type_symbol
_atom_site_fract_x
_atom_site_fract_y
_atom_site_fract_z
O1 O 0.0234(9) -0.1961(34) 0.2688(13)
N1 N 0.0833(14) -0.2315(34) 0.4588(16)
C1 C 0.1661(15) -0.0555(36) 0.4961(20)
C2 C 0.2502(21) 0.0010(32) 0.6636(22)
N2 N 0.3287(17) 0.1929(39) 0.6718(18)
C3 C 0.2456(26) -0.1281(40) 0.8284(21)
O2 O 0.4238(13) 0.3038(35) 0.8104(15)
N3 N 0.0823(15) -0.0046(30) 0.2000(18)
C4 C 0.1649(16) 0.0753(38) 0.3305(19)
C5 C 0.2498(17) 0.2742(23) 0.3359(17)
N4 N 0.3330(17) 0.3465(33) 0.5006(19)
C6 C 0.2503(25) 0.4136(39) 0.1769(29)
O3 O 0.4298(13) 0.5152(32) 0.5564(20)
H1 H 0.1638(9) -0.2627(40) 0.8329(21)
H2 H 0.2069(26) 0.028(4) 0.8767(21)
H3 H 0.3590(26) -0.1733(40) 0.9112(21)
H4 H 0.1924(25) 0.3421(39) 0.0491(29)
H5 H 0.3727(25) 0.4346(39) 0.1854(29)
H6 H 0.1996(25) 0.5772(39) 0.1921(29)
#END
