
#######################################################################
#
#                 Cambridge Crystallographic Data Centre
#                                CCDC
#
#######################################################################
#
# If this CIF has been generated from an entry in the Cambridge
# Structural Database, then it will include bibliographic, chemical,
# crystal, experimental, refinement or atomic coordinate data resulting
# from the CCDC's data processing and validation procedures.
#
#######################################################################

data_CSD_CIF_KACGIH
_audit_creation_date 2016-01-19
_audit_creation_method CSD-ConQuest-V1
_database_code_CSD KACGIH
_database_code_depnum_ccdc_archive 'CCDC 1428310'
_chemical_formula_sum 'C22 H22 N2 O6'
_chemical_formula_moiety
;
C22 H22 N2 O6
;
_journal_coden_Cambridge 177
_journal_volume 14
_journal_year 2016
_journal_page_first 2833
_journal_name_full 'Org.Biomol.Chem. '
loop_
_publ_author_name
"M.Andreini"
"F.Chapellas"
"S.Diab"
"K.Pasturaud"
"S.R.Piettre"
"J.Legros"
"I.Chataigner"
_chemical_name_systematic
;
4-hydroxy-3-(4-(morpholin-4-yl)-1-nitro-4-phenylbuta-1,3-dien-1-yl)phenyl 
acetate
;
_cell_volume   1018.200
_exptl_crystal_colour 'orange'
_exptl_crystal_density_diffrn 1.339
_exptl_crystal_description 'prismatic'
_diffrn_ambient_temperature 293
_refine_special_details
;
The structure is disordered.

;
#These two values have been output from a single CSD field.
_refine_ls_R_factor_gt 0.0491
_refine_ls_wR_factor_gt 0.0491
_symmetry_cell_setting triclinic
_symmetry_space_group_name_H-M 'P -1'
_symmetry_Int_Tables_number 2
loop_
_symmetry_equiv_pos_site_id
_symmetry_equiv_pos_as_xyz
1 x,y,z
2 -x,-y,-z
_cell_length_a 10.4217(9)
_cell_length_b 10.6970(9)
_cell_length_c 11.331(1)
_cell_angle_alpha 68.223(1)
_cell_angle_beta 65.391(1)
_cell_angle_gamma 66.066(1)
_cell_formula_units_Z 2
loop_
_atom_type_symbol
_atom_type_radius_bond
C 0.68
H 0.23
N 0.68
O 0.68
loop_
_atom_site_label
_atom_site_type_symbol
_atom_site_fract_x
_atom_site_fract_y
_atom_site_fract_z
O1 O 0.8790(2) 0.20817(15) 0.31208(17)
O2 O 0.81870(14) 0.35698(14) 0.13988(12)
O3 O 0.53050(17) 0.79112(15) 0.86229(15)
O4 O 0.98057(12) 0.56190(13) 0.10442(12)
H1 H 1.03110 0.59540 0.03030
O5 O 0.40080(13) 0.89304(13) 0.22582(13)
O6 O 0.41646(19) 0.9115(2) 0.40918(17)
N1 N 0.67339(17) 0.58758(16) 0.70848(15)
N2 N 0.82840(16) 0.32960(16) 0.25351(15)
C1 C 0.3448(2) 0.9375(2) 0.3398(2)
C2 C 0.9822(2) 0.2988(2) 0.62820(19)
H2 H 1.02510 0.35000 0.54410
C3 C 1.0671(2) 0.1706(2) 0.6851(2)
H3 H 1.16660 0.13620 0.63920
C4 C 1.0051(3) 0.0947(2) 0.8085(2)
H4 H 1.06220 0.00840 0.84650
C5 C 0.8592(3) 0.1454(2) 0.8760(2)
H5 H 0.81750 0.09350 0.96020
C6 C 0.7731(2) 0.2730(2) 0.82043(17)
H6 H 0.67370 0.30650 0.86720
C7 C 0.83431(18) 0.35151(17) 0.69509(15)
C8 C 0.74253(18) 0.48975(18) 0.63526(16)
C9 C 0.7388(2) 0.5955(2) 0.7966(2)
H7 H 0.80480 0.65340 0.74570
H8 H 0.79640 0.50170 0.83210
C10 C 0.6218(3) 0.6566(2) 0.9090(2)
H9 H 0.56160 0.59380 0.96460
H10 H 0.66780 0.66450 0.96380
C11 C 0.4612(2) 0.7805(2) 0.7840(2)
H11 H 0.39840 0.87320 0.75310
H12 H 0.39860 0.71990 0.83950
C12 C 0.5689(2) 0.7231(2) 0.6658(2)
H13 H 0.51600 0.71010 0.62030
H14 H 0.62260 0.78960 0.60350
C13 C 0.72838(19) 0.51626(18) 0.51217(16)
H15 H 0.68310 0.60860 0.47330
C14 C 0.77745(18) 0.41377(17) 0.44125(16)
H16 H 0.81290 0.31990 0.48380
C15 C 0.77640(17) 0.44297(17) 0.31456(15)
C16 C 0.73160(17) 0.58738(16) 0.23152(14)
C17 C 0.83841(17) 0.64582(17) 0.12754(15)
C18 C 0.79783(19) 0.78400(18) 0.05516(17)
H17 H 0.86890 0.82140 -0.01630
C19 C 0.6523(2) 0.86644(18) 0.08864(18)
H18 H 0.62510 0.95950 0.04050
C20 C 0.54855(18) 0.80984(18) 0.19338(17)
C21 C 0.58597(18) 0.67098(17) 0.26373(16)
H19 H 0.51340 0.63360 0.33280
C22 C 0.1863(2) 1.0197(2) 0.3617(3)
H20 H 0.14780 1.05090 0.44240
H21 H 0.13210 0.96120 0.36950
H22 H 0.17660 1.10000 0.28740
#END
