
#######################################################################
#
#                 Cambridge Crystallographic Data Centre
#                                CCDC
#
#######################################################################
#
# If this CIF has been generated from an entry in the Cambridge
# Structural Database, then it will include bibliographic, chemical,
# crystal, experimental, refinement or atomic coordinate data resulting
# from the CCDC's data processing and validation procedures.
#
#######################################################################

data_CSD_CIF_KAGTET
_audit_creation_date 2010-11-12
_audit_creation_method CSD-ConQuest-V1
_database_code_CSD KAGTET
_database_code_depnum_ccdc_archive 'CCDC 771860'
_chemical_formula_sum 'C29 H41 N1 O2'
_chemical_formula_moiety
;
C29 H41 N1 O2
;
_journal_coden_Cambridge 179
_journal_volume 49
_journal_year 2010
_journal_page_first 6877
_journal_name_full 'Angew.Chem.,Int.Ed. '
loop_
_publ_author_name
"S.Kirchberg"
"R.Frohlich"
"A.Studer"
_chemical_name_systematic
;
2,2-Dimethyl-1-(2-phenyl-3-((2,2,6,6-tetramethylpiperidin-1-yl)oxy)-2,3-dihydr
o-1H-inden-1-yl)propan-1-ol
;
_cell_volume   2570.376
_exptl_crystal_colour 'colorless'
_exptl_crystal_density_diffrn 1.126
_exptl_crystal_description 'block'
_diffrn_ambient_temperature 223
#These two values have been output from a single CSD field.
_refine_ls_R_factor_gt 0.0525
_refine_ls_wR_factor_gt 0.0525
_symmetry_cell_setting monoclinic
_symmetry_space_group_name_H-M 'P 21/n'
_symmetry_Int_Tables_number 14
loop_
_symmetry_equiv_pos_site_id
_symmetry_equiv_pos_as_xyz
1 x,y,z
2 1/2-x,1/2+y,1/2-z
3 -x,-y,-z
4 -1/2+x,-1/2-y,-1/2+z
_cell_length_a 11.0522(6)
_cell_length_b 16.3205(8)
_cell_length_c 14.3821(7)
_cell_angle_alpha 90
_cell_angle_beta 97.772(2)
_cell_angle_gamma 90
_cell_formula_units_Z 4
loop_
_atom_type_symbol
_atom_type_radius_bond
C 0.68
H 0.23
N 0.68
O 0.68
loop_
_atom_site_label
_atom_site_type_symbol
_atom_site_fract_x
_atom_site_fract_y
_atom_site_fract_z
C1 C -0.09208(19) 0.06207(13) 0.77220(14)
H1 H -0.17850 0.07940 0.75890
C2 C -0.01716(19) 0.11157(12) 0.70700(14)
H2 H 0.03680 0.15000 0.74640
C3 C 0.06421(18) 0.04769(13) 0.66513(15)
H3 H 0.07270 0.06010 0.59900
C4 C -0.00013(19) -0.03225(13) 0.67431(15)
C5 C 0.0146(2) -0.10618(15) 0.62938(17)
H4 H 0.06780 -0.11020 0.58380
C6 C -0.0499(3) -0.17345(16) 0.6528(2)
H5 H -0.04090 -0.22380 0.62280
C7 C -0.1283(3) -0.16770(15) 0.7202(2)
H6 H -0.16950 -0.21470 0.73720
C8 C -0.1464(2) -0.09349(14) 0.76287(17)
H7 H -0.20090 -0.08940 0.80750
C9 C -0.08279(19) -0.02505(13) 0.73846(15)
C10 C -0.05034(19) 0.07188(13) 0.87831(15)
H8 H -0.07740 0.02210 0.90890
O1 O 0.07984(13) 0.07494(10) 0.90005(10)
H9 H 0.11140 0.05450 0.85630
C11 C -0.1047(2) 0.14581(13) 0.92536(15)
C12 C -0.0480(3) 0.14853(16) 1.02842(16)
H10 H -0.08440 0.19290 1.06000
H11 H 0.03930 0.15750 1.03220
H12 H -0.06290 0.09690 1.05840
C13 C -0.2428(2) 0.13398(17) 0.92107(19)
H13 H -0.27590 0.17680 0.95700
H14 H -0.25910 0.08090 0.94720
H15 H -0.28090 0.13670 0.85630
C14 C -0.0785(2) 0.22675(14) 0.87772(17)
H16 H -0.11830 0.22640 0.81330
H17 H 0.00890 0.23300 0.87840
H18 H -0.10950 0.27200 0.91120
C15 C -0.0936(2) 0.16064(13) 0.63093(15)
C16 C -0.2042(2) 0.13350(16) 0.58465(16)
H19 H -0.23500 0.08230 0.60010
C17 C -0.2701(2) 0.18142(18) 0.51542(18)
H20 H -0.34530 0.16230 0.48480
C18 C -0.2269(3) 0.25596(18) 0.49127(19)
H21 H -0.27240 0.28820 0.44490
C19 C -0.1166(3) 0.28296(16) 0.5355(2)
H22 H -0.08560 0.33380 0.51900
C20 C -0.0504(2) 0.23549(14) 0.60468(18)
H23 H 0.02530 0.25470 0.63430
O2 O 0.18086(12) 0.05377(9) 0.72595(10)
N1 N 0.28204(15) 0.01487(10) 0.68796(12)
C21 C 0.3538(2) 0.08189(16) 0.65020(18)
C22 C 0.4651(2) 0.0414(2) 0.6174(2)
H24 H 0.43750 0.00540 0.56420
H25 H 0.51670 0.08400 0.59520
C23 C 0.5410(2) -0.0082(2) 0.6925(2)
H26 H 0.60820 -0.03490 0.66620
H27 H 0.57610 0.02790 0.74360
C24 C 0.4611(2) -0.07180(16) 0.7295(2)
H28 H 0.50950 -0.10190 0.78050
H29 H 0.43430 -0.11100 0.67930
C25 C 0.3485(2) -0.03596(14) 0.76590(16)
C26 C 0.3911(3) 0.15338(17) 0.7175(3)
H30 H 0.32180 0.16970 0.74810
H31 H 0.41730 0.19940 0.68240
H32 H 0.45760 0.13620 0.76450
C27 C 0.2750(3) 0.1173(2) 0.5629(2)
H33 H 0.24270 0.07280 0.52210
H34 H 0.32460 0.15280 0.52940
H35 H 0.20790 0.14850 0.58220
C28 C 0.2636(2) -0.10708(17) 0.7828(2)
H36 H 0.19050 -0.08570 0.80460
H37 H 0.30520 -0.14360 0.82990
H38 H 0.24130 -0.13700 0.72470
C29 C 0.3852(3) 0.0086(2) 0.85955(18)
H39 H 0.45610 0.04270 0.85510
H40 H 0.40460 -0.03140 0.90920
H41 H 0.31800 0.04270 0.87350
#END
