
#######################################################################
#
#                 Cambridge Crystallographic Data Centre
#                                CCDC
#
#######################################################################
#
# If this CIF has been generated from an entry in the Cambridge
# Structural Database, then it will include bibliographic, chemical,
# crystal, experimental, refinement or atomic coordinate data resulting
# from the CCDC's data processing and validation procedures.
#
#######################################################################

data_CSD_CIF_KAHHUY
_audit_creation_date 2010-12-14
_audit_creation_method CSD-ConQuest-V1
_database_code_CSD KAHHUY
_database_code_depnum_ccdc_archive 'CCDC 770182'
_chemical_formula_sum 'C3 H3 N5 O4'
_chemical_formula_moiety
;
C3 H3 N5 O4
;
_journal_coden_Cambridge 179
_journal_volume 49
_journal_year 2010
_journal_page_first 3177
_journal_name_full 'Angew.Chem.,Int.Ed. '
loop_
_publ_author_name
"G.Herve"
"C.Roussel"
"H.Graindorge"
_chemical_name_systematic
;
5-Amino-3,4-dinitro-1H-pyrazole
;
_cell_volume    614.297
_exptl_crystal_density_diffrn 1.872
_diffrn_ambient_temperature 293
#These two values have been output from a single CSD field.
_refine_ls_R_factor_gt 0.0341
_refine_ls_wR_factor_gt 0.0341
_symmetry_cell_setting monoclinic
_symmetry_space_group_name_H-M 'P 21/c'
_symmetry_Int_Tables_number 14
loop_
_symmetry_equiv_pos_site_id
_symmetry_equiv_pos_as_xyz
1 x,y,z
2 -x,1/2+y,1/2-z
3 -x,-y,-z
4 x,-1/2-y,-1/2+z
_cell_length_a 7.2132(3)
_cell_length_b 12.4258(5)
_cell_length_c 7.1598(3)
_cell_angle_alpha 90
_cell_angle_beta 106.814(2)
_cell_angle_gamma 90
_cell_formula_units_Z 4
loop_
_atom_type_symbol
_atom_type_radius_bond
C 0.68
H 0.23
N 0.68
O 0.68
loop_
_atom_site_label
_atom_site_type_symbol
_atom_site_fract_x
_atom_site_fract_y
_atom_site_fract_z
C1 C 0.26786(14) 0.05075(8) 0.27693(15)
C2 C 0.33139(14) 0.15833(7) 0.29192(15)
C3 C 0.51985(14) 0.15265(7) 0.27067(15)
N1 N 0.54906(13) 0.04695(7) 0.24550(15)
H1 H 0.649(3) 0.0176(15) 0.225(2)
N2 N 0.39577(13) -0.01696(7) 0.24913(14)
N3 N 0.08141(12) 0.00775(7) 0.27968(14)
O1 O -0.06409(11) 0.05460(7) 0.18193(14)
O2 O 0.08210(14) -0.07231(8) 0.37804(16)
N4 N 0.24415(13) 0.25105(6) 0.33772(13)
O3 O 0.32680(12) 0.33774(6) 0.33122(15)
O4 O 0.09511(12) 0.24323(7) 0.38786(14)
N5 N 0.64866(15) 0.22958(8) 0.27314(18)
H2 H 0.621(2) 0.2968(15) 0.283(2)
H3 H 0.765(2) 0.2147(14) 0.274(2)
#END
