
#######################################################################
#
#                 Cambridge Crystallographic Data Centre
#                                CCDC
#
#######################################################################
#
# If this CIF has been generated from an entry in the Cambridge
# Structural Database, then it will include bibliographic, chemical,
# crystal, experimental, refinement or atomic coordinate data resulting
# from the CCDC's data processing and validation procedures.
#
#######################################################################

data_CSD_CIF_KAHJEI
_audit_creation_date 1989-09-22
_audit_creation_method CSD-ConQuest-V1
_database_code_CSD KAHJEI
_database_code_depnum_ccdc_archive 'CCDC 1192351'
_chemical_formula_sum 'C5 H12 N4 O4'
_chemical_formula_moiety
;
C5 H12 N4 O4
;
_journal_coden_Cambridge 95
_journal_year 1987
_journal_page_first 1309
_journal_name_full 'Izv.Akad.Nauk SSSR,Ser.Khim.(Russ.)(Russ.Chem.Bull.) '
loop_
_publ_author_name
"L.O.Atovmyan"
"N.I.Golovina"
"I.N.Zyuzin"
_chemical_name_systematic
;
5,5-Dimethyl-2,8-dioxa-3,4,6,7-tetra-aza-3,6-nonadiene-4,6-dioxide
;
_chemical_melting_point 399.15
_cell_volume    934.116
_exptl_crystal_density_diffrn 1.365
_exptl_special_details
;
Melting point range 399.15-401.15K

;
_diffrn_ambient_temperature ?
_diffrn_special_details
;
The study was carried out at room temperature,in the range 283-303K

;
#These two values have been output from a single CSD field.
_refine_ls_R_factor_gt 0.037
_refine_ls_wR_factor_gt 0.037
_symmetry_cell_setting orthorhombic
_symmetry_space_group_name_H-M 'P 21 21 21'
_symmetry_Int_Tables_number 19
loop_
_symmetry_equiv_pos_site_id
_symmetry_equiv_pos_as_xyz
1 x,y,z
2 1/2+x,1/2-y,-z
3 -x,1/2+y,1/2-z
4 1/2-x,-y,1/2+z
_cell_length_a 8.964(2)
_cell_length_b 11.144(2)
_cell_length_c 9.351(2)
_cell_angle_alpha 90
_cell_angle_beta 90
_cell_angle_gamma 90
_cell_formula_units_Z 4
loop_
_atom_type_symbol
_atom_type_radius_bond
C 0.68
H 0.23
N 0.68
O 0.68
loop_
_atom_site_label
_atom_site_type_symbol
_atom_site_fract_x
_atom_site_fract_y
_atom_site_fract_z
O1 O 0.5028(2) -0.1082(1) 0.9042(2)
O2 O 0.1755(2) 0.3663(1) 0.7640(2)
O3 O 0.4843(2) 0.1120(1) 0.8811(2)
O4 O 0.1478(2) 0.1459(1) 0.7654(2)
N1 N 0.3726(2) -0.0600(2) 0.9548(2)
N2 N 0.2261(2) 0.3108(1) 0.8852(2)
N3 N 0.3786(2) 0.0532(1) 0.9366(2)
N4 N 0.2040(2) 0.1994(1) 0.8714(2)
C1 C 0.5052(3) -0.2344(2) 0.9414(3)
C2 C 0.2497(2) 0.1231(2) 0.9973(2)
C3 C 0.2002(3) 0.4942(2) 0.7792(4)
C4 C 0.1191(2) 0.0448(2) 1.0399(3)
C5 C 0.3075(3) 0.1972(2) 1.1217(2)
H1 H 0.5063(30) -0.2470(21) 1.0442(30)
H2 H 0.5828(39) -0.2711(30) 0.8975(38)
H3 H 0.4151(38) -0.2583(27) 0.8784(34)
H4 H 0.0798(34) 0.0030(26) 0.9533(38)
H5 H 0.1472(23) -0.0029(18) 1.1164(26)
H6 H 0.0300(33) 0.0963(27) 1.0675(36)
H7 H 0.1506(37) 0.5208(30) 0.8826(41)
H8 H 0.2958(38) 0.5161(25) 0.7783(21)
H9 H 0.1561(39) 0.527(3) 0.6856(44)
H10 H 0.3990(31) 0.2445(23) 1.0911(30)
H11 H 0.2257(31) 0.2470(22) 1.1550(29)
H12 H 0.3342(32) 0.1551(27) 1.1980(35)
#END
