
#######################################################################
#
#                 Cambridge Crystallographic Data Centre
#                                CCDC
#
#######################################################################
#
# If this CIF has been generated from an entry in the Cambridge
# Structural Database, then it will include bibliographic, chemical,
# crystal, experimental, refinement or atomic coordinate data resulting
# from the CCDC's data processing and validation procedures.
#
#######################################################################

data_CSD_CIF_KAHMUC
_audit_creation_date 2005-07-14
_audit_creation_method CSD-ConQuest-V1
_database_code_CSD KAHMUC
_database_code_depnum_ccdc_archive 'CCDC 256292'
_chemical_formula_sum 'C20 H23 N1 O12'
_chemical_formula_moiety
;
C20 H23 N1 O12
;
_journal_coden_Cambridge 156
_journal_volume 340
_journal_year 2005
_journal_page_first 1175
_journal_name_full 'Carbohydr.Res. '
loop_
_publ_author_name
"A.Temeriusz"
"T.Gubica"
"P.Rogowska"
"K.Paradowska"
"M.K.Cyranski"
_chemical_name_systematic
;
p-Nitrophenyl 2,3,4,6-tetra-O-acetyl-\b-D-galactopyranoside
;
_chemical_melting_point 413.15
_cell_volume   1099.808
_exptl_crystal_colour 'white'
_exptl_crystal_density_diffrn 1.417
_exptl_special_details
;
Melting point range 413.15-415.15K

;
_exptl_crystal_preparation 'ethanol'
_diffrn_ambient_temperature 130
#These two values have been output from a single CSD field.
_refine_ls_R_factor_gt 0.0307
_refine_ls_wR_factor_gt 0.0307
_symmetry_cell_setting monoclinic
_symmetry_space_group_name_H-M 'P 21'
_symmetry_Int_Tables_number 4
loop_
_symmetry_equiv_pos_site_id
_symmetry_equiv_pos_as_xyz
1 x,y,z
2 -x,1/2+y,-z
_cell_length_a 11.758(2)
_cell_length_b 5.7150(11)
_cell_length_c 17.379(4)
_cell_angle_alpha 90
_cell_angle_beta 109.65(3)
_cell_angle_gamma 90
_cell_formula_units_Z 2
loop_
_atom_type_symbol
_atom_type_radius_bond
C 0.68
H 0.23
N 0.68
O 0.68
loop_
_atom_site_label
_atom_site_type_symbol
_atom_site_fract_x
_atom_site_fract_y
_atom_site_fract_z
C1 C 0.49026(17) 0.2016(4) 0.28973(12)
H1 H 0.50010 0.06020 0.32320
C2 C 0.37900(17) 0.3356(4) 0.28857(11)
H2 H 0.37700 0.48790 0.26220
O1 O 0.38146(12) 0.3682(3) 0.37143(8)
C3 C 0.38142(17) 0.5873(4) 0.39934(12)
O2 O 0.38812(15) 0.7581(3) 0.36044(10)
C4 C 0.3732(2) 0.5883(5) 0.48331(12)
H3 H 0.44780 0.53290 0.52170
H4 H 0.30840 0.48790 0.48460
H5 H 0.35810 0.74470 0.49750
C5 C 0.26443(16) 0.2006(4) 0.24502(12)
H6 H 0.25580 0.07400 0.28070
O3 O 0.16756(12) 0.3650(3) 0.23358(8)
C6 C 0.05780(18) 0.2752(4) 0.22517(12)
O4 O 0.03951(13) 0.0698(3) 0.22711(9)
C7 C -0.03364(19) 0.4632(5) 0.21129(14)
H7 H -0.06260 0.50460 0.15440
H8 H 0.00220 0.59790 0.24330
H9 H -0.09980 0.40900 0.22710
C8 C 0.26149(17) 0.0957(4) 0.16306(12)
H10 H 0.19620 -0.01960 0.14460
O5 O 0.24056(12) 0.2826(3) 0.10425(8)
C9 C 0.16821(18) 0.2343(4) 0.02642(12)
O6 O 0.13059(14) 0.0405(3) 0.00534(9)
C10 C 0.14587(19) 0.4442(4) -0.02641(13)
H11 H 0.21930 0.48930 -0.03510
H12 H 0.11860 0.57010 -0.00040
H13 H 0.08530 0.40960 -0.07800
C11 C 0.38197(16) -0.0229(4) 0.17635(12)
H14 H 0.39200 -0.14600 0.21730
C12 C 0.39724(18) -0.1318(4) 0.10185(13)
H15 H 0.33000 -0.23480 0.07510
H16 H 0.40160 -0.01210 0.06340
O7 O 0.50839(12) -0.2621(3) 0.13054(9)
C13 C 0.51900(18) -0.4438(4) 0.08431(12)
O8 O 0.44048(12) -0.5041(3) 0.02304(9)
C14 C 0.64103(18) -0.5535(5) 0.11904(13)
H17 H 0.63680 -0.71410 0.10210
H18 H 0.66750 -0.54570 0.17760
H19 H 0.69730 -0.47110 0.09970
O9 O 0.47819(11) 0.1437(3) 0.20815(8)
O10 O 0.59048(11) 0.3495(3) 0.32054(8)
C15 C 0.70372(17) 0.2517(4) 0.33952(12)
C16 C 0.79739(18) 0.3914(4) 0.38723(12)
H20 H 0.78060 0.53610 0.40540
C17 C 0.91544(19) 0.3162(5) 0.40773(13)
H21 H 0.97890 0.41020 0.43870
C18 C 0.93715(18) 0.0990(4) 0.38129(13)
N1 N 1.06214(16) 0.0145(4) 0.40379(11)
O11 O 1.07853(14) -0.1933(4) 0.39407(11)
O12 O 1.14407(14) 0.1552(4) 0.43225(11)
C19 C 0.84511(18) -0.0413(4) 0.33431(13)
H22 H 0.86210 -0.18750 0.31730
C20 C 0.72660(18) 0.0364(4) 0.31232(13)
H23 H 0.66360 -0.05570 0.27970
#END
