
#######################################################################
#
#                 Cambridge Crystallographic Data Centre
#                                CCDC
#
#######################################################################
#
# If this CIF has been generated from an entry in the Cambridge
# Structural Database, then it will include bibliographic, chemical,
# crystal, experimental, refinement or atomic coordinate data resulting
# from the CCDC's data processing and validation procedures.
#
#######################################################################

data_CSD_CIF_KAHNAJ
_audit_creation_date 2005-07-14
_audit_creation_method CSD-ConQuest-V1
_database_code_CSD KAHNAJ
_database_code_depnum_ccdc_archive 'CCDC 256293'
_chemical_formula_sum 'C20 H23 N1 O12'
_chemical_formula_moiety
;
C20 H23 N1 O12
;
_journal_coden_Cambridge 156
_journal_volume 340
_journal_year 2005
_journal_page_first 1175
_journal_name_full 'Carbohydr.Res. '
loop_
_publ_author_name
"A.Temeriusz"
"T.Gubica"
"P.Rogowska"
"K.Paradowska"
"M.K.Cyranski"
_chemical_name_systematic
;
o-Nitrophenyl 2,3,4,6-tetra-O-acetyl-\b-D-glucopyranoside
;
_chemical_melting_point 434.15
_cell_volume   1105.758
_exptl_crystal_colour 'white'
_exptl_crystal_density_diffrn 1.41
_exptl_special_details
;
Melting point range 434.15-435.15K

;
_exptl_crystal_preparation 'ethanol'
_diffrn_ambient_temperature 293
#These two values have been output from a single CSD field.
_refine_ls_R_factor_gt 0.0635
_refine_ls_wR_factor_gt 0.0635
_symmetry_cell_setting monoclinic
_symmetry_space_group_name_H-M 'P 21'
_symmetry_Int_Tables_number 4
loop_
_symmetry_equiv_pos_site_id
_symmetry_equiv_pos_as_xyz
1 x,y,z
2 -x,1/2+y,-z
_cell_length_a 10.711(2)
_cell_length_b 8.2760(17)
_cell_length_c 12.792(3)
_cell_angle_alpha 90
_cell_angle_beta 102.80(3)
_cell_angle_gamma 90
_cell_formula_units_Z 2
loop_
_atom_type_symbol
_atom_type_radius_bond
C 0.68
H 0.23
N 0.68
O 0.68
loop_
_atom_site_label
_atom_site_type_symbol
_atom_site_fract_x
_atom_site_fract_y
_atom_site_fract_z
C1 C 0.0197(6) 0.0539(8) 0.2158(5)
H1 H -0.03840 0.11690 0.24940
O1 O -0.0416(4) 0.0016(5) 0.1148(3)
C2 C 0.0660(6) -0.0999(8) 0.2813(5)
H2 H 0.12090 -0.16280 0.24450
O2 O -0.0443(4) -0.1935(6) 0.2881(3)
C3 C 0.1417(6) -0.0527(8) 0.3925(5)
H3 H 0.08470 -0.00460 0.43430
O3 O 0.1993(4) -0.1970(5) 0.4437(3)
C4 C 0.2484(6) 0.0645(8) 0.3842(4)
H4 H 0.31600 0.00790 0.35820
O4 O 0.2994(4) 0.1310(6) 0.4888(3)
C5 C 0.1963(5) 0.2080(9) 0.3083(5)
H5 H 0.13860 0.27380 0.34050
O5 O 0.1275(4) 0.1450(5) 0.2077(3)
C6 C 0.3027(6) 0.3119(9) 0.2871(5)
H6 H 0.26810 0.40150 0.24090
H7 H 0.35260 0.35510 0.35390
O6 O 0.3824(4) 0.2122(7) 0.2359(4)
C7 C -0.1298(6) 0.0999(9) 0.0529(5)
C8 C -0.2459(7) 0.0317(9) -0.0008(5)
N1 N -0.2696(7) -0.1377(9) 0.0147(5)
O7 O -0.1869(6) -0.2354(7) 0.0115(5)
O8 O -0.3736(6) -0.1750(9) 0.0275(6)
C9 C -0.3385(8) 0.1222(11) -0.0641(6)
H8 H -0.41520 0.07420 -0.09830
C10 C -0.3198(8) 0.2821(12) -0.0775(6)
H9 H -0.38260 0.34350 -0.12200
C11 C -0.2066(8) 0.3532(10) -0.0246(6)
H10 H -0.19390 0.46300 -0.03410
C12 C -0.1124(7) 0.2653(9) 0.0417(5)
H11 H -0.03800 0.31560 0.07870
C13 C -0.0461(8) -0.3524(9) 0.2579(6)
O9 O 0.0421(6) -0.4164(7) 0.2343(5)
C14 C -0.1704(7) -0.4268(11) 0.2622(7)
H12 H -0.18810 -0.40880 0.33160
H13 H -0.16700 -0.54080 0.24930
H14 H -0.23700 -0.37890 0.20830
C15 C 0.1422(6) -0.2741(9) 0.5157(5)
O10 O 0.0557(5) -0.2164(7) 0.5465(4)
C16 C 0.2039(7) -0.4337(10) 0.5458(6)
H15 H 0.19360 -0.46340 0.61590
H16 H 0.29340 -0.42680 0.54600
H17 H 0.16430 -0.51380 0.49480
C17 C 0.4287(7) 0.1242(9) 0.5274(5)
O11 O 0.4962(5) 0.0581(9) 0.4822(5)
C18 C 0.4668(7) 0.2118(11) 0.6282(5)
H18 H 0.55560 0.19170 0.65890
H19 H 0.41600 0.17610 0.67690
H20 H 0.45380 0.32550 0.61520
C19 C 0.5034(7) 0.2566(11) 0.2443(6)
O12 O 0.5470(6) 0.3718(10) 0.2917(8)
C20 C 0.5736(7) 0.1433(11) 0.1902(6)
H21 H 0.59860 0.05050 0.23500
H22 H 0.64860 0.19550 0.17680
H23 H 0.51970 0.10980 0.12340
#END
