
#######################################################################
#
#                 Cambridge Crystallographic Data Centre
#                                CCDC
#
#######################################################################
#
# If this CIF has been generated from an entry in the Cambridge
# Structural Database, then it will include bibliographic, chemical,
# crystal, experimental, refinement or atomic coordinate data resulting
# from the CCDC's data processing and validation procedures.
#
#######################################################################

data_CSD_CIF_KAHRUJ
_audit_creation_date 2016-01-21
_audit_creation_method CSD-ConQuest-V1
_database_code_CSD KAHRUJ
_database_code_depnum_ccdc_archive 'CCDC 1431476'
_chemical_formula_sum 'C22 H18 N2 O3'
_chemical_formula_moiety
;
C22 H18 N2 O3
;
_journal_coden_Cambridge 1475
_journal_volume 7
_journal_year 2016
_journal_page_first 2706
_journal_name_full 'Chemical Science '
loop_
_publ_author_name
"J.C.Fox"
"R.E.Gilligan"
"A.K.Pitts"
"H.R.Bennett"
"M.J.Gaunt"
_chemical_name_systematic
;
1-(3-methyl-1-nitro-2-phenyl-9H-carbazol-9-yl)propan-1-one
;
_cell_volume   3532.431
_exptl_crystal_colour 'colorless'
_exptl_crystal_density_diffrn 1.348
_exptl_crystal_description 'block'
_exptl_crystal_preparation 'ethyl acetate/petroleum ether'
_diffrn_ambient_temperature 180
#These two values have been output from a single CSD field.
_refine_ls_R_factor_gt 0.043
_refine_ls_wR_factor_gt 0.043
_symmetry_cell_setting monoclinic
_symmetry_space_group_name_H-M 'C 2/c'
_symmetry_Int_Tables_number 15
loop_
_symmetry_equiv_pos_site_id
_symmetry_equiv_pos_as_xyz
1 x,y,z
2 -x,y,1/2-z
3 1/2+x,1/2+y,z
4 1/2-x,1/2+y,1/2-z
5 -x,-y,-z
6 x,-y,-1/2+z
7 -1/2-x,-1/2-y,-z
8 -1/2+x,-1/2-y,-1/2+z
_cell_length_a 23.4378(4)
_cell_length_b 11.3628(2)
_cell_length_c 14.9029(4)
_cell_angle_alpha 90
_cell_angle_beta 117.124(1)
_cell_angle_gamma 90
_cell_formula_units_Z 8
loop_
_atom_type_symbol
_atom_type_radius_bond
C 0.68
H 0.23
N 0.68
O 0.68
loop_
_atom_site_label
_atom_site_type_symbol
_atom_site_fract_x
_atom_site_fract_y
_atom_site_fract_z
C1 C 0.37823(7) 0.41462(13) 0.20293(13)
C2 C 0.37851(7) 0.29882(11) 0.17181(13)
C3 C 0.41229(7) 0.26630(12) 0.11913(13)
C4 C 0.44707(7) 0.35313(13) 0.09614(13)
C5 C 0.44449(7) 0.46859(13) 0.12373(14)
H1 H 0.46630 0.52790 0.10640
C6 C 0.41071(7) 0.49945(12) 0.17604(13)
C7 C 0.48347(8) 0.32381(14) 0.03775(16)
H2 H 0.49490 0.39670 0.01460
H3 H 0.45660 0.27510 -0.02060
H4 H 0.52260 0.28060 0.08130
N1 N 0.34771(6) 0.47016(10) 0.25547(11)
C8 C 0.33396(7) 0.40927(14) 0.32580(14)
C9 C 0.30067(8) 0.47259(15) 0.37667(15)
H5 H 0.26070 0.50840 0.32480
H6 H 0.32860 0.53690 0.41870
C10 C 0.2845(1) 0.39158(17) 0.44240(16)
H7 H 0.26400 0.43690 0.47570
H8 H 0.32390 0.35530 0.49350
H9 H 0.25520 0.33000 0.40060
O1 O 0.34984(6) 0.30753(10) 0.34342(11)
C11 C 0.39879(7) 0.61299(12) 0.20890(13)
C12 C 0.35898(7) 0.59472(13) 0.25436(13)
C13 C 0.41670(8) 0.72589(13) 0.19634(15)
H10 H 0.44340 0.73800 0.16470
C14 C 0.33627(9) 0.68931(14) 0.28715(15)
H11 H 0.30840 0.67830 0.31690
C15 C 0.39507(9) 0.81983(14) 0.23044(15)
H12 H 0.40730 0.89760 0.22330
C16 C 0.35577(9) 0.80092(14) 0.27488(15)
H13 H 0.34140 0.86690 0.29810
C17 C 0.40775(7) 0.14443(12) 0.07826(13)
C18 C 0.34951(8) 0.10203(14) 0.00590(14)
H14 H 0.31200 0.14890 -0.01560
C19 C 0.46184(8) 0.07383(13) 0.10920(14)
H15 H 0.50200 0.10120 0.15970
C20 C 0.34591(9) -0.00967(16) -0.03544(15)
H16 H 0.30580 -0.03880 -0.08470
C21 C 0.45737(10) -0.03617(14) 0.06668(16)
H17 H 0.49470 -0.08360 0.08770
C22 C 0.39971(10) -0.07743(16) -0.00549(16)
H18 H 0.39710 -0.15290 -0.03460
N2 N 0.33811(7) 0.20787(11) 0.18436(12)
O2 O 0.36285(6) 0.11729(9) 0.22888(10)
O3 O 0.28031(6) 0.2281(1) 0.14427(11)
#END
