
#######################################################################
#
#                 Cambridge Crystallographic Data Centre
#                                CCDC
#
#######################################################################
#
# If this CIF has been generated from an entry in the Cambridge
# Structural Database, then it will include bibliographic, chemical,
# crystal, experimental, refinement or atomic coordinate data resulting
# from the CCDC's data processing and validation procedures.
#
#######################################################################

data_CSD_CIF_KAHSAP
_audit_creation_date 2010-11-12
_audit_creation_method CSD-ConQuest-V1
_database_code_CSD KAHSAP
_database_code_depnum_ccdc_archive 'CCDC 798603'
_chemical_formula_sum 'C12 H9 N3 O3'
_chemical_formula_moiety
;
C12 H9 N3 O3
;
_journal_coeditor_code "IUCr LN3145"
_journal_coden_Cambridge 591
_journal_volume 66
_journal_year 2010
_journal_page_first o513
_journal_name_full 'Acta Crystallogr.,Sect.C:Cryst.Struct.Commun. '
loop_
_publ_author_name
"C.R.Wilson"
"O.Q.Munro"
_chemical_name_systematic
;
N-(4-Nitrophenyl)pyridine-2-carboxamide
;
_cell_volume    544.329
_exptl_crystal_colour 'colorless'
_exptl_crystal_density_diffrn 1.484
_exptl_crystal_description 'plate'
_diffrn_ambient_temperature 295
#These two values have been output from a single CSD field.
_refine_ls_R_factor_gt 0.0413
_refine_ls_wR_factor_gt 0.0413
_symmetry_cell_setting triclinic
_symmetry_space_group_name_H-M 'P -1'
_symmetry_Int_Tables_number 2
loop_
_symmetry_equiv_pos_site_id
_symmetry_equiv_pos_as_xyz
1 x,y,z
2 -x,-y,-z
_cell_length_a 6.1490(3)
_cell_length_b 7.3055(3)
_cell_length_c 13.6613(5)
_cell_angle_alpha 100.162(4)
_cell_angle_beta 97.147(3)
_cell_angle_gamma 112.760(4)
_cell_formula_units_Z 2
loop_
_atom_type_symbol
_atom_type_radius_bond
C 0.68
H 0.23
N 0.68
O 0.68
loop_
_atom_site_label
_atom_site_type_symbol
_atom_site_fract_x
_atom_site_fract_y
_atom_site_fract_z
H1 H 1.536(3) 0.836(2) 0.7069(13)
H2 H 1.410(3) 0.834(2) 0.5340(13)
H3 H 1.117(3) 0.776(3) 0.4007(14)
H4 H 1.171(4) 0.826(3) 0.1283(15)
H5 H 0.824(4) 0.778(3) 0.0123(15)
H6 H 0.454(3) 0.710(2) 0.0617(14)
H7 H 0.444(3) 0.685(2) 0.2331(14)
H8 H 0.722(3) 0.669(2) 0.5757(13)
H9 H 0.839(3) 0.670(2) 0.7400(15)
C1 C 1.0120(3) 0.7958(3) 0.14864(11)
C2 C 0.8126(3) 0.7685(3) 0.07881(11)
C3 C 0.5975(3) 0.7261(2) 0.10858(11)
C4 C 0.5881(3) 0.7146(2) 0.20833(10)
C5 C 0.7969(2) 0.74383(18) 0.27309(10)
C6 C 0.7905(2) 0.73211(19) 0.38174(10)
C7 C 1.0598(2) 0.75289(18) 0.53927(9)
C8 C 0.8889(3) 0.7021(2) 0.59932(11)
C9 C 0.9591(3) 0.7020(2) 0.69959(11)
C10 C 1.1976(3) 0.75244(19) 0.73875(9)
C11 C 1.3697(3) 0.8015(2) 0.68047(11)
C12 C 1.3002(3) 0.8010(2) 0.58027(10)
N1 N 1.0070(2) 0.78351(19) 0.24510(9)
N2 N 1.0038(2) 0.75641(17) 0.43700(8)
N3 N 1.2710(3) 0.75427(19) 0.84535(9)
O1 O 0.60751(18) 0.70404(17) 0.41444(8)
O2 O 1.1194(3) 0.7113(2) 0.89690(9)
O3 O 1.4842(3) 0.7998(2) 0.87807(9)
#END
