
#######################################################################
#
#                 Cambridge Crystallographic Data Centre
#                                CCDC
#
#######################################################################
#
# If this CIF has been generated from an entry in the Cambridge
# Structural Database, then it will include bibliographic, chemical,
# crystal, experimental, refinement or atomic coordinate data resulting
# from the CCDC's data processing and validation procedures.
#
#######################################################################

data_CSD_CIF_KAJGAG
_audit_creation_date 2016-01-21
_audit_creation_method CSD-ConQuest-V1
_database_code_CSD KAJGAG
_database_code_depnum_ccdc_archive 'CCDC 1448947'
_chemical_formula_sum 'C27 H25 N1 O4'
_chemical_formula_moiety
;
C27 H25 N1 O4
;
_journal_coden_Cambridge 4
_journal_volume 138
_journal_year 2016
_journal_page_first 112
_journal_name_full 'J.Am.Chem.Soc. '
loop_
_publ_author_name
"Yuesheng Liu"
"Lijun Wang"
"Liang Deng"
_chemical_name_systematic
;
3,5-dimethyl-2,4-diphenylhexa-2,4-dien-1-yl 4-nitrobenzoate
;
_cell_volume   2205.522
_exptl_crystal_colour 'colorless'
_exptl_crystal_density_diffrn 1.287
_exptl_crystal_description 'plate'
_diffrn_ambient_temperature 130
#These two values have been output from a single CSD field.
_refine_ls_R_factor_gt 0.0557
_refine_ls_wR_factor_gt 0.0557
_symmetry_cell_setting orthorhombic
_symmetry_space_group_name_H-M 'P n a 21'
_symmetry_Int_Tables_number 33
loop_
_symmetry_equiv_pos_site_id
_symmetry_equiv_pos_as_xyz
1 x,y,z
2 -x,-y,1/2+z
3 1/2-x,1/2+y,1/2+z
4 1/2+x,1/2-y,z
_cell_length_a 25.893(5)
_cell_length_b 12.995(3)
_cell_length_c 6.5547(14)
_cell_angle_alpha 90
_cell_angle_beta 90
_cell_angle_gamma 90
_cell_formula_units_Z 4
loop_
_atom_type_symbol
_atom_type_radius_bond
C 0.68
H 0.23
N 0.68
O 0.68
loop_
_atom_site_label
_atom_site_type_symbol
_atom_site_fract_x
_atom_site_fract_y
_atom_site_fract_z
O1 O 0.07132(8) 0.74905(18) 0.4429(4)
O2 O 0.04045(9) 0.6781(2) 0.1552(4)
O3 O -0.10947(11) 0.4880(2) 0.9982(5)
O4 O -0.16062(10) 0.4871(2) 0.7384(5)
N1 N -0.11950(11) 0.5081(2) 0.8200(5)
C1 C 0.11650(13) 0.7870(3) 0.3323(6)
H1 H 0.10640 0.81020 0.19410
H2 H 0.14250 0.73160 0.31820
C2 C 0.13843(13) 0.8749(3) 0.4516(6)
C3 C 0.18367(13) 0.8685(3) 0.5473(6)
C4 C 0.20723(14) 0.9567(3) 0.6621(7)
H3 H 0.18820 1.02000 0.63120
H4 H 0.24340 0.96480 0.62100
H5 H 0.20550 0.94290 0.80890
C5 C 0.21500(13) 0.7709(3) 0.5490(5)
C6 C 0.20326(14) 0.6932(3) 0.6766(6)
C7 C 0.23024(15) 0.5902(3) 0.6806(7)
H6 H 0.25610 0.58980 0.78970
H7 H 0.24730 0.57830 0.54910
H8 H 0.20490 0.53570 0.70540
C8 C 0.16049(15) 0.6997(3) 0.8296(6)
H9 H 0.13220 0.65430 0.78800
H10 H 0.14790 0.77070 0.83740
H11 H 0.17340 0.67830 0.96370
C9 C 0.25883(13) 0.7676(3) 0.4001(6)
C10 C 0.25289(13) 0.8066(3) 0.2038(6)
H12 H 0.22110 0.83820 0.16700
C11 C 0.29216(15) 0.8005(3) 0.0611(6)
H13 H 0.28700 0.82710 -0.07250
C12 C 0.33877(15) 0.7558(3) 0.1125(7)
H14 H 0.36560 0.75020 0.01440
C13 C 0.34583(15) 0.7195(3) 0.3087(7)
H15 H 0.37800 0.68960 0.34550
C14 C 0.30686(14) 0.7259(3) 0.4523(7)
H16 H 0.31270 0.70180 0.58720
C15 C 0.10384(12) 0.9676(3) 0.4542(6)
C16 C 0.07253(14) 0.9865(3) 0.6213(6)
H17 H 0.07480 0.94340 0.73790
C17 C 0.03751(15) 1.0686(3) 0.6197(7)
H18 H 0.01600 1.08040 0.73470
C18 C 0.03420(14) 1.1319(3) 0.4528(7)
H19 H 0.01070 1.18810 0.45250
C19 C 0.06521(15) 1.1135(3) 0.2851(7)
H20 H 0.06290 1.15690 0.16890
C20 C 0.09974(15) 1.0317(3) 0.2856(6)
H21 H 0.12080 1.01950 0.16940
C21 C 0.03743(13) 0.6939(3) 0.3359(6)
C22 C -0.00416(13) 0.6516(3) 0.4684(6)
C23 C 0.00400(13) 0.6342(3) 0.6758(6)
H22 H 0.03550 0.65460 0.73780
C24 C -0.03396(13) 0.5874(3) 0.7906(6)
H23 H -0.02850 0.57400 0.93140
C25 C -0.07990(13) 0.5601(3) 0.6988(6)
C26 C -0.08948(14) 0.5780(3) 0.4939(6)
H24 H -0.12150 0.55940 0.43370
C27 C -0.05080(13) 0.6237(3) 0.3798(6)
H25 H -0.05630 0.63620 0.23870
#END
