
#######################################################################
#
#                 Cambridge Crystallographic Data Centre
#                                CCDC
#
#######################################################################
#
# If this CIF has been generated from an entry in the Cambridge
# Structural Database, then it will include bibliographic, chemical,
# crystal, experimental, refinement or atomic coordinate data resulting
# from the CCDC's data processing and validation procedures.
#
#######################################################################

data_CSD_CIF_KAJRIY
_audit_creation_date 2011-02-21
_audit_creation_method CSD-ConQuest-V1
_database_code_CSD KAJRIY
_database_code_depnum_ccdc_archive 'CCDC 756152'
_chemical_formula_sum 'C6 H10 N4 O1'
_chemical_formula_moiety
;
C6 H10 N4 O1
;
_journal_coden_Cambridge 35
_journal_volume 75
_journal_year 2010
_journal_page_first 3141
_journal_name_full 'J.Org.Chem. '
loop_
_publ_author_name
"T.Harel"
"S.Rozen"
_chemical_name_systematic
;
6,7,8,9-Tetrahydro-5H-tetrazolo(1,5-a)azepine 2-oxide
;
_cell_volume    742.151
_exptl_crystal_colour 'colorless'
_exptl_crystal_density_diffrn 1.38
_exptl_crystal_description 'rod'
_diffrn_ambient_temperature 173
#These two values have been output from a single CSD field.
_refine_ls_R_factor_gt 0.0443
_refine_ls_wR_factor_gt 0.0443
_symmetry_cell_setting orthorhombic
_symmetry_space_group_name_H-M 'P 21 21 21'
_symmetry_Int_Tables_number 19
loop_
_symmetry_equiv_pos_site_id
_symmetry_equiv_pos_as_xyz
1 x,y,z
2 1/2-x,-y,1/2+z
3 -x,1/2+y,1/2-z
4 1/2+x,1/2-y,-z
_cell_length_a 7.2868(14)
_cell_length_b 9.2430(17)
_cell_length_c 11.019(2)
_cell_angle_alpha 90
_cell_angle_beta 90
_cell_angle_gamma 90
_cell_formula_units_Z 4
loop_
_atom_type_symbol
_atom_type_radius_bond
C 0.68
H 0.23
N 0.68
O 0.68
loop_
_atom_site_label
_atom_site_type_symbol
_atom_site_fract_x
_atom_site_fract_y
_atom_site_fract_z
C1 C 0.4732(2) 0.67554(16) 0.43927(14)
C2 C 0.4884(3) 0.57395(19) 0.33506(15)
H1 H 0.61620 0.53840 0.32970
H2 H 0.46070 0.62690 0.25910
C3 C 0.3595(2) 0.44511(19) 0.34563(16)
H3 H 0.35410 0.39550 0.26610
H4 H 0.23470 0.48120 0.36410
C4 C 0.4139(3) 0.33498(19) 0.44233(17)
H5 H 0.33910 0.24670 0.43060
H6 H 0.54390 0.30800 0.42940
C5 C 0.3913(3) 0.3854(2) 0.57321(17)
H7 H 0.40570 0.30080 0.62740
H8 H 0.26480 0.42250 0.58380
C6 C 0.5259(3) 0.50270(18) 0.61333(15)
H9 H 0.51990 0.51280 0.70270
H10 H 0.65210 0.47240 0.59180
N1 N 0.4873(2) 0.64413(16) 0.55697(13)
N2 N 0.4650(2) 0.76521(16) 0.62326(14)
N3 N 0.43823(19) 0.86594(16) 0.53951(14)
N4 N 0.4414(2) 0.81711(16) 0.42471(13)
O1 O 0.40967(19) 0.99783(13) 0.56538(15)
#END
