
#######################################################################
#
#                 Cambridge Crystallographic Data Centre
#                                CCDC
#
#######################################################################
#
# If this CIF has been generated from an entry in the Cambridge
# Structural Database, then it will include bibliographic, chemical,
# crystal, experimental, refinement or atomic coordinate data resulting
# from the CCDC's data processing and validation procedures.
#
#######################################################################

data_CSD_CIF_KAKYIG
_audit_creation_date 2012-03-13
_audit_creation_method CSD-ConQuest-V1
_database_code_CSD KAKYIG
_database_code_depnum_ccdc_archive 'CCDC 796968'
_chemical_formula_sum 'C9 H16 N2 O3'
_chemical_formula_moiety
;
C9 H16 N2 O3
;
_journal_coden_Cambridge 161
_journal_volume 96
_journal_year 2011
_journal_page_first 604
_journal_name_full 'Biopolymers '
loop_
_publ_author_name
"J.A.Crapster"
"J.R.Stringer"
"I.A.Guzei"
"H.E.Blackwell"
_chemical_name_systematic
;
N-Hydroxy-N-(2-oxo-2-(piperidin-1-yl)ethyl)acetamide
;
_cell_volume    499.717
_exptl_crystal_colour 'colorless'
_exptl_crystal_density_diffrn 1.331
_exptl_crystal_description 'needle'
_diffrn_ambient_temperature 100
#These two values have been output from a single CSD field.
_refine_ls_R_factor_gt 0.0308
_refine_ls_wR_factor_gt 0.0308
_symmetry_cell_setting triclinic
_symmetry_space_group_name_H-M 'P -1'
_symmetry_Int_Tables_number 2
loop_
_symmetry_equiv_pos_site_id
_symmetry_equiv_pos_as_xyz
1 x,y,z
2 -x,-y,-z
_cell_length_a 7.889(3)
_cell_length_b 8.001(7)
_cell_length_c 9.198(4)
_cell_angle_alpha 100.35(5)
_cell_angle_beta 114.12(3)
_cell_angle_gamma 100.49(4)
_cell_formula_units_Z 2
loop_
_atom_type_symbol
_atom_type_radius_bond
C 0.68
H 0.23
N 0.68
O 0.68
loop_
_atom_site_label
_atom_site_type_symbol
_atom_site_fract_x
_atom_site_fract_y
_atom_site_fract_z
O1 O 0.15352(10) 0.49051(10) 0.17026(9)
O2 O 0.10722(12) 0.81529(10) 0.04949(9)
H1 H 0.030(2) 0.705(2) 0.009(2)
O3 O 0.23796(11) 0.92445(10) 0.47418(9)
N1 N 0.47147(13) 0.49966(11) 0.29111(11)
N2 N 0.21221(14) 0.83817(12) 0.21935(11)
C1 C 0.43062(16) 0.30634(14) 0.26122(14)
H2 H 0.2920(19) 0.2567(17) 0.2070(16)
H3 H 0.4811(17) 0.2815(16) 0.3680(16)
C2 C 0.52933(17) 0.23286(14) 0.16329(14)
H4 H 0.505(2) 0.1049(19) 0.1500(17)
H5 H 0.470(2) 0.2514(18) 0.0542(18)
C3 C 0.74578(18) 0.32648(15) 0.25028(15)
H6 H 0.8088(19) 0.3051(17) 0.3586(17)
H7 H 0.805(2) 0.2839(19) 0.1853(18)
C4 C 0.78033(16) 0.52592(15) 0.27922(14)
H8 H 0.918(2) 0.5851(19) 0.3402(18)
H9 H 0.7298(19) 0.5527(17) 0.1728(17)
C5 C 0.67906(15) 0.59613(14) 0.37643(13)
H10 H 0.7326(18) 0.5755(17) 0.4867(16)
H11 H 0.6949(19) 0.7191(19) 0.3928(16)
C6 C 0.32662(15) 0.57444(13) 0.23954(12)
C7 C 0.38114(16) 0.77565(14) 0.26889(14)
H12 H 0.446(2) 0.8043(18) 0.2042(17)
H13 H 0.464(2) 0.8352(18) 0.3836(18)
C8 C 0.14731(15) 0.90661(12) 0.32446(12)
C9 C -0.03434(17) 0.96152(16) 0.24968(15)
H14 H -0.025(2) 1.043(2) 0.1879(19)
H15 H -0.067(2) 1.0074(19) 0.3356(19)
H16 H -0.137(2) 0.865(2) 0.169(2)
#END
