
#######################################################################
#
#                 Cambridge Crystallographic Data Centre
#                                CCDC
#
#######################################################################
#
# If this CIF has been generated from an entry in the Cambridge
# Structural Database, then it will include bibliographic, chemical,
# crystal, experimental, refinement or atomic coordinate data resulting
# from the CCDC's data processing and validation procedures.
#
#######################################################################

data_CSD_CIF_KALXOL
_audit_creation_date 2005-07-22
_audit_creation_method CSD-ConQuest-V1
_database_code_CSD KALXOL
_database_code_depnum_ccdc_archive 'CCDC 261411'
_chemical_formula_sum 'C23 H23 N3 O5'
_chemical_formula_moiety
;
C23 H23 N3 O5
;
_journal_coden_Cambridge 423
_journal_year 2004
_journal_page_first 843
_journal_name_full 'J.Chem.Res. '
loop_
_publ_author_name
"M.Mahendra"
"B.H.Doreswamy"
"D.Manvar"
"G.Patel"
"Y.Naliapara"
"K.Dholariya"
"A.Shah"
"S.M.Anandalwar"
"J.S.Prasad"
_chemical_name_systematic
;
Methyl 
2,6-dimethyl-5-(2-methylphenylcarbamoyl)-4-(3-nitrophenyl)-1,4-dihydropyridine
-2-carboxylate
;
_chemical_melting_point 509.15
_cell_volume   2163.150
_exptl_crystal_density_diffrn 1.294
_exptl_special_details
;
The unit cell lengths in the supplementary information, which we have used, 
differ slightly from those in the paper
;
_exptl_crystal_description 'rectangular'
_diffrn_ambient_temperature 293
#These two values have been output from a single CSD field.
_refine_ls_R_factor_gt 0.0673
_refine_ls_wR_factor_gt 0.0673
_symmetry_cell_setting monoclinic
_symmetry_space_group_name_H-M 'P 21/c'
_symmetry_Int_Tables_number 14
loop_
_symmetry_equiv_pos_site_id
_symmetry_equiv_pos_as_xyz
1 x,y,z
2 -x,1/2+y,1/2-z
3 -x,-y,-z
4 x,-1/2-y,-1/2+z
_cell_length_a 11.084(2)
_cell_length_b 19.723(3)
_cell_length_c 11.4874(17)
_cell_angle_alpha 90
_cell_angle_beta 120.528(12)
_cell_angle_gamma 90
_cell_formula_units_Z 4
loop_
_atom_type_symbol
_atom_type_radius_bond
C 0.68
H 0.23
N 0.68
O 0.68
loop_
_atom_site_label
_atom_site_type_symbol
_atom_site_fract_x
_atom_site_fract_y
_atom_site_fract_z
O1 O -0.8300(4) -0.02110(18) -1.0471(4)
O2 O -0.7805(3) -0.00168(16) -0.8344(3)
O3 O -0.5473(6) -0.1546(3) -0.2156(5)
O4 O -0.7512(8) -0.1058(4) -0.3163(5)
O5 O -1.1478(4) -0.19593(18) -0.7239(4)
N1 N -1.1536(4) -0.0835(2) -0.7539(4)
H1 H -1.13080 -0.04590 -0.79230
N2 N -1.0211(4) -0.2045(2) -1.0227(4)
H2 H -1.02980 -0.24530 -1.07190
N3 N -0.6556(7) -0.1370(3) -0.3173(5)
C1 C -1.3451(10) -0.0517(3) -0.5246(8)
H3 H -1.38780 -0.04420 -0.47090
C2 C -1.4256(8) -0.0631(3) -0.6604(8)
H4 H -1.52560 -0.06350 -0.70060
C3 C -1.3672(6) -0.0746(3) -0.7427(6)
C4 C -1.2233(5) -0.0727(2) -0.6786(5)
C5 C -1.1431(6) -0.0615(2) -0.5406(6)
H5 H -1.04300 -0.06140 -0.49900
C6 C -1.2045(9) -0.0515(3) -0.4653(7)
H6 H -1.14760 -0.04410 -0.36970
C7 C -1.1203(5) -0.1472(2) -0.7722(5)
C8 C -1.0485(5) -0.1529(2) -0.8509(4)
C9 C -0.9225(5) -0.1082(2) -0.8152(4)
H7 H -0.93860 -0.06440 -0.78920
C10 C -0.9023(5) -0.1006(2) -0.9363(5)
C11 C -0.9435(5) -0.1512(2) -1.0282(5)
C12 C -1.0869(5) -0.2013(2) -0.9464(5)
C13 C -0.7960(5) -0.1376(2) -0.6887(5)
C14 C -0.7005(6) -0.1811(3) -0.6944(6)
H8 H -0.71070 -0.19150 -0.78060
C15 C -0.5902(7) -0.2096(3) -0.5758(7)
H9 H -0.52510 -0.23980 -0.58080
C16 C -0.5754(7) -0.1954(3) -0.4533(7)
H10 H -0.50080 -0.21410 -0.37090
C17 C -0.6712(6) -0.1534(3) -0.4490(5)
C18 C -0.7794(6) -0.1242(3) -0.5628(5)
H11 H -0.84390 -0.09420 -0.55610
C19 C -1.2034(5) -0.2524(3) -0.9889(6)
H12 H -1.24360 -0.24700 -0.93260
H13 H -1.16760 -0.29760 -0.97960
H14 H -1.27380 -0.24440 -1.08150
C20 C -0.9127(7) -0.1576(3) -1.1421(6)
H15 H -0.85950 -0.11880 -1.14060
H16 H -0.99850 -0.15970 -1.22760
H17 H -0.85920 -0.19800 -1.12950
C21 C -0.8363(5) -0.0391(2) -0.9479(5)
C22 C -0.7111(7) 0.0611(3) -0.8344(6)
H18 H -0.67480 0.08330 -0.74860
H19 H -0.77820 0.09010 -0.90460
H20 H -0.63580 0.05160 -0.85030
C23 C -1.4541(8) -0.0907(5) -0.8902(7)
H21 H -1.55140 -0.08970 -0.91690
H22 H -1.43040 -0.13500 -0.90740
H23 H -1.43660 -0.05760 -0.94100
#END
