
#######################################################################
#
#                 Cambridge Crystallographic Data Centre
#                                CCDC
#
#######################################################################
#
# If this CIF has been generated from an entry in the Cambridge
# Structural Database, then it will include bibliographic, chemical,
# crystal, experimental, refinement or atomic coordinate data resulting
# from the CCDC's data processing and validation procedures.
#
#######################################################################

data_CSD_CIF_KAMBAC
_audit_creation_date 2005-07-22
_audit_creation_method CSD-ConQuest-V1
_database_code_CSD KAMBAC
_database_code_depnum_ccdc_archive 'CCDC 269511'
_chemical_formula_sum 'C18 H21 N1 O5'
_chemical_formula_moiety
;
C18 H21 N1 O5
;
_journal_coden_Cambridge 35
_journal_volume 70
_journal_year 2005
_journal_page_first 2622
_journal_name_full 'J.Org.Chem. '
loop_
_publ_author_name
"G.A.Molander"
"E.Pollina Cormier"
_chemical_name_systematic
;
(1R*,3aR*,4R*)-4-Nitrobenzoic acid 6a-hydroxy-1-vinylhexahydropentalen-3a-yl 
methyl ester
;
_cell_volume   1653.610
_exptl_crystal_density_diffrn 1.331
_diffrn_ambient_temperature 143
#These two values have been output from a single CSD field.
_refine_ls_R_factor_gt 0.0796
_refine_ls_wR_factor_gt 0.0796
_symmetry_cell_setting monoclinic
_symmetry_space_group_name_H-M 'P 21/c'
_symmetry_Int_Tables_number 14
loop_
_symmetry_equiv_pos_site_id
_symmetry_equiv_pos_as_xyz
1 x,y,z
2 -x,1/2+y,1/2-z
3 -x,-y,-z
4 x,-1/2-y,-1/2+z
_cell_length_a 6.7547(9)
_cell_length_b 7.2224(9)
_cell_length_c 34.039(4)
_cell_angle_alpha 90
_cell_angle_beta 95.258(6)
_cell_angle_gamma 90
_cell_formula_units_Z 4
loop_
_atom_type_symbol
_atom_type_radius_bond
C 0.68
H 0.23
N 0.68
O 0.68
loop_
_atom_site_label
_atom_site_type_symbol
_atom_site_fract_x
_atom_site_fract_y
_atom_site_fract_z
C1 C 0.5729(6) 0.4816(6) 0.35619(12)
C2 C 0.4337(7) 0.3183(7) 0.36275(15)
H1 H 0.37770 0.32960 0.38790
H2 H 0.32620 0.31200 0.34190
C3 C 0.5657(8) 0.1494(7) 0.36223(16)
H3 H 0.48830 0.03810 0.35620
H4 H 0.64490 0.13340 0.38720
C4 C 0.6962(7) 0.1961(7) 0.32919(14)
H5 H 0.81330 0.11780 0.33050
H6 H 0.62300 0.18150 0.30350
C5 C 0.7526(6) 0.3981(6) 0.33696(13)
C6 C 0.7760(7) 0.5123(7) 0.29993(13)
H7 H 0.84580 0.62620 0.30860
C7 C 0.5591(9) 0.5681(9) 0.28648(16)
H8 H 0.55470 0.67020 0.26790
H9 H 0.48500 0.46440 0.27450
C8 C 0.4794(9) 0.6249(9) 0.32463(14)
H10 H 0.33540 0.61820 0.32240
H11 H 0.51990 0.75030 0.33180
C9 C 0.8907(10) 0.4283(9) 0.26916(17)
H12 H 1.00480 0.36400 0.27850
C10 C 0.8532(11) 0.4325(9) 0.23126(17)
H13 H 0.74140 0.49440 0.22000
H14 H 0.93810 0.37350 0.21520
C11 C 0.6289(6) 0.5919(6) 0.39333(11)
H15 H 0.74310 0.66930 0.38970
H16 H 0.51920 0.67180 0.39880
C12 C 0.7059(5) 0.5494(5) 0.46168(11)
C13 C 0.7438(5) 0.4103(5) 0.49394(11)
C14 C 0.7916(5) 0.4754(5) 0.53222(11)
H17 H 0.79330 0.60220 0.53700
C15 C 0.8358(5) 0.3554(5) 0.56282(11)
H18 H 0.86770 0.39900 0.58830
C16 C 0.8319(6) 0.1678(5) 0.55493(11)
C17 C 0.7812(6) 0.0972(6) 0.51766(11)
H19 H 0.77690 -0.02990 0.51320
C18 C 0.7370(6) 0.2208(5) 0.48720(11)
H20 H 0.70220 0.17650 0.46180
N1 N 0.8888(5) 0.0390(5) 0.5875(1)
O1 O 0.9365(4) 0.4139(4) 0.36139(9)
H21 H 0.95290 0.32140 0.37530
O2 O 0.7029(4) 0.7133(4) 0.46667(8)
O3 O 0.6756(4) 0.4679(4) 0.42623(7)
O4 O 0.9062(6) 0.0986(5) 0.62095(9)
O5 O 0.9194(6) -0.1230(4) 0.57926(9)
#END
