
#######################################################################
#
#                 Cambridge Crystallographic Data Centre
#                                CCDC
#
#######################################################################
#
# If this CIF has been generated from an entry in the Cambridge
# Structural Database, then it will include bibliographic, chemical,
# crystal, experimental, refinement or atomic coordinate data resulting
# from the CCDC's data processing and validation procedures.
#
#######################################################################

data_CSD_CIF_KANMUH
_audit_creation_date 1990-02-14
_audit_creation_method CSD-ConQuest-V1
_database_code_CSD KANMUH
_chemical_formula_sum 'C22 H15 N1 O2'
_chemical_formula_moiety
;
C22 H15 N1 O2
;
_journal_coden_Cambridge 154
_journal_volume 42
_journal_year 1989
_journal_page_first 593
_journal_name_full 'Aust.J.Chem. '
loop_
_publ_author_name
"H.-D.Becker"
"B.W.Skelton"
"H.Sorensen"
"A.H.White"
_chemical_name_systematic
;
(Z)-9-(2-Nitro-2-phenylethenyl)anthracene
;
_cell_volume    835.134
_exptl_crystal_colour 'yellow'
_exptl_crystal_density_diffrn 1.29
_diffrn_ambient_temperature ?
_diffrn_special_details
;
The study was carried out at room temperature,in the range 283-303K

;
#These two values have been output from a single CSD field.
_refine_ls_R_factor_gt 0.044
_refine_ls_wR_factor_gt 0.044
loop_
_citation_database_id_CSD
_citation_special_details
KANMOB "is a stereoisomer of this entry"
_symmetry_cell_setting triclinic
_symmetry_space_group_name_H-M 'P -1'
_symmetry_Int_Tables_number 2
loop_
_symmetry_equiv_pos_site_id
_symmetry_equiv_pos_as_xyz
1 x,y,z
2 -x,-y,-z
_cell_length_a 11.191(6)
_cell_length_b 9.271(4)
_cell_length_c 8.968(3)
_cell_angle_alpha 97.12(3)
_cell_angle_beta 93.53(3)
_cell_angle_gamma 114.27(3)
_cell_formula_units_Z 2
loop_
_atom_type_symbol
_atom_type_radius_bond
C 0.68
H 0.23
N 0.68
O 0.68
loop_
_atom_site_label
_atom_site_type_symbol
_atom_site_fract_x
_atom_site_fract_y
_atom_site_fract_z
C1 C 0.0594(2) 0.1342(3) 0.7264(2)
C2 C 0.0723(2) -0.0115(3) 0.6972(3)
C3 C 0.1677(3) -0.0303(4) 0.6093(3)
C4 C 0.1771(3) -0.1727(4) 0.5827(4)
C5 C 0.0923(4) -0.3051(4) 0.6428(4)
C6 C -0.0009(3) -0.2947(3) 0.7260(3)
C7 C -0.0160(2) -0.1486(3) 0.7548(3)
C8 C -0.1147(3) -0.1366(3) 0.8346(3)
C9 C -0.1304(2) 0.0054(3) 0.8621(2)
C10 C -0.2320(3) 0.0180(4) 0.9427(3)
C11 C -0.2462(3) 0.1564(5) 0.9661(3)
C12 C -0.1583(3) 0.2932(4) 0.9135(3)
C13 C -0.0596(3) 0.2870(4) 0.8380(3)
C14 C -0.0408(2) 0.1436(3) 0.8076(2)
C15 C 0.1439(3) 0.2728(3) 0.6573(3)
C16 C 0.2632(2) 0.3851(3) 0.7085(2)
N1 N 0.3219(2) 0.3799(3) 0.8592(2)
O1 O 0.3916(2) 0.3093(3) 0.8636(2)
O2 O 0.2957(2) 0.4453(3) 0.9696(2)
C17 C 0.3459(2) 0.5183(3) 0.6341(3)
C18 C 0.4365(3) 0.6639(3) 0.7142(3)
C19 C 0.5055(3) 0.7882(4) 0.6373(4)
C20 C 0.4856(3) 0.7681(4) 0.4828(4)
C21 C 0.3982(3) 0.6223(4) 0.4014(4)
C22 C 0.3299(3) 0.4986(3) 0.4765(3)
H1 H 0.222(2) 0.056(3) 0.562(2)
H2 H 0.240(3) -0.178(3) 0.520(3)
H3 H 0.103(3) -0.405(3) 0.625(3)
H4 H -0.060(3) -0.386(3) 0.768(3)
H5 H -0.170(2) -0.226(3) 0.876(2)
H6 H -0.285(2) -0.075(3) 0.981(2)
H7 H -0.316(3) 0.158(3) 1.029(3)
H8 H -0.171(3) 0.390(3) 0.929(3)
H9 H -0.002(2) 0.377(3) 0.803(3)
H10 H 0.110(2) 0.283(3) 0.563(3)
H11 H 0.448(2) 0.676(3) 0.823(3)
H12 H 0.562(3) 0.886(3) 0.696(3)
H13 H 0.531(3) 0.856(3) 0.429(3)
H14 H 0.384(3) 0.601(4) 0.287(4)
H15 H 0.270(2) 0.396(3) 0.420(3)
#END
