
#######################################################################
#
#                 Cambridge Crystallographic Data Centre
#                                CCDC
#
#######################################################################
#
# If this CIF has been generated from an entry in the Cambridge
# Structural Database, then it will include bibliographic, chemical,
# crystal, experimental, refinement or atomic coordinate data resulting
# from the CCDC's data processing and validation procedures.
#
#######################################################################

data_CSD_CIF_KANMOB
_audit_creation_date 1990-02-14
_audit_creation_method CSD-ConQuest-V1
_database_code_CSD KANMOB
_chemical_formula_sum 'C22 H15 N1 O2'
_chemical_formula_moiety
;
C22 H15 N1 O2
;
_journal_coden_Cambridge 154
_journal_volume 42
_journal_year 1989
_journal_page_first 593
_journal_name_full 'Aust.J.Chem. '
loop_
_publ_author_name
"H.-D.Becker"
"B.W.Skelton"
"H.Sorensen"
"A.H.White"
_chemical_name_systematic
;
(E)-9-(2-Nitro-2-phenylethenyl)anthracene
;
_chemical_melting_point 485.15
_cell_volume    825.226
_exptl_crystal_colour 'red'
_exptl_crystal_density_diffrn 1.31
_exptl_special_details
;
Melting point range 485.15-486.15K

;
_diffrn_ambient_temperature ?
_diffrn_special_details
;
The study was carried out at room temperature,in the range 283-303K

;
#These two values have been output from a single CSD field.
_refine_ls_R_factor_gt 0.038
_refine_ls_wR_factor_gt 0.038
loop_
_citation_database_id_CSD
_citation_special_details
KANMUH "is a stereoisomer of this entry"
_symmetry_cell_setting triclinic
_symmetry_space_group_name_H-M 'P -1'
_symmetry_Int_Tables_number 2
loop_
_symmetry_equiv_pos_site_id
_symmetry_equiv_pos_as_xyz
1 x,y,z
2 -x,-y,-z
_cell_length_a 10.679(4)
_cell_length_b 10.035(4)
_cell_length_c 9.237(5)
_cell_angle_alpha 73.45(3)
_cell_angle_beta 67.83(3)
_cell_angle_gamma 65.64(2)
_cell_formula_units_Z 2
loop_
_atom_type_symbol
_atom_type_radius_bond
C 0.68
H 0.23
N 0.68
O 0.68
loop_
_atom_site_label
_atom_site_type_symbol
_atom_site_fract_x
_atom_site_fract_y
_atom_site_fract_z
C1 C 0.3402(2) 0.5869(2) 0.8708(3)
C2 C 0.3963(2) 0.6680(2) 0.7256(3)
C3 C 0.3289(3) 0.8230(3) 0.6812(3)
C4 C 0.3873(3) 0.8965(3) 0.5416(4)
C5 C 0.5166(3) 0.8225(4) 0.4343(4)
C6 C 0.5856(3) 0.6778(4) 0.4717(3)
C7 C 0.5298(2) 0.5950(3) 0.6190(3)
C8 C 0.6024(3) 0.4456(3) 0.6602(3)
C9 C 0.5500(2) 0.3646(3) 0.8033(3)
C10 C 0.6252(3) 0.2113(3) 0.8455(4)
C11 C 0.5732(3) 0.1355(3) 0.9850(5)
C12 C 0.4411(3) 0.2048(3) 1.0916(4)
C13 C 0.3646(3) 0.3495(3) 1.0563(3)
C14 C 0.4164(2) 0.4359(2) 0.9121(3)
C15 C 0.2061(2) 0.6605(2) 0.9871(3)
C16 C 0.0770(2) 0.7235(2) 0.9669(2)
N1 N -0.0419(2) 0.7966(2) 1.0990(2)
O1 O -0.1634(2) 0.8089(2) 1.1118(2)
O2 O -0.0139(2) 0.8382(2) 1.1902(2)
C17 C 0.0328(2) 0.7231(2) 0.8347(2)
C18 C 0.0614(2) 0.5903(3) 0.7904(3)
C19 C 0.0209(3) 0.5898(4) 0.6654(3)
C20 C -0.0476(3) 0.7192(4) 0.5842(3)
C21 C -0.0752(3) 0.8515(4) 0.6255(4)
C22 C -0.0361(3) 0.8543(3) 0.7502(3)
H1 H 0.240(2) 0.877(2) 0.758(2)
H2 H 0.340(2) 1.004(3) 0.515(3)
H3 H 0.553(2) 0.881(3) 0.335(3)
H4 H 0.673(2) 0.626(2) 0.405(3)
H5 H 0.691(2) 0.399(2) 0.587(2)
H6 H 0.715(2) 0.171(2) 0.764(3)
H7 H 0.624(2) 0.033(3) 1.009(3)
H8 H 0.405(3) 0.149(3) 1.192(3)
H9 H 0.275(2) 0.396(2) 1.128(2)
H10 H 0.209(2) 0.666(2) 1.090(2)
H11 H 0.111(2) 0.502(2) 0.847(2)
H12 H 0.043(3) 0.498(3) 0.637(3)
H13 H -0.077(3) 0.719(3) 0.495(3)
H14 H -0.119(3) 0.942(3) 0.569(3)
H15 H -0.055(2) 0.949(2) 0.784(2)
#END
