
#######################################################################
#
#                 Cambridge Crystallographic Data Centre
#                                CCDC
#
#######################################################################
#
# If this CIF has been generated from an entry in the Cambridge
# Structural Database, then it will include bibliographic, chemical,
# crystal, experimental, refinement or atomic coordinate data resulting
# from the CCDC's data processing and validation procedures.
#
#######################################################################

data_CSD_CIF_KANQAR
_audit_creation_date 2000-05-08
_audit_creation_method CSD-ConQuest-V1
_database_code_CSD KANQAR
_database_code_depnum_ccdc_archive 'CCDC 134715'
_chemical_formula_sum 'C4 H4 N8 O3'
_chemical_formula_moiety
;
C4 H4 N8 O3
;
_journal_coden_Cambridge 1078
_journal_year 1999
_journal_name_full 'CSD Communication(Private Communication) '
loop_
_publ_author_name
"R.Gilardi"
_chemical_name_systematic
;
4,4'-Azoxybis-1,2,5-oxadiazol-3-amine
;
_chemical_name_common
;
Diaminoazoxyfurazan
;
_chemical_melting_point 522
_cell_volume    403.758
_exptl_crystal_colour 'yellow-orange'
_exptl_crystal_density_diffrn 1.745
_exptl_special_details
;
room temperature polymorph
contribution from Laboratory for the Structure of Matter, The Naval Research 
Laboratory, Washington, D.C., USA
cited in L.F.Cannizzo, R.S.Hamilton, T.K. Highsmith, A.J.Sanderson, 
B.A.Zenter, Proceedings of the 1999 Insensitive Munitions and Energetic 
Materials Technology Symposium (Tampa, FL, USA, 29th November 1999)
;
_exptl_crystal_description 'chunk'
_diffrn_ambient_temperature ?
_diffrn_special_details
;
The study was carried out at room temperature,in the range 283-303K

;
_refine_special_details
;
The azoxy bridge oxygen atom is disordered over two sites with equal 
occupancies.
;
#These two values have been output from a single CSD field.
_refine_ls_R_factor_gt 0.0415
_refine_ls_wR_factor_gt 0.0415
_symmetry_cell_setting monoclinic
_symmetry_space_group_name_H-M 'P 21/c'
_symmetry_Int_Tables_number 14
loop_
_symmetry_equiv_pos_site_id
_symmetry_equiv_pos_as_xyz
1 x,y,z
2 x,1/2-y,1/2+z
3 -x,-y,-z
4 -x,-1/2+y,-1/2-z
_cell_length_a 4.6466(6)
_cell_length_b 9.6326(10)
_cell_length_c 9.0243(11)
_cell_angle_alpha 90
_cell_angle_beta 91.607(9)
_cell_angle_gamma 90
_cell_formula_units_Z 2
loop_
_atom_type_symbol
_atom_type_radius_bond
C 0.68
H 0.23
N 0.68
O 0.68
loop_
_atom_site_label
_atom_site_type_symbol
_atom_site_fract_x
_atom_site_fract_y
_atom_site_fract_z
C1 C 0.8027(6) 0.7149(3) 0.6955(3)
N1 N 0.6010(4) 0.5181(2) 0.5457(2)
N2 N 0.9940(6) 0.6467(3) 0.7809(3)
C2 C 0.6113(6) 0.6602(3) 0.5847(3)
N3 N 0.7588(6) 0.8494(2) 0.7031(3)
O1 O 0.5394(5) 0.8761(2) 0.5968(2)
N4 N 0.4521(5) 0.7579(3) 0.5258(3)
O2 O 0.7933(8) 0.4286(3) 0.6000(4)
H1 H 1.0950(72) 0.6851(33) 0.8522(35)
H2 H 1.0113(62) 0.5650(37) 0.7697(33)
N1B N 0.3990(4) 0.4819(2) 0.4543(2)
C2B C 0.3887(6) 0.3398(3) 0.4153(3)
C1B C 0.1973(6) 0.2851(3) 0.3045(3)
N2B N 0.0060(6) 0.3533(3) 0.2191(3)
H1B H -0.0950(72) 0.3149(33) 0.1478(35)
H2B H -0.0113(62) 0.4350(37) 0.2303(33)
N3B N 0.2412(6) 0.1506(2) 0.2969(3)
O1B O 0.4606(5) 0.1239(2) 0.4032(2)
N4B N 0.5479(5) 0.2421(3) 0.4742(3)
O2B O 0.2067(8) 0.5714(3) 0.4000(4)
#END
