
#######################################################################
#
#                 Cambridge Crystallographic Data Centre
#                                CCDC
#
#######################################################################
#
# If this CIF has been generated from an entry in the Cambridge
# Structural Database, then it will include bibliographic, chemical,
# crystal, experimental, refinement or atomic coordinate data resulting
# from the CCDC's data processing and validation procedures.
#
#######################################################################

data_CSD_CIF_KAPCAF
_audit_creation_date 1990-02-14
_audit_creation_method CSD-ConQuest-V1
_database_code_CSD KAPCAF
_chemical_formula_sum 'C10 H10 N2 O2'
_chemical_formula_moiety
;
C10 H10 N2 O2
;
_journal_coeditor_code "IUCr PA0030"
_journal_coden_Cambridge 591
_journal_volume 45
_journal_year 1989
_journal_page_first 1180
_journal_name_full 'Acta Crystallogr.,Sect.C:Cryst.Struct.Commun. '
loop_
_publ_author_name
"G.Bocelli"
"C.Rizzoli"
_chemical_name_systematic
;
2,3-Dimethyl-5-nitroindole
;
_cell_volume    941.940
_exptl_crystal_colour 'red'
_exptl_crystal_density_diffrn 1.34
_diffrn_ambient_temperature ?
_diffrn_special_details
;
The study was carried out at room temperature,in the range 283-303K

;
#These two values have been output from a single CSD field.
_refine_ls_R_factor_gt 0.048
_refine_ls_wR_factor_gt 0.048
_symmetry_cell_setting monoclinic
_symmetry_space_group_name_H-M 'P 21/n'
_symmetry_Int_Tables_number 14
loop_
_symmetry_equiv_pos_site_id
_symmetry_equiv_pos_as_xyz
1 x,y,z
2 1/2-x,1/2+y,1/2-z
3 -x,-y,-z
4 -1/2+x,-1/2-y,-1/2+z
_cell_length_a 14.345(2)
_cell_length_b 8.518(2)
_cell_length_c 7.741(2)
_cell_angle_alpha 90
_cell_angle_beta 95.23(3)
_cell_angle_gamma 90
_cell_formula_units_Z 4
loop_
_atom_type_symbol
_atom_type_radius_bond
C 0.68
H 0.23
N 0.68
O 0.68
loop_
_atom_site_label
_atom_site_type_symbol
_atom_site_fract_x
_atom_site_fract_y
_atom_site_fract_z
O1 O 0.2261(1) 0.1943(2) 0.4929(3)
O2 O 0.1505(1) 0.4091(2) 0.5154(2)
N1 N -0.1510(1) -0.0255(2) 0.1319(2)
N2 N 0.1545(1) 0.2703(2) 0.4679(2)
C1 C -0.1138(1) -0.1740(2) 0.1073(2)
C2 C -0.0230(1) -0.1770(2) 0.1731(2)
C3 C -0.0018(1) -0.0237(2) 0.2434(2)
C4 C 0.0779(1) 0.0430(2) 0.3282(2)
C5 C 0.0719(1) 0.1979(2) 0.3801(2)
C6 C -0.0092(1) 0.2881(2) 0.3533(2)
C7 C -0.0891(1) 0.2237(2) 0.2690(2)
C8 C -0.0846(1) 0.0681(2) 0.2153(2)
C9 C -0.1745(2) -0.2985(3) 0.0192(3)
C10 C 0.0447(2) -0.3112(2) 0.1742(3)
H1 H -0.212(2) -0.008(3) 0.099(2)
H2 H 0.136(2) -0.013(3) 0.346(3)
H3 H -0.007(2) 0.393(3) 0.391(2)
H4 H -0.140(2) 0.282(3) 0.250(3)
H5 H -0.138(3) -0.403(6) -0.014(6)
H6 H -0.219(2) -0.330(4) 0.098(4)
H7 H -0.207(2) -0.271(4) -0.092(4)
H8 H 0.105(2) -0.268(4) 0.115(4)
H9 H 0.017(2) -0.409(4) 0.126(4)
H10 H 0.079(2) -0.328(4) 0.295(5)
#END
