
#######################################################################
#
#                 Cambridge Crystallographic Data Centre
#                                CCDC
#
#######################################################################
#
# If this CIF has been generated from an entry in the Cambridge
# Structural Database, then it will include bibliographic, chemical,
# crystal, experimental, refinement or atomic coordinate data resulting
# from the CCDC's data processing and validation procedures.
#
#######################################################################

data_CSD_CIF_KAQRIF
_audit_creation_date 2012-03-05
_audit_creation_method CSD-ConQuest-V1
_database_code_CSD KAQRIF
_database_code_depnum_ccdc_archive 'CCDC 833516'
_chemical_formula_sum 'C16 H29 N3 O8'
_chemical_formula_moiety
;
C16 H29 N3 O8
;
_journal_coden_Cambridge 177
_journal_volume 10
_journal_year 2012
_journal_page_first 1158
_journal_name_full 'Org.Biomol.Chem. '
loop_
_publ_author_name
"Cong-Bon Ji"
"Yun-Lin Liu"
"Xiao-Li Zhao"
"Yin-Long Guo"
"Hao-Yang Wang"
"Jian Zhou"
_chemical_name_systematic
;
Di-t-butyl 
1-(1-isopropoxy-2-nitro-1-oxopropan-2-yl)hydrazine-1,2-dicarboxylate
;
_cell_volume   1073.653
_exptl_crystal_colour 'colorless'
_exptl_crystal_density_diffrn 1.211
_exptl_crystal_description 'block'
_diffrn_ambient_temperature 173
#These two values have been output from a single CSD field.
_refine_ls_R_factor_gt 0.039
_refine_ls_wR_factor_gt 0.039
_symmetry_cell_setting triclinic
_symmetry_space_group_name_H-M 'P -1'
_symmetry_Int_Tables_number 2
loop_
_symmetry_equiv_pos_site_id
_symmetry_equiv_pos_as_xyz
1 x,y,z
2 -x,-y,-z
_cell_length_a 9.2865(5)
_cell_length_b 10.1783(5)
_cell_length_c 12.8619(7)
_cell_angle_alpha 86.696(2)
_cell_angle_beta 80.581(2)
_cell_angle_gamma 63.553(2)
_cell_formula_units_Z 2
loop_
_atom_type_symbol
_atom_type_radius_bond
C 0.68
H 0.23
N 0.68
O 0.68
loop_
_atom_site_label
_atom_site_type_symbol
_atom_site_fract_x
_atom_site_fract_y
_atom_site_fract_z
O1 O 1.0090(2) -0.14303(17) 0.37544(13)
O2 O 1.10101(17) 0.01244(18) 0.39854(11)
O3 O 1.08091(15) 0.06520(16) 0.17532(10)
O4 O 0.82029(15) 0.20487(14) 0.15275(9)
O5 O 0.62185(15) -0.07266(14) 0.2674(1)
O6 O 0.86262(15) -0.09333(15) 0.1760(1)
O7 O 0.35837(15) 0.17935(14) 0.48000(11)
O8 O 0.44635(14) 0.27440(13) 0.33391(10)
N1 N 1.00414(19) -0.0217(2) 0.36865(12)
N2 N 0.73545(17) 0.05723(16) 0.31993(11)
N3 N 0.62452(17) 0.08408(17) 0.41264(12)
H1 H 0.637(2) 0.006(2) 0.4476(16)
C1 C 0.9382(2) 0.1164(2) 0.20540(14)
C2 C 0.8617(2) 0.1011(2) 0.31876(14)
C3 C 0.7501(2) -0.0447(2) 0.24693(14)
C4 C 0.8049(2) 0.2423(2) 0.38076(15)
H2 H 0.71510 0.32130 0.35090
H3 H 0.89530 0.26840 0.37680
H4 H 0.76760 0.22870 0.45460
C5 C 0.8694(2) 0.2231(2) 0.04007(14)
H5 H 0.97200 0.13500 0.01280
C6 C 0.7342(3) 0.2327(3) -0.01412(17)
H6 H 0.72320 0.14120 -0.00420
H7 H 0.75880 0.24800 -0.08960
H8 H 0.63220 0.31500 0.01590
C7 C 0.8986(3) 0.3570(3) 0.02860(18)
H9 H 0.98960 0.34230 0.06480
H10 H 0.80050 0.44220 0.05990
H11 H 0.92500 0.37410 -0.04630
C8 C 0.6208(2) -0.1989(2) 0.21634(16)
C9 C 0.6230(3) -0.1748(3) 0.09862(18)
H12 H 0.72840 -0.17940 0.06650
H13 H 0.53590 -0.07830 0.08630
H14 H 0.60620 -0.25130 0.06710
C10 C 0.4605(3) -0.1936(3) 0.2691(2)
H15 H 0.46300 -0.21050 0.34470
H16 H 0.44260 -0.26990 0.23810
H17 H 0.37200 -0.09710 0.25860
C11 C 0.7631(3) -0.3375(2) 0.24373(18)
H18 H 0.86520 -0.33810 0.20820
H19 H 0.75440 -0.42330 0.22050
H20 H 0.76170 -0.34060 0.32020
C12 C 0.4644(2) 0.18050(19) 0.41197(14)
C13 C 0.2831(2) 0.3908(2) 0.32128(18)
C14 C 0.1786(3) 0.3209(4) 0.3005(3)
H21 H 0.23040 0.25700 0.23780
H22 H 0.07170 0.39740 0.28890
H23 H 0.16510 0.26260 0.36140
C15 C 0.2166(5) 0.4918(3) 0.4156(3)
H24 H 0.19180 0.44020 0.47740
H25 H 0.11700 0.57770 0.40270
H26 H 0.29750 0.52360 0.42840
C16 C 0.3204(3) 0.4690(3) 0.2258(2)
H27 H 0.36390 0.40220 0.16450
H28 H 0.40120 0.50140 0.23790
H29 H 0.22050 0.55440 0.21270
#END
