
#######################################################################
#
#                 Cambridge Crystallographic Data Centre
#                                CCDC
#
#######################################################################
#
# If this CIF has been generated from an entry in the Cambridge
# Structural Database, then it will include bibliographic, chemical,
# crystal, experimental, refinement or atomic coordinate data resulting
# from the CCDC's data processing and validation procedures.
#
#######################################################################

data_CSD_CIF_KAQROJ
_audit_creation_date 2000-05-08
_audit_creation_method CSD-ConQuest-V1
_database_code_CSD KAQROJ
_database_code_depnum_ccdc_archive 'CCDC 118983'
_chemical_formula_sum 'C13 H22 N2 O5'
_chemical_formula_moiety
;
C13 H22 N2 O5
;
_journal_coden_Cambridge 1291
_journal_year 2000
_journal_page_first 787
_journal_name_full 'Eur.J.Org.Chem. '
loop_
_publ_author_name
"K.Exner"
"G.Fischer"
"M.Lugan"
"H.Fritz"
"D.Hunkler"
"M.Keller"
"L.Knothe"
"H.Prinzbach"
_chemical_name_systematic
;
(1R*,2R*,3S*,5R*)-3,5-Dimethoxy-1,7,10,10-tetramethyl-4-oxa-8,9-diazatricyclo(
5.2.1.0^2,6^)dec-8-ene 8,9-dioxide
;
_chemical_melting_point 537.15
_cell_volume   1496.785
_exptl_crystal_colour 'colorless'
_exptl_crystal_density_diffrn 1.271
_exptl_special_details
;
Melting point range 537.15-539.15K

;
_exptl_crystal_preparation 'chloroform'
_diffrn_ambient_temperature ?
_diffrn_special_details
;
The study was carried out at room temperature,in the range 283-303K

;
#These two values have been output from a single CSD field.
_refine_ls_R_factor_gt 0.0468
_refine_ls_wR_factor_gt 0.0468
_symmetry_cell_setting monoclinic
_symmetry_space_group_name_H-M 'P 21/n'
_symmetry_Int_Tables_number 14
loop_
_symmetry_equiv_pos_site_id
_symmetry_equiv_pos_as_xyz
1 x,y,z
2 1/2+x,1/2-y,1/2+z
3 -x,-y,-z
4 -1/2-x,-1/2+y,-1/2-z
_cell_length_a 7.7476(12)
_cell_length_b 19.023(2)
_cell_length_c 10.190(2)
_cell_angle_alpha 90
_cell_angle_beta 94.697(7)
_cell_angle_gamma 90
_cell_formula_units_Z 4
loop_
_atom_type_symbol
_atom_type_radius_bond
C 0.68
H 0.23
N 0.68
O 0.68
loop_
_atom_site_label
_atom_site_type_symbol
_atom_site_fract_x
_atom_site_fract_y
_atom_site_fract_z
C1 C 0.2148(3) 0.81460(12) -0.0028(2)
C2 C 0.0817(3) 0.81631(12) 0.1027(2)
C3 C 0.0351(3) 0.89530(12) 0.1100(2)
H1 H -0.0531(3) 0.90796(12) 0.0395(2)
C4 C -0.0156(3) 0.92133(13) 0.2421(2)
H2 H -0.0582(3) 0.88212(13) 0.2929(2)
C5 C 0.2482(3) 0.97515(13) 0.2145(2)
H3 H 0.3694(3) 0.96814(13) 0.2476(2)
C6 C 0.2086(3) 0.93205(12) 0.0900(2)
H4 H 0.1984(3) 0.96226(12) 0.0119(2)
C7 C 0.3330(3) 0.86995(12) 0.0715(2)
C8 C 0.5064(3) 0.8873(2) 0.0241(3)
H5 H 0.5718(3) 0.8449(2) 0.0165(3)
H6 H 0.5679(3) 0.9183(2) 0.0859(3)
H7 H 0.4904(3) 0.9099(2) -0.0603(3)
C9 C 0.1415(4) 0.83851(14) -0.1396(2)
H8 H 0.0863(4) 0.88341(14) -0.1329(2)
H9 H 0.0582(4) 0.80474(14) -0.1753(2)
H10 H 0.2338(4) 0.84236(14) -0.1966(2)
C10 C 0.3023(3) 0.74305(14) -0.0155(3)
H11 H 0.3488(3) 0.72748(14) 0.0698(3)
H12 H 0.3943(3) 0.74725(14) -0.0727(3)
H13 H 0.2187(3) 0.70955(14) -0.0516(3)
C11 C -0.0652(3) 0.76443(15) 0.0965(3)
H14 H -0.0200(3) 0.71758(15) 0.0923(3)
H15 H -0.1421(3) 0.77346(15) 0.0196(3)
H16 H -0.1274(3) 0.76914(15) 0.1738(3)
C12 C 0.2629(4) 1.0922(2) 0.2912(3)
H17 H 0.2411(4) 1.1399(2) 0.2640(3)
H18 H 0.3831(4) 1.0868(2) 0.3205(3)
H19 H 0.1932(4) 1.0807(2) 0.3618(3)
C13 C -0.2151(4) 0.9948(2) 0.3377(3)
H20 H -0.3031(4) 1.0295(2) 0.3171(3)
H21 H -0.1246(4) 1.0148(2) 0.3961(3)
H22 H -0.2647(4) 0.9553(2) 0.3796(3)
N1 N 0.2060(3) 0.80348(10) 0.2224(2)
N2 N 0.3520(3) 0.83464(11) 0.2042(2)
O1 O 0.1756(2) 0.77115(10) 0.3253(2)
O2 O 0.4803(2) 0.83679(11) 0.2883(2)
O3 O -0.1455(2) 0.97237(9) 0.2201(2)
O4 O 0.2203(2) 1.04616(9) 0.1828(2)
O5 O 0.1381(2) 0.94954(9) 0.3079(2)
#END
