
#######################################################################
#
#                 Cambridge Crystallographic Data Centre
#                                CCDC
#
#######################################################################
#
# If this CIF has been generated from an entry in the Cambridge
# Structural Database, then it will include bibliographic, chemical,
# crystal, experimental, refinement or atomic coordinate data resulting
# from the CCDC's data processing and validation procedures.
#
#######################################################################

data_CSD_CIF_KASBEL
_audit_creation_date 1990-02-23
_audit_creation_method CSD-ConQuest-V1
_database_code_CSD KASBEL
_chemical_formula_sum 'C6 H8 N6 O4'
_chemical_formula_moiety
;
C6 H8 N6 O4
;
_journal_coeditor_code "IUCr HH0236"
_journal_coden_Cambridge 591
_journal_volume 45
_journal_year 1989
_journal_page_first 1121
_journal_name_full 'Acta Crystallogr.,Sect.C:Cryst.Struct.Commun. '
loop_
_publ_author_name
"J.L.Flippen-Anderson"
"R.Gilardi"
"C.George"
_chemical_name_systematic
;
N,N'-Dicyano-N,N'-dinitro-1,4-butanediamine
;
_cell_volume    496.295
_exptl_crystal_colour 'colorless'
_exptl_crystal_density_diffrn 1.527
_diffrn_ambient_temperature 225
#These two values have been output from a single CSD field.
_refine_ls_R_factor_gt 0.047
_refine_ls_wR_factor_gt 0.047
_symmetry_cell_setting monoclinic
_symmetry_space_group_name_H-M 'P 21/n'
_symmetry_Int_Tables_number 14
loop_
_symmetry_equiv_pos_site_id
_symmetry_equiv_pos_as_xyz
1 x,y,z
2 1/2-x,1/2+y,1/2-z
3 -x,-y,-z
4 -1/2+x,-1/2-y,-1/2+z
_cell_length_a 9.154(2)
_cell_length_b 6.066(2)
_cell_length_c 9.092(3)
_cell_angle_alpha 90
_cell_angle_beta 100.57(2)
_cell_angle_gamma 90
_cell_formula_units_Z 2
loop_
_atom_type_symbol
_atom_type_radius_bond
C 0.68
H 0.23
N 0.68
O 0.68
loop_
_atom_site_label
_atom_site_type_symbol
_atom_site_fract_x
_atom_site_fract_y
_atom_site_fract_z
N1 N 0.2010(2) 0.2719(4) 0.0365(3)
C1 C 0.2945(3) 0.4130(5) -0.0406(3)
C2 C 0.4537(3) 0.4253(5) 0.0402(3)
C3 C 0.1171(3) 0.3480(5) 0.1329(3)
N2 N 0.0461(3) 0.4231(5) 0.2113(3)
N3 N 0.2019(3) 0.0434(4) 0.0191(3)
O1 O 0.1324(2) -0.0638(3) 0.0962(2)
O2 O 0.2707(3) -0.0253(4) -0.0732(3)
H1 H 0.29290 0.35510 -0.13910
H2 H 0.25380 0.55930 -0.04800
H3 H 0.4945(30) 0.2806(52) 0.0455(32)
H4 H 0.4614(30) 0.4606(47) 0.1456(36)
C2B C 0.5463(3) 0.5747(5) -0.0402(3)
C1B C 0.7055(3) 0.5870(5) 0.0406(3)
H3B H 0.5055(30) 0.7194(52) -0.0455(32)
H4B H 0.5386(30) 0.5394(47) -0.1456(36)
N1B N 0.7990(2) 0.7281(4) -0.0365(3)
H1B H 0.70710 0.64490 0.13910
H2B H 0.74620 0.44070 0.04800
C3B C 0.8829(3) 0.6520(5) -0.1329(3)
N3B N 0.7981(3) 0.9566(4) -0.0191(3)
N2B N 0.9539(3) 0.5769(5) -0.2113(3)
O1B O 0.8676(2) 1.0638(3) -0.0962(2)
O2B O 0.7293(3) 1.0253(4) 0.0732(3)
#END
