
#######################################################################
#
#                 Cambridge Crystallographic Data Centre
#                                CCDC
#
#######################################################################
#
# If this CIF has been generated from an entry in the Cambridge
# Structural Database, then it will include bibliographic, chemical,
# crystal, experimental, refinement or atomic coordinate data resulting
# from the CCDC's data processing and validation procedures.
#
#######################################################################

data_CSD_CIF_KASNAT
_audit_creation_date 1990-02-23
_audit_creation_method CSD-ConQuest-V1
_database_code_CSD KASNAT
_chemical_formula_sum 'C29 H36 N2 O6'
_chemical_formula_moiety
;
C29 H36 N2 O6
;
_journal_coden_Cambridge 35
_journal_volume 54
_journal_year 1989
_journal_page_first 3199
_journal_name_full 'J.Org.Chem. '
loop_
_publ_author_name
"Long-Ze Lin"
"G.A.Cordell"
"Chao-Zhou Ni"
"J.Clardy"
_chemical_name_systematic
;
Gelsamydine
;
_chemical_melting_point 467.15
_cell_volume   2676.469
_exptl_crystal_colour 'colorless'
_exptl_crystal_density_diffrn 1.26
_exptl_special_details
;
Melting point range 467.15-469.15K
antispasmodic and analgesic activity
H coords requested from authors
;
_diffrn_ambient_temperature ?
_diffrn_special_details
;
The study was carried out at room temperature,in the range 283-303K

;
#These two values have been output from a single CSD field.
_refine_ls_R_factor_gt 0.049
_refine_ls_wR_factor_gt 0.049
_chemical_compound_source
;
Gelsemium elegans
;
_symmetry_cell_setting orthorhombic
_symmetry_space_group_name_H-M 'P 21 21 21'
_symmetry_Int_Tables_number 19
loop_
_symmetry_equiv_pos_site_id
_symmetry_equiv_pos_as_xyz
1 x,y,z
2 1/2+x,1/2-y,-z
3 -x,1/2+y,1/2-z
4 1/2-x,-y,1/2+z
_cell_length_a 12.982(3)
_cell_length_b 13.156(4)
_cell_length_c 15.671(3)
_cell_angle_alpha 90
_cell_angle_beta 90
_cell_angle_gamma 90
_cell_formula_units_Z 4
loop_
_atom_type_symbol
_atom_type_radius_bond
C 0.68
H 0.23
N 0.68
O 0.68
loop_
_atom_site_label
_atom_site_type_symbol
_atom_site_fract_x
_atom_site_fract_y
_atom_site_fract_z
N1 N 0.7716(4) 0.0721(3) 0.1143(4)
C1 C 0.8194(4) 0.1486(4) 0.0704(3)
C2 C 0.8481(5) 0.1308(5) -0.0900(3)
N2 N 1.0310(3) 0.3077(3) 0.0101(3)
C3 C 1.0562(4) 0.2068(5) -0.0272(3)
C4 C 1.0029(4) 0.1181(4) 0.0166(4)
C5 C 0.8864(4) 0.0998(4) 0.0008(3)
C6 C 0.8622(6) -0.0139(4) 0.0156(5)
C7 C 0.8995(8) -0.0997(6) -0.0246(6)
C8 C 0.8706(12) -0.1932(10) 0.0011(12)
C9 C 0.8017(10) -0.2009(9) 0.0690(11)
C10 C 0.7629(7) -0.1191(6) 0.1145(8)
C11 C 0.7947(6) -0.0238(5) 0.0854(6)
C12 C 0.8391(4) 0.2432(5) -0.1108(4)
C13 C 0.9444(4) 0.2961(5) -0.1207(3)
C14 C 1.0314(4) 0.2172(5) -0.1226(4)
C15 C 1.0046(6) 0.1219(7) -0.1717(4)
C16 C 0.9839(6) 0.5316(6) -0.0955(5)
C17 C 0.9370(4) 0.4631(4) -0.0284(3)
C18 C 0.9725(4) 0.3559(4) -0.0417(3)
C19 C 0.7616(7) 0.0833(7) 0.2604(5)
C20 C 0.9568(4) 0.5058(4) 0.0602(3)
C21 C 0.8911(3) 0.4629(3) 0.1318(3)
C22 C 0.9300(4) 0.4876(4) 0.2220(3)
C23 C 0.8366(4) 0.5323(6) 0.2677(4)
C24 C 0.7822(4) 0.5044(4) 0.1284(4)
C25 C 0.8080(5) 0.4597(8) 0.3374(4)
C26 C 0.8616(5) 0.3602(6) 0.3158(4)
C27 C 0.9627(4) 0.3958(5) 0.2765(3)
C28 C 1.0194(5) 0.3102(4) 0.2302(4)
C29 C 0.8744(6) 0.2871(8) 0.3919(5)
O1 O 0.7050(4) 0.0881(4) 0.1817(4)
O2 O 0.8084(3) 0.2374(3) 0.0868(2)
O3 O 0.9067(4) 0.0789(4) -0.1519(3)
O4 O 0.7532(3) 0.5393(4) 0.2054(3)
O5 O 0.7250(3) 0.5085(4) 0.0694(3)
O6 O 1.1016(3) 0.3465(3) 0.1809(3)
H1 H 0.77960 0.10390 -0.09470
H2 H 1.12910 0.19660 -0.02180
H3 H 1.01150 0.12770 0.07690
H4 H 1.03830 0.05750 -0.00090
H5 H 0.94640 -0.09200 -0.07150
H6 H 0.89900 -0.25230 -0.02600
H7 H 0.77790 -0.26790 0.08290
H8 H 0.71860 -0.12880 0.16280
H9 H 0.80140 0.25060 -0.16320
H10 H 0.80050 0.27640 -0.06660
H11 H 0.94590 0.33840 -0.17070
H12 H 1.09000 0.24810 -0.14960
H13 H 1.00620 0.13730 -0.23150
H14 H 1.05690 0.07190 -0.16090
H15 H 0.97090 0.50350 -0.15110
H16 H 1.05690 0.53670 -0.08650
H17 H 0.95350 0.59790 -0.09170
H18 H 0.86380 0.46370 -0.03710
H19 H 0.71570 0.09440 0.30760
H20 H 0.81420 0.13450 0.26050
H21 H 0.79270 0.01740 0.26560
H22 H 0.94480 0.57780 0.05790
H23 H 1.02770 0.49330 0.07420
H24 H 0.88810 0.39040 0.12540
H25 H 0.98470 0.53660 0.21960
H26 H 0.85250 0.59810 0.29060
H27 H 0.83160 0.48470 0.39150
H28 H 0.73470 0.45070 0.34000
H29 H 0.82210 0.32600 0.27270
H30 H 1.00610 0.41980 0.32180
H31 H 1.04500 0.26280 0.27160
H32 H 0.97170 0.27490 0.19400
H33 H 0.90810 0.22600 0.37340
H34 H 0.80810 0.27050 0.41530
H35 H 0.91550 0.31970 0.43490
H36 H 1.13100 0.29670 0.15630
#END
