
#######################################################################
#
#                 Cambridge Crystallographic Data Centre
#                                CCDC
#
#######################################################################
#
# If this CIF has been generated from an entry in the Cambridge
# Structural Database, then it will include bibliographic, chemical,
# crystal, experimental, refinement or atomic coordinate data resulting
# from the CCDC's data processing and validation procedures.
#
#######################################################################

data_CSD_CIF_KASWUX
_audit_creation_date 2005-11-01
_audit_creation_method CSD-ConQuest-V1
_database_code_CSD KASWUX
_database_code_depnum_ccdc_archive 'CCDC 285797'
_chemical_formula_sum 'C11 H17 N5 O4'
_chemical_formula_moiety
;
C11 H17 N5 O4
;
_journal_coeditor_code "IUCr SK1862"
_journal_coden_Cambridge 591
_journal_volume 61
_journal_year 2005
_journal_page_first o548
_journal_name_full 'Acta Crystallogr.,Sect.C:Cryst.Struct.Commun. '
loop_
_publ_author_name
"P.A.Mascaros"
"M.L.G.Salido"
"M.D.G.Valero"
"J.N.Low"
"C.Glidewell"
_chemical_name_systematic
;
N-(6-Amino-3,4-dihydro-3-methyl-5-nitroso-4-oxopyrimidin-2-yl)leucine
;
_cell_volume   1360.895
_exptl_crystal_colour 'orange'
_exptl_crystal_density_diffrn 1.383
_exptl_crystal_description 'lath'
_diffrn_ambient_temperature 120
#These two values have been output from a single CSD field.
_refine_ls_R_factor_gt 0.0398
_refine_ls_wR_factor_gt 0.0398
_symmetry_cell_setting orthorhombic
_symmetry_space_group_name_H-M 'P 21 21 21'
_symmetry_Int_Tables_number 19
loop_
_symmetry_equiv_pos_site_id
_symmetry_equiv_pos_as_xyz
1 x,y,z
2 1/2-x,-y,1/2+z
3 1/2+x,1/2-y,-z
4 -x,1/2+y,1/2-z
_cell_length_a 9.4395(2)
_cell_length_b 13.1565(3)
_cell_length_c 10.9581(2)
_cell_angle_alpha 90
_cell_angle_beta 90
_cell_angle_gamma 90
_cell_formula_units_Z 4
loop_
_atom_type_symbol
_atom_type_radius_bond
C 0.68
H 0.23
N 0.68
O 0.68
loop_
_atom_site_label
_atom_site_type_symbol
_atom_site_fract_x
_atom_site_fract_y
_atom_site_fract_z
O1 O 0.17512(16) 0.42095(12) 0.10904(13)
O2 O 0.44571(17) 0.22692(12) -0.04938(13)
O3 O 0.52219(17) 0.26060(13) 0.73658(14)
O4 O 0.31846(16) 0.33891(12) 0.68781(14)
N1 N 0.48741(18) 0.29307(13) 0.31541(15)
N2 N 0.41713(17) 0.39787(13) 0.47036(15)
N3 N 0.28601(17) 0.40236(13) 0.29227(15)
N4 N 0.36042(19) 0.29343(14) -0.00210(16)
N5 N 0.56944(19) 0.19659(14) 0.15928(16)
C1 C 0.3981(2) 0.36236(16) 0.35723(18)
C2 C 0.1785(2) 0.46433(17) 0.35373(19)
C3 C 0.2697(2) 0.38014(15) 0.16743(18)
C4 C 0.3696(2) 0.30631(16) 0.11780(18)
C5 C 0.4761(2) 0.26289(15) 0.19851(18)
C6 C 0.5202(2) 0.35525(16) 0.55548(18)
C7 C 0.4411(2) 0.31676(16) 0.66712(18)
C8 C 0.6301(2) 0.43523(18) 0.5961(2)
C9 C 0.7219(2) 0.47950(19) 0.4938(2)
C10 C 0.8003(3) 0.3981(2) 0.4241(3)
C11 C 0.8255(3) 0.5559(2) 0.5493(3)
H1 H 0.36500 0.44950 0.49470
H2 H 0.14120 0.42710 0.42420
H3 H 0.10110 0.47910 0.29680
H4 H 0.22130 0.52820 0.38130
H5 H 0.63560 0.17390 0.20890
H6 H 0.56590 0.17480 0.08340
H7 H 0.57030 0.29710 0.51560
H8 H 0.48320 0.25250 0.80480
H9 H 0.57930 0.49180 0.63660
H10 H 0.69330 0.40380 0.65760
H11 H 0.65870 0.51650 0.43550
H12 H 0.86190 0.42990 0.36300
H13 H 0.73200 0.35350 0.38320
H14 H 0.85800 0.35810 0.48080
H15 H 0.89350 0.52000 0.60140
H16 H 0.77310 0.60560 0.59830
H17 H 0.87650 0.59120 0.48390
#END
