
#######################################################################
#
#                 Cambridge Crystallographic Data Centre
#                                CCDC
#
#######################################################################
#
# If this CIF has been generated from an entry in the Cambridge
# Structural Database, then it will include bibliographic, chemical,
# crystal, experimental, refinement or atomic coordinate data resulting
# from the CCDC's data processing and validation procedures.
#
#######################################################################

data_CSD_CIF_KATNID
_audit_creation_date 2005-11-01
_audit_creation_method CSD-ConQuest-V1
_database_code_CSD KATNID
_database_code_depnum_ccdc_archive 'CCDC 283768'
_chemical_formula_sum 'C14 H12 N2 O2'
_chemical_formula_moiety
;
C14 H12 N2 O2
;
_journal_coeditor_code "IUCr BV6026"
_journal_coden_Cambridge 1370
_journal_volume 61
_journal_year 2005
_journal_page_first o2964
_journal_name_full 'Acta Crystallogr.,Sect.E:Struct.Rep.Online '
loop_
_publ_author_name
"Wen Yang"
"Yan Zhang"
"De-Chun Zhang"
_chemical_name_systematic
;
N-(3-Nitrobenzylidene)-p-toluidine
;
_chemical_melting_point 368
_cell_volume   1249.675
_exptl_crystal_colour 'white-yellow'
_exptl_crystal_density_diffrn 1.277
_exptl_special_details
;
Melting point range 368-369K

;
_exptl_crystal_description 'granular'
_exptl_crystal_preparation '85% ethanol'
_diffrn_ambient_temperature 291
#These two values have been output from a single CSD field.
_refine_ls_R_factor_gt 0.0362
_refine_ls_wR_factor_gt 0.0362
_symmetry_cell_setting orthorhombic
_symmetry_space_group_name_H-M 'P c a 21'
_symmetry_Int_Tables_number 29
loop_
_symmetry_equiv_pos_site_id
_symmetry_equiv_pos_as_xyz
1 x,y,z
2 -x,-y,1/2+z
3 1/2+x,-y,z
4 1/2-x,y,1/2+z
_cell_length_a 13.413(2)
_cell_length_b 13.115(2)
_cell_length_c 7.104(1)
_cell_angle_alpha 90
_cell_angle_beta 90
_cell_angle_gamma 90
_cell_formula_units_Z 4
loop_
_atom_type_symbol
_atom_type_radius_bond
C 0.68
H 0.23
N 0.68
O 0.68
loop_
_atom_site_label
_atom_site_type_symbol
_atom_site_fract_x
_atom_site_fract_y
_atom_site_fract_z
O1 O 0.77127(13) -0.27624(12) 0.2682(4)
O2 O 0.88585(12) -0.17832(12) 0.3707(3)
N1 N 0.81445(12) 0.18752(12) 0.4738(3)
N2 N 0.79924(14) -0.19580(14) 0.3337(3)
C1 C 0.9508(2) 0.59089(16) 0.6447(5)
H1 H 1.02000 0.59600 0.61110
H2 H 0.94340 0.60290 0.77730
H3 H 0.91320 0.64070 0.57580
C2 C 0.91301(18) 0.48545(16) 0.5975(4)
C3 C 0.82443(18) 0.47073(16) 0.5014(4)
H4 H 0.78720 0.52720 0.46490
C4 C 0.79013(16) 0.37472(14) 0.4585(4)
H5 H 0.73050 0.36700 0.39310
C5 C 0.84409(15) 0.28933(15) 0.5123(3)
C6 C 0.93294(15) 0.30283(16) 0.6048(4)
H6 H 0.97080 0.24640 0.63890
C7 C 0.96659(17) 0.39984(15) 0.6479(4)
H7 H 1.02660 0.40750 0.71200
C8 C 0.72335(15) 0.16318(16) 0.4758(4)
H8 H 0.67590 0.21280 0.50300
C9 C 0.69046(14) 0.05874(15) 0.4363(3)
C10 C 0.58959(15) 0.03421(18) 0.4323(5)
H9 H 0.54240 0.08470 0.45450
C11 C 0.55881(17) -0.06425(19) 0.3958(5)
H10 H 0.49110 -0.07940 0.39340
C12 C 0.62642(17) -0.13928(18) 0.3632(4)
H11 H 0.60570 -0.20560 0.33830
C13 C 0.72580(14) -0.11518(14) 0.3680(3)
C14 C 0.75947(16) -0.01843(13) 0.4046(3)
H12 H 0.82750 -0.00470 0.40820
#END
