
#######################################################################
#
#                 Cambridge Crystallographic Data Centre
#                                CCDC
#
#######################################################################
#
# If this CIF has been generated from an entry in the Cambridge
# Structural Database, then it will include bibliographic, chemical,
# crystal, experimental, refinement or atomic coordinate data resulting
# from the CCDC's data processing and validation procedures.
#
#######################################################################

data_CSD_CIF_KAVRUU
_audit_creation_date 2000-05-08
_audit_creation_method CSD-ConQuest-V1
_database_code_CSD KAVRUU
_database_code_depnum_ccdc_archive 'CCDC 105024; CCDC 408025'
_database_code_depnum_ccdc_fiz 'CSD 408025'
_chemical_formula_sum 'C17 H17 N1 O1'
_chemical_formula_moiety
;
C17 H17 N1 O1
;
_journal_coden_Cambridge 731
_journal_volume 36
_journal_year 1998
_journal_page_first 422
_journal_name_full 'Magn.Reson.Chem. '
loop_
_publ_author_name
"J.C.Matasyoh"
"U.Abram"
"P.Schuler"
"H.B.Stegmann"
_chemical_name_systematic
;
3,5-Diphenyl-5-methyl-pyrroline-1-oxide
;
_chemical_melting_point 361.15
_cell_volume   6157.907
_exptl_crystal_colour 'colorless'
_exptl_crystal_density_diffrn 1.22
_exptl_special_details
;
Melting point range 361.15-363.15K

;
_exptl_crystal_description 'block'
_exptl_crystal_preparation 'hexane'
_diffrn_ambient_temperature 203
#These two values have been output from a single CSD field.
_refine_ls_R_factor_gt 0.0403
_refine_ls_wR_factor_gt 0.0403
_symmetry_cell_setting rhombohedral
_symmetry_space_group_name_H-M 'R -3'
_symmetry_Int_Tables_number 148
loop_
_symmetry_equiv_pos_site_id
_symmetry_equiv_pos_as_xyz
1 x,y,z
2 -y,x-y,z
3 -x+y,-x,z
4 2/3+x,1/3+y,1/3+z
5 2/3-y,1/3+x-y,1/3+z
6 2/3-x+y,1/3-x,1/3+z
7 1/3+x,2/3+y,2/3+z
8 1/3-y,2/3+x-y,2/3+z
9 1/3-x+y,2/3-x,2/3+z
10 -x,-y,-z
11 y,-x+y,-z
12 x-y,x,-z
13 -2/3-x,-1/3-y,-1/3-z
14 -2/3+y,-1/3-x+y,-1/3-z
15 -2/3+x-y,-1/3+x,-1/3-z
16 -1/3-x,-2/3-y,-2/3-z
17 -1/3+y,-2/3-x+y,-2/3-z
18 -1/3+x-y,-2/3+x,-2/3-z
_cell_length_a 29.485(1)
_cell_length_b 29.485(1)
_cell_length_c 8.179(1)
_cell_angle_alpha 90
_cell_angle_beta 90
_cell_angle_gamma 120
_cell_formula_units_Z 18
loop_
_atom_type_symbol
_atom_type_radius_bond
C 0.68
H 0.23
N 0.68
O 0.68
loop_
_atom_site_label
_atom_site_type_symbol
_atom_site_fract_x
_atom_site_fract_y
_atom_site_fract_z
O1 O 0.49263(4) 0.08391(5) 0.9031(2)
N1 N 0.53995(5) 0.09316(5) 0.9220(2)
C1 C 0.56807(6) 0.10646(7) 1.0542(2)
C2 C 0.62138(6) 0.11425(6) 1.0264(2)
C3 C 0.61465(7) 0.08817(7) 0.8584(2)
C4 C 0.57100(6) 0.09345(6) 0.7748(2)
C5 C 0.53591(8) 0.04762(8) 0.6646(3)
C6 C 0.59221(6) 0.14609(6) 0.6887(2)
C7 C 0.62266(8) 0.15529(8) 0.5498(2)
C8 C 0.64439(9) 0.20245(8) 0.4690(3)
C9 C 0.63612(7) 0.24207(7) 0.5246(2)
C10 C 0.60572(7) 0.23361(7) 0.6616(2)
C11 C 0.58396(6) 0.18602(6) 0.7433(2)
C12 C 0.63981(6) 0.09277(6) 1.1623(2)
C13 C 0.68654(6) 0.12442(7) 1.2431(2)
C14 C 0.70258(7) 0.10538(8) 1.3718(2)
C15 C 0.67211(8) 0.05428(9) 1.4218(2)
C16 C 0.62592(8) 0.02203(8) 1.3414(3)
C17 C 0.60966(7) 0.04080(7) 1.2122(2)
H1 H 0.5538(8) 0.1113(7) 1.1600(23)
H2 H 0.6458(6) 0.1523(7) 1.0206(19)
H3 H 0.6017(6) 0.0498(7) 0.8763(19)
H4 H 0.6468(8) 0.1036(7) 0.7949(22)
H5 H 0.5222(8) 0.0145(8) 0.7266(24)
H6 H 0.5560(8) 0.0472(7) 0.5705(24)
H7 H 0.5062(9) 0.0513(9) 0.6234(26)
H8 H 0.6301(8) 0.1279(8) 0.5166(23)
H9 H 0.6659(8) 0.2081(8) 0.3727(27)
H10 H 0.6506(7) 0.2755(8) 0.4629(22)
H11 H 0.5999(8) 0.2626(8) 0.7042(24)
H12 H 0.5625(7) 0.1801(7) 0.8394(23)
H13 H 0.7076(7) 0.1602(7) 1.2089(21)
H14 H 0.7365(8) 0.1291(8) 1.4339(25)
H15 H 0.6839(9) 0.0402(9) 1.5186(28)
H16 H 0.6044(8) -0.0150(9) 1.3677(24)
H17 H 0.5765(8) 0.0170(7) 1.1517(23)
#END
