
#######################################################################
#
#                 Cambridge Crystallographic Data Centre
#                                CCDC
#
#######################################################################
#
# If this CIF has been generated from an entry in the Cambridge
# Structural Database, then it will include bibliographic, chemical,
# crystal, experimental, refinement or atomic coordinate data resulting
# from the CCDC's data processing and validation procedures.
#
#######################################################################

data_CSD_CIF_KAVTEG
_audit_creation_date 1990-04-21
_audit_creation_method CSD-ConQuest-V1
_database_code_CSD KAVTEG
_chemical_formula_sum 'C9 H13 N1 O5'
_chemical_formula_moiety
;
C9 H13 N1 O5
;
_journal_coeditor_code "IUCr GE0047"
_journal_coden_Cambridge 591
_journal_volume 45
_journal_year 1989
_journal_page_first 1838
_journal_name_full 'Acta Crystallogr.,Sect.C:Cryst.Struct.Commun. '
loop_
_publ_author_name
"K.Suwinska"
"I.Panfil"
"C.Belzecki"
"M.Chmielewski"
_chemical_name_systematic
;
(4S*,6R*)-(8-Oxo-3,9-dioxa-1-aza-4-bicyclo(4.3.0)nonanyl)methyl acetate
;
_cell_volume   2061.801
_exptl_crystal_density_diffrn 1.387
_diffrn_ambient_temperature ?
_diffrn_special_details
;
The study was carried out at room temperature,in the range 283-303K

;
#These two values have been output from a single CSD field.
_refine_ls_R_factor_gt 0.041
_refine_ls_wR_factor_gt 0.041
_symmetry_cell_setting monoclinic
_symmetry_space_group_name_H-M 'C 2/c'
_symmetry_Int_Tables_number 15
loop_
_symmetry_equiv_pos_site_id
_symmetry_equiv_pos_as_xyz
1 x,y,z
2 1/2+x,1/2+y,z
3 -x,y,1/2-z
4 1/2-x,1/2+y,1/2-z
5 -x,-y,-z
6 -1/2-x,-1/2-y,-z
7 x,-y,-1/2+z
8 -1/2+x,-1/2-y,-1/2+z
_cell_length_a 27.192(4)
_cell_length_b 5.714(2)
_cell_length_c 15.257(3)
_cell_angle_alpha 90
_cell_angle_beta 119.57(2)
_cell_angle_gamma 90
_cell_formula_units_Z 8
loop_
_atom_type_symbol
_atom_type_radius_bond
C 0.68
H 0.23
N 0.68
O 0.68
loop_
_atom_site_label
_atom_site_type_symbol
_atom_site_fract_x
_atom_site_fract_y
_atom_site_fract_z
N1 N 0.19055(7) 1.0902(4) 0.9112(1)
C1 C 0.1526(1) 0.9030(5) 0.9019(2)
O1 O 0.12931(7) 0.7755(3) 0.8111(1)
C2 C 0.09824(9) 0.9228(5) 0.7260(2)
C3 C 0.13847(9) 1.1017(5) 0.7219(2)
C4 C 0.1697(1) 1.2377(5) 0.8202(2)
C5 C 0.2249(1) 1.3392(5) 0.8365(2)
C6 C 0.2645(1) 1.1379(6) 0.8830(2)
O2 O 0.30999(7) 1.1032(5) 0.8912(1)
O3 O 0.24162(6) 0.9814(3) 0.9183(1)
C7 C 0.0733(1) 0.7707(5) 0.6335(2)
O4 O 0.03633(6) 0.5927(3) 0.6361(4)
C8 C -0.0180(1) 0.6490(5) 0.6004(2)
O5 O -0.03540(8) 0.8423(4) 0.5700(2)
C9 C -0.0517(1) 0.4543(5) 0.6066(2)
H1 H 0.12200 0.96900 0.90700
H2 H 0.17300 0.79600 0.95600
H3 H 0.06900 1.00300 0.73000
H4 H 0.11800 1.20600 0.66700
H5 H 0.16600 1.01900 0.71200
H6 H 0.14200 1.34900 0.81200
H7 H 0.23600 1.46900 0.88100
H8 H 0.22300 1.38600 0.77500
H9 H 0.10400 0.69700 0.63000
H10 H 0.05300 0.86500 0.57500
H11 H -0.08900 0.45800 0.55000
H12 H -0.05400 0.47000 0.66600
H13 H -0.03400 0.31000 0.60800
#END
