
#######################################################################
#
#                 Cambridge Crystallographic Data Centre
#                                CCDC
#
#######################################################################
#
# If this CIF has been generated from an entry in the Cambridge
# Structural Database, then it will include bibliographic, chemical,
# crystal, experimental, refinement or atomic coordinate data resulting
# from the CCDC's data processing and validation procedures.
#
#######################################################################

data_CSD_CIF_KAVTAC
_audit_creation_date 1990-04-21
_audit_creation_method CSD-ConQuest-V1
_database_code_CSD KAVTAC
_chemical_formula_sum 'C10 H13 N1 O6'
_chemical_formula_moiety
;
C10 H13 N1 O6
;
_journal_coeditor_code "IUCr GE0040"
_journal_coden_Cambridge 591
_journal_volume 45
_journal_year 1989
_journal_page_first 1836
_journal_name_full 'Acta Crystallogr.,Sect.C:Cryst.Struct.Commun. '
loop_
_publ_author_name
"K.Suwinska"
"I.Panfil"
"C.Belzecki"
"M.Chmielewski"
_chemical_name_systematic
;
(3R,6R,7R,11S)-7-Acetoxymethyl-5,8,10-trioxa-1-azatricyclo(4.3.2.0^3,11^)undec
an-4-one
;
_cell_volume    533.615
_exptl_crystal_density_diffrn 1.514
_diffrn_ambient_temperature ?
_diffrn_special_details
;
The study was carried out at room temperature,in the range 283-303K

;
#These two values have been output from a single CSD field.
_refine_ls_R_factor_gt 0.046
_refine_ls_wR_factor_gt 0.046
_symmetry_cell_setting monoclinic
_symmetry_space_group_name_H-M 'P 21'
_symmetry_Int_Tables_number 4
loop_
_symmetry_equiv_pos_site_id
_symmetry_equiv_pos_as_xyz
1 x,y,z
2 -x,1/2+y,-z
_cell_length_a 5.558(2)
_cell_length_b 8.119(4)
_cell_length_c 11.947(4)
_cell_angle_alpha 90
_cell_angle_beta 98.19(2)
_cell_angle_gamma 90
_cell_formula_units_Z 2
loop_
_atom_type_symbol
_atom_type_radius_bond
C 0.68
H 0.23
N 0.68
O 0.68
loop_
_atom_site_label
_atom_site_type_symbol
_atom_site_fract_x
_atom_site_fract_y
_atom_site_fract_z
C1 C 0.6743(7) 0.9188(6) 0.3037(3)
O1 O 0.8225(5) 0.77400 0.2927(2)
C2 C 0.8373(8) 0.7438(6) 0.1829(4)
O2 O 0.9739(7) 0.6432(5) 0.1555(3)
C3 C 0.6521(8) 0.8443(6) 0.1072(3)
C4 C 0.7581(8) 0.9748(7) 0.0362(3)
N1 N 0.7212(6) 1.1351(5) 0.0881(3)
C5 C 0.9187(8) 1.1937(6) 0.1696(3)
O3 O 1.0055(4) 1.0827(4) 0.2582(2)
C6 C 0.8402(7) 1.0615(5) 0.3399(3)
C7 C 0.5205(7) 0.9435(6) 0.1868(3)
O4 O 0.5115(5) 1.1094(4) 0.1457(2)
C8 C 1.0061(7) 1.0343(6) 0.4516(3)
O5 O 0.8813(5) 0.9580(4) 0.5371(2)
C9 C 0.7069(7) 1.0491(5) 0.5764(3)
O6 O 0.6515(5) 1.1839(4) 0.5423(2)
C10 C 0.5975(8) 0.9573(7) 0.6648(3)
H1 H 0.57100 0.90700 0.36000
H2 H 0.55800 0.77000 0.05700
H3 H 0.67800 0.97200 -0.04000
H4 H 0.92700 0.95500 0.03700
H5 H 0.86700 1.29200 0.20300
H6 H 1.05100 1.21800 0.13000
H7 H 0.73300 1.15100 0.34700
H8 H 0.35700 0.91400 0.19200
H9 H 1.06900 1.13800 0.47900
H10 H 1.13600 0.96500 0.43800
H11 H 0.67600 0.85300 0.67600
H12 H 0.42900 0.94100 0.64100
H13 H 0.62000 1.01800 0.73400
#END
