
#######################################################################
#
#                 Cambridge Crystallographic Data Centre
#                                CCDC
#
#######################################################################
#
# If this CIF has been generated from an entry in the Cambridge
# Structural Database, then it will include bibliographic, chemical,
# crystal, experimental, refinement or atomic coordinate data resulting
# from the CCDC's data processing and validation procedures.
#
#######################################################################

data_CSD_CIF_KAWQAD
_audit_creation_date 2017-07-24
_audit_creation_method CSD-ConQuest-V1
_database_code_CSD KAWQAD
_database_code_depnum_ccdc_archive 'CCDC 1471763'
_chemical_formula_sum 'C19 H14 N2 O5'
_chemical_formula_moiety
;
C19 H14 N2 O5
;
_journal_coden_Cambridge 1291
_journal_year 2017
_journal_page_first 3461
_journal_name_full 'Eur.J.Org.Chem. '
loop_
_publ_author_name
"P.Ramaraju"
"N.A.Mir"
"Deepika Singh"
"P.Sharma"
"R.Kant"
"I.Kumar"
_chemical_name_systematic
;
1-(4-methoxyphenyl)-5-(4-nitrophenyl)-1H-pyrrole-2,4-dicarbaldehyde
;
_cell_volume   1711.774
_exptl_crystal_colour 'yellow'
_exptl_crystal_density_diffrn 1.359
_exptl_crystal_description 'rectangular'
_diffrn_ambient_temperature 293
#These two values have been output from a single CSD field.
_refine_ls_R_factor_gt 0.0646
_refine_ls_wR_factor_gt 0.0646
_symmetry_cell_setting monoclinic
_symmetry_space_group_name_H-M 'P 21/c'
_symmetry_Int_Tables_number 14
loop_
_symmetry_equiv_pos_site_id
_symmetry_equiv_pos_as_xyz
1 x,y,z
2 -x,1/2+y,1/2-z
3 -x,-y,-z
4 x,-1/2-y,-1/2+z
_cell_length_a 14.7166(13)
_cell_length_b 9.0200(6)
_cell_length_c 13.3616(11)
_cell_angle_alpha 90
_cell_angle_beta 105.181(9)
_cell_angle_gamma 90
_cell_formula_units_Z 4
loop_
_atom_type_symbol
_atom_type_radius_bond
C 0.68
H 0.23
N 0.68
O 0.68
loop_
_atom_site_label
_atom_site_type_symbol
_atom_site_fract_x
_atom_site_fract_y
_atom_site_fract_z
O1 O -0.00127(16) 0.3456(3) 0.33371(18)
O2 O 0.0747(3) -0.1914(4) -0.0521(3)
O3 O 0.1164(2) -0.3864(4) 0.0385(3)
O4 O 0.5178(2) 0.3830(3) 0.59586(18)
O5 O 0.63066(17) -0.0672(3) 0.34794(18)
N1 N 0.1249(3) -0.2558(5) 0.0215(3)
N2 N 0.37071(19) 0.1841(3) 0.3795(2)
C1 C 0.4522(2) 0.2351(4) 0.4506(2)
C2 C 0.5267(2) 0.1565(4) 0.4349(2)
H1 H 0.58940 0.16760 0.47150
C3 C 0.4919(2) 0.0562(4) 0.3536(2)
C4 C 0.3954(2) 0.0757(4) 0.3211(2)
C5 C 0.3256(2) -0.0090(4) 0.2418(2)
C6 C 0.3205(3) -0.1611(4) 0.2496(3)
H2 H 0.36110 -0.20950 0.30510
C7 C 0.2564(3) -0.2426(4) 0.1772(3)
H3 H 0.25370 -0.34520 0.18290
C8 C 0.1967(3) -0.1697(4) 0.0963(3)
C9 C 0.2007(3) -0.0201(4) 0.0845(3)
H4 H 0.16000 0.02690 0.02840
C10 C 0.2661(2) 0.0606(4) 0.1570(2)
H5 H 0.27020 0.16260 0.14890
C11 C 0.2762(2) 0.2339(4) 0.3717(2)
C12 C 0.2222(2) 0.1618(3) 0.4259(2)
H6 H 0.24770 0.08470 0.47060
C13 C 0.1300(2) 0.2043(4) 0.4135(2)
H7 H 0.09340 0.15720 0.45120
C14 C 0.0918(2) 0.3168(4) 0.3453(2)
C15 C 0.1468(3) 0.3910(4) 0.2940(3)
H8 H 0.12220 0.46950 0.25010
C16 C 0.2387(3) 0.3485(4) 0.3079(3)
H9 H 0.27620 0.39890 0.27300
C17 C -0.0440(3) 0.4548(5) 0.2583(3)
H10 H -0.02190 0.55150 0.28330
H11 H -0.11120 0.45070 0.24640
H12 H -0.02760 0.43540 0.19450
C18 C 0.4500(3) 0.3475(4) 0.5268(3)
H13 H 0.39320 0.39550 0.52260
C19 C 0.5467(2) -0.0472(4) 0.3120(3)
H14 H 0.51610 -0.10210 0.25400
#END
