
#######################################################################
#
#                 Cambridge Crystallographic Data Centre
#                                CCDC
#
#######################################################################
#
# If this CIF has been generated from an entry in the Cambridge
# Structural Database, then it will include bibliographic, chemical,
# crystal, experimental, refinement or atomic coordinate data resulting
# from the CCDC's data processing and validation procedures.
#
#######################################################################

data_CSD_CIF_KAWTEK
_audit_creation_date 2017-07-24
_audit_creation_method CSD-ConQuest-V1
_database_code_CSD KAWTEK
_database_code_depnum_ccdc_archive 'CCDC 1531419'
_chemical_formula_sum 'C4 H2 N6 O9'
_chemical_formula_moiety
;
C4 H2 N6 O9
;
_journal_coden_Cambridge 4
_journal_volume 139
_journal_year 2017
_journal_page_first 8816
_journal_name_full 'J.Am.Chem.Soc. '
loop_
_publ_author_name
"Qiong Yu"
"Ping Yin"
"Jiaheng Zhang"
"Chunlin He"
"G.H.Imler"
"D.A.Parrish"
"J.M.Shreeve"
_chemical_name_systematic
;
2,5-bis(dinitromethyl)-1,3,4-oxadiazole
;
_cell_volume    930.493
_exptl_crystal_colour 'colorless'
_exptl_crystal_density_diffrn 1.985
_exptl_crystal_description 'needle'
_diffrn_ambient_temperature 150
#These two values have been output from a single CSD field.
_refine_ls_R_factor_gt 0.0235
_refine_ls_wR_factor_gt 0.0235
_symmetry_cell_setting orthorhombic
_symmetry_space_group_name_H-M 'P 21 21 21'
_symmetry_Int_Tables_number 19
loop_
_symmetry_equiv_pos_site_id
_symmetry_equiv_pos_as_xyz
1 x,y,z
2 1/2-x,-y,1/2+z
3 -x,1/2+y,1/2-z
4 1/2+x,1/2-y,-z
_cell_length_a 4.9142(1)
_cell_length_b 10.5346(2)
_cell_length_c 17.9739(4)
_cell_angle_alpha 90
_cell_angle_beta 90
_cell_angle_gamma 90
_cell_formula_units_Z 4
loop_
_atom_type_symbol
_atom_type_radius_bond
C 0.68
H 0.23
N 0.68
O 0.68
loop_
_atom_site_label
_atom_site_type_symbol
_atom_site_fract_x
_atom_site_fract_y
_atom_site_fract_z
O1 O 0.8113(3) 0.08917(13) 0.68855(8)
O2 O 0.4864(3) 0.07272(13) 0.76979(8)
N1 N 0.6461(3) 0.13219(14) 0.73157(8)
C1 C 0.6327(3) 0.27509(17) 0.74173(9)
H1 H 0.43830 0.30290 0.74440
N2 N 0.7731(3) 0.30235(14) 0.81523(8)
O3 O 0.9770(3) 0.24194(15) 0.82908(8)
O4 O 0.6684(3) 0.38359(14) 0.85338(7)
C2 C 0.7747(4) 0.34521(15) 0.68114(10)
N3 N 1.0204(3) 0.38772(14) 0.67908(9)
N4 N 1.0426(3) 0.45155(14) 0.61075(9)
C3 C 0.8078(4) 0.43954(15) 0.57957(9)
O5 O 0.6253(2) 0.37374(12) 0.62049(6)
C4 C 0.7303(4) 0.48795(16) 0.5050(1)
H2 H 0.89150 0.53160 0.48270
N5 N 0.4977(3) 0.58283(14) 0.51008(9)
O6 O 0.3253(3) 0.58078(13) 0.46151(8)
O7 O 0.5151(3) 0.65710(13) 0.56128(9)
N6 N 0.6474(3) 0.37984(14) 0.45441(8)
O8 O 0.4386(3) 0.32316(13) 0.47015(8)
O9 O 0.8016(3) 0.35583(12) 0.40365(7)
#END
