
#######################################################################
#
#                 Cambridge Crystallographic Data Centre
#                                CCDC
#
#######################################################################
#
# If this CIF has been generated from an entry in the Cambridge
# Structural Database, then it will include bibliographic, chemical,
# crystal, experimental, refinement or atomic coordinate data resulting
# from the CCDC's data processing and validation procedures.
#
#######################################################################

data_CSD_CIF_KAXFUL
_audit_creation_date 2006-02-03
_audit_creation_method CSD-ConQuest-V1
_database_code_CSD KAXFUL
_database_code_depnum_ccdc_archive 'CCDC 282919'
_chemical_formula_sum 'C11 H9 N3 O9'
_chemical_formula_moiety
;
C11 H9 N3 O9
;
_journal_coden_Cambridge 1078
_journal_year 2005
_journal_name_full 'CSD Communication(Private Communication) '
loop_
_publ_author_name
"J.C.Barnes"
"J.A.Chudek"
_chemical_name_systematic
;
Methyl 2-(2',4',6'-trinitrophenyl)acetylacetate
;
_cell_volume   1374.104
_exptl_crystal_colour 'orange'
_exptl_crystal_density_diffrn 1.582
_exptl_special_details
;
contribution from Carnelly Building, Faculty of Life Sciences, University of 
Dundee, Perth Road, Dundee DD1 4HN, Scotland
;
_exptl_crystal_description 'block'
_exptl_crystal_preparation 'methanol'
_diffrn_ambient_temperature 120
_refine_special_details
;
One oxygen was refined over two sites with occupancies 0.576:0.424; the major 
occupancy completes the expected nitro-group, but the minor occupancy 
resolved as part of a nitroso group. Only the major occupancy is shown in the 
2D diagram, details of the authors' findings are given in the cif.
;
#These two values have been output from a single CSD field.
_refine_ls_R_factor_gt 0.0624
_refine_ls_wR_factor_gt 0.0624
_symmetry_cell_setting monoclinic
_symmetry_space_group_name_H-M 'P 21/n'
_symmetry_Int_Tables_number 14
loop_
_symmetry_equiv_pos_site_id
_symmetry_equiv_pos_as_xyz
1 x,y,z
2 1/2-x,1/2+y,1/2-z
3 -x,-y,-z
4 -1/2+x,-1/2-y,-1/2+z
_cell_length_a 12.7844(2)
_cell_length_b 7.6875(2)
_cell_length_c 14.7081(4)
_cell_angle_alpha 90
_cell_angle_beta 108.0845(9)
_cell_angle_gamma 90
_cell_formula_units_Z 4
loop_
_atom_type_symbol
_atom_type_radius_bond
C 0.68
H 0.23
N 0.68
O 0.68
loop_
_atom_site_label
_atom_site_type_symbol
_atom_site_fract_x
_atom_site_fract_y
_atom_site_fract_z
C1 C 0.21131(17) 0.7731(3) 0.47695(15)
C2 C 0.31748(17) 0.8345(3) 0.52119(14)
C3 C 0.35188(17) 0.9211(3) 0.60736(15)
H1 H 0.42550 0.96040 0.63410
C4 C 0.27363(19) 0.9475(3) 0.65277(15)
C5 C 0.16615(19) 0.8950(3) 0.61434(16)
H2 H 0.11340 0.91700 0.64640
C6 C 0.13735(18) 0.8094(3) 0.52777(17)
C7 C 0.2650(2) 0.3992(4) 0.45921(19)
H3 H 0.27480 0.28240 0.43640
H4 H 0.22000 0.39210 0.50220
H5 H 0.33710 0.44850 0.49370
C8 C 0.21004(17) 0.5105(3) 0.37747(17)
C9 C 0.18369(17) 0.6812(3) 0.38324(15)
H6 H 0.25570 0.71740 0.37570
C10 C 0.12501(17) 0.7773(3) 0.29757(16)
O1 O 0.10685(14) 0.9427(2) 0.31399(13)
C11 C 0.0490(2) 1.0444(4) 0.2322(2)
H7 H 0.04030 1.16360 0.25230
H8 H -0.02370 0.99320 0.20170
H9 H 0.09080 1.04600 0.18650
O2 O 0.18628(14) 0.4299(2) 0.29270(13)
O3 O 0.09404(14) 0.7117(2) 0.21683(11)
N1 N 0.40027(14) 0.8109(3) 0.47106(13)
N2 N 0.30707(18) 1.0334(3) 0.74713(14)
O4 O 0.40807(17) 0.9260(3) 0.41719(14)
O5 O 0.45613(15) 0.6793(3) 0.48919(16)
O6 O 0.39905(16) 1.0961(3) 0.77547(13)
O7 O 0.24087(18) 1.0347(3) 0.79210(14)
O8 O -0.04207(14) 0.8128(3) 0.52824(16)
N3 N 0.0207(2) 0.7595(5) 0.48937(19)
O9 O -0.0221(2) 0.7391(5) 0.3990(2)
O10? O 0.0132(4) 0.5836(7) 0.4593(4)
#END
