
#######################################################################
#
#                 Cambridge Crystallographic Data Centre
#                                CCDC
#
#######################################################################
#
# If this CIF has been generated from an entry in the Cambridge
# Structural Database, then it will include bibliographic, chemical,
# crystal, experimental, refinement or atomic coordinate data resulting
# from the CCDC's data processing and validation procedures.
#
#######################################################################

data_CSD_CIF_KAXHAS
_audit_creation_date 1990-07-26
_audit_creation_method CSD-ConQuest-V1
_database_code_CSD KAXHAS
_database_code_depnum_ccdc_archive 'CCDC 1193538'
_chemical_formula_sum 'C13 H16 N3 O4'
_chemical_formula_moiety
;
C13 H16 N3 O4
;
_journal_coden_Cambridge 182
_journal_year 1989
_journal_page_first 1617
_journal_name_full 'Chem.Commun. '
loop_
_publ_author_name
"K.Awaga"
"T.Inabe"
"U.Nagashima"
"Y.Maruyama"
_chemical_name_systematic
;
2-(4-Nitrophenyl)-4,4,5,5-tetramethyl-4,5-dihydro-1H-imidazol-1-oxyl 3-N-oxide
;
_cell_volume   2618.502
_exptl_crystal_colour 'green-black'
_exptl_special_details
;
orthorhombic beta polymorph

;
_diffrn_ambient_temperature ?
_diffrn_special_details
;
The study was carried out at room temperature,in the range 283-303K

;
#These two values have been output from a single CSD field.
_refine_ls_R_factor_gt 0.0412
_refine_ls_wR_factor_gt 0.0412
_symmetry_cell_setting orthorhombic
_symmetry_space_group_name_H-M 'F d d 2'
_symmetry_Int_Tables_number 43
loop_
_symmetry_equiv_pos_site_id
_symmetry_equiv_pos_as_xyz
1 x,y,z
2 x,1/2+y,1/2+z
3 1/2+x,y,1/2+z
4 1/2+x,1/2+y,z
5 1/4-x,1/4+y,1/4+z
6 1/4-x,3/4+y,3/4+z
7 3/4-x,1/4+y,3/4+z
8 3/4-x,3/4+y,1/4+z
9 1/4+x,1/4-y,1/4+z
10 1/4+x,3/4-y,3/4+z
11 3/4+x,1/4-y,3/4+z
12 3/4+x,3/4-y,1/4+z
13 1/2-x,-y,1/2+z
14 1/2-x,1/2-y,z
15 -x,-y,z
16 -x,1/2-y,1/2+z
_cell_length_a 10.960(3)
_cell_length_b 19.350(3)
_cell_length_c 12.347(5)
_cell_angle_alpha 90
_cell_angle_beta 90
_cell_angle_gamma 90
_cell_formula_units_Z 8
loop_
_atom_type_symbol
_atom_type_radius_bond
C 0.68
H 0.23
N 0.68
O 0.68
loop_
_atom_site_label
_atom_site_type_symbol
_atom_site_fract_x
_atom_site_fract_y
_atom_site_fract_z
N1 N 0.1556(3) 0.2306(2) 0.1779(3)
O1 O 0.0501(3) 0.2131(2) 0.2110(3)
C1 C 0.25000 0.25000 0.2413(5)
C2 C 0.1924(4) 0.2259(2) 0.0614(4)
C3 C 0.2214(4) 0.1504(2) 0.0395(4)
C4 C 0.0881(4) 0.2511(3) -0.0094(4)
C5 C 0.25000 0.25000 0.3614(4)
C6 C 0.2080(4) 0.1922(2) 0.4157(4)
C7 C 0.2106(4) 0.1909(2) 0.5287(3)
C8 C 0.25000 0.25000 0.5818(5)
N2 N 0.25000 0.25000 0.7005(4)
O2 O 0.2590(4) 0.3049(2) 0.7476(3)
H1 H 0.168(4) 0.147(2) 0.372(3)
H2 H 0.181(3) 0.152(2) 0.572(3)
H3 H 0.290(4) 0.135(2) 0.082(4)
H4 H 0.250(4) 0.145(2) -0.041(4)
H5 H 0.143(5) 0.122(3) 0.065(5)
H6 H 0.057(4) 0.300(2) 0.010(3)
H7 H 0.023(4) 0.223(2) -0.010(4)
H8 H 0.100(5) 0.254(3) -0.077(5)
N1M N 0.3444(3) 0.2694(2) 0.1779(3)
C2M C 0.3076(4) 0.2741(2) 0.0614(4)
C6M C 0.2920(4) 0.3078(2) 0.4157(4)
C7M C 0.2894(4) 0.3091(2) 0.5287(3)
O2M O 0.2410(4) 0.1951(2) 0.7476(3)
O1M O 0.4499(3) 0.2869(2) 0.2110(3)
C3M C 0.2786(4) 0.3496(2) 0.0395(4)
C4M C 0.4119(4) 0.2489(3) -0.0094(4)
H1M H 0.332(4) 0.353(2) 0.372(3)
H2M H 0.319(3) 0.348(2) 0.572(3)
H3M H 0.210(4) 0.365(2) 0.082(4)
H4M H 0.250(4) 0.355(2) -0.041(4)
H5M H 0.357(5) 0.378(3) 0.065(5)
H6M H 0.443(4) 0.200(2) 0.010(3)
H7M H 0.477(4) 0.277(2) -0.010(4)
H8M H 0.400(5) 0.246(3) -0.077(5)
#END
