
#######################################################################
#
#                 Cambridge Crystallographic Data Centre
#                                CCDC
#
#######################################################################
#
# If this CIF has been generated from an entry in the Cambridge
# Structural Database, then it will include bibliographic, chemical,
# crystal, experimental, refinement or atomic coordinate data resulting
# from the CCDC's data processing and validation procedures.
#
#######################################################################

data_CSD_CIF_KAXJUO
_audit_creation_date 1990-05-24
_audit_creation_method CSD-ConQuest-V1
_database_code_CSD KAXJUO
_chemical_formula_sum 'C19 H15 N3 O2'
_chemical_formula_moiety
;
C19 H15 N3 O2
;
_journal_coden_Cambridge 423
_journal_volume 308
_journal_year 1989
_journal_page_first 2364
_journal_name_full 'J.Chem.Res. '
loop_
_publ_author_name
"P.Caramella"
"V.Bertolasi"
"S.Forte"
"R.De Franco"
"T.Bandiera"
"F.M.Albini"
_chemical_name_systematic
;
(3a\a,5a\b,9a\a)-3a,9a-Dihydro-3,8-diphenyl-5aH-isoxazolo(4,5-e)(1,2,4)oxadiaz
olo(4,5-a)pyridine
;
_chemical_melting_point 446.15
_cell_volume   1633.481
_exptl_crystal_colour 'colorless'
_exptl_crystal_density_diffrn 1.29
_exptl_special_details
;
Melting point range 446.15-447.15K

;
_diffrn_ambient_temperature ?
_diffrn_special_details
;
The study was carried out at room temperature,in the range 283-303K

;
#These two values have been output from a single CSD field.
_refine_ls_R_factor_gt 0.044
_refine_ls_wR_factor_gt 0.044
_symmetry_cell_setting monoclinic
_symmetry_space_group_name_H-M 'P 21/c'
_symmetry_Int_Tables_number 14
loop_
_symmetry_equiv_pos_site_id
_symmetry_equiv_pos_as_xyz
1 x,y,z
2 -x,1/2+y,1/2-z
3 -x,-y,-z
4 x,-1/2-y,-1/2+z
_cell_length_a 13.216(3)
_cell_length_b 11.052(3)
_cell_length_c 11.630(3)
_cell_angle_alpha 90
_cell_angle_beta 105.93(2)
_cell_angle_gamma 90
_cell_formula_units_Z 4
loop_
_atom_type_symbol
_atom_type_radius_bond
C 0.68
H 0.23
N 0.68
O 0.68
loop_
_atom_site_label
_atom_site_type_symbol
_atom_site_fract_x
_atom_site_fract_y
_atom_site_fract_z
O1 O 0.5335(1) 0.5517(2) 0.3267(2)
O2 O 0.6777(1) 0.1929(2) 0.4552(2)
N1 N 0.5702(2) 0.3570(2) 0.3749(2)
N2 N 0.4427(2) 0.4943(2) 0.3483(2)
N3 N 0.7649(2) 0.1390(2) 0.4297(2)
C1 C 0.6211(2) 0.4720(2) 0.3704(2)
C2 C 0.6900(2) 0.4726(2) 0.2893(2)
C3 C 0.7148(2) 0.3746(2) 0.2400(2)
C4 C 0.6782(2) 0.2501(2) 0.2596(2)
C5 C 0.6086(2) 0.2453(2) 0.3449(2)
C6 C 0.4677(2) 0.3829(2) 0.3705(2)
C7 C 0.3933(2) 0.2969(2) 0.3984(2)
C8 C 0.2866(2) 0.3135(3) 0.3499(3)
C9 C 0.2161(2) 0.2391(4) 0.3849(4)
C10 C 0.2517(3) 0.1486(3) 0.4655(4)
C11 C 0.3564(3) 0.1302(3) 0.5131(3)
C12 C 0.4280(2) 0.2038(3) 0.4798(2)
C13 C 0.7661(2) 0.1666(2) 0.3229(2)
C14 C 0.8487(2) 0.1182(3) 0.2742(9)
C15 C 0.8488(3) 0.1411(3) 0.1584(3)
C16 C 0.9260(3) 0.0927(5) 0.1131(3)
C17 C 1.0020(3) 0.0208(4) 0.1807(4)
C18 C 1.0017(3) -0.0046(4) 0.2953(4)
C19 C 0.9264(2) 0.0435(3) 0.3420(3)
H1 H 0.500(2) 0.189(2) 0.508(2)
H2 H 0.381(2) 0.074(3) 0.565(3)
H3 H 0.641(2) 0.215(2) 0.186(2)
H4 H 0.550(1) 0.190(2) 0.320(2)
H5 H 0.656(2) 0.500(2) 0.448(2)
H6 H 0.758(2) 0.378(2) 0.191(2)
H7 H 0.711(2) 0.552(2) 0.274(2)
H8 H 0.199(2) 0.096(3) 0.484(3)
H9 H 0.142(2) 0.257(3) 0.346(3)
H10 H 0.801(2) 0.191(2) 0.113(2)
H11 H 0.263(2) 0.377(2) 0.291(3)
H12 H 1.053(2) -0.058(3) 0.341(3)
H13 H 0.928(3) 0.118(3) 0.040(3)
H14 H 1.054(3) -0.008(4) 0.153(4)
H15 H 0.927(3) 0.025(3) 0.429(4)
#END
