
#######################################################################
#
#                 Cambridge Crystallographic Data Centre
#                                CCDC
#
#######################################################################
#
# If this CIF has been generated from an entry in the Cambridge
# Structural Database, then it will include bibliographic, chemical,
# crystal, experimental, refinement or atomic coordinate data resulting
# from the CCDC's data processing and validation procedures.
#
#######################################################################

data_CSD_CIF_KAXWEM
_audit_creation_date 2006-02-03
_audit_creation_method CSD-ConQuest-V1
_database_code_CSD KAXWEM
_database_code_depnum_ccdc_archive 'CCDC 241975'
_chemical_formula_sum 'C15 H24 N2 O7'
_chemical_formula_moiety
;
C15 H24 N2 O7
;
_journal_coden_Cambridge 151
_journal_volume 47
_journal_year 2004
_journal_page_first 6740
_journal_name_full 'J.Med.Chem. '
loop_
_publ_author_name
"P.Conti"
"M.De Amici"
"G.Grazioso"
"G.Roda"
"F.F.B.Negra"
"B.Nielsen"
"T.B.Stensbol"
"U.Madsen"
"H.Brauner-Osborne"
"K.Frydenvang"
"G.De Sarro"
"L.Toma"
"C.De Micheli"
_chemical_name_systematic
;
Ethyl 
(5R*,2'R*)-5-(2-(t-butoxycarbonylamino)-2-(methoxycarbonyl)ethyl)-4,5-dihydroi
soxazole-3-carboxylate
;
_chemical_melting_point 367.65
_cell_volume   3590.820
_exptl_crystal_colour 'colorless'
_exptl_crystal_density_diffrn 1.274
_exptl_crystal_description 'prism'
_exptl_crystal_preparation 'di-isopropyl ether'
_diffrn_ambient_temperature 122
#These two values have been output from a single CSD field.
_refine_ls_R_factor_gt 0.0481
_refine_ls_wR_factor_gt 0.0481
_symmetry_cell_setting orthorhombic
_symmetry_space_group_name_H-M 'P b c a'
_symmetry_Int_Tables_number 61
loop_
_symmetry_equiv_pos_site_id
_symmetry_equiv_pos_as_xyz
1 x,y,z
2 1/2-x,-y,1/2+z
3 1/2+x,1/2-y,-z
4 -x,1/2+y,1/2-z
5 -x,-y,-z
6 -1/2+x,y,-1/2-z
7 -1/2-x,-1/2+y,z
8 x,-1/2-y,-1/2+z
_cell_length_a 11.721(2)
_cell_length_b 9.682(2)
_cell_length_c 31.642(5)
_cell_angle_alpha 90
_cell_angle_beta 90
_cell_angle_gamma 90
_cell_formula_units_Z 8
loop_
_atom_type_symbol
_atom_type_radius_bond
C 0.68
H 0.23
N 0.68
O 0.68
loop_
_atom_site_label
_atom_site_type_symbol
_atom_site_fract_x
_atom_site_fract_y
_atom_site_fract_z
O1 O 0.34641(11) 0.05418(13) 0.46420(4)
N1 N 0.36874(13) 0.04156(17) 0.50757(5)
C1 C 0.37419(15) -0.0864(2) 0.51692(6)
C2 C 0.3554(2) -0.1839(2) 0.48120(6)
H1 H 0.4231(18) -0.235(2) 0.4752(6)
H2 H 0.2940(18) -0.249(2) 0.4872(6)
C3 C 0.32461(17) -0.08355(19) 0.44589(6)
H3 H 0.3764(17) -0.091(2) 0.4217(6)
C4 C 0.20108(16) -0.0885(2) 0.43173(6)
H4 H 0.1511(17) -0.076(2) 0.4562(6)
H5 H 0.1851(16) -0.178(2) 0.4200(6)
C5 C 0.17359(16) 0.02396(19) 0.39925(5)
H6 H 0.1897(16) 0.113(2) 0.4110(6)
C6 C 0.04681(16) 0.0266(2) 0.38912(6)
O2 O 0.00277(12) -0.02225(16) 0.35857(4)
O3 O -0.00910(12) 0.09227(15) 0.42007(4)
C7 C -0.13213(18) 0.0971(3) 0.41604(8)
H7 H -0.15250 0.12690 0.38740
H8 H -0.16330 0.16270 0.43660
H9 H -0.16390 0.00510 0.42130
N2 N 0.24120(14) 0.00628(16) 0.36148(5)
H10 H 0.2567(17) -0.072(2) 0.3530(6)
C8 C 0.24655(16) 0.11047(18) 0.33323(5)
O4 O 0.20718(11) 0.22507(12) 0.33984(4)
O5 O 0.30235(11) 0.07050(12) 0.29827(4)
C9 C 0.31593(17) 0.16574(19) 0.26200(6)
C10 C 0.3763(2) 0.0774(2) 0.22951(6)
H11 H 0.44650 0.03990 0.24180
H12 H 0.39510 0.13380 0.20480
H13 H 0.32620 0.00120 0.22100
C11 C 0.19927(18) 0.2076(2) 0.24589(7)
H14 H 0.15200 0.12500 0.24210
H15 H 0.20740 0.25550 0.21880
H16 H 0.16290 0.26940 0.26640
C12 C 0.38959(17) 0.2875(2) 0.27470(6)
H17 H 0.34760 0.34580 0.29470
H18 H 0.40920 0.34150 0.24950
H19 H 0.45960 0.25380 0.28810
C13 C 0.40551(16) -0.1339(2) 0.55995(6)
O6 O 0.42233(13) -0.25378(15) 0.56762(5)
O7 O 0.41187(11) -0.03116(15) 0.58795(4)
C14 C 0.4464(2) -0.0715(3) 0.63049(6)
H20 H 0.525(2) -0.108(2) 0.6286(7)
H21 H 0.394(2) -0.144(2) 0.6400(7)
C15 C 0.4428(2) 0.0562(3) 0.65696(7)
H22 H 0.49330 0.12620 0.64470
H23 H 0.46820 0.03440 0.68570
H24 H 0.36460 0.09180 0.65780
#END
