
#######################################################################
#
#                 Cambridge Crystallographic Data Centre
#                                CCDC
#
#######################################################################
#
# If this CIF has been generated from an entry in the Cambridge
# Structural Database, then it will include bibliographic, chemical,
# crystal, experimental, refinement or atomic coordinate data resulting
# from the CCDC's data processing and validation procedures.
#
#######################################################################

data_CSD_CIF_KAYRIN
_audit_creation_date 2012-09-26
_audit_creation_method CSD-ConQuest-V1
_database_code_CSD KAYRIN
_database_code_depnum_ccdc_archive 'CCDC 775688'
_chemical_formula_sum 'C19 H21 N2 O3'
_chemical_formula_moiety
;
C19 H21 N2 O3
;
_journal_coden_Cambridge 211
_journal_volume 65
_journal_year 2012
_journal_page_first 2683
_journal_name_full 'J.Coord.Chem. '
loop_
_publ_author_name
"Xiang Yang Qin"
"Gang Xiong"
"DaiZheng Liao"
"Yue Ma"
"Peng Gao"
"Xiao Li Sun"
"Peng Liu"
_chemical_name_systematic
;
3-(1-Phenoxybenzene)-4,4,5,5-tetramethylimidazoline-1-oxyl-3-oxide
;
_cell_volume   1695.417
_exptl_crystal_density_diffrn 1.275
_diffrn_ambient_temperature 296
#These two values have been output from a single CSD field.
_refine_ls_R_factor_gt 0.05
_refine_ls_wR_factor_gt 0.05
_symmetry_cell_setting monoclinic
_symmetry_space_group_name_H-M 'P 21/n'
_symmetry_Int_Tables_number 14
loop_
_symmetry_equiv_pos_site_id
_symmetry_equiv_pos_as_xyz
1 x,y,z
2 1/2-x,1/2+y,1/2-z
3 -x,-y,-z
4 -1/2+x,-1/2-y,-1/2+z
_cell_length_a 6.0247(10)
_cell_length_b 11.7151(19)
_cell_length_c 24.080(4)
_cell_angle_alpha 90
_cell_angle_beta 94.004(3)
_cell_angle_gamma 90
_cell_formula_units_Z 4
loop_
_atom_type_symbol
_atom_type_radius_bond
C 0.68
H 0.23
N 0.68
O 0.68
loop_
_atom_site_label
_atom_site_type_symbol
_atom_site_fract_x
_atom_site_fract_y
_atom_site_fract_z
N1 N 0.5531(3) 0.72259(15) 0.20809(8)
N2 N 0.3384(3) 0.60404(15) 0.15940(8)
O1 O 0.4681(3) 1.09013(14) 0.09176(9)
O2 O 0.6425(3) 0.81495(13) 0.22769(7)
O3 O 0.1918(3) 0.56340(13) 0.12376(7)
C1 C 0.5320(5) 1.2191(2) 0.01933(12)
H1 H 0.65580 1.17630 0.01130
C2 C 0.4760(6) 1.3174(2) -0.01004(12)
H2 H 0.56340 1.34140 -0.03820
C3 C 0.2958(7) 1.3791(2) 0.00164(13)
H3 H 0.25930 1.44490 -0.01860
C4 C 0.1681(6) 1.3454(2) 0.04275(14)
H4 H 0.04340 1.38790 0.05040
C5 C 0.2212(5) 1.2497(2) 0.07310(11)
H5 H 0.13540 1.22830 0.10200
C6 C 0.3996(5) 1.18580(19) 0.06096(11)
C7 C 0.3259(4) 0.9976(2) 0.09613(10)
C8 C 0.1155(4) 0.9893(2) 0.06975(9)
H6 H 0.05720 1.04880 0.04770
C9 C -0.0063(4) 0.8920(2) 0.07656(10)
H7 H -0.14880 0.88650 0.05920
C10 C 0.0776(4) 0.80243(19) 0.10847(9)
H8 H -0.00710 0.73690 0.11240
C11 C 0.2915(4) 0.81043(17) 0.13509(9)
C12 C 0.4136(4) 0.90906(17) 0.12862(9)
H9 H 0.55530 0.91580 0.14620
C13 C 0.3896(4) 0.71521(18) 0.16708(9)
C14 C 0.6059(4) 0.61044(18) 0.23546(9)
C15 C 0.4958(5) 0.6126(2) 0.29099(10)
H10 H 0.55470 0.67500 0.31320
H11 H 0.52570 0.54210 0.31040
H12 H 0.33800 0.62190 0.28400
C16 C 0.8555(4) 0.6005(2) 0.24667(11)
H13 H 0.92670 0.61390 0.21280
H14 H 0.89220 0.52530 0.26020
H15 H 0.90600 0.65600 0.27410
C17 C 0.4987(4) 0.52575(18) 0.19211(9)
C18 C 0.6581(4) 0.4812(2) 0.15050(11)
H16 H 0.57500 0.44240 0.12070
H17 H 0.76200 0.42910 0.16890
H18 H 0.73740 0.54410 0.13570
C19 C 0.3725(4) 0.42599(19) 0.21523(11)
H19 H 0.26000 0.45440 0.23790
H20 H 0.47400 0.37840 0.23730
H21 H 0.30390 0.38220 0.18500
#END
