
#######################################################################
#
#                 Cambridge Crystallographic Data Centre
#                                CCDC
#
#######################################################################
#
# If this CIF has been generated from an entry in the Cambridge
# Structural Database, then it will include bibliographic, chemical,
# crystal, experimental, refinement or atomic coordinate data resulting
# from the CCDC's data processing and validation procedures.
#
#######################################################################

data_CSD_CIF_KAYTUZ
_audit_creation_date 1990-06-07
_audit_creation_method CSD-ConQuest-V1
_database_code_CSD KAYTUZ
_chemical_formula_sum 'C8 H11 N3 O2'
_chemical_formula_moiety
;
C8 H11 N3 O2
;
_journal_coeditor_code "IUCr AS0264"
_journal_coden_Cambridge 591
_journal_volume 45
_journal_year 1989
_journal_page_first 2025
_journal_name_full 'Acta Crystallogr.,Sect.C:Cryst.Struct.Commun. '
loop_
_publ_author_name
"S.Kaida"
"K.Wakita"
"T.Shimizu"
"N.Sonoda"
"K.Miki"
"N.Kasai"
_chemical_name_systematic
;
N-(p-Nitrophenyl)ethylenediamine
;
_cell_volume    887.254
_exptl_crystal_colour 'brown'
_exptl_crystal_density_diffrn 1.356
_diffrn_ambient_temperature ?
_diffrn_special_details
;
The study was carried out at room temperature,in the range 283-303K

;
#These two values have been output from a single CSD field.
_refine_ls_R_factor_gt 0.054
_refine_ls_wR_factor_gt 0.054
_symmetry_cell_setting monoclinic
_symmetry_space_group_name_H-M 'P 21/c'
_symmetry_Int_Tables_number 14
loop_
_symmetry_equiv_pos_site_id
_symmetry_equiv_pos_as_xyz
1 x,y,z
2 -x,1/2+y,1/2-z
3 -x,-y,-z
4 x,-1/2-y,-1/2+z
_cell_length_a 10.668(2)
_cell_length_b 8.958(2)
_cell_length_c 10.308(2)
_cell_angle_alpha 90
_cell_angle_beta 115.75(2)
_cell_angle_gamma 90
_cell_formula_units_Z 4
loop_
_atom_type_symbol
_atom_type_radius_bond
C 0.68
H 0.23
N 0.68
O 0.68
loop_
_atom_site_label
_atom_site_type_symbol
_atom_site_fract_x
_atom_site_fract_y
_atom_site_fract_z
C1 C 0.3298(3) 0.1467(3) 0.8791(3)
C2 C 0.4249(3) 0.2577(3) 0.9609(3)
C3 C 0.5545(3) 0.2670(3) 0.9650(3)
C4 C 0.5939(3) 0.1676(3) 0.8868(3)
C5 C 0.5023(3) 0.0573(3) 0.8039(3)
C6 C 0.3729(3) 0.0483(3) 0.7999(3)
C7 C 0.1507(3) 0.2155(4) 0.9615(3)
C8 C 0.0908(3) 0.3663(3) 0.8981(4)
N1 N 0.2025(2) 0.1301(3) 0.8755(3)
N2 N -0.0290(3) 0.3603(3) 0.7593(3)
N3 N 0.7289(3) 0.1779(3) 0.8885(3)
O1 O 0.7614(3) 0.0892(3) 0.8172(3)
O2 O 0.8086(2) 0.2783(3) 0.9617(3)
H1 H 0.400(3) 0.322(3) 1.018(3)
H2 H 0.622(3) 0.343(3) 1.022(3)
H3 H 0.532(3) -0.009(3) 0.749(3)
H4 H 0.311(3) -0.022(3) 0.742(3)
H5 H 0.075(3) 0.153(3) 0.970(3)
H6 H 0.230(3) 0.233(4) 1.063(3)
H7 H 0.166(4) 0.433(4) 0.885(4)
H8 H 0.053(3) 0.426(4) 0.962(3)
H9 H 0.150(3) 0.055(3) 0.826(3)
H10 H 0.014(4) 0.333(4) 0.700(4)
H11 H -0.093(4) 0.287(5) 0.763(4)
#END
