
#######################################################################
#
#                 Cambridge Crystallographic Data Centre
#                                CCDC
#
#######################################################################
#
# If this CIF has been generated from an entry in the Cambridge
# Structural Database, then it will include bibliographic, chemical,
# crystal, experimental, refinement or atomic coordinate data resulting
# from the CCDC's data processing and validation procedures.
#
#######################################################################

data_CSD_CIF_KAYYEP
_audit_creation_date 2006-02-03
_audit_creation_method CSD-ConQuest-V1
_database_code_CSD KAYYEP
_database_code_depnum_ccdc_archive 'CCDC 233637'
_chemical_formula_sum 'C13 H14 N4 O3'
_chemical_formula_moiety
;
C13 H14 N4 O3
;
_journal_coden_Cambridge 388
_journal_volume 41
_journal_year 2005
_journal_page_first 1020
_journal_name_full 'Zh.Org.Khim.(Russ.)(Russ.J.Org.Chem.) '
loop_
_publ_author_name
"M.G.Koroleva"
"O.V.Dyablo"
"A.F.Pozharsky"
"E.V.Sennikova"
"Z.A.Starikova"
_chemical_name_systematic
;
1-(N-Nitroso-N-methylamino)-5-nitro-8-dimethylaminonaphthalene
;
_chemical_melting_point 411.15
_cell_volume   2670.689
_exptl_crystal_colour 'light yellow'
_exptl_crystal_density_diffrn 1.364
_exptl_special_details
;
Melting point range 411.15-412.15K

;
_exptl_crystal_description 'plate'
_exptl_crystal_preparation 'methanol'
_diffrn_ambient_temperature 295
_refine_special_details
;
The oxygen atoms of the nitro group are disordered over two sites each with 
occupancy factors of 0.7 and 0.3, respectively.
;
#These two values have been output from a single CSD field.
_refine_ls_R_factor_gt 0.0536
_refine_ls_wR_factor_gt 0.0536
_symmetry_cell_setting orthorhombic
_symmetry_space_group_name_H-M 'P b c a'
_symmetry_Int_Tables_number 61
loop_
_symmetry_equiv_pos_site_id
_symmetry_equiv_pos_as_xyz
1 x,y,z
2 1/2-x,-y,1/2+z
3 -x,1/2+y,1/2-z
4 1/2+x,1/2-y,-z
5 -x,-y,-z
6 -1/2+x,y,-1/2-z
7 x,-1/2-y,-1/2+z
8 -1/2-x,-1/2+y,z
_cell_length_a 10.412(2)
_cell_length_b 9.596(2)
_cell_length_c 26.730(5)
_cell_angle_alpha 90
_cell_angle_beta 90
_cell_angle_gamma 90
_cell_formula_units_Z 8
loop_
_atom_type_symbol
_atom_type_radius_bond
C 0.68
H 0.23
N 0.68
O 0.68
loop_
_atom_site_label
_atom_site_type_symbol
_atom_site_fract_x
_atom_site_fract_y
_atom_site_fract_z
O1 O 0.8814(3) 0.2536(3) 0.76840(13)
N1 N 0.7423(6) -0.1527(7) 0.4977(2)
O2 O 0.6577(7) -0.0859(7) 0.4778(2)
O3 O 0.7815(13) -0.261(1) 0.4802(4)
O4? O 0.6185(17) -0.164(2) 0.5132(8)
O5? O 0.789(5) -0.218(4) 0.4651(11)
N2 N 0.8489(3) 0.1243(3) 0.70426(11)
N3 N 0.8336(3) 0.2468(3) 0.72545(15)
N4 N 1.0577(2) 0.1022(3) 0.64132(10)
C1 C 0.9759(3) 0.0280(3) 0.61117(12)
C2 C 1.0212(3) -0.0648(3) 0.57587(13)
H1 H 1.10810 -0.08710 0.57530
C3 C 0.9399(4) -0.1251(4) 0.54147(13)
H2 H 0.97230 -0.18970 0.51880
C4 C 0.8138(4) -0.0917(4) 0.54014(14)
C5 C 0.7575(3) -0.0057(4) 0.57697(14)
C6 C 0.6253(4) 0.0293(5) 0.57895(19)
H3 H 0.57200 0.00350 0.55260
C7 C 0.5757(4) 0.0984(5) 0.6178(2)
H4 H 0.48980 0.12500 0.61710
C8 C 0.6504(4) 0.1312(4) 0.65915(17)
H5 H 0.61310 0.17150 0.68730
C9 C 0.7798(3) 0.1037(3) 0.65819(14)
C10 C 0.8392(3) 0.0441(3) 0.61570(12)
C11 C 0.9105(4) 0.0094(3) 0.73078(13)
H6 H 0.95170 0.04430 0.76040
H7 H 0.97340 -0.03320 0.70940
H8 H 0.84690 -0.05840 0.74000
C12 C 1.1901(3) 0.0530(4) 0.64581(14)
H9 H 1.19090 -0.04700 0.64670
H10 H 1.22720 0.08890 0.67610
H11 H 1.23900 0.08490 0.61760
C13 C 1.0479(3) 0.2543(4) 0.63997(14)
H12 H 0.95930 0.28080 0.63730
H13 H 1.09450 0.28930 0.61160
H14 H 1.08350 0.29250 0.67010
#END
