
#######################################################################
#
#                 Cambridge Crystallographic Data Centre
#                                CCDC
#
#######################################################################
#
# If this CIF has been generated from an entry in the Cambridge
# Structural Database, then it will include bibliographic, chemical,
# crystal, experimental, refinement or atomic coordinate data resulting
# from the CCDC's data processing and validation procedures.
#
#######################################################################

data_CSD_CIF_KAYYIT
_audit_creation_date 2006-02-03
_audit_creation_method CSD-ConQuest-V1
_database_code_CSD KAYYIT
_database_code_depnum_ccdc_archive 'CCDC 233636'
_chemical_formula_sum 'C13 H15 N3 O1'
_chemical_formula_moiety
;
C13 H15 N3 O1
;
_journal_coden_Cambridge 388
_journal_volume 41
_journal_year 2005
_journal_page_first 1020
_journal_name_full 'Zh.Org.Khim.(Russ.)(Russ.J.Org.Chem.) '
loop_
_publ_author_name
"M.G.Koroleva"
"O.V.Dyablo"
"A.F.Pozharsky"
"E.V.Sennikova"
"Z.A.Starikova"
_chemical_name_systematic
;
1-(N-Nitroso-N-methylamino)-8-dimethylaminonaphthalene
;
_chemical_melting_point 326.15
_cell_volume   1181.390
_exptl_crystal_colour 'colorless'
_exptl_crystal_density_diffrn 1.289
_exptl_special_details
;
Melting point range 326.15-328.15K

;
_exptl_crystal_description 'needle'
_exptl_crystal_preparation 'methanol'
_diffrn_ambient_temperature 110
#These two values have been output from a single CSD field.
_refine_ls_R_factor_gt 0.0595
_refine_ls_wR_factor_gt 0.0595
_symmetry_cell_setting monoclinic
_symmetry_space_group_name_H-M 'P 21/n'
_symmetry_Int_Tables_number 14
loop_
_symmetry_equiv_pos_site_id
_symmetry_equiv_pos_as_xyz
1 x,y,z
2 1/2-x,1/2+y,1/2-z
3 -x,-y,-z
4 -1/2+x,-1/2-y,-1/2+z
_cell_length_a 6.262(1)
_cell_length_b 10.371(2)
_cell_length_c 18.382(3)
_cell_angle_alpha 90
_cell_angle_beta 98.264(4)
_cell_angle_gamma 90
_cell_formula_units_Z 4
loop_
_atom_type_symbol
_atom_type_radius_bond
C 0.68
H 0.23
N 0.68
O 0.68
loop_
_atom_site_label
_atom_site_type_symbol
_atom_site_fract_x
_atom_site_fract_y
_atom_site_fract_z
N1 N 0.92165(18) 0.14965(10) 0.07190(6)
N2 N 1.0355(2) 0.17449(12) 0.01847(6)
N3 N 0.69391(18) 0.35651(10) 0.11165(6)
O1 O 0.93680(19) 0.15588(11) -0.04443(5)
C1 C 1.0325(2) 0.15932(12) 0.14536(7)
C2 C 1.2156(2) 0.08596(12) 0.16283(7)
H1 H 1.26450 0.03520 0.12690
C3 C 1.3297(2) 0.08707(13) 0.23455(8)
H2 H 1.46050 0.04370 0.24500
C4 C 1.2474(2) 0.15209(13) 0.28856(7)
H3 H 1.32100 0.15050 0.33620
C5 C 1.0519(2) 0.22210(12) 0.27363(7)
C6 C 0.9512(2) 0.27456(13) 0.33145(7)
H4 H 1.01700 0.26610 0.37990
C7 C 0.7589(3) 0.33714(13) 0.31647(8)
H5 H 0.68560 0.36180 0.35480
C8 C 0.6705(2) 0.36472(13) 0.24350(8)
H6 H 0.54430 0.41300 0.23440
C9 C 0.7668(2) 0.32166(12) 0.18523(7)
C10 C 0.9490(2) 0.23588(11) 0.19947(7)
C11 C 0.7027(2) 0.09827(13) 0.05488(7)
H7 H 0.62750 0.14660 0.00540
H8 H 0.62110 0.09160 0.09680
H9 H 0.72180 -0.00800 0.03820
H10? H 0.71150 0.02940 0.02720
H11? H 0.66560 0.09430 0.10610
H12? H 0.60660 0.16160 0.02820
C12 C 0.8419(2) 0.43854(14) 0.07822(8)
H13 H 0.98620 0.40620 0.09030
H14 H 0.83490 0.52490 0.09650
H15 H 0.80180 0.43860 0.02580
C13 C 0.4718(2) 0.40055(15) 0.09472(9)
H16 H 0.37940 0.34430 0.11760
H17 H 0.42880 0.39980 0.04240
H18 H 0.46050 0.48660 0.11300
#END
