
#######################################################################
#
#                 Cambridge Crystallographic Data Centre
#                                CCDC
#
#######################################################################
#
# If this CIF has been generated from an entry in the Cambridge
# Structural Database, then it will include bibliographic, chemical,
# crystal, experimental, refinement or atomic coordinate data resulting
# from the CCDC's data processing and validation procedures.
#
#######################################################################

data_CSD_CIF_KAZVOZ
_audit_creation_date 2017-07-26
_audit_creation_method CSD-ConQuest-V1
_database_code_CSD KAZVOZ
_database_code_depnum_ccdc_archive 'CCDC 1564778'
_chemical_formula_sum 'C11 H12 N2 O5'
_chemical_formula_moiety
;
C11 H12 N2 O5
;
_journal_coden_Cambridge 4
_journal_volume 139
_journal_year 2017
_journal_page_first 9164
_journal_name_full 'J.Am.Chem.Soc. '
loop_
_publ_author_name
"Huiling Jiang"
"Kai Lang"
"Hongjian Lu"
"L.Wojtas"
"X.Peter Zhang"
_chemical_name_systematic
;
4-[methoxy(4-nitrophenyl)methyl]-1,3-oxazolidin-2-one
;
_cell_volume    592.003
_exptl_crystal_colour 'colorless'
_exptl_crystal_density_diffrn 1.415
_exptl_special_details
;
Absolute configuration

;
_exptl_crystal_description 'plate'
_diffrn_ambient_temperature 100
#These two values have been output from a single CSD field.
_refine_ls_R_factor_gt 0.0256
_refine_ls_wR_factor_gt 0.0256
_symmetry_cell_setting monoclinic
_symmetry_space_group_name_H-M 'P 21'
_symmetry_Int_Tables_number 4
loop_
_symmetry_equiv_pos_site_id
_symmetry_equiv_pos_as_xyz
1 x,y,z
2 -x,1/2+y,-z
_cell_length_a 6.4316(5)
_cell_length_b 8.2971(6)
_cell_length_c 11.1074(8)
_cell_angle_alpha 90
_cell_angle_beta 92.841(2)
_cell_angle_gamma 90
_cell_formula_units_Z 2
loop_
_atom_type_symbol
_atom_type_radius_bond
C 0.68
H 0.23
N 0.68
O 0.68
loop_
_atom_site_label
_atom_site_type_symbol
_atom_site_fract_x
_atom_site_fract_y
_atom_site_fract_z
O1 O 0.2282(2) 0.86031(19) 0.83298(15)
O2 O 0.5103(2) 0.99909(19) 0.82633(19)
O3 O 1.08238(19) 0.29452(18) 0.81216(11)
O4 O 0.8278(2) 0.00285(16) 0.56090(11)
O5 O 0.5011(2) 0.05006(17) 0.48649(12)
N1 N 0.4168(3) 0.8715(2) 0.82318(15)
N2 N 0.7211(2) 0.2557(2) 0.54880(14)
H1 H 0.637(4) 0.337(3) 0.542(2)
C1 C 0.5353(3) 0.7219(2) 0.80705(16)
C2 C 0.7388(3) 0.7338(2) 0.77094(16)
H2 H 0.80040 0.83580 0.75710
C3 C 0.8484(3) 0.5929(2) 0.75585(15)
H3 H 0.98730 0.59810 0.73080
C4 C 0.7591(3) 0.4432(2) 0.77669(15)
C5 C 0.5554(3) 0.4359(2) 0.81302(16)
H4 H 0.49340 0.33430 0.82730
C6 C 0.4424(3) 0.5758(2) 0.82857(16)
H5 H 0.30340 0.57100 0.85360
C7 C 0.8801(3) 0.2904(2) 0.75469(16)
H6 H 0.80190 0.19580 0.78520
C8 C 0.9161(3) 0.2667(2) 0.62075(15)
H7 H 1.00580 0.35470 0.59020
C9 C 1.0083(3) 0.1018(2) 0.59476(16)
H8 H 1.10460 0.10810 0.52810
H9 H 1.08420 0.05780 0.66720
C10 C 0.6659(3) 0.1018(2) 0.52833(15)
C11 C 1.0819(3) 0.2614(3) 0.93744(17)
H10 H 1.00190 0.34460 0.97730
H11 H 1.22530 0.26090 0.97160
H12 H 1.01820 0.15580 0.94990
#END
