
#######################################################################
#
#                 Cambridge Crystallographic Data Centre
#                                CCDC
#
#######################################################################
#
# If this CIF has been generated from an entry in the Cambridge
# Structural Database, then it will include bibliographic, chemical,
# crystal, experimental, refinement or atomic coordinate data resulting
# from the CCDC's data processing and validation procedures.
#
#######################################################################

data_CSD_CIF_KAZZOC
_audit_creation_date 2012-09-25
_audit_creation_method CSD-ConQuest-V1
_database_code_CSD KAZZOC
_database_code_depnum_ccdc_archive 'CCDC 846243'
_chemical_formula_sum 'C7 H5 N3 O1'
_chemical_formula_moiety
;
C7 H5 N3 O1
;
_journal_coden_Cambridge 1147
_journal_volume 12
_journal_year 2012
_journal_page_first 2877
_journal_name_full 'Cryst.Growth Des. '
loop_
_publ_author_name
"D.Marcano"
"N.Gerasimchuk"
"V.Nemykin"
"S.Silchenko"
_chemical_name_systematic
;
(Hydroxyimino)(pyridin-4-yl)acetonitrile
;
_chemical_melting_point 543
_cell_volume    675.884
_exptl_crystal_colour 'colorless'
_exptl_crystal_density_diffrn 1.446
_exptl_special_details
;
Melts with decomposition.

;
_exptl_crystal_description 'needle'
_diffrn_ambient_temperature 120
#These two values have been output from a single CSD field.
_refine_ls_R_factor_gt 0.0792
_refine_ls_wR_factor_gt 0.0792
_symmetry_cell_setting monoclinic
_symmetry_space_group_name_H-M 'P 21/c'
_symmetry_Int_Tables_number 14
loop_
_symmetry_equiv_pos_site_id
_symmetry_equiv_pos_as_xyz
1 x,y,z
2 -x,1/2+y,1/2-z
3 -x,-y,-z
4 x,-1/2-y,-1/2+z
_cell_length_a 3.728(3)
_cell_length_b 13.938(9)
_cell_length_c 13.008(9)
_cell_angle_alpha 90
_cell_angle_beta 90.474(9)
_cell_angle_gamma 90
_cell_formula_units_Z 4
loop_
_atom_type_symbol
_atom_type_radius_bond
C 0.68
H 0.23
N 0.68
O 0.68
loop_
_atom_site_label
_atom_site_type_symbol
_atom_site_fract_x
_atom_site_fract_y
_atom_site_fract_z
C1 C 0.3328(7) 0.37896(18) 0.21739(19)
C2 C 0.3811(8) 0.4762(2) 0.1798(2)
C3 C 0.1703(7) 0.30618(19) 0.14854(19)
C4 C 0.1237(7) 0.2109(2) 0.1791(2)
H1 H 0.19600 0.19090 0.24590
C5 C -0.0299(7) 0.1456(2) 0.11069(19)
H2 H -0.06000 0.08100 0.13240
C6 C -0.0917(7) 0.2617(2) -0.0142(2)
H3 H -0.16430 0.27970 -0.08170
C7 C 0.0567(7) 0.3316(2) 0.04952(19)
H4 H 0.08050 0.39580 0.02610
N1 N 0.4403(6) 0.35475(17) 0.30897(16)
N2 N 0.4229(8) 0.55270(19) 0.14844(19)
N3 N -0.1375(6) 0.17005(17) 0.01501(16)
O1 O 0.5833(6) 0.43002(13) 0.36351(14)
H5 H 0.69920 0.40880 0.41430
#END
