
#######################################################################
#
#                 Cambridge Crystallographic Data Centre
#                                CCDC
#
#######################################################################
#
# If this CIF has been generated from an entry in the Cambridge
# Structural Database, then it will include bibliographic, chemical,
# crystal, experimental, refinement or atomic coordinate data resulting
# from the CCDC's data processing and validation procedures.
#
#######################################################################

data_CSD_CIF_KECCOM
_audit_creation_date 2012-09-12
_audit_creation_method CSD-ConQuest-V1
_database_code_CSD KECCOM
_database_code_depnum_ccdc_archive 'CCDC 859112'
_chemical_formula_sum 'C19 H23 N1 O4'
_chemical_formula_moiety
;
C19 H23 N1 O4
;
_journal_coden_Cambridge 179
_journal_volume 51
_journal_year 2012
_journal_page_first 5647
_journal_name_full 'Angew.Chem.,Int.Ed. '
loop_
_publ_author_name
"Yue Zou"
"Changming Ding"
"Lijun Zhou"
"Zhiming Li"
"Quanrui Wang"
"F.Schoenebeck"
"A.Goeke"
_chemical_name_systematic
;
(S)-1-((1R,2S,6R)-3,7,7-Trimethylbicyclo[4.1.0]hept-3-en-2-yl)ethyl 
4-nitrobenzoate
;
_cell_volume   1782.649
_exptl_crystal_colour 'colorless'
_exptl_crystal_density_diffrn 1.227
_exptl_crystal_description 'rod'
_diffrn_ambient_temperature 293
#These two values have been output from a single CSD field.
_refine_ls_R_factor_gt 0.061
_refine_ls_wR_factor_gt 0.061
_symmetry_cell_setting orthorhombic
_symmetry_space_group_name_H-M 'P 21 21 21'
_symmetry_Int_Tables_number 19
loop_
_symmetry_equiv_pos_site_id
_symmetry_equiv_pos_as_xyz
1 x,y,z
2 1/2-x,-y,1/2+z
3 -x,1/2+y,1/2-z
4 1/2+x,1/2-y,-z
_cell_length_a 7.434(3)
_cell_length_b 11.929(5)
_cell_length_c 20.102(8)
_cell_angle_alpha 90
_cell_angle_beta 90
_cell_angle_gamma 90
_cell_formula_units_Z 4
loop_
_atom_type_symbol
_atom_type_radius_bond
C 0.68
H 0.23
N 0.68
O 0.68
loop_
_atom_site_label
_atom_site_type_symbol
_atom_site_fract_x
_atom_site_fract_y
_atom_site_fract_z
N1 N 1.0458(8) 1.2083(3) 1.09839(18)
O1 O 0.3944(4) 0.9765(3) 0.93403(13)
O2 O 0.6354(3) 0.94351(18) 0.87133(11)
O3 O 0.9790(6) 1.2694(3) 1.13887(17)
O4 O 1.2048(7) 1.1871(4) 1.09190(19)
C1 C 0.9179(6) 1.1504(3) 1.05156(19)
C2 C 0.7405(8) 1.1505(3) 1.06730(18)
H1 H 0.70080 1.18760 1.10520
C3 C 0.6164(7) 1.0942(3) 1.02597(18)
H2 H 0.49490 1.09090 1.03690
C4 C 0.6817(5) 1.0438(3) 0.96836(16)
C5 C 0.8650(5) 1.0483(3) 0.95448(16)
H3 H 0.90860 1.01510 0.91590
C6 C 0.9825(6) 1.1011(3) 0.99707(17)
H4 H 1.10510 1.10240 0.98800
C7 C 0.5526(5) 0.9848(3) 0.92357(16)
C8 C 0.5373(4) 0.8761(2) 0.82363(15)
H5 H 0.41630 0.86190 0.84100
C9 C 0.6379(3) 0.7645(2) 0.81879(14)
H6 H 0.58210 0.72110 0.78290
C10 C 0.6144(4) 0.6992(2) 0.88196(14)
C11 C 0.7478(4) 0.6833(3) 0.92432(17)
H7 H 0.72020 0.64580 0.96360
C12 C 0.9388(5) 0.7194(4) 0.91537(17)
H8 H 1.01650 0.65560 0.92370
H9 H 0.96640 0.77600 0.94850
C13 C 0.9818(4) 0.7658(3) 0.84780(16)
H10 H 1.07680 0.82270 0.84730
C14 C 0.8334(4) 0.7852(3) 0.79932(15)
H11 H 0.85030 0.85240 0.77200
C15 C 0.5216(5) 0.9431(3) 0.76048(18)
H12 H 0.45570 1.01070 0.76910
H13 H 0.45940 0.89960 0.72750
H14 H 0.63960 0.96160 0.74450
C16 C 0.4289(5) 0.6554(3) 0.89526(19)
H15 H 0.42810 0.61550 0.93670
H16 H 0.39380 0.60580 0.86000
H17 H 0.34590 0.71700 0.89760
C17 C 0.9709(4) 0.6958(3) 0.78648(17)
C18 C 1.1046(5) 0.7214(4) 0.7316(2)
H18 H 1.13090 0.80020 0.73150
H19 H 1.05420 0.70030 0.68950
H20 H 1.21330 0.67990 0.73920
C19 C 0.9251(5) 0.5730(3) 0.7914(2)
H21 H 0.84050 0.56170 0.82680
H22 H 1.03250 0.53090 0.80030
H23 H 0.87330 0.54820 0.75020
#END
