
#######################################################################
#
#                 Cambridge Crystallographic Data Centre
#                                CCDC
#
#######################################################################
#
# If this CIF has been generated from an entry in the Cambridge
# Structural Database, then it will include bibliographic, chemical,
# crystal, experimental, refinement or atomic coordinate data resulting
# from the CCDC's data processing and validation procedures.
#
#######################################################################

data_CSD_CIF_KECRUF
_audit_creation_date 1990-06-28
_audit_creation_method CSD-ConQuest-V1
_database_code_CSD KECRUF
_database_code_depnum_ccdc_archive 'CCDC 1194100'
_chemical_formula_sum 'C7 H7 N1 O4'
_chemical_formula_moiety
;
C7 H7 N1 O4
;
_journal_coden_Cambridge 388
_journal_volume 24
_journal_year 1988
_journal_page_first 2567
_journal_name_full 'Zh.Org.Khim.(Russ.)(Russ.J.Org.Chem.) '
loop_
_publ_author_name
"Z.V.Todres"
"G.Ts.Ovsepyan"
"A.Yu.Kosnikov"
"S.V.Lindeman"
"Yu.T.Struchdov"
_chemical_name_systematic
;
2-Nitrohydroquinone 4-monomethyl ether
;
_chemical_melting_point 351.15
_cell_volume    750.450
_exptl_crystal_colour 'yellow'
_exptl_crystal_density_diffrn 1.497
_diffrn_ambient_temperature ?
_diffrn_special_details
;
The study was carried out at room temperature,in the range 283-303K

;
#These two values have been output from a single CSD field.
_refine_ls_R_factor_gt 0.035
_refine_ls_wR_factor_gt 0.035
_symmetry_cell_setting monoclinic
_symmetry_space_group_name_H-M 'P 21/c'
_symmetry_Int_Tables_number 14
loop_
_symmetry_equiv_pos_site_id
_symmetry_equiv_pos_as_xyz
1 x,y,z
2 -x,1/2+y,1/2-z
3 -x,-y,-z
4 x,-1/2-y,-1/2+z
_cell_length_a 10.293(2)
_cell_length_b 9.920(2)
_cell_length_c 7.461(1)
_cell_angle_alpha 90
_cell_angle_beta 99.91(1)
_cell_angle_gamma 90
_cell_formula_units_Z 4
loop_
_atom_type_symbol
_atom_type_radius_bond
C 0.68
H 0.23
N 0.68
O 0.68
loop_
_atom_site_label
_atom_site_type_symbol
_atom_site_fract_x
_atom_site_fract_y
_atom_site_fract_z
C1 C 0.2197(8) 0.0945(7) -0.0181(9)
C2 C 0.3133(7) 0.1892(7) 0.0595(9)
C3 C 0.2930(8) 0.3305(7) 0.0424(10)
C4 C 0.1752(8) 0.3755(8) -0.0578(10)
C5 C 0.0795(8) 0.2817(8) -0.132(1)
C6 C 0.1022(8) 0.1448(8) -0.110(1)
C7 C 0.2334(9) 0.6049(8) -0.0069(11)
N1 N 0.4409(7) 0.1511(6) 0.1629(8)
O1 O 0.2396(6) -0.0399(5) 0.0033(7)
O2 O 0.4617(7) 0.0276(5) 0.1921(7)
O3 O 0.5213(6) 0.2346(6) 0.2247(9)
O4 O 0.1412(6) 0.5064(6) -0.0876(6)
H1 H 0.334(8) -0.051(7) 0.069(9)
H2 H 0.374(5) 0.375(5) 0.061(6)
H3 H -0.006(7) 0.305(7) -0.175(8)
H4 H 0.208(6) 0.688(6) -0.036(8)
H5 H 0.262(6) 0.603(6) 0.137(8)
H6 H 0.329(8) 0.589(8) -0.04(1)
H7? H -0.049(9) 0.072(9) -0.145(10)
#END
