
#######################################################################
#
#                 Cambridge Crystallographic Data Centre
#                                CCDC
#
#######################################################################
#
# If this CIF has been generated from an entry in the Cambridge
# Structural Database, then it will include bibliographic, chemical,
# crystal, experimental, refinement or atomic coordinate data resulting
# from the CCDC's data processing and validation procedures.
#
#######################################################################

data_CSD_CIF_KEDCUT
_audit_creation_date 2012-09-12
_audit_creation_method CSD-ConQuest-V1
_database_code_CSD KEDCUT
_database_code_depnum_ccdc_archive 'CCDC 851796'
_chemical_formula_sum 'C18 H19 N5 O4'
_chemical_formula_moiety
;
C18 H19 N5 O4
;
_journal_coden_Cambridge 177
_journal_volume 10
_journal_year 2012
_journal_page_first 4609
_journal_name_full 'Org.Biomol.Chem. '
loop_
_publ_author_name
"Min-Tsang Hsieh"
"Kak-Shan Shia"
"Hsing-Jang Liu"
"Sheng-Chu Kuo"
_chemical_name_systematic
;
4-((2,4-Dinitrophenyl)hydrazono)-5-methyleneoctahydronaphthalene-4a(2H)-carbon
itrile
;
_cell_volume   1778.259
_exptl_crystal_colour 'yellow'
_exptl_crystal_density_diffrn 1.38
_exptl_crystal_description 'columnar'
_diffrn_ambient_temperature 295
#These two values have been output from a single CSD field.
_refine_ls_R_factor_gt 0.0583
_refine_ls_wR_factor_gt 0.0583
_symmetry_cell_setting monoclinic
_symmetry_space_group_name_H-M 'P 21/n'
_symmetry_Int_Tables_number 14
loop_
_symmetry_equiv_pos_site_id
_symmetry_equiv_pos_as_xyz
1 x,y,z
2 1/2-x,1/2+y,1/2-z
3 -x,-y,-z
4 -1/2+x,-1/2-y,-1/2+z
_cell_length_a 13.1764(14)
_cell_length_b 7.0909(7)
_cell_length_c 19.046(2)
_cell_angle_alpha 90
_cell_angle_beta 92.154(3)
_cell_angle_gamma 90
_cell_formula_units_Z 4
loop_
_atom_type_symbol
_atom_type_radius_bond
C 0.68
H 0.23
N 0.68
O 0.68
loop_
_atom_site_label
_atom_site_type_symbol
_atom_site_fract_x
_atom_site_fract_y
_atom_site_fract_z
O1 O 0.28527(13) 0.6528(3) 0.20332(9)
O2 O 0.43779(13) 0.5464(3) 0.21813(10)
O3 O 0.54149(14) -0.0384(3) 0.12585(13)
O4 O 0.43506(15) -0.2108(3) 0.06641(12)
N1 N 0.04747(12) 0.4007(2) 0.11775(8)
N2 N 0.14281(12) 0.4416(3) 0.14597(8)
H1 H 0.15350 0.54570 0.16820
N3 N -0.10539(14) 0.2203(3) -0.00606(11)
N4 N 0.34984(15) 0.5278(3) 0.19628(10)
N5 N 0.45622(16) -0.0716(3) 0.10150(13)
C1 C -0.01563(19) 0.7037(3) 0.16508(14)
H2 H 0.05510 0.74090 0.16970
H3 H -0.04000 0.68480 0.21200
C2 C -0.07582(19) 0.8630(3) 0.13002(14)
H4 H -0.07760 0.97000 0.16170
H5 H -0.04240 0.90270 0.08800
C3 C -0.18303(17) 0.8015(3) 0.11071(13)
H6 H -0.21960 0.90580 0.08870
H7 H -0.21740 0.76760 0.15310
C4 C -0.18459(15) 0.6346(3) 0.06101(11)
H8 H -0.14750 0.67170 0.01960
C5 C -0.29208(16) 0.5781(3) 0.03548(12)
H9 H -0.32690 0.68860 0.01660
H10 H -0.28730 0.48710 -0.00230
C6 C -0.35429(16) 0.4939(4) 0.09277(13)
H11 H -0.42010 0.45520 0.07330
H12 H -0.36510 0.58790 0.12870
C7 C -0.29902(17) 0.3236(4) 0.12531(14)
H13 H -0.33670 0.27830 0.16470
H14 H -0.29760 0.22320 0.09080
C8 C -0.19223(16) 0.3678(3) 0.15020(12)
C9 C -0.12671(14) 0.4624(3) 0.09563(10)
C10 C -0.02255(15) 0.5212(3) 0.12618(10)
C11 C 0.21922(15) 0.3173(3) 0.13851(10)
C12 C 0.19962(15) 0.1408(3) 0.10658(11)
H15 H 0.13330 0.10930 0.09290
C13 C 0.27564(15) 0.0157(3) 0.09540(11)
H16 H 0.26120 -0.09950 0.07390
C14 C 0.37477(16) 0.0607(3) 0.11620(12)
C15 C 0.39750(15) 0.2268(3) 0.14928(11)
H17 H 0.46400 0.25400 0.16400
C16 C 0.32024(15) 0.3546(3) 0.16075(10)
C17 C -0.1562(2) 0.3215(4) 0.21316(13)
H18 H -0.19730 0.25900 0.24420
H19 H -0.08950 0.35140 0.22660
C18 C -0.11199(14) 0.3232(3) 0.03934(11)
#END
