
#######################################################################
#
#                 Cambridge Crystallographic Data Centre
#                                CCDC
#
#######################################################################
#
# If this CIF has been generated from an entry in the Cambridge
# Structural Database, then it will include bibliographic, chemical,
# crystal, experimental, refinement or atomic coordinate data resulting
# from the CCDC's data processing and validation procedures.
#
#######################################################################

data_CSD_CIF_KEDGOR
_audit_creation_date 2012-09-12
_audit_creation_method CSD-ConQuest-V1
_database_code_CSD KEDGOR
_database_code_depnum_ccdc_archive 'CCDC 859789'
_chemical_formula_sum 'C19 H15 N1 O6'
_chemical_formula_moiety
;
C19 H15 N1 O6
;
_journal_coden_Cambridge 177
_journal_volume 10
_journal_year 2012
_journal_page_first 5385
_journal_name_full 'Org.Biomol.Chem. '
loop_
_publ_author_name
"P.S.Swaroop"
"G.N.Raut"
"R.G.Gonnade"
"P.Verma"
"R.S.Gokhale"
"D.S.Reddy"
_chemical_name_systematic
;
9-Oxo-1,2,3,3a,9,9a-hexahydrocyclopenta[b]chromen-1-yl 4-nitrobenzoate
;
_cell_volume   1582.948
_exptl_crystal_colour 'colorless'
_exptl_crystal_density_diffrn 1.483
_exptl_crystal_description 'plate'
_diffrn_ambient_temperature 100
#These two values have been output from a single CSD field.
_refine_ls_R_factor_gt 0.0718
_refine_ls_wR_factor_gt 0.0718
_symmetry_cell_setting monoclinic
_symmetry_space_group_name_H-M 'P 21/c'
_symmetry_Int_Tables_number 14
loop_
_symmetry_equiv_pos_site_id
_symmetry_equiv_pos_as_xyz
1 x,y,z
2 -x,1/2+y,1/2-z
3 -x,-y,-z
4 x,-1/2-y,-1/2+z
_cell_length_a 8.0391(17)
_cell_length_b 18.123(3)
_cell_length_c 11.275(2)
_cell_angle_alpha 90
_cell_angle_beta 105.499(9)
_cell_angle_gamma 90
_cell_formula_units_Z 4
loop_
_atom_type_symbol
_atom_type_radius_bond
C 0.68
H 0.23
N 0.68
O 0.68
loop_
_atom_site_label
_atom_site_type_symbol
_atom_site_fract_x
_atom_site_fract_y
_atom_site_fract_z
O1 O 0.9264(3) 0.58976(13) 0.1597(2)
O2 O 0.8758(3) 0.53571(13) 0.3251(2)
O3 O 0.6072(3) 0.73058(13) 0.1476(2)
O4 O 0.4637(2) 0.60265(11) -0.16267(19)
O5 O 1.7430(3) 0.60112(13) 0.6116(2)
O6 O 1.7509(3) 0.67470(13) 0.4617(2)
N1 N 1.6754(4) 0.63139(15) 0.5126(3)
C1 C 0.7501(4) 0.57796(18) 0.0871(3)
H1 H 0.67150 0.56720 0.14020
C2 C 0.7442(4) 0.51700(17) -0.0070(3)
H2 H 0.84440 0.48350 0.02070
H3 H 0.63680 0.48770 -0.01960
C3 C 0.7495(4) 0.55632(17) -0.1252(3)
H4 H 0.86930 0.56910 -0.12470
H5 H 0.69790 0.52550 -0.19820
C4 C 0.6427(4) 0.62501(16) -0.1237(3)
H6 H 0.66840 0.66410 -0.17880
C5 C 0.3471(4) 0.64953(15) -0.1340(3)
C6 C 0.1802(4) 0.64963(17) -0.2122(3)
H7 H 0.15180 0.61950 -0.28370
C7 C 0.0567(4) 0.69425(18) -0.1839(4)
H8 H -0.05660 0.69560 -0.23770
C8 C 0.0958(5) 0.73734(18) -0.0778(4)
H9 H 0.00920 0.76710 -0.05860
C9 C 0.2589(5) 0.73669(18) -0.0014(3)
H10 H 0.28480 0.76580 0.07130
C10 C 0.3887(4) 0.69379(16) -0.0286(3)
C11 C 0.5657(4) 0.69484(17) 0.0522(3)
C12 C 0.6968(4) 0.64915(16) 0.0109(3)
H11 H 0.80290 0.68010 0.02240
C13 C 0.9715(4) 0.56676(16) 0.2767(3)
C14 C 1.1554(4) 0.58505(16) 0.3368(3)
C15 C 1.2246(4) 0.56347(16) 0.4589(3)
H12 H 1.15410 0.53860 0.50170
C16 C 1.3961(4) 0.57832(16) 0.5179(3)
H13 H 1.44510 0.56390 0.60100
C17 C 1.4928(4) 0.61458(16) 0.4522(3)
C18 C 1.4278(4) 0.63835(17) 0.3325(3)
H14 H 1.49790 0.66480 0.29130
C19 C 1.2580(4) 0.62251(17) 0.2747(3)
H15 H 1.21040 0.63720 0.19160
#END
