
#######################################################################
#
#                 Cambridge Crystallographic Data Centre
#                                CCDC
#
#######################################################################
#
# If this CIF has been generated from an entry in the Cambridge
# Structural Database, then it will include bibliographic, chemical,
# crystal, experimental, refinement or atomic coordinate data resulting
# from the CCDC's data processing and validation procedures.
#
#######################################################################

data_CSD_CIF_KEDKAG01
_audit_creation_date 2009-03-18
_audit_creation_method CSD-ConQuest-V1
_database_code_CSD KEDKAG01
_database_code_depnum_ccdc_archive 'CCDC 683748'
_chemical_formula_sum 'C19 H24 N2 O1'
_chemical_formula_moiety
;
C19 H24 N2 O1
;
_journal_coden_Cambridge 579
_journal_volume 27
_journal_year 2008
_journal_page_first 4711
_journal_name_full 'Organometallics '
loop_
_publ_author_name
"M.Brasse"
"J.Campora"
"P.Palma"
"E.Alvarez"
_chemical_name_systematic
;
2-[1-(2,6-Di-isopropylphenylimino)ethyl]pyridine N-oxide
;
_chemical_melting_point 350.15
_cell_volume    822.846
_exptl_crystal_colour 'colorless'
_exptl_crystal_density_diffrn 1.196
_exptl_crystal_description 'block'
_exptl_crystal_preparation 'chloroform'
_diffrn_ambient_temperature 100
#These two values have been output from a single CSD field.
_refine_ls_R_factor_gt 0.0473
_refine_ls_wR_factor_gt 0.0473
_symmetry_cell_setting triclinic
_symmetry_space_group_name_H-M 'P -1'
_symmetry_Int_Tables_number 2
loop_
_symmetry_equiv_pos_site_id
_symmetry_equiv_pos_as_xyz
1 x,y,z
2 -x,-y,-z
_cell_length_a 8.5986(6)
_cell_length_b 8.6704(6)
_cell_length_c 11.4818(7)
_cell_angle_alpha 97.006(2)
_cell_angle_beta 101.110(2)
_cell_angle_gamma 97.648(2)
_cell_formula_units_Z 2
loop_
_atom_type_symbol
_atom_type_radius_bond
C 0.68
H 0.23
N 0.68
O 0.68
loop_
_atom_site_label
_atom_site_type_symbol
_atom_site_fract_x
_atom_site_fract_y
_atom_site_fract_z
O1 O 0.34024(16) 0.58117(14) 0.88018(12)
N1 N 0.36191(17) 0.70717(16) 0.95968(13)
N2 N 0.02875(17) 0.86473(16) 0.82803(13)
C1 C 0.2726(2) 0.82491(19) 0.93974(15)
C2 C 0.2878(2) 0.9512(2) 1.03040(16)
H1 H 0.22420 1.03160 1.01730
C3 C 0.3938(2) 0.9620(2) 1.13933(16)
H2 H 0.40270 1.04770 1.20160
C4 C 0.4869(2) 0.8439(2) 1.15503(16)
H3 H 0.56230 0.84960 1.22840
C5 C 0.4709(2) 0.7189(2) 1.06550(16)
H4 H 0.53620 0.63960 1.07720
C6 C 0.1602(2) 0.81420(19) 0.82133(16)
C7 C 0.2108(2) 0.7606(2) 0.70622(16)
H5 H 0.15860 0.65210 0.67450
H6 H 0.32760 0.76550 0.72220
H7 H 0.17910 0.82950 0.64720
C8 C -0.0891(2) 0.8706(2) 0.72344(15)
C9 C -0.0897(2) 1.0119(2) 0.67382(16)
C10 C -0.2179(2) 1.0197(2) 0.58081(16)
H8 H -0.22120 1.11390 0.54650
C11 C -0.3405(2) 0.8933(2) 0.53735(17)
H9 H -0.42710 0.90130 0.47420
C12 C -0.3367(2) 0.7552(2) 0.58620(17)
H10 H -0.42090 0.66880 0.55550
C13 C -0.2124(2) 0.7400(2) 0.67900(15)
C14 C 0.0446(2) 1.1508(2) 0.72387(17)
H11 H 0.14660 1.10690 0.74440
C15 C 0.0181(2) 1.2396(2) 0.84050(17)
H12 H -0.08280 1.28180 0.82410
H13 H 0.10740 1.32640 0.87250
H14 H 0.01280 1.16740 0.89950
C16 C 0.0685(3) 1.2652(2) 0.63448(18)
H15 H 0.07640 1.20610 0.55800
H16 H 0.16750 1.34060 0.66690
H17 H -0.02300 1.32200 0.62140
C17 C -0.2086(2) 0.5893(2) 0.73535(16)
H18 H -0.09620 0.56620 0.74710
C18 C -0.2516(2) 0.6126(2) 0.85858(17)
H19 H -0.18440 0.70740 0.90750
H20 H -0.23290 0.52090 0.89840
H21 H -0.36490 0.62440 0.84900
C19 C -0.3192(2) 0.4459(2) 0.65626(18)
H22 H -0.43130 0.46080 0.64990
H23 H -0.30220 0.35110 0.69230
H24 H -0.29470 0.43430 0.57600
#END
