
#######################################################################
#
#                 Cambridge Crystallographic Data Centre
#                                CCDC
#
#######################################################################
#
# If this CIF has been generated from an entry in the Cambridge
# Structural Database, then it will include bibliographic, chemical,
# crystal, experimental, refinement or atomic coordinate data resulting
# from the CCDC's data processing and validation procedures.
#
#######################################################################

data_CSD_CIF_KEDPOB
_audit_creation_date 2017-07-27
_audit_creation_method CSD-ConQuest-V1
_database_code_CSD KEDPOB
_database_code_depnum_ccdc_archive 'CCDC 1529960'
_chemical_formula_sum 'C19 H19 N3 O8'
_chemical_formula_moiety
;
C19 H19 N3 O8
;
_journal_coden_Cambridge 1220
_journal_volume 23
_journal_year 2017
_journal_page_first 7953
_journal_name_full 'Chem.-Eur.J. '
loop_
_publ_author_name
"D.Evequoz"
"C.J.Leumann"
_chemical_name_systematic
;
(3'S,5'R,7'R)-1-(2',3'-dideoxy-3',5'-ethano-7'-O-(4-nitrobenzoate)-\b-D-ribofu
ranosyl)thymine
;
_cell_volume    926.079
_exptl_crystal_colour 'colorless'
_exptl_crystal_density_diffrn 1.497
_exptl_crystal_description 'prism'
_diffrn_ambient_temperature 173
#These two values have been output from a single CSD field.
_refine_ls_R_factor_gt 0.0344
_refine_ls_wR_factor_gt 0.0344
_symmetry_cell_setting monoclinic
_symmetry_space_group_name_H-M 'P 21'
_symmetry_Int_Tables_number 4
loop_
_symmetry_equiv_pos_site_id
_symmetry_equiv_pos_as_xyz
1 x,y,z
2 -x,1/2+y,-z
_cell_length_a 7.0712(2)
_cell_length_b 6.48123(16)
_cell_length_c 20.4085(6)
_cell_angle_alpha 90
_cell_angle_beta 98.062(3)
_cell_angle_gamma 90
_cell_formula_units_Z 2
loop_
_atom_type_symbol
_atom_type_radius_bond
C 0.68
H 0.23
N 0.68
O 0.68
loop_
_atom_site_label
_atom_site_type_symbol
_atom_site_fract_x
_atom_site_fract_y
_atom_site_fract_z
C1 C 0.0299(3) 0.9337(4) 0.54508(11)
C2 C -0.0691(3) 0.9335(4) 0.48215(11)
H1 H -0.20480 0.93420 0.47520
C3 C 0.0336(3) 0.9322(4) 0.42916(11)
H2 H -0.03150 0.93210 0.38520
C4 C 0.2321(3) 0.9309(4) 0.44038(11)
C5 C 0.3277(3) 0.9325(5) 0.50462(12)
H3 H 0.46340 0.93250 0.51200
C6 C 0.2268(4) 0.9340(5) 0.55788(12)
H4 H 0.29110 0.93510 0.60200
C7 C 0.3525(3) 0.9206(4) 0.38583(11)
C8 C 0.3594(4) 0.8752(4) 0.27141(11)
H5 H 0.48060 0.95670 0.27640
C9 C 0.2317(3) 0.9258(4) 0.20721(11)
H6 H 0.30810 0.94640 0.17060
H7 H 0.15580 1.05190 0.21200
C10 C 0.1028(4) 0.7378(4) 0.19460(11)
H8 H 0.00460 0.74770 0.22530
C11 C 0.2315(3) 0.5541(4) 0.21735(11)
H9 H 0.15960 0.44490 0.23820
C12 C 0.3971(3) 0.6427(4) 0.26744(11)
H10 H 0.40060 0.57620 0.31180
C13 C 0.5767(3) 0.5892(4) 0.23658(12)
H11 H 0.61670 0.70530 0.21020
H12 H 0.68410 0.54910 0.27070
C14 C 0.5052(3) 0.4087(4) 0.19331(11)
H13 H 0.49210 0.28610 0.22210
C15 C 0.6152(3) 0.4715(4) 0.08574(11)
H14 H 0.55530 0.60280 0.08490
C16 C 0.6955(3) 0.4132(4) 0.03304(11)
C17 C 0.6949(4) 0.5439(4) -0.02759(12)
H15 H 0.60290 0.48770 -0.06360
H16 H 0.82270 0.54400 -0.04090
H17 H 0.65860 0.68540 -0.01790
C18 C 0.7841(3) 0.2119(4) 0.03407(11)
C19 C 0.7129(3) 0.1654(4) 0.14838(12)
N1 N -0.0777(3) 0.9330(4) 0.60182(10)
N2 N 0.6152(3) 0.3499(3) 0.14128(10)
N3 N 0.7951(3) 0.1067(3) 0.09381(10)
H18 H 0.86100 -0.00890 0.09720
O1 O 0.0112(3) 0.9396(5) 0.65724(9)
O2 O -0.2519(3) 0.9246(4) 0.59095(9)
O3 O 0.5241(2) 0.9131(4) 0.39520(9)
O4 O 0.2489(2) 0.9148(3) 0.32562(7)
O5 O 0.0030(2) 0.7229(3) 0.12920(8)
H19 H 0.07920 0.68710 0.10320
O6 O 0.3196(2) 0.4719(3) 0.16332(8)
O7 O 0.7248(3) 0.0594(3) 0.19800(9)
O8 O 0.8461(3) 0.1301(3) -0.01272(8)
#END
