
#######################################################################
#
#                 Cambridge Crystallographic Data Centre
#                                CCDC
#
#######################################################################
#
# If this CIF has been generated from an entry in the Cambridge
# Structural Database, then it will include bibliographic, chemical,
# crystal, experimental, refinement or atomic coordinate data resulting
# from the CCDC's data processing and validation procedures.
#
#######################################################################

data_CSD_CIF_KEDXUP
_audit_creation_date 2017-07-27
_audit_creation_method CSD-ConQuest-V1
_database_code_CSD KEDXUP
_database_code_depnum_ccdc_archive 'CCDC 912247'
_chemical_formula_sum 'C19 H13 N1 O5'
_chemical_formula_moiety
;
C19 H13 N1 O5
;
_journal_coden_Cambridge 1671
_journal_volume 32
_journal_year 2013
_journal_page_first 239
_journal_name_full 'Macedonian J.Chem and Chem.Eng. '
loop_
_publ_author_name
"R.P.Nikolova"
"B.Shivachev"
"B.Mikhova"
"B.Stamboliyska"
"K.Mladenovska"
"A.P.Panovska"
"E.Popovski"
_chemical_name_systematic
;
2-methyl-4-(4-nitrophenyl)-4H,5H-pyrano[3,2-c]chromen-5-one
;
_cell_volume   3114.367
_exptl_crystal_colour 'colorless'
_exptl_crystal_density_diffrn 1.43
_exptl_crystal_description 'prism'
_diffrn_ambient_temperature 290
#These two values have been output from a single CSD field.
_refine_ls_R_factor_gt 0.0626
_refine_ls_wR_factor_gt 0.0626
_symmetry_cell_setting orthorhombic
_symmetry_space_group_name_H-M 'P b c n'
_symmetry_Int_Tables_number 60
loop_
_symmetry_equiv_pos_site_id
_symmetry_equiv_pos_as_xyz
1 x,y,z
2 1/2-x,1/2-y,1/2+z
3 1/2+x,1/2-y,-z
4 -x,y,1/2-z
5 -x,-y,-z
6 -1/2+x,-1/2+y,-1/2-z
7 -1/2-x,-1/2+y,z
8 x,-y,-1/2+z
_cell_length_a 13.7944(4)
_cell_length_b 7.4249(3)
_cell_length_c 30.4072(12)
_cell_angle_alpha 90
_cell_angle_beta 90
_cell_angle_gamma 90
_cell_formula_units_Z 8
loop_
_atom_type_symbol
_atom_type_radius_bond
C 0.68
H 0.23
N 0.68
O 0.68
loop_
_atom_site_label
_atom_site_type_symbol
_atom_site_fract_x
_atom_site_fract_y
_atom_site_fract_z
O1 O 0.45320(12) 0.1250(2) 0.42210(5)
O2 O 0.73041(12) 0.2733(3) 0.45742(5)
C1 C 0.62055(17) 0.1504(3) 0.40292(7)
O3 O 0.78870(13) 0.1877(3) 0.39344(6)
C2 C 0.56090(17) 0.2368(3) 0.47565(7)
C3 C 0.54649(17) 0.1679(3) 0.43170(8)
C4 C 0.43568(18) 0.0389(4) 0.38187(8)
C5 C 0.62056(17) 0.2177(4) 0.32041(8)
C6 C 0.71724(18) 0.2012(4) 0.41595(8)
C7 C 0.60667(17) 0.0790(3) 0.35691(7)
H1 H 0.65220 -0.02050 0.35210
C8 C 0.50442(19) 0.0073(4) 0.35316(8)
H2 H 0.48940 -0.06370 0.32890
C9 C 0.48745(19) 0.2541(4) 0.50726(8)
H3 H 0.42470 0.21680 0.50080
C10 C 0.6747(2) 0.3654(4) 0.52717(8)
H4 H 0.73710 0.40390 0.53390
C11 C 0.5080(2) 0.3261(4) 0.54783(9)
H5 H 0.45930 0.33690 0.56880
C12 C 0.62781(18) 0.4618(5) 0.25218(9)
C13 C 0.65423(18) 0.2901(4) 0.48650(8)
C14 C 0.6133(2) 0.4009(4) 0.32819(9)
H6 H 0.60520 0.44190 0.35690
C15 C 0.6332(2) 0.1583(4) 0.27739(9)
H7 H 0.64010 0.03590 0.27170
C16 C 0.6011(2) 0.3825(4) 0.55752(9)
H8 H 0.61430 0.43260 0.58490
C17 C 0.33143(19) -0.0072(4) 0.37797(9)
H9 H 0.31150 -0.07430 0.40340
H10 H 0.32140 -0.07870 0.35210
H11 H 0.29390 0.10140 0.37590
N1 N 0.62880(19) 0.5926(6) 0.21534(10)
C18 C 0.6178(2) 0.5238(4) 0.29415(10)
H12 H 0.61410 0.64670 0.29970
C19 C 0.6356(2) 0.2816(5) 0.24278(9)
H13 H 0.64230 0.24250 0.21390
O4 O 0.6353(2) 0.5317(5) 0.17826(9)
O5 O 0.6201(3) 0.7520(5) 0.22474(10)
#END
