
#######################################################################
#
#                 Cambridge Crystallographic Data Centre
#                                CCDC
#
#######################################################################
#
# If this CIF has been generated from an entry in the Cambridge
# Structural Database, then it will include bibliographic, chemical,
# crystal, experimental, refinement or atomic coordinate data resulting
# from the CCDC's data processing and validation procedures.
#
#######################################################################

data_CSD_CIF_KEFJUD
_audit_creation_date 2017-07-27
_audit_creation_method CSD-ConQuest-V1
_database_code_CSD KEFJUD
_database_code_depnum_ccdc_archive 'CCDC 1523618'
_chemical_formula_sum 'C16 H13 N3 O4'
_chemical_formula_moiety
;
C16 H13 N3 O4
;
_journal_coden_Cambridge 1366
_journal_volume 359
_journal_year 2017
_journal_page_first 2596
_journal_name_full 'Adv.Synth.Catal. '
loop_
_publ_author_name
"Li Wan"
"Kai Qiao"
"Xin Yuan"
"Mingwei Zheng"
"Bingbing Fan"
"Zhechen Di"
"Dong Zhang"
"Zheng Fang"
"Kai Guo"
_chemical_name_systematic
;
N-(2-(4,5-dihydro-1,3-oxazol-2-yl)-4-nitrophenyl)benzamide
;
_cell_volume    715.163
_exptl_crystal_density_diffrn 1.446
_diffrn_ambient_temperature 296
#These two values have been output from a single CSD field.
_refine_ls_R_factor_gt 0.0428
_refine_ls_wR_factor_gt 0.0428
_symmetry_cell_setting triclinic
_symmetry_space_group_name_H-M 'P -1'
_symmetry_Int_Tables_number 2
loop_
_symmetry_equiv_pos_site_id
_symmetry_equiv_pos_as_xyz
1 x,y,z
2 -x,-y,-z
_cell_length_a 7.262(3)
_cell_length_b 9.019(4)
_cell_length_c 11.642(5)
_cell_angle_alpha 81.404(5)
_cell_angle_beta 84.393(6)
_cell_angle_gamma 71.800(5)
_cell_formula_units_Z 2
loop_
_atom_type_symbol
_atom_type_radius_bond
C 0.68
H 0.23
N 0.68
O 0.68
loop_
_atom_site_label
_atom_site_type_symbol
_atom_site_fract_x
_atom_site_fract_y
_atom_site_fract_z
C1 C 0.9017(3) 0.3765(2) 0.68044(16)
H1 H 0.92140 0.33990 0.60830
C2 C 0.9779(3) 0.2764(2) 0.77629(19)
H2 H 1.05000 0.17290 0.76840
C3 C 0.9486(3) 0.3277(3) 0.88501(19)
H3 H 0.99990 0.25930 0.95010
C4 C 0.8423(3) 0.4816(3) 0.89527(17)
H4 H 0.82150 0.51700 0.96790
C5 C 0.7668(3) 0.5831(2) 0.79970(16)
H5 H 0.69590 0.68680 0.80800
C6 C 0.7953(3) 0.5323(2) 0.68977(15)
C7 C 0.7067(3) 0.6498(2) 0.59028(15)
C8 C 0.6148(2) 0.66595(19) 0.38749(14)
C9 C 0.5201(3) 0.8282(2) 0.36971(16)
H6 H 0.50880 0.88860 0.42960
C10 C 0.4438(3) 0.8988(2) 0.26456(17)
H7 H 0.38090 1.00650 0.25330
C11 C 0.4612(3) 0.8091(2) 0.17603(15)
C12 C 0.5544(2) 0.6496(2) 0.18982(14)
H8 H 0.56550 0.59150 0.12850
C13 C 0.6315(2) 0.57614(19) 0.29499(14)
C14 C 0.7293(2) 0.40463(19) 0.30666(14)
C15 C 0.8364(4) 0.1712(2) 0.24038(19)
H9 H 0.95490 0.13290 0.19310
H10 H 0.74860 0.11250 0.23090
C16 C 0.8794(3) 0.1555(2) 0.36614(18)
H11 H 0.81880 0.08380 0.41360
H12 H 1.01820 0.11750 0.37580
N1 N 0.7960(2) 0.31639(17) 0.39787(13)
N2 N 0.3764(2) 0.8822(2) 0.06484(15)
N3 N 0.6918(2) 0.58820(16) 0.49282(12)
H13 H 0.73610 0.48740 0.49690
O1 O 0.6509(3) 0.79031(15) 0.59803(13)
O2 O 0.7468(2) 0.33845(15) 0.20808(11)
O3 O 0.4158(3) 0.80521(19) -0.01694(13)
O4 O 0.2689(3) 1.01776(19) 0.05938(15)
#END
