
#######################################################################
#
#                 Cambridge Crystallographic Data Centre
#                                CCDC
#
#######################################################################
#
# If this CIF has been generated from an entry in the Cambridge
# Structural Database, then it will include bibliographic, chemical,
# crystal, experimental, refinement or atomic coordinate data resulting
# from the CCDC's data processing and validation procedures.
#
#######################################################################

data_CSD_CIF_KEFVIA
_audit_creation_date 1990-08-28
_audit_creation_method CSD-ConQuest-V1
_database_code_CSD KEFVIA
_chemical_formula_sum 'C19 H19 N1 O2'
_chemical_formula_moiety
;
C19 H19 N1 O2
;
_journal_coeditor_code "IUCr PA0075"
_journal_coden_Cambridge 591
_journal_volume 46
_journal_year 1990
_journal_page_first 256
_journal_name_full 'Acta Crystallogr.,Sect.C:Cryst.Struct.Commun. '
loop_
_publ_author_name
"G.Bocelli"
_chemical_name_systematic
;
2-(p-Nitrophenyl)-3-phenylbicyclo(2.2.1)heptane
;
_cell_volume   1559.936
_exptl_crystal_density_diffrn 1.25
_diffrn_ambient_temperature ?
_diffrn_special_details
;
The study was carried out at room temperature,in the range 283-303K

;
#These two values have been output from a single CSD field.
_refine_ls_R_factor_gt 0.06
_refine_ls_wR_factor_gt 0.06
_symmetry_cell_setting monoclinic
_symmetry_space_group_name_H-M 'P 21/n'
_symmetry_Int_Tables_number 14
loop_
_symmetry_equiv_pos_site_id
_symmetry_equiv_pos_as_xyz
1 x,y,z
2 1/2-x,1/2+y,1/2-z
3 -x,-y,-z
4 -1/2+x,-1/2-y,-1/2+z
_cell_length_a 9.141(2)
_cell_length_b 13.048(2)
_cell_length_c 13.091(3)
_cell_angle_alpha 90
_cell_angle_beta 92.47(3)
_cell_angle_gamma 90
_cell_formula_units_Z 4
loop_
_atom_type_symbol
_atom_type_radius_bond
C 0.68
H 0.23
N 0.68
O 0.68
loop_
_atom_site_label
_atom_site_type_symbol
_atom_site_fract_x
_atom_site_fract_y
_atom_site_fract_z
O1 O 0.3195(3) 0.4821(1) 0.8384(1)
O2 O 0.4432(2) 0.5671(1) 0.7297(2)
N1 N 0.3750(2) 0.4902(1) 0.7553(2)
C1 C 0.3210(2) 0.1497(2) 0.4769(2)
C2 C 0.1712(2) 0.1441(2) 0.4098(2)
C3 C 0.2263(2) 0.1422(2) 0.2991(2)
C4 C 0.2859(3) 0.0343(3) 0.2784(3)
C5 C 0.4260(3) 0.0296(2) 0.3502(2)
C6 C 0.4359(2) 0.1396(2) 0.3946(2)
C7 C 0.3691(2) 0.2044(2) 0.3072(2)
C8 C 0.3376(2) 0.2414(1) 0.5473(1)
C9 C 0.2643(2) 0.2405(2) 0.6388(2)
C10 C 0.2756(2) 0.3210(2) 0.7077(2)
C11 C 0.3608(2) 0.4042(2) 0.6837(1)
C12 C 0.4363(2) 0.4074(2) 0.5951(2)
C13 C 0.4246(2) 0.3263(2) 0.5274(2)
C14 C 0.0567(2) 0.2238(1) 0.4322(1)
C15 C 0.0541(2) 0.3206(2) 0.3887(2)
C16 C -0.0535(3) 0.3917(2) 0.4115(2)
C17 C -0.1628(3) 0.3653(2) 0.4762(2)
C18 C -0.1629(2) 0.2693(2) 0.5188(2)
C19 C -0.0544(2) 0.1990(2) 0.4974(2)
H1 H 0.326(33) 0.092(25) 0.523(23)
H2 H 0.125(25) 0.078(17) 0.425(16)
H3 H 0.156(30) 0.169(21) 0.246(20)
H4 H 0.229(38) -0.018(27) 0.301(23)
H5 H 0.315(33) 0.025(23) 0.210(23)
H6 H 0.413(35) -0.027(23) 0.407(25)
H7 H 0.510(38) 0.004(23) 0.307(24)
H8 H 0.536(32) 0.162(21) 0.417(20)
H9 H 0.204(29) 0.175(20) 0.654(18)
H10 H 0.417(29) 0.193(21) 0.238(20)
H11 H 0.346(29) 0.285(23) 0.324(20)
H12 H 0.224(31) 0.321(23) 0.771(21)
H13 H 0.498(37) 0.461(24) 0.589(24)
H14 H 0.482(31) 0.333(20) 0.472(20)
H15 H 0.136(26) 0.337(18) 0.343(17)
H16 H -0.049(29) 0.467(20) 0.377(20)
H17 H -0.261(30) 0.421(20) 0.484(20)
H18 H -0.243(28) 0.243(18) 0.563(18)
H19 H -0.052(24) 0.126(18) 0.526(17)
#END
