
#######################################################################
#
#                 Cambridge Crystallographic Data Centre
#                                CCDC
#
#######################################################################
#
# If this CIF has been generated from an entry in the Cambridge
# Structural Database, then it will include bibliographic, chemical,
# crystal, experimental, refinement or atomic coordinate data resulting
# from the CCDC's data processing and validation procedures.
#
#######################################################################

data_CSD_CIF_KEFYOK02
_audit_creation_date 2010-03-08
_audit_creation_method CSD-ConQuest-V1
_database_code_CSD KEFYOK02
_database_code_depnum_ccdc_archive 'CCDC 720264'
_chemical_formula_sum 'C7 H8 N2 O2'
_chemical_formula_moiety
;
C7 H8 N2 O2
;
_journal_coeditor_code "IUCr GD3303"
_journal_coden_Cambridge 591
_journal_volume 65
_journal_year 2009
_journal_page_first o539
_journal_name_full 'Acta Crystallogr.,Sect.C:Cryst.Struct.Commun. '
loop_
_publ_author_name
"S.K.Callear"
"M.B.Hursthouse"
_chemical_name_systematic
;
2-Methyl-6-nitroaniline
;
_cell_volume    719.663
_exptl_crystal_colour 'orange'
_exptl_crystal_density_diffrn 1.404
_exptl_special_details
;
polymorph II

;
_exptl_crystal_description 'needle'
_exptl_crystal_preparation 'methanol/benzenesulfonic acid'
_diffrn_ambient_temperature 120
#These two values have been output from a single CSD field.
_refine_ls_R_factor_gt 0.0451
_refine_ls_wR_factor_gt 0.0451
_symmetry_cell_setting monoclinic
_symmetry_space_group_name_H-M 'P 21/c'
_symmetry_Int_Tables_number 14
loop_
_symmetry_equiv_pos_site_id
_symmetry_equiv_pos_as_xyz
1 x,y,z
2 -x,1/2+y,1/2-z
3 -x,-y,-z
4 x,-1/2-y,-1/2+z
_cell_length_a 3.9248(2)
_cell_length_b 12.8496(8)
_cell_length_c 14.2746(9)
_cell_angle_alpha 90
_cell_angle_beta 91.464(4)
_cell_angle_gamma 90
_cell_formula_units_Z 4
loop_
_atom_type_symbol
_atom_type_radius_bond
C 0.68
H 0.23
N 0.68
O 0.68
loop_
_atom_site_label
_atom_site_type_symbol
_atom_site_fract_x
_atom_site_fract_y
_atom_site_fract_z
C1 C 0.3383(3) 0.84204(11) 0.25832(10)
C2 C 0.1879(4) 0.92341(13) 0.20402(11)
C3 C 0.0633(4) 1.01012(13) 0.24766(13)
H1 H -0.03980 1.06330 0.21040
C4 C 0.0821(4) 1.02305(13) 0.34367(13)
H2 H -0.00610 1.08410 0.37170
C5 C 0.2281(4) 0.94741(13) 0.39741(12)
H3 H 0.24570 0.95590 0.46350
C6 C 0.3526(3) 0.85709(11) 0.35587(10)
C7 C 0.1676(6) 0.91331(18) 0.09944(12)
H4 H 0.05080 0.97420 0.07260
H5 H 0.04040 0.85020 0.08240
H6 H 0.39820 0.90900 0.07500
N1 N 0.4565(4) 0.75594(11) 0.21480(11)
N2 N 0.5077(4) 0.78146(11) 0.41765(10)
O1 O 0.5386(4) 0.80276(11) 0.50157(9)
O2 O 0.6083(4) 0.69781(11) 0.38718(10)
H7 H 0.553(5) 0.7044(13) 0.2494(14)
H8 H 0.468(5) 0.7543(15) 0.1541(11)
#END
