
#######################################################################
#
#                 Cambridge Crystallographic Data Centre
#                                CCDC
#
#######################################################################
#
# If this CIF has been generated from an entry in the Cambridge
# Structural Database, then it will include bibliographic, chemical,
# crystal, experimental, refinement or atomic coordinate data resulting
# from the CCDC's data processing and validation procedures.
#
#######################################################################

data_CSD_CIF_KEFYIG
_audit_creation_date 2017-07-28
_audit_creation_method CSD-ConQuest-V1
_database_code_CSD KEFYIG
_database_code_depnum_ccdc_archive 'CCDC 1546726'
_chemical_formula_sum 'C21 H13 N1 O5'
_chemical_formula_moiety
;
C21 H13 N1 O5
;
_journal_coden_Cambridge 182
_journal_volume 53
_journal_year 2017
_journal_page_first 9081
_journal_name_full 'Chem.Commun. '
loop_
_publ_author_name
"A.H.Bansode"
"S.R.Shaikh"
"R.G.Gonnade"
"N.T.Patil"
_chemical_name_systematic
;
3-(4-nitrophenyl)-4-phenyl-1-oxaspiro[4.5]deca-3,6,9-triene-2,8-dione
;
_cell_volume   1670.486
_exptl_crystal_colour 'colorless'
_exptl_crystal_density_diffrn 1.429
_exptl_crystal_description 'plate'
_exptl_crystal_preparation 'chloroform'
_diffrn_ambient_temperature 100
#These two values have been output from a single CSD field.
_refine_ls_R_factor_gt 0.0342
_refine_ls_wR_factor_gt 0.0342
_symmetry_cell_setting monoclinic
_symmetry_space_group_name_H-M 'P 21/n'
_symmetry_Int_Tables_number 14
loop_
_symmetry_equiv_pos_site_id
_symmetry_equiv_pos_as_xyz
1 x,y,z
2 1/2-x,1/2+y,1/2-z
3 -x,-y,-z
4 -1/2+x,-1/2-y,-1/2+z
_cell_length_a 8.4218(3)
_cell_length_b 19.7062(6)
_cell_length_c 10.0798(3)
_cell_angle_alpha 90
_cell_angle_beta 93.053(1)
_cell_angle_gamma 90
_cell_formula_units_Z 4
loop_
_atom_type_symbol
_atom_type_radius_bond
C 0.68
H 0.23
N 0.68
O 0.68
loop_
_atom_site_label
_atom_site_type_symbol
_atom_site_fract_x
_atom_site_fract_y
_atom_site_fract_z
O1 O 0.77510(13) 1.02749(5) 0.45660(12)
O2 O 0.58216(12) 0.70809(5) 0.09604(9)
O3 O 0.64774(11) 0.80558(5) 0.19749(9)
O4 O 0.17238(15) 0.46463(6) 0.53675(13)
O5 O 0.28890(13) 0.41973(5) 0.37287(12)
C1 C 0.73658(17) 0.97103(7) 0.41521(14)
C2 C 0.57685(17) 0.95779(7) 0.35386(14)
H1 H 0.50390 0.99430 0.34200
C3 C 0.53233(16) 0.89592(7) 0.31465(13)
H2 H 0.42800 0.88980 0.27600
C4 C 0.64020(16) 0.83527(7) 0.32895(12)
C5 C 0.80568(16) 0.85218(7) 0.38124(13)
H3 H 0.88340 0.81720 0.38470
C6 C 0.84857(16) 0.91366(7) 0.42289(13)
H4 H 0.95400 0.92080 0.45850
C7 C 0.57187(14) 0.77804(6) 0.41098(12)
C8 C 0.54511(15) 0.72327(6) 0.33325(12)
C9 C 0.59053(15) 0.74063(7) 0.19696(13)
C10 C 0.55627(15) 0.78720(6) 0.55512(12)
C11 C 0.46099(16) 0.83866(7) 0.60341(13)
H5 H 0.40400 0.86810 0.54330
C12 C 0.44975(17) 0.84675(7) 0.73965(14)
H6 H 0.38540 0.88190 0.77250
C13 C 0.53151(17) 0.80398(7) 0.82735(13)
H7 H 0.52320 0.80970 0.92030
C14 C 0.62635(16) 0.75237(7) 0.77971(13)
H8 H 0.68230 0.72290 0.84030
C15 C 0.63904(16) 0.74409(7) 0.64453(13)
H9 H 0.70420 0.70900 0.61230
C16 C 0.47538(15) 0.65668(6) 0.36401(12)
C17 C 0.37585(15) 0.64972(7) 0.46967(13)
H10 H 0.35570 0.68790 0.52380
C18 C 0.30598(16) 0.58796(7) 0.49684(13)
H11 H 0.23950 0.58330 0.56950
C19 C 0.33523(16) 0.53352(7) 0.41608(14)
N1 N 0.25967(14) 0.46805(6) 0.44441(13)
C20 C 0.43269(17) 0.53813(7) 0.31031(14)
H12 H 0.45110 0.49970 0.25640
C21 C 0.50300(16) 0.60000(7) 0.28467(13)
H13 H 0.57060 0.60400 0.21260
#END
