
#######################################################################
#
#                 Cambridge Crystallographic Data Centre
#                                CCDC
#
#######################################################################
#
# If this CIF has been generated from an entry in the Cambridge
# Structural Database, then it will include bibliographic, chemical,
# crystal, experimental, refinement or atomic coordinate data resulting
# from the CCDC's data processing and validation procedures.
#
#######################################################################

data_CSD_CIF_KEGJOX
_audit_creation_date 2012-11-07
_audit_creation_method CSD-ConQuest-V1
_database_code_CSD KEGJOX
_database_code_depnum_ccdc_archive 'CCDC 831692'
_chemical_formula_sum 'C17 H18 N2 O7'
_chemical_formula_moiety
;
C17 H18 N2 O7
;
_journal_coden_Cambridge 603
_journal_volume 31
_journal_year 2012
_journal_page_first 723
_journal_name_full 'Jiegou Huaxue(Chin.)(Chin.J.Struct.Chem.) '
loop_
_publ_author_name
"Cheng-Xue Pan"
"Xiao-Long Liang"
"Gui-Fa Su"
"Wan-Yun Huang"
"Li Li"
_chemical_name_systematic
;
Ethyl 
3-acetamido-6-methyl-4-(4-nitrophenyl)-2-oxo-3,4-dihydro-2H-pyran-5-carboxylat
e
;
_cell_volume   3630.441
_exptl_crystal_colour 'colorless'
_exptl_crystal_density_diffrn 1.326
_exptl_crystal_description 'block'
_diffrn_ambient_temperature 298
_refine_special_details
;
O6 and O6' disordered over two sites with occupancies 0.579:0.421.

;
#These two values have been output from a single CSD field.
_refine_ls_R_factor_gt 0.0646
_refine_ls_wR_factor_gt 0.0646
_symmetry_cell_setting orthorhombic
_symmetry_space_group_name_H-M 'P b c a'
_symmetry_Int_Tables_number 61
loop_
_symmetry_equiv_pos_site_id
_symmetry_equiv_pos_as_xyz
1 x,y,z
2 1/2-x,-y,1/2+z
3 -x,1/2+y,1/2-z
4 1/2+x,1/2-y,-z
5 -x,-y,-z
6 -1/2+x,y,-1/2-z
7 x,-1/2-y,-1/2+z
8 -1/2-x,-1/2+y,z
_cell_length_a 11.7781(16)
_cell_length_b 9.5979(10)
_cell_length_c 32.115(3)
_cell_angle_alpha 90
_cell_angle_beta 90
_cell_angle_gamma 90
_cell_formula_units_Z 8
loop_
_atom_type_symbol
_atom_type_radius_bond
C 0.68
H 0.23
N 0.68
O 0.68
loop_
_atom_site_label
_atom_site_type_symbol
_atom_site_fract_x
_atom_site_fract_y
_atom_site_fract_z
N1 N 0.8229(2) 0.9425(3) 0.69429(10)
H1 H 0.80790 1.03000 0.69590
N2 N 0.8555(5) 1.1300(6) 0.50895(16)
O1 O 1.1265(2) 0.9915(3) 0.71082(8)
O2 O 0.9788(2) 1.1168(3) 0.72955(10)
O3 O 0.7579(2) 0.7258(3) 0.68906(10)
O4 O 1.0883(3) 0.6358(3) 0.61244(10)
O5 O 1.2659(3) 0.6948(4) 0.62708(12)
O6 O 0.9377(15) 1.2057(15) 0.4915(4)
O7 O 0.7699(5) 1.0986(7) 0.49220(16)
C1 C 1.0121(3) 1.0115(4) 0.71326(12)
C2 C 0.9395(3) 0.8960(4) 0.69707(12)
H2 H 0.94130 0.82200 0.71810
C3 C 0.9849(3) 0.8321(4) 0.65657(12)
H3 H 0.95130 0.73900 0.65430
C4 C 1.1115(3) 0.8117(4) 0.66052(13)
C5 C 1.1737(3) 0.8862(5) 0.68660(13)
C6 C 0.7382(3) 0.8516(4) 0.68923(13)
C7 C 0.6218(3) 0.9099(4) 0.68332(15)
H4 H 0.60060 0.90230 0.65460
H5 H 0.62120 1.00610 0.69150
H6 H 0.56890 0.85870 0.70010
C8 C 0.9513(3) 0.9110(4) 0.61759(12)
C9 C 1.0120(4) 1.0246(5) 0.60423(14)
H7 H 1.07480 1.05420 0.61940
C10 C 0.9814(4) 1.0948(5) 0.56898(16)
H8 H 1.02390 1.17080 0.56000
C11 C 0.8887(4) 1.0532(5) 0.54713(14)
C12 C 0.8266(4) 0.9421(6) 0.55933(16)
H9 H 0.76300 0.91460 0.54420
C13 C 0.8590(4) 0.8707(5) 0.59441(14)
H10 H 0.81730 0.79310 0.60270
C14 C 1.1654(4) 0.7102(5) 0.63262(14)
C15 C 1.1282(5) 0.5410(6) 0.58041(16)
H11 H 1.17190 0.46590 0.59270
H12 H 1.17600 0.59000 0.56060
C16 C 1.0266(6) 0.4855(6) 0.55951(19)
H13 H 0.98440 0.42880 0.57870
H14 H 1.04910 0.43020 0.53600
H15 H 0.97990 0.56130 0.55020
C17 C 1.2980(3) 0.8807(6) 0.69590(14)
H16 H 1.31800 0.78860 0.70490
H17 H 1.31560 0.94640 0.71750
H18 H 1.34010 0.90380 0.67120
O8? O 0.884(2) 1.243(2) 0.5055(6)
#END
