
#######################################################################
#
#                 Cambridge Crystallographic Data Centre
#                                CCDC
#
#######################################################################
#
# If this CIF has been generated from an entry in the Cambridge
# Structural Database, then it will include bibliographic, chemical,
# crystal, experimental, refinement or atomic coordinate data resulting
# from the CCDC's data processing and validation procedures.
#
#######################################################################

data_CSD_CIF_KEGJIP
_audit_creation_date 1990-09-07
_audit_creation_method CSD-ConQuest-V1
_database_code_CSD KEGJIP
_chemical_formula_sum 'C30 H28 N2 O4'
_chemical_formula_moiety
;
C30 H28 N2 O4
;
_journal_coden_Cambridge 35
_journal_volume 55
_journal_year 1990
_journal_page_first 918
_journal_name_full 'J.Org.Chem. '
loop_
_publ_author_name
"A.S.Kende"
"M.J.Luzzio"
"J.S.Mendoza"
_chemical_name_systematic
;
(+-)-4-(1,1'-Biphenyl-4-ylcarbonyl)-7-epi-20-desethylgelsedine
;
_chemical_melting_point 521.15
_cell_volume   2448.698
_exptl_crystal_density_diffrn 1.3
_exptl_special_details
;
Melts with decomposition.

;
_diffrn_ambient_temperature ?
_diffrn_special_details
;
The study was carried out at room temperature,in the range 283-303K

;
#These two values have been output from a single CSD field.
_refine_ls_R_factor_gt 0.056
_refine_ls_wR_factor_gt 0.056
_symmetry_cell_setting monoclinic
_symmetry_space_group_name_H-M 'P 21/n'
_symmetry_Int_Tables_number 14
loop_
_symmetry_equiv_pos_site_id
_symmetry_equiv_pos_as_xyz
1 x,y,z
2 1/2-x,1/2+y,1/2-z
3 -x,-y,-z
4 -1/2+x,-1/2-y,-1/2+z
_cell_length_a 11.861(8)
_cell_length_b 6.811(6)
_cell_length_c 30.41(2)
_cell_angle_alpha 90
_cell_angle_beta 94.62(5)
_cell_angle_gamma 90
_cell_formula_units_Z 4
loop_
_atom_type_symbol
_atom_type_radius_bond
C 0.68
H 0.23
N 0.68
O 0.68
loop_
_atom_site_label
_atom_site_type_symbol
_atom_site_fract_x
_atom_site_fract_y
_atom_site_fract_z
O1 O 0.9845(3) -0.0715(8) 0.4450(1)
O2 O 0.7876(4) 0.1005(8) 0.4766(2)
O3 O 0.7128(4) 0.4813(7) 0.4339(1)
O4 O 0.4107(3) -0.0888(7) 0.3443(1)
N1 N 0.8890(4) -0.0039(9) 0.4203(2)
N2 N 0.4796(4) 0.2178(8) 0.3402(2)
C1 C 0.7678(5) 0.050(1) 0.3604(2)
C2 C 0.8718(5) -0.035(1) 0.3755(2)
C3 C 0.4993(5) 0.405(1) 0.3178(2)
C4 C 0.9669(6) -0.262(1) 0.4645(2)
C5 C 0.5018(5) 0.236(1) 0.3882(2)
C6 C 0.5975(5) 0.106(1) 0.4076(2)
C7 C 0.7195(5) 0.154(1) 0.3985(2)
C8 C 0.8009(6) 0.081(1) 0.4381(2)
C9 C 0.7321(5) 0.027(1) 0.3164(2)
C10 C 0.7978(6) -0.074(1) 0.2885(2)
C11 C 0.8997(6) -0.153(1) 0.3047(2)
C12 C 0.9384(5) -0.135(1) 0.3483(2)
C13 C 0.7437(5) 0.381(1) 0.3958(2)
C14 C 0.6975(5) 0.486(1) 0.3546(2)
C15 C 0.5702(5) 0.523(1) 0.3522(2)
C16 C 0.5218(5) 0.459(1) 0.3946(2)
C17 C 0.5951(6) 0.514(1) 0.4356(2)
C18 C 0.4316(5) 0.054(1) 0.3216(2)
C19 C 0.4094(5) 0.045(1) 0.2735(2)
C20 C 0.3311(5) 0.166(1) 0.2494(2)
C21 C 0.3042(5) 0.136(1) 0.2050(2)
C22 C 0.3540(5) -0.010(1) 0.1816(2)
C23 C 0.4356(5) -0.129(1) 0.2056(2)
C24 C 0.4596(5) -0.100(1) 0.2501(2)
C25 C 0.3230(5) -0.042(1) 0.1345(2)
C26 C 0.2849(5) 0.115(1) 0.1068(2)
C27 C 0.2558(5) 0.079(2) 0.0624(3)
C28 C 0.2621(6) -0.106(2) 0.0450(2)
C29 C 0.2998(7) -0.259(1) 0.0715(3)
C30 C 0.3286(6) -0.226(1) 0.1159(2)
H1 H 0.53920 0.38390 0.29240
H2 H 0.42980 0.46940 0.30960
H3 H 0.90640 -0.25450 0.48310
H4 H 0.94900 -0.35570 0.44180
H5 H 1.03390 -0.30180 0.48150
H6 H 0.43480 0.20140 0.40150
H7 H 0.59430 0.10730 0.43870
H8 H 0.58230 -0.02340 0.39680
H9 H 0.66180 0.08180 0.30520
H10 H 0.77270 -0.08910 0.25830
H11 H 0.94420 -0.22270 0.28520
H12 H 1.00890 -0.18930 0.35910
H13 H 0.82360 0.39280 0.39630
H14 H 0.73450 0.60980 0.35340
H15 H 0.71360 0.40980 0.32980
H16 H 0.55580 0.65870 0.34600
H17 H 0.45040 0.52080 0.39600
H18 H 0.57070 0.43860 0.45940
H19 H 0.58410 0.64930 0.44120
H20 H 0.29610 0.27080 0.26400
H21 H 0.24950 0.21850 0.18980
H22 H 0.47400 -0.22810 0.19090
H23 H 0.51310 -0.18460 0.26550
H24 H 0.27930 0.24370 0.11850
H25 H 0.23100 0.18450 0.04370
H26 H 0.24050 -0.12790 0.01460
H27 H 0.30600 -0.38750 0.05950
H28 H 0.35320 -0.33330 0.13410
#END
