
#######################################################################
#
#                 Cambridge Crystallographic Data Centre
#                                CCDC
#
#######################################################################
#
# If this CIF has been generated from an entry in the Cambridge
# Structural Database, then it will include bibliographic, chemical,
# crystal, experimental, refinement or atomic coordinate data resulting
# from the CCDC's data processing and validation procedures.
#
#######################################################################

data_CSD_CIF_KEGNOA
_audit_creation_date 2006-09-13
_audit_creation_method CSD-ConQuest-V1
_database_code_CSD KEGNOA
_database_code_depnum_ccdc_archive 'CCDC 289084'
_chemical_formula_sum 'C22 H26 N2 O6'
_chemical_formula_moiety
;
C22 H26 N2 O6
;
_journal_coden_Cambridge 1090
_journal_volume 17
_journal_year 2006
_journal_page_first 1217
_journal_name_full 'Tetrahedron:Asymm. '
loop_
_publ_author_name
"U.Groselj"
"D.Bevk"
"R.Jakse"
"A.Meden"
"B.Stanovnik"
"J.Svete"
_chemical_name_systematic
;
(1R,4R,4'S,5S)-3'-(2,4,6-Trimethoxyphenyl)-1,8,8-trimethyl-3-oxo-4'H-2-oxa-spi
ro((bicyclo(3.2.1)octane)-4,5'-isoxazole)-4'-carbonitrile
;
_chemical_melting_point 456.15
_cell_volume   2155.284
_exptl_crystal_colour 'colorless'
_exptl_crystal_density_diffrn 1.277
_exptl_special_details
;
Melting point range 456.15-458.15K

;
_exptl_crystal_description 'prism'
_exptl_crystal_preparation 'toluene/di-isopropyl ether/petroleum ether'
_diffrn_ambient_temperature 293
#These two values have been output from a single CSD field.
_refine_ls_R_factor_gt 0.04
_refine_ls_wR_factor_gt 0.04
_symmetry_cell_setting orthorhombic
_symmetry_space_group_name_H-M 'P 21 21 21'
_symmetry_Int_Tables_number 19
loop_
_symmetry_equiv_pos_site_id
_symmetry_equiv_pos_as_xyz
1 x,y,z
2 1/2-x,-y,1/2+z
3 1/2+x,1/2-y,-z
4 -x,1/2+y,1/2-z
_cell_length_a 10.2090(2)
_cell_length_b 13.9277(2)
_cell_length_c 15.1580(3)
_cell_angle_alpha 90
_cell_angle_beta 90
_cell_angle_gamma 90
_cell_formula_units_Z 4
loop_
_atom_type_symbol
_atom_type_radius_bond
C 0.68
H 0.23
N 0.68
O 0.68
loop_
_atom_site_label
_atom_site_type_symbol
_atom_site_fract_x
_atom_site_fract_y
_atom_site_fract_z
O1 O 0.5522(2) -0.02173(17) 0.4855(2)
O2 O 0.6583(3) 0.0507(2) 0.5909(2)
O3 O 0.8296(2) -0.10892(14) 0.59316(13)
O4 O 1.2153(2) -0.04029(16) 0.6329(2)
O5 O 1.3473(3) 0.2911(2) 0.6532(2)
O6 O 0.9171(2) 0.20384(16) 0.5670(2)
N1 N 0.9287(3) -0.05189(18) 0.63217(17)
N2 N 1.0632(4) -0.0523(4) 0.3724(3)
C1 C 0.5392(3) -0.1030(3) 0.4211(3)
C2 C 0.6595(3) -0.0083(2) 0.5331(2)
C3 C 0.7839(3) -0.06535(19) 0.5111(2)
C4 C 0.7569(3) -0.1465(2) 0.4451(2)
C5 C 0.6743(4) -0.2260(2) 0.4901(3)
C6 C 0.5320(4) -0.1952(3) 0.4756(4)
C7 C 0.6676(4) -0.1104(2) 0.3696(2)
C8 C 0.6562(5) -0.1883(3) 0.2976(3)
C9 C 0.7096(4) -0.0171(3) 0.3243(3)
C10 C 0.4158(5) -0.0767(4) 0.3702(5)
C11 C 0.9644(3) 0.0126(2) 0.5785(2)
C12 C 0.8944(3) 0.0074(2) 0.4899(2)
C13 C 0.9889(4) -0.0259(2) 0.4230(2)
C14 C 1.0688(3) 0.0833(2) 0.5989(2)
C15 C 1.1925(3) 0.0558(2) 0.6274(2)
C16 C 1.2889(3) 0.1228(2) 0.6479(3)
C17 C 1.2582(4) 0.2190(2) 0.6386(3)
C18 C 1.1351(4) 0.2498(2) 0.6118(3)
C19 C 1.0416(3) 0.1820(2) 0.5921(2)
C20 C 1.3316(4) -0.0705(3) 0.6747(3)
C21 C 1.4765(6) 0.2637(4) 0.6818(5)
C22 C 0.8758(4) 0.3022(3) 0.5750(3)
H1 H 0.84577 -0.17517 0.42395
H2 H 0.69484 -0.23023 0.55694
H3 H 0.69171 -0.29243 0.46059
H4 H 0.48563 -0.18199 0.53497
H5 H 0.48064 -0.24762 0.44060
H6 H 0.62112 -0.25176 0.32607
H7 H 0.74654 -0.20086 0.26923
H8 H 0.58998 -0.16559 0.24962
H9 H 0.71469 0.03763 0.37105
H10 H 0.64023 0.00091 0.27671
H11 H 0.80016 -0.02618 0.29489
H12 H 0.33742 -0.07043 0.41545
H13 H 0.39302 -0.13092 0.32566
H14 H 0.42825 -0.01252 0.33812
H15 H 1.38133 0.10091 0.66965
H16 H 1.11357 0.32331 0.60761
H17 H 0.85616 0.07386 0.47140
H18 H 1.33816 -0.14511 0.67240
H19 H 1.33030 -0.04851 0.74057
H20 H 1.41178 -0.04050 0.64317
H21 H 1.53214 0.32569 0.69373
H22 H 1.52042 0.22096 0.63689
H23 H 1.46794 0.22684 0.74307
H24 H 0.78041 0.30943 0.55135
H25 H 0.93784 0.34588 0.53759
H26 H 0.87947 0.32334 0.64045
#END
