
#######################################################################
#
#                 Cambridge Crystallographic Data Centre
#                                CCDC
#
#######################################################################
#
# If this CIF has been generated from an entry in the Cambridge
# Structural Database, then it will include bibliographic, chemical,
# crystal, experimental, refinement or atomic coordinate data resulting
# from the CCDC's data processing and validation procedures.
#
#######################################################################

data_CSD_CIF_KEGNUG
_audit_creation_date 2006-09-13
_audit_creation_method CSD-ConQuest-V1
_database_code_CSD KEGNUG
_database_code_depnum_ccdc_archive 'CCDC 289085'
_chemical_formula_sum 'C23 H31 N1 O6'
_chemical_formula_moiety
;
C23 H31 N1 O6
;
_journal_coden_Cambridge 1090
_journal_volume 17
_journal_year 2006
_journal_page_first 1217
_journal_name_full 'Tetrahedron:Asymm. '
loop_
_publ_author_name
"U.Groselj"
"D.Bevk"
"R.Jakse"
"A.Meden"
"B.Stanovnik"
"J.Svete"
_chemical_name_systematic
;
(1R,4R,4'R,5S)-4'-Ethyl-3'-(2,4,6-trimethoxyphenyl)-1,8,8-trimethyl-4'H-2-oxas
piro((bicyclo(3.2.1)octane)-4,5'-isoxazol)-3-one
;
_chemical_melting_point 418.15
_cell_volume   2220.314
_exptl_crystal_colour 'colorless'
_exptl_crystal_density_diffrn 1.249
_exptl_special_details
;
Melting point range 418.15-425.15K

;
_exptl_crystal_description 'block'
_exptl_crystal_preparation 'dichloromethane/n-heptane'
_diffrn_ambient_temperature 293
#These two values have been output from a single CSD field.
_refine_ls_R_factor_gt 0.034
_refine_ls_wR_factor_gt 0.034
_symmetry_cell_setting orthorhombic
_symmetry_space_group_name_H-M 'P 21 21 21'
_symmetry_Int_Tables_number 19
loop_
_symmetry_equiv_pos_site_id
_symmetry_equiv_pos_as_xyz
1 x,y,z
2 1/2-x,-y,1/2+z
3 1/2+x,1/2-y,-z
4 -x,1/2+y,1/2-z
_cell_length_a 7.0353(1)
_cell_length_b 15.6479(3)
_cell_length_c 20.1686(4)
_cell_angle_alpha 90
_cell_angle_beta 90
_cell_angle_gamma 90
_cell_formula_units_Z 4
loop_
_atom_type_symbol
_atom_type_radius_bond
C 0.68
H 0.23
N 0.68
O 0.68
loop_
_atom_site_label
_atom_site_type_symbol
_atom_site_fract_x
_atom_site_fract_y
_atom_site_fract_z
O1 O -0.1665(3) 0.12717(12) 0.02820(8)
O2 O -0.1354(4) -0.00126(15) 0.12903(10)
O3 O -0.1724(4) 0.02606(12) -0.15762(9)
O4 O -0.2410(5) -0.27098(15) -0.19429(13)
O5 O -0.0912(5) -0.15744(15) 0.02237(12)
O6 O 0.0218(3) 0.09873(14) 0.18068(9)
N1 N -0.2359(3) 0.06122(16) -0.01418(11)
C1 C -0.1044(4) 0.00691(18) -0.02347(12)
C2 C 0.0826(4) 0.02776(16) 0.00989(12)
C3 C 0.1399(4) 0.18032(17) 0.06485(12)
C4 C 0.0151(4) 0.10042(17) 0.05699(12)
C5 C -0.0386(4) 0.06170(18) 0.12442(14)
C6 C 0.1452(5) 0.1753(2) 0.18082(13)
C7 C 0.0205(5) 0.2523(2) 0.16507(17)
C8 C 0.0195(5) 0.2577(2) 0.08864(15)
C9 C 0.2834(4) 0.16827(18) 0.12254(13)
C10 C 0.2285(6) 0.1753(3) 0.25033(15)
C11 C 0.2341(4) 0.0522(2) -0.04170(14)
C12 C 0.3174(6) -0.0237(3) -0.0787(2)
C13 C -0.1393(4) -0.06706(18) -0.06768(13)
C14 C -0.1366(5) -0.1496(2) -0.04307(14)
C15 C -0.1701(6) -0.2207(2) -0.08324(17)
C16 C -0.2059(5) -0.2071(2) -0.14973(16)
C17 C -0.2110(5) -0.1252(2) -0.17631(14)
C18 C -0.1766(4) -0.05615(18) -0.13538(13)
C19 C -0.1669(9) -0.2240(4) 0.0594(2)
C20 C -0.2361(9) -0.3570(2) -0.1710(2)
C21 C -0.2019(9) 0.0400(2) -0.22614(16)
C22 C 0.4280(5) 0.2423(2) 0.12205(18)
C23 C 0.3975(4) 0.0847(2) 0.12155(16)
H1 H -0.16725 -0.28218 -0.06316
H2 H -0.23833 -0.11651 -0.22694
H3 H 0.13609 -0.02449 0.03615
H4 H 0.20101 0.19494 0.01895
H5 H -0.11575 0.24339 0.18324
H6 H 0.07864 0.30768 0.18538
H7 H -0.11880 0.25312 0.07033
H8 H 0.07993 0.31467 0.07233
H9 H 0.11929 0.18164 0.28508
H10 H 0.32297 0.22588 0.25568
H11 H 0.29978 0.11794 0.25894
H12 H 0.34442 0.08391 -0.01755
H13 H 0.17301 0.09259 -0.07646
H14 H 0.42318 -0.00282 -0.11087
H15 H 0.21055 -0.05379 -0.10584
H16 H 0.37475 -0.06673 -0.04494
H17 H -0.13291 -0.21645 0.10868
H18 H -0.10875 -0.28194 0.04207
H19 H -0.31292 -0.22579 0.05304
H20 H -0.27438 -0.39891 -0.20870
H21 H -0.33010 -0.36424 -0.13130
H22 H -0.09890 -0.37209 -0.15475
H23 H -0.16997 0.10375 -0.23737
H24 H -0.34136 0.02732 -0.23827
H25 H -0.11144 0.00046 -0.25323
H26 H 0.35536 0.30076 0.12337
H27 H 0.51007 0.24004 0.07912
H28 H 0.51611 0.23825 0.16329
H29 H 0.30422 0.03302 0.12359
H30 H 0.48735 0.08290 0.16248
H31 H 0.47729 0.08125 0.07836
#END
