
#######################################################################
#
#                 Cambridge Crystallographic Data Centre
#                                CCDC
#
#######################################################################
#
# If this CIF has been generated from an entry in the Cambridge
# Structural Database, then it will include bibliographic, chemical,
# crystal, experimental, refinement or atomic coordinate data resulting
# from the CCDC's data processing and validation procedures.
#
#######################################################################

data_CSD_CIF_KEHTEZ
_audit_creation_date 2017-07-29
_audit_creation_method CSD-ConQuest-V1
_database_code_CSD KEHTEZ
_database_code_depnum_ccdc_archive 'CCDC 1564302'
_chemical_formula_sum 'C10 H9 N3 O2'
_chemical_formula_moiety
;
C10 H9 N3 O2
;
_journal_coeditor_code "bh4025"
_journal_coden_Cambridge 1959
_journal_volume 2
_journal_year 2017
_journal_page_first x171091
_journal_name_full 'IUCrData '
loop_
_publ_author_name
"M.Boulhaoua"
"A.Essaghouani"
"S.Lahmidi"
"M.Benchidmi"
"E.M.Essassi"
"J.T.Mague"
_chemical_name_systematic
;
5-nitro-1-(prop-2-en-1-yl)-1H-indazole
;
_cell_volume    992.199
_exptl_crystal_colour 'colorless'
_exptl_crystal_density_diffrn 1.36
_exptl_crystal_description 'block'
_diffrn_ambient_temperature 298
_refine_special_details
;
C10,C8,C9 and C10A,C8A,C9A disordered over two sites with occupancies 
0.702:0.298.
;
#These two values have been output from a single CSD field.
_refine_ls_R_factor_gt 0.0344
_refine_ls_wR_factor_gt 0.0344
_symmetry_cell_setting orthorhombic
_symmetry_space_group_name_H-M 'P 21 21 21'
_symmetry_Int_Tables_number 19
loop_
_symmetry_equiv_pos_site_id
_symmetry_equiv_pos_as_xyz
1 x,y,z
2 1/2-x,-y,1/2+z
3 -x,1/2+y,1/2-z
4 1/2+x,1/2-y,-z
_cell_length_a 6.9549(5)
_cell_length_b 11.6778(9)
_cell_length_c 12.2165(9)
_cell_angle_alpha 90
_cell_angle_beta 90
_cell_angle_gamma 90
_cell_formula_units_Z 4
loop_
_atom_type_symbol
_atom_type_radius_bond
C 0.68
H 0.23
N 0.68
O 0.68
loop_
_atom_site_label
_atom_site_type_symbol
_atom_site_fract_x
_atom_site_fract_y
_atom_site_fract_z
O1 O 0.7579(3) -0.04269(14) 0.31969(17)
O2 O 0.7999(4) 0.05941(18) 0.17506(16)
N1 N 0.8126(3) 0.42834(13) 0.54140(14)
N2 N 0.8021(3) 0.37982(15) 0.64367(15)
N3 N 0.7819(3) 0.04995(16) 0.27451(17)
C1 C 0.7894(2) 0.24152(15) 0.51404(15)
C2 C 0.7815(3) 0.14109(14) 0.45294(16)
H1 H 0.775(3) 0.068(2) 0.487(2)
C3 C 0.7888(3) 0.15275(16) 0.34145(17)
C4 C 0.8024(3) 0.25941(17) 0.28784(18)
H2 H 0.812(4) 0.263(2) 0.212(2)
C5 C 0.8087(3) 0.35883(16) 0.34732(17)
H3 H 0.819(4) 0.433(2) 0.313(2)
C6 C 0.8037(3) 0.34871(14) 0.46140(15)
C7 C 0.7889(3) 0.26889(17) 0.62715(18)
H4 H 0.779(4) 0.214(2) 0.690(2)
C8 C 0.8333(11) 0.5528(2) 0.5382(7)
H5 H 0.94266 0.57203 0.49245
H6 H 0.86025 0.58026 0.61153
C9 C 0.6597(12) 0.6133(10) 0.4954(7)
H7 H 0.54185 0.59823 0.52839
C10 C 0.6638(13) 0.6853(5) 0.4153(5)
H8 H 0.77968 0.70205 0.38074
H9 H 0.55101 0.72050 0.39204
C11? C 0.841(3) 0.5494(5) 0.516(2)
H10? H 0.89814 0.55837 0.44383
H11? H 0.92458 0.58522 0.56949
C12? C 0.645(3) 0.601(3) 0.5191(18)
H12? H 0.57040 0.58883 0.58126
C13? C 0.572(3) 0.6615(13) 0.4409(14)
H13? H 0.64356 0.67512 0.37773
H14? H 0.44912 0.69146 0.44765
#END
