
#######################################################################
#
#                 Cambridge Crystallographic Data Centre
#                                CCDC
#
#######################################################################
#
# If this CIF has been generated from an entry in the Cambridge
# Structural Database, then it will include bibliographic, chemical,
# crystal, experimental, refinement or atomic coordinate data resulting
# from the CCDC's data processing and validation procedures.
#
#######################################################################

data_CSD_CIF_KEHYAZ
_audit_creation_date 2013-03-18
_audit_creation_method CSD-ConQuest-V1
_database_code_CSD KEHYAZ
_database_code_depnum_ccdc_archive 'CCDC 775100'
_chemical_formula_sum 'C4 H4 N4 O4'
_chemical_formula_moiety
;
C4 H4 N4 O4
;
_journal_coden_Cambridge 1271
_journal_volume 36
_journal_year 2011
_journal_page_first 160
_journal_name_full 'Propellants,Explos.,Pyrotech. '
loop_
_publ_author_name
"T.M.Klapotke"
"D.G.Piercey"
"J.Stierstorfer"
_chemical_name_systematic
;
(E,E)-3,4-Bis(oximomethyl)furoxan
;
_cell_volume    655.371
_exptl_crystal_colour 'colorless'
_exptl_crystal_density_diffrn 1.744
_exptl_crystal_description 'block'
_diffrn_ambient_temperature 200
#These two values have been output from a single CSD field.
_refine_ls_R_factor_gt 0.0321
_refine_ls_wR_factor_gt 0.0321
_symmetry_cell_setting monoclinic
_symmetry_space_group_name_H-M 'P 21/n'
_symmetry_Int_Tables_number 14
loop_
_symmetry_equiv_pos_site_id
_symmetry_equiv_pos_as_xyz
1 x,y,z
2 1/2-x,1/2+y,1/2-z
3 -x,-y,-z
4 -1/2+x,-1/2-y,-1/2+z
_cell_length_a 6.5809(6)
_cell_length_b 11.1829(8)
_cell_length_c 9.2617(9)
_cell_angle_alpha 90
_cell_angle_beta 105.947(10)
_cell_angle_gamma 90
_cell_formula_units_Z 4
loop_
_atom_type_symbol
_atom_type_radius_bond
C 0.68
H 0.23
N 0.68
O 0.68
loop_
_atom_site_label
_atom_site_type_symbol
_atom_site_fract_x
_atom_site_fract_y
_atom_site_fract_z
C1 C 0.3439(2) 0.24192(14) 0.11047(16)
C2 C 0.5046(2) 0.15420(14) 0.16433(16)
C3 C 0.3601(3) 0.37024(15) 0.10473(18)
C4 C 0.7298(3) 0.17337(15) 0.22980(17)
N1 N 0.16492(19) 0.18225(11) 0.05353(13)
N2 N 0.4257(2) 0.04597(11) 0.14285(15)
N3 N 0.1963(2) 0.43433(12) 0.05581(14)
N4 N 0.79497(19) 0.28020(11) 0.25873(15)
O1 O 0.21275(17) 0.05598(10) 0.07403(12)
O2 O -0.01767(16) 0.20968(10) -0.01157(13)
O3 O 0.2504(2) 0.55452(10) 0.05587(15)
O4 O 1.01266(17) 0.28581(12) 0.31723(13)
H1 H 0.490(3) 0.4016(16) 0.1327(18)
H2 H 0.113(5) 0.589(3) 0.019(3)
H3 H 0.815(3) 0.1080(17) 0.2429(18)
H4 H 1.030(3) 0.364(2) 0.328(2)
#END
