
#######################################################################
#
#                 Cambridge Crystallographic Data Centre
#                                CCDC
#
#######################################################################
#
# If this CIF has been generated from an entry in the Cambridge
# Structural Database, then it will include bibliographic, chemical,
# crystal, experimental, refinement or atomic coordinate data resulting
# from the CCDC's data processing and validation procedures.
#
#######################################################################

data_CSD_CIF_KEJGIP
_audit_creation_date 1990-10-01
_audit_creation_method CSD-ConQuest-V1
_database_code_CSD KEJGIP
_chemical_formula_sum 'C9 H8 N4 O8'
_chemical_formula_moiety
;
C9 H8 N4 O8
;
_journal_coeditor_code "IUCr HH0242"
_journal_coden_Cambridge 591
_journal_volume 46
_journal_year 1990
_journal_page_first 648
_journal_name_full 'Acta Crystallogr.,Sect.C:Cryst.Struct.Commun. '
loop_
_publ_author_name
"D.Dudis"
"R.Gilardi"
_chemical_name_systematic
;
Ethyl (2,4,6-trinitrophenyl)carbamate
;
_cell_volume    622.495
_exptl_crystal_colour 'colorless'
_exptl_crystal_density_diffrn 1.6
_diffrn_ambient_temperature ?
_diffrn_special_details
;
The study was carried out at room temperature,in the range 283-303K

;
#These two values have been output from a single CSD field.
_refine_ls_R_factor_gt 0.058
_refine_ls_wR_factor_gt 0.058
_symmetry_cell_setting monoclinic
_symmetry_space_group_name_H-M 'P 21'
_symmetry_Int_Tables_number 4
loop_
_symmetry_equiv_pos_site_id
_symmetry_equiv_pos_as_xyz
1 x,y,z
2 -x,1/2+y,-z
_cell_length_a 4.978(2)
_cell_length_b 6.974(2)
_cell_length_c 17.991(6)
_cell_angle_alpha 90
_cell_angle_beta 94.69(3)
_cell_angle_gamma 90
_cell_formula_units_Z 2
loop_
_atom_type_symbol
_atom_type_radius_bond
C 0.68
H 0.23
N 0.68
O 0.68
loop_
_atom_site_label
_atom_site_type_symbol
_atom_site_fract_x
_atom_site_fract_y
_atom_site_fract_z
C1 C 0.4752(18) 0.6210(15) 0.2355(4)
C2 C 0.2814(18) 0.6551(16) 0.1757(5)
N1 N 0.1263(14) 0.8359(15) 0.1701(4)
O1 O -0.1154(13) 0.8224(13) 0.1493(3)
O2 O 0.2422(14) 0.9839(13) 0.1831(4)
C3 C 0.2389(18) 0.5291(15) 0.1163(4)
C4 C 0.3991(18) 0.3707(15) 0.1150(5)
N2 N 0.3551(18) 0.2347(16) 0.0520(4)
O3 O 0.5338(17) 0.1187(16) 0.0429(4)
O4 O 0.1400(15) 0.2483(14) 0.0155(4)
C5 C 0.6017(16) 0.3328(15) 0.1707(4)
N3 N 0.8193(15) 0.3953(14) 0.2933(4)
C6 C 0.6259(16) 0.4544(15) 0.2310(4)
O5 O 1.0275(14) 0.3175(13) 0.2776(3)
O6 O 0.7568(13) 0.4243(14) 0.3572(3)
N4 N 0.5150(16) 0.7522(14) 0.2950(3)
C7 C 0.3136(18) 0.8243(17) 0.3310(4)
O7 O 0.0736(13) 0.78120 0.3183(3)
O8 O 0.4079(11) 0.9491(13) 0.3828(3)
C8 C 0.2084(19) 1.0269(17) 0.4295(5)
C9 C 0.3479(23) 1.1809(19) 0.4765(6)
H1 H 0.10020 0.55280 0.07710
H2 H 0.72100 0.22560 0.16720
H3 H 0.05940 1.07990 0.39900
H4 H 0.14440 0.92820 0.46080
H5 H 0.22090 1.23040 0.50900
H6 H 0.40500 1.28220 0.44530
H7 H 0.50140 1.12990 0.50580
H8 H 0.728(17) 0.763(12) 0.3163(39)
#END
