
#######################################################################
#
#                 Cambridge Crystallographic Data Centre
#                                CCDC
#
#######################################################################
#
# If this CIF has been generated from an entry in the Cambridge
# Structural Database, then it will include bibliographic, chemical,
# crystal, experimental, refinement or atomic coordinate data resulting
# from the CCDC's data processing and validation procedures.
#
#######################################################################

data_CSD_CIF_KEJHEP
_audit_creation_date 2017-11-21
_audit_creation_method CSD-ConQuest-V1
_database_code_CSD KEJHEP
_database_code_depnum_ccdc_archive 'CCDC 1570179'
_chemical_formula_sum 'C19 H28 N2 O7'
_chemical_formula_moiety
;
C19 H28 N2 O7
;
_journal_coden_Cambridge 177
_journal_volume 15
_journal_year 2017
_journal_page_first 9910
_journal_name_full 'Org.Biomol.Chem. '
loop_
_publ_author_name
"Din-Chi Chiu"
"Tzu-Chen Lin"
"Wen-I Huang"
"Ting-Jen Cheng"
"Keng-Chang Tsai"
"Jim-Min Fang"
_chemical_name_systematic
;
t-butyl 
3-[(2,2-dimethyl-1,3-dioxolan-4-yl)(methoxy)methyl]-6-oxo-3a,6,7,7a-tetrahydro
-4,7-methano[1,2]oxazolo[4,5-c]pyridine-5(4H)-carboxylate
;
_cell_volume   4145.304
_exptl_crystal_density_diffrn 1.27
_diffrn_ambient_temperature 150
#These two values have been output from a single CSD field.
_refine_ls_R_factor_gt 0.075
_refine_ls_wR_factor_gt 0.075
_symmetry_cell_setting tetragonal
_symmetry_space_group_name_H-M 'P 43 21 2'
_symmetry_Int_Tables_number 96
loop_
_symmetry_equiv_pos_site_id
_symmetry_equiv_pos_as_xyz
1 x,y,z
2 -x,-y,1/2+z
3 1/2-y,1/2+x,3/4+z
4 1/2+y,1/2-x,1/4+z
5 1/2-x,1/2+y,3/4-z
6 1/2+x,1/2-y,1/4-z
7 y,x,-z
8 -y,-x,1/2-z
_cell_length_a 8.2526(2)
_cell_length_b 8.2526(2)
_cell_length_c 60.866(3)
_cell_angle_alpha 90
_cell_angle_beta 90
_cell_angle_gamma 90
_cell_formula_units_Z 8
loop_
_atom_type_symbol
_atom_type_radius_bond
C 0.68
H 0.23
N 0.68
O 0.68
loop_
_atom_site_label
_atom_site_type_symbol
_atom_site_fract_x
_atom_site_fract_y
_atom_site_fract_z
O1 O 0.6720(4) 0.0464(3) 0.18050(4)
O2 O 0.3948(4) 0.4757(4) 0.20120(4)
O3 O 0.8220(4) 0.5337(5) 0.21104(5)
O4 O 0.7174(5) 0.6372(7) 0.24257(5)
O5 O 0.7542(4) 0.5273(3) 0.10365(4)
O6 O 0.7392(4) 0.6705(4) 0.13531(5)
O7 O 0.7973(4) 0.1965(4) 0.10939(4)
N1 N 0.6316(4) 0.1481(4) 0.19844(5)
N2 N 0.7930(4) 0.4025(4) 0.13613(5)
C1 C 0.7986(5) 0.3957(5) 0.16041(6)
H1 H 0.82580 0.50020 0.16790
C2 C 0.6357(4) 0.3168(5) 0.16748(6)
H2 H 0.53990 0.36810 0.16020
C3 C 0.6620(5) 0.1394(5) 0.16013(6)
H3 H 0.57410 0.09980 0.15020
C4 C 0.8294(5) 0.1411(5) 0.14883(6)
H4 H 0.88120 0.03290 0.14650
C5 C 0.9213(5) 0.2584(6) 0.16371(7)
H5 H 1.03070 0.28540 0.15810
H6 H 0.92770 0.22090 0.17910
C6 C 0.6114(5) 0.2935(5) 0.19179(6)
C7 C 0.5527(5) 0.4212(5) 0.20745(6)
H7 H 0.54900 0.37600 0.22270
C8 C 0.6572(6) 0.5731(6) 0.20713(7)
H8 H 0.64580 0.62990 0.19270
C9 C 0.6116(9) 0.6876(7) 0.22596(8)
H9 H 0.63050 0.80220 0.22190
H10 H 0.49700 0.67350 0.23040
C10 C 0.8645(7) 0.5909(14) 0.23220(8)
C11 C 0.9265(10) 0.4326(17) 0.24436(11)
H11 H 0.83850 0.35300 0.24510
H12 H 0.96140 0.46040 0.25930
H13 H 1.01800 0.38640 0.23620
C12 C 0.9851(12) 0.7154(16) 0.23106(14)
H14 H 0.94120 0.80920 0.22320
H15 H 1.08050 0.67430 0.22320
H16 H 1.01620 0.74800 0.24600
C13 C 0.8065(4) 0.2442(5) 0.12831(6)
C14 C 0.7586(4) 0.5469(5) 0.12521(6)
C15 C 0.7493(5) 0.6720(5) 0.08890(6)
C16 C 0.8971(6) 0.7766(6) 0.09359(7)
H17 H 0.88710 0.82470 0.10820
H18 H 0.90440 0.86280 0.08260
H19 H 0.99490 0.70950 0.09300
C17 C 0.7608(7) 0.5955(6) 0.06630(7)
H20 H 0.66450 0.52890 0.06360
H21 H 0.85790 0.52740 0.06550
H22 H 0.76740 0.68090 0.05510
C18 C 0.5943(6) 0.7640(7) 0.09186(9)
H23 H 0.50230 0.69280 0.08860
H24 H 0.59270 0.85690 0.08180
H25 H 0.58650 0.80250 0.10710
C19 C 0.2764(5) 0.3523(6) 0.20113(7)
H26 H 0.17170 0.39820 0.19680
H27 H 0.26750 0.30560 0.21590
H28 H 0.30790 0.26760 0.19070
#END
