
#######################################################################
#
#                 Cambridge Crystallographic Data Centre
#                                CCDC
#
#######################################################################
#
# If this CIF has been generated from an entry in the Cambridge
# Structural Database, then it will include bibliographic, chemical,
# crystal, experimental, refinement or atomic coordinate data resulting
# from the CCDC's data processing and validation procedures.
#
#######################################################################

data_CSD_CIF_KEJHIT
_audit_creation_date 2017-11-21
_audit_creation_method CSD-ConQuest-V1
_database_code_CSD KEJHIT
_database_code_depnum_ccdc_archive 'CCDC 1570184'
_chemical_formula_sum 'C25 H32 N2 O7'
_chemical_formula_moiety
;
C25 H32 N2 O7
;
_journal_coden_Cambridge 177
_journal_volume 15
_journal_year 2017
_journal_page_first 9910
_journal_name_full 'Org.Biomol.Chem. '
loop_
_publ_author_name
"Din-Chi Chiu"
"Tzu-Chen Lin"
"Wen-I Huang"
"Ting-Jen Cheng"
"Keng-Chang Tsai"
"Jim-Min Fang"
_chemical_name_systematic
;
t-butyl 
3-[(benzyloxy)(2,2-dimethyl-1,3-dioxolan-4-yl)methyl]-6-oxo-3a,6,7,7a-tetrahyd
ro-4,7-methano[1,2]oxazolo[4,5-c]pyridine-5(4H)-carboxylate
;
_cell_volume    609.143
_exptl_crystal_density_diffrn 1.288
_diffrn_ambient_temperature 150
#These two values have been output from a single CSD field.
_refine_ls_R_factor_gt 0.0342
_refine_ls_wR_factor_gt 0.0342
_symmetry_cell_setting triclinic
_symmetry_space_group_name_H-M 'P 1'
_symmetry_Int_Tables_number 1
loop_
_symmetry_equiv_pos_site_id
_symmetry_equiv_pos_as_xyz
1 x,y,z
_cell_length_a 6.0765(2)
_cell_length_b 9.6451(4)
_cell_length_c 11.0698(4)
_cell_angle_alpha 89.902(3)
_cell_angle_beta 75.421(3)
_cell_angle_gamma 76.398(4)
_cell_formula_units_Z 1
loop_
_atom_type_symbol
_atom_type_radius_bond
C 0.68
H 0.23
N 0.68
O 0.68
loop_
_atom_site_label
_atom_site_type_symbol
_atom_site_fract_x
_atom_site_fract_y
_atom_site_fract_z
O1 O 0.6080(2) 1.36657(13) 0.13750(13)
O2 O 0.4262(2) 0.99804(14) -0.04859(13)
O3 O 0.6838(2) 0.68890(14) 0.21727(11)
O4 O 1.0241(2) 0.62321(17) -0.10253(13)
O5 O 1.1292(2) 0.39562(14) -0.05043(12)
O6 O 1.0157(2) 1.02055(15) 0.28128(13)
O7 O 0.8620(2) 1.25957(14) 0.30602(12)
N1 N 0.8490(2) 1.13746(16) 0.13706(14)
N2 N 0.5018(3) 0.84852(17) -0.03451(15)
C1 C 0.6478(3) 1.1722(2) -0.01632(16)
H1 H 0.59380 1.23660 -0.07950
C2 C 0.4842(3) 1.07781(19) 0.04495(16)
H2 H 0.34130 1.13360 0.10730
C3 C 0.6395(3) 0.96386(18) 0.10619(15)
H3 H 0.57990 0.96930 0.19930
C4 C 0.8800(3) 1.00336(18) 0.06343(16)
H4 H 1.01970 0.92570 0.06670
C5 C 0.8801(3) 1.0606(2) -0.06545(17)
H5 H 0.87140 0.98840 -0.12640
H6 H 1.01380 1.10350 -0.10030
C6 C 0.6191(3) 0.82967(19) 0.04668(15)
C7 C 0.7174(3) 0.68279(19) 0.08578(15)
H7 H 0.63640 0.61280 0.06080
C8 C 0.9823(3) 0.6320(2) 0.02965(16)
H8 H 1.06440 0.70060 0.05590
C9 C 1.0856(3) 0.4804(2) 0.06259(16)
H9 H 1.23260 0.47530 0.08750
H10 H 0.97290 0.44860 0.13150
C10 C 1.1757(3) 0.4871(2) -0.14920(17)
C11 C 1.4284(3) 0.4982(2) -0.18353(19)
H11 H 1.46570 0.53320 -0.10980
H12 H 1.45090 0.56480 -0.24990
H13 H 1.53220 0.40380 -0.21300
C12 C 1.1071(5) 0.4336(4) -0.2593(2)
H14 H 0.94340 0.42730 -0.23310
H15 H 1.20830 0.33890 -0.29000
H16 H 1.12510 0.50000 -0.32610
C13 C 0.4453(3) 0.7056(2) 0.28439(16)
H17 H 0.40270 0.61270 0.28420
H18 H 0.34240 0.77400 0.24330
C14 C 0.4101(3) 0.7603(2) 0.41758(16)
C15 C 0.5714(3) 0.8209(2) 0.45264(18)
H19 H 0.70930 0.82900 0.39230
C16 C 0.2072(3) 0.7512(2) 0.50639(19)
H20 H 0.09450 0.71110 0.48280
C17 C 0.5316(4) 0.8702(3) 0.5766(2)
H21 H 0.64270 0.91160 0.60050
C18 C 0.1688(4) 0.8006(3) 0.62973(19)
H22 H 0.02990 0.79410 0.69000
C19 C 0.3307(4) 0.8588(3) 0.66495(18)
H23 H 0.30500 0.89120 0.74950
C20 C 0.6934(3) 1.24616(19) 0.09385(16)
C21 C 0.9170(3) 1.13133(19) 0.24916(16)
C22 C 0.9299(3) 1.2804(2) 0.42360(17)
C23 C 0.8249(4) 1.1915(3) 0.5236(2)
H24 H 0.89920 1.09000 0.50070
H25 H 0.65620 1.20880 0.53170
H26 H 0.85120 1.21760 0.60340
C24 C 1.1956(4) 1.2472(3) 0.3954(2)
H27 H 1.26040 1.14450 0.37500
H28 H 1.24120 1.27550 0.46870
H29 H 1.25640 1.30020 0.32410
C25 C 0.8194(5) 1.4388(3) 0.4562(2)
H30 H 0.64850 1.45600 0.47450
H31 H 0.87590 1.49370 0.38540
H32 H 0.86270 1.46880 0.52980
#END
