
#######################################################################
#
#                 Cambridge Crystallographic Data Centre
#                                CCDC
#
#######################################################################
#
# If this CIF has been generated from an entry in the Cambridge
# Structural Database, then it will include bibliographic, chemical,
# crystal, experimental, refinement or atomic coordinate data resulting
# from the CCDC's data processing and validation procedures.
#
#######################################################################

data_CSD_CIF_KEKTIF
_audit_creation_date 2013-01-14
_audit_creation_method CSD-ConQuest-V1
_database_code_CSD KEKTIF
_database_code_depnum_ccdc_archive 'CCDC 840115'
_chemical_formula_sum 'C9 H10 N2 O1'
_chemical_formula_moiety
;
C9 H10 N2 O1
;
_journal_coden_Cambridge 122
_journal_year 2011
_journal_page_first 1904
_journal_name_full 'Khim.Get.Soedin.,SSSR(Russ.)(Chem.Heterocycl.Compd.) '
loop_
_publ_author_name
"L.Golomba"
"E.Abele"
"S.Belyakov"
_chemical_name_systematic
;
2-Methyl-1,5-dihydro-4,1,3-benzoxadiazepine
;
_chemical_melting_point 133
_cell_volume   1593.580
_exptl_crystal_colour 'colorless'
_exptl_crystal_density_diffrn 1.352
_exptl_crystal_description 'prism'
_exptl_crystal_preparation 'ethyl acetate'
_diffrn_ambient_temperature 193
#These two values have been output from a single CSD field.
_refine_ls_R_factor_gt 0.064
_refine_ls_wR_factor_gt 0.064
_symmetry_cell_setting orthorhombic
_symmetry_space_group_name_H-M 'P b c a'
_symmetry_Int_Tables_number 61
loop_
_symmetry_equiv_pos_site_id
_symmetry_equiv_pos_as_xyz
1 x,y,z
2 1/2-x,-y,1/2+z
3 1/2+x,1/2-y,-z
4 -x,1/2+y,1/2-z
5 -x,-y,-z
6 -1/2+x,y,-1/2-z
7 -1/2-x,-1/2+y,z
8 x,-1/2-y,-1/2+z
_cell_length_a 9.8615(9)
_cell_length_b 10.481(1)
_cell_length_c 15.418(2)
_cell_angle_alpha 90
_cell_angle_beta 90
_cell_angle_gamma 90
_cell_formula_units_Z 8
loop_
_atom_type_symbol
_atom_type_radius_bond
C 0.68
H 0.23
N 0.68
O 0.68
loop_
_atom_site_label
_atom_site_type_symbol
_atom_site_fract_x
_atom_site_fract_y
_atom_site_fract_z
O1 O 0.4253(2) 0.25627(16) 0.11832(12)
N1 N 0.3377(2) 0.0007(2) 0.13498(14)
N2 N 0.2831(3) 0.22556(19) 0.11236(14)
C1 C 0.5667(3) 0.0727(2) 0.09650(17)
C2 C 0.5322(3) -0.1198(2) 0.18013(17)
C3 C 0.5069(3) 0.1885(2) 0.05555(18)
C4 C 0.2545(3) 0.1049(2) 0.12152(15)
C5 C 0.4791(3) -0.0132(2) 0.13765(16)
C6 C 0.6703(3) -0.1422(3) 0.17960(18)
C7 C 0.7052(3) 0.0496(3) 0.09811(19)
C8 C 0.7575(4) -0.0586(3) 0.13811(19)
C9 C 0.1075(3) 0.0715(3) 0.1188(2)
H1 H 0.70625 -0.21599 0.20910
H2 H 0.47285 -0.18500 0.21003
H3 H 0.27435 -0.06976 0.14538
H4 H 0.77567 0.10716 0.06401
H5 H 0.85604 -0.07313 0.13952
H6 H 0.57228 0.24814 0.03895
H7 H 0.45782 0.16528 0.00292
H8 H 0.07409 0.03667 0.17614
H9 H 0.05560 0.14643 0.10526
H10 H 0.08503 0.01603 0.07103
#END
