
#######################################################################
#
#                 Cambridge Crystallographic Data Centre
#                                CCDC
#
#######################################################################
#
# If this CIF has been generated from an entry in the Cambridge
# Structural Database, then it will include bibliographic, chemical,
# crystal, experimental, refinement or atomic coordinate data resulting
# from the CCDC's data processing and validation procedures.
#
#######################################################################

data_CSD_CIF_KELJOD
_audit_creation_date 2017-11-22
_audit_creation_method CSD-ConQuest-V1
_database_code_CSD KELJOD
_database_code_depnum_ccdc_archive 'CCDC 1587019'
_chemical_formula_sum 'C25 H31 N5 O5'
_chemical_formula_moiety
;
C25 H31 N5 O5
;
_journal_coden_Cambridge 1078
_journal_year 2017
_journal_name_full 'CSD Communication(Private Communication) '
loop_
_publ_author_name
"HongDao Li"
_chemical_name_systematic
;
1-[3,5-bis(1,3-dioxy-4,4,5,5-tetramethyl-4,5-dihydro-1H-3-imidazol-2-yl)phenyl
]pyridin-4(1H)-one
;
_cell_volume   1199.298
_exptl_crystal_colour 'blue'
_exptl_crystal_density_diffrn 1.333
_exptl_crystal_description 'Prism'
_diffrn_ambient_temperature 113
#These two values have been output from a single CSD field.
_refine_ls_R_factor_gt 0.1472
_refine_ls_wR_factor_gt 0.1472
_symmetry_cell_setting triclinic
_symmetry_space_group_name_H-M 'P -1'
_symmetry_Int_Tables_number 2
loop_
_symmetry_equiv_pos_site_id
_symmetry_equiv_pos_as_xyz
1 x,y,z
2 -x,-y,-z
_cell_length_a 7.784(3)
_cell_length_b 12.896(3)
_cell_length_c 13.706(5)
_cell_angle_alpha 62.522(19)
_cell_angle_beta 88.17(4)
_cell_angle_gamma 79.78(4)
_cell_formula_units_Z 2
loop_
_atom_type_symbol
_atom_type_radius_bond
C 0.68
H 0.23
N 0.68
O 0.68
loop_
_atom_site_label
_atom_site_type_symbol
_atom_site_fract_x
_atom_site_fract_y
_atom_site_fract_z
O1 O 0.6304(10) 0.3157(6) 0.2294(6)
O2 O 1.0387(9) -0.0054(5) 0.2538(5)
O3 O 0.4718(9) -0.0338(6) 0.7643(5)
O4 O 0.6380(9) 0.3144(6) 0.5073(6)
N1 N 0.8397(10) -0.2487(7) 0.6078(7)
N2 N 0.4935(10) 0.0742(7) 0.7130(6)
N3 N 0.5699(10) 0.2404(7) 0.5888(7)
N4 N 0.9376(10) 0.0971(6) 0.2173(6)
N5 N 0.746(1) 0.2491(6) 0.2064(6)
C1 C 0.8255(12) 0.1361(8) 0.2736(8)
C2 C 0.7900(12) -0.1194(8) 0.5511(7)
O5 O 0.9898(11) -0.6060(6) 0.7916(7)
C3 C 0.6633(12) 0.0615(8) 0.5561(8)
C4 C 0.7876(11) 0.0670(8) 0.3904(8)
C5 C 1.0012(13) -0.3033(8) 0.5983(8)
H1 H 1.07620 -0.25750 0.54990
C6 C 0.5754(12) 0.1241(8) 0.6167(8)
C7 C 0.7049(12) -0.0622(8) 0.6077(8)
H2 H 0.67550 -0.10600 0.67990
C8 C 0.9517(13) 0.1390(9) 0.0226(8)
H3 H 1.05550 0.08030 0.03640
H4 H 0.94700 0.20070 -0.05200
H5 H 0.85070 0.10240 0.03380
C9 C 0.7268(13) -0.3147(9) 0.6750(8)
H6 H 0.61620 -0.27680 0.68020
C10 C 0.8332(11) -0.0564(8) 0.4434(7)
H7 H 0.89210 -0.09610 0.40670
C11 C 0.2761(15) 0.1412(10) 0.8157(10)
H8 H 0.19440 0.13640 0.76760
H9 H 0.23160 0.20780 0.82880
H10 H 0.29220 0.06940 0.88440
C12 C 0.5991(15) 0.1211(10) 0.8487(9)
H11 H 0.61150 0.03790 0.89890
H12 H 0.57320 0.16610 0.88860
H13 H 0.70610 0.13690 0.81250
C13 C 0.7016(11) 0.1263(8) 0.4468(7)
H14 H 0.67020 0.20870 0.41130
C14 C 0.6315(13) 0.2853(9) 0.0288(9)
H15 H 0.60050 0.20800 0.06690
H16 H 0.65870 0.30150 -0.04510
H17 H 0.53520 0.34420 0.02700
C15 C 0.7918(13) 0.2887(8) 0.0890(8)
C16 C 0.7700(14) -0.4317(8) 0.7336(9)
H18 H 0.68630 -0.47390 0.77570
C17 C 1.0554(13) -0.4209(9) 0.6566(8)
H19 H 1.16640 -0.45470 0.64730
C18 C 1.1302(12) 0.2336(9) 0.0976(9)
H20 H 1.12720 0.27120 0.14410
H21 H 1.14790 0.28930 0.02340
H22 H 1.22430 0.16640 0.12330
C19 C 0.8278(14) 0.4129(9) 0.0405(10)
H23 H 0.72540 0.46550 0.04280
H24 H 0.85810 0.43820 -0.03450
H25 H 0.92310 0.41460 0.08230
C20 C 0.9443(14) -0.4971(8) 0.7345(9)
C21 C 0.2724(13) 0.3314(9) 0.5974(9)
H26 H 0.27940 0.40510 0.53340
H27 H 0.18590 0.34540 0.64350
H28 H 0.24050 0.27660 0.57500
C22 C 0.5222(13) 0.3683(9) 0.6807(9)
H29 H 0.64290 0.33830 0.70630
H30 H 0.45720 0.38310 0.73510
H31 H 0.51270 0.44100 0.61310
C23 C 0.9549(12) 0.1917(8) 0.1007(8)
C24 C 0.4499(12) 0.1572(9) 0.7625(8)
C25 C 0.4504(14) 0.2788(9) 0.6615(9)
#END
