
#######################################################################
#
#                 Cambridge Crystallographic Data Centre
#                                CCDC
#
#######################################################################
#
# If this CIF has been generated from an entry in the Cambridge
# Structural Database, then it will include bibliographic, chemical,
# crystal, experimental, refinement or atomic coordinate data resulting
# from the CCDC's data processing and validation procedures.
#
#######################################################################

data_CSD_CIF_KEMDOV
_audit_creation_date 1991-01-24
_audit_creation_method CSD-ConQuest-V1
_database_code_CSD KEMDOV
_chemical_formula_sum 'C5 H12 N4 O5'
_chemical_formula_moiety
;
C5 H12 N4 O5
;
_journal_coden_Cambridge 95
_journal_year 1989
_journal_page_first 297
_journal_name_full 'Izv.Akad.Nauk SSSR,Ser.Khim.(Russ.)(Russ.Chem.Bull.) '
loop_
_publ_author_name
"L.F.Chertanova"
"G.A.Marchenko"
"A.A.Gazikasheva"
"Yu.T.Struchkov"
"V.F.Sopin"
"L.N.Punegova"
"A.S.Mukhametzyanov"
_chemical_name_systematic
;
bis(N-Oxide-N'-methoxydiazinyl)-(methylhydroxymethyl)-methane
;
_chemical_melting_point 360.15
_cell_volume   1955.243
_exptl_crystal_density_diffrn 1.41
_diffrn_ambient_temperature ?
_diffrn_special_details
;
The study was carried out at room temperature,in the range 283-303K

;
#These two values have been output from a single CSD field.
_refine_ls_R_factor_gt 0.039
_refine_ls_wR_factor_gt 0.039
_symmetry_cell_setting monoclinic
_symmetry_space_group_name_H-M 'C 2/c'
_symmetry_Int_Tables_number 15
loop_
_symmetry_equiv_pos_site_id
_symmetry_equiv_pos_as_xyz
1 x,y,z
2 1/2+x,1/2+y,z
3 -x,y,1/2-z
4 1/2-x,1/2+y,1/2-z
5 -x,-y,-z
6 -1/2-x,-1/2-y,-z
7 x,-y,-1/2+z
8 -1/2+x,-1/2-y,-1/2+z
_cell_length_a 15.003(4)
_cell_length_b 6.904(1)
_cell_length_c 19.056(6)
_cell_angle_alpha 90
_cell_angle_beta 97.87(2)
_cell_angle_gamma 90
_cell_formula_units_Z 8
loop_
_atom_type_symbol
_atom_type_radius_bond
C 0.68
H 0.23
N 0.68
O 0.68
loop_
_atom_site_label
_atom_site_type_symbol
_atom_site_fract_x
_atom_site_fract_y
_atom_site_fract_z
O1 O 0.74084(9) -0.2553(3) 0.07882(7)
O2 O 0.6933(1) 0.0854(2) 0.06697(8)
O3 O 0.8684(1) -0.1260(2) 0.24174(8)
O4 O 0.8743(1) -0.4706(3) 0.27372(8)
O5 O 0.9293(1) -0.2632(3) 0.00837(7)
N1 N 0.7974(1) -0.1227(2) 0.09450(8)
N2 N 0.7823(1) 0.0573(2) 0.09211(9)
N3 N 0.8826(1) -0.2495(3) 0.19655(8)
N4 N 0.8867(1) -0.4314(3) 0.20514(9)
C1 C 0.8925(1) -0.1809(3) 0.1231(1)
C2 C 0.6725(2) 0.2853(4) 0.0741(1)
C3 C 0.8707(2) -0.6777(4) 0.2807(1)
C4 C 0.9567(1) -0.0105(3) 0.1288(1)
C5 C 0.9214(1) -0.3425(3) 0.0758(1)
H1 H 0.884(2) -0.279(3) -0.017(1)
#END
