
#######################################################################
#
#                 Cambridge Crystallographic Data Centre
#                                CCDC
#
#######################################################################
#
# If this CIF has been generated from an entry in the Cambridge
# Structural Database, then it will include bibliographic, chemical,
# crystal, experimental, refinement or atomic coordinate data resulting
# from the CCDC's data processing and validation procedures.
#
#######################################################################

data_CSD_CIF_KEMFUE01
_audit_creation_date 2017-06-12
_audit_creation_method CSD-ConQuest-V1
_database_code_CSD KEMFUE01
_database_code_depnum_ccdc_archive 'CCDC 608088'
_chemical_formula_sum 'C18 H18 N4 O6'
_chemical_formula_moiety
;
C18 H18 N4 O6
;
_journal_coden_Cambridge 1078
_journal_year 2017
_journal_name_full 'CSD Communication(Private Communication) '
loop_
_publ_author_name
"R.Centore"
"Angela Tuzi"
_chemical_name_systematic
;
3,3'-((4-((4-nitrophenyl)diazenyl)phenyl)imino)dipropanoic acid
;
_chemical_name_common
;
4-(4-(N,N-(bis-2-carboxyethylamino)phenylazo))nitrobenzene
;
_cell_volume   3498.435
_exptl_crystal_colour 'red'
_exptl_crystal_density_diffrn 1.467
_exptl_crystal_description 'prism'
_diffrn_ambient_temperature 298
#These two values have been output from a single CSD field.
_refine_ls_R_factor_gt 0.0556
_refine_ls_wR_factor_gt 0.0556
_chemical_compound_source
;
synthesis as described
;
_symmetry_cell_setting monoclinic
_symmetry_space_group_name_H-M 'C 2/c'
_symmetry_Int_Tables_number 15
loop_
_symmetry_equiv_pos_site_id
_symmetry_equiv_pos_as_xyz
1 x,y,z
2 -x,y,1/2-z
3 1/2+x,1/2+y,z
4 1/2-x,1/2+y,1/2-z
5 -x,-y,-z
6 x,-y,-1/2+z
7 -1/2-x,-1/2-y,-z
8 -1/2+x,-1/2-y,-1/2+z
_cell_length_a 42.68(3)
_cell_length_b 6.926(2)
_cell_length_c 12.08(2)
_cell_angle_alpha 90
_cell_angle_beta 101.56(8)
_cell_angle_gamma 90
_cell_formula_units_Z 8
loop_
_atom_type_symbol
_atom_type_radius_bond
C 0.68
H 0.23
N 0.68
O 0.68
loop_
_atom_site_label
_atom_site_type_symbol
_atom_site_fract_x
_atom_site_fract_y
_atom_site_fract_z
C1 C -0.04299(15) 0.5394(11) 0.0488(5)
C2 C -0.07446(13) 0.4411(10) 0.0108(5)
H1 H -0.07890 0.43610 -0.07110
H2 H -0.09090 0.52100 0.03290
C3 C -0.07779(13) 0.2403(10) 0.0541(5)
H3 H -0.09630 0.17930 0.00750
H4 H -0.05910 0.16570 0.04670
C4 C -0.03179(15) -0.1748(12) 0.3233(6)
C5 C -0.05991(13) -0.0716(9) 0.2578(5)
H5 H -0.07830 -0.09770 0.29160
H6 H -0.06460 -0.12260 0.18150
C6 C -0.05545(14) 0.1457(10) 0.2523(6)
H7 H -0.05480 0.20110 0.32640
H8 H -0.03520 0.17300 0.23080
C7 C -0.11083(13) 0.2674(10) 0.1964(5)
C8 C -0.13689(13) 0.3258(9) 0.1151(6)
H9 H -0.13400 0.34840 0.04190
C9 C -0.16652(14) 0.3511(10) 0.1385(7)
H10 H -0.18350 0.39060 0.08230
C10 C -0.17108(16) 0.3171(10) 0.2474(7)
C11 C -0.14559(15) 0.2657(11) 0.3299(7)
H11 H -0.14850 0.24710 0.40340
C12 C -0.11640(15) 0.2416(11) 0.3065(6)
H12 H -0.09950 0.20720 0.36430
C13 C -0.25488(17) 0.3429(11) 0.2351(9)
C14 C -0.25963(15) 0.3492(12) 0.3438(7)
H13 H -0.24240 0.35790 0.40430
C15 C -0.29100(15) 0.3423(11) 0.3625(7)
H14 H -0.29500 0.34890 0.43530
C16 C -0.31550(14) 0.3257(9) 0.2710(7)
C17 C -0.30925(15) 0.3222(10) 0.1650(7)
H15 H -0.32610 0.31210 0.10330
C18 C -0.27905(15) 0.3332(11) 0.1474(7)
H16 H -0.27520 0.33400 0.07430
N1 N -0.08128(10) 0.2351(8) 0.1710(4)
N2 N -0.20203(15) 0.3255(9) 0.2841(5)
N3 N -0.22248(14) 0.3470(9) 0.2004(5)
N4 N -0.34819(14) 0.3077(8) 0.2880(6)
O1 O -0.0417(1) 0.7183(7) 0.0300(4)
O2 O -0.01913(9) 0.4432(7) 0.0961(3)
O3 O -0.00925(11) -0.0870(8) 0.3829(4)
O4 O -0.03281(10) -0.3578(7) 0.3115(4)
H17 H -0.01750 -0.41010 0.33680
O5 O -0.36872(11) 0.2675(8) 0.2058(5)
O6 O -0.35345(12) 0.3376(8) 0.3818(5)
#END
