
#######################################################################
#
#                 Cambridge Crystallographic Data Centre
#                                CCDC
#
#######################################################################
#
# If this CIF has been generated from an entry in the Cambridge
# Structural Database, then it will include bibliographic, chemical,
# crystal, experimental, refinement or atomic coordinate data resulting
# from the CCDC's data processing and validation procedures.
#
#######################################################################

data_CSD_CIF_KEMREZ
_audit_creation_date 1991-01-07
_audit_creation_method CSD-ConQuest-V1
_database_code_CSD KEMREZ
_chemical_formula_sum 'C13 H9 N3 O5'
_chemical_formula_moiety
;
C13 H9 N3 O5
;
_journal_coeditor_code "IUCr MN0786"
_journal_coden_Cambridge 591
_journal_volume 46
_journal_year 1990
_journal_page_first 1056
_journal_name_full 'Acta Crystallogr.,Sect.C:Cryst.Struct.Commun. '
loop_
_publ_author_name
"M.Hariharan"
"R.Srinivasan"
_chemical_name_systematic
;
p,p'-Dintrobenzanilide
;
_cell_volume   1243.993
_exptl_crystal_colour 'yellow'
_exptl_crystal_density_diffrn 1.537
_diffrn_ambient_temperature ?
_diffrn_special_details
;
The study was carried out at room temperature,in the range 283-303K

;
#These two values have been output from a single CSD field.
_refine_ls_R_factor_gt 0.062
_refine_ls_wR_factor_gt 0.062
_symmetry_cell_setting monoclinic
_symmetry_space_group_name_H-M 'P 21/n'
_symmetry_Int_Tables_number 14
loop_
_symmetry_equiv_pos_site_id
_symmetry_equiv_pos_as_xyz
1 x,y,z
2 1/2-x,1/2+y,1/2-z
3 -x,-y,-z
4 -1/2+x,-1/2-y,-1/2+z
_cell_length_a 6.230(1)
_cell_length_b 17.922(4)
_cell_length_c 11.562(2)
_cell_angle_alpha 90
_cell_angle_beta 105.50(1)
_cell_angle_gamma 90
_cell_formula_units_Z 4
loop_
_atom_type_symbol
_atom_type_radius_bond
C 0.68
H 0.23
N 0.68
O 0.68
loop_
_atom_site_label
_atom_site_type_symbol
_atom_site_fract_x
_atom_site_fract_y
_atom_site_fract_z
C1 C 0.3515(9) 0.0796(3) 0.9178(5)
C2 C 0.5390(9) 0.1072(3) 0.8918(5)
C3 C 0.621(1) 0.0713(4) 0.8088(6)
C4 C 0.5253(10) 0.0097(4) 0.7520(5)
C5 C 0.3389(11) -0.0183(3) 0.7779(5)
C6 C 0.2464(10) 0.0171(4) 0.8614(5)
C7 C 0.6409(12) -0.0214(4) 0.6561(6)
C8 C 0.6590(9) -0.1272(3) 0.5284(5)
C9 C 0.8425(9) -0.1070(3) 0.4898(5)
C10 C 0.8952(9) -0.1476(3) 0.4001(5)
C11 C 0.767(1) -0.2064(3) 0.3517(5)
C12 C 0.586(1) -0.2281(3) 0.3896(5)
C13 C 0.5324(10) -0.1876(3) 0.4776(6)
N1 N 0.2608(8) 0.1173(3) 1.0070(4)
N2 N 0.5836(9) -0.0904(3) 0.6213(5)
N3 N 0.8292(10) -0.2470(3) 0.2535(5)
O1 O 0.3611(8) 0.1715(3) 1.0578(4)
O2 O 0.0942(8) 0.0931(3) 1.0274(4)
O3 O 0.7692(8) 0.0159(2) 0.6212(4)
O4 O 0.9829(10) -0.2228(3) 0.2169(4)
O5 O 0.7256(10) -0.3023(3) 0.2145(5)
H1 H 0.58840 0.14490 0.92320
H2 H 0.72510 0.09510 0.78370
H3 H 0.25940 -0.05990 0.74310
H4 H 0.12650 0.00300 0.88220
H5 H 0.91860 -0.06040 0.50930
H6 H 1.00820 -0.13260 0.37280
H7 H 0.50640 -0.26500 0.35480
H8 H 0.41090 -0.20470 0.49860
H9 H 0.52890 -0.13410 0.67920
#END
