
#######################################################################
#
#                 Cambridge Crystallographic Data Centre
#                                CCDC
#
#######################################################################
#
# If this CIF has been generated from an entry in the Cambridge
# Structural Database, then it will include bibliographic, chemical,
# crystal, experimental, refinement or atomic coordinate data resulting
# from the CCDC's data processing and validation procedures.
#
#######################################################################

data_CSD_CIF_KEMSOL
_audit_creation_date 2006-12-05
_audit_creation_method CSD-ConQuest-V1
_database_code_CSD KEMSOL
_database_code_depnum_ccdc_archive 'CCDC 603733'
_chemical_formula_sum 'C17 H15 N1 O3'
_chemical_formula_moiety
;
C17 H15 N1 O3
;
_journal_coden_Cambridge 35
_journal_volume 71
_journal_year 2006
_journal_page_first 6211
_journal_name_full 'J.Org.Chem. '
loop_
_publ_author_name
"S.E.Denmark"
"J.I.Montgomery"
_chemical_name_systematic
;
(1Z)-N-(Benzylidene)-2-(methoxycarbonyl)-1-phenylethene-2-amine N-oxide
;
_cell_volume   1469.145
_exptl_crystal_colour 'colorless'
_exptl_crystal_density_diffrn 1.272
_exptl_crystal_description 'columnar'
_exptl_crystal_preparation 'ether'
_diffrn_ambient_temperature 193
#These two values have been output from a single CSD field.
_refine_ls_R_factor_gt 0.0392
_refine_ls_wR_factor_gt 0.0392
_symmetry_cell_setting monoclinic
_symmetry_space_group_name_H-M 'P 21/c'
_symmetry_Int_Tables_number 14
loop_
_symmetry_equiv_pos_site_id
_symmetry_equiv_pos_as_xyz
1 x,y,z
2 -x,1/2+y,1/2-z
3 -x,-y,-z
4 x,-1/2-y,-1/2+z
_cell_length_a 8.406(3)
_cell_length_b 17.081(5)
_cell_length_c 10.259(3)
_cell_angle_alpha 90
_cell_angle_beta 94.155(5)
_cell_angle_gamma 90
_cell_formula_units_Z 4
loop_
_atom_type_symbol
_atom_type_radius_bond
C 0.68
H 0.23
N 0.68
O 0.68
loop_
_atom_site_label
_atom_site_type_symbol
_atom_site_fract_x
_atom_site_fract_y
_atom_site_fract_z
C1 C 0.36413(18) 0.91124(9) 0.79715(15)
H1 H 0.39040 0.87870 0.72680
C2 C 0.3376(2) 0.99072(10) 0.77674(18)
H2 H 0.34680 1.01230 0.69220
C3 C 0.2984(2) 1.03843(11) 0.8767(2)
H3 H 0.28160 1.09280 0.86180
C4 C 0.2837(2) 1.00711(11) 0.99899(19)
H4 H 0.25450 1.03990 1.06820
C5 C 0.31073(19) 0.92879(9) 1.02152(16)
H5 H 0.30120 0.90800 1.10650
C6 C 0.35215(16) 0.87942(9) 0.92086(14)
C7 C 0.38192(16) 0.79808(8) 0.95597(14)
H6 H 0.37640 0.78480 1.04550
C8 C 0.43754(16) 0.66284(8) 0.93021(13)
C9 C 0.57063(18) 0.63781(9) 0.99391(14)
H7 H 0.56780 0.58450 1.02000
C10 C 0.72120(17) 0.67768(9) 1.03129(15)
C11 C 0.77465(19) 0.74554(10) 0.97317(17)
H8 H 0.71050 0.77020 0.90500
C12 C 0.9214(2) 0.77711(12) 1.0148(2)
H9 H 0.95710 0.82360 0.97520
C13 C 1.0162(2) 0.74156(13) 1.11323(19)
H10 H 1.11610 0.76390 1.14210
C14 C 0.9659(2) 0.67386(13) 1.16926(18)
H11 H 1.03170 0.64890 1.23600
C15 C 0.81982(19) 0.64205(11) 1.12879(16)
H12 H 0.78600 0.59510 1.16800
C16 C 0.30151(17) 0.60895(9) 0.90423(14)
C17 C 0.03257(18) 0.59518(10) 0.82889(17)
H13 H 0.05230 0.55710 0.76040
H14 H -0.05930 0.62780 0.80030
H15 H 0.01040 0.56740 0.90910
N1 N 0.41531(14) 0.74152(7) 0.87765(11)
O1 O 0.42996(14) 0.74726(6) 0.75315(9)
O2 O 0.17161(11) 0.64416(6) 0.85366(10)
O3 O 0.30757(14) 0.54017(7) 0.92856(14)
#END
