
#######################################################################
#
#                 Cambridge Crystallographic Data Centre
#                                CCDC
#
#######################################################################
#
# If this CIF has been generated from an entry in the Cambridge
# Structural Database, then it will include bibliographic, chemical,
# crystal, experimental, refinement or atomic coordinate data resulting
# from the CCDC's data processing and validation procedures.
#
#######################################################################

data_CSD_CIF_KENMIZ
_audit_creation_date 1991-01-07
_audit_creation_method CSD-ConQuest-V1
_database_code_CSD KENMIZ
_chemical_formula_sum 'C11 H13 N3 O6'
_chemical_formula_moiety
;
C11 H13 N3 O6
;
_journal_coden_Cambridge 154
_journal_volume 43
_journal_year 1990
_journal_page_first 579
_journal_name_full 'Aust.J.Chem. '
loop_
_publ_author_name
"J.L.M.Gordon"
"M.P.Hartshorn"
"W.T.Robinson"
"C.W.Sies"
"B.A.Wells"
"J.L.Wikaira"
"G.J.Wright"
_chemical_name_systematic
;
2-Cyano-t-6-hydroxy-3,4,5,6-tetramethyl-r-4,t-5-dinitrocyclohex-2-enone
;
_chemical_name_common
;
t-5-Hydroxy-2,3,4,5-tetramethyl-r-3,t-4-dinitro-6-oxocyclohex-1-enecarbonitril
e
;
_chemical_melting_point 388.15
_cell_volume   2498.352
_exptl_crystal_density_diffrn 1.51
_exptl_special_details
;
Melting point range 388.15-390.15K

;
_diffrn_ambient_temperature 173
#These two values have been output from a single CSD field.
_refine_ls_R_factor_gt 0.057
_refine_ls_wR_factor_gt 0.057
_symmetry_cell_setting orthorhombic
_symmetry_space_group_name_H-M 'P b c a'
_symmetry_Int_Tables_number 61
loop_
_symmetry_equiv_pos_site_id
_symmetry_equiv_pos_as_xyz
1 x,y,z
2 1/2-x,-y,1/2+z
3 1/2+x,1/2-y,-z
4 -x,1/2+y,1/2-z
5 -x,-y,-z
6 -1/2+x,y,-1/2-z
7 -1/2-x,-1/2+y,z
8 x,-1/2-y,-1/2+z
_cell_length_a 11.166(4)
_cell_length_b 14.189(4)
_cell_length_c 15.769(6)
_cell_angle_alpha 90
_cell_angle_beta 90
_cell_angle_gamma 90
_cell_formula_units_Z 8
loop_
_atom_type_symbol
_atom_type_radius_bond
C 0.68
H 0.23
N 0.68
O 0.68
loop_
_atom_site_label
_atom_site_type_symbol
_atom_site_fract_x
_atom_site_fract_y
_atom_site_fract_z
C1 C -0.2646(6) 0.4284(5) 0.1143(4)
C2 C -0.2291(6) 0.4112(5) 0.0259(4)
C3 C -0.1437(7) 0.3514(5) 0.0011(4)
C4 C -0.0749(6) 0.2919(5) 0.0650(5)
C5 C -0.1105(6) 0.3068(5) 0.1597(4)
C6 C -0.1717(6) 0.4027(5) 0.1815(4)
O1 O -0.3559(5) 0.4695(4) 0.1334(3)
C7 C -0.2971(7) 0.4620(5) -0.0369(5)
N1 N -0.3461(6) 0.5020(5) -0.0902(4)
C8 C -0.1151(6) 0.3379(5) -0.0906(4)
C9 C -0.0772(7) 0.1885(5) 0.0375(5)
N2 N 0.0581(5) 0.3260(4) 0.0552(4)
O2 O 0.0760(5) 0.4072(4) 0.0363(4)
O3 O 0.1368(4) 0.2672(4) 0.0655(3)
C10 C -0.0107(7) 0.2832(5) 0.2207(4)
N3 N -0.2137(6) 0.2344(5) 0.1747(4)
O4 O -0.1966(6) 0.1683(4) 0.2218(3)
O5 O -0.3066(4) 0.2489(4) 0.1342(3)
C11 C -0.0832(7) 0.4849(6) 0.1867(5)
O6 O -0.2294(5) 0.3882(4) 0.2608(3)
H1 H -0.05220 0.29220 -0.09630
H2 H -0.08950 0.39670 -0.11460
H3 H -0.18520 0.31600 -0.11990
H4 H -0.15720 0.16430 0.04280
H5 H -0.02420 0.15250 0.07290
H6 H -0.05180 0.18370 -0.02050
H7 H 0.05450 0.32630 0.21250
H8 H 0.01630 0.22000 0.21070
H9 H -0.03960 0.28840 0.27790
H10 H -0.04490 0.49320 0.13270
H11 H -0.02370 0.47150 0.22910
H12 H -0.12530 0.54140 0.20170
H13 H -0.2155(67) 0.4421(47) 0.2864(41)
#END
