
#######################################################################
#
#                 Cambridge Crystallographic Data Centre
#                                CCDC
#
#######################################################################
#
# If this CIF has been generated from an entry in the Cambridge
# Structural Database, then it will include bibliographic, chemical,
# crystal, experimental, refinement or atomic coordinate data resulting
# from the CCDC's data processing and validation procedures.
#
#######################################################################

data_CSD_CIF_KEPBUE
_audit_creation_date 2013-04-04
_audit_creation_method CSD-ConQuest-V1
_database_code_CSD KEPBUE
_database_code_depnum_ccdc_archive 'CCDC 881462'
_chemical_formula_sum 'C11 H13 N1 O4'
_chemical_formula_moiety
;
C11 H13 N1 O4
;
_journal_coden_Cambridge 1564
_journal_volume 77
_journal_year 2012
_journal_page_first 1071
_journal_name_full 'ChemPlusChem '
loop_
_publ_author_name
"R.Wehlauch"
"J.Hoecker"
"K.Gademann"
_chemical_name_systematic
;
5-Ethyl-2,2-dimethyl-6-nitro-1,3-benzodioxole
;
_cell_volume   1078.668
_exptl_crystal_colour 'colorless'
_exptl_crystal_density_diffrn 1.374
_exptl_crystal_description 'plate'
_diffrn_ambient_temperature 123
#These two values have been output from a single CSD field.
_refine_ls_R_factor_gt 0.0432
_refine_ls_wR_factor_gt 0.0432
_symmetry_cell_setting monoclinic
_symmetry_space_group_name_H-M 'P 21/n'
_symmetry_Int_Tables_number 14
loop_
_symmetry_equiv_pos_site_id
_symmetry_equiv_pos_as_xyz
1 x,y,z
2 1/2-x,1/2+y,1/2-z
3 -x,-y,-z
4 -1/2+x,-1/2-y,-1/2+z
_cell_length_a 9.3296(17)
_cell_length_b 12.264(2)
_cell_length_c 10.4903(19)
_cell_angle_alpha 90
_cell_angle_beta 116.015(6)
_cell_angle_gamma 90
_cell_formula_units_Z 4
loop_
_atom_type_symbol
_atom_type_radius_bond
C 0.68
H 0.23
N 0.68
O 0.68
loop_
_atom_site_label
_atom_site_type_symbol
_atom_site_fract_x
_atom_site_fract_y
_atom_site_fract_z
C1 C 0.4886(3) 0.16921(17) 0.8630(2)
C2 C 0.6263(3) 0.12371(18) 0.9901(2)
C3 C 0.3945(3) 0.25493(19) 0.8965(2)
C4 C 0.4611(2) 0.16573(16) 0.6366(2)
C5 C 0.4657(2) 0.18584(16) 0.5110(2)
C6 C 0.3670(2) 0.11997(16) 0.3954(2)
C7 C 0.2704(2) 0.03642(17) 0.4046(2)
C8 C 0.2709(2) 0.01974(17) 0.5374(2)
C9 C 0.3637(2) 0.08500(17) 0.6496(2)
C10 C 0.1706(3) -0.04226(18) 0.2873(2)
C11 C -0.0027(3) -0.0066(2) 0.2059(3)
N1 N 0.3738(2) 0.14487(14) 0.26151(19)
O1 O 0.54603(18) 0.21491(12) 0.76532(14)
O2 O 0.38143(18) 0.08030(12) 0.78497(15)
O3 O 0.25976(19) 0.12119(14) 0.14909(16)
O4 O 0.49412(19) 0.19098(14) 0.26729(16)
H1 H 0.67600 0.06450 0.95860
H2 H 0.70530 0.18000 1.03470
H3 H 0.59140 0.09510 1.05800
H4 H 0.30840 0.27960 0.80570
H5 H 0.46730 0.31520 0.94460
H6 H 0.35140 0.22560 0.95840
H7 H 0.53080 0.24080 0.50300
H8 H 0.20700 -0.03570 0.54870
H9 H 0.17200 -0.11170 0.33330
H10 H 0.21580 -0.05180 0.22090
H11 H -0.06200 -0.06060 0.13510
H12 H -0.04830 0.00330 0.27390
H13 H -0.00620 0.06250 0.15830
#END
