
#######################################################################
#
#                 Cambridge Crystallographic Data Centre
#                                CCDC
#
#######################################################################
#
# If this CIF has been generated from an entry in the Cambridge
# Structural Database, then it will include bibliographic, chemical,
# crystal, experimental, refinement or atomic coordinate data resulting
# from the CCDC's data processing and validation procedures.
#
#######################################################################

data_CSD_CIF_KEPFAN
_audit_creation_date 2006-12-05
_audit_creation_method CSD-ConQuest-V1
_database_code_CSD KEPFAN
_database_code_depnum_ccdc_archive 'CCDC 283610'
_chemical_formula_sum 'C14 H15 N5 O3'
_chemical_formula_moiety
;
C14 H15 N5 O3
;
_journal_coden_Cambridge 1003
_journal_volume 36
_journal_year 2006
_journal_page_first 381
_journal_name_full 'J.Chem.Cryst. '
loop_
_publ_author_name
"K.Ravikumar"
"B.Sridhar"
"M.Mahesh"
"V.V.N.Reddy"
_chemical_name_systematic
;
3-(dihydro-2-((Z)-2-oxohydrazono)-1H-imidazol-1-(3H)-yl)methyl-5-p-tolylisoxaz
ole N-oxide
;
_cell_volume   1471.143
_exptl_crystal_colour 'colorless'
_exptl_crystal_density_diffrn 1.36
_exptl_crystal_description 'block'
_exptl_crystal_preparation 'methanol'
_diffrn_ambient_temperature 273
#These two values have been output from a single CSD field.
_refine_ls_R_factor_gt 0.0574
_refine_ls_wR_factor_gt 0.0574
_symmetry_cell_setting orthorhombic
_symmetry_space_group_name_H-M 'P n a 21'
_symmetry_Int_Tables_number 33
loop_
_symmetry_equiv_pos_site_id
_symmetry_equiv_pos_as_xyz
1 x,y,z
2 -x,-y,1/2+z
3 1/2+x,1/2-y,z
4 1/2-x,1/2+y,1/2+z
_cell_length_a 10.1778(10)
_cell_length_b 28.228(3)
_cell_length_c 5.1206(5)
_cell_angle_alpha 90
_cell_angle_beta 90
_cell_angle_gamma 90
_cell_formula_units_Z 4
loop_
_atom_type_symbol
_atom_type_radius_bond
C 0.68
H 0.23
N 0.68
O 0.68
loop_
_atom_site_label
_atom_site_type_symbol
_atom_site_fract_x
_atom_site_fract_y
_atom_site_fract_z
C1 C 0.4526(2) 0.60584(9) 0.3708(6)
C2 C 0.4238(3) 0.63810(9) 0.1876(6)
H1 H 0.47600 0.64780 0.04860
C3 C 0.2970(3) 0.65397(9) 0.2523(6)
C4 C 0.2175(3) 0.69008(10) 0.1048(7)
H2 H 0.25830 0.72090 0.12500
H3 H 0.21890 0.68210 -0.07950
C5 C -0.0160(3) 0.65819(12) 0.1186(10)
H4 H 0.00980 0.62660 0.17290
H5 H -0.03100 0.65820 -0.06850
C6 C -0.1361(3) 0.67455(13) 0.2639(11)
H6 H -0.20150 0.68720 0.14510
H7 H -0.17470 0.64890 0.36360
C7 C 0.0390(2) 0.72082(9) 0.3836(6)
C8 C 0.5630(2) 0.57333(9) 0.4058(6)
C9 C 0.5655(3) 0.54061(11) 0.6073(7)
H8 H 0.50000 0.54090 0.73390
C10 C 0.6654(3) 0.50758(11) 0.6197(9)
H9 H 0.66550 0.48560 0.75520
C11 C 0.7653(3) 0.50614(11) 0.4372(9)
C12 C 0.7636(3) 0.53969(12) 0.2407(9)
H10 H 0.83100 0.54000 0.11800
C13 C 0.6636(3) 0.57301(10) 0.2220(7)
H11 H 0.66400 0.59500 0.08700
C14 C 0.8680(4) 0.46768(15) 0.4445(14)
H12 H 0.83740 0.44070 0.34810
H13 H 0.88420 0.45870 0.62240
H14 H 0.94790 0.47920 0.36770
N1 N 0.2509(2) 0.63298(9) 0.4581(6)
N2 N 0.0823(2) 0.69294(8) 0.1911(6)
N3 N -0.0857(2) 0.71093(9) 0.4335(7)
H15 H -0.13120 0.72460 0.55320
N4 N 0.1227(2) 0.75210(8) 0.4866(6)
N5 N 0.0760(2) 0.78089(9) 0.6714(6)
O1 O 0.3510(2) 0.60159(8) 0.5375(5)
O2 O 0.1553(2) 0.80901(9) 0.7630(6)
O3 O -0.0387(2) 0.78000(9) 0.7483(7)
#END
