
#######################################################################
#
#                 Cambridge Crystallographic Data Centre
#                                CCDC
#
#######################################################################
#
# If this CIF has been generated from an entry in the Cambridge
# Structural Database, then it will include bibliographic, chemical,
# crystal, experimental, refinement or atomic coordinate data resulting
# from the CCDC's data processing and validation procedures.
#
#######################################################################

data_CSD_CIF_KEPHOD
_audit_creation_date 2006-12-05
_audit_creation_method CSD-ConQuest-V1
_database_code_CSD KEPHOD
_database_code_depnum_ccdc_archive 'CCDC 297581'
_chemical_formula_sum 'C20 H24 N2 O11'
_chemical_formula_moiety
;
C20 H24 N2 O11
;
_journal_coden_Cambridge 156
_journal_volume 341
_journal_year 2006
_journal_page_first 2581
_journal_name_full 'Carbohydr.Res. '
loop_
_publ_author_name
"A.Temeriusz"
"T.Gubica"
"P.Rogowska"
"K.Paradowska"
"M.K.Cyranski"
_chemical_name_systematic
;
N-o-nitrophenyl-2,3,4,6-tetra-O-acetyl-\b-D-glucopyranosylamine
;
_chemical_melting_point 457.65
_cell_volume   2181.172
_exptl_crystal_colour 'yellow'
_exptl_crystal_density_diffrn 1.426
_exptl_special_details
;
Melting point range 457.65-458.65K

;
_exptl_crystal_preparation 'ethanol'
_diffrn_ambient_temperature 100
#These two values have been output from a single CSD field.
_refine_ls_R_factor_gt 0.0382
_refine_ls_wR_factor_gt 0.0382
_symmetry_cell_setting orthorhombic
_symmetry_space_group_name_H-M 'P 21 21 21'
_symmetry_Int_Tables_number 19
loop_
_symmetry_equiv_pos_site_id
_symmetry_equiv_pos_as_xyz
1 x,y,z
2 1/2-x,-y,1/2+z
3 -x,1/2+y,1/2-z
4 1/2+x,1/2-y,-z
_cell_length_a 7.0160(14)
_cell_length_b 13.241(3)
_cell_length_c 23.479(5)
_cell_angle_alpha 90
_cell_angle_beta 90
_cell_angle_gamma 90
_cell_formula_units_Z 4
loop_
_atom_type_symbol
_atom_type_radius_bond
C 0.68
H 0.23
N 0.68
O 0.68
loop_
_atom_site_label
_atom_site_type_symbol
_atom_site_fract_x
_atom_site_fract_y
_atom_site_fract_z
C1 C -0.0131(3) 0.41753(18) 0.13185(11)
H1 H -0.12620 0.45780 0.14110
C2 C 0.1307(4) 0.42586(18) 0.18008(10)
H2 H 0.22850 0.37350 0.17600
O1 O 0.0281(2) 0.41188(12) 0.23290(7)
C3 C 0.0562(4) 0.3247(2) 0.26225(11)
O2 O 0.1625(3) 0.25997(14) 0.24719(8)
C4 C -0.0659(4) 0.3237(2) 0.31383(11)
H3 H -0.19530 0.30990 0.30310
H4 H -0.05940 0.38830 0.33230
H5 H -0.02190 0.27230 0.33950
C5 C 0.2241(3) 0.52947(18) 0.18330(11)
H6 H 0.13520 0.57930 0.19900
O3 O 0.3864(2) 0.51784(12) 0.21992(7)
C6 C 0.4183(4) 0.5892(2) 0.26066(11)
O4 O 0.3162(3) 0.66055(14) 0.26781(8)
C7 C 0.5959(4) 0.5661(2) 0.29254(11)
H7 H 0.62940 0.62290 0.31600
H8 H 0.69720 0.55280 0.26610
H9 H 0.57590 0.50790 0.31620
C8 C 0.2898(3) 0.56087(17) 0.12490(11)
H10 H 0.39360 0.51670 0.11220
O5 O 0.3562(2) 0.66402(11) 0.12790(7)
C9 C 0.5453(4) 0.68179(19) 0.12139(11)
O6 O 0.6593(2) 0.61599(13) 0.11175(8)
C10 C 0.5855(3) 0.79083(17) 0.12881(12)
H11 H 0.59720 0.80590 0.16870
H12 H 0.48300 0.82960 0.11290
H13 H 0.70230 0.80760 0.10970
C11 C 0.1255(4) 0.55601(18) 0.0826(1)
H14 H 0.01920 0.59670 0.09700
O7 O 0.0671(2) 0.45227(12) 0.07934(7)
C12 C 0.1795(3) 0.59316(19) 0.02403(11)
H15 H 0.08210 0.57380 -0.00320
H16 H 0.18850 0.66630 0.02420
O8 O 0.3599(2) 0.55022(12) 0.00754(7)
C13 C 0.4823(4) 0.6145(2) -0.01869(11)
O9 O 0.4465(3) 0.70055(14) -0.02892(9)
C14 C 0.6671(4) 0.5634(2) -0.03208(12)
H17 H 0.75560 0.61200 -0.04690
H18 H 0.64600 0.51140 -0.05990
H19 H 0.71840 0.53390 0.00200
N1 N -0.0660(3) 0.31433(15) 0.12542(9)
C15 C -0.2305(4) 0.28102(19) 0.09966(10)
C16 C -0.2769(3) 0.17829(19) 0.09437(11)
C17 C -0.4462(4) 0.1469(2) 0.06924(10)
H20 H -0.47350 0.07840 0.06640
C18 C -0.5727(4) 0.2163(2) 0.04877(11)
H21 H -0.68620 0.19550 0.03200
C19 C -0.5302(4) 0.3184(2) 0.05323(11)
H22 H -0.61560 0.36600 0.03920
C20 C -0.3639(3) 0.34964(18) 0.0781(1)
H23 H -0.33890 0.41850 0.08080
N2 N -0.1539(3) 0.09840(16) 0.11553(9)
O10 O 0.0125(2) 0.11894(13) 0.12890(9)
O11 O -0.2176(2) 0.01150(13) 0.11881(8)
H24 H 0.016(3) 0.2684(17) 0.1351(10)
#END
