
#######################################################################
#
#                 Cambridge Crystallographic Data Centre
#                                CCDC
#
#######################################################################
#
# If this CIF has been generated from an entry in the Cambridge
# Structural Database, then it will include bibliographic, chemical,
# crystal, experimental, refinement or atomic coordinate data resulting
# from the CCDC's data processing and validation procedures.
#
#######################################################################

data_CSD_CIF_KEPJEV
_audit_creation_date 2006-12-05
_audit_creation_method CSD-ConQuest-V1
_database_code_CSD KEPJEV
_database_code_depnum_ccdc_archive 'CCDC 297584'
_chemical_formula_sum 'C22 H26 N2 O12'
_chemical_formula_moiety
;
C22 H26 N2 O12
;
_journal_coden_Cambridge 156
_journal_volume 341
_journal_year 2006
_journal_page_first 2581
_journal_name_full 'Carbohydr.Res. '
loop_
_publ_author_name
"A.Temeriusz"
"T.Gubica"
"P.Rogowska"
"K.Paradowska"
"M.K.Cyranski"
_chemical_name_systematic
;
N-acetyl-N-2-nitrophenyl-2,3,4,6-tetra-O-acetyl-\b-D-glucopyranosylamine
;
_chemical_melting_point 404.15
_cell_volume   1262.335
_exptl_crystal_colour 'white'
_exptl_crystal_density_diffrn 1.343
_exptl_special_details
;
Melting point range 404.15-406.15K

;
_exptl_crystal_preparation 'ethanol'
_diffrn_ambient_temperature 100
#These two values have been output from a single CSD field.
_refine_ls_R_factor_gt 0.043
_refine_ls_wR_factor_gt 0.043
_symmetry_cell_setting monoclinic
_symmetry_space_group_name_H-M 'P 21'
_symmetry_Int_Tables_number 4
loop_
_symmetry_equiv_pos_site_id
_symmetry_equiv_pos_as_xyz
1 x,y,z
2 -x,1/2+y,-z
_cell_length_a 8.8620(18)
_cell_length_b 7.8640(16)
_cell_length_c 18.564(4)
_cell_angle_alpha 90
_cell_angle_beta 102.65(3)
_cell_angle_gamma 90
_cell_formula_units_Z 2
loop_
_atom_type_symbol
_atom_type_radius_bond
C 0.68
H 0.23
N 0.68
O 0.68
loop_
_atom_site_label
_atom_site_type_symbol
_atom_site_fract_x
_atom_site_fract_y
_atom_site_fract_z
C1 C 0.4772(3) 0.8774(4) 0.80088(15)
H1 H 0.38250 0.81260 0.80020
C2 C 0.4378(3) 1.0355(4) 0.75401(15)
H2 H 0.53060 1.10380 0.75460
O1 O 0.3249(2) 1.1317(2) 0.78288(10)
C3 C 0.3478(3) 1.3026(4) 0.79274(14)
O2 O 0.4648(2) 1.3727(3) 0.78567(12)
C4 C 0.2104(3) 1.3847(4) 0.81110(17)
H3 H 0.23990 1.49160 0.83500
H4 H 0.16880 1.31210 0.84360
H5 H 0.13350 1.40340 0.76660
C5 C 0.3602(3) 0.9850(4) 0.67564(15)
H6 H 0.25770 0.93760 0.67520
O3 O 0.3434(2) 1.1398(2) 0.63268(11)
C6 C 0.2116(3) 1.1588(4) 0.58017(17)
O4 O 0.1108(2) 1.0544(3) 0.56642(12)
C7 C 0.2116(4) 1.3259(4) 0.5424(2)
H7 H 0.27590 1.31910 0.50710
H8 H 0.25100 1.41200 0.57820
H9 H 0.10790 1.35440 0.51750
C8 C 0.4558(3) 0.8546(4) 0.64463(14)
H10 H 0.54530 0.90880 0.63110
O5 O 0.3596(2) 0.7718(2) 0.58118(10)
C9 C 0.3650(3) 0.8272(4) 0.51272(16)
O6 O 0.4395(2) 0.9476(3) 0.50209(12)
C10 C 0.2670(4) 0.7191(4) 0.45491(17)
H11 H 0.24550 0.77900 0.40870
H12 H 0.17170 0.69310 0.46900
H13 H 0.32080 0.61540 0.44970
C11 C 0.5076(3) 0.7098(3) 0.69945(15)
H14 H 0.41620 0.64460 0.70450
O7 O 0.5789(2) 0.7781(2) 0.76986(10)
C12 C 0.6209(3) 0.5911(4) 0.67674(16)
H15 H 0.65420 0.50510 0.71430
H16 H 0.57420 0.53490 0.63070
O8 O 0.7514(2) 0.6945(3) 0.66764(11)
C13 C 0.8864(3) 0.6141(5) 0.67269(17)
O9 O 0.9011(2) 0.4632(3) 0.67936(13)
C14 C 1.0134(4) 0.7377(5) 0.6715(2)
H17 H 1.05800 0.77390 0.72100
H18 H 0.97260 0.83450 0.64220
H19 H 1.09150 0.68430 0.65070
N1 N 0.5546(2) 0.9120(3) 0.87714(12)
C15 C 0.7157(3) 0.9556(3) 0.89169(15)
C16 C 0.8324(3) 0.8346(4) 0.89614(15)
C17 C 0.9867(3) 0.8765(4) 0.90810(16)
H20 H 1.06110 0.79250 0.90930
C18 C 1.0291(3) 1.0448(4) 0.91834(17)
H21 H 1.13310 1.07500 0.92850
C19 C 0.9160(3) 1.1692(4) 0.91349(16)
H22 H 0.94440 1.28300 0.91970
C20 C 0.7610(3) 1.1242(4) 0.89937(15)
H23 H 0.68630 1.20880 0.89500
N2 N 0.7972(3) 0.6514(3) 0.88874(13)
O10 O 0.7002(2) 0.5944(3) 0.92014(11)
O11 O 0.8712(2) 0.5669(3) 0.85299(12)
C21 C 0.4810(3) 0.8681(4) 0.93299(16)
O12 O 0.3492(2) 0.8139(3) 0.91896(11)
C22 C 0.5711(3) 0.8943(4) 1.01043(16)
H24 H 0.50280 0.88650 1.04390
H25 H 0.61860 1.00460 1.01460
H26 H 0.64970 0.80850 1.02240
#END
