
#######################################################################
#
#                 Cambridge Crystallographic Data Centre
#                                CCDC
#
#######################################################################
#
# If this CIF has been generated from an entry in the Cambridge
# Structural Database, then it will include bibliographic, chemical,
# crystal, experimental, refinement or atomic coordinate data resulting
# from the CCDC's data processing and validation procedures.
#
#######################################################################

data_CSD_CIF_KEPZOW
_audit_creation_date 2013-04-24
_audit_creation_method CSD-ConQuest-V1
_database_code_CSD KEPZOW
_database_code_depnum_ccdc_archive 'CCDC 891932'
_chemical_formula_sum 'C15 H16 N2 O8'
_chemical_formula_moiety
;
C15 H16 N2 O8
;
_journal_coden_Cambridge 4
_journal_volume 134
_journal_year 2012
_journal_page_first 18948
_journal_name_full 'J.Am.Chem.Soc. '
loop_
_publ_author_name
"D.Sandoval"
"C.P.Frazier"
"A.Bugarin"
"J.R.de Alaniz"
_chemical_name_systematic
;
ethyl 4,5-dimethyl-3-[(4-nitrobenzoyl)oxy]-2-oxo-1,3-oxazolidine-4-carboxylate
;
_cell_volume    799.918
_exptl_crystal_colour 'colorless'
_exptl_crystal_density_diffrn 1.463
_exptl_crystal_description 'block'
_diffrn_ambient_temperature 100
#These two values have been output from a single CSD field.
_refine_ls_R_factor_gt 0.0376
_refine_ls_wR_factor_gt 0.0376
_symmetry_cell_setting triclinic
_symmetry_space_group_name_H-M 'P -1'
_symmetry_Int_Tables_number 2
loop_
_symmetry_equiv_pos_site_id
_symmetry_equiv_pos_as_xyz
1 x,y,z
2 -x,-y,-z
_cell_length_a 7.3187(2)
_cell_length_b 7.5958(2)
_cell_length_c 14.8087(4)
_cell_angle_alpha 76.651(2)
_cell_angle_beta 89.943(2)
_cell_angle_gamma 87.098(2)
_cell_formula_units_Z 2
loop_
_atom_type_symbol
_atom_type_radius_bond
C 0.68
H 0.23
N 0.68
O 0.68
loop_
_atom_site_label
_atom_site_type_symbol
_atom_site_fract_x
_atom_site_fract_y
_atom_site_fract_z
C1 C 0.46013(19) 1.1880(2) 0.08783(10)
H1 H 0.39150 1.09300 0.07050
H2 H 0.41200 1.30700 0.05300
H3 H 0.44730 1.18020 0.15450
C2 C 0.65785(18) 1.16305(17) 0.06575(9)
H4 H 0.67290 1.17230 -0.00160
H5 H 0.72890 1.25750 0.08360
C3 C 0.90213(17) 0.95370(17) 0.12773(9)
C4 C 0.95536(16) 0.76086(16) 0.18312(9)
C5 C 0.97661(17) 0.63763(17) 0.11275(9)
H6 H 1.02230 0.70900 0.05230
C6 C 0.68649(17) 0.61182(16) 0.17430(9)
C7 C 1.12170(17) 0.76411(18) 0.24383(9)
H7 H 1.09430 0.84480 0.28560
H8 H 1.22530 0.80820 0.20450
H9 H 1.15280 0.64140 0.28050
C8 C 1.09520(18) 0.46724(18) 0.14499(10)
H10 H 1.05540 0.40240 0.20640
H11 H 1.22290 0.49830 0.14880
H12 H 1.08470 0.38980 0.10090
C9 C 0.74976(17) 0.65524(16) 0.38910(9)
C10 C 0.61576(17) 0.71530(16) 0.45306(9)
C11 C 0.65477(18) 0.66552(17) 0.54812(9)
H13 H 0.76790 0.60340 0.56980
C12 C 0.52804(18) 0.70698(17) 0.61082(9)
H14 H 0.55240 0.67430 0.67570
C13 C 0.36459(17) 0.79771(17) 0.57588(9)
C14 C 0.32224(18) 0.84875(17) 0.48227(9)
H15 H 0.20880 0.91060 0.46100
C15 C 0.45057(17) 0.80695(17) 0.42013(9)
H16 H 0.42570 0.84080 0.35530
N1 N 0.80406(14) 0.66781(14) 0.23453(7)
N2 N 0.22795(16) 0.84215(15) 0.64177(8)
O1 O 0.72209(12) 0.98331(12) 0.11838(6)
O2 O 1.01470(13) 1.05967(13) 0.09480(7)
O3 O 0.52758(12) 0.58219(12) 0.18500(7)
O4 O 0.78668(12) 0.58884(12) 0.10119(6)
O5 O 0.71210(12) 0.75054(12) 0.29889(6)
O6 O 0.86965(13) 0.54134(13) 0.41065(7)
O7 O 0.08830(15) 0.92971(18) 0.60996(8)
O8 O 0.26178(15) 0.79188(15) 0.72466(7)
#END
