
#######################################################################
#
#                 Cambridge Crystallographic Data Centre
#                                CCDC
#
#######################################################################
#
# If this CIF has been generated from an entry in the Cambridge
# Structural Database, then it will include bibliographic, chemical,
# crystal, experimental, refinement or atomic coordinate data resulting
# from the CCDC's data processing and validation procedures.
#
#######################################################################

data_CSD_CIF_KEQWUZ
_audit_creation_date 2006-12-05
_audit_creation_method CSD-ConQuest-V1
_database_code_CSD KEQWUZ
_database_code_depnum_ccdc_archive 'CCDC 627305'
_chemical_formula_sum 'C26 H28 N2 O6'
_chemical_formula_moiety
;
C26 H28 N2 O6
;
_journal_coeditor_code "IUCr BG2009"
_journal_coden_Cambridge 1370
_journal_volume 62
_journal_year 2006
_journal_page_first o5125
_journal_name_full 'Acta Crystallogr.,Sect.E:Struct.Rep.Online '
loop_
_publ_author_name
"Feng-Xia Sun"
"Yi-Feng Yu"
_chemical_name_systematic
;
3-Benzyl 5-t-butyl 
2,6-dimethyl-4-(3-nitrophenyl)-1,4-dihydropyridine-3,5-dicarboxylate
;
_chemical_name_common
;
2,6-Dimethyl-4-(3-nitrophenyl)-1,4-dihydropyridine-3,5-dicarboxylic acid 
3-benzyl ester 5-tert-butyl ester
;
_chemical_melting_point 401
_cell_volume   2470.457
_exptl_crystal_colour 'yellow'
_exptl_crystal_density_diffrn 1.249
_exptl_special_details
;
Melting point range 401-402K

;
_exptl_crystal_description 'block'
_diffrn_ambient_temperature 113
#These two values have been output from a single CSD field.
_refine_ls_R_factor_gt 0.0341
_refine_ls_wR_factor_gt 0.0341
_symmetry_cell_setting orthorhombic
_symmetry_space_group_name_H-M 'P c a 21'
_symmetry_Int_Tables_number 29
loop_
_symmetry_equiv_pos_site_id
_symmetry_equiv_pos_as_xyz
1 x,y,z
2 1/2-x,y,1/2+z
3 1/2+x,-y,z
4 -x,-y,1/2+z
_cell_length_a 24.359(2)
_cell_length_b 9.2553(8)
_cell_length_c 10.9579(12)
_cell_angle_alpha 90
_cell_angle_beta 90
_cell_angle_gamma 90
_cell_formula_units_Z 4
loop_
_atom_type_symbol
_atom_type_radius_bond
C 0.68
H 0.23
N 0.68
O 0.68
loop_
_atom_site_label
_atom_site_type_symbol
_atom_site_fract_x
_atom_site_fract_y
_atom_site_fract_z
O1 O 0.21240(5) 0.25553(14) 0.48790(15)
O2 O 0.23889(4) 0.41710(12) 0.34428(13)
O3 O 0.03328(5) 0.65771(15) 0.09103(14)
O4 O 0.12027(5) 0.72813(13) 0.12369(13)
O5 O 0.15574(7) 0.93348(16) 0.74968(15)
O6 O 0.09064(6) 0.78209(16) 0.70860(15)
N1 N 0.04936(6) 0.40772(17) 0.41520(16)
N2 N 0.13286(6) 0.84789(17) 0.68126(16)
C1 C 0.10076(6) 0.34918(18) 0.44166(18)
C2 C 0.14583(6) 0.40706(18) 0.38777(18)
C3 C 0.14194(6) 0.54300(18) 0.30915(17)
H1 H 0.16670 0.53040 0.23710
C4 C 0.08328(6) 0.56349(18) 0.26206(18)
C5 C 0.04007(6) 0.50318(18) 0.32148(18)
C6 C 0.09828(7) 0.2221(2) 0.5258(2)
H2 H 0.06040 0.20800 0.55360
H3 H 0.12200 0.23950 0.59650
H4 H 0.11080 0.13540 0.48260
C7 C -0.01996(6) 0.5269(2) 0.2957(2)
H5 H -0.04120 0.51030 0.37030
H6 H -0.03210 0.45950 0.23220
H7 H -0.02570 0.62640 0.26770
C8 C 0.20123(6) 0.34884(18) 0.41419(18)
C9 C 0.29863(6) 0.39426(19) 0.36270(19)
C10 C 0.32286(7) 0.4932(2) 0.2666(2)
H8 H 0.31130 0.59290 0.28260
H9 H 0.30990 0.46350 0.18580
H10 H 0.36300 0.48720 0.26940
C11 C 0.31418(8) 0.4427(2) 0.4906(2)
H11 H 0.30140 0.54190 0.50370
H12 H 0.35420 0.43880 0.49990
H13 H 0.29700 0.37850 0.55050
C12 C 0.31399(7) 0.2382(2) 0.3378(2)
H14 H 0.29890 0.17640 0.40220
H15 H 0.35410 0.22880 0.33620
H16 H 0.29890 0.20860 0.25870
C13 C 0.07496(7) 0.65146(19) 0.15319(18)
C14 C 0.11696(7) 0.8142(2) 0.0122(2)
H17 H 0.09880 0.75650 -0.05230
H18 H 0.15460 0.83720 -0.01600
C15 C 0.08555(7) 0.9531(2) 0.0305(2)
C16 C 0.10043(10) 1.0483(2) 0.1228(2)
H19 H 0.12970 1.02440 0.17630
C17 C 0.07263(13) 1.1780(3) 0.1370(3)
H20 H 0.08290 1.24240 0.20050
C18 C 0.03018(11) 1.2141(3) 0.0596(3)
H21 H 0.01160 1.30360 0.06920
C19 C 0.01474(9) 1.1201(3) -0.0317(3)
H22 H -0.01480 1.14440 -0.08450
C20 C 0.04250(8) 0.9893(2) -0.0467(2)
H23 H 0.03190 0.92480 -0.10990
C21 C 0.16163(6) 0.67421(18) 0.38105(18)
C22 C 0.13831(6) 0.70441(19) 0.49354(19)
H24 H 0.10950 0.64570 0.52430
C23 C 0.15745(7) 0.82129(19) 0.56099(19)
C24 C 0.19894(7) 0.9118(2) 0.5196(2)
H25 H 0.21150 0.99090 0.56740
C25 C 0.22136(7) 0.8827(2) 0.4062(2)
H26 H 0.24950 0.94330 0.37480
C26 C 0.20317(7) 0.76555(18) 0.3375(2)
H27 H 0.21910 0.74720 0.26000
H28 H 0.0226(9) 0.377(2) 0.457(2)
#END
