
#######################################################################
#
#                 Cambridge Crystallographic Data Centre
#                                CCDC
#
#######################################################################
#
# If this CIF has been generated from an entry in the Cambridge
# Structural Database, then it will include bibliographic, chemical,
# crystal, experimental, refinement or atomic coordinate data resulting
# from the CCDC's data processing and validation procedures.
#
#######################################################################

data_CSD_CIF_KEQXOV
_audit_creation_date 2013-03-18
_audit_creation_method CSD-ConQuest-V1
_database_code_CSD KEQXOV
_database_code_depnum_ccdc_archive 'CCDC 851599'
_chemical_formula_sum 'C10 H20 N4 O4'
_chemical_formula_moiety
;
C10 H20 N4 O4
;
_journal_coden_Cambridge 731
_journal_volume 50
_journal_year 2012
_journal_page_first 672
_journal_name_full 'Magn.Reson.Chem. '
loop_
_publ_author_name
"P.Gilinsky-Sharon"
"H.E.Gottlieb"
"D.E.Rajsfus"
"K.Keinan-Adamsky"
"V.Marks"
"P.Aped"
"A.A.Frimer"
_chemical_name_systematic
;
N,N,N',N'-Tetraethyl-2,2-dinitroethene-1,1-diamine
;
_cell_volume   1362.910
_exptl_crystal_colour 'pale yellow'
_exptl_crystal_density_diffrn 1.269
_diffrn_ambient_temperature 223
#These two values have been output from a single CSD field.
_refine_ls_R_factor_gt 0.0555
_refine_ls_wR_factor_gt 0.0555
_symmetry_cell_setting monoclinic
_symmetry_space_group_name_H-M 'P 21/n'
_symmetry_Int_Tables_number 14
loop_
_symmetry_equiv_pos_site_id
_symmetry_equiv_pos_as_xyz
1 x,y,z
2 1/2-x,1/2+y,1/2-z
3 -x,-y,-z
4 -1/2+x,-1/2-y,-1/2+z
_cell_length_a 9.0758(7)
_cell_length_b 13.2641(10)
_cell_length_c 11.4729(9)
_cell_angle_alpha 90
_cell_angle_beta 99.318(1)
_cell_angle_gamma 90
_cell_formula_units_Z 4
loop_
_atom_type_symbol
_atom_type_radius_bond
C 0.68
H 0.23
N 0.68
O 0.68
loop_
_atom_site_label
_atom_site_type_symbol
_atom_site_fract_x
_atom_site_fract_y
_atom_site_fract_z
C1 C 0.16370(16) 0.85219(10) 0.80052(12)
C2 C 0.17217(17) 0.91021(11) 0.90951(13)
C3 C -0.10730(19) 0.87250(13) 0.76182(18)
H1 H -0.08930 0.91350 0.83380
H2 H -0.18470 0.82290 0.77090
C4 C -0.1607(3) 0.9380(2) 0.6595(3)
H3 H -0.08430 0.98710 0.65030
H4 H -0.25070 0.97270 0.67250
H5 H -0.18220 0.89720 0.58870
C5 C 0.01189(19) 0.72432(12) 0.67979(15)
H6 H 0.10990 0.69900 0.66820
H7 H -0.04680 0.73740 0.60180
C6 C -0.0654(2) 0.64551(15) 0.7418(2)
H8 H -0.01060 0.63510 0.82070
H9 H -0.06960 0.58280 0.69790
H10 H -0.16610 0.66770 0.74680
C7 C 0.43546(18) 0.83639(13) 0.83287(14)
H11 H 0.42250 0.85230 0.91400
H12 H 0.49660 0.88970 0.80570
C8 C 0.5150(2) 0.73750(17) 0.83158(19)
H13 H 0.45400 0.68440 0.85690
H14 H 0.60950 0.74070 0.88480
H15 H 0.53310 0.72340 0.75220
C9 C 0.28826(19) 0.82664(13) 0.62779(13)
H16 H 0.18550 0.83210 0.58600
H17 H 0.32670 0.76030 0.61000
C10 C 0.3820(3) 0.90722(17) 0.58410(18)
H18 H 0.35330 0.97250 0.61110
H19 H 0.36670 0.90630 0.49840
H20 H 0.48650 0.89490 0.61450
N1 N 0.22623(15) 1.00836(10) 0.91226(13)
N2 N 0.12263(16) 0.86676(10) 1.00645(11)
N3 N 0.03140(14) 0.81941(9) 0.74751(11)
N4 N 0.28817(14) 0.83454(9) 0.75676(10)
O1 O 0.23875(17) 1.04545(9) 0.81429(13)
O2 O 0.26251(17) 1.05482(10) 1.00594(13)
O3 O 0.10357(19) 0.77362(10) 1.00178(12)
O4 O 0.09744(16) 0.9172(1) 1.09125(10)
#END
