
#######################################################################
#
#                 Cambridge Crystallographic Data Centre
#                                CCDC
#
#######################################################################
#
# If this CIF has been generated from an entry in the Cambridge
# Structural Database, then it will include bibliographic, chemical,
# crystal, experimental, refinement or atomic coordinate data resulting
# from the CCDC's data processing and validation procedures.
#
#######################################################################

data_CSD_CIF_KERBOZ
_audit_creation_date 2006-12-05
_audit_creation_method CSD-ConQuest-V1
_database_code_CSD KERBOZ
_database_code_depnum_ccdc_archive 'CCDC 616610'
_chemical_formula_sum 'C18 H17 N3 O4'
_chemical_formula_moiety
;
C18 H17 N3 O4
;
_journal_coeditor_code "IUCr EZ2031"
_journal_coden_Cambridge 1370
_journal_volume 62
_journal_year 2006
_journal_page_first o4587
_journal_name_full 'Acta Crystallogr.,Sect.E:Struct.Rep.Online '
loop_
_publ_author_name
"Shu-Ping Yang"
"Li-Jun Han"
"Da-Qi Wang"
"Hai-Tao Xia"
_chemical_name_systematic
;
(E,E)-4-(Dimethylamino)benzaldehyde O-(3-(3-nitrophenyl)propenoyl)oxime
;
_chemical_melting_point 453
_cell_volume   1658.559
_exptl_crystal_colour 'red'
_exptl_crystal_density_diffrn 1.359
_exptl_special_details
;
Melting point range 453-455K

;
_exptl_crystal_description 'needle'
_exptl_crystal_preparation 'ethanol'
_diffrn_ambient_temperature 298
#These two values have been output from a single CSD field.
_refine_ls_R_factor_gt 0.061
_refine_ls_wR_factor_gt 0.061
_symmetry_cell_setting monoclinic
_symmetry_space_group_name_H-M 'P 21/c'
_symmetry_Int_Tables_number 14
loop_
_symmetry_equiv_pos_site_id
_symmetry_equiv_pos_as_xyz
1 x,y,z
2 -x,1/2+y,1/2-z
3 -x,-y,-z
4 x,-1/2-y,-1/2+z
_cell_length_a 18.031(12)
_cell_length_b 7.332(5)
_cell_length_c 12.714(9)
_cell_angle_alpha 90
_cell_angle_beta 99.338(11)
_cell_angle_gamma 90
_cell_formula_units_Z 4
loop_
_atom_type_symbol
_atom_type_radius_bond
C 0.68
H 0.23
N 0.68
O 0.68
loop_
_atom_site_label
_atom_site_type_symbol
_atom_site_fract_x
_atom_site_fract_y
_atom_site_fract_z
N1 N 0.8959(2) 0.2646(6) 1.0208(4)
N2 N 0.4335(2) 0.3501(6) 0.6726(4)
N3 N 0.1317(2) 0.3825(6) 0.3351(4)
O1 O 0.51241(16) 0.3451(5) 0.7166(3)
O2 O 0.47342(19) 0.3797(6) 0.8728(3)
O3 O 0.88809(19) 0.1982(6) 0.9322(3)
O4 O 0.9568(2) 0.2841(6) 1.0761(4)
C1 C 0.5233(3) 0.3587(7) 0.8238(4)
C2 C 0.6026(2) 0.3480(6) 0.8705(4)
H1 H 0.63840 0.31970 0.82800
C3 C 0.6232(2) 0.3785(6) 0.9724(4)
H2 H 0.58410 0.40640 1.00930
C4 C 0.6974(2) 0.3756(6) 1.0371(4)
C5 C 0.7604(2) 0.3198(6) 0.9979(4)
H3 H 0.75680 0.28030 0.92780
C6 C 0.8292(2) 0.3230(6) 1.0640(4)
C7 C 0.8373(3) 0.3757(7) 1.1684(4)
H4 H 0.88420 0.37500 1.21140
C8 C 0.7741(3) 0.4299(7) 1.2084(4)
H5 H 0.77790 0.46560 1.27930
C9 C 0.7051(3) 0.4310(6) 1.1428(4)
H6 H 0.66280 0.46960 1.17000
C10 C 0.4249(3) 0.3583(6) 0.5736(4)
H7 H 0.46650 0.36240 0.53910
C11 C 0.3496(2) 0.3612(6) 0.5119(4)
C12 C 0.2869(3) 0.3234(6) 0.5574(4)
H8 H 0.29340 0.29310 0.62940
C13 C 0.2155(3) 0.3286(7) 0.5012(4)
H9 H 0.17480 0.30170 0.53480
C14 C 0.2038(2) 0.3746(6) 0.3924(4)
C15 C 0.2664(3) 0.4122(6) 0.3462(4)
H10 H 0.26030 0.44390 0.27450
C16 C 0.3372(2) 0.4034(6) 0.4043(4)
H11 H 0.37820 0.42660 0.37040
C17 C 0.0674(3) 0.3227(8) 0.3814(5)
H12 H 0.06850 0.19230 0.38840
H13 H 0.02190 0.35880 0.33600
H14 H 0.06920 0.37730 0.45040
C18 C 0.1184(3) 0.4159(9) 0.2234(5)
H15 H 0.15140 0.51050 0.20680
H16 H 0.06710 0.45350 0.20180
H17 H 0.12750 0.30640 0.18610
#END
