
#######################################################################
#
#                 Cambridge Crystallographic Data Centre
#                                CCDC
#
#######################################################################
#
# If this CIF has been generated from an entry in the Cambridge
# Structural Database, then it will include bibliographic, chemical,
# crystal, experimental, refinement or atomic coordinate data resulting
# from the CCDC's data processing and validation procedures.
#
#######################################################################

data_CSD_CIF_KERCIU
_audit_creation_date 2006-12-05
_audit_creation_method CSD-ConQuest-V1
_database_code_CSD KERCIU
_database_code_depnum_ccdc_archive 'CCDC 627444'
_chemical_formula_sum 'C13 H10 N6 O2'
_chemical_formula_moiety
;
C13 H10 N6 O2
;
_journal_coeditor_code "IUCr CF2044"
_journal_coden_Cambridge 1370
_journal_volume 62
_journal_year 2006
_journal_page_first o4981
_journal_name_full 'Acta Crystallogr.,Sect.E:Struct.Rep.Online '
loop_
_publ_author_name
"Shi-Hai Xu"
"Yu-Xia Li"
"Xiao-Jian Liao"
"Fang-Fang Dong"
_chemical_name_systematic
;
bis(Benzotriazol-1-yloxy)methane
;
_chemical_melting_point 455
_cell_volume   1286.278
_exptl_crystal_colour 'colorless'
_exptl_crystal_density_diffrn 1.458
_exptl_crystal_description 'block'
_diffrn_ambient_temperature 293
#These two values have been output from a single CSD field.
_refine_ls_R_factor_gt 0.0405
_refine_ls_wR_factor_gt 0.0405
_symmetry_cell_setting monoclinic
_symmetry_space_group_name_H-M 'P 21/c'
_symmetry_Int_Tables_number 14
loop_
_symmetry_equiv_pos_site_id
_symmetry_equiv_pos_as_xyz
1 x,y,z
2 -x,1/2+y,1/2-z
3 -x,-y,-z
4 x,-1/2-y,-1/2+z
_cell_length_a 7.9369(8)
_cell_length_b 23.343(2)
_cell_length_c 7.9678(9)
_cell_angle_alpha 90
_cell_angle_beta 119.385(2)
_cell_angle_gamma 90
_cell_formula_units_Z 4
loop_
_atom_type_symbol
_atom_type_radius_bond
C 0.68
H 0.23
N 0.68
O 0.68
loop_
_atom_site_label
_atom_site_type_symbol
_atom_site_fract_x
_atom_site_fract_y
_atom_site_fract_z
C1 C 0.6994(3) 0.23229(7) -0.0173(3)
C2 C 0.5257(3) 0.22625(9) -0.1848(3)
H1 H 0.47360 0.19050 -0.23510
C3 C 0.4342(3) 0.27631(10) -0.2729(3)
H2 H 0.31600 0.27470 -0.38620
C4 C 0.5155(3) 0.32955(9) -0.1955(4)
H3 H 0.44970 0.36250 -0.25990
C5 C 0.6856(3) 0.33513(8) -0.0310(3)
H4 H 0.73720 0.37100 0.01870
C6 C 0.7802(3) 0.28492(7) 0.0608(3)
C7 C 1.1849(2) 0.06522(7) 0.4580(3)
C8 C 1.1635(3) 0.10775(7) 0.5677(3)
H5 H 1.12220 0.14450 0.52070
C9 C 1.2074(3) 0.09186(8) 0.7496(3)
H6 H 1.19700 0.11890 0.82980
C10 C 1.2674(3) 0.03627(8) 0.8197(3)
H7 H 1.29400 0.02740 0.94400
C11 C 1.2878(3) -0.00489(8) 0.7109(3)
H8 H 1.32820 -0.04170 0.75840
C12 C 1.2457(2) 0.01016(7) 0.5249(3)
C13 C 0.9068(3) 0.10978(7) 0.0205(3)
H9 H 0.85400 0.07160 -0.01990
H10 H 0.88150 0.13130 -0.09370
N1 N 0.8309(2) 0.19549(5) 0.1111(2)
N2 N 0.9802(2) 0.22171(6) 0.2600(2)
N3 N 0.9509(2) 0.27676(6) 0.2295(2)
N4 N 1.1548(2) 0.06223(6) 0.2754(2)
N5 N 1.1993(2) 0.01055(6) 0.2323(2)
N6 N 1.2528(2) -0.02180(6) 0.3828(2)
O1 O 0.81300(18) 0.13679(4) 0.11101(19)
O2 O 1.10851(19) 0.10585(5) 0.14392(18)
#END
