
#######################################################################
#
#                 Cambridge Crystallographic Data Centre
#                                CCDC
#
#######################################################################
#
# If this CIF has been generated from an entry in the Cambridge
# Structural Database, then it will include bibliographic, chemical,
# crystal, experimental, refinement or atomic coordinate data resulting
# from the CCDC's data processing and validation procedures.
#
#######################################################################

data_CSD_CIF_KERJUP
_audit_creation_date 2017-11-24
_audit_creation_method CSD-ConQuest-V1
_database_code_CSD KERJUP
_database_code_depnum_ccdc_archive 'CCDC 1578350'
_chemical_formula_sum 'C13 H11 N3 O8'
_chemical_formula_moiety
;
C13 H11 N3 O8
;
_journal_coden_Cambridge 177
_journal_volume 15
_journal_year 2017
_journal_page_first 10105
_journal_name_full 'Org.Biomol.Chem. '
loop_
_publ_author_name
"A.Alhifthi"
"B.L.Harris"
"L.Goerigk"
"J.M.White"
"S.J.Williams"
_chemical_name_systematic
;
(3,5-dinitrophenyl){[(6,8-dioxabicyclo[3.2.1]octan-4-ylidene)amino]oxy}methano
ne
;
_cell_volume   1399.223
_exptl_crystal_colour 'colorless'
_exptl_crystal_density_diffrn 1.601
_exptl_special_details
;
Absolute configuration

;
_exptl_crystal_description 'block'
_diffrn_ambient_temperature 100
_diffrn_radiation_probe x-ray
_diffrn_source synchrotron
#These two values have been output from a single CSD field.
_refine_ls_R_factor_gt 0.0339
_refine_ls_wR_factor_gt 0.0339
_symmetry_cell_setting orthorhombic
_symmetry_space_group_name_H-M 'P 21 21 21'
_symmetry_Int_Tables_number 19
loop_
_symmetry_equiv_pos_site_id
_symmetry_equiv_pos_as_xyz
1 x,y,z
2 1/2-x,-y,1/2+z
3 -x,1/2+y,1/2-z
4 1/2+x,1/2-y,-z
_cell_length_a 6.2700(13)
_cell_length_b 9.4560(19)
_cell_length_c 23.600(5)
_cell_angle_alpha 90
_cell_angle_beta 90
_cell_angle_gamma 90
_cell_formula_units_Z 4
loop_
_atom_type_symbol
_atom_type_radius_bond
C 0.68
H 0.23
N 0.68
O 0.68
loop_
_atom_site_label
_atom_site_type_symbol
_atom_site_fract_x
_atom_site_fract_y
_atom_site_fract_z
C1 C 0.8296(3) 0.2773(2) 0.32432(9)
H1 H 0.89698 0.22197 0.35451
C2 C 0.6225(3) 0.3437(2) 0.34458(8)
C3 C 0.4951(3) 0.4218(2) 0.30029(8)
H2 H 0.54136 0.51960 0.29899
H3 H 0.34546 0.42059 0.31073
C4 C 0.5217(3) 0.3550(3) 0.24129(9)
H4 H 0.42073 0.27803 0.23694
H5 H 0.49108 0.42516 0.21244
C5 C 0.7475(3) 0.2990(2) 0.23309(9)
H6 H 0.76556 0.25900 0.19508
C6 C 0.9205(3) 0.4079(3) 0.24574(8)
H7 H 1.04651 0.39088 0.22288
H8 H 0.86956 0.50310 0.23858
C7 C 0.3318(3) 0.3973(2) 0.46580(8)
C8 C 0.1240(3) 0.4741(2) 0.47356(8)
C9 C 0.0289(3) 0.5491(2) 0.42927(8)
H9 H 0.09399 0.55495 0.39393
C10 C -0.1653(3) 0.6146(2) 0.43944(8)
C11 C -0.2681(3) 0.6096(2) 0.49121(8)
H10 H -0.39711 0.65578 0.49728
C12 C -0.1689(3) 0.5322(2) 0.53369(8)
C13 C 0.0249(3) 0.4648(2) 0.52639(8)
H11 H 0.08753 0.41452 0.55590
N1 N 0.5850(3) 0.33049(18) 0.39756(7)
N2 N -0.2731(3) 0.68594(17) 0.39178(7)
N3 N -0.2811(3) 0.5187(2) 0.58839(7)
O1 O 0.7871(2) 0.19264(17) 0.27649(7)
O2 O 0.9659(2) 0.38734(18) 0.30545(6)
O3 O 0.3854(2) 0.40147(17) 0.41018(5)
O4 O 0.4317(2) 0.34278(16) 0.50324(6)
O5 O -0.1787(2) 0.69186(16) 0.34646(6)
O6 O -0.4540(3) 0.73287(19) 0.39995(7)
O7 O -0.4459(3) 0.5857(2) 0.59514(7)
O8 O -0.2042(3) 0.4391(2) 0.62386(7)
#END
