
#######################################################################
#
#                 Cambridge Crystallographic Data Centre
#                                CCDC
#
#######################################################################
#
# If this CIF has been generated from an entry in the Cambridge
# Structural Database, then it will include bibliographic, chemical,
# crystal, experimental, refinement or atomic coordinate data resulting
# from the CCDC's data processing and validation procedures.
#
#######################################################################

data_CSD_CIF_KERJID
_audit_creation_date 2017-11-24
_audit_creation_method CSD-ConQuest-V1
_database_code_CSD KERJID
_database_code_depnum_ccdc_archive 'CCDC 1578348'
_chemical_formula_sum 'C8 H11 N1 O4'
_chemical_formula_moiety
;
C8 H11 N1 O4
;
_journal_coden_Cambridge 177
_journal_volume 15
_journal_year 2017
_journal_page_first 10105
_journal_name_full 'Org.Biomol.Chem. '
loop_
_publ_author_name
"A.Alhifthi"
"B.L.Harris"
"L.Goerigk"
"J.M.White"
"S.J.Williams"
_chemical_name_systematic
;
1-{[(6,8-dioxabicyclo[3.2.1]octan-4-ylidene)amino]oxy}ethan-1-one
;
_cell_volume    869.800
_exptl_crystal_colour 'colorless'
_exptl_crystal_density_diffrn 1.414
_exptl_crystal_description 'plate'
_diffrn_ambient_temperature 130.0
#These two values have been output from a single CSD field.
_refine_ls_R_factor_gt 0.0401
_refine_ls_wR_factor_gt 0.0401
_symmetry_cell_setting orthorhombic
_symmetry_space_group_name_H-M 'P 21 21 21'
_symmetry_Int_Tables_number 19
loop_
_symmetry_equiv_pos_site_id
_symmetry_equiv_pos_as_xyz
1 x,y,z
2 1/2-x,-y,1/2+z
3 -x,1/2+y,1/2-z
4 1/2+x,1/2-y,-z
_cell_length_a 5.6704(2)
_cell_length_b 15.6773(6)
_cell_length_c 9.7844(3)
_cell_angle_alpha 90
_cell_angle_beta 90
_cell_angle_gamma 90
_cell_formula_units_Z 4
loop_
_atom_type_symbol
_atom_type_radius_bond
C 0.68
H 0.23
N 0.68
O 0.68
loop_
_atom_site_label
_atom_site_type_symbol
_atom_site_fract_x
_atom_site_fract_y
_atom_site_fract_z
C1 C 0.5463(3) 0.57177(8) 0.45897(13)
H1 H 0.61984 0.56335 0.36707
C2 C 0.6000(2) 0.49733(8) 0.55262(12)
C3 C 0.4855(2) 0.50048(8) 0.69069(13)
H2 H 0.58860 0.53200 0.75486
H3 H 0.46599 0.44172 0.72599
C4 C 0.2429(3) 0.54445(8) 0.68380(14)
H4 H 0.12167 0.50197 0.65789
H5 H 0.20178 0.56697 0.77528
C5 C 0.2412(2) 0.61696(8) 0.58110(13)
H6 H 0.08435 0.64607 0.57911
C6 C 0.4403(3) 0.68103(8) 0.60283(15)
H7 H 0.39427 0.73838 0.56989
H8 H 0.48344 0.68486 0.70068
C7 C 0.9736(3) 0.32555(8) 0.56495(14)
C8 C 1.0345(3) 0.26652(9) 0.67950(15)
H9 H 1.01654 0.20735 0.64892
H10 H 0.92882 0.27714 0.75691
H11 H 1.19802 0.27634 0.70781
N1 N 0.7452(2) 0.44324(7) 0.50345(11)
O1 O 0.79711(19) 0.37947(6) 0.60523(10)
O2 O 1.0640(3) 0.32707(8) 0.45462(12)
O3 O 0.3016(2) 0.58286(6) 0.4477(1)
O4 O 0.63375(19) 0.64699(6) 0.52276(12)
#END
