
#######################################################################
#
#                 Cambridge Crystallographic Data Centre
#                                CCDC
#
#######################################################################
#
# If this CIF has been generated from an entry in the Cambridge
# Structural Database, then it will include bibliographic, chemical,
# crystal, experimental, refinement or atomic coordinate data resulting
# from the CCDC's data processing and validation procedures.
#
#######################################################################

data_CSD_CIF_KERJAV
_audit_creation_date 2017-11-24
_audit_creation_method CSD-ConQuest-V1
_database_code_CSD KERJAV
_database_code_depnum_ccdc_archive 'CCDC 1578346'
_chemical_formula_sum 'C12 H12 N2 O5'
_chemical_formula_moiety
;
C12 H12 N2 O5
;
_journal_coden_Cambridge 177
_journal_volume 15
_journal_year 2017
_journal_page_first 10105
_journal_name_full 'Org.Biomol.Chem. '
loop_
_publ_author_name
"A.Alhifthi"
"B.L.Harris"
"L.Goerigk"
"J.M.White"
"S.J.Williams"
_chemical_name_systematic
;
N-(4-nitrophenoxy)-6,8-dioxabicyclo[3.2.1]octan-4-imine
;
_cell_volume   1158.260
_exptl_crystal_colour 'colorless'
_exptl_crystal_density_diffrn 1.515
_exptl_special_details
;
Absolute configuration

;
_exptl_crystal_description 'rod'
_diffrn_ambient_temperature 130
#These two values have been output from a single CSD field.
_refine_ls_R_factor_gt 0.0298
_refine_ls_wR_factor_gt 0.0298
_symmetry_cell_setting orthorhombic
_symmetry_space_group_name_H-M 'P 21 21 21'
_symmetry_Int_Tables_number 19
loop_
_symmetry_equiv_pos_site_id
_symmetry_equiv_pos_as_xyz
1 x,y,z
2 1/2-x,-y,1/2+z
3 -x,1/2+y,1/2-z
4 1/2+x,1/2-y,-z
_cell_length_a 6.7738(2)
_cell_length_b 11.4773(3)
_cell_length_c 14.8982(4)
_cell_angle_alpha 90
_cell_angle_beta 90
_cell_angle_gamma 90
_cell_formula_units_Z 4
loop_
_atom_type_symbol
_atom_type_radius_bond
C 0.68
H 0.23
N 0.68
O 0.68
loop_
_atom_site_label
_atom_site_type_symbol
_atom_site_fract_x
_atom_site_fract_y
_atom_site_fract_z
C1 C 0.6069(3) 0.32553(17) 0.69337(12)
H1 H 0.68242 0.38903 0.72391
C2 C 0.5177(3) 0.36800(15) 0.60622(12)
C3 C 0.3965(3) 0.28010(16) 0.55605(12)
H2 H 0.48395 0.23193 0.51789
H3 H 0.30160 0.32089 0.51645
C4 C 0.2832(3) 0.20105(17) 0.62170(14)
H4 H 0.15936 0.24013 0.64006
H5 H 0.24780 0.12743 0.59105
C5 C 0.4055(3) 0.17375(17) 0.70459(13)
H6 H 0.33216 0.12081 0.74618
C6 C 0.6105(3) 0.12570(17) 0.68386(14)
H7 H 0.65918 0.07637 0.73367
H8 H 0.60932 0.07915 0.62791
C7 C 0.4928(3) 0.61437(15) 0.47658(11)
C8 C 0.4991(3) 0.70215(15) 0.54084(11)
H9 H 0.50044 0.68354 0.60297
C9 C 0.5033(3) 0.81692(15) 0.51281(12)
H10 H 0.50756 0.87844 0.55543
C10 C 0.5013(3) 0.84103(14) 0.42149(12)
C11 C 0.4961(3) 0.75404(15) 0.35732(11)
H11 H 0.49627 0.77290 0.29523
C12 C 0.4907(3) 0.63939(15) 0.38503(12)
H12 H 0.48552 0.57816 0.34219
N1 N 0.5597(2) 0.47248(14) 0.5847(1)
N2 N 0.5069(2) 0.96230(13) 0.39276(11)
O1 O 0.48005(19) 0.49825(10) 0.49756(8)
O2 O 0.4982(2) 0.98361(12) 0.31145(9)
O3 O 0.5184(2) 1.03904(12) 0.45022(10)
O4 O 0.4557(2) 0.28282(12) 0.74882(8)
O5 O 0.73114(19) 0.22868(12) 0.67371(10)
#END
