
#######################################################################
#
#                 Cambridge Crystallographic Data Centre
#                                CCDC
#
#######################################################################
#
# If this CIF has been generated from an entry in the Cambridge
# Structural Database, then it will include bibliographic, chemical,
# crystal, experimental, refinement or atomic coordinate data resulting
# from the CCDC's data processing and validation procedures.
#
#######################################################################

data_CSD_CIF_KERPII
_audit_creation_date 2013-04-04
_audit_creation_method CSD-ConQuest-V1
_database_code_CSD KERPII
_database_code_depnum_ccdc_archive 'CCDC 858905'
_chemical_formula_sum 'C6 H6 N4 O4'
_chemical_formula_moiety
;
C6 H6 N4 O4
;
_journal_coden_Cambridge 315
_journal_volume 96
_journal_year 2012
_journal_page_first 952
_journal_name_full 'Spectrochim.Acta,Part A '
loop_
_publ_author_name
"I.Bryndal"
"E.Kucharska"
"W.Sasiadek"
"M.Wandas"
"T.Lis"
"J.Lorenc"
"J.Hanuza"
_chemical_name_systematic
;
4-Methyl-3,5-dinitropyridin-2-amine
;
_chemical_melting_point 470
_cell_volume    378.497
_exptl_crystal_colour 'yellow'
_exptl_crystal_density_diffrn 1.739
_exptl_crystal_description 'block'
_diffrn_ambient_temperature 90
#These two values have been output from a single CSD field.
_refine_ls_R_factor_gt 0.0316
_refine_ls_wR_factor_gt 0.0316
_symmetry_cell_setting triclinic
_symmetry_space_group_name_H-M 'P -1'
_symmetry_Int_Tables_number 2
loop_
_symmetry_equiv_pos_site_id
_symmetry_equiv_pos_as_xyz
1 x,y,z
2 -x,-y,-z
_cell_length_a 7.366(3)
_cell_length_b 7.668(3)
_cell_length_c 7.887(3)
_cell_angle_alpha 108.38(4)
_cell_angle_beta 110.39(4)
_cell_angle_gamma 98.83(4)
_cell_formula_units_Z 2
loop_
_atom_type_symbol
_atom_type_radius_bond
C 0.68
H 0.23
N 0.68
O 0.68
loop_
_atom_site_label
_atom_site_type_symbol
_atom_site_fract_x
_atom_site_fract_y
_atom_site_fract_z
N1 N 0.74360(8) 0.34632(8) 0.41694(8)
C1 C 0.76398(9) 0.42622(8) 0.60516(9)
N2 N 0.93800(8) 0.56215(8) 0.73314(8)
H1 H 1.0257(18) 0.5864(16) 0.6853(17)
H2 H 0.9542(17) 0.6337(16) 0.8520(17)
C2 C 0.60497(9) 0.36012(8) 0.65393(8)
N3 N 0.64331(8) 0.43244(8) 0.86113(8)
O1 O 0.73744(8) 0.60300(8) 0.96391(8)
O2 O 0.58539(8) 0.31863(8) 0.92462(8)
C3 C 0.42194(9) 0.22290(8) 0.51459(9)
C4 C 0.24521(9) 0.17254(9) 0.56221(10)
H3 H 0.11860 0.14860 0.44950
H4 H 0.25770 0.27950 0.67790
H5 H 0.24420 0.05670 0.59020
C5 C 0.41188(9) 0.14840(8) 0.32363(9)
N4 N 0.23997(8) -0.00534(7) 0.16014(8)
O3 O 0.13504(7) -0.11789(7) 0.19505(8)
O4 O 0.21237(8) -0.02098(7) -0.00790(7)
C6 C 0.57249(9) 0.21288(8) 0.28293(9)
H6 H 0.55840 0.15790 0.15130
#END
