
#######################################################################
#
#                 Cambridge Crystallographic Data Centre
#                                CCDC
#
#######################################################################
#
# If this CIF has been generated from an entry in the Cambridge
# Structural Database, then it will include bibliographic, chemical,
# crystal, experimental, refinement or atomic coordinate data resulting
# from the CCDC's data processing and validation procedures.
#
#######################################################################

data_CSD_CIF_KERTIL
_audit_creation_date 2006-12-05
_audit_creation_method CSD-ConQuest-V1
_database_code_CSD KERTIL
_database_code_depnum_ccdc_archive 'CCDC 627815'
_chemical_formula_sum 'C23 H21 N3 O6'
_chemical_formula_moiety
;
C23 H21 N3 O6
;
_journal_coeditor_code "IUCr IS2091"
_journal_coden_Cambridge 1370
_journal_volume 62
_journal_year 2006
_journal_page_first o5278
_journal_name_full 'Acta Crystallogr.,Sect.E:Struct.Rep.Online '
loop_
_publ_author_name
"Chun-Hua Diao"
"Ming Yu"
_chemical_name_systematic
;
(E)-2-Methoxy-N'-(2-(2-(2-nitrophenoxy)ethoxy)benzylidene)benzohydrazide
;
_cell_volume   2116.390
_exptl_crystal_colour 'colorless'
_exptl_crystal_density_diffrn 1.367
_exptl_crystal_description 'block'
_exptl_crystal_preparation 'acetonitrile'
_diffrn_ambient_temperature 294
#These two values have been output from a single CSD field.
_refine_ls_R_factor_gt 0.0593
_refine_ls_wR_factor_gt 0.0593
_symmetry_cell_setting monoclinic
_symmetry_space_group_name_H-M 'P 21/n'
_symmetry_Int_Tables_number 14
loop_
_symmetry_equiv_pos_site_id
_symmetry_equiv_pos_as_xyz
1 x,y,z
2 1/2-x,1/2+y,1/2-z
3 -x,-y,-z
4 -1/2+x,-1/2-y,-1/2+z
_cell_length_a 7.6079(16)
_cell_length_b 13.050(3)
_cell_length_c 21.318(4)
_cell_angle_alpha 90
_cell_angle_beta 90.628(4)
_cell_angle_gamma 90
_cell_formula_units_Z 4
loop_
_atom_type_symbol
_atom_type_radius_bond
C 0.68
H 0.23
N 0.68
O 0.68
loop_
_atom_site_label
_atom_site_type_symbol
_atom_site_fract_x
_atom_site_fract_y
_atom_site_fract_z
O1 O 0.8498(5) 0.5397(3) 0.41658(19)
O2 O 0.6893(4) 0.6045(2) 0.34447(18)
O3 O 0.3938(3) 0.62773(19) 0.41787(12)
O4 O 0.2935(4) 0.79254(19) 0.34808(11)
O5 O 0.6221(4) 0.6980(2) 0.06821(12)
O6 O 0.5948(4) 0.46853(18) 0.20282(11)
N1 N 0.7118(5) 0.5474(3) 0.3890(2)
N2 N 0.5219(4) 0.7617(2) 0.18359(14)
N3 N 0.5617(4) 0.6615(2) 0.16889(14)
H1 H 0.55270 0.61480 0.19710
C1 C 0.5673(5) 0.4815(3) 0.40765(16)
C2 C 0.5994(6) 0.3778(3) 0.41157(16)
H2 H 0.71210 0.35200 0.40590
C3 C 0.4625(7) 0.3139(3) 0.42397(19)
H3 H 0.48110 0.24360 0.42640
C4 C 0.2961(7) 0.3534(4) 0.4330(2)
H4 H 0.20280 0.30900 0.44020
C5 C 0.2662(5) 0.4578(3) 0.43161(17)
H5 H 0.15430 0.48350 0.43910
C6 C 0.4040(5) 0.5242(3) 0.41903(16)
C7 C 0.2272(5) 0.6761(3) 0.42673(18)
H6 H 0.18840 0.66690 0.46960
H7 H 0.13950 0.64690 0.39860
C8 C 0.2528(5) 0.7866(3) 0.41288(16)
H8 H 0.14660 0.82490 0.42170
H9 H 0.34820 0.81430 0.43820
C9 C 0.3440(5) 0.8835(3) 0.32262(17)
C10 C 0.3195(5) 0.9775(3) 0.34952(19)
H10 H 0.27230 0.98250 0.38940
C11 C 0.3650(6) 1.0645(3) 0.3174(2)
H11 H 0.34720 1.12830 0.33570
C12 C 0.4362(6) 1.0589(3) 0.2589(2)
H12 H 0.46670 1.11820 0.23750
C13 C 0.4621(5) 0.9641(3) 0.23195(19)
H13 H 0.50920 0.96020 0.19190
C14 C 0.4197(5) 0.8751(3) 0.26310(17)
C15 C 0.4574(5) 0.7739(3) 0.23792(17)
H14 H 0.43370 0.71650 0.26220
C16 C 0.6147(5) 0.6358(3) 0.11064(18)
C17 C 0.6633(5) 0.5253(3) 0.10089(16)
C18 C 0.7226(6) 0.5005(3) 0.04193(18)
H15 H 0.72850 0.55220 0.01200
C19 C 0.7728(7) 0.4047(3) 0.0254(2)
H16 H 0.81110 0.39130 -0.01510
C20 C 0.7662(6) 0.3288(3) 0.0687(2)
H17 H 0.80080 0.26280 0.05790
C21 C 0.7093(5) 0.3480(3) 0.12827(17)
H18 H 0.70570 0.29550 0.15770
C22 C 0.6570(5) 0.4464(3) 0.14441(16)
C23 C 0.5653(6) 0.3876(3) 0.24690(17)
H19 H 0.48720 0.33790 0.22860
H20 H 0.51380 0.41530 0.28420
H21 H 0.67520 0.35550 0.25740
#END
