
#######################################################################
#
#                 Cambridge Crystallographic Data Centre
#                                CCDC
#
#######################################################################
#
# If this CIF has been generated from an entry in the Cambridge
# Structural Database, then it will include bibliographic, chemical,
# crystal, experimental, refinement or atomic coordinate data resulting
# from the CCDC's data processing and validation procedures.
#
#######################################################################

data_CSD_CIF_KESXAK
_audit_creation_date 2017-11-25
_audit_creation_method CSD-ConQuest-V1
_database_code_CSD KESXAK
_database_code_depnum_ccdc_archive 'CCDC 1568603'
_chemical_formula_sum 'C20 H19 N3 O2'
_chemical_formula_moiety
;
C20 H19 N3 O2
;
_journal_coden_Cambridge 16
_journal_volume 74
_journal_year 2018
_journal_page_first 174
_journal_name_full 'Tetrahedron '
loop_
_publ_author_name
"M.M.Efremova"
"A.S.Novikov"
"R.R.Kostikov"
"T.L.Panikorovsky"
"A.V.Ivanov"
"A.P.Molchanov"
_chemical_name_systematic
;
5-(1H-indol-1-yl)-2-methyl-4-methylidene-N-phenyl-1,2-oxazolidine-3-carboxamid
e
;
_cell_volume   3364.089
_exptl_crystal_colour 'colorless'
_exptl_crystal_density_diffrn 1.316
_exptl_crystal_description 'prism'
_diffrn_ambient_temperature 100
#These two values have been output from a single CSD field.
_refine_ls_R_factor_gt 0.0622
_refine_ls_wR_factor_gt 0.0622
_symmetry_cell_setting orthorhombic
_symmetry_space_group_name_H-M 'P b c a'
_symmetry_Int_Tables_number 61
loop_
_symmetry_equiv_pos_site_id
_symmetry_equiv_pos_as_xyz
1 x,y,z
2 1/2-x,-y,1/2+z
3 1/2+x,1/2-y,-z
4 -x,1/2+y,1/2-z
5 -x,-y,-z
6 -1/2+x,y,-1/2-z
7 -1/2-x,-1/2+y,z
8 x,-1/2-y,-1/2+z
_cell_length_a 30.9293(14)
_cell_length_b 10.8472(4)
_cell_length_c 10.0272(4)
_cell_angle_alpha 90
_cell_angle_beta 90
_cell_angle_gamma 90
_cell_formula_units_Z 8
loop_
_atom_type_symbol
_atom_type_radius_bond
C 0.68
H 0.23
N 0.68
O 0.68
loop_
_atom_site_label
_atom_site_type_symbol
_atom_site_fract_x
_atom_site_fract_y
_atom_site_fract_z
O1 O 0.45325(5) 0.36144(14) 0.51741(15)
O2 O 0.35217(5) 0.31088(15) 0.85760(14)
N1 N 0.40415(6) 0.52010(17) 0.44835(17)
N2 N 0.42104(6) 0.27211(16) 0.56899(17)
N3 N 0.33867(6) 0.23500(17) 0.64850(17)
H1 H 0.34890 0.23310 0.56870
C1 C 0.41510(7) 0.57600(19) 0.3284(2)
C2 C 0.29700(7) 0.1834(2) 0.6689(2)
C3 C 0.37636(7) 0.5965(2) 0.2570(2)
C4 C 0.36369(7) 0.28687(19) 0.7437(2)
C5 C 0.43464(7) 0.4785(2) 0.5477(2)
H2 H 0.45790 0.53950 0.55550
C6 C 0.40966(7) 0.32128(19) 0.7011(2)
H3 H 0.43040 0.29170 0.76770
C7 C 0.35965(7) 0.5055(2) 0.4510(2)
H4 H 0.34430 0.46900 0.52020
C8 C 0.41436(7) 0.4595(2) 0.6841(2)
C9 C 0.28422(7) 0.0880(2) 0.5849(2)
H5 H 0.30210 0.06350 0.51530
C10 C 0.45539(7) 0.6113(2) 0.2798(2)
H6 H 0.48050 0.59890 0.32910
C11 C 0.34171(7) 0.5518(2) 0.3381(2)
H7 H 0.31240 0.55400 0.31730
C12 C 0.37875(8) 0.6510(2) 0.1302(2)
H8 H 0.35380 0.66470 0.08060
C13 C 0.41857(9) 0.6840(2) 0.0805(2)
H9 H 0.42040 0.71900 -0.00400
C14 C 0.44378(8) 0.1545(2) 0.5769(2)
H10 H 0.45080 0.12670 0.48870
H11 H 0.42560 0.09470 0.61990
H12 H 0.46990 0.16480 0.62750
C15 C 0.45646(8) 0.6659(2) 0.1546(2)
H13 H 0.48280 0.69100 0.11920
C16 C 0.40431(8) 0.5450(2) 0.7718(2)
H14 H 0.39300 0.52270 0.85430
H15 H 0.40850 0.62780 0.75120
C17 C 0.24493(8) 0.0295(2) 0.6045(2)
H16 H 0.23660 -0.03470 0.54870
C18 C 0.26949(7) 0.2232(2) 0.7701(2)
H17 H 0.27730 0.28890 0.82470
C19 C 0.23014(8) 0.1636(2) 0.7887(2)
H18 H 0.21180 0.18940 0.85660
C20 C 0.21798(8) 0.0670(2) 0.7079(2)
H19 H 0.19180 0.02680 0.72250
#END
