
#######################################################################
#
#                 Cambridge Crystallographic Data Centre
#                                CCDC
#
#######################################################################
#
# If this CIF has been generated from an entry in the Cambridge
# Structural Database, then it will include bibliographic, chemical,
# crystal, experimental, refinement or atomic coordinate data resulting
# from the CCDC's data processing and validation procedures.
#
#######################################################################

data_CSD_CIF_KESYAJ01
_audit_creation_date 2007-03-22
_audit_creation_method CSD-ConQuest-V1
_database_code_CSD KESYAJ01
_database_code_depnum_ccdc_archive 'CCDC 621654'
_chemical_formula_sum 'C14 H24 N4 O4'
_chemical_formula_moiety
;
C14 H24 N4 O4
;
_journal_coden_Cambridge 1088
_journal_volume 2006
_journal_year 2006
_journal_page_first 2731
_journal_name_full 'Synlett '
loop_
_publ_author_name
"O.A.Attanasi"
"G.Favi"
"P.Filippone"
"G.Giorgi"
"S.Lillini"
"F.Mantellini"
"F.R.Perrulli"
_chemical_name_systematic
;
(4-Dimethylcarbamoyl-3-ethyl-5-methyl-2-oxy-pyrazol-1-yl)carbamic acid 
t-butyl ester
;
_cell_volume   1722.692
_exptl_crystal_colour 'colorless'
_exptl_crystal_density_diffrn 1.204
_exptl_special_details
;
polymorph 2

;
_exptl_crystal_description 'prism'
_diffrn_ambient_temperature 273
#These two values have been output from a single CSD field.
_refine_ls_R_factor_gt 0.0399
_refine_ls_wR_factor_gt 0.0399
_symmetry_cell_setting monoclinic
_symmetry_space_group_name_H-M 'P 21/c'
_symmetry_Int_Tables_number 14
loop_
_symmetry_equiv_pos_site_id
_symmetry_equiv_pos_as_xyz
1 x,y,z
2 -x,1/2+y,1/2-z
3 -x,-y,-z
4 x,-1/2-y,-1/2+z
_cell_length_a 8.0302(7)
_cell_length_b 14.4752(12)
_cell_length_c 15.0295(12)
_cell_angle_alpha 90
_cell_angle_beta 99.571(1)
_cell_angle_gamma 90
_cell_formula_units_Z 4
loop_
_atom_type_symbol
_atom_type_radius_bond
C 0.68
H 0.23
N 0.68
O 0.68
loop_
_atom_site_label
_atom_site_type_symbol
_atom_site_fract_x
_atom_site_fract_y
_atom_site_fract_z
N1 N 0.84323(11) 0.47193(7) 0.10797(6)
N2 N 1.00814(11) 0.49168(6) 0.14622(6)
O1 O 1.13437(10) 0.46336(5) 0.10893(5)
C1 C 1.00523(13) 0.54088(7) 0.22062(7)
C2 C 0.83517(14) 0.55149(7) 0.23077(7)
C3 C 0.73666(14) 0.50770(8) 0.16009(7)
C4 C 1.16576(14) 0.57250(8) 0.27709(8)
H1 H 1.14090 0.62360 0.31460
H2 H 1.24080 0.59530 0.23770
O2 O 0.69822(16) 0.55117(7) 0.35792(7)
C5 C 1.2552(2) 0.49835(11) 0.33661(12)
H3 H 1.18480 0.47810 0.37860
H4 H 1.35920 0.52240 0.36920
H5 H 1.27890 0.44710 0.30020
C6 C 0.76571(14) 0.59736(8) 0.30610(7)
N3 N 0.77746(13) 0.68930(7) 0.31242(7)
C7 C 0.8335(2) 0.74872(9) 0.24575(11)
H6 H 0.87300 0.71160 0.20060
H7 H 0.92350 0.78750 0.27450
H8 H 0.74100 0.78650 0.21790
C8 C 0.7093(2) 0.73589(11) 0.38435(11)
H9 H 0.59440 0.75360 0.36290
H10 H 0.77540 0.78990 0.40280
H11 H 0.71300 0.69480 0.43480
C9 C 0.55070(16) 0.49664(11) 0.13683(10)
H12 H 0.50770 0.53740 0.08800
H13 H 0.49970 0.51150 0.18850
H14 H 0.52440 0.43390 0.11900
N4 N 0.80517(13) 0.42691(7) 0.02759(6)
H15 H 0.8253(18) 0.4598(10) -0.0225(10)
C10 C 0.80188(15) 0.33198(8) 0.03043(7)
O3 O 0.81466(14) 0.28772(6) 0.09874(6)
O4 O 0.77534(12) 0.30161(6) -0.05451(5)
C11 C 0.74610(17) 0.20200(8) -0.07423(8)
C12 C 0.9053(2) 0.14860(11) -0.04052(12)
H16 H 0.99740 0.17450 -0.06560
H17 H 0.89000 0.08520 -0.05870
H18 H 0.93000 0.15210 0.02410
C13 C 0.5973(2) 0.16807(12) -0.03428(11)
H19 H 0.62490 0.16900 0.03040
H20 H 0.57010 0.10610 -0.05440
H21 H 0.50190 0.20750 -0.05340
C14 C 0.7054(2) 0.20038(11) -0.17643(9)
H22 H 0.61010 0.23960 -0.19640
H23 H 0.67920 0.13830 -0.19660
H24 H 0.80110 0.22220 -0.20100
#END
