
#######################################################################
#
#                 Cambridge Crystallographic Data Centre
#                                CCDC
#
#######################################################################
#
# If this CIF has been generated from an entry in the Cambridge
# Structural Database, then it will include bibliographic, chemical,
# crystal, experimental, refinement or atomic coordinate data resulting
# from the CCDC's data processing and validation procedures.
#
#######################################################################

data_CSD_CIF_KETYEO
_audit_creation_date 2007-03-22
_audit_creation_method CSD-ConQuest-V1
_database_code_CSD KETYEO
_database_code_depnum_ccdc_archive 'CCDC 234764'
_chemical_formula_sum 'C10 H6 N2 O7'
_chemical_formula_moiety
;
C10 H6 N2 O7
;
_journal_coden_Cambridge 1094
_journal_volume 17
_journal_year 2006
_journal_page_first 459
_journal_name_full 'Struct.Chem. '
loop_
_publ_author_name
"E.Quezada"
"S.Vilar"
"L.Valencia"
"L.Santana"
"R.A.Mosquera"
"E.Uriarte"
_chemical_name_systematic
;
6-Hydroxy-4-methyl-5,7-dinitrocoumarin
;
_chemical_melting_point 497.15
_cell_volume    534.792
_exptl_crystal_colour 'yellow'
_exptl_crystal_density_diffrn 0.826
_exptl_special_details
;
Melting point range 497.15-498.15K

;
_exptl_crystal_description 'prism'
_exptl_crystal_preparation 'ethanol'
_diffrn_ambient_temperature 293
#These two values have been output from a single CSD field.
_refine_ls_R_factor_gt 0.0868
_refine_ls_wR_factor_gt 0.0868
_symmetry_cell_setting triclinic
_symmetry_space_group_name_H-M 'P -1'
_symmetry_Int_Tables_number 2
loop_
_symmetry_equiv_pos_site_id
_symmetry_equiv_pos_as_xyz
1 x,y,z
2 -x,-y,-z
_cell_length_a 7.683(2)
_cell_length_b 8.070(2)
_cell_length_c 10.101(3)
_cell_angle_alpha 69.558(4)
_cell_angle_beta 70.366(5)
_cell_angle_gamma 70.104(5)
_cell_formula_units_Z 1
loop_
_atom_type_symbol
_atom_type_radius_bond
C 0.68
H 0.23
N 0.68
O 0.68
loop_
_atom_site_label
_atom_site_type_symbol
_atom_site_fract_x
_atom_site_fract_y
_atom_site_fract_z
O1 O 0.2316(6) -0.0952(5) -0.0983(3)
C1 C 0.2805(8) 0.3926(5) 0.0492(4)
H1 H 0.28620 0.41250 0.13580
H2 H 0.17110 0.47800 0.01680
H3 H 0.39440 0.40950 -0.02580
H4 H 0.256(6) -0.357(6) 0.367(5)
H5 H 0.254(7) 0.220(7) -0.119(5)
H6 H 0.253(9) -0.092(10) 0.679(7)
O2 O 0.2511(4) 0.0279(4) 0.6001(3)
O3 O 0.2492(4) -0.1599(3) 0.1266(3)
C2 C 0.2618(5) 0.1008(4) 0.3531(3)
C3 C 0.2558(4) -0.2041(4) 0.4914(3)
C4 C 0.2616(4) 0.0698(4) 0.2257(3)
C5 C 0.2552(5) -0.0280(4) 0.4891(3)
N1 N 0.2453(4) -0.3492(4) 0.6285(3)
C6 C 0.2577(5) -0.2443(4) 0.3703(3)
C7 C 0.2544(6) 0.1439(5) -0.0253(4)
C8 C 0.2646(5) 0.2010(5) 0.0818(4)
C9 C 0.2568(5) -0.1091(4) 0.2403(3)
N2 N 0.2630(4) 0.2817(4) 0.3570(3)
O4 O 0.1777(4) -0.3011(4) 0.7417(3)
O5 O 0.3010(4) -0.5073(3) 0.6222(3)
O6 O 0.1094(4) 0.3903(3) 0.3833(3)
O7 O 0.4160(4) 0.3110(4) 0.3378(4)
C10 C 0.2432(6) -0.0375(6) -0.0072(4)
#END
