
#######################################################################
#
#                 Cambridge Crystallographic Data Centre
#                                CCDC
#
#######################################################################
#
# If this CIF has been generated from an entry in the Cambridge
# Structural Database, then it will include bibliographic, chemical,
# crystal, experimental, refinement or atomic coordinate data resulting
# from the CCDC's data processing and validation procedures.
#
#######################################################################

data_CSD_CIF_KEWYAP
_audit_creation_date 2018-04-13
_audit_creation_method CSD-ConQuest-V1
_database_code_CSD KEWYAP
_database_code_depnum_ccdc_archive 'CCDC 1541516'
_chemical_formula_sum 'C24 H24 N2 O3'
_chemical_formula_moiety
;
C24 H24 N2 O3
;
_journal_coden_Cambridge 24
_journal_volume 59
_journal_year 2018
_journal_page_first 1916
_journal_name_full 'Tetrahedron Lett. '
loop_
_publ_author_name
"Rongxing Chen"
"Shaofa Sun"
"Gangqiang Wang"
"Haibin Guo"
_chemical_name_systematic
;
4-(benzyloxy)-2-methyl-3-(4-methylphenyl)-6-phenyl-1,2,4-oxadiazinan-5-one
;
_cell_volume   2103.589
_exptl_crystal_colour 'colorless'
_exptl_crystal_density_diffrn 1.227
_exptl_crystal_description 'block'
_diffrn_ambient_temperature 296
#These two values have been output from a single CSD field.
_refine_ls_R_factor_gt 0.0486
_refine_ls_wR_factor_gt 0.0486
_symmetry_cell_setting monoclinic
_symmetry_space_group_name_H-M 'P 21/c'
_symmetry_Int_Tables_number 14
loop_
_symmetry_equiv_pos_site_id
_symmetry_equiv_pos_as_xyz
1 x,y,z
2 -x,1/2+y,1/2-z
3 -x,-y,-z
4 x,-1/2-y,-1/2+z
_cell_length_a 10.1218(16)
_cell_length_b 16.495(3)
_cell_length_c 13.265(3)
_cell_angle_alpha 90
_cell_angle_beta 108.227(2)
_cell_angle_gamma 90
_cell_formula_units_Z 4
loop_
_atom_type_symbol
_atom_type_radius_bond
C 0.68
H 0.23
N 0.68
O 0.68
loop_
_atom_site_label
_atom_site_type_symbol
_atom_site_fract_x
_atom_site_fract_y
_atom_site_fract_z
O1 O -0.11236(9) 0.12278(6) 0.38602(7)
O2 O 0.21786(10) 0.11318(6) 0.64082(7)
N1 N 0.18256(11) 0.19462(7) 0.59875(8)
N2 N 0.0259(1) 0.13091(6) 0.45155(8)
C1 C 0.03584(12) 0.19102(8) 0.53563(10)
H1 H -0.02060 0.17400 0.57990
C2 C 0.10453(12) 0.06242(8) 0.4641(1)
O3 O 0.07395(10) 0.00512(6) 0.40327(8)
C3 C 0.23776(12) 0.06524(8) 0.55684(10)
H2 H 0.25530 0.00970 0.58410
C4 C 0.36428(12) 0.09043(7) 0.52663(10)
C5 C -0.27192(14) 0.13112(9) 0.2134(1)
C6 C -0.01160(13) 0.27277(8) 0.48661(10)
C7 C 0.49450(14) 0.07909(9) 0.60108(12)
H3 H 0.50170 0.05800 0.66760
C8 C 0.35625(14) 0.12203(9) 0.42868(12)
H4 H 0.26980 0.13030 0.37830
C9 C 0.60486(15) 0.13038(9) 0.47900(15)
H5 H 0.68530 0.14380 0.46310
C10 C -0.12943(15) 0.30922(9) 0.49660(13)
H6 H -0.17970 0.28380 0.53540
C11 C 0.61348(14) 0.09926(10) 0.57625(14)
H7 H 0.70030 0.09150 0.62640
C12 C -0.12400(15) 0.14550(12) 0.27834(12)
H8 H -0.06200 0.11290 0.25210
H9 H -0.09980 0.20210 0.27520
C13 C 0.06284(16) 0.31300(9) 0.42959(13)
H10 H 0.14370 0.28990 0.42330
C14 C 0.01811(18) 0.38666(10) 0.38237(13)
H11 H 0.06870 0.41220 0.34380
C15 C -0.17341(18) 0.38322(10) 0.44942(15)
H12 H -0.25350 0.40660 0.45680
C16 C 0.20293(18) 0.24429(11) 0.69358(13)
H13 H 0.13980 0.22700 0.73030
H14 H 0.18550 0.30010 0.67340
H15 H 0.29690 0.23840 0.73940
C17 C 0.47661(17) 0.14171(10) 0.40466(14)
H16 H 0.47040 0.16260 0.33820
C18 C -0.32181(18) 0.05344(11) 0.18979(13)
H17 H -0.26370 0.00920 0.21440
C19 C -0.10113(17) 0.42355(9) 0.39120(12)
C20 C -0.36060(18) 0.19563(11) 0.17605(14)
H18 H -0.32840 0.24830 0.19310
C21 C -0.1478(2) 0.50468(11) 0.34052(16)
H19 H -0.24610 0.51060 0.32750
H20 H -0.12770 0.50810 0.27460
H21 H -0.09940 0.54700 0.38720
C22 C -0.4958(2) 0.18316(16) 0.11411(17)
H22 H -0.55400 0.22710 0.08800
C23 C -0.4597(2) 0.04160(15) 0.12882(15)
H23 H -0.49460 -0.01070 0.11370
C24 C -0.5437(2) 0.1068(2) 0.09126(16)
H24 H -0.63520 0.09850 0.04930
#END
