
#######################################################################
#
#                 Cambridge Crystallographic Data Centre
#                                CCDC
#
#######################################################################
#
# If this CIF has been generated from an entry in the Cambridge
# Structural Database, then it will include bibliographic, chemical,
# crystal, experimental, refinement or atomic coordinate data resulting
# from the CCDC's data processing and validation procedures.
#
#######################################################################

data_CSD_CIF_KEXKED
_audit_creation_date 1991-06-10
_audit_creation_method CSD-ConQuest-V1
_database_code_CSD KEXKED
_chemical_formula_sum 'C18 H18 N2 O3'
_chemical_formula_moiety
;
C18 H18 N2 O3
;
_journal_coeditor_code "IUCr AS0288"
_journal_coden_Cambridge 591
_journal_volume 46
_journal_year 1990
_journal_page_first 1659
_journal_name_full 'Acta Crystallogr.,Sect.C:Cryst.Struct.Commun. '
loop_
_publ_author_name
"Kyong Pae Park"
"Jong Hwa Jeong"
_chemical_name_systematic
;
4-(2-Nitro-1,2-diphenylvinyl)morpholine
;
_cell_volume   1597.805
_exptl_crystal_colour 'pale yellow'
_exptl_crystal_density_diffrn 1.29
_diffrn_ambient_temperature ?
_diffrn_special_details
;
The study was carried out at room temperature,in the range 283-303K

;
#These two values have been output from a single CSD field.
_refine_ls_R_factor_gt 0.04
_refine_ls_wR_factor_gt 0.04
_symmetry_cell_setting monoclinic
_symmetry_space_group_name_H-M 'P 21/n'
_symmetry_Int_Tables_number 14
loop_
_symmetry_equiv_pos_site_id
_symmetry_equiv_pos_as_xyz
1 x,y,z
2 1/2-x,1/2+y,1/2-z
3 -x,-y,-z
4 -1/2+x,-1/2-y,-1/2+z
_cell_length_a 10.476(2)
_cell_length_b 10.680(1)
_cell_length_c 14.357(2)
_cell_angle_alpha 90
_cell_angle_beta 95.90(1)
_cell_angle_gamma 90
_cell_formula_units_Z 4
loop_
_atom_type_symbol
_atom_type_radius_bond
C 0.68
H 0.23
N 0.68
O 0.68
loop_
_atom_site_label
_atom_site_type_symbol
_atom_site_fract_x
_atom_site_fract_y
_atom_site_fract_z
O1 O 1.0075(2) 0.2831(2) 1.0491(2)
O2 O 1.1437(2) 0.1310(2) 1.0624(2)
N1 N 1.0410(3) 0.1785(3) 1.0799(2)
C1 C 0.9651(3) 0.1127(3) 1.1408(2)
C2 C 0.8351(3) 0.1345(3) 1.1383(2)
N2 N 0.7596(2) 0.1782(3) 1.0632(2)
C3 C 0.6457(3) 0.2555(3) 1.0709(2)
C4 C 0.5344(3) 0.2044(5) 1.0066(3)
O3 O 0.5642(2) 0.1946(3) 0.9129(2)
C5 C 0.6737(3) 0.1174(4) 0.9079(3)
C6 C 0.7903(3) 0.1669(3) 0.9665(2)
C7 C 1.0348(3) 0.0204(3) 1.2040(2)
C8 C 1.0030(3) -0.1053(3) 1.1977(3)
C9 C 1.0689(4) -0.1915(4) 1.2560(3)
C10 C 1.1659(5) -0.1533(5) 1.3219(3)
C11 C 1.1991(4) -0.0295(5) 1.3289(3)
C12 C 1.1332(4) 0.0585(4) 1.2701(3)
C13 C 0.7669(3) 0.0986(3) 1.2209(2)
C14 C 0.6680(3) 0.0108(3) 1.2101(2)
C15 C 0.6029(3) -0.0221(4) 1.2857(2)
C16 C 0.6327(4) 0.0357(4) 1.3713(3)
C17 C 0.7297(4) 0.1225(4) 1.3824(2)
C18 C 0.7993(3) 0.1532(3) 1.3079(2)
H1 H 0.6217(3) 0.2538(3) 1.1423(2)
H2 H 0.6651(3) 0.3506(3) 1.0512(2)
H3 H 0.4531(3) 0.2662(5) 1.0087(3)
H4 H 0.5102(3) 0.1126(5) 1.0309(3)
H5 H 0.6526(3) 0.0248(4) 0.9324(3)
H6 H 0.6945(3) 0.1123(4) 0.8359(3)
H7 H 0.8158(3) 0.2576(3) 0.9407(2)
H8 H 0.8696(3) 0.1030(3) 0.9633(2)
H9 H 0.9262(3) -0.1361(3) 1.1470(3)
H10 H 1.0442(4) -0.2896(4) 1.2499(3)
H11 H 1.2159(5) -0.2212(5) 1.3680(3)
H12 H 1.2761(4) 0.0002(5) 1.3799(3)
H13 H 1.1588(4) 0.1563(4) 1.2760(3)
H14 H 0.6421(3) -0.0318(3) 1.1426(2)
H15 H 0.5289(3) -0.0928(4) 1.2777(2)
H16 H 0.5795(4) 0.0125(4) 1.4295(3)
H17 H 0.7524(4) 0.1674(4) 1.4495(2)
H18 H 0.8778(3) 0.2190(3) 1.3178(2)
#END
