
#######################################################################
#
#                 Cambridge Crystallographic Data Centre
#                                CCDC
#
#######################################################################
#
# If this CIF has been generated from an entry in the Cambridge
# Structural Database, then it will include bibliographic, chemical,
# crystal, experimental, refinement or atomic coordinate data resulting
# from the CCDC's data processing and validation procedures.
#
#######################################################################

data_CSD_CIF_KEXKED01
_audit_creation_date 1992-04-15
_audit_creation_method CSD-ConQuest-V1
_database_code_CSD KEXKED01
_chemical_formula_sum 'C18 H18 N2 O3'
_chemical_formula_moiety
;
C18 H18 N2 O3
;
_journal_coden_Cambridge 95
_journal_year 1990
_journal_page_first 791
_journal_name_full 'Izv.Akad.Nauk SSSR,Ser.Khim.(Russ.)(Russ.Chem.Bull.) '
loop_
_publ_author_name
"Z.V.Todres"
"A.Yu.Kosnikov"
"K.I.Dyusengaliev"
"D.S.Ermekov"
"S.V.Lindeman"
"Yu.T.Struchkov"
_chemical_name_systematic
;
cis-\a-Nitro-\b(N-morpholino)stilbene
;
_chemical_melting_point 470.15
_cell_volume   1595.653
_exptl_crystal_density_diffrn 1.292
_exptl_special_details
;
Melting point range 470.15-471.15K

;
_diffrn_ambient_temperature ?
_diffrn_special_details
;
The study was carried out at room temperature,in the range 283-303K

;
#These two values have been output from a single CSD field.
_refine_ls_R_factor_gt 0.034
_refine_ls_wR_factor_gt 0.034
_symmetry_cell_setting monoclinic
_symmetry_space_group_name_H-M 'P 21/n'
_symmetry_Int_Tables_number 14
loop_
_symmetry_equiv_pos_site_id
_symmetry_equiv_pos_as_xyz
1 x,y,z
2 1/2-x,1/2+y,1/2-z
3 -x,-y,-z
4 -1/2+x,-1/2-y,-1/2+z
_cell_length_a 10.4994(6)
_cell_length_b 10.6723(5)
_cell_length_c 14.3190(6)
_cell_angle_alpha 90
_cell_angle_beta 96.014(4)
_cell_angle_gamma 90
_cell_formula_units_Z 4
loop_
_atom_type_symbol
_atom_type_radius_bond
C 0.68
H 0.23
N 0.68
O 0.68
loop_
_atom_site_label
_atom_site_type_symbol
_atom_site_fract_x
_atom_site_fract_y
_atom_site_fract_z
O1 O 0.4356(1) 0.1951(1) 0.58769(8)
O2 O -0.0076(1) 0.2831(1) 0.45121(8)
O3 O -0.1437(1) 0.1307(1) 0.43761(8)
N1 N 0.2403(1) 0.1783(1) 0.43692(8)
N2 N -0.0410(1) 0.1784(1) 0.41989(9)
C1 C 0.1644(2) 0.1342(1) 0.3614(1)
C2 C 0.0355(2) 0.1126(1) 0.3588(1)
C3 C -0.0347(2) 0.0198(2) 0.2959(1)
C4 C -0.0031(2) -0.1061(2) 0.3026(1)
C5 C -0.0694(2) -0.1927(2) 0.2440(1)
C6 C -0.1658(2) -0.1545(2) 0.1781(1)
C7 C -0.1984(2) -0.0304(2) 0.1708(1)
C8 C -0.1336(2) 0.0568(2) 0.2295(1)
C9 C 0.2328(2) 0.0980(1) 0.2790(1)
C10 C 0.2006(2) 0.1525(2) 0.1918(1)
C11 C 0.2699(2) 0.1224(2) 0.1172(1)
C12 C 0.3665(2) 0.0350(2) 0.1287(1)
C13 C 0.3963(2) -0.0226(2) 0.2144(1)
C14 C 0.3310(2) 0.0102(2) 0.2897(1)
C15 C 0.2100(2) 0.1674(2) 0.5335(1)
C16 C 0.3264(2) 0.1181(2) 0.5924(1)
C17 C 0.4651(2) 0.2051(2) 0.4934(1)
C18 C 0.3540(2) 0.2552(2) 0.4291(1)
H1 H 0.061(2) -0.133(1) 0.346(1)
H2 H -0.046(2) -0.274(2) 0.249(1)
H3 H -0.215(2) -0.213(2) 0.138(1)
H4 H -0.269(2) -0.003(2) 0.123(1)
H5 H -0.154(2) 0.142(2) 0.226(1)
H6 H 0.133(2) 0.214(2) 0.184(1)
H7 H 0.252(2) 0.165(2) 0.056(1)
H8 H 0.411(2) 0.014(2) 0.077(1)
H9 H 0.461(2) -0.085(2) 0.223(1)
H10 H 0.355(1) -0.032(1) 0.352(1)
H11 H 0.142(1) 0.111(1) 0.536(1)
H12 H 0.190(1) 0.249(1) 0.555(1)
H13 H 0.344(1) 0.034(1) 0.572(1)
H14 H 0.311(2) 0.119(1) 0.658(1)
H15 H 0.533(2) 0.261(2) 0.494(1)
H16 H 0.489(2) 0.121(2) 0.470(1)
H17 H 0.376(1) 0.259(1) 0.364(1)
H18 H 0.336(2) 0.343(2) 0.449(1)
#END
