
#######################################################################
#
#                 Cambridge Crystallographic Data Centre
#                                CCDC
#
#######################################################################
#
# If this CIF has been generated from an entry in the Cambridge
# Structural Database, then it will include bibliographic, chemical,
# crystal, experimental, refinement or atomic coordinate data resulting
# from the CCDC's data processing and validation procedures.
#
#######################################################################

data_CSD_CIF_KEZSOZ
_audit_creation_date 2013-05-22
_audit_creation_method CSD-ConQuest-V1
_database_code_CSD KEZSOZ
_database_code_depnum_ccdc_archive 'CCDC 912262'
_chemical_formula_sum 'C23 H27 N1 O7'
_chemical_formula_moiety
;
C23 H27 N1 O7
;
_journal_coden_Cambridge 24
_journal_volume 54
_journal_year 2013
_journal_page_first 1798
_journal_name_full 'Tetrahedron Lett. '
loop_
_publ_author_name
"Xiaojian Jiang"
"Zonghan Lim"
"Ying-Yeung Yeung"
_chemical_name_systematic
;
3-(2,4,6-Trimethoxybenzyl)cyclohexyl 4-nitrobenzoate
;
_cell_volume   1102.624
_exptl_crystal_colour 'yellow'
_exptl_crystal_density_diffrn 1.293
_exptl_crystal_description 'Thin Plate'
_diffrn_ambient_temperature 295
#These two values have been output from a single CSD field.
_refine_ls_R_factor_gt 0.0821
_refine_ls_wR_factor_gt 0.0821
_symmetry_cell_setting triclinic
_symmetry_space_group_name_H-M 'P -1'
_symmetry_Int_Tables_number 2
loop_
_symmetry_equiv_pos_site_id
_symmetry_equiv_pos_as_xyz
1 x,y,z
2 -x,-y,-z
_cell_length_a 9.223(3)
_cell_length_b 11.277(3)
_cell_length_c 11.350(4)
_cell_angle_alpha 84.960(7)
_cell_angle_beta 86.234(8)
_cell_angle_gamma 69.774(7)
_cell_formula_units_Z 2
loop_
_atom_type_symbol
_atom_type_radius_bond
C 0.68
H 0.23
N 0.68
O 0.68
loop_
_atom_site_label
_atom_site_type_symbol
_atom_site_fract_x
_atom_site_fract_y
_atom_site_fract_z
N1 N 0.7200(3) -0.0386(2) 0.6766(3)
O1 O 0.3312(2) 1.1283(2) 0.91455(19)
O2 O -0.0567(3) 1.5094(2) 0.7819(2)
O3 O 0.0444(2) 1.11828(18) 0.59276(18)
O4 O 0.3672(2) 0.53211(17) 0.78047(19)
O5 O 0.2755(3) 0.5409(2) 0.5999(2)
O6 O 0.8214(3) -0.0840(2) 0.7477(2)
O7 O 0.6847(3) -0.1004(2) 0.6082(2)
C1 C 0.1891(3) 1.1264(3) 0.7518(2)
C2 C 0.2153(3) 1.1958(3) 0.8392(3)
C3 C 0.1327(4) 1.3231(3) 0.8469(3)
H1 H 0.15280 1.36760 0.90530
C4 C 0.0196(4) 1.3833(3) 0.7666(3)
C5 C -0.0134(3) 1.3186(3) 0.6800(3)
H2 H -0.09040 1.35990 0.62680
C6 C 0.0706(3) 1.1911(3) 0.6744(3)
C7 C 0.3557(4) 1.1895(4) 1.0115(3)
H3 H 0.38630 1.26020 0.98250
H4 H 0.43560 1.13070 1.05880
H5 H 0.26170 1.21890 1.05890
C8 C -0.1664(5) 1.5788(3) 0.6977(4)
H6 H -0.11780 1.57150 0.61990
H7 H -0.20620 1.66640 0.71500
H8 H -0.24970 1.54580 0.70090
C9 C -0.0599(4) 1.1797(3) 0.5021(3)
H9 H -0.15890 1.22590 0.53690
H10 H -0.07050 1.11770 0.45380
H11 H -0.02090 1.23730 0.45400
C10 C 0.2878(3) 0.9901(3) 0.7353(3)
H12 H 0.38660 0.97330 0.77040
H13 H 0.30750 0.97970 0.65110
C11 C 0.2194(3) 0.8914(2) 0.7880(2)
H14 H 0.11970 0.90940 0.75190
C12 C 0.3250(3) 0.7583(2) 0.7547(2)
H15 H 0.33720 0.75680 0.66920
H16 H 0.42640 0.73910 0.78630
C13 C 0.2568(4) 0.6590(3) 0.8034(3)
H17 H 0.15990 0.67270 0.76470
C14 C 0.2277(4) 0.6598(3) 0.9345(3)
H18 H 0.32520 0.63620 0.97350
H19 H 0.17860 0.59820 0.96110
C15 C 0.1238(3) 0.7911(3) 0.9679(3)
H20 H 0.02250 0.81020 0.93610
H21 H 0.11130 0.79160 1.05340
C16 C 0.1904(3) 0.8923(3) 0.9208(2)
H22 H 0.11900 0.97480 0.94040
H23 H 0.28680 0.87810 0.95870
C17 C 0.3590(4) 0.4852(3) 0.6784(3)
C18 C 0.4637(3) 0.3502(3) 0.6753(3)
C19 C 0.5781(4) 0.2954(3) 0.7562(3)
H24 H 0.59620 0.34460 0.81130
C20 C 0.6655(4) 0.1685(3) 0.7556(3)
H25 H 0.74360 0.13130 0.80890
C21 C 0.6338(3) 0.0986(3) 0.6737(3)
C22 C 0.5237(3) 0.1516(3) 0.5914(3)
H26 H 0.50630 0.10240 0.53600
C23 C 0.4395(3) 0.2780(3) 0.5915(3)
H27 H 0.36570 0.31550 0.53490
#END
