
#######################################################################
#
#                 Cambridge Crystallographic Data Centre
#                                CCDC
#
#######################################################################
#
# If this CIF has been generated from an entry in the Cambridge
# Structural Database, then it will include bibliographic, chemical,
# crystal, experimental, refinement or atomic coordinate data resulting
# from the CCDC's data processing and validation procedures.
#
#######################################################################

data_CSD_CIF_KEZTAM
_audit_creation_date 2013-05-22
_audit_creation_method CSD-ConQuest-V1
_database_code_CSD KEZTAM
_database_code_depnum_ccdc_archive 'CCDC 912260'
_chemical_formula_sum 'C23 H27 N1 O7'
_chemical_formula_moiety
;
C23 H27 N1 O7
;
_journal_coden_Cambridge 24
_journal_volume 54
_journal_year 2013
_journal_page_first 1798
_journal_name_full 'Tetrahedron Lett. '
loop_
_publ_author_name
"Xiaojian Jiang"
"Zonghan Lim"
"Ying-Yeung Yeung"
_chemical_name_systematic
;
4-Methyl-3-(2,4,6-trimethoxyphenyl)cyclohexyl 4-nitrobenzoate
;
_cell_volume   4567.780
_exptl_crystal_colour 'yellow'
_exptl_crystal_density_diffrn 1.249
_exptl_crystal_description 'Plate'
_diffrn_ambient_temperature 223
#These two values have been output from a single CSD field.
_refine_ls_R_factor_gt 0.0487
_refine_ls_wR_factor_gt 0.0487
_symmetry_cell_setting monoclinic
_symmetry_space_group_name_H-M 'C 2/c'
_symmetry_Int_Tables_number 15
loop_
_symmetry_equiv_pos_site_id
_symmetry_equiv_pos_as_xyz
1 x,y,z
2 -x,y,1/2-z
3 1/2+x,1/2+y,z
4 1/2-x,1/2+y,1/2-z
5 -x,-y,-z
6 x,-y,-1/2+z
7 -1/2-x,-1/2-y,-z
8 -1/2+x,-1/2-y,-1/2+z
_cell_length_a 28.2924(14)
_cell_length_b 12.0695(6)
_cell_length_c 15.0774(8)
_cell_angle_alpha 90
_cell_angle_beta 117.477(1)
_cell_angle_gamma 90
_cell_formula_units_Z 8
loop_
_atom_type_symbol
_atom_type_radius_bond
C 0.68
H 0.23
N 0.68
O 0.68
loop_
_atom_site_label
_atom_site_type_symbol
_atom_site_fract_x
_atom_site_fract_y
_atom_site_fract_z
N1 N -0.06668(6) 0.72588(15) -0.20731(12)
O1 O -0.11348(4) 0.70794(14) -0.26237(10)
O2 O -0.04822(6) 0.81779(16) -0.18660(19)
O3 O 0.04965(5) 0.26202(10) -0.03439(13)
O4 O 0.11857(4) 0.37917(8) 0.03167(7)
O5 O 0.27195(4) 0.17443(9) 0.41064(7)
O6 O 0.42012(4) 0.41175(10) 0.57934(8)
O7 O 0.31507(4) 0.42110(9) 0.21853(8)
C1 C 0.05469(5) 0.55969(13) -0.05336(11)
H1 H 0.09090 0.57100 -0.00870
C2 C 0.02193(6) 0.64981(14) -0.09823(13)
H2 H 0.03540 0.72250 -0.08520
C3 C -0.03105(5) 0.62969(14) -0.16258(11)
C4 C -0.05207(6) 0.52614(16) -0.18559(12)
H3 H -0.08820 0.51560 -0.23110
C5 C -0.01919(6) 0.43682(15) -0.14059(12)
H4 H -0.03300 0.36450 -0.15490
C6 C 0.03444(5) 0.45358(13) -0.07387(10)
C7 C 0.06763(6) 0.35423(13) -0.02468(12)
C8 C 0.15573(5) 0.28798(11) 0.0807(1)
H5 H 0.13860 0.23200 0.10430
C9 C 0.17157(6) 0.23550(13) 0.00732(11)
H6 H 0.18490 0.29260 -0.02160
H7 H 0.14040 0.20070 -0.04710
C10 C 0.21477(6) 0.14840(12) 0.06033(11)
H8 H 0.20020 0.08850 0.08420
H9 H 0.22550 0.11670 0.01260
C11 C 0.26356(5) 0.19736(10) 0.14864(10)
H10 H 0.27890 0.25520 0.12290
C12 C 0.24676(5) 0.2521(1) 0.22211(9)
H11 H 0.23090 0.19280 0.24520
C13 C 0.20284(5) 0.33832(10) 0.16895(10)
H12 H 0.19120 0.36810 0.21620
H13 H 0.21710 0.39970 0.14600
C14 C 0.30597(7) 0.10843(14) 0.20070(13)
H14 H 0.29200 0.05220 0.22830
H15 H 0.33730 0.14200 0.25410
H16 H 0.31540 0.07470 0.15270
C15 C 0.29305(5) 0.29876(10) 0.31467(9)
C16 C 0.30503(5) 0.25705(10) 0.40961(10)
C17 C 0.34726(5) 0.29632(12) 0.49641(10)
H17 H 0.35400 0.26730 0.55900
C18 C 0.37948(5) 0.37896(11) 0.48957(10)
C19 C 0.37016(5) 0.42228(11) 0.39808(11)
H18 H 0.39240 0.47760 0.39390
C20 C 0.32692(5) 0.38204(10) 0.31192(10)
C21 C 0.28614(6) 0.11782(14) 0.50234(12)
H19 H 0.32130 0.08550 0.52610
H20 H 0.26040 0.05970 0.49170
H21 H 0.28640 0.16980 0.55170
C22 C 0.45541(8) 0.49490(18) 0.57812(16)
H22 H 0.47210 0.46970 0.53820
H23 H 0.48260 0.50930 0.64590
H24 H 0.43560 0.56240 0.54940
C23 C 0.34962(7) 0.50105(15) 0.20970(13)
H25 H 0.34970 0.56760 0.24580
H26 H 0.33720 0.51890 0.13970
H27 H 0.38540 0.47120 0.23750
#END
