
#######################################################################
#
#                 Cambridge Crystallographic Data Centre
#                                CCDC
#
#######################################################################
#
# If this CIF has been generated from an entry in the Cambridge
# Structural Database, then it will include bibliographic, chemical,
# crystal, experimental, refinement or atomic coordinate data resulting
# from the CCDC's data processing and validation procedures.
#
#######################################################################

data_CSD_CIF_KEZTEQ
_audit_creation_date 2013-05-22
_audit_creation_method CSD-ConQuest-V1
_database_code_CSD KEZTEQ
_database_code_depnum_ccdc_archive 'CCDC 904110'
_chemical_formula_sum 'C22 H20 N2 O2'
_chemical_formula_moiety
;
C22 H20 N2 O2
;
_journal_coden_Cambridge 24
_journal_volume 54
_journal_year 2013
_journal_page_first 1817
_journal_name_full 'Tetrahedron Lett. '
loop_
_publ_author_name
"N.V.Lakshmi"
"P.T.Perumal"
_chemical_name_systematic
;
3-((Hydroxyimino)(phenyl)methyl)-1-methyl-4-(2-naphthyl)pyrrolidin-2-one
;
_cell_volume   1760.118
_exptl_crystal_density_diffrn 1.3
_exptl_crystal_description 'Block'
_diffrn_ambient_temperature 298
#These two values have been output from a single CSD field.
_refine_ls_R_factor_gt 0.0568
_refine_ls_wR_factor_gt 0.0568
_symmetry_cell_setting monoclinic
_symmetry_space_group_name_H-M 'P 21/c'
_symmetry_Int_Tables_number 14
loop_
_symmetry_equiv_pos_site_id
_symmetry_equiv_pos_as_xyz
1 x,y,z
2 -x,1/2+y,1/2-z
3 -x,-y,-z
4 x,-1/2-y,-1/2+z
_cell_length_a 12.0752(14)
_cell_length_b 13.2126(16)
_cell_length_c 11.0993(11)
_cell_angle_alpha 90
_cell_angle_beta 96.307(5)
_cell_angle_gamma 90
_cell_formula_units_Z 4
loop_
_atom_type_symbol
_atom_type_radius_bond
C 0.68
H 0.23
N 0.68
O 0.68
loop_
_atom_site_label
_atom_site_type_symbol
_atom_site_fract_x
_atom_site_fract_y
_atom_site_fract_z
C1 C 0.1093(2) 0.0409(2) 0.8829(3)
H1 H 0.14510 0.01680 0.81430
H2 H 0.09880 -0.01570 0.93610
C2 C 0.1795(2) 0.1245(2) 0.9514(3)
H3 H 0.17190 0.11800 1.03810
C3 C 0.1210(2) 0.2233(2) 0.9044(2)
H4 H 0.16080 0.24910 0.83850
C4 C 0.0059(2) 0.1899(2) 0.8492(2)
C5 C -0.0862(3) 0.0340(2) 0.7740(3)
H5 H -0.14790 0.02810 0.82120
H6 H -0.06080 -0.03240 0.75490
H7 H -0.10940 0.06980 0.70030
C6 C 0.3025(3) 0.1246(2) 0.9351(3)
C7 C 0.3377(3) 0.1282(2) 0.8175(3)
H8 H 0.28480 0.12420 0.75020
C8 C 0.4478(3) 0.1374(2) 0.8008(3)
H9 H 0.46870 0.13970 0.72270
C9 C 0.5289(3) 0.1433(2) 0.9003(3)
C10 C 0.6450(3) 0.1560(2) 0.8858(4)
H10 H 0.66820 0.15910 0.80870
C11 C 0.7203(3) 0.1634(2) 0.9853(4)
H11 H 0.79520 0.17220 0.97560
C12 C 0.6874(3) 0.1580(3) 1.1028(4)
H12 H 0.74060 0.16310 1.16980
C13 C 0.5784(3) 0.1453(2) 1.1192(3)
H13 H 0.55730 0.14160 1.19720
C14 C 0.4983(3) 0.1378(2) 1.0199(3)
C15 C 0.3810(3) 0.1278(2) 1.0324(3)
H14 H 0.35850 0.12340 1.10970
C16 C 0.1211(2) 0.3057(2) 0.9985(2)
C17 C 0.1919(2) 0.3972(2) 0.9921(2)
C18 C 0.2891(3) 0.3948(2) 0.9364(3)
H15 H 0.31000 0.33550 0.89990
C19 C 0.3555(3) 0.4804(3) 0.9348(3)
H16 H 0.42060 0.47790 0.89720
C20 C 0.3261(3) 0.5688(3) 0.9883(3)
H17 H 0.37150 0.62560 0.98800
C21 C 0.2288(3) 0.5726(2) 1.0423(3)
H18 H 0.20790 0.63260 1.07730
C22 C 0.1622(3) 0.4879(2) 1.0448(2)
H19 H 0.09690 0.49120 1.08190
N1 N 0.00382(19) 0.08897(18) 0.8429(2)
N2 N 0.0648(2) 0.30159(18) 1.0896(2)
O1 O -0.07050(17) 0.24716(16) 0.80879(17)
O2 O -0.00067(18) 0.21318(16) 1.0883(2)
H20 H -0.034(3) 0.227(3) 1.160(4)
#END
