
#######################################################################
#
#                 Cambridge Crystallographic Data Centre
#                                CCDC
#
#######################################################################
#
# If this CIF has been generated from an entry in the Cambridge
# Structural Database, then it will include bibliographic, chemical,
# crystal, experimental, refinement or atomic coordinate data resulting
# from the CCDC's data processing and validation procedures.
#
#######################################################################

data_CSD_CIF_KEZYEW
_audit_creation_date 2018-04-17
_audit_creation_method CSD-ConQuest-V1
_database_code_CSD KEZYEW
_database_code_depnum_ccdc_archive 'CCDC 1818968'
_chemical_formula_sum 'C3 H2 N4 O2'
_chemical_formula_moiety
;
C3 H2 N4 O2
;
_journal_coden_Cambridge 1336
_journal_volume 20
_journal_year 2018
_journal_page_first 2628
_journal_name_full 'Org.Lett. '
loop_
_publ_author_name
"C.M.Glinkerman"
"D.L.Boger"
_chemical_name_systematic
;
5-nitro-1,2,3-triazine
;
_chemical_melting_point 388.15
_cell_volume    510.189
_exptl_crystal_colour 'yellow'
_exptl_crystal_density_diffrn 1.642
_exptl_special_details
;
Melts with decomposition.
Moisture-sensitive

;
_exptl_crystal_description 'irregular'
_exptl_crystal_preparation 'dichloromethane/hexanes'
_diffrn_ambient_temperature 200
_refine_special_details
;
N3,O1,O2 disordered by symmetry over two configurations with occupancy 0.5.

;
#These two values have been output from a single CSD field.
_refine_ls_R_factor_gt 0.0303
_refine_ls_wR_factor_gt 0.0303
_symmetry_cell_setting orthorhombic
_symmetry_space_group_name_H-M 'P n m a'
_symmetry_Int_Tables_number 62
loop_
_symmetry_equiv_pos_site_id
_symmetry_equiv_pos_as_xyz
1 x,y,z
2 1/2-x,-y,1/2+z
3 -x,1/2+y,-z
4 1/2+x,1/2-y,1/2-z
5 -x,-y,-z
6 -1/2+x,y,-1/2-z
7 x,-1/2-y,z
8 -1/2-x,-1/2+y,-1/2+z
_cell_length_a 8.7680(9)
_cell_length_b 10.3723(12)
_cell_length_c 5.6099(6)
_cell_angle_alpha 90
_cell_angle_beta 90
_cell_angle_gamma 90
_cell_formula_units_Z 4
loop_
_atom_type_symbol
_atom_type_radius_bond
C 0.68
H 0.23
N 0.68
O 0.68
loop_
_atom_site_label
_atom_site_type_symbol
_atom_site_fract_x
_atom_site_fract_y
_atom_site_fract_z
N1 N 0.19431(15) 0.75000 0.8695(3)
N2 N 0.23211(12) 0.63912(9) 0.77425(19)
N3 N 0.4581(2) 0.7280(7) 0.2590(4)
C1 C 0.36239(15) 0.75000 0.4745(3)
O1 O 0.4958(8) 0.6207(4) 0.2005(13)
C2 C 0.31613(13) 0.63744(10) 0.5758(2)
H1 H 0.34370 0.55750 0.50530
O2 O 0.4929(7) 0.8297(5) 0.1576(12)
N2F N 0.23211(12) 0.86088(9) 0.77425(19)
N3F N 0.4581(2) 0.7720(7) 0.2590(4)
O1F O 0.4958(8) 0.8793(4) 0.2005(13)
C2F C 0.31613(13) 0.86256(10) 0.5758(2)
H1F H 0.34370 0.94250 0.50530
O2F O 0.4929(7) 0.6703(5) 0.1576(12)
#END
