
#######################################################################
#
#                 Cambridge Crystallographic Data Centre
#                                CCDC
#
#######################################################################
#
# If this CIF has been generated from an entry in the Cambridge
# Structural Database, then it will include bibliographic, chemical,
# crystal, experimental, refinement or atomic coordinate data resulting
# from the CCDC's data processing and validation procedures.
#
#######################################################################

data_CSD_CIF_KIBFUZ
_audit_creation_date 2018-04-17
_audit_creation_method CSD-ConQuest-V1
_database_code_CSD KIBFUZ
_database_code_depnum_ccdc_archive 'CCDC 1568678'
_chemical_formula_sum 'C23 H20 N2 O5'
_chemical_formula_moiety
;
C23 H20 N2 O5
;
_journal_coden_Cambridge 122
_journal_volume 53
_journal_year 2017
_journal_page_first 1315
_journal_name_full 'Khim.Get.Soedin.,SSSR(Russ.)(Chem.Heterocycl.Compd.) '
loop_
_publ_author_name
"A.Yu.Barkov"
"N.S.Zimnitskiy"
"I.B.Kutyashev"
"V.Yu.Korotaev"
"V.Ya.Sosnovskikh"
_chemical_name_systematic
;
2'-acetyl-1'-(4-nitrophenyl)-1',2',5',6',7',7a'-hexahydrospiro[indene-2,3'-pyr
rolizine]-1,3-dione
;
_cell_volume    961.171
_diffrn_ambient_temperature 293
#These two values have been output from a single CSD field.
_refine_ls_R_factor_gt 0.1515
_refine_ls_wR_factor_gt 0.1515
_symmetry_cell_setting triclinic
_symmetry_space_group_name_H-M 'P -1'
_symmetry_Int_Tables_number 2
loop_
_symmetry_equiv_pos_site_id
_symmetry_equiv_pos_as_xyz
1 x,y,z
2 -x,-y,-z
_cell_length_a 7.637(13)
_cell_length_b 8.055(6)
_cell_length_c 17.969(18)
_cell_angle_alpha 85.17(9)
_cell_angle_beta 80.41(12)
_cell_angle_gamma 61.87(12)
_cell_formula_units_Z 2
loop_
_atom_type_symbol
_atom_type_radius_bond
C 0.68
H 0.23
N 0.68
O 0.68
loop_
_atom_site_label
_atom_site_type_symbol
_atom_site_fract_x
_atom_site_fract_y
_atom_site_fract_z
O1 O 0.0134(11) 0.8269(10) 0.4313(4)
N1 N 0.0912(12) 1.1213(11) 0.3317(4)
C1 C -0.0657(13) 1.0632(13) 0.3315(5)
O2 O -0.3194(11) 1.3157(10) 0.2662(4)
C2 C 0.0170(13) 0.9238(13) 0.2644(5)
H1 H 0.11020 0.80100 0.28330
N2 N 0.7739(14) 0.4890(15) -0.0043(5)
C3 C 0.1433(14) 0.9930(13) 0.2085(5)
H2 H 0.05200 1.10380 0.18210
O3 O -0.2701(13) 0.8827(13) 0.2859(5)
O4 O 0.7885(16) 0.5349(15) -0.0693(5)
C4 C 0.2361(15) 1.0584(14) 0.2615(6)
H3 H 0.36160 0.95170 0.27310
O5 O 0.8904(15) 0.3346(14) 0.0190(6)
C5 C 0.2746(17) 1.2243(15) 0.2351(7)
H4 H 0.39210 1.21270 0.25360
H5 H 0.29540 1.23110 0.18040
C6 C 0.096(2) 1.3903(17) 0.2662(9)
H6 H -0.00790 1.43390 0.23390
H7 H 0.12580 1.49180 0.27300
C7 C 0.0318(17) 1.3198(15) 0.3415(7)
H8 H 0.09730 1.33430 0.38040
H9 H -0.11230 1.39030 0.35590
C8 C -0.1482(15) 0.8988(14) 0.2386(6)
C9 C -0.150(2) 0.892(2) 0.1579(7)
H10 H -0.27460 0.89920 0.14990
H11 H -0.04070 0.77680 0.13750
H12 H -0.13660 0.99690 0.13320
C10 C -0.0998(13) 0.9762(13) 0.4091(6)
C11 C -0.2912(14) 1.1143(13) 0.4474(5)
C12 C -0.3772(16) 1.1157(14) 0.5223(6)
H13 H -0.30790 1.02500 0.55670
C13 C -0.5692(16) 1.2570(16) 0.5433(6)
H14 H -0.63330 1.25690 0.59210
C14 C -0.6686(16) 1.3985(16) 0.4939(7)
H15 H -0.79620 1.49380 0.51070
C15 C -0.5844(14) 1.4020(14) 0.4209(6)
H16 H -0.65130 1.49800 0.38780
C16 C -0.3929(13) 1.2548(12) 0.3982(5)
C17 C -0.2703(14) 1.2254(12) 0.3236(5)
C18 C 0.2984(14) 0.8577(13) 0.1508(6)
C19 C 0.4387(14) 0.6818(13) 0.1736(6)
H17 H 0.42750 0.64650 0.22410
C20 C 0.5946(16) 0.5582(15) 0.1225(6)
H18 H 0.68720 0.44050 0.13790
C21 C 0.6076(15) 0.6146(14) 0.0494(6)
C22 C 0.4716(17) 0.7858(15) 0.0241(6)
H19 H 0.48300 0.82050 -0.02640
C23 C 0.3178(16) 0.9043(15) 0.0763(6)
H20 H 0.22380 1.02030 0.06010
#END
