
#######################################################################
#
#                 Cambridge Crystallographic Data Centre
#                                CCDC
#
#######################################################################
#
# If this CIF has been generated from an entry in the Cambridge
# Structural Database, then it will include bibliographic, chemical,
# crystal, experimental, refinement or atomic coordinate data resulting
# from the CCDC's data processing and validation procedures.
#
#######################################################################

data_CSD_CIF_KIBFAC
_audit_creation_date 1991-06-18
_audit_creation_method CSD-ConQuest-V1
_database_code_CSD KIBFAC
_chemical_formula_sum 'C10 H9 N3 O1'
_chemical_formula_moiety
;
C10 H9 N3 O1
;
_journal_coeditor_code "IUCr AS0318"
_journal_coden_Cambridge 591
_journal_volume 46
_journal_year 1990
_journal_page_first 2177
_journal_name_full 'Acta Crystallogr.,Sect.C:Cryst.Struct.Commun. '
loop_
_publ_author_name
"K.Yamaguchi"
"A.Ohsawa"
"T.Itoh"
_chemical_name_systematic
;
4-Methyl-6-phenyl-1,2,3-triazine 2-oxide
;
_cell_volume    889.838
_exptl_crystal_density_diffrn 1.397
_diffrn_ambient_temperature ?
_diffrn_special_details
;
The study was carried out at room temperature,in the range 283-303K

;
#These two values have been output from a single CSD field.
_refine_ls_R_factor_gt 0.05
_refine_ls_wR_factor_gt 0.05
_symmetry_cell_setting monoclinic
_symmetry_space_group_name_H-M 'P 21/n'
_symmetry_Int_Tables_number 14
loop_
_symmetry_equiv_pos_site_id
_symmetry_equiv_pos_as_xyz
1 x,y,z
2 1/2-x,1/2+y,1/2-z
3 -x,-y,-z
4 -1/2+x,-1/2-y,-1/2+z
_cell_length_a 11.486(2)
_cell_length_b 10.897(1)
_cell_length_c 7.235(2)
_cell_angle_alpha 90
_cell_angle_beta 100.69(2)
_cell_angle_gamma 90
_cell_formula_units_Z 4
loop_
_atom_type_symbol
_atom_type_radius_bond
C 0.68
H 0.23
N 0.68
O 0.68
loop_
_atom_site_label
_atom_site_type_symbol
_atom_site_fract_x
_atom_site_fract_y
_atom_site_fract_z
N1 N 0.6561(1) 0.0127(1) 0.3679(2)
N2 N 0.7307(1) 0.1029(1) 0.4329(2)
N3 N 0.7059(1) 0.2231(1) 0.4263(2)
C1 C 0.5955(1) 0.2530(1) 0.3445(2)
C2 C 0.5116(1) 0.1665(1) 0.2716(2)
C3 C 0.5459(1) 0.0450(1) 0.2864(2)
C4 C 0.5710(2) 0.3870(1) 0.3372(4)
C5 C 0.4676(1) -0.0599(1) 0.2166(2)
C6 C 0.3474(1) -0.0424(1) 0.1483(2)
C7 C 0.2751(1) -0.1411(2) 0.0858(3)
C8 C 0.3211(2) -0.2584(1) 0.0911(2)
C9 C 0.4400(2) -0.2764(1) 0.1553(2)
C10 C 0.5134(1) -0.1780(1) 0.2183(2)
O1 O 0.8333(1) 0.0729(1) 0.5082(2)
H1 H 0.431(2) 0.191(2) 0.213(3)
H2 H 0.581(2) 0.415(2) 0.460(4)
H3 H 0.490(3) 0.405(2) 0.276(3)
H4 H 0.625(2) 0.430(2) 0.283(3)
H5 H 0.316(2) 0.040(2) 0.145(3)
H6 H 0.193(2) -0.130(2) 0.039(3)
H7 H 0.272(2) -0.325(2) 0.050(3)
H8 H 0.471(2) -0.360(3) 0.161(4)
H9 H 0.596(2) -0.190(2) 0.256(3)
#END
