
#######################################################################
#
#                 Cambridge Crystallographic Data Centre
#                                CCDC
#
#######################################################################
#
# If this CIF has been generated from an entry in the Cambridge
# Structural Database, then it will include bibliographic, chemical,
# crystal, experimental, refinement or atomic coordinate data resulting
# from the CCDC's data processing and validation procedures.
#
#######################################################################

data_CSD_CIF_KIBGAG
_audit_creation_date 2018-04-17
_audit_creation_method CSD-ConQuest-V1
_database_code_CSD KIBGAG
_database_code_depnum_ccdc_archive 'CCDC 1568679'
_chemical_formula_sum 'C29 H24 N4 O3'
_chemical_formula_moiety
;
C29 H24 N4 O3
;
_journal_coden_Cambridge 122
_journal_volume 53
_journal_year 2017
_journal_page_first 1315
_journal_name_full 'Khim.Get.Soedin.,SSSR(Russ.)(Chem.Heterocycl.Compd.) '
loop_
_publ_author_name
"A.Yu.Barkov"
"N.S.Zimnitskiy"
"I.B.Kutyashev"
"V.Yu.Korotaev"
"V.Ya.Sosnovskikh"
_chemical_name_systematic
;
1-[1'-(4-nitrophenyl)-1',2',5',6',7',7a'-hexahydrospiro[indeno[1,2-b]quinoxali
ne-11,3'-pyrrolizin]-2'-yl]ethan-1-one
;
_cell_volume   1198.638
_exptl_crystal_colour 'pinkish orange'
_exptl_crystal_density_diffrn 1.32
_exptl_crystal_description 'prism'
_diffrn_ambient_temperature 299
_refine_special_details
;
O4,O5 and O2,O3 disordered over two sites with occupancies 0.50:0.50.

;
#These two values have been output from a single CSD field.
_refine_ls_R_factor_gt 0.05
_refine_ls_wR_factor_gt 0.05
_symmetry_cell_setting triclinic
_symmetry_space_group_name_H-M 'P -1'
_symmetry_Int_Tables_number 2
loop_
_symmetry_equiv_pos_site_id
_symmetry_equiv_pos_as_xyz
1 x,y,z
2 -x,-y,-z
_cell_length_a 10.9366(6)
_cell_length_b 11.0392(7)
_cell_length_c 11.1003(7)
_cell_angle_alpha 77.900(5)
_cell_angle_beta 66.691(5)
_cell_angle_gamma 80.618(5)
_cell_formula_units_Z 2
loop_
_atom_type_symbol
_atom_type_radius_bond
C 0.68
H 0.23
N 0.68
O 0.68
loop_
_atom_site_label
_atom_site_type_symbol
_atom_site_fract_x
_atom_site_fract_y
_atom_site_fract_z
N1 N 0.18959(11) 0.14856(12) 0.01743(11)
N2 N 0.32563(12) 0.04725(12) -0.24257(12)
C1 C 0.30391(14) 0.20155(13) -0.09572(14)
N3 N 0.59336(13) -0.01471(14) -0.24911(13)
C2 C 0.24094(14) 0.31241(14) -0.17783(14)
C3 C 0.08950(15) 0.30498(15) -0.10962(15)
C4 C 0.28592(17) 0.43840(15) -0.18757(15)
O1 O 0.21895(14) 0.51076(12) -0.11338(14)
C5 C 0.37604(14) 0.10052(14) -0.18070(14)
C6 C 0.41541(15) 0.22946(15) -0.05753(15)
N4 N -0.18095(18) 0.4022(2) -0.47439(19)
C7 C 0.5295(2) 0.3241(2) 0.0385(2)
H1 H 0.52980 0.38290 0.08730
C8 C 0.01905(14) 0.33000(15) -0.20646(15)
C9 C 0.50920(14) 0.07068(15) -0.18454(14)
C10 C 0.07345(14) 0.17488(15) -0.02267(15)
C11 C 0.53196(15) 0.15170(16) -0.10845(16)
C12 C 0.14564(16) 0.18927(18) 0.14650(15)
H2 H 0.13910 0.27920 0.13750
H3 H 0.20510 0.15290 0.19280
C13 C 0.41018(15) -0.04485(14) -0.30996(14)
C14 C 0.54178(16) -0.07552(15) -0.31212(15)
C15 C -0.11121(16) 0.37677(18) -0.38140(17)
C16 C 0.4175(2) 0.46852(19) -0.29450(18)
H4 H 0.48220 0.39840 -0.29450
H5 H 0.44670 0.53900 -0.27860
H6 H 0.40830 0.48750 -0.37910
C17 C -0.13588(18) 0.45850(19) -0.29572(18)
H7 H -0.19510 0.52910 -0.29670
C18 C 0.6427(2) 0.2455(2) -0.0102(2)
H8 H 0.71790 0.25150 0.00700
C19 C -0.04895(16) 0.16626(18) 0.10826(16)
H9 H -0.10570 0.24380 0.11360
H10 H -0.10090 0.09960 0.11630
C20 C 0.41489(18) 0.31716(17) 0.01596(16)
H11 H 0.33880 0.37050 0.04960
O2 O -0.2298(11) 0.5065(16) -0.4957(15)
C21 C 0.6224(2) -0.17071(18) -0.38195(17)
H12 H 0.70910 -0.19180 -0.38440
C22 C -0.02283(19) 0.27254(19) -0.38356(19)
H13 H -0.00730 0.21830 -0.44290
C23 C 0.64635(18) 0.1580(2) -0.08420(19)
H14 H 0.72280 0.10480 -0.11690
C24 C 0.36428(19) -0.10868(17) -0.37850(16)
H15 H 0.27850 -0.08820 -0.37900
C25 C -0.07084(17) 0.43401(17) -0.20730(17)
H16 H -0.08780 0.48820 -0.14760
C26 C 0.04256(18) 0.24980(17) -0.29591(18)
H17 H 0.10310 0.17990 -0.29690
O3 O -0.1899(11) 0.3083(12) -0.5173(10)
C27 C 0.00939(18) 0.1396(2) 0.21624(18)
H18 H -0.04570 0.18230 0.29040
H19 H 0.01740 0.05110 0.24850
C28 C 0.4459(2) -0.20130(17) -0.44480(17)
H20 H 0.41480 -0.24390 -0.48940
C29 C 0.5745(2) -0.23206(19) -0.44587(18)
H21 H 0.62860 -0.29540 -0.49080
H22 H 0.2735(14) 0.2942(14) -0.2701(15)
H23 H 0.0768(14) 0.1129(15) -0.0746(15)
H24 H 0.0557(15) 0.3658(16) -0.0512(15)
O4? O -0.2688(11) 0.4868(18) -0.4643(16)
O5? O -0.1456(11) 0.3421(11) -0.5645(9)
#END
