
#######################################################################
#
#                 Cambridge Crystallographic Data Centre
#                                CCDC
#
#######################################################################
#
# If this CIF has been generated from an entry in the Cambridge
# Structural Database, then it will include bibliographic, chemical,
# crystal, experimental, refinement or atomic coordinate data resulting
# from the CCDC's data processing and validation procedures.
#
#######################################################################

data_CSD_CIF_KIBGEK
_audit_creation_date 2018-04-17
_audit_creation_method CSD-ConQuest-V1
_database_code_CSD KIBGEK
_database_code_depnum_ccdc_archive 'CCDC 1568680'
_chemical_formula_sum 'C27 H22 N4 O3'
_chemical_formula_moiety
;
C27 H22 N4 O3
;
_journal_coden_Cambridge 122
_journal_volume 53
_journal_year 2017
_journal_page_first 1315
_journal_name_full 'Khim.Get.Soedin.,SSSR(Russ.)(Chem.Heterocycl.Compd.) '
loop_
_publ_author_name
"A.Yu.Barkov"
"N.S.Zimnitskiy"
"I.B.Kutyashev"
"V.Yu.Korotaev"
"V.Ya.Sosnovskikh"
_chemical_name_systematic
;
1-[1'-methyl-4'-(4-nitrophenyl)spiro[indeno[1,2-b]quinoxaline-11,2'-pyrrolidin
]-3'-yl]ethan-1-one
;
_cell_volume   1049.132
_exptl_crystal_colour 'yellow'
_exptl_crystal_density_diffrn 1.426
_exptl_crystal_description 'prism'
_diffrn_ambient_temperature 295
#These two values have been output from a single CSD field.
_refine_ls_R_factor_gt 0.0442
_refine_ls_wR_factor_gt 0.0442
_symmetry_cell_setting triclinic
_symmetry_space_group_name_H-M 'P -1'
_symmetry_Int_Tables_number 2
loop_
_symmetry_equiv_pos_site_id
_symmetry_equiv_pos_as_xyz
1 x,y,z
2 -x,-y,-z
_cell_length_a 9.283(10)
_cell_length_b 10.673(12)
_cell_length_c 11.971(12)
_cell_angle_alpha 74.34(9)
_cell_angle_beta 68.75(10)
_cell_angle_gamma 75.57(10)
_cell_formula_units_Z 2
loop_
_atom_type_symbol
_atom_type_radius_bond
C 0.68
H 0.23
N 0.68
O 0.68
loop_
_atom_site_label
_atom_site_type_symbol
_atom_site_fract_x
_atom_site_fract_y
_atom_site_fract_z
N1 N 0.39448(17) 0.50360(15) 0.27773(14)
O1 O 0.3018(2) 0.19776(16) 0.03816(17)
C1 C 0.2790(2) 0.32018(17) 0.27328(17)
N2 N 0.33879(17) 0.20939(14) 0.35563(13)
C2 C 0.27526(19) 0.45508(17) 0.29187(16)
O2 O 1.1303(2) 0.04323(19) -0.25031(16)
C3 C 0.1206(2) 0.52384(17) 0.32614(16)
N3 N 1.0945(2) 0.1280(2) -0.19251(16)
O3 O 1.1768(2) 0.2048(2) -0.20659(16)
N4 N 0.08309(17) 0.63952(14) 0.35081(14)
C4 C 0.2053(2) 0.69253(17) 0.34153(16)
C5 C 0.1771(2) 0.81539(18) 0.36918(18)
H1 H 0.07470 0.85930 0.39580
C6 C 0.2960(2) 0.87137(19) 0.3579(2)
H2 H 0.27610 0.95390 0.37750
C7 C 0.4483(2) 0.80788(19) 0.3174(2)
H3 H 0.53050 0.84880 0.30830
C8 C 0.4793(2) 0.6876(2) 0.2911(2)
H4 H 0.58270 0.64560 0.26450
C9 C 0.3604(2) 0.62629(17) 0.30321(17)
C10 C 0.0183(2) 0.44298(17) 0.32594(16)
C11 C -0.1397(2) 0.4669(2) 0.35055(19)
H5 H -0.19900 0.54710 0.36950
C12 C -0.2086(2) 0.3706(2) 0.3468(2)
H6 H -0.31640 0.38510 0.36180
C13 C -0.1205(2) 0.2527(2) 0.3210(2)
H7 H -0.17010 0.18750 0.31990
C14 C 0.0374(2) 0.22787(19) 0.29683(18)
H8 H 0.09570 0.14670 0.28000
C15 C 0.1080(2) 0.32484(17) 0.29786(16)
C16 C 0.5012(2) 0.16736(19) 0.29610(17)
H9 H 0.53800 0.07910 0.33520
H10 H 0.56480 0.22750 0.29510
C17 C 0.5030(2) 0.17047(17) 0.17039(17)
C18 C 0.3919(2) 0.29730(17) 0.14587(17)
C19 C 0.3091(2) 0.2971(2) 0.05981(18)
C20 C 0.2369(3) 0.4258(3) 0.0031(2)
H11 H 0.16340 0.41290 -0.03040
H12 H 0.31690 0.46920 -0.06100
H13 H 0.18340 0.47940 0.06380
C21 C 0.3024(3) 0.2270(2) 0.47762(19)
H14 H 0.32990 0.14420 0.52800
H15 H 0.19220 0.25880 0.50960
H16 H 0.36070 0.29000 0.47720
C22 C 0.6594(2) 0.16056(17) 0.07519(16)
C23 C 0.7621(2) 0.2382(2) 0.05981(19)
H17 H 0.73470 0.29940 0.10970
C24 C 0.9051(2) 0.2288(2) -0.0274(2)
H18 H 0.97570 0.28250 -0.03750
C25 C 0.9423(2) 0.13973(19) -0.09912(17)
C26 C 0.8446(2) 0.0597(2) -0.08547(18)
H19 H 0.87340 -0.00250 -0.13450
C27 C 0.7015(2) 0.07148(19) 0.00222(18)
H20 H 0.63140 0.01740 0.01210
H21 H 0.452(2) 0.3711(18) 0.1070(16)
H22 H 0.462(2) 0.0919(19) 0.1731(16)
#END
