
#######################################################################
#
#                 Cambridge Crystallographic Data Centre
#                                CCDC
#
#######################################################################
#
# If this CIF has been generated from an entry in the Cambridge
# Structural Database, then it will include bibliographic, chemical,
# crystal, experimental, refinement or atomic coordinate data resulting
# from the CCDC's data processing and validation procedures.
#
#######################################################################

data_CSD_CIF_KIBPUJ
_audit_creation_date 2018-04-17
_audit_creation_method CSD-ConQuest-V1
_database_code_CSD KIBPUJ
_database_code_depnum_ccdc_archive 'CCDC 1555312'
_chemical_formula_sum 'C21 H19 N5 O4'
_chemical_formula_moiety
;
C21 H19 N5 O4
;
_journal_coden_Cambridge 122
_journal_volume 53
_journal_year 2017
_journal_page_first 1199
_journal_name_full 'Khim.Get.Soedin.,SSSR(Russ.)(Chem.Heterocycl.Compd.) '
loop_
_publ_author_name
"V.P.Zaytsev"
"D.F.Mertsalov"
"M.A.Nadirova"
"P.V.Dorovatovskii"
"V.N.Khrustalev"
"E.A.Sorokina"
"F.I.Zubkov"
"A.V.Varlamov"
_chemical_name_systematic
;
4-methyl-3-(2-nitrophenyl)-7-phenyl-3,3a,4,5,5a,7,8,8b-octahydro-6H-4,8a-epoxy
[1,2,3]triazolo[4,5-e]isoindol-6-one
;
_cell_volume   1937.489
_exptl_crystal_colour 'yellow'
_exptl_crystal_density_diffrn 1.39
_exptl_crystal_description 'plate'
_diffrn_ambient_temperature 100
_diffrn_radiation_probe x-ray
_diffrn_source synchrotron
#These two values have been output from a single CSD field.
_refine_ls_R_factor_gt 0.0537
_refine_ls_wR_factor_gt 0.0537
_symmetry_cell_setting orthorhombic
_symmetry_space_group_name_H-M 'P 21 21 21'
_symmetry_Int_Tables_number 19
loop_
_symmetry_equiv_pos_site_id
_symmetry_equiv_pos_as_xyz
1 x,y,z
2 1/2-x,-y,1/2+z
3 -x,1/2+y,1/2-z
4 1/2+x,1/2-y,-z
_cell_length_a 8.8358(18)
_cell_length_b 13.074(3)
_cell_length_c 16.772(3)
_cell_angle_alpha 90
_cell_angle_beta 90
_cell_angle_gamma 90
_cell_formula_units_Z 4
loop_
_atom_type_symbol
_atom_type_radius_bond
C 0.68
H 0.23
N 0.68
O 0.68
loop_
_atom_site_label
_atom_site_type_symbol
_atom_site_fract_x
_atom_site_fract_y
_atom_site_fract_z
O1 O 0.5014(3) 0.3297(2) 0.15216(15)
O2 O 0.1475(3) 0.4629(2) 0.58034(17)
O3 O 0.1561(3) 0.4215(2) 0.70629(17)
N1 N 0.3707(4) 0.2389(2) 0.50107(19)
N2 N 0.3632(4) 0.3086(2) 0.55364(18)
N3 N 0.4549(4) 0.3911(2) 0.53534(18)
C1 C 0.5347(5) 0.3766(3) 0.4598(2)
H1 H 0.64700 0.38260 0.46530
C2 C 0.4699(4) 0.4425(3) 0.3904(2)
C3 C 0.5745(5) 0.4251(3) 0.3178(2)
H2 H 0.55000 0.47250 0.27360
H3 H 0.68250 0.43290 0.33240
C4 C 0.5365(4) 0.3133(3) 0.2958(2)
H4 H 0.62670 0.26780 0.30190
C5 C 0.4576(4) 0.2955(3) 0.2166(2)
N4 N 0.3317(4) 0.2353(2) 0.22895(17)
C6 C 0.3095(4) 0.2106(3) 0.3141(2)
H5 H 0.33970 0.13920 0.32570
H6 H 0.20250 0.22040 0.33010
C7 C 0.4116(4) 0.2857(3) 0.3563(2)
C8 C 0.4829(4) 0.2676(3) 0.4383(2)
H7 H 0.56950 0.21850 0.43580
O4 O 0.3364(3) 0.38299(17) 0.36784(14)
C9 C 0.4781(4) 0.4688(3) 0.5922(2)
N5 N 0.2145(4) 0.4557(2) 0.6448(2)
C10 C 0.3708(4) 0.4953(3) 0.6496(2)
C11 C 0.3998(5) 0.5648(3) 0.7103(2)
H8 H 0.32630 0.57720 0.75050
C12 C 0.5370(5) 0.6160(3) 0.7116(2)
H9 H 0.55810 0.66460 0.75220
C13 C 0.6435(5) 0.5954(3) 0.6527(2)
H10 H 0.73600 0.63240 0.65210
C14 C 0.6168(5) 0.5219(3) 0.5948(2)
H11 H 0.69300 0.50710 0.55650
C15 C 0.4268(5) 0.5516(3) 0.4087(2)
H12 H 0.37990 0.58260 0.36160
H13 H 0.51760 0.59040 0.42320
H14 H 0.35490 0.55280 0.45320
C16 C 0.2317(4) 0.1980(3) 0.1682(2)
C17 C 0.1294(5) 0.1200(3) 0.1871(2)
H15 H 0.12630 0.09260 0.23950
C18 C 0.0324(5) 0.0830(3) 0.1287(2)
H16 H -0.03690 0.03000 0.14170
C19 C 0.0343(5) 0.1212(3) 0.0525(2)
H17 H -0.03210 0.09460 0.01310
C20 C 0.1356(5) 0.1998(3) 0.0338(2)
H18 H 0.13740 0.22720 -0.01870
C21 C 0.2330(5) 0.2380(3) 0.0908(2)
H19 H 0.30110 0.29150 0.07750
#END
