
#######################################################################
#
#                 Cambridge Crystallographic Data Centre
#                                CCDC
#
#######################################################################
#
# If this CIF has been generated from an entry in the Cambridge
# Structural Database, then it will include bibliographic, chemical,
# crystal, experimental, refinement or atomic coordinate data resulting
# from the CCDC's data processing and validation procedures.
#
#######################################################################

data_CSD_CIF_KIDXED
_audit_creation_date 2018-04-18
_audit_creation_method CSD-ConQuest-V1
_database_code_CSD KIDXED
_database_code_depnum_ccdc_archive 'CCDC 1838066'
_chemical_formula_sum 'C14 H14 N2 O3'
_chemical_formula_moiety
;
C14 H14 N2 O3
;
_journal_coden_Cambridge 24
_journal_volume 56
_journal_year 2015
_journal_page_first 3141
_journal_name_full 'Tetrahedron Lett. '
loop_
_publ_author_name
"M.O.Jobbins"
"M.W.Majewski"
"A.G.Oliver"
"M.J.Miller"
_chemical_name_systematic
;
3-(benzyloxy)-2-ethenyl-1,3-diazabicyclo[3.2.0]heptane-4,7-dione
;
_cell_volume   1317.557
_exptl_crystal_density_diffrn 1.302
_diffrn_ambient_temperature 120
#These two values have been output from a single CSD field.
_refine_ls_R_factor_gt 0.0261
_refine_ls_wR_factor_gt 0.0261
_symmetry_cell_setting orthorhombic
_symmetry_space_group_name_H-M 'P 21 21 21'
_symmetry_Int_Tables_number 19
loop_
_symmetry_equiv_pos_site_id
_symmetry_equiv_pos_as_xyz
1 x,y,z
2 1/2-x,-y,1/2+z
3 -x,1/2+y,1/2-z
4 1/2+x,1/2-y,-z
_cell_length_a 7.8548(5)
_cell_length_b 7.9507(5)
_cell_length_c 21.0974(13)
_cell_angle_alpha 90
_cell_angle_beta 90
_cell_angle_gamma 90
_cell_formula_units_Z 4
loop_
_atom_type_symbol
_atom_type_radius_bond
C 0.68
H 0.23
N 0.68
O 0.68
loop_
_atom_site_label
_atom_site_type_symbol
_atom_site_fract_x
_atom_site_fract_y
_atom_site_fract_z
N1 N 0.32805(16) 0.35764(15) 0.13673(6)
C1 C 0.39728(19) 0.50383(18) 0.16353(7)
O1 O 0.42491(16) 0.53740(14) 0.21822(5)
C2 C 0.4255(2) 0.58747(18) 0.09912(7)
C3 C 0.37271(19) 0.41461(18) 0.07137(7)
C4 C 0.51287(19) 0.29535(18) 0.05159(7)
O2 O 0.59131(15) 0.29430(14) 0.00190(5)
N2 N 0.53372(16) 0.18644(15) 0.10133(6)
O3 O 0.61600(13) 0.03372(13) 0.09093(5)
C5 C 0.39616(18) 0.19010(17) 0.14964(7)
C6 C 0.26802(19) 0.05258(19) 0.14020(7)
C7 C 0.2539(2) -0.0741(2) 0.18009(8)
C8 C 0.7705(2) 0.0244(2) 0.12894(8)
C9 C 0.83449(18) -0.15202(19) 0.12076(7)
C10 C 0.9077(2) -0.1995(2) 0.06365(7)
C11 C 0.9581(2) -0.3645(2) 0.05315(8)
C12 C 0.9403(2) -0.4822(2) 0.10113(9)
C13 C 0.8730(2) -0.4349(2) 0.15883(9)
C14 C 0.8182(2) -0.2702(2) 0.16867(8)
H1 H 0.54500 0.61990 0.09050
H2 H 0.34570 0.68040 0.08950
H3 H 0.27410 0.41930 0.04140
H4 H 0.44530 0.18490 0.19330
H5 H 0.19490 0.05690 0.10440
H6 H 0.32610 -0.08020 0.21610
H7 H 0.17140 -0.15930 0.17280
H8 H 0.74520 0.04780 0.17410
H9 H 0.85590 0.10670 0.11380
H10 H 0.92350 -0.11800 0.03130
H11 H 1.00460 -0.39640 0.01340
H12 H 0.97430 -0.59550 0.09430
H13 H 0.86400 -0.51500 0.19210
H14 H 0.76970 -0.23900 0.20820
#END
