
#######################################################################
#
#                 Cambridge Crystallographic Data Centre
#                                CCDC
#
#######################################################################
#
# If this CIF has been generated from an entry in the Cambridge
# Structural Database, then it will include bibliographic, chemical,
# crystal, experimental, refinement or atomic coordinate data resulting
# from the CCDC's data processing and validation procedures.
#
#######################################################################

data_CSD_CIF_KIFVAY
_audit_creation_date 2013-05-22
_audit_creation_method CSD-ConQuest-V1
_database_code_CSD KIFVAY
_database_code_depnum_ccdc_archive 'CCDC 884143'
_chemical_formula_sum 'C12 H15 N1 O3'
_chemical_formula_moiety
;
C12 H15 N1 O3
;
_journal_coden_Cambridge 179
_journal_volume 51
_journal_year 2012
_journal_page_first 13144
_journal_name_full 'Angew.Chem.,Int.Ed. '
loop_
_publ_author_name
"G.Sahoo"
"H.Rahaman"
"A.Madarasz"
"I.Papai"
"M.Melarto"
"A.Valkonen"
"P.M.Pihko"
_chemical_name_systematic
;
2-Methyl-4-nitro-3-phenylpentanal
;
_chemical_melting_point 338.65
_cell_volume    576.167
_exptl_crystal_colour 'colorless'
_exptl_crystal_density_diffrn 1.275
_exptl_special_details
;
Melting point range 338.65-339.55K

;
_exptl_crystal_description 'plate'
_diffrn_ambient_temperature 123
#These two values have been output from a single CSD field.
_refine_ls_R_factor_gt 0.0396
_refine_ls_wR_factor_gt 0.0396
_symmetry_cell_setting monoclinic
_symmetry_space_group_name_H-M 'P 21'
_symmetry_Int_Tables_number 4
loop_
_symmetry_equiv_pos_site_id
_symmetry_equiv_pos_as_xyz
1 x,y,z
2 -x,1/2+y,-z
_cell_length_a 6.6458(3)
_cell_length_b 7.0736(3)
_cell_length_c 12.4703(6)
_cell_angle_alpha 90
_cell_angle_beta 100.629(3)
_cell_angle_gamma 90
_cell_formula_units_Z 2
loop_
_atom_type_symbol
_atom_type_radius_bond
C 0.68
H 0.23
N 0.68
O 0.68
loop_
_atom_site_label
_atom_site_type_symbol
_atom_site_fract_x
_atom_site_fract_y
_atom_site_fract_z
O1 O 1.2632(2) 0.3982(3) 0.79812(15)
O2 O 0.5362(2) 0.9190(3) 0.82945(14)
O3 O 0.8319(3) 0.9032(3) 0.93499(15)
N1 N 0.6854(3) 0.8305(3) 0.87473(15)
C1 C 1.1153(4) 0.2986(4) 0.78421(19)
H1 H 1.127(4) 0.169(3) 0.767(2)
C2 C 0.9020(3) 0.3545(3) 0.79768(17)
H2 H 0.88050 0.29610 0.86770
C3 C 0.8828(3) 0.5710(3) 0.81244(16)
H3 H 1.00230 0.61140 0.86880
C4 C 0.6889(3) 0.6177(3) 0.85732(18)
H4 H 0.56660 0.58140 0.80170
C5 C 0.7441(3) 0.2633(3) 0.70770(18)
H5 H 0.60600 0.29930 0.71710
H6 H 0.75810 0.12540 0.71210
H7 H 0.76700 0.30670 0.63630
C6 C 0.6724(4) 0.5250(4) 0.96521(19)
H8 H 0.54400 0.56360 0.98690
H9 H 0.78830 0.56430 1.02130
H10 H 0.67410 0.38720 0.95710
C7 C 0.8933(3) 0.6822(3) 0.70913(16)
C8 C 1.0760(3) 0.7714(3) 0.69847(18)
H11 H 1.19100 0.76240 0.75610
C9 C 1.0930(4) 0.8730(3) 0.6053(2)
H12 H 1.21940 0.93080 0.59920
C10 C 0.9263(4) 0.8899(4) 0.5215(2)
H13 H 0.93730 0.96000 0.45790
C11 C 0.7438(4) 0.8046(4) 0.53079(19)
H14 H 0.62900 0.81660 0.47320
C12 C 0.7257(3) 0.7008(3) 0.62378(17)
H15 H 0.59910 0.64260 0.62900
#END
