
#######################################################################
#
#                 Cambridge Crystallographic Data Centre
#                                CCDC
#
#######################################################################
#
# If this CIF has been generated from an entry in the Cambridge
# Structural Database, then it will include bibliographic, chemical,
# crystal, experimental, refinement or atomic coordinate data resulting
# from the CCDC's data processing and validation procedures.
#
#######################################################################

data_CSD_CIF_KIGZEG
_audit_creation_date 2007-10-25
_audit_creation_method CSD-ConQuest-V1
_database_code_CSD KIGZEG
_database_code_depnum_ccdc_archive 'CCDC 650948'
_chemical_formula_sum 'C25 H26 N2 O5'
_chemical_formula_moiety
;
C25 H26 N2 O5
;
_journal_coden_Cambridge 1336
_journal_volume 9
_journal_year 2007
_journal_page_first 2107
_journal_name_full 'Org.Lett. '
loop_
_publ_author_name
"P.S.Hynes"
"D.Stranges"
"P.A.Stupple"
"A.Guarna"
"D.J.Dixon"
_chemical_name_systematic
;
(2R,3R)-2-Hydroxy-N-((R)-1-(4-methoxyphenyl)ethyl)-4-nitro-2,3-diphenylbutanam
ide
;
_chemical_melting_point 498.15
_cell_volume   1161.854
_exptl_crystal_density_diffrn 1.242
_exptl_special_details
;
Melting point range 498.15-500.15K

;
_exptl_crystal_preparation 'methanol'
_diffrn_ambient_temperature 295
#These two values have been output from a single CSD field.
_refine_ls_R_factor_gt 0.0658
_refine_ls_wR_factor_gt 0.0658
_symmetry_cell_setting monoclinic
_symmetry_space_group_name_H-M 'P 21'
_symmetry_Int_Tables_number 4
loop_
_symmetry_equiv_pos_site_id
_symmetry_equiv_pos_as_xyz
1 x,y,z
2 -x,1/2+y,-z
_cell_length_a 5.956(2)
_cell_length_b 16.325(7)
_cell_length_c 12.140(5)
_cell_angle_alpha 90
_cell_angle_beta 100.168(7)
_cell_angle_gamma 90
_cell_formula_units_Z 2
loop_
_atom_type_symbol
_atom_type_radius_bond
C 0.68
H 0.23
N 0.68
O 0.68
loop_
_atom_site_label
_atom_site_type_symbol
_atom_site_fract_x
_atom_site_fract_y
_atom_site_fract_z
O1 O 0.4459(7) 0.2121(3) 1.0124(3)
O2 O -0.3019(5) 0.2776(2) 0.3958(2)
O3 O 0.2887(4) 0.3158(2) 0.4413(2)
O4 O 0.4465(7) 0.0704(2) 0.2158(3)
O5 O 0.0876(7) 0.0770(2) 0.1604(3)
N1 N -0.0457(5) 0.3210(2) 0.5424(3)
N2 N 0.2679(8) 0.1072(2) 0.2046(3)
C1 C 0.6187(10) 0.1553(5) 0.9968(5)
C2 C 0.2854(10) 0.2325(3) 0.9177(4)
C3 C 0.2333(11) 0.1864(4) 0.8276(5)
C4 C 0.0735(11) 0.2141(3) 0.7370(4)
C5 C -0.0341(8) 0.2876(3) 0.7361(3)
C6 C 0.0212(9) 0.3338(3) 0.8326(4)
C7 C 0.1797(10) 0.3053(4) 0.9245(4)
C8 C -0.1861(7) 0.3169(3) 0.6305(3)
C9 C -0.1037(7) 0.2981(2) 0.4374(3)
C10 C 0.0875(6) 0.2924(2) 0.3671(3)
C11 C 0.0923(6) 0.2018(2) 0.3265(3)
C12 C 0.2652(7) 0.1935(2) 0.2479(3)
C13 C -0.3087(8) 0.3973(3) 0.6422(4)
C14 C 0.0385(7) 0.3519(3) 0.2679(4)
C15 C 0.1915(8) 0.4117(3) 0.2535(4)
C16 C 0.1525(13) 0.4666(3) 0.1662(5)
C17 C -0.0449(13) 0.4624(4) 0.0895(5)
C18 C -0.2029(10) 0.4020(4) 0.0999(4)
C19 C -0.1610(8) 0.3473(3) 0.1879(4)
C20 C 0.1327(7) 0.1403(2) 0.4220(3)
C21 C -0.0443(8) 0.0899(3) 0.4423(4)
C22 C -0.0134(9) 0.0340(3) 0.5288(4)
C23 C 0.1943(10) 0.0264(3) 0.5963(4)
C24 C 0.3750(8) 0.0745(3) 0.5781(4)
C25 C 0.3441(7) 0.1308(3) 0.4913(4)
H1 H 0.40070 0.30010 0.41640
H2 H 0.08950 0.34060 0.56170
H3 H 0.74140 0.15790 1.05970
H4 H 0.67510 0.16880 0.92970
H5 H 0.55630 0.10100 0.99060
H6 H 0.30270 0.13560 0.82450
H7 H 0.03920 0.18070 0.67430
H8 H -0.04760 0.38450 0.83690
H9 H 0.21180 0.33630 0.98970
H10 H -0.30280 0.27490 0.60840
H11 H -0.05830 0.19000 0.28230
H12 H 0.22580 0.23100 0.18550
H13 H 0.41590 0.20790 0.28760
H14 H -0.40920 0.40950 0.57330
H15 H -0.19870 0.44050 0.65940
H16 H -0.39570 0.39260 0.70140
H17 H 0.32720 0.41530 0.30460
H18 H 0.26040 0.50660 0.15950
H19 H -0.07280 0.49980 0.03090
H20 H -0.33700 0.39820 0.04770
H21 H -0.26760 0.30670 0.19410
H22 H -0.18650 0.09400 0.39650
H23 H -0.13460 0.00140 0.54120
H24 H 0.21440 -0.01130 0.65460
H25 H 0.51680 0.06920 0.62400
H26 H 0.46660 0.16280 0.47900
#END
