
#######################################################################
#
#                 Cambridge Crystallographic Data Centre
#                                CCDC
#
#######################################################################
#
# If this CIF has been generated from an entry in the Cambridge
# Structural Database, then it will include bibliographic, chemical,
# crystal, experimental, refinement or atomic coordinate data resulting
# from the CCDC's data processing and validation procedures.
#
#######################################################################

data_CSD_CIF_KIHTEC
_audit_creation_date 2013-09-07
_audit_creation_method CSD-ConQuest-V1
_database_code_CSD KIHTEC
_database_code_depnum_ccdc_archive 'CCDC 873834'
_chemical_formula_sum 'C22 H40 N1 O5'
_chemical_formula_moiety
;
C22 H40 N1 O5
;
_journal_coden_Cambridge 35
_journal_volume 77
_journal_year 2012
_journal_page_first 10688
_journal_name_full 'J.Org.Chem. '
loop_
_publ_author_name
"D.A.Morozov"
"I.A.Kirilyuk"
"D.A.Komarov"
"A.Goti"
"I.Yu.Bagryanskaya"
"N.V.Kuratieva"
"I.A.Grigor'ev"
_chemical_name_systematic
;
12,13-Di-t-butoxy-1,8-bis(hydroxymethyl)-6-azadispiro[4.1.4.2]tridecane 
6-oxide
;
_cell_volume   1118.727
_exptl_crystal_colour 'yellow'
_exptl_crystal_density_diffrn 1.183
_exptl_crystal_description 'plate'
_diffrn_ambient_temperature 150
_refine_special_details
;
C42A and C42B disordered over two sites with occupancies 0.698:0.302.

;
#These two values have been output from a single CSD field.
_refine_ls_R_factor_gt 0.0385
_refine_ls_wR_factor_gt 0.0385
_symmetry_cell_setting monoclinic
_symmetry_space_group_name_H-M 'P 21'
_symmetry_Int_Tables_number 4
loop_
_symmetry_equiv_pos_site_id
_symmetry_equiv_pos_as_xyz
1 x,y,z
2 -x,1/2+y,-z
_cell_length_a 10.3054(4)
_cell_length_b 10.0632(4)
_cell_length_c 10.8269(3)
_cell_angle_alpha 90
_cell_angle_beta 94.886(1)
_cell_angle_gamma 90
_cell_formula_units_Z 2
loop_
_atom_type_symbol
_atom_type_radius_bond
C 0.68
H 0.23
N 0.68
O 0.68
loop_
_atom_site_label
_atom_site_type_symbol
_atom_site_fract_x
_atom_site_fract_y
_atom_site_fract_z
O1 O 0.49536(12) 0.42833(14) 0.56819(12)
N1 N 0.40482(13) 0.48147(14) 0.62516(12)
C1 C 0.40979(15) 0.48472(16) 0.76276(14)
C2 C 0.27143(14) 0.53781(15) 0.78126(13)
H1 H 0.27030 0.58790 0.86090
C3 C 0.24088(14) 0.63051(14) 0.66783(13)
H2 H 0.14540 0.64870 0.65280
C4 C 0.29304(14) 0.55205(15) 0.55927(13)
C5 C 0.4426(2) 0.34688(19) 0.81806(18)
H3 H 0.36230 0.29490 0.82670
H4 H 0.49920 0.29680 0.76510
C6 C 0.5135(2) 0.3753(3) 0.9445(2)
H5 H 0.56630 0.29800 0.97490
H6 H 0.45110 0.39780 1.00600
C7 C 0.6004(2) 0.4946(3) 0.9201(2)
H7 H 0.68260 0.46480 0.88790
H8 H 0.62150 0.54590 0.99720
C8 C 0.52049(16) 0.57943(19) 0.82315(15)
H9 H 0.47650 0.65020 0.86930
O2 O 0.69682(12) 0.56416(14) 0.68175(13)
H10 H 0.646(2) 0.521(2) 0.6330(19)
C9 C 0.60730(16) 0.64952(19) 0.73604(16)
H11 H 0.55120 0.69280 0.66890
H12 H 0.65690 0.72030 0.78280
O3 O 0.18067(11) 0.43118(12) 0.77546(10)
C10 C 0.08756(16) 0.42038(19) 0.86850(15)
C11 C 0.0063(2) 0.5463(2) 0.8752(2)
H13 H -0.03140 0.56990 0.79200
H14 H 0.06190 0.61910 0.90880
H15 H -0.06370 0.53100 0.92930
C12 C 0.1573(2) 0.3886(3) 0.99459(18)
H16 H 0.21330 0.46340 1.02220
H17 H 0.21060 0.30860 0.98810
H18 H 0.09280 0.37330 1.05460
C13 C 0.0025(2) 0.3052(3) 0.8213(2)
H19 H 0.05630 0.22540 0.81580
H20 H -0.03930 0.32680 0.73910
H21 H -0.06440 0.28880 0.87860
O4 O 0.31349(10) 0.74938(10) 0.68782(10)
C14 C 0.24503(15) 0.87486(15) 0.69562(15)
C15 C 0.16148(17) 0.87402(17) 0.80604(16)
H22 H 0.21490 0.84650 0.88090
H23 H 0.08900 0.81160 0.78970
H24 H 0.12710 0.96340 0.81810
C16 C 0.35520(18) 0.97526(17) 0.71484(18)
H25 H 0.40410 0.97740 0.64110
H26 H 0.41350 0.94950 0.78710
H27 H 0.31900 1.06350 0.72860
C17 C 0.16077(17) 0.90513(19) 0.57623(17)
H28 H 0.09120 0.83880 0.56420
H29 H 0.21460 0.90230 0.50590
H30 H 0.12230 0.99380 0.58180
C18 C 0.33981(17) 0.63728(17) 0.45313(15)
H31 H 0.43580 0.64660 0.46170
H32 H 0.30010 0.72690 0.45250
C19 C 0.2939(3) 0.5596(5) 0.3328(2)
H33 H 0.28180 0.62040 0.26080
H34 H 0.35780 0.49020 0.31500
C20 C 0.1687(2) 0.4993(2) 0.35975(18)
H35 H 0.14680 0.42330 0.30380
H36 H 0.09750 0.56550 0.34940
C21 C 0.18919(15) 0.45291(16) 0.49485(14)
H37 H 0.10550 0.46440 0.53410
O5 O 0.13173(14) 0.22706(14) 0.43923(15)
H38 H 0.175(2) 0.179(2) 0.395(2)
C22 C 0.22892(18) 0.30844(19) 0.50550(19)
H39 H 0.31380 0.29570 0.47070
H40 H 0.23870 0.28190 0.59390
C23? C 0.2498(12) 0.6288(12) 0.3534(7)
H41? H 0.29450 0.62950 0.27600
H42? H 0.19110 0.70670 0.35220
#END
