
#######################################################################
#
#                 Cambridge Crystallographic Data Centre
#                                CCDC
#
#######################################################################
#
# If this CIF has been generated from an entry in the Cambridge
# Structural Database, then it will include bibliographic, chemical,
# crystal, experimental, refinement or atomic coordinate data resulting
# from the CCDC's data processing and validation procedures.
#
#######################################################################

data_CSD_CIF_KIHXEG
_audit_creation_date 2013-09-07
_audit_creation_method CSD-ConQuest-V1
_database_code_CSD KIHXEG
_database_code_depnum_ccdc_archive 'CCDC 865991'
_chemical_formula_sum 'C29 H25 N5 O1'
_chemical_formula_moiety
;
C29 H25 N5 O1
;
_journal_coden_Cambridge 122
_journal_year 2012
_journal_page_first 1301
_journal_name_full 'Khim.Get.Soedin.,SSSR(Russ.)(Chem.Heterocycl.Compd.) '
loop_
_publ_author_name
"M.V.Varaksin"
"I.A.Utepova"
"O.N.Chupakhin"
_chemical_name_systematic
;
2-(3,6-Diphenyl-1,2,4-triazin-5-yl)-3-phenyl-1,4-diazaspiro[4.5]deca-1,3-diene
 1-oxide
;
_cell_volume   2479.482
_exptl_crystal_colour 'yellow'
_exptl_crystal_density_diffrn 1.231
_exptl_crystal_description 'prism'
_diffrn_ambient_temperature 295
#These two values have been output from a single CSD field.
_refine_ls_R_factor_gt 0.0306
_refine_ls_wR_factor_gt 0.0306
_symmetry_cell_setting orthorhombic
_symmetry_space_group_name_H-M 'P n a 21'
_symmetry_Int_Tables_number 33
loop_
_symmetry_equiv_pos_site_id
_symmetry_equiv_pos_as_xyz
1 x,y,z
2 -x,-y,1/2+z
3 1/2+x,1/2-y,z
4 1/2-x,1/2+y,1/2+z
_cell_length_a 17.2482(11)
_cell_length_b 9.5284(7)
_cell_length_c 15.0868(9)
_cell_angle_alpha 90
_cell_angle_beta 90
_cell_angle_gamma 90
_cell_formula_units_Z 4
loop_
_atom_type_symbol
_atom_type_radius_bond
C 0.68
H 0.23
N 0.68
O 0.68
loop_
_atom_site_label
_atom_site_type_symbol
_atom_site_fract_x
_atom_site_fract_y
_atom_site_fract_z
O1 O 0.06519(8) 0.54448(13) 0.37802(10)
N1 N 0.12811(10) 0.47599(15) 0.37088(11)
N2 N 0.14977(9) 0.36900(16) 0.57684(11)
C1 C 0.16075(11) 0.4798(2) 0.52595(14)
C2 C 0.23943(11) 0.36510(18) 0.39076(13)
C3 C 0.12495(12) 0.3944(2) 0.66060(14)
C4 C 0.31078(12) 0.31778(19) 0.43474(14)
N3 N 0.11279(11) 0.5227(2) 0.69318(11)
N4 N 0.12581(12) 0.63416(18) 0.64147(12)
C5 C 0.17867(11) 0.44656(18) 0.43276(14)
C6 C 0.14995(12) 0.6176(2) 0.55763(15)
N5 N 0.2260(1) 0.34380(15) 0.30672(11)
C7 C 0.11348(13) 0.8586(2) 0.51501(15)
H1 H 0.07320 0.85480 0.55590
C8 C 0.33736(13) 0.3793(2) 0.51263(15)
H2 H 0.30810 0.44930 0.53970
C9 C 0.15376(12) 0.4101(2) 0.28445(14)
C10 C 0.10660(12) 0.2734(2) 0.71677(14)
C11 C 0.16242(14) 0.7446(2) 0.50465(14)
C12 C 0.10520(16) 0.0248(3) 0.74213(16)
H3 H 0.11870 -0.06530 0.72420
C13 C 0.42445(14) 0.1728(2) 0.43430(18)
H4 H 0.45390 0.10260 0.40780
C14 C 0.12589(13) 0.1384(2) 0.69099(15)
H5 H 0.15310 0.12430 0.63850
C15 C 0.35573(12) 0.2142(2) 0.39612(14)
H6 H 0.33930 0.17210 0.34380
C16 C 0.12442(16) 0.9779(3) 0.46467(19)
H7 H 0.09140 1.05430 0.47180
C17 C 0.23310(14) 0.8737(3) 0.39483(16)
H8 H 0.27390 0.87940 0.35470
C18 C 0.16383(13) 0.5251(2) 0.21581(14)
H9 H 0.20640 0.58560 0.23320
H10 H 0.11710 0.58170 0.21340
C19 C 0.22263(14) 0.7544(2) 0.44426(16)
H11 H 0.25640 0.67920 0.43710
C20 C 0.09181(13) 0.3047(2) 0.25701(14)
H12 H 0.09020 0.22850 0.29960
H13 H 0.04150 0.35010 0.25690
C21 C 0.40656(14) 0.3379(3) 0.55021(15)
H14 H 0.42400 0.38010 0.60210
C22 C 0.06494(15) 0.0439(3) 0.81891(18)
H15 H 0.05030 -0.03300 0.85300
C23 C 0.06709(14) 0.2917(3) 0.79540(17)
H16 H 0.05460 0.38170 0.81450
C24 C 0.11715(17) 0.3639(3) 0.09715(16)
H17 H 0.12950 0.32420 0.03970
H18 H 0.06840 0.41410 0.09190
C25 C 0.18313(17) 0.9845(3) 0.40476(19)
H19 H 0.18950 1.06460 0.37030
C26 C 0.18010(15) 0.4642(3) 0.12452(15)
H20 H 0.18360 0.53970 0.08160
H21 H 0.22950 0.41540 0.12540
C27 C 0.10875(16) 0.2460(3) 0.16516(15)
H22 H 0.06690 0.18400 0.14740
H23 H 0.15620 0.19150 0.16700
C28 C 0.04608(15) 0.1777(3) 0.84577(17)
H24 H 0.01890 0.19100 0.89840
C29 C 0.44961(13) 0.2338(3) 0.51058(19)
H25 H 0.49610 0.20500 0.53600
#END
