
#######################################################################
#
#                 Cambridge Crystallographic Data Centre
#                                CCDC
#
#######################################################################
#
# If this CIF has been generated from an entry in the Cambridge
# Structural Database, then it will include bibliographic, chemical,
# crystal, experimental, refinement or atomic coordinate data resulting
# from the CCDC's data processing and validation procedures.
#
#######################################################################

data_CSD_CIF_KIHZUX
_audit_creation_date 2007-10-25
_audit_creation_method CSD-ConQuest-V1
_database_code_CSD KIHZUX
_database_code_depnum_ccdc_archive 'CCDC 656686'
_chemical_formula_sum 'C12 H11 N1 O5'
_chemical_formula_moiety
;
C12 H11 N1 O5
;
_journal_coden_Cambridge 16
_journal_volume 63
_journal_year 2007
_journal_page_first 5593
_journal_name_full 'Tetrahedron '
loop_
_publ_author_name
"A.T.Khan"
"T.Parvin"
"L.H.Choudhury"
_chemical_name_systematic
;
Methyl (Z)-2-(3-nitrobenzylidene)acetoacetate
;
_chemical_melting_point 424.15
_cell_volume   1165.197
_exptl_crystal_colour 'colorless'
_exptl_crystal_density_diffrn 1.421
_exptl_special_details
;
Melting point range 424.15-425.15K

;
_exptl_crystal_description 'blocks'
_exptl_crystal_preparation 'ethyl acetate/hexane'
_diffrn_ambient_temperature 296
#These two values have been output from a single CSD field.
_refine_ls_R_factor_gt 0.0401
_refine_ls_wR_factor_gt 0.0401
_symmetry_cell_setting monoclinic
_symmetry_space_group_name_H-M 'P 21/c'
_symmetry_Int_Tables_number 14
loop_
_symmetry_equiv_pos_site_id
_symmetry_equiv_pos_as_xyz
1 x,y,z
2 -x,1/2+y,1/2-z
3 -x,-y,-z
4 x,-1/2-y,-1/2+z
_cell_length_a 8.1700(2)
_cell_length_b 12.7153(4)
_cell_length_c 11.2206(3)
_cell_angle_alpha 90
_cell_angle_beta 91.581(2)
_cell_angle_gamma 90
_cell_formula_units_Z 4
loop_
_atom_type_symbol
_atom_type_radius_bond
C 0.68
H 0.23
N 0.68
O 0.68
loop_
_atom_site_label
_atom_site_type_symbol
_atom_site_fract_x
_atom_site_fract_y
_atom_site_fract_z
C1 C 0.19870(16) 0.03575(10) 0.32847(11)
C2 C 0.25289(16) 0.09767(11) 0.06691(11)
C3 C 0.24475(16) 0.0000(1) 0.44196(11)
H1 H 0.32050 0.03740 0.48860
C4 C 0.30761(16) 0.16112(10) 0.17385(11)
C5 C 0.40302(17) 0.25702(11) 0.14597(11)
C6 C 0.27922(16) 0.13117(11) 0.28619(11)
H2 H 0.31570 0.17740 0.34540
C7 C 0.17670(17) -0.09140(11) 0.48423(11)
C8 C 0.01550(18) -0.11300(13) 0.30810(13)
H3 H -0.06160 -0.15040 0.26270
C9 C 0.06254(19) -0.14931(12) 0.41962(14)
H4 H 0.01870 -0.21080 0.45030
C10 C 0.08122(17) -0.02184(12) 0.26292(12)
H5 H 0.04700 0.00170 0.18780
C11 C 0.4631(2) 0.32843(13) 0.24408(14)
H6 H 0.55350 0.29590 0.28630
H7 H 0.37620 0.34120 0.29810
H8 H 0.49800 0.39390 0.21070
C12 C 0.2792(2) -0.06455(13) -0.03167(15)
H9 H 0.16550 -0.08110 -0.02330
H10 H 0.34280 -0.12790 -0.02650
H11 H 0.29460 -0.03190 -0.10770
O1 O 0.33166(11) 0.00696(8) 0.06263(8)
O2 O 0.14959(14) 0.12584(9) -0.00490(9)
O3 O 0.43661(15) 0.27509(9) 0.04293(9)
O4 O 0.33313(17) -0.07852(10) 0.65881(10)
O5 O 0.1622(2) -0.20489(12) 0.64415(13)
N1 N 0.22785(17) -0.12747(11) 0.60418(12)
#END
