
#######################################################################
#
#                 Cambridge Crystallographic Data Centre
#                                CCDC
#
#######################################################################
#
# If this CIF has been generated from an entry in the Cambridge
# Structural Database, then it will include bibliographic, chemical,
# crystal, experimental, refinement or atomic coordinate data resulting
# from the CCDC's data processing and validation procedures.
#
#######################################################################

data_CSD_CIF_KIJCUE
_audit_creation_date 2018-09-12
_audit_creation_method CSD-ConQuest-V1
_database_code_CSD KIJCUE
_database_code_depnum_ccdc_archive 'CCDC 1822024'
_chemical_formula_sum 'C4 H5 N7 O6'
_chemical_formula_moiety
;
C4 H5 N7 O6
;
_journal_coden_Cambridge 35
_journal_volume 83
_journal_year 2018
_journal_page_first 10505
_journal_name_full 'J.Org.Chem. '
loop_
_publ_author_name
"T.M.Klapotke"
"B.Krumm"
"T.Reith"
"C.C.Unger"
_chemical_name_systematic
;
1-(3,3,3-trinitropropyl)-1H-tetrazole
;
_cell_volume    936.455
_exptl_crystal_colour 'yellow'
_exptl_crystal_density_diffrn 1.753
_exptl_crystal_description 'platelet'
_diffrn_ambient_temperature 143
#These two values have been output from a single CSD field.
_refine_ls_R_factor_gt 0.0449
_refine_ls_wR_factor_gt 0.0449
_symmetry_cell_setting monoclinic
_symmetry_space_group_name_H-M 'P 21/c'
_symmetry_Int_Tables_number 14
loop_
_symmetry_equiv_pos_site_id
_symmetry_equiv_pos_as_xyz
1 x,y,z
2 -x,1/2+y,1/2-z
3 -x,-y,-z
4 x,-1/2-y,-1/2+z
_cell_length_a 11.0691(16)
_cell_length_b 7.7257(9)
_cell_length_c 12.030(2)
_cell_angle_alpha 90
_cell_angle_beta 114.457(19)
_cell_angle_gamma 90
_cell_formula_units_Z 4
loop_
_atom_type_symbol
_atom_type_radius_bond
C 0.68
H 0.23
N 0.68
O 0.68
loop_
_atom_site_label
_atom_site_type_symbol
_atom_site_fract_x
_atom_site_fract_y
_atom_site_fract_z
N1 N 0.19148(15) 0.7448(2) 0.77792(14)
O1 O 0.02669(12) 0.8302(2) 0.96609(13)
N2 N 0.21629(16) 0.5563(2) 0.94892(14)
O2 O 0.19201(13) 0.88769(19) 0.73551(11)
O3 O -0.03807(12) 0.7508(2) 0.77715(12)
N3 N 0.35574(13) 1.1461(2) 1.08504(13)
N4 N 0.48522(15) 1.1765(2) 1.11659(15)
N5 N 0.04597(15) 0.7790(2) 0.87976(15)
O4 O 0.18934(14) 0.6060(2) 0.72988(13)
N6 N 0.52810(15) 1.2559(2) 1.22028(15)
O5 O 0.33039(14) 0.50833(19) 0.98212(15)
O6 O 0.12355(13) 0.47272(19) 0.94893(13)
N7 N 0.42952(16) 1.2791(2) 1.25828(15)
C1 C 0.2749(2) 1.0554(3) 0.97183(18)
C2 C 0.28906(19) 0.8609(3) 0.99709(17)
C3 C 0.3246(2) 1.2100(3) 1.17221(18)
C4 C 0.19037(17) 0.7443(2) 0.90397(16)
H1 H 0.2800(16) 0.834(3) 1.0687(17)
H2 H 0.3705(19) 0.824(3) 1.0038(16)
H3 H 0.1862(18) 1.091(3) 0.9490(16)
H4 H 0.3072(18) 1.091(3) 0.9133(18)
H5 H 0.241(2) 1.203(3) 1.1683(18)
#END
