
#######################################################################
#
#                 Cambridge Crystallographic Data Centre
#                                CCDC
#
#######################################################################
#
# If this CIF has been generated from an entry in the Cambridge
# Structural Database, then it will include bibliographic, chemical,
# crystal, experimental, refinement or atomic coordinate data resulting
# from the CCDC's data processing and validation procedures.
#
#######################################################################

data_CSD_CIF_KIJDAJ
_audit_creation_date 2007-10-25
_audit_creation_method CSD-ConQuest-V1
_database_code_CSD KIJDAJ
_database_code_depnum_ccdc_archive 'CCDC 632054'
_chemical_formula_sum 'C25 H28 N2 O1'
_chemical_formula_moiety
;
C25 H28 N2 O1
;
_journal_coden_Cambridge 1366
_journal_volume 349
_journal_year 2007
_journal_page_first 1751
_journal_name_full 'Adv.Synth.Catal. '
loop_
_publ_author_name
"D.Carmona"
"M.P.Lamata"
"F.Viguri"
"R.Rodriguez"
"T.Fischer"
"F.J.Lahoz"
"I.T.Dobrinovitch"
"L.A.Oro"
_chemical_name_systematic
;
(1R)-2,3-Diphenyl-5-methyl-4-((1-phenylethylamino)methyl)isoxazolidine
;
_cell_volume   2037.928
_exptl_crystal_colour 'colorless'
_exptl_crystal_density_diffrn 1.214
_exptl_special_details
;
Absolute configuration

;
_exptl_crystal_description 'plate'
_exptl_crystal_preparation 'dichloromethane/hexane'
_diffrn_ambient_temperature 100
#These two values have been output from a single CSD field.
_refine_ls_R_factor_gt 0.0546
_refine_ls_wR_factor_gt 0.0546
_symmetry_cell_setting orthorhombic
_symmetry_space_group_name_H-M 'P 21 21 21'
_symmetry_Int_Tables_number 19
loop_
_symmetry_equiv_pos_site_id
_symmetry_equiv_pos_as_xyz
1 x,y,z
2 1/2-x,-y,1/2+z
3 -x,1/2+y,1/2-z
4 1/2+x,1/2-y,-z
_cell_length_a 8.5475(14)
_cell_length_b 9.4444(15)
_cell_length_c 25.245(4)
_cell_angle_alpha 90
_cell_angle_beta 90
_cell_angle_gamma 90
_cell_formula_units_Z 4
loop_
_atom_type_symbol
_atom_type_radius_bond
C 0.68
H 0.23
N 0.68
O 0.68
loop_
_atom_site_label
_atom_site_type_symbol
_atom_site_fract_x
_atom_site_fract_y
_atom_site_fract_z
O1 O 0.8435(2) 1.10233(18) 0.89988(6)
N1 N 0.7655(3) 1.0653(2) 0.94875(8)
N2 N 1.0184(3) 0.6705(2) 0.86261(8)
H1 H 1.115(4) 0.679(3) 0.8761(10)
C1 C 0.6038(3) 1.0985(3) 0.94658(10)
C2 C 0.5295(3) 1.1534(3) 0.90191(10)
H2 H 0.591(3) 1.168(3) 0.8712(11)
C3 C 0.3709(3) 1.1825(3) 0.90332(11)
H3 H 0.320(3) 1.218(3) 0.8715(10)
C4 C 0.2837(3) 1.1593(3) 0.94865(12)
H4 H 0.179(3) 1.179(3) 0.9479(10)
C5 C 0.3590(3) 1.1096(3) 0.99344(10)
H5 H 0.296(3) 1.095(3) 1.0253(10)
C6 C 0.5159(3) 1.0790(3) 0.99279(10)
H6 H 0.571(3) 1.042(3) 1.0248(10)
C7 C 0.7993(3) 0.9124(3) 0.95936(10)
H7 H 0.710(3) 0.861(2) 0.9549(9)
C8 C 0.8578(3) 0.8861(3) 1.01502(9)
C9 C 0.9499(3) 0.9841(3) 1.04213(10)
H8 H 0.968(3) 1.071(3) 1.0258(9)
C10 C 1.0066(3) 0.9521(3) 1.09216(10)
H9 H 1.064(3) 1.026(3) 1.1119(9)
C11 C 0.9730(3) 0.8228(3) 1.11608(11)
H10 H 1.008(3) 0.801(3) 1.1547(11)
C12 C 0.8825(3) 0.7252(3) 1.08928(11)
H11 H 0.862(4) 0.633(3) 1.1049(11)
C13 C 0.8235(3) 0.7569(3) 1.03925(10)
H12 H 0.759(3) 0.690(3) 1.0196(10)
C14 C 0.9166(3) 0.8710(3) 0.91637(10)
H13 H 1.021(3) 0.891(3) 0.9274(9)
C15 C 0.8741(3) 0.9717(3) 0.8718(1)
H14 H 0.778(3) 0.945(3) 0.8535(10)
C16 C 0.9998(4) 1.0045(4) 0.83182(11)
H15 H 1.098(3) 1.041(3) 0.8475(9)
H16 H 1.028(3) 0.921(3) 0.8121(11)
H17 H 0.959(3) 1.072(3) 0.8063(11)
C17 C 0.9064(3) 0.7140(3) 0.90308(11)
H18 H 0.798(4) 0.695(3) 0.8893(10)
H19 H 0.917(3) 0.658(3) 0.9353(10)
C18 C 0.9983(4) 0.5241(3) 0.84543(10)
H20 H 0.983(4) 0.461(3) 0.8768(11)
C19 C 1.1466(4) 0.4757(4) 0.81651(13)
H21 H 1.237(3) 0.477(3) 0.8380(9)
H22 H 1.130(4) 0.375(4) 0.8033(13)
H23 H 1.166(4) 0.544(3) 0.7844(12)
C20 C 0.8577(3) 0.5088(3) 0.80902(9)
C21 C 0.7895(4) 0.3771(3) 0.80234(11)
H24 H 0.824(4) 0.302(3) 0.8236(11)
C22 C 0.6672(4) 0.3579(4) 0.76660(12)
H25 H 0.621(3) 0.268(3) 0.7624(10)
C23 C 0.6114(4) 0.4715(4) 0.73779(12)
H26 H 0.526(4) 0.460(3) 0.7137(12)
C24 C 0.6775(3) 0.6031(4) 0.74486(11)
H27 H 0.643(3) 0.682(3) 0.7261(10)
C25 C 0.8000(3) 0.6221(3) 0.77967(10)
H28 H 0.848(3) 0.718(3) 0.7837(10)
#END
