
#######################################################################
#
#                 Cambridge Crystallographic Data Centre
#                                CCDC
#
#######################################################################
#
# If this CIF has been generated from an entry in the Cambridge
# Structural Database, then it will include bibliographic, chemical,
# crystal, experimental, refinement or atomic coordinate data resulting
# from the CCDC's data processing and validation procedures.
#
#######################################################################

data_CSD_CIF_KIKFOZ01
_audit_creation_date 1999-07-19
_audit_creation_method CSD-ConQuest-V1
_database_code_CSD KIKFOZ01
_database_code_depnum_ccdc_archive 'CCDC 115413'
_chemical_formula_sum 'C26 H20 N5 O2'
_chemical_formula_moiety
;
C26 H20 N5 O2
;
_journal_coden_Cambridge 1278
_journal_volume 101
_journal_year 1997
_journal_page_first 9517
_journal_name_full 'J.Phys.Chem.B '
loop_
_publ_author_name
"M.Mito"
"K.Takeda"
"K.Mukai"
"N.Azuma"
"M.R.Gleiter"
"C.Krieger"
"F.A.Neugebauer"
_chemical_name_systematic
;
3-(4-Nitrophenyl)-1,5,6-triphenylverdazyl
;
_cell_volume   1094.414
_exptl_crystal_colour 'dark brown-purple'
_exptl_crystal_density_diffrn 1.32
_exptl_crystal_description 'platelet'
_exptl_crystal_preparation 'toluene'
_diffrn_ambient_temperature ?
_diffrn_special_details
;
The study was carried out at room temperature,in the range 283-303K

;
#These two values have been output from a single CSD field.
_refine_ls_R_factor_gt 0.048
_refine_ls_wR_factor_gt 0.048
_symmetry_cell_setting triclinic
_symmetry_space_group_name_H-M 'P -1'
_symmetry_Int_Tables_number 2
loop_
_symmetry_equiv_pos_site_id
_symmetry_equiv_pos_as_xyz
1 x,y,z
2 -x,-y,-z
_cell_length_a 6.596(2)
_cell_length_b 12.755(4)
_cell_length_c 13.160(4)
_cell_angle_alpha 87.24(2)
_cell_angle_beta 84.16(2)
_cell_angle_gamma 83.90(2)
_cell_formula_units_Z 2
loop_
_atom_type_symbol
_atom_type_radius_bond
C 0.68
H 0.23
N 0.68
O 0.68
loop_
_atom_site_label
_atom_site_type_symbol
_atom_site_fract_x
_atom_site_fract_y
_atom_site_fract_z
N1 N 0.6829(5) 0.2306(3) 0.1339(2)
N2 N 0.5037(5) 0.2930(3) 0.1350(2)
C1 C 0.4193(6) 0.3167(3) 0.2293(3)
N3 N 0.5040(5) 0.2976(3) 0.3166(2)
N4 N 0.6828(5) 0.2339(2) 0.3096(2)
C2 C 0.7194(6) 0.1629(3) 0.2237(3)
N5 N -0.3597(6) 0.5583(3) 0.2557(3)
O1 O -0.4563(5) 0.5661(3) 0.1827(3)
O2 O -0.4214(6) 0.5976(3) 0.3371(3)
C3 C 0.8108(6) 0.2236(3) 0.0413(3)
C4 C 0.7689(6) 0.2932(3) -0.0397(3)
C5 C 0.8975(7) 0.2906(4) -0.1294(3)
C6 C 1.0682(7) 0.2218(4) -0.1388(3)
C7 C 1.1101(7) 0.1521(4) -0.0613(3)
C8 C 0.9822(7) 0.1501(4) 0.0295(3)
C9 C 0.2198(6) 0.3790(3) 0.2360(3)
C10 C 0.1054(7) 0.3944(4) 0.1526(3)
C11 C -0.0852(6) 0.4523(4) 0.1583(4)
C12 C -0.1595(6) 0.4972(3) 0.2487(4)
C13 C -0.0515(6) 0.4853(3) 0.3320(4)
C14 C 0.1380(6) 0.4263(3) 0.3268(3)
C15 C 0.8058(6) 0.2285(3) 0.3907(3)
C16 C 0.9916(6) 0.1662(4) 0.3901(3)
C17 C 1.1125(7) 0.1665(4) 0.4695(4)
C18 C 1.0490(7) 0.2293(4) 0.5510(3)
C19 C 0.8634(7) 0.2902(4) 0.5541(3)
C20 C 0.7417(6) 0.2903(3) 0.4754(3)
C21 C 0.5832(6) 0.0726(3) 0.2370(3)
C22 C 0.4681(6) 0.0479(3) 0.1625(3)
C23 C 0.3528(7) -0.0369(4) 0.1753(4)
C24 C 0.3555(7) -0.0994(4) 0.2641(4)
C25 C 0.4674(8) -0.0749(4) 0.3395(4)
C26 C 0.5834(7) 0.0102(4) 0.3263(3)
H1 H 0.872(4) 0.127(2) 0.219(2)
H2 H 0.661(5) 0.340(3) -0.036(3)
H3 H 0.853(5) 0.348(3) -0.180(3)
H4 H 1.167(5) 0.219(3) -0.195(3)
H5 H 1.215(6) 0.090(3) -0.060(3)
H6 H 1.012(5) 0.094(3) 0.083(3)
H7 H 0.164(5) 0.355(3) 0.100(2)
H8 H -0.154(5) 0.474(3) 0.100(3)
H9 H -0.099(5) 0.520(3) 0.385(2)
H10 H 0.225(5) 0.410(3) 0.384(2)
H11 H 1.034(5) 0.115(2) 0.343(2)
H12 H 1.245(5) 0.122(3) 0.463(3)
H13 H 1.139(5) 0.219(3) 0.604(3)
H14 H 0.817(7) 0.352(4) 0.605(4)
H15 H 0.608(5) 0.342(3) 0.476(3)
H16 H 0.482(4) 0.082(2) 0.102(2)
H17 H 0.281(6) -0.045(3) 0.124(3)
H18 H 0.263(5) -0.159(3) 0.274(3)
H19 H 0.467(5) -0.124(3) 0.400(3)
H20 H 0.668(6) 0.032(4) 0.380(3)
#END
