
#######################################################################
#
#                 Cambridge Crystallographic Data Centre
#                                CCDC
#
#######################################################################
#
# If this CIF has been generated from an entry in the Cambridge
# Structural Database, then it will include bibliographic, chemical,
# crystal, experimental, refinement or atomic coordinate data resulting
# from the CCDC's data processing and validation procedures.
#
#######################################################################

data_CSD_CIF_KIKFIU
_audit_creation_date 2007-10-25
_audit_creation_method CSD-ConQuest-V1
_database_code_CSD KIKFIU
_database_code_depnum_ccdc_archive 'CCDC 660205'
_chemical_formula_sum 'C15 H15 N1 O2'
_chemical_formula_moiety
;
C15 H15 N1 O2
;
_journal_coeditor_code "IUCr BX2102"
_journal_coden_Cambridge 1370
_journal_volume 63
_journal_year 2007
_journal_page_first o3700
_journal_name_full 'Acta Crystallogr.,Sect.E:Struct.Rep.Online '
loop_
_publ_author_name
"H.N.Pati"
"B.K.Mishra"
"S.G.Hiriyanna"
"H.S.Yathirajan"
"R.S.Rathore"
_chemical_name_systematic
;
1-(3-Methoxyphenyl)-2-phenylethanone oxime
;
_chemical_melting_point 389
_cell_volume   2536.638
_exptl_crystal_colour 'white'
_exptl_crystal_density_diffrn 1.264
_exptl_crystal_description 'cube'
_exptl_crystal_preparation 'hot ethanol and water'
_diffrn_ambient_temperature 295
#These two values have been output from a single CSD field.
_refine_ls_R_factor_gt 0.0522
_refine_ls_wR_factor_gt 0.0522
_symmetry_cell_setting orthorhombic
_symmetry_space_group_name_H-M 'P b c a'
_symmetry_Int_Tables_number 61
loop_
_symmetry_equiv_pos_site_id
_symmetry_equiv_pos_as_xyz
1 x,y,z
2 1/2-x,-y,1/2+z
3 -x,1/2+y,1/2-z
4 1/2+x,1/2-y,-z
5 -x,-y,-z
6 -1/2+x,y,-1/2-z
7 x,-1/2-y,-1/2+z
8 -1/2-x,-1/2+y,z
_cell_length_a 9.7198(9)
_cell_length_b 12.139(1)
_cell_length_c 21.499(2)
_cell_angle_alpha 90
_cell_angle_beta 90
_cell_angle_gamma 90
_cell_formula_units_Z 8
loop_
_atom_type_symbol
_atom_type_radius_bond
C 0.68
H 0.23
N 0.68
O 0.68
loop_
_atom_site_label
_atom_site_type_symbol
_atom_site_fract_x
_atom_site_fract_y
_atom_site_fract_z
N1 N 0.0384(2) 0.60399(16) 0.46703(9)
O1 O -0.04754(19) 0.62133(14) 0.51858(8)
H1 H -0.06540 0.56200 0.53490
O2 O 0.43137(16) 0.82951(13) 0.30324(7)
C1 C 0.0879(2) 0.6926(2) 0.44421(10)
C2 C 0.1715(2) 0.67863(18) 0.38728(9)
C3 C 0.1560(2) 0.58610(18) 0.35011(10)
H2 H 0.09260 0.53200 0.36090
C4 C 0.2344(3) 0.57431(19) 0.29738(11)
H3 H 0.22350 0.51160 0.27300
C5 C 0.3289(2) 0.65320(19) 0.27962(11)
H4 H 0.38180 0.64390 0.24390
C6 C 0.3429(2) 0.74521(18) 0.31568(10)
C7 C 0.2653(2) 0.75760(18) 0.36914(9)
H5 H 0.27660 0.82040 0.39330
C8 C 0.5054(3) 0.8267(2) 0.24622(12)
H6 H 0.56370 0.76290 0.24540
H7 H 0.56070 0.89200 0.24260
H8 H 0.44170 0.82340 0.21210
C9 C 0.0622(2) 0.80492(18) 0.4708(1)
H9 H 0.14810 0.84560 0.47150
H10 H 0.03050 0.79730 0.51340
C10 C -0.0429(2) 0.8697(2) 0.43428(10)
C11 C -0.0157(3) 0.9746(2) 0.41389(11)
H11 H 0.07020 1.00570 0.42140
C12 C -0.1143(4) 1.0343(2) 0.38237(13)
H12 H -0.09450 1.10500 0.36830
C13 C -0.2407(4) 0.9894(3) 0.37188(13)
H13 H -0.30810 1.03010 0.35150
C14 C -0.2683(3) 0.8851(3) 0.39125(14)
H14 H -0.35410 0.85420 0.38360
C15 C -0.1697(3) 0.8255(2) 0.42201(12)
H15 H -0.18920 0.75400 0.43470
#END
