
#######################################################################
#
#                 Cambridge Crystallographic Data Centre
#                                CCDC
#
#######################################################################
#
# If this CIF has been generated from an entry in the Cambridge
# Structural Database, then it will include bibliographic, chemical,
# crystal, experimental, refinement or atomic coordinate data resulting
# from the CCDC's data processing and validation procedures.
#
#######################################################################

data_CSD_CIF_KIKGUG
_audit_creation_date 1991-08-16
_audit_creation_method CSD-ConQuest-V1
_database_code_CSD KIKGUG
_chemical_formula_sum 'C24 H33 N1 O6'
_chemical_formula_moiety
;
C24 H33 N1 O6
;
_journal_coden_Cambridge 4
_journal_volume 112
_journal_year 1990
_journal_page_first 9284
_journal_name_full 'J.Am.Chem.Soc. '
loop_
_publ_author_name
"L.A.Paquette"
"J.L.Romine"
"Ho-Shen Lin"
"J.Wright"
_chemical_name_systematic
;
(3aR*,5aR*,6R*,7R*,8aS*,8bS*)-6-Ethyl-1,2,4,5,5a,6,7,8,8a,8b-decahydro-5(R*)-h
ydroxy-7-methyl-as-indacen-3(3aH)-one 3-(dimethyl acetal) p-nitrobenzoate
;
_chemical_melting_point 389.15
_cell_volume   2287.994
_exptl_crystal_colour 'colorless'
_exptl_crystal_density_diffrn 1.253
_exptl_special_details
;
Melting point range 389.15-389.85K

;
_diffrn_ambient_temperature ?
_diffrn_special_details
;
The study was carried out at room temperature,in the range 283-303K

;
#These two values have been output from a single CSD field.
_refine_ls_R_factor_gt 0.034
_refine_ls_wR_factor_gt 0.034
_symmetry_cell_setting monoclinic
_symmetry_space_group_name_H-M 'P 21/c'
_symmetry_Int_Tables_number 14
loop_
_symmetry_equiv_pos_site_id
_symmetry_equiv_pos_as_xyz
1 x,y,z
2 -x,1/2+y,1/2-z
3 -x,-y,-z
4 x,-1/2-y,-1/2+z
_cell_length_a 7.927(2)
_cell_length_b 16.503(1)
_cell_length_c 17.512(2)
_cell_angle_alpha 90
_cell_angle_beta 92.89(1)
_cell_angle_gamma 90
_cell_formula_units_Z 4
loop_
_atom_type_symbol
_atom_type_radius_bond
C 0.68
H 0.23
N 0.68
O 0.68
loop_
_atom_site_label
_atom_site_type_symbol
_atom_site_fract_x
_atom_site_fract_y
_atom_site_fract_z
O1 O 0.7198(2) 0.06165(7) 0.18309(7)
O2 O 0.4963(2) -0.00792(9) 0.13288(9)
O3 O 1.2819(2) -0.1573(1) -0.0100(1)
O4 O 1.0849(3) -0.2185(1) -0.0722(1)
O5 O 0.3031(2) 0.28848(8) 0.11831(8)
O6 O 0.2636(2) 0.35921(8) 0.23092(8)
N1 N 1.1336(2) -0.1707(1) -0.0246(1)
C1 C 0.7443(2) 0.1456(1) 0.2911(1)
C2 C 0.8028(3) 0.0807(1) 0.3497(1)
C3 C 0.6684(3) 0.0843(1) 0.4113(1)
C4 C 0.5801(3) 0.1666(1) 0.4019(1)
C5 C 0.6685(2) 0.2128(1) 0.3397(1)
C6 C 0.5586(2) 0.2741(1) 0.2954(1)
C7 C 0.6543(3) 0.3387(1) 0.2520(1)
C8 C 0.5362(3) 0.3656(1) 0.1854(1)
C9 C 0.3785(2) 0.3124(1) 0.1893(1)
C10 C 0.4387(2) 0.2374(1) 0.2335(1)
C11 C 0.5314(2) 0.1781(1) 0.1829(1)
C12 C 0.6170(2) 0.1126(1) 0.2309(1)
C13 C 0.6456(3) 0.0050(1) 0.1384(1)
C14 C 0.7750(2) -0.0404(1) 0.0959(1)
C15 C 0.9472(3) -0.0273(1) 0.1109(1)
C16 C 1.0647(3) -0.0702(1) 0.0717(1)
C17 C 1.0077(3) -0.1251(1) 0.0177(1)
C18 C 0.8379(3) -0.1388(1) 0.0006(1)
C19 C 0.7218(3) -0.0958(1) 0.0407(1)
C20 C 0.9872(3) 0.0938(2) 0.3780(1)
C21 C 1.1106(3) 0.0673(2) 0.3203(2)
C22 C 0.7288(4) 0.0675(2) 0.4932(1)
C23 C 0.2482(3) 0.3533(2) 0.0695(2)
C24 C 0.1095(3) 0.3200(2) 0.2464(2)
H1 H 0.837(2) 0.166(1) 0.2615(9)
H2 H 0.800(2) 0.026(1) 0.3250(9)
H3 H 0.582(3) 0.039(1) 0.396(1)
H4 H 0.760(2) 0.242(1) 0.3651(9)
H5 H 0.491(2) 0.302(1) 0.332(1)
H6 H 0.343(2) 0.210(1) 0.2542(9)
H7 H 0.531(2) 0.077(1) 0.2540(9)
H8 H 0.982(2) 0.010(1) 0.1492(9)
H9 H 1.181(2) -0.062(1) 0.082(1)
H10 H 0.803(3) -0.174(1) -0.038(1)
H11 H 0.603(2) -0.103(1) 0.031(1)
H12 H 0.465(2) 0.161(1) 0.385(1)
H13 H 0.580(2) 0.194(1) 0.451(1)
H14 H 0.683(2) 0.384(1) 0.287(1)
H15 H 0.752(2) 0.316(1) 0.231(1)
H16 H 0.511(2) 0.423(1) 0.187(1)
H17 H 0.584(2) 0.356(1) 0.136(1)
H18 H 0.617(2) 0.208(1) 0.157(1)
H19 H 0.454(2) 0.155(1) 0.143(1)
H20 H 1.004(3) 0.151(1) 0.392(1)
H21 H 1.003(3) 0.062(1) 0.425(1)
H22 H 1.091(3) 0.006(2) 0.310(1)
H23 H 1.100(3) 0.096(1) 0.270(1)
H24 H 1.216(3) 0.074(2) 0.338(1)
H25 H 0.791(3) 0.014(1) 0.498(1)
H26 H 0.634(3) 0.067(2) 0.530(1)
H27 H 0.806(2) 0.117(1) 0.508(1)
H28 H 0.340(3) 0.391(2) 0.058(1)
H29 H 0.201(3) 0.332(2) 0.028(1)
H30 H 0.171(3) 0.392(2) 0.098(1)
H31 H 0.124(4) 0.288(2) 0.296(2)
H32 H 0.073(3) 0.285(1) 0.206(1)
H33 H 0.036(3) 0.361(2) 0.257(1)
#END
