
#######################################################################
#
#                 Cambridge Crystallographic Data Centre
#                                CCDC
#
#######################################################################
#
# If this CIF has been generated from an entry in the Cambridge
# Structural Database, then it will include bibliographic, chemical,
# crystal, experimental, refinement or atomic coordinate data resulting
# from the CCDC's data processing and validation procedures.
#
#######################################################################

data_CSD_CIF_KIKLIZ
_audit_creation_date 1991-08-27
_audit_creation_method CSD-ConQuest-V1
_database_code_CSD KIKLIZ
_chemical_formula_sum 'C9 H9 N1 O6'
_chemical_formula_moiety
;
C9 H9 N1 O6
;
_journal_coeditor_code "IUCr HH0376"
_journal_coden_Cambridge 591
_journal_volume 47
_journal_year 1991
_journal_page_first 553
_journal_name_full 'Acta Crystallogr.,Sect.C:Cryst.Struct.Commun. '
loop_
_publ_author_name
"G.M.Frankenbach"
"D.Britton"
"M.C.Etter"
_chemical_name_systematic
;
2,6-Dimethoxy-3-nitrobenzoic acid
;
_cell_volume   2013.946
_exptl_crystal_density_diffrn 1.498
_diffrn_ambient_temperature ?
_diffrn_special_details
;
The study was carried out at room temperature,in the range 283-303K

;
#These two values have been output from a single CSD field.
_refine_ls_R_factor_gt 0.049
_refine_ls_wR_factor_gt 0.049
_symmetry_cell_setting orthorhombic
_symmetry_space_group_name_H-M 'P c c n'
_symmetry_Int_Tables_number 56
loop_
_symmetry_equiv_pos_site_id
_symmetry_equiv_pos_as_xyz
1 x,y,z
2 1/2-x,y,1/2+z
3 x,1/2-y,1/2+z
4 1/2-x,1/2-y,z
5 -x,-y,-z
6 -1/2+x,-y,-1/2-z
7 -x,-1/2+y,-1/2-z
8 -1/2+x,-1/2+y,-z
_cell_length_a 14.837(2)
_cell_length_b 18.096(2)
_cell_length_c 7.501(2)
_cell_angle_alpha 90
_cell_angle_beta 90
_cell_angle_gamma 90
_cell_formula_units_Z 8
loop_
_atom_type_symbol
_atom_type_radius_bond
C 0.68
H 0.23
N 0.68
O 0.68
loop_
_atom_site_label
_atom_site_type_symbol
_atom_site_fract_x
_atom_site_fract_y
_atom_site_fract_z
C1 C 0.9396(2) 0.1275(1) 0.0387(3)
C2 C 0.8811(2) 0.0673(1) 0.0408(4)
C3 C 0.9007(2) 0.0089(1) 0.1565(4)
C4 C 0.9758(2) 0.0110(2) 0.2640(4)
C5 C 1.0316(2) 0.0711(1) 0.2659(4)
C6 C 1.0131(2) 0.1306(1) 0.1548(4)
C7 C 0.9249(2) 0.1889(1) -0.0913(4)
O1 O 0.9340(2) 0.1673(1) -0.2570(2)
O2 O 0.9076(1) 0.2517(1) -0.0496(2)
O3 O 0.8095(1) 0.0682(1) -0.0721(3)
C8 C 0.7304(2) 0.1027(2) -0.0027(5)
N1 N 0.8438(2) -0.0569(1) 0.1663(4)
O4 O 0.7813(2) -0.0640(1) 0.0691(4)
O5 O 0.8608(2) -0.1021(1) 0.2781(4)
O6 O 1.0626(1) 0.1926(1) 0.1455(3)
C9 C 1.1363(2) 0.2010(2) 0.2670(5)
H1 H 0.98900 -0.03100 0.33800
H2 H 1.08300 0.07200 0.34300
H3 H 0.68400 0.10000 -0.09000
H4 H 0.71200 0.07700 0.10100
H5 H 0.74300 0.15200 0.02600
H6 H 1.16600 0.24700 0.24300
H7 H 1.11600 0.20000 0.38400
H8 H 1.17900 0.16200 0.24500
H9 H 0.930(2) 0.201(2) -0.333(5)
#END
