
#######################################################################
#
#                 Cambridge Crystallographic Data Centre
#                                CCDC
#
#######################################################################
#
# If this CIF has been generated from an entry in the Cambridge
# Structural Database, then it will include bibliographic, chemical,
# crystal, experimental, refinement or atomic coordinate data resulting
# from the CCDC's data processing and validation procedures.
#
#######################################################################

data_CSD_CIF_KIKNAU01
_audit_creation_date 2011-09-07
_audit_creation_method CSD-ConQuest-V1
_database_code_CSD KIKNAU01
_database_code_depnum_ccdc_archive 'CCDC 734932'
_chemical_formula_sum 'C21 H26 N2 O3'
_chemical_formula_moiety
;
C21 H26 N2 O3
;
_journal_coden_Cambridge 119
_journal_volume 995
_journal_year 2011
_journal_page_first 9
_journal_name_full 'J.Mol.Struct. '
loop_
_publ_author_name
"J.U.Ahmad"
"M.Nieger"
"M.R.Sundberg"
"M.Leskela"
"T.Repo"
_chemical_name_systematic
;
N-(p-Nitrophenyl)-3,5-di-t-butylsalicylaldimine
;
_chemical_name_common
;
2,4-Di-t-butyl-6-(((4-nitrophenyl)imino)methyl)phenol
;
_cell_volume   3873.159
_exptl_crystal_colour 'orange'
_exptl_crystal_density_diffrn 1.216
_exptl_crystal_description 'plates'
_diffrn_ambient_temperature 173
#These two values have been output from a single CSD field.
_refine_ls_R_factor_gt 0.0418
_refine_ls_wR_factor_gt 0.0418
_symmetry_cell_setting orthorhombic
_symmetry_space_group_name_H-M 'P c c n'
_symmetry_Int_Tables_number 56
loop_
_symmetry_equiv_pos_site_id
_symmetry_equiv_pos_as_xyz
1 x,y,z
2 1/2-x,1/2-y,z
3 -x,1/2+y,1/2-z
4 1/2+x,-y,1/2-z
5 -x,-y,-z
6 -1/2+x,-1/2+y,-z
7 x,-1/2-y,-1/2+z
8 -1/2-x,y,-1/2+z
_cell_length_a 13.406(2)
_cell_length_b 24.064(4)
_cell_length_c 12.006(1)
_cell_angle_alpha 90
_cell_angle_beta 90
_cell_angle_gamma 90
_cell_formula_units_Z 8
loop_
_atom_type_symbol
_atom_type_radius_bond
C 0.68
H 0.23
N 0.68
O 0.68
loop_
_atom_site_label
_atom_site_type_symbol
_atom_site_fract_x
_atom_site_fract_y
_atom_site_fract_z
O1 O 0.66890(9) 0.29961(5) 0.35222(10)
H1 H 0.7060(13) 0.3191(8) 0.3980(15)
C1 C 0.57583(13) 0.32140(7) 0.36201(14)
C2 C 0.49709(13) 0.29846(7) 0.29759(14)
C3 C 0.51522(13) 0.24965(7) 0.21656(14)
C4 C 0.55177(14) 0.19818(8) 0.28197(17)
H2 H 0.56330 0.16740 0.23020
H3 H 0.50110 0.18730 0.33660
H4 H 0.61410 0.20720 0.32060
C5 C 0.41938(14) 0.23304(8) 0.15433(16)
H5 H 0.39410 0.26500 0.11240
H6 H 0.36890 0.22100 0.20820
H7 H 0.43410 0.20260 0.10270
C6 C 0.59346(15) 0.26604(9) 0.12792(16)
H8 H 0.57000 0.29880 0.08690
H9 H 0.60310 0.23510 0.07600
H10 H 0.65690 0.27470 0.16460
C7 C 0.40296(13) 0.32223(7) 0.31229(14)
H11 H 0.34920 0.30720 0.27040
C8 C 0.38147(13) 0.36698(7) 0.38464(13)
C9 C 0.27377(13) 0.38843(7) 0.39740(14)
C10 C 0.22810(14) 0.40086(8) 0.28245(15)
H12 H 0.15960 0.41430 0.29190
H13 H 0.22760 0.36680 0.23760
H14 H 0.26800 0.42930 0.24470
C11 C 0.26974(13) 0.44221(8) 0.46652(15)
H15 H 0.20040 0.45480 0.47270
H16 H 0.30960 0.47100 0.42980
H17 H 0.29660 0.43510 0.54110
C12 C 0.21130(13) 0.34337(8) 0.45671(16)
H18 H 0.14240 0.35640 0.46490
H19 H 0.23970 0.33600 0.53050
H20 H 0.21220 0.30920 0.41240
C13 C 0.46056(12) 0.38837(7) 0.44477(14)
H21 H 0.44940 0.41880 0.49370
C14 C 0.55744(12) 0.36605(7) 0.43500(14)
C15 C 0.63591(13) 0.39151(7) 0.50124(14)
H22 H 0.61880 0.42140 0.54930
N1 N 0.72818(11) 0.37530(6) 0.49783(12)
C16 C 0.79823(13) 0.40335(7) 0.56679(15)
C17 C 0.77568(13) 0.42083(7) 0.67504(15)
H23 H 0.71250 0.41220 0.70660
C18 C 0.84491(14) 0.45060(7) 0.73655(15)
H24 H 0.82910 0.46350 0.80920
C19 C 0.93758(13) 0.46121(7) 0.69018(16)
C20 C 0.96352(14) 0.44222(8) 0.58496(16)
H25 H 1.02810 0.44910 0.55550
C21 C 0.89345(13) 0.41298(8) 0.52376(16)
H26 H 0.91030 0.39940 0.45190
N2 N 1.00946(14) 0.49501(7) 0.75308(17)
O2 O 1.09059(12) 0.50549(7) 0.70904(14)
O3 O 0.98561(12) 0.51146(6) 0.84664(14)
#END
