
#######################################################################
#
#                 Cambridge Crystallographic Data Centre
#                                CCDC
#
#######################################################################
#
# If this CIF has been generated from an entry in the Cambridge
# Structural Database, then it will include bibliographic, chemical,
# crystal, experimental, refinement or atomic coordinate data resulting
# from the CCDC's data processing and validation procedures.
#
#######################################################################

data_CSD_CIF_KIKNAU
_audit_creation_date 2007-10-25
_audit_creation_method CSD-ConQuest-V1
_database_code_CSD KIKNAU
_database_code_depnum_ccdc_archive 'CCDC 660240'
_chemical_formula_sum 'C21 H26 N2 O3'
_chemical_formula_moiety
;
C21 H26 N2 O3
;
_journal_coeditor_code "IUCr HG2274"
_journal_coden_Cambridge 1370
_journal_volume 63
_journal_year 2007
_journal_page_first o3746
_journal_name_full 'Acta Crystallogr.,Sect.E:Struct.Rep.Online '
loop_
_publ_author_name
"Yi-Feng Sun"
"Xin-Li Wang"
"Shi-Ying Ma"
"Hong-Ji Chen"
_chemical_name_systematic
;
2,4-Di-t-butyl-6-(4-nitrophenyliminomethyl)phenol
;
_cell_volume   2029.211
_exptl_crystal_colour 'red'
_exptl_crystal_density_diffrn 1.16
_exptl_crystal_description 'prismatic'
_exptl_crystal_preparation 'ethanol'
_diffrn_ambient_temperature 291
#These two values have been output from a single CSD field.
_refine_ls_R_factor_gt 0.0779
_refine_ls_wR_factor_gt 0.0779
_symmetry_cell_setting monoclinic
_symmetry_space_group_name_H-M 'P 21/c'
_symmetry_Int_Tables_number 14
loop_
_symmetry_equiv_pos_site_id
_symmetry_equiv_pos_as_xyz
1 x,y,z
2 -x,1/2+y,1/2-z
3 -x,-y,-z
4 x,-1/2-y,-1/2+z
_cell_length_a 17.937(4)
_cell_length_b 6.4674(13)
_cell_length_c 19.047(4)
_cell_angle_alpha 90
_cell_angle_beta 113.31(3)
_cell_angle_gamma 90
_cell_formula_units_Z 4
loop_
_atom_type_symbol
_atom_type_radius_bond
C 0.68
H 0.23
N 0.68
O 0.68
loop_
_atom_site_label
_atom_site_type_symbol
_atom_site_fract_x
_atom_site_fract_y
_atom_site_fract_z
N1 N 0.1937(2) 0.6463(6) 0.0192(2)
N2 N -0.0060(3) 1.3225(9) -0.1296(4)
O1 O 0.3061(2) 0.3763(5) 0.03105(19)
O2 O -0.0154(3) 1.4634(7) -0.0908(3)
O3 O -0.0361(4) 1.3241(9) -0.1982(3)
C1 C 0.3001(3) 0.3053(7) 0.0964(3)
C2 C 0.3475(3) 0.1359(7) 0.1350(3)
C3 C 0.3358(3) 0.0701(7) 0.1993(2)
H1 H 0.36670 -0.04130 0.22620
C4 C 0.2812(3) 0.1577(8) 0.2269(2)
C5 C 0.2370(3) 0.3253(7) 0.1876(3)
H2 H 0.20100 0.38960 0.20480
C6 C 0.2454(3) 0.4011(7) 0.1219(3)
C7 C 0.1950(3) 0.5732(8) 0.0823(3)
H3 H 0.16190 0.63410 0.10360
C8 C 0.1424(3) 0.8192(8) -0.0155(3)
C9 C 0.1280(3) 0.9791(8) 0.0259(3)
H4 H 0.15120 0.97510 0.07910
C10 C 0.0792(3) 1.1455(8) -0.0111(4)
H5 H 0.06910 1.25210 0.01670
C11 C 0.0464(3) 1.1489(10) -0.0892(4)
C12 C 0.0606(3) 0.9961(11) -0.1317(3)
H6 H 0.03760 1.00260 -0.18480
C13 C 0.1093(3) 0.8326(9) -0.0950(3)
H7 H 0.12030 0.72950 -0.12360
C14 C 0.2742(3) 0.0730(8) 0.2992(3)
C15 C 0.2590(4) -0.1590(8) 0.2925(3)
H8 H 0.30160 -0.22630 0.28270
H9 H 0.20780 -0.18650 0.25120
H10 H 0.25790 -0.21050 0.33940
C16 C 0.3554(4) 0.1089(9) 0.3677(3)
H11 H 0.39820 0.03980 0.35870
H12 H 0.35200 0.05480 0.41330
H13 H 0.36670 0.25440 0.37380
C17 C 0.2078(3) 0.1812(9) 0.3168(3)
H14 H 0.21820 0.32720 0.32170
H15 H 0.20730 0.12810 0.36370
H16 H 0.15600 0.15630 0.27590
C18 C 0.4088(3) 0.0318(8) 0.1086(3)
C19 C 0.3662(3) -0.0516(7) 0.0269(3)
H17 H 0.32700 -0.15400 0.02570
H18 H 0.40570 -0.11280 0.01090
H19 H 0.33940 0.05980 -0.00690
C20 C 0.4737(3) 0.1925(8) 0.1101(3)
H20 H 0.44760 0.30680 0.07750
H21 H 0.51140 0.12880 0.09240
H22 H 0.50230 0.24130 0.16140
C21 C 0.4521(4) -0.1499(9) 0.1605(3)
H23 H 0.41280 -0.25180 0.15960
H24 H 0.48040 -0.10100 0.21180
H25 H 0.49010 -0.21050 0.14250
H26 H 0.264(4) 0.487(11) 0.015(4)
#END
