
#######################################################################
#
#                 Cambridge Crystallographic Data Centre
#                                CCDC
#
#######################################################################
#
# If this CIF has been generated from an entry in the Cambridge
# Structural Database, then it will include bibliographic, chemical,
# crystal, experimental, refinement or atomic coordinate data resulting
# from the CCDC's data processing and validation procedures.
#
#######################################################################

data_CSD_CIF_KIKQUR
_audit_creation_date 2007-10-25
_audit_creation_method CSD-ConQuest-V1
_database_code_CSD KIKQUR
_database_code_depnum_ccdc_archive 'CCDC 660305'
_chemical_formula_sum 'C14 H17 N1 O4'
_chemical_formula_moiety
;
C14 H17 N1 O4
;
_journal_coeditor_code "IUCr XU2309"
_journal_coden_Cambridge 1370
_journal_volume 63
_journal_year 2007
_journal_page_first o3834
_journal_name_full 'Acta Crystallogr.,Sect.E:Struct.Rep.Online '
loop_
_publ_author_name
"You-Ping Li"
_chemical_name_systematic
;
2-(Hydroxy(4-nitrophenyl)methyl)-4-methylcyclohexanone
;
_cell_volume    681.720
_exptl_crystal_colour 'colorless'
_exptl_crystal_density_diffrn 1.283
_exptl_crystal_description 'block'
_exptl_crystal_preparation 'ethanol'
_diffrn_ambient_temperature 293
#These two values have been output from a single CSD field.
_refine_ls_R_factor_gt 0.069
_refine_ls_wR_factor_gt 0.069
_symmetry_cell_setting monoclinic
_symmetry_space_group_name_H-M 'P 21'
_symmetry_Int_Tables_number 4
loop_
_symmetry_equiv_pos_site_id
_symmetry_equiv_pos_as_xyz
1 x,y,z
2 -x,1/2+y,-z
_cell_length_a 9.917(3)
_cell_length_b 6.927(3)
_cell_length_c 10.518(3)
_cell_angle_alpha 90
_cell_angle_beta 109.35(3)
_cell_angle_gamma 90
_cell_formula_units_Z 2
loop_
_atom_type_symbol
_atom_type_radius_bond
C 0.68
H 0.23
N 0.68
O 0.68
loop_
_atom_site_label
_atom_site_type_symbol
_atom_site_fract_x
_atom_site_fract_y
_atom_site_fract_z
O1 O 0.3277(6) -0.0005(10) 0.9818(5)
O2 O 0.2949(8) 0.2523(11) 1.0846(6)
O3 O 0.4801(5) 0.7878(7) 0.6164(5)
H1 H 0.55620 0.73800 0.66050
O4 O 0.2824(6) 1.0356(8) 0.3885(5)
N1 N 0.3154(6) 0.1751(11) 0.9901(5)
C1 C 0.3416(7) 0.6009(11) 0.7890(6)
H2 H 0.34130 0.73480 0.79570
C2 C 0.3250(7) 0.4906(10) 0.8923(6)
H3 H 0.31140 0.54780 0.96710
C3 C 0.3294(6) 0.2947(11) 0.8807(6)
C4 C 0.3480(7) 0.2079(9) 0.7711(6)
H4 H 0.35240 0.07410 0.76640
C5 C 0.3602(7) 0.3203(10) 0.6679(6)
H5 H 0.36960 0.26160 0.59170
C6 C 0.3587(6) 0.5168(9) 0.6757(5)
C7 C 0.3760(6) 0.6408(9) 0.5629(6)
H6 H 0.40630 0.55940 0.50110
C8 C 0.2362(6) 0.7441(9) 0.4842(6)
H7 H 0.21120 0.83090 0.54650
C9 C 0.2614(6) 0.8666(10) 0.3738(6)
C10 C 0.2588(9) 0.7609(13) 0.2488(7)
H8 H 0.34510 0.68420 0.26800
H9 H 0.25810 0.85390 0.17970
C11 C 0.1309(8) 0.6310(13) 0.1962(6)
H10 H 0.13760 0.55920 0.11940
H11 H 0.04490 0.70900 0.16600
C12 C 0.1203(6) 0.4908(11) 0.3032(6)
H12 H 0.20880 0.41520 0.33320
C13 C 0.1114(6) 0.6068(11) 0.4240(6)
H13 H 0.02350 0.68100 0.39620
H14 H 0.10670 0.51750 0.49350
C14 C -0.0036(9) 0.3504(14) 0.2514(9)
H15 H 0.00540 0.28060 0.17570
H16 H -0.09210 0.42060 0.22400
H17 H -0.00250 0.26130 0.32160
#END
