
#######################################################################
#
#                 Cambridge Crystallographic Data Centre
#                                CCDC
#
#######################################################################
#
# If this CIF has been generated from an entry in the Cambridge
# Structural Database, then it will include bibliographic, chemical,
# crystal, experimental, refinement or atomic coordinate data resulting
# from the CCDC's data processing and validation procedures.
#
#######################################################################

data_CSD_CIF_KIKRAY
_audit_creation_date 2007-10-25
_audit_creation_method CSD-ConQuest-V1
_database_code_CSD KIKRAY
_database_code_depnum_ccdc_archive 'CCDC 660306'
_chemical_formula_sum 'C21 H18 N4 O9'
_chemical_formula_moiety
;
C21 H18 N4 O9
;
_journal_coeditor_code "IUCr FL2150"
_journal_coden_Cambridge 1370
_journal_volume 63
_journal_year 2007
_journal_page_first o3835
_journal_name_full 'Acta Crystallogr.,Sect.E:Struct.Rep.Online '
loop_
_publ_author_name
"Yun-Hua Xu"
"M.Siegler"
"Sihui Long"
_chemical_name_systematic
;
(3aR,7aR)-bis(4-Nitrophenyl) 2-oxoperhydrobenzo(d)imidazole-1,3-dicarboxylate
;
_cell_volume   2065.154
_exptl_crystal_colour 'colorless'
_exptl_crystal_density_diffrn 1.513
_exptl_crystal_description 'block'
_exptl_crystal_preparation 'ethyl acetate'
_diffrn_ambient_temperature 90.0
#These two values have been output from a single CSD field.
_refine_ls_R_factor_gt 0.0416
_refine_ls_wR_factor_gt 0.0416
_symmetry_cell_setting orthorhombic
_symmetry_space_group_name_H-M 'P 21 21 21'
_symmetry_Int_Tables_number 19
loop_
_symmetry_equiv_pos_site_id
_symmetry_equiv_pos_as_xyz
1 x,y,z
2 1/2-x,-y,1/2+z
3 -x,1/2+y,1/2-z
4 1/2+x,1/2-y,-z
_cell_length_a 6.059(1)
_cell_length_b 17.956(3)
_cell_length_c 18.982(3)
_cell_angle_alpha 90
_cell_angle_beta 90
_cell_angle_gamma 90
_cell_formula_units_Z 4
loop_
_atom_type_symbol
_atom_type_radius_bond
C 0.68
H 0.23
N 0.68
O 0.68
loop_
_atom_site_label
_atom_site_type_symbol
_atom_site_fract_x
_atom_site_fract_y
_atom_site_fract_z
C1 C 0.7327(4) 0.07569(12) 0.30668(13)
H1 H 0.63730 0.03050 0.30250
C2 C 0.9611(4) 0.05185(14) 0.32890(13)
H2 H 0.95650 0.02840 0.37610
H3 H 1.06110 0.09540 0.33090
C3 C 1.0425(5) -0.00426(14) 0.27372(13)
H4 H 0.95390 -0.05040 0.27760
H5 H 1.19800 -0.01720 0.28410
C4 C 1.0270(5) 0.02536(14) 0.19768(13)
H6 H 1.13890 0.06490 0.19110
H7 H 1.06270 -0.01560 0.16470
C5 C 0.7995(5) 0.05674(13) 0.17903(13)
H8 H 0.80260 0.08020 0.13180
H9 H 0.68770 0.01650 0.17880
C6 C 0.7444(4) 0.11400(13) 0.23481(12)
H10 H 0.86580 0.15170 0.23620
C7 C 0.4719(4) 0.17341(12) 0.30407(12)
C8 C 0.4582(4) 0.19100(12) 0.17450(12)
C9 C 0.1934(4) 0.27412(14) 0.12998(12)
C10 C 0.3021(5) 0.33867(14) 0.10993(13)
H11 H 0.44120 0.35130 0.12970
C11 C 0.2022(5) 0.38445(13) 0.06004(13)
H12 H 0.27290 0.42860 0.04410
C12 C -0.0020(5) 0.36406(13) 0.03427(12)
C13 C -0.1070(4) 0.29878(14) 0.05265(13)
H13 H -0.24520 0.28560 0.03260
C14 C -0.0045(4) 0.25308(13) 0.10121(13)
H14 H -0.07090 0.20730 0.11460
C15 C 0.5755(4) 0.12054(13) 0.41966(12)
C16 C 0.3959(5) 0.16923(13) 0.51801(12)
C17 C 0.5086(5) 0.19901(13) 0.57421(12)
H15 H 0.64640 0.22320 0.56770
C18 C 0.4146(4) 0.19267(12) 0.64138(13)
H16 H 0.48710 0.21240 0.68160
C19 C 0.2146(4) 0.15713(13) 0.64735(12)
C20 C 0.1017(4) 0.12713(12) 0.59117(13)
H17 H -0.03540 0.10240 0.59780
C21 C 0.1940(5) 0.13401(13) 0.52468(13)
H18 H 0.11990 0.11490 0.48440
N1 N 0.6143(4) 0.13238(10) 0.34801(10)
N2 N 0.5302(4) 0.15399(11) 0.23445(10)
N3 N -0.1138(4) 0.41454(12) -0.01561(11)
N4 N 0.1167(4) 0.14975(11) 0.71830(11)
O1 O 0.3305(3) 0.2157(1) 0.32218(9)
O2 O 0.5490(3) 0.18582(9) 0.11838(8)
O3 O 0.2732(3) 0.23065(9) 0.18638(9)
O4 O -0.0114(4) 0.46898(9) -0.03702(10)
O5 O -0.3052(4) 0.40039(11) -0.03286(10)
O6 O 0.4816(3) 0.18046(8) 0.44960(8)
O7 O 0.6268(4) 0.06473(10) 0.44975(10)
O8 O 0.2036(3) 0.18496(9) 0.76670(9)
O9 O -0.0414(3) 0.10836(10) 0.72600(9)
#END
