
#######################################################################
#
#                 Cambridge Crystallographic Data Centre
#                                CCDC
#
#######################################################################
#
# If this CIF has been generated from an entry in the Cambridge
# Structural Database, then it will include bibliographic, chemical,
# crystal, experimental, refinement or atomic coordinate data resulting
# from the CCDC's data processing and validation procedures.
#
#######################################################################

data_CSD_CIF_KIPMEB
_audit_creation_date 2000-07-14
_audit_creation_method CSD-ConQuest-V1
_database_code_CSD KIPMEB
_chemical_formula_sum 'C21 H26 N2 O3'
_chemical_formula_moiety
;
C21 H26 N2 O3
;
_journal_coden_Cambridge 4
_journal_volume 121
_journal_year 1999
_journal_page_first 5809
_journal_name_full 'J.Am.Chem.Soc. '
loop_
_publ_author_name
"J.Harada"
"H.Uekusa"
"Y.Ohashi"
_chemical_name_systematic
;
N-(3,5-Di-t-butylsalicylidene)-3-nitroaniline
;
_cell_volume    972.362
_exptl_crystal_colour 'pale yellow'
_exptl_crystal_density_diffrn 1.211
_diffrn_ambient_temperature 90
#These two values have been output from a single CSD field.
_refine_ls_R_factor_gt 0.0348
_refine_ls_wR_factor_gt 0.0348
_symmetry_cell_setting triclinic
_symmetry_space_group_name_H-M 'P -1'
_symmetry_Int_Tables_number 2
loop_
_symmetry_equiv_pos_site_id
_symmetry_equiv_pos_as_xyz
1 x,y,z
2 -x,-y,-z
_cell_length_a 6.1043(1)
_cell_length_b 10.3155(2)
_cell_length_c 16.2882(2)
_cell_angle_alpha 102.1932(11)
_cell_angle_beta 92.2811(11)
_cell_angle_gamma 103.0796(11)
_cell_formula_units_Z 2
loop_
_atom_type_symbol
_atom_type_radius_bond
C 0.68
H 0.23
N 0.68
O 0.68
loop_
_atom_site_label
_atom_site_type_symbol
_atom_site_fract_x
_atom_site_fract_y
_atom_site_fract_z
C1 C -0.0608(1) 0.6003(1) 0.2716(1)
C2 C -0.0503(1) 0.4626(1) 0.2630(1)
C3 C 0.0867(1) 0.4049(1) 0.2049(1)
C4 C 0.2075(1) 0.4902(1) 0.1574(1)
C5 C 0.1991(1) 0.6277(1) 0.1634(1)
C6 C 0.0654(1) 0.6809(1) 0.2217(1)
C7 C -0.1982(1) 0.6634(1) 0.3312(1)
C8 C -0.4414(1) 0.6695(1) 0.4380(1)
C9 C -0.6672(1) 0.6085(1) 0.4466(1)
C10 C -0.7893(1) 0.6765(1) 0.5041(1)
C11 C -0.6882(1) 0.8043(1) 0.5558(1)
C12 C -0.4632(1) 0.8605(1) 0.5475(1)
C13 C -0.3366(1) 0.7969(1) 0.4897(1)
C14 C 0.1015(1) 0.2551(1) 0.1946(1)
C15 C 0.1991(2) 0.2333(1) 0.2783(1)
C16 C -0.1338(2) 0.1570(1) 0.1678(1)
C17 C 0.2583(2) 0.2170(1) 0.1268(1)
C18 C 0.3362(1) 0.7105(1) 0.1065(1)
C19 C 0.2731(1) 0.6357(1) 0.0134(1)
C20 C 0.2919(1) 0.8537(1) 0.1173(1)
C21 C 0.5900(1) 0.7276(1) 0.1292(1)
N1 N -0.3229(1) 0.5972(1) 0.3786(1)
N2 N -0.3502(1) 0.9929(1) 0.6040(1)
O1 O -0.1695(1) 0.3853(1) 0.3120(1)
O2 O -0.4642(1) 1.0525(1) 0.6522(1)
O3 O -0.1463(1) 1.0366(1) 0.6005(1)
H1 H -0.252(3) 0.4391(17) 0.3445(11)
H2 H 0.3036(18) 0.4524(12) 0.1166(7)
H3 H 0.0555(18) 0.7792(12) 0.2304(7)
H4 H -0.1933(19) 0.7618(12) 0.3340(7)
H5 H -0.7393(19) 0.5182(13) 0.4105(8)
H6 H -0.946(2) 0.6310(13) 0.5084(8)
H7 H -0.771(2) 0.8507(13) 0.5965(8)
H8 H -0.182(2) 0.8370(12) 0.4860(8)
H9 H 0.211(2) 0.1379(14) 0.2702(8)
H10 H 0.351(2) 0.2922(14) 0.2949(8)
H11 H 0.102(2) 0.2509(12) 0.3250(8)
H12 H -0.243(2) 0.1704(13) 0.2096(8)
H13 H -0.115(2) 0.0624(14) 0.1618(8)
H14 H -0.201(2) 0.1670(14) 0.1135(9)
H15 H 0.263(2) 0.1218(13) 0.1213(8)
H16 H 0.417(2) 0.2720(15) 0.1426(9)
H17 H 0.203(2) 0.2255(13) 0.0705(8)
H18 H 0.300(2) 0.5423(14) 0.0011(8)
H19 H 0.108(2) 0.6249(13) -0.0032(8)
H20 H 0.367(2) 0.6868(13) -0.0238(8)
H21 H 0.128(2) 0.8509(12) 0.1031(8)
H22 H 0.384(2) 0.9024(13) 0.0785(8)
H23 H 0.340(2) 0.9103(13) 0.1752(8)
H24 H 0.637(2) 0.7792(14) 0.1880(8)
H25 H 0.631(2) 0.6380(13) 0.1242(8)
H26 H 0.683(2) 0.7763(12) 0.0917(8)
#END
