
#######################################################################
#
#                 Cambridge Crystallographic Data Centre
#                                CCDC
#
#######################################################################
#
# If this CIF has been generated from an entry in the Cambridge
# Structural Database, then it will include bibliographic, chemical,
# crystal, experimental, refinement or atomic coordinate data resulting
# from the CCDC's data processing and validation procedures.
#
#######################################################################

data_CSD_CIF_KIQREJ
_audit_creation_date 2013-09-12
_audit_creation_method CSD-ConQuest-V1
_database_code_CSD KIQREJ
_database_code_depnum_ccdc_archive 'CCDC 900671'
_chemical_formula_sum 'C10 H8 N4 O5'
_chemical_formula_moiety
;
C10 H8 N4 O5
;
_journal_coden_Cambridge 444
_journal_volume 83
_journal_year 2013
_journal_page_first 823
_journal_name_full 'Zh.Obshch.Khim.(Russ.)(Russ.J.Gen.Chem.) '
loop_
_publ_author_name
"Yu.G.Gololobov"
"I.R.Golding"
"S.V.Barabanov"
"V.N.Khrustalev"
"I.A.Garbuzova"
"A.S.Peregudov"
_chemical_name_systematic
;
2-Cyano-2-(2,4-dinitrophenyl)-N-methylacetamide
;
_cell_volume    543.928
_exptl_crystal_colour 'light yellow'
_exptl_crystal_density_diffrn 1.613
_exptl_crystal_description 'plate'
_diffrn_ambient_temperature 100
#These two values have been output from a single CSD field.
_refine_ls_R_factor_gt 0.0411
_refine_ls_wR_factor_gt 0.0411
_symmetry_cell_setting monoclinic
_symmetry_space_group_name_H-M 'P 21'
_symmetry_Int_Tables_number 4
loop_
_symmetry_equiv_pos_site_id
_symmetry_equiv_pos_as_xyz
1 x,y,z
2 -x,1/2+y,-z
_cell_length_a 6.8232(8)
_cell_length_b 7.8680(9)
_cell_length_c 10.3606(11)
_cell_angle_alpha 90
_cell_angle_beta 102.062(2)
_cell_angle_gamma 90
_cell_formula_units_Z 2
loop_
_atom_type_symbol
_atom_type_radius_bond
C 0.68
H 0.23
N 0.68
O 0.68
loop_
_atom_site_label
_atom_site_type_symbol
_atom_site_fract_x
_atom_site_fract_y
_atom_site_fract_z
O1 O -0.2978(2) 0.7279(2) 0.29993(13)
O2 O -0.0464(2) 1.0482(2) 0.24530(14)
O3 O 0.1744(3) 1.1727(2) 0.39560(16)
O4 O 0.4946(3) 0.8725(2) 0.77788(15)
O5 O 0.5273(3) 0.6006(2) 0.77164(16)
N1 N -0.3591(2) 0.7518(3) 0.07710(16)
H1 H -0.30600 0.74460 0.00080
N2 N 0.0928(3) 1.0457(2) 0.34214(16)
N3 N 0.4635(2) 0.7369(3) 0.72217(16)
N4 N 0.0356(3) 0.4292(3) 0.07768(19)
C1 C -0.2412(3) 0.7345(3) 0.19628(18)
C2 C -0.0158(3) 0.7187(3) 0.19301(18)
H2 H 0.02240 0.81360 0.13890
C3 C 0.1124(3) 0.7282(3) 0.33206(17)
C4 C 0.1627(3) 0.8799(3) 0.40051(19)
C5 C 0.2781(3) 0.8863(3) 0.52786(19)
H3 H 0.31070 0.99130 0.57240
C6 C 0.3433(3) 0.7329(3) 0.58701(17)
C7 C 0.2967(3) 0.5779(3) 0.5257(2)
H4 H 0.34090 0.47460 0.56970
C8 C 0.1827(3) 0.5776(3) 0.3970(2)
H5 H 0.15220 0.47230 0.35240
C9 C -0.5772(3) 0.7586(4) 0.0583(2)
H6 H -0.63710 0.67330 -0.00700
H7 H -0.62440 0.87190 0.02700
H8 H -0.61620 0.73520 0.14240
C10 C 0.0144(3) 0.5532(3) 0.1295(2)
#END
