
#######################################################################
#
#                 Cambridge Crystallographic Data Centre
#                                CCDC
#
#######################################################################
#
# If this CIF has been generated from an entry in the Cambridge
# Structural Database, then it will include bibliographic, chemical,
# crystal, experimental, refinement or atomic coordinate data resulting
# from the CCDC's data processing and validation procedures.
#
#######################################################################

data_CSD_CIF_KIQTEL
_audit_creation_date 2013-09-12
_audit_creation_method CSD-ConQuest-V1
_database_code_CSD KIQTEL
_database_code_depnum_ccdc_archive 'CCDC 960557'
_chemical_formula_sum 'C14 H16 N4 O2'
_chemical_formula_moiety
;
C14 H16 N4 O2
;
_journal_coden_Cambridge 95
_journal_year 2013
_journal_page_first 1051
_journal_name_full 'Izv.Akad.Nauk SSSR,Ser.Khim.(Russ.)(Russ.Chem.Bull.) '
loop_
_publ_author_name
"M.A.Bastrakov"
"A.I.Leonov"
"A.M.Starosotnikov"
"I.V.Fedyanin"
"S.A.Shevelev"
_chemical_name_systematic
;
N,N,2-Trimethyl-4-nitro-2,3-dihydro-1H-pyrrolo[3,4-f]quinolin-5-amine
;
_cell_volume    643.106
_exptl_crystal_colour 'red'
_exptl_crystal_density_diffrn 1.406
_exptl_crystal_description 'needle'
_diffrn_ambient_temperature 100
#These two values have been output from a single CSD field.
_refine_ls_R_factor_gt 0.0372
_refine_ls_wR_factor_gt 0.0372
_symmetry_cell_setting triclinic
_symmetry_space_group_name_H-M 'P -1'
_symmetry_Int_Tables_number 2
loop_
_symmetry_equiv_pos_site_id
_symmetry_equiv_pos_as_xyz
1 x,y,z
2 -x,-y,-z
_cell_length_a 8.0409(4)
_cell_length_b 9.3294(5)
_cell_length_c 9.8592(5)
_cell_angle_alpha 103.495(1)
_cell_angle_beta 113.479(1)
_cell_angle_gamma 96.054(1)
_cell_formula_units_Z 2
loop_
_atom_type_symbol
_atom_type_radius_bond
C 0.68
H 0.23
N 0.68
O 0.68
loop_
_atom_site_label
_atom_site_type_symbol
_atom_site_fract_x
_atom_site_fract_y
_atom_site_fract_z
O1 O 0.12263(11) 0.88512(9) -0.06420(9)
O2 O 0.27786(13) 0.76917(9) -0.17463(10)
N1 N 0.31051(12) 0.6978(1) 0.41447(10)
N2 N 0.14521(12) 0.29912(9) -0.21804(10)
N3 N 0.21729(13) 0.79119(10) -0.07579(10)
N4 N 0.33836(12) 0.90674(9) 0.25799(10)
C1 C 0.29955(15) 0.59863(12) 0.48859(12)
H1 H 0.31820 0.63600 0.59300
C2 C 0.26188(16) 0.44073(12) 0.42217(12)
H2 H 0.25160 0.37400 0.47940
C3 C 0.24049(14) 0.38576(11) 0.27327(12)
H3 H 0.21990 0.28010 0.22710
C4 C 0.21589(15) 0.28266(11) -0.06147(12)
H4 H 0.33780 0.25400 -0.03090
H5 H 0.12710 0.20650 -0.05390
C5 C 0.21139(14) 0.45744(11) -0.20391(12)
H6 H 0.11870 0.49110 -0.28460
H7 H 0.33090 0.47210 -0.21130
C6 C 0.25261(14) 0.69539(11) 0.02569(11)
C7 C 0.28452(13) 0.75419(11) 0.18040(11)
C8 C 0.24926(13) 0.48760(11) 0.18865(11)
C9 C 0.23349(14) 0.43897(11) 0.03580(11)
C10 C 0.23498(13) 0.54010(11) -0.04436(11)
C11 C 0.27909(13) 0.64454(11) 0.26332(11)
C12 C 0.18191(16) 0.19014(12) -0.32863(13)
H8 H 0.10750 0.19410 -0.43360
H9 H 0.14870 0.08830 -0.32290
H10 H 0.31430 0.21440 -0.30400
C13 C 0.44190(15) 1.01268(11) 0.21686(12)
H11 H 0.50690 0.95860 0.16320
H12 H 0.53280 1.09080 0.31120
H13 H 0.35570 1.06000 0.14850
C14 C 0.25234(15) 0.98052(12) 0.35275(12)
H14 H 0.18360 0.90390 0.37580
H15 H 0.16660 1.03610 0.29600
H16 H 0.34920 1.05100 0.45000
#END
