
#######################################################################
#
#                 Cambridge Crystallographic Data Centre
#                                CCDC
#
#######################################################################
#
# If this CIF has been generated from an entry in the Cambridge
# Structural Database, then it will include bibliographic, chemical,
# crystal, experimental, refinement or atomic coordinate data resulting
# from the CCDC's data processing and validation procedures.
#
#######################################################################

data_CSD_CIF_KIQWUE
_audit_creation_date 2013-09-12
_audit_creation_method CSD-ConQuest-V1
_database_code_CSD KIQWUE
_database_code_depnum_ccdc_archive 'CCDC 960575'
_chemical_formula_sum 'C14 H23 N4 O2'
_chemical_formula_moiety
;
C14 H23 N4 O2
;
_journal_coden_Cambridge 95
_journal_year 2013
_journal_page_first 660
_journal_name_full 'Izv.Akad.Nauk SSSR,Ser.Khim.(Russ.)(Russ.Chem.Bull.) '
loop_
_publ_author_name
"S.V.Fokin"
"E.T.Kostina"
"E.V.Tretyakov"
"G.V.Romanenko"
"A.S.Bogomyakov"
"R.Z.Sagdeev"
"V.I.Ovcharenko"
_chemical_name_systematic
;
2-(1-Butyl-1H-pyrazol-5-yl)-4,4,5,5-tetramethyl-4,5-dihydro-1H-imidazol-1-ol 
3-oxide
;
_cell_volume   1546.515
_exptl_crystal_colour 'blue'
_exptl_crystal_density_diffrn 1.2
_exptl_crystal_description 'bulk'
_diffrn_ambient_temperature 240
#These two values have been output from a single CSD field.
_refine_ls_R_factor_gt 0.0452
_refine_ls_wR_factor_gt 0.0452
_symmetry_cell_setting monoclinic
_symmetry_space_group_name_H-M 'P 21/c'
_symmetry_Int_Tables_number 14
loop_
_symmetry_equiv_pos_site_id
_symmetry_equiv_pos_as_xyz
1 x,y,z
2 -x,1/2+y,1/2-z
3 -x,-y,-z
4 x,-1/2-y,-1/2+z
_cell_length_a 7.2487(4)
_cell_length_b 15.9989(9)
_cell_length_c 13.6110(6)
_cell_angle_alpha 90
_cell_angle_beta 101.551(4)
_cell_angle_gamma 90
_cell_formula_units_Z 4
loop_
_atom_type_symbol
_atom_type_radius_bond
C 0.68
H 0.23
N 0.68
O 0.68
loop_
_atom_site_label
_atom_site_type_symbol
_atom_site_fract_x
_atom_site_fract_y
_atom_site_fract_z
O1 O -0.22336(14) 0.69943(7) 0.24208(6)
N1 N -0.14136(14) 0.67396(7) 0.17191(7)
C1 C -0.23830(18) 0.67625(9) 0.06331(8)
C2 C -0.3582(3) 0.75328(16) 0.04148(13)
H1 H -0.409(2) 0.7584(11) -0.0340(14)
H2 H -0.282(3) 0.8031(13) 0.0645(13)
H3 H -0.462(3) 0.7536(14) 0.0771(15)
C3 C -0.3576(2) 0.59701(13) 0.04621(12)
H4 H -0.423(2) 0.5941(10) -0.0236(13)
H5 H -0.267(3) 0.5450(13) 0.0592(12)
H6 H -0.445(2) 0.5993(10) 0.0903(12)
C4 C -0.06380(18) 0.67241(9) 0.01300(8)
C5 C 0.0239(3) 0.75754(13) 0.00090(14)
H7 H -0.052(3) 0.7883(11) -0.0502(13)
H8 H 0.146(3) 0.7468(12) -0.0178(13)
H9 H 0.041(3) 0.7895(12) 0.0621(14)
C6 C -0.0928(3) 0.62394(13) -0.08439(10)
H10 H -0.186(3) 0.6519(11) -0.1353(13)
H11 H -0.134(2) 0.5646(11) -0.0756(11)
H12 H 0.024(3) 0.6224(10) -0.1086(12)
N2 N 0.07149(13) 0.62704(7) 0.09276(7)
O2 O 0.21949(12) 0.59225(7) 0.07540(7)
C7 C 0.02577(16) 0.63567(7) 0.18384(8)
C8 C 0.14616(16) 0.60833(8) 0.27632(8)
N3 N 0.08034(14) 0.56740(7) 0.35070(7)
N4 N 0.22272(15) 0.54674(7) 0.42671(7)
C9 C -0.10723(19) 0.53417(10) 0.34943(9)
H13 H -0.200(2) 0.5773(9) 0.3197(9)
H14 H -0.1149(18) 0.5259(9) 0.418(1)
C10 C -0.1416(2) 0.45319(10) 0.29225(11)
H15 H -0.126(2) 0.4632(9) 0.2247(11)
H16 H -0.043(2) 0.4156(10) 0.3226(11)
C11 C -0.3330(2) 0.41608(11) 0.29158(12)
H17 H -0.350(2) 0.4071(11) 0.3603(14)
H18 H -0.430(3) 0.4553(13) 0.2582(13)
C12 C -0.3610(3) 0.33258(12) 0.23920(14)
H19 H -0.484(3) 0.3108(11) 0.2441(13)
H20 H -0.344(2) 0.3360(11) 0.1674(14)
H21 H -0.256(4) 0.2929(18) 0.2731(18)
C13 C 0.3770(2) 0.57602(9) 0.40003(10)
H22 H 0.499(2) 0.5684(9) 0.4448(10)
C14 C 0.33762(18) 0.61456(8) 0.30696(9)
H23 H 0.4281(19) 0.6396(8) 0.2717(10)
#END
