
#######################################################################
#
#                 Cambridge Crystallographic Data Centre
#                                CCDC
#
#######################################################################
#
# If this CIF has been generated from an entry in the Cambridge
# Structural Database, then it will include bibliographic, chemical,
# crystal, experimental, refinement or atomic coordinate data resulting
# from the CCDC's data processing and validation procedures.
#
#######################################################################

data_CSD_CIF_KIRCAP
_audit_creation_date 1991-10-31
_audit_creation_method CSD-ConQuest-V1
_database_code_CSD KIRCAP
_database_code_depnum_ccdc_archive 'CCDC 1197414'
_chemical_formula_sum 'C11 H7 N5 O12'
_chemical_formula_moiety
;
C11 H7 N5 O12
;
_journal_coden_Cambridge 182
_journal_year 1991
_journal_page_first 559
_journal_name_full 'Chem.Commun. '
loop_
_publ_author_name
"P.Balczewski"
"R.L.Beddoes"
"J.A.Joule"
_chemical_name_systematic
;
Methyl 
1,1,7,9-tetranitro-2,5-epoxy-1,2,4,5-tetrahydro-3,2-benzoxazepine-4-carboxylat
e
;
_chemical_melting_point 414.15
_cell_volume   1483.549
_exptl_crystal_colour 'pale yellow'
_exptl_crystal_density_diffrn 1.796
_exptl_special_details
;
Melting point range 414.15-415.15K

;
_diffrn_ambient_temperature ?
_diffrn_special_details
;
The study was carried out at room temperature,in the range 283-303K

;
#These two values have been output from a single CSD field.
_refine_ls_R_factor_gt 0.06
_refine_ls_wR_factor_gt 0.06
_symmetry_cell_setting monoclinic
_symmetry_space_group_name_H-M 'P 21/c'
_symmetry_Int_Tables_number 14
loop_
_symmetry_equiv_pos_site_id
_symmetry_equiv_pos_as_xyz
1 x,y,z
2 -x,1/2+y,1/2-z
3 -x,-y,-z
4 x,-1/2-y,-1/2+z
_cell_length_a 11.474(2)
_cell_length_b 8.1274(6)
_cell_length_c 16.3678(6)
_cell_angle_alpha 90
_cell_angle_beta 103.602(8)
_cell_angle_gamma 90
_cell_formula_units_Z 4
loop_
_atom_type_symbol
_atom_type_radius_bond
C 0.68
H 0.23
N 0.68
O 0.68
loop_
_atom_site_label
_atom_site_type_symbol
_atom_site_fract_x
_atom_site_fract_y
_atom_site_fract_z
O1 O 0.1635(3) 0.1981(4) 0.5983(2)
O2 O 0.2799(3) 0.3441(4) 0.5416(2)
O3 O 0.0878(4) -0.3513(4) 0.5073(2)
O4 O 0.1006(3) -0.4329(3) 0.3864(2)
O5 O 0.0605(3) -0.3941(4) 0.1755(2)
O6 O -0.0116(3) -0.2268(4) 0.2521(2)
O7 O 0.3393(3) -0.3892(4) 0.3802(2)
O8 O 0.2754(4) -0.5047(4) 0.2614(2)
O9 O 0.5445(4) -0.0454(5) 0.3836(3)
O10 O 0.4759(3) 0.2123(4) 0.3620(2)
O11 O 0.1972(2) -0.0227(3) 0.1924(1)
O12 O 0.3744(2) -0.1517(4) 0.2471(2)
N1 N 0.2164(3) 0.2259(4) 0.5435(2)
N2 N 0.1112(3) -0.3290(4) 0.4406(2)
N3 N 0.0696(3) -0.2966(4) 0.2317(2)
N4 N 0.2754(4) -0.3956(4) 0.3100(2)
N5 N 0.2479(3) -0.1792(4) 0.2112(2)
C1 C 0.1969(3) -0.2459(4) 0.2800(2)
C2 C 0.1923(3) -0.1266(4) 0.3504(2)
C3 C 0.1550(3) -0.1642(4) 0.4245(2)
C4 C 0.1590(3) -0.0484(5) 0.4859(2)
C5 C 0.2025(3) 0.1052(4) 0.4751(2)
C6 C 0.2339(3) 0.1503(5) 0.4020(2)
C7 C 0.2274(3) 0.0340(4) 0.3401(2)
C8 C 0.2626(4) 0.0773(5) 0.2598(2)
C9 C 0.3897(4) 0.0223(5) 0.2608(2)
C10 C 0.4803(4) 0.0537(7) 0.3428(3)
C11 C 0.5545(6) 0.2712(9) 0.4361(4)
H1 H 0.140(4) -0.067(6) 0.531(3)
H2 H 0.256(3) 0.256(5) 0.387(2)
H3 H 0.249(3) 0.190(4) 0.244(2)
H4 H 0.422(4) 0.078(5) 0.215(3)
H5 H 0.633(7) 0.261(9) 0.422(5)
H6 H 0.545(8) 0.40(1) 0.441(5)
H7 H 0.553(6) 0.208(8) 0.491(4)
#END
