
#######################################################################
#
#                 Cambridge Crystallographic Data Centre
#                                CCDC
#
#######################################################################
#
# If this CIF has been generated from an entry in the Cambridge
# Structural Database, then it will include bibliographic, chemical,
# crystal, experimental, refinement or atomic coordinate data resulting
# from the CCDC's data processing and validation procedures.
#
#######################################################################

data_CSD_CIF_KIVZEV
_audit_creation_date 2008-04-24
_audit_creation_method CSD-ConQuest-V1
_database_code_CSD KIVZEV
_database_code_depnum_ccdc_archive 'CCDC 630709'
_chemical_formula_sum 'C25 H36 N2 O8'
_chemical_formula_moiety
;
C25 H36 N2 O8
;
_journal_coden_Cambridge 1220
_journal_volume 13
_journal_year 2007
_journal_page_first 5515
_journal_name_full 'Chem.-Eur.J. '
loop_
_publ_author_name
"J.A.Bull"
"E.P.Balskus"
"R.A.J.Horan"
"M.Langner"
"S.V.Ley"
_chemical_name_systematic
;
Benzyl 
4-(5-(5,6-dimethoxy-3,5,6-trimethyl-1,4-dioxan-2-yl)-4,5-dihydroisoxazol-3-yl)
-2,2-dimethyl-1,3-oxazolidine-3-carboxylate
;
_cell_volume   2533.074
_exptl_crystal_colour 'colorless'
_exptl_crystal_density_diffrn 1.292
_diffrn_ambient_temperature 180
#These two values have been output from a single CSD field.
_refine_ls_R_factor_gt 0.0512
_refine_ls_wR_factor_gt 0.0512
_symmetry_cell_setting orthorhombic
_symmetry_space_group_name_H-M 'P 21 21 21'
_symmetry_Int_Tables_number 19
loop_
_symmetry_equiv_pos_site_id
_symmetry_equiv_pos_as_xyz
1 x,y,z
2 1/2-x,-y,1/2+z
3 1/2+x,1/2-y,-z
4 -x,1/2+y,1/2-z
_cell_length_a 9.3442(2)
_cell_length_b 15.9887(4)
_cell_length_c 16.9548(4)
_cell_angle_alpha 90
_cell_angle_beta 90
_cell_angle_gamma 90
_cell_formula_units_Z 4
loop_
_atom_type_symbol
_atom_type_radius_bond
C 0.68
H 0.23
N 0.68
O 0.68
loop_
_atom_site_label
_atom_site_type_symbol
_atom_site_fract_x
_atom_site_fract_y
_atom_site_fract_z
O1 O 0.00936(19) -0.11217(11) 0.02013(10)
O2 O 0.22248(17) -0.03378(9) 0.10770(9)
O3 O 0.01494(18) 0.07652(12) 0.18878(10)
O4 O 0.53826(19) 0.17773(11) 0.23467(11)
O5 O 0.30202(18) -0.09969(11) -0.00767(9)
O6 O 0.0671(2) -0.17798(12) 0.13887(11)
O7 O 0.56955(19) -0.07877(12) 0.28963(11)
O8 O 0.34255(19) -0.0533(1) 0.33053(10)
N1 N 0.1074(2) 0.07569(14) 0.25515(12)
N2 N 0.4666(2) 0.05075(13) 0.27699(12)
C1 C -0.1278(3) 0.0110(2) 0.00581(16)
H1 H -0.21190 -0.02470 -0.00160
H2 H -0.08410 0.02280 -0.04550
H3 H -0.15680 0.06360 0.03080
C2 C -0.0210(3) -0.03308(17) 0.05767(14)
H4 H -0.06520 -0.04360 0.11050
C3 C 0.1162(3) 0.01588(15) 0.06844(14)
H5 H 0.15340 0.03220 0.01530
C4 C 0.0993(3) 0.09451(16) 0.11827(15)
H6 H 0.05030 0.13870 0.08650
C5 C 0.2399(3) 0.12866(15) 0.14998(15)
H7 H 0.32330 0.10300 0.12330
H8 H 0.24510 0.19030 0.14490
C6 C 0.2299(2) 0.10197(14) 0.23461(14)
C7 C 0.3475(3) 0.10850(15) 0.29442(13)
H9 H 0.30940 0.09840 0.34870
C8 C 0.4272(3) 0.19188(18) 0.29070(17)
H10 H 0.36290 0.23740 0.27310
H11 H 0.46750 0.20670 0.34290
C9 C 0.4269(3) -0.04959(17) -0.01692(17)
H12 H 0.44580 -0.04100 -0.07320
H13 H 0.50880 -0.07790 0.00740
H14 H 0.41210 0.00470 0.00870
C10 C 0.2520(3) -0.11141(14) 0.07072(13)
C11 C 0.3597(3) -0.15387(17) 0.12368(16)
H15 H 0.44340 -0.11760 0.13030
H16 H 0.38950 -0.20690 0.09990
H17 H 0.31620 -0.16460 0.17530
C12 C -0.0654(5) -0.2222(3) 0.1469(2)
H18 H -0.09430 -0.22270 0.20240
H19 H -0.05330 -0.27980 0.12830
H20 H -0.13930 -0.19430 0.11540
C13 C 0.1116(3) -0.16162(16) 0.06088(14)
C14 C 0.1311(4) -0.24098(18) 0.01304(18)
H21 H 0.03800 -0.26810 0.00540
H22 H 0.19530 -0.27910 0.04120
H23 H 0.17250 -0.22710 -0.03840
C15 C 0.6518(3) 0.0634(2) 0.17144(15)
H24 H 0.57390 0.06170 0.13280
H25 H 0.68990 0.00690 0.17910
H26 H 0.72810 0.10010 0.15210
C16 C 0.5955(3) 0.09657(17) 0.24919(15)
C17 C 0.7117(3) 0.0994(2) 0.31198(17)
H27 H 0.67160 0.12140 0.36120
H28 H 0.78980 0.13570 0.29420
H29 H 0.74850 0.04280 0.32100
C18 C 0.4685(3) -0.03103(16) 0.29810(14)
C19 C 0.3275(3) -0.14030(15) 0.35237(15)
H30 H 0.39460 -0.15460 0.39550
H31 H 0.34780 -0.17700 0.30670
C20 C 0.1755(3) -0.15090(14) 0.37909(14)
C21 C 0.1460(3) -0.18337(16) 0.45293(16)
H32 H 0.22250 -0.20090 0.48590
C22 C 0.0057(4) -0.19064(17) 0.47944(19)
H33 H -0.01380 -0.21300 0.53020
C23 C -0.1044(4) -0.16515(18) 0.4314(2)
H34 H -0.20040 -0.16970 0.44930
C24 C -0.0768(3) -0.13284(18) 0.3572(2)
H35 H -0.15340 -0.11530 0.32430
C25 C 0.0622(3) -0.12622(17) 0.33134(17)
H36 H 0.08100 -0.10450 0.28020
#END
