
#######################################################################
#
#                 Cambridge Crystallographic Data Centre
#                                CCDC
#
#######################################################################
#
# If this CIF has been generated from an entry in the Cambridge
# Structural Database, then it will include bibliographic, chemical,
# crystal, experimental, refinement or atomic coordinate data resulting
# from the CCDC's data processing and validation procedures.
#
#######################################################################

data_CSD_CIF_KIVZAQ
_audit_creation_date 2000-07-13
_audit_creation_method CSD-ConQuest-V1
_database_code_CSD KIVZAQ
_database_code_depnum_ccdc_archive 'CCDC 142362'
_chemical_formula_sum 'C27 H22 N2 O4'
_chemical_formula_moiety
;
C27 H22 N2 O4
;
_journal_coden_Cambridge 392
_journal_volume 53
_journal_year 2000
_journal_page_first 1
_journal_name_full 'Heterocycles '
loop_
_publ_author_name
"A.Watanabe"
"T.Moriguchi"
"F.Ito"
"Y.Yoshitake"
"M.Eto"
"K.Harano"
_chemical_name_systematic
;
anti,syn-(2-(2-Hydroxynaphthalen-1-yl)-3,3-dimethyl-2,3-dihydroindol-1-yl)(3-n
itrophenyl)methanone
;
_chemical_name_common
;
anti,syn-1-(3'-Nitrobenzoyl)-2-(2''-hydroxynaphthyl)-3,3-dimethylindoline
;
_chemical_melting_point 526.15
_cell_volume   2253.757
_exptl_crystal_colour 'yellow'
_exptl_special_details
;
Melting point range 526.15-528.15K

;
_exptl_crystal_description 'prisms'
_diffrn_ambient_temperature ?
_diffrn_special_details
;
The study was carried out at room temperature,in the range 283-303K

;
#These two values have been output from a single CSD field.
_refine_ls_R_factor_gt 0.038
_refine_ls_wR_factor_gt 0.038
loop_
_citation_database_id_CSD
_citation_special_details
KIVYOD "is a stereoisomer of this entry"
_symmetry_cell_setting monoclinic
_symmetry_space_group_name_H-M 'P 21/c'
_symmetry_Int_Tables_number 14
loop_
_symmetry_equiv_pos_site_id
_symmetry_equiv_pos_as_xyz
1 x,y,z
2 -x,1/2+y,1/2-z
3 -x,-y,-z
4 x,-1/2-y,-1/2+z
_cell_length_a 7.826(2)
_cell_length_b 24.570(6)
_cell_length_c 11.845(4)
_cell_angle_alpha 90
_cell_angle_beta 98.30(3)
_cell_angle_gamma 90
_cell_formula_units_Z 4
loop_
_atom_type_symbol
_atom_type_radius_bond
C 0.68
H 0.23
N 0.68
O 0.68
loop_
_atom_site_label
_atom_site_type_symbol
_atom_site_fract_x
_atom_site_fract_y
_atom_site_fract_z
O1 O 0.6684(3) -0.00461(9) 0.1337(2)
O2 O 0.8006(5) 0.1985(1) 0.4032(2)
O3 O 0.7984(4) 0.2639(1) 0.2849(2)
O4 O 0.2020(3) 0.0150(1) 0.0667(2)
N1 N 0.4694(3) 0.0217(1) 0.2438(2)
N2 N 0.7779(4) 0.2166(1) 0.3075(3)
C1 C 0.3437(4) 0.0635(1) 0.2756(3)
C2 C 0.2249(4) 0.0316(1) 0.3483(3)
C3 C 0.2815(5) -0.0266(1) 0.3367(3)
C4 C 0.2131(6) -0.0727(2) 0.3809(4)
C5 C 0.2889(8) -0.1227(2) 0.3646(4)
C6 C 0.4277(7) -0.1262(2) 0.3068(4)
C7 C 0.4985(5) -0.0808(1) 0.2624(3)
C8 C 0.4209(4) -0.0309(1) 0.2784(3)
C9 C 0.0336(6) 0.0397(3) 0.3074(5)
C10 C 0.2672(7) 0.0497(2) 0.4737(3)
C11 C 0.5884(4) 0.0317(1) 0.1756(3)
C12 C 0.6272(4) 0.0904(1) 0.1518(3)
C13 C 0.6822(4) 0.1262(1) 0.2403(3)
C14 C 0.7213(4) 0.1786(1) 0.2123(3)
C15 C 0.7095(5) 0.1969(2) 0.1022(3)
C16 C 0.6579(6) 0.1605(2) 0.0159(3)
C17 C 0.6189(5) 0.1074(2) 0.0394(3)
C18 C 0.2550(4) 0.0957(1) 0.1745(3)
C19 C 0.1931(4) 0.0705(1) 0.0736(3)
C20 C 0.1153(5) 0.1004(2) -0.0225(3)
C21 C 0.1021(5) 0.1550(2) -0.0159(4)
C22 C 0.1606(5) 0.1833(1) 0.0852(3)
C23 C 0.1439(6) 0.2409(2) 0.0943(5)
C24 C 0.1988(7) 0.2677(2) 0.1922(5)
C25 C 0.2730(6) 0.2393(2) 0.2885(5)
C26 C 0.2903(5) 0.1836(2) 0.2847(4)
C27 C 0.2365(4) 0.1534(1) 0.1836(3)
H1 H 0.414(3) 0.088(1) 0.324(2)
H2 H 0.102(4) -0.070(1) 0.424(3)
H3 H 0.232(5) -0.154(2) 0.397(3)
H4 H 0.488(4) -0.160(1) 0.299(3)
H5 H 0.596(3) -0.084(1) 0.224(2)
H6 H 0.001(5) 0.076(1) 0.310(3)
H7 H -0.040(5) 0.020(1) 0.357(3)
H8 H 0.008(4) 0.023(1) 0.229(3)
H9 H 0.230(4) 0.087(1) 0.486(3)
H10 H 0.199(4) 0.026(1) 0.527(3)
H11 H 0.390(4) 0.046(1) 0.497(3)
H12 H 0.686(3) 0.115(1) 0.321(2)
H13 H 0.751(4) 0.233(1) 0.088(3)
H14 H 0.657(4) 0.170(1) -0.058(3)
H15 H 0.585(4) 0.081(1) -0.022(2)
H16 H 0.083(4) 0.081(1) -0.097(3)
H17 H 0.059(4) 0.175(1) -0.083(3)
H18 H 0.096(5) 0.256(2) 0.026(3)
H19 H 0.180(6) 0.307(2) 0.201(4)
H20 H 0.304(5) 0.255(2) 0.364(3)
H21 H 0.338(4) 0.167(1) 0.353(2)
H22 H 0.245(5) 0.007(2) 0.001(3)
#END
