
#######################################################################
#
#                 Cambridge Crystallographic Data Centre
#                                CCDC
#
#######################################################################
#
# If this CIF has been generated from an entry in the Cambridge
# Structural Database, then it will include bibliographic, chemical,
# crystal, experimental, refinement or atomic coordinate data resulting
# from the CCDC's data processing and validation procedures.
#
#######################################################################

data_CSD_CIF_KIYSIW
_audit_creation_date 2014-01-24
_audit_creation_method CSD-ConQuest-V1
_database_code_CSD KIYSIW
_database_code_depnum_ccdc_archive 'CCDC 945394'
_chemical_formula_sum 'C24 H17 N1 O4'
_chemical_formula_moiety
;
C24 H17 N1 O4
;
_journal_coden_Cambridge 1500
_journal_volume 4
_journal_year 2014
_journal_page_first 8558
_journal_name_full 'RSC Advances '
loop_
_publ_author_name
"A.Banerjee"
"A.Bera"
"S.K.Santra"
"S.Guin"
"B.K.Patel"
_chemical_name_systematic
;
Methyl 4-(2-(5-phenyl-1,2-oxazol-3-yl)benzoyl)benzoate
;
_cell_volume    962.947
_exptl_crystal_colour 'colorless'
_exptl_crystal_density_diffrn 1.322
_exptl_crystal_description 'needle'
_exptl_crystal_preparation 'ethyl acetate'
_diffrn_ambient_temperature 296
#These two values have been output from a single CSD field.
_refine_ls_R_factor_gt 0.0338
_refine_ls_wR_factor_gt 0.0338
_symmetry_cell_setting triclinic
_symmetry_space_group_name_H-M 'P -1'
_symmetry_Int_Tables_number 2
loop_
_symmetry_equiv_pos_site_id
_symmetry_equiv_pos_as_xyz
1 x,y,z
2 -x,-y,-z
_cell_length_a 6.2208(3)
_cell_length_b 12.7931(5)
_cell_length_c 13.3551(5)
_cell_angle_alpha 113.491(2)
_cell_angle_beta 91.551(2)
_cell_angle_gamma 97.433(2)
_cell_formula_units_Z 2
loop_
_atom_type_symbol
_atom_type_radius_bond
C 0.68
H 0.23
N 0.68
O 0.68
loop_
_atom_site_label
_atom_site_type_symbol
_atom_site_fract_x
_atom_site_fract_y
_atom_site_fract_z
C1 C 0.1575(4) 1.0359(2) 0.37979(17)
C2 C -0.0302(4) 0.8078(2) 0.32416(17)
C3 C 0.2832(4) 0.9553(2) 0.38248(18)
H1 H 0.43170 0.97730 0.40280
C4 C -0.1437(5) 0.6888(2) 0.30063(19)
C5 C -0.0171(4) 0.5912(2) 0.2792(2)
C6 C 0.1898(4) 0.8420(2) 0.35524(18)
H2 H 0.27590 0.78870 0.35790
C7 C -0.1548(4) 0.8887(2) 0.32045(19)
H3 H -0.30280 0.86640 0.29880
C8 C 0.1341(4) 0.5619(2) 0.2008(2)
C9 C 0.2507(5) 1.1588(2) 0.41084(19)
C10 C -0.0632(4) 1.0012(2) 0.34816(19)
H4 H -0.14960 1.05440 0.34570
C11 C 0.2530(4) 0.4744(2) 0.1921(2)
H5 H 0.35460 0.45480 0.14050
C12 C 0.3012(5) 0.7108(2) 0.0272(2)
C13 C -0.0504(4) 0.5291(2) 0.3444(2)
H6 H -0.15440 0.54640 0.39490
C14 C 0.1649(5) 0.62013(19) 0.12582(19)
C15 C 0.6373(5) 0.8150(2) 0.0003(2)
H7 H 0.70840 0.79910 0.05360
C16 C 0.3596(4) 0.6553(2) 0.0878(2)
H8 H 0.49890 0.64270 0.10200
C17 C 0.4177(5) 0.7745(2) -0.0291(2)
C18 C 0.3159(5) 0.7979(3) -0.1096(2)
H9 H 0.16930 0.76960 -0.13190
C19 C 0.0685(5) 0.4429(2) 0.3347(3)
H10 H 0.04580 0.40240 0.37890
C20 C 0.5755(4) 1.2953(2) 0.4616(2)
H11 H 0.53540 1.32310 0.40780
H12 H 0.73030 1.29720 0.46670
H13 H 0.53190 1.34330 0.53140
C21 C 0.7510(5) 0.8784(3) -0.0485(3)
H14 H 0.89910 0.90420 -0.02900
C22 C 0.6482(9) 0.9039(3) -0.1255(3)
H15 H 0.72530 0.94890 -0.15660
C23 C 0.2218(5) 0.4164(2) 0.2592(3)
H16 H 0.30460 0.35910 0.25370
C24 C 0.4322(8) 0.8635(3) -0.1570(3)
H17 H 0.36310 0.88000 -0.21040
N1 N -0.0041(3) 0.64945(17) 0.08786(17)
O1 O 0.4678(3) 1.17755(13) 0.42947(13)
O2 O -0.3401(3) 0.67343(14) 0.30705(15)
O3 O 0.1452(3) 1.23347(15) 0.41844(16)
O4 O 0.0817(3) 0.70851(14) 0.02486(13)
#END
