
#######################################################################
#
#                 Cambridge Crystallographic Data Centre
#                                CCDC
#
#######################################################################
#
# If this CIF has been generated from an entry in the Cambridge
# Structural Database, then it will include bibliographic, chemical,
# crystal, experimental, refinement or atomic coordinate data resulting
# from the CCDC's data processing and validation procedures.
#
#######################################################################

data_CSD_CIF_KIYSOC
_audit_creation_date 2014-01-24
_audit_creation_method CSD-ConQuest-V1
_database_code_CSD KIYSOC
_database_code_depnum_ccdc_archive 'CCDC 945395'
_chemical_formula_sum 'C23 H17 N1 O3'
_chemical_formula_moiety
;
C23 H17 N1 O3
;
_journal_coden_Cambridge 1500
_journal_volume 4
_journal_year 2014
_journal_page_first 8558
_journal_name_full 'RSC Advances '
loop_
_publ_author_name
"A.Banerjee"
"A.Bera"
"S.K.Santra"
"S.Guin"
"B.K.Patel"
_chemical_name_systematic
;
(4-Methoxyphenyl)(2-(5-phenyl-1,2-oxazol-3-yl)phenyl)methanone
;
_cell_volume    900.142
_exptl_crystal_colour 'colorless'
_exptl_crystal_density_diffrn 1.311
_exptl_crystal_description 'needle'
_diffrn_ambient_temperature 296
#These two values have been output from a single CSD field.
_refine_ls_R_factor_gt 0.177
_refine_ls_wR_factor_gt 0.177
_symmetry_cell_setting triclinic
_symmetry_space_group_name_H-M 'P -1'
_symmetry_Int_Tables_number 2
loop_
_symmetry_equiv_pos_site_id
_symmetry_equiv_pos_as_xyz
1 x,y,z
2 -x,-y,-z
_cell_length_a 8.8993(11)
_cell_length_b 10.4759(13)
_cell_length_c 11.0032(14)
_cell_angle_alpha 70.643(7)
_cell_angle_beta 72.001(5)
_cell_angle_gamma 73.148(7)
_cell_formula_units_Z 2
loop_
_atom_type_symbol
_atom_type_radius_bond
C 0.68
H 0.23
N 0.68
O 0.68
loop_
_atom_site_label
_atom_site_type_symbol
_atom_site_fract_x
_atom_site_fract_y
_atom_site_fract_z
O1 O 0.4231(10) 0.4168(8) -0.1320(8)
N1 N 0.4387(12) 0.3411(10) -0.0019(10)
O2 O 0.2925(11) 0.0678(10) 0.1842(10)
O3 O 1.034(1) -0.2084(9) 0.1203(9)
C1 C 0.5655(15) 0.0175(12) 0.1970(12)
C2 C 0.8851(14) -0.1259(12) 0.1453(12)
C3 C 0.8466(15) -0.0169(12) 0.1940(13)
H1 H 0.92680 0.00910 0.21270
C4 C 0.7612(13) -0.1701(12) 0.1247(13)
H2 H 0.78590 -0.24970 0.09640
C5 C 0.6894(14) 0.0586(12) 0.2173(12)
H3 H 0.66640 0.13730 0.24670
C6 C 0.2902(13) 0.5174(12) -0.1267(12)
C7 C 0.3967(15) 0.0966(13) 0.2174(12)
C8 C 0.2943(14) 0.3501(12) 0.2207(13)
C9 C 0.2552(15) 0.6114(13) -0.2504(13)
C10 C 0.1080(16) 0.7064(13) -0.2529(13)
H4 H 0.02990 0.70720 -0.17400
C11 C 0.3144(13) 0.3983(11) 0.0804(13)
C12 C 0.0758(17) 0.7977(15) -0.3673(15)
H5 H -0.02360 0.85910 -0.36620
C13 C 0.6086(16) -0.0983(12) 0.1457(12)
H6 H 0.52980 -0.12510 0.12610
C14 C 0.2176(15) 0.5087(12) 0.0022(13)
H7 H 0.12120 0.56470 0.03450
C15 C 1.1646(16) -0.1688(15) 0.1400(15)
H8 H 1.16040 -0.07190 0.09850
H9 H 1.26560 -0.22110 0.10150
H10 H 1.15490 -0.18700 0.23320
C16 C 0.3451(15) 0.2109(13) 0.2856(13)
C17 C 0.3319(17) 0.1697(14) 0.4238(13)
H11 H 0.36910 0.07780 0.46610
C18 C 0.2229(17) 0.4433(15) 0.2962(15)
H12 H 0.18430 0.53500 0.25480
C19 C 0.3363(19) 0.7044(17) -0.4901(14)
H13 H 0.41230 0.70190 -0.56970
C20 C 0.192(2) 0.7991(14) -0.4868(14)
H14 H 0.17220 0.86450 -0.56430
C21 C 0.3661(19) 0.6096(16) -0.3677(15)
H15 H 0.46350 0.54540 -0.36830
C22 C 0.2069(19) 0.4042(15) 0.4320(15)
H16 H 0.15870 0.46980 0.48000
C23 C 0.2624(18) 0.2683(16) 0.4967(14)
H17 H 0.25360 0.24270 0.58760
#END
