
#######################################################################
#
#                 Cambridge Crystallographic Data Centre
#                                CCDC
#
#######################################################################
#
# If this CIF has been generated from an entry in the Cambridge
# Structural Database, then it will include bibliographic, chemical,
# crystal, experimental, refinement or atomic coordinate data resulting
# from the CCDC's data processing and validation procedures.
#
#######################################################################

data_CSD_CIF_KIZVIZ
_audit_creation_date 2008-09-12
_audit_creation_method CSD-ConQuest-V1
_database_code_CSD KIZVIZ
_database_code_depnum_ccdc_archive 'CCDC 664894'
_chemical_formula_sum 'C16 H18 N2 O7'
_chemical_formula_moiety
;
C16 H18 N2 O7
;
_journal_coden_Cambridge 177
_journal_volume 6
_journal_year 2008
_journal_page_first 1635
_journal_name_full 'Org.Biomol.Chem. '
loop_
_publ_author_name
"B.Alcaide"
"P.Almendros"
"A.Luna"
"M.R.Torres"
_chemical_name_systematic
;
5-(4-Methoxyphenyl)-6-(2,2-dimethyl-1,3-dioxolan-4-yl)-2-nitro-1-oxa-5-azaspir
o(2.3)hexan-4-one
;
_chemical_melting_point 344.15
_cell_volume    854.706
_exptl_crystal_colour 'colorless'
_exptl_crystal_density_diffrn 1.361
_exptl_special_details
;
Melting point range 344.15-346.15K

;
_exptl_crystal_description 'prismatic'
_exptl_crystal_preparation 'ethyl acetate/n-hexane'
_diffrn_ambient_temperature 296
#These two values have been output from a single CSD field.
_refine_ls_R_factor_gt 0.041
_refine_ls_wR_factor_gt 0.041
_symmetry_cell_setting monoclinic
_symmetry_space_group_name_H-M 'P 21'
_symmetry_Int_Tables_number 4
loop_
_symmetry_equiv_pos_site_id
_symmetry_equiv_pos_as_xyz
1 x,y,z
2 -x,1/2+y,-z
_cell_length_a 11.0409(11)
_cell_length_b 6.1566(6)
_cell_length_c 12.5748(13)
_cell_angle_alpha 90
_cell_angle_beta 90.669(2)
_cell_angle_gamma 90
_cell_formula_units_Z 2
loop_
_atom_type_symbol
_atom_type_radius_bond
C 0.68
H 0.23
N 0.68
O 0.68
loop_
_atom_site_label
_atom_site_type_symbol
_atom_site_fract_x
_atom_site_fract_y
_atom_site_fract_z
C1 C 0.5970(3) 0.6489(5) 0.0712(2)
C2 C 0.7055(2) 0.7330(5) 0.0098(2)
C3 C 0.7179(2) 0.9153(5) 0.0921(2)
C4 C 0.8338(2) 0.8991(7) 0.1590(2)
C5 C 0.9407(3) 1.0162(9) 0.1145(3)
H1 H 0.98840 0.92030 0.07030
H2 H 0.91510 1.14040 0.07250
C6 C 0.9300(3) 1.1004(6) 0.2908(2)
C7 C 0.9059(4) 1.3275(9) 0.3166(5)
H3 H 0.98040 1.39830 0.33600
H4 H 0.85090 1.33480 0.37510
H5 H 0.87060 1.39860 0.25590
C8 C 0.9867(3) 0.9784(10) 0.3796(3)
H6 H 0.98600 0.82610 0.36330
H7 H 0.94210 1.00360 0.44350
H8 H 1.06870 1.02640 0.38960
C9 C 0.7330(3) 0.7071(6) -0.1022(3)
C10 C 0.5322(2) 0.8883(5) 0.2234(2)
C11 C 0.5476(2) 1.0885(5) 0.2711(2)
H9 H 0.60890 1.18020 0.24810
C12 C 0.4728(2) 1.1552(5) 0.3532(2)
H10 H 0.48530 1.28910 0.38580
C13 C 0.3801(2) 1.0219(6) 0.3858(2)
C14 C 0.3639(3) 0.8265(6) 0.3361(2)
H11 H 0.30010 0.73820 0.35670
C15 C 0.4386(3) 0.7562(5) 0.2566(2)
H12 H 0.42630 0.62090 0.22540
C16 C 0.3184(3) 1.2638(7) 0.5232(3)
H13 H 0.40010 1.27280 0.54980
H14 H 0.26340 1.26740 0.58170
H15 H 0.30230 1.38450 0.47690
N1 N 0.60987(17) 0.8152(4) 0.14291(17)
N2 N 0.7966(2) 0.8861(5) -0.1578(2)
O1 O 0.52786(18) 0.4988(4) 0.06260(15)
O2 O 0.80222(17) 0.5994(3) -0.02473(15)
O3 O 0.77764(18) 0.8991(4) -0.25303(17)
O4 O 0.8644(3) 0.9997(5) -0.10790(18)
O5 O 0.81765(15) 1.0002(4) 0.25889(14)
O6 O 1.0064(2) 1.0816(6) 0.20336(19)
O7 O 0.30300(18) 1.0688(4) 0.46665(16)
H16 H 0.705(2) 1.070(5) 0.067(2)
H17 H 0.682(3) 0.617(6) -0.147(2)
H18 H 0.859(2) 0.744(5) 0.1678(18)
#END
