
#######################################################################
#
#                 Cambridge Crystallographic Data Centre
#                                CCDC
#
#######################################################################
#
# If this CIF has been generated from an entry in the Cambridge
# Structural Database, then it will include bibliographic, chemical,
# crystal, experimental, refinement or atomic coordinate data resulting
# from the CCDC's data processing and validation procedures.
#
#######################################################################

data_CSD_CIF_KODHUG
_audit_creation_date 1992-03-02
_audit_creation_method CSD-ConQuest-V1
_database_code_CSD KODHUG
_database_code_depnum_ccdc_archive 'CCDC 1198464'
_chemical_formula_sum 'C9 H6 N2 O6'
_chemical_formula_moiety
;
C9 H6 N2 O6
;
_journal_coden_Cambridge 182
_journal_year 1991
_journal_page_first 1239
_journal_name_full 'Chem.Commun. '
loop_
_publ_author_name
"G.R.Desiraju"
"C.V.K.M.Sharma"
_chemical_name_systematic
;
3,5-Dinitrocinnamic acid
;
_cell_volume   1976.254
_diffrn_ambient_temperature ?
_diffrn_special_details
;
The study was carried out at room temperature,in the range 283-303K

;
#These two values have been output from a single CSD field.
_refine_ls_R_factor_gt 0.038
_refine_ls_wR_factor_gt 0.038
_symmetry_cell_setting monoclinic
_symmetry_space_group_name_H-M 'C 2/c'
_symmetry_Int_Tables_number 15
loop_
_symmetry_equiv_pos_site_id
_symmetry_equiv_pos_as_xyz
1 x,y,z
2 1/2+x,1/2+y,z
3 -x,y,1/2-z
4 1/2-x,1/2+y,1/2-z
5 -x,-y,-z
6 -1/2-x,-1/2-y,-z
7 x,-y,-1/2+z
8 -1/2+x,-1/2-y,-1/2+z
_cell_length_a 15.767(15)
_cell_length_b 7.796(3)
_cell_length_c 16.155(5)
_cell_angle_alpha 90
_cell_angle_beta 95.61(6)
_cell_angle_gamma 90
_cell_formula_units_Z 8
loop_
_atom_type_symbol
_atom_type_radius_bond
C 0.68
H 0.23
N 0.68
O 0.68
loop_
_atom_site_label
_atom_site_type_symbol
_atom_site_fract_x
_atom_site_fract_y
_atom_site_fract_z
C1 C 0.7560(3) 0.0148(13) 0.0222(3)
C2 C 0.7336(3) 0.0927(11) 0.0963(3)
C3 C 0.7944(3) 0.0919(12) 0.1646(3)
C4 C 0.8747(3) 0.0310(12) 0.1644(3)
C5 C 0.8952(3) -0.0454(12) 0.0908(3)
C6 C 0.8370(3) -0.0497(11) 0.0199(3)
C7 C 0.6965(3) 0.0130(12) -0.0542(3)
C8 C 0.6130(3) 0.0354(11) -0.0594(3)
C9 C 0.5627(3) 0.0423(13) -0.1425(3)
N1 N 0.7708(3) 0.1788(12) 0.2418(2)
N2 N 0.9808(3) -0.1187(10) 0.0865(3)
O1 O 0.4802(2) 0.0362(9) -0.1388(2)
O2 O 0.5969(2) 0.0460(9) -0.2074(2)
O3 O 0.8212(2) 0.1668(9) 0.3045(2)
O4 O 0.7028(3) 0.2534(10) 0.2382(2)
O5 O 1.0324(2) -0.1024(9) 0.1478(2)
O6 O 0.9963(2) -0.1893(8) 0.0219(2)
H1 H 0.6786(3) 0.144(1) 0.0992(3)
H2 H 0.9156(3) 0.0399(12) 0.2123(3)
H3 H 0.8536(3) -0.0980(12) -0.0307(3)
H4 H 0.7210(3) -0.0062(13) -0.1056(3)
H5 H 0.5848(3) 0.0471(11) -0.0096(3)
H6 H 0.4570(4) 0.0543(12) -0.1796(4)
#END
