
#######################################################################
#
#                 Cambridge Crystallographic Data Centre
#                                CCDC
#
#######################################################################
#
# If this CIF has been generated from an entry in the Cambridge
# Structural Database, then it will include bibliographic, chemical,
# crystal, experimental, refinement or atomic coordinate data resulting
# from the CCDC's data processing and validation procedures.
#
#######################################################################

data_CSD_CIF_KODJAO
_audit_creation_date 1992-03-02
_audit_creation_method CSD-ConQuest-V1
_database_code_CSD KODJAO
_database_code_depnum_ccdc_archive 'CCDC 1198466'
_chemical_formula_sum 'C9 H6 N2 O6'
_chemical_formula_moiety
;
C9 H6 N2 O6
;
_journal_coden_Cambridge 182
_journal_year 1991
_journal_page_first 1239
_journal_name_full 'Chem.Commun. '
loop_
_publ_author_name
"G.R.Desiraju"
"C.V.K.M.Sharma"
_chemical_name_systematic
;
trans-2,4-Dinitrocinnamic acid
;
_cell_volume    966.377
_diffrn_ambient_temperature ?
_diffrn_special_details
;
The study was carried out at room temperature,in the range 283-303K

;
#These two values have been output from a single CSD field.
_refine_ls_R_factor_gt 0.034
_refine_ls_wR_factor_gt 0.034
_symmetry_cell_setting monoclinic
_symmetry_space_group_name_H-M 'P 21/n'
_symmetry_Int_Tables_number 14
loop_
_symmetry_equiv_pos_site_id
_symmetry_equiv_pos_as_xyz
1 x,y,z
2 1/2-x,1/2+y,1/2-z
3 -x,-y,-z
4 -1/2+x,-1/2-y,-1/2+z
_cell_length_a 8.760(9)
_cell_length_b 7.869(5)
_cell_length_c 14.04(1)
_cell_angle_alpha 90
_cell_angle_beta 93.12(7)
_cell_angle_gamma 90
_cell_formula_units_Z 4
loop_
_atom_type_symbol
_atom_type_radius_bond
C 0.68
H 0.23
N 0.68
O 0.68
loop_
_atom_site_label
_atom_site_type_symbol
_atom_site_fract_x
_atom_site_fract_y
_atom_site_fract_z
C1 C 0.1141(2) 1.0241(3) 0.1280(2)
C2 C 0.0290(3) 1.0394(3) 0.2097(2)
C3 C -0.0436(3) 1.1874(3) 0.2345(2)
C4 C -0.0271(2) 1.3276(3) 0.1766(2)
C5 C 0.0545(3) 1.3221(3) 0.0946(2)
C6 C 0.1224(3) 1.1700(2) 0.0705(2)
C7 C 0.1919(3) 0.8679(3) 0.0997(2)
C8 C 0.3305(3) 0.8672(3) 0.0650(2)
C9 C 0.4022(3) 0.7053(3) 0.0388(2)
N1 N 0.0187(2) 0.8956(3) 0.2765(1)
N2 N -0.0958(2) 1.4895(3) 0.2046(1)
O1 O 0.5474(2) 0.7226(2) 0.0194(1)
O2 O 0.3339(2) 0.5690(2) 0.0369(1)
O3 O 0.1209(2) 0.7877(2) 0.2785(1)
O4 O -0.0896(2) 0.8932(2) 0.3286(1)
O5 O -0.1368(2) 1.5020(2) 0.2869(1)
O6 O -0.1083(2) 1.6040(2) 0.1447(1)
H1 H -0.1032(3) 1.1928(3) 0.2898(2)
H2 H 0.0636(3) 1.4212(3) 0.0555(2)
H3 H 0.1767(3) 1.1640(3) 0.0130(2)
H4 H 0.1404(3) 0.7613(3) 0.1065(2)
H5 H 0.3839(3) 0.9724(3) 0.0570(2)
H6 H 0.5807(30) 0.6246(37) 0.0002(19)
#END
