
#######################################################################
#
#                 Cambridge Crystallographic Data Centre
#                                CCDC
#
#######################################################################
#
# If this CIF has been generated from an entry in the Cambridge
# Structural Database, then it will include bibliographic, chemical,
# crystal, experimental, refinement or atomic coordinate data resulting
# from the CCDC's data processing and validation procedures.
#
#######################################################################

data_CSD_CIF_KODXUX
_audit_creation_date 2008-09-12
_audit_creation_method CSD-ConQuest-V1
_database_code_CSD KODXUX
_database_code_depnum_ccdc_archive 'CCDC 696578'
_chemical_formula_sum 'C8 H16 N2 O4'
_chemical_formula_moiety
;
C8 H16 N2 O4
;
_journal_coeditor_code "IUCr AT2577"
_journal_coden_Cambridge 1370
_journal_volume 64
_journal_year 2008
_journal_page_first o1315
_journal_name_full 'Acta Crystallogr.,Sect.E:Struct.Rep.Online '
loop_
_publ_author_name
"Sumei Yao"
_chemical_name_systematic
;
N,N'-Dimethoxy-N,N'-dimethylsuccinamide
;
_cell_volume    525.170
_exptl_crystal_colour 'yellow'
_exptl_crystal_density_diffrn 1.291
_exptl_crystal_description 'Block'
_diffrn_ambient_temperature 296
#These two values have been output from a single CSD field.
_refine_ls_R_factor_gt 0.0548
_refine_ls_wR_factor_gt 0.0548
_symmetry_cell_setting monoclinic
_symmetry_space_group_name_H-M 'P 21/c'
_symmetry_Int_Tables_number 14
loop_
_symmetry_equiv_pos_site_id
_symmetry_equiv_pos_as_xyz
1 x,y,z
2 -x,1/2+y,1/2-z
3 -x,-y,-z
4 x,-1/2-y,-1/2+z
_cell_length_a 4.2645(15)
_cell_length_b 11.152(4)
_cell_length_c 11.165(4)
_cell_angle_alpha 90
_cell_angle_beta 98.485(5)
_cell_angle_gamma 90
_cell_formula_units_Z 2
loop_
_atom_type_symbol
_atom_type_radius_bond
C 0.68
H 0.23
N 0.68
O 0.68
loop_
_atom_site_label
_atom_site_type_symbol
_atom_site_fract_x
_atom_site_fract_y
_atom_site_fract_z
O1 O 0.2198(3) 0.51856(11) 0.21773(11)
O2 O 0.4066(3) 0.7655(1) 0.05213(10)
N1 N 0.3748(4) 0.69395(13) 0.15260(12)
C1 C 0.2269(4) 0.58794(14) 0.13325(15)
C2 C 0.0721(4) 0.56191(14) 0.00580(15)
H1 H 0.22890 0.56890 -0.04850
H2 H -0.09200 0.62100 -0.01830
C3 C 0.2116(5) 0.87038(16) 0.0512(2)
H3 H 0.23510 0.91860 -0.01810
H4 H 0.27540 0.91590 0.12370
H5 H -0.00610 0.84680 0.04750
C4 C 0.5720(5) 0.72712(18) 0.26424(17)
H6 H 0.53470 0.67280 0.32740
H7 H 0.52140 0.80730 0.28610
H8 H 0.79100 0.72320 0.25350
O1B O -0.2198(3) 0.48144(11) -0.21773(11)
O2B O -0.4066(3) 0.2345(1) -0.05213(10)
N1B N -0.3748(4) 0.30605(13) -0.15260(12)
C1B C -0.2269(4) 0.41206(14) -0.13325(15)
C2B C -0.0721(4) 0.43809(14) -0.00580(15)
H1B H -0.22890 0.43110 0.04850
H2B H 0.09200 0.37900 0.01830
C3B C -0.2116(5) 0.12962(16) -0.0512(2)
H3B H -0.23510 0.08140 0.01810
H4B H -0.27540 0.08410 -0.12370
H5B H 0.00610 0.15320 -0.04750
C4B C -0.5720(5) 0.27288(18) -0.26424(17)
H6B H -0.53470 0.32720 -0.32740
H7B H -0.52140 0.19270 -0.28610
H8B H -0.79100 0.27680 -0.25350
#END
