
#######################################################################
#
#                 Cambridge Crystallographic Data Centre
#                                CCDC
#
#######################################################################
#
# If this CIF has been generated from an entry in the Cambridge
# Structural Database, then it will include bibliographic, chemical,
# crystal, experimental, refinement or atomic coordinate data resulting
# from the CCDC's data processing and validation procedures.
#
#######################################################################

data_CSD_CIF_KODZUZ
_audit_creation_date 2008-09-12
_audit_creation_method CSD-ConQuest-V1
_database_code_CSD KODZUZ
_database_code_depnum_ccdc_archive 'CCDC 700438'
_chemical_formula_sum 'C15 H11 N5 O1'
_chemical_formula_moiety
;
C15 H11 N5 O1
;
_journal_coeditor_code "IUCr LH2650"
_journal_coden_Cambridge 1370
_journal_volume 64
_journal_year 2008
_journal_page_first o1403
_journal_name_full 'Acta Crystallogr.,Sect.E:Struct.Rep.Online '
loop_
_publ_author_name
"Shu-Qing Xu"
"Jia-Ming Li"
_chemical_name_systematic
;
5-(1H-1,2,3-Benzotriazol-1-ylmethyl)-3-phenyl-1,2,4-oxadiazole
;
_cell_volume   1312.831
_exptl_crystal_colour 'colorless'
_exptl_crystal_density_diffrn 1.403
_exptl_crystal_description 'block'
_exptl_crystal_preparation 'ethanol'
_diffrn_ambient_temperature 295
#These two values have been output from a single CSD field.
_refine_ls_R_factor_gt 0.05
_refine_ls_wR_factor_gt 0.05
_symmetry_cell_setting monoclinic
_symmetry_space_group_name_H-M 'P 21/c'
_symmetry_Int_Tables_number 14
loop_
_symmetry_equiv_pos_site_id
_symmetry_equiv_pos_as_xyz
1 x,y,z
2 -x,1/2+y,1/2-z
3 -x,-y,-z
4 x,-1/2-y,-1/2+z
_cell_length_a 4.7009(13)
_cell_length_b 11.100(3)
_cell_length_c 25.265(7)
_cell_angle_alpha 90
_cell_angle_beta 95.234(6)
_cell_angle_gamma 90
_cell_formula_units_Z 4
loop_
_atom_type_symbol
_atom_type_radius_bond
C 0.68
H 0.23
N 0.68
O 0.68
loop_
_atom_site_label
_atom_site_type_symbol
_atom_site_fract_x
_atom_site_fract_y
_atom_site_fract_z
O1 O 0.1731(4) 0.96111(14) 0.37087(7)
N1 N 0.3748(5) 0.94501(18) 0.41561(8)
N2 N 0.4253(4) 0.80085(17) 0.35428(7)
N3 N 0.1502(4) 0.80219(18) 0.24592(8)
N4 N 0.1194(5) 0.68098(19) 0.23986(9)
N5 N 0.2711(5) 0.64667(18) 0.20147(9)
C1 C 0.5148(5) 0.8490(2) 0.40357(9)
C2 C 0.7410(5) 0.7967(2) 0.43988(9)
C3 C 0.8252(5) 0.8510(2) 0.48824(10)
H1 H 0.73930 0.92240 0.49760
C4 C 1.0355(6) 0.7994(3) 0.52249(10)
H2 H 1.09270 0.83690 0.55460
C5 C 1.1613(6) 0.6933(3) 0.50957(11)
H3 H 1.30190 0.65860 0.53300
C6 C 1.0795(6) 0.6382(2) 0.46194(11)
H4 H 1.16520 0.56630 0.45320
C7 C 0.8703(5) 0.6893(2) 0.42703(10)
H5 H 0.81570 0.65170 0.39480
C8 C 0.2200(5) 0.8714(2) 0.33742(9)
C9 C 0.0215(5) 0.8644(2) 0.28801(9)
H6 H -0.15120 0.82250 0.29560
H7 H -0.03130 0.94520 0.27630
C10 C 0.3265(5) 0.8462(2) 0.21070(9)
C11 C 0.4018(5) 0.7457(2) 0.18258(9)
C12 C 0.5861(5) 0.7564(2) 0.14226(10)
H8 H 0.63740 0.68980 0.12290
C13 C 0.6871(5) 0.8689(3) 0.13269(10)
H9 H 0.81250 0.87880 0.10660
C14 C 0.6070(5) 0.9691(2) 0.16101(10)
H10 H 0.67900 1.04420 0.15290
C15 C 0.4258(5) 0.9607(2) 0.20035(10)
H11 H 0.37240 1.02790 0.21900
#END
