
#######################################################################
#
#                 Cambridge Crystallographic Data Centre
#                                CCDC
#
#######################################################################
#
# If this CIF has been generated from an entry in the Cambridge
# Structural Database, then it will include bibliographic, chemical,
# crystal, experimental, refinement or atomic coordinate data resulting
# from the CCDC's data processing and validation procedures.
#
#######################################################################

data_CSD_CIF_KOFDUF
_audit_creation_date 2008-09-12
_audit_creation_method CSD-ConQuest-V1
_database_code_CSD KOFDUF
_database_code_depnum_ccdc_archive 'CCDC 700453'
_chemical_formula_sum 'C9 H9 N3 O6'
_chemical_formula_moiety
;
C9 H9 N3 O6
;
_journal_coeditor_code "IUCr LX2057"
_journal_coden_Cambridge 1370
_journal_volume 64
_journal_year 2008
_journal_page_first o1422
_journal_name_full 'Acta Crystallogr.,Sect.E:Struct.Rep.Online '
loop_
_publ_author_name
"Li He"
"Zhi-Gang Xu"
"Yan Jiang"
"Zhi-Hua Mao"
"An-Ping Deng"
_chemical_name_systematic
;
N-(2-Hydroxyethyl)-3,5-dinitrobenzamide
;
_chemical_melting_point 416
_cell_volume   1077.130
_exptl_crystal_colour 'colorless'
_exptl_crystal_density_diffrn 1.574
_exptl_special_details
;
Melting point range 416-417K

;
_exptl_crystal_description 'block'
_exptl_crystal_preparation 'ethanol'
_diffrn_ambient_temperature 294
#These two values have been output from a single CSD field.
_refine_ls_R_factor_gt 0.0349
_refine_ls_wR_factor_gt 0.0349
_symmetry_cell_setting orthorhombic
_symmetry_space_group_name_H-M 'P 21 21 21'
_symmetry_Int_Tables_number 19
loop_
_symmetry_equiv_pos_site_id
_symmetry_equiv_pos_as_xyz
1 x,y,z
2 1/2-x,-y,1/2+z
3 1/2+x,1/2-y,-z
4 -x,1/2+y,1/2-z
_cell_length_a 6.514(4)
_cell_length_b 9.097(3)
_cell_length_c 18.177(3)
_cell_angle_alpha 90
_cell_angle_beta 90
_cell_angle_gamma 90
_cell_formula_units_Z 4
loop_
_atom_type_symbol
_atom_type_radius_bond
C 0.68
H 0.23
N 0.68
O 0.68
loop_
_atom_site_label
_atom_site_type_symbol
_atom_site_fract_x
_atom_site_fract_y
_atom_site_fract_z
O1 O 0.2873(3) 0.5989(2) 0.34735(10)
O2 O 0.5044(3) 0.7755(2) 0.56083(10)
H1 H 0.55350 0.81060 0.59850
O3 O 0.5495(4) 0.6710(3) 0.02304(11)
O4 O 0.3233(5) 0.5573(4) 0.08631(13)
O5 O 1.0931(4) 0.9372(3) 0.26737(12)
O6 O 1.1272(4) 0.8922(3) 0.15286(11)
N1 N 0.5752(4) 0.6420(2) 0.41241(11)
H2 H 0.69160 0.68650 0.41320
N2 N 0.4757(5) 0.6333(3) 0.08103(13)
N3 N 1.0356(4) 0.8822(3) 0.21046(13)
C1 C 0.5713(4) 0.6903(3) 0.28124(14)
C2 C 0.7552(4) 0.7679(3) 0.27890(13)
H3 H 0.81860 0.79820 0.32220
C3 C 0.8421(4) 0.7994(3) 0.21153(14)
C4 C 0.7576(4) 0.7570(3) 0.14550(13)
H4 H 0.82020 0.77790 0.10070
C5 C 0.5739(5) 0.6816(3) 0.14983(14)
C6 C 0.4801(4) 0.6487(3) 0.21553(14)
H5 H 0.35560 0.59870 0.21590
C7 C 0.4681(4) 0.6420(3) 0.35076(14)
C8 C 0.5042(5) 0.5698(3) 0.47915(13)
H6 H 0.54030 0.46640 0.47680
H7 H 0.35570 0.57650 0.48150
C9 C 0.5928(4) 0.6344(3) 0.54759(14)
H8 H 0.56520 0.57000 0.58900
H9 H 0.74040 0.64380 0.54240
#END
