
#######################################################################
#
#                 Cambridge Crystallographic Data Centre
#                                CCDC
#
#######################################################################
#
# If this CIF has been generated from an entry in the Cambridge
# Structural Database, then it will include bibliographic, chemical,
# crystal, experimental, refinement or atomic coordinate data resulting
# from the CCDC's data processing and validation procedures.
#
#######################################################################

data_CSD_CIF_KOFKEV
_audit_creation_date 1992-04-15
_audit_creation_method CSD-ConQuest-V1
_database_code_CSD KOFKEV
_chemical_formula_sum 'C5 H10 N4 O4'
_chemical_formula_moiety
;
C5 H10 N4 O4
;
_journal_coeditor_code "IUCr LI0078"
_journal_coden_Cambridge 622
_journal_volume 47
_journal_year 1991
_journal_page_first 782
_journal_name_full 'Acta Crystallogr.,Sect.B:Struct.Sci. '
loop_
_publ_author_name
"M.Pickering"
"J.Rylance"
"R.W.H.Small"
"D.Stubley"
_chemical_name_systematic
;
1,3-Dinitro-1,3-diazacycloheptane
;
_chemical_melting_point 374
_cell_volume    820.406
_exptl_crystal_density_diffrn 1.539
_exptl_special_details
;
room temperature monoclinic polymorph
phase transition at 369

;
_diffrn_ambient_temperature 290
#These two values have been output from a single CSD field.
_refine_ls_R_factor_gt 0.056
_refine_ls_wR_factor_gt 0.056
_symmetry_cell_setting monoclinic
_symmetry_space_group_name_H-M 'P 21/n'
_symmetry_Int_Tables_number 14
loop_
_symmetry_equiv_pos_site_id
_symmetry_equiv_pos_as_xyz
1 x,y,z
2 1/2-x,1/2+y,1/2-z
3 -x,-y,-z
4 -1/2+x,-1/2-y,-1/2+z
_cell_length_a 8.738(8)
_cell_length_b 11.20(1)
_cell_length_c 8.383(7)
_cell_angle_alpha 90
_cell_angle_beta 90.1(1)
_cell_angle_gamma 90
_cell_formula_units_Z 4
loop_
_atom_type_symbol
_atom_type_radius_bond
C 0.68
H 0.23
N 0.68
O 0.68
loop_
_atom_site_label
_atom_site_type_symbol
_atom_site_fract_x
_atom_site_fract_y
_atom_site_fract_z
C1 C -0.0896(5) 0.6457(4) 0.1534(5)
C2 C -0.0264(6) 0.6666(4) 0.4465(4)
C3 C 0.0074(6) 0.7979(4) 0.4558(5)
C4 C -0.0666(7) 0.8721(4) 0.3274(5)
C5 C 0.0019(6) 0.8641(4) 0.1639(5)
N1 N -0.0435(4) 0.7567(3) 0.0757(3)
N2 N 0.0057(4) 0.7484(4) -0.0761(3)
N3 N 0.0050(3) 0.6153(3) 0.2881(3)
N4 N 0.1545(4) 0.5885(3) 0.2565(4)
O1 O -0.0314(4) 0.6620(3) -0.1565(3)
O2 O 0.0824(3) 0.8320(32) -0.1269(3)
O3 O 0.1877(3) 0.5766(3) 0.1147(3)
O4 O 0.2405(3) 0.5751(3) 0.3694(4)
H1 H -0.087(4) 0.578(3) 0.064(4)
H2 H -0.192(4) 0.655(3) 0.203(3)
H3 H -0.139(4) 0.649(3) 0.462(4)
H4 H 0.023(4) 0.621(3) 0.526(4)
H5 H -0.024(4) 0.827(3) 0.574(4)
H6 H 0.123(5) 0.812(3) 0.447(4)
H7 H -0.057(4) 0.959(3) 0.349(4)
H8 H -0.169(4) 0.858(3) 0.318(4)
H9 H 0.122(5) 0.867(4) 0.166(4)
H10 H -0.031(4) 0.925(3) 0.091(4)
#END
