
#######################################################################
#
#                 Cambridge Crystallographic Data Centre
#                                CCDC
#
#######################################################################
#
# If this CIF has been generated from an entry in the Cambridge
# Structural Database, then it will include bibliographic, chemical,
# crystal, experimental, refinement or atomic coordinate data resulting
# from the CCDC's data processing and validation procedures.
#
#######################################################################

data_CSD_CIF_KOHCEQ
_audit_creation_date 2009-02-26
_audit_creation_method CSD-ConQuest-V1
_database_code_CSD KOHCEQ
_database_code_depnum_ccdc_archive 'CCDC 683408'
_chemical_formula_sum 'C20 H16 N4 O2'
_chemical_formula_moiety
;
C20 H16 N4 O2
;
_journal_coden_Cambridge 692
_journal_year 2008
_journal_page_first 2977
_journal_name_full 'Synthesis '
loop_
_publ_author_name
"B.Trzewik"
"D.Ciez"
"M.Hodorowicz"
"K.Stadnicka"
_chemical_name_systematic
;
(E)-2-Phenyl-3-(phenylimino)-5-(pyridin-2-yl)-1,2,5-oxadiazinan-4-one
;
_chemical_melting_point 395.5
_cell_volume    866.199
_exptl_crystal_colour 'yellow'
_exptl_crystal_density_diffrn 1.32
_exptl_special_details
;
Melting point range 395.5-396.5K

;
_exptl_crystal_description 'block'
_exptl_crystal_preparation 'methanol'
_diffrn_ambient_temperature 293
#These two values have been output from a single CSD field.
_refine_ls_R_factor_gt 0.055
_refine_ls_wR_factor_gt 0.055
_symmetry_cell_setting triclinic
_symmetry_space_group_name_H-M 'P -1'
_symmetry_Int_Tables_number 2
loop_
_symmetry_equiv_pos_site_id
_symmetry_equiv_pos_as_xyz
1 x,y,z
2 -x,-y,-z
_cell_length_a 7.2690(2)
_cell_length_b 10.1355(3)
_cell_length_c 12.9066(4)
_cell_angle_alpha 67.916(2)
_cell_angle_beta 81.547(1)
_cell_angle_gamma 80.982(1)
_cell_formula_units_Z 2
loop_
_atom_type_symbol
_atom_type_radius_bond
C 0.68
H 0.23
N 0.68
O 0.68
loop_
_atom_site_label
_atom_site_type_symbol
_atom_site_fract_x
_atom_site_fract_y
_atom_site_fract_z
O1 O 1.32228(15) 0.26129(15) 0.45558(9)
N1 N 1.31064(19) 0.31500(18) 0.33812(11)
C1 C 1.1687(2) 0.42708(17) 0.30792(13)
C2 C 1.0037(2) 0.41673(17) 0.39873(13)
O2 O 0.88528(18) 0.51806(14) 0.38718(11)
N2 N 0.99819(17) 0.28765(14) 0.48588(11)
C3 C 1.1677(2) 0.1847(2) 0.50483(15)
H1 H 1.17690 0.13490 0.58470
H2 H 1.16340 0.11440 0.47120
C4 C 1.4814(2) 0.29026(17) 0.27579(13)
C5 C 1.4903(3) 0.3280(2) 0.16039(15)
H3 H 1.38640 0.37630 0.12220
C6 C 1.6546(3) 0.2934(2) 0.10235(16)
H4 H 1.66050 0.31890 0.02490
C7 C 1.8087(3) 0.2222(2) 0.15741(18)
H5 H 1.91870 0.19940 0.11770
C8 C 1.7991(2) 0.1847(2) 0.27222(18)
H6 H 1.90350 0.13640 0.30990
C9 C 1.6363(2) 0.21777(18) 0.33225(15)
H7 H 1.63100 0.19160 0.40980
N3 N 1.1745(2) 0.52171(16) 0.21040(12)
C10 C 1.02467(16) 0.62417(11) 0.16678(10)
C11 C 1.0288(2) 0.76692(13) 0.15167(13)
H8 H 1.12580 0.79350 0.17670
C12 C 0.8882(3) 0.86994(10) 0.09916(14)
H9 H 0.89100 0.96540 0.08900
C13 C 0.7433(2) 0.83021(18) 0.06178(13)
H10 H 0.64920 0.89910 0.02670
C14 C 0.7391(2) 0.6875(2) 0.07690(15)
H11 H 0.64220 0.66090 0.05190
C15 C 0.8798(2) 0.58444(13) 0.12940(13)
H12 H 0.87700 0.48890 0.13950
N4 N 0.8513(2) 0.10270(16) 0.61685(13)
C16 C 0.8382(2) 0.24402(17) 0.56232(13)
C17 C 0.6840(2) 0.3368(2) 0.57917(14)
H13 H 0.68000 0.43520 0.54100
C18 C 0.5377(3) 0.2772(3) 0.65448(17)
H14 H 0.43220 0.33560 0.66800
C19 C 0.5477(3) 0.1307(3) 0.70979(18)
H15 H 0.44860 0.08880 0.75940
C20 C 0.7071(3) 0.0488(2) 0.68982(18)
H16 H 0.71560 -0.04960 0.72910
#END
