
#######################################################################
#
#                 Cambridge Crystallographic Data Centre
#                                CCDC
#
#######################################################################
#
# If this CIF has been generated from an entry in the Cambridge
# Structural Database, then it will include bibliographic, chemical,
# crystal, experimental, refinement or atomic coordinate data resulting
# from the CCDC's data processing and validation procedures.
#
#######################################################################

data_CSD_CIF_KOHPAY
_audit_creation_date 1992-05-19
_audit_creation_method CSD-ConQuest-V1
_database_code_CSD KOHPAY
_chemical_formula_sum 'C15 H16 N2 O4'
_chemical_formula_moiety
;
C15 H16 N2 O4
;
_journal_coeditor_code "IUCr HU0349"
_journal_coden_Cambridge 591
_journal_volume 47
_journal_year 1991
_journal_page_first 2586
_journal_name_full 'Acta Crystallogr.,Sect.C:Cryst.Struct.Commun. '
loop_
_publ_author_name
"M.J.Dianez"
"S.Perez-Garrido"
"A.Lopez-Castro"
_chemical_name_systematic
;
5,5-Dimethyl-2-(4-nitrophenylaminomethylene)-1,3-cyclohexanedione
;
_cell_volume    711.534
_exptl_crystal_colour 'colorless'
_exptl_crystal_density_diffrn 1.34
_diffrn_ambient_temperature ?
_diffrn_special_details
;
The study was carried out at room temperature,in the range 283-303K

;
#These two values have been output from a single CSD field.
_refine_ls_R_factor_gt 0.079
_refine_ls_wR_factor_gt 0.079
_symmetry_cell_setting triclinic
_symmetry_space_group_name_H-M 'P -1'
_symmetry_Int_Tables_number 2
loop_
_symmetry_equiv_pos_site_id
_symmetry_equiv_pos_as_xyz
1 x,y,z
2 -x,-y,-z
_cell_length_a 12.719(3)
_cell_length_b 7.485(2)
_cell_length_c 7.728(2)
_cell_angle_alpha 93.18(2)
_cell_angle_beta 100.40(2)
_cell_angle_gamma 99.24(2)
_cell_formula_units_Z 2
loop_
_atom_type_symbol
_atom_type_radius_bond
C 0.68
H 0.23
N 0.68
O 0.68
loop_
_atom_site_label
_atom_site_type_symbol
_atom_site_fract_x
_atom_site_fract_y
_atom_site_fract_z
N1 N 0.8660(7) 0.3428(10) 0.7469(11)
N2 N 1.2025(7) 0.9090(11) 0.6883(14)
O1 O 0.6559(6) 0.2416(9) 0.6814(13)
O2 O 0.8759(6) -0.1267(9) 0.9925(12)
O3 O 1.2931(6) 0.9027(10) 0.7572(14)
O4 O 1.1737(7) 1.0348(10) 0.6031(14)
C1 C 0.5926(7) -0.2315(11) 0.7673(13)
C2 C 0.5693(7) -0.0318(12) 0.7720(17)
C3 C 0.6697(8) 0.1027(11) 0.7557(14)
C4 C 0.7731(8) 0.0664(12) 0.8292(13)
C5 C 0.7905(9) -0.1001(12) 0.9178(13)
C6 C 0.6858(8) -0.2364(11) 0.9138(13)
C7 C 0.8685(8) 0.1846(11) 0.8249(13)
C8 C 0.9573(8) 0.4774(11) 0.7364(13)
C9 C 0.9294(8) 0.6309(12) 0.6578(14)
C10 C 1.0081(9) 0.7730(13) 0.6396(17)
C11 C 1.1131(9) 0.7584(12) 0.7021(14)
C12 C 1.1437(8) 0.6081(13) 0.7833(15)
C13 C 1.0613(8) 0.4649(12) 0.8005(16)
C14 C 0.6128(9) -0.2859(12) 0.5895(15)
C15 C 0.4888(8) -0.3523(13) 0.8032(17)
H1 H 0.79000 0.36600 0.69500
H2 H 0.50400 -0.02100 0.67800
H3 H 0.53700 0.00000 0.88000
H4 H 0.66300 -0.22300 1.03400
H5 H 0.70300 -0.36300 0.92200
H6 H 0.94300 0.15400 0.87900
H7 H 0.85000 0.63500 0.60900
H8 H 0.99100 0.88600 0.58600
H9 H 1.22400 0.60000 0.82600
H10 H 1.07800 0.35300 0.86000
H11 H 0.67700 -0.20100 0.56400
H12 H 0.54800 -0.28200 0.49700
H13 H 0.63000 -0.41200 0.58600
H14 H 0.42400 -0.34700 0.71000
H15 H 0.47200 -0.31700 0.92200
H16 H 0.50400 -0.48100 0.80200
#END
