
#######################################################################
#
#                 Cambridge Crystallographic Data Centre
#                                CCDC
#
#######################################################################
#
# If this CIF has been generated from an entry in the Cambridge
# Structural Database, then it will include bibliographic, chemical,
# crystal, experimental, refinement or atomic coordinate data resulting
# from the CCDC's data processing and validation procedures.
#
#######################################################################

data_CSD_CIF_KOHQOO01
_audit_creation_date 2010-07-16
_audit_creation_method CSD-ConQuest-V1
_database_code_CSD KOHQOO01
_database_code_depnum_ccdc_archive 'CCDC 781289'
_chemical_formula_sum 'C20 H27 N3 O4'
_chemical_formula_moiety
;
C20 H27 N3 O4
;
_journal_coeditor_code "IUCr HB5432"
_journal_coden_Cambridge 1370
_journal_volume 66
_journal_year 2010
_journal_page_first o1291
_journal_name_full 'Acta Crystallogr.,Sect.E:Struct.Rep.Online '
loop_
_publ_author_name
"A.N.Dhinaa"
"R.Jagan"
"K.Sivakumar"
"K.Chinnakali"
_chemical_name_systematic
;
1,3-Dicyclohexyl-1-(4-nitrobenzoyl)urea
;
_cell_volume   3903.142
_exptl_crystal_colour 'pale yellow'
_exptl_crystal_density_diffrn 1.271
_exptl_crystal_description 'block'
_diffrn_ambient_temperature 292
#These two values have been output from a single CSD field.
_refine_ls_R_factor_gt 0.0493
_refine_ls_wR_factor_gt 0.0493
_symmetry_cell_setting monoclinic
_symmetry_space_group_name_H-M 'C 2/c'
_symmetry_Int_Tables_number 15
loop_
_symmetry_equiv_pos_site_id
_symmetry_equiv_pos_as_xyz
1 x,y,z
2 -x,y,1/2-z
3 1/2+x,1/2+y,z
4 1/2-x,1/2+y,1/2-z
5 -x,-y,-z
6 x,-y,-1/2+z
7 -1/2-x,-1/2-y,-z
8 -1/2+x,-1/2-y,-1/2+z
_cell_length_a 25.294(2)
_cell_length_b 9.5757(7)
_cell_length_c 16.6943(14)
_cell_angle_alpha 90
_cell_angle_beta 105.140(2)
_cell_angle_gamma 90
_cell_formula_units_Z 8
loop_
_atom_type_symbol
_atom_type_radius_bond
C 0.68
H 0.23
N 0.68
O 0.68
loop_
_atom_site_label
_atom_site_type_symbol
_atom_site_fract_x
_atom_site_fract_y
_atom_site_fract_z
C1 C 0.18614(6) 0.20858(14) 0.12793(9)
H1 H 0.19690 0.11160 0.12200
C2 C 0.12619(7) 0.2094(2) 0.12851(11)
H2 H 0.11510 0.30390 0.13740
H3 H 0.12120 0.15170 0.17380
C3 C 0.09045(7) 0.1538(3) 0.04623(12)
H4 H 0.09910 0.05630 0.04020
H5 H 0.05220 0.15960 0.04660
C4 C 0.09915(8) 0.2346(2) -0.02572(12)
H6 H 0.08700 0.33010 -0.02280
H7 H 0.07750 0.19380 -0.07700
C5 C 0.15886(8) 0.2338(2) -0.02557(11)
H8 H 0.16380 0.29020 -0.07130
H9 H 0.17000 0.13910 -0.03370
C6 C 0.19480(8) 0.29061(19) 0.05559(10)
H10 H 0.23300 0.28500 0.05490
H11 H 0.18600 0.38800 0.06150
C7 C 0.25502(6) 0.18506(14) 0.26110(9)
C8 C 0.34370(6) 0.27308(16) 0.35126(10)
H12 H 0.35450 0.35510 0.38690
C9 C 0.36104(7) 0.2997(2) 0.27233(12)
H13 H 0.34360 0.38410 0.24600
H14 H 0.34920 0.22260 0.23410
C10 C 0.42312(8) 0.3153(3) 0.29111(15)
H15 H 0.43350 0.32690 0.23960
H16 H 0.43450 0.39820 0.32460
C11 C 0.45178(8) 0.1898(3) 0.33654(17)
H17 H 0.49110 0.20370 0.34930
H18 H 0.44270 0.10810 0.30130
C12 C 0.43525(8) 0.1653(3) 0.41589(16)
H19 H 0.44710 0.24340 0.45320
H20 H 0.45310 0.08170 0.44280
C13 C 0.37307(7) 0.1487(2) 0.39846(13)
H21 H 0.36170 0.06440 0.36630
H22 H 0.36310 0.13930 0.45050
C14 C 0.25633(7) 0.32416(15) 0.38509(9)
C15 C 0.19665(6) 0.29435(15) 0.37139(9)
C16 C 0.16036(8) 0.40464(17) 0.36337(13)
H23 H 0.17320 0.49560 0.36320
C17 C 0.10558(9) 0.3818(2) 0.35558(14)
H24 H 0.08110 0.45600 0.34890
C18 C 0.08794(7) 0.2471(2) 0.35787(11)
C19 C 0.12263(7) 0.13583(19) 0.36631(11)
H25 H 0.10950 0.04530 0.36740
C20 C 0.17750(7) 0.15920(16) 0.37322(10)
H26 H 0.20160 0.08420 0.37910
N1 N 0.22096(5) 0.26334(11) 0.20560(7)
H27 H 0.21920 0.35100 0.21570
N2 N 0.28337(5) 0.25964(12) 0.33451(7)
N3 N 0.02944(8) 0.2204(3) 0.35113(12)
O1 O 0.26427(4) 0.06149(10) 0.25260(6)
O2 O 0.27950(5) 0.40101(12) 0.44180(7)
O3 O 0.01453(7) 0.1016(3) 0.35244(15)
O4 O -0.00053(8) 0.3209(3) 0.34562(14)
#END
