
#######################################################################
#
#                 Cambridge Crystallographic Data Centre
#                                CCDC
#
#######################################################################
#
# If this CIF has been generated from an entry in the Cambridge
# Structural Database, then it will include bibliographic, chemical,
# crystal, experimental, refinement or atomic coordinate data resulting
# from the CCDC's data processing and validation procedures.
#
#######################################################################

data_CSD_CIF_KOJCUJ
_audit_creation_date 2014-07-03
_audit_creation_method CSD-ConQuest-V1
_database_code_CSD KOJCUJ
_database_code_depnum_ccdc_archive 'CCDC 1010107'
_chemical_formula_sum 'C26 H27 N3 O5'
_chemical_formula_moiety
;
C26 H27 N3 O5
;
_journal_coeditor_code "IUCr hg5396"
_journal_coden_Cambridge 1370
_journal_volume 70
_journal_year 2014
_journal_page_first o833
_journal_name_full 'Acta Crystallogr.,Sect.E:Struct.Rep.Online '
loop_
_publ_author_name
"Z.Atioglu"
"M.Akkurt"
"A.Jarrahpour"
"R.Heiran"
"N.Ozdemir"
_chemical_name_systematic
;
1-(3-(morpholin-4-yl)propyl)-3-(2-naphthyloxy)-4-(3-nitrophenyl)azetidin-2-one
;
_cell_volume   1214.329
_exptl_crystal_colour 'light yellow'
_exptl_crystal_density_diffrn 1.262
_exptl_crystal_description 'block'
_diffrn_ambient_temperature 296
#These two values have been output from a single CSD field.
_refine_ls_R_factor_gt 0.0664
_refine_ls_wR_factor_gt 0.0664
_symmetry_cell_setting triclinic
_symmetry_space_group_name_H-M 'P -1'
_symmetry_Int_Tables_number 2
loop_
_symmetry_equiv_pos_site_id
_symmetry_equiv_pos_as_xyz
1 x,y,z
2 -x,-y,-z
_cell_length_a 9.7068(8)
_cell_length_b 10.3836(9)
_cell_length_c 14.2041(11)
_cell_angle_alpha 73.739(6)
_cell_angle_beta 75.922(6)
_cell_angle_gamma 63.107(6)
_cell_formula_units_Z 2
loop_
_atom_type_symbol
_atom_type_radius_bond
C 0.68
H 0.23
N 0.68
O 0.68
loop_
_atom_site_label
_atom_site_type_symbol
_atom_site_fract_x
_atom_site_fract_y
_atom_site_fract_z
O1 O 0.9297(3) 1.1424(3) 0.07366(17)
O2 O 0.7976(2) 0.9168(2) 0.21877(14)
O3 O 0.8014(5) 1.0509(4) 0.4976(2)
O4 O 0.8408(5) 0.8838(4) 0.6243(2)
O5 O 1.7676(3) 0.5318(3) -0.1356(2)
N1 N 1.1173(3) 0.9410(3) 0.16271(17)
N2 N 0.8603(5) 0.9237(5) 0.5366(2)
N3 N 1.5567(3) 0.7649(3) -0.03474(17)
C1 C 0.9845(4) 1.0180(4) 0.1211(2)
C2 C 0.9402(4) 0.8877(4) 0.1546(2)
C3 C 1.0932(4) 0.8057(3) 0.2041(2)
C4 C 0.7483(4) 0.8039(4) 0.2538(2)
C5 C 0.6102(4) 0.8383(4) 0.3220(2)
C6 C 0.5486(4) 0.7382(5) 0.3597(2)
C7 C 0.6183(4) 0.5988(4) 0.3316(2)
C8 C 0.5543(5) 0.4935(6) 0.3687(3)
C9 C 0.6232(6) 0.3623(6) 0.3379(4)
C10 C 0.7574(6) 0.3308(5) 0.2710(3)
C11 C 0.8243(5) 0.4271(4) 0.2350(3)
C12 C 0.7571(4) 0.5656(4) 0.2643(2)
C13 C 0.8214(4) 0.6705(4) 0.2268(2)
C14 C 1.0772(3) 0.7610(3) 0.3149(2)
C15 C 0.9834(4) 0.8625(3) 0.3742(2)
C16 C 0.9656(4) 0.8152(4) 0.4753(2)
C17 C 1.0402(5) 0.6725(4) 0.5206(3)
C18 C 1.1351(4) 0.5718(4) 0.4615(3)
C19 C 1.1519(4) 0.6162(4) 0.3600(2)
C20 C 1.2491(4) 0.9733(4) 0.1582(2)
C21 C 1.4021(4) 0.8613(4) 0.1168(2)
C22 C 1.4024(4) 0.8513(4) 0.0131(2)
C23 C 1.6225(4) 0.6141(4) 0.0167(3)
C24 C 1.7765(5) 0.5274(4) -0.0364(3)
C25 C 1.7052(5) 0.6771(4) -0.1862(3)
C26 C 1.5468(4) 0.7661(4) -0.1358(2)
H1 H 0.94510 0.84580 0.09940
H2 H 1.17070 0.72420 0.17220
H3 H 0.56200 0.92930 0.34080
H4 H 0.45820 0.76100 0.40520
H5 H 0.46420 0.51380 0.41450
H6 H 0.57950 0.29410 0.36210
H7 H 0.80300 0.24130 0.25030
H8 H 0.91550 0.40250 0.19030
H9 H 0.91410 0.64830 0.18340
H10 H 0.93290 0.96150 0.34630
H11 H 1.02720 0.64410 0.58910
H12 H 1.18800 0.47360 0.49010
H13 H 1.21530 0.54660 0.32100
H14 H 1.25690 0.97640 0.22430
H15 H 1.23130 1.07000 0.11720
H16 H 1.48590 0.88780 0.11710
H17 H 1.42240 0.76530 0.15940
H18 H 1.33220 0.80730 0.01490
H19 H 1.36270 0.95000 -0.02650
H20 H 1.55120 0.56930 0.02280
H21 H 1.63540 0.61160 0.08290
H22 H 1.85050 0.56620 -0.03630
H23 H 1.81480 0.42580 -0.00120
H24 H 1.69630 0.67850 -0.25300
H25 H 1.77550 0.72220 -0.19050
H26 H 1.50790 0.86680 -0.17250
H27 H 1.47430 0.72500 -0.13480
#END
