
#######################################################################
#
#                 Cambridge Crystallographic Data Centre
#                                CCDC
#
#######################################################################
#
# If this CIF has been generated from an entry in the Cambridge
# Structural Database, then it will include bibliographic, chemical,
# crystal, experimental, refinement or atomic coordinate data resulting
# from the CCDC's data processing and validation procedures.
#
#######################################################################

data_CSD_CIF_KOKBET
_audit_creation_date 2014-07-03
_audit_creation_method CSD-ConQuest-V1
_database_code_CSD KOKBET
_database_code_depnum_ccdc_archive 'CCDC 1012044'
_chemical_formula_sum 'C7 H8 N2 O2'
_chemical_formula_moiety
;
C7 H8 N2 O2
;
_journal_coden_Cambridge 1065
_journal_year 2009
_journal_page_first 632
_journal_name_full 'University of Southampton, Crystal Structure Report Archive '
loop_
_publ_author_name
"S.K.Callear"
"M.B.Hursthouse"
_chemical_name_systematic
;
2-Methyl-3-nitroaniline
;
_cell_volume    711.502
_exptl_crystal_colour 'yellow'
_exptl_crystal_density_diffrn 1.42
_exptl_crystal_description 'plate'
_diffrn_ambient_temperature 120
#These two values have been output from a single CSD field.
_refine_ls_R_factor_gt 0.1223
_refine_ls_wR_factor_gt 0.1223
_symmetry_cell_setting orthorhombic
_symmetry_space_group_name_H-M 'P 21 21 21'
_symmetry_Int_Tables_number 19
loop_
_symmetry_equiv_pos_site_id
_symmetry_equiv_pos_as_xyz
1 x,y,z
2 1/2-x,-y,1/2+z
3 -x,1/2+y,1/2-z
4 1/2+x,1/2-y,-z
_cell_length_a 3.8043(11)
_cell_length_b 12.987(4)
_cell_length_c 14.401(3)
_cell_angle_alpha 90
_cell_angle_beta 90
_cell_angle_gamma 90
_cell_formula_units_Z 4
loop_
_atom_type_symbol
_atom_type_radius_bond
C 0.68
H 0.23
N 0.68
O 0.68
loop_
_atom_site_label
_atom_site_type_symbol
_atom_site_fract_x
_atom_site_fract_y
_atom_site_fract_z
C1 C -0.027(3) 0.4131(7) 0.4371(6)
C2 C 0.089(2) 0.4762(7) 0.3644(6)
C3 C 0.061(3) 0.5817(7) 0.3785(6)
C4 C -0.055(3) 0.6252(7) 0.4612(6)
H1 H -0.06100 0.69780 0.46900
C5 C -0.159(3) 0.5609(8) 0.5309(7)
H2 H -0.24150 0.58910 0.58770
C6 C -0.147(2) 0.4559(7) 0.5197(6)
H3 H -0.22110 0.41220 0.56880
C7 C 0.241(2) 0.4294(6) 0.2778(6)
H4 H 0.35430 0.48330 0.24070
H5 H 0.05340 0.39720 0.24150
H6 H 0.41600 0.37730 0.29490
N1 N -0.001(2) 0.3060(6) 0.4282(5)
N2 N 0.143(2) 0.6546(6) 0.3049(5)
O1 O 0.037(2) 0.6349(5) 0.2261(4)
O2 O 0.3101(19) 0.7329(5) 0.3254(5)
H7 H -0.12(2) 0.273(7) 0.470(5)
H8 H 0.00(3) 0.278(6) 0.372(3)
#END
