
#######################################################################
#
#                 Cambridge Crystallographic Data Centre
#                                CCDC
#
#######################################################################
#
# If this CIF has been generated from an entry in the Cambridge
# Structural Database, then it will include bibliographic, chemical,
# crystal, experimental, refinement or atomic coordinate data resulting
# from the CCDC's data processing and validation procedures.
#
#######################################################################

data_CSD_CIF_KOKDET
_audit_creation_date 1992-06-24
_audit_creation_method CSD-ConQuest-V1
_database_code_CSD KOKDET
_chemical_formula_sum 'C11 H12 N6 O4'
_chemical_formula_moiety
;
C11 H12 N6 O4
;
_journal_coden_Cambridge 122
_journal_year 1990
_journal_page_first 1631
_journal_name_full 'Khim.Get.Soedin.,SSSR(Russ.)(Chem.Heterocycl.Compd.) '
loop_
_publ_author_name
"V.L.Rusinov"
"T.L.Pilicheva"
"A.A.Tumashov"
"G.G.Aleksandrov"
"E.O.Sidorov"
"I.V.Karpin"
"O.N.Chupakhin"
_chemical_name_systematic
;
Ethyl-2-((3-methyl-1,2,4-triazol-5-yl)amino)-5-nitropyridine-3-carboxylate
;
_chemical_melting_point 573.15
_cell_volume    660.346
_diffrn_ambient_temperature ?
_diffrn_special_details
;
The study was carried out at room temperature,in the range 283-303K

;
#These two values have been output from a single CSD field.
_refine_ls_R_factor_gt 0.06
_refine_ls_wR_factor_gt 0.06
_symmetry_cell_setting triclinic
_symmetry_space_group_name_H-M 'P -1'
_symmetry_Int_Tables_number 2
loop_
_symmetry_equiv_pos_site_id
_symmetry_equiv_pos_as_xyz
1 x,y,z
2 -x,-y,-z
_cell_length_a 5.950(3)
_cell_length_b 10.366(5)
_cell_length_c 12.425(3)
_cell_angle_alpha 67.81(3)
_cell_angle_beta 72.02(3)
_cell_angle_gamma 72.62(3)
_cell_formula_units_Z 2
loop_
_atom_type_symbol
_atom_type_radius_bond
C 0.68
H 0.23
N 0.68
O 0.68
loop_
_atom_site_label
_atom_site_type_symbol
_atom_site_fract_x
_atom_site_fract_y
_atom_site_fract_z
O1 O 1.8583(5) -0.2774(3) 0.7117(2)
O2 O 1.5365(5) -0.1591(3) 0.6310(2)
O3 O 1.7842(6) -0.4803(4) 1.1329(3)
O4 O 1.4380(6) -0.4464(3) 1.2521(3)
N1 N 0.7230(5) -0.0121(3) 0.8894(3)
N2 N 1.1069(5) -0.1976(3) 0.9815(3)
N3 N 0.5110(5) 0.0717(3) 0.8596(3)
N4 N 0.7992(5) 0.0587(3) 0.6945(3)
N5 N 1.1240(5) -0.0939(3) 0.7806(3)
N6 N 1.5674(7) -0.4284(4) 1.1513(3)
C1 C 1.2390(6) -0.1792(4) 0.8689(3)
C2 C 1.4864(6) -0.2435(4) 0.8426(3)
C3 C 1.5968(7) -0.3259(3) 0.9359(3)
C4 C 1.4597(7) -0.3436(4) 1.0513(3)
C5 C 1.2181(7) -0.2790(4) 1.0686(4)
C6 C 0.3902(9) 0.2046(6) 0.6669(5)
C7 C 1.6257(7) -0.2223(4) 0.7162(3)
C8 C 0.5661(7) 0.1114(4) 0.7419(3)
C9 C 0.8896(6) -0.0188(4) 0.7892(3)
C10 C 2.0226(8) -0.2597(5) 0.5931(4)
C11 C 2.0350(9) -0.3794(6) 0.5534(5)
H1 H 0.743(6) -0.059(4) 0.965(3)
H2 H 1.206(7) -0.085(4) 0.711(4)
H3 H 0.209(9) 0.195(5) 0.707(4)
H4 H 0.389(8) 0.166(5) 0.594(5)
H5 H 0.407(8) 0.288(5) 0.643(4)
H6 H 1.766(8) -0.361(4) 0.921(3)
H7 H 1.131(8) -0.290(4) 1.139(4)
#END
