
#######################################################################
#
#                 Cambridge Crystallographic Data Centre
#                                CCDC
#
#######################################################################
#
# If this CIF has been generated from an entry in the Cambridge
# Structural Database, then it will include bibliographic, chemical,
# crystal, experimental, refinement or atomic coordinate data resulting
# from the CCDC's data processing and validation procedures.
#
#######################################################################

data_CSD_CIF_KOMHAV
_audit_creation_date 1992-09-08
_audit_creation_method CSD-ConQuest-V1
_database_code_CSD KOMHAV
_chemical_formula_sum 'C3 H3 N3 O2'
_chemical_formula_moiety
;
C3 H3 N3 O2
;
_journal_coeditor_code "IUCr CD0051"
_journal_coden_Cambridge 591
_journal_volume 48
_journal_year 1992
_journal_page_first 295
_journal_name_full 'Acta Crystallogr.,Sect.C:Cryst.Struct.Commun. '
loop_
_publ_author_name
"I.Segalas"
"J.Poitras"
"A.L.Beauchamp"
_chemical_name_systematic
;
4-Nitroimidazole
;
_cell_volume    452.348
_exptl_crystal_density_diffrn 1.66
_diffrn_ambient_temperature ?
_diffrn_special_details
;
The study was carried out at room temperature,in the range 283-303K

;
#These two values have been output from a single CSD field.
_refine_ls_R_factor_gt 0.048
_refine_ls_wR_factor_gt 0.048
_symmetry_cell_setting monoclinic
_symmetry_space_group_name_H-M 'P 21/c'
_symmetry_Int_Tables_number 14
loop_
_symmetry_equiv_pos_site_id
_symmetry_equiv_pos_as_xyz
1 x,y,z
2 -x,1/2+y,1/2-z
3 -x,-y,-z
4 x,-1/2-y,-1/2+z
_cell_length_a 7.093(1)
_cell_length_b 9.926(1)
_cell_length_c 7.3474(9)
_cell_angle_alpha 90
_cell_angle_beta 119.02(1)
_cell_angle_gamma 90
_cell_formula_units_Z 4
loop_
_atom_type_symbol
_atom_type_radius_bond
C 0.68
H 0.23
N 0.68
O 0.68
loop_
_atom_site_label
_atom_site_type_symbol
_atom_site_fract_x
_atom_site_fract_y
_atom_site_fract_z
N1 N 0.4365(3) 0.5083(2) 0.1966(3)
C1 C 0.5434(4) 0.3968(2) 0.2998(4)
N2 N 0.4403(3) 0.2856(2) 0.2060(3)
C2 C 0.2606(4) 0.3320(2) 0.0354(3)
C3 C 0.2547(4) 0.4690(2) 0.0255(4)
N3 N 0.1049(3) 0.2412(2) -0.1086(3)
O1 O 0.1365(3) 0.1196(2) -0.0767(3)
O2 O -0.0540(3) 0.2878(2) -0.2600(3)
H1 H 0.489(5) 0.583(3) 0.239(5)
H2 H 0.684(4) 0.408(3) 0.432(4)
H3 H 0.160(5) 0.525(3) -0.077(4)
#END
