
#######################################################################
#
#                 Cambridge Crystallographic Data Centre
#                                CCDC
#
#######################################################################
#
# If this CIF has been generated from an entry in the Cambridge
# Structural Database, then it will include bibliographic, chemical,
# crystal, experimental, refinement or atomic coordinate data resulting
# from the CCDC's data processing and validation procedures.
#
#######################################################################

data_CSD_CIF_KOPGON
_audit_creation_date 2014-07-07
_audit_creation_method CSD-ConQuest-V1
_database_code_CSD KOPGON
_database_code_depnum_ccdc_archive 'CCDC 996674'
_chemical_formula_sum 'C19 H27 N2 O3'
_chemical_formula_moiety
;
C19 H27 N2 O3
;
_journal_coden_Cambridge 440
_journal_volume 38
_journal_year 2014
_journal_page_first 4440
_journal_name_full 'New J.Chem. '
loop_
_publ_author_name
"E.Onal"
"Y.Yerli"
"B.Cosut"
"G.Pilet"
"Vefa Ahsen"
"D.Luneau"
"C.Hirel"
_chemical_name_systematic
;
{2-[4-(5,5-dimethyl-1,3-dioxan-2-yl)phenyl]-4,4,5,5-tetramethyl-4,5-dihydro-1H
-imidazol-1-yl}oxidanyl radical
;
_cell_volume   1847.728
_exptl_crystal_colour 'orange'
_exptl_crystal_density_diffrn 1.191
_exptl_crystal_description 'block'
_diffrn_ambient_temperature 293
#These two values have been output from a single CSD field.
_refine_ls_R_factor_gt 0.0657
_refine_ls_wR_factor_gt 0.0657
_symmetry_cell_setting monoclinic
_symmetry_space_group_name_H-M 'P 21/c'
_symmetry_Int_Tables_number 14
loop_
_symmetry_equiv_pos_site_id
_symmetry_equiv_pos_as_xyz
1 x,y,z
2 -x,1/2+y,1/2-z
3 -x,-y,-z
4 x,-1/2-y,-1/2+z
_cell_length_a 6.177(5)
_cell_length_b 13.704(5)
_cell_length_c 21.888(5)
_cell_angle_alpha 90
_cell_angle_beta 94.245(5)
_cell_angle_gamma 90
_cell_formula_units_Z 4
loop_
_atom_type_symbol
_atom_type_radius_bond
C 0.68
H 0.23
N 0.68
O 0.68
loop_
_atom_site_label
_atom_site_type_symbol
_atom_site_fract_x
_atom_site_fract_y
_atom_site_fract_z
N1 N 0.1791(2) 0.10000(11) 0.23204(6)
N2 N -0.0028(3) 0.18120(12) 0.30044(7)
O1 O 0.3030(3) 0.03601(12) 0.21158(7)
O2 O 0.4459(3) -0.24692(10) 0.45562(6)
O3 O 0.2992(4) -0.15879(12) 0.53029(7)
C1 C 0.0255(3) 0.16048(13) 0.19200(8)
C2 C -0.0498(3) 0.23263(14) 0.24083(8)
C3 C -0.1522(4) 0.09144(18) 0.16626(11)
H1 H -0.22590 0.06390 0.19930
H2 H -0.08850 0.04000 0.14380
H3 H -0.25410 0.12690 0.13950
C4 C 0.1421(4) 0.20367(19) 0.13962(10)
H4 H 0.25390 0.24720 0.15570
H5 H 0.04020 0.23890 0.11270
H6 H 0.20590 0.15210 0.11730
C5 C 0.0830(4) 0.32683(15) 0.24511(12)
H7 H 0.23490 0.31120 0.24960
H8 H 0.04480 0.36390 0.27990
H9 H 0.05290 0.36450 0.20850
C6 C -0.2901(4) 0.2582(2) 0.23372(12)
H10 H -0.37440 0.19930 0.23110
H11 H -0.31970 0.29590 0.19710
H12 H -0.32770 0.29560 0.26850
C7 C 0.1299(3) 0.11125(12) 0.29294(7)
C8 C 0.2169(3) 0.04479(12) 0.34187(7)
C9 C 0.4231(3) 0.00387(13) 0.34293(8)
H13 H 0.51370 0.01850 0.31210
C10 C 0.4934(3) -0.05877(13) 0.38995(9)
H14 H 0.63290 -0.08450 0.39110
C11 C 0.3583(3) -0.08355(12) 0.43532(8)
C12 C 0.1539(3) -0.04251(14) 0.43443(8)
H15 H 0.06240 -0.05860 0.46480
C13 C 0.0842(3) 0.02250(14) 0.38854(8)
H16 H -0.05200 0.05130 0.38900
C14 C 0.4368(4) -0.15630(13) 0.48364(9)
H17 H 0.58260 -0.13780 0.50040
C15 C 0.5292(5) -0.31889(19) 0.49889(12)
H18 H 0.67720 -0.30210 0.51280
H19 H 0.53190 -0.38180 0.47870
C16 C 0.3958(3) -0.32669(14) 0.55336(8)
C17 C 0.3783(6) -0.22578(18) 0.57774(10)
H20 H 0.28030 -0.22560 0.61040
H21 H 0.51970 -0.20440 0.59480
C18 C 0.1779(6) -0.3695(4) 0.5335(2)
H22 H 0.19680 -0.43430 0.51810
H23 H 0.10760 -0.32960 0.50200
H24 H 0.09020 -0.37200 0.56790
C19 C 0.5108(5) -0.39188(19) 0.60229(10)
H25 H 0.52260 -0.45690 0.58650
H26 H 0.42890 -0.39320 0.63790
H27 H 0.65330 -0.36650 0.61320
#END
