
#######################################################################
#
#                 Cambridge Crystallographic Data Centre
#                                CCDC
#
#######################################################################
#
# If this CIF has been generated from an entry in the Cambridge
# Structural Database, then it will include bibliographic, chemical,
# crystal, experimental, refinement or atomic coordinate data resulting
# from the CCDC's data processing and validation procedures.
#
#######################################################################

data_CSD_CIF_KOPLIM
_audit_creation_date 2014-07-08
_audit_creation_method CSD-ConQuest-V1
_database_code_CSD KOPLIM
_database_code_depnum_ccdc_archive 'CCDC 993366'
_chemical_formula_sum 'C15 H16 N2 O3'
_chemical_formula_moiety
;
C15 H16 N2 O3
;
_journal_coden_Cambridge 1220
_journal_volume 20
_journal_year 2014
_journal_page_first 9409
_journal_name_full 'Chem.-Eur.J. '
loop_
_publ_author_name
"A.Kampfe"
"E.Brendler"
"E.Kroke"
"J.Wagler"
_chemical_name_systematic
;
(4-ethyl-3,5-dimethyl-1H-pyrrol-2-yl)(4-nitrophenyl)methanone
;
_cell_volume   2844.648
_exptl_crystal_colour 'yellow'
_exptl_crystal_density_diffrn 1.272
_exptl_crystal_description 'block'
_diffrn_ambient_temperature 150
#These two values have been output from a single CSD field.
_refine_ls_R_factor_gt 0.0409
_refine_ls_wR_factor_gt 0.0409
_symmetry_cell_setting monoclinic
_symmetry_space_group_name_H-M 'C 2/c'
_symmetry_Int_Tables_number 15
loop_
_symmetry_equiv_pos_site_id
_symmetry_equiv_pos_as_xyz
1 x,y,z
2 -x,y,1/2-z
3 1/2+x,1/2+y,z
4 1/2-x,1/2+y,1/2-z
5 -x,-y,-z
6 x,-y,-1/2+z
7 -1/2-x,-1/2-y,-z
8 -1/2+x,-1/2-y,-1/2+z
_cell_length_a 27.325(2)
_cell_length_b 7.3194(3)
_cell_length_c 14.3311(12)
_cell_angle_alpha 90
_cell_angle_beta 97.040(7)
_cell_angle_gamma 90
_cell_formula_units_Z 8
loop_
_atom_type_symbol
_atom_type_radius_bond
C 0.68
H 0.23
N 0.68
O 0.68
loop_
_atom_site_label
_atom_site_type_symbol
_atom_site_fract_x
_atom_site_fract_y
_atom_site_fract_z
O1 O 0.47366(3) 1.03242(14) 0.11178(6)
N1 N 0.46021(3) 0.74848(15) -0.01888(7)
H1 H 0.4822(6) 0.832(2) -0.0341(11)
O2 O 0.24281(4) 1.1819(3) 0.28352(10)
O3 O 0.29497(4) 1.1985(2) 0.40640(8)
N2 N 0.28431(4) 1.16714(18) 0.32314(9)
C1 C 0.44929(4) 0.58896(18) -0.06380(8)
C2 C 0.41249(4) 0.50181(18) -0.02071(9)
C3 C 0.40038(4) 0.61650(18) 0.05213(8)
C4 C 0.43014(4) 0.77309(17) 0.05186(8)
C5 C 0.47381(5) 0.5322(2) -0.14671(9)
H2 H 0.49940 0.62120 -0.15690
H3 H 0.44930 0.52690 -0.20260
H4 H 0.48880 0.41150 -0.13500
C6 C 0.38969(5) 0.32069(19) -0.04812(10)
H5 H 0.38940 0.24460 0.00890
H6 H 0.41020 0.25750 -0.09060
C7 C 0.33716(6) 0.3381(3) -0.09723(14)
H7 H 0.31680 0.40250 -0.05600
H8 H 0.32350 0.21600 -0.11140
H9 H 0.33740 0.40690 -0.15580
C8 C 0.36486(5) 0.5655(2) 0.12015(10)
H10 H 0.33130 0.59750 0.09320
H11 H 0.37340 0.63200 0.17930
H12 H 0.36680 0.43380 0.13230
C9 C 0.43659(4) 0.93325(18) 0.10938(8)
C10 C 0.39631(4) 0.98959(16) 0.16615(8)
C11 C 0.34715(4) 0.99098(18) 0.12500(9)
H13 H 0.33900 0.94910 0.06230
C12 C 0.31034(4) 1.05340(19) 0.17559(9)
H14 H 0.27690 1.05760 0.14790
C13 C 0.32361(4) 1.10945(17) 0.26746(9)
C14 C 0.37183(5) 1.11041(18) 0.31002(9)
H15 H 0.37960 1.14990 0.37320
C15 C 0.40858(4) 1.05210(17) 0.25798(9)
H16 H 0.44210 1.05480 0.28500
H17? H 0.46610 0.40390 -0.16150
H18? H 0.50960 0.54690 -0.13210
H19? H 0.46190 0.60870 -0.20090
#END
