
#######################################################################
#
#                 Cambridge Crystallographic Data Centre
#                                CCDC
#
#######################################################################
#
# If this CIF has been generated from an entry in the Cambridge
# Structural Database, then it will include bibliographic, chemical,
# crystal, experimental, refinement or atomic coordinate data resulting
# from the CCDC's data processing and validation procedures.
#
#######################################################################

data_CSD_CIF_KORNIQ
_audit_creation_date 2014-11-26
_audit_creation_method CSD-ConQuest-V1
_database_code_CSD KORNIQ
_database_code_depnum_ccdc_archive 'CCDC 1003442'
_chemical_formula_sum 'C9 H12 N8 O16'
_chemical_formula_moiety
;
C9 H12 N8 O16
;
_journal_coden_Cambridge 1291
_journal_year 2015
_journal_page_first 723
_journal_name_full 'Eur.J.Org.Chem. '
loop_
_publ_author_name
"Q.J.Axthammer"
"B.Krumm"
"T.M.Klapotke"
_chemical_name_systematic
;
3-((nitrocarbamoyl)oxy)-2,2-bis(((nitrocarbamoyl)oxy)methyl)propyl 
nitrocarbamate
;
_cell_volume    918.522
_exptl_crystal_colour 'colorless'
_exptl_crystal_density_diffrn 1.765
_exptl_special_details
;
Heat-sensitive

;
_exptl_crystal_description 'cubic'
_exptl_crystal_preparation 'acetonitrile'
_diffrn_ambient_temperature 100
#These two values have been output from a single CSD field.
_refine_ls_R_factor_gt 0.0355
_refine_ls_wR_factor_gt 0.0355
_symmetry_cell_setting tetragonal
_symmetry_space_group_name_H-M 'P -4 21 c'
_symmetry_Int_Tables_number 114
loop_
_symmetry_equiv_pos_site_id
_symmetry_equiv_pos_as_xyz
1 x,y,z
2 -x,-y,z
3 1/2+x,1/2-y,1/2-z
4 1/2-x,1/2+y,1/2-z
5 1/2+y,1/2+x,1/2+z
6 1/2-y,1/2-x,1/2+z
7 -y,x,-z
8 y,-x,-z
_cell_length_a 9.7350(5)
_cell_length_b 9.7350(5)
_cell_length_c 9.6921(5)
_cell_angle_alpha 90
_cell_angle_beta 90
_cell_angle_gamma 90
_cell_formula_units_Z 2
loop_
_atom_type_symbol
_atom_type_radius_bond
C 0.68
H 0.23
N 0.68
O 0.68
loop_
_atom_site_label
_atom_site_type_symbol
_atom_site_fract_x
_atom_site_fract_y
_atom_site_fract_z
H1 H -0.146(2) -0.043(2) 0.1510(19)
H2 H -0.100(2) 0.105(2) 0.1525(18)
H3 H -0.418(2) 0.162(2) -0.108(2)
C1 C 0.00000 0.00000 0.00000
C2 C -0.1203(2) 0.0328(2) 0.09569(17)
C3 C -0.34593(19) 0.11631(18) 0.07712(17)
N1 N -0.44153(15) 0.15237(17) -0.02251(17)
N2 N -0.55466(17) 0.23186(18) 0.00856(16)
O1 O -0.23646(13) 0.06913(13) 0.00939(12)
O2 O -0.35999(14) 0.12416(14) 0.19890(11)
O3 O -0.60445(13) 0.22546(17) 0.12278(13)
O4 O -0.59776(16) 0.3006(2) -0.08743(15)
H1A H 0.146(2) 0.043(2) 0.1510(19)
H2A H 0.100(2) -0.105(2) 0.1525(18)
H3A H 0.418(2) -0.162(2) -0.108(2)
C2A C 0.1203(2) -0.0328(2) 0.09569(17)
C3A C 0.34593(19) -0.11631(18) 0.07712(17)
N1A N 0.44153(15) -0.15237(17) -0.02251(17)
N2A N 0.55466(17) -0.23186(18) 0.00856(16)
O1A O 0.23646(13) -0.06913(13) 0.00939(12)
O2A O 0.35999(14) -0.12416(14) 0.19890(11)
O3A O 0.60445(13) -0.22546(17) 0.12278(13)
O4A O 0.59776(16) -0.3006(2) -0.08743(15)
H1F H 0.043(2) -0.146(2) -0.1510(19)
H2F H -0.105(2) -0.100(2) -0.1525(18)
H3F H -0.162(2) -0.418(2) 0.108(2)
C2F C -0.0328(2) -0.1203(2) -0.09569(17)
C3F C -0.11631(19) -0.34593(18) -0.07712(17)
N1F N -0.15237(15) -0.44153(17) 0.02251(17)
N2F N -0.23186(17) -0.55466(18) -0.00856(16)
O1F O -0.06913(13) -0.23646(13) -0.00939(12)
O2F O -0.12416(14) -0.35999(14) -0.19890(11)
O3F O -0.22546(13) -0.60445(17) -0.12278(13)
O4F O -0.30060(16) -0.59776(20) 0.08743(15)
H1G H -0.043(2) 0.146(2) -0.1510(19)
H2G H 0.105(2) 0.100(2) -0.1525(18)
H3G H 0.162(2) 0.418(2) 0.108(2)
C2G C 0.0328(2) 0.1203(2) -0.09569(17)
C3G C 0.11631(19) 0.34593(18) -0.07712(17)
N1G N 0.15237(15) 0.44153(17) 0.02251(17)
N2G N 0.23186(17) 0.55466(18) -0.00856(16)
O1G O 0.06913(13) 0.23646(13) -0.00939(12)
O2G O 0.12416(14) 0.35999(14) -0.19890(11)
O3G O 0.22546(13) 0.60445(17) -0.12278(13)
O4G O 0.30060(16) 0.59776(20) 0.08743(15)
#END
