
#######################################################################
#
#                 Cambridge Crystallographic Data Centre
#                                CCDC
#
#######################################################################
#
# If this CIF has been generated from an entry in the Cambridge
# Structural Database, then it will include bibliographic, chemical,
# crystal, experimental, refinement or atomic coordinate data resulting
# from the CCDC's data processing and validation procedures.
#
#######################################################################

data_CSD_CIF_KOSJOR
_audit_creation_date 1992-09-07
_audit_creation_method CSD-ConQuest-V1
_database_code_CSD KOSJOR
_chemical_formula_sum 'C11 H11 N1 O2'
_chemical_formula_moiety
;
C11 H11 N1 O2
;
_journal_coden_Cambridge 24
_journal_volume 32
_journal_year 1991
_journal_page_first 4259
_journal_name_full 'Tetrahedron Lett. '
loop_
_publ_author_name
"Hyoung Rae Kim"
"Hyung Jin Kim"
"J.L.Duffy"
"M.M.Olmstead"
"K.Ruhlandt-Senge"
"M.J.Kurth"
_chemical_name_systematic
;
8-Phenyl-2-aza-3,7-dioxabicyclo(3.3.0)octene
;
_cell_volume    933.410
_exptl_crystal_colour 'colorless'
_exptl_crystal_density_diffrn 1.346
_diffrn_ambient_temperature 130
#These two values have been output from a single CSD field.
_refine_ls_R_factor_gt 0.0445
_refine_ls_wR_factor_gt 0.0445
_symmetry_cell_setting orthorhombic
_symmetry_space_group_name_H-M 'P n a 21'
_symmetry_Int_Tables_number 33
loop_
_symmetry_equiv_pos_site_id
_symmetry_equiv_pos_as_xyz
1 x,y,z
2 1/2-x,1/2+y,1/2+z
3 1/2+x,1/2-y,z
4 -x,-y,1/2+z
_cell_length_a 15.935(3)
_cell_length_b 9.853(2)
_cell_length_c 5.945(1)
_cell_angle_alpha 90
_cell_angle_beta 90
_cell_angle_gamma 90
_cell_formula_units_Z 4
loop_
_atom_type_symbol
_atom_type_radius_bond
C 0.68
H 0.23
N 0.68
O 0.68
loop_
_atom_site_label
_atom_site_type_symbol
_atom_site_fract_x
_atom_site_fract_y
_atom_site_fract_z
O1 O 0.2703(2) 0.1711(3) 0.37310
O2 O 0.4092(2) 0.0196(2) 0.9367(8)
N1 N 0.3023(2) 0.2413(3) 0.5679(8)
C1 C 0.2841(2) 0.0248(4) 0.4113(10)
C2 C 0.3599(2) 0.0214(3) 0.5639(9)
C3 C 0.3620(2) -0.0632(4) 0.7793(9)
C4 C 0.3886(2) 0.1623(3) 0.9003(8)
C5 C 0.3517(2) 0.1597(4) 0.6666(9)
C6 C 0.4662(2) 0.2471(3) 0.9294(10)
C7 C 0.4742(2) 0.3320(3) 1.1146(8)
C8 C 0.5464(2) 0.4104(4) 1.1416(10)
C9 C 0.6098(2) 0.4031(4) 0.9809(10)
C10 C 0.6023(2) 0.3185(4) 0.7979(11)
C11 C 0.5307(2) 0.2401(4) 0.7719(10)
H1 H 0.29400 -0.02300 0.27300
H2 H 0.23670 -0.01490 0.48630
H3 H 0.41090 0.01200 0.47940
H4 H 0.30600 -0.07860 0.83270
H5 H 0.38890 -0.14920 0.75560
H6 H 0.34680 0.19110 1.00630
H7 H 0.43020 0.33500 1.22480
H8 H 0.55210 0.47040 1.26780
H9 H 0.65950 0.45750 0.99750
H10 H 0.64680 0.31340 0.68940
H11 H 0.52560 0.18040 0.64500
#END
