
#######################################################################
#
#                 Cambridge Crystallographic Data Centre
#                                CCDC
#
#######################################################################
#
# If this CIF has been generated from an entry in the Cambridge
# Structural Database, then it will include bibliographic, chemical,
# crystal, experimental, refinement or atomic coordinate data resulting
# from the CCDC's data processing and validation procedures.
#
#######################################################################

data_CSD_CIF_KOSNUB
_audit_creation_date 1992-09-08
_audit_creation_method CSD-ConQuest-V1
_database_code_CSD KOSNUB
_database_code_depnum_ccdc_archive 'CCDC 1199563'
_chemical_formula_sum 'C44 H42 N2 O4'
_chemical_formula_moiety
;
C44 H42 N2 O4
;
_journal_coden_Cambridge 182
_journal_year 1992
_journal_page_first 325
_journal_name_full 'Chem.Commun. '
loop_
_publ_author_name
"D.Mackay"
"D.Papadopoulos"
"N.J.Taylor"
_chemical_name_systematic
;
2,3,8,9-Tetraphenyltricyclo(5.2.1.0^2,6^)deca-3,8-dien-5,10-di-imino 
dipivalate
;
_cell_volume   3715.369
_exptl_crystal_colour 'colorless'
_exptl_crystal_density_diffrn 1.185
_diffrn_ambient_temperature 200
#These two values have been output from a single CSD field.
_refine_ls_R_factor_gt 0.0417
_refine_ls_wR_factor_gt 0.0417
_symmetry_cell_setting monoclinic
_symmetry_space_group_name_H-M 'P 21/c'
_symmetry_Int_Tables_number 14
loop_
_symmetry_equiv_pos_site_id
_symmetry_equiv_pos_as_xyz
1 x,y,z
2 -x,1/2+y,1/2-z
3 -x,-y,-z
4 x,-1/2-y,-1/2+z
_cell_length_a 20.437(6)
_cell_length_b 11.346(4)
_cell_length_c 17.665(5)
_cell_angle_alpha 90
_cell_angle_beta 114.90(2)
_cell_angle_gamma 90
_cell_formula_units_Z 4
loop_
_atom_type_symbol
_atom_type_radius_bond
C 0.68
H 0.23
N 0.68
O 0.68
loop_
_atom_site_label
_atom_site_type_symbol
_atom_site_fract_x
_atom_site_fract_y
_atom_site_fract_z
C1 C 0.6979(1) 0.3922(2) 0.3611(1)
C2 C 0.6301(1) 0.4499(2) 0.3458(2)
C3 C 0.6386(1) 0.5658(2) 0.3628(1)
C4 C 0.7182(1) 0.6010(2) 0.3962(1)
C5 C 0.7354(1) 0.6861(2) 0.3362(1)
C6 C 0.6934(1) 0.6433(2) 0.2461(1)
C7 C 0.7254(1) 0.5421(2) 0.2375(1)
C8 C 0.7869(1) 0.5147(2) 0.3224(1)
C9 C 0.7560(1) 0.4833(2) 0.3875(1)
C10 C 0.8088(1) 0.6400(2) 0.3488(1)
N1 N 0.7020(1) 0.2799(2) 0.3537(1)
O1 O 0.7770(1) 0.2499(1) 0.3796(1)
C11 C 0.7871(1) 0.1355(2) 0.3641(2)
O2 O 0.7386(1) 0.0715(2) 0.3244(2)
C12 C 0.8660(1) 0.1028(2) 0.4040(2)
C13 C 0.9152(2) 0.2074(3) 0.4106(3)
C14 C 0.8784(2) 0.0041(4) 0.3526(3)
C15 C 0.8803(3) 0.0575(4) 0.4916(3)
C16 C 0.5802(1) 0.6485(2) 0.3526(1)
C17 C 0.5088(1) 0.6165(3) 0.3038(2)
C18 C 0.4526(2) 0.6898(3) 0.2968(2)
C19 C 0.4663(2) 0.7969(3) 0.3367(2)
C20 C 0.5360(2) 0.8317(3) 0.3828(2)
C21 C 0.5931(1) 0.7583(2) 0.3907(2)
C22 C 0.7497(1) 0.6405(2) 0.4875(1)
C23 C 0.7329(2) 0.5763(3) 0.5443(2)
C24 C 0.7643(2) 0.6015(4) 0.6288(2)
C25 C 0.8122(2) 0.6947(4) 0.6574(2)
C26 C 0.8281(2) 0.7600(3) 0.6031(2)
C27 C 0.7974(1) 0.7337(3) 0.5175(2)
C28 C 0.6280(1) 0.7033(2) 0.1857(1)
C29 C 0.6238(2) 0.8253(3) 0.1826(2)
C30 C 0.5629(2) 0.8806(3) 0.1232(2)
C31 C 0.5060(2) 0.8158(4) 0.0687(2)
C32 C 0.5089(2) 0.6954(4) 0.0724(2)
C33 C 0.5693(1) 0.6386(3) 0.1298(2)
C34 C 0.7124(1) 0.4691(2) 0.1637(2)
C35 C 0.7226(2) 0.3481(3) 0.1708(2)
C36 C 0.7123(2) 0.2795(3) 0.1017(2)
C37 C 0.6943(2) 0.3325(4) 0.0260(2)
C38 C 0.6859(2) 0.4517(3) 0.0173(2)
C39 C 0.6944(2) 0.5206(3) 0.0852(2)
N2 N 0.8671(1) 0.6982(2) 0.3701(1)
O3 O 0.9220(1) 0.6161(2) 0.3699(1)
C40 C 0.9759(1) 0.6687(2) 0.3576(2)
O4 O 0.9790(1) 0.7720(2) 0.3486(2)
C41 C 1.0284(1) 0.5766(2) 0.3531(2)
C42 C 1.0465(2) 0.4856(3) 0.4228(3)
C43 C 1.0981(2) 0.6393(4) 0.3631(3)
C44 C 0.9923(2) 0.5177(5) 0.2677(3)
H1 H 0.5833(15) 0.4084(22) 0.3277(16)
H2 H 0.7306(11) 0.7687(19) 0.3455(13)
H3 H 0.8207(14) 0.4606(20) 0.3202(15)
H4 H 0.7943(12) 0.4624(18) 0.4365(15)
H5 H 0.9026(22) 0.2454(35) 0.3482(27)
H6 H 0.9076(20) 0.2712(35) 0.4426(24)
H7 H 0.9672(23) 0.1806(32) 0.4425(24)
H8 H 0.9294(27) -0.0301(39) 0.3859(27)
H9 H 0.8645(26) 0.0421(41) 0.2959(31)
H10 H 0.8478(24) -0.0647(38) 0.3613(26)
H11 H 0.9323(27) 0.0311(39) 0.5121(28)
H12 H 0.8485(26) -0.0145(41) 0.4922(28)
H13 H 0.8735(21) 0.1222(37) 0.5272(25)
H14 H 0.4994(14) 0.5406(23) 0.2758(15)
H15 H 0.4075(18) 0.6614(26) 0.2626(19)
H16 H 0.4259(19) 0.8488(29) 0.3323(20)
H17 H 0.5480(16) 0.9078(29) 0.4096(19)
H18 H 0.6433(16) 0.7820(23) 0.4278(17)
H19 H 0.6985(15) 0.5102(25) 0.5235(17)
H20 H 0.752(2) 0.5540(31) 0.6669(24)
H21 H 0.8336(20) 0.7120(32) 0.7111(25)
H22 H 0.8574(19) 0.8252(31) 0.6141(22)
H23 H 0.8111(15) 0.7824(24) 0.4798(17)
H24 H 0.6624(15) 0.8711(22) 0.2210(16)
H25 H 0.5652(20) 0.9633(35) 0.1241(22)
H26 H 0.4657(21) 0.8534(31) 0.0315(23)
H27 H 0.4685(19) 0.6493(28) 0.0369(21)
H28 H 0.5698(15) 0.5507(28) 0.1310(18)
H29 H 0.7367(14) 0.3111(23) 0.2254(18)
H30 H 0.7237(18) 0.1996(31) 0.1117(21)
H31 H 0.6861(21) 0.2871(35) -0.0193(25)
H32 H 0.6724(20) 0.4916(31) -0.0387(24)
H33 H 0.6901(17) 0.6068(30) 0.0772(20)
H34 H 1.0003(22) 0.4346(31) 0.4079(23)
H35 H 1.0828(21) 0.4287(31) 0.4231(22)
H36 H 1.0689(26) 0.5247(40) 0.4826(31)
H37 H 1.1268(19) 0.5767(28) 0.3504(21)
H38 H 1.0812(19) 0.6935(31) 0.3099(23)
H39 H 1.1205(20) 0.6792(33) 0.4255(26)
H40 H 1.0244(24) 0.4562(37) 0.2667(26)
H41 H 0.9489(19) 0.4747(28) 0.2648(19)
H42 H 0.9771(29) 0.5867(46) 0.2246(34)
#END
