
#######################################################################
#
#                 Cambridge Crystallographic Data Centre
#                                CCDC
#
#######################################################################
#
# If this CIF has been generated from an entry in the Cambridge
# Structural Database, then it will include bibliographic, chemical,
# crystal, experimental, refinement or atomic coordinate data resulting
# from the CCDC's data processing and validation procedures.
#
#######################################################################

data_CSD_CIF_KOTMOV
_audit_creation_date 1992-10-02
_audit_creation_method CSD-ConQuest-V1
_database_code_CSD KOTMOV
_chemical_formula_sum 'C11 H11 N3 O2'
_chemical_formula_moiety
;
C11 H11 N3 O2
;
_journal_coeditor_code "IUCr KA0007"
_journal_coden_Cambridge 591
_journal_volume 48
_journal_year 1992
_journal_page_first 957
_journal_name_full 'Acta Crystallogr.,Sect.C:Cryst.Struct.Commun. '
loop_
_publ_author_name
"J.D.Martin-Ramos"
"M.D.Reinoso"
"A.Navarrete"
_chemical_name_systematic
;
(E)-4-Hydroxyiminomethyl-1-(p-methoxyphenyl)imidazole
;
_cell_volume   1058.185
_exptl_crystal_colour 'pale white'
_exptl_crystal_density_diffrn 1.363
_exptl_special_details
;
potential oncological activity

;
_diffrn_ambient_temperature ?
_diffrn_special_details
;
The study was carried out at room temperature,in the range 283-303K

;
#These two values have been output from a single CSD field.
_refine_ls_R_factor_gt 0.036
_refine_ls_wR_factor_gt 0.036
_symmetry_cell_setting monoclinic
_symmetry_space_group_name_H-M 'P 21/c'
_symmetry_Int_Tables_number 14
loop_
_symmetry_equiv_pos_site_id
_symmetry_equiv_pos_as_xyz
1 x,y,z
2 -x,1/2+y,1/2-z
3 -x,-y,-z
4 x,-1/2-y,-1/2+z
_cell_length_a 9.009(5)
_cell_length_b 7.882(2)
_cell_length_c 15.072(7)
_cell_angle_alpha 90
_cell_angle_beta 98.61(6)
_cell_angle_gamma 90
_cell_formula_units_Z 4
loop_
_atom_type_symbol
_atom_type_radius_bond
C 0.68
H 0.23
N 0.68
O 0.68
loop_
_atom_site_label
_atom_site_type_symbol
_atom_site_fract_x
_atom_site_fract_y
_atom_site_fract_z
C1 C 0.1654(3) -0.3246(3) -0.1315(2)
C2 C 0.0856(2) -0.2969(3) -0.0611(2)
C3 C 0.1239(3) -0.1582(3) -0.0045(2)
C4 C 0.2387(2) -0.0511(3) -0.0193(2)
C5 C 0.3182(3) -0.0803(3) -0.0898(2)
C6 C 0.2809(3) -0.2164(3) -0.1456(2)
N1 N 0.2760(2) 0.0934(2) 0.0380(1)
C7 C 0.2913(3) 0.0964(3) 0.1294(2)
N2 N 0.3333(2) 0.2457(2) 0.1620(1)
C8 C 0.3459(2) 0.3458(3) 0.0880(1)
C9 C 0.3098(2) 0.2552(3) 0.0114(2)
O1 O 0.5061(2) 0.7446(2) 0.1676(1)
C10 C 0.3987(2) 0.5202(3) 0.0971(1)
N3 N 0.4613(2) 0.5761(2) 0.1727(1)
O2 O 0.1361(2) -0.4554(2) -0.1923(1)
C11 C 0.0151(4) -0.5624(4) -0.1865(2)
H1 H 0.01730 -0.64340 -0.23380
H2 H -0.08040 -0.50590 -0.19440
H3 H 0.03000 -0.61980 -0.12960
H4 H 0.33530 -0.23690 -0.19630
H5 H 0.05340 -0.13460 0.03910
H6 H -0.00660 -0.34590 -0.05550
H7 H 0.28000 0.31140 -0.05030
H8 H 0.30430 -0.00380 0.16660
H9 H 0.39400 -0.00700 -0.09950
H10 H 0.54910 0.76950 0.21240
H11 H 0.40080 0.57780 0.05100
#END
