
#######################################################################
#
#                 Cambridge Crystallographic Data Centre
#                                CCDC
#
#######################################################################
#
# If this CIF has been generated from an entry in the Cambridge
# Structural Database, then it will include bibliographic, chemical,
# crystal, experimental, refinement or atomic coordinate data resulting
# from the CCDC's data processing and validation procedures.
#
#######################################################################

data_CSD_CIF_KOTWIB
_audit_creation_date 2014-11-27
_audit_creation_method CSD-ConQuest-V1
_database_code_CSD KOTWIB
_database_code_depnum_ccdc_archive 'CCDC 1000821'
_chemical_formula_sum 'C19 H15 N5 O2'
_chemical_formula_moiety
;
C19 H15 N5 O2
;
_journal_coden_Cambridge 1453
_journal_volume 7
_journal_year 2015
_journal_page_first 316
_journal_name_full 'ChemCatChem '
loop_
_publ_author_name
"V.O.Iaroshenko"
"A.Gevorgyan"
"S.Mkrtchyan"
"T.Grigoryan"
"E.Movsisyan"
"A.Villinger"
"P.Langer"
_chemical_name_systematic
;
3-methyl-4-(5-methylpyridin-2-yl)-5-nitro-1-phenyl-1H-pyrazolo[3,4-b]pyridine
;
_cell_volume    814.003
_exptl_crystal_colour 'colorless'
_exptl_crystal_density_diffrn 1.409
_exptl_crystal_description 'block'
_diffrn_ambient_temperature 173
#These two values have been output from a single CSD field.
_refine_ls_R_factor_gt 0.0428
_refine_ls_wR_factor_gt 0.0428
_symmetry_cell_setting triclinic
_symmetry_space_group_name_H-M 'P -1'
_symmetry_Int_Tables_number 2
loop_
_symmetry_equiv_pos_site_id
_symmetry_equiv_pos_as_xyz
1 x,y,z
2 -x,-y,-z
_cell_length_a 7.2260(3)
_cell_length_b 10.7957(5)
_cell_length_c 11.9938(5)
_cell_angle_alpha 114.869(2)
_cell_angle_beta 104.592(2)
_cell_angle_gamma 90.707(2)
_cell_formula_units_Z 2
loop_
_atom_type_symbol
_atom_type_radius_bond
C 0.68
H 0.23
N 0.68
O 0.68
loop_
_atom_site_label
_atom_site_type_symbol
_atom_site_fract_x
_atom_site_fract_y
_atom_site_fract_z
N1 N 0.72736(14) 0.20328(10) 0.26628(9)
N2 N 0.56742(14) 0.19537(10) 0.17101(9)
N3 N 0.82333(14) 0.09042(10) 0.40371(9)
N4 N 0.54599(14) -0.21191(10) 0.38062(9)
C1 C 0.21388(16) -0.24666(12) 0.04625(10)
H1 H 0.30010 -0.24680 -0.00190
C2 C 0.45779(15) -0.08320(11) 0.25026(10)
C3 C 0.51989(15) 0.02614(11) 0.22887(10)
C4 C 0.58437(15) -0.09752(11) 0.35085(10)
C5 C 0.26652(15) -0.16963(11) 0.17844(10)
N5 N 0.15091(15) -0.16722(11) 0.25077(10)
C6 C 0.70249(15) 0.10435(11) 0.30557(10)
C7 C 0.75865(16) -0.01016(12) 0.42603(11)
H2 H 0.83400 -0.02370 0.49630
C8 C 0.44287(16) 0.09125(12) 0.14822(10)
C9 C 0.03223(17) -0.32335(12) -0.01364(11)
H3 H -0.00690 -0.37750 -0.10390
C10 C -0.02376(17) -0.24170(14) 0.18979(12)
H4 H -0.10690 -0.24020 0.24020
C11 C -0.09258(16) -0.32114(12) 0.05818(12)
C12 C 0.88818(17) 0.30560(12) 0.30765(10)
C13 C 0.8532(2) 0.43773(13) 0.32312(11)
H5 H 0.72510 0.45940 0.30750
C14 C 1.07367(18) 0.27244(13) 0.33011(11)
H6 H 1.09540 0.18220 0.32010
C15 C 0.25152(17) 0.06029(13) 0.05154(12)
H7 H 0.24430 0.12450 0.01270
H8 H 0.14880 0.07040 0.09350
H9 H 0.23560 -0.03430 -0.01520
C16 C 1.0093(2) 0.53675(14) 0.36174(12)
H10 H 0.98800 0.62760 0.37380
C17 C -0.29395(18) -0.39809(14) -0.00197(15)
H11 H -0.34850 -0.39780 0.06510
H12 H -0.29000 -0.49330 -0.06140
H13 H -0.37450 -0.35320 -0.04890
C18 C 1.2286(2) 0.37319(15) 0.36764(13)
H14 H 1.35680 0.35150 0.38270
C19 C 1.1962(2) 0.50462(15) 0.38299(12)
H15 H 1.30200 0.57290 0.40810
O1 O 0.49765(15) -0.32738(9) 0.29129(9)
O2 O 0.56990(15) -0.18683(10) 0.49297(9)
#END
