
#######################################################################
#
#                 Cambridge Crystallographic Data Centre
#                                CCDC
#
#######################################################################
#
# If this CIF has been generated from an entry in the Cambridge
# Structural Database, then it will include bibliographic, chemical,
# crystal, experimental, refinement or atomic coordinate data resulting
# from the CCDC's data processing and validation procedures.
#
#######################################################################

data_CSD_CIF_KOTWAT
_audit_creation_date 2014-11-27
_audit_creation_method CSD-ConQuest-V1
_database_code_CSD KOTWAT
_database_code_depnum_ccdc_archive 'CCDC 1000819'
_chemical_formula_sum 'C19 H14 N4 O2'
_chemical_formula_moiety
;
C19 H14 N4 O2
;
_journal_coden_Cambridge 1453
_journal_volume 7
_journal_year 2015
_journal_page_first 316
_journal_name_full 'ChemCatChem '
loop_
_publ_author_name
"V.O.Iaroshenko"
"A.Gevorgyan"
"S.Mkrtchyan"
"T.Grigoryan"
"E.Movsisyan"
"A.Villinger"
"P.Langer"
_chemical_name_systematic
;
3-methyl-5-nitro-1,4-diphenyl-1H-pyrazolo[3,4-b]pyridine
;
_cell_volume   3191.036
_exptl_crystal_colour 'colorless'
_exptl_crystal_density_diffrn 1.375
_exptl_crystal_description 'block'
_diffrn_ambient_temperature 173
#These two values have been output from a single CSD field.
_refine_ls_R_factor_gt 0.0466
_refine_ls_wR_factor_gt 0.0466
_symmetry_cell_setting orthorhombic
_symmetry_space_group_name_H-M 'P b c a'
_symmetry_Int_Tables_number 61
loop_
_symmetry_equiv_pos_site_id
_symmetry_equiv_pos_as_xyz
1 x,y,z
2 1/2-x,-y,1/2+z
3 -x,1/2+y,1/2-z
4 1/2+x,1/2-y,-z
5 -x,-y,-z
6 -1/2+x,y,-1/2-z
7 x,-1/2-y,-1/2+z
8 -1/2-x,-1/2+y,z
_cell_length_a 6.8138(3)
_cell_length_b 18.1684(9)
_cell_length_c 25.7766(14)
_cell_angle_alpha 90
_cell_angle_beta 90
_cell_angle_gamma 90
_cell_formula_units_Z 8
loop_
_atom_type_symbol
_atom_type_radius_bond
C 0.68
H 0.23
N 0.68
O 0.68
loop_
_atom_site_label
_atom_site_type_symbol
_atom_site_fract_x
_atom_site_fract_y
_atom_site_fract_z
N1 N 0.69703(19) 0.08000(7) 0.73320(5)
N2 N 0.67322(19) 0.15522(7) 0.72657(5)
N3 N 0.72420(19) -0.00450(7) 0.80526(5)
N4 N 0.7415(2) 0.04693(7) 0.94322(5)
O1 O 0.8285(2) 0.09364(7) 0.96876(5)
O2 O 0.67514(19) -0.01016(6) 0.96161(5)
C1 C 0.6702(2) 0.18536(8) 0.77309(6)
C2 C 0.6943(2) 0.13008(8) 0.81225(6)
C3 C 0.7039(2) 0.12872(8) 0.86662(6)
C4 C 0.7211(2) 0.05843(8) 0.88736(6)
C5 C 0.7283(2) -0.00529(8) 0.85658(6)
H1 H 0.73670 -0.05160 0.87360
C6 C 0.7075(2) 0.06306(8) 0.78479(6)
C7 C 0.7073(2) 0.03383(9) 0.68834(6)
C8 C 0.7121(3) -0.04235(9) 0.69286(7)
H2 H 0.70970 -0.06510 0.72600
C9 C 0.7205(3) -0.08467(10) 0.64802(7)
H3 H 0.72410 -0.13680 0.65080
C10 C 0.7237(2) -0.05227(10) 0.59938(7)
H4 H 0.72870 -0.08190 0.56900
C11 C 0.7197(2) 0.02341(11) 0.59545(7)
H5 H 0.72290 0.04600 0.56220
C12 C 0.7108(2) 0.06704(10) 0.63975(6)
H6 H 0.70720 0.11910 0.63680
C13 C 0.6391(3) 0.26651(9) 0.77850(7)
H7 H 0.61500 0.28800 0.74420
H8 H 0.75630 0.28900 0.79380
H9 H 0.52570 0.27560 0.80100
C14 C 0.6905(2) 0.19732(8) 0.89807(6)
C15 C 0.8421(2) 0.24881(8) 0.89672(7)
H10 H 0.95450 0.24020 0.87580
C16 C 0.8285(3) 0.31263(9) 0.92599(7)
H11 H 0.93250 0.34740 0.92540
C17 C 0.6639(3) 0.32572(9) 0.95599(7)
H12 H 0.65470 0.36980 0.97570
C18 C 0.5125(3) 0.27503(9) 0.95753(7)
H13 H 0.39960 0.28420 0.97810
C19 C 0.5268(3) 0.21081(8) 0.92881(6)
H14 H 0.42370 0.17570 0.93010
#END
