
#######################################################################
#
#                 Cambridge Crystallographic Data Centre
#                                CCDC
#
#######################################################################
#
# If this CIF has been generated from an entry in the Cambridge
# Structural Database, then it will include bibliographic, chemical,
# crystal, experimental, refinement or atomic coordinate data resulting
# from the CCDC's data processing and validation procedures.
#
#######################################################################

data_CSD_CIF_KOVGIL
_audit_creation_date 1992-12-10
_audit_creation_method CSD-ConQuest-V1
_database_code_CSD KOVGIL
_chemical_formula_sum 'C6 H12 N4 O4'
_chemical_formula_moiety
;
C6 H12 N4 O4
;
_journal_coden_Cambridge 35
_journal_volume 57
_journal_year 1992
_journal_page_first 235
_journal_name_full 'J.Org.Chem. '
loop_
_publ_author_name
"K.Baum"
"S.S.Bigelow"
"N.V.Nguyen"
"T.G.Archibald"
"R.Gilardi"
"J.L.Flippen-Anderson"
"C.George"
_chemical_name_systematic
;
1,1-bis(Dimethylamino)-2,2-dinitroethylene
;
_chemical_melting_point 491.15
_cell_volume    960.414
_exptl_crystal_colour 'yellow'
_exptl_crystal_density_diffrn 1.412
_exptl_special_details
;
Melting point range 491.15-492.15K

;
_diffrn_ambient_temperature ?
_diffrn_special_details
;
The study was carried out at room temperature,in the range 283-303K

;
#These two values have been output from a single CSD field.
_refine_ls_R_factor_gt 0.038
_refine_ls_wR_factor_gt 0.038
_symmetry_cell_setting monoclinic
_symmetry_space_group_name_H-M 'P 21/n'
_symmetry_Int_Tables_number 14
loop_
_symmetry_equiv_pos_site_id
_symmetry_equiv_pos_as_xyz
1 x,y,z
2 1/2-x,1/2+y,1/2-z
3 -x,-y,-z
4 -1/2+x,-1/2-y,-1/2+z
_cell_length_a 7.201(7)
_cell_length_b 17.32(2)
_cell_length_c 8.122(8)
_cell_angle_alpha 90
_cell_angle_beta 108.54(6)
_cell_angle_gamma 90
_cell_formula_units_Z 4
loop_
_atom_type_symbol
_atom_type_radius_bond
C 0.68
H 0.23
N 0.68
O 0.68
loop_
_atom_site_label
_atom_site_type_symbol
_atom_site_fract_x
_atom_site_fract_y
_atom_site_fract_z
C1 C -0.1127(3) 0.1103(1) 0.5967(2)
C2 C -0.2613(3) 0.1282(1) 0.6736(2)
N1 N 0.0628(2) 0.0766(1) 0.6969(2)
O1 O 0.0965(2) 0.0792(1) 0.8576(2)
O2 O 0.1772(2) 0.0454(1) 0.6328(2)
N2 N -0.1427(3) 0.1269(1) 0.4214(2)
O3 O -0.3130(2) 0.1434(1) 0.3322(2)
O4 O -0.0072(3) 0.1272(1) 0.3604(2)
N3 N -0.3213(2) 0.0748(1) 0.7628(2)
C3 C -0.2952(3) -0.0076(1) 0.7374(3)
C4 C -0.3796(3) 0.0932(1) 0.9147(3)
N4 N -0.3386(2) 0.1992(1) 0.6580(2)
C5 C -0.2401(4) 0.2657(1) 0.6147(3)
C6 C -0.5467(3) 0.2104(2) 0.6367(4)
H1 H -0.41290 -0.03310 0.73960
H2 H -0.18560 -0.02770 0.82870
H3 H -0.27590 -0.01660 0.62740
H4 H -0.30400 0.05990 1.00610
H5 H -0.51650 0.08520 0.89680
H6 H -0.34650 0.14600 0.94650
H7 H -0.25760 0.30910 0.68160
H8 H -0.29220 0.27770 0.49330
H9 H -0.10300 0.25410 0.64380
H10 H -0.59930 0.24040 0.53290
H11 H -0.56000 0.23860 0.73410
H12 H -0.61690 0.16250 0.62490
#END
