
#######################################################################
#
#                 Cambridge Crystallographic Data Centre
#                                CCDC
#
#######################################################################
#
# If this CIF has been generated from an entry in the Cambridge
# Structural Database, then it will include bibliographic, chemical,
# crystal, experimental, refinement or atomic coordinate data resulting
# from the CCDC's data processing and validation procedures.
#
#######################################################################

data_CSD_CIF_KOWTAR
_audit_creation_date 1992-11-16
_audit_creation_method CSD-ConQuest-V1
_database_code_CSD KOWTAR
_chemical_formula_sum 'C8 H13 N5 O2'
_chemical_formula_moiety
;
C8 H13 N5 O2
;
_journal_coden_Cambridge 82
_journal_volume 32
_journal_year 1991
_journal_page_first 45-3
_journal_name_full 'Zh.Strukt.Khim.(Russ.)(J.Struct.Chem.) '
loop_
_publ_author_name
"A.F.Mishnev"
"V.G.Andrianov"
"V.G.Semenikhina"
"A.V.Eremeev"
_chemical_name_systematic
;
Z-3-Aminofurazanoyl piperidine oxime
;
_cell_volume    514.339
_exptl_crystal_density_diffrn 1.36
_diffrn_ambient_temperature ?
_diffrn_special_details
;
The study was carried out at room temperature,in the range 283-303K

;
#These two values have been output from a single CSD field.
_refine_ls_R_factor_gt 0.049
_refine_ls_wR_factor_gt 0.049
loop_
_citation_database_id_CSD
_citation_special_details
KOWTEV "is a stereoisomer of this entry"
_symmetry_cell_setting triclinic
_symmetry_space_group_name_H-M 'P -1'
_symmetry_Int_Tables_number 2
loop_
_symmetry_equiv_pos_site_id
_symmetry_equiv_pos_as_xyz
1 x,y,z
2 -x,-y,-z
_cell_length_a 5.298(2)
_cell_length_b 6.512(2)
_cell_length_c 16.310(3)
_cell_angle_alpha 88.68(2)
_cell_angle_beta 85.39(2)
_cell_angle_gamma 66.50(2)
_cell_formula_units_Z 2
loop_
_atom_type_symbol
_atom_type_radius_bond
C 0.68
H 0.23
N 0.68
O 0.68
loop_
_atom_site_label
_atom_site_type_symbol
_atom_site_fract_x
_atom_site_fract_y
_atom_site_fract_z
O1 O 0.2953(6) 0.7995(4) 0.2218(2)
N1 N 0.2635(6) 0.9833(5) 0.1699(2)
C1 C 0.0768(7) 1.1689(5) 0.1992(2)
C2 C 0.0619(7) 1.3596(5) 0.1476(2)
C3 C 0.2707(8) 1.3774(6) 0.0891(2)
N2 N 0.1787(6) 1.5806(4) 0.0573(2)
O2 O -0.0886(5) 1.6904(4) 0.0953(2)
N3 N -0.1527(6) 1.5500(5) 0.1498(2)
N4 N 0.5264(7) 1.2182(6) 0.0693(2)
N5 N -0.0912(7) 1.1974(5) 0.2706(2)
C4 C -0.168(1) 1.3942(7) 0.3236(3)
C5 C -0.145(1) 1.3236(8) 0.4119(3)
C6 C -0.314(1) 1.1874(9) 0.4346(3)
C7 C -0.233(1) 0.9872(9) 0.3764(3)
C8 C -0.2497(9) 1.0614(7) 0.2882(3)
H1 H -0.38(1) 1.499(8) 0.318(3)
H2 H -0.055(8) 1.473(6) 0.307(2)
H3 H -0.203(8) 1.457(6) 0.446(2)
H4 H 0.072(9) 1.213(7) 0.420(2)
H5 H -0.527(9) 1.300(7) 0.431(3)
H6 H -0.296(9) 1.140(7) 0.489(3)
H7 H -0.04(1) 0.884(8) 0.382(3)
H8 H -0.365(9) 0.900(7) 0.388(3)
H9 H -0.444(9) 1.146(7) 0.284(3)
H10 H -0.181(8) 0.924(7) 0.252(2)
H11 H 0.443(9) 0.698(7) 0.201(3)
H12 H 0.533(9) 1.057(7) 0.081(2)
H13 H 0.644(9) 1.265(7) 0.031(3)
#END
