
#######################################################################
#
#                 Cambridge Crystallographic Data Centre
#                                CCDC
#
#######################################################################
#
# If this CIF has been generated from an entry in the Cambridge
# Structural Database, then it will include bibliographic, chemical,
# crystal, experimental, refinement or atomic coordinate data resulting
# from the CCDC's data processing and validation procedures.
#
#######################################################################

data_CSD_CIF_KOWTEV
_audit_creation_date 1992-11-16
_audit_creation_method CSD-ConQuest-V1
_database_code_CSD KOWTEV
_chemical_formula_sum 'C8 H13 N5 O2'
_chemical_formula_moiety
;
C8 H13 N5 O2
;
_journal_coden_Cambridge 82
_journal_volume 32
_journal_year 1991
_journal_page_first 45-3
_journal_name_full 'Zh.Strukt.Khim.(Russ.)(J.Struct.Chem.) '
loop_
_publ_author_name
"A.F.Mishnev"
"V.G.Andrianov"
"V.G.Semenikhina"
"A.V.Eremeev"
_chemical_name_systematic
;
E-3-Aminofurazanoyl(piperidine)oxime
;
_cell_volume   1089.851
_exptl_crystal_density_diffrn 1.29
_diffrn_ambient_temperature ?
_diffrn_special_details
;
The study was carried out at room temperature,in the range 283-303K

;
#These two values have been output from a single CSD field.
_refine_ls_R_factor_gt 0.051
_refine_ls_wR_factor_gt 0.051
loop_
_citation_database_id_CSD
_citation_special_details
KOWTAR "is a stereoisomer of this entry"
_symmetry_cell_setting monoclinic
_symmetry_space_group_name_H-M 'P 21/n'
_symmetry_Int_Tables_number 14
loop_
_symmetry_equiv_pos_site_id
_symmetry_equiv_pos_as_xyz
1 x,y,z
2 1/2-x,1/2+y,1/2-z
3 -x,-y,-z
4 -1/2+x,-1/2-y,-1/2+z
_cell_length_a 6.343(2)
_cell_length_b 13.895(4)
_cell_length_c 12.408(2)
_cell_angle_alpha 90
_cell_angle_beta 94.74(2)
_cell_angle_gamma 90
_cell_formula_units_Z 4
loop_
_atom_type_symbol
_atom_type_radius_bond
C 0.68
H 0.23
N 0.68
O 0.68
loop_
_atom_site_label
_atom_site_type_symbol
_atom_site_fract_x
_atom_site_fract_y
_atom_site_fract_z
O1 O -0.0136(4) 0.0303(2) 0.1249(2)
N1 N -0.1396(5) -0.0457(2) 0.0776(2)
C1 C -0.2843(5) -0.0704(3) 0.1389(2)
C2 C -0.3025(5) -0.0266(3) 0.2464(2)
C3 C -0.1471(5) -0.0150(2) 0.3352(3)
N2 N -0.2341(5) 0.0241(2) 0.4161(2)
O2 O -0.4461(4) 0.0376(2) 0.3787(2)
N3 N -0.4820(5) 0.0060(3) 0.2741(2)
N4 N 0.0574(5) -0.0459(3) 0.3408(3)
N5 N -0.4370(5) -0.1349(2) 0.1027(2)
C4 C -0.4293(9) -0.1712(5) -0.0094(4)
C5 C -0.6367(9) -0.2160(4) -0.0491(5)
C6 C -0.710(1) -0.2904(4) 0.0266(5)
C7 C -0.714(1) -0.2498(5) 0.1383(5)
C8 C -0.5009(9) -0.2097(4) 0.1780(4)
H1 H -0.316(6) -0.227(3) -0.001(3)
H2 H -0.397(6) -0.114(3) -0.054(3)
H3 H -0.631(7) -0.243(3) -0.121(4)
H4 H -0.737(7) -0.158(3) -0.054(3)
H5 H -0.613(8) -0.348(4) 0.019(4)
H6 H -0.840(9) -0.315(4) 0.002(4)
H7 H -0.755(9) -0.296(4) 0.192(4)
H8 H -0.81(1) -0.192(4) 0.142(5)
H9 H -0.493(7) -0.182(3) 0.254(4)
H10 H -0.393(8) -0.255(3) 0.182(3)
H11 H 0.067(6) 0.048(3) 0.068(3)
H12 H 0.114(6) -0.031(3) 0.285(3)
H13 H 0.128(5) -0.036(2) 0.406(3)
#END
