
#######################################################################
#
#                 Cambridge Crystallographic Data Centre
#                                CCDC
#
#######################################################################
#
# If this CIF has been generated from an entry in the Cambridge
# Structural Database, then it will include bibliographic, chemical,
# crystal, experimental, refinement or atomic coordinate data resulting
# from the CCDC's data processing and validation procedures.
#
#######################################################################

data_CSD_CIF_KOWXOJ
_audit_creation_date 1992-12-10
_audit_creation_method CSD-ConQuest-V1
_database_code_CSD KOWXOJ
_database_code_depnum_ccdc_archive 'CCDC 1199883'
_chemical_formula_sum 'C7 H8 N2 O1'
_chemical_formula_moiety
;
C7 H8 N2 O1
;
_journal_coden_Cambridge 82
_journal_volume 32
_journal_year 1991
_journal_page_first 113-3
_journal_name_full 'Zh.Strukt.Khim.(Russ.)(J.Struct.Chem.) '
loop_
_publ_author_name
"Z.G.Aliev"
"V.G.Kartsev"
"L.O.Atovmyan"
_chemical_name_systematic
;
2-Acetylpyridine oxime
;
_cell_volume    694.032
_exptl_crystal_colour 'colorless'
_exptl_special_details
;
Fw and dx reported as 132.16 and 1.27; we calculate 136.15 and 1.30

;
_diffrn_ambient_temperature ?
_diffrn_special_details
;
The study was carried out at room temperature,in the range 283-303K

;
#These two values have been output from a single CSD field.
_refine_ls_R_factor_gt 0.049
_refine_ls_wR_factor_gt 0.049
_symmetry_cell_setting monoclinic
_symmetry_space_group_name_H-M 'P 21/c 1 1'
_symmetry_Int_Tables_number 14
loop_
_symmetry_equiv_pos_site_id
_symmetry_equiv_pos_as_xyz
1 x,y,z
2 1/2+x,-y,1/2-z
3 -x,-y,-z
4 -1/2-x,y,-1/2+z
_cell_length_a 8.131(2)
_cell_length_b 8.068(3)
_cell_length_c 10.635(3)
_cell_angle_alpha 95.85(5)
_cell_angle_beta 90
_cell_angle_gamma 90
_cell_formula_units_Z 4
loop_
_atom_type_symbol
_atom_type_radius_bond
C 0.68
H 0.23
N 0.68
O 0.68
loop_
_atom_site_label
_atom_site_type_symbol
_atom_site_fract_x
_atom_site_fract_y
_atom_site_fract_z
O1 O 0.2726(3) 0.5236(3) 0.5036(2)
N1 N 0.1945(4) 0.6527(3) 0.4482(3)
N2 N 0.0236(3) 0.7191(3) 0.1662(3)
C1 C -0.0536(5) 0.8374(5) 0.1072(4)
C2 C -0.1342(5) 0.9723(5) 0.1741(4)
C3 C -0.1374(5) 0.9842(5) 0.3021(4)
C4 C -0.0615(4) 0.8600(4) 0.3656(3)
C5 C 0.0183(4) 0.7323(4) 0.2923(3)
C6 C 0.1073(4) 0.5986(4) 0.3536(3)
C7 C 0.0871(5) 0.4202(4) 0.2993(3)
H1 H 0.341(4) 0.575(4) 0.550(3)
H2 H -0.030(5) 0.813(5) 0.014(4)
H3 H -0.191(5) 1.066(4) 0.128(4)
H4 H -0.194(5) 1.090(4) 0.361(4)
H5 H -0.062(4) 0.877(4) 0.461(3)
H6 H -0.031(5) 0.399(5) 0.234(4)
H7 H 0.089(5) 0.356(5) 0.365(4)
H8 H 0.177(6) 0.366(6) 0.248(5)
#END
