
#######################################################################
#
#                 Cambridge Crystallographic Data Centre
#                                CCDC
#
#######################################################################
#
# If this CIF has been generated from an entry in the Cambridge
# Structural Database, then it will include bibliographic, chemical,
# crystal, experimental, refinement or atomic coordinate data resulting
# from the CCDC's data processing and validation procedures.
#
#######################################################################

data_CSD_CIF_KOXBUW
_audit_creation_date 2014-11-29
_audit_creation_method CSD-ConQuest-V1
_database_code_CSD KOXBUW
_database_code_depnum_ccdc_archive 'CCDC 1035993'
_chemical_formula_sum 'C14 H13 N5 O2'
_chemical_formula_moiety
;
C14 H13 N5 O2
;
_journal_coeditor_code "IUCr su5024"
_journal_coden_Cambridge 1370
_journal_volume 70
_journal_year 2014
_journal_page_first 584
_journal_name_full 'Acta Crystallogr.,Sect.E:Struct.Rep.Online '
loop_
_publ_author_name
"M.O.Plutenko"
"R.D.Lampeka"
"M.Haukka"
"E.Nordlander"
_chemical_name_systematic
;
2-(hydroxyimino)-2-(pyridin-2-yl)-N'-(1-(pyridin-2-yl)ethylidene)acetohydrazid
e
;
_cell_volume   1284.567
_exptl_crystal_colour 'colorless'
_exptl_crystal_density_diffrn 1.465
_exptl_crystal_description 'block'
_diffrn_ambient_temperature 123
#These two values have been output from a single CSD field.
_refine_ls_R_factor_gt 0.044
_refine_ls_wR_factor_gt 0.044
_symmetry_cell_setting monoclinic
_symmetry_space_group_name_H-M 'P 21/n'
_symmetry_Int_Tables_number 14
loop_
_symmetry_equiv_pos_site_id
_symmetry_equiv_pos_as_xyz
1 x,y,z
2 1/2-x,1/2+y,1/2-z
3 -x,-y,-z
4 -1/2+x,-1/2-y,-1/2+z
_cell_length_a 11.4319(9)
_cell_length_b 9.3598(4)
_cell_length_c 12.4297(9)
_cell_angle_alpha 90
_cell_angle_beta 105.016(3)
_cell_angle_gamma 90
_cell_formula_units_Z 4
loop_
_atom_type_symbol
_atom_type_radius_bond
C 0.68
H 0.23
N 0.68
O 0.68
loop_
_atom_site_label
_atom_site_type_symbol
_atom_site_fract_x
_atom_site_fract_y
_atom_site_fract_z
O1 O 0.53771(10) 0.81661(11) 0.01882(9)
H1 H 0.547(2) 0.873(3) -0.0406(19)
O2 O 0.41325(12) 1.10609(11) 0.18548(9)
N1 N 0.42020(13) 0.68309(13) 0.29508(10)
N2 N 0.49655(12) 0.91005(12) 0.08547(10)
N3 N 0.39671(12) 0.95674(13) 0.32531(10)
H2 H 0.3983(18) 0.865(2) 0.3433(16)
N4 N 0.36523(11) 1.06522(12) 0.38730(9)
N5 N 0.27415(12) 1.10442(13) 0.63724(10)
C1 C 0.40835(17) 0.54907(16) 0.32784(14)
H3 H 0.38410 0.53470 0.39460
C2 C 0.42966(11) 0.43023(11) 0.26956(9)
H4 H 0.41950 0.33630 0.29460
C3 C 0.46609(11) 0.45322(11) 0.17415(9)
H5 H 0.48180 0.37420 0.13200
C4 C 0.48006(15) 0.59117(15) 0.13888(12)
H6 H 0.50610 0.60740 0.07320
C5 C 0.45529(13) 0.70606(14) 0.20141(11)
C6 C 0.46209(13) 0.85875(14) 0.16827(11)
C7 C 0.42130(14) 0.98666(14) 0.22744(12)
C8 C 0.33284(13) 1.02516(14) 0.47426(11)
C9 C 0.32455(16) 0.87266(15) 0.50997(13)
H7 H 0.27820 0.81660 0.44660
H8 H 0.28380 0.86940 0.57020
H9 H 0.40620 0.83270 0.53630
C10 C 0.30190(13) 1.14279(14) 0.54298(11)
C11 C 0.30120(14) 1.28513(15) 0.50943(12)
H10 H 0.32170 1.30940 0.44240
C12 C 0.27019(15) 1.39034(16) 0.57523(13)
H11 H 0.26900 1.48790 0.55390
C13 C 0.24098(14) 1.35182(16) 0.67237(12)
H12 H 0.21880 1.42160 0.71900
C14 C 0.24502(15) 1.20881(16) 0.69948(12)
H13 H 0.22590 1.18240 0.76670
#END
