
#######################################################################
#
#                 Cambridge Crystallographic Data Centre
#                                CCDC
#
#######################################################################
#
# If this CIF has been generated from an entry in the Cambridge
# Structural Database, then it will include bibliographic, chemical,
# crystal, experimental, refinement or atomic coordinate data resulting
# from the CCDC's data processing and validation procedures.
#
#######################################################################

data_CSD_CIF_KOYLIT
_audit_creation_date 1992-10-19
_audit_creation_method CSD-ConQuest-V1
_database_code_CSD KOYLIT
_chemical_formula_sum 'C6 H4 N4 O2'
_chemical_formula_moiety
;
C6 H4 N4 O2
;
_journal_coeditor_code "IUCr AS0556"
_journal_coden_Cambridge 591
_journal_volume 48
_journal_year 1992
_journal_page_first 1237
_journal_name_full 'Acta Crystallogr.,Sect.C:Cryst.Struct.Commun. '
loop_
_publ_author_name
"K.Yamaguchi"
"H.Takahashi"
"T.Kaihoh"
"T.Itoh"
"M.Okada"
"K.Nagata"
"G.Matsumura"
"A.Ohsawa"
_chemical_name_systematic
;
Benzo-1,2,3,4-tetrazine 1,3-dioxide
;
_chemical_melting_point 440
_cell_volume   1372.309
_exptl_crystal_density_diffrn 1.589
_exptl_special_details
;
Melting point range 440-441K

;
_diffrn_ambient_temperature ?
_diffrn_special_details
;
The study was carried out at room temperature,in the range 283-303K

;
#These two values have been output from a single CSD field.
_refine_ls_R_factor_gt 0.049
_refine_ls_wR_factor_gt 0.049
_symmetry_cell_setting orthorhombic
_symmetry_space_group_name_H-M 'P c a b'
_symmetry_Int_Tables_number 61
loop_
_symmetry_equiv_pos_site_id
_symmetry_equiv_pos_as_xyz
1 x,y,z
2 1/2-x,y,1/2+z
3 1/2+x,1/2-y,z
4 -x,1/2-y,1/2+z
5 -x,-y,-z
6 -1/2+x,-y,-1/2-z
7 -1/2-x,-1/2+y,-z
8 x,-1/2+y,-1/2-z
_cell_length_a 13.602(1)
_cell_length_b 14.477(2)
_cell_length_c 6.969(1)
_cell_angle_alpha 90
_cell_angle_beta 90
_cell_angle_gamma 90
_cell_formula_units_Z 8
loop_
_atom_type_symbol
_atom_type_radius_bond
C 0.68
H 0.23
N 0.68
O 0.68
loop_
_atom_site_label
_atom_site_type_symbol
_atom_site_fract_x
_atom_site_fract_y
_atom_site_fract_z
N1 N 0.3328(2) 0.1245(1) 1.2778(4)
N2 N 0.3395(2) 0.2136(2) 1.2924(5)
N3 N 0.3758(2) 0.2753(2) 1.1590(5)
N4 N 0.4033(2) 0.2386(1) 0.9938(5)
O1 O 0.3126(2) 0.2523(1) 1.4449(4)
O2 O 0.4394(2) 0.2916(1) 0.8735(4)
C1 C 0.3586(2) 0.0901(2) 1.1016(5)
C2 C 0.3932(2) 0.1441(2) 0.9520(5)
C3 C 0.4154(2) 0.1082(2) 0.7711(6)
C4 C 0.4042(3) 0.0157(2) 0.7469(7)
C5 C 0.3719(2) -0.0402(2) 0.8965(6)
C6 C 0.3493(2) -0.0051(2) 1.0713(6)
H1 H 0.432(2) 0.154(2) 0.667(5)
H2 H 0.408(3) -0.011(2) 0.624(6)
H3 H 0.365(2) -0.106(3) 0.875(5)
H4 H 0.327(2) -0.045(2) 1.180(5)
#END
