
#######################################################################
#
#                 Cambridge Crystallographic Data Centre
#                                CCDC
#
#######################################################################
#
# If this CIF has been generated from an entry in the Cambridge
# Structural Database, then it will include bibliographic, chemical,
# crystal, experimental, refinement or atomic coordinate data resulting
# from the CCDC's data processing and validation procedures.
#
#######################################################################

data_CSD_CIF_KUBPIG
_audit_creation_date 1992-12-10
_audit_creation_method CSD-ConQuest-V1
_database_code_CSD KUBPIG
_chemical_formula_sum 'C4 H5 N5 O6'
_chemical_formula_moiety
;
C4 H5 N5 O6
;
_journal_coden_Cambridge 35
_journal_volume 57
_journal_year 1992
_journal_page_first 3026
_journal_name_full 'J.Org.Chem. '
loop_
_publ_author_name
"K.Baum"
"N.V.Nguyen"
"R.Gilardi"
"J.L.Flippen-Anderson"
"C.George"
_chemical_name_systematic
;
1-Nitro-2-(dinitromethylene)-1,3-diazacyclopentane
;
_cell_volume   1616.647
_exptl_crystal_colour 'colorless'
_exptl_crystal_density_diffrn 1.801
_diffrn_ambient_temperature ?
_diffrn_special_details
;
The study was carried out at room temperature,in the range 283-303K

;
#These two values have been output from a single CSD field.
_refine_ls_R_factor_gt 0.043
_refine_ls_wR_factor_gt 0.043
_symmetry_cell_setting tetragonal
_symmetry_space_group_name_H-M 'P 42/n'
_symmetry_Int_Tables_number 86
loop_
_symmetry_equiv_pos_site_id
_symmetry_equiv_pos_as_xyz
1 x,y,z
2 -y,1/2+x,1/2+z
3 1/2-x,1/2-y,z
4 1/2+y,-x,1/2+z
5 -x,-y,-z
6 y,-1/2-x,-1/2-z
7 -1/2+x,-1/2+y,-z
8 -1/2-y,x,-1/2-z
_cell_length_a 13.979(3)
_cell_length_b 13.979(3)
_cell_length_c 8.273(4)
_cell_angle_alpha 90
_cell_angle_beta 90
_cell_angle_gamma 90
_cell_formula_units_Z 8
loop_
_atom_type_symbol
_atom_type_radius_bond
C 0.68
H 0.23
N 0.68
O 0.68
loop_
_atom_site_label
_atom_site_type_symbol
_atom_site_fract_x
_atom_site_fract_y
_atom_site_fract_z
N1 N 0.2170(2) 0.4524(2) 0.0385(4)
N2 N 0.1199(2) 0.4343(2) 0.0468(4)
O1 O 0.0748(2) 0.4683(2) 0.1595(4)
O2 O 0.0882(2) 0.3846(2) -0.0611(3)
C1 C 0.2668(3) 0.5130(3) 0.1417(4)
C2 C 0.2486(3) 0.5279(3) 0.3069(4)
N3 N 0.1958(2) 0.4590(3) 0.3991(4)
O3 O 0.2016(2) 0.3753(2) 0.3540(3)
O4 O 0.1484(2) 0.4837(2) 0.5170(3)
N4 N 0.2960(3) 0.6005(2) 0.3944(4)
O5 O 0.2762(2) 0.6159(2) 0.5356(4)
O6 O 0.3592(2) 0.6459(2) 0.3240(4)
N5 N 0.3351(2) 0.5522(2) 0.0577(4)
C3 C 0.3374(3) 0.5247(3) -0.1124(5)
C4 C 0.2641(3) 0.4455(3) -0.1208(4)
H1 H 0.3738(27) 0.5958(28) 0.0992(51)
H2 H 0.31970 0.57740 -0.18070
H3 H 0.39970 0.50200 -0.14280
H4 H 0.29410 0.38430 -0.13500
H5 H 0.21940 0.45620 -0.20700
#END
