
#######################################################################
#
#                 Cambridge Crystallographic Data Centre
#                                CCDC
#
#######################################################################
#
# If this CIF has been generated from an entry in the Cambridge
# Structural Database, then it will include bibliographic, chemical,
# crystal, experimental, refinement or atomic coordinate data resulting
# from the CCDC's data processing and validation procedures.
#
#######################################################################

data_CSD_CIF_KUBPEC
_audit_creation_date 1992-12-10
_audit_creation_method CSD-ConQuest-V1
_database_code_CSD KUBPEC
_chemical_formula_sum 'C9 H8 N12 O16'
_chemical_formula_moiety
;
C9 H8 N12 O16
;
_journal_coden_Cambridge 35
_journal_volume 57
_journal_year 1992
_journal_page_first 3026
_journal_name_full 'J.Org.Chem. '
loop_
_publ_author_name
"K.Baum"
"N.V.Nguyen"
"R.Gilardi"
"J.L.Flippen-Anderson"
"C.George"
_chemical_name_systematic
;
3,9-bis(Trinitromethyl)-4,10-dinitro-2,4,8,10-tetra-azaspiro(5.5)undec-2,8-die
ne
;
_chemical_melting_point 425.15
_cell_volume   3972.555
_exptl_crystal_colour 'colorless'
_exptl_crystal_density_diffrn 1.807
_exptl_special_details
;
Melts with decomposition.

;
_diffrn_ambient_temperature ?
_diffrn_special_details
;
The study was carried out at room temperature,in the range 283-303K

;
#These two values have been output from a single CSD field.
_refine_ls_R_factor_gt 0.064
_refine_ls_wR_factor_gt 0.064
_symmetry_cell_setting orthorhombic
_symmetry_space_group_name_H-M 'P c a b'
_symmetry_Int_Tables_number 61
loop_
_symmetry_equiv_pos_site_id
_symmetry_equiv_pos_as_xyz
1 x,y,z
2 1/2-x,y,1/2+z
3 1/2+x,1/2-y,z
4 -x,1/2-y,1/2+z
5 -x,-y,-z
6 -1/2+x,-y,-1/2-z
7 -1/2-x,-1/2+y,-z
8 x,-1/2+y,-1/2-z
_cell_length_a 11.476(3)
_cell_length_b 12.891(3)
_cell_length_c 26.853(7)
_cell_angle_alpha 90
_cell_angle_beta 90
_cell_angle_gamma 90
_cell_formula_units_Z 8
loop_
_atom_type_symbol
_atom_type_radius_bond
C 0.68
H 0.23
N 0.68
O 0.68
loop_
_atom_site_label
_atom_site_type_symbol
_atom_site_fract_x
_atom_site_fract_y
_atom_site_fract_z
C1 C 0.0601(11) 0.9748(9) 0.3443(4)
N1 N 0.0938(9) 0.9442(8) 0.2956(4)
C2 C 0.1578(11) 0.8666(11) 0.2884(5)
C3 C 0.1954(15) 0.8456(11) 0.2360(5)
N2 N 0.3206(14) 0.8849(11) 0.2263(5)
O1 O 0.3682(9) 0.8502(9) 0.1888(4)
O2 O 0.356(1) 0.9408(10) 0.2566(5)
N3 N 0.1732(12) 0.7381(11) 0.2141(5)
O3 O 0.1962(11) 0.7233(9) 0.1711(4)
O4 O 0.1222(11) 0.6827(8) 0.2424(4)
N4 N 0.1155(13) 0.9219(13) 0.2001(5)
O5 O 0.0194(11) 0.8869(10) 0.1934(4)
O6 O 0.1625(13) 0.9963(9) 0.1856(4)
N5 N 0.1935(11) 0.7947(9) 0.3262(4)
N6 N 0.2899(11) 0.7315(10) 0.3254(5)
O7 O 0.3415(9) 0.7292(9) 0.2845(4)
O8 O 0.3170(8) 0.6854(7) 0.3626(4)
C4 C 0.1305(10) 0.8063(8) 0.3732(5)
C5 C 0.1217(11) 0.9194(10) 0.3875(5)
C6 C 0.0584(10) 0.9370(9) 0.4357(4)
N7 N 0.1225(10) 0.9041(8) 0.4811(3)
C7 C 0.2298(13) 0.8866(9) 0.4785(5)
C8 C 0.2842(12) 0.8492(11) 0.5255(5)
N8 N 0.1934(14) 0.8610(12) 0.5696(6)
O9 O 0.1350(9) 0.7838(9) 0.5763(4)
O10 O 0.1903(11) 0.9451(10) 0.5874(4)
N9 N 0.3869(12) 0.917(1) 0.5449(5)
O11 O 0.3913(9) 1.0002(8) 0.5256(4)
O12 O 0.4492(9) 0.8799(8) 0.5757(4)
N10 N 0.3136(11) 0.7335(10) 0.5230(5)
O13 O 0.2707(10) 0.6892(8) 0.4893(4)
O14 O 0.3668(9) 0.6964(8) 0.5588(4)
N11 N 0.3014(10) 0.9096(9) 0.4359(4)
N12 N 0.4123(11) 0.8691(9) 0.4287(5)
O15 O 0.4569(8) 0.8892(7) 0.3893(3)
O16 O 0.4544(8) 0.8180(6) 0.4642(3)
C9 C 0.2431(10) 0.9660(9) 0.3966(4)
H1 H 0.07500 1.04780 0.34740
H2 H -0.02200 0.96220 0.34750
H3 H 0.05350 0.77820 0.36960
H4 H 0.17120 0.76930 0.39890
H5 H -0.01330 0.89870 0.43440
H6 H 0.04160 1.00970 0.43870
H7 H 0.23570 1.03750 0.40620
H8 H 0.28820 0.96130 0.36660
#END
