
#######################################################################
#
#                 Cambridge Crystallographic Data Centre
#                                CCDC
#
#######################################################################
#
# If this CIF has been generated from an entry in the Cambridge
# Structural Database, then it will include bibliographic, chemical,
# crystal, experimental, refinement or atomic coordinate data resulting
# from the CCDC's data processing and validation procedures.
#
#######################################################################

data_CSD_CIF_KUCKUQ
_audit_creation_date 2015-04-09
_audit_creation_method CSD-ConQuest-V1
_database_code_CSD KUCKUQ
_database_code_depnum_ccdc_archive 'CCDC 947753'
_chemical_formula_sum 'C19 H14 N6 O5'
_chemical_formula_moiety
;
C19 H14 N6 O5
;
_journal_coden_Cambridge 643
_journal_volume 229
_journal_year 2014
_journal_page_first 709
_journal_name_full 'Z.Krist.Cryst.Mater. '
loop_
_publ_author_name
"R.B.da Silva"
"E.F.da Silva"
"S.A.Carvalho"
"C.A.M.Fraga"
"S.M.S.V.Wardell"
"J.L.Wardell"
_chemical_name_systematic
;
1-Methyl-5-nitro-2'-(2-nitrophenyl)-5'-phenyl-1H,3'H-2,4'-biimidazol-3'-ol
;
_cell_volume   1818.706
_exptl_crystal_colour 'yellow'
_exptl_crystal_density_diffrn 1.484
_exptl_crystal_description 'needle'
_diffrn_ambient_temperature 120
_refine_special_details
;
O5A and O5B disordered over two sites with occupancies 0.892:0.108.

;
#These two values have been output from a single CSD field.
_refine_ls_R_factor_gt 0.0668
_refine_ls_wR_factor_gt 0.0668
_symmetry_cell_setting monoclinic
_symmetry_space_group_name_H-M 'P 21/a'
_symmetry_Int_Tables_number 14
loop_
_symmetry_equiv_pos_site_id
_symmetry_equiv_pos_as_xyz
1 x,y,z
2 1/2-x,1/2+y,-z
3 -x,-y,-z
4 -1/2+x,-1/2-y,z
_cell_length_a 9.5761(3)
_cell_length_b 12.2594(3)
_cell_length_c 15.6831(4)
_cell_angle_alpha 90
_cell_angle_beta 98.9560(17)
_cell_angle_gamma 90
_cell_formula_units_Z 4
loop_
_atom_type_symbol
_atom_type_radius_bond
C 0.68
H 0.23
N 0.68
O 0.68
loop_
_atom_site_label
_atom_site_type_symbol
_atom_site_fract_x
_atom_site_fract_y
_atom_site_fract_z
O1 O 0.09462(17) 0.62848(15) 0.81650(11)
H1 H 0.148(3) 0.681(2) 0.7936(18)
O2 O -0.0151(3) 0.6697(2) 0.97484(13)
N1 N 0.0797(3) 0.7380(3) 0.97726(17)
O3 O 0.1933(3) 0.7320(4) 1.0260(2)
N2 N -0.2443(2) 0.73642(17) 0.76177(13)
N3 N -0.0429(2) 0.65126(17) 0.78806(13)
O4 O 0.2275(2) 0.24139(16) 0.63208(14)
C1 C -0.2568(3) 0.6423(2) 0.71364(15)
N4 N 0.1680(2) 0.27471(18) 0.69138(15)
N5 N 0.0073(2) 0.41617(17) 0.73268(13)
O5 O 0.1903(3) 0.23694(19) 0.76513(14)
N6 N -0.0578(2) 0.49518(18) 0.60382(14)
C2 C -0.3901(3) 0.6139(2) 0.65828(15)
C3 C -0.1128(2) 0.7405(2) 0.80656(15)
C4 C -0.0671(3) 0.4975(2) 0.68800(16)
C5 C -0.4822(3) 0.6965(2) 0.62351(16)
H2 H -0.45600 0.77080 0.63240
C6 C 0.0687(3) 0.3604(2) 0.67194(17)
C7 C -0.4287(3) 0.5052(2) 0.64275(17)
H3 H -0.36560 0.44860 0.66500
C8 C 0.0266(3) 0.4091(2) 0.59372(17)
H4 H 0.05260 0.38610 0.54050
C9 C -0.0486(3) 0.8367(2) 0.85271(16)
C10 C -0.5584(3) 0.4795(3) 0.59497(18)
H5 H -0.58420 0.40530 0.58470
C11 C -0.6123(3) 0.6696(3) 0.57584(17)
H6 H -0.67510 0.72590 0.55260
C12 C -0.6513(3) 0.5617(3) 0.56185(18)
H7 H -0.74090 0.54390 0.52980
C13 C -0.1298(3) 0.5877(2) 0.72895(16)
C14 C 0.0108(3) 0.3926(2) 0.82515(16)
H8 H -0.05150 0.44360 0.84930
H9 H 0.10770 0.40090 0.85550
H10 H -0.02140 0.31780 0.83210
C15 C 0.0543(3) 0.8353(3) 0.92490(18)
C16 C -0.0801(3) 0.9379(2) 0.81334(19)
H11 H -0.15310 0.94250 0.76490
C17 C -0.0081(4) 1.0314(3) 0.8429(2)
H12 H -0.03390 1.09960 0.81630
C18 C 0.1330(3) 0.9298(3) 0.9530(2)
H13 H 0.20740 0.92670 1.00060
C19 C 0.0996(4) 1.0257(3) 0.9101(3)
H14 H 0.15290 1.08940 0.92760
O6? O 0.164(3) 0.653(3) 1.0220(15)
#END
