
#######################################################################
#
#                 Cambridge Crystallographic Data Centre
#                                CCDC
#
#######################################################################
#
# If this CIF has been generated from an entry in the Cambridge
# Structural Database, then it will include bibliographic, chemical,
# crystal, experimental, refinement or atomic coordinate data resulting
# from the CCDC's data processing and validation procedures.
#
#######################################################################

data_CSD_CIF_KUDXAK
_audit_creation_date 2015-04-11
_audit_creation_method CSD-ConQuest-V1
_database_code_CSD KUDXAK
_database_code_depnum_ccdc_archive 'CCDC 967704'
_chemical_formula_sum 'C11 H13 N1 O6'
_chemical_formula_moiety
;
C11 H13 N1 O6
;
_journal_coeditor_code "IUCr is5391"
_journal_coden_Cambridge 1828
_journal_volume 71
_journal_year 2015
_journal_page_first 483
_journal_name_full 'Acta Crystallogr.,Sect.E:Cryst.Commun. '
loop_
_publ_author_name
"N.C.Kasuga"
"Y.Saito"
"H.Sato"
"K.Yamaguchi"
_chemical_name_systematic
;
4,5-dimethoxy-2-nitrobenzyl acetate
;
_cell_volume   1144.194
_exptl_crystal_colour 'orange'
_exptl_crystal_density_diffrn 1.48
_exptl_special_details
;
orange polymorph

;
_exptl_crystal_description 'platelet'
_diffrn_ambient_temperature 93
#These two values have been output from a single CSD field.
_refine_ls_R_factor_gt 0.0509
_refine_ls_wR_factor_gt 0.0509
_symmetry_cell_setting monoclinic
_symmetry_space_group_name_H-M 'P 21/c'
_symmetry_Int_Tables_number 14
loop_
_symmetry_equiv_pos_site_id
_symmetry_equiv_pos_as_xyz
1 x,y,z
2 -x,1/2+y,1/2-z
3 -x,-y,-z
4 x,-1/2-y,-1/2+z
_cell_length_a 8.8751(13)
_cell_length_b 19.555(2)
_cell_length_c 6.8688(9)
_cell_angle_alpha 90
_cell_angle_beta 106.298(6)
_cell_angle_gamma 90
_cell_formula_units_Z 4
loop_
_atom_type_symbol
_atom_type_radius_bond
C 0.68
H 0.23
N 0.68
O 0.68
loop_
_atom_site_label
_atom_site_type_symbol
_atom_site_fract_x
_atom_site_fract_y
_atom_site_fract_z
C1 C 0.19328(19) 0.29434(8) 0.7664(2)
C2 C 0.04911(19) 0.26435(9) 0.7614(3)
C3 C 0.02606(19) 0.19342(8) 0.7577(3)
H1 H -0.07390 0.17520 0.75410
C4 C 0.1487(2) 0.15013(8) 0.7593(3)
C5 C 0.29755(19) 0.17865(8) 0.7678(2)
C6 C 0.31701(19) 0.24911(8) 0.7700(2)
H2 H 0.41710 0.26730 0.77400
C7 C 0.22141(19) 0.37064(8) 0.7674(3)
H3 H 0.15020 0.39190 0.64500
H4 H 0.20100 0.39160 0.88870
C8 C 0.4225(2) 0.44786(9) 0.7575(3)
C9 C 0.5882(2) 0.45412(9) 0.7490(3)
H5 H 0.59380 0.44250 0.61240
H6 H 0.65500 0.42270 0.84750
H7 H 0.62470 0.50120 0.78160
C10 C -0.0084(2) 0.05009(9) 0.7387(3)
H8 H -0.04360 0.06320 0.85650
H9 H 0.00070 0.00020 0.73440
H10 H -0.08480 0.06600 0.61440
C11 C 0.5657(2) 0.15867(9) 0.7809(3)
H11 H 0.55980 0.18830 0.66390
H12 H 0.63700 0.12050 0.78030
H13 H 0.60510 0.18500 0.90630
N1 N -0.08677(17) 0.30611(7) 0.7608(2)
O1 O -0.08009(15) 0.36827(7) 0.7379(2)
O2 O -0.20491(15) 0.27751(7) 0.7846(2)
O3 O 0.38271(14) 0.38139(6) 0.7701(2)
O4 O 0.33181(16) 0.49408(7) 0.7520(2)
O5 O 0.14161(14) 0.08062(6) 0.7543(2)
O6 O 0.41110(14) 0.13243(6) 0.7695(2)
#END
