
#######################################################################
#
#                 Cambridge Crystallographic Data Centre
#                                CCDC
#
#######################################################################
#
# If this CIF has been generated from an entry in the Cambridge
# Structural Database, then it will include bibliographic, chemical,
# crystal, experimental, refinement or atomic coordinate data resulting
# from the CCDC's data processing and validation procedures.
#
#######################################################################

data_CSD_CIF_KUFGAT
_audit_creation_date 1993-01-25
_audit_creation_method CSD-ConQuest-V1
_database_code_CSD KUFGAT
_chemical_formula_sum 'C20 H17 N1 O3'
_chemical_formula_moiety
;
C20 H17 N1 O3
;
_journal_coden_Cambridge 35
_journal_volume 57
_journal_year 1992
_journal_page_first 2285
_journal_name_full 'J.Org.Chem. '
loop_
_publ_author_name
"M.Mori"
"T.Sugiyama"
"M.Nojima"
"S.Kusabayashi"
"K.J.McCullough"
_chemical_name_systematic
;
Dihydro-3,5,6-triphenyl-1,2,4,5-trioxazine
;
_chemical_melting_point 381.15
_cell_volume   6774.745
_exptl_crystal_colour 'colorless'
_exptl_crystal_density_diffrn 1.252
_exptl_special_details
;
Melting point range 381.15-382.15K
y(O3) is 0.08027, not 0.0827

;
_diffrn_ambient_temperature ?
_diffrn_special_details
;
The study was carried out at room temperature,in the range 283-303K

;
#These two values have been output from a single CSD field.
_refine_ls_R_factor_gt 0.043
_refine_ls_wR_factor_gt 0.043
_symmetry_cell_setting orthorhombic
_symmetry_space_group_name_H-M 'F 2 d d'
_symmetry_Int_Tables_number 43
loop_
_symmetry_equiv_pos_site_id
_symmetry_equiv_pos_as_xyz
1 x,y,z
2 x,1/2+y,1/2+z
3 1/2+x,y,1/2+z
4 1/2+x,1/2+y,z
5 1/4+x,1/4-y,1/4+z
6 1/4+x,3/4-y,3/4+z
7 3/4+x,1/4-y,3/4+z
8 3/4+x,3/4-y,1/4+z
9 1/4+x,1/4+y,1/4-z
10 1/4+x,3/4+y,3/4-z
11 3/4+x,1/4+y,3/4-z
12 3/4+x,3/4+y,1/4-z
13 1/2+x,1/2-y,-z
14 1/2+x,-y,1/2-z
15 x,1/2-y,1/2-z
16 x,-y,-z
_cell_length_a 6.073(3)
_cell_length_b 32.167(9)
_cell_length_c 34.680(9)
_cell_angle_alpha 90
_cell_angle_beta 90
_cell_angle_gamma 90
_cell_formula_units_Z 16
loop_
_atom_type_symbol
_atom_type_radius_bond
C 0.68
H 0.23
N 0.68
O 0.68
loop_
_atom_site_label
_atom_site_type_symbol
_atom_site_fract_x
_atom_site_fract_y
_atom_site_fract_z
O1 O 0.21060 0.13477(17) 0.08804(13)
O2 O 0.0462(14) 0.10151(19) 0.08732(14)
O3 O 0.1777(14) 0.08027(18) 0.02851(13)
N1 N 0.3416(16) 0.11323(21) 0.02812(17)
C1 C 0.1440(22) 0.0684(3) 0.06740(24)
C2 C 0.2412(20) 0.14785(25) 0.04932(19)
C3 C 0.0344(16) -0.0021(3) 0.09045(16)
C4 C -0.1176(16) -0.0346(3) 0.09218(16)
C5 C -0.3161(16) -0.0316(3) 0.07211(16)
C6 C -0.3626(16) 0.0037(3) 0.05032(16)
C7 C -0.2105(16) 0.0362(3) 0.04860(16)
C8 C -0.0121(16) 0.0333(3) 0.06866(16)
C9 C 0.6058(20) 0.17799(22) 0.0763(17)
C10 C 0.7465(20) 0.21196(22) 0.07487(17)
C11 C 0.6819(20) 0.25109(22) 0.06170(17)
C12 C 0.4767(20) 0.25624(22) 0.04429(17)
C13 C 0.3359(20) 0.22227(22) 0.04006(17)
C14 C 0.4005(20) 0.18315(22) 0.05323(17)
C15 C 0.5756(15) 0.13893(16) -0.02350(15)
C16 C 0.6105(15) 0.15003(16) -0.06190(15)
C17 C 0.4422(15) 0.14502(16) -0.08890(15)
C18 C 0.2391(15) 0.12892(16) -0.07749(15)
C19 C 0.2043(15) 0.11783(16) -0.03908(15)
C20 C 0.3725(15) 0.12283(16) -0.01209(15)
H1 H 0.29700 0.06510 0.08010
H2 H 0.09870 0.16080 0.03380
H3 H 0.16960 -0.00410 0.10410
H4 H -0.08600 -0.05870 0.10700
H5 H -0.41960 -0.05380 0.07330
H6 H -0.49770 0.00570 0.03670
H7 H -0.24220 0.06030 0.03380
H8 H 0.64970 0.15140 0.07960
H9 H 0.88630 0.20850 0.08670
H10 H 0.77780 0.27420 0.06460
H11 H 0.43270 0.28290 0.03530
H12 H 0.19610 0.22580 0.02820
H13 H 0.69010 0.14230 -0.00510
H14 H 0.74880 0.16100 -0.06970
H15 H 0.46600 0.15260 -0.11510
H16 H 0.12460 0.12550 -0.09590
H17 H 0.06590 0.10690 -0.03130
#END
