
#######################################################################
#
#                 Cambridge Crystallographic Data Centre
#                                CCDC
#
#######################################################################
#
# If this CIF has been generated from an entry in the Cambridge
# Structural Database, then it will include bibliographic, chemical,
# crystal, experimental, refinement or atomic coordinate data resulting
# from the CCDC's data processing and validation procedures.
#
#######################################################################

data_CSD_CIF_KUFLUU01
_audit_creation_date 2015-04-13
_audit_creation_method CSD-ConQuest-V1
_database_code_CSD KUFLUU01
_database_code_depnum_ccdc_archive 'CCDC 1044161'
_chemical_formula_sum 'C14 H12 N2 O4'
_chemical_formula_moiety
;
C14 H12 N2 O4
;
_journal_coden_Cambridge 1350
_journal_volume 17
_journal_year 2015
_journal_page_first 3509
_journal_name_full 'CrystEngComm '
loop_
_publ_author_name
"A.Carletta"
"J.Dubois"
"A.Tilborg"
"J.Wouters"
_chemical_name_systematic
;
(E)-2-methoxy-6-((3-nitrophenyl)carbonoimidoyl)phenol
;
_chemical_name_common
;
(E)-2-methoxy-6-([(3-nitrophenyl)imino]methyl)phenol
;
_cell_volume    641.278
_exptl_crystal_colour 'yellow'
_exptl_crystal_density_diffrn 1.41
_exptl_special_details
;
polymorph II

;
_exptl_crystal_description 'needle'
_diffrn_ambient_temperature 293
#These two values have been output from a single CSD field.
_refine_ls_R_factor_gt 0.0414
_refine_ls_wR_factor_gt 0.0414
_symmetry_cell_setting triclinic
_symmetry_space_group_name_H-M 'P -1'
_symmetry_Int_Tables_number 2
loop_
_symmetry_equiv_pos_site_id
_symmetry_equiv_pos_as_xyz
1 x,y,z
2 -x,-y,-z
_cell_length_a 4.7895(3)
_cell_length_b 11.3446(10)
_cell_length_c 12.0610(9)
_cell_angle_alpha 93.472(7)
_cell_angle_beta 100.357(6)
_cell_angle_gamma 94.022(6)
_cell_formula_units_Z 2
loop_
_atom_type_symbol
_atom_type_radius_bond
C 0.68
H 0.23
N 0.68
O 0.68
loop_
_atom_site_label
_atom_site_type_symbol
_atom_site_fract_x
_atom_site_fract_y
_atom_site_fract_z
C1 C 0.6886(3) 1.21312(15) 0.82815(14)
H1 H 0.81230 1.28140 0.83660
C2 C 0.6554(3) 1.13584(13) 0.73289(12)
C3 C 0.4749(3) 1.03391(13) 0.71622(13)
H2 H 0.45780 0.98400 0.65090
C4 C 0.3187(3) 1.00740(13) 0.79949(13)
C5 C 0.3516(3) 1.08430(14) 0.89616(13)
H3 H 0.24910 1.06670 0.95250
C6 C 0.5334(4) 1.18618(16) 0.91012(15)
H4 H 0.55100 1.23670 0.97510
C7 C -0.0039(3) 0.85684(14) 0.69686(13)
H5 H 0.04360 0.88460 0.63110
C8 C -0.2195(3) 0.75931(13) 0.68769(13)
C9 C -0.3667(4) 0.71415(16) 0.58048(15)
H6 H -0.31890 0.74480 0.51590
C10 C -0.5802(4) 0.62534(17) 0.57053(16)
H7 H -0.67770 0.59640 0.49930
C11 C -0.6521(4) 0.57819(16) 0.66615(16)
H8 H -0.79670 0.51750 0.65850
C12 C -0.5110(3) 0.62059(14) 0.77220(15)
C13 C -0.2946(3) 0.71256(14) 0.78400(13)
C14 C -0.7790(4) 0.48631(19) 0.8663(2)
H9 H -0.95930 0.51160 0.83170
H10 H -0.78850 0.46450 0.94130
H11 H -0.73450 0.41930 0.82220
N1 N 0.1240(3) 0.90634(11) 0.79252(11)
N2 N 0.8249(3) 1.16284(13) 0.64593(12)
O1 O 0.8092(3) 1.09042(12) 0.56525(11)
O2 O 0.9771(3) 1.25487(13) 0.65822(12)
O3 O -0.1630(3) 0.75239(12) 0.88938(10)
O4 O -0.5633(3) 0.58056(12) 0.87172(11)
H12 H -0.036(5) 0.811(2) 0.880(2)
#END
