
#######################################################################
#
#                 Cambridge Crystallographic Data Centre
#                                CCDC
#
#######################################################################
#
# If this CIF has been generated from an entry in the Cambridge
# Structural Database, then it will include bibliographic, chemical,
# crystal, experimental, refinement or atomic coordinate data resulting
# from the CCDC's data processing and validation procedures.
#
#######################################################################

data_CSD_CIF_KUFMAZ
_audit_creation_date 1993-01-14
_audit_creation_method CSD-ConQuest-V1
_database_code_CSD KUFMAZ
_chemical_formula_sum 'C21 H27 N1 O4'
_chemical_formula_moiety
;
C21 H27 N1 O4
;
_journal_coden_Cambridge 4
_journal_volume 114
_journal_year 1992
_journal_page_first 5018
_journal_name_full 'J.Am.Chem.Soc. '
loop_
_publ_author_name
"L.A.Paquette"
"G.D.Maynard"
_chemical_name_systematic
;
4-(5-t-Butylcyclohexenyl)but-1-en-3-yl p-nitrobenzoate
;
_chemical_melting_point 356.65
_cell_volume   2027.785
_exptl_crystal_colour 'colorless'
_exptl_crystal_density_diffrn 1.17
_exptl_special_details
;
Melting point range 356.65-358.15K

;
_diffrn_ambient_temperature ?
_diffrn_special_details
;
The study was carried out at room temperature,in the range 283-303K

;
#These two values have been output from a single CSD field.
_refine_ls_R_factor_gt 0.055
_refine_ls_wR_factor_gt 0.055
_symmetry_cell_setting orthorhombic
_symmetry_space_group_name_H-M 'P c a 21'
_symmetry_Int_Tables_number 29
loop_
_symmetry_equiv_pos_site_id
_symmetry_equiv_pos_as_xyz
1 x,y,z
2 1/2-x,y,1/2+z
3 1/2+x,-y,z
4 -x,-y,1/2+z
_cell_length_a 7.158(9)
_cell_length_b 21.753(9)
_cell_length_c 13.023(6)
_cell_angle_alpha 90
_cell_angle_beta 90
_cell_angle_gamma 90
_cell_formula_units_Z 4
loop_
_atom_type_symbol
_atom_type_radius_bond
C 0.68
H 0.23
N 0.68
O 0.68
loop_
_atom_site_label
_atom_site_type_symbol
_atom_site_fract_x
_atom_site_fract_y
_atom_site_fract_z
O1 O -0.231(2) 0.1218(6) 0.17320
O2 O -0.104(2) 0.1743(6) 0.289(2)
O3 O -0.141(2) -0.1371(4) 0.464(2)
O4 O -0.151(2) -0.0789(5) 0.607(2)
N1 N -0.171(2) 0.1260(7) 0.258(1)
C1 C -0.151(2) 0.0718(7) 0.324(2)
C2 C -0.170(2) 0.0144(7) 0.279(2)
C3 C -0.169(2) -0.0373(6) 0.343(2)
C4 C -0.145(2) -0.0301(7) 0.447(2)
C5 C -0.126(2) 0.0276(6) 0.491(2)
C6 C -0.128(2) 0.0786(8) 0.425(2)
C7 C -0.142(3) -0.0857(8) 0.518(2)
C8 C -0.142(3) -0.1925(8) 0.528(2)
C9 C -0.344(4) -0.2085(8) 0.554(2)
C10 C -0.388(4) -0.209(1) 0.650(3)
C11 C -0.058(2) -0.2425(6) 0.460(2)
C12 C -0.056(3) -0.3050(7) 0.510(2)
C13 C -0.149(3) -0.3502(7) 0.468(2)
C14 C -0.147(3) -0.4158(8) 0.508(2)
C15 C 0.014(4) -0.4243(7) 0.578(2)
C16 C 0.033(2) -0.3743(7) 0.655(2)
C17 C 0.064(2) -0.3126(6) 0.599(2)
C18 C 0.174(3) -0.3855(8) 0.739(2)
C19 C 0.177(3) -0.3321(9) 0.816(2)
C20 C 0.125(4) -0.442(1) 0.805(2)
C21 C 0.373(3) -0.394(1) 0.700(2)
H1 H -0.18300 0.01000 0.20700
H2 H -0.18100 -0.07700 0.31400
H3 H -0.11500 0.03300 0.56300
H4 H -0.11200 0.11900 0.45200
H5 H -0.08200 -0.19300 0.59300
H6 H -0.43800 -0.21500 0.50300
H7 H -0.31000 -0.18800 0.72200
H8 H -0.49200 -0.23000 0.66300
H9 H 0.06700 -0.23000 0.44900
H10 H -0.12300 -0.24400 0.39700
H11 H -0.22200 -0.34300 0.40800
H12 H -0.11200 -0.44100 0.45200
H13 H -0.26800 -0.42700 0.53100
H14 H -0.02600 -0.46000 0.61400
H15 H 0.13300 -0.43200 0.54800
H16 H -0.08000 -0.37400 0.69400
H17 H 0.19100 -0.31100 0.58000
H18 H 0.03800 -0.28000 0.64500
H19 H 0.23700 -0.29900 0.78200
H20 H 0.23700 -0.34000 0.88000
H21 H 0.04900 -0.32200 0.82800
H22 H -0.00100 -0.43900 0.82600
H23 H 0.20400 -0.44700 0.86300
H24 H 0.13900 -0.47600 0.76000
H25 H 0.43500 -0.36500 0.65800
H26 H 0.38900 -0.43400 0.67200
H27 H 0.42400 -0.39300 0.76700
#END
