
#######################################################################
#
#                 Cambridge Crystallographic Data Centre
#                                CCDC
#
#######################################################################
#
# If this CIF has been generated from an entry in the Cambridge
# Structural Database, then it will include bibliographic, chemical,
# crystal, experimental, refinement or atomic coordinate data resulting
# from the CCDC's data processing and validation procedures.
#
#######################################################################

data_CSD_CIF_KUGSUA
_audit_creation_date 1993-01-25
_audit_creation_method CSD-ConQuest-V1
_database_code_CSD KUGSUA
_chemical_formula_sum 'C14 H12 N2 O2'
_chemical_formula_moiety
;
C14 H12 N2 O2
;
_journal_coeditor_code "IUCr NA1001"
_journal_coden_Cambridge 591
_journal_volume 48
_journal_year 1992
_journal_page_first 1821
_journal_name_full 'Acta Crystallogr.,Sect.C:Cryst.Struct.Commun. '
loop_
_publ_author_name
"J.K.Maurin"
"I.C.Paul"
"D.Y.Curtin"
_chemical_name_systematic
;
3-(\a-Hydroxyiminobenzyl)benzamide
;
_chemical_name_common
;
3-Benzoylbenzamide oxime
;
_chemical_melting_point 466.8
_cell_volume   2440.296
_exptl_crystal_colour 'pale yellow'
_exptl_crystal_density_diffrn 1.308
_exptl_special_details
;
Melting point range 466.8-467.4K

;
_diffrn_ambient_temperature ?
_diffrn_special_details
;
The study was carried out at room temperature,in the range 283-303K

;
#These two values have been output from a single CSD field.
_refine_ls_R_factor_gt 0.0423
_refine_ls_wR_factor_gt 0.0423
_symmetry_cell_setting orthorhombic
_symmetry_space_group_name_H-M 'P b c a'
_symmetry_Int_Tables_number 61
loop_
_symmetry_equiv_pos_site_id
_symmetry_equiv_pos_as_xyz
1 x,y,z
2 1/2-x,1/2+y,z
3 x,1/2-y,1/2+z
4 1/2-x,-y,1/2+z
5 -x,-y,-z
6 -1/2+x,-1/2-y,-z
7 -x,-1/2+y,-1/2-z
8 -1/2+x,y,-1/2-z
_cell_length_a 7.9333(7)
_cell_length_b 25.947(2)
_cell_length_c 11.855(1)
_cell_angle_alpha 90
_cell_angle_beta 90
_cell_angle_gamma 90
_cell_formula_units_Z 8
loop_
_atom_type_symbol
_atom_type_radius_bond
C 0.68
H 0.23
N 0.68
O 0.68
loop_
_atom_site_label
_atom_site_type_symbol
_atom_site_fract_x
_atom_site_fract_y
_atom_site_fract_z
O1 O 0.1259(3) 0.58069(7) 0.7497(2)
O2 O -0.3734(2) 0.55203(7) 0.9665(2)
N1 N 0.1548(3) 0.63414(7) 0.7551(2)
N2 N -0.3056(3) 0.49688(8) 1.1031(2)
C1 C -0.0979(3) 0.56060(8) 1.0429(2)
C2 C -0.0522(3) 0.59367(9) 0.9568(2)
C3 C 0.1015(3) 0.61900(8) 0.9566(2)
C4 C 0.2097(3) 0.6118(1) 1.0469(2)
C5 C 0.1646(3) 0.5791(1) 1.1344(2)
C6 C 0.0128(3) 0.5531(1) 1.1316(2)
C7 C -0.2677(3) 0.53586(8) 1.0350(2)
C8 C 0.1471(3) 0.65152(9) 0.8573(2)
C9 C 0.1757(3) 0.70778(9) 0.8705(2)
C10 C 0.1102(3) 0.7341(1) 0.9628(3)
C11 C 0.1264(4) 0.7873(1) 0.9707(3)
C12 C 0.2076(5) 0.8142(1) 0.8865(3)
C13 C 0.2758(5) 0.7884(1) 0.7968(3)
C14 C 0.2617(4) 0.7355(1) 0.7875(3)
H1 H -0.127(3) 0.5991(8) 0.903(2)
H2 H 0.318(3) 0.6286(10) 1.047(2)
H3 H 0.247(3) 0.5736(10) 1.198(2)
H4 H -0.009(3) 0.5293(9) 1.192(2)
H5 H 0.051(3) 0.7154(10) 1.022(2)
H6 H 0.078(4) 0.805(1) 1.036(3)
H7 H 0.208(3) 0.853(1) 0.886(2)
H8 H 0.332(4) 0.806(1) 0.730(3)
H9 H 0.312(3) 0.7164(9) 0.721(2)
H10 H -0.227(3) 0.4817(8) 1.140(2)
H11 H -0.406(4) 0.4796(10) 1.099(2)
H12 H 0.145(4) 0.573(1) 0.680(3)
#END
