
#######################################################################
#
#                 Cambridge Crystallographic Data Centre
#                                CCDC
#
#######################################################################
#
# If this CIF has been generated from an entry in the Cambridge
# Structural Database, then it will include bibliographic, chemical,
# crystal, experimental, refinement or atomic coordinate data resulting
# from the CCDC's data processing and validation procedures.
#
#######################################################################

data_CSD_CIF_KUGZIV
_audit_creation_date 1993-01-25
_audit_creation_method CSD-ConQuest-V1
_database_code_CSD KUGZIV
_chemical_formula_sum 'C13 H22 N2 O2'
_chemical_formula_moiety
;
C13 H22 N2 O2
;
_journal_coeditor_code "IUCr HU0413"
_journal_coden_Cambridge 591
_journal_volume 48
_journal_year 1992
_journal_page_first 1886
_journal_name_full 'Acta Crystallogr.,Sect.C:Cryst.Struct.Commun. '
loop_
_publ_author_name
"P.J.S.S.van Eijk"
"W.Verboom"
"D.N.Reinhoudt"
"S.Harkema"
_chemical_name_systematic
;
N,N-Diethyl-2-(2-(hydroxyimino)cyclohexylidene)propanamide
;
_cell_volume   1407.339
_exptl_crystal_density_diffrn 1.12
_diffrn_ambient_temperature ?
_diffrn_special_details
;
The study was carried out at room temperature,in the range 283-303K

;
#These two values have been output from a single CSD field.
_refine_ls_R_factor_gt 0.053
_refine_ls_wR_factor_gt 0.053
_symmetry_cell_setting monoclinic
_symmetry_space_group_name_H-M 'P 21/c'
_symmetry_Int_Tables_number 14
loop_
_symmetry_equiv_pos_site_id
_symmetry_equiv_pos_as_xyz
1 x,y,z
2 -x,1/2+y,1/2-z
3 -x,-y,-z
4 x,-1/2-y,-1/2+z
_cell_length_a 13.123(7)
_cell_length_b 11.240(8)
_cell_length_c 9.666(6)
_cell_angle_alpha 90
_cell_angle_beta 99.22(5)
_cell_angle_gamma 90
_cell_formula_units_Z 4
loop_
_atom_type_symbol
_atom_type_radius_bond
C 0.68
H 0.23
N 0.68
O 0.68
loop_
_atom_site_label
_atom_site_type_symbol
_atom_site_fract_x
_atom_site_fract_y
_atom_site_fract_z
O1 O 0.7315(3) -0.4484(4) 0.7792(4)
O2 O 0.8168(3) 0.0578(3) 1.0631(3)
N1 N 0.7611(4) -0.3401(3) 0.7723(5)
N2 N 0.8220(3) 0.0841(3) 0.8361(4)
C1 C 0.6985(3) -0.2937(5) 0.8754(5)
C2 C 0.6227(3) -0.3507(5) 0.9547(6)
C3 C 0.5227(4) -0.2839(5) 0.9310(6)
C4 C 0.5350(3) -0.1551(4) 0.9500(5)
C5 C 0.6122(3) -0.0993(5) 0.8651(5)
C6 C 0.7136(3) -0.1662(4) 0.8885(4)
C7 C 0.8050(3) -0.1139(4) 0.9239(5)
C8 C 0.9055(3) -0.1811(5) 0.9619(6)
C9 C 0.8137(3) 0.0141(4) 0.9446(4)
C10 C 0.8212(4) 0.0385(6) 0.6947(5)
C11 C 0.9272(4) 0.0387(6) 0.6533(5)
C12 C 0.8272(3) 0.2130(5) 0.8558(5)
C13 C 0.7216(4) 0.2647(5) 0.8410(7)
H1 H 0.76060 -0.48490 0.70590
H2 H 0.65010 -0.35010 1.05180
H3 H 0.61060 -0.43050 0.92400
H4 H 0.48100 -0.31250 0.99550
H5 H 0.48910 -0.29870 0.83790
H6 H 0.55830 -0.13960 1.04640
H7 H 0.46960 -0.11860 0.92200
H8 H 0.62440 -0.01890 0.89360
H9 H 0.58380 -0.10160 0.76830
H10 H 0.89340 -0.26020 0.99000
H11 H 0.94180 -0.18280 0.88450
H12 H 0.94520 -0.13970 1.03760
H13 H 0.77650 0.08660 0.63080
H14 H 0.79600 -0.04080 0.69060
H15 H 0.92260 0.00820 0.56080
H16 H 0.95290 0.11770 0.65620
H17 H 0.97240 -0.00970 0.71600
H18 H 0.86300 0.24710 0.78750
H19 H 0.86320 0.23010 0.94690
H20 H 0.72650 0.34830 0.85400
H21 H 0.68530 0.24790 0.74980
H22 H 0.68550 0.23090 0.90910
#END
