
#######################################################################
#
#                 Cambridge Crystallographic Data Centre
#                                CCDC
#
#######################################################################
#
# If this CIF has been generated from an entry in the Cambridge
# Structural Database, then it will include bibliographic, chemical,
# crystal, experimental, refinement or atomic coordinate data resulting
# from the CCDC's data processing and validation procedures.
#
#######################################################################

data_CSD_CIF_KUHCEW
_audit_creation_date 1993-01-25
_audit_creation_method CSD-ConQuest-V1
_database_code_CSD KUHCEW
_chemical_formula_sum 'C14 H12 N2 O2'
_chemical_formula_moiety
;
C14 H12 N2 O2
;
_journal_coeditor_code "IUCr LI1007"
_journal_coden_Cambridge 591
_journal_volume 48
_journal_year 1992
_journal_page_first 1898
_journal_name_full 'Acta Crystallogr.,Sect.C:Cryst.Struct.Commun. '
loop_
_publ_author_name
"Guan-Yeow Yeap"
"Hoong-Kun Fun"
"Soon-Beng Teo"
"Siang-Guan Teoh"
_chemical_name_systematic
;
2-((4-Methylphenylimino)methyl)-1-nitrobenzene
;
_cell_volume   2428.478
_exptl_crystal_colour 'Yellow'
_exptl_crystal_density_diffrn 1.314
_diffrn_ambient_temperature ?
_diffrn_special_details
;
The study was carried out at room temperature,in the range 283-303K

;
#These two values have been output from a single CSD field.
_refine_ls_R_factor_gt 0.0526
_refine_ls_wR_factor_gt 0.0526
_symmetry_cell_setting monoclinic
_symmetry_space_group_name_H-M 'C 2/c'
_symmetry_Int_Tables_number 15
loop_
_symmetry_equiv_pos_site_id
_symmetry_equiv_pos_as_xyz
1 x,y,z
2 1/2+x,1/2+y,z
3 -x,y,1/2-z
4 1/2-x,1/2+y,1/2-z
5 -x,-y,-z
6 -1/2-x,-1/2-y,-z
7 x,-y,-1/2+z
8 -1/2+x,-1/2-y,-1/2+z
_cell_length_a 11.362(2)
_cell_length_b 9.962(1)
_cell_length_c 22.113(3)
_cell_angle_alpha 90
_cell_angle_beta 104.01(1)
_cell_angle_gamma 90
_cell_formula_units_Z 8
loop_
_atom_type_symbol
_atom_type_radius_bond
C 0.68
H 0.23
N 0.68
O 0.68
loop_
_atom_site_label
_atom_site_type_symbol
_atom_site_fract_x
_atom_site_fract_y
_atom_site_fract_z
N1 N 0.9206(2) 0.3023(2) 0.5004(1)
N2 N 0.7330(2) 0.2584(2) 0.3113(1)
O1 O 0.6546(2) 0.2153(2) 0.2687(1)
O2 O 0.7374(2) 0.3757(2) 0.3272(1)
C1 C 0.8939(2) 0.1885(2) 0.4046(1)
C2 C 0.8305(2) 0.1674(1) 0.3429(1)
C3 C 0.8549(2) 0.0615(2) 0.3076(1)
C4 C 0.9446(2) -0.0277(2) 0.3333(1)
C5 C 1.0078(2) -0.0119(2) 0.3945(1)
C6 C 0.9831(2) 0.0946(2) 0.4290(1)
C7 C 0.8705(2) 0.2970(2) 0.4453(1)
C8 C 0.8995(2) 0.4069(2) 0.5398(1)
C9 C 0.9679(2) 0.4047(2) 0.6009(1)
C10 C 0.9524(2) 0.5017(2) 0.6427(1)
C11 C 0.8690(2) 0.6032(2) 0.6256(1)
C12 C 0.8016(2) 0.6056(2) 0.5647(1)
C13 C 0.8165(2) 0.5094(2) 0.5223(1)
C14 C 0.8509(3) 0.7091(3) 0.6715(1)
H1 H 0.8091(2) 0.0504(2) 0.2653(1)
H2 H 0.9636(2) -0.1007(2) 0.3089(1)
H3 H 1.0694(2) -0.0754(2) 0.4133(1)
H4 H 1.0282(2) 0.1042(2) 0.4715(1)
H5 H 0.8151(2) 0.3672(2) 0.4274(1)
H6 H 1.0266(2) 0.3348(2) 0.6142(1)
H7 H 1.0007(2) 0.4983(2) 0.6848(1)
H8 H 0.7430(2) 0.6758(2) 0.5518(1)
H9 H 0.7692(2) 0.5144(2) 0.4800(1)
H10 H 0.9047(2) 0.6928(2) 0.7115(1)
H11 H 0.7685(2) 0.7055(2) 0.6751(1)
H12 H 0.8671(2) 0.7963(2) 0.6568(1)
#END
