
#######################################################################
#
#                 Cambridge Crystallographic Data Centre
#                                CCDC
#
#######################################################################
#
# If this CIF has been generated from an entry in the Cambridge
# Structural Database, then it will include bibliographic, chemical,
# crystal, experimental, refinement or atomic coordinate data resulting
# from the CCDC's data processing and validation procedures.
#
#######################################################################

data_CSD_CIF_KUHKAB
_audit_creation_date 2015-04-14
_audit_creation_method CSD-ConQuest-V1
_database_code_CSD KUHKAB
_database_code_depnum_ccdc_archive 'CCDC 945015'
_chemical_formula_sum 'C13 H10 N4 O3'
_chemical_formula_moiety
;
C13 H10 N4 O3
;
_journal_coden_Cambridge 799
_journal_volume 24
_journal_year 2015
_journal_page_first 1226
_journal_name_full 'Med.Chem.Res. '
loop_
_publ_author_name
"A.Parthiban"
"M.Kumaravel"
"J.Muthukumaran"
"R.Rukkumani"
"R.Krishna"
"H.Surya Prakash Rao"
_chemical_name_systematic
;
2-(2-(Methylamino)-3-nitro-4H-chromen-4-yl)malononitrile
;
_cell_volume   1251.316
_exptl_crystal_colour 'colorless'
_exptl_crystal_density_diffrn 1.435
_exptl_crystal_description 'Block'
_diffrn_ambient_temperature 293
#These two values have been output from a single CSD field.
_refine_ls_R_factor_gt 0.0516
_refine_ls_wR_factor_gt 0.0516
_symmetry_cell_setting monoclinic
_symmetry_space_group_name_H-M 'P 21/c'
_symmetry_Int_Tables_number 14
loop_
_symmetry_equiv_pos_site_id
_symmetry_equiv_pos_as_xyz
1 x,y,z
2 -x,1/2+y,1/2-z
3 -x,-y,-z
4 x,-1/2-y,-1/2+z
_cell_length_a 9.3443(4)
_cell_length_b 10.1087(5)
_cell_length_c 13.3121(7)
_cell_angle_alpha 90
_cell_angle_beta 95.659(4)
_cell_angle_gamma 90
_cell_formula_units_Z 4
loop_
_atom_type_symbol
_atom_type_radius_bond
C 0.68
H 0.23
N 0.68
O 0.68
loop_
_atom_site_label
_atom_site_type_symbol
_atom_site_fract_x
_atom_site_fract_y
_atom_site_fract_z
O1 O 0.58406(13) 0.33315(13) 0.44945(10)
O2 O 0.11320(12) 0.19727(11) 0.36798(9)
N1 N 0.27377(17) 0.04072(13) 0.40657(11)
H1 H 0.36140 0.01360 0.41370
O3 O 0.53695(15) 0.12212(13) 0.45223(12)
N2 N 0.49617(15) 0.23975(14) 0.43712(11)
C1 C 0.35544(17) 0.26802(15) 0.40442(12)
C2 C 0.32038(17) 0.41039(15) 0.38502(12)
H2 H 0.36450 0.46190 0.44230
C3 C 0.16109(17) 0.43276(16) 0.37769(12)
C4 C 0.25205(17) 0.16739(16) 0.39384(11)
C5 C 0.38719(17) 0.45863(16) 0.28659(12)
H3 H 0.48350 0.42010 0.28740
C6 C 0.06626(18) 0.32810(16) 0.36821(12)
C7 C 0.1025(2) 0.55942(18) 0.38073(14)
H4 H 0.16330 0.63230 0.38870
C8 C 0.4022(2) 0.60297(18) 0.28404(13)
C9 C 0.3018(2) 0.41143(18) 0.19576(14)
C10 C -0.08107(19) 0.3444(2) 0.36056(14)
H5 H -0.14230 0.27170 0.35460
N3 N 0.4151(2) 0.71480(18) 0.28577(15)
C11 C -0.0439(2) 0.5781(2) 0.37217(15)
H6 H -0.08140 0.66330 0.37330
C12 C 0.1614(2) -0.05793(19) 0.40956(16)
H7 H 0.11310 -0.04550 0.46920
H8 H 0.20330 -0.14470 0.41050
H9 H 0.09360 -0.04890 0.35090
C13 C -0.1352(2) 0.4710(2) 0.36189(15)
H10 H -0.23410 0.48430 0.35580
N4 N 0.2316(2) 0.3717(2) 0.12764(13)
#END
