
#######################################################################
#
#                 Cambridge Crystallographic Data Centre
#                                CCDC
#
#######################################################################
#
# If this CIF has been generated from an entry in the Cambridge
# Structural Database, then it will include bibliographic, chemical,
# crystal, experimental, refinement or atomic coordinate data resulting
# from the CCDC's data processing and validation procedures.
#
#######################################################################

data_CSD_CIF_KUJHUS
_audit_creation_date 1993-03-04
_audit_creation_method CSD-ConQuest-V1
_database_code_CSD KUJHUS
_database_code_depnum_ccdc_archive 'CCDC 721293'
_chemical_formula_sum 'C15 H13 N1 O5'
_chemical_formula_moiety
;
C15 H13 N1 O5
;
_journal_coden_Cambridge 24
_journal_volume 33
_journal_year 1992
_journal_page_first 4645
_journal_name_full 'Tetrahedron Lett. '
loop_
_publ_author_name
"A.R.Forrester"
"R.A.Howie"
"A.Jabbar"
"J.R.Lewis"
"S.S.Nizami"
"Z.Rozsa"
"K.Szendrei"
_chemical_name_systematic
;
1-Hydroxy-3-oxoindoline-2-spiro-6'-(1,5-dimethoxy-3-oxocyclohexa-1,4-diene)
;
_chemical_name_common
;
2-Nitroso-2,6-dimethoxy-4-hydroxybenzophenone(N-C)
;
_cell_volume    659.414
_exptl_crystal_colour 'yellow'
_exptl_crystal_density_diffrn 1.445
_diffrn_ambient_temperature ?
_diffrn_special_details
;
The study was carried out at room temperature,in the range 283-303K

;
#These two values have been output from a single CSD field.
_refine_ls_R_factor_gt 0.075
_refine_ls_wR_factor_gt 0.075
_symmetry_cell_setting triclinic
_symmetry_space_group_name_H-M 'P -1'
_symmetry_Int_Tables_number 2
loop_
_symmetry_equiv_pos_site_id
_symmetry_equiv_pos_as_xyz
1 x,y,z
2 -x,-y,-z
_cell_length_a 7.35(1)
_cell_length_b 8.84(2)
_cell_length_c 10.93(2)
_cell_angle_alpha 93.9(2)
_cell_angle_beta 92.8(1)
_cell_angle_gamma 111.0(1)
_cell_formula_units_Z 2
loop_
_atom_type_symbol
_atom_type_radius_bond
C 0.68
H 0.23
N 0.68
O 0.68
loop_
_atom_site_label
_atom_site_type_symbol
_atom_site_fract_x
_atom_site_fract_y
_atom_site_fract_z
C1 C 0.5093(13) -0.0709(11) 0.14384(86)
H1 H 0.40507 -0.16979 0.12980
C2 C 0.6972(14) -0.0459(12) 0.09230(86)
C3 C 0.8574(13) 0.1052(11) 0.10972(86)
H2 H 0.97535 0.11687 0.07660
C4 C 0.8346(15) 0.2312(12) 0.17529(95)
C5 C 0.6520(12) 0.2202(11) 0.23753(77)
C6 C 0.4946(14) 0.0564(12) 0.21269(90)
C7 C 0.7096(14) 0.2617(12) 0.38113(80)
C8 C 0.7154(14) 0.4256(12) 0.40678(89)
C9 C 0.7703(15) 0.5274(13) 0.51825(88)
H3 H 0.80369 0.49127 0.59093
C10 C 0.7716(15) 0.6861(13) 0.51312(99)
H4 H 0.81764 0.75925 0.58288
C11 C 0.7076(16) 0.7379(14) 0.4092(12)
H5 H 0.70083 0.84111 0.41177
C12 C 0.6511(14) 0.6326(12) 0.2965(10)
H6 H 0.61554 0.66715 0.22369
C13 C 0.6526(13) 0.4782(11) 0.30242(88)
C14 C 1.1452(14) 0.4180(12) 0.13411(96)
H7 H 1.22799 0.52950 0.15560
H8 H 1.11444 0.39991 0.04670
H9 H 1.21166 0.34813 0.15921
C15 C 0.1721(14) -0.0990(13) 0.2595(11)
H10 H 0.06590 -0.08264 0.29897
H11 H 0.21281 -0.17463 0.30175
H12 H 0.13007 -0.14166 0.17553
N1 N 0.5762(11) 0.34956(95) 0.20679(72)
O1 O 0.71707(96) -0.16166(79) 0.02983(64)
O2 O 0.96488(91) 0.38217(78) 0.19622(59)
O3 O 0.3325(10) 0.05306(81) 0.26285(66)
O4 O 0.7398(11) 0.16685(84) 0.44557(65)
O5 O 0.6078(10) 0.39927(78) 0.08646(58)
H13 H 0.51927 0.33805 0.03794
#END
