
#######################################################################
#
#                 Cambridge Crystallographic Data Centre
#                                CCDC
#
#######################################################################
#
# If this CIF has been generated from an entry in the Cambridge
# Structural Database, then it will include bibliographic, chemical,
# crystal, experimental, refinement or atomic coordinate data resulting
# from the CCDC's data processing and validation procedures.
#
#######################################################################

data_CSD_CIF_KUKWAP
_audit_creation_date 2010-03-26
_audit_creation_method CSD-ConQuest-V1
_database_code_CSD KUKWAP
_database_code_depnum_ccdc_archive 'CCDC 711944'
_chemical_formula_sum 'C24 H16 N2 O5'
_chemical_formula_moiety
;
C24 H16 N2 O5
;
_journal_coden_Cambridge 154
_journal_volume 62
_journal_year 2009
_journal_page_first 419
_journal_name_full 'Aust.J.Chem. '
loop_
_publ_author_name
"Y.W.Goh"
"J.M.White"
_chemical_name_systematic
;
1-Hydroxy-17-(4-nitrophenyl)-17-azapentacyclo[6.6.5.0^2,7^.0^9,14^.0^15,19^]no
nadeca-2,4,6,9,11,13-hexaene-16,18-dione
;
_chemical_melting_point 470.15
_cell_volume   1898.323
_exptl_crystal_colour 'colorless'
_exptl_crystal_density_diffrn 1.439
_exptl_special_details
;
Melting point range 470.15-471.15K

;
_exptl_crystal_description 'block'
_exptl_crystal_preparation 'acetonitrile'
_diffrn_ambient_temperature 130
_refine_special_details
;
The hydroxy group is disordered over two sites with occupancies 0.857:0.143.

;
#These two values have been output from a single CSD field.
_refine_ls_R_factor_gt 0.0446
_refine_ls_wR_factor_gt 0.0446
_symmetry_cell_setting monoclinic
_symmetry_space_group_name_H-M 'P 21/c'
_symmetry_Int_Tables_number 14
loop_
_symmetry_equiv_pos_site_id
_symmetry_equiv_pos_as_xyz
1 x,y,z
2 -x,1/2+y,1/2-z
3 -x,-y,-z
4 x,-1/2-y,-1/2+z
_cell_length_a 8.2274(8)
_cell_length_b 35.195(4)
_cell_length_c 7.0125(7)
_cell_angle_alpha 90
_cell_angle_beta 110.792(2)
_cell_angle_gamma 90
_cell_formula_units_Z 4
loop_
_atom_type_symbol
_atom_type_radius_bond
C 0.68
H 0.23
N 0.68
O 0.68
loop_
_atom_site_label
_atom_site_type_symbol
_atom_site_fract_x
_atom_site_fract_y
_atom_site_fract_z
C1 C 0.3210(2) 0.09690(5) 0.0488(3)
H1 H 0.29780 0.10330 -0.09010
C2 C 0.1868(2) 0.09157(5) 0.1208(3)
C3 C 0.4911(3) 0.09273(6) 0.1843(3)
H2 H 0.58510 0.09560 0.13670
C4 C 0.5243(3) 0.08452(6) 0.3865(3)
H3 H 0.64110 0.08230 0.47760
C5 C 0.3886(2) 0.07951(6) 0.4590(3)
H4 H 0.41230 0.07390 0.59890
C6 C 0.2184(2) 0.08275(5) 0.3243(3)
C7 C -0.1518(2) 0.02221(6) 0.2816(3)
H5 H -0.13520 0.01720 0.42040
C8 C -0.0685(2) 0.05268(5) 0.2292(3)
C9 C -0.2599(3) -0.00072(6) 0.1272(3)
H6 H -0.31770 -0.02160 0.16070
C10 C -0.2842(2) 0.00660(6) -0.0747(3)
H7 H -0.35610 -0.00970 -0.17830
C11 C -0.2046(2) 0.03757(6) -0.1276(3)
H8 H -0.22280 0.04280 -0.26660
C12 C -0.0981(2) 0.06083(5) 0.0254(3)
C13 C -0.0062(2) 0.09639(5) -0.0058(3)
C14 C 0.0552(2) 0.07997(5) 0.3782(3)
C15 C -0.0723(2) 0.12935(5) 0.1005(3)
H9 H -0.19970 0.13360 0.02860
C16 C -0.0340(2) 0.11994(5) 0.3255(3)
H10 H -0.14310 0.12070 0.35760
C17 C 0.0274(2) 0.16565(6) 0.1036(3)
C18 C 0.0915(2) 0.15015(6) 0.4432(3)
C19 C 0.2570(2) 0.20335(6) 0.3718(3)
C20 C 0.2091(3) 0.24087(6) 0.3321(3)
H11 H 0.09180 0.24740 0.25620
C21 C 0.3340(3) 0.26900(6) 0.4040(3)
H12 H 0.30430 0.29510 0.37770
C22 C 0.5016(3) 0.25825(6) 0.5143(3)
C23 C 0.5531(3) 0.22076(6) 0.5547(3)
H13 H 0.67040 0.21440 0.63140
C24 C 0.4286(3) 0.19288(6) 0.4799(3)
H14 H 0.45950 0.16680 0.50190
N1 N 0.1290(2) 0.17367(4) 0.3061(2)
N2 N 0.6320(3) 0.28832(6) 0.5997(3)
O1 O -0.04450(18) 0.10305(4) -0.2129(2)
H15 H 0.00810 0.12260 -0.22790
O2 O 0.02649(18) 0.18422(4) -0.0413(2)
O3 O 0.15343(18) 0.15339(4) 0.6275(2)
O4 O 0.7771(2) 0.27921(5) 0.7154(3)
O5 O 0.5884(2) 0.32124(5) 0.5528(3)
O6? O 0.0953(13) 0.0701(3) 0.5475(17)
#END
