
#######################################################################
#
#                 Cambridge Crystallographic Data Centre
#                                CCDC
#
#######################################################################
#
# If this CIF has been generated from an entry in the Cambridge
# Structural Database, then it will include bibliographic, chemical,
# crystal, experimental, refinement or atomic coordinate data resulting
# from the CCDC's data processing and validation procedures.
#
#######################################################################

data_CSD_CIF_KULRUG
_audit_creation_date 2015-04-16
_audit_creation_method CSD-ConQuest-V1
_database_code_CSD KULRUG
_database_code_depnum_ccdc_archive 'CCDC 1051403'
_chemical_formula_sum 'C12 H9 N1 O3'
_chemical_formula_moiety
;
C12 H9 N1 O3
;
_journal_coden_Cambridge 177
_journal_volume 13
_journal_year 2015
_journal_page_first 5467
_journal_name_full 'Org.Biomol.Chem. '
loop_
_publ_author_name
"Shichao Wang"
"Yong Li"
"Hui Liu"
"Jinpeng Li"
"Tiesheng Li"
"Yangjie Wu"
"Shuji Okada"
"H.Nakanishi"
_chemical_name_systematic
;
6-(3-nitrophenyl)hexa-3,5-diyn-1-ol
;
_cell_volume    534.945
_exptl_crystal_colour 'pink'
_exptl_crystal_density_diffrn 1.336
_exptl_crystal_description 'Prism'
_diffrn_ambient_temperature 291
#These two values have been output from a single CSD field.
_refine_ls_R_factor_gt 0.0724
_refine_ls_wR_factor_gt 0.0724
_symmetry_cell_setting triclinic
_symmetry_space_group_name_H-M 'P -1'
_symmetry_Int_Tables_number 2
loop_
_symmetry_equiv_pos_site_id
_symmetry_equiv_pos_as_xyz
1 x,y,z
2 -x,-y,-z
_cell_length_a 4.9159(5)
_cell_length_b 9.8984(11)
_cell_length_c 11.3114(13)
_cell_angle_alpha 88.785(9)
_cell_angle_beta 78.349(9)
_cell_angle_gamma 82.913(9)
_cell_formula_units_Z 2
loop_
_atom_type_symbol
_atom_type_radius_bond
C 0.68
H 0.23
N 0.68
O 0.68
loop_
_atom_site_label
_atom_site_type_symbol
_atom_site_fract_x
_atom_site_fract_y
_atom_site_fract_z
O1 O 0.6351(8) 0.5384(3) 0.8468(3)
O2 O -0.0772(7) 0.3273(3) -0.0147(3)
O3 O -0.3792(7) 0.1973(3) -0.0391(3)
N1 N -0.2072(7) 0.2296(3) 0.0150(3)
C1 C 0.5081(10) 0.4715(5) 0.7664(4)
H1 H 0.38580 0.53790 0.73110
H2 H 0.39470 0.40640 0.81100
C2 C 0.7231(9) 0.3988(5) 0.6677(4)
H3 H 0.84030 0.46350 0.62490
H4 H 0.84170 0.33060 0.70300
C3 C 0.5930(8) 0.3328(4) 0.5818(3)
C4 C 0.4756(8) 0.2826(4) 0.5153(3)
C5 C 0.3360(8) 0.2262(4) 0.4383(3)
C6 C 0.2139(8) 0.1790(4) 0.3717(3)
C7 C 0.0591(7) 0.1258(4) 0.2921(3)
C8 C 0.0084(7) 0.2013(4) 0.1916(3)
H5 H 0.08040 0.28360 0.17360
C9 C -0.1516(7) 0.1506(4) 0.1199(3)
C10 C -0.2568(8) 0.0280(4) 0.1415(3)
H6 H -0.36350 -0.00360 0.09120
C11 C -0.2003(9) -0.0465(4) 0.2393(4)
H7 H -0.26860 -0.12990 0.25540
C12 C -0.0436(9) 0.0010(4) 0.3138(3)
H8 H -0.00610 -0.05100 0.37950
H9 H 0.709(12) 0.455(6) 0.897(5)
#END
