
#######################################################################
#
#                 Cambridge Crystallographic Data Centre
#                                CCDC
#
#######################################################################
#
# If this CIF has been generated from an entry in the Cambridge
# Structural Database, then it will include bibliographic, chemical,
# crystal, experimental, refinement or atomic coordinate data resulting
# from the CCDC's data processing and validation procedures.
#
#######################################################################

data_CSD_CIF_KUMJEJ
_audit_creation_date 2015-04-16
_audit_creation_method CSD-ConQuest-V1
_database_code_CSD KUMJEJ
_database_code_depnum_ccdc_archive 'CCDC 1025658'
_chemical_formula_sum 'C27 H30 N2 O7'
_chemical_formula_moiety
;
C27 H30 N2 O7
;
_journal_coden_Cambridge 1606
_journal_volume 4
_journal_year 2015
_journal_page_first 619
_journal_name_full 'Asian J.Org.Chem '
loop_
_publ_author_name
"Chen Zheng"
"Hai-Feng Wang"
"Wei-Qi Chen"
"Wen-Xue Chen"
"Fen-Er Chen"
_chemical_name_systematic
;
t-butyl 
3-(3-(ethoxycarbonyl)-5-nitro-4-phenylpentan-2-ylidene)-2-oxoindoline-1-carbox
ylate
;
_cell_volume   2570.061
_exptl_crystal_colour 'colorless'
_exptl_crystal_density_diffrn 1.278
_exptl_crystal_description 'block'
_diffrn_ambient_temperature 223
#These two values have been output from a single CSD field.
_refine_ls_R_factor_gt 0.0699
_refine_ls_wR_factor_gt 0.0699
_symmetry_cell_setting orthorhombic
_symmetry_space_group_name_H-M 'P 21 21 21'
_symmetry_Int_Tables_number 19
loop_
_symmetry_equiv_pos_site_id
_symmetry_equiv_pos_as_xyz
1 x,y,z
2 1/2-x,-y,1/2+z
3 -x,1/2+y,1/2-z
4 1/2+x,1/2-y,-z
_cell_length_a 9.3361(6)
_cell_length_b 10.8334(7)
_cell_length_c 25.4105(16)
_cell_angle_alpha 90
_cell_angle_beta 90
_cell_angle_gamma 90
_cell_formula_units_Z 4
loop_
_atom_type_symbol
_atom_type_radius_bond
C 0.68
H 0.23
N 0.68
O 0.68
loop_
_atom_site_label
_atom_site_type_symbol
_atom_site_fract_x
_atom_site_fract_y
_atom_site_fract_z
N1 N 0.5194(4) 1.0881(3) 0.07250(14)
N2 N 0.2183(5) 0.8557(6) 0.33364(19)
O1 O 0.5092(5) 1.0982(3) 0.16340(14)
O2 O 0.5557(4) 1.2413(3) 0.01490(13)
O3 O 0.4871(6) 1.2899(4) 0.09742(15)
O4 O 0.6590(4) 0.8762(4) 0.27318(16)
O5 O 0.6439(4) 0.6993(4) 0.23040(18)
O6 O 0.1741(6) 0.7508(6) 0.3375(2)
O7 O 0.1677(6) 0.9387(7) 0.3596(2)
C1 C 0.5040(5) 1.0384(4) 0.12334(17)
C2 C 0.4827(5) 0.9011(4) 0.11691(17)
C3 C 0.4929(6) 0.8802(5) 0.06006(18)
C4 C 0.4802(11) 0.7745(6) 0.0294(2)
H1 H 0.45850 0.69850 0.04540
C5 C 0.4994(12) 0.7803(6) -0.0245(2)
H2 H 0.49550 0.70750 -0.04460
C6 C 0.5240(8) 0.8915(6) -0.0489(2)
H3 H 0.53390 0.89430 -0.08570
C7 C 0.5344(6) 0.9990(5) -0.01999(19)
H4 H 0.55360 1.07470 -0.03660
C8 C 0.5160(4) 0.9930(4) 0.03400(16)
C9 C 0.4313(7) 0.6862(5) 0.1450(2)
H5 H 0.34790 0.67900 0.12250
H6 H 0.41380 0.64320 0.17790
H7 H 0.51360 0.65000 0.12750
C10 C 0.4608(5) 0.8219(4) 0.15618(18)
C11 C 0.4664(4) 0.8593(4) 0.21393(16)
H8 H 0.47400 0.95030 0.21600
C12 C 0.3326(5) 0.8175(4) 0.24632(17)
H9 H 0.33730 0.72710 0.25180
C13 C 0.3432(5) 0.8818(5) 0.29954(18)
H10 H 0.43070 0.85450 0.31740
H11 H 0.35050 0.97110 0.29400
C14 C 0.5188(5) 1.2179(4) 0.06365(17)
C15 C 0.5529(6) 1.3707(4) -0.0053(2)
C16 C 0.4042(7) 1.4196(7) -0.0046(3)
H12 H 0.34120 1.36250 -0.02270
H13 H 0.40160 1.49910 -0.02210
H14 H 0.37270 1.42910 0.03150
C17 C 0.6568(7) 1.4490(7) 0.0264(3)
H15 H 0.61680 1.46490 0.06100
H16 H 0.67310 1.52670 0.00840
H17 H 0.74700 1.40530 0.03010
C18 C 0.613(1) 1.3551(7) -0.0609(3)
H18 H 0.70810 1.31950 -0.05900
H19 H 0.61800 1.43500 -0.07800
H20 H 0.55090 1.30090 -0.08100
C19 C 0.5999(5) 0.8032(5) 0.23865(19)
C20 C 0.7762(6) 0.8232(7) 0.3049(3)
H21 H 0.74520 0.74550 0.32110
H22 H 0.85950 0.80630 0.28260
C21 C 0.8129(8) 0.9108(8) 0.3448(3)
H23 H 0.84970 0.98520 0.32840
H24 H 0.88550 0.87590 0.36760
H25 H 0.72840 0.93070 0.36530
C22 C 0.1941(4) 0.8489(5) 0.21851(18)
C23 C 0.1557(5) 0.9698(6) 0.2086(2)
H26 H 0.21820 1.03370 0.21840
C24 C 0.0265(6) 0.9989(8) 0.1843(3)
H27 H 0.00090 1.08160 0.17830
C25 C -0.0641(7) 0.9039(11) 0.1691(3)
H28 H -0.15100 0.92240 0.15210
C26 C -0.0278(6) 0.7831(9) 0.1785(3)
H29 H -0.08960 0.71930 0.16790
C27 C 0.1005(5) 0.7552(6) 0.2037(2)
H30 H 0.12410 0.67250 0.21080
#END
