
#######################################################################
#
#                 Cambridge Crystallographic Data Centre
#                                CCDC
#
#######################################################################
#
# If this CIF has been generated from an entry in the Cambridge
# Structural Database, then it will include bibliographic, chemical,
# crystal, experimental, refinement or atomic coordinate data resulting
# from the CCDC's data processing and validation procedures.
#
#######################################################################

data_CSD_CIF_KUMSUI
_audit_creation_date 2015-04-16
_audit_creation_method CSD-ConQuest-V1
_database_code_CSD KUMSUI
_database_code_depnum_ccdc_archive 'CCDC 1059983'
_chemical_formula_sum 'C18 H29 N1 O2'
_chemical_formula_moiety
;
C18 H29 N1 O2
;
_journal_coden_Cambridge 1078
_journal_year 2015
_journal_name_full 'CSD Communication(Private Communication) '
loop_
_publ_author_name
"P.G.Jones"
"U.Jahn"
"E.Dinca"
_chemical_name_systematic
;
1-Phenyl-2-((2,2,6,6-tetramethylpiperidin-1-yl)oxy)propan-1-ol
;
_cell_volume   1686.828
_exptl_crystal_colour 'colorless'
_exptl_crystal_density_diffrn 1.148
_exptl_crystal_description 'tablet'
_diffrn_ambient_temperature 100
#These two values have been output from a single CSD field.
_refine_ls_R_factor_gt 0.0354
_refine_ls_wR_factor_gt 0.0354
_symmetry_cell_setting monoclinic
_symmetry_space_group_name_H-M 'P 21/n'
_symmetry_Int_Tables_number 14
loop_
_symmetry_equiv_pos_site_id
_symmetry_equiv_pos_as_xyz
1 x,y,z
2 1/2-x,1/2+y,1/2-z
3 -x,-y,-z
4 -1/2+x,-1/2-y,-1/2+z
_cell_length_a 7.8001(2)
_cell_length_b 18.0255(4)
_cell_length_c 12.3448(3)
_cell_angle_alpha 90
_cell_angle_beta 103.627(3)
_cell_angle_gamma 90
_cell_formula_units_Z 4
loop_
_atom_type_symbol
_atom_type_radius_bond
C 0.68
H 0.23
N 0.68
O 0.68
loop_
_atom_site_label
_atom_site_type_symbol
_atom_site_fract_x
_atom_site_fract_y
_atom_site_fract_z
O1 O -0.03411(8) 0.64747(3) 0.24124(5)
H1 H 0.0617(18) 0.6732(8) 0.2744(11)
O2 O 0.30145(7) 0.59676(3) 0.39704(5)
N1 N 0.28838(9) 0.67603(4) 0.37115(5)
C1 C -0.36206(12) 0.42621(5) 0.07686(8)
H2 H -0.43810 0.39300 0.02830
C2 C -0.25085(11) 0.47270(5) 0.03573(7)
H3 H -0.25100 0.47150 -0.04120
C3 C -0.13932(11) 0.52095(5) 0.10674(7)
H4 H -0.06350 0.55270 0.07790
C4 C -0.13715(11) 0.52347(5) 0.21980(7)
C5 C -0.36183(13) 0.42843(6) 0.18873(8)
H5 H -0.43820 0.39670 0.21710
C6 C -0.25016(12) 0.47694(5) 0.25994(7)
H6 H -0.25120 0.47830 0.33670
C7 C -0.01581(10) 0.57706(5) 0.29548(7)
H7 H -0.05360 0.58150 0.36720
C8 C 0.17661(11) 0.55020(5) 0.32031(7)
H8 H 0.21440 0.54680 0.24850
C9 C 0.20181(13) 0.47501(5) 0.37702(8)
H9 H 0.32770 0.46270 0.39730
H10 H 0.13800 0.43720 0.32600
H11 H 0.15590 0.47650 0.44440
C10 C 0.43698(11) 0.69710(5) 0.31871(7)
C11 C 0.42162(13) 0.78114(5) 0.29900(7)
H12 H 0.52280 0.79800 0.26980
H13 H 0.31260 0.79150 0.24130
C12 C 0.41758(13) 0.82578(5) 0.40317(8)
H14 H 0.53190 0.82080 0.45830
H15 H 0.39860 0.87890 0.38380
C13 C 0.26977(12) 0.79756(5) 0.45297(8)
H16 H 0.15540 0.80820 0.40050
H17 H 0.27250 0.82500 0.52280
C14 C 0.28117(11) 0.71434(5) 0.47825(7)
C15 C 0.11059(12) 0.69086(5) 0.50959(8)
H18 H 0.01000 0.70040 0.44680
H19 H 0.09660 0.71930 0.57460
H20 H 0.11590 0.63780 0.52740
C16 C 0.43413(12) 0.69677(5) 0.57849(7)
H21 H 0.45530 0.64310 0.58240
H22 H 0.40380 0.71350 0.64720
H23 H 0.54090 0.72240 0.56980
C17 C 0.40569(13) 0.65842(5) 0.20514(7)
H24 H 0.43350 0.60550 0.21610
H25 H 0.48170 0.68080 0.16110
H26 H 0.28190 0.66420 0.16550
C18 C 0.62281(12) 0.67521(6) 0.38471(8)
H27 H 0.66200 0.70980 0.44690
H28 H 0.70470 0.67720 0.33560
H29 H 0.62010 0.62470 0.41380
#END
