
#######################################################################
#
#                 Cambridge Crystallographic Data Centre
#                                CCDC
#
#######################################################################
#
# If this CIF has been generated from an entry in the Cambridge
# Structural Database, then it will include bibliographic, chemical,
# crystal, experimental, refinement or atomic coordinate data resulting
# from the CCDC's data processing and validation procedures.
#
#######################################################################

data_CSD_CIF_KUNLUA
_audit_creation_date 1993-03-04
_audit_creation_method CSD-ConQuest-V1
_database_code_CSD KUNLUA
_chemical_formula_sum 'C22 H38 N2 O2'
_chemical_formula_moiety
;
C22 H38 N2 O2
;
_journal_coeditor_code "IUCr PA1014"
_journal_coden_Cambridge 591
_journal_volume 49
_journal_year 1993
_journal_page_first 163
_journal_name_full 'Acta Crystallogr.,Sect.C:Cryst.Struct.Commun. '
loop_
_publ_author_name
"N.Rodier"
"M.Dvolaitzky"
"A.Rassat"
"V.Agafonov"
"R.Ceolin"
_chemical_name_systematic
;
2,5,N,N'-Tetra-t-butyl-p-phenylenediamine-N,N'-dioxide
;
_cell_volume   1098.633
_exptl_crystal_colour 'yellow-orange'
_exptl_crystal_density_diffrn 1.096
_diffrn_ambient_temperature ?
_diffrn_special_details
;
The study was carried out at room temperature,in the range 283-303K

;
#These two values have been output from a single CSD field.
_refine_ls_R_factor_gt 0.042
_refine_ls_wR_factor_gt 0.042
_symmetry_cell_setting monoclinic
_symmetry_space_group_name_H-M 'P 21/c'
_symmetry_Int_Tables_number 14
loop_
_symmetry_equiv_pos_site_id
_symmetry_equiv_pos_as_xyz
1 x,y,z
2 -x,1/2+y,1/2-z
3 -x,-y,-z
4 x,-1/2-y,-1/2+z
_cell_length_a 10.459(2)
_cell_length_b 9.887(2)
_cell_length_c 11.735(2)
_cell_angle_alpha 90
_cell_angle_beta 115.13(1)
_cell_angle_gamma 90
_cell_formula_units_Z 2
loop_
_atom_type_symbol
_atom_type_radius_bond
C 0.68
H 0.23
N 0.68
O 0.68
loop_
_atom_site_label
_atom_site_type_symbol
_atom_site_fract_x
_atom_site_fract_y
_atom_site_fract_z
C1 C 0.3184(2) 0.6405(2) 0.1600(1)
C2 C 0.4323(2) 0.6514(3) 0.1113(2)
C3 C 0.1735(2) 0.6260(2) 0.0471(2)
C4 C 0.3199(3) 0.7629(2) 0.2389(2)
N1 N 0.3424(1) 0.5138(1) 0.2368(1)
O1 O 0.3219(2) 0.4015(1) 0.1784(1)
C5 C 0.4146(1) 0.5080(1) 0.3722(1)
C6 C 0.3560(1) 0.4492(1) 0.4474(1)
C7 C 0.5533(1) 0.5564(1) 0.4247(1)
C8 C 0.2048(1) 0.3913(2) 0.4031(1)
C9 C 0.1601(1) 0.3861(2) 0.5118(2)
C10 C 0.0952(2) 0.4781(3) 0.3003(2)
C11 C 0.2042(2) 0.2444(2) 0.3607(2)
H1 H 0.428(4) 0.568(4) 0.065(4)
H2 H 0.410(4) 0.732(4) 0.050(4)
H3 H 0.527(4) 0.663(4) 0.176(4)
H4 H 0.095(4) 0.619(4) 0.074(3)
H5 H 0.162(4) 0.713(4) -0.006(3)
H6 H 0.177(4) 0.549(4) -0.004(3)
H7 H 0.414(4) 0.778(4) 0.310(3)
H8 H 0.298(4) 0.841(4) 0.183(3)
H9 H 0.250(4) 0.743(4) 0.275(4)
H10 H 0.588(3) 0.595(3) 0.367(2)
H11 H 0.169(3) 0.479(4) 0.548(3)
H12 H 0.066(3) 0.353(4) 0.478(3)
H13 H 0.223(3) 0.316(4) 0.584(3)
H14 H -0.002(4) 0.445(5) 0.284(4)
H15 H 0.112(4) 0.457(5) 0.220(4)
H16 H 0.109(4) 0.580(5) 0.329(4)
H17 H 0.112(4) 0.207(5) 0.332(4)
H18 H 0.224(4) 0.249(4) 0.285(4)
H19 H 0.286(4) 0.179(5) 0.437(4)
C7B C 0.4467(1) 0.4436(1) 0.5753(1)
C6B C 0.6440(1) 0.5508(1) 0.5526(1)
C5B C 0.5854(1) 0.4920(1) 0.6278(1)
H10B H 0.412(3) 0.405(3) 0.633(2)
C8B C 0.7952(1) 0.6087(2) 0.5969(1)
N1B N 0.6576(1) 0.4862(1) 0.7632(1)
C9B C 0.8399(1) 0.6139(2) 0.4882(2)
C10B C 0.9048(2) 0.5219(3) 0.6997(2)
C11B C 0.7958(2) 0.7556(2) 0.6393(2)
C1B C 0.6816(2) 0.3595(2) 0.8400(1)
O1B O 0.6781(2) 0.5985(1) 0.8216(1)
H11B H 0.831(3) 0.521(4) 0.452(3)
H12B H 0.934(3) 0.647(4) 0.522(3)
H13B H 0.777(3) 0.684(4) 0.416(3)
H14B H 1.002(4) 0.555(5) 0.716(4)
H15B H 0.888(4) 0.543(5) 0.780(4)
H16B H 0.891(4) 0.420(5) 0.671(4)
H17B H 0.888(4) 0.793(5) 0.668(4)
H18B H 0.776(4) 0.751(4) 0.715(4)
H19B H 0.714(4) 0.821(5) 0.563(4)
C2B C 0.5677(2) 0.3486(3) 0.8887(2)
C3B C 0.8265(2) 0.3740(2) 0.9529(2)
C4B C 0.6801(3) 0.2371(2) 0.7611(2)
H1B H 0.572(4) 0.432(4) 0.935(4)
H2B H 0.590(4) 0.268(4) 0.950(4)
H3B H 0.473(4) 0.337(4) 0.824(4)
H4B H 0.905(4) 0.381(4) 0.926(3)
H5B H 0.838(4) 0.287(4) 1.006(3)
H6B H 0.823(4) 0.451(4) 1.004(3)
H7B H 0.586(4) 0.222(4) 0.690(3)
H8B H 0.702(4) 0.159(4) 0.817(3)
H9B H 0.750(4) 0.257(4) 0.725(4)
#END
