
#######################################################################
#
#                 Cambridge Crystallographic Data Centre
#                                CCDC
#
#######################################################################
#
# If this CIF has been generated from an entry in the Cambridge
# Structural Database, then it will include bibliographic, chemical,
# crystal, experimental, refinement or atomic coordinate data resulting
# from the CCDC's data processing and validation procedures.
#
#######################################################################

data_CSD_CIF_KUPCIJ
_audit_creation_date 2015-09-18
_audit_creation_method CSD-ConQuest-V1
_database_code_CSD KUPCIJ
_database_code_depnum_ccdc_archive 'CCDC 1062386'
_chemical_formula_sum 'C4 H5 N5 O10'
_chemical_formula_moiety
;
C4 H5 N5 O10
;
_journal_coden_Cambridge 1220
_journal_volume 21
_journal_year 2015
_journal_page_first 16229
_journal_name_full 'Chem.-Eur.J. '
loop_
_publ_author_name
"Q.J.Axthammer"
"B.Krumm"
"T.M.Klapotke"
"R.Scharf"
_chemical_name_systematic
;
3,3,3-Trinitropropyl nitrocarbamate
;
_cell_volume   2213.428
_exptl_crystal_colour 'colorless'
_exptl_crystal_density_diffrn 1.699
_exptl_crystal_description 'block'
_diffrn_ambient_temperature 295
#These two values have been output from a single CSD field.
_refine_ls_R_factor_gt 0.084
_refine_ls_wR_factor_gt 0.084
_symmetry_cell_setting orthorhombic
_symmetry_space_group_name_H-M 'P c c n'
_symmetry_Int_Tables_number 56
loop_
_symmetry_equiv_pos_site_id
_symmetry_equiv_pos_as_xyz
1 x,y,z
2 1/2-x,1/2-y,z
3 1/2+x,-y,1/2-z
4 -x,1/2+y,1/2-z
5 -x,-y,-z
6 -1/2+x,-1/2+y,-z
7 -1/2-x,y,-1/2+z
8 x,-1/2-y,-1/2+z
_cell_length_a 10.5771(6)
_cell_length_b 23.7040(12)
_cell_length_c 8.8283(4)
_cell_angle_alpha 90
_cell_angle_beta 90
_cell_angle_gamma 90
_cell_formula_units_Z 8
loop_
_atom_type_symbol
_atom_type_radius_bond
C 0.68
H 0.23
N 0.68
O 0.68
loop_
_atom_site_label
_atom_site_type_symbol
_atom_site_fract_x
_atom_site_fract_y
_atom_site_fract_z
O1 O 0.1257(3) 0.41654(12) 0.0687(3)
O2 O 0.1775(3) 0.44792(13) 0.2989(3)
C1 C 0.1838(4) 0.45084(16) 0.1654(4)
N1 N 0.2499(4) 0.48917(15) 0.0811(4)
O3 O 0.3297(4) 0.53657(17) 0.2764(4)
N2 N 0.3256(4) 0.53013(17) 0.1416(4)
O4 O 0.3815(5) 0.5583(2) 0.0512(4)
C2 C 0.0552(5) 0.3714(2) 0.1351(6)
H1 H 0.02350 0.38280 0.23350
H2 H 0.10950 0.33880 0.14900
C3 C -0.0527(5) 0.3563(2) 0.0342(7)
H3 H -0.10630 0.38930 0.02490
H4 H -0.10210 0.32750 0.08520
C4 C -0.0245(5) 0.3354(2) -0.1227(6)
N3 N -0.1504(7) 0.3235(3) -0.2103(11)
N4 N 0.0372(8) 0.3809(4) -0.2283(7)
O5 O -0.1348(10) 0.3146(6) -0.3408(11)
O6 O -0.0084(8) 0.4268(4) -0.2131(8)
O7 O 0.1185(9) 0.3639(5) -0.3005(11)
O8 O 0.1565(11) 0.2915(6) -0.0785(19)
O9 O 0.0088(8) 0.2434(3) -0.1793(14)
O10 O -0.2354(7) 0.3154(5) -0.1415(11)
N5 N 0.0473(10) 0.2803(5) -0.1180(11)
H5 H 0.259(4) 0.4863(19) -0.025(6)
#END
