
#######################################################################
#
#                 Cambridge Crystallographic Data Centre
#                                CCDC
#
#######################################################################
#
# If this CIF has been generated from an entry in the Cambridge
# Structural Database, then it will include bibliographic, chemical,
# crystal, experimental, refinement or atomic coordinate data resulting
# from the CCDC's data processing and validation procedures.
#
#######################################################################

data_CSD_CIF_KUQKEN
_audit_creation_date 2010-06-16
_audit_creation_method CSD-ConQuest-V1
_database_code_CSD KUQKEN
_database_code_depnum_ccdc_archive 'CCDC 774036'
_chemical_formula_sum 'C16 H12 N2 O5'
_chemical_formula_moiety
;
C16 H12 N2 O5
;
_journal_coeditor_code "IUCr SQ3233"
_journal_coden_Cambridge 591
_journal_volume 66
_journal_year 2010
_journal_page_first o79
_journal_name_full 'Acta Crystallogr.,Sect.C:Cryst.Struct.Commun. '
loop_
_publ_author_name
"D.Becerra"
"B.Insuasty"
"J.Cobo"
"C.Glidewell"
_chemical_name_systematic
;
rac-3-Hydroxy-3-[(4-nitrobenzoyl)methyl]indolin-2-one
;
_chemical_melting_point 449
_cell_volume    682.676
_exptl_crystal_colour 'yellow brown'
_exptl_crystal_density_diffrn 1.519
_exptl_special_details
;
Melts with decomposition.
isomorphous with the 4-methylbenzoyl, 4-fluorobenzoyl, 4-chlorobenzoyl, 
4-bromobenzoyl and benzoyl analogues
;
_exptl_crystal_description 'block'
_exptl_crystal_preparation 'ethanol/dimethylformamide'
_diffrn_ambient_temperature 120
#These two values have been output from a single CSD field.
_refine_ls_R_factor_gt 0.0571
_refine_ls_wR_factor_gt 0.0571
_symmetry_cell_setting triclinic
_symmetry_space_group_name_H-M 'P -1'
_symmetry_Int_Tables_number 2
loop_
_symmetry_equiv_pos_site_id
_symmetry_equiv_pos_as_xyz
1 x,y,z
2 -x,-y,-z
_cell_length_a 7.026(1)
_cell_length_b 7.598(3)
_cell_length_c 13.365(4)
_cell_angle_alpha 97.54(3)
_cell_angle_beta 102.67(2)
_cell_angle_gamma 96.46(2)
_cell_formula_units_Z 2
loop_
_atom_type_symbol
_atom_type_radius_bond
C 0.68
H 0.23
N 0.68
O 0.68
loop_
_atom_site_label
_atom_site_type_symbol
_atom_site_fract_x
_atom_site_fract_y
_atom_site_fract_z
N1 N 0.0655(3) 0.3211(3) 0.57180(18)
H1 H -0.04610 0.36330 0.55250
C1 C 0.2408(4) 0.4009(4) 0.5653(2)
C2 C 0.3976(4) 0.2833(4) 0.6037(2)
C3 C 0.2778(4) 0.1366(4) 0.6373(2)
C4 C 0.3303(4) -0.0124(4) 0.6790(2)
H2 H 0.46420 -0.03120 0.69600
C5 C 0.1825(4) -0.1341(4) 0.6955(2)
H3 H 0.21530 -0.23700 0.72510
C6 C -0.0116(4) -0.1072(4) 0.6695(2)
H4 H -0.11060 -0.19310 0.68080
C7 C -0.0659(4) 0.0408(4) 0.6277(2)
H5 H -0.20010 0.05850 0.60950
C8 C 0.0817(4) 0.1612(4) 0.6134(2)
O1 O 0.2716(3) 0.5375(3) 0.52828(15)
O2 O 0.4593(3) 0.2086(3) 0.51530(15)
H6 H 0.53780 0.29010 0.49960
C9 C 0.5773(4) 0.3853(4) 0.6834(2)
H7 H 0.66770 0.29860 0.70440
H8 H 0.64660 0.47140 0.64910
C10 C 0.5422(4) 0.4864(4) 0.7794(2)
O3 O 0.3772(3) 0.4957(3) 0.79150(16)
C11 C 0.7201(4) 0.5813(4) 0.8598(2)
C12 C 0.9068(4) 0.5751(4) 0.8453(2)
H9 H 0.92430 0.50750 0.78380
C13 C 1.0697(4) 0.6664(4) 0.9194(2)
H10 H 1.19910 0.66300 0.90950
C14 C 1.0392(4) 0.7618(4) 1.0072(2)
C15 C 0.8545(4) 0.7693(4) 1.0248(2)
H11 H 0.83800 0.83530 1.08700
C16 C 0.6945(4) 0.6790(4) 0.9502(2)
H12 H 0.56540 0.68330 0.96040
N2 N 1.2127(4) 0.8555(3) 1.08607(19)
O4 O 1.3745(3) 0.8340(4) 1.07444(19)
O5 O 1.1852(3) 0.9505(4) 1.16011(18)
#END
