
#######################################################################
#
#                 Cambridge Crystallographic Data Centre
#                                CCDC
#
#######################################################################
#
# If this CIF has been generated from an entry in the Cambridge
# Structural Database, then it will include bibliographic, chemical,
# crystal, experimental, refinement or atomic coordinate data resulting
# from the CCDC's data processing and validation procedures.
#
#######################################################################

data_CSD_CIF_KURJOY
_audit_creation_date 2015-09-21
_audit_creation_method CSD-ConQuest-V1
_database_code_CSD KURJOY
_database_code_depnum_ccdc_archive 'CCDC 1420600'
_chemical_formula_sum 'C12 H21 N2 O2'
_chemical_formula_moiety
;
C12 H21 N2 O2
;
_journal_coeditor_code "uk3117"
_journal_coden_Cambridge 1777
_journal_volume 71
_journal_year 2015
_journal_page_first 860
_journal_name_full 'Acta Crystallogr.,Sect.C:Cryst.Struct.Chem. '
loop_
_publ_author_name
"S.K.Goswami"
"L.R.Hanton"
"C.J.McAdam"
"S.C.Moratti"
"J.Simpson"
_chemical_name_systematic
;
N-(1-hydroxy-2,2,6,6-tetramethylpiperidin-4-yl)acrylamide
;
_chemical_name_common
;
4-(acrylamido)-2,2,6,6-tetramethylpiperidin-1-oxyl
;
_cell_volume   1250.736
_exptl_crystal_colour 'colorless'
_exptl_crystal_density_diffrn 1.197
_exptl_crystal_description 'plate'
_diffrn_ambient_temperature 100
#These two values have been output from a single CSD field.
_refine_ls_R_factor_gt 0.0341
_refine_ls_wR_factor_gt 0.0341
_symmetry_cell_setting monoclinic
_symmetry_space_group_name_H-M 'P 21/c'
_symmetry_Int_Tables_number 14
loop_
_symmetry_equiv_pos_site_id
_symmetry_equiv_pos_as_xyz
1 x,y,z
2 -x,1/2+y,1/2-z
3 -x,-y,-z
4 x,-1/2-y,-1/2+z
_cell_length_a 11.5408(2)
_cell_length_b 11.7953(2)
_cell_length_c 9.7964(2)
_cell_angle_alpha 90
_cell_angle_beta 110.299(2)
_cell_angle_gamma 90
_cell_formula_units_Z 4
loop_
_atom_type_symbol
_atom_type_radius_bond
C 0.68
H 0.23
N 0.68
O 0.68
loop_
_atom_site_label
_atom_site_type_symbol
_atom_site_fract_x
_atom_site_fract_y
_atom_site_fract_z
O1 O 0.31052(7) 0.22108(6) 0.21433(8)
N1 N 0.29372(8) 0.32826(7) 0.19092(9)
C1 C 0.18232(9) 0.37682(9) 0.21515(11)
C2 C 0.07153(10) 0.3035(1) 0.13045(13)
H1 H 0.06430 0.30070 0.02780
H2 H -0.00390 0.33620 0.13840
H3 H 0.08320 0.22660 0.17070
C3 C 0.20027(10) 0.37189(10) 0.37769(12)
H4 H 0.22390 0.29480 0.41410
H5 H 0.12290 0.39270 0.39160
H6 H 0.26550 0.42500 0.43120
C4 C 0.16081(9) 0.49824(9) 0.15770(11)
H7 H 0.12620 0.49610 0.05010
H8 H 0.09870 0.53440 0.19230
C5 C 0.27737(9) 0.57099(9) 0.20451(11)
H9 H 0.31280 0.57430 0.31320
C6 C 0.37062(9) 0.51704(9) 0.14639(11)
H10 H 0.44630 0.56420 0.17600
H11 H 0.33590 0.51690 0.03870
C7 C 0.40608(9) 0.39531(9) 0.19946(11)
C8 C 0.46605(10) 0.33808(10) 0.10064(12)
H12 H 0.48820 0.25990 0.13320
H13 H 0.54060 0.37990 0.10510
H14 H 0.40780 0.33770 0.00030
C9 C 0.49624(10) 0.39249(10) 0.35735(11)
H15 H 0.45630 0.42530 0.42160
H16 H 0.57020 0.43650 0.36500
H17 H 0.51970 0.31380 0.38620
N2 N 0.24829(8) 0.68545(8) 0.14626(10)
H18 H 0.2418(12) 0.6979(11) 0.0576(15)
C10 C 0.21800(9) 0.76929(9) 0.22023(11)
O2 O 0.21901(7) 0.75780(7) 0.34628(8)
C11 C 0.18506(10) 0.87821(9) 0.13881(12)
H19 H 0.18120 0.88090 0.04040
C12 C 0.16111(11) 0.97081(10) 0.19932(13)
H20 H 0.16460 0.96940 0.29760
H21 H 0.14040 1.03900 0.14470
#END
