
#######################################################################
#
#                 Cambridge Crystallographic Data Centre
#                                CCDC
#
#######################################################################
#
# If this CIF has been generated from an entry in the Cambridge
# Structural Database, then it will include bibliographic, chemical,
# crystal, experimental, refinement or atomic coordinate data resulting
# from the CCDC's data processing and validation procedures.
#
#######################################################################

data_CSD_CIF_KUSBUX
_audit_creation_date 2015-09-21
_audit_creation_method CSD-ConQuest-V1
_database_code_CSD KUSBUX
_database_code_depnum_ccdc_archive 'CCDC 1426203'
_chemical_formula_sum 'C42 H45 N1 O13'
_chemical_formula_moiety
;
C42 H45 N1 O13
;
_journal_coden_Cambridge 1498
_journal_volume 5
_journal_year 2014
_journal_page_first 1054
_journal_name_full 'ACS.Med.Chem.Lett. '
loop_
_publ_author_name
"M.Calosso"
"G.Tambutet"
"D.Charpentier"
"G.St-Pierre"
"M.Vaillancourt"
"M.Bencheqroun"
"J.-P.Gratton"
"M.Prevost"
"Yvan Guindon"
_chemical_name_systematic
;
1-isopropyl 4-methyl 
2-((4-nitrobenzoyl)oxy)-3-((3,4,5-tris(benzyloxy)-6-methyltetrahydro-2H-pyran-
2-yl)oxy)succinate
;
_cell_volume   1980.985
_exptl_crystal_colour 'colorless'
_exptl_crystal_density_diffrn 1.294
_exptl_special_details
;
Absolute configuration

;
_exptl_crystal_description 'Chunk'
_diffrn_ambient_temperature 150
_refine_special_details
;
C52,C53,C54,C55,C56,C57,C58,C7,C8 and C10,C82,C83,C84,C85,C86,C87,C88,C9 
disordered over two sites with occupancies 0.833:0.167.
;
#These two values have been output from a single CSD field.
_refine_ls_R_factor_gt 0.0774
_refine_ls_wR_factor_gt 0.0774
_symmetry_cell_setting monoclinic
_symmetry_space_group_name_H-M 'P 21'
_symmetry_Int_Tables_number 4
loop_
_symmetry_equiv_pos_site_id
_symmetry_equiv_pos_as_xyz
1 x,y,z
2 -x,1/2+y,-z
_cell_length_a 15.5024(16)
_cell_length_b 6.2258(8)
_cell_length_c 20.953(2)
_cell_angle_alpha 90
_cell_angle_beta 101.598(5)
_cell_angle_gamma 90
_cell_formula_units_Z 2
loop_
_atom_type_symbol
_atom_type_radius_bond
C 0.68
H 0.23
N 0.68
O 0.68
loop_
_atom_site_label
_atom_site_type_symbol
_atom_site_fract_x
_atom_site_fract_y
_atom_site_fract_z
C1 C 0.8436(4) 0.309(2) 0.9179(3)
O1 O 0.8726(3) 0.4750(15) 0.9014(2)
C2 C 0.7778(4) 0.1672(18) 0.8716(3)
H1 H 0.76570 0.03280 0.89440
C3 C 0.6917(4) 0.2917(18) 0.8478(3)
H2 H 0.70400 0.42660 0.82530
C4 C 0.6461(5) 0.345(2) 0.9034(4)
O2 O 0.5920(4) 0.2260(17) 0.9195(3)
O3 O 0.6761(3) 0.5218(15) 0.9332(2)
C5 C 0.6421(4) 0.5852(8) 0.9906(3)
H3 H 0.63870 0.45900 1.01950
C6 C 0.5517(5) 0.686(2) 0.9676(4)
H4 H 0.51050 0.57710 0.94580
H5 H 0.55600 0.80300 0.93710
H6 H 0.53040 0.74330 1.00520
C7 C 0.7072(6) 0.7516(16) 1.0249(5)
H7 H 0.76470 0.68380 1.03990
H8 H 0.68590 0.81000 1.06230
H9 H 0.71280 0.86800 0.99450
O4 O 0.8610(3) 0.2256(15) 0.9764(2)
C8 C 0.9227(5) 0.347(2) 1.0256(3)
H10 H 0.98320 0.30610 1.02390
H11 H 0.91130 0.31570 1.06900
H12 H 0.91480 0.50130 1.01670
O5 O 0.8097(2) 0.1155(13) 0.81445(19)
C9 C 0.8790(4) -0.0392(18) 0.8266(3)
H13 H 0.86270 -0.15640 0.85460
O6 O 0.9593(2) 0.0563(15) 0.85865(19)
C10 C 0.9914(4) 0.2205(18) 0.8205(3)
H14 H 0.94600 0.33640 0.81060
C11 C 1.0068(4) 0.1304(19) 0.7574(3)
H15 H 1.02770 0.24620 0.73110
C12 C 0.9209(4) 0.0295(18) 0.7186(3)
H16 H 0.87600 0.14660 0.70880
C13 C 0.8875(4) -0.1326(17) 0.7614(3)
H17 H 0.92990 -0.25530 0.76940
O7 O 0.6383(2) 0.1497(14) 0.8020(2)
C14 C 0.5626(4) 0.238(2) 0.7680(4)
O8 O 0.5419(3) 0.4210(16) 0.7780(3)
C15 C 0.5129(4) 0.0906(19) 0.7206(4)
C16 C 0.5450(4) -0.1104(19) 0.7070(4)
H18 H 0.60140 -0.15560 0.72950
C17 C 0.4959(4) -0.243(2) 0.6615(4)
H19 H 0.51860 -0.37690 0.65050
C18 C 0.4115(5) -0.175(2) 0.6317(4)
N1 N 0.3576(4) -0.324(2) 0.5847(4)
O9 O 0.3871(4) -0.4942(19) 0.5726(4)
C19 C 0.3796(4) 0.020(2) 0.6432(4)
H20 H 0.32290 0.06340 0.62050
O10 O 0.2840(4) -0.2635(17) 0.5589(3)
C20 C 0.4290(4) 0.157(2) 0.6877(4)
H21 H 0.40680 0.29390 0.69620
C21 C 1.0736(4) 0.314(2) 0.8636(4)
H22 H 1.06120 0.34970 0.90630
H23 H 1.09140 0.44400 0.84320
H24 H 1.12130 0.20800 0.86880
O11 O 1.0737(3) -0.0345(16) 0.7734(2)
C22 C 1.1300(5) -0.067(3) 0.7281(4)
H25 H 1.13680 0.06990 0.70540
H26 H 1.10340 -0.17370 0.69490
C23 C 1.2148(4) -0.141(2) 0.7615(3)
C24 C 1.2432(6) -0.3509(19) 0.7560(4)
H27 H 1.20430 -0.45400 0.73220
C25 C 1.3285(6) -0.4098(19) 0.7852(5)
H28 H 1.34790 -0.55310 0.78140
C26 C 1.3854(4) -0.259(2) 0.8200(4)
H29 H 1.44360 -0.29930 0.84000
C27 C 1.3570(5) -0.049(2) 0.8256(4)
H30 H 1.39580 0.05370 0.84940
C28 C 1.2717(5) 0.0096(18) 0.7963(4)
H31 H 1.25230 0.15290 0.80010
O12 O 0.9276(3) -0.0646(16) 0.6600(2)
C29 C 0.9119(4) 0.068(2) 0.6039(3)
H32 H 0.87300 0.18800 0.61080
H33 H 0.88070 -0.01690 0.56630
C30 C 0.9952(4) 0.158(2) 0.5880(3)
C31 C 1.0441(4) 0.024(2) 0.5574(3)
H34 H 1.02350 -0.11660 0.54570
C32 C 1.1251(5) 0.094(2) 0.5430(4)
H35 H 1.15910 0.00260 0.52150
C33 C 1.1527(6) 0.296(2) 0.5611(4)
H36 H 1.20800 0.34130 0.55280
C34 C 1.1055(5) 0.440(2) 0.5906(4)
H37 H 1.12650 0.58100 0.60140
C35 C 1.0243(5) 0.368(2) 0.6044(4)
H38 H 0.98970 0.46220 0.62460
O13 O 0.8024(2) -0.2141(15) 0.7293(2)
C36 C 0.8064(4) -0.4259(18) 0.7054(3)
H39 H 0.80610 -0.53010 0.74100
H40 H 0.86170 -0.44530 0.68930
C37 C 0.7280(4) -0.4675(18) 0.6503(3)
C38 C 0.6863(4) -0.664(2) 0.6470(4)
H41 H 0.70360 -0.76760 0.68050
C39 C 0.6174(4) -0.712(2) 0.5931(4)
H42 H 0.58700 -0.84480 0.59080
C40 C 0.5956(5) -0.563(2) 0.5445(4)
H43 H 0.55110 -0.59570 0.50750
C41 C 0.6365(5) -0.369(2) 0.5480(4)
H44 H 0.61940 -0.26650 0.51420
C42 C 0.7046(4) -0.3199(18) 0.6019(3)
H45 H 0.73370 -0.18500 0.60440
H46? H 0.57640 0.57240 0.98130
C43? C 0.669(3) 0.8195(17) 1.002(2)
H47? H 0.64730 0.90180 0.96190
H48? H 0.73320 0.82980 1.01350
H49? H 0.64330 0.87790 1.03730
C44? C 0.682(3) 0.454(6) 1.0506(14)
H50? H 0.65510 0.31010 1.04690
H51? H 0.66980 0.52500 1.08960
H52? H 0.74530 0.44100 1.05380
C45? C 1.1305(4) -0.0613(18) 0.7281(3)
H53? H 1.14580 0.08090 0.71240
H54? H 1.09980 -0.14480 0.69000
C46? C 1.2093(15) -0.172(7) 0.7587(10)
C47? C 1.2186(17) -0.212(7) 0.825(1)
H55? H 1.17440 -0.16590 0.84740
C48? C 1.2927(18) -0.319(7) 0.8585(9)
H56? H 1.29910 -0.34640 0.90380
C49? C 1.3574(15) -0.386(6) 0.8257(14)
H57? H 1.40800 -0.45950 0.84860
C50? C 1.3481(15) -0.346(7) 0.7594(14)
H58? H 1.39230 -0.39210 0.73700
C51? C 1.2740(16) -0.239(8) 0.7259(10)
H59? H 1.26770 -0.21170 0.68060
#END
