
#######################################################################
#
#                 Cambridge Crystallographic Data Centre
#                                CCDC
#
#######################################################################
#
# If this CIF has been generated from an entry in the Cambridge
# Structural Database, then it will include bibliographic, chemical,
# crystal, experimental, refinement or atomic coordinate data resulting
# from the CCDC's data processing and validation procedures.
#
#######################################################################

data_CSD_CIF_KUSHOW
_audit_creation_date 2010-06-02
_audit_creation_method CSD-ConQuest-V1
_database_code_CSD KUSHOW
_database_code_depnum_ccdc_archive 'CCDC 774188'
_chemical_formula_sum 'C24 H26 N4 O3'
_chemical_formula_moiety
;
C24 H26 N4 O3
;
_journal_coeditor_code "IUCr IS2515"
_journal_coden_Cambridge 1370
_journal_volume 66
_journal_year 2010
_journal_page_first o723
_journal_name_full 'Acta Crystallogr.,Sect.E:Struct.Rep.Online '
loop_
_publ_author_name
"Qing-Yang Meng"
"Jiong Jia"
"Ling Yin"
"Fu-Xu Zhan"
"Jian-Wu Wang"
_chemical_name_systematic
;
Ethyl 
3-(5-[(diethylamino)methyl]isoxazol-3-yl)-2-phenylpyrazolo[1,5-a]pyridine-5-ca
rboxylate
;
_chemical_melting_point 363
_cell_volume   1090.606
_exptl_crystal_colour 'colorless'
_exptl_crystal_density_diffrn 1.274
_exptl_special_details
;
Melting point range 363-364K

;
_exptl_crystal_description 'block'
_exptl_crystal_preparation 'hexane/ethyl acetate'
_diffrn_ambient_temperature 298
#These two values have been output from a single CSD field.
_refine_ls_R_factor_gt 0.0612
_refine_ls_wR_factor_gt 0.0612
_symmetry_cell_setting triclinic
_symmetry_space_group_name_H-M 'P -1'
_symmetry_Int_Tables_number 2
loop_
_symmetry_equiv_pos_site_id
_symmetry_equiv_pos_as_xyz
1 x,y,z
2 -x,-y,-z
_cell_length_a 6.1250(7)
_cell_length_b 13.1425(16)
_cell_length_c 13.7139(16)
_cell_angle_alpha 93.600(2)
_cell_angle_beta 95.514(2)
_cell_angle_gamma 95.637(2)
_cell_formula_units_Z 2
loop_
_atom_type_symbol
_atom_type_radius_bond
C 0.68
H 0.23
N 0.68
O 0.68
loop_
_atom_site_label
_atom_site_type_symbol
_atom_site_fract_x
_atom_site_fract_y
_atom_site_fract_z
C1 C 0.2802(5) -0.0313(2) 0.0758(3)
H1 H 0.40080 -0.07240 0.07220
H2 H 0.22000 -0.02000 0.01060
H3 H 0.16800 -0.06630 0.10940
C2 C 0.3600(5) 0.0686(2) 0.1300(2)
H4 H 0.42190 0.05700 0.19570
H5 H 0.47580 0.10310 0.09680
C3 C 0.1430(4) 0.19374(19) 0.06317(19)
C4 C -0.0421(4) 0.25659(18) 0.07983(17)
C5 C -0.1456(4) 0.25212(18) 0.16402(17)
H6 H -0.10600 0.20730 0.21090
C6 C -0.3125(4) 0.31605(17) 0.17869(16)
C7 C -0.2687(4) 0.3840(2) 0.02118(18)
H7 H -0.31300 0.42700 -0.02660
C8 C -0.1074(5) 0.3235(2) 0.00756(18)
H8 H -0.03800 0.32550 -0.04980
C9 C -0.4470(4) 0.33567(17) 0.25335(16)
C10 C -0.5678(4) 0.41490(18) 0.22118(17)
C11 C -0.7208(4) 0.47407(18) 0.27307(18)
C12 C -0.6795(5) 0.5013(2) 0.3729(2)
H9 H -0.55870 0.47900 0.40870
C13 C -0.8164(6) 0.5616(3) 0.4199(2)
H10 H -0.78670 0.57990 0.48680
C14 C -0.9967(6) 0.5946(2) 0.3677(3)
H11 H -1.08970 0.63450 0.39930
C15 C -1.0381(5) 0.5682(2) 0.2687(3)
H12 H -1.15970 0.59040 0.23350
C16 C -0.9014(4) 0.50908(19) 0.2210(2)
H13 H -0.93010 0.49250 0.15380
C17 C -0.4706(4) 0.27444(18) 0.33801(17)
C18 C -0.6611(4) 0.2496(2) 0.38597(18)
H14 H -0.79810 0.27390 0.37430
C19 C -0.6021(5) 0.1835(2) 0.45177(19)
C20 C -0.7261(5) 0.1236(2) 0.5216(2)
H15 H -0.87900 0.10910 0.49450
H16 H -0.66550 0.05860 0.52830
C21 C -0.4753(6) 0.2470(3) 0.7671(2)
H17 H -0.32890 0.24510 0.79850
H18 H -0.58100 0.22230 0.80970
H19 H -0.49720 0.31620 0.75340
C22 C -0.5053(6) 0.1792(3) 0.6711(2)
H20 H -0.39530 0.20380 0.62930
H21 H -0.47930 0.10990 0.68550
C23 C -0.9023(6) 0.1347(3) 0.6722(3)
H22 H -0.90820 0.17990 0.73040
H23 H -1.03890 0.13670 0.63050
C24 C -0.8942(7) 0.0293(3) 0.7027(3)
H24 H -1.02120 0.01020 0.73610
H25 H -0.76280 0.02630 0.74620
H26 H -0.89350 -0.01700 0.64580
N1 N -0.3662(3) 0.38084(15) 0.10689(14)
N2 N -0.5209(3) 0.44225(16) 0.13189(15)
N3 N -0.3039(4) 0.22794(19) 0.37371(17)
N4 N -0.7175(4) 0.1771(2) 0.61889(18)
O1 O 0.1826(3) 0.13349(14) 0.13639(14)
O2 O 0.2449(4) 0.19763(17) -0.00730(16)
O3 O -0.3882(4) 0.16863(16) 0.44714(14)
#END
