
#######################################################################
#
#                 Cambridge Crystallographic Data Centre
#                                CCDC
#
#######################################################################
#
# If this CIF has been generated from an entry in the Cambridge
# Structural Database, then it will include bibliographic, chemical,
# crystal, experimental, refinement or atomic coordinate data resulting
# from the CCDC's data processing and validation procedures.
#
#######################################################################

data_CSD_CIF_KUSVOL
_audit_creation_date 2015-09-22
_audit_creation_method CSD-ConQuest-V1
_database_code_CSD KUSVOL
_database_code_depnum_ccdc_archive 'CCDC 1426405'
_chemical_formula_sum 'C28 H32 N2 O3'
_chemical_formula_moiety
;
C28 H32 N2 O3
;
_journal_coden_Cambridge 4
_journal_volume 135
_journal_year 2013
_journal_page_first 10890
_journal_name_full 'J.Am.Chem.Soc. '
loop_
_publ_author_name
"Ke Kong"
"J.A.Enquist Junior"
"M.E.McCallum"
"G.M.Smith"
"T.Matsumaru"
"E.Menhaji-Klotz"
"J.L.Wood"
_chemical_name_systematic
;
1-benzyl-2',2',7''-trimethyl-3'',3a'',4'',5'',6'',7''-hexahydro-4'H-dispiro[in
dole-3,1'-cyclopentane-3',2''-[1,2]oxazolo[2,3-a]pyridine]-2,4'(1H)-dione
;
_cell_volume   2278.537
_exptl_crystal_colour 'colorless'
_exptl_crystal_density_diffrn 1.296
_exptl_crystal_description 'cube'
_diffrn_ambient_temperature 100
#These two values have been output from a single CSD field.
_refine_ls_R_factor_gt 0.0452
_refine_ls_wR_factor_gt 0.0452
_symmetry_cell_setting orthorhombic
_symmetry_space_group_name_H-M 'P 21 21 21'
_symmetry_Int_Tables_number 19
loop_
_symmetry_equiv_pos_site_id
_symmetry_equiv_pos_as_xyz
1 x,y,z
2 1/2-x,-y,1/2+z
3 -x,1/2+y,1/2-z
4 1/2+x,1/2-y,-z
_cell_length_a 7.4679(3)
_cell_length_b 13.9184(6)
_cell_length_c 21.9214(9)
_cell_angle_alpha 90
_cell_angle_beta 90
_cell_angle_gamma 90
_cell_formula_units_Z 4
loop_
_atom_type_symbol
_atom_type_radius_bond
C 0.68
H 0.23
N 0.68
O 0.68
loop_
_atom_site_label
_atom_site_type_symbol
_atom_site_fract_x
_atom_site_fract_y
_atom_site_fract_z
O1 O 0.91798(12) 0.32289(6) 0.93115(4)
O2 O 1.21599(14) 0.27320(7) 0.84834(5)
O3 O 0.90209(13) 0.07155(7) 0.79447(4)
N1 N 0.82062(14) 0.40224(7) 0.90290(5)
N2 N 0.87025(13) -0.06804(8) 0.84923(4)
C1 C 0.92025(16) 0.23907(8) 0.89111(5)
C2 C 0.80655(18) 0.26902(9) 0.83600(5)
H1 H 0.877(2) 0.2953(12) 0.8024(7)
C3 C 0.69551(17) 0.35158(9) 0.86245(5)
H2 H 0.609(2) 0.3245(10) 0.8894(6)
H3 H 0.729(2) 0.2163(13) 0.8173(8)
C4 C 0.60445(19) 0.41868(10) 0.81728(6)
H4 H 0.529(3) 0.3768(13) 0.7885(8)
H5 H 0.521(2) 0.4607(13) 0.8431(8)
C5 C 0.7373(2) 0.48215(10) 0.78356(6)
H6 H 0.816(2) 0.4407(13) 0.7583(8)
H7 H 0.666(3) 0.5299(13) 0.7567(8)
C6 C 0.85310(19) 0.53451(9) 0.82999(6)
H8 H 0.775(2) 0.5760(12) 0.8539(7)
H9 H 0.937(2) 0.5774(12) 0.8096(7)
C7 C 0.95355(17) 0.46367(9) 0.87059(6)
H10 H 1.027(2) 0.4191(12) 0.8417(7)
C8 C 1.0676(2) 0.51433(11) 0.91764(7)
H11 H 1.162(3) 0.5521(14) 0.8988(9)
H12 H 0.994(3) 0.5615(15) 0.9442(10)
H13 H 1.131(3) 0.4668(15) 0.9478(9)
C9 C 1.11610(17) 0.21724(9) 0.87330(6)
C10 C 1.16646(17) 0.11607(9) 0.89186(6)
H14 H 1.236(2) 0.0825(13) 0.8586(8)
H15 H 1.238(2) 0.1171(12) 0.9308(7)
C11 C 0.98689(15) 0.06488(9) 0.90303(5)
C12 C 0.86115(15) 0.14804(8) 0.92813(5)
C13 C 0.90285(18) 0.16495(9) 0.99602(5)
H16 H 0.838(2) 0.2206(10) 1.0134(6)
H17 H 0.870(2) 0.1096(11) 1.0195(7)
H18 H 1.027(2) 0.1808(11) 1.0021(7)
C14 C 0.66367(17) 0.12067(10) 0.92260(6)
H19 H 0.593(3) 0.1671(12) 0.9410(8)
H20 H 0.656(3) 0.0586(14) 0.9388(9)
H21 H 0.613(2) 0.1142(12) 0.8849(8)
C15 C 0.91537(16) 0.02660(9) 0.84179(5)
C16 C 0.91750(15) -0.10057(9) 0.90806(5)
C17 C 0.90315(17) -0.19320(9) 0.93056(6)
H22 H 0.852(2) -0.2453(12) 0.9054(7)
C18 C 0.96896(19) -0.20986(11) 0.98923(6)
H23 H 0.959(3) -0.2702(14) 1.0060(9)
C19 C 1.04823(19) -0.13689(10) 1.02250(6)
H24 H 1.094(3) -0.1508(12) 1.0648(8)
C20 C 1.06372(17) -0.0437(1) 0.99861(6)
H25 H 1.117(2) 0.0033(12) 1.0215(7)
C21 C 0.99280(16) -0.02541(9) 0.94119(5)
C22 C 0.80552(18) -0.12996(9) 0.80078(6)
H26 H 0.894(2) -0.1807(12) 0.7956(7)
H27 H 0.796(2) -0.0885(12) 0.7624(8)
C23 C 0.62763(16) -0.17626(9) 0.81546(5)
C24 C 0.50485(18) -0.13165(10) 0.85374(6)
H28 H 0.537(2) -0.0732(13) 0.8740(8)
C25 C 0.33898(19) -0.17330(11) 0.86502(7)
H29 H 0.250(3) -0.1445(14) 0.8941(9)
C26 C 0.29471(19) -0.26039(11) 0.83804(7)
H30 H 0.169(3) -0.2897(14) 0.8449(8)
C27 C 0.4161(2) -0.30546(10) 0.80023(6)
H31 H 0.394(3) -0.3649(13) 0.7791(8)
C28 C 0.5834(2) -0.26421(10) 0.78919(6)
H32 H 0.678(2) -0.2956(11) 0.7630(7)
#END
