
#######################################################################
#
#                 Cambridge Crystallographic Data Centre
#                                CCDC
#
#######################################################################
#
# If this CIF has been generated from an entry in the Cambridge
# Structural Database, then it will include bibliographic, chemical,
# crystal, experimental, refinement or atomic coordinate data resulting
# from the CCDC's data processing and validation procedures.
#
#######################################################################

data_CSD_CIF_KUTFOU
_audit_creation_date 1993-04-29
_audit_creation_method CSD-ConQuest-V1
_database_code_CSD KUTFOU
_chemical_formula_sum 'C18 H19 N3 O4'
_chemical_formula_moiety
;
C18 H19 N3 O4
;
_journal_coden_Cambridge 582
_journal_volume 22
_journal_year 1992
_journal_page_first 579
_journal_name_full 'J.Crystallogr.Spectrosc.Res. '
loop_
_publ_author_name
"O.Johnson"
"D.W.Jones"
"K.Nagarajan"
"M.M.Bhadbhade"
"K.Venkatesan"
_chemical_name_systematic
;
10-(3-Dimethylaminopropyl)-2-nitro-10,11-dihydrobenz(b,f)(1,4)oxazepin-11-one
;
_cell_volume   3433.964
_exptl_crystal_colour 'yellow'
_exptl_crystal_density_diffrn 1.32
_exptl_special_details
;
related to antidepressant drug Sintamil

;
_diffrn_ambient_temperature ?
_diffrn_special_details
;
The study was carried out at room temperature,in the range 283-303K

;
#These two values have been output from a single CSD field.
_refine_ls_R_factor_gt 0.086
_refine_ls_wR_factor_gt 0.086
_symmetry_cell_setting orthorhombic
_symmetry_space_group_name_H-M 'P b c a'
_symmetry_Int_Tables_number 61
loop_
_symmetry_equiv_pos_site_id
_symmetry_equiv_pos_as_xyz
1 x,y,z
2 1/2-x,1/2+y,z
3 x,1/2-y,1/2+z
4 1/2-x,-y,1/2+z
5 -x,-y,-z
6 -1/2+x,-1/2-y,-z
7 -x,-1/2+y,-1/2-z
8 -1/2+x,y,-1/2-z
_cell_length_a 8.636(2)
_cell_length_b 23.687(3)
_cell_length_c 16.787(3)
_cell_angle_alpha 90
_cell_angle_beta 90
_cell_angle_gamma 90
_cell_formula_units_Z 8
loop_
_atom_type_symbol
_atom_type_radius_bond
C 0.68
N 0.68
O 0.68
loop_
_atom_site_label
_atom_site_type_symbol
_atom_site_fract_x
_atom_site_fract_y
_atom_site_fract_z
C1 C -0.1872(7) 0.2661(3) 0.7905(3)
C2 C -0.2070(8) 0.2907(3) 0.8633(4)
N1 N -0.3191(8) 0.3380(3) 0.8704(4)
O1 O -0.3388(8) 0.3586(3) 0.9357(3)
O2 O -0.3781(8) 0.3548(3) 0.8106(4)
C3 C -0.1256(9) 0.2742(3) 0.9307(4)
C4 C -0.0189(8) 0.2304(3) 0.9222(4)
C5 C 0.0520(7) 0.0698(3) 0.8865(4)
C6 C -0.0086(9) 0.0171(3) 0.8731(4)
C7 C -0.0817(8) 0.0060(3) 0.8013(4)
C8 C -0.0927(7) 0.0473(3) 0.7441(4)
N2 N -0.0314(6) 0.1413(2) 0.6925(3)
C9 C -0.0560(6) 0.1974(3) 0.7013(3)
O3 O -0.0628(5) 0.2289(2) 0.6447(2)
C10 C -0.0819(6) 0.2214(3) 0.7828(3)
C11 C 0.0012(7) 0.2053(3) 0.8507(3)
O4 O 0.1104(4) 0.1624(2) 0.8425(3)
C12 C 0.0436(7) 0.1101(3) 0.8287(4)
C13 C -0.0297(7) 0.1008(3) 0.7544(4)
C14 C -0.0176(8) 0.1210(4) 0.6087(4)
C15 C 0.1374(9) 0.0987(5) 0.5894(4)
C16 C 0.1411(10) 0.0734(4) 0.5073(4)
N3 N 0.1077(6) 0.1123(2) 0.4446(3)
C17 C 0.2294(16) 0.1496(6) 0.4249(10)
C18 C 0.0646(14) 0.0816(5) 0.3752(6)
#END
