
#######################################################################
#
#                 Cambridge Crystallographic Data Centre
#                                CCDC
#
#######################################################################
#
# If this CIF has been generated from an entry in the Cambridge
# Structural Database, then it will include bibliographic, chemical,
# crystal, experimental, refinement or atomic coordinate data resulting
# from the CCDC's data processing and validation procedures.
#
#######################################################################

data_CSD_CIF_KUTGAI
_audit_creation_date 2010-05-25
_audit_creation_method CSD-ConQuest-V1
_database_code_CSD KUTGAI
_database_code_depnum_ccdc_archive 'CCDC 774284'
_chemical_formula_sum 'C11 H14 N2 O5'
_chemical_formula_moiety
;
C11 H14 N2 O5
;
_journal_coeditor_code "IUCr WN2377"
_journal_coden_Cambridge 1370
_journal_volume 66
_journal_year 2010
_journal_page_first o846
_journal_name_full 'Acta Crystallogr.,Sect.E:Struct.Rep.Online '
loop_
_publ_author_name
"A.S.A.Rahim"
"S.A.Hamid"
"S.N.N.Babu"
"W.-S.Loh"
"H.-K.Fun"
_chemical_name_systematic
;
Ethyl 4-((2-hydroxyethyl)amino)-3-nitrobenzoate
;
_cell_volume   1132.498
_exptl_crystal_colour 'yellow'
_exptl_crystal_density_diffrn 1.491
_exptl_crystal_description 'needle'
_diffrn_ambient_temperature 100
#These two values have been output from a single CSD field.
_refine_ls_R_factor_gt 0.0511
_refine_ls_wR_factor_gt 0.0511
_symmetry_cell_setting monoclinic
_symmetry_space_group_name_H-M 'P 21/c'
_symmetry_Int_Tables_number 14
loop_
_symmetry_equiv_pos_site_id
_symmetry_equiv_pos_as_xyz
1 x,y,z
2 -x,1/2+y,1/2-z
3 -x,-y,-z
4 x,-1/2-y,-1/2+z
_cell_length_a 10.6422(6)
_cell_length_b 14.9954(9)
_cell_length_c 7.1975(4)
_cell_angle_alpha 90
_cell_angle_beta 99.607(2)
_cell_angle_gamma 90
_cell_formula_units_Z 4
loop_
_atom_type_symbol
_atom_type_radius_bond
C 0.68
H 0.23
N 0.68
O 0.68
loop_
_atom_site_label
_atom_site_type_symbol
_atom_site_fract_x
_atom_site_fract_y
_atom_site_fract_z
O1 O 0.38669(15) 0.04338(11) 1.1300(3)
O2 O 0.57298(13) 0.09227(10) 1.2508(2)
O3 O 0.04479(14) 0.22764(10) 0.8325(2)
O4 O 0.07343(13) 0.37665(10) 0.8413(2)
O5 O 0.82105(15) 0.33071(11) 1.0883(2)
N1 N 0.46108(17) 0.10564(12) 1.1729(3)
N2 N 0.61527(17) 0.26565(12) 1.2825(3)
C1 C 0.29266(19) 0.20462(14) 1.0362(3)
H1 H 0.24450 0.15390 0.99980
C2 C 0.4166(2) 0.19539(14) 1.1327(3)
C3 C 0.49466(19) 0.27115(14) 1.1919(3)
C4 C 0.43542(19) 0.35571(14) 1.1508(3)
H2 H 0.48110 0.40710 1.19010
C5 C 0.3135(2) 0.36374(14) 1.0555(3)
H3 H 0.27840 0.42020 1.03080
C6 C 0.2402(2) 0.28743(14) 0.9938(3)
C7 C 0.11002(19) 0.29283(14) 0.8828(3)
C8 C -0.05110(19) 0.38757(14) 0.7226(3)
H4 H -0.11430 0.35170 0.77090
H5 H -0.04730 0.36850 0.59490
C9 C -0.0866(2) 0.48440(16) 0.7242(4)
H6 H -0.16950 0.49290 0.65010
H7 H -0.02510 0.51920 0.67220
H8 H -0.08790 0.50310 0.85150
C10 C 0.69687(19) 0.34151(14) 1.3465(3)
H9 H 0.76730 0.32100 1.44000
H10 H 0.64840 0.38410 1.40730
C11 C 0.75012(19) 0.38863(14) 1.1886(3)
H11 H 0.68010 0.41410 1.10110
H12 H 0.80470 0.43720 1.24190
H13 H 0.642(2) 0.2141(18) 1.310(4)
H14 H 0.888(3) 0.3148(18) 1.156(4)
#END
