
#######################################################################
#
#                 Cambridge Crystallographic Data Centre
#                                CCDC
#
#######################################################################
#
# If this CIF has been generated from an entry in the Cambridge
# Structural Database, then it will include bibliographic, chemical,
# crystal, experimental, refinement or atomic coordinate data resulting
# from the CCDC's data processing and validation procedures.
#
#######################################################################

data_CSD_CIF_KUTNUJ
_audit_creation_date 2010-05-13
_audit_creation_method CSD-ConQuest-V1
_database_code_CSD KUTNUJ
_database_code_depnum_ccdc_archive 'CCDC 774318'
_chemical_formula_sum 'C5 H9 N1 O3'
_chemical_formula_moiety
;
C5 H9 N1 O3
;
_journal_coeditor_code "IUCr BQ2193"
_journal_coden_Cambridge 1370
_journal_volume 66
_journal_year 2010
_journal_page_first o887
_journal_name_full 'Acta Crystallogr.,Sect.E:Struct.Rep.Online '
loop_
_publ_author_name
"I.V.Nikolayenko"
"C.Bazzicalupi"
"G.P.Thubron"
"C.Grimmer"
_chemical_name_systematic
;
Ethyl (2E)-2-(hydroxyimino)propanoate
;
_chemical_name_common
;
Ethylpyruvate oxime
;
_chemical_melting_point 369
_cell_volume    665.532
_exptl_crystal_colour 'colorless'
_exptl_crystal_density_diffrn 1.309
_exptl_crystal_description 'prism'
_exptl_crystal_preparation 'ethanol'
_diffrn_ambient_temperature 150
#These two values have been output from a single CSD field.
_refine_ls_R_factor_gt 0.0494
_refine_ls_wR_factor_gt 0.0494
_symmetry_cell_setting monoclinic
_symmetry_space_group_name_H-M 'P 21/c'
_symmetry_Int_Tables_number 14
loop_
_symmetry_equiv_pos_site_id
_symmetry_equiv_pos_as_xyz
1 x,y,z
2 -x,1/2+y,1/2-z
3 -x,-y,-z
4 x,-1/2-y,-1/2+z
_cell_length_a 11.743(1)
_cell_length_b 4.4227(6)
_cell_length_c 16.860(2)
_cell_angle_alpha 90
_cell_angle_beta 130.531(8)
_cell_angle_gamma 90
_cell_formula_units_Z 4
loop_
_atom_type_symbol
_atom_type_radius_bond
C 0.68
H 0.23
N 0.68
O 0.68
loop_
_atom_site_label
_atom_site_type_symbol
_atom_site_fract_x
_atom_site_fract_y
_atom_site_fract_z
O1 O 0.2376(2) 0.4841(4) 0.88980(14)
O2 O 0.5119(2) 1.0534(5) 0.90703(16)
O3 O 0.1496(2) 0.3150(4) 0.73304(15)
N1 N 0.4183(2) 0.8478(5) 0.90293(17)
C1 C 0.3385(3) 0.6943(6) 0.8184(2)
C2 C 0.2319(3) 0.4760(6) 0.8080(2)
C3 C 0.1312(3) 0.2900(7) 0.8827(2)
H1 H 0.15340 0.07920 0.88220
H2 H 0.03010 0.33210 0.81900
C4 C 0.1452(4) 0.3545(7) 0.9759(2)
H3 H 0.12300 0.56370 0.97560
H4 H 0.24550 0.31110 1.03850
H5 H 0.07590 0.23010 0.97350
C5 C 0.3381(4) 0.7196(7) 0.7309(2)
H6 H 0.43680 0.67850 0.75560
H7 H 0.30870 0.92040 0.70260
H8 H 0.26860 0.57620 0.67760
H9 H 0.561(4) 1.124(8) 0.970(3)
#END
