
#######################################################################
#
#                 Cambridge Crystallographic Data Centre
#                                CCDC
#
#######################################################################
#
# If this CIF has been generated from an entry in the Cambridge
# Structural Database, then it will include bibliographic, chemical,
# crystal, experimental, refinement or atomic coordinate data resulting
# from the CCDC's data processing and validation procedures.
#
#######################################################################

data_CSD_CIF_KUVTAY
_audit_creation_date 2015-09-22
_audit_creation_method CSD-ConQuest-V1
_database_code_CSD KUVTAY
_database_code_depnum_ccdc_archive 'CCDC 787186'
_chemical_formula_sum 'C21 H20 N4 O5'
_chemical_formula_moiety
;
C21 H20 N4 O5
;
_journal_coden_Cambridge 1336
_journal_volume 13
_journal_year 2011
_journal_page_first 134
_journal_name_full 'Org.Lett. '
loop_
_publ_author_name
"Zhong-Ke Yao"
"Jianjun Li"
"Zhi-Xiang Yu"
_chemical_name_systematic
;
1-(2,4-dinitrophenyl)-2-(5-(4-methoxyphenyl)cycloocta-2,4-dien-1-ylidene)hydra
zine
;
_cell_volume   1932.138
_exptl_crystal_colour 'red'
_exptl_crystal_density_diffrn 1.404
_exptl_crystal_description 'block'
_diffrn_ambient_temperature 173
#These two values have been output from a single CSD field.
_refine_ls_R_factor_gt 0.0609
_refine_ls_wR_factor_gt 0.0609
_symmetry_cell_setting monoclinic
_symmetry_space_group_name_H-M 'P 21/n'
_symmetry_Int_Tables_number 14
loop_
_symmetry_equiv_pos_site_id
_symmetry_equiv_pos_as_xyz
1 x,y,z
2 1/2-x,1/2+y,1/2-z
3 -x,-y,-z
4 -1/2+x,-1/2-y,-1/2+z
_cell_length_a 11.864(4)
_cell_length_b 8.768(3)
_cell_length_c 18.696(6)
_cell_angle_alpha 90
_cell_angle_beta 96.548(5)
_cell_angle_gamma 90
_cell_formula_units_Z 4
loop_
_atom_type_symbol
_atom_type_radius_bond
C 0.68
H 0.23
N 0.68
O 0.68
loop_
_atom_site_label
_atom_site_type_symbol
_atom_site_fract_x
_atom_site_fract_y
_atom_site_fract_z
O1 O 0.70684(13) 0.4236(2) 0.23615(9)
O2 O -0.06331(14) 0.93268(19) 0.4224(1)
O3 O -0.20200(16) 1.0921(2) 0.42726(12)
O4 O -0.61759(16) 0.7010(2) 0.45494(13)
O5 O -0.58264(16) 0.9354(2) 0.42989(12)
N1 N -0.07532(16) 0.4880(2) 0.4141(1)
N2 N -0.10183(16) 0.6401(2) 0.41363(10)
H1 H -0.04950 0.70950 0.40900
N3 N -0.16539(17) 0.9616(2) 0.42478(11)
N4 N -0.55332(18) 0.8019(3) 0.43946(12)
C1 C 0.7965(2) 0.3180(3) 0.25773(14)
H2 H 0.86530 0.34940 0.23720
H3 H 0.77410 0.21580 0.24040
H4 H 0.81150 0.31680 0.31040
C2 C 0.60485(19) 0.3987(3) 0.26237(13)
C3 C 0.5198(2) 0.5042(3) 0.24107(13)
H5 H 0.53490 0.58660 0.21060
C4 C 0.4135(2) 0.4897(3) 0.26402(12)
H6 H 0.35660 0.56260 0.24870
C5 C 0.38750(19) 0.3702(3) 0.30923(12)
C6 C 0.4753(2) 0.2671(3) 0.33006(13)
H7 H 0.46100 0.18490 0.36090
C7 C 0.5825(2) 0.2804(3) 0.30732(13)
H8 H 0.64010 0.20840 0.32270
C8 C 0.27164(18) 0.3511(3) 0.33080(12)
C9 C 0.17610(19) 0.4452(3) 0.29242(13)
H9 H 0.10600 0.38300 0.28650
H10 H 0.19520 0.47180 0.24380
C10 C 0.1534(2) 0.5927(3) 0.33295(13)
H11 H 0.22060 0.66000 0.33440
H12 H 0.08820 0.64690 0.30660
C11 C 0.12798(19) 0.5606(3) 0.40989(13)
H13 H 0.19640 0.51730 0.43780
H14 H 0.10970 0.65780 0.43300
C12 C 0.03084(18) 0.4518(3) 0.41189(12)
C13 C 0.0484(2) 0.2872(3) 0.41324(12)
H15 H -0.01590 0.22840 0.42190
C14 C 0.14153(19) 0.2063(3) 0.40406(12)
H16 H 0.13500 0.10060 0.41400
C15 C 0.25064(19) 0.2497(3) 0.38182(12)
H17 H 0.31520 0.20040 0.40630
C16 C -0.21029(19) 0.6818(3) 0.42042(12)
C17 C -0.24514(19) 0.8355(3) 0.42435(12)
C18 C -0.35712(19) 0.8747(3) 0.42997(12)
H18 H -0.37890 0.97870 0.43200
C19 C -0.43592(19) 0.7608(3) 0.43254(13)
C20 C -0.4054(2) 0.6080(3) 0.43060(13)
H19 H -0.46070 0.53070 0.43360
C21 C -0.29496(19) 0.5693(3) 0.42428(12)
H20 H -0.27480 0.46460 0.42250
#END
