
#######################################################################
#
#                 Cambridge Crystallographic Data Centre
#                                CCDC
#
#######################################################################
#
# If this CIF has been generated from an entry in the Cambridge
# Structural Database, then it will include bibliographic, chemical,
# crystal, experimental, refinement or atomic coordinate data resulting
# from the CCDC's data processing and validation procedures.
#
#######################################################################

data_CSD_CIF_KUVYAB
_audit_creation_date 1993-06-03
_audit_creation_method CSD-ConQuest-V1
_database_code_CSD KUVYAB
_chemical_formula_sum 'C21 H28 N2 O2'
_chemical_formula_moiety
;
C21 H28 N2 O2
;
_journal_coden_Cambridge 188
_journal_year 1992
_journal_page_first 2179
_journal_name_full 'J.Chem.Soc.,Perkin Trans.2 '
loop_
_publ_author_name
"D.Maes"
"M.Van Cauteren"
"L.Wyns"
"J.Lisgarten"
"R.Palmer"
"D.Lisgarten"
"R.Willem"
"M.Biesemans"
"F.Kayser"
_chemical_name_systematic
;
(1,2,5)Oxadiazolo(3',4':3,4)-5\a-pregn-16-en-20-one
;
_chemical_name_common
;
HS974
;
_cell_volume   1838.159
_exptl_crystal_colour 'colorless'
_exptl_crystal_density_diffrn 1.23
_diffrn_ambient_temperature ?
_diffrn_special_details
;
The study was carried out at room temperature,in the range 283-303K

;
#These two values have been output from a single CSD field.
_refine_ls_R_factor_gt 0.078
_refine_ls_wR_factor_gt 0.078
_symmetry_cell_setting orthorhombic
_symmetry_space_group_name_H-M 'P 21 21 21'
_symmetry_Int_Tables_number 19
loop_
_symmetry_equiv_pos_site_id
_symmetry_equiv_pos_as_xyz
1 x,y,z
2 1/2+x,1/2-y,-z
3 -x,1/2+y,1/2-z
4 1/2-x,-y,1/2+z
_cell_length_a 21.571(6)
_cell_length_b 13.606(4)
_cell_length_c 6.263(3)
_cell_angle_alpha 90
_cell_angle_beta 90
_cell_angle_gamma 90
_cell_formula_units_Z 4
loop_
_atom_type_symbol
_atom_type_radius_bond
C 0.68
H 0.23
N 0.68
O 0.68
loop_
_atom_site_label
_atom_site_type_symbol
_atom_site_fract_x
_atom_site_fract_y
_atom_site_fract_z
C1 C 0.3858(2) 0.6340(2) 0.9278(5)
C2 C 0.3806(2) 0.7424(3) 0.8609(5)
C3 C 0.4172(2) 0.7600(3) 0.6640(5)
C4 C 0.4455(2) 0.6851(3) 0.5438(6)
C5 C 0.4443(2) 0.5782(3) 0.6076(5)
C6 C 0.4551(2) 0.5064(3) 0.4273(5)
C7 C 0.4537(2) 0.4011(3) 0.5100(6)
C8 C 0.3947(1) 0.3793(2) 0.6367(5)
C9 C 0.3873(1) 0.4535(2) 0.8225(4)
C10 C 0.3845(1) 0.5607(2) 0.7396(4)
C11 C 0.3331(2) 0.4268(2) 0.9727(5)
C12 C 0.3322(2) 0.3193(2) 1.0447(5)
C13 C 0.3343(1) 0.2514(2) 0.8527(5)
C14 C 0.3949(1) 0.2760(2) 0.7297(5)
C15 C 0.4063(2) 0.1846(3) 0.5920(6)
C16 C 0.3828(2) 0.1063(3) 0.7403(7)
C17 C 0.3449(2) 0.1428(3) 0.8919(6)
C18 C 0.2758(2) 0.2611(3) 0.7153(6)
C19 C 0.3264(2) 0.5780(3) 0.6028(6)
C20 C 0.3109(2) 0.0854(3) 1.0549(8)
C21 C 0.3289(3) -0.0195(4) 1.0922(11)
N1 N 0.4722(2) 0.7220(3) 0.3739(5)
N2 N 0.4266(2) 0.8447(3) 0.5707(6)
O1 O 0.2692(2) 0.1235(3) 1.1563(7)
O2 O 0.4614(2) 0.8229(2) 0.3886(5)
H1 H 0.4291(2) 0.6252(2) 1.0121(5)
H2 H 0.3478(2) 0.6163(2) 1.0333(5)
H3 H 0.3970(2) 0.7891(3) 0.9884(5)
H4 H 0.3326(2) 0.7589(3) 0.8279(5)
H5 H 0.4833(2) 0.5587(3) 0.7071(5)
H6 H 0.4196(2) 0.5159(3) 0.3077(5)
H7 H 0.5000(2) 0.5216(3) 0.3579(5)
H8 H 0.4933(2) 0.3891(3) 0.6126(6)
H9 H 0.4562(2) 0.3517(3) 0.3752(6)
H10 H 0.3565(1) 0.3864(2) 0.5263(5)
H11 H 0.4281(1) 0.4474(2) 0.9213(4)
H12 H 0.2903(2) 0.4414(2) 0.8888(5)
H13 H 0.3358(2) 0.4730(2) 1.1125(5)
H14 H 0.2902(2) 0.3051(2) 1.1335(5)
H15 H 0.3719(2) 0.3059(2) 1.1456(5)
H16 H 0.4365(1) 0.2846(2) 0.8241(5)
H17 H 0.4546(2) 0.1748(3) 0.5523(6)
H18 H 0.3792(2) 0.1878(3) 0.4470(6)
H19 H 0.3867(2) 0.0272(3) 0.7359(7)
H20 H 0.2673(2) 0.3367(3) 0.6713(6)
H21 H 0.2378(2) 0.2344(3) 0.8112(6)
H22 H 0.2798(2) 0.2169(3) 0.5728(6)
H23 H 0.2875(2) 0.5763(3) 0.7110(6)
H24 H 0.3223(2) 0.5186(3) 0.4892(6)
H25 H 0.3271(2) 0.6473(3) 0.5189(6)
H26 H 0.3754(3) -0.0386(4) 1.0437(11)
H27 H 0.2960(3) -0.0567(4) 0.9907(11)
H28 H 0.3217(3) -0.0417(4) 1.2559(11)
#END
