
#######################################################################
#
#                 Cambridge Crystallographic Data Centre
#                                CCDC
#
#######################################################################
#
# If this CIF has been generated from an entry in the Cambridge
# Structural Database, then it will include bibliographic, chemical,
# crystal, experimental, refinement or atomic coordinate data resulting
# from the CCDC's data processing and validation procedures.
#
#######################################################################

data_CSD_CIF_KUXSEC
_audit_creation_date 2010-10-04
_audit_creation_method CSD-ConQuest-V1
_database_code_CSD KUXSEC
_database_code_depnum_ccdc_archive 'CCDC 635325'
_chemical_formula_sum 'C5 H7 N3 O2'
_chemical_formula_moiety
;
C5 H7 N3 O2
;
_journal_coden_Cambridge 1137
_journal_volume 22
_journal_year 2009
_journal_page_first 1086
_journal_name_full 'J.Phys.Org.Chem. '
loop_
_publ_author_name
"A.Mugnoli"
"G.Barone"
"S.Buscemi"
"C.Z.Lanza"
"A.Pace"
"M.Pani"
"D.Spinelli"
_chemical_name_systematic
;
N-(5-Methyl-1,2,4-oxadiazol-3-yl)acetamide
;
_chemical_name_common
;
3-Acetylamino-5-methyl-1,2,4-oxadiazole
;
_chemical_melting_point 436
_cell_volume    670.830
_exptl_crystal_colour 'colorless'
_exptl_crystal_density_diffrn 1.397
_exptl_crystal_description 'platelet'
_diffrn_ambient_temperature 293
#These two values have been output from a single CSD field.
_refine_ls_R_factor_gt 0.0401
_refine_ls_wR_factor_gt 0.0401
_symmetry_cell_setting monoclinic
_symmetry_space_group_name_H-M 'P 21/c'
_symmetry_Int_Tables_number 14
loop_
_symmetry_equiv_pos_site_id
_symmetry_equiv_pos_as_xyz
1 x,y,z
2 -x,1/2+y,1/2-z
3 -x,-y,-z
4 x,-1/2-y,-1/2+z
_cell_length_a 7.949(2)
_cell_length_b 9.668(1)
_cell_length_c 8.840(2)
_cell_angle_alpha 90
_cell_angle_beta 99.09(2)
_cell_angle_gamma 90
_cell_formula_units_Z 4
loop_
_atom_type_symbol
_atom_type_radius_bond
C 0.68
H 0.23
N 0.68
O 0.68
loop_
_atom_site_label
_atom_site_type_symbol
_atom_site_fract_x
_atom_site_fract_y
_atom_site_fract_z
O1 O 0.88475(15) 0.75227(11) 0.60979(13)
N1 N 0.75280(19) 0.72982(13) 0.48221(16)
C1 C 0.70266(18) 0.85604(13) 0.44904(16)
N2 N 0.78611(16) 0.95774(11) 0.53911(14)
C2 C 0.89429(19) 0.88822(14) 0.63386(17)
C3 C 1.0230(3) 0.9358(2) 0.7623(2)
N3 N 0.57524(16) 0.89208(12) 0.33076(14)
C4 C 0.47978(18) 0.80172(14) 0.23393(16)
O2 O 0.49904(17) 0.67734(11) 0.24782(14)
C5 C 0.3532(2) 0.86661(18) 0.1115(2)
H1 H 0.993(3) 0.907(3) 0.858(3)
H2 H 1.132(4) 0.893(3) 0.754(3)
H3 H 1.036(3) 1.028(3) 0.762(3)
H4 H 0.554(2) 0.9771(19) 0.319(2)
H5 H 0.24530 0.82090 0.10680
H6 H 0.39230 0.85790 0.01460
H7 H 0.34070 0.96270 0.13460
#END
