
#######################################################################
#
#                 Cambridge Crystallographic Data Centre
#                                CCDC
#
#######################################################################
#
# If this CIF has been generated from an entry in the Cambridge
# Structural Database, then it will include bibliographic, chemical,
# crystal, experimental, refinement or atomic coordinate data resulting
# from the CCDC's data processing and validation procedures.
#
#######################################################################

data_CSD_CIF_KUYVAD
_audit_creation_date 2016-01-18
_audit_creation_method CSD-ConQuest-V1
_database_code_CSD KUYVAD
_database_code_depnum_ccdc_archive 'CCDC 1401574'
_chemical_formula_sum 'C12 H10 N8 O8'
_chemical_formula_moiety
;
C12 H10 N8 O8
;
_journal_coden_Cambridge 1286
_journal_volume 83
_journal_year 2016
_journal_page_first 70
_journal_name_full 'Vibrational Spectroscopy '
loop_
_publ_author_name
"E.Kucharska"
"I.Bryndal"
"T.Lis"
"J.Lorenc"
"J.Hanuza"
_chemical_name_systematic
;
2,2'-hydrazine-1,2-diylbis(6-methyl-3,5-dinitropyridine)
;
_cell_volume    769.694
_exptl_crystal_density_diffrn 1.701
_diffrn_ambient_temperature 100
#These two values have been output from a single CSD field.
_refine_ls_R_factor_gt 0.0486
_refine_ls_wR_factor_gt 0.0486
_symmetry_cell_setting monoclinic
_symmetry_space_group_name_H-M 'P 21/n'
_symmetry_Int_Tables_number 14
loop_
_symmetry_equiv_pos_site_id
_symmetry_equiv_pos_as_xyz
1 x,y,z
2 1/2-x,1/2+y,1/2-z
3 -x,-y,-z
4 -1/2+x,-1/2-y,-1/2+z
_cell_length_a 6.772(2)
_cell_length_b 16.608(5)
_cell_length_c 6.844(2)
_cell_angle_alpha 90
_cell_angle_beta 90.63(5)
_cell_angle_gamma 90
_cell_formula_units_Z 2
loop_
_atom_type_symbol
_atom_type_radius_bond
C 0.68
H 0.23
N 0.68
O 0.68
loop_
_atom_site_label
_atom_site_type_symbol
_atom_site_fract_x
_atom_site_fract_y
_atom_site_fract_z
N1 N 0.4861(3) 0.57524(13) 0.2098(3)
C1 C 0.3540(4) 0.56708(15) 0.3555(3)
N2 N 0.4096(3) 0.51939(13) 0.5034(3)
H1 H 0.334(4) 0.5077(15) 0.604(3)
C2 C 0.1705(4) 0.60759(15) 0.3466(3)
N3 N 0.0269(3) 0.60273(14) 0.5057(3)
O1 O 0.0672(3) 0.5590(1) 0.6479(2)
O2 O -0.1273(3) 0.64133(11) 0.4879(2)
C3 C 0.1246(4) 0.65259(15) 0.1860(3)
H2 H 0.00120 0.67960 0.17690
C4 C 0.2603(4) 0.65853(15) 0.0352(3)
N4 N 0.1989(3) 0.70618(13) -0.1340(3)
O3 O 0.0394(3) 0.74139(11) -0.1294(2)
O4 O 0.3071(3) 0.70707(11) -0.2800(2)
C5 C 0.4467(4) 0.62123(15) 0.0539(3)
C6 C 0.6147(4) 0.62930(17) -0.0871(3)
H3 H 0.72360 0.59420 -0.04580
H4 H 0.66020 0.68530 -0.08910
H5 H 0.56960 0.61370 -0.21830
N1B N 0.5139(3) 0.42476(13) 0.7902(3)
C1B C 0.6460(4) 0.43292(15) 0.6445(3)
N2B N 0.5904(3) 0.48061(13) 0.4966(3)
H1B H 0.666(4) 0.4923(15) 0.396(3)
C2B C 0.8295(4) 0.39241(15) 0.6534(3)
N3B N 0.9731(3) 0.39727(14) 0.4943(3)
O1B O 0.9328(3) 0.4410(1) 0.3521(2)
O2B O 1.1273(3) 0.35867(11) 0.5121(2)
C3B C 0.8754(4) 0.34741(15) 0.8140(3)
H2B H 0.99880 0.32040 0.82310
C4B C 0.7397(4) 0.34147(15) 0.9648(3)
N4B N 0.8011(3) 0.29382(13) 1.1340(3)
O3B O 0.9606(3) 0.25861(11) 1.1294(2)
O4B O 0.6929(3) 0.29293(11) 1.2800(2)
C5B C 0.5533(4) 0.37877(15) 0.9461(3)
C6B C 0.3853(4) 0.37070(17) 1.0871(3)
H3B H 0.27640 0.40580 1.04580
H4B H 0.33980 0.31470 1.08910
H5B H 0.43040 0.38630 1.21830
#END
