
#######################################################################
#
#                 Cambridge Crystallographic Data Centre
#                                CCDC
#
#######################################################################
#
# If this CIF has been generated from an entry in the Cambridge
# Structural Database, then it will include bibliographic, chemical,
# crystal, experimental, refinement or atomic coordinate data resulting
# from the CCDC's data processing and validation procedures.
#
#######################################################################

data_CSD_CIF_KUYVEF
_audit_creation_date 1993-08-06
_audit_creation_method CSD-ConQuest-V1
_database_code_CSD KUYVEF
_chemical_formula_sum 'C16 H16 N2 O7'
_chemical_formula_moiety
;
C16 H16 N2 O7
;
_journal_coden_Cambridge 4
_journal_volume 114
_journal_year 1992
_journal_page_first 9419
_journal_name_full 'J.Am.Chem.Soc. '
loop_
_publ_author_name
"A.B.Smith III"
"J.R.Empfield"
"R.A.Rivero"
"H.A.Vaccaro"
"J.J.-W.Duan"
"M.M.Sulikowski"
_chemical_name_systematic
;
1,4-Epoxy-3,5-ethano-1-methyl-2-cyclohexyl 2,4-dinitrobenzoate
;
_chemical_melting_point 426.15
_cell_volume   1574.491
_exptl_crystal_colour 'white'
_exptl_crystal_density_diffrn 1.469
_exptl_special_details
;
Melting point range 426.15-428.15K

;
_diffrn_ambient_temperature ?
_diffrn_special_details
;
The study was carried out at room temperature,in the range 283-303K

;
#These two values have been output from a single CSD field.
_refine_ls_R_factor_gt 0.065
_refine_ls_wR_factor_gt 0.065
_symmetry_cell_setting monoclinic
_symmetry_space_group_name_H-M 'P 21/n'
_symmetry_Int_Tables_number 14
loop_
_symmetry_equiv_pos_site_id
_symmetry_equiv_pos_as_xyz
1 x,y,z
2 1/2-x,1/2+y,1/2-z
3 -x,-y,-z
4 -1/2+x,-1/2-y,-1/2+z
_cell_length_a 6.213(1)
_cell_length_b 9.783(1)
_cell_length_c 25.904(4)
_cell_angle_alpha 90
_cell_angle_beta 90.05(1)
_cell_angle_gamma 90
_cell_formula_units_Z 4
loop_
_atom_type_symbol
_atom_type_radius_bond
C 0.68
H 0.23
N 0.68
O 0.68
loop_
_atom_site_label
_atom_site_type_symbol
_atom_site_fract_x
_atom_site_fract_y
_atom_site_fract_z
C1 C 0.5189(7) 0.2921(4) 0.2751(2)
C2 C 0.4454(6) 0.3288(4) 0.3237(2)
C3 C 0.5524(7) 0.2999(4) 0.3682(2)
C4 C 0.7473(7) 0.2277(4) 0.3632(2)
C5 C 0.8258(7) 0.1868(4) 0.3165(2)
C6 C 0.7137(6) 0.2194(4) 0.2720(2)
C7 C 0.8112(7) 0.1831(5) 0.2221(2)
C8 C 0.8098(7) 0.2179(5) 0.1308(1)
C9 C 0.9471(6) 0.3392(5) 0.1149(2)
C10 C 1.0505(7) 0.3042(5) 0.0629(2)
C11 C 0.8585(7) 0.3030(5) 0.0254(2)
C12 C 0.6808(6) 0.3516(4) 0.0624(2)
C13 C 0.6266(7) 0.2194(5) 0.0914(2)
C14 C 1.0939(8) 0.4004(5) 0.1553(2)
C15 C 0.6411(8) 0.1066(5) 0.0502(2)
C16 C 0.7900(7) 0.1617(5) 0.0076(2)
N1 N 0.8729(6) 0.2005(4) 0.4102(1)
N2 N 0.2450(5) 0.4101(4) 0.3274(1)
O1 O 0.7153(4) 0.2399(3) 0.1820(1)
O2 O 0.7920(5) 0.2255(4) 0.4522(1)
O3 O 1.0542(5) 0.1544(4) 0.4047(1)
O4 O 0.1349(4) 0.4208(4) 0.2888(1)
O5 O 0.2008(5) 0.4601(4) 0.3688(1)
O6 O 0.9664(5) 0.1109(4) 0.2193(1)
O7 O 0.7842(4) 0.4365(3) 0.0998(1)
H1 H 0.89220 0.13550 0.13200
H2 H 0.88850 0.35520 -0.00460
H3 H 0.56190 0.39680 0.04570
H4 H 0.48860 0.20930 0.10840
H5 H 0.43680 0.31670 0.24420
H6 H 0.49760 0.33210 0.40130
H7 H 0.95750 0.13380 0.31430
H8 H 1.12070 0.21800 0.06390
H9 H 1.15390 0.37270 0.05350
H10 H 0.49980 0.08770 0.03650
H11 H 0.69520 0.02450 0.06520
H12 H 0.91360 0.10280 0.00440
H13 H 0.71810 0.16520 -0.02430
H14 H 1.00000 0.41800 0.18950
H15 H 1.15530 0.48220 0.14230
H16 H 1.20940 0.33680 0.16230
#END
