
#######################################################################
#
#                 Cambridge Crystallographic Data Centre
#                                CCDC
#
#######################################################################
#
# If this CIF has been generated from an entry in the Cambridge
# Structural Database, then it will include bibliographic, chemical,
# crystal, experimental, refinement or atomic coordinate data resulting
# from the CCDC's data processing and validation procedures.
#
#######################################################################

data_CSD_CIF_KUZJUL
_audit_creation_date 2010-11-24
_audit_creation_method CSD-ConQuest-V1
_database_code_CSD KUZJUL
_database_code_depnum_ccdc_archive 'CCDC 797749'
_chemical_formula_sum 'C12 H11 N3 O3'
_chemical_formula_moiety
;
C12 H11 N3 O3
;
_journal_coeditor_code "IUCr HB5634"
_journal_coden_Cambridge 1370
_journal_volume 66
_journal_year 2010
_journal_page_first o2539
_journal_name_full 'Acta Crystallogr.,Sect.E:Struct.Rep.Online '
loop_
_publ_author_name
"A.M.Asiri"
"S.A.Khan"
"M.N.Tahir"
_chemical_name_systematic
;
3,4-Dimethyl-N-[(E)-3-nitrobenzylidene]-1,2-oxazol-5-amine
;
_cell_volume   1152.210
_exptl_crystal_colour 'colorless'
_exptl_crystal_density_diffrn 1.414
_exptl_crystal_description 'needle'
_diffrn_ambient_temperature 296
#These two values have been output from a single CSD field.
_refine_ls_R_factor_gt 0.0607
_refine_ls_wR_factor_gt 0.0607
_symmetry_cell_setting monoclinic
_symmetry_space_group_name_H-M 'P 21/c'
_symmetry_Int_Tables_number 14
loop_
_symmetry_equiv_pos_site_id
_symmetry_equiv_pos_as_xyz
1 x,y,z
2 -x,1/2+y,1/2-z
3 -x,-y,-z
4 x,-1/2-y,-1/2+z
_cell_length_a 12.602(2)
_cell_length_b 3.9267(6)
_cell_length_c 23.366(4)
_cell_angle_alpha 90
_cell_angle_beta 94.791(9)
_cell_angle_gamma 90
_cell_formula_units_Z 4
loop_
_atom_type_symbol
_atom_type_radius_bond
C 0.68
H 0.23
N 0.68
O 0.68
loop_
_atom_site_label
_atom_site_type_symbol
_atom_site_fract_x
_atom_site_fract_y
_atom_site_fract_z
O1 O 0.0661(2) 0.9618(9) 0.11316(16)
O2 O 0.0217(3) 0.7756(9) 0.19373(16)
O3 O 0.5961(2) 0.7628(6) 0.02581(12)
N1 N 0.0873(3) 0.8153(10) 0.15894(19)
N2 N 0.5490(3) 0.5694(8) 0.11691(13)
N3 N 0.6882(3) 0.7702(8) -0.00509(15)
C1 C 0.3736(3) 0.6218(9) 0.14659(17)
C2 C 0.3985(3) 0.4605(10) 0.19866(18)
C3 C 0.3218(4) 0.4146(10) 0.23763(18)
C4 C 0.2194(4) 0.5255(10) 0.22380(19)
C5 C 0.1954(3) 0.6856(10) 0.17248(19)
C6 C 0.2697(3) 0.7379(9) 0.13294(17)
C7 C 0.4530(3) 0.6720(9) 0.10518(17)
C8 C 0.6232(3) 0.6142(10) 0.07766(17)
C9 C 0.7266(3) 0.5238(9) 0.08165(17)
C10 C 0.7629(3) 0.6275(9) 0.02938(19)
C11 C 0.8723(3) 0.5881(10) 0.00968(19)
C12 C 0.7889(3) 0.3614(10) 0.13104(17)
H1 H 0.46743 0.38159 0.20778
H2 H 0.33974 0.30952 0.27277
H3 H 0.16713 0.49195 0.24908
H4 H 0.25095 0.84733 0.09826
H5 H 0.43386 0.77846 0.07029
H6 H 0.87321 0.67477 -0.02869
H7 H 0.89153 0.35146 0.01024
H8 H 0.92235 0.71279 0.03486
H9 H 0.82773 0.53290 0.15333
H10 H 0.83789 0.20017 0.11712
H11 H 0.74137 0.24627 0.15460
#END
