
#######################################################################
#
#                 Cambridge Crystallographic Data Centre
#                                CCDC
#
#######################################################################
#
# If this CIF has been generated from an entry in the Cambridge
# Structural Database, then it will include bibliographic, chemical,
# crystal, experimental, refinement or atomic coordinate data resulting
# from the CCDC's data processing and validation procedures.
#
#######################################################################

data_CSD_CIF_KUZQUT
_audit_creation_date 2016-01-18
_audit_creation_method CSD-ConQuest-V1
_database_code_CSD KUZQUT
_database_code_depnum_ccdc_archive 'CCDC 988420'
_chemical_formula_sum 'C12 H15 N1 O4'
_chemical_formula_moiety
;
C12 H15 N1 O4
;
_journal_coden_Cambridge 1194
_journal_volume 321
_journal_year 2016
_journal_page_first 41
_journal_name_full 'J.Photochem.Photobiol.A:Chem. '
loop_
_publ_author_name
"N.C.Kasuga"
"Y.Saito"
"N.Okamura"
"T.Miyazaki"
"H.Satou"
"K.Watanabe"
"T.Ohta"
"S.Morimoto"
"K.Yamaguchi"
_chemical_name_systematic
;
3a-isopropyl-5,6-dimethoxy-2,1-benzoxazol-3(3aH)-one
;
_cell_volume   2341.388
_exptl_crystal_colour 'brown'
_exptl_crystal_density_diffrn 1.346
_exptl_crystal_description 'block'
_diffrn_ambient_temperature 110
#These two values have been output from a single CSD field.
_refine_ls_R_factor_gt 0.0463
_refine_ls_wR_factor_gt 0.0463
_symmetry_cell_setting orthorhombic
_symmetry_space_group_name_H-M 'P b c n'
_symmetry_Int_Tables_number 60
loop_
_symmetry_equiv_pos_site_id
_symmetry_equiv_pos_as_xyz
1 x,y,z
2 1/2-x,1/2-y,1/2+z
3 1/2+x,1/2-y,-z
4 -x,y,1/2-z
5 -x,-y,-z
6 -1/2+x,-1/2+y,-1/2-z
7 -1/2-x,-1/2+y,z
8 x,-y,-1/2+z
_cell_length_a 13.170(5)
_cell_length_b 9.398(4)
_cell_length_c 18.917(7)
_cell_angle_alpha 90
_cell_angle_beta 90
_cell_angle_gamma 90
_cell_formula_units_Z 8
loop_
_atom_type_symbol
_atom_type_radius_bond
C 0.68
H 0.23
N 0.68
O 0.68
loop_
_atom_site_label
_atom_site_type_symbol
_atom_site_fract_x
_atom_site_fract_y
_atom_site_fract_z
C1 C 0.52767(10) 0.22485(15) 0.57201(8)
C2 C 0.43542(10) 0.29249(14) 0.60565(7)
C3 C 0.44223(10) 0.44713(14) 0.62641(7)
H1 H 0.47940 0.51310 0.59850
C4 C 0.3942(1) 0.48889(14) 0.68544(7)
C5 C 0.34272(10) 0.38466(14) 0.73249(7)
C6 C 0.35781(10) 0.24267(14) 0.72563(7)
H2 H 0.32690 0.17570 0.75650
C7 C 0.42351(10) 0.19979(14) 0.66876(7)
C8 C 0.34175(10) 0.26910(14) 0.55362(7)
H3 H 0.28090 0.31210 0.57690
C9 C 0.35678(11) 0.34709(16) 0.48341(7)
H4 H 0.40780 0.29700 0.45510
H5 H 0.37990 0.44450 0.49260
H6 H 0.29230 0.34980 0.45760
C10 C 0.31704(12) 0.11255(15) 0.54002(9)
H7 H 0.25680 0.10570 0.50980
H8 H 0.30380 0.06470 0.58510
H9 H 0.37470 0.06690 0.51640
C11 C 0.23398(11) 0.35606(17) 0.83136(7)
H10 H 0.19470 0.28450 0.80550
H11 H 0.18830 0.41240 0.86120
H12 H 0.28460 0.30850 0.86110
C12 C 0.43206(13) 0.73226(15) 0.66732(8)
H13 H 0.50530 0.71450 0.66480
H14 H 0.41990 0.82570 0.68870
H15 H 0.40330 0.73050 0.61960
N1 N 0.47776(10) 0.08498(13) 0.66737(7)
O1 O 0.58063(8) 0.26376(12) 0.52423(6)
O2 O 0.54207(8) 0.09570(11) 0.60416(6)
O3 O 0.38488(8) 0.6244(1) 0.70946(5)
O4 O 0.28454(8) 0.44821(10) 0.78197(5)
#END
