
#######################################################################
#
#                 Cambridge Crystallographic Data Centre
#                                CCDC
#
#######################################################################
#
# If this CIF has been generated from an entry in the Cambridge
# Structural Database, then it will include bibliographic, chemical,
# crystal, experimental, refinement or atomic coordinate data resulting
# from the CCDC's data processing and validation procedures.
#
#######################################################################

data_CSD_CIF_LABMEJ
_audit_creation_date 2016-02-15
_audit_creation_method CSD-ConQuest-V1
_database_code_CSD LABMEJ
_database_code_depnum_ccdc_archive 'CCDC 1453322'
_chemical_formula_sum 'C29 H22 N2 O2'
_chemical_formula_moiety
;
C29 H22 N2 O2
;
_journal_coden_Cambridge 1500
_journal_volume 6
_journal_year 2016
_journal_page_first 58549
_journal_name_full 'RSC Advances '
loop_
_publ_author_name
"U.Balijapalli"
"S.Manickam"
"M.D.Thiyagarajan"
"S.K.Iyer"
_chemical_name_systematic
;
5-(2-(4-nitrophenyl)vinyl)-7,8,13,14-tetrahydrodibenzo[a,i]phenanthridine
;
_cell_volume   2146.360
_exptl_crystal_density_diffrn 1.332
_diffrn_ambient_temperature 296
#These two values have been output from a single CSD field.
_refine_ls_R_factor_gt 0.0516
_refine_ls_wR_factor_gt 0.0516
_symmetry_cell_setting monoclinic
_symmetry_space_group_name_H-M 'P 21/c'
_symmetry_Int_Tables_number 14
loop_
_symmetry_equiv_pos_site_id
_symmetry_equiv_pos_as_xyz
1 x,y,z
2 -x,1/2+y,1/2-z
3 -x,-y,-z
4 x,-1/2-y,-1/2+z
_cell_length_a 7.6171(9)
_cell_length_b 21.660(3)
_cell_length_c 13.2670(17)
_cell_angle_alpha 90
_cell_angle_beta 101.311(4)
_cell_angle_gamma 90
_cell_formula_units_Z 4
loop_
_atom_type_symbol
_atom_type_radius_bond
C 0.68
H 0.23
N 0.68
O 0.68
loop_
_atom_site_label
_atom_site_type_symbol
_atom_site_fract_x
_atom_site_fract_y
_atom_site_fract_z
N1 N 0.2833(3) 0.47197(9) 0.56985(15)
C1 C 0.3513(3) 0.38950(11) 0.28709(18)
C2 C 0.2566(3) 0.50782(11) 0.48519(18)
C3 C 0.2571(3) 0.49585(12) 0.65767(19)
C4 C 0.3398(3) 0.42086(11) 0.38259(19)
H1 H 0.38320 0.39990 0.44360
C5 C 0.2726(3) 0.47690(11) 0.39005(19)
H2 H 0.23210 0.49820 0.32910
C6 C 0.1920(3) 0.55583(11) 0.66793(18)
C7 C 0.2023(3) 0.56943(11) 0.48864(18)
C8 C 0.3261(4) 0.41971(13) 0.1931(2)
H3 H 0.29740 0.46150 0.19000
C9 C 0.0583(4) 0.65722(11) 0.3850(2)
C10 C 0.1569(3) 0.59218(11) 0.57915(19)
C11 C 0.1718(3) 0.57575(12) 0.77184(19)
C12 C 0.3835(4) 0.32773(14) 0.1097(2)
C13 C 0.3935(4) 0.32717(12) 0.2882(2)
H4 H 0.41220 0.30590 0.35030
C14 C 0.3138(4) 0.61052(12) 0.3351(2)
H5 H 0.40990 0.58320 0.34860
C15 C 0.0635(4) 0.65401(12) 0.5712(2)
H6 H 0.15220 0.68660 0.58450
H7 H -0.01020 0.65660 0.62300
C16 C 0.4084(4) 0.29591(14) 0.1999(2)
H8 H 0.43500 0.25400 0.20180
C17 C 0.2921(4) 0.45357(13) 0.7489(2)
H9 H 0.41080 0.46140 0.78900
H10 H 0.28780 0.41100 0.72570
C18 C 0.1910(3) 0.61191(11) 0.40036(19)
C19 C 0.3425(4) 0.38942(15) 0.1049(2)
H11 H 0.32620 0.41040 0.04260
N2 N 0.4068(4) 0.29601(16) 0.0165(2)
C20 C 0.1801(4) 0.63697(14) 0.8040(2)
H12 H 0.19560 0.66770 0.75760
C21 C 0.2949(4) 0.64903(13) 0.2509(2)
H13 H 0.37690 0.64740 0.20740
C22 C 0.1564(4) 0.53012(14) 0.8452(2)
C23 C -0.0531(4) 0.66332(13) 0.4655(2)
H14 H -0.14810 0.63280 0.45390
H15 H -0.10760 0.70400 0.46140
C24 C 0.1488(4) 0.54770(16) 0.9446(2)
H16 H 0.14250 0.51750 0.99350
O1 O 0.4630(4) 0.24316(14) 0.0244(2)
O2 O 0.3747(5) 0.32362(16) -0.0650(2)
C25 C 0.0388(4) 0.69477(13) 0.2990(2)
H17 H -0.05320 0.72370 0.28660
C26 C 0.1550(4) 0.46334(13) 0.8151(2)
H18 H 0.03720 0.45190 0.77740
H19 H 0.18320 0.43770 0.87610
C27 C 0.1541(5) 0.68973(14) 0.2317(2)
H20 H 0.13670 0.71400 0.17280
C28 C 0.1662(4) 0.65338(16) 0.9019(2)
H21 H 0.16750 0.69480 0.92030
C29 C 0.1504(5) 0.60885(18) 0.9726(2)
H22 H 0.14080 0.61980 1.03910
#END
