
#######################################################################
#
#                 Cambridge Crystallographic Data Centre
#                                CCDC
#
#######################################################################
#
# If this CIF has been generated from an entry in the Cambridge
# Structural Database, then it will include bibliographic, chemical,
# crystal, experimental, refinement or atomic coordinate data resulting
# from the CCDC's data processing and validation procedures.
#
#######################################################################

data_CSD_CIF_LABVEP
_audit_creation_date 1993-06-03
_audit_creation_method CSD-ConQuest-V1
_database_code_CSD LABVEP
_chemical_formula_sum 'C9 H7 N1 O4'
_chemical_formula_moiety
;
C9 H7 N1 O4
;
_journal_coeditor_code "IUCr OH1006"
_journal_coden_Cambridge 591
_journal_volume 49
_journal_year 1993
_journal_page_first 833
_journal_name_full 'Acta Crystallogr.,Sect.C:Cryst.Struct.Commun. '
loop_
_publ_author_name
"Y.Kageyama"
"T.Iwamoto"
"M.Haisa"
"S.Kashino"
_chemical_name_systematic
;
p-Nitrocinnamic acid
;
_cell_volume    839.840
_exptl_crystal_colour 'colorless'
_exptl_crystal_density_diffrn 1.527
_diffrn_ambient_temperature ?
_diffrn_special_details
;
The study was carried out at room temperature,in the range 283-303K

;
#These two values have been output from a single CSD field.
_refine_ls_R_factor_gt 0.045
_refine_ls_wR_factor_gt 0.045
_symmetry_cell_setting monoclinic
_symmetry_space_group_name_H-M 'P 21/a'
_symmetry_Int_Tables_number 14
loop_
_symmetry_equiv_pos_site_id
_symmetry_equiv_pos_as_xyz
1 x,y,z
2 1/2-x,1/2+y,-z
3 -x,-y,-z
4 -1/2+x,-1/2-y,z
_cell_length_a 27.729(5)
_cell_length_b 5.0311(7)
_cell_length_c 6.105(1)
_cell_angle_alpha 90
_cell_angle_beta 99.57(2)
_cell_angle_gamma 90
_cell_formula_units_Z 4
loop_
_atom_type_symbol
_atom_type_radius_bond
C 0.68
H 0.23
N 0.68
O 0.68
loop_
_atom_site_label
_atom_site_type_symbol
_atom_site_fract_x
_atom_site_fract_y
_atom_site_fract_z
O1 O 0.50023(4) 1.3330(2) 0.2491(2)
O2 O 0.45399(4) 1.2762(2) -0.0802(2)
O3 O 0.30860(4) -0.0074(2) 0.6531(2)
O4 O 0.26096(4) -0.0400(2) 0.3379(2)
N1 N 0.29527(4) 0.0591(2) 0.4595(2)
C1 C 0.32246(5) 0.2730(3) 0.3712(2)
C2 C 0.36232(5) 0.3803(3) 0.5065(2)
C3 C 0.38838(5) 0.5765(3) 0.4236(2)
C4 C 0.37501(5) 0.6666(3) 0.2051(2)
C5 C 0.33429(5) 0.5554(3) 0.0745(2)
C6 C 0.30776(5) 0.3572(3) 0.1563(2)
C7 C 0.40240(5) 0.8759(3) 0.1126(2)
C8 C 0.44095(5) 1.0036(3) 0.2189(2)
C9 C 0.46586(5) 1.2160(3) 0.1198(2)
H1 H 0.3721(6) 0.320(3) 0.660(3)
H2 H 0.4163(6) 0.641(3) 0.530(3)
H3 H 0.3246(5) 0.616(3) -0.081(2)
H4 H 0.2810(6) 0.277(3) 0.067(3)
H5 H 0.3896(5) 0.921(3) -0.034(2)
H6 H 0.4542(6) 0.971(3) 0.375(3)
H7 H 0.517(1) 1.493(5) 0.191(4)
#END
