
#######################################################################
#
#                 Cambridge Crystallographic Data Centre
#                                CCDC
#
#######################################################################
#
# If this CIF has been generated from an entry in the Cambridge
# Structural Database, then it will include bibliographic, chemical,
# crystal, experimental, refinement or atomic coordinate data resulting
# from the CCDC's data processing and validation procedures.
#
#######################################################################

data_CSD_CIF_LACCUO
_audit_creation_date 2003-07-09
_audit_creation_method CSD-ConQuest-V1
_database_code_CSD LACCUO
_database_code_depnum_ccdc_archive 'CCDC 212827'
_chemical_formula_sum 'C25 H26 N2 O4'
_chemical_formula_moiety
;
C25 H26 N2 O4
;
_journal_coden_Cambridge 95
_journal_year 2002
_journal_page_first 1167
_journal_name_full 'Izv.Akad.Nauk SSSR,Ser.Khim.(Russ.)(Russ.Chem.Bull.) '
loop_
_publ_author_name
"L.Yu.Ukhin"
"L.V.Belousova"
"Zh.I.Orlova"
"S.V.Shishkina"
"O.V.Shishkin"
_chemical_name_systematic
;
4a-Morpholino-7-nitro-9-phenylethynyl-1,2,3,4,4a,9a-hexahydroxanthene
;
_chemical_melting_point 463.15
_cell_volume   2274.675
_exptl_crystal_colour 'light yellow'
_exptl_crystal_density_diffrn 1.222
_exptl_special_details
;
Melting point range 463.15-465.15K

;
_exptl_crystal_preparation 'methanol'
_diffrn_ambient_temperature 293
#These two values have been output from a single CSD field.
_refine_ls_R_factor_gt 0.044
_refine_ls_wR_factor_gt 0.044
_symmetry_cell_setting monoclinic
_symmetry_space_group_name_H-M 'P 21/n'
_symmetry_Int_Tables_number 14
loop_
_symmetry_equiv_pos_site_id
_symmetry_equiv_pos_as_xyz
1 x,y,z
2 1/2+x,1/2-y,1/2+z
3 -x,-y,-z
4 -1/2-x,-1/2+y,-1/2-z
_cell_length_a 12.387(4)
_cell_length_b 11.549(3)
_cell_length_c 16.296(5)
_cell_angle_alpha 90
_cell_angle_beta 102.65
_cell_angle_gamma 90
_cell_formula_units_Z 4
loop_
_atom_type_symbol
_atom_type_radius_bond
C 0.68
H 0.23
N 0.68
O 0.68
loop_
_atom_site_label
_atom_site_type_symbol
_atom_site_fract_x
_atom_site_fract_y
_atom_site_fract_z
N1 N 0.61950(18) 0.30013(17) -0.13026(11)
N2 N 0.53835(11) 0.28833(13) 0.27252(9)
O1 O 0.53416(9) 0.13643(10) 0.17524(7)
O2 O 0.70154(15) 0.25959(16) -0.15283(10)
O3 O 0.55490(16) 0.37152(15) -0.17202(9)
O4 O 0.66482(12) 0.41756(13) 0.41397(8)
C1 C 0.51952(15) 0.31816(16) -0.01484(11)
H1 H 0.48150 0.38060 -0.04360
C2 C 0.59801(16) 0.26019(18) -0.04861(12)
C3 C 0.65669(16) 0.16521(19) -0.00822(12)
H2 H 0.71000 0.12830 -0.03120
C4 C 0.63347(15) 0.12709(18) 0.06736(12)
H3 H 0.67070 0.06320 0.09470
C5 C 0.55432(14) 0.18442(16) 0.10244(11)
C6 C 0.46462(14) 0.19956(16) 0.22281(11)
C7 C 0.42221(16) 0.10532(17) 0.27503(12)
H4 H 0.48520 0.06510 0.30890
H5 H 0.38250 0.14230 0.31300
C8 C 0.34578(17) 0.01632(19) 0.22121(13)
H6 H 0.31680 -0.03590 0.25780
H7 H 0.38820 -0.02920 0.18940
C9 C 0.24884(15) 0.07501(19) 0.16017(12)
H8 H 0.20110 0.11270 0.19190
H9 H 0.20560 0.01690 0.12440
C10 C 0.29180(15) 0.16529(17) 0.10523(11)
H10 H 0.22930 0.20370 0.06930
H11 H 0.33320 0.12610 0.06940
C11 C 0.36681(14) 0.25707(15) 0.15897(11)
H12 H 0.32170 0.29960 0.19130
C12 C 0.41524(14) 0.34655(16) 0.10514(10)
H13 H 0.45830 0.40240 0.14440
C13 C 0.49713(14) 0.28346(15) 0.06221(11)
C14 C 0.48437(16) 0.36862(18) 0.32251(12)
H14 H 0.46040 0.32600 0.36660
H15 H 0.41970 0.40330 0.28650
C15 C 0.56538(17) 0.4634(2) 0.36140(13)
H16 H 0.58470 0.50910 0.31680
H17 H 0.52960 0.51430 0.39460
C16 C 0.71649(17) 0.3390(2) 0.36618(13)
H18 H 0.78260 0.30710 0.40220
H19 H 0.73870 0.38110 0.32110
C17 C 0.63928(15) 0.24018(17) 0.32885(12)
H20 H 0.67690 0.18870 0.29730
H21 H 0.61870 0.19600 0.37370
C18 C 0.32940(15) 0.41398(16) 0.04562(11)
C19 C 0.26430(15) 0.47590(17) 0.00054(12)
C20 C 0.18547(14) 0.55586(15) -0.05060(11)
C21 C 0.09799(17) 0.6007(2) -0.01938(13)
H22 H 0.08980 0.57890 0.03390
C22 C 0.0227(2) 0.6775(2) -0.06666(15)
H23 H -0.03480 0.70700 -0.04460
C23 C 0.0328(2) 0.7103(2) -0.14610(15)
H24 H -0.01830 0.76060 -0.17800
C24 C 0.1194(2) 0.6677(2) -0.17752(14)
H25 H 0.12760 0.69080 -0.23050
C25 C 0.19494(17) 0.59025(19) -0.13070(13)
H26 H 0.25230 0.56120 -0.15320
#END
