
#######################################################################
#
#                 Cambridge Crystallographic Data Centre
#                                CCDC
#
#######################################################################
#
# If this CIF has been generated from an entry in the Cambridge
# Structural Database, then it will include bibliographic, chemical,
# crystal, experimental, refinement or atomic coordinate data resulting
# from the CCDC's data processing and validation procedures.
#
#######################################################################

data_CSD_CIF_LACPEK
_audit_creation_date 1993-09-15
_audit_creation_method CSD-ConQuest-V1
_database_code_CSD LACPEK
_chemical_formula_sum 'C20 H23 N5 O3'
_chemical_formula_moiety
;
C20 H23 N5 O3
;
_journal_coden_Cambridge 151
_journal_volume 35
_journal_year 1992
_journal_page_first 4770
_journal_name_full 'J.Med.Chem. '
loop_
_publ_author_name
"D.B.Capps"
"J.Dunbar"
"S.R.Kesten"
"J.Shillis"
"L.M.Werbel"
"J.Plowman"
"D.L.Ward"
_chemical_name_systematic
;
N,N-Diethyl-9-methoxy-5-nitropyrazolo(3,4,5-kl)acridine-2(6H)-ethanamine
;
_chemical_melting_point 456.15
_cell_volume    941.563
_exptl_crystal_colour 'orange'
_exptl_special_details
;
Melting point range 456.15-458.15K
Fw 357.42; we calc. 381.44. Dx 1.26; we calc. 1.35
;
_diffrn_ambient_temperature ?
_diffrn_special_details
;
The study was carried out at room temperature,in the range 283-303K

;
#These two values have been output from a single CSD field.
_refine_ls_R_factor_gt 0.036
_refine_ls_wR_factor_gt 0.036
_symmetry_cell_setting triclinic
_symmetry_space_group_name_H-M 'P -1'
_symmetry_Int_Tables_number 2
loop_
_symmetry_equiv_pos_site_id
_symmetry_equiv_pos_as_xyz
1 x,y,z
2 -x,-y,-z
_cell_length_a 7.607(1)
_cell_length_b 11.248(2)
_cell_length_c 12.150(2)
_cell_angle_alpha 114.36(1)
_cell_angle_beta 94.70(2)
_cell_angle_gamma 91.69(1)
_cell_formula_units_Z 2
loop_
_atom_type_symbol
_atom_type_radius_bond
C 0.68
H 0.23
N 0.68
O 0.68
loop_
_atom_site_label
_atom_site_type_symbol
_atom_site_fract_x
_atom_site_fract_y
_atom_site_fract_z
O1 O 0.0878(2) 0.1976(1) 0.0271(1)
O2 O 0.0141(2) 0.3680(1) -0.0032(1)
O3 O -0.8594(2) 0.6130(1) -0.2522(1)
N1 N -0.3078(2) 0.3825(1) -0.1021(1)
N2 N -0.0216(2) 0.2548(1) -0.0112(1)
N3 N -0.7643(2) 0.1405(1) -0.2316(1)
N4 N -0.6944(2) 0.0385(1) -0.2101(1)
N5 N -0.6858(2) -0.1758(1) -0.4488(1)
C1 C -0.1901(2) 0.1942(2) -0.0645(1)
C2 C -0.2328(2) 0.0647(2) -0.0756(2)
C3 C -0.3932(3) -0.0015(2) -0.1230(2)
C4 C -0.5234(2) 0.0648(1) -0.1624(1)
C5 C -0.4799(2) 0.1900(1) -0.1515(1)
C6 C -0.7583(2) 0.4205(2) -0.2280(1)
C7 C -0.7330(2) 0.5460(2) -0.2194(1)
C8 C -0.5694(2) 0.6155(1) -0.1726(2)
C9 C -0.4309(2) 0.5614(2) -0.1345(2)
C10 C -0.4534(2) 0.4338(1) -0.1432(1)
C11 C -0.3178(2) 0.2607(1) -0.1042(1)
C12 C -0.6308(2) 0.2322(1) -0.1943(1)
C13 C -0.6184(2) 0.3631(1) -0.1900(1)
C14 C -0.8033(3) -0.0833(2) -0.2486(2)
C15 C -0.8445(3) -0.1494(2) -0.3855(2)
C16 C -0.7192(4) -0.1814(2) -0.5719(2)
C17 C -0.7449(4) -0.0497(2) -0.5733(2)
C18 C -0.6098(3) -0.2956(2) -0.4518(2)
C19 C -0.4136(4) -0.2947(2) -0.4609(2)
C20 C -1.0247(3) 0.5442(2) -0.3086(2)
H1 H -0.137(2) 0.027(2) -0.046(2)
H2 H -0.417(3) -0.088(2) -0.129(2)
H3 H -0.868(2) 0.370(2) -0.260(1)
H4 H -0.555(3) 0.703(2) -0.165(2)
H5 H -0.317(2) 0.610(2) -0.102(2)
H6 H -0.210(2) 0.430(2) -0.072(2)
H7 H -0.914(3) -0.064(2) -0.209(2)
H8 H -0.736(2) -0.139(2) -0.216(2)
H9 H -0.928(3) -0.230(2) -0.403(2)
H10 H -0.920(2) -0.090(2) -0.408(2)
H11 H -0.836(3) -0.241(2) -0.615(2)
H12 H -0.616(3) -0.219(2) -0.615(2)
H13 H -0.780(4) -0.055(3) -0.650(2)
H14 H -0.826(4) -0.005(2) -0.527(2)
H15 H -0.631(5) 0.008(3) -0.543(3)
H16 H -0.669(3) -0.379(2) -0.526(2)
H17 H -0.635(3) -0.302(2) -0.371(2)
H18 H -0.369(4) -0.377(3) -0.461(2)
H19 H -0.385(4) -0.281(3) -0.528(3)
H20 H -0.347(4) -0.220(3) -0.394(3)
H21 H -1.095(3) 0.602(2) -0.328(2)
H22 H -1.011(3) 0.467(2) -0.387(2)
H23 H -1.084(3) 0.512(2) -0.255(2)
#END
