
#######################################################################
#
#                 Cambridge Crystallographic Data Centre
#                                CCDC
#
#######################################################################
#
# If this CIF has been generated from an entry in the Cambridge
# Structural Database, then it will include bibliographic, chemical,
# crystal, experimental, refinement or atomic coordinate data resulting
# from the CCDC's data processing and validation procedures.
#
#######################################################################

data_CSD_CIF_LADKOR
_audit_creation_date 2005-02-01
_audit_creation_method CSD-ConQuest-V1
_database_code_CSD LADKOR
_database_code_depnum_ccdc_archive 'CCDC 235186'
_chemical_formula_sum 'C21 H31 N1 O5'
_chemical_formula_moiety
;
C21 H31 N1 O5
;
_journal_coden_Cambridge 423
_journal_year 2004
_journal_page_first 463
_journal_name_full 'J.Chem.Res. '
loop_
_publ_author_name
"J.R.Hanson"
"P.B.Hitchcock"
"C.Uyanik"
_chemical_name_systematic
;
Methyl 
1,3-dimethyl-3-(1-(hydroxyiminomethyl)-6-methylenebicyclo[3.2.1]octan-2-yl)cyc
lohexane-1-carboxylate-2-carboxylic acid
;
_chemical_melting_point 489.15
_cell_volume   1989.916
_exptl_crystal_density_diffrn 1.26
_exptl_special_details
;
Melting point range 489.15-491.15K

;
_exptl_crystal_preparation 'methanol'
_diffrn_ambient_temperature 293
#These two values have been output from a single CSD field.
_refine_ls_R_factor_gt 0.0516
_refine_ls_wR_factor_gt 0.0516
_symmetry_cell_setting orthorhombic
_symmetry_space_group_name_H-M 'P 21 21 21'
_symmetry_Int_Tables_number 19
loop_
_symmetry_equiv_pos_site_id
_symmetry_equiv_pos_as_xyz
1 x,y,z
2 1/2-x,-y,1/2+z
3 1/2+x,1/2-y,-z
4 -x,1/2+y,1/2-z
_cell_length_a 6.5629(3)
_cell_length_b 8.7937(3)
_cell_length_c 34.4800(19)
_cell_angle_alpha 90
_cell_angle_beta 90
_cell_angle_gamma 90
_cell_formula_units_Z 4
loop_
_atom_type_symbol
_atom_type_radius_bond
C 0.68
H 0.23
N 0.68
O 0.68
loop_
_atom_site_label
_atom_site_type_symbol
_atom_site_fract_x
_atom_site_fract_y
_atom_site_fract_z
O1 O 0.3735(4) 0.3145(3) 0.12019(8)
H1 H 0.407(6) 0.418(4) 0.124(1)
O2 O 0.5510(5) -0.4037(3) 0.12746(8)
O3 O 0.8443(4) -0.5263(3) 0.12034(8)
H2 H 0.752(8) -0.606(6) 0.1122(15)
O4 O 0.6268(5) -0.4281(3) 0.20998(9)
O5 O 0.7299(4) -0.2312(3) 0.24482(7)
N1 N 0.5553(5) 0.2606(3) 0.10307(9)
C1 C 0.9276(6) 0.0047(4) 0.14771(10)
H3 H 1.05550 -0.00760 0.13400
H4 H 0.87460 0.10480 0.14160
C2 C 0.9674(6) -0.0046(4) 0.19081(11)
H5 H 0.84090 0.01100 0.20480
H6 H 1.06170 0.07500 0.19830
C3 C 1.0559(6) -0.1582(4) 0.20140(12)
H7 H 1.07430 -0.16220 0.22930
H8 H 1.18940 -0.16730 0.18960
C4 C 0.9266(6) -0.2945(4) 0.18899(10)
C5 C 0.8652(5) -0.2755(3) 0.14510(9)
H9 H 0.99340 -0.28400 0.13070
C6 C 0.7361(7) -0.4056(4) 0.13075(10)
C7 C 0.5316(6) 0.1310(4) 0.08815(10)
H10 H 0.40390 0.08570 0.08970
C8 C 0.6975(5) 0.0470(4) 0.06817(10)
C9 C 0.7374(5) -0.1127(3) 0.08799(9)
H11 H 0.60900 -0.16790 0.08450
C10 C 0.7750(5) -0.1168(3) 0.13312(10)
C11 C 0.8909(6) -0.1988(4) 0.0614(1)
H12 H 0.94290 -0.28590 0.07550
H13 H 0.81760 -0.23700 0.03900
C12 C 1.0714(6) -0.1050(4) 0.04712(11)
H14 H 1.14620 -0.16210 0.02770
H15 H 1.16280 -0.08430 0.06860
C13 C 0.9977(6) 0.0449(4) 0.02963(12)
H16 H 1.10920 0.10090 0.01730
C14 C 0.8941(6) 0.1392(4) 0.06104(11)
H17 H 0.86390 0.24120 0.05200
H18 H 0.97710 0.14520 0.08430
C15 C 0.6284(6) 0.0208(4) 0.02514(10)
H19 H 0.55500 -0.07450 0.02270
H20 H 0.54080 0.10290 0.01650
C16 C 0.8231(6) 0.0169(4) 0.00165(12)
C17 C 0.8387(9) -0.0034(5) -0.03605(13)
H21 H 0.72220 -0.01710 -0.05100
H22 H 0.96640 -0.00390 -0.04780
C18 C 1.0609(7) -0.4388(5) 0.19349(13)
H23 H 1.10020 -0.45010 0.22020
H24 H 1.18060 -0.42880 0.17770
H25 H 0.98500 -0.52650 0.18540
C19 C 0.7445(6) -0.3250(4) 0.21488(11)
C20 C 0.5690(5) -0.0880(4) 0.15395(11)
H26 H 0.58780 -0.09610 0.18150
H27 H 0.47100 -0.16200 0.14560
H28 H 0.52070 0.01210 0.14770
C21 C 0.5644(6) -0.2594(5) 0.27183(12)
H29 H 0.43660 -0.25330 0.25840
H30 H 0.56760 -0.18460 0.29210
H31 H 0.57940 -0.35900 0.28290
#END
