
#######################################################################
#
#                 Cambridge Crystallographic Data Centre
#                                CCDC
#
#######################################################################
#
# If this CIF has been generated from an entry in the Cambridge
# Structural Database, then it will include bibliographic, chemical,
# crystal, experimental, refinement or atomic coordinate data resulting
# from the CCDC's data processing and validation procedures.
#
#######################################################################

data_CSD_CIF_LADLAG
_audit_creation_date 2016-02-16
_audit_creation_method CSD-ConQuest-V1
_database_code_CSD LADLAG
_database_code_depnum_ccdc_archive 'CCDC 1439414'
_chemical_formula_sum 'C15 H12 N2 O3'
_chemical_formula_moiety
;
C15 H12 N2 O3
;
_journal_coden_Cambridge 1127
_journal_volume 26
_journal_year 2016
_journal_page_first 1813
_journal_name_full 'Bioorg.Med.Chem.Lett. '
loop_
_publ_author_name
"N.S.Kirk"
"Anna Bezos"
"A.C.Willis"
"P.Sudta"
"S.Suksamrarn"
"C.R.Parish"
"M.Ranson"
"M.J.Kelso"
_chemical_name_systematic
;
5,7-Dimethyl-2-(2-nitrophenyl)-3H-pyrrolizin-3-one
;
_cell_volume    649.918
_exptl_crystal_colour 'dark red'
_exptl_crystal_density_diffrn 1.371
_exptl_special_details
;
angiogenesis inhibitory activity

;
_exptl_crystal_description 'block'
_diffrn_ambient_temperature 150
#These two values have been output from a single CSD field.
_refine_ls_R_factor_gt 0.059
_refine_ls_wR_factor_gt 0.059
_symmetry_cell_setting triclinic
_symmetry_space_group_name_H-M 'P -1'
_symmetry_Int_Tables_number 2
loop_
_symmetry_equiv_pos_site_id
_symmetry_equiv_pos_as_xyz
1 x,y,z
2 -x,-y,-z
_cell_length_a 7.9103(7)
_cell_length_b 8.2020(4)
_cell_length_c 10.8545(9)
_cell_angle_alpha 79.807(6)
_cell_angle_beta 69.688(8)
_cell_angle_gamma 87.445(6)
_cell_formula_units_Z 2
loop_
_atom_type_symbol
_atom_type_radius_bond
C 0.68
H 0.23
N 0.68
O 0.68
loop_
_atom_site_label
_atom_site_type_symbol
_atom_site_fract_x
_atom_site_fract_y
_atom_site_fract_z
O1 O 0.1405(2) 0.16259(16) 0.36720(15)
O2 O 0.2732(2) 0.16902(18) 0.07999(16)
O3 O 0.4048(2) -0.04585(17) 0.15133(16)
N1 N -0.0121(2) 0.41264(18) 0.35923(16)
N2 N 0.3884(2) 0.1056(2) 0.12346(17)
C1 C -0.1875(3) 0.4035(2) 0.4486(2)
C2 C -0.2492(3) 0.5629(2) 0.4422(2)
C3 C -0.1095(3) 0.6734(2) 0.3468(2)
C4 C 0.0353(3) 0.5761(2) 0.2984(2)
C5 C 0.2220(3) 0.5783(2) 0.21579(19)
C6 C 0.2865(3) 0.4217(2) 0.22747(19)
C7 C 0.1372(3) 0.3096(2) 0.3243(2)
C8 C -0.2758(3) 0.2430(3) 0.5259(2)
C9 C -0.1205(4) 0.8577(3) 0.3114(3)
C10 C 0.4719(3) 0.3679(2) 0.17413(19)
C11 C 0.5226(3) 0.2132(2) 0.13602(19)
C12 C 0.6974(3) 0.1579(3) 0.1003(2)
C13 C 0.8338(3) 0.2615(3) 0.0967(2)
C14 C 0.7902(3) 0.4181(3) 0.1289(2)
C15 C 0.6144(3) 0.4690(3) 0.1683(2)
H1 H -0.36610 0.59270 0.49380
H2 H 0.28930 0.67340 0.16120
H3 H -0.38830 0.26160 0.59550
H4 H -0.19800 0.18240 0.56880
H5 H -0.30160 0.17940 0.46850
H6 H -0.01610 0.90270 0.23570
H7 H -0.12390 0.91010 0.38500
H8 H -0.22610 0.88750 0.29000
H9 H 0.72510 0.05260 0.07600
H10 H 0.95510 0.22620 0.07190
H11 H 0.88190 0.48850 0.12560
H12 H 0.58530 0.57330 0.19540
#END
