
#######################################################################
#
#                 Cambridge Crystallographic Data Centre
#                                CCDC
#
#######################################################################
#
# If this CIF has been generated from an entry in the Cambridge
# Structural Database, then it will include bibliographic, chemical,
# crystal, experimental, refinement or atomic coordinate data resulting
# from the CCDC's data processing and validation procedures.
#
#######################################################################

data_CSD_CIF_LAGGAE
_audit_creation_date 2016-02-17
_audit_creation_method CSD-ConQuest-V1
_database_code_CSD LAGGAE
_database_code_depnum_ccdc_archive 'CCDC 1453999'
_chemical_formula_sum 'C13 H10 N2 O3'
_chemical_formula_moiety
;
C13 H10 N2 O3
;
_journal_coden_Cambridge 1078
_journal_year 2016
_journal_name_full 'CSD Communication(Private Communication) '
loop_
_publ_author_name
"Wang Qingming"
_chemical_name_systematic
;
2-(((4-nitrophenyl)imino)methyl)phenol
;
_cell_volume   1122.162
_diffrn_ambient_temperature 296
#These two values have been output from a single CSD field.
_refine_ls_R_factor_gt 0.067
_refine_ls_wR_factor_gt 0.067
_symmetry_cell_setting monoclinic
_symmetry_space_group_name_H-M 'P 21/c'
_symmetry_Int_Tables_number 14
loop_
_symmetry_equiv_pos_site_id
_symmetry_equiv_pos_as_xyz
1 x,y,z
2 -x,1/2+y,1/2-z
3 -x,-y,-z
4 x,-1/2-y,-1/2+z
_cell_length_a 12.3375(3)
_cell_length_b 5.7750(1)
_cell_length_c 15.9003(4)
_cell_angle_alpha 90
_cell_angle_beta 97.888(1)
_cell_angle_gamma 90
_cell_formula_units_Z 4
loop_
_atom_type_symbol
_atom_type_radius_bond
C 0.68
H 0.23
N 0.68
O 0.68
loop_
_atom_site_label
_atom_site_type_symbol
_atom_site_fract_x
_atom_site_fract_y
_atom_site_fract_z
N1 N 0.61742(12) 0.0886(3) 0.44577(9)
C1 C 0.56110(14) -0.0484(3) 0.39457(11)
H1 H 0.58790 -0.19650 0.38720
C2 C 0.45653(14) 0.0174(3) 0.34715(11)
O1 O 0.45447(12) 0.3860(3) 0.41665(9)
H2 H 0.40670 0.45370 0.43820
C3 C 0.72036(15) 0.0222(3) 0.48946(11)
C4 C 0.30879(15) 0.2869(3) 0.31042(12)
H3 H 0.27590 0.42900 0.31790
C5 C 0.91820(14) -0.0849(4) 0.58279(12)
C6 C 0.40761(15) 0.2317(3) 0.35880(11)
C7 C 0.40457(15) -0.1356(3) 0.28688(12)
H4 H 0.43660 -0.27840 0.27900
C8 C 0.25909(16) 0.1329(4) 0.25140(12)
H5 H 0.19260 0.17190 0.21960
C9 C 0.87359(17) -0.2357(4) 0.52165(13)
H6 H 0.90990 -0.37200 0.51180
C10 C 0.76900(16) 0.1739(4) 0.55053(12)
H7 H 0.73450 0.31330 0.55930
C11 C 0.86798(17) 0.1223(4) 0.59893(14)
H8 H 0.89980 0.22300 0.64090
C12 C 0.30631(16) -0.0790(4) 0.23855(12)
H9 H 0.27260 -0.18170 0.19810
C13 C 0.77413(17) -0.1843(4) 0.47458(13)
H10 H 0.74280 -0.28660 0.43300
N2 N 1.02123(15) -0.1479(4) 0.63515(13)
O2 O 1.05719(17) -0.0225(4) 0.69352(14)
O3 O 1.06581(16) -0.3269(4) 0.61773(14)
#END
