
#######################################################################
#
#                 Cambridge Crystallographic Data Centre
#                                CCDC
#
#######################################################################
#
# If this CIF has been generated from an entry in the Cambridge
# Structural Database, then it will include bibliographic, chemical,
# crystal, experimental, refinement or atomic coordinate data resulting
# from the CCDC's data processing and validation procedures.
#
#######################################################################

data_CSD_CIF_LAGTET
_audit_creation_date 2005-02-01
_audit_creation_method CSD-ConQuest-V1
_database_code_CSD LAGTET
_database_code_depnum_ccdc_archive 'CCDC 232618'
_chemical_formula_sum 'C9 H9 N1 O3'
_chemical_formula_moiety
;
C9 H9 N1 O3
;
_journal_coden_Cambridge 177
_journal_volume 2
_journal_year 2004
_journal_page_first 2311
_journal_name_full 'Org.Biomol.Chem. '
loop_
_publ_author_name
"J.Schraml"
"J.Sykora"
"P.Fiedler"
"J.Roithova"
"J.Mindl"
"V.Blechta"
"I.Cisarova"
"O.Exner"
_chemical_name_systematic
;
N-Acetyl-O-benzoylhydroxylamine
;
_chemical_melting_point 372.15
_cell_volume   1749.292
_exptl_crystal_colour 'white'
_exptl_crystal_density_diffrn 1.361
_exptl_special_details
;
Melting point range 372.15-373.15K

;
_exptl_crystal_description 'block'
_exptl_crystal_preparation 'chloroform/pentane'
_diffrn_ambient_temperature ?
_diffrn_special_details
;
The study was carried out at room temperature,in the range 283-303K

;
#These two values have been output from a single CSD field.
_refine_ls_R_factor_gt 0.0383
_refine_ls_wR_factor_gt 0.0383
_symmetry_cell_setting monoclinic
_symmetry_space_group_name_H-M 'C 2/c'
_symmetry_Int_Tables_number 15
loop_
_symmetry_equiv_pos_site_id
_symmetry_equiv_pos_as_xyz
1 x,y,z
2 1/2+x,1/2+y,z
3 x,-y,1/2+z
4 1/2+x,1/2-y,1/2+z
5 -x,-y,-z
6 -1/2-x,-1/2-y,-z
7 -x,y,-1/2-z
8 -1/2-x,-1/2+y,-1/2-z
_cell_length_a 13.8160(3)
_cell_length_b 9.4200(3)
_cell_length_c 13.4890(4)
_cell_angle_alpha 90
_cell_angle_beta 94.839(2)
_cell_angle_gamma 90
_cell_formula_units_Z 8
loop_
_atom_type_symbol
_atom_type_radius_bond
C 0.68
H 0.23
N 0.68
O 0.68
loop_
_atom_site_label
_atom_site_type_symbol
_atom_site_fract_x
_atom_site_fract_y
_atom_site_fract_z
O1 O -0.21371(7) -0.13598(9) -0.75721(7)
O2 O -0.36421(6) -0.00745(9) -0.68108(7)
O3 O -0.26432(7) -0.03055(11) -0.53950(7)
N1 N -0.28842(8) 0.06732(11) -0.71981(9)
C1 C -0.21772(9) -0.00598(12) -0.75848(9)
C2 C -0.34101(9) -0.05379(13) -0.58434(9)
C3 C -0.1446(1) 0.08614(14) -0.80374(11)
C4 C -0.42337(8) -0.13488(12) -0.54865(8)
C5 C -0.51482(9) -0.13782(14) -0.60057(9)
C6 C -0.5892(1) -0.21426(14) -0.5628(1)
C7 C -0.57273(11) -0.28713(16) -0.47381(11)
C8 C -0.48147(12) -0.28467(16) -0.42238(11)
C9 C -0.4067(1) -0.20867(14) -0.4594(1)
H1 H -0.2946(11) 0.159(2) -0.7198(11)
H2 H -0.1498(13) 0.183(2) -0.7876(13)
H3 H -0.1515(16) 0.072(2) -0.8747(18)
H4 H -0.0800(18) 0.053(2) -0.7835(18)
H5 H -0.5260(11) -0.0870(16) -0.6615(12)
H6 H -0.6531(13) -0.2146(18) -0.5983(12)
H7 H -0.6247(14) -0.341(2) -0.4482(14)
H8 H -0.4704(14) -0.337(2) -0.3586(14)
H9 H -0.3429(13) -0.2081(18) -0.4239(13)
#END
