
#######################################################################
#
#                 Cambridge Crystallographic Data Centre
#                                CCDC
#
#######################################################################
#
# If this CIF has been generated from an entry in the Cambridge
# Structural Database, then it will include bibliographic, chemical,
# crystal, experimental, refinement or atomic coordinate data resulting
# from the CCDC's data processing and validation procedures.
#
#######################################################################

data_CSD_CIF_LAGVAT
_audit_creation_date 2016-02-17
_audit_creation_method CSD-ConQuest-V1
_database_code_CSD LAGVAT
_database_code_depnum_ccdc_archive 'CCDC 1036810'
_chemical_formula_sum 'C9 H8 N2 O8'
_chemical_formula_moiety
;
C9 H8 N2 O8
;
_journal_coden_Cambridge 1135
_journal_volume 26
_journal_year 2016
_journal_page_first 66
_journal_name_full 'Mendeleev Commun. '
loop_
_publ_author_name
"I.B.Karmanova"
"S.I.Firgang"
"L.D.Konyushkin"
"V.N.Khrustalev"
"A.V.Ignatov"
"L.A.Kuznetsov"
"Y.A.Pinchuk"
"I.A.Kozlov"
"V.V.Semenov"
_chemical_name_systematic
;
4,7-Dimethoxy-5,6-dinitro-1,3-benzodioxole
;
_cell_volume   1645.146
_exptl_crystal_colour 'yellow'
_exptl_crystal_density_diffrn 1.648
_exptl_crystal_description 'prism'
_diffrn_ambient_temperature 120
#These two values have been output from a single CSD field.
_refine_ls_R_factor_gt 0.0394
_refine_ls_wR_factor_gt 0.0394
_symmetry_cell_setting hexagonal
_symmetry_space_group_name_H-M 'P 61'
_symmetry_Int_Tables_number 169
loop_
_symmetry_equiv_pos_site_id
_symmetry_equiv_pos_as_xyz
1 x,y,z
2 -y,x-y,1/3+z
3 -x+y,-x,2/3+z
4 -x,-y,1/2+z
5 y,-x+y,5/6+z
6 x-y,x,1/6+z
_cell_length_a 9.4486(6)
_cell_length_b 9.4486(6)
_cell_length_c 21.2784(13)
_cell_angle_alpha 90
_cell_angle_beta 90
_cell_angle_gamma 120
_cell_formula_units_Z 6
loop_
_atom_type_symbol
_atom_type_radius_bond
C 0.68
H 0.23
N 0.68
O 0.68
loop_
_atom_site_label
_atom_site_type_symbol
_atom_site_fract_x
_atom_site_fract_y
_atom_site_fract_z
O1 O 0.16517(14) 0.47047(13) 0.08172(6)
O2 O 0.43883(14) 0.57987(14) 0.05651(6)
O3 O 0.60969(13) 0.37899(14) 0.05984(5)
O4 O 0.47438(15) 0.03324(16) 0.04034(5)
O5 O 0.43721(16) 0.00912(15) 0.14097(6)
O6 O 0.11310(14) -0.17391(14) 0.08589(6)
O7 O -0.01268(15) -0.12037(15) 0.15932(6)
O8 O -0.05456(13) 0.12023(14) 0.11386(5)
N1 N 0.42480(14) 0.05958(15) 0.08964(6)
N2 N 0.08665(14) -0.07905(14) 0.11639(6)
C1 C 0.3164(2) 0.62140(19) 0.07333(8)
H1 H 0.34750 0.68580 0.11270
H2 H 0.30500 0.68730 0.03970
C2 C 0.37206(18) 0.41814(17) 0.07034(7)
C3 C 0.44913(16) 0.32543(17) 0.07108(7)
C4 C 0.34734(16) 0.16122(17) 0.08650(6)
C5 C 0.18279(16) 0.09420(16) 0.10124(6)
C6 C 0.10654(16) 0.18955(17) 0.10058(6)
C7 C 0.20830(17) 0.35244(17) 0.08520(7)
C8 C 0.72520(19) 0.5409(2) 0.08176(9)
H3 H 0.83650 0.55960 0.07720
H4 H 0.70380 0.55140 0.12610
H5 H 0.71380 0.62190 0.05680
C9 C -0.1481(2) 0.1698(2) 0.0749(1)
H6 H -0.26490 0.09140 0.07980
H7 H -0.11680 0.17280 0.03080
H8 H -0.12580 0.27860 0.08780
#END
