
#######################################################################
#
#                 Cambridge Crystallographic Data Centre
#                                CCDC
#
#######################################################################
#
# If this CIF has been generated from an entry in the Cambridge
# Structural Database, then it will include bibliographic, chemical,
# crystal, experimental, refinement or atomic coordinate data resulting
# from the CCDC's data processing and validation procedures.
#
#######################################################################

data_CSD_CIF_LAHSEU
_audit_creation_date 2011-01-20
_audit_creation_method CSD-ConQuest-V1
_database_code_CSD LAHSEU
_database_code_depnum_ccdc_archive 'CCDC 727657'
_chemical_formula_sum 'C24 H26 N2 O3'
_chemical_formula_moiety
;
C24 H26 N2 O3
;
_journal_coden_Cambridge 1078
_journal_year 2009
_journal_name_full 'CSD Communication(Private Communication) '
loop_
_publ_author_name
"L.M.Jaramillo-Gomez"
"A.E.Loaiza"
"M.Nogueras"
"J.Cobo"
"C.Glidewell"
_chemical_name_systematic
;
Ethyl 
1-(benzyloxy)-2-(cyanomethyl)-8b-methyl-2,3,4,8b-tetrahydroindeno[1,2-b]pyrrol
e-3a(1H)-carboxylate
;
_cell_volume   4091.965
_exptl_crystal_colour 'colorless'
_exptl_crystal_density_diffrn 1.268
_exptl_special_details
;
contribution from School of Chemistry, University of St Andrews, St Andrews, 
Fife KY16 9ST, UK
Study temperature given as 293 K and 120 K in the CIF
;
_exptl_crystal_description 'block'
_diffrn_ambient_temperature 120
#These two values have been output from a single CSD field.
_refine_ls_R_factor_gt 0.0936
_refine_ls_wR_factor_gt 0.0936
_symmetry_cell_setting monoclinic
_symmetry_space_group_name_H-M 'C 2/c'
_symmetry_Int_Tables_number 15
loop_
_symmetry_equiv_pos_site_id
_symmetry_equiv_pos_as_xyz
1 x,y,z
2 -x,y,1/2-z
3 1/2+x,1/2+y,z
4 1/2-x,1/2+y,1/2-z
5 -x,-y,-z
6 x,-y,-1/2+z
7 -1/2-x,-1/2-y,-z
8 -1/2+x,-1/2-y,-1/2+z
_cell_length_a 24.703(2)
_cell_length_b 8.994(2)
_cell_length_c 21.970(3)
_cell_angle_alpha 90
_cell_angle_beta 123.039(8)
_cell_angle_gamma 90
_cell_formula_units_Z 8
loop_
_atom_type_symbol
_atom_type_radius_bond
C 0.68
H 0.23
N 0.68
O 0.68
loop_
_atom_site_label
_atom_site_type_symbol
_atom_site_fract_x
_atom_site_fract_y
_atom_site_fract_z
N1 N 0.1195(2) 0.1915(5) 0.4121(2)
C1 C 0.0712(2) 0.2800(6) 0.4180(3)
C2 C 0.0989(3) 0.3959(7) 0.4786(3)
C3 C 0.1367(2) 0.5184(7) 0.4882(3)
H1 H 0.14810 0.53930 0.45510
C4 C 0.1573(3) 0.6092(7) 0.5476(3)
H2 H 0.18320 0.69120 0.55510
C5 C 0.1393(3) 0.5780(7) 0.5964(3)
H3 H 0.15430 0.63810 0.63700
C6 C 0.0998(3) 0.4604(7) 0.5853(3)
H4 H 0.08700 0.44280 0.61730
C7 C 0.0792(3) 0.3676(7) 0.5263(3)
C8 C 0.0339(3) 0.2379(7) 0.5002(3)
H5 H -0.01060 0.27110 0.47590
H6 H 0.04340 0.17350 0.54030
C9 C 0.0458(3) 0.1576(6) 0.4474(3)
C10 C 0.1033(2) 0.0452(7) 0.4862(3)
H7 H 0.11710 0.03180 0.53650
H8 H 0.09070 -0.05060 0.46210
C11 C 0.1572(3) 0.1125(6) 0.4817(3)
H9 H 0.18040 0.18530 0.52090
O1 O 0.16179(16) 0.2887(4) 0.40365(18)
C12 C 0.1563(3) 0.2451(7) 0.3365(3)
H10 H 0.11190 0.25530 0.29580
H11 H 0.16920 0.14220 0.33940
C13 C 0.1990(2) 0.3438(7) 0.3267(3)
C14 C 0.2512(3) 0.2855(7) 0.3281(3)
H12 H 0.25960 0.18400 0.33450
C15 C 0.2916(3) 0.3806(7) 0.3198(3)
H13 H 0.32720 0.34200 0.32110
C16 C 0.2790(3) 0.5313(7) 0.3096(3)
H14 H 0.30580 0.59370 0.30360
C17 C 0.2264(3) 0.5893(8) 0.3082(3)
H15 H 0.21800 0.69080 0.30180
C18 C 0.1865(3) 0.4965(7) 0.3163(3)
H16 H 0.15090 0.53540 0.31490
C19 C -0.0145(3) 0.0788(7) 0.3878(3)
O2 O -0.06514(19) 0.0761(5) 0.3821(2)
O3 O -0.00381(18) 0.0126(5) 0.3411(2)
C20 C -0.0532(3) -0.0828(8) 0.2855(3)
H17 H -0.05740 -0.06430 0.23950
H18 H -0.09440 -0.06210 0.27940
C21 C -0.0348(4) -0.2411(9) 0.3073(4)
H19 H 0.00560 -0.26140 0.31240
H20 H -0.06750 -0.30520 0.27090
H21 H -0.03050 -0.25870 0.35290
C22 C 0.0224(2) 0.3505(7) 0.3454(3)
H22 H 0.04310 0.42710 0.33470
H23 H -0.01230 0.39280 0.34740
H24 H 0.00550 0.27600 0.30800
C23 C 0.2052(3) 0.0066(7) 0.4832(3)
H25 H 0.23510 0.06310 0.47670
H26 H 0.22980 -0.03990 0.53060
C24 C 0.1761(3) -0.1104(7) 0.4277(3)
N2 N 0.1531(3) -0.2023(6) 0.3845(3)
#END
