
#######################################################################
#
#                 Cambridge Crystallographic Data Centre
#                                CCDC
#
#######################################################################
#
# If this CIF has been generated from an entry in the Cambridge
# Structural Database, then it will include bibliographic, chemical,
# crystal, experimental, refinement or atomic coordinate data resulting
# from the CCDC's data processing and validation procedures.
#
#######################################################################

data_CSD_CIF_LAJBIH
_audit_creation_date 1993-11-16
_audit_creation_method CSD-ConQuest-V1
_database_code_CSD LAJBIH
_chemical_formula_sum 'C13 H15 N2 O4'
_chemical_formula_moiety
;
C13 H15 N2 O4
;
_journal_coden_Cambridge 82
_journal_volume 33
_journal_year 1992
_journal_page_first 131-3
_journal_name_full 'Zh.Strukt.Khim.(Russ.)(J.Struct.Chem.) '
loop_
_publ_author_name
"Yu.V.Gatilov"
"I.Yu.Bagryanskaya"
"I.A.Grigor'ev"
"I.A.Kirilyuk"
"L.B.Volodarskii"
_chemical_name_systematic
;
2,2-Ethylenedioxy-5,5-dimethyl-4-phenyl-1-oxy-3-imidazoline-3-oxide
;
_cell_volume   1287.490
_exptl_crystal_density_diffrn 1.34
_diffrn_ambient_temperature ?
_diffrn_special_details
;
The study was carried out at room temperature,in the range 283-303K

;
#These two values have been output from a single CSD field.
_refine_ls_R_factor_gt 0.04
_refine_ls_wR_factor_gt 0.04
_symmetry_cell_setting orthorhombic
_symmetry_space_group_name_H-M 'P c 21 n'
_symmetry_Int_Tables_number 33
loop_
_symmetry_equiv_pos_site_id
_symmetry_equiv_pos_as_xyz
1 x,y,z
2 1/2-x,y,1/2+z
3 1/2+x,1/2+y,1/2-z
4 -x,1/2+y,-z
_cell_length_a 5.553(2)
_cell_length_b 7.297(3)
_cell_length_c 31.774(9)
_cell_angle_alpha 90
_cell_angle_beta 90
_cell_angle_gamma 90
_cell_formula_units_Z 4
loop_
_atom_type_symbol
_atom_type_radius_bond
C 0.68
N 0.68
O 0.68
loop_
_atom_site_label
_atom_site_type_symbol
_atom_site_fract_x
_atom_site_fract_y
_atom_site_fract_z
N1 N 0.3717(8) 0.29170 0.3290(1)
C1 C 0.3928(10) 0.4881(9) 0.3232(2)
N2 N 0.2594(9) 0.5522(9) 0.3613(1)
C2 C 0.1732(9) 0.4221(9) 0.3845(2)
C3 C 0.2400(9) 0.2337(10) 0.3673(2)
C4 C 0.4342(16) 0.6744(18) 0.2666(3)
C5 C 0.6511(16) 0.6827(14) 0.2908(3)
C6 C 0.007(1) 0.4546(9) 0.4196(2)
C7 C -0.1677(11) 0.5923(10) 0.4162(2)
C8 C -0.3416(12) 0.6095(12) 0.4479(2)
C9 C -0.3409(12) 0.5002(12) 0.4824(2)
C10 C -0.1667(13) 0.3718(14) 0.4869(2)
C11 C 0.0048(13) 0.3447(11) 0.4554(2)
C12 C 0.0198(11) 0.1243(12) 0.3550(2)
C13 C 0.4096(11) 0.1263(12) 0.3951(2)
O1 O 0.4599(7) 0.1801(8) 0.3027(1)
O2 O 0.2432(9) 0.7261(8) 0.3662(1)
O3 O 0.2801(6) 0.5454(9) 0.2874(1)
O4 O 0.6283(6) 0.5411(8) 0.3230(1)
#END
