
#######################################################################
#
#                 Cambridge Crystallographic Data Centre
#                                CCDC
#
#######################################################################
#
# If this CIF has been generated from an entry in the Cambridge
# Structural Database, then it will include bibliographic, chemical,
# crystal, experimental, refinement or atomic coordinate data resulting
# from the CCDC's data processing and validation procedures.
#
#######################################################################

data_CSD_CIF_LAJKOX
_audit_creation_date 2005-02-01
_audit_creation_method CSD-ConQuest-V1
_database_code_CSD LAJKOX
_database_code_depnum_ccdc_archive 'CCDC 253338'
_chemical_formula_sum 'C7 H15 N3 O2'
_chemical_formula_moiety
;
C7 H15 N3 O2
;
_journal_coden_Cambridge 4
_journal_volume 126
_journal_year 2004
_journal_page_first 12880
_journal_name_full 'J.Am.Chem.Soc. '
loop_
_publ_author_name
"J.E.Saavedra"
"D.S.Bohle"
"K.N.Smith"
"C.George"
"J.R.Deschamps"
"D.Parrish"
"J.Ivanic"
"Yan-Ni Wang"
"M.L.Citro"
"L.K.Keefer"
_chemical_name_systematic
;
O^2^-Methyl 1-(cyclohexylamino)diazen-1-ium-1,2-diolate
;
_chemical_melting_point 357.15
_cell_volume    927.387
_exptl_crystal_colour 'colorless'
_exptl_crystal_density_diffrn 1.233
_exptl_special_details
;
Melting point range 357.15-358.15K

;
_exptl_crystal_description 'rod'
_exptl_crystal_preparation 'aqueous ethanol'
_diffrn_ambient_temperature 93
#These two values have been output from a single CSD field.
_refine_ls_R_factor_gt 0.0425
_refine_ls_wR_factor_gt 0.0425
_symmetry_cell_setting monoclinic
_symmetry_space_group_name_H-M 'P 21/c'
_symmetry_Int_Tables_number 14
loop_
_symmetry_equiv_pos_site_id
_symmetry_equiv_pos_as_xyz
1 x,y,z
2 -x,1/2+y,1/2-z
3 -x,-y,-z
4 x,-1/2-y,-1/2+z
_cell_length_a 16.517(5)
_cell_length_b 6.0509(16)
_cell_length_c 9.311(3)
_cell_angle_alpha 90
_cell_angle_beta 94.738(5)
_cell_angle_gamma 90
_cell_formula_units_Z 4
loop_
_atom_type_symbol
_atom_type_radius_bond
C 0.68
H 0.23
N 0.68
O 0.68
loop_
_atom_site_label
_atom_site_type_symbol
_atom_site_fract_x
_atom_site_fract_y
_atom_site_fract_z
N1 N 0.88264(11) 0.3796(3) 0.07144(19)
N2 N 0.84208(11) 0.2073(3) 0.0979(2)
N3 N 0.82369(12) 0.0672(3) -0.0196(2)
H1 H 0.8344(14) 0.142(4) -0.092(3)
O1 O 0.82063(10) 0.1464(3) 0.21849(16)
O2 O 0.90166(9) 0.4838(3) 0.20201(16)
C1 C 0.94956(15) 0.6753(4) 0.1769(3)
H2 H 0.96300 0.75060 0.26650
H3 H 0.91920 0.77250 0.11120
H4 H 0.99860 0.63090 0.13630
C2 C 0.73721(13) 0.0050(4) -0.0331(2)
H5 H 0.72540 -0.07190 0.05540
C3 C 0.72334(15) -0.1562(4) -0.1574(2)
H6 H 0.75790 -0.28450 -0.13940
H7 H 0.73790 -0.08660 -0.24550
C4 C 0.63509(14) -0.2285(4) -0.1755(3)
H8 H 0.62240 -0.31200 -0.09130
H9 H 0.62690 -0.32460 -0.25880
C5 C 0.57801(15) -0.0322(4) -0.1949(3)
H10 H 0.52220 -0.08350 -0.20060
H11 H 0.58670 0.04300 -0.28430
C6 C 0.59237(14) 0.1284(4) -0.0696(2)
H12 H 0.55750 0.25630 -0.08640
H13 H 0.57840 0.05750 0.01850
C7 C 0.68051(14) 0.2026(4) -0.0521(3)
H14 H 0.68880 0.29860 0.03120
H15 H 0.69300 0.28600 -0.13640
#END
