
#######################################################################
#
#                 Cambridge Crystallographic Data Centre
#                                CCDC
#
#######################################################################
#
# If this CIF has been generated from an entry in the Cambridge
# Structural Database, then it will include bibliographic, chemical,
# crystal, experimental, refinement or atomic coordinate data resulting
# from the CCDC's data processing and validation procedures.
#
#######################################################################

data_CSD_CIF_LALYEC
_audit_creation_date 1993-11-16
_audit_creation_method CSD-ConQuest-V1
_database_code_CSD LALYEC
_chemical_formula_sum 'C11 H9 N1 O4'
_chemical_formula_moiety
;
C11 H9 N1 O4
;
_journal_coeditor_code "IUCr HH1038"
_journal_coden_Cambridge 591
_journal_volume 49
_journal_year 1993
_journal_page_first 1401
_journal_name_full 'Acta Crystallogr.,Sect.C:Cryst.Struct.Commun. '
loop_
_publ_author_name
"J.G.Garcia"
"J.D.Enas"
"E.Chang"
"F.R.Fronczek"
_chemical_name_systematic
;
2-Ethyl-2-nitroindan-1,3-dione
;
_cell_volume   1050.747
_exptl_crystal_colour 'Colorless'
_exptl_crystal_density_diffrn 1.386
_diffrn_ambient_temperature ?
_diffrn_special_details
;
The study was carried out at room temperature,in the range 283-303K

;
#These two values have been output from a single CSD field.
_refine_ls_R_factor_gt 0.041
_refine_ls_wR_factor_gt 0.041
_symmetry_cell_setting monoclinic
_symmetry_space_group_name_H-M 'P 21/c'
_symmetry_Int_Tables_number 14
loop_
_symmetry_equiv_pos_site_id
_symmetry_equiv_pos_as_xyz
1 x,y,z
2 -x,1/2+y,1/2-z
3 -x,-y,-z
4 x,-1/2-y,-1/2+z
_cell_length_a 12.9862(5)
_cell_length_b 6.4062(5)
_cell_length_c 14.0857(12)
_cell_angle_alpha 90
_cell_angle_beta 116.275(6)
_cell_angle_gamma 90
_cell_formula_units_Z 4
loop_
_atom_type_symbol
_atom_type_radius_bond
C 0.68
H 0.23
N 0.68
O 0.68
loop_
_atom_site_label
_atom_site_type_symbol
_atom_site_fract_x
_atom_site_fract_y
_atom_site_fract_z
O1 O 0.6261(1) 0.6607(2) 0.4472(1)
O2 O 0.8413(1) 0.0411(2) 0.56066(9)
O3 O 0.8233(1) 0.4696(3) 0.6762(1)
O4 O 0.6731(1) 0.3341(4) 0.6724(1)
N1 N 0.7328(1) 0.3784(3) 0.6310(1)
C1 C 0.6908(1) 0.5212(3) 0.4563(1)
C2 C 0.7741(1) 0.5042(3) 0.4118(1)
C3 C 0.7933(2) 0.6440(3) 0.3462(1)
C4 C 0.8762(2) 0.5912(4) 0.3142(1)
C5 C 0.9374(1) 0.4071(4) 0.3460(1)
C6 C 0.9192(1) 0.2695(3) 0.4113(1)
C7 C 0.8360(1) 0.3201(3) 0.4442(1)
C8 C 0.8009(1) 0.2010(3) 0.5142(1)
C9 C 0.6981(1) 0.3162(3) 0.5176(1)
C10 C 0.5881(1) 0.1902(3) 0.4721(1)
C11 C 0.5439(2) 0.1452(3) 0.3559(2)
H1 H 0.750(1) 0.774(3) 0.321(1)
H2 H 0.890(2) 0.680(3) 0.267(1)
H3 H 0.996(2) 0.376(3) 0.322(1)
H4 H 0.964(1) 0.147(3) 0.434(1)
H5 H 0.530(2) 0.274(3) 0.483(1)
H6 H 0.603(2) 0.064(3) 0.513(1)
H7 H 0.476(2) 0.049(4) 0.334(2)
H8 H 0.522(2) 0.285(4) 0.318(2)
H9 H 0.600(2) 0.075(4) 0.336(2)
#END
