
#######################################################################
#
#                 Cambridge Crystallographic Data Centre
#                                CCDC
#
#######################################################################
#
# If this CIF has been generated from an entry in the Cambridge
# Structural Database, then it will include bibliographic, chemical,
# crystal, experimental, refinement or atomic coordinate data resulting
# from the CCDC's data processing and validation procedures.
#
#######################################################################

data_CSD_CIF_LALYUS
_audit_creation_date 1993-11-16
_audit_creation_method CSD-ConQuest-V1
_database_code_CSD LALYUS
_chemical_formula_sum 'C24 H28 N2 O4'
_chemical_formula_moiety
;
C24 H28 N2 O4
;
_journal_coeditor_code "IUCr PA1038"
_journal_coden_Cambridge 591
_journal_volume 49
_journal_year 1993
_journal_page_first 1406
_journal_name_full 'Acta Crystallogr.,Sect.C:Cryst.Struct.Commun. '
loop_
_publ_author_name
"A.Chiaroni"
"C.Riche"
"A.Guingant"
"J.d'Angelo"
_chemical_name_systematic
;
(+-)-p-Nitrobenzyl 
2-(2,2-dimethyl-1-phenylpropylamino)-1-cyclopentene-1-carboxylate
;
_chemical_melting_point 379
_cell_volume   2212.768
_exptl_crystal_colour 'yellow'
_exptl_crystal_density_diffrn 1.23
_diffrn_ambient_temperature ?
_diffrn_special_details
;
The study was carried out at room temperature,in the range 283-303K

;
#These two values have been output from a single CSD field.
_refine_ls_R_factor_gt 0.072
_refine_ls_wR_factor_gt 0.072
_symmetry_cell_setting monoclinic
_symmetry_space_group_name_H-M 'P 21/c'
_symmetry_Int_Tables_number 14
loop_
_symmetry_equiv_pos_site_id
_symmetry_equiv_pos_as_xyz
1 x,y,z
2 -x,1/2+y,1/2-z
3 -x,-y,-z
4 x,-1/2-y,-1/2+z
_cell_length_a 6.363(1)
_cell_length_b 13.536(2)
_cell_length_c 25.703(4)
_cell_angle_alpha 90
_cell_angle_beta 91.74(3)
_cell_angle_gamma 90
_cell_formula_units_Z 4
loop_
_atom_type_symbol
_atom_type_radius_bond
C 0.68
H 0.23
N 0.68
O 0.68
loop_
_atom_site_label
_atom_site_type_symbol
_atom_site_fract_x
_atom_site_fract_y
_atom_site_fract_z
C1 C 0.4983(7) 0.5317(3) 0.1043(2)
C2 C 0.6439(7) 0.5962(3) 0.0870(2)
C3 C 0.7964(8) 0.5446(3) 0.0520(2)
C4 C 0.7206(9) 0.4385(4) 0.0494(2)
C5 C 0.5305(8) 0.4288(3) 0.0838(2)
C6 C 0.3404(7) 0.5627(3) 0.1386(2)
C7 C 0.8119(6) 0.7614(3) 0.0780(2)
C8 C 0.7574(7) 0.7867(3) 0.0213(2)
C9 C 0.9129(8) 0.7904(4) -0.0150(2)
C10 C 0.8673(11) 0.8168(4) -0.0653(2)
C11 C 0.6671(13) 0.8386(4) -0.0818(2)
C12 C 0.5110(11) 0.8329(5) -0.0469(3)
C13 C 0.5519(8) 0.8055(4) 0.0047(2)
C14 C 0.8341(8) 0.8525(4) 0.1138(2)
C15 C 0.6253(10) 0.9075(4) 0.1191(3)
C16 C 0.9126(10) 0.8186(4) 0.1673(2)
C17 C 0.9910(11) 0.9244(5) 0.0917(3)
C18 C 0.0468(7) 0.5131(3) 0.1871(2)
C19 C -0.0797(7) 0.4211(3) 0.1978(2)
C20 C -0.0101(7) 0.3281(3) 0.1852(2)
C21 C -0.1295(7) 0.2462(3) 0.1956(2)
C22 C -0.3219(6) 0.2594(3) 0.2174(2)
C23 C -0.3983(7) 0.3527(3) 0.2303(2)
C24 C -0.2729(7) 0.4325(3) 0.2206(2)
N1 N 0.6621(6) 0.6927(3) 0.0990(2)
N2 N -0.4564(7) 0.1731(3) 0.2252(2)
O1 O 0.3169(6) 0.6459(2) 0.1557(2)
O2 O 0.2102(5) 0.4881(2) 0.1520(1)
O3 O -0.3846(6) 0.0914(3) 0.2154(2)
O4 O -0.6369(6) 0.1855(3) 0.2404(2)
H1 H 0.79324 0.57513 0.01657
H2 H 0.94259 0.54797 0.06736
H3 H 0.67965 0.42104 0.01266
H4 H 0.83479 0.39305 0.06226
H5 H 0.55997 0.38142 0.11296
H6 H 0.40433 0.40601 0.06294
H7 H 0.95294 0.72887 0.07723
H8 H 1.06094 0.77334 -0.00439
H9 H 0.98295 0.82017 -0.09076
H10 H 0.63576 0.85895 -0.11858
H11 H 0.36332 0.84798 -0.05870
H12 H 0.43420 0.79967 0.02939
H13 H 0.51875 0.86172 0.13373
H14 H 0.57453 0.93122 0.08409
H15 H 0.64619 0.96527 0.14294
H16 H 0.80876 0.77144 0.18192
H17 H 0.92850 0.87707 0.19082
H18 H 1.05155 0.78487 0.16433
H19 H 1.12900 0.89023 0.08785
H20 H 1.00974 0.98211 0.11566
H21 H 0.93807 0.94807 0.05680
H22 H 0.11061 0.53911 0.22038
H23 H -0.04682 0.56463 0.17084
H24 H 0.12854 0.31990 0.16845
H25 H -0.07770 0.17834 0.18737
H26 H -0.53912 0.36086 0.24601
H27 H -0.32196 0.50017 0.22998
H28 H 0.57600 0.71750 0.12650
#END
