
#######################################################################
#
#                 Cambridge Crystallographic Data Centre
#                                CCDC
#
#######################################################################
#
# If this CIF has been generated from an entry in the Cambridge
# Structural Database, then it will include bibliographic, chemical,
# crystal, experimental, refinement or atomic coordinate data resulting
# from the CCDC's data processing and validation procedures.
#
#######################################################################

data_CSD_CIF_LANFIR
_audit_creation_date 2012-04-25
_audit_creation_method CSD-ConQuest-V1
_database_code_CSD LANFIR
_database_code_depnum_ccdc_archive 'CCDC 872386'
_chemical_formula_sum 'C15 H13 N3 O5'
_chemical_formula_moiety
;
C15 H13 N3 O5
;
_journal_coeditor_code "IUCr SU2366"
_journal_coden_Cambridge 1370
_journal_volume 68
_journal_year 2012
_journal_page_first o559
_journal_name_full 'Acta Crystallogr.,Sect.E:Struct.Rep.Online '
loop_
_publ_author_name
"Zhao-Fu Zhu"
"Li-Juen Shao"
"Xi-Hai Shen"
_chemical_name_systematic
;
2-Hydroxy-N'-(5-hydroxy-2-nitrobenzylidene)-3-methylbenzohydrazide
;
_cell_volume    701.422
_exptl_crystal_colour 'colorless'
_exptl_crystal_density_diffrn 1.493
_exptl_crystal_description 'block'
_diffrn_ambient_temperature 298
#These two values have been output from a single CSD field.
_refine_ls_R_factor_gt 0.0508
_refine_ls_wR_factor_gt 0.0508
_symmetry_cell_setting triclinic
_symmetry_space_group_name_H-M 'P -1'
_symmetry_Int_Tables_number 2
loop_
_symmetry_equiv_pos_site_id
_symmetry_equiv_pos_as_xyz
1 x,y,z
2 -x,-y,-z
_cell_length_a 7.643(2)
_cell_length_b 9.055(3)
_cell_length_c 10.876(3)
_cell_angle_alpha 84.865(2)
_cell_angle_beta 72.732(2)
_cell_angle_gamma 77.479(2)
_cell_formula_units_Z 2
loop_
_atom_type_symbol
_atom_type_radius_bond
C 0.68
H 0.23
N 0.68
O 0.68
loop_
_atom_site_label
_atom_site_type_symbol
_atom_site_fract_x
_atom_site_fract_y
_atom_site_fract_z
N1 N 0.3407(2) 0.5111(2) 0.34762(17)
N2 N 0.3357(2) 0.12755(18) 0.60779(16)
N3 N 0.4581(2) 0.09322(19) 0.68114(17)
O1 O 0.4907(2) 0.46271(18) 0.36935(16)
O2 O 0.3020(2) 0.63840(17) 0.30078(17)
O3 O -0.1905(2) 0.15022(17) 0.43917(16)
H1 H -0.23280 0.15330 0.37780
O4 O 0.35835(19) -0.12443(16) 0.74968(15)
O5 O 0.4783(2) -0.29790(17) 0.91796(16)
H2 H 0.40520 -0.26190 0.87610
C1 C 0.2028(2) 0.2941(2) 0.46606(19)
C2 C 0.2020(2) 0.4156(2) 0.37541(19)
C3 C 0.0716(3) 0.4480(2) 0.3073(2)
H3 H 0.07290 0.52990 0.24920
C4 C -0.0602(3) 0.3606(2) 0.3242(2)
H4 H -0.14620 0.38160 0.27680
C5 C -0.0633(3) 0.2405(2) 0.4132(2)
C6 C 0.0654(3) 0.2105(2) 0.4831(2)
H5 H 0.05940 0.13120 0.54380
C7 C 0.3329(3) 0.2528(2) 0.5452(2)
H6 H 0.41120 0.31670 0.54930
C8 C 0.4651(3) -0.0391(2) 0.7500(2)
C9 C 0.6023(3) -0.0770(2) 0.8241(2)
C10 C 0.6006(3) -0.2070(2) 0.9055(2)
C11 C 0.7307(3) -0.2501(2) 0.9763(2)
C12 C 0.8620(3) -0.1626(3) 0.9628(2)
H7 H 0.94970 -0.19000 1.00860
C13 C 0.8668(3) -0.0341(3) 0.8822(3)
H8 H 0.95730 0.02300 0.87430
C14 C 0.7382(3) 0.0073(2) 0.8151(2)
H9 H 0.74130 0.09370 0.76200
C15 C 0.7271(4) -0.3903(3) 1.0606(2)
H10 H 0.81530 -0.39780 1.10910
H11 H 0.75980 -0.47750 1.00810
H12 H 0.60390 -0.38560 1.11870
H13 H 0.538(3) 0.152(2) 0.679(2)
#END
