
#######################################################################
#
#                 Cambridge Crystallographic Data Centre
#                                CCDC
#
#######################################################################
#
# If this CIF has been generated from an entry in the Cambridge
# Structural Database, then it will include bibliographic, chemical,
# crystal, experimental, refinement or atomic coordinate data resulting
# from the CCDC's data processing and validation procedures.
#
#######################################################################

data_CSD_CIF_LANLOC01
_audit_creation_date 2006-03-02
_audit_creation_method CSD-ConQuest-V1
_database_code_CSD LANLOC01
_database_code_depnum_ccdc_archive 'CCDC 296343'
_chemical_formula_sum 'C10 H10 N2 O6'
_chemical_formula_moiety
;
C10 H10 N2 O6
;
_journal_coeditor_code "IUCr SK1889"
_journal_coden_Cambridge 591
_journal_volume 62
_journal_year 2006
_journal_page_first o26
_journal_name_full 'Acta Crystallogr.,Sect.C:Cryst.Struct.Commun. '
loop_
_publ_author_name
"T.R.A.Vasconcelos"
"M.V.N.de Souza"
"S.M.S.V.Wardell"
"J.L.Wardell"
"J.N.Low"
"C.Glidewell"
_chemical_name_systematic
;
Isopropyl 3,5-dinitrobenzoate
;
_cell_volume   1130.219
_exptl_crystal_colour 'colorless'
_exptl_crystal_density_diffrn 1.494
_exptl_crystal_description 'block'
_exptl_crystal_preparation 'ethanol'
_diffrn_ambient_temperature 120
#These two values have been output from a single CSD field.
_refine_ls_R_factor_gt 0.0385
_refine_ls_wR_factor_gt 0.0385
_symmetry_cell_setting monoclinic
_symmetry_space_group_name_H-M 'P 21/n'
_symmetry_Int_Tables_number 14
loop_
_symmetry_equiv_pos_site_id
_symmetry_equiv_pos_as_xyz
1 x,y,z
2 1/2-x,1/2+y,1/2-z
3 -x,-y,-z
4 -1/2+x,-1/2-y,-1/2+z
_cell_length_a 9.7037(3)
_cell_length_b 5.7152(2)
_cell_length_c 20.4739(9)
_cell_angle_alpha 90
_cell_angle_beta 95.504(2)
_cell_angle_gamma 90
_cell_formula_units_Z 4
loop_
_atom_type_symbol
_atom_type_radius_bond
C 0.68
H 0.23
N 0.68
O 0.68
loop_
_atom_site_label
_atom_site_type_symbol
_atom_site_fract_x
_atom_site_fract_y
_atom_site_fract_z
O1 O 0.27425(9) 0.16199(16) 0.63304(5)
O2 O 0.32924(8) 0.47435(15) 0.57331(4)
O3 O 0.63611(10) 1.06799(16) 0.67549(5)
O4 O 0.67594(9) 1.08403(16) 0.78148(5)
O5 O 0.52347(10) 0.45491(17) 0.91396(5)
O6 O 0.41232(9) 0.16298(16) 0.86658(5)
N1 N 0.62359(10) 0.99248(18) 0.73064(6)
N2 N 0.46624(10) 0.35684(19) 0.86574(5)
C1 C 0.39856(12) 0.4773(2) 0.68655(6)
C2 C 0.47145(11) 0.6845(2) 0.68063(6)
C3 C 0.54042(11) 0.7796(2) 0.73684(6)
C4 C 0.53871(11) 0.6808(2) 0.79833(6)
C5 C 0.46452(12) 0.4756(2) 0.80192(6)
C6 C 0.39433(11) 0.3724(2) 0.74748(6)
C7 C 0.32647(11) 0.3529(2) 0.62836(6)
C8 C 0.25439(13) 0.3717(2) 0.51385(6)
C9 C 0.21072(19) 0.5760(3) 0.47026(8)
C10 C 0.35003(15) 0.2029(3) 0.48437(8)
H1 H 0.47390 0.75880 0.63920
H2 H 0.58610 0.75040 0.83620
H3 H 0.34390 0.23160 0.75170
H4 H 0.17050 0.28650 0.52600
H5 H 0.15840 0.68760 0.49460
H6 H 0.15230 0.52030 0.43170
H7 H 0.29300 0.65330 0.45610
H8 H 0.43420 0.28520 0.47450
H9 H 0.30360 0.13740 0.44380
H10 H 0.37460 0.07620 0.51560
#END
