
#######################################################################
#
#                 Cambridge Crystallographic Data Centre
#                                CCDC
#
#######################################################################
#
# If this CIF has been generated from an entry in the Cambridge
# Structural Database, then it will include bibliographic, chemical,
# crystal, experimental, refinement or atomic coordinate data resulting
# from the CCDC's data processing and validation procedures.
#
#######################################################################

data_CSD_CIF_LANMAP
_audit_creation_date 2005-08-24
_audit_creation_method CSD-ConQuest-V1
_database_code_CSD LANMAP
_database_code_depnum_ccdc_archive 'CCDC 271840'
_chemical_formula_sum 'C19 H18 N2 O4'
_chemical_formula_moiety
;
C19 H18 N2 O4
;
_journal_coeditor_code "IUCr CI6561"
_journal_coden_Cambridge 1370
_journal_volume 61
_journal_year 2005
_journal_page_first o1390
_journal_name_full 'Acta Crystallogr.,Sect.E:Struct.Rep.Online '
loop_
_publ_author_name
"Hai-Bo Wang"
"Yue-Qing Pu"
"Jia-Hui Chen"
"Jin-Tang Wang"
_chemical_name_systematic
;
Methyl 2-((3-(2-methylphenyl)-1,2,4-oxadiazol-5-yl)methoxy)phenylacetate
;
_chemical_melting_point 339
_cell_volume   1717.902
_exptl_crystal_colour 'colorless'
_exptl_crystal_density_diffrn 1.308
_exptl_special_details
;
Melting point range 339-341K

;
_exptl_crystal_description 'rod'
_exptl_crystal_preparation 'ethanol'
_diffrn_ambient_temperature 293
#These two values have been output from a single CSD field.
_refine_ls_R_factor_gt 0.0549
_refine_ls_wR_factor_gt 0.0549
_symmetry_cell_setting monoclinic
_symmetry_space_group_name_H-M 'P 21/c'
_symmetry_Int_Tables_number 14
loop_
_symmetry_equiv_pos_site_id
_symmetry_equiv_pos_as_xyz
1 x,y,z
2 -x,1/2+y,1/2-z
3 -x,-y,-z
4 x,-1/2-y,-1/2+z
_cell_length_a 11.444(2)
_cell_length_b 7.9540(16)
_cell_length_c 19.356(4)
_cell_angle_alpha 90
_cell_angle_beta 102.83(3)
_cell_angle_gamma 90
_cell_formula_units_Z 4
loop_
_atom_type_symbol
_atom_type_radius_bond
C 0.68
H 0.23
N 0.68
O 0.68
loop_
_atom_site_label
_atom_site_type_symbol
_atom_site_fract_x
_atom_site_fract_y
_atom_site_fract_z
O1 O 0.4065(2) 0.2664(3) 0.19215(12)
O2 O 0.3832(2) 0.5147(3) 0.13758(11)
O3 O 0.45200(16) 0.2324(2) 0.01556(10)
O4 O 0.62060(15) 0.1207(3) 0.11337(9)
N1 N 0.7203(2) 0.0407(3) 0.15787(12)
N2 N 0.74888(17) 0.0696(3) 0.04723(10)
C1 C 0.4913(3) 0.3405(5) 0.25015(18)
H1 H 0.51900 0.25670 0.28570
H2 H 0.45350 0.43020 0.27020
H3 H 0.55810 0.38410 0.23330
C2 C 0.3589(2) 0.3668(4) 0.13877(15)
C3 C 0.2708(3) 0.2786(4) 0.08140(17)
H4 H 0.19200 0.28460 0.09200
H5 H 0.29290 0.16090 0.08100
C4 C 0.2649(2) 0.3520(3) 0.00922(15)
C5 C 0.1694(3) 0.4475(4) -0.0268(2)
H6 H 0.10510 0.46770 -0.00580
C6 C 0.1674(3) 0.5134(4) -0.0928(2)
H7 H 0.10160 0.57500 -0.11640
C7 C 0.2623(3) 0.4879(4) -0.12331(17)
H8 H 0.26160 0.53390 -0.16760
C8 C 0.3592(3) 0.3944(3) -0.08905(15)
H9 H 0.42380 0.37650 -0.11010
C9 C 0.3597(2) 0.3277(3) -0.02338(14)
C10 C 0.5594(2) 0.2163(3) -0.00767(14)
H10 H 0.58890 0.32610 -0.01740
H11 H 0.54650 0.14960 -0.05070
C11 C 0.6468(2) 0.1321(3) 0.04997(13)
C12 C 0.7920(2) 0.0125(3) 0.11583(13)
C13 C 0.9101(2) -0.0679(3) 0.13768(13)
C14 C 0.9866(2) -0.0539(4) 0.09153(15)
H12 H 0.96110 0.00530 0.04940
C15 C 1.0988(2) -0.1249(4) 0.10619(16)
H13 H 1.14860 -0.11390 0.07450
C16 C 1.1365(3) -0.2129(4) 0.16864(17)
H14 H 1.21200 -0.26250 0.17940
C17 C 1.0616(3) -0.2266(3) 0.21481(16)
H15 H 1.08870 -0.28470 0.25700
C18 C 0.9478(2) -0.1580(3) 0.20150(13)
C19 C 0.8720(3) -0.1853(4) 0.25439(14)
H16 H 0.91650 -0.24860 0.29380
H17 H 0.80100 -0.24630 0.23250
H18 H 0.84980 -0.07860 0.27080
#END
