
#######################################################################
#
#                 Cambridge Crystallographic Data Centre
#                                CCDC
#
#######################################################################
#
# If this CIF has been generated from an entry in the Cambridge
# Structural Database, then it will include bibliographic, chemical,
# crystal, experimental, refinement or atomic coordinate data resulting
# from the CCDC's data processing and validation procedures.
#
#######################################################################

data_CSD_CIF_LANNOG
_audit_creation_date 2017-04-03
_audit_creation_method CSD-ConQuest-V1
_database_code_CSD LANNOG
_database_code_depnum_ccdc_archive 'CCDC 667860'
_chemical_formula_sum 'C19 H25 N1 O6'
_chemical_formula_moiety
;
C19 H25 N1 O6
;
_journal_coden_Cambridge 917
_journal_volume 11
_journal_year 2015
_journal_page_first 2166
_journal_name_full 'Beilstein J.Org.Chem. '
loop_
_publ_author_name
"B.Turovska"
"Henning Lund"
"V.Lusis"
"A.Lielpetere"
"E.Liepins"
"S.Beljakovs"
"Inguna Goba"
"J.Stradins"
_chemical_name_systematic
;
5-Hydroxy-2,6-dimethyl-4-phenyl-7-oxa-1-azabicyclo[4.1.0]heptane-3,5-dicarboxy
lic acid diethyl ester
;
_chemical_name_common
;
diethyl 
5-hydroxy-2,6-dimethyl-4-phenyl-7-oxa-1-azabicyclo[4.1.0]heptane-3,5-dicarboxy
late
;
_cell_volume   1983.308
_exptl_crystal_colour 'colorless'
_exptl_crystal_density_diffrn 1.217
_exptl_crystal_description 'Prism'
_exptl_crystal_preparation 'chloroform'
_diffrn_ambient_temperature 298
#These two values have been output from a single CSD field.
_refine_ls_R_factor_gt 0.064
_refine_ls_wR_factor_gt 0.064
_symmetry_cell_setting monoclinic
_symmetry_space_group_name_H-M 'P 21/c'
_symmetry_Int_Tables_number 14
loop_
_symmetry_equiv_pos_site_id
_symmetry_equiv_pos_as_xyz
1 x,y,z
2 -x,1/2+y,1/2-z
3 -x,-y,-z
4 x,-1/2-y,-1/2+z
_cell_length_a 9.9122(3)
_cell_length_b 13.0411(3)
_cell_length_c 16.1476(6)
_cell_angle_alpha 90
_cell_angle_beta 108.165(11)
_cell_angle_gamma 90
_cell_formula_units_Z 4
loop_
_atom_type_symbol
_atom_type_radius_bond
C 0.68
H 0.23
N 0.68
O 0.68
loop_
_atom_site_label
_atom_site_type_symbol
_atom_site_fract_x
_atom_site_fract_y
_atom_site_fract_z
C1 C 0.9985(2) 0.16629(15) 0.33240(13)
C2 C 0.8914(2) 0.12461(17) 0.37322(14)
O1 O 0.9959(2) 0.40619(13) 0.20699(13)
C3 C 0.9378(3) 0.25849(15) 0.27310(14)
O2 O 0.8178(2) 0.19833(13) 0.39481(13)
O3 O 0.8782(2) 0.03540(12) 0.38778(13)
O4 O 1.1283(3) 0.15687(15) 0.18528(14)
O5 O 1.1803(2) 0.37213(15) 0.38191(13)
C4 C 0.8006(3) 0.2321(2) 0.20154(16)
C5 C 1.1920(3) 0.32298(19) 0.30704(17)
C6 C 1.0488(3) 0.30752(17) 0.23645(15)
O6 O 1.0428(3) 0.28239(19) 0.08846(14)
N1 N 1.2360(2) 0.26235(16) 0.38572(13)
C7 C 1.0709(3) 0.2479(2) 0.16097(16)
C8 C 1.1349(3) 0.19142(19) 0.40686(15)
C9 C 0.7160(4) 0.1685(3) 0.4379(3)
C10 C 0.7777(3) 0.1385(2) 0.15943(18)
C11 C 1.3122(3) 0.3596(3) 0.2763(2)
C12 C 1.2175(4) 0.0948(3) 0.4422(2)
C13 C 0.6921(4) 0.3037(3) 0.1780(2)
C14 C 0.5445(4) 0.1890(5) 0.0733(3)
C15 C 0.6493(4) 0.1178(3) 0.0953(2)
C16 C 0.5659(4) 0.2808(4) 0.1149(3)
C17 C 0.5849(5) 0.1288(6) 0.3746(5)
C18 C 1.1536(9) 0.0952(5) 0.1164(4)
C19 C 1.2352(15) 0.0215(8) 0.1389(8)
H1 H 0.92412 0.31620 0.31337
H2 H 1.01122 0.11631 0.29523
H3 H 1.10708 0.22571 0.45300
H4 H 0.50795 0.34360 0.10366
H5 H 0.85480 0.08433 0.17961
H6 H 1.03792 0.43211 0.15984
H7 H 1.06637 0.06476 0.08116
H8 H 1.19032 0.13938 0.08105
H9 H 1.24534 -0.01290 0.08861
H10 H 1.20154 -0.02624 0.17326
H11 H 1.32549 0.04838 0.17316
H12 H 0.51851 0.10883 0.40399
H13 H 0.60813 0.07047 0.34543
H14 H 0.54334 0.18120 0.33260
H15 H 1.30206 0.11206 0.48853
H16 H 1.24279 0.06111 0.39634
H17 H 1.15964 0.04992 0.46404
H18 H 1.31265 0.32241 0.22504
H19 H 1.40049 0.34862 0.32156
H20 H 1.30056 0.43144 0.26300
H21 H 0.75613 0.11551 0.47953
H22 H 0.69279 0.22668 0.46723
H23 H 0.70525 0.36961 0.20593
H24 H 0.45622 0.17426 0.02917
H25 H 0.63607 0.05255 0.06642
#END
