
#######################################################################
#
#                 Cambridge Crystallographic Data Centre
#                                CCDC
#
#######################################################################
#
# If this CIF has been generated from an entry in the Cambridge
# Structural Database, then it will include bibliographic, chemical,
# crystal, experimental, refinement or atomic coordinate data resulting
# from the CCDC's data processing and validation procedures.
#
#######################################################################

data_CSD_CIF_LANRAV
_audit_creation_date 2012-04-25
_audit_creation_method CSD-ConQuest-V1
_database_code_CSD LANRAV
_database_code_depnum_ccdc_archive 'CCDC 872434'
_chemical_formula_sum 'C12 H13 N3 O1'
_chemical_formula_moiety
;
C12 H13 N3 O1
;
_journal_coeditor_code "IUCr HB6619"
_journal_coden_Cambridge 1370
_journal_volume 68
_journal_year 2012
_journal_page_first o627
_journal_name_full 'Acta Crystallogr.,Sect.E:Struct.Rep.Online '
loop_
_publ_author_name
"H.-K.Fun"
"C.K.Quah"
"M.I.Attia"
"M.S.Almutairi"
"S.W.Ghoneim"
_chemical_name_systematic
;
(E)-N-(3-(Imidazol-1-yl)-1-phenylpropylidene)hydroxylamine
;
_chemical_name_common
;
(E)-N-Hydroxy-3-(1H-imidazol-1-yl)-1-phenylpropan-1-imine
;
_cell_volume   1133.792
_exptl_crystal_colour 'colorless'
_exptl_crystal_density_diffrn 1.261
_exptl_crystal_description 'block'
_exptl_crystal_preparation 'ethanol'
_diffrn_ambient_temperature 100
#These two values have been output from a single CSD field.
_refine_ls_R_factor_gt 0.0648
_refine_ls_wR_factor_gt 0.0648
_symmetry_cell_setting monoclinic
_symmetry_space_group_name_H-M 'P 21/c'
_symmetry_Int_Tables_number 14
loop_
_symmetry_equiv_pos_site_id
_symmetry_equiv_pos_as_xyz
1 x,y,z
2 -x,1/2+y,1/2-z
3 -x,-y,-z
4 x,-1/2-y,-1/2+z
_cell_length_a 8.0990(1)
_cell_length_b 14.0513(2)
_cell_length_c 9.9771(2)
_cell_angle_alpha 90
_cell_angle_beta 93.058(1)
_cell_angle_gamma 90
_cell_formula_units_Z 4
loop_
_atom_type_symbol
_atom_type_radius_bond
C 0.68
H 0.23
N 0.68
O 0.68
loop_
_atom_site_label
_atom_site_type_symbol
_atom_site_fract_x
_atom_site_fract_y
_atom_site_fract_z
O1 O 0.35159(18) 1.05298(10) 0.16643(14)
N1 N 0.2389(2) 1.00261(11) 0.24156(16)
N2 N 0.37457(19) 0.78810(11) 0.03621(15)
N3 N 0.4790(2) 0.66854(12) 0.15734(17)
C1 C -0.0041(2) 0.79271(13) 0.20420(18)
H1 H 0.04700 0.76500 0.13010
C2 C -0.1123(2) 0.73889(14) 0.27705(19)
H2 H -0.13390 0.67450 0.25290
C3 C -0.1888(2) 0.77890(14) 0.38485(19)
H3 H -0.26120 0.74170 0.43540
C4 C -0.1592(2) 0.87348(14) 0.41854(19)
H4 H -0.21310 0.90140 0.49110
C5 C -0.0509(2) 0.92730(14) 0.34644(19)
H5 H -0.03130 0.99200 0.37000
C6 C 0.0299(2) 0.88731(13) 0.23934(18)
C7 C 0.1555(2) 0.94228(12) 0.16866(17)
C8 C 0.1779(2) 0.92702(13) 0.02083(18)
H6 H 0.16310 0.98880 -0.02590
H7 H 0.08960 0.88380 -0.01500
C9 C 0.3457(2) 0.88532(13) -0.01285(18)
H8 H 0.35360 0.88580 -0.11150
H9 H 0.43440 0.92700 0.02610
C10 C 0.4732(2) 0.76180(14) 0.14318(19)
H10 H 0.53150 0.80530 0.20130
C11 C 0.3783(3) 0.63328(14) 0.0532(2)
H11 H 0.35770 0.56770 0.03650
C12 C 0.3129(3) 0.70599(14) -0.0221(2)
H12 H 0.23960 0.70110 -0.09940
H13 H 0.403(3) 1.0915(19) 0.227(3)
#END
