
#######################################################################
#
#                 Cambridge Crystallographic Data Centre
#                                CCDC
#
#######################################################################
#
# If this CIF has been generated from an entry in the Cambridge
# Structural Database, then it will include bibliographic, chemical,
# crystal, experimental, refinement or atomic coordinate data resulting
# from the CCDC's data processing and validation procedures.
#
#######################################################################

data_CSD_CIF_LAPCUC
_audit_creation_date 2012-04-25
_audit_creation_method CSD-ConQuest-V1
_database_code_CSD LAPCUC
_database_code_depnum_ccdc_archive 'CCDC 872483'
_chemical_formula_sum 'C14 H10 N4 O5'
_chemical_formula_moiety
;
C14 H10 N4 O5
;
_journal_coeditor_code "IUCr RZ2706"
_journal_coden_Cambridge 1370
_journal_volume 68
_journal_year 2012
_journal_page_first o696
_journal_name_full 'Acta Crystallogr.,Sect.E:Struct.Rep.Online '
loop_
_publ_author_name
"Xiao-Yan Li"
_chemical_name_systematic
;
(E)-3-Nitro-N'-(3-nitrobenzylidene)benzohydrazide
;
_cell_volume   1385.095
_exptl_crystal_colour 'yellow'
_exptl_crystal_density_diffrn 1.507
_exptl_crystal_description 'block'
_exptl_crystal_preparation 'methanol'
_diffrn_ambient_temperature 298
#These two values have been output from a single CSD field.
_refine_ls_R_factor_gt 0.0781
_refine_ls_wR_factor_gt 0.0781
_symmetry_cell_setting monoclinic
_symmetry_space_group_name_H-M 'P 21/c'
_symmetry_Int_Tables_number 14
loop_
_symmetry_equiv_pos_site_id
_symmetry_equiv_pos_as_xyz
1 x,y,z
2 -x,1/2+y,1/2-z
3 -x,-y,-z
4 x,-1/2-y,-1/2+z
_cell_length_a 11.990(2)
_cell_length_b 13.558(3)
_cell_length_c 8.5800(17)
_cell_angle_alpha 90
_cell_angle_beta 96.752(3)
_cell_angle_gamma 90
_cell_formula_units_Z 4
loop_
_atom_type_symbol
_atom_type_radius_bond
C 0.68
H 0.23
N 0.68
O 0.68
loop_
_atom_site_label
_atom_site_type_symbol
_atom_site_fract_x
_atom_site_fract_y
_atom_site_fract_z
N1 N 0.8246(4) 1.2678(3) 0.8515(5)
N2 N 0.8191(3) 0.8283(2) 0.9318(3)
N3 N 0.7696(3) 0.7597(2) 1.0230(3)
N4 N 0.4731(3) 0.6122(3) 1.3512(4)
O1 O 0.8698(3) 1.3372(2) 0.7988(5)
O2 O 0.7442(4) 1.2775(2) 0.9211(6)
O3 O 0.7514(2) 0.65035(18) 0.8226(3)
O4 O 0.4850(3) 0.6965(3) 1.3969(4)
O5 O 0.4032(3) 0.5562(2) 1.3942(4)
C1 C 0.8687(3) 1.1684(3) 0.8334(5)
C2 C 0.8264(3) 1.0930(3) 0.9150(4)
H1 H 0.77450 1.10600 0.98470
C3 C 0.8614(3) 0.9976(3) 0.8931(4)
C4 C 0.9389(3) 0.9806(3) 0.7874(4)
H2 H 0.96170 0.91640 0.76940
C5 C 0.9824(3) 1.0578(3) 0.7092(5)
H3 H 1.03530 1.04540 0.64060
C6 C 0.9481(3) 1.1527(3) 0.7317(5)
H4 H 0.97770 1.20510 0.68000
C7 C 0.8141(3) 0.9163(3) 0.9779(4)
H5 H 0.77990 0.93010 1.06730
C8 C 0.7364(3) 0.6733(3) 0.9574(4)
C9 C 0.6758(3) 0.6059(2) 1.0562(4)
C10 C 0.6077(3) 0.6410(3) 1.1635(4)
H6 H 0.60230 0.70830 1.18220
C11 C 0.5486(3) 0.5746(3) 1.2414(4)
C12 C 0.5539(3) 0.4742(3) 1.2183(4)
H7 H 0.51250 0.43090 1.27290
C13 C 0.6222(3) 0.4398(3) 1.1121(4)
H8 H 0.62800 0.37230 1.09510
C14 C 0.6824(3) 0.5053(3) 1.0302(4)
H9 H 0.72740 0.48170 0.95740
H10 H 0.759(3) 0.772(3) 1.1226(19)
#END
