
#######################################################################
#
#                 Cambridge Crystallographic Data Centre
#                                CCDC
#
#######################################################################
#
# If this CIF has been generated from an entry in the Cambridge
# Structural Database, then it will include bibliographic, chemical,
# crystal, experimental, refinement or atomic coordinate data resulting
# from the CCDC's data processing and validation procedures.
#
#######################################################################

data_CSD_CIF_LAPCOW
_audit_creation_date 2012-04-25
_audit_creation_method CSD-ConQuest-V1
_database_code_CSD LAPCOW
_database_code_depnum_ccdc_archive 'CCDC 872482'
_chemical_formula_sum 'C6 H4 N2 O7'
_chemical_formula_moiety
;
C6 H4 N2 O7
;
_journal_coeditor_code "IUCr CV5241"
_journal_coden_Cambridge 1370
_journal_volume 68
_journal_year 2012
_journal_page_first o695
_journal_name_full 'Acta Crystallogr.,Sect.E:Struct.Rep.Online '
loop_
_publ_author_name
"C.Neis"
"G.J.Merten"
"K.Hegetschweiler"
_chemical_name_systematic
;
4,6-Dinitrobenzene-1,2,3-triol
;
_chemical_name_common
;
4,6-dinitropyrogallol
;
_cell_volume    756.455
_exptl_crystal_colour 'light brown'
_exptl_crystal_density_diffrn 1.898
_exptl_crystal_description 'prism'
_diffrn_ambient_temperature 200
#These two values have been output from a single CSD field.
_refine_ls_R_factor_gt 0.0313
_refine_ls_wR_factor_gt 0.0313
_symmetry_cell_setting monoclinic
_symmetry_space_group_name_H-M 'P 21/c'
_symmetry_Int_Tables_number 14
loop_
_symmetry_equiv_pos_site_id
_symmetry_equiv_pos_as_xyz
1 x,y,z
2 -x,1/2+y,1/2-z
3 -x,-y,-z
4 x,-1/2-y,-1/2+z
_cell_length_a 6.7612(14)
_cell_length_b 10.878(2)
_cell_length_c 10.297(2)
_cell_angle_alpha 90
_cell_angle_beta 92.75(3)
_cell_angle_gamma 90
_cell_formula_units_Z 4
loop_
_atom_type_symbol
_atom_type_radius_bond
C 0.68
H 0.23
N 0.68
O 0.68
loop_
_atom_site_label
_atom_site_type_symbol
_atom_site_fract_x
_atom_site_fract_y
_atom_site_fract_z
C1 C 0.03683(18) 0.22251(11) 0.46470(11)
H1 H 0.01810 0.15420 0.52030
C2 C 0.09313(18) 0.42549(12) 0.30137(11)
C3 C -0.10033(17) 0.31771(12) 0.45731(11)
C4 C -0.07860(17) 0.42018(11) 0.37270(11)
C5 C 0.20152(17) 0.22875(11) 0.38968(11)
C6 C 0.23403(17) 0.33087(12) 0.30757(11)
O1 O 0.11938(14) 0.52556(9) 0.22378(9)
H2 H 0.235(2) 0.5179(17) 0.1964(17)
O2 O -0.20607(13) 0.51466(9) 0.35774(9)
H3 H -0.310(2) 0.4983(17) 0.3996(17)
O3 O 0.38713(14) 0.34789(10) 0.23055(10)
H4 H 0.467(3) 0.2905(15) 0.2362(18)
N1 N 0.34037(15) 0.12578(10) 0.39485(10)
N2 N -0.26572(15) 0.31109(10) 0.54231(10)
O4 O 0.50228(13) 0.14010(9) 0.34200(9)
O5 O 0.29368(14) 0.03088(9) 0.44938(9)
O6 O -0.40392(14) 0.38686(10) 0.52605(9)
O7 O -0.26491(15) 0.23213(9) 0.62784(10)
#END
