
#######################################################################
#
#                 Cambridge Crystallographic Data Centre
#                                CCDC
#
#######################################################################
#
# If this CIF has been generated from an entry in the Cambridge
# Structural Database, then it will include bibliographic, chemical,
# crystal, experimental, refinement or atomic coordinate data resulting
# from the CCDC's data processing and validation procedures.
#
#######################################################################

data_CSD_CIF_LAPTEC
_audit_creation_date 2005-08-24
_audit_creation_method CSD-ConQuest-V1
_database_code_CSD LAPTEC
_database_code_depnum_ccdc_archive 'CCDC 253212'
_chemical_formula_sum 'C20 H17 N2 O3'
_chemical_formula_moiety
;
C20 H17 N2 O3
;
_journal_coden_Cambridge 24
_journal_volume 46
_journal_year 2005
_journal_page_first 2635
_journal_name_full 'Tetrahedron Lett. '
loop_
_publ_author_name
"A.S.Amarasekara"
_chemical_name_systematic
;
3,7-Diphenyl-4,5,6,6a-tetrahydroisoxazolo[4,3-h][1,2]benzisoxazole-1-oxide
;
_chemical_melting_point 449.15
_cell_volume   1669.888
_exptl_crystal_density_diffrn 1.326
_exptl_special_details
;
Melting point range 449.15-450.15K

;
_exptl_crystal_description 'rod'
_diffrn_ambient_temperature 293
_refine_special_details
;
Two C atoms are disordered over two sites with occupancies 0.67:0.33.

;
#These two values have been output from a single CSD field.
_refine_ls_R_factor_gt 0.0649
_refine_ls_wR_factor_gt 0.0649
_symmetry_cell_setting monoclinic
_symmetry_space_group_name_H-M 'P 21/c'
_symmetry_Int_Tables_number 14
loop_
_symmetry_equiv_pos_site_id
_symmetry_equiv_pos_as_xyz
1 x,y,z
2 -x,1/2+y,1/2-z
3 -x,-y,-z
4 x,-1/2-y,-1/2+z
_cell_length_a 14.267(3)
_cell_length_b 11.190(2)
_cell_length_c 10.576(2)
_cell_angle_alpha 90
_cell_angle_beta 98.50(3)
_cell_angle_gamma 90
_cell_formula_units_Z 4
loop_
_atom_type_symbol
_atom_type_radius_bond
C 0.68
H 0.23
N 0.68
O 0.68
loop_
_atom_site_label
_atom_site_type_symbol
_atom_site_fract_x
_atom_site_fract_y
_atom_site_fract_z
C1 C 0.1681(2) 0.2539(2) -0.1255(2)
N1 N 0.2007(2) 0.1557(2) -0.2077(2)
O1 O 0.1563(2) 0.0607(2) -0.2280(2)
O2 O 0.2781(2) 0.1802(2) -0.2491(2)
C2 C 0.3055(2) 0.2980(3) -0.2011(3)
C3 C 0.2452(2) 0.3425(3) -0.1280(3)
C4 C 0.2323(3) 0.4636(3) -0.0741(3)
H1 H 0.2537(3) 0.5234(3) -0.1283(3)
H2 H 0.2690(3) 0.4702(3) 0.0093(3)
C5 C 0.1245(5) 0.4821(6) -0.0648(6)
H3 H 0.1120(5) 0.5662(6) -0.0603(6)
H4 H 0.1107(5) 0.4463(6) 0.0129(6)
C6 C 0.0589(5) 0.4294(5) -0.1802(6)
H5 H 0.0753(5) 0.4592(5) -0.2592(6)
H6 H -0.0053(5) 0.4524(5) -0.1751(6)
C7? C 0.1448(9) 0.5148(10) -0.1260(15)
H7? H 0.1410(9) 0.5391(10) -0.2136(15)
H8? H 0.1394(9) 0.5842(10) -0.0743(15)
C8? C 0.0649(10) 0.4333(10) -0.1082(15)
H9? H 0.0052(10) 0.4711(10) -0.1372(15)
H10? H 0.0673(10) 0.4191(10) -0.0183(15)
C9 C 0.0679(2) 0.2957(2) -0.1734(3)
H11 H 0.0506(2) 0.2659(2) -0.2588(3)
C10 C 0.0144(2) 0.2247(2) -0.0866(3)
N2 N 0.0677(2) 0.1772(2) 0.0079(2)
O3 O 0.16455(15) 0.2033(2) -0.0028(2)
C11 C 0.3898(2) 0.3484(3) -0.2445(3)
C12 C 0.4161(2) 0.3137(3) -0.3596(4)
H12 H 0.3793(2) 0.2546(3) -0.4107(4)
C13 C 0.4948(3) 0.3624(4) -0.4009(5)
H13 H 0.5111(3) 0.3383(4) -0.4820(5)
C14 C 0.5484(3) 0.4462(4) -0.3289(5)
H14 H 0.6030(3) 0.4789(4) -0.3598(5)
C15 C 0.5239(3) 0.4815(4) -0.2147(5)
H15 H 0.5618(3) 0.5413(4) -0.1661(5)
C16 C 0.4458(3) 0.4331(4) -0.1717(4)
H16 H 0.4300(3) 0.4564(4) -0.0901(4)
C17 C -0.0885(2) 0.2084(3) -0.1023(3)
C18 C -0.1480(3) 0.2724(3) -0.1932(4)
H17 H -0.1214(3) 0.3286(3) -0.2465(4)
C19 C -0.2447(3) 0.2554(4) -0.2080(4)
H18 H -0.2850(3) 0.3012(4) -0.2708(4)
C20 C -0.2833(3) 0.1743(4) -0.1333(5)
H19 H -0.3507(3) 0.1632(4) -0.1430(5)
C21 C -0.2247(3) 0.1084(4) -0.0452(4)
H20 H -0.2512(3) 0.0500(4) 0.0057(4)
C22 C -0.1285(2) 0.1246(3) -0.0288(3)
H21 H -0.0883(2) 0.0794(3) 0.0346(3)
#END
