
#######################################################################
#
#                 Cambridge Crystallographic Data Centre
#                                CCDC
#
#######################################################################
#
# If this CIF has been generated from an entry in the Cambridge
# Structural Database, then it will include bibliographic, chemical,
# crystal, experimental, refinement or atomic coordinate data resulting
# from the CCDC's data processing and validation procedures.
#
#######################################################################

data_CSD_CIF_LAPVUW
_audit_creation_date 2017-04-03
_audit_creation_method CSD-ConQuest-V1
_database_code_CSD LAPVUW
_database_code_depnum_ccdc_archive 'CCDC 1515417'
_chemical_formula_sum 'C7 H4 N8 O6'
_chemical_formula_moiety
;
C7 H4 N8 O6
;
_journal_coden_Cambridge 1699
_journal_volume 5
_journal_year 2017
_journal_page_first 7366
_journal_name_full 'J.Mater.Chem.A '
loop_
_publ_author_name
"N.Kommu"
"M.Balaraju"
"V.D.Ghule"
"A.K.Sahoo"
_chemical_name_systematic
;
N,2,6-trinitro-4-(1H-tetrazol-1-yl)aniline
;
_cell_volume   1100.768
_exptl_crystal_colour 'red'
_exptl_crystal_density_diffrn 1.787
_exptl_crystal_description 'round'
_diffrn_ambient_temperature 293
#These two values have been output from a single CSD field.
_refine_ls_R_factor_gt 0.0489
_refine_ls_wR_factor_gt 0.0489
_symmetry_cell_setting monoclinic
_symmetry_space_group_name_H-M 'P 21/c'
_symmetry_Int_Tables_number 14
loop_
_symmetry_equiv_pos_site_id
_symmetry_equiv_pos_as_xyz
1 x,y,z
2 -x,1/2+y,1/2-z
3 -x,-y,-z
4 x,-1/2-y,-1/2+z
_cell_length_a 7.9223(5)
_cell_length_b 18.5920(11)
_cell_length_c 7.5610(6)
_cell_angle_alpha 90
_cell_angle_beta 98.730(2)
_cell_angle_gamma 90
_cell_formula_units_Z 4
loop_
_atom_type_symbol
_atom_type_radius_bond
C 0.68
H 0.23
N 0.68
O 0.68
loop_
_atom_site_label
_atom_site_type_symbol
_atom_site_fract_x
_atom_site_fract_y
_atom_site_fract_z
O1 O 0.8044(2) 0.76708(8) 0.7882(2)
N1 N 0.90462(19) 0.65581(8) 0.8009(2)
H1 H 0.97700 0.62490 0.85180
O2 O 0.4156(2) 0.71802(9) 0.7938(2)
N2 N 0.39728(18) 0.57986(8) 0.2270(2)
O3 O 0.6130(2) 0.66174(10) 0.96854(19)
O4 O 1.0354(2) 0.74124(9) 0.9686(2)
N3 N 0.9144(2) 0.72549(9) 0.8543(2)
N4 N 0.5408(2) 0.67930(9) 0.8210(2)
N5 N 0.1943(2) 0.58621(9) 0.0050(2)
N6 N 0.9927(2) 0.58463(9) 0.4884(2)
O5 O 1.09926(19) 0.57799(11) 0.6177(2)
C1 C 0.7766(2) 0.63417(9) 0.6630(2)
C2 C 0.5253(2) 0.59631(9) 0.3761(2)
C3 C 0.8146(2) 0.59854(9) 0.5115(2)
C4 C 0.6031(2) 0.64854(9) 0.6633(2)
C5 C 0.6927(2) 0.57882(9) 0.3688(2)
H2 H 0.72310 0.55450 0.27090
C6 C 0.4788(2) 0.63160(9) 0.5217(2)
H3 H 0.36530 0.64370 0.52430
O6 O 1.0243(2) 0.57847(13) 0.3392(2)
N7 N 0.3760(2) 0.51334(10) 0.1576(3)
N8 N 0.2532(3) 0.51813(10) 0.0244(3)
C7 C 0.2850(2) 0.62303(11) 0.1309(3)
H4 H 0.27320 0.67200 0.15090
#END
