
#######################################################################
#
#                 Cambridge Crystallographic Data Centre
#                                CCDC
#
#######################################################################
#
# If this CIF has been generated from an entry in the Cambridge
# Structural Database, then it will include bibliographic, chemical,
# crystal, experimental, refinement or atomic coordinate data resulting
# from the CCDC's data processing and validation procedures.
#
#######################################################################

data_CSD_CIF_LAPVOQ
_audit_creation_date 2017-04-03
_audit_creation_method CSD-ConQuest-V1
_database_code_CSD LAPVOQ
_database_code_depnum_ccdc_archive 'CCDC 1515416'
_chemical_formula_sum 'C8 H7 N5 O2'
_chemical_formula_moiety
;
C8 H7 N5 O2
;
_journal_coden_Cambridge 1699
_journal_volume 5
_journal_year 2017
_journal_page_first 7366
_journal_name_full 'J.Mater.Chem.A '
loop_
_publ_author_name
"N.Kommu"
"M.Balaraju"
"V.D.Ghule"
"A.K.Sahoo"
_chemical_name_systematic
;
1-(2-methyl-5-nitrophenyl)-1H-tetrazole
;
_cell_volume    901.786
_exptl_crystal_colour 'colorless'
_exptl_crystal_density_diffrn 1.511
_exptl_crystal_description 'plate'
_diffrn_ambient_temperature 273
#These two values have been output from a single CSD field.
_refine_ls_R_factor_gt 0.0433
_refine_ls_wR_factor_gt 0.0433
_symmetry_cell_setting monoclinic
_symmetry_space_group_name_H-M 'P 21/n'
_symmetry_Int_Tables_number 14
loop_
_symmetry_equiv_pos_site_id
_symmetry_equiv_pos_as_xyz
1 x,y,z
2 1/2-x,1/2+y,1/2-z
3 -x,-y,-z
4 -1/2+x,-1/2-y,-1/2+z
_cell_length_a 8.162(7)
_cell_length_b 12.424(11)
_cell_length_c 9.201(8)
_cell_angle_alpha 90
_cell_angle_beta 104.868(14)
_cell_angle_gamma 90
_cell_formula_units_Z 4
loop_
_atom_type_symbol
_atom_type_radius_bond
C 0.68
H 0.23
N 0.68
O 0.68
loop_
_atom_site_label
_atom_site_type_symbol
_atom_site_fract_x
_atom_site_fract_y
_atom_site_fract_z
N1 N 0.03949(19) 0.27031(12) 0.51428(18)
O1 O 0.03951(19) 0.2419(1) 0.64234(16)
N2 N 0.22033(18) 0.52771(11) 0.18998(15)
C1 C 0.2923(2) 0.56108(14) 0.46250(19)
C2 C 0.2180(2) 0.49515(13) 0.33976(18)
O2 O -0.03414(19) 0.22153(12) 0.40115(17)
C3 C 0.1369(2) 0.40036(13) 0.35505(19)
H1 H 0.08730 0.35860 0.27150
C4 C 0.1312(2) 0.36896(13) 0.49709(19)
C5 C 0.2806(2) 0.52544(14) 0.60332(19)
H2 H 0.32770 0.56740 0.68730
C6 C 0.2021(2) 0.43060(14) 0.6225(2)
H3 H 0.19690 0.40840 0.71770
C7 C 0.3790(2) 0.66484(15) 0.4453(2)
H4 H 0.46150 0.65230 0.38920
H5 H 0.43450 0.69270 0.54280
H6 H 0.29670 0.71590 0.39280
N3 N 0.1299(2) 0.61309(13) 0.12234(18)
N4 N 0.1502(2) 0.61693(14) -0.01226(18)
N5 N 0.2530(2) 0.53622(14) -0.03546(18)
C8 C 0.2936(3) 0.48275(15) 0.0911(2)
H7 H 0.36320 0.42240 0.10940
#END
