
#######################################################################
#
#                 Cambridge Crystallographic Data Centre
#                                CCDC
#
#######################################################################
#
# If this CIF has been generated from an entry in the Cambridge
# Structural Database, then it will include bibliographic, chemical,
# crystal, experimental, refinement or atomic coordinate data resulting
# from the CCDC's data processing and validation procedures.
#
#######################################################################

data_CSD_CIF_LAPWEH
_audit_creation_date 2017-04-03
_audit_creation_method CSD-ConQuest-V1
_database_code_CSD LAPWEH
_database_code_depnum_ccdc_archive 'CCDC 1515419'
_chemical_formula_sum 'C8 H6 N6 O4'
_chemical_formula_moiety
;
C8 H6 N6 O4
;
_journal_coden_Cambridge 1699
_journal_volume 5
_journal_year 2017
_journal_page_first 7366
_journal_name_full 'J.Mater.Chem.A '
loop_
_publ_author_name
"N.Kommu"
"M.Balaraju"
"V.D.Ghule"
"A.K.Sahoo"
_chemical_name_systematic
;
1-(5-methyl-2,4-dinitrophenyl)-1H-tetrazole
;
_cell_volume   1060.655
_exptl_crystal_colour 'colorless'
_exptl_crystal_density_diffrn 1.567
_exptl_crystal_description 'plate'
_diffrn_ambient_temperature 273
#These two values have been output from a single CSD field.
_refine_ls_R_factor_gt 0.04
_refine_ls_wR_factor_gt 0.04
_symmetry_cell_setting orthorhombic
_symmetry_space_group_name_H-M 'P 21 21 21'
_symmetry_Int_Tables_number 19
loop_
_symmetry_equiv_pos_site_id
_symmetry_equiv_pos_as_xyz
1 x,y,z
2 1/2-x,-y,1/2+z
3 -x,1/2+y,1/2-z
4 1/2+x,1/2-y,-z
_cell_length_a 5.790(3)
_cell_length_b 13.286(7)
_cell_length_c 13.788(7)
_cell_angle_alpha 90
_cell_angle_beta 90
_cell_angle_gamma 90
_cell_formula_units_Z 4
loop_
_atom_type_symbol
_atom_type_radius_bond
C 0.68
H 0.23
N 0.68
O 0.68
loop_
_atom_site_label
_atom_site_type_symbol
_atom_site_fract_x
_atom_site_fract_y
_atom_site_fract_z
N1 N -0.0435(2) 0.80392(11) 0.19297(9)
N2 N 0.6001(3) 1.02067(13) 0.41884(13)
C1 C 0.1252(3) 0.84998(13) 0.35107(12)
C2 C 0.4206(3) 0.98555(14) 0.25580(12)
C3 C 0.2785(3) 0.90620(14) 0.40437(12)
H1 H 0.28210 0.90100 0.47160
N3 N -0.0215(3) 0.77742(13) 0.40322(10)
O1 O -0.1153(3) 0.80701(11) 0.4771(1)
C4 C 0.2568(3) 0.92978(15) 0.20568(12)
H2 H 0.24250 0.93940 0.13910
C5 C 0.1138(3) 0.86060(13) 0.25050(11)
O2 O -0.0361(3) 0.69192(11) 0.37124(9)
C6 C 0.4270(3) 0.97040(13) 0.35663(11)
N4 N -0.2032(3) 0.71517(15) 0.08076(12)
O3 O 0.7851(3) 1.04192(13) 0.38251(12)
O4 O 0.5529(3) 1.03462(11) 0.50403(10)
N5 N -0.2699(3) 0.79725(15) 0.21583(13)
C7 C -0.0093(4) 0.75382(15) 0.11061(12)
H3 H 0.13200 0.74740 0.07910
N6 N -0.3627(3) 0.74407(15) 0.14714(13)
C8 C 0.5742(4) 1.05634(17) 0.19926(15)
H4 H 0.51860 1.06170 0.13390
H5 H 0.72930 1.03070 0.19880
H6 H 0.57250 1.12160 0.22920
#END
