
#######################################################################
#
#                 Cambridge Crystallographic Data Centre
#                                CCDC
#
#######################################################################
#
# If this CIF has been generated from an entry in the Cambridge
# Structural Database, then it will include bibliographic, chemical,
# crystal, experimental, refinement or atomic coordinate data resulting
# from the CCDC's data processing and validation procedures.
#
#######################################################################

data_CSD_CIF_LAQDIS
_audit_creation_date 2012-04-25
_audit_creation_method CSD-ConQuest-V1
_database_code_CSD LAQDIS
_database_code_depnum_ccdc_archive 'CCDC 872590'
_chemical_formula_sum 'C12 H18 N4 O6'
_chemical_formula_moiety
;
C12 H18 N4 O6
;
_journal_coeditor_code "IUCr ZL2446"
_journal_coden_Cambridge 1370
_journal_volume 68
_journal_year 2012
_journal_page_first o842
_journal_name_full 'Acta Crystallogr.,Sect.E:Struct.Rep.Online '
loop_
_publ_author_name
"Hui Li"
"Peng-Fei Su"
"Jun-Feng Tong"
"Bo-Zhou Wang"
_chemical_name_systematic
;
Diethyl 2,2'-bis(hydroxyimino)-3,3'-(hydrazinediylidene)dibutanoate
;
_cell_volume    786.362
_exptl_crystal_colour 'yellow'
_exptl_crystal_density_diffrn 1.327
_exptl_crystal_description 'block-like'
_diffrn_ambient_temperature 296
#These two values have been output from a single CSD field.
_refine_ls_R_factor_gt 0.0386
_refine_ls_wR_factor_gt 0.0386
_symmetry_cell_setting monoclinic
_symmetry_space_group_name_H-M 'P 21/c'
_symmetry_Int_Tables_number 14
loop_
_symmetry_equiv_pos_site_id
_symmetry_equiv_pos_as_xyz
1 x,y,z
2 -x,1/2+y,1/2-z
3 -x,-y,-z
4 x,-1/2-y,-1/2+z
_cell_length_a 10.8587(11)
_cell_length_b 8.3068(9)
_cell_length_c 8.8465(9)
_cell_angle_alpha 90
_cell_angle_beta 99.782(2)
_cell_angle_gamma 90
_cell_formula_units_Z 2
loop_
_atom_type_symbol
_atom_type_radius_bond
C 0.68
H 0.23
N 0.68
O 0.68
loop_
_atom_site_label
_atom_site_type_symbol
_atom_site_fract_x
_atom_site_fract_y
_atom_site_fract_z
C1 C 0.3173(2) -0.3855(3) 0.1974(3)
H1 H 0.28230 -0.34860 0.09640
H2 H 0.25140 -0.42290 0.24850
H3 H 0.37450 -0.47200 0.18990
C2 C 0.38401(17) -0.2522(2) 0.2854(2)
H4 H 0.41930 -0.28900 0.38770
H5 H 0.45200 -0.21590 0.23550
C3 C 0.29765(13) 0.00236(17) 0.20059(16)
C4 C 0.20477(13) 0.12983(16) 0.22471(16)
C5 C 0.08145(13) 0.12936(17) 0.12596(17)
C6 C -0.00087(18) 0.2722(2) 0.1254(3)
H6 H -0.07990 0.25110 0.06150
H7 H 0.03770 0.36360 0.08620
H8 H -0.01370 0.29430 0.22810
O1 O 0.29746(10) -0.11865(13) 0.29545(13)
O2 O 0.36466(10) 0.01499(13) 0.10565(12)
O3 O 0.34902(10) 0.22632(15) 0.40794(13)
H9 H 0.36260 0.29980 0.47040
N1 N 0.22952(12) 0.24201(15) 0.32449(15)
N2 N 0.05904(11) 0.00033(14) 0.04649(14)
C1B C -0.3173(2) 0.3855(3) -0.1974(3)
H1B H -0.28230 0.34860 -0.09640
H2B H -0.25140 0.42290 -0.24850
H3B H -0.37450 0.47200 -0.18990
C2B C -0.38401(17) 0.2522(2) -0.2854(2)
H4B H -0.41930 0.28900 -0.38770
H5B H -0.45200 0.21590 -0.23550
C3B C -0.29765(13) -0.00236(17) -0.20059(16)
C4B C -0.20477(13) -0.12983(16) -0.22471(16)
C5B C -0.08145(13) -0.12936(17) -0.12596(17)
C6B C 0.00087(18) -0.2722(2) -0.1254(3)
H6B H 0.07990 -0.25110 -0.06150
H7B H -0.03770 -0.36360 -0.08620
H8B H 0.01370 -0.29430 -0.22810
O1B O -0.29746(10) 0.11865(13) -0.29545(13)
O2B O -0.36466(10) -0.01499(13) -0.10565(12)
O3B O -0.34902(10) -0.22632(15) -0.40794(13)
H9B H -0.36260 -0.29980 -0.47040
N1B N -0.22952(12) -0.24201(15) -0.32449(15)
N2B N -0.05904(11) -0.00033(14) -0.04649(14)
#END
