
#######################################################################
#
#                 Cambridge Crystallographic Data Centre
#                                CCDC
#
#######################################################################
#
# If this CIF has been generated from an entry in the Cambridge
# Structural Database, then it will include bibliographic, chemical,
# crystal, experimental, refinement or atomic coordinate data resulting
# from the CCDC's data processing and validation procedures.
#
#######################################################################

data_CSD_CIF_LAQSUT
_audit_creation_date 2012-04-24
_audit_creation_method CSD-ConQuest-V1
_database_code_CSD LAQSUT
_database_code_depnum_ccdc_archive 'CCDC 852604'
_chemical_formula_sum 'C14 H13 N3 O4'
_chemical_formula_moiety
;
C14 H13 N3 O4
;
_journal_coeditor_code "IUCr BT5815"
_journal_coden_Cambridge 1370
_journal_volume 68
_journal_year 2012
_journal_page_first o685
_journal_name_full 'Acta Crystallogr.,Sect.E:Struct.Rep.Online '
loop_
_publ_author_name
"R.A.Howie"
"J.L.Wardell"
"S.M.S.V.Wardell"
"E.R.T.Tiekink"
_chemical_name_systematic
;
2-((E)-1-[2-(4-Nitrophenyl)hydrazin-1-ylidene]ethyl)benzene-1,3-diol
;
_cell_volume   1303.196
_exptl_crystal_colour 'orange'
_exptl_crystal_density_diffrn 1.464
_exptl_crystal_description 'block'
_diffrn_ambient_temperature 120
#These two values have been output from a single CSD field.
_refine_ls_R_factor_gt 0.0823
_refine_ls_wR_factor_gt 0.0823
_symmetry_cell_setting monoclinic
_symmetry_space_group_name_H-M 'P 21/n'
_symmetry_Int_Tables_number 14
loop_
_symmetry_equiv_pos_site_id
_symmetry_equiv_pos_as_xyz
1 x,y,z
2 1/2-x,1/2+y,1/2-z
3 -x,-y,-z
4 -1/2+x,-1/2-y,-1/2+z
_cell_length_a 7.9714(3)
_cell_length_b 13.5021(7)
_cell_length_c 12.1081(5)
_cell_angle_alpha 90
_cell_angle_beta 90.186(3)
_cell_angle_gamma 90
_cell_formula_units_Z 4
loop_
_atom_type_symbol
_atom_type_radius_bond
C 0.68
H 0.23
N 0.68
O 0.68
loop_
_atom_site_label
_atom_site_type_symbol
_atom_site_fract_x
_atom_site_fract_y
_atom_site_fract_z
O1 O 0.1354(3) 0.71070(18) 0.50069(19)
H1 H 0.150(5) 0.6502(11) 0.514(3)
O2 O -0.1888(3) 0.68611(19) 0.83331(18)
H2 H -0.241(5) 0.721(3) 0.880(3)
O3 O 0.6044(3) 0.19192(18) 0.30034(19)
O4 O 0.6016(3) 0.32888(19) 0.20547(18)
N1 N 0.1233(3) 0.5509(2) 0.6101(2)
N2 N 0.1909(4) 0.4583(2) 0.6225(2)
H3 H 0.167(4) 0.423(2) 0.6812(19)
N3 N 0.5648(3) 0.2804(2) 0.2882(2)
C1 C -0.0115(4) 0.6950(2) 0.6750(2)
C2 C 0.0357(4) 0.7506(3) 0.5807(3)
C3 C -0.0168(5) 0.8477(3) 0.5650(3)
H4 H 0.02140 0.88450 0.50310
C4 C -0.1245(5) 0.8902(3) 0.6400(3)
H5 H -0.16080 0.95660 0.62950
C5 C -0.1806(4) 0.8372(3) 0.7305(3)
H6 H -0.25630 0.86700 0.78100
C6 C -0.1266(4) 0.7405(3) 0.7478(3)
C7 C 0.0573(4) 0.5945(2) 0.6957(2)
C8 C 0.0634(5) 0.5472(3) 0.8079(3)
H7 H -0.02720 0.49840 0.81410
H8 H 0.04950 0.59810 0.86480
H9 H 0.17180 0.51410 0.81810
C9 C 0.2810(4) 0.4167(2) 0.5372(2)
C10 C 0.3233(4) 0.4699(2) 0.4419(2)
H10 H 0.28650 0.53630 0.43290
C11 C 0.4188(4) 0.4251(2) 0.3614(2)
H11 H 0.44890 0.46080 0.29680
C12 C 0.4704(4) 0.3281(2) 0.3751(2)
C13 C 0.4297(4) 0.2742(3) 0.4688(3)
H12 H 0.46590 0.20760 0.47680
C14 C 0.3360(4) 0.3191(2) 0.5497(2)
H13 H 0.30840 0.28340 0.61480
#END
