
#######################################################################
#
#                 Cambridge Crystallographic Data Centre
#                                CCDC
#
#######################################################################
#
# If this CIF has been generated from an entry in the Cambridge
# Structural Database, then it will include bibliographic, chemical,
# crystal, experimental, refinement or atomic coordinate data resulting
# from the CCDC's data processing and validation procedures.
#
#######################################################################

data_CSD_CIF_LARJIA
_audit_creation_date 2017-04-04
_audit_creation_method CSD-ConQuest-V1
_database_code_CSD LARJIA
_database_code_depnum_ccdc_archive 'CCDC 1483945'
_chemical_formula_sum 'C15 H11 N3 O2'
_chemical_formula_moiety
;
C15 H11 N3 O2
;
_journal_coden_Cambridge 1135
_journal_volume 27
_journal_year 2017
_journal_page_first 166
_journal_name_full 'Mendeleev Commun. '
loop_
_publ_author_name
"N.V.Vchislo"
"E.A.Verochkina"
"L.I.Larina"
"A.V.Vashchenko"
"Y.A.Chuvashev"
_chemical_name_systematic
;
2-(4-nitrobenzyl)quinoxaline
;
_cell_volume    608.133
_exptl_crystal_colour 'dark brown'
_exptl_crystal_density_diffrn 1.449
_exptl_crystal_description 'needle'
_diffrn_ambient_temperature 100
#These two values have been output from a single CSD field.
_refine_ls_R_factor_gt 0.0329
_refine_ls_wR_factor_gt 0.0329
_symmetry_cell_setting monoclinic
_symmetry_space_group_name_H-M 'P 21'
_symmetry_Int_Tables_number 4
loop_
_symmetry_equiv_pos_site_id
_symmetry_equiv_pos_as_xyz
1 x,y,z
2 -x,1/2+y,-z
_cell_length_a 6.3151(7)
_cell_length_b 4.6995(4)
_cell_length_c 20.500(2)
_cell_angle_alpha 90
_cell_angle_beta 91.681(4)
_cell_angle_gamma 90
_cell_formula_units_Z 2
loop_
_atom_type_symbol
_atom_type_radius_bond
C 0.68
H 0.23
N 0.68
O 0.68
loop_
_atom_site_label
_atom_site_type_symbol
_atom_site_fract_x
_atom_site_fract_y
_atom_site_fract_z
O1 O 1.3358(3) 0.1490(4) 0.01575(8)
O2 O 1.6051(2) 0.2082(4) 0.08253(8)
N1 N 0.7600(3) 0.7695(4) 0.27673(9)
N2 N 1.4240(3) 0.2640(4) 0.06283(9)
N3 N 1.0152(3) 0.9262(4) 0.38696(9)
C1 C 0.6674(4) 0.3961(5) 0.45775(11)
H1 H 0.64490 0.30790 0.49870
C2 C 0.8244(4) 0.5940(5) 0.45261(11)
H2 H 0.91020 0.64290 0.48980
C3 C 0.8588(3) 0.7262(5) 0.39185(11)
C4 C 0.7304(4) 0.6506(5) 0.33669(11)
C5 C 0.9105(3) 0.9613(5) 0.27296(11)
C6 C 0.9546(4) 1.0876(5) 0.20704(11)
H3 H 1.03550 1.26670 0.21280
H4 H 0.81920 1.13260 0.18380
C7 C 1.0803(3) 0.8797(5) 0.16705(10)
C8 C 1.2871(4) 0.8072(5) 0.18649(11)
H5 H 1.35040 0.89620 0.22380
C9 C 1.4017(4) 0.6086(5) 0.15253(11)
H6 H 1.54230 0.56010 0.16600
C10 C 1.3058(4) 0.4822(5) 0.09830(11)
C11 C 1.0356(4) 1.0399(5) 0.32900(11)
H7 H 1.14010 1.18330 0.32420
C12 C 0.5377(4) 0.3205(6) 0.40289(12)
H8 H 0.42870 0.18290 0.40720
C13 C 0.5693(4) 0.4458(5) 0.34363(12)
H9 H 0.48210 0.39440 0.30690
C14 C 0.9901(3) 0.7495(5) 0.11187(11)
H10 H 0.85000 0.79840 0.09790
C15 C 1.1020(3) 0.5494(5) 0.07712(11)
H11 H 1.04010 0.46050 0.03960
#END
