
#######################################################################
#
#                 Cambridge Crystallographic Data Centre
#                                CCDC
#
#######################################################################
#
# If this CIF has been generated from an entry in the Cambridge
# Structural Database, then it will include bibliographic, chemical,
# crystal, experimental, refinement or atomic coordinate data resulting
# from the CCDC's data processing and validation procedures.
#
#######################################################################

data_CSD_CIF_LARYIP
_audit_creation_date 2017-04-05
_audit_creation_method CSD-ConQuest-V1
_database_code_CSD LARYIP
_database_code_depnum_ccdc_archive 'CCDC 1540985'
_chemical_formula_sum 'C29 H45 N1 O5'
_chemical_formula_moiety
;
C29 H45 N1 O5
;
_journal_coeditor_code "ff4016"
_journal_coden_Cambridge 1959
_journal_volume 2
_journal_year 2017
_journal_page_first x170491
_journal_name_full 'IUCrData '
loop_
_publ_author_name
"A.Carrasco-Carballo"
"G.Guerrero-Luna"
"M.-G.Hernandez Linares"
"S.Bernes"
_chemical_name_systematic
;
(3\b,5\a,25R)-12-(Hydroxyimino)spirostan-3-yl acetate
;
_chemical_melting_point 591
_cell_volume   2728.577
_exptl_crystal_colour 'colorless'
_exptl_crystal_density_diffrn 1.187
_exptl_crystal_description 'prism'
_diffrn_ambient_temperature 295
#These two values have been output from a single CSD field.
_refine_ls_R_factor_gt 0.0439
_refine_ls_wR_factor_gt 0.0439
_symmetry_cell_setting orthorhombic
_symmetry_space_group_name_H-M 'P 21 21 21'
_symmetry_Int_Tables_number 19
loop_
_symmetry_equiv_pos_site_id
_symmetry_equiv_pos_as_xyz
1 x,y,z
2 1/2-x,-y,1/2+z
3 -x,1/2+y,1/2-z
4 1/2+x,1/2-y,-z
_cell_length_a 8.3161(2)
_cell_length_b 9.9302(5)
_cell_length_c 33.0414(11)
_cell_angle_alpha 90
_cell_angle_beta 90
_cell_angle_gamma 90
_cell_formula_units_Z 4
loop_
_atom_type_symbol
_atom_type_radius_bond
C 0.68
H 0.23
N 0.68
O 0.68
loop_
_atom_site_label
_atom_site_type_symbol
_atom_site_fract_x
_atom_site_fract_y
_atom_site_fract_z
N1 N 0.4565(2) 0.3652(2) 0.17143(7)
O1 O 0.29552(19) 0.3875(2) 0.18376(7)
H1 H 0.229(4) 0.347(4) 0.1656(12)
C1 C 0.3684(3) 0.3767(3) 0.32591(9)
H2 H 0.32239 0.45040 0.31050
H3 H 0.32393 0.29352 0.31537
C2 C 0.3182(3) 0.3917(3) 0.37039(10)
H4 H 0.34986 0.47988 0.38016
H5 H 0.20211 0.38492 0.37246
C3 C 0.3952(3) 0.2842(3) 0.39652(9)
H6 H 0.34955 0.19602 0.38975
C4 C 0.5759(3) 0.2801(3) 0.39124(9)
H7 H 0.61964 0.20568 0.40673
H8 H 0.62227 0.36279 0.40167
C5 C 0.6224(3) 0.2638(3) 0.34682(9)
H9 H 0.57497 0.17867 0.33770
C6 C 0.8034(3) 0.2500(3) 0.34148(9)
H10 H 0.85531 0.33336 0.34947
H11 H 0.84299 0.17882 0.35894
C7 C 0.8464(3) 0.2182(3) 0.29809(9)
H12 H 0.81083 0.12751 0.29187
H13 H 0.96248 0.22042 0.29523
C8 C 0.7722(3) 0.3154(2) 0.26752(8)
H14 H 0.82558 0.40295 0.27019
C9 C 0.5905(2) 0.3350(2) 0.27503(8)
H15 H 0.54151 0.24619 0.27110
C10 C 0.5517(3) 0.3757(2) 0.31936(8)
C11 C 0.5147(3) 0.4270(3) 0.24284(9)
H16 H 0.39882 0.42577 0.24606
H17 H 0.55114 0.51857 0.24730
C12 C 0.5557(2) 0.3861(2) 0.20016(8)
C13 C 0.7324(2) 0.3645(2) 0.19139(8)
C14 C 0.7937(2) 0.2660(2) 0.22433(8)
H18 H 0.72700 0.18501 0.22193
C15 C 0.9604(3) 0.2262(3) 0.20888(9)
H19 H 1.03854 0.29676 0.21386
H20 H 0.99723 0.14328 0.22133
C16 C 0.9301(2) 0.2076(3) 0.16373(8)
H21 H 0.91690 0.11172 0.15753
C17 C 0.7749(2) 0.2855(3) 0.15244(8)
H22 H 0.68879 0.22105 0.14651
C18 C 0.8192(3) 0.4999(3) 0.19340(9)
H23 H 0.93171 0.48683 0.18827
H24 H 0.80513 0.53853 0.21981
H25 H 0.77520 0.55959 0.17339
C19 C 0.6199(4) 0.5157(3) 0.32935(10)
H26 H 0.73360 0.51646 0.32431
H27 H 0.60021 0.53598 0.35732
H28 H 0.56854 0.58211 0.31265
C20 C 0.8193(3) 0.3617(3) 0.11361(9)
H29 H 0.83968 0.45572 0.12097
C21 C 0.6906(3) 0.3608(5) 0.08069(11)
H30 H 0.72821 0.41065 0.05767
H31 H 0.59408 0.40158 0.09089
H32 H 0.66848 0.26963 0.07279
C22 C 0.9805(3) 0.2987(3) 0.10090(8)
O2 O 1.05437(17) 0.26438(19) 0.13869(6)
C23 C 1.0943(3) 0.3887(3) 0.07784(10)
H33 H 1.12497 0.46403 0.09484
H34 H 1.03966 0.42436 0.05422
C24 C 1.2442(3) 0.3141(3) 0.06447(10)
H35 H 1.30686 0.37142 0.04669
H36 H 1.30953 0.29326 0.08797
C25 C 1.2019(3) 0.1848(3) 0.04254(10)
H37 H 1.14732 0.20856 0.01724
C26 C 1.0866(3) 0.1051(3) 0.06821(11)
H38 H 1.05422 0.02497 0.05351
H39 H 1.14119 0.07630 0.09267
O3 O 0.9463(2) 0.1799(2) 0.07908(6)
C27 C 1.3511(4) 0.1021(4) 0.03202(13)
H40 H 1.42010 0.15383 0.01469
H41 H 1.31915 0.02107 0.01836
H42 H 1.40764 0.07939 0.05641
O4 O 0.3659(3) 0.3137(2) 0.43916(7)
C28 C 0.2274(5) 0.2758(4) 0.45557(12)
O5 O 0.1243(4) 0.2166(4) 0.43712(11)
C29 C 0.2163(6) 0.3213(5) 0.49833(12)
H43 H 0.30405 0.28409 0.51355
H44 H 0.11635 0.29151 0.50975
H45 H 0.22146 0.41787 0.49931
#END
