
#######################################################################
#
#                 Cambridge Crystallographic Data Centre
#                                CCDC
#
#######################################################################
#
# If this CIF has been generated from an entry in the Cambridge
# Structural Database, then it will include bibliographic, chemical,
# crystal, experimental, refinement or atomic coordinate data resulting
# from the CCDC's data processing and validation procedures.
#
#######################################################################

data_CSD_CIF_LASHAR
_audit_creation_date 2017-04-05
_audit_creation_method CSD-ConQuest-V1
_database_code_CSD LASHAR
_database_code_depnum_ccdc_archive 'CCDC 1490885'
_chemical_formula_sum 'C22 H22 N4 O1'
_chemical_formula_moiety
;
C22 H22 N4 O1
;
_journal_coden_Cambridge 206
_journal_volume 47
_journal_year 2017
_journal_page_first 62
_journal_name_full 'Synth.Commun. '
loop_
_publ_author_name
"N.S.Kirk"
"G.N.Sansom"
"P.Sudta"
"S.Suksamrarn"
"A.C.Willis"
"J.B.Bremner"
"M.J.Kelso"
_chemical_name_systematic
;
4-{[2-(3,5-dimethyl-1H-pyrrol-2-yl)-1-oxo-3H-1\l^5^-indol-3-ylidene]amino}-N,N
-dimethylaniline
;
_cell_volume   1772.990
_exptl_crystal_colour 'dark brown'
_exptl_crystal_density_diffrn 1.343
_exptl_crystal_description 'block'
_diffrn_ambient_temperature 150
#These two values have been output from a single CSD field.
_refine_ls_R_factor_gt 0.0362
_refine_ls_wR_factor_gt 0.0362
_symmetry_cell_setting monoclinic
_symmetry_space_group_name_H-M 'P 21/n'
_symmetry_Int_Tables_number 14
loop_
_symmetry_equiv_pos_site_id
_symmetry_equiv_pos_as_xyz
1 x,y,z
2 1/2-x,1/2+y,1/2-z
3 -x,-y,-z
4 -1/2+x,-1/2-y,-1/2+z
_cell_length_a 10.7644(2)
_cell_length_b 7.0938(2)
_cell_length_c 23.6831(4)
_cell_angle_alpha 90
_cell_angle_beta 101.3654(19)
_cell_angle_gamma 90
_cell_formula_units_Z 4
loop_
_atom_type_symbol
_atom_type_radius_bond
C 0.68
H 0.23
N 0.68
O 0.68
loop_
_atom_site_label
_atom_site_type_symbol
_atom_site_fract_x
_atom_site_fract_y
_atom_site_fract_z
O1 O 0.00436(8) 0.66739(14) 0.62357(3)
N1 N 0.2485(1) 0.64586(15) 0.66786(4)
N2 N 0.04399(9) 0.69214(14) 0.57517(4)
N3 N 0.26280(9) 0.76294(15) 0.48785(4)
N4 N 0.3808(1) 0.84475(15) 0.26873(4)
C1 C 0.26939(11) 0.65146(17) 0.61172(5)
C2 C 0.39738(11) 0.60795(17) 0.61446(5)
C3 C 0.44972(12) 0.57804(18) 0.67313(5)
C4 C 0.35690(12) 0.60176(18) 0.70518(5)
C5 C 0.47244(13) 0.5835(2) 0.56785(6)
C6 C 0.36295(14) 0.5902(2) 0.76860(5)
C7 C 0.16276(11) 0.68928(16) 0.56651(5)
C8 C 0.15859(11) 0.73384(16) 0.50495(5)
C9 C 0.02206(11) 0.75632(17) 0.47863(5)
C10 C -0.04616(12) 0.80957(18) 0.42498(5)
C11 C -0.17726(12) 0.83139(19) 0.41783(5)
C12 C -0.23975(12) 0.80213(19) 0.46313(5)
C13 C -0.17314(12) 0.75318(18) 0.51768(5)
C14 C -0.04409(11) 0.73282(17) 0.52328(5)
C15 C 0.27724(11) 0.78965(17) 0.43096(5)
C16 C 0.37904(11) 0.90343(18) 0.42334(5)
C17 C 0.41275(11) 0.92488(18) 0.37053(5)
C18 C 0.34723(11) 0.82625(17) 0.32190(5)
C19 C 0.24615(11) 0.70899(17) 0.32976(5)
C20 C 0.21166(11) 0.69136(17) 0.38294(5)
C21 C 0.50556(13) 0.9170(2) 0.26576(5)
C22 C 0.31974(12) 0.7260(2) 0.22110(5)
H1 H 0.1689(15) 0.660(2) 0.6744(6)
H2 H 0.5374(14) 0.544(2) 0.6879(6)
H3 H 0.4249(16) 0.510(3) 0.5345(7)
H4 H 0.4929(16) 0.708(3) 0.5529(7)
H5 H 0.5514(17) 0.520(3) 0.5836(7)
H6 H 0.4454(18) 0.539(3) 0.7872(8)
H7 H 0.3471(17) 0.715(3) 0.7846(8)
H8 H 0.2943(18) 0.509(3) 0.7788(8)
H9 H -0.0018(14) 0.835(2) 0.3927(6)
H10 H -0.2300(15) 0.865(2) 0.3790(7)
H11 H -0.3317(15) 0.817(2) 0.4563(7)
H12 H -0.2134(14) 0.736(2) 0.5506(6)
H13 H 0.4280(14) 0.968(2) 0.4574(6)
H14 H 0.4839(14) 1.004(2) 0.3678(6)
H15 H 0.2032(14) 0.633(2) 0.2975(6)
H16 H 0.1431(13) 0.604(2) 0.3865(6)
H17 H 0.5105(16) 0.931(2) 0.2242(7)
H18 H 0.5203(16) 1.040(3) 0.2840(7)
H19 H 0.5761(16) 0.829(3) 0.2862(7)
H20 H 0.3373(15) 0.587(3) 0.2287(7)
H21 H 0.2277(16) 0.745(2) 0.2141(7)
H22 H 0.3510(15) 0.762(2) 0.1862(7)
#END
