
#######################################################################
#
#                 Cambridge Crystallographic Data Centre
#                                CCDC
#
#######################################################################
#
# If this CIF has been generated from an entry in the Cambridge
# Structural Database, then it will include bibliographic, chemical,
# crystal, experimental, refinement or atomic coordinate data resulting
# from the CCDC's data processing and validation procedures.
#
#######################################################################

data_CSD_CIF_LASXAH
_audit_creation_date 2017-04-05
_audit_creation_method CSD-ConQuest-V1
_database_code_CSD LASXAH
_database_code_depnum_ccdc_archive 'CCDC 1489201'
_chemical_formula_sum 'C16 H17 N1 O2'
_chemical_formula_moiety
;
C16 H17 N1 O2
;
_journal_coden_Cambridge 182
_journal_volume 53
_journal_year 2017
_journal_page_first 4386
_journal_name_full 'Chem.Commun. '
loop_
_publ_author_name
"I.A.Wani"
"M.Sayyad"
"M.K.Ghorai"
_chemical_name_systematic
;
2-methyl-3,6-diphenyl-1,4,2-dioxazinane
;
_cell_volume    661.461
_exptl_crystal_colour 'white'
_exptl_crystal_density_diffrn 1.282
_exptl_crystal_description 'block'
_diffrn_ambient_temperature 100
#These two values have been output from a single CSD field.
_refine_ls_R_factor_gt 0.0555
_refine_ls_wR_factor_gt 0.0555
_symmetry_cell_setting monoclinic
_symmetry_space_group_name_H-M 'P 21'
_symmetry_Int_Tables_number 4
loop_
_symmetry_equiv_pos_site_id
_symmetry_equiv_pos_as_xyz
1 x,y,z
2 -x,1/2+y,-z
_cell_length_a 5.4942(17)
_cell_length_b 18.284(6)
_cell_length_c 6.781(2)
_cell_angle_alpha 90
_cell_angle_beta 103.824(5)
_cell_angle_gamma 90
_cell_formula_units_Z 2
loop_
_atom_type_symbol
_atom_type_radius_bond
C 0.68
H 0.23
N 0.68
O 0.68
loop_
_atom_site_label
_atom_site_type_symbol
_atom_site_fract_x
_atom_site_fract_y
_atom_site_fract_z
O1 O 0.8674(5) 0.31096(14) 0.7460(4)
O2 O 0.6013(5) 0.18219(14) 0.7523(4)
C1 C 0.8594(7) 0.1888(2) 0.8489(5)
H1 H 0.96150 0.17890 0.75150
N1 N 0.9030(6) 0.26428(17) 0.9267(5)
C2 C 0.9235(7) 0.13584(19) 1.0214(6)
C3 C 0.5566(7) 0.3630(2) 0.4784(6)
C4 C 0.3621(7) 0.4139(2) 0.4557(6)
H2 H 0.26530 0.41570 0.55090
C5 C 1.1242(7) 0.0884(2) 1.0400(6)
H3 H 1.21520 0.08750 0.94070
C6 C 0.5287(7) 0.2326(2) 0.5875(6)
H4 H 0.34850 0.23030 0.53450
H5 H 0.60750 0.21870 0.47940
C7 C 0.3122(7) 0.4618(2) 0.2925(6)
H6 H 0.18160 0.49520 0.27810
C8 C 1.1899(7) 0.0421(2) 1.2082(6)
H7 H 1.32620 0.01080 1.22050
C9 C 0.8527(7) 0.0886(2) 1.3347(6)
H8 H 0.76020 0.08860 1.43300
C10 C 0.6042(7) 0.3106(2) 0.6548(6)
H9 H 0.51190 0.32660 0.75420
C11 C 0.6988(7) 0.3609(2) 0.3338(6)
H10 H 0.82780 0.32710 0.34580
C12 C 0.4571(7) 0.4599(2) 0.1505(6)
H11 H 0.42520 0.49250 0.04200
C13 C 0.6476(7) 0.4097(2) 0.1710(6)
H12 H 0.74360 0.40820 0.07510
C14 C 1.0573(7) 0.0420(2) 1.3546(6)
H13 H 1.10310 0.01110 1.46630
C15 C 0.7859(7) 0.1352(2) 1.1689(6)
H14 H 0.64860 0.16610 1.15640
C16 C 1.1653(6) 0.2763(2) 1.0292(5)
H15 H 1.27050 0.25940 0.94420
H16 H 1.20430 0.24980 1.15510
H17 H 1.19360 0.32750 1.05580
#END
