
#######################################################################
#
#                 Cambridge Crystallographic Data Centre
#                                CCDC
#
#######################################################################
#
# If this CIF has been generated from an entry in the Cambridge
# Structural Database, then it will include bibliographic, chemical,
# crystal, experimental, refinement or atomic coordinate data resulting
# from the CCDC's data processing and validation procedures.
#
#######################################################################

data_CSD_CIF_LATPIF
_audit_creation_date 1994-01-24
_audit_creation_method CSD-ConQuest-V1
_database_code_CSD LATPIF
_chemical_formula_sum 'C15 H23 N2 O2'
_chemical_formula_moiety
;
C15 H23 N2 O2
;
_journal_coeditor_code "IUCr HA1044"
_journal_coden_Cambridge 591
_journal_volume 49
_journal_year 1993
_journal_page_first 1722
_journal_name_full 'Acta Crystallogr.,Sect.C:Cryst.Struct.Commun. '
loop_
_publ_author_name
"T.A.Olszak"
"M.J.Grabowski"
"K.Gwozdzinski"
_chemical_name_systematic
;
4-Hydroxy-2,2,6,6-tetramethyl-4-(2-pyridylmethyl)piperidine 1-oxide
;
_cell_volume   1488.776
_exptl_crystal_colour 'orange'
_exptl_crystal_density_diffrn 1.175
_exptl_special_details
;
Inter-molecular H-bonds between the OH group and the 2-pyridylmethyl forming 
chains along the fourfold screw axis
;
_diffrn_ambient_temperature ?
_diffrn_special_details
;
The study was carried out at room temperature,in the range 283-303K

;
#These two values have been output from a single CSD field.
_refine_ls_R_factor_gt 0.025
_refine_ls_wR_factor_gt 0.025
_symmetry_cell_setting tetragonal
_symmetry_space_group_name_H-M 'P 41'
_symmetry_Int_Tables_number 76
loop_
_symmetry_equiv_pos_site_id
_symmetry_equiv_pos_as_xyz
1 x,y,z
2 -y,x,1/4+z
3 -x,-y,1/2+z
4 y,-x,3/4+z
_cell_length_a 8.4561(6)
_cell_length_b 8.4561(6)
_cell_length_c 20.8204(29)
_cell_angle_alpha 90
_cell_angle_beta 90
_cell_angle_gamma 90
_cell_formula_units_Z 4
loop_
_atom_type_symbol
_atom_type_radius_bond
C 0.68
H 0.23
N 0.68
O 0.68
loop_
_atom_site_label
_atom_site_type_symbol
_atom_site_fract_x
_atom_site_fract_y
_atom_site_fract_z
O1 O 0.7442(3) 0.0064(2) 0.2866(3)
N1 N 0.7016(3) 0.1528(2) 0.2862(3)
C1 C 0.8224(3) 0.2666(3) 0.2627(3)
C2 C 0.8566(4) 0.2302(4) 0.1922(4)
C3 C 0.9734(4) 0.2402(4) 0.3023(4)
C4 C 0.7662(3) 0.4372(3) 0.2734(3)
C5 C 0.5924(3) 0.4732(3) 0.2611(3)
O2 O 0.5518(2) 0.4579(2) 0.1946(3)
C6 C 0.5573(3) 0.6431(3) 0.2840(3)
C7 C 0.4935(3) 0.3565(3) 0.2985(3)
C8 C 0.5281(3) 0.1805(3) 0.2865(3)
C9 C 0.4588(4) 0.0870(3) 0.3428(4)
C10 C 0.4568(4) 0.1206(3) 0.2232(4)
N2 N 0.3262(3) 0.6840(3) 0.3504(3)
C11 C 0.3849(3) 0.6840(3) 0.2903(3)
C12 C 0.2918(4) 0.7234(3) 0.2383(3)
C13 C 0.1373(4) 0.7669(4) 0.2478(3)
C14 C 0.0773(4) 0.7686(4) 0.3086(4)
C15 C 0.1746(4) 0.7254(4) 0.3580(3)
H1 H 0.6066(30) 0.5248(33) 0.1733(13)
H2 H 0.8926(33) 0.1168(35) 0.1894(14)
H3 H 0.7700(42) 0.2487(40) 0.1691(19)
H4 H 0.9479(43) 0.3037(44) 0.1769(18)
H5 H 1.0159(32) 0.1425(33) 0.2924(15)
H6 H 1.0456(38) 0.3306(36) 0.2849(16)
H7 H 0.9448(33) 0.2557(35) 0.3525(15)
H8 H 0.8365(28) 0.4991(28) 0.2477(12)
H9 H 0.7882(27) 0.4602(25) 0.3152(11)
H10 H 0.6020(26) 0.7098(26) 0.2563(11)
H11 H 0.6065(24) 0.6563(23) 0.3247(10)
H12 H 0.3818(25) 0.3724(25) 0.2898(11)
H13 H 0.5112(27) 0.3815(25) 0.3449(11)
H14 H 0.3445(34) 0.1070(34) 0.3451(14)
H15 H 0.5078(31) 0.1261(34) 0.3855(13)
H16 H 0.4873(33) -0.0191(33) 0.3351(13)
H17 H 0.4762(37) 0.0032(41) 0.2183(15)
H18 H 0.4946(34) 0.1882(35) 0.1863(14)
H19 H 0.3400(35) 0.1363(34) 0.2243(15)
H20 H 0.3441(28) 0.7150(28) 0.1960(12)
H21 H 0.0812(32) 0.7927(30) 0.2138(13)
H22 H -0.0245(36) 0.8094(33) 0.3173(15)
H23 H 0.1309(35) 0.7232(35) 0.4014(14)
#END
