
#######################################################################
#
#                 Cambridge Crystallographic Data Centre
#                                CCDC
#
#######################################################################
#
# If this CIF has been generated from an entry in the Cambridge
# Structural Database, then it will include bibliographic, chemical,
# crystal, experimental, refinement or atomic coordinate data resulting
# from the CCDC's data processing and validation procedures.
#
#######################################################################

data_CSD_CIF_LAVTOS
_audit_creation_date 2005-12-01
_audit_creation_method CSD-ConQuest-V1
_database_code_CSD LAVTOS
_database_code_depnum_ccdc_archive 'CCDC 287432'
_chemical_formula_sum 'C14 H14 N2 O3'
_chemical_formula_moiety
;
C14 H14 N2 O3
;
_journal_coeditor_code "IUCr AC6200"
_journal_coden_Cambridge 1370
_journal_volume 61
_journal_year 2005
_journal_page_first o3254
_journal_name_full 'Acta Crystallogr.,Sect.E:Struct.Rep.Online '
loop_
_publ_author_name
"V.N.Sonar"
"S.Parkin"
"P.A.Crooks"
_chemical_name_systematic
;
(Z)-2-(3-Nitrobenzylidene)-1-azabicyclo(2.2.2)octan-3-one
;
_cell_volume   1190.645
_exptl_crystal_colour 'yellow'
_exptl_crystal_density_diffrn 1.441
_exptl_crystal_description 'needle'
_exptl_crystal_preparation 'methanol'
_diffrn_ambient_temperature 90.0
#These two values have been output from a single CSD field.
_refine_ls_R_factor_gt 0.0373
_refine_ls_wR_factor_gt 0.0373
_symmetry_cell_setting monoclinic
_symmetry_space_group_name_H-M 'P 21/c'
_symmetry_Int_Tables_number 14
loop_
_symmetry_equiv_pos_site_id
_symmetry_equiv_pos_as_xyz
1 x,y,z
2 -x,1/2+y,1/2-z
3 -x,-y,-z
4 x,-1/2-y,-1/2+z
_cell_length_a 5.8095(1)
_cell_length_b 24.2920(4)
_cell_length_c 8.5473(2)
_cell_angle_alpha 90
_cell_angle_beta 99.2211(8)
_cell_angle_gamma 90
_cell_formula_units_Z 4
loop_
_atom_type_symbol
_atom_type_radius_bond
C 0.68
H 0.23
N 0.68
O 0.68
loop_
_atom_site_label
_atom_site_type_symbol
_atom_site_fract_x
_atom_site_fract_y
_atom_site_fract_z
N1 N 0.13636(17) 0.37496(4) 0.69584(11)
O1 O 0.26010(15) 0.51717(4) 0.61669(11)
C1 C 0.3331(2) 0.36044(5) 0.38323(13)
N2 N 0.71988(19) 0.30897(5) 0.10506(12)
O2 O 0.82297(17) 0.35203(4) 0.08570(11)
C2 C 0.1891(2) 0.31439(5) 0.38853(14)
H1 H 0.06690 0.31570 0.45020
O3 O 0.75894(18) 0.26495(5) 0.04314(12)
C3 C 0.2232(2) 0.26694(5) 0.30474(15)
H2 H 0.12330 0.23620 0.30900
C4 C 0.4017(2) 0.26396(5) 0.21472(15)
H3 H 0.42930 0.23120 0.16000
C5 C 0.5382(2) 0.31023(5) 0.20723(13)
C6 C 0.5076(2) 0.35851(5) 0.28781(13)
H4 H 0.60320 0.38970 0.27850
C7 C 0.3061(2) 0.41158(5) 0.46954(14)
H5 H 0.35820 0.44410 0.42440
C8 C 0.21777(19) 0.41853(5) 0.60342(14)
C9 C 0.1975(2) 0.47444(5) 0.67265(14)
C10 C 0.0897(2) 0.47105(5) 0.82161(14)
H6 H 0.07300 0.50840 0.86750
C11 C -0.1492(2) 0.44243(5) 0.77922(15)
H7 H -0.25460 0.46530 0.70290
H8 H -0.22120 0.43770 0.87580
C12 C -0.1130(2) 0.38538(5) 0.70491(14)
H9 H -0.17110 0.35620 0.76950
H10 H -0.20500 0.38370 0.59700
C13 C 0.2496(2) 0.43407(5) 0.93859(14)
H11 H 0.18300 0.42940 1.03740
H12 H 0.40560 0.45110 0.96580
C14 C 0.2704(2) 0.37742(5) 0.85903(14)
H13 H 0.43670 0.36980 0.85500
H14 H 0.21280 0.34840 0.92440
#END
