
#######################################################################
#
#                 Cambridge Crystallographic Data Centre
#                                CCDC
#
#######################################################################
#
# If this CIF has been generated from an entry in the Cambridge
# Structural Database, then it will include bibliographic, chemical,
# crystal, experimental, refinement or atomic coordinate data resulting
# from the CCDC's data processing and validation procedures.
#
#######################################################################

data_CSD_CIF_LAWJAX
_audit_creation_date 2017-04-07
_audit_creation_method CSD-ConQuest-V1
_database_code_CSD LAWJAX
_database_code_depnum_ccdc_archive 'CCDC 942186'
_chemical_formula_sum 'C21 H18 N2 O3'
_chemical_formula_moiety
;
C21 H18 N2 O3
;
_journal_coden_Cambridge 584
_journal_volume 36
_journal_year 2016
_journal_page_first 590
_journal_name_full 'Youji Huaxue(Chin.)(Chin.J.Org.Chem.) '
loop_
_publ_author_name
"Zilong Tang"
"Zanwen Xia"
"Xinxing Li"
_chemical_name_systematic
;
6-methyl-2-(4-nitrophenyl)-3-phenyl-3,4-dihydro-2H-benzo[e][1,3]oxazine
;
_cell_volume   1749.667
_exptl_crystal_colour 'yellow'
_exptl_crystal_density_diffrn 1.315
_diffrn_ambient_temperature 291
#These two values have been output from a single CSD field.
_refine_ls_R_factor_gt 0.0534
_refine_ls_wR_factor_gt 0.0534
_symmetry_cell_setting orthorhombic
_symmetry_space_group_name_H-M 'P 21 21 21'
_symmetry_Int_Tables_number 19
loop_
_symmetry_equiv_pos_site_id
_symmetry_equiv_pos_as_xyz
1 x,y,z
2 1/2-x,-y,1/2+z
3 1/2+x,1/2-y,-z
4 -x,1/2+y,1/2-z
_cell_length_a 8.8272(6)
_cell_length_b 10.1322(8)
_cell_length_c 19.5627(14)
_cell_angle_alpha 90
_cell_angle_beta 90
_cell_angle_gamma 90
_cell_formula_units_Z 4
loop_
_atom_type_symbol
_atom_type_radius_bond
C 0.68
H 0.23
N 0.68
O 0.68
loop_
_atom_site_label
_atom_site_type_symbol
_atom_site_fract_x
_atom_site_fract_y
_atom_site_fract_z
O1 O 0.3230(2) 0.25181(18) 1.00003(9)
N1 N 0.3710(2) 0.4844(2) 0.9834(1)
O2 O 0.7702(3) 0.3293(3) 0.68983(11)
C1 C 0.5816(3) 0.3616(3) 1.13562(14)
H1 H 0.64210 0.43350 1.14700
C2 C 0.5026(3) 0.3638(3) 1.07438(13)
C3 C 0.1263(3) 0.5863(3) 0.96836(14)
H2 H 0.13070 0.56280 0.92250
N2 N 0.7300(3) 0.2387(4) 0.72697(13)
O3 O 0.7704(3) 0.1249(3) 0.71912(12)
C4 C 0.5014(3) 0.1995(3) 0.88516(13)
H3 H 0.47530 0.13280 0.91560
C5 C 0.4107(3) 0.2574(3) 1.05816(13)
C6 C 0.3372(3) 0.3592(2) 0.95179(12)
H4 H 0.23790 0.36900 0.93000
C7 C 0.2396(3) 0.5978(3) 1.07832(13)
H5 H 0.31970 0.58010 1.10780
C8 C 0.5735(3) 0.2565(4) 1.18032(14)
C9 C 0.2460(3) 0.5541(2) 1.01144(14)
C10 C 0.6292(3) 0.2688(3) 0.78492(13)
C11 C 0.5937(3) 0.1709(3) 0.82986(14)
H6 H 0.63100 0.08590 0.82350
C12 C 0.5109(3) 0.4756(3) 1.02404(13)
H7 H 0.52660 0.55780 1.04840
H8 H 0.59660 0.46210 0.99380
C13 C 0.4476(3) 0.3260(3) 0.89553(13)
C14 C 0.4010(3) 0.1507(3) 1.10208(14)
H9 H 0.33990 0.07900 1.09110
C15 C -0.0044(4) 0.6945(3) 1.05952(16)
H10 H -0.08840 0.74020 1.07570
C16 C 0.4868(3) 0.4223(3) 0.84895(14)
H11 H 0.45110 0.50780 0.85510
C17 C 0.5780(4) 0.3946(3) 0.79334(15)
H12 H 0.60380 0.46040 0.76230
C18 C 0.1155(4) 0.6676(3) 1.10175(15)
H13 H 0.11340 0.69670 1.14680
C19 C 0.4825(4) 0.1513(3) 1.16201(15)
H14 H 0.47620 0.07880 1.19100
C20 C 0.0017(4) 0.6524(3) 0.99261(15)
H15 H -0.07950 0.66910 0.96350
C21 C 0.6590(4) 0.2576(4) 1.24720(14)
H16 H 0.74290 0.31750 1.24400
H17 H 0.69590 0.17040 1.25690
H18 H 0.59250 0.28540 1.28330
#END
