
#######################################################################
#
#                 Cambridge Crystallographic Data Centre
#                                CCDC
#
#######################################################################
#
# If this CIF has been generated from an entry in the Cambridge
# Structural Database, then it will include bibliographic, chemical,
# crystal, experimental, refinement or atomic coordinate data resulting
# from the CCDC's data processing and validation procedures.
#
#######################################################################

data_CSD_CIF_LAWVIR
_audit_creation_date 2017-04-08
_audit_creation_method CSD-ConQuest-V1
_database_code_CSD LAWVIR
_database_code_depnum_ccdc_archive 'CCDC 1541939'
_chemical_formula_sum 'C13 H12 N6 O2'
_chemical_formula_moiety
;
C13 H12 N6 O2
;
_journal_coeditor_code "sj4100"
_journal_coden_Cambridge 1959
_journal_volume 2
_journal_year 2017
_journal_page_first x170515
_journal_name_full 'IUCrData '
loop_
_publ_author_name
"A.Sahbi"
"J.T.Mague"
"A.Ben-Tama"
"E.M.El Hadrami"
"I.Gaamoussi"
"Y.Ouzidan"
_chemical_name_systematic
;
4-[(1H-imidazol-1-yl)methyl]-1-[(4-nitrophenyl)methyl]-1H-1,2,3-triazole
;
_cell_volume   1308.853
_exptl_crystal_colour 'colorless'
_exptl_crystal_density_diffrn 1.443
_exptl_crystal_description 'column'
_diffrn_ambient_temperature 150
#These two values have been output from a single CSD field.
_refine_ls_R_factor_gt 0.0292
_refine_ls_wR_factor_gt 0.0292
_symmetry_cell_setting orthorhombic
_symmetry_space_group_name_H-M 'P n a 21'
_symmetry_Int_Tables_number 33
loop_
_symmetry_equiv_pos_site_id
_symmetry_equiv_pos_as_xyz
1 x,y,z
2 -x,-y,1/2+z
3 1/2+x,1/2-y,z
4 1/2-x,1/2+y,1/2+z
_cell_length_a 20.3330(4)
_cell_length_b 14.2764(3)
_cell_length_c 4.5089(1)
_cell_angle_alpha 90
_cell_angle_beta 90
_cell_angle_gamma 90
_cell_formula_units_Z 4
loop_
_atom_type_symbol
_atom_type_radius_bond
C 0.68
H 0.23
N 0.68
O 0.68
loop_
_atom_site_label
_atom_site_type_symbol
_atom_site_fract_x
_atom_site_fract_y
_atom_site_fract_z
O1 O 0.40535(8) 0.03081(10) 0.1143(4)
O2 O 0.34070(8) 0.14915(12) 0.0656(6)
N1 N 0.38941(8) 0.11157(12) 0.1721(4)
N2 N 0.59199(8) 0.39660(11) 0.7619(4)
N3 N 0.57204(8) 0.48647(12) 0.7668(5)
N4 N 0.61097(8) 0.53343(11) 0.5897(4)
N5 N 0.75335(8) 0.57154(12) 0.4154(4)
N6 N 0.80031(10) 0.70206(14) 0.5784(6)
H1 H 0.4522(12) 0.3802(17) 0.622(7)
C1 C 0.51128(9) 0.26847(13) 0.7407(4)
C2 C 0.52185(10) 0.17309(14) 0.7039(5)
H2 H 0.5594(12) 0.1453(17) 0.805(6)
C3 C 0.48152(10) 0.12100(14) 0.5201(5)
H3 H 0.4875(12) 0.0537(16) 0.492(6)
C4 C 0.43084(9) 0.16574(13) 0.3753(4)
C5 C 0.41831(10) 0.26072(13) 0.4096(5)
H4 H 0.3822(13) 0.2882(17) 0.298(6)
C6 C 0.45909(9) 0.31160(13) 0.5940(5)
C7 C 0.55609(11) 0.32640(15) 0.9344(5)
H5 H 0.5873(12) 0.2880(16) 1.032(7)
H6 H 0.5293(12) 0.3618(17) 1.084(7)
C8 C 0.64394(9) 0.38588(13) 0.5772(5)
H7 H 0.6659(13) 0.3258(19) 0.555(8)
C9 C 0.65557(9) 0.47370(14) 0.4683(4)
C10 C 0.70753(10) 0.50886(16) 0.2624(5)
H8 H 0.7336(12) 0.4564(18) 0.173(6)
H9 H 0.6876(13) 0.5447(17) 0.095(8)
C11 C 0.80043(10) 0.54527(16) 0.6156(5)
H10 H 0.8066(13) 0.4795(18) 0.667(6)
C12 C 0.82835(11) 0.62560(17) 0.7119(6)
H11 H 0.8633(14) 0.6326(19) 0.854(8)
C13 C 0.75485(11) 0.66629(16) 0.4020(6)
H12 H 0.7231(14) 0.7000(18) 0.274(8)
#END
