
#######################################################################
#
#                 Cambridge Crystallographic Data Centre
#                                CCDC
#
#######################################################################
#
# If this CIF has been generated from an entry in the Cambridge
# Structural Database, then it will include bibliographic, chemical,
# crystal, experimental, refinement or atomic coordinate data resulting
# from the CCDC's data processing and validation procedures.
#
#######################################################################

data_CSD_CIF_LAYHIC
_audit_creation_date 1994-05-23
_audit_creation_method CSD-ConQuest-V1
_database_code_CSD LAYHIC
_database_code_depnum_ccdc_archive 'CCDC 1204249'
_chemical_formula_sum 'C20 H14 N2 O1'
_chemical_formula_moiety
;
C20 H14 N2 O1
;
_journal_coden_Cambridge 34
_journal_volume 30
_journal_year 1993
_journal_page_first 637
_journal_name_full 'J.Heterocycl.Chem. '
loop_
_publ_author_name
"C.Rizzoli"
"P.Sgarabotto"
"F.Ugozzoli"
"P.Carloni"
"E.Damiani"
"L.Greci"
"P.Stipa"
_chemical_name_systematic
;
2-Phenyl-3-phenylimino-3H-indole 1-oxide
;
_cell_volume   1481.089
_exptl_crystal_colour 'orange'
_exptl_crystal_density_diffrn 1.34
_exptl_special_details
;
Wrote to author for beta value

;
_diffrn_ambient_temperature ?
_diffrn_special_details
;
The study was carried out at room temperature,in the range 283-303K

;
#These two values have been output from a single CSD field.
_refine_ls_R_factor_gt 0.033
_refine_ls_wR_factor_gt 0.033
_symmetry_cell_setting monoclinic
_symmetry_space_group_name_H-M 'P 21/c'
_symmetry_Int_Tables_number 14
loop_
_symmetry_equiv_pos_site_id
_symmetry_equiv_pos_as_xyz
1 x,y,z
2 -x,1/2+y,1/2-z
3 -x,-y,-z
4 x,-1/2-y,-1/2+z
_cell_length_a 12.888(3)
_cell_length_b 5.318(2)
_cell_length_c 21.879(4)
_cell_angle_alpha 90
_cell_angle_beta 99.0
_cell_angle_gamma 90
_cell_formula_units_Z 4
loop_
_atom_type_symbol
_atom_type_radius_bond
C 0.68
H 0.23
N 0.68
O 0.68
loop_
_atom_site_label
_atom_site_type_symbol
_atom_site_fract_x
_atom_site_fract_y
_atom_site_fract_z
O1 O 0.3173(2) 0.1002(4) 0.7304(1)
N1 N 0.3032(2) 0.0571(4) 0.6720(1)
N2 N 0.2039(2) 0.1237(4) 0.5151(1)
C1 C 0.2362(2) 0.1724(5) 0.6273(1)
C2 C 0.2533(2) 0.0551(5) 0.5677(1)
C3 C 0.3343(2) -0.1428(5) 0.5839(1)
C4 C 0.3802(2) -0.3223(5) 0.5508(1)
C5 C 0.4523(2) -0.4881(6) 0.5837(1)
C6 C 0.4774(2) -0.4746(6) 0.6473(1)
C7 C 0.4319(2) -0.2976(6) 0.6810(1)
C8 C 0.3610(2) -0.1374(5) 0.6477(1)
C9 C 0.1649(2) 0.3749(5) 0.6376(1)
C10 C 0.1080(2) 0.5049(6) 0.5875(1)
C11 C 0.0418(2) 0.6986(6) 0.5960(1)
C12 C 0.0276(3) 0.7702(7) 0.6549(1)
C13 C 0.0822(3) 0.6447(7) 0.7048(1)
C14 C 0.1493(3) 0.4501(6) 0.6970(1)
C15 C 0.2262(2) 0.0063(5) 0.4600(1)
C16 C 0.1665(3) -0.1955(6) 0.4349(1)
C17 C 0.1867(3) -0.3020(6) 0.3805(1)
C18 C 0.2625(3) -0.2059(6) 0.3497(1)
C19 C 0.3194(3) -0.0021(7) 0.3736(1)
C20 C 0.3009(3) 0.1056(6) 0.4286(1)
H1 H 0.366(2) -0.332(5) 0.504(1)
H2 H 0.484(2) -0.614(6) 0.561(1)
H3 H 0.530(2) -0.596(5) 0.669(1)
H4 H 0.448(2) -0.283(5) 0.726(1)
H5 H 0.118(2) 0.459(5) 0.545(1)
H6 H 0.005(2) 0.797(6) 0.559(1)
H7 H -0.019(2) 0.909(6) 0.661(1)
H8 H 0.069(3) 0.686(6) 0.749(1)
H9 H 0.187(3) 0.350(6) 0.732(1)
H10 H 0.113(3) -0.270(6) 0.455(1)
H11 H 0.144(2) -0.440(6) 0.365(1)
H12 H 0.280(2) -0.276(6) 0.312(1)
H13 H 0.376(3) 0.076(7) 0.354(2)
H14 H 0.340(3) 0.251(6) 0.445(1)
#END
