
#######################################################################
#
#                 Cambridge Crystallographic Data Centre
#                                CCDC
#
#######################################################################
#
# If this CIF has been generated from an entry in the Cambridge
# Structural Database, then it will include bibliographic, chemical,
# crystal, experimental, refinement or atomic coordinate data resulting
# from the CCDC's data processing and validation procedures.
#
#######################################################################

data_CSD_CIF_LAYHUO
_audit_creation_date 1994-05-23
_audit_creation_method CSD-ConQuest-V1
_database_code_CSD LAYHUO
_database_code_depnum_ccdc_archive 'CCDC 1204251'
_chemical_formula_sum 'C27 H21 N2 O1'
_chemical_formula_moiety
;
C27 H21 N2 O1
;
_journal_coden_Cambridge 34
_journal_volume 30
_journal_year 1993
_journal_page_first 637
_journal_name_full 'J.Heterocycl.Chem. '
loop_
_publ_author_name
"C.Rizzoli"
"P.Sgarabotto"
"F.Ugozzoli"
"P.Carloni"
"E.Damiani"
"L.Greci"
"P.Stipa"
_chemical_name_systematic
;
1,2-Dihydro-2-phenyl-2-benzyl-3-phenylimino-3H-indole 1-oxyl radical
;
_cell_volume   1038.909
_exptl_crystal_colour 'dark ruby red'
_exptl_crystal_density_diffrn 1.25
_diffrn_ambient_temperature ?
_diffrn_special_details
;
The study was carried out at room temperature,in the range 283-303K

;
#These two values have been output from a single CSD field.
_refine_ls_R_factor_gt 0.051
_refine_ls_wR_factor_gt 0.051
_symmetry_cell_setting triclinic
_symmetry_space_group_name_H-M 'P -1'
_symmetry_Int_Tables_number 2
loop_
_symmetry_equiv_pos_site_id
_symmetry_equiv_pos_as_xyz
1 x,y,z
2 -x,-y,-z
_cell_length_a 15.670(3)
_cell_length_b 8.673(2)
_cell_length_c 8.321(2)
_cell_angle_alpha 108.2(1)
_cell_angle_beta 86.4(1)
_cell_angle_gamma 77.6(1)
_cell_formula_units_Z 2
loop_
_atom_type_symbol
_atom_type_radius_bond
C 0.68
H 0.23
N 0.68
O 0.68
loop_
_atom_site_label
_atom_site_type_symbol
_atom_site_fract_x
_atom_site_fract_y
_atom_site_fract_z
O1 O 0.1195(1) 0.3946(2) 0.2515(2)
N1 N 0.1683(1) 0.3050(2) 0.3231(3)
N2 N 0.3263(1) -0.0533(2) 0.3269(2)
C1 C 0.2410(1) 0.1571(2) 0.2239(2)
C2 C 0.2726(1) 0.0899(2) 0.3665(2)
C3 C 0.2277(1) 0.2158(2) 0.5310(2)
C4 C 0.2381(2) 0.2342(3) 0.7007(3)
C5 C 0.1834(2) 0.3712(3) 0.8287(3)
C6 C 0.1194(2) 0.4873(3) 0.7904(3)
C7 C 0.1088(1) 0.4745(2) 0.6234(3)
C8 C 0.1648(1) 0.3389(2) 0.4969(2)
C9 C 0.2027(1) 0.0321(3) 0.0893(2)
C10 C 0.1264(1) -0.0194(2) 0.1608(2)
C11 C 0.0414(2) 0.0796(3) 0.1895(3)
C12 C -0.0298(2) 0.0330(4) 0.2541(4)
C13 C -0.0159(2) -0.1129(4) 0.2898(4)
C14 C 0.0678(2) -0.2144(4) 0.2601(4)
C15 C 0.1395(2) -0.1686(3) 0.1958(3)
C16 C 0.3129(1) 0.2161(2) 0.1437(2)
C17 C 0.3749(1) 0.1039(3) 0.0098(3)
C18 C 0.4398(2) 0.1566(3) -0.0658(3)
C19 C 0.4435(2) 0.3210(3) -0.0087(3)
C20 C 0.3827(2) 0.4341(3) 0.1273(4)
C21 C 0.3181(2) 0.3819(3) 0.2027(3)
C22 C 0.3478(1) -0.1316(2) 0.4513(3)
C23 C 0.4348(2) -0.1735(3) 0.4787(3)
C24 C 0.4569(2) -0.2638(3) 0.5884(4)
C25 C 0.3935(2) -0.3145(3) 0.6674(4)
C26 C 0.3079(2) -0.2751(3) 0.6383(3)
C27 C 0.2843(2) -0.1834(3) 0.5302(3)
H1 H 0.283(2) 0.150(3) 0.731(3)
H2 H 0.183(2) 0.387(4) 0.943(4)
H3 H 0.085(2) 0.578(4) 0.883(4)
H4 H 0.061(2) 0.560(3) 0.593(3)
H5 H 0.185(2) 0.085(3) -0.004(4)
H6 H 0.252(2) -0.071(3) 0.023(3)
H7 H 0.034(2) 0.191(3) 0.157(3)
H8 H -0.094(2) 0.097(4) 0.255(4)
H9 H -0.067(2) -0.153(4) 0.322(4)
H10 H 0.085(2) -0.320(4) 0.275(4)
H11 H 0.201(2) -0.236(3) 0.165(3)
H12 H 0.374(1) -0.014(3) -0.026(3)
H13 H 0.480(2) 0.074(3) -0.158(4)
H14 H 0.495(2) 0.362(3) -0.057(4)
H15 H 0.384(2) 0.563(4) 0.171(4)
H16 H 0.277(2) 0.459(4) 0.293(4)
H17 H 0.478(2) -0.143(3) 0.422(3)
H18 H 0.525(3) -0.290(4) 0.603(5)
H19 H 0.409(2) -0.384(4) 0.739(4)
H20 H 0.258(2) -0.315(3) 0.692(3)
H21 H 0.218(2) -0.151(3) 0.515(4)
#END
