
#######################################################################
#
#                 Cambridge Crystallographic Data Centre
#                                CCDC
#
#######################################################################
#
# If this CIF has been generated from an entry in the Cambridge
# Structural Database, then it will include bibliographic, chemical,
# crystal, experimental, refinement or atomic coordinate data resulting
# from the CCDC's data processing and validation procedures.
#
#######################################################################

data_CSD_CIF_LAYPOR
_audit_creation_date 2006-03-20
_audit_creation_method CSD-ConQuest-V1
_database_code_CSD LAYPOR
_database_code_depnum_ccdc_archive 'CCDC 249891'
_chemical_formula_sum 'C20 H28 N4 O3'
_chemical_formula_moiety
;
C20 H28 N4 O3
;
_journal_coden_Cambridge 580
_journal_volume 24
_journal_year 2005
_journal_page_first 2377
_journal_name_full 'Polyhedron '
loop_
_publ_author_name
"T.Ise"
"D.Shiomi"
"K.Sato"
"T.Takui"
_chemical_name_systematic
;
2,5-bis(1'-oxyl-4',4',5',5'-tetramethyl-imidazolin-2'-yl)phenol
;
_cell_volume    964.665
_exptl_crystal_colour 'orange'
_exptl_crystal_density_diffrn 1.275
_exptl_crystal_description 'block'
_exptl_crystal_preparation 'acetone/hexane'
_diffrn_ambient_temperature 108.1
_refine_special_details
;
The hydroxyl group is disordered over two symmetry related positions with 
equal occupancy. The O atoms of the of the nitroxide are also disordered 
equally over two symmetry related sites.
;
#These two values have been output from a single CSD field.
_refine_ls_R_factor_gt 0.068
_refine_ls_wR_factor_gt 0.068
_symmetry_cell_setting monoclinic
_symmetry_space_group_name_H-M 'P 21/n'
_symmetry_Int_Tables_number 14
loop_
_symmetry_equiv_pos_site_id
_symmetry_equiv_pos_as_xyz
1 x,y,z
2 1/2-x,1/2+y,1/2-z
3 -x,-y,-z
4 -1/2+x,-1/2-y,-1/2+z
_cell_length_a 7.065(3)
_cell_length_b 14.449(5)
_cell_length_c 9.592(4)
_cell_angle_alpha 90
_cell_angle_beta 99.875(9)
_cell_angle_gamma 90
_cell_formula_units_Z 2
loop_
_atom_type_symbol
_atom_type_radius_bond
C 0.68
H 0.23
N 0.68
O 0.68
loop_
_atom_site_label
_atom_site_type_symbol
_atom_site_fract_x
_atom_site_fract_y
_atom_site_fract_z
O1 O 1.1486(2) 0.3495(2) 0.1805(2)
O2 O 0.6155(3) 0.4692(2) 0.4260(3)
O3? O 0.5243(4) 0.4374(3) 0.2141(4)
N1 N 0.9713(2) 0.3582(1) 0.1621(1)
N2 N 0.6722(2) 0.39908(9) 0.1832(2)
C1 C 0.8573(2) 0.40694(10) 0.2387(2)
C2 C 0.6472(2) 0.32969(11) 0.0668(2)
C3 C 0.8531(2) 0.32385(11) 0.0292(2)
C4 C 0.4890(3) 0.3611(2) -0.0529(2)
C5 C 0.5840(2) 0.23936(12) 0.1300(2)
C6 C 0.8805(3) 0.39140(13) -0.0890(2)
C7 C 0.9212(3) 0.22802(13) -0.0035(2)
C8 C 0.9296(2) 0.45697(11) 0.3691(2)
C9 C 1.1259(2) 0.47867(10) 0.4080(2)
C10 C 0.8051(2) 0.47943(10) 0.4647(2)
H1 H 0.54290 0.39760 -0.11860
H2 H 0.42930 0.30790 -0.09950
H3 H 0.39610 0.39650 -0.01550
H4 H 0.44790 0.23740 0.11900
H5 H 0.62820 0.18800 0.08260
H6 H 0.63780 0.23690 0.22770
H7 H 0.98680 0.37260 -0.13100
H8 H 0.76780 0.39260 -0.15910
H9 H 0.90400 0.45140 -0.04950
H10 H 0.85190 0.18310 0.03970
H11 H 0.90020 0.21830 -0.10290
H12 H 1.05440 0.22260 0.03320
H13 H 1.21240 0.46410 0.34550
O1B O 0.8514(2) 0.6505(2) 0.8195(2)
O2B O 1.3845(3) 0.5308(2) 0.5740(3)
N1B N 1.0287(2) 0.6418(1) 0.8379(1)
N2B N 1.3278(2) 0.60092(9) 0.8168(2)
C1B C 1.1427(2) 0.59306(10) 0.7613(2)
C2B C 1.3528(2) 0.67031(11) 0.9332(2)
C3B C 1.1469(2) 0.67615(11) 0.9708(2)
C4B C 1.5110(3) 0.6389(2) 1.0529(2)
C5B C 1.4160(2) 0.76064(12) 0.8700(2)
C6B C 1.1195(3) 0.60860(13) 1.0890(2)
C7B C 1.0788(3) 0.77198(13) 1.0035(2)
C8B C 1.0704(2) 0.54303(11) 0.6309(2)
C9B C 0.8741(2) 0.52133(10) 0.5920(2)
C10B C 1.1949(2) 0.52057(10) 0.5353(2)
H1B H 1.45710 0.60240 1.11860
H2B H 1.57070 0.69210 1.09950
H3B H 1.60390 0.60350 1.01550
H4B H 1.55210 0.76260 0.88100
H5B H 1.37180 0.81200 0.91740
H6B H 1.36220 0.76310 0.77230
H7B H 1.01320 0.62740 1.13100
H8B H 1.23220 0.60740 1.15910
H9B H 1.09600 0.54860 1.04950
H10B H 1.14810 0.81690 0.96030
H11B H 1.09980 0.78170 1.10290
H12B H 0.94560 0.77740 0.96680
H13B H 0.78760 0.53590 0.65450
#END
