
#######################################################################
#
#                 Cambridge Crystallographic Data Centre
#                                CCDC
#
#######################################################################
#
# If this CIF has been generated from an entry in the Cambridge
# Structural Database, then it will include bibliographic, chemical,
# crystal, experimental, refinement or atomic coordinate data resulting
# from the CCDC's data processing and validation procedures.
#
#######################################################################

data_CSD_CIF_LAYRUA
_audit_creation_date 2012-11-16
_audit_creation_method CSD-ConQuest-V1
_database_code_CSD LAYRUA
_database_code_depnum_ccdc_archive 'CCDC 796488'
_chemical_formula_sum 'C15 H20 N2 O3'
_chemical_formula_moiety
;
C15 H20 N2 O3
;
_journal_coden_Cambridge 34
_journal_volume 49
_journal_year 2012
_journal_page_first 297
_journal_name_full 'J.Heterocycl.Chem. '
loop_
_publ_author_name
"L.Guideri"
"R.Noschese"
"F.Ponticelli"
_chemical_name_systematic
;
(E)-ethyl 1-benzyl-2-((hydroxyimino)methyl)pyrrolidine-2-carboxylate
;
_chemical_melting_point 393
_cell_volume   1483.731
_exptl_crystal_colour 'colorless'
_exptl_crystal_density_diffrn 1.237
_exptl_crystal_description 'needle'
_diffrn_ambient_temperature 293
#These two values have been output from a single CSD field.
_refine_ls_R_factor_gt 0.0347
_refine_ls_wR_factor_gt 0.0347
_symmetry_cell_setting orthorhombic
_symmetry_space_group_name_H-M 'P 21 21 21'
_symmetry_Int_Tables_number 19
loop_
_symmetry_equiv_pos_site_id
_symmetry_equiv_pos_as_xyz
1 x,y,z
2 1/2-x,-y,1/2+z
3 1/2+x,1/2-y,-z
4 -x,1/2+y,1/2-z
_cell_length_a 6.689
_cell_length_b 12.251
_cell_length_c 18.106
_cell_angle_alpha 90
_cell_angle_beta 90
_cell_angle_gamma 90
_cell_formula_units_Z 4
loop_
_atom_type_symbol
_atom_type_radius_bond
C 0.68
H 0.23
N 0.68
O 0.68
loop_
_atom_site_label
_atom_site_type_symbol
_atom_site_fract_x
_atom_site_fract_y
_atom_site_fract_z
O1 O 0.2592(2) 0.05051(11) 0.78203(9)
H1 H 0.31740 -0.00770 0.78820
O2 O 0.6523(2) 0.27822(13) 0.87198(8)
O3 O 0.8053(2) 0.29949(14) 0.76379(10)
N1 N 0.4614(3) 0.37742(13) 0.69708(9)
N2 N 0.3979(3) 0.13587(13) 0.78269(9)
C1 C 0.6562(3) 0.30045(16) 0.79967(12)
C2 C 0.3176(3) 0.22780(17) 0.77401(12)
C3 C 0.4487(3) 0.32872(14) 0.77202(11)
C4 C 0.5471(4) 0.35562(17) 0.56496(12)
C5 C 0.2128(4) 0.47840(17) 0.76231(13)
H2 H 0.22810 0.55710 0.76480
H3 H 0.07490 0.46000 0.77330
C6 C 0.5028(4) 0.29938(17) 0.63705(12)
H4 H 0.38810 0.25180 0.63070
H5 H 0.61620 0.25430 0.65070
C7 C 0.3533(4) 0.42260(17) 0.81628(12)
H6 H 0.28030 0.39460 0.85850
H7 H 0.45480 0.47300 0.83360
C8 C 0.2714(4) 0.43630(18) 0.68639(12)
H8 H 0.16950 0.38760 0.66720
H9 H 0.28870 0.49640 0.65210
C9 C 0.8360(4) 0.2362(2) 0.90344(14)
H10 H 0.93270 0.29460 0.90880
H11 H 0.89250 0.18080 0.87140
C10 C 0.4168(4) 0.3484(2) 0.50679(13)
H12 H 0.29600 0.31200 0.51330
C11 C 0.7222(4) 0.4108(2) 0.55369(14)
H13 H 0.81380 0.41760 0.59210
C12 C 0.4595(6) 0.3936(2) 0.43874(15)
H14 H 0.36830 0.38730 0.40020
C13 C 0.6326(6) 0.4468(2) 0.42820(16)
H15 H 0.66230 0.47660 0.38220
C14 C 0.7882(5) 0.1886(3) 0.97668(17)
H16 H 0.90820 0.16070 0.99880
H17 H 0.69380 0.13020 0.97070
H18 H 0.73180 0.24390 1.00790
C15 C 0.7642(5) 0.4569(2) 0.48487(17)
H19 H 0.88310 0.49480 0.47780
H20 H 0.167(4) 0.2337(18) 0.7682(12)
#END
