
#######################################################################
#
#                 Cambridge Crystallographic Data Centre
#                                CCDC
#
#######################################################################
#
# If this CIF has been generated from an entry in the Cambridge
# Structural Database, then it will include bibliographic, chemical,
# crystal, experimental, refinement or atomic coordinate data resulting
# from the CCDC's data processing and validation procedures.
#
#######################################################################

data_CSD_CIF_LAZZOB
_audit_creation_date 1994-02-15
_audit_creation_method CSD-ConQuest-V1
_database_code_CSD LAZZOB
_chemical_formula_sum 'C11 H13 N1 O3'
_chemical_formula_moiety
;
C11 H13 N1 O3
;
_journal_coeditor_code "IUCr AB1067"
_journal_coden_Cambridge 591
_journal_volume 50
_journal_year 1994
_journal_page_first 78
_journal_name_full 'Acta Crystallogr.,Sect.C:Cryst.Struct.Commun. '
loop_
_publ_author_name
"J.K.Maurin"
"I.C.Paul"
"D.Y.Curtin"
_chemical_name_systematic
;
5-Hydroxyimino-5-phenylpentanoic acid
;
_chemical_melting_point 379
_cell_volume   2091.591
_exptl_crystal_colour 'Colorless'
_exptl_crystal_density_diffrn 1.316
_exptl_special_details
;
Melting point range 379-380.2K

;
_diffrn_ambient_temperature 223
#These two values have been output from a single CSD field.
_refine_ls_R_factor_gt 0.041
_refine_ls_wR_factor_gt 0.041
_symmetry_cell_setting monoclinic
_symmetry_space_group_name_H-M 'C 2/c'
_symmetry_Int_Tables_number 15
loop_
_symmetry_equiv_pos_site_id
_symmetry_equiv_pos_as_xyz
1 x,y,z
2 1/2+x,1/2+y,z
3 -x,y,1/2-z
4 1/2-x,1/2+y,1/2-z
5 -x,-y,-z
6 -1/2-x,-1/2-y,-z
7 x,-y,-1/2+z
8 -1/2+x,-1/2-y,-1/2+z
_cell_length_a 13.700(6)
_cell_length_b 9.111(1)
_cell_length_c 16.779(5)
_cell_angle_alpha 90
_cell_angle_beta 92.95
_cell_angle_gamma 90
_cell_formula_units_Z 8
loop_
_atom_type_symbol
_atom_type_radius_bond
C 0.68
H 0.23
N 0.68
O 0.68
loop_
_atom_site_label
_atom_site_type_symbol
_atom_site_fract_x
_atom_site_fract_y
_atom_site_fract_z
N1 N 0.8810(1) 0.0794(2) 1.00709(9)
O1 O 0.8616(1) -0.0704(1) 1.01849(8)
O2 O 0.8365(1) 0.0300(1) 0.67821(7)
O3 O 0.8495(1) -0.2073(1) 0.64794(8)
C1 C 0.8279(1) -0.0985(2) 0.6960(1)
C2 C 0.7895(2) -0.1507(2) 0.7730(1)
C3 C 0.7941(1) -0.0359(2) 0.8393(1)
C4 C 0.8985(1) -0.0021(2) 0.8696(1)
C5 C 0.8997(1) 0.1110(2) 0.9348(1)
C6 C 0.9185(1) 0.2682(2) 0.9185(1)
C7 C 0.8671(1) 0.3782(2) 0.9557(1)
C8 C 0.8871(2) 0.5244(2) 0.9417(1)
C9 C 0.9592(2) 0.5621(2) 0.8910(1)
C10 C 1.0103(2) 0.4548(2) 0.8534(1)
C11 C 0.9897(2) 0.3082(2) 0.8660(1)
H1 H 0.719(2) -0.179(2) 0.761(1)
H2 H 0.824(1) -0.237(2) 0.788(1)
H3 H 0.763(1) 0.056(2) 0.822(1)
H4 H 0.758(1) -0.074(2) 0.885(1)
H5 H 0.936(1) 0.035(2) 0.825(1)
H6 H 0.929(1) -0.092(2) 0.892(1)
H7 H 0.816(1) 0.350(2) 0.993(1)
H8 H 0.850(1) 0.598(2) 0.968(1)
H9 H 0.977(2) 0.662(3) 0.882(1)
H10 H 1.062(2) 0.484(2) 0.818(1)
H11 H 1.027(1) 0.236(2) 0.838(1)
H12 H 0.868(2) -0.168(3) 0.598(2)
H13 H 0.848(2) -0.070(2) 1.070(2)
#END
