
#######################################################################
#
#                 Cambridge Crystallographic Data Centre
#                                CCDC
#
#######################################################################
#
# If this CIF has been generated from an entry in the Cambridge
# Structural Database, then it will include bibliographic, chemical,
# crystal, experimental, refinement or atomic coordinate data resulting
# from the CCDC's data processing and validation procedures.
#
#######################################################################

data_CSD_CIF_LEBGEE05
_audit_creation_date 2017-12-18
_audit_creation_method CSD-ConQuest-V1
_database_code_CSD LEBGEE05
_database_code_depnum_ccdc_archive 'CCDC 1812083'
_chemical_formula_sum 'C9 H10 N4 O4'
_chemical_formula_moiety
;
C9 H10 N4 O4
;
_journal_coden_Cambridge 1078
_journal_year 2017
_journal_name_full 'CSD Communication(Private Communication) '
loop_
_publ_author_name
"Low"
"J.Nicolson"
"Wardell"
"James"
_chemical_name_systematic
;
1-(2,4-dinitrophenyl)-2-(propan-2-ylidene)hydrazine
;
_cell_volume    523.794
_exptl_crystal_colour 'orange'
_exptl_crystal_density_diffrn 1.51
_exptl_crystal_description 'plate'
_diffrn_ambient_temperature 120
#These two values have been output from a single CSD field.
_refine_ls_R_factor_gt 0.0572
_refine_ls_wR_factor_gt 0.0572
_symmetry_cell_setting triclinic
_symmetry_space_group_name_H-M 'P -1'
_symmetry_Int_Tables_number 2
loop_
_symmetry_equiv_pos_site_id
_symmetry_equiv_pos_as_xyz
1 x,y,z
2 -x,-y,-z
_cell_length_a 7.0983(4)
_cell_length_b 8.2062(6)
_cell_length_c 10.0596(7)
_cell_angle_alpha 66.654(3)
_cell_angle_beta 88.849(4)
_cell_angle_gamma 77.483(4)
_cell_formula_units_Z 2
loop_
_atom_type_symbol
_atom_type_radius_bond
C 0.68
H 0.23
N 0.68
O 0.68
loop_
_atom_site_label
_atom_site_type_symbol
_atom_site_fract_x
_atom_site_fract_y
_atom_site_fract_z
O1 O 0.68098(19) 0.47144(19) 0.14384(14)
O2 O 0.79909(18) 0.42979(19) 0.35404(14)
O3 O -0.00256(19) 0.09929(18) 0.27662(14)
O4 O 0.1491(2) 0.2344(2) 0.08980(15)
N1 N 0.6314(2) 0.2765(2) 0.58906(16)
N2 N 0.5996(2) 0.2157(2) 0.73535(16)
N3 N 0.6775(2) 0.4134(2) 0.27607(17)
N4 N 0.1250(2) 0.1802(2) 0.21989(17)
C1 C 0.5075(2) 0.2605(2) 0.49681(18)
C2 C 0.5266(2) 0.3216(2) 0.34487(19)
C3 C 0.4007(2) 0.2964(2) 0.25421(19)
H1 H 0.41563 0.33782 0.15287
C4 C 0.2547(2) 0.2109(2) 0.31351(19)
C5 C 0.2275(2) 0.1524(2) 0.46192(19)
H2 H 0.12394 0.09563 0.50056
C6 C 0.3511(2) 0.1774(2) 0.55105(19)
H3 H 0.33149 0.13822 0.65164
C7 C 0.7296(3) 0.2278(3) 0.8167(2)
C8 C 0.9064(3) 0.2996(3) 0.7644(2)
H4 H 0.97536 0.30619 0.84486
H5 H 0.86810 0.42152 0.68624
H6 H 0.99147 0.21788 0.72777
C9 C 0.6999(3) 0.1621(3) 0.9751(2)
H7 H 0.70794 0.25725 1.00896
H8 H 0.80004 0.05228 1.02856
H9 H 0.57207 0.13356 0.99174
H10 H 0.728(3) 0.329(3) 0.549(2)
#END
