
#######################################################################
#
#                 Cambridge Crystallographic Data Centre
#                                CCDC
#
#######################################################################
#
# If this CIF has been generated from an entry in the Cambridge
# Structural Database, then it will include bibliographic, chemical,
# crystal, experimental, refinement or atomic coordinate data resulting
# from the CCDC's data processing and validation procedures.
#
#######################################################################

data_CSD_CIF_LEBGEE04
_audit_creation_date 2016-05-18
_audit_creation_method CSD-ConQuest-V1
_database_code_CSD LEBGEE04
_database_code_depnum_ccdc_archive 'CCDC 1475960'
_chemical_formula_sum 'C9 H10 N4 O4'
_chemical_formula_moiety
;
C9 H10 N4 O4
;
_journal_coden_Cambridge 1078
_journal_year 2016
_journal_name_full 'CSD Communication(Private Communication) '
loop_
_publ_author_name
"M.E.Light"
_chemical_name_systematic
;
1-(2,4-dinitrophenyl)-2-isopropylidenehydrazine
;
_cell_volume    526.263
_exptl_crystal_colour 'orange'
_exptl_crystal_density_diffrn 1.503
_exptl_special_details
;
Chemistry Faculty of Natural & Environmental Sciences, University of 
Southampton, Highfield, Southampton, SO17 1BJ
;
_exptl_crystal_description 'Plate'
_diffrn_ambient_temperature 120
#These two values have been output from a single CSD field.
_refine_ls_R_factor_gt 0.0622
_refine_ls_wR_factor_gt 0.0622
_symmetry_cell_setting triclinic
_symmetry_space_group_name_H-M 'P -1'
_symmetry_Int_Tables_number 2
loop_
_symmetry_equiv_pos_site_id
_symmetry_equiv_pos_as_xyz
1 x,y,z
2 -x,-y,-z
_cell_length_a 7.1147(15)
_cell_length_b 8.2027(14)
_cell_length_c 10.068(2)
_cell_angle_alpha 66.716(8)
_cell_angle_beta 89.047(7)
_cell_angle_gamma 77.890(12)
_cell_formula_units_Z 2
loop_
_atom_type_symbol
_atom_type_radius_bond
C 0.68
H 0.23
N 0.68
O 0.68
loop_
_atom_site_label
_atom_site_type_symbol
_atom_site_fract_x
_atom_site_fract_y
_atom_site_fract_z
O1 O 0.2010(3) 0.0698(4) 0.1446(3)
O2 O 0.3186(3) 0.0302(4) 0.3537(3)
O3 O 0.8510(4) 0.2639(4) 0.4088(3)
O4 O 1.0006(3) 0.4011(4) 0.2227(3)
N1 N 0.3694(4) 0.2241(4) -0.0901(3)
N2 N 0.3993(4) 0.2842(4) -0.2365(3)
N3 N 0.3225(4) 0.0873(4) 0.2221(4)
N4 N 0.8738(4) 0.3188(5) 0.2796(3)
C1 C 0.4738(4) 0.1781(5) 0.1535(4)
C2 C 0.5988(5) 0.2039(5) 0.2439(4)
C3 C 0.7443(5) 0.2899(5) 0.1847(4)
C4 C 0.7701(5) 0.3464(6) 0.0385(4)
C5 C 0.6480(5) 0.3220(5) -0.0516(4)
C6 C 0.4919(4) 0.2401(5) 0.0028(4)
C7 C 0.2703(5) 0.2713(5) -0.3178(4)
C8 C 0.0946(6) 0.2008(8) -0.2643(6)
C9 C 0.3006(8) 0.3360(9) -0.4737(5)
H1 H 0.277(5) 0.174(5) -0.050(3)
H2 H 0.576(3) 0.169(4) 0.342(3)
H3 H 0.869(4) 0.399(4) -0.002(3)
H4 H 0.664(3) 0.366(4) -0.157(3)
H5 H 0.037(5) 0.196(5) -0.337(4)
H6 H 0.006(6) 0.278(6) -0.215(4)
H7 H 0.128(5) 0.080(6) -0.182(4)
H8 H 0.216(5) 0.447(6) -0.535(4)
H9 H 0.295(5) 0.244(6) -0.503(4)
H10 H 0.424(6) 0.381(6) -0.500(4)
#END
