
#######################################################################
#
#                 Cambridge Crystallographic Data Centre
#                                CCDC
#
#######################################################################
#
# If this CIF has been generated from an entry in the Cambridge
# Structural Database, then it will include bibliographic, chemical,
# crystal, experimental, refinement or atomic coordinate data resulting
# from the CCDC's data processing and validation procedures.
#
#######################################################################

data_CSD_CIF_LEBKIN01
_audit_creation_date 2006-03-20
_audit_creation_method CSD-ConQuest-V1
_database_code_CSD LEBKIN01
_database_code_depnum_ccdc_archive 'CCDC 250189'
_chemical_formula_sum 'C14 H16 N3 O1'
_chemical_formula_moiety
;
C14 H16 N3 O1
;
_journal_coden_Cambridge 580
_journal_volume 24
_journal_year 2005
_journal_page_first 2593
_journal_name_full 'Polyhedron '
loop_
_publ_author_name
"T.Shimada"
"T.Ishida"
"T.Nogami"
_chemical_name_systematic
;
2,2'-Bipyridin-5-yl syn-t-butylnitroxide radical
;
_cell_volume   2621.366
_exptl_crystal_colour 'orange'
_exptl_crystal_density_diffrn 1.228
_exptl_special_details
;
beta polymorph

;
_exptl_crystal_description 'block'
_diffrn_ambient_temperature 100
#These two values have been output from a single CSD field.
_refine_ls_R_factor_gt 0.043
_refine_ls_wR_factor_gt 0.043
_symmetry_cell_setting orthorhombic
_symmetry_space_group_name_H-M 'P b c a'
_symmetry_Int_Tables_number 61
loop_
_symmetry_equiv_pos_site_id
_symmetry_equiv_pos_as_xyz
1 x,y,z
2 1/2+x,1/2-y,-z
3 -x,1/2+y,1/2-z
4 1/2-x,-y,1/2+z
5 -x,-y,-z
6 -1/2-x,-1/2+y,z
7 x,-1/2-y,-1/2+z
8 -1/2+x,y,-1/2-z
_cell_length_a 8.406(4)
_cell_length_b 10.191(4)
_cell_length_c 30.60(1)
_cell_angle_alpha 90
_cell_angle_beta 90
_cell_angle_gamma 90
_cell_formula_units_Z 8
loop_
_atom_type_symbol
_atom_type_radius_bond
C 0.68
H 0.23
N 0.68
O 0.68
loop_
_atom_site_label
_atom_site_type_symbol
_atom_site_fract_x
_atom_site_fract_y
_atom_site_fract_z
O1 O 0.7030(2) -0.2026(1) 0.93316(5)
N1 N 0.5996(2) 0.1468(2) 0.88245(6)
N2 N 0.4175(2) 0.2882(2) 0.78632(6)
N3 N 0.5553(2) -0.2078(2) 0.90874(6)
C1 C 0.5117(2) 0.1554(2) 0.84571(7)
C2 C 0.4347(3) 0.0464(2) 0.82892(7)
C3 C 0.4465(3) -0.0737(2) 0.84980(7)
C4 C 0.5343(2) -0.0829(2) 0.88811(7)
C5 C 0.6094(3) 0.0313(2) 0.90257(7)
C6 C 0.4980(3) 0.2859(2) 0.82437(7)
C7 C 0.5606(3) 0.3994(2) 0.84333(8)
C8 C 0.5421(3) 0.5188(2) 0.82246(9)
C9 C 0.4620(3) 0.5227(2) 0.78326(8)
C10 C 0.4027(4) 0.4065(3) 0.76696(9)
C11 C 0.4272(3) -0.2487(2) 0.94010(7)
C12 C 0.4172(3) -0.1525(3) 0.97870(8)
C13 C 0.4698(4) -0.3852(3) 0.9566(1)
C14 C 0.2690(3) -0.2528(3) 0.91592(9)
H1 H 0.376(2) 0.055(2) 0.8026(7)
H2 H 0.398(2) -0.151(2) 0.8375(6)
H3 H 0.671(2) 0.031(1) 0.9273(6)
H4 H 0.609(2) 0.390(2) 0.8738(6)
H5 H 0.585(3) 0.609(2) 0.8383(8)
H6 H 0.444(3) 0.610(2) 0.7675(8)
H7 H 0.344(3) 0.401(2) 0.7410(7)
H8 H 0.380(3) -0.059(2) 0.9668(7)
H9 H 0.529(3) -0.159(2) 0.9945(8)
H10 H 0.336(3) -0.199(2) 1.0028(7)
H11 H 0.576(3) -0.372(2) 0.9741(8)
H12 H 0.380(3) -0.408(2) 0.9759(7)
H13 H 0.468(2) -0.441(2) 0.9266(8)
H14 H 0.183(3) -0.287(2) 0.9381(7)
H15 H 0.308(4) -0.331(3) 0.889(1)
H16 H 0.230(3) -0.162(2) 0.9095(8)
#END
