
#######################################################################
#
#                 Cambridge Crystallographic Data Centre
#                                CCDC
#
#######################################################################
#
# If this CIF has been generated from an entry in the Cambridge
# Structural Database, then it will include bibliographic, chemical,
# crystal, experimental, refinement or atomic coordinate data resulting
# from the CCDC's data processing and validation procedures.
#
#######################################################################

data_CSD_CIF_LEBMAI
_audit_creation_date 2012-11-07
_audit_creation_method CSD-ConQuest-V1
_database_code_CSD LEBMAI
_database_code_depnum_ccdc_archive 'CCDC 850473'
_chemical_formula_sum 'C23 H26 N2 O6'
_chemical_formula_moiety
;
C23 H26 N2 O6
;
_journal_coden_Cambridge 1291
_journal_year 2012
_journal_page_first 4206
_journal_name_full 'Eur.J.Org.Chem. '
loop_
_publ_author_name
"Cheng-Kui Pei"
"Yu Jiang"
"Min Shi"
_chemical_name_systematic
;
Diethyl 
4-((1-allyl-2-oxo-1,2-dihydro-3H-indol-3-ylidene)(hydroxy)-\l^5^-azanyl)octa-2
,6-dienedioate
;
_cell_volume   1088.623
_exptl_crystal_colour 'orange'
_exptl_crystal_density_diffrn 1.301
_exptl_crystal_description 'prism'
_diffrn_ambient_temperature 133
#These two values have been output from a single CSD field.
_refine_ls_R_factor_gt 0.0531
_refine_ls_wR_factor_gt 0.0531
_symmetry_cell_setting triclinic
_symmetry_space_group_name_H-M 'P -1'
_symmetry_Int_Tables_number 2
loop_
_symmetry_equiv_pos_site_id
_symmetry_equiv_pos_as_xyz
1 x,y,z
2 -x,-y,-z
_cell_length_a 8.6162(15)
_cell_length_b 10.1946(18)
_cell_length_c 12.909(2)
_cell_angle_alpha 79.119(3)
_cell_angle_beta 77.863(3)
_cell_angle_gamma 87.478(3)
_cell_formula_units_Z 2
loop_
_atom_type_symbol
_atom_type_radius_bond
C 0.68
H 0.23
N 0.68
O 0.68
loop_
_atom_site_label
_atom_site_type_symbol
_atom_site_fract_x
_atom_site_fract_y
_atom_site_fract_z
O1 O 1.10365(12) 0.17228(10) 0.95541(9)
O2 O 0.63351(12) 0.34755(10) 0.95948(10)
O3 O 0.40661(15) 0.13186(12) 1.31226(10)
O4 O 0.46884(13) -0.08283(11) 1.36565(9)
O5 O 1.09652(15) 0.05753(12) 0.65629(10)
O6 O 1.01547(16) 0.25854(11) 0.58135(9)
N1 N 1.16651(13) 0.39220(11) 0.88211(10)
N2 N 0.76541(13) 0.28568(11) 0.96535(10)
C1 C 1.06430(15) 0.28748(13) 0.92613(11)
C2 C 0.90184(15) 0.34746(12) 0.92689(11)
C3 C 0.92034(15) 0.48711(12) 0.87947(11)
C4 C 0.81472(17) 0.59119(14) 0.85804(12)
H1 H 0.70340 0.57640 0.87440
C5 C 0.87727(19) 0.71808(14) 0.81175(13)
H2 H 0.80750 0.79050 0.79630
C6 C 1.03954(19) 0.73977(14) 0.78807(12)
H3 H 1.07870 0.82720 0.75720
C7 C 1.14706(17) 0.63645(14) 0.80843(12)
H4 H 1.25830 0.65160 0.79170
C8 C 1.08504(16) 0.51152(13) 0.85385(11)
C9 C 1.33723(16) 0.38198(16) 0.87246(14)
H5 H 1.36280 0.29640 0.91640
H6 H 1.37350 0.45530 0.90200
C10 C 1.4262(2) 0.38872(19) 0.75854(17)
H7 H 1.53880 0.38770 0.74690
C11 C 1.3650(3) 0.3957(3) 0.67502(19)
H8 H 1.25290 0.39700 0.68240
H9 H 1.43180 0.39960 0.60590
C12 C 0.75053(15) 0.14052(13) 1.01545(11)
H10 H 0.85450 0.10540 1.03210
C13 C 0.62651(16) 0.12834(14) 1.11769(12)
H11 H 0.54920 0.19750 1.12270
C14 C 0.61608(17) 0.02908(15) 1.20143(12)
H12 H 0.68930 -0.04330 1.20030
C15 C 0.48681(16) 0.03386(14) 1.29717(12)
C16 C 0.33930(18) -0.08764(17) 1.45937(13)
H13 H 0.23800 -0.06160 1.43620
H14 H 0.36000 -0.02540 1.50520
C17 C 0.3299(2) -0.2286(2) 1.52097(16)
H15 H 0.31100 -0.28930 1.47450
H16 H 0.24260 -0.23580 1.58410
H17 H 0.43010 -0.25260 1.54450
C18 C 0.70466(16) 0.06841(14) 0.93110(12)
H18 H 0.67420 -0.02480 0.96490
H19 H 0.61200 0.11380 0.90560
C19 C 0.84103(17) 0.06872(14) 0.83704(12)
H20 H 0.92050 0.00210 0.84450
C20 C 0.85935(18) 0.15449(15) 0.74455(12)
H21 H 0.78020 0.22050 0.73340
C21 C 1.00220(18) 0.14870(14) 0.65811(12)
C22 C 1.1509(3) 0.26063(18) 0.49179(15)
H22 H 1.13340 0.19770 0.44560
H23 H 1.24850 0.23320 0.51940
C23 C 1.1683(3) 0.3998(2) 0.42800(18)
H24 H 1.07180 0.42550 0.40020
H25 H 1.25950 0.40360 0.36760
H26 H 1.18500 0.46140 0.47440
#END
