
#######################################################################
#
#                 Cambridge Crystallographic Data Centre
#                                CCDC
#
#######################################################################
#
# If this CIF has been generated from an entry in the Cambridge
# Structural Database, then it will include bibliographic, chemical,
# crystal, experimental, refinement or atomic coordinate data resulting
# from the CCDC's data processing and validation procedures.
#
#######################################################################

data_CSD_CIF_LEDSAO
_audit_creation_date 1994-06-28
_audit_creation_method CSD-ConQuest-V1
_database_code_CSD LEDSAO
_chemical_formula_sum 'C18 H31 N1 O10'
_chemical_formula_moiety
;
C18 H31 N1 O10
;
_journal_coden_Cambridge 156
_journal_volume 247
_journal_year 1993
_journal_page_first 239
_journal_name_full 'Carbohydr.Res. '
loop_
_publ_author_name
"R.Fernandez"
"C.Gasch"
"A.Gomez-Sanchez"
"J.E.Vilchez"
"A.L.Castro"
"M.J.Dianez"
"M.D.Estrada"
"S.Perez-Garrido"
_chemical_name_systematic
;
7-Deoxy-1,2:3,4-di-O-isopropylidene-7-nitro-L-threo-\a-D-galacto-octodialdo-1,
5-pyranose diethyl acetal
;
_chemical_melting_point 387.15
_cell_volume   1105.778
_exptl_crystal_density_diffrn 1.27
_exptl_special_details
;
Melting point range 387.15-390.15K

;
_diffrn_ambient_temperature ?
_diffrn_special_details
;
The study was carried out at room temperature,in the range 283-303K

;
#These two values have been output from a single CSD field.
_refine_ls_R_factor_gt 0.035
_refine_ls_wR_factor_gt 0.035
_symmetry_cell_setting monoclinic
_symmetry_space_group_name_H-M 'P 21'
_symmetry_Int_Tables_number 4
loop_
_symmetry_equiv_pos_site_id
_symmetry_equiv_pos_as_xyz
1 x,y,z
2 -x,1/2+y,-z
_cell_length_a 11.980(1)
_cell_length_b 9.178(1)
_cell_length_c 10.891(1)
_cell_angle_alpha 90
_cell_angle_beta 112.57(1)
_cell_angle_gamma 90
_cell_formula_units_Z 2
loop_
_atom_type_symbol
_atom_type_radius_bond
C 0.68
H 0.23
N 0.68
O 0.68
loop_
_atom_site_label
_atom_site_type_symbol
_atom_site_fract_x
_atom_site_fract_y
_atom_site_fract_z
O1 O 0.7367(1) -0.3306(3) 0.7046(2)
O2 O 0.6898(2) -0.4138(4) 0.8790(2)
O3 O 0.8852(1) -0.4814(4) 0.9829(1)
O4 O 0.9184(2) -0.5672(4) 0.6756(2)
O5 O 0.9509(2) -0.3341(4) 0.6346(2)
O6 O 0.9304(2) -0.0172(4) 0.7401(2)
O7 O 0.6495(2) -0.0440(5) 0.8817(3)
O8 O 0.8205(2) 0.0624(4) 0.9189(2)
O9 O 0.6487(2) 0.1021(4) 0.5035(2)
O10 O 0.6127(2) 0.2132(4) 0.6782(2)
N1 N 0.7285(2) 0.00000 0.8465(2)
C1 C 0.7280(2) -0.4555(4) 0.7765(2)
C2 C 0.8484(2) -0.5330(4) 0.8493(2)
C3 C 0.9463(2) -0.4953(4) 0.7995(2)
C4 C 0.9523(2) -0.3325(4) 0.7660(2)
C5 C 0.8446(2) -0.2490(4) 0.7688(2)
C6 C 0.8235(2) -0.1020(4) 0.6969(2)
C7 C 0.7136(2) -0.0234(4) 0.7047(2)
C8 C 0.6917(2) 0.1285(4) 0.6400(3)
C9 C 0.7772(2) -0.4562(5) 1.0065(2)
C10 C 0.7992(4) -0.3287(5) 1.1009(3)
C11 C 0.7365(4) -0.5933(6) 1.0541(4)
C12 C 0.9679(3) -0.4805(4) 0.6012(3)
C13 C 1.1004(3) -0.5148(6) 0.6382(4)
C14 C 0.8948(4) -0.5045(6) 0.4547(3)
C15 C 0.6491(4) 0.2340(6) 0.4319(4)
C16 C 0.6023(4) 0.2004(7) 0.2873(4)
C17 C 0.4878(3) 0.1685(5) 0.6281(5)
C18 C 0.4224(5) 0.2615(7) 0.6876(7)
H1 H 0.938(3) 0.011(4) 0.818(3)
H2 H 0.667(3) -0.517(4) 0.711(3)
H3 H 0.839(3) -0.647(4) 0.845(3)
H4 H 1.023(3) -0.526(4) 0.867(3)
H5 H 0.855(3) -0.233(4) 0.861(3)
H6 H 0.804(3) -0.122(4) 0.601(3)
H7 H 0.647(3) -0.090(4) 0.671(3)
H8 H 0.782(3) 0.191(4) 0.674(3)
H9 H 0.717(3) -0.311(5) 1.108(3)
H10 H 0.820(3) -0.233(5) 1.046(4)
H11 H 0.866(3) -0.344(4) 1.191(4)
H12 H 0.718(3) -0.684(5) 0.978(4)
H13 H 0.649(3) -0.560(5) 1.053(4)
H14 H 0.782(4) -0.622(5) 1.147(4)
H15 H 1.106(4) -0.630(5) 0.606(4)
H16 H 1.143(3) -0.495(5) 0.732(4)
H17 H 1.129(3) -0.453(5) 0.577(4)
H18 H 0.811(3) -0.470(5) 0.440(4)
H19 H 0.914(4) -0.614(5) 0.422(4)
H20 H 0.936(3) -0.432(5) 0.400(4)
H21 H 0.755(4) 0.245(6) 0.459(4)
H22 H 0.583(4) 0.319(6) 0.462(4)
H23 H 0.506(4) 0.177(5) 0.270(4)
H24 H 0.633(4) 0.123(6) 0.243(4)
H25 H 0.608(4) 0.298(6) 0.237(5)
H26 H 0.477(4) 0.086(5) 0.638(4)
H27 H 0.455(3) 0.189(5) 0.512(4)
H28 H 0.425(5) 0.359(6) 0.671(6)
H29 H 0.470(4) 0.232(6) 0.786(5)
H30 H 0.328(4) 0.227(6) 0.649(4)
#END
