
#######################################################################
#
#                 Cambridge Crystallographic Data Centre
#                                CCDC
#
#######################################################################
#
# If this CIF has been generated from an entry in the Cambridge
# Structural Database, then it will include bibliographic, chemical,
# crystal, experimental, refinement or atomic coordinate data resulting
# from the CCDC's data processing and validation procedures.
#
#######################################################################

data_CSD_CIF_LEFCEG
_audit_creation_date 2012-09-04
_audit_creation_method CSD-ConQuest-V1
_database_code_CSD LEFCEG
_database_code_depnum_ccdc_archive 'CCDC 896320'
_chemical_formula_sum 'C9 H8 N2 O4'
_chemical_formula_moiety
;
C9 H8 N2 O4
;
_journal_coeditor_code "IUCr NG5280"
_journal_coden_Cambridge 1370
_journal_volume 68
_journal_year 2012
_journal_page_first o2359
_journal_name_full 'Acta Crystallogr.,Sect.E:Struct.Rep.Online '
loop_
_publ_author_name
"Li-Li Shen"
"Zhao-Bo Li"
"Jia-Jia Li"
_chemical_name_systematic
;
(E)-1-Nitro-2-(2-nitroprop-1-enyl)benzene
;
_cell_volume    967.508
_exptl_crystal_colour 'yellow'
_exptl_crystal_density_diffrn 1.429
_exptl_crystal_description 'chunk'
_diffrn_ambient_temperature 296
#These two values have been output from a single CSD field.
_refine_ls_R_factor_gt 0.0589
_refine_ls_wR_factor_gt 0.0589
_symmetry_cell_setting monoclinic
_symmetry_space_group_name_H-M 'P 21/n'
_symmetry_Int_Tables_number 14
loop_
_symmetry_equiv_pos_site_id
_symmetry_equiv_pos_as_xyz
1 x,y,z
2 1/2-x,1/2+y,1/2-z
3 -x,-y,-z
4 -1/2+x,-1/2-y,-1/2+z
_cell_length_a 6.8274(9)
_cell_length_b 15.5666(12)
_cell_length_c 9.9045(10)
_cell_angle_alpha 90
_cell_angle_beta 113.202(3)
_cell_angle_gamma 90
_cell_formula_units_Z 4
loop_
_atom_type_symbol
_atom_type_radius_bond
C 0.68
H 0.23
N 0.68
O 0.68
loop_
_atom_site_label
_atom_site_type_symbol
_atom_site_fract_x
_atom_site_fract_y
_atom_site_fract_z
C1 C 0.5466(4) 0.10207(16) 0.2728(3)
C2 C 0.7192(4) 0.14601(15) 0.3747(3)
C3 C 0.8689(4) 0.17747(17) 0.3231(3)
H1 H 0.98760 0.20690 0.38730
C4 C 0.8450(5) 0.16585(18) 0.1791(3)
H2 H 0.94740 0.18730 0.14800
C5 C 0.6713(5) 0.12290(18) 0.0817(3)
H3 H 0.65480 0.11590 -0.01540
C6 C 0.5215(4) 0.09026(17) 0.1286(3)
H4 H 0.40420 0.06040 0.06370
C7 C 0.7489(4) 0.16389(15) 0.5287(3)
H5 H 0.63990 0.19250 0.54400
C8 C 0.9185(4) 0.14215(15) 0.6453(3)
C9 C 1.1075(4) 0.09071(19) 0.6571(3)
H6 H 1.09430 0.07360 0.56080
H7 H 1.11640 0.04050 0.71560
H8 H 1.23390 0.12470 0.70260
N1 N 0.3819(4) 0.06343(17) 0.3147(3)
N2 N 0.9179(4) 0.16809(14) 0.7890(2)
O1 O 0.2593(4) 0.01245(18) 0.2313(3)
O2 O 0.3754(4) 0.08268(17) 0.4315(3)
O3 O 1.0659(3) 0.14555(14) 0.8995(2)
O4 O 0.7722(4) 0.21184(15) 0.7936(2)
#END
