
#######################################################################
#
#                 Cambridge Crystallographic Data Centre
#                                CCDC
#
#######################################################################
#
# If this CIF has been generated from an entry in the Cambridge
# Structural Database, then it will include bibliographic, chemical,
# crystal, experimental, refinement or atomic coordinate data resulting
# from the CCDC's data processing and validation procedures.
#
#######################################################################

data_CSD_CIF_LEFHIQ
_audit_creation_date 2017-08-22
_audit_creation_method CSD-ConQuest-V1
_database_code_CSD LEFHIQ
_database_code_depnum_ccdc_archive 'CCDC 1544106'
_chemical_formula_sum 'C22 H23 N1 O7'
_chemical_formula_moiety
;
C22 H23 N1 O7
;
_journal_coden_Cambridge 179
_journal_volume 56
_journal_year 2017
_journal_page_first 9096
_journal_name_full 'Angew.Chem.,Int.Ed. '
loop_
_publ_author_name
"Hang Cheng"
"Zhihong Zhang"
"Hongliang Yao"
"Wei Zhang"
"Jingxun Yu"
"Rongbiao Tong"
_chemical_name_systematic
;
(7-methyl-6-oxo-4a,5,6,8a-tetrahydrospiro[1-benzopyran-2,2'-oxan]-4-yl)methyl 
4-nitrobenzoate
;
_cell_volume    980.239
_exptl_crystal_colour 'colorless'
_exptl_crystal_density_diffrn 1.401
_exptl_crystal_description 'plate'
_diffrn_ambient_temperature 100
_refine_special_details
;
N1A,O5A and N1,O5 disordered over two sites with occupancies 0.6667:0.3333.

;
#These two values have been output from a single CSD field.
_refine_ls_R_factor_gt 0.053
_refine_ls_wR_factor_gt 0.053
_symmetry_cell_setting triclinic
_symmetry_space_group_name_H-M 'P -1'
_symmetry_Int_Tables_number 2
loop_
_symmetry_equiv_pos_site_id
_symmetry_equiv_pos_as_xyz
1 x,y,z
2 -x,-y,-z
_cell_length_a 10.1269(8)
_cell_length_b 11.0806(8)
_cell_length_c 11.2922(6)
_cell_angle_alpha 119.368(7)
_cell_angle_beta 90.308(5)
_cell_angle_gamma 113.493(7)
_cell_formula_units_Z 2
loop_
_atom_type_symbol
_atom_type_radius_bond
C 0.68
H 0.23
N 0.68
O 0.68
loop_
_atom_site_label
_atom_site_type_symbol
_atom_site_fract_x
_atom_site_fract_y
_atom_site_fract_z
O1 O 0.31964(14) 0.16046(14) 0.10516(13)
O2 O 0.57477(13) 0.30343(14) 0.21513(12)
O3 O 0.31455(14) 0.18244(14) 0.54467(13)
O4 O 0.25889(17) 0.01172(18) 0.61187(17)
O5 O -0.1566(5) 0.4466(5) 0.8942(4)
O6 O -0.29535(19) 0.2130(2) 0.85423(19)
O7 O 0.99764(15) 0.33572(16) 0.45653(15)
N1 N -0.1800(14) 0.3141(15) 0.8510(13)
C1 C 0.5975(2) 0.1759(2) 0.19699(18)
H1 H 0.51350 0.07560 0.12080
C2 C 0.60117(19) 0.17699(19) 0.33252(18)
H2 H 0.59230 0.07470 0.31080
C3 C 0.7504(2) 0.3076(2) 0.44125(18)
H3 H 0.75650 0.41020 0.47070
H4 H 0.75440 0.30080 0.52530
C4 C 0.8821(2) 0.2967(2) 0.3832(2)
C5 C 0.8675(2) 0.2439(2) 0.2325(2)
C6 C 0.7387(2) 0.1941(2) 0.15090(19)
H5 H 0.73620 0.16840 0.05710
C7 C 0.46838(19) 0.19248(19) 0.38491(18)
C8 C 0.39017(19) 0.23904(19) 0.33792(18)
H6 H 0.30570 0.24370 0.37200
C9 C 0.43053(19) 0.28487(19) 0.23241(18)
C10 C 0.4346(2) 0.4404(2) 0.27815(18)
H7 H 0.51770 0.52470 0.36250
H8 H 0.34070 0.43890 0.30330
C11 C 0.4548(2) 0.4735(2) 0.16074(19)
H9 H 0.44630 0.56930 0.18850
H10 H 0.55480 0.49010 0.14450
C12 C 0.3354(2) 0.3350(2) 0.02596(19)
H11 H 0.23620 0.32690 0.03870
H12 H 0.35360 0.35150 -0.05230
C13 C 0.3384(2) 0.1856(2) -0.00950(19)
H13 H 0.25790 0.09640 -0.09430
H14 H 0.43440 0.19040 -0.03090
C14 C 1.0047(2) 0.2531(3) 0.1797(2)
H15 H 1.08070 0.36240 0.22830
H16 H 0.98030 0.20960 0.07850
H17 H 1.04260 0.19350 0.19780
C15 C 0.4286(2) 0.1430(2) 0.48746(19)
H18 H 0.39240 0.02910 0.43950
H19 H 0.51780 0.19620 0.56420
C16 C 0.23891(19) 0.1091(2) 0.60620(18)
C17 C 0.12835(18) 0.1634(2) 0.66744(17)
C18 C 0.1307(2) 0.2968(2) 0.68298(19)
H20 H 0.20230 0.35440 0.65240
C19 C 0.0284(2) 0.3455(2) 0.7431(2)
H21 H 0.02950 0.43720 0.75590
C20 C -0.0752(2) 0.2571(2) 0.78406(19)
C21 C -0.0804(2) 0.1234(2) 0.76981(19)
H22 H -0.15340 0.06510 0.79900
C22 C 0.0242(2) 0.0778(2) 0.71166(18)
H23 H 0.02480 -0.01210 0.70200
O8? O -0.2020(11) 0.4002(12) 0.8319(10)
N2? N -0.205(3) 0.288(3) 0.828(2)
#END
