
#######################################################################
#
#                 Cambridge Crystallographic Data Centre
#                                CCDC
#
#######################################################################
#
# If this CIF has been generated from an entry in the Cambridge
# Structural Database, then it will include bibliographic, chemical,
# crystal, experimental, refinement or atomic coordinate data resulting
# from the CCDC's data processing and validation procedures.
#
#######################################################################

data_CSD_CIF_LEFHAI
_audit_creation_date 2017-08-22
_audit_creation_method CSD-ConQuest-V1
_database_code_CSD LEFHAI
_database_code_depnum_ccdc_archive 'CCDC 1544104'
_chemical_formula_sum 'C22 H25 N1 O6'
_chemical_formula_moiety
;
C22 H25 N1 O6
;
_journal_coden_Cambridge 179
_journal_volume 56
_journal_year 2017
_journal_page_first 9096
_journal_name_full 'Angew.Chem.,Int.Ed. '
loop_
_publ_author_name
"Hang Cheng"
"Zhihong Zhang"
"Hongliang Yao"
"Wei Zhang"
"Jingxun Yu"
"Rongbiao Tong"
_chemical_name_systematic
;
7-methyl-4-methylidene-3,4,4a,5,6,8a-hexahydrospiro[1-benzopyran-2,2'-oxan]-6-
yl 4-nitrobenzoate
;
_cell_volume   1020.130
_exptl_crystal_colour 'colorless'
_exptl_crystal_density_diffrn 1.3
_exptl_crystal_description 'needle'
_diffrn_ambient_temperature 173
#These two values have been output from a single CSD field.
_refine_ls_R_factor_gt 0.0326
_refine_ls_wR_factor_gt 0.0326
_symmetry_cell_setting triclinic
_symmetry_space_group_name_H-M 'P -1'
_symmetry_Int_Tables_number 2
loop_
_symmetry_equiv_pos_site_id
_symmetry_equiv_pos_as_xyz
1 x,y,z
2 -x,-y,-z
_cell_length_a 5.7736(3)
_cell_length_b 8.0291(4)
_cell_length_c 23.5381(10)
_cell_angle_alpha 91.398(4)
_cell_angle_beta 96.262(4)
_cell_angle_gamma 109.522(4)
_cell_formula_units_Z 2
loop_
_atom_type_symbol
_atom_type_radius_bond
C 0.68
H 0.23
N 0.68
O 0.68
loop_
_atom_site_label
_atom_site_type_symbol
_atom_site_fract_x
_atom_site_fract_y
_atom_site_fract_z
O1 O 0.41008(14) 0.52541(10) 0.38570(3)
O2 O 0.79185(14) 0.57408(10) 0.35140(3)
O3 O 0.80849(14) 0.23097(11) 0.18144(3)
O4 O 1.00733(18) 0.03270(13) 0.18582(4)
O5 O -0.03356(18) -0.25818(13) -0.03854(4)
O6 O 0.17893(18) -0.43248(12) -0.04502(4)
N1 N 0.13946(19) -0.30752(13) -0.02186(4)
C1 C 0.6779(2) 0.50031(14) 0.29441(5)
H1 H 0.52040 0.52620 0.28590
C2 C 0.8555(2) 0.59600(14) 0.25447(5)
H2 H 0.87620 0.71710 0.24970
C3 C 0.9863(2) 0.52357(15) 0.22520(5)
C4 C 0.9698(2) 0.33383(15) 0.23240(5)
H3 H 1.13840 0.32420 0.23320
C5 C 0.8593(2) 0.26027(15) 0.28562(5)
H4 H 0.97870 0.31490 0.32000
H5 H 0.82470 0.13080 0.28450
C6 C 0.6189(2) 0.29913(14) 0.28922(5)
H6 H 0.50730 0.25150 0.25270
C7 C 0.4849(2) 0.21270(15) 0.33790(5)
C8 C 0.5923(2) 0.30385(15) 0.39609(5)
H7 H 0.74810 0.28160 0.40850
H8 H 0.47480 0.25380 0.42400
C9 C 0.6446(2) 0.50301(15) 0.39566(5)
C10 C 0.7909(2) 0.60144(16) 0.45119(5)
H9 H 0.96040 0.59570 0.45430
H10 H 0.71120 0.54230 0.48390
C11 C 0.8065(3) 0.79490(17) 0.45458(5)
H11 H 0.87740 0.84850 0.49370
H12 H 0.91750 0.86090 0.42740
C12 C 0.5507(3) 0.80987(17) 0.44022(6)
H13 H 0.44820 0.76210 0.47110
H14 H 0.56640 0.93600 0.43760
C13 C 0.4257(2) 0.70798(15) 0.38387(5)
H15 H 0.25720 0.71440 0.37580
H16 H 0.52100 0.76240 0.35260
C14 C 0.2876(2) 0.06689(16) 0.32937(6)
H17 H 0.20700 0.01500 0.36090
H18 H 0.22680 0.01420 0.29170
C15 C 1.1573(2) 0.62197(18) 0.18430(5)
H19 H 1.32560 0.62360 0.19680
H20 H 1.15650 0.74370 0.18350
H21 H 1.10170 0.56290 0.14590
C16 C 0.8420(2) 0.08116(15) 0.16519(5)
C17 C 0.6488(2) -0.02095(15) 0.11773(5)
C18 C 0.4542(2) 0.03504(15) 0.09689(5)
H22 H 0.43830 0.13900 0.11360
C19 C 0.2834(2) -0.06101(16) 0.05170(5)
H23 H 0.14950 -0.02420 0.03710
C20 C 0.3121(2) -0.21121(15) 0.02841(5)
C21 C 0.4992(2) -0.27274(16) 0.04927(5)
H24 H 0.51160 -0.37840 0.03300
C22 C 0.6683(2) -0.17623(16) 0.09452(5)
H25 H 0.79830 -0.21610 0.10980
#END
