
#######################################################################
#
#                 Cambridge Crystallographic Data Centre
#                                CCDC
#
#######################################################################
#
# If this CIF has been generated from an entry in the Cambridge
# Structural Database, then it will include bibliographic, chemical,
# crystal, experimental, refinement or atomic coordinate data resulting
# from the CCDC's data processing and validation procedures.
#
#######################################################################

data_CSD_CIF_LEFMAM
_audit_creation_date 2012-09-04
_audit_creation_method CSD-ConQuest-V1
_database_code_CSD LEFMAM
_database_code_depnum_ccdc_archive 'CCDC 896359'
_chemical_formula_sum 'C13 H10 N4 O5'
_chemical_formula_moiety
;
C13 H10 N4 O5
;
_journal_coeditor_code "IUCr HB6871"
_journal_coden_Cambridge 1370
_journal_volume 68
_journal_year 2012
_journal_page_first o2418
_journal_name_full 'Acta Crystallogr.,Sect.E:Struct.Rep.Online '
loop_
_publ_author_name
"A.Saeed"
"I.Arshad"
"U.Florke"
_chemical_name_systematic
;
N'-(2,4-Dinitrophenyl)benzohydrazide
;
_cell_volume   1312.549
_exptl_crystal_colour 'yellow'
_exptl_crystal_density_diffrn 1.53
_exptl_crystal_description 'prism'
_diffrn_ambient_temperature 130
#These two values have been output from a single CSD field.
_refine_ls_R_factor_gt 0.0297
_refine_ls_wR_factor_gt 0.0297
_symmetry_cell_setting monoclinic
_symmetry_space_group_name_H-M 'C 2'
_symmetry_Int_Tables_number 5
loop_
_symmetry_equiv_pos_site_id
_symmetry_equiv_pos_as_xyz
1 x,y,z
2 -x,y,-z
3 1/2+x,1/2+y,z
4 1/2-x,1/2+y,-z
_cell_length_a 13.5714(10)
_cell_length_b 8.4621(6)
_cell_length_c 11.4547(9)
_cell_angle_alpha 90
_cell_angle_beta 93.830(2)
_cell_angle_gamma 90
_cell_formula_units_Z 4
loop_
_atom_type_symbol
_atom_type_radius_bond
C 0.68
H 0.23
N 0.68
O 0.68
loop_
_atom_site_label
_atom_site_type_symbol
_atom_site_fract_x
_atom_site_fract_y
_atom_site_fract_z
O1 O 0.17978(9) 0.28363(16) -0.09274(11)
O2 O -0.07017(10) 0.5010(2) 0.29368(13)
O3 O -0.01782(10) 0.57932(19) 0.12955(11)
O4 O 0.11363(10) 0.1665(2) 0.55486(12)
O5 O 0.25511(12) 0.0749(2) 0.51048(13)
N1 N 0.23735(12) 0.5032(2) 0.00043(13)
H1 H 0.2805(17) 0.586(3) 0.0130(19)
N2 N 0.15908(12) 0.5061(2) 0.07220(13)
H2 H 0.1069(18) 0.542(3) 0.0466(19)
N3 N -0.00676(11) 0.50411(19) 0.22250(13)
N4 N 0.18149(11) 0.1576(2) 0.48955(13)
C1 C 0.24091(12) 0.3905(2) -0.08297(14)
C2 C 0.32573(13) 0.4038(2) -0.15959(15)
C3 C 0.32016(14) 0.3169(2) -0.26364(15)
H3 H 0.26390 0.25310 -0.28350
C4 C 0.39670(14) 0.3239(3) -0.33789(16)
H4 H 0.39250 0.26540 -0.40880
C5 C 0.47950(14) 0.4162(2) -0.30909(17)
H5 H 0.53190 0.42040 -0.36010
C6 C 0.48556(14) 0.5025(3) -0.20550(17)
H6 H 0.54220 0.56550 -0.18580
C7 C 0.40929(13) 0.4967(2) -0.13092(15)
H7 H 0.41370 0.55580 -0.06030
C8 C 0.16356(12) 0.4225(2) 0.17329(14)
C9 C 0.08447(12) 0.4188(2) 0.24836(15)
C10 C 0.09033(13) 0.3322(2) 0.35177(15)
H8 H 0.03660 0.33050 0.40080
C11 C 0.17514(12) 0.2492(2) 0.38177(15)
C12 C 0.25477(13) 0.2501(2) 0.31123(15)
H9 H 0.31280 0.19150 0.33340
C13 C 0.24890(12) 0.3360(2) 0.20964(15)
H10 H 0.30380 0.33730 0.16240
#END
