
#######################################################################
#
#                 Cambridge Crystallographic Data Centre
#                                CCDC
#
#######################################################################
#
# If this CIF has been generated from an entry in the Cambridge
# Structural Database, then it will include bibliographic, chemical,
# crystal, experimental, refinement or atomic coordinate data resulting
# from the CCDC's data processing and validation procedures.
#
#######################################################################

data_CSD_CIF_LEFNIV
_audit_creation_date 2012-09-12
_audit_creation_method CSD-ConQuest-V1
_database_code_CSD LEFNIV
_database_code_depnum_ccdc_archive 'CCDC 896366'
_chemical_formula_sum 'C17 H19 N3 O3'
_chemical_formula_moiety
;
C17 H19 N3 O3
;
_journal_coeditor_code "IUCr LH5499"
_journal_coden_Cambridge 1370
_journal_volume 68
_journal_year 2012
_journal_page_first o2426
_journal_name_full 'Acta Crystallogr.,Sect.E:Struct.Rep.Online '
loop_
_publ_author_name
"R.Kant"
"V.K.Gupta"
"K.Kapoor"
"C.S.Shripanavar"
"K.Banerjee"
_chemical_name_systematic
;
2-(Methoxyimino)-2-(2-((2-methylphenoxy)methyl)phenyl)acetohydrazide
;
_chemical_melting_point 397
_cell_volume   3226.603
_exptl_crystal_colour 'white'
_exptl_crystal_density_diffrn 1.29
_exptl_crystal_description 'block'
_exptl_crystal_preparation 'methanol'
_diffrn_ambient_temperature 293
#These two values have been output from a single CSD field.
_refine_ls_R_factor_gt 0.04
_refine_ls_wR_factor_gt 0.04
_symmetry_cell_setting monoclinic
_symmetry_space_group_name_H-M 'C 2/c'
_symmetry_Int_Tables_number 15
loop_
_symmetry_equiv_pos_site_id
_symmetry_equiv_pos_as_xyz
1 x,y,z
2 -x,y,1/2-z
3 1/2+x,1/2+y,z
4 1/2-x,1/2+y,1/2-z
5 -x,-y,-z
6 x,-y,-1/2+z
7 -1/2-x,-1/2-y,-z
8 -1/2+x,-1/2-y,-1/2+z
_cell_length_a 21.4015(6)
_cell_length_b 20.7277(4)
_cell_length_c 7.6975(2)
_cell_angle_alpha 90
_cell_angle_beta 109.103(3)
_cell_angle_gamma 90
_cell_formula_units_Z 8
loop_
_atom_type_symbol
_atom_type_radius_bond
C 0.68
H 0.23
N 0.68
O 0.68
loop_
_atom_site_label
_atom_site_type_symbol
_atom_site_fract_x
_atom_site_fract_y
_atom_site_fract_z
N1 N 0.10242(6) 0.35418(5) 0.94034(15)
N2 N 0.08078(6) 0.46145(6) 0.74149(16)
N3 N 0.06911(8) 0.51996(6) 0.64119(18)
O1 O 0.23561(6) 0.35236(5) 0.70574(15)
O2 O 0.11743(6) 0.29666(5) 1.03992(13)
O3 O 0.06825(6) 0.40146(5) 0.48718(13)
C1 C 0.28955(8) 0.44911(8) 0.6901(2)
C2 C 0.34451(11) 0.48795(10) 0.7505(3)
H1 H 0.34370 0.52820 0.69650
C3 C 0.40054(11) 0.46909(12) 0.8882(3)
H2 H 0.43720 0.49610 0.92520
C4 C 0.40213(10) 0.41013(11) 0.9710(3)
H3 H 0.44000 0.39720 1.06450
C5 C 0.34756(8) 0.36974(9) 0.9158(2)
H4 H 0.34840 0.33000 0.97280
C6 C 0.29186(8) 0.38918(8) 0.7750(2)
C7 C 0.22894(10) 0.47007(10) 0.5382(3)
H5 H 0.23390 0.51420 0.50690
H6 H 0.19100 0.46620 0.57800
H7 H 0.22310 0.44320 0.43240
C8 C 0.23124(8) 0.29575(7) 0.8055(2)
H8 H 0.23060 0.30740 0.92700
H9 H 0.26950 0.26850 0.81980
C9 C 0.16963(7) 0.26008(7) 0.70408(19)
C10 C 0.17407(9) 0.20035(8) 0.6249(2)
H10 H 0.21550 0.18380 0.63530
C11 C 0.11869(11) 0.16554(8) 0.5321(3)
H11 H 0.12280 0.12570 0.48140
C12 C 0.05738(10) 0.18966(9) 0.5143(2)
H12 H 0.01980 0.16630 0.45070
C13 C 0.05121(8) 0.24886(8) 0.5911(2)
H13 H 0.00940 0.26500 0.57830
C14 C 0.10689(7) 0.28413(6) 0.68670(18)
C15 C 0.09848(7) 0.34665(6) 0.77269(18)
C16 C 0.11414(11) 0.30815(9) 1.2204(2)
H14 H 0.14810 0.33820 1.28400
H15 H 0.12050 0.26830 1.28730
H16 H 0.07160 0.32570 1.21060
C17 C 0.08095(7) 0.40622(7) 0.65305(18)
H17 H 0.0840(8) 0.4629(7) 0.8568(13)
H18 H 0.0964(9) 0.5477(8) 0.707(3)
H19 H 0.0295(6) 0.5333(11) 0.627(3)
#END
