
#######################################################################
#
#                 Cambridge Crystallographic Data Centre
#                                CCDC
#
#######################################################################
#
# If this CIF has been generated from an entry in the Cambridge
# Structural Database, then it will include bibliographic, chemical,
# crystal, experimental, refinement or atomic coordinate data resulting
# from the CCDC's data processing and validation procedures.
#
#######################################################################

data_CSD_CIF_LEFQIY
_audit_creation_date 2012-09-12
_audit_creation_method CSD-ConQuest-V1
_database_code_CSD LEFQIY
_database_code_depnum_ccdc_archive 'CCDC 896376'
_chemical_formula_sum 'C3 H6 N4 O2'
_chemical_formula_moiety
;
C3 H6 N4 O2
;
_journal_coeditor_code "IUCr BT5956"
_journal_coden_Cambridge 1370
_journal_volume 68
_journal_year 2012
_journal_page_first o2440
_journal_name_full 'Acta Crystallogr.,Sect.E:Struct.Rep.Online '
loop_
_publ_author_name
"A.Rivera"
"D.Quiroga"
"J.Rios-Motta"
"M.Dusek"
"K.Fejfarova"
_chemical_name_systematic
;
1,3-Dinitrosoimidazolidine
;
_cell_volume    553.779
_exptl_crystal_colour 'colorless'
_exptl_crystal_density_diffrn 1.56
_exptl_crystal_description 'prism'
_exptl_crystal_preparation 'ethanol'
_diffrn_ambient_temperature 120
_refine_special_details
;
C2x,C3x,N1x,N2x,N3x,O1x and C2y,C3y,N1y,N2y,N3y,O1y disordered over two sites 
with occupancies 0.582:0.418.
;
#These two values have been output from a single CSD field.
_refine_ls_R_factor_gt 0.0394
_refine_ls_wR_factor_gt 0.0394
_symmetry_cell_setting orthorhombic
_symmetry_space_group_name_H-M 'P n a 21'
_symmetry_Int_Tables_number 33
loop_
_symmetry_equiv_pos_site_id
_symmetry_equiv_pos_as_xyz
1 x,y,z
2 -x,-y,1/2+z
3 1/2+x,1/2-y,z
4 1/2-x,1/2+y,1/2+z
_cell_length_a 9.5154(2)
_cell_length_b 5.4338(1)
_cell_length_c 10.7104(2)
_cell_angle_alpha 90
_cell_angle_beta 90
_cell_angle_gamma 90
_cell_formula_units_Z 4
loop_
_atom_type_symbol
_atom_type_radius_bond
C 0.68
H 0.23
N 0.68
O 0.68
loop_
_atom_site_label
_atom_site_type_symbol
_atom_site_fract_x
_atom_site_fract_y
_atom_site_fract_z
O1 O 0.3214(4) -0.3809(8) 0.26699
O2 O 0.0084(2) 0.3676(5) 0.3407(6)
N1 N 0.2304(5) -0.1122(9) 0.1438(8)
N2 N 0.0781(4) 0.1899(8) 0.1754(7)
N3 N 0.3056(5) -0.3111(9) 0.1569(10)
N4 N 0.0159(3) 0.3748(4) 0.2258(6)
C1 C 0.1576(2) 0.0075(6) 0.2498(6)
C2 C 0.2145(5) 0.0048(10) 0.0225(8)
C3 C 0.0820(5) 0.1482(9) 0.0410(8)
H1 H 0.19965 -0.11884 -0.04010
H2 H 0.29124 0.11619 0.00878
H3 H 0.08939 0.30331 -0.00150
H4 H 0.00295 0.04936 0.01679
H5 H 0.22524 0.09115 0.30109
H6 H 0.09338 -0.10702 0.28725
C4? C 0.1820(8) -0.0681(14) 0.0312(9)
C5? C 0.1527(8) 0.2091(13) 0.0512(10)
H7? H 0.23201 0.05571 0.30525
H8? H 0.07918 -0.06844 0.29095
H9? H 0.09871 -0.14693 0.00026
H10? H 0.26361 -0.08762 -0.02060
H11? H 0.23834 0.30024 0.04079
H12? H 0.07494 0.25870 -0.00005
N5? N 0.2125(8) -0.1576(12) 0.1559(9)
N6? N 0.1109(6) 0.2145(12) 0.1820(9)
N7? N 0.2972(18) -0.338(3) 0.2034(16)
O3? O 0.3425(9) -0.4441(19) 0.1083(12)
#END
