
#######################################################################
#
#                 Cambridge Crystallographic Data Centre
#                                CCDC
#
#######################################################################
#
# If this CIF has been generated from an entry in the Cambridge
# Structural Database, then it will include bibliographic, chemical,
# crystal, experimental, refinement or atomic coordinate data resulting
# from the CCDC's data processing and validation procedures.
#
#######################################################################

data_CSD_CIF_LEFRET
_audit_creation_date 2000-04-05
_audit_creation_method CSD-ConQuest-V1
_database_code_CSD LEFRET
_database_code_depnum_ccdc_archive 'CCDC 141047'
_database_code_depnum_ccdc_journal 207/380
_chemical_formula_sum 'C7 H11 N5 O8'
_chemical_formula_moiety
;
C7 H11 N5 O8
;
_journal_coden_Cambridge 207
_journal_year 2000
_journal_page_first 225
_journal_name_full 'J.Chem.Soc.,Perkin Trans.1 '
loop_
_publ_author_name
"G.M.Blackburn"
"I.G.Beadham"
"H.Adams"
"A.P.Hutchinson"
"S.Nicklin"
_chemical_name_systematic
;
5-(2-Carboxyethyl)-1,3,5-trinitrohexahydropyrimidine
;
_chemical_melting_point 427.15
_cell_volume   2392.474
_exptl_crystal_colour 'colorless'
_exptl_crystal_density_diffrn 1.628
_exptl_crystal_description 'block'
_exptl_crystal_preparation 'methanol'
_diffrn_ambient_temperature ?
_diffrn_special_details
;
The study was carried out at room temperature,in the range 283-303K

;
#These two values have been output from a single CSD field.
_refine_ls_R_factor_gt 0.0619
_refine_ls_wR_factor_gt 0.0619
_symmetry_cell_setting orthorhombic
_symmetry_space_group_name_H-M 'P b c a'
_symmetry_Int_Tables_number 61
loop_
_symmetry_equiv_pos_site_id
_symmetry_equiv_pos_as_xyz
1 x,y,z
2 1/2-x,-y,1/2+z
3 -x,1/2+y,1/2-z
4 1/2+x,1/2-y,-z
5 -x,-y,-z
6 -1/2+x,y,-1/2-z
7 x,-1/2-y,-1/2+z
8 -1/2-x,-1/2+y,z
_cell_length_a 12.331(2)
_cell_length_b 13.205(5)
_cell_length_c 14.693(4)
_cell_angle_alpha 90
_cell_angle_beta 90
_cell_angle_gamma 90
_cell_formula_units_Z 8
loop_
_atom_type_symbol
_atom_type_radius_bond
C 0.68
H 0.23
N 0.68
O 0.68
loop_
_atom_site_label
_atom_site_type_symbol
_atom_site_fract_x
_atom_site_fract_y
_atom_site_fract_z
N1 N 0.2553(5) 0.2184(4) 0.4339(3)
N2 N 0.1911(5) 0.3707(4) 0.4958(3)
N3 N 0.3669(6) 0.2080(4) 0.4335(4)
N4 N 0.2853(5) 0.4004(5) 0.3084(4)
N5 N 0.1711(5) 0.4283(5) 0.5720(4)
O1 O 0.3114(6) 0.4768(5) 0.3481(4)
O2 O 0.3407(5) 0.3616(5) 0.2482(5)
O3 O 0.4146(4) 0.2256(4) 0.5049(4)
O4 O 0.4088(5) 0.1769(4) 0.3646(4)
O5 O 0.1362(7) 0.5137(5) 0.5598(4)
O6 O 0.1949(5) 0.3912(4) 0.6456(3)
O7 O 0.0366(4) 0.4131(3) 0.0720(3)
O8 O 0.0307(4) 0.5786(3) 0.1006(3)
H1 H 0.00850 0.58040 0.04590
C1 C 0.1775(5) 0.3487(4) 0.3304(4)
C2 C 0.2024(6) 0.2358(4) 0.3467(4)
H2 H 0.13490 0.19970 0.34670
H3 H 0.24640 0.20970 0.29810
C3 C 0.2069(6) 0.2622(5) 0.5126(4)
H4 H 0.24990 0.25050 0.56610
H5 H 0.13730 0.23090 0.52140
C4 C 0.1292(5) 0.3984(4) 0.4132(4)
H6 H 0.12910 0.47070 0.40560
H7 H 0.05540 0.37610 0.41930
C5 C 0.1091(5) 0.3620(4) 0.2463(4)
H8 H 0.04010 0.33160 0.25910
H9 H 0.14040 0.32710 0.19540
C6 C 0.0834(5) 0.4721(4) 0.2211(4)
H10 H 0.14980 0.50890 0.22960
H11 H 0.02940 0.50140 0.26020
C7 C 0.0487(5) 0.4836(4) 0.1247(4)
#END
