
#######################################################################
#
#                 Cambridge Crystallographic Data Centre
#                                CCDC
#
#######################################################################
#
# If this CIF has been generated from an entry in the Cambridge
# Structural Database, then it will include bibliographic, chemical,
# crystal, experimental, refinement or atomic coordinate data resulting
# from the CCDC's data processing and validation procedures.
#
#######################################################################

data_CSD_CIF_LEFRAP
_audit_creation_date 2000-04-05
_audit_creation_method CSD-ConQuest-V1
_database_code_CSD LEFRAP
_database_code_depnum_ccdc_archive 'CCDC 141046'
_database_code_depnum_ccdc_journal 207/380
_chemical_formula_sum 'C4 H7 N5 O6'
_chemical_formula_moiety
;
C4 H7 N5 O6
;
_journal_coden_Cambridge 207
_journal_year 2000
_journal_page_first 225
_journal_name_full 'J.Chem.Soc.,Perkin Trans.1 '
loop_
_publ_author_name
"G.M.Blackburn"
"I.G.Beadham"
"H.Adams"
"A.P.Hutchinson"
"S.Nicklin"
_chemical_name_systematic
;
1,3,5-Trinitrohexahydropyrimidine
;
_chemical_melting_point 414.15
_cell_volume    851.650
_exptl_crystal_colour 'colorless'
_exptl_crystal_density_diffrn 1.725
_exptl_crystal_description 'block'
_exptl_crystal_preparation 'ethanol'
_diffrn_ambient_temperature ?
_diffrn_special_details
;
The study was carried out at room temperature,in the range 283-303K

;
#These two values have been output from a single CSD field.
_refine_ls_R_factor_gt 0.0394
_refine_ls_wR_factor_gt 0.0394
_symmetry_cell_setting monoclinic
_symmetry_space_group_name_H-M 'P 21/c'
_symmetry_Int_Tables_number 14
loop_
_symmetry_equiv_pos_site_id
_symmetry_equiv_pos_as_xyz
1 x,y,z
2 -x,1/2+y,1/2-z
3 -x,-y,-z
4 x,-1/2-y,-1/2+z
_cell_length_a 12.339(9)
_cell_length_b 6.574(4)
_cell_length_c 11.163(16)
_cell_angle_alpha 90
_cell_angle_beta 109.86(8)
_cell_angle_gamma 90
_cell_formula_units_Z 4
loop_
_atom_type_symbol
_atom_type_radius_bond
C 0.68
H 0.23
N 0.68
O 0.68
loop_
_atom_site_label
_atom_site_type_symbol
_atom_site_fract_x
_atom_site_fract_y
_atom_site_fract_z
N1 N 0.2336(2) 0.1251(4) 0.5199(2)
N2 N 0.3681(2) -0.1156(4) 0.4863(2)
N3 N 0.2122(3) 0.1555(4) 0.6315(3)
N4 N 0.1281(2) -0.3145(5) 0.4411(3)
N5 N 0.4012(3) -0.2612(5) 0.5868(3)
O1 O 0.1543(2) -0.2829(4) 0.5568(3)
O2 O 0.0835(2) -0.4716(4) 0.3874(3)
O3 O 0.2960(2) 0.1834(4) 0.7299(2)
O4 O 0.1107(2) 0.1606(4) 0.6261(2)
O5 O 0.3868(3) -0.4410(4) 0.5553(3)
O6 O 0.4460(2) -0.1970(4) 0.6955(3)
C1 C 0.1580(3) -0.1517(5) 0.3608(3)
H1 H 0.10690 -0.16910 0.27250
C2 C 0.1384(3) 0.0622(5) 0.4042(3)
H2 H 0.13200 0.15840 0.33630
H3 H 0.06650 0.06460 0.42150
C3 C 0.3519(3) 0.0931(5) 0.5239(3)
H4 H 0.40460 0.11870 0.60950
H5 H 0.36970 0.18840 0.46690
C4 C 0.2826(3) -0.1829(5) 0.3648(3)
H6 H 0.29470 -0.32590 0.35220
H7 H 0.29420 -0.10760 0.29550
#END
