
#######################################################################
#
#                 Cambridge Crystallographic Data Centre
#                                CCDC
#
#######################################################################
#
# If this CIF has been generated from an entry in the Cambridge
# Structural Database, then it will include bibliographic, chemical,
# crystal, experimental, refinement or atomic coordinate data resulting
# from the CCDC's data processing and validation procedures.
#
#######################################################################

data_CSD_CIF_LEGKUF
_audit_creation_date 2012-09-12
_audit_creation_method CSD-ConQuest-V1
_database_code_CSD LEGKUF
_database_code_depnum_ccdc_archive 'CCDC 896458'
_chemical_formula_sum 'C27 H20 N2 O1'
_chemical_formula_moiety
;
C27 H20 N2 O1
;
_journal_coeditor_code "IUCr PV2553"
_journal_coden_Cambridge 1370
_journal_volume 68
_journal_year 2012
_journal_page_first o2543
_journal_name_full 'Acta Crystallogr.,Sect.E:Struct.Rep.Online '
loop_
_publ_author_name
"Li-Zhi Wang"
"Yun Chi"
"Xiang-Xiang Li"
"Jian-Ning Guan"
_chemical_name_systematic
;
6-[4-(Diphenylamino)phenyl]quinoline 1-oxide
;
_cell_volume   2043.102
_exptl_crystal_colour 'colorless'
_exptl_crystal_density_diffrn 1.263
_exptl_crystal_description 'block'
_diffrn_ambient_temperature 293
#These two values have been output from a single CSD field.
_refine_ls_R_factor_gt 0.0581
_refine_ls_wR_factor_gt 0.0581
_symmetry_cell_setting monoclinic
_symmetry_space_group_name_H-M 'P 21/c'
_symmetry_Int_Tables_number 14
loop_
_symmetry_equiv_pos_site_id
_symmetry_equiv_pos_as_xyz
1 x,y,z
2 -x,1/2+y,1/2-z
3 -x,-y,-z
4 x,-1/2-y,-1/2+z
_cell_length_a 16.774(3)
_cell_length_b 9.6130(19)
_cell_length_c 13.253(3)
_cell_angle_alpha 90
_cell_angle_beta 107.05(3)
_cell_angle_gamma 90
_cell_formula_units_Z 4
loop_
_atom_type_symbol
_atom_type_radius_bond
C 0.68
H 0.23
N 0.68
O 0.68
loop_
_atom_site_label
_atom_site_type_symbol
_atom_site_fract_x
_atom_site_fract_y
_atom_site_fract_z
O1 O 0.46148(12) -0.0633(2) -0.26382(13)
N1 N 0.17381(14) 0.1024(2) 0.34131(16)
C1 C 0.22097(18) 0.0401(3) 0.5285(2)
H1 H 0.24120 0.12980 0.54520
N2 N 0.47292(13) -0.1387(2) -0.17945(15)
C2 C 0.2295(2) -0.0578(4) 0.6077(2)
H2 H 0.25560 -0.03330 0.67750
C3 C 0.1999(2) -0.1898(3) 0.5843(3)
H3 H 0.20550 -0.25510 0.63780
C4 C 0.1622(2) -0.2248(3) 0.4821(3)
H4 H 0.14200 -0.31460 0.46570
C5 C 0.1536(2) -0.1290(3) 0.4029(2)
H5 H 0.12790 -0.15490 0.33330
C6 C 0.18249(16) 0.0043(3) 0.42509(19)
C7 C 0.12495(15) 0.2234(3) 0.33659(18)
C8 C 0.13847(16) 0.3420(3) 0.2849(2)
H6 H 0.18000 0.34220 0.25140
C9 C 0.09116(19) 0.4601(3) 0.2823(2)
H7 H 0.10020 0.53840 0.24590
C10 C 0.0310(2) 0.4622(3) 0.3332(2)
H8 H -0.00010 0.54260 0.33250
C11 C 0.01655(17) 0.3467(3) 0.3850(2)
H9 H -0.02460 0.34870 0.41910
C12 C 0.06248(16) 0.2266(3) 0.3871(2)
H10 H 0.05190 0.14810 0.42210
C13 C 0.21718(15) 0.0743(3) 0.26611(19)
C14 C 0.29592(17) 0.0150(3) 0.29892(19)
H11 H 0.32030 -0.00340 0.37020
C15 C 0.33867(16) -0.0169(3) 0.22768(19)
H12 H 0.39170 -0.05540 0.25190
C16 C 0.30402(15) 0.0074(3) 0.12001(18)
C17 C 0.22541(15) 0.0677(2) 0.08783(19)
H13 H 0.20120 0.08690 0.01660
C18 C 0.18226(15) 0.0998(3) 0.15911(19)
H14 H 0.12930 0.13890 0.13510
C19 C 0.34862(14) -0.0321(2) 0.04275(18)
C20 C 0.39816(15) -0.1491(2) 0.05721(18)
H15 H 0.40310 -0.20460 0.11620
C21 C 0.44174(14) -0.1874(2) -0.01543(18)
C22 C 0.43129(14) -0.1041(2) -0.10499(17)
C23 C 0.38061(15) 0.0147(3) -0.12111(18)
H16 H 0.37420 0.06960 -0.18070
C24 C 0.34094(15) 0.0486(3) -0.04859(18)
H17 H 0.30760 0.12770 -0.05950
C25 C 0.49522(16) -0.3042(2) 0.0002(2)
H18 H 0.50290 -0.36060 0.05930
C26 C 0.53503(16) -0.3321(3) -0.0729(2)
H19 H 0.57070 -0.40820 -0.06340
C27 C 0.52346(16) -0.2490(3) -0.1614(2)
H20 H 0.55190 -0.27080 -0.21000
#END
