
#######################################################################
#
#                 Cambridge Crystallographic Data Centre
#                                CCDC
#
#######################################################################
#
# If this CIF has been generated from an entry in the Cambridge
# Structural Database, then it will include bibliographic, chemical,
# crystal, experimental, refinement or atomic coordinate data resulting
# from the CCDC's data processing and validation procedures.
#
#######################################################################

data_CSD_CIF_LEGZAB
_audit_creation_date 2017-08-22
_audit_creation_method CSD-ConQuest-V1
_database_code_CSD LEGZAB
_database_code_depnum_ccdc_archive 'CCDC 1541076'
_chemical_formula_sum 'C9 H7 N9 O8'
_chemical_formula_moiety
;
C9 H7 N9 O8
;
_journal_coden_Cambridge 179
_journal_volume 56
_journal_year 2017
_journal_page_first 8834
_journal_name_full 'Angew.Chem.,Int.Ed. '
loop_
_publ_author_name
"Ping Yin"
"Jiaheng Zhang"
"G.H.Imler"
"D.A.Parrish"
"J.M.Shreeve"
_chemical_name_systematic
;
1,2,10,11-tetranitro-6,7-dihydro-5H,12H-dipyrazolo[1,5-a:5',1'-d][1,3,5]triazo
cine
;
_cell_volume   1357.598
_exptl_crystal_colour 'colorless'
_exptl_crystal_density_diffrn 1.807
_exptl_crystal_description 'block'
_diffrn_ambient_temperature 150
#These two values have been output from a single CSD field.
_refine_ls_R_factor_gt 0.0316
_refine_ls_wR_factor_gt 0.0316
_symmetry_cell_setting monoclinic
_symmetry_space_group_name_H-M 'P 21/c'
_symmetry_Int_Tables_number 14
loop_
_symmetry_equiv_pos_site_id
_symmetry_equiv_pos_as_xyz
1 x,y,z
2 -x,1/2+y,1/2-z
3 -x,-y,-z
4 x,-1/2-y,-1/2+z
_cell_length_a 8.8203(2)
_cell_length_b 8.9473(2)
_cell_length_c 17.3801(4)
_cell_angle_alpha 90
_cell_angle_beta 98.194(1)
_cell_angle_gamma 90
_cell_formula_units_Z 4
loop_
_atom_type_symbol
_atom_type_radius_bond
C 0.68
H 0.23
N 0.68
O 0.68
loop_
_atom_site_label
_atom_site_type_symbol
_atom_site_fract_x
_atom_site_fract_y
_atom_site_fract_z
O1 O 0.56249(9) 0.31600(9) 0.55493(5)
O2 O 0.75484(10) 0.22947(9) 0.50255(5)
N1 N 0.69951(10) 0.31468(10) 0.54656(5)
C1 C 0.79566(11) 0.42266(11) 0.58880(6)
C2 C 0.95529(11) 0.44350(11) 0.59626(6)
N2 N 1.07367(10) 0.34322(10) 0.57662(5)
O3 O 1.0509(1) 0.20878(9) 0.58102(6)
O4 O 1.18897(9) 0.40058(10) 0.55730(5)
N3 N 0.99925(10) 0.57192(10) 0.62868(5)
N4 N 0.86751(9) 0.63760(9) 0.64384(5)
C3 C 0.87670(11) 0.78931(11) 0.67619(6)
H1 H 0.97870 0.80490 0.70710
H2 H 0.79830 0.80180 0.71120
C4 C 0.85093(12) 0.90500(11) 0.61113(6)
H3 H 0.93870 0.90290 0.58140
H4 H 0.84640 1.00580 0.63410
C5 C 0.70304(11) 0.87597(12) 0.55581(6)
H5 H 0.68140 0.96160 0.51990
H6 H 0.71520 0.78560 0.52440
N5 N 0.57496(9) 0.85498(9) 0.59993(5)
N6 N 0.49577(9) 0.97650(9) 0.61753(5)
C6 C 0.39764(11) 0.92483(11) 0.66130(6)
N7 N 0.29293(9) 1.03293(10) 0.68702(5)
O5 O 0.33710(9) 1.16296(8) 0.69408(5)
O6 O 0.16745(8) 0.98818(9) 0.69977(5)
C7 C 0.41106(11) 0.76953(11) 0.67345(6)
N8 N 0.33888(9) 0.67066(10) 0.72154(5)
O7 O 0.27142(10) 0.72358(10) 0.77230(5)
O8 O 0.35159(8) 0.53512(8) 0.70962(5)
C8 C 0.53081(11) 0.72875(11) 0.63326(6)
N9 N 0.59328(10) 0.58917(9) 0.62626(5)
H7 H 0.52970 0.51330 0.62610
C9 C 0.74209(11) 0.55331(11) 0.61957(5)
#END
