
#######################################################################
#
#                 Cambridge Crystallographic Data Centre
#                                CCDC
#
#######################################################################
#
# If this CIF has been generated from an entry in the Cambridge
# Structural Database, then it will include bibliographic, chemical,
# crystal, experimental, refinement or atomic coordinate data resulting
# from the CCDC's data processing and validation procedures.
#
#######################################################################

data_CSD_CIF_LEHNIW
_audit_creation_date 2006-07-10
_audit_creation_method CSD-ConQuest-V1
_database_code_CSD LEHNIW
_database_code_depnum_ccdc_archive 'CCDC 605167'
_chemical_formula_sum 'C5 H5 N3 O4'
_chemical_formula_moiety
;
C5 H5 N3 O4
;
_journal_coeditor_code "IUCr SG2009"
_journal_coden_Cambridge 1370
_journal_volume 62
_journal_year 2006
_journal_page_first o1257
_journal_name_full 'Acta Crystallogr.,Sect.E:Struct.Rep.Online '
loop_
_publ_author_name
"P.Wagner"
"M.Kubicki"
_chemical_name_systematic
;
3-Methyl-5-nitrouracil
;
_cell_volume    677.139
_exptl_crystal_colour 'colorless'
_exptl_crystal_density_diffrn 1.679
_exptl_crystal_description 'block'
_exptl_crystal_preparation 'methanol'
_diffrn_ambient_temperature 295.0
#These two values have been output from a single CSD field.
_refine_ls_R_factor_gt 0.045
_refine_ls_wR_factor_gt 0.045
_symmetry_cell_setting monoclinic
_symmetry_space_group_name_H-M 'P 21/c'
_symmetry_Int_Tables_number 14
loop_
_symmetry_equiv_pos_site_id
_symmetry_equiv_pos_as_xyz
1 x,y,z
2 -x,1/2+y,1/2-z
3 -x,-y,-z
4 x,-1/2-y,-1/2+z
_cell_length_a 5.7510(12)
_cell_length_b 10.176(2)
_cell_length_c 11.775(2)
_cell_angle_alpha 90
_cell_angle_beta 100.69(3)
_cell_angle_gamma 90
_cell_formula_units_Z 4
loop_
_atom_type_symbol
_atom_type_radius_bond
C 0.68
H 0.23
N 0.68
O 0.68
loop_
_atom_site_label
_atom_site_type_symbol
_atom_site_fract_x
_atom_site_fract_y
_atom_site_fract_z
N1 N 0.3041(3) 0.10318(16) 0.58178(12)
H1 H 0.305(4) 0.085(2) 0.514(2)
C1 C 0.4814(3) 0.05458(18) 0.66604(14)
O1 O 0.6399(3) -0.01339(15) 0.64165(11)
N2 N 0.4690(3) 0.08839(14) 0.77744(11)
C2 C 0.6539(3) 0.0368(2) 0.86989(15)
H2 H 0.60110 -0.04050 0.90180
H3 H 0.67280 0.09900 0.93280
H4 H 0.80320 0.03130 0.84590
C3 C 0.2863(3) 0.16141(16) 0.81129(14)
O2 O 0.2850(3) 0.17753(14) 0.91292(10)
C4 C 0.1152(3) 0.21061(17) 0.71467(14)
N3 N -0.0782(3) 0.29368(16) 0.73154(13)
O3 O -0.2155(3) 0.3304(2) 0.64614(14)
O4 O -0.1018(3) 0.32526(15) 0.82795(12)
C5 C 0.1302(3) 0.17918(18) 0.60439(15)
H5 H 0.019(4) 0.210(2) 0.5393(16)
#END
