
#######################################################################
#
#                 Cambridge Crystallographic Data Centre
#                                CCDC
#
#######################################################################
#
# If this CIF has been generated from an entry in the Cambridge
# Structural Database, then it will include bibliographic, chemical,
# crystal, experimental, refinement or atomic coordinate data resulting
# from the CCDC's data processing and validation procedures.
#
#######################################################################

data_CSD_CIF_LEJKOA
_audit_creation_date 1994-07-27
_audit_creation_method CSD-ConQuest-V1
_database_code_CSD LEJKOA
_chemical_formula_sum 'C12 H12 N4 O8'
_chemical_formula_moiety
;
C12 H12 N4 O8
;
_journal_coeditor_code "IUCr CR1059"
_journal_coden_Cambridge 622
_journal_volume 50
_journal_year 1994
_journal_page_first 216
_journal_name_full 'Acta Crystallogr.,Sect.B:Struct.Sci. '
loop_
_publ_author_name
"H.L.Ammon"
"Zuyue Du"
"J.R.Holden"
"L.A.Paquette"
_chemical_name_systematic
;
Decahydro-2,2,5,5-tetranitro-1,6:3,4-dimethanocyclobuta(1,2:3,4)dicyclopentene
;
_chemical_name_common
;
1,1,5,5-Tetranitro(4)peristylane
;
_cell_volume    671.978
_exptl_crystal_colour 'colorless'
_exptl_crystal_density_diffrn 1.682
_diffrn_ambient_temperature ?
_diffrn_special_details
;
The study was carried out at room temperature,in the range 283-303K

;
#These two values have been output from a single CSD field.
_refine_ls_R_factor_gt 0.057
_refine_ls_wR_factor_gt 0.057
_symmetry_cell_setting monoclinic
_symmetry_space_group_name_H-M 'P 21'
_symmetry_Int_Tables_number 4
loop_
_symmetry_equiv_pos_site_id
_symmetry_equiv_pos_as_xyz
1 x,y,z
2 -x,1/2+y,-z
_cell_length_a 7.073(1)
_cell_length_b 11.624(1)
_cell_length_c 8.231(1)
_cell_angle_alpha 90
_cell_angle_beta 96.79(1)
_cell_angle_gamma 90
_cell_formula_units_Z 2
loop_
_atom_type_symbol
_atom_type_radius_bond
C 0.68
H 0.23
N 0.68
O 0.68
loop_
_atom_site_label
_atom_site_type_symbol
_atom_site_fract_x
_atom_site_fract_y
_atom_site_fract_z
O1 O -0.364(1) 0.06200 0.670(1)
O2 O -0.538(2) 0.206(1) 0.591(1)
O3 O -0.306(1) -0.041(1) 0.354(1)
O4 O -0.041(1) 0.034(1) 0.474(1)
O5 O 0.049(2) 0.452(1) -0.090(1)
O6 O -0.251(1) 0.454(1) -0.154(1)
O7 O -0.060(1) 0.177(1) -0.148(1)
O8 O 0.167(1) 0.220(1) 0.043(1)
N1 N -0.415(1) 0.140(1) 0.574(1)
N2 N -0.206(2) 0.037(1) 0.416(1)
N3 N -0.113(2) 0.418(1) -0.081(1)
N4 N 0.003(1) 0.227(1) -0.024(1)
C1 C -0.308(1) 0.155(1) 0.421(1)
C2 C -0.178(1) 0.259(1) 0.454(1)
C3 C -0.016(1) 0.268(1) 0.343(1)
C4 C -0.066(1) 0.360(1) 0.211(1)
C5 C -0.129(1) 0.317(1) 0.042(1)
C6 C -0.337(1) 0.279(1) 0.031(1)
C7 C -0.370(1) 0.162(1) 0.109(1)
C8 C -0.449(1) 0.178(1) 0.272(1)
C9 C -0.317(2) 0.359(1) 0.401(1)
C10 C -0.246(1) 0.421(1) 0.251(1)
C11 C -0.418(1) 0.368(1) 0.139(1)
C12 C -0.485(1) 0.310(1) 0.285(1)
H1 H -0.12960 0.26340 0.56740
H2 H 0.10090 0.28720 0.40790
H3 H -0.00100 0.19630 0.29040
H4 H 0.03720 0.41530 0.21260
H5 H -0.39830 0.28120 -0.07960
H6 H -0.45580 0.11840 0.03700
H7 H -0.25020 0.12320 0.12660
H8 H -0.56170 0.13380 0.27520
H9 H -0.35020 0.40790 0.48770
H10 H -0.24250 0.50330 0.25770
H11 H -0.50700 0.42180 0.08120
H12 H -0.60960 0.33070 0.30960
#END
