
#######################################################################
#
#                 Cambridge Crystallographic Data Centre
#                                CCDC
#
#######################################################################
#
# If this CIF has been generated from an entry in the Cambridge
# Structural Database, then it will include bibliographic, chemical,
# crystal, experimental, refinement or atomic coordinate data resulting
# from the CCDC's data processing and validation procedures.
#
#######################################################################

data_CSD_CIF_LEKFIQ
_audit_creation_date 2000-04-27
_audit_creation_method CSD-ConQuest-V1
_database_code_CSD LEKFIQ
_database_code_depnum_ccdc_archive 'CCDC 1205150'
_chemical_formula_sum 'C26 H32 N6 O4'
_chemical_formula_moiety
;
C26 H32 N6 O4
;
_journal_coden_Cambridge 7
_journal_volume 71
_journal_year 1998
_journal_page_first 2937
_journal_name_full 'Bull.Chem.Soc.Jpn. '
loop_
_publ_author_name
"K.Hamachi"
"K.Matsuda"
"T.Itoh"
"H.Iwamura"
_chemical_name_systematic
;
3,4'-bis(4,5-Dihydro-4,4,5,5-tetramethyl-3-oxido-1-oxyl-3-imidazolio-2-yl)azob
enzene biradical
;
_chemical_melting_point 495.45
_cell_volume   5133.553
_exptl_crystal_colour 'dark blue-green'
_exptl_crystal_density_diffrn 1.27
_exptl_crystal_description 'plate'
_exptl_crystal_preparation 'hexane/dichloromethane'
_diffrn_ambient_temperature 128.15
#These two values have been output from a single CSD field.
_refine_ls_R_factor_gt 0.044
_refine_ls_wR_factor_gt 0.044
_symmetry_cell_setting orthorhombic
_symmetry_space_group_name_H-M 'P b c a'
_symmetry_Int_Tables_number 61
loop_
_symmetry_equiv_pos_site_id
_symmetry_equiv_pos_as_xyz
1 x,y,z
2 1/2-x,-y,1/2+z
3 1/2+x,1/2-y,-z
4 -x,1/2+y,1/2-z
5 -x,-y,-z
6 -1/2+x,y,-1/2-z
7 -1/2-x,-1/2+y,z
8 x,-1/2-y,-1/2+z
_cell_length_a 23.613(3)
_cell_length_b 17.257(4)
_cell_length_c 12.598(2)
_cell_angle_alpha 90
_cell_angle_beta 90
_cell_angle_gamma 90
_cell_formula_units_Z 8
loop_
_atom_type_symbol
_atom_type_radius_bond
C 0.68
H 0.23
N 0.68
O 0.68
loop_
_atom_site_label
_atom_site_type_symbol
_atom_site_fract_x
_atom_site_fract_y
_atom_site_fract_z
O1 O 0.34023(4) 0.57787(9) 0.2550(1)
O2 O 0.46622(5) 0.70078(9) 0.4821(1)
O3 O 0.78382(4) 0.33108(8) 0.32582(10)
O4 O 0.91072(5) 0.41355(8) 0.06799(10)
N1 N 0.60211(5) 0.50571(9) 0.1241(1)
N2 N 0.64665(5) 0.49384(9) 0.1756(1)
N3 N 0.36041(5) 0.61960(9) 0.3302(1)
N4 N 0.42029(5) 0.67375(9) 0.4415(1)
N5 N 0.82982(5) 0.34241(8) 0.2731(1)
N6 N 0.88997(5) 0.37948(9) 0.1497(1)
C1 C 0.55694(6) 0.53531(10) 0.1880(1)
C2 C 0.50765(6) 0.5547(1) 0.1333(1)
C3 C 0.46096(6) 0.5834(1) 0.1874(1)
C4 C 0.46375(6) 0.59395(10) 0.2975(1)
C5 C 0.51345(6) 0.5739(1) 0.3530(1)
C6 C 0.55968(6) 0.54458(10) 0.2991(1)
C7 C 0.69288(6) 0.46489(10) 0.1121(1)
C8 C 0.73976(6) 0.44164(10) 0.1708(1)
C9 C 0.78794(6) 0.41341(10) 0.1190(1)
C10 C 0.78917(6) 0.4114(1) 0.0076(1)
C11 C 0.74157(7) 0.4343(1) -0.0506(2)
C12 C 0.69335(6) 0.4601(1) 0.0010(1)
C13 C 0.41581(6) 0.6273(1) 0.3552(1)
C14 C 0.32437(6) 0.6741(1) 0.3952(1)
C15 C 0.36351(6) 0.6869(1) 0.4927(1)
C16 C 0.31630(9) 0.7473(1) 0.3284(2)
C17 C 0.26753(7) 0.6368(1) 0.4205(2)
C18 C 0.36123(9) 0.7673(1) 0.5416(2)
C19 C 0.35696(8) 0.6248(1) 0.5783(2)
C20 C 0.83493(6) 0.38098(10) 0.1805(1)
C21 C 0.88622(6) 0.31827(10) 0.3172(1)
C22 C 0.92388(6) 0.32333(10) 0.2160(1)
C23 C 0.90138(7) 0.3777(1) 0.4029(1)
C24 C 0.88094(7) 0.2378(1) 0.3661(2)
C25 C 0.98327(6) 0.3549(1) 0.2335(2)
C26 C 0.92655(7) 0.2479(1) 0.1526(2)
H1 H 0.5063(6) 0.548(1) 0.052(1)
H2 H 0.4261(7) 0.596(1) 0.149(2)
H3 H 0.5158(7) 0.581(1) 0.430(2)
H4 H 0.5929(7) 0.531(1) 0.340(1)
H5 H 0.7382(7) 0.446(1) 0.251(2)
H6 H 0.8232(7) 0.391(1) -0.027(2)
H7 H 0.7427(7) 0.432(1) -0.130(2)
H8 H 0.6596(7) 0.477(1) -0.040(2)
H9 H 0.3541(8) 0.774(1) 0.317(2)
H10 H 0.2961(9) 0.730(1) 0.265(2)
H11 H 0.2923(10) 0.789(2) 0.374(2)
H12 H 0.2745(8) 0.582(1) 0.454(2)
H13 H 0.2431(8) 0.636(1) 0.353(2)
H14 H 0.2443(8) 0.676(1) 0.467(2)
H15 H 0.3725(10) 0.809(2) 0.488(2)
H16 H 0.3212(9) 0.779(1) 0.569(2)
H17 H 0.3873(10) 0.767(2) 0.603(2)
H18 H 0.3895(9) 0.629(1) 0.627(2)
H19 H 0.3586(8) 0.570(1) 0.546(2)
H20 H 0.3202(9) 0.629(1) 0.613(2)
H21 H 0.8706(8) 0.378(1) 0.457(2)
H22 H 0.9056(7) 0.431(1) 0.372(2)
H23 H 0.9354(8) 0.361(1) 0.436(2)
H24 H 0.8559(8) 0.239(1) 0.432(2)
H25 H 0.8633(7) 0.200(1) 0.312(2)
H26 H 0.9195(8) 0.219(1) 0.389(2)
H27 H 0.9811(8) 0.409(1) 0.265(2)
H28 H 1.0034(7) 0.355(1) 0.164(2)
H29 H 1.0033(8) 0.321(1) 0.285(2)
H30 H 0.8861(7) 0.225(1) 0.139(2)
H31 H 0.9457(8) 0.259(1) 0.082(2)
H32 H 0.9492(7) 0.209(1) 0.192(2)
#END
