
#######################################################################
#
#                 Cambridge Crystallographic Data Centre
#                                CCDC
#
#######################################################################
#
# If this CIF has been generated from an entry in the Cambridge
# Structural Database, then it will include bibliographic, chemical,
# crystal, experimental, refinement or atomic coordinate data resulting
# from the CCDC's data processing and validation procedures.
#
#######################################################################

data_CSD_CIF_LEKHUE
_audit_creation_date 1994-07-24
_audit_creation_method CSD-ConQuest-V1
_database_code_CSD LEKHUE
_chemical_formula_sum 'C5 H7 N3 O2'
_chemical_formula_moiety
;
C5 H7 N3 O2
;
_journal_coeditor_code "IUCr NA1064"
_journal_coden_Cambridge 591
_journal_volume 50
_journal_year 1994
_journal_page_first 558
_journal_name_full 'Acta Crystallogr.,Sect.C:Cryst.Struct.Commun. '
loop_
_publ_author_name
"T.A.Olszak"
"O.M.Peeters"
"N.M.Blaton"
"C.J.De Ranter"
_chemical_name_systematic
;
2,5-Dimethyl-4-nitroimidazole
;
_cell_volume   1301.999
_exptl_crystal_colour 'Colorless'
_exptl_crystal_density_diffrn 1.44
_exptl_special_details
;
related to compounds with antiprotozoic or antibiotic activity

;
_diffrn_ambient_temperature ?
_diffrn_special_details
;
The study was carried out at room temperature,in the range 283-303K

;
#These two values have been output from a single CSD field.
_refine_ls_R_factor_gt 0.0349
_refine_ls_wR_factor_gt 0.0349
_symmetry_cell_setting orthorhombic
_symmetry_space_group_name_H-M 'P c a b'
_symmetry_Int_Tables_number 61
loop_
_symmetry_equiv_pos_site_id
_symmetry_equiv_pos_as_xyz
1 x,y,z
2 -x,1/2-y,1/2+z
3 1/2+x,-y,1/2-z
4 1/2-x,1/2+y,-z
5 -x,-y,-z
6 x,-1/2+y,-1/2-z
7 -1/2-x,y,-1/2+z
8 -1/2+x,-1/2-y,z
_cell_length_a 7.724(1)
_cell_length_b 10.513(1)
_cell_length_c 16.034(3)
_cell_angle_alpha 90
_cell_angle_beta 90
_cell_angle_gamma 90
_cell_formula_units_Z 8
loop_
_atom_type_symbol
_atom_type_radius_bond
C 0.68
H 0.23
N 0.68
O 0.68
loop_
_atom_site_label
_atom_site_type_symbol
_atom_site_fract_x
_atom_site_fract_y
_atom_site_fract_z
N1 N 0.0640(3) 0.8586(2) 0.2653(1)
C1 C 0.0261(3) 0.7496(3) 0.2231(1)
C2 C -0.0471(5) 0.7488(4) 0.1372(2)
N2 N 0.0638(3) 0.6487(2) 0.2676(1)
C3 C 0.1298(4) 0.6985(2) 0.3403(2)
N3 N 0.1885(4) 0.6167(2) 0.4045(2)
O1 O 0.1749(4) 0.5016(2) 0.3947(1)
O2 O 0.2541(4) 0.6643(2) 0.4672(1)
C4 C 0.1321(4) 0.8280(2) 0.3409(2)
C5 C 0.1864(6) 0.9251(3) 0.4030(2)
H1 H 0.056(3) 0.936(3) 0.248(2)
H2 H -0.116(5) 0.675(4) 0.128(2)
H3 H -0.123(5) 0.813(4) 0.130(3)
H4 H 0.050(6) 0.759(4) 0.092(2)
H5 H 0.283(6) 0.904(4) 0.440(3)
H6 H 0.197(7) 0.991(5) 0.378(3)
H7 H 0.111(6) 0.934(5) 0.449(3)
#END
