
#######################################################################
#
#                 Cambridge Crystallographic Data Centre
#                                CCDC
#
#######################################################################
#
# If this CIF has been generated from an entry in the Cambridge
# Structural Database, then it will include bibliographic, chemical,
# crystal, experimental, refinement or atomic coordinate data resulting
# from the CCDC's data processing and validation procedures.
#
#######################################################################

data_CSD_CIF_LEKLOC
_audit_creation_date 1994-07-24
_audit_creation_method CSD-ConQuest-V1
_database_code_CSD LEKLOC
_chemical_formula_sum 'C15 H14 N2 O3'
_chemical_formula_moiety
;
C15 H14 N2 O3
;
_journal_coeditor_code "IUCr HU1068"
_journal_coden_Cambridge 591
_journal_volume 50
_journal_year 1994
_journal_page_first 583
_journal_name_full 'Acta Crystallogr.,Sect.C:Cryst.Struct.Commun. '
loop_
_publ_author_name
"W.Clegg"
"S.P.Stanforth"
"K.A.Hedley"
"E.S.Raper"
"J.R.Creighton"
_chemical_name_systematic
;
N-(2-(2-Formylphenyl)ethyl)-2-nitroaniline
;
_cell_volume   1304.605
_exptl_crystal_colour 'Colorless'
_exptl_crystal_density_diffrn 1.376
_diffrn_ambient_temperature 240.0
#These two values have been output from a single CSD field.
_refine_ls_R_factor_gt 0.0637
_refine_ls_wR_factor_gt 0.0637
_symmetry_cell_setting monoclinic
_symmetry_space_group_name_H-M 'P 21/n'
_symmetry_Int_Tables_number 14
loop_
_symmetry_equiv_pos_site_id
_symmetry_equiv_pos_as_xyz
1 x,y,z
2 1/2-x,1/2+y,1/2-z
3 -x,-y,-z
4 -1/2+x,-1/2-y,-1/2+z
_cell_length_a 7.413(3)
_cell_length_b 23.75(1)
_cell_length_c 7.933(3)
_cell_angle_alpha 90
_cell_angle_beta 110.92(4)
_cell_angle_gamma 90
_cell_formula_units_Z 4
loop_
_atom_type_symbol
_atom_type_radius_bond
C 0.68
H 0.23
N 0.68
O 0.68
loop_
_atom_site_label
_atom_site_type_symbol
_atom_site_fract_x
_atom_site_fract_y
_atom_site_fract_z
O1 O 0.0594(8) 0.2856(2) 1.0711(7)
C1 C 0.1376(11) 0.2780(3) 0.9634(10)
H1 H 0.2387(11) 0.2523(3) 0.9961(10)
C2 C 0.0910(8) 0.3050(2) 0.7864(8)
C3 C 0.1869(9) 0.2844(3) 0.6747(9)
H2 H 0.2769(9) 0.2557(3) 0.7173(9)
C4 C 0.1524(10) 0.3052(3) 0.5071(10)
H3 H 0.218(1) 0.2909(3) 0.4361(10)
C5 C 0.0194(10) 0.3475(3) 0.4434(9)
H4 H -0.0072(10) 0.3616(3) 0.3277(9)
C6 C -0.0735(9) 0.3688(3) 0.5493(9)
H5 H -0.1626(9) 0.3976(3) 0.5037(9)
C7 C -0.0406(8) 0.3492(3) 0.7232(8)
C8 C -0.1484(9) 0.3762(3) 0.8323(9)
H6 H -0.1814(9) 0.4151(3) 0.7917(9)
H7 H -0.0647(9) 0.3771(3) 0.9599(9)
C9 C -0.3331(10) 0.3437(3) 0.8124(11)
H8 H -0.421(1) 0.3454(3) 0.6864(11)
H9 H -0.3009(10) 0.3041(3) 0.8430(11)
N1 N -0.4325(8) 0.3667(2) 0.9305(8)
H10 H -0.4094(8) 0.3508(2) 1.0376(8)
C10 C -0.5555(8) 0.4105(3) 0.8833(8)
C11 C -0.5972(10) 0.4366(3) 0.7130(9)
H11 H -0.5384(10) 0.4234(3) 0.6349(9)
C12 C -0.7289(10) 0.4832(3) 0.6594(10)
H12 H -0.7545(10) 0.5002(3) 0.5477(10)
C13 C -0.8165(11) 0.5024(3) 0.7732(12)
H13 H -0.9050(11) 0.5318(3) 0.7365(12)
C14 C -0.7764(11) 0.4792(3) 0.9400(13)
H14 H -0.8333(11) 0.4934(3) 1.0183(13)
C15 C -0.6493(9) 0.4341(3) 0.9910(9)
N2 N -0.6218(10) 0.4107(3) 1.1711(9)
O2 O -0.5103(9) 0.3696(3) 1.2222(7)
O3 O -0.7042(10) 0.4322(3) 1.2610(8)
#END
