
#######################################################################
#
#                 Cambridge Crystallographic Data Centre
#                                CCDC
#
#######################################################################
#
# If this CIF has been generated from an entry in the Cambridge
# Structural Database, then it will include bibliographic, chemical,
# crystal, experimental, refinement or atomic coordinate data resulting
# from the CCDC's data processing and validation procedures.
#
#######################################################################

data_CSD_CIF_LELKAR
_audit_creation_date 2017-12-15
_audit_creation_method CSD-ConQuest-V1
_database_code_CSD LELKAR
_database_code_depnum_ccdc_archive 'CCDC 1572656'
_chemical_formula_sum 'C25 H21 N5 O7'
_chemical_formula_moiety
;
C25 H21 N5 O7
;
_journal_coden_Cambridge 177
_journal_volume 16
_journal_year 2018
_journal_page_first 302
_journal_name_full 'Org.Biomol.Chem. '
loop_
_publ_author_name
"A.Mondal"
"B.Naskar"
"S.Goswami"
"C.Prodhan"
"K.Chaudhuri"
"C.Mukhopadhyay"
_chemical_name_systematic
;
diethyl 
5'-cyano-6'-[(3-nitrophenyl)amino]-2-oxo-1,2-dihydro-1'H-spiro[indole-3,4'-pyr
idine]-2',3'-dicarboxylate
;
_cell_volume   1208.426
_exptl_crystal_colour 'yellow'
_exptl_crystal_density_diffrn 1.384
_exptl_crystal_description 'block'
_diffrn_ambient_temperature 296
#These two values have been output from a single CSD field.
_refine_ls_R_factor_gt 0.0514
_refine_ls_wR_factor_gt 0.0514
_symmetry_cell_setting triclinic
_symmetry_space_group_name_H-M 'P -1'
_symmetry_Int_Tables_number 2
loop_
_symmetry_equiv_pos_site_id
_symmetry_equiv_pos_as_xyz
1 x,y,z
2 -x,-y,-z
_cell_length_a 9.337(3)
_cell_length_b 10.612(4)
_cell_length_c 13.512(5)
_cell_angle_alpha 71.627(4)
_cell_angle_beta 81.230(5)
_cell_angle_gamma 72.359(5)
_cell_formula_units_Z 2
loop_
_atom_type_symbol
_atom_type_radius_bond
C 0.68
H 0.23
N 0.68
O 0.68
loop_
_atom_site_label
_atom_site_type_symbol
_atom_site_fract_x
_atom_site_fract_y
_atom_site_fract_z
O1 O 0.2621(2) 0.2927(2) 0.82776(16)
N1 N -0.0986(3) 0.5613(2) 0.5884(2)
O2 O 0.0277(3) 0.3219(3) 0.8989(2)
O3 O 0.2997(2) 0.4776(2) 0.53331(17)
O4 O -0.2565(3) 0.3724(3) 0.6951(2)
O5 O -0.0390(2) 0.2212(2) 0.7429(2)
O6 O -0.6454(4) 1.0724(4) 0.2250(3)
C1 C -0.0599(3) 0.6822(3) 0.5663(2)
O7 O -0.4125(5) 1.0516(3) 0.1769(3)
C2 C 0.1582(3) 0.5592(3) 0.6817(2)
N2 N 0.4202(3) 0.5155(2) 0.65200(19)
H1 H 0.51090 0.49370 0.62550
C3 C 0.0513(3) 0.6888(3) 0.6180(2)
C4 C 0.4868(5) 0.1958(4) 0.9172(3)
H2 H 0.53200 0.14130 0.87000
H3 H 0.52850 0.14980 0.98410
H4 H 0.50660 0.28440 0.89000
C5 C 0.3209(4) 0.2141(4) 0.9288(3)
H5 H 0.29950 0.12500 0.95150
H6 H 0.27490 0.26300 0.98040
C6 C 0.1141(4) 0.3466(3) 0.8262(2)
C7 C 0.0725(3) 0.4495(3) 0.7235(2)
C8 C -0.0419(3) 0.4523(3) 0.6729(2)
N3 N -0.1341(3) 0.7916(2) 0.49189(19)
H7 H -0.08390 0.84820 0.45510
C9 C -0.2852(3) 0.8227(3) 0.4681(2)
C10 C -0.3231(3) 0.8979(3) 0.3680(2)
H8 H -0.25010 0.92070 0.31590
C11 C -0.4725(4) 0.9383(3) 0.3475(3)
N4 N -0.5133(5) 1.0277(4) 0.2426(3)
C12 C 0.2998(3) 0.5098(3) 0.6121(2)
C13 C 0.3813(3) 0.5610(3) 0.7415(2)
C14 C 0.4756(4) 0.5788(3) 0.8020(3)
H9 H 0.57890 0.56180 0.78600
C15 C 0.4075(5) 0.6237(4) 0.8883(3)
H10 H 0.46690 0.63780 0.93100
C16 C 0.2557(5) 0.6477(4) 0.9124(3)
H11 H 0.21400 0.67690 0.97120
C17 C 0.1636(4) 0.6291(3) 0.8503(3)
H12 H 0.06040 0.64510 0.86660
C18 C 0.2282(3) 0.5862(3) 0.7638(2)
C19 C 0.0696(3) 0.8179(3) 0.6093(2)
N5 N 0.0831(3) 0.9247(3) 0.6028(2)
C20 C -0.1255(3) 0.3453(3) 0.7047(2)
C21 C -0.1127(5) 0.1111(4) 0.7913(5)
H13 H -0.20210 0.14420 0.83300
H14 H -0.14330 0.08370 0.73760
C22 C -0.0116(7) -0.0046(5) 0.8561(5)
H15 H 0.07580 -0.03810 0.81440
H16 H -0.06080 -0.07630 0.88820
H17 H 0.01820 0.02290 0.90930
C23 C -0.5838(4) 0.9047(4) 0.4200(3)
H18 H -0.68360 0.93300 0.40290
C24 C -0.5430(4) 0.8278(3) 0.5187(3)
H19 H -0.61600 0.80200 0.56960
C25 C -0.3957(3) 0.7882(3) 0.5435(3)
H20 H -0.37010 0.73780 0.61140
H21 H -0.158(4) 0.549(4) 0.546(3)
#END
