
#######################################################################
#
#                 Cambridge Crystallographic Data Centre
#                                CCDC
#
#######################################################################
#
# If this CIF has been generated from an entry in the Cambridge
# Structural Database, then it will include bibliographic, chemical,
# crystal, experimental, refinement or atomic coordinate data resulting
# from the CCDC's data processing and validation procedures.
#
#######################################################################

data_CSD_CIF_LELLAR
_audit_creation_date 2013-04-24
_audit_creation_method CSD-ConQuest-V1
_database_code_CSD LELLAR
_database_code_depnum_ccdc_archive 'CCDC 885330'
_chemical_formula_sum 'C34 H32 N4 O6'
_chemical_formula_moiety
;
C34 H32 N4 O6
;
_journal_coden_Cambridge 182
_journal_volume 49
_journal_year 2013
_journal_page_first 1401
_journal_name_full 'Chem.Commun. '
loop_
_publ_author_name
"Xuejian Li"
"Yanyan Zhao"
"Haijun Qu"
"Zhenjun Mao"
"Xufeng Lin"
_chemical_name_systematic
;
tert-Butyl 
4-anilino-2,6-bis(4-nitrophenyl)-1-phenyl-1,2,5,6-tetrahydropyridine-3-carboxy
late
;
_cell_volume   1523.348
_exptl_crystal_colour 'yellow'
_exptl_crystal_density_diffrn 1.292
_exptl_special_details
;
Absolute configuration

;
_exptl_crystal_description 'block'
_diffrn_ambient_temperature 293
#These two values have been output from a single CSD field.
_refine_ls_R_factor_gt 0.0364
_refine_ls_wR_factor_gt 0.0364
_symmetry_cell_setting monoclinic
_symmetry_space_group_name_H-M 'P 21'
_symmetry_Int_Tables_number 4
loop_
_symmetry_equiv_pos_site_id
_symmetry_equiv_pos_as_xyz
1 x,y,z
2 -x,1/2+y,-z
_cell_length_a 11.5684(2)
_cell_length_b 10.37340(15)
_cell_length_c 13.8042(3)
_cell_angle_alpha 90
_cell_angle_beta 113.134(2)
_cell_angle_gamma 90
_cell_formula_units_Z 2
loop_
_atom_type_symbol
_atom_type_radius_bond
C 0.68
H 0.23
N 0.68
O 0.68
loop_
_atom_site_label
_atom_site_type_symbol
_atom_site_fract_x
_atom_site_fract_y
_atom_site_fract_z
O1 O 0.83193(14) 0.20916(16) 0.53255(11)
O2 O 1.00313(13) 0.13041(12) 0.66397(10)
O3 O 1.4062(2) 0.7408(3) 0.7238(2)
O4 O 1.4719(3) 0.5675(4) 0.6787(3)
O5 O 0.4472(3) 0.1862(3) 0.9709(3)
O6 O 0.5322(3) 0.0218(3) 0.9417(3)
N1 N 0.99873(13) 0.38931(15) 0.88266(11)
N2 N 0.73038(14) 0.41956(15) 0.56943(11)
H1 H 0.71640 0.34810 0.53510
N3 N 1.4031(2) 0.6248(4) 0.7112(2)
N4 N 0.5236(2) 0.1365(2) 0.9456(2)
C1 C 1.02987(16) 0.33468(16) 0.79848(13)
H2 H 1.06300 0.24770 0.82030
C2 C 0.91652(16) 0.32259(17) 0.69455(13)
C3 C 0.82523(15) 0.41595(16) 0.66578(13)
C4 C 0.82846(17) 0.51146(16) 0.74789(13)
H3 H 0.74420 0.54400 0.73110
H4 H 0.88100 0.58370 0.74650
C5 C 0.87896(17) 0.45366(16) 0.85913(13)
H5 H 0.89560 0.52620 0.90830
C6 C 1.13272(16) 0.41315(19) 0.78114(12)
C7 C 1.15137(19) 0.5430(2) 0.80556(17)
H6 H 1.10410 0.58350 0.83780
C8 C 1.2397(2) 0.6140(2) 0.78273(19)
H7 H 1.25040 0.70170 0.79750
C9 C 1.3108(2) 0.5507(3) 0.73764(17)
C10 C 1.3001(2) 0.4216(3) 0.71848(19)
H8 H 1.35220 0.38020 0.69140
C11 C 1.21086(19) 0.3534(2) 0.73992(17)
H9 H 1.20270 0.26530 0.72650
C12 C 0.91178(16) 0.21814(18) 0.62196(13)
C13 C 1.0187(2) 0.02312(19) 0.59964(17)
C14 C 1.1324(4) -0.0451(3) 0.6764(3)
H10 H 1.20350 0.01200 0.69780
H11 H 1.14960 -0.12000 0.64330
H12 H 1.11690 -0.07080 0.73700
C15 C 1.0421(3) 0.0745(3) 0.5070(2)
H13 H 0.96790 0.11710 0.45940
H14 H 1.06280 0.00440 0.47130
H15 H 1.11060 0.13470 0.53130
C16 C 0.9043(4) -0.0637(3) 0.5632(2)
H16 H 0.88990 -0.09390 0.62330
H17 H 0.91820 -0.13600 0.52580
H18 H 0.83220 -0.01630 0.51760
C17 C 0.65083(17) 0.52227(18) 0.51643(14)
C18 C 0.5425(2) 0.4900(2) 0.43021(17)
H19 H 0.52310 0.40380 0.41270
C19 C 0.4636(2) 0.5853(3) 0.3705(2)
H20 H 0.39070 0.56300 0.31340
C20 C 0.4916(2) 0.7129(3) 0.3946(2)
H21 H 0.43750 0.77680 0.35440
C21 C 0.5996(2) 0.7457(2) 0.47797(18)
H22 H 0.61940 0.83220 0.49370
C22 C 0.67948(19) 0.6513(2) 0.53903(15)
H23 H 0.75270 0.67450 0.59550
C23 C 0.78313(16) 0.36756(17) 0.87841(13)
C24 C 0.79104(18) 0.23510(18) 0.87845(15)
H24 H 0.85460 0.19630 0.86350
C25 C 0.70648(19) 0.15856(19) 0.90028(16)
H25 H 0.71270 0.06920 0.90030
C26 C 0.61317(19) 0.2175(2) 0.92195(16)
C27 C 0.6031(2) 0.3488(2) 0.9241(2)
H26 H 0.54000 0.38690 0.94010
C28 C 0.6882(2) 0.4232(2) 0.90215(19)
H27 H 0.68210 0.51250 0.90320
C29 C 1.08010(17) 0.36838(18) 0.98635(14)
C30 C 1.0491(2) 0.4059(2) 1.07092(15)
H28 H 0.97140 0.44350 1.05780
C31 C 1.1332(3) 0.3872(3) 1.17341(17)
H29 H 1.11100 0.41350 1.22820
C32 C 1.2483(3) 0.3313(3) 1.19720(16)
H30 H 1.30330 0.31870 1.26680
C33 C 1.2803(2) 0.2943(2) 1.11545(16)
H31 H 1.35840 0.25680 1.13000
C34 C 1.19843(18) 0.31193(19) 1.01182(15)
H32 H 1.22240 0.28580 0.95800
#END
