
#######################################################################
#
#                 Cambridge Crystallographic Data Centre
#                                CCDC
#
#######################################################################
#
# If this CIF has been generated from an entry in the Cambridge
# Structural Database, then it will include bibliographic, chemical,
# crystal, experimental, refinement or atomic coordinate data resulting
# from the CCDC's data processing and validation procedures.
#
#######################################################################

data_CSD_CIF_LEMSAA
_audit_creation_date 2017-12-17
_audit_creation_method CSD-ConQuest-V1
_database_code_CSD LEMSAA
_database_code_depnum_ccdc_archive 'CCDC 1580287'
_chemical_formula_sum 'C15 H14 N2 O5'
_chemical_formula_moiety
;
C15 H14 N2 O5
;
_journal_coeditor_code "xu5912"
_journal_coden_Cambridge 1828
_journal_volume 74
_journal_year 2018
_journal_page_first 41
_journal_name_full 'Acta Crystallogr.,Sect.E:Cryst.Commun. '
loop_
_publ_author_name
"M.Yaman"
"Z.M.Almarhoon"
"S.Cakmak"
"H.Kutuk"
"G.Meral"
"N.Dege"
_chemical_name_systematic
;
2,3-dimethoxy-N-(4-nitrophenyl)benzamide
;
_cell_volume    707.267
_exptl_crystal_colour 'colorless'
_exptl_crystal_density_diffrn 1.419
_exptl_crystal_description 'prism'
_diffrn_ambient_temperature 296
#These two values have been output from a single CSD field.
_refine_ls_R_factor_gt 0.039
_refine_ls_wR_factor_gt 0.039
_symmetry_cell_setting triclinic
_symmetry_space_group_name_H-M 'P -1'
_symmetry_Int_Tables_number 2
loop_
_symmetry_equiv_pos_site_id
_symmetry_equiv_pos_as_xyz
1 x,y,z
2 -x,-y,-z
_cell_length_a 6.9293(5)
_cell_length_b 7.3270(5)
_cell_length_c 15.7411(11)
_cell_angle_alpha 94.198(6)
_cell_angle_beta 96.189(6)
_cell_angle_gamma 116.053(5)
_cell_formula_units_Z 2
loop_
_atom_type_symbol
_atom_type_radius_bond
C 0.68
H 0.23
N 0.68
O 0.68
loop_
_atom_site_label
_atom_site_type_symbol
_atom_site_fract_x
_atom_site_fract_y
_atom_site_fract_z
O1 O 0.64070(15) 0.29058(17) 0.80665(6)
O2 O 0.60933(17) 0.26544(19) 0.97197(7)
N1 N 0.4382(2) 0.2366(2) 0.64515(8)
O3 O 0.10391(19) 0.2209(2) 0.63299(8)
C1 C 0.4424(2) 0.2492(2) 0.83248(9)
C2 C 0.4797(2) 0.2459(2) 0.56018(9)
C3 C 0.2622(2) 0.2150(2) 0.77272(10)
O4 O 0.8200(3) 0.2760(3) 0.30063(10)
N2 N 0.6417(3) 0.2623(2) 0.30988(11)
C4 C 0.2601(2) 0.2247(2) 0.6774(1)
C5 C 0.4247(2) 0.2346(2) 0.9199(1)
C6 C 0.5861(3) 0.2588(2) 0.39713(10)
C7 C 0.3267(3) 0.2228(3) 0.4900(1)
H1 H 0.18809 0.20241 0.49815
O5 O 0.5080(3) 0.2514(3) 0.25036(9)
C8 C 0.6860(2) 0.2752(2) 0.54688(10)
H2 H 0.78887 0.29117 0.59367
C9 C 0.0660(2) 0.1701(3) 0.80232(11)
H3 H -0.05593 0.14649 0.76333
C10 C 0.7391(3) 0.2808(3) 0.46522(11)
H4 H 0.87659 0.29913 0.45626
C11 C 0.2278(3) 0.1919(3) 0.94704(10)
H5 H 0.21519 0.18460 1.00506
C12 C 0.3818(3) 0.2305(3) 0.40828(10)
H6 H 0.28102 0.21647 0.36105
C13 C 0.0500(3) 0.1603(3) 0.88803(12)
H7 H -0.08193 0.13192 0.90663
C14 C 0.6008(3) 0.2573(3) 1.06211(10)
H8 H 0.74023 0.28131 1.09153
H9 H 0.56327 0.36051 1.08494
H10 H 0.49301 0.12453 1.07034
C15 C 0.8027(3) 0.5006(3) 0.83037(13)
H11 H 0.93527 0.51824 0.81054
H12 H 0.75183 0.58924 0.80441
H13 H 0.82892 0.53437 0.89196
H14 H 0.540(3) 0.244(3) 0.6846(12)
#END
