
#######################################################################
#
#                 Cambridge Crystallographic Data Centre
#                                CCDC
#
#######################################################################
#
# If this CIF has been generated from an entry in the Cambridge
# Structural Database, then it will include bibliographic, chemical,
# crystal, experimental, refinement or atomic coordinate data resulting
# from the CCDC's data processing and validation procedures.
#
#######################################################################

data_CSD_CIF_LENBAH
_audit_creation_date 2000-04-26
_audit_creation_method CSD-ConQuest-V1
_database_code_CSD LENBAH
_database_code_depnum_ccdc_archive 'CCDC 125377'
_database_code_depnum_ccdc_journal 1003/5430
_chemical_formula_sum 'C17 H18 N10 O4'
_chemical_formula_moiety
;
C17 H18 N10 O4
;
_journal_coden_Cambridge 1003
_journal_volume 28
_journal_year 1998
_journal_page_first 797
_journal_name_full 'J.Chem.Cryst. '
loop_
_publ_author_name
"K.Biradha"
"R.D.Singer"
"A.Stark"
"K.Vaughan"
"M.J.Zaworotko"
_chemical_name_systematic
;
3,7-bis(p-Nitrophenylazo)-1,3,5,7-tetra-azabicyclo(3.3.1)nonane
;
_cell_volume   1863.821
_exptl_crystal_density_diffrn 1.52
_diffrn_ambient_temperature 193
#These two values have been output from a single CSD field.
_refine_ls_R_factor_gt 0.0716
_refine_ls_wR_factor_gt 0.0716
_symmetry_cell_setting triclinic
_symmetry_space_group_name_H-M 'P -1'
_symmetry_Int_Tables_number 2
loop_
_symmetry_equiv_pos_site_id
_symmetry_equiv_pos_as_xyz
1 x,y,z
2 -x,-y,-z
_cell_length_a 9.8899(10)
_cell_length_b 13.0845(13)
_cell_length_c 16.458(2)
_cell_angle_alpha 94.059(2)
_cell_angle_beta 107.004(2)
_cell_angle_gamma 111.027(2)
_cell_formula_units_Z 4
loop_
_atom_type_symbol
_atom_type_radius_bond
C 0.68
H 0.23
N 0.68
O 0.68
loop_
_atom_site_label
_atom_site_type_symbol
_atom_site_fract_x
_atom_site_fract_y
_atom_site_fract_z
N1 N 0.4493(3) 0.8259(3) 0.6297(2)
N2 N 0.1896(3) 0.7376(3) 0.6324(2)
N3 N 0.1735(4) 0.7334(3) 0.4818(2)
N4 N 0.2654(4) 0.9095(3) 0.5789(2)
N5 N 0.2135(4) 0.6953(3) 0.4196(2)
N6 N 0.1910(4) 0.5935(3) 0.4122(2)
N7 N 0.5095(3) 0.7757(3) 0.5865(2)
N8 N 0.5789(3) 0.8348(3) 0.5410(2)
N9 N 0.4179(3) 0.4322(3) 0.1782(2)
N10 N 0.8038(4) 0.6116(3) 0.3420(2)
C1 C 0.4277(4) 0.9296(3) 0.6155(2)
C2 C 0.1804(5) 0.8461(3) 0.6312(3)
C3 C 0.1203(4) 0.6700(3) 0.5460(2)
C4 C 0.1939(5) 0.8504(3) 0.4900(2)
C5 C 0.3505(4) 0.7550(3) 0.6720(2)
C6 C 0.2444(4) 0.5587(4) 0.3482(2)
C7 C 0.3256(4) 0.6307(3) 0.3035(2)
C8 C 0.3810(4) 0.5887(3) 0.2453(2)
C9 C 0.3562(4) 0.4764(3) 0.2350(2)
C10 C 0.2768(4) 0.4068(3) 0.2790(2)
C11 C 0.2192(4) 0.4477(3) 0.3342(2)
O1 O 0.4054(3) 0.3341(2) 0.1742(2)
O2 O 0.4823(3) 0.4929(2) 0.1352(2)
O3 O 0.7849(4) 0.5142(3) 0.3452(2)
O4 O 0.8711(3) 0.6625(3) 0.2965(2)
C12 C 0.6370(4) 0.7737(3) 0.4952(2)
C13 C 0.7130(4) 0.8300(3) 0.4423(2)
C14 C 0.7669(4) 0.7770(3) 0.3919(2)
C15 C 0.7481(4) 0.6681(3) 0.3960(2)
C16 C 0.6755(4) 0.6100(3) 0.4490(2)
C17 C 0.6201(4) 0.6637(3) 0.4984(2)
H1 H 0.4738(4) 0.9823(3) 0.6703(2)
H2 H 0.4801(4) 0.9627(3) 0.5765(2)
H3 H 0.2224(5) 0.8885(3) 0.6900(3)
H4 H 0.0732(5) 0.8356(3) 0.6075(3)
H5 H 0.0091(4) 0.6437(3) 0.5286(2)
H6 H 0.1463(4) 0.6052(3) 0.5462(2)
H7 H 0.2571(5) 0.8867(3) 0.4567(2)
H8 H 0.0941(5) 0.8541(3) 0.4658(2)
H9 H 0.3587(4) 0.6832(3) 0.6688(2)
H10 H 0.3864(4) 0.7893(3) 0.7328(2)
H11 H 0.3425(4) 0.7059(3) 0.3124(2)
H12 H 0.4331(4) 0.6349(3) 0.2144(2)
H13 H 0.2620(4) 0.3320(3) 0.2714(2)
H14 H 0.1626(4) 0.3997(3) 0.3624(2)
H15 H 0.7274(4) 0.9040(3) 0.4410(2)
H16 H 0.8153(4) 0.8142(3) 0.3556(2)
H17 H 0.6643(4) 0.5367(3) 0.4513(2)
H18 H 0.5710(4) 0.6260(3) 0.5342(2)
#END
