
#######################################################################
#
#                 Cambridge Crystallographic Data Centre
#                                CCDC
#
#######################################################################
#
# If this CIF has been generated from an entry in the Cambridge
# Structural Database, then it will include bibliographic, chemical,
# crystal, experimental, refinement or atomic coordinate data resulting
# from the CCDC's data processing and validation procedures.
#
#######################################################################

data_CSD_CIF_LENMUM
_audit_creation_date 1994-10-12
_audit_creation_method CSD-ConQuest-V1
_database_code_CSD LENMUM
_database_code_depnum_ccdc_fiz 'CSD 55203'
_chemical_formula_sum 'C19 H13 N3 O8'
_chemical_formula_moiety
;
C19 H13 N3 O8
;
_journal_coden_Cambridge 1078
_journal_year 1994
_journal_name_full 'CSD Communication(Private Communication) '
loop_
_publ_author_name
"P.Strohriegel"
"J.Gmuner"
"I.Muller"
"P.Gruner-Bauer"
"E.Dormann"
"V.Enkelmann"
_chemical_name_systematic
;
1-(2,4-Dinitrophenoxy)-6-(4-methyl-2-nitrophenoxy)hexa-2,4-diyne
;
_cell_volume    874.606
_exptl_crystal_density_diffrn 1.562
_diffrn_ambient_temperature 105
#These two values have been output from a single CSD field.
_refine_ls_R_factor_gt 0.052
_refine_ls_wR_factor_gt 0.052
_symmetry_cell_setting monoclinic
_symmetry_space_group_name_H-M 'P 21'
_symmetry_Int_Tables_number 4
loop_
_symmetry_equiv_pos_site_id
_symmetry_equiv_pos_as_xyz
1 x,y,z
2 -x,1/2+y,-z
_cell_length_a 14.601(7)
_cell_length_b 12.320(5)
_cell_length_c 4.897(6)
_cell_angle_alpha 90
_cell_angle_beta 96.85(6)
_cell_angle_gamma 90
_cell_formula_units_Z 2
loop_
_atom_type_symbol
_atom_type_radius_bond
C 0.68
H 0.23
N 0.68
O 0.68
loop_
_atom_site_label
_atom_site_type_symbol
_atom_site_fract_x
_atom_site_fract_y
_atom_site_fract_z
O1 O -0.1195(3) 0.44340 -0.215(1)
O2 O -0.1727(3) 0.4868(5) 0.158(1)
O3 O 0.4675(4) -0.3089(5) -0.216(1)
O4 O 0.4468(3) 0.0380(5) 0.717(1)
O5 O 0.65989(3) -0.0552(5) 0.326(1)
O6 O 0.6206(4) 0.0034(6) 0.711(1)
O7 O 0.3225(4) -0.3167(5) -0.171(1)
O8 O 0.0565(3) 0.4143(5) -0.159(1)
N1 N -0.1107(4) 0.4826(5) 0.013(1)
N2 N 0.6028(4) -0.0406(6) 0.490(1)
N3 N 0.4024(5) -0.2802(6) -0.103(1)
C1 C 0.0599(8) 0.7443(8) 0.655(2)
C2 C 0.0609(6) 0.6562(7) 0.452(2)
C3 C 0.1380(6) 0.6196(7) 0.351(2)
C4 C 0.1434(5) 0.5415(7) 0.154(2)
C5 C 0.0628(5) 0.4950(6) 0.032(2)
C6 C -0.0190(5) 0.5272(6) 0.130(2)
C7 C -0.0188(5) 0.6080(7) 0.329(2)
C8 C 0.1433(5) 0.3740(8) -0.235(2)
C9 C 0.1924(5) 0.3085(7) -0.010(2)
C10 C 0.2296(5) 0.2564(7) 0.177(2)
C11 C 0.2754(6) 0.2007(7) 0.394(2)
C12 C 0.3162(5) 0.1509(7) 0.586(2)
C13 C 0.3662(5) 0.0908(8) 0.810(2)
C14 C 0.4338(5) -0.0398(7) 0.527(2)
C15 C 0.3454(5) -0.0849(7) 0.432(2)
C16 C 0.3361(5) -0.1627(7) 0.234(2)
C17 C 0.4132(5) -0.1999(7) 0.116(2)
C18 C 0.5012(6) -0.1564(7) 0.201(2)
C19 C 0.5098(5) -0.0791(7) 0.403(2)
H1? H -0.035(7) 0.75(1) 1.07(3)
H2 H 0.137(8) 0.74(1) 0.81(3)
H3? H 0.065(8) 0.75(1) 0.67(3)
H4 H 0.184(6) 0.636(8) 0.39(2)
H5 H 0.208(6) 0.506(8) 0.09(2)
H6 H -0.068(6) 0.627(7) 0.38(2)
H7 H 0.190(6) 0.430(8) -0.33(2)
H8 H 0.106(6) 0.328(8) -0.33(2)
H9 H 0.391(5) 0.124(7) 0.96(2)
H10? H 0.353(5) 0.072(8) 0.79(2)
H11 H 0.320(5) -0.050(8) 0.53(2)
H12 H 0.270(5) -0.194(8) 0.14(2)
H13 H 0.567(6) -0.164(8) 0.17(2)
#END
