
#######################################################################
#
#                 Cambridge Crystallographic Data Centre
#                                CCDC
#
#######################################################################
#
# If this CIF has been generated from an entry in the Cambridge
# Structural Database, then it will include bibliographic, chemical,
# crystal, experimental, refinement or atomic coordinate data resulting
# from the CCDC's data processing and validation procedures.
#
#######################################################################

data_CSD_CIF_LENWUY
_audit_creation_date 2013-04-24
_audit_creation_method CSD-ConQuest-V1
_database_code_CSD LENWUY
_database_code_depnum_ccdc_archive 'CCDC 882720'
_chemical_formula_sum 'C29 H27 N1 O8'
_chemical_formula_moiety
;
C29 H27 N1 O8
;
_journal_coden_Cambridge 96
_journal_volume 60
_journal_year 2012
_journal_page_first 8435
_journal_name_full 'J.Agric.Food Chem. '
loop_
_publ_author_name
"Yi Wang"
"Yonghua Shao"
"Yangyang Wang"
"Lingling Fan"
"Xiang Yu"
"Xiaoyan Zhi"
"Chun Yang"
"Huan Qu"
"Xiaojun Yao"
"Hui Xu"
_chemical_name_systematic
;
Benzyl 
5-(3,4,5-trimethoxyphenyl)-3,3a,4,5-tetrahydro[1,3]dioxolo[6,7]naphtho[1,2-c][
1,2]oxazole-4-carboxylate
;
_cell_volume   2543.374
_exptl_crystal_colour 'colorless'
_exptl_crystal_density_diffrn 1.351
_exptl_crystal_description 'block'
_diffrn_ambient_temperature 296
#These two values have been output from a single CSD field.
_refine_ls_R_factor_gt 0.0493
_refine_ls_wR_factor_gt 0.0493
_symmetry_cell_setting orthorhombic
_symmetry_space_group_name_H-M 'P 21 21 21'
_symmetry_Int_Tables_number 19
loop_
_symmetry_equiv_pos_site_id
_symmetry_equiv_pos_as_xyz
1 x,y,z
2 1/2-x,-y,1/2+z
3 -x,1/2+y,1/2-z
4 1/2+x,1/2-y,-z
_cell_length_a 8.881(3)
_cell_length_b 11.815(4)
_cell_length_c 24.239(8)
_cell_angle_alpha 90
_cell_angle_beta 90
_cell_angle_gamma 90
_cell_formula_units_Z 4
loop_
_atom_type_symbol
_atom_type_radius_bond
C 0.68
H 0.23
N 0.68
O 0.68
loop_
_atom_site_label
_atom_site_type_symbol
_atom_site_fract_x
_atom_site_fract_y
_atom_site_fract_z
C1 C 0.8364(3) 0.2100(2) 0.05134(10)
H1 H 0.72810 0.22180 0.05630
C2 C 0.9020(3) 0.1600(2) 0.10246(10)
C3 C 0.9424(3) 0.2303(2) 0.14984(11)
C4 C 0.9787(3) 0.1796(2) 0.20044(11)
H2 H 0.97320 0.10160 0.20530
C5 C 1.0222(3) 0.2491(2) 0.24189(11)
C6 C 1.1142(5) 0.3226(2) 0.31941(13)
H3 H 1.22190 0.31980 0.32580
H4 H 1.06410 0.33370 0.35460
C7 C 1.0298(3) 0.3646(2) 0.23488(11)
C8 C 0.9932(3) 0.4165(2) 0.18674(11)
H5 H 0.99790 0.49480 0.18310
C9 C 0.9479(3) 0.3473(2) 0.14272(10)
C10 C 0.9046(3) 0.4050(2) 0.08878(10)
H6 H 0.98020 0.46390 0.08210
C11 C 0.9123(3) 0.3222(2) 0.03879(10)
H7 H 1.01870 0.30680 0.03130
C12 C 0.8628(4) 0.1118(2) 0.01196(12)
H8 H 0.77790 0.10230 -0.01280
H9 H 0.95310 0.12390 -0.00980
C13 C 0.7530(3) 0.4650(2) 0.09325(10)
C14 C 0.6311(3) 0.4124(2) 0.11752(11)
H10 H 0.64290 0.34140 0.13350
C15 C 0.4912(3) 0.4646(2) 0.11819(11)
C16 C 0.4740(4) 0.5726(2) 0.09555(12)
C17 C 0.5979(4) 0.6261(2) 0.07268(12)
C18 C 0.7358(3) 0.5728(2) 0.07148(12)
H11 H 0.81820 0.60950 0.05590
C19 C 0.3737(4) 0.3064(3) 0.16048(16)
H12 H 0.41400 0.25720 0.13270
H13 H 0.27530 0.28060 0.17100
H14 H 0.43870 0.30600 0.19210
C20 C 0.2851(5) 0.6750(3) 0.14171(17)
H15 H 0.28980 0.62190 0.17170
H16 H 0.18340 0.70090 0.13730
H17 H 0.34940 0.73830 0.14960
C21 C 0.6797(5) 0.7845(3) 0.01943(17)
H18 H 0.77070 0.79260 0.04040
H19 H 0.64460 0.85780 0.00820
H20 H 0.69910 0.73910 -0.01260
C22 C 0.8456(4) 0.3750(2) -0.01231(12)
C23 C 0.8471(4) 0.5378(2) -0.06968(11)
H21 H 0.87220 0.61680 -0.06380
H22 H 0.73870 0.53020 -0.06650
C24 C 0.8937(4) 0.5047(2) -0.12635(11)
C25 C 1.0423(4) 0.4854(3) -0.13958(14)
H23 H 1.11550 0.48990 -0.11220
C26 C 1.0836(4) 0.4597(3) -0.19281(16)
H24 H 1.18380 0.44410 -0.20100
C27 C 0.9776(5) 0.4570(3) -0.23367(15)
H25 H 1.00630 0.44280 -0.26990
C28 C 0.8286(5) 0.4752(3) -0.22118(14)
H26 H 0.75580 0.47160 -0.24870
C29 C 0.7882(4) 0.4987(3) -0.16784(13)
H27 H 0.68730 0.51080 -0.15950
N1 N 0.9243(3) 0.05347(18) 0.10063(9)
O1 O 1.0648(3) 0.22029(15) 0.29479(8)
O2 O 1.0789(3) 0.41351(15) 0.28292(8)
O3 O 0.8795(3) 0.01475(15) 0.04736(8)
O4 O 0.3634(2) 0.41819(17) 0.13929(9)
O5 O 0.3337(3) 0.62148(19) 0.09242(10)
O6 O 0.5690(3) 0.73164(17) 0.05213(10)
O7 O 0.7390(3) 0.33880(17) -0.03657(9)
O8 O 0.9188(2) 0.46957(15) -0.02666(7)
#END
