
#######################################################################
#
#                 Cambridge Crystallographic Data Centre
#                                CCDC
#
#######################################################################
#
# If this CIF has been generated from an entry in the Cambridge
# Structural Database, then it will include bibliographic, chemical,
# crystal, experimental, refinement or atomic coordinate data resulting
# from the CCDC's data processing and validation procedures.
#
#######################################################################

data_CSD_CIF_LEPMUR
_audit_creation_date 2017-12-19
_audit_creation_method CSD-ConQuest-V1
_database_code_CSD LEPMUR
_database_code_depnum_ccdc_archive 'CCDC 1558440'
_chemical_formula_sum 'C13 H12 N2 O5'
_chemical_formula_moiety
;
C13 H12 N2 O5
;
_journal_coden_Cambridge 1336
_journal_volume 20
_journal_year 2017
_journal_page_first 146
_journal_name_full 'Org.Lett. '
loop_
_publ_author_name
"Feng Li"
"Yirong Zhou"
"Heng Yang"
"Dandan Liu"
"Bing Sun"
"Fang-Lin Zhang"
_chemical_name_systematic
;
2-(1-ethyl-2,5-dioxopyrrolidin-3-yl)-6-nitrobenzaldehyde
;
_cell_volume    617.716
_exptl_crystal_colour 'colorless'
_exptl_crystal_density_diffrn 1.485
_exptl_crystal_description 'block'
_diffrn_ambient_temperature 173
#These two values have been output from a single CSD field.
_refine_ls_R_factor_gt 0.0515
_refine_ls_wR_factor_gt 0.0515
_symmetry_cell_setting triclinic
_symmetry_space_group_name_H-M 'P -1'
_symmetry_Int_Tables_number 2
loop_
_symmetry_equiv_pos_site_id
_symmetry_equiv_pos_as_xyz
1 x,y,z
2 -x,-y,-z
_cell_length_a 7.783(5)
_cell_length_b 8.864(5)
_cell_length_c 9.720(6)
_cell_angle_alpha 97.154(11)
_cell_angle_beta 101.604(11)
_cell_angle_gamma 106.554(11)
_cell_formula_units_Z 2
loop_
_atom_type_symbol
_atom_type_radius_bond
C 0.68
H 0.23
N 0.68
O 0.68
loop_
_atom_site_label
_atom_site_type_symbol
_atom_site_fract_x
_atom_site_fract_y
_atom_site_fract_z
O1 O 0.40103(19) 0.01016(16) 0.30090(15)
O2 O 0.77367(19) 0.73648(15) 0.78954(15)
O3 O 0.80250(18) 0.29948(18) 0.40675(14)
O4 O 0.13184(18) -0.03190(16) 0.34026(15)
N1 N 1.03396(19) 0.67467(16) 0.87507(14)
N2 N 0.2967(2) 0.04090(16) 0.36981(15)
O5 O 1.2575(2) 0.55580(19) 0.91393(16)
C1 C 0.5503(2) 0.27701(18) 0.51224(17)
C2 C 0.6309(2) 0.38625(18) 0.64160(17)
C3 C 0.3764(2) 0.16732(18) 0.49723(17)
C4 C 0.8251(2) 0.50098(18) 0.67033(17)
H1 H 0.84410 0.53510 0.57880
C5 C 0.5335(3) 0.3828(2) 0.74547(18)
H2 H 0.58720 0.45810 0.83310
C6 C 0.6420(2) 0.28460(19) 0.39198(18)
H3 H 0.56950 0.27730 0.29880
C7 C 0.3609(3) 0.2735(2) 0.7260(2)
H4 H 0.29710 0.27440 0.79960
C8 C 0.9754(2) 0.4298(2) 0.72672(19)
H5 H 0.92240 0.33000 0.76060
H6 H 1.03690 0.40510 0.65100
C9 C 1.1094(2) 0.5555(2) 0.84790(18)
C10 C 0.2803(2) 0.1627(2) 0.6001(2)
H7 H 0.16170 0.08570 0.58550
C11 C 0.8661(2) 0.65002(19) 0.78240(18)
C12 C 1.1289(3) 0.8186(2) 0.98383(19)
H8 H 1.21900 0.79560 1.05910
H9 H 1.03780 0.85000 1.02890
C13 C 1.2288(3) 0.9555(2) 0.9228(2)
H10 H 1.14020 0.97820 0.84790
H11 H 1.32300 0.92660 0.88180
H12 H 1.28850 1.05090 0.99890
#END
