
#######################################################################
#
#                 Cambridge Crystallographic Data Centre
#                                CCDC
#
#######################################################################
#
# If this CIF has been generated from an entry in the Cambridge
# Structural Database, then it will include bibliographic, chemical,
# crystal, experimental, refinement or atomic coordinate data resulting
# from the CCDC's data processing and validation procedures.
#
#######################################################################

data_CSD_CIF_LEPSIJ
_audit_creation_date 2006-11-23
_audit_creation_method CSD-ConQuest-V1
_database_code_CSD LEPSIJ
_database_code_depnum_ccdc_archive 'CCDC 623968'
_chemical_formula_sum 'C26 H24 N4 O5'
_chemical_formula_moiety
;
C26 H24 N4 O5
;
_journal_coeditor_code "IUCr AT2106"
_journal_coden_Cambridge 1370
_journal_volume 62
_journal_year 2006
_journal_page_first o4422
_journal_name_full 'Acta Crystallogr.,Sect.E:Struct.Rep.Online '
loop_
_publ_author_name
"Chun-Hua Diao"
"Xin Chen"
_chemical_name_systematic
;
(E)-1,5-Dimethyl-4-(2-(2-(2-nitrophenoxy)ethoxy)benzylideneamino)-2-phenyl-1H-
pyrazol-3(2H)-one
;
_cell_volume   2380.546
_exptl_crystal_colour 'yellow'
_exptl_crystal_density_diffrn 1.318
_exptl_crystal_description 'block'
_exptl_crystal_preparation 'acetonitrile'
_diffrn_ambient_temperature 294
#These two values have been output from a single CSD field.
_refine_ls_R_factor_gt 0.0573
_refine_ls_wR_factor_gt 0.0573
_symmetry_cell_setting monoclinic
_symmetry_space_group_name_H-M 'P 21/c'
_symmetry_Int_Tables_number 14
loop_
_symmetry_equiv_pos_site_id
_symmetry_equiv_pos_as_xyz
1 x,y,z
2 -x,1/2+y,1/2-z
3 -x,-y,-z
4 x,-1/2-y,-1/2+z
_cell_length_a 13.255(4)
_cell_length_b 18.369(5)
_cell_length_c 10.040(3)
_cell_angle_alpha 90
_cell_angle_beta 103.140(5)
_cell_angle_gamma 90
_cell_formula_units_Z 4
loop_
_atom_type_symbol
_atom_type_radius_bond
C 0.68
H 0.23
N 0.68
O 0.68
loop_
_atom_site_label
_atom_site_type_symbol
_atom_site_fract_x
_atom_site_fract_y
_atom_site_fract_z
O1 O 0.3954(2) 0.18062(14) 1.0379(3)
O2 O 0.3156(2) 0.19113(14) 0.8264(3)
O3 O 0.41896(18) 0.09153(12) 0.7040(2)
O4 O 0.54619(15) 0.12133(10) 0.51040(19)
O5 O 0.75766(16) -0.03508(11) 0.7282(2)
N1 N 0.3581(2) 0.15495(17) 0.9246(4)
N2 N 0.8552(2) 0.09536(13) 0.5989(2)
N3 N 1.02532(18) -0.04255(15) 0.7749(2)
N4 N 0.92898(19) -0.07322(14) 0.7819(2)
C1 C 0.3643(2) 0.07581(18) 0.9094(3)
C2 C 0.3423(3) 0.0340(2) 1.0123(4)
H1 H 0.32560 0.05580 1.08810
C3 C 0.3452(3) -0.0404(2) 1.0019(4)
H2 H 0.32960 -0.06960 1.07020
C4 C 0.3713(3) -0.0716(2) 0.8900(5)
H3 H 0.37380 -0.12210 0.88330
C5 C 0.3937(3) -0.0292(2) 0.7878(4)
H4 H 0.41110 -0.05120 0.71260
C6 C 0.3906(2) 0.04590(19) 0.7959(3)
C7 C 0.3986(3) 0.06975(18) 0.5655(3)
H5 H 0.32480 0.06240 0.53130
H6 H 0.43370 0.02420 0.55730
C8 C 0.4362(2) 0.12742(18) 0.4843(3)
H7 H 0.40600 0.12080 0.38750
H8 H 0.41660 0.17510 0.51130
C9 C 0.6004(2) 0.17281(16) 0.4563(3)
C10 C 0.5538(3) 0.22674(18) 0.3679(3)
H9 H 0.48200 0.22940 0.34090
C11 C 0.6148(3) 0.27705(18) 0.3196(3)
H10 H 0.58370 0.31380 0.26070
C12 C 0.7209(3) 0.27294(19) 0.3580(4)
H11 H 0.76140 0.30730 0.32630
C13 C 0.7668(3) 0.21848(17) 0.4425(3)
H12 H 0.83870 0.21590 0.46750
C14 C 0.7081(2) 0.16638(16) 0.4924(3)
C15 C 0.7570(2) 0.10536(16) 0.5752(3)
H13 H 0.71630 0.07310 0.61160
C16 C 0.8991(2) 0.03392(16) 0.6707(3)
C17 C 1.0022(2) 0.02004(18) 0.6993(3)
C18 C 0.8493(2) -0.02573(16) 0.7257(3)
C19 C 1.0869(2) 0.06350(18) 0.6607(3)
H14 H 1.11680 0.03590 0.59810
H15 H 1.13930 0.07430 0.74130
H16 H 1.05880 0.10810 0.61780
C20 C 1.1003(3) -0.09503(19) 0.7445(4)
H17 H 1.07350 -0.11620 0.65620
H18 H 1.11210 -0.13260 0.81270
H19 H 1.16440 -0.07060 0.74480
C21 C 0.9250(3) -0.12698(17) 0.8830(3)
C22 C 0.8468(3) -0.17782(18) 0.8560(3)
H20 H 0.79680 -0.17620 0.77430
C23 C 0.8436(3) -0.23127(19) 0.9518(4)
H21 H 0.79070 -0.26560 0.93500
C24 C 0.9182(4) -0.2339(2) 1.0717(4)
H22 H 0.91690 -0.27070 1.13490
C25 C 0.9946(3) -0.1821(2) 1.0980(4)
H23 H 1.04430 -0.18360 1.17990
C26 C 0.9987(3) -0.12811(18) 1.0049(3)
H24 H 1.05030 -0.09280 1.02360
#END
