
#######################################################################
#
#                 Cambridge Crystallographic Data Centre
#                                CCDC
#
#######################################################################
#
# If this CIF has been generated from an entry in the Cambridge
# Structural Database, then it will include bibliographic, chemical,
# crystal, experimental, refinement or atomic coordinate data resulting
# from the CCDC's data processing and validation procedures.
#
#######################################################################

data_CSD_CIF_LEPTEF
_audit_creation_date 1994-10-12
_audit_creation_method CSD-ConQuest-V1
_database_code_CSD LEPTEF
_database_code_depnum_ccdc_archive 'CCDC 1205644'
_chemical_formula_sum 'C9 H7 N3 O3'
_chemical_formula_moiety
;
C9 H7 N3 O3
;
_journal_coden_Cambridge 3
_journal_volume 48
_journal_year 1994
_journal_page_first 347
_journal_name_full 'Acta Chem.Scand. '
loop_
_publ_author_name
"L.Eberson"
"J.L.Calvert"
"M.P.Hartshorn"
"W.T.Robinson"
_chemical_name_systematic
;
5-Methyl-3-(4-nitrophenyl)-1,2,4-oxadiazole
;
_chemical_melting_point 415.15
_cell_volume    463.719
_exptl_crystal_density_diffrn 1.469
_exptl_special_details
;
Melting point range 415.15-417.15K

;
_diffrn_ambient_temperature 183
#These two values have been output from a single CSD field.
_refine_ls_R_factor_gt 0.0369
_refine_ls_wR_factor_gt 0.0369
_symmetry_cell_setting triclinic
_symmetry_space_group_name_H-M 'P -1'
_symmetry_Int_Tables_number 2
loop_
_symmetry_equiv_pos_site_id
_symmetry_equiv_pos_as_xyz
1 x,y,z
2 -x,-y,-z
_cell_length_a 7.088(3)
_cell_length_b 7.336(2)
_cell_length_c 10.107(3)
_cell_angle_alpha 76.47(1)
_cell_angle_beta 72.38(3)
_cell_angle_gamma 69.28(2)
_cell_formula_units_Z 2
loop_
_atom_type_symbol
_atom_type_radius_bond
C 0.68
H 0.23
N 0.68
O 0.68
loop_
_atom_site_label
_atom_site_type_symbol
_atom_site_fract_x
_atom_site_fract_y
_atom_site_fract_z
O1 O -0.0600(2) 1.1978(2) 0.8966(1)
O2 O 0.0475(2) 1.4326(2) 0.7571(1)
N1 N 0.3710(2) 0.6144(2) 0.3579(1)
N2 N 0.4843(2) 0.8583(2) 0.2102(1)
N3 N 0.0312(2) 1.2658(2) 0.7825(1)
C1 C 0.3824(2) 0.7925(2) 0.3426(1)
O3 O 0.4751(2) 0.5570(2) 0.2235(1)
C2 C 0.1235(2) 1.1417(2) 0.6694(1)
C3 C 0.1952(2) 1.2285(2) 0.5350(2)
C4 C 0.2796(2) 1.1124(2) 0.4286(1)
C5 C 0.2921(2) 0.9132(2) 0.4577(1)
C6 C 0.2195(2) 0.8299(2) 0.5952(2)
C7 C 0.1344(2) 0.9441(2) 0.7023(2)
C8 C 0.5365(2) 0.7097(2) 0.1436(2)
C9 C 0.6529(3) 0.6879(3) -0.0034(2)
H1 H 0.1867(2) 1.3638(2) 0.5163(2)
H2 H 0.3292(2) 1.1685(2) 0.3352(1)
H3 H 0.2288(2) 0.6943(2) 0.6149(2)
H4 H 0.0847(2) 0.8889(2) 0.7959(2)
H5 H 0.7416(3) 0.5513(3) -0.0086(2)
H6 H 0.7395(3) 0.7759(3) -0.0366(2)
H7 H 0.5548(3) 0.7219(3) -0.0624(2)
H8? H 0.6182(3) 0.8120(3) -0.0610(2)
H9? H 0.6219(3) 0.5873(3) -0.0410(2)
H10? H 0.8137(3) 0.6390(3) -0.0007(2)
#END
