
#######################################################################
#
#                 Cambridge Crystallographic Data Centre
#                                CCDC
#
#######################################################################
#
# If this CIF has been generated from an entry in the Cambridge
# Structural Database, then it will include bibliographic, chemical,
# crystal, experimental, refinement or atomic coordinate data resulting
# from the CCDC's data processing and validation procedures.
#
#######################################################################

data_CSD_CIF_LEQMOK
_audit_creation_date 2007-03-05
_audit_creation_method CSD-ConQuest-V1
_database_code_CSD LEQMOK
_database_code_depnum_ccdc_archive 'CCDC 628356'
_chemical_formula_sum 'C22 H15 N3 O5'
_chemical_formula_moiety
;
C22 H15 N3 O5
;
_journal_coden_Cambridge 1336
_journal_volume 8
_journal_year 2006
_journal_page_first 4927
_journal_name_full 'Org.Lett. '
loop_
_publ_author_name
"A.Pinto"
"L.Neuville"
"P.Retailleau"
"Jieping Zhu"
_chemical_name_systematic
;
(3Z)-1-Methyl-5-nitro-3-((2-nitrophenyl)(phenyl)methylene)-1,3-dihydro-2H-indo
l-2-one
;
_cell_volume   1938.576
_exptl_crystal_colour 'yellow'
_exptl_crystal_density_diffrn 1.375
_exptl_crystal_description 'prism'
_diffrn_ambient_temperature 293
_refine_special_details
;
An oxygen atom of a nitro group is equally disordered over two sites.

;
#These two values have been output from a single CSD field.
_refine_ls_R_factor_gt 0.0511
_refine_ls_wR_factor_gt 0.0511
_symmetry_cell_setting monoclinic
_symmetry_space_group_name_H-M 'P 21/c'
_symmetry_Int_Tables_number 14
loop_
_symmetry_equiv_pos_site_id
_symmetry_equiv_pos_as_xyz
1 x,y,z
2 -x,1/2+y,1/2-z
3 -x,-y,-z
4 x,-1/2-y,-1/2+z
_cell_length_a 13.7213(9)
_cell_length_b 7.7011(6)
_cell_length_c 19.5546(13)
_cell_angle_alpha 90
_cell_angle_beta 110.252(4)
_cell_angle_gamma 90
_cell_formula_units_Z 4
loop_
_atom_type_symbol
_atom_type_radius_bond
C 0.68
H 0.23
N 0.68
O 0.68
loop_
_atom_site_label
_atom_site_type_symbol
_atom_site_fract_x
_atom_site_fract_y
_atom_site_fract_z
O1 O 0.24978(14) 0.4749(3) 0.17429(10)
N1 N 0.07995(15) 0.3923(3) 0.11859(11)
C1 C 0.19175(17) 0.3186(3) 0.05806(12)
C2 C 0.08542(17) 0.2682(3) 0.01361(12)
C3 C 0.04232(17) 0.1829(3) -0.05242(13)
H1 H 0.08320 0.14860 -0.07930
C4 C 0.28209(17) 0.2913(3) 0.04743(12)
C5 C 0.24258(19) 0.3059(4) -0.08764(13)
H2 H 0.21010 0.41220 -0.08850
O2 O -0.19892(15) 0.0147(3) -0.16657(12)
N2 N -0.10768(18) 0.0604(3) -0.14743(13)
C6 C 0.28727(17) 0.2188(3) -0.02197(12)
C7 C -0.06312(19) 0.1503(3) -0.07720(14)
C8 C -0.08451(19) 0.2772(3) 0.02792(15)
H3 H -0.12600 0.30780 0.05490
C9 C 0.18325(19) 0.4029(3) 0.12460(13)
O3 O -0.05296(18) 0.0319(4) -0.18350(12)
C10 C 0.02131(18) 0.3125(3) 0.05364(13)
C11 C 0.38550(17) 0.3142(3) 0.10662(12)
C12 C -0.12643(19) 0.1958(3) -0.03859(16)
H4 H -0.19720 0.17170 -0.05740
C13 C 0.0410(2) 0.4497(4) 0.17526(15)
H5 H -0.01430 0.53160 0.15510
H6 H 0.09620 0.50390 0.21390
H7 H 0.01550 0.35150 0.19420
C14 C 0.5204(2) 0.1869(5) 0.20899(15)
H8 H 0.54200 0.09850 0.24340
C15 C 0.45439(19) 0.4459(4) 0.10870(15)
C16 C 0.3373(2) 0.0629(4) -0.02183(14)
H9 H 0.36960 0.00490 0.02190
C17 C 0.4205(2) 0.1847(4) 0.15860(14)
H10 H 0.37600 0.09450 0.15960
C18 C 0.2462(2) 0.2353(4) -0.15166(14)
H11 H 0.21590 0.29400 -0.19550
C19 C 0.5545(2) 0.4482(4) 0.15865(19)
H12 H 0.59950 0.53830 0.15830
C20 C 0.5870(2) 0.3164(5) 0.20874(17)
H13 H 0.65440 0.31610 0.24230
C21 C 0.2944(2) 0.0788(5) -0.15070(16)
H14 H 0.29650 0.03090 -0.19380
C22 C 0.3396(3) -0.0067(5) -0.08585(17)
H15 H 0.37200 -0.11300 -0.08530
N3 N 0.4220(2) 0.5905(4) 0.0565(2)
O4 O 0.33435(18) 0.6117(3) 0.02080(14)
O5 O 0.4879(4) 0.6603(9) 0.0322(3)
O6? O 0.4661(10) 0.7315(12) 0.0919(7)
#END
