
#######################################################################
#
#                 Cambridge Crystallographic Data Centre
#                                CCDC
#
#######################################################################
#
# If this CIF has been generated from an entry in the Cambridge
# Structural Database, then it will include bibliographic, chemical,
# crystal, experimental, refinement or atomic coordinate data resulting
# from the CCDC's data processing and validation procedures.
#
#######################################################################

data_CSD_CIF_LEQPIJ
_audit_creation_date 2017-12-19
_audit_creation_method CSD-ConQuest-V1
_database_code_CSD LEQPIJ
_database_code_depnum_ccdc_archive 'CCDC 1524074'
_chemical_formula_sum 'C8 H8 N14 O16'
_chemical_formula_moiety
;
C8 H8 N14 O16
;
_journal_coden_Cambridge 95
_journal_volume 66
_journal_year 2017
_journal_page_first 1066
_journal_name_full 'Izv.Akad.Nauk SSSR,Ser.Khim.(Russ.)(Russ.Chem.Bull.) '
loop_
_publ_author_name
"O.A.Lukyanov"
"N.I.Shlykova"
"G.V.Pokhvisneva"
"T.V.Ternikova"
"S.V.Nikitin"
"G.A.Smirnov"
"Yu.V.Nelubina"
"P.V.Dorovatovskii"
"T.S.Konkova"
"N.V.Muravyov"
"A.N.Pivkina"
_chemical_name_systematic
;
2,4,6,8,12-pentanitro-10-(2,2,2-trinitroethyl)-2,4,6,8,10,12-hexaazatetracyclo
[5.5.0.0^3,11^.0^5,9^]dodecane
;
_cell_volume   1938.515
_exptl_crystal_colour 'colorless'
_exptl_crystal_density_diffrn 1.906
_exptl_crystal_description 'prism'
_diffrn_ambient_temperature 298
_diffrn_radiation_probe x-ray
_diffrn_source synchrotron
#These two values have been output from a single CSD field.
_refine_ls_R_factor_gt 0.0619
_refine_ls_wR_factor_gt 0.0619
_symmetry_cell_setting monoclinic
_symmetry_space_group_name_H-M 'P 21/n'
_symmetry_Int_Tables_number 14
loop_
_symmetry_equiv_pos_site_id
_symmetry_equiv_pos_as_xyz
1 x,y,z
2 1/2-x,1/2+y,1/2-z
3 -x,-y,-z
4 -1/2+x,-1/2-y,-1/2+z
_cell_length_a 8.2000(16)
_cell_length_b 16.787(3)
_cell_length_c 14.090(3)
_cell_angle_alpha 90
_cell_angle_beta 91.86(3)
_cell_angle_gamma 90
_cell_formula_units_Z 4
loop_
_atom_type_symbol
_atom_type_radius_bond
C 0.68
H 0.23
N 0.68
O 0.68
loop_
_atom_site_label
_atom_site_type_symbol
_atom_site_fract_x
_atom_site_fract_y
_atom_site_fract_z
C1 C 0.1545(3) 0.82972(15) 0.31097(18)
H1 H 0.04620 0.84260 0.28370
C2 C 0.1569(3) 0.83333(15) 0.42353(17)
H2 H 0.05000 0.84790 0.44750
C3 C 0.4402(3) 0.84080(14) 0.28038(18)
H3 H 0.50740 0.85130 0.22550
C4 C 0.4391(3) 0.84622(15) 0.45555(17)
H4 H 0.50650 0.86030 0.51180
C5 C 0.3912(3) 0.75059(14) 0.28533(17)
H5 H 0.43320 0.72160 0.23090
C6 C 0.3939(3) 0.75538(14) 0.45692(17)
H6 H 0.44010 0.73050 0.51470
C7 C 0.4621(3) 0.62913(14) 0.37750(18)
H7 H 0.40870 0.60780 0.32060
H8 H 0.40270 0.61060 0.43170
C8 C 0.6384(3) 0.59769(15) 0.38515(19)
N1 N 0.2813(2) 0.87864(12) 0.26913(14)
N2 N 0.2844(2) 0.88961(12) 0.45488(14)
N3 N 0.5226(2) 0.86736(12) 0.36886(14)
N4 N 0.2081(2) 0.75101(12) 0.28119(14)
N5 N 0.2123(2) 0.75604(12) 0.45988(15)
N6 N 0.4563(2) 0.71651(12) 0.37418(13)
N7 N 0.2667(3) 0.96104(14) 0.26577(16)
N8 N 0.2529(3) 0.93456(14) 0.53967(16)
N9 N 0.1340(3) 0.72007(15) 0.19703(15)
N10 N 0.1402(3) 0.72392(15) 0.53997(15)
N11 N 0.6924(2) 0.85754(13) 0.37370(17)
N12 N 0.6461(3) 0.51035(16) 0.3592(2)
N13 N 0.7529(3) 0.64220(16) 0.3201(2)
N14 N 0.7179(3) 0.60384(18) 0.48598(19)
O1 O 0.1330(3) 0.98807(13) 0.28748(17)
O2 O 0.3841(3) 0.99838(13) 0.23905(17)
O3 O 0.1117(3) 0.94634(15) 0.55639(16)
O4 O 0.3725(3) 0.95991(14) 0.58298(16)
O5 O -0.0005(3) 0.74721(13) 0.17331(14)
O6 O 0.2050(3) 0.66597(13) 0.15846(15)
O7 O 0.0110(3) 0.75282(14) 0.56347(16)
O8 O 0.2091(3) 0.66673(13) 0.57682(16)
O9 O 0.7590(2) 0.84258(15) 0.29993(17)
O10 O 0.7605(2) 0.86652(15) 0.45079(15)
O11 O 0.5430(3) 0.46849(13) 0.39639(17)
O12 O 0.7482(4) 0.49109(17) 0.3020(2)
O13 O 0.6949(3) 0.65232(14) 0.23872(16)
O14 O 0.8850(3) 0.66312(17) 0.3548(2)
O15 O 0.6895(3) 0.66362(15) 0.52865(17)
O16 O 0.8025(4) 0.54741(19) 0.5119(2)
#END
