
#######################################################################
#
#                 Cambridge Crystallographic Data Centre
#                                CCDC
#
#######################################################################
#
# If this CIF has been generated from an entry in the Cambridge
# Structural Database, then it will include bibliographic, chemical,
# crystal, experimental, refinement or atomic coordinate data resulting
# from the CCDC's data processing and validation procedures.
#
#######################################################################

data_CSD_CIF_LERWOX
_audit_creation_date 2017-12-20
_audit_creation_method CSD-ConQuest-V1
_database_code_CSD LERWOX
_database_code_depnum_ccdc_archive 'CCDC 1405693'
_chemical_formula_sum 'C16 H18 N4 O8'
_chemical_formula_moiety
;
C16 H18 N4 O8
;
_journal_coden_Cambridge 388
_journal_volume 86
_journal_year 2017
_journal_page_first 1017
_journal_name_full 'Zh.Org.Khim.(Russ.)(Russ.J.Org.Chem.) '
loop_
_publ_author_name
"P.P.Mukovoz"
"A.V.Gorbunova"
"P.A.Slepukhin"
"O.S.Eltsov"
"I.N.Ganebnykh"
_chemical_name_systematic
;
methyl 
(1-((2,4-dinitrophenyl)amino)-2-hydroxy-3-oxo-5-propyl-2,3-dihydro-1H-pyrrol-2
-yl)acetate
;
_cell_volume   1789.152
_exptl_crystal_colour 'yellow'
_exptl_crystal_density_diffrn 1.464
_exptl_crystal_description 'plate'
_diffrn_ambient_temperature 150
#These two values have been output from a single CSD field.
_refine_ls_R_factor_gt 0.0501
_refine_ls_wR_factor_gt 0.0501
_symmetry_cell_setting monoclinic
_symmetry_space_group_name_H-M 'P 21/c'
_symmetry_Int_Tables_number 14
loop_
_symmetry_equiv_pos_site_id
_symmetry_equiv_pos_as_xyz
1 x,y,z
2 -x,1/2+y,1/2-z
3 -x,-y,-z
4 x,-1/2-y,-1/2+z
_cell_length_a 16.0573(8)
_cell_length_b 6.3719(4)
_cell_length_c 18.1177(8)
_cell_angle_alpha 90
_cell_angle_beta 105.167(5)
_cell_angle_gamma 90
_cell_formula_units_Z 4
loop_
_atom_type_symbol
_atom_type_radius_bond
C 0.68
H 0.23
N 0.68
O 0.68
loop_
_atom_site_label
_atom_site_type_symbol
_atom_site_fract_x
_atom_site_fract_y
_atom_site_fract_z
O1 O 0.43992(8) 0.6778(2) 0.37456(7)
O2 O 0.25630(8) 0.7594(2) 0.35623(8)
O3 O 0.37926(8) 0.2736(2) 0.23803(7)
N1 N 0.17881(8) 0.3237(2) 0.37342(8)
N2 N 0.25830(8) 0.4200(2) 0.40159(7)
O4 O 0.27785(8) 0.1135(2) 0.28207(7)
C1 C 0.10641(10) 0.4116(3) 0.38542(9)
O5 O 0.07358(8) 0.0384(2) 0.30124(7)
C2 C 0.32602(10) 0.3048(3) 0.44731(9)
C3 C 0.11154(12) 0.5994(3) 0.42749(10)
C4 C 0.03889(12) 0.6954(3) 0.43790(11)
N3 N 0.01098(9) 0.1252(3) 0.31574(8)
O6 O -0.06158(8) 0.0485(3) 0.29684(8)
C5 C -0.04124(11) 0.6045(3) 0.40695(10)
C6 C 0.29218(10) 0.5609(3) 0.35288(9)
C7 C 0.38999(11) 0.5523(3) 0.39140(9)
C8 C 0.27435(11) 0.4861(3) 0.26962(9)
H1 H 0.21260 0.48600 0.24670
H2 H 0.30040 0.58380 0.24110
C9 C 0.30912(11) 0.2712(3) 0.26362(9)
C10 C 0.40386(11) 0.3827(3) 0.44407(10)
N4 N -0.11857(11) 0.7103(4) 0.41647(10)
C11 C 0.30750(11) 0.1270(3) 0.49343(9)
H3 H 0.26630 0.03420 0.46020
H4 H 0.28080 0.18140 0.53170
C12 C 0.02367(10) 0.3217(3) 0.35733(9)
C13 C -0.04995(11) 0.4206(4) 0.36766(10)
C14 C 0.38630(12) 0.0006(3) 0.53316(11)
H5 H 0.42700 0.09130 0.56790
H6 H 0.41410 -0.05200 0.49530
O7 O -0.10961(11) 0.8773(3) 0.45121(11)
O8 O -0.18862(10) 0.6260(3) 0.39000(8)
C15 C 0.36346(14) -0.1823(3) 0.57759(12)
H7 H 0.32330 -0.27250 0.54340
H8 H 0.33780 -0.13050 0.61630
H9 H 0.41480 -0.25980 0.60120
C16 C 0.41841(17) 0.0703(4) 0.23381(17)
H10 H 0.37730 -0.02020 0.20060
H11 H 0.43580 0.00950 0.28400
H12 H 0.46790 0.08700 0.21400
H13 H 0.4568(13) 0.341(3) 0.4765(11)
H14 H 0.1744(12) 0.218(3) 0.3441(11)
H15 H 0.2759(16) 0.848(4) 0.3307(14)
H16 H 0.1646(12) 0.665(3) 0.4461(10)
H17 H 0.0447(12) 0.829(3) 0.4666(11)
H18 H -0.1038(14) 0.358(3) 0.3477(11)
#END
