
#######################################################################
#
#                 Cambridge Crystallographic Data Centre
#                                CCDC
#
#######################################################################
#
# If this CIF has been generated from an entry in the Cambridge
# Structural Database, then it will include bibliographic, chemical,
# crystal, experimental, refinement or atomic coordinate data resulting
# from the CCDC's data processing and validation procedures.
#
#######################################################################

data_CSD_CIF_LERZEP
_audit_creation_date 2013-04-03
_audit_creation_method CSD-ConQuest-V1
_database_code_CSD LERZEP
_database_code_depnum_ccdc_archive 'CCDC 854699'
_chemical_formula_sum 'C23 H24 N2 O7'
_chemical_formula_moiety
;
C23 H24 N2 O7
;
_journal_coeditor_code "IUCr im2418"
_journal_coden_Cambridge 1370
_journal_volume 69
_journal_year 2013
_journal_page_first o281
_journal_name_full 'Acta Crystallogr.,Sect.E:Struct.Rep.Online '
loop_
_publ_author_name
"N.Sureshbabu"
"V.Sughanya"
_chemical_name_systematic
;
9-(2,4-Dinitrophenyl)-3,3,6,6-tetramethyl-3,4,5,6,7,9-hexahydro-1H-xanthene-1,
8(2H)-dione
;
_chemical_melting_point 446
_cell_volume   2130.045
_exptl_crystal_colour 'yellow'
_exptl_crystal_density_diffrn 1.373
_exptl_crystal_description 'block'
_exptl_crystal_preparation 'ethanol'
_diffrn_ambient_temperature 296
#These two values have been output from a single CSD field.
_refine_ls_R_factor_gt 0.0518
_refine_ls_wR_factor_gt 0.0518
_symmetry_cell_setting monoclinic
_symmetry_space_group_name_H-M 'P 21/c'
_symmetry_Int_Tables_number 14
loop_
_symmetry_equiv_pos_site_id
_symmetry_equiv_pos_as_xyz
1 x,y,z
2 -x,1/2+y,1/2-z
3 -x,-y,-z
4 x,-1/2-y,-1/2+z
_cell_length_a 9.7733(3)
_cell_length_b 19.6193(5)
_cell_length_c 11.7922(3)
_cell_angle_alpha 90
_cell_angle_beta 109.603(1)
_cell_angle_gamma 90
_cell_formula_units_Z 4
loop_
_atom_type_symbol
_atom_type_radius_bond
C 0.68
H 0.23
N 0.68
O 0.68
loop_
_atom_site_label
_atom_site_type_symbol
_atom_site_fract_x
_atom_site_fract_y
_atom_site_fract_z
C1 C 0.51973(13) 0.15131(7) 0.58305(11)
C2 C 0.41933(15) 0.19984(8) 0.61245(13)
H1 H 0.47600 0.23530 0.66480
H2 H 0.36590 0.17580 0.65610
C3 C 0.31152(14) 0.23285(8) 0.50052(13)
C4 C 0.24534(14) 0.17645(8) 0.40933(14)
H3 H 0.18270 0.14880 0.43930
H4 H 0.18510 0.19730 0.33470
C5 C 0.35407(13) 0.13059(7) 0.38268(12)
C6 C 0.49306(12) 0.11891(7) 0.47847(11)
C7 C 0.59949(13) 0.06997(6) 0.45403(10)
H5 H 0.55040 0.02650 0.42600
C8 C 0.72373(13) 0.05827(6) 0.56996(11)
C9 C 0.83150(13) 0.00583(7) 0.57141(11)
C10 C 0.95370(15) -0.00702(7) 0.68746(12)
H6 H 1.03780 -0.02270 0.66870
H7 H 0.92510 -0.04330 0.73080
C11 C 0.99723(14) 0.05519(7) 0.76956(12)
C12 C 0.85972(15) 0.08387(8) 0.78692(11)
H8 H 0.82790 0.05300 0.83740
H9 H 0.88220 0.12740 0.82810
C13 C 0.73989(13) 0.09328(7) 0.67058(11)
C14 C 0.38929(18) 0.28478(9) 0.44734(16)
H10 H 0.43080 0.31980 0.50560
H11 H 0.32100 0.30480 0.37660
H12 H 0.46490 0.26240 0.42640
C15 C 0.19240(17) 0.26822(10) 0.53505(17)
H13 H 0.23440 0.30360 0.59250
H14 H 0.14490 0.23560 0.56990
H15 H 0.12280 0.28780 0.46450
C16 C 1.10517(18) 0.03431(10) 0.89168(14)
H16 H 1.06140 0.00070 0.92790
H17 H 1.13130 0.07360 0.94310
H18 H 1.19060 0.01550 0.88080
C17 C 1.06762(17) 0.10848(9) 0.71315(15)
H19 H 1.00030 0.12200 0.63650
H20 H 1.15300 0.08960 0.70230
H21 H 1.09400 0.14750 0.76510
C18 C 0.65475(12) 0.09886(6) 0.35707(10)
C19 C 0.61732(13) 0.07634(7) 0.23872(11)
C20 C 0.66867(14) 0.10639(7) 0.15506(11)
H22 H 0.64140 0.09040 0.07640
C21 C 0.76167(14) 0.16090(7) 0.19241(12)
C22 C 0.80053(16) 0.18654(8) 0.30670(13)
H23 H 0.86180 0.22410 0.32940
C23 C 0.74630(15) 0.15511(7) 0.38759(12)
H24 H 0.77210 0.17230 0.46550
N1 N 0.51735(13) 0.01863(7) 0.19194(10)
N2 N 0.81838(16) 0.19342(8) 0.10531(13)
O1 O 0.64491(10) 0.14292(5) 0.67914(8)
O2 O 0.32732(11) 0.10217(6) 0.28536(9)
O3 O 0.81924(12) -0.02696(6) 0.48107(9)
O4 O 0.52780(15) -0.03162(6) 0.25373(11)
O5 O 0.42986(15) 0.02476(8) 0.09097(11)
O6 O 0.7810(2) 0.17153(9) 0.00386(14)
O7 O 0.89653(17) 0.24275(8) 0.13837(14)
#END
