
#######################################################################
#
#                 Cambridge Crystallographic Data Centre
#                                CCDC
#
#######################################################################
#
# If this CIF has been generated from an entry in the Cambridge
# Structural Database, then it will include bibliographic, chemical,
# crystal, experimental, refinement or atomic coordinate data resulting
# from the CCDC's data processing and validation procedures.
#
#######################################################################

data_CSD_CIF_LESFOF
_audit_creation_date 2007-03-05
_audit_creation_method CSD-ConQuest-V1
_database_code_CSD LESFOF
_database_code_depnum_ccdc_archive 'CCDC 617682'
_chemical_formula_sum 'C8 H7 N3 O5'
_chemical_formula_moiety
;
C8 H7 N3 O5
;
_journal_coden_Cambridge 1078
_journal_year 2006
_journal_name_full 'CSD Communication(Private Communication) '
loop_
_publ_author_name
"A.S.Batsanov"
"G.Sanford"
"J.Trmcic"
_chemical_name_systematic
;
2,4-Dinitroacetanilide
;
_cell_volume    934.177
_exptl_crystal_colour 'colorless'
_exptl_crystal_density_diffrn 1.601
_exptl_special_details
;
block polymorph
contribution from Department of Chemistry, University of Durham, South Road, 
Durham DH1 3LE, UK
;
_exptl_crystal_description 'block'
_diffrn_ambient_temperature 120
#These two values have been output from a single CSD field.
_refine_ls_R_factor_gt 0.0376
_refine_ls_wR_factor_gt 0.0376
_symmetry_cell_setting monoclinic
_symmetry_space_group_name_H-M 'P 21/n'
_symmetry_Int_Tables_number 14
loop_
_symmetry_equiv_pos_site_id
_symmetry_equiv_pos_as_xyz
1 x,y,z
2 1/2-x,1/2+y,1/2-z
3 -x,-y,-z
4 -1/2+x,-1/2-y,-1/2+z
_cell_length_a 6.0813(3)
_cell_length_b 15.7150(8)
_cell_length_c 9.7811(5)
_cell_angle_alpha 90
_cell_angle_beta 92.018(3)
_cell_angle_gamma 90
_cell_formula_units_Z 4
loop_
_atom_type_symbol
_atom_type_radius_bond
C 0.68
H 0.23
N 0.68
O 0.68
loop_
_atom_site_label
_atom_site_type_symbol
_atom_site_fract_x
_atom_site_fract_y
_atom_site_fract_z
O1 O 0.02452(11) 0.04155(5) 0.69355(7)
O2 O 0.69627(12) 0.20738(5) 0.78917(7)
O3 O 0.92336(13) 0.24254(5) 0.63480(8)
O4 O 0.86656(12) 0.16030(5) 0.18073(8)
O5 O 0.60704(12) 0.07598(5) 0.10555(7)
N1 N 0.34011(13) 0.12061(5) 0.72036(8)
H1 H 0.427(2) 0.1491(9) 0.7816(15)
N2 N 0.75588(13) 0.20666(5) 0.66975(9)
N3 N 0.69864(13) 0.11878(5) 0.19604(8)
C1 C 0.42155(14) 0.12145(6) 0.58992(9)
C2 C 0.62480(14) 0.16132(6) 0.56422(9)
C3 C 0.71500(15) 0.15994(6) 0.4359(1)
H2 H 0.853(2) 0.1851(9) 0.4264(14)
C4 C 0.60092(15) 0.11972(6) 0.33068(9)
C5 C 0.39771(15) 0.08193(6) 0.34899(9)
H3 H 0.321(2) 0.0526(8) 0.2740(14)
C6 C 0.30959(15) 0.08300(6) 0.47740(9)
H4 H 0.172(2) 0.0561(8) 0.4884(14)
C7 C 0.14973(15) 0.08351(6) 0.76595(9)
C8 C 0.11257(19) 0.10124(7) 0.91406(10)
H5 H -0.014(3) 0.0733(12) 0.9437(18)
H6 H 0.239(3) 0.0879(11) 0.9673(18)
H7 H 0.087(3) 0.1608(11) 0.9260(16)
#END
