
#######################################################################
#
#                 Cambridge Crystallographic Data Centre
#                                CCDC
#
#######################################################################
#
# If this CIF has been generated from an entry in the Cambridge
# Structural Database, then it will include bibliographic, chemical,
# crystal, experimental, refinement or atomic coordinate data resulting
# from the CCDC's data processing and validation procedures.
#
#######################################################################

data_CSD_CIF_LESKAW
_audit_creation_date 2007-03-05
_audit_creation_method CSD-ConQuest-V1
_database_code_CSD LESKAW
_database_code_depnum_ccdc_archive 'CCDC 607872'
_chemical_formula_sum 'C27 H24 N4 O6'
_chemical_formula_moiety
;
C27 H24 N4 O6
;
_journal_coden_Cambridge 1078
_journal_year 2006
_journal_name_full 'CSD Communication(Private Communication) '
loop_
_publ_author_name
"M.J.Heeg"
_chemical_name_systematic
;
3-Azido-5,6-bis(benzyloxy)cyclohexen-4-yl p-nitrobenzoate
;
_cell_volume   2480.863
_exptl_crystal_colour 'colorless'
_exptl_crystal_density_diffrn 1.34
_exptl_special_details
;
contribution from Department of Chemistry, Wayne State University, Detroit, 
MI 48017 USA
;
_exptl_crystal_description 'rod'
_diffrn_ambient_temperature 295
#These two values have been output from a single CSD field.
_refine_ls_R_factor_gt 0.036
_refine_ls_wR_factor_gt 0.036
_symmetry_cell_setting monoclinic
_symmetry_space_group_name_H-M 'P 21/c'
_symmetry_Int_Tables_number 14
loop_
_symmetry_equiv_pos_site_id
_symmetry_equiv_pos_as_xyz
1 x,y,z
2 -x,1/2+y,1/2-z
3 -x,-y,-z
4 x,-1/2-y,-1/2+z
_cell_length_a 15.315(5)
_cell_length_b 7.9703(9)
_cell_length_c 20.367(3)
_cell_angle_alpha 90
_cell_angle_beta 93.72(2)
_cell_angle_gamma 90
_cell_formula_units_Z 4
loop_
_atom_type_symbol
_atom_type_radius_bond
C 0.68
H 0.23
N 0.68
O 0.68
loop_
_atom_site_label
_atom_site_type_symbol
_atom_site_fract_x
_atom_site_fract_y
_atom_site_fract_z
C1 C 0.7712(2) 0.1411(4) 0.23222(12)
N1 N 0.8556(2) 0.1887(3) 0.20551(11)
N2 N 0.9170(2) 0.0934(4) 0.21970(12)
N3 N 0.9788(2) 0.0179(6) 0.2279(2)
C2 C 0.76993(14) 0.1856(3) 0.30409(11)
O1 O 0.82960(9) 0.0713(2) 0.33934(7)
C3 C 0.8971(2) 0.1334(4) 0.37715(11)
O2 O 0.90752(11) 0.2800(2) 0.38900(9)
C4 C 0.95764(14) -0.0023(3) 0.40037(10)
C5 C 0.9336(2) -0.1694(3) 0.39801(12)
C6 C 0.9921(2) -0.2925(4) 0.41833(12)
C7 C 1.0753(2) -0.2460(3) 0.43923(11)
C8 C 1.1013(2) -0.0814(4) 0.44257(12)
C9 C 1.0416(2) 0.0409(4) 0.42378(12)
N4 N 1.1400(2) -0.3773(4) 0.45744(10)
O3 O 1.11510(14) -0.5214(3) 0.46045(11)
O4 O 1.21606(14) -0.3351(3) 0.46813(10)
C10 C 0.67924(14) 0.1651(3) 0.32872(11)
O5 O 0.68774(10) 0.2022(2) 0.39708(7)
C11 C 0.6200(2) 0.1397(3) 0.43541(14)
C12 C 0.6147(2) -0.0481(3) 0.43781(11)
C13 C 0.5350(2) -0.1264(4) 0.43127(13)
C14 C 0.5285(3) -0.2980(5) 0.4367(2)
C15 C 0.6023(5) -0.3909(5) 0.4471(2)
C16 C 0.6831(4) -0.3150(5) 0.4529(2)
C17 C 0.6888(2) -0.1440(4) 0.44824(13)
C18 C 0.61576(15) 0.2808(3) 0.29088(12)
O6 O 0.52854(9) 0.2207(2) 0.29958(8)
C19 C 0.4655(2) 0.3531(4) 0.2951(3)
C20 C 0.3757(2) 0.2786(3) 0.29578(14)
C21 C 0.3340(2) 0.2725(4) 0.3535(2)
C22 C 0.2512(3) 0.2145(5) 0.3549(2)
C23 C 0.2078(2) 0.1582(4) 0.2996(3)
C24 C 0.2477(2) 0.1615(4) 0.2407(2)
C25 C 0.3326(2) 0.2235(3) 0.2390(2)
C26 C 0.6316(2) 0.2900(4) 0.21954(14)
C27 C 0.6999(2) 0.2288(3) 0.19311(14)
H1 H 0.7654(13) 0.0272(30) 0.2279(10)
H2 H 0.7907(12) 0.3010(28) 0.3121(9)
H3 H 0.8743(15) -0.1985(26) 0.3806(10)
H4 H 0.9789(16) -0.4013(35) 0.4167(12)
H5 H 1.1598(16) -0.0519(30) 0.4571(11)
H6 H 1.0565(14) 0.1528(32) 0.4261(10)
H7 H 0.6609(12) 0.0476(27) 0.3225(9)
H8 H 0.6384(14) 0.1847(29) 0.4794(13)
H9 H 0.5617(16) 0.1868(30) 0.4200(11)
H10 H 0.4857(17) -0.0638(32) 0.4258(12)
H11 H 0.4723(23) -0.3513(44) 0.4329(16)
H12 H 0.6056(25) -0.4930(56) 0.4501(18)
H13 H 0.7379(24) -0.3676(45) 0.4623(17)
H14 H 0.7425(21) -0.082(4) 0.4511(15)
H15 H 0.6210(13) 0.3926(30) 0.3115(10)
H16 H 0.4716(27) 0.4023(58) 0.2536(22)
H17 H 0.4810(27) 0.4399(59) 0.3328(21)
H18 H 0.3649(19) 0.3105(39) 0.3960(16)
H19 H 0.2168(26) 0.2124(47) 0.3931(20)
H20 H 0.1508(23) 0.1161(42) 0.3000(16)
H21 H 0.2234(19) 0.1267(38) 0.2009(16)
H22 H 0.3613(17) 0.2253(33) 0.1987(14)
H23 H 0.5913(17) 0.3439(33) 0.1963(13)
H24 H 0.7087(16) 0.2339(29) 0.1464(14)
#END
