
#######################################################################
#
#                 Cambridge Crystallographic Data Centre
#                                CCDC
#
#######################################################################
#
# If this CIF has been generated from an entry in the Cambridge
# Structural Database, then it will include bibliographic, chemical,
# crystal, experimental, refinement or atomic coordinate data resulting
# from the CCDC's data processing and validation procedures.
#
#######################################################################

data_CSD_CIF_LESLIG
_audit_creation_date 2013-04-03
_audit_creation_method CSD-ConQuest-V1
_database_code_CSD LESLIG
_database_code_depnum_ccdc_archive 'CCDC 925162'
_chemical_formula_sum 'C15 H12 N2 O7'
_chemical_formula_moiety
;
C15 H12 N2 O7
;
_journal_coeditor_code "IUCr hb7022"
_journal_coden_Cambridge 1370
_journal_volume 69
_journal_year 2013
_journal_page_first o207
_journal_name_full 'Acta Crystallogr.,Sect.E:Struct.Rep.Online '
loop_
_publ_author_name
"S.S.Naz"
"N.U.Islam"
"M.N.Tahir"
"M.R.Shah"
_chemical_name_systematic
;
Methyl 2,4-dihydroxy-5-((4-nitrobenzoyl)amino)benzoate
;
_chemical_name_common
;
Methyl 2,4-dihydroxy-5-(4-nitrobenzamido)benzoate
;
_cell_volume   2925.062
_exptl_crystal_colour 'yellow'
_exptl_crystal_density_diffrn 1.509
_exptl_crystal_description 'needle'
_exptl_crystal_preparation 'methanol/water'
_diffrn_ambient_temperature 296
#These two values have been output from a single CSD field.
_refine_ls_R_factor_gt 0.0517
_refine_ls_wR_factor_gt 0.0517
_symmetry_cell_setting monoclinic
_symmetry_space_group_name_H-M 'C 2/c'
_symmetry_Int_Tables_number 15
loop_
_symmetry_equiv_pos_site_id
_symmetry_equiv_pos_as_xyz
1 x,y,z
2 -x,y,1/2-z
3 1/2+x,1/2+y,z
4 1/2-x,1/2+y,1/2-z
5 -x,-y,-z
6 x,-y,-1/2+z
7 -1/2-x,-1/2-y,-z
8 -1/2+x,-1/2-y,-1/2+z
_cell_length_a 30.412(6)
_cell_length_b 6.9325(15)
_cell_length_c 14.936(3)
_cell_angle_alpha 90
_cell_angle_beta 111.737(8)
_cell_angle_gamma 90
_cell_formula_units_Z 8
loop_
_atom_type_symbol
_atom_type_radius_bond
C 0.68
H 0.23
N 0.68
O 0.68
loop_
_atom_site_label
_atom_site_type_symbol
_atom_site_fract_x
_atom_site_fract_y
_atom_site_fract_z
O1 O 0.10274(6) 0.1155(3) 0.32019(12)
O2 O 0.05741(6) 0.1342(3) 0.40795(13)
O3 O 0.09767(6) 0.1238(3) 0.59618(13)
O4 O 0.26255(6) 0.0020(3) 0.72631(12)
O5 O 0.25654(6) -0.0216(3) 0.39997(11)
O6 O 0.49252(7) -0.2190(4) 0.50312(16)
O7 O 0.50869(7) -0.1537(4) 0.65151(16)
N1 N 0.26968(7) -0.0090(3) 0.55853(14)
N2 N 0.48095(8) -0.1732(4) 0.56944(19)
C1 C 0.13985(9) 0.0859(4) 0.48802(17)
C2 C 0.13784(9) 0.0904(4) 0.58047(19)
C3 C 0.17868(9) 0.0616(4) 0.66047(18)
C4 C 0.22102(9) 0.0301(4) 0.65078(17)
C5 C 0.22394(8) 0.0249(3) 0.55857(17)
C6 C 0.18331(8) 0.0531(3) 0.47889(16)
C7 C 0.09636(10) 0.1146(4) 0.40347(18)
C8 C 0.06012(10) 0.1408(5) 0.23493(19)
C9 C 0.28430(8) -0.0313(3) 0.48462(17)
C10 C 0.33614(8) -0.0680(3) 0.51086(16)
C11 C 0.36749(9) -0.1024(4) 0.60418(17)
C12 C 0.41477(9) -0.1343(4) 0.62442(19)
C13 C 0.43065(9) -0.1345(4) 0.54982(19)
C14 C 0.40103(9) -0.1016(4) 0.45639(19)
C15 C 0.35354(9) -0.0687(4) 0.43751(18)
H1 H 0.29169 -0.01664 0.61475
H2 H 0.17730 0.06358 0.72164
H3 H 0.07616 0.14790 0.54484
H4 H 0.25843 0.01839 0.77701
H5 H 0.18481 0.05032 0.41783
H6 H 0.06788 0.13162 0.17835
H7 H 0.04667 0.26521 0.23692
H8 H 0.03765 0.04218 0.23315
H9 H 0.35623 -0.10400 0.65419
H10 H 0.43554 -0.15519 0.68741
H11 H 0.41260 -0.10127 0.40680
H12 H 0.33301 -0.04676 0.37444
#END
