
#######################################################################
#
#                 Cambridge Crystallographic Data Centre
#                                CCDC
#
#######################################################################
#
# If this CIF has been generated from an entry in the Cambridge
# Structural Database, then it will include bibliographic, chemical,
# crystal, experimental, refinement or atomic coordinate data resulting
# from the CCDC's data processing and validation procedures.
#
#######################################################################

data_CSD_CIF_LESTUA
_audit_creation_date 2013-04-23
_audit_creation_method CSD-ConQuest-V1
_database_code_CSD LESTUA
_database_code_depnum_ccdc_archive 'CCDC 925199'
_chemical_formula_sum 'C16 H15 N3 O4'
_chemical_formula_moiety
;
C16 H15 N3 O4
;
_journal_coeditor_code "IUCr kp2443"
_journal_coden_Cambridge 1370
_journal_volume 69
_journal_year 2013
_journal_page_first o258
_journal_name_full 'Acta Crystallogr.,Sect.E:Struct.Rep.Online '
loop_
_publ_author_name
"A.Jashari"
"E.Popovski"
"B.Mikhova"
"R.P.Nikolova"
"B.L.Shivachev"
_chemical_name_systematic
;
3-[2-(5-t-Butyl-1,2-oxazol-3-yl)hydrazinylidene]chroman-2,4-dione
;
_chemical_name_common
;
3-((5-t-Butyl-1,2-oxazol-3-yl)hydrazono)-2H-chromene-2,4(3H)-dione
;
_chemical_melting_point 419
_cell_volume   1532.229
_exptl_crystal_colour 'yellow'
_exptl_crystal_density_diffrn 1.358
_exptl_crystal_description 'prism'
_diffrn_ambient_temperature 290
_diffrn_special_details
;
non-merohedral twin

;
#These two values have been output from a single CSD field.
_refine_ls_R_factor_gt 0.0718
_refine_ls_wR_factor_gt 0.0718
_symmetry_cell_setting monoclinic
_symmetry_space_group_name_H-M 'P 21/c'
_symmetry_Int_Tables_number 14
loop_
_symmetry_equiv_pos_site_id
_symmetry_equiv_pos_as_xyz
1 x,y,z
2 -x,1/2+y,1/2-z
3 -x,-y,-z
4 x,-1/2-y,-1/2+z
_cell_length_a 13.431(14)
_cell_length_b 9.1803(9)
_cell_length_c 12.638(4)
_cell_angle_alpha 90
_cell_angle_beta 100.49(8)
_cell_angle_gamma 90
_cell_formula_units_Z 4
loop_
_atom_type_symbol
_atom_type_radius_bond
C 0.68
H 0.23
N 0.68
O 0.68
loop_
_atom_site_label
_atom_site_type_symbol
_atom_site_fract_x
_atom_site_fract_y
_atom_site_fract_z
C1 C 0.1628(2) 0.3116(3) 0.0511(2)
C2 C 0.1605(2) 0.4578(3) 0.0958(2)
C3 C 0.1281(2) 0.5746(3) 0.0182(2)
C4 C 0.1307(2) 0.7207(3) 0.0498(3)
H1 H 0.15110 0.74480 0.12190
C5 C 0.1035(3) 0.8282(3) -0.0247(3)
H2 H 0.10740 0.92540 -0.00350
C6 C 0.0701(3) 0.7922(4) -0.1321(3)
H3 H 0.05090 0.86570 -0.18230
C7 C 0.0651(3) 0.6488(4) -0.1651(3)
H4 H 0.04210 0.62500 -0.23690
C8 C 0.0948(2) 0.5405(3) -0.0893(2)
C9 C 0.1240(2) 0.2823(3) -0.0636(2)
C10 C 0.2869(2) 0.0916(3) 0.2637(2)
C11 C 0.3172(2) -0.0401(3) 0.2229(2)
H5 H 0.30600 -0.07190 0.15190
C12 C 0.3667(2) -0.1101(3) 0.3116(2)
C13 C 0.4211(3) -0.2535(3) 0.3317(3)
C14 C 0.5276(3) -0.2268(4) 0.3960(3)
H6 H 0.56370 -0.16270 0.35630
H7 H 0.56300 -0.31780 0.40800
H8 H 0.52290 -0.18310 0.46390
C15 C 0.3615(4) -0.3513(5) 0.3961(4)
H9 H 0.35500 -0.30360 0.46210
H10 H 0.39670 -0.44190 0.41190
H11 H 0.29540 -0.36960 0.35460
C16 C 0.4268(4) -0.3246(5) 0.2235(3)
H12 H 0.35970 -0.33630 0.18270
H13 H 0.45860 -0.41830 0.23560
H14 H 0.46570 -0.26400 0.18440
N1 N 0.20237(19) 0.1960(3) 0.10479(18)
N2 N 0.2352(2) 0.2092(3) 0.20786(19)
N3 N 0.3136(2) 0.1048(3) 0.3673(2)
O1 O 0.08744(16) 0.3990(2) -0.12688(14)
O2 O 0.18801(19) 0.4820(2) 0.19257(15)
O3 O 0.36552(18) -0.0258(3) 0.39890(16)
O4 O 0.1194(2) 0.1661(2) -0.10662(17)
H15 H 0.231(3) 0.296(5) 0.238(3)
#END
