
#######################################################################
#
#                 Cambridge Crystallographic Data Centre
#                                CCDC
#
#######################################################################
#
# If this CIF has been generated from an entry in the Cambridge
# Structural Database, then it will include bibliographic, chemical,
# crystal, experimental, refinement or atomic coordinate data resulting
# from the CCDC's data processing and validation procedures.
#
#######################################################################

data_CSD_CIF_LESVIQ
_audit_creation_date 2013-04-23
_audit_creation_method CSD-ConQuest-V1
_database_code_CSD LESVIQ
_database_code_depnum_ccdc_archive 'CCDC 925202'
_chemical_formula_sum 'C21 H18 N6 O2'
_chemical_formula_moiety
;
C21 H18 N6 O2
;
_journal_coeditor_code "IUCr zq2193"
_journal_coden_Cambridge 1370
_journal_volume 69
_journal_year 2013
_journal_page_first o262
_journal_name_full 'Acta Crystallogr.,Sect.E:Struct.Rep.Online '
loop_
_publ_author_name
"A.El-Ghayoury"
"L.Zorina"
"M.Khouili"
_chemical_name_systematic
;
4-((4-((1H-Benzotriazol-1-yloxy)carbonyl)phenyl)diazenyl)-N,N-dimethylaniline
;
_chemical_name_common
;
1H-Benzotriazol-1-yl4-((E)-[4-(dimethylamino)phenyl]diazenyl)benzoate
;
_cell_volume    939.185
_exptl_crystal_colour 'dark red'
_exptl_crystal_density_diffrn 1.366
_exptl_crystal_description 'prism'
_diffrn_ambient_temperature 293
#These two values have been output from a single CSD field.
_refine_ls_R_factor_gt 0.0619
_refine_ls_wR_factor_gt 0.0619
_symmetry_cell_setting triclinic
_symmetry_space_group_name_H-M 'P -1'
_symmetry_Int_Tables_number 2
loop_
_symmetry_equiv_pos_site_id
_symmetry_equiv_pos_as_xyz
1 x,y,z
2 -x,-y,-z
_cell_length_a 6.6362(8)
_cell_length_b 11.384(3)
_cell_length_c 13.022(3)
_cell_angle_alpha 99.64(3)
_cell_angle_beta 103.61(2)
_cell_angle_gamma 92.440(17)
_cell_formula_units_Z 2
loop_
_atom_type_symbol
_atom_type_radius_bond
C 0.68
H 0.23
N 0.68
O 0.68
loop_
_atom_site_label
_atom_site_type_symbol
_atom_site_fract_x
_atom_site_fract_y
_atom_site_fract_z
C1 C 1.7674(4) 0.3683(3) 1.0813(2)
H1 H 1.88140 0.42730 1.09110
H2 H 1.81980 0.29150 1.08580
H3 H 1.69420 0.38940 1.13620
C2 C 1.7041(4) 0.4217(3) 0.9009(2)
H4 H 1.84310 0.45720 0.93380
H5 H 1.61560 0.48280 0.88050
H6 H 1.70480 0.36390 0.83820
C3 C 1.4360(3) 0.3014(2) 0.94775(19)
C4 C 1.3631(4) 0.2398(2) 1.0190(2)
H7 H 1.44700 0.24090 1.08740
C5 C 1.3021(4) 0.2962(2) 0.8449(2)
H8 H 1.34520 0.33590 0.79580
C6 C 1.1699(4) 0.1782(2) 0.9887(2)
H9 H 1.12520 0.13860 1.03730
C7 C 1.1107(4) 0.2342(2) 0.8161(2)
H10 H 1.02590 0.23220 0.74780
C8 C 1.0396(3) 0.1736(2) 0.8874(2)
C9 C 0.5372(3) 0.0387(2) 0.7486(2)
C10 C 0.4539(3) -0.0039(2) 0.8252(2)
H11 H 0.52710 0.01140 0.89700
C11 C 0.4233(4) 0.0191(2) 0.6422(2)
H12 H 0.47570 0.05040 0.59120
C12 C 0.2630(3) -0.0688(2) 0.7946(2)
H13 H 0.20790 -0.09730 0.84590
C13 C 0.2336(4) -0.0462(2) 0.6120(2)
H14 H 0.15910 -0.06000 0.54040
C14 C 0.1516(3) -0.0921(2) 0.6875(2)
C15 C -0.0433(4) -0.1686(2) 0.6479(2)
C16 C -0.4479(3) -0.4709(2) 0.64582(19)
C17 C -0.2442(3) -0.4259(2) 0.65840(19)
C18 C -0.5059(4) -0.5924(2) 0.6047(2)
H15 H -0.64140 -0.62470 0.59560
C19 C -0.0905(4) -0.4947(2) 0.6317(2)
H16 H 0.04510 -0.46270 0.64050
C20 C -0.3566(5) -0.6615(2) 0.5784(2)
H17 H -0.39080 -0.74260 0.55120
C21 C -0.1519(4) -0.6131(3) 0.5914(2)
H18 H -0.05480 -0.66330 0.57200
N1 N 1.6270(3) 0.36337(19) 0.97666(17)
N2 N 0.8454(3) 0.10799(17) 0.86454(18)
N3 N 0.7346(3) 0.10456(18) 0.77031(18)
N4 N -0.2534(3) -0.30838(18) 0.69602(17)
N5 N -0.4415(3) -0.2807(2) 0.70813(18)
N6 N -0.5633(3) -0.3798(2) 0.67744(17)
O1 O -0.1551(3) -0.19039(18) 0.55969(16)
O2 O -0.0874(2) -0.22242(15) 0.73157(14)
#END
