
#######################################################################
#
#                 Cambridge Crystallographic Data Centre
#                                CCDC
#
#######################################################################
#
# If this CIF has been generated from an entry in the Cambridge
# Structural Database, then it will include bibliographic, chemical,
# crystal, experimental, refinement or atomic coordinate data resulting
# from the CCDC's data processing and validation procedures.
#
#######################################################################

data_CSD_CIF_LESYEN
_audit_creation_date 1994-12-19
_audit_creation_method CSD-ConQuest-V1
_database_code_CSD LESYEN
_chemical_formula_sum 'C12 H9 N1 O2'
_chemical_formula_moiety
;
C12 H9 N1 O2
;
_journal_coeditor_code "IUCr AS1085"
_journal_coden_Cambridge 591
_journal_volume 50
_journal_year 1994
_journal_page_first 1101
_journal_name_full 'Acta Crystallogr.,Sect.C:Cryst.Struct.Commun. '
loop_
_publ_author_name
"A.Sekine"
"Y.Ohashi"
"K.Yoshimura"
"M.Yagi"
"J.Higuchi"
_chemical_name_systematic
;
2-Nitrobiphenyl
;
_cell_volume   1028.830
_exptl_crystal_colour 'light yellow'
_exptl_crystal_density_diffrn 1.29
_diffrn_ambient_temperature ?
_diffrn_special_details
;
The study was carried out at room temperature,in the range 283-303K

;
#These two values have been output from a single CSD field.
_refine_ls_R_factor_gt 0.0891
_refine_ls_wR_factor_gt 0.0891
_symmetry_cell_setting monoclinic
_symmetry_space_group_name_H-M 'P 21/n'
_symmetry_Int_Tables_number 14
loop_
_symmetry_equiv_pos_site_id
_symmetry_equiv_pos_as_xyz
1 x,y,z
2 1/2-x,1/2+y,1/2-z
3 -x,-y,-z
4 -1/2+x,-1/2-y,-1/2+z
_cell_length_a 17.462(1)
_cell_length_b 7.5531(4)
_cell_length_c 7.8964(5)
_cell_angle_alpha 90
_cell_angle_beta 98.937(5)
_cell_angle_gamma 90
_cell_formula_units_Z 4
loop_
_atom_type_symbol
_atom_type_radius_bond
C 0.68
H 0.23
N 0.68
O 0.68
loop_
_atom_site_label
_atom_site_type_symbol
_atom_site_fract_x
_atom_site_fract_y
_atom_site_fract_z
C1 C 0.05984(14) 0.1578(3) 0.2775(3)
C2 C 0.00242(17) 0.2811(4) 0.2202(4)
H1 H -0.04459(17) 0.2482(4) 0.1370(4)
C3 C 0.0145(2) 0.4542(4) 0.2693(5)
H2 H -0.0298(2) 0.5360(4) 0.2306(5)
C4 C 0.0824(2) 0.5020(4) 0.3730(5)
H3 H 0.0890(2) 0.6303(4) 0.4033(5)
C5 C 0.13815(19) 0.3760(4) 0.4307(4)
H4 H 0.19129(19) 0.4090(4) 0.4885(4)
C6 C 0.12774(15) 0.1986(3) 0.3848(3)
C7 C 0.18730(15) 0.0659(3) 0.4556(3)
C8 C 0.16850(17) -0.0670(4) 0.5643(4)
H5 H 0.11604(17) -0.0697(4) 0.6001(4)
C9 C 0.2236(2) -0.1896(5) 0.6334(4)
H6 H 0.2132(2) -0.2871(5) 0.7124(4)
C10 C 0.2977(2) -0.1832(5) 0.5950(4)
H7 H 0.3388(2) -0.2698(5) 0.6422(4)
C11 C 0.31699(19) -0.0506(6) 0.4893(5)
H8 H 0.37031(19) -0.0224(6) 0.4659(5)
C12 C 0.26182(17) 0.0745(5) 0.4186(4)
H9 H 0.27759(17) 0.1715(5) 0.3449(4)
N1 N 0.04658(15) -0.0237(3) 0.2126(4)
O1 O 0.09879(15) -0.1006(3) 0.1608(4)
O2 O -0.01639(15) -0.0896(3) 0.2099(5)
#END
