
#######################################################################
#
#                 Cambridge Crystallographic Data Centre
#                                CCDC
#
#######################################################################
#
# If this CIF has been generated from an entry in the Cambridge
# Structural Database, then it will include bibliographic, chemical,
# crystal, experimental, refinement or atomic coordinate data resulting
# from the CCDC's data processing and validation procedures.
#
#######################################################################

data_CSD_CIF_LETJID
_audit_creation_date 1994-12-05
_audit_creation_method CSD-ConQuest-V1
_database_code_CSD LETJID
_database_code_depnum_ccdc_archive 'CCDC 1205950'
_chemical_formula_sum 'C20 H18 N4 O4'
_chemical_formula_moiety
;
C20 H18 N4 O4
;
_journal_coden_Cambridge 34
_journal_volume 31
_journal_year 1994
_journal_page_first 225
_journal_name_full 'J.Heterocycl.Chem. '
loop_
_publ_author_name
"W.Nagai"
"Y.Hirata"
"K.Hosomi"
"T.Higuchi"
_chemical_name_systematic
;
cis-syn-4-Cyano-4-carbomethoxy-3,5-dimethyl-5-(p-nitrophenyl)-3-phenyl-1-pyraz
oline
;
_cell_volume   1891.220
_exptl_crystal_density_diffrn 1.327
_diffrn_ambient_temperature ?
_diffrn_special_details
;
The study was carried out at room temperature,in the range 283-303K

;
#These two values have been output from a single CSD field.
_refine_ls_R_factor_gt 0.051
_refine_ls_wR_factor_gt 0.051
_symmetry_cell_setting monoclinic
_symmetry_space_group_name_H-M 'P 21/c'
_symmetry_Int_Tables_number 14
loop_
_symmetry_equiv_pos_site_id
_symmetry_equiv_pos_as_xyz
1 x,y,z
2 -x,1/2+y,1/2-z
3 -x,-y,-z
4 x,-1/2-y,-1/2+z
_cell_length_a 12.508
_cell_length_b 8.356
_cell_length_c 18.205
_cell_angle_alpha 90
_cell_angle_beta 96.305
_cell_angle_gamma 90
_cell_formula_units_Z 4
loop_
_atom_type_symbol
_atom_type_radius_bond
C 0.68
H 0.23
N 0.68
O 0.68
loop_
_atom_site_label
_atom_site_type_symbol
_atom_site_fract_x
_atom_site_fract_y
_atom_site_fract_z
O1 O 0.4207(2) 0.1775(4) 0.2024(2)
O2 O 0.3066(2) 0.0352(3) 0.2631(2)
O3 O 0.2356(4) -0.2901(5) -0.0591(2)
O4 O 0.1276(3) -0.4312(4) -0.0017(2)
N1 N 0.0849(3) 0.1705(5) 0.2539(2)
N2 N 0.1267(3) 0.2325(5) 0.3117(2)
N3 N 0.3082(4) 0.5322(5) 0.1486(2)
N4 N 0.1772(3) -0.3085(5) -0.0101(2)
C1 C 0.2209(3) 0.3360(5) 0.3023(2)
C2 C 0.2484(3) 0.2869(5) 0.2224(2)
C3 C 0.1375(3) 0.2162(6) 0.1870(3)
C4 C 0.3363(3) 0.1618(6) 0.2270(2)
C5 C 0.3853(4) -0.0902(7) 0.2793(3)
C6 C 0.2835(4) 0.4237(6) 0.1812(3)
C7 C 0.0610(4) 0.3384(6) 0.1451(3)
C8 C 0.1493(3) 0.0746(5) 0.1371(2)
C9 C 0.2075(4) 0.0907(6) 0.0769(3)
C10 C 0.2182(4) -0.0338(6) 0.0284(2)
C11 C 0.1667(4) -0.1736(6) 0.0408(2)
C12 C 0.1069(4) -0.1957(6) 0.0988(3)
C13 C 0.0993(4) -0.0699(6) 0.1472(3)
C14 C 0.1817(4) 0.5096(6) 0.3079(3)
C15 C 0.3121(3) 0.3051(5) 0.3631(2)
C16 C 0.3034(4) 0.1912(6) 0.4171(3)
C17 C 0.3889(4) 0.1675(7) 0.4719(3)
C18 C 0.4807(5) 0.2567(8) 0.4718(3)
C19 C 0.4891(4) 0.3686(8) 0.4182(3)
C20 C 0.4046(4) 0.3932(6) 0.3635(3)
H1 H 0.454(5) -0.042(8) 0.300(3)
H2 H 0.358(3) -0.164(5) 0.311(2)
H3 H 0.401(4) -0.136(6) 0.234(2)
H4 H 0.093(3) 0.381(5) 0.099(2)
H5 H -0.003(4) 0.280(6) 0.128(3)
H6 H 0.049(3) 0.435(5) 0.174(2)
H7 H 0.122(5) 0.538(7) 0.270(3)
H8 H 0.157(4) 0.520(6) 0.355(3)
H9 H 0.236(3) 0.581(5) 0.296(2)
H10 H 0.242(3) 0.194(5) 0.068(2)
H11 H 0.267(4) -0.027(6) -0.014(2)
H12 H 0.070(4) -0.297(6) 0.101(3)
H13 H 0.057(3) -0.077(5) 0.192(2)
H14 H 0.237(3) 0.132(5) 0.419(2)
H15 H 0.378(4) 0.071(6) 0.506(3)
H16 H 0.540(4) 0.226(6) 0.513(3)
H17 H 0.552(4) 0.441(6) 0.415(3)
H18 H 0.409(3) 0.479(5) 0.325(2)
#END
