
#######################################################################
#
#                 Cambridge Crystallographic Data Centre
#                                CCDC
#
#######################################################################
#
# If this CIF has been generated from an entry in the Cambridge
# Structural Database, then it will include bibliographic, chemical,
# crystal, experimental, refinement or atomic coordinate data resulting
# from the CCDC's data processing and validation procedures.
#
#######################################################################

data_CSD_CIF_LETPIJ10
_audit_creation_date 1996-10-31
_audit_creation_method CSD-ConQuest-V1
_database_code_CSD LETPIJ10
_database_code_depnum_ccdc_archive 'CCDC 1205974'
_chemical_formula_sum 'C19 H24 N4 O4'
_chemical_formula_moiety
;
C19 H24 N4 O4
;
_journal_coden_Cambridge 207
_journal_year 1996
_journal_page_first 21
_journal_name_full 'J.Chem.Soc.,Perkin Trans.1 '
loop_
_publ_author_name
"M.J.Begley"
"G.Pattenden"
"A.J.Smithies"
"D.Tapolczay"
"D.S.Walter"
_chemical_name_systematic
;
2,3;4,5-Dipropanocyclopentanone 2,4-dinitrophenylhydrazone
;
_chemical_melting_point 457.15
_cell_volume   1828.999
_exptl_special_details
;
Melting point range 457.15-459.15K

;
_diffrn_ambient_temperature ?
_diffrn_special_details
;
The study was carried out at room temperature,in the range 283-303K

;
#These two values have been output from a single CSD field.
_refine_ls_R_factor_gt 0.0524
_refine_ls_wR_factor_gt 0.0524
_symmetry_cell_setting monoclinic
_symmetry_space_group_name_H-M 'P 21/a'
_symmetry_Int_Tables_number 14
loop_
_symmetry_equiv_pos_site_id
_symmetry_equiv_pos_as_xyz
1 x,y,z
2 1/2-x,1/2+y,-z
3 -x,-y,-z
4 -1/2+x,-1/2-y,z
_cell_length_a 9.622(3)
_cell_length_b 14.658(2)
_cell_length_c 13.494(2)
_cell_angle_alpha 90
_cell_angle_beta 106.05(2)
_cell_angle_gamma 90
_cell_formula_units_Z 4
loop_
_atom_type_symbol
_atom_type_radius_bond
C 0.68
H 0.23
N 0.68
O 0.68
loop_
_atom_site_label
_atom_site_type_symbol
_atom_site_fract_x
_atom_site_fract_y
_atom_site_fract_z
C1 C 0.498(1) 0.2563(9) 0.3203(9)
C2 C 0.549(2) 0.189(1) 0.254(1)
C3 C 0.543(2) 0.090(1) 0.290(1)
C4 C 0.511(2) 0.035(1) 0.194(2)
C5 C 0.443(2) 0.089(1) 0.103(1)
C6 C 0.446(1) 0.189(1) 0.142(1)
C7 C 0.479(2) 0.256(1) 0.070(1)
C8 C 0.365(2) 0.257(1) -0.038(1)
C9 C 0.318(2) 0.358(1) -0.057(1)
C10 C 0.365(3) 0.400(2) 0.051(2)
C11 C 0.491(2) 0.358(1) 0.107(1)
C12 C 0.571(2) 0.384(1) 0.215(1)
C13 C 0.508(2) 0.356(1) 0.300(1)
N1 N 0.447(1) 0.2243(8) 0.3902(9)
N2 N 0.400(1) 0.2896(8) 0.4481(8)
C14 C 0.333(1) 0.2628(9) 0.5202(9)
C15 C 0.270(1) 0.3225(9) 0.579(1)
C16 C 0.205(2) 0.295(1) 0.651(1)
C17 C 0.192(2) 0.203(1) 0.666(1)
C18 C 0.252(2) 0.140(1) 0.613(1)
C19 C 0.322(2) 0.168(1) 0.540(1)
N3 N 0.281(1) 0.4201(9) 0.566(1)
O1 O 0.360(1) 0.4535(7) 0.5169(8)
O2 O 0.207(1) 0.4705(9) 0.6067(9)
N4 N 0.113(2) 0.170(1) 0.741(1)
O3 O 0.056(1) 0.2280(9) 0.7778(9)
O4 O 0.114(2) 0.089(1) 0.752(1)
H1 H 0.65190 0.20390 0.24670
H2 H 0.64060 0.07130 0.33770
H3 H 0.46780 0.08330 0.32500
H4 H 0.60260 0.00090 0.18520
H5 H 0.44240 -0.02030 0.19900
H6 H 0.50320 0.08580 0.05010
H7 H 0.34340 0.06720 0.06590
H8 H 0.34530 0.21090 0.14770
H9 H 0.58310 0.23060 0.07920
H10 H 0.40810 0.23290 -0.09760
H11 H 0.27850 0.21550 -0.04310
H12 H 0.37310 0.39180 -0.10240
H13 H 0.21290 0.36740 -0.09060
H14 H 0.37660 0.46900 0.05710
H15 H 0.29150 0.38530 0.09480
H16 H 0.55910 0.40500 0.08250
H17 H 0.59920 0.45040 0.22080
H18 H 0.67330 0.34930 0.23300
H19 H 0.56150 0.39090 0.36390
H20 H 0.40610 0.38430 0.27620
H21 H 0.41440 0.36040 0.44030
H22 H 0.16440 0.34050 0.69370
H23 H 0.23890 0.06990 0.62720
H24 H 0.35590 0.11920 0.49530
#END
