
#######################################################################
#
#                 Cambridge Crystallographic Data Centre
#                                CCDC
#
#######################################################################
#
# If this CIF has been generated from an entry in the Cambridge
# Structural Database, then it will include bibliographic, chemical,
# crystal, experimental, refinement or atomic coordinate data resulting
# from the CCDC's data processing and validation procedures.
#
#######################################################################

data_CSD_CIF_LETPEF
_audit_creation_date 1995-01-18
_audit_creation_method CSD-ConQuest-V1
_database_code_CSD LETPEF
_chemical_formula_sum 'C21 H25 N1 O3'
_chemical_formula_moiety
;
C21 H25 N1 O3
;
_journal_coden_Cambridge 24
_journal_volume 35
_journal_year 1994
_journal_page_first 2409
_journal_name_full 'Tetrahedron Lett. '
loop_
_publ_author_name
"T.S.Bailey"
"J.B.Bremner"
"D.C.Hockless"
"B.W.Skelton"
"A.H.White"
_chemical_name_systematic
;
2,3,5,6-Tetrahydro-10,11-dimethoxy-3-methyl-5-phenyl-1H-4,3-benzoxazecine
;
_chemical_melting_point 419.15
_cell_volume    929.723
_exptl_crystal_density_diffrn 1.21
_exptl_special_details
;
Melting point range 419.15-421.15K

;
_diffrn_ambient_temperature ?
_diffrn_special_details
;
The study was carried out at room temperature,in the range 283-303K

;
#These two values have been output from a single CSD field.
_refine_ls_R_factor_gt 0.057
_refine_ls_wR_factor_gt 0.057
_symmetry_cell_setting triclinic
_symmetry_space_group_name_H-M 'P -1'
_symmetry_Int_Tables_number 2
loop_
_symmetry_equiv_pos_site_id
_symmetry_equiv_pos_as_xyz
1 x,y,z
2 -x,-y,-z
_cell_length_a 11.917(3)
_cell_length_b 9.474(5)
_cell_length_c 8.615(3)
_cell_angle_alpha 81.71(4)
_cell_angle_beta 84.78(2)
_cell_angle_gamma 75.36(3)
_cell_formula_units_Z 2
loop_
_atom_type_symbol
_atom_type_radius_bond
C 0.68
H 0.23
N 0.68
O 0.68
loop_
_atom_site_label
_atom_site_type_symbol
_atom_site_fract_x
_atom_site_fract_y
_atom_site_fract_z
C1 C 0.0698(4) 0.8144(7) 0.2405(7)
C2 C 0.1797(4) 0.7038(6) 0.2943(6)
N1 N 0.2650(3) 0.7591(5) 0.3642(4)
C3 C 0.3038(6) 0.876(1) 0.2609(8)
O1 O 0.2063(2) 0.8295(3) 0.4992(3)
C4 C 0.2307(4) 0.7327(6) 0.6408(5)
C5 C 0.1141(4) 0.7441(7) 0.7391(6)
C6 C 0.0322(4) 0.6984(6) 0.6468(5)
C7 C -0.0384(4) 0.7897(6) 0.5512(5)
C8 C -0.0942(3) 0.7483(5) 0.4210(5)
C9 C -0.1996(4) 0.7094(5) 0.4453(5)
C10 C -0.2524(3) 0.6792(4) 0.3231(5)
O2 O -0.3590(2) 0.6480(3) 0.3338(3)
C11 C -0.4244(5) 0.6588(8) 0.4819(7)
C12 C -0.1970(4) 0.6838(5) 0.1740(5)
O3 O -0.2540(2) 0.6464(4) 0.0599(3)
C13 C -0.1999(6) 0.6498(9) -0.0949(6)
C14 C -0.0929(4) 0.7224(5) 0.1496(6)
C15 C -0.0408(3) 0.7596(5) 0.2709(5)
C16 C 0.3215(3) 0.7739(5) 0.7274(5)
C17 C 0.3316(4) 0.9138(6) 0.7176(6)
C18 C 0.4172(4) 0.9487(7) 0.7964(6)
C19 C 0.4909(4) 0.8376(6) 0.8856(6)
C20 C 0.4803(5) 0.6979(7) 0.8969(6)
C21 C 0.3950(4) 0.6646(6) 0.8181(5)
H1 H 0.082(4) 0.845(6) 0.138(6)
H2 H 0.065(3) 0.908(4) 0.295(4)
H3 H 0.222(4) 0.645(5) 0.211(5)
H4 H 0.161(3) 0.616(4) 0.369(5)
H5 H 0.233(5) 0.975(7) 0.243(6)
H6 H 0.341(5) 0.813(7) 0.181(7)
H7 H 0.349(5) 0.925(6) 0.314(7)
H8 H 0.261(3) 0.618(4) 0.613(4)
H9 H 0.088(3) 0.852(5) 0.766(4)
H10 H 0.130(3) 0.679(4) 0.834(5)
H11 H 0.041(3) 0.589(5) 0.634(5)
H12 H -0.043(3) 0.891(4) 0.546(5)
H13 H -0.239(3) 0.718(4) 0.548(4)
H14 H -0.426(4) 0.761(5) 0.511(5)
H15 H -0.501(4) 0.637(4) 0.464(4)
H16 H -0.392(4) 0.568(5) 0.552(5)
H17 H -0.198(4) 0.768(6) -0.137(6)
H18 H -0.254(4) 0.614(5) -0.158(5)
H19 H -0.125(4) 0.591(5) -0.102(6)
H20 H -0.054(3) 0.723(4) 0.057(4)
H21 H 0.281(4) 0.995(5) 0.663(5)
H22 H 0.415(4) 1.061(5) 0.789(5)
H23 H 0.550(4) 0.873(5) 0.937(6)
H24 H 0.530(4) 0.621(5) 0.952(5)
H25 H 0.391(3) 0.557(4) 0.821(4)
#END
