
#######################################################################
#
#                 Cambridge Crystallographic Data Centre
#                                CCDC
#
#######################################################################
#
# If this CIF has been generated from an entry in the Cambridge
# Structural Database, then it will include bibliographic, chemical,
# crystal, experimental, refinement or atomic coordinate data resulting
# from the CCDC's data processing and validation procedures.
#
#######################################################################

data_CSD_CIF_LETPIK
_audit_creation_date 2007-03-05
_audit_creation_method CSD-ConQuest-V1
_database_code_CSD LETPIK
_database_code_depnum_ccdc_archive 'CCDC 622490'
_chemical_formula_sum 'C17 H15 N1 O4'
_chemical_formula_moiety
;
C17 H15 N1 O4
;
_journal_coden_Cambridge 16
_journal_volume 63
_journal_year 2007
_journal_page_first 1116
_journal_name_full 'Tetrahedron '
loop_
_publ_author_name
"P.M.Khan"
"Ruizhi Wu"
"K.S.Bisht"
_chemical_name_systematic
;
(1S,5S)-3-Aza-4-(ethoxycarbonyl)-7-phenylethynyl-2-oxabicyclo(3.3.0)oct-3,7-di
ene-3-oxide
;
_chemical_melting_point 345.15
_cell_volume   1443.744
_exptl_crystal_colour 'colorless'
_exptl_crystal_density_diffrn 1.368
_exptl_special_details
;
Melting point range 345.15-347.15K

;
_exptl_crystal_description 'column'
_diffrn_ambient_temperature 100
#These two values have been output from a single CSD field.
_refine_ls_R_factor_gt 0.0627
_refine_ls_wR_factor_gt 0.0627
_symmetry_cell_setting orthorhombic
_symmetry_space_group_name_H-M 'P 21 21 21'
_symmetry_Int_Tables_number 19
loop_
_symmetry_equiv_pos_site_id
_symmetry_equiv_pos_as_xyz
1 x,y,z
2 1/2-x,-y,1/2+z
3 -x,1/2+y,1/2-z
4 1/2+x,1/2-y,-z
_cell_length_a 6.630(4)
_cell_length_b 10.067(6)
_cell_length_c 21.631(11)
_cell_angle_alpha 90
_cell_angle_beta 90
_cell_angle_gamma 90
_cell_formula_units_Z 4
loop_
_atom_type_symbol
_atom_type_radius_bond
C 0.68
H 0.23
N 0.68
O 0.68
loop_
_atom_site_label
_atom_site_type_symbol
_atom_site_fract_x
_atom_site_fract_y
_atom_site_fract_z
N1 N 1.3060(5) 0.1188(3) 0.97051(18)
O1 O 1.2809(5) 0.3347(3) 1.05538(16)
O2 O 1.3011(4) 0.4678(3) 0.97151(13)
O3 O 1.2939(5) 0.0619(3) 1.02076(14)
O4 O 1.3266(4) 0.0305(2) 0.91876(14)
C1 C 1.3182(7) 0.2594(4) 0.8858(2)
H1 H 1.436(6) 0.316(4) 0.8745(17)
C2 C 1.3483(6) 0.1148(4) 0.8634(2)
H2 H 1.483(6) 0.102(4) 0.8432(18)
C3 C 1.1794(6) 0.0902(4) 0.81966(19)
H3 H 1.16110 0.00920 0.79780
C4 C 1.0584(6) 0.1930(4) 0.8145(2)
C5 C 1.1214(6) 0.3098(4) 0.8539(2)
H4 H 1.01640 0.33180 0.88480
H5 H 1.14840 0.38910 0.82810
C6 C 0.8788(6) 0.1989(4) 0.7768(2)
C7 C 0.7288(6) 0.2077(4) 0.7461(2)
C8 C 0.5457(6) 0.2149(4) 0.7108(2)
C9 C 0.4783(7) 0.1050(4) 0.6777(2)
H6 H 0.55690 0.02610 0.67640
C10 C 0.2948(8) 0.1115(5) 0.6466(2)
H7 H 0.24650 0.03630 0.62460
C11 C 0.1829(8) 0.2269(5) 0.6477(2)
H8 H 0.05650 0.23040 0.62710
C12 C 0.2536(7) 0.3372(5) 0.6786(2)
H9 H 0.17800 0.41740 0.67810
C13 C 0.4325(6) 0.3313(4) 0.7099(2)
H10 H 0.48000 0.40750 0.73130
C14 C 1.3018(6) 0.2448(4) 0.9532(2)
C15 C 1.2940(6) 0.3493(4) 1.0002(2)
C16 C 1.3034(7) 0.5827(4) 1.01290(19)
H11 H 1.42330 0.57940 1.04010
H12 H 1.18100 0.58330 1.03910
C17 C 1.3098(7) 0.7047(4) 0.9733(2)
H13 H 1.19180 0.70600 0.94600
H14 H 1.43310 0.70400 0.94830
H15 H 1.30860 0.78380 0.99970
#END
