
#######################################################################
#
#                 Cambridge Crystallographic Data Centre
#                                CCDC
#
#######################################################################
#
# If this CIF has been generated from an entry in the Cambridge
# Structural Database, then it will include bibliographic, chemical,
# crystal, experimental, refinement or atomic coordinate data resulting
# from the CCDC's data processing and validation procedures.
#
#######################################################################

data_CSD_CIF_LEVNUW01
_audit_creation_date 2007-03-05
_audit_creation_method CSD-ConQuest-V1
_database_code_CSD LEVNUW01
_database_code_depnum_ccdc_archive 'CCDC 633179'
_chemical_formula_sum 'C12 H11 N3 O2'
_chemical_formula_moiety
;
C12 H11 N3 O2
;
_journal_coden_Cambridge 9
_journal_volume 45
_journal_year 2006
_journal_page_first 9758
_journal_name_full 'Inorg.Chem. '
loop_
_publ_author_name
"M.J.Prakash"
"T.P.Radhakrishnan"
_chemical_name_systematic
;
N-(4-picolyl)-4-nitroaniline
;
_cell_volume    553.265
_exptl_crystal_colour 'yellow'
_exptl_crystal_density_diffrn 1.376
_exptl_special_details
;
monoclinic polymorph

;
_exptl_crystal_description 'Needle'
_diffrn_ambient_temperature 298
#These two values have been output from a single CSD field.
_refine_ls_R_factor_gt 0.0692
_refine_ls_wR_factor_gt 0.0692
_symmetry_cell_setting monoclinic
_symmetry_space_group_name_H-M 'P n'
_symmetry_Int_Tables_number 7
loop_
_symmetry_equiv_pos_site_id
_symmetry_equiv_pos_as_xyz
1 x,y,z
2 1/2+x,-y,1/2+z
_cell_length_a 4.5747(18)
_cell_length_b 10.194(4)
_cell_length_c 12.037(5)
_cell_angle_alpha 90
_cell_angle_beta 99.730(6)
_cell_angle_gamma 90
_cell_formula_units_Z 2
loop_
_atom_type_symbol
_atom_type_radius_bond
C 0.68
H 0.23
N 0.68
O 0.68
loop_
_atom_site_label
_atom_site_type_symbol
_atom_site_fract_x
_atom_site_fract_y
_atom_site_fract_z
C1 C -0.0408(6) 0.3089(3) 0.1739(2)
N1 N -0.2357(5) 0.2090(3) 0.1623(2)
H1 H -0.25860 0.16650 0.22190
C2 C 0.3658(7) 0.5133(3) 0.2070(3)
C3 C 0.0305(7) 0.3804(3) 0.0831(2)
H2 H -0.06030 0.35920 0.01020
C4 C 0.2288(7) 0.4798(3) 0.0990(3)
H3 H 0.27360 0.52580 0.03730
C5 C 0.1021(8) 0.3453(3) 0.2836(3)
H4 H 0.05890 0.30010 0.34590
C6 C 0.3009(8) 0.4451(3) 0.2986(3)
H5 H 0.39360 0.46750 0.37100
C7 C -0.2417(6) 0.0831(3) -0.0137(3)
N2 N 0.5781(7) 0.6181(3) 0.2228(4)
C8 C -0.1072(7) -0.0319(3) 0.0267(3)
H6 H -0.11800 -0.05970 0.09940
C9 C -0.4090(7) 0.1686(3) 0.0562(3)
H7 H -0.47800 0.24610 0.01290
H8 H -0.58210 0.12110 0.07100
N3 N 0.0674(7) -0.0718(3) -0.1460(3)
C10 C -0.0662(9) 0.0383(4) -0.1842(3)
H9 H -0.05380 0.06370 -0.25750
O1 O 0.6194(8) 0.6835(3) 0.1417(3)
O2 O 0.7139(7) 0.6387(3) 0.3191(3)
C11 C -0.2213(8) 0.1172(4) -0.1230(3)
H10 H -0.31220 0.19310 -0.15480
C12 C 0.0426(8) -0.1054(4) -0.0403(3)
H11 H 0.13200 -0.18280 -0.01100
#END
