
#######################################################################
#
#                 Cambridge Crystallographic Data Centre
#                                CCDC
#
#######################################################################
#
# If this CIF has been generated from an entry in the Cambridge
# Structural Database, then it will include bibliographic, chemical,
# crystal, experimental, refinement or atomic coordinate data resulting
# from the CCDC's data processing and validation procedures.
#
#######################################################################

data_CSD_CIF_LEVNUW
_audit_creation_date 2007-03-05
_audit_creation_method CSD-ConQuest-V1
_database_code_CSD LEVNUW
_database_code_depnum_ccdc_archive 'CCDC 633178'
_chemical_formula_sum 'C12 H11 N3 O2'
_chemical_formula_moiety
;
C12 H11 N3 O2
;
_journal_coden_Cambridge 9
_journal_volume 45
_journal_year 2006
_journal_page_first 9758
_journal_name_full 'Inorg.Chem. '
loop_
_publ_author_name
"M.J.Prakash"
"T.P.Radhakrishnan"
_chemical_name_systematic
;
N-(4-picolyl)-4-nitroaniline
;
_cell_volume   2174.332
_exptl_crystal_colour 'orange'
_exptl_crystal_density_diffrn 1.401
_exptl_special_details
;
orthorhombic polymorph

;
_exptl_crystal_description 'Plate'
_diffrn_ambient_temperature 298
#These two values have been output from a single CSD field.
_refine_ls_R_factor_gt 0.0586
_refine_ls_wR_factor_gt 0.0586
_symmetry_cell_setting orthorhombic
_symmetry_space_group_name_H-M 'P b c a'
_symmetry_Int_Tables_number 61
loop_
_symmetry_equiv_pos_site_id
_symmetry_equiv_pos_as_xyz
1 x,y,z
2 1/2-x,-y,1/2+z
3 -x,1/2+y,1/2-z
4 1/2+x,1/2-y,-z
5 -x,-y,-z
6 -1/2+x,y,-1/2-z
7 x,-1/2-y,-1/2+z
8 -1/2-x,-1/2+y,z
_cell_length_a 11.3657(8)
_cell_length_b 7.7206(6)
_cell_length_c 24.7787(18)
_cell_angle_alpha 90
_cell_angle_beta 90
_cell_angle_gamma 90
_cell_formula_units_Z 8
loop_
_atom_type_symbol
_atom_type_radius_bond
C 0.68
H 0.23
N 0.68
O 0.68
loop_
_atom_site_label
_atom_site_type_symbol
_atom_site_fract_x
_atom_site_fract_y
_atom_site_fract_z
C1 C 0.63205(14) 0.1284(2) 0.48153(6)
C2 C 0.60305(12) 0.2591(2) 0.58515(6)
C3 C 0.33972(15) 0.3136(2) 0.69001(7)
H1 H 0.32030 0.27910 0.65520
C4 C 0.69722(13) 0.1481(2) 0.57228(6)
H2 H 0.75070 0.11780 0.59910
C5 C 0.44113(14) 0.40697(19) 0.69948(6)
N1 N 0.64968(14) 0.0641(2) 0.42738(6)
N2 N 0.59699(12) 0.3237(2) 0.63589(6)
H3 H 0.64260 0.27790 0.65960
N3 N 0.28996(13) 0.3153(2) 0.78353(6)
C6 C 0.71174(14) 0.0839(2) 0.52141(6)
H4 H 0.77460 0.01090 0.51360
C7 C 0.53645(14) 0.2322(2) 0.49323(7)
H5 H 0.48220 0.25860 0.46640
O1 O 0.73381(15) -0.0328(2) 0.41859(6)
C8 C 0.46581(14) 0.4500(2) 0.75239(7)
H6 H 0.53390 0.51120 0.76080
C9 C 0.52131(13) 0.2964(2) 0.54419(7)
H7 H 0.45630 0.36550 0.55180
C10 C 0.38886(16) 0.4017(2) 0.79251(7)
H8 H 0.40720 0.43130 0.82790
C11 C 0.52101(18) 0.4624(2) 0.65402(8)
H9 H 0.47350 0.50200 0.62400
H10 H 0.56900 0.55880 0.66600
C12 C 0.26790(16) 0.2722(2) 0.73256(8)
H11 H 0.19950 0.21020 0.72530
O2 O 0.58101(14) 0.1085(2) 0.39199(6)
#END
