
#######################################################################
#
#                 Cambridge Crystallographic Data Centre
#                                CCDC
#
#######################################################################
#
# If this CIF has been generated from an entry in the Cambridge
# Structural Database, then it will include bibliographic, chemical,
# crystal, experimental, refinement or atomic coordinate data resulting
# from the CCDC's data processing and validation procedures.
#
#######################################################################

data_CSD_CIF_LEWXOB
_audit_creation_date 2007-05-29
_audit_creation_method CSD-ConQuest-V1
_database_code_CSD LEWXOB
_database_code_depnum_ccdc_archive 'CCDC 601081'
_chemical_formula_sum 'C26 H45 N1 O3'
_chemical_formula_moiety
;
C26 H45 N1 O3
;
_journal_coden_Cambridge 35
_journal_volume 72
_journal_year 2007
_journal_page_first 485
_journal_name_full 'J.Org.Chem. '
loop_
_publ_author_name
"P.Cividino"
"S.Py"
"P.Delair"
"A.E.Greene"
_chemical_name_systematic
;
(3S*,4S*)-Methyl 
4-(hydroxy-((S*)-1-(2,4,6-tri-isopropylphenyl)-ethyl)amino)-3,5-dimethylhexano
ate
;
_chemical_melting_point 406.15
_cell_volume   2581.281
_exptl_crystal_colour 'colorless'
_exptl_crystal_density_diffrn 1.08
_exptl_special_details
;
Melting point range 406.15-408.15K

;
_exptl_crystal_description 'platelet'
_diffrn_ambient_temperature 293.0
#These two values have been output from a single CSD field.
_refine_ls_R_factor_gt 0.0617
_refine_ls_wR_factor_gt 0.0617
_symmetry_cell_setting monoclinic
_symmetry_space_group_name_H-M 'P 21/a'
_symmetry_Int_Tables_number 14
loop_
_symmetry_equiv_pos_site_id
_symmetry_equiv_pos_as_xyz
1 x,y,z
2 1/2-x,1/2+y,-z
3 -x,-y,-z
4 -1/2+x,-1/2-y,z
_cell_length_a 8.199(2)
_cell_length_b 16.132(3)
_cell_length_c 19.520(4)
_cell_angle_alpha 90
_cell_angle_beta 91.19(2)
_cell_angle_gamma 90
_cell_formula_units_Z 4
loop_
_atom_type_symbol
_atom_type_radius_bond
C 0.68
H 0.23
N 0.68
O 0.68
loop_
_atom_site_label
_atom_site_type_symbol
_atom_site_fract_x
_atom_site_fract_y
_atom_site_fract_z
O1 O 0.9018(2) 0.1654(1) 0.6017(1)
O2 O 1.0845(2) 0.0705(1) 0.5754(1)
O3 O 0.4311(2) 0.0668(1) 0.61364(8)
N1 N 0.4509(2) 0.0047(1) 0.66718(9)
C1 C 1.0308(4) 0.2257(2) 0.6099(2)
C2 C 0.9441(3) 0.0893(2) 0.5840(1)
C3 C 0.8028(3) 0.0324(2) 0.5775(1)
C4 C 0.7574(3) -0.0059(2) 0.6472(1)
C5 C 0.5885(3) -0.0484(1) 0.6473(1)
C6 C 0.5395(3) -0.0958(2) 0.5812(1)
C7 C 0.6560(4) -0.1672(2) 0.5666(2)
C8 C 0.3659(4) -0.1291(2) 0.5829(1)
C9 C 0.8940(3) -0.0610(2) 0.6757(2)
C10 C 0.4739(3) 0.0536(1) 0.7309(1)
C11 C 0.3132(3) 0.0939(2) 0.7488(1)
C12 C 0.5465(3) 0.0068(2) 0.7923(1)
C13 C 0.6717(3) 0.0451(2) 0.8316(1)
C14 C 0.7365(3) 0.0033(2) 0.8889(1)
C15 C 0.6801(4) -0.0731(2) 0.9100(1)
C16 C 0.5539(4) -0.1073(2) 0.8723(1)
C17 C 0.4851(3) -0.0698(2) 0.8147(1)
C18 C 0.3374(3) -0.1132(2) 0.7820(1)
C19 C 0.1914(4) -0.1077(2) 0.8289(2)
C20 C 0.3704(4) -0.2042(2) 0.7650(2)
C21 C 0.7494(5) -0.1140(2) 0.9744(2)
C22 C 0.7047(6) -0.0761(3) 1.0364(2)
C23 C 0.8827(6) -0.1626(3) 0.9663(2)
C24 C 0.7366(3) 0.1325(2) 0.8190(1)
C25 C 0.7016(4) 0.1897(2) 0.8788(2)
C26 C 0.9167(4) 0.1338(2) 0.8039(2)
H1 H 0.31060 0.06220 0.59580
H2 H 1.08450 0.23260 0.56760
H3 H 0.98590 0.27720 0.62360
H4 H 1.10700 0.20710 0.64380
H5 H 0.71160 0.06250 0.55980
H6 H 0.82900 -0.01090 0.54670
H7 H 0.75010 0.03930 0.67810
H8 H 0.59670 -0.08960 0.68200
H9 H 0.54510 -0.05790 0.54410
H10 H 0.76400 -0.14630 0.56350
H11 H 0.62490 -0.19290 0.52450
H12 H 0.65160 -0.20660 0.60260
H13 H 0.29240 -0.08460 0.59010
H14 H 0.33980 -0.15530 0.54050
H15 H 0.35730 -0.16810 0.61910
H16 H 0.99410 -0.03130 0.67550
H17 H 0.90280 -0.10910 0.64800
H18 H 0.87000 -0.07670 0.72130
H19 H 0.54760 0.09720 0.72080
H20 H 0.27700 0.12810 0.71190
H21 H 0.32770 0.12660 0.78890
H22 H 0.23410 0.05210 0.75680
H23 H 0.82310 0.02850 0.91440
H24 H 0.51170 -0.15930 0.88640
H25 H 0.31000 -0.08530 0.74050
H26 H 0.16680 -0.05120 0.83740
H27 H 0.09970 -0.13380 0.80750
H28 H 0.21660 -0.13480 0.87100
H29 H 0.45920 -0.20770 0.73470
H30 H 0.27600 -0.22790 0.74390
H31 H 0.39650 -0.23350 0.80600
H32 H 0.67220 -0.15790 0.97590
H33 H 0.74200 -0.02030 1.03710
H34 H 0.58930 -0.07690 1.04000
H35 H 0.75260 -0.10550 1.07390
H36 H 0.96900 -0.13020 0.94860
H37 H 0.85690 -0.20630 0.93530
H38 H 0.91560 -0.18520 1.00930
H39 H 0.68020 0.15400 0.77980
H40 H 0.58790 0.18950 0.88730
H41 H 0.73540 0.24450 0.86800
H42 H 0.75960 0.17100 0.91850
H43 H 0.97670 0.11340 0.84250
H44 H 0.94970 0.18900 0.79440
H45 H 0.93680 0.09970 0.76530
#END
