
#######################################################################
#
#                 Cambridge Crystallographic Data Centre
#                                CCDC
#
#######################################################################
#
# If this CIF has been generated from an entry in the Cambridge
# Structural Database, then it will include bibliographic, chemical,
# crystal, experimental, refinement or atomic coordinate data resulting
# from the CCDC's data processing and validation procedures.
#
#######################################################################

data_CSD_CIF_LEZLOS
_audit_creation_date 2007-05-29
_audit_creation_method CSD-ConQuest-V1
_database_code_CSD LEZLOS
_database_code_depnum_ccdc_archive 'CCDC 639733'
_chemical_formula_sum 'C18 H23 N5 O7'
_chemical_formula_moiety
;
C18 H23 N5 O7
;
_journal_coden_Cambridge 35
_journal_volume 71
_journal_year 2006
_journal_page_first 8140
_journal_name_full 'J.Org.Chem. '
loop_
_publ_author_name
"Weimin Lin"
"N.Tryder"
"Fan Su"
"C.K.Zercher"
"J.P.Jasinski"
"R.J.Butcher"
_chemical_name_systematic
;
1-(2-Methyl-4-oxopentanoyl)-2-(methoxycarbonyl)pyrrolidine 
2,4-dinitrophenylhydrazone
;
_chemical_melting_point 437.15
_cell_volume   1015.839
_exptl_crystal_colour 'colorless'
_exptl_crystal_density_diffrn 1.374
_exptl_special_details
;
Melting point range 437.15-438.15K

;
_exptl_crystal_description 'prism'
_diffrn_ambient_temperature 295.1
#These two values have been output from a single CSD field.
_refine_ls_R_factor_gt 0.0922
_refine_ls_wR_factor_gt 0.0922
_symmetry_cell_setting monoclinic
_symmetry_space_group_name_H-M 'P 21'
_symmetry_Int_Tables_number 4
loop_
_symmetry_equiv_pos_site_id
_symmetry_equiv_pos_as_xyz
1 x,y,z
2 -x,1/2+y,-z
_cell_length_a 8.384(4)
_cell_length_b 20.291(5)
_cell_length_c 6.443(4)
_cell_angle_alpha 90
_cell_angle_beta 112.06(3)
_cell_angle_gamma 90
_cell_formula_units_Z 2
loop_
_atom_type_symbol
_atom_type_radius_bond
C 0.68
H 0.23
N 0.68
O 0.68
loop_
_atom_site_label
_atom_site_type_symbol
_atom_site_fract_x
_atom_site_fract_y
_atom_site_fract_z
O1 O 0.7972(5) 0.2328(2) 0.0200(8)
O2 O 0.5288(7) 0.1936(2) -0.1271(8)
O3 O 0.4667(4) 0.3479(2) -0.2838(5)
O4 O 0.7690(5) 0.6217(2) 0.1141(7)
O5 O 0.9272(7) 0.6564(2) 0.4448(9)
O6 O 0.8863(7) 0.4357(3) 1.0703(8)
O7 O 1.0407(7) 0.5209(3) 1.0791(7)
N1 N 0.4155(5) 0.3125(2) 0.0169(6)
N2 N 0.4200(5) 0.4820(2) -0.0455(6)
N3 N 0.5386(5) 0.5291(2) 0.0700(7)
N4 N 0.8261(6) 0.6175(2) 0.3223(8)
N5 N 0.9228(6) 0.4829(2) 0.9822(7)
C1 C 0.8576(13) 0.1805(5) -0.0823(14)
C2 C 0.6282(7) 0.2334(2) -0.0130(9)
C3 C 0.5916(6) 0.2882(2) 0.1195(8)
C4 C 0.5982(8) 0.2618(3) 0.3494(9)
C5 C 0.4102(9) 0.2429(3) 0.3021(9)
C6 C 0.3114(7) 0.2979(3) 0.1485(8)
C7 C 0.3685(5) 0.3458(2) -0.1801(7)
C8 C 0.1945(6) 0.3802(2) -0.2635(9)
C9 C 0.0585(7) 0.3339(3) -0.4199(11)
C10 C 0.2050(7) 0.4439(2) -0.3874(9)
C11 C 0.3276(7) 0.4949(2) -0.2551(8)
C12 C 0.3357(8) 0.5582(2) -0.3682(11)
C13 C 0.6345(6) 0.5181(2) 0.2896(7)
C14 C 0.6031(6) 0.4625(2) 0.4014(8)
C15 C 0.6964(7) 0.4511(2) 0.6249(8)
C16 C 0.8250(6) 0.4964(2) 0.7483(7)
C17 C 0.8589(6) 0.5505(2) 0.6444(8)
C18 C 0.7680(7) 0.5609(2) 0.4176(9)
H1 H 0.51690 0.43300 0.32160
H2 H 0.67500 0.41390 0.69390
H3 H 0.94330 0.58030 0.72650
H4 H 0.67340 0.22380 0.39640
H5 H 0.63780 0.29570 0.46430
H6 H 0.38200 0.20030 0.22850
H7 H 0.38730 0.24210 0.43890
H8 H 0.19690 0.28340 0.05310
H9 H 0.30180 0.33620 0.23390
H10 H 0.23550 0.43180 -0.51370
H11 H 0.09110 0.46340 -0.44730
H12 H 0.67390 0.32420 0.14140
H13 H 0.16360 0.39140 -0.13520
H14 H 0.89190 0.14370 0.01800
H15 H 0.95430 0.19560 -0.11430
H16 H 0.76710 0.16710 -0.21900
H17 H 0.05090 0.34020 -0.57090
H18 H -0.05100 0.34330 -0.41080
H19 H 0.09010 0.28910 -0.37630
H20 H 0.25360 0.58870 -0.35140
H21 H 0.30940 0.55010 -0.52450
H22 H 0.44920 0.57650 -0.30130
#END
