
#######################################################################
#
#                 Cambridge Crystallographic Data Centre
#                                CCDC
#
#######################################################################
#
# If this CIF has been generated from an entry in the Cambridge
# Structural Database, then it will include bibliographic, chemical,
# crystal, experimental, refinement or atomic coordinate data resulting
# from the CCDC's data processing and validation procedures.
#
#######################################################################

data_CSD_CIF_LEZNUZ
_audit_creation_date 1995-01-30
_audit_creation_method CSD-ConQuest-V1
_database_code_CSD LEZNUZ
_chemical_formula_sum 'C10 H8 N4 O4'
_chemical_formula_moiety
;
C10 H8 N4 O4
;
_journal_coeditor_code "IUCr NA0053"
_journal_coden_Cambridge 622
_journal_volume 50
_journal_year 1994
_journal_page_first 617
_journal_name_full 'Acta Crystallogr.,Sect.B:Struct.Sci. '
loop_
_publ_author_name
"V.Bertolasi"
"P.Gilli"
"V.Ferretti"
"G.Gilli"
_chemical_name_systematic
;
4-(4-Nitrophenylhydrazono)-3-methyl-4H-isoxazol-5-one
;
_cell_volume   1134.339
_exptl_crystal_density_diffrn 1.45
_diffrn_ambient_temperature ?
_diffrn_special_details
;
The study was carried out at room temperature,in the range 283-303K

;
#These two values have been output from a single CSD field.
_refine_ls_R_factor_gt 0.048
_refine_ls_wR_factor_gt 0.048
_symmetry_cell_setting monoclinic
_symmetry_space_group_name_H-M 'P 21/c'
_symmetry_Int_Tables_number 14
loop_
_symmetry_equiv_pos_site_id
_symmetry_equiv_pos_as_xyz
1 x,y,z
2 -x,1/2+y,1/2-z
3 -x,-y,-z
4 x,-1/2-y,-1/2+z
_cell_length_a 7.046(2)
_cell_length_b 7.774(1)
_cell_length_c 20.917(4)
_cell_angle_alpha 90
_cell_angle_beta 98.09(2)
_cell_angle_gamma 90
_cell_formula_units_Z 4
loop_
_atom_type_symbol
_atom_type_radius_bond
C 0.68
H 0.23
N 0.68
O 0.68
loop_
_atom_site_label
_atom_site_type_symbol
_atom_site_fract_x
_atom_site_fract_y
_atom_site_fract_z
O1 O 0.5481(2) 0.0464(2) 0.06732(7)
O2 O 0.6101(3) 0.0872(2) 0.17481(7)
O3 O 0.9181(3) -0.9764(2) -0.08739(8)
O4 O 0.7888(2) -0.8380(2) -0.17088(8)
N1 N 0.6860(2) -0.2916(2) 0.04094(7)
N2 N 0.7294(2) -0.3022(2) 0.10415(7)
N3 N 0.6910(3) -0.0190(3) 0.23091(9)
N4 N 0.8377(3) -0.8494(2) -0.11302(9)
C1 C 0.6942(3) -0.1715(2) 0.13967(9)
C2 C 0.6102(3) -0.0064(3) 0.12038(9)
C3 C 0.7374(3) -0.1652(3) 0.2090(1)
C4 C 0.8225(5) -0.3033(4) 0.2523(1)
C5 C 0.7245(3) -0.4335(2) 0.00331(9)
C6 C 0.6914(3) -0.4170(2) -0.06372(9)
C7 C 0.7275(3) -0.5541(3) -0.10182(9)
C8 C 0.7974(3) -0.7041(2) -0.07271(9)
C9 C 0.8312(3) -0.7223(2) -0.00647(9)
C10 C 0.7933(3) -0.5865(2) 0.03197(9)
H1 H 0.634(2) -0.196(2) 0.0226(8)
H2 H 0.638(3) -0.309(3) -0.0818(9)
H3 H 0.710(3) -0.546(3) -0.1437(9)
H4 H 0.874(3) -0.827(3) 0.012(1)
H5 H 0.811(3) -0.598(3) 0.0751(8)
H6 H 0.829(5) -0.265(5) 0.293(2)
H7 H 0.944(5) -0.326(5) 0.242(2)
H8 H 0.768(5) -0.403(5) 0.240(2)
#END
