
#######################################################################
#
#                 Cambridge Crystallographic Data Centre
#                                CCDC
#
#######################################################################
#
# If this CIF has been generated from an entry in the Cambridge
# Structural Database, then it will include bibliographic, chemical,
# crystal, experimental, refinement or atomic coordinate data resulting
# from the CCDC's data processing and validation procedures.
#
#######################################################################

data_CSD_CIF_LEZPEL
_audit_creation_date 1995-01-30
_audit_creation_method CSD-ConQuest-V1
_database_code_CSD LEZPEL
_chemical_formula_sum 'C16 H13 N5 O3'
_chemical_formula_moiety
;
C16 H13 N5 O3
;
_journal_coeditor_code "IUCr NA0053"
_journal_coden_Cambridge 622
_journal_volume 50
_journal_year 1994
_journal_page_first 617
_journal_name_full 'Acta Crystallogr.,Sect.B:Struct.Sci. '
loop_
_publ_author_name
"V.Bertolasi"
"P.Gilli"
"V.Ferretti"
"G.Gilli"
_chemical_name_systematic
;
4-(4-Nitrophenylhydrazono)-3-methyl-1-phenyl-4H-pyrazol-5-one
;
_cell_volume   1516.006
_exptl_crystal_density_diffrn 1.42
_diffrn_ambient_temperature ?
_diffrn_special_details
;
The study was carried out at room temperature,in the range 283-303K

;
#These two values have been output from a single CSD field.
_refine_ls_R_factor_gt 0.045
_refine_ls_wR_factor_gt 0.045
_symmetry_cell_setting monoclinic
_symmetry_space_group_name_H-M 'P 21/n'
_symmetry_Int_Tables_number 14
loop_
_symmetry_equiv_pos_site_id
_symmetry_equiv_pos_as_xyz
1 x,y,z
2 1/2-x,1/2+y,1/2-z
3 -x,-y,-z
4 -1/2+x,-1/2-y,-1/2+z
_cell_length_a 12.817(1)
_cell_length_b 7.595(5)
_cell_length_c 15.652(3)
_cell_angle_alpha 90
_cell_angle_beta 95.74(1)
_cell_angle_gamma 90
_cell_formula_units_Z 4
loop_
_atom_type_symbol
_atom_type_radius_bond
C 0.68
H 0.23
N 0.68
O 0.68
loop_
_atom_site_label
_atom_site_type_symbol
_atom_site_fract_x
_atom_site_fract_y
_atom_site_fract_z
O1 O 0.8626(1) 0.3410(3) -0.0579(1)
O2 O 0.8343(2) -0.1832(4) 0.4295(1)
O3 O 1.0025(2) -0.1838(3) 0.4536(1)
N1 N 0.9484(2) 0.1706(3) 0.0902(1)
N2 N 1.0399(2) 0.1821(3) 0.0586(1)
N3 N 1.1120(2) 0.3734(3) -0.1296(1)
N4 N 1.0026(1) 0.4050(3) -0.1383(1)
N5 N 0.9216(2) -0.1482(3) 0.4090(1)
C1 C 1.0421(2) 0.2604(3) -0.0154(1)
C2 C 0.9556(2) 0.3377(3) -0.0704(2)
C3 C 1.1345(2) 0.2899(4) -0.0581(2)
C4 C 1.2438(2) 0.2392(5) -0.0269(2)
C5 C 0.9426(2) 0.0912(3) 0.1700(2)
C6 C 0.8469(2) 0.0819(4) 0.2032(2)
C7 C 0.8395(2) 0.0028(4) 0.2816(2)
C8 C 0.9288(2) -0.0632(3) 0.3262(2)
C9 C 1.0249(2) -0.0521(4) 0.2948(2)
C10 C 1.0319(2) 0.0237(4) 0.2161(2)
C11 C 0.9566(2) 0.4862(3) -0.2150(2)
C12 C 1.0153(2) 0.5082(4) -0.2838(2)
C13 C 0.9705(2) 0.5867(4) -0.3582(2)
C14 C 0.8688(2) 0.6437(4) -0.3642(2)
C15 C 0.8109(2) 0.6238(4) -0.2955(2)
C16 C 0.8541(2) 0.5452(4) -0.2203(2)
H1 H 0.893(2) 0.220(3) 0.060(1)
H2 H 0.789(2) 0.130(3) 0.172(1)
H3 H 0.777(2) -0.001(3) 0.305(1)
H4 H 1.085(2) -0.102(3) 0.326(1)
H5 H 1.096(1) 0.030(3) 0.195(1)
H6 H 1.087(1) 0.461(3) -0.280(1)
H7 H 1.011(2) 0.597(3) -0.407(2)
H8 H 0.841(2) 0.698(4) -0.413(2)
H9 H 0.740(2) 0.659(4) -0.302(2)
H10 H 0.814(2) 0.527(3) -0.173(1)
H11 H 1.269(3) 0.310(6) 0.018(2)
H12 H 1.248(2) 0.133(4) -0.002(2)
H13 H 1.290(3) 0.243(5) -0.070(2)
#END
