
#######################################################################
#
#                 Cambridge Crystallographic Data Centre
#                                CCDC
#
#######################################################################
#
# If this CIF has been generated from an entry in the Cambridge
# Structural Database, then it will include bibliographic, chemical,
# crystal, experimental, refinement or atomic coordinate data resulting
# from the CCDC's data processing and validation procedures.
#
#######################################################################

data_CSD_CIF_LEZXUK
_audit_creation_date 2007-05-29
_audit_creation_method CSD-ConQuest-V1
_database_code_CSD LEZXUK
_database_code_depnum_ccdc_archive 'CCDC 633162'
_chemical_formula_sum 'C17 H16 N4 O3'
_chemical_formula_moiety
;
C17 H16 N4 O3
;
_journal_coden_Cambridge 440
_journal_volume 31
_journal_year 2007
_journal_page_first 429
_journal_name_full 'New J.Chem. '
loop_
_publ_author_name
"P.Simunek"
"M.Svobodova"
"V.Bertolasi"
"L.Pretto"
"A.Lycka"
"V.Machacek"
_chemical_name_systematic
;
3-methylamino-2-(4-nitrophenyldiazenyl)-1-phenylbut-2-en-1-one
;
_chemical_melting_point 428.65
_cell_volume   1565.941
_exptl_crystal_colour 'orange'
_exptl_crystal_density_diffrn 1.376
_exptl_special_details
;
Melting point range 428.65-430.15K

;
_exptl_crystal_description 'prismatic'
_exptl_crystal_preparation 'hexane/toluene'
_diffrn_ambient_temperature 150
_refine_special_details
;
The amino H atom is disordered between two N atoms with occupancies of 
0.17:0.83.
;
#These two values have been output from a single CSD field.
_refine_ls_R_factor_gt 0.0493
_refine_ls_wR_factor_gt 0.0493
_symmetry_cell_setting monoclinic
_symmetry_space_group_name_H-M 'P 21/c'
_symmetry_Int_Tables_number 14
loop_
_symmetry_equiv_pos_site_id
_symmetry_equiv_pos_as_xyz
1 x,y,z
2 -x,1/2+y,1/2-z
3 -x,-y,-z
4 x,-1/2-y,-1/2+z
_cell_length_a 8.0995(1)
_cell_length_b 9.5542(2)
_cell_length_c 20.4491(4)
_cell_angle_alpha 90
_cell_angle_beta 98.2804(8)
_cell_angle_gamma 90
_cell_formula_units_Z 4
loop_
_atom_type_symbol
_atom_type_radius_bond
C 0.68
H 0.23
N 0.68
O 0.68
loop_
_atom_site_label
_atom_site_type_symbol
_atom_site_fract_x
_atom_site_fract_y
_atom_site_fract_z
O1 O 0.36632(15) 0.71377(11) 0.19497(5)
O2 O -0.19224(15) 0.54000(13) -0.26514(6)
O3 O -0.07688(14) 0.34179(15) -0.28298(5)
N1 N 0.28400(14) 0.44918(12) 0.00557(5)
H1? H 0.316(12) 0.363(11) 0.025(5)
N2 N 0.28589(13) 0.56569(11) 0.03821(5)
N3 N 0.46014(15) 0.33578(13) 0.10664(6)
H2 H 0.400(3) 0.331(2) 0.0662(11)
N4 N -0.09684(15) 0.44279(15) -0.24754(6)
C1 C 0.37051(16) 0.57240(14) 0.10053(6)
C2 C 0.46319(16) 0.45892(14) 0.13515(6)
C3 C 0.34579(17) 0.70498(15) 0.13434(6)
C4 C 0.56644(19) 0.47505(17) 0.20161(7)
C5 C 0.28597(16) 0.83364(14) 0.09544(6)
C6 C 0.32844(17) 0.86707(15) 0.03348(7)
C7 C 0.27224(18) 0.99098(15) 0.00224(7)
C8 C 0.17148(18) 1.08140(16) 0.03187(7)
C9 C 0.12954(19) 1.04968(16) 0.09383(7)
C10 C 0.18819(18) 0.92759(15) 0.12546(7)
C11 C 0.18656(15) 0.45626(14) -0.05750(6)
C12 C 0.19516(17) 0.33997(15) -0.09826(6)
C13 C 0.10174(17) 0.33472(15) -0.16076(7)
C14 C -0.00017(16) 0.44729(15) -0.18121(6)
C15 C -0.01181(17) 0.56386(16) -0.14195(7)
C16 C 0.08220(17) 0.56885(15) -0.07983(7)
C17 C 0.5464(2) 0.21061(17) 0.13494(8)
H3 H 0.599(2) 0.5732(19) 0.2099(8)
H4 H 0.501(2) 0.4441(19) 0.2372(9)
H5 H 0.667(2) 0.416(2) 0.2044(9)
H6 H 0.397(2) 0.8037(18) 0.0124(8)
H7 H 0.303(2) 1.0128(18) -0.0411(9)
H8 H 0.129(2) 1.1662(18) 0.0091(8)
H9 H 0.060(2) 1.113(2) 0.1152(8)
H10 H 0.160(2) 0.9040(17) 0.1686(8)
H11 H 0.109(2) 0.2525(19) -0.1891(8)
H12 H 0.268(2) 0.2633(18) -0.0838(8)
H13 H -0.086(2) 0.6393(19) -0.1575(8)
H14 H 0.0780(19) 0.6492(18) -0.0511(8)
H15 H 0.500(2) 0.1285(19) 0.1103(8)
H16 H 0.530(2) 0.197(2) 0.1808(10)
H17 H 0.665(3) 0.216(2) 0.1320(9)
#END
