
#######################################################################
#
#                 Cambridge Crystallographic Data Centre
#                                CCDC
#
#######################################################################
#
# If this CIF has been generated from an entry in the Cambridge
# Structural Database, then it will include bibliographic, chemical,
# crystal, experimental, refinement or atomic coordinate data resulting
# from the CCDC's data processing and validation procedures.
#
#######################################################################

data_CSD_CIF_LEZZUN
_audit_creation_date 2013-05-26
_audit_creation_method CSD-ConQuest-V1
_database_code_CSD LEZZUN
_database_code_depnum_ccdc_archive 'CCDC 824752'
_chemical_formula_sum 'C20 H17 N3 O7'
_chemical_formula_moiety
;
C20 H17 N3 O7
;
_journal_coden_Cambridge 177
_journal_volume 10
_journal_year 2012
_journal_page_first 9165
_journal_name_full 'Org.Biomol.Chem. '
loop_
_publ_author_name
"A.R.Reddy"
"Zhen Guo"
"Fung-Ming Siu"
"Chun-Nam Lok"
"Fuli Liu"
"Kai-Chung Yeung"
"Cong-Ying Zhou"
"Chi-Ming Che"
_chemical_name_systematic
;
Ethyl 
2-(4-nitrophenyl)-4,6-dioxo-5-phenylhexahydro-2H-pyrrolo[3,4-d][1,2]oxazole-3-
carboxylate
;
_cell_volume   1909.619
_exptl_crystal_colour 'colorless'
_exptl_crystal_density_diffrn 1.431
_exptl_crystal_description 'plate'
_diffrn_ambient_temperature 302
#These two values have been output from a single CSD field.
_refine_ls_R_factor_gt 0.0421
_refine_ls_wR_factor_gt 0.0421
_symmetry_cell_setting monoclinic
_symmetry_space_group_name_H-M 'P 21/c'
_symmetry_Int_Tables_number 14
loop_
_symmetry_equiv_pos_site_id
_symmetry_equiv_pos_as_xyz
1 x,y,z
2 -x,1/2+y,1/2-z
3 -x,-y,-z
4 x,-1/2-y,-1/2+z
_cell_length_a 11.4932(8)
_cell_length_b 17.3475(12)
_cell_length_c 9.5804(7)
_cell_angle_alpha 90
_cell_angle_beta 91.317(1)
_cell_angle_gamma 90
_cell_formula_units_Z 4
loop_
_atom_type_symbol
_atom_type_radius_bond
C 0.68
H 0.23
N 0.68
O 0.68
loop_
_atom_site_label
_atom_site_type_symbol
_atom_site_fract_x
_atom_site_fract_y
_atom_site_fract_z
O1 O 0.62347(11) 0.16217(8) 0.49442(13)
O2 O 0.81063(13) 0.15964(8) 0.89598(14)
O3 O 0.79555(15) 0.02824(9) 0.48389(17)
O4 O 0.03048(16) 0.16113(13) 0.5028(2)
O5 O 0.03370(15) 0.19518(13) 0.7171(2)
O6 O 0.54652(14) 0.32780(9) 0.53334(17)
O7 O 0.67519(13) 0.36861(8) 0.69686(15)
N1 N 0.56995(13) 0.17416(8) 0.62897(15)
N2 N 0.81640(14) 0.07917(9) 0.70501(17)
N3 N 0.08257(17) 0.17720(12) 0.6100(3)
C1 C 0.63753(15) 0.23655(10) 0.69258(18)
H1 H 0.62510 0.23780 0.79340
C2 C 0.76101(15) 0.20807(10) 0.66374(18)
H2 H 0.81670 0.25050 0.65540
C3 C 0.79929(15) 0.14916(11) 0.7728(2)
C4 C 0.78846(17) 0.08162(12) 0.5628(2)
C5 C 0.74597(16) 0.16251(11) 0.52857(19)
H3 H 0.79080 0.18550 0.45340
C6 C 0.44861(15) 0.17763(10) 0.61683(19)
C7 C 0.38811(17) 0.14816(11) 0.5019(2)
H4 H 0.42830 0.12850 0.42660
C8 C 0.26768(18) 0.14812(12) 0.4996(2)
H5 H 0.22640 0.12870 0.42270
C9 C 0.20983(16) 0.17687(12) 0.6117(2)
C10 C 0.26833(18) 0.20528(13) 0.7272(2)
H6 H 0.22730 0.22400 0.80250
C11 C 0.38771(17) 0.20580(12) 0.7305(2)
H7 H 0.42800 0.22490 0.80840
C12 C 0.61237(17) 0.31559(11) 0.6293(2)
C13 C 0.6636(3) 0.44793(13) 0.6504(3)
H8 H 0.73560 0.47520 0.67090
H9 H 0.65030 0.44870 0.55010
C14 C 0.5688(3) 0.48718(17) 0.7171(4)
H10 H 0.56670 0.54000 0.68750
H11 H 0.58020 0.48500 0.81660
H12 H 0.49660 0.46260 0.69160
C15 C 0.85352(19) 0.00999(11) 0.7768(2)
C16 C 0.9666(2) -0.01325(18) 0.7748(5)
H13 H 1.02090 0.01420 0.72430
C17 C 0.9996(3) -0.0787(2) 0.8496(5)
H14 H 1.07690 -0.09450 0.85000
C18 C 0.9211(4) -0.11945(18) 0.9215(3)
H15 H 0.94490 -0.16160 0.97480
C19 C 0.8080(3) -0.09907(16) 0.9159(3)
H16 H 0.75300 -0.12900 0.96070
C20 C 0.7737(2) -0.03346(14) 0.8433(3)
H17 H 0.69570 -0.01920 0.84010
#END
