
#######################################################################
#
#                 Cambridge Crystallographic Data Centre
#                                CCDC
#
#######################################################################
#
# If this CIF has been generated from an entry in the Cambridge
# Structural Database, then it will include bibliographic, chemical,
# crystal, experimental, refinement or atomic coordinate data resulting
# from the CCDC's data processing and validation procedures.
#
#######################################################################

data_CSD_CIF_LICMIT02
_audit_creation_date 1998-02-12
_audit_creation_method CSD-ConQuest-V1
_database_code_CSD LICMIT02
_chemical_formula_sum 'C13 H17 N2 O4'
_chemical_formula_moiety
;
C13 H17 N2 O4
;
_journal_coden_Cambridge 4
_journal_volume 119
_journal_year 1997
_journal_page_first 4369
_journal_name_full 'J.Am.Chem.Soc. '
loop_
_publ_author_name
"M.M.Matsushita"
"A.Izuoka"
"T.Sugawara"
"T.Kobayashi"
"N.Wada"
"N.Takeda"
"M.Ishikawa"
_chemical_name_systematic
;
2-(2',5'-Dihydroxyphenyl)-4,4,5,5-tetramethyl-4,5-dihydro-1H-imidazolyl-1-oxyl
-3-oxide
;
_chemical_melting_point 381.15
_cell_volume   1327.167
_exptl_crystal_colour 'blue'
_exptl_crystal_density_diffrn 1.333
_exptl_special_details
;
Melts with decomposition.
beta polymorph

;
_exptl_crystal_description 'needle'
_diffrn_ambient_temperature ?
_diffrn_special_details
;
The study was carried out at room temperature,in the range 283-303K

;
#These two values have been output from a single CSD field.
_refine_ls_R_factor_gt 0.048
_refine_ls_wR_factor_gt 0.048
_symmetry_cell_setting monoclinic
_symmetry_space_group_name_H-M 'P 21/a'
_symmetry_Int_Tables_number 14
loop_
_symmetry_equiv_pos_site_id
_symmetry_equiv_pos_as_xyz
1 x,y,z
2 1/2-x,1/2+y,-z
3 -x,-y,-z
4 -1/2+x,-1/2-y,z
_cell_length_a 10.586(3)
_cell_length_b 14.072(2)
_cell_length_c 9.744(2)
_cell_angle_alpha 90
_cell_angle_beta 113.89(1)
_cell_angle_gamma 90
_cell_formula_units_Z 4
loop_
_atom_type_symbol
_atom_type_radius_bond
C 0.68
H 0.23
N 0.68
O 0.68
loop_
_atom_site_label
_atom_site_type_symbol
_atom_site_fract_x
_atom_site_fract_y
_atom_site_fract_z
O1 O 0.4200(2) 0.8593(2) 0.8438(3)
O2 O 0.6468(2) 1.0723(2) 0.6630(3)
N1 N 0.5131(3) 0.8987(2) 0.8081(3)
N2 N 0.6247(2) 1.0021(2) 0.7336(3)
C1 C 0.5047(3) 0.9869(2) 0.7507(3)
C2 C 0.6364(3) 0.8449(2) 0.8101(4)
C3 C 0.7313(3) 0.9288(2) 0.8140(4)
C4 C 0.6911(4) 0.7790(3) 0.9442(5)
C5 C 0.5861(5) 0.7895(3) 0.6642(4)
C6 C 0.8267(4) 0.9123(3) 0.7358(5)
C7 C 0.8113(4) 0.9687(3) 0.9711(4)
O3 O 0.2092(2) 0.9402(2) 0.6301(3)
O4 O 0.3797(3) 1.3142(2) 0.7394(3)
C8 C 0.3944(3) 1.0560(2) 0.7191(4)
C9 C 0.2554(3) 1.0314(2) 0.6617(4)
C10 C 0.1573(3) 1.1030(3) 0.629(64)
C11 C 0.1967(3) 1.1969(3) 0.6514(4)
C12 C 0.3345(3) 1.2218(2) 0.7094(4)
C13 C 0.4323(3) 1.1520(2) 0.7444(4)
H1 H 0.064(3) 1.085(2) 0.589(4)
H2 H 0.126(3) 1.242(2) 0.625(3)
H3 H 0.526(3) 1.166(2) 0.783(3)
H4 H 0.773(4) 0.754(3) 0.949(4)
H5 H 0.627(4) 0.727(3) 0.936(4)
H6 H 0.710(4) 0.814(3) 1.038(4)
H7 H 0.556(3) 0.833(2) 0.572(4)
H8 H 0.666(4) 0.755(3) 0.653(4)
H9 H 0.519(4) 0.746(3) 0.666(4)
H10 H 0.773(4) 0.898(3) 0.629(4)
H11 H 0.870(4) 0.966(3) 0.736(4)
H12 H 0.885(3) 0.857(2) 0.780(4)
H13 H 0.754(4) 0.976(2) 1.027(4)
H14 H 0.848(3) 1.031(2) 0.967(4)
H15 H 0.880(4) 0.921(3) 1.030(4)
H16 H 0.272(4) 0.904(3) 0.703(4)
H17 H 0.307(5) 1.352(4) 0.709(6)
#END
