
#######################################################################
#
#                 Cambridge Crystallographic Data Centre
#                                CCDC
#
#######################################################################
#
# If this CIF has been generated from an entry in the Cambridge
# Structural Database, then it will include bibliographic, chemical,
# crystal, experimental, refinement or atomic coordinate data resulting
# from the CCDC's data processing and validation procedures.
#
#######################################################################

data_CSD_CIF_LICZUS
_audit_creation_date 1995-05-18
_audit_creation_method CSD-ConQuest-V1
_database_code_CSD LICZUS
_database_code_depnum_ccdc_archive 'CCDC 1206779'
_database_code_depnum_ccdc_fiz 'CSD 57075'
_chemical_formula_sum 'C14 H17 N2 O4'
_chemical_formula_moiety
;
C14 H17 N2 O4
;
_journal_coden_Cambridge 167
_journal_year 1994
_journal_page_first 739
_journal_name_full 'Liebigs Ann. '
loop_
_publ_author_name
"C.Batz"
"P.Amann"
"H.-J.Deiseroth"
"L.Dulog"
_chemical_name_systematic
;
2-(4-Carboxyphenyl)-1-oxy-4,4,5,5-tetramethylimidazolin-3-oxide
;
_chemical_melting_point 453.15
_cell_volume   2915.963
_exptl_crystal_density_diffrn 1.263
_exptl_special_details
;
Melts with decomposition.

;
_diffrn_ambient_temperature 223
#These two values have been output from a single CSD field.
_refine_ls_R_factor_gt 0.039
_refine_ls_wR_factor_gt 0.039
_symmetry_cell_setting monoclinic
_symmetry_space_group_name_H-M 'C 2/c'
_symmetry_Int_Tables_number 15
loop_
_symmetry_equiv_pos_site_id
_symmetry_equiv_pos_as_xyz
1 x,y,z
2 -x,y,1/2-z
3 1/2+x,1/2+y,z
4 1/2-x,1/2+y,1/2-z
5 -x,-y,-z
6 x,-y,-1/2+z
7 -1/2-x,-1/2-y,-z
8 -1/2+x,-1/2-y,-1/2+z
_cell_length_a 25.596(4)
_cell_length_b 9.436(1)
_cell_length_c 12.701(3)
_cell_angle_alpha 90
_cell_angle_beta 108.09(2)
_cell_angle_gamma 90
_cell_formula_units_Z 8
loop_
_atom_type_symbol
_atom_type_radius_bond
C 0.68
H 0.23
N 0.68
O 0.68
loop_
_atom_site_label
_atom_site_type_symbol
_atom_site_fract_x
_atom_site_fract_y
_atom_site_fract_z
O1 O 0.94798 0.32940 -0.02348
O2 O 0.85841 0.28814 -0.07916
O3 O 0.78626 0.93279 0.07316
O4 O 0.95389 0.87804 0.34455
N1 N 0.82697 0.95324 0.15975
N2 N 0.90701 0.92897 0.28476
C1 C 0.89691 0.35828 -0.02777
C2 C 0.89211 0.48610 0.03759
C3 C 0.83994 0.52824 0.03726
C4 C 0.83295 0.64970 0.09149
C5 C 0.87837 0.73192 0.14765
C6 C 0.93087 0.68810 0.14947
C7 C 0.93752 0.56636 0.09480
C8 C 0.87122 0.86656 0.19765
C9 C 0.82814 1.07438 0.23629
C10 C 0.79069 1.03065 0.30428
C11 C 0.80653 1.20661 0.16978
C12 C 0.89016 1.07623 0.30400
C13 C 0.90262 1.10096 0.42716
C14 C 0.92461 1.17518 0.25602
H1 H 0.94810 0.25698 -0.06950
H2 H 0.80859 0.47352 -0.00347
H3 H 0.79702 0.68228 0.08554
H4 H 0.96209 0.74610 0.18618
H5 H 0.97412 0.53804 0.09533
H6 H 0.75286 1.01958 0.25216
H7 H 0.78977 1.10700 0.35433
H8 H 0.80505 0.93570 0.34964
H9 H 0.81363 1.28527 0.22203
H10 H 0.76475 1.19673 0.13076
H11 H 0.82756 1.22281 0.11610
H12 H 0.88333 1.02036 0.45829
H13 H 0.88726 1.19249 0.43626
H14 H 0.94479 1.09603 0.46299
H15 H 0.96462 1.15636 0.30384
H16 H 0.91584 1.27533 0.27026
H17 H 0.91692 1.15436 0.17457
#END
