
#######################################################################
#
#                 Cambridge Crystallographic Data Centre
#                                CCDC
#
#######################################################################
#
# If this CIF has been generated from an entry in the Cambridge
# Structural Database, then it will include bibliographic, chemical,
# crystal, experimental, refinement or atomic coordinate data resulting
# from the CCDC's data processing and validation procedures.
#
#######################################################################

data_CSD_CIF_LIDCAC
_audit_creation_date 1995-05-18
_audit_creation_method CSD-ConQuest-V1
_database_code_CSD LIDCAC
_chemical_formula_sum 'C21 H26 N4 O4'
_chemical_formula_moiety
;
C21 H26 N4 O4
;
_journal_coden_Cambridge 24
_journal_volume 35
_journal_year 1994
_journal_page_first 3945
_journal_name_full 'Tetrahedron Lett. '
loop_
_publ_author_name
"A.Tahri"
"D.Uguen"
"A.De Cian"
"J.Fischer"
_chemical_name_systematic
;
cis-syn-trans-8-(2,4-Dinitrophenylhydrazono)-2-methyltricyclo(8.4.0.0^2,7^)tet
radec-3-ene
;
_chemical_melting_point 435.15
_cell_volume   1991.946
_exptl_crystal_colour 'orange'
_exptl_special_details
;
Melting point range 435.15-437.15K
Dx reported as 1.947; we calculate 1.33

;
_diffrn_ambient_temperature 173.15
#These two values have been output from a single CSD field.
_refine_ls_R_factor_gt 0.042
_refine_ls_wR_factor_gt 0.042
loop_
_citation_database_id_CSD
_citation_special_details
NEJSEA "is a stereoisomer of this entry"
_symmetry_cell_setting monoclinic
_symmetry_space_group_name_H-M 'P 21/c'
_symmetry_Int_Tables_number 14
loop_
_symmetry_equiv_pos_site_id
_symmetry_equiv_pos_as_xyz
1 x,y,z
2 -x,1/2+y,1/2-z
3 -x,-y,-z
4 x,-1/2-y,-1/2+z
_cell_length_a 17.050(7)
_cell_length_b 13.740(5)
_cell_length_c 8.637(3)
_cell_angle_alpha 90
_cell_angle_beta 100.11(2)
_cell_angle_gamma 90
_cell_formula_units_Z 4
loop_
_atom_type_symbol
_atom_type_radius_bond
C 0.68
H 0.23
N 0.68
O 0.68
loop_
_atom_site_label
_atom_site_type_symbol
_atom_site_fract_x
_atom_site_fract_y
_atom_site_fract_z
N1 N 0.3645(1) 0.0229(2) 0.8189(3)
N2 N 0.4056(1) 0.0842(2) 0.7337(3)
C1 C 0.1561(2) -0.1064(3) 0.7414(5)
C2 C 0.2116(2) -0.1697(3) 0.7246(5)
C3 C 0.2890(2) -0.1774(2) 0.8304(5)
C4 C 0.2956(2) -0.1130(2) 0.9737(4)
C5 C 0.2522(2) -0.0160(2) 0.9359(3)
C6 C 0.2943(2) 0.0484(2) 0.8337(3)
C7 C 0.2508(2) 0.1382(2) 0.7703(4)
C8 C 0.1650(2) 0.1193(2) 0.6972(3)
C9 C 0.1207(2) 0.0644(2) 0.8081(3)
C10 C 0.1625(2) -0.0319(2) 0.8689(4)
C11 C 0.0335(2) 0.0528(3) 0.7318(4)
C12 C -0.0068(2) 0.1478(3) 0.6808(4)
C13 C 0.0368(2) 0.2013(3) 0.5706(4)
C14 C 0.1238(2) 0.2146(3) 0.6435(4)
C15 C 0.1223(2) -0.0697(3) 1.0027(5)
C16 C 0.4786(2) 0.0587(2) 0.7116(3)
C17 C 0.5234(2) 0.1140(2) 0.6186(3)
C18 C 0.5973(2) 0.0838(2) 0.5934(3)
C19 C 0.6287(2) -0.0010(2) 0.6599(3)
C20 C 0.5878(2) -0.0566(2) 0.7523(3)
C21 C 0.5148(2) -0.0290(2) 0.7798(3)
N3 N 0.4928(1) 0.2025(2) 0.5408(3)
O1 O 0.4266(1) 0.2327(2) 0.5588(3)
O2 O 0.5327(1) 0.2450(2) 0.4564(3)
N4 N 0.7067(2) -0.0316(2) 0.6325(3)
O3 O 0.7307(1) -0.1126(2) 0.6761(3)
O4 O 0.7460(1) 0.0249(2) 0.5687(3)
H1 H 0.38190 0.15470 0.69230
H2 H 0.10810 -0.10810 0.66660
H3 H 0.20110 -0.21340 0.63820
H4 H 0.32970 -0.15970 0.77350
H5 H 0.29630 -0.24300 0.86430
H6 H 0.35030 -0.10020 1.01230
H7 H 0.27290 -0.14580 1.05200
H8 H 0.25400 0.01850 1.03160
H9 H 0.27730 0.16540 0.69250
H10 H 0.25180 0.18330 0.85400
H11 H 0.16450 0.07870 0.60790
H12 H 0.12180 0.10170 0.90100
H13 H 0.00580 0.02280 0.80550
H14 H 0.03080 0.01210 0.64210
H15 H -0.00800 0.18700 0.77090
H16 H -0.05960 0.13520 0.62900
H17 H 0.01300 0.26340 0.54820
H18 H 0.03330 0.16520 0.47580
H19 H 0.15060 0.24360 0.56770
H20 H 0.12690 0.25640 0.73190
H21 H 0.12640 -0.02210 1.08340
H22 H 0.06760 -0.08260 0.96330
H23 H 0.14770 -0.12790 1.04400
H24 H 0.62610 0.12160 0.53020
H25 H 0.61100 -0.11510 0.79750
H26 H 0.48770 -0.06810 0.84430
#END
