
#######################################################################
#
#                 Cambridge Crystallographic Data Centre
#                                CCDC
#
#######################################################################
#
# If this CIF has been generated from an entry in the Cambridge
# Structural Database, then it will include bibliographic, chemical,
# crystal, experimental, refinement or atomic coordinate data resulting
# from the CCDC's data processing and validation procedures.
#
#######################################################################

data_CSD_CIF_LIDROG
_audit_creation_date 2007-10-04
_audit_creation_method CSD-ConQuest-V1
_database_code_CSD LIDROG
_database_code_depnum_ccdc_archive 'CCDC 626925'
_database_code_depnum_ccdc_journal 1267/1943
_chemical_formula_sum 'C34 H52 N2 O4'
_chemical_formula_moiety
;
C34 H52 N2 O4
;
_journal_coden_Cambridge 1267
_journal_volume 222
_journal_year 2007
_journal_page_first 50
_journal_name_full 'Z.Kristallogr.-New Cryst.Struct. '
loop_
_publ_author_name
"Wen-Kui Dong"
"Jian-Hua Feng"
"Xiao-Qing Yang"
_chemical_name_systematic
;
4,4',6,6'-Tetra(t-butyl)-2,2'-((1,4-butylene)dioxybis(nitrilomethylidyne))diph
enol
;
_chemical_melting_point 409.15
_cell_volume   1682.687
_exptl_crystal_colour 'colorless'
_exptl_crystal_density_diffrn 1.091
_exptl_special_details
;
Melting point range 409.15-410.15K

;
_exptl_crystal_description 'block'
_exptl_crystal_preparation 'ethanol'
_diffrn_ambient_temperature 298
_refine_special_details
;
One independent t-butyl group is disordered over two sites with occupancy 
0.76:0.24.
;
#These two values have been output from a single CSD field.
_refine_ls_R_factor_gt 0.0676
_refine_ls_wR_factor_gt 0.0676
_symmetry_cell_setting monoclinic
_symmetry_space_group_name_H-M 'P 21/c'
_symmetry_Int_Tables_number 14
loop_
_symmetry_equiv_pos_site_id
_symmetry_equiv_pos_as_xyz
1 x,y,z
2 -x,1/2+y,1/2-z
3 -x,-y,-z
4 x,-1/2-y,-1/2+z
_cell_length_a 15.166(3)
_cell_length_b 9.981(2)
_cell_length_c 11.899(3)
_cell_angle_alpha 90
_cell_angle_beta 110.898(3)
_cell_angle_gamma 90
_cell_formula_units_Z 2
loop_
_atom_type_symbol
_atom_type_radius_bond
C 0.68
H 0.23
N 0.68
O 0.68
loop_
_atom_site_label
_atom_site_type_symbol
_atom_site_fract_x
_atom_site_fract_y
_atom_site_fract_z
N1 N 0.3972(2) 1.6780(3) 0.5436(3)
O1 O 0.4646(2) 1.6976(3) 0.4887(3)
O2 O 0.2634(2) 1.7235(2) 0.6306(3)
H1 H 0.30670 1.74220 0.60740
C1 C 0.4535(4) 1.8311(5) 0.4383(5)
H2 H 0.38690 1.85370 0.40540
H3 H 0.47780 1.83350 0.37320
C2 C 0.5031(4) 1.9289(4) 0.5288(5)
H4 H 0.56870 1.90270 0.56610
H5 H 0.47550 1.93150 0.59090
C3 C 0.3956(3) 1.5557(4) 0.5736(4)
H6 H 0.43980 1.49660 0.56380
C4 C 0.3265(2) 1.5058(4) 0.6228(3)
C5 C 0.2609(3) 1.5884(3) 0.6459(3)
C6 C 0.1920(3) 1.5354(4) 0.6851(3)
C7 C 0.1931(3) 1.3975(4) 0.7004(3)
H7 H 0.14720 1.36030 0.72600
C8 C 0.2577(3) 1.3108(4) 0.6801(3)
C9 C 0.3239(3) 1.3687(3) 0.6412(3)
H8 H 0.36850 1.31430 0.62670
C10 C 0.1187(3) 1.6243(4) 0.7096(4)
C11 C 0.1675(4) 1.7223(5) 0.8112(4)
H9 H 0.20180 1.67320 0.88290
H10 H 0.12100 1.77770 0.82580
H11 H 0.21040 1.77750 0.78880
C12 C 0.0607(3) 1.7004(5) 0.5954(4)
H12 H 0.10220 1.75260 0.56780
H13 H 0.01690 1.75880 0.61270
H14 H 0.02670 1.63770 0.53400
C13 C 0.0490(3) 1.5418(5) 0.7485(5)
H15 H 0.01530 1.48110 0.68520
H16 H 0.00520 1.60090 0.76490
H17 H 0.08310 1.49180 0.81970
C14 C 0.2520(3) 1.1599(4) 0.6968(4)
C15 C 0.3342(6) 1.0841(7) 0.6866(12)
H18 H 0.33030 0.99190 0.70740
H19 H 0.39200 1.12230 0.74040
H20 H 0.33300 1.08970 0.60550
C16 C 0.1601(6) 1.1077(7) 0.6051(7)
H21 H 0.10770 1.15340 0.61520
H22 H 0.15490 1.01330 0.61690
H23 H 0.15970 1.12340 0.52530
C17 C 0.2492(7) 1.1329(8) 0.8233(7)
H24 H 0.19530 1.17670 0.83090
H25 H 0.30570 1.16720 0.88310
H26 H 0.24500 1.03820 0.83450
C18? C 0.190(2) 1.120(3) 0.766(3)
H27? H 0.21040 1.03460 0.80380
H28? H 0.12590 1.11410 0.71260
H29? H 0.19540 1.18600 0.82710
C19? C 0.3512(14) 1.109(2) 0.774(3)
H30? H 0.35000 1.01340 0.78050
H31? H 0.36990 1.14840 0.85260
H32? H 0.39540 1.13420 0.73640
C20? C 0.229(3) 1.094(2) 0.5723(17)
H33? H 0.27800 1.11530 0.54160
H34? H 0.16990 1.12760 0.51810
H35? H 0.22530 0.99880 0.57980
N1B N 0.6028(2) 2.3220(3) 0.4564(3)
O1B O 0.5354(2) 2.3024(3) 0.5113(3)
O2B O 0.7366(2) 2.2765(2) 0.3694(3)
H1B H 0.69330 2.25780 0.39260
C1B C 0.5465(4) 2.1689(5) 0.5617(5)
H2B H 0.61310 2.14630 0.59460
H3B H 0.52220 2.16650 0.62680
C2B C 0.4969(4) 2.0711(4) 0.4712(5)
H4B H 0.43130 2.09730 0.43390
H5B H 0.52450 2.06850 0.40910
C3B C 0.6044(3) 2.4443(4) 0.4264(4)
H6B H 0.56020 2.50340 0.43620
C4B C 0.6735(2) 2.4942(4) 0.3772(3)
C5B C 0.7391(3) 2.4116(3) 0.3541(3)
C6B C 0.8080(3) 2.4646(4) 0.3149(3)
C7B C 0.8069(3) 2.6025(4) 0.2996(3)
H7B H 0.85280 2.63970 0.27400
C8B C 0.7423(3) 2.6892(4) 0.3199(3)
C9B C 0.6761(3) 2.6313(3) 0.3588(3)
H8B H 0.63150 2.68570 0.37330
C10B C 0.8813(3) 2.3757(4) 0.2904(4)
C11B C 0.8325(4) 2.2777(5) 0.1888(4)
H9B H 0.79820 2.32680 0.11710
H10B H 0.87900 2.22230 0.17420
H11B H 0.78960 2.22250 0.21120
C12B C 0.9393(3) 2.2996(5) 0.4046(4)
H12B H 0.89780 2.24740 0.43220
H13B H 0.98310 2.24120 0.38730
H14B H 0.97330 2.36230 0.46600
C13B C 0.9510(3) 2.4582(5) 0.2515(5)
H15B H 0.98470 2.51890 0.31480
H16B H 0.99480 2.39910 0.23510
H17B H 0.91690 2.50820 0.18030
C14B C 0.7480(3) 2.8401(4) 0.3032(4)
C15B C 0.6658(6) 2.9159(7) 0.3134(12)
H18B H 0.66970 3.00810 0.29260
H19B H 0.60800 2.87770 0.25960
H20B H 0.66700 2.91030 0.39450
C16B C 0.8399(6) 2.8923(7) 0.3949(7)
H21B H 0.89230 2.84660 0.38480
H22B H 0.84510 2.98670 0.38310
H23B H 0.84030 2.87660 0.47470
C17B C 0.7508(7) 2.8671(8) 0.1767(7)
H24B H 0.80470 2.82330 0.16910
H25B H 0.69430 2.83280 0.11690
H26B H 0.75500 2.96180 0.16550
#END
