
#######################################################################
#
#                 Cambridge Crystallographic Data Centre
#                                CCDC
#
#######################################################################
#
# If this CIF has been generated from an entry in the Cambridge
# Structural Database, then it will include bibliographic, chemical,
# crystal, experimental, refinement or atomic coordinate data resulting
# from the CCDC's data processing and validation procedures.
#
#######################################################################

data_CSD_CIF_LIDTAU
_audit_creation_date 2007-10-04
_audit_creation_method CSD-ConQuest-V1
_database_code_CSD LIDTAU
_database_code_depnum_ccdc_archive 'CCDC 652345'
_database_code_depnum_ccdc_journal 1267/1955
_chemical_formula_sum 'C20 H16 N2 O5'
_chemical_formula_moiety
;
C20 H16 N2 O5
;
_journal_coden_Cambridge 1267
_journal_volume 222
_journal_year 2007
_journal_page_first 73
_journal_name_full 'Z.Kristallogr.-New Cryst.Struct. '
loop_
_publ_author_name
"Zhen-Hua Li"
"Jian-Jun Li"
"Ping Wang"
_chemical_name_systematic
;
(2E,6E)-2,6-bis(3-Nitrobenzylidene)cyclohexanone
;
_chemical_melting_point 461
_cell_volume   1681.693
_exptl_crystal_colour 'colorless'
_exptl_crystal_density_diffrn 1.439
_exptl_special_details
;
Melting point range 461-463K

;
_exptl_crystal_description 'block'
_exptl_crystal_preparation 'ethanol'
_diffrn_ambient_temperature 298
#These two values have been output from a single CSD field.
_refine_ls_R_factor_gt 0.0807
_refine_ls_wR_factor_gt 0.0807
_symmetry_cell_setting monoclinic
_symmetry_space_group_name_H-M 'P 21/c'
_symmetry_Int_Tables_number 14
loop_
_symmetry_equiv_pos_site_id
_symmetry_equiv_pos_as_xyz
1 x,y,z
2 -x,1/2+y,1/2-z
3 -x,-y,-z
4 x,-1/2-y,-1/2+z
_cell_length_a 7.6586(15)
_cell_length_b 12.168(3)
_cell_length_c 18.305(4)
_cell_angle_alpha 90
_cell_angle_beta 99.652(5)
_cell_angle_gamma 90
_cell_formula_units_Z 4
loop_
_atom_type_symbol
_atom_type_radius_bond
C 0.68
H 0.23
N 0.68
O 0.68
loop_
_atom_site_label
_atom_site_type_symbol
_atom_site_fract_x
_atom_site_fract_y
_atom_site_fract_z
O1 O 0.4256(4) -0.0751(2) 0.44142(17)
O2 O 0.2389(5) -0.1770(2) 0.37350(17)
O3 O 0.2611(3) 0.53412(17) 0.40078(12)
O4 O 0.1410(4) 1.0249(2) 0.57269(17)
O5 O 0.2802(4) 1.0716(2) 0.67963(17)
N1 N 0.3030(5) -0.0880(2) 0.39181(17)
N2 N 0.2341(4) 1.0035(2) 0.6313(2)
C1 C 0.2237(4) 0.0095(2) 0.35147(17)
C2 C 0.2560(4) 0.1112(2) 0.38373(17)
H1 H 0.32700 0.11800 0.43000
C3 C 0.1811(4) 0.2037(2) 0.34644(16)
C4 C 0.0818(4) 0.1887(3) 0.27604(18)
H2 H 0.03540 0.25000 0.24910
C5 C 0.0505(4) 0.0861(3) 0.24525(19)
H3 H -0.01930 0.07850 0.19880
C6 C 0.1221(5) -0.0050(3) 0.28306(18)
H4 H 0.10210 -0.07480 0.26280
C7 C 0.2050(4) 0.3163(2) 0.37521(17)
H5 H 0.19690 0.37080 0.33920
C8 C 0.2364(4) 0.3526(2) 0.44493(17)
C9 C 0.2603(4) 0.4746(2) 0.45467(18)
C10 C 0.2852(4) 0.5223(2) 0.53119(17)
C11 C 0.2943(5) 0.4452(2) 0.59584(18)
H6 H 0.25240 0.48280 0.63630
H7 H 0.41670 0.42430 0.61270
C12 C 0.1842(4) 0.3427(2) 0.57606(18)
H8 H 0.06070 0.36290 0.56180
H9 H 0.19430 0.29490 0.61900
C13 C 0.2461(4) 0.2817(2) 0.51273(17)
H10 H 0.36720 0.25750 0.52830
H11 H 0.17300 0.21700 0.50060
C14 C 0.2953(4) 0.6323(3) 0.53559(17)
H12 H 0.28360 0.66780 0.49000
C15 C 0.3214(4) 0.7062(2) 0.59965(17)
C16 C 0.2649(4) 0.8149(2) 0.58828(18)
H13 H 0.20840 0.83720 0.54170
C17 C 0.2926(4) 0.8891(3) 0.64570(19)
C18 C 0.3735(4) 0.8599(3) 0.7156(2)
H14 H 0.38920 0.91100 0.75390
C19 C 0.4307(5) 0.7537(3) 0.72768(19)
H15 H 0.48600 0.73240 0.77470
C20 C 0.4066(4) 0.6782(3) 0.67055(18)
H16 H 0.44820 0.60690 0.67960
#END
