
#######################################################################
#
#                 Cambridge Crystallographic Data Centre
#                                CCDC
#
#######################################################################
#
# If this CIF has been generated from an entry in the Cambridge
# Structural Database, then it will include bibliographic, chemical,
# crystal, experimental, refinement or atomic coordinate data resulting
# from the CCDC's data processing and validation procedures.
#
#######################################################################

data_CSD_CIF_LIFJOB
_audit_creation_date 2013-05-26
_audit_creation_method CSD-ConQuest-V1
_database_code_CSD LIFJOB
_database_code_depnum_ccdc_archive 'CCDC 803574'
_chemical_formula_sum 'C19 H17 N3 O2'
_chemical_formula_moiety
;
C19 H17 N3 O2
;
_journal_coden_Cambridge 16
_journal_volume 69
_journal_year 2013
_journal_page_first 2775
_journal_name_full 'Tetrahedron '
loop_
_publ_author_name
"Wei-Zhe Chen"
"Hao-Yi Wei"
"Ding-Yah Yang"
_chemical_name_systematic
;
1,2-Dimethyl-2-(4-nitrophenyl)-2,3-dihydro-1H-perimidine
;
_cell_volume   1568.979
_exptl_crystal_colour 'orange'
_exptl_crystal_density_diffrn 1.352
_exptl_crystal_description 'parallelepiped'
_diffrn_ambient_temperature 297
#These two values have been output from a single CSD field.
_refine_ls_R_factor_gt 0.0533
_refine_ls_wR_factor_gt 0.0533
_symmetry_cell_setting monoclinic
_symmetry_space_group_name_H-M 'P 21/n'
_symmetry_Int_Tables_number 14
loop_
_symmetry_equiv_pos_site_id
_symmetry_equiv_pos_as_xyz
1 x,y,z
2 1/2-x,1/2+y,1/2-z
3 -x,-y,-z
4 -1/2+x,-1/2-y,-1/2+z
_cell_length_a 11.7911(12)
_cell_length_b 8.1245(8)
_cell_length_c 16.4283(16)
_cell_angle_alpha 90
_cell_angle_beta 94.476(2)
_cell_angle_gamma 90
_cell_formula_units_Z 4
loop_
_atom_type_symbol
_atom_type_radius_bond
C 0.68
H 0.23
N 0.68
O 0.68
loop_
_atom_site_label
_atom_site_type_symbol
_atom_site_fract_x
_atom_site_fract_y
_atom_site_fract_z
O1 O 0.6844(2) -0.3536(3) 0.63193(14)
O2 O 0.5228(2) -0.3373(4) 0.56557(17)
N1 N 0.90389(18) 0.1051(3) 0.33567(13)
H1 H 0.884(2) 0.009(4) 0.3079(16)
N2 N 0.84751(17) 0.3245(2) 0.41727(12)
N3 N 0.6212(2) -0.2981(3) 0.57748(16)
C1 C 0.9763(2) 0.2030(3) 0.29366(14)
C2 C 1.0405(2) 0.1419(4) 0.23437(16)
H2 H 1.03300 0.03230 0.21840
C3 C 1.1169(2) 0.2445(5) 0.19806(17)
H3 H 1.16060 0.20170 0.15830
C4 C 1.1291(2) 0.4058(5) 0.21938(17)
H4 H 1.17980 0.47200 0.19360
C5 C 1.0644(2) 0.4733(4) 0.28096(16)
C6 C 1.0744(2) 0.6403(4) 0.30657(19)
H5 H 1.12340 0.71100 0.28200
C7 C 1.0123(3) 0.6961(4) 0.36690(19)
H6 H 1.02070 0.80490 0.38380
C8 C 0.9358(2) 0.5948(3) 0.40444(16)
H7 H 0.89420 0.63740 0.44540
C9 C 0.9213(2) 0.4320(3) 0.38117(14)
C10 C 0.9868(2) 0.3709(3) 0.31821(14)
C11 C 0.8036(2) 0.1840(3) 0.36597(14)
C12 C 0.7518(2) 0.0567(3) 0.42053(13)
C13 C 0.6439(2) -0.0096(4) 0.40394(16)
H8 H 0.59930 0.02490 0.35790
C14 C 0.6020(2) -0.1262(4) 0.45493(17)
H9 H 0.52970 -0.17020 0.44330
C15 C 0.6675(2) -0.1762(3) 0.52225(15)
C16 C 0.7760(2) -0.1166(3) 0.54049(15)
H10 H 0.82010 -0.15360 0.58620
C17 C 0.8174(2) -0.0009(3) 0.48917(15)
H11 H 0.89060 0.03990 0.50050
C18 C 0.7650(2) 0.3994(4) 0.46813(17)
H12 H 0.80040 0.48860 0.49890
H13 H 0.73910 0.31830 0.50490
H14 H 0.70150 0.44020 0.43400
C19 C 0.7204(2) 0.2443(3) 0.29609(15)
H15 H 0.75770 0.32360 0.26400
H16 H 0.65580 0.29450 0.31820
H17 H 0.69570 0.15280 0.26230
#END
