
#######################################################################
#
#                 Cambridge Crystallographic Data Centre
#                                CCDC
#
#######################################################################
#
# If this CIF has been generated from an entry in the Cambridge
# Structural Database, then it will include bibliographic, chemical,
# crystal, experimental, refinement or atomic coordinate data resulting
# from the CCDC's data processing and validation procedures.
#
#######################################################################

data_CSD_CIF_LIFJIV
_audit_creation_date 2013-05-26
_audit_creation_method CSD-ConQuest-V1
_database_code_CSD LIFJIV
_database_code_depnum_ccdc_archive 'CCDC 803575'
_chemical_formula_sum 'C20 H19 N3 O2'
_chemical_formula_moiety
;
C20 H19 N3 O2
;
_journal_coden_Cambridge 16
_journal_volume 69
_journal_year 2013
_journal_page_first 2775
_journal_name_full 'Tetrahedron '
loop_
_publ_author_name
"Wei-Zhe Chen"
"Hao-Yi Wei"
"Ding-Yah Yang"
_chemical_name_systematic
;
1,2,3-Trimethyl-2-(4-nitrophenyl)-2,3-dihydro-1H-perimidine
;
_cell_volume   1687.636
_exptl_crystal_colour 'red'
_exptl_crystal_density_diffrn 1.312
_exptl_crystal_description 'parallelepiped'
_diffrn_ambient_temperature 297
#These two values have been output from a single CSD field.
_refine_ls_R_factor_gt 0.0536
_refine_ls_wR_factor_gt 0.0536
_symmetry_cell_setting monoclinic
_symmetry_space_group_name_H-M 'P 21/n'
_symmetry_Int_Tables_number 14
loop_
_symmetry_equiv_pos_site_id
_symmetry_equiv_pos_as_xyz
1 x,y,z
2 1/2-x,1/2+y,1/2-z
3 -x,-y,-z
4 -1/2+x,-1/2-y,-1/2+z
_cell_length_a 9.8616(3)
_cell_length_b 16.7108(5)
_cell_length_c 10.4680(3)
_cell_angle_alpha 90
_cell_angle_beta 101.959(3)
_cell_angle_gamma 90
_cell_formula_units_Z 4
loop_
_atom_type_symbol
_atom_type_radius_bond
C 0.68
H 0.23
N 0.68
O 0.68
loop_
_atom_site_label
_atom_site_type_symbol
_atom_site_fract_x
_atom_site_fract_y
_atom_site_fract_z
O1 O 0.9204(2) 0.00769(15) 0.3766(2)
O2 O 0.8227(2) 0.03489(12) 0.1842(2)
N1 N 0.30641(15) 0.20756(8) 0.44485(15)
N2 N 0.43802(14) 0.31929(8) 0.39690(15)
N3 N 0.83408(19) 0.0420(1) 0.3005(2)
C1 C 0.19046(17) 0.25527(10) 0.44521(17)
C2 C 0.06805(19) 0.22654(11) 0.47120(19)
H1 H 0.06260 0.17360 0.49720
C3 C -0.0482(2) 0.27621(13) 0.4588(2)
H2 H -0.12990 0.25560 0.47650
C4 C -0.04438(19) 0.35391(13) 0.4214(2)
H3 H -0.12310 0.38570 0.41340
C5 C 0.07880(19) 0.38634(10) 0.39496(18)
C6 C 0.0871(2) 0.46656(12) 0.3547(2)
H4 H 0.01010 0.49980 0.34590
C7 C 0.2067(2) 0.49523(11) 0.3288(2)
H5 H 0.20960 0.54780 0.30060
C8 C 0.3261(2) 0.44815(10) 0.34326(19)
H6 H 0.40730 0.46970 0.32580
C9 C 0.32335(18) 0.36926(9) 0.38369(16)
C10 C 0.19794(17) 0.33729(10) 0.40863(16)
C11 C 0.44353(17) 0.24731(9) 0.47928(17)
C12 C 0.54877(18) 0.19033(9) 0.43723(17)
C13 C 0.64860(19) 0.14893(11) 0.52523(18)
H7 H 0.65300 0.15460 0.61440
C14 C 0.7426(2) 0.09883(11) 0.48128(19)
H8 H 0.80890 0.07030 0.53990
C15 C 0.73444(19) 0.09288(10) 0.34910(19)
C16 C 0.63667(19) 0.13289(11) 0.25925(19)
H9 H 0.63360 0.12770 0.17020
C17 C 0.54313(19) 0.18096(10) 0.30449(18)
H10 H 0.47500 0.20760 0.24490
C18 C 0.2996(2) 0.12627(11) 0.4946(3)
H11 H 0.20710 0.10600 0.46730
H12 H 0.32450 0.12690 0.58820
H13 H 0.36280 0.09260 0.46090
C19 C 0.4789(2) 0.26903(12) 0.6233(2)
H14 H 0.40940 0.30440 0.64300
H15 H 0.56760 0.29510 0.64300
H16 H 0.48220 0.22130 0.67480
C20 C 0.5705(2) 0.35943(12) 0.3999(3)
H17 H 0.55590 0.40540 0.34380
H18 H 0.63300 0.32320 0.37030
H19 H 0.60970 0.37600 0.48760
#END
