
#######################################################################
#
#                 Cambridge Crystallographic Data Centre
#                                CCDC
#
#######################################################################
#
# If this CIF has been generated from an entry in the Cambridge
# Structural Database, then it will include bibliographic, chemical,
# crystal, experimental, refinement or atomic coordinate data resulting
# from the CCDC's data processing and validation procedures.
#
#######################################################################

data_CSD_CIF_LIFKAO
_audit_creation_date 2013-05-26
_audit_creation_method CSD-ConQuest-V1
_database_code_CSD LIFKAO
_database_code_depnum_ccdc_archive 'CCDC 803571'
_chemical_formula_sum 'C20 H19 N3 O2'
_chemical_formula_moiety
;
C20 H19 N3 O2
;
_journal_coden_Cambridge 16
_journal_volume 69
_journal_year 2013
_journal_page_first 2775
_journal_name_full 'Tetrahedron '
loop_
_publ_author_name
"Wei-Zhe Chen"
"Hao-Yi Wei"
"Ding-Yah Yang"
_chemical_name_systematic
;
1,2,3-Trimethyl-2-(2-nitrophenyl)-2,3-dihydro-1H-perimidine
;
_cell_volume   1715.619
_exptl_crystal_colour 'gold'
_exptl_crystal_density_diffrn 1.291
_exptl_crystal_description 'parallelepiped'
_diffrn_ambient_temperature 297
#These two values have been output from a single CSD field.
_refine_ls_R_factor_gt 0.0858
_refine_ls_wR_factor_gt 0.0858
_symmetry_cell_setting orthorhombic
_symmetry_space_group_name_H-M 'P n m a'
_symmetry_Int_Tables_number 62
loop_
_symmetry_equiv_pos_site_id
_symmetry_equiv_pos_as_xyz
1 x,y,z
2 1/2-x,-y,1/2+z
3 -x,1/2+y,-z
4 1/2+x,1/2-y,1/2-z
5 -x,-y,-z
6 -1/2+x,y,-1/2-z
7 x,-1/2-y,z
8 -1/2-x,-1/2+y,-1/2+z
_cell_length_a 15.014(2)
_cell_length_b 12.196(2)
_cell_length_c 9.3693(15)
_cell_angle_alpha 90
_cell_angle_beta 90
_cell_angle_gamma 90
_cell_formula_units_Z 4
loop_
_atom_type_symbol
_atom_type_radius_bond
C 0.68
H 0.23
N 0.68
O 0.68
loop_
_atom_site_label
_atom_site_type_symbol
_atom_site_fract_x
_atom_site_fract_y
_atom_site_fract_z
N1 N 0.3164(2) 0.1519(3) 0.5929(3)
N2 N 0.3867(4) 0.25000 0.8632(5)
O1 O 0.4234(3) 0.1636(6) 0.8638(6)
C1 C 0.3936(3) 0.25000 0.4061(6)
C2 C 0.4488(4) 0.25000 0.2818(6)
C3 C 0.4766(3) 0.1471(10) 0.2257(6)
H1 H 0.51290 0.14520 0.14530
C4 C 0.4516(4) 0.0541(9) 0.2866(9)
H2 H 0.47080 -0.01200 0.24780
C5 C 0.3964(3) 0.0525(6) 0.4090(6)
H3 H 0.37970 -0.01410 0.44940
C6 C 0.3675(2) 0.1490(5) 0.4683(4)
C7 C 0.2604(3) 0.25000 0.6145(5)
C8 C 0.2302(3) 0.25000 0.7705(5)
C9 C 0.1412(3) 0.25000 0.8070(6)
H4 H 0.09860 0.25000 0.73490
C10 C 0.1136(4) 0.25000 0.9474(7)
H5 H 0.05310 0.25000 0.96810
C11 C 0.1742(4) 0.25000 1.0569(6)
H6 H 0.15530 0.25000 1.15130
C12 C 0.2622(4) 0.25000 1.0250(6)
H7 H 0.30410 0.25000 1.09800
C13 C 0.2896(3) 0.25000 0.8852(5)
C14 C 0.2794(4) 0.0473(5) 0.6425(6)
H8 H 0.32110 -0.01060 0.62340
H9 H 0.22460 0.03280 0.59320
H10 H 0.26830 0.05130 0.74330
C15 C 0.1815(4) 0.25000 0.5111(7)
H11 H 0.20300 0.25000 0.41470
H12 H 0.14590 0.18570 0.52700
N1F N 0.3164(2) 0.3481(3) 0.5929(3)
O1F O 0.4234(3) 0.3364(6) 0.8638(6)
C3F C 0.4766(3) 0.3529(10) 0.2257(6)
H1F H 0.51290 0.35480 0.14530
C4F C 0.4516(4) 0.4459(9) 0.2866(9)
H2F H 0.47080 0.51200 0.24780
C5F C 0.3964(3) 0.4475(6) 0.4090(6)
H3F H 0.37970 0.51410 0.44940
C6F C 0.3675(2) 0.3510(5) 0.4683(4)
C14F C 0.2794(4) 0.4527(5) 0.6425(6)
H8F H 0.32110 0.51060 0.62340
H9F H 0.22460 0.46720 0.59320
H10F H 0.26830 0.44870 0.74330
H12F H 0.14590 0.31430 0.52700
#END
