
#######################################################################
#
#                 Cambridge Crystallographic Data Centre
#                                CCDC
#
#######################################################################
#
# If this CIF has been generated from an entry in the Cambridge
# Structural Database, then it will include bibliographic, chemical,
# crystal, experimental, refinement or atomic coordinate data resulting
# from the CCDC's data processing and validation procedures.
#
#######################################################################

data_CSD_CIF_LIGGAL
_audit_creation_date 2013-05-26
_audit_creation_method CSD-ConQuest-V1
_database_code_CSD LIGGAL
_database_code_depnum_ccdc_archive 'CCDC 794287'
_chemical_formula_sum 'C20 H29 N1 O4'
_chemical_formula_moiety
;
C20 H29 N1 O4
;
_journal_coden_Cambridge 200
_journal_volume 76
_journal_year 2011
_journal_page_first 695
_journal_name_full 'Steroids '
loop_
_publ_author_name
"N.Galy"
"M.Santelli"
_chemical_name_systematic
;
1-(2,3-Dimethoxy-2-(4-vinylcyclohexyl)butyl)-4-nitrobenzene
;
_cell_volume    954.533
_exptl_crystal_colour 'colorless'
_exptl_crystal_density_diffrn 1.209
_exptl_crystal_description 'prism'
_diffrn_ambient_temperature 293
#These two values have been output from a single CSD field.
_refine_ls_R_factor_gt 0.0981
_refine_ls_wR_factor_gt 0.0981
_symmetry_cell_setting triclinic
_symmetry_space_group_name_H-M 'P -1'
_symmetry_Int_Tables_number 2
loop_
_symmetry_equiv_pos_site_id
_symmetry_equiv_pos_as_xyz
1 x,y,z
2 -x,-y,-z
_cell_length_a 7.1830(3)
_cell_length_b 10.2300(5)
_cell_length_c 14.0460(8)
_cell_angle_alpha 87.263(2)
_cell_angle_beta 77.635(2)
_cell_angle_gamma 71.267(5)
_cell_formula_units_Z 2
loop_
_atom_type_symbol
_atom_type_radius_bond
C 0.68
H 0.23
N 0.68
O 0.68
loop_
_atom_site_label
_atom_site_type_symbol
_atom_site_fract_x
_atom_site_fract_y
_atom_site_fract_z
O1 O 0.9482(3) 0.3624(2) 0.19806(16)
O2 O 0.4498(4) 0.3818(3) 0.33189(19)
O3 O 1.3572(5) 0.1259(4) 0.5916(2)
O4 O 1.0671(6) 0.1679(4) 0.6856(2)
N1 N 1.1762(6) 0.1519(3) 0.6046(2)
C1 C 0.7619(5) 0.3253(3) 0.2198(2)
C2 C 0.8228(5) 0.1866(3) 0.2714(2)
H1 H 0.91560 0.12200 0.22230
H2 H 0.70100 0.16320 0.29030
C3 C 0.9132(5) 0.1810(3) 0.3590(2)
C4 C 0.7992(5) 0.1845(3) 0.4530(2)
H3 H 0.65960 0.19250 0.46260
C5 C 0.8836(5) 0.1758(3) 0.5339(2)
H4 H 0.80410 0.17990 0.59870
C6 C 1.0828(5) 0.1625(3) 0.5205(2)
C7 C 1.2029(5) 0.1552(4) 0.4280(3)
H5 H 1.34280 0.14500 0.42080
C8 C 1.1148(5) 0.1648(3) 0.3486(2)
H6 H 1.19790 0.15930 0.28450
C9 C 0.7009(5) 0.3043(3) 0.1230(2)
H7 H 0.66280 0.39570 0.09770
C10 C 0.8794(6) 0.2167(5) 0.0464(3)
H8 H 0.98590 0.25670 0.03590
H9 H 0.92650 0.12450 0.06950
C11 C 0.8170(7) 0.2113(6) -0.0507(3)
H10 H 0.77560 0.30250 -0.07600
H11 H 0.92940 0.15320 -0.09630
C12 C 0.6472(7) 0.1556(4) -0.0407(3)
H12 H 0.69650 0.06220 -0.02040
C13 C 0.4694(7) 0.2368(5) 0.0366(3)
H13 H 0.36880 0.19160 0.04570
H14 H 0.41670 0.32820 0.01330
C14 C 0.5283(6) 0.2473(5) 0.1338(3)
H15 H 0.56610 0.15610 0.15960
H16 H 0.41350 0.30610 0.17770
C15 C 0.5976(6) 0.4409(3) 0.2844(2)
H17 H 0.54020 0.50860 0.24020
C16 C 0.6679(6) 0.5114(4) 0.3574(3)
H18 H 0.55490 0.58210 0.39360
H19 H 0.76530 0.55210 0.32280
H20 H 0.72760 0.44430 0.40140
C17 C 0.2552(7) 0.4813(5) 0.3608(4)
H21 H 0.25230 0.53400 0.41610
H22 H 0.15610 0.43490 0.37770
H23 H 0.22620 0.54200 0.30780
C18 C 0.9479(7) 0.4822(5) 0.1448(3)
H24 H 0.98090 0.45990 0.07630
H25 H 1.04530 0.51880 0.16060
H26 H 0.81670 0.54970 0.16100
C19 C 0.5973(11) 0.1424(6) -0.1374(4)
H27 H 0.70400 0.11850 -0.19430
C20 C 0.4600(15) 0.1549(7) -0.1661(6)
H28 H 0.46320 0.14140 -0.23370
H29 H 0.33430 0.17910 -0.11970
#END
