
#######################################################################
#
#                 Cambridge Crystallographic Data Centre
#                                CCDC
#
#######################################################################
#
# If this CIF has been generated from an entry in the Cambridge
# Structural Database, then it will include bibliographic, chemical,
# crystal, experimental, refinement or atomic coordinate data resulting
# from the CCDC's data processing and validation procedures.
#
#######################################################################

data_CSD_CIF_LIGTOL
_audit_creation_date 2007-10-04
_audit_creation_method CSD-ConQuest-V1
_database_code_CSD LIGTOL
_database_code_depnum_ccdc_archive 'CCDC 631092'
_chemical_formula_sum 'C20 H23 N1 O6'
_chemical_formula_moiety
;
C20 H23 N1 O6
;
_journal_coden_Cambridge 16
_journal_volume 63
_journal_year 2007
_journal_page_first 5903
_journal_name_full 'Tetrahedron '
loop_
_publ_author_name
"A.Siwicka"
"D.Cuperly"
"L.Tedeschi"
"R.Le Vezouet"
"A.J.P.White"
"A.G.M.Barrett"
_chemical_name_systematic
;
(1RS,6RS,8SR,9SR)-6-Hydroxy-10,10-dimethyl-11-oxatricyclo(7.2.1.0^1,6^)dodec-3
-en-8-yl 4-nitrobenzoate
;
_chemical_melting_point 458.15
_cell_volume   1820.571
_exptl_crystal_colour 'colorless'
_exptl_crystal_density_diffrn 1.362
_exptl_special_details
;
Melting point range 458.15-460.15K

;
_exptl_crystal_description 'prismatic needles'
_diffrn_ambient_temperature 173
#These two values have been output from a single CSD field.
_refine_ls_R_factor_gt 0.0886
_refine_ls_wR_factor_gt 0.0886
_symmetry_cell_setting monoclinic
_symmetry_space_group_name_H-M 'P 21/c'
_symmetry_Int_Tables_number 14
loop_
_symmetry_equiv_pos_site_id
_symmetry_equiv_pos_as_xyz
1 x,y,z
2 -x,1/2+y,1/2-z
3 -x,-y,-z
4 x,-1/2-y,-1/2+z
_cell_length_a 10.0695(6)
_cell_length_b 13.8584(9)
_cell_length_c 13.4105(8)
_cell_angle_alpha 90
_cell_angle_beta 103.384(5)
_cell_angle_gamma 90
_cell_formula_units_Z 4
loop_
_atom_type_symbol
_atom_type_radius_bond
C 0.68
H 0.23
N 0.68
O 0.68
loop_
_atom_site_label
_atom_site_type_symbol
_atom_site_fract_x
_atom_site_fract_y
_atom_site_fract_z
C1 C 0.16872(19) 0.33257(13) 0.07856(14)
H1 H 0.08220 0.31100 0.09450
H2 H 0.14570 0.38460 0.02690
C2 C 0.2273(2) 0.24815(13) 0.02957(14)
H3 H 0.18360 0.24570 -0.04540
C3 C 0.3829(2) 0.25216(13) 0.04502(14)
H4 H 0.41830 0.19420 0.01500
C4 C 0.4454(2) 0.26033(13) 0.16086(15)
H5 H 0.40100 0.21590 0.20100
H6 H 0.54500 0.24860 0.17760
C5 C 0.41165(19) 0.36544(13) 0.17724(14)
C6 C 0.5033(2) 0.40895(15) 0.27406(16)
H7 H 0.51170 0.36220 0.33100
H8 H 0.59570 0.41920 0.26210
C7 C 0.4512(2) 0.50298(16) 0.30556(17)
H9 H 0.51040 0.54040 0.35650
C8 C 0.3274(3) 0.53625(15) 0.26619(19)
H10 H 0.30140 0.59600 0.29080
C9 C 0.2252(2) 0.48417(14) 0.18410(17)
H11 H 0.22230 0.51530 0.11720
H12 H 0.13350 0.49040 0.19850
C10 C 0.2589(2) 0.37628(13) 0.17680(14)
O1 O 0.19458(15) 0.15914(10) 0.07965(10)
C11 C 0.1875(2) 0.07781(13) 0.02566(14)
O2 O 0.20336(18) 0.07224(10) -0.06081(11)
C12 C 0.15800(18) -0.00838(12) 0.08434(13)
C13 C 0.1354(2) -0.00047(13) 0.18258(14)
H13 H 0.13680 0.06100 0.21410
C14 C 0.1108(2) -0.08315(14) 0.23446(14)
H14 H 0.09790 -0.07930 0.30230
C15 C 0.10568(19) -0.17095(13) 0.18479(14)
C16 C 0.1255(2) -0.18058(13) 0.08634(15)
H15 H 0.11980 -0.24190 0.05400
C17 C 0.1538(2) -0.09805(13) 0.03631(14)
H16 H 0.17020 -0.10260 -0.03050
N1 N 0.07645(18) -0.25855(12) 0.23807(14)
O3 O 0.10516(19) -0.25727(13) 0.33223(13)
O4 O 0.02647(19) -0.32786(11) 0.18591(14)
C18 C 0.4331(2) 0.34694(13) 0.00477(15)
O5 O 0.43213(15) 0.41623(9) 0.08694(10)
C19 C 0.3449(2) 0.38681(16) -0.09464(15)
H17 H 0.38540 0.44660 -0.11290
H18 H 0.25300 0.40010 -0.08530
H19 H 0.33960 0.33930 -0.14960
C20 C 0.5800(2) 0.33598(17) -0.0076(2)
H20 H 0.60990 0.39670 -0.03290
H21 H 0.58380 0.28420 -0.05670
H22 H 0.64030 0.32010 0.05880
O6 O 0.23329(18) 0.32359(11) 0.26335(11)
H23 H 0.242(3) 0.3648(17) 0.3163(15)
#END
