
#######################################################################
#
#                 Cambridge Crystallographic Data Centre
#                                CCDC
#
#######################################################################
#
# If this CIF has been generated from an entry in the Cambridge
# Structural Database, then it will include bibliographic, chemical,
# crystal, experimental, refinement or atomic coordinate data resulting
# from the CCDC's data processing and validation procedures.
#
#######################################################################

data_CSD_CIF_LIHFIT
_audit_creation_date 2013-05-26
_audit_creation_method CSD-ConQuest-V1
_database_code_CSD LIHFIT
_database_code_depnum_ccdc_archive 'CCDC 784341'
_chemical_formula_sum 'C30 H33 N3 O5'
_chemical_formula_moiety
;
C30 H33 N3 O5
;
_journal_coden_Cambridge 177
_journal_volume 8
_journal_year 2010
_journal_page_first 5525
_journal_name_full 'Org.Biomol.Chem. '
loop_
_publ_author_name
"S.K.Sunnam"
"D.Schepmann"
"E.Rack"
"R.Frohlich"
"K.Korpis"
"P.J.Bednarski"
"B.Wunsch"
_chemical_name_systematic
;
7-Benzyl-9-(4-methoxybenzyl)-7,9-diazabicyclo[4.2.2]dec-2-yl 4-nitrobenzoate
;
_cell_volume   1367.437
_exptl_crystal_colour 'yellow'
_exptl_crystal_density_diffrn 1.252
_exptl_crystal_description 'block'
_diffrn_ambient_temperature 223
#These two values have been output from a single CSD field.
_refine_ls_R_factor_gt 0.0564
_refine_ls_wR_factor_gt 0.0564
_symmetry_cell_setting triclinic
_symmetry_space_group_name_H-M 'P -1'
_symmetry_Int_Tables_number 2
loop_
_symmetry_equiv_pos_site_id
_symmetry_equiv_pos_as_xyz
1 x,y,z
2 -x,-y,-z
_cell_length_a 10.4650(1)
_cell_length_b 12.3120(2)
_cell_length_c 12.3680(2)
_cell_angle_alpha 106.693(1)
_cell_angle_beta 100.898(1)
_cell_angle_gamma 109.321(1)
_cell_formula_units_Z 2
loop_
_atom_type_symbol
_atom_type_radius_bond
C 0.68
H 0.23
N 0.68
O 0.68
loop_
_atom_site_label
_atom_site_type_symbol
_atom_site_fract_x
_atom_site_fract_y
_atom_site_fract_z
C1 C 0.3154(2) 1.13157(17) 0.69221(16)
H1 H 0.30360 1.09950 0.60620
C2 C 0.3450(2) 1.03752(17) 0.7421(2)
H2 H 0.42870 1.02650 0.72300
C3 C 0.3645(2) 1.05842(19) 0.8732(2)
H3 H 0.27150 1.04380 0.88570
H4 H 0.39390 0.99550 0.88970
C4 C 0.4716(2) 1.1859(2) 0.9640(2)
H5 H 0.51450 1.17550 1.03590
H6 H 0.54810 1.21800 0.93160
C5 C 0.4112(2) 1.2823(2) 0.99915(18)
H7 H 0.49040 1.36070 1.05390
H8 H 0.34690 1.25610 1.04380
C6 C 0.3303(2) 1.30906(17) 0.90112(16)
H9 H 0.30680 1.37870 0.94100
N1 N 0.19226(15) 1.20093(13) 0.82936(13)
C7 C 0.1809(2) 1.14848(18) 0.70444(16)
H10 H 0.16570 1.20390 0.66510
H11 H 0.09870 1.06790 0.66520
N2 N 0.44342(16) 1.25072(14) 0.74800(13)
C8 C 0.4165(2) 1.35105(17) 0.82333(18)
H12 H 0.36480 1.38130 0.77290
H13 H 0.50790 1.42020 0.87410
O1 O 0.21937(14) 0.91932(12) 0.67868(13)
C9 C 0.21436(19) 0.83837(16) 0.57766(16)
O2 O 0.31245(15) 0.84824(14) 0.53831(13)
C10 C 0.07046(19) 0.73162(16) 0.52084(15)
C11 C 0.0541(2) 0.62813(18) 0.42731(17)
H14 H 0.13200 0.62660 0.40040
C12 C -0.0765(2) 0.52711(19) 0.37357(17)
H15 H -0.08850 0.45660 0.31020
C13 C -0.1892(2) 0.53193(17) 0.41485(16)
C14 C -0.1776(2) 0.63482(18) 0.50556(17)
H16 H -0.25660 0.63650 0.53040
C15 C -0.0466(2) 0.73511(18) 0.55871(17)
H17 H -0.03600 0.80620 0.62070
N3 N -0.32709(19) 0.42166(17) 0.36109(16)
O3 O -0.3345(2) 0.33041(18) 0.28286(18)
O4 O -0.42498(17) 0.42615(17) 0.40052(19)
C16 C 0.0675(2) 1.22567(18) 0.84233(19)
H18 H 0.05480 1.27870 0.79910
H19 H 0.08400 1.27100 0.92650
C17 C -0.0672(2) 1.10795(18) 0.79602(17)
C18 C -0.1830(2) 1.0894(2) 0.7059(2)
H20 H -0.17540 1.14950 0.67180
C19 C -0.3075(3) 0.9862(3) 0.6655(3)
H21 H -0.38460 0.97610 0.60460
C20 C -0.3203(3) 0.8980(3) 0.7130(4)
H22 H -0.40660 0.82720 0.68560
C21 C -0.2042(4) 0.9126(3) 0.8033(3)
H23 H -0.21250 0.85140 0.83590
C22 C -0.0774(3) 1.0179(2) 0.8440(2)
H24 H 0.00080 1.02800 0.90380
C23 C 0.5127(2) 1.2880(2) 0.66409(18)
H25 H 0.45480 1.31680 0.61700
H26 H 0.51930 1.21600 0.60940
C24 C 0.6606(2) 1.39054(18) 0.72882(16)
C25 C 0.7626(2) 1.37019(18) 0.79978(17)
H27 H 0.73740 1.29340 0.80890
C26 C 0.8988(2) 1.45883(18) 0.85692(17)
H28 H 0.96630 1.44140 0.90260
C27 C 0.9378(2) 1.57348(18) 0.84808(16)
C28 C 0.8389(2) 1.59836(18) 0.78041(19)
H29 H 0.86400 1.67670 0.77450
C29 C 0.7000(2) 1.5057(2) 0.72022(19)
H30 H 0.63280 1.52240 0.67330
O5 O 1.07798(15) 1.65525(14) 0.90937(13)
C30 C 1.1266(3) 1.7728(2) 0.9008(2)
H31 H 1.11920 1.76240 0.81880
H32 H 1.22540 1.82130 0.95020
H33 H 1.06880 1.81570 0.92760
#END
