
#######################################################################
#
#                 Cambridge Crystallographic Data Centre
#                                CCDC
#
#######################################################################
#
# If this CIF has been generated from an entry in the Cambridge
# Structural Database, then it will include bibliographic, chemical,
# crystal, experimental, refinement or atomic coordinate data resulting
# from the CCDC's data processing and validation procedures.
#
#######################################################################

data_CSD_CIF_LIHGAK
_audit_creation_date 1995-10-09
_audit_creation_method CSD-ConQuest-V1
_database_code_CSD LIHGAK
_database_code_depnum_ccdc_archive 'CCDC 1207088'
_chemical_formula_sum 'C16 H9 N1 O4'
_chemical_formula_moiety
;
C16 H9 N1 O4
;
_journal_coden_Cambridge 34
_journal_volume 31
_journal_year 1994
_journal_page_first 1021
_journal_name_full 'J.Heterocycl.Chem. '
loop_
_publ_author_name
"D.Dauzonne"
"C.Grandjean"
_chemical_name_systematic
;
(Z)-11-Nitromethylene-11H-benzofuro(3,2-b)(1)benzopyran
;
_chemical_melting_point 454.15
_cell_volume    619.072
_exptl_crystal_colour 'red-orange'
_exptl_crystal_density_diffrn 1.5
_exptl_special_details
;
Melting point range 454.15-456.15K

;
_diffrn_ambient_temperature ?
_diffrn_special_details
;
The study was carried out at room temperature,in the range 283-303K

;
#These two values have been output from a single CSD field.
_refine_ls_R_factor_gt 0.058
_refine_ls_wR_factor_gt 0.058
_symmetry_cell_setting triclinic
_symmetry_space_group_name_H-M 'P -1'
_symmetry_Int_Tables_number 2
loop_
_symmetry_equiv_pos_site_id
_symmetry_equiv_pos_as_xyz
1 x,y,z
2 -x,-y,-z
_cell_length_a 8.841
_cell_length_b 9.12
_cell_length_c 9.267
_cell_angle_alpha 85.97
_cell_angle_beta 66.74
_cell_angle_gamma 65.2
_cell_formula_units_Z 2
loop_
_atom_type_symbol
_atom_type_radius_bond
C 0.68
N 0.68
O 0.68
loop_
_atom_site_label
_atom_site_type_symbol
_atom_site_fract_x
_atom_site_fract_y
_atom_site_fract_z
O1 O -0.5982(9) 0.6570(9) 0.8801(8)
O2 O -0.5221(8) 0.8554(8) 0.8488(7)
O3 O 0.2091(6) 0.5755(6) 0.5410(5)
O4 O -0.2426(6) 0.8299(6) 0.5887(5)
N1 N -0.4848(9) 0.710(1) 0.8520(8)
C1 C 0.021(1) 0.371(1) 0.8696(8)
C2 C 0.177(1) 0.260(1) 0.8766(9)
C3 C 0.348(1) 0.248(1) 0.770(1)
C4 C 0.348(1) 0.3613(9) 0.6637(9)
C5 C 0.191(1) 0.4725(9) 0.6556(8)
C6 C 0.0552(9) 0.6867(9) 0.5341(8)
C7 C 0.0442(9) 0.7987(9) 0.4212(8)
C8 C 0.167(1) 0.835(1) 0.2906(8)
C9 C 0.095(1) 0.957(1) 0.2098(9)
C10 C -0.091(1) 1.040(1) 0.2502(9)
C11 C -0.217(1) 1.0088(9) 0.3803(8)
C12 C -0.143(1) 0.8872(9) 0.4599(8)
C13 C -0.1145(9) 0.7070(8) 0.6322(8)
C14 C -0.1499(9) 0.6024(9) 0.7488(7)
C15 C 0.019(1) 0.4825(9) 0.7580(8)
C16 C -0.309(1) 0.5945(9) 0.8419(9)
#END
