
#######################################################################
#
#                 Cambridge Crystallographic Data Centre
#                                CCDC
#
#######################################################################
#
# If this CIF has been generated from an entry in the Cambridge
# Structural Database, then it will include bibliographic, chemical,
# crystal, experimental, refinement or atomic coordinate data resulting
# from the CCDC's data processing and validation procedures.
#
#######################################################################

data_CSD_CIF_LIHWEF
_audit_creation_date 2007-10-04
_audit_creation_method CSD-ConQuest-V1
_database_code_CSD LIHWEF
_database_code_depnum_ccdc_archive 'CCDC 655174'
_chemical_formula_sum 'C13 H12 N2 O5'
_chemical_formula_moiety
;
C13 H12 N2 O5
;
_journal_coden_Cambridge 4
_journal_volume 129
_journal_year 2007
_journal_page_first 8156
_journal_name_full 'J.Am.Chem.Soc. '
loop_
_publ_author_name
"T.L.Church"
"C.M.Byrne"
"E.B.Lobkovsky"
"G.W.Coates"
_chemical_name_systematic
;
rac-3-(4-Nitrophenyl)tetrahydrocyclopenta(e)(1,3)oxazine-2,4(3H,4aH)-dione
;
_cell_volume   2485.446
_exptl_crystal_colour 'colorless'
_exptl_crystal_density_diffrn 1.476
_exptl_crystal_description 'needle'
_diffrn_ambient_temperature 295
#These two values have been output from a single CSD field.
_refine_ls_R_factor_gt 0.0379
_refine_ls_wR_factor_gt 0.0379
_symmetry_cell_setting orthorhombic
_symmetry_space_group_name_H-M 'P b c n'
_symmetry_Int_Tables_number 60
loop_
_symmetry_equiv_pos_site_id
_symmetry_equiv_pos_as_xyz
1 x,y,z
2 1/2-x,1/2-y,1/2+z
3 -x,y,1/2-z
4 1/2+x,1/2-y,-z
5 -x,-y,-z
6 -1/2+x,-1/2+y,-1/2-z
7 x,-y,-1/2+z
8 -1/2-x,-1/2+y,z
_cell_length_a 17.4307(13)
_cell_length_b 5.3287(3)
_cell_length_c 26.7589(19)
_cell_angle_alpha 90
_cell_angle_beta 90
_cell_angle_gamma 90
_cell_formula_units_Z 8
loop_
_atom_type_symbol
_atom_type_radius_bond
C 0.68
H 0.23
N 0.68
O 0.68
loop_
_atom_site_label
_atom_site_type_symbol
_atom_site_fract_x
_atom_site_fract_y
_atom_site_fract_z
O1 O 0.19935(12) 0.2418(4) 0.31028(8)
O2 O 0.17749(12) 0.0447(4) 0.38083(7)
O3 O 0.03876(13) -0.4339(4) 0.30600(8)
O4 O 0.1799(2) -0.2404(7) 0.0754(1)
O5 O 0.09824(19) 0.0546(7) 0.07365(10)
N1 N 0.12379(13) -0.1080(4) 0.30626(8)
N2 N 0.1381(2) -0.0913(7) 0.09593(12)
C1 C 0.16897(17) 0.0694(6) 0.33138(11)
C2 C 0.1522(2) -0.1910(8) 0.40198(12)
H1 H 0.176(2) -0.342(8) 0.3876(14)
C3 C 0.1478(2) -0.1897(7) 0.45815(12)
H2 H 0.13220 -0.02660 0.47060
H3 H 0.19660 -0.23510 0.47300
C4 C 0.0866(2) -0.3887(8) 0.46887(14)
H4 H 0.04860 -0.32280 0.49180
H5 H 0.11000 -0.53560 0.48390
C5 C 0.0487(3) -0.4589(8) 0.41904(13)
C6 C 0.07353(19) -0.2493(6) 0.38483(11)
H6 H 0.04130 -0.10310 0.39210
C7 C 0.07498(18) -0.2831(6) 0.32979(11)
C8 C 0.12705(15) -0.1022(5) 0.25222(11)
C9 C 0.16503(18) -0.2919(7) 0.22758(12)
H7 H 0.1861(15) -0.417(5) 0.2446(11)
C10 C 0.16919(19) -0.2883(7) 0.17600(12)
H8 H 0.1958(16) -0.410(5) 0.1589(11)
C11 C 0.13444(18) -0.0944(6) 0.15095(11)
C12 C 0.09623(19) 0.0957(7) 0.17473(13)
H9 H 0.070(2) 0.229(7) 0.1575(12)
C13 C 0.09301(18) 0.0910(6) 0.22639(13)
H10 H 0.0670(16) 0.219(6) 0.2435(10)
H11 H 0.068(2) -0.616(9) 0.4086(15)
H12 H -0.004(2) -0.471(7) 0.4216(13)
#END
