
#######################################################################
#
#                 Cambridge Crystallographic Data Centre
#                                CCDC
#
#######################################################################
#
# If this CIF has been generated from an entry in the Cambridge
# Structural Database, then it will include bibliographic, chemical,
# crystal, experimental, refinement or atomic coordinate data resulting
# from the CCDC's data processing and validation procedures.
#
#######################################################################

data_CSD_CIF_LIJZOT
_audit_creation_date 1995-04-20
_audit_creation_method CSD-ConQuest-V1
_database_code_CSD LIJZOT
_database_code_depnum_ccdc_archive 'CCDC 1207260'
_chemical_formula_sum 'C21 H18 N2 O2'
_chemical_formula_moiety
;
C21 H18 N2 O2
;
_journal_coeditor_code "IUCr PA1117"
_journal_coden_Cambridge 591
_journal_volume 51
_journal_year 1995
_journal_page_first 98
_journal_name_full 'Acta Crystallogr.,Sect.C:Cryst.Struct.Commun. '
loop_
_publ_author_name
"P.K.Olszewski"
"K.Stadnicka"
_chemical_name_systematic
;
(Z,Z)-N-(2-(4-Methoxyphenylimino)-2-phenylethylidene)phenylamine N-oxide
;
_chemical_melting_point 434.15
_cell_volume   1734.729
_exptl_crystal_colour 'yellow'
_exptl_crystal_density_diffrn 1.265
_exptl_special_details
;
Melting point range 434.15-435.15K

;
_diffrn_ambient_temperature ?
_diffrn_special_details
;
The study was carried out at room temperature,in the range 283-303K

;
#These two values have been output from a single CSD field.
_refine_ls_R_factor_gt 0.0365
_refine_ls_wR_factor_gt 0.0365
_symmetry_cell_setting monoclinic
_symmetry_space_group_name_H-M 'P 21/c'
_symmetry_Int_Tables_number 14
loop_
_symmetry_equiv_pos_site_id
_symmetry_equiv_pos_as_xyz
1 x,y,z
2 -x,1/2+y,1/2-z
3 -x,-y,-z
4 x,-1/2-y,-1/2+z
_cell_length_a 8.6439(4)
_cell_length_b 19.5142(7)
_cell_length_c 10.5033(4)
_cell_angle_alpha 90
_cell_angle_beta 101.723(4)
_cell_angle_gamma 90
_cell_formula_units_Z 4
loop_
_atom_type_symbol
_atom_type_radius_bond
C 0.68
H 0.23
N 0.68
O 0.68
loop_
_atom_site_label
_atom_site_type_symbol
_atom_site_fract_x
_atom_site_fract_y
_atom_site_fract_z
C1 C 0.6795(2) 0.81833(9) 0.6739(2)
C2 C 0.7676(2) 0.76267(12) 0.6485(2)
C3 C 0.9182(3) 0.7518(2) 0.7220(3)
C4 C 0.9791(3) 0.7961(2) 0.8198(3)
C5 C 0.8937(4) 0.8517(2) 0.8453(3)
C6 C 0.7449(3) 0.86331(13) 0.7733(2)
C7 C 0.5170(2) 0.83013(8) 0.59751(14)
N1 N 0.4609(2) 0.89105(7) 0.58472(13)
C8 C 0.3015(2) 0.90122(7) 0.52076(14)
C9 C 0.1778(2) 0.86182(8) 0.5469(2)
C10 C 0.0231(2) 0.87408(8) 0.4845(2)
C11 C -0.0093(2) 0.92662(8) 0.39455(14)
O1 O -0.15631(14) 0.94245(7) 0.32514(12)
C12 C -0.2868(3) 0.90324(13) 0.3481(3)
C13 C 0.1126(2) 0.96870(8) 0.3730(2)
C14 C 0.2659(2) 0.95646(8) 0.4352(2)
C15 C 0.4357(2) 0.76903(8) 0.53249(14)
N2 N 0.40868(15) 0.71730(6) 0.60288(11)
O2 O 0.4287(2) 0.72197(6) 0.72816(10)
C16 C 0.3542(2) 0.65156(8) 0.54636(13)
C17 C 0.2731(2) 0.60950(9) 0.6159(2)
C18 C 0.2221(3) 0.54598(10) 0.5649(2)
C19 C 0.2516(3) 0.52525(10) 0.4473(2)
C20 C 0.3326(3) 0.56778(10) 0.3789(2)
C21 C 0.3851(2) 0.63139(9) 0.4281(2)
H1 H 0.7289(26) 0.7315(12) 0.5831(22)
H2 H 0.9775(32) 0.7138(13) 0.6969(25)
H3 H 1.0746(38) 0.7899(15) 0.8723(30)
H4 H 0.9414(39) 0.8843(15) 0.9189(29)
H5 H 0.6896(36) 0.9025(16) 0.7989(28)
H6 H 0.2001(21) 0.8254(10) 0.6082(18)
H7 H -0.0611(22) 0.8466(10) 0.5061(17)
H8 H -0.2723(28) 0.8539(14) 0.3316(23)
H9 H -0.2970(34) 0.9125(14) 0.4424(30)
H10 H -0.3802(30) 0.9218(13) 0.2933(23)
H11 H 0.0874(22) 1.0085(10) 0.3141(20)
H12 H 0.3530(21) 0.9866(9) 0.4205(16)
H13 H 0.4103(21) 0.7659(9) 0.4380(19)
H14 H 0.2514(26) 0.6258(12) 0.6983(22)
H15 H 0.1611(31) 0.5161(14) 0.6176(25)
H16 H 0.2170(27) 0.4792(13) 0.4135(22)
H17 H 0.3530(26) 0.5529(12) 0.2971(24)
H18 H 0.4436(23) 0.6606(11) 0.3818(19)
#END
