
#######################################################################
#
#                 Cambridge Crystallographic Data Centre
#                                CCDC
#
#######################################################################
#
# If this CIF has been generated from an entry in the Cambridge
# Structural Database, then it will include bibliographic, chemical,
# crystal, experimental, refinement or atomic coordinate data resulting
# from the CCDC's data processing and validation procedures.
#
#######################################################################

data_CSD_CIF_LIKDAK
_audit_creation_date 1995-04-20
_audit_creation_method CSD-ConQuest-V1
_database_code_CSD LIKDAK
_chemical_formula_sum 'C15 H23 N2 O3'
_chemical_formula_moiety
;
C15 H23 N2 O3
;
_journal_coeditor_code "IUCr KA1059"
_journal_coden_Cambridge 591
_journal_volume 51
_journal_year 1995
_journal_page_first 121
_journal_name_full 'Acta Crystallogr.,Sect.C:Cryst.Struct.Commun. '
loop_
_publ_author_name
"T.A.Olszak"
"P.H.Sobczynski"
"A.M.Brzozowski"
"M.J.Grabowski"
"K.Gwozdzinski"
_chemical_name_systematic
;
4-Hydroxy-2,2,6,6-tetramethyl-4-(2-pyridylmethyl-1-oxide)piperidine 1-oxide
;
_cell_volume    753.908
_exptl_crystal_colour 'orange'
_exptl_crystal_density_diffrn 1.231
_diffrn_ambient_temperature ?
_diffrn_special_details
;
The study was carried out at room temperature,in the range 283-303K

;
#These two values have been output from a single CSD field.
_refine_ls_R_factor_gt 0.043
_refine_ls_wR_factor_gt 0.043
_symmetry_cell_setting triclinic
_symmetry_space_group_name_H-M 'P -1'
_symmetry_Int_Tables_number 2
loop_
_symmetry_equiv_pos_site_id
_symmetry_equiv_pos_as_xyz
1 x,y,z
2 -x,-y,-z
_cell_length_a 6.400(1)
_cell_length_b 10.767(1)
_cell_length_c 11.203(2)
_cell_angle_alpha 91.62(1)
_cell_angle_beta 91.34(2)
_cell_angle_gamma 102.2(2)
_cell_formula_units_Z 2
loop_
_atom_type_symbol
_atom_type_radius_bond
C 0.68
H 0.23
N 0.68
O 0.68
loop_
_atom_site_label
_atom_site_type_symbol
_atom_site_fract_x
_atom_site_fract_y
_atom_site_fract_z
N1 N 0.1062(2) 0.2603(1) 0.2297(1)
O1 O 0.2377(2) 0.1923(1) 0.1857(1)
C1 C -0.1104(3) 0.2192(1) 0.2150(1)
C2 C -0.2397(3) 0.2912(2) 0.2678(2)
C3 C -0.1553(4) 0.4040(2) 0.3306(2)
C4 C 0.0630(3) 0.4451(2) 0.3382(2)
C5 C 0.1905(3) 0.3727(2) 0.2879(2)
C6 C -0.1974(3) 0.1037(2) 0.1366(2)
N2 N -0.3920(2) -0.2713(1) 0.2785(1)
O2 O -0.4579(2) -0.3821(1) 0.3204(1)
C7 C -0.2798(3) -0.1712(2) 0.3666(1)
C8 C -0.4169(6) -0.1776(3) 0.4764(2)
C9 C -0.0631(4) -0.2012(2) 0.4020(2)
C10 C -0.2585(3) -0.0394(2) 0.3128(2)
C11 C -0.1860(3) -0.0282(1) 0.1848(1)
O3 O 0.0253(2) -0.0500(1) 0.1736(1)
C12 C -0.3407(3) -0.1279(2) 0.1084(2)
C13 C -0.3674(3) -0.2660(2) 0.1466(2)
C14 C -0.1821(4) -0.3263(2) 0.1106(2)
C15 C -0.5746(4) -0.3431(2) 0.0873(2)
H1 H 0.1105(42) 0.0278(25) 0.1850(22)
H2 H -0.3957(33) 0.2577(19) 0.2574(17)
H3 H -0.2548(36) 0.4534(21) 0.3675(19)
H4 H 0.1352(34) 0.5246(21) 0.3768(19)
H5 H 0.3437(36) 0.3932(20) 0.2898(19)
H6 H -0.3477(32) 0.1037(17) 0.1211(16)
H7 H -0.1253(28) 0.1092(16) 0.0587(16)
H8 H -0.4320(39) -0.2580(25) 0.5085(22)
H9 H -0.3561(40) -0.1088(25) 0.5331(23)
H10 H -0.5569(42) -0.1659(23) 0.4523(22)
H11 H 0.0326(39) -0.1961(23) 0.3324(23)
H12 H -0.0852(36) -0.2855(23) 0.4365(21)
H13 H -0.0013(39) -0.1371(24) 0.4661(23)
H14 H -0.1558(32) 0.0205(19) 0.3641(18)
H15 H -0.4031(31) -0.0151(17) 0.3135(16)
H16 H -0.2919(28) -0.1258(16) 0.0222(16)
H17 H -0.4869(33) -0.1058(18) 0.1101(17)
H18 H -0.0418(40) -0.2774(23) 0.1445(21)
H19 H -0.2102(39) -0.4130(25) 0.1394(22)
H20 H -0.1661(36) -0.3321(21) 0.0231(22)
H21 H -0.5615(38) -0.3360(23) -0.0023(24)
H22 H -0.6959(44) -0.3084(25) 0.1165(23)
H23 H -0.5929(42) -0.4325(27) 0.1087(23)
#END
