
#######################################################################
#
#                 Cambridge Crystallographic Data Centre
#                                CCDC
#
#######################################################################
#
# If this CIF has been generated from an entry in the Cambridge
# Structural Database, then it will include bibliographic, chemical,
# crystal, experimental, refinement or atomic coordinate data resulting
# from the CCDC's data processing and validation procedures.
#
#######################################################################

data_CSD_CIF_LIKDIS
_audit_creation_date 1995-04-20
_audit_creation_method CSD-ConQuest-V1
_database_code_CSD LIKDIS
_chemical_formula_sum 'C7 H13 N1 O2'
_chemical_formula_moiety
;
C7 H13 N1 O2
;
_journal_coeditor_code "IUCr AB1191"
_journal_coden_Cambridge 591
_journal_volume 51
_journal_year 1995
_journal_page_first 125
_journal_name_full 'Acta Crystallogr.,Sect.C:Cryst.Struct.Commun. '
loop_
_publ_author_name
"I.K.Larsen"
"P.Trickey"
_chemical_name_systematic
;
Cyclohexanecarbohydroxamic acid
;
_chemical_name_common
;
N-Hydroxycyclohexanecarboxamide
;
_chemical_melting_point 388
_cell_volume    836.142
_exptl_crystal_colour 'Colorless'
_exptl_crystal_density_diffrn 1.137
_exptl_special_details
;
Melts with decomposition.

;
_diffrn_ambient_temperature ?
_diffrn_special_details
;
The study was carried out at room temperature,in the range 283-303K

;
#These two values have been output from a single CSD field.
_refine_ls_R_factor_gt 0.0546
_refine_ls_wR_factor_gt 0.0546
_symmetry_cell_setting monoclinic
_symmetry_space_group_name_H-M 'P 2/c'
_symmetry_Int_Tables_number 13
loop_
_symmetry_equiv_pos_site_id
_symmetry_equiv_pos_as_xyz
1 x,y,z
2 -x,y,1/2-z
3 -x,-y,-z
4 x,-y,-1/2+z
_cell_length_a 13.044(3)
_cell_length_b 6.847(2)
_cell_length_c 9.465(4)
_cell_angle_alpha 90
_cell_angle_beta 98.46(3)
_cell_angle_gamma 90
_cell_formula_units_Z 4
loop_
_atom_type_symbol
_atom_type_radius_bond
C 0.68
H 0.23
N 0.68
O 0.68
loop_
_atom_site_label
_atom_site_type_symbol
_atom_site_fract_x
_atom_site_fract_y
_atom_site_fract_z
C1 C 0.78083(12) 0.6408(3) 0.1113(2)
H1 H 0.78253(12) 0.6639(3) 0.0095(2)
C2 C 0.80963(15) 0.8289(3) 0.1911(2)
H2 H 0.87769(15) 0.8706(3) 0.1734(2)
H3 H 0.81311(15) 0.8062(3) 0.2928(2)
C3 C 0.7316(2) 0.9896(3) 0.1454(3)
H4 H 0.7496(2) 1.1045(3) 0.2037(3)
H5 H 0.7347(2) 1.0242(3) 0.0468(3)
C4 C 0.6232(2) 0.9270(3) 0.1601(3)
H6 H 0.6178(2) 0.9104(3) 0.2605(3)
H7 H 0.5750(2) 1.0287(3) 0.1224(3)
C5 C 0.5938(2) 0.7399(4) 0.0827(4)
H8 H 0.5904(2) 0.7610(4) -0.0193(4)
H9 H 0.5256(2) 0.6999(4) 0.1008(4)
C6 C 0.67115(14) 0.5788(3) 0.1296(3)
H10 H 0.65227(14) 0.4624(3) 0.0733(3)
H11 H 0.66903(14) 0.5473(3) 0.2291(3)
C7 C 0.85508(11) 0.4782(2) 0.15986(14)
O1 O 0.87533(8) 0.4285(2) 0.28766(10)
N1 N 0.89618(10) 0.3890(2) 0.05777(13)
H12 H 0.88367(10) 0.4333(2) -0.02808(13)
O2 O 0.95877(9) 0.2264(2) 0.08540(13)
H13 H 1.0149(5) 0.2593(4) 0.1298(18)
#END
