
#######################################################################
#
#                 Cambridge Crystallographic Data Centre
#                                CCDC
#
#######################################################################
#
# If this CIF has been generated from an entry in the Cambridge
# Structural Database, then it will include bibliographic, chemical,
# crystal, experimental, refinement or atomic coordinate data resulting
# from the CCDC's data processing and validation procedures.
#
#######################################################################

data_CSD_CIF_LILJOF
_audit_creation_date 1995-09-08
_audit_creation_method CSD-ConQuest-V1
_database_code_CSD LILJOF
_chemical_formula_sum 'C17 H16 N2 O7'
_chemical_formula_moiety
;
C17 H16 N2 O7
;
_journal_coden_Cambridge 1096
_journal_volume 6
_journal_year 1994
_journal_page_first 1369
_journal_name_full 'Chem.Mater. '
loop_
_publ_author_name
"J.A.R.P.Sarma"
"M.S.K.Dhurjati"
"K.Ravikumar"
"K.Bhanuprakash"
_chemical_name_systematic
;
2,4-Dinitro-3',4',5'-trimethoxy-(E)-stilbene
;
_chemical_melting_point 462.15
_cell_volume   1671.974
_exptl_crystal_colour 'red'
_exptl_crystal_density_diffrn 1.43
_diffrn_ambient_temperature ?
_diffrn_special_details
;
The study was carried out at room temperature,in the range 283-303K

;
#These two values have been output from a single CSD field.
_refine_ls_R_factor_gt 0.039
_refine_ls_wR_factor_gt 0.039
_symmetry_cell_setting orthorhombic
_symmetry_space_group_name_H-M 'P 21 21 21'
_symmetry_Int_Tables_number 19
loop_
_symmetry_equiv_pos_site_id
_symmetry_equiv_pos_as_xyz
1 x,y,z
2 1/2-x,-y,1/2+z
3 1/2+x,1/2-y,-z
4 -x,1/2+y,1/2-z
_cell_length_a 7.345
_cell_length_b 13.425
_cell_length_c 16.956
_cell_angle_alpha 90
_cell_angle_beta 90
_cell_angle_gamma 90
_cell_formula_units_Z 4
loop_
_atom_type_symbol
_atom_type_radius_bond
C 0.68
H 0.23
N 0.68
O 0.68
loop_
_atom_site_label
_atom_site_type_symbol
_atom_site_fract_x
_atom_site_fract_y
_atom_site_fract_z
O1 O 0.5912(8) 0.0249(3) 1.0163(2)
O2 O 0.6630(1) -0.0913(3) 0.9391(3)
O3 O 0.6068(6) -0.0540(3) 0.6615(2)
O4 O 0.5730(8) 0.0923(4) 0.6115(2)
O5 O 0.6706(7) 0.6357(2) 1.1223(2)
O6 O 0.7075(5) 0.5464(3) 1.2607(2)
O7 O 0.7079(6) 0.3463(3) 1.2740(2)
N1 N 0.6327(8) -0.0048(3) 0.9517(2)
N2 N 0.6005(7) 0.0370(4) 0.6675(2)
C1 C 0.6605(7) 0.1693(4) 0.8953(3)
C2 C 0.6447(7) 0.0656(3) 0.8849(2)
C3 C 0.6276(9) 0.0230(4) 0.8111(3)
C4 C 0.6267(8) 0.0826(3) 0.7457(3)
C5 C 0.6489(9) 0.1843(4) 0.7515(3)
C6 C 0.6663(9) 0.2261(4) 0.8253(3)
C7 C 0.6736(8) 0.2197(4) 0.9736(3)
C8 C 0.6350(8) 0.3155(4) 0.9837(3)
C9 C 0.6496(8) 0.3718(3) 1.0582(3)
C10 C 0.6463(9) 0.4759(4) 1.0532(3)
C11 C 0.6633(8) 0.5328(3) 1.1212(3)
C12 C 0.6796(8) 0.4876(4) 1.1943(3)
C13 C 0.6821(8) 0.3833(4) 1.1997(3)
C14 C 0.6667(8) 0.3256(4) 1.1309(3)
C15 C 0.658(2) 0.6862(5) 1.0478(4)
C16 C 0.580(1) 0.5357(6) 1.3243(5)
C17 C 0.698(2) 0.2417(6) 1.2848(5)
H1 H 0.604(7) -0.038(4) 0.806(3)
H2 H 0.663(9) 0.220(4) 0.709(3)
H3 H 0.667(7) 0.305(4) 0.829(3)
H4 H 0.732(7) 0.185(3) 1.015(3)
H5 H 0.577(6) 0.352(3) 0.940(2)
H6 H 0.631(8) 0.502(4) 1.006(3)
H7 H 0.653(8) 0.256(4) 1.139(3)
H8 H 0.68(1) 0.746(5) 1.066(4)
H9 H 0.52(1) 0.670(5) 1.031(4)
H10 H 0.755(9) 0.667(4) 1.011(4)
H11 H 0.57(1) 0.595(7) 1.357(5)
H12 H 0.59(1) 0.460(8) 1.346(6)
H13 H 0.48(1) 0.527(8) 1.306(5)
H14 H 0.74(1) 0.235(5) 1.340(4)
H15 H 0.566(9) 0.228(4) 1.284(3)
H16 H 0.71(1) 0.202(6) 1.247(4)
#END
