
#######################################################################
#
#                 Cambridge Crystallographic Data Centre
#                                CCDC
#
#######################################################################
#
# If this CIF has been generated from an entry in the Cambridge
# Structural Database, then it will include bibliographic, chemical,
# crystal, experimental, refinement or atomic coordinate data resulting
# from the CCDC's data processing and validation procedures.
#
#######################################################################

data_CSD_CIF_LILKAU
_audit_creation_date 2013-10-14
_audit_creation_method CSD-ConQuest-V1
_database_code_CSD LILKAU
_database_code_depnum_ccdc_archive 'CCDC 778358'
_chemical_formula_sum 'C17 H14 N4 O7'
_chemical_formula_moiety
;
C17 H14 N4 O7
;
_journal_coden_Cambridge 692
_journal_volume 45
_journal_year 2013
_journal_page_first 2447
_journal_name_full 'Synthesis '
loop_
_publ_author_name
"R.Melnicky"
"M.Grepl"
"A.Lycka"
"d"
"V.Bertolasi"
"L.Kvapil"
"B.Dvorakova"
"P.Hradil"
_chemical_name_systematic
;
(E)-2-Oxo-2-phenylethyl 2-((2,4-dinitrophenyl)hydrazono)propanoate
;
_cell_volume   1788.205
_exptl_crystal_colour 'yellow'
_exptl_crystal_density_diffrn 1.435
_exptl_crystal_description 'prismatic'
_diffrn_ambient_temperature 295
#These two values have been output from a single CSD field.
_refine_ls_R_factor_gt 0.05
_refine_ls_wR_factor_gt 0.05
_symmetry_cell_setting monoclinic
_symmetry_space_group_name_H-M 'P 21/a'
_symmetry_Int_Tables_number 14
loop_
_symmetry_equiv_pos_site_id
_symmetry_equiv_pos_as_xyz
1 x,y,z
2 1/2-x,1/2+y,-z
3 -x,-y,-z
4 -1/2+x,-1/2-y,z
_cell_length_a 9.0778(3)
_cell_length_b 16.0282(6)
_cell_length_c 12.5829(6)
_cell_angle_alpha 90
_cell_angle_beta 102.3866(16)
_cell_angle_gamma 90
_cell_formula_units_Z 4
loop_
_atom_type_symbol
_atom_type_radius_bond
C 0.68
H 0.23
N 0.68
O 0.68
loop_
_atom_site_label
_atom_site_type_symbol
_atom_site_fract_x
_atom_site_fract_y
_atom_site_fract_z
O1 O 0.1265(2) 0.69598(9) 0.57052(13)
O2 O 0.14878(15) 0.55750(7) 0.56462(11)
O3 O 0.14244(19) 0.41170(9) 0.65233(14)
O4 O 0.6828(3) 0.28555(12) 0.1160(2)
O5 O 0.5750(3) 0.21550(11) 0.2198(2)
O6 O 0.6178(2) 0.57793(10) 0.08798(15)
O7 O 0.52514(19) 0.64928(9) 0.20211(14)
N1 N 0.40103(17) 0.57479(10) 0.34490(13)
N2 N 0.31376(16) 0.56974(9) 0.42020(12)
N3 N 0.6054(2) 0.28101(12) 0.18257(18)
N4 N 0.55915(19) 0.58232(10) 0.16655(14)
C1 C 0.45026(18) 0.50366(11) 0.30436(14)
C2 C 0.4215(2) 0.42508(11) 0.34475(16)
C3 C 0.4689(2) 0.35356(13) 0.30466(17)
C4 C 0.5492(2) 0.35755(11) 0.22243(16)
C5 C 0.5782(2) 0.43227(12) 0.17845(16)
C6 C 0.52887(19) 0.50505(11) 0.21879(14)
C7 C 0.2673(2) 0.63979(11) 0.45047(15)
C8 C 0.2988(4) 0.72417(14) 0.4114(3)
C9 C 0.1738(2) 0.63474(11) 0.53404(15)
C10 C 0.0567(3) 0.55100(12) 0.64368(18)
C11 C 0.0710(2) 0.46404(12) 0.68951(16)
C12 C -0.0067(2) 0.44497(11) 0.77912(15)
C13 C -0.0829(2) 0.50532(13) 0.82551(16)
C14 C -0.1566(2) 0.48389(16) 0.90701(17)
C15 C -0.1558(3) 0.40289(17) 0.9416(2)
C16 C -0.0804(3) 0.34287(17) 0.8973(2)
C17 C -0.0053(3) 0.36334(14) 0.8166(2)
H1 H 0.420(2) 0.6232(14) 0.3175(17)
H2 H 0.367(2) 0.4241(12) 0.4034(16)
H3 H 0.452(2) 0.3035(14) 0.3303(18)
H4 H 0.637(2) 0.4337(12) 0.1225(18)
H5 H 0.261(3) 0.7307(18) 0.338(3)
H6 H 0.253(4) 0.765(2) 0.449(3)
H7 H 0.398(4) 0.738(2) 0.425(3)
H8 H -0.042(2) 0.5612(12) 0.6082(16)
H9 H 0.095(2) 0.5918(14) 0.7028(18)
H10 H -0.085(2) 0.5617(13) 0.8010(16)
H11 H -0.203(2) 0.5245(15) 0.9406(18)
H12 H -0.204(3) 0.3874(18) 0.999(2)
H13 H -0.074(3) 0.283(2) 0.921(2)
H14 H 0.048(3) 0.3226(15) 0.7841(19)
#END
