
#######################################################################
#
#                 Cambridge Crystallographic Data Centre
#                                CCDC
#
#######################################################################
#
# If this CIF has been generated from an entry in the Cambridge
# Structural Database, then it will include bibliographic, chemical,
# crystal, experimental, refinement or atomic coordinate data resulting
# from the CCDC's data processing and validation procedures.
#
#######################################################################

data_CSD_CIF_LILKIB
_audit_creation_date 2008-01-17
_audit_creation_method CSD-ConQuest-V1
_database_code_CSD LILKIB
_database_code_depnum_ccdc_archive 'CCDC 601860'
_chemical_formula_sum 'C10 H14 N2 O2'
_chemical_formula_moiety
;
C10 H14 N2 O2
;
_journal_coden_Cambridge 34
_journal_volume 44
_journal_year 2007
_journal_page_first 99
_journal_name_full 'J.Heterocycl.Chem. '
loop_
_publ_author_name
"I.Binyamin"
"S.Pailloux"
"B.P.Hay"
"B.M.Rapko"
"E.N.Duesler"
"R.T.Paine"
_chemical_name_systematic
;
2-(N,N-dimethylpropionamide)pyridine N-oxide
;
_cell_volume   1008.540
_exptl_crystal_colour 'colorless'
_exptl_crystal_density_diffrn 1.279
_exptl_crystal_description 'plate'
_diffrn_ambient_temperature 223
#These two values have been output from a single CSD field.
_refine_ls_R_factor_gt 0.0499
_refine_ls_wR_factor_gt 0.0499
_symmetry_cell_setting monoclinic
_symmetry_space_group_name_H-M 'P 21/c'
_symmetry_Int_Tables_number 14
loop_
_symmetry_equiv_pos_site_id
_symmetry_equiv_pos_as_xyz
1 x,y,z
2 -x,1/2+y,1/2-z
3 -x,-y,-z
4 x,-1/2-y,-1/2+z
_cell_length_a 9.5942(2)
_cell_length_b 6.9643(1)
_cell_length_c 15.2146(3)
_cell_angle_alpha 90
_cell_angle_beta 97.216(1)
_cell_angle_gamma 90
_cell_formula_units_Z 4
loop_
_atom_type_symbol
_atom_type_radius_bond
C 0.68
H 0.23
N 0.68
O 0.68
loop_
_atom_site_label
_atom_site_type_symbol
_atom_site_fract_x
_atom_site_fract_y
_atom_site_fract_z
O1 O 0.82232(7) 0.40768(10) 0.05123(6)
O2 O 0.4124(1) 0.16617(13) 0.16096(6)
N1 N 0.78283(7) 0.58655(10) 0.05756(5)
N2 N 0.22327(10) 0.3483(2) 0.17902(7)
C1 C 0.86593(10) 0.72911(14) 0.03185(7)
H1 H 0.95020 0.69800 0.00970
C2 C 0.82759(13) 0.91792(15) 0.03805(8)
H2 H 0.88550 1.01550 0.02010
C3 C 0.70498(13) 0.96462(14) 0.07043(9)
H3 H 0.67850 1.09380 0.07510
C4 C 0.62051(11) 0.81881(13) 0.09615(7)
H4 H 0.53610 0.84970 0.11820
C5 C 0.65898(9) 0.62808(12) 0.08968(6)
C6 C 0.57741(9) 0.45853(13) 0.11442(6)
H5 H 0.63330 0.39030 0.16300
H6 H 0.56320 0.37100 0.06360
C7 C 0.43551(9) 0.50653(15) 0.14264(7)
H7 H 0.44860 0.58710 0.19590
H8 H 0.37980 0.57930 0.09550
C8 C 0.35736(10) 0.32535(18) 0.16172(6)
C9 C 0.14263(17) 0.1814(4) 0.19800(11)
H9 H 0.18960 0.06630 0.18110
H10 H 0.04960 0.18880 0.16480
H11 H 0.13450 0.17700 0.26090
C10 C 0.15674(15) 0.5331(3) 0.18625(12)
H12 H 0.18080 0.58290 0.24580
H13 H 0.05560 0.51880 0.17390
H14 H 0.18920 0.62160 0.14400
#END
