
#######################################################################
#
#                 Cambridge Crystallographic Data Centre
#                                CCDC
#
#######################################################################
#
# If this CIF has been generated from an entry in the Cambridge
# Structural Database, then it will include bibliographic, chemical,
# crystal, experimental, refinement or atomic coordinate data resulting
# from the CCDC's data processing and validation procedures.
#
#######################################################################

data_CSD_CIF_LIMHOF
_audit_creation_date 2008-01-17
_audit_creation_method CSD-ConQuest-V1
_database_code_CSD LIMHOF
_database_code_depnum_ccdc_archive 'CCDC 626517'
_chemical_formula_sum 'C25 H25 N3 O3'
_chemical_formula_moiety
;
C25 H25 N3 O3
;
_journal_coden_Cambridge 392
_journal_volume 71
_journal_year 2007
_journal_page_first 343
_journal_name_full 'Heterocycles '
loop_
_publ_author_name
"A.Watanabe"
"K.Yamaguchi"
"F.Ito"
"Y.Yoshitake"
"K.Harano"
_chemical_name_systematic
;
(2-(4-Dimethylaminophenyl)-3,3-dimethyl-2,3-dihydroindol-1-yl)(4-nitrophenyl)m
ethanone
;
_chemical_melting_point 488.65
_cell_volume   2234.465
_exptl_crystal_colour 'orange'
_exptl_crystal_density_diffrn 1.235
_exptl_special_details
;
Melting point range 488.65-489.65K

;
_exptl_crystal_description 'platelet'
_exptl_crystal_preparation 'ethanol'
_diffrn_ambient_temperature 298.1
#These two values have been output from a single CSD field.
_refine_ls_R_factor_gt 0.059
_refine_ls_wR_factor_gt 0.059
_symmetry_cell_setting monoclinic
_symmetry_space_group_name_H-M 'P 21/n'
_symmetry_Int_Tables_number 14
loop_
_symmetry_equiv_pos_site_id
_symmetry_equiv_pos_as_xyz
1 x,y,z
2 1/2-x,1/2+y,1/2-z
3 -x,-y,-z
4 -1/2+x,-1/2-y,-1/2+z
_cell_length_a 7.3530(4)
_cell_length_b 13.013(1)
_cell_length_c 23.436(1)
_cell_angle_alpha 90
_cell_angle_beta 94.841(1)
_cell_angle_gamma 90
_cell_formula_units_Z 4
loop_
_atom_type_symbol
_atom_type_radius_bond
C 0.68
H 0.23
N 0.68
O 0.68
loop_
_atom_site_label
_atom_site_type_symbol
_atom_site_fract_x
_atom_site_fract_y
_atom_site_fract_z
O1 O 0.2640(3) 0.0014(2) 0.54715(9)
O2 O -0.5158(4) -0.1196(3) 0.6768(2)
O3 O -0.3471(4) -0.1097(3) 0.7564(1)
N1 N 0.2630(3) 0.1564(2) 0.58977(9)
N2 N -0.3722(4) -0.0980(3) 0.7047(2)
N3 N 0.6424(5) 0.1758(3) 0.8482(1)
C1 C 0.2109(3) 0.2288(2) 0.6349(1)
C2 C 0.2331(4) 0.3360(2) 0.6065(1)
C3 C 0.3774(4) 0.3129(2) 0.5661(1)
C4 C 0.4899(4) 0.3786(3) 0.5390(1)
C5 C 0.6039(4) 0.3388(3) 0.5005(1)
C6 C 0.6059(4) 0.2347(3) 0.4889(1)
C7 C 0.4964(4) 0.1676(2) 0.5161(1)
C8 C 0.3836(3) 0.2085(2) 0.5550(1)
C9 C 0.0532(4) 0.3645(3) 0.5714(1)
C10 C 0.2848(5) 0.4221(3) 0.6487(1)
C11 C 0.2052(3) 0.0589(2) 0.5823(1)
C12 C 0.0544(3) 0.0222(2) 0.6173(1)
C13 C 0.0857(4) -0.0057(2) 0.6740(1)
C14 C -0.0540(4) -0.0454(2) 0.7025(1)
C15 C -0.2226(4) -0.0561(2) 0.6743(1)
C16 C -0.2575(4) -0.0290(3) 0.6176(1)
C17 C -0.1174(4) 0.0105(3) 0.5894(1)
C18 C 0.3250(3) 0.2104(2) 0.6907(1)
C19 C 0.5062(4) 0.1810(2) 0.6931(1)
C20 C 0.6089(4) 0.1674(2) 0.7449(1)
C21 C 0.5359(4) 0.1845(2) 0.7964(1)
C22 C 0.3510(4) 0.2135(2) 0.7941(1)
C23 C 0.2514(4) 0.2257(2) 0.7422(1)
C24 C 0.8146(6) 0.1247(4) 0.8502(2)
C25 C 0.5647(6) 0.1987(4) 0.9013(1)
H1 H 0.08590 0.21860 0.64080
H2 H 0.48810 0.45010 0.54690
H3 H 0.68280 0.38330 0.48200
H4 H 0.68340 0.20920 0.46170
H5 H 0.49780 0.09580 0.50870
H6 H 0.04580 0.32920 0.53580
H7 H 0.04820 0.43650 0.56470
H8 H -0.04610 0.34460 0.59240
H9 H 0.36270 0.46980 0.63210
H10 H 0.17750 0.45630 0.65840
H11 H 0.34650 0.39360 0.68230
H12 H 0.20400 0.00290 0.69300
H13 H -0.03450 -0.06580 0.74150
H14 H -0.37610 -0.03800 0.59880
H15 H -0.13790 0.03040 0.55040
H16 H 0.56070 0.17010 0.65830
H17 H 0.73250 0.14590 0.74510
H18 H 0.29500 0.22380 0.82870
H19 H 0.12720 0.24610 0.74160
H20 H 0.86550 0.13200 0.81450
H21 H 0.89520 0.15380 0.87970
H22 H 0.79740 0.05390 0.85800
H23 H 0.58130 0.26950 0.91010
H24 H 0.62290 0.15840 0.93140
H25 H 0.43800 0.18330 0.89730
#END
