
#######################################################################
#
#                 Cambridge Crystallographic Data Centre
#                                CCDC
#
#######################################################################
#
# If this CIF has been generated from an entry in the Cambridge
# Structural Database, then it will include bibliographic, chemical,
# crystal, experimental, refinement or atomic coordinate data resulting
# from the CCDC's data processing and validation procedures.
#
#######################################################################

data_CSD_CIF_LIMQED
_audit_creation_date 2000-06-13
_audit_creation_method CSD-ConQuest-V1
_database_code_CSD LIMQED
_database_code_depnum_ccdc_archive 'not CCDC 101102 as published'
_chemical_formula_sum 'C16 H23 N1 O4'
_chemical_formula_moiety
;
C16 H23 N1 O4
;
_journal_coden_Cambridge 35
_journal_volume 64
_journal_year 1999
_journal_page_first 1494
_journal_name_full 'J.Org.Chem. '
loop_
_publ_author_name
"M.Avalos"
"R.Babiano"
"P.Cintas"
"F.J.Higes"
"J.L.Jimenez"
"J.C.Palacios"
"M.A.Silva"
_chemical_name_systematic
;
(+-)-(2R,3aR,4R,6S)-2,6-Diethoxy-4-phenylperhydroisoxazolidino(2,3-b)-1,2-oxaz
ine
;
_chemical_melting_point 348.15
_cell_volume    826.199
_exptl_crystal_colour 'colorless'
_exptl_crystal_density_diffrn 1.179
_exptl_crystal_description 'prismatic'
_diffrn_ambient_temperature ?
_diffrn_special_details
;
The study was carried out at room temperature,in the range 283-303K

;
#These two values have been output from a single CSD field.
_refine_ls_R_factor_gt 0.0604
_refine_ls_wR_factor_gt 0.0604
_symmetry_cell_setting triclinic
_symmetry_space_group_name_H-M 'P -1'
_symmetry_Int_Tables_number 2
loop_
_symmetry_equiv_pos_site_id
_symmetry_equiv_pos_as_xyz
1 x,y,z
2 -x,-y,-z
_cell_length_a 8.781(1)
_cell_length_b 9.126(1)
_cell_length_c 11.060(2)
_cell_angle_alpha 75.24(1)
_cell_angle_beta 77.08(1)
_cell_angle_gamma 78.69(1)
_cell_formula_units_Z 2
loop_
_atom_type_symbol
_atom_type_radius_bond
C 0.68
H 0.23
N 0.68
O 0.68
loop_
_atom_site_label
_atom_site_type_symbol
_atom_site_fract_x
_atom_site_fract_y
_atom_site_fract_z
O1 O 0.3141(2) 0.7485(1) 0.0582(1)
N1 N 0.4626(2) 0.8085(2) -0.0068(2)
O2 O 0.5705(2) 0.6736(2) -0.0170(1)
O3 O 0.2390(2) 0.9020(2) 0.2086(1)
O4 O 0.7436(2) 0.6876(2) -0.2091(2)
C1 C 0.2171(3) 1.0182(2) -0.0045(2)
C2 C 0.4363(2) 0.8814(2) -0.1385(2)
C3 C 0.2713(2) 0.9762(2) -0.1341(2)
C4 C 0.2088(3) 0.8724(2) 0.0993(2)
C5 C 0.5992(3) 0.6459(2) -0.1439(2)
C6 C 0.2694(3) 1.1111(2) -0.2469(2)
C7 C 0.4690(3) 0.7482(3) -0.2045(2)
C8 C 0.2262(3) 0.7776(3) 0.3163(2)
C9 C 0.2222(3) 1.0997(3) -0.3544(2)
C10 C 0.3214(4) 1.2444(3) -0.2484(2)
C11 C 0.2778(4) 1.3501(4) -0.4613(3)
C12 C 0.2271(4) 1.2191(4) -0.4610(3)
C13 C 0.8745(3) 0.5954(4) -0.1580(3)
C14 C 0.3262(4) 1.3637(3) -0.3558(3)
C15 C 0.2393(5) 0.8333(4) 0.4287(2)
C16 C 1.0150(4) 0.6561(5) -0.2147(5)
H1 H 0.11490 1.07990 -0.00110
H2 H 0.28980 1.07640 0.00830
H3 H 0.51350 0.94850 -0.17860
H4 H 0.20070 0.91170 -0.14070
H5 H 0.10330 0.84830 0.11710
H6 H 0.59600 0.54050 -0.14080
H7 H 0.50230 0.78130 -0.29460
H8 H 0.37760 0.69830 -0.18840
H9 H 0.30870 0.69410 0.30290
H10 H 0.12630 0.74250 0.33020
H11 H 0.18540 1.00780 -0.35540
H12 H 0.35470 1.25520 -0.17450
H13 H 0.27990 1.43290 -0.53510
H14 H 0.19460 1.20860 -0.53540
H15 H 0.88540 0.49390 -0.17190
H16 H 0.85540 0.58820 -0.06790
H17 H 0.36310 1.45610 -0.35580
H18 H 0.23090 0.75120 0.50290
H19 H 0.33970 0.86780 0.41400
H20 H 0.15610 0.91650 0.44150
H21 H 1.10080 0.59120 -0.17810
H22 H 1.03550 0.66180 -0.30460
H23 H 1.00510 0.75690 -0.19960
#END
