
#######################################################################
#
#                 Cambridge Crystallographic Data Centre
#                                CCDC
#
#######################################################################
#
# If this CIF has been generated from an entry in the Cambridge
# Structural Database, then it will include bibliographic, chemical,
# crystal, experimental, refinement or atomic coordinate data resulting
# from the CCDC's data processing and validation procedures.
#
#######################################################################

data_CSD_CIF_LIMQIH
_audit_creation_date 2000-06-13
_audit_creation_method CSD-ConQuest-V1
_database_code_CSD LIMQIH
_database_code_depnum_ccdc_archive 'not CCDC 101102 as published'
_chemical_formula_sum 'C24 H34 N2 O13'
_chemical_formula_moiety
;
C24 H34 N2 O13
;
_journal_coden_Cambridge 35
_journal_volume 64
_journal_year 1999
_journal_page_first 1494
_journal_name_full 'J.Org.Chem. '
loop_
_publ_author_name
"M.Avalos"
"R.Babiano"
"P.Cintas"
"F.J.Higes"
"J.L.Jimenez"
"J.C.Palacios"
"M.A.Silva"
_chemical_name_systematic
;
(2R,3aR,4S,6S)-4-(1,2,3,4,5-Penta-O-acetyl-D-galacto-pentitol-1-yl)-2-cyano-6-
ethoxyperhydroisoxazolidino(2,3-b)-1,2-oxazine
;
_chemical_melting_point 448.15
_cell_volume   1472.524
_exptl_crystal_colour 'colorless'
_exptl_crystal_density_diffrn 1.26
_exptl_crystal_description 'prismatic'
_exptl_crystal_preparation 'ethanol'
_diffrn_ambient_temperature ?
_diffrn_special_details
;
The study was carried out at room temperature,in the range 283-303K

;
#These two values have been output from a single CSD field.
_refine_ls_R_factor_gt 0.0604
_refine_ls_wR_factor_gt 0.0604
_symmetry_cell_setting monoclinic
_symmetry_space_group_name_H-M 'P 21'
_symmetry_Int_Tables_number 4
loop_
_symmetry_equiv_pos_site_id
_symmetry_equiv_pos_as_xyz
1 x,y,z
2 -x,1/2+y,-z
_cell_length_a 5.832(1)
_cell_length_b 14.417(1)
_cell_length_c 17.528(2)
_cell_angle_alpha 90
_cell_angle_beta 92.34(1)
_cell_angle_gamma 90
_cell_formula_units_Z 2
loop_
_atom_type_symbol
_atom_type_radius_bond
C 0.68
H 0.23
N 0.68
O 0.68
loop_
_atom_site_label
_atom_site_type_symbol
_atom_site_fract_x
_atom_site_fract_y
_atom_site_fract_z
O1 O 0.3474(5) 0.35860 0.1680(2)
O2 O 0.6456(4) 0.4437(3) 0.3167(1)
O3 O 0.6371(4) 0.5794(3) 0.1949(1)
O4 O 0.3421(5) 0.5044(3) 0.0478(1)
C1 C 0.4589(6) 0.5123(3) 0.2053(2)
C2 C 0.5251(7) 0.4284(3) 0.1578(2)
C3 C 0.4377(6) 0.4894(4) 0.2898(2)
C4 C 0.3965(6) 0.5745(3) 0.3385(2)
C5 C 0.4033(7) 0.5507(4) 0.4251(2)
C6 C 0.5429(7) 0.4504(4) 0.0728(2)
C7 C 0.6254(8) 0.3603(4) 0.3532(2)
C8 C 0.1623(7) 0.6195(4) 0.3197(2)
O5 O 0.2714(6) 0.7046(3) 0.4346(2)
O6 O 0.3184(6) 0.6138(3) 0.5393(2)
O7 O 0.3776(6) 0.6886(3) 0.1617(2)
O8 O 0.5644(6) 0.3882(3) -0.0551(2)
N1 N 0.2313(6) 0.6092(3) 0.4644(2)
C9 C 0.5412(10) 0.3621(4) 0.0244(2)
C10 C 0.3798(8) 0.5776(4) 0.0020(2)
O9 O 0.4491(6) 0.3267(3) 0.3685(2)
O10 O 0.6214(8) 0.2508(3) 0.1930(2)
C11 C 0.5729(8) 0.6660(4) 0.1707(2)
C12 C 0.7743(9) 0.7245(4) 0.1570(3)
C13 C 0.4192(9) 0.2710(4) 0.1842(2)
C14 C 0.6302(8) 0.5665(5) 0.4683(2)
C15 C 0.1525(8) 0.7111(4) 0.3618(2)
O11 O 0.5686(6) 0.6049(4) -0.0125(2)
O12 O -0.0790(6) 0.7362(3) 0.3683(2)
C16 C 0.7810(11) 0.3915(4) -0.0807(3)
C17 C 0.5682(9) 0.6167(5) 0.5399(3)
C18 C 0.2228(10) 0.2076(5) 0.1879(3)
C19 C 0.8562(9) 0.3190(5) 0.3696(3)
C20 C 0.7780(14) 0.4216(5) -0.1611(3)
O13 O 0.9454(8) 0.3714(5) -0.0424(3)
C21 C 0.1589(9) 0.6195(5) -0.0263(3)
N2 N 0.7249(15) 0.5398(7) 0.6627(3)
C22 C 0.6525(13) 0.5720(6) 0.6094(3)
C23 C -0.2995(16) 0.8793(10) 0.3883(9)
C24 C -0.0820(15) 0.8323(5) 0.3920(6)
H1 H 0.35950 0.48700 0.43090
H2 H 0.68080 0.48510 0.06540
H3 H 0.04200 0.57970 0.33620
H4 H 0.14150 0.62890 0.26560
H5 H 0.40150 0.32840 0.03130
H6 H 0.66830 0.32330 0.04010
H7 H 0.72530 0.78490 0.13990
H8 H 0.86400 0.73030 0.20390
H9 H 0.86560 0.69640 0.11890
H10 H 0.72910 0.60370 0.43830
H11 H 0.70570 0.50890 0.48070
H12 H 0.22680 0.75730 0.33200
H13 H 0.61990 0.67980 0.53870
H14 H 0.27850 0.14630 0.19930
H15 H 0.12220 0.22720 0.22670
H16 H 0.14050 0.20720 0.13930
H17 H 0.83890 0.26080 0.39540
H18 H 0.92990 0.30890 0.32240
H19 H 0.94810 0.36010 0.40130
H20 H 0.93170 0.42400 -0.17870
H21 H 0.68890 0.37890 -0.19220
H22 H 0.71010 0.48210 -0.16480
H23 H 0.18660 0.67190 -0.05850
H24 H 0.07390 0.57330 -0.05500
H25 H 0.07230 0.63900 0.01630
H26 H -0.29840 0.94320 0.40390
H27 H -0.37730 0.87360 0.33930
H28 H -0.37760 0.84280 0.42500
H29 H -0.00330 0.86950 0.35600
H30 H -0.00360 0.83900 0.44100
H31 H 0.31050 0.45250 0.29280
H32 H 0.52100 0.62120 0.32730
H33 H 0.68640 0.39240 0.17460
H34 H 0.30200 0.52770 0.19040
#END
