
#######################################################################
#
#                 Cambridge Crystallographic Data Centre
#                                CCDC
#
#######################################################################
#
# If this CIF has been generated from an entry in the Cambridge
# Structural Database, then it will include bibliographic, chemical,
# crystal, experimental, refinement or atomic coordinate data resulting
# from the CCDC's data processing and validation procedures.
#
#######################################################################

data_CSD_CIF_LINJAT
_audit_creation_date 1995-09-14
_audit_creation_method CSD-ConQuest-V1
_database_code_CSD LINJAT
_chemical_formula_sum 'C9 H11 N3 O6'
_chemical_formula_moiety
;
C9 H11 N3 O6
;
_journal_coeditor_code "IUCr CR1141"
_journal_coden_Cambridge 591
_journal_volume 51
_journal_year 1995
_journal_page_first 703
_journal_name_full 'Acta Crystallogr.,Sect.C:Cryst.Struct.Commun. '
loop_
_publ_author_name
"C.George"
"R.D.Gilardi"
"W.W.Zajac Junior"
"J.H.Buzby"
"T.R.Walters"
_chemical_name_systematic
;
3,7,9-Trinitronoradamantane
;
_cell_volume   1079.162
_exptl_crystal_colour 'Colorless'
_exptl_crystal_density_diffrn 1.583
_diffrn_ambient_temperature ?
_diffrn_special_details
;
The study was carried out at room temperature,in the range 283-303K

;
#These two values have been output from a single CSD field.
_refine_ls_R_factor_gt 0.032
_refine_ls_wR_factor_gt 0.032
_symmetry_cell_setting orthorhombic
_symmetry_space_group_name_H-M 'P 21 c n'
_symmetry_Int_Tables_number 33
loop_
_symmetry_equiv_pos_site_id
_symmetry_equiv_pos_as_xyz
1 x,y,z
2 1/2+x,1/2+y,1/2-z
3 1/2+x,-y,-z
4 x,1/2-y,1/2+z
_cell_length_a 7.169(1)
_cell_length_b 10.875(1)
_cell_length_c 13.842(2)
_cell_angle_alpha 90
_cell_angle_beta 90
_cell_angle_gamma 90
_cell_formula_units_Z 4
loop_
_atom_type_symbol
_atom_type_radius_bond
C 0.68
H 0.23
N 0.68
O 0.68
loop_
_atom_site_label
_atom_site_type_symbol
_atom_site_fract_x
_atom_site_fract_y
_atom_site_fract_z
C1 C 1.0753(7) 0.2878(3) 0.4743(2)
C2 C 1.1325(7) 0.1537(3) 0.4907(2)
C3 C 1.1628(7) 0.1141(2) 0.3860(2)
N1 N 1.1500(7) -0.0226(2) 0.3699(2)
O1 O 1.1248(7) -0.0888(2) 0.4391(2)
O2 O 1.1710(7) -0.0583(2) 0.2876(2)
C4 C 1.3501(7) 0.1637(3) 0.3517(2)
C5 C 1.2992(7) 0.2978(3) 0.3304(2)
C6 C 1.1297(7) 0.2771(3) 0.2634(2)
C7 C 1.0151(7) 0.1919(3) 0.3258(2)
N2 N 0.8735(7) 0.1161(2) 0.2719(2)
O3 O 0.8515(7) 0.1338(3) 0.1866(2)
O4 O 0.7855(7) 0.0407(2) 0.3187(2)
C8 C 0.9159(7) 0.2704(3) 0.4032(2)
C9 C 1.22910 0.3611(3) 0.4228(2)
N3 N 1.3917(7) 0.3860(3) 0.4914(2)
O5 O 1.5401(7) 0.4099(3) 0.4556(2)
O6 O 1.3618(7) 0.3886(3) 0.5770(2)
H1 H 1.04810 0.33140 0.53300
H2 H 1.03490 0.10720 0.52100
H3 H 1.24460 0.14700 0.52820
H4 H 1.39340 0.12190 0.29480
H5 H 1.44310 0.15820 0.40140
H6 H 1.39930 0.34670 0.30500
H7 H 1.16510 0.23880 0.20370
H8 H 1.06530 0.35260 0.25010
H9 H 0.81330 0.22700 0.43190
H10 H 0.87260 0.34730 0.37760
H11 H 1.17370 0.43750 0.40330
#END
