
#######################################################################
#
#                 Cambridge Crystallographic Data Centre
#                                CCDC
#
#######################################################################
#
# If this CIF has been generated from an entry in the Cambridge
# Structural Database, then it will include bibliographic, chemical,
# crystal, experimental, refinement or atomic coordinate data resulting
# from the CCDC's data processing and validation procedures.
#
#######################################################################

data_CSD_CIF_LIPJOL
_audit_creation_date 2013-10-16
_audit_creation_method CSD-ConQuest-V1
_database_code_CSD LIPJOL
_database_code_depnum_ccdc_archive 'CCDC 951463'
_chemical_formula_sum 'C18 H18 N2 O3'
_chemical_formula_moiety
;
C18 H18 N2 O3
;
_journal_coden_Cambridge 1336
_journal_volume 15
_journal_year 2013
_journal_page_first 4862
_journal_name_full 'Org.Lett. '
loop_
_publ_author_name
"Wen-Chung Lin"
"Ding-Yah Yang"
_chemical_name_systematic
;
5-(2-Nitrophenyl)-3,4,4a,5,6,10b-hexahydro-2H-pyrano[3,2-c]quinoline
;
_cell_volume    750.518
_exptl_crystal_colour 'orange'
_exptl_crystal_density_diffrn 1.373
_exptl_crystal_description 'parallelepiped'
_diffrn_ambient_temperature 293
#These two values have been output from a single CSD field.
_refine_ls_R_factor_gt 0.0422
_refine_ls_wR_factor_gt 0.0422
_symmetry_cell_setting triclinic
_symmetry_space_group_name_H-M 'P -1'
_symmetry_Int_Tables_number 2
loop_
_symmetry_equiv_pos_site_id
_symmetry_equiv_pos_as_xyz
1 x,y,z
2 -x,-y,-z
_cell_length_a 8.2315(6)
_cell_length_b 10.0246(7)
_cell_length_c 10.7097(7)
_cell_angle_alpha 115.321(7)
_cell_angle_beta 94.926(6)
_cell_angle_gamma 105.247(6)
_cell_formula_units_Z 2
loop_
_atom_type_symbol
_atom_type_radius_bond
C 0.68
H 0.23
N 0.68
O 0.68
loop_
_atom_site_label
_atom_site_type_symbol
_atom_site_fract_x
_atom_site_fract_y
_atom_site_fract_z
O1 O 0.26920(12) 0.17927(12) 0.38956(10)
O2 O 0.17442(15) 0.48065(13) 0.16772(11)
O3 O 0.19686(14) 0.61001(12) 0.04983(12)
N1 N 0.57398(14) 0.27789(14) 0.12810(12)
H1 H 0.645(2) 0.3186(19) 0.0886(17)
N2 N 0.20491(14) 0.49650(13) 0.06475(12)
C1 C 0.65192(16) 0.28467(15) 0.25284(14)
C2 C 0.82552(17) 0.29374(16) 0.27527(15)
H2 H 0.88870 0.29910 0.20860
C3 C 0.90392(18) 0.29485(17) 0.39509(16)
H3 H 1.01910 0.30040 0.40850
C4 C 0.81091(19) 0.28771(18) 0.49555(15)
H4 H 0.86330 0.28860 0.57650
C5 C 0.63937(18) 0.27932(17) 0.47425(14)
H5 H 0.57760 0.27520 0.54200
C6 C 0.55725(16) 0.27683(15) 0.35357(13)
C7 C 0.36983(16) 0.27121(15) 0.33357(13)
H6 H 0.37030 0.37860 0.38850
C8 C 0.23614(18) 0.01457(18) 0.30739(16)
H7 H 0.16820 -0.04060 0.35100
H8 H 0.34490 -0.00600 0.30620
C9 C 0.13983(17) -0.04540(17) 0.15687(16)
H9 H 0.02880 -0.02900 0.15730
H10 H 0.11920 -0.15680 0.10290
C10 C 0.24637(17) 0.04106(15) 0.08785(14)
H11 H 0.35260 0.01650 0.07910
H12 H 0.18170 0.00760 -0.00650
C11 C 0.28886(16) 0.21725(15) 0.17807(13)
H13 H 0.18070 0.24060 0.17490
C12 C 0.41458(15) 0.31655(15) 0.12714(13)
H14 H 0.44140 0.42750 0.19380
C13 C 0.34256(16) 0.28826(15) -0.02122(13)
C14 C 0.24878(16) 0.37432(15) -0.04953(13)
C15 C 0.18943(17) 0.35027(16) -0.18554(14)
H15 H 0.12820 0.41050 -0.19930
C16 C 0.22232(19) 0.23618(18) -0.29977(15)
H16 H 0.18380 0.21880 -0.39140
C17 C 0.31353(19) 0.14768(18) -0.27624(15)
H17 H 0.33510 0.06970 -0.35290
C18 C 0.37274(18) 0.17398(16) -0.14014(15)
H18 H 0.43460 0.11360 -0.12740
#END
