
#######################################################################
#
#                 Cambridge Crystallographic Data Centre
#                                CCDC
#
#######################################################################
#
# If this CIF has been generated from an entry in the Cambridge
# Structural Database, then it will include bibliographic, chemical,
# crystal, experimental, refinement or atomic coordinate data resulting
# from the CCDC's data processing and validation procedures.
#
#######################################################################

data_CSD_CIF_LIPLAY
_audit_creation_date 2008-01-17
_audit_creation_method CSD-ConQuest-V1
_database_code_CSD LIPLAY
_database_code_depnum_ccdc_archive 'CCDC 637300'
_chemical_formula_sum 'C20 H26 N4 O2'
_chemical_formula_moiety
;
C20 H26 N4 O2
;
_journal_coden_Cambridge 154
_journal_volume 60
_journal_year 2007
_journal_page_first 685
_journal_name_full 'Aust.J.Chem. '
loop_
_publ_author_name
"J.E.Johnson"
"C.Carvallo"
"D.D.Dolliver"
"N.Sanchez"
"V.Garza"
"D.C.Canseco"
"G.L.Eggleton"
"F.R.Fronczek"
_chemical_name_systematic
;
1,4-bis(N'-(Z)-4-methylbenzene-N-hydroxycarboximidamido)butane
;
_chemical_melting_point 459.65
_cell_volume   1842.345
_exptl_crystal_colour 'colorless'
_exptl_crystal_density_diffrn 1.278
_exptl_special_details
;
Melting point range 459.65-460.15K

;
_exptl_crystal_description 'blade'
_exptl_crystal_preparation 'ethanol/water'
_diffrn_ambient_temperature 110
#These two values have been output from a single CSD field.
_refine_ls_R_factor_gt 0.042
_refine_ls_wR_factor_gt 0.042
_symmetry_cell_setting monoclinic
_symmetry_space_group_name_H-M 'C 2/c'
_symmetry_Int_Tables_number 15
loop_
_symmetry_equiv_pos_site_id
_symmetry_equiv_pos_as_xyz
1 x,y,z
2 1/2+x,1/2+y,z
3 -x,y,1/2-z
4 1/2-x,1/2+y,1/2-z
5 -x,-y,-z
6 -1/2-x,-1/2-y,-z
7 x,-y,-1/2+z
8 -1/2+x,-1/2-y,-1/2+z
_cell_length_a 19.854(2)
_cell_length_b 7.1601(10)
_cell_length_c 13.514(2)
_cell_angle_alpha 90
_cell_angle_beta 106.463(9)
_cell_angle_gamma 90
_cell_formula_units_Z 4
loop_
_atom_type_symbol
_atom_type_radius_bond
C 0.68
H 0.23
N 0.68
O 0.68
loop_
_atom_site_label
_atom_site_type_symbol
_atom_site_fract_x
_atom_site_fract_y
_atom_site_fract_z
O1 O 0.49627(4) 0.27582(11) -0.00015(6)
H1 H 0.4752(8) 0.372(2) -0.0408(11)
N1 N 0.57801(4) 0.06004(11) 0.13381(6)
H2 H 0.5463(7) 0.0236(18) 0.0778(10)
N2 N 0.54413(4) 0.36996(12) 0.08535(6)
C1 C 0.53836(5) -0.06030(14) 0.28304(7)
H3 H 0.54760 0.05580 0.32450
H4 H 0.54590 -0.16710 0.33150
C2 C 0.59073(5) -0.07365(14) 0.21931(7)
H5 H 0.63870 -0.05320 0.26550
H6 H 0.58900 -0.20170 0.19100
C3 C 0.58086(5) 0.24907(14) 0.14956(7)
C4 C 0.63290(5) 0.32349(13) 0.24362(7)
C5 C 0.61183(5) 0.42815(14) 0.31633(8)
H7 H 0.56350 0.45630 0.30540
C6 C 0.66127(5) 0.49204(14) 0.40529(8)
H8 H 0.64620 0.56260 0.45460
C7 C 0.73251(5) 0.45344(13) 0.42255(7)
C8 C 0.75286(5) 0.34717(14) 0.34963(8)
H9 H 0.80110 0.31840 0.36070
C9 C 0.70412(5) 0.28227(14) 0.26111(7)
H10 H 0.71920 0.20990 0.21240
C10 C 0.78726(6) 0.52278(15) 0.51712(8)
H11 H 0.81720 0.41840 0.55010
H12 H 0.76410 0.57630 0.56570
H13 H 0.81610 0.61870 0.49710
O1B O 0.50373(4) 0.27582(11) 0.50015(6)
H1B H 0.5248(8) 0.372(2) 0.5408(11)
N1B N 0.42199(4) 0.06004(11) 0.36619(6)
H2B H 0.4537(7) 0.0236(18) 0.4222(10)
N2B N 0.45587(4) 0.36996(12) 0.41465(6)
C1B C 0.46164(5) -0.06030(14) 0.21696(7)
H3B H 0.45240 0.05580 0.17550
H4B H 0.45410 -0.16710 0.16850
C2B C 0.40927(5) -0.07365(14) 0.28069(7)
H5B H 0.36130 -0.05320 0.23450
H6B H 0.41100 -0.20170 0.30900
C3B C 0.41914(5) 0.24907(14) 0.35044(7)
C4B C 0.36710(5) 0.32349(13) 0.25638(7)
C5B C 0.38817(5) 0.42815(14) 0.18367(8)
H7B H 0.43650 0.45630 0.19460
C6B C 0.33873(5) 0.49204(14) 0.09471(8)
H8B H 0.35380 0.56260 0.04540
C7B C 0.26749(5) 0.45344(13) 0.07745(7)
C8B C 0.24714(5) 0.34717(14) 0.15037(8)
H9B H 0.19890 0.31840 0.13930
C9B C 0.29588(5) 0.28227(14) 0.23889(7)
H10B H 0.28080 0.20990 0.28760
C10B C 0.21274(6) 0.52278(15) -0.01712(8)
H11B H 0.18280 0.41840 -0.05010
H12B H 0.23590 0.57630 -0.06570
H13B H 0.18390 0.61870 0.00290
#END
