
#######################################################################
#
#                 Cambridge Crystallographic Data Centre
#                                CCDC
#
#######################################################################
#
# If this CIF has been generated from an entry in the Cambridge
# Structural Database, then it will include bibliographic, chemical,
# crystal, experimental, refinement or atomic coordinate data resulting
# from the CCDC's data processing and validation procedures.
#
#######################################################################

data_CSD_CIF_LIPWEN
_audit_creation_date 2008-01-17
_audit_creation_method CSD-ConQuest-V1
_database_code_CSD LIPWEN
_database_code_depnum_ccdc_archive 'CCDC 665015'
_chemical_formula_sum 'C22 H16 N2 O4'
_chemical_formula_moiety
;
C22 H16 N2 O4
;
_journal_coden_Cambridge 1336
_journal_volume 9
_journal_year 2007
_journal_page_first 4057
_journal_name_full 'Org.Lett. '
loop_
_publ_author_name
"Yuanzhen Li"
"Haixia Zou"
"Jianxian Gong"
"Jing Xiang"
"Tuoping Luo"
"Junmin Quan"
"Guoxin Wang"
"Zhen Yang"
_chemical_name_systematic
;
3-(Cyclohexa-1,4-dienyl)-1-(4-nitrophenyl)-4-phenylpyrrole-2,5-dione
;
_cell_volume   1832.572
_exptl_crystal_colour 'colorless'
_exptl_crystal_density_diffrn 1.35
_exptl_crystal_description 'block'
_diffrn_ambient_temperature 293
#These two values have been output from a single CSD field.
_refine_ls_R_factor_gt 0.0562
_refine_ls_wR_factor_gt 0.0562
_symmetry_cell_setting monoclinic
_symmetry_space_group_name_H-M 'P 21/c'
_symmetry_Int_Tables_number 14
loop_
_symmetry_equiv_pos_site_id
_symmetry_equiv_pos_as_xyz
1 x,y,z
2 -x,1/2+y,1/2-z
3 -x,-y,-z
4 x,-1/2-y,-1/2+z
_cell_length_a 18.774(4)
_cell_length_b 14.394(3)
_cell_length_c 6.8848(14)
_cell_angle_alpha 90
_cell_angle_beta 99.94(3)
_cell_angle_gamma 90
_cell_formula_units_Z 4
loop_
_atom_type_symbol
_atom_type_radius_bond
C 0.68
H 0.23
N 0.68
O 0.68
loop_
_atom_site_label
_atom_site_type_symbol
_atom_site_fract_x
_atom_site_fract_y
_atom_site_fract_z
O1 O 0.10996(9) 0.53178(11) 0.1678(3)
O2 O 0.21553(10) 0.71956(14) -0.2270(3)
O3 O -0.12137(12) 0.89723(17) -0.2959(5)
O4 O -0.16943(12) 0.76920(19) -0.4056(4)
N1 N 0.14372(11) 0.63370(13) -0.0546(3)
N2 N -0.11849(13) 0.8140(2) -0.3201(4)
C1 C 0.20920(14) 0.66100(19) -0.1078(5)
C2 C 0.26660(13) 0.60487(17) 0.0140(4)
C3 C 0.23571(13) 0.54915(16) 0.1296(4)
C4 C 0.15589(15) 0.56638(16) 0.0904(4)
C5 C 0.34282(15) 0.61810(17) 0.0026(5)
C6 C 0.36633(18) 0.6289(2) -0.1729(7)
H1 H 0.33280 0.63180 -0.28910
C7 C 0.4401(2) 0.6357(3) -0.1809(8)
H2 H 0.45550 0.63830 -0.30210
C8 C 0.4891(2) 0.6383(3) -0.0117(11)
H3 H 0.53780 0.64740 -0.01610
C9 C 0.4670(2) 0.6278(3) 0.1628(9)
H4 H 0.50110 0.62570 0.27780
C10 C 0.39430(17) 0.6202(2) 0.1744(6)
H5 H 0.37990 0.61650 0.29680
C11 C 0.26801(14) 0.47978(17) 0.2737(5)
C12 C 0.24883(17) 0.4743(2) 0.4465(6)
H6 H 0.21280 0.51400 0.47390
C13 C 0.2814(2) 0.4081(3) 0.6017(6)
H7 H 0.24330 0.37150 0.64290
H8 H 0.30530 0.44280 0.71530
C14 C 0.3349(2) 0.3442(4) 0.5342(11)
H9 H 0.34700 0.28870 0.60110
C15 C 0.3653(3) 0.3656(3) 0.3803(8)
H10 H 0.41320 0.34970 0.37810
C16 C 0.32228(17) 0.4146(2) 0.2133(6)
H11 H 0.29720 0.36930 0.12190
H12 H 0.35460 0.44940 0.14460
C17 C 0.07630(13) 0.67786(17) -0.1197(4)
C18 C 0.01467(14) 0.62624(17) -0.1810(4)
H13 H 0.01690 0.56170 -0.17770
C19 C -0.04983(14) 0.66970(19) -0.2467(4)
H14 H -0.09170 0.63550 -0.28870
C20 C -0.05110(13) 0.76577(19) -0.2490(4)
C21 C 0.00968(14) 0.81788(18) -0.1863(4)
H15 H 0.00740 0.88240 -0.18810
C22 C 0.07334(14) 0.77382(16) -0.1214(4)
H16 H 0.11500 0.80830 -0.07820
#END
