
#######################################################################
#
#                 Cambridge Crystallographic Data Centre
#                                CCDC
#
#######################################################################
#
# If this CIF has been generated from an entry in the Cambridge
# Structural Database, then it will include bibliographic, chemical,
# crystal, experimental, refinement or atomic coordinate data resulting
# from the CCDC's data processing and validation procedures.
#
#######################################################################

data_CSD_CIF_LIPWOY
_audit_creation_date 2013-10-16
_audit_creation_method CSD-ConQuest-V1
_database_code_CSD LIPWOY
_database_code_depnum_ccdc_archive 'CCDC 917664'
_chemical_formula_sum 'C19 H17 N3 O4'
_chemical_formula_moiety
;
C19 H17 N3 O4
;
_journal_coden_Cambridge 1336
_journal_volume 15
_journal_year 2013
_journal_page_first 4862
_journal_name_full 'Org.Lett. '
loop_
_publ_author_name
"Wen-Chung Lin"
"Ding-Yah Yang"
_chemical_name_systematic
;
6-Methoxy-12-nitro-2,3,4a,14c-tetrahydro-1H-indazolo[2,3-a]pyrano[3,2-c]quinol
ine
;
_cell_volume   3363.496
_exptl_crystal_colour 'brown'
_exptl_crystal_density_diffrn 1.388
_exptl_crystal_description 'parallelepiped'
_diffrn_ambient_temperature 297
#These two values have been output from a single CSD field.
_refine_ls_R_factor_gt 0.0517
_refine_ls_wR_factor_gt 0.0517
_symmetry_cell_setting orthorhombic
_symmetry_space_group_name_H-M 'P b c a'
_symmetry_Int_Tables_number 61
loop_
_symmetry_equiv_pos_site_id
_symmetry_equiv_pos_as_xyz
1 x,y,z
2 1/2-x,-y,1/2+z
3 -x,1/2+y,1/2-z
4 1/2+x,1/2-y,-z
5 -x,-y,-z
6 -1/2+x,y,-1/2-z
7 x,-1/2-y,-1/2+z
8 -1/2-x,-1/2+y,z
_cell_length_a 12.3580(5)
_cell_length_b 11.8372(5)
_cell_length_c 22.9929(12)
_cell_angle_alpha 90
_cell_angle_beta 90
_cell_angle_gamma 90
_cell_formula_units_Z 8
loop_
_atom_type_symbol
_atom_type_radius_bond
C 0.68
H 0.23
N 0.68
O 0.68
loop_
_atom_site_label
_atom_site_type_symbol
_atom_site_fract_x
_atom_site_fract_y
_atom_site_fract_z
O1 O 0.27895(9) 0.71311(10) 0.38771(6)
O2 O -0.11020(11) 0.87808(13) 0.31327(6)
O3 O 0.31217(18) 0.3380(2) 0.70596(8)
O4 O 0.17832(17) 0.4449(2) 0.72824(8)
N1 N 0.10183(10) 0.61339(11) 0.47673(6)
N2 N 0.07614(11) 0.61867(12) 0.53423(6)
N3 N 0.2396(2) 0.4031(2) 0.69291(9)
C1 C 0.04828(12) 0.68281(13) 0.43535(7)
C2 C -0.04390(13) 0.74355(14) 0.44975(8)
H1 H -0.07200 0.74060 0.48720
C3 C -0.09318(14) 0.80837(16) 0.40758(9)
H2 H -0.15400 0.85070 0.41710
C4 C -0.05341(14) 0.81141(15) 0.35116(8)
C5 C 0.03901(14) 0.75143(14) 0.33733(8)
H3 H 0.06610 0.75350 0.29960
C6 C 0.09164(13) 0.68800(14) 0.37954(7)
C7 C 0.19927(13) 0.63319(14) 0.36816(8)
H4 H 0.20790 0.62050 0.32630
C8 C 0.38758(14) 0.67394(17) 0.37782(10)
H5 H 0.43840 0.73090 0.39100
H6 H 0.39870 0.66300 0.33640
C9 C 0.40925(14) 0.56469(16) 0.40929(9)
H7 H 0.40580 0.57710 0.45090
H8 H 0.48130 0.53790 0.39980
C10 C 0.32642(14) 0.47671(15) 0.39187(8)
H9 H 0.33640 0.40930 0.41520
H10 H 0.33700 0.45640 0.35140
C11 C 0.21114(13) 0.52151(14) 0.40033(7)
H11 H 0.16090 0.46720 0.38290
C12 C 0.18020(12) 0.53696(13) 0.46297(8)
C13 C 0.21003(13) 0.48745(14) 0.51566(7)
C14 C 0.28581(14) 0.40435(16) 0.53328(9)
H12 H 0.32920 0.36820 0.50600
C15 C 0.29414(16) 0.37837(18) 0.59041(9)
H13 H 0.34400 0.32460 0.60270
C16 C 0.22680(16) 0.43310(18) 0.63133(9)
C17 C 0.15174(15) 0.51226(17) 0.61729(8)
H14 H 0.10840 0.54600 0.64540
C18 C 0.14267(13) 0.54081(15) 0.55790(7)
C19 C -0.0752(2) 0.8827(3) 0.25485(10)
H15 H -0.12150 0.93250 0.23320
H16 H -0.07800 0.80840 0.23820
H17 H -0.00220 0.91040 0.25340
#END
