
#######################################################################
#
#                 Cambridge Crystallographic Data Centre
#                                CCDC
#
#######################################################################
#
# If this CIF has been generated from an entry in the Cambridge
# Structural Database, then it will include bibliographic, chemical,
# crystal, experimental, refinement or atomic coordinate data resulting
# from the CCDC's data processing and validation procedures.
#
#######################################################################

data_CSD_CIF_LIPXIT
_audit_creation_date 2013-10-16
_audit_creation_method CSD-ConQuest-V1
_database_code_CSD LIPXIT
_database_code_depnum_ccdc_archive 'CCDC 951464'
_chemical_formula_sum 'C20 H21 N3 O4'
_chemical_formula_moiety
;
C20 H21 N3 O4
;
_journal_coden_Cambridge 1336
_journal_volume 15
_journal_year 2013
_journal_page_first 4862
_journal_name_full 'Org.Lett. '
loop_
_publ_author_name
"Wen-Chung Lin"
"Ding-Yah Yang"
_chemical_name_systematic
;
1-(6-Methoxy-2-(2-nitrophenyl)-1,2,3,4-tetrahydroquinolin-4-yl)pyrrolidin-2-on
e
;
_cell_volume    880.523
_exptl_crystal_colour 'orange'
_exptl_crystal_density_diffrn 1.386
_exptl_crystal_description 'parallelepiped'
_diffrn_ambient_temperature 150
#These two values have been output from a single CSD field.
_refine_ls_R_factor_gt 0.0564
_refine_ls_wR_factor_gt 0.0564
_symmetry_cell_setting triclinic
_symmetry_space_group_name_H-M 'P -1'
_symmetry_Int_Tables_number 2
loop_
_symmetry_equiv_pos_site_id
_symmetry_equiv_pos_as_xyz
1 x,y,z
2 -x,-y,-z
_cell_length_a 9.2372(7)
_cell_length_b 9.6199(14)
_cell_length_c 10.3333(14)
_cell_angle_alpha 83.624(12)
_cell_angle_beta 76.161(9)
_cell_angle_gamma 82.285(9)
_cell_formula_units_Z 2
loop_
_atom_type_symbol
_atom_type_radius_bond
C 0.68
H 0.23
N 0.68
O 0.68
loop_
_atom_site_label
_atom_site_type_symbol
_atom_site_fract_x
_atom_site_fract_y
_atom_site_fract_z
O1 O 1.46574(14) 0.65978(15) -0.05153(14)
O2 O 1.04488(17) 0.89744(16) -0.33817(14)
O3 O 0.6972(2) 0.6795(2) 0.49456(17)
O4 O 0.70263(19) 0.60174(18) 0.30484(17)
N1 N 0.88422(17) 0.8552(2) 0.21130(16)
H1 H 0.887(3) 0.917(3) 0.258(2)
N2 N 0.95158(17) 0.72307(16) -0.18318(14)
N3 N 0.6645(2) 0.6924(2) 0.38548(18)
C1 C 1.02908(19) 0.80985(19) 0.13732(18)
C2 C 1.1491(2) 0.7973(2) 0.20043(18)
H2 H 1.13230 0.82300 0.28740
C3 C 1.2921(2) 0.7474(2) 0.1351(2)
H3 H 1.37080 0.74030 0.17810
C4 C 1.3192(2) 0.7076(2) 0.00538(19)
C5 C 1.2020(2) 0.7218(2) -0.05997(18)
H4 H 1.21980 0.69590 -0.14700
C6 C 1.05697(19) 0.77500(19) 0.00507(17)
C7 C 0.9299(2) 0.8055(2) -0.06828(17)
H5 H 0.92840 0.90460 -0.10310
C8 C 0.7792(2) 0.7909(2) 0.03133(18)
H6 H 0.77600 0.69490 0.07140
H7 H 0.69740 0.81420 -0.01390
C9 C 0.7646(2) 0.8924(2) 0.13935(19)
H8 H 0.77810 0.98600 0.09340
C10 C 0.6122(2) 0.9039(2) 0.23688(19)
C11 C 0.5063(2) 1.0166(2) 0.2130(2)
H9 H 0.53040 1.07690 0.13610
C12 C 0.3685(2) 1.0415(3) 0.2983(2)
H10 H 0.30120 1.11710 0.27850
C13 C 0.3295(2) 0.9537(3) 0.4145(2)
H11 H 0.23650 0.97070 0.47290
C14 C 0.4289(2) 0.8424(3) 0.4420(2)
H12 H 0.40420 0.78310 0.51950
C15 C 0.5679(2) 0.8182(2) 0.35294(19)
C16 C 1.4934(2) 0.6015(3) -0.1770(2)
H13 H 1.43010 0.52830 -0.17010
H14 H 1.59670 0.56290 -0.20160
H15 H 1.47220 0.67380 -0.24390
C17 C 0.9406(2) 0.5725(2) -0.17408(19)
H16 H 0.84490 0.54970 -0.11840
H17 H 1.02080 0.51920 -0.13780
C18 C 0.9551(2) 0.5423(2) -0.31996(19)
H18 H 1.01390 0.45250 -0.33880
H19 H 0.85710 0.54120 -0.33830
C19 C 1.0344(2) 0.6629(2) -0.40299(19)
H20 H 1.14030 0.63320 -0.43580
H21 H 0.99030 0.69590 -0.47870
C20 C 1.0124(2) 0.7769(2) -0.30857(18)
#END
