
#######################################################################
#
#                 Cambridge Crystallographic Data Centre
#                                CCDC
#
#######################################################################
#
# If this CIF has been generated from an entry in the Cambridge
# Structural Database, then it will include bibliographic, chemical,
# crystal, experimental, refinement or atomic coordinate data resulting
# from the CCDC's data processing and validation procedures.
#
#######################################################################

data_CSD_CIF_LIQDEW
_audit_creation_date 2013-10-16
_audit_creation_method CSD-ConQuest-V1
_database_code_CSD LIQDEW
_database_code_depnum_ccdc_archive 'CCDC 966764'
_chemical_formula_sum 'C11 H10 N4 O2'
_chemical_formula_moiety
;
C11 H10 N4 O2
;
_journal_coden_Cambridge 122
_journal_year 2013
_journal_page_first 819
_journal_name_full 'Khim.Get.Soedin.,SSSR(Russ.)(Chem.Heterocycl.Compd.) '
loop_
_publ_author_name
"E.B.Gorbunov"
"R.K.Novikova"
"P.V.Plekhanov"
"P.A.Slepukhin"
"G.L.Rusinov"
"V.L.Rusinov"
"V.N.Charushin"
"O.N.Chupakhin"
_chemical_name_systematic
;
2-Benzylamino-5-nitropyrimidine
;
_cell_volume    548.617
_diffrn_ambient_temperature 298
#These two values have been output from a single CSD field.
_refine_ls_R_factor_gt 0.0818
_refine_ls_wR_factor_gt 0.0818
_symmetry_cell_setting triclinic
_symmetry_space_group_name_H-M 'P -1'
_symmetry_Int_Tables_number 2
loop_
_symmetry_equiv_pos_site_id
_symmetry_equiv_pos_as_xyz
1 x,y,z
2 -x,-y,-z
_cell_length_a 5.6633(5)
_cell_length_b 9.4701(11)
_cell_length_c 10.4272(10)
_cell_angle_alpha 80.040(9)
_cell_angle_beta 87.993(7)
_cell_angle_gamma 85.029(8)
_cell_formula_units_Z 2
loop_
_atom_type_symbol
_atom_type_radius_bond
C 0.68
H 0.23
N 0.68
O 0.68
loop_
_atom_site_label
_atom_site_type_symbol
_atom_site_fract_x
_atom_site_fract_y
_atom_site_fract_z
N1 N 0.1854(3) 0.34577(16) -0.01058(16)
N2 N 0.2376(3) 0.10747(18) 0.07944(16)
C1 C 0.3140(3) 0.21690(19) -0.00256(17)
N3 N 0.5160(3) 0.19016(15) -0.07195(15)
C2 C 0.4794(3) 0.4374(2) -0.16082(18)
O1 O 0.4685(3) 0.67726(16) -0.24540(15)
C3 C 0.2724(3) 0.4535(2) -0.09073(18)
H1 H 0.18990 0.54390 -0.10000
C4 C 0.5949(3) 0.3015(2) -0.15012(18)
H2 H 0.73240 0.28810 -0.19950
C5 C 0.0507(3) -0.01116(19) 0.27761(18)
N4 N 0.5727(4) 0.5585(2) -0.24280(18)
C6 C 0.0378(3) 0.1178(2) 0.17104(19)
H3 H -0.10990 0.12340 0.12540
H4 H 0.04130 0.20450 0.20830
O2 O 0.7587(3) 0.53824(17) -0.30142(19)
C7 C 0.2364(3) -0.0361(2) 0.3624(2)
H5 H 0.35300 0.02840 0.35400
C8 C -0.1061(4) -0.2254(2) 0.3909(2)
H6 H -0.22340 -0.28950 0.40060
C9 C 0.2523(4) -0.1547(3) 0.4596(2)
H7 H 0.37990 -0.17040 0.51550
C10 C 0.0817(5) -0.2491(2) 0.4738(2)
H8 H 0.09210 -0.32930 0.53940
C11 C -0.1211(3) -0.1069(2) 0.2938(2)
H9 H -0.24920 -0.09140 0.23820
H10 H 0.312(3) 0.028(2) 0.0783(18)
#END
