
#######################################################################
#
#                 Cambridge Crystallographic Data Centre
#                                CCDC
#
#######################################################################
#
# If this CIF has been generated from an entry in the Cambridge
# Structural Database, then it will include bibliographic, chemical,
# crystal, experimental, refinement or atomic coordinate data resulting
# from the CCDC's data processing and validation procedures.
#
#######################################################################

data_CSD_CIF_LIQKEC
_audit_creation_date 2008-04-01
_audit_creation_method CSD-ConQuest-V1
_database_code_CSD LIQKEC
_database_code_depnum_ccdc_archive 'CCDC 647389'
_chemical_formula_sum 'C10 H8 N6 O3'
_chemical_formula_moiety
;
C10 H8 N6 O3
;
_journal_coden_Cambridge 542
_journal_volume 41
_journal_year 2006
_journal_page_first 734
_journal_name_full 'Cryst.Res.Technol. '
loop_
_publ_author_name
"Fu-You Pan"
"Jian-Guo Yang"
"Chang-Hua Ge"
_chemical_name_systematic
;
3-(3-Nitrophenylhydrazonocarboxyl)-(1H)-1,2,4-triazole
;
_cell_volume   1179.460
_exptl_crystal_colour 'colorless'
_exptl_crystal_density_diffrn 1.465
_exptl_crystal_description 'block'
_exptl_crystal_preparation 'ethanol'
_diffrn_ambient_temperature 293
#These two values have been output from a single CSD field.
_refine_ls_R_factor_gt 0.0489
_refine_ls_wR_factor_gt 0.0489
_symmetry_cell_setting monoclinic
_symmetry_space_group_name_H-M 'P 21/n'
_symmetry_Int_Tables_number 14
loop_
_symmetry_equiv_pos_site_id
_symmetry_equiv_pos_as_xyz
1 x,y,z
2 1/2-x,1/2+y,1/2-z
3 -x,-y,-z
4 -1/2+x,-1/2-y,-1/2+z
_cell_length_a 8.0214(17)
_cell_length_b 17.334(4)
_cell_length_c 8.9070(18)
_cell_angle_alpha 90
_cell_angle_beta 107.756(4)
_cell_angle_gamma 90
_cell_formula_units_Z 4
loop_
_atom_type_symbol
_atom_type_radius_bond
C 0.68
H 0.23
N 0.68
O 0.68
loop_
_atom_site_label
_atom_site_type_symbol
_atom_site_fract_x
_atom_site_fract_y
_atom_site_fract_z
O1 O -0.05998(15) 0.21851(8) 0.40244(12)
O2 O 0.5631(2) 0.10541(10) 0.22167(18)
O3 O 0.8045(2) 0.04331(10) 0.2962(2)
N1 N 0.10405(16) 0.19528(8) 0.65438(15)
N2 N 0.23562(16) 0.16494(7) 0.60253(15)
N3 N -0.31343(17) 0.29430(9) 0.49808(15)
N4 N -0.18724(16) 0.25104(8) 0.74511(14)
N5 N -0.33707(17) 0.28885(8) 0.73361(15)
N6 N 0.6799(2) 0.07425(9) 0.3233(2)
C1 C -0.03813(19) 0.22206(9) 0.54520(16)
C2 C -0.17812(18) 0.25618(9) 0.60018(15)
C3 C -0.4099(2) 0.31325(11) 0.58819(19)
C4 C 0.3626(2) 0.13415(9) 0.7072(2)
C5 C 0.5130(2) 0.10173(9) 0.66769(19)
C6 C 0.6463(3) 0.06594(11) 0.7848(3)
C7 C 0.7885(3) 0.03339(12) 0.7509(3)
C8 C 0.8011(3) 0.03622(11) 0.6010(3)
C9 C 0.6686(2) 0.07245(9) 0.4853(2)
C10 C 0.5262(2) 0.10529(9) 0.5150(2)
H1 H 0.121(3) 0.1992(11) 0.751(3)
H2 H -0.517(2) 0.3412(10) 0.557(2)
H3 H 0.365(2) 0.1275(10) 0.806(2)
H4 H -0.386(3) 0.2930(11) 0.812(2)
H5 H 0.640(2) 0.0635(11) 0.886(2)
H6 H 0.889(3) 0.0092(12) 0.839(3)
H7 H 0.893(3) 0.0147(13) 0.569(2)
H8 H 0.441(2) 0.1304(9) 0.432(2)
#END
