
#######################################################################
#
#                 Cambridge Crystallographic Data Centre
#                                CCDC
#
#######################################################################
#
# If this CIF has been generated from an entry in the Cambridge
# Structural Database, then it will include bibliographic, chemical,
# crystal, experimental, refinement or atomic coordinate data resulting
# from the CCDC's data processing and validation procedures.
#
#######################################################################

data_CSD_CIF_LIRLEF
_audit_creation_date 2013-10-16
_audit_creation_method CSD-ConQuest-V1
_database_code_CSD LIRLEF
_database_code_depnum_ccdc_archive 'CCDC 935274'
_chemical_formula_sum 'C18 H12 N2 O2'
_chemical_formula_moiety
;
C18 H12 N2 O2
;
_journal_coden_Cambridge 35
_journal_volume 78
_journal_year 2013
_journal_page_first 7298
_journal_name_full 'J.Org.Chem. '
loop_
_publ_author_name
"P.L.van der Peet"
"T.U.Connell"
"Christian Gunawan"
"J.M.White"
"P.S.Donnelly"
"S.J.Williams"
_chemical_name_systematic
;
5,5'-Diphenyl-3,3'-bi-1,2-oxazole
;
_cell_volume    673.084
_exptl_crystal_colour 'colorless'
_exptl_crystal_density_diffrn 1.422
_exptl_crystal_description 'block'
_diffrn_ambient_temperature 130
#These two values have been output from a single CSD field.
_refine_ls_R_factor_gt 0.0324
_refine_ls_wR_factor_gt 0.0324
_symmetry_cell_setting triclinic
_symmetry_space_group_name_H-M 'P -1'
_symmetry_Int_Tables_number 2
loop_
_symmetry_equiv_pos_site_id
_symmetry_equiv_pos_as_xyz
1 x,y,z
2 -x,-y,-z
_cell_length_a 5.8521(2)
_cell_length_b 8.9267(3)
_cell_length_c 13.1255(5)
_cell_angle_alpha 98.920(3)
_cell_angle_beta 91.029(3)
_cell_angle_gamma 96.137(3)
_cell_formula_units_Z 2
loop_
_atom_type_symbol
_atom_type_radius_bond
C 0.68
H 0.23
N 0.68
O 0.68
loop_
_atom_site_label
_atom_site_type_symbol
_atom_site_fract_x
_atom_site_fract_y
_atom_site_fract_z
C1 C 0.22925(18) 0.05485(12) 0.18998(8)
C2 C 0.04992(18) -0.01845(12) 0.24164(8)
H1 H -0.10710 -0.02950 0.22570
C3 C 0.15893(18) -0.06865(12) 0.31940(8)
C4 C 0.08453(18) -0.15308(12) 0.40242(8)
C5 C -0.13981(19) -0.22318(13) 0.40155(9)
H2 H -0.24400 -0.21480 0.34890
C6 C -0.2077(2) -0.30551(14) 0.4793(1)
H3 H -0.35730 -0.35300 0.47830
C7 C -0.0541(2) -0.31751(14) 0.55853(9)
H4 H -0.10020 -0.37340 0.61020
C8 C 0.1681(2) -0.24603(14) 0.56044(9)
H5 H 0.27060 -0.25230 0.61420
C9 C 0.23786(19) -0.16525(13) 0.48254(9)
H6 H 0.38800 -0.11870 0.48360
C10 C 0.21192(18) 0.13606(12) 0.10164(8)
C11 C 0.38908(18) 0.18932(12) 0.03957(8)
H7 H 0.54420 0.17550 0.04270
C12 C 0.28089(17) 0.26479(12) -0.02508(8)
C13 C 0.35535(18) 0.35590(12) -0.10477(8)
C14 C 0.21711(19) 0.46148(13) -0.13394(8)
H8 H 0.07620 0.47240 -0.10360
C15 C 0.28881(19) 0.54980(13) -0.20763(9)
H9 H 0.19660 0.62040 -0.22630
C16 C 0.49792(19) 0.53324(13) -0.25371(9)
H10 H 0.54510 0.59180 -0.30390
C17 C 0.63656(19) 0.42919(13) -0.22485(9)
H11 H 0.77700 0.41830 -0.25570
C18 C 0.56707(18) 0.34124(13) -0.15032(8)
H12 H 0.66160 0.27250 -0.13070
N1 N 0.43282(16) 0.05033(11) 0.23251(7)
N2 N 0.01033(16) 0.17359(11) 0.07602(7)
O1 O 0.38950(13) -0.02866(9) 0.31595(6)
O2 O 0.05204(13) 0.25605(9) -0.00554(6)
#END
