
#######################################################################
#
#                 Cambridge Crystallographic Data Centre
#                                CCDC
#
#######################################################################
#
# If this CIF has been generated from an entry in the Cambridge
# Structural Database, then it will include bibliographic, chemical,
# crystal, experimental, refinement or atomic coordinate data resulting
# from the CCDC's data processing and validation procedures.
#
#######################################################################

data_CSD_CIF_LITRAH
_audit_creation_date 2000-06-13
_audit_creation_method CSD-ConQuest-V1
_database_code_CSD LITRAH
_database_code_depnum_ccdc_archive 'CCDC 144076'
_chemical_formula_sum 'C11 H17 N3 O4'
_chemical_formula_moiety
;
C11 H17 N3 O4
;
_journal_coden_Cambridge 388
_journal_volume 35
_journal_year 1999
_journal_page_first 1339
_journal_name_full 'Zh.Org.Khim.(Russ.)(Russ.J.Org.Chem.) '
loop_
_publ_author_name
"Yu.M.Atroshchenko"
"E.G.Nikiforova"
"S.S.Gitis"
"Yu.D.Grudtsyn"
"O.V.Shishkin"
"V.F.Andrianov"
"I.V.Shakhkel'dyan"
_chemical_name_systematic
;
2,3,4-Trimethyl-1,5-dinitro-3-azabicyclo(3.3.1)non-6-ene
;
_chemical_melting_point 406.15
_cell_volume   1214.451
_exptl_crystal_density_diffrn 1.396
_exptl_special_details
;
Melting point range 406.15-407.15K

;
_diffrn_ambient_temperature 153.15
#These two values have been output from a single CSD field.
_refine_ls_R_factor_gt 0.0577
_refine_ls_wR_factor_gt 0.0577
_symmetry_cell_setting monoclinic
_symmetry_space_group_name_H-M 'P 21/c'
_symmetry_Int_Tables_number 14
loop_
_symmetry_equiv_pos_site_id
_symmetry_equiv_pos_as_xyz
1 x,y,z
2 x,1/2-y,1/2+z
3 -x,-y,-z
4 -x,-1/2+y,-1/2-z
_cell_length_a 8.736(3)
_cell_length_b 9.215(2)
_cell_length_c 15.647(6)
_cell_angle_alpha 90
_cell_angle_beta 105.39(3)
_cell_angle_gamma 90
_cell_formula_units_Z 4
loop_
_atom_type_symbol
_atom_type_radius_bond
C 0.68
H 0.23
N 0.68
O 0.68
loop_
_atom_site_label
_atom_site_type_symbol
_atom_site_fract_x
_atom_site_fract_y
_atom_site_fract_z
N1 N 0.7300(2) 0.1604(2) 0.13660(11)
C1 C 1.0031(3) 0.2783(3) 0.0826(2)
H1 H 1.0750(33) 0.2266(30) 0.0549(17)
O1 O 0.6892(3) 0.3295(3) -0.11727(12)
N2 N 0.8201(3) 0.3069(2) -0.06803(13)
O2 O 0.9392(3) 0.2934(3) -0.09409(12)
C2 C 1.0498(3) 0.3283(3) 0.1643(2)
H2 H 1.1514(36) 0.3184(27) 0.1969(17)
O3 O 0.6757(3) 0.6606(2) 0.13833(15)
N3 N 0.7088(2) 0.5565(2) 0.18727(15)
C3 C 0.9458(3) 0.4071(3) 0.2108(2)
H3 H 0.9878(34) 0.5044(36) 0.2244(18)
H4 H 0.9516(34) 0.3540(32) 0.2645(19)
O4 O 0.6974(3) 0.5543(2) 0.26357(13)
C4 C 0.7733(3) 0.4201(2) 0.15436(13)
C5 C 0.7649(3) 0.4367(2) 0.05671(14)
H5 H 0.8261(29) 0.5149(28) 0.0476(15)
H6 H 0.6543(33) 0.4519(28) 0.0210(16)
C6 C 0.8331(3) 0.2951(2) 0.03091(13)
C7 C 0.7277(3) 0.1644(2) 0.04264(14)
H7 H 0.6171(30) 0.1841(26) 0.0032(16)
C8 C 0.6666(3) 0.2933(2) 0.16751(15)
H8 H 0.6825(27) 0.2784(24) 0.2298(15)
C9 C 0.4888(3) 0.3191(3) 0.1271(2)
H9 H 0.4306(36) 0.2449(34) 0.1437(18)
H10 H 0.4586(33) 0.3236(31) 0.0601(20)
H11 H 0.4509(36) 0.4063(36) 0.1456(19)
C10 C 0.7894(3) 0.0231(3) 0.0140(2)
H12 H 0.7234(37) -0.0610(37) 0.0195(19)
H13 H 0.8923(34) -0.0025(29) 0.0547(18)
H14 H 0.8004(37) 0.0314(35) -0.0447(23)
C11 C 0.6538(3) 0.0313(2) 0.1608(2)
H15 H 0.5459(38) 0.0175(33) 0.1248(20)
H16 H 0.6528(34) 0.0417(32) 0.2215(20)
H17 H 0.7223(33) -0.0566(33) 0.1575(17)
#END
