
#######################################################################
#
#                 Cambridge Crystallographic Data Centre
#                                CCDC
#
#######################################################################
#
# If this CIF has been generated from an entry in the Cambridge
# Structural Database, then it will include bibliographic, chemical,
# crystal, experimental, refinement or atomic coordinate data resulting
# from the CCDC's data processing and validation procedures.
#
#######################################################################

data_CSD_CIF_LITSIR
_audit_creation_date 2008-04-01
_audit_creation_method CSD-ConQuest-V1
_database_code_CSD LITSIR
_database_code_depnum_ccdc_archive 'CCDC 673165'
_chemical_formula_sum 'C33 H27 N3 O3'
_chemical_formula_moiety
;
C33 H27 N3 O3
;
_journal_coden_Cambridge 35
_journal_volume 72
_journal_year 2007
_journal_page_first 9195
_journal_name_full 'J.Org.Chem. '
loop_
_publ_author_name
"S.Pailloux"
"I.Binyamin"
"L.M.Deck"
"B.M.Rapko"
"B.P.Hay"
"E.N.Duesler"
"R.T.Paine"
_chemical_name_systematic
;
2-(6-methyl-1-oxypyridin-2-yl)-N,N,N',N'-tetraphenylmalonamide
;
_cell_volume   2715.649
_exptl_crystal_colour 'colorless'
_exptl_crystal_density_diffrn 1.256
_exptl_crystal_description 'triangular'
_diffrn_ambient_temperature 208
#These two values have been output from a single CSD field.
_refine_ls_R_factor_gt 0.0546
_refine_ls_wR_factor_gt 0.0546
_symmetry_cell_setting monoclinic
_symmetry_space_group_name_H-M 'P 21/n'
_symmetry_Int_Tables_number 14
loop_
_symmetry_equiv_pos_site_id
_symmetry_equiv_pos_as_xyz
1 x,y,z
2 1/2-x,1/2+y,1/2-z
3 -x,-y,-z
4 -1/2+x,-1/2-y,-1/2+z
_cell_length_a 9.8097(11)
_cell_length_b 16.7962(18)
_cell_length_c 17.0633(19)
_cell_angle_alpha 90
_cell_angle_beta 105.000(6)
_cell_angle_gamma 90
_cell_formula_units_Z 4
loop_
_atom_type_symbol
_atom_type_radius_bond
C 0.68
H 0.23
N 0.68
O 0.68
loop_
_atom_site_label
_atom_site_type_symbol
_atom_site_fract_x
_atom_site_fract_y
_atom_site_fract_z
O1 O 0.09942(9) 0.38535(5) 0.80850(5)
O2 O 0.10742(9) 0.18016(4) 0.59540(5)
O3 O 0.04678(8) 0.16693(4) 0.77079(4)
N1 N 0.21799(8) 0.34906(5) 0.81625(5)
N2 N 0.20337(8) 0.30124(5) 0.58225(5)
N3 N -0.13661(8) 0.21751(4) 0.67483(5)
C1 C 0.33187(14) 0.36978(8) 0.87798(7)
C2 C 0.45528(14) 0.32883(10) 0.88750(8)
H1 H 0.527(2) 0.3435(11) 0.9332(13)
C3 C 0.46708(14) 0.26845(11) 0.83600(9)
H2 H 0.555(2) 0.2400(11) 0.8446(12)
C4 C 0.35168(12) 0.24986(8) 0.77262(8)
H3 H 0.3571(16) 0.2058(9) 0.7348(9)
C5 C 0.22782(9) 0.29095(5) 0.76265(5)
C6 C 0.09738(9) 0.27804(5) 0.69565(5)
H4 H 0.0481(12) 0.3292(6) 0.6859(6)
C7 C 0.13417(10) 0.24803(5) 0.61897(6)
C8 C 0.00104(9) 0.21627(5) 0.71890(5)
C9 C 0.3095(3) 0.43622(16) 0.93053(14)
H5 H 0.293(2) 0.4830(11) 0.8986(12)
H6 H 0.231(3) 0.4217(14) 0.9550(15)
H7 H 0.386(3) 0.4403(14) 0.9771(18)
C10 C 0.2129(1) 0.38384(5) 0.60578(6)
C11 C 0.09236(12) 0.43002(6) 0.58883(7)
H8 H 0.0013(16) 0.4068(8) 0.5596(9)
C12 C 0.10058(15) 0.50780(7) 0.61682(9)
H9 H 0.0119(18) 0.5405(9) 0.6077(10)
C13 C 0.22819(16) 0.53882(7) 0.65900(9)
H10 H 0.2351(17) 0.5939(9) 0.6800(9)
C14 C 0.34833(14) 0.49335(7) 0.67319(8)
H11 H 0.4407(18) 0.5161(9) 0.7005(10)
C15 C 0.34230(12) 0.41510(6) 0.64696(7)
H12 H 0.4256(15) 0.3798(8) 0.6566(8)
C16 C 0.27083(10) 0.27682(6) 0.52108(6)
C17 C 0.27721(12) 0.32990(8) 0.45994(6)
H13 H 0.2372(16) 0.3802(9) 0.4618(9)
C18 C 0.34617(14) 0.30716(11) 0.40167(7)
H14 H 0.352(2) 0.3463(11) 0.3629(12)
C19 C 0.40634(15) 0.23356(11) 0.40397(9)
H15 H 0.452(2) 0.2169(10) 0.3624(12)
C20 C 0.40053(15) 0.18183(10) 0.46494(9)
H16 H 0.442(2) 0.1313(11) 0.4677(11)
C21 C 0.33360(13) 0.20300(7) 0.52395(8)
H17 H 0.3270(16) 0.1672(8) 0.5653(10)
C22 C -0.19921(10) 0.28471(5) 0.62644(6)
C23 C -0.23832(13) 0.27867(7) 0.54296(7)
H18 H -0.2171(16) 0.2278(9) 0.5199(9)
C24 C -0.29870(15) 0.34405(9) 0.49714(9)
H19 H -0.323(2) 0.3392(10) 0.4377(13)
C25 C -0.31884(14) 0.41381(8) 0.53409(10)
H20 H -0.3621(18) 0.4616(9) 0.5004(10)
C26 C -0.28043(14) 0.41961(8) 0.61717(10)
H21 H -0.2979(19) 0.4693(10) 0.6451(10)
C27 C -0.22097(12) 0.35449(7) 0.66421(8)
H22 H -0.1911(16) 0.3582(8) 0.7236(10)
C28 C -0.22057(10) 0.14735(5) 0.67279(6)
C29 C -0.35056(12) 0.15194(7) 0.68868(8)
H23 H -0.3857(17) 0.2053(9) 0.7046(10)
C30 C -0.42970(15) 0.08275(9) 0.68609(10)
H24 H -0.5230(19) 0.0868(9) 0.698(1)
C31 C -0.37978(16) 0.01120(8) 0.66722(10)
H25 H -0.436(2) -0.0365(11) 0.6646(11)
C32 C -0.24976(17) 0.00709(8) 0.65173(11)
H26 H -0.2106(19) -0.0469(10) 0.6383(11)
C33 C -0.16935(14) 0.07508(6) 0.65427(8)
H27 H -0.0785(19) 0.0741(9) 0.6409(10)
#END
