
#######################################################################
#
#                 Cambridge Crystallographic Data Centre
#                                CCDC
#
#######################################################################
#
# If this CIF has been generated from an entry in the Cambridge
# Structural Database, then it will include bibliographic, chemical,
# crystal, experimental, refinement or atomic coordinate data resulting
# from the CCDC's data processing and validation procedures.
#
#######################################################################

data_CSD_CIF_LIVJEF01
_audit_creation_date 2013-03-18
_audit_creation_method CSD-ConQuest-V1
_database_code_CSD LIVJEF01
_database_code_depnum_ccdc_archive 'CCDC 846796'
_chemical_formula_sum 'C7 H6 N2 O2'
_chemical_formula_moiety
;
C7 H6 N2 O2
;
_journal_coden_Cambridge 1037
_journal_volume 13
_journal_year 2012
_journal_page_first 12-7
_journal_name_full 'ARKIVOC '
loop_
_publ_author_name
"R.C.F.Jones"
"A.K.Choudhury"
"C.E.Dawson"
"C.Lumley"
"V.McKee"
_chemical_name_systematic
;
3-Methyl[1,2]oxazolo[4,3-c]pyridin-4(5H)-one
;
_chemical_melting_point 478.15
_cell_volume   1326.604
_exptl_crystal_colour 'colorless'
_exptl_crystal_density_diffrn 1.503
_exptl_special_details
;
Melting point range 478.15-480.15K

;
_exptl_crystal_description 'block'
_diffrn_ambient_temperature 150
#These two values have been output from a single CSD field.
_refine_ls_R_factor_gt 0.0419
_refine_ls_wR_factor_gt 0.0419
_symmetry_cell_setting orthorhombic
_symmetry_space_group_name_H-M 'P b c a'
_symmetry_Int_Tables_number 61
loop_
_symmetry_equiv_pos_site_id
_symmetry_equiv_pos_as_xyz
1 x,y,z
2 1/2-x,-y,1/2+z
3 -x,1/2+y,1/2-z
4 1/2+x,1/2-y,-z
5 -x,-y,-z
6 -1/2+x,y,-1/2-z
7 x,-1/2-y,-1/2+z
8 -1/2-x,-1/2+y,z
_cell_length_a 7.520(3)
_cell_length_b 13.024(3)
_cell_length_c 13.545(5)
_cell_angle_alpha 90
_cell_angle_beta 90
_cell_angle_gamma 90
_cell_formula_units_Z 8
loop_
_atom_type_symbol
_atom_type_radius_bond
C 0.68
H 0.23
N 0.68
O 0.68
loop_
_atom_site_label
_atom_site_type_symbol
_atom_site_fract_x
_atom_site_fract_y
_atom_site_fract_z
O1 O 0.17652(15) 1.10010(9) 0.10523(8)
N1 N 0.24966(19) 1.18812(11) 0.15451(10)
C1 C 0.2231(2) 1.16861(12) 0.24897(12)
C2 C 0.2719(2) 1.23071(13) 0.33271(12)
H1 H 0.33480 1.29350 0.32560
C3 C 0.2229(2) 1.19429(13) 0.42174(12)
H2 H 0.25050 1.23410 0.47850
N2 N 0.13412(18) 1.10163(11) 0.43525(10)
H3 H 0.102(3) 1.0861(16) 0.4959(16)
C4 C 0.0854(2) 1.03610(12) 0.36095(11)
O2 O 0.00579(15) 0.95445(9) 0.37705(8)
C5 C 0.1362(2) 1.07281(12) 0.26391(11)
C6 C 0.1114(2) 1.03353(12) 0.17166(12)
C7 C 0.0330(2) 0.93673(13) 0.13500(12)
H4 H -0.03250 0.95010 0.07380
H5 H -0.04860 0.90900 0.18470
H6 H 0.12790 0.88690 0.12220
#END
