
#######################################################################
#
#                 Cambridge Crystallographic Data Centre
#                                CCDC
#
#######################################################################
#
# If this CIF has been generated from an entry in the Cambridge
# Structural Database, then it will include bibliographic, chemical,
# crystal, experimental, refinement or atomic coordinate data resulting
# from the CCDC's data processing and validation procedures.
#
#######################################################################

data_CSD_CIF_LIVJEF
_audit_creation_date 2000-08-04
_audit_creation_method CSD-ConQuest-V1
_database_code_CSD LIVJEF
_database_code_depnum_ccdc_archive 'CCDC 217908'
_chemical_formula_sum 'C7 H6 N2 O2'
_chemical_formula_moiety
;
C7 H6 N2 O2
;
_journal_coden_Cambridge 24
_journal_volume 40
_journal_year 1999
_journal_page_first 4085
_journal_name_full 'Tetrahedron Lett. '
loop_
_publ_author_name
"R.C.F.Jones"
"C.E.Dawson"
"M.J.O'Mahony"
"P.Patel"
_chemical_name_systematic
;
3-Methylisoxazolo(4,3-c)pyrid-4(1H)-one
;
_chemical_melting_point 479.15
_cell_volume   1314.346
_exptl_crystal_colour 'yellow'
_exptl_crystal_density_diffrn 1.517
_exptl_crystal_preparation 'ethyl acetate/methanol'
_diffrn_ambient_temperature 150
#These two values have been output from a single CSD field.
_refine_ls_R_factor_gt 0.0416
_refine_ls_wR_factor_gt 0.0416
_symmetry_cell_setting orthorhombic
_symmetry_space_group_name_H-M 'P b c a'
_symmetry_Int_Tables_number 61
loop_
_symmetry_equiv_pos_site_id
_symmetry_equiv_pos_as_xyz
1 x,y,z
2 1/2-x,-y,1/2+z
3 1/2+x,1/2-y,-z
4 -x,1/2+y,1/2-z
5 -x,-y,-z
6 -1/2+x,y,-1/2-z
7 -1/2-x,-1/2+y,z
8 x,-1/2-y,-1/2+z
_cell_length_a 7.4800(7)
_cell_length_b 12.9880(9)
_cell_length_c 13.529(2)
_cell_angle_alpha 90
_cell_angle_beta 90
_cell_angle_gamma 90
_cell_formula_units_Z 8
loop_
_atom_type_symbol
_atom_type_radius_bond
C 0.68
H 0.23
N 0.68
O 0.68
loop_
_atom_site_label
_atom_site_type_symbol
_atom_site_fract_x
_atom_site_fract_y
_atom_site_fract_z
O1 O 0.0058(2) 0.45428(9) 0.37712(8)
O2 O 0.1765(2) 0.60000(9) 0.10504(8)
N1 N 0.1352(2) 0.60158(10) 0.43514(11)
N2 N 0.2501(2) 0.68808(11) 0.15422(11)
C1 C 0.2238(2) 0.69443(13) 0.42120(14)
C2 C 0.2719(2) 0.73078(14) 0.33237(12)
C3 C 0.2234(2) 0.66849(14) 0.24886(12)
C4 C 0.1367(2) 0.57273(13) 0.26377(11)
C5 C 0.0858(2) 0.53608(12) 0.36079(12)
C6 C 0.1113(2) 0.53317(13) 0.17181(12)
C7 C 0.0321(3) 0.43608(15) 0.13549(15)
H1 H 0.1041(28) 0.5852(15) 0.4935(15)
H2 H 0.2494(22) 0.7316(14) 0.4818(13)
H3 H 0.3407(21) 0.7975(13) 0.3268(11)
H4 H 0.1295(38) 0.3848(20) 0.1211(17)
H5 H -0.0296(32) 0.4462(17) 0.0761(18)
H6 H -0.0512(35) 0.4070(18) 0.1896(18)
#END
