
#######################################################################
#
#                 Cambridge Crystallographic Data Centre
#                                CCDC
#
#######################################################################
#
# If this CIF has been generated from an entry in the Cambridge
# Structural Database, then it will include bibliographic, chemical,
# crystal, experimental, refinement or atomic coordinate data resulting
# from the CCDC's data processing and validation procedures.
#
#######################################################################

data_CSD_CIF_LIVNUZ
_audit_creation_date 2000-08-04
_audit_creation_method CSD-ConQuest-V1
_database_code_CSD LIVNUZ
_database_code_depnum_ccdc_journal 182/1271
_chemical_formula_sum 'C24 H15 N1 O5'
_chemical_formula_moiety
;
C24 H15 N1 O5
;
_journal_coden_Cambridge 182
_journal_year 1999
_journal_page_first 1281
_journal_name_full 'Chem.Commun. '
loop_
_publ_author_name
"Jian Ping Gao"
"Xian Sheng Meng"
"T.P.Bender"
"S.MacKinnon"
"V.Grand"
"Zhi Yuan Wang"
_chemical_name_systematic
;
rac-10-Nitro-1,2,5,6-tetrahydro-pentaheliceno(3,4-c)succinic anhydride
;
_cell_volume    906.641
_exptl_crystal_density_diffrn 1.456
_exptl_crystal_preparation 'dichloromethane'
_diffrn_ambient_temperature 173.15
#These two values have been output from a single CSD field.
_refine_ls_R_factor_gt 0.054
_refine_ls_wR_factor_gt 0.054
_symmetry_cell_setting triclinic
_symmetry_space_group_name_H-M 'P -1'
_symmetry_Int_Tables_number 2
loop_
_symmetry_equiv_pos_site_id
_symmetry_equiv_pos_as_xyz
1 x,y,z
2 -x,-y,-z
_cell_length_a 8.1376(6)
_cell_length_b 11.0823(8)
_cell_length_c 11.2149(8)
_cell_angle_alpha 103.642(8)
_cell_angle_beta 98.747(7)
_cell_angle_gamma 108.001(8)
_cell_formula_units_Z 2
loop_
_atom_type_symbol
_atom_type_radius_bond
C 0.68
H 0.23
N 0.68
O 0.68
loop_
_atom_site_label
_atom_site_type_symbol
_atom_site_fract_x
_atom_site_fract_y
_atom_site_fract_z
O1 O -0.18635(25) 0.33306(18) 0.84076(17)
O2 O 0.0824(3) 0.35789(21) 0.95287(19)
O3 O -0.4112(3) 0.35446(19) 0.71274(19)
O4 O 0.2570(3) 1.07401(25) 0.77775(23)
O5 O 0.1157(3) 0.9060(2) 0.83541(18)
N1 N 0.2473(3) 0.97284(24) 0.80817(22)
C1 C 0.4065(3) 0.9345(3) 0.81856(24)
C2 C 0.5678(4) 1.0399(3) 0.8506(3)
C3 C 0.7241(4) 1.0156(4) 0.8780(3)
C4 C 0.7170(4) 0.8896(3) 0.8780(3)
C5 C 0.5549(4) 0.7831(3) 0.84306(25)
C6 C 0.3937(3) 0.8037(3) 0.80700(23)
C7 C 0.2263(3) 0.6840(3) 0.76391(24)
C8 C 0.2200(3) 0.5886(3) 0.82872(24)
C9 C 0.3904(4) 0.5926(3) 0.9082(3)
C10 C 0.5436(4) 0.6471(3) 0.8491(3)
C11 C 0.0540(4) 0.4932(3) 0.81248(24)
C12 C 0.0010(4) 0.3919(3) 0.8782(3)
C13 C -0.2544(4) 0.3892(3) 0.7522(3)
C14 C -0.0986(3) 0.4885(3) 0.73353(24)
C15 C -0.0903(3) 0.5682(3) 0.65467(24)
C16 C 0.0769(3) 0.66430(25) 0.66625(23)
C17 C 0.0895(3) 0.7403(3) 0.57295(23)
C18 C -0.0651(4) 0.7569(3) 0.51606(24)
C19 C -0.2365(4) 0.6961(3) 0.5514(3)
C20 C -0.2514(4) 0.5589(3) 0.5603(3)
C21 C 0.2463(4) 0.7897(3) 0.5343(3)
C22 C 0.2514(5) 0.8600(3) 0.4470(3)
C23 C 0.0992(5) 0.8789(3) 0.3943(3)
C24 C -0.0573(5) 0.8262(3) 0.4279(3)
H1 H 0.354(3) 0.7741(25) 0.5670(22)
H2 H -0.335(3) 0.6918(25) 0.4903(23)
H3 H 0.420(3) 0.657(3) 1.004(3)
H4 H 0.564(4) 1.126(3) 0.854(3)
H5 H -0.159(4) 0.841(3) 0.3930(25)
H6 H 0.376(3) 0.503(3) 0.9106(23)
H7 H -0.261(4) 0.499(3) 0.472(3)
H8 H 0.361(3) 0.892(3) 0.4211(22)
H9 H 0.515(3) 0.588(3) 0.759(3)
H10 H -0.233(3) 0.752(3) 0.634(3)
H11 H 0.819(4) 0.873(3) 0.8991(24)
H12 H -0.361(4) 0.516(3) 0.5840(23)
H13 H 0.106(4) 0.927(3) 0.334(3)
H14 H 0.656(4) 0.653(3) 0.899(3)
H15 H 0.839(4) 1.094(3) 0.898(3)
#END
