
#######################################################################
#
#                 Cambridge Crystallographic Data Centre
#                                CCDC
#
#######################################################################
#
# If this CIF has been generated from an entry in the Cambridge
# Structural Database, then it will include bibliographic, chemical,
# crystal, experimental, refinement or atomic coordinate data resulting
# from the CCDC's data processing and validation procedures.
#
#######################################################################

data_CSD_CIF_LIVSEP
_audit_creation_date 2008-04-01
_audit_creation_method CSD-ConQuest-V1
_database_code_CSD LIVSEP
_database_code_depnum_ccdc_archive 'CCDC 680646'
_chemical_formula_sum 'C8 H6 N2 O4'
_chemical_formula_moiety
;
C8 H6 N2 O4
;
_journal_coeditor_code "IUCr HK2425"
_journal_coden_Cambridge 1370
_journal_volume 64
_journal_year 2008
_journal_page_first o571
_journal_name_full 'Acta Crystallogr.,Sect.E:Struct.Rep.Online '
loop_
_publ_author_name
"R.Abu El-Halawah"
"B.F.Ali"
"M.M.Ibrahim"
"J.A.Zahra"
"W.Frey"
_chemical_name_systematic
;
1,4-Dihydroxyquinoxaline-2,3(1H,4H)-dione
;
_chemical_melting_point 535
_cell_volume    786.198
_exptl_crystal_colour 'colorless'
_exptl_crystal_density_diffrn 1.64
_exptl_special_details
;
Melts with decomposition.

;
_exptl_crystal_description 'plates'
_exptl_crystal_preparation 'ethanol'
_diffrn_ambient_temperature 294
#These two values have been output from a single CSD field.
_refine_ls_R_factor_gt 0.034
_refine_ls_wR_factor_gt 0.034
_symmetry_cell_setting orthorhombic
_symmetry_space_group_name_H-M 'C 2 2 21'
_symmetry_Int_Tables_number 20
loop_
_symmetry_equiv_pos_site_id
_symmetry_equiv_pos_as_xyz
1 x,y,z
2 -x,-y,1/2+z
3 -x,y,1/2-z
4 x,-y,-z
5 1/2+x,1/2+y,z
6 1/2-x,1/2-y,1/2+z
7 1/2-x,1/2+y,1/2-z
8 1/2+x,1/2-y,-z
_cell_length_a 4.2562(6)
_cell_length_b 17.630(3)
_cell_length_c 10.4775(17)
_cell_angle_alpha 90
_cell_angle_beta 90
_cell_angle_gamma 90
_cell_formula_units_Z 4
loop_
_atom_type_symbol
_atom_type_radius_bond
C 0.68
H 0.23
N 0.68
O 0.68
loop_
_atom_site_label
_atom_site_type_symbol
_atom_site_fract_x
_atom_site_fract_y
_atom_site_fract_z
N1 N 0.2116(4) 0.41727(11) 0.15388(16)
C1 C 0.1130(6) 0.48556(11) 0.1948(2)
O1 O 0.4527(4) 0.41624(10) 0.06569(15)
H1 H 0.357(7) 0.4338(15) -0.012(3)
C2 C 0.1068(5) 0.34702(11) 0.2004(2)
O2 O 0.1965(5) 0.54622(9) 0.14878(15)
C3 C 0.2131(7) 0.27901(13) 0.1487(2)
H2 H 0.35410 0.27880 0.08080
C4 C 0.1046(7) 0.21177(13) 0.2002(2)
H3 H 0.17450 0.16590 0.16690
N1B N -0.2116(4) 0.41727(11) 0.34612(16)
C1B C -0.1130(6) 0.48556(11) 0.3052(2)
O1B O -0.4527(4) 0.41624(10) 0.43431(15)
H1B H -0.357(7) 0.4338(15) 0.512(3)
C2B C -0.1068(5) 0.34702(11) 0.2996(2)
O2B O -0.1965(5) 0.54622(9) 0.35122(15)
C3B C -0.2131(7) 0.27901(13) 0.3513(2)
H2B H -0.35410 0.27880 0.41920
C4B C -0.1046(7) 0.21177(13) 0.2998(2)
H3B H -0.17450 0.16590 0.33310
#END
