
#######################################################################
#
#                 Cambridge Crystallographic Data Centre
#                                CCDC
#
#######################################################################
#
# If this CIF has been generated from an entry in the Cambridge
# Structural Database, then it will include bibliographic, chemical,
# crystal, experimental, refinement or atomic coordinate data resulting
# from the CCDC's data processing and validation procedures.
#
#######################################################################

data_CSD_CIF_LIVSIS
_audit_creation_date 2000-08-04
_audit_creation_method CSD-ConQuest-V1
_database_code_CSD LIVSIS
_chemical_formula_sum 'C10 H15 N1 O5'
_chemical_formula_moiety
;
C10 H15 N1 O5
;
_journal_coden_Cambridge 24
_journal_volume 40
_journal_year 1999
_journal_page_first 4391
_journal_name_full 'Tetrahedron Lett. '
loop_
_publ_author_name
"G.Davies"
"A.T.Russell"
"A.J.Sanderson"
"S.J.Simpson"
_chemical_name_systematic
;
6,6-Dimethyl-1-aza-2,5,7,12-tetraoxatricyclo(7.4.0.0^4,8^)tridecan-13-one
;
_cell_volume   1085.157
_exptl_crystal_density_diffrn 1.403
_diffrn_ambient_temperature ?
_diffrn_special_details
;
The study was carried out at room temperature,in the range 283-303K

;
#These two values have been output from a single CSD field.
_refine_ls_R_factor_gt 0.0523
_refine_ls_wR_factor_gt 0.0523
_symmetry_cell_setting monoclinic
_symmetry_space_group_name_H-M 'P 21/c'
_symmetry_Int_Tables_number 14
loop_
_symmetry_equiv_pos_site_id
_symmetry_equiv_pos_as_xyz
1 x,y,z
2 -x,1/2+y,1/2-z
3 -x,-y,-z
4 x,-1/2-y,-1/2+z
_cell_length_a 10.6185(10)
_cell_length_b 14.2995(14)
_cell_length_c 7.3640(14)
_cell_angle_alpha 90
_cell_angle_beta 103.952(9)
_cell_angle_gamma 90
_cell_formula_units_Z 4
loop_
_atom_type_symbol
_atom_type_radius_bond
C 0.68
H 0.23
N 0.68
O 0.68
loop_
_atom_site_label
_atom_site_type_symbol
_atom_site_fract_x
_atom_site_fract_y
_atom_site_fract_z
N1 N 0.0782(1) 0.4646(1) 0.2505(2)
C1 C -0.0269(1) 0.5106(1) 0.2757(2)
O1 O -0.1266(1) 0.4743(1) 0.2887(2)
O2 O -0.0146(1) 0.6046(1) 0.2837(2)
C2 C 0.1144(2) 0.6434(1) 0.3179(2)
C3 C 0.1839(2) 0.6055(1) 0.1782(2)
C4 C 0.1915(1) 0.4994(1) 0.1942(2)
C5 C 0.3115(1) 0.4627(1) 0.3350(2)
C6 C 0.2998(1) 0.3585(1) 0.3712(2)
C7 C 0.1662(1) 0.3262(1) 0.3796(2)
O3 O 0.0668(1) 0.3667(1) 0.2340(2)
O4 O 0.3366(1) 0.3193(1) 0.2129(1)
O5 O 0.4215(1) 0.4672(1) 0.2573(1)
C8 C 0.4357(1) 0.3774(1) 0.1734(2)
C9 C 0.4128(2) 0.3858(1) -0.0367(2)
C10 C 0.5692(2) 0.3405(1) 0.2659(3)
H1 H 0.1625(2) 0.6276(1) 0.4436(2)
H2 H 0.1092(2) 0.7110(1) 0.3080(2)
H3 H 0.2707(2) 0.6316(1) 0.2020(2)
H4 H 0.1376(2) 0.6231(1) 0.0526(2)
H5 H 0.1911(1) 0.4735(1) 0.0709(2)
H6 H 0.3268(1) 0.4981(1) 0.4523(2)
H7 H 0.3629(1) 0.3406(1) 0.4864(2)
H8 H 0.1618(1) 0.2587(1) 0.3687(2)
H9 H 0.1509(1) 0.3431(1) 0.5000(2)
H10 H 0.4813(7) 0.4219(8) -0.0666(2)
H11 H 0.3311(6) 0.4162(9) -0.0863(3)
H12 H 0.4114(13) 0.3245(1) -0.0905(3)
H13 H 0.6338(2) 0.3836(5) 0.2457(19)
H14 H 0.5816(6) 0.2809(5) 0.2129(15)
H15 H 0.5768(5) 0.3336(10) 0.3978(4)
#END
