
#######################################################################
#
#                 Cambridge Crystallographic Data Centre
#                                CCDC
#
#######################################################################
#
# If this CIF has been generated from an entry in the Cambridge
# Structural Database, then it will include bibliographic, chemical,
# crystal, experimental, refinement or atomic coordinate data resulting
# from the CCDC's data processing and validation procedures.
#
#######################################################################

data_CSD_CIF_LIVWET01
_audit_creation_date 2014-07-23
_audit_creation_method CSD-ConQuest-V1
_database_code_CSD LIVWET01
_database_code_depnum_ccdc_archive 'CCDC 812246'
_chemical_formula_sum 'C12 H12 N4 O3'
_chemical_formula_moiety
;
C12 H12 N4 O3
;
_journal_coden_Cambridge 315
_journal_volume 118
_journal_year 2014
_journal_page_first 389
_journal_name_full 'Spectrochim.Acta,Part A '
loop_
_publ_author_name
"S.B.Honorato"
"J.S.Mendonca"
"N.Boechat"
"A.C.Oliveira"
"J.M.Filho"
"J.Ellena"
"A.P.Ayala"
_chemical_name_systematic
;
N-benzyl-2-(2-nitro-1H-imidazol-1-yl)acetamide
;
_cell_volume    612.618
_exptl_crystal_colour 'colorless'
_exptl_crystal_density_diffrn 1.411
_exptl_crystal_description 'plate'
_diffrn_ambient_temperature 150
#These two values have been output from a single CSD field.
_refine_ls_R_factor_gt 0.0463
_refine_ls_wR_factor_gt 0.0463
_symmetry_cell_setting monoclinic
_symmetry_space_group_name_H-M 'P 21'
_symmetry_Int_Tables_number 4
loop_
_symmetry_equiv_pos_site_id
_symmetry_equiv_pos_as_xyz
1 x,y,z
2 -x,1/2+y,-z
_cell_length_a 4.683(1)
_cell_length_b 10.989(3)
_cell_length_c 11.905(5)
_cell_angle_alpha 90
_cell_angle_beta 90.58(2)
_cell_angle_gamma 90
_cell_formula_units_Z 2
loop_
_atom_type_symbol
_atom_type_radius_bond
C 0.68
H 0.23
N 0.68
O 0.68
loop_
_atom_site_label
_atom_site_type_symbol
_atom_site_fract_x
_atom_site_fract_y
_atom_site_fract_z
C1 C 0.6011(5) 0.2888(2) 0.4128(2)
C2 C 0.7206(6) 0.2724(3) 0.5193(2)
H1 H 0.66270 0.20520 0.56380
C3 C 0.9256(6) 0.3539(3) 0.5613(3)
H2 H 1.00650 0.34180 0.63400
C4 C 1.0097(7) 0.4520(3) 0.4965(3)
H3 H 1.15060 0.50670 0.52450
C5 C 0.8898(7) 0.4709(3) 0.3914(3)
H4 H 0.94730 0.53880 0.34780
C6 C 0.6835(6) 0.3901(3) 0.3488(3)
H5 H 0.59980 0.40390 0.27690
C7 C 0.3808(5) 0.2005(3) 0.3670(2)
H6 H 0.33450 0.13980 0.42540
H7 H 0.20350 0.24530 0.34760
C8 C 0.3122(5) 0.0730(2) 0.2002(2)
C9 C 0.4525(6) 0.0200(3) 0.0953(2)
H8 H 0.48190 0.08560 0.03960
H9 H 0.64180 -0.01390 0.11580
C10 C 0.2365(6) -0.1946(3) 0.0767(2)
C11 C -0.0447(6) -0.1677(3) -0.0618(2)
H10 H -0.18240 -0.18170 -0.11950
C12 C 0.0909(6) -0.0587(3) -0.0436(2)
H11 H 0.06230 0.01460 -0.08460
N1 N 0.4863(5) 0.1377(2) 0.26652(19)
H12 H 0.66850 0.14280 0.24980
N2 N 0.2753(5) -0.0759(2) 0.04499(18)
N3 N 0.0444(5) -0.2533(2) 0.0138(2)
N4 N 0.3936(6) -0.2521(3) 0.1663(2)
O1 O 0.0534(3) 0.06155(19) 0.21512(15)
O2 O 0.5559(5) -0.1894(3) 0.2235(2)
O3 O 0.3593(8) -0.3624(2) 0.1807(3)
#END
