
#######################################################################
#
#                 Cambridge Crystallographic Data Centre
#                                CCDC
#
#######################################################################
#
# If this CIF has been generated from an entry in the Cambridge
# Structural Database, then it will include bibliographic, chemical,
# crystal, experimental, refinement or atomic coordinate data resulting
# from the CCDC's data processing and validation procedures.
#
#######################################################################

data_CSD_CIF_LIVWET
_audit_creation_date 2008-03-31
_audit_creation_method CSD-ConQuest-V1
_database_code_CSD LIVWET
_database_code_depnum_ccdc_archive 'CCDC 680687'
_chemical_formula_sum 'C12 H12 N4 O3'
_chemical_formula_moiety
;
C12 H12 N4 O3
;
_journal_coeditor_code "IUCr OM2213"
_journal_coden_Cambridge 1370
_journal_volume 64
_journal_year 2008
_journal_page_first o634
_journal_name_full 'Acta Crystallogr.,Sect.E:Struct.Rep.Online '
loop_
_publ_author_name
"J.L.Soares-Sobrinho"
"M.S.S.Cunha-Filho"
"P.J.R.Neto"
"J.J.Torres-Labandeira"
"B.Dacunha-Marinho"
_chemical_name_systematic
;
N-Benzyl-2-(2-nitroimidazol-1-yl)acetamide
;
_chemical_name_common
;
Benznidazole
;
_cell_volume    597.763
_exptl_crystal_colour 'colorless'
_exptl_crystal_density_diffrn 1.446
_exptl_special_details
;
drug used in the treatment of Chagas disease

;
_exptl_crystal_description 'prism'
_exptl_crystal_preparation 'methanol/acetonitrile'
_diffrn_ambient_temperature 100
#These two values have been output from a single CSD field.
_refine_ls_R_factor_gt 0.0248
_refine_ls_wR_factor_gt 0.0248
_symmetry_cell_setting monoclinic
_symmetry_space_group_name_H-M 'P 21'
_symmetry_Int_Tables_number 4
loop_
_symmetry_equiv_pos_site_id
_symmetry_equiv_pos_as_xyz
1 x,y,z
2 -x,1/2+y,-z
_cell_length_a 4.6556(1)
_cell_length_b 10.9113(2)
_cell_length_c 11.7681(3)
_cell_angle_alpha 90
_cell_angle_beta 90.668(1)
_cell_angle_gamma 90
_cell_formula_units_Z 2
loop_
_atom_type_symbol
_atom_type_radius_bond
C 0.68
H 0.23
N 0.68
O 0.68
loop_
_atom_site_label
_atom_site_type_symbol
_atom_site_fract_x
_atom_site_fract_y
_atom_site_fract_z
C1 C 0.4003(3) 0.40584(12) 0.08674(11)
C2 C 0.2787(3) 0.42354(13) -0.02020(12)
H1 H 0.33680 0.49150 -0.06490
C3 C 0.0725(3) 0.34290(15) -0.06277(12)
H2 H -0.00960 0.35580 -0.13610
C4 C -0.0126(3) 0.24393(15) 0.00205(14)
H3 H -0.15590 0.18960 -0.02630
C5 C 0.1101(3) 0.22366(13) 0.10809(13)
H4 H 0.05360 0.15480 0.15180
C6 C 0.3162(3) 0.30441(13) 0.15048(12)
H5 H 0.40030 0.29040 0.22330
C7 C 0.6208(3) 0.49433(14) 0.13271(12)
H6 H 0.79960 0.44940 0.15210
H7 H 0.66640 0.55580 0.07370
N1 N 0.5145(3) 0.55688(11) 0.23428(10)
H8 H 0.338(4) 0.5619(16) 0.2452(14)
C8 C 0.6898(3) 0.62199(12) 0.30060(11)
O1 O 0.94844(19) 0.63427(9) 0.28473(8)
C9 C 0.5490(3) 0.67480(13) 0.40651(12)
H9 H 0.35790 0.70850 0.38590
H10 H 0.52110 0.60870 0.46290
N2 N 0.7269(2) 0.77163(10) 0.45668(9)
C10 C 0.7665(3) 0.89028(13) 0.42442(11)
N3 N 0.9577(3) 0.94933(12) 0.48657(10)
C11 C 1.0495(3) 0.86385(13) 0.56313(12)
H11 H 1.19010 0.87810 0.62080
C12 C 0.9113(3) 0.75456(13) 0.54557(11)
H12 H 0.93900 0.68100 0.58750
N4 N 0.6082(3) 0.94740(12) 0.33348(10)
O2 O 0.4426(2) 0.88404(11) 0.27695(9)
O3 O 0.6452(3) 1.05789(11) 0.31808(11)
#END
