
#######################################################################
#
#                 Cambridge Crystallographic Data Centre
#                                CCDC
#
#######################################################################
#
# If this CIF has been generated from an entry in the Cambridge
# Structural Database, then it will include bibliographic, chemical,
# crystal, experimental, refinement or atomic coordinate data resulting
# from the CCDC's data processing and validation procedures.
#
#######################################################################

data_CSD_CIF_LIXRIT
_audit_creation_date 2000-08-03
_audit_creation_method CSD-ConQuest-V1
_database_code_CSD LIXRIT
_database_code_depnum_ccdc_archive 'CCDC 137955'
_chemical_formula_sum 'C13 H10 N2 O3'
_chemical_formula_moiety
;
C13 H10 N2 O3
;
_journal_coden_Cambridge 241
_journal_year 1999
_journal_page_first 657
_journal_name_full 'Chem.Lett. '
loop_
_publ_author_name
"K.Ogawa"
"T.Fujiwara"
_chemical_name_systematic
;
N-(2-Hydroxy-3-nitrobenzylidene)aniline
;
_chemical_melting_point 408
_cell_volume   2291.823
_exptl_crystal_colour 'orange'
_exptl_crystal_density_diffrn 1.404
_exptl_special_details
;
The tautomeric hydrogen H2 has been located

;
_exptl_crystal_description 'block'
_diffrn_ambient_temperature ?
_diffrn_special_details
;
The study was carried out at room temperature,in the range 283-303K

;
#These two values have been output from a single CSD field.
_refine_ls_R_factor_gt 0.0576
_refine_ls_wR_factor_gt 0.0576
_symmetry_cell_setting orthorhombic
_symmetry_space_group_name_H-M 'P c c n'
_symmetry_Int_Tables_number 56
loop_
_symmetry_equiv_pos_site_id
_symmetry_equiv_pos_as_xyz
1 x,y,z
2 1/2-x,1/2-y,z
3 1/2+x,-y,1/2-z
4 -x,1/2+y,1/2-z
5 -x,-y,-z
6 -1/2+x,-1/2+y,-z
7 -1/2-x,y,-1/2+z
8 x,-1/2-y,-1/2+z
_cell_length_a 23.845(4)
_cell_length_b 7.099(3)
_cell_length_c 13.539(4)
_cell_angle_alpha 90
_cell_angle_beta 90
_cell_angle_gamma 90
_cell_formula_units_Z 8
loop_
_atom_type_symbol
_atom_type_radius_bond
C 0.68
H 0.23
N 0.68
O 0.68
loop_
_atom_site_label
_atom_site_type_symbol
_atom_site_fract_x
_atom_site_fract_y
_atom_site_fract_z
N1 N 0.34613(7) 0.0960(3) 0.16135(13)
H1 H 0.3235(16) 0.072(5) 0.111(3)
N2 N 0.14645(8) -0.0988(3) 0.04543(15)
O1 O 0.15858(7) -0.0008(3) -0.02477(13)
O2 O 0.26274(6) 0.0026(2) 0.05628(10)
O3 O 0.10923(8) -0.2164(3) 0.04324(15)
C1 C 0.25868(8) 0.0099(3) 0.23209(13)
C2 C 0.23357(8) -0.0177(3) 0.13784(14)
C3 C 0.17641(8) -0.0724(3) 0.13769(14)
C4 C 0.14751(9) -0.1021(3) 0.22409(17)
H2 H 0.1112(10) -0.146(3) 0.2191(17)
C5 C 0.17231(10) -0.0736(4) 0.31417(17)
H3 H 0.1524(10) -0.093(3) 0.3686(19)
C6 C 0.22758(10) -0.0171(3) 0.31825(16)
H4 H 0.2449(10) 0.008(3) 0.3772(19)
C7 C 0.31635(8) 0.0673(3) 0.23884(15)
H5 H 0.3300(8) 0.088(3) 0.3045(16)
C8 C 0.40311(8) 0.1579(3) 0.16192(16)
C9 C 0.43148(9) 0.2127(4) 0.24582(19)
H6 H 0.4135(11) 0.213(4) 0.3087(19)
C10 C 0.48614(10) 0.2783(4) 0.2379(2)
H7 H 0.5026(12) 0.313(4) 0.296(2)
C11 C 0.51195(10) 0.2868(4) 0.1485(2)
H8 H 0.5468(12) 0.342(4) 0.1438(19)
C12 C 0.48422(12) 0.2336(5) 0.0654(2)
H9 H 0.5011(12) 0.239(3) 0.007(2)
C13 C 0.42921(11) 0.1677(4) 0.07105(19)
H10 H 0.4084(11) 0.131(3) 0.015(2)
H11? H 0.29490 0.03440 0.07010
#END
