
#######################################################################
#
#                 Cambridge Crystallographic Data Centre
#                                CCDC
#
#######################################################################
#
# If this CIF has been generated from an entry in the Cambridge
# Structural Database, then it will include bibliographic, chemical,
# crystal, experimental, refinement or atomic coordinate data resulting
# from the CCDC's data processing and validation procedures.
#
#######################################################################

data_CSD_CIF_LIXRIT03
_audit_creation_date 2000-08-03
_audit_creation_method CSD-ConQuest-V1
_database_code_CSD LIXRIT03
_database_code_depnum_ccdc_archive 'CCDC 137954'
_chemical_formula_sum 'C13 H10 N2 O3'
_chemical_formula_moiety
;
C13 H10 N2 O3
;
_journal_coden_Cambridge 241
_journal_year 1999
_journal_page_first 657
_journal_name_full 'Chem.Lett. '
loop_
_publ_author_name
"K.Ogawa"
"T.Fujiwara"
_chemical_name_systematic
;
N-(2-Hydroxy-3-nitrobenzylidene)aniline
;
_chemical_melting_point 408
_cell_volume   2257.665
_exptl_crystal_colour 'yellow'
_exptl_crystal_density_diffrn 1.425
_exptl_special_details
;
The tautomeric hydrogen H2 has been located

;
_exptl_crystal_description 'block'
_diffrn_ambient_temperature 220.0
#These two values have been output from a single CSD field.
_refine_ls_R_factor_gt 0.0459
_refine_ls_wR_factor_gt 0.0459
_symmetry_cell_setting orthorhombic
_symmetry_space_group_name_H-M 'P c c n'
_symmetry_Int_Tables_number 56
loop_
_symmetry_equiv_pos_site_id
_symmetry_equiv_pos_as_xyz
1 x,y,z
2 1/2-x,1/2-y,z
3 1/2+x,-y,1/2-z
4 -x,1/2+y,1/2-z
5 -x,-y,-z
6 -1/2+x,-1/2+y,-z
7 -1/2-x,y,-1/2+z
8 x,-1/2-y,-1/2+z
_cell_length_a 23.739(3)
_cell_length_b 7.0395(18)
_cell_length_c 13.510(2)
_cell_angle_alpha 90
_cell_angle_beta 90
_cell_angle_gamma 90
_cell_formula_units_Z 8
loop_
_atom_type_symbol
_atom_type_radius_bond
C 0.68
H 0.23
N 0.68
O 0.68
loop_
_atom_site_label
_atom_site_type_symbol
_atom_site_fract_x
_atom_site_fract_y
_atom_site_fract_z
N1 N 0.34694(5) 0.09858(19) 0.16323(10)
H1 H 0.3243(17) 0.065(5) 0.108(3)
N2 N 0.14653(6) -0.1003(2) 0.04819(10)
O1 O 0.10901(6) -0.2198(2) 0.04616(11)
O2 O 0.26330(5) 0.00177(19) 0.05879(8)
O3 O 0.15850(5) -0.0012(2) -0.02221(9)
C1 C 0.25939(6) 0.0108(2) 0.23485(10)
C2 C 0.23429(6) -0.0178(2) 0.14012(11)
C3 C 0.17674(6) -0.0739(2) 0.14101(11)
C4 C 0.14749(7) -0.1041(2) 0.22726(12)
H2 H 0.1092(7) -0.143(2) 0.2235(13)
C5 C 0.17264(7) -0.0751(2) 0.31796(12)
H3 H 0.1531(8) -0.097(3) 0.3761(15)
C6 C 0.22825(7) -0.0174(2) 0.32150(12)
H4 H 0.2454(7) 0.008(2) 0.3807(13)
C7 C 0.31728(6) 0.0697(2) 0.24168(11)
H5 H 0.3323(6) 0.085(2) 0.3061(12)
C8 C 0.40399(7) 0.1619(2) 0.16290(12)
C9 C 0.43267(7) 0.2196(2) 0.24676(14)
H6 H 0.4166(8) 0.216(3) 0.3093(14)
C10 C 0.48755(7) 0.2858(3) 0.23807(15)
H7 H 0.5064(8) 0.332(3) 0.3001(16)
C11 C 0.51342(8) 0.2937(3) 0.14715(16)
H8 H 0.5479(9) 0.330(3) 0.1404(14)
C12 C 0.48524(8) 0.2352(3) 0.06414(16)
H9 H 0.5026(9) 0.240(3) 0.0014(19)
C13 C 0.43010(7) 0.1692(3) 0.07142(13)
H10 H 0.4081(8) 0.129(3) 0.0170(14)
H11? H 0.293(2) 0.053(6) 0.078(3)
#END
