
#######################################################################
#
#                 Cambridge Crystallographic Data Centre
#                                CCDC
#
#######################################################################
#
# If this CIF has been generated from an entry in the Cambridge
# Structural Database, then it will include bibliographic, chemical,
# crystal, experimental, refinement or atomic coordinate data resulting
# from the CCDC's data processing and validation procedures.
#
#######################################################################

data_CSD_CIF_LIXRIT01
_audit_creation_date 2000-08-03
_audit_creation_method CSD-ConQuest-V1
_database_code_CSD LIXRIT01
_database_code_depnum_ccdc_archive 'CCDC 137952'
_chemical_formula_sum 'C13 H10 N2 O3'
_chemical_formula_moiety
;
C13 H10 N2 O3
;
_journal_coden_Cambridge 241
_journal_year 1999
_journal_page_first 657
_journal_name_full 'Chem.Lett. '
loop_
_publ_author_name
"K.Ogawa"
"T.Fujiwara"
_chemical_name_systematic
;
N-(2-Hydroxy-3-nitrobenezylidene)aniline
;
_chemical_melting_point 408
_cell_volume   2208.195
_exptl_crystal_colour 'yellow'
_exptl_crystal_density_diffrn 1.457
_exptl_special_details
;
The tautomeric hydrogen H2 has been located

;
_exptl_crystal_description 'block'
_diffrn_ambient_temperature 90.0
#These two values have been output from a single CSD field.
_refine_ls_R_factor_gt 0.0485
_refine_ls_wR_factor_gt 0.0485
_symmetry_cell_setting orthorhombic
_symmetry_space_group_name_H-M 'P c c n'
_symmetry_Int_Tables_number 56
loop_
_symmetry_equiv_pos_site_id
_symmetry_equiv_pos_as_xyz
1 x,y,z
2 1/2-x,1/2-y,z
3 1/2+x,-y,1/2-z
4 -x,1/2+y,1/2-z
5 -x,-y,-z
6 -1/2+x,-1/2+y,-z
7 -1/2-x,y,-1/2+z
8 x,-1/2-y,-1/2+z
_cell_length_a 23.617(2)
_cell_length_b 6.9390(14)
_cell_length_c 13.4746(17)
_cell_angle_alpha 90
_cell_angle_beta 90
_cell_angle_gamma 90
_cell_formula_units_Z 8
loop_
_atom_type_symbol
_atom_type_radius_bond
C 0.68
H 0.23
N 0.68
O 0.68
loop_
_atom_site_label
_atom_site_type_symbol
_atom_site_fract_x
_atom_site_fract_y
_atom_site_fract_z
N1 N 0.34754(6) 0.1016(2) 0.16565(10)
H1 H 0.3275(19) 0.087(7) 0.108(4)
N2 N 0.14664(6) -0.1028(2) 0.05086(10)
O1 O 0.15844(5) -0.0001(2) -0.02013(9)
O2 O 0.26410(5) 0.00120(18) 0.06136(8)
O3 O 0.10901(5) -0.2260(2) 0.0483(1)
C1 C 0.25989(6) 0.0111(2) 0.23847(11)
C2 C 0.23497(6) -0.0185(2) 0.14281(12)
C3 C 0.17706(7) -0.0762(2) 0.14370(12)
C4 C 0.14737(7) -0.1073(2) 0.23085(12)
H2 H 0.1075(9) -0.151(3) 0.2249(16)
C5 C 0.17274(7) -0.0760(2) 0.32218(12)
H3 H 0.1516(8) -0.092(3) 0.3828(15)
C6 C 0.22890(7) -0.0164(2) 0.32563(12)
H4 H 0.2480(9) 0.010(3) 0.3872(16)
C7 C 0.31830(7) 0.0725(2) 0.24486(12)
H5 H 0.3337(7) 0.093(3) 0.3101(14)
C8 C 0.40483(7) 0.1663(2) 0.16396(12)
C9 C 0.43410(7) 0.2273(2) 0.24804(12)
H6 H 0.4189(8) 0.225(3) 0.3166(15)
C10 C 0.48940(7) 0.2936(3) 0.23843(13)
H7 H 0.5085(10) 0.341(4) 0.2989(18)
C11 C 0.51529(7) 0.2991(3) 0.14599(14)
H8 H 0.5525(9) 0.345(3) 0.1370(15)
C12 C 0.48619(8) 0.2377(3) 0.06229(13)
H9 H 0.5032(9) 0.241(3) 0.0010(18)
C13 C 0.43079(7) 0.1715(3) 0.07124(13)
H10 H 0.4105(8) 0.126(3) 0.0169(15)
H11? H 0.293(3) 0.052(8) 0.081(5)
#END
