
#######################################################################
#
#                 Cambridge Crystallographic Data Centre
#                                CCDC
#
#######################################################################
#
# If this CIF has been generated from an entry in the Cambridge
# Structural Database, then it will include bibliographic, chemical,
# crystal, experimental, refinement or atomic coordinate data resulting
# from the CCDC's data processing and validation procedures.
#
#######################################################################

data_CSD_CIF_LIXSUH
_audit_creation_date 2008-08-01
_audit_creation_method CSD-ConQuest-V1
_database_code_CSD LIXSUH
_database_code_depnum_ccdc_archive 'CCDC 623146'
_chemical_formula_sum 'C15 H16 N2 O2'
_chemical_formula_moiety
;
C15 H16 N2 O2
;
_journal_coden_Cambridge 1048
_journal_volume 10
_journal_year 2008
_journal_page_first 327
_journal_name_full 'Green Chemistry '
loop_
_publ_author_name
"G.Bellachioma"
"L.Castrica"
"F.Fringuelli"
"F.Pizzo"
"L.Vaccaro"
_chemical_name_systematic
;
3-Cyano-8a-hydroxy-4-phenyl-4a,5,6,7,8,8a-hexahydro-4H-1,2-benzoxazine
;
_chemical_melting_point 415.15
_cell_volume   1335.112
_exptl_crystal_colour 'colorless'
_exptl_crystal_density_diffrn 1.275
_exptl_special_details
;
Melting point range 415.15-417.15K

;
_exptl_crystal_description 'prism'
_exptl_crystal_preparation 'chloroform'
_diffrn_ambient_temperature 295
#These two values have been output from a single CSD field.
_refine_ls_R_factor_gt 0.0467
_refine_ls_wR_factor_gt 0.0467
_symmetry_cell_setting monoclinic
_symmetry_space_group_name_H-M 'P 21/c'
_symmetry_Int_Tables_number 14
loop_
_symmetry_equiv_pos_site_id
_symmetry_equiv_pos_as_xyz
1 x,y,z
2 -x,1/2+y,1/2-z
3 -x,-y,-z
4 x,-1/2-y,-1/2+z
_cell_length_a 14.092(3)
_cell_length_b 8.462(3)
_cell_length_c 11.276(3)
_cell_angle_alpha 90
_cell_angle_beta 96.819(16)
_cell_angle_gamma 90
_cell_formula_units_Z 4
loop_
_atom_type_symbol
_atom_type_radius_bond
C 0.68
H 0.23
N 0.68
O 0.68
loop_
_atom_site_label
_atom_site_type_symbol
_atom_site_fract_x
_atom_site_fract_y
_atom_site_fract_z
C1 C 0.85093(16) -0.0844(3) 0.8085(2)
C2 C 0.9193(2) -0.0320(3) 0.7406(3)
C3 C 0.68002(18) -0.1732(3) 0.7715(2)
C4 C 0.74753(17) -0.0360(3) 0.7770(2)
C5 C 1.0156(2) -0.0618(4) 0.7754(3)
C6 C 0.71581(16) 0.0851(3) 0.8640(2)
C7 C 1.0429(3) -0.1460(4) 0.8762(3)
C8 C 0.7610(2) 0.2466(3) 0.8547(3)
C9 C 0.9762(3) -0.2035(4) 0.9432(3)
C10 C 0.7238(2) 0.3623(4) 0.9417(3)
C11 C 0.8794(2) -0.1715(3) 0.9102(3)
C12 C 0.6151(2) 0.3736(3) 0.9227(3)
C13 C 0.5701(2) 0.2118(3) 0.9314(3)
C14 C 0.60802(17) 0.0986(3) 0.8449(2)
C15 C 0.70533(18) -0.3160(3) 0.7102(2)
N1 N 0.59894(15) -0.1854(2) 0.81304(17)
N2 N 0.72799(16) -0.4225(3) 0.65859(18)
O1 O 0.58126(14) 0.1356(2) 0.72461(16)
O2 O 0.56522(11) -0.0546(2) 0.86858(14)
H1 H 0.5274(17) 0.169(3) 0.719(2)
H2 H 0.8978(15) 0.037(2) 0.6647(19)
H3 H 1.0572(17) -0.021(2) 0.728(2)
H4 H 0.7407(11) 0.0093(18) 0.7013(15)
H5 H 0.7312(11) 0.0382(18) 0.9453(15)
H6 H 1.111(2) -0.169(3) 0.900(2)
H7 H 0.8292(15) 0.230(2) 0.8717(17)
H8 H 0.7467(14) 0.284(2) 0.7724(18)
H9 H 0.9870(17) -0.268(3) 1.016(2)
H10 H 0.7442(16) 0.324(2) 1.026(2)
H11 H 0.7503(15) 0.466(2) 0.9351(19)
H12 H 0.8313(15) -0.209(2) 0.9573(18)
H13 H 0.5915(15) 0.447(2) 0.9827(19)
H14 H 0.5917(14) 0.420(2) 0.8404(19)
H15 H 0.5863(14) 0.166(2) 1.0104(18)
H16 H 0.5002(16) 0.213(2) 0.9152(18)
#END
