
#######################################################################
#
#                 Cambridge Crystallographic Data Centre
#                                CCDC
#
#######################################################################
#
# If this CIF has been generated from an entry in the Cambridge
# Structural Database, then it will include bibliographic, chemical,
# crystal, experimental, refinement or atomic coordinate data resulting
# from the CCDC's data processing and validation procedures.
#
#######################################################################

data_CSD_CIF_LIXSAN
_audit_creation_date 2008-07-31
_audit_creation_method CSD-ConQuest-V1
_database_code_CSD LIXSAN
_database_code_depnum_ccdc_archive 'CCDC 651568'
_chemical_formula_sum 'C27 H28 N2 O4'
_chemical_formula_moiety
;
C27 H28 N2 O4
;
_journal_coden_Cambridge 1088
_journal_volume 2008
_journal_year 2008
_journal_page_first 691
_journal_name_full 'Synlett '
loop_
_publ_author_name
"Meng-Xia Xue"
"Xiao-Mei Zhang"
"Liu-Zhu Gong"
_chemical_name_systematic
;
3,5,5-Triphenyl-2-(t-butoxycarbonyl)-4-nitropyrrolidine
;
_chemical_melting_point 383.15
_cell_volume   2452.717
_exptl_crystal_density_diffrn 1.204
_exptl_special_details
;
Melting point range 383.15-384.15K

;
_diffrn_ambient_temperature 287
_refine_special_details
;
The t-butyl group is disordered over two sites with occupancies 0.642:0.358.

;
#These two values have been output from a single CSD field.
_refine_ls_R_factor_gt 0.0396
_refine_ls_wR_factor_gt 0.0396
_symmetry_cell_setting monoclinic
_symmetry_space_group_name_H-M 'P 21/n'
_symmetry_Int_Tables_number 14
loop_
_symmetry_equiv_pos_site_id
_symmetry_equiv_pos_as_xyz
1 x,y,z
2 1/2-x,1/2+y,1/2-z
3 -x,-y,-z
4 -1/2+x,-1/2-y,-1/2+z
_cell_length_a 13.033(2)
_cell_length_b 11.501(2)
_cell_length_c 16.485(2)
_cell_angle_alpha 90
_cell_angle_beta 96.97(1)
_cell_angle_gamma 90
_cell_formula_units_Z 4
loop_
_atom_type_symbol
_atom_type_radius_bond
C 0.68
H 0.23
N 0.68
O 0.68
loop_
_atom_site_label
_atom_site_type_symbol
_atom_site_fract_x
_atom_site_fract_y
_atom_site_fract_z
O1 O 0.43880(9) 0.21265(10) 0.63293(7)
O2 O 0.49907(10) 0.38601(11) 0.63457(8)
O3 O 0.04495(9) 0.17890(11) 0.59185(7)
O4 O 0.18009(11) 0.05958(12) 0.60759(10)
N1 N 0.26762(10) 0.18076(11) 0.48823(8)
N2 N 0.43480(9) 0.31387(12) 0.61089(7)
C1 C 0.33676(10) 0.27578(12) 0.47143(8)
C2 C 0.34484(10) 0.35192(12) 0.55109(8)
H1 H 0.35080 0.43450 0.53780
C3 C 0.24427(10) 0.32893(12) 0.58929(8)
H2 H 0.26390 0.29230 0.64260
C4 C 0.18886(11) 0.23431(12) 0.53158(8)
H3 H 0.13650 0.27130 0.49220
C5 C 0.44037(11) 0.23262(12) 0.44940(8)
C6 C 0.45500(13) 0.11860(14) 0.42724(9)
H4 H 0.40080 0.06580 0.42610
C7 C 0.54974(15) 0.08211(17) 0.40666(11)
H5 H 0.55820 0.00530 0.39120
C8 C 0.63095(14) 0.15748(18) 0.40875(11)
H6 H 0.69470 0.13200 0.39590
C9 C 0.61742(13) 0.27104(17) 0.42994(11)
H7 H 0.67210 0.32320 0.43110
C10 C 0.52329(11) 0.30824(14) 0.44945(10)
H8 H 0.51500 0.38590 0.46300
C11 C 0.28342(10) 0.34723(13) 0.39888(8)
C12 C 0.30674(12) 0.46268(14) 0.38655(9)
H9 H 0.35530 0.50000 0.42360
C13 C 0.25930(15) 0.52356(18) 0.32032(11)
H10 H 0.27640 0.60100 0.31280
C14 C 0.18715(16) 0.4700(2) 0.26561(12)
H11 H 0.15380 0.51150 0.22170
C15 C 0.16423(14) 0.3553(2) 0.27573(11)
H12 H 0.11600 0.31840 0.23810
C16 C 0.21241(12) 0.29371(17) 0.34173(9)
H13 H 0.19690 0.21550 0.34770
C17 C 0.18512(11) 0.43819(14) 0.60393(9)
C18 C 0.14074(12) 0.50738(15) 0.54121(11)
H14 H 0.14330 0.48440 0.48740
C19 C 0.09240(14) 0.61058(17) 0.55693(16)
H15 H 0.06340 0.65680 0.51390
C20 C 0.08738(19) 0.6443(2) 0.6353(2)
H16 H 0.05450 0.71340 0.64600
C21 C 0.1304(2) 0.5769(3) 0.69792(18)
H17 H 0.12740 0.60050 0.75150
C22 C 0.17842(17) 0.47385(19) 0.68279(12)
H18 H 0.20660 0.42790 0.72630
C23 C 0.13798(12) 0.14540(14) 0.58074(9)
C24 C -0.01970(15) 0.11914(17) 0.64719(12)
C25 C 0.0262(8) 0.1413(8) 0.7330(3)
H19 H 0.09070 0.10040 0.74380
H20 H -0.02040 0.11450 0.76980
H21 H 0.03800 0.22310 0.74080
C26 C -0.0239(7) -0.0091(3) 0.6314(5)
H22 H -0.04270 -0.02280 0.57410
H23 H -0.07440 -0.04390 0.66160
H24 H 0.04270 -0.04270 0.64830
C27 C -0.1252(4) 0.1705(13) 0.6213(8)
H25 H -0.12460 0.25170 0.63480
H26 H -0.17570 0.13120 0.64920
H27 H -0.14250 0.16120 0.56330
H28 H 0.3025(13) 0.1288(14) 0.5192(10)
C28? C 0.0477(10) 0.0862(18) 0.7238(5)
H29? H 0.09240 0.02350 0.71250
H30? H 0.00530 0.06210 0.76450
H31? H 0.08870 0.15200 0.74370
C29? C -0.0725(12) 0.0181(13) 0.6032(11)
H32? H -0.10270 0.04220 0.54990
H33? H -0.12570 -0.01050 0.63350
H34? H -0.02310 -0.04250 0.59810
C30? C -0.0808(12) 0.2172(6) 0.6783(11)
H35? H -0.03450 0.27760 0.69980
H36? H -0.11880 0.18880 0.72060
H37? H -0.12820 0.24760 0.63420
#END
