
#######################################################################
#
#                 Cambridge Crystallographic Data Centre
#                                CCDC
#
#######################################################################
#
# If this CIF has been generated from an entry in the Cambridge
# Structural Database, then it will include bibliographic, chemical,
# crystal, experimental, refinement or atomic coordinate data resulting
# from the CCDC's data processing and validation procedures.
#
#######################################################################

data_CSD_CIF_LIYVEW
_audit_creation_date 2014-02-28
_audit_creation_method CSD-ConQuest-V1
_database_code_CSD LIYVEW
_database_code_depnum_ccdc_archive 'CCDC 988430'
_chemical_formula_sum 'C28 H27 N3 O5'
_chemical_formula_moiety
;
C28 H27 N3 O5
;
_journal_coeditor_code "sj5392"
_journal_coden_Cambridge 1370
_journal_volume 70
_journal_year 2014
_journal_page_first o369
_journal_name_full 'Acta Crystallogr.,Sect.E:Struct.Rep.Online '
loop_
_publ_author_name
"I.Celik"
"M.Akkurt"
"A.Jarrahpour"
"R.Heiran"
"N.Ozdemir"
_chemical_name_systematic
;
1-(3-(Morpholin-4-yl)propyl)-4-(3-nitrophenyl)-2H-spiro[azetidine-3,9'-xanthen
]-2-one
;
_cell_volume   2447.850
_exptl_crystal_colour 'light yellow'
_exptl_crystal_density_diffrn 1.317
_exptl_crystal_description 'block'
_diffrn_ambient_temperature 296
#These two values have been output from a single CSD field.
_refine_ls_R_factor_gt 0.0407
_refine_ls_wR_factor_gt 0.0407
_symmetry_cell_setting monoclinic
_symmetry_space_group_name_H-M 'P 21/n'
_symmetry_Int_Tables_number 14
loop_
_symmetry_equiv_pos_site_id
_symmetry_equiv_pos_as_xyz
1 x,y,z
2 1/2-x,1/2+y,1/2-z
3 -x,-y,-z
4 -1/2+x,-1/2-y,-1/2+z
_cell_length_a 9.2637(6)
_cell_length_b 11.4091(5)
_cell_length_c 23.3310(15)
_cell_angle_alpha 90
_cell_angle_beta 96.930(5)
_cell_angle_gamma 90
_cell_formula_units_Z 4
loop_
_atom_type_symbol
_atom_type_radius_bond
C 0.68
H 0.23
N 0.68
O 0.68
loop_
_atom_site_label
_atom_site_type_symbol
_atom_site_fract_x
_atom_site_fract_y
_atom_site_fract_z
O1 O 0.84675(13) 0.41791(9) 0.23520(5)
O2 O 0.49859(13) 0.68567(11) 0.32597(5)
O3 O 0.21884(16) 0.55524(13) 0.00379(6)
O4 O 0.39138(19) 0.44168(14) 0.03770(8)
O5 O 0.76395(16) 0.93149(14) -0.03119(7)
N1 N 0.80288(13) 0.58505(10) 0.17769(5)
N2 N 0.33075(18) 0.53649(15) 0.03527(6)
N3 N 0.86873(15) 0.81179(12) 0.07346(6)
C1 C 0.78855(17) 0.51133(13) 0.22163(6)
C2 C 0.67968(16) 0.59013(12) 0.24776(6)
C3 C 0.69833(16) 0.67310(12) 0.19331(6)
C4 C 0.74121(18) 0.64401(13) 0.30441(6)
C5 C 0.88946(19) 0.65055(15) 0.32229(7)
C6 C 0.9422(2) 0.70557(18) 0.37322(8)
C7 C 0.8472(3) 0.75553(18) 0.40659(8)
C8 C 0.6998(2) 0.74905(16) 0.39060(7)
C9 C 0.64771(19) 0.69209(14) 0.33962(7)
C10 C 0.44594(19) 0.59521(15) 0.28968(7)
C11 C 0.3044(2) 0.55984(18) 0.29314(9)
C12 C 0.2471(2) 0.4687(2) 0.25963(10)
C13 C 0.3315(2) 0.41067(18) 0.22397(9)
C14 C 0.4725(2) 0.44662(15) 0.22061(7)
C15 C 0.53121(18) 0.54190(14) 0.25249(6)
C16 C 0.57100(16) 0.69479(13) 0.14871(6)
C17 C 0.50680(17) 0.80495(14) 0.14408(6)
C18 C 0.39007(18) 0.82805(15) 0.10310(7)
C19 C 0.33281(18) 0.74088(16) 0.06655(7)
C20 C 0.39514(17) 0.63143(14) 0.07194(6)
C21 C 0.51418(17) 0.60747(13) 0.11139(6)
C22 C 0.89002(19) 0.57752(15) 0.13018(7)
C23 C 1.0149(2) 0.66323(17) 0.13299(8)
C24 C 0.9716(2) 0.79100(17) 0.12441(8)
C25 C 0.8098(3) 0.93061(16) 0.07274(10)
C26 C 0.7015(3) 0.9490(2) 0.02030(12)
C27 C 0.8214(2) 0.8171(2) -0.03121(9)
C28 C 0.9321(2) 0.79517(17) 0.02015(7)
H1 H 0.74730 0.74660 0.20560
H2 H 0.95440 0.61730 0.29950
H3 H 1.04170 0.70870 0.38480
H4 H 0.88280 0.79430 0.44040
H5 H 0.63560 0.78240 0.41360
H6 H 0.24860 0.59770 0.31810
H7 H 0.15120 0.44600 0.26090
H8 H 0.29340 0.34720 0.20210
H9 H 0.52900 0.40660 0.19670
H10 H 0.54320 0.86430 0.16910
H11 H 0.35000 0.90290 0.10020
H12 H 0.25390 0.75550 0.03890
H13 H 0.55610 0.53330 0.11300
H14 H 0.82710 0.59030 0.09440
H15 H 0.92870 0.49870 0.12900
H16 H 1.07620 0.64180 0.10370
H17 H 1.07290 0.65530 0.17030
H18 H 0.92910 0.81780 0.15810
H19 H 1.05830 0.83720 0.12160
H20 H 0.88840 0.98680 0.07270
H21 H 0.76320 0.94350 0.10730
H22 H 0.62100 0.89510 0.02140
H23 H 0.66330 1.02810 0.02080
H24 H 0.86620 0.80520 -0.06630
H25 H 0.74280 0.76090 -0.03110
H26 H 0.96870 0.71570 0.01860
H27 H 1.01330 0.84850 0.01920
#END
