
#######################################################################
#
#                 Cambridge Crystallographic Data Centre
#                                CCDC
#
#######################################################################
#
# If this CIF has been generated from an entry in the Cambridge
# Structural Database, then it will include bibliographic, chemical,
# crystal, experimental, refinement or atomic coordinate data resulting
# from the CCDC's data processing and validation procedures.
#
#######################################################################

data_CSD_CIF_LIYVIA
_audit_creation_date 2014-02-28
_audit_creation_method CSD-ConQuest-V1
_database_code_CSD LIYVIA
_database_code_depnum_ccdc_archive 'CCDC 988449'
_chemical_formula_sum 'C16 H13 N1 O6'
_chemical_formula_moiety
;
C16 H13 N1 O6
;
_journal_coeditor_code "ff2127"
_journal_coden_Cambridge 1370
_journal_volume 70
_journal_year 2014
_journal_page_first o371
_journal_name_full 'Acta Crystallogr.,Sect.E:Struct.Rep.Online '
loop_
_publ_author_name
"V.C.M.Vieira"
"J.A.Golen"
"A.L.Rheingold"
"D.R.Manke"
_chemical_name_systematic
;
Dimethyl 2-nitrobiphenyl-4,4'-dicarboxylate
;
_cell_volume   2833.071
_exptl_crystal_colour 'colorless'
_exptl_crystal_density_diffrn 1.478
_exptl_crystal_description 'block'
_diffrn_ambient_temperature 90
#These two values have been output from a single CSD field.
_refine_ls_R_factor_gt 0.0343
_refine_ls_wR_factor_gt 0.0343
_symmetry_cell_setting monoclinic
_symmetry_space_group_name_H-M 'C 2/c'
_symmetry_Int_Tables_number 15
loop_
_symmetry_equiv_pos_site_id
_symmetry_equiv_pos_as_xyz
1 x,y,z
2 -x,y,1/2-z
3 1/2+x,1/2+y,z
4 1/2-x,1/2+y,1/2-z
5 -x,-y,-z
6 x,-y,-1/2+z
7 -1/2-x,-1/2-y,-z
8 -1/2+x,-1/2-y,-1/2+z
_cell_length_a 20.3958(17)
_cell_length_b 8.3334(6)
_cell_length_c 18.9386(14)
_cell_angle_alpha 90
_cell_angle_beta 118.342(7)
_cell_angle_gamma 90
_cell_formula_units_Z 8
loop_
_atom_type_symbol
_atom_type_radius_bond
C 0.68
H 0.23
N 0.68
O 0.68
loop_
_atom_site_label
_atom_site_type_symbol
_atom_site_fract_x
_atom_site_fract_y
_atom_site_fract_z
O1 O 0.20578(5) 0.35494(11) 0.07049(6)
O2 O 0.19389(5) 0.61983(11) 0.04893(6)
O3 O 0.43918(5) 0.91646(12) 0.14067(6)
O4 O 0.48248(5) 0.82157(11) 0.06479(5)
O5 O 0.81617(5) 0.57857(12) 0.26263(6)
O6 O 0.78697(5) 0.47958(13) 0.14129(6)
N1 N 0.44911(6) 0.80702(13) 0.10372(6)
C1 C 0.12899(7) 0.35323(17) 0.05505(9)
H1 H 0.11250 0.24200 0.05270
H2 H 0.09740 0.40640 0.00380
H3 H 0.12510 0.41010 0.09820
C2 C 0.23120(7) 0.49999(15) 0.06615(8)
C3 C 0.31111(7) 0.49867(15) 0.08548(7)
C4 C 0.34421(7) 0.64598(16) 0.08921(7)
H4 H 0.31690 0.74280 0.08070
C5 C 0.41786(7) 0.64881(16) 0.10550(7)
C6 C 0.46139(7) 0.51142(16) 0.12059(8)
C7 C 0.42667(7) 0.36580(16) 0.11802(8)
H5 H 0.45460 0.26930 0.12890
C8 C 0.35235(7) 0.35825(16) 0.10001(8)
H6 H 0.32970 0.25730 0.09760
C9 C 0.54141(7) 0.51468(16) 0.14053(8)
C10 C 0.59328(7) 0.60408(16) 0.20508(8)
H7 H 0.57750 0.66540 0.23660
C11 C 0.66769(7) 0.60418(16) 0.22374(8)
H8 H 0.70300 0.66350 0.26850
C12 C 0.69054(7) 0.51723(15) 0.17669(8)
C13 C 0.63915(7) 0.42696(16) 0.11247(8)
H9 H 0.65480 0.36710 0.08040
C14 C 0.56517(7) 0.42431(16) 0.09521(8)
H10 H 0.53040 0.36040 0.05210
C15 C 0.76862(7) 0.52180(16) 0.19011(8)
C16 C 0.89312(7) 0.58733(19) 0.27969(9)
H11 H 0.92520 0.60080 0.33750
H12 H 0.89970 0.67890 0.25120
H13 H 0.90660 0.48820 0.26190
#END
