
#######################################################################
#
#                 Cambridge Crystallographic Data Centre
#                                CCDC
#
#######################################################################
#
# If this CIF has been generated from an entry in the Cambridge
# Structural Database, then it will include bibliographic, chemical,
# crystal, experimental, refinement or atomic coordinate data resulting
# from the CCDC's data processing and validation procedures.
#
#######################################################################

data_CSD_CIF_LIZBUS
_audit_creation_date 2008-08-01
_audit_creation_method CSD-ConQuest-V1
_database_code_CSD LIZBUS
_database_code_depnum_ccdc_archive 'CCDC 658235'
_chemical_formula_sum 'C21 H13 N1 O2'
_chemical_formula_moiety
;
C21 H13 N1 O2
;
_journal_coden_Cambridge 1291
_journal_year 2008
_journal_page_first 1740
_journal_name_full 'Eur.J.Org.Chem. '
loop_
_publ_author_name
"K.K.Laali"
"T.Okazaki"
"F.Sultana"
"S.D.Bunge"
"B.K.Banik"
"C.Swartz"
_chemical_name_systematic
;
5-Nitro-7H-dibenzo(c,g)fluorene
;
_chemical_melting_point 488.15
_cell_volume    701.666
_exptl_crystal_colour 'yellow'
_exptl_crystal_density_diffrn 1.474
_exptl_special_details
;
Melting point range 488.15-490.15K

;
_exptl_crystal_description 'block'
_diffrn_ambient_temperature 100
#These two values have been output from a single CSD field.
_refine_ls_R_factor_gt 0.0439
_refine_ls_wR_factor_gt 0.0439
_symmetry_cell_setting triclinic
_symmetry_space_group_name_H-M 'P -1'
_symmetry_Int_Tables_number 2
loop_
_symmetry_equiv_pos_site_id
_symmetry_equiv_pos_as_xyz
1 x,y,z
2 -x,-y,-z
_cell_length_a 7.1666(8)
_cell_length_b 8.4255(10)
_cell_length_c 12.0347(14)
_cell_angle_alpha 78.242(2)
_cell_angle_beta 80.687(2)
_cell_angle_gamma 89.957(2)
_cell_formula_units_Z 2
loop_
_atom_type_symbol
_atom_type_radius_bond
C 0.68
H 0.23
N 0.68
O 0.68
loop_
_atom_site_label
_atom_site_type_symbol
_atom_site_fract_x
_atom_site_fract_y
_atom_site_fract_z
N1 N 0.2542(2) 0.6507(2) 0.59761(15)
O1 O 0.1858(2) 0.57916(19) 0.53301(13)
O2 O 0.3087(2) 0.79335(18) 0.57046(13)
C1 C 0.2666(3) 0.5634(2) 0.71465(17)
C2 C 0.3008(3) 0.3936(2) 0.73891(17)
C3 C 0.3522(3) 0.3012(2) 0.65329(18)
H1 H 0.34590 0.34820 0.57530
C4 C 0.4109(3) 0.1454(3) 0.68076(18)
H2 H 0.44360 0.08510 0.62210
C5 C 0.4227(3) 0.0746(2) 0.79571(18)
H3 H 0.46870 -0.03180 0.81410
C6 C 0.3686(3) 0.1577(2) 0.88084(17)
H4 H 0.37560 0.10720 0.95810
C7 C 0.3020(3) 0.3180(2) 0.85721(17)
C8 C 0.2575(3) 0.4127(2) 0.94375(17)
C9 C 0.2345(3) 0.3721(2) 1.07113(17)
C10 C 0.1910(3) 0.2222(2) 1.15369(17)
C11 C 0.1220(3) 0.0770(2) 1.12964(17)
H5 H 0.10750 0.07370 1.05310
C12 C 0.0761(3) -0.0581(2) 1.21456(17)
H6 H 0.02700 -0.15280 1.19660
C13 C 0.1006(3) -0.0587(3) 1.32799(18)
H7 H 0.07720 -0.15550 1.38520
C14 C 0.1580(3) 0.0801(3) 1.35562(18)
H8 H 0.17150 0.07960 1.43290
C15 C 0.1982(3) 0.2256(2) 1.27147(17)
C16 C 0.2311(3) 0.3746(2) 1.30370(18)
H9 H 0.24300 0.37430 1.38120
C17 C 0.2462(3) 0.5182(2) 1.22599(18)
H10 H 0.25780 0.61800 1.24990
C18 C 0.2442(3) 0.5158(2) 1.10962(17)
C19 C 0.2474(3) 0.6589(2) 1.01170(17)
H11 H 0.13300 0.72350 1.02280
H12 H 0.36120 0.72970 1.00290
C20 C 0.2514(3) 0.5805(2) 0.91064(17)
C21 C 0.2527(3) 0.6565(2) 0.79608(17)
H13 H 0.24410 0.77090 0.77510
#END
