
#######################################################################
#
#                 Cambridge Crystallographic Data Centre
#                                CCDC
#
#######################################################################
#
# If this CIF has been generated from an entry in the Cambridge
# Structural Database, then it will include bibliographic, chemical,
# crystal, experimental, refinement or atomic coordinate data resulting
# from the CCDC's data processing and validation procedures.
#
#######################################################################

data_CSD_CIF_LOFSEF
_audit_creation_date 2008-12-19
_audit_creation_method CSD-ConQuest-V1
_database_code_CSD LOFSEF
_database_code_depnum_ccdc_archive 'CCDC 643698'
_chemical_formula_sum 'C17 H23 N1 O4'
_chemical_formula_moiety
;
C17 H23 N1 O4
;
_journal_coden_Cambridge 493
_journal_volume 43
_journal_year 2008
_journal_page_first 1309
_journal_name_full 'Eur.J.Med.Chem. '
loop_
_publ_author_name
"M.Struga"
"J.Kossakowski"
"J.Stefanska"
"A.Zimniak"
"A.E.Koziol"
_chemical_name_systematic
;
1,7,8,9,10-Pentamethyl-4-(oxiranylmethoxy)-4-aza-tricyclo(5.2.1.0^2,6^)dec-8-e
ne-3,5-dione
;
_chemical_melting_point 371.15
_cell_volume   1681.460
_exptl_crystal_colour 'colorless'
_exptl_crystal_density_diffrn 1.206
_exptl_special_details
;
no antimicrobial activity

;
_exptl_crystal_description 'plate'
_exptl_crystal_preparation 'ethanol'
_diffrn_ambient_temperature 294
#These two values have been output from a single CSD field.
_refine_ls_R_factor_gt 0.0503
_refine_ls_wR_factor_gt 0.0503
_symmetry_cell_setting monoclinic
_symmetry_space_group_name_H-M 'P 21/c'
_symmetry_Int_Tables_number 14
loop_
_symmetry_equiv_pos_site_id
_symmetry_equiv_pos_as_xyz
1 x,y,z
2 -x,1/2+y,1/2-z
3 -x,-y,-z
4 x,-1/2-y,-1/2+z
_cell_length_a 11.287(2)
_cell_length_b 9.250(2)
_cell_length_c 16.671(3)
_cell_angle_alpha 90
_cell_angle_beta 104.97(3)
_cell_angle_gamma 90
_cell_formula_units_Z 4
loop_
_atom_type_symbol
_atom_type_radius_bond
C 0.68
H 0.23
N 0.68
O 0.68
loop_
_atom_site_label
_atom_site_type_symbol
_atom_site_fract_x
_atom_site_fract_y
_atom_site_fract_z
N1 N 0.42252(19) 0.2294(2) 0.08396(11)
O1 O 0.3479(2) 0.44770(19) 0.02845(12)
O2 O 0.46825(18) 0.02074(19) 0.15918(12)
O3 O 0.44168(17) 0.17327(19) 0.01143(10)
O4 O 0.6999(2) 0.2146(3) 0.14128(14)
C1 C 0.3523(2) 0.3807(2) 0.17133(14)
H1 H 0.40020 0.46160 0.20110
C2 C 0.3719(2) 0.3646(2) 0.08649(15)
C3 C 0.4348(2) 0.1448(3) 0.15387(14)
C4 C 0.3946(2) 0.2362(2) 0.21562(13)
H2 H 0.46220 0.25160 0.26520
C5 C 0.2775(3) 0.1819(3) 0.23979(14)
C6 C 0.2288(3) 0.3288(3) 0.26023(16)
H3 H 0.29340 0.38040 0.30070
C7 C 0.2156(3) 0.3920(3) 0.17368(16)
C8 C 0.1507(2) 0.2705(3) 0.11881(16)
C9 C 0.1856(2) 0.1462(3) 0.15745(16)
C10 C 0.1124(4) 0.3249(5) 0.2900(2)
H4 H 0.07780 0.42020 0.28670
H5 H 0.13160 0.29190 0.34650
H6 H 0.05440 0.26020 0.25560
C11 C 0.1631(4) 0.5434(4) 0.1568(2)
H7 H 0.16970 0.57510 0.10330
H8 H 0.20810 0.60820 0.19870
H9 H 0.07840 0.54280 0.15770
C12 C 0.0713(3) 0.2948(4) 0.03240(19)
H10 H 0.04110 0.20360 0.00800
H11 H 0.11870 0.34050 -0.00070
H12 H 0.00340 0.35570 0.03470
C13 C 0.1562(3) -0.0047(4) 0.1257(2)
H13 H 0.09110 -0.00210 0.07560
H14 H 0.13100 -0.06110 0.16670
H15 H 0.22760 -0.04760 0.11440
C14 C 0.3019(4) 0.0648(4) 0.3059(2)
H16 H 0.22660 0.03980 0.31910
H17 H 0.35970 0.09980 0.35480
H18 H 0.33480 -0.01900 0.28540
C15 C 0.5592(3) 0.2168(3) 0.00112(18)
H19 H 0.56620 0.32110 0.00640
H20 H 0.56370 0.19140 -0.05450
C16 C 0.6629(3) 0.1504(3) 0.06137(18)
H21 H 0.66780 0.04470 0.05970
C17 C 0.7779(3) 0.2257(4) 0.0875(2)
H22 H 0.85240 0.16850 0.10040
H23 H 0.78460 0.31910 0.06260
#END
