
#######################################################################
#
#                 Cambridge Crystallographic Data Centre
#                                CCDC
#
#######################################################################
#
# If this CIF has been generated from an entry in the Cambridge
# Structural Database, then it will include bibliographic, chemical,
# crystal, experimental, refinement or atomic coordinate data resulting
# from the CCDC's data processing and validation procedures.
#
#######################################################################

data_CSD_CIF_LOFSUV
_audit_creation_date 2008-12-19
_audit_creation_method CSD-ConQuest-V1
_database_code_CSD LOFSUV
_database_code_depnum_ccdc_archive 'CCDC 656424'
_chemical_formula_sum 'C15 H13 N5 O4'
_chemical_formula_moiety
;
C15 H13 N5 O4
;
_journal_coden_Cambridge 574
_journal_volume 79
_journal_year 2008
_journal_page_first 69
_journal_name_full 'Dyes Pigm. '
loop_
_publ_author_name
"Wei Huang"
_chemical_name_systematic
;
1-Ethyl-4-methyl-5-(2-(2-nitrophenyl)hydrazinylidene)-2,6-dioxopiperidine-3-ca
rbonitrile
;
_chemical_name_common
;
C.I. Disperse Yellow 119
;
_cell_volume   2912.818
_exptl_crystal_colour 'yellow'
_exptl_crystal_density_diffrn 1.493
_exptl_special_details
;
dye

;
_exptl_crystal_description 'block'
_exptl_crystal_preparation 'acetone/methanol'
_diffrn_ambient_temperature 291
#These two values have been output from a single CSD field.
_refine_ls_R_factor_gt 0.0458
_refine_ls_wR_factor_gt 0.0458
_symmetry_cell_setting orthorhombic
_symmetry_space_group_name_H-M 'P b c a'
_symmetry_Int_Tables_number 61
loop_
_symmetry_equiv_pos_site_id
_symmetry_equiv_pos_as_xyz
1 x,y,z
2 1/2-x,-y,1/2+z
3 1/2+x,1/2-y,-z
4 -x,1/2+y,1/2-z
5 -x,-y,-z
6 -1/2+x,y,-1/2-z
7 -1/2-x,-1/2+y,z
8 x,-1/2-y,-1/2+z
_cell_length_a 14.283(3)
_cell_length_b 7.5886(18)
_cell_length_c 26.874(6)
_cell_angle_alpha 90
_cell_angle_beta 90
_cell_angle_gamma 90
_cell_formula_units_Z 8
loop_
_atom_type_symbol
_atom_type_radius_bond
C 0.68
H 0.23
N 0.68
O 0.68
loop_
_atom_site_label
_atom_site_type_symbol
_atom_site_fract_x
_atom_site_fract_y
_atom_site_fract_z
C1 C 0.62553(16) 0.5329(3) 0.09599(9)
C2 C 0.54246(17) 0.4919(3) 0.12637(10)
C3 C 0.44615(18) 0.6491(3) 0.06546(10)
C4 C 0.53018(16) 0.6782(3) 0.03546(9)
C5 C 0.61708(17) 0.6265(3) 0.04943(9)
C6 C 0.37545(16) 0.5403(4) 0.14307(9)
H1 H 0.33800 0.64680 0.14150
H2 H 0.39620 0.52570 0.17720
C7 C 0.31512(18) 0.3848(4) 0.12882(10)
H3 H 0.29190 0.40080 0.09560
H4 H 0.26340 0.37580 0.15150
H5 H 0.35170 0.27880 0.13030
C8 C 0.51353(17) 0.7653(4) -0.01127(10)
C9 C 0.70234(16) 0.6611(4) 0.01897(9)
H6 H 0.72540 0.55210 0.00560
H7 H 0.74970 0.71400 0.03950
H8 H 0.68690 0.73960 -0.00780
C10 C 0.81935(16) 0.3891(3) 0.16854(9)
C11 C 0.84162(16) 0.2981(3) 0.21241(9)
C12 C 0.93294(16) 0.2910(3) 0.22972(9)
H9 H 0.94640 0.23060 0.25900
C13 C 1.00353(17) 0.3726(4) 0.20395(10)
H10 H 1.06460 0.37090 0.21600
C14 C 0.98254(17) 0.4580(3) 0.15957(10)
H11 H 1.03030 0.51100 0.14140
C15 C 0.89192(16) 0.4654(3) 0.14207(9)
H12 H 0.87940 0.52220 0.11210
N1 N 0.45817(13) 0.5617(3) 0.11073(7)
N2 N 0.49918(15) 0.8294(3) -0.04886(9)
N3 N 0.71189(13) 0.4932(3) 0.10967(7)
N4 N 0.72646(13) 0.4087(3) 0.15204(7)
H13 H 0.68050 0.36690 0.16900
N5 N 0.77129(15) 0.2049(3) 0.24162(8)
O1 O 0.54734(11) 0.4060(2) 0.16509(6)
O2 O 0.36878(12) 0.6996(3) 0.05252(6)
O3 O 0.68735(11) 0.2267(2) 0.23197(6)
O4 O 0.79732(12) 0.1059(3) 0.27517(7)
#END
