
#######################################################################
#
#                 Cambridge Crystallographic Data Centre
#                                CCDC
#
#######################################################################
#
# If this CIF has been generated from an entry in the Cambridge
# Structural Database, then it will include bibliographic, chemical,
# crystal, experimental, refinement or atomic coordinate data resulting
# from the CCDC's data processing and validation procedures.
#
#######################################################################

data_CSD_CIF_LOHQAC
_audit_creation_date 2014-07-24
_audit_creation_method CSD-ConQuest-V1
_database_code_CSD LOHQAC
_database_code_depnum_ccdc_archive 'CCDC 989499'
_chemical_formula_sum 'C18 H19 N1 O3'
_chemical_formula_moiety
;
C18 H19 N1 O3
;
_journal_coden_Cambridge 1500
_journal_volume 4
_journal_year 2014
_journal_page_first 32263
_journal_name_full 'RSC Advances '
loop_
_publ_author_name
"Yan-Ting Wang"
"Ya-Juan Qin"
"Ya-Liang Zhang"
"Yu-Jing Li"
"Bing Rao"
"Yan-Qing Zhang"
"Meng-Ru Yang"
"Ai-Qin Jiang"
"Jin-Liang Qi"
"Hai-Liang Zhu"
_chemical_name_systematic
;
1-(4-Ethoxyphenyl)-N-hydroxy-3-(2-methoxyphenyl)prop-2-en-1-imine
;
_cell_volume    782.207
_exptl_crystal_density_diffrn 1.262
_diffrn_ambient_temperature 293
#These two values have been output from a single CSD field.
_refine_ls_R_factor_gt 0.1588
_refine_ls_wR_factor_gt 0.1588
_symmetry_cell_setting triclinic
_symmetry_space_group_name_H-M 'P -1'
_symmetry_Int_Tables_number 2
loop_
_symmetry_equiv_pos_site_id
_symmetry_equiv_pos_as_xyz
1 x,y,z
2 -x,-y,-z
_cell_length_a 5.8593(8)
_cell_length_b 9.5104(12)
_cell_length_c 14.924(2)
_cell_angle_alpha 71.852(4)
_cell_angle_beta 81.981(4)
_cell_angle_gamma 89.066(4)
_cell_formula_units_Z 2
loop_
_atom_type_symbol
_atom_type_radius_bond
C 0.68
H 0.23
N 0.68
O 0.68
loop_
_atom_site_label
_atom_site_type_symbol
_atom_site_fract_x
_atom_site_fract_y
_atom_site_fract_z
O1 O -0.1896(5) 0.4253(3) 0.4288(2)
C1 C -0.1923(6) 0.8248(4) 0.2139(3)
N1 N -0.3390(6) 0.9808(4) 0.0732(2)
C2 C -0.2020(7) 0.9678(5) 0.1350(3)
O2 O 0.4128(6) 1.1010(4) 0.3000(3)
C3 C -0.3758(7) 0.6385(4) 0.3554(3)
H1 H -0.50270 0.60530 0.40220
C4 C -0.3822(7) 0.7727(4) 0.2834(3)
H2 H -0.51470 0.82810 0.28180
C5 C -0.1799(7) 0.5548(4) 0.3571(3)
C6 C 0.0859(7) 1.1073(4) 0.1840(3)
H3 H 0.10260 1.02390 0.23520
C7 C 0.2237(7) 1.2411(4) 0.1740(3)
C8 C 0.0014(7) 0.7412(5) 0.2174(3)
H4 H 0.12940 0.77510 0.17140
C9 C 0.3917(7) 1.2346(5) 0.2328(3)
C10 C -0.0588(8) 1.0961(5) 0.1264(3)
H5 H -0.07080 1.17950 0.07450
C11 C 0.1932(9) 1.3758(5) 0.1064(4)
H6 H 0.08000 1.38400 0.06720
C12 C 0.0093(7) 0.6076(5) 0.2881(3)
H7 H 0.14240 0.55280 0.28950
O3 O -0.4614(9) 0.8493(5) 0.0807(3)
H8 H -0.54330 0.86620 0.03850
C13 C 0.0100(8) 0.3363(5) 0.4363(3)
H9 H 0.13980 0.39160 0.44380
H10 H 0.04980 0.30810 0.37910
C14 C 0.5289(9) 1.3585(5) 0.2231(4)
H11 H 0.64020 1.35280 0.26280
C15 C 0.4967(10) 1.4904(5) 0.1534(4)
H12 H 0.58920 1.57300 0.14570
C16 C 0.3336(10) 1.5005(5) 0.0969(4)
H13 H 0.31300 1.59010 0.05110
C17 C -0.0433(10) 0.2012(5) 0.5210(4)
H14 H -0.07800 0.23000 0.57750
H15 H 0.08760 0.13860 0.52640
H16 H -0.17380 0.14830 0.51350
C18 C 0.5673(9) 1.0899(7) 0.3656(4)
H17 H 0.72260 1.10140 0.33310
H18 H 0.54710 0.99470 0.41350
H19 H 0.53790 1.16610 0.39510
#END
