
#######################################################################
#
#                 Cambridge Crystallographic Data Centre
#                                CCDC
#
#######################################################################
#
# If this CIF has been generated from an entry in the Cambridge
# Structural Database, then it will include bibliographic, chemical,
# crystal, experimental, refinement or atomic coordinate data resulting
# from the CCDC's data processing and validation procedures.
#
#######################################################################

data_CSD_CIF_LOJFUN
_audit_creation_date 2014-07-24
_audit_creation_method CSD-ConQuest-V1
_database_code_CSD LOJFUN
_database_code_depnum_ccdc_archive 'CCDC 836574'
_chemical_formula_sum 'C27 H22 N2 O5'
_chemical_formula_moiety
;
C27 H22 N2 O5
;
_journal_coden_Cambridge 261
_journal_volume 17
_journal_year 2014
_journal_page_first 156
_journal_name_full 'Comptes Rendus Chimie '
loop_
_publ_author_name
"K.Alimohammadi"
"Y.Sarrafi"
"B.Rajabpour"
_chemical_name_systematic
;
2'-(4-methoxyphenyl)-1'-nitro-1',5',6',10b'-tetrahydro-2'H-spiro[indene-2,3'-p
yrrolo[2,1-a]isoquinoline]-1,3-dione
;
_cell_volume   1154.532
_exptl_crystal_colour 'yellow'
_exptl_crystal_density_diffrn 1.307
_exptl_crystal_description 'Block'
_diffrn_ambient_temperature 298
#These two values have been output from a single CSD field.
_refine_ls_R_factor_gt 0.0704
_refine_ls_wR_factor_gt 0.0704
_symmetry_cell_setting triclinic
_symmetry_space_group_name_H-M 'P -1'
_symmetry_Int_Tables_number 2
loop_
_symmetry_equiv_pos_site_id
_symmetry_equiv_pos_as_xyz
1 x,y,z
2 -x,-y,-z
_cell_length_a 9.4522(7)
_cell_length_b 11.2223(10)
_cell_length_c 11.8315(10)
_cell_angle_alpha 108.037(7)
_cell_angle_beta 92.376(7)
_cell_angle_gamma 102.972(7)
_cell_formula_units_Z 2
loop_
_atom_type_symbol
_atom_type_radius_bond
C 0.68
H 0.23
N 0.68
O 0.68
loop_
_atom_site_label
_atom_site_type_symbol
_atom_site_fract_x
_atom_site_fract_y
_atom_site_fract_z
C1 C 0.2921(3) -0.0728(3) 0.1145(2)
H1 H 0.26950 -0.15630 0.11840
C2 C 0.3057(2) 0.3739(2) 0.7216(2)
O1 O 0.6882(2) 0.34364(18) 0.77985(16)
C3 C 0.3797(2) 0.2556(2) 0.33326(18)
C4 C 0.0694(3) 0.2136(3) 0.6119(3)
H2 H -0.02740 0.22810 0.60400
H3 H 0.05840 0.12960 0.62200
N1 N 0.29131(17) 0.21431(16) 0.52239(15)
C5 C 0.3597(3) 0.1802(3) 0.1017(2)
H4 H 0.38170 0.26340 0.09700
C6 C 0.7262(2) 0.3425(2) 0.4137(2)
H5 H 0.69050 0.41400 0.45040
C7 C 0.3755(2) 0.33688(19) 0.60774(17)
H6 H 0.37540 0.40380 0.57070
C8 C 0.53150(19) 0.20656(18) 0.49504(16)
H7 H 0.53030 0.12970 0.51810
O2 O 0.4884(2) 0.19343(18) 0.73982(15)
C9 C 0.8430(3) 0.3567(3) 0.3477(3)
H8 H 0.88550 0.43700 0.34090
C10 C 0.3841(3) 0.4721(3) 0.8228(2)
H9 H 0.48120 0.51150 0.82060
C11 C 0.1780(4) 0.4551(4) 0.9283(3)
H10 H 0.13470 0.48100 0.99810
C12 C 0.5314(2) 0.31797(18) 0.61194(17)
H11 H 0.60150 0.39720 0.61270
C13 C 0.8952(2) 0.2511(3) 0.2924(2)
C14 C 0.3544(3) 0.1597(2) 0.21145(19)
C15 C 0.3779(2) 0.18187(18) 0.42425(17)
C16 C 0.3312(4) 0.0731(3) 0.0002(3)
H12 H 0.33440 0.08430 -0.07440
O3 O 1.0114(2) 0.2542(2) 0.22631(19)
C17 C 0.2981(4) -0.0509(3) 0.0067(2)
H13 H 0.27940 -0.12110 -0.06360
C18 C 0.3204(4) 0.5121(3) 0.9259(2)
H14 H 0.37420 0.57720 0.99310
O4 O 0.39478(18) 0.37122(15) 0.35764(14)
O5 O 0.28933(18) -0.05144(15) 0.37983(14)
N2 N 0.5719(2) 0.28099(18) 0.71853(15)
C19 C 0.8318(2) 0.1323(3) 0.30344(19)
H15 H 0.86700 0.06080 0.26570
C20 C 0.3234(2) 0.0392(2) 0.34342(18)
C21 C 0.1592(3) 0.3172(3) 0.7222(2)
C22 C 1.0760(4) 0.3731(5) 0.2096(5)
H16 H 1.11280 0.43810 0.28600
H17 H 1.00410 0.39910 0.16940
H18 H 1.15510 0.36290 0.16200
C23 C 0.0969(3) 0.3596(4) 0.8286(3)
H19 H -0.00070 0.32260 0.83180
C24 C 0.3211(2) 0.0349(2) 0.21788(19)
C25 C 0.6614(2) 0.22470(19) 0.42634(17)
C26 C 0.1387(2) 0.2128(3) 0.4982(2)
H20 H 0.08980 0.13570 0.43240
H21 H 0.13130 0.28820 0.47700
C27 C 0.7164(2) 0.1194(2) 0.37013(17)
H22 H 0.67510 0.03920 0.37750
#END
