
#######################################################################
#
#                 Cambridge Crystallographic Data Centre
#                                CCDC
#
#######################################################################
#
# If this CIF has been generated from an entry in the Cambridge
# Structural Database, then it will include bibliographic, chemical,
# crystal, experimental, refinement or atomic coordinate data resulting
# from the CCDC's data processing and validation procedures.
#
#######################################################################

data_CSD_CIF_LOJGUN
_audit_creation_date 2008-12-19
_audit_creation_method CSD-ConQuest-V1
_database_code_CSD LOJGUN
_database_code_depnum_ccdc_archive 'CCDC 712545'
_chemical_formula_sum 'C17 H18 N2 O2'
_chemical_formula_moiety
;
C17 H18 N2 O2
;
_journal_coeditor_code "IUCr HK2580"
_journal_coden_Cambridge 1370
_journal_volume 64
_journal_year 2008
_journal_page_first o2452
_journal_name_full 'Acta Crystallogr.,Sect.E:Struct.Rep.Online '
loop_
_publ_author_name
"Yong Zhang"
"Hong-Jun Zang"
"Bo-Wen Cheng"
"Jun Song"
_chemical_name_systematic
;
bis(acetophenone oxime) O,O'-methylene ether
;
_cell_volume   1481.093
_exptl_crystal_colour 'colorless'
_exptl_crystal_density_diffrn 1.266
_exptl_crystal_description 'prism'
_exptl_crystal_preparation 'water'
_diffrn_ambient_temperature 113
#These two values have been output from a single CSD field.
_refine_ls_R_factor_gt 0.0452
_refine_ls_wR_factor_gt 0.0452
_symmetry_cell_setting monoclinic
_symmetry_space_group_name_H-M 'P 21/n'
_symmetry_Int_Tables_number 14
loop_
_symmetry_equiv_pos_site_id
_symmetry_equiv_pos_as_xyz
1 x,y,z
2 1/2-x,1/2+y,1/2-z
3 -x,-y,-z
4 -1/2+x,-1/2-y,-1/2+z
_cell_length_a 9.875(2)
_cell_length_b 8.8409(18)
_cell_length_c 17.290(4)
_cell_angle_alpha 90
_cell_angle_beta 101.13(3)
_cell_angle_gamma 90
_cell_formula_units_Z 4
loop_
_atom_type_symbol
_atom_type_radius_bond
C 0.68
H 0.23
N 0.68
O 0.68
loop_
_atom_site_label
_atom_site_type_symbol
_atom_site_fract_x
_atom_site_fract_y
_atom_site_fract_z
O1 O 0.36208(10) 0.65077(13) 0.02442(6)
O2 O 0.14145(11) 0.61984(13) 0.05282(6)
N1 N 0.39081(13) 0.79925(17) 0.05526(7)
N2 N 0.15155(13) 0.46386(16) 0.07470(8)
C1 C 0.55638(16) 0.9740(2) 0.11238(8)
C2 C 0.45724(17) 1.0888(2) 0.10304(9)
H1 H 0.36750 1.06760 0.07740
C3 C 0.48996(17) 1.2324(2) 0.13110(9)
H2 H 0.42230 1.30700 0.12460
C4 C 0.62333(18) 1.2665(2) 0.16904(9)
H3 H 0.64570 1.36360 0.18790
C5 C 0.72255(18) 1.1545(2) 0.17853(10)
H4 H 0.81210 1.17650 0.20410
C6 C 0.69013(17) 1.0102(2) 0.15045(9)
H5 H 0.75830 0.93620 0.15700
C7 C 0.52021(16) 0.8199(2) 0.08160(9)
C8 C 0.62975(17) 0.7028(2) 0.08213(10)
H6 H 0.58910 0.61280 0.05650
H7 H 0.67210 0.67970 0.13560
H8 H 0.69830 0.74080 0.05460
C9 C 0.21947(16) 0.6427(2) -0.00642(9)
H9 H 0.20200 0.56030 -0.04410
H10 H 0.18990 0.73580 -0.03430
C10 C 0.09103(15) 0.4381(2) 0.13271(9)
C11 C 0.02188(17) 0.5564(2) 0.1739(1)
H11 H 0.08830 0.60060 0.21570
H12 H -0.05090 0.51070 0.19540
H13 H -0.01590 0.63370 0.13690
C12 C 0.09387(15) 0.2791(2) 0.15882(9)
C13 C 0.09137(16) 0.1598(2) 0.10568(9)
H14 H 0.08760 0.18040 0.05260
C14 C 0.09444(16) 0.0116(2) 0.13108(10)
H15 H 0.09310 -0.06700 0.09520
C15 C 0.09958(16) -0.0200(2) 0.20996(10)
H16 H 0.10100 -0.11990 0.22690
C16 C 0.10255(16) 0.0964(2) 0.26369(10)
H17 H 0.10650 0.07510 0.31670
C17 C 0.09954(15) 0.2444(2) 0.23818(9)
H18 H 0.10130 0.32240 0.27440
#END
