
#######################################################################
#
#                 Cambridge Crystallographic Data Centre
#                                CCDC
#
#######################################################################
#
# If this CIF has been generated from an entry in the Cambridge
# Structural Database, then it will include bibliographic, chemical,
# crystal, experimental, refinement or atomic coordinate data resulting
# from the CCDC's data processing and validation procedures.
#
#######################################################################

data_CSD_CIF_LOJNOO
_audit_creation_date 2008-12-19
_audit_creation_method CSD-ConQuest-V1
_database_code_CSD LOJNOO
_database_code_depnum_ccdc_archive 'CCDC 682219'
_chemical_formula_sum 'C19 H18 N2 O4'
_chemical_formula_moiety
;
C19 H18 N2 O4
;
_journal_coden_Cambridge 16
_journal_volume 64
_journal_year 2008
_journal_page_first 8974
_journal_name_full 'Tetrahedron '
loop_
_publ_author_name
"R.Grigg"
"C.Kilner"
"M.A.B.Sarker"
"C.O.de la Cierva"
"H.A.Dondas"
_chemical_name_systematic
;
3-Nitro-2,4-diphenyl-7-oxa-1-azaspiro(4.4)nonan-6-one
;
_chemical_melting_point 447.15
_cell_volume   1642.495
_exptl_crystal_colour 'colorless'
_exptl_crystal_density_diffrn 1.368
_exptl_special_details
;
Melting point range 447.15-449.15K

;
_exptl_crystal_description 'prism'
_exptl_crystal_preparation 'dichloromethane/hexane'
_diffrn_ambient_temperature 180
#These two values have been output from a single CSD field.
_refine_ls_R_factor_gt 0.0421
_refine_ls_wR_factor_gt 0.0421
loop_
_citation_database_id_CSD
_citation_special_details
LOGHEV "is a stereoisomer of this entry"
_symmetry_cell_setting monoclinic
_symmetry_space_group_name_H-M 'P 21/c'
_symmetry_Int_Tables_number 14
loop_
_symmetry_equiv_pos_site_id
_symmetry_equiv_pos_as_xyz
1 x,y,z
2 -x,1/2+y,1/2-z
3 -x,-y,-z
4 x,-1/2-y,-1/2+z
_cell_length_a 8.2929(5)
_cell_length_b 11.3288(5)
_cell_length_c 17.6885(9)
_cell_angle_alpha 90
_cell_angle_beta 98.744(4)
_cell_angle_gamma 90
_cell_formula_units_Z 4
loop_
_atom_type_symbol
_atom_type_radius_bond
C 0.68
H 0.23
N 0.68
O 0.68
loop_
_atom_site_label
_atom_site_type_symbol
_atom_site_fract_x
_atom_site_fract_y
_atom_site_fract_z
C1 C 0.3806(2) 0.45928(17) 0.24062(11)
O1 O 0.41779(17) 0.55217(11) 0.27194(8)
O2 O 0.31946(18) 0.45294(13) 0.16597(8)
C2 C 0.2886(3) 0.3293(2) 0.14432(12)
H1 H 0.37800 0.29730 0.11910
H2 H 0.18450 0.32110 0.10910
C3 C 0.2805(2) 0.26558(18) 0.21913(11)
H3 H 0.31670 0.18260 0.21680
H4 H 0.16860 0.26720 0.23220
C4 C 0.3975(2) 0.33641(16) 0.27620(11)
N1 N 0.56812(18) 0.30179(14) 0.27701(9)
H5 H 0.60930 0.33870 0.23770
C5 C 0.6638(2) 0.33556(16) 0.35075(10)
H6 H 0.71920 0.26330 0.37460
C6 C 0.7944(2) 0.42877(17) 0.34399(11)
C7 C 0.8636(2) 0.43824(18) 0.27737(11)
H7 H 0.82370 0.39060 0.23440
C8 C 0.9906(2) 0.5166(2) 0.27308(13)
H8 H 1.03660 0.52210 0.22720
C9 C 1.0508(2) 0.5869(2) 0.33498(13)
H9 H 1.13890 0.63950 0.33210
C10 C 0.9814(2) 0.57963(19) 0.40108(12)
H10 H 1.02040 0.62860 0.44350
C11 C 0.8547(2) 0.50090(18) 0.40561(11)
H11 H 0.80840 0.49620 0.45150
C12 C 0.5377(2) 0.37657(16) 0.40077(10)
H12 H 0.54020 0.46480 0.40260
N2 N 0.5702(2) 0.33159(15) 0.48207(10)
O3 O 0.4695(2) 0.36022(14) 0.52299(9)
O4 O 0.6909(2) 0.27187(15) 0.50351(9)
C13 C 0.3672(2) 0.33850(16) 0.36060(11)
H13 H 0.28700 0.40230 0.36680
C14 C 0.3035(2) 0.22248(17) 0.38683(10)
C15 C 0.1449(2) 0.2184(2) 0.40307(12)
H14 H 0.08030 0.28810 0.39890
C16 C 0.0801(3) 0.1131(2) 0.42539(13)
H15 H -0.02900 0.11100 0.43580
C17 C 0.1728(3) 0.0120(2) 0.43255(13)
H16 H 0.12820 -0.05980 0.44790
C18 C 0.3314(3) 0.01524(19) 0.41730(12)
H17 H 0.39610 -0.05430 0.42250
C19 C 0.3961(2) 0.11975(17) 0.39445(11)
H18 H 0.50500 0.12120 0.38390
#END
