
#######################################################################
#
#                 Cambridge Crystallographic Data Centre
#                                CCDC
#
#######################################################################
#
# If this CIF has been generated from an entry in the Cambridge
# Structural Database, then it will include bibliographic, chemical,
# crystal, experimental, refinement or atomic coordinate data resulting
# from the CCDC's data processing and validation procedures.
#
#######################################################################

data_CSD_CIF_LOKGUP
_audit_creation_date 2014-07-25
_audit_creation_method CSD-ConQuest-V1
_database_code_CSD LOKGUP
_database_code_depnum_ccdc_archive 'CCDC 724517'
_chemical_formula_sum 'C12 H13 N1 O4'
_chemical_formula_moiety
;
C12 H13 N1 O4
;
_journal_coden_Cambridge 1086
_journal_volume 24
_journal_year 2012
_journal_page_first 1005
_journal_name_full 'Chirality '
loop_
_publ_author_name
"F.Felluga"
"C.Forzato"
"P.Nitti"
"G.Pitacco"
"F.Prati"
"n.Valentin"
"Ennio Zangrando"
_chemical_name_systematic
;
(2R,3R,4R)-(+)-2-Hydroxy-2-methyl-3-nitro-4-phenylcyclopentanone
;
_cell_volume   1164.028
_exptl_crystal_colour 'colorless'
_exptl_crystal_density_diffrn 1.342
_exptl_crystal_description 'block'
_diffrn_ambient_temperature 293
#These two values have been output from a single CSD field.
_refine_ls_R_factor_gt 0.0304
_refine_ls_wR_factor_gt 0.0304
loop_
_citation_database_id_CSD
_citation_special_details
LOKJIG "is a stereoisomer of this entry"
_symmetry_cell_setting orthorhombic
_symmetry_space_group_name_H-M 'P 21 21 21'
_symmetry_Int_Tables_number 19
loop_
_symmetry_equiv_pos_site_id
_symmetry_equiv_pos_as_xyz
1 x,y,z
2 1/2-x,-y,1/2+z
3 1/2+x,1/2-y,-z
4 -x,1/2+y,1/2-z
_cell_length_a 5.558(2)
_cell_length_b 13.267(4)
_cell_length_c 15.786(4)
_cell_angle_alpha 90
_cell_angle_beta 90
_cell_angle_gamma 90
_cell_formula_units_Z 4
loop_
_atom_type_symbol
_atom_type_radius_bond
C 0.68
H 0.23
N 0.68
O 0.68
loop_
_atom_site_label
_atom_site_type_symbol
_atom_site_fract_x
_atom_site_fract_y
_atom_site_fract_z
N1 N 0.5818(4) 0.1559(2) 0.26448(14)
O1 O 0.3863(3) 0.19602(16) 0.27426(12)
O2 O 0.6161(4) 0.06633(19) 0.27291(14)
O3 O 0.6007(3) 0.23037(17) 0.10586(11)
H1 H 0.60330 0.21110 0.05650
O4 O 1.0701(4) 0.33504(15) 0.06307(12)
C1 C 0.7913(4) 0.2202(2) 0.23925(16)
H2 H 0.93570 0.19460 0.26760
C2 C 0.8313(4) 0.2153(2) 0.14317(16)
C3 C 0.9720(5) 0.3140(2) 0.12851(18)
C4 C 0.9574(5) 0.3790(2) 0.20594(15)
H3 H 0.91400 0.44750 0.19090
H4 H 1.11050 0.38010 0.23540
C5 C 0.7623(4) 0.3310(2) 0.26139(16)
H5 H 0.60560 0.35330 0.23990
C6 C 0.9595(4) 0.1241(2) 0.10979(16)
H6 H 0.86480 0.06510 0.12090
H7 H 1.11290 0.11790 0.13730
H8 H 0.98310 0.13110 0.04980
C7 C 0.7735(4) 0.35621(18) 0.35391(16)
C8 C 0.5942(4) 0.41342(19) 0.39137(18)
H9 H 0.46340 0.43430 0.35910
C9 C 0.6067(5) 0.4397(2) 0.47527(19)
H10 H 0.48570 0.47910 0.49900
C10 C 0.7970(6) 0.4084(2) 0.52493(19)
H11 H 0.80510 0.42590 0.58190
C11 C 0.9730(5) 0.3511(2) 0.48851(18)
H12 H 1.10140 0.32890 0.52140
C12 C 0.9644(4) 0.3255(2) 0.40425(17)
H13 H 1.08760 0.28720 0.38070
#END
