
#######################################################################
#
#                 Cambridge Crystallographic Data Centre
#                                CCDC
#
#######################################################################
#
# If this CIF has been generated from an entry in the Cambridge
# Structural Database, then it will include bibliographic, chemical,
# crystal, experimental, refinement or atomic coordinate data resulting
# from the CCDC's data processing and validation procedures.
#
#######################################################################

data_CSD_CIF_LOLBUL
_audit_creation_date 2014-07-28
_audit_creation_method CSD-ConQuest-V1
_database_code_CSD LOLBUL
_database_code_depnum_ccdc_archive 'CCDC 940361'
_chemical_formula_sum 'C14 H15 N3 O5'
_chemical_formula_moiety
;
C14 H15 N3 O5
;
_journal_coden_Cambridge 1303
_journal_volume 392
_journal_year 2014
_journal_page_first 260
_journal_name_full 'J.Mol.Catal.A:Chem. '
loop_
_publ_author_name
"G.Kour"
"M.Gupta"
"S.Paul"
"Rajnikant"
"V.K.Gupta"
_chemical_name_systematic
;
5-(Ethoxycarbonyl)-4-(3-nitrophenyl)-6-methyl -3,4-dihydropyrimidin-2(1H)-one
;
_cell_volume   1410.467
_exptl_crystal_colour 'white'
_exptl_crystal_density_diffrn 1.438
_exptl_crystal_description 'block'
_diffrn_ambient_temperature 293
_refine_special_details
;
C19A,C20A and C19B,C20B disordered over two sites with occupancies 
0.609:0.391.
;
#These two values have been output from a single CSD field.
_refine_ls_R_factor_gt 0.0535
_refine_ls_wR_factor_gt 0.0535
_symmetry_cell_setting monoclinic
_symmetry_space_group_name_H-M 'P 21/n'
_symmetry_Int_Tables_number 14
loop_
_symmetry_equiv_pos_site_id
_symmetry_equiv_pos_as_xyz
1 x,y,z
2 1/2-x,1/2+y,1/2-z
3 -x,-y,-z
4 -1/2+x,-1/2-y,-1/2+z
_cell_length_a 8.6831(3)
_cell_length_b 11.8302(3)
_cell_length_c 13.7550(4)
_cell_angle_alpha 90
_cell_angle_beta 93.399(3)
_cell_angle_gamma 90
_cell_formula_units_Z 4
loop_
_atom_type_symbol
_atom_type_radius_bond
C 0.68
H 0.23
N 0.68
O 0.68
loop_
_atom_site_label
_atom_site_type_symbol
_atom_site_fract_x
_atom_site_fract_y
_atom_site_fract_z
N1 N 0.0473(2) 0.51601(17) 0.87531(14)
C1 C 0.1586(3) 0.44075(19) 0.90780(16)
O1 O 0.1635(2) 0.40628(16) 0.99235(12)
N2 N 0.2615(2) 0.41112(18) 0.84378(14)
C2 C 0.2438(3) 0.43190(19) 0.73929(15)
H1 H 0.34650 0.44530 0.71560
C3 C 0.1483(3) 0.53775(19) 0.72085(15)
C4 C 0.0502(3) 0.57233(19) 0.78748(16)
C5 C 0.1736(3) 0.32972(18) 0.68492(16)
C6 C 0.2245(3) 0.29994(19) 0.59514(16)
H2 H 0.30410 0.33980 0.56850
C7 C 0.1547(3) 0.20946(19) 0.54528(16)
C8 C 0.0402(3) 0.1471(2) 0.58251(18)
H3 H -0.00490 0.08720 0.54750
C9 C -0.0069(3) 0.1748(2) 0.6728(2)
H4 H -0.08310 0.13210 0.70030
C10 C 0.0577(3) 0.2655(2) 0.72344(18)
H5 H 0.02330 0.28400 0.78420
N3 N 0.2082(3) 0.18176(19) 0.44876(16)
O2 O 0.3178(3) 0.2334(2) 0.41977(14)
O3 O 0.1368(3) 0.10915(17) 0.40056(14)
C11 C -0.0607(3) 0.6693(2) 0.77975(19)
H6 H -0.00450 0.73900 0.77720
H7 H -0.12230 0.66970 0.83550
H8 H -0.12660 0.66130 0.72160
C12 C 0.1608(3) 0.6012(2) 0.63045(18)
O4 O 0.0872(2) 0.68411(16) 0.60581(13)
O5 O 0.2698(3) 0.55830(16) 0.57570(13)
C13 C 0.275(2) 0.6166(15) 0.4811(8)
H9 H 0.17600 0.65270 0.46540
H10 H 0.35310 0.67510 0.48590
C14 C 0.3090(14) 0.5377(7) 0.4028(5)
H11 H 0.30260 0.57680 0.34150
H12 H 0.23560 0.47690 0.40080
H13 H 0.41110 0.50770 0.41480
H14 H -0.021(3) 0.537(2) 0.9220(17)
H15 H 0.328(3) 0.361(2) 0.864(2)
C15? C 0.322(4) 0.611(3) 0.4887(13)
H16? H 0.43020 0.59670 0.48130
H17? H 0.30370 0.69190 0.48910
C16? C 0.226(2) 0.5557(13) 0.4121(9)
H18? H 0.24640 0.58820 0.35020
H19? H 0.11900 0.56620 0.42410
H20? H 0.24920 0.47640 0.41150
#END
