
#######################################################################
#
#                 Cambridge Crystallographic Data Centre
#                                CCDC
#
#######################################################################
#
# If this CIF has been generated from an entry in the Cambridge
# Structural Database, then it will include bibliographic, chemical,
# crystal, experimental, refinement or atomic coordinate data resulting
# from the CCDC's data processing and validation procedures.
#
#######################################################################

data_CSD_CIF_LOLCAR
_audit_creation_date 2009-06-04
_audit_creation_method CSD-ConQuest-V1
_database_code_CSD LOLCAR
_database_code_depnum_ccdc_archive 'CCDC 694400 (not 694340 as published)'
_chemical_formula_sum 'C29 H17 N1 O1'
_chemical_formula_moiety
;
C29 H17 N1 O1
;
_journal_coden_Cambridge 179
_journal_volume 47
_journal_year 2008
_journal_page_first 9708
_journal_name_full 'Angew.Chem.,Int.Ed. '
loop_
_publ_author_name
"N.Takenaka"
"R.S.Sarangthem"
"B.Captain"
_chemical_name_systematic
;
(+)-(P)-11,12-Benzo-1-aza[6]helicene N-oxide
;
_chemical_name_common
;
(+)-(P)-Benzo[5,6]chryseno[3,4-h]quinoline 9-oxide
;
_cell_volume   3868.151
_exptl_crystal_colour 'bright yellow'
_exptl_crystal_density_diffrn 1.358
_exptl_crystal_description 'plate'
_exptl_crystal_preparation 'isopropanol'
_diffrn_ambient_temperature 296
#These two values have been output from a single CSD field.
_refine_ls_R_factor_gt 0.0446
_refine_ls_wR_factor_gt 0.0446
_symmetry_cell_setting orthorhombic
_symmetry_space_group_name_H-M 'P b c a'
_symmetry_Int_Tables_number 61
loop_
_symmetry_equiv_pos_site_id
_symmetry_equiv_pos_as_xyz
1 x,y,z
2 1/2-x,-y,1/2+z
3 -x,1/2+y,1/2-z
4 1/2+x,1/2-y,-z
5 -x,-y,-z
6 -1/2+x,y,-1/2-z
7 x,-1/2-y,-1/2+z
8 -1/2-x,-1/2+y,z
_cell_length_a 10.3786(4)
_cell_length_b 19.1827(7)
_cell_length_c 19.4292(7)
_cell_angle_alpha 90
_cell_angle_beta 90
_cell_angle_gamma 90
_cell_formula_units_Z 8
loop_
_atom_type_symbol
_atom_type_radius_bond
C 0.68
H 0.23
N 0.68
O 0.68
loop_
_atom_site_label
_atom_site_type_symbol
_atom_site_fract_x
_atom_site_fract_y
_atom_site_fract_z
O1 O -0.04290(12) 0.12338(7) 0.39619(6)
N1 N 0.01932(14) 0.10563(7) 0.45143(8)
C1 C -0.0420(2) 0.10868(10) 0.51233(11)
C2 C 0.0081(3) 0.07769(11) 0.57044(12)
C3 C 0.1213(2) 0.04175(11) 0.56540(12)
C4 C 0.3052(2) 0.00172(11) 0.49591(15)
C5 C 0.3647(2) -0.00157(11) 0.43505(14)
C6 C 0.3955(2) 0.03530(12) 0.31570(14)
C7 C 0.3604(2) 0.07283(12) 0.26034(14)
C8 C 0.2236(2) 0.16107(12) 0.20664(11)
C9 C 0.1288(2) 0.20895(11) 0.2103(1)
C10 C -0.02019(17) 0.28436(9) 0.27816(9)
C11 C -0.05629(17) 0.31228(9) 0.34240(9)
C12 C 0.0024(2) 0.32850(9) 0.46642(9)
C13 C 0.0810(2) 0.31613(10) 0.52174(10)
C14 C 0.1818(2) 0.26919(10) 0.51535(10)
C15 C 0.19727(19) 0.23259(9) 0.45499(10)
C16 C 0.19072(19) 0.04290(9) 0.50427(11)
C17 C 0.14593(17) 0.08117(8) 0.44697(9)
C18 C 0.32696(18) 0.04093(10) 0.37858(11)
C19 C 0.22234(17) 0.08836(9) 0.38512(10)
C20 C 0.26202(19) 0.12388(10) 0.26591(10)
C21 C 0.20322(17) 0.13836(9) 0.33013(9)
C22 C 0.07924(17) 0.23090(9) 0.27447(9)
C23 C 0.12870(16) 0.20183(9) 0.33517(9)
C24 C 0.01759(16) 0.29352(8) 0.40371(9)
C25 C 0.11257(15) 0.24089(8) 0.39906(8)
C26 C -0.0878(2) 0.30648(12) 0.21935(11)
C27 C -0.1862(2) 0.35370(13) 0.22354(13)
C28 C -0.2219(2) 0.38045(13) 0.28633(13)
C29 C -0.1586(2) 0.35991(11) 0.34488(12)
H1 H -0.1213(19) 0.1304(10) 0.5108(9)
H2 H -0.0432(19) 0.0786(10) 0.611(1)
H3 H 0.151(2) 0.0157(12) 0.6032(11)
H4 H 0.332(2) -0.0240(12) 0.5353(12)
H5 H 0.442(2) -0.0315(12) 0.4260(11)
H6 H 0.468(2) 0.0039(12) 0.3135(10)
H7 H 0.405(2) 0.0675(12) 0.2139(12)
H8 H 0.268(2) 0.1495(10) 0.1623(10)
H9 H 0.099(2) 0.2314(11) 0.1688(11)
H10 H -0.0619(17) 0.3634(9) 0.4699(8)
H11 H 0.0694(18) 0.3419(10) 0.5639(10)
H12 H 0.2405(18) 0.2626(9) 0.5516(9)
H13 H 0.2709(19) 0.2016(9) 0.4497(9)
H14 H -0.064(2) 0.2868(10) 0.1757(11)
H15 H -0.233(2) 0.367(1) 0.1827(10)
H16 H -0.295(2) 0.4112(12) 0.2911(11)
H17 H -0.1852(19) 0.3777(10) 0.3904(10)
#END
