
#######################################################################
#
#                 Cambridge Crystallographic Data Centre
#                                CCDC
#
#######################################################################
#
# If this CIF has been generated from an entry in the Cambridge
# Structural Database, then it will include bibliographic, chemical,
# crystal, experimental, refinement or atomic coordinate data resulting
# from the CCDC's data processing and validation procedures.
#
#######################################################################

data_CSD_CIF_LOLGAV01
_audit_creation_date 2014-07-31
_audit_creation_method CSD-ConQuest-V1
_database_code_CSD LOLGAV01
_database_code_depnum_ccdc_archive 'CCDC 1005119'
_chemical_formula_sum 'C14 H10 N4 O2'
_chemical_formula_moiety
;
C14 H10 N4 O2
;
_journal_coden_Cambridge 179
_journal_volume 53
_journal_year 2014
_journal_page_first 10420
_journal_name_full 'Angew.Chem.,Int.Ed. '
loop_
_publ_author_name
"D.B.Ramachary"
"A.B.Shashank"
"S.Karthik"
_chemical_name_systematic
;
1-(2-Nitrophenyl)-4-phenyl-1H-1,2,3-triazole
;
_cell_volume   1278.697
_exptl_crystal_colour 'white'
_exptl_crystal_density_diffrn 1.383
_exptl_crystal_description 'Block'
_diffrn_ambient_temperature 293
#These two values have been output from a single CSD field.
_refine_ls_R_factor_gt 0.0435
_refine_ls_wR_factor_gt 0.0435
_symmetry_cell_setting monoclinic
_symmetry_space_group_name_H-M 'P 21/n'
_symmetry_Int_Tables_number 14
loop_
_symmetry_equiv_pos_site_id
_symmetry_equiv_pos_as_xyz
1 x,y,z
2 1/2-x,1/2+y,1/2-z
3 -x,-y,-z
4 -1/2+x,-1/2-y,-1/2+z
_cell_length_a 12.1729(3)
_cell_length_b 7.4846(2)
_cell_length_c 14.2654(3)
_cell_angle_alpha 90
_cell_angle_beta 100.317(2)
_cell_angle_gamma 90
_cell_formula_units_Z 4
loop_
_atom_type_symbol
_atom_type_radius_bond
C 0.68
H 0.23
N 0.68
O 0.68
loop_
_atom_site_label
_atom_site_type_symbol
_atom_site_fract_x
_atom_site_fract_y
_atom_site_fract_z
N1 N 0.58024(9) -0.01349(15) 0.16016(8)
O1 O 0.57306(13) -0.18394(17) 0.41955(9)
N2 N 0.51395(12) -0.15963(17) 0.15015(10)
O2 O 0.69077(12) -0.17868(17) 0.32449(10)
N3 N 0.54376(12) -0.25705(18) 0.08324(10)
C1 C 0.57012(10) 0.11570(18) 0.23108(9)
C2 C 0.68239(11) -0.25422(19) -0.02444(9)
C3 C 0.54720(12) 0.29115(19) 0.20578(11)
H1 H 0.54280 0.32680 0.14280
C4 C 0.57778(10) 0.06634(17) 0.32606(10)
N4 N 0.61557(11) -0.11303(16) 0.35827(9)
C5 C 0.62844(11) -0.17460(18) 0.0495(1)
C6 C 0.67823(12) -0.4381(2) -0.03985(10)
H2 H 0.63940 -0.51050 -0.00410
C7 C 0.53065(13) 0.4143(2) 0.27432(12)
H3 H 0.51710 0.53330 0.25740
C8 C 0.65118(11) -0.01842(18) 0.09842(10)
H4 H 0.70460 0.06650 0.09060
C9 C 0.55758(13) 0.1867(2) 0.39389(11)
H5 H 0.55960 0.15090 0.45660
C10 C 0.74049(13) -0.1489(2) -0.07952(11)
H6 H 0.74310 -0.02570 -0.07100
C11 C 0.73161(15) -0.5137(2) -0.10814(12)
H7 H 0.72770 -0.63650 -0.11830
C12 C 0.53414(14) 0.3620(2) 0.36689(12)
H8 H 0.52060 0.44520 0.41190
C13 C 0.79018(14) -0.4091(3) -0.16081(12)
H9 H 0.82700 -0.46070 -0.20580
C14 C 0.79419(15) -0.2260(3) -0.14664(12)
H10 H 0.83340 -0.15460 -0.18260
#END
