
#######################################################################
#
#                 Cambridge Crystallographic Data Centre
#                                CCDC
#
#######################################################################
#
# If this CIF has been generated from an entry in the Cambridge
# Structural Database, then it will include bibliographic, chemical,
# crystal, experimental, refinement or atomic coordinate data resulting
# from the CCDC's data processing and validation procedures.
#
#######################################################################

data_CSD_CIF_LOLHOK
_audit_creation_date 2009-06-04
_audit_creation_method CSD-ConQuest-V1
_database_code_CSD LOLHOK
_database_code_depnum_ccdc_archive 'CCDC 679564'
_chemical_formula_sum 'C14 H10 N4 O2'
_chemical_formula_moiety
;
C14 H10 N4 O2
;
_journal_coden_Cambridge 1350
_journal_volume 11
_journal_year 2009
_journal_page_first 143
_journal_name_full 'CrystEngComm '
loop_
_publ_author_name
"C.V.Ramana"
"S.Chatterjee"
"K.A.Durugkar"
"R.G.Gonnade"
_chemical_name_systematic
;
4-Phenyl-1-(4-nitrophenyl)-1H-(1,2,3)-triazole
;
_cell_volume    595.913
_exptl_crystal_colour 'red'
_exptl_crystal_density_diffrn 1.484
_exptl_crystal_description 'plate'
_diffrn_ambient_temperature 297
#These two values have been output from a single CSD field.
_refine_ls_R_factor_gt 0.0363
_refine_ls_wR_factor_gt 0.0363
_symmetry_cell_setting triclinic
_symmetry_space_group_name_H-M 'P -1'
_symmetry_Int_Tables_number 2
loop_
_symmetry_equiv_pos_site_id
_symmetry_equiv_pos_as_xyz
1 x,y,z
2 -x,-y,-z
_cell_length_a 5.757(2)
_cell_length_b 7.198(3)
_cell_length_c 14.862(6)
_cell_angle_alpha 101.081(6)
_cell_angle_beta 99.217(6)
_cell_angle_gamma 90.859(6)
_cell_formula_units_Z 2
loop_
_atom_type_symbol
_atom_type_radius_bond
C 0.68
H 0.23
N 0.68
O 0.68
loop_
_atom_site_label
_atom_site_type_symbol
_atom_site_fract_x
_atom_site_fract_y
_atom_site_fract_z
O1 O 0.0476(2) -0.2112(2) 0.00540(8)
O2 O -0.2953(2) -0.1897(2) 0.04544(8)
N1 N 0.32113(18) 0.18190(15) 0.42594(7)
N2 N 0.55834(19) 0.19502(17) 0.45150(8)
N3 N 0.60249(19) 0.27687(17) 0.53911(8)
N4 N -0.0818(2) -0.16618(18) 0.06263(8)
C1 C 0.2148(2) 0.25638(18) 0.49866(9)
C2 C 0.3947(2) 0.31752(17) 0.57052(9)
C3 C 0.3868(2) 0.40877(17) 0.66732(8)
C4 C 0.5798(2) 0.40535(19) 0.73656(9)
C5 C 0.5715(3) 0.4882(2) 0.82794(10)
C6 C 0.3714(3) 0.5752(2) 0.85153(10)
C7 C 0.1791(2) 0.5797(2) 0.78347(10)
C8 C 0.1858(2) 0.49702(19) 0.69168(10)
C9 C 0.2188(2) 0.09372(17) 0.33377(8)
C10 C -0.0036(2) 0.00526(19) 0.31776(9)
C11 C -0.1025(2) -0.07915(19) 0.22806(9)
C12 C 0.0256(2) -0.07538(18) 0.15746(9)
C13 C 0.2481(2) 0.01044(19) 0.17242(9)
C14 C 0.3444(2) 0.09852(19) 0.26166(9)
H1 H 0.050(3) 0.2583(19) 0.4931(10)
H2 H 0.722(3) 0.344(2) 0.7209(10)
H3 H 0.708(3) 0.486(2) 0.8741(12)
H4 H 0.361(3) 0.631(2) 0.9145(12)
H5 H 0.036(3) 0.643(2) 0.7998(11)
H6 H 0.049(3) 0.499(2) 0.6445(11)
H7 H -0.090(3) 0.001(2) 0.3681(11)
H8 H -0.257(3) -0.141(2) 0.2156(11)
H9 H 0.334(3) 0.012(2) 0.1211(11)
H10 H 0.498(3) 0.163(2) 0.2743(11)
#END
