
#######################################################################
#
#                 Cambridge Crystallographic Data Centre
#                                CCDC
#
#######################################################################
#
# If this CIF has been generated from an entry in the Cambridge
# Structural Database, then it will include bibliographic, chemical,
# crystal, experimental, refinement or atomic coordinate data resulting
# from the CCDC's data processing and validation procedures.
#
#######################################################################

data_CSD_CIF_LOLJAX
_audit_creation_date 2000-12-08
_audit_creation_method CSD-ConQuest-V1
_database_code_CSD LOLJAX
_database_code_depnum_ccdc_archive 'CCDC 138155'
_chemical_formula_sum 'C8 H8 N6 O10'
_chemical_formula_moiety
;
C8 H8 N6 O10
;
_journal_coden_Cambridge 35
_journal_volume 65
_journal_year 2000
_journal_page_first 1207
_journal_name_full 'J.Org.Chem. '
loop_
_publ_author_name
"P.R.Dave"
"K.A.Kumar"
"R.Duddu"
"T.Axenrod"
"Rongji Dai"
"K.K.Das"
"Xiao-Pei Guan"
"Jianguang Sun"
"N.J.Trivedi"
"R.Gilardi"
_chemical_name_systematic
;
bis(3,3-Dinitroazetidinyl)oxamide
;
_chemical_melting_point 540.15
_cell_volume   2660.271
_exptl_crystal_colour 'colorless'
_exptl_crystal_density_diffrn 1.739
_exptl_special_details
;
Melts with decomposition.

;
_exptl_crystal_description 'bipyramid'
_exptl_crystal_preparation 'acetonitrile'
_diffrn_ambient_temperature ?
_diffrn_special_details
;
The study was carried out at room temperature,in the range 283-303K

;
#These two values have been output from a single CSD field.
_refine_ls_R_factor_gt 0.0287
_refine_ls_wR_factor_gt 0.0287
_symmetry_cell_setting orthorhombic
_symmetry_space_group_name_H-M 'F d d 2'
_symmetry_Int_Tables_number 43
loop_
_symmetry_equiv_pos_site_id
_symmetry_equiv_pos_as_xyz
1 x,y,z
2 -x,-y,z
3 1/4+x,1/4-y,1/4+z
4 1/4-x,1/4+y,1/4+z
5 x,1/2+y,1/2+z
6 -x,1/2-y,1/2+z
7 1/4+x,-1/4-y,-1/4+z
8 1/4-x,-1/4+y,-1/4+z
9 1/2+x,y,1/2+z
10 1/2-x,-y,1/2+z
11 -1/4+x,1/4-y,-1/4+z
12 -1/4-x,1/4+y,-1/4+z
13 1/2+x,1/2+y,z
14 1/2-x,1/2-y,z
15 -1/4+x,-1/4-y,1/4+z
16 -1/4-x,-1/4+y,1/4+z
_cell_length_a 13.1956(10)
_cell_length_b 19.524(3)
_cell_length_c 10.3259(11)
_cell_angle_alpha 90
_cell_angle_beta 90
_cell_angle_gamma 90
_cell_formula_units_Z 8
loop_
_atom_type_symbol
_atom_type_radius_bond
C 0.68
H 0.23
N 0.68
O 0.68
loop_
_atom_site_label
_atom_site_type_symbol
_atom_site_fract_x
_atom_site_fract_y
_atom_site_fract_z
O1 O 0.49130(13) 0.58952(8) 0.49767(19)
N1 N 0.36600(15) 0.5119(1) 0.5122(2)
C1 C 0.46281(18) 0.52994(12) 0.5047(2)
C2 C 0.3087(2) 0.44779(13) 0.5087(4)
H1 H 0.316(2) 0.4234(15) 0.432(3)
H2 H 0.311(2) 0.4224(15) 0.588(3)
C3 C 0.21201(19) 0.49183(13) 0.5005(3)
C4 C 0.27665(19) 0.55640(14) 0.5045(3)
H3 H 0.274(2) 0.5869(14) 0.424(3)
H4 H 0.267(2) 0.5816(15) 0.580(3)
O2 O 0.10305(16) 0.53311(12) 0.3444(3)
N2 N 0.14877(17) 0.48322(13) 0.3797(3)
O3 O 0.06697(18) 0.44416(12) 0.5920(3)
N3 N 0.14072(18) 0.47967(13) 0.6113(3)
O4 O 0.14781(18) 0.42704(14) 0.3286(3)
O5 O 0.1650(2) 0.50277(17) 0.7128(3)
C1A C 0.53719(18) 0.47006(12) 0.5047(2)
O1A O 0.50870(13) 0.41048(8) 0.49767(19)
N1A N 0.63400(15) 0.4881(1) 0.5122(2)
C2A C 0.6913(2) 0.55221(13) 0.5087(4)
H1A H 0.684(2) 0.5766(15) 0.432(3)
H2A H 0.689(2) 0.5776(15) 0.588(3)
C3A C 0.78799(19) 0.50817(13) 0.5005(3)
C4A C 0.72335(19) 0.44360(14) 0.5045(3)
H3A H 0.726(2) 0.4131(14) 0.424(3)
H4A H 0.733(2) 0.4184(15) 0.580(3)
N2A N 0.85123(17) 0.51678(13) 0.3797(3)
O2A O 0.89695(16) 0.46689(12) 0.3444(3)
O4A O 0.85219(18) 0.57296(14) 0.3286(3)
N3A N 0.85928(18) 0.52033(13) 0.6113(3)
O3A O 0.93303(18) 0.55584(12) 0.5920(3)
O5A O 0.8350(2) 0.49723(17) 0.7128(3)
#END
