
#######################################################################
#
#                 Cambridge Crystallographic Data Centre
#                                CCDC
#
#######################################################################
#
# If this CIF has been generated from an entry in the Cambridge
# Structural Database, then it will include bibliographic, chemical,
# crystal, experimental, refinement or atomic coordinate data resulting
# from the CCDC's data processing and validation procedures.
#
#######################################################################

data_CSD_CIF_LOLQEI
_audit_creation_date 2000-12-08
_audit_creation_method CSD-ConQuest-V1
_database_code_CSD LOLQEI
_database_code_depnum_ccdc_archive 'CCDC 147551'
_chemical_formula_sum 'C14 H18 N2 O6'
_chemical_formula_moiety
;
C14 H18 N2 O6
;
_journal_coden_Cambridge 4
_journal_volume 122
_journal_year 2000
_journal_page_first 6078
_journal_name_full 'J.Am.Chem.Soc. '
loop_
_publ_author_name
"S.Vivanco"
"B.Lecea"
"A.Arrieta"
"P.Prieto"
"I.Morao"
"A.Linden"
"F.P.Cossio"
_chemical_name_systematic
;
(2S*,3R*)-Methyl 2-acetamido-3-(4-methoxyphenyl)-4-nitrobutyrate
;
_chemical_melting_point 419
_cell_volume   1531.355
_exptl_crystal_colour 'colorless'
_exptl_crystal_density_diffrn 1.346
_exptl_special_details
;
Melting point range 419-420K

;
_exptl_crystal_description 'plate'
_diffrn_ambient_temperature 173
#These two values have been output from a single CSD field.
_refine_ls_R_factor_gt 0.0463
_refine_ls_wR_factor_gt 0.0463
_symmetry_cell_setting monoclinic
_symmetry_space_group_name_H-M 'P 21/c'
_symmetry_Int_Tables_number 14
loop_
_symmetry_equiv_pos_site_id
_symmetry_equiv_pos_as_xyz
1 x,y,z
2 x,1/2-y,1/2+z
3 -x,-y,-z
4 -x,-1/2+y,-1/2-z
_cell_length_a 10.600(1)
_cell_length_b 15.514(2)
_cell_length_c 10.014(2)
_cell_angle_alpha 90
_cell_angle_beta 111.58(1)
_cell_angle_gamma 90
_cell_formula_units_Z 4
loop_
_atom_type_symbol
_atom_type_radius_bond
C 0.68
H 0.23
N 0.68
O 0.68
loop_
_atom_site_label
_atom_site_type_symbol
_atom_site_fract_x
_atom_site_fract_y
_atom_site_fract_z
O1 O -0.4858(2) 0.2355(2) 0.7899(3)
O2 O -0.1824(3) 0.3142(2) 0.5519(3)
O3 O -0.0651(2) 0.3027(2) 0.7880(3)
O4 O 0.3033(2) 0.0200(2) 0.8969(3)
O5 O -0.3274(3) -0.0759(2) 0.7186(3)
O6 O -0.3405(3) -0.0262(2) 0.5144(3)
N1 N -0.4076(3) 0.2525(2) 0.6092(3)
N2 N -0.3341(3) -0.0164(2) 0.6381(4)
C1 C -0.2700(3) 0.2261(2) 0.6937(4)
C2 C -0.2444(3) 0.1332(2) 0.6509(4)
C3 C -0.3366(3) 0.0727(2) 0.6918(4)
C4 C -0.5073(3) 0.2529(2) 0.6637(4)
C5 C -0.6456(3) 0.2742(3) 0.5571(4)
C6 C -0.1705(4) 0.2868(2) 0.6678(4)
C7 C 0.0462(4) 0.3489(2) 0.7711(4)
C8 C -0.0961(3) 0.1056(2) 0.7141(4)
C9 C -0.0302(3) 0.0927(2) 0.8613(4)
C10 C 0.1017(3) 0.0647(2) 0.9175(4)
C11 C 0.1732(3) 0.0492(2) 0.8284(4)
C12 C 0.1116(3) 0.0642(3) 0.6825(4)
C13 C -0.0226(3) 0.0916(2) 0.6277(4)
C14 C 0.3805(4) 0.0030(3) 0.8093(4)
H1 H -0.431(3) 0.263(2) 0.514(3)
H2 H -0.25700 0.22700 0.79300
H3 H -0.27200 0.13200 0.54900
H4 H -0.07800 0.10300 0.92400
H5 H 0.14400 0.05600 1.01800
H6 H 0.16000 0.05600 0.62100
H7 H -0.06500 0.10100 0.52700
H8 H -0.42700 0.09400 0.65200
H9 H -0.30800 0.07100 0.79400
H10 H -0.66300 0.33400 0.56300
H11 H -0.71200 0.24100 0.57700
H12 H -0.64900 0.26100 0.46300
H13 H 0.08100 0.31600 0.71200
H14 H 0.11600 0.35800 0.86300
H15 H 0.01500 0.40300 0.72700
H16 H 0.33600 -0.03900 0.74000
H17 H 0.46800 -0.01700 0.86800
H18 H 0.38900 0.05500 0.76200
#END
