
#######################################################################
#
#                 Cambridge Crystallographic Data Centre
#                                CCDC
#
#######################################################################
#
# If this CIF has been generated from an entry in the Cambridge
# Structural Database, then it will include bibliographic, chemical,
# crystal, experimental, refinement or atomic coordinate data resulting
# from the CCDC's data processing and validation procedures.
#
#######################################################################

data_CSD_CIF_LOLQAE
_audit_creation_date 2000-12-08
_audit_creation_method CSD-ConQuest-V1
_database_code_CSD LOLQAE
_database_code_depnum_ccdc_archive 'CCDC 147550'
_chemical_formula_sum 'C25 H24 N2 O5'
_chemical_formula_moiety
;
C25 H24 N2 O5
;
_journal_coden_Cambridge 4
_journal_volume 122
_journal_year 2000
_journal_page_first 6078
_journal_name_full 'J.Am.Chem.Soc. '
loop_
_publ_author_name
"S.Vivanco"
"B.Lecea"
"A.Arrieta"
"P.Prieto"
"I.Morao"
"A.Linden"
"F.P.Cossio"
_chemical_name_systematic
;
(2S,3R,4S)-5,5-Diphenyl-2-methoxycarbonyl-3-(4-methoxyphenyl)-4-nitropyrrolidi
ne
;
_chemical_melting_point 410
_cell_volume   2160.705
_exptl_crystal_colour 'colorless'
_exptl_crystal_density_diffrn 1.329
_exptl_special_details
;
Melting point range 410-412K

;
_exptl_crystal_description 'prism'
_diffrn_ambient_temperature 173
#These two values have been output from a single CSD field.
_refine_ls_R_factor_gt 0.0359
_refine_ls_wR_factor_gt 0.0359
_symmetry_cell_setting orthorhombic
_symmetry_space_group_name_H-M 'P 21 21 21'
_symmetry_Int_Tables_number 19
loop_
_symmetry_equiv_pos_site_id
_symmetry_equiv_pos_as_xyz
1 x,y,z
2 1/2-x,-y,1/2+z
3 1/2+x,1/2-y,-z
4 -x,1/2+y,1/2-z
_cell_length_a 10.797(2)
_cell_length_b 22.824(4)
_cell_length_c 8.768(3)
_cell_angle_alpha 90
_cell_angle_beta 90
_cell_angle_gamma 90
_cell_formula_units_Z 4
loop_
_atom_type_symbol
_atom_type_radius_bond
C 0.68
H 0.23
N 0.68
O 0.68
loop_
_atom_site_label
_atom_site_type_symbol
_atom_site_fract_x
_atom_site_fract_y
_atom_site_fract_z
O1 O 0.5685(2) 0.01420(8) 0.3043(2)
O2 O 0.6813(2) 0.06320(8) 0.4769(3)
O3 O 0.6583(2) 0.18435(9) 1.0860(2)
O4 O 0.2286(2) 0.0133(1) 0.4325(3)
O5 O 0.1017(2) 0.0530(1) 0.5951(3)
N1 N 0.3978(2) 0.1052(1) 0.2944(3)
N2 N 0.1955(2) 0.0533(1) 0.5185(3)
C1 C 0.4856(2) 0.1018(1) 0.4197(3)
C2 C 0.4107(2) 0.0893(1) 0.5704(3)
C3 C 0.2768(2) 0.1072(1) 0.5248(3)
C4 C 0.2872(2) 0.1335(1) 0.3587(3)
C5 C 0.5818(2) 0.0545(1) 0.3909(3)
C6 C 0.7768(3) 0.0185(1) 0.4654(5)
C7 C 0.4645(2) 0.1180(1) 0.7111(3)
C8 C 0.4945(2) 0.0840(1) 0.8371(3)
C9 C 0.5564(2) 0.1074(1) 0.9613(3)
C10 C 0.5920(2) 0.1658(1) 0.9606(3)
C11 C 0.5586(3) 0.2015(1) 0.8391(3)
C12 C 0.4955(2) 0.1771(1) 0.7159(3)
C13 C 0.7143(3) 0.2409(2) 1.0776(3)
C14 C 0.1744(2) 0.1244(1) 0.2546(3)
C15 C 0.1896(3) 0.1056(1) 0.1045(3)
C16 C 0.0874(3) 0.0985(1) 0.0109(3)
C17 C -0.0305(3) 0.1113(1) 0.0633(4)
C18 C -0.0458(3) 0.1310(1) 0.2109(4)
C19 C 0.0557(3) 0.1377(1) 0.3060(3)
C20 C 0.3124(2) 0.2001(1) 0.3739(3)
C21 C 0.3995(3) 0.2264(1) 0.2787(3)
C22 C 0.4190(3) 0.2871(1) 0.2855(4)
C23 C 0.3518(3) 0.3211(1) 0.3860(4)
C24 C 0.2666(3) 0.2959(1) 0.4798(4)
C25 C 0.2456(2) 0.2357(1) 0.4745(3)
H1 H 0.379(2) 0.069(1) 0.263(3)
H2 H 0.52700 0.13800 0.43000
H3 H 0.41100 0.04800 0.58700
H4 H 0.24400 0.13500 0.59400
H5 H 0.47200 0.04400 0.83800
H6 H 0.57400 0.08300 1.04700
H7 H 0.57800 0.24200 0.84000
H8 H 0.47300 0.20200 0.63300
H9 H 0.27000 0.09800 0.06600
H10 H 0.09800 0.08500 -0.09000
H11 H -0.10000 0.10600 -0.00200
H12 H -0.12600 0.14000 0.24700
H13 H 0.04400 0.15100 0.40700
H14 H 0.44600 0.20300 0.20900
H15 H 0.47900 0.30500 0.22100
H16 H 0.36500 0.36200 0.39000
H17 H 0.22100 0.32000 0.55000
H18 H 0.18500 0.21900 0.54000
H19 H 0.74000 -0.01900 0.47400
H20 H 0.83500 0.02400 0.54500
H21 H 0.81700 0.02200 0.37000
H22 H 0.65200 0.26900 1.06000
H23 H 0.75500 0.24900 1.17100
H24 H 0.77300 0.24100 0.99700
#END
