
#######################################################################
#
#                 Cambridge Crystallographic Data Centre
#                                CCDC
#
#######################################################################
#
# If this CIF has been generated from an entry in the Cambridge
# Structural Database, then it will include bibliographic, chemical,
# crystal, experimental, refinement or atomic coordinate data resulting
# from the CCDC's data processing and validation procedures.
#
#######################################################################

data_CSD_CIF_LOLVEP
_audit_creation_date 2014-07-28
_audit_creation_method CSD-ConQuest-V1
_database_code_CSD LOLVEP
_database_code_depnum_ccdc_archive 'CCDC 935322'
_chemical_formula_sum 'C20 H25 N5 O2'
_chemical_formula_moiety
;
C20 H25 N5 O2
;
_journal_coden_Cambridge 862
_journal_volume 148
_journal_year 2014
_journal_page_first 33
_journal_name_full 'J.Lumin. '
loop_
_publ_author_name
"E.V.Tretyakov"
"A.O.Suvorova"
"S.V.Larionov"
"S.A.Popov"
"O.V.Antonovab"
"V.F.Plyusnin"
"D.V.Stass"
"A.S.Bogomyakov"
"G.V.Romanenko"
"V.I.Ovcharenko"
_chemical_name_systematic
;
4,4,5,5-Tetramethyl-2-(1-(4-methylquinolin-2-yl)-1H-pyrazol-4-yl)imidazolidine
-1,3-diol
;
_cell_volume   1921.740
_exptl_crystal_colour 'colorless'
_exptl_crystal_density_diffrn 1.27
_exptl_crystal_description 'stick'
_diffrn_ambient_temperature 240
#These two values have been output from a single CSD field.
_refine_ls_R_factor_gt 0.0597
_refine_ls_wR_factor_gt 0.0597
_symmetry_cell_setting monoclinic
_symmetry_space_group_name_H-M 'P 21/n'
_symmetry_Int_Tables_number 14
loop_
_symmetry_equiv_pos_site_id
_symmetry_equiv_pos_as_xyz
1 x,y,z
2 1/2-x,1/2+y,1/2-z
3 -x,-y,-z
4 -1/2+x,-1/2-y,-1/2+z
_cell_length_a 13.1375(16)
_cell_length_b 7.0467(5)
_cell_length_c 20.8378(18)
_cell_angle_alpha 90
_cell_angle_beta 95.000(9)
_cell_angle_gamma 90
_cell_formula_units_Z 4
loop_
_atom_type_symbol
_atom_type_radius_bond
C 0.68
H 0.23
N 0.68
O 0.68
loop_
_atom_site_label
_atom_site_type_symbol
_atom_site_fract_x
_atom_site_fract_y
_atom_site_fract_z
O1 O 0.42853(18) -0.0608(3) 0.05519(11)
H1 H 0.429(3) -0.074(4) 0.0042(18)
N1 N 0.5186(2) 0.0498(4) 0.07845(12)
C1 C 0.4888(3) 0.2474(4) 0.09855(16)
C2 C 0.3993(3) 0.3236(5) 0.05612(17)
H2 H 0.33890 0.24920 0.06250
H3 H 0.41400 0.31570 0.01140
H4 H 0.38750 0.45500 0.06720
C3 C 0.5841(3) 0.3661(5) 0.08867(17)
H5 H 0.59250 0.37550 0.04300
H6 H 0.64370 0.30550 0.11050
H7 H 0.57620 0.49210 0.10630
C4 C 0.4713(3) 0.2272(5) 0.16997(16)
C5 C 0.4827(3) 0.4124(4) 0.20858(17)
H8 H 0.47040 0.38800 0.25310
H9 H 0.43350 0.50470 0.19030
H10 H 0.55130 0.46180 0.20680
C6 C 0.3683(3) 0.1348(5) 0.18132(18)
H11 H 0.36080 0.01710 0.15720
H12 H 0.31310 0.22040 0.16700
H13 H 0.36600 0.10860 0.22690
N2 N 0.5611(2) 0.1056(3) 0.18944(12)
O2 O 0.54999(19) 0.0080(3) 0.24949(11)
H14 H 0.597(3) 0.084(5) 0.2759(17)
C7 C 0.5599(3) -0.0447(4) 0.13943(15)
H15 H 0.51320 -0.14790 0.15020
C8 C 0.6654(3) -0.1235(4) 0.13579(16)
C9 C 0.7276(3) -0.2136(5) 0.18502(17)
H16 H 0.70770 -0.23530 0.22660
N3 N 0.8176(2) -0.2647(4) 0.16607(13)
N4 N 0.8129(2) -0.2088(4) 0.10389(13)
C10 C 0.7238(2) -0.1237(4) 0.08486(16)
H17 H 0.70510 -0.07330 0.04370
C11 C 0.8974(3) -0.2336(4) 0.06607(16)
C12 C 0.9937(3) -0.2761(4) 0.09619(17)
H18 H 1.00290 -0.29360 0.14100
C13 C 1.0749(3) -0.2921(4) 0.05940(18)
C14 C 1.1808(3) -0.3300(5) 0.09002(19)
H19 H 1.17860 -0.34480 0.13620
H20 H 1.22500 -0.22430 0.08150
H21 H 1.20710 -0.44520 0.07210
C15 C 1.0560(3) -0.2693(4) -0.00875(18)
C16 C 1.1325(3) -0.2863(5) -0.0518(2)
H22 H 1.20010 -0.31340 -0.03600
C17 C 1.1089(3) -0.2636(5) -0.1163(2)
H23 H 1.16070 -0.27560 -0.14450
C18 C 1.0092(3) -0.2228(5) -0.14130(19)
H24 H 0.99420 -0.20830 -0.18600
C19 C 0.9338(3) -0.2042(5) -0.10086(18)
H25 H 0.86680 -0.17560 -0.11760
C20 C 0.9560(3) -0.2276(4) -0.03392(17)
N5 N 0.8752(2) -0.2096(4) 0.00393(13)
#END
