
#######################################################################
#
#                 Cambridge Crystallographic Data Centre
#                                CCDC
#
#######################################################################
#
# If this CIF has been generated from an entry in the Cambridge
# Structural Database, then it will include bibliographic, chemical,
# crystal, experimental, refinement or atomic coordinate data resulting
# from the CCDC's data processing and validation procedures.
#
#######################################################################

data_CSD_CIF_LONJAA
_audit_creation_date 2009-06-03
_audit_creation_method CSD-ConQuest-V1
_database_code_CSD LONJAA
_database_code_depnum_ccdc_archive 'CCDC 715523'
_database_code_depnum_ccdc_journal 1267/2332
_chemical_formula_sum 'C6 H4 N2 O7'
_chemical_formula_moiety
;
C6 H4 N2 O7
;
_journal_coden_Cambridge 1267
_journal_volume 223
_journal_year 2008
_journal_page_first 369
_journal_name_full 'Z.Kristallogr.-New Cryst.Struct. '
loop_
_publ_author_name
"T.Schweitzer"
"D.Taylor"
"G.Choppin"
"C.Neis"
"K.Hegetschweiler"
_chemical_name_systematic
;
2,4-Dinitro-1,3,5-benzenetriol
;
_cell_volume    364.724
_exptl_crystal_colour 'yellow'
_exptl_crystal_density_diffrn 1.968
_exptl_crystal_description 'platelet'
_exptl_crystal_preparation 'water'
_diffrn_ambient_temperature 153
#These two values have been output from a single CSD field.
_refine_ls_R_factor_gt 0.0221
_refine_ls_wR_factor_gt 0.0221
_symmetry_cell_setting monoclinic
_symmetry_space_group_name_H-M 'P 21'
_symmetry_Int_Tables_number 4
loop_
_symmetry_equiv_pos_site_id
_symmetry_equiv_pos_as_xyz
1 x,y,z
2 -x,1/2+y,-z
_cell_length_a 6.4015(3)
_cell_length_b 4.8370(2)
_cell_length_c 11.7979(6)
_cell_angle_alpha 90
_cell_angle_beta 93.248(3)
_cell_angle_gamma 90
_cell_formula_units_Z 2
loop_
_atom_type_symbol
_atom_type_radius_bond
C 0.68
H 0.23
N 0.68
O 0.68
loop_
_atom_site_label
_atom_site_type_symbol
_atom_site_fract_x
_atom_site_fract_y
_atom_site_fract_z
C1 C 0.67355(19) -0.0862(3) 0.30998(11)
C2 C 0.3849(2) -0.0198(3) 0.16932(11)
C3 C 0.3656(2) -0.3729(3) 0.31550(11)
C4 C 0.27724(19) -0.2402(3) 0.22066(10)
C5 C 0.56147(19) -0.3050(3) 0.36035(10)
C6 C 0.58577(19) 0.0584(3) 0.21356(11)
N1 N 0.87424(16) -0.0101(2) 0.35660(9)
N2 N 0.28847(16) 0.1213(3) 0.07271(9)
O1 O 0.68637(16) 0.2602(2) 0.16465(9)
O2 O 0.09001(13) -0.3321(2) 0.18267(8)
O3 O 0.63644(15) -0.4551(2) 0.44798(8)
O4 O 0.95303(14) -0.1376(2) 0.43912(8)
O5 O 0.97264(15) 0.1843(2) 0.31495(8)
O6 O 0.11776(15) 0.0315(2) 0.03230(8)
O7 O 0.36986(15) 0.3234(2) 0.03271(9)
H1 H 0.291(2) -0.525(4) 0.3488(14)
H2 H 0.806(4) 0.284(5) 0.1999(18)
H3 H 0.754(3) -0.403(4) 0.4684(15)
H4 H 0.058(3) -0.261(4) 0.1231(16)
#END
