
#######################################################################
#
#                 Cambridge Crystallographic Data Centre
#                                CCDC
#
#######################################################################
#
# If this CIF has been generated from an entry in the Cambridge
# Structural Database, then it will include bibliographic, chemical,
# crystal, experimental, refinement or atomic coordinate data resulting
# from the CCDC's data processing and validation procedures.
#
#######################################################################

data_CSD_CIF_LONSAK
_audit_creation_date 2014-07-30
_audit_creation_method CSD-ConQuest-V1
_database_code_CSD LONSAK
_database_code_depnum_ccdc_archive 'CCDC 831988'
_chemical_formula_sum 'C11 H8 N2 O5'
_chemical_formula_moiety
;
C11 H8 N2 O5
;
_journal_coden_Cambridge 206
_journal_volume 43
_journal_year 2013
_journal_page_first 2155
_journal_name_full 'Synth.Commun. '
loop_
_publ_author_name
"C.A.Goodman"
"J.B.Eagles"
"L.Rudahindwa"
"C.G.Hamaker"
"S.R.Hitchcock"
_chemical_name_systematic
;
1-(4-Nitrobenzoyl)pyrrolidine-2,5-dione
;
_cell_volume   1095.268
_exptl_crystal_colour 'pale yellow'
_exptl_crystal_density_diffrn 1.505
_exptl_crystal_description 'prism'
_diffrn_ambient_temperature 298
#These two values have been output from a single CSD field.
_refine_ls_R_factor_gt 0.0374
_refine_ls_wR_factor_gt 0.0374
_symmetry_cell_setting monoclinic
_symmetry_space_group_name_H-M 'P 21/c'
_symmetry_Int_Tables_number 14
loop_
_symmetry_equiv_pos_site_id
_symmetry_equiv_pos_as_xyz
1 x,y,z
2 -x,1/2+y,1/2-z
3 -x,-y,-z
4 x,-1/2-y,-1/2+z
_cell_length_a 7.209(1)
_cell_length_b 6.9917(13)
_cell_length_c 21.924(2)
_cell_angle_alpha 90
_cell_angle_beta 97.625(7)
_cell_angle_gamma 90
_cell_formula_units_Z 4
loop_
_atom_type_symbol
_atom_type_radius_bond
C 0.68
H 0.23
N 0.68
O 0.68
loop_
_atom_site_label
_atom_site_type_symbol
_atom_site_fract_x
_atom_site_fract_y
_atom_site_fract_z
C1 C 0.7743(2) 0.1814(3) 0.17679(7)
H1 H 0.86140 0.10860 0.15590
H2 H 0.72660 0.28700 0.15060
C2 C 0.8688(2) 0.2540(2) 0.23742(7)
C3 C 0.6109(2) 0.0755(2) 0.25940(7)
C4 C 0.6154(2) 0.0554(3) 0.19145(7)
H3 H 0.49770 0.09680 0.16860
H4 H 0.63740 -0.07670 0.18090
C5 C 0.8000(2) 0.2528(2) 0.34585(7)
C6 C 0.7798(2) 0.1124(2) 0.39586(7)
C7 C 0.8120(2) -0.0827(2) 0.38970(7)
H5 H 0.83870 -0.13140 0.35240
C8 C 0.8042(2) -0.2041(2) 0.43909(7)
H6 H 0.82660 -0.33430 0.43560
C9 C 0.7626(2) -0.1276(2) 0.49376(7)
C10 C 0.7310(2) 0.0652(3) 0.50133(7)
H7 H 0.70400 0.11310 0.53870
C11 C 0.7405(2) 0.1848(2) 0.45186(7)
H8 H 0.72030 0.31530 0.45600
N1 N 0.76425(17) 0.18919(17) 0.28392(5)
N2 N 0.7500(2) -0.2562(3) 0.54664(7)
O1 O 1.0097(2) 0.3464(2) 0.24734(6)
O2 O 0.49698(17) 0.0114(2) 0.28956(6)
O3 O 0.84696(18) 0.41576(17) 0.35702(5)
O4 O 0.7514(4) -0.4271(2) 0.53786(8)
O5 O 0.7387(3) -0.1855(2) 0.59653(6)
#END
