
#######################################################################
#
#                 Cambridge Crystallographic Data Centre
#                                CCDC
#
#######################################################################
#
# If this CIF has been generated from an entry in the Cambridge
# Structural Database, then it will include bibliographic, chemical,
# crystal, experimental, refinement or atomic coordinate data resulting
# from the CCDC's data processing and validation procedures.
#
#######################################################################

data_CSD_CIF_LONSOY
_audit_creation_date 2014-07-30
_audit_creation_method CSD-ConQuest-V1
_database_code_CSD LONSOY
_database_code_depnum_ccdc_archive 'CCDC 822340'
_chemical_formula_sum 'C22 H19 N3 O4'
_chemical_formula_moiety
;
C22 H19 N3 O4
;
_journal_coden_Cambridge 206
_journal_volume 44
_journal_year 2014
_journal_page_first 1218
_journal_name_full 'Synth.Commun. '
loop_
_publ_author_name
"B.Gayen"
"A.Banerji"
_chemical_name_systematic
;
3-Nitro-5-(3-nitrophenyl)-2,4-diphenylpyrrolidine
;
_cell_volume   1992.916
_exptl_crystal_colour 'colorless'
_exptl_crystal_density_diffrn 1.298
_exptl_crystal_description 'rhombic'
_diffrn_ambient_temperature 296
#These two values have been output from a single CSD field.
_refine_ls_R_factor_gt 0.0388
_refine_ls_wR_factor_gt 0.0388
_symmetry_cell_setting orthorhombic
_symmetry_space_group_name_H-M 'P c a 21'
_symmetry_Int_Tables_number 29
loop_
_symmetry_equiv_pos_site_id
_symmetry_equiv_pos_as_xyz
1 x,y,z
2 -x,-y,1/2+z
3 1/2-x,y,1/2+z
4 1/2+x,-y,z
_cell_length_a 19.831(2)
_cell_length_b 7.1756(8)
_cell_length_c 14.0051(17)
_cell_angle_alpha 90
_cell_angle_beta 90
_cell_angle_gamma 90
_cell_formula_units_Z 4
loop_
_atom_type_symbol
_atom_type_radius_bond
C 0.68
H 0.23
N 0.68
O 0.68
loop_
_atom_site_label
_atom_site_type_symbol
_atom_site_fract_x
_atom_site_fract_y
_atom_site_fract_z
C1 C 0.4182(2) 0.3708(5) 0.4966(4)
H1 H 0.46060 0.43180 0.47860
C2 C 0.4049(2) 0.2146(6) 0.4237(4)
H2 H 0.44750 0.17470 0.39450
C3 C 0.3585(2) 0.2996(5) 0.3474(4)
H3 H 0.31270 0.25300 0.35830
C4 C 0.3598(2) 0.5101(5) 0.3726(3)
H4 H 0.40070 0.56840 0.34690
C5 C 0.2980(3) 0.6114(6) 0.3373(4)
C6 C 0.2958(3) 0.6839(7) 0.2448(5)
H5 H 0.33350 0.67560 0.20550
C7 C 0.2367(5) 0.7693(7) 0.2112(5)
H6 H 0.23580 0.81690 0.14940
C8 C 0.1812(3) 0.7838(7) 0.2663(6)
H7 H 0.14210 0.84080 0.24410
C9 C 0.1851(3) 0.7098(7) 0.3579(6)
C10 C 0.2412(3) 0.6252(5) 0.3949(4)
H8 H 0.24120 0.57830 0.45680
C11 C 0.3771(3) 0.2610(6) 0.2444(4)
C12 C 0.4418(4) 0.2907(6) 0.2133(4)
H9 H 0.47430 0.33270 0.25600
C13 C 0.4591(6) 0.2592(10) 0.1197(8)
H10 H 0.50180 0.28900 0.09710
C14 C 0.4129(8) 0.1848(14) 0.0624(8)
H11 H 0.42560 0.14810 0.00130
C15 C 0.3481(6) 0.1604(14) 0.0895(9)
H12 H 0.31600 0.11930 0.04600
C16 C 0.3307(4) 0.1966(8) 0.1807(6)
H13 H 0.28650 0.17730 0.20050
C17 C 0.4241(3) 0.3152(6) 0.6002(4)
C18 C 0.4839(3) 0.2453(6) 0.6324(4)
H14 H 0.51980 0.23300 0.59020
C19 C 0.4922(4) 0.1919(7) 0.7277(6)
H15 H 0.53300 0.14260 0.74870
C20 C 0.4390(6) 0.2138(10) 0.7898(6)
H16 H 0.44350 0.17920 0.85350
C21 C 0.3810(4) 0.2847(9) 0.7584(7)
H17 H 0.34570 0.30110 0.80140
C22 C 0.3713(3) 0.3353(6) 0.6628(6)
H18 H 0.33000 0.38150 0.64220
H19 H 0.3696(13) 0.586(3) 0.498(2)
N1 N 0.36351(19) 0.4996(6) 0.4749(4)
N2 N 0.3706(3) 0.0522(6) 0.4692(3)
N3 N 0.1234(3) 0.7227(8) 0.4196(5)
O1 O 0.4086(2) -0.0809(5) 0.4811(3)
O2 O 0.3138(2) 0.0548(6) 0.4910(4)
O3 O 0.1292(2) 0.6751(8) 0.5021(5)
O4 O 0.0733(2) 0.7832(6) 0.3856(4)
#END
