
#######################################################################
#
#                 Cambridge Crystallographic Data Centre
#                                CCDC
#
#######################################################################
#
# If this CIF has been generated from an entry in the Cambridge
# Structural Database, then it will include bibliographic, chemical,
# crystal, experimental, refinement or atomic coordinate data resulting
# from the CCDC's data processing and validation procedures.
#
#######################################################################

data_CSD_CIF_LONWAN
_audit_creation_date 2009-06-03
_audit_creation_method CSD-ConQuest-V1
_database_code_CSD LONWAN
_database_code_depnum_ccdc_archive 'CCDC 715586'
_database_code_depnum_ccdc_journal 1267/2384
_chemical_formula_sum 'C15 H13 N1 O3'
_chemical_formula_moiety
;
C15 H13 N1 O3
;
_journal_coden_Cambridge 1267
_journal_volume 223
_journal_year 2008
_journal_page_first 439
_journal_name_full 'Z.Kristallogr.-New Cryst.Struct. '
loop_
_publ_author_name
"Chenzhong Cao"
"Liqiu Liu"
"Zhiqing Yin"
_chemical_name_systematic
;
(E)-3-methoxy-4'-nitrostilbene
;
_chemical_name_common
;
1-Methoxy-3-(2-(4-nitrophenyl)vinyl)benzene
;
_cell_volume   1270.275
_exptl_crystal_colour 'yellow'
_exptl_crystal_density_diffrn 1.335
_exptl_crystal_description 'block'
_exptl_crystal_preparation 'ethanol'
_diffrn_ambient_temperature 273
#These two values have been output from a single CSD field.
_refine_ls_R_factor_gt 0.0593
_refine_ls_wR_factor_gt 0.0593
_symmetry_cell_setting monoclinic
_symmetry_space_group_name_H-M 'P 21/c'
_symmetry_Int_Tables_number 14
loop_
_symmetry_equiv_pos_site_id
_symmetry_equiv_pos_as_xyz
1 x,y,z
2 -x,1/2+y,1/2-z
3 -x,-y,-z
4 x,-1/2-y,-1/2+z
_cell_length_a 8.0355(11)
_cell_length_b 22.644(3)
_cell_length_c 7.0938(9)
_cell_angle_alpha 90
_cell_angle_beta 100.221(8)
_cell_angle_gamma 90
_cell_formula_units_Z 4
loop_
_atom_type_symbol
_atom_type_radius_bond
C 0.68
H 0.23
N 0.68
O 0.68
loop_
_atom_site_label
_atom_site_type_symbol
_atom_site_fract_x
_atom_site_fract_y
_atom_site_fract_z
C1 C 0.46746(16) 0.57244(6) 0.3152(2)
O1 O 0.74798(13) 0.58964(6) 0.3012(2)
N1 N 0.61944(15) 0.60904(6) 0.3479(2)
O2 O -0.54008(13) 0.34708(5) 0.0546(2)
C2 C 0.17549(17) 0.55992(7) 0.3206(2)
H1 H 0.07290 0.57490 0.34270
O3 O 0.61282(15) 0.65749(6) 0.4230(2)
C3 C -0.38502(17) 0.33155(6) 0.1539(2)
C4 C -0.25883(18) 0.37362(6) 0.1551(2)
H2 H -0.28420 0.40940 0.09240
C5 C -0.09490(18) 0.36250(6) 0.2495(2)
C6 C 0.33705(19) 0.48094(7) 0.2175(2)
H3 H 0.34360 0.44270 0.17150
C7 C 0.03355(18) 0.46352(7) 0.2374(2)
H4 H -0.07300 0.48080 0.21080
C8 C 0.18270(17) 0.50199(6) 0.2565(2)
C9 C 0.47895(18) 0.51607(7) 0.2465(2)
H5 H 0.58100 0.50190 0.22000
C10 C -0.0597(2) 0.30826(7) 0.3413(2)
H6 H 0.04970 0.29990 0.40360
C11 C 0.31723(18) 0.59553(7) 0.3522(2)
H7 H 0.31180 0.63390 0.39710
C12 C -0.34862(19) 0.27805(7) 0.2469(2)
H8 H -0.43290 0.24990 0.24640
C13 C -0.1855(2) 0.26704(7) 0.3404(3)
H9 H -0.16060 0.23130 0.40350
C14 C 0.04324(18) 0.40534(7) 0.2562(2)
H10 H 0.15180 0.38960 0.27620
C15 C -0.6735(2) 0.30513(8) 0.0413(3)
H11 H -0.77470 0.32150 -0.03230
H12 H -0.69270 0.29550 0.16740
H13 H -0.64300 0.27000 -0.02040
#END
