
#######################################################################
#
#                 Cambridge Crystallographic Data Centre
#                                CCDC
#
#######################################################################
#
# If this CIF has been generated from an entry in the Cambridge
# Structural Database, then it will include bibliographic, chemical,
# crystal, experimental, refinement or atomic coordinate data resulting
# from the CCDC's data processing and validation procedures.
#
#######################################################################

data_CSD_CIF_LONYUK
_audit_creation_date 2014-07-30
_audit_creation_method CSD-ConQuest-V1
_database_code_CSD LONYUK
_database_code_depnum_ccdc_archive 'CCDC 1005453'
_chemical_formula_sum 'C26 H26 N2 O2'
_chemical_formula_moiety
;
C26 H26 N2 O2
;
_journal_coeditor_code "IUCr bt6984"
_journal_coden_Cambridge 1370
_journal_volume 70
_journal_year 2014
_journal_page_first o883
_journal_name_full 'Acta Crystallogr.,Sect.E:Struct.Rep.Online '
loop_
_publ_author_name
"V.Kathiravan"
"K.G.Krishnan"
"T.Mohandas"
"V.Thanikachalam"
"P.Sakthivel"
_chemical_name_systematic
;
(E)-3-Methyl-2,6-diphenylpiperidin-4-one O-(3-methylbenzoyl) oxime
;
_cell_volume   2185.703
_exptl_crystal_colour 'colorless'
_exptl_crystal_density_diffrn 1.211
_exptl_crystal_description 'block'
_diffrn_ambient_temperature 293
#These two values have been output from a single CSD field.
_refine_ls_R_factor_gt 0.0526
_refine_ls_wR_factor_gt 0.0526
_symmetry_cell_setting monoclinic
_symmetry_space_group_name_H-M 'P 21/n'
_symmetry_Int_Tables_number 14
loop_
_symmetry_equiv_pos_site_id
_symmetry_equiv_pos_as_xyz
1 x,y,z
2 1/2-x,1/2+y,1/2-z
3 -x,-y,-z
4 -1/2+x,-1/2-y,-1/2+z
_cell_length_a 10.6265(6)
_cell_length_b 12.7146(7)
_cell_length_c 16.4031(8)
_cell_angle_alpha 90
_cell_angle_beta 99.524(2)
_cell_angle_gamma 90
_cell_formula_units_Z 4
loop_
_atom_type_symbol
_atom_type_radius_bond
C 0.68
H 0.23
N 0.68
O 0.68
loop_
_atom_site_label
_atom_site_type_symbol
_atom_site_fract_x
_atom_site_fract_y
_atom_site_fract_z
H1 H 0.018(2) 1.0450(18) 0.1578(13)
O1 O 0.02902(16) 0.61978(10) 0.21324(9)
O2 O -0.06469(18) 0.49464(12) 0.27901(11)
N1 N 0.04764(16) 0.99163(12) 0.18907(10)
C1 C -0.04007(18) 0.97408(14) 0.24813(11)
H2 H -0.12570 0.96080 0.21720
N2 N -0.01386(18) 0.69687(13) 0.26740(11)
C2 C 0.05405(18) 0.44768(15) 0.17305(12)
C3 C 0.0019(2) 0.87831(15) 0.30293(12)
H3 H 0.08280 0.89740 0.33780
C4 C 0.05728(18) 0.90311(15) 0.13409(11)
H4 H -0.02820 0.88570 0.10470
C5 C 0.14265(18) 0.92717(15) 0.07160(11)
C6 C 0.0297(2) 0.78632(15) 0.25099(12)
C7 C -0.04334(19) 1.07383(15) 0.29832(11)
C8 C -0.00232(19) 0.51999(15) 0.22822(12)
C9 C 0.10773(19) 0.48317(16) 0.10675(12)
H5 H 0.10560 0.55470 0.09460
C10 C 0.1646(2) 0.41475(18) 0.05806(13)
C11 C -0.1543(2) 1.13041(16) 0.29641(12)
H6 H -0.22950 1.10700 0.26430
C12 C 0.1099(2) 0.80955(16) 0.18605(14)
H7 H 0.11150 0.74850 0.15080
H8 H 0.19680 0.82430 0.21230
C13 C -0.1543(3) 1.22239(18) 0.34226(15)
H9 H -0.22940 1.26070 0.34000
C14 C -0.0451(3) 1.25700(18) 0.39050(15)
H10 H -0.04630 1.31770 0.42190
C15 C 0.0669(2) 1.11168(17) 0.34612(14)
H11 H 0.14330 1.07560 0.34710
C16 C 0.0654(3) 1.20238(19) 0.39244(15)
H12 H 0.14000 1.22610 0.42500
C17 C 0.2413(2) 0.99896(18) 0.08749(15)
H13 H 0.25420 1.03650 0.13680
C18 C -0.0920(3) 0.85368(19) 0.36119(16)
H14 H -0.10440 0.91530 0.39280
H15 H -0.05870 0.79790 0.39790
H16 H -0.17210 0.83240 0.32950
C19 C 0.1156(3) 0.27329(18) 0.14423(17)
H17 H 0.11930 0.20190 0.15690
C20 C 0.0567(2) 0.34152(16) 0.19135(15)
H18 H 0.01920 0.31640 0.23490
C21 C 0.1689(2) 0.30943(19) 0.07893(16)
H19 H 0.20860 0.26220 0.04810
C22 C 0.1289(2) 0.87079(19) -0.00125(13)
H20 H 0.06400 0.82130 -0.01260
C23 C 0.2102(3) 0.8869(2) -0.05753(14)
H21 H 0.19980 0.84790 -0.10620
C24 C 0.3212(3) 1.0150(2) 0.0298(2)
H22 H 0.38640 1.06440 0.04050
C25 C 0.3058(3) 0.9595(3) -0.04244(18)
H23 H 0.35970 0.97110 -0.08080
C26 C 0.2245(3) 0.4555(3) -0.01269(15)
H24 H 0.25960 0.39780 -0.03930
H25 H 0.29120 0.50430 0.00790
H26 H 0.16090 0.49040 -0.05180
#END
