
#######################################################################
#
#                 Cambridge Crystallographic Data Centre
#                                CCDC
#
#######################################################################
#
# If this CIF has been generated from an entry in the Cambridge
# Structural Database, then it will include bibliographic, chemical,
# crystal, experimental, refinement or atomic coordinate data resulting
# from the CCDC's data processing and validation procedures.
#
#######################################################################

data_CSD_CIF_LOSDUT
_audit_creation_date 2009-06-04
_audit_creation_method CSD-ConQuest-V1
_database_code_CSD LOSDUT
_database_code_depnum_ccdc_archive 'CCDC 731305'
_chemical_formula_sum 'C9 H10 N2 O4'
_chemical_formula_moiety
;
C9 H10 N2 O4
;
_journal_coeditor_code "IUCr SJ2618"
_journal_coden_Cambridge 1370
_journal_volume 65
_journal_year 2009
_journal_page_first o1079
_journal_name_full 'Acta Crystallogr.,Sect.E:Struct.Rep.Online '
loop_
_publ_author_name
"S.N.N.Babu"
"A.S.A.Rahim"
"S.A.Hamid"
"C.K.Quah"
"H.-K.Fun"
_chemical_name_systematic
;
4-Ethylamino-3-nitrobenzoic acid
;
_cell_volume    454.491
_exptl_crystal_colour 'yellow'
_exptl_crystal_density_diffrn 1.536
_exptl_crystal_description 'needle'
_exptl_crystal_preparation 'ethyl acetate'
_diffrn_ambient_temperature 120
#These two values have been output from a single CSD field.
_refine_ls_R_factor_gt 0.0414
_refine_ls_wR_factor_gt 0.0414
_symmetry_cell_setting triclinic
_symmetry_space_group_name_H-M 'P -1'
_symmetry_Int_Tables_number 2
loop_
_symmetry_equiv_pos_site_id
_symmetry_equiv_pos_as_xyz
1 x,y,z
2 -x,-y,-z
_cell_length_a 3.9354(4)
_cell_length_b 8.4741(9)
_cell_length_c 13.8106(15)
_cell_angle_alpha 89.256(5)
_cell_angle_beta 84.730(4)
_cell_angle_gamma 82.304(4)
_cell_formula_units_Z 2
loop_
_atom_type_symbol
_atom_type_radius_bond
C 0.68
H 0.23
N 0.68
O 0.68
loop_
_atom_site_label
_atom_site_type_symbol
_atom_site_fract_x
_atom_site_fract_y
_atom_site_fract_z
O1 O -0.2816(3) 0.09151(12) 0.95790(7)
O2 O 0.0296(3) 0.28327(12) 0.93767(7)
O3 O 0.3986(3) 0.31078(13) 0.49289(7)
O4 O 0.3740(3) 0.47173(12) 0.62170(8)
H1 H 0.44930 0.53040 0.57970
N1 N -0.0961(3) 0.17166(13) 0.90601(8)
N2 N -0.2305(3) -0.12944(13) 0.82002(8)
C1 C 0.1130(3) 0.24569(15) 0.74460(9)
H2 H 0.15010 0.34130 0.77140
C2 C -0.0252(3) 0.13158(15) 0.80371(9)
C3 C -0.0921(3) -0.01649(14) 0.76646(9)
C4 C 0.0068(3) -0.04224(15) 0.66528(9)
H3 H -0.02350 -0.13810 0.63740
C5 C 0.1453(4) 0.07084(16) 0.60827(9)
H4 H 0.20770 0.04960 0.54270
C6 C 0.1956(3) 0.21795(15) 0.64634(9)
C7 C 0.3311(4) 0.34040(16) 0.58304(10)
C8 C -0.2853(4) -0.28286(15) 0.78103(10)
H5 H -0.06880 -0.33750 0.75160
H6 H -0.44470 -0.26570 0.73120
C9 C -0.4293(4) -0.38448(16) 0.8618(1)
H7 H -0.46840 -0.48410 0.83550
H8 H -0.64280 -0.32990 0.89100
H9 H -0.26800 -0.40380 0.91010
H10 H -0.299(5) -0.109(2) 0.8778(14)
#END
