
#######################################################################
#
#                 Cambridge Crystallographic Data Centre
#                                CCDC
#
#######################################################################
#
# If this CIF has been generated from an entry in the Cambridge
# Structural Database, then it will include bibliographic, chemical,
# crystal, experimental, refinement or atomic coordinate data resulting
# from the CCDC's data processing and validation procedures.
#
#######################################################################

data_CSD_CIF_LOVHOV
_audit_creation_date 2015-01-06
_audit_creation_method CSD-ConQuest-V1
_database_code_CSD LOVHOV
_database_code_depnum_ccdc_archive 'CCDC 1023757'
_chemical_formula_sum 'C29 H35 N1 O4'
_chemical_formula_moiety
;
C29 H35 N1 O4
;
_journal_coden_Cambridge 119
_journal_volume 1085
_journal_year 2015
_journal_page_first 207
_journal_name_full 'J.Mol.Struct. '
loop_
_publ_author_name
"E.Babjakova"
"L.Dastychova"
"B.Hanulikova"
"I.Kuritka"
"M.Necas"
"H.Vaskova"
"R.Vicha"
_chemical_name_systematic
;
1,3-bis(adamantan-1-yl)-2-(2-nitrophenyl)propane-1,3-dione
;
_cell_volume   1181.597
_exptl_crystal_density_diffrn 1.297
_exptl_crystal_description 'block'
_diffrn_ambient_temperature 120
_refine_special_details
;
C15A,C16A,C17A,C18A,C19A,C20A,C21A,C22A,C23A and C15B, 
C16B,C17B,C18B,C19B,C20B,C21B,C22B,C23B disordered over two sites with 
occupancies 0.648:0.352; N1A,O3A,O4A and N1B,O3B,O4B disordered over two 
;
#These two values have been output from a single CSD field.
_refine_ls_R_factor_gt 0.0367
_refine_ls_wR_factor_gt 0.0367
_symmetry_cell_setting triclinic
_symmetry_space_group_name_H-M 'P -1'
_symmetry_Int_Tables_number 2
loop_
_symmetry_equiv_pos_site_id
_symmetry_equiv_pos_as_xyz
1 x,y,z
2 -x,-y,-z
_cell_length_a 10.4669(5)
_cell_length_b 10.9940(6)
_cell_length_c 11.9657(7)
_cell_angle_alpha 85.145(5)
_cell_angle_beta 65.611(6)
_cell_angle_gamma 70.722(5)
_cell_formula_units_Z 2
loop_
_atom_type_symbol
_atom_type_radius_bond
C 0.68
H 0.23
N 0.68
O 0.68
loop_
_atom_site_label
_atom_site_type_symbol
_atom_site_fract_x
_atom_site_fract_y
_atom_site_fract_z
O1 O 0.11139(13) 0.44515(11) 0.57592(10)
O2 O -0.04253(14) 0.23651(11) 0.70637(10)
N1 N 0.2958(8) -0.0703(9) 0.4689(8)
O3 O 0.3709(11) -0.1738(9) 0.4096(7)
O4 O 0.2955(3) -0.04714(19) 0.5683(2)
C1 C 0.0863(2) 0.22634(15) 0.68156(15)
C2 C 0.19565(18) 0.21611(15) 0.54647(14)
H1 H 0.29620 0.15860 0.53790
C3 C 0.20338(19) 0.35150(18) 0.50788(16)
C4 C 0.32559(18) 0.36928(16) 0.38833(15)
C5 C 0.4548(2) 0.24515(18) 0.33139(16)
H2 H 0.41840 0.18090 0.31180
H3 H 0.49880 0.20850 0.39090
C6 C 0.5734(2) 0.27348(19) 0.21356(18)
H4 H 0.65740 0.19160 0.17720
C7 C 0.5065(2) 0.32715(17) 0.12150(16)
H5 H 0.58300 0.34400 0.04480
H6 H 0.46970 0.26360 0.10120
C8 C 0.37969(19) 0.45132(17) 0.17654(15)
H7 H 0.33570 0.48680 0.11590
C9 C 0.4363(2) 0.54866(17) 0.20605(16)
H8 H 0.35360 0.63030 0.24090
H9 H 0.51220 0.56720 0.13000
C10 C 0.5035(2) 0.4952(2) 0.29821(17)
H10 H 0.54140 0.55960 0.31740
C11 C 0.3859(2) 0.46866(19) 0.41548(16)
H11 H 0.30350 0.55010 0.45170
H12 H 0.42930 0.43510 0.47590
C12 C 0.26061(18) 0.42414(16) 0.29369(15)
H13 H 0.22240 0.36150 0.27370
H14 H 0.17680 0.50500 0.32880
C13 C 0.6309(2) 0.3703(2) 0.24365(19)
H15 H 0.70870 0.38730 0.16810
H16 H 0.67520 0.33510 0.30320
C14 C 0.1385(2) 0.21972(18) 0.78440(15)
C15 C 0.1365(3) 0.0969(3) 0.8441(3)
H17 H 0.20890 0.02350 0.78470
H18 H 0.03670 0.08870 0.87230
C16 C 0.1769(6) 0.0947(4) 0.9549(4)
H19 H 0.17680 0.01150 0.99570
C17 C 0.0628(7) 0.2066(5) 1.0450(5)
H20 H -0.03680 0.19790 1.07300
H21 H 0.08550 0.20480 1.11780
C18 C 0.0622(4) 0.3335(4) 0.9866(3)
H22 H -0.01240 0.40600 1.04820
C19 C 0.2147(6) 0.3469(5) 0.9426(5)
H23 H 0.24050 0.34630 1.01350
H24 H 0.21430 0.43020 0.90390
C20 C 0.3294(5) 0.2365(4) 0.8502(4)
H25 H 0.42980 0.24600 0.82130
C21 C 0.2884(3) 0.2394(3) 0.7405(2)
H26 H 0.28410 0.32350 0.70260
H27 H 0.36490 0.17040 0.67780
C22 C 0.3312(5) 0.1073(4) 0.9080(4)
H28 H 0.36150 0.10160 0.97700
H29 H 0.40390 0.03590 0.84620
C23 C 0.0201(3) 0.3369(3) 0.8778(2)
H30 H 0.01980 0.41930 0.83740
H31 H -0.08020 0.32970 0.90660
C24 C 0.14707(19) 0.15959(17) 0.46612(15)
C25 C 0.03690(19) 0.23957(17) 0.43330(15)
H32 H -0.00340 0.32860 0.45930
C26 C -0.0166(2) 0.19255(19) 0.36275(16)
H33 H -0.09310 0.24940 0.34190
C27 C 0.0410(2) 0.06389(19) 0.32323(16)
H34 H 0.00530 0.03260 0.27420
C28 C 0.1498(2) -0.01866(18) 0.35461(16)
H35 H 0.18970 -0.10750 0.32810
C29 C 0.2007(2) 0.02917(17) 0.42559(16)
N2? N 0.3301(17) -0.0631(16) 0.4530(13)
O5? O 0.3411(18) -0.1768(14) 0.4464(13)
O6? O 0.4178(5) -0.0279(3) 0.4744(4)
C30? C 0.2813(6) 0.0869(5) 0.7617(4)
H36? H 0.25450 0.01170 0.75070
H37? H 0.36580 0.09210 0.68520
C31? C 0.330(1) 0.0657(8) 0.8703(6)
H38? H 0.41980 -0.01270 0.85150
C32? C 0.2038(9) 0.0503(7) 0.9859(7)
H39? H 0.17940 -0.02610 0.97430
H40? H 0.23450 0.03600 1.05520
C33? C 0.0693(13) 0.1684(9) 1.0158(9)
H41? H -0.01300 0.15760 1.09290
C34? C 0.1046(7) 0.2888(6) 1.0313(6)
H42? H 0.13340 0.28040 1.10140
H43? H 0.01530 0.36590 1.04930
C35? C 0.2336(13) 0.3056(8) 0.9118(8)
H44? H 0.25890 0.38250 0.92340
C36? C 0.1826(6) 0.3252(5) 0.8048(5)
H45? H 0.09790 0.40630 0.82290
H46? H 0.26460 0.33480 0.72840
C37? C 0.3655(8) 0.1862(7) 0.8858(7)
H47? H 0.39740 0.17620 0.95420
H48? H 0.44860 0.19510 0.80980
C38? C 0.0187(5) 0.1931(5) 0.9089(4)
H49? H -0.07350 0.26820 0.93320
H50? H -0.00480 0.11710 0.89480
#END
