
#######################################################################
#
#                 Cambridge Crystallographic Data Centre
#                                CCDC
#
#######################################################################
#
# If this CIF has been generated from an entry in the Cambridge
# Structural Database, then it will include bibliographic, chemical,
# crystal, experimental, refinement or atomic coordinate data resulting
# from the CCDC's data processing and validation procedures.
#
#######################################################################

data_CSD_CIF_LOVJEN01
_audit_creation_date 2018-05-22
_audit_creation_method CSD-ConQuest-V1
_database_code_CSD LOVJEN01
_database_code_depnum_ccdc_archive 'CCDC 1810764'
_chemical_formula_sum 'C14 H10 N2 O1'
_chemical_formula_moiety
;
C14 H10 N2 O1
;
_journal_coden_Cambridge 1366
_journal_volume 360
_journal_year 2018
_journal_page_first 1938
_journal_name_full 'Adv.Synth.Catal. '
loop_
_publ_author_name
"Lingjuan Zhang"
"Juanjuan Li"
"Zhongyan Hu"
"Jinhuan Dong"
"Xian-Ming Zhang"
"Xianxiu Xu"
_chemical_name_systematic
;
4-Phenylquinazoline 3-oxide
;
_cell_volume   1049.758
_exptl_crystal_colour 'yellow'
_exptl_crystal_density_diffrn 1.406
_exptl_crystal_description 'needle'
_diffrn_ambient_temperature 293
#These two values have been output from a single CSD field.
_refine_ls_R_factor_gt 0.0481
_refine_ls_wR_factor_gt 0.0481
_symmetry_cell_setting monoclinic
_symmetry_space_group_name_H-M 'P 21/c'
_symmetry_Int_Tables_number 14
loop_
_symmetry_equiv_pos_site_id
_symmetry_equiv_pos_as_xyz
1 x,y,z
2 -x,1/2+y,1/2-z
3 -x,-y,-z
4 x,-1/2-y,-1/2+z
_cell_length_a 5.7450(4)
_cell_length_b 15.8970(14)
_cell_length_c 11.7260(6)
_cell_angle_alpha 90
_cell_angle_beta 101.408(6)
_cell_angle_gamma 90
_cell_formula_units_Z 4
loop_
_atom_type_symbol
_atom_type_radius_bond
C 0.68
H 0.23
N 0.68
O 0.68
loop_
_atom_site_label
_atom_site_type_symbol
_atom_site_fract_x
_atom_site_fract_y
_atom_site_fract_z
C1 C 0.6714(4) 0.39320(14) 0.15447(17)
H1 H 0.61440 0.35770 0.09220
C2 C 0.8855(4) 0.37654(14) 0.22601(18)
H2 H 0.97350 0.32990 0.21200
C3 C 0.9722(4) 0.42972(14) 0.32039(17)
H3 H 1.11860 0.41820 0.36780
C4 C 0.8448(4) 0.49830(14) 0.34389(17)
H4 H 0.90340 0.53230 0.40770
C5 C 0.6235(3) 0.51732(13) 0.27084(16)
C6 C 0.5377(4) 0.46360(13) 0.17463(16)
C7 C 0.2022(4) 0.54308(14) 0.12488(16)
H5 H 0.05680 0.55300 0.07570
C8 C 0.4818(3) 0.58744(13) 0.29131(15)
C9 C 0.5474(3) 0.64700(13) 0.38980(15)
C10 C 0.7573(3) 0.69361(13) 0.40241(16)
H6 H 0.85540 0.68790 0.34860
C11 C 0.8186(4) 0.74849(14) 0.49553(16)
H7 H 0.95750 0.77990 0.50360
C12 C 0.6740(4) 0.75684(14) 0.57664(16)
H8 H 0.71590 0.79390 0.63870
C13 C 0.4674(4) 0.71014(14) 0.56546(16)
H9 H 0.37180 0.71520 0.62050
C14 C 0.4033(4) 0.65578(14) 0.47193(16)
H10 H 0.26330 0.62500 0.46390
N1 N 0.3222(3) 0.47939(12) 0.10200(13)
N2 N 0.2719(3) 0.59887(11) 0.21777(13)
O1 O 0.1312(2) 0.66089(10) 0.22665(12)
#END
