
#######################################################################
#
#                 Cambridge Crystallographic Data Centre
#                                CCDC
#
#######################################################################
#
# If this CIF has been generated from an entry in the Cambridge
# Structural Database, then it will include bibliographic, chemical,
# crystal, experimental, refinement or atomic coordinate data resulting
# from the CCDC's data processing and validation procedures.
#
#######################################################################

data_CSD_CIF_LOVYAW
_audit_creation_date 2001-02-12
_audit_creation_method CSD-ConQuest-V1
_database_code_CSD LOVYAW
_database_code_depnum_ccdc_archive 'CCDC 154616'
_database_code_depnum_ccdc_journal 188/275
_chemical_formula_sum 'C27 H15 N3 O9'
_chemical_formula_moiety
;
C27 H15 N3 O9
;
_journal_coden_Cambridge 188
_journal_year 2000
_journal_page_first 2458
_journal_name_full 'J.Chem.Soc.,Perkin Trans.2 '
loop_
_publ_author_name
"F.C.Pigge"
"F.Ghasedi"
"Zhanmiao Zheng"
"N.P.Rath"
"G.Nichols"
"J.S.Chickos"
_chemical_name_systematic
;
1,3,5-tris(4-Nitrobenzoyl)benzene
;
_cell_volume   2418.373
_exptl_crystal_colour 'yellow'
_exptl_crystal_density_diffrn 1.443
_exptl_crystal_description 'irregular'
_exptl_crystal_preparation 'acetonitrile'
_diffrn_ambient_temperature 218
#These two values have been output from a single CSD field.
_refine_ls_R_factor_gt 0.04
_refine_ls_wR_factor_gt 0.04
_symmetry_cell_setting monoclinic
_symmetry_space_group_name_H-M 'P 21/n'
_symmetry_Int_Tables_number 14
loop_
_symmetry_equiv_pos_site_id
_symmetry_equiv_pos_as_xyz
1 x,y,z
2 1/2+x,1/2-y,1/2+z
3 -x,-y,-z
4 -1/2-x,-1/2+y,-1/2-z
_cell_length_a 13.3520(2)
_cell_length_b 12.0843(2)
_cell_length_c 15.0708(2)
_cell_angle_alpha 90
_cell_angle_beta 95.994(1)
_cell_angle_gamma 90
_cell_formula_units_Z 4
loop_
_atom_type_symbol
_atom_type_radius_bond
C 0.68
H 0.23
N 0.68
O 0.68
loop_
_atom_site_label
_atom_site_type_symbol
_atom_site_fract_x
_atom_site_fract_y
_atom_site_fract_z
O1 O 0.79561(10) 0.22442(10) 0.51388(8)
O2 O 0.56366(10) 0.35709(9) 0.14555(7)
O3 O 0.68418(8) -0.11919(9) 0.21486(8)
O4 O 0.64122(11) -0.25928(13) 0.73828(10)
O5 O 0.79846(11) -0.24066(14) 0.77964(11)
O6 O 0.45546(10) 0.75334(10) 0.47212(8)
O7 O 0.52219(10) 0.84355(9) 0.36985(9)
O8 O 0.1693(1) -0.14434(15) 0.02638(10)
O9 O 0.25179(12) -0.24570(16) -0.05587(11)
N1 N 0.72174(11) -0.21388(12) 0.73408(9)
N2 N 0.49661(10) 0.75706(11) 0.40324(9)
N3 N 0.24797(11) -0.17932(14) 0.00367(10)
C1 C 0.68632(11) 0.14424(12) 0.39835(9)
C2 C 0.6715(1) 0.04707(13) 0.34979(10)
H1 H 0.69450 -0.02060 0.37510
C3 C 0.62223(11) 0.04984(12) 0.26308(10)
C4 C 0.58869(11) 0.14972(12) 0.22603(10)
H2 H 0.55450 0.15120 0.16830
C5 C 0.60524(11) 0.24822(12) 0.27375(10)
C6 C 0.65420(11) 0.24525(12) 0.35979(10)
H3 H 0.66580 0.31130 0.39220
C7 C 0.74356(11) 0.14548(13) 0.48982(10)
C8 C 0.73677(11) 0.04795(13) 0.55035(10)
C9 C 0.82005(12) 0.02219(15) 0.61033(11)
H4 H 0.87950 0.06400 0.61060
C10 C 0.81562(13) -0.06442(15) 0.66939(11)
H5 H 0.87220 -0.08350 0.70890
C11 C 0.72680(12) -0.12262(13) 0.66954(10)
C12 C 0.64264(11) -0.09878(13) 0.61138(10)
H6 H 0.58270 -0.13930 0.61290
C13 C 0.64906(11) -0.01369(13) 0.55098(10)
H7 H 0.59330 0.00270 0.50970
C14 C 0.57517(11) 0.35380(12) 0.22652(10)
C15 C 0.55794(11) 0.45659(12) 0.27783(9)
C16 C 0.50211(11) 0.45648(13) 0.35118(10)
H8 H 0.47970 0.38920 0.37350
C17 C 0.47970(11) 0.55547(13) 0.39118(10)
H9 H 0.44000 0.55650 0.43910
C18 C 0.51686(11) 0.65231(12) 0.35911(10)
C19 C 0.57401(12) 0.65490(13) 0.28768(10)
H10 H 0.59940 0.72200 0.26780
C20 C 0.59260(11) 0.55604(13) 0.24643(10)
H11 H 0.62920 0.55610 0.19640
C21 C 0.61377(11) -0.05481(12) 0.21033(10)
C22 C 0.51778(11) -0.08049(13) 0.15317(10)
C23 C 0.42624(13) -0.03681(15) 0.17212(12)
H12 H 0.42450 0.01440 0.21890
C24 C 0.33768(13) -0.06788(16) 0.12285(12)
H13 H 0.27550 -0.03850 0.13540
C25 C 0.34282(12) -0.14306(14) 0.05487(10)
C26 C 0.43239(13) -0.18828(14) 0.03378(11)
H14 H 0.43350 -0.23920 -0.01330
C27 C 0.52022(12) -0.15647(14) 0.08384(10)
H15 H 0.58210 -0.18630 0.07110
#END
