
#######################################################################
#
#                 Cambridge Crystallographic Data Centre
#                                CCDC
#
#######################################################################
#
# If this CIF has been generated from an entry in the Cambridge
# Structural Database, then it will include bibliographic, chemical,
# crystal, experimental, refinement or atomic coordinate data resulting
# from the CCDC's data processing and validation procedures.
#
#######################################################################

data_CSD_CIF_LOXNUH
_audit_creation_date 2002-11-13
_audit_creation_method CSD-ConQuest-V1
_database_code_CSD LOXNUH
_chemical_formula_sum 'C18 H19 N1 O3'
_chemical_formula_moiety
;
C18 H19 N1 O3
;
_journal_coden_Cambridge 35
_journal_volume 67
_journal_year 2002
_journal_page_first 3317
_journal_name_full 'J.Org.Chem. '
loop_
_publ_author_name
"Qian Zhao"
"Fusen Han"
"D.L.Romero"
_chemical_name_systematic
;
(2R)-2-((3aR,9bS)-3a,9b-Dihydro-3H-chromeno(4,3-c)isoxazol-1(4H)-yl)-2-phenyle
thanol
;
_cell_volume   1444.837
_exptl_special_details
;
published dx is 1.422

;
_exptl_crystal_preparation 'dichloromethane/hexane'
_diffrn_ambient_temperature 173
#These two values have been output from a single CSD field.
_refine_ls_R_factor_gt 0.0443
_refine_ls_wR_factor_gt 0.0443
_symmetry_cell_setting orthorhombic
_symmetry_space_group_name_H-M 'P 21 21 21'
_symmetry_Int_Tables_number 19
loop_
_symmetry_equiv_pos_site_id
_symmetry_equiv_pos_as_xyz
1 x,y,z
2 1/2-x,-y,1/2+z
3 1/2+x,1/2-y,-z
4 -x,1/2+y,1/2-z
_cell_length_a 5.2023(1)
_cell_length_b 13.8595(2)
_cell_length_c 20.0390(4)
_cell_angle_alpha 90
_cell_angle_beta 90
_cell_angle_gamma 90
_cell_formula_units_Z 4
loop_
_atom_type_symbol
_atom_type_radius_bond
C 0.68
H 0.23
N 0.68
O 0.68
loop_
_atom_site_label
_atom_site_type_symbol
_atom_site_fract_x
_atom_site_fract_y
_atom_site_fract_z
O1 O 0.1265(3) 0.1372(1) 0.2732(1)
O2 O 0.8535(3) 0.3404(1) 0.3330(1)
O3 O 0.0261(3) 0.1122(1) 0.0966(1)
N1 N 0.2686(3) 0.2265(1) 0.2646(1)
C1 C 0.4912(5) 0.0982(2) 0.4999(1)
C2 C 0.3028(4) 0.2032(2) 0.4173(1)
C3 C -0.0196(5) 0.2105(2) 0.1038(1)
C4 C -0.1440(5) 0.4038(2) 0.1180(1)
C5 C -0.2075(4) 0.2508(1) 0.0635(1)
C6 C 0.0462(4) 0.3625(1) 0.1565(1)
C7 C 0.4896(4) 0.1761(1) 0.3716(1)
C8 C 0.3839(4) 0.1164(1) 0.1765(1)
C9 C 0.6748(4) 0.0695(2) 0.4541(1)
C10 C 0.2540(4) 0.0639(2) 0.2346(1)
C11 C 0.3050(4) 0.1636(2) 0.4810(1)
C12 C 0.3294(4) 0.2236(1) 0.1920(1)
C13 C 0.5158(4) 0.2237(1) 0.3038(1)
C14 C 0.6754(4) 0.1093(1) 0.3904(1)
C15 C 0.1126(4) 0.2657(1) 0.1510(1)
C16 C 0.6000(4) 0.3301(2) 0.3095(1)
C17 C -0.2701(4) 0.3474(2) 0.0706(1)
C18 C 0.2885(14) 0.0867(1) 0.1083(1)
H1 H 0.88980 0.39790 0.33530
H2 H 0.49330 0.07360 0.54300
H3 H 0.17690 0.24750 0.40530
H4 H -0.18760 0.46840 0.12360
H5 H -0.29120 0.21320 0.03170
H6 H 0.13310 0.40080 0.18720
H7 H 0.56960 0.10510 0.17880
H8 H 0.79740 0.02380 0.46590
H9 H 0.13070 0.01710 0.21810
H10 H 0.38080 0.03050 0.26160
H11 H 0.17880 0.18160 0.51150
H12 H 0.48590 0.26110 0.18390
H13 H 0.64490 0.18850 0.27780
H14 H 0.80150 0.09100 0.36000
H15 H 0.58600 0.36040 0.26610
H16 H 0.48420 0.36350 0.33960
H17 H -0.39640 0.37470 0.04380
H18 H 0.39510 0.11700 0.07460
H19 H 0.30710 0.01740 0.10360
#END
