
#######################################################################
#
#                 Cambridge Crystallographic Data Centre
#                                CCDC
#
#######################################################################
#
# If this CIF has been generated from an entry in the Cambridge
# Structural Database, then it will include bibliographic, chemical,
# crystal, experimental, refinement or atomic coordinate data resulting
# from the CCDC's data processing and validation procedures.
#
#######################################################################

data_CSD_CIF_LOXNER
_audit_creation_date 2002-11-13
_audit_creation_method CSD-ConQuest-V1
_database_code_CSD LOXNER
_chemical_formula_sum 'C29 H27 N1 O3'
_chemical_formula_moiety
;
C29 H27 N1 O3
;
_journal_coden_Cambridge 35
_journal_volume 67
_journal_year 2002
_journal_page_first 3317
_journal_name_full 'J.Org.Chem. '
loop_
_publ_author_name
"Qian Zhao"
"Fusen Han"
"D.L.Romero"
_chemical_name_systematic
;
(3aS,11cR)-1-((1R)-2-(Benzyloxy)-1-phenylethyl)-1,3a,4,11c-tetrahydro-3H-benzo
(5,6)chromeno(4,3-c)isoxazole
;
_cell_volume   1132.037
_exptl_special_details
;
published dx is 1.057

;
_exptl_crystal_preparation 'dichloromethane/hexanes'
_diffrn_ambient_temperature 173
#These two values have been output from a single CSD field.
_refine_ls_R_factor_gt 0.0676
_refine_ls_wR_factor_gt 0.0676
_symmetry_cell_setting monoclinic
_symmetry_space_group_name_H-M 'P 21'
_symmetry_Int_Tables_number 4
loop_
_symmetry_equiv_pos_site_id
_symmetry_equiv_pos_as_xyz
1 x,y,z
2 -x,1/2+y,-z
_cell_length_a 13.995(1)
_cell_length_b 5.868(1)
_cell_length_c 14.572(1)
_cell_angle_alpha 90
_cell_angle_beta 108.92(1)
_cell_angle_gamma 90
_cell_formula_units_Z 2
loop_
_atom_type_symbol
_atom_type_radius_bond
C 0.68
H 0.23
N 0.68
O 0.68
loop_
_atom_site_label
_atom_site_type_symbol
_atom_site_fract_x
_atom_site_fract_y
_atom_site_fract_z
O1 O 0.4720(2) 0.3443(7) 0.7559(2)
O2 O 0.3759(2) 0.0160(8) 0.9551(2)
O3 O 0.2480(3) -0.0235(10) 1.1049(3)
N1 N 0.2995(3) 0.1368(9) 0.8797(3)
C1 C 0.3483(3) 0.3095(11) 0.8352(3)
C2 C 0.2359(3) 0.2365(12) 0.9348(3)
C3 C 0.4361(3) 0.1951(12) 0.8146(3)
C4 C 0.2680(3) 0.4005(11) 0.7446(3)
C5 C 0.5519(3) 0.2434(12) 0.7310(3)
C6 C 0.2334(3) 0.2656(13) 0.6633(3)
C7 C 0.1589(3) 0.0618(11) 0.9379(4)
C8 C 0.3112(3) 0.2956(13) 1.0369(3)
C9 C 0.5355(3) 0.6091(12) 0.6324(3)
C10 C 0.2258(4) 0.6141(12) 0.7439(4)
C11 C 0.0725(4) 0.0159(12) 0.8534(4)
C12 C 0.0424(3) 0.1650(13) 0.7733(3)
C13 C 0.5842(3) 0.4031(11) 0.6644(3)
C14 C 0.6650(3) 0.3377(13) 0.6339(3)
C15 C 0.0117(4) -0.1774(15) 0.8527(5)
C16 C 0.6455(4) 0.6771(14) 0.5384(4)
C17 C -0.0756(4) -0.2118(19) 0.7653(7)
C18 C 0.6941(4) 0.4748(15) 0.5711(4)
C19 C 0.1752(4) -0.0712(14) 1.0179(5)
C20 C 0.4074(4) 0.1680(13) 1.0378(4)
C21 C 0.1556(4) 0.3384(13) 0.5830(4)
C22 C 0.5670(3) 0.7436(12) 0.5700(3)
C23 C 0.1475(4) 0.6843(15) 0.6629(4)
C24 C -0.0425(4) 0.1217(15) 0.6951(4)
C25 C -0.1010(6) -0.0646(18) 0.6914(6)
C26 C 0.0400(6) -0.323(2) 0.9373(5)
C27 C 0.1149(5) -0.2632(18) 1.0158(5)
C28 C 0.2710(4) 0.2113(14) 1.1149(4)
C29 C 0.1126(5) 0.5435(15) 0.5820(4)
H1 H 0.37360 0.43480 0.88110
H2 H 0.20230 0.37510 0.90250
H3 H 0.48960 0.16360 0.87500
H4 H 0.41440 0.05190 0.78110
H5 H 0.52990 0.09920 0.69850
H6 H 0.60850 0.21430 0.78920
H7 H 0.26270 0.12370 0.66240
H8 H 0.32350 0.46020 1.04310
H9 H 0.48220 0.65560 0.65290
H10 H 0.24970 0.70990 0.79730
H11 H 0.08050 0.29490 0.77320
H12 H 0.69890 0.20190 0.65590
H13 H 0.66530 0.76800 0.49550
H14 H -0.11500 -0.34160 0.76110
H15 H 0.74750 0.42990 0.55040
H16 H 0.45820 0.27390 1.03170
H17 H 0.43510 0.08250 1.09760
H18 H 0.13280 0.24430 0.52890
H19 H 0.53470 0.88170 0.54890
H20 H 0.11820 0.82660 0.66260
H21 H -0.06030 0.22320 0.64330
H22 H -0.15830 -0.08960 0.63800
H23 H 0.00540 -0.45850 0.93660
H24 H 0.12800 -0.35180 1.07150
H25 H 0.32090 0.23860 1.17790
H26 H 0.21060 0.29610 1.11180
H27 H 0.05990 0.59080 0.52790
#END
