
#######################################################################
#
#                 Cambridge Crystallographic Data Centre
#                                CCDC
#
#######################################################################
#
# If this CIF has been generated from an entry in the Cambridge
# Structural Database, then it will include bibliographic, chemical,
# crystal, experimental, refinement or atomic coordinate data resulting
# from the CCDC's data processing and validation procedures.
#
#######################################################################

data_CSD_CIF_LOYXAA
_audit_creation_date 2015-01-09
_audit_creation_method CSD-ConQuest-V1
_database_code_CSD LOYXAA
_database_code_depnum_ccdc_archive 'CCDC 1042859'
_chemical_formula_sum 'C9 H6 N2 O2'
_chemical_formula_moiety
;
C9 H6 N2 O2
;
_journal_coden_Cambridge 1078
_journal_year 2015
_journal_name_full 'CSD Communication(Private Communication) '
loop_
_publ_author_name
"G.W.Horn"
"C.Hansch"
"S.F.Watkins"
"F.R.Fronczek"
_chemical_name_systematic
;
5-Nitroisoquinoline monohydrate
;
_cell_volume    841.984
_exptl_crystal_colour 'yellow'
_exptl_crystal_density_diffrn 1.516
_exptl_crystal_description 'lath'
_exptl_crystal_preparation 'ethanol/water'
_diffrn_ambient_temperature 110
_refine_special_details
;
The SQUEEZE/PLATON program was used to model the water molecule.

;
#These two values have been output from a single CSD field.
_refine_ls_R_factor_gt 0.0491
_refine_ls_wR_factor_gt 0.0491
_symmetry_cell_setting monoclinic
_symmetry_space_group_name_H-M 'P 21/n'
_symmetry_Int_Tables_number 14
loop_
_symmetry_equiv_pos_site_id
_symmetry_equiv_pos_as_xyz
1 x,y,z
2 1/2-x,1/2+y,1/2-z
3 -x,-y,-z
4 -1/2+x,-1/2-y,-1/2+z
_cell_length_a 3.6912(3)
_cell_length_b 14.5828(8)
_cell_length_c 15.6660(9)
_cell_angle_alpha 90
_cell_angle_beta 93.164(3)
_cell_angle_gamma 90
_cell_formula_units_Z 4
loop_
_atom_type_symbol
_atom_type_radius_bond
C 0.68
H 0.23
N 0.68
O 0.68
loop_
_atom_site_label
_atom_site_type_symbol
_atom_site_fract_x
_atom_site_fract_y
_atom_site_fract_z
O1 O 0.8182(3) 0.38010(7) 0.45831(6)
O2 O 0.4707(3) 0.27099(8) 0.40920(7)
N1 N 0.6348(3) 0.46297(9) 0.77576(8)
N2 N 0.6093(3) 0.31585(8) 0.46886(7)
C1 C 0.5207(3) 0.37765(10) 0.77888(9)
H1 H 0.46040 0.35410 0.83280
C2 C 0.7173(3) 0.49541(9) 0.69751(9)
H2 H 0.79760 0.55710 0.69410
C3 C 0.6929(3) 0.44545(9) 0.62367(9)
H3 H 0.75470 0.47240 0.57120
C4 C 0.5743(3) 0.35300(8) 0.62596(8)
C5 C 0.5238(3) 0.29039(9) 0.55655(8)
C6 C 0.3959(3) 0.20292(9) 0.56660(9)
H4 H 0.36350 0.16360 0.51840
C7 C 0.3129(3) 0.17136(9) 0.64788(9)
H5 H 0.22710 0.11050 0.65470
C8 C 0.3553(3) 0.22778(9) 0.71675(9)
H6 H 0.29940 0.20610 0.77170
C9 C 0.4819(3) 0.31861(9) 0.70736(8)
#END
