
#######################################################################
#
#                 Cambridge Crystallographic Data Centre
#                                CCDC
#
#######################################################################
#
# If this CIF has been generated from an entry in the Cambridge
# Structural Database, then it will include bibliographic, chemical,
# crystal, experimental, refinement or atomic coordinate data resulting
# from the CCDC's data processing and validation procedures.
#
#######################################################################

data_CSD_CIF_LOZFIP
_audit_creation_date 2002-11-13
_audit_creation_method CSD-ConQuest-V1
_database_code_CSD LOZFIP
_database_code_depnum_ccdc_archive 'CCDC 193572'
_chemical_formula_sum 'C32 H39 N3 O6'
_chemical_formula_moiety
;
C32 H39 N3 O6
;
_journal_coden_Cambridge 241
_journal_year 2002
_journal_page_first 302
_journal_name_full 'Chem.Lett. '
loop_
_publ_author_name
"Xia Ding"
"Y.Ukaji"
"S.Fujinami"
"K.Inomata"
_chemical_name_systematic
;
3S,4R,5R-3-(Di-isopropylaminocarbonyl)-4-methoxycarbonyl-2-phenyl-5-((1-(1-nap
hthyl)ethyl)aminocarbonyloxymethyl)isoxazolidine
;
_chemical_melting_point 425.35
_cell_volume   1500.150
_exptl_crystal_colour 'colorless'
_exptl_crystal_density_diffrn 1.243
_exptl_special_details
;
Melting point range 425.35-426.95K
Absolute configuration

;
_exptl_crystal_description 'Prism'
_exptl_crystal_preparation 'ethyl acetate'
_diffrn_ambient_temperature 123.2
#These two values have been output from a single CSD field.
_refine_ls_R_factor_gt 0.0328
_refine_ls_wR_factor_gt 0.0328
_symmetry_cell_setting monoclinic
_symmetry_space_group_name_H-M 'P 21'
_symmetry_Int_Tables_number 4
loop_
_symmetry_equiv_pos_site_id
_symmetry_equiv_pos_as_xyz
1 x,y,z
2 -x,1/2+y,-z
_cell_length_a 10.851(1)
_cell_length_b 7.030(1)
_cell_length_c 20.246(1)
_cell_angle_alpha 90
_cell_angle_beta 103.751(1)
_cell_angle_gamma 90
_cell_formula_units_Z 2
loop_
_atom_type_symbol
_atom_type_radius_bond
C 0.68
H 0.23
N 0.68
O 0.68
loop_
_atom_site_label
_atom_site_type_symbol
_atom_site_fract_x
_atom_site_fract_y
_atom_site_fract_z
O1 O -1.1586(1) -0.7140(7) -0.38856(8)
O2 O -0.9903(1) -0.7504(7) -0.29820(8)
O3 O -0.8073(1) -0.5577(7) -0.19993(8)
O4 O -0.6173(2) -0.1540(7) -0.29924(8)
O5 O -0.7674(1) -0.2937(7) -0.38035(8)
O6 O -0.9641(1) -0.1548(7) -0.20243(7)
N1 N -1.1291(2) -0.9874(7) -0.32707(10)
N2 N -0.7073(2) -0.4350(7) -0.16506(10)
N3 N -0.8291(2) -0.1108(7) -0.10091(10)
C1 C -1.2178(2) -1.1486(7) -0.4367(1)
C2 C -1.3212(2) -1.1652(7) -0.4952(1)
C3 C -1.4478(2) -1.1125(7) -0.4951(1)
C4 C -1.5426(2) -1.1202(7) -0.5528(1)
C5 C -1.5177(2) -1.1816(7) -0.6142(1)
C6 C -1.3986(2) -1.2373(8) -0.6167(1)
C7 C -1.2968(2) -1.2292(7) -0.5574(1)
C8 C -1.1716(2) -1.2813(8) -0.5599(1)
C9 C -1.0746(2) -1.2648(8) -0.5041(1)
C10 C -1.0983(2) -1.1981(7) -0.4425(1)
C11 C -1.2414(2) -1.0785(7) -0.3698(1)
C12 C -1.2877(2) -1.2342(8) -0.3297(1)
C13 C -1.0996(2) -0.8097(7) -0.3423(1)
C14 C -0.9676(2) -0.5501(8) -0.3042(1)
C15 C -0.8313(2) -0.5082(7) -0.2717(1)
C16 C -0.7491(2) -0.2495(8) -0.1964(1)
C17 C -0.8027(2) -0.2941(7) -0.2721(1)
C18 C -0.5866(2) -0.5048(8) -0.1737(1)
C19 C -0.5727(2) -0.6935(8) -0.1905(1)
C20 C -0.4562(3) -0.7620(8) -0.1969(1)
C21 C -0.3517(3) -0.6448(8) -0.1854(1)
C22 C -0.3642(3) -0.4583(8) -0.1671(1)
C23 C -0.4808(2) -0.3863(8) -0.1607(1)
C24 C -0.7152(2) -0.2391(7) -0.3168(1)
C25 C -0.6956(2) -0.2486(7) -0.4306(1)
C26 C -0.8555(2) -0.1677(8) -0.1657(1)
C27 C -0.7017(2) -0.1250(8) -0.0537(1)
C28 C -0.7038(3) -0.2684(9) 0.0022(1)
C29 C -0.6526(3) 0.0677(9) -0.0265(2)
C30 C -0.9320(2) -0.0291(8) -0.0728(1)
C31 C -0.9785(3) 0.1616(8) -0.1059(2)
C32 C -1.0389(3) -0.1702(8) -0.0744(1)
H1 H -1.46650 -1.07120 -0.45390
H2 H -1.62620 -1.08360 -0.55140
H3 H -1.58430 -1.18450 -0.65430
H4 H -1.38320 -1.28190 -0.65830
H5 H -1.15570 -1.32830 -0.60110
H6 H -0.99090 -1.29790 -0.50640
H7 H -1.02930 -1.18700 -0.40380
H8 H -1.30630 -0.98490 -0.38030
H9 H -1.36190 -1.29100 -0.35700
H10 H -1.30670 -1.18100 -0.29010
H11 H -1.22340 -1.32800 -0.31670
H12 H -1.07800 -1.05280 -0.28930
H13 H -1.02070 -0.47960 -0.28210
H14 H -0.98550 -0.51570 -0.35090
H15 H -0.77680 -0.57770 -0.29330
H16 H -0.67990 -0.16340 -0.19060
H17 H -0.88050 -0.22760 -0.28720
H18 H -0.64370 -0.77670 -0.19770
H19 H -0.44840 -0.89090 -0.20930
H20 H -0.27200 -0.69190 -0.18990
H21 H -0.29210 -0.37710 -0.15880
H22 H -0.48780 -0.25780 -0.14760
H23 H -0.74030 -0.29350 -0.47390
H24 H -0.61490 -0.30830 -0.41820
H25 H -0.68490 -0.11480 -0.43240
H26 H -0.64530 -0.17250 -0.07910
H27 H -0.72900 -0.38910 -0.01760
H28 H -0.76230 -0.22790 0.02750
H29 H -0.62150 -0.27800 0.03150
H30 H -0.57070 0.05390 0.00290
H31 H -0.70860 0.12140 -0.00190
H32 H -0.64780 0.14890 -0.06330
H33 H -0.89560 -0.00310 -0.02620
H34 H -0.90980 0.24910 -0.09840
H35 H -1.04350 0.21020 -0.08640
H36 H -1.01100 0.14400 -0.15340
H37 H -1.07530 -0.20620 -0.12020
H38 H -1.10210 -0.11270 -0.05560
H39 H -1.00630 -0.27960 -0.04870
#END
