
#######################################################################
#
#                 Cambridge Crystallographic Data Centre
#                                CCDC
#
#######################################################################
#
# If this CIF has been generated from an entry in the Cambridge
# Structural Database, then it will include bibliographic, chemical,
# crystal, experimental, refinement or atomic coordinate data resulting
# from the CCDC's data processing and validation procedures.
#
#######################################################################

data_CSD_CIF_LOZGIQ
_audit_creation_date 2002-11-13
_audit_creation_method CSD-ConQuest-V1
_database_code_CSD LOZGIQ
_database_code_depnum_ccdc_archive 'CCDC 178682'
_chemical_formula_sum 'C17 H18 N2 O1'
_chemical_formula_moiety
;
C17 H18 N2 O1
;
_journal_coden_Cambridge 644
_journal_volume 57
_journal_year 2002
_journal_page_first 937
_journal_name_full 'Z.Naturforsch.,B:Chem.Sci. '
loop_
_publ_author_name
"T.Fricke"
"A.Dickmans"
"U.Jana"
"M.Zabel"
"P.G.Jones"
"I.Dix"
"B.Konig"
"R.Herges"
_chemical_name_systematic
;
1-t-Butyl-9-methylphenazine-5-oxide
;
_chemical_melting_point 490.15
_cell_volume   1364.917
_exptl_crystal_colour 'yellow'
_exptl_crystal_density_diffrn 1.296
_exptl_crystal_description 'platelike'
_diffrn_ambient_temperature 173
#These two values have been output from a single CSD field.
_refine_ls_R_factor_gt 0.0381
_refine_ls_wR_factor_gt 0.0381
_symmetry_cell_setting orthorhombic
_symmetry_space_group_name_H-M 'P n m a'
_symmetry_Int_Tables_number 62
loop_
_symmetry_equiv_pos_site_id
_symmetry_equiv_pos_as_xyz
1 x,y,z
2 1/2+x,y,1/2-z
3 1/2-x,1/2+y,1/2+z
4 x,1/2-y,z
5 -x,-y,-z
6 -1/2-x,-y,-1/2+z
7 -1/2+x,-1/2-y,-1/2-z
8 -x,-1/2+y,-z
_cell_length_a 14.0783(14)
_cell_length_b 6.7892(7)
_cell_length_c 14.2803(11)
_cell_angle_alpha 90
_cell_angle_beta 90
_cell_angle_gamma 90
_cell_formula_units_Z 4
loop_
_atom_type_symbol
_atom_type_radius_bond
C 0.68
H 0.23
N 0.68
O 0.68
loop_
_atom_site_label
_atom_site_type_symbol
_atom_site_fract_x
_atom_site_fract_y
_atom_site_fract_z
O1 O -0.42158(8) 0.25000 0.15272(9)
N1 N -0.48915(9) 0.25000 0.09225(9)
N2 N -0.63741(8) 0.25000 -0.03982(8)
C1 C -0.58258(11) 0.25000 0.12137(11)
C2 C -0.65584(10) 0.25000 0.05213(10)
C3 C -0.75343(10) 0.25000 0.08437(11)
C4 C -0.76913(13) 0.25000 0.17869(12)
C5 C -0.69469(13) 0.25000 0.24516(12)
C6 C -0.60243(13) 0.25000 0.21780(12)
C7 C -0.46883(11) 0.25000 -0.00174(11)
C8 C -0.54576(10) 0.25000 -0.06636(11)
C9 C -0.52388(11) 0.25000 -0.16448(11)
C10 C -0.43067(13) 0.25000 -0.19097(14)
C11 C -0.35570(12) 0.25000 -0.12486(15)
C12 C -0.37359(11) 0.25000 -0.03220(15)
C13 C -0.60398(14) 0.25000 -0.23347(12)
C14 C -0.83635(10) 0.25000 0.01421(12)
C15 C -0.83270(8) 0.43520(18) -0.04695(9)
C16 C -0.93265(12) 0.25000 0.06479(16)
H1 H -0.8310(16) 0.25000 0.2014(15)
H2 H -0.7115(13) 0.25000 0.3098(15)
H3 H -0.5516(14) 0.25000 0.2592(14)
H4 H -0.4149(14) 0.25000 -0.2576(16)
H5 H -0.2899(16) 0.25000 -0.1458(15)
H6 H -0.3258(16) 0.25000 0.0136(16)
H7 H -0.5777(16) 0.25000 -0.2986(18)
H8 H -0.6451(11) 0.130(2) -0.2259(11)
H9 H -0.7749(10) 0.441(2) -0.0860(9)
H10 H -0.8364(9) 0.556(2) -0.0062(10)
H11 H -0.8872(9) 0.436(2) -0.0887(10)
H12 H -0.9422(10) 0.131(2) 0.1055(10)
H13 H -0.9821(15) 0.25000 0.0146(16)
H8C H -0.6451(11) 0.370(2) -0.2259(11)
C15C C -0.83270(8) 0.06480(18) -0.04695(9)
H9C H -0.7749(10) 0.059(2) -0.0860(9)
H10C H -0.8364(9) -0.056(2) -0.0062(10)
H11C H -0.8872(9) 0.064(2) -0.0887(10)
H12C H -0.9422(10) 0.369(2) 0.1055(10)
#END
