
#######################################################################
#
#                 Cambridge Crystallographic Data Centre
#                                CCDC
#
#######################################################################
#
# If this CIF has been generated from an entry in the Cambridge
# Structural Database, then it will include bibliographic, chemical,
# crystal, experimental, refinement or atomic coordinate data resulting
# from the CCDC's data processing and validation procedures.
#
#######################################################################

data_CSD_CIF_LOZGAI
_audit_creation_date 2002-11-13
_audit_creation_method CSD-ConQuest-V1
_database_code_CSD LOZGAI
_database_code_depnum_ccdc_archive 'CCDC 178684'
_chemical_formula_sum 'C12 H6 N4 O4'
_chemical_formula_moiety
;
C12 H6 N4 O4
;
_journal_coden_Cambridge 644
_journal_volume 57
_journal_year 2002
_journal_page_first 937
_journal_name_full 'Z.Naturforsch.,B:Chem.Sci. '
loop_
_publ_author_name
"T.Fricke"
"A.Dickmans"
"U.Jana"
"M.Zabel"
"P.G.Jones"
"I.Dix"
"B.Konig"
"R.Herges"
_chemical_name_systematic
;
4,6-Dinitrophenazine
;
_cell_volume    541.429
_exptl_crystal_colour 'yellow'
_exptl_crystal_density_diffrn 1.657
_exptl_crystal_description 'prism'
_diffrn_ambient_temperature 173
#These two values have been output from a single CSD field.
_refine_ls_R_factor_gt 0.0363
_refine_ls_wR_factor_gt 0.0363
_symmetry_cell_setting monoclinic
_symmetry_space_group_name_H-M 'P 21/n'
_symmetry_Int_Tables_number 14
loop_
_symmetry_equiv_pos_site_id
_symmetry_equiv_pos_as_xyz
1 x,y,z
2 1/2+x,1/2-y,1/2+z
3 -x,-y,-z
4 -1/2-x,-1/2+y,-1/2-z
_cell_length_a 5.745(2)
_cell_length_b 7.302(4)
_cell_length_c 13.149(4)
_cell_angle_alpha 90
_cell_angle_beta 101.02(3)
_cell_angle_gamma 90
_cell_formula_units_Z 2
loop_
_atom_type_symbol
_atom_type_radius_bond
C 0.68
H 0.23
N 0.68
O 0.68
loop_
_atom_site_label
_atom_site_type_symbol
_atom_site_fract_x
_atom_site_fract_y
_atom_site_fract_z
O1 O 0.49561(18) 0.48475(16) 0.17581(8)
O2 O 0.84842(18) 0.60005(16) 0.19687(8)
N1 N 0.6674(2) 0.56005(15) 0.22784(8)
N2 N 0.98903(18) 0.56174(15) 0.60160(8)
C1 C 0.6545(2) 0.61029(17) 0.33470(9)
C2 C 0.4691(2) 0.71286(18) 0.35111(10)
H1 H 0.34590 0.74490 0.29490
C3 C 0.4603(2) 0.77239(18) 0.45344(10)
H2 H 0.33090 0.84520 0.46520
C4 C 0.6346(2) 0.72620(18) 0.53442(10)
H3 H 0.62830 0.76980 0.60190
C5 C 0.8271(2) 0.61299(17) 0.51917(9)
C6 C 0.8399(2) 0.55091(17) 0.41665(9)
C6B C 1.1601(2) 0.44909(17) 0.58335(9)
C1B C 1.3455(2) 0.38971(17) 0.66530(9)
N1B N 1.3326(2) 0.43995(15) 0.77216(8)
O1B O 1.50439(18) 0.51525(16) 0.82419(8)
O2B O 1.15158(18) 0.39995(16) 0.80313(8)
C2B C 1.5309(2) 0.28714(18) 0.64889(10)
H1B H 1.65410 0.25510 0.70510
C3B C 1.5397(2) 0.22761(18) 0.54656(10)
H2B H 1.66910 0.15480 0.53480
C4B C 1.3654(2) 0.27380(18) 0.46558(10)
H3B H 1.37170 0.23020 0.39810
C5B C 1.1729(2) 0.38701(17) 0.48083(9)
N2B N 1.01097(18) 0.43826(15) 0.39840(8)
#END
