
#######################################################################
#
#                 Cambridge Crystallographic Data Centre
#                                CCDC
#
#######################################################################
#
# If this CIF has been generated from an entry in the Cambridge
# Structural Database, then it will include bibliographic, chemical,
# crystal, experimental, refinement or atomic coordinate data resulting
# from the CCDC's data processing and validation procedures.
#
#######################################################################

data_CSD_CIF_LOZZOP
_audit_creation_date 2002-11-13
_audit_creation_method CSD-ConQuest-V1
_database_code_CSD LOZZOP
_database_code_depnum_ccdc_archive 'CCDC 182400'
_chemical_formula_sum 'C11 H19 N1 O2'
_chemical_formula_moiety
;
C11 H19 N1 O2
;
_journal_coden_Cambridge 16
_journal_volume 58
_journal_year 2002
_journal_page_first 7701
_journal_name_full 'Tetrahedron '
loop_
_publ_author_name
"P.J.Dunn"
"A.B.Graham"
"R.Grigg"
"I.S.Saba"
"M.Thornton-Pett"
_chemical_name_systematic
;
anti-Spiro[cyclohexane-1,7'-1'-aza-7'-oxabicyclo(3.2.1)octan-4'-ol]
;
_chemical_name_common
;
anti-7,7-Cyclohexyl-1-aza-8-oxa-4-hydroxybicyclo(3.2.1)octane
;
_chemical_melting_point 406.15
_cell_volume   1012.987
_exptl_crystal_colour 'colorless'
_exptl_crystal_density_diffrn 1.294
_exptl_special_details
;
Melting point range 406.15-409.15K

;
_exptl_crystal_description 'plates'
_exptl_crystal_preparation 'cyclohexane'
_diffrn_ambient_temperature 190
#These two values have been output from a single CSD field.
_refine_ls_R_factor_gt 0.0352
_refine_ls_wR_factor_gt 0.0352
_symmetry_cell_setting monoclinic
_symmetry_space_group_name_H-M 'P 21/n'
_symmetry_Int_Tables_number 14
loop_
_symmetry_equiv_pos_site_id
_symmetry_equiv_pos_as_xyz
1 x,y,z
2 1/2+x,1/2-y,1/2+z
3 -x,-y,-z
4 -1/2-x,-1/2+y,-1/2-z
_cell_length_a 8.5701(2)
_cell_length_b 11.6422(3)
_cell_length_c 10.9446(2)
_cell_angle_alpha 90
_cell_angle_beta 111.9290(16)
_cell_angle_gamma 90
_cell_formula_units_Z 4
loop_
_atom_type_symbol
_atom_type_radius_bond
C 0.68
H 0.23
N 0.68
O 0.68
loop_
_atom_site_label
_atom_site_type_symbol
_atom_site_fract_x
_atom_site_fract_y
_atom_site_fract_z
N1 N 0.11890(11) 0.20552(8) 0.71951(9)
O1 O 0.26739(9) 0.20642(7) 0.84091(8)
C1 C 0.25279(14) 0.10110(9) 0.90671(11)
H1 H 0.32440 0.10480 1.00270
C2 C 0.30953(14) 0.00341(10) 0.84055(11)
H2 H 0.42620 0.01940 0.84500
O2 O 0.30998(11) -0.09920(7) 0.91069(8)
H3 H 0.33580 -0.15490 0.87320
C3 C 0.19057(15) -0.00357(10) 0.69635(11)
H4 H 0.08460 -0.04150 0.69040
H5 H 0.24290 -0.05050 0.64650
C4 C 0.15162(15) 0.11643(10) 0.63535(11)
H6 H 0.24760 0.14180 0.61250
H7 H 0.05190 0.11110 0.55230
C5 C 0.06622(14) 0.09596(9) 0.88645(10)
H8 H 0.04820 0.12140 0.96650
H9 H 0.02130 0.01720 0.86360
C6 C -0.01766(13) 0.18007(9) 0.7700(1)
C7 C -0.17552(14) 0.13306(10) 0.66133(11)
H10 H -0.15060 0.05650 0.63350
H11 H -0.20800 0.18480 0.58400
C8 C -0.32252(16) 0.12274(12) 0.70855(15)
H12 H -0.42330 0.09470 0.63510
H13 H -0.29370 0.06570 0.78070
C9 C -0.36297(16) 0.23730(13) 0.75733(15)
H14 H -0.40400 0.29220 0.68300
H15 H -0.45320 0.22630 0.79220
C10 C -0.20738(16) 0.28613(11) 0.86498(13)
H16 H -0.17510 0.23590 0.94360
H17 H -0.23350 0.36320 0.89050
C11 C -0.06038(14) 0.29529(9) 0.81857(11)
H18 H 0.03990 0.32370 0.89220
H19 H -0.08870 0.35220 0.74630
#END
