
#######################################################################
#
#                 Cambridge Crystallographic Data Centre
#                                CCDC
#
#######################################################################
#
# If this CIF has been generated from an entry in the Cambridge
# Structural Database, then it will include bibliographic, chemical,
# crystal, experimental, refinement or atomic coordinate data resulting
# from the CCDC's data processing and validation procedures.
#
#######################################################################

data_CSD_CIF_LOZZIJ
_audit_creation_date 2002-11-13
_audit_creation_method CSD-ConQuest-V1
_database_code_CSD LOZZIJ
_database_code_depnum_ccdc_archive 'CCDC 182399'
_chemical_formula_sum 'C10 H17 N1 O2'
_chemical_formula_moiety
;
C10 H17 N1 O2
;
_journal_coden_Cambridge 16
_journal_volume 58
_journal_year 2002
_journal_page_first 7701
_journal_name_full 'Tetrahedron '
loop_
_publ_author_name
"P.J.Dunn"
"A.B.Graham"
"R.Grigg"
"I.S.Saba"
"M.Thornton-Pett"
_chemical_name_systematic
;
anti-Spiro[cyclopentane-1,8'-1'-aza-7'-oxabicyclo(3.2.1)octan-4'-ol]
;
_chemical_name_common
;
anti-8,8-Cyclopentyl-1-aza-7-oxa-4-hydroxybicyclo(3.2.1)octane
;
_chemical_melting_point 411.15
_cell_volume    921.435
_exptl_crystal_colour 'colorless'
_exptl_crystal_density_diffrn 1.321
_exptl_special_details
;
Melting point range 411.15-413.15K

;
_exptl_crystal_description 'prism'
_exptl_crystal_preparation 'toluene'
_diffrn_ambient_temperature 190
#These two values have been output from a single CSD field.
_refine_ls_R_factor_gt 0.0453
_refine_ls_wR_factor_gt 0.0453
_symmetry_cell_setting monoclinic
_symmetry_space_group_name_H-M 'P 21/n'
_symmetry_Int_Tables_number 14
loop_
_symmetry_equiv_pos_site_id
_symmetry_equiv_pos_as_xyz
1 x,y,z
2 1/2+x,1/2-y,1/2+z
3 -x,-y,-z
4 -1/2-x,-1/2+y,-1/2-z
_cell_length_a 6.3034(2)
_cell_length_b 18.2420(5)
_cell_length_c 8.1740(2)
_cell_angle_alpha 90
_cell_angle_beta 101.3760(18)
_cell_angle_gamma 90
_cell_formula_units_Z 4
loop_
_atom_type_symbol
_atom_type_radius_bond
C 0.68
H 0.23
N 0.68
O 0.68
loop_
_atom_site_label
_atom_site_type_symbol
_atom_site_fract_x
_atom_site_fract_y
_atom_site_fract_z
N1 N 0.82778(14) 0.13660(5) 0.94019(11)
O1 O 0.84460(12) 0.21700(4) 0.94785(11)
C1 C 0.63814(19) 0.24770(6) 0.86344(15)
H1 H 0.65580 0.27520 0.76260
H2 H 0.57930 0.28120 0.93870
C2 C 0.48830(17) 0.18222(6) 0.81623(14)
H3 H 0.37930 0.19180 0.71180
C3 C 0.37889(16) 0.16150(6) 0.96166(14)
H4 H 0.27860 0.20210 0.97850
O2 O 0.25563(13) 0.09601(5) 0.92423(12)
H5 H 0.12480 0.10480 0.92400
C4 C 0.55031(18) 0.15268(7) 1.12218(14)
H6 H 0.59040 0.20180 1.17010
H7 H 0.48710 0.12450 1.20450
C5 C 0.75505(17) 0.11351(6) 1.09360(13)
H8 H 0.87320 0.12280 1.19070
H9 H 0.72750 0.06000 1.08790
C6 C 0.65667(16) 0.12521(6) 0.78759(13)
C7 C 0.59081(17) 0.04446(6) 0.76086(14)
H10 H 0.57680 0.02100 0.86740
H11 H 0.45180 0.03970 0.68040
C8 C 0.7765(2) 0.01027(6) 0.69120(16)
H12 H 0.89990 -0.00180 0.78240
H13 H 0.72820 -0.03500 0.62790
C9 C 0.8399(2) 0.06911(7) 0.57652(16)
H14 H 0.77240 0.05890 0.45880
H15 H 0.99890 0.07060 0.58670
C10 C 0.7570(2) 0.14220(6) 0.63349(15)
H16 H 0.64680 0.16370 0.54310
H17 H 0.87780 0.17750 0.66330
#END
