
#######################################################################
#
#                 Cambridge Crystallographic Data Centre
#                                CCDC
#
#######################################################################
#
# If this CIF has been generated from an entry in the Cambridge
# Structural Database, then it will include bibliographic, chemical,
# crystal, experimental, refinement or atomic coordinate data resulting
# from the CCDC's data processing and validation procedures.
#
#######################################################################

data_CSD_CIF_LUBBAL
_audit_creation_date 2002-11-13
_audit_creation_method CSD-ConQuest-V1
_database_code_CSD LUBBAL
_database_code_depnum_ccdc_archive 'CCDC 183748'
_chemical_formula_sum 'C13 H15 N1 O2'
_chemical_formula_moiety
;
C13 H15 N1 O2
;
_journal_coden_Cambridge 16
_journal_volume 58
_journal_year 2002
_journal_page_first 7727
_journal_name_full 'Tetrahedron '
loop_
_publ_author_name
"P.J.Dunn"
"A.B.Graham"
"R.Grigg"
"P.Higginson"
"M.Thornton-Pett"
_chemical_name_systematic
;
8-exo-Benzyl-7-oxa-1-azabicyclo(3.2.1)octan-4-one
;
_chemical_melting_point 370.15
_cell_volume   1108.205
_exptl_crystal_colour 'colorless'
_exptl_crystal_density_diffrn 1.302
_exptl_special_details
;
Melting point range 370.15-372.15K

;
_exptl_crystal_description 'needles'
_exptl_crystal_preparation 'ethanol'
_diffrn_ambient_temperature 150
#These two values have been output from a single CSD field.
_refine_ls_R_factor_gt 0.0361
_refine_ls_wR_factor_gt 0.0361
_symmetry_cell_setting monoclinic
_symmetry_space_group_name_H-M 'P 21/a'
_symmetry_Int_Tables_number 14
loop_
_symmetry_equiv_pos_site_id
_symmetry_equiv_pos_as_xyz
1 x,y,z
2 1/2+x,1/2-y,z
3 -x,-y,-z
4 -1/2-x,-1/2+y,-z
_cell_length_a 6.7256(1)
_cell_length_b 17.5126(3)
_cell_length_c 9.4990(2)
_cell_angle_alpha 90
_cell_angle_beta 97.8980(8)
_cell_angle_gamma 90
_cell_formula_units_Z 4
loop_
_atom_type_symbol
_atom_type_radius_bond
C 0.68
H 0.23
N 0.68
O 0.68
loop_
_atom_site_label
_atom_site_type_symbol
_atom_site_fract_x
_atom_site_fract_y
_atom_site_fract_z
C1 C 0.05101(18) 0.10682(8) 0.06634(13)
H1 H -0.02700 0.08550 -0.02070
H2 H 0.16060 0.13880 0.03870
N1 N 0.05398(15) 0.05412(6) 0.29680(11)
O1 O 0.13223(13) 0.04575(5) 0.16135(9)
C2 C -0.13578(19) 0.01089(7) 0.28513(14)
H3 H -0.19070 0.01530 0.37630
H4 H -0.10600 -0.04370 0.27090
C3 C -0.29949(18) 0.03677(7) 0.16355(14)
H5 H -0.28140 0.00870 0.07570
H6 H -0.43310 0.02320 0.18870
C4 C -0.29368(18) 0.12140(7) 0.13483(12)
O2 O -0.44346(13) 0.16000(5) 0.10369(10)
C5 C -0.08475(17) 0.15399(7) 0.14967(12)
H7 H -0.08320 0.20970 0.12640
C6 C 0.01410(17) 0.13630(7) 0.30368(12)
H8 H -0.08350 0.14640 0.37200
C7 C 0.20412(18) 0.18399(7) 0.34386(13)
H9 H 0.29280 0.17710 0.26980
H10 H 0.16600 0.23860 0.34430
C8 C 0.32064(17) 0.16422(7) 0.48650(13)
C9 C 0.47407(19) 0.11035(7) 0.49582(14)
H11 H 0.50230 0.08530 0.41210
C10 C 0.5863(2) 0.09273(8) 0.62516(15)
H12 H 0.69100 0.05600 0.62990
C11 C 0.5452(2) 0.12894(8) 0.74739(14)
H13 H 0.62260 0.11740 0.83610
C12 C 0.3918(2) 0.18186(8) 0.74076(14)
H14 H 0.36270 0.20610 0.82500
C13 C 0.27985(19) 0.19957(8) 0.61031(14)
H15 H 0.17480 0.23610 0.60600
#END
