
#######################################################################
#
#                 Cambridge Crystallographic Data Centre
#                                CCDC
#
#######################################################################
#
# If this CIF has been generated from an entry in the Cambridge
# Structural Database, then it will include bibliographic, chemical,
# crystal, experimental, refinement or atomic coordinate data resulting
# from the CCDC's data processing and validation procedures.
#
#######################################################################

data_CSD_CIF_LUBPAZ
_audit_creation_date 2002-11-13
_audit_creation_method CSD-ConQuest-V1
_database_code_CSD LUBPAZ
_database_code_depnum_ccdc_archive 'CCDC 178867'
_chemical_formula_sum 'C24 H31 N3 O7'
_chemical_formula_moiety
;
C24 H31 N3 O7
;
_journal_coden_Cambridge 1088
_journal_year 2002
_journal_page_first 1113
_journal_name_full 'Synlett '
loop_
_publ_author_name
"R.Fischer"
"A.Druckova"
"L.Fisera"
"A.Rybar"
"C.Hametner"
"M.K.Cyranski"
_chemical_name_systematic
;
1-((3S,5R)-2-Benzyl-3-(1,2:3,4-di-O-isopropylidene-D-xylo)isoxazolidin-5-yl)ur
acil
;
_chemical_melting_point 460.15
_cell_volume   2461.399
_exptl_crystal_colour 'colorless'
_exptl_crystal_density_diffrn 1.278
_exptl_special_details
;
Melting point range 460.15-462.15K

;
_diffrn_ambient_temperature 293
#These two values have been output from a single CSD field.
_refine_ls_R_factor_gt 0.0559
_refine_ls_wR_factor_gt 0.0559
_symmetry_cell_setting orthorhombic
_symmetry_space_group_name_H-M 'P 21 21 21'
_symmetry_Int_Tables_number 19
loop_
_symmetry_equiv_pos_site_id
_symmetry_equiv_pos_as_xyz
1 x,y,z
2 1/2-x,-y,1/2+z
3 -x,1/2+y,1/2-z
4 1/2+x,1/2-y,-z
_cell_length_a 9.4770(19)
_cell_length_b 15.932(3)
_cell_length_c 16.302(3)
_cell_angle_alpha 90
_cell_angle_beta 90
_cell_angle_gamma 90
_cell_formula_units_Z 4
loop_
_atom_type_symbol
_atom_type_radius_bond
C 0.68
H 0.23
N 0.68
O 0.68
loop_
_atom_site_label
_atom_site_type_symbol
_atom_site_fract_x
_atom_site_fract_y
_atom_site_fract_z
N1 N 0.92502(15) 0.96893(9) 0.24374(8)
O1 O 0.92866(12) 1.03523(8) 0.30818(6)
C1 C 0.9452(2) 1.10981(13) 0.26188(12)
H1 H 0.9099(13) 1.1550(7) 0.2987(8)
C2 C 0.8583(2) 1.09758(13) 0.18443(13)
H2 H 0.7709(14) 1.1294(8) 0.1865(8)
H3 H 0.9082(14) 1.1120(8) 0.1350(8)
C3 C 0.8229(2) 1.00349(11) 0.18396(11)
H4 H 0.7201(14) 0.9956(8) 0.2047(7)
C4 C 0.83731(19) 0.95870(12) 0.10260(11)
H5 H 0.8274(11) 0.8967(7) 0.1112(7)
C5 C 0.7340(2) 0.98698(13) 0.03711(11)
H6 H 0.7079(14) 1.0519(8) 0.0463(8)
O2 O 0.81224(13) 0.98180(8) -0.03686(7)
C6 C 0.9586(2) 0.97812(15) -0.02002(12)
C7 C 1.0140(2) 0.89783(17) -0.05543(12)
H7 H 0.97160 0.85110 -0.02760
H8 H 1.11450 0.89570 -0.04870
H9 H 0.99120 0.89520 -0.11280
C8 C 1.0313(2) 1.05392(17) -0.05029(13)
H10 H 0.98840 1.10290 -0.02670
H11 H 1.02370 1.05650 -0.10900
H12 H 1.12900 1.05170 -0.03490
O3 O 0.97280(12) 0.97669(7) 0.06762(6)
C9 C 0.6009(2) 0.93605(12) 0.02506(12)
H13 H 0.5581(12) 0.9527(7) -0.0226(7)
C10 C 0.6169(2) 0.84056(12) 0.02365(13)
H14 H 0.5468(16) 0.8118(9) -0.0187(9)
H15 H 0.7218(13) 0.8219(7) 0.0223(7)
O4 O 0.56712(13) 0.81541(7) 0.10318(7)
C11 C 0.4596(2) 0.87416(12) 0.12309(10)
C12 C 0.32022(19) 0.84936(12) 0.08295(12)
H16 H 0.33310 0.84490 0.02470
H17 H 0.25030 0.89130 0.09450
H18 H 0.28970 0.79630 0.10440
C13 C 0.44809(19) 0.87867(11) 0.21534(9)
H19 H 0.41390 0.82610 0.23610
H20 H 0.38370 0.92260 0.23030
H21 H 0.53930 0.89020 0.23840
O5 O 0.50918(12) 0.95180(7) 0.09299(7)
N2 N 1.09424(15) 1.12909(8) 0.24722(8)
C14 C 1.1604(2) 1.18443(12) 0.30017(12)
O6 O 1.10071(13) 1.21931(7) 0.35706(7)
N3 N 1.30097(18) 1.19673(10) 0.28408(10)
H22 H 1.3482(16) 1.2298(9) 0.3158(9)
C15 C 1.3854(2) 1.15915(13) 0.22402(13)
O7 O 1.50926(14) 1.17692(9) 0.21792(8)
C16 C 1.3065(2) 1.10105(13) 0.17442(13)
H23 H 1.3618(14) 1.0737(8) 0.1339(8)
C17 C 1.1709(2) 1.08870(12) 0.18740(12)
H24 H 1.1114(15) 1.0482(9) 0.1577(9)
C18 C 0.8658(2) 0.89582(14) 0.28707(13)
H25 H 0.8461(15) 0.8516(10) 0.2429(10)
H26 H 0.7697(14) 0.9171(8) 0.3137(8)
C19 C 0.9688(2) 0.85939(10) 0.34839(11)
C20 C 0.9269(3) 0.84606(13) 0.42682(13)
H27 H 0.8323(16) 0.8589(9) 0.4394(9)
C21 C 1.0192(3) 0.81209(15) 0.48435(16)
H28 H 0.983(2) 0.8113(12) 0.5393(11)
C22 C 1.1533(3) 0.79366(14) 0.46326(17)
H29 H 1.223(2) 0.7710(11) 0.5069(13)
C23 C 1.1961(3) 0.80484(15) 0.38314(17)
H30 H 1.2921(18) 0.7902(10) 0.3658(9)
C24 C 1.1051(2) 0.83814(14) 0.32664(15)
H31 H 1.1215(17) 0.8456(10) 0.2697(11)
#END
