
#######################################################################
#
#                 Cambridge Crystallographic Data Centre
#                                CCDC
#
#######################################################################
#
# If this CIF has been generated from an entry in the Cambridge
# Structural Database, then it will include bibliographic, chemical,
# crystal, experimental, refinement or atomic coordinate data resulting
# from the CCDC's data processing and validation procedures.
#
#######################################################################

data_CSD_CIF_LUCVUC
_audit_creation_date 2015-05-14
_audit_creation_method CSD-ConQuest-V1
_database_code_CSD LUCVUC
_database_code_depnum_ccdc_archive 'CCDC 976643'
_chemical_formula_sum 'C27 H40 N2 O4'
_chemical_formula_moiety
;
C27 H40 N2 O4
;
_journal_coden_Cambridge 24
_journal_volume 56
_journal_year 2015
_journal_page_first 3858
_journal_name_full 'Tetrahedron Lett. '
loop_
_publ_author_name
"Mange Ram Yadav"
"R.S.Tamboli"
"H.M.Mande"
"H.A.Rabari"
"R.Giridhar"
_chemical_name_systematic
;
3-Nitrospirosta-1,3-dien-4-amine
;
_cell_volume   2488.194
_exptl_crystal_density_diffrn 1.212
_diffrn_ambient_temperature 293
_refine_special_details
;
The MASK/OLEX2 program has been used to model some disorder.

;
#These two values have been output from a single CSD field.
_refine_ls_R_factor_gt 0.0429
_refine_ls_wR_factor_gt 0.0429
_symmetry_cell_setting orthorhombic
_symmetry_space_group_name_H-M 'P 21 21 21'
_symmetry_Int_Tables_number 19
loop_
_symmetry_equiv_pos_site_id
_symmetry_equiv_pos_as_xyz
1 x,y,z
2 1/2-x,-y,1/2+z
3 1/2+x,1/2-y,-z
4 -x,1/2+y,1/2-z
_cell_length_a 9.1938(3)
_cell_length_b 9.9120(3)
_cell_length_c 27.3041(8)
_cell_angle_alpha 90
_cell_angle_beta 90
_cell_angle_gamma 90
_cell_formula_units_Z 4
loop_
_atom_type_symbol
_atom_type_radius_bond
C 0.68
H 0.23
N 0.68
O 0.68
loop_
_atom_site_label
_atom_site_type_symbol
_atom_site_fract_x
_atom_site_fract_y
_atom_site_fract_z
O1 O 0.40975(19) 0.50881(16) 0.01140(5)
O2 O 0.27360(17) 0.49400(15) 0.08315(5)
N1 N -0.3683(2) 1.42407(19) 0.21041(7)
N2 N -0.4309(2) 1.1408(2) 0.22127(8)
H1 H -0.485(3) 1.207(3) 0.2334(10)
C1 C -0.3160(2) 1.1856(2) 0.19807(8)
C2 C 0.0037(2) 0.8778(2) 0.15276(8)
H2 H 0.03430 0.84880 0.18550
C3 C 0.4154(3) 0.5121(2) 0.06342(7)
C4 C 0.0922(2) 0.8009(2) 0.11476(8)
H3 H 0.06590 0.84010 0.08300
C5 C 0.0393(2) 1.0292(2) 0.14666(7)
H4 H 0.01440 1.05250 0.11280
C6 C -0.2159(2) 1.0867(2) 0.17268(8)
H5 H -0.23390 1.10070 0.13770
C7 C -0.2792(3) 1.3222(2) 0.19307(8)
C8 C -0.1426(3) 1.3586(2) 0.17034(9)
H6 H -0.12840 1.44720 0.16020
C9 C 0.3091(2) 0.7312(2) 0.07564(7)
H7 H 0.30460 0.78540 0.04570
C10 C 0.2919(3) 0.9687(2) 0.11514(9)
H8 H 0.27000 0.99880 0.08210
H9 H 0.39480 0.98300 0.12090
C11 C 0.2579(2) 0.8183(2) 0.11946(8)
C12 C -0.0535(2) 1.1231(2) 0.17976(8)
C13 C 0.4677(3) 0.2701(3) 0.00636(10)
H10 H 0.56390 0.29240 -0.00680
C14 C 0.1959(2) 0.6158(2) 0.07231(8)
H11 H 0.15590 0.61130 0.03910
C15 C -0.0373(3) 1.2695(2) 0.16360(9)
H12 H 0.04860 1.29680 0.14860
C16 C 0.4563(2) 0.6574(2) 0.07765(8)
H13 H 0.48990 0.65700 0.11170
C17 C 0.2039(3) 1.0529(2) 0.15181(9)
H14 H 0.22460 1.14780 0.14660
H15 H 0.23380 1.02990 0.18480
C18 C 0.5132(3) 0.4027(3) 0.08309(9)
H16 H 0.50310 0.39860 0.11840
H17 H 0.61350 0.42530 0.07570
C19 C 0.3640(3) 0.3815(3) -0.00766(8)
H18 H 0.35790 0.38700 -0.04310
H19 H 0.26780 0.36050 0.00480
C20 C -0.1586(3) 0.8514(2) 0.14722(11)
H20 H -0.17820 0.75720 0.15420
H21 H -0.18700 0.86870 0.11360
C21 C -0.2500(3) 0.9395(2) 0.18130(12)
H22 H -0.35250 0.92320 0.17530
H23 H -0.22930 0.91630 0.21510
C22 C 0.3157(3) 0.7634(3) 0.16813(8)
H24 H 0.26230 0.80310 0.19470
H25 H 0.41690 0.78560 0.17130
H26 H 0.30410 0.66720 0.16890
C23 C 0.5748(3) 0.7207(3) 0.04607(12)
H27 H 0.66320 0.67000 0.04960
H28 H 0.59110 0.81210 0.05640
H29 H 0.54490 0.71990 0.01240
C24 C -0.0095(3) 1.1114(3) 0.23384(8)
H30 H -0.01370 1.01860 0.24380
H31 H -0.07510 1.16370 0.25360
H32 H 0.08770 1.14480 0.23800
C25 C 0.0743(3) 0.6467(2) 0.10887(9)
H33 H 0.08900 0.59990 0.13970
H34 H -0.02050 0.62350 0.09580
C26 C 0.4783(3) 0.2656(3) 0.06155(10)
H35 H 0.55360 0.20200 0.07090
H36 H 0.38680 0.23370 0.07490
C27 C 0.4201(4) 0.1347(3) -0.01553(13)
H37 H 0.32400 0.11300 -0.00430
H38 H 0.48650 0.06530 -0.00540
H39 H 0.42000 0.14090 -0.05060
O3 O -0.3307(2) 1.54377(17) 0.20628(8)
O4 O -0.4885(2) 1.39520(18) 0.23094(7)
H40 H -0.449(3) 1.055(3) 0.2288(10)
#END
