
#######################################################################
#
#                 Cambridge Crystallographic Data Centre
#                                CCDC
#
#######################################################################
#
# If this CIF has been generated from an entry in the Cambridge
# Structural Database, then it will include bibliographic, chemical,
# crystal, experimental, refinement or atomic coordinate data resulting
# from the CCDC's data processing and validation procedures.
#
#######################################################################

data_CSD_CIF_LUDBET
_audit_creation_date 2015-05-14
_audit_creation_method CSD-ConQuest-V1
_database_code_CSD LUDBET
_database_code_depnum_ccdc_archive 'CCDC 1008262'
_chemical_formula_sum 'C13 H15 N1 O2'
_chemical_formula_moiety
;
C13 H15 N1 O2
;
_journal_coden_Cambridge 214
_journal_volume 146
_journal_year 2015
_journal_page_first 119
_journal_name_full 'Monatsh.Chem. '
loop_
_publ_author_name
"A.P.Haring"
"P.Klahn"
"M.Jubermann"
"Fabian Mohr"
"S.F.Kirsch"
_chemical_name_systematic
;
5-benzylidene-2,4,4-trimethyl-1,2-oxazolidin-3-one
;
_cell_volume   1216.893
_exptl_crystal_colour 'colorless'
_exptl_crystal_density_diffrn 1.186
_exptl_crystal_description 'block'
_diffrn_ambient_temperature 297
#These two values have been output from a single CSD field.
_refine_ls_R_factor_gt 0.051
_refine_ls_wR_factor_gt 0.051
_symmetry_cell_setting orthorhombic
_symmetry_space_group_name_H-M 'P 21 21 21'
_symmetry_Int_Tables_number 19
loop_
_symmetry_equiv_pos_site_id
_symmetry_equiv_pos_as_xyz
1 x,y,z
2 1/2-x,-y,1/2+z
3 1/2+x,1/2-y,-z
4 -x,1/2+y,1/2-z
_cell_length_a 6.2138(16)
_cell_length_b 8.480(3)
_cell_length_c 23.094(6)
_cell_angle_alpha 90
_cell_angle_beta 90
_cell_angle_gamma 90
_cell_formula_units_Z 4
loop_
_atom_type_symbol
_atom_type_radius_bond
C 0.68
H 0.23
N 0.68
O 0.68
loop_
_atom_site_label
_atom_site_type_symbol
_atom_site_fract_x
_atom_site_fract_y
_atom_site_fract_z
O1 O 0.6923(3) 0.5133(2) 0.12706(7)
C1 C 0.5540(4) 0.3915(3) 0.14301(10)
C2 C 0.6905(4) 0.3731(3) 0.24673(11)
C3 C 0.5559(4) 0.3344(3) 0.19644(11)
H1 H 0.45420 0.25610 0.20330
O2 O 0.4173(4) 0.4782(3) -0.00229(9)
C4 C 0.4182(4) 0.3439(3) 0.09236(11)
N1 N 0.6435(4) 0.5498(3) 0.06866(9)
C5 C 0.8627(4) 0.4766(4) 0.24498(12)
H2 H 0.89570 0.52900 0.21070
C6 C 0.1767(4) 0.3583(4) 0.10387(14)
H3 H 0.13570 0.28550 0.13370
H4 H 0.09860 0.33470 0.06910
H5 H 0.14400 0.46390 0.11600
C7 C 0.4867(4) 0.4625(3) 0.04673(11)
C8 C 0.7597(5) 0.6757(4) 0.04468(14)
H6 H 0.72240 0.77160 0.06430
H7 H 0.72530 0.68540 0.00430
H8 H 0.91110 0.65630 0.04900
C9 C 0.6473(5) 0.2989(3) 0.29893(12)
H9 H 0.53300 0.22840 0.30130
C10 C 0.4748(5) 0.1785(3) 0.07133(13)
H10 H 0.62460 0.17450 0.06130
H11 H 0.38950 0.15330 0.03790
H12 H 0.44590 0.10370 0.10150
C11 C 0.9384(6) 0.4281(4) 0.34508(13)
H13 H 1.02120 0.44700 0.37790
C12 C 0.7699(7) 0.3273(4) 0.34704(13)
H14 H 0.73680 0.27650 0.38160
C13 C 0.9848(5) 0.5022(4) 0.29361(13)
H15 H 1.10110 0.57100 0.29170
#END
