
#######################################################################
#
#                 Cambridge Crystallographic Data Centre
#                                CCDC
#
#######################################################################
#
# If this CIF has been generated from an entry in the Cambridge
# Structural Database, then it will include bibliographic, chemical,
# crystal, experimental, refinement or atomic coordinate data resulting
# from the CCDC's data processing and validation procedures.
#
#######################################################################

data_CSD_CIF_LUFMEF
_audit_creation_date 2010-07-07
_audit_creation_method CSD-ConQuest-V1
_database_code_CSD LUFMEF
_database_code_depnum_ccdc_archive 'CCDC 750422'
_chemical_formula_sum 'C14 H13 N1 O4'
_chemical_formula_moiety
;
C14 H13 N1 O4
;
_journal_coden_Cambridge 35
_journal_volume 74
_journal_year 2009
_journal_page_first 5049
_journal_name_full 'J.Org.Chem. '
loop_
_publ_author_name
"Yu Lan"
"Lujiang Deng"
"Jing Liu"
"Can Wang"
"O.Wiest"
"Zhen Yang"
"Yun-Dong Wu"
_chemical_name_systematic
;
1-Methyl-6-(4-nitrophenyl)-3a,4-dihydro-1H-cyclopenta[c]furan-5(3H)-one
;
_cell_volume   2502.300
_exptl_crystal_colour 'yellow'
_exptl_crystal_density_diffrn 1.376
_exptl_crystal_description 'prism'
_diffrn_ambient_temperature 295
#These two values have been output from a single CSD field.
_refine_ls_R_factor_gt 0.0627
_refine_ls_wR_factor_gt 0.0627
_symmetry_cell_setting monoclinic
_symmetry_space_group_name_H-M 'C 2/c'
_symmetry_Int_Tables_number 15
loop_
_symmetry_equiv_pos_site_id
_symmetry_equiv_pos_as_xyz
1 x,y,z
2 -x,y,1/2-z
3 1/2+x,1/2+y,z
4 1/2-x,1/2+y,1/2-z
5 -x,-y,-z
6 x,-y,-1/2+z
7 -1/2-x,-1/2-y,-z
8 -1/2+x,-1/2-y,-1/2+z
_cell_length_a 17.092(3)
_cell_length_b 10.0062(13)
_cell_length_c 15.548(2)
_cell_angle_alpha 90
_cell_angle_beta 109.775(12)
_cell_angle_gamma 90
_cell_formula_units_Z 8
loop_
_atom_type_symbol
_atom_type_radius_bond
C 0.68
H 0.23
N 0.68
O 0.68
loop_
_atom_site_label
_atom_site_type_symbol
_atom_site_fract_x
_atom_site_fract_y
_atom_site_fract_z
O1 O 0.63352(16) 0.4938(3) 0.75511(17)
O2 O 0.85700(15) 0.6557(3) 0.58602(18)
O3 O 0.4115(3) 0.0829(5) 0.3947(3)
O4 O 0.4240(3) 0.1915(4) 0.2864(2)
N1 N 0.4421(2) 0.1727(4) 0.3669(3)
C1 C 0.67379(18) 0.5151(3) 0.6200(2)
C2 C 0.6785(2) 0.5401(4) 0.7166(2)
C3 C 0.7548(2) 0.6264(4) 0.7621(2)
H1 H 0.79860 0.57440 0.80520
H2 H 0.74100 0.70110 0.79400
C4 C 0.78138(19) 0.6750(4) 0.6833(2)
H3 H 0.76170 0.76670 0.66740
C5 C 0.73595(18) 0.5833(3) 0.6065(2)
C6 C 0.78450(19) 0.5744(3) 0.5422(2)
H4 H 0.75220 0.61280 0.48280
C7 C 0.8696(2) 0.6625(4) 0.6816(3)
H5 H 0.90290 0.73960 0.70950
H6 H 0.89640 0.58220 0.71290
C8 C 0.8095(2) 0.4319(4) 0.5300(3)
H7 H 0.84040 0.43120 0.48860
H8 H 0.76060 0.37790 0.50550
H9 H 0.84340 0.39660 0.58800
C9 C 0.61336(17) 0.4267(3) 0.5553(2)
C10 C 0.5717(2) 0.3260(4) 0.5847(2)
H10 H 0.58200 0.31480 0.64700
C11 C 0.5153(2) 0.2424(4) 0.5231(3)
H11 H 0.48790 0.17560 0.54330
C12 C 0.50089(19) 0.2608(4) 0.4314(2)
C13 C 0.5396(2) 0.3593(4) 0.3993(2)
H12 H 0.52870 0.37000 0.33690
C14 C 0.59492(19) 0.4419(3) 0.4612(2)
H13 H 0.62080 0.50970 0.43990
#END
