
#######################################################################
#
#                 Cambridge Crystallographic Data Centre
#                                CCDC
#
#######################################################################
#
# If this CIF has been generated from an entry in the Cambridge
# Structural Database, then it will include bibliographic, chemical,
# crystal, experimental, refinement or atomic coordinate data resulting
# from the CCDC's data processing and validation procedures.
#
#######################################################################

data_CSD_CIF_LUFXUH
_audit_creation_date 2015-05-15
_audit_creation_method CSD-ConQuest-V1
_database_code_CSD LUFXUH
_database_code_depnum_ccdc_archive 'CCDC 955441'
_chemical_formula_sum 'C16 H6 N10 O10'
_chemical_formula_moiety
;
C16 H6 N10 O10
;
_journal_coden_Cambridge 1500
_journal_volume 5
_journal_year 2015
_journal_page_first 43780
_journal_name_full 'RSC Advances '
loop_
_publ_author_name
"Ning Liu"
"Yuan-jie Shu"
"Hui Li"
"Lian-jie Zhai"
"Ya-nan Li"
"Bo-zhou Wang"
_chemical_name_systematic
;
4,8-bis(2,4-Dinitrophenyl)-4H,8H-bis[1,2,5]oxadiazolo[3,4-b:3',4'-e]pyrazine
;
_cell_volume    954.305
_exptl_crystal_density_diffrn 1.734
_diffrn_ambient_temperature 296
#These two values have been output from a single CSD field.
_refine_ls_R_factor_gt 0.0314
_refine_ls_wR_factor_gt 0.0314
_symmetry_cell_setting monoclinic
_symmetry_space_group_name_H-M 'P 21/n'
_symmetry_Int_Tables_number 14
loop_
_symmetry_equiv_pos_site_id
_symmetry_equiv_pos_as_xyz
1 x,y,z
2 1/2-x,1/2+y,1/2-z
3 -x,-y,-z
4 -1/2+x,-1/2-y,-1/2+z
_cell_length_a 5.8796(12)
_cell_length_b 8.9227(18)
_cell_length_c 18.378(4)
_cell_angle_alpha 90
_cell_angle_beta 98.193(3)
_cell_angle_gamma 90
_cell_formula_units_Z 2
loop_
_atom_type_symbol
_atom_type_radius_bond
C 0.68
H 0.23
N 0.68
O 0.68
loop_
_atom_site_label
_atom_site_type_symbol
_atom_site_fract_x
_atom_site_fract_y
_atom_site_fract_z
N1 N 0.3074(3) 0.62729(17) 0.22080(8)
N2 N -0.0260(2) 0.27309(14) 0.03534(7)
N3 N 0.4244(2) 0.11892(13) 0.04678(6)
N4 N 0.4445(2) 0.05644(14) -0.14285(7)
N5 N 0.3222(2) 0.24142(14) -0.06940(7)
O1 O 0.4460(3) 0.64872(17) 0.27544(8)
O2 O 0.1483(3) 0.71019(19) 0.20031(10)
O3 O -0.1684(2) 0.36627(14) 0.01105(7)
O4 O -0.0504(2) 0.13823(14) 0.02617(9)
O5 O 0.3452(2) 0.19930(12) -0.14132(6)
C1 C 0.5637(3) 0.28988(17) 0.14575(8)
H1 H 0.70070 0.23630 0.15280
C2 C 0.5395(3) 0.41441(18) 0.18868(8)
H2 H 0.65720 0.44370 0.22520
C3 C 0.3369(3) 0.49415(16) 0.17605(8)
C4 C 0.1564(2) 0.45253(16) 0.12391(8)
H3 H 0.02190 0.50870 0.11620
C5 C 0.1813(2) 0.32468(15) 0.08341(7)
C6 C 0.3867(2) 0.24354(15) 0.09236(7)
C7 C 0.5217(2) -0.01469(15) 0.07465(7)
C8 C 0.4038(2) 0.12964(15) -0.02939(7)
N1B N 0.6926(3) -0.62729(17) -0.22080(8)
N2B N 1.0260(2) -0.27309(14) -0.03534(7)
N3B N 0.5756(2) -0.11892(13) -0.04678(6)
N4B N 0.5555(2) -0.05644(14) 0.14285(7)
N5B N 0.6778(2) -0.24142(14) 0.06940(7)
O1B O 0.5540(3) -0.64872(17) -0.27544(8)
O2B O 0.8517(3) -0.71019(19) -0.20031(10)
O3B O 1.1684(2) -0.36627(14) -0.01105(7)
O4B O 1.0504(2) -0.13823(14) -0.02617(9)
O5B O 0.6548(2) -0.19930(12) 0.14132(6)
C1B C 0.4363(3) -0.28988(17) -0.14575(8)
H1B H 0.29930 -0.23630 -0.15280
C2B C 0.4605(3) -0.41441(18) -0.18868(8)
H2B H 0.34280 -0.44370 -0.22520
C3B C 0.6631(3) -0.49415(16) -0.17605(8)
C4B C 0.8436(2) -0.45253(16) -0.12391(8)
H3B H 0.97810 -0.50870 -0.11620
C5B C 0.8187(2) -0.32468(15) -0.08341(7)
C6B C 0.6133(2) -0.24354(15) -0.09236(7)
C7B C 0.4783(2) 0.01469(15) -0.07465(7)
C8B C 0.5962(2) -0.12964(15) 0.02939(7)
#END
