
#######################################################################
#
#                 Cambridge Crystallographic Data Centre
#                                CCDC
#
#######################################################################
#
# If this CIF has been generated from an entry in the Cambridge
# Structural Database, then it will include bibliographic, chemical,
# crystal, experimental, refinement or atomic coordinate data resulting
# from the CCDC's data processing and validation procedures.
#
#######################################################################

data_CSD_CIF_LUJMIO
_audit_creation_date 2015-05-19
_audit_creation_method CSD-ConQuest-V1
_database_code_CSD LUJMIO
_database_code_depnum_ccdc_archive 'CCDC 986191'
_chemical_formula_sum 'C7 H5 N3 O2'
_chemical_formula_moiety
;
C7 H5 N3 O2
;
_journal_coden_Cambridge 1271
_journal_volume 40
_journal_year 2015
_journal_page_first 60
_journal_name_full 'Propellants,Explos.,Pyrotech. '
loop_
_publ_author_name
"T.M.Klapctke"
"A.Preimesser"
"J.Stierstorfer"
_chemical_name_systematic
;
2-nitro-1H-benzimidazole
;
_cell_volume   2721.188
_exptl_crystal_colour 'orange'
_exptl_crystal_density_diffrn 1.593
_exptl_crystal_description 'platelet'
_diffrn_ambient_temperature 123
#These two values have been output from a single CSD field.
_refine_ls_R_factor_gt 0.0315
_refine_ls_wR_factor_gt 0.0315
_symmetry_cell_setting orthorhombic
_symmetry_space_group_name_H-M 'F d d 2'
_symmetry_Int_Tables_number 43
loop_
_symmetry_equiv_pos_site_id
_symmetry_equiv_pos_as_xyz
1 x,y,z
2 -x,-y,z
3 1/4-x,1/4+y,1/4+z
4 3/4+x,3/4-y,1/4+z
5 x,1/2+y,1/2+z
6 -x,1/2-y,1/2+z
7 1/4-x,3/4+y,3/4+z
8 3/4+x,1/4-y,3/4+z
9 1/2+x,y,1/2+z
10 1/2-x,-y,1/2+z
11 3/4-x,1/4+y,3/4+z
12 1/4+x,3/4-y,3/4+z
13 1/2+x,1/2+y,z
14 1/2-x,1/2-y,z
15 3/4-x,3/4+y,1/4+z
16 1/4+x,1/4-y,1/4+z
_cell_length_a 19.4708(13)
_cell_length_b 37.639(3)
_cell_length_c 3.7131(3)
_cell_angle_alpha 90
_cell_angle_beta 90
_cell_angle_gamma 90
_cell_formula_units_Z 16
loop_
_atom_type_symbol
_atom_type_radius_bond
C 0.68
H 0.23
N 0.68
O 0.68
loop_
_atom_site_label
_atom_site_type_symbol
_atom_site_fract_x
_atom_site_fract_y
_atom_site_fract_z
N1 N 0.08296(8) 0.10738(4) 0.4228(4)
C1 C 0.10204(10) 0.01568(5) 0.7679(6)
N2 N 0.19431(7) 0.11284(4) 0.5860(4)
C2 C 0.06583(9) 0.04338(5) 0.6186(5)
C3 C 0.17165(9) 0.01905(5) 0.8698(5)
C4 C 0.10184(9) 0.07515(4) 0.5699(5)
C5 C 0.20703(9) 0.05032(5) 0.8270(5)
C6 C 0.17152(9) 0.07889(4) 0.6702(5)
C7 C 0.14014(9) 0.12753(5) 0.4433(6)
N3 N 0.14095(7) 0.16305(4) 0.2985(4)
O1 O 0.19206(7) 0.18117(4) 0.3543(4)
O2 O 0.09065(7) 0.17260(3) 0.1223(4)
H1 H 0.0776(10) -0.0072(6) 0.805(6)
H2 H 0.1927(11) -0.0014(6) 0.973(8)
H3 H 0.0177(11) 0.0397(5) 0.547(6)
H4 H 0.2561(11) 0.0539(5) 0.899(7)
H5 H 0.0417(15) 0.1155(6) 0.366(8)
#END
