
#######################################################################
#
#                 Cambridge Crystallographic Data Centre
#                                CCDC
#
#######################################################################
#
# If this CIF has been generated from an entry in the Cambridge
# Structural Database, then it will include bibliographic, chemical,
# crystal, experimental, refinement or atomic coordinate data resulting
# from the CCDC's data processing and validation procedures.
#
#######################################################################

data_CSD_CIF_LUJPIR
_audit_creation_date 2015-05-19
_audit_creation_method CSD-ConQuest-V1
_database_code_CSD LUJPIR
_database_code_depnum_ccdc_archive 'CCDC 1042911'
_chemical_formula_sum 'C17 H17 N1 O3'
_chemical_formula_moiety
;
C17 H17 N1 O3
;
_journal_coden_Cambridge 1500
_journal_volume 5
_journal_year 2015
_journal_page_first 44728
_journal_name_full 'RSC Advances '
loop_
_publ_author_name
"A.Kumar"
"M.Sattar"
"A.Verma"
"A.Dara"
"S.Kumar"
_chemical_name_systematic
;
2-t-Butyl-7-methyl-4-nitrodibenzo[b,d]furan
;
_cell_volume    712.554
_exptl_crystal_density_diffrn 1.32
_exptl_crystal_description 'char'
_diffrn_ambient_temperature 296
#These two values have been output from a single CSD field.
_refine_ls_R_factor_gt 0.0434
_refine_ls_wR_factor_gt 0.0434
_symmetry_cell_setting monoclinic
_symmetry_space_group_name_H-M 'P 21'
_symmetry_Int_Tables_number 4
loop_
_symmetry_equiv_pos_site_id
_symmetry_equiv_pos_as_xyz
1 x,y,z
2 -x,1/2+y,-z
_cell_length_a 8.8713(5)
_cell_length_b 7.0968(4)
_cell_length_c 12.0516(6)
_cell_angle_alpha 90
_cell_angle_beta 110.095(3)
_cell_angle_gamma 90
_cell_formula_units_Z 2
loop_
_atom_type_symbol
_atom_type_radius_bond
C 0.68
H 0.23
N 0.68
O 0.68
loop_
_atom_site_label
_atom_site_type_symbol
_atom_site_fract_x
_atom_site_fract_y
_atom_site_fract_z
O1 O 0.1110(2) 0.0567(14) -0.14096(18)
O2 O 0.2036(2) 0.0556(15) 0.04647(18)
O3 O 0.52192(17) 0.0456(9) 0.16625(13)
N1 N 0.2216(2) 0.0482(11) -0.04844(19)
C1 C 0.6809(10) 0.2234(7) -0.2967(6)
H1 H 0.68930 0.23000 -0.37400
H2 H 0.78640 0.21700 -0.23830
H3 H 0.62670 0.33360 -0.28340
C2 C 0.5864(3) 0.0488(12) -0.28829(19)
C3 C 0.5596(3) 0.0511(12) -0.16901(19)
C4 C 0.6925(3) 0.0486(12) -0.06456(19)
H4 H 0.79550 0.04820 -0.06820
C5 C 0.6721(2) 0.0469(11) 0.04421(19)
C6 C 0.7805(2) 0.0460(11) 0.16534(19)
C7 C 0.6838(2) 0.0477(11) 0.23510(19)
C8 C 0.7421(3) 0.0440(11) 0.3563(2)
H5 H 0.67330 0.03810 0.39960
C9 C 0.9077(3) 0.0493(12) 0.4120(2)
C10 C 0.9798(3) 0.0461(14) 0.5443(2)
H6 H 0.90550 -0.01060 0.57640
H7 H 1.00270 0.17270 0.57340
H8 H 1.07740 -0.02580 0.56780
C11 C 0.6826(9) -0.1299(7) -0.2953(6)
H9 H 0.62350 -0.23990 -0.28810
H10 H 0.78440 -0.12820 -0.23220
H11 H 0.69950 -0.13260 -0.36980
C12 C 0.4074(3) 0.0459(12) -0.1595(2)
H12 H 0.31790 0.04010 -0.22810
C13 C 0.3850(2) 0.0492(12) -0.0510(2)
C14 C 0.5169(2) 0.0461(11) 0.05138(19)
C15 C 0.9459(3) 0.0454(12) 0.2213(2)
H13 H 1.01440 0.04580 0.17760
C16 C 1.0060(3) 0.0443(13) 0.3427(2)
H14 H 1.11670 0.04010 0.38050
C17 C 0.4291(3) 0.0445(15) -0.3922(2)
H15 H 0.45120 0.03460 -0.46460
H16 H 0.37020 0.15830 -0.39290
H17 H 0.36660 -0.06200 -0.38460
#END
