
#######################################################################
#
#                 Cambridge Crystallographic Data Centre
#                                CCDC
#
#######################################################################
#
# If this CIF has been generated from an entry in the Cambridge
# Structural Database, then it will include bibliographic, chemical,
# crystal, experimental, refinement or atomic coordinate data resulting
# from the CCDC's data processing and validation procedures.
#
#######################################################################

data_CSD_CIF_LUKFAZ
_audit_creation_date 2010-06-17
_audit_creation_method CSD-ConQuest-V1
_database_code_CSD LUKFAZ
_database_code_depnum_ccdc_archive 'CCDC 751986'
_chemical_formula_sum 'C23 H21 N1 O3'
_chemical_formula_moiety
;
C23 H21 N1 O3
;
_journal_coden_Cambridge 35
_journal_volume 74
_journal_year 2009
_journal_page_first 3299
_journal_name_full 'J.Org.Chem. '
loop_
_publ_author_name
"Jialiang Wang"
"Wen Huang"
"Zhengxing Zhang"
"Xu Xiang"
"Ruiting Liu"
"Xigeng Zhou"
_chemical_name_systematic
;
1-(1-(Benzyloxy)-3-(4-methylphenyl)prop-2-en-1-yl)-4-nitrobenzene
;
_cell_volume    996.774
_exptl_crystal_colour 'colorless'
_exptl_crystal_density_diffrn 1.198
_exptl_crystal_description 'block'
_diffrn_ambient_temperature 293
#These two values have been output from a single CSD field.
_refine_ls_R_factor_gt 0.0635
_refine_ls_wR_factor_gt 0.0635
_symmetry_cell_setting triclinic
_symmetry_space_group_name_H-M 'P -1'
_symmetry_Int_Tables_number 2
loop_
_symmetry_equiv_pos_site_id
_symmetry_equiv_pos_as_xyz
1 x,y,z
2 -x,-y,-z
_cell_length_a 6.059(12)
_cell_length_b 8.79(2)
_cell_length_c 19.21(4)
_cell_angle_alpha 84.05(5)
_cell_angle_beta 89.73(7)
_cell_angle_gamma 78.43(4)
_cell_formula_units_Z 2
loop_
_atom_type_symbol
_atom_type_radius_bond
C 0.68
H 0.23
N 0.68
O 0.68
loop_
_atom_site_label
_atom_site_type_symbol
_atom_site_fract_x
_atom_site_fract_y
_atom_site_fract_z
N1 N -0.2661(11) 0.8080(7) 0.5250(3)
O1 O -0.0611(6) 0.3381(5) 0.28675(17)
O2 O -0.4506(8) 0.7944(6) 0.5471(3)
O3 O -0.1459(8) 0.8893(6) 0.5487(2)
C1 C 0.0974(9) 0.4354(7) 0.3019(3)
H1 H 0.23530 0.36630 0.32150
C2 C 0.159(1) 0.5262(6) 0.2357(3)
H2 H 0.04890 0.60630 0.21420
C3 C 0.3604(9) 0.4989(6) 0.2064(3)
H3 H 0.46810 0.42210 0.23100
C4 C 0.4381(12) 0.5707(7) 0.1417(3)
C5 C 0.303(1) 0.6862(9) 0.0997(4)
H4 H 0.15530 0.71960 0.11350
C6 C 0.3750(13) 0.7610(7) 0.0345(3)
H5 H 0.27570 0.83870 0.00740
C7 C 0.5970(14) 0.7125(9) 0.0141(4)
C8 C 0.7268(11) 0.5900(9) 0.0584(4)
H6 H 0.87280 0.55080 0.04470
C9 C 0.6550(12) 0.5227(6) 0.1206(3)
H7 H 0.75380 0.44510 0.14810
C10 C 0.6801(10) 0.7805(6) -0.0535(2)
H8 H 0.83410 0.73090 -0.05980
H9 H 0.67020 0.89060 -0.05230
H10 H 0.58930 0.76350 -0.09160
C11 C -0.0075(10) 0.5353(7) 0.3590(3)
C12 C 0.1072(9) 0.6494(7) 0.3816(3)
H11 H 0.23750 0.66620 0.35900
C13 C 0.0281(10) 0.7359(7) 0.4366(3)
H12 H 0.10930 0.80540 0.45230
C14 C -0.1717(11) 0.7173(7) 0.4676(3)
C15 C -0.2921(10) 0.6113(8) 0.4451(3)
H13 H -0.42870 0.60190 0.46550
C16 C -0.2083(10) 0.5187(7) 0.3916(3)
H14 H -0.28730 0.44590 0.37800
C17 C 0.0401(9) 0.1956(7) 0.2587(3)
H15 H 0.16910 0.14320 0.28770
H16 H 0.09370 0.22030 0.21200
C18 C -0.1251(10) 0.0848(7) 0.2551(4)
C19 C -0.1503(11) 0.0218(8) 0.1926(3)
H17 H -0.07170 0.04700 0.15270
C20 C -0.3023(13) -0.0832(8) 0.1925(4)
H18 H -0.31270 -0.13320 0.15270
C21 C -0.4321(11) -0.1133(7) 0.2479(4)
H19 H -0.53470 -0.17850 0.24590
C22 C -0.4055(11) -0.0438(8) 0.3064(3)
H20 H -0.49390 -0.06250 0.34480
C23 C -0.2537(12) 0.0535(7) 0.3121(3)
H21 H -0.23910 0.09670 0.35360
#END
