
#######################################################################
#
#                 Cambridge Crystallographic Data Centre
#                                CCDC
#
#######################################################################
#
# If this CIF has been generated from an entry in the Cambridge
# Structural Database, then it will include bibliographic, chemical,
# crystal, experimental, refinement or atomic coordinate data resulting
# from the CCDC's data processing and validation procedures.
#
#######################################################################

data_CSD_CIF_LULYEW
_audit_creation_date 2003-03-12
_audit_creation_method CSD-ConQuest-V1
_database_code_CSD LULYEW
_database_code_depnum_ccdc_archive 'CCDC 177554'
_chemical_formula_sum 'C14 H12 N2 O3'
_chemical_formula_moiety
;
C14 H12 N2 O3
;
_journal_coden_Cambridge 119
_journal_volume 613
_journal_year 2002
_journal_page_first 131
_journal_name_full 'J.Mol.Struct. '
loop_
_publ_author_name
"B.Mondal"
"G.K.Lahiri"
"P.Naumov"
"S.W.Ng"
_chemical_name_systematic
;
2-Benzyliminiomethylene-4-nitrophenolate
;
_cell_volume   1219.922
_exptl_crystal_colour 'orange'
_exptl_crystal_density_diffrn 1.395
_exptl_crystal_description 'block'
_exptl_crystal_preparation 'dichloromethane/hexane'
_diffrn_ambient_temperature 298
#These two values have been output from a single CSD field.
_refine_ls_R_factor_gt 0.0412
_refine_ls_wR_factor_gt 0.0412
_symmetry_cell_setting monoclinic
_symmetry_space_group_name_H-M 'P 21/c'
_symmetry_Int_Tables_number 14
loop_
_symmetry_equiv_pos_site_id
_symmetry_equiv_pos_as_xyz
1 x,y,z
2 x,1/2-y,1/2+z
3 -x,-y,-z
4 -x,-1/2+y,-1/2-z
_cell_length_a 6.3350(7)
_cell_length_b 20.277(2)
_cell_length_c 9.9304(7)
_cell_angle_alpha 90
_cell_angle_beta 106.992(7)
_cell_angle_gamma 90
_cell_formula_units_Z 4
loop_
_atom_type_symbol
_atom_type_radius_bond
C 0.68
H 0.23
N 0.68
O 0.68
loop_
_atom_site_label
_atom_site_type_symbol
_atom_site_fract_x
_atom_site_fract_y
_atom_site_fract_z
O1 O 0.7078(2) 0.4898(1) 0.6243(1)
O2 O 1.6675(3) 0.4049(1) 0.9313(2)
O3 O 1.6163(2) 0.3492(1) 0.7385(2)
N1 N 1.5521(3) 0.3880(1) 0.8132(2)
N2 N 0.6562(2) 0.4232(1) 0.3868(2)
C1 C 0.9006(3) 0.4663(1) 0.6673(2)
C2 C 1.0453(3) 0.4806(1) 0.8046(2)
C3 C 1.2513(3) 0.4556(1) 0.8492(2)
C4 C 1.3325(3) 0.4149(1) 0.7615(2)
C5 C 1.2049(3) 0.3995(1) 0.6293(2)
C6 C 0.9896(3) 0.4243(1) 0.5802(2)
C7 C 0.8595(3) 0.4054(1) 0.4439(2)
C8 C 0.5203(3) 0.4001(1) 0.2505(2)
C9 C 0.3604(3) 0.3468(1) 0.2637(2)
C10 C 0.1546(3) 0.3426(1) 0.1647(2)
C11 C 0.0107(4) 0.2928(1) 0.1741(3)
C12 C 0.0678(5) 0.2479(1) 0.2810(4)
C13 C 0.2705(5) 0.2522(1) 0.3804(3)
C14 C 0.4150(4) 0.3009(1) 0.3710(2)
H1 H 0.599(4) 0.451(1) 0.444(2)
H2 H 0.99580 0.50770 0.86450
H3 H 1.34050 0.46540 0.93940
H4 H 1.26050 0.37260 0.57180
H5 H 0.92440 0.37840 0.39160
H6 H 0.61500 0.38300 0.19750
H7 H 0.43800 0.43700 0.19830
H8 H 0.11350 0.37320 0.09200
H9 H -0.12650 0.28990 0.10700
H10 H -0.03000 0.21460 0.28660
H11 H 0.30940 0.22200 0.45400
H12 H 0.55250 0.30310 0.43810
#END
