
#######################################################################
#
#                 Cambridge Crystallographic Data Centre
#                                CCDC
#
#######################################################################
#
# If this CIF has been generated from an entry in the Cambridge
# Structural Database, then it will include bibliographic, chemical,
# crystal, experimental, refinement or atomic coordinate data resulting
# from the CCDC's data processing and validation procedures.
#
#######################################################################

data_CSD_CIF_LUPBAA
_audit_creation_date 2010-06-17
_audit_creation_method CSD-ConQuest-V1
_database_code_CSD LUPBAA
_database_code_depnum_ccdc_archive 'CCDC 648042'
_chemical_formula_sum 'C15 H18 N2 O5'
_chemical_formula_moiety
;
C15 H18 N2 O5
;
_journal_coden_Cambridge 16
_journal_volume 65
_journal_year 2009
_journal_page_first 9285
_journal_name_full 'Tetrahedron '
loop_
_publ_author_name
"A.M.P.Koskinen"
"O.A.Kallatsa"
"M.Nissinen"
_chemical_name_systematic
;
(2-(3-Hydroxytetrahydrofuran-2-yl)pyrrolidin-1-yl)(4-nitrophenyl)methanone
;
_cell_volume   1416.228
_exptl_crystal_colour 'colorless'
_exptl_crystal_density_diffrn 1.437
_exptl_crystal_description 'block'
_diffrn_ambient_temperature 173
#These two values have been output from a single CSD field.
_refine_ls_R_factor_gt 0.0455
_refine_ls_wR_factor_gt 0.0455
_symmetry_cell_setting orthorhombic
_symmetry_space_group_name_H-M 'P 21 21 21'
_symmetry_Int_Tables_number 19
loop_
_symmetry_equiv_pos_site_id
_symmetry_equiv_pos_as_xyz
1 x,y,z
2 1/2+x,1/2-y,-z
3 -x,1/2+y,1/2-z
4 1/2-x,-y,1/2+z
_cell_length_a 9.987(6)
_cell_length_b 11.015(3)
_cell_length_c 12.874(5)
_cell_angle_alpha 90
_cell_angle_beta 90
_cell_angle_gamma 90
_cell_formula_units_Z 4
loop_
_atom_type_symbol
_atom_type_radius_bond
C 0.68
H 0.23
N 0.68
O 0.68
loop_
_atom_site_label
_atom_site_type_symbol
_atom_site_fract_x
_atom_site_fract_y
_atom_site_fract_z
O1 O -0.1415(3) -0.6760(3) -0.25560(19)
O2 O -0.0642(3) -0.8865(3) -0.3852(2)
H1 H -0.10440 -0.88060 -0.44230
O3 O -0.1086(3) -0.8199(2) -0.5877(2)
O4 O 0.3311(3) -0.5231(3) -0.9386(3)
O5 O 0.2119(3) -0.6412(3) -1.0347(2)
N1 N -0.1359(3) -0.6237(3) -0.5375(2)
N2 N 0.2363(4) -0.5906(3) -0.9516(3)
C1 C -0.1956(4) -0.6527(3) -0.4365(3)
H2 H -0.24990 -0.72880 -0.44100
C2 C -0.2860(4) -0.5429(4) -0.4124(3)
H3 H -0.37950 -0.56950 -0.40090
H4 H -0.25430 -0.50030 -0.34930
C3 C -0.2776(6) -0.4625(4) -0.5036(4)
H5 H -0.27460 -0.37660 -0.48110
H6 H -0.35710 -0.47390 -0.54840
C4 C -0.1537(4) -0.4936(4) -0.5619(3)
H7 H -0.16570 -0.48060 -0.63750
H8 H -0.07650 -0.44500 -0.53750
C5 C -0.0837(4) -0.6666(4) -0.3567(3)
H9 H -0.02650 -0.59220 -0.35900
C6 C 0.0065(4) -0.7773(4) -0.3650(3)
H10 H 0.07930 -0.76420 -0.41710
C7 C 0.0631(5) -0.7848(6) -0.2550(4)
H11 H 0.06670 -0.87010 -0.23080
H12 H 0.15440 -0.74980 -0.25200
C8 C -0.0337(5) -0.7111(5) -0.1895(3)
H13 H -0.06750 -0.76050 -0.13090
H14 H 0.01170 -0.63840 -0.16110
C9 C -0.0919(4) -0.7098(3) -0.6039(3)
C10 C -0.0128(4) -0.6704(3) -0.6970(3)
C11 C 0.0924(4) -0.5901(3) -0.6858(3)
H15 H 0.10810 -0.55270 -0.62040
C12 C 0.1752(4) -0.5637(4) -0.7688(3)
H16 H 0.24940 -0.51050 -0.76080
C13 C 0.1471(4) -0.6165(3) -0.8638(3)
C14 C 0.0416(4) -0.6971(3) -0.8767(3)
H17 H 0.02450 -0.73250 -0.94270
C15 C -0.0376(4) -0.7249(3) -0.7931(3)
H18 H -0.10920 -0.78110 -0.80050
#END
