
#######################################################################
#
#                 Cambridge Crystallographic Data Centre
#                                CCDC
#
#######################################################################
#
# If this CIF has been generated from an entry in the Cambridge
# Structural Database, then it will include bibliographic, chemical,
# crystal, experimental, refinement or atomic coordinate data resulting
# from the CCDC's data processing and validation procedures.
#
#######################################################################

data_CSD_CIF_LUPGUY01
_audit_creation_date 2003-03-12
_audit_creation_method CSD-ConQuest-V1
_database_code_CSD LUPGUY01
_database_code_depnum_ccdc_archive 'CCDC 203464'
_chemical_formula_sum 'C15 H13 N3 O4'
_chemical_formula_moiety
;
C15 H13 N3 O4
;
_journal_coden_Cambridge 41
_journal_volume 47
_journal_year 2002
_journal_page_first 667
_journal_name_full 'Kristallografiya(Russ.)(Crystallogr.Rep.) '
loop_
_publ_author_name
"K.Yu.Suponitsky"
"D.V.Gusev"
"L.N.Kuleshova"
"M.Yu.Antipin"
_chemical_name_systematic
;
1-Acetyl-3-(4-nitrophenyl)-5-(2'-furyl)-2-pyrazoline
;
_cell_volume    677.740
_exptl_crystal_colour 'light yellow'
_exptl_crystal_density_diffrn 1.466
_exptl_special_details
;
triclinic polymorph A

;
_exptl_crystal_description 'needle'
_exptl_crystal_preparation 'isopropanol/acetonitrile 3'
_diffrn_ambient_temperature 110
_diffrn_special_details
;
twinned crystal

;
#These two values have been output from a single CSD field.
_refine_ls_R_factor_gt 0.1186
_refine_ls_wR_factor_gt 0.1186
_symmetry_cell_setting triclinic
_symmetry_space_group_name_H-M 'P -1'
_symmetry_Int_Tables_number 2
loop_
_symmetry_equiv_pos_site_id
_symmetry_equiv_pos_as_xyz
1 x,y,z
2 -x,-y,-z
_cell_length_a 6.709(2)
_cell_length_b 8.276(3)
_cell_length_c 13.782(6)
_cell_angle_alpha 72.726(8)
_cell_angle_beta 89.023(9)
_cell_angle_gamma 68.799(11)
_cell_formula_units_Z 2
loop_
_atom_type_symbol
_atom_type_radius_bond
C 0.68
H 0.23
N 0.68
O 0.68
loop_
_atom_site_label
_atom_site_type_symbol
_atom_site_fract_x
_atom_site_fract_y
_atom_site_fract_z
N1 N 0.1643(6) 0.1781(5) 0.2627(3)
N2 N 0.0362(6) 0.2070(5) 0.3391(3)
N3 N 0.8800(6) 0.2489(6) -0.0462(3)
O1 O -0.2677(5) 0.5341(5) 0.4413(3)
O2 O -0.2156(5) 0.1495(5) 0.4387(3)
O3 O 0.8800(6) 0.1626(6) -0.1045(3)
O4 O 1.0011(6) 0.3331(6) -0.0495(3)
C1 C 0.4322(7) 0.1817(7) 0.1026(4)
C2 C 0.5837(8) 0.1701(7) 0.0322(4)
C3 C 0.7238(7) 0.2600(7) 0.0303(3)
C4 C 0.7225(7) 0.3560(7) 0.0962(4)
C5 C 0.5711(7) 0.3671(7) 0.1679(4)
C6 C 0.4293(6) 0.2752(6) 0.1728(3)
C7 C 0.2747(6) 0.2818(6) 0.2503(3)
C8 C 0.2356(8) 0.3932(8) 0.3227(4)
C9 C 0.0525(7) 0.3511(7) 0.3799(4)
C10 C -0.1555(7) 0.5141(6) 0.3577(4)
C11 C -0.2658(7) 0.6413(7) 0.2728(4)
C12 C -0.4644(8) 0.7514(8) 0.3008(4)
C13 C -0.4550(8) 0.6811(8) 0.4037(4)
C14 C -0.0945(6) 0.1111(6) 0.3743(4)
C15 C -0.0778(8) -0.0406(7) 0.3330(4)
H1 H 0.318(7) 0.104(6) 0.100(4)
H2 H 0.575(9) 0.093(8) -0.017(5)
H3 H 0.823(7) 0.417(6) 0.095(4)
H4 H 0.574(8) 0.430(8) 0.223(4)
H5 H 0.169(7) 0.515(6) 0.284(3)
H6 H 0.358(7) 0.354(7) 0.370(4)
H7 H 0.109(9) 0.281(9) 0.456(5)
H8 H -0.258(12) 0.674(11) 0.204(6)
H9 H -0.553(7) 0.846(6) 0.257(4)
H10 H -0.545(11) 0.698(9) 0.464(5)
H11 H -0.040(12) -0.028(11) 0.277(7)
H12 H -0.189(9) -0.104(8) 0.356(5)
H13 H 0.030(11) -0.122(9) 0.382(5)
#END
