
#######################################################################
#
#                 Cambridge Crystallographic Data Centre
#                                CCDC
#
#######################################################################
#
# If this CIF has been generated from an entry in the Cambridge
# Structural Database, then it will include bibliographic, chemical,
# crystal, experimental, refinement or atomic coordinate data resulting
# from the CCDC's data processing and validation procedures.
#
#######################################################################

data_CSD_CIF_LUPWOI
_audit_creation_date 2003-03-12
_audit_creation_method CSD-ConQuest-V1
_database_code_CSD LUPWOI
_database_code_depnum_ccdc_archive 'CCDC 204041'
_chemical_formula_sum 'C6 H8 N4 O4'
_chemical_formula_moiety
;
C6 H8 N4 O4
;
_journal_coeditor_code "IUCr SK1599"
_journal_coden_Cambridge 591
_journal_volume 59
_journal_year 2003
_journal_page_first o14
_journal_name_full 'Acta Crystallogr.,Sect.C:Cryst.Struct.Commun. '
loop_
_publ_author_name
"C.Glidewell"
"J.N.Low"
"M.Melguizo"
"A.Quesada"
_chemical_name_systematic
;
2-Amino-4,6-dimethoxy-5-nitropyrimidine
;
_chemical_melting_point 462
_cell_volume    807.542
_exptl_crystal_colour 'yellow'
_exptl_crystal_density_diffrn 1.646
_exptl_crystal_description 'block'
_exptl_crystal_preparation 'ethyl acetate'
_diffrn_ambient_temperature 120
#These two values have been output from a single CSD field.
_refine_ls_R_factor_gt 0.04
_refine_ls_wR_factor_gt 0.04
_symmetry_cell_setting monoclinic
_symmetry_space_group_name_H-M 'P 21/c'
_symmetry_Int_Tables_number 14
loop_
_symmetry_equiv_pos_site_id
_symmetry_equiv_pos_as_xyz
1 x,y,z
2 x,1/2-y,1/2+z
3 -x,-y,-z
4 -x,-1/2+y,-1/2-z
_cell_length_a 7.3443(2)
_cell_length_b 7.8437(2)
_cell_length_c 14.9129(4)
_cell_angle_alpha 90
_cell_angle_beta 109.9470(13)
_cell_angle_gamma 90
_cell_formula_units_Z 4
loop_
_atom_type_symbol
_atom_type_radius_bond
C 0.68
H 0.23
N 0.68
O 0.68
loop_
_atom_site_label
_atom_site_type_symbol
_atom_site_fract_x
_atom_site_fract_y
_atom_site_fract_z
N1 N 0.22558(15) 0.10695(13) 0.46351(7)
C1 C 0.21598(18) 0.02873(16) 0.38128(9)
N2 N 0.37375(15) -0.04917(15) 0.37713(8)
N3 N 0.06003(15) 0.02311(14) 0.30037(7)
C2 C -0.09743(18) 0.10148(16) 0.30191(9)
O1 O -0.25573(13) 0.09551(12) 0.22500(6)
C3 C -0.24346(19) -0.00391(18) 0.14537(9)
C4 C -0.10622(17) 0.18542(16) 0.38375(9)
N4 N -0.27988(15) 0.26800(14) 0.38510(8)
O2 O -0.39187(13) 0.32829(12) 0.30986(7)
O3 O -0.31205(14) 0.27579(13) 0.46063(7)
C5 C 0.06565(18) 0.18391(15) 0.46433(9)
O4 O 0.06585(13) 0.26712(12) 0.54186(6)
C6 C 0.24604(19) 0.27703(18) 0.62109(9)
H1 H 0.48080 -0.04890 0.42710
H2 H 0.37110 -0.10100 0.32440
H3 H -0.14670 0.04680 0.12160
H4 H -0.36990 -0.00470 0.09430
H5 H -0.20540 -0.12100 0.16640
H6 H 0.29020 0.16170 0.64350
H7 H 0.22630 0.34220 0.67310
H8 H 0.34390 0.33380 0.60050
#END
