
#######################################################################
#
#                 Cambridge Crystallographic Data Centre
#                                CCDC
#
#######################################################################
#
# If this CIF has been generated from an entry in the Cambridge
# Structural Database, then it will include bibliographic, chemical,
# crystal, experimental, refinement or atomic coordinate data resulting
# from the CCDC's data processing and validation procedures.
#
#######################################################################

data_CSD_CIF_LUQPEU
_audit_creation_date 2015-10-05
_audit_creation_method CSD-ConQuest-V1
_database_code_CSD LUQPEU
_database_code_depnum_ccdc_archive 'CCDC 1429574'
_chemical_formula_sum 'C13 H15 N1 O4'
_chemical_formula_moiety
;
C13 H15 N1 O4
;
_journal_coden_Cambridge 1078
_journal_year 2015
_journal_name_full 'CSD Communication(Private Communication) '
loop_
_publ_author_name
"Pilho Kim"
"M.J.Kurth"
"M.M.Olmstead"
_chemical_name_systematic
;
t-butyl 3-(4-nitrophenyl)acrylate
;
_cell_volume    614.634
_exptl_crystal_colour 'colorless'
_exptl_crystal_density_diffrn 1.347
_exptl_crystal_description 'plate'
_exptl_crystal_preparation 'Re-crystallisation from solvent'
_diffrn_ambient_temperature 90
#These two values have been output from a single CSD field.
_refine_ls_R_factor_gt 0.0486
_refine_ls_wR_factor_gt 0.0486
_symmetry_cell_setting triclinic
_symmetry_space_group_name_H-M 'P -1'
_symmetry_Int_Tables_number 2
loop_
_symmetry_equiv_pos_site_id
_symmetry_equiv_pos_as_xyz
1 x,y,z
2 -x,-y,-z
_cell_length_a 6.7081(14)
_cell_length_b 8.217(2)
_cell_length_c 11.371(2)
_cell_angle_alpha 98.476(4)
_cell_angle_beta 90.999(4)
_cell_angle_gamma 97.196(4)
_cell_formula_units_Z 2
loop_
_atom_type_symbol
_atom_type_radius_bond
C 0.68
H 0.23
N 0.68
O 0.68
loop_
_atom_site_label
_atom_site_type_symbol
_atom_site_fract_x
_atom_site_fract_y
_atom_site_fract_z
N1 N 0.2962(4) 1.0377(3) -0.1536(2)
C1 C -0.0070(4) 0.2132(4) 0.4887(2)
H1 H -0.03560 0.14180 0.41180
H2 H -0.09660 0.29940 0.49710
H3 H -0.02910 0.14620 0.55300
O1 O 0.2314(3) 0.4182(2) 0.41305(15)
C2 C 0.2568(5) 0.4004(4) 0.6158(2)
H4 H 0.39110 0.46300 0.61550
H5 H 0.25360 0.32950 0.67800
H6 H 0.15720 0.47780 0.63140
O2 O 0.1607(3) 0.2324(3) 0.24527(16)
O3 O 0.3397(3) 1.0068(3) -0.25865(17)
C3 C 0.3578(5) 0.1725(4) 0.4693(2)
H7 H 0.32480 0.10520 0.39120
H8 H 0.35350 0.10000 0.53060
H9 H 0.49310 0.23350 0.46910
O4 O 0.2686(3) 1.1765(3) -0.10671(17)
C4 C 0.2082(4) 0.2932(3) 0.4953(2)
C5 C 0.2019(4) 0.3716(4) 0.2945(2)
C6 C 0.2299(4) 0.5220(4) 0.2358(2)
H10 H 0.25310 0.62880 0.28270
C7 C 0.2224(4) 0.5079(4) 0.1180(2)
H11 H 0.20290 0.39920 0.07390
C8 C 0.2424(4) 0.6492(4) 0.0511(2)
C9 C 0.2129(4) 0.8079(4) 0.1016(2)
H12 H 0.18070 0.82880 0.18300
C10 C 0.2299(4) 0.9355(4) 0.0353(2)
H13 H 0.20830 1.04430 0.06950
C11 C 0.2792(4) 0.9015(4) -0.0830(2)
C12 C 0.3087(4) 0.7460(4) -0.1360(2)
H14 H 0.34230 0.72640 -0.21730
C13 C 0.2886(4) 0.6188(4) -0.0691(2)
H15 H 0.30610 0.50970 -0.10460
#END
