
#######################################################################
#
#                 Cambridge Crystallographic Data Centre
#                                CCDC
#
#######################################################################
#
# If this CIF has been generated from an entry in the Cambridge
# Structural Database, then it will include bibliographic, chemical,
# crystal, experimental, refinement or atomic coordinate data resulting
# from the CCDC's data processing and validation procedures.
#
#######################################################################

data_CSD_CIF_LURYOM
_audit_creation_date 2003-04-28
_audit_creation_method CSD-ConQuest-V1
_database_code_CSD LURYOM
_database_code_depnum_ccdc_archive 'CCDC 186129'
_chemical_formula_sum 'C5 H12 N4 O4'
_chemical_formula_moiety
;
C5 H12 N4 O4
;
_journal_coden_Cambridge 119
_journal_volume 644
_journal_year 2003
_journal_page_first 37
_journal_name_full 'J.Mol.Struct. '
loop_
_publ_author_name
"D.Spitzer"
"B.Wanders"
"M.R.Schafer"
"R.Welter"
_chemical_name_systematic
;
3,5-Dinitro-3,5-diazaheptane
;
_chemical_melting_point 348
_cell_volume    895.069
_exptl_crystal_colour 'colorless'
_exptl_crystal_density_diffrn 1.426
_exptl_crystal_description 'prism'
_exptl_crystal_preparation 'ethanol'
_diffrn_ambient_temperature 183
#These two values have been output from a single CSD field.
_refine_ls_R_factor_gt 0.0564
_refine_ls_wR_factor_gt 0.0564
_symmetry_cell_setting monoclinic
_symmetry_space_group_name_H-M 'P 21/c'
_symmetry_Int_Tables_number 14
loop_
_symmetry_equiv_pos_site_id
_symmetry_equiv_pos_as_xyz
1 x,y,z
2 x,1/2-y,1/2+z
3 -x,-y,-z
4 -x,-1/2+y,-1/2-z
_cell_length_a 8.531(5)
_cell_length_b 5.774(5)
_cell_length_c 18.500(5)
_cell_angle_alpha 90
_cell_angle_beta 100.821(5)
_cell_angle_gamma 90
_cell_formula_units_Z 4
loop_
_atom_type_symbol
_atom_type_radius_bond
C 0.68
H 0.23
N 0.68
O 0.68
loop_
_atom_site_label
_atom_site_type_symbol
_atom_site_fract_x
_atom_site_fract_y
_atom_site_fract_z
O1 O 0.68446(12) -0.24961(14) 0.96298(5)
O2 O 0.43567(11) -0.13861(14) 0.93549(4)
O3 O 0.53353(11) 0.18890(13) 0.74372(4)
O4 O 0.27662(11) 0.15572(14) 0.70452(4)
N1 N 0.62200(11) 0.06853(15) 0.89679(5)
N2 N 0.37037(12) 0.19829(16) 0.82349(5)
N3 N 0.57901(12) -0.11495(15) 0.93397(5)
N4 N 0.39438(12) 0.18253(14) 0.75373(5)
C1 C 0.50676(14) 0.25623(17) 0.88016(6)
H1 H 0.46920 0.29800 0.92470
H2 H 0.55990 0.39050 0.86440
C2 C 0.79246(14) 0.1114(2) 0.89992(7)
H3 H 0.80570 0.20490 0.85790
H4 H 0.84600 -0.03530 0.89650
C3 C 0.87098(16) 0.2341(2) 0.97010(8)
H5 H 0.98200 0.25810 0.96940
H6 H 0.86050 0.14080 1.01190
H7 H 0.82000 0.38100 0.97340
C4 C 0.20685(15) 0.2217(2) 0.83629(7)
H8 H 0.20370 0.17600 0.88650
H9 H 0.13770 0.11770 0.80350
C5 C 0.14437(17) 0.4665(3) 0.82383(9)
H10 H 0.03730 0.47370 0.83290
H11 H 0.14500 0.51150 0.77390
H12 H 0.21120 0.56980 0.85680
#END
