
#######################################################################
#
#                 Cambridge Crystallographic Data Centre
#                                CCDC
#
#######################################################################
#
# If this CIF has been generated from an entry in the Cambridge
# Structural Database, then it will include bibliographic, chemical,
# crystal, experimental, refinement or atomic coordinate data resulting
# from the CCDC's data processing and validation procedures.
#
#######################################################################

data_CSD_CIF_LURZON
_audit_creation_date 2003-04-28
_audit_creation_method CSD-ConQuest-V1
_database_code_CSD LURZON
_database_code_depnum_ccdc_archive 'CCDC 186134'
_chemical_formula_sum 'C5 H12 N4 O4'
_chemical_formula_moiety
;
C5 H12 N4 O4
;
_journal_coden_Cambridge 119
_journal_volume 644
_journal_year 2003
_journal_page_first 37
_journal_name_full 'J.Mol.Struct. '
loop_
_publ_author_name
"D.Spitzer"
"B.Wanders"
"M.R.Schafer"
"R.Welter"
_chemical_name_systematic
;
5-Methyl-2,4-dinitro-2,4-diazahexane
;
_chemical_melting_point 334
_cell_volume    896.005
_exptl_crystal_colour 'colorless'
_exptl_crystal_density_diffrn 1.425
_exptl_crystal_description 'prism'
_exptl_crystal_preparation 'ethanol'
_diffrn_ambient_temperature 183
#These two values have been output from a single CSD field.
_refine_ls_R_factor_gt 0.0395
_refine_ls_wR_factor_gt 0.0395
_symmetry_cell_setting orthorhombic
_symmetry_space_group_name_H-M 'P n a 21'
_symmetry_Int_Tables_number 33
loop_
_symmetry_equiv_pos_site_id
_symmetry_equiv_pos_as_xyz
1 x,y,z
2 -x,-y,1/2+z
3 1/2-x,1/2+y,1/2+z
4 1/2+x,1/2-y,z
_cell_length_a 13.244(5)
_cell_length_b 9.470(5)
_cell_length_c 7.144(5)
_cell_angle_alpha 90
_cell_angle_beta 90
_cell_angle_gamma 90
_cell_formula_units_Z 4
loop_
_atom_type_symbol
_atom_type_radius_bond
C 0.68
H 0.23
N 0.68
O 0.68
loop_
_atom_site_label
_atom_site_type_symbol
_atom_site_fract_x
_atom_site_fract_y
_atom_site_fract_z
O1 O 0.39615(10) 0.22913(12) 0.37048(19)
O2 O 0.72406(10) 0.05150(13) 0.5353(2)
O3 O 0.50558(11) 0.2558(1) 0.14433(19)
O4 O 0.78431(10) -0.04557(13) 0.2819(3)
N1 N 0.69932(11) 0.15384(13) 0.2607(2)
N2 N 0.48268(12) 0.24503(11) 0.3120(2)
N3 N 0.55881(11) 0.24912(12) 0.4385(2)
N4 N 0.73861(11) 0.04898(14) 0.3653(2)
C1 C 0.65902(13) 0.27440(14) 0.3627(3)
H1 H 0.70450 0.29750 0.46470
H2 H 0.65640 0.35520 0.27950
C2 C 0.47741(15) 0.37862(18) 0.7020(3)
H3 H 0.50700 0.46050 0.64830
H4 H 0.47880 0.38610 0.83450
H5 H 0.40950 0.37040 0.66080
C3 C 0.72793(15) 0.15969(19) 0.0640(3)
H6 H 0.70380 0.24510 0.01050
H7 H 0.69930 0.08160 -0.00030
H8 H 0.79940 0.15620 0.05360
C4 C 0.53681(14) 0.24813(13) 0.6413(3)
H9 H 0.60240 0.25440 0.70440
C5 C 0.48962(16) 0.11021(19) 0.7063(3)
H10 H 0.52890 0.03320 0.66210
H11 H 0.42300 0.10300 0.65810
H12 H 0.48750 0.10830 0.83920
#END
