
#######################################################################
#
#                 Cambridge Crystallographic Data Centre
#                                CCDC
#
#######################################################################
#
# If this CIF has been generated from an entry in the Cambridge
# Structural Database, then it will include bibliographic, chemical,
# crystal, experimental, refinement or atomic coordinate data resulting
# from the CCDC's data processing and validation procedures.
#
#######################################################################

data_CSD_CIF_LURZUT
_audit_creation_date 2003-04-28
_audit_creation_method CSD-ConQuest-V1
_database_code_CSD LURZUT
_database_code_depnum_ccdc_archive 'CCDC 186326'
_chemical_formula_sum 'C7 H16 N4 O4'
_chemical_formula_moiety
;
C7 H16 N4 O4
;
_journal_coden_Cambridge 119
_journal_volume 644
_journal_year 2003
_journal_page_first 37
_journal_name_full 'J.Mol.Struct. '
loop_
_publ_author_name
"D.Spitzer"
"B.Wanders"
"M.R.Schafer"
"R.Welter"
_chemical_name_systematic
;
2,6-Dimethyl-3,5-dinitro-3,5-diazaheptane
;
_chemical_melting_point 358
_cell_volume    528.340
_exptl_crystal_colour 'colorless'
_exptl_crystal_density_diffrn 1.384
_exptl_crystal_description 'prism'
_exptl_crystal_preparation 'ethanol'
_diffrn_ambient_temperature 183
#These two values have been output from a single CSD field.
_refine_ls_R_factor_gt 0.0357
_refine_ls_wR_factor_gt 0.0357
_symmetry_cell_setting monoclinic
_symmetry_space_group_name_H-M 'P 21'
_symmetry_Int_Tables_number 4
loop_
_symmetry_equiv_pos_site_id
_symmetry_equiv_pos_as_xyz
1 x,y,z
2 -x,1/2+y,-z
_cell_length_a 7.898(5)
_cell_length_b 6.167(5)
_cell_length_c 10.933(5)
_cell_angle_alpha 90
_cell_angle_beta 97.178(5)
_cell_angle_gamma 90
_cell_formula_units_Z 2
loop_
_atom_type_symbol
_atom_type_radius_bond
C 0.68
H 0.23
N 0.68
O 0.68
loop_
_atom_site_label
_atom_site_type_symbol
_atom_site_fract_x
_atom_site_fract_y
_atom_site_fract_z
O1 O 0.19991(16) 0.3604(3) 0.14359(13)
O2 O -0.19852(15) 0.5857(3) 0.39056(13)
O3 O 0.01631(17) 0.6033(3) 0.53605(12)
O4 O 0.01143(19) 0.1141(3) 0.08077(13)
N1 N -0.04431(18) 0.6047(3) 0.42735(14)
N2 N -0.07169(18) 0.4169(3) 0.16528(13)
N3 N 0.0523(2) 0.2919(3) 0.12761(15)
N4 N 0.06346(17) 0.6257(3) 0.34091(13)
C1 C 0.2437(2) 0.6862(4) 0.38522(16)
H1 H 0.24220 0.77110 0.46090
C2 C -0.0177(2) 0.6305(3) 0.21322(16)
H2 H -0.11650 0.72500 0.20780
H3 H 0.06180 0.69160 0.16180
C3 C -0.2512(2) 0.3492(4) 0.12318(18)
H4 H -0.24970 0.27400 0.04440
C4 C -0.3143(2) 0.1866(4) 0.2116(2)
H5 H -0.41790 0.12340 0.17460
H6 H -0.33340 0.25840 0.28550
H7 H -0.23090 0.07640 0.23000
C5 C -0.3670(2) 0.5420(5) 0.0981(2)
H8 H -0.47960 0.49360 0.07080
H9 H -0.32750 0.62970 0.03610
H10 H -0.36720 0.62440 0.17150
C6 C 0.3171(2) 0.8308(4) 0.29250(19)
H11 H 0.43200 0.86610 0.32230
H12 H 0.25160 0.96010 0.28110
H13 H 0.31360 0.75660 0.21610
C7 C 0.3524(2) 0.4877(4) 0.41852(19)
H14 H 0.30340 0.40490 0.47840
H15 H 0.46420 0.53150 0.45120
H16 H 0.35770 0.40210 0.34690
#END
