
#######################################################################
#
#                 Cambridge Crystallographic Data Centre
#                                CCDC
#
#######################################################################
#
# If this CIF has been generated from an entry in the Cambridge
# Structural Database, then it will include bibliographic, chemical,
# crystal, experimental, refinement or atomic coordinate data resulting
# from the CCDC's data processing and validation procedures.
#
#######################################################################

data_CSD_CIF_LUVNIA
_audit_creation_date 2010-11-04
_audit_creation_method CSD-ConQuest-V1
_database_code_CSD LUVNIA
_database_code_depnum_ccdc_archive 'CCDC 652908'
_chemical_formula_sum 'C4 H8 N8 O4'
_chemical_formula_moiety
;
C4 H8 N8 O4
;
_journal_coden_Cambridge 29
_journal_volume 636
_journal_year 2010
_journal_page_first 735
_journal_name_full 'Z.Anorg.Allg.Chem. '
loop_
_publ_author_name
"N.Fischer"
"K.Karaghiosoff"
"T.M.Klapotke"
"J.Stierstorfer"
_chemical_name_systematic
;
N-Methyl-N'-(1-methyl-1H-tetrazol-5-yl)-N,N'-dinitromethanediamine
;
_cell_volume    967.445
_exptl_crystal_colour 'colorless'
_exptl_crystal_density_diffrn 1.594
_exptl_special_details
;
Study temperature given as 100 K and 200 K in the CIF

;
_exptl_crystal_description 'rods'
_diffrn_ambient_temperature 100
#These two values have been output from a single CSD field.
_refine_ls_R_factor_gt 0.0342
_refine_ls_wR_factor_gt 0.0342
_symmetry_cell_setting monoclinic
_symmetry_space_group_name_H-M 'P 21/c'
_symmetry_Int_Tables_number 14
loop_
_symmetry_equiv_pos_site_id
_symmetry_equiv_pos_as_xyz
1 x,y,z
2 -x,1/2+y,1/2-z
3 -x,-y,-z
4 x,-1/2-y,-1/2+z
_cell_length_a 11.1953(6)
_cell_length_b 9.3248(4)
_cell_length_c 9.9411(4)
_cell_angle_alpha 90
_cell_angle_beta 111.217(5)
_cell_angle_gamma 90
_cell_formula_units_Z 4
loop_
_atom_type_symbol
_atom_type_radius_bond
C 0.68
H 0.23
N 0.68
O 0.68
loop_
_atom_site_label
_atom_site_type_symbol
_atom_site_fract_x
_atom_site_fract_y
_atom_site_fract_z
O1 O 0.60367(12) -0.20188(13) 1.31034(11)
O2 O 0.62974(12) -0.26929(13) 1.11200(12)
O3 O 0.87480(12) 0.14572(13) 1.29993(11)
N1 N 0.79444(14) -0.05715(16) 1.03271(13)
O4 O 0.94562(13) 0.14974(15) 1.53618(12)
N2 N 0.67010(14) -0.04281(15) 1.18619(13)
N3 N 0.78845(15) 0.00057(17) 0.90646(14)
N4 N 0.74713(15) 0.07982(16) 1.41448(13)
N5 N 0.62135(14) 0.07230(15) 0.95512(13)
N6 N 0.86118(16) 0.12877(17) 1.41728(14)
N7 N 0.63044(14) -0.18123(16) 1.20309(14)
N8 N 0.68468(15) 0.07966(16) 0.86139(14)
C1 C 0.64625(19) 0.0711(2) 1.27375(18)
C2 C 0.69163(17) -0.01303(19) 1.05892(16)
C3 C 0.7261(3) 0.0722(3) 1.5507(2)
C4 C 0.9001(2) -0.1504(3) 1.1157(2)
H1 H 0.5679(18) 0.0524(18) 1.2883(15)
H2 H 0.6379(16) 0.164(2) 1.2213(16)
H3 H 0.784(2) 0.001(2) 1.615(2)
H4 H 0.641(2) 0.040(2) 1.5341(19)
H5 H 0.975(3) -0.112(3) 1.102(2)
H6 H 0.884(2) -0.247(3) 1.080(2)
H7 H 0.908(2) -0.151(2) 1.212(2)
H8 H 0.742(2) 0.163(3) 1.596(2)
#END
