
#######################################################################
#
#                 Cambridge Crystallographic Data Centre
#                                CCDC
#
#######################################################################
#
# If this CIF has been generated from an entry in the Cambridge
# Structural Database, then it will include bibliographic, chemical,
# crystal, experimental, refinement or atomic coordinate data resulting
# from the CCDC's data processing and validation procedures.
#
#######################################################################

data_CSD_CIF_LUYZOV
_audit_creation_date 2010-10-28
_audit_creation_method CSD-ConQuest-V1
_database_code_CSD LUYZOV
_database_code_depnum_ccdc_archive 'CCDC 761108'
_chemical_formula_sum 'C33 H29 N1 O8'
_chemical_formula_moiety
;
C33 H29 N1 O8
;
_journal_coden_Cambridge 182
_journal_volume 46
_journal_year 2010
_journal_page_first 4384
_journal_name_full 'Chem.Commun. '
loop_
_publ_author_name
"Wanxiang Zhao"
"Junliang Zhang"
_chemical_name_systematic
;
Dimethyl 
3-(methoxy(phenyl)methyl)-4-(4-nitrobenzylidene)-2-phenyl-4,7-dihydro-1-benzof
uran-6,6(5H)-dicarboxylate
;
_cell_volume   1430.683
_exptl_crystal_colour 'yellow'
_exptl_crystal_density_diffrn 1.318
_exptl_crystal_description 'block'
_diffrn_ambient_temperature 296
#These two values have been output from a single CSD field.
_refine_ls_R_factor_gt 0.0502
_refine_ls_wR_factor_gt 0.0502
_symmetry_cell_setting triclinic
_symmetry_space_group_name_H-M 'P -1'
_symmetry_Int_Tables_number 2
loop_
_symmetry_equiv_pos_site_id
_symmetry_equiv_pos_as_xyz
1 x,y,z
2 -x,-y,-z
_cell_length_a 10.1741(4)
_cell_length_b 10.9686(4)
_cell_length_c 14.9749(6)
_cell_angle_alpha 80.837(1)
_cell_angle_beta 73.106(1)
_cell_angle_gamma 63.543(1)
_cell_formula_units_Z 2
loop_
_atom_type_symbol
_atom_type_radius_bond
C 0.68
H 0.23
N 0.68
O 0.68
loop_
_atom_site_label
_atom_site_type_symbol
_atom_site_fract_x
_atom_site_fract_y
_atom_site_fract_z
O1 O 0.74596(17) 0.54453(16) 0.27974(12)
O2 O 0.25626(18) 0.76716(17) 0.43240(11)
O3 O 0.6188(3) 0.2340(3) 0.30980(19)
O4 O 0.4098(2) 0.31536(19) 0.26343(12)
O5 O 0.8085(3) 0.1842(3) 0.0697(2)
O6 O 0.5819(2) 0.25788(19) 0.05179(13)
O7 O -0.1931(3) 0.6411(2) 0.03403(18)
O8 O -0.3079(2) 0.8495(2) 0.07064(16)
N1 N -0.2026(3) 0.7376(3) 0.06970(15)
C1 C 0.3689(3) 0.9680(3) 0.23370(18)
H1 H 0.47220 0.91460 0.21290
C2 C 0.2972(4) 1.0804(3) 0.1800(2)
H2 H 0.35270 1.10210 0.12370
C3 C 0.1462(4) 1.1591(3) 0.2094(3)
H3 H 0.09810 1.23430 0.17330
C4 C 0.0659(4) 1.1276(3) 0.2916(3)
H4 H -0.03750 1.18140 0.31160
C5 C 0.1357(3) 1.0164(3) 0.3461(2)
H5 H 0.07910 0.99670 0.40260
C6 C 0.2888(3) 0.9343(2) 0.31740(16)
C7 C 0.0258(3) 0.8098(2) 0.18839(18)
H6 H 0.02610 0.88450 0.21020
C8 C -0.0871(3) 0.8303(3) 0.14693(18)
H7 H -0.16230 0.91710 0.14070
C9 C -0.0853(3) 0.7189(2) 0.11515(16)
C10 C 0.0220(3) 0.5895(3) 0.12579(17)
H8 H 0.01980 0.51530 0.10460
C11 C 0.1331(3) 0.5712(2) 0.16842(17)
H9 H 0.20520 0.48360 0.17700
C12 C 0.1393(2) 0.6812(2) 0.19880(16)
C13 C 0.8587(3) 0.6256(3) 0.39698(18)
H10 H 0.89710 0.53250 0.38900
C14 C 0.9352(3) 0.6746(4) 0.4332(2)
H11 H 1.02490 0.61460 0.44920
C15 C 0.8801(4) 0.8102(4) 0.4457(2)
H12 H 0.93170 0.84250 0.47070
C16 C 0.7484(4) 0.8997(3) 0.4214(2)
H13 H 0.71080 0.99240 0.43020
C17 C 0.6720(3) 0.8516(3) 0.38403(19)
H14 H 0.58400 0.91270 0.36650
C18 C 0.7248(3) 0.7136(3) 0.37230(16)
C19 C 0.4051(3) 0.5959(2) 0.21882(16)
C20 C 0.4858(3) 0.4981(2) 0.13963(16)
H15 H 0.53050 0.54120 0.08560
H16 H 0.41250 0.47820 0.12270
C21 C 0.6111(3) 0.3635(2) 0.16524(16)
C22 C 0.7353(3) 0.3940(2) 0.18081(19)
H17 H 0.80190 0.31650 0.21180
H18 H 0.79530 0.41240 0.12150
C23 C 0.6602(3) 0.5146(2) 0.23960(17)
C24 C 0.5133(2) 0.6052(2) 0.26214(16)
C25 C 0.5045(2) 0.6997(2) 0.32365(16)
C26 C 0.6485(3) 0.6607(2) 0.32984(17)
C27 C 0.3672(3) 0.8128(2) 0.37744(17)
H19 H 0.40040 0.84530 0.42030
C28 C 0.3069(4) 0.6660(4) 0.5016(2)
H20 H 0.22730 0.63920 0.53490
H21 H 0.33390 0.70200 0.54440
H22 H 0.39370 0.58830 0.47240
C29 C 0.2559(3) 0.6723(2) 0.24196(17)
H23 H 0.22090 0.72770 0.29250
C30 C 0.5489(3) 0.2968(3) 0.25447(18)
C31 C 0.3366(4) 0.2642(4) 0.3480(2)
H24 H 0.23560 0.28410 0.34570
H25 H 0.33210 0.30690 0.40060
H26 H 0.39300 0.16740 0.35400
C32 C 0.6791(3) 0.2598(3) 0.08980(19)
C33 C 0.6324(4) 0.1584(3) -0.01728(19)
H27 H 0.54790 0.16880 -0.03890
H28 H 0.67560 0.06850 0.01000
H29 H 0.70750 0.17170 -0.06890
#END
