
#######################################################################
#
#                 Cambridge Crystallographic Data Centre
#                                CCDC
#
#######################################################################
#
# If this CIF has been generated from an entry in the Cambridge
# Structural Database, then it will include bibliographic, chemical,
# crystal, experimental, refinement or atomic coordinate data resulting
# from the CCDC's data processing and validation procedures.
#
#######################################################################

data_CSD_CIF_MABZIZ
_audit_creation_date 2003-06-25
_audit_creation_method CSD-ConQuest-V1
_database_code_CSD MABZIZ
_database_code_depnum_ccdc_archive 'CCDC 210880'
_chemical_formula_sum 'C12 H13 N5 O2'
_chemical_formula_moiety
;
C12 H13 N5 O2
;
_journal_coeditor_code "IUCr NA0145"
_journal_coden_Cambridge 622
_journal_volume 59
_journal_year 2003
_journal_page_first 263
_journal_name_full 'Acta Crystallogr.,Sect.B:Struct.Sci. '
loop_
_publ_author_name
"M.Melguizo"
"A.Quesada"
"J.N.Low"
"C.Glidewell"
_chemical_name_systematic
;
2-Amino-6-(benzyloxy)-4-(methylamino)-5-nitrosopyrimidine
;
_chemical_melting_point 467
_cell_volume   1228.736
_exptl_crystal_colour 'pink'
_exptl_crystal_density_diffrn 1.402
_exptl_crystal_description 'plate'
_exptl_crystal_preparation 'acetone'
_diffrn_ambient_temperature 120
#These two values have been output from a single CSD field.
_refine_ls_R_factor_gt 0.0392
_refine_ls_wR_factor_gt 0.0392
_symmetry_cell_setting orthorhombic
_symmetry_space_group_name_H-M 'P 21 21 21'
_symmetry_Int_Tables_number 19
loop_
_symmetry_equiv_pos_site_id
_symmetry_equiv_pos_as_xyz
1 x,y,z
2 1/2-x,-y,1/2+z
3 1/2+x,1/2-y,-z
4 -x,1/2+y,1/2-z
_cell_length_a 7.1122(2)
_cell_length_b 7.3873(2)
_cell_length_c 23.3867(7)
_cell_angle_alpha 90
_cell_angle_beta 90
_cell_angle_gamma 90
_cell_formula_units_Z 4
loop_
_atom_type_symbol
_atom_type_radius_bond
C 0.68
H 0.23
N 0.68
O 0.68
loop_
_atom_site_label
_atom_site_type_symbol
_atom_site_fract_x
_atom_site_fract_y
_atom_site_fract_z
N1 N 0.7669(3) 1.1531(2) 0.13328(8)
C1 C 0.8858(3) 1.2910(3) 0.14977(10)
N2 N 0.8267(3) 1.4559(3) 0.13741(9)
N3 N 1.0523(2) 1.2758(2) 0.17588(8)
C2 C 1.1051(3) 1.1086(3) 0.19092(9)
N4 N 1.2650(3) 1.0868(2) 0.21909(8)
C3 C 1.3894(3) 1.2361(3) 0.23419(11)
C4 C 0.9949(3) 0.9511(3) 0.17556(9)
N5 N 1.0382(3) 0.7757(2) 0.18412(8)
O1 O 1.1890(2) 0.7408(2) 0.21219(7)
C5 C 0.8244(3) 0.9904(3) 0.14496(9)
C6 C 0.5036(3) 0.7082(3) 0.06605(9)
C7 C 0.3886(3) 0.5793(3) 0.09145(10)
C8 C 0.3519(3) 0.4165(3) 0.06323(11)
C9 C 0.4296(3) 0.3826(3) 0.01079(10)
C10 C 0.5449(3) 0.5104(3) -0.01465(11)
C11 C 0.5817(3) 0.6723(3) 0.01291(10)
C12 C 0.5514(3) 0.8825(3) 0.09596(10)
O2 O 0.7229(2) 0.84726(19) 0.12848(6)
H1 H 0.89620 1.55030 0.14640
H2 H 0.71780 1.47140 0.12020
H3 H 1.29780 0.97650 0.22920
H4 H 1.48010 1.25590 0.20330
H5 H 1.45690 1.20660 0.26950
H6 H 1.31500 1.34620 0.24000
H7 H 0.33500 0.60190 0.12800
H8 H 0.27250 0.32880 0.08050
H9 H 0.40450 0.27140 -0.00820
H10 H 0.59890 0.48680 -0.05110
H11 H 0.66100 0.75950 -0.00470
H12 H 0.57250 0.98040 0.06780
H13 H 0.44810 0.91900 0.12190
#END
