
#######################################################################
#
#                 Cambridge Crystallographic Data Centre
#                                CCDC
#
#######################################################################
#
# If this CIF has been generated from an entry in the Cambridge
# Structural Database, then it will include bibliographic, chemical,
# crystal, experimental, refinement or atomic coordinate data resulting
# from the CCDC's data processing and validation procedures.
#
#######################################################################

data_CSD_CIF_MABZOX
_audit_creation_date 1973-01-31
_audit_creation_method CSD-ConQuest-V1
_database_code_CSD MABZOX
_database_code_depnum_ccdc_archive 'CCDC 1208893'
_chemical_formula_sum 'C9 H12 N2 O1'
_chemical_formula_moiety
;
C9 H12 N2 O1
;
_journal_coeditor_code "IUCr A09238"
_journal_coden_Cambridge 107
_journal_volume 28
_journal_year 1972
_journal_page_first 2489
_journal_name_full 'Acta Crystallogr.,Sect.B:Struct.Crystallogr.Cryst.Chem. '
loop_
_publ_author_name
"F.Bachechi"
"L.Zambonelli"
_chemical_name_systematic
;
p-Dimethylaminobenzaldoxime
;
_chemical_melting_point 417.15
_cell_volume    908.616
_exptl_crystal_density_diffrn 1.2
_exptl_special_details
;
alpha polymorph

;
_diffrn_ambient_temperature ?
_diffrn_special_details
;
The study was carried out at room temperature,in the range 283-303K

;
#These two values have been output from a single CSD field.
_refine_ls_R_factor_gt 0.059
_refine_ls_wR_factor_gt 0.059
_symmetry_cell_setting monoclinic
_symmetry_space_group_name_H-M 'P 21/c'
_symmetry_Int_Tables_number 14
loop_
_symmetry_equiv_pos_site_id
_symmetry_equiv_pos_as_xyz
1 x,y,z
2 -x,1/2+y,1/2-z
3 -x,-y,-z
4 x,-1/2-y,-1/2+z
_cell_length_a 7.705(3)
_cell_length_b 6.190(3)
_cell_length_c 19.149(5)
_cell_angle_alpha 90
_cell_angle_beta 95.80(3)
_cell_angle_gamma 90
_cell_formula_units_Z 4
loop_
_atom_type_symbol
_atom_type_radius_bond
C 0.68
H 0.20
N 0.68
O 0.68
loop_
_atom_site_label
_atom_site_type_symbol
_atom_site_fract_x
_atom_site_fract_y
_atom_site_fract_z
C1 C 0.12880 0.22150 0.17110
C2 C 0.13510 0.06290 0.22210
C3 C 0.22720 0.08990 0.28680
C4 C 0.31880 0.27880 0.30410
C5 C 0.31470 0.43910 0.25240
C6 C 0.22230 0.41020 0.18780
C7 C 0.02660 0.18650 0.10310
C8 C 0.40290 0.14810 0.42360
C9 C 0.48560 0.50960 0.39070
H1 H 0.07300 -0.07400 0.21200
H2 H 0.57800 0.49000 0.43000
H3 H 0.40100 0.59700 0.40200
H4 H 0.54200 0.57900 0.34900
H5 H 0.23400 -0.03300 0.31800
H6 H 0.38400 0.57200 0.26100
H7 H 0.23100 0.52200 0.15300
H8 H -0.02800 0.04700 0.09300
H9 H -0.08000 0.42600 -0.04200
H10 H 0.42800 0.00700 0.40800
H11 H 0.28000 0.13900 0.44100
H12 H 0.50100 0.17700 0.45600
N1 N 0.01280 0.33140 0.05630
N2 N 0.41330 0.30540 0.36860
O1 O -0.09510 0.26530 -0.00440
#END
