
#######################################################################
#
#                 Cambridge Crystallographic Data Centre
#                                CCDC
#
#######################################################################
#
# If this CIF has been generated from an entry in the Cambridge
# Structural Database, then it will include bibliographic, chemical,
# crystal, experimental, refinement or atomic coordinate data resulting
# from the CCDC's data processing and validation procedures.
#
#######################################################################

data_CSD_CIF_MABZOF
_audit_creation_date 2003-06-25
_audit_creation_method CSD-ConQuest-V1
_database_code_CSD MABZOF
_database_code_depnum_ccdc_archive 'CCDC 210881'
_chemical_formula_sum 'C15 H19 N5 O2'
_chemical_formula_moiety
;
C15 H19 N5 O2
;
_journal_coeditor_code "IUCr NA0145"
_journal_coden_Cambridge 622
_journal_volume 59
_journal_year 2003
_journal_page_first 263
_journal_name_full 'Acta Crystallogr.,Sect.B:Struct.Sci. '
loop_
_publ_author_name
"M.Melguizo"
"A.Quesada"
"J.N.Low"
"C.Glidewell"
_chemical_name_systematic
;
2-Amino-6-(benzyloxy)-4-(n-butylamino)-5-nitrosopyrimidine
;
_chemical_melting_point 409
_cell_volume   1511.076
_exptl_crystal_colour 'blue'
_exptl_crystal_density_diffrn 1.325
_exptl_crystal_description 'block'
_exptl_crystal_preparation 'ethanol'
_diffrn_ambient_temperature 120
#These two values have been output from a single CSD field.
_refine_ls_R_factor_gt 0.0453
_refine_ls_wR_factor_gt 0.0453
_symmetry_cell_setting monoclinic
_symmetry_space_group_name_H-M 'P 21/c'
_symmetry_Int_Tables_number 14
loop_
_symmetry_equiv_pos_site_id
_symmetry_equiv_pos_as_xyz
1 x,y,z
2 x,1/2-y,1/2+z
3 -x,-y,-z
4 -x,-1/2+y,-1/2-z
_cell_length_a 7.6146(2)
_cell_length_b 13.7686(4)
_cell_length_c 16.1215(5)
_cell_angle_alpha 90
_cell_angle_beta 116.6180(15)
_cell_angle_gamma 90
_cell_formula_units_Z 4
loop_
_atom_type_symbol
_atom_type_radius_bond
C 0.68
H 0.23
N 0.68
O 0.68
loop_
_atom_site_label
_atom_site_type_symbol
_atom_site_fract_x
_atom_site_fract_y
_atom_site_fract_z
N1 N 0.49974(16) 0.21875(8) 0.22659(7)
C1 C 0.32244(19) 0.17163(9) 0.19166(9)
N2 N 0.33078(17) 0.07829(8) 0.21439(8)
N3 N 0.14484(16) 0.20783(8) 0.13701(8)
C2 C 0.13639(18) 0.30251(10) 0.11613(9)
C3 C -0.22046(19) 0.28505(10) 0.02664(10)
C4 C -0.39648(19) 0.35122(10) -0.00866(10)
C5 C -0.58963(19) 0.29642(11) -0.04435(10)
C6 C -0.7649(2) 0.36379(12) -0.08310(11)
N4 N -0.03742(16) 0.34023(8) 0.06105(8)
C7 C 0.31037(18) 0.36262(9) 0.15438(9)
N5 N 0.32012(16) 0.45998(8) 0.14812(8)
O1 O 0.16146(13) 0.50492(7) 0.09819(7)
C8 C 0.48887(19) 0.31171(10) 0.20825(9)
O2 O 0.65323(13) 0.36451(7) 0.24058(7)
C9 C 0.83886(19) 0.31352(10) 0.29263(10)
C10 C 0.99304(18) 0.39019(10) 0.33463(9)
C11 C 1.0505(2) 0.4457(1) 0.27876(10)
C12 C 1.1890(2) 0.51865(11) 0.31678(11)
C13 C 1.2730(2) 0.53553(11) 0.41100(11)
C14 C 1.2174(2) 0.48152(12) 0.46718(10)
C15 C 1.0771(2) 0.40920(11) 0.42901(10)
H1 H 0.22250 0.04350 0.19360
H2 H 0.44460 0.05130 0.25020
H3 H -0.21980 0.24410 0.07730
H4 H -0.22980 0.24160 -0.02410
H5 H -0.39660 0.39190 -0.05930
H6 H -0.38550 0.39510 0.04210
H7 H -0.59870 0.25060 -0.09340
H8 H -0.59230 0.25800 0.00700
H9 H -0.75260 0.41180 -0.03590
H10 H -0.88550 0.32600 -0.10060
H11 H -0.77040 0.39720 -0.13790
H12 H -0.04280 0.40150 0.04440
H13 H 0.86870 0.27130 0.25090
H14 H 0.83220 0.27270 0.34170
H15 H 0.99420 0.43340 0.21400
H16 H 1.22600 0.55690 0.27810
H17 H 1.36980 0.58470 0.43730
H18 H 1.27510 0.49380 0.53200
H19 H 1.03830 0.37240 0.46790
#END
