
#######################################################################
#
#                 Cambridge Crystallographic Data Centre
#                                CCDC
#
#######################################################################
#
# If this CIF has been generated from an entry in the Cambridge
# Structural Database, then it will include bibliographic, chemical,
# crystal, experimental, refinement or atomic coordinate data resulting
# from the CCDC's data processing and validation procedures.
#
#######################################################################

data_CSD_CIF_MABZUL
_audit_creation_date 2003-06-25
_audit_creation_method CSD-ConQuest-V1
_database_code_CSD MABZUL
_database_code_depnum_ccdc_archive 'CCDC 210882'
_chemical_formula_sum 'C23 H35 N5 O2'
_chemical_formula_moiety
;
C23 H35 N5 O2
;
_journal_coeditor_code "IUCr NA0145"
_journal_coden_Cambridge 622
_journal_volume 59
_journal_year 2003
_journal_page_first 263
_journal_name_full 'Acta Crystallogr.,Sect.B:Struct.Sci. '
loop_
_publ_author_name
"M.Melguizo"
"A.Quesada"
"J.N.Low"
"C.Glidewell"
_chemical_name_systematic
;
2-Amino-6-(benzyloxy)-4-(n-dodecylamino)-5-nitrosopyrimidine
;
_chemical_melting_point 375
_cell_volume   1141.005
_exptl_crystal_colour 'purple'
_exptl_crystal_density_diffrn 1.204
_exptl_crystal_description 'plate'
_exptl_crystal_preparation 'ethanol/water'
_diffrn_ambient_temperature 120
#These two values have been output from a single CSD field.
_refine_ls_R_factor_gt 0.0521
_refine_ls_wR_factor_gt 0.0521
_symmetry_cell_setting triclinic
_symmetry_space_group_name_H-M 'P -1'
_symmetry_Int_Tables_number 2
loop_
_symmetry_equiv_pos_site_id
_symmetry_equiv_pos_as_xyz
1 x,y,z
2 -x,-y,-z
_cell_length_a 7.3567(4)
_cell_length_b 7.7784(4)
_cell_length_c 21.4725(14)
_cell_angle_alpha 92.000(2)
_cell_angle_beta 99.840(2)
_cell_angle_gamma 108.760(2)
_cell_formula_units_Z 2
loop_
_atom_type_symbol
_atom_type_radius_bond
C 0.68
H 0.23
N 0.68
O 0.68
loop_
_atom_site_label
_atom_site_type_symbol
_atom_site_fract_x
_atom_site_fract_y
_atom_site_fract_z
N1 N 0.5363(2) 0.19353(19) 0.55144(6)
C1 C 0.3905(3) 0.2288(2) 0.51088(8)
N2 N 0.2243(2) 0.1990(2) 0.53114(7)
N3 N 0.3984(2) 0.29059(19) 0.45348(7)
C2 C 0.5688(3) 0.3270(2) 0.43450(8)
C3 C 0.4311(3) 0.4504(3) 0.34147(8)
C4 C 0.3255(3) 0.3251(3) 0.28115(8)
C5 C 0.1503(3) 0.3784(3) 0.25104(8)
C6 C 0.0217(3) 0.2609(3) 0.19140(9)
C7 C -0.1591(3) 0.3147(3) 0.17023(8)
C8 C -0.2922(3) 0.2164(3) 0.10839(9)
C9 C -0.4619(3) 0.2879(3) 0.08934(8)
C10 C -0.5937(3) 0.2057(3) 0.02553(9)
C11 C -0.7587(3) 0.2848(3) 0.00868(8)
C12 C -0.8951(3) 0.2067(3) -0.05445(9)
C13 C -1.0583(3) 0.2880(3) -0.06900(9)
C14 C -1.1994(3) 0.2083(3) -0.13125(10)
N4 N 0.5860(2) 0.3970(2) 0.37904(7)
C15 C 0.7347(3) 0.2925(2) 0.47208(8)
O1 O 0.94503(18) 0.39005(16) 0.40582(6)
N5 N 0.9124(2) 0.32132(19) 0.45776(7)
C16 C 0.7010(3) 0.2256(2) 0.53197(8)
C17 C 1.0065(3) 0.1385(2) 0.67025(8)
C18 C 1.1182(3) 0.2673(2) 0.72010(8)
C19 C 1.2871(3) 0.2512(3) 0.75526(9)
C20 C 1.3490(3) 0.1083(3) 0.73945(9)
C21 C 1.2403(3) -0.0204(3) 0.68956(9)
C22 C 1.0671(3) -0.0071(2) 0.65580(8)
C23 C 0.8200(3) 0.1525(3) 0.63341(8)
O2 O 0.85125(16) 0.19713(15) 0.56988(5)
H1 H 0.12510 0.21970 0.50730
H2 H 0.21270 0.15850 0.56850
H3 H 0.48870 0.57580 0.32990
H4 H 0.33420 0.45260 0.36810
H5 H 0.28070 0.19680 0.29130
H6 H 0.41580 0.33600 0.25100
H7 H 0.06760 0.37520 0.28310
H8 H 0.19920 0.50610 0.24050
H9 H 0.09760 0.27510 0.15690
H10 H -0.01890 0.13110 0.19990
H11 H -0.23690 0.29300 0.20430
H12 H -0.11600 0.44740 0.16590
H13 H -0.34470 0.08440 0.11310
H14 H -0.21490 0.23200 0.07420
H15 H -0.54280 0.26450 0.12250
H16 H -0.40800 0.42170 0.08840
H17 H -0.65100 0.07210 0.02640
H18 H -0.51380 0.22760 -0.00800
H19 H -0.83680 0.26360 0.04260
H20 H -0.70030 0.41830 0.00800
H21 H -0.95380 0.07310 -0.05410
H22 H -0.81820 0.22920 -0.08870
H23 H -1.13260 0.26840 -0.03410
H24 H -0.99930 0.42130 -0.07020
H25 H -1.12730 0.22710 -0.16620
H26 H -1.29810 0.26900 -0.13800
H27 H -1.26390 0.07740 -0.12970
H28 H 0.69450 0.41140 0.36460
H29 H 1.07840 0.36780 0.73030
H30 H 1.36040 0.33830 0.79020
H31 H 1.46640 0.09850 0.76300
H32 H 1.28370 -0.11780 0.67830
H33 H 0.98970 -0.09840 0.62260
H34 H 0.71230 0.03520 0.63090
H35 H 0.78430 0.24870 0.65460
#END
