
#######################################################################
#
#                 Cambridge Crystallographic Data Centre
#                                CCDC
#
#######################################################################
#
# If this CIF has been generated from an entry in the Cambridge
# Structural Database, then it will include bibliographic, chemical,
# crystal, experimental, refinement or atomic coordinate data resulting
# from the CCDC's data processing and validation procedures.
#
#######################################################################

data_CSD_CIF_MACBEY
_audit_creation_date 2003-06-25
_audit_creation_method CSD-ConQuest-V1
_database_code_CSD MACBEY
_database_code_depnum_ccdc_archive 'CCDC 210884'
_chemical_formula_sum 'C17 H15 N5 O2'
_chemical_formula_moiety
;
C17 H15 N5 O2
;
_journal_coeditor_code "IUCr NA0145"
_journal_coden_Cambridge 622
_journal_volume 59
_journal_year 2003
_journal_page_first 263
_journal_name_full 'Acta Crystallogr.,Sect.B:Struct.Sci. '
loop_
_publ_author_name
"M.Melguizo"
"A.Quesada"
"J.N.Low"
"C.Glidewell"
_chemical_name_systematic
;
2-Amino-6-(benzyloxy)-4-(phenylamino)-5-nitrosopyrimidine
;
_chemical_melting_point 446
_cell_volume    369.156
_exptl_crystal_colour 'orange'
_exptl_crystal_density_diffrn 1.445
_exptl_special_details
;
Melts with decomposition.

;
_exptl_crystal_description 'plate'
_exptl_crystal_preparation 'dichloromethane/methanol'
_diffrn_ambient_temperature 120
#These two values have been output from a single CSD field.
_refine_ls_R_factor_gt 0.051
_refine_ls_wR_factor_gt 0.051
_symmetry_cell_setting triclinic
_symmetry_space_group_name_H-M 'P 1'
_symmetry_Int_Tables_number 1
loop_
_symmetry_equiv_pos_site_id
_symmetry_equiv_pos_as_xyz
1 x,y,z
_cell_length_a 4.7622(3)
_cell_length_b 5.8123(4)
_cell_length_c 13.5635(11)
_cell_angle_alpha 79.851(2)
_cell_angle_beta 87.346(2)
_cell_angle_gamma 89.692(5)
_cell_formula_units_Z 1
loop_
_atom_type_symbol
_atom_type_radius_bond
C 0.68
H 0.23
N 0.68
O 0.68
loop_
_atom_site_label
_atom_site_type_symbol
_atom_site_fract_x
_atom_site_fract_y
_atom_site_fract_z
O1 O 0.6912(4) 0.6660(4) 0.42918(16)
O2 O 0.8705(4) 0.9113(4) 0.66886(15)
N1 N 0.5250(5) 1.1914(4) 0.64857(18)
N2 N 0.1834(5) 1.4673(4) 0.62031(19)
N3 N 0.2449(5) 1.2380(4) 0.50086(19)
N4 N 0.3122(5) 0.9852(4) 0.38606(18)
N5 N 0.7492(5) 0.7482(4) 0.50760(18)
C1 C 0.3201(6) 1.2946(5) 0.5867(2)
C2 C 0.3793(5) 1.0606(5) 0.4697(2)
C3 C 0.6021(6) 0.9377(5) 0.5265(2)
C4 C 0.6623(5) 1.0205(5) 0.6159(2)
C5 C 0.1099(6) 1.0710(5) 0.3147(2)
C6 C -0.0391(6) 1.2776(5) 0.3116(2)
C7 C -0.2282(6) 1.3425(6) 0.2366(2)
C8 C -0.2703(6) 1.2034(6) 0.1654(2)
C9 C -0.1259(6) 0.9967(6) 0.1689(2)
C10 C 0.0648(6) 0.9304(6) 0.2431(2)
C11 C 0.6786(6) 0.8086(5) 0.8404(2)
C12 C 0.5716(6) 0.5998(6) 0.8193(2)
C13 C 0.3680(7) 0.4723(6) 0.8835(3)
C14 C 0.2753(7) 0.5501(7) 0.9694(3)
C15 C 0.3834(7) 0.7516(7) 0.9927(3)
C16 C 0.5845(7) 0.8847(6) 0.9278(2)
C17 C 0.8942(6) 0.9502(5) 0.7712(2)
H1 H 0.04730 1.54070 0.58600
H2 H 0.22910 1.50830 0.67690
H3 H 0.40830 0.86330 0.37320
H4 H -0.01230 1.37380 0.36030
H5 H -0.33000 1.48430 0.23410
H6 H -0.39890 1.25070 0.11430
H7 H -0.15630 0.89990 0.12080
H8 H 0.16550 0.78820 0.24530
H9 H 0.63820 0.54420 0.76070
H10 H 0.29370 0.33240 0.86780
H11 H 0.13580 0.46400 1.01290
H12 H 0.32190 0.80160 1.05310
H13 H 0.65550 1.02570 0.94350
H14 H 0.86680 1.11820 0.77340
H15 H 1.08480 0.90600 0.79380
#END
