
#######################################################################
#
#                 Cambridge Crystallographic Data Centre
#                                CCDC
#
#######################################################################
#
# If this CIF has been generated from an entry in the Cambridge
# Structural Database, then it will include bibliographic, chemical,
# crystal, experimental, refinement or atomic coordinate data resulting
# from the CCDC's data processing and validation procedures.
#
#######################################################################

data_CSD_CIF_MACINA10
_audit_creation_date 1986-03-24
_audit_creation_method CSD-ConQuest-V1
_database_code_CSD MACINA10
_database_code_depnum_ccdc_archive 'CCDC 1208917'
_chemical_formula_sum 'C11 H12 N2 O4'
_chemical_formula_moiety
;
C11 H12 N2 O4
;
_journal_coeditor_code "IUCr A24877"
_journal_coden_Cambridge 591
_journal_volume 41
_journal_year 1985
_journal_page_first 1076
_journal_name_full 'Acta Crystallogr.,Sect.C:Cryst.Struct.Commun. '
loop_
_publ_author_name
"C.P.Huber"
_chemical_name_systematic
;
4-Dimethylamino-3-nitrocinnamic acid
;
_cell_volume   1128.829
_exptl_crystal_colour 'dark yellow'
_exptl_crystal_density_diffrn 1.39
_diffrn_ambient_temperature ?
_diffrn_special_details
;
The study was carried out at room temperature,in the range 283-303K

;
#These two values have been output from a single CSD field.
_refine_ls_R_factor_gt 0.047
_refine_ls_wR_factor_gt 0.047
_symmetry_cell_setting monoclinic
_symmetry_space_group_name_H-M 'P 21/c'
_symmetry_Int_Tables_number 14
loop_
_symmetry_equiv_pos_site_id
_symmetry_equiv_pos_as_xyz
1 x,y,z
2 -x,1/2+y,1/2-z
3 -x,-y,-z
4 x,-1/2-y,-1/2+z
_cell_length_a 18.213(7)
_cell_length_b 7.111(5)
_cell_length_c 8.736(4)
_cell_angle_alpha 90
_cell_angle_beta 93.88(2)
_cell_angle_gamma 90
_cell_formula_units_Z 4
loop_
_atom_type_symbol
_atom_type_radius_bond
C 0.68
H 0.23
N 0.68
O 0.68
loop_
_atom_site_label
_atom_site_type_symbol
_atom_site_fract_x
_atom_site_fract_y
_atom_site_fract_z
C1 C 0.2931(1) 0.0211(3) 0.4597(2)
C2 C 0.2179(1) 0.0528(2) 0.4412(2)
C3 C 0.1744(1) 0.0499(2) 0.5650(2)
C4 C 0.2022(1) 0.0035(2) 0.7156(2)
C5 C 0.2796(1) -0.0202(3) 0.7315(2)
C6 C 0.3226(1) -0.0120(3) 0.6096(2)
C7 C 0.3373(1) 0.0244(3) 0.3269(2)
C8 C 0.4086(1) -0.0104(4) 0.3240(2)
C9 C 0.4470(1) -0.0052(4) 0.1827(2)
O1 O 0.4112(1) 0.0273(4) 0.0574(2)
O2 O 0.5150(1) -0.0333(5) 0.1920(2)
N1 N 0.0997(1) 0.1202(2) 0.5322(2)
O3 O 0.0656(1) 0.0673(3) 0.4155(2)
O4 O 0.0765(1) 0.2371(2) 0.6202(2)
N2 N 0.1601(1) -0.0219(2) 0.8365(2)
C10 C 0.0835(1) -0.0802(3) 0.8193(2)
C11 C 0.1955(1) -0.0433(3) 0.9898(2)
H1 H 0.195(1) 0.087(3) 0.346(2)
H2 H 0.301(1) -0.045(4) 0.828(3)
H3 H 0.372(1) -0.039(4) 0.630(3)
H4 H 0.311(1) 0.054(4) 0.232(3)
H5 H 0.437(2) -0.045(5) 0.408(3)
H6 H 0.432(4) 0.035(11) -0.016(8)
H7 H 0.051(2) 0.029(5) 0.826(4)
H8 H 0.071(2) -0.132(4) 0.720(3)
H9 H 0.076(2) -0.170(6) 0.888(4)
H10 H 0.232(1) 0.049(4) 1.004(3)
H11 H 0.160(1) -0.028(4) 1.062(3)
H12 H 0.221(2) -0.160(4) 1.008(3)
#END
