
#######################################################################
#
#                 Cambridge Crystallographic Data Centre
#                                CCDC
#
#######################################################################
#
# If this CIF has been generated from an entry in the Cambridge
# Structural Database, then it will include bibliographic, chemical,
# crystal, experimental, refinement or atomic coordinate data resulting
# from the CCDC's data processing and validation procedures.
#
#######################################################################

data_CSD_CIF_MADKOT
_audit_creation_date 2011-03-25
_audit_creation_method CSD-ConQuest-V1
_database_code_CSD MADKOT
_database_code_depnum_ccdc_archive 'CCDC 766177'
_chemical_formula_sum 'C8 H10 N2 O3'
_chemical_formula_moiety
;
C8 H10 N2 O3
;
_journal_coden_Cambridge 1291
_journal_year 2010
_journal_page_first 6315
_journal_name_full 'Eur.J.Org.Chem. '
loop_
_publ_author_name
"M.Angelin"
"P.Vongvilai"
"A.Fischer"
"O.Ramstrom"
_chemical_name_systematic
;
2-Nitro-1-(pyridin-4-yl)propan-1-ol
;
_cell_volume   1723.837
_exptl_crystal_colour 'colorless'
_exptl_crystal_density_diffrn 1.404
_exptl_crystal_description 'block'
_diffrn_ambient_temperature 299
#These two values have been output from a single CSD field.
_refine_ls_R_factor_gt 0.05
_refine_ls_wR_factor_gt 0.05
_symmetry_cell_setting orthorhombic
_symmetry_space_group_name_H-M 'P b c a'
_symmetry_Int_Tables_number 61
loop_
_symmetry_equiv_pos_site_id
_symmetry_equiv_pos_as_xyz
1 x,y,z
2 1/2-x,-y,1/2+z
3 1/2+x,1/2-y,-z
4 -x,1/2+y,1/2-z
5 -x,-y,-z
6 -1/2+x,y,-1/2-z
7 -1/2-x,-1/2+y,z
8 x,-1/2-y,-1/2+z
_cell_length_a 9.7855(12)
_cell_length_b 10.4946(9)
_cell_length_c 16.786(2)
_cell_angle_alpha 90
_cell_angle_beta 90
_cell_angle_gamma 90
_cell_formula_units_Z 8
loop_
_atom_type_symbol
_atom_type_radius_bond
C 0.68
H 0.23
N 0.68
O 0.68
loop_
_atom_site_label
_atom_site_type_symbol
_atom_site_fract_x
_atom_site_fract_y
_atom_site_fract_z
C1 C 0.1593(2) 0.4947(2) 0.30257(12)
C2 C 0.1924(2) 0.3962(2) 0.25237(12)
C3 C 0.1295(2) 0.3877(2) 0.17948(12)
C4 C 0.0351(2) 0.4803(2) 0.16071(13)
C5 C 0.0095(2) 0.5763(2) 0.21393(13)
C6 C 0.1594(2) 0.2811(2) 0.12183(11)
C7 C 0.2402(2) 0.33328(19) 0.05188(12)
C8 C 0.3801(2) 0.3798(2) 0.07280(15)
N1 N 0.0701(2) 0.58541(18) 0.28477(11)
N2 N 0.2529(2) 0.2302(2) -0.00973(11)
O1 O 0.03943(16) 0.22783(15) 0.09106(8)
O2 O 0.3027(2) 0.13001(17) 0.01004(11)
O3 O 0.2154(2) 0.25455(19) -0.07677(10)
H1 H 0.20210 0.50010 0.35280
H2 H 0.25660 0.33370 0.26740
H3 H -0.01180 0.47390 0.11180
H4 H -0.05320 0.63960 0.19800
H5 H 0.20950 0.21690 0.14810
H6 H 0.18870 0.40170 0.03140
H7 H 0.37290 0.45150 0.10810
H8 H 0.42720 0.40500 0.02520
H9 H 0.43010 0.31280 0.09860
H10 H -0.00140 0.19010 0.12660
#END
