
#######################################################################
#
#                 Cambridge Crystallographic Data Centre
#                                CCDC
#
#######################################################################
#
# If this CIF has been generated from an entry in the Cambridge
# Structural Database, then it will include bibliographic, chemical,
# crystal, experimental, refinement or atomic coordinate data resulting
# from the CCDC's data processing and validation procedures.
#
#######################################################################

data_CSD_CIF_MADKUZ
_audit_creation_date 2011-03-25
_audit_creation_method CSD-ConQuest-V1
_database_code_CSD MADKUZ
_database_code_depnum_ccdc_archive 'CCDC 766178'
_chemical_formula_sum 'C9 H12 N2 O3'
_chemical_formula_moiety
;
C9 H12 N2 O3
;
_journal_coden_Cambridge 1291
_journal_year 2010
_journal_page_first 6315
_journal_name_full 'Eur.J.Org.Chem. '
loop_
_publ_author_name
"M.Angelin"
"P.Vongvilai"
"A.Fischer"
"O.Ramstrom"
_chemical_name_systematic
;
2-Methyl-2-nitro-1-(pyridin-4-yl)propan-1-ol
;
_cell_volume    965.013
_exptl_crystal_colour 'colorless'
_exptl_crystal_density_diffrn 1.351
_exptl_crystal_description 'rod'
_diffrn_ambient_temperature 299
#These two values have been output from a single CSD field.
_refine_ls_R_factor_gt 0.052
_refine_ls_wR_factor_gt 0.052
_symmetry_cell_setting monoclinic
_symmetry_space_group_name_H-M 'P 21/n'
_symmetry_Int_Tables_number 14
loop_
_symmetry_equiv_pos_site_id
_symmetry_equiv_pos_as_xyz
1 x,y,z
2 1/2-x,1/2+y,1/2-z
3 -x,-y,-z
4 -1/2+x,-1/2-y,-1/2+z
_cell_length_a 8.8723(7)
_cell_length_b 10.1571(6)
_cell_length_c 10.8561(5)
_cell_angle_alpha 90
_cell_angle_beta 99.460(5)
_cell_angle_gamma 90
_cell_formula_units_Z 4
loop_
_atom_type_symbol
_atom_type_radius_bond
C 0.68
H 0.23
N 0.68
O 0.68
loop_
_atom_site_label
_atom_site_type_symbol
_atom_site_fract_x
_atom_site_fract_y
_atom_site_fract_z
C1 C -0.2197(2) 0.9688(2) 0.75796(19)
C2 C -0.1020(2) 0.88107(19) 0.75527(18)
C3 C -0.11186(19) 0.79095(17) 0.65862(16)
C4 C -0.2429(2) 0.79332(19) 0.56974(18)
C5 C -0.3565(2) 0.8832(2) 0.58161(19)
C6 C 0.01293(19) 0.69003(17) 0.65227(16)
C7 C 0.1412(2) 0.74426(18) 0.58659(18)
C8 C 0.2223(2) 0.8622(2) 0.6513(3)
C9 C 0.0857(3) 0.7681(3) 0.4484(2)
N1 N -0.34755(19) 0.97106(16) 0.67342(16)
N2 N 0.25651(19) 0.62991(17) 0.59187(17)
O1 O 0.08000(15) 0.64831(14) 0.77281(13)
O2 O 0.20868(18) 0.52208(15) 0.55535(15)
O3 O 0.38875(19) 0.65052(19) 0.6307(3)
H1 H -0.20960 1.03020 0.82240
H2 H -0.01670 0.88230 0.81780
H3 H -0.25440 0.73500 0.50280
H4 H -0.44450 0.88230 0.52180
H5 H -0.03270 0.61340 0.60550
H6 H 0.30850 0.88430 0.61220
H7 H 0.25680 0.84170 0.73770
H8 H 0.15330 0.93550 0.64520
H9 H 0.01380 0.83950 0.43840
H10 H 0.03730 0.69000 0.41120
H11 H 0.17110 0.79010 0.40830
H12 H 0.017(2) 0.594(2) 0.795(2)
#END
