
#######################################################################
#
#                 Cambridge Crystallographic Data Centre
#                                CCDC
#
#######################################################################
#
# If this CIF has been generated from an entry in the Cambridge
# Structural Database, then it will include bibliographic, chemical,
# crystal, experimental, refinement or atomic coordinate data resulting
# from the CCDC's data processing and validation procedures.
#
#######################################################################

data_CSD_CIF_MADLUA
_audit_creation_date 2011-03-25
_audit_creation_method CSD-ConQuest-V1
_database_code_CSD MADLUA
_database_code_depnum_ccdc_archive 'CCDC 748691'
_chemical_formula_sum 'C19 H19 N1 O4'
_chemical_formula_moiety
;
C19 H19 N1 O4
;
_journal_coden_Cambridge 1291
_journal_year 2010
_journal_page_first 5825
_journal_name_full 'Eur.J.Org.Chem. '
loop_
_publ_author_name
"M.Bakthadoss"
"G.Murugan"
_chemical_name_systematic
;
methyl 
3,3a,4,9b-tetrahydro-1-methyl-3-phenyl-1H-chromeno(4,3-c)isoxazole-3a-carboxyl
ate
;
_chemical_name_common
;
Methyl 
1-methyl-3-phenyl-1,9b-dihydro-3H-chromeno[4,3-c][1,2]oxazole-3a(4H)-carboxyla
te
;
_cell_volume   1671.744
_exptl_crystal_colour 'colorless'
_exptl_crystal_density_diffrn 1.293
_exptl_crystal_description 'needle'
_diffrn_ambient_temperature 293
#These two values have been output from a single CSD field.
_refine_ls_R_factor_gt 0.0414
_refine_ls_wR_factor_gt 0.0414
_symmetry_cell_setting monoclinic
_symmetry_space_group_name_H-M 'P 21/n'
_symmetry_Int_Tables_number 14
loop_
_symmetry_equiv_pos_site_id
_symmetry_equiv_pos_as_xyz
1 x,y,z
2 1/2-x,1/2+y,1/2-z
3 -x,-y,-z
4 -1/2+x,-1/2-y,-1/2+z
_cell_length_a 8.977(5)
_cell_length_b 7.986(5)
_cell_length_c 23.321(5)
_cell_angle_alpha 90
_cell_angle_beta 90.758(5)
_cell_angle_gamma 90
_cell_formula_units_Z 4
loop_
_atom_type_symbol
_atom_type_radius_bond
C 0.68
H 0.23
N 0.68
O 0.68
loop_
_atom_site_label
_atom_site_type_symbol
_atom_site_fract_x
_atom_site_fract_y
_atom_site_fract_z
C1 C 0.80737(19) 0.0614(2) -0.02501(7)
H1 H 0.79440 -0.05020 -0.01480
C2 C 0.8047(2) 0.1063(3) -0.08208(8)
H2 H 0.78950 0.02490 -0.11010
C3 C 0.8242(2) 0.2692(3) -0.09773(8)
H3 H 0.82260 0.29890 -0.13630
C4 C 0.8462(3) 0.3896(3) -0.05623(8)
H4 H 0.85910 0.50090 -0.06680
C5 C 0.8490(2) 0.3458(2) 0.00086(7)
H5 H 0.86440 0.42780 0.02860
C6 C 0.82920(16) 0.1812(2) 0.01725(6)
C7 C 0.83077(16) 0.13080(18) 0.07957(6)
H6 H 0.87770 0.02030 0.08260
C8 C 0.67448(15) 0.12088(16) 0.10868(6)
C9 C 0.55167(15) 0.20210(17) 0.07255(6)
H7 H 0.58160 0.31470 0.06220
H8 H 0.53720 0.13860 0.03750
C10 C 0.42377(16) 0.28271(18) 0.15567(6)
C11 C 0.29122(18) 0.3365(2) 0.17899(8)
H9 H 0.20200 0.32090 0.15900
C12 C 0.2916(2) 0.4128(3) 0.23173(8)
H10 H 0.20270 0.45110 0.24710
C13 C 0.4233(2) 0.4328(3) 0.26197(8)
H11 H 0.42390 0.48670 0.29730
C14 C 0.55378(18) 0.3727(2) 0.23967(7)
H12 H 0.64150 0.38190 0.26110
C15 C 0.55745(15) 0.29867(17) 0.18579(6)
C16 C 0.69906(15) 0.22755(17) 0.16248(6)
H13 H 0.75030 0.16140 0.19210
C17 C 0.88152(19) 0.4488(3) 0.18356(7)
H14 H 0.92460 0.37280 0.21100
H15 H 0.81390 0.52290 0.20260
H16 H 0.95910 0.51310 0.16610
C18 C 0.63569(17) -0.05856(18) 0.12276(7)
C19 C 0.5750(3) -0.3220(2) 0.08311(11)
H17 H 0.66480 -0.37920 0.09420
H18 H 0.53770 -0.36760 0.04760
H19 H 0.50170 -0.33620 0.11230
N1 N 0.80098(13) 0.35441(16) 0.13955(5)
O1 O 0.6346(2) -0.11719(17) 0.16940(6)
O2 O 0.60598(16) -0.14538(13) 0.07580(5)
O3 O 0.91416(10) 0.24441(14) 0.11455(5)
O4 O 0.41518(10) 0.20880(13) 0.10284(4)
#END
