
#######################################################################
#
#                 Cambridge Crystallographic Data Centre
#                                CCDC
#
#######################################################################
#
# If this CIF has been generated from an entry in the Cambridge
# Structural Database, then it will include bibliographic, chemical,
# crystal, experimental, refinement or atomic coordinate data resulting
# from the CCDC's data processing and validation procedures.
#
#######################################################################

data_CSD_CIF_MAGHEI
_audit_creation_date 2005-01-17
_audit_creation_method CSD-ConQuest-V1
_database_code_CSD MAGHEI
_database_code_depnum_ccdc_archive 'CCDC 250715'
_chemical_formula_sum 'C19 H22 N1 O1'
_chemical_formula_moiety
;
C19 H22 N1 O1
;
_journal_coden_Cambridge 191
_journal_volume 302
_journal_year 1999
_journal_page_first 125
_journal_name_full 'Chem.Phys.Lett. '
loop_
_publ_author_name
"M.Nakagawa"
"T.Ishida"
"M.Suzuki"
"D.Hashizume"
"M.Yasui"
"F.Iwasaki"
"T.Nogami"
_chemical_name_systematic
;
9,9-Dipropyl-9,10-dihydroacridin-10-yloxyl radical
;
_chemical_melting_point 419.15
_cell_volume   1637.503
_exptl_crystal_density_diffrn 1.137
_exptl_special_details
;
Melting point range 419.15-421.15K

;
_exptl_crystal_preparation 'dichloromethane/hexane'
_diffrn_ambient_temperature ?
_diffrn_special_details
;
The study was carried out at room temperature,in the range 283-303K

;
#These two values have been output from a single CSD field.
_refine_ls_R_factor_gt 0.049
_refine_ls_wR_factor_gt 0.049
_symmetry_cell_setting orthorhombic
_symmetry_space_group_name_H-M 'P 21 21 21'
_symmetry_Int_Tables_number 19
loop_
_symmetry_equiv_pos_site_id
_symmetry_equiv_pos_as_xyz
1 x,y,z
2 1/2-x,-y,1/2+z
3 1/2+x,1/2-y,-z
4 -x,1/2+y,1/2-z
_cell_length_a 12.060(3)
_cell_length_b 12.466(3)
_cell_length_c 10.892(3)
_cell_angle_alpha 90
_cell_angle_beta 90
_cell_angle_gamma 90
_cell_formula_units_Z 4
loop_
_atom_type_symbol
_atom_type_radius_bond
C 0.68
H 0.23
N 0.68
O 0.68
loop_
_atom_site_label
_atom_site_type_symbol
_atom_site_fract_x
_atom_site_fract_y
_atom_site_fract_z
O1 O 0.59249 0.70449 0.02524
N1 N 0.60294 0.62921 0.10588
C1 C 0.61821 0.46638 0.29801
C2 C 0.57485 0.49006 0.42949
C3 C 0.52655 0.60120 0.44733
C4 C 0.47873 0.61649 0.57432
C5 C 0.66250 0.34936 0.29683
C6 C 0.70811 0.31197 0.17479
C7 C 0.76882 0.20597 0.18750
C8 C 0.70945 0.54288 0.26489
C9 C 0.69993 0.62187 0.17387
C10 C 0.78505 0.69369 0.14601
C11 C 0.88347 0.68490 0.20974
C12 C 0.89542 0.60985 0.29956
C13 C 0.81027 0.54046 0.32849
C14 C 0.52062 0.47574 0.20884
C15 C 0.51372 0.55496 0.11948
C16 C 0.42192 0.56490 0.04218
C17 C 0.33482 0.49494 0.05441
C18 C 0.33914 0.41624 0.14372
C19 C 0.43044 0.40700 0.22069
H1 H 0.50946 0.42840 0.45205
H2 H 0.63542 0.47887 0.49325
H3 H 0.44942 0.60999 0.39343
H4 H 0.58169 0.65551 0.43414
H5 H 0.43231 0.69735 0.57082
H6 H 0.52963 0.58927 0.64431
H7 H 0.42324 0.55901 0.59846
H8 H 0.71831 0.34939 0.35941
H9 H 0.59412 0.30031 0.33149
H10 H 0.76089 0.36814 0.14264
H11 H 0.65650 0.30586 0.11503
H12 H 0.80708 0.18291 0.11639
H13 H 0.72394 0.14711 0.23416
H14 H 0.83983 0.21729 0.24364
H15 H 0.77283 0.74916 0.08066
H16 H 0.94847 0.73844 0.18520
H17 H 0.95948 0.60558 0.34618
H18 H 0.82114 0.48385 0.39605
H19 H 0.42697 0.62398 -0.01679
H20 H 0.26679 0.50177 -0.00201
H21 H 0.27711 0.35647 0.14529
H22 H 0.42852 0.34453 0.29097
#END
