
#######################################################################
#
#                 Cambridge Crystallographic Data Centre
#                                CCDC
#
#######################################################################
#
# If this CIF has been generated from an entry in the Cambridge
# Structural Database, then it will include bibliographic, chemical,
# crystal, experimental, refinement or atomic coordinate data resulting
# from the CCDC's data processing and validation procedures.
#
#######################################################################

data_CSD_CIF_MAJTEX
_audit_creation_date 2005-01-17
_audit_creation_method CSD-ConQuest-V1
_database_code_CSD MAJTEX
_database_code_depnum_ccdc_archive 'CCDC 259037'
_chemical_formula_sum 'C8 H4 N2 O4'
_chemical_formula_moiety
;
C8 H4 N2 O4
;
_journal_coeditor_code "IUCr SK1783"
_journal_coden_Cambridge 591
_journal_volume 60
_journal_year 2004
_journal_page_first o872
_journal_name_full 'Acta Crystallogr.,Sect.C:Cryst.Struct.Commun. '
loop_
_publ_author_name
"C.Glidewell"
"J.N.Low"
"J.M.S.Skakle"
"J.L.Wardell"
_chemical_name_systematic
;
rac-3-Nitrophthalimide
;
_cell_volume   1496.985
_exptl_crystal_colour 'colorless'
_exptl_crystal_density_diffrn 1.705
_exptl_crystal_description 'plate'
_exptl_crystal_preparation 'ethyl acetate'
_diffrn_ambient_temperature 120
#These two values have been output from a single CSD field.
_refine_ls_R_factor_gt 0.0392
_refine_ls_wR_factor_gt 0.0392
_symmetry_cell_setting orthorhombic
_symmetry_space_group_name_H-M 'P b c a'
_symmetry_Int_Tables_number 61
loop_
_symmetry_equiv_pos_site_id
_symmetry_equiv_pos_as_xyz
1 x,y,z
2 1/2+x,y,1/2-z
3 1/2-x,1/2+y,z
4 x,1/2-y,1/2+z
5 -x,-y,-z
6 -1/2-x,-y,-1/2+z
7 -1/2+x,-1/2-y,-z
8 -x,-1/2+y,-1/2-z
_cell_length_a 8.2208(2)
_cell_length_b 13.0786(4)
_cell_length_c 13.9233(4)
_cell_angle_alpha 90
_cell_angle_beta 90
_cell_angle_gamma 90
_cell_formula_units_Z 8
loop_
_atom_type_symbol
_atom_type_radius_bond
C 0.68
H 0.23
N 0.68
O 0.68
loop_
_atom_site_label
_atom_site_type_symbol
_atom_site_fract_x
_atom_site_fract_y
_atom_site_fract_z
N1 N 0.41423(13) 0.16003(9) 0.34763(7)
C1 C 0.25286(16) 0.17714(9) 0.32887(8)
O1 O 0.19836(10) 0.20978(7) 0.25357(6)
C2 C 0.44360(15) 0.1265(1) 0.44109(9)
O2 O 0.57573(11) 0.10362(7) 0.47130(7)
C3 C 0.27874(15) 0.12461(9) 0.48828(9)
C4 C 0.22350(15) 0.10039(9) 0.57975(9)
C5 C 0.05837(16) 0.09960(9) 0.59990(9)
C6 C -0.05338(16) 0.12442(10) 0.52875(9)
C7 C -0.00199(15) 0.15097(9) 0.43675(9)
C8 C 0.16350(15) 0.15055(9) 0.41884(8)
N2 N 0.33533(14) 0.07751(8) 0.65906(7)
O3 O 0.46763(13) 0.12029(8) 0.65980(7)
O4 O 0.28788(13) 0.01824(8) 0.72135(7)
H1 H 0.49500 0.17350 0.31590
H2 H 0.02160 0.08210 0.66240
H3 H -0.16640 0.12330 0.54310
H4 H -0.07790 0.16870 0.38810
#END
