
#######################################################################
#
#                 Cambridge Crystallographic Data Centre
#                                CCDC
#
#######################################################################
#
# If this CIF has been generated from an entry in the Cambridge
# Structural Database, then it will include bibliographic, chemical,
# crystal, experimental, refinement or atomic coordinate data resulting
# from the CCDC's data processing and validation procedures.
#
#######################################################################

data_CSD_CIF_MAKSEZ
_audit_creation_date 2016-03-01
_audit_creation_method CSD-ConQuest-V1
_database_code_CSD MAKSEZ
_database_code_depnum_ccdc_archive 'CCDC 1029768'
_chemical_formula_sum 'C20 H23 N1 O3'
_chemical_formula_moiety
;
C20 H23 N1 O3
;
_journal_coden_Cambridge 1495
_journal_year 2016
_journal_name_full 'Arab.J.Chem. '
loop_
_publ_author_name
"R.S.Lima"
"C.N.Perez"
"C.C.da Silva"
"M.J.Santana"
"L.H.K.Queiroz Junior"
"S.Barreto"
"M.O.de Moraes"
"F.T.Martins"
_chemical_name_systematic
;
1-(3-nitrophenyl)-5-(2,6,6-trimethylcyclohex-1-en-1-yl)penta-1,4-dien-3-one
;
_cell_volume   3553.094
_exptl_crystal_colour 'orange'
_exptl_crystal_density_diffrn 1.217
_exptl_crystal_description 'plate'
_diffrn_ambient_temperature 296
#These two values have been output from a single CSD field.
_refine_ls_R_factor_gt 0.0515
_refine_ls_wR_factor_gt 0.0515
_symmetry_cell_setting orthorhombic
_symmetry_space_group_name_H-M 'P b c a'
_symmetry_Int_Tables_number 61
loop_
_symmetry_equiv_pos_site_id
_symmetry_equiv_pos_as_xyz
1 x,y,z
2 1/2+x,1/2-y,-z
3 -x,1/2+y,1/2-z
4 1/2-x,-y,1/2+z
5 -x,-y,-z
6 -1/2-x,-1/2+y,z
7 x,-1/2-y,-1/2+z
8 -1/2+x,y,-1/2-z
_cell_length_a 15.0889(2)
_cell_length_b 10.6546(1)
_cell_length_c 22.1010(3)
_cell_angle_alpha 90
_cell_angle_beta 90
_cell_angle_gamma 90
_cell_formula_units_Z 8
loop_
_atom_type_symbol
_atom_type_radius_bond
C 0.68
H 0.23
N 0.68
O 0.68
loop_
_atom_site_label
_atom_site_type_symbol
_atom_site_fract_x
_atom_site_fract_y
_atom_site_fract_z
O1 O 0.22471(9) 1.01631(11) 0.41912(7)
O2 O 0.77871(9) 0.85730(18) 0.45235(10)
N1 N 0.70818(10) 0.90652(19) 0.44200(9)
C1 C 0.62708(11) 0.83113(17) 0.44705(8)
C2 C 0.54635(11) 0.88996(16) 0.43799(8)
H1 H 0.54390 0.97600 0.43120
C3 C 0.46899(11) 0.81908(15) 0.43909(8)
C4 C 0.38422(11) 0.88236(15) 0.42787(8)
H2 H 0.38490 0.96960 0.42880
C5 C 0.30715(11) 0.82899(15) 0.41661(8)
H3 H 0.30290 0.74190 0.41630
C6 C 0.22748(11) 0.90549(15) 0.40440(8)
C7 C 0.15211(11) 0.85035(16) 0.37230(9)
H4 H 0.10150 0.89980 0.36900
C8 C 0.14846(10) 0.73751(16) 0.34751(8)
H5 H 0.19650 0.68460 0.35400
C9 C 0.07531(11) 0.68803(15) 0.31052(8)
C10 C -0.00960(11) 0.69790(17) 0.32780(9)
C11 C -0.08514(14) 0.6596(2) 0.28699(12)
H6 H -0.10960 0.58090 0.30140
H7 H -0.13150 0.72250 0.28930
C12 C -0.05758(17) 0.6442(3) 0.22191(14)
H8 H -0.10440 0.60250 0.19960
H9 H -0.04820 0.72620 0.20390
O3 O 0.70059(11) 1.01597(18) 0.42825(13)
C13 C 0.63415(12) 0.70471(18) 0.45769(8)
H10 H 0.68910 0.66740 0.46400
C14 C 0.55729(13) 0.63438(18) 0.45875(9)
H11 H 0.56050 0.54840 0.46580
C15 C 0.47575(12) 0.68984(16) 0.44954(8)
H12 H 0.42480 0.64080 0.45030
C16 C 0.02505(16) 0.5696(3) 0.21757(12)
H13 H 0.04010 0.55890 0.17520
H14 H 0.01440 0.48690 0.23450
C17 C 0.10404(13) 0.62916(18) 0.25037(9)
C18 C 0.17258(17) 0.5245(2) 0.26028(11)
H15 H 0.18650 0.48580 0.22220
H16 H 0.14860 0.46270 0.28730
H17 H 0.22550 0.55960 0.27750
C19 C 0.14780(19) 0.7295(3) 0.21094(11)
H18 H 0.16830 0.69200 0.17400
H19 H 0.19710 0.76540 0.23230
H20 H 0.10550 0.79400 0.20180
C20 C -0.03954(13) 0.7470(2) 0.38829(11)
H21 H 0.00850 0.74160 0.41670
H22 H -0.08850 0.69780 0.40260
H23 H -0.05760 0.83300 0.38420
#END
