
#######################################################################
#
#                 Cambridge Crystallographic Data Centre
#                                CCDC
#
#######################################################################
#
# If this CIF has been generated from an entry in the Cambridge
# Structural Database, then it will include bibliographic, chemical,
# crystal, experimental, refinement or atomic coordinate data resulting
# from the CCDC's data processing and validation procedures.
#
#######################################################################

data_CSD_CIF_MAKSAV
_audit_creation_date 2016-03-01
_audit_creation_method CSD-ConQuest-V1
_database_code_CSD MAKSAV
_database_code_depnum_ccdc_archive 'CCDC 1029767'
_chemical_formula_sum 'C20 H23 N1 O3'
_chemical_formula_moiety
;
C20 H23 N1 O3
;
_journal_coden_Cambridge 1495
_journal_year 2016
_journal_name_full 'Arab.J.Chem. '
loop_
_publ_author_name
"R.S.Lima"
"C.N.Perez"
"C.C.da Silva"
"M.J.Santana"
"L.H.K.Queiroz Junior"
"S.Barreto"
"M.O.de Moraes"
"F.T.Martins"
_chemical_name_systematic
;
1-(3-nitrophenyl)-5-(2,6,6-trimethylcyclohex-2-en-1-yl)penta-1,4-dien-3-one
;
_cell_volume   1856.788
_exptl_crystal_colour 'orange'
_exptl_crystal_density_diffrn 1.164
_exptl_crystal_description 'plate'
_diffrn_ambient_temperature 296
#These two values have been output from a single CSD field.
_refine_ls_R_factor_gt 0.0816
_refine_ls_wR_factor_gt 0.0816
_symmetry_cell_setting monoclinic
_symmetry_space_group_name_H-M 'P 21/c'
_symmetry_Int_Tables_number 14
loop_
_symmetry_equiv_pos_site_id
_symmetry_equiv_pos_as_xyz
1 x,y,z
2 -x,1/2+y,1/2-z
3 -x,-y,-z
4 x,-1/2-y,-1/2+z
_cell_length_a 11.795(4)
_cell_length_b 14.264(5)
_cell_length_c 11.053(4)
_cell_angle_alpha 90
_cell_angle_beta 93.151(10)
_cell_angle_gamma 90
_cell_formula_units_Z 4
loop_
_atom_type_symbol
_atom_type_radius_bond
C 0.68
H 0.23
N 0.68
O 0.68
loop_
_atom_site_label
_atom_site_type_symbol
_atom_site_fract_x
_atom_site_fract_y
_atom_site_fract_z
O1 O 0.9807(3) -0.26546(18) 0.1376(2)
C1 C 0.6586(4) 0.6213(3) 0.1563(4)
H1 H 0.68590 0.59540 0.08210
H2 H 0.69570 0.68140 0.16970
O2 O 0.7388(2) 0.27930(16) -0.02047(17)
O3 O 0.9602(3) -0.1582(2) 0.0047(2)
N1 N 0.9570(2) -0.18539(19) 0.1079(2)
C2 C 0.9262(2) -0.11923(18) 0.2013(2)
C3 C 0.8888(2) -0.03166(18) 0.1647(2)
H3 H 0.88350 -0.01560 0.08310
C4 C 0.8590(2) 0.03239(17) 0.2528(2)
C5 C 0.8144(2) 0.12596(17) 0.2218(2)
H4 H 0.80080 0.16560 0.28630
C6 C 0.7916(3) 0.1594(2) 0.1131(2)
H5 H 0.80450 0.12030 0.04790
C7 C 0.7472(2) 0.25411(19) 0.0852(2)
C8 C 0.7134(3) 0.3156(2) 0.1830(2)
H6 H 0.72170 0.29420 0.26250
C9 C 0.6719(2) 0.39941(19) 0.1625(2)
H7 H 0.66720 0.41930 0.08220
C10 C 0.6312(3) 0.4668(2) 0.2543(3)
H8 H 0.64220 0.43800 0.33450
C11 C 0.6946(3) 0.5593(3) 0.2560(4)
C12 C 0.5332(4) 0.6383(3) 0.1369(4)
H9 H 0.51140 0.68920 0.18890
H10 H 0.51650 0.65730 0.05350
C13 C 0.5036(3) 0.4806(3) 0.2269(4)
C14 C 0.4648(3) 0.5533(3) 0.1633(3)
H11 H 0.38970 0.55140 0.13280
C15 C 0.4317(4) 0.3970(3) 0.2543(5)
H12 H 0.35310 0.41480 0.24980
H13 H 0.45250 0.37440 0.33430
H14 H 0.44370 0.34840 0.19630
C16 C 0.9363(3) -0.1461(2) 0.3202(3)
H15 H 0.96080 -0.20610 0.34200
C17 C 0.9093(3) -0.0824(2) 0.4058(3)
H16 H 0.91680 -0.09850 0.48740
C18 C 0.8709(3) 0.0060(2) 0.3727(2)
H17 H 0.85270 0.04840 0.43250
C19 C 0.6575(6) 0.6121(4) 0.3775(5)
H18 H 0.67850 0.67700 0.37400
H19 H 0.69510 0.58340 0.44720
H20 H 0.57680 0.60710 0.38310
C20 C 0.8239(4) 0.5451(3) 0.2653(4)
H21 H 0.84690 0.51250 0.19480
H22 H 0.84470 0.50910 0.33650
H23 H 0.86090 0.60510 0.27060
#END
