
#######################################################################
#
#                 Cambridge Crystallographic Data Centre
#                                CCDC
#
#######################################################################
#
# If this CIF has been generated from an entry in the Cambridge
# Structural Database, then it will include bibliographic, chemical,
# crystal, experimental, refinement or atomic coordinate data resulting
# from the CCDC's data processing and validation procedures.
#
#######################################################################

data_CSD_CIF_MAMGIQ
_audit_creation_date 2000-07-25
_audit_creation_method CSD-ConQuest-V1
_database_code_CSD MAMGIQ
_database_code_depnum_ccdc_archive 'CCDC 143489'
_database_code_depnum_ccdc_journal 188/227
_chemical_formula_sum 'C29 H37 N1 O3'
_chemical_formula_moiety
;
C29 H37 N1 O3
;
_journal_coden_Cambridge 188
_journal_year 2000
_journal_page_first 757
_journal_name_full 'J.Chem.Soc.,Perkin Trans.2 '
loop_
_publ_author_name
"W.K.Busfield"
"K.A.Byriel"
"I.D.Grice"
"I.D.Jenkins"
"D.E.Lynch"
_chemical_name_systematic
;
2-ax-Benzoyloxy-3-ax-(1,1,3,3-tetramethyl-2,3-dihydro-isoindol-2-yloxy)-trans-
decalin
;
_chemical_melting_point 384.15
_cell_volume   2563.929
_exptl_crystal_colour 'colorless'
_exptl_crystal_density_diffrn 1.16
_exptl_special_details
;
Melting point range 384.15-386.15K

;
_exptl_crystal_description 'prism'
_diffrn_ambient_temperature ?
_diffrn_special_details
;
The study was carried out at room temperature,in the range 283-303K

;
#These two values have been output from a single CSD field.
_refine_ls_R_factor_gt 0.04
_refine_ls_wR_factor_gt 0.04
_symmetry_cell_setting monoclinic
_symmetry_space_group_name_H-M 'P 21/n'
_symmetry_Int_Tables_number 14
loop_
_symmetry_equiv_pos_site_id
_symmetry_equiv_pos_as_xyz
1 x,y,z
2 1/2+x,1/2-y,1/2+z
3 -x,-y,-z
4 -1/2-x,-1/2+y,-1/2-z
_cell_length_a 14.904(6)
_cell_length_b 10.051(1)
_cell_length_c 17.289(9)
_cell_angle_alpha 90
_cell_angle_beta 98.12(2)
_cell_angle_gamma 90
_cell_formula_units_Z 4
loop_
_atom_type_symbol
_atom_type_radius_bond
C 0.68
H 0.23
N 0.68
O 0.68
loop_
_atom_site_label
_atom_site_type_symbol
_atom_site_fract_x
_atom_site_fract_y
_atom_site_fract_z
O1 O 0.03543(15) 0.1918(2) 0.33195(12)
O2 O 0.06297(16) 0.2929(3) 0.53419(12)
O3 O -0.08011(18) 0.3650(3) 0.50460(15)
N1 N -0.00854(18) 0.0848(3) 0.28586(15)
C1 C -0.1077(2) 0.1140(4) 0.2600(2)
C2 C -0.1312(4) 0.2607(5) 0.2459(4)
C3 C -0.1632(3) 0.0583(7) 0.3208(3)
C4 C -0.1211(3) 0.0350(4) 0.18543(19)
C5 C -0.2016(3) -0.0128(4) 0.1439(3)
C6 C -0.1982(4) -0.0841(5) 0.0757(3)
C7 C -0.1171(4) -0.1073(5) 0.0503(3)
C8 C -0.0369(3) -0.0616(4) 0.0912(2)
C9 C -0.0393(3) 0.0094(4) 0.1598(2)
C10 C 0.0384(3) 0.0655(4) 0.2154(2)
C11 C 0.0754(5) 0.1937(6) 0.1835(3)
C12 C 0.1134(3) -0.0369(6) 0.2358(3)
C13 C 0.0395(3) 0.1648(4) 0.41414(19)
C14 C 0.0985(3) 0.0466(4) 0.4414(3)
C15 C 0.1999(2) 0.0699(4) 0.4407(2)
C16 C 0.2562(3) -0.0514(4) 0.4717(3)
C17 C 0.3569(3) -0.0278(5) 0.4723(3)
C18 C 0.3881(3) 0.0980(5) 0.5161(3)
C19 C 0.3325(3) 0.2176(5) 0.4847(3)
C20 C 0.2315(2) 0.1954(4) 0.4851(2)
C21 C 0.1750(3) 0.3132(4) 0.4507(3)
C22 C 0.0752(3) 0.2950(4) 0.4517(2)
C23 C -0.0160(3) 0.3366(4) 0.5527(2)
C24 C -0.0152(3) 0.3497(4) 0.6383(2)
C25 C 0.0621(3) 0.3225(4) 0.6910(2)
C26 C 0.0612(3) 0.3393(5) 0.7701(3)
C27 C -0.0154(4) 0.3851(5) 0.7971(3)
C28 C -0.0919(4) 0.4126(5) 0.7452(3)
C29 C -0.0923(3) 0.3930(4) 0.6666(3)
H1 H -0.194(3) 0.279(5) 0.227(2)
H2 H -0.096(3) 0.297(4) 0.206(2)
H3 H -0.112(3) 0.309(5) 0.291(3)
H4 H -0.155(3) 0.118(4) 0.368(3)
H5 H -0.139(3) -0.032(5) 0.334(2)
H6 H -0.227(3) 0.056(4) 0.297(2)
H7 H -0.258(3) 0.011(4) 0.164(2)
H8 H -0.257(3) -0.114(4) 0.047(2)
H9 H -0.116(3) -0.148(4) 0.006(3)
H10 H 0.021(3) -0.077(4) 0.075(2)
H11 H 0.105(3) 0.177(5) 0.146(3)
H12 H 0.024(4) 0.261(6) 0.169(3)
H13 H 0.124(3) 0.232(5) 0.224(3)
H14 H 0.143(3) -0.059(4) 0.192(3)
H15 H 0.163(3) 0.000(4) 0.270(3)
H16 H 0.089(3) -0.119(5) 0.263(3)
H17 H -0.021(2) 0.149(3) 0.4292(17)
H18 H 0.0910(19) 0.027(3) 0.4945(19)
H19 H 0.079(2) -0.029(3) 0.4096(18)
H20 H 0.2069(19) 0.081(3) 0.3869(19)
H21 H 0.234(2) -0.135(4) 0.439(2)
H22 H 0.241(3) -0.075(4) 0.526(3)
H23 H 0.393(3) -0.102(4) 0.500(2)
H24 H 0.371(3) -0.021(4) 0.416(3)
H25 H 0.457(3) 0.116(4) 0.514(2)
H26 H 0.379(2) 0.087(4) 0.573(2)
H27 H 0.343(3) 0.238(4) 0.432(2)
H28 H 0.221(2) 0.180(3) 0.543(2)
H29 H 0.186(3) 0.329(4) 0.395(3)
H30 H 0.192(2) 0.397(4) 0.4773(19)
H31 H 0.036(2) 0.368(3) 0.4264(18)
H32 H 0.116(3) 0.289(4) 0.672(2)
H33 H 0.120(3) 0.315(4) 0.806(2)
H34 H -0.012(3) 0.396(5) 0.851(3)
H35 H -0.146(3) 0.445(4) 0.765(2)
H36 H -0.143(2) 0.419(3) 0.630(2)
#END
