
#######################################################################
#
#                 Cambridge Crystallographic Data Centre
#                                CCDC
#
#######################################################################
#
# If this CIF has been generated from an entry in the Cambridge
# Structural Database, then it will include bibliographic, chemical,
# crystal, experimental, refinement or atomic coordinate data resulting
# from the CCDC's data processing and validation procedures.
#
#######################################################################

data_CSD_CIF_MAMHOY
_audit_creation_date 2005-08-04
_audit_creation_method CSD-ConQuest-V1
_database_code_CSD MAMHOY
_database_code_depnum_ccdc_archive 'CCDC 270505'
_chemical_formula_sum 'C18 H14 N2 O4'
_chemical_formula_moiety
;
C18 H14 N2 O4
;
_journal_coeditor_code "IUCr OB6494"
_journal_coden_Cambridge 1370
_journal_volume 61
_journal_year 2005
_journal_page_first o1200
_journal_name_full 'Acta Crystallogr.,Sect.E:Struct.Rep.Online '
loop_
_publ_author_name
"Y.Sonoda"
"Y.Kawanishi"
"M.Goto"
_chemical_name_systematic
;
(E,E,E)-1,6-bis(4-Nitrophenyl)hexa-1,3,5-triene
;
_chemical_melting_point 513
_cell_volume   1545.455
_exptl_crystal_colour 'yellow'
_exptl_crystal_density_diffrn 1.385
_exptl_special_details
;
Melting point range 513-514K

;
_exptl_crystal_description 'needle'
_exptl_crystal_preparation 'acetonitrile'
_diffrn_ambient_temperature 183
#These two values have been output from a single CSD field.
_refine_ls_R_factor_gt 0.04
_refine_ls_wR_factor_gt 0.04
_symmetry_cell_setting monoclinic
_symmetry_space_group_name_H-M 'P 21/c'
_symmetry_Int_Tables_number 14
loop_
_symmetry_equiv_pos_site_id
_symmetry_equiv_pos_as_xyz
1 x,y,z
2 -x,1/2+y,1/2-z
3 -x,-y,-z
4 x,-1/2-y,-1/2+z
_cell_length_a 3.8710(4)
_cell_length_b 21.440(2)
_cell_length_c 18.7091(19)
_cell_angle_alpha 90
_cell_angle_beta 95.555(2)
_cell_angle_gamma 90
_cell_formula_units_Z 4
loop_
_atom_type_symbol
_atom_type_radius_bond
C 0.68
H 0.23
N 0.68
O 0.68
loop_
_atom_site_label
_atom_site_type_symbol
_atom_site_fract_x
_atom_site_fract_y
_atom_site_fract_z
C1 C 1.3424(3) 0.59348(6) 0.59861(8)
C2 C 1.2112(4) 0.57741(7) 0.52994(8)
H1 H 1.24330 0.53650 0.51220
C3 C 1.0328(4) 0.62165(6) 0.48752(8)
H2 H 0.93800 0.61070 0.44040
C4 C 0.9889(3) 0.68226(6) 0.51257(7)
C5 C 1.1238(3) 0.69624(6) 0.58283(7)
H3 H 1.09330 0.73700 0.60100
C6 C 1.2997(3) 0.65251(6) 0.62640(7)
H4 H 1.38890 0.66260 0.67410
C7 C 0.8069(3) 0.72819(6) 0.46529(7)
H5 H 0.66650 0.71270 0.42470
C8 C 0.8196(3) 0.79021(6) 0.47386(7)
H6 H 0.95400 0.80610 0.51510
C9 C 0.6449(3) 0.83450(7) 0.42533(7)
H7 H 0.50230 0.81920 0.38500
C10 C 0.6736(3) 0.89643(6) 0.43431(7)
H8 H 0.81430 0.91090 0.47540
C11 C 0.5088(3) 0.94263(6) 0.38688(7)
H9 H 0.36690 0.92890 0.34560
C12 C 0.5458(3) 1.00413(6) 0.39816(7)
H10 H 0.68510 1.01620 0.44050
C13 C 0.3969(3) 1.05453(6) 0.35289(7)
C14 C 0.1893(3) 1.04421(6) 0.28848(7)
H11 H 0.13880 1.00260 0.27330
C15 C 0.0565(3) 1.09322(6) 0.24656(7)
H12 H -0.08380 1.08570 0.20290
C16 C 0.1322(3) 1.15352(6) 0.26948(7)
C17 C 0.3357(3) 1.16595(6) 0.33257(7)
H13 H 0.38590 1.20770 0.34720
C18 C 0.4648(3) 1.11635(6) 0.37400(7)
H14 H 0.60290 1.12430 0.41780
N1 N 1.5364(3) 0.54706(6) 0.64365(8)
N2 N -0.0165(3) 1.20575(6) 0.22655(6)
O1 O 1.5715(4) 0.49480(6) 0.61881(8)
O2 O 1.6594(3) 0.56252(6) 0.70385(7)
O3 O -0.2134(3) 1.19414(6) 0.17311(6)
O4 O 0.0580(4) 1.25883(5) 0.24665(7)
#END
