
#######################################################################
#
#                 Cambridge Crystallographic Data Centre
#                                CCDC
#
#######################################################################
#
# If this CIF has been generated from an entry in the Cambridge
# Structural Database, then it will include bibliographic, chemical,
# crystal, experimental, refinement or atomic coordinate data resulting
# from the CCDC's data processing and validation procedures.
#
#######################################################################

data_CSD_CIF_MAMSUO
_audit_creation_date 2000-07-25
_audit_creation_method CSD-ConQuest-V1
_database_code_CSD MAMSUO
_database_code_depnum_ccdc_archive 'CCDC 143292'
_chemical_formula_sum 'C24 H26 N2 O5'
_chemical_formula_moiety
;
C24 H26 N2 O5
;
_journal_coden_Cambridge 16
_journal_volume 55
_journal_year 1999
_journal_page_first 4655
_journal_name_full 'Tetrahedron '
loop_
_publ_author_name
"A.Toro"
"C.-A.Lemelin"
"P.Preville"
"G.Belanger"
"P.Deslongchamps"
_chemical_name_systematic
;
(9S,10R,12S)-14-Oxo-3\b-(4'-nitrobenzoato-O)-15,17,19-trinor-14,16-seco-5\b,8\
a-stemod-6-en-16-nitrile
;
_cell_volume   1044.264
_diffrn_ambient_temperature ?
_diffrn_special_details
;
The study was carried out at room temperature,in the range 283-303K

;
#These two values have been output from a single CSD field.
_refine_ls_R_factor_gt 0.07
_refine_ls_wR_factor_gt 0.07
_symmetry_cell_setting monoclinic
_symmetry_space_group_name_H-M 'P 21'
_symmetry_Int_Tables_number 4
loop_
_symmetry_equiv_pos_site_id
_symmetry_equiv_pos_as_xyz
1 x,y,z
2 -x,1/2+y,-z
_cell_length_a 7.8394(6)
_cell_length_b 7.1710(8)
_cell_length_c 18.5764(19)
_cell_angle_alpha 90
_cell_angle_beta 90.457(7)
_cell_angle_gamma 90
_cell_formula_units_Z 2
loop_
_atom_type_symbol
_atom_type_radius_bond
C 0.68
H 0.23
N 0.68
O 0.68
loop_
_atom_site_label
_atom_site_type_symbol
_atom_site_fract_x
_atom_site_fract_y
_atom_site_fract_z
C1 C 0.1367(6) 0.8185(9) 0.2793(3)
H1 H 0.24390 0.85120 0.25690
H2 H 0.15740 0.71280 0.31080
C2 C 0.0098(7) 0.7623(9) 0.2215(3)
H3 H -0.09260 0.71580 0.24430
H4 H 0.05790 0.66110 0.19350
C3 C -0.0387(6) 0.9193(10) 0.1710(2)
H5 H -0.13360 0.87790 0.14020
C4 C -0.0902(6) 1.0986(9) 0.2087(3)
H6 H -0.07770 1.19910 0.17340
C5 C 0.0322(6) 1.1444(9) 0.2715(3)
H7 H 0.14100 1.17210 0.24820
C6 C -0.0111(8) 1.3199(9) 0.3112(3)
H8 H -0.07570 1.40990 0.28740
C7 C 0.0370(8) 1.3533(9) 0.3774(3)
H9 H 0.00280 1.46540 0.39790
C8 C 0.1433(8) 1.2246(10) 0.4229(3)
H10 H 0.07370 1.17610 0.46230
C9 C 0.2119(7) 1.0604(10) 0.3785(2)
C10 C 0.0746(6) 0.9841(9) 0.3245(2)
C11 C 0.3754(6) 1.1420(11) 0.3443(3)
H11 H 0.45490 1.04320 0.33250
H12 H 0.34760 1.21060 0.30080
C12 C 0.4515(7) 1.2716(11) 0.4013(3)
H13 H 0.54300 1.20640 0.42720
C13 C 0.3045(10) 1.3180(12) 0.4545(3)
H14 H 0.33010 1.26880 0.50210
H15 H 0.28870 1.45180 0.45820
C14 C -0.2818(7) 1.0875(13) 0.2266(3)
H16 H -0.30640 0.96850 0.24780
H17 H -0.34780 1.10250 0.18330
H18 H -0.31020 1.18480 0.25990
C15 C -0.0833(7) 0.9262(9) 0.3687(3)
H19 H -0.04990 0.83690 0.40460
H20 H -0.16720 0.87170 0.33720
H21 H -0.13070 1.03410 0.39160
C16 C 0.2694(9) 0.9011(11) 0.4258(3)
H22 H 0.34030 0.81330 0.40460
C17 C 0.5198(8) 1.4405(12) 0.3688(4)
C18 C 0.0807(6) 1.0093(9) 0.0588(2)
C19 C 0.2355(6) 1.0004(9) 0.0125(2)
C20 C 0.3988(6) 0.9687(11) 0.0397(2)
H23 H 0.41560 0.95650 0.08910
C21 C 0.5357(6) 0.9553(10) -0.0059(3)
H24 H 0.64540 0.93490 0.01190
C22 C 0.5050(6) 0.9730(9) -0.0790(2)
C23 C 0.3465(6) 1.0081(10) -0.1074(2)
H25 H 0.33080 1.02350 -0.15680
C24 C 0.2119(6) 1.0197(10) -0.0613(3)
H26 H 0.10290 1.04100 -0.07960
O1 O 0.2346(7) 0.8747(11) 0.4872(2)
O2 O 0.1123(4) 0.94800 0.12598(16)
O3 O -0.0562(5) 1.0589(9) 0.03717(19)
O4 O 0.7858(6) 0.8982(10) -0.1056(2)
O5 O 0.6259(6) 0.9841(14) -0.1913(2)
N1 N 0.5738(9) 1.5728(11) 0.3432(4)
N2 N 0.6490(6) 0.9493(10) -0.1290(2)
#END
