
#######################################################################
#
#                 Cambridge Crystallographic Data Centre
#                                CCDC
#
#######################################################################
#
# If this CIF has been generated from an entry in the Cambridge
# Structural Database, then it will include bibliographic, chemical,
# crystal, experimental, refinement or atomic coordinate data resulting
# from the CCDC's data processing and validation procedures.
#
#######################################################################

data_CSD_CIF_MANNUL
_audit_creation_date 2005-08-04
_audit_creation_method CSD-ConQuest-V1
_database_code_CSD MANNUL
_database_code_depnum_ccdc_archive 'CCDC 259762'
_chemical_formula_sum 'C22 H16 N2 O5'
_chemical_formula_moiety
;
C22 H16 N2 O5
;
_journal_coden_Cambridge 1366
_journal_volume 347
_journal_year 2005
_journal_page_first 689
_journal_name_full 'Adv.Synth.Catal. '
loop_
_publ_author_name
"Limin Wang"
"Jijun Liu"
"He Tian"
"Changtao Qian"
"Jie Sun"
_chemical_name_systematic
;
2-(E-1-Benzamido-2-(4-nitrophenyl)ethenyl)benzoic acid
;
_chemical_melting_point 484.15
_cell_volume   1858.004
_exptl_crystal_colour 'colorless'
_exptl_crystal_density_diffrn 1.388
_exptl_special_details
;
Melting point range 484.15-485.15K

;
_exptl_crystal_preparation 'ethyl acetate'
_diffrn_ambient_temperature 293
#These two values have been output from a single CSD field.
_refine_ls_R_factor_gt 0.0479
_refine_ls_wR_factor_gt 0.0479
_symmetry_cell_setting monoclinic
_symmetry_space_group_name_H-M 'P 21/n'
_symmetry_Int_Tables_number 14
loop_
_symmetry_equiv_pos_site_id
_symmetry_equiv_pos_as_xyz
1 x,y,z
2 1/2-x,1/2+y,1/2-z
3 -x,-y,-z
4 -1/2+x,-1/2-y,-1/2+z
_cell_length_a 7.5687(17)
_cell_length_b 11.072(3)
_cell_length_c 22.247(5)
_cell_angle_alpha 90
_cell_angle_beta 94.715(4)
_cell_angle_gamma 90
_cell_formula_units_Z 4
loop_
_atom_type_symbol
_atom_type_radius_bond
C 0.68
H 0.23
N 0.68
O 0.68
loop_
_atom_site_label
_atom_site_type_symbol
_atom_site_fract_x
_atom_site_fract_y
_atom_site_fract_z
O1 O 1.19445(16) 0.97889(12) 0.32493(6)
O2 O 0.8522(3) 1.39046(18) -0.01677(8)
O3 O 0.8428(3) 1.21456(18) -0.05837(7)
O4 O 1.14735(16) 0.75054(11) 0.22084(6)
O5 O 1.00925(18) 0.60238(12) 0.16834(7)
N1 N 0.9646(2) 0.85502(14) 0.33478(7)
N2 N 0.8637(2) 1.2813(2) -0.01425(9)
C1 C 1.0567(2) 0.93350(15) 0.30296(8)
C2 C 0.9768(2) 0.96376(14) 0.24059(7)
C3 C 1.0376(2) 1.06406(16) 0.21568(8)
C4 C 0.9865(2) 1.11683(15) 0.15574(7)
C5 C 1.0015(3) 1.24116(18) 0.14860(9)
C6 C 0.9596(3) 1.29747(19) 0.09360(9)
C7 C 0.9062(2) 1.22473(18) 0.04528(8)
C8 C 0.8937(3) 1.1023(2) 0.04999(9)
C9 C 0.9328(2) 1.04765(19) 0.10509(8)
C10 C 0.8239(2) 0.89016(15) 0.21354(7)
C11 C 0.6559(2) 0.94244(18) 0.21060(8)
C12 C 0.5071(3) 0.88252(19) 0.18522(9)
C13 C 0.5239(2) 0.76825(19) 0.16165(9)
C14 C 0.6888(2) 0.71299(18) 0.16475(8)
C15 C 0.8390(2) 0.77218(15) 0.19084(7)
C16 C 1.0138(2) 0.70964(16) 0.19474(8)
C17 C 1.0274(2) 0.80428(16) 0.39161(8)
C18 C 1.0841(3) 0.8769(2) 0.43953(9)
C19 C 1.1422(3) 0.8225(3) 0.49393(10)
C20 C 1.1426(3) 0.7000(3) 0.50018(11)
C21 C 1.0866(3) 0.6291(2) 0.45252(11)
C22 C 1.0295(3) 0.68163(19) 0.39817(10)
H1 H 1.134(2) 1.1124(14) 0.2414(7)
H2 H 1.037(2) 1.2888(17) 0.1820(9)
H3 H 0.967(2) 1.3846(18) 0.0862(8)
H4 H 0.867(2) 1.0574(16) 0.0169(8)
H5 H 0.931(2) 0.9605(16) 0.1072(7)
H6 H 0.652(2) 1.0214(16) 0.2278(7)
H7 H 0.387(2) 0.9204(15) 0.1839(8)
H8 H 0.420(2) 0.7292(16) 0.1440(8)
H9 H 0.714(2) 0.6329(16) 0.1510(8)
H10 H 1.079(2) 0.9638(18) 0.4338(8)
H11 H 1.177(3) 0.872(2) 0.5245(10)
H12 H 1.179(3) 0.6651(18) 0.5393(10)
H13 H 1.081(2) 0.5451(18) 0.4560(9)
H14 H 0.999(2) 0.6331(17) 0.3661(8)
H15 H 0.870(2) 0.8222(17) 0.3167(8)
H16 H 1.140(4) 0.572(3) 0.1776(13)
#END
