
#######################################################################
#
#                 Cambridge Crystallographic Data Centre
#                                CCDC
#
#######################################################################
#
# If this CIF has been generated from an entry in the Cambridge
# Structural Database, then it will include bibliographic, chemical,
# crystal, experimental, refinement or atomic coordinate data resulting
# from the CCDC's data processing and validation procedures.
#
#######################################################################

data_CSD_CIF_MAPNAU
_audit_creation_date 2012-05-22
_audit_creation_method CSD-ConQuest-V1
_database_code_CSD MAPNAU
_database_code_depnum_ccdc_archive 'CCDC 785379'
_chemical_formula_sum 'C10 H13 N3 O1'
_chemical_formula_moiety
;
C10 H13 N3 O1
;
_journal_coden_Cambridge 524
_journal_volume 345
_journal_year 2012
_journal_page_first 33
_journal_name_full 'Arch.Pharm.Chem.Life Sci. '
loop_
_publ_author_name
"J.Saczewski"
"A.Hudson"
"S.Laird"
"A.Rybczynska"
"K.Boblewski"
"A.Lehmann"
"Daqing Ma"
"M.Maze"
"H.Watts"
"M.Gdaniec"
_chemical_name_systematic
;
(Benzyl(4,5-dihydro-1H-imidazol-3-ium-2-yl)amino)oxidanide
;
_cell_volume   1928.898
_exptl_crystal_density_diffrn 1.317
_exptl_crystal_description 'prism'
_diffrn_ambient_temperature 130
#These two values have been output from a single CSD field.
_refine_ls_R_factor_gt 0.0317
_refine_ls_wR_factor_gt 0.0317
_symmetry_cell_setting orthorhombic
_symmetry_space_group_name_H-M 'P b c a'
_symmetry_Int_Tables_number 61
loop_
_symmetry_equiv_pos_site_id
_symmetry_equiv_pos_as_xyz
1 x,y,z
2 1/2-x,-y,1/2+z
3 -x,1/2+y,1/2-z
4 1/2+x,1/2-y,-z
5 -x,-y,-z
6 -1/2+x,y,-1/2-z
7 x,-1/2-y,-1/2+z
8 -1/2-x,-1/2+y,z
_cell_length_a 9.4805(1)
_cell_length_b 10.1116(1)
_cell_length_c 20.1214(1)
_cell_angle_alpha 90
_cell_angle_beta 90
_cell_angle_gamma 90
_cell_formula_units_Z 8
loop_
_atom_type_symbol
_atom_type_radius_bond
C 0.68
H 0.23
N 0.68
O 0.68
loop_
_atom_site_label
_atom_site_type_symbol
_atom_site_fract_x
_atom_site_fract_y
_atom_site_fract_z
H1 H 0.0917(15) -0.0152(14) 0.0490(7)
H2 H 0.4295(16) 0.1949(15) 0.0314(7)
C1 C 0.23947(10) 0.11149(9) 0.02406(4)
C2 C 0.40068(11) 0.04361(10) 0.10058(5)
H3 H 0.39570 0.10210 0.14000
H4 H 0.49250 -0.00310 0.10040
C3 C 0.27777(10) -0.05337(10) 0.09899(5)
H5 H 0.30280 -0.13550 0.07490
H6 H 0.24550 -0.07610 0.14440
C4 C 0.25125(10) 0.27286(9) -0.06534(5)
H7 H 0.32980 0.31350 -0.04010
H8 H 0.18610 0.34460 -0.07870
C5 C 0.31026(10) 0.20822(10) -0.12730(5)
C6 C 0.43055(10) 0.26054(10) -0.15717(5)
H9 H 0.47500 0.33600 -0.13840
C7 C 0.48593(11) 0.20290(12) -0.21424(6)
H10 H 0.56730 0.23970 -0.23460
C8 C 0.42253(12) 0.09176(12) -0.24145(5)
H11 H 0.46060 0.05230 -0.28040
C9 C 0.30341(11) 0.03846(12) -0.21167(5)
H12 H 0.26020 -0.03800 -0.23000
C10 C 0.24704(11) 0.09676(10) -0.15498(5)
H13 H 0.16500 0.06030 -0.13500
N1 N 0.17107(9) 0.02347(8) 0.06287(4)
N2 N 0.37884(9) 0.11803(8) 0.03873(4)
N3 N 0.17632(8) 0.18178(8) -0.02197(4)
O1 O 0.03606(7) 0.15790(7) -0.03551(4)
#END
