
#######################################################################
#
#                 Cambridge Crystallographic Data Centre
#                                CCDC
#
#######################################################################
#
# If this CIF has been generated from an entry in the Cambridge
# Structural Database, then it will include bibliographic, chemical,
# crystal, experimental, refinement or atomic coordinate data resulting
# from the CCDC's data processing and validation procedures.
#
#######################################################################

data_CSD_CIF_MAPZOT
_audit_creation_date 2005-11-10
_audit_creation_method CSD-ConQuest-V1
_database_code_CSD MAPZOT
_database_code_depnum_ccdc_archive 'CCDC 276504'
_chemical_formula_sum 'C25 H18 N1 O1'
_chemical_formula_moiety
;
C25 H18 N1 O1
;
_journal_coden_Cambridge 1147
_journal_volume 5
_journal_year 2005
_journal_page_first 413
_journal_name_full 'Cryst.Growth Des. '
loop_
_publ_author_name
"M.Yao"
"S.Asakura"
"M.Abe"
"H.Inoue"
"N.Yoshioka"
_chemical_name_systematic
;
3,3-Diphenyl-3,4-dihydrobenzo(f)quinoline-4-oxyl
;
_cell_volume   1824.250
_exptl_crystal_colour 'green'
_exptl_crystal_density_diffrn 1.268
_exptl_special_details
;
paramagnetic

;
_exptl_crystal_description 'block'
_diffrn_ambient_temperature 296
#These two values have been output from a single CSD field.
_refine_ls_R_factor_gt 0.044
_refine_ls_wR_factor_gt 0.044
_symmetry_cell_setting monoclinic
_symmetry_space_group_name_H-M 'P 21/c'
_symmetry_Int_Tables_number 14
loop_
_symmetry_equiv_pos_site_id
_symmetry_equiv_pos_as_xyz
1 x,y,z
2 -x,1/2+y,1/2-z
3 -x,-y,-z
4 x,-1/2-y,-1/2+z
_cell_length_a 11.173(1)
_cell_length_b 12.536(2)
_cell_length_c 13.026(1)
_cell_angle_alpha 90
_cell_angle_beta 90.916(9)
_cell_angle_gamma 90
_cell_formula_units_Z 4
loop_
_atom_type_symbol
_atom_type_radius_bond
C 0.68
H 0.23
N 0.68
O 0.68
loop_
_atom_site_label
_atom_site_type_symbol
_atom_site_fract_x
_atom_site_fract_y
_atom_site_fract_z
O1 O 0.1872(1) 0.1815(1) 0.26818(8)
N1 N 0.2322(1) 0.1474(1) 0.18478(9)
C1 C 0.3327(1) 0.2129(1) 0.1426(1)
C2 C 0.3851(1) 0.1570(1) 0.0512(1)
C3 C 0.3407(1) 0.0690(1) 0.0086(1)
C4 C 0.2357(1) 0.0162(1) 0.0483(1)
C5 C 0.1824(1) -0.0763(1) 0.0015(1)
C6 C 0.2253(2) -0.1237(2) -0.0891(1)
C7 C 0.1672(2) -0.2097(2) -0.1324(2)
C8 C 0.0662(2) -0.2539(2) -0.0879(2)
C9 C 0.0249(2) -0.2126(2) 0.0008(2)
C10 C 0.0810(1) -0.1237(1) 0.0477(1)
C11 C 0.0363(1) -0.0802(2) 0.1394(1)
C12 C 0.0858(1) 0.0077(1) 0.1836(1)
C13 C 0.1850(1) 0.0572(1) 0.1372(1)
C14 C 0.2788(1) 0.3217(1) 0.1143(1)
C15 C 0.2424(1) 0.3917(1) 0.1908(1)
C16 C 0.1855(2) 0.4859(2) 0.1655(1)
C17 C 0.1644(2) 0.5122(2) 0.0644(2)
C18 C 0.2020(2) 0.4452(2) -0.0114(2)
C19 C 0.2585(2) 0.3498(2) 0.0129(1)
C20 C 0.4317(1) 0.2192(1) 0.2258(1)
C21 C 0.5048(2) 0.3077(2) 0.2354(2)
C22 C 0.5972(2) 0.3098(2) 0.3073(2)
C23 C 0.6191(2) 0.2244(2) 0.3698(2)
C24 C 0.5488(2) 0.1357(2) 0.3604(2)
C25 C 0.4554(2) 0.1328(2) 0.2889(1)
H1 H 0.45540 0.18750 0.02150
H2 H 0.37940 0.03940 -0.05020
H3 H 0.29560 -0.09570 -0.12080
H4 H 0.19700 -0.23990 -0.19470
H5 H 0.02620 -0.31320 -0.12000
H6 H -0.04360 -0.24440 0.03240
H7 H -0.03100 -0.11360 0.17130
H8 H 0.05380 0.03610 0.24600
H9 H 0.25710 0.37420 0.26170
H10 H 0.16050 0.53340 0.21880
H11 H 0.12340 0.57740 0.04720
H12 H 0.18940 0.46440 -0.08220
H13 H 0.28360 0.30310 -0.04090
H14 H 0.49140 0.36850 0.19180
H15 H 0.64680 0.37210 0.31340
H16 H 0.68300 0.22690 0.41980
H17 H 0.56410 0.07490 0.40340
H18 H 0.40660 0.07000 0.28320
#END
