
#######################################################################
#
#                 Cambridge Crystallographic Data Centre
#                                CCDC
#
#######################################################################
#
# If this CIF has been generated from an entry in the Cambridge
# Structural Database, then it will include bibliographic, chemical,
# crystal, experimental, refinement or atomic coordinate data resulting
# from the CCDC's data processing and validation procedures.
#
#######################################################################

data_CSD_CIF_MAQCIR
_audit_creation_date 2005-11-10
_audit_creation_method CSD-ConQuest-V1
_database_code_CSD MAQCIR
_database_code_depnum_ccdc_archive 'CCDC 276533'
_chemical_formula_sum 'C6 H6 N6 O3'
_chemical_formula_moiety
;
C6 H6 N6 O3
;
_journal_coden_Cambridge 1147
_journal_volume 5
_journal_year 2005
_journal_page_first 631
_journal_name_full 'Cryst.Growth Des. '
loop_
_publ_author_name
"B.B.Averkiev"
"M.Yu.Antipin"
"A.B.Sheremetev"
"T.V.Timofeeva"
_chemical_name_systematic
;
3-Methyl-4-((E)-(4-methyl-1,2,5-oxadiazol-3-yl)diazenyl)-1,2,5-oxadiazole
;
_chemical_name_common
;
4,4'-Dimethylazoxyfurazan
;
_chemical_melting_point 349
_cell_volume    452.561
_exptl_crystal_colour 'colorless'
_exptl_crystal_density_diffrn 1.542
_exptl_special_details
;
Melting point range 349-350.5K

;
_exptl_crystal_description 'plate'
_exptl_crystal_preparation 'dichloromethane/carbon tetrachloride'
_diffrn_ambient_temperature 293
#These two values have been output from a single CSD field.
_refine_ls_R_factor_gt 0.0442
_refine_ls_wR_factor_gt 0.0442
_symmetry_cell_setting monoclinic
_symmetry_space_group_name_H-M 'P 21/m'
_symmetry_Int_Tables_number 11
loop_
_symmetry_equiv_pos_site_id
_symmetry_equiv_pos_as_xyz
1 x,y,z
2 -x,1/2+y,-z
3 -x,-y,-z
4 x,-1/2-y,z
_cell_length_a 6.947(2)
_cell_length_b 6.246(2)
_cell_length_c 10.760(3)
_cell_angle_alpha 90
_cell_angle_beta 104.23(2)
_cell_angle_gamma 90
_cell_formula_units_Z 2
loop_
_atom_type_symbol
_atom_type_radius_bond
C 0.68
H 0.23
N 0.68
O 0.68
loop_
_atom_site_label
_atom_site_type_symbol
_atom_site_fract_x
_atom_site_fract_y
_atom_site_fract_z
O1 O 0.65236(18) 0.25000 0.15144(12)
C1 C 0.6236(3) 0.25000 0.41145(16)
N1 N 0.5430(3) 0.25000 0.50800(15)
O2 O 0.3395(3) 0.25000 0.45694(14)
N2 N 0.2937(3) 0.25000 0.32613(15)
C2 C 0.4639(3) 0.25000 0.29895(14)
N3 N 0.48117(19) 0.25000 0.16810(13)
N4 N 0.31636(19) 0.25000 0.08294(13)
C3 C 0.3266(2) 0.25000 -0.04415(14)
N5 N 0.4840(2) 0.25000 -0.09139(13)
O3 O 0.4068(2) 0.25000 -0.22215(12)
N6 N 0.1995(3) 0.25000 -0.25390(14)
C4 C 0.1489(3) 0.25000 -0.14603(15)
C5 C 0.8413(3) 0.25000 0.4277(2)
H1 H 0.879(2) 0.129(3) 0.3830(17)
H2 H 0.896(3) 0.25000 0.526(2)
C6 C -0.0603(3) 0.25000 -0.1358(2)
H3 H -0.142(5) 0.25000 -0.212(2)
H4 H -0.092(3) 0.1313(16) -0.088(2)
H1C H 0.879(2) 0.371(3) 0.3830(17)
H4C H -0.092(3) 0.3687(16) -0.088(2)
#END
