
#######################################################################
#
#                 Cambridge Crystallographic Data Centre
#                                CCDC
#
#######################################################################
#
# If this CIF has been generated from an entry in the Cambridge
# Structural Database, then it will include bibliographic, chemical,
# crystal, experimental, refinement or atomic coordinate data resulting
# from the CCDC's data processing and validation procedures.
#
#######################################################################

data_CSD_CIF_MARXUA
_audit_creation_date 2012-05-22
_audit_creation_method CSD-ConQuest-V1
_database_code_CSD MARXUA
_database_code_depnum_ccdc_archive 'CCDC 831564'
_database_code_depnum_ccdc_journal 1267/3608
_chemical_formula_sum 'C32 H30 N4 O4'
_chemical_formula_moiety
;
C32 H30 N4 O4
;
_journal_coden_Cambridge 1267
_journal_volume 227
_journal_year 2012
_journal_page_first 99
_journal_name_full 'Z.Kristallogr.-New Cryst.Struct. '
loop_
_publ_author_name
"Wen-Kui Dong"
"Shou-Ting Zhang"
"Yin-Xia Sun"
"Min Liu"
"Yu-Jie Zhang"
"Xiong-Hou Gao"
_chemical_name_systematic
;
N,N'-(Ethane-1,2-diylbis(oxy-2,1-phenylenemethylylidene))bis(3-(N-hydroxyethan
imidoyl)aniline)
;
_cell_volume   2703.746
_exptl_crystal_colour 'colorless'
_exptl_crystal_density_diffrn 1.313
_exptl_crystal_description 'prismatic'
_diffrn_ambient_temperature 298
#These two values have been output from a single CSD field.
_refine_ls_R_factor_gt 0.0481
_refine_ls_wR_factor_gt 0.0481
_symmetry_cell_setting monoclinic
_symmetry_space_group_name_H-M 'C 2/c'
_symmetry_Int_Tables_number 15
loop_
_symmetry_equiv_pos_site_id
_symmetry_equiv_pos_as_xyz
1 x,y,z
2 -x,y,1/2-z
3 1/2+x,1/2+y,z
4 1/2-x,1/2+y,1/2-z
5 -x,-y,-z
6 x,-y,-1/2+z
7 -1/2-x,-1/2-y,-z
8 -1/2+x,-1/2-y,-1/2+z
_cell_length_a 15.2832(17)
_cell_length_b 8.8951(7)
_cell_length_c 19.931(2)
_cell_angle_alpha 90
_cell_angle_beta 93.745(1)
_cell_angle_gamma 90
_cell_formula_units_Z 4
loop_
_atom_type_symbol
_atom_type_radius_bond
C 0.68
H 0.23
N 0.68
O 0.68
loop_
_atom_site_label
_atom_site_type_symbol
_atom_site_fract_x
_atom_site_fract_y
_atom_site_fract_z
N1 N 0.63795(13) 0.0637(2) 0.1880(1)
N2 N 0.50646(13) 0.1845(2) 0.40679(9)
O1 O 0.66582(11) 0.0675(2) 0.12220(8)
H1 H 0.62760 0.10630 0.09700
O2 O 0.48962(12) 0.58699(18) 0.32008(9)
C1 C 0.78035(18) -0.0593(4) 0.21217(15)
H2 H 0.77170 -0.15700 0.19240
H3 H 0.81890 -0.06720 0.25200
H4 H 0.80590 0.00640 0.18060
C2 C 0.69375(16) 0.0032(3) 0.23009(12)
C3 C 0.66556(15) -0.0047(3) 0.29969(12)
C4 C 0.60085(15) 0.0921(3) 0.32002(11)
H5 H 0.57730 0.16360 0.29000
C5 C 0.57077(15) 0.0842(3) 0.38383(12)
C6 C 0.60300(18) -0.0278(3) 0.42723(13)
H6 H 0.58100 -0.03850 0.46940
C7 C 0.66757(18) -0.1230(3) 0.40776(15)
H7 H 0.68990 -0.19620 0.43750
C8 C 0.69959(17) -0.1118(3) 0.34526(14)
H8 H 0.74410 -0.17580 0.33330
C9 C 0.51088(16) 0.3213(3) 0.38882(12)
H9 H 0.55460 0.34940 0.36100
C10 C 0.45038(15) 0.4361(3) 0.40988(11)
C11 C 0.44247(16) 0.5730(3) 0.37584(12)
C12 C 0.38938(18) 0.6856(3) 0.39869(14)
H10 H 0.38420 0.77680 0.37590
C13 C 0.3444(2) 0.6618(4) 0.45522(15)
H11 H 0.30920 0.73800 0.47070
C14 C 0.35029(19) 0.5270(4) 0.48951(14)
H12 H 0.31890 0.51140 0.52730
C15 C 0.40351(17) 0.4164(3) 0.46664(13)
H13 H 0.40830 0.32570 0.48980
C16 C 0.47156(18) 0.7154(3) 0.27849(12)
H14 H 0.48160 0.80630 0.30480
H15 H 0.41060 0.71400 0.26170
N1A N 0.36205(13) 0.0637(2) 0.3120(1)
N2A N 0.49354(13) 0.1845(2) 0.09321(9)
O1A O 0.33418(11) 0.0675(2) 0.37780(8)
H1A H 0.37240 0.10630 0.40300
O2A O 0.51038(12) 0.58699(18) 0.17992(9)
C1A C 0.21965(18) -0.0593(4) 0.28783(15)
H2A H 0.22830 -0.15700 0.30760
H3A H 0.18110 -0.06720 0.24800
H4A H 0.19410 0.00640 0.31940
C2A C 0.30625(16) 0.0032(3) 0.26991(12)
C3A C 0.33444(15) -0.0047(3) 0.20031(12)
C4A C 0.39915(15) 0.0921(3) 0.17998(11)
H5A H 0.42270 0.16360 0.21000
C5A C 0.42923(15) 0.0842(3) 0.11617(12)
C6A C 0.39700(18) -0.0278(3) 0.07277(13)
H6A H 0.41900 -0.03850 0.03060
C7A C 0.33243(18) -0.1230(3) 0.09224(15)
H7A H 0.31010 -0.19620 0.06250
C8A C 0.30041(17) -0.1118(3) 0.15474(14)
H8A H 0.25590 -0.17580 0.16670
C9A C 0.48912(16) 0.3213(3) 0.11118(12)
H9A H 0.44540 0.34940 0.13900
C10A C 0.54962(15) 0.4361(3) 0.09012(11)
C11A C 0.55753(16) 0.5730(3) 0.12416(12)
C12A C 0.61062(18) 0.6856(3) 0.10131(14)
H10A H 0.61580 0.77680 0.12410
C13A C 0.6556(2) 0.6618(4) 0.04478(15)
H11A H 0.69080 0.73800 0.02930
C14A C 0.64971(19) 0.5270(4) 0.01049(14)
H12A H 0.68110 0.51140 -0.02730
C15A C 0.59649(17) 0.4164(3) 0.03336(13)
H13A H 0.59170 0.32570 0.01020
C16A C 0.52844(18) 0.7154(3) 0.22151(12)
H14A H 0.51840 0.80630 0.19520
H15A H 0.58940 0.71400 0.23830
#END
