
#######################################################################
#
#                 Cambridge Crystallographic Data Centre
#                                CCDC
#
#######################################################################
#
# If this CIF has been generated from an entry in the Cambridge
# Structural Database, then it will include bibliographic, chemical,
# crystal, experimental, refinement or atomic coordinate data resulting
# from the CCDC's data processing and validation procedures.
#
#######################################################################

data_CSD_CIF_MASJEW
_audit_creation_date 2005-11-10
_audit_creation_method CSD-ConQuest-V1
_database_code_CSD MASJEW
_database_code_depnum_ccdc_archive 'CCDC 250608'
_chemical_formula_sum 'C17 H23 N1 O5'
_chemical_formula_moiety
;
C17 H23 N1 O5
;
_journal_coden_Cambridge 1220
_journal_volume 11
_journal_year 2005
_journal_page_first 2783
_journal_name_full 'Chem.-Eur.J. '
loop_
_publ_author_name
"C.Kobler"
"F.Effenberger"
_chemical_name_systematic
;
cis-(1-Hydroxy-4-isopropylcyclohexyl)methyl 4-nitrobenzoate
;
_chemical_melting_point 376.15
_cell_volume   1692.039
_exptl_crystal_density_diffrn 1.262
_exptl_crystal_preparation 'diisopropyl ether'
_diffrn_ambient_temperature 293
#These two values have been output from a single CSD field.
_refine_ls_R_factor_gt 0.0801
_refine_ls_wR_factor_gt 0.0801
_symmetry_cell_setting monoclinic
_symmetry_space_group_name_H-M 'P 21/n'
_symmetry_Int_Tables_number 14
loop_
_symmetry_equiv_pos_site_id
_symmetry_equiv_pos_as_xyz
1 x,y,z
2 1/2-x,1/2+y,1/2-z
3 -x,-y,-z
4 -1/2+x,-1/2-y,-1/2+z
_cell_length_a 14.9154(8)
_cell_length_b 5.6903(4)
_cell_length_c 20.9257(17)
_cell_angle_alpha 90
_cell_angle_beta 107.691(5)
_cell_angle_gamma 90
_cell_formula_units_Z 4
loop_
_atom_type_symbol
_atom_type_radius_bond
C 0.68
H 0.23
N 0.68
O 0.68
loop_
_atom_site_label
_atom_site_type_symbol
_atom_site_fract_x
_atom_site_fract_y
_atom_site_fract_z
O1 O -0.1255(2) 1.2278(4) 0.0263(1)
N1 N 0.4429(2) 1.0251(6) 0.2323(2)
C1 C -0.1498(2) 1.0214(5) 0.0571(1)
O2 O 0.0088(2) 0.8816(3) 0.0812(1)
C2 C -0.2518(2) 0.9654(6) 0.0185(2)
O3 O 0.0528(2) 0.5023(4) 0.0877(1)
C3 C -0.3203(2) 1.1521(6) 0.0291(2)
C4 C -0.3106(2) 1.1898(7) 0.1031(2)
O4 O 0.4537(2) 1.2195(6) 0.2579(2)
C5 C -0.2085(2) 1.2511(7) 0.1403(2)
O5 O 0.5083(2) 0.8957(6) 0.2350(2)
C6 C -0.1394(2) 1.0652(6) 0.1307(2)
C7 C -0.3803(3) 1.3770(9) 0.1125(2)
C8 C -0.4828(3) 1.2925(10) 0.0817(3)
C9 C -0.3640(4) 1.4404(12) 0.1855(3)
C10 C -0.0892(2) 0.8166(6) 0.0489(2)
C11 C 0.0717(2) 0.7095(5) 0.0974(2)
C12 C 0.1679(2) 0.7990(5) 0.1305(1)
C13 C 0.1830(2) 1.0167(5) 0.1617(2)
C14 C 0.2736(2) 1.0920(5) 0.1953(2)
C15 C 0.3470(2) 0.9461(6) 0.1963(2)
C16 C 0.3350(2) 0.7301(6) 0.1647(2)
C17 C 0.2443(2) 0.6585(6) 0.1317(2)
H1 H -0.065(3) 1.279(8) 0.051(2)
H2 H -0.26830 0.81370 0.03280
H3 H -0.25820 0.95470 -0.02900
H4 H -0.30870 1.29970 0.00970
H5 H -0.38430 1.10410 0.00560
H6 H -0.32540 1.04090 0.12120
H7 H -0.20120 1.26700 0.18770
H8 H -0.19340 1.40140 0.12420
H9 H -0.07560 1.11640 0.15340
H10 H -0.15000 0.91920 0.15130
H11 H -0.37180 1.51950 0.08870
H12 H -0.49360 1.25490 0.03520
H13 H -0.52520 1.41470 0.08550
H14 H -0.49320 1.15530 0.10520
H15 H -0.30010 1.49080 0.20500
H16 H -0.37580 1.30540 0.20930
H17 H -0.40590 1.56520 0.18850
H18 H -0.10500 0.67680 0.06970
H19 H -0.09950 0.78440 0.00170
H20 H 0.13200 1.11290 0.16020
H21 H 0.28410 1.23750 0.21650
H22 H 0.38630 0.63590 0.16560
H23 H 0.23430 0.51390 0.11000
#END
