
#######################################################################
#
#                 Cambridge Crystallographic Data Centre
#                                CCDC
#
#######################################################################
#
# If this CIF has been generated from an entry in the Cambridge
# Structural Database, then it will include bibliographic, chemical,
# crystal, experimental, refinement or atomic coordinate data resulting
# from the CCDC's data processing and validation procedures.
#
#######################################################################

data_CSD_CIF_MATDEQ
_audit_creation_date 2000-09-12
_audit_creation_method CSD-ConQuest-V1
_database_code_CSD MATDEQ
_database_code_depnum_ccdc_archive 'CCDC 147647'
_chemical_formula_sum 'C12 H13 N5 O4'
_chemical_formula_moiety
;
C12 H13 N5 O4
;
_journal_coeditor_code "IUCr NA1458"
_journal_coden_Cambridge 591
_journal_volume 56
_journal_year 2000
_journal_page_first 832
_journal_name_full 'Acta Crystallogr.,Sect.C:Cryst.Struct.Commun. '
loop_
_publ_author_name
"H.Taycher"
"V.Shteiman"
"M.Botoshansky"
"M.Kaftory"
_chemical_name_systematic
;
1,3,5-Trimethyl-6-(4-nitrophenylimino)-1,3,5-triazinane-2,4-dione
;
_cell_volume   1313.878
_exptl_crystal_colour 'pale yellow'
_exptl_crystal_density_diffrn 1.473
_exptl_special_details
;
polymorph B

;
_exptl_crystal_description 'cube'
_exptl_crystal_preparation 'methanol/ethanol'
_diffrn_ambient_temperature ?
_diffrn_special_details
;
The study was carried out at room temperature,in the range 283-303K

;
#These two values have been output from a single CSD field.
_refine_ls_R_factor_gt 0.0502
_refine_ls_wR_factor_gt 0.0502
_symmetry_cell_setting monoclinic
_symmetry_space_group_name_H-M 'P 21/c'
_symmetry_Int_Tables_number 14
loop_
_symmetry_equiv_pos_site_id
_symmetry_equiv_pos_as_xyz
1 x,y,z
2 x,1/2-y,1/2+z
3 -x,-y,-z
4 -x,-1/2+y,-1/2-z
_cell_length_a 11.1270(6)
_cell_length_b 9.1950(9)
_cell_length_c 13.0940(11)
_cell_angle_alpha 90
_cell_angle_beta 101.264(5)
_cell_angle_gamma 90
_cell_formula_units_Z 4
loop_
_atom_type_symbol
_atom_type_radius_bond
C 0.68
H 0.23
N 0.68
O 0.68
loop_
_atom_site_label
_atom_site_type_symbol
_atom_site_fract_x
_atom_site_fract_y
_atom_site_fract_z
O1 O 0.17723(18) 0.3667(2) 0.54611(15)
O2 O 0.50592(14) 0.65544(19) 0.65163(13)
O3 O 0.02820(19) 0.6423(3) -0.14645(15)
O4 O 0.1423(2) 0.4526(3) -0.13815(17)
N1 N 0.34684(16) 0.50221(19) 0.59971(13)
N2 N 0.23395(16) 0.5199(2) 0.42872(13)
N3 N 0.39908(14) 0.67631(19) 0.48649(13)
N4 N 0.30495(15) 0.6909(2) 0.31697(14)
N5 N 0.1031(2) 0.5582(3) -0.09866(17)
C1 C 0.2480(2) 0.4572(3) 0.52613(18)
C2 C 0.30940(17) 0.6280(2) 0.40360(17)
C3 C 0.42251(18) 0.6142(2) 0.58353(17)
C4 C 0.24684(18) 0.6488(2) 0.21708(16)
C5 C 0.2826(2) 0.5246(3) 0.1702(2)
C6 C 0.2346(2) 0.4938(3) 0.0680(2)
C7 C 0.15078(19) 0.5877(3) 0.01162(17)
C8 C 0.1117(2) 0.7097(3) 0.05584(18)
C9 C 0.1611(2) 0.7414(3) 0.15849(18)
C10 C 0.1216(3) 0.4781(5) 0.3542(3)
C11 C 0.4765(3) 0.7988(3) 0.4680(2)
C12 C 0.3638(3) 0.4393(4) 0.7049(2)
H1 H 0.340(3) 0.462(3) 0.209(2)
H2 H 0.256(3) 0.412(3) 0.033(2)
H3 H 0.049(2) 0.768(3) 0.018(2)
H4 H 0.136(2) 0.833(3) 0.1891(19)
H5 H 0.062(4) 0.443(5) 0.391(4)
H6 H 0.148(3) 0.409(4) 0.314(3)
H7 H 0.093(3) 0.558(4) 0.313(3)
H8 H 0.510(3) 0.782(4) 0.408(3)
H9 H 0.539(3) 0.817(4) 0.536(3)
H10 H 0.426(3) 0.888(4) 0.447(3)
H11 H 0.298(4) 0.380(5) 0.707(3)
H12 H 0.356(4) 0.520(5) 0.758(3)
H13 H 0.438(3) 0.399(4) 0.723(3)
#END
