
#######################################################################
#
#                 Cambridge Crystallographic Data Centre
#                                CCDC
#
#######################################################################
#
# If this CIF has been generated from an entry in the Cambridge
# Structural Database, then it will include bibliographic, chemical,
# crystal, experimental, refinement or atomic coordinate data resulting
# from the CCDC's data processing and validation procedures.
#
#######################################################################

data_CSD_CIF_MATDEQ01
_audit_creation_date 2000-09-12
_audit_creation_method CSD-ConQuest-V1
_database_code_CSD MATDEQ01
_database_code_depnum_ccdc_archive 'CCDC 147646'
_chemical_formula_sum 'C12 H13 N5 O4'
_chemical_formula_moiety
;
C12 H13 N5 O4
;
_journal_coeditor_code "IUCr NA1458"
_journal_coden_Cambridge 591
_journal_volume 56
_journal_year 2000
_journal_page_first 832
_journal_name_full 'Acta Crystallogr.,Sect.C:Cryst.Struct.Commun. '
loop_
_publ_author_name
"H.Taycher"
"V.Shteiman"
"M.Botoshansky"
"M.Kaftory"
_chemical_name_systematic
;
1,3,5-Trimethyl-6-(4-nitrophenylimino)-1,3,5-triazinane-2,4-dione
;
_cell_volume    669.322
_exptl_crystal_colour 'pale yellow'
_exptl_crystal_density_diffrn 1.445
_exptl_special_details
;
polymorph A

;
_exptl_crystal_description 'Plate'
_exptl_crystal_preparation 'methanol'
_diffrn_ambient_temperature ?
_diffrn_special_details
;
The study was carried out at room temperature,in the range 283-303K

;
#These two values have been output from a single CSD field.
_refine_ls_R_factor_gt 0.0484
_refine_ls_wR_factor_gt 0.0484
_symmetry_cell_setting triclinic
_symmetry_space_group_name_H-M 'P -1'
_symmetry_Int_Tables_number 2
loop_
_symmetry_equiv_pos_site_id
_symmetry_equiv_pos_as_xyz
1 x,y,z
2 -x,-y,-z
_cell_length_a 8.253(6)
_cell_length_b 8.493(3)
_cell_length_c 10.084(2)
_cell_angle_alpha 78.79
_cell_angle_beta 88.52
_cell_angle_gamma 74.95
_cell_formula_units_Z 2
loop_
_atom_type_symbol
_atom_type_radius_bond
C 0.68
H 0.23
N 0.68
O 0.68
loop_
_atom_site_label
_atom_site_type_symbol
_atom_site_fract_x
_atom_site_fract_y
_atom_site_fract_z
O1 O 0.2041(2) 0.03085(18) 0.10070(18)
O2 O 0.28833(19) 0.54925(18) 0.04935(16)
O3 O -0.6043(3) 0.0763(3) 0.6994(2)
O4 O -0.7843(2) 0.1975(3) 0.5373(2)
N1 N 0.2571(2) 0.2852(2) 0.08282(17)
N2 N 0.0088(2) 0.23124(19) 0.18234(17)
N3 N 0.0641(2) 0.49373(19) 0.16930(16)
N4 N -0.1612(2) 0.4446(2) 0.29049(18)
N5 N -0.6431(3) 0.1652(3) 0.5889(2)
C1 C 0.1604(3) 0.1725(2) 0.1215(2)
C2 C -0.0375(2) 0.3867(2) 0.22033(19)
C3 C 0.2081(2) 0.4500(2) 0.09606(19)
C4 C -0.2752(3) 0.3656(3) 0.3637(2)
C5 C -0.2292(3) 0.2499(3) 0.4837(2)
C6 C -0.3488(3) 0.1846(3) 0.5591(2)
C7 C -0.5143(3) 0.2354(3) 0.5129(2)
C8 C -0.5634(3) 0.3523(3) 0.3965(2)
C9 C -0.4453(3) 0.4195(3) 0.3222(2)
C10 C -0.1086(4) 0.1228(3) 0.1970(3)
C11 C 0.0211(4) 0.6619(3) 0.2030(3)
C12 C 0.4186(3) 0.2265(3) 0.0171(3)
H1 H -0.116(3) 0.216(3) 0.512(2)
H2 H -0.322(3) 0.109(3) 0.635(3)
H3 H -0.678(3) 0.385(3) 0.368(3)
H4 H -0.478(3) 0.505(4) 0.242(3)
H5 H -0.088(4) 0.063(4) 0.123(3)
H6 H -0.223(4) 0.194(4) 0.184(3)
H7 H -0.093(3) 0.053(4) 0.282(3)
H8 H -0.095(4) 0.723(4) 0.172(3)
H9 H 0.094(4) 0.721(4) 0.163(3)
H10 H 0.026(4) 0.641(4) 0.303(4)
H11 H 0.487(4) 0.122(5) 0.071(4)
H12 H 0.481(4) 0.308(4) 0.003(3)
H13 H 0.401(4) 0.209(4) -0.069(4)
#END
