
#######################################################################
#
#                 Cambridge Crystallographic Data Centre
#                                CCDC
#
#######################################################################
#
# If this CIF has been generated from an entry in the Cambridge
# Structural Database, then it will include bibliographic, chemical,
# crystal, experimental, refinement or atomic coordinate data resulting
# from the CCDC's data processing and validation procedures.
#
#######################################################################

data_CSD_CIF_MAVHAT01
_audit_creation_date 2007-02-13
_audit_creation_method CSD-ConQuest-V1
_database_code_CSD MAVHAT01
_database_code_depnum_ccdc_archive 'CCDC 289302'
_chemical_formula_sum 'C20 H19 N3 O3'
_chemical_formula_moiety
;
C20 H19 N3 O3
;
_journal_coden_Cambridge 119
_journal_volume 800
_journal_year 2006
_journal_page_first 100
_journal_name_full 'J.Mol.Struct. '
loop_
_publ_author_name
"K.Laihia"
"A.Valkonen"
"E.Kolehmainen"
"A.Antonov"
"D.Zhukov"
"I.Fedosov"
"V.Nikiforov"
_chemical_name_systematic
;
1,1',2,2',5',6',7',7a'-octahydro-2-oxo-1'-nitro-2'-phenylspiro(3H-indole-3,3'-
(3H)-pyrrolizine)
;
_chemical_melting_point 495.15
_cell_volume   3333.371
_exptl_crystal_colour 'colorless'
_exptl_crystal_density_diffrn 1.392
_exptl_special_details
;
Melts with decomposition.

;
_exptl_crystal_description 'block'
_diffrn_ambient_temperature 173
#These two values have been output from a single CSD field.
_refine_ls_R_factor_gt 0.0519
_refine_ls_wR_factor_gt 0.0519
_symmetry_cell_setting monoclinic
_symmetry_space_group_name_H-M 'C 2/c'
_symmetry_Int_Tables_number 15
loop_
_symmetry_equiv_pos_site_id
_symmetry_equiv_pos_as_xyz
1 x,y,z
2 1/2+x,1/2+y,z
3 -x,y,1/2-z
4 1/2-x,1/2+y,1/2-z
5 -x,-y,-z
6 -1/2-x,-1/2-y,-z
7 x,-y,-1/2+z
8 -1/2+x,-1/2-y,-1/2+z
_cell_length_a 23.7629(9)
_cell_length_b 7.5320(3)
_cell_length_c 19.1181(8)
_cell_angle_alpha 90
_cell_angle_beta 103.054(2)
_cell_angle_gamma 90
_cell_formula_units_Z 8
loop_
_atom_type_symbol
_atom_type_radius_bond
C 0.68
H 0.23
N 0.68
O 0.68
loop_
_atom_site_label
_atom_site_type_symbol
_atom_site_fract_x
_atom_site_fract_y
_atom_site_fract_z
O1 O 0.57227(5) 1.02272(15) 0.56453(7)
N1 N 0.58808(6) 0.88978(19) 0.71452(7)
C1 C 0.55534(7) 0.8823(2) 0.58507(9)
C2 C 0.50151(7) 0.6325(2) 0.58800(9)
N2 N 0.50556(6) 0.79824(19) 0.55499(8)
H1 H 0.4807(7) 0.840(2) 0.5154(9)
C3 C 0.65060(7) 0.7341(2) 0.65365(9)
H2 H 0.66460 0.65370 0.69560
C4 C 0.55502(7) 0.4527(2) 0.68347(10)
H3 H 0.58690 0.43550 0.72290
C5 C 0.58616(7) 0.7735(2) 0.65176(8)
C6 C 0.66462(7) 0.6429(2) 0.58925(9)
C7 C 0.46076(8) 0.5027(3) 0.56678(10)
H4 H 0.42890 0.52000 0.52720
N3 N 0.74122(7) 0.8941(3) 0.70666(10)
C8 C 0.67038(7) 0.7337(2) 0.52775(9)
H5 H 0.66460 0.85850 0.52470
C9 C 0.51451(8) 0.3189(2) 0.66254(10)
H6 H 0.51890 0.20900 0.68760
C10 C 0.67795(7) 0.9151(2) 0.67491(10)
H7 H 0.67290 0.99020 0.63080
C11 C 0.68449(8) 0.6431(3) 0.47088(10)
H8 H 0.68870 0.70670 0.42940
C12 C 0.67275(8) 0.4597(2) 0.59135(11)
H9 H 0.66890 0.39510 0.63270
C13 C 0.64186(8) 0.9976(2) 0.72531(10)
H10 H 0.63110 1.12170 0.70900
C14 C 0.69249(8) 0.4620(3) 0.47390(12)
H11 H 0.70220 0.40070 0.43480
C15 C 0.54827(7) 0.6112(2) 0.64616(9)
O2 O 0.75654(7) 0.7900(2) 0.75597(10)
O3 O 0.77471(8) 0.9786(3) 0.68113(11)
C16 C 0.46791(8) 0.3448(3) 0.60544(10)
H12 H 0.44020 0.25280 0.59230
C17 C 0.68635(9) 0.3703(3) 0.53412(11)
H13 H 0.69150 0.24520 0.53640
C18 C 0.61644(9) 0.9374(3) 0.83769(11)
H14 H 0.63070 0.88350 0.88570
H15 H 0.58970 1.03580 0.84150
C19 C 0.58819(10) 0.8018(3) 0.7836(1)
H16 H 0.61070 0.69020 0.78880
H17 H 0.54840 0.77560 0.78830
C20 C 0.66580(11) 1.0001(4) 0.80605(12)
H18 H 0.69940 0.91940 0.81970
H19 H 0.67790 1.12150 0.82280
#END
