
#######################################################################
#
#                 Cambridge Crystallographic Data Centre
#                                CCDC
#
#######################################################################
#
# If this CIF has been generated from an entry in the Cambridge
# Structural Database, then it will include bibliographic, chemical,
# crystal, experimental, refinement or atomic coordinate data resulting
# from the CCDC's data processing and validation procedures.
#
#######################################################################

data_CSD_CIF_MAXCIN
_audit_creation_date 1978-11-29
_audit_creation_method CSD-ConQuest-V1
_database_code_CSD MAXCIN
_database_code_depnum_ccdc_archive 'CCDC 1209751'
_chemical_formula_sum 'C20 H18 N2 O5'
_chemical_formula_moiety
;
C20 H18 N2 O5
;
_journal_coden_Cambridge 3
_journal_volume 32
_journal_year 1978
_journal_page_first 375
_journal_name_full 'Acta Chem.Scand. '
loop_
_publ_author_name
"H.J.Talberg"
_chemical_name_systematic
;
Methyl m-azoxy-trans-cinnamate
;
_cell_volume    854.727
_exptl_crystal_density_diffrn 1.424
_diffrn_ambient_temperature 108.15
_refine_special_details
;
The molecule has an imposed centre of symmetry resulting in the azoxy O-atom 
having an occupancy factor of 0.5.
;
#These two values have been output from a single CSD field.
_refine_ls_R_factor_gt 0.047
_refine_ls_wR_factor_gt 0.047
_symmetry_cell_setting monoclinic
_symmetry_space_group_name_H-M 'P 21/c'
_symmetry_Int_Tables_number 14
loop_
_symmetry_equiv_pos_site_id
_symmetry_equiv_pos_as_xyz
1 x,y,z
2 -x,1/2+y,1/2-z
3 -x,-y,-z
4 x,-1/2-y,-1/2+z
_cell_length_a 3.8251(8)
_cell_length_b 5.825(1)
_cell_length_c 38.364(7)
_cell_angle_alpha 90
_cell_angle_beta 90.73(2)
_cell_angle_gamma 90
_cell_formula_units_Z 2
loop_
_atom_type_symbol
_atom_type_radius_bond
C 0.68
H 0.23
N 0.68
O 0.68
loop_
_atom_site_label
_atom_site_type_symbol
_atom_site_fract_x
_atom_site_fract_y
_atom_site_fract_z
O1 O 0.64160 0.95290 0.18419
O2 O 0.85130 0.63500 0.21055
O3 O 0.72380 0.71630 0.02021
N1 N 0.94690 0.52900 0.01482
C1 C 0.78440 0.74340 0.18450
C2 C 0.85280 0.66610 0.14850
C3 C 1.00220 0.46650 0.14168
C4 C 1.07820 0.37150 0.10724
C5 C 0.98830 0.48460 0.07647
C6 C 1.06300 0.38990 0.04423
C7 C 1.22130 0.17640 0.04239
C8 C 1.30900 0.06210 0.07284
C9 C 1.24070 0.15900 0.10467
C10 C 0.55500 1.04660 0.21854
H1 H 0.77600 0.75900 0.13020
H2 H 0.87200 0.62300 0.07680
H3 H 1.42900 -0.08200 0.07120
H4 H 0.38200 0.94800 0.22800
H5 H 0.46400 1.20300 0.21250
H6 H 1.06300 0.37900 0.16110
H7 H 1.26700 0.11200 0.02230
H8 H 1.30300 0.08200 0.12550
H9 H 0.76900 1.05200 0.23330
N1B N 1.05310 0.47100 -0.01482
O3B O 1.27620 0.28370 -0.02021
C6B C 0.93700 0.61010 -0.04423
C5B C 1.01170 0.51540 -0.07647
C7B C 0.77870 0.82360 -0.04239
C4B C 0.92180 0.62850 -0.10724
H2B H 1.12800 0.37700 -0.07680
C8B C 0.69100 0.93790 -0.07284
H7B H 0.73300 0.88800 -0.02230
C3B C 0.99780 0.53350 -0.14168
C9B C 0.75930 0.84100 -0.10467
H3B H 0.57100 1.08200 -0.07120
C2B C 1.14720 0.33390 -0.14850
H6B H 0.93700 0.62100 -0.16110
H8B H 0.69700 0.91800 -0.12550
C1B C 1.21560 0.25660 -0.18450
H1B H 1.22400 0.24100 -0.13020
O1B O 1.35840 0.04710 -0.18419
O2B O 1.14870 0.36500 -0.21055
C10B C 1.44500 -0.04660 -0.21854
H4B H 1.61800 0.05200 -0.22800
H5B H 1.53600 -0.20300 -0.21250
H9B H 1.23100 -0.05200 -0.23330
#END
