
#######################################################################
#
#                 Cambridge Crystallographic Data Centre
#                                CCDC
#
#######################################################################
#
# If this CIF has been generated from an entry in the Cambridge
# Structural Database, then it will include bibliographic, chemical,
# crystal, experimental, refinement or atomic coordinate data resulting
# from the CCDC's data processing and validation procedures.
#
#######################################################################

data_CSD_CIF_MAXPEH
_audit_creation_date 2006-03-02
_audit_creation_method CSD-ConQuest-V1
_database_code_CSD MAXPEH
_database_code_depnum_ccdc_archive 'CCDC 291141'
_chemical_formula_sum 'C26 H24 N2 O4'
_chemical_formula_moiety
;
C26 H24 N2 O4
;
_journal_coden_Cambridge 1147
_journal_volume 5
_journal_year 2005
_journal_page_first 2036
_journal_name_full 'Cryst.Growth Des. '
loop_
_publ_author_name
"M.W.Vary"
"J.M.McBride"
_chemical_name_systematic
;
6-ethoxy-3',3'-dimethyl-8-nitro-1'-phenyl-1',3'-dihydrospiro(chromene-2,2'-ind
ole)
;
_chemical_melting_point 426.15
_cell_volume   1143.359
_exptl_crystal_colour 'yellow'
_exptl_crystal_density_diffrn 1.244
_exptl_special_details
;
Melting point range 426.15-429.15K

;
_exptl_crystal_description 'prism'
_exptl_crystal_preparation 'ethanol'
_diffrn_ambient_temperature 296
#These two values have been output from a single CSD field.
_refine_ls_R_factor_gt 0.046
_refine_ls_wR_factor_gt 0.046
_symmetry_cell_setting monoclinic
_symmetry_space_group_name_H-M 'P 21'
_symmetry_Int_Tables_number 4
loop_
_symmetry_equiv_pos_site_id
_symmetry_equiv_pos_as_xyz
1 x,y,z
2 -x,1/2+y,-z
_cell_length_a 8.260(3)
_cell_length_b 17.210(5)
_cell_length_c 8.341(4)
_cell_angle_alpha 90
_cell_angle_beta 105.36(4)
_cell_angle_gamma 90
_cell_formula_units_Z 2
loop_
_atom_type_symbol
_atom_type_radius_bond
C 0.68
H 0.23
N 0.68
O 0.68
loop_
_atom_site_label
_atom_site_type_symbol
_atom_site_fract_x
_atom_site_fract_y
_atom_site_fract_z
O1 O 0.3450(3) -0.0388(2) 0.1493(3)
O2 O 0.6656(4) -0.1865(3) 0.2759(6)
O3 O 0.6698(4) -0.0803(3) 0.3832(7)
O4 O 0.1717(3) -0.2789(2) 0.5139(3)
N1 N 0.2740(4) 0.0757(2) -0.0027(4)
N2 N 0.5969(4) -0.1350(2) 0.3277(4)
C1 C 0.2172(5) -0.0035(2) 0.0098(5)
C2 C 0.2355(6) -0.0412(3) -0.1544(5)
C3 C 0.3776(5) 0.0047(3) -0.1836(4)
C4 C 0.3917(5) 0.0753(3) -0.0977(5)
C5 C 0.5132(6) 0.1315(3) -0.1046(5)
C6 C 0.6239(6) 0.1131(3) -0.2037(6)
C7 C 0.6103(6) 0.0427(4) -0.2878(6)
C8 C 0.4874(7) -0.0117(3) -0.2819(6)
C9 C 0.0791(8) -0.0235(3) -0.2951(6)
C10 C 0.2642(7) -0.1289(3) -0.1414(6)
C11 C 0.2508(5) 0.1371(2) 0.1021(5)
C12 C 0.2202(8) 0.2119(3) 0.0374(6)
C13 C 0.1906(8) 0.2718(3) 0.1405(7)
C14 C 0.1855(7) 0.2597(3) 0.2958(6)
C15 C 0.2148(6) 0.1858(3) 0.3614(5)
C16 C 0.2510(5) 0.1249(3) 0.2683(5)
C17 C 0.0449(5) -0.0077(2) 0.0395(5)
C18 C 0.0051(5) -0.0577(2) 0.1425(5)
C19 C 0.1323(4) -0.1114(2) 0.2407(4)
C20 C 0.2996(4) -0.0981(2) 0.2368(4)
C21 C 0.4222(4) -0.1461(2) 0.3303(4)
C22 C 0.3875(5) -0.2078(2) 0.4241(5)
C23 C 0.2218(5) -0.2201(3) 0.4272(5)
C24 C 0.0962(4) -0.1714(2) 0.3346(5)
C25 C 0.2987(5) -0.3271(3) 0.6209(5)
C26 C 0.2126(6) -0.3876(3) 0.6943(6)
H1 H 0.20600 0.22000 -0.07600
H2 H 0.19000 0.32400 0.09500
H3 H 0.17000 0.30300 0.35900
H4 H 0.21700 0.17700 0.48000
H5 H 0.27500 0.07300 0.32000
H6 H 0.51000 0.18100 -0.04400
H7 H 0.71300 0.14800 -0.21500
H8 H 0.68500 0.02300 -0.35200
H9 H 0.45400 -0.05900 -0.35300
H10 H -0.02900 0.03200 -0.00800
H11 H -0.11600 -0.06200 0.15300
H12 H -0.02000 -0.18100 0.34100
H13 H 0.47400 -0.24300 0.49100
H14 H 0.35600 -0.14300 -0.05200
H15 H 0.16400 -0.15700 -0.11900
H16 H 0.27600 -0.15300 -0.24100
H17 H 0.04800 0.03000 -0.31100
H18 H 0.09000 -0.04500 -0.40300
H19 H -0.02200 -0.04800 -0.28100
H20 H 0.37300 -0.35300 0.56400
H21 H 0.37700 -0.29700 0.71000
H22 H 0.28400 -0.42200 0.77500
H23 H 0.14000 -0.36300 0.76100
H24 H 0.13700 -0.41900 0.61500
#END
