
#######################################################################
#
#                 Cambridge Crystallographic Data Centre
#                                CCDC
#
#######################################################################
#
# If this CIF has been generated from an entry in the Cambridge
# Structural Database, then it will include bibliographic, chemical,
# crystal, experimental, refinement or atomic coordinate data resulting
# from the CCDC's data processing and validation procedures.
#
#######################################################################

data_CSD_CIF_MAYCEW
_audit_creation_date 2012-12-11
_audit_creation_method CSD-ConQuest-V1
_database_code_CSD MAYCEW
_database_code_depnum_ccdc_archive 'CCDC 733853'
_chemical_formula_sum 'C9 H9 N1 O7'
_chemical_formula_moiety
;
C9 H9 N1 O7
;
_journal_coden_Cambridge 392
_journal_volume 78
_journal_year 2009
_journal_page_first 2777
_journal_name_full 'Heterocycles '
loop_
_publ_author_name
"Y.Yoshitake"
"K.Yamaguchi"
"K.Harano"
_chemical_name_systematic
;
Trimethyl 1,2-oxazole-3,4,5-tricarboxylate
;
_cell_volume   1111.024
_exptl_crystal_colour 'colorless'
_exptl_crystal_density_diffrn 1.454
_exptl_crystal_description 'prismatic'
_diffrn_ambient_temperature 293
#These two values have been output from a single CSD field.
_refine_ls_R_factor_gt 0.06
_refine_ls_wR_factor_gt 0.06
_symmetry_cell_setting monoclinic
_symmetry_space_group_name_H-M 'P 21/n'
_symmetry_Int_Tables_number 14
loop_
_symmetry_equiv_pos_site_id
_symmetry_equiv_pos_as_xyz
1 x,y,z
2 1/2-x,1/2+y,1/2-z
3 -x,-y,-z
4 -1/2+x,-1/2-y,-1/2+z
_cell_length_a 8.132(4)
_cell_length_b 10.782(2)
_cell_length_c 12.828(3)
_cell_angle_alpha 90
_cell_angle_beta 98.96(3)
_cell_angle_gamma 90
_cell_formula_units_Z 4
loop_
_atom_type_symbol
_atom_type_radius_bond
C 0.68
H 0.23
N 0.68
O 0.68
loop_
_atom_site_label
_atom_site_type_symbol
_atom_site_fract_x
_atom_site_fract_y
_atom_site_fract_z
O1 O 0.4358(2) 0.7017(1) 0.1598(1)
O2 O 0.6760(2) 0.6683(2) -0.0442(1)
O3 O 0.5127(2) 0.8246(1) -0.0067(1)
O4 O 0.7357(2) 0.3800(2) 0.0776(2)
O5 O 0.9073(2) 0.5188(1) 0.1642(1)
O6 O 0.6712(3) 0.3635(2) 0.3283(2)
O7 O 0.4289(2) 0.4257(2) 0.3730(1)
N1 N 0.4229(2) 0.6224(2) 0.2439(1)
C1 C 0.5556(2) 0.6575(2) 0.1094(1)
C2 C 0.6242(2) 0.5520(2) 0.1577(1)
C3 C 0.5341(2) 0.5351(2) 0.2412(1)
C4 C 0.5895(2) 0.7178(2) 0.0110(1)
C5 C 0.5266(5) 0.8829(3) -0.1066(2)
C6 C 0.7605(2) 0.4723(2) 0.1280(1)
C7 C 1.0498(3) 0.4464(2) 0.1445(2)
C8 C 0.5536(2) 0.4321(2) 0.3188(1)
C9 C 0.4350(4) 0.3268(2) 0.4497(2)
H1 H 0.62200 0.93490 -0.09910
H2 H 0.42990 0.93100 -0.12960
H3 H 0.53670 0.82010 -0.15710
H4 H 1.08050 0.39090 0.20170
H5 H 1.14020 0.50050 0.13880
H6 H 1.02250 0.40050 0.08090
H7 H 0.38200 0.25510 0.41710
H8 H 0.38050 0.35160 0.50670
H9 H 0.54830 0.30850 0.47550
#END
