
#######################################################################
#
#                 Cambridge Crystallographic Data Centre
#                                CCDC
#
#######################################################################
#
# If this CIF has been generated from an entry in the Cambridge
# Structural Database, then it will include bibliographic, chemical,
# crystal, experimental, refinement or atomic coordinate data resulting
# from the CCDC's data processing and validation procedures.
#
#######################################################################

data_CSD_CIF_MAYCEX
_audit_creation_date 2017-08-25
_audit_creation_method CSD-ConQuest-V1
_database_code_CSD MAYCEX
_database_code_depnum_ccdc_archive 'CCDC 1537812'
_chemical_formula_sum 'C32 H25 N3 O4'
_chemical_formula_moiety
;
C32 H25 N3 O4
;
_journal_coden_Cambridge 1336
_journal_volume 19
_journal_year 2017
_journal_page_first 4367
_journal_name_full 'Org.Lett. '
loop_
_publ_author_name
"S.Mondal"
"S.Mukherjee"
"S.R.Yetra"
"R.G.Gonnade"
"A.T.Biju"
_chemical_name_systematic
;
10-hydroxy-8-(4-nitrophenyl)-2,4,6-triphenyl-2,3-diazaspiro[4.5]deca-3,6-dien-
1-one
;
_cell_volume   2613.303
_exptl_crystal_colour 'colorless'
_exptl_crystal_density_diffrn 1.31
_exptl_special_details
;
Absolute configuration

;
_exptl_crystal_description 'PLATE'
_exptl_crystal_preparation 'Ethanol/Petroleum ether'
_diffrn_ambient_temperature 296
#These two values have been output from a single CSD field.
_refine_ls_R_factor_gt 0.0327
_refine_ls_wR_factor_gt 0.0327
_symmetry_cell_setting orthorhombic
_symmetry_space_group_name_H-M 'P 21 21 21'
_symmetry_Int_Tables_number 19
loop_
_symmetry_equiv_pos_site_id
_symmetry_equiv_pos_as_xyz
1 x,y,z
2 1/2+x,1/2-y,-z
3 -x,1/2+y,1/2-z
4 1/2-x,-y,1/2+z
_cell_length_a 9.9278(8)
_cell_length_b 13.8213(12)
_cell_length_c 19.0453(15)
_cell_angle_alpha 90
_cell_angle_beta 90
_cell_angle_gamma 90
_cell_formula_units_Z 4
loop_
_atom_type_symbol
_atom_type_radius_bond
C 0.68
H 0.23
N 0.68
O 0.68
loop_
_atom_site_label
_atom_site_type_symbol
_atom_site_fract_x
_atom_site_fract_y
_atom_site_fract_z
O1 O 0.10320(16) 0.73883(10) 0.48274(8)
H1 H 0.033(3) 0.754(2) 0.4603(16)
O2 O 0.37234(12) 0.67836(10) 0.57400(7)
O3 O 0.8712(2) 0.4643(2) 0.24203(12)
O4 O 0.9398(2) 0.5565(2) 0.32533(12)
N1 N 0.18210(14) 0.66553(11) 0.64185(8)
N2 N 0.05203(14) 0.62597(11) 0.63634(8)
N3 N 0.8506(2) 0.51541(19) 0.29323(11)
C1 C 0.17128(16) 0.58911(12) 0.53391(9)
C2 C 0.24180(16) 0.49219(12) 0.52061(9)
C3 C 0.30127(18) 0.47409(13) 0.45942(9)
H2 H 0.34210 0.41390 0.45450
C4 C 0.3090(2) 0.54145(13) 0.39723(9)
H3 H 0.24780 0.51680 0.36110
C5 C 0.2630(2) 0.64426(13) 0.41665(10)
H4 H 0.33630 0.67790 0.43990
H5 H 0.24120 0.67950 0.37410
C6 C 0.14153(18) 0.64320(13) 0.46431(10)
H6 H 0.06650 0.61140 0.44020
C7 C 0.24281(17) 0.42056(12) 0.57956(9)
C8 C 0.3095(2) 0.44109(15) 0.64220(11)
H7 H 0.35570 0.49930 0.64690
C9 C 0.3080(3) 0.37630(19) 0.69746(12)
H8 H 0.35310 0.39120 0.73890
C10 C 0.2400(3) 0.28960(18) 0.69155(13)
H9 H 0.23790 0.24660 0.72910
C11 C 0.1754(3) 0.26728(16) 0.62988(14)
H10 H 0.13020 0.20860 0.62550
C12 C 0.1772(2) 0.33196(14) 0.57413(12)
H11 H 0.13390 0.31580 0.53250
C13 C 0.45098(19) 0.53954(12) 0.36730(9)
C14 C 0.4789(2) 0.48940(15) 0.3059(1)
H12 H 0.40880 0.46080 0.28100
C15 C 0.6093(2) 0.48131(17) 0.28110(11)
H13 H 0.62770 0.44680 0.24030
C16 C 0.7114(2) 0.52531(15) 0.31795(10)
C17 C 0.6876(2) 0.57778(15) 0.37802(10)
H14 H 0.75780 0.60820 0.40170
C18 C 0.5572(2) 0.58407(15) 0.40224(10)
H15 H 0.53980 0.61900 0.44300
C19 C 0.25755(16) 0.65047(11) 0.58323(9)
C20 C 0.2241(2) 0.70248(13) 0.70815(10)
C21 C 0.3531(2) 0.6849(2) 0.73161(13)
H16 H 0.41440 0.65310 0.70280
C22 C 0.3914(3) 0.7147(3) 0.79802(15)
H17 H 0.47770 0.70120 0.81440
C23 C 0.3025(4) 0.7637(3) 0.83944(15)
H18 H 0.32840 0.78380 0.88410
C24 C 0.1748(4) 0.7836(2) 0.81549(14)
H19 H 0.11560 0.81840 0.84360
C25 C 0.1332(3) 0.75207(15) 0.74948(12)
H20 H 0.04620 0.76420 0.73360
C26 C 0.04363(16) 0.58207(12) 0.57718(10)
C27 C -0.08236(18) 0.53422(14) 0.55608(11)
C28 C -0.2037(2) 0.56027(19) 0.58720(13)
H21 H -0.20660 0.61050 0.61970
C29 C -0.3203(2) 0.5109(3) 0.56950(16)
H22 H -0.40160 0.52860 0.59000
C30 C -0.3174(3) 0.4358(3) 0.52195(19)
H23 H -0.39580 0.40190 0.51160
C31 C -0.1994(3) 0.41151(19) 0.49018(18)
H24 H -0.19760 0.36160 0.45750
C32 C -0.0823(2) 0.46059(16) 0.50624(14)
H25 H -0.00260 0.44430 0.48350
#END
