
#######################################################################
#
#                 Cambridge Crystallographic Data Centre
#                                CCDC
#
#######################################################################
#
# If this CIF has been generated from an entry in the Cambridge
# Structural Database, then it will include bibliographic, chemical,
# crystal, experimental, refinement or atomic coordinate data resulting
# from the CCDC's data processing and validation procedures.
#
#######################################################################

data_CSD_CIF_MAYDUN
_audit_creation_date 2012-12-11
_audit_creation_method CSD-ConQuest-V1
_database_code_CSD MAYDUN
_database_code_depnum_ccdc_archive 'CCDC 742912'
_chemical_formula_sum 'C26 H32 N2 O4'
_chemical_formula_moiety
;
C26 H32 N2 O4
;
_journal_coden_Cambridge 392
_journal_volume 78
_journal_year 2009
_journal_page_first 3091
_journal_name_full 'Heterocycles '
loop_
_publ_author_name
"K.Suzuki"
"D.G.Mazhukin"
"H.Takahashi"
"Y.Uchida"
"R.Tamura"
"I.A.Grigor'ev"
_chemical_name_systematic
;
cis-(R*,R*)-2,10-bis(4-Hydroxyphenyl)-2,10-dimethyl-1,9-diazadispiro[4.2.4.2]t
etradecane-1,9-dioxidanyl biradical
;
_chemical_melting_point 468.25
_cell_volume   2328.298
_exptl_crystal_colour 'yellow'
_exptl_crystal_density_diffrn 1.245
_exptl_special_details
;
Melts with decomposition.

;
_exptl_crystal_description 'block'
_diffrn_ambient_temperature 173
#These two values have been output from a single CSD field.
_refine_ls_R_factor_gt 0.0687
_refine_ls_wR_factor_gt 0.0687
_symmetry_cell_setting orthorhombic
_symmetry_space_group_name_H-M 'P n a 21'
_symmetry_Int_Tables_number 33
loop_
_symmetry_equiv_pos_site_id
_symmetry_equiv_pos_as_xyz
1 x,y,z
2 1/2-x,1/2+y,1/2+z
3 1/2+x,1/2-y,z
4 -x,-y,1/2+z
_cell_length_a 18.1861(8)
_cell_length_b 8.5527(3)
_cell_length_c 14.9691(9)
_cell_angle_alpha 90
_cell_angle_beta 90
_cell_angle_gamma 90
_cell_formula_units_Z 4
loop_
_atom_type_symbol
_atom_type_radius_bond
C 0.68
H 0.23
N 0.68
O 0.68
loop_
_atom_site_label
_atom_site_type_symbol
_atom_site_fract_x
_atom_site_fract_y
_atom_site_fract_z
O1 O 0.54516(14) 0.8283(2) 0.36240(19)
O2 O 0.71313(13) 0.8902(2) 0.54703(17)
O3 O 0.53567(16) 0.9390(3) -0.0571(2)
O4 O 0.71550(15) 0.6416(3) 0.97621(18)
N1 N 0.52176(15) 0.6897(3) 0.3440(2)
N2 N 0.72468(15) 0.7425(3) 0.5544(2)
C1 C 0.5483(2) 0.5473(4) 0.3922(2)
C2 C 0.6286(2) 0.5158(4) 0.3671(2)
C3 C 0.68275(19) 0.6258(4) 0.4109(2)
C4 C 0.67374(19) 0.6263(3) 0.5129(2)
C5 C 0.59514(17) 0.6687(4) 0.5369(2)
C6 C 0.5406(2) 0.5595(4) 0.4923(2)
C7 C 0.4946(2) 0.4213(4) 0.3562(3)
C8 C 0.4676(2) 0.4825(5) 0.2683(2)
C9 C 0.4619(2) 0.6622(4) 0.2767(2)
C10 C 0.47917(19) 0.7464(4) 0.1896(2)
C11 C 0.54696(19) 0.7208(3) 0.1485(2)
C12 C 0.56442(19) 0.7835(3) 0.0667(2)
C13 C 0.5140(2) 0.8791(4) 0.0233(2)
C14 C 0.4460(2) 0.9040(4) 0.0620(2)
C15 C 0.42923(19) 0.8394(4) 0.1436(2)
C16 C 0.3889(2) 0.7074(6) 0.3192(3)
C17 C 0.7022(2) 0.4761(3) 0.5571(2)
C18 C 0.7829(2) 0.5053(4) 0.5717(2)
C19 C 0.78596(18) 0.6742(4) 0.6073(2)
C20 C 0.76875(18) 0.6786(4) 0.7065(2)
C21 C 0.71138(18) 0.7641(4) 0.7435(2)
C22 C 0.69483(19) 0.7528(4) 0.8338(2)
C23 C 0.73607(19) 0.6554(3) 0.8883(2)
C24 C 0.79629(18) 0.5763(3) 0.8531(2)
C25 C 0.81226(19) 0.5883(4) 0.7635(2)
C26 C 0.8575(2) 0.7619(5) 0.5860(2)
H1 H 0.64120 0.40720 0.38420
H2 H 0.63390 0.52440 0.30150
H3 H 0.67510 0.73290 0.38770
H4 H 0.73350 0.59330 0.39560
H5 H 0.58890 0.66310 0.60250
H6 H 0.58510 0.77750 0.51790
H7 H 0.54640 0.45380 0.51840
H8 H 0.49020 0.59590 0.50630
H9 H 0.52030 0.32020 0.34810
H10 H 0.45310 0.40590 0.39800
H11 H 0.41890 0.43720 0.25400
H12 H 0.50240 0.45410 0.22000
H13 H 0.58230 0.65770 0.17810
H14 H 0.61070 0.76170 0.04000
H15 H 0.41050 0.96620 0.03190
H16 H 0.38230 0.85890 0.16920
H17 H 0.36770 0.61610 0.34920
H18 H 0.35510 0.74420 0.27280
H19 H 0.39700 0.79090 0.36290
H20 H 0.67680 0.45710 0.61470
H21 H 0.69450 0.38470 0.51770
H22 H 0.81050 0.49540 0.51510
H23 H 0.80340 0.43090 0.61590
H24 H 0.68310 0.83130 0.70650
H25 H 0.65530 0.81170 0.85820
H26 H 0.82640 0.51400 0.89090
H27 H 0.85360 0.53420 0.74000
H28 H 0.88240 0.71080 0.53580
H29 H 0.88960 0.76050 0.63850
H30 H 0.84600 0.87030 0.57000
H31 H 0.506(2) 1.008(6) -0.083(3)
H32 H 0.739(2) 0.581(5) 1.005(3)
#END
