
#######################################################################
#
#                 Cambridge Crystallographic Data Centre
#                                CCDC
#
#######################################################################
#
# If this CIF has been generated from an entry in the Cambridge
# Structural Database, then it will include bibliographic, chemical,
# crystal, experimental, refinement or atomic coordinate data resulting
# from the CCDC's data processing and validation procedures.
#
#######################################################################

data_CSD_CIF_MAYKIJ
_audit_creation_date 2017-08-25
_audit_creation_method CSD-ConQuest-V1
_database_code_CSD MAYKIJ
_database_code_depnum_ccdc_archive 'CCDC 1553873'
_chemical_formula_sum 'C12 H18 N2 O5'
_chemical_formula_moiety
;
C12 H18 N2 O5
;
_journal_coden_Cambridge 1336
_journal_volume 19
_journal_year 2017
_journal_page_first 4403
_journal_name_full 'Org.Lett. '
loop_
_publ_author_name
"S.S.Prasad"
"S.Senthilkumar"
"A.Srivastava"
"S.Baskaran"
_chemical_name_systematic
;
2,2-dimethyl-8a-nitrooctahydro-2H,3aH-cyclopropa[a][1,3]dioxolo[4,5-g]indolizi
n-4-ol
;
_cell_volume   1269.059
_exptl_crystal_colour 'brown'
_exptl_crystal_density_diffrn 1.415
_exptl_crystal_description 'Rectangular'
_diffrn_ambient_temperature 296
#These two values have been output from a single CSD field.
_refine_ls_R_factor_gt 0.0291
_refine_ls_wR_factor_gt 0.0291
_symmetry_cell_setting orthorhombic
_symmetry_space_group_name_H-M 'P 21 21 21'
_symmetry_Int_Tables_number 19
loop_
_symmetry_equiv_pos_site_id
_symmetry_equiv_pos_as_xyz
1 x,y,z
2 1/2-x,-y,1/2+z
3 -x,1/2+y,1/2-z
4 1/2+x,1/2-y,-z
_cell_length_a 8.2093(2)
_cell_length_b 10.3630(2)
_cell_length_c 14.9173(4)
_cell_angle_alpha 90
_cell_angle_beta 90
_cell_angle_gamma 90
_cell_formula_units_Z 4
loop_
_atom_type_symbol
_atom_type_radius_bond
C 0.68
H 0.23
N 0.68
O 0.68
loop_
_atom_site_label
_atom_site_type_symbol
_atom_site_fract_x
_atom_site_fract_y
_atom_site_fract_z
C1 C -0.0425(3) 0.5930(2) 0.20508(15)
H1 H 0.01360 0.61500 0.26020
H2 H -0.15060 0.56260 0.22080
C2 C -0.0582(3) 0.7135(2) 0.14758(15)
H3 H -0.11600 0.68900 0.09270
C3 C 0.1075(3) 0.7620(2) 0.12057(14)
H4 H 0.09640 0.83200 0.07680
C4 C 0.2271(3) 0.6608(2) 0.08568(15)
H5 H 0.21590 0.65310 0.02050
C5 C 0.2110(3) 0.5253(2) 0.12931(15)
H6 H 0.28760 0.51830 0.17950
C6 C 0.2447(3) 0.4184(2) 0.06239(16)
C7 C 0.2042(3) 0.2802(2) 0.08340(18)
H7 H 0.26250 0.21350 0.05100
H8 H 0.17750 0.25880 0.14500
C8 C 0.0859(3) 0.3608(2) 0.03228(17)
H9 H 0.06770 0.34360 -0.03150
C9 C -0.0439(3) 0.4270(2) 0.08604(16)
H10 H -0.10060 0.49080 0.05010
H11 H -0.12230 0.36520 0.10890
C10 C 0.3599(3) 0.8065(2) 0.18002(16)
C11 C 0.4461(3) 0.7611(3) 0.2626(2)
H12 H 0.43460 0.82450 0.30910
H13 H 0.55950 0.74880 0.24950
H14 H 0.39940 0.68100 0.28220
C12 C 0.4170(4) 0.9373(2) 0.1495(2)
H15 H 0.35010 0.96630 0.10070
H16 H 0.52820 0.93160 0.12990
H17 H 0.40930 0.99730 0.19830
N1 N 0.0461(2) 0.48902(16) 0.16008(12)
N2 N 0.3800(3) 0.43478(19) -0.00069(15)
O1 O -0.1512(2) 0.81129(17) 0.19038(13)
O2 O 0.18915(17) 0.80792(15) 0.19879(11)
O3 O 0.3802(2) 0.71782(15) 0.10658(11)
O4 O 0.5070(3) 0.47767(19) 0.02950(16)
O5 O 0.3628(3) 0.3990(2) -0.07795(14)
H18 H -0.095(4) 0.850(3) 0.227(2)
#END
