
#######################################################################
#
#                 Cambridge Crystallographic Data Centre
#                                CCDC
#
#######################################################################
#
# If this CIF has been generated from an entry in the Cambridge
# Structural Database, then it will include bibliographic, chemical,
# crystal, experimental, refinement or atomic coordinate data resulting
# from the CCDC's data processing and validation procedures.
#
#######################################################################

data_CSD_CIF_MAYSEL
_audit_creation_date 2006-03-02
_audit_creation_method CSD-ConQuest-V1
_database_code_CSD MAYSEL
_database_code_depnum_ccdc_archive 'CCDC 238315'
_chemical_formula_sum 'C16 H16 N2 O2'
_chemical_formula_moiety
;
C16 H16 N2 O2
;
_journal_coden_Cambridge 35
_journal_volume 70
_journal_year 2005
_journal_page_first 9115
_journal_name_full 'J.Org.Chem. '
loop_
_publ_author_name
"M.Mazik"
"D.Blaser"
"R.Boese"
_chemical_name_systematic
;
3-(3-Methoxyphenyl)-4-(4-pyridyl)-3-buten-2-one oxime
;
_chemical_melting_point 441.15
_cell_volume    709.774
_exptl_crystal_colour 'colorless'
_exptl_crystal_density_diffrn 1.255
_exptl_special_details
;
Melting point range 441.15-442.15K

;
_exptl_crystal_description 'block'
_exptl_crystal_preparation 'ethanol'
_diffrn_ambient_temperature 193
#These two values have been output from a single CSD field.
_refine_ls_R_factor_gt 0.0621
_refine_ls_wR_factor_gt 0.0621
_symmetry_cell_setting triclinic
_symmetry_space_group_name_H-M 'P -1'
_symmetry_Int_Tables_number 2
loop_
_symmetry_equiv_pos_site_id
_symmetry_equiv_pos_as_xyz
1 x,y,z
2 -x,-y,-z
_cell_length_a 5.6345(4)
_cell_length_b 8.6257(6)
_cell_length_c 14.7361(9)
_cell_angle_alpha 96.644(2)
_cell_angle_beta 91.487(2)
_cell_angle_gamma 93.364(1)
_cell_formula_units_Z 2
loop_
_atom_type_symbol
_atom_type_radius_bond
C 0.68
H 0.23
N 0.68
O 0.68
loop_
_atom_site_label
_atom_site_type_symbol
_atom_site_fract_x
_atom_site_fract_y
_atom_site_fract_z
C1 C 0.9189(3) 0.2928(2) 0.62748(10)
C2 C 0.7625(3) 0.35304(19) 0.70088(10)
C3 C 0.7060(3) 0.26645(19) 0.76816(10)
H1 H 0.77750 0.16780 0.76560
C4 C 0.5479(3) 0.30031(19) 0.84499(10)
C5 C 0.3569(3) 0.3950(2) 0.84506(12)
H2 H 0.32440 0.44920 0.79320
C6 C 0.2145(3) 0.4116(2) 0.92045(12)
H3 H 0.08360 0.47770 0.91840
N1 N 0.2468(3) 0.34203(19) 0.99522(9)
C7 C 0.4307(3) 0.2512(2) 0.99480(11)
H4 H 0.46040 0.20000 1.04810
C8 C 0.5817(3) 0.2259(2) 0.92267(11)
H5 H 0.70900 0.15730 0.92610
N2 N 0.9529(3) 0.38338(18) 0.56500(9)
O1 O 1.0970(2) 0.32109(16) 0.49544(8)
H6 H 1.12220 0.40350 0.45560
C9 C 0.6868(3) 0.51638(19) 0.69838(10)
C10 C 0.5062(3) 0.5500(2) 0.63980(11)
H7 H 0.42820 0.46800 0.59800
C11 C 0.4400(3) 0.7025(2) 0.64142(12)
H8 H 0.31110 0.72520 0.60210
C12 C 0.5556(3) 0.8212(2) 0.69956(12)
H9 H 0.50850 0.92650 0.70030
C13 C 0.7405(3) 0.78837(19) 0.75675(11)
C14 C 0.8059(3) 0.63623(19) 0.75708(10)
H10 H 0.93200 0.61290 0.79740
O2 O 0.8483(3) 0.91372(14) 0.81170(9)
C15 C 1.0581(4) 0.8889(2) 0.86250(13)
H11 H 1.01890 0.81900 0.90860
H12 H 1.12690 0.98920 0.89280
H13 H 1.17320 0.84120 0.82080
C16 C 1.0252(4) 0.1374(2) 0.62669(14)
H14 H 0.89880 0.05380 0.61500
H15 H 1.10520 0.13020 0.68580
H16 H 1.14080 0.12620 0.57820
#END
