
#######################################################################
#
#                 Cambridge Crystallographic Data Centre
#                                CCDC
#
#######################################################################
#
# If this CIF has been generated from an entry in the Cambridge
# Structural Database, then it will include bibliographic, chemical,
# crystal, experimental, refinement or atomic coordinate data resulting
# from the CCDC's data processing and validation procedures.
#
#######################################################################

data_CSD_CIF_MAYTAI
_audit_creation_date 2006-03-02
_audit_creation_method CSD-ConQuest-V1
_database_code_CSD MAYTAI
_database_code_depnum_ccdc_archive 'CCDC 269102'
_chemical_formula_sum 'C11 H13 N1 O3'
_chemical_formula_moiety
;
C11 H13 N1 O3
;
_journal_coden_Cambridge 35
_journal_volume 70
_journal_year 2005
_journal_page_first 9211
_journal_name_full 'J.Org.Chem. '
loop_
_publ_author_name
"A.R.Katrizky"
"A.A.A.Abdel-Fattah"
"A.V.Gromova"
"R.Witek"
"P.J.Steel"
_chemical_name_systematic
;
2-(((Cyclohexylideneamino)oxy)carbonyl)furan
;
_chemical_melting_point 343.15
_cell_volume   1056.883
_exptl_crystal_colour 'colorless'
_exptl_crystal_density_diffrn 1.302
_exptl_special_details
;
Melting point range 343.15-344.15K

;
_exptl_crystal_description 'block'
_diffrn_ambient_temperature 93
#These two values have been output from a single CSD field.
_refine_ls_R_factor_gt 0.0234
_refine_ls_wR_factor_gt 0.0234
_symmetry_cell_setting orthorhombic
_symmetry_space_group_name_H-M 'P n a 21'
_symmetry_Int_Tables_number 33
loop_
_symmetry_equiv_pos_site_id
_symmetry_equiv_pos_as_xyz
1 x,y,z
2 -x,-y,1/2+z
3 1/2+x,1/2-y,z
4 1/2-x,1/2+y,1/2+z
_cell_length_a 18.052(3)
_cell_length_b 5.7905(9)
_cell_length_c 10.1108(17)
_cell_angle_alpha 90
_cell_angle_beta 90
_cell_angle_gamma 90
_cell_formula_units_Z 4
loop_
_atom_type_symbol
_atom_type_radius_bond
C 0.68
H 0.23
N 0.68
O 0.68
loop_
_atom_site_label
_atom_site_type_symbol
_atom_site_fract_x
_atom_site_fract_y
_atom_site_fract_z
O1 O 0.52118(5) 0.11345(13) 0.06810(9)
C1 C 0.47422(6) 0.25789(19) -0.00002(12)
C2 C 0.49470(7) 0.4818(2) 0.01608(12)
H1 H 0.47130 0.61390 -0.02080
C3 C 0.55826(7) 0.4785(2) 0.09951(13)
H2 H 0.58580 0.60830 0.12910
C4 C 0.57176(7) 0.2545(2) 0.12831(13)
H3 H 0.61110 0.20200 0.18300
C5 C 0.41361(6) 0.14382(18) -0.07010(12)
O2 O 0.40549(4) -0.06160(13) -0.08072(9)
O3 O 0.36690(4) 0.30700(13) -0.11905(9)
N1 N 0.30727(5) 0.20511(16) -0.19706(10)
C6 C 0.25949(6) 0.36116(18) -0.22489(12)
C7 C 0.25895(6) 0.61047(19) -0.18367(14)
H4 H 0.26500 0.71000 -0.26250
H5 H 0.30100 0.64050 -0.12310
C8 C 0.18562(6) 0.6698(2) -0.11367(13)
H6 H 0.18310 0.58660 -0.02830
H7 H 0.18400 0.83750 -0.09500
C9 C 0.11893(6) 0.6027(2) -0.19937(13)
H8 H 0.07260 0.63580 -0.15050
H9 H 0.11890 0.69710 -0.28100
C10 C 0.12112(7) 0.3474(2) -0.23622(14)
H10 H 0.07890 0.31170 -0.29530
H11 H 0.11570 0.25300 -0.15510
C11 C 0.19401(6) 0.2825(2) -0.30600(13)
H12 H 0.19630 0.11310 -0.31840
H13 H 0.19580 0.35620 -0.39430
#END
