
#######################################################################
#
#                 Cambridge Crystallographic Data Centre
#                                CCDC
#
#######################################################################
#
# If this CIF has been generated from an entry in the Cambridge
# Structural Database, then it will include bibliographic, chemical,
# crystal, experimental, refinement or atomic coordinate data resulting
# from the CCDC's data processing and validation procedures.
#
#######################################################################

data_CSD_CIF_MAYZIW
_audit_creation_date 2006-03-02
_audit_creation_method CSD-ConQuest-V1
_database_code_CSD MAYZIW
_database_code_depnum_ccdc_archive 'CCDC 283221'
_chemical_formula_sum 'C14 H23 N1 O7'
_chemical_formula_moiety
;
C14 H23 N1 O7
;
_journal_coden_Cambridge 177
_journal_volume 3
_journal_year 2005
_journal_page_first 4095
_journal_name_full 'Org.Biomol.Chem. '
loop_
_publ_author_name
"S.V.Ley"
"D.J.Dixon"
"R.T.Guy"
"F.Rodriguez"
"T.D.Sheppard"
_chemical_name_systematic
;
(3S,5R,6R,1'R,2'S)-5,6-Dimethoxy-5,6-dimethyl-3-(2-nitrocyclohexyl)(1,4)dioxan
-2-one
;
_chemical_melting_point 404.15
_cell_volume   1592.368
_exptl_crystal_colour 'colorless'
_exptl_crystal_density_diffrn 1.324
_diffrn_ambient_temperature 220
#These two values have been output from a single CSD field.
_refine_ls_R_factor_gt 0.0498
_refine_ls_wR_factor_gt 0.0498
_symmetry_cell_setting monoclinic
_symmetry_space_group_name_H-M 'P 21/c'
_symmetry_Int_Tables_number 14
loop_
_symmetry_equiv_pos_site_id
_symmetry_equiv_pos_as_xyz
1 x,y,z
2 -x,1/2+y,1/2-z
3 -x,-y,-z
4 x,-1/2-y,-1/2+z
_cell_length_a 14.2904(8)
_cell_length_b 10.4950(6)
_cell_length_c 11.2184(4)
_cell_angle_alpha 90
_cell_angle_beta 108.840(3)
_cell_angle_gamma 90
_cell_formula_units_Z 4
loop_
_atom_type_symbol
_atom_type_radius_bond
C 0.68
H 0.23
N 0.68
O 0.68
loop_
_atom_site_label
_atom_site_type_symbol
_atom_site_fract_x
_atom_site_fract_y
_atom_site_fract_z
O1 O 0.91357(13) -0.1244(2) 1.0305(2)
O2 O 0.77159(9) -0.21983(12) 0.96681(10)
O3 O 0.69314(8) -0.03117(10) 0.78830(9)
O4 O 0.62210(9) -0.04181(11) 0.94766(11)
O5 O 0.67799(9) -0.28925(12) 0.7683(1)
O6 O 0.67931(14) 0.2544(2) 0.7232(2)
O7 O 0.69927(11) 0.1417(2) 0.57343(14)
N1 N 0.73030(13) 0.18934(15) 0.6778(2)
C1 C 0.82954(15) -0.1223(2) 0.9621(2)
C2 C 0.78760(12) -0.0092(2) 0.87732(15)
H1 H 0.78129(12) 0.0623(2) 0.93176(15)
C3 C 0.62740(12) -0.0994(2) 0.83672(14)
C4 C 0.67150(12) -0.2321(2) 0.87777(14)
C5 C 0.53014(12) -0.1045(2) 0.7313(2)
H2 H 0.5102(4) -0.0189(2) 0.7012(8)
H3 H 0.4802(2) -0.1421(10) 0.7621(3)
H4 H 0.5374(3) -0.1559(9) 0.6630(5)
C6 C 0.61628(14) -0.3082(2) 0.9475(2)
H5 H 0.6447(6) -0.3928(4) 0.9648(10)
H6 H 0.5473(2) -0.3148(10) 0.8963(5)
H7 H 0.6213(8) -0.2660(6) 1.0262(6)
C7 C 0.5783(2) 0.0825(2) 0.9319(2)
H8 H 0.5881(10) 0.1205(6) 1.0139(2)
H9 H 0.5080(3) 0.0755(2) 0.8869(12)
H10 H 0.6090(8) 0.1356(5) 0.8842(12)
C8 C 0.7255(2) -0.4106(2) 0.7806(2)
H11 H 0.7269(10) -0.4386(7) 0.6988(3)
H12 H 0.6893(7) -0.4719(4) 0.8134(14)
H13 H 0.7926(4) -0.4035(4) 0.8380(12)
C9 C 0.85740(12) 0.0334(2) 0.80671(15)
H14 H 0.92420(12) 0.0349(2) 0.87024(15)
C10 C 0.83720(14) 0.1702(2) 0.7572(2)
H15 H 0.85096(14) 0.2274(2) 0.8311(2)
C11 C 0.9053(2) 0.2097(2) 0.6830(2)
H16 H 0.8811(2) 0.2902(2) 0.6397(2)
H17 H 0.9715(2) 0.2253(2) 0.7425(2)
C12 C 0.9133(2) 0.1132(2) 0.5866(2)
H18 H 0.9648(2) 0.1403(2) 0.5517(2)
H19 H 0.8505(2) 0.1095(2) 0.5174(2)
C13 C 0.9383(2) -0.0180(2) 0.6443(2)
H20 H 1.0044(2) -0.0164(2) 0.7072(2)
H21 H 0.9392(2) -0.0791(2) 0.5786(2)
C14 C 0.86333(14) -0.0614(2) 0.7067(2)
H22 H 0.79810(14) -0.0697(2) 0.6426(2)
H23 H 0.88261(14) -0.1451(2) 0.7455(2)
#END
