
#######################################################################
#
#                 Cambridge Crystallographic Data Centre
#                                CCDC
#
#######################################################################
#
# If this CIF has been generated from an entry in the Cambridge
# Structural Database, then it will include bibliographic, chemical,
# crystal, experimental, refinement or atomic coordinate data resulting
# from the CCDC's data processing and validation procedures.
#
#######################################################################

data_CSD_CIF_MAZOCX
_audit_creation_date 1973-12-11
_audit_creation_method CSD-ConQuest-V1
_database_code_CSD MAZOCX
_chemical_formula_sum 'C9 H14 N1 O2'
_chemical_formula_moiety
;
C9 H14 N1 O2
;
_journal_coeditor_code "IUCr A10162"
_journal_coden_Cambridge 107
_journal_volume 29
_journal_year 1973
_journal_page_first 1720
_journal_name_full 'Acta Crystallogr.,Sect.B:Struct.Crystallogr.Cryst.Chem. '
loop_
_publ_author_name
"A.Capiomont"
_chemical_name_systematic
;
1,5-Dimethyl-8-azabicyclo(3.2.1)octane-3-one-8-oxyl
;
_cell_volume    932.068
_exptl_special_details
;
Coordinates of H8 appear to be in error and have been deleted

;
_diffrn_ambient_temperature ?
_diffrn_special_details
;
The study was carried out at room temperature,in the range 283-303K

;
#These two values have been output from a single CSD field.
_refine_ls_R_factor_gt 0.045
_refine_ls_wR_factor_gt 0.045
_symmetry_cell_setting monoclinic
_symmetry_space_group_name_H-M 'P 21/c'
_symmetry_Int_Tables_number 14
loop_
_symmetry_equiv_pos_site_id
_symmetry_equiv_pos_as_xyz
1 x,y,z
2 -x,1/2+y,1/2-z
3 -x,-y,-z
4 x,-1/2-y,-1/2+z
_cell_length_a 10.05(1)
_cell_length_b 11.13(1)
_cell_length_c 14.94(1)
_cell_angle_alpha 90
_cell_angle_beta 146.1(1)
_cell_angle_gamma 90
_cell_formula_units_Z 4
loop_
_atom_type_symbol
_atom_type_radius_bond
C 0.68
H 0.20
N 0.68
O 0.68
loop_
_atom_site_label
_atom_site_type_symbol
_atom_site_fract_x
_atom_site_fract_y
_atom_site_fract_z
C1 C -0.49830 0.33960 0.33360
C2 C -0.30590 0.43820 0.43740
C3 C -0.08780 0.40370 0.61080
C4 C -0.12850 0.34170 0.67600
C5 C -0.33490 0.25090 0.55700
C6 C -0.29710 0.15880 0.50420
C7 C -0.39710 0.21680 0.36200
C8 C -0.72320 0.37660 0.16040
C9 C -0.38940 0.19930 0.61780
H1 H -0.38400 0.52300 0.42100
H2 H -0.78700 0.46600 0.14900
H3 H -0.87000 0.31300 0.09200
H4 H -0.54200 0.13300 0.52500
H5 H -0.23900 0.14800 0.73000
H6 H -0.45400 0.26900 0.63000
H7 H -0.25800 0.45600 0.39300
H8 H 0.03800 0.29500 0.79000
H9 H -0.16500 0.40900 0.70900
H10 H -0.10700 0.13900 0.60200
H11 H -0.40000 0.07600 0.46000
H12 H -0.24700 0.23100 0.39700
H13 H -0.70000 0.38300 0.10000
N1 N -0.54340 0.31720 0.40490
O1 O -0.66830 0.38790 0.38320
O2 O 0.11140 0.42680 0.69480
#END
