
#######################################################################
#
#                 Cambridge Crystallographic Data Centre
#                                CCDC
#
#######################################################################
#
# If this CIF has been generated from an entry in the Cambridge
# Structural Database, then it will include bibliographic, chemical,
# crystal, experimental, refinement or atomic coordinate data resulting
# from the CCDC's data processing and validation procedures.
#
#######################################################################

data_CSD_CIF_MAZWUG
_audit_creation_date 2006-03-02
_audit_creation_method CSD-ConQuest-V1
_database_code_CSD MAZWUG
_database_code_depnum_ccdc_archive 'CCDC 296336'
_chemical_formula_sum 'C17 H20 N2 O7'
_chemical_formula_moiety
;
C17 H20 N2 O7
;
_journal_coeditor_code "IUCr SK1887"
_journal_coden_Cambridge 591
_journal_volume 62
_journal_year 2006
_journal_page_first o8
_journal_name_full 'Acta Crystallogr.,Sect.C:Cryst.Struct.Commun. '
loop_
_publ_author_name
"A.Quesada"
"J.Arguello"
"J.A.Squella"
"J.L.Wardell"
"J.N.Low"
"C.Glidewell"
_chemical_name_systematic
;
Diethyl 2,6-dimethyl-4-(5-nitro-2-furyl)-1,4-dihydropyridine-3,5-dicarboxylate
;
_cell_volume   1701.196
_exptl_crystal_colour 'yellow'
_exptl_crystal_density_diffrn 1.423
_exptl_crystal_description 'plate'
_exptl_crystal_preparation 'ethanol'
_diffrn_ambient_temperature 120
#These two values have been output from a single CSD field.
_refine_ls_R_factor_gt 0.0465
_refine_ls_wR_factor_gt 0.0465
_symmetry_cell_setting monoclinic
_symmetry_space_group_name_H-M 'P 21/c'
_symmetry_Int_Tables_number 14
loop_
_symmetry_equiv_pos_site_id
_symmetry_equiv_pos_as_xyz
1 x,y,z
2 -x,1/2+y,1/2-z
3 -x,-y,-z
4 x,-1/2-y,-1/2+z
_cell_length_a 8.0511(2)
_cell_length_b 15.173(4)
_cell_length_c 14.470(4)
_cell_angle_alpha 90
_cell_angle_beta 105.760(2)
_cell_angle_gamma 90
_cell_formula_units_Z 4
loop_
_atom_type_symbol
_atom_type_radius_bond
C 0.68
H 0.23
N 0.68
O 0.68
loop_
_atom_site_label
_atom_site_type_symbol
_atom_site_fract_x
_atom_site_fract_y
_atom_site_fract_z
O1 O 0.51174(15) 0.19208(8) 0.39397(8)
O2 O 0.38877(15) 0.11796(7) 0.49219(8)
O3 O 0.80303(15) 0.31933(7) 0.39983(8)
O4 O 0.90638(17) 0.34441(8) 0.24520(9)
O5 O 1.11994(18) 0.25194(9) 0.2946(1)
O6 O 0.77729(19) 0.55027(8) 0.61859(9)
O7 O 0.73600(15) 0.48699(7) 0.47419(8)
N1 N 0.60132(19) 0.30689(9) 0.70679(10)
N2 N 0.99410(19) 0.29324(10) 0.30501(10)
C1 C 0.5338(2) 0.24179(10) 0.64101(11)
C2 C 0.5438(2) 0.25016(10) 0.54904(11)
C3 C 0.6314(2) 0.32908(10) 0.51643(11)
C4 C 0.6769(2) 0.40033(10) 0.59366(11)
C5 C 0.6669(2) 0.38535(11) 0.68400(12)
C6 C 0.4572(2) 0.16731(11) 0.68472(12)
C7 C 0.4822(2) 0.18551(10) 0.47192(11)
C8 C 0.3187(2) 0.05729(11) 0.41336(12)
C9 C 0.2033(2) -0.00630(12) 0.44639(13)
C10 C 0.7893(2) 0.29747(10) 0.48935(11)
C11 C 0.9483(2) 0.27909(11) 0.39198(12)
C12 C 1.0287(2) 0.23332(11) 0.47184(12)
C13 C 0.9246(2) 0.24588(10) 0.53550(12)
C14 C 0.7346(2) 0.48642(11) 0.56723(12)
C15 C 0.8006(2) 0.56725(11) 0.44191(12)
C16 C 0.7937(3) 0.55517(12) 0.33795(13)
C17 C 0.7228(3) 0.44752(12) 0.76791(12)
H1 H 0.60240 0.29810 0.76570
H2 H 0.33310 0.16360 0.65370
H3 H 0.47610 0.17810 0.75360
H4 H 0.51270 0.11180 0.67540
H5 H 0.41330 0.02520 0.39630
H6 H 0.25200 0.09000 0.35610
H7 H 0.54950 0.35490 0.45800
H8 H 0.27120 -0.03890 0.50250
H9 H 0.15260 -0.04780 0.39450
H10 H 0.11110 0.02630 0.46370
H11 H 1.13220 0.20000 0.48280
H12 H 0.94540 0.22260 0.59860
H13 H 0.92080 0.57840 0.48010
H14 H 0.72860 0.61810 0.44970
H15 H 0.86620 0.50500 0.33120
H16 H 0.83620 0.60860 0.31390
H17 H 0.67430 0.54400 0.30090
H18 H 0.84430 0.46330 0.77730
H19 H 0.70860 0.41880 0.82600
H20 H 0.65180 0.50090 0.75500
#END
