
#######################################################################
#
#                 Cambridge Crystallographic Data Centre
#                                CCDC
#
#######################################################################
#
# If this CIF has been generated from an entry in the Cambridge
# Structural Database, then it will include bibliographic, chemical,
# crystal, experimental, refinement or atomic coordinate data resulting
# from the CCDC's data processing and validation procedures.
#
#######################################################################

data_CSD_CIF_MAZWEQ
_audit_creation_date 2006-03-02
_audit_creation_method CSD-ConQuest-V1
_database_code_CSD MAZWEQ
_database_code_depnum_ccdc_archive 'CCDC 296333'
_chemical_formula_sum 'C20 H22 N4 O4'
_chemical_formula_moiety
;
C20 H22 N4 O4
;
_journal_coeditor_code "IUCr SK1882"
_journal_coden_Cambridge 591
_journal_volume 62
_journal_year 2006
_journal_page_first o1
_journal_name_full 'Acta Crystallogr.,Sect.C:Cryst.Struct.Commun. '
loop_
_publ_author_name
"C.Glidewell"
"J.N.Low"
"J.M.S.Skakle"
"J.L.Wardell"
_chemical_name_systematic
;
(E,E)-N,N'-bis(4-Nitrobenzylidene)hexane-1,6-diamine
;
_chemical_melting_point 408
_cell_volume    924.906
_exptl_crystal_colour 'colorless'
_exptl_crystal_density_diffrn 1.373
_exptl_special_details
;
Melting point range 408-410K

;
_exptl_crystal_description 'lath'
_exptl_crystal_preparation '1,2-dichloroethane'
_diffrn_ambient_temperature 120
#These two values have been output from a single CSD field.
_refine_ls_R_factor_gt 0.0445
_refine_ls_wR_factor_gt 0.0445
_symmetry_cell_setting monoclinic
_symmetry_space_group_name_H-M 'P 21/c'
_symmetry_Int_Tables_number 14
loop_
_symmetry_equiv_pos_site_id
_symmetry_equiv_pos_as_xyz
1 x,y,z
2 -x,1/2+y,1/2-z
3 -x,-y,-z
4 x,-1/2-y,-1/2+z
_cell_length_a 6.1908(3)
_cell_length_b 4.9761(2)
_cell_length_c 30.1095(15)
_cell_angle_alpha 90
_cell_angle_beta 94.331(3)
_cell_angle_gamma 90
_cell_formula_units_Z 2
loop_
_atom_type_symbol
_atom_type_radius_bond
C 0.68
H 0.23
N 0.68
O 0.68
loop_
_atom_site_label
_atom_site_type_symbol
_atom_site_fract_x
_atom_site_fract_y
_atom_site_fract_z
C1 C 1.0614(2) 0.6700(3) 0.63857(5)
C2 C 0.9798(2) 0.7860(3) 0.67597(5)
C3 C 1.0927(2) 0.9893(3) 0.69923(5)
C4 C 1.2888(2) 1.0703(3) 0.68471(5)
C5 C 1.3742(2) 0.9581(3) 0.64772(5)
C6 C 1.2599(2) 0.7585(3) 0.62471(5)
N1 N 1.41049(19) 1.2853(3) 0.70893(4)
O1 O 1.32987(17) 1.3916(2) 0.74050(3)
O2 O 1.58791(17) 1.3487(2) 0.69620(3)
C7 C 0.9388(2) 0.4543(3) 0.61428(5)
N2 N 0.99326(19) 0.3625(3) 0.57753(4)
C8 C 0.8611(2) 0.1507(3) 0.55614(5)
C9 C 0.7409(2) 0.2517(3) 0.51322(5)
C10 C 0.5605(2) 0.4499(3) 0.52148(5)
H1 H 0.84560 0.72550 0.68560
H2 H 1.03650 1.07050 0.72450
H3 H 1.50930 1.01800 0.63840
H4 H 1.31620 0.68030 0.59920
H5 H 0.81470 0.38190 0.62670
H6 H 0.75500 0.08670 0.57680
H7 H 0.95470 -0.00280 0.54930
H8 H 0.84570 0.33980 0.49470
H9 H 0.67800 0.09610 0.49630
H10 H 0.62340 0.60580 0.53830
H11 H 0.45600 0.36200 0.54010
C1B C -0.0614(2) 0.3300(3) 0.36143(5)
C2B C 0.0202(2) 0.2140(3) 0.32403(5)
C3B C -0.0927(2) 0.0107(3) 0.30077(5)
C4B C -0.2888(2) -0.0703(3) 0.31529(5)
C5B C -0.3742(2) 0.0419(3) 0.35228(5)
C6B C -0.2599(2) 0.2415(3) 0.37529(5)
N1B N -0.41049(19) -0.2853(3) 0.29107(4)
O1B O -0.32987(17) -0.3916(2) 0.25950(3)
O2B O -0.58791(17) -0.3487(2) 0.30380(3)
C7B C 0.0612(2) 0.5457(3) 0.38572(5)
N2B N 0.00674(19) 0.6375(3) 0.42247(4)
C8B C 0.1389(2) 0.8493(3) 0.44386(5)
C9B C 0.2591(2) 0.7483(3) 0.48678(5)
C10B C 0.4395(2) 0.5501(3) 0.47852(5)
H1B H 0.15440 0.27450 0.31440
H2B H -0.03650 -0.07050 0.27550
H3B H -0.50930 -0.01800 0.36160
H4B H -0.31620 0.31970 0.40080
H5B H 0.18530 0.61810 0.37330
H6B H 0.24500 0.91330 0.42320
H7B H 0.04530 1.00280 0.45070
H8B H 0.15430 0.66020 0.50530
H9B H 0.32200 0.90390 0.50370
H10B H 0.37660 0.39420 0.46170
H11B H 0.54400 0.63800 0.45990
#END
