
#######################################################################
#
#                 Cambridge Crystallographic Data Centre
#                                CCDC
#
#######################################################################
#
# If this CIF has been generated from an entry in the Cambridge
# Structural Database, then it will include bibliographic, chemical,
# crystal, experimental, refinement or atomic coordinate data resulting
# from the CCDC's data processing and validation procedures.
#
#######################################################################

data_CSD_CIF_MAZWEQ01
_audit_creation_date 2017-03-16
_audit_creation_method CSD-ConQuest-V1
_database_code_CSD MAZWEQ01
_database_code_depnum_ccdc_archive 'CCDC 1538500'
_chemical_formula_sum 'C20 H22 N4 O4'
_chemical_formula_moiety
;
C20 H22 N4 O4
;
_journal_coden_Cambridge 1078
_journal_year 2017
_journal_name_full 'CSD Communication(Private Communication) '
loop_
_publ_author_name
"k.c.guillaume"
_chemical_name_systematic
;
N,N'-bis(4-nitrophenylmethylene)hexane-1,6-diamine
;
_cell_volume    954.374
_diffrn_ambient_temperature 293
#These two values have been output from a single CSD field.
_refine_ls_R_factor_gt 0.1254
_refine_ls_wR_factor_gt 0.1254
_symmetry_cell_setting monoclinic
_symmetry_space_group_name_H-M 'P 21/c'
_symmetry_Int_Tables_number 14
loop_
_symmetry_equiv_pos_site_id
_symmetry_equiv_pos_as_xyz
1 x,y,z
2 -x,1/2+y,1/2-z
3 -x,-y,-z
4 x,-1/2-y,-1/2+z
_cell_length_a 6.1569(7)
_cell_length_b 5.0767(5)
_cell_length_c 30.628(3)
_cell_angle_alpha 90
_cell_angle_beta 94.505(6)
_cell_angle_gamma 90
_cell_formula_units_Z 2
loop_
_atom_type_symbol
_atom_type_radius_bond
C 0.68
H 0.23
N 0.68
O 0.68
loop_
_atom_site_label
_atom_site_type_symbol
_atom_site_fract_x
_atom_site_fract_y
_atom_site_fract_z
O1 O 0.831(1) 0.1396(13) 0.7404(2)
C1 C 0.4387(14) 1.052(2) 0.6134(3)
H1 H 0.32000 1.12810 0.62570
N1 N 0.4902(12) 1.1330(18) 0.5767(3)
N2 N 0.9125(14) 0.2389(18) 0.7089(3)
O2 O 1.0869(10) 0.1738(14) 0.69630(18)
C2 C 0.5634(14) 0.838(2) 0.6379(3)
C3 C 0.7846(13) 0.450(2) 0.6852(3)
C4 C 0.8729(14) 0.554(2) 0.6480(3)
H2 H 1.00590 0.49470 0.63940
C5 C 0.7550(15) 0.750(2) 0.6243(3)
H3 H 0.80810 0.81920 0.59920
C6 C 0.4826(14) 0.734(2) 0.6754(3)
H4 H 0.35270 0.79800 0.68480
C7 C 0.5951(12) 0.535(2) 0.6989(3)
H5 H 0.54000 0.46210 0.72370
C8 C 0.2409(13) 1.2492(19) 0.5135(3)
H6 H 0.34610 1.16850 0.49570
H7 H 0.17810 1.39980 0.49770
C9 C 0.3548(15) 1.341(2) 0.5559(3)
H8 H 0.44510 1.49190 0.55050
H9 H 0.24730 1.39540 0.57560
C10 C 0.0602(14) 1.050(2) 0.5211(2)
H10 H 0.12400 0.90060 0.53720
H11 H -0.04390 1.13140 0.53900
O1B O -0.831(1) 1.8604(13) 0.2596(2)
C1B C -0.4387(14) 0.948(2) 0.3866(3)
H1B H -0.32000 0.87190 0.37430
N1B N -0.4902(12) 0.8670(18) 0.4233(3)
N2B N -0.9125(14) 1.7611(18) 0.2911(3)
O2B O -1.0869(10) 1.8262(14) 0.30370(18)
C2B C -0.5634(14) 1.162(2) 0.3621(3)
C3B C -0.7846(13) 1.550(2) 0.3148(3)
C4B C -0.8729(14) 1.446(2) 0.3520(3)
H2B H -1.00590 1.50530 0.36060
C5B C -0.7550(15) 1.250(2) 0.3757(3)
H3B H -0.80810 1.18080 0.40080
C6B C -0.4826(14) 1.266(2) 0.3246(3)
H4B H -0.35270 1.20200 0.31520
C7B C -0.5951(12) 1.465(2) 0.3011(3)
H5B H -0.54000 1.53790 0.27630
C8B C -0.2409(13) 0.7508(19) 0.4865(3)
H6B H -0.34610 0.83150 0.50430
H7B H -0.17810 0.60020 0.50230
C9B C -0.3548(15) 0.659(2) 0.4441(3)
H8B H -0.44510 0.50810 0.44950
H9B H -0.24730 0.60460 0.42440
C10B C -0.0602(14) 0.950(2) 0.4789(2)
H10B H -0.12400 1.09940 0.46280
H11B H 0.04390 0.86860 0.46100
#END
