
#######################################################################
#
#                 Cambridge Crystallographic Data Centre
#                                CCDC
#
#######################################################################
#
# If this CIF has been generated from an entry in the Cambridge
# Structural Database, then it will include bibliographic, chemical,
# crystal, experimental, refinement or atomic coordinate data resulting
# from the CCDC's data processing and validation procedures.
#
#######################################################################

data_CSD_CIF_MAZYIW
_audit_creation_date 2006-03-02
_audit_creation_method CSD-ConQuest-V1
_database_code_CSD MAZYIW
_database_code_depnum_ccdc_archive 'CCDC 296344'
_chemical_formula_sum 'C14 H10 N2 O6'
_chemical_formula_moiety
;
C14 H10 N2 O6
;
_journal_coeditor_code "IUCr SK1889"
_journal_coden_Cambridge 591
_journal_volume 62
_journal_year 2006
_journal_page_first o26
_journal_name_full 'Acta Crystallogr.,Sect.C:Cryst.Struct.Commun. '
loop_
_publ_author_name
"T.R.A.Vasconcelos"
"M.V.N.de Souza"
"S.M.S.V.Wardell"
"J.L.Wardell"
"J.N.Low"
"C.Glidewell"
_chemical_name_systematic
;
Benzyl 3,5-dinitrobenzoate
;
_cell_volume   2625.505
_exptl_crystal_colour 'colorless'
_exptl_crystal_density_diffrn 1.529
_exptl_crystal_description 'needle'
_exptl_crystal_preparation 'ethanol'
_diffrn_ambient_temperature 120
#These two values have been output from a single CSD field.
_refine_ls_R_factor_gt 0.0432
_refine_ls_wR_factor_gt 0.0432
_symmetry_cell_setting tetragonal
_symmetry_space_group_name_H-M 'P 42/n'
_symmetry_Int_Tables_number 86
loop_
_symmetry_equiv_pos_site_id
_symmetry_equiv_pos_as_xyz
1 x,y,z
2 -y,1/2+x,1/2+z
3 1/2+y,-x,1/2+z
4 1/2-x,1/2-y,z
5 -x,-y,-z
6 y,-1/2-x,-1/2-z
7 -1/2-y,x,-1/2-z
8 -1/2+x,-1/2+y,-z
_cell_length_a 20.8531(5)
_cell_length_b 20.8531(5)
_cell_length_c 6.0377(2)
_cell_angle_alpha 90
_cell_angle_beta 90
_cell_angle_gamma 90
_cell_formula_units_Z 8
loop_
_atom_type_symbol
_atom_type_radius_bond
C 0.68
H 0.23
N 0.68
O 0.68
loop_
_atom_site_label
_atom_site_type_symbol
_atom_site_fract_x
_atom_site_fract_y
_atom_site_fract_z
O1 O 0.49125(5) 0.44104(6) 0.1932(2)
O2 O 0.52732(5) 0.40805(5) 0.52649(18)
O3 O 0.74509(6) 0.32867(7) 0.5879(2)
O4 O 0.81810(5) 0.37069(6) 0.3788(2)
O5 O 0.75704(5) 0.47883(6) -0.2874(2)
O6 O 0.66120(6) 0.51811(6) -0.3183(2)
N1 N 0.76221(6) 0.36163(7) 0.4312(2)
N2 N 0.70199(6) 0.48641(6) -0.2208(2)
C1 C 0.60325(7) 0.42401(7) 0.2460(3)
C2 C 0.64954(7) 0.39295(7) 0.3724(3)
C3 C 0.71241(7) 0.39371(7) 0.2979(3)
C4 C 0.73094(7) 0.42425(7) 0.1063(3)
C5 C 0.68335(7) 0.45441(7) -0.0135(3)
C6 C 0.61973(7) 0.45520(7) 0.0503(3)
C7 C 0.53428(7) 0.42524(7) 0.3149(3)
C8 C 0.46199(7) 0.41048(8) 0.6171(3)
C9 C 0.42942(7) 0.34636(7) 0.5979(3)
C10 C 0.43489(8) 0.30202(8) 0.7690(3)
C11 C 0.40476(9) 0.24289(9) 0.7537(3)
C12 C 0.36916(8) 0.22777(8) 0.5671(3)
C13 C 0.36404(8) 0.27124(8) 0.3950(3)
C14 C 0.39397(8) 0.33054(8) 0.4104(3)
H1 H 0.63840 0.37180 0.50630
H2 H 0.77440 0.42460 0.05880
H3 H 0.58820 0.47640 -0.03670
H4 H 0.43670 0.44310 0.53590
H5 H 0.46380 0.42340 0.77480
H6 H 0.45940 0.31230 0.89680
H7 H 0.40850 0.21280 0.87110
H8 H 0.34820 0.18740 0.55730
H9 H 0.34010 0.26050 0.26640
H10 H 0.39020 0.36040 0.29240
#END
