
#######################################################################
#
#                 Cambridge Crystallographic Data Centre
#                                CCDC
#
#######################################################################
#
# If this CIF has been generated from an entry in the Cambridge
# Structural Database, then it will include bibliographic, chemical,
# crystal, experimental, refinement or atomic coordinate data resulting
# from the CCDC's data processing and validation procedures.
#
#######################################################################

data_CSD_CIF_MAZZOD
_audit_creation_date 2006-03-02
_audit_creation_method CSD-ConQuest-V1
_database_code_CSD MAZZOD
_database_code_depnum_ccdc_archive 'CCDC 296351'
_chemical_formula_sum 'C10 H10 N2 O5'
_chemical_formula_moiety
;
C10 H10 N2 O5
;
_journal_coeditor_code "IUCr SK1893"
_journal_coden_Cambridge 591
_journal_volume 62
_journal_year 2006
_journal_page_first o45
_journal_name_full 'Acta Crystallogr.,Sect.C:Cryst.Struct.Commun. '
loop_
_publ_author_name
"J.L.Wardell"
"J.M.S.Skakle"
"J.N.Low"
"C.Glidewell"
_chemical_name_systematic
;
3-(3-Nitrophenylaminocarbonyl)propionic acid
;
_chemical_melting_point 455
_cell_volume   1098.247
_exptl_crystal_colour 'colorless'
_exptl_crystal_density_diffrn 1.441
_exptl_special_details
;
Melting point range 455-457K

;
_exptl_crystal_description 'plate'
_exptl_crystal_preparation 'ethanol'
_diffrn_ambient_temperature 293
#These two values have been output from a single CSD field.
_refine_ls_R_factor_gt 0.0435
_refine_ls_wR_factor_gt 0.0435
_symmetry_cell_setting monoclinic
_symmetry_space_group_name_H-M 'P 21/c'
_symmetry_Int_Tables_number 14
loop_
_symmetry_equiv_pos_site_id
_symmetry_equiv_pos_as_xyz
1 x,y,z
2 -x,1/2+y,1/2-z
3 -x,-y,-z
4 x,-1/2-y,-1/2+z
_cell_length_a 6.6765(4)
_cell_length_b 19.7961(13)
_cell_length_c 9.0675(5)
_cell_angle_alpha 90
_cell_angle_beta 113.595(4)
_cell_angle_gamma 90
_cell_formula_units_Z 4
loop_
_atom_type_symbol
_atom_type_radius_bond
C 0.68
H 0.23
N 0.68
O 0.68
loop_
_atom_site_label
_atom_site_type_symbol
_atom_site_fract_x
_atom_site_fract_y
_atom_site_fract_z
O1 O 0.6360(2) 0.29810(6) 0.56794(13)
O2 O 0.0969(3) 0.19919(8) 0.6589(2)
O3 O -0.0117(2) 0.09628(8) 0.6223(2)
O4 O 0.7815(2) 0.47720(7) 0.61217(16)
O5 O 0.5264(2) 0.43856(6) 0.38524(15)
N1 N 0.5794(2) 0.22718(7) 0.35833(16)
N2 N 0.0921(2) 0.14318(8) 0.60141(19)
C1 C 0.6608(3) 0.28337(8) 0.44555(19)
C2 C 0.7889(3) 0.32755(8) 0.3793(2)
C3 C 0.8823(3) 0.38893(9) 0.4831(2)
C4 C 0.7125(3) 0.43650(8) 0.4891(2)
C5 C 0.4565(3) 0.17529(8) 0.39002(18)
C6 C 0.3293(2) 0.18641(8) 0.47620(19)
C7 C 0.2191(2) 0.13195(8) 0.50369(19)
C8 C 0.2248(3) 0.06807(9) 0.4459(2)
C9 C 0.3478(3) 0.05859(9) 0.3576(2)
C10 C 0.4634(3) 0.11115(9) 0.3298(2)
H1 H 0.60950 0.21910 0.27270
H2 H 0.69430 0.34210 0.27160
H3 H 0.90730 0.30140 0.37160
H4 H 0.97200 0.37410 0.59170
H5 H 0.97630 0.41280 0.44230
H6 H 0.31830 0.22920 0.51460
H7 H 0.14790 0.03260 0.46600
H8 H 0.35340 0.01600 0.31590
H9 H 0.54680 0.10370 0.27020
H10 H 0.68130 0.50220 0.60820
#END
