
#######################################################################
#
#                 Cambridge Crystallographic Data Centre
#                                CCDC
#
#######################################################################
#
# If this CIF has been generated from an entry in the Cambridge
# Structural Database, then it will include bibliographic, chemical,
# crystal, experimental, refinement or atomic coordinate data resulting
# from the CCDC's data processing and validation procedures.
#
#######################################################################

data_CSD_CIF_MBYIOZ
_audit_creation_date 1972-08-10
_audit_creation_method CSD-ConQuest-V1
_database_code_CSD MBYIOZ
_chemical_formula_sum 'C11 H9 N1 O2'
_chemical_formula_moiety
;
C11 H9 N1 O2
;
_journal_coeditor_code "IUCr A09019"
_journal_coden_Cambridge 107
_journal_volume 28
_journal_year 1972
_journal_page_first 1308
_journal_name_full 'Acta Crystallogr.,Sect.B:Struct.Crystallogr.Cryst.Chem. '
loop_
_publ_author_name
"J.Meunier-Piret"
"P.Piret"
"G.Germain"
"J.-P.Putzeys"
"M.van Meerssche"
_chemical_name_systematic
;
3-Methyl-4-benzylidene-isoxazoline-5-one
;
_cell_volume    920.437
_exptl_crystal_density_diffrn 1.34
_diffrn_ambient_temperature ?
_diffrn_special_details
;
The study was carried out at room temperature,in the range 283-303K

;
#These two values have been output from a single CSD field.
_refine_ls_R_factor_gt 0.061
_refine_ls_wR_factor_gt 0.061
_symmetry_cell_setting monoclinic
_symmetry_space_group_name_H-M 'P 21/n'
_symmetry_Int_Tables_number 14
loop_
_symmetry_equiv_pos_site_id
_symmetry_equiv_pos_as_xyz
1 x,y,z
2 1/2-x,1/2+y,1/2-z
3 -x,-y,-z
4 -1/2+x,-1/2-y,-1/2+z
_cell_length_a 12.14
_cell_length_b 6.748
_cell_length_c 12.325
_cell_angle_alpha 90
_cell_angle_beta 114.27
_cell_angle_gamma 90
_cell_formula_units_Z 4
loop_
_atom_type_symbol
_atom_type_radius_bond
C 0.68
H 0.20
N 0.68
O 0.68
loop_
_atom_site_label
_atom_site_type_symbol
_atom_site_fract_x
_atom_site_fract_y
_atom_site_fract_z
C1 C 0.11543 0.50506 0.14304
C2 C 0.29056 0.56134 -0.05659
C3 C 0.33260 0.35706 -0.07018
C4 C 0.09529 0.32708 0.19098
C5 C 0.03004 0.32663 0.26295
C6 C -0.01255 0.50644 0.28437
C7 C 0.00621 0.67898 0.23752
C8 C 0.07031 0.68038 0.16720
C9 C 0.18427 0.48393 0.07006
C10 C 0.22178 0.61709 0.01004
C11 C 0.20801 0.83045 -0.00821
H1 H 0.12240 0.19280 0.17500
H2 H 0.01950 0.18770 0.30430
H3 H -0.05820 0.51840 0.33910
H4 H -0.03630 0.81010 0.25210
H5 H 0.07200 0.81850 0.12140
H6 H 0.20800 0.32570 0.06510
N1 N 0.31579 0.70634 -0.10700
O1 O 0.26434 0.88158 -0.08013
O2 O 0.15959 0.95734 0.02648
#END
