
#######################################################################
#
#                 Cambridge Crystallographic Data Centre
#                                CCDC
#
#######################################################################
#
# If this CIF has been generated from an entry in the Cambridge
# Structural Database, then it will include bibliographic, chemical,
# crystal, experimental, refinement or atomic coordinate data resulting
# from the CCDC's data processing and validation procedures.
#
#######################################################################

data_CSD_CIF_MBYIOZ01
_audit_creation_date 2013-02-01
_audit_creation_method CSD-ConQuest-V1
_database_code_CSD MBYIOZ01
_database_code_depnum_ccdc_archive 'CCDC 909795'
_chemical_formula_sum 'C11 H9 N1 O2'
_chemical_formula_moiety
;
C11 H9 N1 O2
;
_journal_coeditor_code "IUCr SJ5268"
_journal_coden_Cambridge 1370
_journal_volume 68
_journal_year 2012
_journal_page_first o3091
_journal_name_full 'Acta Crystallogr.,Sect.E:Struct.Rep.Online '
loop_
_publ_author_name
"Chandra"
"N.Srikantamurthy"
"S.Jeyaseelan"
"K.B.Umesha"
"K.Palani"
"M.Mahendra"
_chemical_name_systematic
;
(Z)-4-Benzylidene-3-methylisoxazol-5(4H)-one
;
_chemical_name_common
;
4-Benzylidene-3-methyl-1,2-oxazol-5(4H)-one
;
_cell_volume    917.104
_exptl_crystal_colour 'yellow'
_exptl_crystal_density_diffrn 1.356
_exptl_crystal_description 'block'
_diffrn_ambient_temperature 293
#These two values have been output from a single CSD field.
_refine_ls_R_factor_gt 0.0419
_refine_ls_wR_factor_gt 0.0419
_symmetry_cell_setting monoclinic
_symmetry_space_group_name_H-M 'P 21/n'
_symmetry_Int_Tables_number 14
loop_
_symmetry_equiv_pos_site_id
_symmetry_equiv_pos_as_xyz
1 x,y,z
2 1/2-x,1/2+y,1/2-z
3 -x,-y,-z
4 -1/2+x,-1/2-y,-1/2+z
_cell_length_a 12.144(4)
_cell_length_b 6.734(2)
_cell_length_c 12.333(4)
_cell_angle_alpha 90
_cell_angle_beta 114.589(5)
_cell_angle_gamma 90
_cell_formula_units_Z 4
loop_
_atom_type_symbol
_atom_type_radius_bond
C 0.68
H 0.23
N 0.68
O 0.68
loop_
_atom_site_label
_atom_site_type_symbol
_atom_site_fract_x
_atom_site_fract_y
_atom_site_fract_z
O1 O 0.33893(13) 0.04132(18) 0.47425(13)
O2 O 0.23528(13) 0.11975(18) 0.58010(12)
N1 N 0.18345(15) 0.2949(2) 0.60829(15)
C1 C 0.29158(16) 0.1691(2) 0.50821(15)
C2 C 0.27739(13) 0.3852(2) 0.48985(13)
C3 C 0.20890(14) 0.4425(2) 0.55692(14)
C4 C 0.16786(17) 0.6440(3) 0.57095(17)
C5 C 0.31588(13) 0.5159(2) 0.42957(13)
C6 C 0.38358(13) 0.4957(2) 0.35687(13)
C7 C 0.42882(16) 0.3176(2) 0.33333(15)
C8 C 0.49210(17) 0.3185(3) 0.26289(17)
C9 C 0.51257(17) 0.4919(3) 0.21543(16)
C10 C 0.47001(15) 0.6689(3) 0.23875(15)
C11 C 0.40617(14) 0.6711(2) 0.30883(14)
H1 H 0.13330 0.64020 0.62820
H2 H 0.10800 0.68910 0.49560
H3 H 0.23560 0.73320 0.59810
H4 H 0.29440 0.64640 0.43610
H5 H 0.41620 0.19900 0.36510
H6 H 0.52150 0.19940 0.24720
H7 H 0.55500 0.48960 0.16770
H8 H 0.48420 0.78670 0.20740
H9 H 0.37770 0.79120 0.32430
#END
