
#######################################################################
#
#                 Cambridge Crystallographic Data Centre
#                                CCDC
#
#######################################################################
#
# If this CIF has been generated from an entry in the Cambridge
# Structural Database, then it will include bibliographic, chemical,
# crystal, experimental, refinement or atomic coordinate data resulting
# from the CCDC's data processing and validation procedures.
#
#######################################################################

data_CSD_CIF_MBZOCZ20
_audit_creation_date 1978-09-01
_audit_creation_method CSD-ConQuest-V1
_database_code_CSD MBZOCZ20
_database_code_depnum_ccdc_archive 'CCDC 1210038'
_chemical_formula_sum 'C21 H19 N1 O1'
_chemical_formula_moiety
;
C21 H19 N1 O1
;
_journal_coden_Cambridge 188
_journal_year 1978
_journal_page_first 401
_journal_name_full 'J.Chem.Soc.,Perkin Trans.2 '
loop_
_publ_author_name
"A.Forni"
"G.Garuti"
"I.Moretti"
"G.Torre"
"G.D.Andreetti"
"G.Bocelli"
"P.Sgarabotto"
_chemical_name_systematic
;
(-)-(2S)-2-((R)-\a-Methylbenzyl)-3,3-diphenyloxaziridine
;
_cell_volume   1742.748
_exptl_crystal_density_diffrn 1.15
_exptl_special_details
;
THE Z COORDINATE OF C1 IS -0.3164 NOT -0.1164

;
_diffrn_ambient_temperature ?
_diffrn_special_details
;
The study was carried out at room temperature,in the range 283-303K

;
#These two values have been output from a single CSD field.
_refine_ls_R_factor_gt 0.051
_refine_ls_wR_factor_gt 0.051
loop_
_citation_database_id_CSD
_citation_special_details
RRMBXZ "is a stereoisomer of this entry"
_symmetry_cell_setting orthorhombic
_symmetry_space_group_name_H-M 'P 21 21 21'
_symmetry_Int_Tables_number 19
loop_
_symmetry_equiv_pos_site_id
_symmetry_equiv_pos_as_xyz
1 x,y,z
2 1/2+x,1/2-y,-z
3 -x,1/2+y,1/2-z
4 1/2-x,-y,1/2+z
_cell_length_a 23.754(8)
_cell_length_b 8.778(5)
_cell_length_c 8.358(5)
_cell_angle_alpha 90
_cell_angle_beta 90
_cell_angle_gamma 90
_cell_formula_units_Z 4
loop_
_atom_type_symbol
_atom_type_radius_bond
C 0.68
H 0.23
N 0.68
O 0.68
loop_
_atom_site_label
_atom_site_type_symbol
_atom_site_fract_x
_atom_site_fract_y
_atom_site_fract_z
O1 O -0.34530 -0.40560 0.38940
N1 N -0.40580 -0.35180 0.42640
C1 C -0.34530 -0.36120 0.68360
C2 C -0.36870 -0.28570 0.81490
C3 C -0.35800 -0.34000 0.96850
C4 C -0.32470 -0.46510 0.99180
C5 C -0.30060 -0.53700 0.86420
C6 C -0.31110 -0.48600 0.70740
C7 C -0.33830 -0.13950 0.48140
C8 C -0.29490 -0.07420 0.56850
C9 C -0.27620 0.07340 0.53160
C10 C -0.30000 0.15280 0.40670
C11 C -0.34230 0.08670 0.31940
C12 C -0.36100 -0.05820 0.35480
C13 C -0.48800 -0.42860 0.57830
C14 C -0.52890 -0.34300 0.50430
C15 C -0.57760 -0.30070 0.58290
C16 C -0.58520 -0.34210 0.73880
C17 C -0.54470 -0.42530 0.81670
C18 C -0.49590 -0.46970 0.73810
C19 C -0.43640 -0.48620 0.49010
C20 C -0.45170 -0.58770 0.34720
C21 C -0.35610 -0.30040 0.51680
H1 H -0.39500 -0.19100 0.80000
H2 H -0.37400 -0.28500 1.05500
H3 H -0.32000 -0.51700 1.10400
H4 H -0.28100 -0.63700 0.88000
H5 H -0.29700 -0.54400 0.61400
H6 H -0.28100 -0.13800 0.65800
H7 H -0.24400 0.11800 0.59000
H8 H -0.28900 0.26100 0.38000
H9 H -0.35900 0.15400 0.22400
H10 H -0.39400 -0.10700 0.29300
H11 H -0.52400 -0.30500 0.39700
H12 H -0.61400 -0.23000 0.51800
H13 H -0.62700 -0.30700 0.78000
H14 H -0.54900 -0.45800 0.92700
H15 H -0.46400 -0.53600 0.79500
H16 H -0.41200 -0.55600 0.56800
H17 H -0.41700 -0.63400 0.28800
H18 H -0.47600 -0.67900 0.38200
H19 H -0.47500 -0.53400 0.27300
#END
