
#######################################################################
#
#                 Cambridge Crystallographic Data Centre
#                                CCDC
#
#######################################################################
#
# If this CIF has been generated from an entry in the Cambridge
# Structural Database, then it will include bibliographic, chemical,
# crystal, experimental, refinement or atomic coordinate data resulting
# from the CCDC's data processing and validation procedures.
#
#######################################################################

data_CSD_CIF_MBZPNA12
_audit_creation_date 2004-12-09
_audit_creation_method CSD-ConQuest-V1
_database_code_CSD MBZPNA12
_database_code_depnum_ccdc_archive 'CCDC 255094'
_chemical_formula_sum 'C14 H12 N2 O2'
_chemical_formula_moiety
;
C14 H12 N2 O2
;
_journal_coeditor_code "IUCr BK5007"
_journal_coden_Cambridge 622
_journal_volume 60
_journal_year 2004
_journal_page_first 578
_journal_name_full 'Acta Crystallogr.,Sect.B:Struct.Sci. '
loop_
_publ_author_name
"J.Harada"
"M.Harakawa"
"K.Ogawa"
_chemical_name_systematic
;
N-(4-Methylbenzylidene)-4-nitroaniline
;
_chemical_melting_point 408.7
_cell_volume   1205.736
_exptl_crystal_colour 'pale yellow'
_exptl_crystal_density_diffrn 1.324
_exptl_special_details
;
monoclinic P21/c polymorph

;
_exptl_crystal_description 'plate'
_exptl_crystal_preparation '2-propanol'
_diffrn_ambient_temperature 300
#These two values have been output from a single CSD field.
_refine_ls_R_factor_gt 0.0441
_refine_ls_wR_factor_gt 0.0441
_symmetry_cell_setting monoclinic
_symmetry_space_group_name_H-M 'P 21/c'
_symmetry_Int_Tables_number 14
loop_
_symmetry_equiv_pos_site_id
_symmetry_equiv_pos_as_xyz
1 x,y,z
2 x,1/2-y,1/2+z
3 -x,-y,-z
4 -x,-1/2+y,-1/2-z
_cell_length_a 15.5033(12)
_cell_length_b 7.2979(5)
_cell_length_c 12.7983(8)
_cell_angle_alpha 90
_cell_angle_beta 123.625(1)
_cell_angle_gamma 90
_cell_formula_units_Z 4
loop_
_atom_type_symbol
_atom_type_radius_bond
C 0.68
H 0.23
N 0.68
O 0.68
loop_
_atom_site_label
_atom_site_type_symbol
_atom_site_fract_x
_atom_site_fract_y
_atom_site_fract_z
N1 N 0.43342(9) 0.24058(16) 0.88783(11)
N2 N 0.05236(11) 0.3426(2) 0.83441(14)
O1 O 0.05555(10) 0.4133(2) 0.92320(13)
O2 O -0.02727(10) 0.2868(3) 0.74129(15)
C1 C 0.55407(10) 0.21476(16) 0.82877(11)
C2 C 0.57844(11) 0.25652(19) 0.74200(13)
C3 C 0.67707(12) 0.2248(2) 0.76983(14)
C4 C 0.75418(10) 0.15237(18) 0.88445(13)
C5 C 0.72885(11) 0.1067(2) 0.96974(13)
C6 C 0.63068(10) 0.13629(19) 0.94288(12)
C7 C 0.45132(10) 0.25514(17) 0.80310(12)
C8 C 0.3345(1) 0.27414(17) 0.86332(12)
C9 C 0.32908(12) 0.3862(2) 0.94789(14)
C10 C 0.23660(12) 0.4112(2) 0.93680(14)
C11 C 0.14952(10) 0.32348(19) 0.84136(13)
C12 C 0.15137(11) 0.2148(2) 0.75415(14)
C13 C 0.24491(11) 0.1908(2) 0.76581(13)
C14 C 0.86278(15) 0.1250(3) 0.9170(2)
H1 H 0.5254(12) 0.312(2) 0.6624(15)
H2 H 0.6917(13) 0.257(2) 0.7086(16)
H3 H 0.7814(12) 0.055(2) 1.0504(15)
H4 H 0.6164(11) 0.103(2) 1.0032(14)
H5 H 0.4000(11) 0.300(2) 0.7196(14)
H6 H 0.2484(12) 0.113(2) 0.7061(14)
H7 H 0.0886(13) 0.155(2) 0.6870(15)
H8 H 0.2355(11) 0.487(2) 0.9969(14)
H9 H 0.3925(12) 0.443(2) 1.0160(15)
H10 H 0.862(2) 0.144(5) 0.837(3)
H11 H 0.908(3) 0.207(5) 0.975(3)
H12 H 0.890(2) -0.010(5) 0.953(3)
H13? H 0.888(4) 0.253(7) 0.913(5)
H14? H 0.918(4) 0.090(8) 1.014(5)
H15? H 0.866(4) 0.052(7) 0.866(5)
#END
