
#######################################################################
#
#                 Cambridge Crystallographic Data Centre
#                                CCDC
#
#######################################################################
#
# If this CIF has been generated from an entry in the Cambridge
# Structural Database, then it will include bibliographic, chemical,
# crystal, experimental, refinement or atomic coordinate data resulting
# from the CCDC's data processing and validation procedures.
#
#######################################################################

data_CSD_CIF_MCNBZP10
_audit_creation_date 1976-05-02
_audit_creation_method CSD-ConQuest-V1
_database_code_CSD MCNBZP10
_database_code_depnum_ccdc_archive 'CCDC 1210237'
_chemical_formula_sum 'C18 H17 N1 O5'
_chemical_formula_moiety
;
C18 H17 N1 O5
;
_journal_coden_Cambridge 15
_journal_volume 53
_journal_year 1975
_journal_page_first 2127
_journal_name_full 'Can.J.Chem. '
loop_
_publ_author_name
"S.P.N.van der Heijden"
"W.D.Chandler"
"B.E.Robertson"
_chemical_name_systematic
;
2-(4'-Carbomethoxy-2'-nitrobenzoyl)-1,3,5-trimethylbenzene
;
_chemical_melting_point 394.15
_cell_volume    804.701
_exptl_crystal_density_diffrn 1.35
_exptl_special_details
;
Melting point range 394.15-395.15K

;
_diffrn_ambient_temperature ?
_diffrn_special_details
;
The study was carried out at room temperature,in the range 283-303K

;
#These two values have been output from a single CSD field.
_refine_ls_R_factor_gt 0.053
_refine_ls_wR_factor_gt 0.053
_symmetry_cell_setting triclinic
_symmetry_space_group_name_H-M 'P -1'
_symmetry_Int_Tables_number 2
loop_
_symmetry_equiv_pos_site_id
_symmetry_equiv_pos_as_xyz
1 x,y,z
2 -x,-y,-z
_cell_length_a 10.226(5)
_cell_length_b 7.672(5)
_cell_length_c 11.975(8)
_cell_angle_alpha 105.11(3)
_cell_angle_beta 100.08(3)
_cell_angle_gamma 111.50(3)
_cell_formula_units_Z 2
loop_
_atom_type_symbol
_atom_type_radius_bond
C 0.68
H 0.23
N 0.68
O 0.68
loop_
_atom_site_label
_atom_site_type_symbol
_atom_site_fract_x
_atom_site_fract_y
_atom_site_fract_z
C1 C -0.49540 0.42290 0.32490
C2 C -0.78940 0.29850 0.04860
C3 C -0.85130 0.16670 -0.07120
C4 C -0.77010 0.09580 -0.13480
C5 C -0.62330 0.15880 -0.07730
C6 C -0.55670 0.28460 0.04370
C7 C -0.88490 0.37360 0.10870
C8 C -0.84090 -0.04540 -0.26550
C9 C -0.39520 0.34900 0.09770
C10 C -0.57660 0.48600 0.23840
C11 C -0.53770 0.22510 0.31920
C12 C -0.45220 0.16760 0.38920
C13 C -0.31920 0.31290 0.47150
C14 C -0.27750 0.51260 0.48410
C15 C -0.36460 0.56600 0.41190
C16 C -0.22670 0.24550 0.54370
C17 C -0.00030 0.33910 0.68360
C18 C -0.64230 0.35320 0.10700
H1 H -0.95300 0.12000 -0.11100
H2 H -0.56100 0.11900 -0.11800
H3 H -0.98500 0.29600 0.06300
H4 H -0.87200 0.36700 0.18800
H5 H -0.86200 0.50700 0.11800
H6 H -0.93100 -0.07000 -0.30600
H7 H -0.81600 -0.15400 -0.27800
H8 H -0.78800 0.00600 -0.31400
H9 H -0.37700 0.27000 0.14700
H10 H -0.34800 0.32700 0.04200
H11 H -0.34500 0.48900 0.15000
H12 H -0.48300 0.02800 0.37900
H13 H -0.18500 0.60900 0.54200
H14 H -0.33300 0.70700 0.42400
H15 H 0.07800 0.45100 0.72400
H16 H -0.05100 0.27400 0.73900
H17 H 0.02000 0.23700 0.62600
N1 N -0.68370 0.07140 0.24120
O1 O -0.78750 0.11090 0.24950
O2 O -0.69350 -0.08620 0.17560
O3 O -0.26480 0.07580 0.54010
O4 O -0.09610 0.39360 0.61080
O5 O -0.58480 0.64290 0.27640
#END
