
#######################################################################
#
#                 Cambridge Crystallographic Data Centre
#                                CCDC
#
#######################################################################
#
# If this CIF has been generated from an entry in the Cambridge
# Structural Database, then it will include bibliographic, chemical,
# crystal, experimental, refinement or atomic coordinate data resulting
# from the CCDC's data processing and validation procedures.
#
#######################################################################

data_CSD_CIF_MCNPIZ
_audit_creation_date 1978-09-01
_audit_creation_method CSD-ConQuest-V1
_database_code_CSD MCNPIZ
_database_code_depnum_ccdc_archive 'CCDC 1210241'
_chemical_formula_sum 'C28 H20 N2 O8'
_chemical_formula_moiety
;
C28 H20 N2 O8
;
_journal_coeditor_code "IUCr A16087"
_journal_coden_Cambridge 107
_journal_volume 34
_journal_year 1978
_journal_page_first 1662
_journal_name_full 'Acta Crystallogr.,Sect.B:Struct.Crystallogr.Cryst.Chem. '
loop_
_publ_author_name
"A.C.Stergiou"
"S.C.Kokkou"
"P.J.Rentzeperis"
_chemical_name_systematic
;
3a,5-bis(Methoxycarbonyl)-3-(p-nitrophenyl)-4-oxo-6,6a-diphenyl-3a,4-dihydrocy
clopenta(2,3-d)isoxazoline
;
_chemical_melting_point 431.15
_cell_volume   1314.256
_exptl_crystal_density_diffrn 1.266
_exptl_special_details
;
Melting point range 431.15-432.15K

;
_diffrn_ambient_temperature ?
_diffrn_special_details
;
The study was carried out at room temperature,in the range 283-303K

;
#These two values have been output from a single CSD field.
_refine_ls_R_factor_gt 0.082
_refine_ls_wR_factor_gt 0.082
_symmetry_cell_setting triclinic
_symmetry_space_group_name_H-M 'P -1'
_symmetry_Int_Tables_number 2
loop_
_symmetry_equiv_pos_site_id
_symmetry_equiv_pos_as_xyz
1 x,y,z
2 -x,-y,-z
_cell_length_a 12.576(4)
_cell_length_b 10.014(3)
_cell_length_c 10.492(4)
_cell_angle_alpha 91.66(3)
_cell_angle_beta 95.52(3)
_cell_angle_gamma 88.46(3)
_cell_formula_units_Z 2
loop_
_atom_type_symbol
_atom_type_radius_bond
C 0.68
H 0.23
N 0.68
O 0.68
loop_
_atom_site_label
_atom_site_type_symbol
_atom_site_fract_x
_atom_site_fract_y
_atom_site_fract_z
O1 O -0.21740 0.24330 -0.10290
O2 O -0.25120 -0.09050 -0.41740
O3 O -0.63500 -0.41850 -0.17750
O4 O -0.58500 -0.41110 0.02570
O5 O -0.37120 0.16180 -0.49520
O6 O -0.44480 0.23140 -0.31660
O7 O -0.01240 -0.13730 -0.43060
O8 O 0.05690 -0.09270 -0.23150
N1 N -0.27810 0.14190 -0.06300
N2 N -0.58520 -0.37040 -0.08650
C1 C -0.31560 0.06700 -0.15880
C2 C -0.28000 0.11050 -0.28600
C3 C -0.21090 -0.00030 -0.35000
C4 C -0.09770 0.02350 -0.30230
C5 C -0.08790 0.14560 -0.23690
C6 C -0.19640 0.21760 -0.23590
C7 C -0.38520 -0.04780 -0.14320
C8 C -0.45180 -0.10140 -0.24450
C9 C -0.52090 -0.20400 -0.22630
C10 C -0.51450 -0.25490 -0.10680
C11 C -0.45160 -0.20800 -0.00210
C12 C -0.38500 -0.10010 -0.02200
C13 C -0.36910 0.16640 -0.37930
C14 C -0.53070 0.29890 -0.39480
C15 C -0.01340 -0.08010 -0.32890
C16 C 0.14760 -0.18460 -0.25160
C17 C 0.01080 0.21080 -0.18410
C18 C 0.01920 0.26520 -0.06090
C19 C 0.11070 0.33640 -0.01510
C20 C 0.18720 0.35480 -0.09110
C21 C 0.18410 0.29680 -0.20860
C22 C 0.08930 0.22690 -0.25510
C23 C -0.19980 0.34820 -0.30430
C24 C -0.25120 0.46080 -0.25960
C25 C -0.25460 0.58110 -0.32200
C26 C -0.20750 0.58900 -0.43470
C27 C -0.15300 0.48210 -0.48550
C28 C -0.15020 0.36170 -0.41560
H1 H -0.44900 -0.05400 -0.32500
H2 H -0.56500 -0.24500 -0.29300
H3 H -0.43400 -0.24100 0.06400
H4 H -0.34900 -0.06700 0.03900
H5 H -0.48900 0.36400 -0.43700
H6 H -0.58400 0.35200 -0.33300
H7 H -0.56400 0.24700 -0.48600
H8 H 0.12100 -0.28400 -0.28100
H9 H 0.18500 -0.15900 -0.31000
H10 H 0.18800 -0.16700 -0.18400
H11 H -0.02500 0.23800 -0.01400
H12 H 0.11400 0.35100 0.08300
H13 H 0.25200 0.40400 -0.07300
H14 H 0.22700 0.35200 -0.27500
H15 H 0.11500 0.18400 -0.32800
H16 H -0.29400 0.46000 -0.19000
H17 H -0.29100 0.64800 -0.31500
H18 H -0.21900 0.67000 -0.48700
H19 H -0.09700 0.49600 -0.55700
H20 H -0.09800 0.30200 -0.44800
#END
