
#######################################################################
#
#                 Cambridge Crystallographic Data Centre
#                                CCDC
#
#######################################################################
#
# If this CIF has been generated from an entry in the Cambridge
# Structural Database, then it will include bibliographic, chemical,
# crystal, experimental, refinement or atomic coordinate data resulting
# from the CCDC's data processing and validation procedures.
#
#######################################################################

data_CSD_CIF_MDNPUR
_audit_creation_date 1975-08-29
_audit_creation_method CSD-ConQuest-V1
_database_code_CSD MDNPUR
_chemical_formula_sum 'C15 H12 N6 O9'
_chemical_formula_moiety
;
C15 H12 N6 O9
;
_journal_coden_Cambridge 189
_journal_volume 4
_journal_year 1975
_journal_page_first 351
_journal_name_full 'Cryst.Struct.Commun. '
loop_
_publ_author_name
"U.Lepore"
"G.C.Lepore"
"P.Ganis"
"M.Goodman"
_chemical_name_systematic
;
N,N'-Dimethyl-N,N'-di(2,4-dinitrophenyl)urea
;
_cell_volume   1706.515
_diffrn_ambient_temperature ?
_diffrn_special_details
;
The study was carried out at room temperature,in the range 283-303K

;
#These two values have been output from a single CSD field.
_refine_ls_R_factor_gt 0.093
_refine_ls_wR_factor_gt 0.093
_symmetry_cell_setting orthorhombic
_symmetry_space_group_name_H-M 'P b c n'
_symmetry_Int_Tables_number 60
loop_
_symmetry_equiv_pos_site_id
_symmetry_equiv_pos_as_xyz
1 x,y,z
2 1/2-x,1/2+y,z
3 x,-y,1/2+z
4 1/2-x,1/2-y,1/2+z
5 -x,-y,-z
6 -1/2+x,-1/2-y,-z
7 -x,y,-1/2-z
8 -1/2+x,-1/2+y,-1/2-z
_cell_length_a 6.89(1)
_cell_length_b 10.32(2)
_cell_length_c 24.0(5)
_cell_angle_alpha 90
_cell_angle_beta 90
_cell_angle_gamma 90
_cell_formula_units_Z 4
loop_
_atom_type_symbol
_atom_type_radius_bond
C 0.68
N 0.68
O 0.68
loop_
_atom_site_label
_atom_site_type_symbol
_atom_site_fract_x
_atom_site_fract_y
_atom_site_fract_z
C1 C -0.40610 -0.46870 -0.15420
O10 O -0.50000 -0.59670 -0.25000
C10 C -0.50000 -0.48280 -0.25000
C11 C -0.30240 -0.29840 -0.21860
C2 C -0.24340 -0.44180 -0.12070
C3 C -0.21850 -0.49760 -0.06880
C4 C -0.35430 -0.58400 -0.05020
C5 C -0.51700 -0.61390 -0.08130
C6 C -0.54500 -0.55380 -0.13160
N1 N -0.73470 -0.57550 -0.15700
N10 N -0.42460 -0.41100 -0.20610
N2 N -0.33110 -0.64320 0.00420
O1 O -0.80880 -0.48980 -0.18340
O2 O -0.80680 -0.67980 -0.14940
O3 O -0.42390 -0.73540 0.01570
O4 O -0.21290 -0.59550 0.03600
N10F N -0.57540 -0.41100 -0.29390
C1F C -0.59390 -0.46870 -0.34580
C11F C -0.69760 -0.29840 -0.28140
C2F C -0.75660 -0.44180 -0.37930
C6F C -0.45500 -0.55380 -0.36840
C3F C -0.78150 -0.49760 -0.43120
C5F C -0.48300 -0.61390 -0.41870
N1F N -0.26530 -0.57550 -0.34300
C4F C -0.64570 -0.58400 -0.44980
O1F O -0.19120 -0.48980 -0.31660
O2F O -0.19320 -0.67980 -0.35060
N2F N -0.66890 -0.64320 -0.50420
O3F O -0.57610 -0.73540 -0.51570
O4F O -0.78710 -0.59550 -0.53600
#END
