
#######################################################################
#
#                 Cambridge Crystallographic Data Centre
#                                CCDC
#
#######################################################################
#
# If this CIF has been generated from an entry in the Cambridge
# Structural Database, then it will include bibliographic, chemical,
# crystal, experimental, refinement or atomic coordinate data resulting
# from the CCDC's data processing and validation procedures.
#
#######################################################################

data_CSD_CIF_MEBDAA
_audit_creation_date 2013-01-14
_audit_creation_method CSD-ConQuest-V1
_database_code_CSD MEBDAA
_database_code_depnum_ccdc_archive 'CCDC 855354'
_chemical_formula_sum 'C15 H19 N1 O5'
_chemical_formula_moiety
;
C15 H19 N1 O5
;
_journal_coden_Cambridge 1220
_journal_volume 18
_journal_year 2012
_journal_page_first 10742
_journal_name_full 'Chem.-Eur.J. '
loop_
_publ_author_name
"P.G.McGarraugh"
"R.C.Johnston"
"A.Martinez-Munoz"
"P.H.-Y.Cheong"
"S.E.Brenner-Moyer"
_chemical_name_systematic
;
2-(5-Methyltetrahydrofuran-2-yl)-4-nitro-3-phenylbutanoic acid
;
_cell_volume   1453.614
_exptl_crystal_colour 'colorless'
_exptl_crystal_density_diffrn 1.34
_exptl_crystal_description 'needle'
_diffrn_ambient_temperature 100
#These two values have been output from a single CSD field.
_refine_ls_R_factor_gt 0.0535
_refine_ls_wR_factor_gt 0.0535
_symmetry_cell_setting monoclinic
_symmetry_space_group_name_H-M 'P 21/c'
_symmetry_Int_Tables_number 14
loop_
_symmetry_equiv_pos_site_id
_symmetry_equiv_pos_as_xyz
1 x,y,z
2 -x,1/2+y,1/2-z
3 -x,-y,-z
4 x,-1/2-y,-1/2+z
_cell_length_a 12.347(2)
_cell_length_b 5.8167(10)
_cell_length_c 20.782(4)
_cell_angle_alpha 90
_cell_angle_beta 103.114(3)
_cell_angle_gamma 90
_cell_formula_units_Z 4
loop_
_atom_type_symbol
_atom_type_radius_bond
C 0.68
H 0.23
N 0.68
O 0.68
loop_
_atom_site_label
_atom_site_type_symbol
_atom_site_fract_x
_atom_site_fract_y
_atom_site_fract_z
O1 O 0.94963(7) 0.30220(15) 0.57254(4)
O2 O 0.80502(7) -0.08493(15) 0.44574(5)
H1 H 0.9803(18) -0.048(4) 0.4273(11)
O3 O 0.95610(7) 0.10483(16) 0.43277(4)
O4 O 0.47327(8) 0.49156(19) 0.41816(5)
O5 O 0.42562(8) 0.1340(2) 0.41765(6)
N1 N 0.49520(9) 0.2883(2) 0.42854(5)
C1 C 1.00047(16) 0.2308(3) 0.69051(7)
H2 H 1.06560 0.14330 0.68510
H3 H 0.93700 0.12660 0.68700
H4 H 1.01670 0.30500 0.73400
C2 C 0.97295(10) 0.4113(2) 0.63753(6)
H5 H 1.03780 0.51740 0.64140
C3 C 0.86950(11) 0.5515(2) 0.63993(6)
H6 H 0.82590 0.47630 0.66860
H7 H 0.88990 0.70850 0.65680
C4 C 0.80387(10) 0.5586(2) 0.56840(6)
H8 H 0.72300 0.57090 0.56570
H9 H 0.82780 0.68860 0.54410
C5 C 0.83308(9) 0.3300(2) 0.54201(5)
H10 H 0.78910 0.20450 0.55690
C6 C 0.81717(9) 0.32093(19) 0.46685(5)
H11 H 0.86450 0.44370 0.45360
C7 C 0.85707(9) 0.09207(19) 0.44703(5)
C8 C 0.69440(9) 0.3686(2) 0.43098(6)
H12 H 0.67890 0.53280 0.44000
C9 C 0.61284(10) 0.2232(2) 0.45894(6)
H13 H 0.62420 0.05870 0.45020
H14 H 0.62740 0.24510 0.50740
C10 C 0.67749(9) 0.3453(2) 0.35637(5)
C11 C 0.62894(11) 0.1521(2) 0.32153(6)
H15 H 0.60570 0.02750 0.34470
C12 C 0.61432(11) 0.1404(2) 0.25327(6)
H16 H 0.58050 0.00850 0.23020
C13 C 0.64858(12) 0.3191(2) 0.21872(6)
H17 H 0.63880 0.31030 0.17210
C14 C 0.69739(12) 0.5114(2) 0.25292(6)
H18 H 0.72160 0.63460 0.22960
C15 C 0.71114(10) 0.5246(2) 0.32111(6)
H19 H 0.74390 0.65790 0.34390
#END
