
#######################################################################
#
#                 Cambridge Crystallographic Data Centre
#                                CCDC
#
#######################################################################
#
# If this CIF has been generated from an entry in the Cambridge
# Structural Database, then it will include bibliographic, chemical,
# crystal, experimental, refinement or atomic coordinate data resulting
# from the CCDC's data processing and validation procedures.
#
#######################################################################

data_CSD_CIF_MEDXUR
_audit_creation_date 2017-08-29
_audit_creation_method CSD-ConQuest-V1
_database_code_CSD MEDXUR
_database_code_depnum_ccdc_archive 'CCDC 1460748'
_chemical_formula_sum 'C24 H23 N1 O5'
_chemical_formula_moiety
;
C24 H23 N1 O5
;
_journal_coden_Cambridge 1220
_journal_volume 23
_journal_year 2017
_journal_page_first 9716
_journal_name_full 'Chem.-Eur.J. '
loop_
_publ_author_name
"I.D.Jurberg"
_chemical_name_systematic
;
4-((R)-((S)-8-oxo-1,4-dioxaspiro[4.5]decan-7-yl)(phenyl)methyl)-3-phenylisoxaz
ol-5(2H)-one
;
_cell_volume   2041.827
_exptl_crystal_colour 'colorless'
_exptl_crystal_density_diffrn 1.319
_exptl_special_details
;
Absolute configuration

;
_exptl_crystal_description 'irregular'
_diffrn_ambient_temperature 150
#These two values have been output from a single CSD field.
_refine_ls_R_factor_gt 0.0515
_refine_ls_wR_factor_gt 0.0515
_symmetry_cell_setting orthorhombic
_symmetry_space_group_name_H-M 'P 21 21 21'
_symmetry_Int_Tables_number 19
loop_
_symmetry_equiv_pos_site_id
_symmetry_equiv_pos_as_xyz
1 x,y,z
2 1/2+x,1/2-y,-z
3 -x,1/2+y,1/2-z
4 1/2-x,-y,1/2+z
_cell_length_a 8.7182(12)
_cell_length_b 10.0061(14)
_cell_length_c 23.406(3)
_cell_angle_alpha 90
_cell_angle_beta 90
_cell_angle_gamma 90
_cell_formula_units_Z 4
loop_
_atom_type_symbol
_atom_type_radius_bond
C 0.68
H 0.23
N 0.68
O 0.68
loop_
_atom_site_label
_atom_site_type_symbol
_atom_site_fract_x
_atom_site_fract_y
_atom_site_fract_z
O1 O 0.2747(3) -0.0758(3) 0.10034(9)
O2 O 0.4528(3) -0.1118(3) 0.16839(11)
O3 O 0.5309(3) 0.3527(4) 0.18040(12)
O4 O 1.0080(3) 0.2747(2) 0.23006(9)
O5 O 0.9012(3) 0.0748(2) 0.21265(10)
N1 N 1.0085(4) 0.3987(3) 0.20322(13)
H1 H 1.030(5) 0.473(4) 0.2230(19)
C1 C 0.2393(7) -0.1999(7) 0.1244(2)
H2 H 0.24170 -0.27070 0.09490
H3 H 0.13580 -0.19790 0.14180
C2 C 0.3581(7) -0.2255(7) 0.1689(3)
H4 H 0.31000 -0.23740 0.20680
H5 H 0.41790 -0.30670 0.15950
C3 C 0.3783(3) -0.0094(4) 0.13716(12)
C4 C 0.2895(4) 0.0843(6) 0.17703(16)
H6 H 0.22770 0.14740 0.15400
H7 H 0.21840 0.03120 0.20100
C5 C 0.3985(5) 0.1627(7) 0.21542(16)
H8 H 0.33970 0.22850 0.23820
H9 H 0.45040 0.10080 0.24220
C6 C 0.5160(4) 0.2338(6) 0.17980(14)
C7 C 0.6093(3) 0.1411(4) 0.14044(12)
H10 H 0.66230 0.07360 0.16500
C8 C 0.4944(3) 0.0661(3) 0.10193(13)
H11 H 0.44070 0.13090 0.07700
H12 H 0.55070 0.00270 0.07710
C9 C 0.7330(3) 0.2228(3) 0.10939(11)
H13 H 0.68100 0.30530 0.09490
C10 C 0.8015(3) 0.1542(3) 0.05759(11)
C11 C 0.7336(4) 0.1710(4) 0.00391(12)
H14 H 0.64390 0.22440 0.00050
C12 C 0.7951(5) 0.1108(4) -0.04445(13)
H15 H 0.74670 0.12250 -0.08050
C13 C 0.9263(5) 0.0340(4) -0.04035(14)
H16 H 0.96910 -0.00680 -0.07330
C14 C 0.9940(4) 0.0175(4) 0.01220(14)
H17 H 1.08430 -0.03500 0.01530
C15 C 0.9326(3) 0.0764(3) 0.06084(12)
H18 H 0.98100 0.06310 0.09670
C16 C 0.8526(3) 0.2694(3) 0.15226(12)
C17 C 0.9136(4) 0.1923(3) 0.19805(12)
C18 C 0.9101(4) 0.3950(3) 0.15857(12)
C19 C 0.8777(4) 0.5175(3) 0.12651(13)
C20 C 0.8835(4) 0.5189(4) 0.06730(14)
H19 H 0.91250 0.44050 0.04710
C21 C 0.8474(5) 0.6335(4) 0.03772(16)
H20 H 0.85420 0.63450 -0.00280
C22 C 0.8018(5) 0.7461(4) 0.06617(17)
H21 H 0.77240 0.82350 0.04540
C23 C 0.7984(6) 0.7472(4) 0.12561(18)
H22 H 0.76910 0.82570 0.14570
C24 C 0.8380(5) 0.6332(4) 0.15497(14)
H23 H 0.83790 0.63410 0.19560
#END
