
#######################################################################
#
#                 Cambridge Crystallographic Data Centre
#                                CCDC
#
#######################################################################
#
# If this CIF has been generated from an entry in the Cambridge
# Structural Database, then it will include bibliographic, chemical,
# crystal, experimental, refinement or atomic coordinate data resulting
# from the CCDC's data processing and validation procedures.
#
#######################################################################

data_CSD_CIF_MEDXOL
_audit_creation_date 2017-08-29
_audit_creation_method CSD-ConQuest-V1
_database_code_CSD MEDXOL
_database_code_depnum_ccdc_archive 'CCDC 1457910'
_chemical_formula_sum 'C17 H15 N1 O2'
_chemical_formula_moiety
;
C17 H15 N1 O2
;
_journal_coden_Cambridge 1220
_journal_volume 23
_journal_year 2017
_journal_page_first 9716
_journal_name_full 'Chem.-Eur.J. '
loop_
_publ_author_name
"I.D.Jurberg"
_chemical_name_systematic
;
3-isopropyl-4-(2-naphthylmethylene)-1,2-oxazol-5(4H)-one
;
_cell_volume   1373.865
_exptl_crystal_colour 'yellow'
_exptl_crystal_density_diffrn 1.283
_exptl_crystal_description 'needle'
_diffrn_ambient_temperature 296
#These two values have been output from a single CSD field.
_refine_ls_R_factor_gt 0.049
_refine_ls_wR_factor_gt 0.049
_symmetry_cell_setting monoclinic
_symmetry_space_group_name_H-M 'P 21/c'
_symmetry_Int_Tables_number 14
loop_
_symmetry_equiv_pos_site_id
_symmetry_equiv_pos_as_xyz
1 x,y,z
2 -x,1/2+y,1/2-z
3 -x,-y,-z
4 x,-1/2-y,-1/2+z
_cell_length_a 13.7578(18)
_cell_length_b 7.2909(8)
_cell_length_c 13.7080(17)
_cell_angle_alpha 90
_cell_angle_beta 92.333(3)
_cell_angle_gamma 90
_cell_formula_units_Z 4
loop_
_atom_type_symbol
_atom_type_radius_bond
C 0.68
H 0.23
N 0.68
O 0.68
loop_
_atom_site_label
_atom_site_type_symbol
_atom_site_fract_x
_atom_site_fract_y
_atom_site_fract_z
O1 O 0.69265(13) 0.6435(3) 0.41666(11)
O2 O 0.84751(12) 0.6742(3) 0.37914(11)
N1 N 0.90387(13) 0.6946(3) 0.29219(14)
C1 C 0.21058(16) 0.6366(3) 0.28500(17)
H1 H 0.14320 0.64260 0.28680
C2 C 0.26648(16) 0.6144(3) 0.37200(16)
H2 H 0.23600 0.60440 0.43110
C3 C 0.36515(15) 0.6073(3) 0.37029(15)
H3 H 0.40150 0.59080 0.42830
C4 C 0.41297(14) 0.6246(2) 0.28222(13)
C5 C 0.51534(14) 0.6253(2) 0.27915(13)
H4 H 0.55250 0.61290 0.33700
C6 C 0.56159(14) 0.6440(2) 0.19242(14)
C7 C 0.66582(13) 0.6558(2) 0.18299(13)
H5 H 0.68350 0.66090 0.11830
C8 C 0.74324(14) 0.6612(3) 0.24690(14)
C9 C 0.84364(14) 0.6852(2) 0.21941(14)
C10 C 0.87839(13) 0.6985(3) 0.11720(14)
H6 H 0.83200 0.77580 0.07980
C11 C 0.97801(17) 0.7879(4) 0.1126(2)
H7 H 0.97710 0.90510 0.14450
H8 H 0.99390 0.80410 0.04560
H9 H 1.02590 0.71080 0.14480
C12 C 0.35651(15) 0.6429(3) 0.19409(14)
C13 C 0.40449(15) 0.6561(3) 0.10615(14)
H10 H 0.36810 0.66410 0.04770
C14 C 0.50295(15) 0.6573(3) 0.10460(14)
H11 H 0.53280 0.66690 0.04510
C15 C 0.75105(17) 0.6565(3) 0.35365(16)
C16 C 0.87807(18) 0.5113(3) 0.06921(17)
H12 H 0.92430 0.43320 0.10330
H13 H 0.89550 0.52360 0.00240
H14 H 0.81430 0.45840 0.07160
C17 C 0.25373(15) 0.6493(3) 0.19867(17)
H15 H 0.21570 0.66240 0.14150
#END
