
#######################################################################
#
#                 Cambridge Crystallographic Data Centre
#                                CCDC
#
#######################################################################
#
# If this CIF has been generated from an entry in the Cambridge
# Structural Database, then it will include bibliographic, chemical,
# crystal, experimental, refinement or atomic coordinate data resulting
# from the CCDC's data processing and validation procedures.
#
#######################################################################

data_CSD_CIF_MEDYIF
_audit_creation_date 2012-09-26
_audit_creation_method CSD-ConQuest-V1
_database_code_CSD MEDYIF
_database_code_depnum_ccdc_archive 'CCDC 860567'
_chemical_formula_sum 'C29 H26 N4 O3'
_chemical_formula_moiety
;
C29 H26 N4 O3
;
_journal_coden_Cambridge 177
_journal_volume 10
_journal_year 2012
_journal_page_first 6649
_journal_name_full 'Org.Biomol.Chem. '
loop_
_publ_author_name
"L.J.Watson"
"R.W.Harrington"
"W.Clegg"
"M.J.Hall"
_chemical_name_systematic
;
1-Benzyl-4-(hydroxy(2-methylphenyl)amino)-7-phenyl-4,5,5a,8a-tetrahydroimidazo
[4,5-e]isoindole-6,8(1H,7H)-dione
;
_cell_volume   2476.098
_exptl_crystal_colour 'yellow'
_exptl_crystal_density_diffrn 1.284
_exptl_crystal_description 'block'
_diffrn_ambient_temperature 150
_diffrn_radiation_probe x-ray
_diffrn_source synchrotron
_refine_special_details
;
C16,C17,C18,C19,C20,C21,C22 and C16A,C17A,C18A,C19A, C20A,C21A,C22A 
disordered over two sites with occupancies 0.698:0.302; 
C23,C24,C25,C26,C27,C28,C29 and C23A,C24A,C25A,C26A,C27A,C28A,C29A and 
C23B,C24B,C25B,C26B,C27B,C28B,C29B disordered over three sites with 
occupancies 0.534:0.303:0.163.
;
#These two values have been output from a single CSD field.
_refine_ls_R_factor_gt 0.0614
_refine_ls_wR_factor_gt 0.0614
_symmetry_cell_setting monoclinic
_symmetry_space_group_name_H-M 'P 21/n'
_symmetry_Int_Tables_number 14
loop_
_symmetry_equiv_pos_site_id
_symmetry_equiv_pos_as_xyz
1 x,y,z
2 1/2-x,1/2+y,1/2-z
3 -x,-y,-z
4 -1/2+x,-1/2-y,-1/2+z
_cell_length_a 17.055(3)
_cell_length_b 7.5478(12)
_cell_length_c 19.591(3)
_cell_angle_alpha 90
_cell_angle_beta 100.937(2)
_cell_angle_gamma 90
_cell_formula_units_Z 4
loop_
_atom_type_symbol
_atom_type_radius_bond
C 0.68
H 0.23
N 0.68
O 0.68
loop_
_atom_site_label
_atom_site_type_symbol
_atom_site_fract_x
_atom_site_fract_y
_atom_site_fract_z
O1 O 0.40975(9) 0.5744(2) 0.79812(7)
O2 O 0.28622(8) 1.06181(18) 0.68967(7)
O3 O 0.43541(8) 0.33531(17) 0.54030(7)
H1 H 0.4615(16) 0.320(4) 0.5030(14)
N1 N 0.35310(9) 0.8412(2) 0.75873(7)
N2 N 0.45331(9) 0.7679(2) 0.53445(7)
C1 C 0.41808(10) 0.6998(2) 0.58650(8)
C2 C 0.44612(10) 0.5423(2) 0.63046(9)
H2 H 0.48240 0.58500 0.67350
C3 C 0.37229(11) 0.4582(2) 0.65205(10)
H3 H 0.33810 0.40480 0.61070
H4 H 0.38970 0.36240 0.68610
C4 C 0.32391(11) 0.5936(2) 0.68412(9)
H5 H 0.27440 0.53290 0.69230
C5 C 0.36797(11) 0.6597(2) 0.75365(9)
C6 C 0.30933(10) 0.9108(2) 0.69736(9)
C7 C 0.29769(10) 0.7642(2) 0.64231(9)
H6 H 0.24050 0.75630 0.61850
C8 C 0.35066(10) 0.7934(2) 0.59093(8)
C9 C 0.40663(11) 0.8996(3) 0.50768(9)
H7 H 0.41590 0.97020 0.46990
C10 C 0.37778(11) 0.9399(2) 0.82172(9)
C11 C 0.41692(13) 1.1004(3) 0.82085(11)
H8 H 0.42800 1.14630 0.77850
C12 C 0.43972(15) 1.1932(3) 0.88246(12)
H9 H 0.46640 1.30360 0.88230
C13 C 0.42392(14) 1.1261(3) 0.94402(11)
H10 H 0.43970 1.19030 0.98610
C14 C 0.38538(14) 0.9665(3) 0.94424(10)
H11 H 0.37500 0.92020 0.98680
C15 C 0.36141(12) 0.8719(3) 0.88317(10)
H12 H 0.33420 0.76220 0.88350
N3 N 0.49173(9) 0.4224(2) 0.59410(8)
C16 C 0.5392(3) 0.2887(8) 0.6346(3)
C17 C 0.5073(5) 0.1276(9) 0.6494(4)
H13 H 0.45220 0.10330 0.63350
C18 C 0.5566(4) 0.0023(11) 0.6876(5)
H14 H 0.53570 -0.10890 0.69820
C19 C 0.6357(3) 0.0409(6) 0.7099(3)
H15 H 0.66980 -0.04410 0.73620
C20 C 0.6669(2) 0.2033(5) 0.6944(3)
H16 H 0.72220 0.22620 0.70970
C21 C 0.6188(2) 0.3329(5) 0.6570(2)
C22 C 0.6529(2) 0.5065(6) 0.6391(3)
H17 H 0.71040 0.50900 0.65790
H18 H 0.62670 0.60380 0.65920
H19 H 0.64390 0.52000 0.58850
N4 N 0.34419(9) 0.9229(2) 0.53991(7)
C23 C 0.2794(8) 1.0511(18) 0.5185(8)
H20 H 0.30250 1.16690 0.50920
H21 H 0.24990 1.06770 0.55700
C24 C 0.2221(4) 0.9916(14) 0.4545(4)
C25 C 0.2011(5) 0.8168(14) 0.4445(5)
H22 H 0.22720 0.73210 0.47700
C26 C 0.1424(5) 0.7565(15) 0.3880(4)
H23 H 0.12850 0.63480 0.38220
C27 C 0.1069(4) 0.8836(17) 0.3424(4)
H24 H 0.06760 0.84870 0.30370
C28 C 0.1265(6) 1.0596(16) 0.3510(4)
H25 H 0.10100 1.14530 0.31880
C29 C 0.1841(4) 1.1103(10) 0.4075(2)
H26 H 0.19740 1.23220 0.41350
C30? C 0.5336(7) 0.3012(17) 0.6496(7)
C31? C 0.5114(12) 0.122(2) 0.6531(12)
C32? C 0.5551(9) 0.004(3) 0.6989(10)
C33? C 0.6243(6) 0.0534(12) 0.7423(6)
C34? C 0.6497(5) 0.2256(10) 0.7388(7)
C35? C 0.6069(4) 0.3477(9) 0.6931(7)
C36? C 0.6374(5) 0.5341(10) 0.6939(11)
C37? C 0.2742(14) 1.026(3) 0.5098(17)
C38? C 0.2825(15) 1.062(4) 0.5263(14)
C39? C 0.2120(6) 0.9255(13) 0.4614(6)
C40? C 0.2194(9) 1.032(3) 0.4627(8)
C41? C 0.2196(7) 0.7528(14) 0.4425(7)
C42? C 0.1428(6) 0.9921(16) 0.4686(6)
C43? C 0.1617(7) 0.6645(16) 0.3950(6)
C44? C 0.0834(9) 0.938(3) 0.4154(7)
C45? C 0.0923(6) 0.7485(16) 0.3675(7)
C46? C 0.1015(10) 0.973(3) 0.3509(8)
C47? C 0.0837(9) 0.922(2) 0.3865(11)
C48? C 0.1769(10) 1.010(3) 0.3390(7)
C49? C 0.1458(8) 1.0102(19) 0.4288(8)
C50? C 0.2362(8) 1.044(2) 0.3974(6)
H27? H 0.46480 0.08110 0.62280
H28? H 0.53670 -0.11420 0.70030
H29? H 0.65380 -0.02880 0.77390
H30? H 0.69780 0.26220 0.76830
H31? H 0.68850 0.54280 0.72650
H32? H 0.59860 0.61470 0.70850
H33? H 0.64510 0.56680 0.64720
H34? H 0.29160 1.12760 0.48430
H35? H 0.25000 1.07440 0.54790
H36? H 0.30890 1.17690 0.52140
H37? H 0.25630 1.07120 0.56710
H38? H 0.26660 0.69020 0.46270
H39? H 0.12950 1.00260 0.51340
H40? H 0.17050 0.54610 0.38190
H41? H 0.03540 0.88270 0.42200
H42? H 0.05130 0.68950 0.33620
H43? H 0.05880 0.97220 0.31190
H44? H 0.03460 0.98130 0.37040
H45? H 0.18820 1.01150 0.29330
H46? H 0.14160 1.13440 0.43510
H47? H 0.28840 1.07570 0.39150
#END
