
#######################################################################
#
#                 Cambridge Crystallographic Data Centre
#                                CCDC
#
#######################################################################
#
# If this CIF has been generated from an entry in the Cambridge
# Structural Database, then it will include bibliographic, chemical,
# crystal, experimental, refinement or atomic coordinate data resulting
# from the CCDC's data processing and validation procedures.
#
#######################################################################

data_CSD_CIF_MEFTAT
_audit_creation_date 2006-06-12
_audit_creation_method CSD-ConQuest-V1
_database_code_CSD MEFTAT
_database_code_depnum_ccdc_archive 'CCDC 603832'
_database_code_depnum_ccdc_journal 1267/1657
_chemical_formula_sum 'C16 H22 N4 O3'
_chemical_formula_moiety
;
C16 H22 N4 O3
;
_journal_coden_Cambridge 1267
_journal_volume 220
_journal_year 2005
_journal_page_first 599
_journal_name_full 'Z.Kristallogr.-New Cryst.Struct. '
loop_
_publ_author_name
"A.Al-Harrasi"
"I.Brudgam"
"H.Hartl"
"H.-U.Reissig"
_chemical_name_systematic
;
(1R,5S,8R,9S)-8-Azidomethyl-2-benzyl-6,6-dimethyl-3,7-dioxa-2-azabicyclo(3.3.1
)nonan-9-ol
;
_chemical_melting_point 420
_cell_volume   1638.107
_exptl_crystal_colour 'colorless'
_exptl_crystal_density_diffrn 1.291
_exptl_special_details
;
Melting point range 420-422K

;
_exptl_crystal_description 'needle'
_exptl_crystal_preparation 'hexane/ethyl acetate'
_diffrn_ambient_temperature 173
#These two values have been output from a single CSD field.
_refine_ls_R_factor_gt 0.0511
_refine_ls_wR_factor_gt 0.0511
_symmetry_cell_setting orthorhombic
_symmetry_space_group_name_H-M 'P 21 21 21'
_symmetry_Int_Tables_number 19
loop_
_symmetry_equiv_pos_site_id
_symmetry_equiv_pos_as_xyz
1 x,y,z
2 1/2-x,-y,1/2+z
3 1/2+x,1/2-y,-z
4 -x,1/2+y,1/2-z
_cell_length_a 5.959(5)
_cell_length_b 8.099(5)
_cell_length_c 33.942(5)
_cell_angle_alpha 90
_cell_angle_beta 90
_cell_angle_gamma 90
_cell_formula_units_Z 4
loop_
_atom_type_symbol
_atom_type_radius_bond
C 0.68
H 0.23
N 0.68
O 0.68
loop_
_atom_site_label
_atom_site_type_symbol
_atom_site_fract_x
_atom_site_fract_y
_atom_site_fract_z
O1 O 0.4782(6) -0.0769(4) 0.14421(9)
O2 O 0.3841(5) 0.2347(4) 0.17419(10)
O3 O -0.1548(7) 0.1466(5) 0.14847(13)
N1 N 0.3862(7) -0.0022(5) 0.10883(12)
N2 N 0.4925(9) 0.5225(5) 0.12563(14)
N3 N 0.6612(11) 0.5410(6) 0.14631(16)
N4 N 0.8123(11) 0.5777(7) 0.16535(18)
C1 C 0.1953(10) 0.1059(7) 0.11813(17)
C2 C 0.3105(9) -0.1459(7) 0.17043(15)
H1 H 0.38330 -0.19190 0.19350
H2 H 0.23090 -0.23430 0.15710
C3 C 0.1452(10) -0.0131(7) 0.18298(15)
C4 C 0.2550(9) 0.1389(7) 0.20281(16)
C5 C 0.2778(10) 0.2690(7) 0.13691(16)
C6 C 0.0212(9) 0.0296(7) 0.14474(15)
H3 H -0.03690 -0.07160 0.13270
C7 C 0.0855(10) 0.2533(7) 0.22229(16)
H4 H -0.02410 0.28730 0.20320
H5 H 0.16150 0.34860 0.23250
H6 H 0.01210 0.19600 0.24340
C8 C 0.4329(10) 0.0920(7) 0.23267(15)
H7 H 0.48700 0.18970 0.24550
H8 H 0.55500 0.03790 0.21950
H9 H 0.36930 0.01870 0.25190
C9 C 0.4473(10) 0.3552(6) 0.11181(15)
H10 H 0.58600 0.29240 0.11190
H11 H 0.39300 0.35980 0.08490
C10 C 0.3320(11) -0.1292(7) 0.08032(14)
H12 H 0.17930 -0.16690 0.08440
H13 H 0.43180 -0.22270 0.08380
C11 C 0.3566(10) -0.0609(6) 0.03884(15)
C12 C 0.1954(10) -0.1004(6) 0.01080(16)
H14 H 0.07080 -0.16320 0.01770
C13 C 0.2228(11) -0.0443(7) -0.02819(16)
H15 H 0.11750 -0.07140 -0.04740
C14 C 0.4077(12) 0.0515(7) -0.03780(17)
H16 H 0.42520 0.08910 -0.06350
C15 C 0.5666(10) 0.0917(7) -0.00970(17)
H17 H 0.69030 0.15630 -0.01610
C16 C 0.5364(10) 0.0335(7) 0.02802(15)
H18 H 0.64320 0.05950 0.04700
H19 H -0.311(14) 0.077(9) 0.158(2)
H20 H 0.137(7) 0.127(5) 0.0960(13)
H21 H 0.036(7) -0.067(5) 0.2023(13)
H22 H 0.144(10) 0.337(7) 0.1401(15)
#END
