
#######################################################################
#
#                 Cambridge Crystallographic Data Centre
#                                CCDC
#
#######################################################################
#
# If this CIF has been generated from an entry in the Cambridge
# Structural Database, then it will include bibliographic, chemical,
# crystal, experimental, refinement or atomic coordinate data resulting
# from the CCDC's data processing and validation procedures.
#
#######################################################################

data_CSD_CIF_MEGDOS
_audit_creation_date 2006-06-13
_audit_creation_method CSD-ConQuest-V1
_database_code_CSD MEGDOS
_database_code_depnum_ccdc_archive 'CCDC 288483'
_chemical_formula_sum 'C6 H6 N2 O2'
_chemical_formula_moiety
;
C6 H6 N2 O2
;
_journal_coden_Cambridge 182
_journal_year 2006
_journal_page_first 1369
_journal_name_full 'Chem.Commun. '
loop_
_publ_author_name
"L.S.Reddy"
"N.J.Babu"
"A.Nangia"
_chemical_name_systematic
;
Pyridine-2-carboxamide-N-oxide
;
_cell_volume   1244.624
_exptl_crystal_colour 'colorless'
_exptl_crystal_density_diffrn 1.474
_exptl_crystal_description 'plate'
_diffrn_ambient_temperature 298
#These two values have been output from a single CSD field.
_refine_ls_R_factor_gt 0.0504
_refine_ls_wR_factor_gt 0.0504
_symmetry_cell_setting orthorhombic
_symmetry_space_group_name_H-M 'P b c a'
_symmetry_Int_Tables_number 61
loop_
_symmetry_equiv_pos_site_id
_symmetry_equiv_pos_as_xyz
1 x,y,z
2 1/2-x,-y,1/2+z
3 -x,1/2+y,1/2-z
4 1/2+x,1/2-y,-z
5 -x,-y,-z
6 -1/2+x,y,-1/2-z
7 x,-1/2-y,-1/2+z
8 -1/2-x,-1/2+y,z
_cell_length_a 12.940(3)
_cell_length_b 7.3496(19)
_cell_length_c 13.087(3)
_cell_angle_alpha 90
_cell_angle_beta 90
_cell_angle_gamma 90
_cell_formula_units_Z 8
loop_
_atom_type_symbol
_atom_type_radius_bond
C 0.68
H 0.23
N 0.68
O 0.68
loop_
_atom_site_label
_atom_site_type_symbol
_atom_site_fract_x
_atom_site_fract_y
_atom_site_fract_z
O1 O 0.66047(10) 0.0112(2) 0.53101(10)
O2 O 0.93897(9) 0.1481(2) 0.40292(11)
N1 N 0.66609(11) 0.0915(2) 0.44170(12)
N2 N 0.86090(15) 0.0121(3) 0.53560(14)
H1 H 0.794(2) -0.020(3) 0.5584(19)
H2 H 0.9173(18) -0.031(3) 0.5579(17)
C1 C 0.75791(13) 0.1415(2) 0.39904(14)
C2 C 0.75688(15) 0.2249(3) 0.30481(15)
H3 H 0.81930 0.25970 0.27540
C3 C 0.66675(16) 0.2583(3) 0.25309(16)
H4 H 0.66720 0.31510 0.18960
C4 C 0.57611(16) 0.2055(3) 0.29792(17)
H5 H 0.51380 0.22580 0.26450
C5 C 0.57649(15) 0.1234(3) 0.39118(17)
H6 H 0.51420 0.08850 0.42070
C6 C 0.86057(14) 0.1008(3) 0.44815(15)
#END
