
#######################################################################
#
#                 Cambridge Crystallographic Data Centre
#                                CCDC
#
#######################################################################
#
# If this CIF has been generated from an entry in the Cambridge
# Structural Database, then it will include bibliographic, chemical,
# crystal, experimental, refinement or atomic coordinate data resulting
# from the CCDC's data processing and validation procedures.
#
#######################################################################

data_CSD_CIF_MEGDAE
_audit_creation_date 2006-06-13
_audit_creation_method CSD-ConQuest-V1
_database_code_CSD MEGDAE
_database_code_depnum_ccdc_archive 'CCDC 288480'
_chemical_formula_sum 'C6 H6 N2 O2'
_chemical_formula_moiety
;
C6 H6 N2 O2
;
_journal_coden_Cambridge 182
_journal_year 2006
_journal_page_first 1369
_journal_name_full 'Chem.Commun. '
loop_
_publ_author_name
"L.S.Reddy"
"N.J.Babu"
"A.Nangia"
_chemical_name_systematic
;
Isonicotinamide-N-oxide
;
_cell_volume    589.923
_exptl_crystal_colour 'orange'
_exptl_crystal_density_diffrn 1.555
_exptl_crystal_description 'needle'
_diffrn_ambient_temperature 100
#These two values have been output from a single CSD field.
_refine_ls_R_factor_gt 0.0687
_refine_ls_wR_factor_gt 0.0687
_symmetry_cell_setting orthorhombic
_symmetry_space_group_name_H-M 'P n a 21'
_symmetry_Int_Tables_number 33
loop_
_symmetry_equiv_pos_site_id
_symmetry_equiv_pos_as_xyz
1 x,y,z
2 -x,-y,1/2+z
3 1/2+x,1/2-y,z
4 1/2-x,1/2+y,1/2+z
_cell_length_a 13.467(3)
_cell_length_b 11.722(3)
_cell_length_c 3.737(1)
_cell_angle_alpha 90
_cell_angle_beta 90
_cell_angle_gamma 90
_cell_formula_units_Z 4
loop_
_atom_type_symbol
_atom_type_radius_bond
C 0.68
H 0.23
N 0.68
O 0.68
loop_
_atom_site_label
_atom_site_type_symbol
_atom_site_fract_x
_atom_site_fract_y
_atom_site_fract_z
O1 O 0.3416(2) 0.5345(3) 0.2867(12)
O2 O -0.0551(2) 0.6835(3) 1.0129(13)
N1 N 0.2668(3) 0.5855(3) 0.4447(13)
N2 N 0.0138(3) 0.8581(3) 0.9760(15)
C1 C 0.2662(3) 0.7015(4) 0.4838(17)
H1 H 0.32190 0.74490 0.40760
C2 C 0.1865(3) 0.7550(4) 0.6309(15)
H2 H 0.18630 0.83590 0.64790
C3 C 0.1060(4) 0.6942(4) 0.7560(17)
C4 C 0.1093(3) 0.5755(4) 0.7281(17)
H3 H 0.05600 0.53080 0.81750
C5 C 0.1892(4) 0.5237(4) 0.5726(16)
H4 H 0.19050 0.44290 0.55340
C6 C 0.0140(3) 0.7455(4) 0.9270(16)
H5 H -0.041(4) 0.890(4) 1.041(14)
H6 H 0.064(5) 0.898(5) 0.93(2)
#END
