
#######################################################################
#
#                 Cambridge Crystallographic Data Centre
#                                CCDC
#
#######################################################################
#
# If this CIF has been generated from an entry in the Cambridge
# Structural Database, then it will include bibliographic, chemical,
# crystal, experimental, refinement or atomic coordinate data resulting
# from the CCDC's data processing and validation procedures.
#
#######################################################################

data_CSD_CIF_MEGMIV
_audit_creation_date 2006-06-13
_audit_creation_method CSD-ConQuest-V1
_database_code_CSD MEGMIV
_database_code_depnum_ccdc_archive 'CCDC 604977'
_chemical_formula_sum 'C14 H17 N3 O5'
_chemical_formula_moiety
;
C14 H17 N3 O5
;
_journal_coeditor_code "IUCr BT2017"
_journal_coden_Cambridge 1370
_journal_volume 62
_journal_year 2006
_journal_page_first o1558
_journal_name_full 'Acta Crystallogr.,Sect.E:Struct.Rep.Online '
loop_
_publ_author_name
"Peng Ren"
"Xue-Mei Yang"
"Jing-Ning Guo"
"Xi-Zong Zhu"
_chemical_name_systematic
;
(S)-3-Hydroxy-1-(N-p-nitrobenzyloxycarbonylacetimidoyl)pyrrolidine
;
_chemical_melting_point 391
_cell_volume    732.419
_exptl_crystal_colour 'colorless'
_exptl_crystal_density_diffrn 1.393
_exptl_special_details
;
Melting point range 391-393K

;
_exptl_crystal_description 'block'
_exptl_crystal_preparation 'ethyl acetate'
_diffrn_ambient_temperature 293
#These two values have been output from a single CSD field.
_refine_ls_R_factor_gt 0.0391
_refine_ls_wR_factor_gt 0.0391
_symmetry_cell_setting monoclinic
_symmetry_space_group_name_H-M 'P 21'
_symmetry_Int_Tables_number 4
loop_
_symmetry_equiv_pos_site_id
_symmetry_equiv_pos_as_xyz
1 x,y,z
2 -x,1/2+y,-z
_cell_length_a 7.2123(5)
_cell_length_b 9.2723(6)
_cell_length_c 10.9592(7)
_cell_angle_alpha 90
_cell_angle_beta 92.058(1)
_cell_angle_gamma 90
_cell_formula_units_Z 2
loop_
_atom_type_symbol
_atom_type_radius_bond
C 0.68
H 0.23
N 0.68
O 0.68
loop_
_atom_site_label
_atom_site_type_symbol
_atom_site_fract_x
_atom_site_fract_y
_atom_site_fract_z
C1 C 0.1036(3) 0.1934(4) 0.4447(3)
H1 H 0.03620 0.21970 0.51640
H2 H 0.07320 0.09470 0.42240
C2 C 0.0591(5) 0.2963(4) 0.3392(3)
H3 H -0.05050 0.26550 0.29060
C3 C 0.2349(5) 0.2889(5) 0.2667(3)
H4 H 0.23810 0.20140 0.21820
H5 H 0.24470 0.37160 0.21320
C4 C 0.3878(4) 0.2892(4) 0.3649(3)
H6 H 0.49730 0.23980 0.33760
H7 H 0.42120 0.38690 0.38860
C5 C 0.3934(3) 0.1720(3) 0.5686(2)
C6 C 0.5954(3) 0.2109(4) 0.5814(3)
H8 H 0.60780 0.31370 0.58880
H9 H 0.65820 0.17850 0.51060
H10 H 0.64930 0.16540 0.65290
C7 C 0.3706(3) 0.0782(3) 0.7642(2)
C8 C 0.3442(4) -0.0798(4) 0.9349(2)
H11 H 0.44010 -0.01540 0.96690
H12 H 0.38970 -0.17790 0.94340
C9 C 0.1730(3) -0.0625(3) 1.0079(2)
C10 C 0.1711(4) -0.1230(3) 1.1240(2)
H13 H 0.27340 -0.17510 1.15350
C11 C 0.0191(4) -0.1067(3) 1.1961(2)
H14 H 0.01780 -0.14700 1.27380
C12 C -0.1306(4) -0.0293(3) 1.1499(2)
C13 C -0.1335(4) 0.0293(3) 1.0344(3)
H15 H -0.23750 0.07890 1.00420
C14 C 0.0197(4) 0.0133(3) 0.9640(2)
H16 H 0.02000 0.05380 0.88640
N1 N 0.3041(3) 0.2112(3) 0.46642(19)
N2 N 0.3022(3) 0.0947(3) 0.64786(19)
N3 N -0.2907(3) -0.0067(3) 1.2270(2)
O1 O 0.0432(4) 0.4404(4) 0.3800(4)
H17 H -0.05900 0.45220 0.40900
O2 O 0.4636(4) 0.1591(3) 0.82738(19)
O3 O 0.3079(3) -0.0488(2) 0.80814(15)
O4 O -0.2748(3) -0.0394(3) 1.3348(2)
O5 O -0.4312(3) 0.0462(4) 1.1801(2)
#END
