
#######################################################################
#
#                 Cambridge Crystallographic Data Centre
#                                CCDC
#
#######################################################################
#
# If this CIF has been generated from an entry in the Cambridge
# Structural Database, then it will include bibliographic, chemical,
# crystal, experimental, refinement or atomic coordinate data resulting
# from the CCDC's data processing and validation procedures.
#
#######################################################################

data_CSD_CIF_MEGSIB
_audit_creation_date 2006-06-13
_audit_creation_method CSD-ConQuest-V1
_database_code_CSD MEGSIB
_database_code_depnum_ccdc_archive 'CCDC 605002'
_chemical_formula_sum 'C28 H23 N3 O2'
_chemical_formula_moiety
;
C28 H23 N3 O2
;
_journal_coeditor_code "IUCr BV2010"
_journal_coden_Cambridge 1370
_journal_volume 62
_journal_year 2006
_journal_page_first o1606
_journal_name_full 'Acta Crystallogr.,Sect.E:Struct.Rep.Online '
loop_
_publ_author_name
"E.Asker"
"J.Masnovi"
_chemical_name_systematic
;
9-Ethyl-3-(9-ethyl-9H-carbazol-3-yl)-4-nitro-9H-carbazole
;
_chemical_melting_point 429
_cell_volume   2236.994
_exptl_crystal_colour 'yellow'
_exptl_crystal_density_diffrn 1.287
_exptl_crystal_description 'slab'
_exptl_crystal_preparation 'dichloromethane'
_diffrn_ambient_temperature 295
#These two values have been output from a single CSD field.
_refine_ls_R_factor_gt 0.0384
_refine_ls_wR_factor_gt 0.0384
_symmetry_cell_setting monoclinic
_symmetry_space_group_name_H-M 'C c'
_symmetry_Int_Tables_number 9
loop_
_symmetry_equiv_pos_site_id
_symmetry_equiv_pos_as_xyz
1 x,y,z
2 x,-y,1/2+z
3 1/2+x,1/2+y,z
4 1/2+x,1/2-y,1/2+z
_cell_length_a 16.2810(13)
_cell_length_b 13.8472(8)
_cell_length_c 9.9233(9)
_cell_angle_alpha 90
_cell_angle_beta 90.721(7)
_cell_angle_gamma 90
_cell_formula_units_Z 4
loop_
_atom_type_symbol
_atom_type_radius_bond
C 0.68
H 0.23
N 0.68
O 0.68
loop_
_atom_site_label
_atom_site_type_symbol
_atom_site_fract_x
_atom_site_fract_y
_atom_site_fract_z
N1 N 0.64411(18) 0.0612(2) 0.3957(3)
O1 O 0.6469(3) -0.0107(2) 0.4645(4)
O2 O 0.6068(3) 0.0666(2) 0.2912(4)
N2 N 0.8983(2) 0.2210(3) 0.4367(4)
C1 C 0.7774(3) 0.3050(3) 0.5396(5)
H1 H 0.80690 0.35810 0.57080
C2 C 0.6937(3) 0.2978(3) 0.5596(5)
H2 H 0.66720 0.34710 0.60560
C3 C 0.6472(3) 0.2188(3) 0.5130(4)
C4 C 0.6896(3) 0.1458(3) 0.4450(4)
C5 C 0.7732(3) 0.1496(3) 0.4206(4)
C6 C 0.8323(3) 0.0897(3) 0.3496(4)
C7 C 0.8275(3) 0.0051(4) 0.2724(5)
H3 H 0.77750 -0.02620 0.25970
C8 C 0.8977(3) -0.0308(4) 0.2157(5)
H4 H 0.89540 -0.08710 0.16470
C9 C 0.9728(3) 0.0169(5) 0.2345(5)
H5 H 1.01960 -0.00910 0.19600
C10 C 0.9796(3) 0.0990(4) 0.3060(5)
H6 H 1.03020 0.12940 0.31710
C11 C 0.9084(3) 0.1377(4) 0.3636(5)
C12 C 0.8160(3) 0.2300(3) 0.4713(4)
C13 C 0.9628(3) 0.2899(4) 0.4738(5)
H7 H 0.93950 0.35440 0.47660
H8 H 1.00470 0.28930 0.40520
C14 C 1.0019(4) 0.2674(5) 0.6083(6)
H9 H 1.04410 0.31390 0.62790
H10 H 1.02560 0.20390 0.60590
H11 H 0.96100 0.26980 0.67710
N3 N 0.3058(2) 0.2217(3) 0.5963(4)
C15 C 0.4270(3) 0.3021(4) 0.4919(4)
H12 H 0.39760 0.35280 0.45290
C16 C 0.5104(3) 0.2958(3) 0.4790(5)
H13 H 0.53750 0.34460 0.43310
C17 C 0.5571(3) 0.2183(3) 0.5325(4)
C18 C 0.5170(3) 0.1471(3) 0.6020(4)
H14 H 0.54660 0.09560 0.63810
C19 C 0.4323(3) 0.1517(3) 0.6189(4)
C20 C 0.3736(3) 0.0925(3) 0.6887(5)
C21 C 0.3793(3) 0.0082(3) 0.7651(5)
H15 H 0.42970 -0.02230 0.77770
C22 C 0.3091(3) -0.0292(4) 0.8219(5)
H16 H 0.31300 -0.08420 0.87550
C23 C 0.2336(3) 0.0129(5) 0.8009(5)
H17 H 0.18720 -0.01520 0.83790
C24 C 0.2255(3) 0.0981(4) 0.7243(5)
H18 H 0.17460 0.12710 0.71040
C25 C 0.2962(3) 0.1367(3) 0.6706(4)
C26 C 0.3874(3) 0.2309(3) 0.5648(5)
C27 C 0.2417(3) 0.2886(4) 0.5556(5)
H19 H 0.26410 0.35350 0.55380
H20 H 0.19830 0.28730 0.62170
C28 C 0.2052(3) 0.2646(4) 0.4167(6)
H21 H 0.16250 0.30990 0.39490
H22 H 0.18290 0.20040 0.41790
H23 H 0.24750 0.26840 0.35030
#END
