
#######################################################################
#
#                 Cambridge Crystallographic Data Centre
#                                CCDC
#
#######################################################################
#
# If this CIF has been generated from an entry in the Cambridge
# Structural Database, then it will include bibliographic, chemical,
# crystal, experimental, refinement or atomic coordinate data resulting
# from the CCDC's data processing and validation procedures.
#
#######################################################################

data_CSD_CIF_MEJDOX
_audit_creation_date 2017-08-30
_audit_creation_method CSD-ConQuest-V1
_database_code_CSD MEJDOX
_database_code_depnum_ccdc_archive 'CCDC 1571626'
_chemical_formula_sum 'C18 H16 N6 O6'
_chemical_formula_moiety
;
C18 H16 N6 O6
;
_journal_coden_Cambridge 1078
_journal_year 2017
_journal_name_full 'CSD Communication(Private Communication) '
loop_
_publ_author_name
"M.A.Yawer"
"K.Sleziakova"
"L.Pavlovec"
"V.Sindelar"
_chemical_name_systematic
;
1,3-bis[(4-nitrophenyl)methyl]tetrahydroimidazo[4,5-d]imidazole-2,5(1H,3H)-dio
ne
;
_cell_volume   1860.465
_exptl_special_details
;
We calculate 55% void space in the structure.  The depositors have not 
submitted data for temperature, R factor, chemical formula or formula weight
;
_diffrn_ambient_temperature ?
_diffrn_special_details
;
The study was carried out at room temperature,in the range 283-303K

;
_symmetry_cell_setting triclinic
_symmetry_space_group_name_H-M 'P -1'
_symmetry_Int_Tables_number 2
loop_
_symmetry_equiv_pos_site_id
_symmetry_equiv_pos_as_xyz
1 x,y,z
2 -x,-y,-z
_cell_length_a 11.694(3)
_cell_length_b 12.812(2)
_cell_length_c 13.957(3)
_cell_angle_alpha 90.334(3)
_cell_angle_beta 111.891(6)
_cell_angle_gamma 105.142(4)
_cell_formula_units_Z 2
loop_
_atom_type_symbol
_atom_type_radius_bond
C 0.68
H 0.23
N 0.68
O 0.68
loop_
_atom_site_label
_atom_site_type_symbol
_atom_site_fract_x
_atom_site_fract_y
_atom_site_fract_z
O1 O 0.0425(2) 0.13260(19) 0.41436(18)
O2 O 0.3899(2) 0.5771(2) 0.50435(18)
O3 O 0.3726(4) -0.0107(3) -0.0167(3)
O4 O 0.1700(4) -0.0285(3) -0.0912(3)
O5 O -0.6345(2) 0.3199(2) 0.1318(2)
O6 O -0.5965(3) 0.2479(3) 0.0091(2)
N1 N 0.1938(3) 0.2316(2) 0.3557(2)
N2 N 0.0378(2) 0.3006(2) 0.3553(2)
N3 N 0.3406(3) 0.4144(2) 0.4047(2)
N4 N 0.1834(3) 0.4843(2) 0.3918(2)
N5 N 0.2731(4) -0.0052(3) -0.0156(3)
N6 N -0.5633(3) 0.2878(3) 0.0996(3)
C1 C 0.0874(3) 0.2147(3) 0.3790(2)
C2 C 0.3112(3) 0.4982(3) 0.4400(2)
C3 C 0.2302(3) 0.3386(3) 0.3249(2)
H1 H 0.23960 0.33590 0.25660
C4 C 0.1181(3) 0.3863(3) 0.3203(2)
H2 H 0.06990 0.40180 0.24850
C5 C 0.2686(3) 0.1552(3) 0.3694(3)
H3 H 0.23280 0.09300 0.40140
H4 H 0.35790 0.19110 0.41810
C6 C 0.2713(3) 0.1125(3) 0.2695(3)
C7 C 0.3795(3) 0.0859(3) 0.2699(3)
H5 H 0.45240 0.09540 0.33300
C8 C 0.3807(4) 0.0449(3) 0.1767(4)
H6 H 0.45340 0.02550 0.17600
C9 C 0.2735(4) 0.0337(3) 0.0862(3)
C10 C 0.1670(4) 0.0592(3) 0.0850(3)
H7 H 0.09440 0.05000 0.02170
C11 C 0.1657(3) 0.0983(3) 0.1762(3)
H8 H 0.09140 0.11590 0.17560
C12 C -0.0552(3) 0.3196(3) 0.3931(2)
H9 H -0.01950 0.39270 0.43320
H10 H -0.06680 0.26570 0.44170
C13 C -0.1859(3) 0.3133(3) 0.3106(2)
C14 C -0.2639(3) 0.3641(3) 0.3364(3)
H11 H -0.23130 0.40550 0.40240
C15 C -0.3876(3) 0.3555(3) 0.2678(3)
H12 H -0.44100 0.38920 0.28620
C16 C -0.4312(3) 0.2968(3) 0.1721(3)
C17 C -0.3569(3) 0.2466(3) 0.1417(3)
H13 H -0.38950 0.20780 0.07440
C18 C -0.2326(3) 0.2547(3) 0.2125(2)
H14 H -0.17980 0.22040 0.19400
H15 H 0.419(4) 0.411(3) 0.425(3)
H16 H 0.151(4) 0.536(4) 0.393(3)
#END
