
#######################################################################
#
#                 Cambridge Crystallographic Data Centre
#                                CCDC
#
#######################################################################
#
# If this CIF has been generated from an entry in the Cambridge
# Structural Database, then it will include bibliographic, chemical,
# crystal, experimental, refinement or atomic coordinate data resulting
# from the CCDC's data processing and validation procedures.
#
#######################################################################

data_CSD_CIF_MEJGOY
_audit_creation_date 2006-10-24
_audit_creation_method CSD-ConQuest-V1
_database_code_CSD MEJGOY
_database_code_depnum_ccdc_archive 'CCDC 298290'
_chemical_formula_sum 'C19 H23 N3 O7'
_chemical_formula_moiety
;
C19 H23 N3 O7
;
_journal_coden_Cambridge 1336
_journal_volume 8
_journal_year 2006
_journal_page_first 2213
_journal_name_full 'Org.Lett. '
loop_
_publ_author_name
"V.Nair"
"A.T.Biju"
"K.Mohanan"
"E.Suresh"
_chemical_name_systematic
;
Diethyl 3-ethoxy-5-methylene-4-(p-nitrobenzyl)pyrazole-1,4-dicarboxylate
;
_chemical_melting_point 355.15
_cell_volume   2114.772
_exptl_crystal_colour 'colorless'
_exptl_crystal_density_diffrn 1.273
_exptl_special_details
;
Melting point range 355.15-357.15K

;
_exptl_crystal_description 'block'
_diffrn_ambient_temperature 295
#These two values have been output from a single CSD field.
_refine_ls_R_factor_gt 0.0685
_refine_ls_wR_factor_gt 0.0685
_symmetry_cell_setting monoclinic
_symmetry_space_group_name_H-M 'P 21/c'
_symmetry_Int_Tables_number 14
loop_
_symmetry_equiv_pos_site_id
_symmetry_equiv_pos_as_xyz
1 x,y,z
2 -x,1/2+y,1/2-z
3 -x,-y,-z
4 x,-1/2-y,-1/2+z
_cell_length_a 9.202(2)
_cell_length_b 8.4447(19)
_cell_length_c 27.273(6)
_cell_angle_alpha 90
_cell_angle_beta 93.760(5)
_cell_angle_gamma 90
_cell_formula_units_Z 4
loop_
_atom_type_symbol
_atom_type_radius_bond
C 0.68
H 0.23
N 0.68
O 0.68
loop_
_atom_site_label
_atom_site_type_symbol
_atom_site_fract_x
_atom_site_fract_y
_atom_site_fract_z
O1 O 0.0511(3) 0.3462(3) 0.14928(10)
O2 O -0.1320(4) 0.0525(4) 0.04791(12)
N1 N 0.1990(4) 0.1394(4) 0.17615(12)
N2 N 0.2420(4) -0.0045(4) 0.15436(13)
C1 C 0.2845(5) 0.2800(5) 0.05306(15)
C2 C 0.1151(5) 0.2061(5) 0.14377(15)
O3 O 0.3451(4) -0.2469(5) 0.16601(15)
C3 C 0.1294(5) 0.2215(5) 0.05109(14)
H1 H 0.11170 0.15820 0.02160
H2 H 0.06490 0.31240 0.04820
C4 C 0.5294(6) 0.2619(5) 0.02882(18)
H3 H 0.59920 0.20980 0.01160
C5 C 0.0888(4) 0.1222(4) 0.09558(14)
C6 C 0.3896(6) 0.2056(5) 0.02811(17)
H4 H 0.36530 0.11460 0.01020
C7 C 0.1838(5) -0.0222(5) 0.10584(15)
O4 O -0.1230(4) 0.0263(4) 0.12886(14)
N3 N 0.7134(6) 0.4594(6) 0.0547(2)
C8 C 0.5646(5) 0.3952(5) 0.05507(17)
C9 C -0.0691(5) 0.0660(5) 0.08707(19)
C10 C 0.4626(6) 0.4738(5) 0.08035(17)
H5 H 0.48790 0.56470 0.09820
O5 O 0.3429(5) -0.0706(4) 0.22728(13)
C11 C 0.3240(5) 0.4172(5) 0.07906(17)
H6 H 0.25440 0.47110 0.09580
O6 O 0.7949(5) 0.4054(5) 0.0257(2)
C12 C 0.3136(6) -0.1188(7) 0.1820(2)
C13 C 0.0855(7) 0.4253(6) 0.1956(2)
H7 H 0.05890 0.35840 0.22250
H8 H 0.18930 0.44600 0.19960
O7 O 0.7478(5) 0.5661(7) 0.0829(2)
C14 C -0.2680(7) -0.0467(9) 0.1247(2)
H9 H -0.34160 0.03310 0.11680
H10 H -0.27290 -0.12540 0.09870
C15 C 0.4211(10) -0.1881(10) 0.2596(3)
H11 H 0.36950 -0.28820 0.25730
H12 H 0.51770 -0.20490 0.24830
C16 C 0.0059(8) 0.5725(8) 0.1961(3)
H13 H 0.03310 0.63840 0.16960
H14 H 0.02820 0.62590 0.22680
H15 H -0.09670 0.55110 0.19240
C17 C 0.4323(11) -0.1433(11) 0.3043(3)
H16 H 0.47800 -0.04110 0.30640
H17 H 0.49030 -0.21810 0.32350
H18 H 0.33720 -0.13680 0.31660
C18 C -0.2925(9) -0.1175(11) 0.1693(3)
H19 H -0.21810 -0.19490 0.17710
H20 H -0.38600 -0.16830 0.16700
H21 H -0.29030 -0.03840 0.19460
C19 C 0.2035(5) -0.1390(5) 0.07515(18)
H22 H 0.26270 -0.22410 0.08490
H23 H 0.15830 -0.13660 0.04360
#END
