
#######################################################################
#
#                 Cambridge Crystallographic Data Centre
#                                CCDC
#
#######################################################################
#
# If this CIF has been generated from an entry in the Cambridge
# Structural Database, then it will include bibliographic, chemical,
# crystal, experimental, refinement or atomic coordinate data resulting
# from the CCDC's data processing and validation procedures.
#
#######################################################################

data_CSD_CIF_MEJJUH
_audit_creation_date 2006-10-24
_audit_creation_method CSD-ConQuest-V1
_database_code_CSD MEJJUH
_database_code_depnum_ccdc_archive 'CCDC 294436'
_chemical_formula_sum 'C14 H19 N3 O7'
_chemical_formula_moiety
;
C14 H19 N3 O7
;
_journal_coden_Cambridge 177
_journal_volume 4
_journal_year 2006
_journal_page_first 2525
_journal_name_full 'Org.Biomol.Chem. '
loop_
_publ_author_name
"M.Dadwal"
"S.M.Mobin"
"I.N.N.Namboothiri"
_chemical_name_systematic
;
(E)-Di-isopropyl 1-(2-(2-furyl)-1-nitrovinyl)hydrazine-1,2-dicarboxylate
;
_cell_volume    867.969
_exptl_crystal_colour 'yellow'
_exptl_crystal_density_diffrn 1.306
_exptl_crystal_description 'block'
_diffrn_ambient_temperature 293
#These two values have been output from a single CSD field.
_refine_ls_R_factor_gt 0.0495
_refine_ls_wR_factor_gt 0.0495
_symmetry_cell_setting triclinic
_symmetry_space_group_name_H-M 'P -1'
_symmetry_Int_Tables_number 2
loop_
_symmetry_equiv_pos_site_id
_symmetry_equiv_pos_as_xyz
1 x,y,z
2 -x,-y,-z
_cell_length_a 8.6000(6)
_cell_length_b 10.0870(12)
_cell_length_c 10.8430(9)
_cell_angle_alpha 67.342(8)
_cell_angle_beta 89.563(6)
_cell_angle_gamma 89.466(8)
_cell_formula_units_Z 2
loop_
_atom_type_symbol
_atom_type_radius_bond
C 0.68
H 0.23
N 0.68
O 0.68
loop_
_atom_site_label
_atom_site_type_symbol
_atom_site_fract_x
_atom_site_fract_y
_atom_site_fract_z
N1 N -0.1350(3) 0.2112(3) 0.1273(2)
N2 N -0.0635(2) 0.2469(2) 0.32563(19)
N3 N -0.1690(3) 0.1529(3) 0.4131(2)
O1 O -0.1438(2) 0.70226(19) 0.06561(18)
O2 O -0.2069(3) 0.2510(3) 0.0227(2)
O3 O -0.0814(3) 0.0899(2) 0.1831(2)
O4 O 0.1278(2) 0.16547(19) 0.48013(17)
O5 O 0.17812(19) 0.32693(19) 0.27100(16)
O6 O -0.2333(3) 0.3123(2) 0.5063(2)
O7 O -0.3175(2) 0.0842(2) 0.59215(18)
C1 C -0.1234(4) 0.7978(3) 0.1233(3)
H1 H -0.13180 0.89690 0.07870
C2 C -0.0895(4) 0.7318(3) 0.2525(3)
H2 H -0.07180 0.77510 0.31290
C3 C -0.0858(4) 0.5834(3) 0.2797(3)
H3 H -0.06460 0.51000 0.36170
C4 C -0.1188(3) 0.5677(3) 0.1646(2)
C5 C -0.1348(3) 0.4521(3) 0.1218(3)
C6 C -0.1116(3) 0.3119(3) 0.1930(2)
C7 C 0.0882(3) 0.2401(3) 0.3674(2)
C8 C 0.3410(3) 0.3405(3) 0.3065(3)
C9 C 0.4268(4) 0.3973(4) 0.1757(3)
H4 H 0.40510 0.33830 0.12650
H5 H 0.53650 0.39570 0.19200
H6 H 0.39370 0.49420 0.12490
C10 C 0.3470(4) 0.4352(4) 0.3830(4)
H7 H 0.30730 0.52870 0.32880
H8 H 0.45270 0.44330 0.40690
H9 H 0.28490 0.39460 0.46250
C11 C -0.2388(3) 0.1945(3) 0.5057(3)
C12 C -0.4032(4) 0.1099(4) 0.6966(3)
C13 C -0.3115(5) 0.0627(7) 0.8158(4)
H10 H -0.31280 -0.04030 0.85700
H11 H -0.35380 0.10200 0.87680
H12 H -0.20640 0.09470 0.79360
C14 C -0.5533(4) 0.0261(5) 0.7129(4)
H13 H -0.59560 0.04290 0.62640
H14 H -0.62690 0.05700 0.76340
H15 H -0.53220 -0.07460 0.75900
H16 H -0.165(3) 0.476(2) 0.030(2)
H17 H -0.154(3) 0.066(3) 0.429(3)
H18 H 0.378(3) 0.244(3) 0.361(3)
H19 H -0.483(4) 0.197(3) 0.674(3)
#END
