
#######################################################################
#
#                 Cambridge Crystallographic Data Centre
#                                CCDC
#
#######################################################################
#
# If this CIF has been generated from an entry in the Cambridge
# Structural Database, then it will include bibliographic, chemical,
# crystal, experimental, refinement or atomic coordinate data resulting
# from the CCDC's data processing and validation procedures.
#
#######################################################################

data_CSD_CIF_MEJNAS
_audit_creation_date 2012-12-31
_audit_creation_method CSD-ConQuest-V1
_database_code_CSD MEJNAS
_database_code_depnum_ccdc_archive 'CCDC 880939'
_chemical_formula_sum 'C19 H18 N2 O5'
_chemical_formula_moiety
;
C19 H18 N2 O5
;
_journal_coden_Cambridge 1220
_journal_volume 18
_journal_year 2012
_journal_page_first 11214
_journal_name_full 'Chem.-Eur.J. '
loop_
_publ_author_name
"C.Fallan"
"Hon Wai Lam"
_chemical_name_systematic
;
Methyl (2S,3R)-2-(1,2-benzoxazol-3-yl)-3-(4-methylphenyl)-4-nitrobutanoate
;
_chemical_melting_point 391.15
_cell_volume    868.832
_exptl_crystal_colour 'colorless'
_exptl_crystal_density_diffrn 1.355
_exptl_special_details
;
Melting point range 391.15-392.15K
Absolute configuration

;
_exptl_crystal_description 'plate'
_exptl_crystal_preparation 'ethyl acetate/hexane'
_diffrn_ambient_temperature 120
#These two values have been output from a single CSD field.
_refine_ls_R_factor_gt 0.0289
_refine_ls_wR_factor_gt 0.0289
_symmetry_cell_setting monoclinic
_symmetry_space_group_name_H-M 'P 21'
_symmetry_Int_Tables_number 4
loop_
_symmetry_equiv_pos_site_id
_symmetry_equiv_pos_as_xyz
1 x,y,z
2 -x,1/2+y,-z
_cell_length_a 9.77505(5)
_cell_length_b 8.46505(6)
_cell_length_c 10.51777(6)
_cell_angle_alpha 90
_cell_angle_beta 93.3355(5)
_cell_angle_gamma 90
_cell_formula_units_Z 2
loop_
_atom_type_symbol
_atom_type_radius_bond
C 0.68
H 0.23
N 0.68
O 0.68
loop_
_atom_site_label
_atom_site_type_symbol
_atom_site_fract_x
_atom_site_fract_y
_atom_site_fract_z
O1 O 0.2210(1) 0.38168(12) 0.19635(8)
O2 O -0.02946(13) 1.14231(16) 0.34704(9)
O3 O -0.14806(15) 1.1919(2) 0.17463(12)
O4 O 0.41876(9) 0.87251(13) 0.07506(9)
O5 O 0.36032(10) 0.99331(14) 0.25303(10)
N1 N 0.19349(11) 0.52162(13) 0.12466(10)
N2 N -0.05117(12) 1.13210(14) 0.23287(10)
C1 C 0.27194(12) 0.42643(15) 0.31485(11)
C2 C 0.31034(13) 0.32579(16) 0.41487(13)
H1 H 0.30320 0.21420 0.40750
C3 C 0.35940(14) 0.39847(18) 0.52538(13)
H2 H 0.38670 0.33480 0.59680
C4 C 0.37048(14) 0.56328(18) 0.53633(13)
H3 H 0.40580 0.60830 0.61420
C5 C 0.33074(12) 0.66144(16) 0.43549(12)
H4 H 0.33760 0.77310 0.44270
C6 C 0.27982(11) 0.58935(16) 0.32204(11)
C7 C 0.22804(11) 0.64045(15) 0.19794(11)
C8 C 0.20271(12) 0.80605(15) 0.15036(11)
H5 H 0.17370 0.80180 0.05770
C9 C 0.08638(12) 0.88475(15) 0.22339(10)
H6 H 0.12360 0.90870 0.31190
C10 C 0.04858(12) 1.04078(14) 0.15821(11)
H7 H 0.13250 1.10460 0.14980
H8 H 0.00750 1.01970 0.07160
C11 C 0.33453(12) 0.90263(15) 0.16729(11)
C12 C 0.54588(13) 0.9627(2) 0.08279(16)
H9 H 0.60230 0.93180 0.01280
H10 H 0.59600 0.94130 0.16440
H11 H 0.52490 1.07570 0.07640
C13 C -0.03483(11) 0.77449(15) 0.23256(11)
C14 C -0.05245(13) 0.69247(17) 0.34517(12)
H12 H 0.00910 0.70970 0.41710
C15 C -0.15946(14) 0.58561(18) 0.35290(13)
H13 H -0.16860 0.52880 0.42980
C16 C -0.25363(13) 0.55976(16) 0.25076(13)
C17 C -0.23510(13) 0.64231(17) 0.13845(12)
H14 H -0.29730 0.62600 0.06690
C18 C -0.12732(13) 0.74800(16) 0.12916(12)
H15 H -0.11670 0.80270 0.05150
C19 C -0.37237(15) 0.4481(2) 0.26137(17)
H16 H -0.39830 0.44450 0.34990
H17 H -0.34560 0.34220 0.23450
H18 H -0.45040 0.48490 0.20650
#END
