
#######################################################################
#
#                 Cambridge Crystallographic Data Centre
#                                CCDC
#
#######################################################################
#
# If this CIF has been generated from an entry in the Cambridge
# Structural Database, then it will include bibliographic, chemical,
# crystal, experimental, refinement or atomic coordinate data resulting
# from the CCDC's data processing and validation procedures.
#
#######################################################################

data_CSD_CIF_MEKKAQ
_audit_creation_date 2012-09-26
_audit_creation_method CSD-ConQuest-V1
_database_code_CSD MEKKAQ
_database_code_depnum_ccdc_archive 'CCDC 853390'
_chemical_formula_sum 'C16 H15 N5 O5'
_chemical_formula_moiety
;
C16 H15 N5 O5
;
_journal_coden_Cambridge 222
_journal_volume 41
_journal_year 2012
_journal_page_first 11107
_journal_name_full 'Dalton Trans. '
loop_
_publ_author_name
"Xiao-Chun Chen"
"Tao Tao"
"Yin-Ge Wang"
"Yu-Xin Peng"
"Wei Huang"
"Hui-Fen Qian"
_chemical_name_systematic
;
(Z)-1-Ethyl-5-(2-(4-methoxy-2-nitrophenyl)hydrazono)-4-methyl-2,6-dioxo-1,2,5,
6-tetrahydropyridine-3-carbonitrile
;
_chemical_melting_point 523.15
_cell_volume   1639.291
_exptl_crystal_colour 'red'
_exptl_crystal_density_diffrn 1.448
_exptl_special_details
;
Melts above 523.15K

;
_exptl_crystal_description 'block'
_exptl_crystal_preparation 'N,N-dimethylformamide'
_diffrn_ambient_temperature 173
#These two values have been output from a single CSD field.
_refine_ls_R_factor_gt 0.036
_refine_ls_wR_factor_gt 0.036
_symmetry_cell_setting monoclinic
_symmetry_space_group_name_H-M 'P 21/c'
_symmetry_Int_Tables_number 14
loop_
_symmetry_equiv_pos_site_id
_symmetry_equiv_pos_as_xyz
1 x,y,z
2 -x,1/2+y,1/2-z
3 -x,-y,-z
4 x,-1/2-y,-1/2+z
_cell_length_a 6.4252(5)
_cell_length_b 13.5443(11)
_cell_length_c 19.5352(16)
_cell_angle_alpha 90
_cell_angle_beta 105.364(1)
_cell_angle_gamma 90
_cell_formula_units_Z 4
loop_
_atom_type_symbol
_atom_type_radius_bond
C 0.68
H 0.23
N 0.68
O 0.68
loop_
_atom_site_label
_atom_site_type_symbol
_atom_site_fract_x
_atom_site_fract_y
_atom_site_fract_z
C1 C 0.1308(2) 0.37381(10) 0.36873(7)
C2 C -0.1820(2) 0.48193(12) 0.32587(8)
C3 C -0.3096(2) 0.39472(11) 0.29710(7)
C4 C -0.2291(2) 0.30187(10) 0.30124(7)
C5 C -0.0042(2) 0.28876(10) 0.33862(7)
C6 C 0.3330(2) 0.07852(10) 0.38642(7)
C7 C 0.1823(2) 0.00323(11) 0.36303(7)
H1 H 0.03620 0.01980 0.34110
C8 C 0.2415(2) -0.09391(11) 0.37123(7)
H2 H 0.13570 -0.14370 0.35510
C9 C 0.4544(2) -0.12112(10) 0.40277(7)
C10 C 0.6080(2) -0.04874(10) 0.42614(7)
H3 H 0.75400 -0.06610 0.44760
C11 C 0.5469(2) 0.04972(10) 0.41790(6)
C12 C 0.7132(3) -0.25158(12) 0.43264(9)
H4 H 0.79900 -0.22330 0.40280
H5 H 0.71950 -0.32380 0.43090
H6 H 0.77130 -0.22930 0.48170
C13 C -0.3621(2) 0.21513(11) 0.26800(8)
H7 H -0.51480 0.22860 0.26390
H8 H -0.31690 0.15660 0.29770
H9 H -0.34180 0.20340 0.22070
C14 C -0.5334(2) 0.41362(12) 0.26154(8)
C15 C 0.1757(3) 0.55302(11) 0.38536(9)
H10 H 0.11090 0.61220 0.35820
H11 H 0.31890 0.54210 0.37670
C16 C 0.2046(3) 0.57182(13) 0.46328(10)
H12 H 0.06360 0.58400 0.47210
H13 H 0.29750 0.62960 0.47800
H14 H 0.27170 0.51400 0.49060
N1 N 0.03629(19) 0.46626(8) 0.35933(6)
N2 N -0.7107(2) 0.42574(12) 0.23291(7)
N3 N 0.06642(17) 0.19664(8) 0.34423(6)
N4 N 0.26743(17) 0.17716(8) 0.37813(6)
H15 H 0.35880 0.22510 0.39520
N5 N 0.71792(17) 0.12199(9) 0.44391(6)
O1 O 0.32168(15) 0.36488(7) 0.40137(5)
O2 O -0.2588(2) 0.56457(8) 0.32072(7)
O3 O 0.67239(16) 0.21014(7) 0.44437(6)
O4 O 0.90451(15) 0.09250(8) 0.46364(6)
O5 O 0.49418(17) -0.21995(7) 0.40717(6)
#END
