
#######################################################################
#
#                 Cambridge Crystallographic Data Centre
#                                CCDC
#
#######################################################################
#
# If this CIF has been generated from an entry in the Cambridge
# Structural Database, then it will include bibliographic, chemical,
# crystal, experimental, refinement or atomic coordinate data resulting
# from the CCDC's data processing and validation procedures.
#
#######################################################################

data_CSD_CIF_MELCUE
_audit_creation_date 2018-01-04
_audit_creation_method CSD-ConQuest-V1
_database_code_CSD MELCUE
_database_code_depnum_ccdc_archive 'CCDC 1510559'
_chemical_formula_sum 'C21 H28 N2 O3'
_chemical_formula_moiety
;
C21 H28 N2 O3
;
_journal_coden_Cambridge 1078
_journal_year 2018
_journal_name_full 'CSD Communication(Private Communication) '
loop_
_publ_author_name
"R.C.Lino"
"I.F.Florentino"
"D.P.B.da Silva"
"D.M.da Silva"
"R.Menegatti"
"J.R.Sabino"
"E.A.Costa"
_chemical_name_systematic
;
2,6-di-t-butyl-4-(((4-nitrophenyl)amino)methyl)phenol
;
_cell_volume   1994.490
_exptl_crystal_colour 'yellow orange'
_exptl_crystal_density_diffrn 1.187
_exptl_crystal_description 'block'
_exptl_crystal_preparation 'methanol'
_diffrn_ambient_temperature 296
#These two values have been output from a single CSD field.
_refine_ls_R_factor_gt 0.0601
_refine_ls_wR_factor_gt 0.0601
_symmetry_cell_setting monoclinic
_symmetry_space_group_name_H-M 'P 21/n'
_symmetry_Int_Tables_number 14
loop_
_symmetry_equiv_pos_site_id
_symmetry_equiv_pos_as_xyz
1 x,y,z
2 1/2-x,1/2+y,1/2-z
3 -x,-y,-z
4 -1/2+x,-1/2-y,-1/2+z
_cell_length_a 8.9317(2)
_cell_length_b 12.4606(2)
_cell_length_c 17.9577(4)
_cell_angle_alpha 90
_cell_angle_beta 93.671(1)
_cell_angle_gamma 90
_cell_formula_units_Z 4
loop_
_atom_type_symbol
_atom_type_radius_bond
C 0.68
H 0.23
N 0.68
O 0.68
loop_
_atom_site_label
_atom_site_type_symbol
_atom_site_fract_x
_atom_site_fract_y
_atom_site_fract_z
C1 C 0.22348(19) 1.24923(13) 0.14670(9)
C2 C 0.2214(2) 1.30725(15) 0.21365(9)
H1 H 0.27260 1.28060 0.25650
C3 C 0.1455(2) 1.40230(15) 0.21695(9)
H2 H 0.14460 1.43990 0.26160
C4 C 0.07009(19) 1.44186(13) 0.15301(9)
C5 C 0.0704(2) 1.38660(14) 0.08648(10)
H3 H 0.01950 1.41420 0.04390
C6 C 0.1456(2) 1.29105(14) 0.08297(10)
H4 H 0.14500 1.25380 0.03810
C7 C 0.3119(2) 1.09173(14) 0.07824(10)
H5 H 0.34800 1.13610 0.03880
H6 H 0.21300 1.06560 0.06180
C8 C 0.41615(18) 0.99790(12) 0.09181(8)
C9 C 0.36861(18) 0.89534(13) 0.07451(9)
H7 H 0.27030 0.88530 0.05550
C10 C 0.46118(19) 0.80619(13) 0.08420(9)
C11 C 0.6071(2) 0.82464(15) 0.11418(11)
C12 C 0.66077(19) 0.92750(16) 0.13365(10)
C13 C 0.56219(19) 1.01257(14) 0.12092(9)
H8 H 0.59520 1.08180 0.13230
C14 C 0.8208(2) 0.9457(2) 0.16934(12)
C15 C 0.4053(2) 0.69335(15) 0.06087(12)
C16 C 0.8408(3) 0.8885(3) 0.24439(15)
H9 H 0.83110 0.81250 0.23690
H10 H 0.76540 0.91280 0.27630
H11 H 0.93840 0.90430 0.26720
C17 C 0.8501(3) 1.0662(3) 0.18348(18)
H12 H 0.78210 1.09260 0.21850
H13 H 0.83490 1.10490 0.13740
H14 H 0.95150 1.07620 0.20340
C18 C 0.9397(2) 0.9057(3) 0.11716(17)
H15 H 1.03770 0.91200 0.14200
H16 H 0.93490 0.94830 0.07250
H17 H 0.92040 0.83200 0.10450
C19 C 0.2391(3) 0.6949(2) 0.0362(2)
H18 H 0.22310 0.74080 -0.00650
H19 H 0.18300 0.72150 0.07610
H20 H 0.20650 0.62350 0.02340
C20 C 0.4221(4) 0.61259(19) 0.12545(16)
H21 H 0.37330 0.64010 0.16750
H22 H 0.52670 0.60160 0.13910
H23 H 0.37700 0.54560 0.11010
C21 C 0.4913(4) 0.65436(19) -0.00574(15)
H24 H 0.45160 0.58650 -0.02280
H25 H 0.59570 0.64650 0.00960
H26 H 0.48020 0.70590 -0.04550
N1 N 0.30131(19) 1.15588(12) 0.14473(8)
H27 H 0.34700 1.13360 0.18540
N2 N -0.0066(2) 1.54286(13) 0.15498(9)
O1 O 0.0096(2) 1.60002(12) 0.21058(8)
O2 O -0.0865(2) 1.57028(15) 0.10034(9)
O3 O 0.6981(2) 0.73613(17) 0.12394(14)
H28 H 0.78490 0.75290 0.11710
#END
