
#######################################################################
#
#                 Cambridge Crystallographic Data Centre
#                                CCDC
#
#######################################################################
#
# If this CIF has been generated from an entry in the Cambridge
# Structural Database, then it will include bibliographic, chemical,
# crystal, experimental, refinement or atomic coordinate data resulting
# from the CCDC's data processing and validation procedures.
#
#######################################################################

data_CSD_CIF_MELSAY
_audit_creation_date 2006-10-24
_audit_creation_method CSD-ConQuest-V1
_database_code_CSD MELSAY
_database_code_depnum_ccdc_archive 'CCDC 605990'
_chemical_formula_sum 'C18 H24 N2 O2'
_chemical_formula_moiety
;
C18 H24 N2 O2
;
_journal_coden_Cambridge 1090
_journal_volume 17
_journal_year 2006
_journal_page_first 1969
_journal_name_full 'Tetrahedron:Asymm. '
loop_
_publ_author_name
"A.Pernet-Poil-Chevrier"
"F.Cantagrel"
"K.Le Jeune"
"C.Philouze"
"P.Y.Chavant"
_chemical_name_systematic
;
(3aS,6R)-6-(t-Butyl)-5,6-dimethyl-2-phenyl-5,6-dihydroimidazo[1,5-b]isoxazol-4
(3aH)-one
;
_chemical_melting_point 376.15
_cell_volume   1754.894
_exptl_crystal_colour 'colorless'
_exptl_crystal_density_diffrn 1.138
_exptl_crystal_description 'prism'
_diffrn_ambient_temperature 293.0
#These two values have been output from a single CSD field.
_refine_ls_R_factor_gt 0.0573
_refine_ls_wR_factor_gt 0.0573
_symmetry_cell_setting orthorhombic
_symmetry_space_group_name_H-M 'P 21 21 21'
_symmetry_Int_Tables_number 19
loop_
_symmetry_equiv_pos_site_id
_symmetry_equiv_pos_as_xyz
1 x,y,z
2 1/2-x,-y,1/2+z
3 1/2+x,1/2-y,-z
4 -x,1/2+y,1/2-z
_cell_length_a 8.314(1)
_cell_length_b 14.10(2)
_cell_length_c 14.97(2)
_cell_angle_alpha 90
_cell_angle_beta 90
_cell_angle_gamma 90
_cell_formula_units_Z 4
loop_
_atom_type_symbol
_atom_type_radius_bond
C 0.68
H 0.23
N 0.68
O 0.68
loop_
_atom_site_label
_atom_site_type_symbol
_atom_site_fract_x
_atom_site_fract_y
_atom_site_fract_z
O1 O 0.0118(2) -0.0105(1) 0.6586(1)
O2 O 0.2559(3) 0.2682(1) 0.5787(2)
N1 N 0.1213(3) 0.0622(1) 0.6908(1)
N2 N 0.3502(3) 0.1265(2) 0.6297(2)
C1 C 0.2924(3) 0.0361(2) 0.6662(2)
C2 C 0.2359(4) 0.1894(2) 0.6129(2)
C3 C 0.0772(3) 0.1499(2) 0.6432(2)
C4 C -0.0263(3) 0.1152(2) 0.5681(2)
C5 C -0.0607(3) 0.0258(2) 0.5820(2)
C6 C 0.3772(4) 0.0065(2) 0.7552(2)
C7 C 0.3820(5) 0.0909(3) 0.8188(2)
C8 C 0.3057(4) -0.0399(2) 0.5946(2)
C9 C 0.5148(4) 0.1450(3) 0.6015(4)
C10 C -0.0107(4) 0.2205(2) 0.7031(2)
C11 C -0.1647(3) -0.0416(2) 0.5341(2)
C12 C -0.1764(5) -0.1353(2) 0.5609(2)
C13 C -0.2728(6) -0.1975(3) 0.5141(3)
C14 C -0.3557(5) -0.1684(3) 0.4413(3)
C15 C -0.3453(4) -0.0756(3) 0.4134(2)
C16 C -0.2507(4) -0.0124(2) 0.4598(2)
C17 C 0.2791(6) -0.0728(3) 0.7998(2)
C18 C 0.5485(5) -0.0319(3) 0.7401(3)
H1 H -0.06120 0.15190 0.51850
H2 H 0.43150 0.07240 0.87330
H3 H 0.27540 0.11190 0.83040
H4 H 0.44190 0.14090 0.79240
H5 H 0.24360 -0.02190 0.54410
H6 H 0.26680 -0.09840 0.61750
H7 H 0.41510 -0.04690 0.57740
H8 H 0.51740 0.15430 0.53860
H9 H 0.58080 0.09240 0.61680
H10 H 0.55360 0.20030 0.63060
H11 H -0.10700 0.19250 0.72470
H12 H 0.05630 0.23710 0.75210
H13 H -0.03610 0.27580 0.66970
H14 H -0.11790 -0.15670 0.61150
H15 H -0.28110 -0.26160 0.53330
H16 H -0.42120 -0.21200 0.40940
H17 H -0.40330 -0.05520 0.36220
H18 H -0.24450 0.05180 0.44070
H19 H 0.17340 -0.05050 0.81180
H20 H 0.27370 -0.12600 0.76090
H21 H 0.32930 -0.09080 0.85420
H22 H 0.54420 -0.08590 0.70230
H23 H 0.59440 -0.04920 0.79590
H24 H 0.61260 0.01590 0.71300
#END
