
#######################################################################
#
#                 Cambridge Crystallographic Data Centre
#                                CCDC
#
#######################################################################
#
# If this CIF has been generated from an entry in the Cambridge
# Structural Database, then it will include bibliographic, chemical,
# crystal, experimental, refinement or atomic coordinate data resulting
# from the CCDC's data processing and validation procedures.
#
#######################################################################

data_CSD_CIF_MENKUM
_audit_creation_date 2006-10-24
_audit_creation_method CSD-ConQuest-V1
_database_code_CSD MENKUM
_database_code_depnum_ccdc_archive 'CCDC 620957'
_chemical_formula_sum 'C11 H20 N2 O3'
_chemical_formula_moiety
;
C11 H20 N2 O3
;
_journal_coeditor_code "IUCr EZ2016"
_journal_coden_Cambridge 1370
_journal_volume 62
_journal_year 2006
_journal_page_first o3672
_journal_name_full 'Acta Crystallogr.,Sect.E:Struct.Rep.Online '
loop_
_publ_author_name
"Yang-Ping Liu"
"Xiu-Feng Zhang"
"Ke-Jian Liu"
"Yang Liu"
_chemical_name_systematic
;
3-Carbamoyl-2,2,5,5-tetramethylpyrrolidin-1-yl acetate
;
_cell_volume   1333.427
_exptl_crystal_colour 'colorless'
_exptl_crystal_density_diffrn 1.137
_exptl_crystal_description 'plate'
_exptl_crystal_preparation 'ethyl acetate'
_diffrn_ambient_temperature 293
#These two values have been output from a single CSD field.
_refine_ls_R_factor_gt 0.051
_refine_ls_wR_factor_gt 0.051
_symmetry_cell_setting monoclinic
_symmetry_space_group_name_H-M 'P 21/n'
_symmetry_Int_Tables_number 14
loop_
_symmetry_equiv_pos_site_id
_symmetry_equiv_pos_as_xyz
1 x,y,z
2 1/2-x,1/2+y,1/2-z
3 -x,-y,-z
4 -1/2+x,-1/2-y,-1/2+z
_cell_length_a 9.7037(19)
_cell_length_b 11.706(2)
_cell_length_c 12.293(3)
_cell_angle_alpha 90
_cell_angle_beta 107.27(3)
_cell_angle_gamma 90
_cell_formula_units_Z 4
loop_
_atom_type_symbol
_atom_type_radius_bond
C 0.68
H 0.23
N 0.68
O 0.68
loop_
_atom_site_label
_atom_site_type_symbol
_atom_site_fract_x
_atom_site_fract_y
_atom_site_fract_z
O1 O -0.00760(12) 0.52425(9) 0.28945(8)
O2 O 0.01639(19) 0.35524(11) 0.21026(13)
O3 O -0.1009(2) 0.92166(11) 0.07561(13)
N1 N -0.07550(12) 0.56922(11) 0.17698(9)
N2 N -0.01157(18) 0.84928(12) -0.05732(12)
H1 H 0.01070 0.91590 -0.07630
H2 H 0.00640 0.78960 -0.09160
C1 C 0.01033(17) 0.66580(13) 0.15479(13)
C2 C -0.10708(17) 0.71866(13) 0.05381(12)
H3 H -0.11970 0.67010 -0.01340
C3 C -0.24303(19) 0.71151(18) 0.09190(14)
H4 H -0.32800 0.70410 0.02640
H5 H -0.25300 0.77970 0.13380
C4 C -0.22553(16) 0.60572(15) 0.16839(13)
C5 C 0.03184(19) 0.41355(15) 0.29158(15)
C6 C 0.0979(2) 0.37803(19) 0.41253(17)
H6 H 0.12560 0.29910 0.41500
H7 H 0.02900 0.38810 0.45390
H8 H 0.18150 0.42410 0.44640
C7 C 0.1365(2) 0.61634(16) 0.11950(19)
H9 H 0.10030 0.56430 0.05710
H10 H 0.20040 0.57640 0.18280
H11 H 0.18790 0.67720 0.09640
C8 C 0.0678(2) 0.74819(16) 0.25499(16)
H12 H -0.01150 0.77900 0.27720
H13 H 0.11940 0.80930 0.23250
H14 H 0.13150 0.70790 0.31810
C9 C -0.0736(2) 0.83861(14) 0.02482(15)
C10 C -0.2534(2) 0.6343(2) 0.28045(17)
H15 H -0.24240 0.56660 0.32640
H16 H -0.34980 0.66310 0.26580
H17 H -0.18570 0.69110 0.32010
C11 C -0.3225(2) 0.5070(2) 0.1124(2)
H18 H -0.30610 0.44330 0.16380
H19 H -0.30090 0.48520 0.04390
H20 H -0.42160 0.53020 0.09400
#END
