
#######################################################################
#
#                 Cambridge Crystallographic Data Centre
#                                CCDC
#
#######################################################################
#
# If this CIF has been generated from an entry in the Cambridge
# Structural Database, then it will include bibliographic, chemical,
# crystal, experimental, refinement or atomic coordinate data resulting
# from the CCDC's data processing and validation procedures.
#
#######################################################################

data_CSD_CIF_MENOAN
_audit_creation_date 1981-08-11
_audit_creation_method CSD-ConQuest-V1
_database_code_CSD MENOAN
_database_code_depnum_ccdc_archive 'CCDC 1211026'
_chemical_formula_sum 'C17 H20 N4 O2'
_chemical_formula_moiety
;
C17 H20 N4 O2
;
_journal_coden_Cambridge 207
_journal_year 1981
_journal_page_first 206
_journal_name_full 'J.Chem.Soc.,Perkin Trans.1 '
loop_
_publ_author_name
"P.Chakrabarti"
"K.Venkatesan"
"T.S.Cameron"
"T.Demir"
"R.A.Shaw"
_chemical_name_systematic
;
4,4',N,N'-Tetramethyl-N,N'-dinitroso-2,2'-methylenedianiline
;
_chemical_melting_point 402.15
_cell_volume   3356.896
_exptl_crystal_colour 'colorless'
_exptl_crystal_density_diffrn 1.234
_diffrn_ambient_temperature ?
_diffrn_special_details
;
The study was carried out at room temperature,in the range 283-303K

;
_refine_special_details
;
O1 is disordered. Site of major occupancy retained.

;
#These two values have been output from a single CSD field.
_refine_ls_R_factor_gt 0.0397
_refine_ls_wR_factor_gt 0.0397
_symmetry_cell_setting orthorhombic
_symmetry_space_group_name_H-M 'P b c a'
_symmetry_Int_Tables_number 61
loop_
_symmetry_equiv_pos_site_id
_symmetry_equiv_pos_as_xyz
1 x,y,z
2 1/2-x,-y,1/2+z
3 1/2+x,1/2-y,-z
4 -x,1/2+y,1/2-z
5 -x,-y,-z
6 -1/2+x,y,-1/2-z
7 -1/2-x,-1/2+y,z
8 x,-1/2-y,-1/2+z
_cell_length_a 10.755(2)
_cell_length_b 16.525(3)
_cell_length_c 18.888(3)
_cell_angle_alpha 90
_cell_angle_beta 90
_cell_angle_gamma 90
_cell_formula_units_Z 8
loop_
_atom_type_symbol
_atom_type_radius_bond
C 0.68
H 0.23
N 0.68
O 0.68
loop_
_atom_site_label
_atom_site_type_symbol
_atom_site_fract_x
_atom_site_fract_y
_atom_site_fract_z
C1 C 0.34850 0.05380 0.05540
C2 C 0.30220 0.12840 0.03410
C3 C 0.20820 0.13360 -0.01630
C4 C 0.16190 0.06450 -0.04590
C5 C 0.20710 -0.01100 -0.02800
C6 C 0.30020 -0.01440 0.02270
C7 C 0.15740 -0.08790 -0.06060
C8 C 0.26710 0.25430 0.10700
N1 N 0.34770 0.20180 0.06490
N2 N 0.46270 0.22800 0.05420
O1 O 0.52840 0.18790 0.01600
C9 C 0.44630 0.04620 0.11250
C10 C 0.43060 -0.02860 0.15790
C11 C 0.33660 -0.03420 0.20820
C12 C 0.32700 -0.10120 0.25180
C13 C 0.40760 -0.16520 0.24340
C14 C 0.49800 -0.16340 0.19140
C15 C 0.50920 -0.09440 0.15040
C16 C 0.57990 -0.23640 0.17810
C17 C 0.12300 0.02040 0.18230
N3 N 0.24550 0.02860 0.21500
N4 N 0.27160 0.08850 0.25710
O2 O 0.18370 0.13840 0.26380
H1 H 0.18200 0.18900 -0.02900
H2 H 0.09400 0.06900 -0.08200
H3 H 0.33300 -0.06500 0.03600
H4 H 0.13400 -0.07600 -0.01100
H5 H 0.22000 -0.13200 -0.06300
H6 H 0.08100 -0.10800 -0.03600
H7 H 0.23900 0.22700 0.15100
H8 H 0.32100 0.30100 0.12100
H9 H 0.19600 0.27300 0.07800
H10 H 0.44300 0.08600 0.14400
H11 H 0.52600 0.04300 0.09000
H12 H 0.26200 -0.10200 0.28900
H13 H 0.39700 -0.21200 0.27200
H14 H 0.57200 -0.09000 0.11400
H15 H 0.66500 -0.22300 0.16500
H16 H 0.56600 -0.28000 0.21100
H17 H 0.54700 -0.26500 0.12800
H18 H 0.08700 -0.02500 0.21400
H19 H 0.06600 0.06600 0.18900
H20 H 0.11900 -0.00400 0.13500
#END
