
#######################################################################
#
#                 Cambridge Crystallographic Data Centre
#                                CCDC
#
#######################################################################
#
# If this CIF has been generated from an entry in the Cambridge
# Structural Database, then it will include bibliographic, chemical,
# crystal, experimental, refinement or atomic coordinate data resulting
# from the CCDC's data processing and validation procedures.
#
#######################################################################

data_CSD_CIF_MENPED
_audit_creation_date 2018-01-05
_audit_creation_method CSD-ConQuest-V1
_database_code_CSD MENPED
_database_code_depnum_ccdc_archive 'CCDC 1542804'
_chemical_formula_sum 'C41 H33 N3 O4'
_chemical_formula_moiety
;
C41 H33 N3 O4
;
_journal_coden_Cambridge 35
_journal_volume 82
_journal_year 2017
_journal_page_first 13277
_journal_name_full 'J.Org.Chem. '
loop_
_publ_author_name
"Ren-Yin Yang"
"Jing Sun"
"Yao Tao"
"Qiu Sun"
"Chao-Guo Yan"
_chemical_name_systematic
;
1'-benzyl-9-methyl-2-(4-methylbenzene-1-carbonyl)-4-(4-nitrophenyl)-2,3,4,9-te
trahydrospiro[carbazole-1,3'-indol]-2'(1'H)-one
;
_cell_volume   3325.190
_exptl_crystal_colour 'yellow'
_exptl_crystal_density_diffrn 1.262
_exptl_crystal_description 'block'
_diffrn_ambient_temperature 296
#These two values have been output from a single CSD field.
_refine_ls_R_factor_gt 0.0537
_refine_ls_wR_factor_gt 0.0537
_symmetry_cell_setting orthorhombic
_symmetry_space_group_name_H-M 'P n a 21'
_symmetry_Int_Tables_number 33
loop_
_symmetry_equiv_pos_site_id
_symmetry_equiv_pos_as_xyz
1 x,y,z
2 -x,-y,1/2+z
3 1/2+x,1/2-y,z
4 1/2-x,1/2+y,1/2+z
_cell_length_a 21.8784(19)
_cell_length_b 16.5957(14)
_cell_length_c 9.1581(7)
_cell_angle_alpha 90
_cell_angle_beta 90
_cell_angle_gamma 90
_cell_formula_units_Z 4
loop_
_atom_type_symbol
_atom_type_radius_bond
C 0.68
H 0.23
N 0.68
O 0.68
loop_
_atom_site_label
_atom_site_type_symbol
_atom_site_fract_x
_atom_site_fract_y
_atom_site_fract_z
C1 C 0.27346(18) 0.4833(2) 0.8497(5)
H1 H 0.24760 0.46930 0.77320
C2 C 0.2789(2) 0.4325(3) 0.9688(7)
H2 H 0.25720 0.38430 0.97120
C3 C 0.3155(2) 0.4525(3) 1.0814(7)
H3 H 0.31910 0.41820 1.16140
C4 C 0.3475(2) 0.5231(3) 1.0778(6)
H4 H 0.37260 0.53710 1.15570
C5 C 0.3427(2) 0.5737(3) 0.9591(5)
H5 H 0.36470 0.62160 0.95770
C6 C 0.30584(16) 0.5546(2) 0.8430(5)
C7 C 0.29798(17) 0.6101(2) 0.7154(5)
H6 H 0.28240 0.57930 0.63360
H7 H 0.26740 0.65020 0.74020
C8 C 0.36086(16) 0.7333(2) 0.6799(4)
C9 C 0.42333(14) 0.7556(2) 0.6082(3)
C10 C 0.44625(16) 0.6739(2) 0.5594(4)
C11 C 0.49869(18) 0.6521(2) 0.4873(4)
H8 H 0.52760 0.69080 0.46240
C12 C 0.5080(2) 0.5722(3) 0.4521(5)
H9 H 0.54330 0.55700 0.40270
C13 C 0.4652(3) 0.5148(3) 0.4898(6)
H10 H 0.47180 0.46120 0.46480
C14 C 0.4124(2) 0.5359(3) 0.5645(5)
H11 H 0.38360 0.49720 0.59060
C15 C 0.40386(17) 0.6156(2) 0.5986(4)
C16 C 0.46951(14) 0.79546(19) 0.7156(3)
H12 H 0.50820 0.80320 0.66340
C17 C 0.48255(17) 0.7444(2) 0.8507(4)
C18 C 0.54677(15) 0.73138(18) 0.8983(3)
C19 C 0.59666(16) 0.7402(2) 0.8064(4)
H13 H 0.59050 0.75590 0.71010
C20 C 0.65543(18) 0.7260(2) 0.8556(4)
H14 H 0.68820 0.73110 0.79150
C21 C 0.66594(18) 0.7043(2) 0.9978(4)
C22 C 0.7305(2) 0.6908(4) 1.0520(6)
H15 H 0.74670 0.64260 1.00890
H16 H 0.73020 0.68530 1.15630
H17 H 0.75560 0.73590 1.02510
C23 C 0.61597(19) 0.6939(3) 1.0882(4)
H18 H 0.62220 0.67730 1.18400
C24 C 0.55755(17) 0.7072(2) 1.0403(4)
H19 H 0.52490 0.70000 1.10400
C25 C 0.44039(17) 1.0742(2) 0.7641(4)
H20 H 0.48290 1.07400 0.76440
C26 C 0.40944(18) 1.1364(2) 0.8311(4)
H21 H 0.43070 1.17720 0.87880
C27 C 0.34663(18) 1.1371(2) 0.8261(4)
C28 C 0.31469(17) 1.0779(2) 0.7537(4)
H22 H 0.27230 1.08030 0.74810
C29 C 0.34591(15) 1.0153(2) 0.6896(4)
H23 H 0.32440 0.97500 0.64130
C30 C 0.40905(15) 1.01185(19) 0.6962(3)
C31 C 0.44446(14) 0.93943(19) 0.6433(3)
H24 H 0.48620 0.95690 0.62100
C32 C 0.44755(15) 0.87799(19) 0.7684(3)
H25 H 0.47520 0.89770 0.84310
H26 H 0.40730 0.87240 0.81190
C33 C 0.37831(17) 0.7255(2) 0.2811(4)
H27 H 0.41530 0.70030 0.24820
H28 H 0.35170 0.73440 0.19920
H29 H 0.35830 0.69120 0.35070
C34 C 0.41264(13) 0.8184(2) 0.4905(3)
C35 C 0.41866(14) 0.89939(19) 0.5096(3)
C36 C 0.40190(14) 0.9376(2) 0.3755(3)
C37 C 0.39793(14) 1.0180(2) 0.3286(4)
H30 H 0.40690 1.06020 0.39200
C38 C 0.38049(16) 1.0329(2) 0.1871(4)
H31 H 0.37720 1.08590 0.15490
C39 C 0.36766(16) 0.9704(3) 0.0915(4)
H32 H 0.35670 0.98250 -0.00420
C40 C 0.37073(14) 0.8913(2) 0.1338(4)
H33 H 0.36250 0.84970 0.06860
C41 C 0.38669(13) 0.8754(2) 0.2785(3)
N1 N 0.35370(13) 0.65176(17) 0.6691(3)
N2 N 0.3138(2) 1.2001(2) 0.9049(4)
N3 N 0.39274(11) 0.80221(16) 0.3492(3)
O1 O 0.32396(11) 0.78016(16) 0.7324(3)
O2 O 0.44009(12) 0.71918(17) 0.9226(3)
O3 O 0.25822(19) 1.2008(2) 0.9008(5)
O4 O 0.34358(19) 1.2495(2) 0.9726(4)
#END
