
#######################################################################
#
#                 Cambridge Crystallographic Data Centre
#                                CCDC
#
#######################################################################
#
# If this CIF has been generated from an entry in the Cambridge
# Structural Database, then it will include bibliographic, chemical,
# crystal, experimental, refinement or atomic coordinate data resulting
# from the CCDC's data processing and validation procedures.
#
#######################################################################

data_CSD_CIF_MENPDL
_audit_creation_date 1978-01-11
_audit_creation_method CSD-ConQuest-V1
_database_code_CSD MENPDL
_database_code_depnum_ccdc_archive 'CCDC 1211030'
_chemical_formula_sum 'C4 H9 N1 O4'
_chemical_formula_moiety
;
C4 H9 N1 O4
;
_journal_coeditor_code "IUCr A15001"
_journal_coden_Cambridge 107
_journal_volume 33
_journal_year 1977
_journal_page_first 2886
_journal_name_full 'Acta Crystallogr.,Sect.B:Struct.Crystallogr.Cryst.Chem. '
loop_
_publ_author_name
"H.E.Marr III"
"G.J.Kruger"
"J.M.Stewart"
_chemical_name_systematic
;
2-Methyl-2-nitro-1,3-propanediol
;
_cell_volume    682.113
_exptl_crystal_density_diffrn 1.315
_diffrn_ambient_temperature ?
_diffrn_special_details
;
The study was carried out at room temperature,in the range 283-303K

;
#These two values have been output from a single CSD field.
_refine_ls_R_factor_gt 0.054
_refine_ls_wR_factor_gt 0.054
_symmetry_cell_setting monoclinic
_symmetry_space_group_name_H-M 'C c'
_symmetry_Int_Tables_number 9
loop_
_symmetry_equiv_pos_site_id
_symmetry_equiv_pos_as_xyz
1 x,y,z
2 1/2+x,1/2+y,z
3 x,-y,1/2+z
4 1/2+x,1/2-y,1/2+z
_cell_length_a 8.025(1)
_cell_length_b 9.490(2)
_cell_length_c 8.960(3)
_cell_angle_alpha 90
_cell_angle_beta 91.57(3)
_cell_angle_gamma 90
_cell_formula_units_Z 4
loop_
_atom_type_symbol
_atom_type_radius_bond
C 0.68
H 0.23
N 0.68
O 0.68
loop_
_atom_site_label
_atom_site_type_symbol
_atom_site_fract_x
_atom_site_fract_y
_atom_site_fract_z
N1 N 0.18190 0.22990 -0.04750
C1 C 0.28140 0.23580 -0.18750
C2 C 0.22330 0.11960 -0.29110
C3 C 0.24980 0.38190 -0.25310
C4 C 0.46020 0.22100 -0.13890
O1 O 0.21480 0.31550 0.04910
O2 O 0.07550 0.14230 -0.03410
O3 O 0.07790 0.41030 -0.26850
O4 O 0.49430 0.09630 -0.05930
H1 H 0.28400 0.03500 -0.25200
H2 H 0.29700 0.14500 -0.38200
H3 H 0.13000 0.13700 -0.32200
H4 H 0.30200 0.37600 -0.34800
H5 H 0.31600 0.43600 -0.18500
H6 H 0.48100 0.27800 -0.07900
H7 H 0.52700 0.21400 -0.22100
H8 H 0.06100 0.41200 -0.37700
H9 H 0.52100 0.03400 -0.13400
#END
