
#######################################################################
#
#                 Cambridge Crystallographic Data Centre
#                                CCDC
#
#######################################################################
#
# If this CIF has been generated from an entry in the Cambridge
# Structural Database, then it will include bibliographic, chemical,
# crystal, experimental, refinement or atomic coordinate data resulting
# from the CCDC's data processing and validation procedures.
#
#######################################################################

data_CSD_CIF_MENPND10
_audit_creation_date 1981-08-11
_audit_creation_method CSD-ConQuest-V1
_database_code_CSD MENPND10
_database_code_depnum_ccdc_archive 'CCDC 1211033'
_chemical_formula_sum 'C11 H10 N4 O8'
_chemical_formula_moiety
;
C11 H10 N4 O8
;
_journal_coden_Cambridge 188
_journal_year 1981
_journal_page_first 155
_journal_name_full 'J.Chem.Soc.,Perkin Trans.2 '
loop_
_publ_author_name
"B.Vickery"
"G.R.Willey"
"M.G.B.Drew"
_chemical_name_systematic
;
Dimethyl-2-oxopropanedioate 2,4-dinitrophenylhydrazone
;
_cell_volume   1396.051
_exptl_crystal_density_diffrn 1.15
_exptl_special_details
;
Author's calculated density a misprint for 1.55

;
_diffrn_ambient_temperature ?
_diffrn_special_details
;
The study was carried out at room temperature,in the range 283-303K

;
#These two values have been output from a single CSD field.
_refine_ls_R_factor_gt 0.07
_refine_ls_wR_factor_gt 0.07
_symmetry_cell_setting monoclinic
_symmetry_space_group_name_H-M 'P 21/a'
_symmetry_Int_Tables_number 14
loop_
_symmetry_equiv_pos_site_id
_symmetry_equiv_pos_as_xyz
1 x,y,z
2 1/2-x,1/2+y,-z
3 -x,-y,-z
4 -1/2+x,-1/2-y,z
_cell_length_a 11.198(8)
_cell_length_b 14.779(9)
_cell_length_c 8.443(7)
_cell_angle_alpha 90
_cell_angle_beta 92.4(1)
_cell_angle_gamma 90
_cell_formula_units_Z 4
loop_
_atom_type_symbol
_atom_type_radius_bond
C 0.68
H 0.23
N 0.68
O 0.68
loop_
_atom_site_label
_atom_site_type_symbol
_atom_site_fract_x
_atom_site_fract_y
_atom_site_fract_z
C1 C 0.01110 0.29200 0.27180
C2 C 0.03940 0.20280 0.29110
C3 C 0.13940 0.18000 0.38730
C4 C 0.20910 0.24650 0.46530
C5 C 0.17610 0.33670 0.44290
C6 C 0.07870 0.35960 0.34460
N1 N -0.09340 0.31600 0.16910
O1 O -0.16370 0.25750 0.12970
O2 O -0.10360 0.39420 0.12710
N2 N 0.16750 0.08440 0.39760
O3 O 0.09460 0.02960 0.34530
O4 O 0.26290 0.06010 0.46140
N3 N 0.30700 0.22450 0.56310
N4 N 0.36700 0.29200 0.64090
C7 C 0.45750 0.27280 0.73530
C8 C 0.50550 0.18150 0.76870
O5 O 0.60210 0.18660 0.86580
C9 C 0.66140 0.10100 0.90840
O6 O 0.46260 0.11200 0.71570
C10 C 0.51300 0.35210 0.82190
O7 O 0.60560 0.38490 0.75170
C11 C 0.66950 0.45960 0.83390
O8 O 0.47570 0.38080 0.94210
H1 H -0.01400 0.15100 0.23200
H2 H 0.22600 0.39000 0.50300
H3 H 0.05700 0.43000 0.32500
H4 H 0.34000 0.16800 0.59200
H5 H 0.73900 0.11600 0.98500
H6 H 0.69200 0.06700 0.80300
H7 H 0.60100 0.05900 0.96900
H8 H 0.60000 0.50000 0.87400
H9 H 0.72500 0.43600 0.93300
H10 H 0.72300 0.49500 0.75000
#END
