
#######################################################################
#
#                 Cambridge Crystallographic Data Centre
#                                CCDC
#
#######################################################################
#
# If this CIF has been generated from an entry in the Cambridge
# Structural Database, then it will include bibliographic, chemical,
# crystal, experimental, refinement or atomic coordinate data resulting
# from the CCDC's data processing and validation procedures.
#
#######################################################################

data_CSD_CIF_MENPHL
_audit_creation_date 1980-09-26
_audit_creation_method CSD-ConQuest-V1
_database_code_CSD MENPHL
_chemical_formula_sum 'C19 H19 N1 O4'
_chemical_formula_moiety
;
C19 H19 N1 O4
;
_journal_coden_Cambridge 10
_journal_volume 63
_journal_year 1980
_journal_page_first 674
_journal_name_full 'Helv.Chim.Acta '
loop_
_publ_author_name
"R.A.Pfund"
"W.B.Schweizer"
"C.Ganter"
_chemical_name_systematic
;
1endo,4endo:5exo,8exo-Dimethano-1,2,3,4,4a,5,8,8a-octahydro-naphthalene-10-syn
-p-nitrobenzoate
;
_cell_volume   1657.164
_exptl_crystal_density_diffrn 1.3
_diffrn_ambient_temperature ?
_diffrn_special_details
;
The study was carried out at room temperature,in the range 283-303K

;
#These two values have been output from a single CSD field.
_refine_ls_R_factor_gt 0.032
_refine_ls_wR_factor_gt 0.032
_symmetry_cell_setting monoclinic
_symmetry_space_group_name_H-M 'P 21/n'
_symmetry_Int_Tables_number 14
loop_
_symmetry_equiv_pos_site_id
_symmetry_equiv_pos_as_xyz
1 x,y,z
2 1/2-x,1/2+y,1/2-z
3 -x,-y,-z
4 -1/2+x,-1/2-y,-1/2+z
_cell_length_a 7.438(2)
_cell_length_b 20.711(17)
_cell_length_c 10.781(5)
_cell_angle_alpha 90
_cell_angle_beta 93.79(3)
_cell_angle_gamma 90
_cell_formula_units_Z 4
loop_
_atom_type_symbol
_atom_type_radius_bond
C 0.68
H 0.23
N 0.68
O 0.68
loop_
_atom_site_label
_atom_site_type_symbol
_atom_site_fract_x
_atom_site_fract_y
_atom_site_fract_z
C1 C 0.58490 0.15860 -0.17710
C2 C 0.68140 0.13420 -0.29160
C3 C 0.52380 0.10890 -0.38000
C4 C 0.35680 0.11980 -0.30460
C5 C 0.32340 0.19280 -0.30610
C6 C 0.15690 0.22780 -0.25680
C7 C 0.12810 0.20710 -0.12530
C8 C 0.26210 0.22940 -0.05210
C9 C 0.38380 0.26610 -0.13190
C10 C 0.48140 0.21940 -0.21900
C11 C 0.24450 0.29400 -0.22740
C12 C 0.44850 0.10290 -0.17830
C13 C 0.40300 0.07870 0.03090
C14 C 0.26780 0.07130 0.12540
C15 C 0.32840 0.07070 0.25040
C16 C 0.20930 0.06600 0.34200
C17 C 0.02850 0.05970 0.30680
C18 C -0.03650 0.05840 0.18400
C19 C 0.08450 0.06510 0.09380
N1 N -0.10040 0.05580 0.40450
O1 O 0.32750 0.09580 -0.07960
O2 O 0.56230 0.07050 0.05280
O3 O -0.04750 0.07120 0.51000
O4 O -0.25250 0.03730 0.37520
H1 H 0.65780 0.16270 -0.10340
H2 H 0.74640 0.17130 -0.35430
H3 H 0.76870 0.09840 -0.26560
H4 H 0.53430 0.06300 -0.40090
H5 H 0.51390 0.13170 -0.45740
H6 H 0.25660 0.09400 -0.33120
H7 H 0.33090 0.20610 -0.39000
H8 H 0.05460 0.22490 -0.31400
H9 H 0.03730 0.17670 -0.10630
H10 H 0.29460 0.21550 0.03730
H11 H 0.45860 0.29390 -0.09340
H12 H 0.56500 0.24620 -0.26550
H13 H 0.16250 0.32270 -0.19070
H14 H 0.29240 0.31000 -0.30040
H15 H 0.50840 0.06140 -0.18110
H16 H 0.45540 0.07220 0.27200
H17 H 0.24910 0.06550 0.42700
H18 H -0.16000 0.05190 0.16100
H19 H 0.04770 0.06590 0.00870
#END
