
#######################################################################
#
#                 Cambridge Crystallographic Data Centre
#                                CCDC
#
#######################################################################
#
# If this CIF has been generated from an entry in the Cambridge
# Structural Database, then it will include bibliographic, chemical,
# crystal, experimental, refinement or atomic coordinate data resulting
# from the CCDC's data processing and validation procedures.
#
#######################################################################

data_CSD_CIF_MENTCN
_audit_creation_date 1981-05-19
_audit_creation_method CSD-ConQuest-V1
_database_code_CSD MENTCN
_database_code_depnum_ccdc_archive 'CCDC 1211035'
_chemical_formula_sum 'C21 H25 N1 O6'
_chemical_formula_moiety
;
C21 H25 N1 O6
;
_journal_coden_Cambridge 10
_journal_volume 63
_journal_year 1980
_journal_page_first 1856
_journal_name_full 'Helv.Chim.Acta '
loop_
_publ_author_name
"K.Murato"
"B.Frei"
"W.B.Schweizer"
"H.R.Wolf"
"O.Jeger"
_chemical_name_systematic
;
(1R,3S,4S,5S,9R)-3,6,6-Trimethyl-4-methoxycarbonyl-9-(p-nitrobenzoyloxy)-tricy
clo(3.3.1.0^1,3^)nonane
;
_chemical_melting_point 435.15
_cell_volume   1939.955
_exptl_crystal_colour 'pale yellow'
_exptl_special_details
;
Melting point range 435.15-436.15K

;
_diffrn_ambient_temperature ?
_diffrn_special_details
;
The study was carried out at room temperature,in the range 283-303K

;
#These two values have been output from a single CSD field.
_refine_ls_R_factor_gt 0.039
_refine_ls_wR_factor_gt 0.039
_symmetry_cell_setting monoclinic
_symmetry_space_group_name_H-M 'P 21/n'
_symmetry_Int_Tables_number 14
loop_
_symmetry_equiv_pos_site_id
_symmetry_equiv_pos_as_xyz
1 x,y,z
2 1/2-x,1/2+y,1/2-z
3 -x,-y,-z
4 -1/2+x,-1/2-y,-1/2+z
_cell_length_a 10.573(13)
_cell_length_b 14.707(11)
_cell_length_c 13.494(9)
_cell_angle_alpha 90
_cell_angle_beta 112.40(7)
_cell_angle_gamma 90
_cell_formula_units_Z 4
loop_
_atom_type_symbol
_atom_type_radius_bond
C 0.68
H 0.23
N 0.68
O 0.68
loop_
_atom_site_label
_atom_site_type_symbol
_atom_site_fract_x
_atom_site_fract_y
_atom_site_fract_z
C1 C 0.10480 -0.22880 0.66510
C2 C 0.63560 0.02090 0.77750
C3 C 0.16140 -0.00080 0.83240
C4 C 0.29470 0.03950 0.90460
C5 C 0.29360 -0.05390 0.85690
C6 C 0.29970 -0.07290 0.74690
C7 C 0.14970 -0.05940 0.66900
C8 C 0.04780 -0.13490 0.67360
C9 C 0.01400 -0.13350 0.77660
C10 C 0.04510 -0.04820 0.84800
C11 C 0.12390 0.02820 0.71630
C12 C 0.33820 -0.13030 0.93720
C13 C 0.40020 -0.01490 0.72090
C14 C -0.08420 -0.12520 0.57320
C15 C -0.03690 0.14900 0.67570
C16 C -0.18010 0.17640 0.60860
C17 C -0.28070 0.11390 0.55610
C18 C -0.41010 0.14180 0.49220
C19 C -0.43660 0.23250 0.47970
C20 C -0.33980 0.29650 0.53150
C21 C -0.21130 0.26790 0.59590
N1 N -0.57390 0.26260 0.40700
O1 O 0.52730 -0.02970 0.79250
O2 O 0.37590 0.03710 0.64840
O3 O -0.01590 0.06070 0.66450
O4 O 0.04900 0.20040 0.73060
O5 O -0.59970 0.34290 0.40110
O6 O -0.65340 0.20490 0.35370
H1 H 0.71100 0.00900 0.84030
H2 H 0.61270 0.08120 0.75400
H3 H 0.64280 0.00220 0.71430
H4 H 0.32250 0.08840 0.87520
H5 H 0.32100 0.03610 0.97890
H6 H 0.33350 -0.13120 0.74660
H7 H 0.14410 -0.05450 0.59820
H8 H 0.06580 -0.18500 0.82560
H9 H -0.07100 -0.14840 0.76080
H10 H 0.06970 -0.06310 0.93170
H11 H -0.03640 -0.00620 0.83250
H12 H 0.18710 0.08040 0.70630
H13 H 0.30010 -0.19370 0.90340
H14 H 0.30730 -0.11600 0.99570
H15 H 0.43270 -0.13350 0.96120
H16 H 0.17690 -0.24640 0.72930
H17 H 0.12320 -0.23470 0.59250
H18 H 0.04090 -0.27310 0.66380
H19 H -0.13010 -0.06800 0.57160
H20 H -0.14060 -0.17200 0.57060
H21 H -0.06290 -0.13140 0.50460
H22 H -0.25950 0.05160 0.56810
H23 H -0.48240 0.09950 0.45720
H24 H -0.36130 0.35920 0.51790
H25 H -0.14520 0.31050 0.63310
#END
