
#######################################################################
#
#                 Cambridge Crystallographic Data Centre
#                                CCDC
#
#######################################################################
#
# If this CIF has been generated from an entry in the Cambridge
# Structural Database, then it will include bibliographic, chemical,
# crystal, experimental, refinement or atomic coordinate data resulting
# from the CCDC's data processing and validation procedures.
#
#######################################################################

data_CSD_CIF_MEOBZC
_audit_creation_date 1981-02-05
_audit_creation_method CSD-ConQuest-V1
_database_code_CSD MEOBZC
_chemical_formula_sum 'C19 H23 N1 O3'
_chemical_formula_moiety
;
C19 H23 N1 O3
;
_journal_coden_Cambridge 154
_journal_volume 33
_journal_year 1980
_journal_page_first 1323
_journal_name_full 'Aust.J.Chem. '
loop_
_publ_author_name
"J.B.Bremner"
"E.J.Browne"
"P.E.Davies"
"C.L.Raston"
"A.H.White"
_chemical_name_systematic
;
8,9-Dimethoxy-3-methyl-1-phenyl-3,4,5,6-tetrahydro-1H-2,3-benzoxazocine
;
_chemical_melting_point 379.15
_cell_volume   1746.537
_exptl_crystal_density_diffrn 1.19
_exptl_special_details
;
Melting point range 379.15-380.15K
In the paper a and c have been interchanged
;
_diffrn_ambient_temperature ?
_diffrn_special_details
;
The study was carried out at room temperature,in the range 283-303K

;
#These two values have been output from a single CSD field.
_refine_ls_R_factor_gt 0.043
_refine_ls_wR_factor_gt 0.043
_symmetry_cell_setting monoclinic
_symmetry_space_group_name_H-M 'P 21/n'
_symmetry_Int_Tables_number 14
loop_
_symmetry_equiv_pos_site_id
_symmetry_equiv_pos_as_xyz
1 x,y,z
2 1/2-x,1/2+y,1/2-z
3 -x,-y,-z
4 -1/2+x,-1/2-y,-1/2+z
_cell_length_a 11.02(1)
_cell_length_b 20.08(2)
_cell_length_c 7.908(7)
_cell_angle_alpha 90
_cell_angle_beta 93.55(8)
_cell_angle_gamma 90
_cell_formula_units_Z 4
loop_
_atom_type_symbol
_atom_type_radius_bond
C 0.68
H 0.23
N 0.68
O 0.68
loop_
_atom_site_label
_atom_site_type_symbol
_atom_site_fract_x
_atom_site_fract_y
_atom_site_fract_z
C1 C 0.39010 0.31420 0.47710
H1 H 0.47000 0.31500 0.54600
C2 C 0.29730 0.34950 0.58040
C3 C 0.32540 0.41110 0.64870
H2 H 0.40500 0.42900 0.63400
C4 C 0.24620 0.44450 0.74810
H3 H 0.26800 0.49000 0.79500
C5 C 0.13690 0.41530 0.78080
H4 H 0.07800 0.44000 0.84600
C6 C 0.10760 0.35470 0.71420
H5 H 0.03200 0.33600 0.73300
C7 C 0.18690 0.32140 0.61360
H6 H 0.16700 0.27500 0.57100
C8 C 0.35970 0.24280 0.43280
C9 C 0.39910 0.19510 0.55410
H7 H 0.44600 0.21200 0.65600
C10 C 0.37420 0.12840 0.53400
O1 O 0.40940 0.07930 0.64510
C11 C 0.47870 0.09750 0.79460
H8 H 0.55200 0.11900 0.77300
H9 H 0.42200 0.12700 0.86400
H10 H 0.49300 0.05500 0.85300
C12 C 0.30700 0.10780 0.38850
O2 O 0.28630 0.04030 0.37730
C13 C 0.22560 0.01590 0.22710
H11 H 0.14200 0.03100 0.24200
H12 H 0.27800 0.02300 0.11900
H13 H 0.22400 -0.03000 0.24700
C14 C 0.26910 0.15360 0.26920
H14 H 0.22000 0.14000 0.16900
C15 C 0.29400 0.22240 0.28770
C16 C 0.25620 0.26690 0.13870
H15 H 0.18400 0.24600 0.07300
H16 H 0.22700 0.30800 0.17400
C17 C 0.36010 0.27760 0.01910
H17 H 0.41100 0.23500 0.01200
H18 H 0.32100 0.28100 -0.08500
C18 C 0.44620 0.33490 0.06010
H19 H 0.51500 0.33500 -0.01400
H20 H 0.40200 0.38000 0.03800
N1 N 0.49980 0.33270 0.23360
C19 C 0.59540 0.38280 0.25800
H21 H 0.56500 0.42700 0.21200
H22 H 0.62000 0.38300 0.38900
H23 H 0.66100 0.36800 0.19000
O3 O 0.40140 0.35670 0.33310
#END
