
#######################################################################
#
#                 Cambridge Crystallographic Data Centre
#                                CCDC
#
#######################################################################
#
# If this CIF has been generated from an entry in the Cambridge
# Structural Database, then it will include bibliographic, chemical,
# crystal, experimental, refinement or atomic coordinate data resulting
# from the CCDC's data processing and validation procedures.
#
#######################################################################

data_CSD_CIF_MEPHOX
_audit_creation_date 1980-09-25
_audit_creation_method CSD-ConQuest-V1
_database_code_CSD MEPHOX
_database_code_depnum_ccdc_archive 'CCDC 1211103'
_chemical_formula_sum 'C11 H15 N1 O1'
_chemical_formula_moiety
;
C11 H15 N1 O1
;
_journal_coden_Cambridge 15
_journal_volume 58
_journal_year 1980
_journal_page_first 191
_journal_name_full 'Can.J.Chem. '
loop_
_publ_author_name
"S.Fortier"
"G.I.Birnbaum"
"G.W.Buchanan"
"B.A.Dawson"
_chemical_name_systematic
;
2,4,6-Trimethylacetophenone-oxime
;
_chemical_melting_point 371.15
_cell_volume   1057.544
_exptl_crystal_colour 'colorless'
_exptl_crystal_density_diffrn 1.113
_exptl_special_details
;
Melting point range 371.15-372.15K

;
_diffrn_ambient_temperature ?
_diffrn_special_details
;
The study was carried out at room temperature,in the range 283-303K

;
#These two values have been output from a single CSD field.
_refine_ls_R_factor_gt 0.049
_refine_ls_wR_factor_gt 0.049
_symmetry_cell_setting monoclinic
_symmetry_space_group_name_H-M 'P 21/a'
_symmetry_Int_Tables_number 14
loop_
_symmetry_equiv_pos_site_id
_symmetry_equiv_pos_as_xyz
1 x,y,z
2 1/2-x,1/2+y,-z
3 -x,-y,-z
4 -1/2+x,-1/2-y,z
_cell_length_a 15.516(4)
_cell_length_b 8.702(2)
_cell_length_c 7.852(2)
_cell_angle_alpha 90
_cell_angle_beta 94.04(2)
_cell_angle_gamma 90
_cell_formula_units_Z 4
loop_
_atom_type_symbol
_atom_type_radius_bond
C 0.68
H 0.23
N 0.68
O 0.68
loop_
_atom_site_label
_atom_site_type_symbol
_atom_site_fract_x
_atom_site_fract_y
_atom_site_fract_z
C1 C 0.43630 0.34160 0.24820
C2 C 0.34670 0.31720 0.23850
C3 C 0.29250 0.44210 0.25670
C4 C 0.32380 0.58950 0.28300
C5 C 0.41190 0.61090 0.29100
C6 C 0.46950 0.49080 0.27260
C7 C 0.49610 0.20910 0.23220
C8 C 0.54320 0.19170 0.07300
C9 C 0.30830 0.15910 0.20790
C10 C 0.26290 0.72260 0.30310
C11 C 0.56470 0.52300 0.28020
N1 N 0.50100 0.11500 0.35630
O1 O 0.55680 -0.01010 0.33270
H1 H 0.55000 -0.06400 0.42500
H2 H 0.23200 0.42300 0.25300
H3 H 0.43500 0.71200 0.30700
H4 H 0.50200 0.17000 -0.01100
H5 H 0.57900 0.10900 0.07600
H6 H 0.56100 0.29200 0.03400
H7 H 0.34200 0.09600 0.14100
H8 H 0.24800 0.16000 0.17400
H9 H 0.32000 0.09000 0.31500
H10 H 0.20500 0.68700 0.29800
H11 H 0.27200 0.79300 0.21300
H12 H 0.28600 0.78800 0.38000
H13 H 0.59800 0.44800 0.32600
H14 H 0.58000 0.61500 0.35400
H15 H 0.58400 0.53800 0.16700
#END
