
#######################################################################
#
#                 Cambridge Crystallographic Data Centre
#                                CCDC
#
#######################################################################
#
# If this CIF has been generated from an entry in the Cambridge
# Structural Database, then it will include bibliographic, chemical,
# crystal, experimental, refinement or atomic coordinate data resulting
# from the CCDC's data processing and validation procedures.
#
#######################################################################

data_CSD_CIF_MEPQAA
_audit_creation_date 2007-02-13
_audit_creation_method CSD-ConQuest-V1
_database_code_CSD MEPQAA
_database_code_depnum_ccdc_archive 'CCDC 615587'
_chemical_formula_sum 'C13 H11 N5 O3'
_chemical_formula_moiety
;
C13 H11 N5 O3
;
_journal_coden_Cambridge 440
_journal_volume 30
_journal_year 2006
_journal_page_first 1557
_journal_name_full 'New J.Chem. '
loop_
_publ_author_name
"M.Sarkar"
"S.Banthia"
"A.Patil"
"M.B.Ansari"
"A.Samanta"
_chemical_name_systematic
;
4-(2-(2-Pyridyl)ethylamino)-7-nitrobenzoxa-1,3-diazole
;
_cell_volume   2609.664
_exptl_crystal_colour 'orange-yellow'
_exptl_crystal_density_diffrn 1.452
_exptl_crystal_description 'tiny plate'
_diffrn_ambient_temperature 293
#These two values have been output from a single CSD field.
_refine_ls_R_factor_gt 0.0567
_refine_ls_wR_factor_gt 0.0567
_symmetry_cell_setting orthorhombic
_symmetry_space_group_name_H-M 'P b c a'
_symmetry_Int_Tables_number 61
loop_
_symmetry_equiv_pos_site_id
_symmetry_equiv_pos_as_xyz
1 x,y,z
2 1/2-x,-y,1/2+z
3 1/2+x,1/2-y,-z
4 -x,1/2+y,1/2-z
5 -x,-y,-z
6 -1/2+x,y,-1/2-z
7 -1/2-x,-1/2+y,z
8 x,-1/2-y,-1/2+z
_cell_length_a 13.560(11)
_cell_length_b 7.385(6)
_cell_length_c 26.06(2)
_cell_angle_alpha 90
_cell_angle_beta 90
_cell_angle_gamma 90
_cell_formula_units_Z 8
loop_
_atom_type_symbol
_atom_type_radius_bond
C 0.68
H 0.23
N 0.68
O 0.68
loop_
_atom_site_label
_atom_site_type_symbol
_atom_site_fract_x
_atom_site_fract_y
_atom_site_fract_z
N1 N 0.1812(3) 0.3270(4) 0.56102(11)
N2 N 0.0391(2) 0.1991(4) 0.47752(12)
N3 N 0.0916(2) 0.0837(4) 0.40022(11)
N4 N 0.29377(19) 0.0322(4) 0.36979(10)
H1 H 0.247(2) -0.010(4) 0.3481(13)
N5 N 0.3306(2) 0.3676(4) 0.2865(1)
O1 O 0.01186(17) 0.1292(3) 0.42999(10)
O2 O 0.0939(2) 0.3527(5) 0.56965(11)
O3 O 0.2471(2) 0.3702(4) 0.59078(10)
C1 C 0.1678(2) 0.1237(4) 0.42853(12)
C2 C 0.1360(2) 0.1952(4) 0.47668(13)
C3 C 0.2082(2) 0.2489(4) 0.51283(12)
C4 C 0.3045(2) 0.2278(4) 0.49980(13)
H2 H 0.35210 0.26200 0.52360
C5 C 0.3364(2) 0.1581(4) 0.45284(13)
H3 H 0.40370 0.14880 0.44650
C6 C 0.2706(2) 0.1025(4) 0.41544(12)
C7 C 0.3949(2) 0.0070(4) 0.35302(12)
H4 H 0.39590 -0.08220 0.32570
H5 H 0.43300 -0.04130 0.38140
C8 C 0.4447(2) 0.1795(4) 0.33386(13)
H6 H 0.43730 0.27330 0.35960
H7 H 0.51470 0.15650 0.32970
C9 C 0.4040(2) 0.2470(4) 0.28417(12)
C10 C 0.4395(3) 0.1844(5) 0.23776(14)
H8 H 0.49120 0.10180 0.23700
C11 C 0.3982(3) 0.2440(6) 0.19293(15)
H9 H 0.42080 0.20080 0.16150
C12 C 0.3244(3) 0.3664(6) 0.19478(15)
H10 H 0.29520 0.40950 0.16490
C13 C 0.2938(3) 0.4253(5) 0.24209(15)
H11 H 0.24380 0.51150 0.24320
#END
