
#######################################################################
#
#                 Cambridge Crystallographic Data Centre
#                                CCDC
#
#######################################################################
#
# If this CIF has been generated from an entry in the Cambridge
# Structural Database, then it will include bibliographic, chemical,
# crystal, experimental, refinement or atomic coordinate data resulting
# from the CCDC's data processing and validation procedures.
#
#######################################################################

data_CSD_CIF_MEQDUK
_audit_creation_date 2018-01-08
_audit_creation_method CSD-ConQuest-V1
_database_code_CSD MEQDUK
_database_code_depnum_ccdc_archive 'CCDC 1815444'
_chemical_formula_sum 'C20 H37 N2 O2'
_chemical_formula_moiety
;
C20 H37 N2 O2
;
_journal_coden_Cambridge 172
_journal_volume 47
_journal_year 2014
_journal_page_first 3595
_journal_name_full 'Macromolecules '
loop_
_publ_author_name
"Yuanyuan Jing"
"A.Mardyukov"
"K.Bergander"
"C.G.Daniliuc"
"A.Studer"
_chemical_name_systematic
;
2,2-diethyl-1-oxy-10-methyl-4,7-di-isopropyl-1,4-diazaspiro[5.5]undecan-3-one 
radical
;
_cell_volume   2058.232
_exptl_crystal_colour 'orange'
_exptl_crystal_density_diffrn 1.089
_exptl_special_details
;
Absolute configuration

;
_exptl_crystal_description 'column'
_diffrn_ambient_temperature 223
#These two values have been output from a single CSD field.
_refine_ls_R_factor_gt 0.0636
_refine_ls_wR_factor_gt 0.0636
_symmetry_cell_setting orthorhombic
_symmetry_space_group_name_H-M 'P 21 21 21'
_symmetry_Int_Tables_number 19
loop_
_symmetry_equiv_pos_site_id
_symmetry_equiv_pos_as_xyz
1 x,y,z
2 1/2-x,-y,1/2+z
3 -x,1/2+y,1/2-z
4 1/2+x,1/2-y,-z
_cell_length_a 10.0587(2)
_cell_length_b 11.3486(3)
_cell_length_c 18.0306(3)
_cell_angle_alpha 90
_cell_angle_beta 90
_cell_angle_gamma 90
_cell_formula_units_Z 4
loop_
_atom_type_symbol
_atom_type_radius_bond
C 0.68
H 0.23
N 0.68
O 0.68
loop_
_atom_site_label
_atom_site_type_symbol
_atom_site_fract_x
_atom_site_fract_y
_atom_site_fract_z
O1 O 0.65896(19) 0.27957(18) 1.02504(10)
O2 O 0.91430(18) 0.46199(16) 1.20553(8)
N1 N 0.89279(19) 0.44320(16) 1.1364(1)
N2 N 0.82026(19) 0.40445(17) 0.98774(10)
C1 C 0.7581(2) 0.3383(2) 1.03863(12)
C2 C 0.8195(2) 0.33269(19) 1.11676(12)
C3 C 0.9269(2) 0.53395(19) 1.08104(11)
C4 C 0.9407(2) 0.4697(2) 1.00674(12)
H1 H 0.95960 0.52720 0.96760
H2 H 1.01590 0.41490 1.00940
C5 C 0.7765(3) 0.4028(2) 0.90927(13)
H3 H 0.69850 0.34990 0.90560
C6 C 0.7341(3) 0.5239(3) 0.88315(16)
H4 H 0.81110 0.57530 0.88110
H5 H 0.66930 0.55610 0.91740
H6 H 0.69490 0.51780 0.83420
C7 C 0.8862(3) 0.3523(3) 0.86028(15)
H7 H 0.91740 0.27860 0.88120
H8 H 0.95930 0.40790 0.85760
H9 H 0.85150 0.33840 0.81080
C8 C 0.7118(2) 0.3106(2) 1.17476(13)
H10 H 0.66610 0.23680 1.16250
H11 H 0.75460 0.29990 1.22310
C9 C 0.9240(3) 0.2320(2) 1.11706(14)
H12 H 0.99230 0.25030 1.08000
H13 H 0.96750 0.23070 1.16570
C10 C 0.8111(3) 0.6235(2) 1.07628(13)
H14 H 0.82250 0.67130 1.03150
H15 H 0.72740 0.58000 1.07120
C11 C 0.8006(3) 0.7057(2) 1.14326(15)
H16 H 0.78850 0.65700 1.18830
C12 C 0.9293(3) 0.7734(2) 1.15077(16)
H17 H 0.92350 0.82670 1.19340
H18 H 0.94350 0.82120 1.10620
C13 C 1.0467(3) 0.6896(2) 1.16124(15)
H19 H 1.03590 0.64700 1.20820
H20 H 1.12890 0.73560 1.16440
C14 C 1.0590(2) 0.6000(2) 1.09765(12)
H21 H 1.07400 0.64910 1.05310
C15 C 1.1864(2) 0.5234(2) 1.10361(15)
H22 H 1.17540 0.45590 1.06940
C16 C 1.3071(3) 0.5926(4) 1.0778(2)
H23 H 1.38500 0.54220 1.07910
H24 H 1.32080 0.65970 1.11020
H25 H 1.29270 0.62010 1.02740
C17 C 1.2169(3) 0.4739(4) 1.1794(2)
H26 H 1.23470 0.53810 1.21360
H27 H 1.29420 0.42310 1.17640
H28 H 1.14130 0.42890 1.19700
C18 C 0.6799(3) 0.7869(3) 1.13539(19)
H29 H 0.60030 0.73970 1.12920
H30 H 0.69160 0.83730 1.09240
H31 H 0.67150 0.83510 1.17950
C19 C 0.6085(3) 0.4079(3) 1.18153(17)
H32 H 0.56610 0.42010 1.13380
H33 H 0.65160 0.48020 1.19720
H34 H 0.54210 0.38540 1.21790
C20 C 0.8696(4) 0.1097(3) 1.1011(2)
H35 H 0.82830 0.10900 1.05250
H36 H 0.80410 0.08910 1.13840
H37 H 0.94170 0.05300 1.10220
#END
