
#######################################################################
#
#                 Cambridge Crystallographic Data Centre
#                                CCDC
#
#######################################################################
#
# If this CIF has been generated from an entry in the Cambridge
# Structural Database, then it will include bibliographic, chemical,
# crystal, experimental, refinement or atomic coordinate data resulting
# from the CCDC's data processing and validation procedures.
#
#######################################################################

data_CSD_CIF_MEQMIF
_audit_creation_date 2007-02-13
_audit_creation_method CSD-ConQuest-V1
_database_code_CSD MEQMIF
_database_code_depnum_ccdc_archive 'CCDC 630014'
_chemical_formula_sum 'C16 H14 N2 O8'
_chemical_formula_moiety
;
C16 H14 N2 O8
;
_journal_coden_Cambridge 1336
_journal_volume 8
_journal_year 2006
_journal_page_first 5183
_journal_name_full 'Org.Lett. '
loop_
_publ_author_name
"A.J.Leyhane"
"M.L.Snapper"
_chemical_name_systematic
;
4,8-Dihydro-1H,3H-furo(3,4-c)oxepin-8-ylmethyl 3,5-dinitrobenzoate
;
_chemical_melting_point 394.15
_cell_volume   1557.716
_exptl_crystal_colour 'yellow'
_exptl_special_details
;
Melting point range 394.15-395.15K

;
_exptl_crystal_preparation 't-butyl methyl ether'
_diffrn_ambient_temperature 193
#These two values have been output from a single CSD field.
_refine_ls_R_factor_gt 0.0956
_refine_ls_wR_factor_gt 0.0956
_symmetry_cell_setting monoclinic
_symmetry_space_group_name_H-M 'P 21/n'
_symmetry_Int_Tables_number 14
loop_
_symmetry_equiv_pos_site_id
_symmetry_equiv_pos_as_xyz
1 x,y,z
2 1/2-x,1/2+y,1/2-z
3 -x,-y,-z
4 -1/2+x,-1/2-y,-1/2+z
_cell_length_a 10.7652(15)
_cell_length_b 5.7780(9)
_cell_length_c 25.226(4)
_cell_angle_alpha 90
_cell_angle_beta 96.903(4)
_cell_angle_gamma 90
_cell_formula_units_Z 4
loop_
_atom_type_symbol
_atom_type_radius_bond
C 0.68
H 0.23
N 0.68
O 0.68
loop_
_atom_site_label
_atom_site_type_symbol
_atom_site_fract_x
_atom_site_fract_y
_atom_site_fract_z
O1 O 0.6026(4) 1.0477(7) 0.04459(17)
O2 O 0.2831(4) 0.4448(8) 0.00192(18)
C1 C 0.4166(5) 0.4411(10) 0.0804(2)
C2 C 0.5775(5) 0.7211(9) 0.0990(2)
C3 C 0.6165(5) 0.6119(9) 0.1476(2)
H1 H 0.68550 0.66890 0.17100
C4 C 0.4758(5) 0.6375(9) 0.0653(2)
H2 H 0.44790 0.71370 0.03260
C5 C 0.4517(5) 0.3274(10) 0.1281(2)
H3 H 0.40890 0.19330 0.13800
N1 N 0.5925(5) 0.2994(9) 0.2116(2)
O3 O 1.0939(4) 1.1600(8) 0.24033(18)
C6 C 0.6446(5) 0.9251(10) 0.0802(2)
O4 O 0.6841(4) 0.3737(8) 0.23889(17)
N2 N 0.3134(4) 0.3428(9) 0.0443(2)
O5 O 0.7545(4) 0.9569(8) 0.10828(18)
C7 C 0.5513(5) 0.4182(10) 0.1603(2)
O6 O 1.1649(4) 0.6292(8) 0.10587(17)
O7 O 0.2646(4) 0.1669(9) 0.05769(19)
C8 C 1.1419(5) 0.9247(11) 0.1702(2)
C9 C 1.0075(6) 0.9997(13) 0.1600(3)
H4 H 0.95300 0.87110 0.17030
O8 O 0.5312(5) 0.1364(9) 0.2230(2)
C10 C 1.0648(7) 0.6950(13) 0.0730(3)
H5 H 1.04940 0.58700 0.04460
C11 C 0.9985(7) 1.2174(11) 0.2011(3)
H6 H 1.01420 1.36730 0.18410
H7 H 0.91650 1.22260 0.21510
C12 C 1.2114(6) 0.7739(12) 0.1472(2)
H8 H 1.29800 0.76480 0.15980
C13 C 0.9644(5) 1.0705(10) 0.1049(2)
H9 H 1.01920 1.19950 0.09510
C14 C 0.9833(8) 0.8554(16) 0.0673(3)
H10 H 0.92500 0.84520 0.03600
C15 C 1.1934(8) 1.0710(17) 0.2156(3)
H11 H 1.24920 0.97810 0.24140
H12 H 1.24280 1.19940 0.20270
C16 C 0.8342(6) 1.1382(14) 0.0899(4)
H13 H 0.81720 1.28780 0.10680
H14 H 0.81700 1.15590 0.05070
#END
