
#######################################################################
#
#                 Cambridge Crystallographic Data Centre
#                                CCDC
#
#######################################################################
#
# If this CIF has been generated from an entry in the Cambridge
# Structural Database, then it will include bibliographic, chemical,
# crystal, experimental, refinement or atomic coordinate data resulting
# from the CCDC's data processing and validation procedures.
#
#######################################################################

data_CSD_CIF_MEQVAG
_audit_creation_date 2007-02-13
_audit_creation_method CSD-ConQuest-V1
_database_code_CSD MEQVAG
_database_code_depnum_ccdc_archive 'CCDC 253213'
_chemical_formula_sum 'C5 H1 N7 O4'
_chemical_formula_moiety
;
C5 H1 N7 O4
;
_journal_coden_Cambridge 52
_journal_volume 23
_journal_year 2005
_journal_page_first 99
_journal_name_full 'J.Energ.Mater. '
loop_
_publ_author_name
"M.H.V.Huynh"
"M.A.Hiskey"
"D.E.Chavez"
"R.D.Gilardi"
_chemical_name_systematic
;
7-Nitrotetrazolo(1,5-f)furazano(4,5-b)pyridine-1-oxide
;
_cell_volume    799.775
_exptl_crystal_colour 'yellow-brown'
_exptl_crystal_density_diffrn 1.853
_exptl_special_details
;
alpha orthorhombic polymorph

;
_exptl_crystal_description 'rod'
_diffrn_ambient_temperature 294
#These two values have been output from a single CSD field.
_refine_ls_R_factor_gt 0.0464
_refine_ls_wR_factor_gt 0.0464
_symmetry_cell_setting orthorhombic
_symmetry_space_group_name_H-M 'P 21 21 21'
_symmetry_Int_Tables_number 19
loop_
_symmetry_equiv_pos_site_id
_symmetry_equiv_pos_as_xyz
1 x,y,z
2 1/2-x,-y,1/2+z
3 -x,1/2+y,1/2-z
4 1/2+x,1/2-y,-z
_cell_length_a 6.5678(1)
_cell_length_b 10.8166(1)
_cell_length_c 11.2579(1)
_cell_angle_alpha 90
_cell_angle_beta 90
_cell_angle_gamma 90
_cell_formula_units_Z 4
loop_
_atom_type_symbol
_atom_type_radius_bond
C 0.68
H 0.23
N 0.68
O 0.68
loop_
_atom_site_label
_atom_site_type_symbol
_atom_site_fract_x
_atom_site_fract_y
_atom_site_fract_z
C1 C 0.5979(3) 0.6502(2) 0.19267(17)
N1 N 0.4118(3) 0.68644(14) 0.15149(14)
N2 N 0.3151(3) 0.79580(16) 0.16884(18)
N3 N 0.1560(4) 0.7914(2) 0.1032(2)
N4 N 0.1409(3) 0.6836(2) 0.04245(18)
C2 C 0.3028(3) 0.61934(18) 0.07227(16)
C3 C 0.3788(4) 0.49767(18) 0.03940(17)
N5 N 0.2555(4) 0.4204(2) -0.0384(2)
O1 O 0.3013(4) 0.31333(19) -0.0475(2)
O2 O 0.1174(5) 0.4689(3) -0.0912(3)
C4 C 0.5598(3) 0.45713(19) 0.0778(2)
H1 H 0.612(5) 0.389(3) 0.054(2)
C5 C 0.6712(3) 0.5362(2) 0.1524(2)
O3 O 0.9901(3) 0.4473(2) 0.1931(3)
N6 N 0.8559(3) 0.5214(2) 0.1992(2)
O4 O 0.8870(3) 0.6320(3) 0.27386(19)
N7 N 0.7187(4) 0.7103(2) 0.26436(19)
#END
