
#######################################################################
#
#                 Cambridge Crystallographic Data Centre
#                                CCDC
#
#######################################################################
#
# If this CIF has been generated from an entry in the Cambridge
# Structural Database, then it will include bibliographic, chemical,
# crystal, experimental, refinement or atomic coordinate data resulting
# from the CCDC's data processing and validation procedures.
#
#######################################################################

data_CSD_CIF_MERKOM
_audit_creation_date 2018-01-09
_audit_creation_method CSD-ConQuest-V1
_database_code_CSD MERKOM
_database_code_depnum_ccdc_archive 'CCDC 900927'
_chemical_formula_sum 'C11 H9 N3 O3'
_chemical_formula_moiety
;
C11 H9 N3 O3
;
_journal_coden_Cambridge 639
_journal_volume 145
_journal_year 2017
_journal_page_first 56b
_journal_name_full 'Indian J.Chem.,Sect.B:Org.Chem.Incl.Med.Chem. '
loop_
_publ_author_name
"Shashiprabha"
"K.Nagarajan"
"S.Rao K."
"Shridhara K."
"S.P.Nayak"
"S.P.Thomas"
"Guru Row T N"
"K.Pari"
"S.Jithendranath"
_chemical_name_systematic
;
6-nitro-3-phenyl-2,3-dihydroimidazo[2,1-b][1,3]oxazole
;
_cell_volume   1025.078
_exptl_crystal_colour 'colorless'
_exptl_crystal_density_diffrn 1.498
_exptl_crystal_description 'block'
_diffrn_ambient_temperature 100
#These two values have been output from a single CSD field.
_refine_ls_R_factor_gt 0.038
_refine_ls_wR_factor_gt 0.038
_symmetry_cell_setting monoclinic
_symmetry_space_group_name_H-M 'P 21/n'
_symmetry_Int_Tables_number 14
loop_
_symmetry_equiv_pos_site_id
_symmetry_equiv_pos_as_xyz
1 x,y,z
2 1/2-x,1/2+y,1/2-z
3 -x,-y,-z
4 -1/2+x,-1/2-y,-1/2+z
_cell_length_a 13.1083(3)
_cell_length_b 5.6434(1)
_cell_length_c 14.1795(3)
_cell_angle_alpha 90
_cell_angle_beta 102.243(2)
_cell_angle_gamma 90
_cell_formula_units_Z 4
loop_
_atom_type_symbol
_atom_type_radius_bond
C 0.68
H 0.23
N 0.68
O 0.68
loop_
_atom_site_label
_atom_site_type_symbol
_atom_site_fract_x
_atom_site_fract_y
_atom_site_fract_z
O1 O 0.11702(8) 0.2484(2) 0.45580(8)
O2 O 0.09027(8) -0.12901(19) 0.47440(7)
O3 O 0.39745(7) -0.18815(17) 0.76699(7)
N1 N 0.13773(9) 0.0575(2) 0.49866(8)
N2 N 0.25245(9) -0.1508(2) 0.63135(8)
N3 N 0.35169(8) 0.1602(2) 0.69273(8)
C1 C 0.22306(10) 0.0560(2) 0.58041(9)
C2 C 0.2820(1) 0.2501(2) 0.61462(9)
C3 C 0.33064(10) -0.0735(2) 0.69743(9)
C4 C 0.46139(11) -0.0011(2) 0.82434(10)
C5 C 0.44968(10) 0.2245(2) 0.75980(9)
C6 C 0.53666(10) 0.2653(2) 0.70562(10)
C7 C 0.60003(10) 0.4644(3) 0.72492(10)
C8 C 0.67923(11) 0.5041(3) 0.67491(11)
C9 C 0.69499(11) 0.3442(3) 0.60520(11)
C10 C 0.63273(12) 0.1432(3) 0.58668(11)
C11 C 0.55415(11) 0.1038(3) 0.63669(10)
H1 H 0.27630 0.40430 0.59090
H2 H 0.53400 -0.04950 0.84160
H3 H 0.43690 0.02990 0.88310
H4 H 0.43970 0.36530 0.79730
H5 H 0.58950 0.57200 0.77160
H6 H 0.72140 0.63770 0.68830
H7 H 0.74700 0.37140 0.57100
H8 H 0.64380 0.03460 0.54050
H9 H 0.51290 -0.03130 0.62410
#END
