
#######################################################################
#
#                 Cambridge Crystallographic Data Centre
#                                CCDC
#
#######################################################################
#
# If this CIF has been generated from an entry in the Cambridge
# Structural Database, then it will include bibliographic, chemical,
# crystal, experimental, refinement or atomic coordinate data resulting
# from the CCDC's data processing and validation procedures.
#
#######################################################################

data_CSD_CIF_MESSEI
_audit_creation_date 2002-03-06
_audit_creation_method CSD-ConQuest-V1
_database_code_CSD MESSEI
_database_code_depnum_ccdc_archive 'CCDC 144756'
_chemical_formula_sum 'C19 H16 N4 O6'
_chemical_formula_moiety
;
C19 H16 N4 O6
;
_journal_coden_Cambridge 1291
_journal_year 2002
_journal_page_first 285
_journal_name_full 'Eur.J.Org.Chem. '
loop_
_publ_author_name
"T.Patonay"
"E.Juhasz-Toth"
"A.Benyei"
_chemical_name_systematic
;
syn-3-Azido-3-(1-(p-nitrobenzoyloxy)propyl)-4-chromanone
;
_chemical_melting_point 351.15
_cell_volume   3044.980
_exptl_crystal_colour 'colorless'
_exptl_crystal_density_diffrn 1.297
_exptl_special_details
;
Melting point range 351.15-353.15K

;
_exptl_crystal_description 'hexagonal prism'
_diffrn_ambient_temperature 293
_diffrn_special_details
;
The crystals are twinned

;
#These two values have been output from a single CSD field.
_refine_ls_R_factor_gt 0.1453
_refine_ls_wR_factor_gt 0.1453
_symmetry_cell_setting hexagonal
_symmetry_space_group_name_H-M 'P -3'
_symmetry_Int_Tables_number 147
loop_
_symmetry_equiv_pos_site_id
_symmetry_equiv_pos_as_xyz
1 x,y,z
2 -y,x-y,z
3 -x+y,-x,z
4 -x,-y,-z
5 y,-x+y,-z
6 x-y,x,-z
_cell_length_a 15.8076(10)
_cell_length_b 15.8076(10)
_cell_length_c 14.0709(10)
_cell_angle_alpha 90
_cell_angle_beta 90
_cell_angle_gamma 120
_cell_formula_units_Z 6
loop_
_atom_type_symbol
_atom_type_radius_bond
C 0.68
H 0.23
N 0.68
O 0.68
loop_
_atom_site_label
_atom_site_type_symbol
_atom_site_fract_x
_atom_site_fract_y
_atom_site_fract_z
N1 N 0.3402(7) -0.1396(6) 0.1361(7)
N2 N 0.2924(7) -0.0917(7) 0.1362(7)
N3 N 0.2374(7) -0.0656(7) 0.1327(9)
N4 N 0.2247(9) 0.2535(9) 0.3926(7)
O1 O 0.5783(5) -0.1162(5) 0.1662(6)
O2 O 0.3978(4) -0.0196(4) 0.3015(5)
O3 O 0.5385(5) 0.1179(5) 0.3237(6)
O4 O 0.1362(7) 0.2027(7) 0.3959(7)
O5 O 0.2644(7) 0.3402(8) 0.4026(8)
O6 O 0.4688(6) 0.0570(5) 0.0949(6)
C1 C 0.4790(7) -0.1539(7) 0.1371(8)
H1 H 0.43900 -0.21920 0.16260
H2 H 0.47510 -0.15820 0.06840
C2 C 0.4400(6) -0.0885(6) 0.1718(8)
C3 C 0.5037(8) 0.0100(7) 0.1257(7)
C4 C 0.6758(10) 0.1404(8) 0.1014(8)
H3 H 0.65740 0.18620 0.08640
C5 C 0.7811(8) 0.1660(9) 0.1036(9)
H4 H 0.82990 0.23010 0.09220
C6 C 0.8048(10) 0.1000(11) 0.1213(11)
H5 H 0.87040 0.11750 0.11990
C7 C 0.7368(8) 0.0057(8) 0.1418(9)
H6 H 0.75560 -0.04000 0.15550
C8 C 0.6392(7) -0.0205(8) 0.1420(8)
C9 C 0.6083(7) 0.0447(6) 0.1228(8)
C10 C 0.4471(8) -0.0735(7) 0.2797(8)
H7 H 0.51560 -0.03670 0.29980
C11 C 0.3937(9) -0.1696(9) 0.3325(8)
H8 H 0.32490 -0.20280 0.31580
H9 H 0.41990 -0.21110 0.31420
C12 C 0.4051(12) -0.1516(10) 0.4387(9)
H10 H 0.36990 -0.21280 0.47160
H11 H 0.37970 -0.11000 0.45640
H12 H 0.47300 -0.12070 0.45520
C13 C 0.4510(7) 0.0742(6) 0.3232(7)
C14 C 0.3891(6) 0.1183(7) 0.3439(7)
C15 C 0.4322(6) 0.2170(6) 0.3520(7)
H13 H 0.49980 0.25520 0.34660
C16 C 0.3772(7) 0.2611(7) 0.3682(8)
H14 H 0.40660 0.32870 0.37250
C17 C 0.2772(7) 0.2022(8) 0.3779(7)
C18 C 0.2345(7) 0.1029(7) 0.3706(8)
H15 H 0.16720 0.06360 0.37700
C19 C 0.2894(7) 0.0627(7) 0.3544(8)
H16 H 0.25960 -0.00500 0.35000
#END
