
#######################################################################
#
#                 Cambridge Crystallographic Data Centre
#                                CCDC
#
#######################################################################
#
# If this CIF has been generated from an entry in the Cambridge
# Structural Database, then it will include bibliographic, chemical,
# crystal, experimental, refinement or atomic coordinate data resulting
# from the CCDC's data processing and validation procedures.
#
#######################################################################

data_CSD_CIF_MEWTUF
_audit_creation_date 2013-05-26
_audit_creation_method CSD-ConQuest-V1
_database_code_CSD MEWTUF
_database_code_depnum_ccdc_archive 'CCDC 935480'
_chemical_formula_sum 'C13 H18 N2 O4'
_chemical_formula_moiety
;
C13 H18 N2 O4
;
_journal_coeditor_code "IUCr nk2193"
_journal_coden_Cambridge 1370
_journal_volume 69
_journal_year 2013
_journal_page_first o372
_journal_name_full 'Acta Crystallogr.,Sect.E:Struct.Rep.Online '
loop_
_publ_author_name
"K.Prathebha"
"S.Sathya"
"G.Usha"
"N.Sivakumar"
"M.Bakthadoss"
_chemical_name_systematic
;
(4-(4-Methoxyphenyl)-1-methyl-3-nitropyrrolidin-3-yl)methanol
;
_cell_volume   1380.957
_exptl_crystal_colour 'colorless'
_exptl_crystal_density_diffrn 1.281
_exptl_crystal_description 'block'
_diffrn_ambient_temperature 293
#These two values have been output from a single CSD field.
_refine_ls_R_factor_gt 0.0454
_refine_ls_wR_factor_gt 0.0454
_symmetry_cell_setting monoclinic
_symmetry_space_group_name_H-M 'P 21/c'
_symmetry_Int_Tables_number 14
loop_
_symmetry_equiv_pos_site_id
_symmetry_equiv_pos_as_xyz
1 x,y,z
2 -x,1/2+y,1/2-z
3 -x,-y,-z
4 x,-1/2-y,-1/2+z
_cell_length_a 11.6827(10)
_cell_length_b 11.1912(11)
_cell_length_c 11.1789(11)
_cell_angle_alpha 90
_cell_angle_beta 109.118(2)
_cell_angle_gamma 90
_cell_formula_units_Z 4
loop_
_atom_type_symbol
_atom_type_radius_bond
C 0.68
H 0.23
N 0.68
O 0.68
loop_
_atom_site_label
_atom_site_type_symbol
_atom_site_fract_x
_atom_site_fract_y
_atom_site_fract_z
C1 C -0.36799(16) 0.15244(19) 0.51274(18)
H1 H -0.44680 0.17720 0.45920
H2 H -0.37430 0.07700 0.55090
H3 H -0.31510 0.14450 0.46310
C2 C -0.20810(13) 0.21887(15) 0.69433(15)
C3 C -0.13157(13) 0.12749(15) 0.68781(14)
H4 H -0.15400 0.07510 0.61950
C4 C -0.02079(13) 0.11333(14) 0.78317(14)
H5 H 0.03010 0.05130 0.77720
C5 C 0.01580(12) 0.18913(13) 0.88680(13)
C6 C -0.06274(14) 0.28269(16) 0.88911(16)
H6 H -0.04070 0.33550 0.95710
C7 C -0.17096(15) 0.29922(17) 0.79468(17)
H7 H -0.21970 0.36410 0.79760
C8 C 0.13415(12) 0.17615(13) 0.99434(12)
H8 H 0.11980 0.20540 1.07080
C9 C 0.24446(12) 0.24842(13) 0.98146(12)
C10 C 0.22476(13) 0.29756(15) 0.84980(13)
H9 H 0.20560 0.23300 0.78850
H10 H 0.15760 0.35350 0.82700
C11 C 0.35084(14) 0.16266(15) 1.02668(14)
H11 H 0.36720 0.12560 0.95550
H12 H 0.42320 0.20390 1.07830
C12 C 0.38953(16) -0.03316(17) 1.12644(17)
H13 H 0.47010 -0.01190 1.17830
H14 H 0.39160 -0.06590 1.04780
H15 H 0.35730 -0.09150 1.16970
C13 C 0.18708(14) 0.05085(15) 1.02428(15)
H16 H 0.14510 0.00540 1.07110
H17 H 0.18260 0.00790 0.94750
N1 N 0.31240(11) 0.07359(12) 1.10121(11)
N2 N 0.26471(14) 0.35622(12) 1.07021(12)
O1 O -0.32042(10) 0.23895(12) 0.60855(13)
O2 O 0.33114(10) 0.35553(12) 0.84933(10)
H18 H 0.32130 0.38320 0.77880
O3 O 0.18039(14) 0.42471(12) 1.05376(14)
O4 O 0.36032(15) 0.36987(16) 1.15196(15)
#END
