
#######################################################################
#
#                 Cambridge Crystallographic Data Centre
#                                CCDC
#
#######################################################################
#
# If this CIF has been generated from an entry in the Cambridge
# Structural Database, then it will include bibliographic, chemical,
# crystal, experimental, refinement or atomic coordinate data resulting
# from the CCDC's data processing and validation procedures.
#
#######################################################################

data_CSD_CIF_MEWYIY
_audit_creation_date 2013-05-26
_audit_creation_method CSD-ConQuest-V1
_database_code_CSD MEWYIY
_database_code_depnum_ccdc_archive 'CCDC 935462'
_chemical_formula_sum 'C17 H11 N1 O6'
_chemical_formula_moiety
;
C17 H11 N1 O6
;
_journal_coeditor_code "IUCr go2080"
_journal_coden_Cambridge 1370
_journal_volume 69
_journal_year 2013
_journal_page_first o345
_journal_name_full 'Acta Crystallogr.,Sect.E:Struct.Rep.Online '
loop_
_publ_author_name
"S.Vazquez-Rodriguez"
"E.Uriarte"
"L.Santana"
_chemical_name_systematic
;
3-(4-Methoxybenzoyl)-6-nitrocoumarin
;
_cell_volume   1399.544
_exptl_crystal_colour 'colorless'
_exptl_crystal_density_diffrn 1.544
_exptl_crystal_description 'prism'
_diffrn_ambient_temperature 100
_diffrn_special_details
;
non-merohedral twin

;
#These two values have been output from a single CSD field.
_refine_ls_R_factor_gt 0.0431
_refine_ls_wR_factor_gt 0.0431
_symmetry_cell_setting monoclinic
_symmetry_space_group_name_H-M 'P 21/n'
_symmetry_Int_Tables_number 14
loop_
_symmetry_equiv_pos_site_id
_symmetry_equiv_pos_as_xyz
1 x,y,z
2 1/2-x,1/2+y,1/2-z
3 -x,-y,-z
4 -1/2+x,-1/2-y,-1/2+z
_cell_length_a 8.875(3)
_cell_length_b 17.266(5)
_cell_length_c 9.174(3)
_cell_angle_alpha 90
_cell_angle_beta 95.401(15)
_cell_angle_gamma 90
_cell_formula_units_Z 4
loop_
_atom_type_symbol
_atom_type_radius_bond
C 0.68
H 0.23
N 0.68
O 0.68
loop_
_atom_site_label
_atom_site_type_symbol
_atom_site_fract_x
_atom_site_fract_y
_atom_site_fract_z
C1 C 0.0307(2) 0.13803(12) 0.5978(2)
C2 C -0.0864(2) 0.16362(12) 0.6744(2)
H1 H -0.12560 0.21450 0.65950
C3 C -0.1455(2) 0.11473(12) 0.7723(2)
H2 H -0.22650 0.13100 0.82570
C4 C -0.0842(2) 0.04053(13) 0.7918(2)
C5 C 0.0352(2) 0.01480(13) 0.7193(2)
H3 H 0.07510 -0.03580 0.73640
C6 C 0.0969(2) 0.06452(12) 0.6200(2)
C7 C 0.2244(2) 0.04597(12) 0.5416(2)
H4 H 0.27010 -0.00360 0.55440
C8 C 0.2809(2) 0.09697(11) 0.4506(2)
C9 C 0.2034(2) 0.17126(12) 0.4186(2)
C10 C 0.4152(2) 0.07478(12) 0.3707(2)
C11 C 0.5336(2) 0.13255(12) 0.3473(2)
C12 C 0.5631(2) 0.19667(12) 0.4378(2)
H5 H 0.50550 0.20410 0.51890
C13 C 0.6746(2) 0.24980(13) 0.4121(2)
H6 H 0.69410 0.29280 0.47560
C14 C 0.7579(2) 0.23946(12) 0.2922(2)
C15 C 0.7319(2) 0.17463(12) 0.2022(2)
H7 H 0.79010 0.16710 0.12160
C16 C 0.6222(2) 0.12166(12) 0.2302(2)
H8 H 0.60640 0.07730 0.16940
C17 C 0.9071(3) 0.35368(12) 0.3471(2)
H9 H 0.95280 0.33310 0.44060
H10 H 0.81800 0.38470 0.36410
H11 H 0.98090 0.38620 0.30270
N1 N -0.1513(2) -0.01184(11) 0.89252(19)
O1 O 0.08130(16) 0.18773(8) 0.49739(15)
O2 O -0.11434(19) -0.08064(9) 0.89156(18)
O3 O -0.24056(19) 0.01484(9) 0.97419(17)
O4 O 0.23187(18) 0.21826(9) 0.32929(17)
O5 O 0.42438(17) 0.00770(9) 0.32955(17)
O6 O 0.86233(17) 0.29040(8) 0.24994(16)
#END
