
#######################################################################
#
#                 Cambridge Crystallographic Data Centre
#                                CCDC
#
#######################################################################
#
# If this CIF has been generated from an entry in the Cambridge
# Structural Database, then it will include bibliographic, chemical,
# crystal, experimental, refinement or atomic coordinate data resulting
# from the CCDC's data processing and validation procedures.
#
#######################################################################

data_CSD_CIF_MEXLIN
_audit_creation_date 2018-05-24
_audit_creation_method CSD-ConQuest-V1
_database_code_CSD MEXLIN
_database_code_depnum_ccdc_archive 'CCDC 1841260'
_chemical_formula_sum 'C22 H18 N4 O4'
_chemical_formula_moiety
;
C22 H18 N4 O4
;
_journal_coeditor_code "fn3262"
_journal_coden_Cambridge 1777
_journal_volume 74
_journal_year 2018
_journal_page_first 703
_journal_name_full 'Acta Crystallogr.,Sect.C:Cryst.Struct.Chem. '
loop_
_publ_author_name
"O.Dammene Debbih"
"A.Sid"
"R.Bouchene"
"S.Bouacida"
"W.Mazouz"
"N.Gherraf"
_chemical_name_systematic
;
1-(2,4-dinitrophenyl)-2-[3-(4-methylphenyl)-1-phenylprop-2-en-1-ylidene]hydraz
ine
;
_cell_volume   2002.168
_exptl_crystal_colour 'red'
_exptl_crystal_density_diffrn 1.335
_exptl_crystal_description 'Needle'
_diffrn_ambient_temperature 298
#These two values have been output from a single CSD field.
_refine_ls_R_factor_gt 0.0556
_refine_ls_wR_factor_gt 0.0556
_symmetry_cell_setting monoclinic
_symmetry_space_group_name_H-M 'P 21/c'
_symmetry_Int_Tables_number 14
loop_
_symmetry_equiv_pos_site_id
_symmetry_equiv_pos_as_xyz
1 x,y,z
2 -x,1/2+y,1/2-z
3 -x,-y,-z
4 x,-1/2-y,-1/2+z
_cell_length_a 7.2520(3)
_cell_length_b 19.7485(10)
_cell_length_c 14.0347(6)
_cell_angle_alpha 90
_cell_angle_beta 95.058(2)
_cell_angle_gamma 90
_cell_formula_units_Z 4
loop_
_atom_type_symbol
_atom_type_radius_bond
C 0.68
H 0.23
N 0.68
O 0.68
loop_
_atom_site_label
_atom_site_type_symbol
_atom_site_fract_x
_atom_site_fract_y
_atom_site_fract_z
N1 N 0.7474(2) 0.55748(9) 0.44218(12)
O1 O 0.5823(2) 0.69958(9) 0.26075(11)
N2 N 0.7007(2) 0.61835(8) 0.39937(12)
H1 H 0.64480 0.61940 0.34270
O2 O 0.8710(3) 0.91178(10) 0.55819(15)
O3 O 0.6152(3) 0.80743(9) 0.27526(12)
N3 N 0.6308(3) 0.74993(10) 0.30838(13)
O4 O 0.9572(3) 0.85232(10) 0.68293(14)
N4 N 0.8909(3) 0.85720(11) 0.59987(16)
C1 C 0.7104(3) 0.74143(10) 0.40560(14)
C2 C 0.5486(3) 0.50385(10) 0.31135(15)
C3 C 0.3631(3) 0.48739(12) 0.31576(19)
H2 H 0.32020 0.47450 0.37360
C4 C 0.6618(3) 0.37896(11) 0.42806(15)
H3 H 0.58630 0.37480 0.37130
C5 C 0.7254(3) 0.44062(10) 0.45119(15)
H4 H 0.80940 0.44380 0.50500
C6 C 0.8694(3) 0.73313(12) 0.59125(15)
H5 H 0.92250 0.73090 0.65400
C7 C 0.7433(2) 0.67671(10) 0.44692(14)
C8 C 0.6646(3) 0.25440(11) 0.44172(17)
H6 H 0.61510 0.25210 0.37840
C9 C 0.6091(3) 0.52153(11) 0.22450(16)
H7 H 0.73300 0.53240 0.22070
C10 C 0.6773(3) 0.5032(1) 0.40117(15)
C11 C 0.7566(3) 0.80030(11) 0.45597(15)
H8 H 0.73380 0.84250 0.42780
C12 C 0.7000(3) 0.3172(1) 0.48404(15)
C13 C 0.8363(3) 0.79536(11) 0.54776(15)
C14 C 0.8241(3) 0.67514(11) 0.54203(15)
H9 H 0.84710 0.63360 0.57190
C15 C 0.2424(4) 0.49022(13) 0.2338(2)
H10 H 0.11780 0.48010 0.23680
C16 C 0.7711(3) 0.31786(11) 0.57929(16)
H11 H 0.79520 0.35910 0.60980
C17 C 0.8066(3) 0.25878(12) 0.62936(17)
H12 H 0.85320 0.26090 0.69320
C18 C 0.3062(5) 0.50800(13) 0.1479(2)
H13 H 0.22480 0.50950 0.09290
C19 C 0.7019(3) 0.19520(12) 0.4924(2)
H14 H 0.67780 0.15380 0.46220
C20 C 0.7743(3) 0.19615(12) 0.58681(19)
C21 C 0.4882(5) 0.52337(13) 0.14312(18)
H15 H 0.53100 0.53510 0.08480
C22 C 0.8156(5) 0.13102(15) 0.6417(2)
H16 H 0.86470 0.14150 0.70580
H17 H 0.90460 0.10500 0.61060
H18 H 0.70360 0.10530 0.64360
#END
