
#######################################################################
#
#                 Cambridge Crystallographic Data Centre
#                                CCDC
#
#######################################################################
#
# If this CIF has been generated from an entry in the Cambridge
# Structural Database, then it will include bibliographic, chemical,
# crystal, experimental, refinement or atomic coordinate data resulting
# from the CCDC's data processing and validation procedures.
#
#######################################################################

data_CSD_CIF_MEYJAB
_audit_creation_date 2002-04-08
_audit_creation_method CSD-ConQuest-V1
_database_code_CSD MEYJAB
_database_code_depnum_ccdc_archive 'CCDC 171196'
_chemical_formula_sum 'C22 H20 N4 O6'
_chemical_formula_moiety
;
C22 H20 N4 O6
;
_journal_coden_Cambridge 24
_journal_volume 42
_journal_year 2001
_journal_page_first 5663
_journal_name_full 'Tetrahedron Lett. '
loop_
_publ_author_name
"S.Marchalin"
"K.Cvopova"
"Duy-Phong Pham-Huu"
"M.Chudik"
"J.Kozisek"
"I.Svoboda"
"A.Daich"
_chemical_name_systematic
;
3-Amino-2-cyano-5-methyl-7-(2'-nitrophenyl)indolizine-6,8-dicarboxylic acid 
6-isopropyl-8-methyl diester
;
_cell_volume   2061.231
_exptl_crystal_colour 'dark red'
_exptl_crystal_density_diffrn 1.406
_exptl_crystal_description 'rod'
_diffrn_ambient_temperature 301
#These two values have been output from a single CSD field.
_refine_ls_R_factor_gt 0.0734
_refine_ls_wR_factor_gt 0.0734
_symmetry_cell_setting monoclinic
_symmetry_space_group_name_H-M 'P 21/c'
_symmetry_Int_Tables_number 14
loop_
_symmetry_equiv_pos_site_id
_symmetry_equiv_pos_as_xyz
1 x,y,z
2 x,1/2-y,1/2+z
3 -x,-y,-z
4 -x,-1/2+y,-1/2-z
_cell_length_a 9.712(2)
_cell_length_b 10.193(1)
_cell_length_c 20.943(2)
_cell_angle_alpha 90
_cell_angle_beta 96.17(1)
_cell_angle_gamma 90
_cell_formula_units_Z 4
loop_
_atom_type_symbol
_atom_type_radius_bond
C 0.68
H 0.23
N 0.68
O 0.68
loop_
_atom_site_label
_atom_site_type_symbol
_atom_site_fract_x
_atom_site_fract_y
_atom_site_fract_z
C1 C 0.1186(5) -0.0253(4) 0.0705(2)
H1 H 0.03740 -0.07450 0.06630
C2 C 0.1265(5) 0.1122(4) 0.0677(2)
C3 C 0.2645(5) 0.1490(4) 0.0736(2)
C4 C 0.4830(5) 0.0185(4) 0.0879(2)
C5 C 0.5359(5) -0.1045(4) 0.1025(2)
C6 C 0.4456(5) -0.2168(4) 0.1061(2)
C7 C 0.3078(5) -0.2021(4) 0.0911(2)
C8 C 0.2485(5) -0.0742(4) 0.0802(2)
C9 C 0.0154(6) 0.2027(5) 0.0636(2)
C10 C 0.5788(6) 0.1298(5) 0.0763(3)
H2 H 0.53140 0.19130 0.04700
H3 H 0.65850 0.09620 0.05830
H4 H 0.60770 0.17300 0.11630
H5? H 0.66700 0.11570 0.10070
H6? H 0.53990 0.21080 0.08940
H7? H 0.59070 0.13400 0.03150
C11 C 0.6892(6) -0.1191(4) 0.1196(2)
C12 C 0.8623(6) -0.1193(6) 0.2098(3)
H8 H 0.91440 -0.17380 0.18220
C13 C 0.9213(8) 0.0154(7) 0.2133(4)
H9 H 0.87030 0.06890 0.24030
H10 H 0.91510 0.05260 0.17100
H11 H 1.01660 0.01160 0.23100
C14 C 0.8631(9) -0.1824(8) 0.2739(4)
H12 H 0.81190 -0.12920 0.30090
H13 H 0.95690 -0.19120 0.29320
H14 H 0.82120 -0.26760 0.26900
C15 C 0.5178(5) -0.3447(4) 0.1217(2)
C16 C 0.5815(5) -0.4103(4) 0.0751(2)
H15 H 0.56950 -0.37930 0.03310
C17 C 0.6627(5) -0.5209(5) 0.0889(3)
H16 H 0.70380 -0.56360 0.05660
C18 C 0.6818(6) -0.5667(5) 0.1512(3)
H17 H 0.73570 -0.64090 0.16080
C19 C 0.6225(6) -0.5044(5) 0.1983(3)
H18 H 0.63690 -0.53470 0.24040
C20 C 0.5402(6) -0.3951(4) 0.1834(2)
C21 C 0.2167(6) -0.3209(4) 0.0893(2)
C22 C -0.0112(6) -0.3985(5) 0.0927(3)
H19 H -0.10020 -0.36730 0.10200
H20 H 0.01850 -0.46840 0.12170
H21 H -0.01770 -0.43010 0.04930
N1 N 0.3426(4) 0.0356(3) 0.07966(17)
N2 N -0.0753(6) 0.2739(5) 0.0604(3)
N3 N 0.3189(6) 0.2739(4) 0.0723(2)
H22 H 0.246(6) 0.340(5) 0.065(2)
H23 H 0.389(6) 0.290(5) 0.098(3)
N4 N 0.4763(7) -0.3335(5) 0.2368(2)
O1 O 0.7706(4) -0.1319(4) 0.08234(18)
O2 O 0.7168(4) -0.1141(3) 0.18297(16)
O3 O 0.5485(6) -0.3277(5) 0.2885(2)
O4 O 0.3596(6) -0.2929(5) 0.2265(2)
O5 O 0.2546(4) -0.4287(3) 0.0776(2)
O6 O 0.0881(4) -0.2924(3) 0.1005(2)
#END
