
#######################################################################
#
#                 Cambridge Crystallographic Data Centre
#                                CCDC
#
#######################################################################
#
# If this CIF has been generated from an entry in the Cambridge
# Structural Database, then it will include bibliographic, chemical,
# crystal, experimental, refinement or atomic coordinate data resulting
# from the CCDC's data processing and validation procedures.
#
#######################################################################

data_CSD_CIF_MEYNEM
_audit_creation_date 2018-05-24
_audit_creation_method CSD-ConQuest-V1
_database_code_CSD MEYNEM
_database_code_depnum_ccdc_archive 'CCDC 1827341'
_chemical_formula_sum 'C20 H30 N6 O4'
_chemical_formula_moiety
;
C20 H30 N6 O4
;
_journal_coden_Cambridge 222
_journal_volume 47
_journal_year 2018
_journal_page_first 7925
_journal_name_full 'Dalton Trans. '
loop_
_publ_author_name
"Zhao-Xin Xiao"
"Hao Miao"
"Dong Shao"
"Hai-Yan Wei"
"Yi-Quan Zhang"
"Xin-Yi Wang"
_chemical_name_systematic
;
2,2'-(3,6-dimethylpyrazine-2,5-diyl)bis(4,4,5,5-tetramethyl-4,5-dihydro-1H-imi
dazole-3-oxide-1-oxyl radical)
;
_cell_volume   1072.324
_exptl_crystal_colour 'purple'
_exptl_crystal_density_diffrn 1.296
_exptl_crystal_description 'block'
_diffrn_ambient_temperature 296
#These two values have been output from a single CSD field.
_refine_ls_R_factor_gt 0.068
_refine_ls_wR_factor_gt 0.068
_symmetry_cell_setting monoclinic
_symmetry_space_group_name_H-M 'P 21/n'
_symmetry_Int_Tables_number 14
loop_
_symmetry_equiv_pos_site_id
_symmetry_equiv_pos_as_xyz
1 x,y,z
2 1/2-x,1/2+y,1/2-z
3 -x,-y,-z
4 -1/2+x,-1/2-y,-1/2+z
_cell_length_a 6.659(4)
_cell_length_b 14.937(9)
_cell_length_c 10.868(6)
_cell_angle_alpha 90
_cell_angle_beta 97.26(1)
_cell_angle_gamma 90
_cell_formula_units_Z 2
loop_
_atom_type_symbol
_atom_type_radius_bond
C 0.68
H 0.23
N 0.68
O 0.68
loop_
_atom_site_label
_atom_site_type_symbol
_atom_site_fract_x
_atom_site_fract_y
_atom_site_fract_z
O1 O 0.8456(3) 0.50187(11) 0.81452(15)
N1 N 0.6927(3) 0.46265(12) 0.52401(16)
O2 O 0.3987(3) 0.27912(13) 0.67961(19)
C1 C 1.0175(3) 0.34576(15) 0.9499(2)
H1 H 1.08590 0.33130 0.87980
H2 H 1.03780 0.29840 1.00990
H3 H 1.07080 0.40060 0.98660
N2 N 0.7628(3) 0.42510(11) 0.80474(15)
N3 N 0.5514(3) 0.31781(13) 0.7386(2)
C2 C 0.5536(3) 0.45242(13) 0.60124(18)
C3 C 0.7919(3) 0.35667(13) 0.90753(17)
C4 C 0.6411(3) 0.51067(14) 0.42022(18)
C5 C 0.6201(3) 0.39856(15) 0.71407(19)
C6 C 0.6860(4) 0.27346(15) 0.8424(2)
C7 C 0.7957(4) 0.52084(18) 0.3327(2)
H4 H 0.92840 0.52270 0.37890
H5 H 0.77110 0.57540 0.28660
H6 H 0.78680 0.47100 0.27660
C8 C 0.6875(4) 0.39475(18) 1.0137(2)
H7 H 0.74480 0.45210 1.03770
H8 H 0.70690 0.35470 1.08330
H9 H 0.54530 0.40140 0.98690
C9 C 0.8317(6) 0.21236(18) 0.7817(3)
H10 H 0.75560 0.16710 0.73350
H11 H 0.92460 0.18450 0.84500
H12 H 0.90590 0.24740 0.72870
C10 C 0.5561(5) 0.2196(2) 0.9216(3)
H13 H 0.45030 0.25700 0.94540
H14 H 0.63880 0.19840 0.99450
H15 H 0.49750 0.16950 0.87470
O1B O 0.1544(3) 0.49813(11) 0.18548(15)
N1B N 0.3073(3) 0.53735(12) 0.47599(16)
O2B O 0.6013(3) 0.72088(13) 0.32039(19)
C1B C -0.0175(3) 0.65424(15) 0.0501(2)
H1B H -0.08590 0.66870 0.12020
H2B H -0.03780 0.70160 -0.00990
H3B H -0.07080 0.59940 0.01340
N2B N 0.2372(3) 0.57490(11) 0.19526(15)
N3B N 0.4486(3) 0.68219(13) 0.2614(2)
C2B C 0.4464(3) 0.54758(13) 0.39876(18)
C3B C 0.2081(3) 0.64333(13) 0.09247(17)
C4B C 0.3589(3) 0.48933(14) 0.57978(18)
C5B C 0.3799(3) 0.60144(15) 0.28593(19)
C6B C 0.3140(4) 0.72654(15) 0.1576(2)
C7B C 0.2043(4) 0.47916(18) 0.6673(2)
H4B H 0.07160 0.47730 0.62110
H5B H 0.22890 0.42460 0.71340
H6B H 0.21320 0.52900 0.72340
C8B C 0.3125(4) 0.60525(18) -0.0137(2)
H7B H 0.25520 0.54790 -0.03770
H8B H 0.29310 0.64530 -0.08330
H9B H 0.45470 0.59860 0.01310
C9B C 0.1683(6) 0.78764(18) 0.2183(3)
H10B H 0.24440 0.83290 0.26650
H11B H 0.07540 0.81550 0.15500
H12B H 0.09410 0.75260 0.27130
C10B C 0.4439(5) 0.7804(2) 0.0784(3)
H13B H 0.54970 0.74300 0.05460
H14B H 0.36120 0.80160 0.00550
H15B H 0.50250 0.83050 0.12530
#END
