
#######################################################################
#
#                 Cambridge Crystallographic Data Centre
#                                CCDC
#
#######################################################################
#
# If this CIF has been generated from an entry in the Cambridge
# Structural Database, then it will include bibliographic, chemical,
# crystal, experimental, refinement or atomic coordinate data resulting
# from the CCDC's data processing and validation procedures.
#
#######################################################################

data_CSD_CIF_MFCBXA
_audit_creation_date 1976-03-15
_audit_creation_method CSD-ConQuest-V1
_database_code_CSD MFCBXA
_chemical_formula_sum 'C4 H5 N3 O3'
_chemical_formula_moiety
;
C4 H5 N3 O3
;
_journal_coeditor_code "IUCr A12405"
_journal_coden_Cambridge 107
_journal_volume 31
_journal_year 1975
_journal_page_first 2384
_journal_name_full 'Acta Crystallogr.,Sect.B:Struct.Crystallogr.Cryst.Chem. '
loop_
_publ_author_name
"M.Calleri"
"G.Chiari"
"A.C.Villa"
"A.G.Manfredotti"
"C.Guastini"
"D.Viterbo"
_chemical_name_systematic
;
3-Methyl-4-furoxancarboxamide
;
_chemical_melting_point 418.15
_cell_volume    605.678
_exptl_crystal_density_diffrn 1.57
_diffrn_ambient_temperature ?
_diffrn_special_details
;
The study was carried out at room temperature,in the range 283-303K

;
#These two values have been output from a single CSD field.
_refine_ls_R_factor_gt 0.056
_refine_ls_wR_factor_gt 0.056
_symmetry_cell_setting monoclinic
_symmetry_space_group_name_H-M 'P 21/n'
_symmetry_Int_Tables_number 14
loop_
_symmetry_equiv_pos_site_id
_symmetry_equiv_pos_as_xyz
1 x,y,z
2 1/2-x,1/2+y,1/2-z
3 -x,-y,-z
4 -1/2+x,-1/2-y,-1/2+z
_cell_length_a 12.64(1)
_cell_length_b 12.17(1)
_cell_length_c 3.94(2)
_cell_angle_alpha 90
_cell_angle_beta 92.10(2)
_cell_angle_gamma 90
_cell_formula_units_Z 4
loop_
_atom_type_symbol
_atom_type_radius_bond
C 0.68
H 0.23
N 0.68
O 0.68
loop_
_atom_site_label
_atom_site_type_symbol
_atom_site_fract_x
_atom_site_fract_y
_atom_site_fract_z
C1 C 0.07750 -0.19290 0.09730
C2 C 0.12910 -0.28710 -0.02970
C3 C -0.03420 -0.15700 0.08770
C4 C 0.07820 -0.37850 -0.22950
H1 H 0.10400 -0.53200 -0.35200
H2 H 0.18700 -0.48200 -0.13100
H3 H -0.04900 -0.11100 0.23500
H4 H -0.05700 -0.13500 -0.14300
H5 H -0.08300 -0.21700 0.16800
N1 N 0.15280 -0.13450 0.25490
N2 N 0.23080 -0.28680 0.04300
N3 N 0.13290 -0.47070 -0.25060
O1 O 0.25200 -0.19190 0.22240
O2 O 0.15500 -0.04780 0.42040
O3 O -0.00900 -0.36260 -0.36780
#END
