
#######################################################################
#
#                 Cambridge Crystallographic Data Centre
#                                CCDC
#
#######################################################################
#
# If this CIF has been generated from an entry in the Cambridge
# Structural Database, then it will include bibliographic, chemical,
# crystal, experimental, refinement or atomic coordinate data resulting
# from the CCDC's data processing and validation procedures.
#
#######################################################################

data_CSD_CIF_MFRCAH10
_audit_creation_date 1973-12-11
_audit_creation_method CSD-ConQuest-V1
_database_code_CSD MFRCAH10
_chemical_formula_sum 'C4 H6 N4 O3'
_chemical_formula_moiety
;
C4 H6 N4 O3
;
_journal_coeditor_code "IUCr A10142"
_journal_coden_Cambridge 107
_journal_volume 29
_journal_year 1973
_journal_page_first 1618
_journal_name_full 'Acta Crystallogr.,Sect.B:Struct.Crystallogr.Cryst.Chem. '
loop_
_publ_author_name
"M.Calleri"
"G.Chiari"
"G.Germain"
"D.Viterbo"
_chemical_name_systematic
;
3-Methyl-4-furoxancarbohydrazide
;
_chemical_melting_point 397.15
_cell_volume    331.564
_exptl_crystal_density_diffrn 1.584
_exptl_special_details
;
Melting point range 397.15-399.15K

;
_diffrn_ambient_temperature ?
_diffrn_special_details
;
The study was carried out at room temperature,in the range 283-303K

;
#These two values have been output from a single CSD field.
_refine_ls_R_factor_gt 0.062
_refine_ls_wR_factor_gt 0.062
_symmetry_cell_setting triclinic
_symmetry_space_group_name_H-M 'P -1'
_symmetry_Int_Tables_number 2
loop_
_symmetry_equiv_pos_site_id
_symmetry_equiv_pos_as_xyz
1 x,y,z
2 -x,-y,-z
_cell_length_a 9.092(1)
_cell_length_b 6.733(8)
_cell_length_c 6.987(6)
_cell_angle_alpha 69.91(2)
_cell_angle_beta 117.72(2)
_cell_angle_gamma 117.40(2)
_cell_formula_units_Z 2
loop_
_atom_type_symbol
_atom_type_radius_bond
C 0.68
H 0.20
N 0.68
O 0.68
loop_
_atom_site_label
_atom_site_type_symbol
_atom_site_fract_x
_atom_site_fract_y
_atom_site_fract_z
C1 C -0.36680 0.32110 -0.51250
C2 C -0.53310 0.22880 -0.48880
C3 C -0.71220 0.17510 -0.66840
C4 C -0.31490 0.39630 -0.70660
H1 H -0.34080 0.53670 -0.77960
H2 H -0.38980 0.29110 -0.80750
H3 H -0.18960 0.43760 -0.65860
H4 H -0.84620 0.08010 -0.49870
H5 H -1.03020 0.15970 -0.84360
H6 H -1.04650 -0.07380 -0.80910
N1 N -0.24550 0.33660 -0.31300
N2 N -0.51500 0.19140 -0.28420
N3 N -0.85000 0.09700 -0.60730
N4 N -1.02620 0.04440 -0.75460
O1 O -0.33760 0.25530 -0.16290
O2 O -0.08200 0.39990 -0.23280
O3 O -0.72540 0.20080 -0.85690
#END
