
#######################################################################
#
#                 Cambridge Crystallographic Data Centre
#                                CCDC
#
#######################################################################
#
# If this CIF has been generated from an entry in the Cambridge
# Structural Database, then it will include bibliographic, chemical,
# crystal, experimental, refinement or atomic coordinate data resulting
# from the CCDC's data processing and validation procedures.
#
#######################################################################

data_CSD_CIF_MFZCHZ
_audit_creation_date 1976-09-20
_audit_creation_method CSD-ConQuest-V1
_database_code_CSD MFZCHZ
_chemical_formula_sum 'C4 H6 N4 O2'
_chemical_formula_moiety
;
C4 H6 N4 O2
;
_journal_coden_Cambridge 189
_journal_volume 5
_journal_year 1976
_journal_page_first 329
_journal_name_full 'Cryst.Struct.Commun. '
loop_
_publ_author_name
"A.G.Manfredotti"
"C.Guastini"
"M.Calleri"
"D.Viterbo"
_chemical_name_systematic
;
4-Methyl-3-furazancarbohydrazide
;
_chemical_melting_point 386.15
_cell_volume    621.177
_exptl_crystal_density_diffrn 1.519
_exptl_special_details
;
Melting point range 386.15-387.15K

;
_diffrn_ambient_temperature ?
_diffrn_special_details
;
The study was carried out at room temperature,in the range 283-303K

;
#These two values have been output from a single CSD field.
_refine_ls_R_factor_gt 0.047
_refine_ls_wR_factor_gt 0.047
_symmetry_cell_setting monoclinic
_symmetry_space_group_name_H-M 'P 21/n'
_symmetry_Int_Tables_number 14
loop_
_symmetry_equiv_pos_site_id
_symmetry_equiv_pos_as_xyz
1 x,y,z
2 1/2-x,1/2+y,1/2-z
3 -x,-y,-z
4 -1/2+x,-1/2-y,-1/2+z
_cell_length_a 6.64(1)
_cell_length_b 24.79(1)
_cell_length_c 3.78(1)
_cell_angle_alpha 90
_cell_angle_beta 93.3(1)
_cell_angle_gamma 90
_cell_formula_units_Z 4
loop_
_atom_type_symbol
_atom_type_radius_bond
C 0.68
H 0.23
N 0.68
O 0.68
loop_
_atom_site_label
_atom_site_type_symbol
_atom_site_fract_x
_atom_site_fract_y
_atom_site_fract_z
C1 C 0.47580 0.08440 0.33350
C2 C 0.55020 0.13470 0.47900
C3 C 0.26780 0.06850 0.21830
C4 C 0.43300 0.18370 0.57050
H1 H 0.65000 0.23400 0.42600
H2 H 0.28000 0.03700 0.08800
H3 H 0.20400 0.05800 0.43600
H4 H 0.20500 0.09500 0.07100
H5 H 0.42400 0.30200 0.45900
H6 H 0.51800 0.29500 0.80400
N1 N 0.62980 0.05190 0.31440
N2 N 0.74360 0.13150 0.55030
N3 N 0.52740 0.23060 0.52870
N4 N 0.43240 0.27820 0.64410
O1 O 0.79710 0.08030 0.45070
O2 O 0.26390 0.17830 0.68080
#END
