
#######################################################################
#
#                 Cambridge Crystallographic Data Centre
#                                CCDC
#
#######################################################################
#
# If this CIF has been generated from an entry in the Cambridge
# Structural Database, then it will include bibliographic, chemical,
# crystal, experimental, refinement or atomic coordinate data resulting
# from the CCDC's data processing and validation procedures.
#
#######################################################################

data_CSD_CIF_MHNTCN
_audit_creation_date 1975-12-19
_audit_creation_method CSD-ConQuest-V1
_database_code_CSD MHNTCN
_chemical_formula_sum 'C10 H9 N1 O5'
_chemical_formula_moiety
;
C10 H9 N1 O5
;
_journal_coeditor_code "IUCr A12295"
_journal_coden_Cambridge 107
_journal_volume 31
_journal_year 1975
_journal_page_first 1963
_journal_name_full 'Acta Crystallogr.,Sect.B:Struct.Crystallogr.Cryst.Chem. '
loop_
_publ_author_name
"A.W.Hanson"
_chemical_name_systematic
;
Methyl 4-hydroxy-3-nitro-trans-cinnamate
;
_cell_volume   1004.071
_exptl_crystal_density_diffrn 1.477
_diffrn_ambient_temperature ?
_diffrn_special_details
;
The study was carried out at room temperature,in the range 283-303K

;
#These two values have been output from a single CSD field.
_refine_ls_R_factor_gt 0.048
_refine_ls_wR_factor_gt 0.048
_symmetry_cell_setting monoclinic
_symmetry_space_group_name_H-M 'P 21/c'
_symmetry_Int_Tables_number 14
loop_
_symmetry_equiv_pos_site_id
_symmetry_equiv_pos_as_xyz
1 x,y,z
2 -x,1/2+y,1/2-z
3 -x,-y,-z
4 x,-1/2-y,-1/2+z
_cell_length_a 3.873(4)
_cell_length_b 21.34(2)
_cell_length_c 12.15(1)
_cell_angle_alpha 90
_cell_angle_beta 90.9(1)
_cell_angle_gamma 90
_cell_formula_units_Z 4
loop_
_atom_type_symbol
_atom_type_radius_bond
C 0.68
H 0.23
N 0.68
O 0.68
loop_
_atom_site_label
_atom_site_type_symbol
_atom_site_fract_x
_atom_site_fract_y
_atom_site_fract_z
C1 C -0.07052 -0.33895 0.48483
C2 C -0.16550 -0.39704 0.54161
C3 C -0.32423 -0.40136 0.63556
C4 C -0.40226 -0.46246 0.68553
C5 C -0.64320 -0.51189 0.84081
C6 C -0.13599 -0.27998 0.52748
C7 C -0.04366 -0.22648 0.46990
C8 C 0.12268 -0.23047 0.36857
C9 C 0.18326 -0.28947 0.32630
C10 C 0.09225 -0.34219 0.38310
H1 H 0.17600 -0.14700 0.35000
H2 H -0.11500 -0.43600 0.50400
H3 H -0.41600 -0.36500 0.67800
H4 H -0.44700 -0.53700 0.85000
H5 H -0.75800 -0.49900 0.90600
H6 H -0.76400 -0.54200 0.79300
H7 H -0.23700 -0.27400 0.59400
H8 H 0.29900 -0.29100 0.25900
H9 H 0.11500 -0.38400 0.35400
N1 N -0.12533 -0.16601 0.51739
O1 O 0.22868 -0.18113 0.30868
O2 O -0.55785 -0.45521 0.78257
O3 O -0.33486 -0.51252 0.64879
O4 O -0.29411 -0.16408 0.60068
O5 O -0.02261 -0.11819 0.47181
#END
