
#######################################################################
#
#                 Cambridge Crystallographic Data Centre
#                                CCDC
#
#######################################################################
#
# If this CIF has been generated from an entry in the Cambridge
# Structural Database, then it will include bibliographic, chemical,
# crystal, experimental, refinement or atomic coordinate data resulting
# from the CCDC's data processing and validation procedures.
#
#######################################################################

data_CSD_CIF_MHPIPO11
_audit_creation_date 2018-02-23
_audit_creation_method CSD-ConQuest-V1
_database_code_CSD MHPIPO11
_database_code_depnum_ccdc_archive 'CCDC 1549173'
_chemical_formula_sum 'C9 H18 N1 O2'
_chemical_formula_moiety
;
C9 H18 N1 O2
;
_journal_coden_Cambridge 1078
_journal_year 2018
_journal_name_full 'CSD Communication(Private Communication) '
loop_
_publ_author_name
"S.Mukherjee"
"M.Zeller"
"B.W.Boudouris"
_chemical_name_systematic
;
4-hydroxy-2,2,6,6-tetramethylpiperidine N-oxide
;
_cell_volume    486.758
_exptl_crystal_colour 'yellow'
_exptl_crystal_density_diffrn 1.175
_exptl_crystal_description 'block'
_diffrn_ambient_temperature 150
_diffrn_special_details
;
twin

;
#These two values have been output from a single CSD field.
_refine_ls_R_factor_gt 0.051
_refine_ls_wR_factor_gt 0.051
_symmetry_cell_setting monoclinic
_symmetry_space_group_name_H-M 'C m'
_symmetry_Int_Tables_number 8
loop_
_symmetry_equiv_pos_site_id
_symmetry_equiv_pos_as_xyz
1 x,y,z
2 x,-y,z
3 1/2+x,1/2+y,z
4 1/2+x,1/2-y,z
_cell_length_a 7.0310(5)
_cell_length_b 13.8065(10)
_cell_length_c 5.7429(4)
_cell_angle_alpha 90
_cell_angle_beta 119.175(2)
_cell_angle_gamma 90
_cell_formula_units_Z 2
loop_
_atom_type_symbol
_atom_type_radius_bond
C 0.68
H 0.23
N 0.68
O 0.68
loop_
_atom_site_label
_atom_site_type_symbol
_atom_site_fract_x
_atom_site_fract_y
_atom_site_fract_z
C1 C 0.2647(5) 0.50000 0.7564(6)
H1 H 0.40436 0.50000 0.92944
C2 C 0.2624(4) 0.58876(17) 0.5989(5)
H2 H 0.25198 0.64752 0.69080
H3 H 0.13140 0.58645 0.42029
C3 C 0.4648(4) 0.59637(15) 0.5657(4)
C4 C 0.6645(5) 0.62931(18) 0.8242(5)
H4 H 0.68868 0.58477 0.96890
H5 H 0.63971 0.69481 0.86949
H6 H 0.79290 0.62941 0.79932
C5 C 0.4202(5) 0.66742(17) 0.3395(5)
H7 H 0.55013 0.67280 0.31884
H8 H 0.38405 0.73116 0.38234
H9 H 0.29782 0.64372 0.17289
N1 N 0.5144(5) 0.50000 0.4866(5)
O1 O 0.0897(4) 0.50000 0.8135(5)
O2 O 0.6557(4) 0.50000 0.4060(4)
H10? H -0.041(10) 0.518(6) 0.658(13)
C2A C 0.2624(4) 0.41124(17) 0.5989(5)
H2A H 0.25198 0.35248 0.69080
H3A H 0.13140 0.41355 0.42029
C3A C 0.4648(4) 0.40363(15) 0.5657(4)
C4A C 0.6645(5) 0.37069(18) 0.8242(5)
H4A H 0.68868 0.41523 0.96890
H5A H 0.63971 0.30519 0.86949
H6A H 0.79290 0.37059 0.79932
C5A C 0.4202(5) 0.33258(17) 0.3395(5)
H7A H 0.55013 0.32720 0.31884
H8A H 0.38405 0.26884 0.38234
H9A H 0.29782 0.35628 0.17289
#END
