
#######################################################################
#
#                 Cambridge Crystallographic Data Centre
#                                CCDC
#
#######################################################################
#
# If this CIF has been generated from an entry in the Cambridge
# Structural Database, then it will include bibliographic, chemical,
# crystal, experimental, refinement or atomic coordinate data resulting
# from the CCDC's data processing and validation procedures.
#
#######################################################################

data_CSD_CIF_MHPNBZ10
_audit_creation_date 1981-09-30
_audit_creation_method CSD-ConQuest-V1
_database_code_CSD MHPNBZ10
_database_code_depnum_ccdc_archive 'CCDC 1211833'
_chemical_formula_sum 'C24 H30 N2 O6'
_chemical_formula_moiety
;
C24 H30 N2 O6
;
_journal_coeditor_code "IUCr A20013"
_journal_coden_Cambridge 107
_journal_volume 37
_journal_year 1981
_journal_page_first 772
_journal_name_full 'Acta Crystallogr.,Sect.B:Struct.Crystallogr.Cryst.Chem. '
loop_
_publ_author_name
"A.de A.Gomez-Barreda"
"J.L.Balcazar-Pinal"
"M.Martinez-Ripoll"
"S.Garcia-Blanco"
_chemical_name_systematic
;
2,2,6,6-Tetramethyl-5-phenyl-3-heptyl-3',5'-dinitrobenzoate
;
_cell_volume   1212.293
_exptl_crystal_density_diffrn 1.212
_diffrn_ambient_temperature ?
_diffrn_special_details
;
The study was carried out at room temperature,in the range 283-303K

;
#These two values have been output from a single CSD field.
_refine_ls_R_factor_gt 0.056
_refine_ls_wR_factor_gt 0.056
_symmetry_cell_setting triclinic
_symmetry_space_group_name_H-M 'P -1'
_symmetry_Int_Tables_number 2
loop_
_symmetry_equiv_pos_site_id
_symmetry_equiv_pos_as_xyz
1 x,y,z
2 -x,-y,-z
_cell_length_a 13.929(2)
_cell_length_b 11.917(1)
_cell_length_c 7.684(1)
_cell_angle_alpha 99.02(2)
_cell_angle_beta 104.90(2)
_cell_angle_gamma 82.69(1)
_cell_formula_units_Z 2
loop_
_atom_type_symbol
_atom_type_radius_bond
C 0.68
H 0.23
N 0.68
O 0.68
loop_
_atom_site_label
_atom_site_type_symbol
_atom_site_fract_x
_atom_site_fract_y
_atom_site_fract_z
C1 C 0.30240 1.05240 1.05370
C2 C 0.34020 1.03160 1.23080
C3 C 0.35830 1.12380 1.36640
C4 C 0.34140 1.23490 1.32990
C5 C 0.30540 1.25190 1.15180
C6 C 0.28470 1.16360 1.01110
C7 C 0.27300 0.95780 0.90070
C8 C 0.26540 0.75230 0.84230
C9 C 0.20680 0.70180 0.94750
C10 C 0.10720 0.77320 0.95520
C11 C 0.02500 0.74390 0.78770
C12 C -0.00280 0.63260 0.72910
C13 C -0.08340 0.61100 0.58260
C14 C -0.13730 0.69710 0.49140
C15 C -0.11000 0.80670 0.54270
C16 C -0.02910 0.82880 0.68900
C17 C 0.35730 0.67850 0.79900
C18 C 0.42980 0.64440 0.97080
C19 C 0.32280 0.57120 0.67330
C20 C 0.40800 0.74500 0.69940
C21 C 0.07560 0.77420 1.13660
C22 C -0.02710 0.84030 1.12270
C23 C 0.07100 0.65480 1.18060
C24 C 0.14950 0.84040 1.29080
N1 N 0.28540 1.36970 1.10830
N2 N 0.39540 1.10230 1.55640
O1 O 0.41400 1.00390 1.58870
O2 O 0.40510 1.18380 1.67390
O3 O 0.31630 1.44560 1.22700
O4 O 0.24010 1.38600 0.95790
O5 O 0.30020 0.85670 0.96080
O6 O 0.22920 0.97440 0.75140
H1 H 0.35300 0.95800 1.26300
H2 H 0.35600 1.29400 1.41600
H3 H 0.25800 1.18200 0.89200
H4 H 0.21900 0.77800 0.73300
H5 H 0.24800 0.69300 1.07100
H6 H 0.19100 0.62300 0.89800
H7 H 0.11800 0.85700 0.96000
H8 H 0.03800 0.57400 0.79300
H9 H -0.10200 0.52800 0.55000
H10 H -0.19400 0.68400 0.38700
H11 H -0.14100 0.86600 0.46900
H12 H -0.00800 0.90800 0.71700
H13 H 0.39800 0.59900 1.04600
H14 H 0.46100 0.70900 1.03300
H15 H 0.48600 0.60900 0.94600
H16 H 0.27000 0.59100 0.56600
H17 H 0.29800 0.52500 0.73500
H18 H 0.38000 0.52900 0.63800
H19 H 0.43900 0.81300 0.77500
H20 H 0.35900 0.76900 0.57700
H21 H 0.46300 0.69900 0.66900
H22 H -0.08100 0.80200 1.03900
H23 H -0.02900 0.91600 1.07000
H24 H -0.04700 0.84200 1.22500
H25 H 0.13600 0.60800 1.18400
H26 H 0.02000 0.61400 1.10100
H27 H 0.05700 0.66100 1.30200
H28 H 0.15400 0.92200 1.25800
H29 H 0.21400 0.79500 1.31400
H30 H 0.12700 0.83200 1.40100
#END
