
#######################################################################
#
#                 Cambridge Crystallographic Data Centre
#                                CCDC
#
#######################################################################
#
# If this CIF has been generated from an entry in the Cambridge
# Structural Database, then it will include bibliographic, chemical,
# crystal, experimental, refinement or atomic coordinate data resulting
# from the CCDC's data processing and validation procedures.
#
#######################################################################

data_CSD_CIF_MIBFOT
_audit_creation_date 2007-08-19
_audit_creation_method CSD-ConQuest-V1
_database_code_CSD MIBFOT
_database_code_depnum_ccdc_archive 'CCDC 624290'
_chemical_formula_sum 'C18 H18 N4 O4'
_chemical_formula_moiety
;
C18 H18 N4 O4
;
_journal_coden_Cambridge 471
_journal_volume 23
_journal_year 2007
_journal_page_first x61
_journal_name_full 'Anal.Sci.:X-Ray Struct.Anal.Online '
loop_
_publ_author_name
"M.H.Habibi"
"K.Barati"
"N.Zendehdel"
"R.W.Harrington"
"W.Clegg"
_chemical_name_systematic
;
N,N'-bis(3-nitrobenzylidene)butane-1,4-diamine
;
_cell_volume    843.992
_exptl_crystal_colour 'yellow'
_exptl_crystal_density_diffrn 1.395
_exptl_special_details
;
polymorph I

;
_exptl_crystal_description 'rod'
_diffrn_ambient_temperature 150
#These two values have been output from a single CSD field.
_refine_ls_R_factor_gt 0.0624
_refine_ls_wR_factor_gt 0.0624
_symmetry_cell_setting monoclinic
_symmetry_space_group_name_H-M 'P 21/c'
_symmetry_Int_Tables_number 14
loop_
_symmetry_equiv_pos_site_id
_symmetry_equiv_pos_as_xyz
1 x,y,z
2 -x,1/2+y,1/2-z
3 -x,-y,-z
4 x,-1/2-y,-1/2+z
_cell_length_a 4.981(5)
_cell_length_b 11.205(7)
_cell_length_c 15.134(12)
_cell_angle_alpha 90
_cell_angle_beta 92.28(4)
_cell_angle_gamma 90
_cell_formula_units_Z 2
loop_
_atom_type_symbol
_atom_type_radius_bond
C 0.68
H 0.23
N 0.68
O 0.68
loop_
_atom_site_label
_atom_site_type_symbol
_atom_site_fract_x
_atom_site_fract_y
_atom_site_fract_z
O1 O 0.4304(4) 0.72240(17) 0.37981(14)
O2 O 0.1070(4) 0.62612(19) 0.43780(14)
N1 N 0.3161(4) 0.6295(2) 0.39820(14)
N2 N 1.0246(4) 0.50402(19) 0.17689(13)
C1 C 0.4374(5) 0.5160(2) 0.37165(16)
C2 C 0.3475(5) 0.4106(2) 0.40827(17)
H1 H 0.20740 0.41100 0.44910
C3 C 0.4672(6) 0.3049(2) 0.38379(17)
H2 H 0.41220 0.23160 0.40900
C4 C 0.6669(5) 0.3053(2) 0.32266(17)
H3 H 0.74830 0.23230 0.30640
C5 C 0.7497(5) 0.4122(2) 0.28467(16)
C6 C 0.6350(5) 0.5190(2) 0.31050(15)
H4 H 0.69160 0.59270 0.28650
C7 C 0.9539(5) 0.4102(2) 0.21655(16)
H5 H 1.03460 0.33630 0.20200
C8 C 1.2241(5) 0.4902(2) 0.10893(16)
H6 H 1.27080 0.40480 0.10290
H7 H 1.38970 0.53420 0.12700
C9 C 1.1136(5) 0.5380(2) 0.02009(16)
H8 H 1.04720 0.62040 0.02840
H9 H 1.26130 0.54140 -0.02170
O1B O 1.5696(4) 0.27760(17) -0.37981(14)
O2B O 1.8930(4) 0.37388(19) -0.43780(14)
N1B N 1.6839(4) 0.3705(2) -0.39820(14)
N2B N 0.9754(4) 0.49598(19) -0.17689(13)
C1B C 1.5626(5) 0.4840(2) -0.37165(16)
C2B C 1.6525(5) 0.5894(2) -0.40827(17)
H1B H 1.79260 0.58900 -0.44910
C3B C 1.5328(6) 0.6951(2) -0.38379(17)
H2B H 1.58780 0.76840 -0.40900
C4B C 1.3331(5) 0.6947(2) -0.32266(17)
H3B H 1.25170 0.76770 -0.30640
C5B C 1.2503(5) 0.5878(2) -0.28467(16)
C6B C 1.3650(5) 0.4810(2) -0.31050(15)
H4B H 1.30840 0.40730 -0.28650
C7B C 1.0461(5) 0.5898(2) -0.21655(16)
H5B H 0.96540 0.66370 -0.20200
C8B C 0.7759(5) 0.5098(2) -0.10893(16)
H6B H 0.72920 0.59520 -0.10290
H7B H 0.61030 0.46580 -0.12700
C9B C 0.8864(5) 0.4620(2) -0.02009(16)
H8B H 0.95280 0.37960 -0.02840
H9B H 0.73870 0.45860 0.02170
#END
