
#######################################################################
#
#                 Cambridge Crystallographic Data Centre
#                                CCDC
#
#######################################################################
#
# If this CIF has been generated from an entry in the Cambridge
# Structural Database, then it will include bibliographic, chemical,
# crystal, experimental, refinement or atomic coordinate data resulting
# from the CCDC's data processing and validation procedures.
#
#######################################################################

data_CSD_CIF_MIBFEK
_audit_creation_date 2013-05-26
_audit_creation_method CSD-ConQuest-V1
_database_code_CSD MIBFEK
_database_code_depnum_ccdc_archive 'CCDC 868582'
_chemical_formula_sum 'C12 H13 N1 O4'
_chemical_formula_moiety
;
C12 H13 N1 O4
;
_journal_coden_Cambridge 35
_journal_volume 77
_journal_year 2012
_journal_page_first 6208
_journal_name_full 'J.Org.Chem. '
loop_
_publ_author_name
"Aidang Lu"
"Keling Hu"
"Youming Wang"
"Haibin Song"
"Zhenghong Zhou"
"Jianxin Fang"
"Chuchi Tang"
_chemical_name_systematic
;
1-(6-Methyl-3-(nitromethyl)-2,3-dihydro-1-benzofuran-2-yl)ethanone
;
_cell_volume   1155.311
_exptl_crystal_colour 'colorless'
_exptl_crystal_density_diffrn 1.352
_exptl_special_details
;
Absolute configuration

;
_exptl_crystal_description 'prism'
_diffrn_ambient_temperature 113
#These two values have been output from a single CSD field.
_refine_ls_R_factor_gt 0.0676
_refine_ls_wR_factor_gt 0.0676
_symmetry_cell_setting orthorhombic
_symmetry_space_group_name_H-M 'P 21 21 21'
_symmetry_Int_Tables_number 19
loop_
_symmetry_equiv_pos_site_id
_symmetry_equiv_pos_as_xyz
1 x,y,z
2 1/2+x,1/2-y,-z
3 -x,1/2+y,1/2-z
4 1/2-x,-y,1/2+z
_cell_length_a 6.340(1)
_cell_length_b 8.6490(12)
_cell_length_c 21.069(2)
_cell_angle_alpha 90
_cell_angle_beta 90
_cell_angle_gamma 90
_cell_formula_units_Z 4
loop_
_atom_type_symbol
_atom_type_radius_bond
C 0.68
H 0.23
N 0.68
O 0.68
loop_
_atom_site_label
_atom_site_type_symbol
_atom_site_fract_x
_atom_site_fract_y
_atom_site_fract_z
O1 O 0.7541(2) 0.03905(17) 0.77560(7)
O2 O 0.8855(3) 0.3051(2) 0.82394(9)
O3 O 0.2764(3) 0.0722(3) 0.92471(9)
O4 O 0.0198(2) -0.0723(2) 0.89461(8)
N1 N 0.1769(3) 0.0049(3) 0.88373(9)
C1 C 0.6379(3) 0.0978(3) 0.82894(9)
H1 H 0.62720 0.01620 0.86240
C2 C 0.4119(3) 0.1399(3) 0.80418(10)
H2 H 0.36340 0.24150 0.82140
C3 C 0.4541(3) 0.1494(2) 0.73354(9)
C4 C 0.6521(3) 0.0873(2) 0.72160(9)
C5 C 0.7354(3) 0.0752(3) 0.66108(10)
H3 H 0.87160 0.03260 0.65430
C6 C 0.6133(4) 0.1275(3) 0.61047(10)
C7 C 0.4116(4) 0.1883(3) 0.62207(11)
H4 H 0.32870 0.22360 0.58740
C8 C 0.3309(4) 0.1979(3) 0.68324(10)
H5 H 0.19300 0.23720 0.69040
C9 C 0.7537(3) 0.2390(3) 0.85563(10)
C10 C 0.7017(4) 0.2841(3) 0.92243(11)
H6 H 0.76660 0.38430 0.93210
H7 H 0.75620 0.20570 0.95170
H8 H 0.54840 0.29200 0.92720
C11 C 0.2505(3) 0.0140(3) 0.81599(9)
H9 H 0.12690 0.03240 0.78830
H10 H 0.31240 -0.08680 0.80380
C12 C 0.6994(4) 0.1214(4) 0.54348(11)
H11 H 0.82320 0.05360 0.54230
H12 H 0.73990 0.22560 0.52990
H13 H 0.59080 0.08090 0.51480
#END
