
#######################################################################
#
#                 Cambridge Crystallographic Data Centre
#                                CCDC
#
#######################################################################
#
# If this CIF has been generated from an entry in the Cambridge
# Structural Database, then it will include bibliographic, chemical,
# crystal, experimental, refinement or atomic coordinate data resulting
# from the CCDC's data processing and validation procedures.
#
#######################################################################

data_CSD_CIF_MIBJOX
_audit_creation_date 2007-08-20
_audit_creation_method CSD-ConQuest-V1
_database_code_CSD MIBJOX
_database_code_depnum_ccdc_archive 'CCDC 606731'
_chemical_formula_sum 'C12 H17 N1 O5'
_chemical_formula_moiety
;
C12 H17 N1 O5
;
_journal_coden_Cambridge 1336
_journal_volume 9
_journal_year 2007
_journal_page_first 753
_journal_name_full 'Org.Lett. '
loop_
_publ_author_name
"Tony K.M.Shing"
"Wai F.Wong"
"Hau M.Cheng"
"Wun S.Kwok"
"King H.So"
_chemical_name_systematic
;
7,7-dimethyl-3,3a,4,5,5a,8a-hexahydro[1,3]dioxolo[4,5-g][2,1]benzisoxazol-5-yl
 acetate
;
_chemical_melting_point 388.15
_cell_volume   1322.276
_exptl_crystal_colour 'colorless'
_exptl_crystal_density_diffrn 1.282
_exptl_special_details
;
Melting point range 388.15-389.15K

;
_exptl_crystal_description 'block'
_exptl_crystal_preparation 'diethyl ether/hexane'
_diffrn_ambient_temperature 293
#These two values have been output from a single CSD field.
_refine_ls_R_factor_gt 0.0419
_refine_ls_wR_factor_gt 0.0419
_symmetry_cell_setting orthorhombic
_symmetry_space_group_name_H-M 'P 21 21 21'
_symmetry_Int_Tables_number 19
loop_
_symmetry_equiv_pos_site_id
_symmetry_equiv_pos_as_xyz
1 x,y,z
2 1/2-x,-y,1/2+z
3 -x,1/2+y,1/2-z
4 1/2+x,1/2-y,-z
_cell_length_a 8.0623(12)
_cell_length_b 10.3743(16)
_cell_length_c 15.809(2)
_cell_angle_alpha 90
_cell_angle_beta 90
_cell_angle_gamma 90
_cell_formula_units_Z 4
loop_
_atom_type_symbol
_atom_type_radius_bond
C 0.68
H 0.23
N 0.68
O 0.68
loop_
_atom_site_label
_atom_site_type_symbol
_atom_site_fract_x
_atom_site_fract_y
_atom_site_fract_z
N1 N 0.9420(2) 0.10954(18) 0.77098(15)
O1 O 0.6251(3) 0.2959(3) 0.50177(12)
O2 O 0.50814(18) 0.37015(15) 0.61909(9)
O3 O 1.0909(2) 0.15786(17) 0.73559(15)
O4 O 0.6493(2) 0.24260(18) 0.88754(10)
O5 O 0.49925(19) 0.36595(15) 0.79864(9)
C1 C 0.3999(4) 0.4441(3) 0.49088(16)
H1 H 0.41430 0.43580 0.43080
H2 H 0.41610 0.53240 0.50710
H3 H 0.28990 0.41750 0.50610
C2 C 0.5227(3) 0.3618(3) 0.53506(16)
C3 C 0.6296(2) 0.3019(2) 0.66960(13)
H4 H 0.66730 0.22600 0.63810
C4 C 0.7766(3) 0.3893(2) 0.68512(16)
H5 H 0.73780 0.47090 0.70760
H6 H 0.83220 0.40630 0.63190
C5 C 0.9003(2) 0.32897(19) 0.74734(14)
H7 H 0.91750 0.38690 0.79550
C6 C 1.0666(3) 0.2889(2) 0.71065(18)
H8 H 1.06540 0.29620 0.64950
H9 H 1.15470 0.34300 0.73270
C7 C 0.8403(2) 0.20124(19) 0.77789(14)
C8 C 0.6663(3) 0.1831(2) 0.80731(13)
H10 H 0.63720 0.09150 0.80990
C9 C 0.5459(2) 0.25775(19) 0.74939(13)
H11 H 0.44870 0.20480 0.73600
C10 C 0.5119(3) 0.3301(3) 0.88518(14)
C11 C 0.5571(4) 0.4487(3) 0.93491(17)
H12 H 0.65800 0.48460 0.91300
H13 H 0.57240 0.42610 0.99330
H14 H 0.46960 0.51110 0.93020
C12 C 0.3565(3) 0.2635(4) 0.91516(19)
H15 H 0.33710 0.18820 0.88130
H16 H 0.26400 0.32120 0.91000
H17 H 0.36950 0.23870 0.97330
#END
