
#######################################################################
#
#                 Cambridge Crystallographic Data Centre
#                                CCDC
#
#######################################################################
#
# If this CIF has been generated from an entry in the Cambridge
# Structural Database, then it will include bibliographic, chemical,
# crystal, experimental, refinement or atomic coordinate data resulting
# from the CCDC's data processing and validation procedures.
#
#######################################################################

data_CSD_CIF_MICMAM
_audit_creation_date 2002-05-09
_audit_creation_method CSD-ConQuest-V1
_database_code_CSD MICMAM
_chemical_formula_sum 'C9 H11 N3 O4'
_chemical_formula_moiety
;
C9 H11 N3 O4
;
_journal_coden_Cambridge 1096
_journal_volume 12
_journal_year 2000
_journal_page_first 3362
_journal_name_full 'Chem.Mater. '
loop_
_publ_author_name
"P.Gangopadhyay"
"T.P.Radhakrishnan"
_chemical_name_systematic
;
2,4-Dinitro-N-(n-propyl)aniline
;
_chemical_melting_point 373.15
_cell_volume   1036.527
_exptl_crystal_colour 'yellow'
_exptl_crystal_density_diffrn 1.443
_exptl_special_details
;
Melting point range 373.15-375.15K

;
_exptl_crystal_description 'prism'
_diffrn_ambient_temperature 293
#These two values have been output from a single CSD field.
_refine_ls_R_factor_gt 0.04
_refine_ls_wR_factor_gt 0.04
_symmetry_cell_setting monoclinic
_symmetry_space_group_name_H-M 'P 21/c'
_symmetry_Int_Tables_number 14
loop_
_symmetry_equiv_pos_site_id
_symmetry_equiv_pos_as_xyz
1 x,y,z
2 -x,1/2+y,1/2-z
3 -x,-y,-z
4 x,-1/2-y,-1/2+z
_cell_length_a 8.225(3)
_cell_length_b 11.3285(13)
_cell_length_c 11.2088(18)
_cell_angle_alpha 90
_cell_angle_beta 97.04(2)
_cell_angle_gamma 90
_cell_formula_units_Z 4
loop_
_atom_type_symbol
_atom_type_radius_bond
C 0.68
H 0.23
N 0.68
O 0.68
loop_
_atom_site_label
_atom_site_type_symbol
_atom_site_fract_x
_atom_site_fract_y
_atom_site_fract_z
N1 N 0.2059(2) 0.1540(2) -0.1134(1)
N2 N 0.0738(2) -0.0858(2) -0.1586(1)
N3 N 0.3730(2) -0.2078(2) 0.2186(2)
O1 O 0.0241(2) -0.0098(2) -0.2319(1)
O2 O 0.0329(2) -0.1895(2) -0.1714(1)
O3 O 0.3307(2) -0.3090(1) 0.1948(2)
O4 O 0.4528(2) -0.1802(1) 0.3133(2)
C1 C 0.2432(2) 0.0649(2) -0.0360(2)
C2 C 0.1832(2) -0.0524(2) -0.0532(2)
C3 C 0.2277(2) -0.1410(2) 0.0288(2)
C4 C 0.3295(2) -0.1155(2) 0.1313(2)
C5 C 0.3914(2) -0.0023(2) 0.1528(2)
C6 C 0.3495(2) 0.0845(2) 0.0717(2)
C7 C 0.2679(2) 0.2744(2) -0.0973(2)
C8 C 0.1754(2) 0.3483(2) -0.0176(2)
C9 C 0.2424(3) 0.4731(2) -0.0048(2)
H1 H 0.14040 0.13900 -0.17740
H2 H 0.18890 -0.21750 0.01440
H3 H 0.46120 0.01380 0.22260
H4 H 0.39210 0.15980 0.08720
H5 H 0.26270 0.31200 -0.17540
H6 H 0.38210 0.27150 -0.06320
H7 H 0.18200 0.31200 0.06120
H8 H 0.06090 0.35120 -0.05090
H9 H 0.35530 0.47060 0.02920
H10 H 0.18050 0.51760 0.04690
H11 H 0.23370 0.50990 -0.08250
#END
