
#######################################################################
#
#                 Cambridge Crystallographic Data Centre
#                                CCDC
#
#######################################################################
#
# If this CIF has been generated from an entry in the Cambridge
# Structural Database, then it will include bibliographic, chemical,
# crystal, experimental, refinement or atomic coordinate data resulting
# from the CCDC's data processing and validation procedures.
#
#######################################################################

data_CSD_CIF_MIDFAJ
_audit_creation_date 2018-05-28
_audit_creation_method CSD-ConQuest-V1
_database_code_CSD MIDFAJ
_database_code_depnum_ccdc_archive 'CCDC 1505436'
_chemical_formula_sum 'C27 H24 N2 O3'
_chemical_formula_moiety
;
C27 H24 N2 O3
;
_journal_coden_Cambridge 10
_journal_volume 101
_journal_year 2018
_journal_page_first e1800023
_journal_name_full 'Helv.Chim.Acta '
loop_
_publ_author_name
"A.Benmeddah"
"N.Bar"
"D.Villemin"
"J.-F.Lohier"
"B.Mostefa-Kara"
"R.Legay"
_chemical_name_systematic
;
2,3a,8-Trimethyl-6-nitro-1,9b-diphenyl-3a,4,5,9b-tetrahydro-3H-cyclopenta[c]qu
inolin-3-one
;
_chemical_melting_point 515
_cell_volume   1085.288
_exptl_crystal_colour 'orange'
_exptl_crystal_density_diffrn 1.299
_exptl_crystal_description 'block'
_diffrn_ambient_temperature 291
#These two values have been output from a single CSD field.
_refine_ls_R_factor_gt 0.0521
_refine_ls_wR_factor_gt 0.0521
_symmetry_cell_setting triclinic
_symmetry_space_group_name_H-M 'P -1'
_symmetry_Int_Tables_number 2
loop_
_symmetry_equiv_pos_site_id
_symmetry_equiv_pos_as_xyz
1 x,y,z
2 -x,-y,-z
_cell_length_a 8.5165(3)
_cell_length_b 9.4058(4)
_cell_length_c 14.3218(6)
_cell_angle_alpha 87.971(2)
_cell_angle_beta 79.674(2)
_cell_angle_gamma 74.086(2)
_cell_formula_units_Z 2
loop_
_atom_type_symbol
_atom_type_radius_bond
C 0.68
H 0.23
N 0.68
O 0.68
loop_
_atom_site_label
_atom_site_type_symbol
_atom_site_fract_x
_atom_site_fract_y
_atom_site_fract_z
C1 C 0.31273(15) 0.84317(14) 0.32137(9)
C2 C 0.44243(16) 0.74780(15) 0.24298(9)
C3 C 0.33794(16) 0.78895(15) 0.42460(9)
C4 C 0.55983(16) 0.61680(15) 0.26381(10)
C5 C 0.66175(19) 0.53291(16) 0.18457(11)
C6 C 0.43623(19) 0.78825(18) 0.14967(10)
C7 C 0.51397(18) 0.69836(18) 0.42675(11)
C8 C 0.6489(2) 0.5746(2) 0.09108(12)
C9 C 0.5376(2) 0.7030(2) 0.07193(11)
C10 C 0.21461(17) 0.69778(15) 0.45238(10)
C11 C 0.14646(16) 0.80976(14) 0.31456(10)
C12 C 0.09418(16) 0.73170(15) 0.38813(10)
C13 C -0.0566(2) 0.6765(2) 0.40582(14)
C14 C 0.5220(3) 0.7515(3) -0.02833(13)
H1 H 0.60860 0.68670 -0.07200
H2 H 0.53150 0.85070 -0.03610
H3 H 0.41610 0.74780 -0.04070
C15 C 0.31296(17) 1.00494(15) 0.3100(1)
C16 C 0.06610(17) 0.83238(16) 0.22889(10)
C17 C 0.1700(2) 1.11980(17) 0.33461(12)
C18 C 0.4632(2) 1.04092(19) 0.28334(12)
C19 C -0.0208(2) 0.9681(2) 0.19886(14)
C20 C 0.0727(2) 0.7062(2) 0.17859(13)
C21 C 0.4679(3) 1.1873(2) 0.28260(14)
C22 C -0.0055(3) 0.7148(3) 0.10134(14)
C23 C 0.1751(3) 1.26607(19) 0.33142(15)
C24 C 0.3245(3) 1.2995(2) 0.30618(15)
C25 C -0.0993(3) 0.9750(3) 0.12088(17)
C26 C -0.0925(3) 0.8500(3) 0.07309(15)
C27 C 0.2898(2) 0.91256(19) 0.50031(12)
O1 O 0.21695(15) 0.61193(14) 0.51763(8)
O2 O 0.79265(17) 0.34390(14) 0.27497(10)
N1 N 0.56859(16) 0.58059(15) 0.35596(9)
N2 N 0.79148(19) 0.40092(16) 0.19671(11)
H4 H 0.644(3) 0.499(2) 0.3664(15)
H5 H 0.726(3) 0.513(2) 0.0399(15)
H6 H 0.357(2) 0.882(2) 0.1369(13)
H7 H 0.566(2) 0.964(2) 0.2661(13)
H8 H 0.063(3) 1.100(2) 0.3566(14)
H9 H 0.069(3) 1.342(3) 0.3513(16)
H10 H 0.574(3) 1.209(3) 0.2671(16)
H11 H 0.327(3) 1.402(3) 0.3065(18)
H12 H -0.029(3) 1.059(3) 0.2315(16)
H13 H 0.132(3) 0.611(3) 0.1978(16)
H14 H -0.145(3) 0.854(3) 0.0194(18)
H15 H 0.000(3) 0.623(3) 0.0671(17)
H16 H -0.160(4) 1.068(3) 0.105(2)
H17 H 0.521(2) 0.653(2) 0.4871(14)
H18 H -0.122(4) 0.699(3) 0.358(2)
H19 H 0.298(3) 0.869(2) 0.5629(15)
H20 H 0.586(2) 0.765(2) 0.4166(12)
H21 H 0.362(3) 0.977(2) 0.4874(14)
H22 H -0.028(4) 0.575(4) 0.413(2)
H23 H 0.173(3) 0.974(2) 0.5056(14)
H24 H -0.136(4) 0.726(3) 0.460(2)
O3 O 0.8987(3) 0.3503(2) 0.12863(12)
#END
