
#######################################################################
#
#                 Cambridge Crystallographic Data Centre
#                                CCDC
#
#######################################################################
#
# If this CIF has been generated from an entry in the Cambridge
# Structural Database, then it will include bibliographic, chemical,
# crystal, experimental, refinement or atomic coordinate data resulting
# from the CCDC's data processing and validation procedures.
#
#######################################################################

data_CSD_CIF_MIFREY
_audit_creation_date 2002-05-09
_audit_creation_method CSD-ConQuest-V1
_database_code_CSD MIFREY
_database_code_depnum_ccdc_archive 'CCDC 180779'
_chemical_formula_sum 'C49 H49 N7 O2'
_chemical_formula_moiety
;
C49 H49 N7 O2
;
_journal_coeditor_code "IUCr OB6097"
_journal_coden_Cambridge 1370
_journal_volume 58
_journal_year 2002
_journal_page_first o120
_journal_name_full 'Acta Crystallogr.,Sect.E:Struct.Rep.Online '
loop_
_publ_author_name
"R.D.Gilardi"
"R.J.Butcher"
_chemical_name_systematic
;
2,4,6,8,10,12-Hexabenzyl-5-(nitromethylene)-2,4,6,8,10,12-hexaazatricyclo(7.3.
0.0^3,7^)dodecane
;
_cell_volume   2003.746
_exptl_crystal_colour 'colorless'
_exptl_crystal_density_diffrn 1.273
_exptl_crystal_description 'slab'
_diffrn_ambient_temperature 93
#These two values have been output from a single CSD field.
_refine_ls_R_factor_gt 0.0587
_refine_ls_wR_factor_gt 0.0587
_symmetry_cell_setting triclinic
_symmetry_space_group_name_H-M 'P -1'
_symmetry_Int_Tables_number 2
loop_
_symmetry_equiv_pos_site_id
_symmetry_equiv_pos_as_xyz
1 x,y,z
2 -x,-y,-z
_cell_length_a 10.4199(15)
_cell_length_b 11.7594(17)
_cell_length_c 17.288(3)
_cell_angle_alpha 71.449(2)
_cell_angle_beta 86.811(3)
_cell_angle_gamma 86.953(3)
_cell_formula_units_Z 2
loop_
_atom_type_symbol
_atom_type_radius_bond
C 0.68
H 0.23
N 0.68
O 0.68
loop_
_atom_site_label
_atom_site_type_symbol
_atom_site_fract_x
_atom_site_fract_y
_atom_site_fract_z
C1 C 0.07846(17) 0.87037(18) 0.32764(12)
H1 H -0.01300 0.85600 0.34780
N1 N 0.11152(14) 0.98495(14) 0.3322(1)
C2 C 0.03141(18) 1.04634(18) 0.38047(12)
H2 H 0.08800 1.07720 0.41280
H3 H -0.02500 0.98730 0.41930
C3 C -0.05121(18) 1.14930(18) 0.32937(12)
C4 C -0.01858(19) 1.2677(2) 0.31306(14)
H4 H 0.05520 1.28530 0.33650
C5 C -0.0927(2) 1.3609(2) 0.26268(15)
H5 H -0.06930 1.44170 0.25160
C6 C -0.2003(2) 1.3361(2) 0.22873(15)
H6 H -0.25040 1.39980 0.19390
C7 C -0.23536(19) 1.2188(2) 0.24532(14)
H7 H -0.31020 1.20190 0.22260
C8 C -0.16127(18) 1.12594(19) 0.29508(12)
H8 H -0.18550 1.04540 0.30610
C9 C 0.21886(17) 1.04426(17) 0.28471(12)
H9 H 0.20840 1.13180 0.27810
N2 N 0.34714(14) 1.00024(15) 0.31852(10)
C10 C 0.36589(18) 0.97783(19) 0.40507(12)
H10 H 0.45380 0.94340 0.41820
H11 H 0.30400 0.91830 0.43770
C11 C 0.34742(17) 1.09124(19) 0.42822(12)
C12 C 0.29983(17) 1.0859(2) 0.50641(12)
H12 H 0.28410 1.01010 0.54590
C13 C 0.27525(19) 1.1899(2) 0.52712(13)
H13 H 0.24420 1.18500 0.58080
C14 C 0.2959(2) 1.3012(2) 0.46967(14)
H14 H 0.27750 1.37250 0.48360
C15 C 0.3435(2) 1.3080(2) 0.39179(14)
H15 H 0.35700 1.38410 0.35210
C16 C 0.3714(2) 1.2037(2) 0.37186(14)
H16 H 0.40740 1.20900 0.31920
C17 C 0.42571(17) 0.96268(17) 0.26582(12)
C18 C 0.55712(17) 0.93415(18) 0.28394(12)
H17 H 0.59140 0.96840 0.32090
N3 N 0.63890(15) 0.86301(15) 0.25396(10)
O1 O 0.75815(12) 0.86205(13) 0.26695(9)
O2 O 0.59942(12) 0.79802(12) 0.21553(9)
N4 N 0.36426(14) 0.97051(14) 0.19785(10)
C19 C 0.42272(18) 0.97700(18) 0.11676(12)
H18 H 0.35380 0.97650 0.07970
H19 H 0.47960 0.90500 0.12210
C20 C 0.49980(18) 1.08804(18) 0.07952(12)
C21 C 0.43964(19) 1.19971(19) 0.04229(12)
H20 H 0.34890 1.20530 0.03790
C22 C 0.5097(2) 1.3022(2) 0.01178(13)
H21 H 0.46680 1.37750 -0.01230
C23 C 0.6419(2) 1.2955(2) 0.01622(14)
H22 H 0.69000 1.36610 -0.00410
C24 C 0.7037(2) 1.1858(2) 0.05037(14)
H23 H 0.79490 1.18050 0.05230
C25 C 0.63360(19) 1.0827(2) 0.08196(13)
H24 H 0.67730 1.00760 0.10550
C26 C 0.23595(16) 1.02939(17) 0.19891(12)
H25 H 0.23960 1.11160 0.15820
N5 N 0.13562(14) 0.96748(14) 0.1755(1)
C27 C 0.02745(17) 1.05122(18) 0.13919(12)
H26 H -0.00840 1.09000 0.17920
H27 H -0.04150 1.00530 0.12710
C28 C 0.06944(17) 1.14699(18) 0.06151(12)
C29 C 0.11703(17) 1.11623(18) -0.00669(12)
H28 H 0.12270 1.03420 -0.00410
C30 C 0.15619(19) 1.2036(2) -0.07808(13)
H29 H 0.18730 1.18140 -0.12420
C31 C 0.14968(19) 1.3235(2) -0.08184(14)
H30 H 0.17730 1.38350 -0.13030
C32 C 0.1030(2) 1.3554(2) -0.01507(15)
H31 H 0.09860 1.43750 -0.01780
C33 C 0.06221(18) 1.26773(19) 0.05641(14)
H32 H 0.02930 1.29060 0.10190
C34 C 0.09238(17) 0.86057(17) 0.24014(12)
H33 H 0.00710 0.83970 0.22560
N6 N 0.18222(14) 0.75827(15) 0.2474(1)
C35 C 0.15922(18) 0.69695(18) 0.18854(13)
H34 H 0.15790 0.75650 0.13320
H35 H 0.07350 0.66130 0.20110
C36 C 0.25975(19) 0.59888(18) 0.18856(12)
C37 C 0.22674(19) 0.49958(19) 0.16819(13)
H36 H 0.13960 0.49030 0.15870
C38 C 0.3199(2) 0.41333(19) 0.16149(13)
H37 H 0.29660 0.34640 0.14660
C39 C 0.4466(2) 0.4257(2) 0.17671(13)
H38 H 0.51070 0.36750 0.17190
C40 C 0.4798(2) 0.5233(2) 0.19889(13)
H39 H 0.56650 0.53100 0.21030
C41 C 0.38711(19) 0.60983(19) 0.20453(13)
H40 H 0.41070 0.67680 0.21940
C42 C 0.16760(19) 0.68257(18) 0.33223(12)
H41 H 0.24250 0.62600 0.34830
H42 H 0.08830 0.63650 0.34160
N7 N 0.15998(15) 0.76935(15) 0.3769(1)
C43 C 0.10752(19) 0.72256(19) 0.46067(12)
H43 H 0.02070 0.69300 0.45950
H44 H 0.09790 0.78920 0.48420
C44 C 0.1887(2) 0.62217(19) 0.51597(13)
C45 C 0.1292(2) 0.52605(19) 0.57210(13)
H45 H 0.03830 0.52150 0.57270
C46 C 0.1998(2) 0.4361(2) 0.62754(14)
H46 H 0.15730 0.37080 0.66580
C47 C 0.3311(2) 0.4418(2) 0.62686(15)
H47 H 0.37980 0.38120 0.66510
C48 C 0.3920(2) 0.5362(2) 0.57026(18)
H48 H 0.48290 0.53980 0.56960
C49 C 0.3218(2) 0.6258(2) 0.51428(16)
H49 H 0.36480 0.68950 0.47490
#END
