
#######################################################################
#
#                 Cambridge Crystallographic Data Centre
#                                CCDC
#
#######################################################################
#
# If this CIF has been generated from an entry in the Cambridge
# Structural Database, then it will include bibliographic, chemical,
# crystal, experimental, refinement or atomic coordinate data resulting
# from the CCDC's data processing and validation procedures.
#
#######################################################################

data_CSD_CIF_MIFZUZ
_audit_creation_date 2018-05-29
_audit_creation_method CSD-ConQuest-V1
_database_code_CSD MIFZUZ
_database_code_depnum_ccdc_archive 'CCDC 1846052'
_chemical_formula_sum 'C14 H19 N1 O6'
_chemical_formula_moiety
;
C14 H19 N1 O6
;
_journal_coden_Cambridge 1078
_journal_year 2018
_journal_name_full 'CSD Communication(Private Communication) '
loop_
_publ_author_name
"I.M.Tkachenko"
"V.B.Rybakov"
"Y.N.Klimochkin"
_chemical_name_systematic
;
ethyl 4-(nitrooxy)-5-oxotricyclo[4.3.1.1^3,8^]undecane-4-carboxylate
;
_cell_volume    722.553
_exptl_crystal_colour 'colorless'
_exptl_crystal_density_diffrn 1.366
_exptl_special_details
;
hexane

;
_exptl_crystal_description 'prism'
_diffrn_ambient_temperature 295
#These two values have been output from a single CSD field.
_refine_ls_R_factor_gt 0.0503
_refine_ls_wR_factor_gt 0.0503
_chemical_compound_source
;
synthesis as described
;
_symmetry_cell_setting triclinic
_symmetry_space_group_name_H-M 'P -1'
_symmetry_Int_Tables_number 2
loop_
_symmetry_equiv_pos_site_id
_symmetry_equiv_pos_as_xyz
1 x,y,z
2 -x,-y,-z
_cell_length_a 7.0486(8)
_cell_length_b 7.1294(8)
_cell_length_c 16.3828(17)
_cell_angle_alpha 91.56(2)
_cell_angle_beta 92.99(2)
_cell_angle_gamma 118.31(2)
_cell_formula_units_Z 2
loop_
_atom_type_symbol
_atom_type_radius_bond
C 0.68
H 0.23
N 0.68
O 0.68
loop_
_atom_site_label
_atom_site_type_symbol
_atom_site_fract_x
_atom_site_fract_y
_atom_site_fract_z
C1 C 0.4410(4) 0.5677(3) 0.36608(13)
H1 H 0.34200 0.42970 0.38670
C2 C 0.4098(3) 0.5480(3) 0.27389(12)
H2 H 0.25830 0.49780 0.25780
H3 H 0.44710 0.44140 0.25370
C3 C 0.5440(3) 0.7556(3) 0.23338(11)
H4 H 0.47690 0.73670 0.17780
C4 C 0.7797(3) 0.8036(3) 0.22358(10)
C5 C 0.9289(3) 0.9098(3) 0.30237(12)
C6 C 0.8425(3) 0.8551(4) 0.38540(12)
H5 H 0.96660 0.88620 0.42380
C7 C 0.7623(4) 1.0135(4) 0.40945(14)
H6 H 0.75810 1.02130 0.46850
H7 H 0.86310 1.15430 0.39320
C8 C 0.5388(3) 0.9489(3) 0.36950(12)
H8 H 0.49500 1.05310 0.38870
C9 C 0.3801(3) 0.7321(4) 0.39795(13)
H9 H 0.38540 0.73640 0.45730
H10 H 0.23430 0.69460 0.37730
C10 C 0.6705(4) 0.6254(4) 0.39838(13)
H11 H 0.71140 0.52800 0.37180
H12 H 0.67040 0.60340 0.45660
C11 C 0.5292(3) 0.9438(3) 0.27562(12)
H13 H 0.64650 1.07590 0.25930
H14 H 0.39480 0.93900 0.25570
C12 C 0.7894(3) 0.6015(3) 0.19726(11)
O1 O 0.8676(2) 0.5199(2) 0.24175(9)
O2 O 0.6975(2) 0.5301(2) 0.12303(8)
C13 C 0.7041(4) 0.3402(4) 0.09037(13)
H15 H 0.84840 0.35680 0.10000
H16 H 0.60430 0.21520 0.11720
C14 C 0.6434(5) 0.3153(4) 0.00256(15)
H17 H 0.49890 0.29480 -0.00620
H18 H 0.65020 0.19370 -0.02060
H19 H 0.74130 0.44110 -0.02320
N1 N 1.0368(3) 1.0073(3) 0.12545(13)
O3 O 0.8414(2) 0.9569(2) 0.15972(9)
O4 O 1.0947(4) 1.1633(4) 0.08698(16)
O5 O 1.1184(2) 0.8968(3) 0.13498(11)
O6 O 1.1085(2) 1.0508(2) 0.29537(11)
#END
