
#######################################################################
#
#                 Cambridge Crystallographic Data Centre
#                                CCDC
#
#######################################################################
#
# If this CIF has been generated from an entry in the Cambridge
# Structural Database, then it will include bibliographic, chemical,
# crystal, experimental, refinement or atomic coordinate data resulting
# from the CCDC's data processing and validation procedures.
#
#######################################################################

data_CSD_CIF_MIGNUM01
_audit_creation_date 2015-12-02
_audit_creation_method CSD-ConQuest-V1
_database_code_CSD MIGNUM01
_database_code_depnum_ccdc_archive 'CCDC 1417714'
_chemical_formula_sum 'C7 H7 N1 O3'
_chemical_formula_moiety
;
C7 H7 N1 O3
;
_journal_coden_Cambridge 1147
_journal_volume 16
_journal_year 2016
_journal_page_first 126
_journal_name_full 'Cryst.Growth Des. '
loop_
_publ_author_name
"A.Tarai"
"J.B.Baruah"
_chemical_name_systematic
;
3-(hydroxycarbonoimidoyl)benzene-1,2-diol
;
_chemical_name_common
;
3-hydroxysalicylaldoxime
;
_cell_volume    686.510
_exptl_crystal_colour 'colorless'
_exptl_crystal_density_diffrn 1.482
_exptl_crystal_description 'Needle'
_diffrn_ambient_temperature 296
#These two values have been output from a single CSD field.
_refine_ls_R_factor_gt 0.0721
_refine_ls_wR_factor_gt 0.0721
_symmetry_cell_setting monoclinic
_symmetry_space_group_name_H-M 'P 21/c'
_symmetry_Int_Tables_number 14
loop_
_symmetry_equiv_pos_site_id
_symmetry_equiv_pos_as_xyz
1 x,y,z
2 -x,1/2+y,1/2-z
3 -x,-y,-z
4 x,-1/2-y,-1/2+z
_cell_length_a 11.211(10)
_cell_length_b 4.662(4)
_cell_length_c 14.146(12)
_cell_angle_alpha 90
_cell_angle_beta 111.793(17)
_cell_angle_gamma 90
_cell_formula_units_Z 4
loop_
_atom_type_symbol
_atom_type_radius_bond
C 0.68
H 0.23
N 0.68
O 0.68
loop_
_atom_site_label
_atom_site_type_symbol
_atom_site_fract_x
_atom_site_fract_y
_atom_site_fract_z
O1 O 0.0428(3) 0.0081(6) -0.17766(19)
H1 H 0.00020 -0.13050 -0.17300
O2 O 0.1117(3) 0.3361(6) 0.09962(19)
H2 H 0.07790 0.24860 0.04600
O3 O 0.2403(3) 0.6952(7) 0.2600(2)
H3 H 0.16900 0.62400 0.24640
N1 N 0.0927(3) 0.1509(7) -0.0831(2)
C1 C 0.1852(4) 0.3170(8) -0.0768(3)
H4 H 0.21220 0.32610 -0.13150
C2 C 0.2504(4) 0.4928(7) 0.0118(3)
C3 C 0.3542(4) 0.6607(9) 0.0149(3)
H5 H 0.38140 0.65590 -0.03970
C4 C 0.4171(4) 0.8325(9) 0.0964(3)
H6 H 0.48680 0.94220 0.09730
C5 C 0.3767(4) 0.8427(8) 0.1777(3)
H7 H 0.41890 0.96050 0.23310
C6 C 0.2742(4) 0.6787(9) 0.1765(3)
C7 C 0.2110(4) 0.5004(8) 0.0945(3)
#END
