
#######################################################################
#
#                 Cambridge Crystallographic Data Centre
#                                CCDC
#
#######################################################################
#
# If this CIF has been generated from an entry in the Cambridge
# Structural Database, then it will include bibliographic, chemical,
# crystal, experimental, refinement or atomic coordinate data resulting
# from the CCDC's data processing and validation procedures.
#
#######################################################################

data_CSD_CIF_MIGVIK
_audit_creation_date 2018-05-29
_audit_creation_method CSD-ConQuest-V1
_database_code_CSD MIGVIK
_database_code_depnum_ccdc_archive 'CCDC 1434605'
_chemical_formula_sum 'C23 H15 N7 O2'
_chemical_formula_moiety
;
C23 H15 N7 O2
;
_journal_coden_Cambridge 1268
_journal_volume 22
_journal_year 2017
_journal_page_first 2114
_journal_name_full 'Molecules '
loop_
_publ_author_name
"M.A.AL-Johani"
"K.M.Al-Zaydi"
"S.M.Mousally"
"N.F.Alqahtani"
"N.H.E.M.H.Elnagdi"
_chemical_name_systematic
;
8-amino-4-methyl-5-(4-nitrophenyl)-1-phenyl-1H-pyridazino[5,4,3-de][1,6]naphth
yridine-7-carbonitrile
;
_cell_volume   4889.789
_exptl_crystal_colour 'yellow'
_exptl_crystal_density_diffrn 1.145
_exptl_crystal_description 'Block'
_diffrn_ambient_temperature 293
#These two values have been output from a single CSD field.
_refine_ls_R_factor_gt 0.0876
_refine_ls_wR_factor_gt 0.0876
_symmetry_cell_setting monoclinic
_symmetry_space_group_name_H-M 'C 2/c'
_symmetry_Int_Tables_number 15
loop_
_symmetry_equiv_pos_site_id
_symmetry_equiv_pos_as_xyz
1 x,y,z
2 -x,y,1/2-z
3 1/2+x,1/2+y,z
4 1/2-x,1/2+y,1/2-z
5 -x,-y,-z
6 x,-y,-1/2+z
7 -1/2-x,-1/2-y,-z
8 -1/2+x,-1/2-y,-1/2+z
_cell_length_a 32.395(4)
_cell_length_b 7.2149(9)
_cell_length_c 22.738(3)
_cell_angle_alpha 90
_cell_angle_beta 113.061(8)
_cell_angle_gamma 90
_cell_formula_units_Z 8
loop_
_atom_type_symbol
_atom_type_radius_bond
C 0.68
H 0.23
N 0.68
O 0.68
loop_
_atom_site_label
_atom_site_type_symbol
_atom_site_fract_x
_atom_site_fract_y
_atom_site_fract_z
O1 O 0.12703(16) 0.2549(7) 0.3575(2)
O2 O 0.17923(15) 0.4073(7) 0.43078(19)
N1 N 0.30560(13) 0.3012(6) 0.25187(17)
N2 N 0.38754(14) 0.2626(6) 0.14895(18)
N3 N 0.33006(14) 0.3760(6) 0.05949(17)
N4 N 0.28767(15) 0.4444(7) 0.02791(18)
N5 N 0.16284(17) 0.3349(7) 0.3778(3)
N6 N 0.41113(18) 0.1181(9) 0.3658(3)
N7 N 0.44462(15) 0.1394(8) 0.2348(2)
C1 C 0.26360(15) 0.3583(6) 0.2206(2)
C2 C 0.33288(16) 0.2907(6) 0.2199(2)
C3 C 0.37694(16) 0.2261(7) 0.2486(2)
C4 C 0.40283(18) 0.2073(8) 0.2118(3)
C5 C 0.34636(17) 0.3218(7) 0.1226(2)
C6 C 0.26111(19) 0.4521(7) 0.0576(3)
C7 C 0.27294(16) 0.4049(7) 0.1233(2)
C8 C 0.24448(15) 0.4161(6) 0.1558(2)
C9 C 0.31688(16) 0.3375(6) 0.1540(2)
C10 C 0.23647(17) 0.3544(6) 0.2613(2)
C11 C 0.19268(17) 0.2854(7) 0.2378(3)
C12 C 0.16827(16) 0.2804(7) 0.2752(3)
C13 C 0.18858(18) 0.3428(7) 0.3369(3)
C14 C 0.23164(17) 0.4107(7) 0.3623(3)
C15 C 0.25484(17) 0.4147(6) 0.3237(2)
C16 C 0.39545(16) 0.1684(8) 0.3128(3)
C17 C 0.35607(19) 0.3820(9) 0.0203(3)
C18 C 0.3813(2) 0.2311(10) 0.0174(3)
C19 C 0.4040(3) 0.2410(12) -0.0224(3)
C20 C 0.4015(3) 0.4016(16) -0.0571(3)
C21 C 0.3774(3) 0.5526(13) -0.0534(3)
C22 C 0.3549(3) 0.5382(10) -0.0138(3)
C23 C 0.19846(16) 0.4971(8) 0.1234(3)
H1 H 0.23190 0.49170 0.03450
H2 H 0.45940 0.13340 0.21070
H3 H 0.45670 0.10170 0.27380
H4 H 0.17990 0.24200 0.19600
H5 H 0.13900 0.23620 0.25940
H6 H 0.24440 0.45240 0.40430
H7 H 0.28410 0.45960 0.34010
H8 H 0.38300 0.12560 0.04170
H9 H 0.42080 0.14080 -0.02610
H10 H 0.41690 0.40630 -0.08400
H11 H 0.37640 0.65990 -0.07660
H12 H 0.33810 0.63880 -0.01010
H13 H 0.18830 0.54320 0.15510
H14 H 0.17820 0.40320 0.09840
H15 H 0.19940 0.59690 0.09610
#END
