
#######################################################################
#
#                 Cambridge Crystallographic Data Centre
#                                CCDC
#
#######################################################################
#
# If this CIF has been generated from an entry in the Cambridge
# Structural Database, then it will include bibliographic, chemical,
# crystal, experimental, refinement or atomic coordinate data resulting
# from the CCDC's data processing and validation procedures.
#
#######################################################################

data_CSD_CIF_MIHCUE
_audit_creation_date 2018-05-29
_audit_creation_method CSD-ConQuest-V1
_database_code_CSD MIHCUE
_database_code_depnum_ccdc_archive 'CCDC 1835801'
_chemical_formula_sum 'C21 H23 N1 O5'
_chemical_formula_moiety
;
C21 H23 N1 O5
;
_journal_coden_Cambridge 182
_journal_volume 54
_journal_year 2018
_journal_page_first 6165
_journal_name_full 'Chem.Commun. '
loop_
_publ_author_name
"H.Abe"
"M.Fujimaki"
"E.Nakagawa"
"T.Kobayashi"
"H.Ito"
_chemical_name_systematic
;
6-acetyl-4,4a-dimethyl-1,2,3,4,4a,7-hexahydronaphthalen-1-yl 4-nitrobenzoate
;
_cell_volume   1850.292
_exptl_crystal_colour 'colourless'
_exptl_crystal_density_diffrn 1.326
_exptl_crystal_description 'block'
_diffrn_ambient_temperature 90
#These two values have been output from a single CSD field.
_refine_ls_R_factor_gt 0.0348
_refine_ls_wR_factor_gt 0.0348
_symmetry_cell_setting orthorhombic
_symmetry_space_group_name_H-M 'P 21 21 21'
_symmetry_Int_Tables_number 19
loop_
_symmetry_equiv_pos_site_id
_symmetry_equiv_pos_as_xyz
1 x,y,z
2 1/2-x,-y,1/2+z
3 -x,1/2+y,1/2-z
4 1/2+x,1/2-y,-z
_cell_length_a 7.1336(5)
_cell_length_b 12.7135(8)
_cell_length_c 20.4017(14)
_cell_angle_alpha 90
_cell_angle_beta 90
_cell_angle_gamma 90
_cell_formula_units_Z 4
loop_
_atom_type_symbol
_atom_type_radius_bond
C 0.68
H 0.23
N 0.68
O 0.68
loop_
_atom_site_label
_atom_site_type_symbol
_atom_site_fract_x
_atom_site_fract_y
_atom_site_fract_z
C1 C 0.8614(3) 0.94407(18) 0.15686(11)
C2 C 0.8293(4) 1.02039(18) 0.21190(11)
H1 H 0.94610 1.02750 0.23780
H2 H 0.79870 1.09030 0.19340
C3 C 0.6737(3) 0.98600(18) 0.25616(11)
H3 H 0.64130 1.03170 0.29120
C4 C 0.5771(3) 0.89716(17) 0.25074(11)
C5 C 0.4054(4) 0.88360(18) 0.29307(11)
H4 H 0.38250 0.95030 0.31780
C6 C 0.2336(3) 0.85839(18) 0.25228(12)
H5 H 0.19470 0.92220 0.22800
H6 H 0.12940 0.83810 0.28180
C7 C 0.2692(4) 0.76982(18) 0.20382(12)
H7 H 0.15500 0.75810 0.17730
H8 H 0.29600 0.70420 0.22820
C8 C 0.4340(3) 0.79432(18) 0.15816(11)
H9 H 0.40330 0.86210 0.13570
C9 C 0.6186(3) 0.81414(17) 0.19851(11)
C10 C 0.7681(3) 0.85377(17) 0.15205(11)
H10 H 0.79830 0.80990 0.11590
C11 C 1.0058(4) 0.97553(18) 0.10780(11)
C12 C 1.0296(4) 0.9124(2) 0.04591(12)
H11 H 1.12380 0.94600 0.01790
H12 H 0.90980 0.90910 0.02250
H13 H 1.07060 0.84100 0.05700
C13 C 0.4244(4) 0.82221(19) 0.40404(11)
C14 C 0.4388(3) 0.72781(18) 0.44765(11)
C15 C 0.4178(4) 0.7429(2) 0.51506(11)
H14 H 0.39210 0.81120 0.53170
C16 C 0.4342(3) 0.65894(19) 0.55774(12)
H15 H 0.42000 0.66860 0.60370
C17 C 0.4717(4) 0.56055(19) 0.53191(11)
C18 C 0.4906(4) 0.54324(19) 0.46527(11)
H16 H 0.51410 0.47450 0.44890
C19 C 0.4747(3) 0.62737(18) 0.42305(12)
H17 H 0.48830 0.61700 0.37720
C20 C 0.4532(4) 0.71125(18) 0.10435(12)
H18 H 0.48750 0.64360 0.12410
H19 H 0.55090 0.73280 0.07340
H20 H 0.33360 0.70400 0.08110
C21 C 0.6938(3) 0.71218(18) 0.23030(12)
H21 H 0.73980 0.66470 0.19600
H22 H 0.59270 0.67770 0.25470
H23 H 0.79660 0.72950 0.26030
N1 N 0.4979(3) 0.47079(16) 0.57692(10)
O1 O 1.1023(3) 1.05345(13) 0.11806(8)
O2 O 0.4310(2) 0.79660(12) 0.34047(8)
O3 O 0.4069(3) 0.91033(13) 0.42453(9)
O4 O 0.4979(3) 0.48801(15) 0.63596(8)
O5 O 0.5202(3) 0.38284(13) 0.55295(9)
#END
