
#######################################################################
#
#                 Cambridge Crystallographic Data Centre
#                                CCDC
#
#######################################################################
#
# If this CIF has been generated from an entry in the Cambridge
# Structural Database, then it will include bibliographic, chemical,
# crystal, experimental, refinement or atomic coordinate data resulting
# from the CCDC's data processing and validation procedures.
#
#######################################################################

data_CSD_CIF_MIHTUU
_audit_creation_date 2013-10-19
_audit_creation_method CSD-ConQuest-V1
_database_code_CSD MIHTUU
_database_code_depnum_ccdc_archive 'CCDC 964526'
_chemical_formula_sum 'C13 H12 N2 O5'
_chemical_formula_moiety
;
C13 H12 N2 O5
;
_journal_coeditor_code "IUCr gg2123"
_journal_coden_Cambridge 1370
_journal_volume 69
_journal_year 2013
_journal_page_first o1662
_journal_name_full 'Acta Crystallogr.,Sect.E:Struct.Rep.Online '
loop_
_publ_author_name
"D.Grossie"
"L.Harrison"
"K.Turnbull"
_chemical_name_systematic
;
1-(3-(2-(Ethoxycarbonyl)phenyl)-5-oxo-1,2,3-oxadiazol-3-ium-4(5H)-ylidene)etha
nolate
;
_cell_volume   1239.192
_exptl_crystal_colour 'colorless'
_exptl_crystal_density_diffrn 1.481
_exptl_crystal_description 'block'
_diffrn_ambient_temperature 173
#These two values have been output from a single CSD field.
_refine_ls_R_factor_gt 0.0504
_refine_ls_wR_factor_gt 0.0504
_symmetry_cell_setting monoclinic
_symmetry_space_group_name_H-M 'P 21/n'
_symmetry_Int_Tables_number 14
loop_
_symmetry_equiv_pos_site_id
_symmetry_equiv_pos_as_xyz
1 x,y,z
2 1/2-x,1/2+y,1/2-z
3 -x,-y,-z
4 -1/2+x,-1/2-y,-1/2+z
_cell_length_a 11.353(3)
_cell_length_b 8.093(2)
_cell_length_c 14.607(4)
_cell_angle_alpha 90
_cell_angle_beta 112.582(4)
_cell_angle_gamma 90
_cell_formula_units_Z 4
loop_
_atom_type_symbol
_atom_type_radius_bond
C 0.68
H 0.23
N 0.68
O 0.68
loop_
_atom_site_label
_atom_site_type_symbol
_atom_site_fract_x
_atom_site_fract_y
_atom_site_fract_z
O1 O 0.40593(10) 0.21460(14) 0.17007(8)
C1 C 0.49814(14) 0.30225(18) 0.18948(11)
C2 C 0.60889(13) 0.28357(17) 0.28115(10)
N1 N 0.62198(11) 0.16639(15) 0.35007(9)
N2 N 0.72926(12) 0.16842(18) 0.4256(1)
O2 O 0.7945(1) 0.29896(15) 0.40892(9)
C3 C 0.72170(14) 0.37830(19) 0.31878(11)
O3 O 0.76294(11) 0.49824(14) 0.29284(9)
C4 C 0.53744(14) 0.03347(17) 0.35081(11)
C5 C 0.57526(15) -0.12260(18) 0.33667(12)
C6 C 0.50160(16) -0.25590(18) 0.34078(12)
C7 C 0.39295(15) -0.23188(19) 0.35861(12)
C8 C 0.35629(14) -0.07463(18) 0.37287(11)
C9 C 0.42817(14) 0.06187(17) 0.36981(10)
C10 C 0.39015(14) 0.23053(18) 0.38796(11)
O4 O 0.28355(10) 0.22771(13) 0.40506(8)
C11 C 0.23638(15) 0.38788(19) 0.42045(13)
C12 C 0.12669(18) 0.3580(2) 0.45073(15)
O5 O 0.44855(11) 0.35433(13) 0.38822(9)
C13 C 0.50663(16) 0.4341(2) 0.12175(12)
H1 H 0.64940 -0.13590 0.32240
H2 H 0.52510 -0.36390 0.33210
H3 H 0.34410 -0.32130 0.36140
H4 H 0.28210 -0.05860 0.38550
H5 H 0.30530 0.44200 0.47360
H6 H 0.20890 0.44940 0.35860
H7 H 0.09420 0.46360 0.46130
H8 H 0.15460 0.29740 0.51140
H9 H 0.05880 0.29890 0.39910
H10 H 0.54610 0.53160 0.15770
H11 H 0.55910 0.39550 0.08740
H12 H 0.42580 0.45940 0.07450
#END
