
#######################################################################
#
#                 Cambridge Crystallographic Data Centre
#                                CCDC
#
#######################################################################
#
# If this CIF has been generated from an entry in the Cambridge
# Structural Database, then it will include bibliographic, chemical,
# crystal, experimental, refinement or atomic coordinate data resulting
# from the CCDC's data processing and validation procedures.
#
#######################################################################

data_CSD_CIF_MIJJAR
_audit_creation_date 2007-12-05
_audit_creation_method CSD-ConQuest-V1
_database_code_CSD MIJJAR
_database_code_depnum_ccdc_archive 'CCDC 642333'
_chemical_formula_sum 'C4 H2 N4 O2'
_chemical_formula_moiety
;
C4 H2 N4 O2
;
_journal_coden_Cambridge 1295
_journal_volume 10
_journal_year 2007
_journal_page_first 884
_journal_name_full 'Inorg.Chem.Commun. '
loop_
_publ_author_name
"C.Richardson"
"P.J.Steel"
_chemical_name_systematic
;
3,3'-bi-1,2,4-oxadiazole
;
_cell_volume    549.027
_exptl_crystal_colour 'colorless'
_exptl_crystal_density_diffrn 1.671
_exptl_crystal_description 'triangular block'
_diffrn_ambient_temperature 168
#These two values have been output from a single CSD field.
_refine_ls_R_factor_gt 0.0305
_refine_ls_wR_factor_gt 0.0305
_symmetry_cell_setting orthorhombic
_symmetry_space_group_name_H-M 'C m c a'
_symmetry_Int_Tables_number 64
loop_
_symmetry_equiv_pos_site_id
_symmetry_equiv_pos_as_xyz
1 x,y,z
2 1/2+x,1/2+y,z
3 -x,1/2-y,1/2+z
4 -x,1/2+y,1/2-z
5 x,-y,-z
6 1/2-x,-y,1/2+z
7 1/2-x,y,1/2-z
8 1/2+x,1/2-y,-z
9 -x,-y,-z
10 -1/2-x,-1/2-y,-z
11 x,-1/2+y,-1/2-z
12 x,-1/2-y,-1/2+z
13 -x,y,z
14 -1/2+x,y,-1/2-z
15 -1/2+x,-y,-1/2+z
16 -1/2-x,-1/2+y,z
_cell_length_a 6.187(6)
_cell_length_b 7.693(7)
_cell_length_c 11.535(11)
_cell_angle_alpha 90
_cell_angle_beta 90
_cell_angle_gamma 90
_cell_formula_units_Z 4
loop_
_atom_type_symbol
_atom_type_radius_bond
C 0.68
H 0.23
N 0.68
O 0.68
loop_
_atom_site_label
_atom_site_type_symbol
_atom_site_fract_x
_atom_site_fract_y
_atom_site_fract_z
O1 O 0.50000 0.15352(15) 0.57432(9)
N1 N 0.50000 0.27027(17) 0.48093(11)
C1 C 0.50000 0.41913(18) 0.53286(12)
N2 N 0.50000 0.41320(18) 0.65185(12)
C2 C 0.50000 0.2489(2) 0.67016(13)
H1 H 0.50000 0.19970 0.74570
O1H O 0.50000 0.84648(15) 0.42568(9)
N1H N 0.50000 0.72973(17) 0.51907(11)
C1H C 0.50000 0.58087(18) 0.46714(12)
N2H N 0.50000 0.58680(18) 0.34815(12)
C2H C 0.50000 0.7511(2) 0.32984(13)
H1H H 0.50000 0.80030 0.25430
#END
