
#######################################################################
#
#                 Cambridge Crystallographic Data Centre
#                                CCDC
#
#######################################################################
#
# If this CIF has been generated from an entry in the Cambridge
# Structural Database, then it will include bibliographic, chemical,
# crystal, experimental, refinement or atomic coordinate data resulting
# from the CCDC's data processing and validation procedures.
#
#######################################################################

data_CSD_CIF_MIKPIH
_audit_creation_date 2013-10-21
_audit_creation_method CSD-ConQuest-V1
_database_code_CSD MIKPIH
_database_code_depnum_ccdc_archive 'CCDC 926413'
_chemical_formula_sum 'C34 H46 N4 O4'
_chemical_formula_moiety
;
C34 H46 N4 O4
;
_journal_coden_Cambridge 9
_journal_volume 52
_journal_year 2013
_journal_page_first 9327
_journal_name_full 'Inorg.Chem. '
loop_
_publ_author_name
"Ajay Pal Singh Pannu"
"J.R.Stevens"
"P.G.Plieger"
_chemical_name_systematic
;
2,2'-(1,3-Phenylenebis(methylene(methylimino)methylene))bis(4-t-butyl-6-((hydr
oxyimino)methyl)phenol)
;
_cell_volume   3094.948
_exptl_crystal_colour 'colorless'
_exptl_crystal_density_diffrn 1.233
_exptl_crystal_description 'Platelet'
_diffrn_ambient_temperature 123
_refine_special_details
;
The structure is disordered by symmetry.

;
#These two values have been output from a single CSD field.
_refine_ls_R_factor_gt 0.0799
_refine_ls_wR_factor_gt 0.0799
_symmetry_cell_setting monoclinic
_symmetry_space_group_name_H-M 'C 2/c'
_symmetry_Int_Tables_number 15
loop_
_symmetry_equiv_pos_site_id
_symmetry_equiv_pos_as_xyz
1 x,y,z
2 -x,y,1/2-z
3 1/2+x,1/2+y,z
4 1/2-x,1/2+y,1/2-z
5 -x,-y,-z
6 x,-y,-1/2+z
7 -1/2-x,-1/2-y,-z
8 -1/2+x,-1/2-y,-1/2+z
_cell_length_a 25.7501(9)
_cell_length_b 8.7686(3)
_cell_length_c 14.9082(12)
_cell_angle_alpha 90
_cell_angle_beta 113.157(17)
_cell_angle_gamma 90
_cell_formula_units_Z 4
loop_
_atom_type_symbol
_atom_type_radius_bond
C 0.68
H 0.23
N 0.68
O 0.68
loop_
_atom_site_label
_atom_site_type_symbol
_atom_site_fract_x
_atom_site_fract_y
_atom_site_fract_z
O1 O 0.41984(9) -0.0181(2) 0.15141(15)
H1 H 0.40870 -0.05810 0.09740
C1 C 0.39112(13) -0.0768(4) 0.2029(2)
C2 C 0.34915(13) -0.1899(4) 0.1631(2)
C3 C 0.33504(15) -0.2498(4) 0.0659(2)
H2 H 0.30570 -0.31950 0.04040
N1 N 0.36238(12) -0.2082(3) 0.01418(19)
O2 O 0.34194(10) -0.2730(3) -0.07774(16)
H3 H 0.36070 -0.24320 -0.10770
C4 C 0.32127(13) -0.2467(4) 0.2202(2)
H4 H 0.29340 -0.32020 0.19360
C5 C 0.33374(13) -0.1973(3) 0.3148(2)
C6 C 0.30384(14) -0.2565(4) 0.3786(2)
C7 C 0.34818(14) -0.3185(4) 0.4744(2)
H5 H 0.37470 -0.23930 0.50680
H6 H 0.36780 -0.40250 0.46050
H7 H 0.32980 -0.35250 0.51570
C8 C 0.27161(15) -0.1248(4) 0.4012(3)
H8 H 0.29740 -0.04340 0.43210
H9 H 0.25440 -0.16010 0.44400
H10 H 0.24290 -0.08840 0.34150
C9 C 0.26225(15) -0.3840(4) 0.3300(2)
H11 H 0.28190 -0.46750 0.31570
H12 H 0.23360 -0.34700 0.27050
H13 H 0.24510 -0.41800 0.37310
C10 C 0.37552(13) -0.0858(4) 0.3508(2)
H14 H 0.38490 -0.05160 0.41430
C11 C 0.40400(13) -0.0226(4) 0.2976(2)
C12 C 0.44842(13) 0.0968(4) 0.3426(2)
H15 H 0.47450 0.06170 0.40610
H16 H 0.46960 0.11100 0.30200
N2 N 0.42395(12) 0.2447(3) 0.3540(2)
C13 C 0.50000 0.6510(6) 0.25000
H17 H 0.51310 0.74810 0.27290
C14 C 0.4689(5) 0.3296(15) 0.4437(6)
H18 H 0.48330 0.26100 0.49820
H19 H 0.45160 0.41570 0.46070
H20 H 0.49940 0.36400 0.42710
C15 C 0.4007(6) 0.3380(19) 0.2738(11)
H21 H 0.37630 0.41100 0.28700
H22 H 0.37710 0.27590 0.21910
C16 C 0.4415(3) 0.4251(7) 0.2433(4)
C17 C 0.4576(4) 0.5788(17) 0.276(1)
H23 H 0.44120 0.63000 0.31280
C18 C 0.5199(5) 0.577(2) 0.1932(11)
H24 H 0.54620 0.62850 0.17570
C19 C 0.5060(3) 0.4360(8) 0.1582(5)
C20 C 0.4656(3) 0.3585(7) 0.1842(4)
H25 H 0.45500 0.26000 0.16110
C21? C 0.4647(5) 0.3585(14) 0.3973(6)
H26? H 0.44660 0.43740 0.42050
H27? H 0.49370 0.31350 0.45460
C22? C 0.3851(7) 0.302(2) 0.2467(11)
H28? H 0.36200 0.21880 0.21040
H29? H 0.40860 0.33650 0.21430
H30? H 0.36150 0.38370 0.25080
O1A O 0.58016(9) -0.0181(2) 0.34859(15)
H1A H 0.59130 -0.05810 0.40260
C1A C 0.60888(13) -0.0768(4) 0.2971(2)
C2A C 0.65085(13) -0.1899(4) 0.3369(2)
C3A C 0.66496(15) -0.2498(4) 0.4341(2)
H2A H 0.69430 -0.31950 0.45960
N1A N 0.63762(12) -0.2082(3) 0.48582(19)
O2A O 0.65806(10) -0.2730(3) 0.57774(16)
H3A H 0.63930 -0.24320 0.60770
C4A C 0.67873(13) -0.2467(4) 0.2798(2)
H4A H 0.70660 -0.32020 0.30640
C5A C 0.66626(13) -0.1973(3) 0.1852(2)
C6A C 0.69616(14) -0.2565(4) 0.1214(2)
C7A C 0.65182(14) -0.3185(4) 0.0256(2)
H5A H 0.62530 -0.23930 -0.00680
H6A H 0.63220 -0.40250 0.03950
H7A H 0.67020 -0.35250 -0.01570
C8A C 0.72839(15) -0.1248(4) 0.0988(3)
H8A H 0.70260 -0.04340 0.06790
H9A H 0.74560 -0.16010 0.05600
H10A H 0.75710 -0.08840 0.15850
C9A C 0.73775(15) -0.3840(4) 0.1700(2)
H11A H 0.71810 -0.46750 0.18430
H12A H 0.76640 -0.34700 0.22950
H13A H 0.75490 -0.41800 0.12690
C10A C 0.62448(13) -0.0858(4) 0.1492(2)
H14A H 0.61510 -0.05160 0.08570
C11A C 0.59600(13) -0.0226(4) 0.2024(2)
C12A C 0.55158(13) 0.0968(4) 0.1574(2)
H15A H 0.52550 0.06170 0.09390
H16A H 0.53040 0.11100 0.19800
N2A N 0.57605(12) 0.2447(3) 0.1460(2)
H17A H 0.48690 0.74810 0.22710
C14A C 0.5311(5) 0.3296(15) 0.0563(6)
H18A H 0.51670 0.26100 0.00180
H19A H 0.54840 0.41570 0.03930
H20A H 0.50060 0.36400 0.07290
C15A C 0.5993(6) 0.3380(19) 0.2262(11)
H21A H 0.62370 0.41100 0.21300
H22A H 0.62290 0.27590 0.28090
C16A C 0.5585(3) 0.4251(7) 0.2567(4)
C17A C 0.5424(4) 0.5788(17) 0.224(1)
H23A H 0.55880 0.63000 0.18720
C18A C 0.4801(5) 0.577(2) 0.3068(11)
H24A H 0.45380 0.62850 0.32430
C19A C 0.4940(3) 0.4360(8) 0.3418(5)
C20A C 0.5344(3) 0.3585(7) 0.3158(4)
H25A H 0.54500 0.26000 0.33890
#END
