
#######################################################################
#
#                 Cambridge Crystallographic Data Centre
#                                CCDC
#
#######################################################################
#
# If this CIF has been generated from an entry in the Cambridge
# Structural Database, then it will include bibliographic, chemical,
# crystal, experimental, refinement or atomic coordinate data resulting
# from the CCDC's data processing and validation procedures.
#
#######################################################################

data_CSD_CIF_MIKTIK
_audit_creation_date 2007-12-05
_audit_creation_method CSD-ConQuest-V1
_database_code_CSD MIKTIK
_database_code_depnum_ccdc_archive 'CCDC 295950'
_chemical_formula_sum 'C2 H5 N5 O2'
_chemical_formula_moiety
;
C2 H5 N5 O2
;
_journal_coden_Cambridge 1271
_journal_volume 31
_journal_year 2006
_journal_page_first 263
_journal_name_full 'Propellants,Explos.,Pyrotech. '
loop_
_publ_author_name
"R.Boese"
"T.M.Klapotke"
"P.Mayer"
"V.Verma"
_chemical_name_systematic
;
1-Azido-2-nitro-2-azapropane
;
_cell_volume    583.289
_exptl_crystal_colour 'colorless'
_exptl_crystal_density_diffrn 1.493
_exptl_crystal_description 'cylindric'
_diffrn_ambient_temperature 213
#These two values have been output from a single CSD field.
_refine_ls_R_factor_gt 0.0306
_refine_ls_wR_factor_gt 0.0306
_symmetry_cell_setting orthorhombic
_symmetry_space_group_name_H-M 'P 21 21 21'
_symmetry_Int_Tables_number 19
loop_
_symmetry_equiv_pos_site_id
_symmetry_equiv_pos_as_xyz
1 x,y,z
2 1/2-x,-y,1/2+z
3 -x,1/2+y,1/2-z
4 1/2+x,1/2-y,-z
_cell_length_a 5.7776(1)
_cell_length_b 6.5782(1)
_cell_length_c 15.3472(3)
_cell_angle_alpha 90
_cell_angle_beta 90
_cell_angle_gamma 90
_cell_formula_units_Z 4
loop_
_atom_type_symbol
_atom_type_radius_bond
C 0.68
H 0.23
N 0.68
O 0.68
loop_
_atom_site_label
_atom_site_type_symbol
_atom_site_fract_x
_atom_site_fract_y
_atom_site_fract_z
N1 N 0.17131(16) 0.09952(13) 0.09218(5)
N2 N 0.39303(16) 0.11706(12) 0.06719(5)
N3 N 0.1539(2) 0.13059(17) 0.24934(5)
N4 N 0.3401(2) 0.18397(14) 0.28025(6)
N5 N 0.5030(3) 0.2203(2) 0.31723(8)
O1 O 0.45871(16) 0.01190(11) 0.00605(4)
O2 O 0.51584(15) 0.23881(13) 0.10668(5)
C1 C 0.0390(2) -0.07015(17) 0.05776(7)
H1 H 0.04800 -0.07000 -0.00470
H2 H -0.11970 -0.05690 0.07540
H3 H 0.10080 -0.19540 0.07990
C2 C 0.0952(2) 0.22146(17) 0.16394(6)
H4 H -0.06960 0.23800 0.16050
H5 H 0.16450 0.35380 0.15990
#END
