
#######################################################################
#
#                 Cambridge Crystallographic Data Centre
#                                CCDC
#
#######################################################################
#
# If this CIF has been generated from an entry in the Cambridge
# Structural Database, then it will include bibliographic, chemical,
# crystal, experimental, refinement or atomic coordinate data resulting
# from the CCDC's data processing and validation procedures.
#
#######################################################################

data_CSD_CIF_MIKTEG
_audit_creation_date 2007-12-05
_audit_creation_method CSD-ConQuest-V1
_database_code_CSD MIKTEG
_database_code_depnum_ccdc_archive 'CCDC 295781'
_chemical_formula_sum 'C3 H5 N7 O4'
_chemical_formula_moiety
;
C3 H5 N7 O4
;
_journal_coden_Cambridge 1271
_journal_volume 31
_journal_year 2006
_journal_page_first 263
_journal_name_full 'Propellants,Explos.,Pyrotech. '
loop_
_publ_author_name
"R.Boese"
"T.M.Klapotke"
"P.Mayer"
"V.Verma"
_chemical_name_systematic
;
1-Nitrotetrazolato-2-nitro-2-azapropane
;
_cell_volume    388.904
_exptl_crystal_colour 'colorless'
_exptl_crystal_density_diffrn 1.735
_exptl_crystal_description 'platelet'
_exptl_crystal_preparation 'dichloromethane'
_diffrn_ambient_temperature 200
#These two values have been output from a single CSD field.
_refine_ls_R_factor_gt 0.036
_refine_ls_wR_factor_gt 0.036
_symmetry_cell_setting monoclinic
_symmetry_space_group_name_H-M 'P 21'
_symmetry_Int_Tables_number 4
loop_
_symmetry_equiv_pos_site_id
_symmetry_equiv_pos_as_xyz
1 x,y,z
2 -x,1/2+y,-z
_cell_length_a 6.0615(2)
_cell_length_b 5.8921(2)
_cell_length_c 11.0733(5)
_cell_angle_alpha 90
_cell_angle_beta 100.4647(19)
_cell_angle_gamma 90
_cell_formula_units_Z 2
loop_
_atom_type_symbol
_atom_type_radius_bond
C 0.68
H 0.23
N 0.68
O 0.68
loop_
_atom_site_label
_atom_site_type_symbol
_atom_site_fract_x
_atom_site_fract_y
_atom_site_fract_z
O1 O 0.5979(3) 0.3055(3) 0.64055(13)
O2 O 0.3559(3) 0.1176(3) 0.72367(12)
O3 O 0.2088(2) -0.1882(3) 0.05168(13)
O4 O -0.0661(2) -0.1036(3) 0.14541(14)
N1 N 0.3150(3) 0.2898(3) 0.41952(14)
N2 N 0.1279(3) 0.2402(3) 0.34129(14)
N3 N -0.0251(3) 0.1302(3) 0.39137(14)
N4 N 0.0632(3) 0.1049(3) 0.50801(15)
N5 N 0.4180(3) 0.2101(3) 0.63713(14)
N6 N 0.2056(3) 0.1452(3) 0.14197(14)
N7 N 0.1097(3) -0.0598(3) 0.11155(14)
C1 C 0.2652(3) 0.2018(3) 0.51981(16)
C2 C 0.0909(4) 0.2975(4) 0.21063(17)
C3 C 0.4177(4) 0.1949(5) 0.1049(2)
H1 H -0.066(4) 0.281(4) 0.1843(19)
H2 H 0.151(4) 0.438(4) 0.2044(18)
H3 H 0.393(5) 0.182(6) 0.013(3)
H4 H 0.537(4) 0.101(6) 0.147(3)
H5 H 0.464(4) 0.348(6) 0.134(2)
#END
