
#######################################################################
#
#                 Cambridge Crystallographic Data Centre
#                                CCDC
#
#######################################################################
#
# If this CIF has been generated from an entry in the Cambridge
# Structural Database, then it will include bibliographic, chemical,
# crystal, experimental, refinement or atomic coordinate data resulting
# from the CCDC's data processing and validation procedures.
#
#######################################################################

data_CSD_CIF_MILFOE
_audit_creation_date 2013-10-22
_audit_creation_method CSD-ConQuest-V1
_database_code_CSD MILFOE
_database_code_depnum_ccdc_archive 'CCDC 936656'
_chemical_formula_sum 'C20 H18 N2 O5'
_chemical_formula_moiety
;
C20 H18 N2 O5
;
_journal_coden_Cambridge 179
_journal_volume 52
_journal_year 2013
_journal_page_first 13223
_journal_name_full 'Angew.Chem.,Int.Ed. '
loop_
_publ_author_name
"M.Weber"
"Wolfgang Frey"
"R.Peters"
_chemical_name_systematic
;
N-(1-Acetoxy-3-methyl-2,5-dioxo-4-phenylpyrrolidin-3-yl)benzamide
;
_cell_volume   1771.191
_exptl_crystal_colour 'colorless'
_exptl_crystal_density_diffrn 1.374
_exptl_special_details
;
Absolute configuration

;
_exptl_crystal_description 'block'
_diffrn_ambient_temperature 100
#These two values have been output from a single CSD field.
_refine_ls_R_factor_gt 0.0246
_refine_ls_wR_factor_gt 0.0246
_symmetry_cell_setting orthorhombic
_symmetry_space_group_name_H-M 'P 21 21 21'
_symmetry_Int_Tables_number 19
loop_
_symmetry_equiv_pos_site_id
_symmetry_equiv_pos_as_xyz
1 x,y,z
2 1/2-x,-y,1/2+z
3 -x,1/2+y,1/2-z
4 1/2+x,1/2-y,-z
_cell_length_a 5.9999(5)
_cell_length_b 14.5293(11)
_cell_length_c 20.3178(16)
_cell_angle_alpha 90
_cell_angle_beta 90
_cell_angle_gamma 90
_cell_formula_units_Z 4
loop_
_atom_type_symbol
_atom_type_radius_bond
C 0.68
H 0.23
N 0.68
O 0.68
loop_
_atom_site_label
_atom_site_type_symbol
_atom_site_fract_x
_atom_site_fract_y
_atom_site_fract_z
O1 O 0.12648(17) 0.29750(6) 0.57930(4)
N1 N 0.11612(19) 0.45168(7) 0.60579(5)
C1 C 0.0575(2) 0.37430(9) 0.56976(6)
O2 O 0.01740(17) 0.60328(6) 0.61997(4)
N2 N -0.1106(2) 0.36673(7) 0.45763(5)
H1 H -0.226(3) 0.3352(11) 0.4440(8)
C2 C -0.1234(2) 0.40782(8) 0.52215(6)
O3 O 0.26151(16) 0.44806(6) 0.65867(4)
C3 C -0.0822(2) 0.51430(8) 0.52019(6)
H2 H 0.04380 0.52360 0.48870
O4 O -0.0426(2) 0.42421(9) 0.72242(5)
C4 C 0.0133(2) 0.53404(9) 0.58760(6)
O5 O 0.24928(17) 0.40560(6) 0.44020(5)
C5 C -0.3472(2) 0.38271(9) 0.55307(7)
H3 H -0.46830 0.40610 0.52540
H4 H -0.35760 0.41020 0.59700
H5 H -0.35930 0.31560 0.55670
C6 C -0.2688(2) 0.57325(8) 0.49498(6)
C7 C -0.4381(2) 0.60785(9) 0.53450(7)
H6 H -0.43940 0.59430 0.58020
C8 C -0.6058(3) 0.66224(9) 0.50754(8)
H7 H -0.71980 0.68650 0.53500
C9 C -0.6068(3) 0.68113(9) 0.44065(8)
H8 H -0.72110 0.71830 0.42220
C10 C -0.4407(3) 0.64565(10) 0.40088(7)
H9 H -0.44290 0.65740 0.35490
C11 C -0.2718(3) 0.59321(9) 0.42774(7)
H10 H -0.15630 0.57040 0.40020
C12 C 0.0730(2) 0.37384(8) 0.41921(6)
C13 C 0.0463(2) 0.34517(8) 0.34906(6)
C14 C 0.2308(3) 0.30919(9) 0.31628(7)
H11 H 0.36540 0.29820 0.33960
C15 C 0.2175(3) 0.28953(10) 0.24978(7)
H12 H 0.34240 0.26390 0.22760
C16 C 0.0232(3) 0.30703(10) 0.21557(7)
H13 H 0.01570 0.29450 0.16970
C17 C -0.1608(3) 0.34282(11) 0.24779(7)
H14 H -0.29400 0.35470 0.22400
C18 C -0.1509(3) 0.36131(10) 0.31462(7)
H15 H -0.27790 0.38490 0.33690
C19 C 0.1536(3) 0.43448(10) 0.71887(7)
C20 C 0.3254(3) 0.43510(11) 0.77162(7)
H16 H 0.25670 0.45360 0.81330
H17 H 0.44360 0.47880 0.76010
H18 H 0.38910 0.37330 0.77620
#END
