
#######################################################################
#
#                 Cambridge Crystallographic Data Centre
#                                CCDC
#
#######################################################################
#
# If this CIF has been generated from an entry in the Cambridge
# Structural Database, then it will include bibliographic, chemical,
# crystal, experimental, refinement or atomic coordinate data resulting
# from the CCDC's data processing and validation procedures.
#
#######################################################################

data_CSD_CIF_MILXEL
_audit_creation_date 2007-12-05
_audit_creation_method CSD-ConQuest-V1
_database_code_CSD MILXEL
_database_code_depnum_ccdc_archive 'CCDC 661501'
_chemical_formula_sum 'C13 H17 N1 O4'
_chemical_formula_moiety
;
C13 H17 N1 O4
;
_journal_coden_Cambridge 35
_journal_volume 72
_journal_year 2007
_journal_page_first 6504
_journal_name_full 'J.Org.Chem. '
loop_
_publ_author_name
"A.Patel"
"F.Liebner"
"T.Netscher"
"K.Mereiter"
"T.Rosenau"
_chemical_name_systematic
;
6-Hydroxy-5-nitro-2,2,7,8-tetramethylchroman
;
_cell_volume   1300.729
_exptl_crystal_colour 'orange'
_exptl_crystal_density_diffrn 1.283
_exptl_crystal_description 'plate'
_diffrn_ambient_temperature 297
_refine_special_details
;
The structure is disordered with occupancies 0.556:0.444.

;
#These two values have been output from a single CSD field.
_refine_ls_R_factor_gt 0.0489
_refine_ls_wR_factor_gt 0.0489
_symmetry_cell_setting orthorhombic
_symmetry_space_group_name_H-M 'P n a 21'
_symmetry_Int_Tables_number 33
loop_
_symmetry_equiv_pos_site_id
_symmetry_equiv_pos_as_xyz
1 x,y,z
2 -x,-y,1/2+z
3 1/2+x,1/2-y,z
4 1/2-x,1/2+y,1/2+z
_cell_length_a 11.139(5)
_cell_length_b 16.477(7)
_cell_length_c 7.087(3)
_cell_angle_alpha 90
_cell_angle_beta 90
_cell_angle_gamma 90
_cell_formula_units_Z 4
loop_
_atom_type_symbol
_atom_type_radius_bond
C 0.68
H 0.23
N 0.68
O 0.68
loop_
_atom_site_label
_atom_site_type_symbol
_atom_site_fract_x
_atom_site_fract_y
_atom_site_fract_z
O1 O 0.83572(19) 0.48658(12) 0.251(2)
O2 O 0.35903(19) 0.56455(16) 0.251(2)
H1 H 0.31580 0.52690 0.21790
O3 O 0.4436(4) 0.3277(2) 0.266(3)
O4 O 0.3096(3) 0.4174(2) 0.251(2)
N1 N 0.4166(4) 0.3971(3) 0.250(2)
C1 C 0.6315(3) 0.43592(18) 0.246(2)
C2 C 0.5098(3) 0.4590(2) 0.252(2)
C3 C 0.4738(3) 0.5395(2) 0.256(2)
C4 C 0.5609(3) 0.60011(19) 0.257(2)
C5 C 0.6801(3) 0.57971(17) 0.256(2)
C6 C 0.7140(3) 0.49760(19) 0.252(2)
C7 C 0.5193(4) 0.68807(18) 0.250(2)
H2 H 0.43870 0.69030 0.20220
H3 H 0.57130 0.71850 0.16810
H4 H 0.52160 0.71090 0.37430
C8 C 0.7777(3) 0.64344(17) 0.258(3)
H5 H 0.85150 0.61990 0.21420
H6 H 0.78830 0.66340 0.38400
H7 H 0.75530 0.68750 0.17640
C9 C 0.8813(3) 0.4031(2) 0.2629(11)
C10 C 0.7969(8) 0.3487(6) 0.1370(19)
H8 H 0.82820 0.29400 0.12590
H9 H 0.78760 0.37170 0.01180
C11 C 0.6740(4) 0.3494(2) 0.248(3)
H10 H 0.61600 0.31440 0.18610
H11 H 0.68550 0.33070 0.37610
C12 C 1.0076(7) 0.4143(14) 0.193(2)
H12 H 1.05260 0.44500 0.28390
H13 H 1.00630 0.44290 0.07510
H14 H 1.04460 0.36220 0.17570
C13 C 0.8762(16) 0.3841(13) 0.4702(11)
H15 H 0.92770 0.42080 0.53760
H16 H 0.90240 0.32930 0.49090
H17 H 0.79520 0.39020 0.51450
C14? C 0.8814(4) 0.4030(2) 0.2549(12)
C15? C 0.7955(10) 0.3421(11) 0.361(2)
H18? H 0.78480 0.35770 0.49140
H19? H 0.82660 0.28710 0.35550
C16? C 0.6740(4) 0.3494(2) 0.248(3)
H20? H 0.68590 0.33080 0.11910
H21? H 0.61360 0.31520 0.30580
C17? C 1.0024(11) 0.4005(18) 0.349(3)
H22? H 1.05680 0.43560 0.28230
H23? H 1.03280 0.34600 0.34620
H24? H 0.99500 0.41830 0.47700
C18? C 0.887(2) 0.3807(16) 0.0496(14)
H25? H 0.93940 0.41770 -0.01520
H26? H 0.80810 0.38370 -0.00420
H27? H 0.91740 0.32640 0.03680
#END
