
#######################################################################
#
#                 Cambridge Crystallographic Data Centre
#                                CCDC
#
#######################################################################
#
# If this CIF has been generated from an entry in the Cambridge
# Structural Database, then it will include bibliographic, chemical,
# crystal, experimental, refinement or atomic coordinate data resulting
# from the CCDC's data processing and validation procedures.
#
#######################################################################

data_CSD_CIF_MILXAH
_audit_creation_date 2007-12-05
_audit_creation_method CSD-ConQuest-V1
_database_code_CSD MILXAH
_database_code_depnum_ccdc_archive 'CCDC 661500'
_chemical_formula_sum 'C13 H17 N1 O4'
_chemical_formula_moiety
;
C13 H17 N1 O4
;
_journal_coden_Cambridge 35
_journal_volume 72
_journal_year 2007
_journal_page_first 6504
_journal_name_full 'J.Org.Chem. '
loop_
_publ_author_name
"A.Patel"
"F.Liebner"
"T.Netscher"
"K.Mereiter"
"T.Rosenau"
_chemical_name_systematic
;
6-Hydroxy-7-nitro-2,2,5,8-tetramethylchroman
;
_cell_volume   1212.831
_exptl_crystal_colour 'red'
_exptl_crystal_density_diffrn 1.376
_exptl_crystal_description 'prism'
_diffrn_ambient_temperature 173
#These two values have been output from a single CSD field.
_refine_ls_R_factor_gt 0.043
_refine_ls_wR_factor_gt 0.043
_symmetry_cell_setting monoclinic
_symmetry_space_group_name_H-M 'P 21/n'
_symmetry_Int_Tables_number 14
loop_
_symmetry_equiv_pos_site_id
_symmetry_equiv_pos_as_xyz
1 x,y,z
2 1/2-x,1/2+y,1/2-z
3 -x,-y,-z
4 -1/2+x,-1/2-y,-1/2+z
_cell_length_a 8.8349(13)
_cell_length_b 7.2041(11)
_cell_length_c 19.113(3)
_cell_angle_alpha 90
_cell_angle_beta 94.448(3)
_cell_angle_gamma 90
_cell_formula_units_Z 4
loop_
_atom_type_symbol
_atom_type_radius_bond
C 0.68
H 0.23
N 0.68
O 0.68
loop_
_atom_site_label
_atom_site_type_symbol
_atom_site_fract_x
_atom_site_fract_y
_atom_site_fract_z
O1 O 0.58773(11) 0.37774(16) 0.17977(5)
O2 O 0.39082(13) 0.17288(16) -0.08926(5)
H1 H 0.46180 0.17850 -0.11600
O3 O 0.66280(14) 0.21353(18) -0.11793(6)
O4 O 0.81970(13) 0.36992(19) -0.05019(6)
N1 N 0.69895(15) 0.28692(19) -0.05998(7)
C1 C 0.49918(17) 0.3251(2) 0.23805(8)
C2 C 0.33345(17) 0.3686(2) 0.21735(8)
H2 H 0.27170 0.33480 0.25650
H3 H 0.32200 0.50360 0.20900
C3 C 0.27473(16) 0.2644(2) 0.15184(8)
H4 H 0.25340 0.13410 0.16440
H5 H 0.17820 0.32130 0.13280
C4 C 0.38676(16) 0.2668(2) 0.09609(7)
C5 C 0.34154(16) 0.2127(2) 0.02796(8)
C6 C 0.44388(17) 0.2195(2) -0.02352(7)
C7 C 0.59570(16) 0.2761(2) -0.00509(8)
C8 C 0.64570(16) 0.3227(2) 0.06435(8)
C9 C 0.53781(16) 0.3207(2) 0.11344(7)
C10 C 0.5601(2) 0.4483(3) 0.29779(8)
H6 H 0.54620 0.57880 0.28430
H7 H 0.66850 0.42320 0.30840
H8 H 0.50530 0.42290 0.33940
C11 C 0.52690(19) 0.1217(3) 0.25436(9)
H9 H 0.63590 0.10050 0.26490
H10 H 0.49050 0.04660 0.21370
H11 H 0.47230 0.08630 0.29500
C12 C 0.18102(16) 0.1490(2) 0.00823(8)
H12 H 0.14710 0.06850 0.04530
H13 H 0.17780 0.08000 -0.03600
H14 H 0.11400 0.25730 0.00270
C13 C 0.80779(17) 0.3668(2) 0.08963(8)
H15 H 0.87650 0.28370 0.06670
H16 H 0.82160 0.34960 0.14060
H17 H 0.83050 0.49580 0.07800
#END
