
#######################################################################
#
#                 Cambridge Crystallographic Data Centre
#                                CCDC
#
#######################################################################
#
# If this CIF has been generated from an entry in the Cambridge
# Structural Database, then it will include bibliographic, chemical,
# crystal, experimental, refinement or atomic coordinate data resulting
# from the CCDC's data processing and validation procedures.
#
#######################################################################

data_CSD_CIF_MINGAR
_audit_creation_date 2002-06-11
_audit_creation_method CSD-ConQuest-V1
_database_code_CSD MINGAR
_database_code_depnum_ccdc_archive 'CCDC 183150'
_chemical_formula_sum 'C32 H39 N1 O6'
_chemical_formula_moiety
;
C32 H39 N1 O6
;
_journal_coden_Cambridge 24
_journal_volume 43
_journal_year 2002
_journal_page_first 967
_journal_name_full 'Tetrahedron Lett. '
loop_
_publ_author_name
"S.Hanessian"
"M.Bayrakdarian"
_chemical_name_systematic
;
Ethyl 8-phenylmenthyl 
7-methyl-5-phenyl-2-oxa-1-azabicyclo(2.2.1)heptan-3-one-6,7-dicarboxylate
;
_cell_volume   1453.847
_exptl_crystal_colour 'colorless'
_exptl_crystal_density_diffrn 1.219
_exptl_crystal_description 'block'
_diffrn_ambient_temperature 293
#These two values have been output from a single CSD field.
_refine_ls_R_factor_gt 0.0436
_refine_ls_wR_factor_gt 0.0436
_symmetry_cell_setting monoclinic
_symmetry_space_group_name_H-M 'P 21'
_symmetry_Int_Tables_number 4
loop_
_symmetry_equiv_pos_site_id
_symmetry_equiv_pos_as_xyz
1 x,y,z
2 -x,1/2+y,-z
_cell_length_a 11.301(4)
_cell_length_b 9.962(3)
_cell_length_c 13.740(5)
_cell_angle_alpha 90
_cell_angle_beta 109.97(3)
_cell_angle_gamma 90
_cell_formula_units_Z 2
loop_
_atom_type_symbol
_atom_type_radius_bond
C 0.68
H 0.23
N 0.68
O 0.68
loop_
_atom_site_label
_atom_site_type_symbol
_atom_site_fract_x
_atom_site_fract_y
_atom_site_fract_z
O1 O 0.2034(2) 0.0506(2) 0.27829(18)
O2 O 0.2143(2) -0.0325(3) 0.13290(19)
O3 O 0.20086(14) 0.29851(18) 0.10653(13)
O4 O 0.17122(18) 0.4831(2) 0.18827(17)
O5 O 0.55376(15) 0.18139(17) 0.09350(13)
O6 O 0.62819(12) 0.33586(13) 0.21918(10)
N1 N 0.31328(16) 0.2207(2) 0.10633(14)
C1 C 0.40895(18) 0.3313(2) 0.13027(15)
C2 C 0.3826(2) 0.3829(2) 0.22664(16)
H1 H 0.43150 0.46060 0.26230
C3 C 0.3874(2) 0.2550(2) 0.29321(15)
H2 H 0.31840 0.26220 0.32090
C4 C 0.3487(2) 0.1463(2) 0.20645(16)
H3 H 0.42310 0.09150 0.21280
C5 C 0.2444(2) 0.0535(3) 0.2100(2)
C6 C 0.1093(6) -0.1259(6) 0.1260(4)
H4 H 0.11930 -0.16120 0.19420
H5 H 0.02970 -0.07830 0.10060
C7 C 0.1093(5) -0.2292(4) 0.0601(4)
H6 H 0.19370 -0.26190 0.07560
H7 H 0.07790 -0.19760 -0.01010
H8 H 0.05660 -0.30050 0.06870
C8 C 0.2436(2) 0.4024(3) 0.1768(2)
C9 C 0.3807(2) 0.4295(3) 0.03999(18)
H9 H 0.30340 0.47580 0.03180
H10 H 0.37290 0.38110 -0.02230
H11 H 0.44810 0.49340 0.05370
C10 C 0.5386(2) 0.2708(2) 0.14628(15)
C11 C 0.75870(18) 0.2915(2) 0.23881(15)
H12 H 0.77010 0.27280 0.17250
C12 C 0.7813(2) 0.1634(2) 0.30266(18)
H13 H 0.72240 0.09510 0.26470
H14 H 0.76580 0.18050 0.36680
C13 C 0.9153(2) 0.1119(2) 0.32735(19)
H15 H 0.92740 0.08790 0.26220
C14 C 0.9367(3) -0.0128(3) 0.3953(3)
H16 H 1.02020 -0.04640 0.40740
H17 H 0.87630 -0.08030 0.36100
H18 H 0.92740 0.00980 0.46020
C15 C 1.0070(2) 0.2227(3) 0.37886(19)
H19 H 1.09200 0.19250 0.38930
H20 H 1.00110 0.24160 0.44630
C16 C 0.9816(2) 0.3510(3) 0.31498(19)
H21 H 0.99400 0.33380 0.24960
H22 H 1.04160 0.41920 0.35160
C17 C 0.84720(18) 0.4039(2) 0.29359(15)
H23 H 0.83670 0.41740 0.36080
C18 C 0.8202(2) 0.5416(2) 0.23516(16)
C19 C 0.9337(2) 0.6369(3) 0.2794(2)
H24 H 0.91310 0.72350 0.24740
H25 H 1.00510 0.60090 0.26550
H26 H 0.95340 0.64560 0.35280
C20 C 0.8009(3) 0.5230(3) 0.12100(19)
H27 H 0.79420 0.60920 0.08840
H28 H 0.72510 0.47280 0.08860
H29 H 0.87120 0.47510 0.11390
C21 C 0.7083(2) 0.6150(2) 0.25212(17)
C22 C 0.7045(2) 0.6331(2) 0.3518(2)
H30 H 0.76920 0.59880 0.40820
C23 C 0.6065(3) 0.7011(3) 0.3680(2)
H31 H 0.60470 0.71030 0.43490
C24 C 0.5109(3) 0.7555(3) 0.2856(3)
H32 H 0.44470 0.80120 0.29630
C25 C 0.5153(3) 0.7410(3) 0.1878(3)
H33 H 0.45190 0.77780 0.13160
C26 C 0.6128(2) 0.6722(2) 0.1720(2)
H34 H 0.61420 0.66420 0.10490
C27 C 0.5065(2) 0.2280(2) 0.38383(16)
C28 C 0.5383(2) 0.0979(3) 0.41900(19)
H35 H 0.49010 0.02690 0.38220
C29 C 0.6395(3) 0.0713(3) 0.5070(2)
H36 H 0.65860 -0.01700 0.52890
C30 C 0.7121(2) 0.1737(4) 0.5623(2)
H37 H 0.78050 0.15570 0.62170
C31 C 0.6828(2) 0.3040(3) 0.52905(19)
H38 H 0.73190 0.37430 0.56610
C32 C 0.5805(2) 0.3310(3) 0.44066(17)
H39 H 0.56150 0.41940 0.41930
#END
