
#######################################################################
#
#                 Cambridge Crystallographic Data Centre
#                                CCDC
#
#######################################################################
#
# If this CIF has been generated from an entry in the Cambridge
# Structural Database, then it will include bibliographic, chemical,
# crystal, experimental, refinement or atomic coordinate data resulting
# from the CCDC's data processing and validation procedures.
#
#######################################################################

data_CSD_CIF_MINHEY
_audit_creation_date 2013-10-23
_audit_creation_method CSD-ConQuest-V1
_database_code_CSD MINHEY
_database_code_depnum_ccdc_archive 'CCDC 966842'
_chemical_formula_sum 'C12 H16 N4 O2'
_chemical_formula_moiety
;
C12 H16 N4 O2
;
_journal_coeditor_code "IUCr zl2568"
_journal_coden_Cambridge 1370
_journal_volume 69
_journal_year 2013
_journal_page_first o1687
_journal_name_full 'Acta Crystallogr.,Sect.E:Struct.Rep.Online '
loop_
_publ_author_name
"C.N.Kavitha"
"J.P.Jasinski"
"B.J.Anderson"
"H.S.Yathirajan"
"M.Kaur"
_chemical_name_systematic
;
4-Methyl-N-(4-nitrobenzylidene)piperazin-1-amine
;
_cell_volume   2497.221
_exptl_crystal_colour 'yellow'
_exptl_crystal_density_diffrn 1.321
_exptl_crystal_description 'irregular'
_diffrn_ambient_temperature 173
#These two values have been output from a single CSD field.
_refine_ls_R_factor_gt 0.0405
_refine_ls_wR_factor_gt 0.0405
_symmetry_cell_setting monoclinic
_symmetry_space_group_name_H-M 'C 2/c'
_symmetry_Int_Tables_number 15
loop_
_symmetry_equiv_pos_site_id
_symmetry_equiv_pos_as_xyz
1 x,y,z
2 -x,y,1/2-z
3 1/2+x,1/2+y,z
4 1/2-x,1/2+y,1/2-z
5 -x,-y,-z
6 x,-y,-1/2+z
7 -1/2-x,-1/2-y,-z
8 -1/2+x,-1/2-y,-1/2+z
_cell_length_a 27.9353(14)
_cell_length_b 5.9247(3)
_cell_length_c 18.7763(7)
_cell_angle_alpha 90
_cell_angle_beta 126.527(3)
_cell_angle_gamma 90
_cell_formula_units_Z 8
loop_
_atom_type_symbol
_atom_type_radius_bond
C 0.68
H 0.23
N 0.68
O 0.68
loop_
_atom_site_label
_atom_site_type_symbol
_atom_site_fract_x
_atom_site_fract_y
_atom_site_fract_z
O1 O 0.93562(6) 1.1504(2) 1.26970(8)
O2 O 0.96924(5) 0.8095(2) 1.29508(7)
N1 N 0.60437(5) 0.7685(2) 0.55865(7)
N2 N 0.66959(5) 0.80238(19) 0.74619(7)
N3 N 0.71366(5) 0.8675(2) 0.83118(7)
N4 N 0.93437(5) 0.9567(3) 1.24576(8)
C1 C 0.58784(6) 0.9349(2) 0.59774(9)
H1 H 0.55700 0.87090 0.60230
H2 H 0.57100 1.07020 0.55940
C2 C 0.64208(6) 1.0007(2) 0.68894(9)
H3 H 0.67140 1.07610 0.68360
H4 H 0.63020 1.10900 0.71600
C3 C 0.68086(6) 0.6183(2) 0.70644(9)
H5 H 0.69280 0.48160 0.74380
H6 H 0.71400 0.66010 0.70370
C4 C 0.62582(6) 0.5677(2) 0.61410(9)
H7 H 0.63520 0.44940 0.58680
H8 H 0.59410 0.50900 0.61770
C5 C 0.75644(6) 0.7311(2) 0.88472(8)
H9 H 0.75860 0.58800 0.86400
C6 C 0.80153(6) 0.7948(2) 0.97695(9)
C7 C 0.80100(6) 1.0039(2) 1.01127(9)
H10 H 0.77060 1.11010 0.97370
C8 C 0.84416(6) 1.0572(3) 1.09893(9)
H11 H 0.84380 1.19910 1.12210
C9 C 0.88821(6) 0.8997(3) 1.15268(9)
C10 C 0.89029(6) 0.6922(3) 1.12129(9)
H12 H 0.92080 0.58670 1.15940
C11 C 0.84702(6) 0.6411(2) 1.03298(9)
H13 H 0.84820 0.49980 1.01010
C12 C 0.55353(7) 0.7136(3) 0.46826(9)
H14 H 0.52110 0.65370 0.46890
H15 H 0.56540 0.60020 0.44360
H16 H 0.54000 0.85020 0.43170
#END
