
#######################################################################
#
#                 Cambridge Crystallographic Data Centre
#                                CCDC
#
#######################################################################
#
# If this CIF has been generated from an entry in the Cambridge
# Structural Database, then it will include bibliographic, chemical,
# crystal, experimental, refinement or atomic coordinate data resulting
# from the CCDC's data processing and validation procedures.
#
#######################################################################

data_CSD_CIF_MINVOV
_audit_creation_date 2008-02-26
_audit_creation_method CSD-ConQuest-V1
_database_code_CSD MINVOV
_database_code_depnum_ccdc_archive 'CCDC 646903'
_chemical_formula_sum 'C28 H36 N2 O7'
_chemical_formula_moiety
;
C28 H36 N2 O7
;
_journal_coden_Cambridge 1088
_journal_year 2007
_journal_page_first 2718
_journal_name_full 'Synlett '
loop_
_publ_author_name
"A.Fernandez-Mateos"
"P.H.Teijon"
"R.R.Clemente"
"R.R.Gonzalez"
"F.S.Gonzalez"
_chemical_name_systematic
;
8-Methyl-15-oxo-14,16-cyclopimaran-3-yl 3,5-dinitrobenzoate
;
_cell_volume   2649.080
_exptl_crystal_colour 'colorless'
_exptl_crystal_density_diffrn 1.285
_exptl_crystal_description 'prismatic'
_diffrn_ambient_temperature 293
#These two values have been output from a single CSD field.
_refine_ls_R_factor_gt 0.0616
_refine_ls_wR_factor_gt 0.0616
_symmetry_cell_setting monoclinic
_symmetry_space_group_name_H-M 'C c'
_symmetry_Int_Tables_number 9
loop_
_symmetry_equiv_pos_site_id
_symmetry_equiv_pos_as_xyz
1 x,y,z
2 x,-y,1/2+z
3 1/2+x,1/2+y,z
4 1/2+x,1/2-y,1/2+z
_cell_length_a 11.847(2)
_cell_length_b 17.235(3)
_cell_length_c 14.233(3)
_cell_angle_alpha 90
_cell_angle_beta 114.28(3)
_cell_angle_gamma 90
_cell_formula_units_Z 4
loop_
_atom_type_symbol
_atom_type_radius_bond
C 0.68
H 0.23
N 0.68
O 0.68
loop_
_atom_site_label
_atom_site_type_symbol
_atom_site_fract_x
_atom_site_fract_y
_atom_site_fract_z
O1 O 0.5003(6) 1.2459(3) 0.8124(5)
O2 O 0.5694(6) 1.3533(3) 0.8921(5)
O3 O 0.9891(7) 1.3734(3) 1.1364(5)
O4 O 1.1151(7) 1.2786(4) 1.1561(5)
O5 O 0.9578(5) 1.0273(3) 0.9996(5)
O6 O 0.7561(4) 1.0167(2) 0.8986(3)
O7 O 0.8100(6) 0.3923(3) 0.8391(4)
N1 N 0.5822(6) 1.2859(3) 0.8737(5)
N2 N 1.0138(8) 1.3068(4) 1.1194(5)
C1 C 0.7183(6) 1.1724(3) 0.9141(5)
H1 H 0.65350 1.14350 0.86680
C2 C 0.7026(7) 1.2493(3) 0.9305(5)
C3 C 0.7970(8) 1.2942(3) 0.9970(5)
H2 H 0.78500 1.34660 1.00560
C4 C 0.9100(7) 1.2596(3) 1.0506(5)
C5 C 0.9291(6) 1.1830(3) 1.0380(4)
H3 H 1.00610 1.16050 1.07490
C6 C 0.8316(6) 1.1391(3) 0.9690(5)
C7 C 0.8565(7) 1.0543(3) 0.9588(5)
C8 C 0.7674(6) 0.9327(3) 0.8913(5)
H4 H 0.85360 0.92070 0.90530
C9 C 0.7367(7) 0.8947(3) 0.9734(5)
H5 H 0.65200 0.90660 0.96200
H6 H 0.79120 0.91410 1.04080
C10 C 0.7527(6) 0.8072(3) 0.9687(4)
H7 H 0.83870 0.79610 0.98350
H8 H 0.73370 0.78270 1.02180
C11 C 0.6713(5) 0.7718(3) 0.8651(4)
C12 C 0.6944(6) 0.8169(3) 0.7800(4)
H9 H 0.78120 0.80630 0.79420
C13 C 0.6854(6) 0.9068(3) 0.7810(4)
C14 C 0.5523(6) 0.9374(3) 0.7447(5)
H10 H 0.52060 0.92490 0.79510
H11 H 0.50100 0.91370 0.68010
H12 H 0.55190 0.99270 0.73620
C15 C 0.7442(7) 0.9406(4) 0.7103(6)
H13 H 0.75020 0.99600 0.71780
H14 H 0.69340 0.92760 0.63990
H15 H 0.82540 0.91900 0.72970
C16 C 0.6209(7) 0.7802(3) 0.6747(4)
H16 H 0.63070 0.81100 0.62140
H17 H 0.53360 0.77910 0.66080
C17 C 0.6673(7) 0.6974(3) 0.6729(4)
H18 H 0.75230 0.69990 0.68010
H19 H 0.61800 0.67430 0.60650
C18 C 0.6616(6) 0.6444(3) 0.7585(4)
C19 C 0.7165(5) 0.6866(3) 0.8621(4)
H20 H 0.80440 0.69240 0.87650
C20 C 0.7168(7) 0.6349(3) 0.9519(5)
H21 H 0.78420 0.65120 1.01550
H22 H 0.63990 0.64290 0.95940
C21 C 0.7313(7) 0.5479(3) 0.9355(5)
H23 H 0.77150 0.52280 1.00200
H24 H 0.64990 0.52500 0.90020
C22 C 0.8057(6) 0.5332(3) 0.8737(5)
C23 C 0.7486(7) 0.5744(3) 0.7681(5)
H25 H 0.81610 0.59230 0.75080
C24 C 0.7024(9) 0.4963(4) 0.7144(6)
H26 H 0.61370 0.48870 0.69030
H27 H 0.73010 0.48470 0.66060
C25 C 0.7775(7) 0.4574(4) 0.8159(6)
C26 C 0.9447(7) 0.5453(4) 0.9394(5)
H28 H 0.95780 0.59600 0.97010
H29 H 0.98930 0.54090 0.89660
H30 H 0.97370 0.50670 0.99270
C27 C 0.5373(6) 0.7741(3) 0.8522(5)
H31 H 0.51700 0.72600 0.87540
H32 H 0.48380 0.78180 0.78080
H33 H 0.52670 0.81600 0.89220
C28 C 0.5275(7) 0.6184(4) 0.7246(6)
H34 H 0.52000 0.58790 0.77820
H35 H 0.50320 0.58770 0.66300
H36 H 0.47490 0.66310 0.71110
#END
