
#######################################################################
#
#                 Cambridge Crystallographic Data Centre
#                                CCDC
#
#######################################################################
#
# If this CIF has been generated from an entry in the Cambridge
# Structural Database, then it will include bibliographic, chemical,
# crystal, experimental, refinement or atomic coordinate data resulting
# from the CCDC's data processing and validation procedures.
#
#######################################################################

data_CSD_CIF_MINWOV
_audit_creation_date 2002-06-11
_audit_creation_method CSD-ConQuest-V1
_database_code_CSD MINWOV
_database_code_depnum_ccdc_archive 'CCDC 178159'
_chemical_formula_sum 'C30 H28 N4 O4'
_chemical_formula_moiety
;
C30 H28 N4 O4
;
_journal_coden_Cambridge 182
_journal_year 2002
_journal_page_first 832
_journal_name_full 'Chem.Commun. '
loop_
_publ_author_name
"M.C.Willis"
"C.K.Claverie"
"M.F.Mahon"
_chemical_name_systematic
;
1-(4-(3,3,9a-Trimethyl-9,9a-dihydro-3H-fluoren-1-yl)phenyl)ethanone 
(2,4-dinitrophenyl)hydrazone
;
_cell_volume   5118.643
_exptl_crystal_colour 'deep yellow'
_exptl_crystal_density_diffrn 1.32
_exptl_crystal_description 'tablet'
_exptl_crystal_preparation 'dichloromethane/hexane'
_diffrn_ambient_temperature 150
#These two values have been output from a single CSD field.
_refine_ls_R_factor_gt 0.0594
_refine_ls_wR_factor_gt 0.0594
_symmetry_cell_setting orthorhombic
_symmetry_space_group_name_H-M 'P b c a'
_symmetry_Int_Tables_number 61
loop_
_symmetry_equiv_pos_site_id
_symmetry_equiv_pos_as_xyz
1 x,y,z
2 1/2+x,y,1/2-z
3 1/2-x,1/2+y,z
4 x,1/2-y,1/2+z
5 -x,-y,-z
6 -1/2-x,-y,-1/2+z
7 -1/2+x,-1/2-y,-z
8 -x,-1/2+y,-1/2-z
_cell_length_a 9.2040(1)
_cell_length_b 16.1930(2)
_cell_length_c 34.3440(5)
_cell_angle_alpha 90
_cell_angle_beta 90
_cell_angle_gamma 90
_cell_formula_units_Z 8
loop_
_atom_type_symbol
_atom_type_radius_bond
C 0.68
H 0.23
N 0.68
O 0.68
loop_
_atom_site_label
_atom_site_type_symbol
_atom_site_fract_x
_atom_site_fract_y
_atom_site_fract_z
O1 O 0.2777(2) -0.05576(16) -0.06811(6)
O2 O 0.36061(18) -0.13061(11) -0.11589(5)
O3 O 0.81079(17) -0.04215(10) -0.17263(5)
O4 O 0.98644(17) -0.00466(11) -0.13482(5)
N1 N 0.3763(2) -0.07803(14) -0.09022(6)
N2 N 0.85581(19) -0.01997(10) -0.14086(5)
N3 N 0.9274(2) 0.06019(11) -0.06685(5)
N4 N 0.95731(19) 0.09355(11) -0.03075(5)
C1 C 0.5173(2) -0.03960(14) -0.08552(6)
C2 C 0.5475(2) 0.00366(16) -0.05114(6)
H1 H 0.47390 0.01040 -0.03200
C3 C 0.6822(2) 0.03603(15) -0.04514(6)
H2 H 0.70210 0.06420 -0.02150
C4 C 0.7932(2) 0.02853(13) -0.07348(6)
C5 C 0.7547(2) -0.01150(12) -0.10888(6)
C6 C 0.6180(2) -0.04554(12) -0.11464(6)
H3 H 0.59480 -0.07250 -0.13840
C7 C 1.0781(2) 0.13269(13) -0.02702(6)
C8 C 1.1817(3) 0.14817(18) -0.06017(7)
H4 H 1.24090 0.09870 -0.06460
H5 H 1.24520 0.19480 -0.05370
H6 H 1.12650 0.16100 -0.08380
C9 C 1.1088(2) 0.16563(12) 0.01239(6)
C10 C 1.2398(2) 0.20348(14) 0.02238(6)
H7 H 1.31310 0.21000 0.00310
C11 C 1.2649(2) 0.23167(14) 0.05974(6)
H8 H 1.35540 0.25710 0.06550
C12 C 1.1614(2) 0.22404(12) 0.08930(6)
C13 C 1.0290(2) 0.18746(14) 0.07887(6)
H9 H 0.95470 0.18220 0.09790
C14 C 1.0041(2) 0.15894(13) 0.04174(6)
H10 H 0.91320 0.13400 0.03590
C15 C 1.1940(2) 0.25218(12) 0.12982(6)
C16 C 1.3291(2) 0.24647(12) 0.14392(6)
H11 H 1.40040 0.22290 0.12730
C17 C 1.3790(2) 0.27388(12) 0.18367(6)
C18 C 1.2737(2) 0.33636(13) 0.19980(6)
H12 H 1.30510 0.37230 0.22000
C19 C 1.1383(2) 0.34282(12) 0.18667(6)
C20 C 1.0737(2) 0.28579(12) 0.15558(6)
C21 C 0.9594(2) 0.34239(13) 0.13524(6)
H13 H 1.00090 0.36870 0.11170
H14 H 0.87200 0.31050 0.12780
C22 C 0.9234(2) 0.40617(13) 0.16582(6)
C23 C 1.0279(2) 0.40590(12) 0.19548(6)
C24 C 1.0172(2) 0.46069(13) 0.22656(6)
H15 H 1.08800 0.46060 0.24670
C25 C 0.9013(2) 0.51555(14) 0.22761(7)
H16 H 0.89220 0.55280 0.24880
C26 C 0.7990(2) 0.51655(15) 0.19818(7)
H17 H 0.72090 0.55490 0.19920
C27 C 0.8095(2) 0.46173(14) 0.16706(7)
H18 H 0.73900 0.46250 0.14690
C28 C 1.3927(3) 0.19861(15) 0.21108(7)
H19 H 1.42810 0.21690 0.23660
H20 H 1.46120 0.15880 0.19990
H21 H 1.29740 0.17240 0.21410
C29 C 1.5311(2) 0.31311(15) 0.17992(8)
H22 H 1.52530 0.36210 0.16320
H23 H 1.59820 0.27300 0.16840
H24 H 1.56630 0.32910 0.20580
C30 C 0.9913(2) 0.21625(13) 0.17742(6)
H25 H 0.94730 0.17860 0.15850
H26 H 0.91510 0.24060 0.19370
H27 H 1.05960 0.18560 0.19390
H28 H 0.994(3) 0.0504(17) -0.0855(8)
#END
