
#######################################################################
#
#                 Cambridge Crystallographic Data Centre
#                                CCDC
#
#######################################################################
#
# If this CIF has been generated from an entry in the Cambridge
# Structural Database, then it will include bibliographic, chemical,
# crystal, experimental, refinement or atomic coordinate data resulting
# from the CCDC's data processing and validation procedures.
#
#######################################################################

data_CSD_CIF_MINWAI
_audit_creation_date 2008-02-26
_audit_creation_method CSD-ConQuest-V1
_database_code_CSD MINWAI
_database_code_depnum_ccdc_archive 'CCDC 646905'
_chemical_formula_sum 'C18 H20 N2 O7'
_chemical_formula_moiety
;
C18 H20 N2 O7
;
_journal_coden_Cambridge 1088
_journal_year 2007
_journal_page_first 2718
_journal_name_full 'Synlett '
loop_
_publ_author_name
"A.Fernandez-Mateos"
"P.H.Teijon"
"R.R.Clemente"
"R.R.Gonzalez"
"F.S.Gonzalez"
_chemical_name_systematic
;
7-Oxo-2,2,6-trimethylbicyclo(4.2.0)octan-3\b-yl 3,5-dinitrobenzoate
;
_cell_volume    906.241
_exptl_crystal_colour 'colorless'
_exptl_crystal_density_diffrn 1.379
_exptl_crystal_description 'prismatic'
_diffrn_ambient_temperature 293
#These two values have been output from a single CSD field.
_refine_ls_R_factor_gt 0.0399
_refine_ls_wR_factor_gt 0.0399
_symmetry_cell_setting triclinic
_symmetry_space_group_name_H-M 'P -1'
_symmetry_Int_Tables_number 2
loop_
_symmetry_equiv_pos_site_id
_symmetry_equiv_pos_as_xyz
1 x,y,z
2 -x,-y,-z
_cell_length_a 8.561(2)
_cell_length_b 9.249(2)
_cell_length_c 12.414(3)
_cell_angle_alpha 99.36(3)
_cell_angle_beta 106.99(3)
_cell_angle_gamma 98.83(3)
_cell_formula_units_Z 2
loop_
_atom_type_symbol
_atom_type_radius_bond
C 0.68
H 0.23
N 0.68
O 0.68
loop_
_atom_site_label
_atom_site_type_symbol
_atom_site_fract_x
_atom_site_fract_y
_atom_site_fract_z
O1 O 0.3924(3) 1.3401(2) 0.9336(2)
O2 O 0.1448(3) 1.2570(3) 0.8120(2)
O3 O 0.3335(2) 0.8488(2) 0.43728(12)
O4 O 0.1698(3) 1.0037(2) 0.4339(2)
O5 O 0.7063(2) 0.9253(2) 0.96355(11)
O6 O 0.69942(15) 0.78800(13) 0.79419(10)
O7 O 1.0323(2) 0.7109(2) 0.51913(14)
N1 N 0.2921(3) 1.2556(2) 0.8483(2)
N2 N 0.2761(2) 0.9421(2) 0.48463(15)
C1 C 0.4791(3) 1.0813(2) 0.8467(2)
C2 C 0.3533(3) 1.1405(2) 0.7845(2)
C3 C 0.2796(3) 1.0959(2) 0.6669(2)
C4 C 0.3419(2) 0.9876(2) 0.6117(2)
C5 C 0.4642(2) 0.9215(2) 0.6697(2)
C6 C 0.5328(2) 0.9673(2) 0.7889(2)
C7 C 0.6563(2) 0.8935(2) 0.8593(2)
C8 C 0.8055(2) 0.6949(2) 0.85520(15)
C9 C 0.7693(2) 0.5420(2) 0.77290(14)
C10 C 0.8556(2) 0.5468(2) 0.68100(15)
C11 C 0.7855(3) 0.6130(3) 0.5740(2)
C12 C 0.9645(3) 0.6745(2) 0.5858(2)
C13 C 1.0291(2) 0.6561(2) 0.7094(2)
C14 C 1.0425(3) 0.8040(2) 0.7926(2)
C15 C 0.9864(2) 0.7774(2) 0.8939(2)
C16 C 0.5812(2) 0.4830(3) 0.7157(2)
C17 C 0.8369(3) 0.4334(2) 0.8470(2)
C18 C 1.1863(3) 0.5944(3) 0.7423(2)
H1 H 0.5222(25) 1.1113(23) 0.9248(20)
H2 H 0.1939(30) 1.1389(27) 0.6253(20)
H3 H 0.5000(24) 0.8509(23) 0.6301(16)
H4 H 0.7678(23) 0.6784(20) 0.9212(17)
H5 H 0.8692(23) 0.4451(23) 0.6529(16)
H6 H 0.7225(33) 0.5435(30) 0.5001(24)
H7 H 0.7287(31) 0.6927(30) 0.5917(21)
H8 H 1.1604(30) 0.8588(25) 0.8190(19)
H9 H 0.9762(28) 0.8666(26) 0.7532(19)
H10 H 1.0558(26) 0.7144(24) 0.9361(18)
H11 H 1.0027(26) 0.8712(26) 0.9466(18)
H12 H 0.5270(31) 0.4811(28) 0.7771(22)
H13 H 0.5311(28) 0.5488(27) 0.667(2)
H14 H 0.555(3) 0.3810(31) 0.6646(22)
H15 H 0.9627(31) 0.4614(25) 0.8816(19)
H16 H 0.7768(32) 0.4268(28) 0.9087(23)
H17 H 0.8113(30) 0.3262(30) 0.7986(21)
H18 H 1.2172(31) 0.5832(28) 0.8238(24)
H19 H 1.1719(31) 0.4928(32) 0.6919(23)
H20 H 1.2758(37) 0.6589(32) 0.7334(24)
#END
