
#######################################################################
#
#                 Cambridge Crystallographic Data Centre
#                                CCDC
#
#######################################################################
#
# If this CIF has been generated from an entry in the Cambridge
# Structural Database, then it will include bibliographic, chemical,
# crystal, experimental, refinement or atomic coordinate data resulting
# from the CCDC's data processing and validation procedures.
#
#######################################################################

data_CSD_CIF_MIPLON
_audit_creation_date 2008-02-26
_audit_creation_method CSD-ConQuest-V1
_database_code_CSD MIPLON
_database_code_depnum_ccdc_archive 'CCDC 656979'
_chemical_formula_sum 'C11 H18 N2 O4'
_chemical_formula_moiety
;
C11 H18 N2 O4
;
_journal_coden_Cambridge 16
_journal_volume 63
_journal_year 2007
_journal_page_first 11856
_journal_name_full 'Tetrahedron '
loop_
_publ_author_name
"A.Kamimura"
"Y.Nagata"
"A.Kadowaki"
"K.Uchida"
"H.Uno"
_chemical_name_systematic
;
(5R,6R,7R,8aS)-7-Hydroxy-6-nitro-5-propylhexahydroindolizin-3-one
;
_chemical_melting_point 471.15
_cell_volume   1211.172
_exptl_crystal_colour 'colorless'
_exptl_crystal_density_diffrn 1.329
_exptl_crystal_description 'block'
_exptl_crystal_preparation 'ethyl acetate'
_diffrn_ambient_temperature 100
#These two values have been output from a single CSD field.
_refine_ls_R_factor_gt 0.1119
_refine_ls_wR_factor_gt 0.1119
_symmetry_cell_setting orthorhombic
_symmetry_space_group_name_H-M 'P 21 21 21'
_symmetry_Int_Tables_number 19
loop_
_symmetry_equiv_pos_site_id
_symmetry_equiv_pos_as_xyz
1 x,y,z
2 1/2+x,1/2-y,-z
3 -x,1/2+y,1/2-z
4 1/2-x,-y,1/2+z
_cell_length_a 15.9073(7)
_cell_length_b 7.7599(2)
_cell_length_c 9.8119(3)
_cell_angle_alpha 90
_cell_angle_beta 90
_cell_angle_gamma 90
_cell_formula_units_Z 4
loop_
_atom_type_symbol
_atom_type_radius_bond
C 0.68
H 0.23
N 0.68
O 0.68
loop_
_atom_site_label
_atom_site_type_symbol
_atom_site_fract_x
_atom_site_fract_y
_atom_site_fract_z
O1 O 0.2250(5) -0.1588(9) 0.0032(7)
O2 O 0.1825(4) 0.5331(9) -0.0704(7)
H1 H 0.21150 0.50390 -0.13800
O3 O 0.3654(4) 0.3690(11) -0.1649(7)
O4 O 0.3809(4) 0.4801(9) 0.0372(8)
N1 N 0.3444(5) 0.3862(10) -0.0494(9)
N2 N 0.2120(4) 0.081(1) 0.1456(7)
C1 C 0.1832(6) -0.0596(15) 0.0780(11)
C2 C 0.0913(6) -0.0779(17) 0.1088(11)
H2 H 0.07910 -0.19340 0.14690
H3 H 0.05740 -0.06150 0.02530
C3 C 0.0717(6) 0.0639(19) 0.2142(11)
H4 H 0.01700 0.11940 0.19470
H5 H 0.07060 0.01620 0.30780
C4 C 0.1442(5) 0.1920(14) 0.1970(8)
H6 H 0.15970 0.24760 0.28550
C5 C 0.1230(5) 0.3247(13) 0.0887(9)
H7 H 0.08130 0.40720 0.12550
H8 H 0.09750 0.26620 0.00910
C6 C 0.2019(5) 0.4232(12) 0.0428(9)
H9 H 0.22360 0.49430 0.12020
C7 C 0.2694(5) 0.2917(11) -0.0005(10)
H10 H 0.24670 0.22160 -0.07770
C8 C 0.2906(5) 0.1701(13) 0.1174(8)
H11 H 0.30440 0.24260 0.19870
C9 C 0.3654(5) 0.0529(11) 0.0907(9)
H12 H 0.41570 0.12500 0.07400
H13 H 0.35450 -0.01470 0.00690
C10 C 0.3843(5) -0.0723(12) 0.2085(9)
H14 H 0.38910 -0.00640 0.29450
H15 H 0.33690 -0.15420 0.21830
C11 C 0.4659(5) -0.1738(12) 0.1848(11)
H16 H 0.45310 -0.28120 0.13650
H17 H 0.49200 -0.20060 0.27280
H18 H 0.50470 -0.10440 0.13000
#END
