
#######################################################################
#
#                 Cambridge Crystallographic Data Centre
#                                CCDC
#
#######################################################################
#
# If this CIF has been generated from an entry in the Cambridge
# Structural Database, then it will include bibliographic, chemical,
# crystal, experimental, refinement or atomic coordinate data resulting
# from the CCDC's data processing and validation procedures.
#
#######################################################################

data_CSD_CIF_MIQNOP
_audit_creation_date 2002-06-26
_audit_creation_method CSD-ConQuest-V1
_database_code_CSD MIQNOP
_database_code_depnum_ccdc_archive 'CCDC 161121'
_chemical_formula_sum 'C18 H14 N2 O6'
_chemical_formula_moiety
;
C18 H14 N2 O6
;
_journal_coden_Cambridge 1090
_journal_volume 12
_journal_year 2001
_journal_page_first 365
_journal_name_full 'Tetrahedron:Asymm. '
loop_
_publ_author_name
"F.Fernandez"
"X.Garcia-Mera"
"J.E.Rodriguez-Borges"
_chemical_name_systematic
;
(+)-(1R)-endo-2-Benzonorbornenyl 3,5-dinitrobenzoate
;
_chemical_melting_point 421.15
_cell_volume    835.805
_exptl_crystal_colour 'white'
_exptl_crystal_density_diffrn 1.408
_exptl_special_details
;
Melting point range 421.15-423.15K

;
_diffrn_ambient_temperature 293
#These two values have been output from a single CSD field.
_refine_ls_R_factor_gt 0.0406
_refine_ls_wR_factor_gt 0.0406
_symmetry_cell_setting monoclinic
_symmetry_space_group_name_H-M 'P 21'
_symmetry_Int_Tables_number 4
loop_
_symmetry_equiv_pos_site_id
_symmetry_equiv_pos_as_xyz
1 x,y,z
2 -x,1/2+y,-z
_cell_length_a 9.9656(7)
_cell_length_b 5.7567(8)
_cell_length_c 14.5818(11)
_cell_angle_alpha 90
_cell_angle_beta 92.406(8)
_cell_angle_gamma 90
_cell_formula_units_Z 2
loop_
_atom_type_symbol
_atom_type_radius_bond
C 0.68
H 0.23
N 0.68
O 0.68
loop_
_atom_site_label
_atom_site_type_symbol
_atom_site_fract_x
_atom_site_fract_y
_atom_site_fract_z
C1 C 0.2973(2) 0.3194(5) 1.1007(2)
C2 C 0.2228(2) 0.5212(5) 1.0932(2)
C3 C 0.1993(2) 0.6082(4) 1.0062(2)
C4 C 0.2475(2) 0.5058(4) 0.9295(2)
C5 C 0.3224(2) 0.3028(4) 0.9396(2)
C6 C 0.3471(2) 0.2089(5) 1.0264(2)
N1 N 0.3219(2) 0.2168(6) 1.1930(2)
O1 O 0.3652(2) 0.0181(5) 1.1961(2)
O2 O 0.2962(3) 0.3340(5) 1.2593(2)
N2 N 0.1172(2) 0.8202(4) 0.9957(2)
O3 O 0.0779(2) 0.9120(4) 1.0655(2)
O4 O 0.0920(2) 0.8915(4) 0.9186(2)
C7 C 0.3718(2) 0.1740(5) 0.8590(2)
O5 O 0.4187(2) -0.0187(4) 0.8642(1)
O6 O 0.3584(2) 0.2983(3) 0.7829(1)
C8 C 0.3974(3) 0.1893(6) 0.6984(2)
C9 C 0.2825(3) 0.0383(6) 0.6556(2)
C10 C 0.3221(3) 0.0464(7) 0.5549(2)
C11 C 0.3155(3) 0.3124(7) 0.5485(2)
C12 C 0.4192(3) 0.3805(7) 0.6270(2)
C13 C 0.1594(3) 0.1880(5) 0.6508(2)
C14 C 0.0458(3) 0.1887(6) 0.7009(2)
C15 C -0.0478(3) 0.3599(7) 0.6846(2)
C16 C 0.1790(3) 0.3573(5) 0.5855(2)
C17 C -0.0287(3) 0.5303(6) 0.6203(2)
C18 C 0.0838(3) 0.5329(6) 0.5694(2)
H1 H 0.19010 0.59460 1.14450
H2 H 0.23050 0.57070 0.87180
H3 H 0.39680 0.07300 1.03390
H4 H 0.47910 0.09690 0.70890
H5 H 0.27200 -0.11670 0.68220
H6 H 0.41150 -0.01420 0.54630
H7 H 0.25730 -0.03000 0.51360
H8 H 0.33120 0.37890 0.48800
H9 H 0.51020 0.37800 0.60600
H10 H 0.40020 0.53310 0.65150
H11 H 0.03260 0.07520 0.74500
H12 H -0.12570 0.36090 0.71760
H13 H -0.09320 0.64580 0.61120
H14 H 0.09640 0.64740 0.52570
#END
