
#######################################################################
#
#                 Cambridge Crystallographic Data Centre
#                                CCDC
#
#######################################################################
#
# If this CIF has been generated from an entry in the Cambridge
# Structural Database, then it will include bibliographic, chemical,
# crystal, experimental, refinement or atomic coordinate data resulting
# from the CCDC's data processing and validation procedures.
#
#######################################################################

data_CSD_CIF_MIQSAH
_audit_creation_date 2008-02-26
_audit_creation_method CSD-ConQuest-V1
_database_code_CSD MIQSAH
_database_code_depnum_ccdc_archive 'CCDC 670244'
_chemical_formula_sum 'C24 H20 N2 O7'
_chemical_formula_moiety
;
C24 H20 N2 O7
;
_journal_coden_Cambridge 1336
_journal_volume 9
_journal_year 2007
_journal_page_first 4721
_journal_name_full 'Org.Lett. '
loop_
_publ_author_name
"Xin Guo"
"Haoxi Huang"
"Liping Yang"
"Wenhao Hu"
_chemical_name_systematic
;
erythro-Methyl 
2-(benzyloxy)-2-(3-hydroxy-5-nitro-2-oxoindolin-3-yl)-2-phenylacetate
;
_cell_volume   2158.681
_exptl_crystal_density_diffrn 1.38
_diffrn_ambient_temperature 287
#These two values have been output from a single CSD field.
_refine_ls_R_factor_gt 0.0397
_refine_ls_wR_factor_gt 0.0397
_symmetry_cell_setting monoclinic
_symmetry_space_group_name_H-M 'P 21/n'
_symmetry_Int_Tables_number 14
loop_
_symmetry_equiv_pos_site_id
_symmetry_equiv_pos_as_xyz
1 x,y,z
2 1/2-x,1/2+y,1/2-z
3 -x,-y,-z
4 -1/2+x,-1/2-y,-1/2+z
_cell_length_a 10.085(1)
_cell_length_b 16.279(2)
_cell_length_c 13.421(2)
_cell_angle_alpha 90
_cell_angle_beta 101.56(1)
_cell_angle_gamma 90
_cell_formula_units_Z 4
loop_
_atom_type_symbol
_atom_type_radius_bond
C 0.68
H 0.23
N 0.68
O 0.68
loop_
_atom_site_label
_atom_site_type_symbol
_atom_site_fract_x
_atom_site_fract_y
_atom_site_fract_z
O1 O 0.49789(12) 0.57375(7) 0.89869(9)
O2 O 0.75122(14) 0.63891(8) 0.84636(10)
O3 O 0.73160(11) 0.57374(7) 0.65776(8)
O4 O 0.39237(12) 0.58343(8) 0.65623(11)
O5 O 0.53823(15) 0.68564(8) 0.70102(12)
O6 O 1.22616(16) 0.36160(12) 0.88995(15)
O7 O 1.19279(15) 0.47386(13) 0.80401(14)
N1 N 0.65120(15) 0.47021(9) 0.95083(11)
N2 N 1.15523(17) 0.41962(13) 0.85515(14)
C1 C 0.60141(17) 0.53644(10) 0.89492(12)
C2 C 0.70069(16) 0.55864(10) 0.82439(12)
C3 C 0.81190(16) 0.49702(10) 0.85697(12)
C4 C 0.93590(17) 0.48904(11) 0.83079(13)
H1 H 0.96270 0.52390 0.78360
C5 C 1.01956(17) 0.42683(12) 0.87766(13)
C6 C 0.98285(19) 0.37339(12) 0.94730(15)
H2 H 1.04110 0.33140 0.97530
C7 C 0.85918(19) 0.38262(12) 0.97519(14)
H3 H 0.83270 0.34760 1.02240
C8 C 0.77595(17) 0.44561(10) 0.93063(12)
C9 C 0.62931(16) 0.54839(10) 0.70957(12)
C10 C 0.58828(16) 0.45893(10) 0.68870(12)
C11 C 0.66958(18) 0.40811(11) 0.64305(14)
H4 H 0.74350 0.43020 0.62080
C12 C 0.6421(2) 0.32513(12) 0.63032(16)
H5 H 0.69690 0.29220 0.59890
C13 C 0.5350(2) 0.29104(12) 0.66353(15)
H6 H 0.51750 0.23510 0.65580
C14 C 0.4532(2) 0.34039(11) 0.70856(15)
H7 H 0.37980 0.31760 0.73090
C15 C 0.47887(17) 0.42343(11) 0.72102(13)
H8 H 0.42230 0.45600 0.75140
C16 C 0.69197(19) 0.58904(13) 0.55058(13)
H9 H 0.61090 0.62260 0.53660
H10 H 0.67330 0.53760 0.51390
C17 C 0.80638(18) 0.63272(12) 0.51828(13)
C18 C 0.8570(2) 0.70458(13) 0.56650(17)
H11 H 0.82230 0.72320 0.62160
C19 C 0.9570(2) 0.74920(14) 0.5354(2)
H12 H 0.99060 0.79660 0.57010
C20 C 1.0062(2) 0.72399(17) 0.4544(2)
H13 H 1.07050 0.75570 0.43130
C21 C 0.9628(2) 0.65243(18) 0.40601(18)
H14 H 0.99980 0.63440 0.35170
C22 C 0.8619(2) 0.60589(16) 0.43852(16)
H15 H 0.83270 0.55680 0.40600
C23 C 0.51358(19) 0.61338(11) 0.68822(14)
C24 C 0.2813(2) 0.64210(15) 0.6475(2)
H16 H 0.27750 0.66330 0.71360
H17 H 0.19750 0.61510 0.61930
H18 H 0.29580 0.68650 0.60370
H19 H 0.695(3) 0.6693(15) 0.803(2)
H20 H 0.6064(18) 0.4508(11) 0.9984(15)
#END
