
#######################################################################
#
#                 Cambridge Crystallographic Data Centre
#                                CCDC
#
#######################################################################
#
# If this CIF has been generated from an entry in the Cambridge
# Structural Database, then it will include bibliographic, chemical,
# crystal, experimental, refinement or atomic coordinate data resulting
# from the CCDC's data processing and validation procedures.
#
#######################################################################

data_CSD_CIF_MIRBOE
_audit_creation_date 2002-06-26
_audit_creation_method CSD-ConQuest-V1
_database_code_CSD MIRBOE
_chemical_formula_sum 'C28 H36 N4 O18'
_chemical_formula_moiety
;
C28 H36 N4 O18
;
_journal_coden_Cambridge 35
_journal_volume 66
_journal_year 2001
_journal_page_first 4419
_journal_name_full 'J.Org.Chem. '
loop_
_publ_author_name
"S.A.Duggan"
"G.Fallon"
"S.J.Langford"
"Vei-Lin Lau"
"J.F.Satchell"
"M.N.Paddon-Row"
_chemical_name_systematic
;
2,3,19,20-Tetranitro-6,7,9,10,12,13,15,16,23,24,26,27,29,30,32,33-hexadecahydr
odibenzo(b,q)-1,4,7,10,13,16,19,22,25,28-decaoxacyclotriacontin
;
_chemical_melting_point 438.15
_cell_volume   1568.376
_exptl_crystal_colour 'yellow'
_exptl_crystal_density_diffrn 1.517
_exptl_special_details
;
Melting point range 438.15-439.15K

;
_exptl_crystal_preparation 'acetonitrile'
_diffrn_ambient_temperature 123
#These two values have been output from a single CSD field.
_refine_ls_R_factor_gt 0.063
_refine_ls_wR_factor_gt 0.063
_symmetry_cell_setting monoclinic
_symmetry_space_group_name_H-M 'P 21/c'
_symmetry_Int_Tables_number 14
loop_
_symmetry_equiv_pos_site_id
_symmetry_equiv_pos_as_xyz
1 x,y,z
2 -x,1/2+y,1/2-z
3 -x,-y,-z
4 x,-1/2-y,-1/2+z
_cell_length_a 13.9862(6)
_cell_length_b 7.5273(4)
_cell_length_c 15.4139(7)
_cell_angle_alpha 90
_cell_angle_beta 104.874(3)
_cell_angle_gamma 90
_cell_formula_units_Z 2
loop_
_atom_type_symbol
_atom_type_radius_bond
C 0.68
H 0.23
N 0.68
O 0.68
loop_
_atom_site_label
_atom_site_type_symbol
_atom_site_fract_x
_atom_site_fract_y
_atom_site_fract_z
O1 O 0.7616(1) 0.2287(2) 0.1893(1)
O2 O 0.9170(1) -0.0102(2) 0.26785(9)
O3 O 1.0597(1) -0.1558(2) 0.42855(9)
O4 O 1.1550(1) -0.4551(2) 0.53281(9)
O5 O 1.2395(1) -0.5204(2) 0.72459(9)
O6 O 1.5879(1) -0.7745(3) 0.8864(1)
O7 O 1.6530(1) -0.5525(3) 0.8328(1)
O8 O 1.6515(1) -0.4036(3) 0.9998(1)
O9 O 1.5888(1) -0.1393(3) 0.9902(1)
N1 N 1.5872(1) -0.6212(3) 0.8601(1)
N2 N 1.5862(1) -0.2955(3) 0.9688(1)
C1 C 0.7629(2) 0.0480(3) 0.1579(1)
C2 C 0.8681(2) -0.0100(3) 0.1749(1)
C3 C 1.0211(2) -0.0311(3) 0.2803(1)
C4 C 1.0760(2) -0.0085(3) 0.3767(1)
C5 C 1.1206(2) -0.1461(3) 0.5181(1)
C6 C 1.1103(2) -0.3106(3) 0.5683(1)
C7 C 1.1530(2) -0.6181(3) 0.5783(1)
C8 C 1.2425(2) -0.6456(3) 0.6541(1)
C9 C 1.3261(2) -0.4765(3) 0.7822(1)
C10 C 1.4118(2) -0.5772(3) 0.7972(1)
C11 C 1.4976(2) -0.5158(3) 0.8562(1)
C12 C 1.4980(2) -0.3579(3) 0.9013(1)
C13 C 1.4126(2) -0.2550(3) 0.8879(1)
C14 C 0.6738(2) 0.3138(3) 0.1710(1)
H1 H 0.72880 -0.02720 0.18940
H2 H 0.73190 0.04250 0.09540
H3 H 0.90190 0.06880 0.14480
H4 H 0.86980 -0.12680 0.15200
H5 H 1.03370 -0.14670 0.26110
H6 H 1.04370 0.05530 0.24530
H7 H 1.05380 0.09670 0.39940
H8 H 1.14480 0.00110 0.38080
H9 H 1.18770 -0.13280 0.51650
H10 H 1.10130 -0.04670 0.54750
H11 H 1.04210 -0.33520 0.56170
H12 H 1.14230 -0.29510 0.63010
H13 H 1.09620 -0.61950 0.60130
H14 H 1.14890 -0.71260 0.53660
H15 H 1.30040 -0.62630 0.63390
H16 H 1.24290 -0.76350 0.67620
H17 H 1.41170 -0.68750 0.76710
H18 H 1.41360 -0.14560 0.91890
C14B C 1.3262(2) -0.3138(3) 0.8290(1)
O1B O 1.2384(1) -0.2287(2) 0.8107(1)
C1B C 1.2371(2) -0.0480(3) 0.8421(1)
C2B C 1.1319(2) 0.0100(3) 0.8251(1)
O2B O 1.0830(1) 0.0102(2) 0.73215(9)
C3B C 0.9789(2) 0.0311(3) 0.7197(1)
C4B C 0.9240(2) 0.0085(3) 0.6233(1)
O3B O 0.9403(1) 0.1558(2) 0.57145(9)
C5B C 0.8794(2) 0.1461(3) 0.4819(1)
C6B C 0.8897(2) 0.3106(3) 0.4317(1)
O4B O 0.8450(1) 0.4551(2) 0.46719(9)
C7B C 0.8470(2) 0.6181(3) 0.4217(1)
C8B C 0.7575(2) 0.6456(3) 0.3459(1)
O5B O 0.7605(1) 0.5204(2) 0.27541(9)
C9B C 0.6739(2) 0.4765(3) 0.2178(1)
C10B C 0.5882(2) 0.5772(3) 0.2028(1)
C11B C 0.5024(2) 0.5158(3) 0.1438(1)
N1B N 0.4128(1) 0.6212(3) 0.1399(1)
O6B O 0.4121(1) 0.7745(3) 0.1136(1)
O7B O 0.3470(1) 0.5525(3) 0.1672(1)
C12B C 0.5020(2) 0.3579(3) 0.0987(1)
N2B N 0.4138(1) 0.2955(3) 0.0312(1)
O8B O 0.3485(1) 0.4036(3) 0.0002(1)
O9B O 0.4112(1) 0.1393(3) 0.0098(1)
C13B C 0.5874(2) 0.2550(3) 0.1121(1)
H18B H 0.58640 0.14560 0.08110
H17B H 0.58830 0.68750 0.23290
H15B H 0.69960 0.62630 0.36610
H16B H 0.75710 0.76350 0.32380
H13B H 0.90380 0.61950 0.39870
H14B H 0.85110 0.71260 0.46340
H11B H 0.95790 0.33520 0.43830
H12B H 0.85770 0.29510 0.36990
H9B H 0.81230 0.13280 0.48350
H10B H 0.89870 0.04670 0.45250
H7B H 0.94620 -0.09670 0.60060
H8B H 0.85520 -0.00110 0.61920
H5B H 0.96630 0.14670 0.73890
H6B H 0.95630 -0.05530 0.75470
H3B H 1.09810 -0.06880 0.85520
H4B H 1.13020 0.12680 0.84800
H1B H 1.27120 0.02720 0.81060
H2B H 1.26810 -0.04250 0.90460
#END
