
#######################################################################
#
#                 Cambridge Crystallographic Data Centre
#                                CCDC
#
#######################################################################
#
# If this CIF has been generated from an entry in the Cambridge
# Structural Database, then it will include bibliographic, chemical,
# crystal, experimental, refinement or atomic coordinate data resulting
# from the CCDC's data processing and validation procedures.
#
#######################################################################

data_CSD_CIF_MISCUM
_audit_creation_date 2002-06-26
_audit_creation_method CSD-ConQuest-V1
_database_code_CSD MISCUM
_database_code_depnum_ccdc_archive 'CCDC 179303'
_chemical_formula_sum 'C17 H23 N1 O5'
_chemical_formula_moiety
;
C17 H23 N1 O5
;
_journal_coden_Cambridge 1090
_journal_volume 13
_journal_year 2002
_journal_page_first 173
_journal_name_full 'Tetrahedron:Asymm. '
loop_
_publ_author_name
"P.Merino"
"J.A.Mates"
"J.Revuelta"
"T.Tejero"
"U.Chiacchio"
"G.Romeo"
"D.Iannazzo"
"R.Romeo"
_chemical_name_systematic
;
(3S,5S)-2-Benzyl-3-((4S)-2,2-dimethyl-1,3-dioxolan-4-yl)-isoxazolidine-5-carbo
xylic acid methyl ester
;
_chemical_melting_point 347
_cell_volume   1698.022
_exptl_crystal_colour 'colorless'
_exptl_crystal_density_diffrn 1.257
_exptl_crystal_description 'block'
_diffrn_ambient_temperature 293
#These two values have been output from a single CSD field.
_refine_ls_R_factor_gt 0.0563
_refine_ls_wR_factor_gt 0.0563
_symmetry_cell_setting orthorhombic
_symmetry_space_group_name_H-M 'P 21 21 21'
_symmetry_Int_Tables_number 19
loop_
_symmetry_equiv_pos_site_id
_symmetry_equiv_pos_as_xyz
1 x,y,z
2 1/2-x,-y,1/2+z
3 -x,1/2+y,1/2-z
4 1/2+x,1/2-y,-z
_cell_length_a 5.982(1)
_cell_length_b 12.803(3)
_cell_length_c 22.171(4)
_cell_angle_alpha 90
_cell_angle_beta 90
_cell_angle_gamma 90
_cell_formula_units_Z 4
loop_
_atom_type_symbol
_atom_type_radius_bond
C 0.68
H 0.23
N 0.68
O 0.68
loop_
_atom_site_label
_atom_site_type_symbol
_atom_site_fract_x
_atom_site_fract_y
_atom_site_fract_z
N1 N 0.9329(7) 0.5503(3) 0.4762(2)
O1 O 0.9446(6) 0.6281(2) 0.52438(12)
O2 O 0.5144(7) 0.6218(3) 0.63593(14)
O3 O 0.8389(8) 0.5375(3) 0.63585(15)
O4 O 0.5170(5) 0.6542(2) 0.36908(11)
O5 O 0.7924(6) 0.6538(3) 0.29834(12)
C1 C 0.4532(12) 0.5790(5) 0.6946(2)
H1 H 0.3104(12) 0.6062(5) 0.7066(2)
H2 H 0.5639(12) 0.5984(5) 0.7239(2)
H3 H 0.4451(12) 0.5042(5) 0.6920(2)
C2 C 0.7089(11) 0.5925(4) 0.6121(2)
C3 C 0.7261(8) 0.6422(4) 0.5496(2)
H4 H 0.6969(8) 0.7172(4) 0.5533(2)
C4 C 0.5579(8) 0.5956(4) 0.5049(2)
H5 H 0.4452(8) 0.6464(4) 0.4935(2)
H6 H 0.4850(8) 0.5344(4) 0.5215(2)
C5 C 0.7075(8) 0.5666(4) 0.4509(2)
H7 H 0.6543(8) 0.5010(4) 0.4332(2)
C6 C 0.7226(8) 0.6494(4) 0.4016(2)
H8 H 0.7568(8) 0.7177(4) 0.4193(2)
C7 C 0.8963(8) 0.6218(4) 0.3535(2)
H9 H 1.0349(8) 0.6593(4) 0.3601(2)
H10 H 0.9270(8) 0.5474(4) 0.3533(2)
C8 C 0.9577(9) 0.4452(4) 0.5038(2)
H11 H 0.8250(9) 0.4281(4) 0.5270(2)
H12 H 1.0852(9) 0.4445(4) 0.5308(2)
C9 C 0.9909(9) 0.3657(4) 0.4538(2)
C10 C 0.8369(10) 0.2889(4) 0.4425(2)
H13 H 0.7095(10) 0.2843(4) 0.4665(2)
C11 C 0.8681(12) 0.2175(5) 0.3959(3)
H14 H 0.7614(12) 0.1662(5) 0.3885(3)
C12 C 1.0563(13) 0.2231(5) 0.3610(3)
H15 H 1.0796(13) 0.1750(5) 0.3302(3)
C13 C 1.2102(12) 0.3002(5) 0.3719(3)
H16 H 1.3375(12) 0.3050(5) 0.3480(3)
C14 C 1.1776(10) 0.3709(5) 0.4180(2)
H17 H 1.2835(10) 0.4227(5) 0.4250(2)
C15 C 0.5624(10) 0.6352(5) 0.3061(2)
C16 C 0.5044(11) 0.5223(5) 0.2921(2)
H18 H 0.3469(11) 0.5116(5) 0.2977(2)
H19 H 0.5861(11) 0.4770(5) 0.3186(2)
H20 H 0.5434(11) 0.5070(5) 0.2510(2)
C17 C 0.4317(11) 0.7118(5) 0.2681(2)
H21 H 0.2745(11) 0.6995(5) 0.2732(2)
H22 H 0.4708(11) 0.7028(5) 0.2264(2)
H23 H 0.4667(11) 0.7818(5) 0.2804(2)
#END
