
#######################################################################
#
#                 Cambridge Crystallographic Data Centre
#                                CCDC
#
#######################################################################
#
# If this CIF has been generated from an entry in the Cambridge
# Structural Database, then it will include bibliographic, chemical,
# crystal, experimental, refinement or atomic coordinate data resulting
# from the CCDC's data processing and validation procedures.
#
#######################################################################

data_CSD_CIF_MITJIK
_audit_creation_date 2014-03-13
_audit_creation_method CSD-ConQuest-V1
_database_code_CSD MITJIK
_database_code_depnum_ccdc_archive 'CCDC 991454'
_chemical_formula_sum 'C26 H30 N4 O6'
_chemical_formula_moiety
;
C26 H30 N4 O6
;
_journal_coden_Cambridge 1078
_journal_year 2014
_journal_name_full 'CSD Communication(Private Communication) '
loop_
_publ_author_name
"J.Gabriel Garcia"
"F.R.Fronczek"
_chemical_name_systematic
;
1-(2-(adamantan-1-yl)-1-(3,4-dimethoxyphenyl)ethylidene)-2-(2,4-dinitrophenyl)
hydrazine
;
_cell_volume   1207.126
_exptl_crystal_colour 'red'
_exptl_crystal_density_diffrn 1.361
_exptl_crystal_description 'lath'
_diffrn_ambient_temperature 299
#These two values have been output from a single CSD field.
_refine_ls_R_factor_gt 0.0653
_refine_ls_wR_factor_gt 0.0653
_symmetry_cell_setting triclinic
_symmetry_space_group_name_H-M 'P -1'
_symmetry_Int_Tables_number 2
loop_
_symmetry_equiv_pos_site_id
_symmetry_equiv_pos_as_xyz
1 x,y,z
2 -x,-y,-z
_cell_length_a 10.7496(13)
_cell_length_b 11.0680(6)
_cell_length_c 11.2740(12)
_cell_angle_alpha 93.509(7)
_cell_angle_beta 108.513(10)
_cell_angle_gamma 105.884(8)
_cell_formula_units_Z 2
loop_
_atom_type_symbol
_atom_type_radius_bond
C 0.68
H 0.23
N 0.68
O 0.68
loop_
_atom_site_label
_atom_site_type_symbol
_atom_site_fract_x
_atom_site_fract_y
_atom_site_fract_z
O1 O 0.2320(2) 0.08041(18) 0.3304(2)
O2 O 0.49240(19) 0.14023(16) 0.45078(19)
O3 O 0.8122(2) 0.9677(2) 0.3671(3)
O4 O 0.8120(2) 1.1449(2) 0.3022(3)
O5 O 0.4132(3) 1.2182(2) 0.0383(3)
O6 O 0.2174(3) 1.0738(3) -0.0210(3)
N1 N 0.5063(2) 0.65468(18) 0.2969(2)
N2 N 0.5860(2) 0.77605(19) 0.2991(2)
H1 H 0.679(3) 0.803(3) 0.339(3)
N3 N 0.7509(3) 1.0353(2) 0.3059(3)
N4 N 0.3402(3) 1.1119(3) 0.0374(3)
C1 C 0.5710(3) 0.5757(2) 0.3430(2)
C2 C 0.7257(3) 0.6060(2) 0.3943(2)
H2 H 0.74930 0.55750 0.46220
H3 H 0.76580 0.69550 0.43110
C3 C 0.7940(2) 0.5790(2) 0.2979(2)
C4 C 0.7649(4) 0.6515(3) 0.1872(3)
H4 H 0.79520 0.74190 0.21900
H5 H 0.66640 0.62550 0.14090
C5 C 0.8406(6) 0.6260(4) 0.0965(4)
H6 H 0.82280 0.67490 0.02680
C6 C 0.7851(4) 0.4841(4) 0.0448(3)
H7 H 0.68590 0.45950 0.00200
H8 H 0.82630 0.46530 -0.01630
C7 C 0.8178(3) 0.4110(3) 0.1501(3)
H9 H 0.78320 0.31990 0.11560
C8 C 0.7458(3) 0.4368(2) 0.2433(3)
H10 H 0.64670 0.40860 0.19960
H11 H 0.76620 0.38850 0.31200
C9 C 0.9494(3) 0.6177(4) 0.3639(4)
H12 H 0.97030 0.57490 0.43700
H13 H 0.98450 0.70870 0.39400
C10 C 1.0227(4) 0.5835(5) 0.2738(5)
H14 H 1.12230 0.60660 0.31940
C11 C 0.9930(6) 0.6633(4) 0.1692(6)
H15 H 1.02670 0.75270 0.20610
H16 H 1.04100 0.65110 0.11190
C12 C 0.9666(4) 0.4468(4) 0.2196(4)
H17 H 1.01280 0.42850 0.16270
H18 H 0.98410 0.39670 0.28720
C13 C 0.4798(2) 0.4464(2) 0.3400(2)
C14 C 0.3388(3) 0.4117(2) 0.2752(3)
H19 H 0.30100 0.47040 0.23410
C15 C 0.2536(3) 0.2915(2) 0.2705(3)
H20 H 0.15920 0.27080 0.22700
C16 C 0.3065(3) 0.2016(2) 0.3293(3)
C17 C 0.4483(3) 0.2344(2) 0.3954(2)
C18 C 0.5326(3) 0.3553(2) 0.4008(2)
H21 H 0.62660 0.37670 0.44600
C19 C 0.5264(3) 0.8584(2) 0.2389(2)
C20 C 0.6046(3) 0.9853(2) 0.2390(3)
C21 C 0.5413(3) 1.0667(2) 0.1737(3)
H22 H 0.59340 1.14930 0.17440
C22 C 0.4035(3) 1.0264(2) 0.1088(3)
C23 C 0.3233(3) 0.9032(3) 0.1074(3)
H23 H 0.22870 0.87670 0.06330
C24 C 0.3844(3) 0.8222(2) 0.1712(3)
H24 H 0.33020 0.74020 0.16970
C25 C 0.6339(3) 0.1701(3) 0.5235(3)
H25 H 0.68800 0.19780 0.47120
H26 H 0.65180 0.09590 0.55570
H27 H 0.65810 0.23680 0.59290
C26 C 0.0873(4) 0.0466(4) 0.2732(6)
H28 H 0.05350 0.10270 0.31390
H29 H 0.04620 -0.03950 0.28190
H30 H 0.06370 0.05370 0.18490
#END
