
#######################################################################
#
#                 Cambridge Crystallographic Data Centre
#                                CCDC
#
#######################################################################
#
# If this CIF has been generated from an entry in the Cambridge
# Structural Database, then it will include bibliographic, chemical,
# crystal, experimental, refinement or atomic coordinate data resulting
# from the CCDC's data processing and validation procedures.
#
#######################################################################

data_CSD_CIF_MITXAO
_audit_creation_date 2002-06-26
_audit_creation_method CSD-ConQuest-V1
_database_code_CSD MITXAO
_database_code_depnum_ccdc_archive 'CCDC 173076'
_chemical_formula_sum 'C16 H18 N2 O7'
_chemical_formula_moiety
;
C16 H18 N2 O7
;
_journal_coden_Cambridge 35
_journal_volume 67
_journal_year 2002
_journal_page_first 2131
_journal_name_full 'J.Org.Chem. '
loop_
_publ_author_name
"F.Palacios"
"E.Herran"
"G.Rubiales"
"J.M.Ezpeleta"
_chemical_name_systematic
;
Diethyl 2-(4-nitrophenyl)-3,6-dihydro-2H-(1,3)oxazine-5,6-dicarboxylate
;
_chemical_melting_point 383.15
_cell_volume   1682.829
_exptl_crystal_colour 'colorless'
_exptl_crystal_density_diffrn 1.383
_exptl_special_details
;
Melting point range 383.15-384.15K

;
_exptl_crystal_description 'prismatic'
_diffrn_ambient_temperature 293
#These two values have been output from a single CSD field.
_refine_ls_R_factor_gt 0.0405
_refine_ls_wR_factor_gt 0.0405
_symmetry_cell_setting orthorhombic
_symmetry_space_group_name_H-M 'P 21 21 21'
_symmetry_Int_Tables_number 19
loop_
_symmetry_equiv_pos_site_id
_symmetry_equiv_pos_as_xyz
1 x,y,z
2 1/2-x,-y,1/2+z
3 1/2+x,1/2-y,-z
4 -x,1/2+y,1/2-z
_cell_length_a 4.662(1)
_cell_length_b 12.888(5)
_cell_length_c 28.008(14)
_cell_angle_alpha 90
_cell_angle_beta 90
_cell_angle_gamma 90
_cell_formula_units_Z 4
loop_
_atom_type_symbol
_atom_type_radius_bond
C 0.68
H 0.23
N 0.68
O 0.68
loop_
_atom_site_label
_atom_site_type_symbol
_atom_site_fract_x
_atom_site_fract_y
_atom_site_fract_z
C1 C 0.9686(8) 0.6524(2) -0.07043(10)
C2 C 1.0754(9) 0.5443(2) -0.08143(10)
H1 H 1.27410 0.55000 -0.09250
O1 O 1.0751(5) 0.48247(15) -0.03896(7)
C3 C 0.8092(9) 0.4812(2) -0.01352(11)
H2 H 0.66200 0.44690 -0.03290
N1 N 0.7206(7) 0.58676(19) -0.00293(9)
H3 H 0.61540 0.59920 0.02160
C4 C 0.8032(8) 0.6649(2) -0.03152(11)
H4 H 0.74230 0.73160 -0.02400
C5 C 0.8540(8) 0.4219(2) 0.03178(11)
C6 C 0.7079(9) 0.3308(2) 0.04072(12)
H5 H 0.58570 0.30410 0.01750
C7 C 0.7393(11) 0.2787(3) 0.08323(14)
H6 H 0.63750 0.21800 0.08930
C8 C 0.9262(10) 0.3189(3) 0.11662(12)
C9 C 1.0791(10) 0.4080(3) 0.10902(13)
H7 H 1.20520 0.43330 0.13200
C10 C 1.040(1) 0.4593(3) 0.06611(12)
H8 H 1.14090 0.52030 0.06030
N2 N 0.9584(11) 0.2656(3) 0.16313(13)
O2 O 1.1499(11) 0.2928(3) 0.18881(11)
O3 O 0.7890(9) 0.1957(3) 0.17316(12)
C11 C 0.9014(9) 0.4916(3) -0.12085(12)
O4 O 0.7360(8) 0.4222(2) -0.11435(9)
O5 O 0.9592(7) 0.53183(17) -0.16303(8)
C12 C 0.8027(12) 0.4903(3) -0.20354(12)
H9 H 0.60030 0.50640 -0.20060
H10 H 0.82420 0.41550 -0.20480
C13 C 0.9214(14) 0.5381(4) -0.24755(13)
H11 H 0.81470 0.51440 -0.27480
H12 H 1.11900 0.51870 -0.25100
H13 H 0.90710 0.61230 -0.24530
C14 C 1.0636(9) 0.7444(2) -0.09510(12)
O6 O 0.9849(7) 0.83352(16) -0.08485(8)
O7 O 1.2490(7) 0.72551(16) -0.12992(8)
C15 C 1.3600(12) 0.8154(3) -0.15555(15)
H14 H 1.20260 0.85810 -0.16670
H15 H 1.47870 0.85690 -0.13450
C16 C 1.5265(15) 0.7796(4) -0.19529(16)
H16 H 1.62630 0.83710 -0.20940
H17 H 1.40180 0.74880 -0.21860
H18 H 1.66290 0.72890 -0.18450
#END
