
#######################################################################
#
#                 Cambridge Crystallographic Data Centre
#                                CCDC
#
#######################################################################
#
# If this CIF has been generated from an entry in the Cambridge
# Structural Database, then it will include bibliographic, chemical,
# crystal, experimental, refinement or atomic coordinate data resulting
# from the CCDC's data processing and validation procedures.
#
#######################################################################

data_CSD_CIF_MIWFED01
_audit_creation_date 2009-09-27
_audit_creation_method CSD-ConQuest-V1
_database_code_CSD MIWFED01
_database_code_depnum_ccdc_archive 'CCDC 699220'
_chemical_formula_sum 'C17 H18 N2 O4'
_chemical_formula_moiety
;
C17 H18 N2 O4
;
_journal_coeditor_code "IUCr EB5001"
_journal_coden_Cambridge 622
_journal_volume 65
_journal_year 2009
_journal_page_first 375
_journal_name_full 'Acta Crystallogr.,Sect.B:Struct.Sci. '
loop_
_publ_author_name
"R.S.Rathore"
"B.P.Reddy"
"V.Vijayakumar"
"R.V.Ragavan"
"T.Narasimhamurthy"
_chemical_name_systematic
;
3,5-Diacetyl-2,6-dimethyl -1,4 dihydro-4-(3-nitrophenyl)-3,5-pyridine
;
_chemical_melting_point 453
_cell_volume   1543.389
_exptl_crystal_colour 'pale yellow'
_exptl_crystal_density_diffrn 1.353
_exptl_crystal_description 'needle'
_exptl_crystal_preparation 'acetone/ether'
_diffrn_ambient_temperature 294
#These two values have been output from a single CSD field.
_refine_ls_R_factor_gt 0.0646
_refine_ls_wR_factor_gt 0.0646
_symmetry_cell_setting monoclinic
_symmetry_space_group_name_H-M 'P 21/n'
_symmetry_Int_Tables_number 14
loop_
_symmetry_equiv_pos_site_id
_symmetry_equiv_pos_as_xyz
1 x,y,z
2 1/2-x,1/2+y,1/2-z
3 -x,-y,-z
4 -1/2+x,-1/2-y,-1/2+z
_cell_length_a 8.8420(7)
_cell_length_b 16.0785(14)
_cell_length_c 11.2188(10)
_cell_angle_alpha 90
_cell_angle_beta 104.606(2)
_cell_angle_gamma 90
_cell_formula_units_Z 4
loop_
_atom_type_symbol
_atom_type_radius_bond
C 0.68
H 0.23
N 0.68
O 0.68
loop_
_atom_site_label
_atom_site_type_symbol
_atom_site_fract_x
_atom_site_fract_y
_atom_site_fract_z
O1 O 0.4112(2) 0.12566(11) 0.16606(15)
O2 O 0.5779(2) 0.36297(11) -0.00143(16)
O3 O 0.6369(3) 0.12095(16) -0.22215(19)
O4 O 0.8667(3) 0.06884(16) -0.1976(2)
N1 N 0.7526(2) 0.31151(13) 0.42101(17)
H1 H 0.81690 0.32200 0.49080
N2 N 0.7685(4) 0.10566(16) -0.1587(2)
C1 C 0.6619(3) 0.24154(15) 0.4126(2)
C2 C 0.5843(3) 0.21367(14) 0.2991(2)
C3 C 0.6194(3) 0.25303(14) 0.1858(2)
H2 H 0.52120 0.25460 0.12140
C4 C 0.6768(3) 0.34194(14) 0.2089(2)
C5 C 0.7481(3) 0.36661(15) 0.3249(2)
C6 C 0.6660(3) 0.20488(17) 0.5371(2)
H3 H 0.56220 0.20390 0.54890
H4 H 0.73210 0.23820 0.60030
H5 H 0.70630 0.14920 0.54150
C7 C 0.8227(3) 0.44876(17) 0.3697(2)
H6 H 0.90470 0.46030 0.32990
H7 H 0.86560 0.44640 0.45720
H8 H 0.74550 0.49200 0.35050
C8 C 0.4705(3) 0.14626(15) 0.2741(2)
C9 C 0.4149(3) 0.10003(18) 0.3718(2)
H9 H 0.34810 0.05500 0.33470
H10 H 0.35770 0.13730 0.41120
H11 H 0.50330 0.07830 0.43190
C10 C 0.6493(3) 0.39327(15) 0.0967(2)
C11 C 0.7071(4) 0.48069(17) 0.0954(3)
H12 H 0.68620 0.50020 0.01200
H13 H 0.81760 0.48220 0.13200
H14 H 0.65450 0.51570 0.14150
C12 C 0.7352(3) 0.20074(14) 0.1369(2)
C13 C 0.7014(3) 0.17810(15) 0.0138(2)
H15 H 0.60730 0.19380 -0.03980
C14 C 0.8090(3) 0.13189(15) -0.0284(2)
C15 C 0.9500(3) 0.10816(16) 0.0470(3)
H16 H 1.02140 0.07770 0.01650
C16 C 0.9828(3) 0.13075(17) 0.1692(3)
H17 H 1.07740 0.11520 0.22230
C17 C 0.8766(3) 0.17614(16) 0.2135(2)
H18 H 0.90030 0.19050 0.29650
#END
