
#######################################################################
#
#                 Cambridge Crystallographic Data Centre
#                                CCDC
#
#######################################################################
#
# If this CIF has been generated from an entry in the Cambridge
# Structural Database, then it will include bibliographic, chemical,
# crystal, experimental, refinement or atomic coordinate data resulting
# from the CCDC's data processing and validation procedures.
#
#######################################################################

data_CSD_CIF_MIWFIH
_audit_creation_date 2002-07-11
_audit_creation_method CSD-ConQuest-V1
_database_code_CSD MIWFIH
_database_code_depnum_ccdc_archive 'CCDC 1212435'
_chemical_formula_sum 'C27 H21 N2 O4'
_chemical_formula_moiety
;
C27 H21 N2 O4
;
_journal_coden_Cambridge 1234
_journal_volume 348
_journal_year 2000
_journal_page_first 301
_journal_name_full 'Mol.Cryst.Liq.Cryst.Sci.Technol.,Sect.A '
loop_
_publ_author_name
"H.C.Devarajegowda"
"J.S.Prasad"
"M.A.Sridhar"
"H.C.Gevaria"
"A.Shah"
_chemical_name_systematic
;
3,5-Dibenzoyl-2,6-dimethyl-4-(3'-nitrophenyl)-1,4-dihydropyridine
;
_chemical_melting_point 478.15
_cell_volume   2235.405
_exptl_crystal_colour 'yellow'
_exptl_crystal_density_diffrn 1.303
_exptl_crystal_description 'rectangular'
_exptl_crystal_preparation 'methanol'
_diffrn_ambient_temperature 293
_refine_special_details
;
Oxygen atom O2 is disordered over two sites.

;
#These two values have been output from a single CSD field.
_refine_ls_R_factor_gt 0.0768
_refine_ls_wR_factor_gt 0.0768
_symmetry_cell_setting monoclinic
_symmetry_space_group_name_H-M 'P 21/c'
_symmetry_Int_Tables_number 14
loop_
_symmetry_equiv_pos_site_id
_symmetry_equiv_pos_as_xyz
1 x,y,z
2 -x,1/2+y,1/2-z
3 -x,-y,-z
4 x,-1/2-y,-1/2+z
_cell_length_a 7.3113(7)
_cell_length_b 23.3925(7)
_cell_length_c 13.0737(7)
_cell_angle_alpha 90
_cell_angle_beta 91.31(7)
_cell_angle_gamma 90
_cell_formula_units_Z 4
loop_
_atom_type_symbol
_atom_type_radius_bond
C 0.68
N 0.68
O 0.68
loop_
_atom_site_label
_atom_site_type_symbol
_atom_site_fract_x
_atom_site_fract_y
_atom_site_fract_z
O1 O 0.0928(3) 0.57267(9) 0.26667(17)
O2 O -0.125(3) 0.4162(8) 0.4700(15)
O3 O 0.2203(4) 0.38245(15) -0.0497(2)
O4 O 0.3272(4) 0.39824(18) 0.1002(3)
N1 N -0.5277(3) 0.53532(10) 0.31599(18)
N2 N 0.2049(4) 0.40078(13) 0.0360(2)
C1 C -0.3943(3) 0.57480(11) 0.29503(19)
C2 C -0.2161(3) 0.55801(10) 0.29739(18)
C3 C -0.1724(3) 0.49472(11) 0.30009(19)
C4 C -0.3187(4) 0.46178(10) 0.35581(19)
C5 C -0.4918(4) 0.48213(11) 0.35879(19)
C6 C -0.6527(4) 0.45519(13) 0.4099(2)
C7 C -0.4707(4) 0.63215(12) 0.2661(2)
C8 C -0.0572(3) 0.59470(11) 0.28686(19)
C9 C -0.0560(4) 0.65796(12) 0.3038(2)
C10 C 0.0344(5) 0.69220(14) 0.2331(3)
C11 C 0.0557(6) 0.74975(17) 0.2501(4)
C12 C -0.0069(6) 0.77406(17) 0.3381(5)
C13 C -0.0947(6) 0.74010(17) 0.4093(4)
C14 C -0.1206(4) 0.68248(14) 0.3916(3)
C15 C -0.2525(4) 0.41005(13) 0.4107(3)
C16 C -0.3566(4) 0.35563(12) 0.4094(2)
C17 C -0.4677(2) 0.33964(15) 0.3270(3)
C18 C -0.5532(6) 0.28677(19) 0.3270(4)
C19 C -0.5299(7) 0.25058(17) 0.4096(4)
C20 C -0.4211(6) 0.26579(15) 0.4902(4)
C21 C -0.3313(5) 0.31783(14) 0.4900(3)
C22 C -0.2948(5) 0.47112(15) 0.1221(2)
C23 C -0.2763(5) 0.44990(18) 0.0241(3)
C24 C -0.1103(5) 0.42739(14) -0.0059(2)
C25 C 0.0307(4) 0.42617(11) 0.0656(2)
C26 C 0.0161(4) 0.44775(12) 0.1635(2)
C27 C -0.1496(4) 0.47087(10) 0.1929(2)
O5? O -0.087(2) 0.4084(8) 0.441(2)
#END
