
#######################################################################
#
#                 Cambridge Crystallographic Data Centre
#                                CCDC
#
#######################################################################
#
# If this CIF has been generated from an entry in the Cambridge
# Structural Database, then it will include bibliographic, chemical,
# crystal, experimental, refinement or atomic coordinate data resulting
# from the CCDC's data processing and validation procedures.
#
#######################################################################

data_CSD_CIF_MIWFED
_audit_creation_date 2002-07-11
_audit_creation_method CSD-ConQuest-V1
_database_code_CSD MIWFED
_database_code_depnum_ccdc_archive 'CCDC 1212434'
_chemical_formula_sum 'C17 H17 N2 O4'
_chemical_formula_moiety
;
C17 H17 N2 O4
;
_journal_coden_Cambridge 1234
_journal_volume 348
_journal_year 2000
_journal_page_first 301
_journal_name_full 'Mol.Cryst.Liq.Cryst.Sci.Technol.,Sect.A '
loop_
_publ_author_name
"H.C.Devarajegowda"
"J.S.Prasad"
"M.A.Sridhar"
"H.C.Gevaria"
"A.Shah"
_chemical_name_systematic
;
3,5-Diacetyl-2,6-dimethyl-4-(3'-nitrophenyl)-1,4-dihydropyridine
;
_chemical_melting_point 487.15
_cell_volume   1528.356
_exptl_crystal_colour 'pale yellow-green'
_exptl_crystal_density_diffrn 1.366
_exptl_crystal_description 'rectangular'
_exptl_crystal_preparation 'methanol'
_diffrn_ambient_temperature 293
#These two values have been output from a single CSD field.
_refine_ls_R_factor_gt 0.0956
_refine_ls_wR_factor_gt 0.0956
_symmetry_cell_setting monoclinic
_symmetry_space_group_name_H-M 'P 21/n'
_symmetry_Int_Tables_number 14
loop_
_symmetry_equiv_pos_site_id
_symmetry_equiv_pos_as_xyz
1 x,y,z
2 1/2-x,1/2+y,1/2-z
3 -x,-y,-z
4 -1/2+x,-1/2-y,-1/2+z
_cell_length_a 7.537(3)
_cell_length_b 16.273(3)
_cell_length_c 12.474(4)
_cell_angle_alpha 90
_cell_angle_beta 92.60(3)
_cell_angle_gamma 90
_cell_formula_units_Z 4
loop_
_atom_type_symbol
_atom_type_radius_bond
C 0.68
N 0.68
O 0.68
loop_
_atom_site_label
_atom_site_type_symbol
_atom_site_fract_x
_atom_site_fract_y
_atom_site_fract_z
O1 O 0.2061(4) 0.63539(9) 0.0675(2)
O2 O 0.2626(3) 0.6452(2) -0.0995(2)
O3 O -0.4973(3) 0.68773(18) -0.4581(2)
O4 O 0.0076(3) 0.41050(15) -0.30190(19)
N1 N -0.6059(4) 0.45770(19) -0.3141(2)
N2 N 0.1625(4) 0.62977(18) -0.0279(2)
C1 C -0.4700(4) 0.40170(19) -0.2969(2)
C2 C -0.2997(4) 0.42795(19) -0.3028(2)
C3 C -0.2640(4) 0.51995(18) -0.3069(2)
C4 C -0.4165(4) 0.56478(19) -0.3658(2)
C5 C -0.5818(4) 0.5339(2) -0.3610(2)
C6 C -0.7503(4) 0.5727(3) -0.4044(3)
C7 C -0.5367(5) 0.3175(2) -0.2726(3)
C8 C -0.1396(4) 0.3766(2) -0.3031(2)
C9 C -0.1453(5) 0.2857(2) -0.3116(3)
C10 C -0.3805(4) 0.6409(2) -0.4250(2)
C11 C -0.1911(5) 0.6567(2) -0.4477(3)
C12 C -0.2252(4) 0.55431(18) -0.1938(2)
C13 C -0.0541(14) 0.5772(2) -0.1620(2)
C14 C -0.0203(4) 0.6052(2) -0.0588(2)
C15 C -0.1488(5) 0.6112(2) 0.0162(2)
C16 C -0.3196(5) 0.5899(3) -0.0168(3)
C17 C -0.3567(5) 0.5621(2) -0.1204(3)
#END
