
#######################################################################
#
#                 Cambridge Crystallographic Data Centre
#                                CCDC
#
#######################################################################
#
# If this CIF has been generated from an entry in the Cambridge
# Structural Database, then it will include bibliographic, chemical,
# crystal, experimental, refinement or atomic coordinate data resulting
# from the CCDC's data processing and validation procedures.
#
#######################################################################

data_CSD_CIF_MIXBUS
_audit_creation_date 2014-03-13
_audit_creation_method CSD-ConQuest-V1
_database_code_CSD MIXBUS
_database_code_depnum_ccdc_archive 'CCDC 957610'
_chemical_formula_sum 'C24 H15 N3 O2'
_chemical_formula_moiety
;
C24 H15 N3 O2
;
_journal_coden_Cambridge 177
_journal_volume 12
_journal_year 2014
_journal_page_first 2596
_journal_name_full 'Org.Biomol.Chem. '
loop_
_publ_author_name
"Tran Quang Hung"
"Ngo Ngoc Thang"
"Do Huy Hoang"
"Tuan Thanh Dang"
"A.Villinger"
"P.Langer"
_chemical_name_systematic
;
6-Nitro-9H-3,9'-bicarbazole
;
_cell_volume   1797.282
_exptl_crystal_colour 'red'
_exptl_crystal_density_diffrn 1.395
_exptl_crystal_description 'needle'
_diffrn_ambient_temperature 173
#These two values have been output from a single CSD field.
_refine_ls_R_factor_gt 0.0547
_refine_ls_wR_factor_gt 0.0547
_symmetry_cell_setting monoclinic
_symmetry_space_group_name_H-M 'P 21/c'
_symmetry_Int_Tables_number 14
loop_
_symmetry_equiv_pos_site_id
_symmetry_equiv_pos_as_xyz
1 x,y,z
2 -x,1/2+y,1/2-z
3 -x,-y,-z
4 x,-1/2-y,-1/2+z
_cell_length_a 12.7311(10)
_cell_length_b 15.7373(13)
_cell_length_c 9.2462(7)
_cell_angle_alpha 90
_cell_angle_beta 104.025(2)
_cell_angle_gamma 90
_cell_formula_units_Z 4
loop_
_atom_type_symbol
_atom_type_radius_bond
C 0.68
H 0.23
N 0.68
O 0.68
loop_
_atom_site_label
_atom_site_type_symbol
_atom_site_fract_x
_atom_site_fract_y
_atom_site_fract_z
N1 N 0.42093(12) 0.12357(9) 0.98506(14)
N2 N 0.12467(12) 0.25102(10) 0.48908(15)
N3 N 0.02230(13) -0.06887(10) 0.24846(17)
O1 O 0.06816(12) -0.12971(9) 0.32096(16)
O2 O -0.04290(12) -0.07768(9) 0.12558(15)
C1 C 0.39219(14) 0.05883(11) 1.07253(18)
C2 C 0.29645(15) 0.01216(11) 1.05038(19)
H1 H 0.23830 0.02130 0.96560
C3 C 0.28961(17) -0.04804(12) 1.1569(2)
H2 H 0.22520 -0.08060 1.14450
C4 C 0.37445(19) -0.06239(13) 1.2818(2)
H3 H 0.36750 -0.10480 1.35210
C5 C 0.46797(18) -0.01544(13) 1.30371(19)
H4 H 0.52570 -0.02510 1.38890
C6 C 0.47736(15) 0.04663(11) 1.19944(18)
C7 C 0.56129(15) 0.10658(11) 1.19017(18)
C8 C 0.66306(16) 0.12469(12) 1.2821(2)
H5 H 0.68780 0.09600 1.37450
C9 C 0.72707(16) 0.18455(13) 1.2372(2)
H6 H 0.79620 0.19750 1.29950
C10 C 0.69173(16) 0.22652(12) 1.1009(2)
H7 H 0.73830 0.26650 1.07090
C11 C 0.59040(15) 0.21124(11) 1.0083(2)
H8 H 0.56660 0.24020 0.91600
C12 C 0.52485(14) 0.15197(11) 1.05565(18)
C13 C 0.35040(14) 0.15982(11) 0.85637(18)
C14 C 0.29157(14) 0.10690(11) 0.74645(18)
H9 H 0.30190 0.04710 0.75260
C15 C 0.21691(14) 0.14293(10) 0.62662(18)
C16 C 0.14322(14) 0.10797(11) 0.49633(17)
C17 C 0.12064(14) 0.02589(11) 0.44237(19)
H10 H 0.15530 -0.02190 0.49620
C18 C 0.04578(15) 0.01644(11) 0.30737(18)
C19 C -0.00791(15) 0.08505(12) 0.22489(19)
H11 H -0.05880 0.07530 0.13270
C20 C 0.01320(14) 0.16664(11) 0.27773(18)
H12 H -0.02240 0.21390 0.22320
C21 C 0.08838(14) 0.17769(11) 0.41369(18)
C22 C 0.20408(14) 0.23179(11) 0.61742(18)
C23 C 0.26584(14) 0.28546(11) 0.72487(18)
H13 H 0.25860 0.34540 0.71610
C24 C 0.33795(15) 0.24879(11) 0.84454(18)
H14 H 0.37990 0.28410 0.92020
H15 H 0.1046(17) 0.3029(14) 0.455(2)
#END
