
#######################################################################
#
#                 Cambridge Crystallographic Data Centre
#                                CCDC
#
#######################################################################
#
# If this CIF has been generated from an entry in the Cambridge
# Structural Database, then it will include bibliographic, chemical,
# crystal, experimental, refinement or atomic coordinate data resulting
# from the CCDC's data processing and validation procedures.
#
#######################################################################

data_CSD_CIF_MIXFUW
_audit_creation_date 2014-03-13
_audit_creation_method CSD-ConQuest-V1
_database_code_CSD MIXFUW
_database_code_depnum_ccdc_archive 'CCDC 961146'
_chemical_formula_sum 'C12 H21 N2 O4'
_chemical_formula_moiety
;
C12 H21 N2 O4
;
_journal_coden_Cambridge 7
_journal_volume 87
_journal_year 2014
_journal_page_first 314
_journal_name_full 'Bull.Chem.Soc.Jpn. '
loop_
_publ_author_name
"Ryu Tanimoto"
"Shuichi Suzuki"
"M.Kozaki"
"D.Shiomi"
"K.Sato"
"T.Takui"
"K.Okada"
_chemical_name_systematic
;
2-(2,2-Dimethyl-1,3-dioxolan-4-yl)-4,4,5,5-tetramethyl-4,5-dihydro-1H-imidazol
-1-ol 3-oxide
;
_cell_volume   1341.159
_exptl_crystal_colour 'red purple'
_exptl_crystal_density_diffrn 1.274
_exptl_special_details
;
mounted on the CryoLoop with Palaton oil and placed in N2 stream at 150(2) K

;
_exptl_crystal_description 'Platelet'
_diffrn_ambient_temperature 150
#These two values have been output from a single CSD field.
_refine_ls_R_factor_gt 0.0537
_refine_ls_wR_factor_gt 0.0537
_symmetry_cell_setting orthorhombic
_symmetry_space_group_name_H-M 'P 21 21 21'
_symmetry_Int_Tables_number 19
loop_
_symmetry_equiv_pos_site_id
_symmetry_equiv_pos_as_xyz
1 x,y,z
2 1/2-x,-y,1/2+z
3 1/2+x,1/2-y,-z
4 -x,1/2+y,1/2-z
_cell_length_a 17.534(3)
_cell_length_b 7.0902(13)
_cell_length_c 10.788(2)
_cell_angle_alpha 90
_cell_angle_beta 90
_cell_angle_gamma 90
_cell_formula_units_Z 4
loop_
_atom_type_symbol
_atom_type_radius_bond
C 0.68
H 0.23
N 0.68
O 0.68
loop_
_atom_site_label
_atom_site_type_symbol
_atom_site_fract_x
_atom_site_fract_y
_atom_site_fract_z
C1 C 0.36512(10) 0.1301(3) 0.59462(18)
N1 N 0.31734(9) 0.2731(2) 0.56883(15)
O1 O 0.31747(8) 0.37276(19) 0.47004(13)
C2 C 0.26996(11) 0.3246(3) 0.68008(19)
C3 C 0.27515(11) 0.1397(3) 0.75755(18)
N2 N 0.34762(9) 0.0563(2) 0.70588(15)
O2 O 0.38151(8) -0.08136(19) 0.75927(13)
C4 C 0.19026(14) 0.3784(4) 0.6388(3)
H1 H 0.1657(16) 0.280(4) 0.588(3)
H2 H 0.1932(15) 0.486(4) 0.590(3)
H3 H 0.1595(18) 0.397(4) 0.711(3)
C5 C 0.30965(15) 0.4920(3) 0.7401(2)
H4 H 0.2826(14) 0.530(3) 0.810(2)
H5 H 0.3622(17) 0.455(4) 0.763(3)
H6 H 0.3135(15) 0.583(4) 0.678(3)
C6 C 0.21182(12) -0.0030(3) 0.7322(2)
H7 H 0.2064(13) -0.032(3) 0.646(2)
H8 H 0.1643(13) 0.049(3) 0.767(2)
H9 H 0.2241(14) -0.122(4) 0.776(2)
C7 C 0.28341(13) 0.1674(3) 0.8961(2)
H10 H 0.2901(15) 0.037(4) 0.936(2)
H11 H 0.3279(13) 0.240(3) 0.918(2)
H12 H 0.2378(15) 0.234(3) 0.929(3)
C8 C 0.42815(11) 0.0722(3) 0.51028(19)
H13 H 0.4288(13) 0.159(3) 0.444(2)
O3 O 0.41605(7) -0.11469(19) 0.46504(14)
C9 C 0.48781(11) -0.2142(3) 0.4665(2)
O4 O 0.54393(8) -0.0767(2) 0.49659(15)
C10 C 0.50681(12) 0.0607(3) 0.5714(2)
H14 H 0.5330(15) 0.181(4) 0.565(2)
H15 H 0.5007(14) 0.020(3) 0.659(3)
C11 C 0.50479(17) -0.2852(4) 0.3370(3)
H16 H 0.552(2) -0.344(4) 0.340(3)
H17 H 0.4667(19) -0.376(5) 0.315(3)
H18 H 0.503(2) -0.169(5) 0.277(3)
C12 C 0.48362(14) -0.3680(4) 0.5619(3)
H19 H 0.4413(15) -0.458(3) 0.540(2)
H20 H 0.475(2) -0.311(5) 0.645(3)
H21 H 0.5302(18) -0.442(4) 0.564(3)
#END
