
#######################################################################
#
#                 Cambridge Crystallographic Data Centre
#                                CCDC
#
#######################################################################
#
# If this CIF has been generated from an entry in the Cambridge
# Structural Database, then it will include bibliographic, chemical,
# crystal, experimental, refinement or atomic coordinate data resulting
# from the CCDC's data processing and validation procedures.
#
#######################################################################

data_CSD_CIF_MIXFOQ
_audit_creation_date 2014-03-13
_audit_creation_method CSD-ConQuest-V1
_database_code_CSD MIXFOQ
_database_code_depnum_ccdc_archive 'CCDC 960845'
_chemical_formula_sum 'C29 H37 N1 O7'
_chemical_formula_moiety
;
C29 H37 N1 O7
;
_journal_coden_Cambridge 1500
_journal_volume 4
_journal_year 2014
_journal_page_first 13533
_journal_name_full 'RSC Advances '
loop_
_publ_author_name
"Zhuyun Liu"
"W.-K.Law"
"Decai Wang"
"Xin Nie"
"Dekuan Sheng"
"Genrui Song"
"Kai Guo"
"Ping Wei"
"Pingkai Ouyang"
"Chi-Wai Wong"
"Guo-Chun Zhou"
_chemical_name_systematic
;
4-(4-Nitrophenoxy)-3-(2-(3,3,6a,10b-tetramethyl-8-methylenedecahydro-1H-naphth
o[2,1-d][1,3]dioxin-7-yl)ethylidene)dihydrofuran-2(3H)-one
;
_cell_volume   1353.604
_exptl_crystal_density_diffrn 1.255
_diffrn_ambient_temperature 293
#These two values have been output from a single CSD field.
_refine_ls_R_factor_gt 0.0686
_refine_ls_wR_factor_gt 0.0686
_symmetry_cell_setting monoclinic
_symmetry_space_group_name_H-M 'P 21'
_symmetry_Int_Tables_number 4
loop_
_symmetry_equiv_pos_site_id
_symmetry_equiv_pos_as_xyz
1 x,y,z
2 -x,1/2+y,-z
_cell_length_a 10.115(2)
_cell_length_b 8.7910(18)
_cell_length_c 15.671(3)
_cell_angle_alpha 90
_cell_angle_beta 103.74(3)
_cell_angle_gamma 90
_cell_formula_units_Z 2
loop_
_atom_type_symbol
_atom_type_radius_bond
C 0.68
H 0.23
N 0.68
O 0.68
loop_
_atom_site_label
_atom_site_type_symbol
_atom_site_fract_x
_atom_site_fract_y
_atom_site_fract_z
N1 N 0.3463(7) 0.4038(8) 0.6748(5)
O1 O 0.0295(5) 0.6278(6) 0.0959(3)
C1 C 0.1794(7) 0.4182(8) 0.1458(4)
O2 O 0.1774(4) 0.6511(5) 0.2318(3)
C2 C 0.1354(8) 0.5435(10) 0.0746(5)
H1 H 0.21180 0.60960 0.07350
H2 H 0.10440 0.49740 0.01710
O3 O 1.0170(5) 0.1245(7) 0.4936(4)
C3 C 0.0722(7) 0.7187(9) 0.1684(5)
O4 O 1.0519(5) 0.0981(7) 0.3601(3)
C4 C 0.1627(7) 0.4901(8) 0.2342(5)
H3 H 0.07170 0.46590 0.24210
O5 O 0.6892(4) 0.2259(6) 0.4613(3)
C5 C 0.2649(5) 0.4307(9) 0.3094(4)
H4 H 0.24990 0.32240 0.31420
H5 H 0.25120 0.47840 0.36240
O6 O 0.2251(6) 0.3837(9) 0.6462(4)
C6 C 0.4127(5) 0.4558(8) 0.3050(4)
H6 H 0.46900 0.38300 0.34380
H7 H 0.44010 0.55650 0.32770
C7 C 0.4445(5) 0.4410(8) 0.2101(4)
O7 O 0.3921(7) 0.4659(7) 0.7444(4)
C8 C 0.3173(6) 0.3587(9) 0.1518(4)
H8 H 0.31660 0.26010 0.18090
C9 C 0.5739(6) 0.3483(8) 0.2152(4)
H9 H 0.55850 0.24860 0.23920
C10 C 0.5945(9) 0.3195(14) 0.1216(6)
C11 C 0.4793(8) 0.2290(12) 0.0704(6)
H10 H 0.47380 0.13310 0.10000
H11 H 0.49440 0.20690 0.01280
C12 C 0.3460(7) 0.3152(13) 0.0602(5)
H12 H 0.27180 0.25300 0.02760
H13 H 0.34930 0.40730 0.02660
C13 C -0.0519(8) 0.7508(13) 0.2063(5)
H14 H -0.08800 0.65640 0.22170
H15 H -0.12040 0.80250 0.16310
H16 H -0.02490 0.81330 0.25770
C14 C 0.1354(10) 0.8708(10) 0.1449(6)
H17 H 0.21400 0.84880 0.12270
H18 H 0.16170 0.93280 0.19660
H19 H 0.06940 0.92420 0.10100
C15 C 0.0706(8) 0.2851(9) 0.1257(6)
H20 H 0.09580 0.20680 0.16920
H21 H 0.06760 0.24350 0.06860
H22 H -0.01740 0.32440 0.12700
C16 C 0.4636(6) 0.6013(8) 0.1766(4)
H23 H 0.48150 0.59480 0.11920
H24 H 0.53890 0.64990 0.21610
H25 H 0.38240 0.65970 0.17350
C17 C 0.6996(8) 0.3823(17) 0.0943(5)
H26 H 0.70530 0.37070 0.03620
H27 H 0.76610 0.43700 0.13350
C18 C 0.6967(6) 0.4162(10) 0.2779(5)
H28 H 0.66850 0.45270 0.32920
H29 H 0.72610 0.50390 0.24960
C19 C 0.8186(6) 0.3116(8) 0.3087(4)
H30 H 0.86320 0.28190 0.26600
C20 C 0.8680(5) 0.2589(8) 0.3867(4)
C21 C 0.8234(5) 0.2901(8) 0.4692(3)
H31 H 0.82000 0.40020 0.47810
C22 C 0.9318(6) 0.2223(11) 0.5406(4)
H32 H 0.89220 0.16070 0.57940
H33 H 0.98710 0.30140 0.57480
C23 C 0.9852(6) 0.1538(11) 0.4086(5)
C24 C 0.6133(6) 0.2673(8) 0.5181(4)
C25 C 0.4762(6) 0.2288(8) 0.4945(4)
H34 H 0.44290 0.17300 0.44350
C26 C 0.3876(7) 0.2729(8) 0.5463(4)
H35 H 0.29640 0.24490 0.53100
C27 C 0.4384(6) 0.3589(8) 0.6206(4)
C28 C 0.5713(6) 0.3943(8) 0.6437(4)
H36 H 0.60410 0.44650 0.69610
C29 C 0.6623(6) 0.3563(8) 0.5926(4)
H37 H 0.75230 0.38910 0.60760
#END
