
#######################################################################
#
#                 Cambridge Crystallographic Data Centre
#                                CCDC
#
#######################################################################
#
# If this CIF has been generated from an entry in the Cambridge
# Structural Database, then it will include bibliographic, chemical,
# crystal, experimental, refinement or atomic coordinate data resulting
# from the CCDC's data processing and validation procedures.
#
#######################################################################

data_CSD_CIF_MIXMOX
_audit_creation_date 2014-03-13
_audit_creation_method CSD-ConQuest-V1
_database_code_CSD MIXMOX
_database_code_depnum_ccdc_archive 'CCDC 982533'
_chemical_formula_sum 'C10 H18 N2 O4'
_chemical_formula_moiety
;
C10 H18 N2 O4
;
_journal_coden_Cambridge 1291
_journal_year 2014
_journal_page_first 3067
_journal_name_full 'Eur.J.Org.Chem. '
loop_
_publ_author_name
"L.Senica"
"U.Groselj"
"M.Kasunic"
"D.Kocar"
"B.Stanovnik"
"J.Svete"
_chemical_name_systematic
;
t-butyl (1-(5-hydroxy-4,5-dihydro-1,2-oxazol-5-yl)ethyl)carbamate
;
_cell_volume    612.144
_exptl_crystal_colour 'colorless'
_exptl_crystal_density_diffrn 1.249
_exptl_crystal_description 'prism'
_diffrn_ambient_temperature 150
#These two values have been output from a single CSD field.
_refine_ls_R_factor_gt 0.0396
_refine_ls_wR_factor_gt 0.0396
_symmetry_cell_setting monoclinic
_symmetry_space_group_name_H-M 'P 21'
_symmetry_Int_Tables_number 4
loop_
_symmetry_equiv_pos_site_id
_symmetry_equiv_pos_as_xyz
1 x,y,z
2 -x,1/2+y,-z
_cell_length_a 5.5284(2)
_cell_length_b 5.7733(2)
_cell_length_c 19.1886(9)
_cell_angle_alpha 90
_cell_angle_beta 91.795(4)
_cell_angle_gamma 90
_cell_formula_units_Z 2
loop_
_atom_type_symbol
_atom_type_radius_bond
C 0.68
H 0.23
N 0.68
O 0.68
loop_
_atom_site_label
_atom_site_type_symbol
_atom_site_fract_x
_atom_site_fract_y
_atom_site_fract_z
O1 O 0.9218(3) 0.6768(3) 0.42858(6)
O2 O 1.2091(2) 0.9517(3) 0.39891(7)
O3 O 0.6044(3) 0.9941(3) 0.22751(7)
O4 O 0.9043(2) 1.1808(3) 0.17052(7)
N1 N 0.7870(3) 0.7617(4) 0.48525(8)
N2 N 1.0041(3) 0.9495(4) 0.25790(8)
C1 C 0.7123(3) 0.9635(4) 0.47018(9)
H1 H 0.61950 1.05370 0.50090
C2 C 0.7822(3) 1.0480(4) 0.40014(9)
H2 H 0.84800 1.20740 0.40230
H3 H 0.64450 1.04210 0.36590
C3 C 0.9762(3) 0.8716(4) 0.38345(9)
C4 C 0.9713(3) 0.7684(4) 0.30979(9)
H4 H 0.80890 0.69620 0.30080
C5 C 1.1623(4) 0.5818(4) 0.30200(11)
H5 H 1.32360 0.65050 0.30840
H6 H 1.14640 0.51320 0.25540
H7 H 1.14020 0.46130 0.33720
C6 C 0.8172(4) 1.0370(4) 0.21938(9)
C7 C 0.7400(4) 1.2887(4) 0.11825(9)
C8 C 0.9141(4) 1.4297(5) 0.07543(12)
H8 H 1.03780 1.32710 0.05690
H9 H 0.99200 1.54800 0.10510
H10 H 0.82470 1.50480 0.03670
C9 C 0.6194(5) 1.1022(5) 0.07338(11)
H11 H 0.50580 1.01440 0.10130
H12 H 0.74310 0.99720 0.05600
H13 H 0.53170 1.17450 0.03390
C10 C 0.5597(5) 1.4448(5) 0.15218(13)
H14 H 0.64420 1.54520 0.18620
H15 H 0.44020 1.35040 0.17590
H16 H 0.47750 1.54030 0.11650
H17 H 1.200(5) 1.036(7) 0.4357(15)
H18 H 1.152(5) 0.981(6) 0.2479(13)
#END
