
#######################################################################
#
#                 Cambridge Crystallographic Data Centre
#                                CCDC
#
#######################################################################
#
# If this CIF has been generated from an entry in the Cambridge
# Structural Database, then it will include bibliographic, chemical,
# crystal, experimental, refinement or atomic coordinate data resulting
# from the CCDC's data processing and validation procedures.
#
#######################################################################

data_CSD_CIF_MIXTCA
_audit_creation_date 1979-08-06
_audit_creation_method CSD-ConQuest-V1
_database_code_CSD MIXTCA
_database_code_depnum_ccdc_archive 'CCDC 1212534'
_chemical_formula_sum 'C8 H13 N5 O6'
_chemical_formula_moiety
;
C8 H13 N5 O6
;
_journal_coden_Cambridge 95
_journal_year 1978
_journal_page_first 850
_journal_name_full 'Izv.Akad.Nauk SSSR,Ser.Khim.(Russ.)(Russ.Chem.Bull.) '
loop_
_publ_author_name
"V.F.Rudchenko"
"O.A.D'yachenko"
"I.I.Chervin"
"A.B.Zolotoi"
"L.O.Atovmyan"
"R.G.Kostyanovskii"
_chemical_name_systematic
;
2-Methoxy-isoxazolidine-3,3,5,5-tetracarboxamide
;
_cell_volume   1215.460
_exptl_crystal_colour 'colorless'
_exptl_crystal_density_diffrn 1.48
_exptl_special_details
;
O1 z should be 0.1626, C8 z should be 0.2687

;
_diffrn_ambient_temperature ?
_diffrn_special_details
;
The study was carried out at room temperature,in the range 283-303K

;
#These two values have been output from a single CSD field.
_refine_ls_R_factor_gt 0.052
_refine_ls_wR_factor_gt 0.052
_symmetry_cell_setting monoclinic
_symmetry_space_group_name_H-M 'P 1 1 21/b'
_symmetry_Int_Tables_number 14
loop_
_symmetry_equiv_pos_site_id
_symmetry_equiv_pos_as_xyz
1 x,y,z
2 -x,1/2-y,1/2+z
3 -x,-y,-z
4 x,-1/2+y,-1/2-z
_cell_length_a 14.986(3)
_cell_length_b 17.656(3)
_cell_length_c 5.279(1)
_cell_angle_alpha 90
_cell_angle_beta 90
_cell_angle_gamma 119.52(3)
_cell_formula_units_Z 4
loop_
_atom_type_symbol
_atom_type_radius_bond
C 0.68
H 0.23
N 0.68
O 0.68
loop_
_atom_site_label
_atom_site_type_symbol
_atom_site_fract_x
_atom_site_fract_y
_atom_site_fract_z
O1 O 0.23630 -0.02260 0.16260
O2 O 0.14390 0.04570 0.05320
O3 O 0.47740 0.12670 -0.17530
O4 O 0.31230 0.19210 -0.40930
O5 O 0.10530 -0.15530 -0.36080
O6 O 0.34150 -0.10540 -0.29670
N1 N 0.24180 0.06030 0.14100
N2 N 0.44370 0.14610 0.22910
N3 N 0.30430 0.23080 -0.00750
N4 N 0.08250 -0.17470 0.06090
N5 N 0.35410 -0.09390 0.12710
C1 C 0.26800 0.02080 -0.26950
C2 C 0.30770 0.09650 -0.08420
C3 C 0.23810 -0.05510 -0.08840
C4 C 0.41940 0.12490 -0.00860
C5 C 0.30590 0.17770 -0.18390
C6 C 0.13310 -0.13430 -0.14420
C7 C 0.31810 -0.08750 -0.09230
C8 C 0.08520 0.04370 0.26870
H1 H 0.31990 0.02590 -0.38360
H2 H 0.20570 0.01490 -0.36640
H3 H 0.50560 0.16440 0.26990
H4 H 0.40840 0.14980 0.34190
H5 H 0.31090 0.28320 -0.04350
H6 H 0.29870 0.22000 0.14880
H7 H 0.02550 -0.22490 0.04750
H8 H 0.10000 -0.15860 0.20830
H9 H 0.33820 -0.08120 0.27120
H10 H 0.39520 -0.11480 0.13190
H11 H 0.03310 0.04530 0.20820
H12 H 0.12120 0.09110 0.38820
H13 H 0.06110 -0.01950 0.35360
#END
