
#######################################################################
#
#                 Cambridge Crystallographic Data Centre
#                                CCDC
#
#######################################################################
#
# If this CIF has been generated from an entry in the Cambridge
# Structural Database, then it will include bibliographic, chemical,
# crystal, experimental, refinement or atomic coordinate data resulting
# from the CCDC's data processing and validation procedures.
#
#######################################################################

data_CSD_CIF_MIZJEM01
_audit_creation_date 2018-02-06
_audit_creation_method CSD-ConQuest-V1
_database_code_CSD MIZJEM01
_database_code_depnum_ccdc_archive 'CCDC 1500208'
_chemical_formula_sum 'C8 H9 N1 O4'
_chemical_formula_moiety
;
C8 H9 N1 O4
;
_journal_coden_Cambridge 127
_journal_volume 74
_journal_year 2016
_journal_page_first 935
_journal_name_full 'Huaxue Xuebao(Chin.)(Acta Chim.Sinica) '
loop_
_publ_author_name
"Xin Bin"
"Weijian Luo"
"Wang Zhang Yuan"
"Yongming ZHang"
_chemical_name_systematic
;
1-(methacryloyloxy)pyrrolidine-2,5-dione
;
_cell_volume    903.402
_exptl_crystal_colour 'colorless'
_exptl_crystal_density_diffrn 1.347
_exptl_special_details
;
, Luminescent

;
_exptl_crystal_description 'block'
_diffrn_ambient_temperature 299
#These two values have been output from a single CSD field.
_refine_ls_R_factor_gt 0.0377
_refine_ls_wR_factor_gt 0.0377
_symmetry_cell_setting monoclinic
_symmetry_space_group_name_H-M 'P 21/c'
_symmetry_Int_Tables_number 14
loop_
_symmetry_equiv_pos_site_id
_symmetry_equiv_pos_as_xyz
1 x,y,z
2 -x,1/2+y,1/2-z
3 -x,-y,-z
4 x,-1/2-y,-1/2+z
_cell_length_a 9.7245(7)
_cell_length_b 11.0062(8)
_cell_length_c 8.6096(6)
_cell_angle_alpha 90
_cell_angle_beta 101.369(3)
_cell_angle_gamma 90
_cell_formula_units_Z 4
loop_
_atom_type_symbol
_atom_type_radius_bond
C 0.68
H 0.23
N 0.68
O 0.68
loop_
_atom_site_label
_atom_site_type_symbol
_atom_site_fract_x
_atom_site_fract_y
_atom_site_fract_z
O1 O 0.48840(13) 0.68672(11) 0.81401(16)
N1 N 0.27999(12) 0.74637(9) 0.66346(12)
C1 C 0.41840(16) 0.76252(13) 0.73505(15)
O2 O 0.09550(12) 0.84082(11) 0.50312(15)
C2 C 0.45505(15) 0.88879(13) 0.69213(18)
H1 H 0.52940 0.88690 0.63180
H2 H 0.48600 0.93710 0.78680
C3 C 0.32190(17) 0.94147(13) 0.59310(17)
H3 H 0.29110 1.01150 0.64550
H4 H 0.33780 0.96650 0.49010
O3 O 0.21133(11) 0.63801(8) 0.67872(11)
O4 O 0.29439(13) 0.57822(10) 0.46636(13)
C4 C 0.21398(15) 0.84230(13) 0.57572(15)
C5 C 0.23156(14) 0.55346(11) 0.56647(14)
C6 C 0.16644(14) 0.43548(11) 0.58962(16)
C7 C 0.09349(16) 0.42002(14) 0.70190(18)
H5 H 0.08220 0.48420 0.76850
H6 H 0.05330 0.34490 0.71450
C8 C 0.1896(2) 0.33965(16) 0.4750(2)
H7 H 0.14600 0.36380 0.36970
H8 H 0.14930 0.26450 0.50100
H9 H 0.28840 0.32900 0.48070
#END
