
#######################################################################
#
#                 Cambridge Crystallographic Data Centre
#                                CCDC
#
#######################################################################
#
# If this CIF has been generated from an entry in the Cambridge
# Structural Database, then it will include bibliographic, chemical,
# crystal, experimental, refinement or atomic coordinate data resulting
# from the CCDC's data processing and validation procedures.
#
#######################################################################

data_CSD_CIF_MIZJIP
_audit_creation_date 2008-10-10
_audit_creation_method CSD-ConQuest-V1
_database_code_CSD MIZJIP
_database_code_depnum_ccdc_archive 'CCDC 689472'
_chemical_formula_sum 'C26 H28 N2 O7'
_chemical_formula_moiety
;
C26 H28 N2 O7
;
_journal_coden_Cambridge 542
_journal_volume 41
_journal_year 2006
_journal_page_first 92
_journal_name_full 'Cryst.Res.Technol. '
loop_
_publ_author_name
"M.Mahendra"
"B.H.Doreswamy"
"M.A.Sridhar"
"J.S.Prasad"
"A.R.Parecha"
"J.A.Patel"
"D.Manvar"
"K.Dholaria"
"A.Shah"
_chemical_name_systematic
;
N-(4-Methoxyphenyl)-3,5-bis(ethoxycarbonyl)-2,6-dimethyl-4-(3-nitrophenyl)-1,4
-dihydropyridine
;
_chemical_melting_point 418.15
_cell_volume   2439.251
_exptl_crystal_density_diffrn 1.306
_exptl_crystal_preparation 'ethyl acetate'
_diffrn_ambient_temperature 293
#These two values have been output from a single CSD field.
_refine_ls_R_factor_gt 0.0889
_refine_ls_wR_factor_gt 0.0889
_symmetry_cell_setting monoclinic
_symmetry_space_group_name_H-M 'P 21/c'
_symmetry_Int_Tables_number 14
loop_
_symmetry_equiv_pos_site_id
_symmetry_equiv_pos_as_xyz
1 x,y,z
2 -x,1/2+y,1/2-z
3 -x,-y,-z
4 x,-1/2-y,-1/2+z
_cell_length_a 11.2290(6)
_cell_length_b 12.7460(7)
_cell_length_c 17.6060(6)
_cell_angle_alpha 90
_cell_angle_beta 104.531(3)
_cell_angle_gamma 90
_cell_formula_units_Z 4
loop_
_atom_type_symbol
_atom_type_radius_bond
C 0.68
N 0.68
O 0.68
loop_
_atom_site_label
_atom_site_type_symbol
_atom_site_fract_x
_atom_site_fract_y
_atom_site_fract_z
C1 C 0.06797(18) 0.82126(16) 0.45999(12)
O1 O 0.13835(16) 0.90250(13) 0.69306(9)
C2 C 0.17476(18) 0.93759(16) 0.57080(12)
C3 C 0.11979(18) 0.82981(16) 0.54801(12)
N1 N 0.18499(16) 0.96910(14) 0.43913(10)
C4 C 0.2140(2) 0.74379(16) 0.57828(12)
O2 O -0.05185(15) 0.68903(13) 0.4929(1)
C5 C 0.10635(18) 0.88547(16) 0.40975(12)
C6 C 0.20778(18) 1.00049(16) 0.51781(12)
C7 C 0.25447(19) 1.02059(17) 0.39037(12)
C8 C 0.3179(2) 0.73584(18) 0.54989(14)
C9 C 0.3944(2) 1.12144(18) 0.30380(12)
C10 C -0.0222(2) 0.73690(19) 0.43226(13)
C11 C 0.4430(2) 1.03669(19) 0.35150(15)
O3 O 0.47133(16) 1.16467(15) 0.26336(11)
C12 C 0.1969(2) 0.96743(18) 0.65431(13)
C13 C 0.3728(2) 0.98705(18) 0.39449(14)
C14 C 0.2761(2) 1.15500(19) 0.29911(14)
C15 C 0.2070(2) 1.10383(19) 0.34272(14)
O4 O -0.0670(2) 0.70965(17) 0.36568(11)
O5 O 0.2610(2) 1.03782(16) 0.68740(11)
C16 C 0.2648(2) 1.10741(18) 0.53523(15)
C17 C 0.0681(2) 0.8767(2) 0.32200(13)
C18 C 0.1982(3) 0.67160(19) 0.63431(14)
C19 C 0.1630(3) 0.9172(2) 0.77758(14)
C20 C 0.4020(2) 0.6574(2) 0.57791(17)
C21 C -0.1434(3) 0.6069(2) 0.47488(19)
C22 C 0.4247(3) 1.2490(2) 0.21139(18)
C23 C 0.2838(3) 0.5936(2) 0.66155(17)
C24 C 0.3869(3) 0.5856(2) 0.63390(18)
N2 N 0.5113(3) 0.6506(3) 0.5465(2)
O6 O 0.5225(2) 0.7116(3) 0.4958(2)
C25 C -0.1427(3) 0.5510(3) 0.5481(2)
O7 O 0.5868(3) 0.5855(4) 0.5739(3)
C26 C 0.2768(3) 0.8626(3) 0.81916(17)
#END
