
#######################################################################
#
#                 Cambridge Crystallographic Data Centre
#                                CCDC
#
#######################################################################
#
# If this CIF has been generated from an entry in the Cambridge
# Structural Database, then it will include bibliographic, chemical,
# crystal, experimental, refinement or atomic coordinate data resulting
# from the CCDC's data processing and validation procedures.
#
#######################################################################

data_CSD_CIF_MNFURP
_audit_creation_date 1978-02-24
_audit_creation_method CSD-ConQuest-V1
_database_code_CSD MNFURP
_chemical_formula_sum 'C14 H11 N1 O4'
_chemical_formula_moiety
;
C14 H11 N1 O4
;
_journal_coden_Cambridge 189
_journal_volume 6
_journal_year 1977
_journal_page_first 741
_journal_name_full 'Cryst.Struct.Commun. '
loop_
_publ_author_name
"A.Carpy"
"J.M.Leger"
"M.Montagut"
"A.Nuhrich"
_chemical_name_systematic
;
1-(4-Methylphenyl)-3-(5-nitro-2-furanyl)-2-propen-1-one
;
_cell_volume   1226.043
_diffrn_ambient_temperature ?
_diffrn_special_details
;
The study was carried out at room temperature,in the range 283-303K

;
#These two values have been output from a single CSD field.
_refine_ls_R_factor_gt 0.051
_refine_ls_wR_factor_gt 0.051
_symmetry_cell_setting monoclinic
_symmetry_space_group_name_H-M 'P 21/c'
_symmetry_Int_Tables_number 14
loop_
_symmetry_equiv_pos_site_id
_symmetry_equiv_pos_as_xyz
1 x,y,z
2 -x,1/2+y,1/2-z
3 -x,-y,-z
4 x,-1/2-y,-1/2+z
_cell_length_a 5.785(2)
_cell_length_b 27.991(3)
_cell_length_c 7.596(2)
_cell_angle_alpha 90
_cell_angle_beta 94.60(1)
_cell_angle_gamma 90
_cell_formula_units_Z 4
loop_
_atom_type_symbol
_atom_type_radius_bond
C 0.68
H 0.23
N 0.68
O 0.68
loop_
_atom_site_label
_atom_site_type_symbol
_atom_site_fract_x
_atom_site_fract_y
_atom_site_fract_z
C1 C -0.17270 0.14270 0.30550
C2 C -0.08390 0.18720 0.35120
C3 C -0.20420 0.22850 0.30310
C4 C -0.41910 0.22620 0.20910
C5 C -0.50480 0.18170 0.15980
C6 C -0.38450 0.14050 0.20640
C7 C -0.05420 0.09750 0.36190
O8 O -0.14280 0.05890 0.32370
C9 C 0.16930 0.09910 0.47290
C10 C 0.25040 0.05980 0.55420
C11 C 0.45720 0.05490 0.67000
C12 C 0.54260 0.01710 0.76130
C13 C 0.75020 0.03170 0.85340
C14 C 0.77340 0.07780 0.81370
O15 O 0.59940 0.09400 0.70080
N16 N 0.95230 0.11070 0.86750
O17 O 0.93740 0.15180 0.81320
O18 O 1.11470 0.09470 0.96480
C19 C -0.55730 0.27170 0.16530
H20 H 0.06400 0.19000 0.42200
H30 H -0.14100 0.26100 0.33600
H50 H -0.65300 0.18000 0.08600
H60 H -0.44600 0.10900 0.16800
H90 H 0.25700 0.12900 0.48900
H100 H 0.15700 0.03000 0.53900
H120 H 0.48900 -0.01600 0.73200
H130 H 0.84500 0.01400 0.94000
#END
