
#######################################################################
#
#                 Cambridge Crystallographic Data Centre
#                                CCDC
#
#######################################################################
#
# If this CIF has been generated from an entry in the Cambridge
# Structural Database, then it will include bibliographic, chemical,
# crystal, experimental, refinement or atomic coordinate data resulting
# from the CCDC's data processing and validation procedures.
#
#######################################################################

data_CSD_CIF_MNIANL04
_audit_creation_date 2001-11-07
_audit_creation_method CSD-ConQuest-V1
_database_code_CSD MNIANL04
_database_code_depnum_ccdc_archive 'CCDC 169363'
_chemical_formula_sum 'C6 H6 N2 O2'
_chemical_formula_moiety
;
C6 H6 N2 O2
;
_journal_coeditor_code "IUCr NS0004"
_journal_coden_Cambridge 622
_journal_volume 57
_journal_year 2001
_journal_page_first 346
_journal_name_full 'Acta Crystallogr.,Sect.B:Struct.Sci. '
loop_
_publ_author_name
"G.Wojcik"
"J.Holband"
_chemical_name_systematic
;
3-Nitrophenylamine
;
_chemical_name_common
;
m-Nitroaniline
;
_cell_volume    624.467
_exptl_crystal_colour 'yellow'
_exptl_crystal_density_diffrn 1.469
_exptl_crystal_description 'plate'
_exptl_crystal_preparation 'acetone/cyclohexane'
_diffrn_ambient_temperature 200
#These two values have been output from a single CSD field.
_refine_ls_R_factor_gt 0.0397
_refine_ls_wR_factor_gt 0.0397
_symmetry_cell_setting orthorhombic
_symmetry_space_group_name_H-M 'P c a 21'
_symmetry_Int_Tables_number 29
loop_
_symmetry_equiv_pos_site_id
_symmetry_equiv_pos_as_xyz
1 x,y,z
2 -x,-y,1/2+z
3 1/2+x,-y,z
4 1/2-x,y,1/2+z
_cell_length_a 19.076(2)
_cell_length_b 6.5173(8)
_cell_length_c 5.0229(6)
_cell_angle_alpha 90
_cell_angle_beta 90
_cell_angle_gamma 90
_cell_formula_units_Z 4
loop_
_atom_type_symbol
_atom_type_radius_bond
C 0.68
H 0.23
N 0.68
O 0.68
loop_
_atom_site_label
_atom_site_type_symbol
_atom_site_fract_x
_atom_site_fract_y
_atom_site_fract_z
N1 N 0.35838(8) 0.9236(2) 0.9234(4)
N2 N 0.30438(8) 0.2903(2) 0.4596(4)
H1 H 0.26600 0.27760 0.55510
H2 H 0.31480 0.19760 0.33850
O1 O 0.39895(10) 1.0681(2) 0.9559(5)
O2 O 0.30504(9) 0.9012(2) 1.0541(4)
C1 C 0.37602(9) 0.7713(3) 0.7180(4)
C2 C 0.33204(9) 0.6035(3) 0.6922(4)
H3 H 0.29180 0.58870 0.80210
C3 C 0.34858(9) 0.4564(2) 0.4999(4)
C4 C 0.4084(1) 0.4844(3) 0.3437(4)
H4 H 0.42020 0.38520 0.21250
C5 C 0.45069(10) 0.6548(3) 0.3778(5)
H5 H 0.49100 0.67130 0.26850
C6 C 0.43542(9) 0.8017(3) 0.5683(5)
H6 H 0.46460 0.91810 0.59420
#END
