
#######################################################################
#
#                 Cambridge Crystallographic Data Centre
#                                CCDC
#
#######################################################################
#
# If this CIF has been generated from an entry in the Cambridge
# Structural Database, then it will include bibliographic, chemical,
# crystal, experimental, refinement or atomic coordinate data resulting
# from the CCDC's data processing and validation procedures.
#
#######################################################################

data_CSD_CIF_MNIANL03
_audit_creation_date 2001-08-27
_audit_creation_method CSD-ConQuest-V1
_database_code_CSD MNIANL03
_database_code_depnum_ccdc_archive 'CCDC 166507'
_chemical_formula_sum 'C6 H6 N2 O2'
_chemical_formula_moiety
;
C6 H6 N2 O2
;
_journal_coeditor_code "IUCr NS0004"
_journal_coden_Cambridge 622
_journal_volume 57
_journal_year 2001
_journal_page_first 346
_journal_name_full 'Acta Crystallogr.,Sect.B:Struct.Sci. '
loop_
_publ_author_name
"G.Wojcik"
"J.Holband"
_chemical_name_systematic
;
3-Nitro-phenylamine
;
_chemical_name_common
;
meta-Nitroaniline
;
_cell_volume    615.127
_exptl_crystal_colour 'yellow'
_exptl_crystal_density_diffrn 1.492
_exptl_crystal_description 'plate'
_exptl_crystal_preparation 'acetone/cyclohexane'
_diffrn_ambient_temperature 110
#These two values have been output from a single CSD field.
_refine_ls_R_factor_gt 0.0397
_refine_ls_wR_factor_gt 0.0397
_symmetry_cell_setting orthorhombic
_symmetry_space_group_name_H-M 'P c a 21'
_symmetry_Int_Tables_number 29
loop_
_symmetry_equiv_pos_site_id
_symmetry_equiv_pos_as_xyz
1 x,y,z
2 -x,-y,1/2+z
3 1/2+x,-y,z
4 1/2-x,y,1/2+z
_cell_length_a 18.873(2)
_cell_length_b 6.5212(9)
_cell_length_c 4.9980(7)
_cell_angle_alpha 90
_cell_angle_beta 90
_cell_angle_gamma 90
_cell_formula_units_Z 4
loop_
_atom_type_symbol
_atom_type_radius_bond
C 0.68
H 0.23
N 0.68
O 0.68
loop_
_atom_site_label
_atom_site_type_symbol
_atom_site_fract_x
_atom_site_fract_y
_atom_site_fract_z
N1 N 0.14178(7) 0.57722(19) 0.2389(3)
O1 O 0.10120(7) 0.43100(18) 0.2081(3)
C1 C 0.12426(8) 0.7287(2) 0.4454(3)
O2 O 0.19549(6) 0.60121(19) 0.1048(3)
N2 N 0.19586(7) 1.21243(19) 0.7026(3)
H1 H 0.23440 1.22610 0.60520
H2 H 0.18540 1.30490 0.82460
C2 C 0.16823(8) 0.8982(2) 0.4699(3)
H3 H 0.20860 0.91400 0.35810
C3 C 0.09147(8) 1.0157(2) 0.8234(3)
H4 H 0.07960 1.11470 0.95550
C4 C 0.15155(8) 1.0450(2) 0.6637(3)
C5 C 0.06434(8) 0.6964(2) 0.5997(4)
H5 H 0.03520 0.57910 0.57550
C6 C 0.04893(8) 0.8435(2) 0.7910(4)
H6 H 0.00850 0.82630 0.90210
#END
