
#######################################################################
#
#                 Cambridge Crystallographic Data Centre
#                                CCDC
#
#######################################################################
#
# If this CIF has been generated from an entry in the Cambridge
# Structural Database, then it will include bibliographic, chemical,
# crystal, experimental, refinement or atomic coordinate data resulting
# from the CCDC's data processing and validation procedures.
#
#######################################################################

data_CSD_CIF_MNIANL02
_audit_creation_date 2001-05-07
_audit_creation_method CSD-ConQuest-V1
_database_code_CSD MNIANL02
_database_code_depnum_ccdc_archive 'CCDC 159319'
_chemical_formula_sum 'C6 H6 N2 O2'
_chemical_formula_moiety
;
C6 H6 N2 O2
;
_journal_coden_Cambridge 1096
_journal_volume 12
_journal_year 2000
_journal_page_first 3342
_journal_name_full 'Chem.Mater. '
loop_
_publ_author_name
"A.E.Goeta"
"C.C.Wilson"
"J.C.Autino"
"J.Ellena"
"G.Punte"
_chemical_name_systematic
;
m-Nitroaniline
;
_cell_volume    614.861
_exptl_crystal_colour 'orange'
_exptl_crystal_density_diffrn 1.491
_exptl_crystal_description 'prismatic needle'
_diffrn_ambient_temperature 100
_diffrn_radiation_probe 'neutron radiation'
#These two values have been output from a single CSD field.
_refine_ls_R_factor_gt 0.0529
_refine_ls_wR_factor_gt 0.0529
_symmetry_cell_setting orthorhombic
_symmetry_space_group_name_H-M 'P c a 21'
_symmetry_Int_Tables_number 29
loop_
_symmetry_equiv_pos_site_id
_symmetry_equiv_pos_as_xyz
1 x,y,z
2 -x,-y,1/2+z
3 1/2+x,-y,z
4 1/2-x,y,1/2+z
_cell_length_a 18.905(4)
_cell_length_b 6.484(1)
_cell_length_c 5.016(1)
_cell_angle_alpha 90
_cell_angle_beta 90
_cell_angle_gamma 90
_cell_formula_units_Z 4
loop_
_atom_type_symbol
_atom_type_radius_bond
C 0.68
H 0.23
N 0.68
O 0.68
loop_
_atom_site_label
_atom_site_type_symbol
_atom_site_fract_x
_atom_site_fract_y
_atom_site_fract_z
C1 C 0.15173(9) 1.0450(3) 0.1792(3)
C2 C 0.09158(10) 1.0156(3) 0.0205(4)
H1 H 0.0785(4) 1.1276(10) -0.1304(14)
C3 C 0.04867(11) 0.8448(4) 0.0531(4)
H2 H 0.0022(4) 0.8277(12) -0.0675(14)
C4 C 0.06434(10) 0.6960(3) 0.2440(4)
H3 H 0.0316(3) 0.5610(9) 0.2740(14)
C5 C 0.12421(9) 0.7283(3) 0.3985(3)
C6 C 0.16825(9) 0.8975(3) 0.3714(4)
H4 H 0.2146(3) 0.9134(9) 0.4962(13)
N1 N 0.19584(8) 1.2117(2) 0.1389(3)
H5 H 0.2281(3) 1.2447(9) 0.2917(13)
H6 H 0.1748(3) 1.3348(8) 0.0489(14)
N2 N 0.14159(8) 0.5766(2) 0.6024(3)
O1 O 0.10120(18) 0.4316(5) 0.6349(8)
O2 O 0.19518(16) 0.5999(5) 0.7348(7)
#END
