
#######################################################################
#
#                 Cambridge Crystallographic Data Centre
#                                CCDC
#
#######################################################################
#
# If this CIF has been generated from an entry in the Cambridge
# Structural Database, then it will include bibliographic, chemical,
# crystal, experimental, refinement or atomic coordinate data resulting
# from the CCDC's data processing and validation procedures.
#
#######################################################################

data_CSD_CIF_MNIANL01
_audit_creation_date 1987-09-22
_audit_creation_method CSD-ConQuest-V1
_database_code_CSD MNIANL01
_database_code_depnum_ccdc_archive 'CCDC 1212671'
_chemical_formula_sum 'C6 H6 N2 O2'
_chemical_formula_moiety
;
C6 H6 N2 O2
;
_journal_coeditor_code "IUCr A26267"
_journal_coden_Cambridge 591
_journal_volume 42
_journal_year 1986
_journal_page_first 1813
_journal_name_full 'Acta Crystallogr.,Sect.C:Cryst.Struct.Commun. '
loop_
_publ_author_name
"G.Ploug-Sorensen"
"E.K.Andersen"
_chemical_name_systematic
;
m-Nitro-aniline
;
_cell_volume    639.970
_exptl_crystal_colour 'yellow'
_exptl_crystal_density_diffrn 1.434
_diffrn_ambient_temperature ?
_diffrn_special_details
;
The study was carried out at room temperature,in the range 283-303K

;
#These two values have been output from a single CSD field.
_refine_ls_R_factor_gt 0.037
_refine_ls_wR_factor_gt 0.037
_symmetry_cell_setting orthorhombic
_symmetry_space_group_name_H-M 'P b c 21'
_symmetry_Int_Tables_number 29
loop_
_symmetry_equiv_pos_site_id
_symmetry_equiv_pos_as_xyz
1 x,y,z
2 -x,1/2+y,z
3 x,1/2-y,1/2+z
4 -x,-y,1/2+z
_cell_length_a 6.499(1)
_cell_length_b 19.369(4)
_cell_length_c 5.084(1)
_cell_angle_alpha 90
_cell_angle_beta 90
_cell_angle_gamma 90
_cell_formula_units_Z 4
loop_
_atom_type_symbol
_atom_type_radius_bond
C 0.68
H 0.23
N 0.68
O 0.68
loop_
_atom_site_label
_atom_site_type_symbol
_atom_site_fract_x
_atom_site_fract_y
_atom_site_fract_z
C1 C 0.5419(3) 0.1512(1) 0.5426(8)
C2 C 0.3953(3) 0.1674(1) 0.3533(8)
C3 C 0.2281(3) 0.1236(1) 0.3240(8)
C4 C 0.1986(4) 0.0648(1) 0.4702(8)
C5 C 0.3457(4) 0.0497(1) 0.6589(8)
C6 C 0.5151(4) 0.0919(1) 0.6945(7)
N1 N 0.7072(3) 0.1955(1) 0.5852(8)
N2 N 0.0756(3) 0.1411(1) 0.1220(7)
O1 O 0.0951(3) 0.1942(1) -0.00500
O2 O -0.0667(3) 0.1010(1) 0.0855(8)
H1 H 0.4054(6) 0.2123(2) 0.2486(10)
H2 H 0.0825(6) 0.0331(2) 0.4292(10)
H3 H 0.3262(6) 0.0074(2) 0.7748(10)
H4 H 0.6167(6) 0.0772(2) 0.8211(2)
H5 H 0.8137(7) 0.1810(2) 0.6646(11)
H6 H 0.7300(6) 0.2279(2) 0.4242(10)
#END
