
#######################################################################
#
#                 Cambridge Crystallographic Data Centre
#                                CCDC
#
#######################################################################
#
# If this CIF has been generated from an entry in the Cambridge
# Structural Database, then it will include bibliographic, chemical,
# crystal, experimental, refinement or atomic coordinate data resulting
# from the CCDC's data processing and validation procedures.
#
#######################################################################

data_CSD_CIF_MNIMET02
_audit_creation_date 2003-03-12
_audit_creation_method CSD-ConQuest-V1
_database_code_CSD MNIMET02
_database_code_depnum_ccdc_archive 'CCDC 173285'
_chemical_formula_sum 'C6 H9 N3 O3'
_chemical_formula_moiety
;
C6 H9 N3 O3
;
_journal_coden_Cambridge 525
_journal_volume 91
_journal_year 2002
_journal_page_first 339
_journal_name_full 'J.Inorg.Biochem. '
loop_
_publ_author_name
"N.Galvan-Tejada"
"S.Bernes"
"S.E.Castillo-Blum"
"H.Noth"
"R.Vicente"
"N.Barba-Behrens"
_chemical_name_systematic
;
1-(2-Hydroxyethyl)-2-methyl-5-nitro-imidazole
;
_chemical_name_common
;
Metronidazole; Anabact; Arilin; Clont; Deflamon; Efloran; Elyzol; Entizol; 
Flagyl; Fossyol; Klion; Klont; Nalox; Nidagel; Noritate; Novonidazol; 
Orvagil; Protostat; Rosadan; Takimetol; Trichazole; Trichex; Trichopol; 
Tricowas B; Trikacide; Trikozol; Vagilen; Vagimid; Vandazole; Vertisal; 
Zadstat; DrugBank: DB00916
;
_cell_volume    745.074
_exptl_crystal_colour 'colorless'
_exptl_crystal_density_diffrn 1.526
_exptl_special_details
;
antibiotic

;
_exptl_crystal_description 'prism'
_diffrn_ambient_temperature 193
#These two values have been output from a single CSD field.
_refine_ls_R_factor_gt 0.0333
_refine_ls_wR_factor_gt 0.0333
_symmetry_cell_setting monoclinic
_symmetry_space_group_name_H-M 'P 21/c'
_symmetry_Int_Tables_number 14
loop_
_symmetry_equiv_pos_site_id
_symmetry_equiv_pos_as_xyz
1 x,y,z
2 -x,1/2+y,1/2-z
3 -x,-y,-z
4 x,-1/2-y,-1/2+z
_cell_length_a 6.9446(4)
_cell_length_b 8.6853(7)
_cell_length_c 12.390(1)
_cell_angle_alpha 90
_cell_angle_beta 94.438(1)
_cell_angle_gamma 90
_cell_formula_units_Z 4
loop_
_atom_type_symbol
_atom_type_radius_bond
C 0.68
H 0.23
N 0.68
O 0.68
loop_
_atom_site_label
_atom_site_type_symbol
_atom_site_fract_x
_atom_site_fract_y
_atom_site_fract_z
N1 N 0.71179(15) 0.08531(13) -0.08740(8)
C1 C 0.78340(18) 0.21167(16) -0.03586(10)
C2 C 0.7878(3) 0.36765(19) -0.08201(14)
H1 H 0.654(3) 0.407(2) -0.1003(15)
H2 H 0.854(3) 0.370(2) -0.1420(16)
H3 H 0.838(3) 0.439(2) -0.0295(16)
N2 N 0.84575(16) 0.17788(15) 0.06264(8)
C3 C 0.81309(18) 0.02563(17) 0.07552(10)
H4 H 0.847(2) -0.028(2) 0.1381(14)
C4 C 0.73113(17) -0.03385(15) -0.01543(10)
C5 C 0.6296(2) 0.08267(18) -0.19693(10)
H5 H 0.516(3) 0.016(2) -0.1990(13)
H6 H 0.589(2) 0.189(2) -0.2138(13)
C6 C 0.7729(2) 0.02517(19) -0.27127(11)
H7 H 0.815(2) -0.081(2) -0.2529(14)
H8 H 0.702(2) 0.023(2) -0.3413(14)
O1 O 0.93885(14) 0.12016(13) -0.27033(8)
H9 H 0.918(3) 0.188(2) -0.3235(18)
N3 N 0.67737(16) -0.18877(14) -0.03544(9)
O2 O 0.69551(18) -0.27801(12) 0.03929(9)
O3 O 0.61569(18) -0.22834(13) -0.12338(9)
#END
