
#######################################################################
#
#                 Cambridge Crystallographic Data Centre
#                                CCDC
#
#######################################################################
#
# If this CIF has been generated from an entry in the Cambridge
# Structural Database, then it will include bibliographic, chemical,
# crystal, experimental, refinement or atomic coordinate data resulting
# from the CCDC's data processing and validation procedures.
#
#######################################################################

data_CSD_CIF_MNIMET04
_audit_creation_date 2014-06-25
_audit_creation_method CSD-ConQuest-V1
_database_code_CSD MNIMET04
_database_code_depnum_ccdc_archive 'CCDC 1010256'
_chemical_formula_sum 'C6 H9 N3 O3'
_chemical_formula_moiety
;
C6 H9 N3 O3
;
_journal_coden_Cambridge 1065
_journal_year 2008
_journal_page_first 606
_journal_name_full 'University of Southampton, Crystal Structure Report Archive '
loop_
_publ_author_name
"S.J.Coles"
"M.B.Hursthouse"
"M.R.Maurya"
"A.Azam"
_chemical_name_systematic
;
2-(2-methyl-5-nitro-1H-imidazol-1-yl)ethanol
;
_chemical_name_common
;
Metronidazole; DrugBank: DB00916
;
_cell_volume    763.564
_exptl_crystal_colour 'orange'
_exptl_crystal_density_diffrn 1.489
_exptl_crystal_description 'needle'
_diffrn_ambient_temperature 150
#These two values have been output from a single CSD field.
_refine_ls_R_factor_gt 0.0397
_refine_ls_wR_factor_gt 0.0397
_symmetry_cell_setting monoclinic
_symmetry_space_group_name_H-M 'P 21/c'
_symmetry_Int_Tables_number 14
loop_
_symmetry_equiv_pos_site_id
_symmetry_equiv_pos_as_xyz
1 x,y,z
2 -x,1/2+y,1/2-z
3 -x,-y,-z
4 x,-1/2-y,-1/2+z
_cell_length_a 6.9056(14)
_cell_length_b 8.6519(17)
_cell_length_c 12.818(3)
_cell_angle_alpha 90
_cell_angle_beta 94.41(3)
_cell_angle_gamma 90
_cell_formula_units_Z 4
loop_
_atom_type_symbol
_atom_type_radius_bond
C 0.68
H 0.23
N 0.68
O 0.68
loop_
_atom_site_label
_atom_site_type_symbol
_atom_site_fract_x
_atom_site_fract_y
_atom_site_fract_z
C1 C 0.21658(18) 0.21241(15) 0.5360(1)
C2 C 0.2125(2) 0.36874(17) 0.58200(12)
H1 H 0.15160 0.44080 0.53040
H2 H 0.34550 0.40260 0.60220
H3 H 0.13770 0.36660 0.64390
C3 C 0.37097(19) 0.08323(16) 0.69644(10)
H4 H 0.41320 0.18890 0.71730
H5 H 0.48710 0.01570 0.70170
C4 C 0.2276(2) 0.02534(17) 0.77128(10)
H6 H 0.18800 -0.08140 0.75180
H7 H 0.29160 0.02260 0.84310
C5 C 0.26849(17) -0.03314(15) 0.51533(9)
C6 C 0.18587(18) 0.02567(16) 0.42431(10)
H8 H 0.15570 -0.03120 0.36180
N1 N 0.15339(15) 0.17903(14) 0.43729(8)
N2 N 0.28819(14) 0.08587(12) 0.58735(8)
N3 N 0.32266(16) -0.18914(13) 0.53511(9)
O1 O 0.06065(13) 0.12002(12) 0.77009(7)
H9 H 0.07480 0.18530 0.81860
O2 O 0.30363(17) -0.27831(12) 0.46030(8)
O3 O 0.38488(16) -0.22843(12) 0.62318(8)
#END
