
#######################################################################
#
#                 Cambridge Crystallographic Data Centre
#                                CCDC
#
#######################################################################
#
# If this CIF has been generated from an entry in the Cambridge
# Structural Database, then it will include bibliographic, chemical,
# crystal, experimental, refinement or atomic coordinate data resulting
# from the CCDC's data processing and validation procedures.
#
#######################################################################

data_CSD_CIF_MNIPZN01
_audit_creation_date 2012-03-05
_audit_creation_method CSD-ConQuest-V1
_database_code_CSD MNIPZN01
_database_code_depnum_ccdc_archive 'CCDC 808758'
_chemical_formula_sum 'C17 H13 N3 O3'
_chemical_formula_moiety
;
C17 H13 N3 O3
;
_journal_coden_Cambridge 1024
_journal_volume 55
_journal_year 2011
_journal_page_first 30508
_journal_name_full 'J.Imaging Sci.Technol. '
loop_
_publ_author_name
"Y.Kamei"
"H.Shibata"
"J.Mizuguchi"
_chemical_name_systematic
;
1-(2-(4-Methyl-2-nitrophenyl)hydrazinylidene)naphthalen-2(1H)-one
;
_cell_volume   1433.671
_exptl_crystal_colour 'red'
_exptl_crystal_density_diffrn 1.424
_exptl_crystal_description 'block'
_diffrn_ambient_temperature 296
#These two values have been output from a single CSD field.
_refine_ls_R_factor_gt 0.044
_refine_ls_wR_factor_gt 0.044
_symmetry_cell_setting monoclinic
_symmetry_space_group_name_H-M 'P 21/n'
_symmetry_Int_Tables_number 14
loop_
_symmetry_equiv_pos_site_id
_symmetry_equiv_pos_as_xyz
1 x,y,z
2 1/2-x,1/2+y,1/2-z
3 -x,-y,-z
4 -1/2+x,-1/2-y,-1/2+z
_cell_length_a 6.97109(13)
_cell_length_b 12.8981(3)
_cell_length_c 16.3447(3)
_cell_angle_alpha 90
_cell_angle_beta 102.698(1)
_cell_angle_gamma 90
_cell_formula_units_Z 4
loop_
_atom_type_symbol
_atom_type_radius_bond
C 0.68
H 0.23
N 0.68
O 0.68
loop_
_atom_site_label
_atom_site_type_symbol
_atom_site_fract_x
_atom_site_fract_y
_atom_site_fract_z
O1 O 0.8084(2) 0.55089(10) 0.68643(7)
O2 O 0.9111(2) 0.76129(10) 0.63190(7)
O3 O 0.9058(3) 0.91502(10) 0.58270(9)
N1 N 0.75567(19) 0.50561(10) 0.51148(8)
N2 N 0.7988(2) 0.60317(10) 0.53327(8)
N3 N 0.8900(2) 0.82111(11) 0.57239(8)
C1 C 0.7727(3) 0.46052(14) 0.6598(1)
C2 C 0.7580(3) 0.37602(14) 0.71521(11)
H1 H 0.77250 0.38920 0.77220
C3 C 0.7240(3) 0.27880(14) 0.68711(11)
H2 H 0.71880 0.22640 0.72560
C4 C 0.6950(2) 0.25206(13) 0.59966(11)
C5 C 0.6601(3) 0.14964(14) 0.57224(12)
H3 H 0.65790 0.09740 0.61120
C6 C 0.6293(3) 0.12524(15) 0.48889(14)
H4 H 0.60800 0.05670 0.47150
C7 C 0.6299(3) 0.20281(15) 0.43066(12)
H5 H 0.60610 0.18640 0.37390
C8 C 0.6653(3) 0.30418(14) 0.45588(11)
H6 H 0.66580 0.35560 0.41600
C9 C 0.7005(2) 0.33045(12) 0.54051(10)
C10 C 0.7443(2) 0.43697(12) 0.56986(10)
C11 C 0.8049(2) 0.67522(12) 0.47077(9)
C12 C 0.8461(2) 0.78054(12) 0.48765(9)
C13 C 0.8481(2) 0.85108(13) 0.42356(10)
H7 H 0.87660 0.92030 0.43690
C14 C 0.8088(3) 0.82065(14) 0.34079(10)
C15 C 0.7674(3) 0.71621(14) 0.32421(10)
H8 H 0.73940 0.69370 0.26880
C16 C 0.7664(2) 0.64546(14) 0.38645(10)
H9 H 0.73970 0.57630 0.37240
C17 C 0.8138(3) 0.89712(17) 0.27197(12)
H10 H 0.81750 0.96630 0.29390
H11 H 0.69840 0.88880 0.22800
H12 H 0.92880 0.88520 0.25000
H13 H 0.826(3) 0.6205(17) 0.5925(14)
#END
