
#######################################################################
#
#                 Cambridge Crystallographic Data Centre
#                                CCDC
#
#######################################################################
#
# If this CIF has been generated from an entry in the Cambridge
# Structural Database, then it will include bibliographic, chemical,
# crystal, experimental, refinement or atomic coordinate data resulting
# from the CCDC's data processing and validation procedures.
#
#######################################################################

data_CSD_CIF_MNPHOL03
_audit_creation_date 1996-04-05
_audit_creation_method CSD-ConQuest-V1
_database_code_CSD MNPHOL03
_database_code_depnum_ccdc_archive 'CCDC 131874'
_chemical_formula_sum 'C6 H5 N1 O3'
_chemical_formula_moiety
;
C6 H5 N1 O3
;
_journal_coeditor_code "IUCr PA0307"
_journal_coden_Cambridge 622
_journal_volume 52
_journal_year 1996
_journal_page_first 159
_journal_name_full 'Acta Crystallogr.,Sect.B:Struct.Sci. '
loop_
_publ_author_name
"F.Hamzaoui"
"F.Baert"
"G.Wojcik"
_chemical_name_systematic
;
m-Nitrophenol
;
_cell_volume    599.084
_exptl_crystal_colour 'colorless'
_exptl_crystal_density_diffrn 1.54
_exptl_special_details
;
orthorhombic polymorph

;
_diffrn_ambient_temperature 122
#These two values have been output from a single CSD field.
_refine_ls_R_factor_gt 0.027
_refine_ls_wR_factor_gt 0.027
_symmetry_cell_setting orthorhombic
_symmetry_space_group_name_H-M 'P 21 21 21'
_symmetry_Int_Tables_number 19
loop_
_symmetry_equiv_pos_site_id
_symmetry_equiv_pos_as_xyz
1 x,y,z
2 1/2-x,-y,1/2+z
3 1/2+x,1/2-y,-z
4 -x,1/2+y,1/2-z
_cell_length_a 11.136(2)
_cell_length_b 6.649(1)
_cell_length_c 8.091(1)
_cell_angle_alpha 90
_cell_angle_beta 90
_cell_angle_gamma 90
_cell_formula_units_Z 4
loop_
_atom_type_symbol
_atom_type_radius_bond
C 0.68
H 0.23
N 0.68
O 0.68
loop_
_atom_site_label
_atom_site_type_symbol
_atom_site_fract_x
_atom_site_fract_y
_atom_site_fract_z
C1 C 0.6281(1) 0.1561(2) 0.8943(2)
C2 C 0.5623(1) 0.0756(2) 0.7647(1)
C3 C 0.6016(1) 0.1133(2) 0.6042(1)
C4 C 0.7040(1) 0.2314(2) 0.5777(2)
C5 C 0.7673(1) 0.3101(3) 0.7116(2)
C6 C 0.7303(1) 0.2727(2) 0.8729(2)
N1 N 0.5861(1) 0.1168(2) 1.0623(1)
O1 O 0.6434(1) 0.1885(2) 1.1783(1)
O2 O 0.4969(1) 0.0111(3) 1.0816(2)
O3 O 0.5371(1) 0.0334(2) 0.4787(1)
H1 H 0.48280 -0.01370 0.78980
H2 H 0.73440 0.26200 0.45300
H3 H 0.84650 0.40170 0.69050
H4 H 0.78130 0.33370 0.97560
H5 H 0.56730 0.08240 0.37490
#END
