
#######################################################################
#
#                 Cambridge Crystallographic Data Centre
#                                CCDC
#
#######################################################################
#
# If this CIF has been generated from an entry in the Cambridge
# Structural Database, then it will include bibliographic, chemical,
# crystal, experimental, refinement or atomic coordinate data resulting
# from the CCDC's data processing and validation procedures.
#
#######################################################################

data_CSD_CIF_MNPHOL19
_audit_creation_date 2006-04-11
_audit_creation_method CSD-ConQuest-V1
_database_code_CSD MNPHOL19
_database_code_depnum_ccdc_archive 'CCDC 296428'
_chemical_formula_sum 'C6 H5 N1 O3'
_chemical_formula_moiety
;
C6 H5 N1 O3
;
_journal_coden_Cambridge 1147
_journal_volume 6
_journal_year 2006
_journal_page_first 274
_journal_name_full 'Cryst.Growth Des. '
loop_
_publ_author_name
"G.Wojcik"
"J.Holband"
"J.J.Szymczak"
"S.Roszak"
"J.Leszczynski"
_chemical_name_systematic
;
m-Nitrophenol
;
_chemical_name_common
;
3-Nitrophenol
;
_chemical_melting_point 370
_cell_volume    623.483
_exptl_crystal_colour 'yellow'
_exptl_crystal_density_diffrn 1.482
_exptl_special_details
;
orthorhombic polymorph
phase transition at about 350 K

;
_exptl_crystal_description 'prism'
_exptl_crystal_preparation 'benzene'
_diffrn_ambient_temperature 340
#These two values have been output from a single CSD field.
_refine_ls_R_factor_gt 0.1358
_refine_ls_wR_factor_gt 0.1358
_symmetry_cell_setting orthorhombic
_symmetry_space_group_name_H-M 'P 21 21 21'
_symmetry_Int_Tables_number 19
loop_
_symmetry_equiv_pos_site_id
_symmetry_equiv_pos_as_xyz
1 x,y,z
2 1/2-x,-y,1/2+z
3 -x,1/2+y,1/2-z
4 1/2+x,1/2-y,-z
_cell_length_a 8.104(2)
_cell_length_b 6.800(3)
_cell_length_c 11.314(5)
_cell_angle_alpha 90
_cell_angle_beta 90
_cell_angle_gamma 90
_cell_formula_units_Z 4
loop_
_atom_type_symbol
_atom_type_radius_bond
C 0.68
H 0.23
N 0.68
O 0.68
loop_
_atom_site_label
_atom_site_type_symbol
_atom_site_fract_x
_atom_site_fract_y
_atom_site_fract_z
O1 O 0.9278(7) 0.0580(12) 0.8943(7)
O2 O 0.8333(7) 0.2272(12) 0.7500(6)
O3 O 0.2332(7) 0.2058(11) 0.7841(6)
H1 H 0.14410 0.17380 0.81250
N1 N 0.8094(7) 0.1291(11) 0.8389(7)
C1 C 0.6400(9) 0.0884(11) 0.8762(7)
C2 C 0.5177(10) 0.1613(11) 0.8147(7)
H2 H 0.53980 0.23600 0.74770
C3 C 0.3551(9) 0.1284(12) 0.8485(8)
C4 C 0.3292(10) 0.0198(13) 0.9529(7)
H3 H 0.22240 -0.00220 0.98010
C5 C 0.4587(9) -0.0520(14) 1.0133(8)
H4 H 0.43830 -0.12650 1.08060
C6 C 0.6214(9) -0.0205(12) 0.9801(7)
H5 H 0.71050 -0.06780 1.02340
#END
