
#######################################################################
#
#                 Cambridge Crystallographic Data Centre
#                                CCDC
#
#######################################################################
#
# If this CIF has been generated from an entry in the Cambridge
# Structural Database, then it will include bibliographic, chemical,
# crystal, experimental, refinement or atomic coordinate data resulting
# from the CCDC's data processing and validation procedures.
#
#######################################################################

data_CSD_CIF_MNPHOL15
_audit_creation_date 2006-04-11
_audit_creation_method CSD-ConQuest-V1
_database_code_CSD MNPHOL15
_database_code_depnum_ccdc_archive 'CCDC 296424'
_chemical_formula_sum 'C6 H5 N1 O3'
_chemical_formula_moiety
;
C6 H5 N1 O3
;
_journal_coden_Cambridge 1147
_journal_volume 6
_journal_year 2006
_journal_page_first 274
_journal_name_full 'Cryst.Growth Des. '
loop_
_publ_author_name
"G.Wojcik"
"J.Holband"
"J.J.Szymczak"
"S.Roszak"
"J.Leszczynski"
_chemical_name_systematic
;
m-Nitrophenol
;
_chemical_name_common
;
3-Nitrophenol
;
_chemical_melting_point 370
_cell_volume    614.533
_exptl_crystal_colour 'pale yellow'
_exptl_crystal_density_diffrn 1.504
_exptl_special_details
;
monoclinic polymorph
phase transition at about 350 K

;
_exptl_crystal_description 'thin plate'
_exptl_crystal_preparation 'methanol/hexane'
_diffrn_ambient_temperature 250
#These two values have been output from a single CSD field.
_refine_ls_R_factor_gt 0.0764
_refine_ls_wR_factor_gt 0.0764
_symmetry_cell_setting monoclinic
_symmetry_space_group_name_H-M 'P 21/n'
_symmetry_Int_Tables_number 14
loop_
_symmetry_equiv_pos_site_id
_symmetry_equiv_pos_as_xyz
1 x,y,z
2 1/2-x,1/2+y,1/2-z
3 -x,-y,-z
4 -1/2+x,-1/2-y,-1/2+z
_cell_length_a 8.1369(9)
_cell_length_b 6.8372(8)
_cell_length_c 11.156(1)
_cell_angle_alpha 90
_cell_angle_beta 98.05(1)
_cell_angle_gamma 90
_cell_formula_units_Z 4
loop_
_atom_type_symbol
_atom_type_radius_bond
C 0.68
H 0.23
N 0.68
O 0.68
loop_
_atom_site_label
_atom_site_type_symbol
_atom_site_fract_x
_atom_site_fract_y
_atom_site_fract_z
O1 O 1.20093(18) 0.1837(3) 0.39096(18)
O2 O 1.0747(2) 0.0217(3) 0.24095(17)
O3 O 0.48556(18) 0.0377(3) 0.28650(15)
H1 H 0.406(5) 0.072(5) 0.321(3)
N1 N 1.07370(19) 0.1176(3) 0.33226(17)
C1 C 0.9153(2) 0.1562(3) 0.37609(16)
C2 C 0.7738(2) 0.0793(3) 0.31030(16)
H2 H 0.77900 0.00540 0.23990
C3 C 0.6231(2) 0.1151(3) 0.35184(16)
C4 C 0.6186(2) 0.2260(3) 0.45570(17)
H3 H 0.51670 0.25020 0.48360
C5 C 0.7637(3) 0.3007(3) 0.51786(18)
H4 H 0.75920 0.37730 0.58730
C6 C 0.9159(2) 0.2648(3) 0.47969(17)
H5 H 1.01520 0.31270 0.52290
#END
