
#######################################################################
#
#                 Cambridge Crystallographic Data Centre
#                                CCDC
#
#######################################################################
#
# If this CIF has been generated from an entry in the Cambridge
# Structural Database, then it will include bibliographic, chemical,
# crystal, experimental, refinement or atomic coordinate data resulting
# from the CCDC's data processing and validation procedures.
#
#######################################################################

data_CSD_CIF_MNPHOL26
_audit_creation_date 2007-09-11
_audit_creation_method CSD-ConQuest-V1
_database_code_CSD MNPHOL26
_database_code_depnum_ccdc_archive 'CCDC 275138'
_chemical_formula_sum 'C6 H5 N1 O3'
_chemical_formula_moiety
;
C6 H5 N1 O3
;
_journal_coden_Cambridge 956
_journal_volume 8
_journal_year 2007
_journal_page_first 103
_journal_name_full 'Int.J.Mol.Sci. '
loop_
_publ_author_name
"F.Hamzaoui"
"M.Drissi"
"A.Chouaih"
"P.Lagant"
"G.Vergoten"
_chemical_name_systematic
;
m-Nitrophenol
;
_cell_volume    597.528
_exptl_crystal_colour 'colorless'
_exptl_crystal_density_diffrn 1.546
_exptl_special_details
;
monoclinic polymorph

;
_exptl_crystal_description 'prism'
_diffrn_ambient_temperature 122
#These two values have been output from a single CSD field.
_refine_ls_R_factor_gt 0.0466
_refine_ls_wR_factor_gt 0.0466
_symmetry_cell_setting monoclinic
_symmetry_space_group_name_H-M 'P 21/n'
_symmetry_Int_Tables_number 14
loop_
_symmetry_equiv_pos_site_id
_symmetry_equiv_pos_as_xyz
1 x,y,z
2 1/2-x,1/2+y,1/2-z
3 -x,-y,-z
4 -1/2+x,-1/2-y,-1/2+z
_cell_length_a 11.026(10)
_cell_length_b 6.736(10)
_cell_length_c 8.119(10)
_cell_angle_alpha 90
_cell_angle_beta 97.73(2)
_cell_angle_gamma 90
_cell_formula_units_Z 4
loop_
_atom_type_symbol
_atom_type_radius_bond
C 0.68
H 0.23
N 0.68
O 0.68
loop_
_atom_site_label
_atom_site_type_symbol
_atom_site_fract_x
_atom_site_fract_y
_atom_site_fract_z
C1 C 0.8765(1) 0.1529(2) 0.41531(4)
C2 C 0.8103(1) 0.0747(2) 0.27325(3)
C3 C 0.8526(1) 0.1119(3) 0.12227(2)
C4 C 0.9573(1) 0.2264(2) 0.11796(4)
C5 C 1.0203(1) 0.3026(3) 0.26371(5)
C6 C 0.9812(1) 0.2655(1) 0.41581(2)
N1 N 0.8321(2) 0.1138(3) 0.57384(2)
O1 O 0.8911(3) 0.1811(2) 0.70145(1)
O2 O 0.7400(2) 0.0141(2) 0.57420(1)
O3 O 0.7877(2) 0.03283(4) -0.01601(1)
H1 H 0.82090 0.06020 -0.09500
H2 H 0.73430 -0.00110 0.27190
H3 H 0.98360 0.24580 0.01230
H4 H 1.09310 0.38100 0.25770
H5 H 1.03010 0.31080 0.52120
#END
