
#######################################################################
#
#                 Cambridge Crystallographic Data Centre
#                                CCDC
#
#######################################################################
#
# If this CIF has been generated from an entry in the Cambridge
# Structural Database, then it will include bibliographic, chemical,
# crystal, experimental, refinement or atomic coordinate data resulting
# from the CCDC's data processing and validation procedures.
#
#######################################################################

data_CSD_CIF_MNPHOL13
_audit_creation_date 2006-04-11
_audit_creation_method CSD-ConQuest-V1
_database_code_CSD MNPHOL13
_database_code_depnum_ccdc_archive 'CCDC 296422'
_chemical_formula_sum 'C6 H5 N1 O3'
_chemical_formula_moiety
;
C6 H5 N1 O3
;
_journal_coden_Cambridge 1147
_journal_volume 6
_journal_year 2006
_journal_page_first 274
_journal_name_full 'Cryst.Growth Des. '
loop_
_publ_author_name
"G.Wojcik"
"J.Holband"
"J.J.Szymczak"
"S.Roszak"
"J.Leszczynski"
_chemical_name_systematic
;
m-Nitrophenol
;
_chemical_name_common
;
3-Nitrophenol
;
_chemical_melting_point 370
_cell_volume    604.581
_exptl_crystal_colour 'pale yellow'
_exptl_crystal_density_diffrn 1.528
_exptl_special_details
;
monoclinic polymorph
phase transition at about 350 K

;
_exptl_crystal_description 'thin plate'
_exptl_crystal_preparation 'methanol/hexane'
_diffrn_ambient_temperature 150
#These two values have been output from a single CSD field.
_refine_ls_R_factor_gt 0.0619
_refine_ls_wR_factor_gt 0.0619
_symmetry_cell_setting monoclinic
_symmetry_space_group_name_H-M 'P 21/n'
_symmetry_Int_Tables_number 14
loop_
_symmetry_equiv_pos_site_id
_symmetry_equiv_pos_as_xyz
1 x,y,z
2 1/2-x,1/2+y,1/2-z
3 -x,-y,-z
4 -1/2+x,-1/2-y,-1/2+z
_cell_length_a 8.1365(8)
_cell_length_b 6.7787(7)
_cell_length_c 11.069(1)
_cell_angle_alpha 90
_cell_angle_beta 97.991(8)
_cell_angle_gamma 90
_cell_formula_units_Z 4
loop_
_atom_type_symbol
_atom_type_radius_bond
C 0.68
H 0.23
N 0.68
O 0.68
loop_
_atom_site_label
_atom_site_type_symbol
_atom_site_fract_x
_atom_site_fract_y
_atom_site_fract_z
O1 O -0.20149(13) 0.1818(2) 0.10889(12)
O2 O -0.07434(16) 0.0158(2) 0.25995(12)
O3 O 0.51554(14) 0.0342(2) 0.21267(11)
H1 H 0.595(4) 0.072(4) 0.178(3)
N1 N -0.07376(15) 0.1144(2) 0.16779(12)
C1 C 0.08457(16) 0.1540(2) 0.12379(12)
C2 C 0.22680(17) 0.0758(2) 0.18972(12)
H2 H 0.22190 -0.00040 0.26120
C3 C 0.37760(17) 0.1130(2) 0.14743(13)
C4 C 0.38210(17) 0.2260(2) 0.04306(13)
H3 H 0.48500 0.25090 0.01460
C5 C 0.23618(19) 0.3026(2) -0.01960(13)
H4 H 0.24060 0.38160 -0.08990
C6 C 0.08388(18) 0.2652(2) 0.01915(13)
H5 H -0.01660 0.31420 -0.02450
#END
