
#######################################################################
#
#                 Cambridge Crystallographic Data Centre
#                                CCDC
#
#######################################################################
#
# If this CIF has been generated from an entry in the Cambridge
# Structural Database, then it will include bibliographic, chemical,
# crystal, experimental, refinement or atomic coordinate data resulting
# from the CCDC's data processing and validation procedures.
#
#######################################################################

data_CSD_CIF_MNPHOL17
_audit_creation_date 2006-04-11
_audit_creation_method CSD-ConQuest-V1
_database_code_CSD MNPHOL17
_database_code_depnum_ccdc_archive 'CCDC 296426'
_chemical_formula_sum 'C6 H5 N1 O3'
_chemical_formula_moiety
;
C6 H5 N1 O3
;
_journal_coden_Cambridge 1147
_journal_volume 6
_journal_year 2006
_journal_page_first 274
_journal_name_full 'Cryst.Growth Des. '
loop_
_publ_author_name
"G.Wojcik"
"J.Holband"
"J.J.Szymczak"
"S.Roszak"
"J.Leszczynski"
_chemical_name_systematic
;
m-Nitrophenol
;
_chemical_name_common
;
3-Nitrophenol
;
_chemical_melting_point 370
_cell_volume    599.861
_exptl_crystal_colour 'pale yellow'
_exptl_crystal_density_diffrn 1.54
_exptl_special_details
;
monoclinic polymorph
phase transition at about 350 K

;
_exptl_crystal_description 'thin plate'
_exptl_crystal_preparation 'methanol/hexane'
_diffrn_ambient_temperature 95
#These two values have been output from a single CSD field.
_refine_ls_R_factor_gt 0.0519
_refine_ls_wR_factor_gt 0.0519
_symmetry_cell_setting monoclinic
_symmetry_space_group_name_H-M 'P 21/n'
_symmetry_Int_Tables_number 14
loop_
_symmetry_equiv_pos_site_id
_symmetry_equiv_pos_as_xyz
1 x,y,z
2 1/2-x,1/2+y,1/2-z
3 -x,-y,-z
4 -1/2+x,-1/2-y,-1/2+z
_cell_length_a 8.1368(8)
_cell_length_b 6.7498(6)
_cell_length_c 11.0279(10)
_cell_angle_alpha 90
_cell_angle_beta 97.943(8)
_cell_angle_gamma 90
_cell_formula_units_Z 4
loop_
_atom_type_symbol
_atom_type_radius_bond
C 0.68
H 0.23
N 0.68
O 0.68
loop_
_atom_site_label
_atom_site_type_symbol
_atom_site_fract_x
_atom_site_fract_y
_atom_site_fract_z
O1 O 0.29823(11) 0.18131(16) 0.60868(10)
O2 O 0.42565(13) 0.01295(18) 0.76012(10)
O3 O 1.01609(12) 0.03224(17) 0.71250(9)
H1 H 1.098(3) 0.071(4) 0.679(2)
N1 N 0.42617(13) 0.11306(17) 0.66763(10)
C1 C 0.58460(14) 0.15312(18) 0.62363(11)
C2 C 0.72703(15) 0.07432(19) 0.68964(11)
H2 H 0.72210 -0.00230 0.76130
C3 C 0.87788(14) 0.11141(19) 0.64727(11)
C4 C 0.88250(15) 0.2263(2) 0.54246(11)
H3 H 0.98550 0.25200 0.51410
C5 C 0.73636(16) 0.3032(2) 0.47960(11)
H4 H 0.74070 0.38250 0.40900
C6 C 0.58392(15) 0.2656(2) 0.51863(11)
H5 H 0.48350 0.31510 0.47500
#END
