
#######################################################################
#
#                 Cambridge Crystallographic Data Centre
#                                CCDC
#
#######################################################################
#
# If this CIF has been generated from an entry in the Cambridge
# Structural Database, then it will include bibliographic, chemical,
# crystal, experimental, refinement or atomic coordinate data resulting
# from the CCDC's data processing and validation procedures.
#
#######################################################################

data_CSD_CIF_MNPHOL24
_audit_creation_date 2006-04-11
_audit_creation_method CSD-ConQuest-V1
_database_code_CSD MNPHOL24
_database_code_depnum_ccdc_archive 'CCDC 296433'
_chemical_formula_sum 'C6 H5 N1 O3'
_chemical_formula_moiety
;
C6 H5 N1 O3
;
_journal_coden_Cambridge 1147
_journal_volume 6
_journal_year 2006
_journal_page_first 274
_journal_name_full 'Cryst.Growth Des. '
loop_
_publ_author_name
"G.Wojcik"
"J.Holband"
"J.J.Szymczak"
"S.Roszak"
"J.Leszczynski"
_chemical_name_systematic
;
m-Nitrophenol
;
_chemical_name_common
;
3-Nitrophenol
;
_chemical_melting_point 370
_cell_volume    613.752
_exptl_crystal_colour 'yellow'
_exptl_crystal_density_diffrn 1.505
_exptl_special_details
;
orthorhombic polymorph
phase transition at about 350 K

;
_exptl_crystal_description 'prism'
_exptl_crystal_preparation 'benzene'
_diffrn_ambient_temperature 260
#These two values have been output from a single CSD field.
_refine_ls_R_factor_gt 0.0492
_refine_ls_wR_factor_gt 0.0492
_symmetry_cell_setting orthorhombic
_symmetry_space_group_name_H-M 'P 21 21 21'
_symmetry_Int_Tables_number 19
loop_
_symmetry_equiv_pos_site_id
_symmetry_equiv_pos_as_xyz
1 x,y,z
2 1/2-x,-y,1/2+z
3 -x,1/2+y,1/2-z
4 1/2+x,1/2-y,-z
_cell_length_a 8.1078(8)
_cell_length_b 6.7282(9)
_cell_length_c 11.251(2)
_cell_angle_alpha 90
_cell_angle_beta 90
_cell_angle_gamma 90
_cell_formula_units_Z 4
loop_
_atom_type_symbol
_atom_type_radius_bond
C 0.68
H 0.23
N 0.68
O 0.68
loop_
_atom_site_label
_atom_site_type_symbol
_atom_site_fract_x
_atom_site_fract_y
_atom_site_fract_z
O1 O 0.42736(16) 0.0593(3) 0.89328(15)
O2 O 0.33184(19) 0.2324(3) 0.74818(15)
O3 O -0.26898(16) 0.2122(2) 0.78603(13)
H1 H -0.35780 0.18160 0.81570
N1 N 0.31169(17) 0.1299(2) 0.83648(14)
C1 C 0.14355(18) 0.0911(2) 0.87792(15)
C2 C 0.0153(2) 0.1693(2) 0.81228(15)
H2 H 0.03540 0.24420 0.74430
C3 C -0.14523(19) 0.1329(3) 0.85080(15)
C4 C -0.1717(2) 0.0188(3) 0.95203(16)
H3 H -0.27880 -0.00640 0.97750
C5 C -0.0392(2) -0.0577(3) 1.01527(16)
H4 H -0.05820 -0.13380 1.08290
C6 C 0.1219(2) -0.0214(3) 0.97851(16)
H5 H 0.21160 -0.07150 1.02050
#END
