
#######################################################################
#
#                 Cambridge Crystallographic Data Centre
#                                CCDC
#
#######################################################################
#
# If this CIF has been generated from an entry in the Cambridge
# Structural Database, then it will include bibliographic, chemical,
# crystal, experimental, refinement or atomic coordinate data resulting
# from the CCDC's data processing and validation procedures.
#
#######################################################################

data_CSD_CIF_MNPYDO07
_audit_creation_date 2014-07-17
_audit_creation_method CSD-ConQuest-V1
_database_code_CSD MNPYDO07
_database_code_depnum_ccdc_archive 'CCDC 979900'
_chemical_formula_sum 'C6 H6 N2 O3'
_chemical_formula_moiety
;
C6 H6 N2 O3
;
_journal_coden_Cambridge 1695
_journal_volume 2
_journal_year 2014
_journal_page_first 6471
_journal_name_full 'J.Mater.Chem.C '
loop_
_publ_author_name
"Weizhao Cai"
"Jiangang He"
"Wei Li"
"A.Katrusiak"
_chemical_name_systematic
;
3-methyl-4-nitropyridine-N-oxide
;
_cell_volume    661.102
_exptl_crystal_colour 'light yellow'
_exptl_crystal_density_diffrn 1.549
_exptl_crystal_description 'block'
_diffrn_ambient_temperature 165
#These two values have been output from a single CSD field.
_refine_ls_R_factor_gt 0.0281
_refine_ls_wR_factor_gt 0.0281
_symmetry_cell_setting orthorhombic
_symmetry_space_group_name_H-M 'P 21 21 21'
_symmetry_Int_Tables_number 19
loop_
_symmetry_equiv_pos_site_id
_symmetry_equiv_pos_as_xyz
1 x,y,z
2 1/2-x,-y,1/2+z
3 -x,1/2+y,1/2-z
4 1/2+x,1/2-y,-z
_cell_length_a 21.0588(8)
_cell_length_b 6.1144(2)
_cell_length_c 5.1343(2)
_cell_angle_alpha 90
_cell_angle_beta 90
_cell_angle_gamma 90
_cell_formula_units_Z 4
loop_
_atom_type_symbol
_atom_type_radius_bond
C 0.68
H 0.23
N 0.68
O 0.68
loop_
_atom_site_label
_atom_site_type_symbol
_atom_site_fract_x
_atom_site_fract_y
_atom_site_fract_z
N1 N 0.15347(6) 0.0509(2) 0.4992(3)
C1 C 0.17902(7) 0.1799(3) 0.3104(3)
H1 H 0.21590 0.13310 0.22750
C2 C 0.15255(7) 0.3784(3) 0.2359(3)
C3 C 0.09676(7) 0.4384(3) 0.3660(3)
C4 C 0.07134(7) 0.3096(3) 0.5630(3)
H2 H 0.03490 0.35450 0.65040
C5 C 0.10018(8) 0.1155(3) 0.6282(3)
H3 H 0.08340 0.02870 0.76000
O1 O 0.18003(6) -0.1348(2) 0.5568(3)
C6 C 0.18749(8) 0.5094(3) 0.0356(3)
H4 H 0.22420 0.42960 -0.02160
H5 H 0.20060 0.64610 0.11020
H6 H 0.16010 0.53670 -0.11030
N2 N 0.06265(6) 0.6402(2) 0.3041(3)
O2 O 0.07529(6) 0.7343(2) 0.0999(3)
O3 O 0.02227(6) 0.7053(2) 0.4572(3)
#END
