
#######################################################################
#
#                 Cambridge Crystallographic Data Centre
#                                CCDC
#
#######################################################################
#
# If this CIF has been generated from an entry in the Cambridge
# Structural Database, then it will include bibliographic, chemical,
# crystal, experimental, refinement or atomic coordinate data resulting
# from the CCDC's data processing and validation procedures.
#
#######################################################################

data_CSD_CIF_MNPYDO22
_audit_creation_date 2014-07-17
_audit_creation_method CSD-ConQuest-V1
_database_code_CSD MNPYDO22
_database_code_depnum_ccdc_archive 'CCDC 979876'
_chemical_formula_sum 'C6 H6 N2 O3'
_chemical_formula_moiety
;
C6 H6 N2 O3
;
_journal_coden_Cambridge 1695
_journal_volume 2
_journal_year 2014
_journal_page_first 6471
_journal_name_full 'J.Mater.Chem.C '
loop_
_publ_author_name
"Weizhao Cai"
"Jiangang He"
"Wei Li"
"A.Katrusiak"
_chemical_name_systematic
;
3-methyl-4-nitro-1\l^5^-pyridin-1-ol
;
_chemical_name_common
;
3-methyl-4-nitropyridine_N-oxide
;
_cell_volume    657.615
_exptl_crystal_colour 'light yellow'
_exptl_crystal_density_diffrn 1.557
_exptl_crystal_description 'block'
_diffrn_ambient_temperature 296
#These two values have been output from a single CSD field.
_refine_ls_R_factor_gt 0.0554
_refine_ls_wR_factor_gt 0.0554
_symmetry_cell_setting orthorhombic
_symmetry_space_group_name_H-M 'P 21 21 21'
_symmetry_Int_Tables_number 19
loop_
_symmetry_equiv_pos_site_id
_symmetry_equiv_pos_as_xyz
1 x,y,z
2 1/2-x,-y,1/2+z
3 -x,1/2+y,1/2-z
4 1/2+x,1/2-y,-z
_cell_length_a 21.101(4)
_cell_length_b 6.112(5)
_cell_length_c 5.0990(9)
_cell_angle_alpha 90
_cell_angle_beta 90
_cell_angle_gamma 90
_cell_formula_units_Z 4
loop_
_atom_type_symbol
_atom_type_radius_bond
C 0.68
H 0.23
N 0.68
O 0.68
loop_
_atom_site_label
_atom_site_type_symbol
_atom_site_fract_x
_atom_site_fract_y
_atom_site_fract_z
N1 N 0.1531(2) 0.046(2) 0.5019(12)
C1 C 0.1776(3) 0.176(2) 0.3113(13)
H1 H 0.21400 0.12820 0.22580
C2 C 0.1519(3) 0.374(3) 0.2363(11)
C3 C 0.0968(3) 0.430(3) 0.3635(11)
C4 C 0.0700(3) 0.302(2) 0.5557(11)
H2 H 0.03230 0.34400 0.63540
C5 C 0.0990(3) 0.113(2) 0.6275(11)
H3 H 0.08220 0.02930 0.76260
O1 O 0.1804(2) -0.137(2) 0.5632(11)
C6 C 0.1863(3) 0.507(3) 0.0348(11)
H4 H 0.22300 0.42870 -0.02380
H5 H 0.19910 0.64410 0.11060
H6 H 0.15870 0.53420 -0.11150
N2 N 0.0626(3) 0.631(3) 0.3030(12)
O2 O 0.0748(2) 0.732(3) 0.1006(11)
O3 O 0.0210(2) 0.701(3) 0.4480(9)
#END
