
#######################################################################
#
#                 Cambridge Crystallographic Data Centre
#                                CCDC
#
#######################################################################
#
# If this CIF has been generated from an entry in the Cambridge
# Structural Database, then it will include bibliographic, chemical,
# crystal, experimental, refinement or atomic coordinate data resulting
# from the CCDC's data processing and validation procedures.
#
#######################################################################

data_CSD_CIF_MNPYDO17
_audit_creation_date 2014-07-17
_audit_creation_method CSD-ConQuest-V1
_database_code_CSD MNPYDO17
_database_code_depnum_ccdc_archive 'CCDC 979871'
_chemical_formula_sum 'C6 H6 N2 O3'
_chemical_formula_moiety
;
C6 H6 N2 O3
;
_journal_coden_Cambridge 1695
_journal_volume 2
_journal_year 2014
_journal_page_first 6471
_journal_name_full 'J.Mater.Chem.C '
loop_
_publ_author_name
"Weizhao Cai"
"Jiangang He"
"Wei Li"
"A.Katrusiak"
_chemical_name_systematic
;
3-methyl-4-nitropyridineN-oxide
;
_cell_volume    674.370
_exptl_crystal_colour 'light yellow'
_exptl_crystal_density_diffrn 1.518
_exptl_crystal_description 'block'
_diffrn_ambient_temperature 296
#These two values have been output from a single CSD field.
_refine_ls_R_factor_gt 0.0571
_refine_ls_wR_factor_gt 0.0571
_symmetry_cell_setting orthorhombic
_symmetry_space_group_name_H-M 'P 21 21 21'
_symmetry_Int_Tables_number 19
loop_
_symmetry_equiv_pos_site_id
_symmetry_equiv_pos_as_xyz
1 x,y,z
2 1/2-x,-y,1/2+z
3 -x,1/2+y,1/2-z
4 1/2+x,1/2-y,-z
_cell_length_a 21.363(5)
_cell_length_b 6.141(5)
_cell_length_c 5.1404(11)
_cell_angle_alpha 90
_cell_angle_beta 90
_cell_angle_gamma 90
_cell_formula_units_Z 4
loop_
_atom_type_symbol
_atom_type_radius_bond
C 0.68
H 0.23
N 0.68
O 0.68
loop_
_atom_site_label
_atom_site_type_symbol
_atom_site_fract_x
_atom_site_fract_y
_atom_site_fract_z
N1 N 0.1547(2) 0.040(2) 0.5075(11)
C1 C 0.1786(2) 0.179(2) 0.3224(12)
H1 H 0.21590 0.13790 0.24310
C2 C 0.1523(2) 0.374(2) 0.2433(9)
C3 C 0.0969(2) 0.432(2) 0.3708(10)
C4 C 0.0722(3) 0.299(2) 0.5620(11)
H2 H 0.03520 0.34010 0.64410
C5 C 0.1002(3) 0.109(2) 0.6340(11)
H3 H 0.08310 0.02460 0.76680
O1 O 0.1808(2) -0.142(2) 0.5698(11)
C6 C 0.1867(2) 0.507(2) 0.0451(10)
H4 H 0.22300 0.42930 -0.01260
H5 H 0.19930 0.64310 0.12170
H6 H 0.15970 0.53530 -0.10050
N2 N 0.0628(2) 0.631(2) 0.3048(10)
O2 O 0.07460(19) 0.718(2) 0.1022(9)
O3 O 0.02208(18) 0.688(2) 0.4565(9)
#END
