
#######################################################################
#
#                 Cambridge Crystallographic Data Centre
#                                CCDC
#
#######################################################################
#
# If this CIF has been generated from an entry in the Cambridge
# Structural Database, then it will include bibliographic, chemical,
# crystal, experimental, refinement or atomic coordinate data resulting
# from the CCDC's data processing and validation procedures.
#
#######################################################################

data_CSD_CIF_MNPYDO11
_audit_creation_date 2014-07-17
_audit_creation_method CSD-ConQuest-V1
_database_code_CSD MNPYDO11
_database_code_depnum_ccdc_archive 'CCDC 979904'
_chemical_formula_sum 'C6 H6 N2 O3'
_chemical_formula_moiety
;
C6 H6 N2 O3
;
_journal_coden_Cambridge 1695
_journal_volume 2
_journal_year 2014
_journal_page_first 6471
_journal_name_full 'J.Mater.Chem.C '
loop_
_publ_author_name
"Weizhao Cai"
"Jiangang He"
"Wei Li"
"A.Katrusiak"
_chemical_name_systematic
;
3-methyl-4-nitropyridine-N-oxide
;
_cell_volume    667.173
_exptl_crystal_colour 'light yellow'
_exptl_crystal_density_diffrn 1.534
_exptl_crystal_description 'block'
_diffrn_ambient_temperature 225
#These two values have been output from a single CSD field.
_refine_ls_R_factor_gt 0.0316
_refine_ls_wR_factor_gt 0.0316
_symmetry_cell_setting orthorhombic
_symmetry_space_group_name_H-M 'P 21 21 21'
_symmetry_Int_Tables_number 19
loop_
_symmetry_equiv_pos_site_id
_symmetry_equiv_pos_as_xyz
1 x,y,z
2 1/2-x,-y,1/2+z
3 -x,1/2+y,1/2-z
4 1/2+x,1/2-y,-z
_cell_length_a 21.2160(9)
_cell_length_b 6.1203(3)
_cell_length_c 5.1381(3)
_cell_angle_alpha 90
_cell_angle_beta 90
_cell_angle_gamma 90
_cell_formula_units_Z 4
loop_
_atom_type_symbol
_atom_type_radius_bond
C 0.68
H 0.23
N 0.68
O 0.68
loop_
_atom_site_label
_atom_site_type_symbol
_atom_site_fract_x
_atom_site_fract_y
_atom_site_fract_z
N1 N 0.15385(7) 0.0498(2) 0.5030(3)
C1 C 0.17902(8) 0.1794(3) 0.3154(4)
H1 H 0.21590 0.13380 0.23370
C2 C 0.15253(8) 0.3759(3) 0.2398(3)
C3 C 0.09687(8) 0.4349(3) 0.3680(3)
C4 C 0.07154(8) 0.3055(3) 0.5633(4)
H2 H 0.03500 0.34920 0.64890
C5 C 0.10045(9) 0.1131(3) 0.6301(4)
H3 H 0.08370 0.02610 0.76140
O1 O 0.18046(7) -0.1344(2) 0.5621(3)
C6 C 0.18714(9) 0.5075(3) 0.0392(4)
H4 H 0.22360 0.42820 -0.01780
H5 H 0.20000 0.64430 0.11380
H6 H 0.15990 0.53430 -0.10660
N2 N 0.06264(7) 0.6356(3) 0.3047(3)
O2 O 0.07504(8) 0.7294(3) 0.1009(3)
O3 O 0.02238(7) 0.6998(2) 0.4566(3)
#END
