
#######################################################################
#
#                 Cambridge Crystallographic Data Centre
#                                CCDC
#
#######################################################################
#
# If this CIF has been generated from an entry in the Cambridge
# Structural Database, then it will include bibliographic, chemical,
# crystal, experimental, refinement or atomic coordinate data resulting
# from the CCDC's data processing and validation procedures.
#
#######################################################################

data_CSD_CIF_MNPYDO16
_audit_creation_date 2014-07-17
_audit_creation_method CSD-ConQuest-V1
_database_code_CSD MNPYDO16
_database_code_depnum_ccdc_archive 'CCDC 979870'
_chemical_formula_sum 'C6 H6 N2 O3'
_chemical_formula_moiety
;
C6 H6 N2 O3
;
_journal_coden_Cambridge 1695
_journal_volume 2
_journal_year 2014
_journal_page_first 6471
_journal_name_full 'J.Mater.Chem.C '
loop_
_publ_author_name
"Weizhao Cai"
"Jiangang He"
"Wei Li"
"A.Katrusiak"
_chemical_name_systematic
;
3-methyl-4-nitropyridine-N-oxide
;
_cell_volume    675.883
_exptl_crystal_colour 'light yellow'
_exptl_crystal_density_diffrn 1.515
_exptl_crystal_description 'block'
_diffrn_ambient_temperature 296
#These two values have been output from a single CSD field.
_refine_ls_R_factor_gt 0.0343
_refine_ls_wR_factor_gt 0.0343
_symmetry_cell_setting orthorhombic
_symmetry_space_group_name_H-M 'P 21 21 21'
_symmetry_Int_Tables_number 19
loop_
_symmetry_equiv_pos_site_id
_symmetry_equiv_pos_as_xyz
1 x,y,z
2 1/2-x,-y,1/2+z
3 -x,1/2+y,1/2-z
4 1/2+x,1/2-y,-z
_cell_length_a 21.4235(4)
_cell_length_b 6.1275(1)
_cell_length_c 5.1487(1)
_cell_angle_alpha 90
_cell_angle_beta 90
_cell_angle_gamma 90
_cell_formula_units_Z 4
loop_
_atom_type_symbol
_atom_type_radius_bond
C 0.68
H 0.23
N 0.68
O 0.68
loop_
_atom_site_label
_atom_site_type_symbol
_atom_site_fract_x
_atom_site_fract_y
_atom_site_fract_z
N1 N 0.15407(6) 0.0486(2) 0.5085(3)
C1 C 0.17911(8) 0.1781(3) 0.3221(4)
H1 H 0.21600 0.13390 0.24270
C2 C 0.15237(7) 0.3730(3) 0.2447(3)
C3 C 0.09685(7) 0.4300(3) 0.3703(3)
C4 C 0.07187(7) 0.3004(3) 0.5647(3)
H2 H 0.03550 0.34300 0.64920
C5 C 0.10076(8) 0.1099(3) 0.6322(4)
H3 H 0.08400 0.02240 0.76240
O1 O 0.18097(6) -0.1343(2) 0.5693(3)
C6 C 0.18663(8) 0.5047(3) 0.0450(4)
H4 H 0.22320 0.42680 -0.00970
H5 H 0.19870 0.64240 0.11860
H6 H 0.16000 0.52930 -0.10200
N2 N 0.06266(7) 0.6293(3) 0.3058(3)
O2 O 0.07475(7) 0.7222(3) 0.1028(3)
O3 O 0.02246(6) 0.6926(2) 0.4560(3)
#END
