
#######################################################################
#
#                 Cambridge Crystallographic Data Centre
#                                CCDC
#
#######################################################################
#
# If this CIF has been generated from an entry in the Cambridge
# Structural Database, then it will include bibliographic, chemical,
# crystal, experimental, refinement or atomic coordinate data resulting
# from the CCDC's data processing and validation procedures.
#
#######################################################################

data_CSD_CIF_MNPYDO30
_audit_creation_date 2014-07-17
_audit_creation_method CSD-ConQuest-V1
_database_code_CSD MNPYDO30
_database_code_depnum_ccdc_archive 'CCDC 979906'
_chemical_formula_sum 'C6 H6 N2 O3'
_chemical_formula_moiety
;
C6 H6 N2 O3
;
_journal_coden_Cambridge 1695
_journal_volume 2
_journal_year 2014
_journal_page_first 6471
_journal_name_full 'J.Mater.Chem.C '
loop_
_publ_author_name
"Weizhao Cai"
"Jiangang He"
"Wei Li"
"A.Katrusiak"
_chemical_name_systematic
;
3-methyl-4-nitropyridine-N-oxide
;
_cell_volume    670.507
_exptl_crystal_colour 'light yellow'
_exptl_crystal_density_diffrn 1.527
_exptl_crystal_description 'block'
_diffrn_ambient_temperature 255
#These two values have been output from a single CSD field.
_refine_ls_R_factor_gt 0.0319
_refine_ls_wR_factor_gt 0.0319
_symmetry_cell_setting orthorhombic
_symmetry_space_group_name_H-M 'P 21 21 21'
_symmetry_Int_Tables_number 19
loop_
_symmetry_equiv_pos_site_id
_symmetry_equiv_pos_as_xyz
1 x,y,z
2 1/2-x,-y,1/2+z
3 -x,1/2+y,1/2-z
4 1/2+x,1/2-y,-z
_cell_length_a 21.2997(10)
_cell_length_b 6.1229(3)
_cell_length_c 5.1413(3)
_cell_angle_alpha 90
_cell_angle_beta 90
_cell_angle_gamma 90
_cell_formula_units_Z 4
loop_
_atom_type_symbol
_atom_type_radius_bond
C 0.68
H 0.23
N 0.68
O 0.68
loop_
_atom_site_label
_atom_site_type_symbol
_atom_site_fract_x
_atom_site_fract_y
_atom_site_fract_z
N1 N 0.15392(7) 0.0493(2) 0.5049(3)
C1 C 0.17904(8) 0.1784(3) 0.3183(4)
H1 H 0.21590 0.13340 0.23770
C2 C 0.15242(8) 0.3746(3) 0.2417(3)
C3 C 0.09692(8) 0.4330(3) 0.3688(3)
C4 C 0.07179(8) 0.3035(3) 0.5644(4)
H2 H 0.03540 0.34690 0.64990
C5 C 0.10064(9) 0.1120(3) 0.6310(4)
H3 H 0.08390 0.02490 0.76210
O1 O 0.18064(7) -0.1342(2) 0.5648(3)
C6 C 0.18692(9) 0.5064(3) 0.0414(4)
H4 H 0.22330 0.42730 -0.01550
H5 H 0.19970 0.64320 0.11600
H6 H 0.15980 0.53310 -0.10440
N2 N 0.06263(7) 0.6329(3) 0.3052(3)
O2 O 0.07503(8) 0.7267(3) 0.1020(3)
O3 O 0.02245(7) 0.6972(2) 0.4567(3)
#END
