
#######################################################################
#
#                 Cambridge Crystallographic Data Centre
#                                CCDC
#
#######################################################################
#
# If this CIF has been generated from an entry in the Cambridge
# Structural Database, then it will include bibliographic, chemical,
# crystal, experimental, refinement or atomic coordinate data resulting
# from the CCDC's data processing and validation procedures.
#
#######################################################################

data_CSD_CIF_MNPYDO18
_audit_creation_date 2014-07-17
_audit_creation_method CSD-ConQuest-V1
_database_code_CSD MNPYDO18
_database_code_depnum_ccdc_archive 'CCDC 979872'
_chemical_formula_sum 'C6 H6 N2 O3'
_chemical_formula_moiety
;
C6 H6 N2 O3
;
_journal_coden_Cambridge 1695
_journal_volume 2
_journal_year 2014
_journal_page_first 6471
_journal_name_full 'J.Mater.Chem.C '
loop_
_publ_author_name
"Weizhao Cai"
"Jiangang He"
"Wei Li"
"A.Katrusiak"
_chemical_name_systematic
;
3-methyl-4-nitropyridineN-oxide
;
_cell_volume    673.091
_exptl_crystal_colour 'light yellow'
_exptl_crystal_density_diffrn 1.521
_exptl_crystal_description 'block'
_diffrn_ambient_temperature 296
#These two values have been output from a single CSD field.
_refine_ls_R_factor_gt 0.0621
_refine_ls_wR_factor_gt 0.0621
_symmetry_cell_setting orthorhombic
_symmetry_space_group_name_H-M 'P 21 21 21'
_symmetry_Int_Tables_number 19
loop_
_symmetry_equiv_pos_site_id
_symmetry_equiv_pos_as_xyz
1 x,y,z
2 1/2-x,-y,1/2+z
3 -x,1/2+y,1/2-z
4 1/2+x,1/2-y,-z
_cell_length_a 21.325(5)
_cell_length_b 6.152(6)
_cell_length_c 5.1306(10)
_cell_angle_alpha 90
_cell_angle_beta 90
_cell_angle_gamma 90
_cell_formula_units_Z 4
loop_
_atom_type_symbol
_atom_type_radius_bond
C 0.68
H 0.23
N 0.68
O 0.68
loop_
_atom_site_label
_atom_site_type_symbol
_atom_site_fract_x
_atom_site_fract_y
_atom_site_fract_z
N1 N 0.1548(2) 0.050(2) 0.5062(11)
C1 C 0.1783(2) 0.186(3) 0.3171(12)
H1 H 0.21500 0.14330 0.23420
C2 C 0.1516(2) 0.381(2) 0.2396(9)
C3 C 0.0968(2) 0.4377(19) 0.3711(10)
C4 C 0.0730(3) 0.301(2) 0.5606(12)
H2 H 0.03630 0.34360 0.64490
C5 C 0.0994(3) 0.109(2) 0.6324(12)
H3 H 0.08140 0.02120 0.75960
O1 O 0.1804(2) -0.134(2) 0.5687(11)
C6 C 0.1873(2) 0.512(3) 0.0419(10)
H4 H 0.22350 0.43130 -0.01350
H5 H 0.20040 0.64670 0.11850
H6 H 0.16090 0.54060 -0.10560
N2 N 0.0629(2) 0.636(2) 0.3054(11)
O2 O 0.07465(19) 0.718(3) 0.1012(10)
O3 O 0.02229(15) 0.695(2) 0.4543(8)
#END
