
#######################################################################
#
#                 Cambridge Crystallographic Data Centre
#                                CCDC
#
#######################################################################
#
# If this CIF has been generated from an entry in the Cambridge
# Structural Database, then it will include bibliographic, chemical,
# crystal, experimental, refinement or atomic coordinate data resulting
# from the CCDC's data processing and validation procedures.
#
#######################################################################

data_CSD_CIF_MNPYDO19
_audit_creation_date 2014-07-17
_audit_creation_method CSD-ConQuest-V1
_database_code_CSD MNPYDO19
_database_code_depnum_ccdc_archive 'CCDC 979873'
_chemical_formula_sum 'C6 H6 N2 O3'
_chemical_formula_moiety
;
C6 H6 N2 O3
;
_journal_coden_Cambridge 1695
_journal_volume 2
_journal_year 2014
_journal_page_first 6471
_journal_name_full 'J.Mater.Chem.C '
loop_
_publ_author_name
"Weizhao Cai"
"Jiangang He"
"Wei Li"
"A.Katrusiak"
_chemical_name_systematic
;
3-methyl-4-nitropyridineN-oxide
;
_cell_volume    668.900
_exptl_crystal_colour 'light yellow'
_exptl_crystal_density_diffrn 1.531
_exptl_crystal_description 'block'
_diffrn_ambient_temperature 296
#These two values have been output from a single CSD field.
_refine_ls_R_factor_gt 0.0499
_refine_ls_wR_factor_gt 0.0499
_symmetry_cell_setting orthorhombic
_symmetry_space_group_name_H-M 'P 21 21 21'
_symmetry_Int_Tables_number 19
loop_
_symmetry_equiv_pos_site_id
_symmetry_equiv_pos_as_xyz
1 x,y,z
2 1/2-x,-y,1/2+z
3 -x,1/2+y,1/2-z
4 1/2+x,1/2-y,-z
_cell_length_a 21.267(5)
_cell_length_b 6.133(5)
_cell_length_c 5.1284(12)
_cell_angle_alpha 90
_cell_angle_beta 90
_cell_angle_gamma 90
_cell_formula_units_Z 4
loop_
_atom_type_symbol
_atom_type_radius_bond
C 0.68
H 0.23
N 0.68
O 0.68
loop_
_atom_site_label
_atom_site_type_symbol
_atom_site_fract_x
_atom_site_fract_y
_atom_site_fract_z
N1 N 0.15453(19) 0.044(3) 0.5074(10)
C1 C 0.1791(2) 0.184(3) 0.3168(10)
H1 H 0.21640 0.14310 0.23610
C2 C 0.15251(19) 0.374(2) 0.2414(8)
C3 C 0.0965(2) 0.4317(18) 0.3673(8)
C4 C 0.0711(2) 0.3029(19) 0.5609(9)
H2 H 0.03430 0.34630 0.64410
C5 C 0.0993(2) 0.113(2) 0.6313(10)
H3 H 0.08190 0.02860 0.76310
O1 O 0.1810(2) -0.142(2) 0.5654(9)
C6 C 0.1870(2) 0.506(2) 0.0398(8)
H4 H 0.22340 0.42670 -0.01750
H5 H 0.19980 0.64250 0.11410
H6 H 0.15980 0.53220 -0.10620
N2 N 0.06268(17) 0.6313(19) 0.3018(9)
O2 O 0.07489(16) 0.722(3) 0.0985(7)
O3 O 0.02151(16) 0.6900(19) 0.4536(7)
#END
