
#######################################################################
#
#                 Cambridge Crystallographic Data Centre
#                                CCDC
#
#######################################################################
#
# If this CIF has been generated from an entry in the Cambridge
# Structural Database, then it will include bibliographic, chemical,
# crystal, experimental, refinement or atomic coordinate data resulting
# from the CCDC's data processing and validation procedures.
#
#######################################################################

data_CSD_CIF_MNPYDO13
_audit_creation_date 2014-07-17
_audit_creation_method CSD-ConQuest-V1
_database_code_CSD MNPYDO13
_database_code_depnum_ccdc_archive 'CCDC 979907'
_chemical_formula_sum 'C6 H6 N2 O3'
_chemical_formula_moiety
;
C6 H6 N2 O3
;
_journal_coden_Cambridge 1695
_journal_volume 2
_journal_year 2014
_journal_page_first 6471
_journal_name_full 'J.Mater.Chem.C '
loop_
_publ_author_name
"Weizhao Cai"
"Jiangang He"
"Wei Li"
"A.Katrusiak"
_chemical_name_systematic
;
3-methyl-4-nitropyridine-N-oxide
;
_cell_volume    672.455
_exptl_crystal_colour 'light yellow'
_exptl_crystal_density_diffrn 1.522
_exptl_crystal_description 'block'
_diffrn_ambient_temperature 270
#These two values have been output from a single CSD field.
_refine_ls_R_factor_gt 0.0314
_refine_ls_wR_factor_gt 0.0314
_symmetry_cell_setting orthorhombic
_symmetry_space_group_name_H-M 'P 21 21 21'
_symmetry_Int_Tables_number 19
loop_
_symmetry_equiv_pos_site_id
_symmetry_equiv_pos_as_xyz
1 x,y,z
2 1/2-x,-y,1/2+z
3 -x,1/2+y,1/2-z
4 1/2+x,1/2-y,-z
_cell_length_a 21.343(1)
_cell_length_b 6.1262(3)
_cell_length_c 5.1430(3)
_cell_angle_alpha 90
_cell_angle_beta 90
_cell_angle_gamma 90
_cell_formula_units_Z 4
loop_
_atom_type_symbol
_atom_type_radius_bond
C 0.68
H 0.23
N 0.68
O 0.68
loop_
_atom_site_label
_atom_site_type_symbol
_atom_site_fract_x
_atom_site_fract_y
_atom_site_fract_z
N1 N 0.15399(7) 0.0490(2) 0.5060(3)
C1 C 0.17916(8) 0.1783(3) 0.3198(4)
H1 H 0.21610 0.13360 0.24000
C2 C 0.15244(8) 0.3742(3) 0.2426(3)
C3 C 0.09693(8) 0.4318(3) 0.3696(4)
C4 C 0.07177(8) 0.3026(3) 0.5647(4)
H2 H 0.03540 0.34570 0.64970
C5 C 0.10072(9) 0.1112(3) 0.6316(4)
H3 H 0.08410 0.02400 0.76240
O1 O 0.18073(7) -0.1343(2) 0.5666(4)
C6 C 0.18689(9) 0.5055(3) 0.0430(4)
H4 H 0.22320 0.42630 -0.01370
H5 H 0.19960 0.64210 0.11750
H6 H 0.15990 0.53220 -0.10300
N2 N 0.06261(7) 0.6320(3) 0.3059(3)
O2 O 0.07491(8) 0.7250(3) 0.1023(3)
O3 O 0.02247(7) 0.6956(2) 0.4565(3)
#END
