
#######################################################################
#
#                 Cambridge Crystallographic Data Centre
#                                CCDC
#
#######################################################################
#
# If this CIF has been generated from an entry in the Cambridge
# Structural Database, then it will include bibliographic, chemical,
# crystal, experimental, refinement or atomic coordinate data resulting
# from the CCDC's data processing and validation procedures.
#
#######################################################################

data_CSD_CIF_MNPYDO05
_audit_creation_date 2014-07-17
_audit_creation_method CSD-ConQuest-V1
_database_code_CSD MNPYDO05
_database_code_depnum_ccdc_archive 'CCDC 979898'
_chemical_formula_sum 'C6 H6 N2 O3'
_chemical_formula_moiety
;
C6 H6 N2 O3
;
_journal_coden_Cambridge 1695
_journal_volume 2
_journal_year 2014
_journal_page_first 6471
_journal_name_full 'J.Mater.Chem.C '
loop_
_publ_author_name
"Weizhao Cai"
"Jiangang He"
"Wei Li"
"A.Katrusiak"
_chemical_name_systematic
;
3-methyl-4-nitropyridine-N-oxide
;
_cell_volume    658.589
_exptl_crystal_colour 'light yellow'
_exptl_crystal_density_diffrn 1.554
_exptl_crystal_description 'block'
_diffrn_ambient_temperature 135
#These two values have been output from a single CSD field.
_refine_ls_R_factor_gt 0.0283
_refine_ls_wR_factor_gt 0.0283
_symmetry_cell_setting orthorhombic
_symmetry_space_group_name_H-M 'P 21 21 21'
_symmetry_Int_Tables_number 19
loop_
_symmetry_equiv_pos_site_id
_symmetry_equiv_pos_as_xyz
1 x,y,z
2 1/2-x,-y,1/2+z
3 -x,1/2+y,1/2-z
4 1/2+x,1/2-y,-z
_cell_length_a 20.9915(8)
_cell_length_b 6.1114(2)
_cell_length_c 5.1337(2)
_cell_angle_alpha 90
_cell_angle_beta 90
_cell_angle_gamma 90
_cell_formula_units_Z 4
loop_
_atom_type_symbol
_atom_type_radius_bond
C 0.68
H 0.23
N 0.68
O 0.68
loop_
_atom_site_label
_atom_site_type_symbol
_atom_site_fract_x
_atom_site_fract_y
_atom_site_fract_z
N1 N 0.15341(6) 0.0511(2) 0.4975(3)
C1 C 0.17909(7) 0.1802(3) 0.3088(3)
H1 H 0.21600 0.13330 0.22590
C2 C 0.15256(7) 0.3789(3) 0.2344(3)
C3 C 0.09677(7) 0.4399(2) 0.3653(3)
C4 C 0.07117(7) 0.3112(3) 0.5628(3)
H2 H 0.03470 0.35650 0.65060
C5 C 0.09999(7) 0.1166(3) 0.6273(3)
H3 H 0.08310 0.02990 0.75920
O1 O 0.17980(5) -0.13475(18) 0.5545(3)
C6 C 0.18772(8) 0.5104(3) 0.0339(3)
H4 H 0.22450 0.43040 -0.02350
H5 H 0.20090 0.64700 0.10880
H6 H 0.16020 0.53800 -0.11190
N2 N 0.06277(6) 0.6425(2) 0.3038(3)
O2 O 0.07545(6) 0.7368(2) 0.0994(3)
O3 O 0.02218(6) 0.7079(2) 0.4577(3)
#END
