
#######################################################################
#
#                 Cambridge Crystallographic Data Centre
#                                CCDC
#
#######################################################################
#
# If this CIF has been generated from an entry in the Cambridge
# Structural Database, then it will include bibliographic, chemical,
# crystal, experimental, refinement or atomic coordinate data resulting
# from the CCDC's data processing and validation procedures.
#
#######################################################################

data_CSD_CIF_MNPYDO09
_audit_creation_date 2014-07-17
_audit_creation_method CSD-ConQuest-V1
_database_code_CSD MNPYDO09
_database_code_depnum_ccdc_archive 'CCDC 979902'
_chemical_formula_sum 'C6 H6 N2 O3'
_chemical_formula_moiety
;
C6 H6 N2 O3
;
_journal_coden_Cambridge 1695
_journal_volume 2
_journal_year 2014
_journal_page_first 6471
_journal_name_full 'J.Mater.Chem.C '
loop_
_publ_author_name
"Weizhao Cai"
"Jiangang He"
"Wei Li"
"A.Katrusiak"
_chemical_name_systematic
;
3-methyl-4-nitropyridine-N-oxide
;
_cell_volume    663.867
_exptl_crystal_colour 'light yellow'
_exptl_crystal_density_diffrn 1.542
_exptl_crystal_description 'block'
_diffrn_ambient_temperature 195
#These two values have been output from a single CSD field.
_refine_ls_R_factor_gt 0.0302
_refine_ls_wR_factor_gt 0.0302
_symmetry_cell_setting orthorhombic
_symmetry_space_group_name_H-M 'P 21 21 21'
_symmetry_Int_Tables_number 19
loop_
_symmetry_equiv_pos_site_id
_symmetry_equiv_pos_as_xyz
1 x,y,z
2 1/2-x,-y,1/2+z
3 -x,1/2+y,1/2-z
4 1/2+x,1/2-y,-z
_cell_length_a 21.1324(8)
_cell_length_b 6.1162(2)
_cell_length_c 5.1363(2)
_cell_angle_alpha 90
_cell_angle_beta 90
_cell_angle_gamma 90
_cell_formula_units_Z 4
loop_
_atom_type_symbol
_atom_type_radius_bond
C 0.68
H 0.23
N 0.68
O 0.68
loop_
_atom_site_label
_atom_site_type_symbol
_atom_site_fract_x
_atom_site_fract_y
_atom_site_fract_z
N1 N 0.15366(7) 0.0503(2) 0.5009(3)
C1 C 0.17908(8) 0.1794(3) 0.3127(4)
H1 H 0.21590 0.13320 0.23030
C2 C 0.15250(7) 0.3771(3) 0.2379(3)
C3 C 0.09676(7) 0.4367(3) 0.3670(3)
C4 C 0.07144(8) 0.3075(3) 0.5631(3)
H2 H 0.03500 0.35170 0.64960
C5 C 0.10035(8) 0.1146(3) 0.6291(4)
H3 H 0.08360 0.02790 0.76090
O1 O 0.18032(6) -0.1345(2) 0.5591(3)
C6 C 0.18732(8) 0.5086(3) 0.0373(3)
H4 H 0.22390 0.42900 -0.01990
H5 H 0.20030 0.64530 0.11180
H6 H 0.16000 0.53560 -0.10860
N2 N 0.06273(7) 0.6379(3) 0.3041(3)
O2 O 0.07520(7) 0.7318(2) 0.1003(3)
O3 O 0.02236(6) 0.7026(2) 0.4567(3)
#END
