
#######################################################################
#
#                 Cambridge Crystallographic Data Centre
#                                CCDC
#
#######################################################################
#
# If this CIF has been generated from an entry in the Cambridge
# Structural Database, then it will include bibliographic, chemical,
# crystal, experimental, refinement or atomic coordinate data resulting
# from the CCDC's data processing and validation procedures.
#
#######################################################################

data_CSD_CIF_MNPYDO12
_audit_creation_date 2014-07-17
_audit_creation_method CSD-ConQuest-V1
_database_code_CSD MNPYDO12
_database_code_depnum_ccdc_archive 'CCDC 979905'
_chemical_formula_sum 'C6 H6 N2 O3'
_chemical_formula_moiety
;
C6 H6 N2 O3
;
_journal_coden_Cambridge 1695
_journal_volume 2
_journal_year 2014
_journal_page_first 6471
_journal_name_full 'J.Mater.Chem.C '
loop_
_publ_author_name
"Weizhao Cai"
"Jiangang He"
"Wei Li"
"A.Katrusiak"
_chemical_name_systematic
;
3-methyl-4-nitropyridine-N-oxide
;
_cell_volume    668.856
_exptl_crystal_colour 'light yellow'
_exptl_crystal_density_diffrn 1.531
_exptl_crystal_description 'block'
_diffrn_ambient_temperature 240
#These two values have been output from a single CSD field.
_refine_ls_R_factor_gt 0.0311
_refine_ls_wR_factor_gt 0.0311
_symmetry_cell_setting orthorhombic
_symmetry_space_group_name_H-M 'P 21 21 21'
_symmetry_Int_Tables_number 19
loop_
_symmetry_equiv_pos_site_id
_symmetry_equiv_pos_as_xyz
1 x,y,z
2 1/2-x,-y,1/2+z
3 -x,1/2+y,1/2-z
4 1/2+x,1/2-y,-z
_cell_length_a 21.2598(9)
_cell_length_b 6.1219(3)
_cell_length_c 5.1391(3)
_cell_angle_alpha 90
_cell_angle_beta 90
_cell_angle_gamma 90
_cell_formula_units_Z 4
loop_
_atom_type_symbol
_atom_type_radius_bond
C 0.68
H 0.23
N 0.68
O 0.68
loop_
_atom_site_label
_atom_site_type_symbol
_atom_site_fract_x
_atom_site_fract_y
_atom_site_fract_z
N1 N 0.15386(7) 0.0495(2) 0.5040(3)
C1 C 0.17903(8) 0.1787(3) 0.3165(4)
H1 H 0.21580 0.13310 0.23510
C2 C 0.15246(8) 0.3754(3) 0.2407(3)
C3 C 0.09686(8) 0.4339(3) 0.3687(3)
C4 C 0.07166(8) 0.3045(3) 0.5632(3)
H2 H 0.03510 0.34790 0.64840
C5 C 0.10048(9) 0.1128(3) 0.6304(4)
H3 H 0.08370 0.02600 0.76170
O1 O 0.18059(7) -0.1345(2) 0.5635(3)
C6 C 0.18704(9) 0.5065(3) 0.0404(4)
H4 H 0.22350 0.42700 -0.01630
H5 H 0.19990 0.64320 0.11480
H6 H 0.15990 0.53310 -0.10550
N2 N 0.06259(7) 0.6342(3) 0.3052(3)
O2 O 0.07500(8) 0.7279(3) 0.1014(3)
O3 O 0.02244(7) 0.6986(2) 0.4566(3)
#END
