
#######################################################################
#
#                 Cambridge Crystallographic Data Centre
#                                CCDC
#
#######################################################################
#
# If this CIF has been generated from an entry in the Cambridge
# Structural Database, then it will include bibliographic, chemical,
# crystal, experimental, refinement or atomic coordinate data resulting
# from the CCDC's data processing and validation procedures.
#
#######################################################################

data_CSD_CIF_MNQUON10
_audit_creation_date 1971-12-31
_audit_creation_method CSD-ConQuest-V1
_database_code_CSD MNQUON10
_chemical_formula_sum 'C10 H8 N2 O4'
_chemical_formula_moiety
;
C10 H8 N2 O4
;
_journal_coeditor_code "IUCr A06635"
_journal_coden_Cambridge 107
_journal_volume 25
_journal_year 1969
_journal_page_first 362
_journal_name_full 'Acta Crystallogr.,Sect.B:Struct.Crystallogr.Cryst.Chem. '
loop_
_publ_author_name
"M.Sax"
"R.Desiderato"
"T.W.Dakin"
_chemical_name_systematic
;
6-Methoxy-8-nitro-5(1H)-quinolone
;
_cell_volume    917.171
_exptl_crystal_density_diffrn 1.595
_diffrn_ambient_temperature ?
_diffrn_special_details
;
The study was carried out at room temperature,in the range 283-303K

;
#These two values have been output from a single CSD field.
_refine_ls_R_factor_gt 0.051
_refine_ls_wR_factor_gt 0.051
_symmetry_cell_setting orthorhombic
_symmetry_space_group_name_H-M 'P c a 21'
_symmetry_Int_Tables_number 29
loop_
_symmetry_equiv_pos_site_id
_symmetry_equiv_pos_as_xyz
1 x,y,z
2 1/2-x,y,1/2+z
3 1/2+x,-y,z
4 -x,-y,1/2+z
_cell_length_a 18.647(6)
_cell_length_b 6.363(3)
_cell_length_c 7.730(3)
_cell_angle_alpha 90
_cell_angle_beta 90
_cell_angle_gamma 90
_cell_formula_units_Z 4
loop_
_atom_type_symbol
_atom_type_radius_bond
C 0.68
H 0.20
N 0.68
O 0.68
loop_
_atom_site_label
_atom_site_type_symbol
_atom_site_fract_x
_atom_site_fract_y
_atom_site_fract_z
C1 C 0.24260 -0.75690 0.09380
C2 C 0.01050 -1.06880 -0.01970
C3 C 0.32470 -0.44120 0.23360
C4 C 0.35930 -0.60860 0.16060
C5 C 0.31740 -0.76630 0.08680
C6 C 0.19950 -0.92950 0.01970
C7 C 0.12330 -0.90430 0.03160
C8 C 0.09350 -0.73360 0.10890
C9 C 0.13450 -0.57160 0.18460
C10 C 0.20990 -0.58160 0.17510
H1 H 0.23600 -0.32900 0.30500
H2 H -0.00500 -1.06900 0.11200
H3 H 0.34500 -0.29600 0.28800
H4 H 0.41200 -0.61800 0.15200
H5 H 0.34000 -0.87300 0.04600
H6 H 0.04400 -0.72400 0.10400
H7 H -0.01700 -0.95600 -0.08500
H8 H -0.00600 -1.21000 -0.07900
N1 N 0.25460 -0.43220 0.24290
N2 N 0.09760 -0.41200 0.27260
O1 O 0.03170 -0.42430 0.29010
O2 O 0.13240 -0.26240 0.33470
O3 O 0.08660 -1.06620 -0.04340
O4 O 0.22970 -1.07970 -0.04820
#END
