
#######################################################################
#
#                 Cambridge Crystallographic Data Centre
#                                CCDC
#
#######################################################################
#
# If this CIF has been generated from an entry in the Cambridge
# Structural Database, then it will include bibliographic, chemical,
# crystal, experimental, refinement or atomic coordinate data resulting
# from the CCDC's data processing and validation procedures.
#
#######################################################################

data_CSD_CIF_MNTBZA11
_audit_creation_date 1990-12-10
_audit_creation_method CSD-ConQuest-V1
_database_code_CSD MNTBZA11
_chemical_formula_sum 'C9 H9 N1 O4'
_chemical_formula_moiety
;
C9 H9 N1 O4
;
_journal_coden_Cambridge 1094
_journal_volume 1
_journal_year 1990
_journal_page_first 107
_journal_name_full 'Struct.Chem. '
loop_
_publ_author_name
"A.Domenicano"
"G.Schultz"
"I.Hargittai"
"M.Colapietro"
"G.Portalone"
"P.George"
"C.W.Bock"
_chemical_name_systematic
;
3,5-Dimethyl-4-nitrobenzoic acid
;
_chemical_melting_point 498.5
_cell_volume    942.303
_exptl_crystal_density_diffrn 1.376
_exptl_special_details
;
Melting point range 498.5-500K

;
_diffrn_ambient_temperature ?
_diffrn_special_details
;
The study was carried out at room temperature,in the range 283-303K

;
_refine_special_details
;
The carboxylic hydrogen is disordered over two positions with occupancies of 
0.39 and 0.61; the methyl hydrogens are disordered over two sets of positions 
with occupancies of 0.60 and 0.40(C8) and 0.66 and 0.34(C9); the oxygen atoms 
of the nitro group are disordered over three sets of positions with 
occupancies of 0.70, 0.15 and 0.15.
;
#These two values have been output from a single CSD field.
_refine_ls_R_factor_gt 0.0409
_refine_ls_wR_factor_gt 0.0409
_symmetry_cell_setting monoclinic
_symmetry_space_group_name_H-M 'P 21/c'
_symmetry_Int_Tables_number 14
loop_
_symmetry_equiv_pos_site_id
_symmetry_equiv_pos_as_xyz
1 x,y,z
2 -x,1/2+y,1/2-z
3 -x,-y,-z
4 x,-1/2-y,-1/2+z
_cell_length_a 8.262(5)
_cell_length_b 10.169(3)
_cell_length_c 11.967(9)
_cell_angle_alpha 90
_cell_angle_beta 110.41(5)
_cell_angle_gamma 90
_cell_formula_units_Z 4
loop_
_atom_type_symbol
_atom_type_radius_bond
C 0.68
H 0.23
N 0.68
O 0.68
loop_
_atom_site_label
_atom_site_type_symbol
_atom_site_fract_x
_atom_site_fract_y
_atom_site_fract_z
O1 O 0.44349(24) 0.38153(15) 0.39068(14)
O2 O 0.41958(22) 0.37999(15) 0.57064(13)
O3 O -0.0194(4) -0.2032(3) 0.3876(4)
O4 O 0.2262(6) -0.2808(3) 0.3929(4)
O5? O -0.019(2) -0.199(2) 0.329(1)
O6? O 0.023(2) -0.222(2) 0.442(1)
O7? O 0.192(3) -0.275(2) 0.355(2)
O8? O 0.213(2) -0.279(2) 0.451(1)
N1 N 0.13102(23) -0.19117(15) 0.39832(16)
C1 C 0.33704(23) 0.18910(15) 0.45287(16)
C2 C 0.27703(26) 0.13730(17) 0.33817(17)
C3 C 0.20663(24) 0.01162(17) 0.31721(16)
C4 C 0.20429(23) -0.05721(14) 0.41674(16)
C5 C 0.26450(23) -0.01078(16) 0.53319(16)
C6 C 0.33098(25) 0.11592(16) 0.54911(16)
C7 C 0.40522(24) 0.32607(16) 0.47158(16)
C8 C 0.13543(36) -0.04264(22) 0.19237(20)
C9 C 0.25661(34) -0.09025(20) 0.63713(20)
H1 H 0.480(8) 0.451(7) 0.407(5)
H2? H 0.458(5) 0.450(4) 0.578(3)
H3 H 0.281(3) 0.190(2) 0.271(2)
H4 H 0.14400 0.02400 0.13600
H5 H 0.20200 -0.12100 0.18600
H6 H 0.01400 -0.06700 0.17400
H7? H 0.09600 -0.13300 0.19500
H8? H 0.03800 0.01200 0.14400
H9? H 0.22600 -0.04200 0.15700
H10 H 0.28900 -0.03500 0.70900
H11 H 0.33700 -0.16500 0.65100
H12 H 0.19000 -0.12300 0.62000
H13? H 0.22100 -0.18000 0.61100
H14? H 0.17300 -0.05100 0.66800
H15? H 0.37100 -0.09200 0.70000
#END
