
#######################################################################
#
#                 Cambridge Crystallographic Data Centre
#                                CCDC
#
#######################################################################
#
# If this CIF has been generated from an entry in the Cambridge
# Structural Database, then it will include bibliographic, chemical,
# crystal, experimental, refinement or atomic coordinate data resulting
# from the CCDC's data processing and validation procedures.
#
#######################################################################

data_CSD_CIF_MOBNIA
_audit_creation_date 2002-07-11
_audit_creation_method CSD-ConQuest-V1
_database_code_CSD MOBNIA
_database_code_depnum_ccdc_archive 'CCDC 175808'
_chemical_formula_sum 'C27 H31 N1 O8'
_chemical_formula_moiety
;
C27 H31 N1 O8
;
_journal_coden_Cambridge 1336
_journal_volume 4
_journal_year 2002
_journal_page_first 1091
_journal_name_full 'Org.Lett. '
loop_
_publ_author_name
"O.Lepage"
"C.Stone"
"P.Deslongchamps"
_chemical_name_systematic
;
10-(Methoxycarbonyl)-17-(4-nitrobenzoato)estrane-1,7-dione
;
_cell_volume   1420.891
_exptl_crystal_density_diffrn 1.163
_diffrn_ambient_temperature ?
_diffrn_special_details
;
The study was carried out at room temperature,in the range 283-303K

;
#These two values have been output from a single CSD field.
_refine_ls_R_factor_gt 0.088
_refine_ls_wR_factor_gt 0.088
_symmetry_cell_setting monoclinic
_symmetry_space_group_name_H-M 'P 21'
_symmetry_Int_Tables_number 4
loop_
_symmetry_equiv_pos_site_id
_symmetry_equiv_pos_as_xyz
1 x,y,z
2 -x,1/2+y,-z
_cell_length_a 13.7982(8)
_cell_length_b 6.7955(5)
_cell_length_c 15.1806(16)
_cell_angle_alpha 90
_cell_angle_beta 93.415(6)
_cell_angle_gamma 90
_cell_formula_units_Z 2
loop_
_atom_type_symbol
_atom_type_radius_bond
C 0.68
H 0.23
N 0.68
O 0.68
loop_
_atom_site_label
_atom_site_type_symbol
_atom_site_fract_x
_atom_site_fract_y
_atom_site_fract_z
C1 C 0.7092(5) 0.0819(15) 0.7477(5)
C2 C 0.7837(6) -0.0744(17) 0.7369(6)
H1 H 0.84840 -0.01230 0.73430
H2 H 0.76910 -0.14430 0.68040
C3 C 0.7864(6) -0.2202(19) 0.8114(6)
H3 H 0.83270 -0.32680 0.79960
H4 H 0.80910 -0.15400 0.86690
C4 C 0.6875(5) -0.3066(15) 0.8215(5)
H5 H 0.69080 -0.39890 0.87210
H6 H 0.66760 -0.38230 0.76780
C5 C 0.6114(5) -0.1501(13) 0.8366(4)
H7 H 0.54710 -0.21860 0.83420
C6 C 0.6238(4) -0.0520(14) 0.9264(4)
H8 H 0.64000 -0.15220 0.97230
H9 H 0.67760 0.04440 0.92680
C7 C 0.5307(5) 0.0511(14) 0.9463(4)
C8 C 0.4750(4) 0.1446(13) 0.8683(4)
H10 H 0.45150 0.27460 0.88940
C9 C 0.5416(4) 0.1904(12) 0.7924(4)
H11 H 0.58950 0.28900 0.81740
C10 C 0.6049(4) 0.0112(13) 0.7634(4)
C11 C 0.4827(5) 0.3002(13) 0.7187(4)
H12 H 0.52300 0.31140 0.66710
H13 H 0.46990 0.43530 0.73950
C12 C 0.3843(5) 0.2042(14) 0.6880(4)
H14 H 0.34740 0.29440 0.64730
H15 H 0.39640 0.08080 0.65570
C13 C 0.3254(5) 0.1596(14) 0.7664(4)
C14 C 0.3853(4) 0.0330(13) 0.8336(4)
H16 H 0.40880 -0.08320 0.80050
C15 C 0.3124(5) -0.0450(15) 0.8964(4)
H17 H 0.30140 0.05160 0.94360
H18 H 0.33500 -0.17030 0.92370
C16 C 0.2195(5) -0.0763(16) 0.8367(5)
H19 H 0.16350 -0.00900 0.86140
H20 H 0.20440 -0.21820 0.83050
C17 C 0.2422(5) 0.0145(14) 0.7463(4)
H21 H 0.26450 -0.09170 0.70670
C18 C 0.2864(6) 0.3477(15) 0.8058(5)
H22 H 0.34070 0.42870 0.82930
H23 H 0.24450 0.31420 0.85360
H24 H 0.24880 0.42130 0.76000
C19 C 0.5643(5) -0.0835(13) 0.6778(4)
C20 C 0.5614(6) -0.0645(16) 0.5212(4)
H25 H 0.58350 0.02270 0.47510
H26 H 0.49030 -0.06880 0.51770
H27 H 0.58700 -0.19720 0.51290
C21 C 0.0902(5) 0.0044(16) 0.6637(5)
C22 C 0.0085(5) 0.1276(15) 0.6259(4)
C23 C -0.0600(5) 0.0386(17) 0.5697(5)
H28 H -0.05310 -0.09560 0.55360
C24 C -0.1399(5) 0.1478(19) 0.5366(5)
H29 H -0.18850 0.08850 0.49840
C25 C -0.1470(5) 0.3413(18) 0.5599(5)
C26 C -0.0794(6) 0.4327(18) 0.6152(6)
H30 H -0.08670 0.56700 0.63090
C27 C 0.0007(6) 0.3243(17) 0.6481(5)
H31 H 0.04950 0.38510 0.68560
N1 N -0.2307(6) 0.4553(19) 0.5245(6)
O1 O 0.7298(4) 0.2523(12) 0.7480(5)
O2 O 0.5026(4) 0.0606(12) 1.0203(3)
O3 O 0.5109(4) -0.2232(11) 0.6719(3)
O4 O 0.5962(3) 0.0101(11) 0.6078(3)
O5 O 0.1590(3) 0.11350 0.7038(3)
O6 O 0.0913(5) -0.1728(13) 0.6588(4)
O7 O -0.2280(8) 0.634(2) 0.5342(7)
O8 O -0.2955(5) 0.3716(18) 0.4843(5)
#END
