
#######################################################################
#
#                 Cambridge Crystallographic Data Centre
#                                CCDC
#
#######################################################################
#
# If this CIF has been generated from an entry in the Cambridge
# Structural Database, then it will include bibliographic, chemical,
# crystal, experimental, refinement or atomic coordinate data resulting
# from the CCDC's data processing and validation procedures.
#
#######################################################################

data_CSD_CIF_MOFHEU
_audit_creation_date 2002-08-21
_audit_creation_method CSD-ConQuest-V1
_database_code_CSD MOFHEU
_database_code_depnum_ccdc_archive 'CCDC 177269'
_chemical_formula_sum 'C39 H45 N3 O15'
_chemical_formula_moiety
;
C39 H45 N3 O15
;
_journal_coden_Cambridge 15
_journal_volume 80
_journal_year 2002
_journal_page_first 207
_journal_name_full 'Can.J.Chem. '
loop_
_publ_author_name
"T.Yamato"
"K.Tsuchihashi"
"N.Nakamura"
"M.Hirahara"
"H.Tsuzuki"
_chemical_name_systematic
;
9,18,27-tris((Ethoxycarbonyl)methoxy)-6,15,24-trinitro(3.3.3)metacyclophane
;
_chemical_melting_point 520.15
_cell_volume  16171.245
_exptl_crystal_colour 'pale yellow'
_exptl_crystal_density_diffrn 1.307
_exptl_special_details
;
Melting point range 520.15-522.15K
cone conformer

;
_exptl_crystal_description 'prism'
_exptl_crystal_preparation 'chloroform/methanol'
_diffrn_ambient_temperature 293
_refine_special_details
;
The atoms C10, O4 and C12-13 are disordered over two sites with respective 
occupancies of 0.73:0.27 and 0.52:0.48.
;
#These two values have been output from a single CSD field.
_refine_ls_R_factor_gt 0.0921
_refine_ls_wR_factor_gt 0.0921
_symmetry_cell_setting cubic
_symmetry_space_group_name_H-M 'I a -3'
_symmetry_Int_Tables_number 206
loop_
_symmetry_equiv_pos_site_id
_symmetry_equiv_pos_as_xyz
1 x,y,z
2 z,x,y
3 y,z,x
4 1/2+x,1/2+y,1/2+z
5 1/2+z,1/2+x,1/2+y
6 1/2+y,1/2+z,1/2+x
7 x,1/2+y,-z
8 -x,y,1/2+z
9 1/2+x,-y,z
10 z,1/2+x,-y
11 1/2+y,-z,x
12 -z,x,1/2+y
13 y,1/2+z,-x
14 1/2+z,-x,y
15 -y,z,1/2+x
16 1/2+x,y,1/2-z
17 1/2-x,1/2+y,z
18 x,1/2-y,1/2+z
19 1/2+z,x,1/2-y
20 y,1/2-z,1/2+x
21 1/2-z,1/2+x,y
22 1/2+y,z,1/2-x
23 z,1/2-x,1/2+y
24 1/2-y,1/2+z,x
25 -x,-y,-z
26 -z,-x,-y
27 -y,-z,-x
28 -1/2-x,-1/2-y,-1/2-z
29 -1/2-z,-1/2-x,-1/2-y
30 -1/2-y,-1/2-z,-1/2-x
31 -x,-1/2-y,z
32 x,-y,-1/2-z
33 -1/2-x,y,-z
34 -z,-1/2-x,y
35 -1/2-y,z,-x
36 z,-x,-1/2-y
37 -y,-1/2-z,x
38 -1/2-z,x,-y
39 y,-z,-1/2-x
40 -1/2-x,-y,-1/2+z
41 -1/2+x,-1/2-y,-z
42 -x,-1/2+y,-1/2-z
43 -1/2-z,-x,-1/2+y
44 -y,-1/2+z,-1/2-x
45 -1/2+z,-1/2-x,-y
46 -1/2-y,-z,-1/2+x
47 -z,-1/2+x,-1/2-y
48 -1/2+y,-1/2-z,-x
_cell_length_a 25.288(4)
_cell_length_b 25.288(4)
_cell_length_c 25.288(4)
_cell_angle_alpha 90
_cell_angle_beta 90
_cell_angle_gamma 90
_cell_formula_units_Z 16
loop_
_atom_type_symbol
_atom_type_radius_bond
C 0.68
H 0.23
N 0.68
O 0.68
loop_
_atom_site_label
_atom_site_type_symbol
_atom_site_fract_x
_atom_site_fract_y
_atom_site_fract_z
C1 C 0.7840(2) 0.7093(2) 0.5714(2)
H1 H 0.7612(2) 0.6893(2) 0.5479(2)
H2 H 0.8087(2) 0.7292(2) 0.5499(2)
C2 C 0.7502(2) 0.7479(2) 0.6045(2)
H3 H 0.7288(2) 0.7278(2) 0.6292(2)
H4 H 0.7735(2) 0.7705(2) 0.6250(2)
C3 C 0.7139(2) 0.7825(2) 0.5706(2)
H5 H 0.7352(2) 0.8070(2) 0.5502(2)
H6 H 0.6947(2) 0.7603(2) 0.5459(2)
C4 C 0.6750(2) 0.8132(2) 0.6042(2)
C5 C 0.6799(2) 0.8671(2) 0.6096(2)
H7 H 0.7050(2) 0.8854(2) 0.5899(2)
C6 C 0.6475(2) 0.8941(2) 0.6445(2)
C7 C 0.6117(2) 0.8679(2) 0.6764(2)
H8 H 0.5915(2) 0.8866(2) 0.7007(2)
C8 C 0.8139(2) 0.6719(2) 0.6062(2)
C9 C 0.6360(2) 0.7876(2) 0.6332(2)
C10 C 0.6109(3) 0.7168(3) 0.5761(3)
H9 H 0.6122(3) 0.7466(3) 0.5520(3)
H10 H 0.6350(3) 0.6900(3) 0.5630(3)
C11? C 0.7166(9) 0.6168(10) 0.5772(9)
H11? H 0.6920(9) 0.6451(10) 0.5690(9)
H12? H 0.7473(9) 0.623(1) 0.5551(9)
C12 C 0.5585(3) 0.6958(4) 0.5765(4)
C13 C 0.4880(7) 0.6702(11) 0.5196(8)
H13 H 0.4796(7) 0.6903(11) 0.4880(8)
H14 H 0.4636(7) 0.6814(11) 0.5471(8)
C14 C 0.4780(8) 0.6122(23) 0.5082(11)
H15 H 0.4415(8) 0.6071(23) 0.4994(11)
H16 H 0.4867(8) 0.5916(23) 0.5388(11)
H17 H 0.4997(8) 0.6012(23) 0.4790(11)
C15? C 0.6581(24) 0.4927(14) 0.5083(22)
H18? H 0.6344(24) 0.4704(14) 0.5286(22)
H19? H 0.6813(24) 0.4724(14) 0.4854(22)
C16? C 0.6325(18) 0.5422(14) 0.4829(11)
H20? H 0.6091(18) 0.5314(14) 0.4550(11)
H21? H 0.6597(18) 0.5646(14) 0.4688(11)
H22? H 0.6129(18) 0.5612(14) 0.5093(11)
N1 N 0.6525(2) 0.9513(3) 0.6494(3)
O1 O 0.62824(12) 0.73383(13) 0.62768(13)
O2 O 0.6877(2) 0.9733(2) 0.6239(3)
O3 O 0.6235(2) 0.9747(3) 0.6800(3)
O4 O 0.5375(3) 0.6832(3) 0.5350(3)
O5 O 0.5286(3) 0.6909(3) 0.6188(3)
O6? O 0.6937(9) 0.5308(7) 0.6100(8)
C8A C 0.6062(2) 0.8139(2) 0.6719(2)
C1A C 0.5714(2) 0.7840(2) 0.7093(2)
H1A H 0.5479(2) 0.7612(2) 0.6893(2)
H2A H 0.5499(2) 0.8087(2) 0.7292(2)
C2A C 0.6045(2) 0.7502(2) 0.7479(2)
H3A H 0.6292(2) 0.7288(2) 0.7278(2)
H4A H 0.6250(2) 0.7735(2) 0.7705(2)
C3A C 0.5706(2) 0.7139(2) 0.7825(2)
H5A H 0.5502(2) 0.7352(2) 0.8070(2)
H6A H 0.5459(2) 0.6947(2) 0.7603(2)
C4A C 0.6042(2) 0.6750(2) 0.8132(2)
C5A C 0.6096(2) 0.6799(2) 0.8671(2)
H7A H 0.5899(2) 0.7050(2) 0.8854(2)
C6A C 0.6445(2) 0.6475(2) 0.8941(2)
C7A C 0.6764(2) 0.6117(2) 0.8679(2)
H8A H 0.7007(2) 0.5915(2) 0.8866(2)
C8B C 0.6719(2) 0.6062(2) 0.8139(2)
C1B C 0.7093(2) 0.5714(2) 0.7840(2)
H1B H 0.6893(2) 0.5479(2) 0.7612(2)
H2B H 0.7292(2) 0.5499(2) 0.8087(2)
C2B C 0.7479(2) 0.6045(2) 0.7502(2)
H3B H 0.7278(2) 0.6292(2) 0.7288(2)
H4B H 0.7705(2) 0.6250(2) 0.7735(2)
C3B C 0.7825(2) 0.5706(2) 0.7139(2)
H5B H 0.8070(2) 0.5502(2) 0.7352(2)
H6B H 0.7603(2) 0.5459(2) 0.6947(2)
C4B C 0.8132(2) 0.6042(2) 0.6750(2)
C5B C 0.8671(2) 0.6096(2) 0.6799(2)
H7B H 0.8854(2) 0.5899(2) 0.7050(2)
C6B C 0.8941(2) 0.6445(2) 0.6475(2)
C7B C 0.8679(2) 0.6764(2) 0.6117(2)
H8B H 0.8866(2) 0.7007(2) 0.5915(2)
C9B C 0.7876(2) 0.6332(2) 0.6360(2)
O1B O 0.73383(12) 0.62768(13) 0.62824(13)
C10B C 0.7168(3) 0.5761(3) 0.6109(3)
H9B H 0.7466(3) 0.5520(3) 0.6122(3)
H10B H 0.6900(3) 0.5630(3) 0.6350(3)
C12B C 0.6958(3) 0.5765(4) 0.5585(4)
O4B O 0.6832(3) 0.5350(3) 0.5375(3)
C13B C 0.6702(7) 0.5196(11) 0.4880(8)
H13B H 0.6903(7) 0.4880(11) 0.4796(8)
H14B H 0.6814(7) 0.5471(11) 0.4636(8)
C14B C 0.6122(8) 0.5082(23) 0.4780(11)
H15B H 0.6071(8) 0.4994(23) 0.4415(11)
H16B H 0.5916(8) 0.5388(23) 0.4867(11)
H17B H 0.6012(8) 0.4790(23) 0.4997(11)
O5B O 0.6909(3) 0.6188(3) 0.5286(3)
N1B N 0.9513(2) 0.6494(3) 0.6525(3)
O2B O 0.9733(2) 0.6239(2) 0.6877(3)
O3B O 0.9747(2) 0.6800(3) 0.6235(3)
C9A C 0.6332(2) 0.6360(2) 0.7876(2)
O1A O 0.62768(12) 0.62824(13) 0.73383(13)
C10A C 0.5761(3) 0.6109(3) 0.7168(3)
H9A H 0.5520(3) 0.6122(3) 0.7466(3)
H10A H 0.5630(3) 0.6350(3) 0.6900(3)
C12A C 0.5765(3) 0.5585(4) 0.6958(4)
O4A O 0.5350(3) 0.5375(3) 0.6832(3)
C13A C 0.5196(7) 0.4880(11) 0.6702(8)
H13A H 0.4880(7) 0.4796(11) 0.6903(8)
H14A H 0.5471(7) 0.4636(11) 0.6814(8)
C14A C 0.5082(8) 0.4780(23) 0.6122(11)
H15A H 0.4994(8) 0.4415(23) 0.6071(11)
H16A H 0.5388(8) 0.4867(23) 0.5916(11)
H17A H 0.4790(8) 0.4997(23) 0.6012(11)
O5A O 0.6188(3) 0.5286(3) 0.6909(3)
N1A N 0.6494(2) 0.6525(3) 0.9513(3)
O2A O 0.6239(2) 0.6877(2) 0.9733(3)
O3A O 0.6800(2) 0.6235(3) 0.9747(3)
#END
