
#######################################################################
#
#                 Cambridge Crystallographic Data Centre
#                                CCDC
#
#######################################################################
#
# If this CIF has been generated from an entry in the Cambridge
# Structural Database, then it will include bibliographic, chemical,
# crystal, experimental, refinement or atomic coordinate data resulting
# from the CCDC's data processing and validation procedures.
#
#######################################################################

data_CSD_CIF_MOFJIB
_audit_creation_date 2009-02-24
_audit_creation_method CSD-ConQuest-V1
_database_code_CSD MOFJIB
_database_code_depnum_ccdc_archive 'CCDC 687981'
_chemical_formula_sum 'C28 H30 N4 O10'
_chemical_formula_moiety
;
C28 H30 N4 O10
;
_journal_coden_Cambridge 9
_journal_volume 47
_journal_year 2008
_journal_page_first 3255
_journal_name_full 'Inorg.Chem. '
loop_
_publ_author_name
"S.Akine"
"T.Taniguchi"
"T.Nabeshima"
_chemical_name_systematic
;
3,6-bis(8-(2-Hydroxy-3-methoxyphenyl)-3,6-dioxa-2,7-diazaocta-1,7-dien-1-yl)be
nzene-1,2-diol
;
_cell_volume   1353.191
_exptl_crystal_colour 'colorless'
_exptl_crystal_density_diffrn 1.43
_exptl_crystal_description 'needle'
_diffrn_ambient_temperature 90
#These two values have been output from a single CSD field.
_refine_ls_R_factor_gt 0.0623
_refine_ls_wR_factor_gt 0.0623
_symmetry_cell_setting monoclinic
_symmetry_space_group_name_H-M 'P n'
_symmetry_Int_Tables_number 7
loop_
_symmetry_equiv_pos_site_id
_symmetry_equiv_pos_as_xyz
1 x,y,z
2 1/2+x,-y,1/2+z
_cell_length_a 4.5616(7)
_cell_length_b 37.891(5)
_cell_length_c 7.9858(11)
_cell_angle_alpha 90
_cell_angle_beta 101.373(2)
_cell_angle_gamma 90
_cell_formula_units_Z 2
loop_
_atom_type_symbol
_atom_type_radius_bond
C 0.68
H 0.23
N 0.68
O 0.68
loop_
_atom_site_label
_atom_site_type_symbol
_atom_site_fract_x
_atom_site_fract_y
_atom_site_fract_z
C1 C 0.6162(16) 0.09915(17) -0.1546(8)
C2 C 0.5539(15) 0.06992(17) -0.0600(8)
C3 C 0.3231(14) 0.04673(16) -0.1304(8)
C4 C 0.1601(15) 0.05306(17) -0.2890(8)
H1 H 0.00400 0.03730 -0.33730
C5 C 0.2216(16) 0.08315(18) -0.3835(9)
H2 H 0.11000 0.08700 -0.49560
C6 C 0.4395(17) 0.10640(19) -0.3140(8)
H3 H 0.47060 0.12730 -0.37360
O1 O 0.7127(11) 0.06196(12) 0.0997(5)
H4 H 0.87200 0.07370 0.11890
O2 O 0.2814(10) 0.01881(11) -0.0315(6)
C7 C 0.0454(16) -0.00499(19) -0.0978(9)
H5 H -0.14540 0.00770 -0.11890
H6 H 0.03930 -0.02390 -0.01500
H7 H 0.08010 -0.01510 -0.20510
C8 C 0.8584(15) 0.12413(17) -0.0851(8)
H8 H 0.89240 0.14380 -0.15270
N1 N 1.0216(12) 0.12026(13) 0.0609(6)
O3 O 1.2413(10) 0.14693(12) 0.0965(5)
C9 C 1.4097(15) 0.14146(17) 0.2700(8)
H9 H 1.51730 0.11860 0.27820
H10 H 1.27310 0.14130 0.35210
C10 C 1.6267(16) 0.17127(16) 0.3085(8)
H11 H 1.75790 0.16720 0.42120
H12 H 1.75430 0.17180 0.22160
O4 O 1.4809(10) 0.20466(11) 0.3100(5)
N2 N 1.3475(13) 0.20604(15) 0.4596(7)
C11 C 1.1961(16) 0.2353(2) 0.4551(9)
H13 H 1.18630 0.25130 0.36240
C12 C 1.0445(15) 0.24312(19) 0.5918(9)
C13 C 1.0603(15) 0.22251(17) 0.7367(9)
C14 C 0.9296(16) 0.23162(18) 0.8693(9)
C15 C 0.7540(15) 0.26103(19) 0.8613(9)
C16 C 0.7138(15) 0.28247(17) 0.7168(9)
H14 H 0.58620 0.30250 0.70880
C17 C 0.8658(16) 0.27433(18) 0.5797(9)
H15 H 0.84750 0.28940 0.48310
O5 O 1.2227(8) 0.19312(9) 0.7547(5)
H16 H 1.29930 0.19020 0.66820
O6 O 0.9541(9) 0.21243(9) 1.0094(5)
H17 H 1.05960 0.19460 1.00140
C18 C 0.6064(16) 0.2695(2) 1.0073(9)
H18 H 0.62410 0.25320 1.09930
N3 N 0.4604(13) 0.29718(15) 1.0128(8)
O7 O 0.3284(10) 0.29812(11) 1.1559(5)
C19 C 0.1893(16) 0.33151(16) 1.1663(9)
H19 H 0.05910 0.33000 1.25170
H20 H 0.06060 0.33700 1.05430
C20 C 0.4124(15) 0.36165(17) 1.2157(8)
H21 H 0.54580 0.36340 1.13220
H22 H 0.30450 0.38430 1.21610
O8 O 0.5818(10) 0.35460(12) 1.3800(5)
N4 N 0.8043(12) 0.38139(13) 1.4172(6)
C21 C 0.9766(15) 0.37548(17) 1.5633(8)
H23 H 0.94310 0.35550 1.62910
C22 C 1.2205(16) 0.39933(17) 1.6264(8)
C23 C 1.2734(14) 0.43002(18) 1.5405(8)
C24 C 1.5076(15) 0.45315(16) 1.6116(8)
C25 C 1.6800(15) 0.44604(17) 1.7728(8)
H24 H 1.83070 0.46220 1.82360
C26 C 1.6327(17) 0.41574(19) 1.8586(9)
H25 H 1.75760 0.41030 1.96530
C27 C 1.4029(17) 0.39334(19) 1.7885(8)
H26 H 1.36580 0.37310 1.85170
O9 O 1.1062(11) 0.43889(12) 1.3857(6)
H27 H 0.98880 0.42230 1.34940
O10 O 1.5424(11) 0.48177(11) 1.5122(6)
C28 C 1.7861(15) 0.50569(19) 1.5813(9)
H28 H 1.75660 0.51490 1.69140
H29 H 1.78910 0.52530 1.50170
H30 H 1.97650 0.49290 1.59740
#END
