
#######################################################################
#
#                 Cambridge Crystallographic Data Centre
#                                CCDC
#
#######################################################################
#
# If this CIF has been generated from an entry in the Cambridge
# Structural Database, then it will include bibliographic, chemical,
# crystal, experimental, refinement or atomic coordinate data resulting
# from the CCDC's data processing and validation procedures.
#
#######################################################################

data_CSD_CIF_MOGLIF
_audit_creation_date 2014-08-07
_audit_creation_method CSD-ConQuest-V1
_database_code_CSD MOGLIF
_database_code_depnum_ccdc_archive 'CCDC 977397'
_chemical_formula_sum 'C22 H30 N2 O5'
_chemical_formula_moiety
;
C22 H30 N2 O5
;
_journal_coden_Cambridge 1220
_journal_year 2014
_journal_name_full 'Chem.-Eur.J. '
loop_
_publ_author_name
"A.Cannillo"
"S.Norsikian"
"M.-E.T.H.Dau"
"P.Retailleau"
"B.I.Iorga"
"J.-M.Beau"
_chemical_name_systematic
;
(6-(1-Hydroxyhexyl)-1a-methyloctahydro-5H-oxireno[e]isoindol-5-yl)(4-nitrophen
yl)methanone
;
_cell_volume   1692.254
_exptl_crystal_colour 'colorless'
_exptl_crystal_density_diffrn 1.185
_exptl_special_details
;
Absolute configuration

;
_exptl_crystal_description 'needle'
_exptl_crystal_preparation 'ethyl acetate'
_diffrn_ambient_temperature 293
_diffrn_special_details
;
twin

;
#These two values have been output from a single CSD field.
_refine_ls_R_factor_gt 0.0303
_refine_ls_wR_factor_gt 0.0303
_symmetry_cell_setting hexagonal
_symmetry_space_group_name_H-M 'P 32'
_symmetry_Int_Tables_number 145
loop_
_symmetry_equiv_pos_site_id
_symmetry_equiv_pos_as_xyz
1 x,y,z
2 -y,x-y,2/3+z
3 -x+y,-x,1/3+z
_cell_length_a 12.7135(10)
_cell_length_b 12.7135(10)
_cell_length_c 12.0894(8)
_cell_angle_alpha 90
_cell_angle_beta 90
_cell_angle_gamma 120
_cell_formula_units_Z 3
loop_
_atom_type_symbol
_atom_type_radius_bond
C 0.68
H 0.23
N 0.68
O 0.68
loop_
_atom_site_label
_atom_site_type_symbol
_atom_site_fract_x
_atom_site_fract_y
_atom_site_fract_z
O1 O 0.36788(18) 0.62633(17) 0.78099(17)
O2 O 0.3133(2) 0.22397(19) 0.77375(19)
O3 O -0.1090(3) 0.7610(3) 0.8055(3)
O4 O -0.0707(4) 0.7583(4) 0.6321(4)
O5 O 0.3849(2) 0.5066(2) 1.08857(16)
H1 H 0.34790 0.54420 1.08880
N1 N 0.23929(19) 0.4709(2) 0.88859(17)
N2 N -0.0608(3) 0.7381(3) 0.7290(4)
C1 C 0.4308(3) 0.5096(3) 0.9804(2)
H2 H 0.46940 0.59330 0.95280
C2 C 0.5264(3) 0.4721(3) 0.9885(3)
H3 H 0.48720 0.38730 1.01010
H4 H 0.58320 0.51920 1.04660
C3 C 0.5970(3) 0.4887(4) 0.8820(3)
H5 H 0.54040 0.43790 0.82520
H6 H 0.63190 0.57240 0.85830
C4 C 0.6977(3) 0.4584(4) 0.8901(3)
H7 H 0.75020 0.49270 0.82630
H8 H 0.74570 0.49790 0.95530
C5 C 0.6579(4) 0.3281(4) 0.8960(4)
H9 H 0.60230 0.28640 0.83550
H10 H 0.61410 0.29530 0.96470
C6 C 0.7639(5) 0.3024(5) 0.8900(4)
H11 H 0.81530 0.33690 0.95340
H12 H 0.81010 0.33810 0.82390
H13 H 0.73240 0.21630 0.88870
C7 C 0.3281(2) 0.4283(2) 0.9017(2)
H14 H 0.36290 0.42910 0.82910
C8 C 0.1533(3) 0.6234(3) 0.6951(2)
H15 H 0.19350 0.60880 0.63820
C9 C 0.1188(3) 0.3799(3) 0.9306(3)
H16 H 0.05430 0.38080 0.88840
H17 H 0.10960 0.39350 1.00800
C10 C 0.0824(3) 0.2130(3) 0.7980(3)
H18 H 0.13580 0.27420 0.74540
H19 H 0.00020 0.19600 0.78390
C11 C 0.0885(4) 0.0979(3) 0.7806(3)
H20 H 0.02490 0.03270 0.82370
H21 H 0.07350 0.07490 0.70330
C12 C 0.2096(3) 0.1125(3) 0.8137(3)
C13 C 0.2871(3) 0.2110(3) 0.8902(3)
H22 H 0.34200 0.19590 0.93580
C14 C 0.0756(3) 0.6655(3) 0.6714(3)
H23 H 0.06220 0.67910 0.59850
C15 C 0.1721(3) 0.6024(3) 0.8044(2)
C16 C 0.1103(3) 0.6229(3) 0.8881(2)
H24 H 0.12070 0.60680 0.96110
C17 C 0.0338(3) 0.6668(3) 0.8641(3)
H25 H -0.00660 0.68230 0.92030
C18 C 0.0182(3) 0.6873(3) 0.7557(3)
C19 C 0.2240(4) 0.0026(3) 0.8037(4)
H26 H 0.30270 0.02180 0.83040
H27 H 0.21600 -0.02160 0.72750
H28 H 0.16240 -0.06250 0.84670
C20 C 0.2658(3) 0.5665(3) 0.8248(2)
C21 C 0.1189(3) 0.2623(3) 0.9141(3)
H29 H 0.06360 0.20180 0.96750
C22 C 0.2492(2) 0.2951(3) 0.9401(2)
H30 H 0.25710 0.29310 1.02060
#END
