
#######################################################################
#
#                 Cambridge Crystallographic Data Centre
#                                CCDC
#
#######################################################################
#
# If this CIF has been generated from an entry in the Cambridge
# Structural Database, then it will include bibliographic, chemical,
# crystal, experimental, refinement or atomic coordinate data resulting
# from the CCDC's data processing and validation procedures.
#
#######################################################################

data_CSD_CIF_MOKBOF
_audit_creation_date 2014-08-08
_audit_creation_method CSD-ConQuest-V1
_database_code_CSD MOKBOF
_database_code_depnum_ccdc_archive 'CCDC 1017949'
_chemical_formula_sum 'C12 H20 N1 O2'
_chemical_formula_moiety
;
C12 H20 N1 O2
;
_journal_coeditor_code "IUCr hb7267"
_journal_coden_Cambridge 1370
_journal_volume 70
_journal_year 2014
_journal_page_first 130
_journal_name_full 'Acta Crystallogr.,Sect.E:Struct.Rep.Online '
loop_
_publ_author_name
"S.K.Goswami"
"L.R.Hanton"
"C.J.McAdam"
"S.C.Moratti"
"J.Simpson"
_chemical_name_systematic
;
4-(Prop-2-ynyloxy)-2,2,6,6-tetramethylpiperidin-1-oxyl
;
_cell_volume   1197.360
_exptl_crystal_colour 'colorless'
_exptl_crystal_density_diffrn 1.167
_exptl_crystal_description 'block'
_diffrn_ambient_temperature 100
#These two values have been output from a single CSD field.
_refine_ls_R_factor_gt 0.043
_refine_ls_wR_factor_gt 0.043
_symmetry_cell_setting orthorhombic
_symmetry_space_group_name_H-M 'P 21 21 21'
_symmetry_Int_Tables_number 19
loop_
_symmetry_equiv_pos_site_id
_symmetry_equiv_pos_as_xyz
1 x,y,z
2 1/2-x,-y,1/2+z
3 -x,1/2+y,1/2-z
4 1/2+x,1/2-y,-z
_cell_length_a 7.94506(13)
_cell_length_b 10.17919(16)
_cell_length_c 14.8052(3)
_cell_angle_alpha 90
_cell_angle_beta 90
_cell_angle_gamma 90
_cell_formula_units_Z 4
loop_
_atom_type_symbol
_atom_type_radius_bond
C 0.68
H 0.23
N 0.68
O 0.68
loop_
_atom_site_label
_atom_site_type_symbol
_atom_site_fract_x
_atom_site_fract_y
_atom_site_fract_z
O1 O 0.3936(3) 0.73046(19) 0.71556(15)
N1 N 0.3444(3) 0.8315(2) 0.67027(16)
C1 C 0.2036(4) 0.9093(3) 0.71116(19)
C2 C 0.2698(4) 0.9827(3) 0.7945(2)
H1 H 0.33100 0.92140 0.83350
H2 H 0.17500 1.02050 0.82800
H3 H 0.34570 1.05330 0.77530
C3 C 0.0670(4) 0.8118(3) 0.7398(2)
H4 H 0.03010 0.76110 0.68720
H5 H -0.02890 0.85990 0.76510
H6 H 0.11250 0.75200 0.78560
C4 C 0.1325(3) 1.0046(3) 0.6408(2)
H7 H 0.06540 0.95430 0.59640
H8 H 0.05580 1.06710 0.67140
C5 C 0.2663(4) 1.0812(3) 0.59126(19)
H9 H 0.33310 1.13640 0.63410
C6 C 0.3796(4) 0.9843(3) 0.54137(19)
H10 H 0.46640 1.03420 0.50780
H11 H 0.31100 0.93570 0.49660
C7 C 0.4674(4) 0.8850(3) 0.6036(2)
C8 C 0.6167(4) 0.9461(3) 0.6539(2)
H12 H 0.58030 1.02700 0.68400
H13 H 0.70650 0.96650 0.61080
H14 H 0.65870 0.88390 0.69910
C9 C 0.5300(4) 0.7698(3) 0.5464(2)
H15 H 0.59340 0.70870 0.58460
H16 H 0.60310 0.80280 0.49820
H17 H 0.43350 0.72400 0.51970
O2 O 0.1772(3) 1.16202(19) 0.52724(14)
C10 C 0.2733(4) 1.2682(3) 0.4916(2)
H18 H 0.22010 1.29920 0.43500
H19 H 0.38770 1.23620 0.47650
C11 C 0.2872(4) 1.3793(3) 0.5551(2)
C12 C 0.2975(4) 1.4705(3) 0.6048(2)
H20 H 0.30580 1.54350 0.64450
#END
