
#######################################################################
#
#                 Cambridge Crystallographic Data Centre
#                                CCDC
#
#######################################################################
#
# If this CIF has been generated from an entry in the Cambridge
# Structural Database, then it will include bibliographic, chemical,
# crystal, experimental, refinement or atomic coordinate data resulting
# from the CCDC's data processing and validation procedures.
#
#######################################################################

data_CSD_CIF_MOKFEY
_audit_creation_date 2009-02-24
_audit_creation_method CSD-ConQuest-V1
_database_code_CSD MOKFEY
_database_code_depnum_ccdc_archive 'CCDC 707858'
_chemical_formula_sum 'C22 H20 N4 O8'
_chemical_formula_moiety
;
C22 H20 N4 O8
;
_journal_coden_Cambridge 1147
_journal_volume 8
_journal_year 2008
_journal_page_first 3257
_journal_name_full 'Cryst.Growth Des. '
loop_
_publ_author_name
"D.Ntirampebura"
"B.Jagadish"
"G.S.Nichol"
"M.D.Carducci"
"A.Dawson"
"A.Rajapakshe"
"A.G.Oliver"
"W.Clegg"
"R.W.Harrington"
"L.Layne Junior"
"J.I.Margolis"
"E.A.Mash"
_chemical_name_systematic
;
meso-4,4''-Dimethoxy-7,7''-dinitro-1,1'',3,3''-tetrahydro-3'H,6'H-dispiro[inde
ne-2,2'-piperazine-5',2''-indene]-3',6'-dione
;
_chemical_melting_point 573.15
_cell_volume    976.293
_exptl_crystal_colour 'colorless'
_exptl_crystal_density_diffrn 1.593
_exptl_special_details
;
Melts above 573.15K

;
_exptl_crystal_description 'shard'
_exptl_crystal_preparation 'dmso'
_diffrn_ambient_temperature 120
_diffrn_radiation_probe x-ray
_diffrn_source synchrotron
_refine_special_details
;
The nitro and methoxy groups are disordered over two sites with occupancies 
of 0.765:0.235. The piperazinedione ring is disordered by symmetry.
;
#These two values have been output from a single CSD field.
_refine_ls_R_factor_gt 0.0598
_refine_ls_wR_factor_gt 0.0598
_symmetry_cell_setting monoclinic
_symmetry_space_group_name_H-M 'C 2/m'
_symmetry_Int_Tables_number 12
loop_
_symmetry_equiv_pos_site_id
_symmetry_equiv_pos_as_xyz
1 x,y,z
2 1/2+x,1/2+y,z
3 -x,y,-z
4 1/2-x,1/2+y,-z
5 -x,-y,-z
6 -1/2-x,-1/2-y,-z
7 x,-y,z
8 -1/2+x,-1/2-y,z
_cell_length_a 17.149(7)
_cell_length_b 6.368(3)
_cell_length_c 9.310(4)
_cell_angle_alpha 90
_cell_angle_beta 106.207(6)
_cell_angle_gamma 90
_cell_formula_units_Z 2
loop_
_atom_type_symbol
_atom_type_radius_bond
C 0.68
H 0.23
N 0.68
O 0.68
loop_
_atom_site_label
_atom_site_type_symbol
_atom_site_fract_x
_atom_site_fract_y
_atom_site_fract_z
C1 C 0.03413(12) 0.1924(3) 0.0526(2)
O1 O 0.07378(18) 0.3528(5) 0.1229(3)
O2 O 0.0913(2) 0.00000 0.5946(3)
O3 O 0.2001(2) 0.00000 0.7683(2)
N1 N 0.1614(2) 0.00000 0.6287(3)
C2 C 0.4255(2) 0.00000 0.2674(6)
H1 H 0.44820 0.00000 0.18170
H2 H 0.44380 -0.12570 0.32820
H3 H 0.44380 0.12570 0.32820
O4 O 0.33992(16) 0.00000 0.2155(4)
N2 N -0.03413(12) 0.1924(3) -0.0526(2)
H4? H 0.05650 0.31450 0.08370
O5? O 0.1614(2) 0.00000 0.6287(3)
C3? C 0.2001(2) 0.00000 0.7683(2)
H5? H 0.16120 0.00000 0.82800
H6? H 0.23430 0.12570 0.79170
H7? H 0.23430 -0.12570 0.79170
O6? O 0.4255(2) 0.00000 0.2674(6)
N3? N 0.33992(16) 0.00000 0.2155(4)
O7? O 0.3273(7) 0.00000 0.1007(13)
C4 C 0.20886(17) 0.00000 0.5253(3)
C5 C 0.29192(19) 0.00000 0.5764(3)
H8 H 0.31810 0.00000 0.68080
C6 C 0.33682(18) 0.00000 0.4760(4)
H9 H 0.39440 0.00000 0.51150
C7 C 0.30012(17) 0.00000 0.3250(3)
C8 C 0.21569(16) 0.00000 0.2739(3)
C9 C 0.17011(16) 0.00000 0.3728(3)
C10 C 0.08183(19) 0.00000 0.2930(3)
H10 H 0.0501(16) 0.093(4) 0.322(3)
C11 C 0.07693(17) 0.00000 0.1240(3)
C12 C 0.16563(19) 0.00000 0.1145(3)
H11 H 0.1786(16) 0.134(5) 0.062(3)
C1D C -0.03413(12) -0.1924(3) -0.0526(2)
C1F C 0.03413(12) -0.1924(3) 0.0526(2)
O1B O -0.07378(18) 0.3528(5) -0.1229(3)
O1F O 0.07378(18) -0.3528(5) 0.1229(3)
O1D O -0.07378(18) -0.3528(5) -0.1229(3)
O2D O -0.0913(2) 0.00000 -0.5946(3)
O3D O -0.2001(2) 0.00000 -0.7683(2)
N1D N -0.1614(2) 0.00000 -0.6287(3)
C2D C -0.4255(2) 0.00000 -0.2674(6)
H1D H -0.44820 0.00000 -0.18170
H2B H -0.44380 -0.12570 -0.32820
H2D H -0.44380 0.12570 -0.32820
O4D O -0.33992(16) 0.00000 -0.2155(4)
C4D C -0.20886(17) 0.00000 -0.5253(3)
C5D C -0.29192(19) 0.00000 -0.5764(3)
H8D H -0.31810 0.00000 -0.68080
C6D C -0.33682(18) 0.00000 -0.4760(4)
H9D H -0.39440 0.00000 -0.51150
C7D C -0.30012(17) 0.00000 -0.3250(3)
C8D C -0.21569(16) 0.00000 -0.2739(3)
C9D C -0.17011(16) 0.00000 -0.3728(3)
C10D C -0.08183(19) 0.00000 -0.2930(3)
H10F H 0.0501(16) -0.093(4) 0.322(3)
H10B H -0.0501(16) 0.093(4) -0.322(3)
H10D H -0.0501(16) -0.093(4) -0.322(3)
C11D C -0.07693(17) 0.00000 -0.1240(3)
C12D C -0.16563(19) 0.00000 -0.1145(3)
H11F H 0.1786(16) -0.134(5) 0.062(3)
H11B H -0.1786(16) 0.134(5) -0.062(3)
H11D H -0.1786(16) -0.134(5) -0.062(3)
#END
