
#######################################################################
#
#                 Cambridge Crystallographic Data Centre
#                                CCDC
#
#######################################################################
#
# If this CIF has been generated from an entry in the Cambridge
# Structural Database, then it will include bibliographic, chemical,
# crystal, experimental, refinement or atomic coordinate data resulting
# from the CCDC's data processing and validation procedures.
#
#######################################################################

data_CSD_CIF_MOKFIC
_audit_creation_date 2009-02-24
_audit_creation_method CSD-ConQuest-V1
_database_code_CSD MOKFIC
_database_code_depnum_ccdc_archive 'CCDC 707859'
_chemical_formula_sum 'C20 H19 N3 O5'
_chemical_formula_moiety
;
C20 H19 N3 O5
;
_journal_coden_Cambridge 1147
_journal_volume 8
_journal_year 2008
_journal_page_first 3257
_journal_name_full 'Cryst.Growth Des. '
loop_
_publ_author_name
"D.Ntirampebura"
"B.Jagadish"
"G.S.Nichol"
"M.D.Carducci"
"A.Dawson"
"A.Rajapakshe"
"A.G.Oliver"
"W.Clegg"
"R.W.Harrington"
"L.Layne Junior"
"J.I.Margolis"
"E.A.Mash"
_chemical_name_systematic
;
(R,S)-5'-Benzyl-4-methoxy-7-nitro-1,3-dihydro-3'H,6'H-spiro[indene-2,2'-pipera
zine]-3',6'-dione
;
_chemical_melting_point 553.15
_cell_volume    888.411
_exptl_crystal_colour 'colorless'
_exptl_crystal_density_diffrn 1.426
_exptl_special_details
;
Melts above 553.15K

;
_exptl_crystal_description 'block'
_exptl_crystal_preparation 'dmso'
_diffrn_ambient_temperature 173
#These two values have been output from a single CSD field.
_refine_ls_R_factor_gt 0.0537
_refine_ls_wR_factor_gt 0.0537
loop_
_citation_database_id_CSD
_citation_special_details
MOLJUT "is a stereoisomer of this entry"
_symmetry_cell_setting monoclinic
_symmetry_space_group_name_H-M 'P 21'
_symmetry_Int_Tables_number 4
loop_
_symmetry_equiv_pos_site_id
_symmetry_equiv_pos_as_xyz
1 x,y,z
2 -x,1/2+y,-z
_cell_length_a 11.872(5)
_cell_length_b 6.262(3)
_cell_length_c 12.819(6)
_cell_angle_alpha 90
_cell_angle_beta 111.215(12)
_cell_angle_gamma 90
_cell_formula_units_Z 2
loop_
_atom_type_symbol
_atom_type_radius_bond
C 0.68
H 0.23
N 0.68
O 0.68
loop_
_atom_site_label
_atom_site_type_symbol
_atom_site_fract_x
_atom_site_fract_y
_atom_site_fract_z
C1 C 0.8882(5) 0.0222(10) 0.6132(5)
N1 N 0.8591(4) 0.0135(7) 0.5027(4)
H1 H 0.84280 -0.11370 0.47170
O1 O 0.8991(4) -0.1442(6) 0.6693(3)
C2 C 0.9114(5) 0.2334(11) 0.6719(4)
C3 C 1.0496(5) 0.2522(11) 0.7430(4)
H2 H 1.09510 0.13340 0.72580
H3 H 1.08240 0.38930 0.72790
C4 C 1.0577(5) 0.2413(11) 0.8614(4)
O2 O 1.2676(3) 0.2400(9) 0.9322(3)
C5 C 1.1635(5) 0.2405(12) 0.9553(5)
C6 C 1.3799(5) 0.2456(15) 1.0254(6)
H4 H 1.44700 0.24460 0.99800
H5 H 1.38580 0.12030 1.07290
H6 H 1.38380 0.37570 1.06910
C7 C 1.1568(6) 0.2420(11) 1.0619(5)
H7 H 1.22850 0.24380 1.12670
C8 C 1.0462(6) 0.2409(12) 1.0723(5)
H8 H 1.04160 0.24030 1.14470
N2 N 0.8257(5) 0.2411(10) 0.9952(4)
C9 C 0.9402(5) 0.2407(11) 0.9782(4)
O3 O 0.8262(4) 0.2348(10) 1.0921(4)
O4 O 0.7328(4) 0.2458(9) 0.9122(4)
C10 C 0.9456(5) 0.2411(10) 0.8714(4)
C11 C 0.8468(5) 0.2451(11) 0.7582(4)
H9 H 0.79900 0.37830 0.74800
H10 H 0.79190 0.12170 0.74910
N3 N 0.8720(4) 0.4108(8) 0.5930(4)
H11 H 0.86010 0.53350 0.62090
C12 C 0.8519(5) 0.4084(10) 0.4831(5)
O5 O 0.8335(4) 0.5724(6) 0.4259(3)
C13 C 0.8515(5) 0.1933(9) 0.4274(5)
H12 H 0.92520 0.18820 0.40700
C14 C 0.7423(5) 0.1700(9) 0.3194(4)
H13 H 0.74820 0.27790 0.26520
H14 H 0.74500 0.02720 0.28730
C15 C 0.6222(5) 0.1959(11) 0.3334(4)
C16 C 0.5692(6) 0.0296(12) 0.3698(5)
H15 H 0.60780 -0.10580 0.38430
C17 C 0.4593(6) 0.0575(15) 0.3855(6)
H16 H 0.42460 -0.05570 0.41300
C18 C 0.4020(6) 0.2562(16) 0.3597(6)
H17 H 0.32620 0.27630 0.36770
C19 C 0.4525(7) 0.4202(14) 0.3236(7)
H18 H 0.41310 0.55480 0.30810
C20 C 0.5625(6) 0.3916(12) 0.3091(5)
H19 H 0.59690 0.50640 0.28250
#END
