
#######################################################################
#
#                 Cambridge Crystallographic Data Centre
#                                CCDC
#
#######################################################################
#
# If this CIF has been generated from an entry in the Cambridge
# Structural Database, then it will include bibliographic, chemical,
# crystal, experimental, refinement or atomic coordinate data resulting
# from the CCDC's data processing and validation procedures.
#
#######################################################################

data_CSD_CIF_MOKLAA
_audit_creation_date 2009-02-24
_audit_creation_method CSD-ConQuest-V1
_database_code_CSD MOKLAA
_database_code_depnum_ccdc_archive 'CCDC 717268'
_chemical_formula_sum 'C11 H14 N2 O5'
_chemical_formula_moiety
;
C11 H14 N2 O5
;
_journal_coeditor_code "IUCr FJ2175"
_journal_coden_Cambridge 1370
_journal_volume 65
_journal_year 2009
_journal_page_first o47
_journal_name_full 'Acta Crystallogr.,Sect.E:Struct.Rep.Online '
loop_
_publ_author_name
"Guang-Ming Sang"
"Shi-Neng Luo"
"Jian-Guo Lin"
"Hai-Lin Yang"
"Yong-Mei Xia"
_chemical_name_systematic
;
2-(Isopropoxy)-5-nitrophenyl N-methylcarbamate
;
_chemical_name_common
;
2-(1-Methylethoxy)-5-nitrophenyl N-methylcarbamate
;
_chemical_melting_point 393.15
_cell_volume    654.473
_exptl_crystal_colour 'colorless'
_exptl_crystal_density_diffrn 1.29
_exptl_special_details
;
Melting point range 393.15-394.15K

;
_exptl_crystal_description 'block'
_exptl_crystal_preparation 'ethanol'
_diffrn_ambient_temperature 291
#These two values have been output from a single CSD field.
_refine_ls_R_factor_gt 0.0486
_refine_ls_wR_factor_gt 0.0486
_symmetry_cell_setting triclinic
_symmetry_space_group_name_H-M 'P -1'
_symmetry_Int_Tables_number 2
loop_
_symmetry_equiv_pos_site_id
_symmetry_equiv_pos_as_xyz
1 x,y,z
2 -x,-y,-z
_cell_length_a 5.034(2)
_cell_length_b 10.4221(16)
_cell_length_c 12.6319(12)
_cell_angle_alpha 91.361(3)
_cell_angle_beta 97.492(2)
_cell_angle_gamma 94.693(1)
_cell_formula_units_Z 2
loop_
_atom_type_symbol
_atom_type_radius_bond
C 0.68
H 0.23
N 0.68
O 0.68
loop_
_atom_site_label
_atom_site_type_symbol
_atom_site_fract_x
_atom_site_fract_y
_atom_site_fract_z
C1 C 0.6429(3) 1.05070(14) 0.65269(13)
C2 C 0.4552(3) 1.04573(14) 0.72651(12)
H1 H 0.40100 1.12050 0.75570
C3 C 0.3576(3) 0.92824(15) 0.75300(12)
C4 C 0.4281(3) 0.81480(14) 0.70606(12)
C5 C 0.6183(3) 0.82349(14) 0.63360(12)
H2 H 0.67320 0.74920 0.60390
C6 C 0.7215(3) 0.94193(14) 0.60731(12)
H3 H 0.84500 0.94870 0.55860
C7 C 0.4126(3) 0.58077(15) 0.71348(12)
H4 H 0.60490 0.59050 0.70680
C8 C 0.3506(4) 0.49615(16) 0.80518(15)
H5 H 0.41810 0.54060 0.87190
H6 H 0.43510 0.41730 0.80040
H7 H 0.15960 0.47720 0.80110
C9 C 0.2464(4) 0.52696(15) 0.61402(13)
H8 H 0.05960 0.52360 0.62310
H9 H 0.29390 0.44170 0.59900
H10 H 0.27830 0.58090 0.55560
C10 C 0.2341(3) 0.86019(14) 0.91676(12)
C11 C 0.0362(3) 0.77353(16) 1.06731(13)
H11 H 0.13980 0.70020 1.06690
H12 H -0.14140 0.74660 1.08270
H13 H 0.12170 0.83560 1.12110
N1 N 0.7563(3) 1.17674(12) 0.62443(11)
N2 N 0.0186(3) 0.83114(12) 0.96365(10)
H14 H -0.13640 0.84680 0.93180
O1 O 0.6715(2) 1.27246(10) 0.66209(9)
O2 O 0.9315(2) 1.18325(10) 0.56528(9)
O3 O 0.3060(2) 0.70444(10) 0.73769(9)
O4 O 0.1650(2) 0.91925(10) 0.82168(9)
O5 O 0.4638(2) 0.84188(10) 0.95050(9)
#END
