
#######################################################################
#
#                 Cambridge Crystallographic Data Centre
#                                CCDC
#
#######################################################################
#
# If this CIF has been generated from an entry in the Cambridge
# Structural Database, then it will include bibliographic, chemical,
# crystal, experimental, refinement or atomic coordinate data resulting
# from the CCDC's data processing and validation procedures.
#
#######################################################################

data_CSD_CIF_MOKWUF
_audit_creation_date 2009-02-24
_audit_creation_method CSD-ConQuest-V1
_database_code_CSD MOKWUF
_database_code_depnum_ccdc_archive 'CCDC 718163'
_chemical_formula_sum 'C18 H14 N6 O3'
_chemical_formula_moiety
;
C18 H14 N6 O3
;
_journal_coeditor_code "IUCr SK3273"
_journal_coden_Cambridge 591
_journal_volume 64
_journal_year 2008
_journal_page_first o643
_journal_name_full 'Acta Crystallogr.,Sect.C:Cryst.Struct.Commun. '
loop_
_publ_author_name
"R.Rodriguez"
"J.Cobo"
"M.Nogueras"
"J.N.Low"
"C.Glidewell"
_chemical_name_systematic
;
2-Amino-4-methoxy-6-(3-nitrophenyl)-11H-pyrimido(4,5-b)(1,4)benzodiazepine
;
_cell_volume   1561.795
_exptl_crystal_colour 'yellow'
_exptl_crystal_density_diffrn 1.541
_exptl_crystal_description 'block'
_exptl_crystal_preparation 'methanol'
_diffrn_ambient_temperature 120
#These two values have been output from a single CSD field.
_refine_ls_R_factor_gt 0.0611
_refine_ls_wR_factor_gt 0.0611
_symmetry_cell_setting monoclinic
_symmetry_space_group_name_H-M 'P 21/n'
_symmetry_Int_Tables_number 14
loop_
_symmetry_equiv_pos_site_id
_symmetry_equiv_pos_as_xyz
1 x,y,z
2 1/2-x,1/2+y,1/2-z
3 -x,-y,-z
4 -1/2+x,-1/2-y,-1/2+z
_cell_length_a 7.047(4)
_cell_length_b 13.502(7)
_cell_length_c 16.418(5)
_cell_angle_alpha 90
_cell_angle_beta 91.22(5)
_cell_angle_gamma 90
_cell_formula_units_Z 4
loop_
_atom_type_symbol
_atom_type_radius_bond
C 0.68
H 0.23
N 0.68
O 0.68
loop_
_atom_site_label
_atom_site_type_symbol
_atom_site_fract_x
_atom_site_fract_y
_atom_site_fract_z
O1 O 0.4045(3) 0.38071(14) 0.16181(11)
O2 O 0.6404(4) -0.22025(18) 0.39187(17)
O3 O 0.6208(4) -0.10514(18) 0.48169(16)
N1 N 0.4366(3) 0.51877(17) 0.38096(13)
N2 N 0.3292(3) 0.65975(17) 0.31631(15)
N3 N 0.3713(3) 0.52251(17) 0.23714(14)
N4 N 0.4876(3) 0.26868(17) 0.29115(13)
N5 N 0.5450(3) 0.37620(17) 0.44527(14)
N6 N 0.6281(4) -0.1331(2) 0.41100(19)
C1 C 0.3796(4) 0.5636(2) 0.31189(17)
C2 C 0.4120(4) 0.4279(2) 0.23404(16)
C3 C 0.4678(4) 0.3710(2) 0.30137(16)
C4 C 0.6132(4) 0.2178(2) 0.32982(16)
C5 C 0.7611(4) 0.2551(2) 0.38748(17)
C6 C 0.9451(4) 0.2166(2) 0.38355(17)
C7 C 1.0884(4) 0.2522(2) 0.43258(18)
C8 C 1.0517(4) 0.3256(2) 0.48826(18)
C9 C 0.8720(4) 0.3653(2) 0.49338(17)
C10 C 0.7272(4) 0.3308(2) 0.44232(16)
C11 C 0.4829(4) 0.4231(2) 0.37427(16)
C12 C 0.3665(5) 0.4392(2) 0.09082(17)
C13 C 0.6156(4) 0.1106(2) 0.30856(18)
C14 C 0.6325(4) 0.0395(2) 0.36894(18)
C15 C 0.6198(4) -0.0593(2) 0.34643(19)
C16 C 0.5915(4) -0.0893(2) 0.2683(2)
C17 C 0.5800(5) -0.0184(2) 0.2086(2)
C18 C 0.5930(4) 0.0807(2) 0.22793(18)
H1 H 0.32650 0.68740 0.36480
H2 H 0.26020 0.68550 0.27630
H3 H 0.54110 0.41640 0.48740
H4 H 0.97070 0.16480 0.34620
H5 H 1.21320 0.22640 0.42830
H6 H 1.15070 0.34900 0.52340
H7 H 0.84750 0.41610 0.53180
H8 H 0.24580 0.47430 0.09680
H9 H 0.35870 0.39610 0.04290
H10 H 0.46890 0.48740 0.08410
H11 H 0.65240 0.05790 0.42430
H12 H 0.58000 -0.15770 0.25520
H13 H 0.56300 -0.03780 0.15330
H14 H 0.58640 0.12890 0.18580
#END
