
#######################################################################
#
#                 Cambridge Crystallographic Data Centre
#                                CCDC
#
#######################################################################
#
# If this CIF has been generated from an entry in the Cambridge
# Structural Database, then it will include bibliographic, chemical,
# crystal, experimental, refinement or atomic coordinate data resulting
# from the CCDC's data processing and validation procedures.
#
#######################################################################

data_CSD_CIF_MOMHAZ
_audit_creation_date 2014-08-11
_audit_creation_method CSD-ConQuest-V1
_database_code_CSD MOMHAZ
_database_code_depnum_ccdc_archive 'CCDC 863898'
_chemical_formula_sum 'C16 H12 N4 O3'
_chemical_formula_moiety
;
C16 H12 N4 O3
;
_journal_coden_Cambridge 973
_journal_volume 82
_journal_year 2013
_journal_page_first 401
_journal_name_full 'Chem.Biol.Drug.Des. '
loop_
_publ_author_name
"B.Banerji"
"S.K.Pramanik"
"P.Sanphui"
"S.Nikhar"
"S.C.Biswas"
_chemical_name_systematic
;
3-(4-Nitrophenyl)-4H,6H-5-oxa-1,2,10b-triazabenzo(e)azulene
;
_cell_volume    686.332
_exptl_crystal_colour 'yellow'
_exptl_crystal_density_diffrn 1.502
_exptl_crystal_description 'Rectangular'
_diffrn_ambient_temperature 293
#These two values have been output from a single CSD field.
_refine_ls_R_factor_gt 0.0541
_refine_ls_wR_factor_gt 0.0541
_symmetry_cell_setting triclinic
_symmetry_space_group_name_H-M 'P -1'
_symmetry_Int_Tables_number 2
loop_
_symmetry_equiv_pos_site_id
_symmetry_equiv_pos_as_xyz
1 x,y,z
2 -x,-y,-z
_cell_length_a 7.7496(7)
_cell_length_b 7.9699(7)
_cell_length_c 12.4477(11)
_cell_angle_alpha 74.250(2)
_cell_angle_beta 72.212(2)
_cell_angle_gamma 73.135(2)
_cell_formula_units_Z 2
loop_
_atom_type_symbol
_atom_type_radius_bond
C 0.68
H 0.23
N 0.68
O 0.68
loop_
_atom_site_label
_atom_site_type_symbol
_atom_site_fract_x
_atom_site_fract_y
_atom_site_fract_z
C1 C 0.0817(3) 0.3553(3) 0.39545(17)
C2 C 0.1947(3) 0.2672(3) 0.47940(17)
C3 C 0.2534(4) 0.0332(4) 0.6413(2)
H1 H 0.21950 -0.06320 0.69780
C4 C 0.4100(3) 0.0867(3) 0.63384(17)
C5 C 0.1464(4) 0.1245(3) 0.5635(2)
H2 H 0.03980 0.08880 0.56820
C6 C -0.2625(3) 0.6808(3) 0.1416(2)
H3 H -0.35790 0.64550 0.20270
C7 C 0.0639(3) 0.6698(3) 0.06093(19)
N1 N -0.1430(3) 0.3854(3) 0.31582(18)
C8 C -0.0812(3) 0.6220(3) 0.15040(17)
C9 C 0.3559(4) 0.3157(3) 0.4737(2)
H4 H 0.39180 0.41100 0.41690
C10 C 0.1005(3) 0.4932(3) 0.30127(17)
C11 C 0.4634(4) 0.2256(3) 0.5504(2)
H5 H 0.57140 0.25910 0.54530
C12 C -0.3024(4) 0.7915(4) 0.0428(2)
H6 H -0.42480 0.83070 0.03640
C13 C 0.0188(4) 0.7839(4) -0.0374(2)
H7 H 0.11340 0.82040 -0.09860
C14 C -0.1617(4) 0.8445(4) -0.0467(2)
H8 H -0.18860 0.92130 -0.11350
C15 C 0.2623(3) 0.5980(5) 0.0683(2)
H9 H 0.28710 0.46830 0.08740
H10 H 0.34320 0.63230 -0.00660
C16 C 0.2215(6) 0.6203(5) 0.2564(2)
H11 H 0.14670 0.73220 0.27830
H12 H 0.31650 0.57760 0.29940
O1 O 0.6651(3) 0.0384(3) 0.70611(17)
O2 O 0.4816(3) -0.1421(3) 0.78422(16)
O3 O 0.3058(3) 0.6600(3) 0.15116(16)
N2 N -0.0406(2) 0.5067(2) 0.25384(15)
N3 N -0.0693(3) 0.2952(3) 0.40127(17)
N4 N 0.5272(3) -0.0127(3) 0.71354(17)
#END
