
#######################################################################
#
#                 Cambridge Crystallographic Data Centre
#                                CCDC
#
#######################################################################
#
# If this CIF has been generated from an entry in the Cambridge
# Structural Database, then it will include bibliographic, chemical,
# crystal, experimental, refinement or atomic coordinate data resulting
# from the CCDC's data processing and validation procedures.
#
#######################################################################

data_CSD_CIF_MOMWUI
_audit_creation_date 2014-08-11
_audit_creation_method CSD-ConQuest-V1
_database_code_CSD MOMWUI
_database_code_depnum_ccdc_archive 'CCDC 995252'
_chemical_formula_sum 'C20 H22 N2 O5'
_chemical_formula_moiety
;
C20 H22 N2 O5
;
_journal_coden_Cambridge 182
_journal_volume 50
_journal_year 2014
_journal_page_first 11181
_journal_name_full 'Chem.Commun. '
loop_
_publ_author_name
"Xue Zhong"
"You Li"
"Jing Zhang"
"Wu-Xia Zhang"
"Shi-Xue Wang"
"Fu-She Han"
_chemical_name_systematic
;
methyl 
3a-ethyl-1-(methoxyamino)-2,6-dioxo-2,3,3a,4,5,6-hexahydro-1H-pyrido[3,2,1-jk]
carbazole-1-carboxylate
;
_cell_volume   1890.840
_exptl_crystal_density_diffrn 1.301
_diffrn_ambient_temperature 188
#These two values have been output from a single CSD field.
_refine_ls_R_factor_gt 0.0507
_refine_ls_wR_factor_gt 0.0507
_symmetry_cell_setting monoclinic
_symmetry_space_group_name_H-M 'P 21/c'
_symmetry_Int_Tables_number 14
loop_
_symmetry_equiv_pos_site_id
_symmetry_equiv_pos_as_xyz
1 x,y,z
2 -x,1/2+y,1/2-z
3 -x,-y,-z
4 x,-1/2-y,-1/2+z
_cell_length_a 9.6837(8)
_cell_length_b 9.5017(8)
_cell_length_c 20.5631(17)
_cell_angle_alpha 90
_cell_angle_beta 92.044(1)
_cell_angle_gamma 90
_cell_formula_units_Z 4
loop_
_atom_type_symbol
_atom_type_radius_bond
C 0.68
H 0.23
N 0.68
O 0.68
loop_
_atom_site_label
_atom_site_type_symbol
_atom_site_fract_x
_atom_site_fract_y
_atom_site_fract_z
C1 C 0.02826(18) 0.67205(19) 0.16489(9)
C2 C -0.0628(2) 0.7795(2) 0.17853(10)
H1 H -0.15920 0.77100 0.16910
C3 C -0.0066(2) 0.9001(2) 0.20666(10)
H2 H -0.06590 0.97650 0.21630
C4 C 0.1345(2) 0.9124(2) 0.22122(10)
H3 H 0.16970 0.99730 0.23980
C5 C 0.2240(2) 0.8031(2) 0.20908(10)
H4 H 0.31990 0.81120 0.22000
C6 C 0.17072(18) 0.68052(19) 0.18046(9)
C7 C 0.23161(18) 0.54816(19) 0.16212(9)
C8 C 0.13056(18) 0.46564(19) 0.13692(9)
C9 C -0.12347(19) 0.4791(2) 0.11888(10)
C10 C -0.1210(2) 0.3251(2) 0.10146(11)
H5 H -0.12450 0.31640 0.05340
H6 H -0.20540 0.28020 0.11770
C11 C 0.00515(19) 0.2440(2) 0.12851(10)
H7 H 0.00460 0.14780 0.11000
H8 H -0.00010 0.23570 0.17640
C12 C 0.14055(19) 0.3184(2) 0.11190(9)
C13 C 0.1637(2) 0.3211(2) 0.03763(10)
H9 H 0.08990 0.37900 0.01640
H10 H 0.25290 0.36840 0.03030
C14 C 0.1650(3) 0.1783(3) 0.00434(12)
H11 H 0.23510 0.11830 0.02580
H12 H 0.18680 0.19050 -0.04150
H13 H 0.07400 0.13410 0.00720
C15 C 0.26564(19) 0.25290(19) 0.14932(10)
H14 H 0.24070 0.23610 0.19490
H15 H 0.28680 0.16060 0.12970
C16 C 0.3934(2) 0.3437(2) 0.14908(9)
C17 C 0.38003(17) 0.50289(19) 0.16848(9)
C18 C 0.43947(18) 0.51438(19) 0.2385(1)
C19 C 0.4170(3) 0.6856(3) 0.02702(12)
H16 H 0.34320 0.74270 0.04500
H17 H 0.39370 0.66380 -0.01860
H18 H 0.50410 0.73810 0.02990
C20 C 0.4029(2) 0.4570(2) 0.34802(10)
H19 H 0.46750 0.37840 0.35460
H20 H 0.32440 0.44480 0.37630
H21 H 0.45010 0.54560 0.35880
N1 N 0.00364(15) 0.53735(16) 0.13730(8)
N2 N 0.46749(16) 0.59306(17) 0.12954(8)
H22 H 0.55730 0.56110 0.13410
O1 O -0.22709(13) 0.55046(16) 0.11673(8)
O2 O 0.50616(14) 0.29958(15) 0.13639(8)
O3 O 0.43118(15) 0.55978(15) 0.06255(7)
O4 O 0.35372(14) 0.46014(15) 0.28063(7)
O5 O 0.55105(14) 0.56103(17) 0.25230(7)
#END
