
#######################################################################
#
#                 Cambridge Crystallographic Data Centre
#                                CCDC
#
#######################################################################
#
# If this CIF has been generated from an entry in the Cambridge
# Structural Database, then it will include bibliographic, chemical,
# crystal, experimental, refinement or atomic coordinate data resulting
# from the CCDC's data processing and validation procedures.
#
#######################################################################

data_CSD_CIF_MOMWOC
_audit_creation_date 2014-08-11
_audit_creation_method CSD-ConQuest-V1
_database_code_CSD MOMWOC
_database_code_depnum_ccdc_archive 'CCDC 995251'
_chemical_formula_sum 'C20 H22 N2 O5'
_chemical_formula_moiety
;
C20 H22 N2 O5
;
_journal_coden_Cambridge 182
_journal_volume 50
_journal_year 2014
_journal_page_first 11181
_journal_name_full 'Chem.Commun. '
loop_
_publ_author_name
"Xue Zhong"
"You Li"
"Jing Zhang"
"Wu-Xia Zhang"
"Shi-Xue Wang"
"Fu-She Han"
_chemical_name_systematic
;
methyl 
4-(9-ethyl-6-oxo-6,7,8,10-tetrahydropyrido[1,2-a]indol-10-yl)-2-(methoxyimino)
-3-oxobutanoate
;
_cell_volume   1855.024
_exptl_crystal_colour 'white'
_exptl_crystal_density_diffrn 1.326
_exptl_special_details
;
Air-sensitive, acid-sensitive

;
_diffrn_ambient_temperature 188
#These two values have been output from a single CSD field.
_refine_ls_R_factor_gt 0.0446
_refine_ls_wR_factor_gt 0.0446
_symmetry_cell_setting monoclinic
_symmetry_space_group_name_H-M 'P 21/c'
_symmetry_Int_Tables_number 14
loop_
_symmetry_equiv_pos_site_id
_symmetry_equiv_pos_as_xyz
1 x,y,z
2 -x,1/2+y,1/2-z
3 -x,-y,-z
4 x,-1/2-y,-1/2+z
_cell_length_a 15.2319(11)
_cell_length_b 7.8737(6)
_cell_length_c 15.4675(11)
_cell_angle_alpha 90
_cell_angle_beta 90.233(1)
_cell_angle_gamma 90
_cell_formula_units_Z 4
loop_
_atom_type_symbol
_atom_type_radius_bond
C 0.68
H 0.23
N 0.68
O 0.68
loop_
_atom_site_label
_atom_site_type_symbol
_atom_site_fract_x
_atom_site_fract_y
_atom_site_fract_z
C1 C 0.13344(10) 0.1802(2) 0.33117(9)
C2 C 0.18374(10) 0.0961(2) 0.40425(9)
H1 H 0.14290 0.06220 0.45160
C3 C 0.22058(10) -0.0603(2) 0.35967(10)
C4 C 0.25883(11) -0.2052(2) 0.39367(11)
H2 H 0.26450 -0.21900 0.45450
C5 C 0.28882(12) -0.3304(2) 0.33780(12)
H3 H 0.31510 -0.43040 0.36060
C6 C 0.28074(11) -0.3104(2) 0.24897(12)
H4 H 0.30190 -0.39700 0.21170
C7 C 0.24235(11) -0.1663(2) 0.21354(10)
H5 H 0.23750 -0.15210 0.15270
C8 C 0.21127(10) -0.0438(2) 0.27011(10)
C9 C 0.14533(10) 0.1744(2) 0.17214(10)
C10 C 0.09562(12) 0.3392(2) 0.17545(11)
H6 H 0.06470 0.35570 0.11970
H7 H 0.13810 0.43340 0.18230
C11 C 0.02885(12) 0.3489(2) 0.24826(11)
H8 H 0.00750 0.46710 0.25370
H9 H -0.02210 0.27570 0.23410
C12 C 0.06842(11) 0.2925(2) 0.3333(1)
C13 C 0.02905(11) 0.3547(2) 0.41672(11)
H10 H 0.00910 0.47350 0.40910
H11 H 0.07470 0.35370 0.46250
C14 C -0.04824(13) 0.2457(3) 0.44540(13)
H12 H -0.09230 0.24150 0.39910
H13 H -0.07450 0.29510 0.49740
H14 H -0.02770 0.13040 0.45820
C15 C 0.25501(10) 0.2175(2) 0.43905(9)
H15 H 0.30230 0.22690 0.39560
H16 H 0.22900 0.33180 0.44660
C16 C 0.29429(10) 0.1613(2) 0.5235(1)
C17 C 0.35742(10) 0.2771(2) 0.56845(10)
C18 C 0.39846(11) 0.2123(2) 0.65123(10)
C19 C 0.51749(14) 0.0567(3) 0.70848(13)
H17 H 0.53880 0.14920 0.74540
H18 H 0.56730 -0.01170 0.68880
H19 H 0.47710 -0.01510 0.74140
C20 C 0.43723(13) 0.6861(2) 0.55731(12)
H20 H 0.44300 0.68680 0.49420
H21 H 0.48850 0.74130 0.58350
H22 H 0.38390 0.74770 0.57370
N1 N 0.16411(8) 0.10685(17) 0.25161(8)
N2 N 0.37111(9) 0.42537(18) 0.53752(8)
O1 O 0.16907(8) 0.10767(17) 0.10465(7)
O2 O 0.27761(8) 0.02626(15) 0.55818(7)
O3 O 0.36743(9) 0.23297(17) 0.72127(8)
O4 O 0.47177(8) 0.12733(17) 0.63399(8)
O5 O 0.43169(8) 0.51406(15) 0.58731(7)
#END
