
#######################################################################
#
#                 Cambridge Crystallographic Data Centre
#                                CCDC
#
#######################################################################
#
# If this CIF has been generated from an entry in the Cambridge
# Structural Database, then it will include bibliographic, chemical,
# crystal, experimental, refinement or atomic coordinate data resulting
# from the CCDC's data processing and validation procedures.
#
#######################################################################

data_CSD_CIF_MOPPIQ
_audit_creation_date 2002-09-27
_audit_creation_method CSD-ConQuest-V1
_database_code_CSD MOPPIQ
_database_code_depnum_ccdc_archive 'CCDC 192990'
_chemical_formula_sum 'C22 H23 N5 O4'
_chemical_formula_moiety
;
C22 H23 N5 O4
;
_journal_coeditor_code "IUCr NA1576"
_journal_coden_Cambridge 591
_journal_volume 58
_journal_year 2002
_journal_page_first o425
_journal_name_full 'Acta Crystallogr.,Sect.C:Cryst.Struct.Commun. '
loop_
_publ_author_name
"J.N.Low"
"C.Glidewell"
"A.Quesada"
"M.Nogueras"
"A.Sanchez"
_chemical_name_systematic
;
N-(2-benzylamino-6-benzyloxy-5-nitrosopyrimidin-4-yl)glycine ethyl ester
;
_chemical_melting_point 396
_cell_volume   2053.314
_exptl_crystal_colour 'purple'
_exptl_crystal_density_diffrn 1.363
_exptl_crystal_description 'needle'
_exptl_crystal_preparation 'ethanol/water'
_diffrn_ambient_temperature 120
#These two values have been output from a single CSD field.
_refine_ls_R_factor_gt 0.0689
_refine_ls_wR_factor_gt 0.0689
_symmetry_cell_setting monoclinic
_symmetry_space_group_name_H-M 'P 21/c'
_symmetry_Int_Tables_number 14
loop_
_symmetry_equiv_pos_site_id
_symmetry_equiv_pos_as_xyz
1 x,y,z
2 x,1/2-y,1/2+z
3 -x,-y,-z
4 -x,-1/2+y,-1/2-z
_cell_length_a 15.2278(8)
_cell_length_b 15.8992(5)
_cell_length_c 8.5558(3)
_cell_angle_alpha 90
_cell_angle_beta 97.5860(11)
_cell_angle_gamma 90
_cell_formula_units_Z 4
loop_
_atom_type_symbol
_atom_type_radius_bond
C 0.68
H 0.23
N 0.68
O 0.68
loop_
_atom_site_label
_atom_site_type_symbol
_atom_site_fract_x
_atom_site_fract_y
_atom_site_fract_z
N1 N -0.0187(2) 0.3075(2) 0.2239(4)
C1 C 0.0506(3) 0.3350(3) 0.3311(4)
N2 N 0.0590(2) 0.4176(2) 0.3421(4)
C2 C 0.1239(3) 0.4596(3) 0.4548(5)
C3 C 0.2143(3) 0.4660(2) 0.4009(5)
C4 C 0.2867(3) 0.4234(3) 0.4784(5)
C5 C 0.3690(3) 0.4312(3) 0.4307(5)
C6 C 0.3813(3) 0.4810(3) 0.3038(5)
C7 C 0.3102(3) 0.5240(3) 0.2236(5)
C8 C 0.2276(3) 0.5166(3) 0.2734(5)
N3 N 0.1087(2) 0.2870(2) 0.4246(4)
C9 C 0.0945(2) 0.2044(3) 0.4154(4)
N4 N 0.1494(2) 0.1539(2) 0.5065(4)
C10 C 0.2333(2) 0.1838(3) 0.5859(4)
C11 C 0.3013(3) 0.1837(2) 0.4729(5)
O1 O 0.28688(18) 0.16395(18) 0.3365(3)
O2 O 0.38064(17) 0.20902(18) 0.5446(3)
C12 C 0.4508(3) 0.2097(3) 0.4442(5)
C13 C 0.4846(3) 0.1237(3) 0.4187(6)
C14 C 0.0225(2) 0.1675(3) 0.3114(4)
N5 N 0.0049(2) 0.0859(2) 0.2857(4)
O3 O 0.05466(19) 0.03165(18) 0.3646(3)
C15 C -0.0312(2) 0.2273(3) 0.2183(4)
O4 O -0.09866(17) 0.19484(17) 0.1202(3)
C16 C -0.1553(3) 0.2533(3) 0.0206(5)
C17 C -0.2196(2) 0.2975(3) 0.1104(4)
C18 C -0.2114(3) 0.3827(3) 0.1432(5)
C19 C -0.2713(3) 0.4233(3) 0.2247(5)
C20 C -0.3403(3) 0.3792(3) 0.2756(5)
C21 C -0.3501(3) 0.2950(3) 0.2425(5)
C22 C -0.2908(3) 0.2541(3) 0.1583(5)
H1 H 0.02310 0.44890 0.27720
H2 H 0.12950 0.42850 0.55590
H3 H 0.10240 0.51690 0.47430
H4 H 0.27930 0.38830 0.56560
H5 H 0.41800 0.40200 0.48590
H6 H 0.43840 0.48580 0.27140
H7 H 0.31800 0.55820 0.13540
H8 H 0.17890 0.54680 0.21930
H9 H 0.13420 0.10110 0.51860
H10 H 0.25350 0.14710 0.67700
H11 H 0.22630 0.24160 0.62580
H12 H 0.50020 0.24530 0.49330
H13 H 0.42780 0.23480 0.34100
H14 H 0.53380 0.12710 0.35590
H15 H 0.43690 0.08950 0.36270
H16 H 0.50530 0.09770 0.52090
H17 H -0.18850 0.22190 -0.06820
H18 H -0.11780 0.29550 -0.02400
H19 H -0.16390 0.41350 0.10920
H20 H -0.26510 0.48190 0.24580
H21 H -0.38090 0.40710 0.33340
H22 H -0.39760 0.26460 0.27740
H23 H -0.29900 0.19620 0.13320
#END
