
#######################################################################
#
#                 Cambridge Crystallographic Data Centre
#                                CCDC
#
#######################################################################
#
# If this CIF has been generated from an entry in the Cambridge
# Structural Database, then it will include bibliographic, chemical,
# crystal, experimental, refinement or atomic coordinate data resulting
# from the CCDC's data processing and validation procedures.
#
#######################################################################

data_CSD_CIF_MOQCEA
_audit_creation_date 2002-10-17
_audit_creation_method CSD-ConQuest-V1
_database_code_CSD MOQCEA
_chemical_formula_sum 'C7 H6 N4 O6'
_chemical_formula_moiety
;
C7 H6 N4 O6
;
_journal_coden_Cambridge 119
_journal_volume 553
_journal_year 2000
_journal_page_first 9
_journal_name_full 'J.Mol.Struct. '
loop_
_publ_author_name
"Z.Daszkiewicz"
"J.B.Kyziol"
"W.W.Prezdo"
"J.Zaleski"
_chemical_name_systematic
;
N-(3,5-Dinitrophenyl)-N-methylnitramine
;
_chemical_melting_point 384.15
_cell_volume    946.659
_exptl_crystal_colour 'light yellow'
_exptl_crystal_density_diffrn 1.699
_exptl_special_details
;
Melting point range 384.15-385.15K

;
_exptl_crystal_description 'rods'
_exptl_crystal_preparation 'dichloromethane/n-hexane'
_diffrn_ambient_temperature 293
#These two values have been output from a single CSD field.
_refine_ls_R_factor_gt 0.0354
_refine_ls_wR_factor_gt 0.0354
_symmetry_cell_setting monoclinic
_symmetry_space_group_name_H-M 'P 21/n'
_symmetry_Int_Tables_number 14
loop_
_symmetry_equiv_pos_site_id
_symmetry_equiv_pos_as_xyz
1 x,y,z
2 1/2-x,1/2+y,1/2-z
3 -x,-y,-z
4 -1/2+x,-1/2-y,-1/2+z
_cell_length_a 9.814(2)
_cell_length_b 12.000(2)
_cell_length_c 8.865(2)
_cell_angle_alpha 90
_cell_angle_beta 114.94(2)
_cell_angle_gamma 90
_cell_formula_units_Z 4
loop_
_atom_type_symbol
_atom_type_radius_bond
C 0.68
N 0.68
O 0.68
loop_
_atom_site_label
_atom_site_type_symbol
_atom_site_fract_x
_atom_site_fract_y
_atom_site_fract_z
C1 C -0.3214(2) 0.7208(1) 1.0223(2)
C2 C -0.1929(2) 0.6741(1) 1.0182(2)
C3 C -0.1041(2) 0.7414(1) 0.9706(2)
C4 C -0.1357(2) 0.8511(1) 0.9243(2)
C5 C -0.2643(2) 0.8928(1) 0.9285(2)
C6 C -0.3578(2) 0.8314(1) 0.9772(2)
N1 N -0.4238(1) 0.6564(1) 1.0603(2)
N2 N -0.3727(2) 0.5833(1) 1.1894(2)
O1 O -0.2373(1) 0.5747(1) 1.2710(2)
O2 O -0.4659(2) 0.5291(1) 1.2156(2)
C7 C -0.5848(2) 0.6794(2) 0.9847(3)
N3 N 0.0312(1) 0.6925(1) 0.9650(2)
O3 O 0.0853(1) 0.7400(1) 0.8814(2)
O4 O 0.0811(1) 0.6073(1) 1.0427(2)
N4 N -0.3063(2) 1.0084(1) 0.8753(2)
O5 O -0.2151(2) 1.0667(1) 0.8528(2)
O6 O -0.4313(2) 1.0393(1) 0.8534(2)
#END
