
#######################################################################
#
#                 Cambridge Crystallographic Data Centre
#                                CCDC
#
#######################################################################
#
# If this CIF has been generated from an entry in the Cambridge
# Structural Database, then it will include bibliographic, chemical,
# crystal, experimental, refinement or atomic coordinate data resulting
# from the CCDC's data processing and validation procedures.
#
#######################################################################

data_CSD_CIF_MOQNIQ
_audit_creation_date 2009-06-23
_audit_creation_method CSD-ConQuest-V1
_database_code_CSD MOQNIQ
_database_code_depnum_ccdc_archive 'CCDC 705916'
_chemical_formula_sum 'C18 H16 N2 O4'
_chemical_formula_moiety
;
C18 H16 N2 O4
;
_journal_coden_Cambridge 1291
_journal_year 2009
_journal_page_first 199
_journal_name_full 'Eur.J.Org.Chem. '
loop_
_publ_author_name
"A.-N.Balaguer"
"X.Companyo"
"T.Calvet"
"M.Font-Bardia"
"A.Moyano"
"R.Rios"
_chemical_name_systematic
;
4-Methyl-2-(2-nitro-1-phenylethyl)-2-phenyl-1,3-oxazol-5(2H)-one
;
_cell_volume   1654.008
_exptl_crystal_colour 'colorless'
_exptl_crystal_density_diffrn 1.302
_exptl_crystal_description 'prism'
_diffrn_ambient_temperature 293
#These two values have been output from a single CSD field.
_refine_ls_R_factor_gt 0.0565
_refine_ls_wR_factor_gt 0.0565
_symmetry_cell_setting monoclinic
_symmetry_space_group_name_H-M 'P 21/a'
_symmetry_Int_Tables_number 14
loop_
_symmetry_equiv_pos_site_id
_symmetry_equiv_pos_as_xyz
1 x,y,z
2 1/2-x,1/2+y,-z
3 -x,-y,-z
4 -1/2+x,-1/2-y,z
_cell_length_a 15.720(9)
_cell_length_b 6.180(3)
_cell_length_c 17.045(4)
_cell_angle_alpha 90
_cell_angle_beta 92.75(2)
_cell_angle_gamma 90
_cell_formula_units_Z 4
loop_
_atom_type_symbol
_atom_type_radius_bond
C 0.68
H 0.23
N 0.68
O 0.68
loop_
_atom_site_label
_atom_site_type_symbol
_atom_site_fract_x
_atom_site_fract_y
_atom_site_fract_z
O1 O 0.46901(5) 0.10546(12) 0.18471(5)
O2 O 0.32559(4) 0.11422(10) 0.18202(4)
O3 O 0.10849(7) 0.51854(16) 0.32233(6)
O4 O 0.07705(6) 0.19127(17) 0.35289(6)
N1 N 0.30421(5) -0.24633(13) 0.21841(5)
N2 N 0.11310(6) 0.32337(16) 0.31338(6)
C1 C 0.14645(8) -0.24923(19) 0.12019(7)
H1 H 0.14500 -0.34560 0.16200
C2 C 0.09273(9) -0.2807(2) 0.05403(9)
H2 H 0.05580 -0.39840 0.05180
C3 C 0.09373(8) -0.1391(3) -0.00835(8)
H3 H 0.05790 -0.16030 -0.05270
C4 C 0.14863(10) 0.0343(3) -0.00379(8)
H4 H 0.14970 0.13060 -0.04560
C5 C 0.20243(8) 0.0681(2) 0.06211(7)
H5 H 0.23870 0.18710 0.06440
C6 C 0.20204(6) -0.07537(16) 0.12426(6)
C7 C 0.26007(6) -0.04518(15) 0.19804(6)
C8 C 0.38412(6) -0.21020(16) 0.21858(6)
C9 C 0.40204(6) 0.01784(16) 0.19424(6)
C10 C 0.21107(6) 0.03351(15) 0.27028(6)
H6 H 0.16770 -0.07530 0.28060
C11 C 0.16502(7) 0.24388(18) 0.24882(6)
H7 H 0.20660 0.35330 0.23660
H8 H 0.12830 0.22090 0.20220
C12 C 0.26983(6) 0.05199(17) 0.34404(6)
C13 C 0.32054(8) 0.2332(2) 0.35863(7)
H9 H 0.31750 0.34970 0.32410
C14 C 0.37582(9) 0.2403(3) 0.42484(9)
H10 H 0.41020 0.36100 0.43380
C15 C 0.38009(10) 0.0716(3) 0.47689(9)
H11 H 0.41730 0.07740 0.52090
C16 C 0.32848(11) -0.1079(3) 0.46351(9)
H12 H 0.33060 -0.22260 0.49880
C17 C 0.27370(9) -0.1161(2) 0.39740(7)
H13 H 0.23900 -0.23660 0.38890
C18 C 0.45380(8) -0.36534(18) 0.23943(9)
H14 H 0.43020 -0.50680 0.24660
H15 H 0.48330 -0.31960 0.28720
H16 H 0.49290 -0.36980 0.19790
#END
