
#######################################################################
#
#                 Cambridge Crystallographic Data Centre
#                                CCDC
#
#######################################################################
#
# If this CIF has been generated from an entry in the Cambridge
# Structural Database, then it will include bibliographic, chemical,
# crystal, experimental, refinement or atomic coordinate data resulting
# from the CCDC's data processing and validation procedures.
#
#######################################################################

data_CSD_CIF_MOQQUF
_audit_creation_date 2009-06-23
_audit_creation_method CSD-ConQuest-V1
_database_code_CSD MOQQUF
_database_code_depnum_ccdc_archive 'CCDC 701442'
_chemical_formula_sum 'C12 H19 N1 O5'
_chemical_formula_moiety
;
C12 H19 N1 O5
;
_journal_coden_Cambridge 1291
_journal_year 2009
_journal_page_first 282
_journal_name_full 'Eur.J.Org.Chem. '
loop_
_publ_author_name
"F.Pfrengle"
"A.Al-Harrasi"
"I.Brudgam"
"H.-U.Reissig"
_chemical_name_systematic
;
((4aR,5R,7aR)-4a-Methoxy-7,7-dimethyl-4a,5,7,7a-tetrahydro-1H-furo(3,4-d)(1,2)
oxazin-5-yl)methyl acetate
;
_chemical_melting_point 364
_cell_volume    651.714
_exptl_crystal_colour 'colorless'
_exptl_crystal_density_diffrn 1.311
_exptl_crystal_description 'prism'
_diffrn_ambient_temperature 173
#These two values have been output from a single CSD field.
_refine_ls_R_factor_gt 0.0395
_refine_ls_wR_factor_gt 0.0395
_symmetry_cell_setting monoclinic
_symmetry_space_group_name_H-M 'P 21'
_symmetry_Int_Tables_number 4
loop_
_symmetry_equiv_pos_site_id
_symmetry_equiv_pos_as_xyz
1 x,y,z
2 -x,1/2+y,-z
_cell_length_a 7.6742(13)
_cell_length_b 7.4320(11)
_cell_length_c 11.4356(18)
_cell_angle_alpha 90
_cell_angle_beta 92.270(4)
_cell_angle_gamma 90
_cell_formula_units_Z 2
loop_
_atom_type_symbol
_atom_type_radius_bond
C 0.68
H 0.23
N 0.68
O 0.68
loop_
_atom_site_label
_atom_site_type_symbol
_atom_site_fract_x
_atom_site_fract_y
_atom_site_fract_z
O1 O 0.5961(3) 1.0426(3) 0.64170(18)
O2 O 0.8341(2) 0.6378(2) 0.84442(15)
O3 O 0.9383(2) 0.3763(3) 0.69182(15)
O4 O 1.0146(3) 0.3615(3) 0.50486(19)
O5 O 0.4081(2) 0.6046(2) 0.78156(15)
N1 N 0.5314(3) 0.9013(3) 0.5699(2)
C1 C 0.7097(4) 0.9854(4) 0.7367(3)
H1 H 0.75000 1.09190 0.78220
H2 H 0.81340 0.92620 0.70510
C2 C 0.5255(3) 0.7459(4) 0.6164(2)
H3 H 0.49430 0.64980 0.56490
C3 C 0.5614(3) 0.6945(3) 0.7424(2)
C4 C 0.7111(3) 0.5561(4) 0.7636(2)
H4 H 0.66240 0.44610 0.80060
C5 C 0.7456(3) 0.7740(4) 0.9103(2)
C6 C 0.6202(3) 0.8562(4) 0.8167(2)
H5 H 0.51860 0.91490 0.85340
C7 C 0.8020(3) 0.5016(4) 0.6558(2)
H6 H 0.71870 0.44360 0.59920
H7 H 0.85270 0.60830 0.61810
C8 C 1.0395(3) 0.3192(4) 0.6060(3)
C9 C 1.1816(4) 0.1996(4) 0.6525(3)
H8 H 1.29450 0.25820 0.64280
H9 H 1.17820 0.08550 0.60960
H10 H 1.16560 0.17650 0.73580
C10 C 0.6475(3) 0.6889(4) 1.0089(2)
H11 H 0.72790 0.61510 1.05740
H12 H 0.55350 0.61300 0.97600
H13 H 0.59800 0.78360 1.05710
C11 C 0.8843(4) 0.9013(4) 0.9601(3)
H14 H 0.95560 0.94500 0.89680
H15 H 0.95870 0.83750 1.01810
H16 H 0.82820 1.00350 0.99760
C12 C 0.2491(3) 0.7051(4) 0.7686(3)
H17 H 0.22790 0.73690 0.68610
H18 H 0.25860 0.81510 0.81560
H19 H 0.15200 0.63190 0.79510
#END
