
#######################################################################
#
#                 Cambridge Crystallographic Data Centre
#                                CCDC
#
#######################################################################
#
# If this CIF has been generated from an entry in the Cambridge
# Structural Database, then it will include bibliographic, chemical,
# crystal, experimental, refinement or atomic coordinate data resulting
# from the CCDC's data processing and validation procedures.
#
#######################################################################

data_CSD_CIF_MOSCON
_audit_creation_date 2009-06-23
_audit_creation_method CSD-ConQuest-V1
_database_code_CSD MOSCON
_database_code_depnum_ccdc_archive 'CCDC 703781'
_chemical_formula_sum 'C3 H6 N6 O3'
_chemical_formula_moiety
;
C3 H6 N6 O3
;
_journal_coden_Cambridge 179
_journal_volume 48
_journal_year 2009
_journal_page_first 564
_journal_name_full 'Angew.Chem.,Int.Ed. '
loop_
_publ_author_name
"Young-Hyuk Joo"
"J.M.Shreeve"
_chemical_name_systematic
;
(1-(2-hydroxyethyl)-1-tetrazol-5-ylidene)nitramide
;
_chemical_name_common
;
2-(5-(Nitroimino)-4,5-dihydro-1H-tetrazol-1-yl)ethanol
;
_chemical_melting_point 431.15
_cell_volume    330.855
_exptl_crystal_colour 'colorless'
_exptl_crystal_density_diffrn 1.748
_exptl_crystal_description 'irregular chunk'
_diffrn_ambient_temperature 173
#These two values have been output from a single CSD field.
_refine_ls_R_factor_gt 0.0393
_refine_ls_wR_factor_gt 0.0393
_symmetry_cell_setting triclinic
_symmetry_space_group_name_H-M 'P -1'
_symmetry_Int_Tables_number 2
loop_
_symmetry_equiv_pos_site_id
_symmetry_equiv_pos_as_xyz
1 x,y,z
2 -x,-y,-z
_cell_length_a 7.1095(13)
_cell_length_b 7.1116(13)
_cell_length_c 7.8928(15)
_cell_angle_alpha 89.235(2)
_cell_angle_beta 66.303(2)
_cell_angle_gamma 66.804(2)
_cell_formula_units_Z 2
loop_
_atom_type_symbol
_atom_type_radius_bond
C 0.68
H 0.23
N 0.68
O 0.68
loop_
_atom_site_label
_atom_site_type_symbol
_atom_site_fract_x
_atom_site_fract_y
_atom_site_fract_z
N1 N 1.01069(16) 0.15061(14) 0.23306(13)
N2 N 1.11924(17) -0.04284(15) 0.12814(14)
N3 N 1.01947(18) -0.15246(15) 0.21687(14)
N4 N 0.84398(17) -0.03154(14) 0.38037(13)
H1 H 0.74890 -0.07250 0.46490
C1 C 0.83691(18) 0.15976(16) 0.39401(15)
C2 C 1.0923(2) 0.30996(18) 0.16631(16)
H2 H 0.97190 0.44840 0.23700
H3 H 1.12560 0.30920 0.03180
C3 C 1.3041(2) 0.27297(18) 0.19087(16)
H4 H 1.42200 0.13170 0.12570
H5 H 1.36340 0.37410 0.13260
O1 O 1.25883(17) 0.29364(13) 0.38498(12)
H6 H 1.26770 0.40120 0.41630
N5 N 0.70912(16) 0.33224(14) 0.52493(13)
N6 N 0.53014(16) 0.32653(15) 0.67447(13)
O2 O 0.48912(17) 0.17062(14) 0.68657(13)
O3 O 0.41240(15) 0.48403(14) 0.79502(12)
#END
