
#######################################################################
#
#                 Cambridge Crystallographic Data Centre
#                                CCDC
#
#######################################################################
#
# If this CIF has been generated from an entry in the Cambridge
# Structural Database, then it will include bibliographic, chemical,
# crystal, experimental, refinement or atomic coordinate data resulting
# from the CCDC's data processing and validation procedures.
#
#######################################################################

data_CSD_CIF_MOTJIQ
_audit_creation_date 2015-01-26
_audit_creation_method CSD-ConQuest-V1
_database_code_CSD MOTJIQ
_database_code_depnum_ccdc_archive 'CCDC 1031903'
_chemical_formula_sum 'C27 H24 N2 O4'
_chemical_formula_moiety
;
C27 H24 N2 O4
;
_journal_coden_Cambridge 920
_journal_volume 10
_journal_year 2015
_journal_page_first 1025
_journal_name_full 'Chem.Asian J. '
loop_
_publ_author_name
"Ying-Jung Chen"
"Shun-Chieh Yang"
"Chia-Chen Tsai"
"Kai-Chi Chang"
"Wen-Han Chuang"
"Wei-Lun Chu"
"V.Kovalev"
"Wen-Sheng Chung"
_chemical_name_systematic
;
10-(5-((4-t-butylphenoxy)methyl)-1,2,4-oxadiazol-3-yl)-10-hydroxyanthracen-9(1
0H)-one
;
_cell_volume   2276.382
_exptl_crystal_colour 'colorless'
_exptl_crystal_density_diffrn 1.285
_exptl_crystal_description 'tabular'
_diffrn_ambient_temperature 296
_refine_special_details
;
C12',C13',C14',C15' and C12,C13,C14,C15 disordered over two sites with 
occupancies 0.51:0.49.
;
#These two values have been output from a single CSD field.
_refine_ls_R_factor_gt 0.0666
_refine_ls_wR_factor_gt 0.0666
_symmetry_cell_setting monoclinic
_symmetry_space_group_name_H-M 'P 21/c'
_symmetry_Int_Tables_number 14
loop_
_symmetry_equiv_pos_site_id
_symmetry_equiv_pos_as_xyz
1 x,y,z
2 -x,1/2+y,1/2-z
3 -x,-y,-z
4 x,-1/2-y,-1/2+z
_cell_length_a 17.5478(4)
_cell_length_b 8.9851(2)
_cell_length_c 15.2261(3)
_cell_angle_alpha 90
_cell_angle_beta 108.518(1)
_cell_angle_gamma 90
_cell_formula_units_Z 4
loop_
_atom_type_symbol
_atom_type_radius_bond
C 0.68
H 0.23
N 0.68
O 0.68
loop_
_atom_site_label
_atom_site_type_symbol
_atom_site_fract_x
_atom_site_fract_y
_atom_site_fract_z
C1 C 0.3856(2) 0.1764(5) 0.7695(2)
H1 H 0.33610 0.14500 0.72980
C2 C 0.3993(2) 0.3251(4) 0.7876(2)
H2 H 0.35920 0.39400 0.76030
C3 C 0.47509(18) 0.3745(3) 0.84854(19)
C4 C 0.53432(17) 0.2690(3) 0.88665(19)
C5 C 0.67823(17) 0.2547(3) 0.9073(2)
C6 C 0.74315(18) 0.2414(3) 0.8150(2)
C7 C 0.78049(19) 0.2617(4) 0.7410(2)
H3 H 0.74360 0.23020 0.68180
H4 H 0.79350 0.36570 0.73640
C8 C 0.9015(2) 0.1898(4) 0.7131(2)
C9 C 0.88878(19) 0.2732(3) 0.6356(2)
H5 H 0.84100 0.32530 0.61050
C10 C 0.9491(2) 0.2786(3) 0.5944(2)
H6 H 0.94060 0.33710 0.54180
C11 C 1.0201(2) 0.2029(3) 0.6271(3)
C12 C 1.0937(10) 0.2264(15) 0.6013(12)
C13 C 1.1121(14) 0.084(2) 0.5619(16)
H7 H 1.09770 0.00180 0.59350
H8 H 1.16860 0.07970 0.56970
H9 H 1.08210 0.07930 0.49720
C14 C 1.1666(10) 0.271(2) 0.6803(13)
H10 H 1.15750 0.36660 0.70340
H11 H 1.21250 0.27670 0.65890
H12 H 1.17640 0.19860 0.72890
C15 C 1.0800(7) 0.341(2) 0.5244(13)
H13 H 1.03920 0.30550 0.47010
H14 H 1.12910 0.35590 0.51040
H15 H 1.06320 0.43310 0.54400
C16 C 1.0280(2) 0.1155(5) 0.7024(3)
H16 H 1.07470 0.05960 0.72620
C17 C 0.4433(2) 0.0747(4) 0.8088(2)
H17 H 0.43310 -0.02610 0.79690
C18 C 0.5167(2) 0.1201(3) 0.8661(2)
H18 H 0.55590 0.04900 0.89210
C19 C 0.4879(2) 0.5305(3) 0.8736(2)
C20 C 0.5677(2) 0.5780(3) 0.9345(2)
C21 C 0.5826(3) 0.7276(3) 0.9565(3)
H19 H 0.54200 0.79700 0.93280
C22 C 0.6559(3) 0.7741(4) 1.0121(3)
H20 H 0.66480 0.87500 1.02500
C23 C 0.7175(3) 0.6732(4) 1.0499(3)
H21 H 0.76710 0.70570 1.08860
C24 C 0.7038(2) 0.5205(3) 1.0287(2)
H22 H 0.74470 0.45170 1.05320
C25 C 0.62975(19) 0.4737(3) 0.97147(19)
C26 C 0.9699(3) 0.1067(6) 0.7446(3)
H23 H 0.97710 0.04370 0.79500
C27 C 0.61749(17) 0.3088(3) 0.95167(18)
N1 N 0.72270(18) 0.1387(3) 0.9368(2)
N2 N 0.68901(14) 0.3238(2) 0.83201(16)
O1 O 0.84908(19) 0.1771(4) 0.7635(2)
O2 O 0.63419(13) 0.2259(2) 1.03582(13)
H24 H 0.61130 0.26480 1.06930
O3 O 0.43299(15) 0.6220(2) 0.84630(15)
O4 O 0.76679(15) 0.1278(2) 0.87380(17)
C28? C 1.0829(11) 0.2047(17) 0.5699(12)
C29? C 1.1182(10) 0.0535(15) 0.5692(10)
H25? H 1.15880 0.05840 0.53940
H26? H 1.07670 -0.01420 0.53610
H27? H 1.14170 0.01930 0.63170
C30? C 1.1440(13) 0.317(2) 0.6205(19)
H28? H 1.13690 0.40730 0.58460
H29? H 1.19700 0.27880 0.62980
H30? H 1.13730 0.33840 0.67940
C31? C 1.0457(11) 0.250(2) 0.4686(12)
H31? H 1.01780 0.34330 0.46530
H32? H 1.00860 0.17530 0.43610
H33? H 1.08740 0.26160 0.44070
#END
