
#######################################################################
#
#                 Cambridge Crystallographic Data Centre
#                                CCDC
#
#######################################################################
#
# If this CIF has been generated from an entry in the Cambridge
# Structural Database, then it will include bibliographic, chemical,
# crystal, experimental, refinement or atomic coordinate data resulting
# from the CCDC's data processing and validation procedures.
#
#######################################################################

data_CSD_CIF_MOVHOV
_audit_creation_date 2009-09-28
_audit_creation_method CSD-ConQuest-V1
_database_code_CSD MOVHOV
_database_code_depnum_ccdc_archive 'CCDC 688230'
_chemical_formula_sum 'C21 H18 N4 O5'
_chemical_formula_moiety
;
C21 H18 N4 O5
;
_journal_coden_Cambridge 35
_journal_volume 74
_journal_year 2009
_journal_page_first 2120
_journal_name_full 'J.Org.Chem. '
loop_
_publ_author_name
"G.Bentabed-Ababsa"
"A.Derdour"
"T.Roisnel"
"J.A.Saez"
"P.Perez"
"E.Chamorro"
"L.R.Domingo"
"F.Mongin"
_chemical_name_systematic
;
cis-4-(1,3-Benzodioxol-5-yl)-2-(4-nitrophenyl)-3-propyl-1,3-oxazolidine-5,5-di
carbonitrile
;
_cell_volume   3801.563
_exptl_crystal_colour 'colorless'
_exptl_crystal_density_diffrn 1.42
_exptl_crystal_description 'prism'
_exptl_crystal_preparation 'acetone'
_diffrn_ambient_temperature 100
#These two values have been output from a single CSD field.
_refine_ls_R_factor_gt 0.0455
_refine_ls_wR_factor_gt 0.0455
_symmetry_cell_setting orthorhombic
_symmetry_space_group_name_H-M 'P b c a'
_symmetry_Int_Tables_number 61
loop_
_symmetry_equiv_pos_site_id
_symmetry_equiv_pos_as_xyz
1 x,y,z
2 1/2-x,-y,1/2+z
3 1/2+x,1/2-y,-z
4 -x,1/2+y,1/2-z
5 -x,-y,-z
6 -1/2+x,y,-1/2-z
7 -1/2-x,-1/2+y,z
8 x,-1/2-y,-1/2+z
_cell_length_a 7.0163(10)
_cell_length_b 13.875(2)
_cell_length_c 39.050(5)
_cell_angle_alpha 90
_cell_angle_beta 90
_cell_angle_gamma 90
_cell_formula_units_Z 8
loop_
_atom_type_symbol
_atom_type_radius_bond
C 0.68
H 0.23
N 0.68
O 0.68
loop_
_atom_site_label
_atom_site_type_symbol
_atom_site_fract_x
_atom_site_fract_y
_atom_site_fract_z
O1 O 0.24565(18) 0.29824(8) 0.01553(3)
N1 N 0.42437(18) 0.44830(9) 0.13386(3)
O2 O 0.73715(15) 0.48463(8) 0.14489(3)
O3 O 0.18558(16) 0.42418(8) -0.02222(3)
C1 C 0.2525(2) 0.46002(11) 0.00827(4)
C2 C 0.5846(2) 0.37602(11) 0.18413(4)
N2 N 0.8396(2) 0.36510(11) 0.07220(4)
C3 C 0.2794(2) 0.55428(11) 0.01741(4)
H1 H 0.25170 0.60570 0.00210
C4 C 0.2904(2) 0.38513(10) 0.03075(4)
C5 C 0.8061(2) 0.59567(12) 0.10135(4)
C6 C 0.7007(2) 0.50584(11) 0.10987(4)
C7 C 0.3501(2) 0.57130(11) 0.05052(4)
H2 H 0.36840 0.63580 0.05800
C8 C 0.3626(2) 0.39946(11) 0.06292(4)
H3 H 0.39010 0.34720 0.07780
C9 C 0.6326(2) 0.28842(11) 0.16886(4)
H4 H 0.65430 0.28560 0.14490
N3 N 0.8920(2) 0.66419(10) 0.09657(3)
C10 C 0.3940(2) 0.49598(11) 0.07270(4)
C11 C 0.5558(2) 0.38122(12) 0.21932(4)
H5 H 0.52430 0.44110 0.22970
C12 C 0.5730(2) 0.29891(13) 0.23937(4)
H6 H 0.55410 0.30150 0.26340
C13 C 0.4799(2) 0.51733(11) 0.10738(4)
H7 H 0.44300 0.58380 0.11470
C14 C 0.6184(2) 0.21312(12) 0.22329(4)
N4 N 0.6339(2) 0.12518(12) 0.24412(4)
C15 C 0.5574(2) 0.46385(11) 0.16192(4)
H8 H 0.51630 0.52010 0.17610
C16 C 0.1891(3) 0.32127(11) -0.01873(4)
H9 H 0.06120 0.29430 -0.02350
H10 H 0.28050 0.29310 -0.03530
C17 C 0.2216(2) 0.45921(12) 0.14407(4)
H11 H 0.14330 0.46740 0.12320
H12 H 0.20830 0.51850 0.15800
C18 C 0.6487(2) 0.20590(12) 0.18830(4)
H13 H 0.67960 0.14580 0.17800
C19 C 0.7760(2) 0.42621(11) 0.08802(4)
C20 C 0.1442(2) 0.37436(13) 0.16450(4)
H14 H 0.22230 0.36650 0.18540
H15 H 0.01240 0.38950 0.17180
O4 O 0.6576(3) 0.04777(12) 0.22925(5)
O5 O 0.6174(3) 0.13241(12) 0.27493(4)
C21 C 0.1424(3) 0.27931(13) 0.14512(5)
H16 H 0.09100 0.22850 0.15990
H17 H 0.27270 0.26260 0.13830
H18 H 0.06250 0.28560 0.12470
#END
