
#######################################################################
#
#                 Cambridge Crystallographic Data Centre
#                                CCDC
#
#######################################################################
#
# If this CIF has been generated from an entry in the Cambridge
# Structural Database, then it will include bibliographic, chemical,
# crystal, experimental, refinement or atomic coordinate data resulting
# from the CCDC's data processing and validation procedures.
#
#######################################################################

data_CSD_CIF_MOVREU
_audit_creation_date 2002-10-17
_audit_creation_method CSD-ConQuest-V1
_database_code_CSD MOVREU
_database_code_depnum_ccdc_archive 'CCDC 175393'
_chemical_formula_sum 'C11 H14 N1 O3'
_chemical_formula_moiety
;
C11 H14 N1 O3
;
_journal_coden_Cambridge 1220
_journal_volume 8
_journal_year 2002
_journal_page_first 3635
_journal_name_full 'Chem.-Eur.J. '
loop_
_publ_author_name
"D.Maspoch"
"L.Catala"
"P.Gerbier"
"D.Ruiz-Molina"
"J.Vidal-Gancedo"
"K.Wurst"
"C.Rovira"
"J.Veciana"
_chemical_name_systematic
;
1-(N-t-Butyl-N-oxylamino)-4-benzoic acid radical
;
_chemical_melting_point 435.15
_cell_volume   1103.228
_exptl_crystal_colour 'red'
_exptl_crystal_density_diffrn 1.254
_exptl_special_details
;
Melts with decomposition.

;
_exptl_crystal_description 'plate'
_diffrn_ambient_temperature 218
#These two values have been output from a single CSD field.
_refine_ls_R_factor_gt 0.0374
_refine_ls_wR_factor_gt 0.0374
_symmetry_cell_setting monoclinic
_symmetry_space_group_name_H-M 'P 21/n'
_symmetry_Int_Tables_number 14
loop_
_symmetry_equiv_pos_site_id
_symmetry_equiv_pos_as_xyz
1 x,y,z
2 1/2+x,1/2-y,1/2+z
3 -x,-y,-z
4 -1/2-x,-1/2+y,-1/2-z
_cell_length_a 6.8949(5)
_cell_length_b 8.7147(3)
_cell_length_c 18.377(1)
_cell_angle_alpha 90
_cell_angle_beta 92.427(2)
_cell_angle_gamma 90
_cell_formula_units_Z 4
loop_
_atom_type_symbol
_atom_type_radius_bond
C 0.68
H 0.23
N 0.68
O 0.68
loop_
_atom_site_label
_atom_site_type_symbol
_atom_site_fract_x
_atom_site_fract_y
_atom_site_fract_z
O1 O -0.7891(2) 0.64014(15) 0.62678(8)
O2 O -0.2264(2) 0.05474(13) 0.50503(7)
O3 O 0.0388(2) 0.19407(15) 0.52964(8)
H1 H 0.1036(35) 0.0984(31) 0.5171(14)
N1 N -0.6067(2) 0.65043(15) 0.64197(7)
C1 C -0.5401(3) 0.7776(2) 0.69322(10)
C2 C -0.4856(2) 0.5376(2) 0.61235(8)
C3 C -0.5736(2) 0.4015(2) 0.58755(9)
H2 H -0.70840 0.38840 0.59060
C4 C -0.4633(2) 0.2868(2) 0.55869(9)
H3 H -0.52350 0.19570 0.54220
C5 C -0.2643(2) 0.3038(2) 0.55354(8)
C6 C -0.1780(2) 0.4409(2) 0.57609(9)
H4 H -0.04400 0.45500 0.57130
C7 C -0.2872(2) 0.5565(2) 0.60537(9)
H5 H -0.22700 0.64850 0.62060
C8 C -0.1487(2) 0.1750(2) 0.52688(9)
C9 C -0.3997(4) 0.7130(3) 0.75175(11)
H6 H -0.3718(21) 0.7909(7) 0.7884(5)
H7 H -0.2802(10) 0.6825(19) 0.7298(2)
H8 H -0.4578(11) 0.6245(13) 0.7743(7)
C10 C -0.4474(4) 0.9041(2) 0.64940(13)
H9 H -0.3232(11) 0.8690(7) 0.6329(8)
H10 H -0.4279(22) 0.9943(7) 0.6798(3)
H11 H -0.5319(11) 0.9297(13) 0.6076(5)
C11 C -0.7198(4) 0.8387(3) 0.7284(2)
H12 H -0.6824(5) 0.9171(19) 0.7638(9)
H13 H -0.7846(19) 0.7555(6) 0.7526(11)
H14 H -0.8072(16) 0.8827(24) 0.6913(2)
#END
