
#######################################################################
#
#                 Cambridge Crystallographic Data Centre
#                                CCDC
#
#######################################################################
#
# If this CIF has been generated from an entry in the Cambridge
# Structural Database, then it will include bibliographic, chemical,
# crystal, experimental, refinement or atomic coordinate data resulting
# from the CCDC's data processing and validation procedures.
#
#######################################################################

data_CSD_CIF_MOVTAS
_audit_creation_date 2002-10-16
_audit_creation_method CSD-ConQuest-V1
_database_code_CSD MOVTAS
_database_code_depnum_ccdc_archive 'CCDC 162255'
_chemical_formula_sum 'C14 H12 N4 O6'
_chemical_formula_moiety
;
C14 H12 N4 O6
;
_journal_coden_Cambridge 34
_journal_volume 38
_journal_year 2001
_journal_page_first 1345
_journal_name_full 'J.Heterocycl.Chem. '
loop_
_publ_author_name
"A.Puchala"
"F.Belaj"
"J.Bergman"
"C.O.Kappe"
_chemical_name_systematic
;
4-((Hydroxyimino)nitromethyl)-2-oxo-6-phenyl-1,2-dihydro-pyrimidine-5-carboxyl
ic acid ethyl ester
;
_chemical_name_common
;
5-Ethoxycarbonyl-6-phenyl-1H-pyrimidin-2-one-4-nitrolic acid
;
_chemical_melting_point 436
_cell_volume   1509.220
_exptl_crystal_colour 'yellow'
_exptl_crystal_density_diffrn 1.462
_exptl_crystal_description 'block'
_exptl_crystal_preparation 'methanol/ethyl acetate'
_diffrn_ambient_temperature 90
#These two values have been output from a single CSD field.
_refine_ls_R_factor_gt 0.0398
_refine_ls_wR_factor_gt 0.0398
_symmetry_cell_setting monoclinic
_symmetry_space_group_name_H-M 'P 21/c'
_symmetry_Int_Tables_number 14
loop_
_symmetry_equiv_pos_site_id
_symmetry_equiv_pos_as_xyz
1 x,y,z
2 -x,1/2+y,1/2-z
3 -x,-y,-z
4 x,-1/2-y,-1/2+z
_cell_length_a 12.439(4)
_cell_length_b 17.198(4)
_cell_length_c 7.145(2)
_cell_angle_alpha 90
_cell_angle_beta 99.11(2)
_cell_angle_gamma 90
_cell_formula_units_Z 4
loop_
_atom_type_symbol
_atom_type_radius_bond
C 0.68
H 0.23
N 0.68
O 0.68
loop_
_atom_site_label
_atom_site_type_symbol
_atom_site_fract_x
_atom_site_fract_y
_atom_site_fract_z
N1 N 0.88667(11) 0.50736(8) 0.7917(2)
H1 H 0.9400(17) 0.4725(13) 0.844(3)
C1 C 0.87938(12) 0.57314(9) 0.9013(2)
O1 O 0.94570(9) 0.58570(7) 1.04332(17)
N2 N 0.79547(10) 0.62332(7) 0.84140(19)
C2 C 0.73465(12) 0.61175(9) 0.6754(2)
C3 C 0.74851(12) 0.55024(9) 0.5524(2)
C4 C 0.82662(12) 0.49497(9) 0.6200(2)
C5 C 0.65534(12) 0.67602(9) 0.6178(2)
N3 N 0.67617(10) 0.74096(8) 0.5483(2)
O2 O 0.78322(9) 0.74599(7) 0.52860(19)
H2 H 0.788(2) 0.7947(16) 0.464(4)
N4 N 0.54262(10) 0.66490(8) 0.6475(2)
O3 O 0.47606(9) 0.71540(7) 0.5961(2)
O4 O 0.52386(9) 0.60349(7) 0.72380(17)
C6 C 0.69314(13) 0.55072(9) 0.3512(2)
O5 O 0.73612(10) 0.53349(8) 0.21867(17)
O6 O 0.59039(8) 0.57581(7) 0.34046(16)
C7 C 0.53189(13) 0.58938(10) 0.1495(2)
H3 H 0.54520 0.54610 0.06460
H4 H 0.55690 0.63840 0.09770
C8 C 0.41269(13) 0.59449(11) 0.1630(3)
H5 H 0.37100 0.60380 0.03670
H6 H 0.40050 0.63740 0.24750
H7 H 0.38880 0.54560 0.21370
C9 C 0.84757(13) 0.42306(9) 0.5208(2)
C10 C 0.76076(13) 0.37967(10) 0.4276(2)
H8 H 0.68810 0.39680 0.42760
C11 C 0.78016(14) 0.31169(10) 0.3350(3)
H9 H 0.72080 0.28210 0.27200
C12 C 0.88593(14) 0.28659(10) 0.3339(3)
H10 H 0.89900 0.24010 0.26960
C13 C 0.97232(14) 0.32944(10) 0.4268(3)
H11 H 1.04480 0.31240 0.42500
C14 C 0.95400(13) 0.39703(9) 0.5223(2)
H12 H 1.01360 0.42550 0.58850
#END
