
#######################################################################
#
#                 Cambridge Crystallographic Data Centre
#                                CCDC
#
#######################################################################
#
# If this CIF has been generated from an entry in the Cambridge
# Structural Database, then it will include bibliographic, chemical,
# crystal, experimental, refinement or atomic coordinate data resulting
# from the CCDC's data processing and validation procedures.
#
#######################################################################

data_CSD_CIF_MOVVAV
_audit_creation_date 2009-09-28
_audit_creation_method CSD-ConQuest-V1
_database_code_CSD MOVVAV
_database_code_depnum_ccdc_archive 'CCDC 728955'
_chemical_formula_sum 'C7 H7 N1 O2'
_chemical_formula_moiety
;
C7 H7 N1 O2
;
_journal_coden_Cambridge 1147
_journal_volume 9
_journal_year 2009
_journal_page_first 57
_journal_name_full 'Cryst.Growth Des. '
loop_
_publ_author_name
"A.A.Yakovenko"
"M.Yu.Antipin"
"T.V.Timofeeva"
_chemical_name_systematic
;
1-Methyl-3-nitrobenzene
;
_chemical_melting_point 287
_cell_volume    690.293
_exptl_crystal_colour 'colorless'
_exptl_crystal_density_diffrn 1.319
_exptl_special_details
;
monoclinic polymorph
phase-transition below 200 K from the monoclinic to triclinic polymorph
;
_exptl_crystal_description 'cylindric'
_diffrn_ambient_temperature 270
_refine_special_details
;
Oxygens of the nitro group are disordered over two sites with occupancies 
0.50:0.50.
;
#These two values have been output from a single CSD field.
_refine_ls_R_factor_gt 0.0439
_refine_ls_wR_factor_gt 0.0439
_symmetry_cell_setting monoclinic
_symmetry_space_group_name_H-M 'P 21/c'
_symmetry_Int_Tables_number 14
loop_
_symmetry_equiv_pos_site_id
_symmetry_equiv_pos_as_xyz
1 x,y,z
2 -x,1/2+y,1/2-z
3 -x,-y,-z
4 x,-1/2-y,-1/2+z
_cell_length_a 7.888(13)
_cell_length_b 11.611(18)
_cell_length_c 7.537(11)
_cell_angle_alpha 90
_cell_angle_beta 90.15(3)
_cell_angle_gamma 90
_cell_formula_units_Z 4
loop_
_atom_type_symbol
_atom_type_radius_bond
C 0.68
H 0.23
N 0.68
O 0.68
loop_
_atom_site_label
_atom_site_type_symbol
_atom_site_fract_x
_atom_site_fract_y
_atom_site_fract_z
O1 O 0.2377(5) 0.1901(2) 0.0288(13)
O2 O 0.3048(5) 0.3692(2) -0.0064(12)
N1 N 0.3390(2) 0.27032(14) 0.0400(3)
C1 C 0.5084(2) 0.24701(18) 0.1120(4)
C2 C 0.6161(3) 0.33696(19) 0.1467(5)
H1 H 0.58000 0.41210 0.12680
C3 C 0.7768(3) 0.3172(2) 0.2104(5)
C4 C 0.8262(4) 0.2031(3) 0.2393(5)
H2 H 0.93460 0.18720 0.28140
C5 C 0.7152(4) 0.1142(2) 0.2059(6)
H3 H 0.74950 0.03880 0.22680
C6 C 0.5566(4) 0.1346(2) 0.1428(6)
H4 H 0.48220 0.07410 0.12080
C7 C 0.8986(4) 0.4152(3) 0.2474(6)
H5 H 0.83680 0.48020 0.29200
H6 H 0.95540 0.43630 0.13970
H7 H 0.98080 0.39110 0.33390
O3? O 0.2587(5) 0.1900(3) -0.0256(12)
O4? O 0.2837(5) 0.3692(2) 0.0479(12)
#END
