
#######################################################################
#
#                 Cambridge Crystallographic Data Centre
#                                CCDC
#
#######################################################################
#
# If this CIF has been generated from an entry in the Cambridge
# Structural Database, then it will include bibliographic, chemical,
# crystal, experimental, refinement or atomic coordinate data resulting
# from the CCDC's data processing and validation procedures.
#
#######################################################################

data_CSD_CIF_MOWNER01
_audit_creation_date 2003-06-05
_audit_creation_method CSD-ConQuest-V1
_database_code_CSD MOWNER01
_database_code_depnum_ccdc_archive 'CCDC 206979'
_chemical_formula_sum 'C34 H47 N2 O4'
_chemical_formula_moiety
;
C34 H47 N2 O4
;
_journal_coden_Cambridge 35
_journal_volume 68
_journal_year 2003
_journal_page_first 1708
_journal_name_full 'J.Org.Chem. '
loop_
_publ_author_name
"S.Nakatsuji"
"H.Ikemoto"
"H.Akutsu"
"J.Yamada"
"A.Mori"
_chemical_name_systematic
;
11-(4'-Cyanobiphenyl-4-yloxy)undecyl 
2,2,6,6-tetramethylpiperidinyl-1-oxy-4-carboxylate
;
_chemical_melting_point 355.15
_cell_volume   1583.862
_exptl_crystal_colour 'orange'
_exptl_special_details
;
Melting point range 355.15-358.15K

;
_exptl_crystal_description 'block'
_diffrn_ambient_temperature 295
#These two values have been output from a single CSD field.
_refine_ls_R_factor_gt 0.1
_refine_ls_wR_factor_gt 0.1
_symmetry_cell_setting triclinic
_symmetry_space_group_name_H-M 'P -1'
_symmetry_Int_Tables_number 2
loop_
_symmetry_equiv_pos_site_id
_symmetry_equiv_pos_as_xyz
1 x,y,z
2 -x,-y,-z
_cell_length_a 5.7679(10)
_cell_length_b 14.891(3)
_cell_length_c 18.637(3)
_cell_angle_alpha 84.860(3)
_cell_angle_beta 84.664(3)
_cell_angle_gamma 85.737(3)
_cell_formula_units_Z 2
loop_
_atom_type_symbol
_atom_type_radius_bond
C 0.68
H 0.23
N 0.68
O 0.68
loop_
_atom_site_label
_atom_site_type_symbol
_atom_site_fract_x
_atom_site_fract_y
_atom_site_fract_z
O1 O 0.5028(7) 0.4099(2) 0.3898(2)
O2 O -0.1562(5) -0.3440(2) 0.8557(1)
O3 O -0.4763(6) -0.4172(3) 0.8430(2)
O4 O -1.0687(6) -0.2090(2) 1.0605(2)
N1 N 1.3949(10) 1.0293(4) 0.2000(3)
N2 N -0.9000(6) -0.2442(2) 1.0183(2)
C1 C 1.2979(11) 0.9667(4) 0.2189(3)
C2 C 1.1818(9) 0.8863(3) 0.2443(3)
C3 C 1.2608(10) 0.8300(4) 0.2997(4)
C4 C 0.9872(11) 0.8634(3) 0.2147(3)
C5 C 1.1547(10) 0.7526(3) 0.3231(3)
C6 C 0.8800(9) 0.7849(3) 0.2397(3)
C7 C 0.9592(8) 0.7279(3) 0.2941(3)
C8 C 0.8480(9) 0.6426(3) 0.3199(3)
C9 C 0.8986(10) 0.5923(4) 0.3811(3)
C10 C 0.6805(9) 0.6104(4) 0.2842(3)
C11 C 0.7924(11) 0.5132(4) 0.4072(3)
C12 C 0.5719(10) 0.5328(4) 0.3086(3)
C13 C 0.6264(9) 0.4849(3) 0.3697(3)
C14 C 0.5610(9) 0.3536(3) 0.4510(3)
C15 C 0.3979(10) 0.2763(3) 0.4587(3)
C16 C 0.4389(9) 0.2084(3) 0.5220(3)
C17 C 0.2783(9) 0.1300(3) 0.5280(3)
C18 C 0.3092(9) 0.0610(4) 0.5909(2)
C19 C 0.1550(9) -0.0164(4) 0.5949(3)
C20 C 0.1825(9) -0.0856(3) 0.6554(3)
C21 C 0.0300(9) -0.1655(3) 0.6607(2)
C22 C 0.0662(9) -0.2330(4) 0.7255(3)
C23 C -0.0718(8) -0.3181(3) 0.7254(2)
C24 C -0.0450(8) -0.3819(3) 0.7900(2)
C25 C -0.3775(8) -0.3664(3) 0.8743(3)
C26 C -0.4917(7) -0.3158(3) 0.9363(2)
C27 C -0.6377(8) -0.2337(3) 0.9068(2)
C28 C -0.6488(8) -0.3754(3) 0.9862(2)
C29 C -0.7814(8) -0.1790(3) 0.9634(2)
C30 C -0.7904(7) -0.3327(3) 1.0478(2)
C31 C -0.6201(8) -0.1226(3) 1.0017(3)
C32 C -0.9680(8) -0.1181(3) 0.9276(3)
C33 C -0.6398(9) -0.3207(4) 1.1070(3)
C34 C -0.9835(9) -0.3925(4) 1.0766(3)
H1 H 1.40020 0.84610 0.32280
H2 H 0.91590 0.90450 0.17140
H3 H 1.23420 0.70520 0.35920
H4 H 0.73410 0.77050 0.21660
H5 H 1.03240 0.61100 0.40870
H6 H 0.62660 0.64440 0.23810
H7 H 0.83870 0.47650 0.45180
H8 H 0.46230 0.50680 0.27960
H9 H 0.71920 0.32860 0.44760
H10 H 0.54060 0.38710 0.49400
H11 H 0.22380 0.30410 0.46260
H12 H 0.39560 0.24880 0.41170
H13 H 0.60420 0.18350 0.51830
H14 H 0.42470 0.23650 0.56870
H15 H 0.11860 0.15300 0.53340
H16 H 0.30120 0.09870 0.48490
H17 H 0.47300 0.03440 0.58710
H18 H 0.29150 0.08900 0.63580
H19 H -0.01070 0.01020 0.59930
H20 H 0.16830 -0.04320 0.54910
H21 H 0.34420 -0.11030 0.64930
H22 H 0.16480 -0.05700 0.69950
H23 H -0.13850 -0.14090 0.66590
H24 H 0.04360 -0.19530 0.61730
H25 H 0.23400 -0.25290 0.72600
H26 H 0.02970 -0.20620 0.77200
H27 H -0.24220 -0.29860 0.72580
H28 H -0.03800 -0.34520 0.67970
H29 H 0.13770 -0.39070 0.79630
H30 H -0.07790 -0.44310 0.78610
H31 H -0.37650 -0.29350 0.96770
H32 H -0.53630 -0.19170 0.87650
H33 H -0.74200 -0.25260 0.87440
H34 H -0.74820 -0.40040 0.95540
H35 H -0.54920 -0.42740 1.00530
H36 H -0.64690 -0.13380 1.05540
H37 H -0.45630 -0.14010 0.99120
H38 H -0.64080 -0.05890 0.99190
H39 H -1.06300 -0.08510 0.95620
H40 H -0.88820 -0.07770 0.88780
H41 H -1.05560 -0.15550 0.89940
H42 H -0.71520 -0.33020 1.15390
H43 H -0.50450 -0.37050 1.10640
H44 H -0.56330 -0.26690 1.10160
H45 H -1.00800 -0.39670 1.12970
H46 H -1.13610 -0.36860 1.06070
H47 H -0.96210 -0.45320 1.06320
#END
