
#######################################################################
#
#                 Cambridge Crystallographic Data Centre
#                                CCDC
#
#######################################################################
#
# If this CIF has been generated from an entry in the Cambridge
# Structural Database, then it will include bibliographic, chemical,
# crystal, experimental, refinement or atomic coordinate data resulting
# from the CCDC's data processing and validation procedures.
#
#######################################################################

data_CSD_CIF_MPEINX10
_audit_creation_date 1975-12-19
_audit_creation_method CSD-ConQuest-V1
_database_code_CSD MPEINX10
_chemical_formula_sum 'C38 H31 N3 O2'
_chemical_formula_moiety
;
C38 H31 N3 O2
;
_journal_coden_Cambridge 11
_journal_volume 104
_journal_year 1974
_journal_page_first 1217
_journal_name_full 'Gazz.Chim.Ital. '
loop_
_publ_author_name
"E.Foresti Serantoni"
"R.Mongiorgi"
"M.Colonna"
"L.Greci"
"L.Marchetti"
"G.D.Andreetti"
_chemical_name_systematic
;
1-Ethyl-2-phenyl-2-(1-methyl-2-phenyl-3-indolyl)-3-indolinone O-benzoyl oxime
;
_chemical_melting_point 455.15
_cell_volume   3024.568
_exptl_crystal_density_diffrn 1.23
_exptl_special_details
;
HYDROGEN ATOMS ATTACHED TO C11 HAVE BEEN DELETED BECAUSE OF COORDINATE ERRORS

;
_diffrn_ambient_temperature ?
_diffrn_special_details
;
The study was carried out at room temperature,in the range 283-303K

;
#These two values have been output from a single CSD field.
_refine_ls_R_factor_gt 0.076
_refine_ls_wR_factor_gt 0.076
_symmetry_cell_setting monoclinic
_symmetry_space_group_name_H-M 'P 21/c'
_symmetry_Int_Tables_number 14
loop_
_symmetry_equiv_pos_site_id
_symmetry_equiv_pos_as_xyz
1 x,y,z
2 -x,1/2+y,1/2-z
3 -x,-y,-z
4 x,-1/2-y,-1/2+z
_cell_length_a 14.06(1)
_cell_length_b 18.20(1)
_cell_length_c 12.85(1)
_cell_angle_alpha 90
_cell_angle_beta 113.1(2)
_cell_angle_gamma 90
_cell_formula_units_Z 4
loop_
_atom_type_symbol
_atom_type_radius_bond
C 0.68
H 0.23
N 0.68
O 0.68
loop_
_atom_site_label
_atom_site_type_symbol
_atom_site_fract_x
_atom_site_fract_y
_atom_site_fract_z
C1 C 0.10870 -0.30610 -0.22860
C2 C 0.18000 -0.24150 -0.17420
C3 C 0.12430 -0.48830 -0.23340
C4 C 0.01980 -0.48020 -0.30050
C5 C -0.03190 -0.53150 -0.38250
C6 C 0.02060 -0.59100 -0.39880
C7 C 0.12400 -0.59990 -0.33280
C8 C 0.17710 -0.54910 -0.24890
C9 C 0.28750 -0.41300 -0.13310
C10 C 0.37250 -0.39450 -0.03840
C11 C 0.18060 -0.43390 -0.13830
C12 C 0.41370 -0.37000 -0.18750
C13 C 0.46420 -0.34760 -0.25670
C14 C 0.41080 -0.35500 -0.37160
C15 C 0.30960 -0.38380 -0.41750
C16 C 0.26110 -0.40500 -0.34750
C17 C 0.31220 -0.39840 -0.23010
C18 C 0.24950 -0.61510 0.14510
C19 C 0.17990 -0.46660 -0.02780
C20 C 0.25280 -0.62810 0.25980
C21 C 0.26750 -0.57320 0.33860
C22 C 0.27290 -0.59230 0.44630
C23 C 0.26150 -0.66630 0.47020
C24 C 0.24620 -0.71900 0.39120
C25 C 0.24220 -0.70150 0.28690
C26 C 0.39610 -0.39840 0.08370
C27 C 0.46450 -0.45090 0.15110
C28 C 0.49180 -0.45350 0.26540
C29 C 0.11170 -0.42220 0.00800
C30 C 0.45160 -0.40380 0.31650
C31 C 0.38470 -0.35150 0.25450
C32 C 0.35620 -0.34820 0.13960
C33 C 0.55000 -0.33900 0.00300
C34 C 0.07590 -0.43000 0.09460
C35 C 0.00930 -0.37730 0.10530
C36 C -0.01990 -0.31710 0.03170
C37 C 0.01370 -0.30840 -0.05430
C38 C 0.07890 -0.36280 -0.06780
H1 H 0.12500 -0.32600 -0.29700
H2 H 0.03000 -0.28800 -0.26500
H3 H -0.02100 -0.43500 -0.28700
H4 H -0.11300 -0.52400 -0.43500
H5 H -0.02000 -0.63100 -0.46400
H6 H 0.16400 -0.64600 -0.34500
H7 H 0.25600 -0.55500 -0.19900
H8 H 0.54000 -0.32400 -0.22300
H9 H 0.44600 -0.33700 -0.42700
H10 H 0.27000 -0.38900 -0.50800
H11 H 0.18400 -0.42800 -0.38500
H12 H 0.27600 -0.51600 0.31700
H13 H 0.28600 -0.55000 0.51000
H14 H 0.26500 -0.68300 0.55200
H15 H 0.23300 -0.77500 0.41000
H16 H 0.23100 -0.74400 0.22300
H17 H 0.49800 -0.49000 0.11300
H18 H 0.54600 -0.49600 0.31600
H19 H 0.47400 -0.40700 0.40600
H20 H 0.35300 -0.31200 0.29300
H21 H 0.30000 -0.30700 0.08000
H22 H 0.59200 -0.31800 -0.04500
H23 H 0.59000 -0.38000 0.06300
H24 H 0.60900 -0.36800 -0.00700
H25 H 0.10100 -0.47600 0.15300
H26 H -0.02000 -0.38200 0.17000
H27 H -0.07000 -0.27500 0.04300
H28 H -0.01100 -0.26100 -0.11100
N1 N 0.11700 -0.36630 -0.15000
N2 N 0.44950 -0.36850 -0.07180
N3 N 0.23350 -0.52440 0.00990
O1 O 0.22430 -0.54340 0.11480
O2 O 0.26550 -0.66000 0.08580
#END
