
#######################################################################
#
#                 Cambridge Crystallographic Data Centre
#                                CCDC
#
#######################################################################
#
# If this CIF has been generated from an entry in the Cambridge
# Structural Database, then it will include bibliographic, chemical,
# crystal, experimental, refinement or atomic coordinate data resulting
# from the CCDC's data processing and validation procedures.
#
#######################################################################

data_CSD_CIF_MTNANL01
_audit_creation_date 2002-11-27
_audit_creation_method CSD-ConQuest-V1
_database_code_CSD MTNANL01
_chemical_formula_sum 'C7 H5 N5 O8'
_chemical_formula_moiety
;
C7 H5 N5 O8
;
_journal_coden_Cambridge 41
_journal_volume 47
_journal_year 2002
_journal_page_first 72
_journal_name_full 'Kristallografiya(Russ.)(Crystallogr.Rep.) '
loop_
_publ_author_name
"N.E.Zhukhlistova"
"V.V.Prezhdo"
"A.S.Bykova"
_chemical_name_systematic
;
2,4,6-Trinitro-N-methyl-N-nitroaniline
;
_cell_volume   1102.959
_exptl_crystal_density_diffrn 1.729
_exptl_crystal_preparation 'dichloroethane'
_diffrn_ambient_temperature 293
#These two values have been output from a single CSD field.
_refine_ls_R_factor_gt 0.051
_refine_ls_wR_factor_gt 0.051
_symmetry_cell_setting monoclinic
_symmetry_space_group_name_H-M 'P 1 1 21/b'
_symmetry_Int_Tables_number 14
loop_
_symmetry_equiv_pos_site_id
_symmetry_equiv_pos_as_xyz
1 x,y,z
2 -x,1/2-y,1/2+z
3 -x,-y,-z
4 x,-1/2+y,-1/2-z
_cell_length_a 14.137(3)
_cell_length_b 10.621(2)
_cell_length_c 7.376(2)
_cell_angle_alpha 90
_cell_angle_beta 90
_cell_angle_gamma 95.19(5)
_cell_formula_units_Z 4
loop_
_atom_type_symbol
_atom_type_radius_bond
C 0.68
H 0.23
N 0.68
O 0.68
loop_
_atom_site_label
_atom_site_type_symbol
_atom_site_fract_x
_atom_site_fract_y
_atom_site_fract_z
C1 C 0.7633(1) 0.5763(2) -0.0416(3)
C2 C 0.7756(1) 0.5272(2) 0.1312(3)
C3 C 0.7172(1) 0.4278(2) 0.2030(3)
C4 C 0.6399(1) 0.3832(2) 0.1013(3)
C5 C 0.6196(1) 0.4321(2) -0.0673(3)
C6 C 0.6832(1) 0.5262(2) -0.1371(2)
N1 N 0.8345(1) 0.6655(2) -0.1128(3)
N2 N 0.8526(1) 0.5829(2) 0.2497(3)
N3 N 0.5767(1) 0.2761(2) 0.1720(3)
N4 N 0.6643(2) 0.5655(2) -0.3250(3)
N5 N 0.8073(2) 0.7792(2) -0.1644(3)
O1 O 0.7274(1) 0.8042(2) -0.1201(3)
O2 O 0.8652(2) 0.8482(2) -0.2491(4)
C7 C 0.9279(2) 0.6316(3) -0.1688(5)
O3 O 0.8655(2) 0.6979(2) 0.2566(3)
O4 O 0.8956(2) 0.5104(2) 0.3381(3)
O5 O 0.6102(1) 0.2066(2) 0.2808(3)
O6 O 0.4959(2) 0.2629(2) 0.1162(4)
O7 O 0.5839(2) 0.5475(3) -0.3785(3)
O8 O 0.7308(2) 0.6112(2) -0.4158(3)
H1 H 0.728(2) 0.394(2) 0.314(4)
H2 H 0.565(2) 0.405(3) -0.138(4)
H3 H 0.970(3) 0.687(4) -0.120(6)
H4 H 0.934(3) 0.552(4) -0.129(5)
H5 H 0.931(3) 0.633(4) -0.308(7)
#END
