
#######################################################################
#
#                 Cambridge Crystallographic Data Centre
#                                CCDC
#
#######################################################################
#
# If this CIF has been generated from an entry in the Cambridge
# Structural Database, then it will include bibliographic, chemical,
# crystal, experimental, refinement or atomic coordinate data resulting
# from the CCDC's data processing and validation procedures.
#
#######################################################################

data_CSD_CIF_MTNOAN10
_audit_creation_date 1973-05-11
_audit_creation_method CSD-ConQuest-V1
_database_code_CSD MTNOAN10
_chemical_formula_sum 'C9 H8 N4 O7'
_chemical_formula_moiety
;
C9 H8 N4 O7
;
_journal_coeditor_code "IUCr A09834"
_journal_coden_Cambridge 107
_journal_volume 29
_journal_year 1973
_journal_page_first 121
_journal_name_full 'Acta Crystallogr.,Sect.B:Struct.Crystallogr.Cryst.Chem. '
loop_
_publ_author_name
"G.G.Christoph"
"E.B.Fleischer"
_chemical_name_systematic
;
N-Methyl-2,4,6-trinitroacetanilide
;
_cell_volume   1197.579
_exptl_crystal_density_diffrn 1.6
_diffrn_ambient_temperature ?
_diffrn_special_details
;
The study was carried out at room temperature,in the range 283-303K

;
_symmetry_cell_setting monoclinic
_symmetry_space_group_name_H-M 'P 21/c'
_symmetry_Int_Tables_number 14
loop_
_symmetry_equiv_pos_site_id
_symmetry_equiv_pos_as_xyz
1 x,y,z
2 -x,1/2+y,1/2-z
3 -x,-y,-z
4 x,-1/2-y,-1/2+z
_cell_length_a 7.813(2)
_cell_length_b 8.666(2)
_cell_length_c 17.990(1)
_cell_angle_alpha 90
_cell_angle_beta 100.521
_cell_angle_gamma 90
_cell_formula_units_Z 4
loop_
_atom_type_symbol
_atom_type_radius_bond
C 0.68
H 0.20
N 0.68
O 0.68
loop_
_atom_site_label
_atom_site_type_symbol
_atom_site_fract_x
_atom_site_fract_y
_atom_site_fract_z
C1 C 0.23216 0.50383 0.20735
C2 C 0.07310 0.55417 0.22366
C3 C 0.04598 0.58876 0.29517
C4 C 0.18388 0.56671 0.35365
C5 C 0.34430 0.51494 0.34265
C6 C 0.36651 0.48824 0.26969
C7 C 0.23545 0.60281 0.07850
C8 C 0.31184 0.33032 0.11691
C9 C 0.34850 0.30584 0.03909
H1 H -0.06500 0.62390 0.30380
H2 H 0.44000 0.49590 0.38240
H3 H 0.36910 0.20780 0.03440
H4 H 0.44720 0.36280 0.02920
H5 H 0.26400 0.34750 0.00110
H6 H 0.34330 0.63400 0.07030
H7 H 0.17200 0.56660 0.02880
H8 H 0.17580 0.69860 0.09870
N1 N 0.25204 0.47391 0.13216
N2 N -0.07647 0.57186 0.16075
N3 N 0.16127 0.59881 0.43173
N4 N 0.54425 0.44564 0.26011
O1 O 0.33257 0.23038 0.16508
O2 O -0.11804 0.46205 0.11935
O3 O -0.14877 0.69732 0.15459
O4 O 0.01747 0.63787 0.44185
O5 O 0.28815 0.58686 0.48243
O6 O 0.62804 0.36505 0.30845
O7 O 0.59626 0.49612 0.20513
#END
