
#######################################################################
#
#                 Cambridge Crystallographic Data Centre
#                                CCDC
#
#######################################################################
#
# If this CIF has been generated from an entry in the Cambridge
# Structural Database, then it will include bibliographic, chemical,
# crystal, experimental, refinement or atomic coordinate data resulting
# from the CCDC's data processing and validation procedures.
#
#######################################################################

data_CSD_CIF_MUBHEX
_audit_creation_date 2009-09-28
_audit_creation_method CSD-ConQuest-V1
_database_code_CSD MUBHEX
_database_code_depnum_ccdc_archive 'CCDC 744365'
_chemical_formula_sum 'C13 H10 N2 O3'
_chemical_formula_moiety
;
C13 H10 N2 O3
;
_journal_coeditor_code "IUCr AT2824"
_journal_coden_Cambridge 1370
_journal_volume 65
_journal_year 2009
_journal_page_first o1845
_journal_name_full 'Acta Crystallogr.,Sect.E:Struct.Rep.Online '
loop_
_publ_author_name
"A.Saeed"
"J.Simpson"
_chemical_name_systematic
;
N-(2-Nitrophenyl)benzamide
;
_cell_volume   1100.292
_exptl_crystal_colour 'colorless'
_exptl_crystal_density_diffrn 1.462
_exptl_crystal_description 'plate'
_exptl_crystal_preparation 'chloroform'
_diffrn_ambient_temperature 89
#These two values have been output from a single CSD field.
_refine_ls_R_factor_gt 0.0412
_refine_ls_wR_factor_gt 0.0412
_symmetry_cell_setting monoclinic
_symmetry_space_group_name_H-M 'P 21/n'
_symmetry_Int_Tables_number 14
loop_
_symmetry_equiv_pos_site_id
_symmetry_equiv_pos_as_xyz
1 x,y,z
2 1/2-x,1/2+y,1/2-z
3 -x,-y,-z
4 -1/2+x,-1/2-y,-1/2+z
_cell_length_a 7.2061(5)
_cell_length_b 7.4253(5)
_cell_length_c 20.6031(13)
_cell_angle_alpha 90
_cell_angle_beta 93.560(4)
_cell_angle_gamma 90
_cell_formula_units_Z 4
loop_
_atom_type_symbol
_atom_type_radius_bond
C 0.68
H 0.23
N 0.68
O 0.68
loop_
_atom_site_label
_atom_site_type_symbol
_atom_site_fract_x
_atom_site_fract_y
_atom_site_fract_z
N1 N 0.73812(11) 0.03317(11) 0.50049(4)
H1 H 0.678(2) -0.064(2) 0.5129(7)
O1 O 0.87401(11) 0.1641(1) 0.41448(4)
C1 C 0.78498(13) 0.04075(12) 0.43690(4)
C2 C 0.71690(13) -0.11570(12) 0.39614(4)
C3 C 0.70064(14) -0.09052(13) 0.32883(5)
H2 H 0.73150 0.02260 0.31090
C4 C 0.63950(14) -0.23021(14) 0.28797(5)
H3 H 0.62750 -0.21200 0.24230
C5 C 0.59588(14) -0.39666(14) 0.31405(5)
H4 H 0.55430 -0.49210 0.28610
C6 C 0.61305(14) -0.42356(13) 0.38095(5)
H5 H 0.58400 -0.53760 0.39860
C7 C 0.67274(13) -0.28349(13) 0.42198(5)
H6 H 0.68360 -0.30180 0.46770
C8 C 0.78625(12) 0.15306(12) 0.55126(4)
C9 C 0.78085(13) 0.09917(12) 0.61677(4)
N2 N 0.72463(12) -0.08197(11) 0.63520(4)
O2 O 0.76511(13) -0.13362(11) 0.69076(4)
O3 O 0.63473(11) -0.17725(10) 0.59477(3)
C10 C 0.82755(13) 0.21653(14) 0.66792(5)
H7 H 0.82350 0.17650 0.71160
C11 C 0.87973(14) 0.39107(14) 0.65503(5)
H8 H 0.91120 0.47200 0.68970
C12 C 0.88585(14) 0.44738(13) 0.59089(5)
H9 H 0.92180 0.56750 0.58200
C13 C 0.84023(13) 0.33090(12) 0.53965(5)
H10 H 0.84570 0.37230 0.49620
#END
