
#######################################################################
#
#                 Cambridge Crystallographic Data Centre
#                                CCDC
#
#######################################################################
#
# If this CIF has been generated from an entry in the Cambridge
# Structural Database, then it will include bibliographic, chemical,
# crystal, experimental, refinement or atomic coordinate data resulting
# from the CCDC's data processing and validation procedures.
#
#######################################################################

data_CSD_CIF_MUBKEA
_audit_creation_date 2009-09-28
_audit_creation_method CSD-ConQuest-V1
_database_code_CSD MUBKEA
_database_code_depnum_ccdc_archive 'CCDC 744527'
_chemical_formula_sum 'C15 H12 N2 O4'
_chemical_formula_moiety
;
C15 H12 N2 O4
;
_journal_coeditor_code "IUCr XU2566"
_journal_coden_Cambridge 1370
_journal_volume 65
_journal_year 2009
_journal_page_first o2052
_journal_name_full 'Acta Crystallogr.,Sect.E:Struct.Rep.Online '
loop_
_publ_author_name
"Long He"
_chemical_name_systematic
;
3-(4-Nitrophenyl)-N-phenyl-2-oxiranecarboxamide
;
_cell_volume    664.354
_exptl_crystal_colour 'colorless'
_exptl_crystal_density_diffrn 1.421
_exptl_crystal_description 'block'
_exptl_crystal_preparation 'ethanol'
_diffrn_ambient_temperature 293
#These two values have been output from a single CSD field.
_refine_ls_R_factor_gt 0.0391
_refine_ls_wR_factor_gt 0.0391
_symmetry_cell_setting monoclinic
_symmetry_space_group_name_H-M 'P 21'
_symmetry_Int_Tables_number 4
loop_
_symmetry_equiv_pos_site_id
_symmetry_equiv_pos_as_xyz
1 x,y,z
2 -x,1/2+y,-z
_cell_length_a 5.9800(3)
_cell_length_b 5.1960(4)
_cell_length_c 21.503(5)
_cell_angle_alpha 90
_cell_angle_beta 96.105(5)
_cell_angle_gamma 90
_cell_formula_units_Z 2
loop_
_atom_type_symbol
_atom_type_radius_bond
C 0.68
H 0.23
N 0.68
O 0.68
loop_
_atom_site_label
_atom_site_type_symbol
_atom_site_fract_x
_atom_site_fract_y
_atom_site_fract_z
O1 O 0.6579(3) 0.2311(5) 0.48448(11)
O2 O 0.7928(4) 1.2561(5) 0.25607(9)
N1 N 0.8102(5) 0.8270(6) 0.17913(12)
O3 O 0.3472(3) 0.2679(5) 0.42342(10)
N2 N 0.5421(5) 0.3314(6) 0.44030(13)
C1 C 0.8251(5) 0.9283(6) 0.34170(14)
C2 C 0.8515(4) 0.6302(6) 0.42748(13)
H1 H 0.93010 0.56060 0.46320
C3 C 0.7716(6) 0.6203(7) 0.13644(14)
C4 C 0.9424(4) 0.8237(7) 0.39512(14)
H2 H 1.08480 0.88610 0.40900
O4 O 1.1883(4) 0.7951(6) 0.20507(10)
C5 C 0.6412(5) 0.5415(7) 0.40592(15)
C6 C 0.6126(5) 0.8330(7) 0.32131(13)
H3 H 0.53230 0.90080 0.28560
C7 C 1.0022(6) 1.1420(7) 0.24713(14)
H4 H 1.12140 1.26600 0.24100
C8 C 0.5216(5) 0.6395(7) 0.35375(14)
H5 H 0.37940 0.57550 0.34030
C9 C 0.9241(5) 1.1506(7) 0.30983(14)
H6 H 0.99990 1.27860 0.33820
C10 C 0.9264(5) 0.5501(8) 0.09757(14)
H7 H 1.06390 0.63480 0.09960
C11 C 1.0093(7) 0.9023(7) 0.20860(15)
C12 C 0.8787(6) 0.3529(8) 0.05514(15)
H8 H 0.98470 0.30640 0.02850
C13 C 0.5675(5) 0.4925(8) 0.13414(15)
H9 H 0.46230 0.53820 0.16110
C14 C 0.6773(6) 0.2246(7) 0.05169(15)
H10 H 0.64620 0.09180 0.02310
C15 C 0.5224(5) 0.2959(9) 0.09128(17)
H11 H 0.38500 0.21070 0.08920
H12 H 0.678(3) 0.890(6) 0.1938(12)
#END
