
#######################################################################
#
#                 Cambridge Crystallographic Data Centre
#                                CCDC
#
#######################################################################
#
# If this CIF has been generated from an entry in the Cambridge
# Structural Database, then it will include bibliographic, chemical,
# crystal, experimental, refinement or atomic coordinate data resulting
# from the CCDC's data processing and validation procedures.
#
#######################################################################

data_CSD_CIF_MUBKAW
_audit_creation_date 2009-09-28
_audit_creation_method CSD-ConQuest-V1
_database_code_CSD MUBKAW
_database_code_depnum_ccdc_archive 'CCDC 744525'
_chemical_formula_sum 'C14 H11 N3 O5'
_chemical_formula_moiety
;
C14 H11 N3 O5
;
_journal_coeditor_code "IUCr CI2865"
_journal_coden_Cambridge 1370
_journal_volume 65
_journal_year 2009
_journal_page_first o2050
_journal_name_full 'Acta Crystallogr.,Sect.E:Struct.Rep.Online '
loop_
_publ_author_name
"Feng Qiu"
"Xiao-Jing He"
"Ya-Xin Sun"
"Xu Zhu"
_chemical_name_systematic
;
(E)-N'-(3,4-Dihydroxybenzylidene)-4-nitrobenzohydrazide
;
_cell_volume   1327.061
_exptl_crystal_colour 'colorless'
_exptl_crystal_density_diffrn 1.508
_exptl_crystal_description 'block'
_exptl_crystal_preparation 'absolute methanol'
_diffrn_ambient_temperature 298
_refine_special_details
;
One of the hydroxy groups is disordered over two sites with occupancies 
0.643:0.357.
;
#These two values have been output from a single CSD field.
_refine_ls_R_factor_gt 0.069
_refine_ls_wR_factor_gt 0.069
_symmetry_cell_setting monoclinic
_symmetry_space_group_name_H-M 'P 21/c'
_symmetry_Int_Tables_number 14
loop_
_symmetry_equiv_pos_site_id
_symmetry_equiv_pos_as_xyz
1 x,y,z
2 -x,1/2+y,1/2-z
3 -x,-y,-z
4 x,-1/2-y,-1/2+z
_cell_length_a 7.666(1)
_cell_length_b 13.196(2)
_cell_length_c 13.176(2)
_cell_angle_alpha 90
_cell_angle_beta 95.361(3)
_cell_angle_gamma 90
_cell_formula_units_Z 4
loop_
_atom_type_symbol
_atom_type_radius_bond
C 0.68
H 0.23
N 0.68
O 0.68
loop_
_atom_site_label
_atom_site_type_symbol
_atom_site_fract_x
_atom_site_fract_y
_atom_site_fract_z
O1 O 0.6818(3) 1.15446(15) 0.09056(17)
O2 O 0.5123(3) 0.56081(15) 0.27427(16)
H1 H 0.45200 0.58250 0.31770
O3 O 0.6235(5) 0.5128(2) 0.0971(3)
H2 H 0.60130 0.47820 0.14600
O4 O 1.0449(3) 1.43595(18) -0.3087(2)
O5 O 0.9668(4) 1.5401(2) -0.1968(2)
N1 N 0.9797(4) 1.4543(2) -0.2301(2)
N2 N 0.7625(3) 1.03529(18) -0.01803(18)
H3 H 0.78950 1.00900 -0.07780
N3 N 0.7082(3) 0.9614(2) 0.04686(19)
C1 C 0.9174(4) 1.3697(2) -0.1705(2)
C2 C 0.8561(4) 1.3914(2) -0.0783(3)
H4 H 0.85170 1.45790 -0.05520
C3 C 0.8013(4) 1.3123(2) -0.0209(2)
H5 H 0.75990 1.32550 0.04190
C4 C 0.8072(4) 1.2134(2) -0.0558(2)
C5 C 0.8690(4) 1.1948(2) -0.1500(2)
H6 H 0.87230 1.12880 -0.17450
C6 C 0.9252(4) 1.2736(2) -0.2070(2)
H7 H 0.96790 1.26130 -0.26960
C7 C 0.7446(4) 1.1325(2) 0.0104(2)
C8 C 0.7224(4) 0.8695(2) 0.0199(2)
H8 H 0.76550 0.85360 -0.04180
C9 C 0.6702(4) 0.7893(2) 0.0869(2)
C10 C 0.6126(4) 0.8135(2) 0.1810(2)
H9 H 0.60940 0.88110 0.20080
C11 C 0.5601(4) 0.7403(2) 0.2447(2)
H10 H 0.52320 0.75820 0.30760
C12 C 0.5617(4) 0.6395(2) 0.2157(2)
C13 C 0.6193(4) 0.6140(2) 0.1230(2)
C14 C 0.6724(4) 0.6884(2) 0.0591(2)
H11 H 0.71030 0.67050 -0.00340
H12? H 0.62240 0.54640 0.10340
H13? H 0.42250 0.75790 0.34390
O6? O 0.5167(10) 0.7811(5) 0.3302(5)
#END
