
#######################################################################
#
#                 Cambridge Crystallographic Data Centre
#                                CCDC
#
#######################################################################
#
# If this CIF has been generated from an entry in the Cambridge
# Structural Database, then it will include bibliographic, chemical,
# crystal, experimental, refinement or atomic coordinate data resulting
# from the CCDC's data processing and validation procedures.
#
#######################################################################

data_CSD_CIF_MUCJAW
_audit_creation_date 2009-09-28
_audit_creation_method CSD-ConQuest-V1
_database_code_CSD MUCJAW
_database_code_depnum_ccdc_archive 'CCDC 734317'
_chemical_formula_sum 'C25 H22 N2 O3'
_chemical_formula_moiety
;
C25 H22 N2 O3
;
_journal_coeditor_code "IUCr ZQ2005"
_journal_coden_Cambridge 1370
_journal_volume 65
_journal_year 2009
_journal_page_first o2284
_journal_name_full 'Acta Crystallogr.,Sect.E:Struct.Rep.Online '
loop_
_publ_author_name
"Runhong Jia"
"Juhua Peng"
"Shujiang Tu"
_chemical_name_systematic
;
9,9-Dimethyl-12-(3-nitrophenyl)-8,9,10,12-tetrahydrobenzo[a]acridin-11(7H)-one
;
_chemical_melting_point 567
_cell_volume   2013.183
_exptl_crystal_colour 'colorless'
_exptl_crystal_density_diffrn 1.315
_exptl_special_details
;
Melting point range 567-569K

;
_exptl_crystal_description 'block'
_exptl_crystal_preparation 'aqueous ethanol'
_diffrn_ambient_temperature 298
#These two values have been output from a single CSD field.
_refine_ls_R_factor_gt 0.055
_refine_ls_wR_factor_gt 0.055
_symmetry_cell_setting monoclinic
_symmetry_space_group_name_H-M 'P 21/n'
_symmetry_Int_Tables_number 14
loop_
_symmetry_equiv_pos_site_id
_symmetry_equiv_pos_as_xyz
1 x,y,z
2 1/2-x,1/2+y,1/2-z
3 -x,-y,-z
4 -1/2+x,-1/2-y,-1/2+z
_cell_length_a 10.264(7)
_cell_length_b 13.099(9)
_cell_length_c 15.018(10)
_cell_angle_alpha 90
_cell_angle_beta 94.403(10)
_cell_angle_gamma 90
_cell_formula_units_Z 4
loop_
_atom_type_symbol
_atom_type_radius_bond
C 0.68
H 0.23
N 0.68
O 0.68
loop_
_atom_site_label
_atom_site_type_symbol
_atom_site_fract_x
_atom_site_fract_y
_atom_site_fract_z
N1 N 0.1648(3) 0.5920(2) 0.2710(2)
H1 H 0.18780 0.52980 0.28180
N2 N -0.1766(5) 0.6049(4) -0.0481(3)
O1 O 0.2576(3) 0.9019(2) 0.1356(2)
O2 O -0.1419(4) 0.5259(4) -0.0133(3)
O3 O -0.2455(6) 0.6095(4) -0.1163(3)
C1 C 0.2442(4) 0.6520(3) 0.2254(3)
C2 C 0.3791(4) 0.6138(3) 0.2166(3)
H2 H 0.37510 0.54090 0.20500
H3 H 0.43010 0.62380 0.27300
C3 C 0.4497(4) 0.6650(3) 0.1429(3)
C4 C 0.4294(4) 0.7796(3) 0.1489(3)
H4 H 0.48390 0.80520 0.19970
H5 H 0.45960 0.81090 0.09580
C5 C 0.2909(4) 0.8141(3) 0.1584(3)
C6 C 0.2012(4) 0.7453(3) 0.1960(3)
C7 C 0.0640(4) 0.7834(3) 0.2070(3)
H6 H 0.07080 0.85330 0.23010
C8 C -0.0039(4) 0.7197(3) 0.2741(3)
C9 C -0.1215(4) 0.7545(3) 0.3091(3)
C10 C -0.1783(4) 0.8501(3) 0.2861(3)
H7 H -0.13780 0.89310 0.24740
C11 C -0.2924(4) 0.8803(4) 0.3201(3)
H8 H -0.32730 0.94420 0.30570
C12 C -0.3568(5) 0.8154(5) 0.3765(4)
H9 H -0.43570 0.83530 0.39780
C13 C -0.3039(5) 0.7236(4) 0.4000(3)
H10 H -0.34640 0.68180 0.43870
C14 C -0.1868(4) 0.6900(4) 0.3676(3)
C15 C -0.1288(5) 0.5958(4) 0.3933(3)
H11 H -0.16940 0.55440 0.43320
C16 C -0.0156(4) 0.5643(3) 0.3615(3)
H12 H 0.02070 0.50180 0.37920
C17 C 0.0466(4) 0.6269(3) 0.3013(3)
C18 C 0.5955(4) 0.6397(3) 0.1543(4)
H13 H 0.63060 0.66170 0.21220
H14 H 0.64000 0.67420 0.10910
H15 H 0.60730 0.56740 0.14880
C19 C 0.3959(4) 0.6251(4) 0.0517(3)
H16 H 0.41120 0.55300 0.04840
H17 H 0.43900 0.65910 0.00550
H18 H 0.30370 0.63820 0.04380
C20 C -0.0192(4) 0.7865(3) 0.1176(3)
C21 C -0.0601(4) 0.6960(3) 0.0759(3)
H19 H -0.03500 0.63340 0.10090
C22 C -0.1379(4) 0.7000(4) -0.0025(3)
C23 C -0.1796(4) 0.7900(5) -0.0420(3)
H20 H -0.23440 0.79030 -0.09420
C24 C -0.1373(5) 0.8802(4) -0.0016(3)
H21 H -0.16310 0.94250 -0.02690
C25 C -0.0565(4) 0.8776(3) 0.0769(3)
H22 H -0.02670 0.93870 0.10270
#END
