
#######################################################################
#
#                 Cambridge Crystallographic Data Centre
#                                CCDC
#
#######################################################################
#
# If this CIF has been generated from an entry in the Cambridge
# Structural Database, then it will include bibliographic, chemical,
# crystal, experimental, refinement or atomic coordinate data resulting
# from the CCDC's data processing and validation procedures.
#
#######################################################################

data_CSD_CIF_MUCKEA
_audit_creation_date 2002-11-27
_audit_creation_method CSD-ConQuest-V1
_database_code_CSD MUCKEA
_chemical_formula_sum 'C11 H14 N3 O1'
_chemical_formula_moiety
;
C11 H14 N3 O1
;
_journal_coden_Cambridge 1096
_journal_volume 11
_journal_year 1999
_journal_page_first 2205
_journal_name_full 'Chem.Mater. '
loop_
_publ_author_name
"J.R.Ferrer"
"P.M.Lahti"
"C.George"
"G.Antorrena"
"F.Palacio"
_chemical_name_systematic
;
2-(N-t-Butylaminoxy)benzimidazole
;
_chemical_melting_point 401.15
_cell_volume   2219.301
_exptl_crystal_colour 'ruby'
_exptl_crystal_density_diffrn 1.223
_exptl_special_details
;
Melting point range 401.15-403.15K

;
_exptl_crystal_description 'plates'
_exptl_crystal_preparation 'dichloromethane/hexane'
_diffrn_ambient_temperature 293
#These two values have been output from a single CSD field.
_refine_ls_R_factor_gt 0.0414
_refine_ls_wR_factor_gt 0.0414
_symmetry_cell_setting orthorhombic
_symmetry_space_group_name_H-M 'P b c a'
_symmetry_Int_Tables_number 61
loop_
_symmetry_equiv_pos_site_id
_symmetry_equiv_pos_as_xyz
1 x,y,z
2 1/2-x,-y,1/2+z
3 1/2+x,1/2-y,-z
4 -x,1/2+y,1/2-z
5 -x,-y,-z
6 -1/2+x,y,-1/2-z
7 -1/2-x,-1/2+y,z
8 x,-1/2-y,-1/2+z
_cell_length_a 6.880(1)
_cell_length_b 10.294(1)
_cell_length_c 31.336(2)
_cell_angle_alpha 90
_cell_angle_beta 90
_cell_angle_gamma 90
_cell_formula_units_Z 8
loop_
_atom_type_symbol
_atom_type_radius_bond
C 0.68
H 0.23
N 0.68
O 0.68
loop_
_atom_site_label
_atom_site_type_symbol
_atom_site_fract_x
_atom_site_fract_y
_atom_site_fract_z
N1 N 0.2910(3) 0.5385(2) 0.3646(1)
C1 C 0.1876(3) 0.4383(2) 0.3807(1)
N2 N 0.2302(3) 0.3242(2) 0.3638(1)
C2 C 0.3712(3) 0.3534(2) 0.3336(1)
C3 C 0.4699(4) 0.2720(2) 0.3056(1)
C4 C 0.6031(4) 0.3267(3) 0.2786(1)
C5 C 0.6410(4) 0.4599(3) 0.2789(1)
C6 C 0.5458(4) 0.5425(2) 0.3064(1)
C7 C 0.4105(3) 0.4868(2) 0.3335(1)
N3 N 0.0503(3) 0.4630(2) 0.4123(1)
O1 O 0.0500(3) 0.5785(2) 0.4277(1)
C8 C -0.0906(3) 0.3639(2) 0.4293(1)
C9 C -0.1859(4) 0.2923(3) 0.3923(1)
C10 C -0.2444(5) 0.4368(3) 0.4543(1)
C11 C 0.0217(4) 0.2718(2) 0.4582(1)
H1 H 0.269(3) 0.622(2) 0.3727(7)
H2 H 0.44610 0.18310 0.30520
H3 H 0.67000 0.27380 0.25950
H4 H 0.73280 0.49360 0.26020
H5 H 0.57110 0.63120 0.30670
H6 H -0.08840 0.24620 0.37640
H7 H -0.24920 0.35380 0.37390
H8 H -0.27990 0.23190 0.40310
H9 H -0.31400 0.49380 0.43550
H10 H -0.18340 0.48680 0.47640
H11 H -0.33340 0.37590 0.46690
H12 H 0.11700 0.22590 0.44160
H13 H -0.06650 0.21080 0.47090
H14 H 0.08550 0.32060 0.48020
#END
