
#######################################################################
#
#                 Cambridge Crystallographic Data Centre
#                                CCDC
#
#######################################################################
#
# If this CIF has been generated from an entry in the Cambridge
# Structural Database, then it will include bibliographic, chemical,
# crystal, experimental, refinement or atomic coordinate data resulting
# from the CCDC's data processing and validation procedures.
#
#######################################################################

data_CSD_CIF_MUDDIZ
_audit_creation_date 2010-06-29
_audit_creation_method CSD-ConQuest-V1
_database_code_CSD MUDDIZ
_database_code_depnum_ccdc_archive 'CCDC 754544'
_chemical_formula_sum 'C30 H48 N2 O13'
_chemical_formula_moiety
;
C30 H48 N2 O13
;
_journal_coden_Cambridge 1336
_journal_volume 11
_journal_year 2009
_journal_page_first 3678
_journal_name_full 'Org.Lett. '
loop_
_publ_author_name
"Zheng-Xi Gao"
"Meng Wang"
"Shaozhong Wang"
"Zhu-Jun Yao"
_chemical_name_systematic
;
Methyl 
3-(acetamido(2,2,2',2'-tetramethyl-4,4'-bi-1,3-dioxol-5-yl)methyl)-2-(6-(2,2-d
imethyl-1,3-dioxolan-4-yl)-2,2-dimethyltetrahydrofuro[3,4-d][1,3]dioxol-4-yl)-
1,2-oxazolidine-5-carboxylate
;
_chemical_melting_point 396.15
_cell_volume   3517.395
_exptl_crystal_colour 'colorless'
_exptl_crystal_density_diffrn 1.217
_exptl_special_details
;
Absolute configuration

;
_exptl_crystal_description 'prismatic'
_diffrn_ambient_temperature 293
#These two values have been output from a single CSD field.
_refine_ls_R_factor_gt 0.064
_refine_ls_wR_factor_gt 0.064
_symmetry_cell_setting orthorhombic
_symmetry_space_group_name_H-M 'P 21 21 21'
_symmetry_Int_Tables_number 19
loop_
_symmetry_equiv_pos_site_id
_symmetry_equiv_pos_as_xyz
1 x,y,z
2 1/2-x,-y,1/2+z
3 -x,1/2+y,1/2-z
4 1/2+x,1/2-y,-z
_cell_length_a 9.3504(12)
_cell_length_b 18.666(2)
_cell_length_c 20.153(3)
_cell_angle_alpha 90
_cell_angle_beta 90
_cell_angle_gamma 90
_cell_formula_units_Z 4
loop_
_atom_type_symbol
_atom_type_radius_bond
C 0.68
H 0.23
N 0.68
O 0.68
loop_
_atom_site_label
_atom_site_type_symbol
_atom_site_fract_x
_atom_site_fract_y
_atom_site_fract_z
O1 O 0.5011(6) 0.5726(3) 0.2854(2)
O2 O 0.5686(5) 0.5057(2) 0.1985(2)
O3 O 0.8097(5) 0.6050(2) 0.24954(18)
O4 O 0.6064(7) 0.7152(4) 0.3603(3)
O5 O 0.8049(11) 0.7336(4) 0.4204(3)
O6 O 0.7855(5) 0.6152(2) 0.07153(17)
O7 O 1.0036(5) 0.7698(2) 0.22364(17)
O8 O 1.1771(5) 0.8449(3) 0.1857(3)
O9 O 0.8646(5) 0.9237(2) 0.1042(2)
O10 O 1.0251(11) 1.0101(4) 0.0826(4)
O11 O 0.9268(12) 0.4644(5) -0.0067(6)
O12 O 0.7555(9) 0.4736(3) 0.0605(3)
O13 O 1.2163(5) 0.7216(3) 0.0042(2)
N1 N 0.8233(5) 0.6393(2) 0.1376(2)
N2 N 0.9933(6) 0.7329(3) 0.0433(2)
C1 C 0.4608(9) 0.5104(5) 0.2482(4)
C2 C 0.5635(8) 0.6218(4) 0.2406(3)
H1 H 0.49490 0.65860 0.22680
C3 C 0.6144(7) 0.5774(3) 0.1821(3)
H2 H 0.57510 0.59410 0.13970
C4 C 0.7732(6) 0.5822(3) 0.1846(3)
H3 H 0.81740 0.53590 0.17420
C5 C 0.6987(8) 0.6550(3) 0.2687(3)
H4 H 0.71600 0.70170 0.24800
C6 C 0.7044(11) 0.6619(4) 0.3430(3)
H5 H 0.67990 0.61640 0.36430
C7 C 0.8429(11) 0.6887(5) 0.3674(3)
H6 H 0.90320 0.64960 0.38230
H7 H 0.89280 0.71530 0.33310
C8 C 0.6753(16) 0.7632(7) 0.4050(5)
C9 C 0.9022(8) 0.5744(4) 0.0435(3)
H8 H 0.92680 0.59480 0.00020
C10 C 1.0269(8) 0.5847(3) 0.0898(3)
H9 H 1.11230 0.59820 0.06540
H10 H 1.04620 0.54130 0.11470
C11 C 0.9788(6) 0.6449(3) 0.1356(3)
H11 H 1.01700 0.63620 0.18010
C12 C 1.0312(6) 0.7188(3) 0.1110(3)
H12 H 1.13590 0.71820 0.11310
C13 C 0.9805(6) 0.7818(3) 0.1540(2)
H13 H 0.87840 0.78990 0.14620
C14 C 1.0607(6) 0.8496(3) 0.1403(3)
H14 H 1.09720 0.84900 0.09470
C15 C 1.1360(8) 0.8033(4) 0.2423(4)
C16 C 0.9747(8) 0.9176(4) 0.1518(3)
H15 H 0.93480 0.91810 0.19670
C17 C 1.0634(10) 0.9871(4) 0.1390(5)
H16 H 1.04400 1.02250 0.17300
H17 H 1.16500 0.97650 0.13910
C18 C 0.8967(11) 0.9821(5) 0.0601(4)
C19 C 0.8618(12) 0.4957(5) 0.0340(6)
C20 C 0.6954(18) 0.4020(6) 0.0413(6)
H18 H 0.77070 0.37220 0.02440
H19 H 0.62370 0.40840 0.00780
H20 H 0.65340 0.37970 0.07960
C21 C 1.0886(7) 0.7328(3) -0.0065(3)
C22 C 1.0324(7) 0.7442(4) -0.0748(3)
H21 H 1.09920 0.77250 -0.09970
H22 H 0.94230 0.76880 -0.07250
H23 H 1.01940 0.69870 -0.09610
C23 C 0.3142(8) 0.5203(5) 0.2191(4)
H24 H 0.31490 0.56070 0.18960
H25 H 0.24660 0.52850 0.25410
H26 H 0.28760 0.47800 0.19490
C24 C 0.4759(10) 0.4453(5) 0.2935(4)
H27 H 0.42070 0.40630 0.27590
H28 H 0.44190 0.45710 0.33710
H29 H 0.57470 0.43150 0.29590
C25 C 0.6876(19) 0.8350(6) 0.3721(7)
H30 H 0.75700 0.86350 0.39520
H31 H 0.59650 0.85870 0.37320
H32 H 0.71720 0.82870 0.32690
C26 C 0.5906(18) 0.7682(8) 0.4708(4)
H33 H 0.56460 0.72100 0.48520
H34 H 0.50570 0.79620 0.46390
H35 H 0.64900 0.79070 0.50400
C27 C 1.110(1) 0.8480(5) 0.3026(4)
H36 H 1.19610 0.87310 0.31420
H37 H 1.08190 0.81760 0.33880
H38 H 1.03530 0.88190 0.29360
C28 C 1.2522(9) 0.7469(4) 0.2519(5)
H39 H 1.27100 0.72350 0.21040
H40 H 1.22080 0.71210 0.28380
H41 H 1.33810 0.76950 0.26750
C29 C 0.9269(11) 0.9524(6) -0.0078(4)
H42 H 0.94270 0.99110 -0.03830
H43 H 0.84670 0.92440 -0.02250
H44 H 1.01060 0.92260 -0.00610
C30 C 0.7770(18) 1.0328(6) 0.0641(6)
H45 H 0.76230 1.04650 0.10950
H46 H 0.69190 1.01050 0.04730
H47 H 0.79860 1.07450 0.03810
H48 H 0.909(3) 0.740(3) 0.035(2)
#END
