
#######################################################################
#
#                 Cambridge Crystallographic Data Centre
#                                CCDC
#
#######################################################################
#
# If this CIF has been generated from an entry in the Cambridge
# Structural Database, then it will include bibliographic, chemical,
# crystal, experimental, refinement or atomic coordinate data resulting
# from the CCDC's data processing and validation procedures.
#
#######################################################################

data_CSD_CIF_MUDPAE
_audit_creation_date 2015-05-28
_audit_creation_method CSD-ConQuest-V1
_database_code_CSD MUDPAE
_database_code_depnum_ccdc_archive 'CCDC 840243'
_chemical_formula_sum 'C40 H49 N1 O5'
_chemical_formula_moiety
;
C40 H49 N1 O5
;
_journal_coden_Cambridge 1220
_journal_volume 21
_journal_year 2015
_journal_page_first 9877
_journal_name_full 'Chem.-Eur.J. '
loop_
_publ_author_name
"M.Holan"
"R.Pohl"
"I.Cisarova"
"B.Klepetarova"
"P.G.Jones"
"U.Jahn"
_chemical_name_systematic
;
tert-butyl 
3,3-dibenzoyl-2-phenyl-4-(((2,2,6,6-tetramethylpiperidin-1-yl)oxy)methyl)cyclo
pentanecarboxylate
;
_chemical_name_common
;
t-butyl 
3,3-dibenzoyl-2-phenyl-4-(((2,2,6,6-tetramethylpiperidin-1-yl)oxy)methyl)cyclo
pentanecarboxylate
;
_cell_volume   1721.972
_exptl_crystal_colour 'colorless'
_exptl_crystal_density_diffrn 1.203
_exptl_crystal_description 'stick'
_diffrn_ambient_temperature 150
#These two values have been output from a single CSD field.
_refine_ls_R_factor_gt 0.061
_refine_ls_wR_factor_gt 0.061
_symmetry_cell_setting triclinic
_symmetry_space_group_name_H-M 'P -1'
_symmetry_Int_Tables_number 2
loop_
_symmetry_equiv_pos_site_id
_symmetry_equiv_pos_as_xyz
1 x,y,z
2 -x,-y,-z
_cell_length_a 11.9691(19)
_cell_length_b 12.342(2)
_cell_length_c 12.5636(17)
_cell_angle_alpha 88.761(12)
_cell_angle_beta 71.231(13)
_cell_angle_gamma 78.780(13)
_cell_formula_units_Z 2
loop_
_atom_type_symbol
_atom_type_radius_bond
C 0.68
H 0.23
N 0.68
O 0.68
loop_
_atom_site_label
_atom_site_type_symbol
_atom_site_fract_x
_atom_site_fract_y
_atom_site_fract_z
N1 N 0.9229(3) 0.1800(3) 0.0987(3)
O1 O 0.7937(2) 0.2272(2) 0.1334(2)
O2 O 0.5326(3) -0.1041(2) 0.2070(3)
O3 O 0.3294(2) -0.0475(2) 0.2553(2)
O4 O 0.4088(3) 0.3211(3) 0.0941(2)
O5 O 0.5954(2) 0.2595(2) 0.3707(2)
C1 C 0.5136(3) 0.2505(3) 0.2220(3)
C2 C 0.4653(3) 0.1472(3) 0.2810(3)
C3 C 0.4478(4) 0.0850(3) 0.1839(3)
C4 C 0.5532(4) 0.0994(4) 0.0805(3)
C5 C 0.6092(3) 0.1929(3) 0.1101(3)
C6 C 0.7326(3) 0.1421(3) 0.1193(4)
C7 C 0.9809(4) 0.2424(4) 0.0004(4)
C8 C 1.1160(4) 0.1936(4) -0.0355(4)
C9 C 1.1675(4) 0.1923(4) 0.0604(5)
C10 C 1.0985(4) 0.1280(4) 0.1559(4)
C11 C 0.9629(4) 0.1772(4) 0.1993(4)
C12 C 0.8997(4) 0.0946(4) 0.2788(4)
C13 C 0.9347(5) 0.2868(5) 0.2667(5)
C14 C 0.9324(4) 0.2195(4) -0.0932(4)
C15 C 0.9556(4) 0.3691(4) 0.0219(5)
C16 C 0.4427(4) -0.0335(3) 0.2149(3)
C17 C 0.2990(4) -0.1525(3) 0.3069(3)
C18 C 0.3436(4) -0.2436(4) 0.2156(4)
C19 C 0.1627(4) -0.1246(4) 0.3493(4)
C20 C 0.3484(4) -0.1775(4) 0.4035(4)
C21 C 0.3620(3) 0.1598(3) 0.3906(3)
C22 C 0.3865(4) 0.1367(3) 0.4916(3)
C23 C 0.2943(4) 0.1395(4) 0.5930(4)
C24 C 0.1759(4) 0.1651(4) 0.5955(4)
C25 C 0.1497(4) 0.1881(4) 0.4969(4)
C26 C 0.2417(3) 0.1856(3) 0.3952(4)
C27 C 0.4113(3) 0.3295(3) 0.1909(3)
C28 C 0.3131(3) 0.4096(3) 0.2735(3)
C29 C 0.3058(4) 0.4279(3) 0.3844(4)
C30 C 0.2099(4) 0.5009(3) 0.4565(4)
C31 C 0.1180(4) 0.5558(4) 0.4197(4)
C32 C 0.1242(4) 0.5376(4) 0.3084(4)
C33 C 0.2205(4) 0.4665(4) 0.2362(4)
C34 C 0.5707(3) 0.3082(3) 0.2920(3)
C35 C 0.5992(3) 0.4194(3) 0.2648(3)
C36 C 0.6142(4) 0.4809(3) 0.3488(4)
C37 C 0.6395(4) 0.5860(4) 0.3297(4)
C38 C 0.6515(4) 0.6304(3) 0.2255(4)
C39 C 0.6372(4) 0.5696(3) 0.1414(4)
C40 C 0.6093(4) 0.4654(3) 0.1605(3)
H1 H 0.13290 -0.19020 0.37890
H2 H 0.13480 -0.06690 0.40810
H3 H 0.13240 -0.10020 0.28870
H4 H 0.31420 -0.23660 0.44560
H5 H 0.43500 -0.20050 0.37590
H6 H 0.32610 -0.11190 0.45260
H7 H 0.32180 -0.31200 0.24660
H8 H 0.43100 -0.25500 0.18200
H9 H 0.30700 -0.22230 0.15790
H10 H 0.37010 0.12170 0.17330
H11 H 0.53530 0.10050 0.29750
H12 H 0.36710 0.38970 0.41100
H13 H 0.20690 0.51460 0.53080
H14 H 0.05220 0.60350 0.46960
H15 H 0.06230 0.57420 0.28230
H16 H 0.22400 0.45570 0.16110
H17 H 0.62010 0.24730 0.05060
H18 H 0.61240 0.03080 0.06430
H19 H 0.52660 0.11790 0.01380
H20 H 0.72260 0.09340 0.18340
H21 H 0.77790 0.09680 0.05010
H22 H 1.15780 0.23660 -0.09610
H23 H 1.12900 0.11760 -0.06430
H24 H 1.25280 0.15710 0.03370
H25 H 1.15950 0.26720 0.08680
H26 H 1.12950 0.12980 0.21920
H27 H 1.10930 0.05170 0.12940
H28 H 0.93430 0.08050 0.33920
H29 H 0.90930 0.02620 0.23710
H30 H 0.81440 0.12650 0.31100
H31 H 0.94790 0.27190 0.33810
H32 H 0.98530 0.33620 0.22530
H33 H 0.85150 0.32050 0.27900
H34 H 0.98010 0.24560 -0.16300
H35 H 0.93980 0.14000 -0.10130
H36 H 0.84850 0.25490 -0.07550
H37 H 0.97510 0.40410 -0.04950
H38 H 1.00280 0.38990 0.06520
H39 H 0.87090 0.39670 0.06230
H40 H 0.60690 0.45050 0.41940
H41 H 0.64860 0.62790 0.38720
H42 H 0.66890 0.70220 0.21250
H43 H 0.64610 0.59930 0.07070
H44 H 0.59910 0.42530 0.10310
H45 H 0.22240 0.20080 0.32850
H46 H 0.06900 0.20510 0.49830
H47 H 0.11340 0.16710 0.66350
H48 H 0.31270 0.12420 0.66050
H49 H 0.46800 0.11960 0.48980
#END
