
#######################################################################
#
#                 Cambridge Crystallographic Data Centre
#                                CCDC
#
#######################################################################
#
# If this CIF has been generated from an entry in the Cambridge
# Structural Database, then it will include bibliographic, chemical,
# crystal, experimental, refinement or atomic coordinate data resulting
# from the CCDC's data processing and validation procedures.
#
#######################################################################

data_CSD_CIF_MUDQAE
_audit_creation_date 2010-06-29
_audit_creation_method CSD-ConQuest-V1
_database_code_CSD MUDQAE
_database_code_depnum_ccdc_archive 'CCDC 737167'
_chemical_formula_sum 'C17 H24 N2 O4'
_chemical_formula_moiety
;
C17 H24 N2 O4
;
_journal_coden_Cambridge 1336
_journal_volume 11
_journal_year 2009
_journal_page_first 3858
_journal_name_full 'Org.Lett. '
loop_
_publ_author_name
"N.Duguet"
"A.M.Z.Slawin"
"A.D.Smith"
_chemical_name_systematic
;
(R,Z)-N-((3-(t-butoxycarbonyl)-2,2-dimethyloxazolidin-4-yl)methylene)aniline 
N-oxide
;
_cell_volume   1763.599
_exptl_crystal_colour 'colorless'
_exptl_crystal_density_diffrn 1.207
_exptl_crystal_description 'platelet'
_diffrn_ambient_temperature 173
#These two values have been output from a single CSD field.
_refine_ls_R_factor_gt 0.1038
_refine_ls_wR_factor_gt 0.1038
_symmetry_cell_setting monoclinic
_symmetry_space_group_name_H-M 'C 2'
_symmetry_Int_Tables_number 5
loop_
_symmetry_equiv_pos_site_id
_symmetry_equiv_pos_as_xyz
1 x,y,z
2 -x,y,-z
3 1/2+x,1/2+y,z
4 1/2-x,1/2+y,-z
_cell_length_a 23.342(4)
_cell_length_b 5.7712(9)
_cell_length_c 17.317(3)
_cell_angle_alpha 90
_cell_angle_beta 130.887(5)
_cell_angle_gamma 90
_cell_formula_units_Z 4
loop_
_atom_type_symbol
_atom_type_radius_bond
C 0.68
H 0.23
N 0.68
O 0.68
loop_
_atom_site_label
_atom_site_type_symbol
_atom_site_fract_x
_atom_site_fract_y
_atom_site_fract_z
N1 N 0.6834(3) 0.3638(9) 0.6609(4)
C1 C 0.6634(4) 0.4131(11) 0.5618(5)
O1 O 0.5998(2) 0.5638(9) 0.5123(3)
C2 C 0.6110(4) 0.7001(14) 0.5890(5)
H1 H 0.56200 0.75820 0.56580
H2 H 0.64410 0.83410 0.60670
C3 C 0.6487(3) 0.5394(12) 0.6810(4)
H3 H 0.68980 0.62630 0.74450
C4 C 0.5966(4) 0.4402(11) 0.6931(5)
H4 H 0.58270 0.28120 0.67900
N2 N 0.5705(3) 0.5741(10) 0.7231(4)
O2 O 0.5845(3) 0.7962(8) 0.7348(4)
C5 C 0.5233(4) 0.4907(11) 0.7437(4)
C6 C 0.5362(4) 0.2763(12) 0.7884(5)
H5 H 0.57560 0.17960 0.80410
C7 C 0.4918(4) 0.2032(13) 0.8102(5)
H6 H 0.50030 0.05640 0.84100
C8 C 0.4348(4) 0.3464(14) 0.7868(5)
H7 H 0.40430 0.29770 0.80210
C9 C 0.4218(4) 0.5578(14) 0.7417(5)
H8 H 0.38200 0.65400 0.72490
C10 C 0.4668(4) 0.6302(12) 0.7209(4)
H9 H 0.45840 0.77760 0.69060
C11 C 0.7431(3) 0.2350(13) 0.7352(5)
O3 O 0.7783(2) 0.1065(8) 0.7247(3)
O4 O 0.7567(2) 0.2697(8) 0.8230(3)
C12 C 0.8204(4) 0.1628(12) 0.9197(5)
C13 C 0.8129(4) 0.2564(13) 0.9942(5)
H10 H 0.76480 0.20470 0.97410
H11 H 0.81420 0.42620 0.99380
H12 H 0.85500 0.19930 1.06290
C14 C 0.8106(5) -0.0968(13) 0.9110(6)
H13 H 0.76190 -0.13670 0.89180
H14 H 0.85180 -0.16830 0.97690
H15 H 0.81170 -0.15400 0.85870
C15 C 0.8946(4) 0.2381(13) 0.9496(5)
H16 H 0.89830 0.17660 0.90020
H17 H 0.93680 0.17870 1.01780
H18 H 0.89690 0.40770 0.95000
C16 C 0.7280(4) 0.5373(14) 0.5775(5)
H19 H 0.74390 0.67170 0.62200
H20 H 0.71080 0.58900 0.51130
H21 H 0.77090 0.43090 0.60920
C17 C 0.6371(4) 0.2025(13) 0.4949(5)
H22 H 0.59560 0.12810 0.48650
H23 H 0.67930 0.09330 0.52670
H24 H 0.61930 0.24920 0.42790
#END
