
#######################################################################
#
#                 Cambridge Crystallographic Data Centre
#                                CCDC
#
#######################################################################
#
# If this CIF has been generated from an entry in the Cambridge
# Structural Database, then it will include bibliographic, chemical,
# crystal, experimental, refinement or atomic coordinate data resulting
# from the CCDC's data processing and validation procedures.
#
#######################################################################

data_CSD_CIF_MUDWIR
_audit_creation_date 2002-11-27
_audit_creation_method CSD-ConQuest-V1
_database_code_CSD MUDWIR
_database_code_depnum_ccdc_archive 'CCDC 190119'
_chemical_formula_sum 'C13 H19 N3 O6'
_chemical_formula_moiety
;
C13 H19 N3 O6
;
_journal_coden_Cambridge 1078
_journal_year 2002
_journal_name_full 'CSD Communication(Private Communication) '
loop_
_publ_author_name
"T.J.J.Muller"
"R.Gompper"
"K.Polborn"
_chemical_name_systematic
;
2,2-Dimethyl-5-(3,3-bis(dimethylamino)-2-nitroprop-2-enylidene)-1,3-dioxane-4,
6-dione
;
_cell_volume   1551.709
_exptl_crystal_density_diffrn 1.341
_exptl_special_details
;
contribution from Department of Chemistry, University of Munic h, 
Butenandtstrasse 5-13, Haus F, D-81377 Munchen, Germany
;
_diffrn_ambient_temperature 295
#These two values have been output from a single CSD field.
_refine_ls_R_factor_gt 0.0443
_refine_ls_wR_factor_gt 0.0443
_symmetry_cell_setting monoclinic
_symmetry_space_group_name_H-M 'P 21/n'
_symmetry_Int_Tables_number 14
loop_
_symmetry_equiv_pos_site_id
_symmetry_equiv_pos_as_xyz
1 x,y,z
2 1/2+x,1/2-y,1/2+z
3 -x,-y,-z
4 -1/2-x,-1/2+y,-1/2-z
_cell_length_a 9.695(3)
_cell_length_b 7.276(2)
_cell_length_c 22.251(5)
_cell_angle_alpha 90
_cell_angle_beta 98.66(2)
_cell_angle_gamma 90
_cell_formula_units_Z 4
loop_
_atom_type_symbol
_atom_type_radius_bond
C 0.68
H 0.23
N 0.68
O 0.68
loop_
_atom_site_label
_atom_site_type_symbol
_atom_site_fract_x
_atom_site_fract_y
_atom_site_fract_z
O1 O 0.95673(15) 0.0313(2) 0.21351(7)
O2 O 0.89835(13) 0.2444(2) 0.13556(6)
O3 O 1.1334(2) -0.1578(2) 0.21355(7)
O4 O 1.02083(15) 0.2770(2) 0.06133(6)
O5 O 1.4923(2) -0.0805(2) 0.10540(7)
O6 O 1.5284(2) 0.1592(2) 0.05275(8)
N1 N 1.4525(2) 0.0665(2) 0.08111(7)
N2 N 1.2923(2) 0.4641(2) 0.07875(8)
N3 N 1.2588(2) 0.2928(2) -0.00932(7)
C1 C 1.1164(2) 0.0901(2) 0.14369(8)
C2 C 1.0751(2) -0.0216(3) 0.19194(9)
C3 C 0.9046(2) 0.2125(3) 0.19908(9)
C4 C 1.0152(2) 0.2107(3) 0.11051(9)
C5 C 0.7557(2) 0.2146(4) 0.21055(12)
H1 H 0.7531(3) 0.1941(22) 0.2530(2)
H2 H 0.7043(5) 0.1194(15) 0.1871(6)
H3 H 0.7146(6) 0.3317(9) 0.1988(7)
C6 C 0.9949(2) 0.3533(3) 0.23519(11)
H4 H 0.9844(12) 0.3437(13) 0.27728(14)
H5 H 0.9675(10) 0.4740(4) 0.2205(4)
H6 H 1.0907(3) 0.3324(12) 0.2308(5)
C7 C 1.2464(2) 0.0555(2) 0.12732(8)
H7 H 1.2933(2) -0.0423(2) 0.14817(8)
C8 C 1.3190(2) 0.1373(3) 0.08649(8)
C9 C 1.2870(2) 0.3056(3) 0.05036(8)
C10 C 1.3605(3) 0.4860(3) 0.14133(10)
H8 H 1.2912(3) 0.4908(22) 0.16789(13)
H9 H 1.4135(14) 0.5979(12) 0.1450(2)
H10 H 1.4216(13) 0.3838(12) 0.1524(3)
C11 C 1.2140(3) 0.6257(3) 0.05394(12)
H11 H 1.2765(4) 0.7118(10) 0.0395(6)
H12 H 1.1701(13) 0.6823(12) 0.0851(2)
H13 H 1.1440(11) 0.5892(4) 0.0209(5)
C12 C 1.2015(2) 0.1249(3) -0.03833(10)
H14 H 1.2728(4) 0.0615(9) -0.0558(5)
H15 H 1.1257(9) 0.1547(3) -0.0697(4)
H16 H 1.1682(13) 0.0475(9) -0.0087(2)
C13 C 1.2959(3) 0.4330(4) -0.05051(11)
H17 H 1.2134(4) 0.4980(15) -0.0681(6)
H18 H 1.3379(16) 0.3761(4) -0.0822(4)
H19 H 1.3607(13) 0.5175(13) -0.0285(2)
#END
