
#######################################################################
#
#                 Cambridge Crystallographic Data Centre
#                                CCDC
#
#######################################################################
#
# If this CIF has been generated from an entry in the Cambridge
# Structural Database, then it will include bibliographic, chemical,
# crystal, experimental, refinement or atomic coordinate data resulting
# from the CCDC's data processing and validation procedures.
#
#######################################################################

data_CSD_CIF_MUDWEO
_audit_creation_date 2010-06-29
_audit_creation_method CSD-ConQuest-V1
_database_code_CSD MUDWEO
_database_code_depnum_ccdc_archive 'CCDC 740015'
_chemical_formula_sum 'C18 H14 N4 O4'
_chemical_formula_moiety
;
C18 H14 N4 O4
;
_journal_coden_Cambridge 182
_journal_year 2009
_journal_page_first 5698
_journal_name_full 'Chem.Commun. '
loop_
_publ_author_name
"V.Maurizot"
"S.Massip"
"J.-M.Leger"
"G.Deleris"
_chemical_name_systematic
;
4,6-Dinitro-N,N'-diphenylbenzene-1,3-diamine
;
_cell_volume   1670.333
_exptl_crystal_colour 'dark orange'
_exptl_crystal_density_diffrn 1.393
_exptl_special_details
;
P21/c polymorph

;
_exptl_crystal_description 'block'
_diffrn_ambient_temperature 293
#These two values have been output from a single CSD field.
_refine_ls_R_factor_gt 0.0433
_refine_ls_wR_factor_gt 0.0433
_symmetry_cell_setting monoclinic
_symmetry_space_group_name_H-M 'P 21/c'
_symmetry_Int_Tables_number 14
loop_
_symmetry_equiv_pos_site_id
_symmetry_equiv_pos_as_xyz
1 x,y,z
2 -x,1/2+y,1/2-z
3 -x,-y,-z
4 x,-1/2-y,-1/2+z
_cell_length_a 10.952(6)
_cell_length_b 11.007(3)
_cell_length_c 14.736(5)
_cell_angle_alpha 90
_cell_angle_beta 109.90(3)
_cell_angle_gamma 90
_cell_formula_units_Z 4
loop_
_atom_type_symbol
_atom_type_radius_bond
C 0.68
H 0.23
N 0.68
O 0.68
loop_
_atom_site_label
_atom_site_type_symbol
_atom_site_fract_x
_atom_site_fract_y
_atom_site_fract_z
C1 C 0.24733(13) 0.84702(13) 0.80578(10)
C2 C 0.23084(17) 0.95745(15) 0.75877(12)
H1 H 0.29960 1.01190 0.77190
C3 C 0.1114(2) 0.98631(19) 0.69205(16)
H2 H 0.09980 1.06070 0.66030
C4 C 0.0099(2) 0.9064(2) 0.67213(17)
H3 H -0.06990 0.92590 0.62620
C5 C 0.02608(17) 0.7974(2) 0.72009(16)
H4 H -0.04320 0.74350 0.70700
C6 C 0.14461(15) 0.76725(16) 0.78760(13)
H5 H 0.15510 0.69380 0.82050
N1 N 0.37034(11) 0.82344(11) 0.87715(9)
H6 H 0.40350 0.88120 0.91730
C7 C 0.44099(12) 0.71995(12) 0.8887(1)
C8 C 0.40516(13) 0.62510(13) 0.82171(10)
H7 H 0.33090 0.63500 0.76780
C9 C 0.47394(13) 0.51642(12) 0.83078(10)
C10 C 0.58922(14) 0.50463(12) 0.9136(1)
C11 C 0.62708(13) 0.59682(12) 0.98027(10)
H8 H 0.70220 0.58740 1.03360
C12 C 0.55682(13) 0.70251(12) 0.97027(10)
N2 N 0.60551(11) 0.79005(11) 1.04684(8)
O1 O 0.55147(11) 0.88969(10) 1.03998(8)
O2 O 0.69934(12) 0.76305(11) 1.11783(8)
N3 N 0.66974(14) 0.39730(11) 0.93433(10)
O3 O 0.63011(14) 0.30476(10) 0.88562(10)
O4 O 0.77450(13) 0.39988(12) 1.00024(10)
N4 N 0.43421(13) 0.42538(12) 0.76472(10)
H9 H 0.47980 0.35990 0.77760
C13 C 0.32682(15) 0.42514(14) 0.67716(11)
C14 C 0.30569(19) 0.51770(16) 0.61054(12)
H10 H 0.36000 0.58520 0.62380
C15 C 0.2040(2) 0.51012(19) 0.52425(13)
H11 H 0.18890 0.57350 0.48010
C16 C 0.1247(2) 0.4098(2) 0.50297(14)
H12 H 0.05640 0.40500 0.44460
C17 C 0.1470(2) 0.3168(2) 0.56847(16)
H13 H 0.09410 0.24830 0.55390
C18 C 0.24715(19) 0.32370(16) 0.65564(13)
H14 H 0.26120 0.26050 0.69990
#END
