
#######################################################################
#
#                 Cambridge Crystallographic Data Centre
#                                CCDC
#
#######################################################################
#
# If this CIF has been generated from an entry in the Cambridge
# Structural Database, then it will include bibliographic, chemical,
# crystal, experimental, refinement or atomic coordinate data resulting
# from the CCDC's data processing and validation procedures.
#
#######################################################################

data_CSD_CIF_MUDYOA
_audit_creation_date 2010-06-28
_audit_creation_method CSD-ConQuest-V1
_database_code_CSD MUDYOA
_database_code_depnum_ccdc_archive 'CCDC 676506'
_chemical_formula_sum 'C13 H11 N3 O4'
_chemical_formula_moiety
;
C13 H11 N3 O4
;
_journal_coden_Cambridge 8
_journal_volume 130
_journal_year 2009
_journal_page_first 134708
_journal_name_full 'J.Chem.Phys. '
loop_
_publ_author_name
"O.-P.Kwon"
"M.Jazbinsek"
"Jung-In Seo"
"Eun-Young Choi"
"Hosup Yun"
"F.D.J.Brunner"
"Yoon Sup Lee"
"P.Gunter"
_chemical_name_systematic
;
4-(4-Nitrobenzenecarbohydrazonoyl)benzene-1,3-diol
;
_cell_volume   1206.040
_exptl_crystal_density_diffrn 1.505
_diffrn_ambient_temperature 293
#These two values have been output from a single CSD field.
_refine_ls_R_factor_gt 0.0317
_refine_ls_wR_factor_gt 0.0317
_symmetry_cell_setting monoclinic
_symmetry_space_group_name_H-M 'C c'
_symmetry_Int_Tables_number 9
loop_
_symmetry_equiv_pos_site_id
_symmetry_equiv_pos_as_xyz
1 x,y,z
2 x,-y,1/2+z
3 1/2+x,1/2+y,z
4 1/2+x,1/2-y,1/2+z
_cell_length_a 9.6044(5)
_cell_length_b 10.6045(5)
_cell_length_c 12.3815(7)
_cell_angle_alpha 90
_cell_angle_beta 106.9863(16)
_cell_angle_gamma 90
_cell_formula_units_Z 4
loop_
_atom_type_symbol
_atom_type_radius_bond
C 0.68
H 0.23
N 0.68
O 0.68
loop_
_atom_site_label
_atom_site_type_symbol
_atom_site_fract_x
_atom_site_fract_y
_atom_site_fract_z
O1 O 0.77102(14) 0.10549(16) -0.15106(11)
H1 H 0.72330 0.09030 -0.10740
O2 O 1.21869(14) 0.27830(15) -0.16006(11)
H2 H 1.30140 0.29100 -0.11890
O3 O 0.01355(18) -0.15054(18) 0.05536(18)
O4 O 0.0188(2) -0.15432(19) -0.11671(17)
N1 N 0.07651(18) -0.13010(16) -0.01653(19)
N2 N 0.63911(15) 0.06116(16) 0.12056(12)
H3 H 0.67890 0.07050 0.19190
N3 N 0.71831(14) 0.08911(14) 0.04831(11)
C1 C 0.22063(18) -0.07757(17) 0.01706(16)
C2 C 0.28733(19) -0.04460(17) -0.06302(14)
H4 H 0.23870 -0.05560 -0.13920
C3 C 0.42550(18) 0.00451(17) -0.03095(14)
H5 H 0.46980 0.02800 -0.08540
C4 C 0.49954(16) 0.01911(16) 0.08350(13)
C5 C 0.4286(2) -0.01248(19) 0.16395(16)
H6 H 0.47570 -0.00050 0.24030
C6 C 0.2900(2) -0.06094(19) 0.13097(17)
H7 H 0.24340 -0.08230 0.18450
C7 C 0.84886(19) 0.12785(16) 0.09301(15)
H8 H 0.88380 0.13340 0.17130
C8 C 0.94431(17) 0.16338(15) 0.02636(14)
C9 C 1.08139(18) 0.21303(17) 0.08002(14)
H9 H 1.11070 0.22000 0.15830
C10 C 1.17465(18) 0.25208(17) 0.02110(15)
H10 H 1.26540 0.28550 0.05880
C11 C 1.13102(17) 0.24076(16) -0.09586(14)
C12 C 0.99688(19) 0.19160(19) -0.15244(15)
H11 H 0.96920 0.18410 -0.23070
C13 C 0.90323(18) 0.15325(17) -0.09215(15)
#END
