
#######################################################################
#
#                 Cambridge Crystallographic Data Centre
#                                CCDC
#
#######################################################################
#
# If this CIF has been generated from an entry in the Cambridge
# Structural Database, then it will include bibliographic, chemical,
# crystal, experimental, refinement or atomic coordinate data resulting
# from the CCDC's data processing and validation procedures.
#
#######################################################################

data_CSD_CIF_MUDZIV
_audit_creation_date 2010-06-29
_audit_creation_method CSD-ConQuest-V1
_database_code_CSD MUDZIV
_database_code_depnum_ccdc_archive 'CCDC 730723'
_chemical_formula_sum 'C11 H20 N2 O2'
_chemical_formula_moiety
;
C11 H20 N2 O2
;
_journal_coden_Cambridge 1336
_journal_volume 11
_journal_year 2009
_journal_page_first 3194
_journal_name_full 'Org.Lett. '
loop_
_publ_author_name
"R.Sharma"
"P.G.Bulger"
"M.McNevin"
"P.G.Dormer"
"R.G.Ball"
"E.Streckfuss"
"J.F.Cuff"
"Jingjun Yin"
"Cheng-yi Chen"
_chemical_name_systematic
;
1-Amino-4-methyl-2-azoniaspiro(5.5)undec-1-en-4-ol 2-oxide
;
_cell_volume   2470.766
_exptl_crystal_colour 'colorless'
_exptl_crystal_density_diffrn 1.141
_diffrn_ambient_temperature 100
#These two values have been output from a single CSD field.
_refine_ls_R_factor_gt 0.0326
_refine_ls_wR_factor_gt 0.0326
_symmetry_cell_setting orthorhombic
_symmetry_space_group_name_H-M 'P c c n'
_symmetry_Int_Tables_number 56
loop_
_symmetry_equiv_pos_site_id
_symmetry_equiv_pos_as_xyz
1 x,y,z
2 1/2-x,1/2-y,z
3 1/2+x,-y,1/2-z
4 -x,1/2+y,1/2-z
5 -x,-y,-z
6 -1/2+x,-1/2+y,-z
7 -1/2-x,y,-1/2+z
8 x,-1/2-y,-1/2+z
_cell_length_a 20.5261(2)
_cell_length_b 12.69158(16)
_cell_length_c 9.48439(11)
_cell_angle_alpha 90
_cell_angle_beta 90
_cell_angle_gamma 90
_cell_formula_units_Z 8
loop_
_atom_type_symbol
_atom_type_radius_bond
C 0.68
H 0.23
N 0.68
O 0.68
loop_
_atom_site_label
_atom_site_type_symbol
_atom_site_fract_x
_atom_site_fract_y
_atom_site_fract_z
C1 C 0.87800(5) 0.07353(9) 0.31608(11)
C2 C 0.92268(5) 0.04603(10) 0.44290(12)
H1 H 0.95600 -0.00530 0.41170
H2 H 0.94560 0.11060 0.47390
C3 C 0.88542(6) -0.00029(11) 0.56845(13)
H3 H 0.86780 -0.07020 0.54210
H4 H 0.91580 -0.01040 0.64840
C4 C 0.82961(6) 0.07125(11) 0.61455(13)
H5 H 0.80460 0.03650 0.69060
H6 H 0.84750 0.13790 0.65240
C5 C 0.78440(6) 0.09538(10) 0.49106(13)
H7 H 0.74950 0.14390 0.52240
H8 H 0.76370 0.02940 0.45800
C6 C 0.82225(5) 0.14574(9) 0.36984(12)
H9 H 0.84090 0.21350 0.40200
H10 H 0.79200 0.16080 0.29110
C7 C 0.91807(5) 0.13569(9) 0.21043(11)
C8 C 0.90337(6) 0.00759(9) 0.01823(12)
H11 H 0.93600 -0.01940 -0.04970
H12 H 0.86230 0.02080 -0.03360
C9 C 0.89161(6) -0.07446(9) 0.13240(13)
C10 C 0.84912(6) -0.02608(9) 0.24667(12)
H13 H 0.84150 -0.07960 0.32080
H14 H 0.80630 -0.00790 0.20520
C11 C 0.85932(8) -0.17133(11) 0.06784(17)
H15 H 0.88730 -0.19990 -0.00670
H16 H 0.81700 -0.15150 0.02780
H17 H 0.85290 -0.22490 0.14100
N1 N 0.92668(5) 0.10566(8) 0.07962(9)
N2 N 0.94566(5) 0.22587(8) 0.24815(10)
H18 H 0.96840 0.26230 0.18640
H19 H 0.94120 0.24930 0.33500
O1 O 0.96303(4) 0.16868(6) -0.00568(8)
O2 O 0.95189(4) -0.10219(7) 0.19615(9)
H20 H 0.97870 -0.11940 0.13340
#END
