
#######################################################################
#
#                 Cambridge Crystallographic Data Centre
#                                CCDC
#
#######################################################################
#
# If this CIF has been generated from an entry in the Cambridge
# Structural Database, then it will include bibliographic, chemical,
# crystal, experimental, refinement or atomic coordinate data resulting
# from the CCDC's data processing and validation procedures.
#
#######################################################################

data_CSD_CIF_MUFWER
_audit_creation_date 2015-05-29
_audit_creation_method CSD-ConQuest-V1
_database_code_CSD MUFWER
_database_code_depnum_ccdc_archive 'CCDC 1403912'
_chemical_formula_sum 'C18 H20 N2 O1'
_chemical_formula_moiety
;
C18 H20 N2 O1
;
_journal_coden_Cambridge 1078
_journal_year 2015
_journal_name_full 'CSD Communication(Private Communication) '
loop_
_publ_author_name
"R.Wartchow"
"M.Zohri"
"H.M.R.Hoffmann"
_chemical_name_systematic
;
16,18-dimethyl-19-oxa-1,16-diazatetracyclo[13.3.1.0^2,7^.0^9,14^]nonadeca-2,4,
6,9,11,13-hexaene
;
_cell_volume   1513.819
_exptl_crystal_colour 'colorless'
_exptl_crystal_density_diffrn 1.23
_diffrn_ambient_temperature 300
#These two values have been output from a single CSD field.
_refine_ls_R_factor_gt 0.039
_refine_ls_wR_factor_gt 0.039
_symmetry_cell_setting monoclinic
_symmetry_space_group_name_H-M 'P 21/n'
_symmetry_Int_Tables_number 14
loop_
_symmetry_equiv_pos_site_id
_symmetry_equiv_pos_as_xyz
1 x,y,z
2 1/2-x,1/2+y,1/2-z
3 -x,-y,-z
4 -1/2+x,-1/2-y,-1/2+z
_cell_length_a 7.928(1)
_cell_length_b 10.507(1)
_cell_length_c 18.234(3)
_cell_angle_alpha 90
_cell_angle_beta 94.68(1)
_cell_angle_gamma 90
_cell_formula_units_Z 4
loop_
_atom_type_symbol
_atom_type_radius_bond
C 0.68
H 0.23
N 0.68
O 0.68
loop_
_atom_site_label
_atom_site_type_symbol
_atom_site_fract_x
_atom_site_fract_y
_atom_site_fract_z
N1 N 0.4155(2) 0.59704(14) 0.21064(9)
C1 C 0.5371(3) 0.55016(18) 0.26207(12)
C2 C 0.6684(3) 0.47474(19) 0.23714(12)
C3 C 0.6869(3) 0.44846(19) 0.15616(12)
H1 H 0.71380 0.52760 0.13230
H2 H 0.78130 0.39080 0.15220
C4 C 0.5304(3) 0.3913(2) 0.11550(11)
C5 C 0.3932(3) 0.4602(2) 0.08356(11)
C6 C 0.3865(3) 0.60478(19) 0.08516(12)
H3 H 0.43740 0.63560 0.04130
N2 N 0.2163(2) 0.65571(17) 0.08268(10)
C7 C 0.1399(3) 0.63488(19) 0.15311(12)
H4 H 0.10140 0.54740 0.15450
H5 H 0.04110 0.68910 0.15400
C8 C 0.2569(3) 0.66078(18) 0.22299(12)
H6 H 0.20840 0.61630 0.26360
O1 O 0.48791(18) 0.65312(11) 0.14840(8)
C9 C 0.5220(3) 0.56498(18) 0.33643(12)
H7 H 0.43720 0.61650 0.35260
C10 C 0.6335(3) 0.5031(2) 0.38694(13)
H8 H 0.62180 0.51200 0.43700
C11 C 0.7601(3) 0.4291(2) 0.36374(14)
H9 H 0.83540 0.38840 0.39790
C12 C 0.7761(3) 0.4150(2) 0.28966(13)
H10 H 0.86210 0.36350 0.27440
C13 C 0.5257(3) 0.2588(2) 0.11060(12)
H11 H 0.61470 0.21130 0.13280
C14 C 0.3905(4) 0.1972(2) 0.07317(13)
H12 H 0.38980 0.10880 0.07060
C15 C 0.2583(4) 0.2646(3) 0.04002(14)
H13 H 0.16900 0.22280 0.01400
C16 C 0.2587(3) 0.3962(2) 0.04571(12)
H14 H 0.16800 0.44240 0.02390
C17 C 0.2087(3) 0.7878(2) 0.05670(13)
H15 H 0.09440 0.81810 0.05590
H16 H 0.24610 0.79180 0.00800
H17 H 0.28070 0.83980 0.08920
C18 C 0.2749(3) 0.80045(16) 0.24496(13)
H18 H 0.35060 0.80770 0.28860
H19 H 0.16610 0.83390 0.25440
H20 H 0.31930 0.84760 0.20580
#END
