
#######################################################################
#
#                 Cambridge Crystallographic Data Centre
#                                CCDC
#
#######################################################################
#
# If this CIF has been generated from an entry in the Cambridge
# Structural Database, then it will include bibliographic, chemical,
# crystal, experimental, refinement or atomic coordinate data resulting
# from the CCDC's data processing and validation procedures.
#
#######################################################################

data_CSD_CIF_MUGDID
_audit_creation_date 2015-05-31
_audit_creation_method CSD-ConQuest-V1
_database_code_CSD MUGDID
_database_code_depnum_ccdc_archive 'CCDC 1402145'
_chemical_formula_sum 'C14 H9 N1 O6'
_chemical_formula_moiety
;
C14 H9 N1 O6
;
_journal_coeditor_code "su5137"
_journal_coden_Cambridge 1828
_journal_volume 71
_journal_year 2015
_journal_page_first o435
_journal_name_full 'Acta Crystallogr.,Sect.E:Cryst.Commun. '
loop_
_publ_author_name
"K.S.Ezhilarasi"
"S.Selvarani"
"P.Rajakumar"
"B.K.Revathi"
"G.Usha"
_chemical_name_systematic
;
Diprop-2-yn-1-yl 5-nitroisophthalate
;
_cell_volume   1287.301
_exptl_crystal_colour 'colorless'
_exptl_crystal_density_diffrn 1.482
_exptl_crystal_description 'block'
_diffrn_ambient_temperature 293
#These two values have been output from a single CSD field.
_refine_ls_R_factor_gt 0.0381
_refine_ls_wR_factor_gt 0.0381
_symmetry_cell_setting orthorhombic
_symmetry_space_group_name_H-M 'P c c n'
_symmetry_Int_Tables_number 56
loop_
_symmetry_equiv_pos_site_id
_symmetry_equiv_pos_as_xyz
1 x,y,z
2 1/2-x,1/2-y,z
3 1/2+x,-y,1/2-z
4 -x,1/2+y,1/2-z
5 -x,-y,-z
6 -1/2+x,-1/2+y,-z
7 -1/2-x,y,-1/2+z
8 x,-1/2-y,-1/2+z
_cell_length_a 6.679(5)
_cell_length_b 11.679(5)
_cell_length_c 16.503(5)
_cell_angle_alpha 90
_cell_angle_beta 90
_cell_angle_gamma 90
_cell_formula_units_Z 4
loop_
_atom_type_symbol
_atom_type_radius_bond
C 0.68
H 0.23
N 0.68
O 0.68
loop_
_atom_site_label
_atom_site_type_symbol
_atom_site_fract_x
_atom_site_fract_y
_atom_site_fract_z
C1 C 0.75000 0.25000 0.05352(9)
C2 C 0.90289(17) 0.30592(10) 0.01386(7)
H1 H 1.00330 0.34330 0.04260
C3 C 0.90264(16) 0.30486(10) -0.07063(7)
C4 C 0.75000 0.25000 -0.11315(9)
H2 H 0.75000 0.25000 -0.16950
C5 C 1.07371(18) 0.36348(11) -0.11169(7)
C6 C 1.2259(2) 0.41344(12) -0.23491(7)
H3 H 1.25270 0.48880 -0.21270
H4 H 1.34500 0.36690 -0.22840
C7 C 1.17465(19) 0.42270(11) -0.32014(8)
C8 C 1.1422(2) 0.43439(16) -0.38961(9)
H5 H 1.11660 0.44360 -0.44460
N1 N 0.75000 0.25000 0.14284(8)
O1 O 0.86053(16) 0.31731(9) 0.17767(6)
O2 O 1.21118(18) 0.40639(12) -0.07644(6)
O3 O 1.05835(13) 0.36103(8) -0.19240(5)
C2A C 0.59711(17) 0.19408(10) 0.01386(7)
H1A H 0.49670 0.15670 0.04260
C3A C 0.59736(16) 0.19514(10) -0.07063(7)
C5A C 0.42629(18) 0.13652(11) -0.11169(7)
C6A C 0.2741(2) 0.08656(12) -0.23491(7)
H3A H 0.24730 0.01120 -0.21270
H4A H 0.15500 0.13310 -0.22840
C7A C 0.32535(19) 0.07730(11) -0.32014(8)
C8A C 0.3578(2) 0.06561(16) -0.38961(9)
H5A H 0.38340 0.05640 -0.44460
O1A O 0.63947(16) 0.18269(9) 0.17767(6)
O2A O 0.28882(18) 0.09361(12) -0.07644(6)
O3A O 0.44165(13) 0.13897(8) -0.19240(5)
#END
