
#######################################################################
#
#                 Cambridge Crystallographic Data Centre
#                                CCDC
#
#######################################################################
#
# If this CIF has been generated from an entry in the Cambridge
# Structural Database, then it will include bibliographic, chemical,
# crystal, experimental, refinement or atomic coordinate data resulting
# from the CCDC's data processing and validation procedures.
#
#######################################################################

data_CSD_CIF_MUGNUX
_audit_creation_date 2002-11-27
_audit_creation_method CSD-ConQuest-V1
_database_code_CSD MUGNUX
_database_code_depnum_ccdc_archive 'CCDC 195633'
_chemical_formula_sum 'C6 H6 N4 O8'
_chemical_formula_moiety
;
C6 H6 N4 O8
;
_journal_coeditor_code "IUCr GG1130"
_journal_coden_Cambridge 591
_journal_volume 58
_journal_year 2002
_journal_page_first o580
_journal_name_full 'Acta Crystallogr.,Sect.C:Cryst.Struct.Commun. '
loop_
_publ_author_name
"K.Karaghiosoff"
"T.M.Klapotke"
"A.Michailovski"
"G.Holl"
_chemical_name_systematic
;
4,10-Dinitro-2,6,8,12-tetraoxa-4,10-diazatetracyclo(5.5.0.0^3,11^.0^5,9^)dodec
ane
;
_chemical_name_common
;
4,10-Dinitro-2,6,8,12-tetraoxa-4,10-diazaisowurtzitane
;
_chemical_melting_point 473
_cell_volume    433.635
_exptl_crystal_colour 'colorless'
_exptl_crystal_density_diffrn 2.008
_exptl_special_details
;
Melts with decomposition.

;
_exptl_crystal_description 'prismatic'
_exptl_crystal_preparation 'acetone'
_diffrn_ambient_temperature 200
#These two values have been output from a single CSD field.
_refine_ls_R_factor_gt 0.034
_refine_ls_wR_factor_gt 0.034
_symmetry_cell_setting triclinic
_symmetry_space_group_name_H-M 'P -1'
_symmetry_Int_Tables_number 2
loop_
_symmetry_equiv_pos_site_id
_symmetry_equiv_pos_as_xyz
1 x,y,z
2 -x,-y,-z
_cell_length_a 6.8360(12)
_cell_length_b 7.6404(14)
_cell_length_c 8.7765(16)
_cell_angle_alpha 82.37(2)
_cell_angle_beta 75.05(2)
_cell_angle_gamma 79.46(2)
_cell_formula_units_Z 2
loop_
_atom_type_symbol
_atom_type_radius_bond
C 0.68
H 0.23
N 0.68
O 0.68
loop_
_atom_site_label
_atom_site_type_symbol
_atom_site_fract_x
_atom_site_fract_y
_atom_site_fract_z
N1 N 0.33969(18) 0.44852(15) 0.16131(14)
N2 N 0.25635(19) 0.61331(16) 0.09075(16)
O1 O 0.16876(19) 0.60570(16) -0.01222(16)
O2 O 0.2887(2) 0.74885(15) 0.13161(17)
C1 C 0.4157(2) 0.46362(18) 0.29802(17)
H1 H 0.492(3) 0.561(2) 0.277(2)
C2 C 0.5403(2) 0.28002(18) 0.34348(17)
H2 H 0.677(3) 0.291(2) 0.341(2)
N3 N 0.53746(18) 0.15391(15) 0.23494(15)
N4 N 0.69513(19) 0.00807(16) 0.21436(15)
O3 O 0.84518(17) 0.01483(15) 0.26158(16)
O4 O 0.67333(19) -0.11302(14) 0.14468(14)
C3 C 0.3375(2) 0.12532(18) 0.22548(17)
H3 H 0.354(3) 0.042(2) 0.149(2)
C4 C 0.2130(2) 0.30791(17) 0.17962(17)
H4 H 0.169(3) 0.310(2) 0.082(2)
O5 O 0.25545(16) 0.49642(13) 0.43588(12)
O6 O 0.43333(16) 0.23317(14) 0.50157(12)
O7 O 0.21710(15) 0.06749(13) 0.37520(12)
O8 O 0.03965(15) 0.33142(13) 0.30945(12)
C5 C 0.2302(2) 0.32432(18) 0.51536(17)
H5 H 0.166(3) 0.336(2) 0.625(2)
C6 C 0.1002(2) 0.22496(18) 0.44005(17)
H6 H -0.018(3) 0.193(2) 0.516(2)
#END
