
#######################################################################
#
#                 Cambridge Crystallographic Data Centre
#                                CCDC
#
#######################################################################
#
# If this CIF has been generated from an entry in the Cambridge
# Structural Database, then it will include bibliographic, chemical,
# crystal, experimental, refinement or atomic coordinate data resulting
# from the CCDC's data processing and validation procedures.
#
#######################################################################

data_CSD_CIF_MUGNUX01
_audit_creation_date 2006-01-31
_audit_creation_method CSD-ConQuest-V1
_database_code_CSD MUGNUX01
_database_code_depnum_ccdc_archive 'CCDC 1215046'
_chemical_formula_sum 'C6 H6 N4 O8'
_chemical_formula_moiety
;
C6 H6 N4 O8
;
_journal_coden_Cambridge 82
_journal_volume 46
_journal_year 2005
_journal_page_first 566
_journal_name_full 'Zh.Strukt.Khim.(Russ.)(J.Struct.Chem.) '
loop_
_publ_author_name
"Yu.V.Gatilov"
"T.V.Rybalova"
"O.A.Efimov"
"A.A.Lobanova"
"G.V.Sakovich"
"S.V.Sysolyatin"
_chemical_name_systematic
;
4,10-Dinitro-2,6,8,12-tetraoxa-4,10-diazatetracyclo(5.5.0.0^3,11^.0^5,9^)dodec
ane
;
_cell_volume    438.202
_exptl_crystal_density_diffrn 1.987
_exptl_crystal_preparation 'dimethylsulfoxide'
_diffrn_ambient_temperature 295
#These two values have been output from a single CSD field.
_refine_ls_R_factor_gt 0.0353
_refine_ls_wR_factor_gt 0.0353
_symmetry_cell_setting triclinic
_symmetry_space_group_name_H-M 'P -1'
_symmetry_Int_Tables_number 2
loop_
_symmetry_equiv_pos_site_id
_symmetry_equiv_pos_as_xyz
1 x,y,z
2 -x,-y,-z
_cell_length_a 6.8519(9)
_cell_length_b 7.655(1)
_cell_length_c 8.838(1)
_cell_angle_alpha 82.44(1)
_cell_angle_beta 74.89(1)
_cell_angle_gamma 79.41(1)
_cell_formula_units_Z 2
loop_
_atom_type_symbol
_atom_type_radius_bond
C 0.68
H 0.23
N 0.68
O 0.68
loop_
_atom_site_label
_atom_site_type_symbol
_atom_site_fract_x
_atom_site_fract_y
_atom_site_fract_z
C1 C 0.2310(3) 0.3243(3) 0.5138(2)
O1 O 0.4333(2) 0.2336(2) 0.4992(2)
C2 C 0.5392(3) 0.2809(3) 0.3426(2)
N1 N 0.5375(2) 0.1551(2) 0.2338(2)
C3 C 0.3375(3) 0.1271(3) 0.2255(2)
O2 O 0.2183(2) 0.0687(2) 0.3735(2)
C4 C 0.1015(3) 0.2253(3) 0.4386(2)
O3 O 0.0408(2) 0.3316(2) 0.3095(2)
C5 C 0.2131(3) 0.3088(3) 0.1810(2)
N2 N 0.3390(3) 0.4489(2) 0.1621(2)
C6 C 0.4157(3) 0.4633(3) 0.2983(2)
O4 O 0.2557(2) 0.4957(2) 0.4351(2)
N3 N 0.6935(3) 0.0093(2) 0.2147(2)
O5 O 0.6719(3) -0.1113(2) 0.1460(2)
O6 O 0.8437(2) 0.0161(2) 0.2615(2)
N4 N 0.2556(3) 0.6140(2) 0.0934(2)
O7 O 0.1664(3) 0.6062(2) -0.0072(2)
O8 O 0.2911(3) 0.7479(2) 0.1320(2)
H1 H 0.161(4) 0.338(3) 0.621(3)
H2 H 0.678(4) 0.288(3) 0.339(3)
H3 H 0.356(3) 0.045(3) 0.151(3)
H4 H -0.016(3) 0.197(3) 0.514(2)
H5 H 0.171(3) 0.312(3) 0.086(2)
H6 H 0.497(4) 0.553(3) 0.277(3)
#END
