
#######################################################################
#
#                 Cambridge Crystallographic Data Centre
#                                CCDC
#
#######################################################################
#
# If this CIF has been generated from an entry in the Cambridge
# Structural Database, then it will include bibliographic, chemical,
# crystal, experimental, refinement or atomic coordinate data resulting
# from the CCDC's data processing and validation procedures.
#
#######################################################################

data_CSD_CIF_MUHLIL
_audit_creation_date 2010-06-29
_audit_creation_method CSD-ConQuest-V1
_database_code_CSD MUHLIL
_database_code_depnum_ccdc_archive 'CCDC 696063'
_chemical_formula_sum 'C17 H19 N1 O5'
_chemical_formula_moiety
;
C17 H19 N1 O5
;
_journal_coden_Cambridge 1220
_journal_volume 15
_journal_year 2009
_journal_page_first 10888
_journal_name_full 'Chem.-Eur.J. '
loop_
_publ_author_name
"M.Schelwies"
"R.Moser"
"A.L.Dempwolff"
"F.Rominger"
"G.Helmchen"
_chemical_name_systematic
;
(+/-)-(1aR,3R,3aR,6aR)-3-(2-Nitrophenyl)-tetrahydro-3H-spiro[cyclopenta[c]cycl
opropa[b]furan-5,5'-[1,3]dioxane]
;
_chemical_melting_point 420.15
_cell_volume   2921.900
_exptl_crystal_colour 'colorless'
_exptl_crystal_density_diffrn 1.443
_exptl_crystal_description 'polyhedron'
_exptl_crystal_preparation 'methanol'
_diffrn_ambient_temperature 200
#These two values have been output from a single CSD field.
_refine_ls_R_factor_gt 0.0411
_refine_ls_wR_factor_gt 0.0411
_symmetry_cell_setting orthorhombic
_symmetry_space_group_name_H-M 'P b c a'
_symmetry_Int_Tables_number 61
loop_
_symmetry_equiv_pos_site_id
_symmetry_equiv_pos_as_xyz
1 x,y,z
2 1/2-x,-y,1/2+z
3 -x,1/2+y,1/2-z
4 1/2+x,1/2-y,-z
5 -x,-y,-z
6 -1/2+x,y,-1/2-z
7 x,-1/2-y,-1/2+z
8 -1/2-x,-1/2+y,z
_cell_length_a 9.1698(2)
_cell_length_b 15.1226(3)
_cell_length_c 21.0707(4)
_cell_angle_alpha 90
_cell_angle_beta 90
_cell_angle_gamma 90
_cell_formula_units_Z 8
loop_
_atom_type_symbol
_atom_type_radius_bond
C 0.68
H 0.23
N 0.68
O 0.68
loop_
_atom_site_label
_atom_site_type_symbol
_atom_site_fract_x
_atom_site_fract_y
_atom_site_fract_z
C1 C 0.76010(15) 0.41613(10) 1.06890(7)
C2 C 0.80495(16) 0.43329(9) 0.99932(7)
H1 H 0.77020 0.49200 0.98500
H2 H 0.91230 0.43090 0.99460
C3 C 0.73173(15) 0.35905(9) 0.96092(7)
H3 H 0.62810 0.37410 0.95080
C4 C 0.74035(15) 0.28138(9) 1.00698(7)
C5 C 0.75115(17) 0.31427(10) 1.07458(7)
H4 H 0.83930 0.29040 1.09560
H5 H 0.66420 0.29650 1.09930
C6 C 0.61004(16) 0.45602(10) 1.08391(8)
H6 H 0.54030 0.43910 1.05020
H7 H 0.57400 0.43140 1.12450
O1 O 0.61594(12) 0.55053(7) 1.08845(5)
C7 C 0.71905(19) 0.57574(11) 1.13455(8)
H8 H 0.71720 0.64090 1.13930
H9 H 0.69180 0.54930 1.17590
O2 O 0.86066(12) 0.54885(7) 1.11852(5)
C8 C 0.86748(17) 0.45416(10) 1.11695(7)
H10 H 0.84490 0.43050 1.15960
H11 H 0.96760 0.43540 1.10570
C9 C 0.84139(16) 0.21705(10) 0.97684(7)
H12 H 0.91310 0.18670 1.00520
O3 O 0.89414(11) 0.24930(7) 0.91837(5)
C10 C 0.81435(15) 0.32749(10) 0.90065(7)
H13 H 0.88520 0.37440 0.88770
C11 C 0.68282(17) 0.19307(10) 0.98504(7)
H14 H 0.62050 0.19190 0.94670
H15 H 0.65760 0.14870 1.01780
C12 C 0.71652(15) 0.30536(10) 0.84406(7)
C13 C 0.64571(16) 0.36762(10) 0.80517(7)
C14 C 0.56252(18) 0.34323(12) 0.75302(8)
H16 H 0.51580 0.38720 0.72800
C15 C 0.54785(19) 0.25524(13) 0.73762(8)
H17 H 0.49190 0.23810 0.70170
C16 C 0.61524(18) 0.19212(12) 0.77485(8)
H18 H 0.60470 0.13120 0.76480
C17 C 0.69793(17) 0.21721(11) 0.82664(7)
H19 H 0.74390 0.17260 0.85130
N1 N 0.66049(16) 0.46328(9) 0.81625(7)
O4 O 0.73954(16) 0.48963(8) 0.85888(7)
O5 O 0.59105(17) 0.51408(9) 0.78216(6)
#END
