
#######################################################################
#
#                 Cambridge Crystallographic Data Centre
#                                CCDC
#
#######################################################################
#
# If this CIF has been generated from an entry in the Cambridge
# Structural Database, then it will include bibliographic, chemical,
# crystal, experimental, refinement or atomic coordinate data resulting
# from the CCDC's data processing and validation procedures.
#
#######################################################################

data_CSD_CIF_MUHLUX
_audit_creation_date 2010-06-29
_audit_creation_method CSD-ConQuest-V1
_database_code_CSD MUHLUX
_database_code_depnum_ccdc_archive 'CCDC 696065'
_chemical_formula_sum 'C27 H28 N2 O10'
_chemical_formula_moiety
;
C27 H28 N2 O10
;
_journal_coden_Cambridge 1220
_journal_volume 15
_journal_year 2009
_journal_page_first 10888
_journal_name_full 'Chem.-Eur.J. '
loop_
_publ_author_name
"M.Schelwies"
"R.Moser"
"A.L.Dempwolff"
"F.Rominger"
"G.Helmchen"
_chemical_name_systematic
;
(+/-)-Dimethyl 
(2R,4S,4aS,7aR)-7a-(2-methylprop-1-en-1-yl)-2,4-bis(2-nitrophenyl)-tetrahydroc
yclopenta[d][1,3]dioxine-6,6(4H)-dicarboxylate
;
_chemical_melting_point 468.15
_cell_volume   1287.991
_exptl_crystal_colour 'colorless'
_exptl_crystal_density_diffrn 1.394
_exptl_special_details
;
Melting point range 468.15-470.15K

;
_exptl_crystal_description 'needle'
_exptl_crystal_preparation 'dichloromethane/methanol'
_diffrn_ambient_temperature 200
#These two values have been output from a single CSD field.
_refine_ls_R_factor_gt 0.0634
_refine_ls_wR_factor_gt 0.0634
_symmetry_cell_setting triclinic
_symmetry_space_group_name_H-M 'P -1'
_symmetry_Int_Tables_number 2
loop_
_symmetry_equiv_pos_site_id
_symmetry_equiv_pos_as_xyz
1 x,y,z
2 -x,-y,-z
_cell_length_a 7.7398(9)
_cell_length_b 9.7750(11)
_cell_length_c 18.297(2)
_cell_angle_alpha 100.934(2)
_cell_angle_beta 100.087(2)
_cell_angle_gamma 103.236(2)
_cell_formula_units_Z 2
loop_
_atom_type_symbol
_atom_type_radius_bond
C 0.68
H 0.23
N 0.68
O 0.68
loop_
_atom_site_label
_atom_site_type_symbol
_atom_site_fract_x
_atom_site_fract_y
_atom_site_fract_z
C1 C -0.1524(3) -0.3058(2) 0.17184(11)
C2 C -0.0689(3) -0.1970(2) 0.12725(11)
H1 H -0.01330 -0.24500 0.08850
H2 H -0.16440 -0.15950 0.10090
C3 C 0.0766(3) -0.0732(2) 0.18598(10)
C4 C 0.1345(2) -0.14304(19) 0.25198(10)
H3 H 0.21890 -0.20170 0.23740
C5 C -0.0440(3) -0.2451(2) 0.25612(11)
H4 H -0.11220 -0.19190 0.28670
H5 H -0.01990 -0.32420 0.27950
C6 C -0.1256(3) -0.4527(2) 0.13745(11)
O1 O -0.0166(2) -0.50782(16) 0.16537(9)
O2 O -0.2378(2) -0.50941(16) 0.06811(9)
C7 C -0.2146(3) -0.6427(2) 0.02575(14)
H6 H -0.09260 -0.62450 0.01520
H7 H -0.30670 -0.67830 -0.02260
H8 H -0.22880 -0.71550 0.05610
C8 C -0.3549(3) -0.3233(2) 0.16609(12)
O3 O -0.4454(2) -0.25544(19) 0.13666(10)
O4 O -0.4192(2) -0.42757(17) 0.20023(10)
C9 C -0.6114(3) -0.4607(3) 0.19903(18)
H9 H -0.63970 -0.37430 0.22530
H10 H -0.64300 -0.53860 0.22500
H11 H -0.68190 -0.49160 0.14590
C10 C 0.2336(3) -0.0069(2) 0.15344(11)
H12 H 0.34220 -0.03560 0.16610
C11 C 0.2378(3) 0.0869(2) 0.10925(12)
C12 C 0.4035(4) 0.1368(3) 0.07858(15)
H13 H 0.49590 0.08880 0.09560
H14 H 0.45330 0.24190 0.09760
H15 H 0.36930 0.11240 0.02260
C13 C 0.0836(3) 0.1516(3) 0.08575(14)
H16 H -0.02940 0.09340 0.09390
H17 H 0.06850 0.15230 0.03150
H18 H 0.11150 0.25090 0.11650
C14 C 0.2332(2) -0.02629(19) 0.32608(10)
H19 H 0.35140 0.03100 0.31910
O5 O 0.11995(17) 0.06868(13) 0.34219(7)
C15 C 0.0836(3) 0.13274(19) 0.27951(10)
H20 H 0.20100 0.18460 0.26940
O6 O -0.02108(18) 0.02873(14) 0.21343(7)
C16 C -0.0241(3) 0.2396(2) 0.30122(11)
C17 C 0.0484(3) 0.3613(2) 0.36198(11)
C18 C -0.0481(3) 0.4593(2) 0.38350(12)
H21 H 0.00510 0.53970 0.42610
C19 C -0.2232(3) 0.4378(2) 0.34184(13)
H22 H -0.28980 0.50600 0.35420
C20 C -0.3009(3) 0.3169(2) 0.28226(13)
H23 H -0.42260 0.30080 0.25460
C21 C -0.2028(3) 0.2181(2) 0.26222(12)
H24 H -0.25880 0.13500 0.22130
N1 N 0.2342(2) 0.38831(18) 0.40886(11)
O7 O 0.3584(2) 0.3834(2) 0.37620(11)
O8 O 0.2540(2) 0.4148(2) 0.47813(10)
C22 C 0.2697(2) -0.09183(19) 0.39433(10)
C23 C 0.4140(2) -0.1534(2) 0.41265(11)
C24 C 0.4370(3) -0.2144(2) 0.47515(12)
H25 H 0.53610 -0.25520 0.48570
C25 C 0.3149(3) -0.2152(2) 0.52178(12)
H26 H 0.32980 -0.25600 0.56490
C26 C 0.1712(3) -0.1565(2) 0.50543(12)
H27 H 0.08670 -0.15690 0.53740
C27 C 0.1490(3) -0.0969(2) 0.44259(11)
H28 H 0.04800 -0.05810 0.43210
N2 N 0.5560(2) -0.15420(19) 0.36775(10)
O9 O 0.6793(3) -0.2053(3) 0.38926(12)
O10 O 0.5475(2) -0.1031(2) 0.31224(10)
#END
