
#######################################################################
#
#                 Cambridge Crystallographic Data Centre
#                                CCDC
#
#######################################################################
#
# If this CIF has been generated from an entry in the Cambridge
# Structural Database, then it will include bibliographic, chemical,
# crystal, experimental, refinement or atomic coordinate data resulting
# from the CCDC's data processing and validation procedures.
#
#######################################################################

data_CSD_CIF_MUKCAX
_audit_creation_date 2010-06-29
_audit_creation_method CSD-ConQuest-V1
_database_code_CSD MUKCAX
_database_code_depnum_ccdc_archive 'CCDC 721044'
_chemical_formula_sum 'C7 H5 N3 O3'
_chemical_formula_moiety
;
C7 H5 N3 O3
;
_journal_coden_Cambridge 10
_journal_volume 92
_journal_year 2009
_journal_page_first 1952
_journal_name_full 'Helv.Chim.Acta '
loop_
_publ_author_name
"R.M.Claramunt"
"D.Sanz"
"C.Lopez"
"E.Pinilla"
"M.R.Torres"
"J.Elguero"
"P.Nioche"
"C.S.Raman"
_chemical_name_systematic
;
7-Nitro-1H-indazol-3-ol
;
_cell_volume    721.412
_exptl_crystal_colour 'yellow'
_exptl_crystal_density_diffrn 1.649
_exptl_special_details
;
3-ol tautomer

;
_exptl_crystal_description 'prismatic'
_exptl_crystal_preparation 'ethanol'
_diffrn_ambient_temperature 296
#These two values have been output from a single CSD field.
_refine_ls_R_factor_gt 0.0409
_refine_ls_wR_factor_gt 0.0409
_symmetry_cell_setting monoclinic
_symmetry_space_group_name_H-M 'P 21/n'
_symmetry_Int_Tables_number 14
loop_
_symmetry_equiv_pos_site_id
_symmetry_equiv_pos_as_xyz
1 x,y,z
2 1/2-x,1/2+y,1/2-z
3 -x,-y,-z
4 -1/2+x,-1/2-y,-1/2+z
_cell_length_a 7.5948(11)
_cell_length_b 7.007(1)
_cell_length_c 13.593(2)
_cell_angle_alpha 90
_cell_angle_beta 94.223(2)
_cell_angle_gamma 90
_cell_formula_units_Z 4
loop_
_atom_type_symbol
_atom_type_radius_bond
C 0.68
H 0.23
N 0.68
O 0.68
loop_
_atom_site_label
_atom_site_type_symbol
_atom_site_fract_x
_atom_site_fract_y
_atom_site_fract_z
O1 O 0.93019(18) -0.37573(18) 0.37726(8)
C1 C 0.6790(2) 0.1480(2) 0.54627(12)
C2 C 0.6177(2) 0.2505(3) 0.46454(14)
H1 H 0.55920 0.36520 0.47300
C3 C 0.6409(2) 0.1871(2) 0.36984(13)
H2 H 0.59750 0.25920 0.31590
C4 C 0.7275(2) 0.0185(3) 0.35486(12)
H3 H 0.74370 -0.02370 0.29130
C5 C 0.7904(2) -0.0881(2) 0.43646(12)
C6 C 0.8779(2) -0.2671(2) 0.45031(12)
C7 C 0.7662(2) -0.0264(2) 0.53324(11)
N1 N 0.6499(2) 0.2161(2) 0.64377(12)
N2 N 0.83436(19) -0.1610(2) 0.59561(10)
N3 N 0.90247(19) -0.3111(2) 0.54409(10)
O2 O 0.5657(2) 0.3626(2) 0.65425(11)
O3 O 0.7107(2) 0.1200(2) 0.71422(10)
H4 H 0.83210 -0.16260 0.66350
H5 H 0.97710 -0.48680 0.40310
#END
