
#######################################################################
#
#                 Cambridge Crystallographic Data Centre
#                                CCDC
#
#######################################################################
#
# If this CIF has been generated from an entry in the Cambridge
# Structural Database, then it will include bibliographic, chemical,
# crystal, experimental, refinement or atomic coordinate data resulting
# from the CCDC's data processing and validation procedures.
#
#######################################################################

data_CSD_CIF_MUKKEK
_audit_creation_date 2015-06-02
_audit_creation_method CSD-ConQuest-V1
_database_code_CSD MUKKEK
_database_code_depnum_ccdc_archive 'CCDC 1404536'
_chemical_formula_sum 'C24 H21 N1 O8'
_chemical_formula_moiety
;
C24 H21 N1 O8
;
_journal_coden_Cambridge 1078
_journal_year 2015
_journal_name_full 'CSD Communication(Private Communication) '
loop_
_publ_author_name
"Youjun Yang"
"R.M.Strongin"
"F.R.Fronczek"
_chemical_name_systematic
;
3,3-bis(2,4-dimethoxyphenyl)-5-nitro-2-benzofuran-1(3H)-one
;
_cell_volume   2140.833
_exptl_crystal_colour 'tan'
_exptl_crystal_density_diffrn 1.401
_exptl_crystal_preparation 'Re-crystallisation from solvent'
_diffrn_ambient_temperature 105
#These two values have been output from a single CSD field.
_refine_ls_R_factor_gt 0.047
_refine_ls_wR_factor_gt 0.047
_symmetry_cell_setting monoclinic
_symmetry_space_group_name_H-M 'P 21/c'
_symmetry_Int_Tables_number 14
loop_
_symmetry_equiv_pos_site_id
_symmetry_equiv_pos_as_xyz
1 x,y,z
2 -x,1/2+y,1/2-z
3 -x,-y,-z
4 x,-1/2-y,-1/2+z
_cell_length_a 8.4633(10)
_cell_length_b 19.346(3)
_cell_length_c 13.084(2)
_cell_angle_alpha 90
_cell_angle_beta 92.089(7)
_cell_angle_gamma 90
_cell_formula_units_Z 4
loop_
_atom_type_symbol
_atom_type_radius_bond
C 0.68
H 0.23
N 0.68
O 0.68
loop_
_atom_site_label
_atom_site_type_symbol
_atom_site_fract_x
_atom_site_fract_y
_atom_site_fract_z
O1 O 0.82525(11) 0.35854(5) 0.65964(7)
O2 O 0.26166(16) 0.36195(7) 0.31817(10)
O3 O 0.31561(15) 0.46468(6) 0.26516(9)
O4 O 0.84558(12) 0.28619(5) 0.46178(7)
O5 O 0.89906(13) 0.05420(5) 0.57482(8)
O6 O 0.35672(11) 0.28039(5) 0.62519(7)
O7 O 0.24809(12) 0.37365(6) 0.94992(7)
O8 O 0.97768(13) 0.44803(6) 0.61891(8)
N1 N 0.34214(16) 0.41448(7) 0.32006(9)
C1 C 0.67189(15) 0.32699(7) 0.62769(10)
C2 C 0.62161(15) 0.37123(7) 0.53524(10)
C3 C 0.49455(16) 0.36559(7) 0.46607(10)
H1 H 0.42160 0.32830 0.46850
C4 C 0.47965(16) 0.41749(7) 0.39296(10)
C5 C 0.58348(17) 0.47269(8) 0.38414(11)
H2 H 0.56590 0.50710 0.33320
C6 C 0.71364(17) 0.47611(8) 0.45183(11)
H3 H 0.78980 0.51190 0.44720
C7 C 0.72848(16) 0.42522(7) 0.52659(11)
C8 C 0.85772(17) 0.41551(8) 0.60348(11)
C9 C 0.71110(15) 0.25164(7) 0.60789(10)
C10 C 0.80912(15) 0.23360(7) 0.52625(10)
C11 C 0.86797(16) 0.16743(8) 0.51758(10)
H4 H 0.93360 0.15600 0.46270
C12 C 0.83114(16) 0.11747(7) 0.58928(11)
C13 C 0.73222(17) 0.13287(8) 0.66837(11)
H5 H 0.70440 0.09840 0.71610
C14 C 0.67458(16) 0.19996(8) 0.67632(10)
H6 H 0.60760 0.21070 0.73080
C15 C 0.94256(17) 0.27086(9) 0.37709(11)
H7 H 1.04600 0.25420 0.40270
H8 H 0.95660 0.31280 0.33630
H9 H 0.89140 0.23510 0.33440
C16 C 0.9072(2) 0.00845(8) 0.66071(13)
H10 H 0.95390 0.03280 0.72020
H11 H 0.97270 -0.03160 0.64480
H12 H 0.80040 -0.00710 0.67610
C17 C 0.56076(15) 0.33933(7) 0.71638(10)
C18 C 0.40231(15) 0.31655(7) 0.71055(10)
C19 C 0.30175(16) 0.33034(7) 0.78948(10)
H13 H 0.19430 0.31620 0.78380
C20 C 0.35776(16) 0.36475(7) 0.87691(10)
C21 C 0.51279(17) 0.38708(8) 0.88489(11)
H14 H 0.55130 0.41080 0.94430
C22 C 0.61172(16) 0.37415(7) 0.80395(11)
H15 H 0.71810 0.38980 0.80920
C23 C 0.19512(17) 0.25872(9) 0.61576(12)
H16 H 0.17090 0.22870 0.67350
H17 H 0.17780 0.23330 0.55160
H18 H 0.12600 0.29940 0.61580
C24 C 0.29732(19) 0.41014(9) 1.04108(11)
H19 H 0.38440 0.38510 1.07580
H20 H 0.20830 0.41360 1.08670
H21 H 0.33280 0.45660 1.02300
#END
