
#######################################################################
#
#                 Cambridge Crystallographic Data Centre
#                                CCDC
#
#######################################################################
#
# If this CIF has been generated from an entry in the Cambridge
# Structural Database, then it will include bibliographic, chemical,
# crystal, experimental, refinement or atomic coordinate data resulting
# from the CCDC's data processing and validation procedures.
#
#######################################################################

data_CSD_CIF_MUKKUY01
_audit_creation_date 2012-02-24
_audit_creation_method CSD-ConQuest-V1
_database_code_CSD MUKKUY01
_database_code_depnum_ccdc_archive 'CCDC 846468'
_chemical_formula_sum 'C13 H18 N3 O2'
_chemical_formula_moiety
;
C13 H18 N3 O2
;
_journal_coden_Cambridge 1096
_journal_volume 23
_journal_year 2011
_journal_page_first 4844
_journal_name_full 'Chem.Mater. '
loop_
_publ_author_name
"S.Aboaku"
"A.Paduan-Filho"
"V.Bindilatti"
"N.F.Oliveira Junior"
"J.A.Schlueter"
"P.M.Lahti"
_chemical_name_systematic
;
4,4,5,5-Tetramethyl-2-(4-aminophenyl)-4,5-dihydro-1H-imidazol-1-oxyl 3-oxide
;
_cell_volume   2728.083
_exptl_crystal_colour 'dark green'
_exptl_crystal_density_diffrn 1.209
_exptl_crystal_description 'prism'
_diffrn_ambient_temperature 293
#These two values have been output from a single CSD field.
_refine_ls_R_factor_gt 0.0598
_refine_ls_wR_factor_gt 0.0598
_symmetry_cell_setting orthorhombic
_symmetry_space_group_name_H-M 'P b c a'
_symmetry_Int_Tables_number 61
loop_
_symmetry_equiv_pos_site_id
_symmetry_equiv_pos_as_xyz
1 x,y,z
2 1/2-x,-y,1/2+z
3 1/2+x,1/2-y,-z
4 -x,1/2+y,1/2-z
5 -x,-y,-z
6 -1/2+x,y,-1/2-z
7 -1/2-x,-1/2+y,z
8 x,-1/2-y,-1/2+z
_cell_length_a 13.7796(7)
_cell_length_b 12.3236(6)
_cell_length_c 16.0651(4)
_cell_angle_alpha 90
_cell_angle_beta 90
_cell_angle_gamma 90
_cell_formula_units_Z 8
loop_
_atom_type_symbol
_atom_type_radius_bond
C 0.68
H 0.23
N 0.68
O 0.68
loop_
_atom_site_label
_atom_site_type_symbol
_atom_site_fract_x
_atom_site_fract_y
_atom_site_fract_z
N1 N 0.62607(12) -0.05021(13) 0.27244(10)
O1 O 0.67854(14) -0.11746(13) 0.31383(9)
C1 C 0.61627(14) -0.04788(15) 0.18911(12)
N2 N 0.55460(13) 0.03389(14) 0.1704(1)
C2 C 0.66096(15) -0.12221(15) 0.13044(12)
O2 O 0.53106(13) 0.06511(14) 0.09678(10)
C3 C 0.74191(19) -0.27809(18) 0.02258(12)
C4 C 0.65837(19) -0.2217(2) 0.00120(14)
C5 C 0.74534(18) -0.17786(19) 0.15109(14)
C6 C 0.5756(2) 0.0419(2) 0.31435(13)
C7 C 0.61883(18) -0.14535(18) 0.05294(13)
C8 C 0.7852(2) -0.2527(2) 0.09840(15)
C9 C 0.50524(18) 0.0784(2) 0.24570(15)
N3 N 0.7831(2) -0.3545(2) -0.02811(15)
C10 C 0.4927(2) 0.2004(2) 0.23727(18)
H1 H 0.55510 0.23380 0.23010
H2 H 0.46250 0.22850 0.28660
H3 H 0.45270 0.21590 0.18980
C11 C 0.6549(3) 0.1249(3) 0.3338(3)
C12 C 0.5280(3) 0.0013(3) 0.39382(18)
H4 H 0.48910 -0.06130 0.38160
H5 H 0.48750 0.05740 0.41660
H6 H 0.57720 -0.01770 0.43350
C13 C 0.4063(2) 0.0212(3) 0.2476(2)
H7 H 0.37190 0.03620 0.19690
H8 H 0.36930 0.04730 0.29410
H9 H 0.41580 -0.05560 0.25290
H10 H 0.5597(17) -0.1064(18) 0.0400(13)
H11 H 0.7717(15) -0.164(2) 0.2074(13)
H12 H 0.6282(19) -0.237(2) -0.0561(18)
H13 H 0.847(2) -0.292(2) 0.1146(16)
H14 H 0.688(3) 0.146(3) 0.282(2)
H15 H 0.622(2) 0.185(3) 0.363(2)
H16 H 0.698(2) 0.089(3) 0.373(2)
H17 H 0.751(2) -0.370(2) -0.070(2)
H18 H 0.838(2) -0.395(2) -0.0133(18)
#END
