
#######################################################################
#
#                 Cambridge Crystallographic Data Centre
#                                CCDC
#
#######################################################################
#
# If this CIF has been generated from an entry in the Cambridge
# Structural Database, then it will include bibliographic, chemical,
# crystal, experimental, refinement or atomic coordinate data resulting
# from the CCDC's data processing and validation procedures.
#
#######################################################################

data_CSD_CIF_MUKKUY02
_audit_creation_date 2012-02-24
_audit_creation_method CSD-ConQuest-V1
_database_code_CSD MUKKUY02
_database_code_depnum_ccdc_archive 'CCDC 846469'
_chemical_formula_sum 'C13 H18 N3 O2'
_chemical_formula_moiety
;
C13 H18 N3 O2
;
_journal_coden_Cambridge 1096
_journal_volume 23
_journal_year 2011
_journal_page_first 4844
_journal_name_full 'Chem.Mater. '
loop_
_publ_author_name
"S.Aboaku"
"A.Paduan-Filho"
"V.Bindilatti"
"N.F.Oliveira Junior"
"J.A.Schlueter"
"P.M.Lahti"
_chemical_name_systematic
;
4,4,5,5-Tetramethyl-2-(4-aminophenyl)-4,5-dihydro-1H-imidazol-1-oxyl 3-oxide
;
_cell_volume   2698.844
_exptl_crystal_colour 'green'
_exptl_crystal_density_diffrn 1.222
_exptl_crystal_description 'prism'
_diffrn_ambient_temperature 15
_diffrn_radiation_probe x-ray
_diffrn_source synchrotron
#These two values have been output from a single CSD field.
_refine_ls_R_factor_gt 0.0622
_refine_ls_wR_factor_gt 0.0622
_symmetry_cell_setting orthorhombic
_symmetry_space_group_name_H-M 'P b c a'
_symmetry_Int_Tables_number 61
loop_
_symmetry_equiv_pos_site_id
_symmetry_equiv_pos_as_xyz
1 x,y,z
2 1/2-x,-y,1/2+z
3 -x,1/2+y,1/2-z
4 1/2+x,1/2-y,-z
5 -x,-y,-z
6 -1/2+x,y,-1/2-z
7 x,-1/2-y,-1/2+z
8 -1/2-x,-1/2+y,z
_cell_length_a 13.7284(6)
_cell_length_b 12.2673(6)
_cell_length_c 16.0254(8)
_cell_angle_alpha 90
_cell_angle_beta 90
_cell_angle_gamma 90
_cell_formula_units_Z 8
loop_
_atom_type_symbol
_atom_type_radius_bond
C 0.68
H 0.23
N 0.68
O 0.68
loop_
_atom_site_label
_atom_site_type_symbol
_atom_site_fract_x
_atom_site_fract_y
_atom_site_fract_z
C1 C 0.11647(10) 0.04793(11) 0.31123(9)
C2 C 0.00501(13) -0.07893(16) 0.25439(12)
C3 C 0.07651(15) -0.04252(15) 0.18566(11)
C4 C -0.09354(18) -0.0210(3) 0.2520(2)
H1 H -0.13490 -0.04860 0.29720
H2 H -0.12520 -0.03490 0.19820
H3 H -0.08380 0.05760 0.25910
C5 C -0.00777(19) -0.20049(17) 0.26267(15)
H4 H -0.05420 -0.21610 0.30760
H5 H 0.05510 -0.23420 0.27580
H6 H -0.03250 -0.23030 0.21000
C6 C 0.0291(2) -0.0025(3) 0.10594(16)
H7 H -0.02160 0.05090 0.11960
H8 H -0.00020 -0.06430 0.07640
H9 H 0.07830 0.03170 0.07030
C7 C 0.1559(2) -0.12598(19) 0.16691(16)
H10 H 0.19870 -0.09780 0.12300
H11 H 0.12580 -0.19420 0.14820
H12 H 0.19400 -0.13960 0.21750
C8 C 0.16117(10) 0.12236(11) 0.36965(9)
C9 C 0.24613(12) 0.17820(15) 0.34887(10)
H13 H 0.27670 0.16380 0.29680
C10 C 0.28640(15) 0.25305(16) 0.40153(11)
H14 H 0.34540 0.28820 0.38600
C11 C 0.24291(14) 0.27914(14) 0.47762(10)
C12 C 0.15884(14) 0.22259(15) 0.49927(10)
H15 H 0.12840 0.23750 0.55130
C13 C 0.11881(12) 0.14567(14) 0.44731(10)
H16 H 0.06170 0.10780 0.46410
N1 N 0.05455(10) -0.03399(11) 0.32999(8)
N2 N 0.12656(10) 0.05008(10) 0.22752(8)
N3 N 0.2844(2) 0.35537(17) 0.52808(12)
H17 H 0.2614(19) 0.368(2) 0.5663(17)
H18 H 0.3302(19) 0.400(2) 0.5072(16)
O1 O 0.03061(11) -0.06504(11) 0.40344(8)
O2 O 0.17932(10) 0.11727(10) 0.18596(7)
#END
