
#######################################################################
#
#                 Cambridge Crystallographic Data Centre
#                                CCDC
#
#######################################################################
#
# If this CIF has been generated from an entry in the Cambridge
# Structural Database, then it will include bibliographic, chemical,
# crystal, experimental, refinement or atomic coordinate data resulting
# from the CCDC's data processing and validation procedures.
#
#######################################################################

data_CSD_CIF_MUKLIO
_audit_creation_date 2010-07-30
_audit_creation_method CSD-ConQuest-V1
_database_code_CSD MUKLIO
_database_code_depnum_ccdc_archive 'CCDC 720657'
_chemical_formula_sum 'C6 H6 N16 O6'
_chemical_formula_moiety
;
C6 H6 N16 O6
;
_journal_coden_Cambridge 1220
_journal_volume 15
_journal_year 2009
_journal_page_first 11341
_journal_name_full 'Chem.-Eur.J. '
loop_
_publ_author_name
"T.M.Klapotke"
"B.Krumm"
"M.Scherr"
"F.X.Steemann"
"K.Banert"
"Young-Hyuk Joo"
_chemical_name_systematic
;
tris(5-Nitrotetrazol-2-ylmethyl)amine
;
_cell_volume   1490.328
_exptl_crystal_colour 'colorless'
_exptl_crystal_density_diffrn 1.775
_exptl_crystal_description 'block'
_diffrn_ambient_temperature 100
#These two values have been output from a single CSD field.
_refine_ls_R_factor_gt 0.03
_refine_ls_wR_factor_gt 0.03
_symmetry_cell_setting monoclinic
_symmetry_space_group_name_H-M 'P 21/n'
_symmetry_Int_Tables_number 14
loop_
_symmetry_equiv_pos_site_id
_symmetry_equiv_pos_as_xyz
1 x,y,z
2 1/2-x,1/2+y,1/2-z
3 -x,-y,-z
4 -1/2+x,-1/2-y,-1/2+z
_cell_length_a 11.6067(5)
_cell_length_b 10.1048(4)
_cell_length_c 12.7169(5)
_cell_angle_alpha 90
_cell_angle_beta 92.253(4)
_cell_angle_gamma 90
_cell_formula_units_Z 4
loop_
_atom_type_symbol
_atom_type_radius_bond
C 0.68
H 0.23
N 0.68
O 0.68
loop_
_atom_site_label
_atom_site_type_symbol
_atom_site_fract_x
_atom_site_fract_y
_atom_site_fract_z
C1 C 0.64802(14) 0.27626(16) 0.69236(12)
C2 C 0.68937(15) 0.06150(16) 0.48498(13)
H1 H 0.74790 -0.00240 0.51210
H2 H 0.62260 0.01040 0.45600
C3 C 0.85884(14) 0.14306(16) 0.39403(12)
H3 H 0.87670 0.18390 0.32580
H4 H 0.89020 0.05190 0.39480
C4 C 0.66348(15) 0.22129(16) 0.33929(12)
H5 H 0.58280 0.19070 0.34430
H6 H 0.68460 0.21280 0.26490
C5 C 0.95457(13) 0.36236(15) 0.58860(12)
C6 C 0.67116(14) 0.53506(16) 0.45067(13)
N1 N 0.68491(13) 0.36738(14) 0.77531(10)
N2 N 0.53727(12) 0.25500(15) 0.66578(11)
N3 N 0.54054(12) 0.16910(15) 0.58731(11)
N4 N 0.65153(11) 0.14457(13) 0.57304(10)
N5 N 0.72302(11) 0.21078(13) 0.63736(10)
N6 N 0.73691(11) 0.13735(13) 0.40270(9)
N7 N 0.91625(11) 0.22051(13) 0.48088(9)
N8 N 0.98646(12) 0.16371(14) 0.55332(10)
N9 N 1.01232(12) 0.25614(13) 0.62333(10)
N10 N 0.89337(11) 0.34608(13) 0.49997(10)
N11 N 0.95678(12) 0.48733(13) 0.64444(10)
N12 N 0.67013(11) 0.36263(13) 0.3700(1)
N13 N 0.71567(13) 0.45132(16) 0.30733(11)
N14 N 0.71646(14) 0.56403(15) 0.35890(13)
N15 N 0.64035(11) 0.41054(13) 0.46198(10)
N16 N 0.65947(13) 0.63214(15) 0.53328(14)
O1 O 0.61340(12) 0.40238(14) 0.8366(1)
O2 O 0.78549(11) 0.40243(13) 0.77788(9)
O3 O 1.02139(11) 0.49618(12) 0.72148(10)
O4 O 0.89303(10) 0.57495(11) 0.60969(9)
O5 O 0.61730(13) 0.59527(15) 0.61430(12)
O6 O 0.69477(15) 0.74286(13) 0.51511(13)
#END
