
#######################################################################
#
#                 Cambridge Crystallographic Data Centre
#                                CCDC
#
#######################################################################
#
# If this CIF has been generated from an entry in the Cambridge
# Structural Database, then it will include bibliographic, chemical,
# crystal, experimental, refinement or atomic coordinate data resulting
# from the CCDC's data processing and validation procedures.
#
#######################################################################

data_CSD_CIF_MULMUC
_audit_creation_date 2010-07-16
_audit_creation_method CSD-ConQuest-V1
_database_code_CSD MULMUC
_database_code_depnum_ccdc_archive 'CCDC 697302'
_chemical_formula_sum 'C11 H10 N2 O2'
_chemical_formula_moiety
;
C11 H10 N2 O2
;
_journal_coden_Cambridge 1137
_journal_volume 22
_journal_year 2009
_journal_page_first 857
_journal_name_full 'J.Phys.Org.Chem. '
loop_
_publ_author_name
"R.Kaminski"
"W.Schilf"
"P.Cmoch"
"T.Dziembowska"
"K.Wozniak"
_chemical_name_systematic
;
N-methyl-quinoline-2-carboxamide 1-oxide
;
_cell_volume    927.534
_exptl_crystal_colour 'colorless'
_exptl_crystal_density_diffrn 1.448
_diffrn_ambient_temperature 90
#These two values have been output from a single CSD field.
_refine_ls_R_factor_gt 0.0424
_refine_ls_wR_factor_gt 0.0424
_symmetry_cell_setting monoclinic
_symmetry_space_group_name_H-M 'P 21/c'
_symmetry_Int_Tables_number 14
loop_
_symmetry_equiv_pos_site_id
_symmetry_equiv_pos_as_xyz
1 x,y,z
2 -x,1/2+y,1/2-z
3 -x,-y,-z
4 x,-1/2-y,-1/2+z
_cell_length_a 10.2715(4)
_cell_length_b 7.7881(3)
_cell_length_c 11.6200(5)
_cell_angle_alpha 90
_cell_angle_beta 93.772(2)
_cell_angle_gamma 90
_cell_formula_units_Z 4
loop_
_atom_type_symbol
_atom_type_radius_bond
C 0.68
H 0.23
N 0.68
O 0.68
loop_
_atom_site_label
_atom_site_type_symbol
_atom_site_fract_x
_atom_site_fract_y
_atom_site_fract_z
O1 O 0.44719(6) 1.02832(9) 0.23988(6)
N1 N 0.46111(7) 0.92213(10) 0.32726(6)
C1 C 0.35895(8) 0.84100(11) 0.37141(7)
C2 C 0.58806(8) 0.89510(11) 0.37522(7)
C3 C 0.60932(9) 0.79070(11) 0.47388(7)
C4 C 0.50153(9) 0.71249(12) 0.52209(8)
H1 H 0.51340 0.64420 0.58970
N2 N 0.20290(8) 0.93998(11) 0.21885(7)
O2 O 0.13600(7) 0.76679(11) 0.36093(7)
C5 C 0.69235(9) 0.97426(12) 0.32336(8)
H2 H 0.67680 1.04370 0.25670
C6 C 0.22173(9) 0.84964(12) 0.31590(8)
C7 C 0.73975(9) 0.76942(13) 0.52043(8)
H3 H 0.75690 0.70060 0.58720
C8 C 0.37984(9) 0.73682(12) 0.46981(8)
H4 H 0.30730 0.68190 0.50080
C9 C 0.81721(9) 0.94979(13) 0.37053(9)
H5 H 0.88830 1.00250 0.33580
C10 C 0.84116(10) 0.84745(14) 0.46973(9)
H6 H 0.92800 0.83250 0.50160
C11 C 0.07795(10) 0.94115(15) 0.15191(9)
H7 H 0.01590 0.86810 0.18970
H8 H 0.08960 0.89730 0.07420
H9 H 0.04430 1.05880 0.14680
H10 H 0.2734(17) 0.997(2) 0.1952(14)
#END
