
#######################################################################
#
#                 Cambridge Crystallographic Data Centre
#                                CCDC
#
#######################################################################
#
# If this CIF has been generated from an entry in the Cambridge
# Structural Database, then it will include bibliographic, chemical,
# crystal, experimental, refinement or atomic coordinate data resulting
# from the CCDC's data processing and validation procedures.
#
#######################################################################

data_CSD_CIF_MULNEN
_audit_creation_date 2010-07-16
_audit_creation_method CSD-ConQuest-V1
_database_code_CSD MULNEN
_database_code_depnum_ccdc_archive 'CCDC 697304'
_chemical_formula_sum 'C16 H12 N2 O3'
_chemical_formula_moiety
;
C16 H12 N2 O3
;
_journal_coden_Cambridge 1137
_journal_volume 22
_journal_year 2009
_journal_page_first 857
_journal_name_full 'J.Phys.Org.Chem. '
loop_
_publ_author_name
"R.Kaminski"
"W.Schilf"
"P.Cmoch"
"T.Dziembowska"
"K.Wozniak"
_chemical_name_systematic
;
4-phenoxy-quinoline-2-carboxamide 1-oxide
;
_cell_volume   1232.559
_exptl_crystal_colour 'colorless'
_exptl_crystal_density_diffrn 1.51
_diffrn_ambient_temperature 90
#These two values have been output from a single CSD field.
_refine_ls_R_factor_gt 0.0382
_refine_ls_wR_factor_gt 0.0382
_symmetry_cell_setting monoclinic
_symmetry_space_group_name_H-M 'P 21/c'
_symmetry_Int_Tables_number 14
loop_
_symmetry_equiv_pos_site_id
_symmetry_equiv_pos_as_xyz
1 x,y,z
2 -x,1/2+y,1/2-z
3 -x,-y,-z
4 x,-1/2-y,-1/2+z
_cell_length_a 13.4657(4)
_cell_length_b 5.8126(2)
_cell_length_c 17.1263(5)
_cell_angle_alpha 90
_cell_angle_beta 113.149(2)
_cell_angle_gamma 90
_cell_formula_units_Z 4
loop_
_atom_type_symbol
_atom_type_radius_bond
C 0.68
H 0.23
N 0.68
O 0.68
loop_
_atom_site_label
_atom_site_type_symbol
_atom_site_fract_x
_atom_site_fract_y
_atom_site_fract_z
O1 O 0.09013(5) 0.62421(11) 0.25517(4)
O2 O 0.06339(5) 0.80551(11) 0.01556(4)
O3 O 0.27379(5) 0.01340(11) 0.16234(4)
N1 N 0.02379(6) 0.89227(13) 0.15118(5)
N2 N 0.11384(6) 0.62033(12) 0.05324(4)
C1 C 0.44889(8) -0.16860(16) 0.37634(6)
H1 H 0.45770 -0.29820 0.41220
C2 C 0.51913(7) 0.01740(17) 0.40465(6)
H2 H 0.57570 0.01500 0.45960
C3 C 0.50574(7) 0.20663(16) 0.35183(6)
H3 H 0.55350 0.33390 0.37100
C4 C 0.24944(7) 0.21253(16) -0.08113(5)
H4 H 0.27860 0.12050 -0.11280
C5 C 0.19879(7) 0.42337(16) -0.11476(5)
H5 H 0.19530 0.47330 -0.16860
C6 C 0.36592(7) -0.16626(15) 0.29595(5)
H6 H 0.31820 -0.29350 0.27670
C7 C 0.42318(7) 0.21200(15) 0.27112(5)
H7 H 0.41440 0.34130 0.23510
C8 C 0.25671(7) 0.13967(15) -0.00266(5)
H8 H 0.29090 -0.00250 0.01960
C9 C 0.15436(7) 0.55764(14) -0.07062(5)
H9 H 0.11980 0.69880 -0.09390
C10 C 0.17637(7) 0.35420(14) 0.16893(5)
H10 H 0.18170 0.31230 0.22400
C11 C 0.35380(6) 0.02472(14) 0.24425(5)
C12 C 0.22173(6) 0.21582(14) 0.12753(5)
C13 C 0.07569(6) 0.69800(14) 0.18341(5)
C14 C 0.21351(6) 0.27546(14) 0.04501(5)
C15 C 0.16083(6) 0.48301(14) 0.00935(5)
C16 C 0.12196(6) 0.55747(14) 0.13156(5)
H11 H 0.0145(11) 0.929(2) 0.0997(9)
H12 H -0.0047(11) 0.966(2) 0.1825(9)
#END
