
#######################################################################
#
#                 Cambridge Crystallographic Data Centre
#                                CCDC
#
#######################################################################
#
# If this CIF has been generated from an entry in the Cambridge
# Structural Database, then it will include bibliographic, chemical,
# crystal, experimental, refinement or atomic coordinate data resulting
# from the CCDC's data processing and validation procedures.
#
#######################################################################

data_CSD_CIF_MULQAM
_audit_creation_date 2010-07-15
_audit_creation_method CSD-ConQuest-V1
_database_code_CSD MULQAM
_database_code_depnum_ccdc_archive 'CCDC 738480'
_chemical_formula_sum 'C17 H21 N1 O2'
_chemical_formula_moiety
;
C17 H21 N1 O2
;
_journal_coden_Cambridge 1088
_journal_volume 2009
_journal_year 2009
_journal_page_first 2862
_journal_name_full 'Synlett '
loop_
_publ_author_name
"Yan Wang"
"Jinlong Wu"
"Wei-Min Dai"
_chemical_name_systematic
;
3-Benzyl-1,5-dimethyl-4a,5,6,8a-tetrahydro-1H-2,3-benzoxazin-4(3H)-one
;
_cell_volume   1504.607
_exptl_crystal_colour 'colorless'
_exptl_crystal_density_diffrn 1.198
_exptl_crystal_description 'chunk'
_diffrn_ambient_temperature 298
#These two values have been output from a single CSD field.
_refine_ls_R_factor_gt 0.0388
_refine_ls_wR_factor_gt 0.0388
_symmetry_cell_setting monoclinic
_symmetry_space_group_name_H-M 'P 21/c'
_symmetry_Int_Tables_number 14
loop_
_symmetry_equiv_pos_site_id
_symmetry_equiv_pos_as_xyz
1 x,y,z
2 -x,1/2+y,1/2-z
3 -x,-y,-z
4 x,-1/2-y,-1/2+z
_cell_length_a 11.636(6)
_cell_length_b 15.675(6)
_cell_length_c 8.541(4)
_cell_angle_alpha 90
_cell_angle_beta 105.020(17)
_cell_angle_gamma 90
_cell_formula_units_Z 4
loop_
_atom_type_symbol
_atom_type_radius_bond
C 0.68
H 0.23
N 0.68
O 0.68
loop_
_atom_site_label
_atom_site_type_symbol
_atom_site_fract_x
_atom_site_fract_y
_atom_site_fract_z
O1 O 0.49676(8) 0.12159(6) 0.49692(10)
O2 O 0.47283(9) 0.13619(6) 0.08225(11)
N1 N 0.52111(10) 0.14870(8) 0.35201(12)
C1 C 0.37464(12) 0.14180(8) 0.48786(13)
C2 C 0.29306(12) 0.09037(8) 0.35124(13)
C3 C 0.36284(11) 0.05337(8) 0.23648(13)
C4 C 0.45514(12) 0.11596(8) 0.21264(16)
C5 C 0.28126(13) 0.02242(9) 0.07673(16)
C6 C 0.20114(13) 0.09353(10) -0.00885(17)
C7 C 0.14935(14) 0.14312(10) 0.10260(19)
C8 C 0.18921(12) 0.14145(10) 0.26100(18)
C9 C 0.60957(12) 0.21517(8) 0.37114(16)
C10 C 0.73400(12) 0.18300(8) 0.43650(14)
C11 C 0.77852(14) 0.11795(8) 0.36012(17)
C12 C 0.8939(2) 0.09194(11) 0.4150(2)
C13 C 0.96609(18) 0.12788(14) 0.5475(2)
C14 C 0.92517(19) 0.19043(13) 0.6275(2)
C15 C 0.80870(16) 0.21865(10) 0.57106(17)
C16 C 0.35759(13) 0.1229(1) 0.65353(14)
C17 C 0.20893(17) -0.05502(9) 0.1050(2)
H1 H 0.36140 0.20280 0.46490
H2 H 0.26220 0.04220 0.40110
H3 H 0.40580 0.00330 0.29060
H4 H 0.33140 0.00440 0.00660
H5 H 0.08430 0.17780 0.05780
H6 H 0.14980 0.17450 0.32110
H7 H 0.72910 0.09150 0.27010
H8 H 0.92280 0.04900 0.36040
H9 H 1.04450 0.10960 0.58410
H10 H 0.97490 0.21450 0.72010
H11 H 0.78110 0.26230 0.62540
H12 H 0.13700 0.06880 -0.09250
H13 H 0.24740 0.13160 -0.05820
H14 H 0.60340 0.24120 0.26620
H15 H 0.59360 0.25770 0.44520
H16 H 0.41510 0.15420 0.73390
H17 H 0.27890 0.13960 0.65690
H18 H 0.36790 0.06290 0.67530
H19 H 0.15440 -0.03800 0.16650
H20 H 0.26180 -0.09790 0.16380
H21 H 0.16520 -0.07780 0.00250
#END
