
#######################################################################
#
#                 Cambridge Crystallographic Data Centre
#                                CCDC
#
#######################################################################
#
# If this CIF has been generated from an entry in the Cambridge
# Structural Database, then it will include bibliographic, chemical,
# crystal, experimental, refinement or atomic coordinate data resulting
# from the CCDC's data processing and validation procedures.
#
#######################################################################

data_CSD_CIF_MULQEQ
_audit_creation_date 2010-07-15
_audit_creation_method CSD-ConQuest-V1
_database_code_CSD MULQEQ
_database_code_depnum_ccdc_archive 'CCDC 738481'
_chemical_formula_sum 'C27 H25 N1 O2'
_chemical_formula_moiety
;
C27 H25 N1 O2
;
_journal_coden_Cambridge 1088
_journal_volume 2009
_journal_year 2009
_journal_page_first 2862
_journal_name_full 'Synlett '
loop_
_publ_author_name
"Yan Wang"
"Jinlong Wu"
"Wei-Min Dai"
_chemical_name_systematic
;
3-Benzyl-5,6-diphenyl-4a,5,6,8a-tetrahydro-1H-2,3-benzoxazin-4(3H)-one
;
_cell_volume   2103.971
_exptl_crystal_colour 'colorless'
_exptl_crystal_density_diffrn 1.248
_exptl_crystal_description 'needle'
_diffrn_ambient_temperature 298
#These two values have been output from a single CSD field.
_refine_ls_R_factor_gt 0.0375
_refine_ls_wR_factor_gt 0.0375
_symmetry_cell_setting orthorhombic
_symmetry_space_group_name_H-M 'P n a 21'
_symmetry_Int_Tables_number 33
loop_
_symmetry_equiv_pos_site_id
_symmetry_equiv_pos_as_xyz
1 x,y,z
2 1/2-x,1/2+y,1/2+z
3 1/2+x,1/2-y,z
4 -x,-y,1/2+z
_cell_length_a 14.148(4)
_cell_length_b 26.549(8)
_cell_length_c 5.6014(12)
_cell_angle_alpha 90
_cell_angle_beta 90
_cell_angle_gamma 90
_cell_formula_units_Z 4
loop_
_atom_type_symbol
_atom_type_radius_bond
C 0.68
H 0.23
N 0.68
O 0.68
loop_
_atom_site_label
_atom_site_type_symbol
_atom_site_fract_x
_atom_site_fract_y
_atom_site_fract_z
O1 O 0.30425(10) 0.23307(6) 0.2852(2)
O2 O 0.51385(10) 0.24126(6) 0.6031(3)
N1 N 0.39094(11) 0.21766(6) 0.3815(3)
C1 C 0.40676(12) 0.31800(6) 0.8451(3)
C2 C 0.33336(12) 0.35839(8) 0.9289(3)
C3 C 0.23569(13) 0.33627(9) 0.9425(3)
C4 C 0.20973(13) 0.29450(9) 0.8352(3)
C5 C 0.27584(12) 0.26206(8) 0.6954(3)
C6 C 0.23291(13) 0.24100(9) 0.4666(3)
C7 C 0.43336(13) 0.24942(8) 0.5357(3)
C8 C 0.36813(12) 0.28950(6) 0.6307(3)
C9 C 0.50475(12) 0.33970(6) 0.8153(3)
C10 C 0.57186(12) 0.33237(6) 0.9912(3)
C11 C 0.66254(13) 0.35133(8) 0.9691(4)
C12 C 0.68749(13) 0.37845(8) 0.7712(3)
C13 C 0.62212(13) 0.38653(6) 0.5944(3)
C14 C 0.53143(12) 0.36736(6) 0.6165(3)
C15 C 0.33414(14) 0.40633(8) 0.7881(3)
C16 C 0.39190(17) 0.44620(9) 0.8582(4)
C17 C 0.3965(2) 0.48930(12) 0.7258(7)
C18 C 0.3459(2) 0.49490(13) 0.5211(7)
C19 C 0.2866(2) 0.45670(13) 0.4525(5)
C20 C 0.28010(17) 0.41270(9) 0.5846(4)
C21 C 0.43821(16) 0.17729(9) 0.2520(3)
C22 C 0.43402(14) 0.12732(9) 0.3760(3)
C23 C 0.37536(14) 0.08906(10) 0.3031(4)
C24 C 0.37216(17) 0.04363(10) 0.4209(4)
C25 C 0.4282(2) 0.03568(11) 0.6160(5)
C26 C 0.4866(2) 0.07360(12) 0.6909(5)
C27 C 0.4897(2) 0.11864(10) 0.5732(5)
H1 H 0.41120 0.29340 0.97490
H2 H 0.35090 0.36750 1.09260
H3 H 0.19070 0.35330 1.03280
H4 H 0.14680 0.28460 0.84700
H5 H 0.29270 0.23330 0.79660
H6 H 0.35490 0.31370 0.50270
H7 H 0.55570 0.31430 1.12740
H8 H 0.70670 0.34560 1.08910
H9 H 0.74840 0.39130 0.75670
H10 H 0.63870 0.40490 0.45950
H11 H 0.48770 0.37320 0.49570
H12 H 0.42770 0.44340 0.99680
H13 H 0.43520 0.51550 0.77690
H14 H 0.35140 0.52400 0.42970
H15 H 0.25020 0.46040 0.31530
H16 H 0.23910 0.38730 0.53610
H17 H 0.33680 0.09400 0.17070
H18 H 0.33190 0.01830 0.36760
H19 H 0.42660 0.00510 0.69660
H20 H 0.52480 0.06860 0.82400
H21 H 0.53010 0.14380 0.62720
H22 H 0.20250 0.20910 0.50200
H23 H 0.18630 0.26460 0.40670
H24 H 0.50410 0.18650 0.23130
H25 H 0.40850 0.17390 0.09680
#END
