
#######################################################################
#
#                 Cambridge Crystallographic Data Centre
#                                CCDC
#
#######################################################################
#
# If this CIF has been generated from an entry in the Cambridge
# Structural Database, then it will include bibliographic, chemical,
# crystal, experimental, refinement or atomic coordinate data resulting
# from the CCDC's data processing and validation procedures.
#
#######################################################################

data_CSD_CIF_MULTEU
_audit_creation_date 2015-06-03
_audit_creation_method CSD-ConQuest-V1
_database_code_CSD MULTEU
_database_code_depnum_ccdc_archive 'CCDC 1049665'
_chemical_formula_sum 'C29 H32 N2 O9'
_chemical_formula_moiety
;
C29 H32 N2 O9
;
_journal_coden_Cambridge 1220
_journal_volume 21
_journal_year 2015
_journal_page_first 11038
_journal_name_full 'Chem.-Eur.J. '
loop_
_publ_author_name
"M.Monari"
"E.Montroni"
"A.Nitti"
"M.Lombardo"
"C.Trombini"
"A.Quintavalla"
_chemical_name_systematic
;
2-benzyl 1'-t-butyl 
5-(2-ethoxy-2-oxoethyl)-3-nitro-2'-oxospiro[cyclopentane-1,3'-indole]-1',2(2'H
)-dicarboxylate unknown solvate
;
_cell_volume   1613.059
_exptl_crystal_colour 'white'
_exptl_crystal_density_diffrn 1.138
_exptl_crystal_description 'platelet'
_diffrn_ambient_temperature 296
_refine_special_details
;
Disordered solvent molecules were not modelled and the disordered density was 
taken into account using the SQUEEZE/PLATON procedure.
;
#These two values have been output from a single CSD field.
_refine_ls_R_factor_gt 0.0378
_refine_ls_wR_factor_gt 0.0378
_symmetry_cell_setting monoclinic
_symmetry_space_group_name_H-M 'P 21'
_symmetry_Int_Tables_number 4
loop_
_symmetry_equiv_pos_site_id
_symmetry_equiv_pos_as_xyz
1 x,y,z
2 -x,1/2+y,-z
_cell_length_a 13.0851(9)
_cell_length_b 8.8314(6)
_cell_length_c 14.1924(10)
_cell_angle_alpha 90
_cell_angle_beta 100.413(5)
_cell_angle_gamma 90
_cell_formula_units_Z 2
loop_
_atom_type_symbol
_atom_type_radius_bond
C 0.68
H 0.23
N 0.68
O 0.68
loop_
_atom_site_label
_atom_site_type_symbol
_atom_site_fract_x
_atom_site_fract_y
_atom_site_fract_z
O1 O -0.1509(2) 0.7377(4) 0.66358(18)
O2 O 0.15742(18) 1.0865(3) 0.7230(2)
O3 O 0.3728(2) 0.7797(4) 0.6552(3)
O4 O 0.32246(19) 1.0200(3) 0.6514(2)
O5 O -0.2460(3) 1.0074(7) 0.8145(4)
O6 O -0.1166(4) 1.1498(5) 0.8680(3)
O7 O 0.3018(2) 0.9625(4) 1.11338(19)
O8 O 0.1508(2) 1.0747(5) 1.0816(2)
O9 O -0.01006(16) 0.8091(3) 0.60717(14)
C1 C 0.2082(4) 0.7217(6) 0.3668(4)
H1 H 0.26280 0.72330 0.33300
C2 C 0.2149(3) 0.6329(6) 0.4483(4)
H2 H 0.27370 0.57450 0.46920
C3 C 0.1337(3) 0.6318(5) 0.4981(3)
H3 H 0.13800 0.57270 0.55290
C4 C 0.0464(3) 0.7173(4) 0.4672(2)
C5 C -0.0419(3) 0.7165(5) 0.5220(2)
H4 H -0.10410 0.75790 0.48300
H5 H -0.05650 0.61390 0.54000
C6 C -0.0715(3) 0.8069(4) 0.6723(2)
C7 C -0.0271(2) 0.9053(4) 0.7560(2)
H6 H -0.03200 1.01070 0.73390
C8 C 0.0889(2) 0.8724(4) 0.7986(2)
C9 C 0.1622(2) 0.9555(4) 0.7431(2)
N1 N 0.23581(18) 0.8497(3) 0.72271(18)
C10 C 0.3180(3) 0.8770(5) 0.6730(3)
C11 C 0.3986(3) 1.0808(6) 0.5951(3)
C12 C 0.5064(4) 1.0481(11) 0.6459(6)
H7 H 0.51470 0.94090 0.65590
H8 H 0.51870 1.09900 0.70660
H9 H 0.55530 1.08320 0.60790
C13 C 0.0418(3) 0.8037(5) 0.3865(2)
H10 H -0.01730 0.86170 0.36550
C14 C 0.1206(4) 0.8075(6) 0.3362(3)
H11 H 0.11550 0.86740 0.28160
C15 C 0.2119(2) 0.7026(4) 0.7546(2)
C16 C 0.1228(2) 0.7108(4) 0.7967(2)
C17 C 0.0828(3) 0.5806(4) 0.8285(2)
H12 H 0.02290 0.58460 0.85500
C18 C 0.1317(3) 0.4442(4) 0.8210(3)
H13 H 0.10490 0.35600 0.84290
C19 C 0.2204(3) 0.4378(4) 0.7809(3)
H14 H 0.25250 0.34490 0.77590
C20 C 0.2620(3) 0.5666(4) 0.7482(3)
H15 H 0.32250 0.56200 0.72250
C21 C 0.3822(6) 1.0099(10) 0.4996(4)
H16 H 0.30970 1.01330 0.47190
H17 H 0.40500 0.90640 0.50550
H18 H 0.42130 1.06380 0.45930
C22 C 0.3710(5) 1.2462(7) 0.5881(6)
H19 H 0.38140 1.28950 0.65110
H20 H 0.29950 1.25740 0.55820
H21 H 0.41440 1.29720 0.55040
C23 C 0.0982(2) 0.9410(4) 0.9006(2)
H22 H 0.09580 1.05140 0.89410
C24 C -0.0021(2) 0.8900(4) 0.9320(2)
H23 H 0.00540 0.78850 0.95840
H24 H -0.02010 0.95820 0.98000
C25 C -0.0842(2) 0.8938(4) 0.8419(2)
H25 H -0.12490 0.80000 0.83700
N2 N -0.1552(3) 1.0270(6) 0.8433(2)
C26 C 0.1977(2) 0.9002(5) 0.9685(2)
H26 H 0.19650 0.79320 0.98380
H27 H 0.25630 0.91780 0.93680
C27 C 0.2122(3) 0.9893(5) 1.0591(3)
C28 C 0.3282(4) 1.0464(10) 1.2037(3)
H28 H 0.30580 1.15060 1.19260
H29 H 0.28970 1.00340 1.24960
C29 C 0.4246(5) 1.0455(17) 1.2402(5)
H30 H 0.46210 1.10470 1.20110
H31 H 0.44990 0.94320 1.24360
H32 H 0.43440 1.08780 1.30350
#END
