
#######################################################################
#
#                 Cambridge Crystallographic Data Centre
#                                CCDC
#
#######################################################################
#
# If this CIF has been generated from an entry in the Cambridge
# Structural Database, then it will include bibliographic, chemical,
# crystal, experimental, refinement or atomic coordinate data resulting
# from the CCDC's data processing and validation procedures.
#
#######################################################################

data_CSD_CIF_MULYAV
_audit_creation_date 2015-06-03
_audit_creation_method CSD-ConQuest-V1
_database_code_CSD MULYAV
_database_code_depnum_ccdc_archive 'CCDC 1053095'
_chemical_formula_sum 'C23 H22 N2 O3'
_chemical_formula_moiety
;
C23 H22 N2 O3
;
_journal_coden_Cambridge 1078
_journal_year 2014
_journal_name_full 'CSD Communication(Private Communication) '
loop_
_publ_author_name
"M.Bakthadoss"
"J.Srinivasan"
_chemical_name_systematic
;
methyl 
3-(4-methylphenyl)-1-phenyl-1,8b-dihydro-3H-[1,2]oxazolo[3,4-a]pyrrolizine-3a(
4H)-carboxylate
;
_cell_volume    958.226
_exptl_crystal_density_diffrn 1.298
_diffrn_ambient_temperature 293
#These two values have been output from a single CSD field.
_refine_ls_R_factor_gt 0.0507
_refine_ls_wR_factor_gt 0.0507
_symmetry_cell_setting triclinic
_symmetry_space_group_name_H-M 'P -1'
_symmetry_Int_Tables_number 2
loop_
_symmetry_equiv_pos_site_id
_symmetry_equiv_pos_as_xyz
1 x,y,z
2 -x,-y,-z
_cell_length_a 6.7971(8)
_cell_length_b 11.2067(12)
_cell_length_c 13.1499(15)
_cell_angle_alpha 83.851(7)
_cell_angle_beta 81.150(7)
_cell_angle_gamma 76.110(7)
_cell_formula_units_Z 2
loop_
_atom_type_symbol
_atom_type_radius_bond
C 0.68
H 0.23
N 0.68
O 0.68
loop_
_atom_site_label
_atom_site_type_symbol
_atom_site_fract_x
_atom_site_fract_y
_atom_site_fract_z
C1 C 0.2776(4) 0.6602(2) 0.53418(16)
H1 H 0.41550 0.62820 0.53960
C2 C 0.1909(4) 0.6256(2) 0.45695(17)
H2 H 0.27180 0.56970 0.41150
C3 C -0.0118(4) 0.6714(2) 0.44537(16)
C4 C 0.7097(4) 1.0877(2) 0.7387(3)
H3 H 0.81560 1.12860 0.72270
C5 C 0.1606(3) 0.74224(18) 0.60363(14)
C6 C -0.0439(4) 0.7889(2) 0.59295(17)
H4 H -0.12530 0.84400 0.63890
C7 C 0.4207(4) 1.0302(2) 0.69106(19)
H5 H 0.33320 1.03330 0.64250
C8 C -0.1281(4) 0.7541(2) 0.51439(18)
H6 H -0.26530 0.78690 0.50800
C9 C 0.3937(3) 0.96440(17) 0.78587(16)
C10 C 0.6833(4) 1.0228(2) 0.8328(2)
H7 H 0.77260 1.01960 0.88050
C11 C 0.5252(3) 0.96219(19) 0.85716(18)
H8 H 0.50720 0.91990 0.92150
C12 C 0.5785(4) 1.0910(2) 0.6695(2)
H9 H 0.59540 1.13530 0.60600
C13 C -0.0348(3) 0.8138(2) 1.03900(16)
C14 C 0.0746(3) 0.77143(17) 0.94760(14)
C15 C -0.1692(3) 0.6656(2) 0.99286(17)
C16 C 0.2525(3) 0.78815(16) 0.87125(14)
C17 C 0.2660(3) 0.69197(16) 0.78929(14)
C18 C 0.2568(3) 0.77691(17) 0.68831(14)
O1 O 0.1371(2) 0.89280(12) 0.72412(10)
C19 C 0.0784(3) 0.6344(2) 0.82132(15)
C20 C 0.4669(3) 0.59692(17) 0.78690(15)
C21 C -0.1058(5) 0.6336(3) 0.36015(19)
H10 H -0.24750 0.67520 0.36430
H11 H -0.09430 0.54610 0.36780
H12 H -0.03520 0.65540 0.29440
N1 N 0.2213(2) 0.91025(14) 0.81319(12)
N2 N -0.0078(3) 0.68179(15) 0.92099(12)
O2 O 0.6138(3) 0.59810(18) 0.72504(16)
O3 O 0.4658(3) 0.51223(16) 0.86404(13)
C22 C 0.6453(4) 0.4125(2) 0.8672(2)
H13 H 0.62570 0.35780 0.92730
H14 H 0.76220 0.44550 0.87010
H15 H 0.66720 0.36810 0.80650
C23 C -0.1877(4) 0.7462(2) 1.06672(18)
H16 H 0.386(3) 0.7710(17) 0.9008(14)
H17 H -0.024(3) 0.6646(19) 0.7764(16)
H18 H 0.118(3) 0.544(2) 0.8275(16)
H19 H -0.007(4) 0.880(2) 1.0760(18)
H20 H -0.245(4) 0.608(2) 0.9842(18)
H21 H 0.399(3) 0.7824(19) 0.6641(16)
H22 H -0.300(4) 0.759(3) 1.134(2)
#END
