
#######################################################################
#
#                 Cambridge Crystallographic Data Centre
#                                CCDC
#
#######################################################################
#
# If this CIF has been generated from an entry in the Cambridge
# Structural Database, then it will include bibliographic, chemical,
# crystal, experimental, refinement or atomic coordinate data resulting
# from the CCDC's data processing and validation procedures.
#
#######################################################################

data_CSD_CIF_MUMDIJ
_audit_creation_date 2015-06-03
_audit_creation_method CSD-ConQuest-V1
_database_code_CSD MUMDIJ
_database_code_depnum_ccdc_archive 'CCDC 1022083'
_chemical_formula_sum 'C23 H30 N2 O4'
_chemical_formula_moiety
;
C23 H30 N2 O4
;
_journal_coden_Cambridge 24
_journal_volume 56
_journal_year 2015
_journal_page_first 3070
_journal_name_full 'Tetrahedron Lett. '
loop_
_publ_author_name
"R.R.Walvoord"
"M.C.Kozlowski"
_chemical_name_systematic
;
t-Butyl ((1R,2S)-2-(4-(t-butyl)phenyl)-2-nitro-1-phenylethyl)carbamate
;
_chemical_melting_point 466
_cell_volume   1087.384
_exptl_crystal_colour 'colorless'
_exptl_crystal_density_diffrn 1.217
_exptl_special_details
;
Melting point range 466-467K

;
_exptl_crystal_preparation 'dichloromethane'
_diffrn_ambient_temperature 100
#These two values have been output from a single CSD field.
_refine_ls_R_factor_gt 0.0294
_refine_ls_wR_factor_gt 0.0294
_symmetry_cell_setting monoclinic
_symmetry_space_group_name_H-M 'P 21'
_symmetry_Int_Tables_number 4
loop_
_symmetry_equiv_pos_site_id
_symmetry_equiv_pos_as_xyz
1 x,y,z
2 -x,1/2+y,-z
_cell_length_a 5.7903(2)
_cell_length_b 18.8269(7)
_cell_length_c 10.1602(4)
_cell_angle_alpha 90
_cell_angle_beta 100.963(3)
_cell_angle_gamma 90
_cell_formula_units_Z 2
loop_
_atom_type_symbol
_atom_type_radius_bond
C 0.68
H 0.23
N 0.68
O 0.68
loop_
_atom_site_label
_atom_site_type_symbol
_atom_site_fract_x
_atom_site_fract_y
_atom_site_fract_z
C1 C 0.5324(3) 0.41034(10) 0.60056(16)
H1 H 0.40020 0.40570 0.64750
C2 C 0.5707(3) 0.48885(9) 0.57767(16)
C3 C 0.7596(3) 0.51202(10) 0.52250(18)
H2 H 0.86710 0.47930 0.50130
C4 C 0.7882(3) 0.58408(10) 0.49880(18)
H3 H 0.91510 0.59940 0.46220
C5 C 0.6277(4) 0.63299(10) 0.5298(2)
H4 H 0.64530 0.68100 0.51270
C6 C 0.4424(4) 0.61024(11) 0.5858(2)
H5 H 0.33570 0.64310 0.60750
C7 C 0.4141(3) 0.53868(10) 0.60993(18)
H6 H 0.28860 0.52390 0.64820
C8 C 0.7471(3) 0.37322(10) 0.68477(16)
H7 H 0.87010 0.37020 0.63080
C9 C 0.7012(3) 0.29942(10) 0.73131(16)
C10 C 0.8440(3) 0.24373(10) 0.70831(17)
H8 H 0.96390 0.25180 0.66090
C11 C 0.8109(3) 0.17585(10) 0.75503(18)
H9 H 0.90880 0.13930 0.73750
C12 C 0.6349(3) 0.16098(10) 0.82740(17)
C13 C 0.4914(3) 0.21825(10) 0.84872(18)
H10 H 0.37140 0.21050 0.89620
C14 C 0.5221(3) 0.28549(10) 0.80170(18)
H11 H 0.42230 0.32200 0.81710
C15 C 0.2502(3) 0.35652(9) 0.41471(16)
C16 C 0.0219(3) 0.30682(10) 0.20645(17)
C17 C -0.1038(3) 0.25087(11) 0.27391(19)
H12 H -0.00410 0.21000 0.29430
H13 H -0.24670 0.23730 0.21490
H14 H -0.14010 0.26980 0.35530
C18 C 0.1055(4) 0.27598(12) 0.08600(18)
H15 H 0.19040 0.31160 0.04700
H16 H -0.02770 0.26060 0.02090
H17 H 0.20670 0.23620 0.11370
C19 C -0.1287(3) 0.37210(11) 0.16758(18)
H18 H -0.17160 0.39240 0.24620
H19 H -0.26830 0.35890 0.10520
H20 H -0.04150 0.40630 0.12670
C20 C 0.6073(3) 0.08755(10) 0.88741(18)
C21 C 0.3487(3) 0.06964(11) 0.8824(2)
H21 H 0.28090 0.10390 0.93380
H22 H 0.33640 0.02310 0.91910
H23 H 0.26610 0.07060 0.79100
C22 C 0.7089(3) 0.02859(10) 0.8115(2)
H24 H 0.64330 0.03210 0.71760
H25 H 0.67030 -0.01680 0.84440
H26 H 0.87680 0.03350 0.82500
C23 C 0.7353(4) 0.08808(11) 1.03419(19)
H27 H 0.89840 0.09900 1.03830
H28 H 0.72160 0.04220 1.07320
H29 H 0.66600 0.12330 1.08290
N1 N 0.4753(2) 0.37082(8) 0.47488(14)
H30 H 0.58810 0.35610 0.43770
N2 N 0.8398(3) 0.41763(9) 0.80758(14)
O1 O 0.0794(2) 0.36812(7) 0.46521(12)
O2 O 0.2473(2) 0.32708(7) 0.29439(11)
O3 O 0.6979(2) 0.44455(7) 0.86724(12)
O4 O 1.0552(2) 0.42126(8) 0.84314(13)
#END
