
#######################################################################
#
#                 Cambridge Crystallographic Data Centre
#                                CCDC
#
#######################################################################
#
# If this CIF has been generated from an entry in the Cambridge
# Structural Database, then it will include bibliographic, chemical,
# crystal, experimental, refinement or atomic coordinate data resulting
# from the CCDC's data processing and validation procedures.
#
#######################################################################

data_CSD_CIF_MUNJEL
_audit_creation_date 2010-07-07
_audit_creation_method CSD-ConQuest-V1
_database_code_CSD MUNJEL
_database_code_depnum_ccdc_archive 'CCDC 756047'
_chemical_formula_sum 'C25 H27 N3 O3'
_chemical_formula_moiety
;
C25 H27 N3 O3
;
_journal_coden_Cambridge 1336
_journal_volume 11
_journal_year 2009
_journal_page_first 4568
_journal_name_full 'Org.Lett. '
loop_
_publ_author_name
"Gaoxi Jiang"
"Jian Chen"
"Jie-Sheng Huang"
"Chi-Ming Che"
_chemical_name_systematic
;
2-(Benzyl(2-nitrophenyl)amino)-N-t-butyl-2-phenylacetamide
;
_cell_volume   2254.046
_exptl_crystal_colour 'yellow'
_exptl_crystal_density_diffrn 1.23
_exptl_crystal_description 'prismatic'
_diffrn_ambient_temperature 293
#These two values have been output from a single CSD field.
_refine_ls_R_factor_gt 0.063
_refine_ls_wR_factor_gt 0.063
_symmetry_cell_setting monoclinic
_symmetry_space_group_name_H-M 'P 21/c'
_symmetry_Int_Tables_number 14
loop_
_symmetry_equiv_pos_site_id
_symmetry_equiv_pos_as_xyz
1 x,y,z
2 -x,1/2+y,1/2-z
3 -x,-y,-z
4 x,-1/2-y,-1/2+z
_cell_length_a 9.7384(9)
_cell_length_b 12.0080(12)
_cell_length_c 19.3474(18)
_cell_angle_alpha 90
_cell_angle_beta 94.943(2)
_cell_angle_gamma 90
_cell_formula_units_Z 4
loop_
_atom_type_symbol
_atom_type_radius_bond
C 0.68
H 0.23
N 0.68
O 0.68
loop_
_atom_site_label
_atom_site_type_symbol
_atom_site_fract_x
_atom_site_fract_y
_atom_site_fract_z
O1 O 1.10204(15) 0.89237(13) 1.06550(8)
O2 O 0.56623(18) 0.54070(14) 0.93489(10)
O3 O 0.76542(19) 0.54628(14) 0.99179(10)
N1 N 0.99367(18) 0.72621(16) 1.07023(9)
N2 N 0.84842(16) 0.76407(13) 0.94466(8)
N3 N 0.6564(2) 0.59020(16) 0.97017(10)
C1 C 1.02656(19) 0.81930(17) 1.03869(11)
C2 C 0.9712(2) 0.83424(17) 0.96267(10)
H1 H 0.94550 0.91250 0.95510
C3 C 1.0889(2) 0.80723(19) 0.91940(11)
C4 C 1.1507(2) 0.7025(2) 0.92216(13)
H2 H 1.11680 0.64690 0.94950
C5 C 1.2611(3) 0.6810(3) 0.88491(16)
H3 H 1.30050 0.61040 0.88630
C6 C 1.3135(3) 0.7623(4) 0.84587(17)
H4 H 1.38890 0.74730 0.82100
C7 C 1.2554(4) 0.8663(3) 0.84306(14)
H5 H 1.29250 0.92210 0.81700
C8 C 1.1411(3) 0.8886(2) 0.87914(12)
H6 H 1.10000 0.95860 0.87610
C9 C 0.8189(2) 0.72708(18) 0.87280(11)
H7 H 0.77310 0.65540 0.87360
H8 H 0.90620 0.71530 0.85320
C10 C 0.7317(2) 0.8027(2) 0.82411(11)
C11 C 0.7294(3) 0.9163(2) 0.83018(13)
H9 H 0.78040 0.94990 0.86730
C12 C 0.6533(3) 0.9822(3) 0.78252(15)
H10 H 0.65350 1.05920 0.78780
C13 C 0.5779(3) 0.9344(4) 0.72781(16)
H11 H 0.52600 0.97870 0.69590
C14 C 0.5788(3) 0.8231(4) 0.72000(14)
H12 H 0.52880 0.79100 0.68200
C15 C 0.6538(2) 0.7553(3) 0.76823(13)
H13 H 0.65150 0.67840 0.76290
C16 C 0.7322(2) 0.78743(16) 0.98134(10)
C17 C 0.7082(2) 0.89034(17) 1.01101(11)
H14 H 0.77220 0.94720 1.00810
C18 C 0.5914(2) 0.90960(19) 1.04455(12)
H15 H 0.57990 0.97830 1.06550
C19 C 0.4914(2) 0.8294(2) 1.04774(13)
H16 H 0.41080 0.84490 1.06840
C20 C 0.5121(2) 0.72631(19) 1.02017(12)
H17 H 0.44590 0.67080 1.02190
C21 C 0.6329(2) 0.70600(17) 0.98975(11)
C22 C 1.0424(2) 0.69237(19) 1.14150(11)
C23 C 1.1975(2) 0.6776(2) 1.14634(13)
H18 H 1.22150 0.62660 1.11110
H19 H 1.22860 0.64860 1.19120
H20 H 1.24060 0.74820 1.13980
C24 C 0.9733(3) 0.5819(3) 1.15470(16)
H21 H 0.87500 0.59120 1.14960
H22 H 1.00130 0.55710 1.20090
H23 H 0.99980 0.52760 1.12190
C25 C 1.0016(3) 0.7795(3) 1.19327(13)
H24 H 1.05140 0.84720 1.18690
H25 H 1.02330 0.75250 1.23960
H26 H 0.90440 0.79370 1.18590
H27 H 0.940(2) 0.6782(18) 1.0463(12)
#END
