
#######################################################################
#
#                 Cambridge Crystallographic Data Centre
#                                CCDC
#
#######################################################################
#
# If this CIF has been generated from an entry in the Cambridge
# Structural Database, then it will include bibliographic, chemical,
# crystal, experimental, refinement or atomic coordinate data resulting
# from the CCDC's data processing and validation procedures.
#
#######################################################################

data_CSD_CIF_MUNXOK
_audit_creation_date 2015-06-04
_audit_creation_method CSD-ConQuest-V1
_database_code_CSD MUNXOK
_database_code_depnum_ccdc_archive 'CCDC 1039880'
_chemical_formula_sum 'C23 H21 N5 O2'
_chemical_formula_moiety
;
C23 H21 N5 O2
;
_journal_coden_Cambridge 16
_journal_volume 71
_journal_year 2015
_journal_page_first 3385
_journal_name_full 'Tetrahedron '
loop_
_publ_author_name
"V.Milisiunaite"
"E.Arbaciauskiene"
"A.Bieliauskas"
"G.Vilkauskaite"
"A.Sackus"
"Wolfgang Holzer"
_chemical_name_systematic
;
5-butyl-1-methyl-8-nitro-3-phenyl-3H-pyrazolo[4',3':3,4]pyrido[1,2-a]benzimida
zole
;
_chemical_melting_point 474
_cell_volume   1939.816
_exptl_crystal_colour 'yellow'
_exptl_crystal_density_diffrn 1.368
_exptl_special_details
;
Melting point range 474-475K

;
_exptl_crystal_description 'Prism'
_exptl_crystal_preparation 'chloroform'
_diffrn_ambient_temperature 173
#These two values have been output from a single CSD field.
_refine_ls_R_factor_gt 0.0617
_refine_ls_wR_factor_gt 0.0617
_symmetry_cell_setting monoclinic
_symmetry_space_group_name_H-M 'P 21/c'
_symmetry_Int_Tables_number 14
loop_
_symmetry_equiv_pos_site_id
_symmetry_equiv_pos_as_xyz
1 x,y,z
2 -x,1/2+y,1/2-z
3 -x,-y,-z
4 x,-1/2-y,-1/2+z
_cell_length_a 7.7073(2)
_cell_length_b 20.1296(5)
_cell_length_c 12.8339(3)
_cell_angle_alpha 90
_cell_angle_beta 103.0339(14)
_cell_angle_gamma 90
_cell_formula_units_Z 4
loop_
_atom_type_symbol
_atom_type_radius_bond
C 0.68
H 0.23
N 0.68
O 0.68
loop_
_atom_site_label
_atom_site_type_symbol
_atom_site_fract_x
_atom_site_fract_y
_atom_site_fract_z
N1 N 0.7807(2) 0.01839(9) 0.03185(13)
N2 N 0.8226(2) 0.06553(9) -0.12268(14)
C1 C 0.6769(3) -0.04463(11) -0.12911(16)
C2 C 0.7593(3) 0.01381(10) -0.07970(15)
C3 C 0.9240(3) 0.11262(11) 0.15647(17)
H1 H 0.90750 0.09750 0.23020
N3 N 1.0727(3) 0.20903(10) 0.25148(16)
N4 N 0.5514(2) -0.14364(9) -0.13584(13)
C4 C 0.6357(3) -0.08478(11) 0.04462(16)
H2 H 0.57920 -0.11860 0.07540
O1 O 1.0528(3) 0.18379(9) 0.33539(13)
N5 N 0.5622(2) -0.12864(9) -0.23905(13)
C5 C 1.0053(3) 0.17360(11) 0.15078(17)
C6 C 0.7597(3) -0.02000(11) 0.21251(16)
H3 H 0.70220 0.01980 0.23040
H4 H 0.89090 -0.01460 0.23150
C7 C 0.7196(3) -0.03002(10) 0.09348(16)
O2 O 1.1463(3) 0.26276(9) 0.24860(14)
C8 C 0.6190(3) -0.09321(10) -0.06769(16)
C9 C 0.6372(3) -0.06933(11) -0.23563(16)
C10 C 0.5434(3) -0.23592(11) -0.01335(18)
H5 H 0.62800 -0.21300 0.04480
C11 C 0.7569(3) -0.06608(13) 0.39589(17)
H6 H 0.73980 -0.02090 0.41530
H7 H 0.69100 -0.09510 0.43200
C12 C 0.3670(3) -0.33232(12) -0.0733(2)
H8 H 0.32570 -0.37490 -0.05200
C13 C 0.8651(3) 0.07986(10) 0.06002(16)
C14 C 0.3776(3) -0.24286(12) -0.19581(19)
H9 H 0.33540 -0.22230 -0.26770
C15 C 0.9695(3) 0.16893(11) -0.03895(18)
H10 H 1.00080 0.18860 -0.10500
C16 C 0.4896(3) -0.20780(11) -0.11394(17)
C17 C 0.6738(3) -0.03772(12) -0.33385(17)
H11 H 0.79940 -0.04600 -0.33170
H12 H 0.59610 -0.05760 -0.39680
H13 H 0.64620 0.00890 -0.33250
C18 C 0.8880(3) 0.10710(11) -0.03742(17)
C19 C 1.0288(3) 0.20262(11) 0.05621(19)
H14 H 1.08740 0.24870 0.05470
C20 C 0.6915(3) -0.07466(12) 0.27460(17)
H15 H 0.74430 -0.11510 0.26390
H16 H 0.56150 -0.08130 0.25000
C21 C 0.4800(3) -0.29772(12) 0.0075(2)
H17 H 0.53630 -0.32000 0.07690
C22 C 0.9520(3) -0.08221(14) 0.4367(2)
H18 H 0.98500 -0.07590 0.51280
H19 H 1.02200 -0.05340 0.40290
H20 H 0.97300 -0.12760 0.42000
C23 C 0.3191(3) -0.30555(12) -0.1748(2)
H21 H 0.24360 -0.33120 -0.23240
#END
