
#######################################################################
#
#                 Cambridge Crystallographic Data Centre
#                                CCDC
#
#######################################################################
#
# If this CIF has been generated from an entry in the Cambridge
# Structural Database, then it will include bibliographic, chemical,
# crystal, experimental, refinement or atomic coordinate data resulting
# from the CCDC's data processing and validation procedures.
#
#######################################################################

data_CSD_CIF_MUPYEB
_audit_creation_date 2003-04-15
_audit_creation_method CSD-ConQuest-V1
_database_code_CSD MUPYEB
_chemical_formula_sum 'C12 H15 N1 O5'
_chemical_formula_moiety
;
C12 H15 N1 O5
;
_journal_coden_Cambridge 1001
_journal_volume 44
_journal_year 1999
_journal_page_first 413
_journal_name_full 'Bol.Soc.Chil.Quim. '
loop_
_publ_author_name
"A.J.G.Conceicao Silva"
"M.T.S.Giotto"
"Y.P.Mascarenhas"
"S.Sepulveda-Boza"
"B.K.Cassels"
_chemical_name_systematic
;
(E)-1-(3,4,5-Trimethoxyphenyl)-2-nitropropene
;
_cell_volume   1254.854
_exptl_crystal_preparation 'methanol'
_diffrn_ambient_temperature ?
_diffrn_special_details
;
The study was carried out at room temperature,in the range 283-303K

;
_symmetry_cell_setting monoclinic
_symmetry_space_group_name_H-M 'P 21/c'
_symmetry_Int_Tables_number 14
loop_
_symmetry_equiv_pos_site_id
_symmetry_equiv_pos_as_xyz
1 x,y,z
2 -x,1/2+y,1/2-z
3 -x,-y,-z
4 x,-1/2-y,-1/2+z
_cell_length_a 8.888(3)
_cell_length_b 13.650(3)
_cell_length_c 10.369(3)
_cell_angle_alpha 90
_cell_angle_beta 94.04(2)
_cell_angle_gamma 90
_cell_formula_units_Z 4
loop_
_atom_type_symbol
_atom_type_radius_bond
C 0.68
H 0.23
N 0.68
O 0.68
loop_
_atom_site_label
_atom_site_type_symbol
_atom_site_fract_x
_atom_site_fract_y
_atom_site_fract_z
C1 C 0.2328(2) 0.1616(2) 0.1981(25)
C2 C 0.3409(3) 0.1998(2) 0.2874(2)
C3 C 0.3618(3) 0.3004(2) 0.2974(2)
C4 C 0.2744(3) 0.3635(2) 0.2181(2)
C5 C 0.1667(3) 0.3254(2) 0.1286(2)
C6 C 0.1473(3) 0.2251(2) 0.1177(2)
C7 C 0.2006(3) 0.0573(2) 0.1822(2)
C8 C 0.2451(3) -0.0191(2) 0.2542(2)
C9 C 0.5470(4) 0.2810(3) 0.4730(3)
C10 C 0.2494(6) 0.5129(3) 0.3286(4)
C11 C -0.0222(3) 0.3575(2) -0.0412(3)
C12 C 0.3409(4) -0.0243(2) 0.3755(3)
N1 N 0.1868(3) -0.1148(1) 0.2057(2)
O1 O 0.2202(3) -0.1882(1) 0.2691(2)
O2 O 0.1089(3) -0.1189(1) 0.1046(2)
O3 O 0.4666(2) 0.3432(1) 0.3815(2)
O4 O 0.2980(2) 0.4628(1) 0.2208(2)
O5 O 0.0856(2) 0.3927(1) 0.0561(2)
H1 H 0.400(3) 0.160(2) 0.342(3)
H2 H 0.071(2) 0.200(2) 0.054(2)
H3 H 0.138(3) 0.044(2) 0.110(2)
H4 H 0.610(4) 0.322(3) 0.525(3)
H5 H 0.606(4) 0.231(2) 0.428(3)
H6 H 0.470(4) 0.247(2) 0.522(3)
H7 H 0.253(4) 0.584(3) 0.310(3)
H8 H 0.312(4) 0.497(2) 0.410(3)
H9 H 0.159(4) 0.492(3) 0.344(3)
H10 H -0.064(4) 0.418(3) -0.087(3)
H11 H -0.101(4) 0.317(2) 0.001(3)
H12 H 0.020(4) 0.318(2) -0.102(3)
H13 H 0.315(4) 0.032(2) 0.436(2)
H14 H 0.441(4) -0.022(2) 0.359(3)
H15 H 0.335(4) -0.084(3) 0.418(3)
#END
