
#######################################################################
#
#                 Cambridge Crystallographic Data Centre
#                                CCDC
#
#######################################################################
#
# If this CIF has been generated from an entry in the Cambridge
# Structural Database, then it will include bibliographic, chemical,
# crystal, experimental, refinement or atomic coordinate data resulting
# from the CCDC's data processing and validation procedures.
#
#######################################################################

data_CSD_CIF_MUQHAJ
_audit_creation_date 2015-10-19
_audit_creation_method CSD-ConQuest-V1
_database_code_CSD MUQHAJ
_database_code_depnum_ccdc_archive 'CCDC 1420539'
_chemical_formula_sum 'C14 H11 N3 O3'
_chemical_formula_moiety
;
C14 H11 N3 O3
;
_journal_coden_Cambridge 182
_journal_volume 51
_journal_year 2015
_journal_page_first 17572
_journal_name_full 'Chem.Commun. '
loop_
_publ_author_name
"H.Maeda"
"A.Fukui"
"R.Yamakado"
"N.Yasuda"
_chemical_name_systematic
;
4-nitro-2,6-bis(1H-pyrrol-2-yl)phenol
;
_cell_volume   1190.354
_exptl_crystal_colour 'yellow'
_exptl_crystal_density_diffrn 1.502
_exptl_crystal_description 'prism'
_diffrn_ambient_temperature 93
#These two values have been output from a single CSD field.
_refine_ls_R_factor_gt 0.0533
_refine_ls_wR_factor_gt 0.0533
_symmetry_cell_setting monoclinic
_symmetry_space_group_name_H-M 'P 21/n'
_symmetry_Int_Tables_number 14
loop_
_symmetry_equiv_pos_site_id
_symmetry_equiv_pos_as_xyz
1 x,y,z
2 1/2-x,1/2+y,1/2-z
3 -x,-y,-z
4 -1/2+x,-1/2-y,-1/2+z
_cell_length_a 10.342(6)
_cell_length_b 6.841(4)
_cell_length_c 17.218(10)
_cell_angle_alpha 90
_cell_angle_beta 102.267(15)
_cell_angle_gamma 90
_cell_formula_units_Z 4
loop_
_atom_type_symbol
_atom_type_radius_bond
C 0.68
H 0.23
N 0.68
O 0.68
loop_
_atom_site_label
_atom_site_type_symbol
_atom_site_fract_x
_atom_site_fract_y
_atom_site_fract_z
N1 N 0.88915(15) 0.1899(2) 0.54089(9)
H1 H 0.97170 0.22990 0.55520
N2 N 1.26167(16) 0.2399(3) 0.28064(10)
H2 H 1.22320 0.16580 0.24060
N3 N 0.74727(16) 0.2269(2) 0.17301(9)
O1 O 1.08357(12) 0.29067(19) 0.47143(7)
H3 H 1.16230 0.26900 0.46850
O2 O 0.62723(13) 0.2313(2) 0.16959(8)
O3 O 0.79684(14) 0.2059(2) 0.11454(8)
C1 C 0.81537(18) 0.1195(3) 0.59110(11)
H4 H 0.84420 0.10460 0.64700
C2 C 0.69176(18) 0.0736(3) 0.54740(11)
H5 H 0.62000 0.02180 0.56730
C3 C 0.69162(18) 0.1179(3) 0.46733(11)
H6 H 0.61940 0.10160 0.42340
C4 C 0.81559(18) 0.1892(3) 0.46429(11)
C5 C 0.86922(18) 0.2360(3) 0.39374(11)
C6 C 1.00437(18) 0.2786(3) 0.39780(11)
C7 C 1.05499(18) 0.2996(3) 0.32853(11)
C8 C 0.96953(19) 0.2823(3) 0.25405(11)
H7 H 1.00190 0.29430 0.20660
C9 C 0.83663(18) 0.2474(3) 0.25111(11)
C10 C 0.78531(18) 0.2269(3) 0.31847(11)
H8 H 0.69310 0.20660 0.31370
C11 C 1.19941(18) 0.3291(3) 0.33405(10)
C12 C 1.29049(17) 0.4311(3) 0.38787(11)
H9 H 1.27490 0.50480 0.43170
C13 C 1.41397(19) 0.4043(4) 0.36473(14)
H10 H 1.49620 0.46000 0.39020
C14 C 1.3935(2) 0.2853(4) 0.30008(14)
H11 H 1.45930 0.24140 0.27310
#END
