
#######################################################################
#
#                 Cambridge Crystallographic Data Centre
#                                CCDC
#
#######################################################################
#
# If this CIF has been generated from an entry in the Cambridge
# Structural Database, then it will include bibliographic, chemical,
# crystal, experimental, refinement or atomic coordinate data resulting
# from the CCDC's data processing and validation procedures.
#
#######################################################################

data_CSD_CIF_MUQHIQ
_audit_creation_date 2010-11-04
_audit_creation_method CSD-ConQuest-V1
_database_code_CSD MUQHIQ
_database_code_depnum_ccdc_archive 'CCDC 752258'
_chemical_formula_sum 'C10 H9 N3 O2'
_chemical_formula_moiety
;
C10 H9 N3 O2
;
_journal_coden_Cambridge 1003
_journal_volume 40
_journal_year 2010
_journal_page_first 624
_journal_name_full 'J.Chem.Cryst. '
loop_
_publ_author_name
"U.Sarkar"
"R.Glaser"
"Z.D.Parsons"
"C.L.Barnes"
"K.S.Gates"
_chemical_name_systematic
;
3-Cyclopropyl-1,2,4-benzotriazine-1,4-dioxide
;
_cell_volume   1815.757
_exptl_crystal_colour 'yellow'
_exptl_crystal_density_diffrn 1.494
_exptl_crystal_description 'prism'
_diffrn_ambient_temperature 173
#These two values have been output from a single CSD field.
_refine_ls_R_factor_gt 0.0627
_refine_ls_wR_factor_gt 0.0627
_symmetry_cell_setting monoclinic
_symmetry_space_group_name_H-M 'C 2/c'
_symmetry_Int_Tables_number 15
loop_
_symmetry_equiv_pos_site_id
_symmetry_equiv_pos_as_xyz
1 x,y,z
2 -x,y,1/2-z
3 1/2+x,1/2+y,z
4 1/2-x,1/2+y,1/2-z
5 -x,-y,-z
6 x,-y,-1/2+z
7 -1/2-x,-1/2-y,-z
8 -1/2+x,-1/2-y,-1/2+z
_cell_length_a 16.6306(12)
_cell_length_b 7.7999(5)
_cell_length_c 16.0113(11)
_cell_angle_alpha 90
_cell_angle_beta 119.044(1)
_cell_angle_gamma 90
_cell_formula_units_Z 8
loop_
_atom_type_symbol
_atom_type_radius_bond
C 0.68
H 0.23
N 0.68
O 0.68
loop_
_atom_site_label
_atom_site_type_symbol
_atom_site_fract_x
_atom_site_fract_y
_atom_site_fract_z
O1 O 0.15624(10) 0.6517(2) 0.00943(11)
O2 O 0.29342(11) 1.23181(19) 0.19650(12)
N1 N 0.14895(12) 0.9327(2) 0.01882(13)
N2 N 0.19105(12) 0.7886(2) 0.05549(13)
N3 N 0.26186(12) 1.0892(2) 0.15129(13)
C1 C 0.18369(14) 1.0787(3) 0.06562(15)
C2 C 0.27360(13) 0.7834(3) 0.14319(14)
C3 C 0.31699(14) 0.6270(3) 0.17956(15)
H1 H 0.29050 0.52270 0.14720
C4 C 0.39916(15) 0.6275(3) 0.26346(15)
H2 H 0.43000 0.52240 0.28960
C5 C 0.43802(15) 0.7830(3) 0.31095(16)
H3 H 0.49560 0.78170 0.36800
C6 C 0.39404(14) 0.9355(3) 0.27612(16)
H4 H 0.42010 1.03960 0.30910
C7 C 0.30977(13) 0.9363(3) 0.19098(14)
C8 C 0.13472(15) 1.2393(3) 0.02236(17)
H5 H 0.16130 1.34580 0.06090
C9 C 0.03173(15) 1.2358(3) -0.03885(16)
H6 H 0.00030 1.12410 -0.04780
H7 H -0.00330 1.33590 -0.03570
C10 C 0.08938(16) 1.2600(3) -0.08515(17)
H8 H 0.09040 1.37510 -0.11060
H9 H 0.09400 1.16320 -0.12260
#END
