
#######################################################################
#
#                 Cambridge Crystallographic Data Centre
#                                CCDC
#
#######################################################################
#
# If this CIF has been generated from an entry in the Cambridge
# Structural Database, then it will include bibliographic, chemical,
# crystal, experimental, refinement or atomic coordinate data resulting
# from the CCDC's data processing and validation procedures.
#
#######################################################################

data_CSD_CIF_MUSKUI
_audit_creation_date 2015-10-20
_audit_creation_method CSD-ConQuest-V1
_database_code_CSD MUSKUI
_database_code_depnum_ccdc_archive 'CCDC 1009597'
_chemical_formula_sum 'C24 H26 N4 O8'
_chemical_formula_moiety
;
C24 H26 N4 O8
;
_journal_coden_Cambridge 177
_journal_volume 14
_journal_year 2016
_journal_page_first 1569
_journal_name_full 'Org.Biomol.Chem. '
loop_
_publ_author_name
"K.M.Muthukumarasamy"
"K.L.Handore"
"D.N.Kakade"
"M.V.Shinde"
"Shashi Ranjan"
"N.Kumar"
"S.Sehrawat"
"C.Sachidanandan"
"D.Srinivasa Reddy"
_chemical_name_systematic
;
4,4-dimethyl-2-oxotetrahydrofuran-3-yl 
2-(N-(2,4-dinitrophenyl)ethanehydrazonoyl)-3a,4,5,7a-tetrahydro-1H-indene-4-ca
rboxylate
;
_cell_volume   1216.062
_exptl_crystal_colour 'colorless'
_exptl_crystal_density_diffrn 1.361
_exptl_special_details
;
anti-angiogenic activity

;
_exptl_crystal_description 'BLOCK'
_diffrn_ambient_temperature 296
#These two values have been output from a single CSD field.
_refine_ls_R_factor_gt 0.0545
_refine_ls_wR_factor_gt 0.0545
_symmetry_cell_setting monoclinic
_symmetry_space_group_name_H-M 'P 21'
_symmetry_Int_Tables_number 4
loop_
_symmetry_equiv_pos_site_id
_symmetry_equiv_pos_as_xyz
1 x,y,z
2 -x,1/2+y,-z
_cell_length_a 5.9435(4)
_cell_length_b 12.4041(8)
_cell_length_c 16.5108(11)
_cell_angle_alpha 90
_cell_angle_beta 92.519(4)
_cell_angle_gamma 90
_cell_formula_units_Z 2
loop_
_atom_type_symbol
_atom_type_radius_bond
C 0.68
H 0.23
N 0.68
O 0.68
loop_
_atom_site_label
_atom_site_type_symbol
_atom_site_fract_x
_atom_site_fract_y
_atom_site_fract_z
O1 O 0.3270(4) -0.12186(19) 0.60680(14)
O2 O 0.1532(3) 0.02073(15) 0.55402(11)
O3 O -0.0149(5) -0.0351(2) 0.39511(17)
O4 O 0.2572(4) 0.0712(2) 0.35146(13)
O5 O 0.3388(4) 0.64523(17) 0.79960(15)
O6 O 0.2893(3) 0.78429(14) 0.87392(13)
O7 O -0.3592(4) 0.8307(2) 1.02330(14)
O8 O -0.5639(5) 0.6943(2) 1.05241(16)
N1 N 0.0673(4) 0.36070(16) 0.82103(13)
N2 N 0.1129(4) 0.46866(17) 0.82621(15)
N3 N 0.2361(4) 0.69403(17) 0.85167(14)
N4 N -0.4041(4) 0.7348(2) 1.01976(14)
C1 C -0.1876(5) -0.0541(2) 0.82587(16)
H1 H -0.28690 -0.04740 0.86760
C2 C -0.2293(5) -0.1279(2) 0.77133(17)
H2 H -0.35040 -0.17410 0.77810
C3 C -0.0923(5) -0.1423(2) 0.69849(16)
H3 H -0.19020 -0.16160 0.65220
H4 H 0.01480 -0.20040 0.70800
C4 C 0.0338(4) -0.03838(19) 0.68017(13)
H5 H -0.07700 0.01710 0.66430
C5 C 0.1689(4) 0.00089(18) 0.75599(13)
H6 H 0.28570 -0.05160 0.77230
C6 C 0.2699(4) 0.11017(19) 0.74515(15)
H7 H 0.39930 0.12230 0.71680
C7 C 0.1553(4) 0.18817(19) 0.78036(14)
C8 C -0.0442(5) 0.1417(2) 0.82180(16)
H8 H -0.18320 0.15490 0.79040
H9 H -0.05670 0.17190 0.87560
C9 C 0.0101(4) 0.0210(2) 0.82591(14)
H10 H 0.09820 0.00870 0.87660
C10 C 0.2050(4) 0.3032(2) 0.78152(15)
C11 C 0.4075(5) 0.3458(2) 0.74120(19)
H11 H 0.49980 0.38570 0.77980
H12 H 0.36000 0.39230 0.69720
H13 H 0.49250 0.28680 0.72070
C12 C 0.1885(4) -0.05439(19) 0.61139(15)
C13 C 0.2963(5) 0.0230(2) 0.48678(17)
H14 H 0.40630 -0.03570 0.49130
C14 C 0.1569(6) 0.0132(3) 0.4085(2)
C15 C 0.4553(5) 0.1240(3) 0.38737(17)
H15 H 0.47240 0.19550 0.36460
H16 H 0.58960 0.08240 0.37770
C16 C 0.4170(4) 0.1309(2) 0.47793(16)
C17 C 0.2635(5) 0.2240(2) 0.49789(17)
H17 H 0.23140 0.22150 0.55430
H18 H 0.12550 0.21850 0.46570
H19 H 0.33650 0.29090 0.48620
C18 C 0.6379(5) 0.1392(4) 0.5275(2)
H20 H 0.73670 0.08210 0.51230
H21 H 0.60930 0.13310 0.58410
H22 H 0.70720 0.20750 0.51740
C19 C -0.0068(4) 0.5323(2) 0.87407(14)
C20 C 0.0448(4) 0.64283(19) 0.88761(15)
C21 C -0.0832(4) 0.7074(2) 0.93605(15)
H23 H -0.04560 0.77950 0.94410
C22 C -0.2656(4) 0.6641(2) 0.97192(15)
C23 C -0.3179(5) 0.5553(2) 0.96257(16)
H24 H -0.44020 0.52670 0.98850
C24 C -0.1925(5) 0.4907(2) 0.91606(16)
H25 H -0.22830 0.41800 0.91150
H26 H 0.217(5) 0.501(2) 0.8011(16)
#END
