
#######################################################################
#
#                 Cambridge Crystallographic Data Centre
#                                CCDC
#
#######################################################################
#
# If this CIF has been generated from an entry in the Cambridge
# Structural Database, then it will include bibliographic, chemical,
# crystal, experimental, refinement or atomic coordinate data resulting
# from the CCDC's data processing and validation procedures.
#
#######################################################################

data_CSD_CIF_MUSSOK
_audit_creation_date 2015-10-21
_audit_creation_method CSD-ConQuest-V1
_database_code_CSD MUSSOK
_database_code_depnum_ccdc_archive 'CCDC 1432390'
_chemical_formula_sum 'C22 H31 N3 O2'
_chemical_formula_moiety
;
C22 H31 N3 O2
;
_journal_coden_Cambridge 222
_journal_volume 45
_journal_year 2016
_journal_page_first 1306
_journal_name_full 'Dalton Trans. '
loop_
_publ_author_name
"H.Kawakami"
"A.Tonegawa"
"T.Ishida"
_chemical_name_systematic
;
N,N'-di-t-butyl-N,N'-oxy-4-mesitylpyridine-2,6-diamine diradical
;
_chemical_name_common
;
mesitylpyridinediyl bisnitroxide radical
;
_chemical_melting_point 402
_cell_volume   2077.201
_exptl_crystal_colour 'red'
_exptl_crystal_density_diffrn 1.181
_exptl_special_details
;
Magnetic properties

;
_exptl_crystal_description 'platelet'
_exptl_crystal_preparation 'hexane'
_diffrn_ambient_temperature 90
#These two values have been output from a single CSD field.
_refine_ls_R_factor_gt 0.0483
_refine_ls_wR_factor_gt 0.0483
_symmetry_cell_setting monoclinic
_symmetry_space_group_name_H-M 'P 21/n'
_symmetry_Int_Tables_number 14
loop_
_symmetry_equiv_pos_site_id
_symmetry_equiv_pos_as_xyz
1 x,y,z
2 1/2-x,1/2+y,1/2-z
3 -x,-y,-z
4 -1/2+x,-1/2-y,-1/2+z
_cell_length_a 10.089(6)
_cell_length_b 9.896(5)
_cell_length_c 21.005(13)
_cell_angle_alpha 90
_cell_angle_beta 97.91(5)
_cell_angle_gamma 90
_cell_formula_units_Z 4
loop_
_atom_type_symbol
_atom_type_radius_bond
C 0.68
H 0.23
N 0.68
O 0.68
loop_
_atom_site_label
_atom_site_type_symbol
_atom_site_fract_x
_atom_site_fract_y
_atom_site_fract_z
O1 O 0.31087(17) 0.27975(18) 0.35013(11)
O2 O 0.80769(17) -0.18508(16) 0.43336(9)
N1 N 0.3382(2) 0.1525(2) 0.35391(10)
N2 N 0.6808(2) -0.1656(2) 0.42069(10)
N3 N 0.5082(2) -0.0087(2) 0.3861(1)
C1 C 0.4757(3) 0.1182(3) 0.36743(12)
C2 C 0.5673(3) 0.2216(3) 0.36107(13)
C3 C 0.7026(3) 0.1916(3) 0.37217(12)
C4 C 0.7404(3) 0.0605(3) 0.39172(12)
C5 C 0.6399(3) -0.0335(3) 0.39864(12)
C6 C 0.8060(3) 0.2960(3) 0.36418(13)
C7 C 0.8073(3) 0.3589(3) 0.30403(14)
C8 C 0.9065(3) 0.4548(3) 0.29683(16)
C9 C 1.0025(3) 0.4900(3) 0.34766(15)
C10 C 0.9982(3) 0.4279(3) 0.40697(15)
C11 C 0.9028(3) 0.3305(3) 0.41650(14)
C12 C 0.7068(4) 0.3255(3) 0.24544(16)
C13 C 1.1114(4) 0.5922(4) 0.3405(2)
C14 C 0.9045(4) 0.2678(4) 0.48283(15)
C15 C 0.2208(3) 0.0559(3) 0.34854(13)
C16 C 0.1913(4) 0.0243(4) 0.41611(17)
C17 C 0.2487(4) -0.0708(4) 0.31064(18)
C18 C 0.1031(4) 0.1307(4) 0.31132(18)
C19 C 0.5903(3) -0.2863(3) 0.42428(14)
C20 C 0.4784(4) -0.2543(4) 0.46389(19)
C21 C 0.5380(4) -0.3279(4) 0.35528(17)
C22 C 0.6771(4) -0.4011(4) 0.4571(2)
H1 H 0.534(2) 0.313(3) 0.3493(10)
H2 H 0.838(3) 0.031(3) 0.3990(11)
H3 H 0.904(2) 0.496(3) 0.2545(12)
H4 H 1.068(2) 0.452(2) 0.4439(11)
H5 H 0.613(3) 0.363(3) 0.2512(12)
H6 H 0.741(3) 0.356(3) 0.2064(14)
H7 H 0.691(3) 0.222(3) 0.2430(12)
H8 H 1.096(3) 0.628(3) 0.2972(13)
H9 H 1.099(3) 0.663(3) 0.3649(13)
H10 H 1.209(4) 0.548(4) 0.3458(18)
H11 H 0.815(3) 0.265(3) 0.4974(12)
H12 H 0.943(3) 0.158(3) 0.4823(12)
H13 H 0.964(3) 0.316(3) 0.5155(14)
H14 H 0.113(3) -0.045(3) 0.4123(12)
H15 H 0.270(3) -0.024(3) 0.4417(13)
H16 H 0.166(3) 0.101(3) 0.4397(14)
H17 H 0.286(3) -0.046(3) 0.2717(13)
H18 H 0.313(3) -0.134(3) 0.3384(13)
H19 H 0.156(3) -0.124(3) 0.3024(12)
H20 H 0.027(3) 0.063(3) 0.3057(12)
H21 H 0.076(3) 0.218(3) 0.3353(13)
H22 H 0.125(3) 0.151(3) 0.2671(13)
H23 H 0.429(3) -0.347(3) 0.4744(12)
H24 H 0.519(3) -0.222(3) 0.5070(15)
H25 H 0.417(3) -0.184(3) 0.4432(14)
H26 H 0.620(3) -0.362(3) 0.3350(13)
H27 H 0.469(3) -0.401(3) 0.3557(13)
H28 H 0.488(3) -0.251(3) 0.3324(13)
H29 H 0.759(3) -0.422(3) 0.4280(14)
H30 H 0.704(3) -0.382(3) 0.5016(13)
H31 H 0.607(3) -0.492(3) 0.4582(14)
#END
