
#######################################################################
#
#                 Cambridge Crystallographic Data Centre
#                                CCDC
#
#######################################################################
#
# If this CIF has been generated from an entry in the Cambridge
# Structural Database, then it will include bibliographic, chemical,
# crystal, experimental, refinement or atomic coordinate data resulting
# from the CCDC's data processing and validation procedures.
#
#######################################################################

data_CSD_CIF_MUTMUK
_audit_creation_date 2010-11-04
_audit_creation_method CSD-ConQuest-V1
_database_code_CSD MUTMUK
_database_code_depnum_ccdc_archive 'CCDC 696725'
_chemical_formula_sum 'C27 H28 N2 O2'
_chemical_formula_moiety
;
C27 H28 N2 O2
;
_journal_coden_Cambridge 119
_journal_volume 975
_journal_year 2010
_journal_page_first 137
_journal_name_full 'J.Mol.Struct. '
loop_
_publ_author_name
"V.Vimalraj"
"K.Pandiarajan"
"I.A.Bhat"
_chemical_name_systematic
;
N-Benzoyl-3t-isopropyl-2,6-diaryl piperidine-4-one oxime
;
_chemical_melting_point 461.15
_cell_volume   1123.887
_exptl_crystal_colour 'colorless'
_exptl_crystal_density_diffrn 1.219
_exptl_crystal_description 'prism'
_exptl_crystal_preparation 'ethanol'
_diffrn_ambient_temperature 293
#These two values have been output from a single CSD field.
_refine_ls_R_factor_gt 0.0383
_refine_ls_wR_factor_gt 0.0383
_symmetry_cell_setting triclinic
_symmetry_space_group_name_H-M 'P -1'
_symmetry_Int_Tables_number 2
loop_
_symmetry_equiv_pos_site_id
_symmetry_equiv_pos_as_xyz
1 x,y,z
2 -x,-y,-z
_cell_length_a 9.2961(4)
_cell_length_b 11.0213(5)
_cell_length_c 11.3398(5)
_cell_angle_alpha 78.436(2)
_cell_angle_beta 85.898(3)
_cell_angle_gamma 81.218(4)
_cell_formula_units_Z 2
loop_
_atom_type_symbol
_atom_type_radius_bond
C 0.68
H 0.23
N 0.68
O 0.68
loop_
_atom_site_label
_atom_site_type_symbol
_atom_site_fract_x
_atom_site_fract_y
_atom_site_fract_z
C1 C 0.81680(14) 0.01462(12) 0.34430(12)
C2 C 0.65422(15) 0.00730(14) 0.33902(15)
C3 C 0.55862(15) 0.13037(14) 0.32379(12)
C4 C 0.62893(15) 0.24675(14) 0.28739(14)
C5 C 0.75159(14) 0.21822(13) 0.19334(13)
C6 C 0.69243(15) 0.19090(14) 0.08113(13)
C7 C 0.59885(18) 0.28443(17) 0.01243(15)
H1 H 0.57350 0.36120 0.03610
C8 C 0.5429(2) 0.2647(2) -0.09086(17)
H2 H 0.48030 0.32820 -0.13590
C9 C 0.5792(2) 0.1521(2) -0.12729(17)
H3 H 0.54150 0.13930 -0.19690
C10 C 0.6711(2) 0.05904(19) -0.06075(16)
H4 H 0.69540 -0.01760 -0.08490
C11 C 0.72822(18) 0.07824(15) 0.04246(14)
H5 H 0.79160 0.01450 0.08640
C12 C 0.90400(14) -0.11219(13) 0.33705(12)
C13 C 1.00626(16) -0.13484(14) 0.24675(14)
H6 H 1.02460 -0.06950 0.18430
C14 C 1.08173(19) -0.25315(15) 0.24778(16)
H7 H 1.15020 -0.26670 0.18620
C15 C 1.0564(2) -0.35032(16) 0.33873(17)
H8 H 1.10800 -0.42980 0.33990
C16 C 0.9535(2) -0.32919(16) 0.42869(16)
H9 H 0.93460 -0.39510 0.49030
C17 C 0.87870(18) -0.21172(14) 0.42804(14)
H10 H 0.81000 -0.19880 0.48970
C18 C 1.00011(14) 0.14447(13) 0.26313(12)
C19 C 1.05993(14) 0.24348(13) 0.17117(13)
C20 C 1.05504(18) 0.24773(16) 0.04873(14)
H11 H 1.00610 0.19200 0.02120
C21 C 1.1227(2) 0.33446(18) -0.03268(16)
H12 H 1.12100 0.33600 -0.11490
C22 C 1.1924(2) 0.41843(17) 0.00801(18)
H13 H 1.23630 0.47780 -0.04690
C23 C 1.19748(19) 0.41509(16) 0.12898(17)
H14 H 1.24430 0.47250 0.15600
C24 C 1.13358(17) 0.32690(15) 0.21062(15)
H15 H 1.13990 0.32330 0.29280
C25 C 0.68116(19) 0.29718(15) 0.39157(15)
C26 C 0.5631(3) 0.3054(2) 0.4905(2)
H16 H 0.59580 0.34320 0.55110
H17 H 0.54250 0.22290 0.52610
H18 H 0.47640 0.35530 0.45700
C27 C 0.7290(3) 0.42488(19) 0.3468(2)
H19 H 0.65000 0.48160 0.30770
H20 H 0.81070 0.41760 0.29060
H21 H 0.75660 0.45620 0.41380
N1 N 0.86389(11) 0.11841(10) 0.25181(10)
N2 N 0.42001(13) 0.14377(12) 0.32838(12)
O1 O 1.07614(10) 0.08381(10) 0.34491(9)
O2 O 0.36970(11) 0.02678(11) 0.35447(11)
H22 H 0.28040 0.03720 0.35710
H23 H 0.6258(19) -0.0456(16) 0.4106(16)
H24 H 0.5532(19) 0.3149(16) 0.2471(15)
H25 H 0.8001(16) 0.2920(14) 0.1710(13)
H26 H 0.768(2) 0.2368(17) 0.4291(16)
H27 H 0.6382(18) -0.0336(15) 0.2736(15)
H28 H 0.8360(15) 0.0345(13) 0.4218(13)
#END
