
#######################################################################
#
#                 Cambridge Crystallographic Data Centre
#                                CCDC
#
#######################################################################
#
# If this CIF has been generated from an entry in the Cambridge
# Structural Database, then it will include bibliographic, chemical,
# crystal, experimental, refinement or atomic coordinate data resulting
# from the CCDC's data processing and validation procedures.
#
#######################################################################

data_CSD_CIF_MUTSAW01
_audit_creation_date 2010-12-02
_audit_creation_method CSD-ConQuest-V1
_database_code_CSD MUTSAW01
_database_code_depnum_ccdc_archive 'CCDC 799556'
_chemical_formula_sum 'C6 H11 N3 O3'
_chemical_formula_moiety
;
C6 H11 N3 O3
;
_journal_coeditor_code "IUCr GK2305"
_journal_coden_Cambridge 1370
_journal_volume 66
_journal_year 2010
_journal_page_first o2759
_journal_name_full 'Acta Crystallogr.,Sect.E:Struct.Rep.Online '
loop_
_publ_author_name
"Gaolei Wang"
"Dongmei Li"
"He Li"
_chemical_name_systematic
;
2-[(E)-2-(Nitromethylidene)imidazolidin-1-yl]ethanol
;
_cell_volume    782.557
_exptl_crystal_colour 'colorless'
_exptl_crystal_density_diffrn 1.478
_exptl_crystal_description 'prism'
_diffrn_ambient_temperature 293
#These two values have been output from a single CSD field.
_refine_ls_R_factor_gt 0.0378
_refine_ls_wR_factor_gt 0.0378
_symmetry_cell_setting monoclinic
_symmetry_space_group_name_H-M 'P 21/n'
_symmetry_Int_Tables_number 14
loop_
_symmetry_equiv_pos_site_id
_symmetry_equiv_pos_as_xyz
1 x,y,z
2 1/2-x,1/2+y,1/2-z
3 -x,-y,-z
4 -1/2+x,-1/2-y,-1/2+z
_cell_length_a 6.9422(2)
_cell_length_b 8.7142(3)
_cell_length_c 12.9698(4)
_cell_angle_alpha 90
_cell_angle_beta 94.153(3)
_cell_angle_gamma 90
_cell_formula_units_Z 4
loop_
_atom_type_symbol
_atom_type_radius_bond
C 0.68
H 0.23
N 0.68
O 0.68
loop_
_atom_site_label
_atom_site_type_symbol
_atom_site_fract_x
_atom_site_fract_y
_atom_site_fract_z
C1 C 0.7352(2) 0.66673(18) 0.73309(13)
H1 H 0.70100 0.76960 0.70990
H2 H 0.87090 0.65090 0.72300
C2 C 0.70406(19) 0.65267(18) 0.84644(12)
H3 H 0.73380 0.54850 0.86870
H4 H 0.79320 0.72070 0.88510
C3 C 0.4516(2) 0.84632(17) 0.89333(14)
H5 H 0.45360 0.91060 0.83240
H6 H 0.53640 0.89040 0.94830
C4 C 0.2490(3) 0.82924(18) 0.92650(15)
H7 H 0.15700 0.88400 0.88020
H8 H 0.23960 0.86680 0.99640
C5 C 0.36609(19) 0.59107(16) 0.8876(1)
C6 C 0.3790(2) 0.43186(17) 0.87112(11)
H9 H 0.49330 0.39200 0.84900
N1 N 0.50847(16) 0.68944(13) 0.87087(9)
N2 N 0.21646(17) 0.66554(14) 0.92072(10)
H10 H 0.11190 0.62160 0.93700
N3 N 0.23318(18) 0.33545(14) 0.88605(10)
O1 O 0.62388(16) 0.55935(12) 0.67291(8)
H11 H 0.51610 0.59490 0.65800
O2 O 0.07390(15) 0.38210(13) 0.91700(9)
O3 O 0.25342(18) 0.19348(13) 0.8675(1)
#END
