
#######################################################################
#
#                 Cambridge Crystallographic Data Centre
#                                CCDC
#
#######################################################################
#
# If this CIF has been generated from an entry in the Cambridge
# Structural Database, then it will include bibliographic, chemical,
# crystal, experimental, refinement or atomic coordinate data resulting
# from the CCDC's data processing and validation procedures.
#
#######################################################################

data_CSD_CIF_MUVNUM
_audit_creation_date 2003-04-15
_audit_creation_method CSD-ConQuest-V1
_database_code_CSD MUVNUM
_database_code_depnum_ccdc_archive 'CCDC 203597'
_chemical_formula_sum 'C19 H23 N1 O4'
_chemical_formula_moiety
;
C19 H23 N1 O4
;
_journal_coden_Cambridge 200
_journal_volume 61
_journal_year 1996
_journal_page_first 670
_journal_name_full 'Steroids '
loop_
_publ_author_name
"E.Palomino"
"M.J.Heeg"
"M.J.Pilat"
"M.Hafner"
"L.Polin"
"S.C.Brooks"
_chemical_name_systematic
;
4-Nitroestrone methyl ether
;
_cell_volume   1696.434
_exptl_crystal_colour 'yellow'
_exptl_crystal_density_diffrn 1.29
_exptl_crystal_description 'rectangular rod'
_exptl_crystal_preparation 'acetone'
_diffrn_ambient_temperature 295
#These two values have been output from a single CSD field.
_refine_ls_R_factor_gt 0.047
_refine_ls_wR_factor_gt 0.047
_symmetry_cell_setting orthorhombic
_symmetry_space_group_name_H-M 'P 21 21 21'
_symmetry_Int_Tables_number 19
loop_
_symmetry_equiv_pos_site_id
_symmetry_equiv_pos_as_xyz
1 x,y,z
2 1/2-x,-y,1/2+z
3 1/2+x,1/2-y,-z
4 -x,1/2+y,1/2-z
_cell_length_a 7.046(12)
_cell_length_b 11.826(3)
_cell_length_c 20.359(5)
_cell_angle_alpha 90
_cell_angle_beta 90
_cell_angle_gamma 90
_cell_formula_units_Z 4
loop_
_atom_type_symbol
_atom_type_radius_bond
C 0.68
H 0.23
N 0.68
O 0.68
loop_
_atom_site_label
_atom_site_type_symbol
_atom_site_fract_x
_atom_site_fract_y
_atom_site_fract_z
C1 C 0.0800(6) 0.6472(3) 0.6357(2)
C2 C 0.0633(6) 0.5329(3) 0.6202(2)
C3 C 0.2064(6) 0.4809(3) 0.5850(2)
O1 O 0.2100(4) 0.3713(2) 0.5655(1)
C4 C 0.3584(6) 0.5467(3) 0.5674(2)
C5 C 0.3821(6) 0.6602(3) 0.5824(2)
C6 C 0.5585(6) 0.7219(3) 0.5613(2)
C7 C 0.5403(6) 0.8505(3) 0.5642(2)
C8 C 0.4478(5) 0.8830(3) 0.6296(2)
C9 C 0.2427(5) 0.8390(3) 0.6309(2)
C10 C 0.2358(5) 0.7121(3) 0.6176(2)
C11 C 0.1364(6) 0.8756(3) 0.6923(2)
C12 C 0.1415(6) 1.0047(3) 0.7031(2)
C13 C 0.3458(6) 1.0451(3) 0.7034(2)
C14 C 0.4377(5) 1.0119(3) 0.6383(2)
C15 C 0.6173(6) 1.0841(4) 0.6345(2)
C16 C 0.5475(7) 1.1988(4) 0.6611(2)
C17 C 0.3767(7) 1.1721(4) 0.7037(2)
O2 O 0.2798(5) 1.2413(2) 0.7322(2)
C18 C 0.4548(7) 1.0053(3) 0.7643(2)
C19 C 0.0470(7) 0.3033(4) 0.5810(3)
N1 N 0.5089(5) 0.4886(3) 0.5303(2)
O3 O 0.4880(5) 0.4786(3) 0.4706(1)
O4 O 0.6448(5) 0.4538(3) 0.5590(2)
H1 H -0.04060 0.68200 0.66210
H2 H -0.06410 0.49570 0.63290
H3 H 0.70020 0.67910 0.58250
H4 H 0.60950 0.68620 0.52050
H5 H 0.68510 0.88000 0.57330
H6 H 0.44250 0.88070 0.52390
H7 H 0.54010 0.84540 0.66620
H8 H 0.16270 0.87650 0.59420
H9 H 0.21980 0.84090 0.73390
H10 H 0.01580 0.85450 0.69750
H11 H 0.07570 1.05620 0.66140
H12 H 0.06870 1.02170 0.74160
H13 H 0.34270 1.04410 0.60070
H14 H 0.71470 1.04580 0.67260
H15 H 0.70190 1.07880 0.60330
H16 H 0.66470 1.22120 0.67970
H17 H 0.49150 1.25170 0.62300
H18 H 0.51160 0.91820 0.76750
H19 H 0.56650 1.02550 0.77420
H20 H 0.36740 1.01470 0.80550
H21 H 0.07860 0.22380 0.56500
H22 H -0.07420 0.31850 0.55600
H23 H 0.02134 0.31789 0.63485
#END
