
#######################################################################
#
#                 Cambridge Crystallographic Data Centre
#                                CCDC
#
#######################################################################
#
# If this CIF has been generated from an entry in the Cambridge
# Structural Database, then it will include bibliographic, chemical,
# crystal, experimental, refinement or atomic coordinate data resulting
# from the CCDC's data processing and validation procedures.
#
#######################################################################

data_CSD_CIF_MUWBOW
_audit_creation_date 2010-11-12
_audit_creation_method CSD-ConQuest-V1
_database_code_CSD MUWBOW
_database_code_depnum_ccdc_archive 'CCDC 755471'
_chemical_formula_sum 'C19 H17 N1 O4'
_chemical_formula_moiety
;
C19 H17 N1 O4
;
_journal_coden_Cambridge 1336
_journal_volume 12
_journal_year 2010
_journal_page_first 976
_journal_name_full 'Org.Lett. '
loop_
_publ_author_name
"Rong Zhou"
"Chunzhang Wang"
"Haibin Song"
"Zhengjie He"
_chemical_name_systematic
;
(E,E)-Ethyl 2-benzylidene-4-(3-nitrophenyl)but-3-enoate
;
_cell_volume   1621.982
_exptl_crystal_density_diffrn 1.324
_diffrn_ambient_temperature 113
#These two values have been output from a single CSD field.
_refine_ls_R_factor_gt 0.0418
_refine_ls_wR_factor_gt 0.0418
_symmetry_cell_setting monoclinic
_symmetry_space_group_name_H-M 'P 21/c'
_symmetry_Int_Tables_number 14
loop_
_symmetry_equiv_pos_site_id
_symmetry_equiv_pos_as_xyz
1 x,y,z
2 -x,1/2+y,1/2-z
3 -x,-y,-z
4 x,-1/2-y,-1/2+z
_cell_length_a 16.035(3)
_cell_length_b 13.589(3)
_cell_length_c 7.4609(15)
_cell_angle_alpha 90
_cell_angle_beta 93.89(3)
_cell_angle_gamma 90
_cell_formula_units_Z 4
loop_
_atom_type_symbol
_atom_type_radius_bond
C 0.68
H 0.23
N 0.68
O 0.68
loop_
_atom_site_label
_atom_site_type_symbol
_atom_site_fract_x
_atom_site_fract_y
_atom_site_fract_z
O1 O 0.28571(5) 0.45197(7) 0.03901(12)
O2 O 0.18140(6) 0.39547(8) 0.19461(14)
O3 O 0.19463(7) -0.16246(9) -0.05740(17)
O4 O 0.08532(8) -0.24214(9) 0.01593(17)
N1 N 0.12810(8) -0.16747(10) 0.01635(18)
C1 C 0.42244(8) 0.11561(11) 0.22551(17)
H1 H 0.37120 0.10400 0.27310
C2 C 0.48444(9) 0.04435(12) 0.24167(18)
H2 H 0.47460 -0.01440 0.30070
C3 C 0.56097(9) 0.06015(12) 0.17023(19)
H3 H 0.60210 0.01180 0.17980
C4 C 0.57580(8) 0.14808(12) 0.08470(19)
H4 H 0.62710 0.15910 0.03700
C5 C 0.51455(8) 0.21944(12) 0.07003(18)
H5 H 0.52540 0.27860 0.01360
C6 C 0.43613(8) 0.20463(11) 0.13845(17)
C7 C 0.37624(8) 0.28639(11) 0.12404(17)
H6 H 0.39970 0.34830 0.11050
C8 C 0.29185(8) 0.28526(11) 0.12751(17)
C9 C 0.24662(8) 0.38120(11) 0.12570(17)
C10 C 0.24560(8) 0.54833(11) 0.0320(2)
H7 H 0.24490 0.57610 0.15170
H8 H 0.18840 0.54290 -0.01860
C11 C 0.29569(9) 0.61202(12) -0.0842(2)
H9 H 0.35180 0.61750 -0.03160
H10 H 0.27090 0.67620 -0.09390
H11 H 0.29650 0.58320 -0.20150
C12 C 0.24254(8) 0.19484(11) 0.12925(17)
H12 H 0.26680 0.13920 0.08200
C13 C 0.16670(8) 0.18241(11) 0.19061(17)
H13 H 0.14170 0.23710 0.23950
C14 C 0.11988(8) 0.08986(11) 0.18712(17)
C15 C 0.04505(8) 0.08519(12) 0.27433(18)
H14 H 0.02640 0.14090 0.33220
C16 C -0.00152(8) -0.00033(13) 0.27602(19)
H15 H -0.05130 -0.00120 0.33320
C17 C 0.02518(9) -0.08443(13) 0.19355(18)
H16 H -0.00550 -0.14250 0.19520
C18 C 0.09930(8) -0.07954(11) 0.10814(18)
C19 C 0.14603(8) 0.00537(11) 0.10162(17)
H17 H 0.19470 0.00620 0.04050
#END
