
#######################################################################
#
#                 Cambridge Crystallographic Data Centre
#                                CCDC
#
#######################################################################
#
# If this CIF has been generated from an entry in the Cambridge
# Structural Database, then it will include bibliographic, chemical,
# crystal, experimental, refinement or atomic coordinate data resulting
# from the CCDC's data processing and validation procedures.
#
#######################################################################

data_CSD_CIF_MUWCEO
_audit_creation_date 2015-10-22
_audit_creation_method CSD-ConQuest-V1
_database_code_CSD MUWCEO
_database_code_depnum_ccdc_archive 'CCDC 1032758'
_chemical_formula_sum 'C20 H25 N5 O3'
_chemical_formula_moiety
;
C20 H25 N5 O3
;
_journal_coden_Cambridge 119
_journal_volume 1106
_journal_year 2016
_journal_page_first 485
_journal_name_full 'J.Mol.Struct. '
loop_
_publ_author_name
"Wei Xu"
"Binhao Shao"
"Xingjie Xu"
"Renwang Jiang"
"Mu Yuan"
_chemical_name_systematic
;
1-(1H-Benzotriazol-1-yloxy)-3-(4-(2-methoxyphenyl)piperazin-1-yl)propan-2-ol
;
_cell_volume   4213.935
_exptl_crystal_colour 'colorless'
_exptl_crystal_density_diffrn 1.209
_exptl_special_details
;
Absolute configuration

;
_exptl_crystal_preparation 'dichloromethane/Cyclohexane'
_diffrn_ambient_temperature 293
_refine_special_details
;
The MASK/OLEX2 program has been used to model some disorder.

;
#These two values have been output from a single CSD field.
_refine_ls_R_factor_gt 0.0489
_refine_ls_wR_factor_gt 0.0489
_symmetry_cell_setting tetragonal
_symmetry_space_group_name_H-M 'P 43 21 2'
_symmetry_Int_Tables_number 96
loop_
_symmetry_equiv_pos_site_id
_symmetry_equiv_pos_as_xyz
1 x,y,z
2 1/2-y,1/2+x,3/4+z
3 -x,-y,1/2+z
4 1/2+y,1/2-x,1/4+z
5 1/2+x,1/2-y,1/4-z
6 1/2-x,1/2+y,3/4-z
7 y,x,-z
8 -y,-x,1/2-z
_cell_length_a 10.0928(14)
_cell_length_b 10.0928(14)
_cell_length_c 41.368(8)
_cell_angle_alpha 90
_cell_angle_beta 90
_cell_angle_gamma 90
_cell_formula_units_Z 8
loop_
_atom_type_symbol
_atom_type_radius_bond
C 0.68
H 0.23
N 0.68
O 0.68
loop_
_atom_site_label
_atom_site_type_symbol
_atom_site_fract_x
_atom_site_fract_y
_atom_site_fract_z
O1 O 0.7095(2) 0.4307(2) 0.59384(5)
O2 O 0.0215(2) 0.8891(3) 0.71854(5)
O3 O 0.2066(3) 0.6764(3) 0.72170(5)
H1 H 0.25410 0.61380 0.71660
N1 N -0.1130(2) 0.8872(3) 0.72340(5)
N2 N 0.6343(2) 0.5611(2) 0.64766(5)
N3 N 0.3743(2) 0.6395(3) 0.66793(5)
N4 N -0.1715(3) 0.7840(3) 0.73728(6)
N5 N -0.2936(3) 0.8161(3) 0.74308(6)
C1 C 0.7603(3) 0.4986(3) 0.64692(7)
C2 C 0.2006(3) 0.7679(3) 0.69574(6)
H2 H 0.25550 0.84540 0.70060
C3 C 0.7998(3) 0.4316(3) 0.61853(7)
C4 C 0.2468(3) 0.7045(4) 0.66436(7)
H3 H 0.18160 0.64010 0.65740
H4 H 0.25350 0.77220 0.64780
C5 C -0.3134(3) 0.9433(3) 0.73312(7)
C6 C -0.1968(3) 0.9916(3) 0.72016(7)
C7 C 0.5225(3) 0.4670(3) 0.64755(7)
H5 H 0.51980 0.41970 0.66800
H6 H 0.53480 0.40270 0.63040
C8 C 0.0581(3) 0.8101(3) 0.69097(7)
H7 H 0.04940 0.86150 0.67130
H8 H 0.00120 0.73300 0.68940
C9 C 0.8507(3) 0.5024(3) 0.67217(8)
H9 H 0.82750 0.54620 0.69110
C10 C 0.3938(3) 0.5402(3) 0.64251(7)
H10 H 0.39480 0.58340 0.62160
H11 H 0.32080 0.47770 0.64280
C11 C 0.6152(3) 0.6595(3) 0.67266(7)
H12 H 0.68780 0.72250 0.67220
H13 H 0.61460 0.61680 0.69370
C12 C 0.4856(3) 0.7311(3) 0.66736(8)
H14 H 0.47390 0.79740 0.68410
H15 H 0.48800 0.77630 0.64670
C13 C 0.9231(4) 0.3749(4) 0.61665(9)
H16 H 0.94870 0.33300 0.59760
C14 C -0.4260(4) 1.0264(4) 0.73544(8)
H17 H -0.50520 0.99590 0.74420
C15 C 0.7423(4) 0.3636(5) 0.56485(8)
H18 H 0.66750 0.36500 0.55050
H19 H 0.76540 0.27350 0.56970
H20 H 0.81610 0.40700 0.55470
C16 C 0.9749(4) 0.4430(4) 0.67023(10)
H21 H 1.03330 0.44680 0.68760
C17 C -0.1844(4) 1.1194(4) 0.70803(10)
H22 H -0.10650 1.15030 0.69870
C18 C 1.0098(4) 0.3786(4) 0.64230(11)
H23 H 1.09200 0.33750 0.64070
C19 C -0.4138(4) 1.1522(5) 0.72436(11)
H24 H -0.48560 1.20960 0.72580
C20 C -0.2960(5) 1.1970(4) 0.71090(13)
H25 H -0.29230 1.28380 0.70340
#END
