
#######################################################################
#
#                 Cambridge Crystallographic Data Centre
#                                CCDC
#
#######################################################################
#
# If this CIF has been generated from an entry in the Cambridge
# Structural Database, then it will include bibliographic, chemical,
# crystal, experimental, refinement or atomic coordinate data resulting
# from the CCDC's data processing and validation procedures.
#
#######################################################################

data_CSD_CIF_MUWKAR
_audit_creation_date 2010-11-12
_audit_creation_method CSD-ConQuest-V1
_database_code_CSD MUWKAR
_database_code_depnum_ccdc_archive 'CCDC 747490'
_chemical_formula_sum 'C25 H25 N1 O2'
_chemical_formula_moiety
;
C25 H25 N1 O2
;
_journal_coden_Cambridge 16
_journal_volume 66
_journal_year 2010
_journal_page_first 4604
_journal_name_full 'Tetrahedron '
loop_
_publ_author_name
"S.A.Bentley"
"S.G.Davies"
"J.A.Lee"
"P.M.Roberts"
"A.J.Russell"
"J.E.Thomson"
"S.M.Toms"
_chemical_name_systematic
;
4-Benzyl-4-methyl-3-phenyl-2-(1-phenylethyl)-1,2-oxazolidin-5-one
;
_chemical_melting_point 418.15
_cell_volume   2031.247
_exptl_crystal_colour 'colorless'
_exptl_crystal_density_diffrn 1.215
_exptl_special_details
;
Melting point range 418.15-420.15K

;
_exptl_crystal_description 'plate'
_diffrn_ambient_temperature 150
#These two values have been output from a single CSD field.
_refine_ls_R_factor_gt 0.042
_refine_ls_wR_factor_gt 0.042
_symmetry_cell_setting orthorhombic
_symmetry_space_group_name_H-M 'P 21 21 21'
_symmetry_Int_Tables_number 19
loop_
_symmetry_equiv_pos_site_id
_symmetry_equiv_pos_as_xyz
1 x,y,z
2 1/2+x,1/2-y,-z
3 -x,1/2+y,1/2-z
4 1/2-x,-y,1/2+z
_cell_length_a 7.4310(1)
_cell_length_b 12.1146(2)
_cell_length_c 22.5635(4)
_cell_angle_alpha 90
_cell_angle_beta 90
_cell_angle_gamma 90
_cell_formula_units_Z 4
loop_
_atom_type_symbol
_atom_type_radius_bond
C 0.68
H 0.23
N 0.68
O 0.68
loop_
_atom_site_label
_atom_site_type_symbol
_atom_site_fract_x
_atom_site_fract_y
_atom_site_fract_z
O1 O 0.94981(19) 0.09707(11) 0.36505(7)
N1 N 0.7887(2) 0.16023(13) 0.38370(7)
C1 C 0.6316(3) 0.09550(16) 0.36306(9)
C2 C 0.6030(3) -0.00194(16) 0.40407(9)
C3 C 0.6930(3) -0.10159(17) 0.3962(1)
C4 C 0.6575(3) -0.19062(19) 0.43306(11)
C5 C 0.5337(4) -0.18194(18) 0.47818(10)
C6 C 0.4446(4) -0.08290(18) 0.48727(10)
C7 C 0.4795(3) 0.00603(18) 0.45015(9)
C8 C 0.6340(3) 0.06240(18) 0.29744(10)
C9 C 0.8060(3) 0.26902(16) 0.35377(9)
C10 C 0.6920(3) 0.35350(16) 0.38535(9)
C11 C 0.6201(3) 0.44228(18) 0.35388(11)
C12 C 0.5146(3) 0.52071(19) 0.38144(11)
C13 C 0.4746(4) 0.51143(19) 0.44125(11)
C14 C 0.5432(4) 0.42360(19) 0.47323(11)
C15 C 0.6521(3) 0.34536(18) 0.44579(10)
C16 C 1.0129(3) 0.28710(17) 0.35251(9)
C17 C 1.0804(3) 0.16902(18) 0.35018(9)
O2 O 1.2300(2) 0.13698(14) 0.33848(8)
C18 C 1.0816(3) 0.35211(17) 0.29814(9)
C19 C 1.0109(3) 0.31331(17) 0.23923(9)
C20 C 0.8797(3) 0.3733(2) 0.20962(10)
C21 C 0.8059(4) 0.3364(3) 0.15681(11)
C22 C 0.8634(4) 0.2374(3) 0.13284(11)
C23 C 0.9979(5) 0.1788(2) 0.16005(11)
C24 C 1.0726(4) 0.21646(19) 0.2128(1)
C25 C 1.0868(3) 0.3381(2) 0.4099(1)
H1 H 0.52730 0.14780 0.36880
H2 H 0.78040 -0.10710 0.36430
H3 H 0.72100 -0.25920 0.42680
H4 H 0.50610 -0.24340 0.50220
H5 H 0.35950 -0.07550 0.51940
H6 H 0.41480 0.07450 0.45640
H7 H 0.52390 0.02000 0.28900
H8 H 0.74080 0.01690 0.28990
H9 H 0.63890 0.12820 0.27300
H10 H 0.76980 0.26380 0.31180
H11 H 0.64860 0.44890 0.31240
H12 H 0.46470 0.58030 0.35860
H13 H 0.40000 0.56600 0.46010
H14 H 0.51560 0.41640 0.51530
H15 H 0.70150 0.28480 0.46830
H16 H 1.21640 0.34440 0.29800
H17 H 1.04650 0.42950 0.30400
H18 H 0.83900 0.44100 0.22630
H19 H 0.71530 0.37990 0.13700
H20 H 0.80890 0.21010 0.09750
H21 H 1.04070 0.11110 0.14320
H22 H 1.16960 0.17610 0.23110
H23 H 1.21890 0.33350 0.40780
H24 H 1.04180 0.29240 0.44250
H25 H 1.04510 0.41460 0.41250
#END
