
#######################################################################
#
#                 Cambridge Crystallographic Data Centre
#                                CCDC
#
#######################################################################
#
# If this CIF has been generated from an entry in the Cambridge
# Structural Database, then it will include bibliographic, chemical,
# crystal, experimental, refinement or atomic coordinate data resulting
# from the CCDC's data processing and validation procedures.
#
#######################################################################

data_CSD_CIF_MUWRIG
_audit_creation_date 2010-09-06
_audit_creation_method CSD-ConQuest-V1
_database_code_CSD MUWRIG
_database_code_depnum_ccdc_archive 'CCDC 742553'
_chemical_formula_sum 'C15 H14 N2 O4'
_chemical_formula_moiety
;
C15 H14 N2 O4
;
_journal_coden_Cambridge 16
_journal_volume 66
_journal_year 2010
_journal_page_first 4423
_journal_name_full 'Tetrahedron '
loop_
_publ_author_name
"Derong Ding"
"Cong-Gui Zhao"
"Qunsheng Guo"
"H.Arman"
_chemical_name_systematic
;
(1R,5R,6S,7S)-6-(4-cyanophenyl)-1-hydroxy-7-nitrobicyclo[3.2.1]octan-8-one
;
_chemical_name_common
;
4-(1-Hydroxy-7-nitro-8-oxobicyclo[3.2.1]oct-6-yl)benzonitrile
;
_cell_volume   1351.828
_exptl_crystal_colour 'colorless'
_exptl_crystal_density_diffrn 1.407
_exptl_special_details
;
Absolute configuration

;
_exptl_crystal_description 'chunk'
_diffrn_ambient_temperature 98
#These two values have been output from a single CSD field.
_refine_ls_R_factor_gt 0.0397
_refine_ls_wR_factor_gt 0.0397
_symmetry_cell_setting orthorhombic
_symmetry_space_group_name_H-M 'P 21 21 21'
_symmetry_Int_Tables_number 19
loop_
_symmetry_equiv_pos_site_id
_symmetry_equiv_pos_as_xyz
1 x,y,z
2 1/2-x,-y,1/2+z
3 -x,1/2+y,1/2-z
4 1/2+x,1/2-y,-z
_cell_length_a 10.269(5)
_cell_length_b 10.961(5)
_cell_length_c 12.010(6)
_cell_angle_alpha 90
_cell_angle_beta 90
_cell_angle_gamma 90
_cell_formula_units_Z 4
loop_
_atom_type_symbol
_atom_type_radius_bond
C 0.68
H 0.23
N 0.68
O 0.68
loop_
_atom_site_label
_atom_site_type_symbol
_atom_site_fract_x
_atom_site_fract_y
_atom_site_fract_z
C1 C -1.5931(2) -1.1320(2) -1.04752(19)
C2 C -1.5353(2) -1.1343(2) -1.16341(18)
C3 C -1.5352(2) -1.2184(2) -1.3494(2)
C4 C -1.3724(2) -1.1556(2) -1.4860(2)
C5 C -1.4265(2) -1.1482(2) -1.37477(19)
C6 C -1.6075(2) -1.0025(2) -0.99613(19)
C7 C -1.4258(2) -1.0644(2) -1.1904(2)
O1 O -1.37081(18) -1.1438(2) -0.80714(15)
C8 C -1.5021(3) -1.1993(2) -0.9653(2)
C9 C -1.4952(2) -0.9942(2) -0.9161(2)
C10 C -1.5889(2) -1.2115(2) -1.2433(2)
O2 O -1.42499(17) -0.90876(17) -0.89694(16)
C11 C -1.4900(2) -1.1202(2) -0.85924(19)
N1 N -1.3326(2) -1.1633(2) -1.57459(18)
C12 C -1.7379(3) -1.0992(3) -0.8378(2)
O3 O -1.6578(2) -1.35857(19) -0.9516(2)
C13 C -1.3707(2) -1.0707(2) -1.2960(2)
C14 C -1.6074(3) -1.1273(3) -0.7797(2)
N2 N -1.5442(2) -1.3284(2) -0.93911(18)
C15 C -1.7294(2) -0.9922(3) -0.9196(2)
O4 O -1.4578(2) -1.3950(2) -0.9035(2)
H1 H -1.604(4) -1.212(4) -0.741(3)
H2 H -1.574(4) -1.271(3) -1.404(3)
H3 H -1.388(4) -1.006(3) -1.135(3)
H4 H -1.411(4) -1.208(3) -0.999(3)
H5 H -1.382(5) -1.137(4) -0.737(3)
H6 H -1.676(4) -1.174(4) -1.050(3)
H7 H -1.294(4) -1.023(3) -1.312(3)
H8 H -1.669(4) -1.264(3) -1.227(3)
H9 H -1.808(4) -1.080(4) -0.776(3)
H10 H -1.768(4) -1.173(4) -0.875(3)
H11 H -1.605(4) -0.933(3) -1.054(3)
H12 H -1.725(4) -0.907(4) -0.874(3)
H13 H -1.814(4) -0.993(4) -0.969(3)
H14 H -1.590(4) -1.069(3) -0.720(3)
#END
