
#######################################################################
#
#                 Cambridge Crystallographic Data Centre
#                                CCDC
#
#######################################################################
#
# If this CIF has been generated from an entry in the Cambridge
# Structural Database, then it will include bibliographic, chemical,
# crystal, experimental, refinement or atomic coordinate data resulting
# from the CCDC's data processing and validation procedures.
#
#######################################################################

data_CSD_CIF_MUWZEL
_audit_creation_date 2015-10-22
_audit_creation_method CSD-ConQuest-V1
_database_code_CSD MUWZEL
_database_code_depnum_ccdc_archive 'CCDC 1007704'
_chemical_formula_sum 'C24 H28 N4 O4'
_chemical_formula_moiety
;
C24 H28 N4 O4
;
_journal_coden_Cambridge 1336
_journal_volume 16
_journal_year 2014
_journal_page_first 4650
_journal_name_full 'Org.Lett. '
loop_
_publ_author_name
"Xie-Xue Peng"
"Yun-Jing Deng"
"Xiu-Long Yang"
"Lin Zhang"
"Wei Yu"
"Bing Han"
_chemical_name_systematic
;
(E)-1,2-bis((4,4-dimethyl-3-phenyl-4,5-dihydroisoxazol-5-yl)methyl)diazene 
1,2-dioxide
;
_cell_volume    553.164
_exptl_crystal_colour 'colorless'
_exptl_crystal_density_diffrn 1.31
_exptl_crystal_description 'block'
_diffrn_ambient_temperature 296
#These two values have been output from a single CSD field.
_refine_ls_R_factor_gt 0.0947
_refine_ls_wR_factor_gt 0.0947
_symmetry_cell_setting triclinic
_symmetry_space_group_name_H-M 'P -1'
_symmetry_Int_Tables_number 2
loop_
_symmetry_equiv_pos_site_id
_symmetry_equiv_pos_as_xyz
1 x,y,z
2 -x,-y,-z
_cell_length_a 6.2135(13)
_cell_length_b 9.640(2)
_cell_length_c 9.692(2)
_cell_angle_alpha 85.789(2)
_cell_angle_beta 73.020(3)
_cell_angle_gamma 86.307(2)
_cell_formula_units_Z 1
loop_
_atom_type_symbol
_atom_type_radius_bond
C 0.68
H 0.23
N 0.68
O 0.68
loop_
_atom_site_label
_atom_site_type_symbol
_atom_site_fract_x
_atom_site_fract_y
_atom_site_fract_z
O1 O 0.3575(5) 0.7483(3) 0.2582(3)
O2 O 0.2318(9) 1.0295(6) 0.0921(7)
N1 N 0.2979(5) 0.7128(3) 0.4079(4)
N2 N 0.4276(9) 0.9997(5) 0.0698(6)
C1 C 0.3817(10) 0.6623(5) 0.9074(5)
H1 H 0.36210 0.64900 1.00630
C2 C 0.5878(9) 0.6323(5) 0.8110(5)
H2 H 0.70720 0.59750 0.84490
C3 C 0.6184(7) 0.6536(5) 0.6641(5)
H3 H 0.75900 0.63400 0.59980
C4 C 0.4404(6) 0.7042(4) 0.6112(4)
C5 C 0.2326(7) 0.7337(4) 0.7107(5)
H4 H 0.11190 0.76840 0.67810
C6 C 0.2043(9) 0.7121(5) 0.8570(5)
H5 H 0.06440 0.73140 0.92210
C7 C 0.4660(6) 0.7284(4) 0.4549(4)
C8 C 0.6775(7) 0.7730(4) 0.3381(4)
C9 C 0.5681(8) 0.8188(5) 0.2170(6)
H6 H 0.66370 0.78290 0.12620
C10 C 0.5254(10) 0.9701(6) 0.1933(6)
H7 H 0.66550 1.01720 0.17330
H8 H 0.42200 1.00600 0.28030
C11 C 0.8314(7) 0.6448(5) 0.2879(5)
H9 H 0.88260 0.60330 0.36650
H10 H 0.95880 0.67210 0.20930
H11 H 0.74940 0.57850 0.25650
C12 C 0.8039(7) 0.8843(5) 0.3825(5)
H12 H 0.70180 0.96150 0.41750
H13 H 0.92320 0.91560 0.30050
H14 H 0.86620 0.84580 0.45750
O1A O 0.6425(5) 1.2517(3) -0.2582(3)
O2A O 0.7682(9) 0.9705(6) -0.0921(7)
N1A N 0.7021(5) 1.2872(3) -0.4079(4)
N2A N 0.5724(9) 1.0003(5) -0.0698(6)
C1A C 0.6183(10) 1.3377(5) -0.9074(5)
H1A H 0.63790 1.35100 -1.00630
C2A C 0.4122(9) 1.3677(5) -0.8110(5)
H2A H 0.29280 1.40250 -0.84490
C3A C 0.3816(7) 1.3464(5) -0.6641(5)
H3A H 0.24100 1.36600 -0.59980
C4A C 0.5596(6) 1.2958(4) -0.6112(4)
C5A C 0.7674(7) 1.2663(4) -0.7107(5)
H4A H 0.88810 1.23160 -0.67810
C6A C 0.7957(9) 1.2879(5) -0.8570(5)
H5A H 0.93560 1.26860 -0.92210
C7A C 0.5340(6) 1.2716(4) -0.4549(4)
C8A C 0.3225(7) 1.2270(4) -0.3381(4)
C9A C 0.4319(8) 1.1812(5) -0.2170(6)
H6A H 0.33630 1.21710 -0.12620
C10A C 0.4746(10) 1.0299(6) -0.1933(6)
H7A H 0.33450 0.98280 -0.17330
H8A H 0.57800 0.99400 -0.28030
C11A C 0.1686(7) 1.3552(5) -0.2879(5)
H9A H 0.11740 1.39670 -0.36650
H10A H 0.04120 1.32790 -0.20930
H11A H 0.25060 1.42150 -0.25650
C12A C 0.1961(7) 1.1157(5) -0.3825(5)
H12A H 0.29820 1.03850 -0.41750
H13A H 0.07680 1.08440 -0.30050
H14A H 0.13380 1.15420 -0.45750
#END
