
#######################################################################
#
#                 Cambridge Crystallographic Data Centre
#                                CCDC
#
#######################################################################
#
# If this CIF has been generated from an entry in the Cambridge
# Structural Database, then it will include bibliographic, chemical,
# crystal, experimental, refinement or atomic coordinate data resulting
# from the CCDC's data processing and validation procedures.
#
#######################################################################

data_CSD_CIF_MUWZUB
_audit_creation_date 2015-10-22
_audit_creation_method CSD-ConQuest-V1
_database_code_CSD MUWZUB
_database_code_depnum_ccdc_archive 'CCDC 1007711'
_chemical_formula_sum 'C18 H24 N2 O2'
_chemical_formula_moiety
;
C18 H24 N2 O2
;
_journal_coden_Cambridge 1336
_journal_volume 16
_journal_year 2014
_journal_page_first 4650
_journal_name_full 'Org.Lett. '
loop_
_publ_author_name
"Xie-Xue Peng"
"Yun-Jing Deng"
"Xiu-Long Yang"
"Lin Zhang"
"Wei Yu"
"Bing Han"
_chemical_name_systematic
;
(E)-1-(1,1-dimethylhexahydro-1H,6H-cyclopenta[c]pyrrolo[1,2-b][1,2]oxazol-3-yl
)-N-hydroxy-1-phenylmethanimine
;
_cell_volume    811.366
_exptl_crystal_colour 'colorless'
_exptl_crystal_density_diffrn 1.23
_exptl_crystal_description 'block'
_diffrn_ambient_temperature 293
#These two values have been output from a single CSD field.
_refine_ls_R_factor_gt 0.0586
_refine_ls_wR_factor_gt 0.0586
loop_
_citation_database_id_CSD
_citation_special_details
MUWZOV "is a stereoisomer of this entry"
_symmetry_cell_setting triclinic
_symmetry_space_group_name_H-M 'P -1'
_symmetry_Int_Tables_number 2
loop_
_symmetry_equiv_pos_site_id
_symmetry_equiv_pos_as_xyz
1 x,y,z
2 -x,-y,-z
_cell_length_a 6.4874(10)
_cell_length_b 11.048(2)
_cell_length_c 12.397(3)
_cell_angle_alpha 69.31(2)
_cell_angle_beta 77.922(17)
_cell_angle_gamma 88.901(14)
_cell_formula_units_Z 2
loop_
_atom_type_symbol
_atom_type_radius_bond
C 0.68
H 0.23
N 0.68
O 0.68
loop_
_atom_site_label
_atom_site_type_symbol
_atom_site_fract_x
_atom_site_fract_y
_atom_site_fract_z
O1 O 1.1129(3) 0.48107(18) 0.35741(15)
H1 H 1.17720 0.52790 0.37950
O2 O 0.4520(3) 0.39119(16) 0.64984(15)
C1 C 0.2832(5) 0.1461(4) 0.8946(2)
H2 H 0.15710 0.18380 0.92360
H3 H 0.27090 0.05320 0.93710
C2 C 0.6538(4) 0.3864(3) 0.2378(2)
H4 H 0.52920 0.41110 0.27500
C3 C 0.4793(5) 0.2068(3) 0.9077(3)
H5 H 0.49940 0.17050 0.98810
H6 H 0.47290 0.30010 0.88520
C4 C 0.5430(5) -0.0524(2) 0.7165(3)
H7 H 0.39310 -0.05230 0.72250
H8 H 0.57190 -0.08560 0.79430
H9 H 0.60280 -0.10620 0.67330
C5 C 0.6702(5) 0.3795(3) 0.1263(3)
H10 H 0.55720 0.40050 0.08900
C6 C 1.0039(4) 0.3176(3) 0.2367(3)
H11 H 1.11770 0.29570 0.27330
N1 N 0.6153(3) 0.31007(18) 0.62124(16)
N2 N 0.9370(3) 0.4185(2) 0.44641(17)
C7 C 0.8228(4) 0.3566(2) 0.2937(2)
C8 C 0.6532(4) 0.1713(3) 0.8229(2)
H12 H 0.69450 0.08400 0.86010
H13 H 0.77630 0.23090 0.79860
C9 C 0.8521(6) 0.3419(3) 0.0717(3)
H14 H 0.86280 0.33750 -0.00270
C10 C 1.0181(5) 0.3108(4) 0.1264(3)
H15 H 1.14140 0.28490 0.08910
C11 C 0.5768(4) 0.1514(2) 0.5332(2)
H16 H 0.43040 0.12800 0.53910
H17 H 0.66520 0.12630 0.47210
C12 C 0.8814(4) 0.0816(3) 0.6334(3)
H18 H 0.92000 0.04620 0.70860
H19 H 0.94530 0.16770 0.59200
H20 H 0.92960 0.02810 0.58780
C13 C 0.8048(4) 0.3613(2) 0.4135(2)
C14 C 0.6406(4) 0.0861(2) 0.6521(2)
C15 C 0.3164(4) 0.1771(3) 0.7621(2)
H21 H 0.24320 0.11110 0.74530
C16 C 0.6090(4) 0.2977(2) 0.5061(2)
H22 H 0.48570 0.34050 0.47920
C17 C 0.5601(4) 0.1805(2) 0.7158(2)
C18 C 0.2587(4) 0.3120(3) 0.6939(2)
H23 H 0.19730 0.31120 0.62920
H24 H 0.15760 0.34460 0.74510
#END
