
#######################################################################
#
#                 Cambridge Crystallographic Data Centre
#                                CCDC
#
#######################################################################
#
# If this CIF has been generated from an entry in the Cambridge
# Structural Database, then it will include bibliographic, chemical,
# crystal, experimental, refinement or atomic coordinate data resulting
# from the CCDC's data processing and validation procedures.
#
#######################################################################

data_CSD_CIF_MUXBOX
_audit_creation_date 2010-11-12
_audit_creation_method CSD-ConQuest-V1
_database_code_CSD MUXBOX
_database_code_depnum_ccdc_archive 'CCDC 768842'
_chemical_formula_sum 'C24 H28 N2 O10'
_chemical_formula_moiety
;
C24 H28 N2 O10
;
_journal_coden_Cambridge 1090
_journal_volume 21
_journal_year 2010
_journal_page_first 719
_journal_name_full 'Tetrahedron:Asymm. '
loop_
_publ_author_name
"A.Srikrishna"
"R.R.Babu"
"B.Beeraiah"
_chemical_name_systematic
;
(-)-Methyl 
(1aR,2R,3aS,4R,7aR,7bS)-2-((3,5-dinitrobenzoyl)oxy)-4-(methoxymethoxy)-5,7b-di
methyl-1,2,3,3a,4,7,7a,7b-octahydro-1aH-cyclopropa[a]naphthalene-1a-carboxylat
e
;
_chemical_name_common
;
(-)-Methyl 
(1R,2S,4R,5R,7S,8R)-(8-methoxymethyl)-2,9-dimethyl-5-(3,5-dinitrobenzoyloxy)tr
icyclo[5.4.0.0$2,4!]undec-9-ene-4-carboxylate
;
_chemical_melting_point 419.65
_cell_volume   1250.554
_exptl_crystal_colour 'colorless'
_exptl_crystal_density_diffrn 1.342
_exptl_special_details
;
Melting point range 419.65-421.65K
A nitro group has been modelled with a hydrogen atom bonded to oxygen. This 
extra hydrogen is not described in the paper, referred to in the name of the 
compound given by the authors, or shown in diagrams in the paper. As it seems 
highly unusual, the hydrogen is not included in the 2D representation
;
_exptl_crystal_description 'needle'
_exptl_crystal_preparation 'propan-2-ol'
_diffrn_ambient_temperature 291
#These two values have been output from a single CSD field.
_refine_ls_R_factor_gt 0.0613
_refine_ls_wR_factor_gt 0.0613
_symmetry_cell_setting monoclinic
_symmetry_space_group_name_H-M 'P 21'
_symmetry_Int_Tables_number 4
loop_
_symmetry_equiv_pos_site_id
_symmetry_equiv_pos_as_xyz
1 x,y,z
2 -x,1/2+y,-z
_cell_length_a 12.2773(3)
_cell_length_b 7.6632(10)
_cell_length_c 13.4463(3)
_cell_angle_alpha 90
_cell_angle_beta 98.689(10)
_cell_angle_gamma 90
_cell_formula_units_Z 2
loop_
_atom_type_symbol
_atom_type_radius_bond
C 0.68
H 0.23
N 0.68
O 0.68
loop_
_atom_site_label
_atom_site_type_symbol
_atom_site_fract_x
_atom_site_fract_y
_atom_site_fract_z
C1 C 0.7041(3) 0.2701(5) 0.0184(3)
C2 C 0.7674(3) 0.3259(5) 0.1169(3)
C3 C 0.6002(3) 0.0482(5) -0.0774(3)
C4 C 0.6858(3) 0.3786(5) -0.0645(2)
H1 H 0.71590 0.49010 -0.06200
C5 C 0.6615(3) 0.1024(5) 0.0118(3)
H2 H 0.67410 0.02740 0.06670
C6 C 0.5776(3) 0.1525(6) -0.1606(3)
H3 H 0.53510 0.11420 -0.21970
C7 C 0.6221(3) 0.3189(5) -0.1509(3)
C8 C 0.9481(3) 0.6779(5) 0.1913(3)
C9 C 0.7726(3) 0.6454(5) 0.2655(2)
H4 H 0.71890 0.55970 0.27980
H5 H 0.73440 0.73580 0.22340
C10 C 0.8577(3) 0.5602(5) 0.2125(2)
H6 H 0.89060 0.46340 0.25430
C11 C 0.9050(3) 0.8755(5) 0.3433(2)
H7 H 0.85610 0.97260 0.31920
C12 C 0.7987(4) 0.8917(6) 0.5191(3)
C13 C 0.8308(3) 0.7241(5) 0.3629(2)
H8 H 0.87830 0.63310 0.39750
C14 C 0.9762(3) 0.8389(5) 0.2599(3)
C15 C 0.9707(4) 0.9342(7) 0.4442(3)
H9 H 1.02730 0.84850 0.46650
H10 H 1.00680 1.04430 0.43490
C16 C 1.0985(4) 0.8916(7) 0.2842(3)
H11 H 1.12920 0.90070 0.22280
H12 H 1.13800 0.80470 0.32670
H13 H 1.10440 1.00210 0.31820
O1 O 0.7183(3) 0.6095(6) 0.4804(2)
C17 C 1.0391(3) 0.5892(6) 0.1474(3)
C18 C 0.8982(4) 0.9556(6) 0.5233(3)
H14 H 0.92610 1.01960 0.58030
C19 C 0.9226(4) 0.8630(5) 0.1537(3)
H15 H 0.96710 0.91110 0.10650
H16 H 0.84600 0.89890 0.14230
C20 C 0.7492(3) 0.7773(6) 0.4332(3)
H17 H 0.68400 0.83280 0.39520
C21 C 1.1298(4) 0.3202(8) 0.1337(4)
H18 H 1.12880 0.35100 0.06430
H19 H 1.11230 0.19870 0.13840
H20 H 1.20180 0.34210 0.17040
C22 C 0.7267(4) 0.9289(9) 0.5990(4)
H21 H 0.72150 0.82590 0.63870
H22 H 0.65440 0.96250 0.56720
H23 H 0.75860 1.02190 0.64170
O2 O 0.8041(2) 0.4883(3) 0.11566(17)
O3 O 1.0498(2) 0.4232(4) 0.1753(2)
O4 O 0.7808(3) 0.2292(4) 0.1887(2)
O5 O 0.6509(3) 0.5729(5) -0.2363(2)
O6 O 0.5895(3) -0.2312(5) -0.0144(3)
H24? H 0.65640 -0.24220 -0.01090
O7 O 0.4874(3) -0.1705(5) -0.1528(3)
O8 O 1.0944(3) 0.6534(5) 0.0905(3)
O9 O 0.5316(4) 0.3944(7) -0.3080(3)
N1 N 0.6004(3) 0.4374(6) -0.2374(3)
N2 N 0.5558(3) -0.1312(5) -0.0818(3)
O10 O 0.5699(4) 0.4760(8) 0.3845(4)
C23 C 0.6218(7) 0.2977(8) 0.3942(5)
H25 H 0.69760 0.30790 0.42420
H26 H 0.61760 0.24580 0.32870
H27 H 0.58330 0.22560 0.43580
C24 C 0.6111(6) 0.5856(12) 0.4653(5)
H28 H 0.57570 0.69860 0.45420
H29 H 0.58980 0.53740 0.52620
#END
