
#######################################################################
#
#                 Cambridge Crystallographic Data Centre
#                                CCDC
#
#######################################################################
#
# If this CIF has been generated from an entry in the Cambridge
# Structural Database, then it will include bibliographic, chemical,
# crystal, experimental, refinement or atomic coordinate data resulting
# from the CCDC's data processing and validation procedures.
#
#######################################################################

data_CSD_CIF_MUXKUM
_audit_creation_date 2010-11-04
_audit_creation_method CSD-ConQuest-V1
_database_code_CSD MUXKUM
_database_code_depnum_ccdc_archive 'CCDC 747012'
_chemical_formula_sum 'C18 H15 N1 O5'
_chemical_formula_moiety
;
C18 H15 N1 O5
;
_journal_coden_Cambridge 177
_journal_volume 8
_journal_year 2010
_journal_page_first 3207
_journal_name_full 'Org.Biomol.Chem. '
loop_
_publ_author_name
"Hu He"
"Li-Xin Dai"
"Shu-Li You"
_chemical_name_systematic
;
3-Benzoyl-4-(4-nitrobenzyl)dihydrofuran-2(3H)-one
;
_chemical_melting_point 382.15
_cell_volume   1560.173
_exptl_crystal_colour 'colorless'
_exptl_crystal_density_diffrn 1.385
_exptl_special_details
;
Melting point range 382.15-384.15K

;
_exptl_crystal_description 'prismatic'
_diffrn_ambient_temperature 293
#These two values have been output from a single CSD field.
_refine_ls_R_factor_gt 0.0607
_refine_ls_wR_factor_gt 0.0607
_symmetry_cell_setting monoclinic
_symmetry_space_group_name_H-M 'P 21/c'
_symmetry_Int_Tables_number 14
loop_
_symmetry_equiv_pos_site_id
_symmetry_equiv_pos_as_xyz
1 x,y,z
2 -x,1/2+y,1/2-z
3 -x,-y,-z
4 x,-1/2-y,-1/2+z
_cell_length_a 5.8692(11)
_cell_length_b 7.6984(14)
_cell_length_c 34.643(7)
_cell_angle_alpha 90
_cell_angle_beta 94.634(3)
_cell_angle_gamma 90
_cell_formula_units_Z 4
loop_
_atom_type_symbol
_atom_type_radius_bond
C 0.68
H 0.23
N 0.68
O 0.68
loop_
_atom_site_label
_atom_site_type_symbol
_atom_site_fract_x
_atom_site_fract_y
_atom_site_fract_z
O1 O -0.1406(3) 0.4655(2) 0.28212(5)
O2 O -0.2782(3) 0.69776(19) 0.25100(4)
O3 O 0.2560(3) 0.7169(3) 0.32055(5)
O4 O 0.2597(4) 1.1699(4) 0.48766(8)
O5 O 0.5104(4) 1.2779(3) 0.45270(7)
N1 N 0.3281(4) 1.2096(3) 0.45639(9)
C1 C -0.1834(4) 0.6168(3) 0.28230(6)
C2 C -0.3261(4) 0.8757(3) 0.26033(6)
H1 H -0.48460 0.88890 0.26580
H2 H -0.29650 0.95160 0.23900
C3 C -0.1670(4) 0.9191(3) 0.29602(6)
H3 H -0.01750 0.95270 0.28770
C4 C -0.1454(3) 0.7424(3) 0.31556(6)
H4 H -0.26740 0.72870 0.33300
C5 C 0.0846(3) 0.7106(3) 0.33780(6)
C6 C 0.0964(3) 0.6796(2) 0.37992(6)
C7 C -0.0811(4) 0.6100(3) 0.39853(6)
H5 H -0.21480 0.57610 0.38430
C8 C -0.0614(5) 0.5902(4) 0.43859(7)
H6 H -0.18000 0.54080 0.45110
C9 C 0.1342(5) 0.6442(4) 0.45955(7)
H7 H 0.14520 0.63510 0.48640
C10 C 0.3106(5) 0.7101(4) 0.44168(7)
H8 H 0.44260 0.74490 0.45630
C11 C 0.2966(4) 0.7264(3) 0.40199(6)
H9 H 0.42090 0.76870 0.38980
C12 C -0.2572(4) 1.0659(3) 0.31973(7)
H10 H -0.27410 1.16910 0.30370
H11 H -0.40750 1.03450 0.32720
C13 C -0.1051(4) 1.1075(3) 0.35556(7)
C14 C -0.1687(4) 1.0641(3) 0.39197(8)
H12 H -0.30940 1.01110 0.39420
C15 C -0.0279(4) 1.0979(3) 0.42509(8)
H13 H -0.07170 1.06760 0.44940
C16 C 0.1758(4) 1.1763(3) 0.42117(7)
C17 C 0.2442(4) 1.2235(3) 0.38581(8)
H14 H 0.38410 1.27830 0.38400
C18 C 0.1030(4) 1.1886(3) 0.35301(7)
H15 H 0.14840 1.22010 0.32890
#END
