
#######################################################################
#
#                 Cambridge Crystallographic Data Centre
#                                CCDC
#
#######################################################################
#
# If this CIF has been generated from an entry in the Cambridge
# Structural Database, then it will include bibliographic, chemical,
# crystal, experimental, refinement or atomic coordinate data resulting
# from the CCDC's data processing and validation procedures.
#
#######################################################################

data_CSD_CIF_MUXLAT
_audit_creation_date 2010-11-04
_audit_creation_method CSD-ConQuest-V1
_database_code_CSD MUXLAT
_database_code_depnum_ccdc_archive 'CCDC 747013'
_chemical_formula_sum 'C15 H15 N1 O5'
_chemical_formula_moiety
;
C15 H15 N1 O5
;
_journal_coden_Cambridge 177
_journal_volume 8
_journal_year 2010
_journal_page_first 3207
_journal_name_full 'Org.Biomol.Chem. '
loop_
_publ_author_name
"Hu He"
"Li-Xin Dai"
"Shu-Li You"
_chemical_name_systematic
;
4-(4-Nitrobenzyl)-2-oxaspiro[4.4]nonane-1,6-dione
;
_chemical_melting_point 402.15
_cell_volume   1397.337
_exptl_crystal_colour 'colorless'
_exptl_crystal_density_diffrn 1.375
_exptl_special_details
;
Melting point range 402.15-404.15K

;
_exptl_crystal_description 'prismatic'
_diffrn_ambient_temperature 293
#These two values have been output from a single CSD field.
_refine_ls_R_factor_gt 0.0632
_refine_ls_wR_factor_gt 0.0632
_symmetry_cell_setting monoclinic
_symmetry_space_group_name_H-M 'P 21/c'
_symmetry_Int_Tables_number 14
loop_
_symmetry_equiv_pos_site_id
_symmetry_equiv_pos_as_xyz
1 x,y,z
2 -x,1/2+y,1/2-z
3 -x,-y,-z
4 x,-1/2-y,-1/2+z
_cell_length_a 6.8274(9)
_cell_length_b 8.8266(11)
_cell_length_c 23.345(3)
_cell_angle_alpha 90
_cell_angle_beta 96.661(2)
_cell_angle_gamma 90
_cell_formula_units_Z 4
loop_
_atom_type_symbol
_atom_type_radius_bond
C 0.68
H 0.23
N 0.68
O 0.68
loop_
_atom_site_label
_atom_site_type_symbol
_atom_site_fract_x
_atom_site_fract_y
_atom_site_fract_z
N1 N 0.2540(3) 0.5493(4) -0.06198(12)
O1 O 0.3367(4) -0.2699(2) 0.12796(10)
O2 O 0.6605(3) -0.1371(2) 0.25404(9)
O3 O 0.6869(3) -0.0332(2) 0.16870(9)
O4 O 0.2725(3) 0.6793(3) -0.04434(12)
O5 O 0.2415(5) 0.5160(4) -0.11240(11)
C1 C 0.2818(4) -0.2092(3) 0.16866(10)
C2 C 0.1311(4) -0.2650(3) 0.20421(11)
H1 H 0.14400 -0.37340 0.21040
H2 H -0.00060 -0.24340 0.18580
C3 C 0.1712(4) -0.1803(3) 0.26070(11)
H3 H 0.05160 -0.16920 0.27900
H4 H 0.26940 -0.23240 0.28690
C4 C 0.2466(4) -0.0278(3) 0.2435(1)
H5 H 0.33010 0.01740 0.27540
H6 H 0.13750 0.04030 0.23210
C5 C 0.3639(3) -0.0570(2) 0.19307(9)
C6 C 0.5821(4) -0.0827(2) 0.21024(12)
C7 C 0.5569(4) 0.0343(3) 0.12228(12)
H7 H 0.53340 -0.03520 0.09000
H8 H 0.61360 0.12680 0.10900
C8 C 0.3668(3) 0.0676(2) 0.14755(9)
H9 H 0.38250 0.16490 0.16770
C9 C 0.1884(4) 0.0793(3) 0.10293(10)
H10 H 0.16900 -0.01690 0.08300
H11 H 0.07270 0.09870 0.12230
C10 C 0.2077(3) 0.2026(2) 0.05938(9)
C11 C 0.2277(3) 0.3525(3) 0.07636(9)
H12 H 0.22950 0.37690 0.11520
C12 C 0.2450(3) 0.4653(3) 0.03713(10)
H13 H 0.25910 0.56570 0.04900
C13 C 0.2410(3) 0.4276(3) -0.02005(10)
C14 C 0.2247(4) 0.2811(3) -0.03833(10)
H14 H 0.22490 0.25740 -0.07710
C15 C 0.2078(4) 0.1691(3) 0.00162(10)
H15 H 0.19620 0.06880 -0.01050
#END
