
#######################################################################
#
#                 Cambridge Crystallographic Data Centre
#                                CCDC
#
#######################################################################
#
# If this CIF has been generated from an entry in the Cambridge
# Structural Database, then it will include bibliographic, chemical,
# crystal, experimental, refinement or atomic coordinate data resulting
# from the CCDC's data processing and validation procedures.
#
#######################################################################

data_CSD_CIF_MUYHUL
_audit_creation_date 2015-10-23
_audit_creation_method CSD-ConQuest-V1
_database_code_CSD MUYHUL
_database_code_depnum_ccdc_archive 'CCDC 1057390'
_chemical_formula_sum 'C21 H25 N1 O5'
_chemical_formula_moiety
;
C21 H25 N1 O5
;
_journal_coden_Cambridge 388
_journal_volume 51
_journal_year 2015
_journal_page_first 530
_journal_name_full 'Zh.Org.Khim.(Russ.)(Russ.J.Org.Chem.) '
loop_
_publ_author_name
"N.F.Kirillov"
"E.A.Nikiforova"
"A.N.Vasyanin"
"M.V.Dmitriev"
_chemical_name_systematic
;
16-(3-nitrophenyl)-15-oxadispiro[5.1.5.3]hexadecane-7,14-dione
;
_chemical_melting_point 461
_cell_volume   1906.103
_exptl_crystal_colour 'yellow'
_exptl_crystal_density_diffrn 1.294
_exptl_special_details
;
Melting point range 461-462K

;
_exptl_crystal_description 'prism'
_exptl_crystal_preparation 'ethyl acetate'
_diffrn_ambient_temperature 293
#These two values have been output from a single CSD field.
_refine_ls_R_factor_gt 0.0503
_refine_ls_wR_factor_gt 0.0503
_symmetry_cell_setting monoclinic
_symmetry_space_group_name_H-M 'P 21/c'
_symmetry_Int_Tables_number 14
loop_
_symmetry_equiv_pos_site_id
_symmetry_equiv_pos_as_xyz
1 x,y,z
2 -x,1/2+y,1/2-z
3 -x,-y,-z
4 x,-1/2-y,-1/2+z
_cell_length_a 12.5406(19)
_cell_length_b 12.206(2)
_cell_length_c 12.515(2)
_cell_angle_alpha 90
_cell_angle_beta 95.731(14)
_cell_angle_gamma 90
_cell_formula_units_Z 4
loop_
_atom_type_symbol
_atom_type_radius_bond
C 0.68
H 0.23
N 0.68
O 0.68
loop_
_atom_site_label
_atom_site_type_symbol
_atom_site_fract_x
_atom_site_fract_y
_atom_site_fract_z
O1 O 0.16916(7) 0.56308(8) 0.19800(7)
C1 C 0.10347(10) 0.37834(11) -0.02359(10)
H1 H 0.08720 0.31390 0.01100
C2 C 0.18136(10) 0.45468(10) 0.15353(10)
H2 H 0.13030 0.40520 0.18320
C3 C 0.22667(10) 0.59449(11) 0.29074(10)
C4 C 0.15062(10) 0.46583(10) 0.03412(10)
O2 O 0.23506(10) 0.69087(9) 0.30776(9)
C5 C 0.16904(12) 0.56289(11) -0.01967(11)
H3 H 0.19910 0.62250 0.01870
O3 O -0.00045(12) 0.21898(10) -0.14784(11)
C6 C 0.08114(10) 0.38906(11) -0.1339(1)
N1 N 0.03508(10) 0.29487(11) -0.19607(11)
C7 C 0.26884(10) 0.50566(11) 0.36825(10)
C8 C 0.29753(11) 0.41086(11) 0.18582(11)
C9 C 0.30283(12) 0.40389(12) 0.30803(11)
O4 O 0.32882(14) 0.32223(11) 0.35808(10)
C10 C 0.10033(12) 0.48385(14) -0.18795(11)
H4 H 0.08480 0.48850 -0.26200
C11 C 0.36543(11) 0.54534(13) 0.44490(11)
H5 H 0.39880 0.48220 0.48150
H6 H 0.41770 0.57780 0.40240
O5 O 0.03501(12) 0.29735(13) -0.29385(10)
C12 C 0.38311(11) 0.49081(14) 0.15187(12)
H7 H 0.36910 0.50560 0.07560
H8 H 0.37750 0.55960 0.18980
C13 C 0.14310(14) 0.57170(13) -0.12970(12)
H9 H 0.15470 0.63740 -0.16430
C14 C 0.17555(12) 0.47227(14) 0.43467(12)
H10 H 0.11210 0.45730 0.38590
H11 H 0.19490 0.40540 0.47370
C15 C 0.31211(14) 0.29741(13) 0.13572(14)
H12 H 0.26440 0.24570 0.16560
H13 H 0.29180 0.30160 0.05900
C16 C 0.33810(13) 0.62810(15) 0.52867(12)
H14 H 0.40110 0.64150 0.57840
H15 H 0.31760 0.69680 0.49350
C17 C 0.14947(14) 0.56012(18) 0.51363(13)
H16 H 0.09250 0.53450 0.55440
H17 H 0.12430 0.62530 0.47460
C18 C 0.49734(14) 0.44640(19) 0.17502(17)
H18 H 0.54770 0.49800 0.14920
H19 H 0.51450 0.43820 0.25190
C19 C 0.24775(16) 0.58853(18) 0.59049(13)
H20 H 0.22940 0.64520 0.63980
H21 H 0.27080 0.52430 0.63220
C20 C 0.50808(17) 0.3359(2) 0.1202(2)
H22 H 0.49690 0.34540 0.04290
H23 H 0.58000 0.30770 0.13800
C21 C 0.42754(18) 0.25460(19) 0.15522(19)
H24 H 0.44410 0.23900 0.23110
H25 H 0.43340 0.18660 0.11610
#END
