
#######################################################################
#
#                 Cambridge Crystallographic Data Centre
#                                CCDC
#
#######################################################################
#
# If this CIF has been generated from an entry in the Cambridge
# Structural Database, then it will include bibliographic, chemical,
# crystal, experimental, refinement or atomic coordinate data resulting
# from the CCDC's data processing and validation procedures.
#
#######################################################################

data_CSD_CIF_MUZNEC
_audit_creation_date 2015-10-23
_audit_creation_method CSD-ConQuest-V1
_database_code_CSD MUZNEC
_database_code_depnum_ccdc_archive 'CCDC 932815'
_chemical_formula_sum 'C3 H4 N4 O2'
_chemical_formula_moiety
;
C3 H4 N4 O2
;
_journal_coden_Cambridge 1287
_journal_volume 26
_journal_year 2014
_journal_page_first 4744
_journal_name_full 'Asian J.Chem. '
loop_
_publ_author_name
"Huan Huo"
"Bo-Zhou Wang"
"Jun Dong"
"Lin Ma"
"Cheng Zhou"
_chemical_name_systematic
;
4-Methyl-5-nitro-2H-1,2,3-triazole
;
_cell_volume   1102.896
_exptl_crystal_density_diffrn 1.555
_diffrn_ambient_temperature 296
#These two values have been output from a single CSD field.
_refine_ls_R_factor_gt 0.049
_refine_ls_wR_factor_gt 0.049
_symmetry_cell_setting orthorhombic
_symmetry_space_group_name_H-M 'P b c a'
_symmetry_Int_Tables_number 61
loop_
_symmetry_equiv_pos_site_id
_symmetry_equiv_pos_as_xyz
1 x,y,z
2 1/2-x,-y,1/2+z
3 -x,1/2+y,1/2-z
4 1/2+x,1/2-y,-z
5 -x,-y,-z
6 -1/2+x,y,-1/2-z
7 x,-1/2-y,-1/2+z
8 -1/2-x,-1/2+y,z
_cell_length_a 8.7139(17)
_cell_length_b 9.8198(19)
_cell_length_c 12.889(3)
_cell_angle_alpha 90
_cell_angle_beta 90
_cell_angle_gamma 90
_cell_formula_units_Z 8
loop_
_atom_type_symbol
_atom_type_radius_bond
C 0.68
H 0.23
N 0.68
O 0.68
loop_
_atom_site_label
_atom_site_type_symbol
_atom_site_fract_x
_atom_site_fract_y
_atom_site_fract_z
N1 N 0.5694(2) 0.48826(19) 0.88743(14)
N2 N 0.3107(2) 0.45994(16) 0.82582(14)
N3 N 0.2136(2) 0.36221(18) 0.81198(15)
H1 H 0.12170 0.37030 0.78860
N4 N 0.28217(19) 0.24572(16) 0.84068(13)
O1 O 0.5627(2) 0.60924(17) 0.86328(16)
O2 O 0.6776(2) 0.43573(18) 0.93169(15)
C1 C 0.4407(2) 0.40443(19) 0.86332(14)
C2 C 0.4256(2) 0.26641(19) 0.87391(14)
C3 C 0.5278(3) 0.1566(2) 0.9115(2)
H2 H 0.52720 0.15540 0.98600
H3 H 0.63040 0.17260 0.88720
H4 H 0.49210 0.07050 0.88580
#END
