
#######################################################################
#
#                 Cambridge Crystallographic Data Centre
#                                CCDC
#
#######################################################################
#
# If this CIF has been generated from an entry in the Cambridge
# Structural Database, then it will include bibliographic, chemical,
# crystal, experimental, refinement or atomic coordinate data resulting
# from the CCDC's data processing and validation procedures.
#
#######################################################################

data_CSD_CIF_MXBPOX
_audit_creation_date 1978-02-24
_audit_creation_method CSD-ConQuest-V1
_database_code_CSD MXBPOX
_chemical_formula_sum 'C15 H15 N1 O5'
_chemical_formula_moiety
;
C15 H15 N1 O5
;
_journal_coden_Cambridge 189
_journal_volume 6
_journal_year 1977
_journal_page_first 793
_journal_name_full 'Cryst.Struct.Commun. '
loop_
_publ_author_name
"J.Guilhem"
_chemical_name_systematic
;
4,9-Dimethoxy-7-methyl-5H-furo(3,2-g)(1)benzopyran-5-one oxime methyl ether
;
_chemical_name_common
;
Khellin oxime methyl ether
;
_cell_volume   1375.728
_diffrn_ambient_temperature ?
_diffrn_special_details
;
The study was carried out at room temperature,in the range 283-303K

;
#These two values have been output from a single CSD field.
_refine_ls_R_factor_gt 0.056
_refine_ls_wR_factor_gt 0.056
_symmetry_cell_setting monoclinic
_symmetry_space_group_name_H-M 'P 21/a'
_symmetry_Int_Tables_number 14
loop_
_symmetry_equiv_pos_site_id
_symmetry_equiv_pos_as_xyz
1 x,y,z
2 1/2-x,1/2+y,-z
3 -x,-y,-z
4 -1/2+x,-1/2-y,z
_cell_length_a 7.902(4)
_cell_length_b 14.722(6)
_cell_length_c 12.111(5)
_cell_angle_alpha 90
_cell_angle_beta 102.46(5)
_cell_angle_gamma 90
_cell_formula_units_Z 4
loop_
_atom_type_symbol
_atom_type_radius_bond
C 0.68
H 0.23
N 0.68
O 0.68
loop_
_atom_site_label
_atom_site_type_symbol
_atom_site_fract_x
_atom_site_fract_y
_atom_site_fract_z
O1 O -0.23270 -0.02250 -0.02120
C2 C -0.20940 0.06280 -0.06600
C3 C -0.16750 0.05670 -0.16580
C31 C -0.15890 -0.03940 -0.19120
C4 C -0.11910 -0.08690 -0.28010
O40 O -0.06910 -0.03900 -0.36520
C41 C -0.21030 -0.01590 -0.45680
C42 C -0.12080 -0.18300 -0.27750
C5 C -0.07870 -0.24250 -0.36480
N50 N -0.04270 -0.20720 -0.45540
O51 O -0.01150 -0.27800 -0.52870
C52 C 0.03700 -0.23640 -0.62390
C6 C -0.08380 -0.33940 -0.34310
C7 C -0.12900 -0.37210 -0.25220
C70 C -0.14330 -0.47040 -0.22310
O8 O -0.17190 -0.31800 -0.17070
C81 C -0.16500 -0.22390 -0.18230
C9 C -0.20600 -0.17760 -0.09210
O90 O -0.24170 -0.22760 -0.00540
C91 C -0.32020 -0.18720 0.07510
C92 C -0.20070 -0.08400 -0.09960
H2 H -0.21800 0.11500 -0.01200
H3 H -0.15100 0.11200 -0.21200
H4 H -0.07200 -0.20400 -0.66900
H5 H 0.16600 -0.19800 -0.59200
H6 H 0.00700 -0.28500 -0.69500
H7 H -0.43700 -0.15000 0.03100
H8 H -0.22000 -0.14000 0.13000
H9 H -0.38200 -0.23200 0.11600
H10 H -0.05200 -0.38500 -0.39900
H11 H -0.27600 -0.48100 -0.22800
H12 H -0.06100 -0.47900 -0.13600
H13 H -0.08300 -0.51300 -0.28100
H14 H -0.17600 0.02300 -0.50900
H15 H -0.29100 0.03000 -0.41400
H16 H -0.28200 -0.07200 -0.49100
#END
