
#######################################################################
#
#                 Cambridge Crystallographic Data Centre
#                                CCDC
#
#######################################################################
#
# If this CIF has been generated from an entry in the Cambridge
# Structural Database, then it will include bibliographic, chemical,
# crystal, experimental, refinement or atomic coordinate data resulting
# from the CCDC's data processing and validation procedures.
#
#######################################################################

data_CSD_CIF_NABMIM
_audit_creation_date 1996-06-25
_audit_creation_method CSD-ConQuest-V1
_database_code_CSD NABMIM
_database_code_depnum_ccdc_archive 'CCDC 1215582'
_chemical_formula_sum 'C4 H5 N3 O8'
_chemical_formula_moiety
;
C4 H5 N3 O8
;
_journal_coden_Cambridge 1078
_journal_year 1996
_journal_name_full 'CSD Communication(Private Communication) '
loop_
_publ_author_name
"H.Adolf"
"A.L.Rheingold"
"M.B.Allen"
_chemical_name_systematic
;
4,4,4-Trinitrobutanoic acid
;
_cell_volume    914.277
_exptl_crystal_colour 'colorless'
_exptl_crystal_density_diffrn 1.621
_exptl_special_details
;
contribution from Department of Chemistry, University of Delaware, Newark DE 
19716, USA
;
_diffrn_ambient_temperature ?
_diffrn_special_details
;
The study was carried out at room temperature,in the range 283-303K

;
#These two values have been output from a single CSD field.
_refine_ls_R_factor_gt 0.0612
_refine_ls_wR_factor_gt 0.0612
_symmetry_cell_setting monoclinic
_symmetry_space_group_name_H-M 'P 21/n'
_symmetry_Int_Tables_number 14
loop_
_symmetry_equiv_pos_site_id
_symmetry_equiv_pos_as_xyz
1 x,y,z
2 1/2-x,1/2+y,1/2-z
3 -x,-y,-z
4 -1/2+x,-1/2-y,-1/2+z
_cell_length_a 6.219(1)
_cell_length_b 17.263(4)
_cell_length_c 8.589(2)
_cell_angle_alpha 90
_cell_angle_beta 97.47(2)
_cell_angle_gamma 90
_cell_formula_units_Z 4
loop_
_atom_type_symbol
_atom_type_radius_bond
C 0.68
H 0.23
N 0.68
O 0.68
loop_
_atom_site_label
_atom_site_type_symbol
_atom_site_fract_x
_atom_site_fract_y
_atom_site_fract_z
O1 O 0.2534(5) 0.5257(2) -0.4204(4)
O2 O 0.4768(5) 0.4242(2) -0.3870(3)
O3 O 0.4386(7) 0.4281(3) 0.1117(5)
O4 O 0.1453(7) 0.4163(2) 0.2136(4)
O5 O 0.3194(8) 0.2129(2) -0.0250(6)
O6 O 0.3549(9) 0.2626(3) 0.2032(6)
O7 O -0.1155(6) 0.2704(2) 0.0495(5)
O8 O -0.1599(5) 0.3826(3) -0.0570(4)
N1 N 0.2628(6) 0.4009(3) 0.1193(4)
N2 N 0.2982(7) 0.2638(3) 0.0626(6)
N3 N -0.0517(5) 0.3290(2) -0.0036(4)
C1 C 0.3179(6) 0.4597(2) -0.3575(5)
C2 C 0.1792(6) 0.4329(3) -0.2364(5)
C3 C 0.2605(5) 0.3564(2) -0.1618(5)
C4 C 0.1929(5) 0.3388(2) -0.0035(4)
H1 H 0.3363(91) 0.5437(36) -0.4845(79)
H2 H 0.1812(82) 0.4764(32) -0.1498(74)
H3 H 0.0354(85) 0.4290(27) -0.2894(57)
H4 H 0.4270(74) 0.3519(23) -0.1376(50)
H5 H 0.2183(60) 0.3159(22) -0.2310(43)
#END
