
#######################################################################
#
#                 Cambridge Crystallographic Data Centre
#                                CCDC
#
#######################################################################
#
# If this CIF has been generated from an entry in the Cambridge
# Structural Database, then it will include bibliographic, chemical,
# crystal, experimental, refinement or atomic coordinate data resulting
# from the CCDC's data processing and validation procedures.
#
#######################################################################

data_CSD_CIF_NABMUY01
_audit_creation_date 1997-07-20
_audit_creation_method CSD-ConQuest-V1
_database_code_CSD NABMUY01
_database_code_depnum_ccdc_archive 'CCDC 124270'
_database_code_depnum_ccdc_journal 1003/5116
_chemical_formula_sum 'C6 H10 N6 O10'
_chemical_formula_moiety
;
C6 H10 N6 O10
;
_journal_coden_Cambridge 1003
_journal_volume 27
_journal_year 1997
_journal_page_first 67
_journal_name_full 'J.Chem.Cryst. '
loop_
_publ_author_name
"A.J.Bracuti"
_chemical_name_systematic
;
bis(2,2-Dinitropropyl)nitramine
;
_cell_volume    628.060
_exptl_crystal_colour 'colorless'
_exptl_crystal_density_diffrn 1.72
_diffrn_ambient_temperature ?
_diffrn_special_details
;
The study was carried out at room temperature,in the range 283-303K

;
#These two values have been output from a single CSD field.
_refine_ls_R_factor_gt 0.036
_refine_ls_wR_factor_gt 0.036
_symmetry_cell_setting monoclinic
_symmetry_space_group_name_H-M 'C 2'
_symmetry_Int_Tables_number 5
loop_
_symmetry_equiv_pos_site_id
_symmetry_equiv_pos_as_xyz
1 x,y,z
2 -x,y,-z
3 1/2+x,1/2+y,z
4 1/2-x,1/2+y,-z
_cell_length_a 10.726(4)
_cell_length_b 5.992(3)
_cell_length_c 10.400(4)
_cell_angle_alpha 90
_cell_angle_beta 110.01(3)
_cell_angle_gamma 90
_cell_formula_units_Z 2
loop_
_atom_type_symbol
_atom_type_radius_bond
C 0.68
H 0.23
N 0.68
O 0.68
loop_
_atom_site_label
_atom_site_type_symbol
_atom_site_fract_x
_atom_site_fract_y
_atom_site_fract_z
O1 O -0.0760(2) -0.0934(3) -0.1011(2)
O2 O -0.1119(2) 0.0688(4) 0.2211(2)
O3 O 0.0784(2) 0.0397(4) 0.3826(2)
O4 O -0.1409(1) 0.5747(3) 0.1029(1)
O5 O -0.1288(1) 0.5253(1) 0.3111(1)
N1 N 0.00000 0.00000 0.00000
N2 N 0.00000 0.2282(4) 0.00000
N3 N -0.0020(2) 0.1375(4) 0.2883(2)
N4 N -0.0893(1) 0.4987(3) 0.2155(2)
C1 C 0.0845(2) 0.3408(4) 0.1222(2)
C2 C 0.0381(2) 0.3621(4) 0.2464(2)
C3 C 0.1465(2) 0.4712(5) 0.3634(2)
H1 H 0.097(2) 0.489(5) 0.096(2)
H2 H 0.169(2) 0.276(5) 0.159(2)
H3 H 0.230(2) 0.371(6) 0.383(2)
H4 H 0.157(3) 0.629(7) 0.327(3)
H5 H 0.125(3) 0.476(5) 0.446(3)
O1A O 0.0760(2) -0.0934(3) 0.1011(2)
C1A C -0.0845(2) 0.3408(4) -0.1222(2)
C2A C -0.0381(2) 0.3621(4) -0.2464(2)
N3A N 0.0020(2) 0.1375(4) -0.2883(2)
O2A O 0.1119(2) 0.0688(4) -0.2211(2)
O3A O -0.0784(2) 0.0397(4) -0.3826(2)
N4A N 0.0893(1) 0.4987(3) -0.2155(2)
O4A O 0.1409(1) 0.5747(3) -0.1029(1)
O5A O 0.1288(1) 0.5253(1) -0.3111(1)
C3A C -0.1465(2) 0.4712(5) -0.3634(2)
H3A H -0.230(2) 0.371(6) -0.383(2)
H4A H -0.157(3) 0.629(7) -0.327(3)
H5A H -0.125(3) 0.476(5) -0.446(3)
H1A H -0.097(2) 0.489(5) -0.096(2)
H2A H -0.169(2) 0.276(5) -0.159(2)
#END
