
#######################################################################
#
#                 Cambridge Crystallographic Data Centre
#                                CCDC
#
#######################################################################
#
# If this CIF has been generated from an entry in the Cambridge
# Structural Database, then it will include bibliographic, chemical,
# crystal, experimental, refinement or atomic coordinate data resulting
# from the CCDC's data processing and validation procedures.
#
#######################################################################

data_CSD_CIF_NACDIG
_audit_creation_date 2011-02-28
_audit_creation_method CSD-ConQuest-V1
_database_code_CSD NACDIG
_database_code_depnum_ccdc_archive 'CCDC 687450'
_chemical_formula_sum 'C24 H19 N1 O4'
_chemical_formula_moiety
;
C24 H19 N1 O4
;
_journal_coden_Cambridge 35
_journal_volume 75
_journal_year 2010
_journal_page_first 2528
_journal_name_full 'J.Org.Chem. '
loop_
_publ_author_name
"Min Jiang"
"Yin Wei"
"Min Shi"
_chemical_name_systematic
;
2-(Diphenylmethylene)cyclobutyl 4-nitrobenzoate
;
_cell_volume   1925.393
_exptl_crystal_colour 'colorless'
_exptl_crystal_density_diffrn 1.33
_exptl_crystal_description 'prismatic'
_diffrn_ambient_temperature 293
#These two values have been output from a single CSD field.
_refine_ls_R_factor_gt 0.0664
_refine_ls_wR_factor_gt 0.0664
_symmetry_cell_setting monoclinic
_symmetry_space_group_name_H-M 'P 21/c'
_symmetry_Int_Tables_number 14
loop_
_symmetry_equiv_pos_site_id
_symmetry_equiv_pos_as_xyz
1 x,y,z
2 -x,1/2+y,1/2-z
3 -x,-y,-z
4 x,-1/2-y,-1/2+z
_cell_length_a 18.083(2)
_cell_length_b 13.6403(15)
_cell_length_c 7.8790(9)
_cell_angle_alpha 90
_cell_angle_beta 97.809(2)
_cell_angle_gamma 90
_cell_formula_units_Z 4
loop_
_atom_type_symbol
_atom_type_radius_bond
C 0.68
H 0.23
N 0.68
O 0.68
loop_
_atom_site_label
_atom_site_type_symbol
_atom_site_fract_x
_atom_site_fract_y
_atom_site_fract_z
N1 N 0.59245(13) 0.37119(14) 0.6625(3)
O1 O 0.39598(10) 0.40063(14) 1.2787(2)
O2 O 0.30783(9) 0.38349(11) 1.05308(19)
O3 O 0.57208(12) 0.37975(18) 0.5113(3)
O4 O 0.65783(11) 0.36253(16) 0.7229(3)
C1 C 0.25232(14) 0.39972(17) 1.1645(3)
H1 H 0.25890 0.46310 1.22330
C2 C 0.24061(16) 0.3162(2) 1.2875(3)
H2 H 0.24890 0.33510 1.40720
H3 H 0.26810 0.25710 1.26820
C3 C 0.15781(15) 0.3122(2) 1.2113(4)
H4 H 0.14180 0.24860 1.16510
H5 H 0.12430 0.33660 1.28790
C4 C 0.17384(13) 0.38568(16) 1.0767(3)
C5 C 0.13735(13) 0.42728(16) 0.9377(3)
C6 C 0.37889(14) 0.38870(16) 1.1280(3)
C7 C 0.43243(12) 0.37984(14) 1.0029(3)
C8 C 0.41132(14) 0.38537(17) 0.8275(3)
H6 H 0.36100 0.39110 0.78490
C9 C 0.46270(14) 0.38266(17) 0.7157(3)
H7 H 0.44810 0.38700 0.59810
C10 C 0.53670(13) 0.37341(15) 0.7820(3)
C11 C 0.56001(14) 0.36740(17) 0.9548(3)
H8 H 0.61050 0.36100 0.99610
C12 C 0.50823(14) 0.37090(16) 1.0651(3)
H9 H 0.52340 0.36730 1.18250
C13 C 0.05883(13) 0.40586(18) 0.8652(3)
C14 C 0.02174(15) 0.3224(2) 0.9052(4)
H10 H 0.04580 0.27840 0.98430
C15 C -0.05023(17) 0.3027(3) 0.8305(5)
H11 H -0.07390 0.24590 0.85980
C16 C -0.08670(17) 0.3657(3) 0.7146(4)
H12 H -0.13470 0.35130 0.66210
C17 C -0.05217(18) 0.4502(3) 0.6759(4)
H13 H -0.07740 0.49480 0.59960
C18 C 0.02049(17) 0.4698(2) 0.7499(4)
H14 H 0.04370 0.52710 0.72100
C19 C 0.17936(12) 0.50031(16) 0.8458(3)
C20 C 0.20580(15) 0.47729(18) 0.6957(3)
H15 H 0.19450 0.41640 0.64580
C21 C 0.24875(16) 0.5420(2) 0.6170(3)
H16 H 0.26700 0.52390 0.51660
C22 C 0.26437(14) 0.63165(18) 0.6856(3)
H17 H 0.29320 0.67550 0.63240
C23 C 0.23792(14) 0.65752(19) 0.8323(4)
H18 H 0.24840 0.71930 0.87920
C24 C 0.19524(15) 0.59217(18) 0.9126(3)
H19 H 0.17710 0.61070 1.01280
#END
