
#######################################################################
#
#                 Cambridge Crystallographic Data Centre
#                                CCDC
#
#######################################################################
#
# If this CIF has been generated from an entry in the Cambridge
# Structural Database, then it will include bibliographic, chemical,
# crystal, experimental, refinement or atomic coordinate data resulting
# from the CCDC's data processing and validation procedures.
#
#######################################################################

data_CSD_CIF_NACGAB
_audit_creation_date 2011-02-28
_audit_creation_method CSD-ConQuest-V1
_database_code_CSD NACGAB
_database_code_depnum_ccdc_archive 'CCDC 797983'
_chemical_formula_sum 'C26 H26 N2 O3'
_chemical_formula_moiety
;
C26 H26 N2 O3
;
_journal_coden_Cambridge 35
_journal_volume 75
_journal_year 2010
_journal_page_first 2893
_journal_name_full 'J.Org.Chem. '
loop_
_publ_author_name
"Xiao-Feng Xia"
"Xing-Zhong Shu"
"Ke-Gong Ji"
"Yan-Fang Yang"
"A.Shaukat"
"Xue-Yuan Liu"
"Yong-Min Liang"
_chemical_name_systematic
;
1-(2-Benzylphenyl)-5-(nitromethyl)-1,3,4,4a,5,10a-hexahydro-2H-chromeno[2,3-b]
pyridine
;
_cell_volume   1103.015
_exptl_crystal_density_diffrn 1.248
_diffrn_ambient_temperature 296
#These two values have been output from a single CSD field.
_refine_ls_R_factor_gt 0.049
_refine_ls_wR_factor_gt 0.049
_symmetry_cell_setting triclinic
_symmetry_space_group_name_H-M 'P -1'
_symmetry_Int_Tables_number 2
loop_
_symmetry_equiv_pos_site_id
_symmetry_equiv_pos_as_xyz
1 x,y,z
2 -x,-y,-z
_cell_length_a 8.9828(9)
_cell_length_b 10.4604(10)
_cell_length_c 12.0419(11)
_cell_angle_alpha 84.888(2)
_cell_angle_beta 80.135(2)
_cell_angle_gamma 82.659(2)
_cell_formula_units_Z 2
loop_
_atom_type_symbol
_atom_type_radius_bond
C 0.68
H 0.23
N 0.68
O 0.68
loop_
_atom_site_label
_atom_site_type_symbol
_atom_site_fract_x
_atom_site_fract_y
_atom_site_fract_z
C1 C -0.1138(2) 0.33640(19) 0.36265(17)
C2 C -0.0473(3) 0.2790(2) 0.45258(18)
H1 H 0.02830 0.31770 0.47640
C3 C -0.2686(3) 0.1620(2) 0.3855(2)
H2 H -0.34410 0.12240 0.36250
C4 C -0.2253(3) 0.2756(2) 0.32971(17)
H3 H -0.27180 0.31180 0.26910
C5 C -0.0912(3) 0.1652(2) 0.50763(17)
H4 H -0.04500 0.12790 0.56810
C6 C -0.2014(3) 0.1073(2) 0.4741(2)
H5 H -0.23080 0.03060 0.51150
C7 C -0.1541(2) 0.69882(17) 0.28187(15)
C8 C -0.1717(2) 0.58068(18) 0.34243(17)
C9 C -0.2833(3) 0.5776(2) 0.43796(19)
H6 H -0.29620 0.49940 0.47950
C10 C -0.2463(2) 0.80857(19) 0.31720(18)
H7 H -0.23390 0.88750 0.27670
C11 C -0.3747(3) 0.6870(2) 0.47248(19)
H8 H -0.44860 0.68250 0.53660
C12 C -0.3567(3) 0.8024(2) 0.4122(2)
H9 H -0.41860 0.87680 0.43500
C13 C -0.0691(3) 0.4614(2) 0.3036(2)
H10 H -0.06750 0.45740 0.22320
H11 H 0.03360 0.47010 0.31440
O1 O 0.07764(14) 0.87949(11) 0.2129(1)
N1 N -0.03915(17) 0.70159(14) 0.18238(12)
C14 C 0.1009(2) 0.74095(16) 0.19882(15)
H12 H 0.12950 0.69600 0.26830
C15 C 0.2036(2) 0.94378(17) 0.20283(15)
C16 C 0.3760(2) 0.75371(17) 0.12251(16)
H13 H 0.44820 0.75160 0.05160
C17 C 0.2279(2) 0.70890(17) 0.10163(15)
H14 H 0.24410 0.61470 0.09870
C18 C 0.3484(2) 0.89053(18) 0.15806(15)
C19 C 0.1807(2) 0.7664(2) -0.00950(15)
H15 H 0.17110 0.85990 -0.01120
H16 H 0.25820 0.73880 -0.07190
C20 C 0.1772(3) 1.06880(18) 0.23780(17)
H17 H 0.07930 1.10290 0.26780
C21 C 0.4664(2) 0.9677(2) 0.14820(19)
H18 H 0.56460 0.93470 0.11780
C22 C -0.0916(2) 0.7573(2) 0.07710(16)
H19 H -0.11210 0.85050 0.07890
H20 H -0.18500 0.72370 0.06980
C23 C 0.0297(3) 0.7229(2) -0.02248(17)
H21 H -0.00200 0.76400 -0.09140
H22 H 0.04230 0.63010 -0.02840
C24 C 0.2957(3) 1.1421(2) 0.2281(2)
H23 H 0.27840 1.22550 0.25220
C25 C 0.4403(3) 1.0919(2) 0.1826(2)
H24 H 0.52050 1.14190 0.17500
C26 C 0.4488(2) 0.66691(19) 0.21311(19)
H25 H 0.53590 0.70430 0.22850
H26 H 0.37590 0.66320 0.28250
N2 N 0.4983(3) 0.5343(2) 0.1772(3)
O2 O 0.4305(3) 0.4483(2) 0.2251(3)
O3 O 0.6047(3) 0.5208(2) 0.1003(3)
#END
