
#######################################################################
#
#                 Cambridge Crystallographic Data Centre
#                                CCDC
#
#######################################################################
#
# If this CIF has been generated from an entry in the Cambridge
# Structural Database, then it will include bibliographic, chemical,
# crystal, experimental, refinement or atomic coordinate data resulting
# from the CCDC's data processing and validation procedures.
#
#######################################################################

data_CSD_CIF_NADDEC
_audit_creation_date 2004-11-24
_audit_creation_method CSD-ConQuest-V1
_database_code_CSD NADDEC
_database_code_depnum_ccdc_archive 'CCDC 225074'
_chemical_formula_sum 'C13 H15 N1 O4'
_chemical_formula_moiety
;
C13 H15 N1 O4
;
_journal_coden_Cambridge 10
_journal_volume 87
_journal_year 2004
_journal_page_first 1377
_journal_name_full 'Helv.Chim.Acta '
loop_
_publ_author_name
"Yin-Su Wu"
"Wei-Yan Shao"
"Chuan-Qi Zheng"
"Zhong-Li Huang"
"Jiwen Cai"
"Qin-Ying Deng"
_chemical_name_systematic
;
anti-2-(Hydroxy(4-nitrophenyl)methyl)cyclohexanone
;
_cell_volume   1242.909
_exptl_crystal_colour 'colorless'
_exptl_crystal_density_diffrn 1.332
_exptl_crystal_description 'block'
_exptl_crystal_preparation 'ethyl acetate'
_diffrn_ambient_temperature 293
#These two values have been output from a single CSD field.
_refine_ls_R_factor_gt 0.0515
_refine_ls_wR_factor_gt 0.0515
loop_
_citation_database_id_CSD
_citation_special_details
PADXOJ "is a stereoisomer of this entry"
_symmetry_cell_setting monoclinic
_symmetry_space_group_name_H-M 'P 21/c'
_symmetry_Int_Tables_number 14
loop_
_symmetry_equiv_pos_site_id
_symmetry_equiv_pos_as_xyz
1 x,y,z
2 -x,1/2+y,1/2-z
3 -x,-y,-z
4 x,-1/2-y,-1/2+z
_cell_length_a 5.4517(6)
_cell_length_b 25.590(3)
_cell_length_c 8.9124(10)
_cell_angle_alpha 90
_cell_angle_beta 91.543(2)
_cell_angle_gamma 90
_cell_formula_units_Z 4
loop_
_atom_type_symbol
_atom_type_radius_bond
C 0.68
H 0.23
N 0.68
O 0.68
loop_
_atom_site_label
_atom_site_type_symbol
_atom_site_fract_x
_atom_site_fract_y
_atom_site_fract_z
O1 O 0.4435(2) 0.53335(5) 0.63043(14)
O2 O 0.1883(2) 0.55238(4) 0.35519(12)
H1 H 0.29350 0.53300 0.39200
O3 O -0.4668(3) 0.78015(6) 0.1328(2)
O4 O -0.6387(4) 0.71329(7) 0.0321(2)
N1 N -0.4887(3) 0.73332(6) 0.1176(2)
C1 C 0.2538(3) 0.54706(6) 0.68664(17)
C2 C 0.1917(4) 0.53265(7) 0.84424(19)
H2 H 0.32740 0.51360 0.89090
H3 H 0.04860 0.51010 0.84280
C3 C 0.1400(4) 0.58143(8) 0.9347(2)
H4 H 0.09020 0.57160 1.03450
H5 H 0.28840 0.60220 0.94490
C4 C -0.0596(5) 0.61360(9) 0.8596(2)
H6 H -0.08750 0.64480 0.91840
H7 H -0.21080 0.59360 0.85540
C5 C 0.0093(4) 0.62910(7) 0.7014(2)
H8 H 0.15090 0.65200 0.70680
H9 H -0.12560 0.64840 0.65460
C6 C 0.0687(3) 0.58139(5) 0.60372(15)
H10 H -0.08260 0.56120 0.58860
C7 C 0.1605(2) 0.59692(5) 0.44900(15)
H11 H 0.32000 0.61420 0.46190
C8 C -0.0140(2) 0.63348(5) 0.36568(15)
C9 C 0.0336(3) 0.68655(6) 0.35995(19)
H12 H 0.17180 0.70000 0.40980
C10 C -0.1229(3) 0.71988(6) 0.2806(2)
H13 H -0.09160 0.75560 0.27710
C11 C -0.3251(3) 0.69904(6) 0.20736(17)
C12 C -0.3798(3) 0.64660(6) 0.21286(17)
H14 H -0.51930 0.63340 0.16380
C13 C -0.2224(3) 0.61392(5) 0.29316(16)
H15 H -0.25690 0.57840 0.29850
#END
