
#######################################################################
#
#                 Cambridge Crystallographic Data Centre
#                                CCDC
#
#######################################################################
#
# If this CIF has been generated from an entry in the Cambridge
# Structural Database, then it will include bibliographic, chemical,
# crystal, experimental, refinement or atomic coordinate data resulting
# from the CCDC's data processing and validation procedures.
#
#######################################################################

data_CSD_CIF_NADHOP01
_audit_creation_date 2002-02-05
_audit_creation_method CSD-ConQuest-V1
_database_code_CSD NADHOP01
_database_code_depnum_ccdc_archive 'CCDC 176036'
_chemical_formula_sum 'C7 H10 N6 O8'
_chemical_formula_moiety
;
C7 H10 N6 O8
;
_journal_coeditor_code "IUCr OM6062"
_journal_coden_Cambridge 1370
_journal_volume 57
_journal_year 2001
_journal_page_first o1107
_journal_name_full 'Acta Crystallogr.,Sect.E:Struct.Rep.Online '
loop_
_publ_author_name
"R.D.Gilardi"
"T.Axenrod"
"Jianguang Sun"
"J.L.Flippen-Anderson"
_chemical_name_systematic
;
1,3,5,7-Tetranitro-3,7-diazabicyclo(3.3.1)nonane
;
_cell_volume   1193.418
_exptl_crystal_colour 'colorless'
_exptl_crystal_density_diffrn 1.704
_exptl_special_details
;
monoclinic polymorph

;
_exptl_crystal_description 'prism'
_diffrn_ambient_temperature 293
_refine_special_details
;
The nitro group involving N1 is disordered over three sites with occupancies 
0.54:0.24:0.22.
;
#These two values have been output from a single CSD field.
_refine_ls_R_factor_gt 0.0563
_refine_ls_wR_factor_gt 0.0563
_symmetry_cell_setting monoclinic
_symmetry_space_group_name_H-M 'P 21/c'
_symmetry_Int_Tables_number 14
loop_
_symmetry_equiv_pos_site_id
_symmetry_equiv_pos_as_xyz
1 x,y,z
2 x,1/2-y,1/2+z
3 -x,-y,-z
4 -x,-1/2+y,-1/2-z
_cell_length_a 13.5750(8)
_cell_length_b 7.9570(4)
_cell_length_c 11.0684(6)
_cell_angle_alpha 90
_cell_angle_beta 93.436(1)
_cell_angle_gamma 90
_cell_formula_units_Z 4
loop_
_atom_type_symbol
_atom_type_radius_bond
C 0.68
H 0.23
N 0.68
O 0.68
loop_
_atom_site_label
_atom_site_type_symbol
_atom_site_fract_x
_atom_site_fract_y
_atom_site_fract_z
C1 C 0.33494(12) -0.0635(2) 0.83763(16)
N1 N 0.43303(12) -0.1355(2) 0.80170(18)
O1 O 0.4365(5) -0.198(3) 0.7016(11)
O2 O 0.5017(6) -0.123(2) 0.8737(9)
O3? O 0.4300(11) -0.267(3) 0.743(2)
O4? O 0.5100(14) -0.072(3) 0.844(2)
O5? O 0.4478(17) -0.125(4) 0.6898(19)
O6? O 0.4910(17) -0.189(4) 0.8863(18)
C2 C 0.35097(13) 0.1261(2) 0.8510(2)
H1 H 0.40110 0.14930 0.91490
H2 H 0.37220 0.17340 0.77610
N2 N 0.25659(11) 0.19864(17) 0.88066(15)
N3 N 0.26203(14) 0.3584(2) 0.92798(19)
O7 O 0.34280(14) 0.4095(2) 0.9653(2)
O8 O 0.18524(14) 0.4362(2) 0.9338(2)
C3 C 0.16666(14) 0.1608(2) 0.80566(19)
H3 H 0.16810 0.21860 0.72860
H4 H 0.10920 0.19920 0.84590
C4 C 0.16023(12) -0.0292(2) 0.78487(16)
N4 N 0.07644(12) -0.0604(2) 0.68953(15)
O9 O 0.01917(15) 0.0519(3) 0.6662(2)
O10 O 0.07125(12) -0.1982(2) 0.64403(16)
C5 C 0.13347(14) -0.1297(2) 0.89680(17)
H5 H 0.07250 -0.08720 0.92650
H6 H 0.12400 -0.24710 0.87560
N5 N 0.21284(12) -0.11332(19) 0.99003(14)
N6 N 0.20085(13) 0.0021(2) 1.08030(15)
O11 O 0.27214(13) 0.0302(2) 1.15008(15)
O12 O 0.11930(12) 0.0642(2) 1.08749(16)
C6 C 0.31272(14) -0.1515(2) 0.95676(18)
H7 H 0.31990 -0.27210 0.94750
H8 H 0.35970 -0.11470 1.02070
C7 C 0.25533(13) -0.0999(2) 0.73855(17)
H9 H 0.24930 -0.21980 0.72440
H10 H 0.27070 -0.04540 0.66350
#END
