
#######################################################################
#
#                 Cambridge Crystallographic Data Centre
#                                CCDC
#
#######################################################################
#
# If this CIF has been generated from an entry in the Cambridge
# Structural Database, then it will include bibliographic, chemical,
# crystal, experimental, refinement or atomic coordinate data resulting
# from the CCDC's data processing and validation procedures.
#
#######################################################################

data_CSD_CIF_NADLOT
_audit_creation_date 1996-09-23
_audit_creation_method CSD-ConQuest-V1
_database_code_CSD NADLOT
_chemical_formula_sum 'C18 H20 N2 O7'
_chemical_formula_moiety
;
C18 H20 N2 O7
;
_journal_coden_Cambridge 35
_journal_volume 61
_journal_year 1996
_journal_page_first 88
_journal_name_full 'J.Org.Chem. '
loop_
_publ_author_name
"P.V.Ramachandran"
"Guan-Ming Chen"
"H.C.Brown"
_chemical_name_systematic
;
(1S,2R,3R,5R)-Dihydrospiro(bicyclo(3.2.1)octane-2,2'(3'H)-furan)-3-ol 
3,5-dinitrobenzoate
;
_chemical_melting_point 394
_cell_volume    911.399
_exptl_crystal_colour 'colorless'
_exptl_crystal_density_diffrn 1.37
_exptl_special_details
;
Melting point range 394-395K

;
_diffrn_ambient_temperature ?
_diffrn_special_details
;
The study was carried out at room temperature,in the range 283-303K

;
#These two values have been output from a single CSD field.
_refine_ls_R_factor_gt 0.069
_refine_ls_wR_factor_gt 0.069
loop_
_citation_database_id_CSD
_citation_special_details
VUHNAN "is a stereoisomer of this entry"
_symmetry_cell_setting monoclinic
_symmetry_space_group_name_H-M 'P 21'
_symmetry_Int_Tables_number 4
loop_
_symmetry_equiv_pos_site_id
_symmetry_equiv_pos_as_xyz
1 x,y,z
2 -x,1/2+y,-z
_cell_length_a 8.748(2)
_cell_length_b 6.5112(12)
_cell_length_c 16.321(4)
_cell_angle_alpha 90
_cell_angle_beta 101.37(2)
_cell_angle_gamma 90
_cell_formula_units_Z 2
loop_
_atom_type_symbol
_atom_type_radius_bond
C 0.68
H 0.23
N 0.68
O 0.68
loop_
_atom_site_label
_atom_site_type_symbol
_atom_site_fract_x
_atom_site_fract_y
_atom_site_fract_z
O1 O 0.2995(9) 1.0043(15) 0.2143(5)
O2 O 0.1483(12) 0.756(2) 0.1470(7)
O3 O 0.3153(13) 0.949(2) 0.4379(5)
O4 O 0.1233(12) 1.050(2) -0.2202(6)
O5 O 0.0263(13) 0.802(2) -0.1570(7)
O6 O 0.4357(12) 1.5969(19) 0.0741(7)
O7 O 0.3656(12) 1.6285(18) -0.0606(7)
N1 N 0.0962(15) 0.961(3) -0.1592(7)
N2 N 0.3703(14) 1.533(2) 0.0056(9)
C1 C 0.318(2) 0.889(3) 0.2941(8)
C2 C 0.3494(17) 1.057(3) 0.3651(8)
C3 C 0.5157(17) 1.125(3) 0.3871(8)
C4 C 0.578(2) 1.211(3) 0.3104(10)
C5 C 0.6409(18) 1.023(3) 0.2714(8)
C6 C 0.615(2) 0.840(3) 0.3267(9)
C7 C 0.456(2) 0.749(3) 0.2999(10)
C8 C 0.6232(18) 0.949(3) 0.4123(9)
C9 C 0.216(2) 0.917(3) 0.1474(8)
C10 C 0.2149(15) 1.045(3) 0.0718(7)
C11 C 0.1489(14) 0.957(2) -0.0053(7)
C12 C 0.1578(15) 1.061(3) -0.0770(8)
C13 C 0.2273(14) 1.249(3) -0.0759(8)
C14 C 0.2898(13) 1.331(2) 0.0016(8)
C15 C 0.2851(14) 1.231(2) 0.0762(7)
C16 C 0.157(2) 0.990(5) 0.4461(11)
C17 C 0.100(2) 1.165(4) 0.3857(14)
C18 C 0.231(2) 1.222(4) 0.3532(10)
H1 H 0.223(2) 0.811(3) 0.2968(8)
H2 H 0.5286(17) 1.228(3) 0.4318(8)
H3 H 0.697(2) 0.737(3) 0.3295(9)
H4 H 0.0998(14) 0.830(2) -0.0077(7)
H5 H 0.2321(14) 1.320(3) -0.1250(8)
H6 H 0.3288(14) 1.290(2) 0.1274(7)
H7 H 0.495(2) 1.275(3) 0.2708(10)
H8 H 0.660(2) 1.310(3) 0.3282(10)
H9 H 0.7509(18) 1.039(3) 0.2709(8)
H10 H 0.5848(18) 1.002(3) 0.2145(8)
H11 H 0.446(2) 0.639(3) 0.3387(10)
H12 H 0.451(2) 0.686(3) 0.2455(10)
H13 H 0.5863(18) 0.860(3) 0.4521(9)
H14 H 0.7282(18) 0.995(3) 0.4359(9)
H15 H 0.153(2) 1.029(5) 0.5029(11)
H16 H 0.093(2) 0.869(5) 0.4316(11)
H17 H 0.016(2) 1.119(4) 0.3415(14)
H18 H 0.064(2) 1.279(4) 0.4148(14)
H19 H 0.276(2) 1.346(4) 0.3809(10)
H20 H 0.199(2) 1.252(4) 0.294(1)
#END
