
#######################################################################
#
#                 Cambridge Crystallographic Data Centre
#                                CCDC
#
#######################################################################
#
# If this CIF has been generated from an entry in the Cambridge
# Structural Database, then it will include bibliographic, chemical,
# crystal, experimental, refinement or atomic coordinate data resulting
# from the CCDC's data processing and validation procedures.
#
#######################################################################

data_CSD_CIF_NADLEJ
_audit_creation_date 1996-09-23
_audit_creation_method CSD-ConQuest-V1
_database_code_CSD NADLEJ
_database_code_depnum_ccdc_archive 'CCDC 123828'
_chemical_formula_sum 'C21 H23 N1 O4'
_chemical_formula_moiety
;
C21 H23 N1 O4
;
_journal_coden_Cambridge 1090
_journal_volume 7
_journal_year 1996
_journal_page_first 1059
_journal_name_full 'Tetrahedron:Asymm. '
loop_
_publ_author_name
"C.Castellari"
"M.Lombardo"
"G.Pietropaolo"
"C.Trombini"
_chemical_name_systematic
;
(3S(3\a(R*),3a\b,6a\b))-Tetrahydro-2-benzyl-3-(1-benzyloxyethyl)-furo(2,3-d)is
oxazol-5(2H)one
;
_chemical_melting_point 381.15
_cell_volume   1866.701
_exptl_crystal_colour 'colorless'
_exptl_crystal_density_diffrn 1.258
_exptl_special_details
;
Melting point range 381.15-385.15K

;
_diffrn_ambient_temperature ?
_diffrn_special_details
;
The study was carried out at room temperature,in the range 283-303K

;
#These two values have been output from a single CSD field.
_refine_ls_R_factor_gt 0.0332
_refine_ls_wR_factor_gt 0.0332
_symmetry_cell_setting orthorhombic
_symmetry_space_group_name_H-M 'P 21 21 21'
_symmetry_Int_Tables_number 19
loop_
_symmetry_equiv_pos_site_id
_symmetry_equiv_pos_as_xyz
1 x,y,z
2 1/2-x,-y,1/2+z
3 1/2+x,1/2-y,-z
4 -x,1/2+y,1/2-z
_cell_length_a 10.158(3)
_cell_length_b 10.886(2)
_cell_length_c 16.881(6)
_cell_angle_alpha 90
_cell_angle_beta 90
_cell_angle_gamma 90
_cell_formula_units_Z 4
loop_
_atom_type_symbol
_atom_type_radius_bond
C 0.68
H 0.23
N 0.68
O 0.68
loop_
_atom_site_label
_atom_site_type_symbol
_atom_site_fract_x
_atom_site_fract_y
_atom_site_fract_z
O1 O 0.87383(12) 0.31956(12) 0.11486(8)
O2 O 0.72770(13) -0.02948(13) 0.14424(8)
O3 O 1.09145(11) 0.11794(13) 0.13674(8)
O4 O 1.27504(14) 0.2205(2) 0.11268(9)
N1 N 0.77900(15) 0.24132(14) 0.15683(9)
C1 C 0.7892(2) 0.0276(2) 0.21084(12)
H1 H 0.7220(14) 0.0525(17) 0.2488(9)
C2 C 0.8650(2) 0.1411(2) 0.18474(11)
H2 H 0.9193(15) 0.1695(16) 0.2287(8)
C3 C 0.9542(2) 0.1202(2) 0.11330(12)
H3 H 0.9352(19) 0.0433(11) 0.088(1)
C4 C 1.1597(2) 0.2075(2) 0.09949(11)
C5 C 1.0738(2) 0.2767(2) 0.04423(13)
H4 H 1.0951(19) 0.2546(19) -0.0095(7)
H5 H 1.0863(24) 0.3637(11) 0.0543(14)
C6 C 0.9363(2) 0.2345(2) 0.06275(11)
H6 H 0.8825(16) 0.2188(17) 0.0164(8)
C7 C 0.8795(3) -0.0661(3) 0.2473(2)
H7 H 0.9225(17) -0.0324(16) 0.2931(8)
H8 H 0.9448(16) -0.0924(18) 0.2084(9)
H9 H 0.8293(17) -0.1374(13) 0.2637(11)
C8 C 0.7290(2) 0.3183(2) 0.22104(12)
H10 H 0.7997(16) 0.3509(18) 0.2540(11)
H11 H 0.6818(17) 0.2626(15) 0.2559(9)
C9 C 0.6438(2) 0.4214(2) 0.19076(11)
C10 C 0.6761(2) 0.5426(2) 0.20421(14)
H12 H 0.7523(16) 0.5618(24) 0.2316(13)
C11 C 0.5994(3) 0.6359(2) 0.1749(2)
H13 H 0.6249(22) 0.7171(12) 0.1842(14)
C12 C 0.4896(2) 0.6104(2) 0.13146(15)
H14 H 0.4356(20) 0.6718(17) 0.1098(13)
C13 C 0.4539(2) 0.4902(2) 0.11905(14)
H15 H 0.3771(14) 0.4717(20) 0.0914(11)
C14 C 0.5298(2) 0.3963(2) 0.14857(13)
H16 H 0.5054(19) 0.314(1) 0.1434(12)
C15 C 0.5924(2) -0.0048(2) 0.13551(13)
H17 H 0.5805(25) 0.0838(10) 0.1313(15)
H18 H 0.5471(20) -0.0321(20) 0.1833(9)
C16 C 0.5401(2) -0.0651(2) 0.06271(12)
C17 C 0.4061(2) -0.0579(2) 0.0465(2)
H19 H 0.3557(20) -0.0118(21) 0.0816(12)
C18 C 0.3544(3) -0.1095(3) -0.0201(2)
H20 H 0.2647(12) -0.1045(29) -0.0315(17)
C19 C 0.4326(4) -0.1709(3) -0.0718(2)
H21 H 0.4013(27) -0.2085(24) -0.1177(11)
C20 C 0.5656(3) -0.1795(3) -0.0572(2)
H22 H 0.6222(23) -0.2272(23) -0.0879(14)
C21 C 0.6187(2) -0.1264(2) 0.00995(14)
H23 H 0.7083(11) -0.1337(21) 0.0212(13)
#END
