
#######################################################################
#
#                 Cambridge Crystallographic Data Centre
#                                CCDC
#
#######################################################################
#
# If this CIF has been generated from an entry in the Cambridge
# Structural Database, then it will include bibliographic, chemical,
# crystal, experimental, refinement or atomic coordinate data resulting
# from the CCDC's data processing and validation procedures.
#
#######################################################################

data_CSD_CIF_NAHBOQ
_audit_creation_date 2016-02-04
_audit_creation_method CSD-ConQuest-V1
_database_code_CSD NAHBOQ
_database_code_depnum_ccdc_archive 'CCDC 1451794'
_chemical_formula_sum 'C18 H18 N2 O1'
_chemical_formula_moiety
;
C18 H18 N2 O1
;
_journal_coden_Cambridge 1078
_journal_year 2016
_journal_name_full 'CSD Communication(Private Communication) '
loop_
_publ_author_name
"K.S.Huang"
"M.J.Kurth"
"M.M.Olmstead"
_chemical_name_systematic
;
5-benzyl-6-phenyl-3a,4,5,6-tetrahydro-3H-pyrrolo[3,4-c][1,2]oxazole
;
_cell_volume   1430.713
_exptl_crystal_colour 'colorless'
_exptl_crystal_density_diffrn 1.292
_exptl_special_details
;
Absolute configuration

;
_exptl_crystal_description 'plate'
_exptl_crystal_preparation 'Re-crystallisation from solvent'
_diffrn_ambient_temperature 91
_diffrn_special_details
;
twin

;
#These two values have been output from a single CSD field.
_refine_ls_R_factor_gt 0.0343
_refine_ls_wR_factor_gt 0.0343
_symmetry_cell_setting orthorhombic
_symmetry_space_group_name_H-M 'P 21 21 21'
_symmetry_Int_Tables_number 19
loop_
_symmetry_equiv_pos_site_id
_symmetry_equiv_pos_as_xyz
1 x,y,z
2 1/2-x,-y,1/2+z
3 -x,1/2+y,1/2-z
4 1/2+x,1/2-y,-z
_cell_length_a 5.8290(3)
_cell_length_b 9.5275(5)
_cell_length_c 25.7620(14)
_cell_angle_alpha 90
_cell_angle_beta 90
_cell_angle_gamma 90
_cell_formula_units_Z 4
loop_
_atom_type_symbol
_atom_type_radius_bond
C 0.68
H 0.23
N 0.68
O 0.68
loop_
_atom_site_label
_atom_site_type_symbol
_atom_site_fract_x
_atom_site_fract_y
_atom_site_fract_z
O1 O 0.6072(2) 0.27047(12) 0.96322(4)
N1 N 0.7590(3) 0.38220(14) 0.94836(5)
N2 N 0.5255(2) 0.59533(13) 0.84958(5)
C1 C 0.6440(3) 0.46565(15) 0.92031(6)
C2 C 0.7258(3) 0.58213(15) 0.88540(6)
H1 H 0.865(3) 0.5495(18) 0.8665(7)
C3 C 0.4031(3) 0.45921(15) 0.84934(6)
H2 H 0.251(4) 0.475(2) 0.8335(7)
H3 H 0.486(4) 0.386(2) 0.8283(8)
C4 C 0.4035(3) 0.42203(16) 0.90727(6)
H4 H 0.289(3) 0.477(2) 0.9257(8)
C5 C 0.4111(3) 0.27191(16) 0.92728(6)
H5 H 0.440(4) 0.202(2) 0.8987(7)
H6 H 0.273(3) 0.2477(19) 0.9466(7)
C6 C 0.6002(3) 0.64430(17) 0.79838(6)
H7 H 0.718(3) 0.580(2) 0.7827(7)
H8 H 0.685(3) 0.737(2) 0.8041(7)
C7 C 0.4051(3) 0.66247(16) 0.76033(6)
C8 C 0.3983(3) 0.58229(18) 0.71519(6)
H9 H 0.520(4) 0.511(2) 0.7103(8)
C9 C 0.2235(4) 0.6001(2) 0.67884(7)
H10 H 0.222(4) 0.546(2) 0.6484(9)
C10 C 0.0544(3) 0.6999(2) 0.68740(7)
H11 H -0.063(4) 0.715(2) 0.6612(8)
C11 C 0.0585(3) 0.7803(2) 0.73225(7)
H12 H -0.064(4) 0.852(2) 0.7372(8)
C12 C 0.2324(3) 0.76096(18) 0.76861(6)
H13 H 0.232(4) 0.816(2) 0.7994(8)
C13 C 0.7843(3) 0.72006(15) 0.91165(6)
C14 C 1.0006(3) 0.77903(16) 0.90501(6)
H14 H 1.114(3) 0.729(2) 0.8849(7)
C15 C 1.0525(3) 0.90861(17) 0.92744(6)
H15 H 1.199(3) 0.950(2) 0.9223(7)
C16 C 0.8892(3) 0.97917(16) 0.95655(6)
H16 H 0.922(3) 1.070(2) 0.9708(7)
C17 C 0.6743(3) 0.91895(17) 0.96427(6)
H17 H 0.561(4) 0.968(2) 0.9857(8)
C18 C 0.6226(3) 0.78930(16) 0.94213(6)
H18 H 0.471(3) 0.747(2) 0.9476(7)
#END
