
#######################################################################
#
#                 Cambridge Crystallographic Data Centre
#                                CCDC
#
#######################################################################
#
# If this CIF has been generated from an entry in the Cambridge
# Structural Database, then it will include bibliographic, chemical,
# crystal, experimental, refinement or atomic coordinate data resulting
# from the CCDC's data processing and validation procedures.
#
#######################################################################

data_CSD_CIF_NAHGEK
_audit_creation_date 2011-01-04
_audit_creation_method CSD-ConQuest-V1
_database_code_CSD NAHGEK
_database_code_depnum_ccdc_archive 'CCDC 800490'
_chemical_formula_sum 'C30 H30 N4 O10'
_chemical_formula_moiety
;
C30 H30 N4 O10
;
_journal_coden_Cambridge 9
_journal_volume 49
_journal_year 2010
_journal_page_first 2141
_journal_name_full 'Inorg.Chem. '
loop_
_publ_author_name
"S.Akine"
"S.Kagiyama"
"T.Nabeshima"
_chemical_name_systematic
;
cis-4,7,15,20,28,31-Hexaoxa-3,8,27,32-tetra-azatetracyclo[32.2.2.1^10,14^.1^21
,25^]tetraconta-1(36),2,8,10(40),11,13,17,21(39),22,24,26,32,34,37-tetradecaen
e-35,36,39,40-tetrol
;
_chemical_melting_point 453.15
_cell_volume   1438.357
_exptl_crystal_colour 'colorless'
_exptl_crystal_density_diffrn 1.401
_exptl_special_details
;
Melting point range 453.15-455.15K

;
_exptl_crystal_description 'prismatic'
_exptl_crystal_preparation 'chloroform/methanol'
_diffrn_ambient_temperature 100
#These two values have been output from a single CSD field.
_refine_ls_R_factor_gt 0.0387
_refine_ls_wR_factor_gt 0.0387
loop_
_citation_database_id_CSD
_citation_special_details
NAHGAG "is a stereoisomer of this entry"
_symmetry_cell_setting triclinic
_symmetry_space_group_name_H-M 'P -1'
_symmetry_Int_Tables_number 2
loop_
_symmetry_equiv_pos_site_id
_symmetry_equiv_pos_as_xyz
1 x,y,z
2 -x,-y,-z
_cell_length_a 9.6197(9)
_cell_length_b 11.0878(10)
_cell_length_c 14.2308(13)
_cell_angle_alpha 81.480(1)
_cell_angle_beta 85.288(1)
_cell_angle_gamma 73.546(1)
_cell_formula_units_Z 2
loop_
_atom_type_symbol
_atom_type_radius_bond
C 0.68
H 0.23
N 0.68
O 0.68
loop_
_atom_site_label
_atom_site_type_symbol
_atom_site_fract_x
_atom_site_fract_y
_atom_site_fract_z
C1 C 0.49162(17) 0.50033(15) -0.14837(11)
C2 C 0.37719(17) 0.50764(14) -0.08025(12)
C3 C 0.33331(17) 0.39845(15) -0.04370(12)
C4 C 0.40418(18) 0.28353(15) -0.07544(12)
H1 H 0.37480 0.20960 -0.05100
C5 C 0.51883(18) 0.27622(15) -0.14333(12)
H2 H 0.56670 0.19730 -0.16510
C6 C 0.56294(18) 0.38255(16) -0.17890(12)
H3 H 0.64200 0.37630 -0.22430
O1 O 0.30271(12) 0.61652(10) -0.04635(8)
H4 H 0.33620 0.67610 -0.07240
O2 O 0.21971(12) 0.41913(10) 0.02181(9)
C7 C 0.53454(17) 0.61334(15) -0.19101(11)
H5 H 0.60900 0.60750 -0.23970
N1 N 0.47078(14) 0.72041(12) -0.16221(10)
O3 O 0.51804(12) 0.82135(10) -0.21534(8)
C8 C 0.45766(18) 0.93484(15) -0.17194(12)
H6 H 0.51570 0.99520 -0.19420
H7 H 0.46610 0.91350 -0.10220
C9 C 0.30034(18) 0.99946(15) -0.19300(12)
H8 H 0.27270 1.08370 -0.17040
H9 H 0.29050 1.01340 -0.26280
O4 O 0.20124(12) 0.92994(11) -0.15012(8)
N2 N 0.19447(14) 0.93162(12) -0.05095(9)
C10 C 0.12334(17) 0.85658(14) -0.00709(12)
H10 H 0.08260 0.80950 -0.04230
C11 C 0.10452(17) 0.84298(15) 0.09640(12)
C12 C 0.15177(17) 0.91875(14) 0.15063(12)
C13 C 0.13774(17) 0.89943(14) 0.24982(12)
C14 C 0.07137(17) 0.80822(15) 0.29585(12)
C15 C 0.02458(17) 0.73261(15) 0.24103(12)
H11 H -0.01960 0.66980 0.27170
C16 C 0.04223(17) 0.74874(15) 0.14355(12)
H12 H 0.01200 0.69570 0.10760
O5 O 0.21585(13) 1.00994(10) 0.11080(8)
H13 H 0.21880 1.01370 0.05130
O6 O 0.19403(14) 0.97143(11) 0.29734(9)
H14 H 0.18040 0.95320 0.35620
C17 C 0.05446(17) 0.78643(15) 0.39951(12)
H15 H 0.00120 0.72960 0.42870
N3 N 0.11137(15) 0.84377(13) 0.45103(10)
O7 O 0.08165(12) 0.81208(12) 0.54846(8)
C18 C 0.17409(19) 0.85463(17) 0.60274(12)
H16 H 0.13860 0.84990 0.67010
H17 H 0.16760 0.94460 0.57920
C19 C 0.33095(19) 0.77791(15) 0.59725(13)
H18 H 0.36470 0.77730 0.52960
H19 H 0.39050 0.81900 0.62830
O8 O 0.35236(15) 0.64963(11) 0.64209(9)
N4 N 0.33019(16) 0.57388(13) 0.57691(10)
C20 C 0.3549(2) 0.45753(16) 0.61304(13)
H20 H 0.38600 0.43230 0.67640
C21 C 0.33549(19) 0.36330(16) 0.55740(12)
C22 C 0.27405(18) 0.39857(15) 0.46835(12)
C23 C 0.24801(17) 0.30658(15) 0.41926(12)
C24 C 0.29361(18) 0.17954(15) 0.45597(12)
H21 H 0.28090 0.11680 0.42130
C25 C 0.35844(19) 0.14360(16) 0.54408(13)
H22 H 0.39010 0.05630 0.56880
C26 C 0.37665(19) 0.23393(16) 0.59519(13)
H23 H 0.41710 0.20900 0.65610
O9 O 0.23595(14) 0.52017(11) 0.42557(9)
H24 H 0.25110 0.56790 0.46190
O10 O 0.17805(13) 0.35508(10) 0.33668(8)
C27 C 0.13607(18) 0.26729(15) 0.28651(12)
H25 H 0.09550 0.20780 0.33170
H26 H 0.22090 0.21760 0.25130
C28 C 0.02373(18) 0.34633(15) 0.21902(12)
H27 H -0.06770 0.38780 0.24620
C29 C 0.03947(18) 0.36398(15) 0.12506(12)
H28 H -0.04260 0.41490 0.09130
C30 C 0.17411(18) 0.31136(15) 0.06717(12)
H29 H 0.25020 0.25410 0.10840
H30 H 0.15360 0.26330 0.01910
#END
