
#######################################################################
#
#                 Cambridge Crystallographic Data Centre
#                                CCDC
#
#######################################################################
#
# If this CIF has been generated from an entry in the Cambridge
# Structural Database, then it will include bibliographic, chemical,
# crystal, experimental, refinement or atomic coordinate data resulting
# from the CCDC's data processing and validation procedures.
#
#######################################################################

data_CSD_CIF_NAJKOB
_audit_creation_date 2016-02-05
_audit_creation_method CSD-ConQuest-V1
_database_code_CSD NAJKOB
_database_code_depnum_ccdc_archive 'CCDC 1024965'
_chemical_formula_sum 'C24 H20 N6 O4'
_chemical_formula_moiety
;
C24 H20 N6 O4
;
_journal_coden_Cambridge 757
_journal_volume 19
_journal_year 2015
_journal_page_first 213
_journal_name_full 'Mol.Diversity '
loop_
_publ_author_name
"Y.Durust"
"B.Ozer"
"B.M.Cariuki"
_chemical_name_systematic
;
1,3-bis((3-(4-Methylphenyl)-1,2,4-oxadiazol-5-yl)methyl)pyrimidine-2,4(1H,3H)-
dione
;
_cell_volume   1091.707
_exptl_crystal_colour 'colorless'
_exptl_crystal_density_diffrn 1.389
_exptl_crystal_description 'needle'
_diffrn_ambient_temperature 296
#These two values have been output from a single CSD field.
_refine_ls_R_factor_gt 0.0512
_refine_ls_wR_factor_gt 0.0512
_symmetry_cell_setting triclinic
_symmetry_space_group_name_H-M 'P -1'
_symmetry_Int_Tables_number 2
loop_
_symmetry_equiv_pos_site_id
_symmetry_equiv_pos_as_xyz
1 x,y,z
2 -x,-y,-z
_cell_length_a 8.1713(10)
_cell_length_b 8.5469(10)
_cell_length_c 17.5046(10)
_cell_angle_alpha 92.087(7)
_cell_angle_beta 91.099(7)
_cell_angle_gamma 116.581(12)
_cell_formula_units_Z 2
loop_
_atom_type_symbol
_atom_type_radius_bond
C 0.68
H 0.23
N 0.68
O 0.68
loop_
_atom_site_label
_atom_site_type_symbol
_atom_site_fract_x
_atom_site_fract_y
_atom_site_fract_z
C1 C 0.7512(6) 0.9795(6) 0.9649(3)
H1 H 0.85330 1.05400 0.93600
H2 H 0.79510 0.94410 1.00910
H3 H 0.68410 1.04200 0.98090
C2 C 0.6268(6) 0.8188(5) 0.9156(2)
C3 C 0.4869(6) 0.6804(6) 0.9469(2)
H4 H 0.46880 0.68650 0.99910
C4 C 0.3712(6) 0.5315(5) 0.9035(2)
H5 H 0.27650 0.43980 0.92640
C5 C 0.3969(5) 0.5193(4) 0.82584(19)
C6 C 0.5383(5) 0.6589(4) 0.7946(2)
H6 H 0.55820 0.65370 0.74260
C7 C 0.6511(6) 0.8063(5) 0.8391(2)
H7 H 0.74540 0.89880 0.81650
C8 C 0.2781(4) 0.3611(4) 0.77900(18)
C9 C 0.1558(4) 0.1938(4) 0.68336(18)
C10 C 0.0860(4) 0.0955(4) 0.60803(18)
H8 H 0.10640 -0.00800 0.60700
H9 H -0.04500 0.05690 0.60300
C11 C 0.0892(5) 0.2906(4) 0.50786(19)
C12 C 0.3323(4) 0.1926(4) 0.51910(17)
C13 C 0.3331(5) 0.3814(4) 0.42039(18)
H10 H 0.39080 0.44520 0.37870
C14 C 0.1805(5) 0.3843(4) 0.44331(19)
H11 H 0.13250 0.44800 0.41700
C15 C 0.5726(4) 0.2845(4) 0.42792(19)
H12 H 0.63990 0.26590 0.47000
H13 H 0.65030 0.39690 0.40760
C16 C 0.5288(4) 0.1432(4) 0.36683(17)
C17 C 0.4309(4) -0.0690(4) 0.28860(17)
C18 C 0.3070(4) -0.2317(4) 0.24713(18)
C19 C 0.1551(5) -0.3507(4) 0.2822(2)
H14 H 0.13060 -0.32430 0.33140
C20 C 0.0384(5) -0.5093(4) 0.2453(2)
H15 H -0.06260 -0.58820 0.27030
C21 C 0.0691(5) -0.5518(4) 0.1726(2)
C22 C 0.2192(6) -0.4311(5) 0.1372(2)
H16 H 0.24150 -0.45660 0.08750
C23 C 0.3378(5) -0.2731(5) 0.1736(2)
H17 H 0.43870 -0.19450 0.14850
C24 C -0.0562(6) -0.7250(5) 0.1318(3)
H18 H 0.00180 -0.80100 0.13160
H19 H -0.08070 -0.70560 0.08010
H20 H -0.16910 -0.77840 0.15780
N1 N 0.1584(4) 0.2214(4) 0.80876(16)
N2 N 0.2820(3) 0.3491(3) 0.69992(14)
N3 N 0.1726(3) 0.1981(3) 0.54328(14)
N4 N 0.4086(3) 0.2878(3) 0.45619(14)
N5 N 0.3778(3) 0.0136(3) 0.34558(14)
N6 N 0.6048(4) 0.0078(3) 0.27559(16)
O1 O 0.0728(3) 0.1059(3) 0.74407(13)
O2 O -0.0503(4) 0.2871(4) 0.53393(16)
O3 O 0.3982(3) 0.1116(3) 0.55209(14)
O4 O 0.6759(3) 0.1550(3) 0.32899(13)
#END
