
#######################################################################
#
#                 Cambridge Crystallographic Data Centre
#                                CCDC
#
#######################################################################
#
# If this CIF has been generated from an entry in the Cambridge
# Structural Database, then it will include bibliographic, chemical,
# crystal, experimental, refinement or atomic coordinate data resulting
# from the CCDC's data processing and validation procedures.
#
#######################################################################

data_CSD_CIF_NAMLUL
_audit_creation_date 2017-03-19
_audit_creation_method CSD-ConQuest-V1
_database_code_CSD NAMLUL
_database_code_depnum_ccdc_archive 'CCDC 1525415'
_chemical_formula_sum 'C16 H17 N3 O3'
_chemical_formula_moiety
;
C16 H17 N3 O3
;
_journal_coden_Cambridge 155
_journal_volume 462
_journal_year 2017
_journal_page_first 130
_journal_name_full 'Inorg.Chim.Acta '
loop_
_publ_author_name
"R.Kose"
"Seyit Ali Gungor"
"S.E.Kariper"
"M.Kose"
"M.Kurtoglu"
_chemical_name_systematic
;
4-((4-ethylphenyl)diazenyl)-2-((hydroxyimino)methyl)-6-methoxyphenol
;
_cell_volume   1541.855
_exptl_crystal_colour 'orange'
_exptl_crystal_density_diffrn 1.29
_exptl_crystal_description 'prism'
_diffrn_ambient_temperature 293
#These two values have been output from a single CSD field.
_refine_ls_R_factor_gt 0.0547
_refine_ls_wR_factor_gt 0.0547
_symmetry_cell_setting monoclinic
_symmetry_space_group_name_H-M 'P 21/c'
_symmetry_Int_Tables_number 14
loop_
_symmetry_equiv_pos_site_id
_symmetry_equiv_pos_as_xyz
1 x,y,z
2 -x,1/2+y,1/2-z
3 -x,-y,-z
4 x,-1/2-y,-1/2+z
_cell_length_a 11.757(7)
_cell_length_b 18.163(10)
_cell_length_c 7.296(4)
_cell_angle_alpha 90
_cell_angle_beta 98.257(12)
_cell_angle_gamma 90
_cell_formula_units_Z 4
loop_
_atom_type_symbol
_atom_type_radius_bond
C 0.68
H 0.23
N 0.68
O 0.68
loop_
_atom_site_label
_atom_site_type_symbol
_atom_site_fract_x
_atom_site_fract_y
_atom_site_fract_z
O1 O 0.8219(5) 0.4009(4) -0.0403(11)
H1 H 0.86480 0.39640 -0.11880
N1 N 0.8628(7) 0.4572(5) 0.0834(16)
C1 C 0.8373(10) 0.5183(6) 0.3620(17)
O2 O 0.9924(6) 0.5651(3) 0.2157(10)
H2 H 0.96020 0.53970 0.13090
N2 N 0.7216(7) 0.5778(5) 0.7798(17)
C2 C 0.7726(9) 0.5244(6) 0.5057(16)
H3 H 0.71090 0.49260 0.50920
O3 O 1.0443(7) 0.6644(5) 0.4743(9)
N3 N 0.7460(8) 0.6267(5) 0.8976(17)
C3 C 0.7968(12) 0.5759(6) 0.6427(17)
C4 C 0.8917(9) 0.6241(6) 0.6382(16)
H4 H 0.91090 0.65820 0.73280
C5 C 0.9553(11) 0.6203(7) 0.4939(17)
C6 C 0.9278(10) 0.5664(6) 0.3576(17)
C7 C 0.8069(10) 0.4640(6) 0.2159(18)
H5 H 0.74400 0.43340 0.22140
C8 C 1.0715(8) 0.7222(6) 0.6042(14)
H6 H 1.00790 0.75580 0.59650
H7 H 1.13840 0.74790 0.57680
H8 H 1.08640 0.70210 0.72690
C9 C 0.6670(12) 0.6298(6) 1.0302(18)
C10 C 0.7022(9) 0.6767(5) 1.1798(15)
H9 H 0.77060 0.70300 1.18630
C11 C 0.6345(9) 0.6833(5) 1.3156(15)
H10 H 0.65750 0.71460 1.41490
C12 C 0.5334(11) 0.6450(6) 1.3104(19)
C13 C 0.498(1) 0.6010(6) 1.1604(17)
H11 H 0.42760 0.57690 1.15130
C14 C 0.5650(9) 0.5921(6) 1.0251(16)
H12 H 0.54150 0.56020 0.92750
C15 C 0.4664(11) 0.6506(7) 1.479(2)
H13 H 0.44360 0.60190 1.51410
H14 H 0.51540 0.67200 1.58390
C16 C 0.3699(12) 0.6942(9) 1.4325(18)
H15 H 0.39070 0.73790 1.37110
H16 H 0.33910 0.70760 1.54280
H17 H 0.31320 0.66730 1.35120
#END
