
#######################################################################
#
#                 Cambridge Crystallographic Data Centre
#                                CCDC
#
#######################################################################
#
# If this CIF has been generated from an entry in the Cambridge
# Structural Database, then it will include bibliographic, chemical,
# crystal, experimental, refinement or atomic coordinate data resulting
# from the CCDC's data processing and validation procedures.
#
#######################################################################

data_CSD_CIF_NAMPOH
_audit_creation_date 2005-07-19
_audit_creation_method CSD-ConQuest-V1
_database_code_CSD NAMPOH
_database_code_depnum_ccdc_archive 'CCDC 270276'
_chemical_formula_sum 'C9 H9 N1 O5'
_chemical_formula_moiety
;
C9 H9 N1 O5
;
_journal_coeditor_code "IUCr CI6551"
_journal_coden_Cambridge 1370
_journal_volume 61
_journal_year 2005
_journal_page_first o1198
_journal_name_full 'Acta Crystallogr.,Sect.E:Struct.Rep.Online '
loop_
_publ_author_name
"Long-Fei Jin"
"Feng-Ping Xiao"
_chemical_name_systematic
;
Ethyl 5-nitrosalicylate
;
_cell_volume    978.466
_exptl_crystal_colour 'colorless'
_exptl_crystal_density_diffrn 1.434
_exptl_crystal_description 'prism'
_exptl_crystal_preparation 'methanol'
_diffrn_ambient_temperature 293
#These two values have been output from a single CSD field.
_refine_ls_R_factor_gt 0.0622
_refine_ls_wR_factor_gt 0.0622
_symmetry_cell_setting monoclinic
_symmetry_space_group_name_H-M 'P 21/c'
_symmetry_Int_Tables_number 14
loop_
_symmetry_equiv_pos_site_id
_symmetry_equiv_pos_as_xyz
1 x,y,z
2 -x,1/2+y,1/2-z
3 -x,-y,-z
4 x,-1/2-y,-1/2+z
_cell_length_a 4.7424(7)
_cell_length_b 11.3044(17)
_cell_length_c 18.374(3)
_cell_angle_alpha 90
_cell_angle_beta 96.618(3)
_cell_angle_gamma 90
_cell_formula_units_Z 4
loop_
_atom_type_symbol
_atom_type_radius_bond
C 0.68
H 0.23
N 0.68
O 0.68
loop_
_atom_site_label
_atom_site_type_symbol
_atom_site_fract_x
_atom_site_fract_y
_atom_site_fract_z
C1 C 0.0312(5) 0.1413(2) 0.09328(13)
C2 C 0.0704(6) 0.0292(2) 0.12480(15)
C3 C -0.0704(7) 0.0000(2) 0.18479(17)
H1 H -0.04560 -0.07480 0.20560
C4 C -0.2430(6) 0.0787(2) 0.21339(15)
H2 H -0.33510 0.05840 0.25360
C5 C -0.2807(5) 0.1904(2) 0.18176(13)
C6 C -0.1468(5) 0.2214(2) 0.12247(13)
H3 H -0.17500 0.29620 0.10180
C7 C 0.1759(6) 0.1706(2) 0.02864(15)
C8 C 0.241(1) 0.3052(3) -0.0643(2)
H4 H 0.19350 0.24620 -0.10210
H5 H 0.44570 0.30750 -0.05290
C9 C 0.1337(16) 0.4218(4) -0.0897(3)
H6 H -0.06700 0.41710 -0.10420
H7 H 0.22760 0.44640 -0.13070
H8 H 0.17050 0.47830 -0.05070
H9 H 0.29(1) -0.012(4) 0.066(2)
N1 N -0.4716(5) 0.2736(2) 0.21134(13)
O1 O -0.5843(6) 0.2456(2) 0.26493(13)
O2 O -0.5152(6) 0.3682(2) 0.18059(14)
O3 O 0.1075(5) 0.27580(18) 0.00100(11)
O4 O 0.3401(5) 0.1050(2) 0.00336(12)
O5 O 0.2390(5) -0.0538(2) 0.10113(15)
#END
