
#######################################################################
#
#                 Cambridge Crystallographic Data Centre
#                                CCDC
#
#######################################################################
#
# If this CIF has been generated from an entry in the Cambridge
# Structural Database, then it will include bibliographic, chemical,
# crystal, experimental, refinement or atomic coordinate data resulting
# from the CCDC's data processing and validation procedures.
#
#######################################################################

data_CSD_CIF_NANGUE
_audit_creation_date 1998-03-17
_audit_creation_method CSD-ConQuest-V1
_database_code_CSD NANGUE
_database_code_depnum_ccdc_journal 188/54
_chemical_formula_sum 'C18 H19 N3 O2'
_chemical_formula_moiety
;
C18 H19 N3 O2
;
_journal_coden_Cambridge 188
_journal_year 1997
_journal_page_first 809
_journal_name_full 'J.Chem.Soc.,Perkin Trans.2 '
loop_
_publ_author_name
"C.A.van Walree"
"A.W.Maarsman"
"A.W.Marsman"
"M.C.Flipse"
"L.W.Jenneskens"
"W.J.J.Smeets"
"A.L.Spek"
_chemical_name_systematic
;
5-(N,N-Dimethylamino)-3,3-dimethyl-2-(4-nitrophenyl)-3H-indole
;
_chemical_melting_point 487.15
_cell_volume   1550.009
_exptl_crystal_colour 'red'
_exptl_crystal_density_diffrn 1.326
_exptl_crystal_preparation 'ethyl acetate'
_diffrn_ambient_temperature 150
#These two values have been output from a single CSD field.
_refine_ls_R_factor_gt 0.0574
_refine_ls_wR_factor_gt 0.0574
_symmetry_cell_setting monoclinic
_symmetry_space_group_name_H-M 'P 21/c'
_symmetry_Int_Tables_number 14
loop_
_symmetry_equiv_pos_site_id
_symmetry_equiv_pos_as_xyz
1 x,y,z
2 -x,1/2+y,1/2-z
3 -x,-y,-z
4 x,-1/2-y,-1/2+z
_cell_length_a 8.9238(6)
_cell_length_b 11.1106(10)
_cell_length_c 16.193(1)
_cell_angle_alpha 90
_cell_angle_beta 105.11(1)
_cell_angle_gamma 90
_cell_formula_units_Z 4
loop_
_atom_type_symbol
_atom_type_radius_bond
C 0.68
H 0.23
N 0.68
O 0.68
loop_
_atom_site_label
_atom_site_type_symbol
_atom_site_fract_x
_atom_site_fract_y
_atom_site_fract_z
O1 O -0.4835(2) 0.5369(2) -0.15414(11)
O2 O -0.3472(2) 0.4059(2) -0.20193(10)
N1 N 0.1614(2) 0.3516(2) 0.19390(11)
N2 N 0.4230(2) 0.3427(2) 0.54553(12)
N3 N -0.3740(2) 0.4671(2) -0.14399(12)
C1 C 0.2402(3) 0.3421(2) 0.28079(14)
C2 C 0.3878(3) 0.2965(2) 0.31536(15)
C3 C 0.4468(3) 0.2979(2) 0.40313(14)
C4 C 0.3610(3) 0.3428(2) 0.45849(14)
C5 C 0.2104(3) 0.3881(2) 0.42169(14)
C6 C 0.1540(3) 0.3880(2) 0.33374(14)
C7 C 0.0056(3) 0.4402(2) 0.27691(13)
C8 C 0.0090(3) 0.5775(2) 0.29042(15)
C9 C -0.1415(3) 0.3850(2) 0.29257(15)
C10 C 0.0310(3) 0.4050(2) 0.18985(14)
C11 C -0.0787(3) 0.4239(2) 0.10503(14)
C12 C -0.2007(3) 0.5061(2) 0.08968(14)
C13 C -0.2966(3) 0.5223(2) 0.00795(14)
C14 C -0.2697(3) 0.4541(2) -0.05813(14)
C15 C 0.5838(3) 0.3088(2) 0.5819(2)
C16 C 0.3429(3) 0.4031(2) 0.6006(2)
C17 C -0.1504(3) 0.3719(2) -0.04557(14)
C18 C -0.0555(3) 0.3571(2) 0.03544(14)
H1 H 0.4458(3) 0.2655(2) 0.28019(15)
H2 H 0.5463(3) 0.2683(2) 0.42656(14)
H3 H 0.1501(3) 0.4175(2) 0.45619(14)
H4 H -0.0844(9) 0.6124(3) 0.2553(8)
H5 H 0.0971(11) 0.6109(3) 0.275(1)
H6 H 0.016(2) 0.5948(2) 0.3494(3)
H7 H -0.2310(3) 0.4224(10) 0.2555(7)
H8 H -0.1424(9) 0.3977(13) 0.3511(3)
H9 H -0.1433(9) 0.3002(3) 0.281(1)
H10 H -0.2182(3) 0.5507(2) 0.13486(14)
H11 H -0.3772(3) 0.5779(2) -0.00215(14)
H12 H 0.6078(7) 0.3144(16) 0.6431(2)
H13 H 0.6502(3) 0.3619(11) 0.5608(9)
H14 H 0.5995(6) 0.2275(6) 0.5657(10)
H15 H 0.4085(9) 0.4053(15) 0.6579(3)
H16 H 0.2492(11) 0.3602(9) 0.6000(9)
H17 H 0.3177(9) 0.4837(6) 0.5805(7)
H18 H -0.1343(3) 0.3272(2) -0.09109(14)
H19 H 0.0256(3) 0.3020(2) 0.04455(14)
#END
