
#######################################################################
#
#                 Cambridge Crystallographic Data Centre
#                                CCDC
#
#######################################################################
#
# If this CIF has been generated from an entry in the Cambridge
# Structural Database, then it will include bibliographic, chemical,
# crystal, experimental, refinement or atomic coordinate data resulting
# from the CCDC's data processing and validation procedures.
#
#######################################################################

data_CSD_CIF_NANGIT
_audit_creation_date 2005-07-19
_audit_creation_method CSD-ConQuest-V1
_database_code_CSD NANGIT
_database_code_depnum_ccdc_archive 'CCDC 271032'
_chemical_formula_sum 'C10 H16 N4 O5'
_chemical_formula_moiety
;
C10 H16 N4 O5
;
_journal_coden_Cambridge 371
_journal_year 2004
_journal_page_first 115
_journal_name_full 'Khim.Prir.Soedin(Russ.)(Chem.Nat.Compd.) '
loop_
_publ_author_name
"E.M.Suleimenov"
"G.A.Atazhanova"
"A.T.Kulyyasov"
"V.A.Raldugin"
"I.Yu.Bagryanskaya"
"Yu.V.Gatilov"
"M.M.Shakirov"
"S.M.Adekenov"
_chemical_name_systematic
;
(3aS,6aS)-3,3,5,5-tetramethyl-3a,6a-dinitro-3,3a,4,5,6,6a-hexahydrocyclopenta(
c)pyrazol-2-oxide
;
_chemical_melting_point 393.15
_cell_volume   2545.942
_exptl_crystal_colour 'colorless'
_exptl_crystal_density_diffrn 1.421
_exptl_special_details
;
Melting point range 393.15-394.15K

;
_exptl_crystal_description 'hexagonal plate'
_diffrn_ambient_temperature 295
#These two values have been output from a single CSD field.
_refine_ls_R_factor_gt 0.0445
_refine_ls_wR_factor_gt 0.0445
_symmetry_cell_setting monoclinic
_symmetry_space_group_name_H-M 'C 2/c'
_symmetry_Int_Tables_number 15
loop_
_symmetry_equiv_pos_site_id
_symmetry_equiv_pos_as_xyz
1 x,y,z
2 1/2+x,1/2+y,z
3 -x,y,1/2-z
4 1/2-x,1/2+y,1/2-z
5 -x,-y,-z
6 -1/2-x,-1/2-y,-z
7 x,-y,-1/2+z
8 -1/2+x,-1/2-y,-1/2+z
_cell_length_a 15.198(2)
_cell_length_b 8.2980(8)
_cell_length_c 20.247(3)
_cell_angle_alpha 90
_cell_angle_beta 94.383(17)
_cell_angle_gamma 90
_cell_formula_units_Z 8
loop_
_atom_type_symbol
_atom_type_radius_bond
C 0.68
H 0.23
N 0.68
O 0.68
loop_
_atom_site_label
_atom_site_type_symbol
_atom_site_fract_x
_atom_site_fract_y
_atom_site_fract_z
N1 N 0.22783(10) -0.11377(18) 0.20797(7)
N2 N 0.17137(9) -0.00266(18) 0.21203(7)
C1 C 0.12973(11) 0.0689(2) 0.14770(9)
C2 C 0.19212(11) -0.0049(2) 0.09855(8)
C3 C 0.26926(12) 0.0974(2) 0.07512(10)
C4 C 0.35600(11) 0.0405(2) 0.11242(9)
C5 C 0.33681(12) -0.1381(2) 0.12504(10)
C6 C 0.24021(11) -0.14502(19) 0.13899(8)
C7 C 0.13160(17) 0.2517(3) 0.15313(13)
C8 C 0.03474(13) 0.0066(3) 0.14025(13)
C9 C 0.37854(16) 0.1351(3) 0.17582(12)
C10 C 0.43177(15) 0.0566(3) 0.06693(13)
N3 N 0.13519(11) -0.0503(2) 0.03635(8)
N4 N 0.20239(11) -0.31700(18) 0.12601(8)
O1 O 0.14805(10) 0.04949(18) 0.26525(6)
O2 O 0.11110(13) 0.0611(2) 0.00078(9)
O3 O 0.11447(13) -0.1879(2) 0.02505(8)
O4 O 0.13818(11) -0.35343(18) 0.15467(8)
O5 O 0.23917(13) -0.40528(19) 0.08928(10)
H1 H 0.2724(16) 0.073(3) 0.0284(13)
H2 H 0.2563(14) 0.214(3) 0.0792(10)
H3 H 0.3438(14) -0.201(3) 0.0857(11)
H4 H 0.3711(14) -0.183(3) 0.1619(11)
H5 H 0.0917(17) 0.280(3) 0.1848(12)
H6 H 0.1146(16) 0.296(3) 0.1078(13)
H7 H 0.191(2) 0.295(3) 0.1675(14)
H8 H 0.0071(16) 0.036(3) 0.1794(13)
H9 H 0.0325(17) -0.108(3) 0.1365(13)
H10 H 0.0046(18) 0.059(3) 0.0998(14)
H11 H 0.4329(19) 0.092(3) 0.1956(13)
H12 H 0.3348(18) 0.121(3) 0.2089(13)
H13 H 0.3892(19) 0.252(4) 0.1647(14)
H14 H 0.487(2) 0.015(4) 0.0934(15)
H15 H 0.4406(18) 0.171(3) 0.0539(13)
H16 H 0.4191(16) -0.004(3) 0.0254(13)
#END
