
#######################################################################
#
#                 Cambridge Crystallographic Data Centre
#                                CCDC
#
#######################################################################
#
# If this CIF has been generated from an entry in the Cambridge
# Structural Database, then it will include bibliographic, chemical,
# crystal, experimental, refinement or atomic coordinate data resulting
# from the CCDC's data processing and validation procedures.
#
#######################################################################

data_CSD_CIF_NANHAL
_audit_creation_date 1998-03-17
_audit_creation_method CSD-ConQuest-V1
_database_code_CSD NANHAL
_database_code_depnum_ccdc_journal 188/54
_chemical_formula_sum 'C18 H19 N3 O2'
_chemical_formula_moiety
;
C18 H19 N3 O2
;
_journal_coden_Cambridge 188
_journal_year 1997
_journal_page_first 809
_journal_name_full 'J.Chem.Soc.,Perkin Trans.2 '
loop_
_publ_author_name
"C.A.van Walree"
"A.W.Maarsman"
"A.W.Marsman"
"M.C.Flipse"
"L.W.Jenneskens"
"W.J.J.Smeets"
"A.L.Spek"
_chemical_name_systematic
;
3,3-Dimethyl-2-(4-(N,N-dimethylamino)phenyl)-5-nitro-3H-indole
;
_chemical_melting_point 450.15
_cell_volume    758.934
_exptl_crystal_colour 'orange'
_exptl_crystal_density_diffrn 1.354
_exptl_crystal_preparation 'methanol'
_diffrn_ambient_temperature 150
#These two values have been output from a single CSD field.
_refine_ls_R_factor_gt 0.0448
_refine_ls_wR_factor_gt 0.0448
_symmetry_cell_setting monoclinic
_symmetry_space_group_name_H-M 'P 21'
_symmetry_Int_Tables_number 4
loop_
_symmetry_equiv_pos_site_id
_symmetry_equiv_pos_as_xyz
1 x,y,z
2 -x,1/2+y,-z
_cell_length_a 8.209(2)
_cell_length_b 10.517(2)
_cell_length_c 9.130(2)
_cell_angle_alpha 90
_cell_angle_beta 105.67(2)
_cell_angle_gamma 90
_cell_formula_units_Z 2
loop_
_atom_type_symbol
_atom_type_radius_bond
C 0.68
H 0.23
N 0.68
O 0.68
loop_
_atom_site_label
_atom_site_type_symbol
_atom_site_fract_x
_atom_site_fract_y
_atom_site_fract_z
O1 O 1.1582(2) 0.4164(2) 1.3352(2)
O2 O 1.2449(2) 0.6051(2) 1.2992(2)
N1 N 0.5481(2) 0.5940(2) 0.8055(2)
N2 N 1.1414(3) 0.5180(2) 1.2672(2)
N3 N -0.2492(3) 0.5206(2) 0.5295(3)
C1 C 0.7067(3) 0.5811(2) 0.9109(3)
C2 C 0.8481(3) 0.6555(2) 0.9192(3)
C3 C 0.9910(3) 0.6334(2) 1.0375(3)
C4 C 0.9896(3) 0.5372(2) 1.1404(3)
C5 C 0.8512(3) 0.4579(2) 1.1309(3)
C6 C 0.7087(3) 0.4821(2) 1.0141(3)
C7 C 0.5370(3) 0.4210(2) 0.9726(3)
C8 C 0.4534(3) 0.4271(2) 1.1023(3)
C9 C 0.5522(3) 0.2819(2) 0.9235(3)
C10 C 0.4485(3) 0.5080(2) 0.8376(3)
C11 C 0.2699(3) 0.5042(2) 0.7575(3)
C12 C 0.1591(3) 0.4052(2) 0.7669(3)
C13 C -0.0098(3) 0.4082(2) 0.6905(3)
C14 C -0.0805(3) 0.5137(2) 0.6004(3)
C15 C -0.3209(4) 0.6359(3) 0.4515(4)
C16 C -0.3616(3) 0.4159(3) 0.5355(3)
C17 C 0.0298(3) 0.6138(3) 0.5908(3)
C18 C 0.1987(3) 0.6072(3) 0.6647(3)
H1 H 0.8469(3) 0.7185(2) 0.8475(3)
H2 H 1.0874(3) 0.6828(2) 1.0477(3)
H3 H 0.8548(3) 0.3922(2) 1.1998(3)
H4 H 0.2013(3) 0.3349(2) 0.8270(3)
H5 H -0.0784(3) 0.3396(2) 0.6983(3)
H6 H -0.0125(3) 0.6854(3) 0.5334(3)
H7 H 0.2687(3) 0.6737(3) 0.6529(3)
H8 H 0.3398(7) 0.3952(13) 1.0679(6)
H9 H 0.4509(16) 0.5137(3) 1.1350(11)
H10 H 0.5165(11) 0.3763(11) 1.1857(7)
H11 H 0.4420(4) 0.2435(5) 0.8949(18)
H12 H 0.6239(17) 0.2354(5) 1.0068(7)
H13 H 0.600(2) 0.2803(2) 0.8385(12)
H14 H -0.4419(4) 0.6288(9) 0.420(2)
H15 H -0.279(2) 0.6484(11) 0.3641(15)
H16 H -0.289(2) 0.7071(4) 0.5191(9)
H17 H -0.4757(4) 0.4393(7) 0.484(2)
H18 H -0.3544(18) 0.3960(12) 0.6397(3)
H19 H -0.3292(15) 0.3428(6) 0.4869(19)
#END
