
#######################################################################
#
#                 Cambridge Crystallographic Data Centre
#                                CCDC
#
#######################################################################
#
# If this CIF has been generated from an entry in the Cambridge
# Structural Database, then it will include bibliographic, chemical,
# crystal, experimental, refinement or atomic coordinate data resulting
# from the CCDC's data processing and validation procedures.
#
#######################################################################

data_CSD_CIF_NANILI02
_audit_creation_date 1994-02-15
_audit_creation_method CSD-ConQuest-V1
_database_code_CSD NANILI02
_database_code_depnum_ccdc_archive 'CCDC 1216644'
_chemical_formula_sum 'C6 H6 N2 O2'
_chemical_formula_moiety
;
C6 H6 N2 O2
;
_journal_coeditor_code "IUCr AS0633"
_journal_coden_Cambridge 622
_journal_volume 49
_journal_year 1993
_journal_page_first 1031
_journal_name_full 'Acta Crystallogr.,Sect.B:Struct.Sci. '
loop_
_publ_author_name
"M.Tonogaki"
"T.Kawata"
"S.Ohba"
"Y.Iwata"
"I.Shibuya"
_chemical_name_systematic
;
4-Nitroaniline
;
_cell_volume    619.417
_exptl_crystal_density_diffrn 1.48
_diffrn_ambient_temperature 120
#These two values have been output from a single CSD field.
_refine_ls_R_factor_gt 0.038
_refine_ls_wR_factor_gt 0.038
_symmetry_cell_setting monoclinic
_symmetry_space_group_name_H-M 'P 21/n'
_symmetry_Int_Tables_number 14
loop_
_symmetry_equiv_pos_site_id
_symmetry_equiv_pos_as_xyz
1 x,y,z
2 1/2-x,1/2+y,1/2-z
3 -x,-y,-z
4 -1/2+x,-1/2-y,-1/2+z
_cell_length_a 12.122(2)
_cell_length_b 6.0276(9)
_cell_length_c 8.487(1)
_cell_angle_alpha 90
_cell_angle_beta 92.72(1)
_cell_angle_gamma 90
_cell_formula_units_Z 4
loop_
_atom_type_symbol
_atom_type_radius_bond
C 0.68
H 0.23
N 0.68
O 0.68
loop_
_atom_site_label
_atom_site_type_symbol
_atom_site_fract_x
_atom_site_fract_y
_atom_site_fract_z
O1 O 0.42936(10) 0.62280(19) 0.86791(14)
O2 O 0.44682(10) 0.91418(16) 0.72148(13)
N1 N 0.81436(12) 0.31702(22) 0.44838(17)
N2 N 0.47391(8) 0.72228(16) 0.76079(12)
C1 C 0.73046(8) 0.41267(18) 0.52358(12)
C2 C 0.67915(8) 0.30185(16) 0.64737(13)
C3 C 0.59467(8) 0.40232(16) 0.72543(13)
C4 C 0.56041(9) 0.61556(14) 0.67976(13)
C5 C 0.60865(8) 0.72677(15) 0.55615(12)
C6 C 0.69284(9) 0.62676(17) 0.47889(12)
H1 H 0.7039(9) 0.1632(17) 0.6810(13)
H2 H 0.5625(11) 0.3344(22) 0.8116(17)
H3 H 0.5836(9) 0.8695(18) 0.5254(14)
H4 H 0.7265(11) 0.7031(20) 0.3972(15)
H5 H 0.8340(11) 0.1824(23) 0.4710(15)
H6 H 0.8458(14) 0.3892(25) 0.3801(20)
#END
