
#######################################################################
#
#                 Cambridge Crystallographic Data Centre
#                                CCDC
#
#######################################################################
#
# If this CIF has been generated from an entry in the Cambridge
# Structural Database, then it will include bibliographic, chemical,
# crystal, experimental, refinement or atomic coordinate data resulting
# from the CCDC's data processing and validation procedures.
#
#######################################################################

data_CSD_CIF_NANILI30
_audit_creation_date 2014-10-16
_audit_creation_method CSD-ConQuest-V1
_database_code_CSD NANILI30
_database_code_depnum_ccdc_archive 'CCDC 985593'
_chemical_formula_sum 'C6 H6 N2 O2'
_chemical_formula_moiety
;
C6 H6 N2 O2
;
_journal_coden_Cambridge 95
_journal_year 2014
_journal_page_first 1270
_journal_name_full 'Izv.Akad.Nauk SSSR,Ser.Khim.(Russ.)(Russ.Chem.Bull.) '
loop_
_publ_author_name
"I.V.Ananyev"
"K.A.Lyssenko"
_chemical_name_systematic
;
4-nitroaniline
;
_cell_volume    633.561
_exptl_crystal_colour 'colorless'
_exptl_crystal_density_diffrn 1.448
_exptl_crystal_description 'prism'
_diffrn_ambient_temperature 250
#These two values have been output from a single CSD field.
_refine_ls_R_factor_gt 0.0413
_refine_ls_wR_factor_gt 0.0413
_symmetry_cell_setting monoclinic
_symmetry_space_group_name_H-M 'P 21/n'
_symmetry_Int_Tables_number 14
loop_
_symmetry_equiv_pos_site_id
_symmetry_equiv_pos_as_xyz
1 x,y,z
2 1/2-x,1/2+y,1/2-z
3 -x,-y,-z
4 -1/2+x,-1/2-y,-1/2+z
_cell_length_a 8.553(2)
_cell_length_b 6.0448(16)
_cell_length_c 12.261(3)
_cell_angle_alpha 90
_cell_angle_beta 91.897(5)
_cell_angle_gamma 90
_cell_formula_units_Z 4
loop_
_atom_type_symbol
_atom_type_radius_bond
C 0.68
H 0.23
N 0.68
O 0.68
loop_
_atom_site_label
_atom_site_type_symbol
_atom_site_fract_x
_atom_site_fract_y
_atom_site_fract_z
O1 O 0.72117(12) 0.58982(15) -0.05372(8)
O2 O 0.86586(12) 0.87887(17) -0.07069(8)
N1 N 0.76006(11) 0.77941(16) -0.02618(7)
N2 N 0.44966(15) 1.1805(3) 0.3132(1)
C1 C 0.67935(11) 0.88525(16) 0.06056(8)
C2 C 0.72445(13) 1.09637(17) 0.09488(9)
C3 C 0.64759(13) 1.19473(17) 0.17844(9)
C4 C 0.52478(12) 1.08559(18) 0.22961(9)
C5 C 0.48050(13) 0.87304(19) 0.19237(9)
C6 C 0.55705(12) 0.77434(17) 0.10874(8)
H1 H 0.5297(16) 0.630(2) 0.0846(11)
H2 H 0.6763(16) 1.337(3) 0.2002(11)
H3 H 0.3975(17) 0.799(2) 0.2263(12)
H4 H 0.8113(17) 1.170(2) 0.0624(11)
H5 H 0.379(2) 1.107(3) 0.3477(16)
H6 H 0.4740(19) 1.313(3) 0.3312(14)
#END
