
#######################################################################
#
#                 Cambridge Crystallographic Data Centre
#                                CCDC
#
#######################################################################
#
# If this CIF has been generated from an entry in the Cambridge
# Structural Database, then it will include bibliographic, chemical,
# crystal, experimental, refinement or atomic coordinate data resulting
# from the CCDC's data processing and validation procedures.
#
#######################################################################

data_CSD_CIF_NANILI26
_audit_creation_date 2014-10-16
_audit_creation_method CSD-ConQuest-V1
_database_code_CSD NANILI26
_database_code_depnum_ccdc_archive 'CCDC 985589'
_chemical_formula_sum 'C6 H6 N2 O2'
_chemical_formula_moiety
;
C6 H6 N2 O2
;
_journal_coden_Cambridge 95
_journal_year 2014
_journal_page_first 1270
_journal_name_full 'Izv.Akad.Nauk SSSR,Ser.Khim.(Russ.)(Russ.Chem.Bull.) '
loop_
_publ_author_name
"I.V.Ananyev"
"K.A.Lyssenko"
_chemical_name_systematic
;
4-nitroaniline
;
_cell_volume    620.677
_exptl_crystal_colour 'colorless'
_exptl_crystal_density_diffrn 1.478
_exptl_crystal_description 'prism'
_diffrn_ambient_temperature 150
#These two values have been output from a single CSD field.
_refine_ls_R_factor_gt 0.0387
_refine_ls_wR_factor_gt 0.0387
_symmetry_cell_setting monoclinic
_symmetry_space_group_name_H-M 'P 21/n'
_symmetry_Int_Tables_number 14
loop_
_symmetry_equiv_pos_site_id
_symmetry_equiv_pos_as_xyz
1 x,y,z
2 1/2-x,1/2+y,1/2-z
3 -x,-y,-z
4 -1/2+x,-1/2-y,-1/2+z
_cell_length_a 8.4891(9)
_cell_length_b 6.0334(6)
_cell_length_c 12.1306(13)
_cell_angle_alpha 90
_cell_angle_beta 92.5797(19)
_cell_angle_gamma 90
_cell_formula_units_Z 4
loop_
_atom_type_symbol
_atom_type_radius_bond
C 0.68
H 0.23
N 0.68
O 0.68
loop_
_atom_site_label
_atom_site_type_symbol
_atom_site_fract_x
_atom_site_fract_y
_atom_site_fract_z
O1 O 0.7219(1) 0.58705(13) -0.05320(7)
O2 O 0.86716(10) 0.87811(15) -0.07079(7)
N1 N 0.76063(10) 0.77803(15) -0.02604(7)
N2 N 0.44870(12) 1.18293(19) 0.31388(9)
C1 C 0.67955(11) 0.88477(15) 0.06072(7)
C2 C 0.72500(11) 1.09738(16) 0.09495(8)
C3 C 0.64746(12) 1.19708(16) 0.17877(8)
C4 C 0.52396(11) 1.08737(17) 0.23010(8)
C5 C 0.47920(11) 0.87354(17) 0.19274(8)
C6 C 0.55632(11) 0.77350(16) 0.10882(8)
H1 H 0.5283(16) 0.630(2) 0.0845(11)
H2 H 0.6762(16) 1.343(2) 0.2012(11)
H3 H 0.3956(18) 0.797(3) 0.2265(12)
H4 H 0.8148(17) 1.171(2) 0.0621(11)
H5 H 0.379(2) 1.106(3) 0.3481(14)
H6 H 0.4731(19) 1.317(3) 0.3337(13)
#END
