
#######################################################################
#
#                 Cambridge Crystallographic Data Centre
#                                CCDC
#
#######################################################################
#
# If this CIF has been generated from an entry in the Cambridge
# Structural Database, then it will include bibliographic, chemical,
# crystal, experimental, refinement or atomic coordinate data resulting
# from the CCDC's data processing and validation procedures.
#
#######################################################################

data_CSD_CIF_NANILI25
_audit_creation_date 2014-10-16
_audit_creation_method CSD-ConQuest-V1
_database_code_CSD NANILI25
_database_code_depnum_ccdc_archive 'CCDC 985588'
_chemical_formula_sum 'C6 H6 N2 O2'
_chemical_formula_moiety
;
C6 H6 N2 O2
;
_journal_coden_Cambridge 95
_journal_year 2014
_journal_page_first 1270
_journal_name_full 'Izv.Akad.Nauk SSSR,Ser.Khim.(Russ.)(Russ.Chem.Bull.) '
loop_
_publ_author_name
"I.V.Ananyev"
"K.A.Lyssenko"
_chemical_name_systematic
;
4-nitroaniline
;
_cell_volume    618.463
_exptl_crystal_colour 'colorless'
_exptl_crystal_density_diffrn 1.483
_exptl_crystal_description 'prism'
_diffrn_ambient_temperature 125
#These two values have been output from a single CSD field.
_refine_ls_R_factor_gt 0.0373
_refine_ls_wR_factor_gt 0.0373
_symmetry_cell_setting monoclinic
_symmetry_space_group_name_H-M 'P 21/n'
_symmetry_Int_Tables_number 14
loop_
_symmetry_equiv_pos_site_id
_symmetry_equiv_pos_as_xyz
1 x,y,z
2 1/2-x,1/2+y,1/2-z
3 -x,-y,-z
4 -1/2+x,-1/2-y,-1/2+z
_cell_length_a 8.4764(8)
_cell_length_b 6.0328(6)
_cell_length_c 12.1082(12)
_cell_angle_alpha 90
_cell_angle_beta 92.7386(18)
_cell_angle_gamma 90
_cell_formula_units_Z 4
loop_
_atom_type_symbol
_atom_type_radius_bond
C 0.68
H 0.23
N 0.68
O 0.68
loop_
_atom_site_label
_atom_site_type_symbol
_atom_site_fract_x
_atom_site_fract_y
_atom_site_fract_z
O1 O 0.72214(9) 0.58635(12) -0.05309(6)
O2 O 0.86748(9) 0.87801(13) -0.07081(6)
N1 N 0.76083(9) 0.77768(14) -0.02595(6)
N2 N 0.44836(11) 1.18328(17) 0.31410(8)
C1 C 0.67961(10) 0.88476(14) 0.06074(7)
C2 C 0.72518(11) 1.09758(15) 0.09491(7)
C3 C 0.64738(11) 1.19754(15) 0.17877(8)
C4 C 0.52371(11) 1.08759(16) 0.23024(7)
C5 C 0.47890(11) 0.87364(15) 0.19282(7)
C6 C 0.55616(10) 0.77343(15) 0.10880(7)
H1 H 0.5272(16) 0.631(2) 0.0851(11)
H2 H 0.6764(15) 1.343(2) 0.2013(11)
H3 H 0.3942(17) 0.796(2) 0.2266(11)
H4 H 0.8137(17) 1.171(2) 0.0619(11)
H5 H 0.379(2) 1.108(3) 0.3483(14)
H6 H 0.4720(18) 1.318(3) 0.3337(13)
#END
