
#######################################################################
#
#                 Cambridge Crystallographic Data Centre
#                                CCDC
#
#######################################################################
#
# If this CIF has been generated from an entry in the Cambridge
# Structural Database, then it will include bibliographic, chemical,
# crystal, experimental, refinement or atomic coordinate data resulting
# from the CCDC's data processing and validation procedures.
#
#######################################################################

data_CSD_CIF_NANILI23
_audit_creation_date 2008-02-21
_audit_creation_method CSD-ConQuest-V1
_database_code_CSD NANILI23
_database_code_depnum_ccdc_archive 'CCDC 659427'
_chemical_formula_sum 'C6 H6 N2 O2'
_chemical_formula_moiety
;
C6 H6 N2 O2
;
_journal_coden_Cambridge 1078
_journal_year 2007
_journal_name_full 'CSD Communication(Private Communication) '
loop_
_publ_author_name
"M.Nieger"
_chemical_name_systematic
;
p-Nitroaniline
;
_cell_volume    619.797
_exptl_crystal_colour 'yellow'
_exptl_crystal_density_diffrn 1.48
_exptl_special_details
;
contribution from Laboratory of Inorganic Chemistry, Department of Chemistry, 
Universitity of Helsinki, P.O. Box 55, FIN-00014 University of Helsinki, 
Finland
;
_exptl_crystal_description 'plates'
_diffrn_ambient_temperature 123
#These two values have been output from a single CSD field.
_refine_ls_R_factor_gt 0.0324
_refine_ls_wR_factor_gt 0.0324
_symmetry_cell_setting monoclinic
_symmetry_space_group_name_H-M 'P 21/n'
_symmetry_Int_Tables_number 14
loop_
_symmetry_equiv_pos_site_id
_symmetry_equiv_pos_as_xyz
1 x,y,z
2 1/2-x,1/2+y,1/2-z
3 -x,-y,-z
4 -1/2+x,-1/2-y,-1/2+z
_cell_length_a 8.4895(2)
_cell_length_b 6.0275(2)
_cell_length_c 12.1261(3)
_cell_angle_alpha 90
_cell_angle_beta 92.724(2)
_cell_angle_gamma 90
_cell_formula_units_Z 4
loop_
_atom_type_symbol
_atom_type_radius_bond
C 0.68
H 0.23
N 0.68
O 0.68
loop_
_atom_site_label
_atom_site_type_symbol
_atom_site_fract_x
_atom_site_fract_y
_atom_site_fract_z
O1 O 0.72215(9) 0.91357(13) 0.44700(6)
O2 O 0.86738(9) 0.62209(14) 0.42927(6)
N1 N 0.44834(12) 0.31679(18) 0.81394(8)
H1 H 0.3759(18) 0.394(3) 0.8473(12)
H2 H 0.4701(17) 0.180(3) 0.8324(12)
N2 N 0.76096(10) 0.72232(15) 0.47408(7)
C1 C 0.52375(12) 0.41226(17) 0.73020(8)
C2 C 0.64744(11) 0.30275(16) 0.67874(8)
H3 H 0.67750 0.15790 0.70230
C3 C 0.72510(11) 0.40250(16) 0.59502(8)
H4 H 0.80860 0.32780 0.56100
C4 C 0.67954(11) 0.61524(16) 0.56068(7)
C5 C 0.55606(11) 0.72639(16) 0.60882(7)
H5 H 0.52550 0.87010 0.58380
C6 C 0.47903(11) 0.62630(16) 0.69272(8)
H6 H 0.39500 0.70160 0.72580
#END
