
#######################################################################
#
#                 Cambridge Crystallographic Data Centre
#                                CCDC
#
#######################################################################
#
# If this CIF has been generated from an entry in the Cambridge
# Structural Database, then it will include bibliographic, chemical,
# crystal, experimental, refinement or atomic coordinate data resulting
# from the CCDC's data processing and validation procedures.
#
#######################################################################

data_CSD_CIF_NANILI21
_audit_creation_date 1983-07-19
_audit_creation_method CSD-ConQuest-V1
_database_code_CSD NANILI21
_database_code_depnum_ccdc_archive 'CCDC 1216647'
_chemical_formula_sum 'C6 H6 N2 O2'
_chemical_formula_moiety
;
C6 H6 N2 O2
;
_journal_coden_Cambridge 644
_journal_volume 37
_journal_year 1982
_journal_page_first 1309
_journal_name_full 'Z.Naturforsch.,B:Chem.Sci. '
loop_
_publ_author_name
"M.Colapietro"
"A.Domenicano"
"C.Marciante"
"G.Portalone"
_chemical_name_systematic
;
p-Nitroaniline
;
_cell_volume    640.095
_exptl_crystal_density_diffrn 1.433
_diffrn_ambient_temperature ?
_diffrn_special_details
;
The study was carried out at room temperature,in the range 283-303K

;
#These two values have been output from a single CSD field.
_refine_ls_R_factor_gt 0.044
_refine_ls_wR_factor_gt 0.044
_symmetry_cell_setting monoclinic
_symmetry_space_group_name_H-M 'P 21/n'
_symmetry_Int_Tables_number 14
loop_
_symmetry_equiv_pos_site_id
_symmetry_equiv_pos_as_xyz
1 x,y,z
2 1/2-x,1/2+y,1/2-z
3 -x,-y,-z
4 -1/2+x,-1/2-y,-1/2+z
_cell_length_a 12.337(5)
_cell_length_b 6.037(2)
_cell_length_c 8.597(5)
_cell_angle_alpha 90
_cell_angle_beta 91.42(7)
_cell_angle_gamma 90
_cell_formula_units_Z 4
loop_
_atom_type_symbol
_atom_type_radius_bond
C 0.68
H 0.23
N 0.68
O 0.68
loop_
_atom_site_label
_atom_site_type_symbol
_atom_site_fract_x
_atom_site_fract_y
_atom_site_fract_z
O1 O 0.42929 0.62055 0.86509
O2 O 0.44619 0.90916 0.72113
N1 N 0.81298 0.32074 0.45022
N2 N 0.47389 0.71978 0.75984
C1 C 0.72954 0.41523 0.52532
C2 C 0.67814 0.30614 0.64781
C3 C 0.59506 0.40405 0.72436
C4 C 0.56041 0.61468 0.67935
C5 C 0.60880 0.72534 0.55722
C6 C 0.69217 0.62690 0.48120
H1 H 0.70400 0.16500 0.67500
H2 H 0.56400 0.33200 0.80900
H3 H 0.58400 0.86900 0.53000
H4 H 0.72400 0.70700 0.39800
H5 H 0.82700 0.18900 0.47200
H6 H 0.84400 0.39200 0.37900
#END
