
#######################################################################
#
#                 Cambridge Crystallographic Data Centre
#                                CCDC
#
#######################################################################
#
# If this CIF has been generated from an entry in the Cambridge
# Structural Database, then it will include bibliographic, chemical,
# crystal, experimental, refinement or atomic coordinate data resulting
# from the CCDC's data processing and validation procedures.
#
#######################################################################

data_CSD_CIF_NANSAZ
_audit_creation_date 2017-03-20
_audit_creation_method CSD-ConQuest-V1
_database_code_CSD NANSAZ
_database_code_depnum_ccdc_archive 'CCDC 1533434'
_chemical_formula_sum 'C19 H18 N2 O3'
_chemical_formula_moiety
;
C19 H18 N2 O3
;
_journal_coden_Cambridge 182
_journal_volume 53
_journal_year 2017
_journal_page_first 3894
_journal_name_full 'Chem.Commun. '
loop_
_publ_author_name
"M.H.Babu"
"G.R.Kumar"
"Ruchir Kant"
"M.S.Reddy"
_chemical_name_systematic
;
7-hydroxy-5-(3-nitrophenyl)-4-phenylhept-4-enenitrile
;
_cell_volume   1665.001
_exptl_crystal_colour 'colorless'
_exptl_crystal_density_diffrn 1.286
_exptl_crystal_description 'Block'
_diffrn_ambient_temperature 293
#These two values have been output from a single CSD field.
_refine_ls_R_factor_gt 0.0714
_refine_ls_wR_factor_gt 0.0714
_symmetry_cell_setting monoclinic
_symmetry_space_group_name_H-M 'P 21/c'
_symmetry_Int_Tables_number 14
loop_
_symmetry_equiv_pos_site_id
_symmetry_equiv_pos_as_xyz
1 x,y,z
2 -x,1/2+y,1/2-z
3 -x,-y,-z
4 x,-1/2-y,-1/2+z
_cell_length_a 16.456(13)
_cell_length_b 6.808(5)
_cell_length_c 15.922(13)
_cell_angle_alpha 90
_cell_angle_beta 111.027(12)
_cell_angle_gamma 90
_cell_formula_units_Z 4
loop_
_atom_type_symbol
_atom_type_radius_bond
C 0.68
H 0.23
N 0.68
O 0.68
loop_
_atom_site_label
_atom_site_type_symbol
_atom_site_fract_x
_atom_site_fract_y
_atom_site_fract_z
O1 O 0.33771(19) 0.3052(5) 0.3737(2)
O2 O 0.1721(2) 1.2443(4) 0.4576(2)
O3 O 0.0418(2) 1.1807(5) 0.4486(2)
N1 N 0.1821(3) 1.2087(6) 0.1929(3)
N2 N 0.1081(2) 1.1387(5) 0.43533(19)
C1 C 0.3960(3) 0.8115(6) 0.2001(3)
C2 C 0.4636(3) 0.7921(8) 0.1692(3)
C3 C 0.4683(3) 0.6354(8) 0.1177(3)
C4 C 0.4044(3) 0.4942(7) 0.0987(3)
C5 C 0.3368(3) 0.5090(6) 0.1301(2)
C6 C 0.3315(2) 0.6683(5) 0.1818(2)
C7 C 0.2567(2) 0.6915(5) 0.2128(2)
C8 C 0.1707(2) 0.7185(5) 0.1365(2)
C9 C 0.1662(3) 0.9110(5) 0.0862(2)
C10 C 0.1757(3) 1.0812(6) 0.1443(3)
C11 C 0.2650(2) 0.6971(5) 0.2994(2)
C12 C 0.3493(2) 0.6639(6) 0.3764(2)
C13 C 0.3477(3) 0.4759(7) 0.4263(3)
C14 C 0.1888(2) 0.7367(5) 0.3263(2)
C15 C 0.1844(2) 0.9109(5) 0.3703(2)
C16 C 0.1122(2) 0.9497(5) 0.3911(2)
C17 C 0.0430(2) 0.8215(6) 0.3738(2)
C18 C 0.0481(2) 0.6471(6) 0.3321(2)
C19 C 0.1200(2) 0.6037(5) 0.3094(2)
H1 H 0.39330 0.92150 0.23360
H2 H 0.29190 0.31140 0.33040
H3 H 0.50690 0.88750 0.18370
H4 H 0.51360 0.62440 0.09590
H5 H 0.40690 0.38630 0.06390
H6 H 0.29450 0.41140 0.11640
H7 H 0.12410 0.71560 0.16040
H8 H 0.16170 0.60990 0.09470
H9 H 0.21200 0.91290 0.06120
H10 H 0.11080 0.91880 0.03660
H11 H 0.36020 0.77370 0.41780
H12 H 0.39650 0.65800 0.35360
H13 H 0.40150 0.46590 0.47790
H14 H 0.30010 0.48270 0.44870
H15 H 0.23020 1.00030 0.38540
H16 H -0.00470 0.85160 0.38970
H17 H 0.00260 0.55710 0.31900
H18 H 0.12250 0.48380 0.28240
#END
