
#######################################################################
#
#                 Cambridge Crystallographic Data Centre
#                                CCDC
#
#######################################################################
#
# If this CIF has been generated from an entry in the Cambridge
# Structural Database, then it will include bibliographic, chemical,
# crystal, experimental, refinement or atomic coordinate data resulting
# from the CCDC's data processing and validation procedures.
#
#######################################################################

data_CSD_CIF_NAPHUK
_audit_creation_date 2017-03-20
_audit_creation_method CSD-ConQuest-V1
_database_code_CSD NAPHUK
_database_code_depnum_ccdc_archive 'CCDC 1529751'
_chemical_formula_sum 'C4 H4 N2 O4'
_chemical_formula_moiety
;
C4 H4 N2 O4
;
_journal_coden_Cambridge 1350
_journal_volume 19
_journal_year 2017
_journal_page_first 1933
_journal_name_full 'CrystEngComm '
loop_
_publ_author_name
"A.Bauza"
"A.V.Sharko"
"G.A.Senchyk"
"E.B.Rusanov"
"A.Frontera"
"K.V.Domasevitch"
_chemical_name_systematic
;
1,4-dinitrobuta-1,3-diene
;
_cell_volume    307.626
_exptl_crystal_colour 'yellow'
_exptl_crystal_density_diffrn 1.556
_exptl_crystal_description 'prism'
_diffrn_ambient_temperature 296
#These two values have been output from a single CSD field.
_refine_ls_R_factor_gt 0.0356
_refine_ls_wR_factor_gt 0.0356
_symmetry_cell_setting monoclinic
_symmetry_space_group_name_H-M 'P 21/c'
_symmetry_Int_Tables_number 14
loop_
_symmetry_equiv_pos_site_id
_symmetry_equiv_pos_as_xyz
1 x,y,z
2 -x,1/2+y,1/2-z
3 -x,-y,-z
4 x,-1/2-y,-1/2+z
_cell_length_a 3.8306(3)
_cell_length_b 10.3433(6)
_cell_length_c 7.9532(6)
_cell_angle_alpha 90
_cell_angle_beta 102.516(6)
_cell_angle_gamma 90
_cell_formula_units_Z 2
loop_
_atom_type_symbol
_atom_type_radius_bond
C 0.68
H 0.23
N 0.68
O 0.68
loop_
_atom_site_label
_atom_site_type_symbol
_atom_site_fract_x
_atom_site_fract_y
_atom_site_fract_z
O1 O 0.2636(4) 0.26272(11) 0.26130(18)
O2 O 0.6360(4) 0.14293(14) 0.43439(18)
N1 N 0.3981(4) 0.15860(13) 0.30685(17)
C1 C 0.2789(4) 0.04488(13) 0.20389(19)
C2 C 0.0581(4) 0.05551(12) 0.05421(17)
H1 H 0.384(5) -0.0282(16) 0.255(2)
H2 H -0.026(4) 0.1395(15) 0.015(2)
O1B O -0.2636(4) -0.26272(11) -0.26130(18)
O2B O -0.6360(4) -0.14293(14) -0.43439(18)
N1B N -0.3981(4) -0.15860(13) -0.30685(17)
C1B C -0.2789(4) -0.04488(13) -0.20389(19)
C2B C -0.0581(4) -0.05551(12) -0.05421(17)
H1B H -0.384(5) 0.0282(16) -0.255(2)
H2B H 0.026(4) -0.1395(15) -0.015(2)
#END
