
#######################################################################
#
#                 Cambridge Crystallographic Data Centre
#                                CCDC
#
#######################################################################
#
# If this CIF has been generated from an entry in the Cambridge
# Structural Database, then it will include bibliographic, chemical,
# crystal, experimental, refinement or atomic coordinate data resulting
# from the CCDC's data processing and validation procedures.
#
#######################################################################

data_CSD_CIF_NAPHAP
_audit_creation_date 2012-03-30
_audit_creation_method CSD-ConQuest-V1
_database_code_CSD NAPHAP
_database_code_depnum_ccdc_archive 'CCDC 836350'
_chemical_formula_sum 'C2 H2 N8 O2'
_chemical_formula_moiety
;
C2 H2 N8 O2
;
_journal_coden_Cambridge 1220
_journal_volume 17
_journal_year 2011
_journal_page_first 14485
_journal_name_full 'Chem.-Eur.J. '
loop_
_publ_author_name
"Kai Wang"
"D.A.Parrish"
"J.M.Shreeve"
_chemical_name_systematic
;
(Z)-5-Azido-N-nitro-2,4-dihydro-3H-1,2,4-triazol-3-imine
;
_cell_volume    629.385
_exptl_crystal_colour 'yellow'
_exptl_crystal_density_diffrn 1.795
_exptl_crystal_description 'plate'
_diffrn_ambient_temperature 296
#These two values have been output from a single CSD field.
_refine_ls_R_factor_gt 0.029
_refine_ls_wR_factor_gt 0.029
_symmetry_cell_setting orthorhombic
_symmetry_space_group_name_H-M 'P 21 21 21'
_symmetry_Int_Tables_number 19
loop_
_symmetry_equiv_pos_site_id
_symmetry_equiv_pos_as_xyz
1 x,y,z
2 1/2+x,1/2-y,-z
3 -x,1/2+y,1/2-z
4 1/2-x,-y,1/2+z
_cell_length_a 5.6340(4)
_cell_length_b 8.5847(6)
_cell_length_c 13.0129(9)
_cell_angle_alpha 90
_cell_angle_beta 90
_cell_angle_gamma 90
_cell_formula_units_Z 4
loop_
_atom_type_symbol
_atom_type_radius_bond
C 0.68
H 0.23
N 0.68
O 0.68
loop_
_atom_site_label
_atom_site_type_symbol
_atom_site_fract_x
_atom_site_fract_y
_atom_site_fract_z
N1 N -0.1595(2) 1.03410(14) 0.16718(9)
N2 N 0.0344(2) 1.06553(12) 0.10543(8)
H1 H 0.07170 1.15710 0.08410
C1 C 0.1560(2) 0.93741(14) 0.08297(9)
N3 N 0.3493(2) 0.90423(12) 0.02498(9)
N4 N 0.45965(19) 1.02558(12) -0.01595(8)
O1 O 0.62666(18) 0.99453(11) -0.07575(8)
O2 O 0.40362(18) 1.16276(10) 0.00351(8)
N5 N 0.0440(2) 0.82038(12) 0.13208(9)
H2 H 0.08460 0.72380 0.13260
C2 C -0.1452(2) 0.88459(15) 0.18048(9)
N6 N -0.2968(2) 0.79008(15) 0.23649(10)
N7 N -0.4597(2) 0.86458(15) 0.27998(9)
N8 N -0.6122(3) 0.9166(2) 0.32178(12)
#END
