
#######################################################################
#
#                 Cambridge Crystallographic Data Centre
#                                CCDC
#
#######################################################################
#
# If this CIF has been generated from an entry in the Cambridge
# Structural Database, then it will include bibliographic, chemical,
# crystal, experimental, refinement or atomic coordinate data resulting
# from the CCDC's data processing and validation procedures.
#
#######################################################################

data_CSD_CIF_NAPJEW
_audit_creation_date 2017-03-20
_audit_creation_method CSD-ConQuest-V1
_database_code_CSD NAPJEW
_database_code_depnum_ccdc_archive 'CCDC 1529753'
_chemical_formula_sum 'C5 H6 N2 O4'
_chemical_formula_moiety
;
C5 H6 N2 O4
;
_journal_coden_Cambridge 1350
_journal_volume 19
_journal_year 2017
_journal_page_first 1933
_journal_name_full 'CrystEngComm '
loop_
_publ_author_name
"A.Bauza"
"A.V.Sharko"
"G.A.Senchyk"
"E.B.Rusanov"
"A.Frontera"
"K.V.Domasevitch"
_chemical_name_systematic
;
1,4-dinitropenta-1,3-diene
;
_cell_volume    711.692
_exptl_crystal_colour 'yellow'
_exptl_crystal_density_diffrn 1.476
_exptl_crystal_description 'prism'
_diffrn_ambient_temperature 213
#These two values have been output from a single CSD field.
_refine_ls_R_factor_gt 0.0357
_refine_ls_wR_factor_gt 0.0357
_symmetry_cell_setting monoclinic
_symmetry_space_group_name_H-M 'P 21/n'
_symmetry_Int_Tables_number 14
loop_
_symmetry_equiv_pos_site_id
_symmetry_equiv_pos_as_xyz
1 x,y,z
2 1/2-x,1/2+y,1/2-z
3 -x,-y,-z
4 -1/2+x,-1/2-y,-1/2+z
_cell_length_a 6.0360(7)
_cell_length_b 10.7787(8)
_cell_length_c 10.9735(10)
_cell_angle_alpha 90
_cell_angle_beta 94.546(10)
_cell_angle_gamma 90
_cell_formula_units_Z 4
loop_
_atom_type_symbol
_atom_type_radius_bond
C 0.68
H 0.23
N 0.68
O 0.68
loop_
_atom_site_label
_atom_site_type_symbol
_atom_site_fract_x
_atom_site_fract_y
_atom_site_fract_z
O1 O 0.67633(18) -0.16942(10) -0.26809(10)
O2 O 0.82680(15) 0.01208(10) -0.24241(9)
O3 O -0.10550(16) 0.17130(9) 0.03737(10)
O4 O -0.02729(17) 0.36474(10) 0.05858(11)
N1 N 0.67343(16) -0.06039(10) -0.23480(8)
N2 N 0.01618(16) 0.26031(9) 0.02551(9)
C1 C 0.47348(19) -0.01992(12) -0.18056(10)
C2 C 0.45216(18) 0.09487(11) -0.14157(9)
C3 C 0.25634(18) 0.13172(11) -0.08235(10)
C4 C 0.22758(17) 0.24267(10) -0.03342(10)
C5 C 0.3742(2) 0.35309(14) -0.02748(16)
H1 H 0.369(2) -0.0876(14) -0.1761(12)
H2 H 0.564(2) 0.1512(13) -0.1491(13)
H3 H 0.145(2) 0.0712(14) -0.0805(12)
H4 H 0.419(3) 0.3718(18) 0.058(2)
H5 H 0.292(4) 0.424(2) -0.0582(19)
H6 H 0.514(4) 0.3360(16) -0.0668(18)
#END
