
#######################################################################
#
#                 Cambridge Crystallographic Data Centre
#                                CCDC
#
#######################################################################
#
# If this CIF has been generated from an entry in the Cambridge
# Structural Database, then it will include bibliographic, chemical,
# crystal, experimental, refinement or atomic coordinate data resulting
# from the CCDC's data processing and validation procedures.
#
#######################################################################

data_CSD_CIF_NAPXEK
_audit_creation_date 2017-03-21
_audit_creation_method CSD-ConQuest-V1
_database_code_CSD NAPXEK
_database_code_depnum_ccdc_archive 'CCDC 1503961'
_chemical_formula_sum 'C17 H14 N4 O2'
_chemical_formula_moiety
;
C17 H14 N4 O2
;
_journal_coden_Cambridge 1453
_journal_volume 9
_journal_year 2017
_journal_page_first 263
_journal_name_full 'ChemCatChem '
loop_
_publ_author_name
"D.B.Ramachary"
"G.Surendra Reddy"
"S.Peraka"
"J.Gujral"
_chemical_name_systematic
;
5-methyl-4-(4-nitrophenyl)-1-(1-phenylvinyl)-1H-1,2,3-triazole
;
_cell_volume   1556.466
_exptl_crystal_colour 'colorless'
_exptl_crystal_density_diffrn 1.307
_exptl_crystal_description 'plate'
_diffrn_ambient_temperature 296
#These two values have been output from a single CSD field.
_refine_ls_R_factor_gt 0.0677
_refine_ls_wR_factor_gt 0.0677
_symmetry_cell_setting monoclinic
_symmetry_space_group_name_H-M 'P 21/c'
_symmetry_Int_Tables_number 14
loop_
_symmetry_equiv_pos_site_id
_symmetry_equiv_pos_as_xyz
1 x,y,z
2 -x,1/2+y,1/2-z
3 -x,-y,-z
4 x,-1/2-y,-1/2+z
_cell_length_a 7.3709(7)
_cell_length_b 6.8230(7)
_cell_length_c 31.146(4)
_cell_angle_alpha 90
_cell_angle_beta 96.451(4)
_cell_angle_gamma 90
_cell_formula_units_Z 4
loop_
_atom_type_symbol
_atom_type_radius_bond
C 0.68
H 0.23
N 0.68
O 0.68
loop_
_atom_site_label
_atom_site_type_symbol
_atom_site_fract_x
_atom_site_fract_y
_atom_site_fract_z
N1 N 0.2959(4) 0.7302(4) 0.64059(8)
O1 O 0.9125(4) 0.2173(4) 0.45555(9)
O2 O 0.7963(4) -0.0461(4) 0.47897(9)
N2 N 0.8214(4) 0.1312(5) 0.48002(10)
N3 N 0.4288(4) 0.8612(4) 0.63428(10)
N4 N 0.5383(4) 0.7752(4) 0.60996(10)
C1 C 0.4787(4) 0.5898(4) 0.60085(10)
C2 C 0.5745(4) 0.4660(4) 0.57173(10)
C3 C 0.1546(5) 0.7875(5) 0.66661(11)
C4 C 0.7404(4) 0.2465(5) 0.51277(10)
C5 C 0.2075(4) 0.7804(5) 0.71358(11)
C6 C 0.3221(4) 0.5585(5) 0.61997(10)
C7 C 0.5585(5) 0.2632(5) 0.57090(11)
H1 H 0.49090 0.20080 0.59040
C8 C 0.6809(4) 0.5531(5) 0.54290(11)
H2 H 0.69690 0.68830 0.54380
C9 C 0.7625(4) 0.4466(5) 0.51340(11)
H3 H 0.83170 0.50800 0.49410
C10 C 0.6417(5) 0.1534(5) 0.54150(11)
H4 H 0.63100 0.01760 0.54120
C11 C 0.3385(5) 0.6511(6) 0.73179(12)
H5 H 0.39840 0.56990 0.71400
C12 C 0.1248(5) 0.9012(6) 0.74128(13)
H6 H 0.03610 0.99000 0.73010
C13 C -0.0034(6) 0.8422(7) 0.64708(16)
C14 C 0.1930(6) 0.3902(6) 0.61980(15)
H7 H 0.23640 0.28390 0.60350
H8 H 0.18510 0.34820 0.64890
H9 H 0.07450 0.43010 0.60680
C15 C 0.2986(6) 0.7601(7) 0.80237(14)
H10 H 0.32800 0.75220 0.83220
C16 C 0.3817(6) 0.6404(7) 0.77577(14)
H11 H 0.46860 0.55050 0.78740
C17 C 0.1722(7) 0.8914(7) 0.78525(14)
H12 H 0.11720 0.97550 0.80340
H13 H -0.017(5) 0.865(6) 0.6179(14)
H14 H -0.096(6) 0.889(6) 0.6629(14)
#END
