
#######################################################################
#
#                 Cambridge Crystallographic Data Centre
#                                CCDC
#
#######################################################################
#
# If this CIF has been generated from an entry in the Cambridge
# Structural Database, then it will include bibliographic, chemical,
# crystal, experimental, refinement or atomic coordinate data resulting
# from the CCDC's data processing and validation procedures.
#
#######################################################################

data_CSD_CIF_NAQCIU
_audit_creation_date 2017-03-21
_audit_creation_method CSD-ConQuest-V1
_database_code_CSD NAQCIU
_database_code_depnum_ccdc_archive 'CCDC 1472721'
_chemical_formula_sum 'C15 H16 N2 O2'
_chemical_formula_moiety
;
C15 H16 N2 O2
;
_journal_coden_Cambridge 2020
_journal_volume 1
_journal_year 2016
_journal_page_first 3713
_journal_name_full 'Chem. Sel. '
loop_
_publ_author_name
"Tuan Zhao"
"Huanrui Zhang"
"Longchen Cui"
"Changxue Wang"
"Jingping Qu"
"Baomin Wang"
_chemical_name_systematic
;
3-methyl-1',2',3',3a'-tetrahydro-5H,5'H-spiro[isoxazole-4,4'-pyrrolo[1,2-a]qui
nolin]-5-one
;
_cell_volume   1305.271
_exptl_crystal_colour 'colorless'
_exptl_crystal_density_diffrn 1.304
_exptl_crystal_description 'block'
_diffrn_ambient_temperature 296
#These two values have been output from a single CSD field.
_refine_ls_R_factor_gt 0.0438
_refine_ls_wR_factor_gt 0.0438
_symmetry_cell_setting monoclinic
_symmetry_space_group_name_H-M 'P 21/n'
_symmetry_Int_Tables_number 14
loop_
_symmetry_equiv_pos_site_id
_symmetry_equiv_pos_as_xyz
1 x,y,z
2 1/2-x,1/2+y,1/2-z
3 -x,-y,-z
4 -1/2+x,-1/2-y,-1/2+z
_cell_length_a 9.9167(5)
_cell_length_b 12.9904(5)
_cell_length_c 10.4039(5)
_cell_angle_alpha 90
_cell_angle_beta 103.119(3)
_cell_angle_gamma 90
_cell_formula_units_Z 4
loop_
_atom_type_symbol
_atom_type_radius_bond
C 0.68
H 0.23
N 0.68
O 0.68
loop_
_atom_site_label
_atom_site_type_symbol
_atom_site_fract_x
_atom_site_fract_y
_atom_site_fract_z
C1 C 0.21521(14) 0.11915(10) 0.62256(13)
C2 C 0.30125(13) 0.19994(10) 0.56684(12)
H1 H 0.28630 0.18910 0.47140
C3 C 0.27301(15) 0.01196(10) 0.59774(13)
H2 H 0.22740 -0.04050 0.63890
H3 H 0.25270 -0.00150 0.50360
N1 N 0.44740(12) 0.18833(9) 0.62458(12)
C4 C 0.50878(14) 0.09484(10) 0.66247(12)
C5 C 0.42661(13) 0.00565(10) 0.65209(11)
C6 C 0.65161(16) 0.08661(13) 0.71608(15)
H4 H 0.70720 0.14500 0.72390
C7 C 0.48890(17) -0.08766(11) 0.69415(15)
H5 H 0.43470 -0.14680 0.68690
C8 C 0.52121(16) 0.28505(11) 0.63158(15)
H6 H 0.59060 0.28250 0.57930
H7 H 0.56610 0.30160 0.72210
C9 C 0.63029(19) -0.09496(14) 0.74692(16)
H8 H 0.67040 -0.15820 0.77480
C10 C 0.4097(2) 0.36322(12) 0.57579(19)
H9 H 0.40730 0.37720 0.48370
H10 H 0.42550 0.42730 0.62490
C11 C 0.71016(16) -0.00795(15) 0.75744(16)
H11 H 0.80490 -0.01250 0.79280
O1 O 0.01477(13) 0.12372(11) 0.43492(14)
O2 O -0.01189(12) 0.1454(1) 0.63906(15)
N2 N 0.07671(19) 0.14769(12) 0.77031(17)
C12 C 0.20226(17) 0.13451(11) 0.76129(15)
C13 C 0.06527(16) 0.12844(11) 0.55079(17)
C14 C 0.3164(3) 0.13317(16) 0.88170(16)
H12 H 0.27880 0.14130 0.95830
H13 H 0.37940 0.18860 0.87770
H14 H 0.36490 0.06880 0.88690
C15 C 0.27565(16) 0.31261(12) 0.59089(17)
H15 H 0.26030 0.32340 0.67870
H16 H 0.19680 0.33880 0.52620
#END
