
#######################################################################
#
#                 Cambridge Crystallographic Data Centre
#                                CCDC
#
#######################################################################
#
# If this CIF has been generated from an entry in the Cambridge
# Structural Database, then it will include bibliographic, chemical,
# crystal, experimental, refinement or atomic coordinate data resulting
# from the CCDC's data processing and validation procedures.
#
#######################################################################

data_CSD_CIF_NAQXOV
_audit_creation_date 2017-03-22
_audit_creation_method CSD-ConQuest-V1
_database_code_CSD NAQXOV
_database_code_depnum_ccdc_archive 'CCDC 1471316'
_chemical_formula_sum 'C35 H31 N3 O6'
_chemical_formula_moiety
;
C35 H31 N3 O6
;
_journal_coden_Cambridge 1220
_journal_volume 22
_journal_year 2016
_journal_page_first 17526
_journal_name_full 'Chem.-Eur.J. '
loop_
_publ_author_name
"Xiao-Xue Sun"
"Hong-Hao Zhang"
"Guo-Hao Li"
"Ying-Ying He"
"Feng Shi"
_chemical_name_systematic
;
diethyl 
3-(2-nitrophenyl)-4,4-diphenyl-2,3,4,5-tetrahydro-1H-pyrido[4,3-b]indole-1,1-d
icarboxylate
;
_cell_volume   2965.002
_exptl_crystal_colour 'colorless'
_exptl_crystal_density_diffrn 1.321
_exptl_special_details
;
Absolute configuration

;
_exptl_crystal_description 'block'
_diffrn_ambient_temperature 130
#These two values have been output from a single CSD field.
_refine_ls_R_factor_gt 0.0363
_refine_ls_wR_factor_gt 0.0363
_symmetry_cell_setting orthorhombic
_symmetry_space_group_name_H-M 'P 21 21 21'
_symmetry_Int_Tables_number 19
loop_
_symmetry_equiv_pos_site_id
_symmetry_equiv_pos_as_xyz
1 x,y,z
2 1/2+x,1/2-y,-z
3 -x,1/2+y,1/2-z
4 1/2-x,-y,1/2+z
_cell_length_a 8.3776(2)
_cell_length_b 18.5284(4)
_cell_length_c 19.1015(4)
_cell_angle_alpha 90
_cell_angle_beta 90
_cell_angle_gamma 90
_cell_formula_units_Z 4
loop_
_atom_type_symbol
_atom_type_radius_bond
C 0.68
H 0.23
N 0.68
O 0.68
loop_
_atom_site_label
_atom_site_type_symbol
_atom_site_fract_x
_atom_site_fract_y
_atom_site_fract_z
O1 O 0.1703(2) -0.17976(11) -0.25238(10)
O2 O -0.0523(2) -0.23935(9) -0.27604(11)
O3 O 0.06745(19) -0.15762(9) -0.10812(8)
O4 O -0.0013(2) -0.04201(8) -0.12568(8)
O5 O -0.1177(2) -0.14573(11) -0.45425(10)
O6 O -0.2938(3) -0.10040(14) -0.5242(1)
N1 N -0.0837(2) -0.06536(10) -0.25879(10)
H1 H 0.007(10) -0.049(3) -0.260(3)
N2 N -0.5131(2) -0.15118(9) -0.20085(9)
H2 H -0.61060 -0.13980 -0.21400
N3 N -0.1990(3) -0.09548(13) -0.47553(10)
C1 C -0.1951(3) -0.07299(11) -0.31736(11)
H3 H -0.17380 -0.12060 -0.34020
C2 C -0.3761(3) -0.07334(11) -0.29085(10)
C3 C -0.3752(2) -0.12529(10) -0.2299(1)
C4 C -0.2460(2) -0.15321(10) -0.19587(10)
C5 C -0.3061(2) -0.20177(10) -0.14291(10)
C6 C -0.2372(2) -0.24865(11) -0.09365(10)
H4 H -0.12460 -0.25310 -0.09000
C7 C -0.3371(3) -0.28835(11) -0.05045(11)
H5 H -0.29170 -0.32030 -0.01700
C8 C -0.5033(3) -0.28235(11) -0.05502(11)
H6 H -0.56810 -0.30990 -0.02420
C9 C -0.5752(3) -0.23735(11) -0.10323(11)
H7 H -0.68800 -0.23320 -0.10620
C10 C -0.4740(2) -0.19817(10) -0.14749(10)
C11 C -0.0786(2) -0.12877(10) -0.21262(11)
C12 C 0.0280(3) -0.18622(11) -0.24814(11)
C13 C 0.0438(4) -0.29394(16) -0.3121(2)
H8 H 0.09420 -0.27280 -0.35420
H9 H 0.12930 -0.31170 -0.28070
C14 C -0.0612(5) -0.3536(2) -0.3321(3)
H10 H -0.13410 -0.33750 -0.36900
H11 H -0.12300 -0.36920 -0.29130
H12 H 0.00330 -0.39400 -0.34940
C15 C 0.0064(2) -0.11073(11) -0.14329(11)
C16 C 0.0784(3) -0.02367(14) -0.05948(14)
H13 H 0.05590 -0.06160 -0.02430
H14 H 0.03550 0.02260 -0.04150
C17 C 0.2552(4) -0.01713(17) -0.06961(18)
H15 H 0.27710 0.01670 -0.10790
H16 H 0.29980 -0.06460 -0.08120
H17 H 0.30430 0.00080 -0.02640
C18 C -0.1620(3) -0.01424(12) -0.37109(12)
C19 C -0.1245(3) 0.05537(13) -0.34902(14)
H18 H -0.11320 0.06460 -0.30030
C20 C -0.1033(3) 0.11167(15) -0.39589(16)
H19 H -0.07520 0.15820 -0.37910
C21 C -0.1225(3) 0.10051(17) -0.46654(16)
H20 H -0.11000 0.13940 -0.49850
C22 C -0.1601(3) 0.03261(17) -0.49073(14)
H21 H -0.17490 0.02440 -0.53940
C23 C -0.1763(3) -0.02369(14) -0.44350(12)
C24 C -0.4878(3) -0.10665(12) -0.34649(11)
C25 C -0.4448(3) -0.17205(14) -0.37776(13)
H22 H -0.34530 -0.19360 -0.36630
C26 C -0.5452(4) -0.20604(18) -0.42531(15)
H23 H -0.51260 -0.24990 -0.44670
C27 C -0.6915(4) -0.17670(19) -0.44180(15)
H24 H -0.75840 -0.19910 -0.47550
C28 C -0.7389(4) -0.11465(19) -0.40878(17)
H25 H -0.84140 -0.09510 -0.41840
C29 C -0.6391(3) -0.07989(14) -0.36134(16)
H26 H -0.67490 -0.03720 -0.33870
C30 C -0.4236(3) 0.00242(11) -0.26549(11)
C31 C -0.4803(3) 0.05530(12) -0.31109(12)
H27 H -0.49220 0.04430 -0.35940
C32 C -0.5198(3) 0.12386(12) -0.28722(14)
H28 H -0.56410 0.15820 -0.31860
C33 C -0.4951(4) 0.14227(12) -0.21802(15)
H29 H -0.51990 0.18950 -0.20190
C34 C -0.4340(3) 0.09141(14) -0.17247(14)
H30 H -0.41480 0.10390 -0.12500
C35 C -0.4004(3) 0.02192(12) -0.19583(12)
H31 H -0.36080 -0.01290 -0.16370
#END
