
#######################################################################
#
#                 Cambridge Crystallographic Data Centre
#                                CCDC
#
#######################################################################
#
# If this CIF has been generated from an entry in the Cambridge
# Structural Database, then it will include bibliographic, chemical,
# crystal, experimental, refinement or atomic coordinate data resulting
# from the CCDC's data processing and validation procedures.
#
#######################################################################

data_CSD_CIF_NARFER
_audit_creation_date 1998-03-17
_audit_creation_method CSD-ConQuest-V1
_database_code_CSD NARFER
_database_code_depnum_ccdc_archive 'CCDC 129765'
_chemical_formula_sum 'C10 H8 N2 O2'
_chemical_formula_moiety
;
C10 H8 N2 O2
;
_journal_coeditor_code "IUCr BK1357"
_journal_coden_Cambridge 591
_journal_volume 54
_journal_year 1998
_journal_page_first 149
_journal_name_full 'Acta Crystallogr.,Sect.C:Cryst.Struct.Commun. '
loop_
_publ_author_name
"H.Kanno"
"Y.Omotera"
"K.Iijima"
_chemical_name_systematic
;
2,2'-Bipyridine 1,1'-dioxide
;
_cell_volume    818.679
_exptl_crystal_colour 'colorless'
_exptl_crystal_density_diffrn 1.527
_exptl_crystal_description 'block'
_diffrn_ambient_temperature ?
_diffrn_special_details
;
The study was carried out at room temperature,in the range 283-303K

;
#These two values have been output from a single CSD field.
_refine_ls_R_factor_gt 0.056
_refine_ls_wR_factor_gt 0.056
_symmetry_cell_setting monoclinic
_symmetry_space_group_name_H-M 'C 2/c'
_symmetry_Int_Tables_number 15
loop_
_symmetry_equiv_pos_site_id
_symmetry_equiv_pos_as_xyz
1 x,y,z
2 1/2+x,1/2+y,z
3 -x,y,1/2-z
4 1/2-x,1/2+y,1/2-z
5 -x,-y,-z
6 -1/2-x,-1/2-y,-z
7 x,-y,-1/2+z
8 -1/2+x,-1/2-y,-1/2+z
_cell_length_a 12.616(4)
_cell_length_b 5.336(2)
_cell_length_c 12.571(4)
_cell_angle_alpha 90
_cell_angle_beta 104.67(3)
_cell_angle_gamma 90
_cell_formula_units_Z 4
loop_
_atom_type_symbol
_atom_type_radius_bond
C 0.68
H 0.23
N 0.68
O 0.68
loop_
_atom_site_label
_atom_site_type_symbol
_atom_site_fract_x
_atom_site_fract_y
_atom_site_fract_z
O1 O -0.05395(8) 0.13908(19) 0.12704(8)
N1 N 0.02490(8) 0.3017(2) 0.13660(8)
C1 C 0.03792(10) 0.4877(2) 0.2139(1)
C2 C 0.11540(11) 0.6734(2) 0.21888(11)
C3 C 0.18400(11) 0.6660(3) 0.14877(12)
C4 C 0.17159(11) 0.4726(3) 0.07353(12)
C5 C 0.09287(11) 0.2935(3) 0.06735(11)
H1 H 0.12180 0.80674 0.27137
H2 H 0.23887 0.79255 0.15225
H3 H 0.21929 0.45956 0.02493
H4 H 0.08480 0.16173 0.01388
C1B C -0.03792(10) 0.4877(2) 0.2861(1)
N1B N -0.02490(8) 0.3017(2) 0.36340(8)
O1B O 0.05395(8) 0.13908(19) 0.37296(8)
C5B C -0.09287(11) 0.2935(3) 0.43265(11)
C4B C -0.17159(11) 0.4726(3) 0.42647(12)
C3B C -0.18400(11) 0.6660(3) 0.35123(12)
C2B C -0.11540(11) 0.6734(2) 0.28112(11)
H1B H -0.12180 0.80674 0.22863
H2B H -0.23887 0.79255 0.34775
H3B H -0.21929 0.45956 0.47507
H4B H -0.08480 0.16173 0.48612
#END
