
#######################################################################
#
#                 Cambridge Crystallographic Data Centre
#                                CCDC
#
#######################################################################
#
# If this CIF has been generated from an entry in the Cambridge
# Structural Database, then it will include bibliographic, chemical,
# crystal, experimental, refinement or atomic coordinate data resulting
# from the CCDC's data processing and validation procedures.
#
#######################################################################

data_CSD_CIF_NARLIB
_audit_creation_date 1998-03-31
_audit_creation_method CSD-ConQuest-V1
_database_code_CSD NARLIB
_database_code_depnum_ccdc_journal 207/85
_chemical_formula_sum 'C16 H16 N2 O4'
_chemical_formula_moiety
;
C16 H16 N2 O4
;
_journal_coden_Cambridge 207
_journal_year 1997
_journal_page_first 949
_journal_name_full 'J.Chem.Soc.,Perkin Trans.1 '
loop_
_publ_author_name
"E.Malamidou-Xenikaki"
"X.N.Stampelos"
"E.Coutouli-Argyropoulou"
"C.J.Cardin"
"S.Teixeira"
"C.A.Kavounis"
_chemical_name_systematic
;
(2R*,5S*,11R*)-Methyl 
4,6-dimethyl-1-oxo-3,4-oxaza-1,2,3,4,5,6-hexahydro-2,5-methanocyclohept(b)indo
le-11-carboxylate
;
_chemical_melting_point 495.15
_cell_volume   1505.334
_exptl_crystal_colour 'white'
_exptl_crystal_density_diffrn 1.325
_exptl_special_details
;
Melting point range 495.15-497.15K

;
_diffrn_ambient_temperature ?
_diffrn_special_details
;
The study was carried out at room temperature,in the range 283-303K

;
#These two values have been output from a single CSD field.
_refine_ls_R_factor_gt 0.0559
_refine_ls_wR_factor_gt 0.0559
_symmetry_cell_setting monoclinic
_symmetry_space_group_name_H-M 'P 21/n'
_symmetry_Int_Tables_number 14
loop_
_symmetry_equiv_pos_site_id
_symmetry_equiv_pos_as_xyz
1 x,y,z
2 1/2-x,1/2+y,1/2-z
3 -x,-y,-z
4 -1/2+x,-1/2-y,-1/2+z
_cell_length_a 9.316(6)
_cell_length_b 15.273(6)
_cell_length_c 11.004(6)
_cell_angle_alpha 90
_cell_angle_beta 105.96(1)
_cell_angle_gamma 90
_cell_formula_units_Z 4
loop_
_atom_type_symbol
_atom_type_radius_bond
C 0.68
H 0.23
N 0.68
O 0.68
loop_
_atom_site_label
_atom_site_type_symbol
_atom_site_fract_x
_atom_site_fract_y
_atom_site_fract_z
O1 O -0.0123(2) 0.8873(1) 0.4949(2)
O2 O 0.0423(2) 1.0739(1) 0.8702(2)
O3 O 0.1493(2) 0.8703(1) 0.7994(2)
C1 C 0.2552(2) 0.8996(1) 0.5681(2)
N1 N 0.5074(2) 0.9135(1) 0.6398(2)
C2 C 0.3741(2) 0.9265(1) 0.6693(2)
N2 N 0.3069(2) 0.8918(1) 0.8717(2)
C3 C 0.1025(2) 0.9075(1) 0.5782(2)
C4 C 0.4762(2) 0.8789(1) 0.5163(2)
C5 C 0.3184(2) 0.8684(1) 0.4680(2)
C6 C 0.1861(3) 1.0660(2) 0.8724(2)
C7 C 0.3521(2) 0.9610(1) 0.7922(2)
C8 C 0.0953(2) 0.9408(2) 0.7093(2)
O4 O 0.2873(2) 1.0967(2) 0.9549(2)
C9 C 0.5753(3) 0.8579(2) 0.4433(3)
C10 C 0.2076(2) 1.0157(1) 0.7576(2)
C11 C 0.6576(2) 0.9331(2) 0.7205(3)
C12 C 0.5140(3) 0.8245(2) 0.3227(3)
C13 C 0.3591(3) 0.8118(2) 0.2744(3)
C14 C 0.2592(3) 0.8332(2) 0.3456(2)
C15 C 0.3892(3) 0.8087(2) 0.8821(3)
C16 C 0.0091(4) 1.1240(2) 0.9735(3)
H1 H 0.4382(2) 0.9950(1) 0.8404(2)
H2 H -0.0063(2) 0.9583(2) 0.7079(2)
H3 H 0.6777(3) 0.8661(2) 0.4749(3)
H4 H 0.2077(2) 1.0563(1) 0.6887(2)
H5 H 0.7302(2) 0.9177(2) 0.6769(3)
H6 H 0.6758(2) 0.9000(2) 0.7974(3)
H7 H 0.6650(2) 0.9945(2) 0.7400(3)
H8 H 0.5767(3) 0.8102(2) 0.2729(3)
H9 H 0.3217(3) 0.7888(2) 0.1936(3)
H10 H 0.1570(3) 0.8244(2) 0.3129(2)
H11 H 0.3531(3) 0.7688(2) 0.9342(3)
H12 H 0.4936(3) 0.8194(2) 0.9192(3)
H13 H 0.3746(3) 0.7838(2) 0.7994(3)
H14 H -0.0969(4) 1.1252(2) 0.9619(3)
H15 H 0.0454(4) 1.1828(2) 0.9731(3)
H16 H 0.0070(4) 1.0968(2) 1.0529(3)
#END
