
#######################################################################
#
#                 Cambridge Crystallographic Data Centre
#                                CCDC
#
#######################################################################
#
# If this CIF has been generated from an entry in the Cambridge
# Structural Database, then it will include bibliographic, chemical,
# crystal, experimental, refinement or atomic coordinate data resulting
# from the CCDC's data processing and validation procedures.
#
#######################################################################

data_CSD_CIF_NASCOC
_audit_creation_date 2017-03-22
_audit_creation_method CSD-ConQuest-V1
_database_code_CSD NASCOC
_database_code_depnum_ccdc_archive 'CCDC 1539647'
_chemical_formula_sum 'C18 H23 N1 O3'
_chemical_formula_moiety
;
C18 H23 N1 O3
;
_journal_coden_Cambridge 1078
_journal_year 2017
_journal_name_full 'CSD Communication(Private Communication) '
loop_
_publ_author_name
"J.W.Bats"
"A.Stephen K.Hashmi"
_chemical_name_systematic
;
1-(2-methoxy-5-nitrobenzyl)-2-methylidene-4,6,6-trimethylcyclohex-3-ene
;
_cell_volume   6584.023
_exptl_crystal_colour 'pale yellow'
_exptl_crystal_density_diffrn 1.216
_exptl_crystal_description 'needle'
_diffrn_ambient_temperature 146
#These two values have been output from a single CSD field.
_refine_ls_R_factor_gt 0.0575
_refine_ls_wR_factor_gt 0.0575
_symmetry_cell_setting orthorhombic
_symmetry_space_group_name_H-M 'F d d 2'
_symmetry_Int_Tables_number 43
loop_
_symmetry_equiv_pos_site_id
_symmetry_equiv_pos_as_xyz
1 x,y,z
2 -x,-y,z
3 1/4+x,1/4-y,1/4+z
4 1/4-x,1/4+y,1/4+z
5 x,1/2+y,1/2+z
6 -x,1/2-y,1/2+z
7 1/4+x,3/4-y,3/4+z
8 1/4-x,3/4+y,3/4+z
9 1/2+x,y,1/2+z
10 1/2-x,-y,1/2+z
11 3/4+x,1/4-y,3/4+z
12 3/4-x,1/4+y,3/4+z
13 1/2+x,1/2+y,z
14 1/2-x,1/2-y,z
15 3/4+x,3/4-y,1/4+z
16 3/4-x,3/4+y,1/4+z
_cell_length_a 13.7157(18)
_cell_length_b 58.753(12)
_cell_length_c 8.1704(12)
_cell_angle_alpha 90
_cell_angle_beta 90
_cell_angle_gamma 90
_cell_formula_units_Z 16
loop_
_atom_type_symbol
_atom_type_radius_bond
C 0.68
H 0.23
N 0.68
O 0.68
loop_
_atom_site_label
_atom_site_type_symbol
_atom_site_fract_x
_atom_site_fract_y
_atom_site_fract_z
O1 O 0.11423(16) 0.04324(3) 0.2128(2)
C1 C 0.0448(2) 0.03656(4) 0.3227(3)
C2 C -0.0823(2) 0.02281(5) 0.5619(4)
C3 C 0.0711(2) 0.03967(4) 0.4882(3)
O2 O -0.11981(19) 0.01602(4) 0.8350(3)
C4 C 0.17250(19) 0.07594(4) 0.5014(3)
H1 H 0.15859 0.07857 0.38273
O3 O -0.22184(17) 0.00452(4) 0.6496(3)
N1 N -0.1459(2) 0.01406(4) 0.6907(4)
C5 C 0.0980(3) 0.03791(6) 0.0438(4)
H2 H 0.09017 0.02142 0.03126
H3 H 0.15398 0.04303 -0.02116
H4 H 0.03893 0.04564 0.00564
C6 C 0.27359(19) 0.08636(5) 0.5396(3)
C7 C 0.2078(2) 0.09140(5) 0.8307(3)
C8 C 0.09414(19) 0.08794(4) 0.5994(3)
C9 C 0.0057(2) 0.03260(4) 0.6061(4)
H5 H 0.02117 0.03446 0.71866
C10 C 0.1182(2) 0.09290(5) 0.7695(4)
C11 C -0.1089(2) 0.02008(5) 0.4005(4)
H6 H -0.16996 0.01351 0.37240
C12 C 0.1680(2) 0.05009(4) 0.5326(3)
H7 H 0.21988 0.04254 0.46829
H8 H 0.18115 0.04716 0.64989
C13 C -0.0443(2) 0.02717(5) 0.2799(4)
H9 H -0.06132 0.02559 0.16770
C14 C 0.2298(3) 0.09587(6) 1.0085(4)
H10 H 0.27431 0.10886 1.01753
H11 H 0.26045 0.08238 1.05682
H12 H 0.16912 0.09927 1.06679
C15 C 0.2731(2) 0.11133(5) 0.4862(4)
H13 H 0.33606 0.11829 0.51281
H14 H 0.22095 0.11945 0.54378
H15 H 0.26197 0.11223 0.36793
C16 C 0.29270(19) 0.08493(5) 0.7250(3)
H16 H 0.31220 0.06915 0.75225
H17 H 0.34828 0.09500 0.75211
C17 C 0.0076(2) 0.09287(6) 0.5380(5)
C18 C 0.3552(2) 0.07411(6) 0.4482(4)
H18 H 0.34267 0.07482 0.33018
H19 H 0.35759 0.05816 0.48312
H20 H 0.41761 0.08148 0.47248
H21 H 0.068(2) 0.0983(4) 0.832(4)
H22 H -0.007(3) 0.0894(6) 0.422(5)
H23 H -0.044(3) 0.1000(6) 0.594(4)
#END
