
#######################################################################
#
#                 Cambridge Crystallographic Data Centre
#                                CCDC
#
#######################################################################
#
# If this CIF has been generated from an entry in the Cambridge
# Structural Database, then it will include bibliographic, chemical,
# crystal, experimental, refinement or atomic coordinate data resulting
# from the CCDC's data processing and validation procedures.
#
#######################################################################

data_CSD_CIF_NASWUA
_audit_creation_date 2005-09-27
_audit_creation_method CSD-ConQuest-V1
_database_code_CSD NASWUA
_database_code_depnum_ccdc_archive 'CCDC 279597'
_chemical_formula_sum 'C13 H12 N2 O4'
_chemical_formula_moiety
;
C13 H12 N2 O4
;
_journal_coden_Cambridge 1078
_journal_year 2005
_journal_name_full 'CSD Communication(Private Communication) '
loop_
_publ_author_name
"G.Tennant"
"V.Mecillo"
"S.Parsons"
"D.Messenger"
_chemical_name_systematic
;
9-(2-Nitrophenyl)-8-aza-7-oxabicyclo(4.3.0)non-8-en-2-one
;
_cell_volume    586.687
_exptl_crystal_colour 'colorless'
_exptl_crystal_density_diffrn 1.473
_exptl_special_details
;
contribution from School of Chemistry, The University of Edinburgh King's 
Buildings, West Mains Road, Edinburgh, Scotland EH9 3JJ
;
_exptl_crystal_description 'block'
_diffrn_ambient_temperature 220
_refine_special_details
;
The cyclohexanone fragment is equally disordered over two sites.

;
#These two values have been output from a single CSD field.
_refine_ls_R_factor_gt 0.0701
_refine_ls_wR_factor_gt 0.0701
_symmetry_cell_setting triclinic
_symmetry_space_group_name_H-M 'P -1'
_symmetry_Int_Tables_number 2
loop_
_symmetry_equiv_pos_site_id
_symmetry_equiv_pos_as_xyz
1 x,y,z
2 -x,-y,-z
_cell_length_a 7.494(2)
_cell_length_b 8.389(3)
_cell_length_c 9.928(3)
_cell_angle_alpha 109.560(19)
_cell_angle_beta 93.25(2)
_cell_angle_gamma 91.123(19)
_cell_formula_units_Z 2
loop_
_atom_type_symbol
_atom_type_radius_bond
C 0.68
H 0.23
N 0.68
O 0.68
loop_
_atom_site_label
_atom_site_type_symbol
_atom_site_fract_x
_atom_site_fract_y
_atom_site_fract_z
O1 O 1.0245(3) 0.7161(3) 0.4515(2)
N1 N 1.0199(4) 0.8343(4) 0.5919(3)
C1 C 0.8756(4) 0.8053(4) 0.6443(3)
C2 C 0.7594(4) 0.6558(4) 0.5461(3)
H1 H 0.77590 0.55840 0.58010
H2? H 0.76730 0.55790 0.58040
C3 C 0.5612(15) 0.690(2) 0.5416(15)
O2 O 0.4782(16) 0.6799(10) 0.6402(12)
C4 C 0.487(2) 0.755(3) 0.4303(17)
H3 H 0.50790 0.87840 0.46270
H4 H 0.35780 0.73090 0.41590
C5 C 0.5746(9) 0.6742(14) 0.2857(8)
H5 H 0.55280 0.55110 0.25120
H6 H 0.52260 0.71880 0.21340
C6 C 0.7723(11) 0.7166(13) 0.3101(10)
H7 H 0.79380 0.83900 0.35690
H8 H 0.82820 0.68230 0.21840
C7? C 0.5670(14) 0.715(3) 0.5484(16)
O3? O 0.4778(17) 0.7086(19) 0.6456(14)
C8? C 0.482(2) 0.747(3) 0.4233(18)
H9? H 0.39920 0.83880 0.45480
H10? H 0.41420 0.64500 0.36200
C9? C 0.6287(10) 0.7959(10) 0.3371(8)
H11? H 0.57360 0.82490 0.25690
H12? H 0.70280 0.89330 0.39900
C10? C 0.7412(12) 0.641(1) 0.2823(9)
H13? H 0.66310 0.53980 0.23690
H14? H 0.81920 0.65470 0.21060
C11 C 0.8532(4) 0.6207(5) 0.4067(3)
H15 H 0.86620 0.49860 0.35490
H16? H 0.88250 0.49970 0.37660
C12 C 0.8327(4) 0.9265(4) 0.7864(3)
C13 C 0.8386(4) 1.0963(4) 0.8054(4)
H17 H 0.87460 1.13230 0.73070
C14 C 0.7930(5) 1.2164(4) 0.9322(4)
H18 H 0.79770 1.33190 0.94240
C15 C 0.7405(5) 1.1654(4) 1.0439(4)
H19 H 0.71020 1.24630 1.13010
C16 C 0.7329(4) 0.9968(4) 1.0279(3)
H20 H 0.69700 0.96100 1.10280
O4 O 0.8763(3) 0.6052(3) 0.8161(2)
N2 N 0.7746(4) 0.7022(3) 0.8923(3)
C17 C 0.7788(4) 0.8795(4) 0.9004(3)
O5 O 0.6723(4) 0.6579(3) 0.9659(3)
#END
