
#######################################################################
#
#                 Cambridge Crystallographic Data Centre
#                                CCDC
#
#######################################################################
#
# If this CIF has been generated from an entry in the Cambridge
# Structural Database, then it will include bibliographic, chemical,
# crystal, experimental, refinement or atomic coordinate data resulting
# from the CCDC's data processing and validation procedures.
#
#######################################################################

data_CSD_CIF_NASYEM
_audit_creation_date 2005-09-27
_audit_creation_method CSD-ConQuest-V1
_database_code_CSD NASYEM
_database_code_depnum_ccdc_archive 'CCDC 279604'
_chemical_formula_sum 'C17 H15 N1 O5'
_chemical_formula_moiety
;
C17 H15 N1 O5
;
_journal_coden_Cambridge 1078
_journal_year 2005
_journal_name_full 'CSD Communication(Private Communication) '
loop_
_publ_author_name
"G.Tennant"
"S.Parsons"
"D.Messenger"
_chemical_name_systematic
;
Ethyl 2-acetyl-(1-nitro-2-naphthyl)prop-2-enoate
;
_cell_volume   1508.212
_exptl_crystal_colour 'colorless'
_exptl_crystal_density_diffrn 1.38
_exptl_special_details
;
contribution from School of Chemistry, The University of Edinburgh King's 
Buildings, West Mains Road, Edinburgh, Scotland EH9 3JJ
;
_exptl_crystal_description 'block'
_diffrn_ambient_temperature 150
#These two values have been output from a single CSD field.
_refine_ls_R_factor_gt 0.0533
_refine_ls_wR_factor_gt 0.0533
_symmetry_cell_setting monoclinic
_symmetry_space_group_name_H-M 'P 21/n'
_symmetry_Int_Tables_number 14
loop_
_symmetry_equiv_pos_site_id
_symmetry_equiv_pos_as_xyz
1 x,y,z
2 1/2-x,1/2+y,1/2-z
3 -x,-y,-z
4 -1/2+x,-1/2-y,-1/2+z
_cell_length_a 11.6178(14)
_cell_length_b 11.3133(13)
_cell_length_c 11.8311(17)
_cell_angle_alpha 90
_cell_angle_beta 104.095(13)
_cell_angle_gamma 90
_cell_formula_units_Z 4
loop_
_atom_type_symbol
_atom_type_radius_bond
C 0.68
H 0.23
N 0.68
O 0.68
loop_
_atom_site_label
_atom_site_type_symbol
_atom_site_fract_x
_atom_site_fract_y
_atom_site_fract_z
C1 C 0.8347(2) 0.0932(2) 0.0754(2)
C2 C 0.9435(2) 0.1442(2) 0.07888(19)
C3 C 1.0535(2) 0.0939(2) 0.13563(19)
C4 C 1.1662(2) 0.1452(2) 0.1366(2)
H1 H 1.17020 0.21770 0.09730
C5 C 1.2677(2) 0.0901(2) 0.1938(2)
H2 H 1.34230 0.12400 0.19290
C6 C 1.2640(2) -0.0156(3) 0.2539(2)
H3 H 1.33580 -0.05160 0.29500
C7 C 1.1584(2) -0.0672(2) 0.2539(2)
H4 H 1.15700 -0.13910 0.29520
C8 C 1.0509(2) -0.0152(2) 0.1931(2)
C9 C 0.9394(2) -0.0697(2) 0.1879(2)
H5 H 0.93710 -0.14350 0.22550
C10 C 0.8359(2) -0.0182(2) 0.1302(2)
H6 H 0.76290 -0.05780 0.12670
C11 C 0.7228(2) 0.1514(2) 0.0183(2)
H7 H 0.71980 0.19090 -0.05320
C12 C 0.6237(2) 0.1536(2) 0.0586(2)
C13 C 0.6137(2) 0.0955(2) 0.1699(2)
O1 O 0.54942(16) 0.01313(17) 0.17279(16)
O2 O 0.68237(15) 0.14774(15) 0.26278(15)
C14 C 0.6776(3) 0.0990(3) 0.3764(2)
H8 H 0.59480 0.07640 0.37430
H9 H 0.70220 0.16060 0.43680
C15 C 0.7559(3) -0.0065(3) 0.4084(3)
H10 H 0.75010 -0.03620 0.48460
H11 H 0.83830 0.01590 0.41200
H12 H 0.73090 -0.06830 0.34950
C16 C 0.5151(2) 0.2192(2) -0.0034(2)
O3 O 0.43697(17) 0.2362(2) 0.04715(18)
C17 C 0.5064(2) 0.2657(3) -0.1231(2)
H13 H 0.43020 0.30610 -0.15120
H14 H 0.51200 0.19990 -0.17540
H15 H 0.57130 0.32150 -0.12130
N1 N 0.94602(17) 0.26309(18) 0.02742(18)
O4 O 0.98816(19) 0.34336(17) 0.09312(18)
O5 O 0.9072(2) 0.27576(18) -0.07671(17)
#END
