
#######################################################################
#
#                 Cambridge Crystallographic Data Centre
#                                CCDC
#
#######################################################################
#
# If this CIF has been generated from an entry in the Cambridge
# Structural Database, then it will include bibliographic, chemical,
# crystal, experimental, refinement or atomic coordinate data resulting
# from the CCDC's data processing and validation procedures.
#
#######################################################################

data_CSD_CIF_NATHAS
_audit_creation_date 2005-09-27
_audit_creation_method CSD-ConQuest-V1
_database_code_CSD NATHAS
_database_code_depnum_ccdc_archive 'CCDC 282529'
_chemical_formula_sum 'C15 H13 N5 O7'
_chemical_formula_moiety
;
C15 H13 N5 O7
;
_journal_coeditor_code "IUCr KP6053"
_journal_coden_Cambridge 1370
_journal_volume 61
_journal_year 2005
_journal_page_first o2758
_journal_name_full 'Acta Crystallogr.,Sect.E:Struct.Rep.Online '
loop_
_publ_author_name
"Zheng Fan"
"Shang Shan"
"Duan-Jun Xu"
_chemical_name_systematic
;
(E)-3-Methoxyacetophenone 2,4,6-trinitrophenylhydrazone
;
_cell_volume   1642.437
_exptl_crystal_colour 'red'
_exptl_crystal_density_diffrn 1.518
_exptl_crystal_description 'block'
_exptl_crystal_preparation 'dichloromethane/toluene'
_diffrn_ambient_temperature 295
#These two values have been output from a single CSD field.
_refine_ls_R_factor_gt 0.052
_refine_ls_wR_factor_gt 0.052
_symmetry_cell_setting monoclinic
_symmetry_space_group_name_H-M 'P 21/n'
_symmetry_Int_Tables_number 14
loop_
_symmetry_equiv_pos_site_id
_symmetry_equiv_pos_as_xyz
1 x,y,z
2 1/2-x,1/2+y,1/2-z
3 -x,-y,-z
4 -1/2+x,-1/2-y,-1/2+z
_cell_length_a 9.7926(4)
_cell_length_b 14.6633(7)
_cell_length_c 11.6359(4)
_cell_angle_alpha 90
_cell_angle_beta 100.576(2)
_cell_angle_gamma 90
_cell_formula_units_Z 4
loop_
_atom_type_symbol
_atom_type_radius_bond
C 0.68
H 0.23
N 0.68
O 0.68
loop_
_atom_site_label
_atom_site_type_symbol
_atom_site_fract_x
_atom_site_fract_y
_atom_site_fract_z
N1 N 0.4866(2) 0.39743(10) 0.26956(16)
N2 N 0.3998(2) 0.08923(12) 0.38265(17)
N3 N 0.15753(18) 0.33142(15) 0.54493(15)
N4 N 0.29928(17) 0.46401(11) 0.42270(14)
H1 H 0.23560 0.48130 0.45990
N5 N 0.37343(16) 0.52849(10) 0.37404(13)
O1 O 0.4184(2) 0.41903(12) 0.17685(14)
O2 O 0.60761(17) 0.41714(12) 0.30336(19)
O3 O 0.4741(2) 0.06561(11) 0.31404(18)
O4 O 0.3441(2) 0.03639(12) 0.44043(17)
O5 O 0.10529(17) 0.27026(13) 0.59292(16)
O6 O 0.12904(18) 0.41187(13) 0.55693(16)
O7 O 0.68397(17) 0.68926(10) 0.14091(13)
C1 C 0.32440(18) 0.37487(13) 0.41322(15)
C2 C 0.41838(19) 0.33883(12) 0.34559(15)
C3 C 0.4458(2) 0.24846(13) 0.33691(16)
H2 H 0.50980 0.22860 0.29240
C4 C 0.3763(2) 0.18626(13) 0.39588(16)
C5 C 0.2825(2) 0.21537(14) 0.46193(16)
H3 H 0.23560 0.17330 0.50020
C6 C 0.25788(19) 0.30704(15) 0.47144(16)
C7 C 0.2177(2) 0.64276(16) 0.4383(2)
H4 H 0.13880 0.60410 0.41330
H5 H 0.19380 0.70460 0.41610
H6 H 0.24510 0.63920 0.52170
C8 C 0.33620(19) 0.61212(13) 0.38139(15)
C9 C 0.41810(19) 0.68030(13) 0.32805(15)
C10 C 0.51277(19) 0.65059(13) 0.25935(16)
H7 H 0.52330 0.58850 0.24730
C11 C 0.5905(2) 0.71235(13) 0.20945(16)
C12 C 0.5763(2) 0.80522(14) 0.22865(18)
H8 H 0.63030 0.84710 0.19680
C13 C 0.4828(2) 0.83488(14) 0.29444(18)
H9 H 0.47250 0.89710 0.30600
C14 C 0.4034(2) 0.77339(13) 0.34398(17)
H10 H 0.33980 0.79450 0.38810
C15 C 0.6910(3) 0.59581(16) 0.1093(2)
H11 H 0.72550 0.56030 0.17780
H12 H 0.75240 0.58940 0.05420
H13 H 0.60000 0.57470 0.07450
#END
