
#######################################################################
#
#                 Cambridge Crystallographic Data Centre
#                                CCDC
#
#######################################################################
#
# If this CIF has been generated from an entry in the Cambridge
# Structural Database, then it will include bibliographic, chemical,
# crystal, experimental, refinement or atomic coordinate data resulting
# from the CCDC's data processing and validation procedures.
#
#######################################################################

data_CSD_CIF_NAVVEL
_audit_creation_date 1998-03-31
_audit_creation_method CSD-ConQuest-V1
_database_code_CSD NAVVEL
_database_code_depnum_ccdc_archive 'CCDC 132162'
_chemical_formula_sum 'C14 H18 N2 O4'
_chemical_formula_moiety
;
C14 H18 N2 O4
;
_journal_coden_Cambridge 82
_journal_volume 38
_journal_year 1997
_journal_page_first 775
_journal_name_full 'Zh.Strukt.Khim.(Russ.)(J.Struct.Chem.) '
loop_
_publ_author_name
"T.V.Rybalova"
"Yu.V.Gatilov"
"V.A.Reznikov"
"N.V.Pervukhina"
"A.B.Burdukov"
_chemical_name_systematic
;
3-(2,5,5-Trimethyl-4-oxo-1-oxypyrrolin-3-ylidene)-2,5,5-trimethyl-4-oxo-1-oxyp
yrroline
;
_cell_volume   1431.071
_exptl_crystal_colour 'light red'
_exptl_crystal_density_diffrn 1.292
_exptl_crystal_description 'rhombic plates'
_diffrn_ambient_temperature ?
_diffrn_special_details
;
The study was carried out at room temperature,in the range 283-303K

;
#These two values have been output from a single CSD field.
_refine_ls_R_factor_gt 0.0468
_refine_ls_wR_factor_gt 0.0468
_symmetry_cell_setting monoclinic
_symmetry_space_group_name_H-M 'P 21/n'
_symmetry_Int_Tables_number 14
loop_
_symmetry_equiv_pos_site_id
_symmetry_equiv_pos_as_xyz
1 x,y,z
2 1/2-x,1/2+y,1/2-z
3 -x,-y,-z
4 -1/2+x,-1/2-y,-1/2+z
_cell_length_a 10.987(2)
_cell_length_b 9.022(1)
_cell_length_c 14.558(2)
_cell_angle_alpha 90
_cell_angle_beta 97.39(1)
_cell_angle_gamma 90
_cell_formula_units_Z 4
loop_
_atom_type_symbol
_atom_type_radius_bond
C 0.68
H 0.23
N 0.68
O 0.68
loop_
_atom_site_label
_atom_site_type_symbol
_atom_site_fract_x
_atom_site_fract_y
_atom_site_fract_z
N1 N 0.09143(13) 0.23948(15) 0.30539(9)
C1 C 0.00267(14) 0.2846(2) 0.23961(10)
C2 C -0.00445(14) 0.4423(2) 0.23895(10)
C3 C 0.0971(2) 0.4952(2) 0.30883(10)
C4 C 0.15961(15) 0.3625(2) 0.35739(11)
C5 C 0.1360(2) 0.3577(2) 0.45839(12)
C6 C 0.2949(2) 0.3538(3) 0.3467(2)
C7 C -0.0753(2) 0.1689(2) 0.18991(15)
O1 O 0.11536(13) 0.10537(14) 0.32712(9)
O2 O 0.13152(14) 0.62124(14) 0.32241(11)
N2 N -0.19330(13) 0.7389(2) 0.1326(1)
C8 C -0.11992(15) 0.6830(2) 0.20428(11)
C9 C -0.08370(14) 0.5357(2) 0.18369(10)
C10 C -0.14238(14) 0.5027(2) 0.0886(1)
C11 C -0.21396(15) 0.6382(2) 0.05131(11)
C12 C -0.3499(2) 0.6054(3) 0.0274(2)
C13 C -0.1583(2) 0.7046(4) -0.0293(2)
C14 C -0.1000(2) 0.7696(2) 0.29118(15)
O3 O -0.24794(15) 0.86395(15) 0.13103(11)
O4 O -0.13125(13) 0.3931(2) 0.04280(9)
H1 H 0.0478(23) 0.3658(23) 0.4611(15)
H2 H 0.1595(23) 0.2644(29) 0.4860(17)
H3 H -0.3870(23) 0.5751(28) 0.0836(18)
H4 H -0.3872(23) 0.6989(30) 0.0072(17)
H5 H -0.1719(24) 0.8343(27) 0.2934(17)
H6 H -0.0934(23) 0.7012(29) 0.3448(18)
H7 H 0.1774(22) 0.4438(28) 0.4934(16)
H8 H -0.3613(24) 0.5269(31) -0.0210(19)
H9 H 0.3109(25) 0.3645(28) 0.2822(20)
H10 H -0.0271(27) 0.8309(29) 0.2967(18)
H11 H 0.3337(22) 0.4405(29) 0.3772(16)
H12 H -0.0705(28) 0.7233(30) -0.0091(19)
H13 H 0.3252(24) 0.2623(32) 0.3733(18)
H14 H -0.1941(26) 0.7934(34) -0.0473(19)
H15 H -0.1657(34) 0.6354(40) -0.0756(28)
H16 H -0.0325(32) 0.1172(37) 0.1496(24)
H17 H -0.1464(33) 0.2074(39) 0.1542(24)
H18 H -0.1029(29) 0.1015(35) 0.2310(23)
#END
