
#######################################################################
#
#                 Cambridge Crystallographic Data Centre
#                                CCDC
#
#######################################################################
#
# If this CIF has been generated from an entry in the Cambridge
# Structural Database, then it will include bibliographic, chemical,
# crystal, experimental, refinement or atomic coordinate data resulting
# from the CCDC's data processing and validation procedures.
#
#######################################################################

data_CSD_CIF_NAWFOH
_audit_creation_date 2006-01-31
_audit_creation_method CSD-ConQuest-V1
_database_code_CSD NAWFOH
_database_code_depnum_ccdc_archive 'CCDC 274913'
_chemical_formula_sum 'C28 H29 N3 O12'
_chemical_formula_moiety
;
C28 H29 N3 O12
;
_journal_coden_Cambridge 1078
_journal_year 2005
_journal_name_full 'CSD Communication(Private Communication) '
loop_
_publ_author_name
"M.Heinrich"
"W.Steglich"
"K.Polborn"
_chemical_name_systematic
;
Dimethyl 
N-(3-butenyl)-3,4-bis(3,4-dimethoxy-5-nitrophenyl)pyrrole-2,5-dicarboxylate
;
_cell_volume   1464.177
_exptl_crystal_colour 'colorless'
_exptl_crystal_density_diffrn 1.36
_exptl_special_details
;
contribution from Department Chemie, Universitat Munchen, Butenandtstr. 5- 
13, 81377 Munchen, Germany
;
_exptl_crystal_description 'platelet'
_diffrn_ambient_temperature 295
#These two values have been output from a single CSD field.
_refine_ls_R_factor_gt 0.0408
_refine_ls_wR_factor_gt 0.0408
_symmetry_cell_setting triclinic
_symmetry_space_group_name_H-M 'P -1'
_symmetry_Int_Tables_number 2
loop_
_symmetry_equiv_pos_site_id
_symmetry_equiv_pos_as_xyz
1 x,y,z
2 -x,-y,-z
_cell_length_a 8.9660(15)
_cell_length_b 10.1441(13)
_cell_length_c 16.710(2)
_cell_angle_alpha 77.723(10)
_cell_angle_beta 87.133(11)
_cell_angle_gamma 80.421(12)
_cell_formula_units_Z 2
loop_
_atom_type_symbol
_atom_type_radius_bond
C 0.68
H 0.23
N 0.68
O 0.68
loop_
_atom_site_label
_atom_site_type_symbol
_atom_site_fract_x
_atom_site_fract_y
_atom_site_fract_z
O1 O 0.3863(2) 0.31400(19) 0.05720(11)
O2 O 0.40175(16) 0.21338(16) 0.18846(9)
O3 O 0.6237(3) 0.32226(18) 0.39246(13)
O4 O 0.7961(4) 0.1916(2) 0.46893(13)
O5 O 0.6700(3) -0.04684(17) 0.50966(9)
O6 O 0.6129(2) -0.24639(16) 0.43851(9)
O7 O 0.9030(2) -0.57626(19) 0.18181(15)
O8 O 0.9397(3) -0.6129(2) 0.31105(16)
O9 O 1.16386(19) -0.46986(16) 0.32857(10)
O10 O 1.19711(18) -0.20855(16) 0.31602(9)
O11 O 0.7951(2) -0.04558(19) -0.09391(9)
O12 O 0.94636(17) -0.16551(18) 0.00597(9)
N1 N 0.63238(17) 0.09618(16) 0.02901(9)
N2 N 0.7032(3) 0.2124(2) 0.41640(12)
N3 N 0.9325(2) -0.5401(2) 0.24314(16)
C1 C 0.5810(2) 0.12515(18) 0.10314(11)
C2 C 0.6665(2) 0.03521(18) 0.16492(10)
C3 C 0.7732(2) -0.05140(18) 0.12673(11)
C4 C 0.7502(2) -0.01149(19) 0.04269(11)
C5 C 0.5687(2) 0.1675(2) -0.05154(11)
H1 H 0.46050 0.19440 -0.04520
H2 H 0.58440 0.10470 -0.08870
C6 C 0.6384(3) 0.2929(2) -0.08904(13)
H3 H 0.62210 0.35700 -0.05270
H4 H 0.74660 0.26700 -0.09610
C7 C 0.5695(3) 0.3587(3) -0.16963(16)
H5 H 0.60370 0.31830 -0.21360
C8 C 0.4702(4) 0.4630(3) -0.1847(2)
H6 H 0.43210 0.50730 -0.14290
H7 H 0.43450 0.49600 -0.23770
C9 C 0.4471(2) 0.2289(2) 0.11128(12)
C10 C 0.2710(3) 0.3051(3) 0.20783(16)
H8 H 0.28270 0.32420 0.26080
H9 H 0.18220 0.26350 0.20820
H10 H 0.26080 0.38870 0.16740
C11 C 0.6559(2) 0.02199(18) 0.25520(11)
C12 C 0.6774(2) 0.12523(19) 0.29322(11)
H11 H 0.68890 0.21090 0.26240
C13 C 0.6816(2) 0.09960(19) 0.37758(12)
C14 C 0.6658(3) -0.0258(2) 0.42677(12)
C15 C 0.6367(2) -0.12770(19) 0.38759(11)
C16 C 0.6330(2) -0.10352(19) 0.30360(11)
H12 H 0.61470 -0.17250 0.27830
C17 C 0.7981(7) -0.1403(4) 0.5449(2)
H13 H 0.77610 -0.17760 0.60110
H14 H 0.88330 -0.09320 0.54180
H15 H 0.82110 -0.21280 0.51530
C18 C 0.5847(4) -0.3543(3) 0.40317(16)
H16 H 0.57120 -0.43170 0.44570
H17 H 0.66880 -0.37940 0.36870
H18 H 0.49470 -0.32530 0.37110
C19 C 0.8825(2) -0.16339(19) 0.17379(10)
C20 C 0.8695(2) -0.2989(2) 0.17993(12)
H19 H 0.80050 -0.32290 0.14800
C21 C 0.9600(2) -0.39840(19) 0.23388(13)
C22 C 1.0686(2) -0.3690(2) 0.28071(12)
C23 C 1.0845(2) -0.2320(2) 0.27156(11)
C24 C 0.9912(2) -0.13129(19) 0.21978(11)
H20 H 1.00130 -0.04030 0.21560
C25 C 1.1443(5) -0.4767(3) 0.41465(17)
H21 H 1.22670 -0.53900 0.44310
H22 H 1.05070 -0.50820 0.43270
H23 H 1.14260 -0.38760 0.42600
C26 C 1.2104(3) -0.0711(3) 0.31458(19)
H24 H 1.23250 -0.02650 0.25970
H25 H 1.29060 -0.06860 0.34990
H26 H 1.11700 -0.02510 0.33320
C27 C 0.8291(2) -0.0721(2) -0.02336(12)
C28 C 1.0202(3) -0.2496(3) -0.04844(15)
H27 H 1.09760 -0.31730 -0.01950
H28 H 1.06490 -0.19360 -0.09390
H29 H 0.94730 -0.29390 -0.06830
#END
