
#######################################################################
#
#                 Cambridge Crystallographic Data Centre
#                                CCDC
#
#######################################################################
#
# If this CIF has been generated from an entry in the Cambridge
# Structural Database, then it will include bibliographic, chemical,
# crystal, experimental, refinement or atomic coordinate data resulting
# from the CCDC's data processing and validation procedures.
#
#######################################################################

data_CSD_CIF_NAWKAX
_audit_creation_date 1998-03-31
_audit_creation_method CSD-ConQuest-V1
_database_code_CSD NAWKAX
_database_code_depnum_ccdc_archive 'CCDC 1217461; CCDC 403093'
_database_code_depnum_ccdc_fiz 'CSD 403093'
_chemical_formula_sum 'C20 H23 N3 O4'
_chemical_formula_moiety
;
C20 H23 N3 O4
;
_journal_coden_Cambridge 643
_journal_volume 212
_journal_year 1997
_journal_page_first 890
_journal_name_full 'Z.Krist.Cryst.Mater. '
loop_
_publ_author_name
"R.Centore"
"A.Tuzi"
"B.Panunzi"
_chemical_name_systematic
;
2-(4-(N-6-Hydroxyhexyl)-N-methylaminophenyl)-6-nitrobenzoxazole
;
_chemical_melting_point 375
_cell_volume   3701.961
_exptl_crystal_colour 'pale orange'
_exptl_crystal_density_diffrn 1.325
_exptl_crystal_description 'needle'
_exptl_crystal_preparation 'ethanol'
_diffrn_ambient_temperature ?
_diffrn_special_details
;
The study was carried out at room temperature,in the range 283-303K

;
#These two values have been output from a single CSD field.
_refine_ls_R_factor_gt 0.067
_refine_ls_wR_factor_gt 0.067
_symmetry_cell_setting monoclinic
_symmetry_space_group_name_H-M 'C 2/c'
_symmetry_Int_Tables_number 15
loop_
_symmetry_equiv_pos_site_id
_symmetry_equiv_pos_as_xyz
1 x,y,z
2 -x,y,1/2-z
3 1/2+x,1/2+y,z
4 1/2-x,1/2+y,1/2-z
5 -x,-y,-z
6 x,-y,-1/2+z
7 -1/2-x,-1/2-y,-z
8 -1/2+x,-1/2-y,-1/2+z
_cell_length_a 33.414(7)
_cell_length_b 7.395(2)
_cell_length_c 22.377(6)
_cell_angle_alpha 90
_cell_angle_beta 137.97(2)
_cell_angle_gamma 90
_cell_formula_units_Z 8
loop_
_atom_type_symbol
_atom_type_radius_bond
C 0.68
H 0.23
N 0.68
O 0.68
loop_
_atom_site_label
_atom_site_type_symbol
_atom_site_fract_x
_atom_site_fract_y
_atom_site_fract_z
O1 O 0.2237(1) 0.4521(6) 0.2978(2)
O2 O 0.2214(1) 0.4308(7) 0.3916(2)
O3 O 0.01944(9) 0.7206(5) 0.0250(1)
O4 O -0.4032(1) 0.3558(8) -0.5874(2)
N1 N 0.1985(1) 0.4705(6) 0.3184(2)
N2 N -0.0316(1) 0.7504(6) 0.0552(2)
N3 N -0.2197(1) 1.0651(6) -0.3475(2)
C1 C 0.1375(2) 0.5438(7) 0.2508(2)
C2 C 0.1085(2) 0.5574(8) 0.2729(2)
C3 C 0.0509(2) 0.6224(9) 0.2119(2)
C4 C 0.0239(1) 0.6745(8) 0.1280(2)
C5 C 0.0554(1) 0.6567(7) 0.1098(2)
C6 C 0.1120(1) 0.5935(7) 0.1683(2)
C7 C -0.0322(1) 0.7757(7) -0.0034(2)
C8 C -0.0790(1) 0.8506(7) -0.0912(2)
C9 C -0.1309(1) 0.9100(7) -0.1218(2)
C10 C -0.1769(2) 0.9802(7) -0.2053(2)
C11 C -0.1748(1) 0.9945(7) -0.2652(2)
C12 C -0.1208(1) 0.9320(7) -0.2325(2)
C13 C -0.0748(1) 0.8644(7) -0.1485(2)
C14 C -0.2167(2) 1.0647(9) -0.4098(2)
C15 C -0.2745(2) 1.1293(8) -0.3810(3)
C16 C -0.3204(2) 0.9852(8) -0.4174(3)
C17 C -0.3483(2) 0.8997(9) -0.5020(3)
C18 C -0.3964(3) 0.757(1) -0.5388(4)
C19 C -0.4225(4) 0.667(1) -0.6198(4)
C20 C -0.4199(3) 0.505(1) -0.6259(4)
H1 H -0.29300 1.21100 -0.42800
H2 H -0.26400 1.19100 -0.33400
H3 H -0.35100 1.03400 -0.42700
H4 H -0.30000 0.89300 -0.37300
H5 H -0.31800 0.84200 -0.49200
H6 H -0.36700 0.99200 -0.54600
H7 H -0.42700 0.81500 -0.55100
H8 H -0.37800 0.66700 -0.49400
H9 H -0.40200 0.72200 -0.63000
H10 H -0.46300 0.70300 -0.66500
H11 H -0.40300 0.50300 -0.64600
H12 H -0.46200 0.48000 -0.67400
H13 H -0.21200 1.02200 -0.22300
H14 H -0.13500 0.90200 -0.08400
H15 H -0.03900 0.82700 -0.12900
H16 H -0.11700 0.93800 -0.27000
H17 H 0.03000 0.63100 0.22600
H18 H 0.12800 0.52200 0.33100
H19 H 0.13300 0.58400 0.15400
H20 H -0.25200 1.11900 -0.46500
H21 H -0.18300 1.13000 -0.38500
H22 H -0.21400 0.94300 -0.42000
#END
