
#######################################################################
#
#                 Cambridge Crystallographic Data Centre
#                                CCDC
#
#######################################################################
#
# If this CIF has been generated from an entry in the Cambridge
# Structural Database, then it will include bibliographic, chemical,
# crystal, experimental, refinement or atomic coordinate data resulting
# from the CCDC's data processing and validation procedures.
#
#######################################################################

data_CSD_CIF_NAWKUT
_audit_creation_date 2012-05-22
_audit_creation_method CSD-ConQuest-V1
_database_code_CSD NAWKUT
_database_code_depnum_ccdc_archive 'CCDC 869147'
_chemical_formula_sum 'C24 H22 N2 O3'
_chemical_formula_moiety
;
C24 H22 N2 O3
;
_journal_coden_Cambridge 4
_journal_volume 133
_journal_year 2011
_journal_page_first 20728
_journal_name_full 'J.Am.Chem.Soc. '
loop_
_publ_author_name
"V.V.Pagar"
"A.M.Jadhav"
"Rai-Shung Liu"
_chemical_name_systematic
;
6-Anilino-4-methyl-2-phenyl-3,6-dihydro-2H-1,2-oxazin-5-yl benzoate
;
_cell_volume   4189.474
_exptl_crystal_colour 'colorless'
_exptl_crystal_density_diffrn 1.225
_diffrn_ambient_temperature 296
#These two values have been output from a single CSD field.
_refine_ls_R_factor_gt 0.0467
_refine_ls_wR_factor_gt 0.0467
_symmetry_cell_setting monoclinic
_symmetry_space_group_name_H-M 'C 2/c'
_symmetry_Int_Tables_number 15
loop_
_symmetry_equiv_pos_site_id
_symmetry_equiv_pos_as_xyz
1 x,y,z
2 -x,y,1/2-z
3 1/2+x,1/2+y,z
4 1/2-x,1/2+y,1/2-z
5 -x,-y,-z
6 x,-y,-1/2+z
7 -1/2-x,-1/2-y,-z
8 -1/2+x,-1/2-y,-1/2+z
_cell_length_a 18.1039(10)
_cell_length_b 10.4762(6)
_cell_length_c 22.3799(12)
_cell_angle_alpha 90
_cell_angle_beta 99.242(1)
_cell_angle_gamma 90
_cell_formula_units_Z 8
loop_
_atom_type_symbol
_atom_type_radius_bond
C 0.68
H 0.23
N 0.68
O 0.68
loop_
_atom_site_label
_atom_site_type_symbol
_atom_site_fract_x
_atom_site_fract_y
_atom_site_fract_z
O1 O 0.20524(6) 0.63712(10) 0.07251(5)
O2 O 0.29367(8) 0.32163(12) -0.03987(6)
N1 N 0.13646(8) 0.58062(12) 0.04095(6)
O3 O 0.32650(6) 0.52709(11) -0.03131(5)
C1 C -0.03367(13) 0.6652(2) 0.14159(12)
H1 H -0.07090 0.68410 0.16440
C2 C -0.04723(12) 0.6777(2) 0.08027(12)
H2 H -0.09440 0.70310 0.06120
C3 C 0.00866(11) 0.65294(19) 0.04577(10)
H3 H -0.00090 0.66300 0.00400
C4 C 0.07857(9) 0.61331(15) 0.07397(8)
C5 C 0.26639(9) 0.56195(15) 0.05789(7)
H4 H 0.31260 0.60860 0.07280
C6 C 0.25929(10) 0.55576(15) -0.00983(8)
C7 C 0.33597(10) 0.40506(16) -0.04838(7)
C8 C 0.40152(9) 0.38858(16) -0.07963(7)
C9 C 0.41179(10) 0.27011(19) -0.10455(9)
H5 H 0.38020 0.20270 -0.09880
C10 C 0.46852(12) 0.2522(2) -0.13768(11)
H6 H 0.47510 0.17270 -0.15460
C11 C 0.51551(12) 0.3509(2) -0.14581(12)
H7 H 0.55350 0.33830 -0.16860
N2 N 0.27315(8) 0.43969(13) 0.08511(6)
H8 H 0.26690 0.37330 0.06230
C12 C 0.28951(9) 0.42295(16) 0.14764(7)
C13 C 0.28901(10) 0.30050(18) 0.17129(8)
H9 H 0.27610 0.23190 0.14530
C14 C 0.30724(12) 0.2788(2) 0.2325(1)
H10 H 0.30590 0.19620 0.24740
C15 C 0.32742(13) 0.3782(3) 0.27178(10)
H11 H 0.34120 0.36290 0.31300
C16 C 0.32707(12) 0.4992(3) 0.24971(9)
H12 H 0.34030 0.56670 0.27620
C17 C 0.30722(11) 0.5236(2) 0.18789(8)
H13 H 0.30580 0.60710 0.17370
C18 C 0.50684(12) 0.4678(2) -0.12059(12)
H14 H 0.53940 0.53410 -0.12570
C19 C 0.44944(10) 0.4877(2) -0.08734(9)
H15 H 0.44330 0.56720 -0.07030
C20 C 0.19824(10) 0.58676(15) -0.04715(8)
C21 C 0.19209(12) 0.59004(19) -0.11481(8)
H16 H 0.24130 0.59120 -0.12560
H17 H 0.16530 0.66530 -0.13020
H18 H 0.16570 0.51570 -0.13180
C22 C 0.12923(10) 0.62156(17) -0.02156(8)
H19 H 0.12180 0.71320 -0.02390
H20 H 0.08590 0.58100 -0.04520
C23 C 0.09125(11) 0.5980(2) 0.13606(9)
H21 H 0.13760 0.56970 0.15550
C24 C 0.03534(13) 0.6247(3) 0.16933(11)
H22 H 0.04460 0.61500 0.21120
#END
