
#######################################################################
#
#                 Cambridge Crystallographic Data Centre
#                                CCDC
#
#######################################################################
#
# If this CIF has been generated from an entry in the Cambridge
# Structural Database, then it will include bibliographic, chemical,
# crystal, experimental, refinement or atomic coordinate data resulting
# from the CCDC's data processing and validation procedures.
#
#######################################################################

data_CSD_CIF_NAWLAA
_audit_creation_date 2012-05-22
_audit_creation_method CSD-ConQuest-V1
_database_code_CSD NAWLAA
_database_code_depnum_ccdc_archive 'CCDC 869153'
_chemical_formula_sum 'C21 H26 N2 O7'
_chemical_formula_moiety
;
C21 H26 N2 O7
;
_journal_coden_Cambridge 4
_journal_volume 133
_journal_year 2011
_journal_page_first 20750
_journal_name_full 'J.Am.Chem.Soc. '
loop_
_publ_author_name
"Hun Young Kim"
"Jian-Yuan Li"
"Sungkyung Kim"
"Kyungsoo Oh"
_chemical_name_systematic
;
Methyl 
\b-(nitromethyl)-N-((4,7,7-trimethyl-3-oxo-2-oxabicyclo[2.2.1]hept-1-yl)carbon
yl)phenylalaninate
;
_cell_volume   2127.760
_exptl_crystal_colour 'colorless'
_exptl_crystal_density_diffrn 1.306
_exptl_crystal_description 'acicular'
_diffrn_ambient_temperature 150
#These two values have been output from a single CSD field.
_refine_ls_R_factor_gt 0.0322
_refine_ls_wR_factor_gt 0.0322
_symmetry_cell_setting orthorhombic
_symmetry_space_group_name_H-M 'P 21 21 21'
_symmetry_Int_Tables_number 19
loop_
_symmetry_equiv_pos_site_id
_symmetry_equiv_pos_as_xyz
1 x,y,z
2 1/2+x,1/2-y,-z
3 -x,1/2+y,1/2-z
4 1/2-x,-y,1/2+z
_cell_length_a 6.965(3)
_cell_length_b 11.584(4)
_cell_length_c 26.372(10)
_cell_angle_alpha 90
_cell_angle_beta 90
_cell_angle_gamma 90
_cell_formula_units_Z 4
loop_
_atom_type_symbol
_atom_type_radius_bond
C 0.68
H 0.23
N 0.68
O 0.68
loop_
_atom_site_label
_atom_site_type_symbol
_atom_site_fract_x
_atom_site_fract_y
_atom_site_fract_z
O1 O -0.7181(3) -0.54485(15) -0.27871(7)
O2 O -0.4362(3) -0.61057(14) -0.30838(6)
O3 O -0.5754(4) -0.87241(18) -0.45051(8)
O4 O -0.7620(4) -0.8189(2) -0.51089(8)
O5 O -0.7698(2) -0.40482(14) -0.44474(6)
O6 O -1.1883(2) -0.40667(12) -0.36580(6)
O7 O -1.4410(3) -0.33761(14) -0.32240(6)
N1 N -0.6786(4) -0.80201(19) -0.47079(9)
N2 N -0.8482(3) -0.50303(16) -0.37332(8)
C1 C -0.6125(4) -0.56915(19) -0.3131(1)
C2 C -0.6688(4) -0.56334(19) -0.36878(9)
C3 C -0.6742(4) -0.68888(19) -0.39037(9)
C4 C -0.6983(5) -0.6831(2) -0.44793(10)
C5 C -0.3661(5) -0.6246(3) -0.25669(11)
C6 C -0.8258(4) -0.76050(19) -0.36330(9)
C7 C -0.7766(5) -0.8180(2) -0.31877(10)
C8 C -0.9157(5) -0.8740(2) -0.29063(11)
C9 C -1.1025(5) -0.8777(2) -0.30709(13)
C10 C -1.1512(5) -0.8238(2) -0.35212(13)
C11 C -1.0145(4) -0.7647(2) -0.37956(11)
C12 C -0.8817(3) -0.42383(19) -0.40994(9)
C13 C -1.0680(4) -0.35803(19) -0.40658(9)
C14 C -1.0548(3) -0.22858(18) -0.39029(9)
C15 C -1.2780(3) -0.21939(19) -0.38735(9)
C16 C -1.3192(4) -0.3221(2) -0.35371(9)
C17 C -1.3396(4) -0.2624(2) -0.4409(1)
C18 C -1.1930(4) -0.3578(2) -0.45369(10)
C19 C -0.9553(4) -0.2116(2) -0.33906(11)
C20 C -0.9631(4) -0.1491(2) -0.42943(11)
C21 C -1.3693(4) -0.1080(2) -0.36989(12)
H1 H -0.577(4) -0.521(2) -0.3869(10)
H2 H -0.540(4) -0.720(2) -0.3837(9)
H3 H -0.828(4) -0.655(2) -0.4595(10)
H4 H -0.588(4) -0.637(2) -0.4641(10)
H5 H -0.235(5) -0.639(3) -0.2610(11)
H6 H -0.436(5) -0.686(3) -0.2407(11)
H7 H -0.385(4) -0.549(3) -0.2400(11)
H8 H -0.631(4) -0.818(2) -0.307(1)
H9 H -0.873(4) -0.910(3) -0.2595(12)
H10 H -1.196(5) -0.917(3) -0.2878(12)
H11 H -1.288(5) -0.826(3) -0.3665(11)
H12 H -1.052(4) -0.721(2) -0.4103(11)
H13 H -1.472(4) -0.293(2) -0.4393(10)
H14 H -1.334(4) -0.200(2) -0.4646(10)
H15 H -1.252(4) -0.437(2) -0.460(1)
H16 H -1.110(4) -0.335(2) -0.4824(10)
H17 H -0.966(4) -0.125(2) -0.3289(10)
H18 H -1.015(4) -0.256(2) -0.3093(10)
H19 H -0.809(4) -0.236(2) -0.3401(10)
H20 H -0.966(4) -0.068(2) -0.4165(10)
H21 H -1.029(4) -0.153(2) -0.4631(10)
H22 H -0.836(4) -0.170(2) -0.4343(10)
H23 H -1.506(4) -0.117(2) -0.3690(11)
H24 H -1.340(4) -0.049(3) -0.3938(11)
H25 H -1.326(4) -0.088(2) -0.3374(12)
H26 H -0.94250 -0.50640 -0.34800
#END
