
#######################################################################
#
#                 Cambridge Crystallographic Data Centre
#                                CCDC
#
#######################################################################
#
# If this CIF has been generated from an entry in the Cambridge
# Structural Database, then it will include bibliographic, chemical,
# crystal, experimental, refinement or atomic coordinate data resulting
# from the CCDC's data processing and validation procedures.
#
#######################################################################

data_CSD_CIF_NAWQEH
_audit_creation_date 1998-03-30
_audit_creation_method CSD-ConQuest-V1
_database_code_CSD NAWQEH
_database_code_depnum_ccdc_archive 'CCDC 1217475'
_database_code_depnum_ccdc_journal 1003/5199
_chemical_formula_sum 'C11 H12 N4 O6'
_chemical_formula_moiety
;
C11 H12 N4 O6
;
_journal_coden_Cambridge 1003
_journal_volume 27
_journal_year 1997
_journal_page_first 499
_journal_name_full 'J.Chem.Cryst. '
loop_
_publ_author_name
"R.Baggio"
"M.V.Remedi"
"M.T.Garland"
"E.I.Bujan"
_chemical_name_systematic
;
1-Piperidino-2,4,6-trinitrobenzene
;
_cell_volume   1286.329
_exptl_crystal_colour 'yellow'
_exptl_crystal_density_diffrn 1.53
_exptl_crystal_description 'prisms'
_diffrn_ambient_temperature ?
_diffrn_special_details
;
The study was carried out at room temperature,in the range 283-303K

;
#These two values have been output from a single CSD field.
_refine_ls_R_factor_gt 0.0389
_refine_ls_wR_factor_gt 0.0389
_symmetry_cell_setting monoclinic
_symmetry_space_group_name_H-M 'P 21/n'
_symmetry_Int_Tables_number 14
loop_
_symmetry_equiv_pos_site_id
_symmetry_equiv_pos_as_xyz
1 x,y,z
2 1/2-x,1/2+y,1/2-z
3 -x,-y,-z
4 -1/2+x,-1/2-y,-1/2+z
_cell_length_a 10.426(1)
_cell_length_b 10.038(1)
_cell_length_c 12.291(1)
_cell_angle_alpha 90
_cell_angle_beta 90.04(1)
_cell_angle_gamma 90
_cell_formula_units_Z 4
loop_
_atom_type_symbol
_atom_type_radius_bond
C 0.68
H 0.23
N 0.68
O 0.68
loop_
_atom_site_label
_atom_site_type_symbol
_atom_site_fract_x
_atom_site_fract_y
_atom_site_fract_z
C1 C 0.4667(2) 0.2740(3) 0.2284(2)
C2 C 0.4512(2) 0.3669(3) 0.3143(2)
C3 C 0.4083(2) 0.4953(3) 0.3003(2)
H1 H 0.3978(2) 0.5535(3) 0.3616(2)
C4 C 0.3804(2) 0.5383(3) 0.1965(3)
C5 C 0.3846(3) 0.4532(3) 0.1093(2)
H2 H 0.3621(3) 0.4841(3) 0.0379(2)
C6 C 0.4229(2) 0.3237(3) 0.1268(2)
C7 C 0.5978(3) 0.0903(3) 0.1531(2)
H3 H 0.6193(3) 0.1553(3) 0.0987(2)
H4 H 0.5480(3) 0.0213(3) 0.1192(2)
C8 C 0.7178(3) 0.0301(3) 0.2013(3)
H5 H 0.7677(3) 0.0997(3) 0.2342(3)
H6 H 0.7684(3) -0.0098(3) 0.1448(3)
C9 C 0.6846(3) -0.0731(3) 0.2869(3)
H7 H 0.7623(3) -0.1058(3) 0.3194(3)
H8 H 0.6409(3) -0.1467(3) 0.2536(3)
C10 C 0.5998(3) -0.0131(3) 0.3747(2)
H9 H 0.5722(3) -0.0817(3) 0.4239(2)
H10 H 0.6487(3) 0.0508(3) 0.4153(2)
C11 C 0.4845(3) 0.0573(3) 0.3255(2)
H11 H 0.4286(3) -0.0087(3) 0.2947(2)
H12 H 0.4381(3) 0.1038(3) 0.3813(2)
N1 N 0.4942(3) 0.3367(2) 0.4260(2)
N2 N 0.3409(2) 0.6768(3) 0.1798(3)
N3 N 0.3951(2) 0.2318(3) 0.0361(2)
N4 N 0.5219(2) 0.1524(2) 0.2401(2)
O1 O 0.6000(2) 0.2871(2) 0.4385(2)
O2 O 0.4226(2) 0.3689(2) 0.5007(2)
O3 O 0.3474(2) 0.7530(2) 0.2571(2)
O4 O 0.3030(2) 0.7083(2) 0.0885(2)
O5 O 0.4099(2) 0.2731(3) -0.0567(2)
O6 O 0.3526(2) 0.1217(2) 0.0587(2)
#END
