
#######################################################################
#
#                 Cambridge Crystallographic Data Centre
#                                CCDC
#
#######################################################################
#
# If this CIF has been generated from an entry in the Cambridge
# Structural Database, then it will include bibliographic, chemical,
# crystal, experimental, refinement or atomic coordinate data resulting
# from the CCDC's data processing and validation procedures.
#
#######################################################################

data_CSD_CIF_NAWQAD
_audit_creation_date 1998-03-30
_audit_creation_method CSD-ConQuest-V1
_database_code_CSD NAWQAD
_database_code_depnum_ccdc_archive 'CCDC 1217474'
_database_code_depnum_ccdc_journal 1003/5199
_chemical_formula_sum 'C10 H10 N4 O7'
_chemical_formula_moiety
;
C10 H10 N4 O7
;
_journal_coden_Cambridge 1003
_journal_volume 27
_journal_year 1997
_journal_page_first 499
_journal_name_full 'J.Chem.Cryst. '
loop_
_publ_author_name
"R.Baggio"
"M.V.Remedi"
"M.T.Garland"
"E.I.Bujan"
_chemical_name_systematic
;
1-Morpholino-2,4,6-trinitrobenzene
;
_cell_volume   1240.111
_exptl_crystal_colour 'yellow'
_exptl_crystal_density_diffrn 1.597
_exptl_crystal_description 'prisms'
_diffrn_ambient_temperature ?
_diffrn_special_details
;
The study was carried out at room temperature,in the range 283-303K

;
#These two values have been output from a single CSD field.
_refine_ls_R_factor_gt 0.069
_refine_ls_wR_factor_gt 0.069
_symmetry_cell_setting monoclinic
_symmetry_space_group_name_H-M 'P 21/n'
_symmetry_Int_Tables_number 14
loop_
_symmetry_equiv_pos_site_id
_symmetry_equiv_pos_as_xyz
1 x,y,z
2 1/2-x,1/2+y,1/2-z
3 -x,-y,-z
4 -1/2+x,-1/2-y,-1/2+z
_cell_length_a 7.090(2)
_cell_length_b 21.493(9)
_cell_length_c 8.298(3)
_cell_angle_alpha 90
_cell_angle_beta 101.27(1)
_cell_angle_gamma 90
_cell_formula_units_Z 4
loop_
_atom_type_symbol
_atom_type_radius_bond
C 0.68
H 0.23
N 0.68
O 0.68
loop_
_atom_site_label
_atom_site_type_symbol
_atom_site_fract_x
_atom_site_fract_y
_atom_site_fract_z
C1 C 0.065(1) 0.1290(3) -0.0051(8)
C2 C -0.0925(10) 0.0996(3) 0.0494(8)
C3 C -0.2072(10) 0.0546(3) -0.0356(9)
H1 H -0.3069(10) 0.0351(3) 0.0100(9)
C4 C -0.1774(12) 0.0380(3) -0.1877(10)
C5 C -0.0301(11) 0.0639(3) -0.2527(8)
H2 H -0.0135(11) 0.0528(3) -0.3611(8)
C6 C 0.0907(10) 0.1061(3) -0.1593(8)
C7 C 0.2606(11) 0.2254(3) 0.0008(8)
H3 H 0.2012(11) 0.2280(3) -0.1134(8)
H4 H 0.3943(11) 0.2160(3) 0.0085(8)
C8 C 0.2425(11) 0.2866(3) 0.0844(9)
H5 H 0.3048(11) 0.3189(3) 0.0342(9)
H6 H 0.1087(11) 0.2970(3) 0.0715(9)
C9 C 0.2244(10) 0.2380(3) 0.3310(8)
H7 H 0.0909(10) 0.2491(3) 0.3142(8)
H8 H 0.2747(10) 0.2373(3) 0.4471(8)
C10 C 0.2441(10) 0.1745(3) 0.2568(7)
H9 H 0.3771(10) 0.1626(3) 0.2763(7)
H10 H 0.1748(10) 0.1443(3) 0.3075(7)
N1 N -0.1574(9) 0.1217(3) 0.1983(8)
N2 N -0.3028(12) -0.0083(3) -0.2847(10)
N3 N 0.2611(11) 0.1240(3) -0.2266(8)
N4 N 0.1663(8) 0.1764(3) 0.0795(6)
O1 O -0.2079(8) 0.1758(3) 0.1991(7)
O2 O -0.1605(8) 0.0845(3) 0.3073(6)
O3 O -0.4255(9) -0.0323(3) -0.2215(8)
O4 O -0.2745(9) -0.0211(3) -0.4233(8)
O5 O 0.2353(8) 0.1424(3) -0.3682(6)
O6 O 0.4175(8) 0.1191(3) -0.1356(7)
O7 O 0.3232(7) 0.2828(2) 0.2555(6)
#END
