
#######################################################################
#
#                 Cambridge Crystallographic Data Centre
#                                CCDC
#
#######################################################################
#
# If this CIF has been generated from an entry in the Cambridge
# Structural Database, then it will include bibliographic, chemical,
# crystal, experimental, refinement or atomic coordinate data resulting
# from the CCDC's data processing and validation procedures.
#
#######################################################################

data_CSD_CIF_NAWZER
_audit_creation_date 2006-01-31
_audit_creation_method CSD-ConQuest-V1
_database_code_CSD NAWZER
_database_code_depnum_ccdc_archive 'CCDC 280652'
_chemical_formula_sum 'C19 H21 N1 O6'
_chemical_formula_moiety
;
C19 H21 N1 O6
;
_journal_coden_Cambridge 1078
_journal_year 2005
_journal_name_full 'CSD Communication(Private Communication) '
loop_
_publ_author_name
"B.Kindler"
"T.Lindel"
"K.Polborn"
_chemical_name_systematic
;
Methyl 2-(hydroxyimino)-3-(4-methoxy-3-((4-methoxybenzyl)oxy)phenyl)propanoate
;
_cell_volume    888.185
_exptl_crystal_colour 'colorless'
_exptl_crystal_density_diffrn 1.344
_exptl_special_details
;
contribution from Ludwig-Maximilians-University Munich, Department Chemie, 
Butenandt-Strasse 5-13, 81377 Munchen, Germany
;
_exptl_crystal_description 'stick'
_diffrn_ambient_temperature 295
#These two values have been output from a single CSD field.
_refine_ls_R_factor_gt 0.0456
_refine_ls_wR_factor_gt 0.0456
_symmetry_cell_setting triclinic
_symmetry_space_group_name_H-M 'P -1'
_symmetry_Int_Tables_number 2
loop_
_symmetry_equiv_pos_site_id
_symmetry_equiv_pos_as_xyz
1 x,y,z
2 -x,-y,-z
_cell_length_a 5.7137(6)
_cell_length_b 12.2011(11)
_cell_length_c 13.3578(17)
_cell_angle_alpha 75.559(9)
_cell_angle_beta 86.984(10)
_cell_angle_gamma 80.049(8)
_cell_formula_units_Z 2
loop_
_atom_type_symbol
_atom_type_radius_bond
C 0.68
H 0.23
N 0.68
O 0.68
loop_
_atom_site_label
_atom_site_type_symbol
_atom_site_fract_x
_atom_site_fract_y
_atom_site_fract_z
O1 O 0.4673(4) -0.55063(17) 0.27096(16)
O2 O 0.6103(3) -0.61584(15) 0.13406(15)
O3 O 1.0586(3) -0.40071(15) 0.06327(15)
H1 H 1.12790 -0.40880 0.00960
O4 O 0.6712(3) 0.01034(13) 0.26579(14)
O5 O 0.9021(4) 0.37168(18) 0.49415(17)
O6 O 0.3200(3) 0.06414(13) 0.14141(14)
N1 N 0.8943(4) -0.47487(16) 0.08908(16)
C1 C 0.6732(4) -0.27349(19) 0.21205(17)
C2 C 0.7389(4) -0.18873(19) 0.25273(18)
H2 H 0.86800 -0.20780 0.29690
C3 C 0.6188(4) -0.07756(18) 0.22956(18)
C4 C 0.4258(4) -0.04853(18) 0.16171(17)
C5 C 0.3582(4) -0.1321(2) 0.1227(2)
H3 H 0.22880 -0.11350 0.07870
C6 C 0.4797(4) -0.2437(2) 0.14788(19)
H4 H 0.42990 -0.29920 0.12110
C7 C 0.8113(5) -0.3942(2) 0.24207(19)
H5 H 0.97890 -0.38960 0.24360
H6 H 0.76410 -0.43030 0.31160
C8 C 0.7801(4) -0.46938(19) 0.17275(19)
C9 C 0.6005(5) -0.5489(2) 0.1990(2)
C10 C 0.4507(6) -0.6989(2) 0.1547(3)
H7 H 0.47270 -0.74200 0.10280
H8 H 0.28950 -0.65990 0.15340
H9 H 0.48380 -0.75010 0.22150
C11 C 0.8567(4) -0.0161(2) 0.3407(2)
H10 H 1.00860 -0.03860 0.30930
H11 H 0.82680 -0.07910 0.39770
C12 C 0.8614(4) 0.0890(2) 0.37903(18)
C13 C 1.0418(5) 0.1537(2) 0.3509(2)
H12 H 1.15990 0.13380 0.30490
C14 C 1.0477(5) 0.2472(2) 0.3903(2)
H13 H 1.16950 0.29000 0.37030
C15 C 0.8778(5) 0.2781(2) 0.45826(19)
C16 C 0.6982(5) 0.2157(2) 0.4866(2)
H14 H 0.58110 0.23560 0.53300
C17 C 0.6917(5) 0.1230(2) 0.4462(2)
H15 H 0.56710 0.08190 0.46530
C18 C 0.7414(6) 0.4028(3) 0.5679(3)
H16 H 0.78310 0.46760 0.58720
H17 H 0.74580 0.33960 0.62770
H18 H 0.58430 0.42270 0.53970
C19 C 0.1275(5) 0.0989(2) 0.0705(2)
H19 H 0.07220 0.17970 0.06060
H20 H 0.00040 0.05750 0.09770
H21 H 0.18040 0.08280 0.00550
#END
