
#######################################################################
#
#                 Cambridge Crystallographic Data Centre
#                                CCDC
#
#######################################################################
#
# If this CIF has been generated from an entry in the Cambridge
# Structural Database, then it will include bibliographic, chemical,
# crystal, experimental, refinement or atomic coordinate data resulting
# from the CCDC's data processing and validation procedures.
#
#######################################################################

data_CSD_CIF_NAXHUR
_audit_creation_date 2012-09-26
_audit_creation_method CSD-ConQuest-V1
_database_code_CSD NAXHUR
_database_code_depnum_ccdc_archive 'CCDC 739436'
_chemical_formula_sum 'C11 H12 N4 O3'
_chemical_formula_moiety
;
C11 H12 N4 O3
;
_journal_coden_Cambridge 452
_journal_volume 9
_journal_year 2012
_journal_page_first 1240
_journal_name_full 'Chem.Biodiversity '
loop_
_publ_author_name
"S.Villa"
"D.Masciocchi"
"A.Gelain"
"F.Meneghetti"
_chemical_name_systematic
;
1-Benzyl-3-(4-(hydroxymethyl)-1,2,5-oxadiazol-3-yl)urea
;
_chemical_name_common
;
md58
;
_cell_volume   1167.930
_exptl_crystal_colour 'white'
_exptl_crystal_density_diffrn 1.412
_exptl_crystal_description 'prism'
_diffrn_ambient_temperature 293
#These two values have been output from a single CSD field.
_refine_ls_R_factor_gt 0.069
_refine_ls_wR_factor_gt 0.069
_symmetry_cell_setting monoclinic
_symmetry_space_group_name_H-M 'P 21/n'
_symmetry_Int_Tables_number 14
loop_
_symmetry_equiv_pos_site_id
_symmetry_equiv_pos_as_xyz
1 x,y,z
2 1/2-x,1/2+y,1/2-z
3 -x,-y,-z
4 -1/2+x,-1/2-y,-1/2+z
_cell_length_a 8.139(5)
_cell_length_b 12.855(5)
_cell_length_c 11.815(5)
_cell_angle_alpha 90
_cell_angle_beta 109.126(10)
_cell_angle_gamma 90
_cell_formula_units_Z 4
loop_
_atom_type_symbol
_atom_type_radius_bond
C 0.68
H 0.23
N 0.68
O 0.68
loop_
_atom_site_label
_atom_site_type_symbol
_atom_site_fract_x
_atom_site_fract_y
_atom_site_fract_z
C1 C 0.1612(8) 0.1728(4) 0.2357(5)
H1 H 0.21090 0.23110 0.21340
C2 C 0.0753(9) 0.0997(6) 0.1500(4)
H2 H 0.06750 0.10910 0.07040
C3 C 0.0011(8) 0.0125(5) 0.1834(6)
H3 H -0.05630 -0.03640 0.12610
C4 C 0.0128(8) -0.0016(4) 0.3024(7)
H4 H -0.03690 -0.05990 0.32480
C5 C 0.0987(8) 0.0715(5) 0.3881(5)
H5 H 0.10650 0.06210 0.46770
C6 C 0.1729(7) 0.1587(4) 0.3547(4)
O1 O 0.1098(7) 0.5967(4) 0.8127(5)
H6 H 0.12740 0.58800 0.74890
O2 O 0.0691(7) 0.4062(4) 0.4275(5)
N1 N 0.2016(8) 0.2671(4) 0.5338(6)
H7 H 0.21700 0.22970 0.59670
N2 N 0.1576(9) 0.3552(5) 0.9244(7)
O3 O 0.2230(8) 0.2665(5) 0.8890(6)
C7 C 0.1068(10) 0.3546(5) 0.5187(8)
N3 N 0.1929(10) 0.2685(5) 0.7684(6)
C8 C 0.0929(10) 0.4092(6) 0.8300(8)
C9 C 0.012(1) 0.5137(6) 0.8329(7)
H8 H -0.10240 0.51510 0.77260
H9 H -0.00300 0.52290 0.91040
C10 C 0.2766(11) 0.2363(6) 0.4459(8)
H10 H 0.39030 0.20670 0.48660
H11 H 0.29370 0.29790 0.40380
C11 C 0.1104(11) 0.3538(7) 0.7295(8)
N4 N 0.0644(9) 0.3893(5) 0.6175(6)
H12 H -0.00300 0.44260 0.60380
#END
