
#######################################################################
#
#                 Cambridge Crystallographic Data Centre
#                                CCDC
#
#######################################################################
#
# If this CIF has been generated from an entry in the Cambridge
# Structural Database, then it will include bibliographic, chemical,
# crystal, experimental, refinement or atomic coordinate data resulting
# from the CCDC's data processing and validation procedures.
#
#######################################################################

data_CSD_CIF_NAXPEJ
_audit_creation_date 2012-09-26
_audit_creation_method CSD-ConQuest-V1
_database_code_CSD NAXPEJ
_database_code_depnum_ccdc_archive 'CCDC 832530'
_chemical_formula_sum 'C17 H16 N4 O3'
_chemical_formula_moiety
;
C17 H16 N4 O3
;
_journal_coden_Cambridge 1003
_journal_volume 42
_journal_year 2012
_journal_page_first 701
_journal_name_full 'J.Chem.Cryst. '
loop_
_publ_author_name
"Jie Sheng"
"Mei-Mei Zhang"
"Lian-Lu"
"Xiang-Shan Wang"
_chemical_name_systematic
;
2,2-Dimethyl-3-((3-nitrobenzylidene)amino)-2,3-dihydroquinazolin-4(1H)-one
;
_cell_volume   1618.972
_exptl_crystal_density_diffrn 1.331
_diffrn_ambient_temperature 296
#These two values have been output from a single CSD field.
_refine_ls_R_factor_gt 0.0371
_refine_ls_wR_factor_gt 0.0371
_symmetry_cell_setting monoclinic
_symmetry_space_group_name_H-M 'P 21/c'
_symmetry_Int_Tables_number 14
loop_
_symmetry_equiv_pos_site_id
_symmetry_equiv_pos_as_xyz
1 x,y,z
2 -x,1/2+y,1/2-z
3 -x,-y,-z
4 x,-1/2-y,-1/2+z
_cell_length_a 10.0006(2)
_cell_length_b 12.2298(3)
_cell_length_c 13.3255(3)
_cell_angle_alpha 90
_cell_angle_beta 96.602(2)
_cell_angle_gamma 90
_cell_formula_units_Z 4
loop_
_atom_type_symbol
_atom_type_radius_bond
C 0.68
H 0.23
N 0.68
O 0.68
loop_
_atom_site_label
_atom_site_type_symbol
_atom_site_fract_x
_atom_site_fract_y
_atom_site_fract_z
N1 N 0.64543(12) 0.90447(10) 0.03681(9)
N2 N 0.54302(12) 0.8312(1) 0.04818(8)
C1 C 0.36613(14) 0.70081(12) -0.00077(11)
C2 C 0.45677(14) 0.78741(12) -0.02903(10)
N3 N 0.42988(13) 0.74328(12) 0.17181(10)
O1 O 0.45280(12) 0.82106(10) -0.11633(7)
C3 C 0.35377(14) 0.68171(13) 0.10092(11)
C4 C 0.77381(15) 1.02796(12) -0.04793(11)
C5 C 0.56173(15) 0.77980(13) 0.15075(11)
C6 C 0.28652(16) 0.64294(14) -0.07519(13)
H1 H 0.29460 0.65640 -0.14290
C7 C 0.94505(16) 1.14246(13) 0.03321(15)
C8 C 0.84300(15) 1.06885(13) 0.04007(12)
H2 H 0.82060 1.04680 0.10280
C9 C 0.66238(15) 0.95056(13) -0.04583(11)
H3 H 0.60510 0.93550 -0.10420
C10 C 0.25925(17) 0.60485(15) 0.12585(14)
H4 H 0.24800 0.59230 0.19320
C11 C 0.19652(18) 0.56649(15) -0.04957(15)
H5 H 0.14460 0.52720 -0.09960
C12 C 0.81011(18) 1.06251(14) -0.14010(13)
H6 H 0.76380 1.03580 -0.19960
C13 C 0.6117(2) 0.86387(17) 0.23024(12)
H7 H 0.54770 0.92250 0.22950
H8 H 0.69690 0.89230 0.21580
H9 H 0.62190 0.83000 0.29570
O2 O 0.98825(17) 1.15110(16) 0.20761(14)
C14 C 0.18334(19) 0.54811(16) 0.05101(17)
H10 H 0.12190 0.49630 0.06830
C15 C 0.66024(18) 0.68479(16) 0.14899(15)
H11 H 0.62580 0.63300 0.09840
H12 H 0.67120 0.64980 0.21390
H13 H 0.74570 0.71180 0.13360
N4 N 1.01708(17) 1.18561(15) 0.12738(18)
C16 C 0.98127(18) 1.17726(16) -0.05801(18)
H14 H 1.05020 1.22790 -0.06060
O3 O 1.10346(18) 1.25475(15) 0.12011(17)
C17 C 0.9139(2) 1.13592(16) -0.14490(17)
H15 H 0.93810 1.15730 -0.20730
H16 H 0.4282(17) 0.7241(14) 0.2331(14)
#END
