
#######################################################################
#
#                 Cambridge Crystallographic Data Centre
#                                CCDC
#
#######################################################################
#
# If this CIF has been generated from an entry in the Cambridge
# Structural Database, then it will include bibliographic, chemical,
# crystal, experimental, refinement or atomic coordinate data resulting
# from the CCDC's data processing and validation procedures.
#
#######################################################################

data_CSD_CIF_NAYDUO
_audit_creation_date 2012-10-16
_audit_creation_method CSD-ConQuest-V1
_database_code_CSD NAYDUO
_database_code_depnum_ccdc_archive 'CCDC 840829'
_chemical_formula_sum 'C27 H27 N1 O8'
_chemical_formula_moiety
;
C27 H27 N1 O8
;
_journal_coden_Cambridge 222
_journal_volume 41
_journal_year 2012
_journal_page_first 7115
_journal_name_full 'Dalton Trans. '
loop_
_publ_author_name
"B.Nath"
"J.B.Baruah"
_chemical_name_systematic
;
2-Nitrophenylmethylene-bis(3,5-dimethylbenzene-2-oxyacetic acid)
;
_cell_volume   2454.812
_exptl_crystal_colour 'colorless'
_exptl_crystal_density_diffrn 1.335
_exptl_crystal_description 'needle'
_diffrn_ambient_temperature 296
#These two values have been output from a single CSD field.
_refine_ls_R_factor_gt 0.0658
_refine_ls_wR_factor_gt 0.0658
_symmetry_cell_setting monoclinic
_symmetry_space_group_name_H-M 'P 21/n'
_symmetry_Int_Tables_number 14
loop_
_symmetry_equiv_pos_site_id
_symmetry_equiv_pos_as_xyz
1 x,y,z
2 1/2-x,1/2+y,1/2-z
3 -x,-y,-z
4 -1/2+x,-1/2-y,-1/2+z
_cell_length_a 16.297(3)
_cell_length_b 9.222(2)
_cell_length_c 16.374(4)
_cell_angle_alpha 90
_cell_angle_beta 94.019(15)
_cell_angle_gamma 90
_cell_formula_units_Z 4
loop_
_atom_type_symbol
_atom_type_radius_bond
C 0.68
H 0.23
N 0.68
O 0.68
loop_
_atom_site_label
_atom_site_type_symbol
_atom_site_fract_x
_atom_site_fract_y
_atom_site_fract_z
O1 O 0.77869(13) 0.6918(3) 0.05538(12)
O2 O 0.77806(15) 0.9606(3) -0.14976(13)
O3 O 0.81461(16) 1.0799(3) 0.10372(14)
O4 O 0.90254(15) 0.5667(3) -0.01820(16)
O5 O 0.99293(16) 0.6352(4) 0.08216(16)
H1 H 1.02380 0.58370 0.05730
O6 O 0.8637(2) 1.2752(4) 0.0559(2)
O7 O 0.9898(2) 0.8988(7) -0.1140(3)
H2 H 1.01600 0.86720 -0.07320
O8 O 0.9049(2) 1.0027(5) -0.0353(2)
C1 C 0.67434(18) 0.8710(3) 0.07315(15)
C2 C 0.71625(19) 0.7464(3) 0.10111(17)
C3 C 0.67739(19) 1.1050(4) -0.01133(16)
C4 C 0.69949(18) 0.9435(3) -0.00494(16)
H3 H 0.75960 0.93700 -0.00420
C5 C 0.61199(19) 0.9241(4) 0.11853(16)
H4 H 0.58430 1.00800 0.10120
C6 C 0.66483(19) 0.8651(3) -0.08271(16)
C7 C 0.58980(19) 0.8542(4) 0.18974(16)
C8 C 0.6945(2) 0.6708(4) 0.17118(17)
C9 C 0.7060(2) 0.8777(4) -0.15389(18)
C10 C 0.7298(2) 1.2180(4) 0.01458(17)
C11 C 0.6025(2) 1.1490(4) -0.04989(18)
H5 H 0.56460 1.07850 -0.06770
C12 C 0.5913(2) 0.7890(4) -0.08634(17)
H6 H 0.56340 0.77950 -0.03900
C13 C 0.5825(2) 1.2933(4) -0.0627(2)
H7 H 0.53130 1.31790 -0.08740
C14 C 0.5580(2) 0.7263(4) -0.1586(2)
C15 C 0.8593(2) 0.7186(4) 0.0903(2)
H8 H 0.86310 0.69090 0.14760
H9 H 0.87180 0.82110 0.08690
C16 C 0.6310(2) 0.7283(4) 0.21303(18)
H10 H 0.61530 0.67960 0.25920
C17 C 0.6751(3) 0.8191(4) -0.22753(19)
C18 C 0.7113(3) 1.3619(4) -0.0009(2)
H11 H 0.74950 1.43300 0.01500
C19 C 0.6378(3) 1.4009(4) -0.0391(2)
H12 H 0.62530 1.49800 -0.04910
C20 C 0.6019(2) 0.7449(4) -0.2281(2)
H13 H 0.58050 0.70510 -0.27730
C21 C 0.5236(2) 0.9143(5) 0.2398(2)
H14 H 0.47320 0.86260 0.22700
H15 H 0.51550 1.01520 0.22730
H16 H 0.53980 0.90330 0.29700
C22 C 0.7366(3) 0.5331(4) 0.2007(2)
H17 H 0.77910 0.55580 0.24220
H18 H 0.76030 0.48610 0.15560
H19 H 0.69710 0.46960 0.22290
C23 C 0.9199(2) 0.6327(4) 0.0452(2)
C24 C 0.9171(3) 0.9375(6) -0.0950(3)
C25 C 0.4765(2) 0.6487(5) -0.1629(2)
H20 H 0.46980 0.60030 -0.11190
H21 H 0.47480 0.57860 -0.20640
H22 H 0.43290 0.71760 -0.17330
C26 C 0.7175(3) 0.8437(6) -0.3061(2)
H23 H 0.76230 0.77660 -0.30870
H24 H 0.73820 0.94110 -0.30700
H25 H 0.67880 0.82890 -0.35230
C27 C 0.8528(3) 0.8845(6) -0.1574(3)
H26 H 0.87130 0.89890 -0.21190
H27 H 0.84390 0.78150 -0.14980
N1 N 0.8082(2) 1.1887(4) 0.06018(19)
#END
