
#######################################################################
#
#                 Cambridge Crystallographic Data Centre
#                                CCDC
#
#######################################################################
#
# If this CIF has been generated from an entry in the Cambridge
# Structural Database, then it will include bibliographic, chemical,
# crystal, experimental, refinement or atomic coordinate data resulting
# from the CCDC's data processing and validation procedures.
#
#######################################################################

data_CSD_CIF_NAYDID
_audit_creation_date 2017-08-07
_audit_creation_method CSD-ConQuest-V1
_database_code_CSD NAYDID
_database_code_depnum_ccdc_archive 'CCDC 1545247'
_chemical_formula_sum 'C33 H53 N1 O6'
_chemical_formula_moiety
;
C33 H53 N1 O6
;
_journal_coden_Cambridge 1500
_journal_volume 7
_journal_year 2017
_journal_page_first 38557
_journal_name_full 'RSC Advances '
loop_
_publ_author_name
"Yin Nian"
"Hui Yan"
"Xiao-Nian Li"
"Lin Zhou"
"Ming-Hua Qiu"
_chemical_name_systematic
;
(3\b,16S,23R,24S)-16,23-epoxy-3-hydroxy-15-oximido-24-acetoxy-25-methoxy-9,19-
cycloartane
;
_chemical_name_common
;
cimifrigine A
;
_cell_volume   1565.189
_exptl_crystal_colour 'colorless'
_exptl_crystal_density_diffrn 1.188
_exptl_special_details
;
Absolute configuration
tested in vitro for activity against human HL-60, SMMC-7721, A549, MCF-7 and 
SW-480 cell lines
;
_exptl_crystal_description 'block'
_diffrn_ambient_temperature 100
#These two values have been output from a single CSD field.
_refine_ls_R_factor_gt 0.1056
_refine_ls_wR_factor_gt 0.1056
_chemical_compound_source
;
Cimicifuga frigida
;
_symmetry_cell_setting monoclinic
_symmetry_space_group_name_H-M 'P 21'
_symmetry_Int_Tables_number 4
loop_
_symmetry_equiv_pos_site_id
_symmetry_equiv_pos_as_xyz
1 x,y,z
2 -x,1/2+y,-z
_cell_length_a 9.5634(4)
_cell_length_b 11.2799(5)
_cell_length_c 14.9190(6)
_cell_angle_alpha 90
_cell_angle_beta 103.457(1)
_cell_angle_gamma 90
_cell_formula_units_Z 2
loop_
_atom_type_symbol
_atom_type_radius_bond
C 0.68
H 0.23
N 0.68
O 0.68
loop_
_atom_site_label
_atom_site_type_symbol
_atom_site_fract_x
_atom_site_fract_y
_atom_site_fract_z
O1 O 0.4975(3) 0.5719(3) 0.79705(19)
H1 H 0.56190 0.53180 0.83200
O2 O 0.8860(3) 0.4100(2) 0.11882(18)
O3 O 0.8905(3) 0.3074(3) -0.0362(2)
O4 O 0.7204(3) 0.4465(3) -0.0832(2)
O5 O 1.2250(3) 0.4624(3) -0.0210(2)
C1 C 0.5031(4) 0.4227(4) 0.4782(3)
H2 H 0.54700 0.34500 0.49900
H3 H 0.39730 0.41290 0.46260
C2 C 0.7167(4) 0.4589(4) 0.4103(3)
H4 H 0.74470 0.37410 0.42320
C3 C 0.5368(4) 0.5919(4) 0.7111(3)
H5 H 0.47800 0.66060 0.68110
C4 C 0.4962(4) 0.4852(4) 0.6447(3)
C5 C 0.5467(4) 0.5136(4) 0.5557(3)
H6 H 0.49380 0.58760 0.53110
C6 C 0.5527(4) 0.4634(4) 0.3932(3)
H7 H 0.51920 0.54550 0.37750
H8 H 0.50960 0.41180 0.34030
C7 C 0.7757(4) 0.4959(4) 0.3263(3)
C8 C 0.7643(4) 0.4026(4) 0.2510(3)
C9 C 0.9017(4) 0.4020(4) 0.2153(3)
H9 H 0.95620 0.32780 0.23740
C10 C 1.0268(4) 0.3934(4) 0.1009(3)
H10 H 1.06360 0.31330 0.12380
C11 C 1.0006(4) 0.3953(4) -0.0042(3)
H11 H 0.96280 0.47500 -0.02730
C12 C 0.7528(4) 0.3448(4) -0.0640(3)
C13 C 0.6515(4) 0.2446(4) -0.0644(3)
H12 H 0.63120 0.23690 -0.00320
H13 H 0.69480 0.17100 -0.08010
H14 H 0.56170 0.25990 -0.11020
C14 C 0.6932(4) 0.6293(4) 0.7272(3)
H15 H 0.75500 0.56550 0.76070
H16 H 0.70880 0.70120 0.76620
C15 C 0.7370(4) 0.6549(4) 0.6369(3)
H17 H 0.84090 0.67370 0.64990
H18 H 0.68310 0.72430 0.60620
C16 C 0.7052(4) 0.5468(3) 0.5736(3)
C17 C 0.7891(4) 0.5300(3) 0.4989(3)
C18 C 0.8242(4) 0.4562(4) 0.5860(3)
H19 H 0.79670 0.37150 0.58110
H20 H 0.91490 0.47380 0.63170
C19 C 0.8911(4) 0.6322(4) 0.4897(3)
H21 H 0.96020 0.64190 0.54990
H22 H 0.83330 0.70580 0.47800
C20 C 0.9789(4) 0.6228(4) 0.4145(3)
H23 H 0.95830 0.69290 0.37360
H24 H 1.08280 0.62350 0.44450
C21 C 0.9440(4) 0.5113(4) 0.3571(3)
C22 C 1.0146(4) 0.4051(4) 0.4166(3)
H25 H 1.11920 0.40880 0.42470
H26 H 0.97850 0.33070 0.38570
H27 H 0.99080 0.40840 0.47690
C23 C 0.9871(4) 0.5076(4) 0.2650(3)
H28 H 0.94450 0.58000 0.23050
C24 C 1.1294(4) 0.3630(4) -0.0470(3)
C25 C 1.0761(5) 0.3603(5) -0.1522(4)
H29 H 1.02410 0.43380 -0.17320
H30 H 1.01170 0.29240 -0.17010
H31 H 1.15840 0.35290 -0.18050
C26 C 1.1965(5) 0.2457(5) -0.0103(4)
H32 H 1.26410 0.22020 -0.04680
H33 H 1.12090 0.18590 -0.01460
H34 H 1.24800 0.25520 0.05430
C27 C 1.3660(5) 0.4461(5) -0.0356(4)
H35 H 1.42280 0.39740 0.01410
H36 H 1.41250 0.52340 -0.03630
H37 H 1.35960 0.40620 -0.09480
C28 C 1.1325(4) 0.4871(4) 0.1492(3)
H38 H 1.10490 0.56470 0.11920
H39 H 1.22950 0.46730 0.14080
C29 C 1.1400(4) 0.4993(4) 0.2532(3)
H40 H 1.18650 0.42680 0.28570
C30 C 1.2311(4) 0.6078(4) 0.2905(3)
H41 H 1.17720 0.68010 0.26850
H42 H 1.32030 0.60650 0.26890
H43 H 1.25420 0.60630 0.35800
C31 C 0.7012(4) 0.6087(4) 0.2813(3)
H44 H 0.74790 0.63550 0.23300
H45 H 0.70840 0.67090 0.32810
H46 H 0.59970 0.59170 0.25420
C32 C 0.3323(4) 0.4721(4) 0.6237(3)
H47 H 0.30390 0.39870 0.58910
H48 H 0.28740 0.54000 0.58700
H49 H 0.30070 0.46930 0.68160
C33 C 0.5637(4) 0.3707(4) 0.6910(3)
H50 H 0.51830 0.34980 0.74130
H51 H 0.66700 0.38290 0.71570
H52 H 0.54900 0.30650 0.64560
N1 N 0.6633(3) 0.3255(3) 0.2350(2)
O6 O 0.6826(3) 0.2430(3) 0.1685(2)
H53 H 0.61950 0.18990 0.16300
#END
