
#######################################################################
#
#                 Cambridge Crystallographic Data Centre
#                                CCDC
#
#######################################################################
#
# If this CIF has been generated from an entry in the Cambridge
# Structural Database, then it will include bibliographic, chemical,
# crystal, experimental, refinement or atomic coordinate data resulting
# from the CCDC's data processing and validation procedures.
#
#######################################################################

data_CSD_CIF_NAYPAF
_audit_creation_date 2006-01-31
_audit_creation_method CSD-ConQuest-V1
_database_code_CSD NAYPAF
_database_code_depnum_ccdc_archive 'CCDC 1217651'
_chemical_formula_sum 'C6 H6 N8 O10'
_chemical_formula_moiety
;
C6 H6 N8 O10
;
_journal_coden_Cambridge 82
_journal_volume 46
_journal_year 2005
_journal_page_first 566
_journal_name_full 'Zh.Strukt.Khim.(Russ.)(J.Struct.Chem.) '
loop_
_publ_author_name
"Yu.V.Gatilov"
"T.V.Rybalova"
"O.A.Efimov"
"A.A.Lobanova"
"G.V.Sakovich"
"S.V.Sysolyatin"
_chemical_name_systematic
;
4,6,10,12-Tetranitro-2,8-dioxa-4,6,10,12-tetraazatetracyclo(5.5.0.0^3,11^.0^5,
9^)dodecane
;
_cell_volume   2364.839
_exptl_crystal_density_diffrn 1.967
_exptl_special_details
;
The space group is reported as Pca21 in the deposited cif; we have used Pcab 
as reported in the paper
;
_exptl_crystal_preparation 'dioxane/water'
_diffrn_ambient_temperature 295
#These two values have been output from a single CSD field.
_refine_ls_R_factor_gt 0.0489
_refine_ls_wR_factor_gt 0.0489
_symmetry_cell_setting orthorhombic
_symmetry_space_group_name_H-M 'P c a b'
_symmetry_Int_Tables_number 61
loop_
_symmetry_equiv_pos_site_id
_symmetry_equiv_pos_as_xyz
1 x,y,z
2 -x,1/2-y,1/2+z
3 1/2+x,-y,1/2-z
4 1/2-x,1/2+y,-z
5 -x,-y,-z
6 x,-1/2+y,-1/2-z
7 -1/2-x,y,-1/2+z
8 -1/2+x,-1/2-y,z
_cell_length_a 11.508(2)
_cell_length_b 13.446(2)
_cell_length_c 15.283(3)
_cell_angle_alpha 90
_cell_angle_beta 90
_cell_angle_gamma 90
_cell_formula_units_Z 8
loop_
_atom_type_symbol
_atom_type_radius_bond
C 0.68
H 0.23
N 0.68
O 0.68
loop_
_atom_site_label
_atom_site_type_symbol
_atom_site_fract_x
_atom_site_fract_y
_atom_site_fract_z
C1 C 0.1497(3) 0.3077(3) 0.1525(3)
O1 O 0.2521(2) 0.2527(2) 0.1713(2)
C2 C 0.2193(3) 0.1513(3) 0.1730(3)
N1 N 0.2372(3) 0.1027(2) 0.0889(2)
C3 C 0.1753(3) 0.1465(3) 0.0163(2)
N2 N 0.2067(3) 0.2516(2) 0.0060(2)
C4 C 0.1165(3) 0.3061(3) 0.0526(2)
O2 O 0.0128(2) 0.2518(2) 0.0361(2)
C5 C 0.0433(3) 0.1496(3) 0.0380(2)
N3 N 0.0249(3) 0.1050(2) 0.1233(2)
C6 C 0.0874(3) 0.1512(3) 0.1948(2)
N4 N 0.0593(3) 0.2568(3) 0.2012(2)
N5 N 0.3539(3) 0.0756(2) 0.0701(2)
O3 O 0.4188(2) 0.0659(2) 0.1320(2)
O4 O 0.3771(3) 0.0602(2) -0.0062(2)
N6 N 0.2301(3) 0.2833(3) -0.0807(2)
O5 O 0.2634(3) 0.2202(2) -0.1312(2)
O6 O 0.2245(3) 0.3714(2) -0.0943(2)
N7 N -0.0896(3) 0.0736(2) 0.1418(3)
O7 O -0.1503(3) 0.0551(2) 0.0784(2)
O8 O -0.1160(3) 0.0641(2) 0.2179(2)
N8 N 0.0314(3) 0.2954(4) 0.2852(2)
O9 O -0.0121(3) 0.2363(3) 0.3353(2)
O10 O 0.0460(3) 0.3836(3) 0.2964(2)
H1 H 0.160(3) 0.375(3) 0.171(2)
H2 H 0.264(3) 0.119(2) 0.215(2)
H3 H 0.191(3) 0.110(3) -0.034(2)
H4 H 0.106(3) 0.369(3) 0.033(2)
H5 H -0.005(3) 0.114(3) -0.007(2)
H6 H 0.067(3) 0.117(3) 0.247(3)
#END
