
#######################################################################
#
#                 Cambridge Crystallographic Data Centre
#                                CCDC
#
#######################################################################
#
# If this CIF has been generated from an entry in the Cambridge
# Structural Database, then it will include bibliographic, chemical,
# crystal, experimental, refinement or atomic coordinate data resulting
# from the CCDC's data processing and validation procedures.
#
#######################################################################

data_CSD_CIF_NAYPAH
_audit_creation_date 2017-08-07
_audit_creation_method CSD-ConQuest-V1
_database_code_CSD NAYPAH
_database_code_depnum_ccdc_archive 'CCDC 1520731'
_chemical_formula_sum 'C27 H28 N4 O7'
_chemical_formula_moiety
;
C27 H28 N4 O7
;
_journal_coden_Cambridge 1475
_journal_volume 8
_journal_year 2017
_journal_page_first 6656
_journal_name_full 'Chemical Science '
loop_
_publ_author_name
"Hongze Liao"
"Wei-Lin Leng"
"Kim Le Mai Hoang"
"Hui Yao"
"Jingxi He"
"Amanda Ying Hui Voo"
"Xue-Wei Liu"
_chemical_name_systematic
;
14-(benzyloxy)-9-((2,4-dinitrophenyl)hydrazono)-15-oxatetracyclo[9.3.1.0^2,10^
.0^3,8^]pentadec-12-en-10-ol
;
_cell_volume   2439.068
_exptl_crystal_colour 'yellow'
_exptl_crystal_density_diffrn 1.418
_exptl_special_details
;
Absolute configuration

;
_exptl_crystal_description 'block'
_diffrn_ambient_temperature 103
#These two values have been output from a single CSD field.
_refine_ls_R_factor_gt 0.0471
_refine_ls_wR_factor_gt 0.0471
_symmetry_cell_setting orthorhombic
_symmetry_space_group_name_H-M 'P 21 21 21'
_symmetry_Int_Tables_number 19
loop_
_symmetry_equiv_pos_site_id
_symmetry_equiv_pos_as_xyz
1 x,y,z
2 1/2-x,-y,1/2+z
3 -x,1/2+y,1/2-z
4 1/2+x,1/2-y,-z
_cell_length_a 5.5338(6)
_cell_length_b 16.6117(17)
_cell_length_c 26.533(3)
_cell_angle_alpha 90
_cell_angle_beta 90
_cell_angle_gamma 90
_cell_formula_units_Z 4
loop_
_atom_type_symbol
_atom_type_radius_bond
C 0.68
H 0.23
N 0.68
O 0.68
loop_
_atom_site_label
_atom_site_type_symbol
_atom_site_fract_x
_atom_site_fract_y
_atom_site_fract_z
C1 C 0.2035(6) 0.4681(2) 0.57680(13)
C2 C 0.3432(7) 0.3879(2) 0.56889(14)
H1 H 0.41050 0.36700 0.60130
C3 C 0.1836(7) 0.3267(2) 0.54376(14)
H2 H 0.10480 0.28660 0.56330
C4 C 0.1530(7) 0.3286(2) 0.49413(14)
H3 H 0.05760 0.28820 0.47840
C5 C 0.2655(7) 0.3930(2) 0.46238(13)
H4 H 0.13240 0.42260 0.44480
C6 C 0.4026(7) 0.4540(2) 0.49560(13)
H5 H 0.51650 0.48680 0.47470
C7 C 0.2243(7) 0.5091(2) 0.52424(13)
H6 H 0.06380 0.51030 0.50700
C8 C 0.3153(7) 0.5949(2) 0.53456(13)
H7 H 0.41220 0.61520 0.50540
C9 C 0.1014(7) 0.6504(2) 0.54470(14)
H8 H 0.01460 0.66040 0.51270
H9 H -0.01180 0.62330 0.56800
C10 C 0.1765(8) 0.7309(2) 0.56739(16)
H10 H 0.03200 0.76490 0.57270
H11 H 0.28620 0.75940 0.54390
C11 C 0.3045(8) 0.7168(2) 0.61747(15)
H12 H 0.19340 0.68950 0.64120
H13 H 0.35110 0.76920 0.63240
C12 C 0.5294(8) 0.6652(2) 0.60960(14)
H14 H 0.60130 0.65250 0.64280
H15 H 0.64990 0.69650 0.59010
C13 C 0.4756(7) 0.5867(2) 0.58171(13)
H16 H 0.63340 0.56290 0.57090
C14 C 0.3422(7) 0.5237(2) 0.61186(13)
C15 C 0.4207(8) 0.4037(2) 0.38005(14)
H17 H 0.49000 0.45720 0.38780
H18 H 0.25470 0.41160 0.36710
C16 C 0.5731(7) 0.3623(2) 0.34054(14)
C17 C 0.7854(7) 0.3215(2) 0.35253(15)
H19 H 0.83450 0.31710 0.38670
C18 C 0.9259(8) 0.2873(3) 0.31479(17)
H20 H 1.06830 0.25830 0.32320
C19 C 0.8572(8) 0.2956(3) 0.26457(16)
H21 H 0.95490 0.27330 0.23870
C20 C 0.6473(8) 0.3363(3) 0.25231(15)
H22 H 0.60040 0.34160 0.21800
C21 C 0.5052(8) 0.3693(2) 0.29016(14)
H23 H 0.36040 0.39690 0.28160
C22 C 0.2854(7) 0.4462(2) 0.73306(13)
C23 C 0.1433(7) 0.3954(2) 0.76467(13)
C24 C 0.1966(7) 0.3854(2) 0.81571(14)
H24 H 0.09870 0.35200 0.83640
C25 C 0.3931(8) 0.4247(2) 0.83547(13)
C26 C 0.5401(7) 0.4736(2) 0.80578(14)
H25 H 0.67660 0.49960 0.82010
C27 C 0.4869(7) 0.4840(2) 0.75590(14)
H26 H 0.58790 0.51750 0.73600
N1 N 0.3633(6) 0.52020(19) 0.65989(11)
N2 N 0.2355(6) 0.45917(19) 0.68395(12)
H27 H 0.104(10) 0.434(3) 0.6690(17)
N3 N -0.0665(6) 0.35312(19) 0.74593(11)
N4 N 0.4462(7) 0.4160(2) 0.88891(12)
O1 O 0.5325(5) 0.41099(15) 0.53460(9)
O2 O -0.0342(5) 0.45713(16) 0.59632(9)
H28 H -0.12480 0.43940 0.57350
O3 O 0.4133(5) 0.35622(15) 0.42473(9)
O4 O -0.1192(6) 0.35827(19) 0.70068(10)
O5 O -0.1883(6) 0.31391(17) 0.77583(11)
O6 O 0.3043(6) 0.3781(2) 0.91545(10)
O7 O 0.6299(6) 0.4480(2) 0.90560(11)
#END
