
#######################################################################
#
#                 Cambridge Crystallographic Data Centre
#                                CCDC
#
#######################################################################
#
# If this CIF has been generated from an entry in the Cambridge
# Structural Database, then it will include bibliographic, chemical,
# crystal, experimental, refinement or atomic coordinate data resulting
# from the CCDC's data processing and validation procedures.
#
#######################################################################

data_CSD_CIF_NAYRIR
_audit_creation_date 2017-08-07
_audit_creation_method CSD-ConQuest-V1
_database_code_CSD NAYRIR
_database_code_depnum_ccdc_archive 'CCDC 1007864'
_chemical_formula_sum 'C21 H19 N3 O4'
_chemical_formula_moiety
;
C21 H19 N3 O4
;
_journal_coden_Cambridge 757
_journal_volume 21
_journal_year 2017
_journal_page_first 339
_journal_name_full 'Mol.Diversity '
loop_
_publ_author_name
"B.M.Labana"
"G.C.Brahmbhatt"
"T.R.Sutariya"
"N.J.Parmar"
"J.M.Padron"
"R.Kant"
"V.K.Gupta"
_chemical_name_systematic
;
(5aR,11bS)-1,11b-dimethyl-10-nitro-3-pheny-3,5a,6,11b-tetrahydro-5H-chromeno[4
',3':4,5]pyrano[2,3-c]pyrazole
;
_cell_volume   1839.223
_exptl_crystal_colour 'white'
_exptl_crystal_density_diffrn 1.363
_exptl_crystal_description 'block'
_diffrn_ambient_temperature 293
#These two values have been output from a single CSD field.
_refine_ls_R_factor_gt 0.0484
_refine_ls_wR_factor_gt 0.0484
_symmetry_cell_setting monoclinic
_symmetry_space_group_name_H-M 'P 21/c'
_symmetry_Int_Tables_number 14
loop_
_symmetry_equiv_pos_site_id
_symmetry_equiv_pos_as_xyz
1 x,y,z
2 -x,1/2+y,1/2-z
3 -x,-y,-z
4 x,-1/2-y,-1/2+z
_cell_length_a 14.4663(6)
_cell_length_b 9.5373(5)
_cell_length_c 13.4477(8)
_cell_angle_alpha 90
_cell_angle_beta 97.565(4)
_cell_angle_gamma 90
_cell_formula_units_Z 4
loop_
_atom_type_symbol
_atom_type_radius_bond
C 0.68
H 0.23
N 0.68
O 0.68
loop_
_atom_site_label
_atom_site_type_symbol
_atom_site_fract_x
_atom_site_fract_y
_atom_site_fract_z
C1 C 0.69835(12) 0.10971(17) 0.15891(13)
N1 N 0.76237(10) 0.14104(15) 0.23564(11)
N2 N 0.84607(10) 0.13812(16) 0.19687(10)
C2 C 0.83165(12) 0.10440(18) 0.09857(12)
O1 O 0.90352(8) 0.09637(14) 0.04410(9)
C3 C 0.87524(12) 0.0353(2) -0.05379(13)
H1 H 0.87460 -0.06600 -0.04750
H2 H 0.92070 0.05960 -0.09790
C4 C 0.77941(12) 0.08483(19) -0.10073(12)
H3 H 0.78110 0.18730 -0.10520
C5 C 0.75797(15) 0.0276(2) -0.20620(14)
H4 H 0.70120 0.07080 -0.23870
H5 H 0.80820 0.05280 -0.24400
O2 O 0.74676(11) -0.12163(15) -0.20848(10)
C6 C 0.70667(13) -0.1839(2) -0.13405(14)
C7 C 0.69264(17) -0.3280(2) -0.14521(18)
H6 H 0.70890 -0.37310 -0.20170
C8 C 0.65524(16) -0.4036(2) -0.07391(18)
H7 H 0.64650 -0.49990 -0.08090
C9 C 0.63062(12) -0.33349(19) 0.00893(14)
C10 C 0.64485(11) -0.19080(18) 0.02142(13)
H8 H 0.62820 -0.14670 0.07810
C11 C 0.68364(11) -0.11275(17) -0.04962(12)
C12 C 0.70142(11) 0.04453(17) -0.03692(12)
C13 C 0.73834(11) 0.08239(17) 0.07018(12)
C14 C 0.59782(13) 0.1140(2) 0.17651(15)
H9 H 0.59440 0.13380 0.24590
H10 H 0.56920 0.02500 0.15920
H11 H 0.56580 0.18600 0.13560
C15 C 0.61168(13) 0.1269(2) -0.07316(15)
H12 H 0.56310 0.09860 -0.03520
H13 H 0.59280 0.10810 -0.14300
H14 H 0.62320 0.22550 -0.06380
C16 C 0.94260(16) 0.1204(2) 0.35725(15)
H15 H 0.89560 0.07050 0.38240
C17 C 1.02635(19) 0.1495(3) 0.41750(18)
H16 H 1.03530 0.11870 0.48370
C18 C 1.09588(17) 0.2232(3) 0.3803(2)
H17 H 1.15210 0.23980 0.42060
C19 C 1.08236(16) 0.2720(3) 0.2845(2)
H18 H 1.12900 0.32370 0.26000
C20 C 0.99971(15) 0.2451(2) 0.22322(17)
H19 H 0.99050 0.27930 0.15790
C21 C 0.93114(12) 0.16744(19) 0.25954(14)
N3 N 0.58976(12) -0.41211(18) 0.08538(14)
O3 O 0.55798(12) -0.34716(18) 0.15162(13)
O4 O 0.58949(13) -0.54045(16) 0.08028(13)
#END
