
#######################################################################
#
#                 Cambridge Crystallographic Data Centre
#                                CCDC
#
#######################################################################
#
# If this CIF has been generated from an entry in the Cambridge
# Structural Database, then it will include bibliographic, chemical,
# crystal, experimental, refinement or atomic coordinate data resulting
# from the CCDC's data processing and validation procedures.
#
#######################################################################

data_CSD_CIF_NAYTIR
_audit_creation_date 2006-01-31
_audit_creation_method CSD-ConQuest-V1
_database_code_CSD NAYTIR
_database_code_depnum_ccdc_archive 'CCDC 293827'
_chemical_formula_sum 'C25 H23 N1 O5'
_chemical_formula_moiety
;
C25 H23 N1 O5
;
_journal_coeditor_code "IUCr BH6051"
_journal_coden_Cambridge 1370
_journal_volume 61
_journal_year 2005
_journal_page_first o4289
_journal_name_full 'Acta Crystallogr.,Sect.E:Struct.Rep.Online '
loop_
_publ_author_name
"C.M.L.Vande Velde"
"R.De Borger"
"F.Blockhuys"
_chemical_name_systematic
;
(E,E)-4-(2-(4-Nitrophenyl)ethenyl)-1-(2-(2,4,6-trimethoxyphenyl)ethenyl)benzen
e
;
_chemical_melting_point 451
_cell_volume   2122.292
_exptl_crystal_colour 'red-orange'
_exptl_crystal_density_diffrn 1.306
_exptl_crystal_description 'rhomboid'
_diffrn_ambient_temperature 287
#These two values have been output from a single CSD field.
_refine_ls_R_factor_gt 0.0395
_refine_ls_wR_factor_gt 0.0395
_symmetry_cell_setting monoclinic
_symmetry_space_group_name_H-M 'P 21/c'
_symmetry_Int_Tables_number 14
loop_
_symmetry_equiv_pos_site_id
_symmetry_equiv_pos_as_xyz
1 x,y,z
2 -x,1/2+y,1/2-z
3 -x,-y,-z
4 x,-1/2-y,-1/2+z
_cell_length_a 15.785(5)
_cell_length_b 10.357(2)
_cell_length_c 13.502(1)
_cell_angle_alpha 90
_cell_angle_beta 105.96(2)
_cell_angle_gamma 90
_cell_formula_units_Z 4
loop_
_atom_type_symbol
_atom_type_radius_bond
C 0.68
H 0.23
N 0.68
O 0.68
loop_
_atom_site_label
_atom_site_type_symbol
_atom_site_fract_x
_atom_site_fract_y
_atom_site_fract_z
O1 O 0.31193(9) 0.92938(13) 0.77035(10)
O2 O 0.21210(9) 0.57320(14) 0.55387(11)
O3 O 0.47551(10) 0.80455(17) 0.54253(12)
C1 C 0.26307(12) 0.74666(18) 0.66547(13)
C2 C -0.18582(13) 0.6229(2) 1.09063(15)
C3 C 0.27383(12) 0.66837(19) 0.58474(14)
C4 C 0.06833(12) 0.63745(18) 0.76996(14)
C5 C 0.40338(13) 0.7806(2) 0.57725(15)
C6 C 0.32509(12) 0.84750(19) 0.69592(13)
N1 N -0.37402(14) 0.5676(2) 1.25683(16)
C7 C -0.05229(12) 0.60648(19) 0.89040(15)
C8 C -0.30872(14) 0.5884(2) 1.19953(17)
C9 C 0.12820(13) 0.6498(2) 0.70529(15)
C10 C 0.39434(13) 0.8636(2) 0.65373(15)
C11 C 0.01835(14) 0.6922(2) 0.91974(16)
O4 O -0.42445(12) 0.4753(2) 1.23247(16)
C12 C 0.19698(13) 0.7287(2) 0.72155(15)
C13 C -0.11775(13) 0.5883(2) 0.94735(16)
C14 C 0.34257(13) 0.6847(2) 0.54037(15)
C15 C -0.06000(13) 0.5351(2) 0.80089(16)
C16 C -0.00161(14) 0.5501(2) 0.74276(16)
C17 C -0.17465(15) 0.6787(2) 1.18674(17)
C18 C -0.11897(14) 0.6430(2) 1.03552(16)
C19 C 0.07664(14) 0.7069(2) 0.86104(16)
O5 O -0.37513(14) 0.6428(2) 1.32600(15)
C20 C -0.32233(16) 0.5307(3) 1.10489(19)
C21 C -0.23589(16) 0.6630(2) 1.24115(18)
C22 C -0.26102(15) 0.5491(3) 1.05150(18)
C23 C 0.3666(2) 1.0413(3) 0.7947(2)
C24 C 0.22186(19) 0.4812(3) 0.47907(19)
C25 C 0.4886(2) 0.7279(4) 0.4609(2)
H1 H 0.2061(13) 0.780(2) 0.7816(16)
H2 H 0.3493(13) 0.631(2) 0.4901(16)
H3 H -0.1649(13) 0.529(2) 0.9156(16)
H4 H 0.4374(14) 0.931(2) 0.6744(16)
H5 H -0.0094(13) 0.496(2) 0.6817(16)
H6 H -0.0725(15) 0.702(2) 1.0698(16)
H7 H -0.2269(16) 0.699(2) 1.3036(19)
H8 H -0.1093(14) 0.475(2) 0.7784(16)
H9 H 0.3436(14) 1.095(2) 0.8414(19)
H10 H 0.1151(13) 0.596(2) 0.6478(16)
H11 H 0.4294(17) 1.018(2) 0.8249(18)
H12 H 0.4397(17) 0.742(2) 0.399(2)
H13 H 0.3602(16) 1.097(2) 0.733(2)
H14 H 0.1242(15) 0.763(2) 0.8854(16)
H15 H 0.0284(14) 0.746(2) 0.9807(18)
H16 H -0.2716(16) 0.511(2) 0.986(2)
H17 H 0.2789(16) 0.430(2) 0.5044(18)
H18 H -0.1220(16) 0.728(2) 1.2156(18)
H19 H 0.1716(17) 0.418(3) 0.4716(19)
H20 H 0.5401(18) 0.761(3) 0.4507(19)
H21 H -0.3763(18) 0.482(3) 1.077(2)
H22 H 0.2184(16) 0.524(2) 0.417(2)
H23 H 0.4932(18) 0.630(3) 0.478(2)
#END
