
#######################################################################
#
#                 Cambridge Crystallographic Data Centre
#                                CCDC
#
#######################################################################
#
# If this CIF has been generated from an entry in the Cambridge
# Structural Database, then it will include bibliographic, chemical,
# crystal, experimental, refinement or atomic coordinate data resulting
# from the CCDC's data processing and validation procedures.
#
#######################################################################

data_CSD_CIF_NBCBCO
_audit_creation_date 1980-09-26
_audit_creation_method CSD-ConQuest-V1
_database_code_CSD NBCBCO
_chemical_formula_sum 'C18 H22 N2 O7'
_chemical_formula_moiety
;
C18 H22 N2 O7
;
_journal_coden_Cambridge 35
_journal_volume 45
_journal_year 1980
_journal_page_first 1130
_journal_name_full 'J.Org.Chem. '
loop_
_publ_author_name
"F.A.Bouffard"
"D.B.R.Johnston"
"B.G.Christensen"
_chemical_name_systematic
;
7-(1-(p-Nitrobenzyloxycarbonyl)oxy-ethyl)-8-oxo-2,2-dimethyl-3-oxa-1-azabicycl
o(4.2.0)octane
;
_chemical_melting_point 374.15
_cell_volume   1872.990
_exptl_crystal_density_diffrn 1.34
_exptl_special_details
;
z(H5A) is 0.357 not 0.376

;
_diffrn_ambient_temperature ?
_diffrn_special_details
;
The study was carried out at room temperature,in the range 283-303K

;
#These two values have been output from a single CSD field.
_refine_ls_R_factor_gt 0.06
_refine_ls_wR_factor_gt 0.06
_symmetry_cell_setting monoclinic
_symmetry_space_group_name_H-M 'P 21/c'
_symmetry_Int_Tables_number 14
loop_
_symmetry_equiv_pos_site_id
_symmetry_equiv_pos_as_xyz
1 x,y,z
2 -x,1/2+y,1/2-z
3 -x,-y,-z
4 x,-1/2-y,-1/2+z
_cell_length_a 12.100(4)
_cell_length_b 7.758(2)
_cell_length_c 20.113(3)
_cell_angle_alpha 90
_cell_angle_beta 97.24(2)
_cell_angle_gamma 90
_cell_formula_units_Z 4
loop_
_atom_type_symbol
_atom_type_radius_bond
C 0.68
H 0.23
N 0.68
O 0.68
loop_
_atom_site_label
_atom_site_type_symbol
_atom_site_fract_x
_atom_site_fract_y
_atom_site_fract_z
N1 N -0.19320 0.63410 0.26260
C1 C -0.31290 0.62390 0.24440
O1 O -0.35260 0.49000 0.28600
C2 C -0.29560 0.32880 0.28550
C3 C -0.17290 0.34930 0.31320
C4 C -0.11960 0.48150 0.27000
C5 C -0.02650 0.60390 0.30300
C6 C -0.11820 0.74180 0.29820
C7 C -0.33730 0.58090 0.17080
C8 C -0.36860 0.78960 0.26260
O2 O -0.12340 0.89000 0.31720
C9 C 0.03450 0.55990 0.37130
C10 C 0.11470 0.41180 0.36790
O3 O 0.10050 0.71550 0.39110
C11 C 0.11030 0.75400 0.45530
O4 O 0.07240 0.67660 0.49750
O5 O 0.17390 0.89400 0.46500
C12 C 0.18940 0.95150 0.53450
C13 C 0.27090 1.09630 0.54030
C14 C 0.23530 1.26720 0.53970
C15 C 0.31110 1.39560 0.55210
C16 C 0.42070 1.35830 0.56480
N2 N 0.50410 1.50010 0.58260
O6 O 0.46640 1.64460 0.57860
O7 O 0.59770 1.46020 0.59950
C17 C 0.45940 1.19450 0.56420
C18 C 0.38310 1.06400 0.55150
H1 H -0.02300 0.54500 0.41000
H2 H -0.29700 0.29100 0.23500
H3 H -0.34600 0.24700 0.32100
H4 H -0.13600 0.25500 0.30800
H5 H -0.10400 0.43500 0.22500
H6 H 0.02700 0.62500 0.27100
H7 H -0.31200 0.68000 0.14500
H8 H -0.28700 0.47200 0.15800
H9 H -0.41000 0.55900 0.16400
H10 H -0.35100 0.82500 0.31800
H11 H -0.35800 0.88300 0.22600
H12 H -0.44500 0.77100 0.25600
H13 H 0.17700 0.42500 0.32300
H14 H 0.16100 0.39300 0.41000
H15 H 0.07800 0.32400 0.35400
H16 H 0.17800 0.85800 0.56200
H17 H 0.10600 0.98700 0.54000
H18 H 0.14400 1.29900 0.53200
H19 H 0.29300 1.51500 0.55700
H20 H 0.53300 1.17700 0.57500
H21 H 0.40800 0.97100 0.55500
H22 H -0.17000 0.39700 0.35600
#END
