
#######################################################################
#
#                 Cambridge Crystallographic Data Centre
#                                CCDC
#
#######################################################################
#
# If this CIF has been generated from an entry in the Cambridge
# Structural Database, then it will include bibliographic, chemical,
# crystal, experimental, refinement or atomic coordinate data resulting
# from the CCDC's data processing and validation procedures.
#
#######################################################################

data_CSD_CIF_NBEPXP10
_audit_creation_date 1980-05-21
_audit_creation_method CSD-ConQuest-V1
_database_code_CSD NBEPXP10
_chemical_formula_sum 'C22 H15 N1 O6'
_chemical_formula_moiety
;
C22 H15 N1 O6
;
_journal_coden_Cambridge 188
_journal_year 1979
_journal_page_first 1703
_journal_name_full 'J.Chem.Soc.,Perkin Trans.2 '
loop_
_publ_author_name
"D.F.Mullica"
"J.D.Korp"
"W.O.Milligan"
"J.S.Belew"
"J.L.McAtee Junior"
"J.Karban"
_chemical_name_systematic
;
1,4-Epoxy-4-(4-nitrophenylmethyl)-1-phenyl-1H-2,3-benzodioxepin-5(4H)-one
;
_cell_volume   1876.502
_exptl_crystal_colour 'colorless'
_exptl_crystal_density_diffrn 1.376
_diffrn_ambient_temperature ?
_diffrn_special_details
;
The study was carried out at room temperature,in the range 283-303K

;
#These two values have been output from a single CSD field.
_refine_ls_R_factor_gt 0.047
_refine_ls_wR_factor_gt 0.047
_symmetry_cell_setting monoclinic
_symmetry_space_group_name_H-M 'P 21/c'
_symmetry_Int_Tables_number 14
loop_
_symmetry_equiv_pos_site_id
_symmetry_equiv_pos_as_xyz
1 x,y,z
2 -x,1/2+y,1/2-z
3 -x,-y,-z
4 x,-1/2-y,-1/2+z
_cell_length_a 8.205(9)
_cell_length_b 14.585(7)
_cell_length_c 15.925(5)
_cell_angle_alpha 90
_cell_angle_beta 100.05(8)
_cell_angle_gamma 90
_cell_formula_units_Z 4
loop_
_atom_type_symbol
_atom_type_radius_bond
C 0.68
H 0.23
N 0.68
O 0.68
loop_
_atom_site_label
_atom_site_type_symbol
_atom_site_fract_x
_atom_site_fract_y
_atom_site_fract_z
O1 O 0.13230 0.79740 0.22660
O2 O -0.15790 0.97540 0.22990
O3 O -0.24730 0.83770 0.17560
O4 O -0.34230 0.86380 0.24110
O5 O 0.61930 1.12450 0.08090
O6 O 0.47120 1.23990 0.10130
N1 N 0.49190 1.15830 0.09600
C1 C 0.02960 0.84450 0.25490
C2 C -0.10230 0.89870 0.18910
C3 C -0.24870 0.93710 0.29080
C4 C -0.12980 0.89750 0.36600
C5 C -0.15040 0.90290 0.44900
C6 C -0.03680 0.86440 0.51220
C7 C 0.10030 0.82090 0.49500
C8 C 0.12720 0.81320 0.41150
C9 C 0.01070 0.85160 0.34570
C10 C -0.37190 1.00610 0.31150
C11 C -0.51380 0.97200 0.33850
C12 C -0.62720 1.03570 0.35750
C13 C -0.60090 1.12950 0.35270
C14 C -0.46050 1.16300 0.32450
C15 C -0.34680 1.09900 0.30470
C16 C -0.06180 0.92010 0.10270
C17 C 0.08750 0.98530 0.10770
C18 C 0.24270 0.94660 0.09800
C19 C 0.37580 1.00450 0.09600
C20 C 0.35360 1.09680 0.10310
C21 C 0.20330 1.13500 0.11480
C22 C 0.07390 1.07700 0.11820
H1 H 0.25100 0.87900 0.08300
H2 H 0.48600 0.98300 0.08000
H3 H 0.19330 1.20150 0.13250
H4 H -0.04000 1.10200 0.12500
H5 H -0.03380 0.85900 0.06970
H6 H -0.16450 0.95250 0.06530
H7 H -0.53060 0.90340 0.34530
H8 H -0.73200 1.01150 0.37530
H9 H -0.69400 1.17500 0.36000
H10 H -0.44650 1.23200 0.31700
H11 H -0.23700 1.12150 0.28800
H12 H -0.25200 0.93200 0.46400
H13 H -0.05800 0.86730 0.57300
H14 H 0.16460 0.78000 0.54000
H15 H 0.21200 0.76800 0.39600
#END
