
#######################################################################
#
#                 Cambridge Crystallographic Data Centre
#                                CCDC
#
#######################################################################
#
# If this CIF has been generated from an entry in the Cambridge
# Structural Database, then it will include bibliographic, chemical,
# crystal, experimental, refinement or atomic coordinate data resulting
# from the CCDC's data processing and validation procedures.
#
#######################################################################

data_CSD_CIF_NBFURX
_audit_creation_date 1979-11-16
_audit_creation_method CSD-ConQuest-V1
_database_code_CSD NBFURX
_database_code_depnum_ccdc_archive 'CCDC 1217833'
_chemical_formula_sum 'C8 H4 N2 O5'
_chemical_formula_moiety
;
C8 H4 N2 O5
;
_journal_coden_Cambridge 24
_journal_volume 20
_journal_year 1979
_journal_page_first 2221
_journal_name_full 'Tetrahedron Lett. '
loop_
_publ_author_name
"W.V.Curran"
"F.M.Lovell"
"N.A.Perkinson"
_chemical_name_systematic
;
5-Nitro-2,3-benzofurandione-Z-2-oxime
;
_cell_volume    819.182
_exptl_crystal_density_diffrn 1.686
_diffrn_ambient_temperature ?
_diffrn_special_details
;
The study was carried out at room temperature,in the range 283-303K

;
#These two values have been output from a single CSD field.
_refine_ls_R_factor_gt 0.046
_refine_ls_wR_factor_gt 0.046
_symmetry_cell_setting monoclinic
_symmetry_space_group_name_H-M 'P 21/c'
_symmetry_Int_Tables_number 14
loop_
_symmetry_equiv_pos_site_id
_symmetry_equiv_pos_as_xyz
1 x,y,z
2 -x,1/2+y,1/2-z
3 -x,-y,-z
4 x,-1/2-y,-1/2+z
_cell_length_a 8.241(9)
_cell_length_b 6.422(9)
_cell_length_c 15.484(16)
_cell_angle_alpha 90
_cell_angle_beta 91.52(7)
_cell_angle_gamma 90
_cell_formula_units_Z 4
loop_
_atom_type_symbol
_atom_type_radius_bond
C 0.68
H 0.23
N 0.68
O 0.68
loop_
_atom_site_label
_atom_site_type_symbol
_atom_site_fract_x
_atom_site_fract_y
_atom_site_fract_z
N1 N 0.12364 0.72481 0.79583
C1 C 0.45427 0.72346 0.64160
C2 C 0.37760 0.71369 0.71991
C3 C 0.20143 0.76809 0.56026
O1 O -0.01518 0.79347 0.79474
C4 C 0.36680 0.75038 0.56551
N2 N 0.74411 0.72883 0.47670
O2 O 0.74019 0.66329 0.66567
O3 O 0.46349 0.75532 0.49320
C5 C 0.62434 0.70209 0.61983
C6 C 0.12424 0.76055 0.63865
O4 O 0.19029 0.64904 0.85911
C7 C 0.21230 0.73499 0.71513
C8 C 0.62077 0.73033 0.52394
O5 O 0.70038 0.75455 0.38956
H1 H 0.13705 0.77828 0.50499
H2 H 0.00824 0.77325 0.63749
H3 H 0.43597 0.70253 0.77500
H4 H 0.77942 0.74973 0.36239
#END
