
#######################################################################
#
#                 Cambridge Crystallographic Data Centre
#                                CCDC
#
#######################################################################
#
# If this CIF has been generated from an entry in the Cambridge
# Structural Database, then it will include bibliographic, chemical,
# crystal, experimental, refinement or atomic coordinate data resulting
# from the CCDC's data processing and validation procedures.
#
#######################################################################

data_CSD_CIF_NBPHEN
_audit_creation_date 1973-06-11
_audit_creation_method CSD-ConQuest-V1
_database_code_CSD NBPHEN
_chemical_formula_sum 'C12 H9 N1 O2'
_chemical_formula_moiety
;
C12 H9 N1 O2
;
_journal_coden_Cambridge 188
_journal_year 1973
_journal_page_first 342
_journal_name_full 'J.Chem.Soc.,Perkin Trans.2 '
loop_
_publ_author_name
"G.Casalone"
"A.Gavezzotti"
"M.Simonetta"
_chemical_name_systematic
;
p-Nitrobiphenyl
;
_chemical_melting_point 387.15
_cell_volume   1997.178
_exptl_crystal_density_diffrn 1.325
_diffrn_ambient_temperature ?
_diffrn_special_details
;
The study was carried out at room temperature,in the range 283-303K

;
#These two values have been output from a single CSD field.
_refine_ls_R_factor_gt 0.067
_refine_ls_wR_factor_gt 0.067
_symmetry_cell_setting orthorhombic
_symmetry_space_group_name_H-M 'P b c a'
_symmetry_Int_Tables_number 61
loop_
_symmetry_equiv_pos_site_id
_symmetry_equiv_pos_as_xyz
1 x,y,z
2 1/2-x,1/2+y,z
3 x,1/2-y,1/2+z
4 1/2-x,-y,1/2+z
5 -x,-y,-z
6 -1/2+x,-1/2-y,-z
7 -x,-1/2+y,-1/2-z
8 -1/2+x,y,-1/2-z
_cell_length_a 23.210(4)
_cell_length_b 11.370(1)
_cell_length_c 7.568(2)
_cell_angle_alpha 90
_cell_angle_beta 90
_cell_angle_gamma 90
_cell_formula_units_Z 8
loop_
_atom_type_symbol
_atom_type_radius_bond
C 0.68
H 0.20
N 0.68
O 0.68
loop_
_atom_site_label
_atom_site_type_symbol
_atom_site_fract_x
_atom_site_fract_y
_atom_site_fract_z
C1 C -0.79340 0.40890 0.17370
C2 C -0.51540 0.24880 -0.10560
C3 C -0.52990 0.36650 -0.09900
C4 C -0.58380 0.39740 -0.04020
C5 C -0.78460 0.30490 0.08370
C6 C -0.72950 0.27270 0.03220
C7 C -0.68220 0.34530 0.06900
C8 C -0.69240 0.45080 0.15840
C9 C -0.74760 0.48190 0.21090
C10 C -0.62360 0.31240 0.01050
C11 C -0.60750 0.19380 0.00130
C12 C -0.55330 0.16170 -0.05650
H1 H -0.83000 0.43000 0.20400
H2 H -0.81600 0.25200 0.06100
H3 H -0.72400 0.20200 -0.02800
H4 H -0.65900 0.50100 0.19000
H5 H -0.75400 0.55200 0.28200
H6 H -0.63700 0.13000 0.02200
H7 H -0.54100 0.07700 -0.05400
H8 H -0.50500 0.42200 -0.14100
H9 H -0.59500 0.48000 -0.03700
N1 N -0.45830 0.21610 -0.17190
O1 O -0.44540 0.11270 -0.17620
O2 O -0.42560 0.29370 -0.21940
#END
