
#######################################################################
#
#                 Cambridge Crystallographic Data Centre
#                                CCDC
#
#######################################################################
#
# If this CIF has been generated from an entry in the Cambridge
# Structural Database, then it will include bibliographic, chemical,
# crystal, experimental, refinement or atomic coordinate data resulting
# from the CCDC's data processing and validation procedures.
#
#######################################################################

data_CSD_CIF_NBZOAC11
_audit_creation_date 2011-02-04
_audit_creation_method CSD-ConQuest-V1
_database_code_CSD NBZOAC11
_database_code_depnum_ccdc_archive 'CCDC 751113'
_chemical_formula_sum 'C7 H5 N1 O4'
_chemical_formula_moiety
;
C7 H5 N1 O4
;
_journal_coden_Cambridge 1078
_journal_year 2009
_journal_name_full 'CSD Communication(Private Communication) '
loop_
_publ_author_name
"M.Bolte"
_chemical_name_systematic
;
4-Nitrobenzoic acid
;
_cell_volume    690.379
_exptl_crystal_colour 'colorless'
_exptl_crystal_density_diffrn 1.608
_exptl_special_details
;
polymorph II
contribution from Institut fur Anorganische Chemie, J.W.Goethe-Universitat, 
Max-von-Laue-Str. 7, 60438 Frankfurt/Main, Germany
;
_exptl_crystal_description 'plate'
_diffrn_ambient_temperature 173
#These two values have been output from a single CSD field.
_refine_ls_R_factor_gt 0.0511
_refine_ls_wR_factor_gt 0.0511
_symmetry_cell_setting monoclinic
_symmetry_space_group_name_H-M 'P 21/n'
_symmetry_Int_Tables_number 14
loop_
_symmetry_equiv_pos_site_id
_symmetry_equiv_pos_as_xyz
1 x,y,z
2 1/2-x,1/2+y,1/2-z
3 -x,-y,-z
4 -1/2+x,-1/2-y,-1/2+z
_cell_length_a 5.4273(11)
_cell_length_b 5.1870(7)
_cell_length_c 24.662(5)
_cell_angle_alpha 90
_cell_angle_beta 96.069(16)
_cell_angle_gamma 90
_cell_formula_units_Z 4
loop_
_atom_type_symbol
_atom_type_radius_bond
C 0.68
H 0.23
N 0.68
O 0.68
loop_
_atom_site_label
_atom_site_type_symbol
_atom_site_fract_x
_atom_site_fract_y
_atom_site_fract_z
C1 C 0.4154(3) 0.4815(3) 0.09021(7)
N1 N 0.2855(3) 1.0757(3) 0.20066(6)
O1 O 0.6586(2) 0.1435(3) 0.05888(6)
H1 H 0.682(5) 0.010(7) 0.0291(15)
O2 O 0.2992(2) 0.2371(3) 0.01023(5)
O3 O 0.0790(3) 1.1727(3) 0.19636(6)
O4 O 0.4560(2) 1.1429(3) 0.23408(6)
C2 C 0.5879(3) 0.5254(4) 0.13534(7)
H2 H 0.73330 0.42270 0.14090
C3 C 0.5469(3) 0.7204(4) 0.17233(7)
H3 H 0.66220 0.75260 0.20330
C4 C 0.3325(3) 0.8652(3) 0.16241(7)
C5 C 0.1579(3) 0.8248(4) 0.11832(8)
H4 H 0.01180 0.92660 0.11330
C6 C 0.2013(3) 0.6313(4) 0.08154(7)
H5 H 0.08540 0.60110 0.05050
C7 C 0.4568(3) 0.2757(3) 0.04997(7)
#END
