
#######################################################################
#
#                 Cambridge Crystallographic Data Centre
#                                CCDC
#
#######################################################################
#
# If this CIF has been generated from an entry in the Cambridge
# Structural Database, then it will include bibliographic, chemical,
# crystal, experimental, refinement or atomic coordinate data resulting
# from the CCDC's data processing and validation procedures.
#
#######################################################################

data_CSD_CIF_NBZOAO
_audit_creation_date 1971-12-31
_audit_creation_method CSD-ConQuest-V1
_database_code_CSD NBZOAO
_database_code_depnum_ccdc_archive 'CCDC 1217897'
_chemical_formula_sum 'C7 H5 N1 O4'
_chemical_formula_moiety
;
C7 H5 N1 O4
;
_journal_coeditor_code "IUCr A05537"
_journal_coden_Cambridge 1
_journal_volume 22
_journal_year 1967
_journal_page_first 720
_journal_name_full 'Acta Crystallogr. '
loop_
_publ_author_name
"T.D.Sakore"
"S.S.Tavale"
"L.M.Pant"
_chemical_name_systematic
;
2-Nitrobenzoic acid
;
_chemical_name_common
;
o-Nitrobenzoic acid
;
_cell_volume    354.202
_exptl_crystal_density_diffrn 1.568
_exptl_special_details
;
alpha polymorph

;
_diffrn_ambient_temperature ?
_diffrn_special_details
;
The study was carried out at room temperature,in the range 283-303K

;
#These two values have been output from a single CSD field.
_refine_ls_R_factor_gt 0.142
_refine_ls_wR_factor_gt 0.142
_symmetry_cell_setting triclinic
_symmetry_space_group_name_H-M 'P -1'
_symmetry_Int_Tables_number 2
loop_
_symmetry_equiv_pos_site_id
_symmetry_equiv_pos_as_xyz
1 x,y,z
2 -x,-y,-z
_cell_length_a 7.55
_cell_length_b 4.99
_cell_length_c 12.5
_cell_angle_alpha 122.5
_cell_angle_beta 95.3
_cell_angle_gamma 108.9
_cell_formula_units_Z 2
loop_
_atom_type_symbol
_atom_type_radius_bond
C 0.68
N 0.68
O 0.68
loop_
_atom_site_label
_atom_site_type_symbol
_atom_site_fract_x
_atom_site_fract_y
_atom_site_fract_z
C1 C -0.28120 -0.06280 0.19280
C2 C -0.23080 -0.09720 0.29310
C3 C -0.36390 -0.19130 0.35210
C4 C -0.55330 -0.23270 0.31300
C5 C -0.61180 -0.19280 0.21810
C6 C -0.47580 -0.10730 0.15680
C7 C -0.15530 -0.02340 0.11250
N1 N -0.02430 -0.01580 0.34700
O1 O -0.01870 -0.10660 0.10470
O2 O -0.19840 0.09520 0.04860
O3 O 0.10890 0.27590 0.39090
O4 O 0.00450 -0.23550 0.35020
#END
