
#######################################################################
#
#                 Cambridge Crystallographic Data Centre
#                                CCDC
#
#######################################################################
#
# If this CIF has been generated from an entry in the Cambridge
# Structural Database, then it will include bibliographic, chemical,
# crystal, experimental, refinement or atomic coordinate data resulting
# from the CCDC's data processing and validation procedures.
#
#######################################################################

data_CSD_CIF_NBZOAO04
_audit_creation_date 2011-02-21
_audit_creation_method CSD-ConQuest-V1
_database_code_CSD NBZOAO04
_database_code_depnum_ccdc_archive 'CCDC 735727'
_chemical_formula_sum 'C7 H5 N1 O4'
_chemical_formula_moiety
;
C7 H5 N1 O4
;
_journal_coden_Cambridge 1078
_journal_year 2009
_journal_name_full 'CSD Communication(Private Communication) '
loop_
_publ_author_name
"R.A.Smith"
"J.M.Rimoldi"
"F.R.Fronczek"
_chemical_name_systematic
;
2-Nitrobenzoic acid
;
_chemical_name_common
;
o-Nitrobenzoic acid
;
_cell_volume    339.382
_exptl_crystal_colour 'colorless'
_exptl_crystal_density_diffrn 1.635
_exptl_special_details
;
alpha polymorph
contribution from Department of Chemistry, Louisiana State University, Baton 
Rouge, LA 70803-1804, USA
;
_exptl_crystal_description 'parallelepiped'
_diffrn_ambient_temperature 90
#These two values have been output from a single CSD field.
_refine_ls_R_factor_gt 0.028
_refine_ls_wR_factor_gt 0.028
_symmetry_cell_setting triclinic
_symmetry_space_group_name_H-M 'P -1'
_symmetry_Int_Tables_number 2
loop_
_symmetry_equiv_pos_site_id
_symmetry_equiv_pos_as_xyz
1 x,y,z
2 -x,-y,-z
_cell_length_a 4.9576(5)
_cell_length_b 7.4859(10)
_cell_length_c 10.398(2)
_cell_angle_alpha 68.919(5)
_cell_angle_beta 86.622(9)
_cell_angle_gamma 70.853(5)
_cell_formula_units_Z 2
loop_
_atom_type_symbol
_atom_type_radius_bond
C 0.68
H 0.23
N 0.68
O 0.68
loop_
_atom_site_label
_atom_site_type_symbol
_atom_site_fract_x
_atom_site_fract_y
_atom_site_fract_z
O1 O 0.69324(19) 0.12322(13) 0.39409(9)
O2 O 0.24504(19) 0.25638(14) 0.44664(10)
H1 H 0.266(4) 0.128(3) 0.4982(19)
O3 O 0.7231(2) 0.29013(14) 0.10319(10)
O4 O 1.09921(19) 0.35208(14) 0.14549(9)
N1 N 0.8422(2) 0.37656(16) 0.14893(11)
C1 C 0.4716(3) 0.48159(19) 0.30533(13)
C2 C 0.6641(3) 0.52851(19) 0.20513(13)
C3 C 0.6877(3) 0.7193(2) 0.14826(13)
H2 H 0.820(3) 0.743(2) 0.0812(17)
C4 C 0.5054(3) 0.8739(2) 0.18772(14)
H3 H 0.524(3) 1.005(3) 0.1496(17)
C5 C 0.3036(3) 0.8345(2) 0.28243(13)
H4 H 0.174(4) 0.938(3) 0.3072(17)
C6 C 0.2895(3) 0.6395(2) 0.34204(13)
H5 H 0.159(3) 0.611(2) 0.4095(17)
C7 C 0.4800(3) 0.26984(19) 0.38387(12)
#END
