
#######################################################################
#
#                 Cambridge Crystallographic Data Centre
#                                CCDC
#
#######################################################################
#
# If this CIF has been generated from an entry in the Cambridge
# Structural Database, then it will include bibliographic, chemical,
# crystal, experimental, refinement or atomic coordinate data resulting
# from the CCDC's data processing and validation procedures.
#
#######################################################################

data_CSD_CIF_NBZOAC05
_audit_creation_date 1994-02-15
_audit_creation_method CSD-ConQuest-V1
_database_code_CSD NBZOAC05
_database_code_depnum_ccdc_archive 'CCDC 1217894'
_chemical_formula_sum 'C7 H5 N1 O4'
_chemical_formula_moiety
;
C7 H5 N1 O4
;
_journal_coeditor_code "IUCr AS0633"
_journal_coden_Cambridge 622
_journal_volume 49
_journal_year 1993
_journal_page_first 1031
_journal_name_full 'Acta Crystallogr.,Sect.B:Struct.Sci. '
loop_
_publ_author_name
"M.Tonogaki"
"T.Kawata"
"S.Ohba"
"Y.Iwata"
"I.Shibuya"
_chemical_name_systematic
;
4-Nitrobenzoic acid
;
_cell_volume   1367.503
_exptl_special_details
;
polymorph I
Authors indicate H-bonding for this structure

;
_diffrn_ambient_temperature 120
_diffrn_radiation_probe 'neutron radiation'
_refine_special_details
;
The H1 atom has positional disorder.

;
#These two values have been output from a single CSD field.
_refine_ls_R_factor_gt 0.071
_refine_ls_wR_factor_gt 0.071
_symmetry_cell_setting monoclinic
_symmetry_space_group_name_H-M 'A 2/a'
_symmetry_Int_Tables_number 15
loop_
_symmetry_equiv_pos_site_id
_symmetry_equiv_pos_as_xyz
1 x,y,z
2 x,1/2+y,1/2+z
3 1/2-x,y,-z
4 1/2-x,1/2+y,1/2-z
5 -x,-y,-z
6 -x,-1/2-y,-1/2-z
7 -1/2+x,-y,z
8 -1/2+x,-1/2-y,-1/2+z
_cell_length_a 12.918(2)
_cell_length_b 5.0042(2)
_cell_length_c 21.298(6)
_cell_angle_alpha 90
_cell_angle_beta 96.66(2)
_cell_angle_gamma 90
_cell_formula_units_Z 8
loop_
_atom_type_symbol
_atom_type_radius_bond
C 0.68
H 0.23
N 0.68
O 0.68
loop_
_atom_site_label
_atom_site_type_symbol
_atom_site_fract_x
_atom_site_fract_y
_atom_site_fract_z
O1 O 0.5450(4) 0.246(2) 0.0470(2)
O2 O 0.3770(3) 0.149(2) 0.0139(3)
O3 O 0.3827(4) 1.189(2) 0.25283
O4 O 0.2275(4) 1.178(2) 0.1998(3)
N1 N 0.3181(2) 1.100(1) 0.2099(2)
C1 C 0.4157(3) 0.504(2) 0.0903(2)
C2 C 0.4905(3) 0.647(2) 0.1293(2)
C3 C 0.4588(3) 0.8447(2) 0.1695(2)
C4 C 0.3528(3) 0.891(2) 0.1683(2)
C5 C 0.2759(3) 0.749(2) 0.1288(2)
C6 C 0.3084(3) 0.551(2) 0.0898(2)
C7 C 0.4528(3) 0.285(2) 0.0487(2)
H1 H 0.4076(7) 0.011(4) -0.0093(5)
H2 H 0.5730(7) 0.600(4) 0.1282(5)
H3 H 0.5155(7) 0.959(4) 0.2000(5)
H4 H 0.1941(7) 0.798(4) 0.1306(5)
H5 H 0.2500(7) 0.443(4) 0.0596(5)
#END
