
#######################################################################
#
#                 Cambridge Crystallographic Data Centre
#                                CCDC
#
#######################################################################
#
# If this CIF has been generated from an entry in the Cambridge
# Structural Database, then it will include bibliographic, chemical,
# crystal, experimental, refinement or atomic coordinate data resulting
# from the CCDC's data processing and validation procedures.
#
#######################################################################

data_CSD_CIF_NBZOAC16
_audit_creation_date 2017-12-19
_audit_creation_method CSD-ConQuest-V1
_database_code_CSD NBZOAC16
_database_code_depnum_ccdc_archive 'CCDC 1812468'
_chemical_formula_sum 'C7 H5 N1 O4'
_chemical_formula_moiety
;
C7 H5 N1 O4
;
_journal_coden_Cambridge 1078
_journal_year 2017
_journal_name_full 'CSD Communication(Private Communication) '
loop_
_publ_author_name
"N.Trapp"
"S.Basler"
_chemical_name_systematic
;
4-nitrobenzoic acid
;
_cell_volume    679.215
_exptl_crystal_colour 'yellow'
_exptl_crystal_density_diffrn 1.634
_exptl_crystal_description 'plate'
_exptl_crystal_preparation 'ethyl acetate/hexane'
_diffrn_ambient_temperature 100
#These two values have been output from a single CSD field.
_refine_ls_R_factor_gt 0.0315
_refine_ls_wR_factor_gt 0.0315
_symmetry_cell_setting monoclinic
_symmetry_space_group_name_H-M 'P 21/n'
_symmetry_Int_Tables_number 14
loop_
_symmetry_equiv_pos_site_id
_symmetry_equiv_pos_as_xyz
1 x,y,z
2 1/2-x,1/2+y,1/2-z
3 -x,-y,-z
4 -1/2+x,-1/2-y,-1/2+z
_cell_length_a 5.39309(4)
_cell_length_b 5.13628(4)
_cell_length_c 24.63760(18)
_cell_angle_alpha 90
_cell_angle_beta 95.5997(7)
_cell_angle_gamma 90
_cell_formula_units_Z 4
loop_
_atom_type_symbol
_atom_type_radius_bond
C 0.68
H 0.23
N 0.68
O 0.68
loop_
_atom_site_label
_atom_site_type_symbol
_atom_site_fract_x
_atom_site_fract_y
_atom_site_fract_z
O1 O 0.66149(14) 0.14520(16) 0.55918(3)
H1 H 0.674(3) 0.022(3) 0.5325(5)
O2 O 0.30142(14) 0.23886(16) 0.51014(3)
O3 O 0.45617(15) 1.15141(16) 0.73414(3)
O4 O 0.07622(15) 1.18074(17) 0.69689(3)
N1 N 0.28481(16) 1.08358(17) 0.70086(3)
C1 C 0.33229(18) 0.8719(2) 0.66266(4)
C2 C 0.41638(17) 0.48590(19) 0.59013(4)
C3 C 0.15699(19) 0.8320(2) 0.61844(4)
H2 H 0.01060 0.93550 0.61350
C4 C 0.45693(18) 0.2781(2) 0.54980(4)
C5 C 0.54748(18) 0.7253(2) 0.67222(4)
H3 H 0.66350 0.75790 0.70300
C6 C 0.58849(18) 0.5289(2) 0.63535(4)
H4 H 0.73370 0.42380 0.64090
C7 C 0.20079(19) 0.6369(2) 0.58165(4)
H5 H 0.08460 0.60620 0.55080
#END
