
#######################################################################
#
#                 Cambridge Crystallographic Data Centre
#                                CCDC
#
#######################################################################
#
# If this CIF has been generated from an entry in the Cambridge
# Structural Database, then it will include bibliographic, chemical,
# crystal, experimental, refinement or atomic coordinate data resulting
# from the CCDC's data processing and validation procedures.
#
#######################################################################

data_CSD_CIF_NBZOAC15
_audit_creation_date 2016-08-15
_audit_creation_method CSD-ConQuest-V1
_database_code_CSD NBZOAC15
_database_code_depnum_ccdc_archive 'CCDC 1499185'
_chemical_formula_sum 'C7 H5 N1 O4'
_chemical_formula_moiety
;
C7 H5 N1 O4
;
_journal_coden_Cambridge 1078
_journal_year 2016
_journal_name_full 'CSD Communication(Private Communication) '
loop_
_publ_author_name
"Qingming Wang"
_chemical_name_systematic
;
4-nitrobenzoic acid
;
_cell_volume   1378.721
_exptl_special_details
;
polymorph I

;
_diffrn_ambient_temperature 296
#These two values have been output from a single CSD field.
_refine_ls_R_factor_gt 0.0538
_refine_ls_wR_factor_gt 0.0538
_symmetry_cell_setting monoclinic
_symmetry_space_group_name_H-M 'C 2/c'
_symmetry_Int_Tables_number 15
loop_
_symmetry_equiv_pos_site_id
_symmetry_equiv_pos_as_xyz
1 x,y,z
2 -x,y,1/2-z
3 1/2+x,1/2+y,z
4 1/2-x,1/2+y,1/2-z
5 -x,-y,-z
6 x,-y,-1/2+z
7 -1/2-x,-1/2-y,-z
8 -1/2+x,-1/2-y,-1/2+z
_cell_length_a 21.3174(10)
_cell_length_b 5.0391(3)
_cell_length_c 12.9210(7)
_cell_angle_alpha 90
_cell_angle_beta 96.622(3)
_cell_angle_gamma 90
_cell_formula_units_Z 8
loop_
_atom_type_symbol
_atom_type_radius_bond
C 0.68
H 0.23
N 0.68
O 0.68
loop_
_atom_site_label
_atom_site_type_symbol
_atom_site_fract_x
_atom_site_fract_y
_atom_site_fract_z
C1 C 0.09006(6) 1.0010(3) 0.91636(10)
C2 C 0.16872(7) 0.6633(3) 0.95869(12)
H1 H 0.19550 0.56800 1.00710
C3 C 0.12830(7) 0.7504(3) 0.77819(11)
H2 H 0.12820 0.71090 0.70790
C4 C 0.16690(6) 0.6145(3) 0.85302(11)
C5 C 0.12929(7) 0.8594(3) 0.99007(11)
H3 H 0.12910 0.89610 1.06060
O1 O 0.04853(6) 1.2594(2) 1.04619(8)
O2 O 0.01506(6) 1.3419(2) 0.87919(9)
H4 H -0.00570 1.45580 0.90510
C6 C 0.04914(6) 1.2131(3) 0.95269(11)
C7 C 0.08953(7) 0.9474(3) 0.81037(11)
O3 O 0.19840(6) 0.3278(3) 0.72854(10)
N1 N 0.20840(6) 0.4047(3) 0.81858(11)
O4 O 0.25045(7) 0.3209(3) 0.88211(11)
H5 H 0.0608(10) 1.043(5) 0.7593(17)
#END
