
#######################################################################
#
#                 Cambridge Crystallographic Data Centre
#                                CCDC
#
#######################################################################
#
# If this CIF has been generated from an entry in the Cambridge
# Structural Database, then it will include bibliographic, chemical,
# crystal, experimental, refinement or atomic coordinate data resulting
# from the CCDC's data processing and validation procedures.
#
#######################################################################

data_CSD_CIF_NBZOAC02
_audit_creation_date 1980-12-11
_audit_creation_method CSD-ConQuest-V1
_database_code_CSD NBZOAC02
_database_code_depnum_ccdc_archive 'CCDC 1217891'
_chemical_formula_sum 'C7 H5 N1 O4'
_chemical_formula_moiety
;
C7 H5 N1 O4
;
_journal_coden_Cambridge 3
_journal_volume 34
_journal_year 1980
_journal_page_first 229
_journal_name_full 'Acta Chem.Scand. '
loop_
_publ_author_name
"P.Groth"
_chemical_name_systematic
;
p-Nitrobenzoic acid
;
_cell_volume    682.502
_exptl_crystal_colour 'colorless'
_exptl_crystal_density_diffrn 1.62
_exptl_special_details
;
polymorph II

;
_diffrn_ambient_temperature 123.15
#These two values have been output from a single CSD field.
_refine_ls_R_factor_gt 0.043
_refine_ls_wR_factor_gt 0.043
_symmetry_cell_setting monoclinic
_symmetry_space_group_name_H-M 'P 21/c'
_symmetry_Int_Tables_number 14
loop_
_symmetry_equiv_pos_site_id
_symmetry_equiv_pos_as_xyz
1 x,y,z
2 -x,1/2+y,1/2-z
3 -x,-y,-z
4 x,-1/2-y,-1/2+z
_cell_length_a 5.403(2)
_cell_length_b 5.153(2)
_cell_length_c 24.692(7)
_cell_angle_alpha 90
_cell_angle_beta 96.89(2)
_cell_angle_gamma 90
_cell_formula_units_Z 4
loop_
_atom_type_symbol
_atom_type_radius_bond
C 0.68
H 0.23
N 0.68
O 0.68
loop_
_atom_site_label
_atom_site_type_symbol
_atom_site_fract_x
_atom_site_fract_y
_atom_site_fract_z
O1 O -0.62010 -0.67840 0.30320
O2 O -0.27860 -0.65100 0.26640
O3 O -0.21110 0.26100 0.49010
O4 O 0.10110 0.35710 0.44100
N1 N -0.41690 -0.58140 0.29950
C1 C -0.33130 -0.36940 0.33720
C2 C -0.46080 -0.33070 0.38170
C3 C -0.38150 -0.13620 0.41800
C4 C -0.17680 0.01490 0.40980
C5 C -0.04960 -0.03050 0.36490
C6 C -0.12450 -0.22540 0.32800
C7 C -0.09560 0.22010 0.45010
H1 H -0.61200 -0.43500 0.38400
H2 H -0.47200 -0.09900 0.44900
H3 H 0.07800 0.07300 0.36200
H4 H -0.04700 -0.24800 0.29800
H5 H 0.15300 0.49900 0.47400
#END
