
#######################################################################
#
#                 Cambridge Crystallographic Data Centre
#                                CCDC
#
#######################################################################
#
# If this CIF has been generated from an entry in the Cambridge
# Structural Database, then it will include bibliographic, chemical,
# crystal, experimental, refinement or atomic coordinate data resulting
# from the CCDC's data processing and validation procedures.
#
#######################################################################

data_CSD_CIF_NBZOAC03
_audit_creation_date 1977-12-13
_audit_creation_method CSD-ConQuest-V1
_database_code_CSD NBZOAC03
_database_code_depnum_ccdc_archive 'CCDC 1217892'
_chemical_formula_sum 'C7 H5 N1 O4'
_chemical_formula_moiety
;
C7 H5 N1 O4
;
_journal_coeditor_code "IUCr A14840"
_journal_coden_Cambridge 107
_journal_volume 33
_journal_year 1977
_journal_page_first 2240
_journal_name_full 'Acta Crystallogr.,Sect.B:Struct.Crystallogr.Cryst.Chem. '
loop_
_publ_author_name
"M.Colapietro"
"A.Domenicano"
_chemical_name_systematic
;
p-Nitrobenzoic acid
;
_chemical_melting_point 510.15
_cell_volume   1377.832
_exptl_crystal_density_diffrn 1.611
_exptl_special_details
;
Melting point range 510.15-512.15K
polymorph I

;
_diffrn_ambient_temperature ?
_diffrn_special_details
;
The study was carried out at room temperature,in the range 283-303K

;
#These two values have been output from a single CSD field.
_refine_ls_R_factor_gt 0.04
_refine_ls_wR_factor_gt 0.04
_symmetry_cell_setting monoclinic
_symmetry_space_group_name_H-M 'A 2/a'
_symmetry_Int_Tables_number 15
loop_
_symmetry_equiv_pos_site_id
_symmetry_equiv_pos_as_xyz
1 x,y,z
2 x,1/2+y,1/2+z
3 1/2-x,y,-z
4 1/2-x,1/2+y,1/2-z
5 -x,-y,-z
6 -x,-1/2-y,-1/2-z
7 -1/2+x,-y,z
8 -1/2+x,-1/2-y,-1/2+z
_cell_length_a 12.918(2)
_cell_length_b 5.042(2)
_cell_length_c 21.298(6)
_cell_angle_alpha 90
_cell_angle_beta 96.66(2)
_cell_angle_gamma 90
_cell_formula_units_Z 8
loop_
_atom_type_symbol
_atom_type_radius_bond
C 0.68
H 0.23
N 0.68
O 0.68
loop_
_atom_site_label
_atom_site_type_symbol
_atom_site_fract_x
_atom_site_fract_y
_atom_site_fract_z
O1 O -0.45374 0.24071 0.04859
O2 O -0.62047 0.15699 0.01501
O3 O -0.61759 1.18003 0.25056
O4 O -0.77122 1.17248 0.19844
N1 N -0.68134 1.09555 0.20832
C1 C -0.58366 0.49889 0.09001
C2 C -0.50984 0.64166 0.12929
C3 C -0.54122 0.83736 0.16874
C4 C -0.64665 0.88611 0.16708
C5 C -0.72168 0.75006 0.12842
C6 C -0.68937 0.55243 0.08957
C7 C -0.54736 0.28731 0.04923
H1 H -0.58960 0.00620 -0.01050
H2 H -0.43700 0.60660 0.12920
H3 H -0.49070 0.94260 0.19590
H4 H -0.79250 0.79030 0.13030
H5 H -0.74080 0.45070 0.06270
#END
