
#######################################################################
#
#                 Cambridge Crystallographic Data Centre
#                                CCDC
#
#######################################################################
#
# If this CIF has been generated from an entry in the Cambridge
# Structural Database, then it will include bibliographic, chemical,
# crystal, experimental, refinement or atomic coordinate data resulting
# from the CCDC's data processing and validation procedures.
#
#######################################################################

data_CSD_CIF_NDZABZ
_audit_creation_date 1975-08-29
_audit_creation_method CSD-ConQuest-V1
_database_code_CSD NDZABZ
_chemical_formula_sum 'C12 H10 N4 O2'
_chemical_formula_moiety
;
C12 H10 N4 O2
;
_journal_coden_Cambridge 82
_journal_volume 15
_journal_year 1974
_journal_page_first 517
_journal_name_full 'Zh.Strukt.Khim.(Russ.)(J.Struct.Chem.) '
loop_
_publ_author_name
"Yu.D.Kondrashev"
_chemical_name_systematic
;
p-Nitro-diazoaminobenzene
;
_cell_volume    583.911
_exptl_crystal_density_diffrn 1.378
_exptl_special_details
;
ATOM H11 REMOVED FOR SUSPECTED COORDINATE ERROR

;
_diffrn_ambient_temperature ?
_diffrn_special_details
;
The study was carried out at room temperature,in the range 283-303K

;
#These two values have been output from a single CSD field.
_refine_ls_R_factor_gt 0.099
_refine_ls_wR_factor_gt 0.099
_symmetry_cell_setting monoclinic
_symmetry_space_group_name_H-M 'P 21'
_symmetry_Int_Tables_number 4
loop_
_symmetry_equiv_pos_site_id
_symmetry_equiv_pos_as_xyz
1 x,y,z
2 -x,1/2+y,-z
_cell_length_a 18.87(2)
_cell_length_b 5.08(1)
_cell_length_c 6.12(1)
_cell_angle_alpha 90
_cell_angle_beta 84.45(3)
_cell_angle_gamma 90
_cell_formula_units_Z 2
loop_
_atom_type_symbol
_atom_type_radius_bond
C 0.68
H 0.23
N 0.68
O 0.68
loop_
_atom_site_label
_atom_site_type_symbol
_atom_site_fract_x
_atom_site_fract_y
_atom_site_fract_z
C1 C 0.16710 -0.32740 -0.46480
C2 C 0.39370 0.73500 -0.15740
C3 C 0.42040 0.66920 -0.37060
C4 C 0.38770 0.47550 -0.48060
C5 C 0.14570 -0.50160 -0.61990
C6 C 0.09010 -0.67440 -0.55850
C7 C 0.05660 -0.65910 -0.34700
C8 C 0.07600 -0.47900 -0.19590
C9 C 0.13230 -0.31120 -0.25390
C10 C 0.32850 0.34650 -0.37680
C11 C 0.30220 0.40900 -0.16240
C12 C 0.33450 0.60790 -0.05320
H1 H 0.40700 0.41800 -0.63500
H2 H 0.32400 0.12200 -0.64800
H3 H 0.17100 -0.50900 -0.77000
H4 H 0.07500 -0.80400 -0.67000
H5 H 0.01600 -0.77900 -0.30500
H6 H 0.05100 -0.46800 -0.04500
H7 H 0.14800 -0.18100 -0.14500
H8 H 0.26000 0.31600 -0.08700
H9 H 0.31600 0.66500 0.10000
N1 N 0.22510 -0.16230 -0.54600
N2 N 0.24300 0.00580 -0.41090
N3 N 0.29890 0.14910 -0.49810
N4 N 0.42690 0.94070 -0.04920
O1 O 0.40510 0.99280 0.14710
O2 O 0.47680 1.06740 -0.14330
#END
