
#######################################################################
#
#                 Cambridge Crystallographic Data Centre
#                                CCDC
#
#######################################################################
#
# If this CIF has been generated from an entry in the Cambridge
# Structural Database, then it will include bibliographic, chemical,
# crystal, experimental, refinement or atomic coordinate data resulting
# from the CCDC's data processing and validation procedures.
#
#######################################################################

data_CSD_CIF_NEBHAG
_audit_creation_date 2017-08-07
_audit_creation_method CSD-ConQuest-V1
_database_code_CSD NEBHAG
_database_code_depnum_ccdc_archive 'CCDC 1541425'
_chemical_formula_sum 'C16 H13 N3 O3'
_chemical_formula_moiety
;
C16 H13 N3 O3
;
_journal_coden_Cambridge 16
_journal_volume 73
_journal_year 2017
_journal_page_first 5350
_journal_name_full 'Tetrahedron '
loop_
_publ_author_name
"T.Freese"
"A.-L.Lucke"
"C.A.S.Schmidt"
"M.Polamo"
"M.Nieger"
"J.C.Namyslo"
"A.Schmidt"
_chemical_name_systematic
;
(E)-5-[(benzenecarbonyl)imino]-3-(2-methoxyphenyl)-5H-1,2,3-oxadiazol-3-ium-2-
ide
;
_chemical_name_common
;
N3-(o-Methoxyphenyl)-N6-benzoylsydnonimine
;
_cell_volume   2831.283
_exptl_crystal_colour 'yellow'
_exptl_crystal_density_diffrn 1.386
_exptl_crystal_description 'blocks'
_diffrn_ambient_temperature 123
#These two values have been output from a single CSD field.
_refine_ls_R_factor_gt 0.0317
_refine_ls_wR_factor_gt 0.0317
_symmetry_cell_setting orthorhombic
_symmetry_space_group_name_H-M 'P b c a'
_symmetry_Int_Tables_number 61
loop_
_symmetry_equiv_pos_site_id
_symmetry_equiv_pos_as_xyz
1 x,y,z
2 1/2-x,-y,1/2+z
3 -x,1/2+y,1/2-z
4 1/2+x,1/2-y,-z
5 -x,-y,-z
6 -1/2+x,y,-1/2-z
7 x,-1/2-y,-1/2+z
8 -1/2-x,-1/2+y,z
_cell_length_a 11.4610(3)
_cell_length_b 11.3954(3)
_cell_length_c 21.6786(6)
_cell_angle_alpha 90
_cell_angle_beta 90
_cell_angle_gamma 90
_cell_formula_units_Z 8
loop_
_atom_type_symbol
_atom_type_radius_bond
C 0.68
H 0.23
N 0.68
O 0.68
loop_
_atom_site_label
_atom_site_type_symbol
_atom_site_fract_x
_atom_site_fract_y
_atom_site_fract_z
O1 O 0.08571(7) 0.52042(7) 0.43081(3)
N1 N 0.13485(8) 0.45662(8) 0.47797(4)
N2 N 0.23466(7) 0.50878(7) 0.48735(4)
C1 C 0.25518(9) 0.60183(9) 0.45083(4)
H1 H 0.32200 0.65110 0.45100
C2 C 0.15831(9) 0.61078(9) 0.41282(4)
N3 N 0.12112(7) 0.67756(7) 0.36706(4)
C3 C 0.19527(9) 0.76721(9) 0.35135(5)
O2 O 0.28773(7) 0.79103(7) 0.37787(4)
C4 C 0.15572(9) 0.84139(9) 0.29817(4)
C5 C 0.06609(9) 0.80695(9) 0.25845(5)
H2 H 0.02890 0.73320 0.26410
C6 C 0.03113(9) 0.88044(9) 0.21065(5)
H3 H -0.02960 0.85660 0.18360
C7 C 0.08495(10) 0.98864(10) 0.20239(5)
H4 H 0.06030 1.03920 0.17010
C8 C 0.1750(1) 1.02276(9) 0.24154(5)
H5 H 0.21210 1.09650 0.23580
C9 C 0.21064(9) 0.94926(9) 0.28891(5)
H6 H 0.27280 0.97250 0.31520
C10 C 0.31412(9) 0.46253(9) 0.53299(5)
C11 C 0.34077(9) 0.53250(9) 0.58409(5)
C12 C 0.42116(9) 0.48912(9) 0.62654(5)
H7 H 0.44100 0.53390 0.66200
C13 C 0.47226(9) 0.38009(9) 0.61689(5)
H8 H 0.52700 0.35130 0.64610
C14 C 0.4453(1) 0.31221(9) 0.56562(5)
H9 H 0.48110 0.23790 0.55980
C15 C 0.36534(9) 0.35440(9) 0.52297(5)
H10 H 0.34610 0.30960 0.48740
O3 O 0.28530(7) 0.63706(7) 0.58746(3)
C16 C 0.31719(10) 0.71384(9) 0.63731(5)
H11 H 0.30070 0.67520 0.67680
H12 H 0.27200 0.78660 0.63450
H13 H 0.40060 0.73200 0.63470
#END
