
#######################################################################
#
#                 Cambridge Crystallographic Data Centre
#                                CCDC
#
#######################################################################
#
# If this CIF has been generated from an entry in the Cambridge
# Structural Database, then it will include bibliographic, chemical,
# crystal, experimental, refinement or atomic coordinate data resulting
# from the CCDC's data processing and validation procedures.
#
#######################################################################

data_CSD_CIF_NEDCAA
_audit_creation_date 1998-04-14
_audit_creation_method CSD-ConQuest-V1
_database_code_CSD NEDCAA
_database_code_depnum_ccdc_archive 'CCDC 123497'
_chemical_formula_sum 'C13 H10 N4 O4'
_chemical_formula_moiety
;
C13 H10 N4 O4
;
_journal_coden_Cambridge 4
_journal_volume 119
_journal_year 1997
_journal_page_first 12223
_journal_name_full 'J.Am.Chem.Soc. '
loop_
_publ_author_name
"R.Anulewicz"
"I.Wawer"
"T.M.Krygowski"
"F.Mannle"
"H.-H.Limbach"
_chemical_name_systematic
;
N,N'-bis(p-Nitrophenyl)formamidine
;
_cell_volume    649.627
_exptl_crystal_colour 'colorless'
_exptl_crystal_density_diffrn 1.463
_diffrn_ambient_temperature ?
_diffrn_special_details
;
The study was carried out at room temperature,in the range 283-303K

;
#These two values have been output from a single CSD field.
_refine_ls_R_factor_gt 0.0533
_refine_ls_wR_factor_gt 0.0533
_symmetry_cell_setting triclinic
_symmetry_space_group_name_H-M 'P -1'
_symmetry_Int_Tables_number 2
loop_
_symmetry_equiv_pos_site_id
_symmetry_equiv_pos_as_xyz
1 x,y,z
2 -x,-y,-z
_cell_length_a 7.674(2)
_cell_length_b 8.575(2)
_cell_length_c 10.489(2)
_cell_angle_alpha 76.28(3)
_cell_angle_beta 79.46(3)
_cell_angle_gamma 78.13(3)
_cell_formula_units_Z 2
loop_
_atom_type_symbol
_atom_type_radius_bond
C 0.68
H 0.23
N 0.68
O 0.68
loop_
_atom_site_label
_atom_site_type_symbol
_atom_site_fract_x
_atom_site_fract_y
_atom_site_fract_z
N1 N 0.4994(4) 0.8299(3) 0.1436(3)
C1 C 0.3770(4) 0.7891(4) 0.0961(3)
H1 H 0.3371(4) 0.6913(4) 0.1361(3)
N2 N 0.3037(4) 0.8838(3) -0.0109(3)
H2 H 0.3488(4) 0.9691(3) -0.0516(3)
C2 C 0.5726(4) 0.7127(4) 0.2488(3)
C3 C 0.5996(5) 0.7639(5) 0.3578(3)
H3 H 0.5609(5) 0.8723(5) 0.3639(3)
C4 C 0.6825(5) 0.6577(5) 0.4572(3)
H4 H 0.7009(5) 0.6928(5) 0.5302(3)
C5 C 0.7379(4) 0.4979(5) 0.4463(3)
C6 C 0.7093(5) 0.4420(5) 0.3412(4)
H5 H 0.7455(5) 0.3328(5) 0.3369(4)
C7 C 0.6263(4) 0.5499(4) 0.2423(4)
H6 H 0.6060(4) 0.5136(4) 0.1704(4)
N3 N 0.8318(5) 0.3837(6) 0.5504(4)
O1 O 0.8538(4) 0.4342(5) 0.6442(3)
O2 O 0.8836(6) 0.2443(5) 0.5372(4)
C8 C 0.1593(4) 0.8512(4) -0.0588(3)
C9 C 0.0599(5) 0.7334(4) 0.0108(4)
H7 H 0.0895(5) 0.6719(4) 0.0921(4)
C10 C -0.0811(5) 0.7061(4) -0.0380(4)
H8 H -0.1459(5) 0.6251(4) 0.0096(4)
C11 C -0.1280(4) 0.7959(4) -0.1558(4)
C12 C -0.0338(6) 0.9180(5) -0.2279(4)
H9 H -0.0667(6) 0.9812(5) -0.3077(4)
C13 C 0.1116(5) 0.9431(4) -0.1772(3)
H10 H 0.1774(5) 1.0234(4) -0.2244(3)
N4 N -0.2840(5) 0.7685(5) -0.2040(5)
O3 O -0.3301(5) 0.8579(4) -0.3059(4)
O4 O -0.3576(4) 0.6546(5) -0.1398(4)
#END
