
#######################################################################
#
#                 Cambridge Crystallographic Data Centre
#                                CCDC
#
#######################################################################
#
# If this CIF has been generated from an entry in the Cambridge
# Structural Database, then it will include bibliographic, chemical,
# crystal, experimental, refinement or atomic coordinate data resulting
# from the CCDC's data processing and validation procedures.
#
#######################################################################

data_CSD_CIF_NEFVAY
_audit_creation_date 2017-08-09
_audit_creation_method CSD-ConQuest-V1
_database_code_CSD NEFVAY
_database_code_depnum_ccdc_archive 'CCDC 1549733'
_chemical_formula_sum 'C12 H9 N1 O3'
_chemical_formula_moiety
;
C12 H9 N1 O3
;
_journal_coeditor_code "gw2156"
_journal_coden_Cambridge 1828
_journal_volume 73
_journal_year 2017
_journal_page_first 1326
_journal_name_full 'Acta Crystallogr.,Sect.E:Cryst.Commun. '
loop_
_publ_author_name
"Y.M.Hijji"
"R.Rajan"
"S.Mansour"
"H.Ben Yahia"
_chemical_name_systematic
;
((((furan-2-yl)methylidene)amino)oxy)(phenyl)methanone
;
_cell_volume   1044.944
_exptl_crystal_colour 'colorless'
_exptl_crystal_density_diffrn 1.368
_exptl_crystal_description 'needle'
_diffrn_ambient_temperature 293
#These two values have been output from a single CSD field.
_refine_ls_R_factor_gt 0.0368
_refine_ls_wR_factor_gt 0.0368
_symmetry_cell_setting monoclinic
_symmetry_space_group_name_H-M 'P 21/c'
_symmetry_Int_Tables_number 14
loop_
_symmetry_equiv_pos_site_id
_symmetry_equiv_pos_as_xyz
1 x,y,z
2 -x,1/2+y,1/2-z
3 -x,-y,-z
4 x,-1/2-y,-1/2+z
_cell_length_a 6.3414(3)
_cell_length_b 9.1268(5)
_cell_length_c 18.1423(9)
_cell_angle_alpha 90
_cell_angle_beta 95.634(2)
_cell_angle_gamma 90
_cell_formula_units_Z 4
loop_
_atom_type_symbol
_atom_type_radius_bond
C 0.68
H 0.23
N 0.68
O 0.68
loop_
_atom_site_label
_atom_site_type_symbol
_atom_site_fract_x
_atom_site_fract_y
_atom_site_fract_z
O1 O 0.30081(17) 0.3507(1) 0.20660(6)
O2 O 0.40886(16) 0.65844(10) 0.04205(5)
O3 O 0.76174(18) 0.66965(13) 0.06946(6)
N1 N 0.4062(2) 0.55510(12) 0.10223(6)
C1 C 0.1492(3) 0.42685(14) 0.16340(8)
C2 C -0.0453(3) 0.39050(16) 0.18114(10)
H1 H -0.177(3) 0.4294(17) 0.1589(9)
C3 C -0.0152(4) 0.28632(18) 0.23844(10)
H2 H -0.120(3) 0.2372(18) 0.2617(9)
C4 C 0.1916(4) 0.26537(18) 0.25172(10)
H3 H 0.279(3) 0.2027(17) 0.2837(9)
C5 C 0.2128(3) 0.52772(15) 0.10928(8)
H4 H 0.099(3) 0.5716(15) 0.0768(8)
C6 C 0.6056(2) 0.70645(15) 0.03182(8)
C7 C 0.6002(2) 0.81086(13) -0.03072(7)
C8 C 0.4156(3) 0.84781(16) -0.07375(8)
H5 H 0.290(2) 0.8040(15) -0.0630(7)
C9 C 0.4214(3) 0.94724(17) -0.1307(1)
H6 H 0.295(3) 0.9700(17) -0.1605(9)
C10 C 0.6096(3) 1.01023(18) -0.14491(9)
H7 H 0.617(3) 1.0760(16) -0.1852(9)
C11 C 0.7926(3) 0.97388(18) -0.10261(9)
H8 H 0.922(3) 1.0175(17) -0.1118(9)
C12 C 0.7884(3) 0.87486(17) -0.04569(9)
H9 H 0.917(3) 0.8530(15) -0.0176(9)
#END
