
#######################################################################
#
#                 Cambridge Crystallographic Data Centre
#                                CCDC
#
#######################################################################
#
# If this CIF has been generated from an entry in the Cambridge
# Structural Database, then it will include bibliographic, chemical,
# crystal, experimental, refinement or atomic coordinate data resulting
# from the CCDC's data processing and validation procedures.
#
#######################################################################

data_CSD_CIF_NEGKES
_audit_creation_date 2017-08-09
_audit_creation_method CSD-ConQuest-V1
_database_code_CSD NEGKES
_database_code_depnum_ccdc_archive 'CCDC 1538642'
_chemical_formula_sum 'C13 H16 N4 O2'
_chemical_formula_moiety
;
C13 H16 N4 O2
;
_journal_coden_Cambridge 119
_journal_volume 1148
_journal_year 2017
_journal_page_first 557
_journal_name_full 'J.Mol.Struct. '
loop_
_publ_author_name
"F.Cuenu"
"N.Munoz-Patino"
"J.E.Torres"
"R.Abonia"
"R.A.Toscano"
"J.Cobo"
_chemical_name_systematic
;
3-t-butyl-1-(2-nitrophenyl)-1H-pyrazol-5-amine
;
_cell_volume   1360.665
_exptl_crystal_colour 'yellow'
_exptl_crystal_density_diffrn 1.271
_exptl_crystal_description 'prism'
_diffrn_ambient_temperature 298
#These two values have been output from a single CSD field.
_refine_ls_R_factor_gt 0.047
_refine_ls_wR_factor_gt 0.047
_symmetry_cell_setting monoclinic
_symmetry_space_group_name_H-M 'P 21/c'
_symmetry_Int_Tables_number 14
loop_
_symmetry_equiv_pos_site_id
_symmetry_equiv_pos_as_xyz
1 x,y,z
2 -x,1/2+y,1/2-z
3 -x,-y,-z
4 x,-1/2-y,-1/2+z
_cell_length_a 11.2518(4)
_cell_length_b 9.3675(3)
_cell_length_c 13.1240(4)
_cell_angle_alpha 90
_cell_angle_beta 100.376(1)
_cell_angle_gamma 90
_cell_formula_units_Z 4
loop_
_atom_type_symbol
_atom_type_radius_bond
C 0.68
H 0.23
N 0.68
O 0.68
loop_
_atom_site_label
_atom_site_type_symbol
_atom_site_fract_x
_atom_site_fract_y
_atom_site_fract_z
N1 N 0.31088(19) 0.1637(2) 0.32168(14)
O1 O 0.40428(16) 0.21693(18) 0.36727(13)
O2 O 0.21669(16) 0.1598(2) 0.35599(13)
N2 N 0.62339(14) 0.09160(18) 0.23881(12)
N3 N 0.52150(14) 0.02340(18) 0.26018(12)
N4 N 0.45208(15) -0.12035(19) 0.38688(13)
H1 H 0.47986 -0.15229 0.45154
H2 H 0.41810 -0.19822 0.34511
C1 C 0.54507(18) -0.0485(2) 0.35137(14)
C2 C 0.66372(19) -0.0258(2) 0.39144(15)
H3 H 0.70644 -0.06078 0.45371
C3 C 0.70881(17) 0.0613(2) 0.31976(15)
C4 C 0.41069(17) 0.0407(2) 0.19068(14)
C5 C 0.30928(17) 0.1037(2) 0.21801(14)
C6 C 0.20284(19) 0.1160(2) 0.14709(17)
H4 H 0.13436 0.15396 0.16739
C7 C 0.1985(2) 0.0722(2) 0.04670(17)
H5 H 0.12791 0.08341 -0.00184
C8 C 0.2987(2) 0.0116(3) 0.01827(16)
H6 H 0.29633 -0.01689 -0.04994
C9 C 0.4022(2) -0.0069(3) 0.09002(15)
H7 H 0.46808 -0.05247 0.07053
C10 C 0.83684(18) 0.1130(2) 0.32550(17)
C11 C 0.8437(2) 0.2333(3) 0.2491(2)
H8 H 0.81405 0.20013 0.17995
H9 H 0.92614 0.26361 0.25453
H10 H 0.79536 0.31211 0.26442
C12 C 0.9138(2) -0.0116(3) 0.3004(2)
H11 H 0.91192 -0.08679 0.34981
H12 H 0.99560 0.01980 0.30358
H13 H 0.88237 -0.04635 0.23205
C13 C 0.8869(2) 0.1649(3) 0.4357(2)
H14 H 0.84053 0.24509 0.45175
H15 H 0.96981 0.19285 0.44022
H16 H 0.88184 0.08917 0.48399
#END
