
#######################################################################
#
#                 Cambridge Crystallographic Data Centre
#                                CCDC
#
#######################################################################
#
# If this CIF has been generated from an entry in the Cambridge
# Structural Database, then it will include bibliographic, chemical,
# crystal, experimental, refinement or atomic coordinate data resulting
# from the CCDC's data processing and validation procedures.
#
#######################################################################

data_CSD_CIF_NEGLUG
_audit_creation_date 1998-04-22
_audit_creation_method CSD-ConQuest-V1
_database_code_CSD NEGLUG
_chemical_formula_sum 'C20 H19 N3 O6'
_chemical_formula_moiety
;
C20 H19 N3 O6
;
_journal_coden_Cambridge 35
_journal_volume 62
_journal_year 1997
_journal_page_first 499
_journal_name_full 'J.Org.Chem. '
loop_
_publ_author_name
"D.N.Nicolaides"
"C.Bezergiannidou-Balouctsi"
"R.W.Awad"
"K.E.Litinas"
"E.Malamidou-Xenikaki"
"A.Terzis"
"C.P.Raptopoulou"
_chemical_name_systematic
;
2-(Methoxyimino)-5-methyl-1-oxo-1,2,7,8-tetrahydro-6,8a-ethanonaphthalene-7,8,
9,10-tetracarboxylic acid bis(N-methylimide)
;
_chemical_melting_point 487.15
_cell_volume   1900.478
_exptl_crystal_colour 'colorless'
_exptl_crystal_density_diffrn 1.389
_exptl_special_details
;
Melting point range 487.15-489.15K

;
_exptl_crystal_description 'prismatic'
_exptl_crystal_preparation 'methanol'
_diffrn_ambient_temperature ?
_diffrn_special_details
;
The study was carried out at room temperature,in the range 283-303K

;
#These two values have been output from a single CSD field.
_refine_ls_R_factor_gt 0.0384
_refine_ls_wR_factor_gt 0.0384
_symmetry_cell_setting orthorhombic
_symmetry_space_group_name_H-M 'P 21 21 21'
_symmetry_Int_Tables_number 19
loop_
_symmetry_equiv_pos_site_id
_symmetry_equiv_pos_as_xyz
1 x,y,z
2 1/2-x,-y,1/2+z
3 1/2+x,1/2-y,-z
4 -x,1/2+y,1/2-z
_cell_length_a 18.871(7)
_cell_length_b 9.095(3)
_cell_length_c 11.073(4)
_cell_angle_alpha 90
_cell_angle_beta 90
_cell_angle_gamma 90
_cell_formula_units_Z 4
loop_
_atom_type_symbol
_atom_type_radius_bond
C 0.68
N 0.68
O 0.68
loop_
_atom_site_label
_atom_site_type_symbol
_atom_site_fract_x
_atom_site_fract_y
_atom_site_fract_z
N1 N 0.8494(1) 0.5913(2) 0.7121(2)
N2 N 1.1058(1) 0.9039(3) 0.4855(2)
N3 N 0.7856(1) 1.1393(2) 0.4946(2)
O1 O 0.8157(1) 0.4692(2) 0.6621(2)
O2 O 0.9214(1) 0.8326(2) 0.7814(1)
O3 O 1.1215(1) 1.1073(3) 0.3654(2)
O4 O 1.0612(1) 0.7338(2) 0.6189(2)
O5 O 0.8322(1) 1.3181(2) 0.3728(2)
O6 O 0.7698(1) 0.9523(2) 0.6311(2)
C1 C 0.7784(2) 0.3926(3) 0.7555(3)
C2 C 0.8762(1) 0.6745(3) 0.6279(2)
C3 C 0.9103(1) 0.8120(3) 0.6755(2)
C4 C 0.9306(1) 0.9312(2) 0.5838(2)
C5 C 1.0087(1) 0.9791(3) 0.6050(2)
C6 C 1.0597(1) 0.8554(3) 0.5746(2)
C7 C 1.1626(2) 0.8153(5) 0.4339(3)
C8 C 1.0901(1) 1.0450(3) 0.4461(2)
C9 C 1.0286(1) 1.1031(3) 0.5182(2)
C10 C 0.8854(1) 1.0717(3) 0.6097(2)
C11 C 0.8072(1) 1.0433(3) 0.5841(2)
C12 C 0.7134(2) 1.1392(5) 0.4444(4)
C13 C 0.8386(2) 1.2288(3) 0.4528(2)
C14 C 0.9060(1) 1.1947(3) 0.5219(2)
C15 C 0.9647(1) 1.1401(3) 0.4362(2)
C16 C 0.9402(1) 1.0008(3) 0.3745(2)
C17 C 0.9377(2) 0.9951(4) 0.2392(3)
C18 C 0.9218(1) 0.8923(3) 0.4514(2)
C19 C 0.8949(1) 0.7489(3) 0.4185(2)
C20 C 0.8731(1) 0.6489(3) 0.4990(2)
#END
