
#######################################################################
#
#                 Cambridge Crystallographic Data Centre
#                                CCDC
#
#######################################################################
#
# If this CIF has been generated from an entry in the Cambridge
# Structural Database, then it will include bibliographic, chemical,
# crystal, experimental, refinement or atomic coordinate data resulting
# from the CCDC's data processing and validation procedures.
#
#######################################################################

data_CSD_CIF_NEGPIA
_audit_creation_date 2012-10-16
_audit_creation_method CSD-ConQuest-V1
_database_code_CSD NEGPIA
_database_code_depnum_ccdc_archive 'CCDC 850037'
_chemical_formula_sum 'C25 H26 N2 O6'
_chemical_formula_moiety
;
C25 H26 N2 O6
;
_journal_coden_Cambridge 1220
_journal_volume 18
_journal_year 2012
_journal_page_first 9601
_journal_name_full 'Chem.-Eur.J. '
loop_
_publ_author_name
"C.V.S.Kumar"
"V.G.Puranik"
"C.V.Ramana"
_chemical_name_systematic
;
1-Hydroxy-2-(6-methoxy-2,2-dimethyltetrahydrofuro[2,3-d][1,3]dioxol-5-yl)-1'-m
ethyl-1,2-dihydro-1'H,3H-2,3'-bi-indol-3-one
;
_cell_volume   1112.803
_exptl_crystal_density_diffrn 1.347
_diffrn_ambient_temperature 296
#These two values have been output from a single CSD field.
_refine_ls_R_factor_gt 0.0405
_refine_ls_wR_factor_gt 0.0405
_symmetry_cell_setting monoclinic
_symmetry_space_group_name_H-M 'P 21'
_symmetry_Int_Tables_number 4
loop_
_symmetry_equiv_pos_site_id
_symmetry_equiv_pos_as_xyz
1 x,y,z
2 -x,1/2+y,-z
_cell_length_a 12.1800(11)
_cell_length_b 7.0359(6)
_cell_length_c 13.2935(11)
_cell_angle_alpha 90
_cell_angle_beta 102.362(1)
_cell_angle_gamma 90
_cell_formula_units_Z 2
loop_
_atom_type_symbol
_atom_type_radius_bond
C 0.68
H 0.23
N 0.68
O 0.68
loop_
_atom_site_label
_atom_site_type_symbol
_atom_site_fract_x
_atom_site_fract_y
_atom_site_fract_z
O1 O 0.48982(17) 0.8139(3) 0.66208(17)
O2 O 0.57627(15) 0.5265(3) 0.68574(15)
O3 O 0.44704(14) 0.3659(3) 0.89008(12)
O4 O 0.34409(16) 0.6336(3) 0.69354(18)
O5 O 0.15990(14) 0.6935(3) 0.80857(13)
H1 H 0.19930 0.78000 0.79480
O6 O 0.27053(15) 0.0503(3) 0.77961(14)
N1 N 0.22736(16) 0.5310(3) 0.83955(14)
N2 N 0.02965(16) 0.3879(3) 0.50656(15)
C1 C 0.4481(2) 0.7183(4) 0.7366(2)
H2 H 0.44210 0.80250 0.79390
C2 C 0.5281(2) 0.5561(4) 0.77235(19)
H3 H 0.58430 0.58710 0.83480
C3 C 0.45664(19) 0.3860(4) 0.78651(17)
H4 H 0.48740 0.26980 0.76270
C4 C 0.3431(2) 0.4350(4) 0.71632(19)
H5 H 0.33770 0.36540 0.65160
C5 C 0.23593(18) 0.3931(4) 0.75618(16)
C6 C 0.24371(19) 0.1999(4) 0.81398(18)
C7 C 0.2101(2) 0.2375(4) 0.91062(18)
C8 C 0.1859(2) 0.1133(5) 0.9846(2)
H6 H 0.19840 -0.01650 0.98040
C9 C 0.1432(3) 0.1872(6) 1.0637(2)
H7 H 0.12600 0.10680 1.11370
C10 C 0.1256(3) 0.3815(6) 1.0695(2)
H8 H 0.09590 0.42830 1.12350
C11 C 0.1503(2) 0.5068(5) 0.99846(18)
H9 H 0.13770 0.63650 1.00340
C12 C 0.1949(2) 0.4327(4) 0.91868(17)
C13 C 0.1349(2) 0.4037(4) 0.56679(17)
H10 H 0.19970 0.42190 0.54160
C14 C 0.13316(18) 0.3894(4) 0.66866(17)
C15 C 0.01700(19) 0.3619(4) 0.67339(17)
C16 C -0.0436(2) 0.3317(4) 0.7508(2)
H11 H -0.00670 0.33050 0.81970
C17 C -0.1575(2) 0.3040(5) 0.7238(2)
H12 H -0.19730 0.28250 0.77520
C18 C -0.2154(2) 0.3073(5) 0.6209(2)
H13 H -0.29290 0.29020 0.60540
C19 C -0.1607(2) 0.3351(4) 0.5428(2)
H14 H -0.19920 0.33610 0.47440
C20 C -0.04483(19) 0.3620(4) 0.56955(18)
C21 C 0.5496(4) 0.6664(6) 0.5196(2)
H15 H 0.54930 0.78400 0.48290
H16 H 0.47700 0.60770 0.50060
H17 H 0.60530 0.58300 0.50240
C22 C 0.6868(3) 0.8043(6) 0.6690(3)
H18 H 0.69900 0.82880 0.74160
H19 H 0.68550 0.92250 0.63270
H20 H 0.74630 0.72590 0.65530
C23 C 0.5324(3) 0.2499(6) 0.9489(3)
H21 H 0.60460 0.30600 0.95000
H22 H 0.52940 0.12580 0.91840
H23 H 0.52120 0.23950 1.01800
C24 C 0.0018(3) 0.3849(5) 0.39458(18)
H24 H -0.06580 0.45650 0.37020
H25 H -0.00950 0.25590 0.37100
H26 H 0.06220 0.44020 0.36860
C25 C 0.5771(2) 0.7046(4) 0.6341(2)
#END
