
#######################################################################
#
#                 Cambridge Crystallographic Data Centre
#                                CCDC
#
#######################################################################
#
# If this CIF has been generated from an entry in the Cambridge
# Structural Database, then it will include bibliographic, chemical,
# crystal, experimental, refinement or atomic coordinate data resulting
# from the CCDC's data processing and validation procedures.
#
#######################################################################

data_CSD_CIF_NEHPIB
_audit_creation_date 2012-10-03
_audit_creation_method CSD-ConQuest-V1
_database_code_CSD NEHPIB
_database_code_depnum_ccdc_archive 'CCDC 848085'
_chemical_formula_sum 'C21 H21 N1 O4'
_chemical_formula_moiety
;
C21 H21 N1 O4
;
_journal_coden_Cambridge 16
_journal_volume 68
_journal_year 2012
_journal_page_first 5810
_journal_name_full 'Tetrahedron '
loop_
_publ_author_name
"D.R.Magar"
"Kwunmin Chen"
_chemical_name_systematic
;
2-(3-Nitro-2-phenyl-3,4-dihydro-2H-chromen-4-yl)cyclohexanone
;
_cell_volume    886.465
_exptl_crystal_colour 'colorless'
_exptl_crystal_density_diffrn 1.316
_exptl_crystal_description 'prism'
_diffrn_ambient_temperature 200
#These two values have been output from a single CSD field.
_refine_ls_R_factor_gt 0.0442
_refine_ls_wR_factor_gt 0.0442
_symmetry_cell_setting triclinic
_symmetry_space_group_name_H-M 'P -1'
_symmetry_Int_Tables_number 2
loop_
_symmetry_equiv_pos_site_id
_symmetry_equiv_pos_as_xyz
1 x,y,z
2 -x,-y,-z
_cell_length_a 9.2231(2)
_cell_length_b 9.9837(2)
_cell_length_c 10.6747(3)
_cell_angle_alpha 112.873(1)
_cell_angle_beta 92.635(1)
_cell_angle_gamma 99.551(1)
_cell_formula_units_Z 2
loop_
_atom_type_symbol
_atom_type_radius_bond
C 0.68
H 0.23
N 0.68
O 0.68
loop_
_atom_site_label
_atom_site_type_symbol
_atom_site_fract_x
_atom_site_fract_y
_atom_site_fract_z
C1 C 0.41285(19) -0.12620(18) 0.20430(18)
H1 H 0.49400 -0.18030 0.20760
C2 C 0.37666(19) -0.14822(19) 0.05546(18)
H2 H 0.47120 -0.11440 0.02440
C3 C 0.3176(2) -0.30820(19) -0.04139(18)
C4 C 0.4156(2) -0.3951(2) -0.1074(2)
H3 H 0.51870 -0.35420 -0.09040
C5 C 0.3650(3) -0.5414(2) -0.1981(2)
H4 H 0.43290 -0.60000 -0.24410
C6 C 0.2158(3) -0.6010(2) -0.2211(2)
H5 H 0.18070 -0.70120 -0.28330
C7 C 0.1172(2) -0.5166(2) -0.1544(3)
H6 H 0.01450 -0.55890 -0.16990
C8 C 0.1674(2) -0.3697(2) -0.0645(2)
H7 H 0.09910 -0.31140 -0.01880
C9 C 0.28913(19) 0.08133(19) 0.13755(19)
C10 C 0.2046(2) 0.1685(2) 0.1050(2)
H8 H 0.14500 0.13010 0.01890
C11 C 0.2075(2) 0.3113(2) 0.1981(3)
H9 H 0.15240 0.37270 0.17520
C12 C 0.2901(2) 0.3645(2) 0.3243(3)
H10 H 0.29080 0.46220 0.38910
C13 C 0.3722(2) 0.2761(2) 0.3570(2)
H11 H 0.42660 0.31300 0.44540
C14 C 0.37689(19) 0.13319(19) 0.26247(19)
C15 C 0.46868(19) 0.03781(18) 0.29895(18)
H12 H 0.45460 0.04950 0.39470
C16 C 0.63735(19) 0.07908(19) 0.29305(18)
H13 H 0.65360 0.04830 0.19460
C17 C 0.7066(2) 0.2456(2) 0.3690(2)
H14 H 0.65860 0.30250 0.32730
H15 H 0.68730 0.27940 0.46580
C18 C 0.8727(2) 0.2778(3) 0.3638(3)
H16 H 0.89180 0.25170 0.26740
H17 H 0.91210 0.38530 0.41550
C19 C 0.9528(2) 0.1913(2) 0.4237(2)
H18 H 0.94180 0.22380 0.52240
H19 H 1.05970 0.21100 0.41450
C20 C 0.8886(2) 0.0249(2) 0.3490(2)
H20 H 0.90940 -0.01000 0.25250
H21 H 0.93580 -0.03040 0.39310
C21 C 0.7245(2) -0.0036(2) 0.35370(18)
N1 N 0.28092(17) -0.19287(17) 0.25316(16)
O1 O 0.28834(17) -0.30303(17) 0.27582(18)
O2 O 0.17226(15) -0.13640(16) 0.26635(17)
O3 O 0.27421(14) -0.06171(13) 0.03940(13)
O4 O 0.66598(15) -0.08180(15) 0.40834(14)
#END
