
#######################################################################
#
#                 Cambridge Crystallographic Data Centre
#                                CCDC
#
#######################################################################
#
# If this CIF has been generated from an entry in the Cambridge
# Structural Database, then it will include bibliographic, chemical,
# crystal, experimental, refinement or atomic coordinate data resulting
# from the CCDC's data processing and validation procedures.
#
#######################################################################

data_CSD_CIF_NEHVUT
_audit_creation_date 2012-10-03
_audit_creation_method CSD-ConQuest-V1
_database_code_CSD NEHVUT
_database_code_depnum_ccdc_archive 'CCDC 869280'
_chemical_formula_sum 'C38 H46 N2 O6'
_chemical_formula_moiety
;
C38 H46 N2 O6
;
_journal_coden_Cambridge 16
_journal_volume 68
_journal_year 2012
_journal_page_first 6193
_journal_name_full 'Tetrahedron '
loop_
_publ_author_name
"S.Osada"
"N.Hirosawa"
"T.Ishida"
_chemical_name_systematic
;
4,4'-(Ethane-1,2-diylbis(oxyethane-2,1-diyloxy))bis(N-t-butyl-N-oxybiphenyl-3-
amine)
;
_chemical_melting_point 434
_cell_volume   1664.547
_exptl_crystal_colour 'orange'
_exptl_crystal_density_diffrn 1.251
_exptl_crystal_description 'block'
_exptl_crystal_preparation 'methanol/chloroform'
_diffrn_ambient_temperature 90
#These two values have been output from a single CSD field.
_refine_ls_R_factor_gt 0.0488
_refine_ls_wR_factor_gt 0.0488
_symmetry_cell_setting monoclinic
_symmetry_space_group_name_H-M 'P 21/c'
_symmetry_Int_Tables_number 14
loop_
_symmetry_equiv_pos_site_id
_symmetry_equiv_pos_as_xyz
1 x,y,z
2 -x,1/2+y,1/2-z
3 -x,-y,-z
4 x,-1/2-y,-1/2+z
_cell_length_a 12.320(7)
_cell_length_b 18.04(2)
_cell_length_c 9.251(5)
_cell_angle_alpha 90
_cell_angle_beta 125.945(7)
_cell_angle_gamma 90
_cell_formula_units_Z 2
loop_
_atom_type_symbol
_atom_type_radius_bond
C 0.68
H 0.23
N 0.68
O 0.68
loop_
_atom_site_label
_atom_site_type_symbol
_atom_site_fract_x
_atom_site_fract_y
_atom_site_fract_z
O1 O 0.29767(8) 0.24746(5) 0.51630(11)
O2 O 0.17885(8) 0.37195(4) 0.56017(10)
O3 O 0.32731(8) 0.47506(4) 0.84591(10)
N1 N 0.29466(9) 0.30214(5) 0.42469(12)
C1 C 0.10213(11) 0.33547(6) 0.12319(15)
C2 C 0.16656(11) 0.33777(6) 0.30604(15)
C3 C 0.10582(11) 0.37206(6) 0.37901(15)
C4 C -0.02126(11) 0.40334(6) 0.26379(15)
C5 C -0.08367(11) 0.40246(6) 0.07944(14)
C6 C -0.02376(10) 0.36919(6) 0.00721(14)
C7 C -0.09392(11) 0.36779(6) -0.19000(15)
C8 C -0.10055(11) 0.30290(6) -0.27809(16)
C9 C -0.16933(12) 0.30168(6) -0.46218(16)
C10 C -0.23154(11) 0.36564(7) -0.56151(15)
C11 C -0.22463(11) 0.43028(7) -0.47603(15)
C12 C -0.15686(11) 0.43163(6) -0.29200(16)
C13 C 0.42569(11) 0.33707(6) 0.48534(15)
C14 C 0.47985(15) 0.38037(9) 0.65799(18)
C15 C 0.52038(14) 0.27442(8) 0.5187(3)
C16 C 0.40626(13) 0.38863(8) 0.34160(18)
C17 C 0.12566(11) 0.41086(7) 0.64196(15)
C18 C 0.23946(12) 0.42021(7) 0.83520(15)
C19 C 0.45789(12) 0.47125(7) 1.00635(15)
H1 H 0.1467(17) 0.3108(10) 0.089(3)
H2 H -0.0698(16) 0.427(1) 0.307(2)
H3 H -0.1765(15) 0.4240(8) 0.0012(19)
H4 H -0.0605(16) 0.2524(10) -0.211(2)
H5 H -0.1694(14) 0.2551(9) -0.5113(19)
H6 H -0.2785(18) 0.3614(10) -0.694(3)
H7 H -0.2675(18) 0.4746(10) -0.550(3)
H8 H -0.1483(16) 0.4759(9) -0.236(3)
H9 H 0.561(2) 0.4017(11) 0.707(3)
H10 H 0.4880(17) 0.3446(10) 0.756(3)
H11 H 0.4108(18) 0.4244(11) 0.633(3)
H12 H 0.532(2) 0.2385(13) 0.606(3)
H13 H 0.599(3) 0.2901(12) 0.548(3)
H14 H 0.479(2) 0.2463(12) 0.400(3)
H15 H 0.496(3) 0.4090(12) 0.387(3)
H16 H 0.386(3) 0.3596(13) 0.253(3)
H17 H 0.342(2) 0.4256(12) 0.321(3)
H18 H 0.0945(15) 0.4595(8) 0.5905(19)
H19 H 0.0593(17) 0.3836(9) 0.634(3)
H20 H 0.2896(18) 0.3727(9) 0.900(3)
H21 H 0.1994(17) 0.4351(9) 0.893(3)
H22 H 0.4907(18) 0.4203(11) 1.010(3)
H23 H 0.4483(16) 0.4873(10) 1.101(3)
O1B O 0.70233(8) 0.75254(5) 1.48370(11)
O2B O 0.82115(8) 0.62805(4) 1.43983(10)
O3B O 0.67269(8) 0.52494(4) 1.15409(10)
N1B N 0.70534(9) 0.69786(5) 1.57531(12)
C1B C 0.89787(11) 0.66453(6) 1.87681(15)
C2B C 0.83344(11) 0.66223(6) 1.69396(15)
C3B C 0.89418(11) 0.62794(6) 1.62099(15)
C4B C 1.02126(11) 0.59666(6) 1.73621(15)
C5B C 1.08367(11) 0.59754(6) 1.92056(14)
C6B C 1.02376(10) 0.63081(6) 1.99279(14)
C7B C 1.09392(11) 0.63221(6) 2.19000(15)
C8B C 1.10055(11) 0.69710(6) 2.27809(16)
C9B C 1.16933(12) 0.69832(6) 2.46218(16)
C10B C 1.23154(11) 0.63436(7) 2.56151(15)
C11B C 1.22463(11) 0.56972(7) 2.47603(15)
C12B C 1.15686(11) 0.56837(6) 2.29200(16)
C13B C 0.57431(11) 0.66293(6) 1.51466(15)
C14B C 0.52015(15) 0.61963(9) 1.34201(18)
C15B C 0.47962(14) 0.72558(8) 1.4813(3)
C16B C 0.59374(13) 0.61137(8) 1.65840(18)
C17B C 0.87434(11) 0.58914(7) 1.35804(15)
C18B C 0.76054(12) 0.57979(7) 1.16480(15)
C19B C 0.54211(12) 0.52875(7) 0.99365(15)
H1B H 0.8533(17) 0.6892(10) 1.911(3)
H2B H 1.0698(16) 0.573(1) 1.693(2)
H3B H 1.1765(15) 0.5760(8) 1.9988(19)
H4B H 1.0605(16) 0.7476(10) 2.211(2)
H5B H 1.1694(14) 0.7449(9) 2.5113(19)
H6B H 1.2785(18) 0.6386(10) 2.694(3)
H7B H 1.2675(18) 0.5254(10) 2.550(3)
H8B H 1.1483(16) 0.5241(9) 2.236(3)
H9B H 0.439(2) 0.5983(11) 1.293(3)
H10B H 0.5120(17) 0.6554(10) 1.244(3)
H11B H 0.5892(18) 0.5756(11) 1.367(3)
H12B H 0.468(2) 0.7615(13) 1.394(3)
H13B H 0.401(3) 0.7099(12) 1.452(3)
H14B H 0.521(2) 0.7537(12) 1.600(3)
H15B H 0.504(3) 0.5910(12) 1.613(3)
H16B H 0.614(3) 0.6404(13) 1.747(3)
H17B H 0.658(2) 0.5744(12) 1.679(3)
H18B H 0.9055(15) 0.5405(8) 1.4095(19)
H19B H 0.9407(17) 0.6164(9) 1.366(3)
H20B H 0.7104(18) 0.6273(9) 1.100(3)
H21B H 0.8006(17) 0.5649(9) 1.107(3)
H22B H 0.5093(18) 0.5797(11) 0.990(3)
H23B H 0.5517(16) 0.5127(10) 0.899(3)
#END
