
#######################################################################
#
#                 Cambridge Crystallographic Data Centre
#                                CCDC
#
#######################################################################
#
# If this CIF has been generated from an entry in the Cambridge
# Structural Database, then it will include bibliographic, chemical,
# crystal, experimental, refinement or atomic coordinate data resulting
# from the CCDC's data processing and validation procedures.
#
#######################################################################

data_CSD_CIF_NEHYIK
_audit_creation_date 2012-10-03
_audit_creation_method CSD-ConQuest-V1
_database_code_CSD NEHYIK
_database_code_depnum_ccdc_archive 'CCDC 861460'
_chemical_formula_sum 'C18 H19 N1 O4'
_chemical_formula_moiety
;
C18 H19 N1 O4
;
_journal_coden_Cambridge 16
_journal_volume 68
_journal_year 2012
_journal_page_first 6257
_journal_name_full 'Tetrahedron '
loop_
_publ_author_name
"Yan Yang"
"Meng Gao"
"Cong Deng"
"Dong-Xue Zhang"
"Liu-Ming Wu"
"Wen-Ming Shu"
"An-Xin Wu"
_chemical_name_systematic
;
1,1'-(4-Benzoyl-1,2-oxazole-3,5-diyl)bis(2-methylpropan-1-one)
;
_cell_volume   1730.741
_exptl_crystal_colour 'colorless'
_exptl_crystal_density_diffrn 1.203
_exptl_crystal_description 'block'
_diffrn_ambient_temperature 298
#These two values have been output from a single CSD field.
_refine_ls_R_factor_gt 0.0774
_refine_ls_wR_factor_gt 0.0774
_symmetry_cell_setting monoclinic
_symmetry_space_group_name_H-M 'P 21/n'
_symmetry_Int_Tables_number 14
loop_
_symmetry_equiv_pos_site_id
_symmetry_equiv_pos_as_xyz
1 x,y,z
2 1/2-x,1/2+y,1/2-z
3 -x,-y,-z
4 -1/2+x,-1/2-y,-1/2+z
_cell_length_a 10.0102(8)
_cell_length_b 9.6628(8)
_cell_length_c 17.9008(15)
_cell_angle_alpha 90
_cell_angle_beta 91.677(2)
_cell_angle_gamma 90
_cell_formula_units_Z 4
loop_
_atom_type_symbol
_atom_type_radius_bond
C 0.68
H 0.23
N 0.68
O 0.68
loop_
_atom_site_label
_atom_site_type_symbol
_atom_site_fract_x
_atom_site_fract_y
_atom_site_fract_z
C1 C 0.1005(3) 0.6689(3) 0.33373(14)
C2 C 0.1537(3) 0.7973(3) 0.35102(16)
H1 H 0.21180 0.83960 0.31850
C3 C 0.1209(4) 0.8629(4) 0.41638(17)
H2 H 0.15820 0.94850 0.42850
C4 C 0.0327(4) 0.8010(4) 0.46367(18)
H3 H 0.00840 0.84650 0.50700
C5 C -0.0196(4) 0.6733(4) 0.44763(19)
H4 H -0.07800 0.63190 0.48030
C6 C 0.0143(3) 0.6059(4) 0.38305(16)
H5 H -0.02030 0.51850 0.37240
C7 C 0.1322(3) 0.5950(3) 0.26434(15)
C8 C 0.2118(3) 0.6703(3) 0.20605(14)
C9 C 0.1603(3) 0.7371(3) 0.14221(15)
C10 C 0.3469(3) 0.6791(3) 0.19921(14)
C11 C 0.0166(3) 0.7642(3) 0.12209(18)
C12 C -0.0214(4) 0.8193(5) 0.0467(2)
H6 H 0.03930 0.89600 0.03610
C13 C -0.1606(5) 0.8746(5) 0.0419(3)
H7 H -0.22150 0.80530 0.05880
H8 H -0.18310 0.89850 -0.00900
H9 H -0.16670 0.95540 0.07280
C14 C 0.0008(7) 0.7082(8) -0.0110(3)
H10 H 0.09160 0.67650 -0.00690
H11 H -0.01640 0.74540 -0.06000
H12 H -0.05860 0.63220 -0.00260
C15 C 0.4554(3) 0.6310(4) 0.25042(18)
C16 C 0.5983(3) 0.6598(5) 0.2316(2)
H13 H 0.59800 0.73880 0.19720
C17 C 0.6512(6) 0.5417(7) 0.1919(5)
H14 H 0.72920 0.56940 0.16570
H15 H 0.58470 0.50780 0.15670
H16 H 0.67460 0.46990 0.22690
C18 C 0.6755(7) 0.7004(9) 0.2989(4)
H17 H 0.72360 0.62180 0.31840
H18 H 0.61590 0.73410 0.33580
H19 H 0.73760 0.77210 0.28660
N1 N 0.2568(2) 0.7821(3) 0.09968(12)
O1 O 0.0961(3) 0.4786(2) 0.25049(13)
O2 O -0.0632(3) 0.7369(4) 0.16810(16)
O3 O 0.3762(2) 0.7442(2) 0.13550(11)
O4 O 0.4229(2) 0.5695(3) 0.30616(14)
#END
