
#######################################################################
#
#                 Cambridge Crystallographic Data Centre
#                                CCDC
#
#######################################################################
#
# If this CIF has been generated from an entry in the Cambridge
# Structural Database, then it will include bibliographic, chemical,
# crystal, experimental, refinement or atomic coordinate data resulting
# from the CCDC's data processing and validation procedures.
#
#######################################################################

data_CSD_CIF_NEJDAJ
_audit_creation_date 2012-10-03
_audit_creation_method CSD-ConQuest-V1
_database_code_CSD NEJDAJ
_database_code_depnum_ccdc_archive 'CCDC 857729'
_chemical_formula_sum 'C24 H34 N2 O9'
_chemical_formula_moiety
;
C24 H34 N2 O9
;
_journal_coden_Cambridge 16
_journal_volume 68
_journal_year 2012
_journal_page_first 6504
_journal_name_full 'Tetrahedron '
loop_
_publ_author_name
"J.Barbion"
"G.Sorin"
"M.Selkti"
"E.Kellenberger"
"R.Baati"
"S.Santoro"
"F.Himo"
"A.Pancrazi"
"M.-I.Lannou"
"J.Ardisson"
_chemical_name_systematic
;
t-Butyl 
4-hydroxy-4,8,8-trimethyl-3-(2-((4-nitrobenzoyl)oxy)ethyl)-7,9-dioxa-1-azaspir
o[4.5]decane-1-carboxylate
;
_cell_volume   1276.664
_exptl_crystal_colour 'colorless'
_exptl_crystal_density_diffrn 1.286
_exptl_crystal_description 'parallelepipedic'
_diffrn_ambient_temperature 293
#These two values have been output from a single CSD field.
_refine_ls_R_factor_gt 0.0489
_refine_ls_wR_factor_gt 0.0489
_symmetry_cell_setting triclinic
_symmetry_space_group_name_H-M 'P -1'
_symmetry_Int_Tables_number 2
loop_
_symmetry_equiv_pos_site_id
_symmetry_equiv_pos_as_xyz
1 x,y,z
2 -x,-y,-z
_cell_length_a 6.295(2)
_cell_length_b 10.072(4)
_cell_length_c 20.377(5)
_cell_angle_alpha 84.483(7)
_cell_angle_beta 89.566(4)
_cell_angle_gamma 83.102(8)
_cell_formula_units_Z 2
loop_
_atom_type_symbol
_atom_type_radius_bond
C 0.68
H 0.23
N 0.68
O 0.68
loop_
_atom_site_label
_atom_site_type_symbol
_atom_site_fract_x
_atom_site_fract_y
_atom_site_fract_z
O1 O 0.19056(19) 0.26275(12) 0.12427(6)
O2 O 0.1807(2) -0.16055(14) 0.29345(7)
H1 H 0.16150 -0.17810 0.33300
O3 O -0.2387(2) -0.22048(12) 0.37601(7)
O4 O -0.4194(2) 0.32209(12) 0.27403(6)
N1 N -0.2389(2) 0.11797(14) 0.28503(7)
O5 O 0.0342(2) -0.11876(14) 0.41838(6)
O6 O -0.4810(3) 0.18057(15) 0.36359(8)
C1 C 0.1290(3) 0.48943(18) 0.08191(8)
C2 C 0.2809(3) 0.36443(19) 0.09380(9)
C3 C -0.1355(3) 0.72587(18) 0.06128(8)
C4 C 0.0008(3) -0.07327(16) 0.26573(9)
C5 C 0.0823(3) 0.05281(17) 0.23036(9)
H2 H 0.18480 0.08320 0.25990
C6 C -0.0324(3) 0.00669(19) 0.38161(9)
H3 H 0.09190 0.05190 0.36960
H4 H -0.12440 0.06330 0.40870
O7 O 0.4663(2) 0.35593(16) 0.07852(9)
C7 C -0.3320(3) -0.09932(18) 0.33993(10)
H5 H -0.43460 -0.05040 0.36730
H6 H -0.40650 -0.12000 0.30140
C8 C -0.3875(3) 0.20549(18) 0.31226(10)
C9 C -0.1149(3) 0.15650(17) 0.22599(9)
H7 H -0.07570 0.24660 0.22690
H8 H -0.19560 0.15240 0.18600
C10 C 0.1963(3) 0.03060(19) 0.16512(10)
H9 H 0.28710 -0.05470 0.17040
H10 H 0.08970 0.02420 0.13180
N2 N -0.2780(3) 0.85312(17) 0.05304(8)
C11 C 0.3308(3) 0.13858(19) 0.14072(10)
H11 H 0.43210 0.15110 0.17460
H12 H 0.41050 0.11290 0.10210
C12 C -0.2143(3) 0.6159(2) 0.09283(9)
H13 H -0.35570 0.62160 0.10700
C13 C -0.1537(3) -0.01373(16) 0.31885(8)
C14 C -0.0810(3) 0.49662(19) 0.10331(9)
H14 H -0.13210 0.42110 0.12470
C15 C 0.2029(3) 0.6017(2) 0.04869(9)
H15 H 0.34280 0.59620 0.03320
C16 C 0.0703(3) 0.7218(2) 0.03836(10)
H16 H 0.11930 0.79760 0.01650
C17 C -0.1347(4) -0.1988(2) 0.43489(10)
C18 C -0.1094(4) -0.1517(2) 0.21885(10)
H17 H -0.01050 -0.18010 0.18540
H18 H -0.22980 -0.09560 0.19860
H19 H -0.15770 -0.22910 0.24290
C19 C -0.5484(3) 0.44015(18) 0.2977(1)
O8 O -0.2034(3) 0.95370(18) 0.03253(12)
O9 O -0.4631(3) 0.85362(18) 0.0698(1)
C20 C -0.5185(4) 0.5484(2) 0.24277(13)
H20 H -0.36940 0.55940 0.23880
H21 H -0.59790 0.63160 0.25260
H22 H -0.56930 0.52300 0.20200
C21 C -0.4578(5) 0.4729(3) 0.36169(13)
H23 H -0.49000 0.40740 0.39660
H24 H -0.52030 0.56050 0.37140
H25 H -0.30550 0.47160 0.35790
C22 C -0.2893(5) -0.1361(3) 0.48396(12)
H26 H -0.33490 -0.04420 0.46830
H27 H -0.21930 -0.13960 0.52590
H28 H -0.41150 -0.18480 0.48870
C23 C -0.0271(6) -0.3353(3) 0.46150(15)
H29 H -0.13340 -0.39530 0.47070
H30 H 0.04880 -0.32720 0.50130
H31 H 0.07160 -0.37000 0.42940
C24 C -0.7795(4) 0.4160(3) 0.30327(15)
H32 H -0.82590 0.38820 0.26250
H33 H -0.86520 0.49750 0.31250
H34 H -0.79480 0.34700 0.33830
#END
