
#######################################################################
#
#                 Cambridge Crystallographic Data Centre
#                                CCDC
#
#######################################################################
#
# If this CIF has been generated from an entry in the Cambridge
# Structural Database, then it will include bibliographic, chemical,
# crystal, experimental, refinement or atomic coordinate data resulting
# from the CCDC's data processing and validation procedures.
#
#######################################################################

data_CSD_CIF_NEJFIT
_audit_creation_date 2012-10-03
_audit_creation_method CSD-ConQuest-V1
_database_code_CSD NEJFIT
_database_code_depnum_ccdc_archive 'CCDC 876854'
_chemical_formula_sum 'C25 H29 N1 O5'
_chemical_formula_moiety
;
C25 H29 N1 O5
;
_journal_coden_Cambridge 16
_journal_volume 68
_journal_year 2012
_journal_page_first 6674
_journal_name_full 'Tetrahedron '
loop_
_publ_author_name
"E.Marca"
"I.Delso"
"T.Tejero"
"P.Merino"
_chemical_name_systematic
;
(2R,4S,6S)-2-((3aR,5R,6R,6aR)-6-(benzyloxy)-2,2-dimethyl-tetrahydrofuro[2,3-d]
[1,3]dioxol-5-yl)-6-phenyl-7-oxa-1-azabicyclo[2.2.1]heptane
;
_chemical_melting_point 368
_cell_volume   2173.463
_exptl_crystal_colour 'colorless'
_exptl_crystal_density_diffrn 1.294
_exptl_special_details
;
Study temperature given as 293 K and 150 K in the CIF

;
_exptl_crystal_description 'needle'
_diffrn_ambient_temperature 150
#These two values have been output from a single CSD field.
_refine_ls_R_factor_gt 0.0399
_refine_ls_wR_factor_gt 0.0399
loop_
_citation_database_id_CSD
_citation_special_details
NEJFOZ "is a stereoisomer of this entry"
_symmetry_cell_setting orthorhombic
_symmetry_space_group_name_H-M 'P 21 21 21'
_symmetry_Int_Tables_number 19
loop_
_symmetry_equiv_pos_site_id
_symmetry_equiv_pos_as_xyz
1 x,y,z
2 1/2-x,-y,1/2+z
3 1/2+x,1/2-y,-z
4 -x,1/2+y,1/2-z
_cell_length_a 9.276
_cell_length_b 11.327
_cell_length_c 20.686
_cell_angle_alpha 90
_cell_angle_beta 90
_cell_angle_gamma 90
_cell_formula_units_Z 4
loop_
_atom_type_symbol
_atom_type_radius_bond
C 0.68
H 0.23
N 0.68
O 0.68
loop_
_atom_site_label
_atom_site_type_symbol
_atom_site_fract_x
_atom_site_fract_y
_atom_site_fract_z
O1 O -0.14977(16) 0.38479(13) 0.58014(7)
O2 O -0.27664(18) 0.22240(15) 0.54057(9)
O3 O -0.11799(15) 0.11479(13) 0.59902(7)
O4 O 0.10697(14) 0.21365(13) 0.66748(6)
O5 O 0.21504(14) 0.48748(13) 0.65507(7)
N1 N 0.08173(18) 0.53809(15) 0.62957(8)
C1 C -0.1460(3) 0.2853(2) 0.53929(10)
H1 H -0.12170 0.30850 0.49500
C2 C -0.0342(2) 0.20011(19) 0.56594(9)
H2 H 0.02850 0.16620 0.53260
C3 C 0.0465(2) 0.27647(19) 0.61508(9)
H3 H 0.12190 0.32170 0.59310
C4 C -0.0711(2) 0.35959(19) 0.63839(9)
H4 H -0.13440 0.31670 0.66820
C5 C -0.2535(2) 0.10699(19) 0.56688(10)
C6 C -0.3669(3) 0.0802(3) 0.61567(13)
H5 H -0.45880 0.07440 0.59460
H6 H -0.37000 0.14220 0.64730
H7 H -0.34510 0.00670 0.63660
C7 C -0.2490(3) 0.0177(2) 0.51335(12)
H8 H -0.34150 0.01410 0.49270
H9 H -0.22540 -0.05830 0.53080
H10 H -0.17720 0.04040 0.48230
C8 C 0.2419(2) 0.1615(2) 0.65232(11)
H11 H 0.30700 0.22090 0.63530
H12 H 0.22910 0.10090 0.61970
C9 C 0.3039(2) 0.1082(2) 0.71261(11)
C10 C 0.3431(2) -0.0097(2) 0.71515(12)
H13 H 0.33000 -0.05740 0.67900
C11 C 0.4013(2) -0.0567(2) 0.77057(14)
H14 H 0.42860 -0.13560 0.77150
C12 C 0.4193(2) 0.0125(3) 0.82466(13)
H15 H 0.45840 -0.01960 0.86210
C13 C 0.3792(3) 0.1290(3) 0.82301(13)
H16 H 0.39020 0.17590 0.85960
C14 C 0.3222(2) 0.1770(2) 0.76679(12)
H17 H 0.29620 0.25620 0.76580
C15 C -0.0266(2) 0.47462(19) 0.66963(9)
H18 H -0.11190 0.52480 0.67500
C16 C 0.0472(2) 0.4576(2) 0.7363(1)
H19 H -0.00480 0.49780 0.77050
H20 H 0.05770 0.37480 0.74720
C17 C 0.1915(2) 0.5153(2) 0.72282(10)
C18 C 0.1724(3) 0.6486(2) 0.72026(10)
H21 H 0.26450 0.68930 0.72000
H22 H 0.11450 0.67720 0.75600
C19 C 0.0926(2) 0.66208(19) 0.65477(10)
H23 H -0.00470 0.69220 0.66290
C20 C 0.1660(2) 0.74149(19) 0.60662(10)
C21 C 0.0934(3) 0.8352(2) 0.57852(13)
H24 H -0.00160 0.85070 0.59020
C22 C 0.1609(4) 0.9057(2) 0.53339(15)
H25 H 0.11020 0.96750 0.51440
C23 C 0.3024(4) 0.8860(2) 0.51595(12)
H26 H 0.34710 0.93420 0.48560
C24 C 0.3761(3) 0.7946(2) 0.54399(12)
H27 H 0.47180 0.78080 0.53280
C25 C 0.3086(2) 0.7229(2) 0.58884(11)
H28 H 0.35970 0.66100 0.60750
#END
