
#######################################################################
#
#                 Cambridge Crystallographic Data Centre
#                                CCDC
#
#######################################################################
#
# If this CIF has been generated from an entry in the Cambridge
# Structural Database, then it will include bibliographic, chemical,
# crystal, experimental, refinement or atomic coordinate data resulting
# from the CCDC's data processing and validation procedures.
#
#######################################################################

data_CSD_CIF_NEJGIS
_audit_creation_date 1998-04-22
_audit_creation_method CSD-ConQuest-V1
_database_code_CSD NEJGIS
_chemical_formula_sum 'C18 H18 N4 O6'
_chemical_formula_moiety
;
C18 H18 N4 O6
;
_journal_coden_Cambridge 24
_journal_volume 38
_journal_year 1997
_journal_page_first 3573
_journal_name_full 'Tetrahedron Lett. '
loop_
_publ_author_name
"A.Star"
"N.G.Lemcoff"
"I.Goldberg"
"B.Fuchs"
_chemical_name_systematic
;
(2R,6R,9S;9,10-P)-cis-2,6-bis(p-Nitrophenyl)-1,5-dioxa-3,7-diazadecalin
;
_cell_volume   1761.684
_exptl_crystal_density_diffrn 1.457
_diffrn_ambient_temperature ?
_diffrn_special_details
;
The study was carried out at room temperature,in the range 283-303K

;
#These two values have been output from a single CSD field.
_refine_ls_R_factor_gt 0.094
_refine_ls_wR_factor_gt 0.094
_symmetry_cell_setting orthorhombic
_symmetry_space_group_name_H-M 'P 21 21 21'
_symmetry_Int_Tables_number 19
loop_
_symmetry_equiv_pos_site_id
_symmetry_equiv_pos_as_xyz
1 x,y,z
2 1/2-x,-y,1/2+z
3 1/2+x,1/2-y,-z
4 -x,1/2+y,1/2-z
_cell_length_a 6.210(3)
_cell_length_b 6.905(1)
_cell_length_c 41.084(5)
_cell_angle_alpha 90
_cell_angle_beta 90
_cell_angle_gamma 90
_cell_formula_units_Z 4
loop_
_atom_type_symbol
_atom_type_radius_bond
C 0.68
H 0.23
N 0.68
O 0.68
loop_
_atom_site_label
_atom_site_type_symbol
_atom_site_fract_x
_atom_site_fract_y
_atom_site_fract_z
O1 O 0.3539(5) 0.3689(4) 0.1638(1)
C1 C 0.4745(8) 0.2435(7) 0.1844(1)
N1 N 0.5099(6) 0.0549(5) 0.1714(1)
C2 C 0.6211(8) 0.0696(8) 0.1399(1)
O2 O 0.3260(5) 0.1154(5) 0.1042(1)
C3 C 0.2068(9) 0.2397(8) 0.0831(1)
N2 N 0.1281(7) 0.4120(6) 0.0993(1)
C4 C 0.3109(10) 0.5215(7) 0.1128(1)
C5 C 0.4590(8) 0.3990(8) 0.1331(1)
C6 C 0.5148(8) 0.2083(8) 0.1162(1)
C7 C 0.3605(7) 0.2383(6) 0.2168(1)
C8 C 0.1528(7) 0.3095(7) 0.2210(1)
C9 C 0.0591(7) 0.3160(7) 0.2513(1)
C10 C 0.1746(7) 0.2493(6) 0.2776(1)
C11 C 0.3814(7) 0.1750(6) 0.2748(1)
C12 C 0.4706(8) 0.1702(6) 0.2441(1)
N3 N 0.0764(7) 0.2554(6) 0.3101(1)
O3 O 0.1507(7) 0.1574(6) 0.3316(1)
O4 O -0.0785(8) 0.3605(9) 0.3138(1)
C13 C 0.0257(8) 0.1257(7) 0.0682(1)
C14 C -0.1086(9) 0.2161(8) 0.0458(1)
C15 C -0.2804(10) 0.1156(9) 0.0324(1)
C16 C -0.3118(9) -0.0740(9) 0.0410(1)
C17 C -0.1801(10) -0.1675(8) 0.0624(1)
C18 C -0.0121(9) -0.0663(8) 0.0761(1)
N4 N -0.4978(9) -0.1796(9) 0.0272(1)
O5 O -0.6160(8) -0.0940(9) 0.0087(1)
O6 O -0.5252(9) -0.3475(8) 0.0355(1)
H1 H 0.61580 0.30320 0.18790
H2 H 0.36910 0.00000 0.16620
H3 H 0.62700 -0.05800 0.13010
H4 H 0.76810 0.11170 0.14370
H5 H 0.30300 0.28080 0.06550
H6 H 0.01940 0.37820 0.11630
H7 H 0.25580 0.62650 0.12610
H8 H 0.39230 0.57840 0.09510
H9 H 0.59250 0.47130 0.13680
H10 H 0.61320 0.23390 0.09810
H11 H 0.07620 0.35340 0.20300
H12 H -0.07960 0.36440 0.25390
H13 H 0.45660 0.13030 0.29290
H14 H 0.60840 0.11990 0.24150
H15 H -0.08340 0.34400 0.03980
H16 H -0.37290 0.17600 0.01780
H17 H -0.20330 -0.29690 0.06760
H18 H 0.07770 -0.12790 0.09100
#END
