
#######################################################################
#
#                 Cambridge Crystallographic Data Centre
#                                CCDC
#
#######################################################################
#
# If this CIF has been generated from an entry in the Cambridge
# Structural Database, then it will include bibliographic, chemical,
# crystal, experimental, refinement or atomic coordinate data resulting
# from the CCDC's data processing and validation procedures.
#
#######################################################################

data_CSD_CIF_NEJRIE
_audit_creation_date 2006-08-30
_audit_creation_method CSD-ConQuest-V1
_database_code_CSD NEJRIE
_database_code_depnum_ccdc_archive 'CCDC 612490'
_chemical_formula_sum 'C21 H24 N2 O9'
_chemical_formula_moiety
;
C21 H24 N2 O9
;
_journal_coden_Cambridge 1336
_journal_volume 8
_journal_year 2006
_journal_page_first 2039
_journal_name_full 'Org.Lett. '
loop_
_publ_author_name
"N.Noguchi"
"M.Nakada"
_chemical_name_systematic
;
(-)-3,5-dinitrobenzoic acid 
(4aR,5S,7aS,3'S,5'R)-7a-methylhexahydrocyclopenta(c)pyran-3(1H)-one-5-spiro-2'
-(3'-methyltetrahydrofuran)-5'-ylmethyl ester
;
_chemical_melting_point 430.15
_cell_volume   1041.807
_exptl_crystal_colour 'colorless'
_exptl_crystal_density_diffrn 1.429
_exptl_crystal_description 'block'
_diffrn_ambient_temperature 123.1
#These two values have been output from a single CSD field.
_refine_ls_R_factor_gt 0.032
_refine_ls_wR_factor_gt 0.032
_symmetry_cell_setting monoclinic
_symmetry_space_group_name_H-M 'P 21'
_symmetry_Int_Tables_number 4
loop_
_symmetry_equiv_pos_site_id
_symmetry_equiv_pos_as_xyz
1 x,y,z
2 -x,1/2+y,-z
_cell_length_a 7.005(2)
_cell_length_b 9.105(3)
_cell_length_c 16.371(6)
_cell_angle_alpha 90
_cell_angle_beta 93.84(1)
_cell_angle_gamma 90
_cell_formula_units_Z 2
loop_
_atom_type_symbol
_atom_type_radius_bond
C 0.68
H 0.23
N 0.68
O 0.68
loop_
_atom_site_label
_atom_site_type_symbol
_atom_site_fract_x
_atom_site_fract_y
_atom_site_fract_z
O1 O 0.1687(2) 0.5724(1) 0.74759(7)
O2 O 0.6800(2) 0.9089(1) 0.75808(8)
O3 O 0.3976(2) 0.8287(1) 0.79896(7)
O4 O 0.5616(2) 0.2328(1) 0.57324(8)
O5 O 0.2418(2) 0.8537(2) 1.07608(9)
O6 O 1.1211(2) 1.1323(2) 0.9716(1)
O7 O 0.5751(2) 0.3813(2) 0.46951(9)
O8 O 1.0175(2) 1.1839(2) 1.0894(1)
O9 O 0.4293(2) 0.9584(3) 1.1674(1)
N1 N 0.3903(2) 0.9180(2) 1.0982(1)
N2 N 1.0008(2) 1.1257(2) 1.0221(1)
C1 C 0.3352(3) 0.7940(2) 0.7148(1)
C2 C 0.3344(3) 0.4432(2) 0.5607(1)
C3 C 0.7858(3) 1.0013(2) 0.9200(1)
C4 C 0.2855(2) 0.4012(2) 0.6462(1)
C5 C 0.8218(3) 1.0444(2) 1.0003(1)
C6 C 0.6977(3) 1.0195(2) 1.0610(1)
C7 C 0.5296(3) 0.9480(2) 1.0365(1)
C8 C 0.4826(3) 0.9045(2) 0.9568(1)
C9 C 0.1453(2) 0.7176(2) 0.7144(1)
C10 C 0.6128(3) 0.9308(2) 0.8984(1)
C11 C 0.0323(3) 0.3295(2) 0.7336(1)
C12 C 0.1392(3) 0.1626(2) 0.5853(1)
C13 C -0.0383(2) 0.5471(2) 0.6301(1)
C14 C 0.1924(3) 0.2144(2) 0.7368(1)
C15 C 0.0533(2) 0.6996(2) 0.6276(1)
C16 C 0.2734(2) 0.2327(2) 0.6522(1)
C17 C -0.2338(2) 0.5589(2) 0.6651(1)
C18 C 0.4760(3) 0.1782(2) 0.6465(1)
C19 C 0.5714(2) 0.8888(2) 0.8107(1)
C20 C 0.1063(2) 0.4637(2) 0.6868(1)
C21 C 0.4979(3) 0.3518(2) 0.5308(1)
H1 H 0.74120 1.05330 1.12480
H2 H 0.87450 1.02020 0.87630
H3 H 0.35510 0.85720 0.94050
H4 H 0.31990 0.89470 0.68790
H5 H 0.43890 0.73270 0.68590
H6 H 0.56320 0.21340 0.69490
H7 H 0.48520 0.07130 0.64490
H8 H 0.39210 0.41020 0.69100
H9 H 0.29880 0.22400 0.78200
H10 H 0.15080 0.10700 0.74400
H11 H -0.00490 0.35930 0.78860
H12 H -0.08490 0.28230 0.70960
H13 H 0.05390 0.77040 0.75030
H14 H -0.04990 0.76990 0.61780
H15 H 0.15610 0.71190 0.59180
H16 H -0.31360 0.61250 0.62740
H17 H -0.29360 0.46150 0.67340
H18 H -0.04590 0.50470 0.57190
H19 H 0.37290 0.54550 0.55430
H20 H 0.24190 0.43450 0.52130
H21 H 0.01720 0.21980 0.57810
H22 H 0.19620 0.16480 0.53310
H23 H 0.11120 0.05580 0.60010
H24 H -0.20360 0.61350 0.71840
#END
