
#######################################################################
#
#                 Cambridge Crystallographic Data Centre
#                                CCDC
#
#######################################################################
#
# If this CIF has been generated from an entry in the Cambridge
# Structural Database, then it will include bibliographic, chemical,
# crystal, experimental, refinement or atomic coordinate data resulting
# from the CCDC's data processing and validation procedures.
#
#######################################################################

data_CSD_CIF_NEJZOS
_audit_creation_date 2006-08-31
_audit_creation_method CSD-ConQuest-V1
_database_code_CSD NEJZOS
_database_code_depnum_ccdc_archive 'CCDC 611765'
_chemical_formula_sum 'C25 H25 N1 O7'
_chemical_formula_moiety
;
C25 H25 N1 O7
;
_journal_coden_Cambridge 4
_journal_volume 128
_journal_year 2006
_journal_page_first 5312
_journal_name_full 'J.Am.Chem.Soc. '
loop_
_publ_author_name
"M.Janka"
"Wei He"
"I.E.Haedicke"
"F.R.Fronczek"
"A.J.Frontier"
"R.Eisenberg"
_chemical_name_systematic
;
Methyl 
5-(4-methoxyphenyl)-6-(2-nitro-1-phenylethyl)-7-oxo-2,3,4,5,6,7-hexahydrocyclo
penta(b)pyran-6-carboxylate
;
_cell_volume   2215.871
_exptl_crystal_colour 'colorless'
_exptl_crystal_density_diffrn 1.353
_exptl_crystal_description 'prism'
_diffrn_ambient_temperature 110
#These two values have been output from a single CSD field.
_refine_ls_R_factor_gt 0.045
_refine_ls_wR_factor_gt 0.045
_symmetry_cell_setting monoclinic
_symmetry_space_group_name_H-M 'P 21/c'
_symmetry_Int_Tables_number 14
loop_
_symmetry_equiv_pos_site_id
_symmetry_equiv_pos_as_xyz
1 x,y,z
2 -x,1/2+y,1/2-z
3 -x,-y,-z
4 x,-1/2-y,-1/2+z
_cell_length_a 9.8953(15)
_cell_length_b 17.475(2)
_cell_length_c 13.3535(10)
_cell_angle_alpha 90
_cell_angle_beta 106.336(7)
_cell_angle_gamma 90
_cell_formula_units_Z 4
loop_
_atom_type_symbol
_atom_type_radius_bond
C 0.68
H 0.23
N 0.68
O 0.68
loop_
_atom_site_label
_atom_site_type_symbol
_atom_site_fract_x
_atom_site_fract_y
_atom_site_fract_z
O1 O 0.50009(9) 0.04676(5) 0.09667(7)
O2 O 0.71221(9) 0.16229(5) 0.11253(7)
O3 O 0.50815(9) 0.29447(5) 0.11187(6)
O4 O 0.65132(9) 0.35750(5) 0.24777(7)
O5 O 1.03421(12) 0.28965(8) 0.46232(9)
O6 O 1.11873(11) 0.18992(8) 0.40458(11)
O7 O 0.08496(9) 0.41922(6) 0.27678(7)
N1 N 1.02937(12) 0.23927(8) 0.39802(10)
C1 C 0.40973(14) -0.01207(7) 0.12054(11)
H1 H 0.46600 -0.04450 0.17800
H2 H 0.37360 -0.04510 0.05850
C2 C 0.28586(13) 0.02168(7) 0.15207(11)
H3 H 0.22590 -0.02020 0.16550
H4 H 0.22810 0.05330 0.09430
C3 C 0.33738(13) 0.07102(7) 0.25033(10)
H5 H 0.25910 0.10260 0.26030
H6 H 0.37280 0.03810 0.31250
C4 C 0.45301(12) 0.12137(7) 0.23633(9)
C5 C 0.50599(11) 0.19304(7) 0.29726(8)
H7 H 0.54650 0.17810 0.37200
C6 C 0.63255(11) 0.21937(7) 0.25409(8)
C7 C 0.63163(12) 0.16146(7) 0.16713(8)
C8 C 0.52106(12) 0.10588(7) 0.16441(9)
C9 C 0.60157(12) 0.29876(7) 0.20588(9)
C10 C 0.44821(13) 0.36650(8) 0.06633(10)
H8 H 0.41040 0.39430 0.11630
H9 H 0.37220 0.35650 0.00260
H10 H 0.52140 0.39740 0.04930
C11 C 0.77304(12) 0.21952(7) 0.34422(9)
H11 H 0.76590 0.26220 0.39230
C12 C 0.90097(13) 0.23683(8) 0.30473(10)
H12 H 0.91200 0.19660 0.25550
H13 H 0.88840 0.28660 0.26790
C13 C 0.79420(11) 0.14647(7) 0.40838(9)
C14 C 0.81210(12) 0.07519(7) 0.36591(9)
H14 H 0.81460 0.07210 0.29540
C15 C 0.82625(13) 0.00901(7) 0.42547(10)
H15 H 0.83710 -0.03900 0.39540
C16 C 0.82451(13) 0.01289(8) 0.5290(1)
H16 H 0.83290 -0.03250 0.56950
C17 C 0.81043(13) 0.08314(8) 0.57293(9)
H17 H 0.81130 0.08600 0.64420
C18 C 0.79497(12) 0.14954(7) 0.51332(9)
H18 H 0.78480 0.19740 0.54410
C19 C 0.39222(11) 0.25253(7) 0.29283(8)
C20 C 0.40614(12) 0.30291(7) 0.37570(9)
H19 H 0.48570 0.29850 0.43500
C21 C 0.30676(12) 0.35967(7) 0.37423(9)
H20 H 0.31880 0.39380 0.43150
C22 C 0.18959(12) 0.36574(7) 0.28777(9)
C23 C 0.17267(12) 0.31499(7) 0.20421(9)
H21 H 0.09200 0.31870 0.14560
C24 C 0.27314(12) 0.25942(7) 0.20672(9)
H22 H 0.26120 0.22550 0.14930
C25 C 0.09975(15) 0.47369(8) 0.35862(11)
H23 H 0.08890 0.44790 0.42110
H24 H 0.02730 0.51330 0.33660
H25 H 0.19320 0.49730 0.37440
#END
