
#######################################################################
#
#                 Cambridge Crystallographic Data Centre
#                                CCDC
#
#######################################################################
#
# If this CIF has been generated from an entry in the Cambridge
# Structural Database, then it will include bibliographic, chemical,
# crystal, experimental, refinement or atomic coordinate data resulting
# from the CCDC's data processing and validation procedures.
#
#######################################################################

data_CSD_CIF_NEKSIF
_audit_creation_date 2001-11-12
_audit_creation_method CSD-ConQuest-V1
_database_code_CSD NEKSIF
_database_code_depnum_ccdc_archive 'CCDC 162025'
_chemical_formula_sum 'C13 H18 N3 O1'
_chemical_formula_moiety
;
C13 H18 N3 O1
;
_journal_coden_Cambridge 580
_journal_volume 20
_journal_year 2001
_journal_page_first 1465
_journal_name_full 'Polyhedron '
loop_
_publ_author_name
"P.M.Lahti"
"J.R.Ferrer"
"C.George"
"P.Oliete"
"M.Julier"
"F.Palacio"
_chemical_name_systematic
;
2-(N-t-Butyl-N-aminoxyl)-5,6-dimethylbenzimidazole
;
_chemical_melting_point 390.15
_cell_volume    642.886
_exptl_crystal_colour 'ruby'
_exptl_crystal_density_diffrn 1.2
_exptl_special_details
;
Melts with decomposition.

;
_exptl_crystal_description 'irregular'
_exptl_crystal_preparation 'diethyl ether/hexane 1'
_diffrn_ambient_temperature 295
#These two values have been output from a single CSD field.
_refine_ls_R_factor_gt 0.0441
_refine_ls_wR_factor_gt 0.0441
_symmetry_cell_setting triclinic
_symmetry_space_group_name_H-M 'P -1'
_symmetry_Int_Tables_number 2
loop_
_symmetry_equiv_pos_site_id
_symmetry_equiv_pos_as_xyz
1 x,y,z
2 -x,-y,-z
_cell_length_a 5.955(1)
_cell_length_b 10.888(1)
_cell_length_c 11.490(1)
_cell_angle_alpha 117.99(1)
_cell_angle_beta 96.06(1)
_cell_angle_gamma 96.48(1)
_cell_formula_units_Z 2
loop_
_atom_type_symbol
_atom_type_radius_bond
C 0.68
H 0.23
N 0.68
O 0.68
loop_
_atom_site_label
_atom_site_type_symbol
_atom_site_fract_x
_atom_site_fract_y
_atom_site_fract_z
C1 C 0.1787(4) 0.5195(2) 0.3016(2)
N1 N 0.2209(3) 0.4415(2) 0.36215(19)
C2 C 0.3687(4) 0.3561(2) 0.2939(2)
C3 C 0.4725(4) 0.2568(2) 0.3104(2)
H1 H 0.44590 0.23620 0.37820
C4 C 0.6167(4) 0.1886(2) 0.2239(2)
C5 C 0.7334(5) 0.0805(3) 0.2408(3)
H2 H 0.69030 0.07300 0.31570
H3 H 0.89700 0.10950 0.25650
H4 H 0.68720 -0.00970 0.16100
C6 C 0.6541(4) 0.2198(2) 0.1200(2)
C7 C 0.8126(4) 0.1452(3) 0.0256(3)
H5 H 0.81800 0.17790 -0.03870
H6 H 0.75620 0.04500 -0.02020
H7 H 0.96410 0.16550 0.07590
C8 C 0.5475(4) 0.3186(2) 0.1046(2)
H8 H 0.57050 0.33770 0.03550
C9 C 0.4051(4) 0.3895(2) 0.1928(2)
N2 N 0.2838(3) 0.49365(19) 0.19941(17)
N3 N 0.0350(3) 0.61741(19) 0.35054(17)
O1 O -0.0587(4) 0.6222(2) 0.44756(18)
C10 C -0.0051(4) 0.7226(2) 0.3038(2)
C11 C -0.1661(5) 0.8105(3) 0.3879(3)
H9 H -0.30960 0.75030 0.37210
H10 H -0.19250 0.88160 0.36370
H11 H -0.09810 0.85510 0.48100
C12 C -0.1158(5) 0.6443(3) 0.1568(2)
H12 H -0.25960 0.58650 0.14510
H13 H -0.01580 0.58540 0.10520
H14 H -0.14200 0.71140 0.12720
C13 C 0.2227(4) 0.8154(3) 0.3271(3)
H15 H 0.32310 0.75830 0.27400
H16 H 0.29150 0.86080 0.42020
H17 H 0.19800 0.88600 0.30190
H18 H 0.164(5) 0.445(3) 0.428(3)
#END
