
#######################################################################
#
#                 Cambridge Crystallographic Data Centre
#                                CCDC
#
#######################################################################
#
# If this CIF has been generated from an entry in the Cambridge
# Structural Database, then it will include bibliographic, chemical,
# crystal, experimental, refinement or atomic coordinate data resulting
# from the CCDC's data processing and validation procedures.
#
#######################################################################

data_CSD_CIF_NELLUO
_audit_creation_date 2017-12-04
_audit_creation_method CSD-ConQuest-V1
_database_code_CSD NELLUO
_database_code_depnum_ccdc_archive 'CCDC 1557946'
_chemical_formula_sum 'C18 H22 N4 O5'
_chemical_formula_moiety
;
C18 H22 N4 O5
;
_journal_coden_Cambridge 1220
_journal_volume 23
_journal_year 2017
_journal_page_first 13319
_journal_name_full 'Chem.-Eur.J. '
loop_
_publ_author_name
"R.Mendoza-Sanchez"
"V.B.Corless"
"Q.Nhu N.Nguyen"
"M.Bergeron-Brlek"
"J.Frost"
"Shinya Adachi"
"D.J.Tantillo"
"A.K.Yudin"
_chemical_name_systematic
;
(7S,12aS)-7-methyl-2-(4-nitrobenzyl)octahydropyrrolo[2,1-c][1,4,7]triazecine-1
,5,8(2H)-trione
;
_chemical_name_common
;
PEPSEQ C=3 PRO,UND,ALA-
;
_cell_volume    903.911
_exptl_crystal_colour 'colorless'
_exptl_crystal_density_diffrn 1.376
_exptl_special_details
;
Absolute configuration

;
_exptl_crystal_description 'needle'
_exptl_crystal_preparation 'acetonitrile/water'
_diffrn_ambient_temperature 147
#These two values have been output from a single CSD field.
_refine_ls_R_factor_gt 0.045
_refine_ls_wR_factor_gt 0.045
_symmetry_cell_setting monoclinic
_symmetry_space_group_name_H-M 'P 21'
_symmetry_Int_Tables_number 4
loop_
_symmetry_equiv_pos_site_id
_symmetry_equiv_pos_as_xyz
1 x,y,z
2 -x,1/2+y,-z
_cell_length_a 11.6779(7)
_cell_length_b 5.7166(3)
_cell_length_c 13.8325(9)
_cell_angle_alpha 90
_cell_angle_beta 101.801(5)
_cell_angle_gamma 90
_cell_formula_units_Z 2
loop_
_atom_type_symbol
_atom_type_radius_bond
C 0.68
H 0.23
N 0.68
O 0.68
loop_
_atom_site_label
_atom_site_type_symbol
_atom_site_fract_x
_atom_site_fract_y
_atom_site_fract_z
O1 O 0.6299(2) 0.3305(6) 0.8040(2)
O2 O 0.9201(2) 0.0175(4) 0.6733(2)
O3 O 0.6632(2) 0.3544(5) 0.5245(2)
O4 O 0.3007(3) 1.4091(6) 0.9651(3)
O5 O 0.1368(3) 1.3282(7) 0.8687(3)
N1 N 0.8525(3) 0.2971(5) 0.7608(2)
N2 N 0.8211(3) 0.5828(5) 0.5735(2)
N3 N 0.5963(2) 0.6543(5) 0.7096(2)
N4 N 0.2421(3) 1.2970(7) 0.8972(3)
C1 C 0.6681(3) 0.4975(6) 0.7639(3)
C2 C 0.8019(3) 0.5234(6) 0.7812(3)
H1 H 0.82580 0.65270 0.74080
C3 C 0.8532(4) 0.5545(7) 0.8917(3)
H2 H 0.93130 0.62910 0.90190
H3 H 0.80130 0.65280 0.92310
C4 C 0.8623(4) 0.3076(7) 0.9348(3)
H4 H 0.93360 0.29180 0.98720
H5 H 0.79320 0.27120 0.96320
C5 C 0.8681(3) 0.1452(6) 0.8490(3)
H6 H 0.94460 0.06430 0.85960
H7 H 0.80530 0.02630 0.84140
C6 C 0.8866(3) 0.2233(6) 0.6790(3)
C7 C 0.8999(3) 0.3849(7) 0.5942(3)
H8 H 0.88720 0.28710 0.53300
C8 C 1.0250(4) 0.4695(9) 0.6124(4)
H9 H 1.07800 0.33470 0.62140
H10 H 1.04100 0.56690 0.67190
H11 H 1.03730 0.56170 0.55560
C9 C 0.7054(3) 0.5527(6) 0.5437(3)
C10 C 0.6323(3) 0.7681(6) 0.5441(3)
H12 H 0.55120 0.73630 0.50870
H13 H 0.66410 0.89610 0.50910
C11 C 0.6318(3) 0.8436(6) 0.6501(3)
H14 H 0.71120 0.89740 0.68190
H15 H 0.57760 0.97720 0.64870
C12 C 0.4701(3) 0.6181(7) 0.6967(3)
H16 H 0.45550 0.45840 0.71910
H17 H 0.43410 0.62930 0.62550
C13 C 0.4119(3) 0.7935(6) 0.7531(3)
C14 C 0.2929(3) 0.8335(8) 0.7228(3)
H18 H 0.25010 0.74880 0.66800
C15 C 0.2345(4) 0.9951(8) 0.7708(3)
H19 H 0.15270 1.02050 0.75040
C16 C 0.3005(3) 1.1168(7) 0.8491(3)
C17 C 0.4171(3) 1.0785(8) 0.8823(3)
H20 H 0.45940 1.16250 0.93740
C18 C 0.4730(3) 0.9145(7) 0.8341(3)
H21 H 0.55410 0.88500 0.85690
H22 H 0.845(4) 0.719(8) 0.590(3)
#END
