
#######################################################################
#
#                 Cambridge Crystallographic Data Centre
#                                CCDC
#
#######################################################################
#
# If this CIF has been generated from an entry in the Cambridge
# Structural Database, then it will include bibliographic, chemical,
# crystal, experimental, refinement or atomic coordinate data resulting
# from the CCDC's data processing and validation procedures.
#
#######################################################################

data_CSD_CIF_NELMUN
_audit_creation_date 2006-08-31
_audit_creation_method CSD-ConQuest-V1
_database_code_CSD NELMUN
_database_code_depnum_ccdc_archive 'CCDC 263260'
_chemical_formula_sum 'C15 H18 N4 O6'
_chemical_formula_moiety
;
C15 H18 N4 O6
;
_journal_coden_Cambridge 95
_journal_year 2005
_journal_page_first 2414
_journal_name_full 'Izv.Akad.Nauk SSSR,Ser.Khim.(Russ.)(Russ.Chem.Bull.) '
loop_
_publ_author_name
"O.N.Kazheva"
"G.V.Shilov"
"O.A.D'yachenko"
"M.A.Mekh"
"V.I.Sorokin"
"V.A.Ozeryansky"
"A.F.Pozharsky"
_chemical_name_systematic
;
1-Dimethylamino-2,7-dimethoxy-8-methylamino-3,5-dinitronaphthalene
;
_cell_volume   1629.463
_exptl_crystal_density_diffrn 1.428
_exptl_crystal_preparation 'methanol'
_diffrn_ambient_temperature 295
#These two values have been output from a single CSD field.
_refine_ls_R_factor_gt 0.0545
_refine_ls_wR_factor_gt 0.0545
_symmetry_cell_setting monoclinic
_symmetry_space_group_name_H-M 'P 21/n'
_symmetry_Int_Tables_number 14
loop_
_symmetry_equiv_pos_site_id
_symmetry_equiv_pos_as_xyz
1 x,y,z
2 1/2-x,1/2+y,1/2-z
3 -x,-y,-z
4 -1/2+x,-1/2-y,-1/2+z
_cell_length_a 14.343(3)
_cell_length_b 7.7290(15)
_cell_length_c 14.882(3)
_cell_angle_alpha 90
_cell_angle_beta 99.00(3)
_cell_angle_gamma 90
_cell_formula_units_Z 4
loop_
_atom_type_symbol
_atom_type_radius_bond
C 0.68
H 0.23
N 0.68
O 0.68
loop_
_atom_site_label
_atom_site_type_symbol
_atom_site_fract_x
_atom_site_fract_y
_atom_site_fract_z
O1 O -0.1907(3) 0.1780(6) 0.5788(3)
O2 O -0.1677(3) 0.1600(7) 0.4414(3)
O3 O -0.0205(3) 0.1034(6) 0.2207(3)
O4 O 0.0779(3) 0.2978(5) 0.1922(2)
O5 O 0.0910(3) 0.3979(6) 0.7662(2)
O6 O 0.2382(2) 0.2659(4) 0.3267(2)
N1 N 0.2873(3) 0.3401(5) 0.5086(2)
N2 N 0.2226(3) 0.4402(7) 0.6561(3)
H1 H 0.263(4) 0.430(7) 0.614(4)
N3 N -0.1393(3) 0.1917(6) 0.5209(3)
N4 N 0.0408(3) 0.2122(6) 0.2451(3)
C1 C 0.1897(3) 0.3124(6) 0.4684(3)
C2 C 0.1672(4) 0.2704(6) 0.3777(3)
C3 C 0.0734(3) 0.2329(7) 0.3429(3)
C4 C 0.0055(3) 0.2244(6) 0.3957(3)
H2 H -0.05720 0.19180 0.36860
C5 C 0.0257(3) 0.2596(6) 0.4908(3)
C6 C 0.1195(3) 0.3147(6) 0.5278(3)
C7 C 0.1387(4) 0.3757(6) 0.6221(3)
C8 C 0.0671(4) 0.3520(6) 0.6764(3)
C9 C -0.0209(4) 0.2941(7) 0.6397(4)
H3 H -0.06800 0.28030 0.67840
C10 C -0.0433(3) 0.2509(7) 0.5490(3)
C11 C 0.2508(4) 0.5433(8) 0.7367(4)
H4 H 0.31700 0.56890 0.74430
H5 H 0.21540 0.64920 0.72980
H6 H 0.23690 0.48200 0.78910
C12 C 0.3399(3) 0.1777(7) 0.5298(3)
H7 H 0.30140 0.09710 0.55660
H8 H 0.35560 0.12990 0.47450
H9 H 0.39680 0.19980 0.57150
C13 C 0.3422(3) 0.4687(7) 0.4690(4)
H10 H 0.30620 0.57310 0.45670
H11 H 0.39910 0.49330 0.51020
H12 H 0.35790 0.42350 0.41320
C14 C 0.0402(4) 0.3270(7) 0.8306(3)
H13 H 0.06460 0.36990 0.89020
H14 H -0.02450 0.36180 0.81440
H15 H 0.04410 0.20300 0.83050
C15 C 0.2514(4) 0.1062(7) 0.2808(3)
H16 H 0.30340 0.12130 0.24810
H17 H 0.26530 0.01400 0.32410
H18 H 0.19560 0.07810 0.23880
#END
