
#######################################################################
#
#                 Cambridge Crystallographic Data Centre
#                                CCDC
#
#######################################################################
#
# If this CIF has been generated from an entry in the Cambridge
# Structural Database, then it will include bibliographic, chemical,
# crystal, experimental, refinement or atomic coordinate data resulting
# from the CCDC's data processing and validation procedures.
#
#######################################################################

data_CSD_CIF_NEPTIM
_audit_creation_date 2006-11-27
_audit_creation_method CSD-ConQuest-V1
_database_code_CSD NEPTIM
_database_code_depnum_ccdc_archive 'CCDC 621611'
_chemical_formula_sum 'C14 H17 N1 O4'
_chemical_formula_moiety
;
C14 H17 N1 O4
;
_journal_coden_Cambridge 35
_journal_volume 71
_journal_year 2006
_journal_page_first 5980
_journal_name_full 'J.Org.Chem. '
loop_
_publ_author_name
"Sk.Sahabuddin"
"A.Roy"
"M.G.B.Drew"
"B.G.Roy"
"B.Achari"
"S.B.Mandal"
_chemical_name_systematic
;
(1S,4S,7R,8S,9R,10S)-6-Benzyl-2,5-dioxa-6-azatricyclo(5.2.1.0^4,8^)decane-9,10
-diol
;
_chemical_melting_point 439.15
_cell_volume   1271.106
_exptl_crystal_colour 'white'
_exptl_crystal_density_diffrn 1.376
_exptl_special_details
;
Melting point range 439.15-440.15K

;
_exptl_crystal_description 'parallelepiped'
_diffrn_ambient_temperature 293
#These two values have been output from a single CSD field.
_refine_ls_R_factor_gt 0.0448
_refine_ls_wR_factor_gt 0.0448
_symmetry_cell_setting orthorhombic
_symmetry_space_group_name_H-M 'P 21 21 21'
_symmetry_Int_Tables_number 19
loop_
_symmetry_equiv_pos_site_id
_symmetry_equiv_pos_as_xyz
1 x,y,z
2 -x,1/2+y,1/2-z
3 1/2+x,1/2-y,-z
4 1/2-x,-y,1/2+z
_cell_length_a 6.240(9)
_cell_length_b 10.604(12)
_cell_length_c 19.21(2)
_cell_angle_alpha 90
_cell_angle_beta 90
_cell_angle_gamma 90
_cell_formula_units_Z 4
loop_
_atom_type_symbol
_atom_type_radius_bond
C 0.68
H 0.23
N 0.68
O 0.68
loop_
_atom_site_label
_atom_site_type_symbol
_atom_site_fract_x
_atom_site_fract_y
_atom_site_fract_z
N1 N 0.5025(3) 0.81554(19) 0.37114(14)
C1 C 0.2927(4) 0.75240(19) 0.36882(15)
H1 H 0.23690 0.73860 0.41590
C2 C 0.2972(4) 0.62585(19) 0.32650(16)
H2 H 0.44550 0.60510 0.31420
O1 O 0.2060(3) 0.52447(15) 0.36576(13)
H3 H 0.08180 0.54180 0.37590
C3 C 0.1699(4) 0.6539(2) 0.26027(15)
H4 H 0.10400 0.57690 0.24190
C4 C -0.0017(4) 0.7462(2) 0.28635(16)
H5 H -0.08120 0.78630 0.24830
O2 O -0.1363(3) 0.67642(16) 0.33198(12)
H6 H -0.22910 0.72300 0.34790
C5 C 0.1412(3) 0.83963(19) 0.32643(14)
H7 H 0.05980 0.89840 0.35560
O3 O 0.5120(3) 0.88980(16) 0.30743(12)
C6 C 0.2996(4) 0.9054(2) 0.27749(16)
H8 H 0.26460 0.99530 0.27380
C7 C 0.3012(6) 0.8459(2) 0.20597(18)
H9 H 0.17440 0.87240 0.18060
H10 H 0.42580 0.87520 0.18050
O4 O 0.3056(4) 0.71080(16) 0.20958(13)
C8 C 0.5321(5) 0.9026(3) 0.4313(2)
H11 H 0.66610 0.94730 0.42480
H12 H 0.54680 0.85180 0.47310
C9 C 0.3579(4) 0.9992(2) 0.44420(16)
C10 C 0.3494(5) 1.1081(2) 0.40405(17)
H13 H 0.45790 1.12440 0.37210
C11 C 0.1818(6) 1.1925(3) 0.41092(17)
H14 H 0.17790 1.26440 0.38320
C12 C 0.0221(6) 1.1711(3) 0.4580(2)
H15 H -0.09210 1.22710 0.46140
C13 C 0.0300(5) 1.0676(3) 0.5001(2)
H16 H -0.07640 1.05460 0.53320
C14 C 0.1982(6) 0.9810(3) 0.49344(17)
H17 H 0.20280 0.91060 0.52230
#END
