
#######################################################################
#
#                 Cambridge Crystallographic Data Centre
#                                CCDC
#
#######################################################################
#
# If this CIF has been generated from an entry in the Cambridge
# Structural Database, then it will include bibliographic, chemical,
# crystal, experimental, refinement or atomic coordinate data resulting
# from the CCDC's data processing and validation procedures.
#
#######################################################################

data_CSD_CIF_NEQFAS
_audit_creation_date 2013-02-22
_audit_creation_method CSD-ConQuest-V1
_database_code_CSD NEQFAS
_database_code_depnum_ccdc_archive 'CCDC 920307'
_chemical_formula_sum 'C16 H19 N5 O7'
_chemical_formula_moiety
;
C16 H19 N5 O7
;
_journal_coeditor_code "IUCr RZ5033"
_journal_coden_Cambridge 1370
_journal_volume 69
_journal_year 2013
_journal_page_first o144
_journal_name_full 'Acta Crystallogr.,Sect.E:Struct.Rep.Online '
loop_
_publ_author_name
"K.Eichstaedt"
"T.Olszewska"
"M.Gdaniec"
_chemical_name_systematic
;
(R,R)-1-Acetyl-1'-(2,4,6-trinitrophenyl)-2,2'-bipyrrolidine
;
_chemical_name_common
;
(R,R)-1-(1'-(2,4,6-Trinitrophenyl)-2,2'-bipyrrolidin-1-yl)ethanone
;
_cell_volume   1788.634
_exptl_crystal_colour 'orange'
_exptl_crystal_density_diffrn 1.461
_exptl_crystal_description 'tabloid'
_diffrn_ambient_temperature 293
#These two values have been output from a single CSD field.
_refine_ls_R_factor_gt 0.0432
_refine_ls_wR_factor_gt 0.0432
_symmetry_cell_setting orthorhombic
_symmetry_space_group_name_H-M 'P 21 21 21'
_symmetry_Int_Tables_number 19
loop_
_symmetry_equiv_pos_site_id
_symmetry_equiv_pos_as_xyz
1 x,y,z
2 1/2-x,-y,1/2+z
3 -x,1/2+y,1/2-z
4 1/2+x,1/2-y,-z
_cell_length_a 8.1989(5)
_cell_length_b 10.4442(6)
_cell_length_c 20.8877(13)
_cell_angle_alpha 90
_cell_angle_beta 90
_cell_angle_gamma 90
_cell_formula_units_Z 4
loop_
_atom_type_symbol
_atom_type_radius_bond
C 0.68
H 0.23
N 0.68
O 0.68
loop_
_atom_site_label
_atom_site_type_symbol
_atom_site_fract_x
_atom_site_fract_y
_atom_site_fract_z
N1 N 0.6350(3) 0.9926(2) 0.95416(11)
C1 C 0.7856(4) 1.0547(3) 0.93068(14)
H1 H 0.87400 0.99150 0.93090
C2 C 0.8200(5) 1.1543(3) 0.98208(15)
H2 H 0.93610 1.17040 0.98600
H3 H 0.76470 1.23430 0.97270
C3 C 0.7528(5) 1.0932(4) 1.04212(16)
H4 H 0.73350 1.15660 1.07520
H5 H 0.82640 1.02830 1.05850
C4 C 0.5943(5) 1.0343(4) 1.01938(16)
H6 H 0.56280 0.96230 1.04600
H7 H 0.50680 1.09680 1.01910
C5 C 0.7620(4) 1.1031(3) 0.86178(15)
H8 H 0.72690 1.03130 0.83490
N2 N 0.9150(4) 1.1543(3) 0.83607(13)
C6 C 0.9020(6) 1.2884(4) 0.81637(19)
H9 H 0.89980 1.29570 0.77010
H10 H 0.99280 1.33810 0.83280
C7 C 0.7443(6) 1.3326(4) 0.8449(2)
H11 H 0.69040 1.39290 0.81660
H12 H 0.76320 1.37400 0.88590
C8 C 0.6410(5) 1.2131(4) 0.85355(18)
H13 H 0.57260 1.19910 0.81630
H14 H 0.57190 1.22090 0.89100
C9 C 0.5621(4) 0.8893(3) 0.92546(13)
C10 C 0.6456(4) 0.7851(3) 0.89814(14)
C11 C 0.5699(4) 0.6911(3) 0.86275(15)
H15 H 0.63100 0.62700 0.84320
C12 C 0.4047(4) 0.6931(3) 0.85668(14)
C13 C 0.3111(4) 0.7849(3) 0.88681(14)
H16 H 0.19780 0.78230 0.88490
C14 C 0.3898(4) 0.8793(3) 0.91946(14)
C15 C 1.0360(5) 1.0730(5) 0.81772(16)
C16 C 1.1766(6) 1.1325(5) 0.78229(19)
H17 H 1.26470 1.07210 0.77960
H18 H 1.21270 1.20760 0.80470
H19 H 1.14230 1.15570 0.73990
O1 O 0.8695(3) 0.7949(2) 0.96552(12)
O2 O 0.8947(3) 0.6887(3) 0.87822(14)
O3 O 0.4126(4) 0.5153(3) 0.79145(14)
O4 O 0.1779(3) 0.5873(3) 0.81795(14)
O5 O 0.3003(4) 1.0886(2) 0.92558(14)
O6 O 0.1894(3) 0.9500(3) 0.98862(14)
O7 O 1.0284(4) 0.9579(3) 0.82913(13)
N3 N 0.8176(4) 0.7573(3) 0.91450(16)
N4 N 0.3249(4) 0.5912(3) 0.81954(13)
N5 N 0.2857(4) 0.9810(3) 0.94709(15)
#END
