
#######################################################################
#
#                 Cambridge Crystallographic Data Centre
#                                CCDC
#
#######################################################################
#
# If this CIF has been generated from an entry in the Cambridge
# Structural Database, then it will include bibliographic, chemical,
# crystal, experimental, refinement or atomic coordinate data resulting
# from the CCDC's data processing and validation procedures.
#
#######################################################################

data_CSD_CIF_NEQKUP
_audit_creation_date 2002-03-14
_audit_creation_method CSD-ConQuest-V1
_database_code_CSD NEQKUP
_chemical_formula_sum 'C23 H16 N2 O6'
_chemical_formula_moiety
;
C23 H16 N2 O6
;
_journal_coden_Cambridge 35
_journal_volume 65
_journal_year 2000
_journal_page_first 7595
_journal_name_full 'J.Org.Chem. '
loop_
_publ_author_name
"B.R.Pool"
"J.M.White"
"P.P.Wolynec"
_chemical_name_systematic
;
11-(3,5-Dinitrobenzoyloxy)-9,10-ethano-9,10-dihydroanthracene
;
_chemical_melting_point 470.15
_cell_volume   1950.010
_exptl_crystal_density_diffrn 1.418
_exptl_special_details
;
Melting point range 470.15-471.15K

;
_diffrn_ambient_temperature 220
#These two values have been output from a single CSD field.
_refine_ls_R_factor_gt 0.0441
_refine_ls_wR_factor_gt 0.0441
_symmetry_cell_setting monoclinic
_symmetry_space_group_name_H-M 'P 21/c'
_symmetry_Int_Tables_number 14
loop_
_symmetry_equiv_pos_site_id
_symmetry_equiv_pos_as_xyz
1 x,y,z
2 -x,1/2+y,1/2-z
3 -x,-y,-z
4 x,-1/2-y,-1/2+z
_cell_length_a 12.365(3)
_cell_length_b 9.335(1)
_cell_length_c 17.408(4)
_cell_angle_alpha 90
_cell_angle_beta 103.96(2)
_cell_angle_gamma 90
_cell_formula_units_Z 4
loop_
_atom_type_symbol
_atom_type_radius_bond
C 0.68
H 0.23
N 0.68
O 0.68
loop_
_atom_site_label
_atom_site_type_symbol
_atom_site_fract_x
_atom_site_fract_y
_atom_site_fract_z
O1 O 0.2307(1) 0.0715(1) 0.1012(1)
O2 O 0.1198(1) -0.1134(2) 0.0508(1)
O3 O 0.5056(1) 0.2544(2) -0.0235(1)
O4 O 0.5322(2) 0.1564(2) -0.1298(1)
O5 O 0.1654(1) -0.2938(2) -0.2094(1)
O6 O 0.3349(1) -0.2919(2) -0.2217(1)
N1 N 0.4835(1) 0.1663(2) -0.0768(1)
N2 N 0.2611(1) -0.2492(2) -0.1919(1)
C1 C 0.3872(2) 0.3500(2) 0.1864(1)
C2 C 0.2921(2) 0.2963(2) 0.2052(1)
C3 C 0.3853(2) 0.4869(3) 0.1550(1)
C4 C 0.2894(2) 0.5685(2) 0.1414(1)
C5 C 0.1933(2) 0.5146(2) 0.1586(1)
C6 C 0.1953(2) 0.3787(2) 0.1913(1)
C7 C 0.0763(2) 0.2609(2) 0.3529(1)
C8 C 0.1327(2) 0.2441(2) 0.2940(1)
C9 C 0.1153(2) 0.1940(3) 0.4248(1)
C10 C 0.2103(2) 0.1111(3) 0.4386(1)
C11 C 0.2685(2) 0.0933(2) 0.3799(1)
C12 C 0.2294(2) 0.1604(2) 0.3074(1)
C13 C 0.2779(2) 0.1481(2) 0.2357(1)
C14 C 0.0976(2) 0.3006(2) 0.2099(1)
C15 C 0.1856(2) 0.0762(2) 0.1713(1)
C16 C 0.0781(2) 0.1650(2) 0.1566(1)
C17 C 0.1927(2) -0.0299(2) 0.0484(1)
C18 C 0.2546(1) -0.0288(2) -0.0159(1)
C19 C 0.2287(1) -0.1337(2) -0.0738(1)
C20 C 0.2876(1) -0.1372(2) -0.1318(1)
C21 C 0.3719(2) -0.0412(2) -0.1346(1)
C22 C 0.3936(1) 0.0625(2) -0.0766(1)
C23 C 0.3372(2) 0.0715(2) -0.0170(1)
H1 H 0.4583(18) 0.292(2) 0.1984(12)
H2 H 0.4507(18) 0.525(2) 0.1416(12)
H3 H 0.2878(17) 0.662(2) 0.1169(13)
H4 H 0.1238(18) 0.572(2) 0.1455(12)
H5 H 0.0082(18) 0.316(2) 0.3445(13)
H6 H 0.0768(18) 0.206(2) 0.4657(13)
H7 H 0.2431(18) 0.070(2) 0.4869(13)
H8 H 0.3301(18) 0.045(2) 0.3875(13)
H9 H 0.3479(18) 0.093(2) 0.2458(12)
H10 H 0.0297(17) 0.361(2) 0.1998(12)
H11 H 0.1734(17) -0.020(2) 0.1855(12)
H12 H 0.0565(17) 0.191(2) 0.1001(13)
H13 H 0.0176(17) 0.109(2) 0.1697(12)
H14 H 0.1695(18) -0.206(2) -0.0732(12)
H15 H 0.4092(17) -0.046(2) -0.1755(13)
H16 H 0.3590(17) 0.140(2) 0.0231(12)
#END
