
#######################################################################
#
#                 Cambridge Crystallographic Data Centre
#                                CCDC
#
#######################################################################
#
# If this CIF has been generated from an entry in the Cambridge
# Structural Database, then it will include bibliographic, chemical,
# crystal, experimental, refinement or atomic coordinate data resulting
# from the CCDC's data processing and validation procedures.
#
#######################################################################

data_CSD_CIF_NEQVUC
_audit_creation_date 2013-02-22
_audit_creation_method CSD-ConQuest-V1
_database_code_CSD NEQVUC
_database_code_depnum_ccdc_archive 'CCDC 920268'
_chemical_formula_sum 'C23 H17 N3 O3'
_chemical_formula_moiety
;
C23 H17 N3 O3
;
_journal_coeditor_code "IUCr XU5663"
_journal_coden_Cambridge 1370
_journal_volume 69
_journal_year 2013
_journal_page_first o90
_journal_name_full 'Acta Crystallogr.,Sect.E:Struct.Rep.Online '
loop_
_publ_author_name
"M.Flores-Alamo"
"B.M.Cabrera-Vivas"
"R.Melendrez-Luevano"
"J.M.Hernandez"
"P.L.Ruiz-Azuara"
_chemical_name_systematic
;
1-((E)-[5-(2-Nitrophenyl)furan-2-yl]methylidene)-2,2-diphenylhydrazine
;
_cell_volume   3705.363
_exptl_crystal_colour 'dark red'
_exptl_crystal_density_diffrn 1.375
_exptl_crystal_description 'prism'
_diffrn_ambient_temperature 130
#These two values have been output from a single CSD field.
_refine_ls_R_factor_gt 0.0367
_refine_ls_wR_factor_gt 0.0367
_symmetry_cell_setting monoclinic
_symmetry_space_group_name_H-M 'C 2/c'
_symmetry_Int_Tables_number 15
loop_
_symmetry_equiv_pos_site_id
_symmetry_equiv_pos_as_xyz
1 x,y,z
2 -x,y,1/2-z
3 1/2+x,1/2+y,z
4 1/2-x,1/2+y,1/2-z
5 -x,-y,-z
6 x,-y,-1/2+z
7 -1/2-x,-1/2-y,-z
8 -1/2+x,-1/2-y,-1/2+z
_cell_length_a 11.2439(2)
_cell_length_b 17.3325(4)
_cell_length_c 19.7575(4)
_cell_angle_alpha 90
_cell_angle_beta 105.778(2)
_cell_angle_gamma 90
_cell_formula_units_Z 8
loop_
_atom_type_symbol
_atom_type_radius_bond
C 0.68
H 0.23
N 0.68
O 0.68
loop_
_atom_site_label
_atom_site_type_symbol
_atom_site_fract_x
_atom_site_fract_y
_atom_site_fract_z
C1 C 0.78362(12) 0.11751(7) 0.50986(6)
C2 C 0.74740(13) 0.14665(8) 0.56708(7)
H1 H 0.67200 0.17430 0.55970
C3 C 0.82184(16) 0.13506(9) 0.63460(8)
H2 H 0.79600 0.15400 0.67340
C4 C 0.93315(15) 0.09646(9) 0.64657(7)
H3 H 0.98410 0.08960 0.69310
C5 C 0.96930(14) 0.06805(9) 0.59025(7)
H4 H 1.04580 0.04160 0.59810
C6 C 0.89522(12) 0.07768(8) 0.52221(7)
H5 H 0.92060 0.05710 0.48380
C7 C 0.74945(11) 0.10332(7) 0.38131(6)
C8 C 0.84143(12) 0.14515(7) 0.36340(7)
H6 H 0.87630 0.18920 0.39010
C9 C 0.88229(13) 0.12232(9) 0.30637(7)
H7 H 0.94600 0.15050 0.29430
C10 C 0.83115(14) 0.05903(9) 0.26718(7)
H8 H 0.85990 0.04350 0.22830
C11 C 0.73814(15) 0.01799(9) 0.28417(8)
H9 H 0.70210 -0.02520 0.25660
C12 C 0.69702(13) 0.03992(8) 0.34186(7)
H10 H 0.63350 0.01150 0.35400
C13 C 0.53250(12) 0.18208(8) 0.37108(7)
H11 H 0.55510 0.16290 0.33120
C14 C 0.42085(12) 0.22646(7) 0.36118(7)
C15 C 0.33253(12) 0.24501(8) 0.30155(7)
H12 H 0.33080 0.23040 0.25490
C16 C 0.24368(12) 0.29027(8) 0.32204(7)
H13 H 0.17080 0.31200 0.29190
C17 C 0.28245(11) 0.29681(7) 0.39320(7)
C18 C 0.24109(11) 0.33793(7) 0.44712(7)
C19 C 0.32397(12) 0.35087(8) 0.51312(7)
H14 H 0.40490 0.32990 0.52280
C20 C 0.29179(13) 0.39311(8) 0.56460(7)
H15 H 0.35030 0.40010 0.60900
C21 C 0.17507(14) 0.42559(8) 0.55249(8)
H16 H 0.15380 0.45530 0.58790
C22 C 0.09046(12) 0.41394(7) 0.48811(8)
H17 H 0.01010 0.43580 0.47870
C23 C 0.12323(11) 0.37034(7) 0.43747(7)
O1 O -0.00013(9) 0.29075(6) 0.35265(6)
O2 O -0.03133(10) 0.41347(7) 0.34252(6)
N1 N 0.70834(10) 0.12687(7) 0.44078(6)
N2 N 0.60193(10) 0.16807(6) 0.43303(6)
N3 N 0.02437(10) 0.35707(7) 0.37240(6)
O3 O 0.39230(7) 0.25773(5) 0.41814(4)
#END
