
#######################################################################
#
#                 Cambridge Crystallographic Data Centre
#                                CCDC
#
#######################################################################
#
# If this CIF has been generated from an entry in the Cambridge
# Structural Database, then it will include bibliographic, chemical,
# crystal, experimental, refinement or atomic coordinate data resulting
# from the CCDC's data processing and validation procedures.
#
#######################################################################

data_CSD_CIF_NERFIC
_audit_creation_date 2017-12-06
_audit_creation_method CSD-ConQuest-V1
_database_code_CSD NERFIC
_database_code_depnum_ccdc_archive 'CCDC 1581698'
_chemical_formula_sum 'C14 H19 N3 O5'
_chemical_formula_moiety
;
C14 H19 N3 O5
;
_journal_coden_Cambridge 9
_journal_volume 56
_journal_year 2017
_journal_page_first 14567
_journal_name_full 'Inorg.Chem. '
loop_
_publ_author_name
"V.Ovcharenko"
"O.Kuznetsova"
"E.Fursova"
"G.Letyagin"
"G.Romanenko"
"A.Bogomyakov"
"E.Zueva"
_chemical_name_systematic
;
2-(2-Hydroxy-3-methoxy-5-nitrophenyl)-4,4,5,5-tetramethyl-4,5-dihydro-1H-imida
zol-3-oxide
;
_cell_volume   3054.550
_exptl_crystal_colour 'violet'
_exptl_crystal_density_diffrn 1.345
_exptl_crystal_description 'plate'
_diffrn_ambient_temperature 296
_refine_special_details
;
C4,C5 and C4A,C5A disordered over two sites with occupancies 0.5:0.5; C7,C8 
and C7A,C8A disordered over two sites with occupancies 0.5:0.5.
;
#These two values have been output from a single CSD field.
_refine_ls_R_factor_gt 0.0642
_refine_ls_wR_factor_gt 0.0642
_symmetry_cell_setting monoclinic
_symmetry_space_group_name_H-M 'C 2/c'
_symmetry_Int_Tables_number 15
loop_
_symmetry_equiv_pos_site_id
_symmetry_equiv_pos_as_xyz
1 x,y,z
2 -x,y,1/2-z
3 1/2+x,1/2+y,z
4 1/2-x,1/2+y,1/2-z
5 -x,-y,-z
6 x,-y,-1/2+z
7 -1/2-x,-1/2-y,-z
8 -1/2+x,-1/2-y,-1/2+z
_cell_length_a 20.824(2)
_cell_length_b 11.2280(13)
_cell_length_c 13.1485(14)
_cell_angle_alpha 90
_cell_angle_beta 96.494(5)
_cell_angle_gamma 90
_cell_formula_units_Z 8
loop_
_atom_type_symbol
_atom_type_radius_bond
C 0.68
H 0.23
N 0.68
O 0.68
loop_
_atom_site_label
_atom_site_type_symbol
_atom_site_fract_x
_atom_site_fract_y
_atom_site_fract_z
O1 O 0.08546(7) 0.66957(14) -0.19349(9)
H1 H 0.1005(14) 0.565(3) -0.2054(19)
N1 N 0.08173(7) 0.66325(14) -0.09045(10)
C1 C 0.04163(10) 0.75040(19) -0.04322(13)
C2 C 0.0835(3) 0.8720(4) -0.0579(3)
H2 H 0.12750 0.85990 -0.02940
H3 H 0.08210 0.89000 -0.12950
H4 H 0.06530 0.93700 -0.02340
C3 C -0.0244(2) 0.7701(5) -0.0865(3)
H5 H -0.04380 0.82920 -0.04700
H6 H -0.02510 0.79710 -0.15590
H7 H -0.04820 0.69700 -0.08530
C4 C 0.06224(12) 0.7295(3) 0.06933(14)
C5 C 0.0673(2) 0.8158(4) 0.1514(3)
H8 H 0.03150 0.87000 0.14150
H9 H 0.06680 0.77540 0.21570
H10 H 0.10700 0.85930 0.15160
C6 C -0.00030(19) 0.6364(4) 0.1025(3)
H11 H -0.03880 0.68260 0.10540
H12 H -0.00840 0.57480 0.05200
H13 H 0.01230 0.60100 0.16820
N2 N 0.11205(8) 0.63965(15) 0.07072(10)
H14 H 0.1017(9) 0.5596(18) 0.1164(13)
C7 C 0.12218(8) 0.60515(16) -0.02448(11)
C8 C 0.17220(8) 0.52111(16) -0.04680(12)
C9 C 0.17183(8) 0.46081(17) -0.14262(12)
O2 O 0.12708(7) 0.47094(14) -0.21787(9)
C10 C 0.22572(9) 0.38376(17) -0.15433(13)
O3 O 0.22138(7) 0.33118(14) -0.24806(10)
C11 C 0.27452(9) 0.36637(17) -0.07764(14)
H15 H 0.30900 0.31630 -0.08700
C12 C 0.27476(13) 0.2586(2) -0.26961(18)
H16 H 0.26630 0.22640 -0.33750
H17 H 0.31330 0.30610 -0.26490
H18 H 0.28040 0.19470 -0.22100
C13 C 0.27174(9) 0.42532(17) 0.01531(13)
N3 N 0.32404(8) 0.40754(18) 0.09692(13)
O4 O 0.36870(8) 0.34240(18) 0.08088(13)
O5 O 0.32118(8) 0.45810(18) 0.17918(11)
C14 C 0.22257(8) 0.50042(16) 0.03205(12)
H19 H 0.22230 0.53780 0.09510
C15? C 0.0227(3) 0.8559(5) -0.1012(4)
H20? H -0.00310 0.90550 -0.06250
H21? H 0.06060 0.89880 -0.11530
H22? H -0.00190 0.83370 -0.16450
C16? C -0.0253(2) 0.6675(6) -0.0513(4)
H23? H -0.01660 0.59470 -0.01400
H24? H -0.05880 0.71050 -0.02260
H25? H -0.03910 0.64960 -0.12180
C17? C 0.0310(3) 0.7603(7) 0.1485(4)
H26? H 0.00030 0.82200 0.12780
H27? H 0.00870 0.69220 0.17140
H28? H 0.06140 0.78900 0.20330
C18? C 0.1224(3) 0.8540(5) 0.0731(4)
H29? H 0.14920 0.84370 0.01890
H30? H 0.10000 0.92860 0.06440
H31? H 0.14880 0.85350 0.13780
#END
