
#######################################################################
#
#                 Cambridge Crystallographic Data Centre
#                                CCDC
#
#######################################################################
#
# If this CIF has been generated from an entry in the Cambridge
# Structural Database, then it will include bibliographic, chemical,
# crystal, experimental, refinement or atomic coordinate data resulting
# from the CCDC's data processing and validation procedures.
#
#######################################################################

data_CSD_CIF_NERGEZ
_audit_creation_date 2017-12-06
_audit_creation_method CSD-ConQuest-V1
_database_code_CSD NERGEZ
_database_code_depnum_ccdc_archive 'CCDC 1564290'
_chemical_formula_sum 'C17 H20 N2 O6'
_chemical_formula_moiety
;
C17 H20 N2 O6
;
_journal_coden_Cambridge 35
_journal_volume 82
_journal_year 2017
_journal_page_first 12590
_journal_name_full 'J.Org.Chem. '
loop_
_publ_author_name
"M.J.V.da Silva"
"J.Poletto"
"A.P.Jacomini"
"K.E.Pianoski"
"D.S.Goncalves"
"G.M.Ribeiro"
"S.M.de S.Melo"
"D.F.Back"
"S.Moura"
"F.A.Rosa"
_chemical_name_systematic
;
ethyl (Z)-4-(t-butylamino)-3-(4-nitrobenzene-1-carbonyl)-2-oxobut-3-enoate
;
_chemical_name_common
;
(Z)-4-(t-butylamino)-3-(4-nitrobenzoyl)-2-oxobut-3-enoic acid ethyl ester
;
_cell_volume   1778.586
_exptl_crystal_colour 'yellow'
_exptl_crystal_density_diffrn 1.301
_exptl_crystal_description 'block'
_diffrn_ambient_temperature 296
#These two values have been output from a single CSD field.
_refine_ls_R_factor_gt 0.0493
_refine_ls_wR_factor_gt 0.0493
_symmetry_cell_setting monoclinic
_symmetry_space_group_name_H-M 'P 21/n'
_symmetry_Int_Tables_number 14
loop_
_symmetry_equiv_pos_site_id
_symmetry_equiv_pos_as_xyz
1 x,y,z
2 1/2-x,1/2+y,1/2-z
3 -x,-y,-z
4 -1/2+x,-1/2-y,-1/2+z
_cell_length_a 8.7087(13)
_cell_length_b 11.9143(18)
_cell_length_c 17.310(3)
_cell_angle_alpha 90
_cell_angle_beta 97.997(13)
_cell_angle_gamma 90
_cell_formula_units_Z 4
loop_
_atom_type_symbol
_atom_type_radius_bond
C 0.68
H 0.23
N 0.68
O 0.68
loop_
_atom_site_label
_atom_site_type_symbol
_atom_site_fract_x
_atom_site_fract_y
_atom_site_fract_z
O1 O 0.75662(16) 0.28148(12) 0.54517(8)
N1 N 0.76715(15) 0.37573(12) 0.40360(7)
H1 H 0.78170 0.31540 0.43090
O2 O 0.6307(2) 0.59118(14) 0.61352(9)
O3 O 0.54333(18) 0.35836(15) 0.65867(9)
O4 O 0.79102(19) 0.40462(18) 0.70178(8)
O5 O 0.9581(3) 1.01911(15) 0.40346(11)
N2 N 0.8323(3) 1.00691(15) 0.42541(10)
C1 C 0.73689(18) 0.46624(14) 0.44056(9)
H2 H 0.72580 0.53220 0.41160
C2 C 0.71919(18) 0.47442(15) 0.51995(9)
C3 C 0.86103(19) 0.70676(16) 0.48305(10)
H3 H 0.93050 0.64750 0.48270
C4 C 0.72249(18) 0.68962(15) 0.51264(9)
O6 O 0.7355(3) 1.08124(15) 0.42546(13)
C5 C 0.72265(19) 0.37565(17) 0.56689(10)
C6 C 0.7792(2) 0.36579(15) 0.31895(9)
C7 C 0.8977(2) 0.80971(16) 0.45416(10)
H4 H 0.99160 0.82110 0.43550
C8 C 0.6861(2) 0.58268(16) 0.55234(10)
C9 C 0.7912(2) 0.89518(16) 0.45377(10)
C10 C 0.6188(2) 0.77772(19) 0.51135(13)
H5 H 0.52600 0.76770 0.53130
C11 C 0.6726(2) 0.38148(19) 0.64823(11)
C12 C 0.7835(3) 0.48055(19) 0.28200(11)
H6 H 0.87220 0.52120 0.30660
H7 H 0.69080 0.52100 0.28850
H8 H 0.79010 0.47240 0.22740
C13 C 0.9291(3) 0.3029(2) 0.31288(12)
H9 H 0.92540 0.23030 0.33660
H10 H 1.01520 0.34460 0.33930
H11 H 0.94140 0.29420 0.25900
C14 C 0.6519(3) 0.88028(19) 0.48077(14)
H12 H 0.58050 0.93870 0.47850
C15 C 0.6405(3) 0.2977(2) 0.28222(13)
H13 H 0.64100 0.22580 0.30730
H14 H 0.64610 0.28740 0.22770
H15 H 0.54660 0.33690 0.28840
C16 C 0.7559(5) 0.4142(4) 0.78265(14)
H16 H 0.64570 0.40300 0.78310
H17 H 0.81100 0.35600 0.81450
C17 C 0.7991(6) 0.5193(4) 0.81463(19)
H18 H 0.77440 0.52320 0.86690
H19 H 0.74380 0.57700 0.78360
H20 H 0.90850 0.52980 0.81540
#END
