
#######################################################################
#
#                 Cambridge Crystallographic Data Centre
#                                CCDC
#
#######################################################################
#
# If this CIF has been generated from an entry in the Cambridge
# Structural Database, then it will include bibliographic, chemical,
# crystal, experimental, refinement or atomic coordinate data resulting
# from the CCDC's data processing and validation procedures.
#
#######################################################################

data_CSD_CIF_NERKOL
_audit_creation_date 2006-11-27
_audit_creation_method CSD-ConQuest-V1
_database_code_CSD NERKOL
_database_code_depnum_ccdc_archive 'CCDC 625407'
_chemical_formula_sum 'C15 H28 N3 O2'
_chemical_formula_moiety
;
C15 H28 N3 O2
;
_journal_coden_Cambridge 95
_journal_year 2006
_journal_page_first 570
_journal_name_full 'Izv.Akad.Nauk SSSR,Ser.Khim.(Russ.)(Russ.Chem.Bull.) '
loop_
_publ_author_name
"E.V.Tret'yakov"
"G.V.Romanenko"
"V.I.Ovcharenko"
_chemical_name_systematic
;
(E)-2-(2-(di-isopropylamino)vinyl)-4,4,5,5-tetramethyl-2-ethynyl-4,5-dihydro-1
H-imidazol-1-oxyl 3-oxide
;
_chemical_melting_point 457.15
_cell_volume   3433.113
_exptl_crystal_density_diffrn 1.093
_exptl_special_details
;
Melting point range 457.15-458.15K

;
_exptl_crystal_preparation 'dichloromethane/hexane'
_diffrn_ambient_temperature 295
#These two values have been output from a single CSD field.
_refine_ls_R_factor_gt 0.0883
_refine_ls_wR_factor_gt 0.0883
_symmetry_cell_setting orthorhombic
_symmetry_space_group_name_H-M 'P b c a'
_symmetry_Int_Tables_number 61
loop_
_symmetry_equiv_pos_site_id
_symmetry_equiv_pos_as_xyz
1 x,y,z
2 1/2-x,-y,1/2+z
3 -x,1/2+y,1/2-z
4 1/2+x,1/2-y,-z
5 -x,-y,-z
6 -1/2+x,y,-1/2-z
7 x,-1/2-y,-1/2+z
8 -1/2-x,-1/2+y,z
_cell_length_a 13.672(2)
_cell_length_b 12.588(2)
_cell_length_c 19.948(3)
_cell_angle_alpha 90
_cell_angle_beta 90
_cell_angle_gamma 90
_cell_formula_units_Z 8
loop_
_atom_type_symbol
_atom_type_radius_bond
C 0.68
H 0.23
N 0.68
O 0.68
loop_
_atom_site_label
_atom_site_type_symbol
_atom_site_fract_x
_atom_site_fract_y
_atom_site_fract_z
O1 O 1.0260(2) 0.2302(3) 0.42785(17)
N1 N 0.9453(3) 0.1802(3) 0.43978(17)
C1 C 0.8903(4) 0.1975(4) 0.5029(2)
C2 C 0.8851(8) 0.3136(6) 0.5168(6)
H1 H 0.84520 0.34730 0.48340
H2 H 0.94970 0.34330 0.51560
H3 H 0.85700 0.32490 0.56030
C3 C 0.9546(6) 0.1499(10) 0.5580(3)
H4 H 1.01170 0.19330 0.56400
H5 H 0.97420 0.07940 0.54530
H6 H 0.91840 0.14700 0.59920
C4 C 0.7990(4) 0.1346(5) 0.4908(2)
C5 C 0.7159(6) 0.2164(9) 0.4611(6)
H7 H 0.65640 0.17810 0.45280
H8 H 0.73900 0.24710 0.42000
H9 H 0.70390 0.27170 0.49320
C6 C 0.7550(11) 0.0752(10) 0.5416(5)
H10 H 0.80170 0.02630 0.55990
H11 H 0.70060 0.03650 0.52340
H12 H 0.73240 0.12200 0.57620
N2 N 0.8242(3) 0.0699(3) 0.43149(18)
O2 O 0.7680(2) -0.0035(3) 0.40819(17)
C7 C 0.9078(3) 0.1019(3) 0.4018(2)
C8 C 0.9449(3) 0.0578(4) 0.3419(2)
H13 H 0.906(3) 0.005(3) 0.333(2)
C9 C 1.0272(3) 0.0922(4) 0.3124(2)
H14 H 1.063(3) 0.150(3) 0.3343(18)
N3 N 1.0720(3) 0.0568(3) 0.25671(19)
C10 C 1.1611(4) 0.1138(5) 0.2339(3)
H15 H 1.180(4) 0.072(4) 0.194(3)
C11 C 1.1372(7) 0.2289(6) 0.2164(5)
H16 H 1.081(5) 0.229(5) 0.185(3)
H17 H 1.198(5) 0.254(5) 0.200(3)
H18 H 1.125(8) 0.265(9) 0.255(6)
C12 C 1.2428(5) 0.1036(9) 0.2842(4)
H19 H 1.260(4) 0.017(5) 0.286(3)
H20 H 1.229(5) 0.141(5) 0.320(4)
H21 H 1.306(5) 0.143(4) 0.265(3)
C13 C 1.0359(4) -0.0337(4) 0.2181(3)
H22 H 0.974(4) -0.051(4) 0.241(2)
C14 C 1.0045(6) -0.0022(7) 0.1484(4)
H23 H 0.951(5) 0.060(5) 0.151(3)
H24 H 0.979(4) -0.069(5) 0.128(3)
H25 H 1.056(5) 0.020(6) 0.128(4)
C15 C 1.1110(6) -0.1216(5) 0.2167(4)
H26 H 1.133(5) -0.141(6) 0.262(4)
H27 H 1.176(5) -0.083(5) 0.186(3)
H28 H 1.083(4) -0.171(4) 0.196(3)
#END
