
#######################################################################
#
#                 Cambridge Crystallographic Data Centre
#                                CCDC
#
#######################################################################
#
# If this CIF has been generated from an entry in the Cambridge
# Structural Database, then it will include bibliographic, chemical,
# crystal, experimental, refinement or atomic coordinate data resulting
# from the CCDC's data processing and validation procedures.
#
#######################################################################

data_CSD_CIF_NERPEG
_audit_creation_date 2006-11-27
_audit_creation_method CSD-ConQuest-V1
_database_code_CSD NERPEG
_database_code_depnum_ccdc_archive 'CCDC 621610'
_chemical_formula_sum 'C17 H23 N1 O4'
_chemical_formula_moiety
;
C17 H23 N1 O4
;
_journal_coden_Cambridge 35
_journal_volume 71
_journal_year 2006
_journal_page_first 5980
_journal_name_full 'J.Org.Chem. '
loop_
_publ_author_name
"Sk.Sahabuddin"
"A.Roy"
"M.G.B.Drew"
"B.G.Roy"
"B.Achari"
"S.B.Mandal"
_chemical_name_systematic
;
(1R,2R,3'aR,7'S,7'aS)-1'-Benzylspiro(cyclopenta-1,6'-tetrahydropyran(4,3-c)iso
xazole)-2,7'-diol
;
_chemical_melting_point 423.15
_cell_volume   1625.828
_exptl_crystal_colour 'white'
_exptl_crystal_density_diffrn 1.248
_exptl_special_details
;
Melting point range 423.15-425.15K

;
_exptl_crystal_description 'needle'
_diffrn_ambient_temperature 293
#These two values have been output from a single CSD field.
_refine_ls_R_factor_gt 0.0756
_refine_ls_wR_factor_gt 0.0756
loop_
_citation_database_id_CSD
_citation_special_details
NEPTEI "is a stereoisomer of this entry"
_symmetry_cell_setting orthorhombic
_symmetry_space_group_name_H-M 'P 21 21 21'
_symmetry_Int_Tables_number 19
loop_
_symmetry_equiv_pos_site_id
_symmetry_equiv_pos_as_xyz
1 x,y,z
2 -x,1/2+y,1/2-z
3 1/2+x,1/2-y,-z
4 1/2-x,-y,1/2+z
_cell_length_a 10.311(12)
_cell_length_b 11.648(13)
_cell_length_c 13.537(15)
_cell_angle_alpha 90
_cell_angle_beta 90
_cell_angle_gamma 90
_cell_formula_units_Z 4
loop_
_atom_type_symbol
_atom_type_radius_bond
C 0.68
H 0.23
N 0.68
O 0.68
loop_
_atom_site_label
_atom_site_type_symbol
_atom_site_fract_x
_atom_site_fract_y
_atom_site_fract_z
C1 C -0.1547(4) 1.0230(3) 0.1084(3)
C2 C -0.2807(4) 1.0028(4) 0.0780(4)
H1 H -0.32760 0.94220 0.10480
C3 C -0.3373(6) 1.0739(6) 0.0069(5)
H2 H -0.42110 1.05850 -0.01470
C4 C -0.2714(7) 1.1659(6) -0.0317(4)
H3 H -0.31100 1.21350 -0.07800
C5 C -0.1473(6) 1.1872(4) -0.0016(4)
H4 H -0.10170 1.24900 -0.02780
C6 C -0.0891(4) 1.1166(4) 0.0683(3)
H5 H -0.00470 1.13210 0.08870
C7 C -0.0901(4) 0.9460(4) 0.1840(3)
H6 H -0.08370 0.98650 0.24640
H7 H -0.14320 0.87830 0.19440
N1 N 0.0392(3) 0.9109(2) 0.15232(19)
O1 O 0.0147(3) 0.8406(2) 0.06346(18)
C8 C 0.0922(5) 0.7389(4) 0.0680(4)
H8 H 0.13830 0.72740 0.00640
H9 H 0.03840 0.67220 0.08060
C9 C 0.1870(5) 0.7574(3) 0.1523(3)
H10 H 0.21120 0.68440 0.18330
C10 C 0.3059(4) 0.8240(4) 0.1198(3)
H11 H 0.35990 0.77490 0.07900
H12 H 0.27900 0.88890 0.07990
O2 O 0.3802(2) 0.8644(2) 0.20170(18)
C11 C 0.3108(3) 0.9457(3) 0.2631(2)
C12 C 0.1868(3) 0.8891(3) 0.3008(2)
H13 H 0.21390 0.82860 0.34670
C13 C 0.1042(4) 0.8307(3) 0.2218(3)
H14 H 0.03890 0.78210 0.25370
O3 O 0.1062(3) 0.9646(3) 0.3555(2)
H15 H 0.14990 0.99820 0.39710
C14 C 0.4089(4) 0.9671(4) 0.3470(3)
H16 H 0.45530 0.89620 0.36350
O4 O 0.3392(3) 1.0087(3) 0.4307(2)
H17 H 0.39050 1.02780 0.47400
C15 C 0.5005(5) 1.0547(6) 0.3059(4)
H18 H 0.56750 1.01840 0.26660
H19 H 0.54120 1.09820 0.35860
C16 C 0.4169(8) 1.1314(6) 0.2428(6)
H20 H 0.46470 1.15610 0.18490
H21 H 0.39140 1.19910 0.27990
C17 C 0.2975(4) 1.0637(3) 0.2121(3)
H22 H 0.29460 1.05480 0.14090
H23 H 0.21910 1.10230 0.23360
#END
