
#######################################################################
#
#                 Cambridge Crystallographic Data Centre
#                                CCDC
#
#######################################################################
#
# If this CIF has been generated from an entry in the Cambridge
# Structural Database, then it will include bibliographic, chemical,
# crystal, experimental, refinement or atomic coordinate data resulting
# from the CCDC's data processing and validation procedures.
#
#######################################################################

data_CSD_CIF_NERQOT
_audit_creation_date 2017-12-06
_audit_creation_method CSD-ConQuest-V1
_database_code_CSD NERQOT
_database_code_depnum_ccdc_archive 'CCDC 1554660'
_chemical_formula_sum 'C16 H13 N1 O4'
_chemical_formula_moiety
;
C16 H13 N1 O4
;
_journal_coden_Cambridge 35
_journal_volume 82
_journal_year 2017
_journal_page_first 12224
_journal_name_full 'J.Org.Chem. '
loop_
_publ_author_name
"Maozhong Miao"
"Yi Luo"
"Huaping Xu"
"Mengchao Jin"
"Zhengkai Chen"
"Jianfeng Xu"
"Hongjun Ren"
_chemical_name_systematic
;
1-(furan-2-yl)-3-(1-nitrocyclopropyl)-2-phenylprop-2-en-1-one
;
_cell_volume   1409.506
_exptl_crystal_colour 'light yellow'
_exptl_crystal_density_diffrn 1.335
_exptl_crystal_description 'block'
_diffrn_ambient_temperature 293.1
#These two values have been output from a single CSD field.
_refine_ls_R_factor_gt 0.0456
_refine_ls_wR_factor_gt 0.0456
_symmetry_cell_setting monoclinic
_symmetry_space_group_name_H-M 'P 21/n'
_symmetry_Int_Tables_number 14
loop_
_symmetry_equiv_pos_site_id
_symmetry_equiv_pos_as_xyz
1 x,y,z
2 1/2-x,1/2+y,1/2-z
3 -x,-y,-z
4 -1/2+x,-1/2-y,-1/2+z
_cell_length_a 11.2067(10)
_cell_length_b 9.8995(7)
_cell_length_c 12.7175(8)
_cell_angle_alpha 90
_cell_angle_beta 92.537(7)
_cell_angle_gamma 90
_cell_formula_units_Z 4
loop_
_atom_type_symbol
_atom_type_radius_bond
C 0.68
H 0.23
N 0.68
O 0.68
loop_
_atom_site_label
_atom_site_type_symbol
_atom_site_fract_x
_atom_site_fract_y
_atom_site_fract_z
O1 O -0.16702(12) -0.00441(17) 0.25917(11)
O2 O -0.06125(13) 0.22494(15) 0.34355(15)
O3 O 0.29910(16) -0.05448(17) 0.53729(13)
O4 O 0.44279(14) 0.06825(18) 0.59944(13)
N1 N 0.34891(16) 0.0532(2) 0.54846(12)
C1 C -0.1898(2) -0.1355(3) 0.23177(17)
H1 H -0.26340 -0.16700 0.20540
C2 C -0.0942(3) -0.2119(3) 0.2475(2)
H2 H -0.08850 -0.30420 0.23500
C3 C -0.00281(19) -0.1266(2) 0.28665(16)
H3 H 0.07530 -0.15170 0.30510
C4 C -0.04910(16) -0.00185(19) 0.29262(14)
C5 C 0.00016(16) 0.1254(2) 0.33011(14)
C6 C 0.13329(15) 0.12931(17) 0.35361(13)
C7 C 0.16881(16) 0.14919(18) 0.45371(14)
H4 H 0.10920 0.14830 0.50230
C8 C 0.29207(16) 0.17263(19) 0.49699(13)
C9 C 0.3227(2) 0.3036(2) 0.54966(17)
H5 H 0.26200 0.37350 0.54820
H6 H 0.37330 0.30080 0.61350
C10 C 0.3774(2) 0.2695(2) 0.44967(17)
H7 H 0.46140 0.24570 0.45230
H8 H 0.35010 0.31850 0.38710
C11 C 0.20957(15) 0.11178(16) 0.26256(13)
C12 C 0.31195(16) 0.03250(19) 0.26763(14)
H9 H 0.33450 -0.01060 0.33040
C13 C 0.38054(19) 0.0167(2) 0.18147(17)
H10 H 0.44870 -0.03690 0.18620
C14 C 0.3482(2) 0.0801(2) 0.08838(17)
H11 H 0.39520 0.07080 0.03040
C15 C 0.2463(2) 0.1574(2) 0.08113(16)
H12 H 0.22410 0.19960 0.01790
C16 C 0.17694(18) 0.17257(18) 0.16700(15)
H13 H 0.10750 0.22400 0.16100
#END
