
#######################################################################
#
#                 Cambridge Crystallographic Data Centre
#                                CCDC
#
#######################################################################
#
# If this CIF has been generated from an entry in the Cambridge
# Structural Database, then it will include bibliographic, chemical,
# crystal, experimental, refinement or atomic coordinate data resulting
# from the CCDC's data processing and validation procedures.
#
#######################################################################

data_CSD_CIF_NERSUB
_audit_creation_date 2017-12-06
_audit_creation_method CSD-ConQuest-V1
_database_code_CSD NERSUB
_database_code_depnum_ccdc_archive 'CCDC 1564283'
_chemical_formula_sum 'C20 H18 N2 O7'
_chemical_formula_moiety
;
C20 H18 N2 O7
;
_journal_coden_Cambridge 35
_journal_volume 82
_journal_year 2017
_journal_page_first 12590
_journal_name_full 'J.Org.Chem. '
loop_
_publ_author_name
"M.J.V.da Silva"
"J.Poletto"
"A.P.Jacomini"
"K.E.Pianoski"
"D.S.Goncalves"
"G.M.Ribeiro"
"S.M.de S.Melo"
"D.F.Back"
"S.Moura"
"F.A.Rosa"
_chemical_name_systematic
;
ethyl 
4-[(4-methoxyphenyl)amino]-3-(4-nitrobenzene-1-carbonyl)-2-oxobut-3-enoate
;
_chemical_name_common
;
methoxypehnyl amino nitrobenzoyl oxobut enoic acid ethyl
;
_cell_volume   3618.906
_exptl_crystal_colour 'yellow'
_exptl_crystal_density_diffrn 1.462
_exptl_crystal_description 'block'
_diffrn_ambient_temperature 100
#These two values have been output from a single CSD field.
_refine_ls_R_factor_gt 0.0594
_refine_ls_wR_factor_gt 0.0594
_symmetry_cell_setting monoclinic
_symmetry_space_group_name_H-M 'C 2/c'
_symmetry_Int_Tables_number 15
loop_
_symmetry_equiv_pos_site_id
_symmetry_equiv_pos_as_xyz
1 x,y,z
2 -x,y,1/2-z
3 1/2+x,1/2+y,z
4 1/2-x,1/2+y,1/2-z
5 -x,-y,-z
6 x,-y,-1/2+z
7 -1/2-x,-1/2-y,-z
8 -1/2+x,-1/2-y,-1/2+z
_cell_length_a 30.378(6)
_cell_length_b 6.892(2)
_cell_length_c 17.711(4)
_cell_angle_alpha 90
_cell_angle_beta 102.59(3)
_cell_angle_gamma 90
_cell_formula_units_Z 8
loop_
_atom_type_symbol
_atom_type_radius_bond
C 0.68
H 0.23
N 0.68
O 0.68
loop_
_atom_site_label
_atom_site_type_symbol
_atom_site_fract_x
_atom_site_fract_y
_atom_site_fract_z
O1 O 0.32495(6) 0.5338(3) 0.44055(11)
O2 O 0.35468(6) 0.7248(3) 0.28662(11)
O3 O 0.09424(6) 0.3770(3) 0.54873(11)
O4 O 0.25232(6) 0.3751(3) 0.18455(11)
O5 O 0.40144(6) 0.5894(3) 0.38994(11)
O6 O 0.47525(7) 0.0729(3) 0.16987(13)
O7 O 0.45550(8) 0.2815(4) 0.07743(14)
N1 N 0.24046(7) 0.4325(3) 0.40829(13)
H1 H 0.26470 0.47230 0.44140
N2 N 0.44917(8) 0.1946(4) 0.13472(14)
C1 C 0.33062(8) 0.3269(4) 0.21114(15)
C2 C 0.28745(9) 0.4243(4) 0.31595(16)
C3 C 0.32399(9) 0.5118(4) 0.37047(15)
C4 C 0.40788(9) 0.2382(4) 0.16181(16)
C5 C 0.33418(9) 0.3721(4) 0.13592(15)
H2 H 0.30950 0.43160 0.10160
C6 C 0.20098(9) 0.4173(4) 0.43849(15)
C7 C 0.16824(9) 0.4704(4) 0.54925(16)
H3 H 0.17070 0.51630 0.60060
C8 C 0.28769(9) 0.3788(4) 0.23519(16)
C9 C 0.36181(9) 0.6170(4) 0.34198(15)
C10 C 0.37312(9) 0.3315(4) 0.11044(16)
H4 H 0.37600 0.36600 0.05980
C11 C 0.16073(9) 0.3401(4) 0.39723(16)
H5 H 0.15820 0.29750 0.34540
C12 C 0.12763(9) 0.3887(4) 0.50820(16)
C13 C 0.24613(9) 0.3958(4) 0.33811(16)
H6 H 0.22120 0.34800 0.30070
C14 C 0.20442(9) 0.4834(4) 0.51440(16)
H7 H 0.23200 0.53760 0.54210
C15 C 0.12408(9) 0.3255(4) 0.43235(16)
H8 H 0.09650 0.27210 0.40440
C16 C 0.36643(9) 0.2303(4) 0.26125(16)
H9 H 0.36400 0.19760 0.31230
C17 C 0.40508(9) 0.1833(4) 0.23567(16)
H10 H 0.42910 0.11490 0.26820
C18 C 0.4389(1) 0.7103(5) 0.37727(18)
H11 H 0.46190 0.72070 0.42620
H12 H 0.42760 0.84250 0.36210
C19 C 0.05252(9) 0.2901(5) 0.51009(18)
H13 H 0.03140 0.28940 0.54480
H14 H 0.05800 0.15660 0.49550
H15 H 0.03950 0.36500 0.46350
C20 C 0.46036(10) 0.6282(5) 0.31562(19)
H16 H 0.48510 0.71280 0.30880
H17 H 0.43780 0.61980 0.26680
H18 H 0.47220 0.49840 0.33100
#END
