
#######################################################################
#
#                 Cambridge Crystallographic Data Centre
#                                CCDC
#
#######################################################################
#
# If this CIF has been generated from an entry in the Cambridge
# Structural Database, then it will include bibliographic, chemical,
# crystal, experimental, refinement or atomic coordinate data resulting
# from the CCDC's data processing and validation procedures.
#
#######################################################################

data_CSD_CIF_NERTAI
_audit_creation_date 2017-12-06
_audit_creation_method CSD-ConQuest-V1
_database_code_CSD NERTAI
_database_code_depnum_ccdc_archive 'CCDC 1564285'
_chemical_formula_sum 'C16 H18 N2 O6'
_chemical_formula_moiety
;
C16 H18 N2 O6
;
_journal_coden_Cambridge 35
_journal_volume 82
_journal_year 2017
_journal_page_first 12590
_journal_name_full 'J.Org.Chem. '
loop_
_publ_author_name
"M.J.V.da Silva"
"J.Poletto"
"A.P.Jacomini"
"K.E.Pianoski"
"D.S.Goncalves"
"G.M.Ribeiro"
"S.M.de S.Melo"
"D.F.Back"
"S.Moura"
"F.A.Rosa"
_chemical_name_systematic
;
(Z)-4-(isopropylamino)-3-(4-nitrobenzoyl)-2-oxobut-3-enoic acid ethyl ester
;
_cell_volume   1677.522
_exptl_crystal_colour 'yellow'
_exptl_crystal_density_diffrn 1.324
_exptl_crystal_description 'block'
_diffrn_ambient_temperature 296
#These two values have been output from a single CSD field.
_refine_ls_R_factor_gt 0.0547
_refine_ls_wR_factor_gt 0.0547
_symmetry_cell_setting monoclinic
_symmetry_space_group_name_H-M 'P 21/c'
_symmetry_Int_Tables_number 14
loop_
_symmetry_equiv_pos_site_id
_symmetry_equiv_pos_as_xyz
1 x,y,z
2 -x,1/2+y,1/2-z
3 -x,-y,-z
4 x,-1/2-y,-1/2+z
_cell_length_a 14.1028(3)
_cell_length_b 11.5412(3)
_cell_length_c 10.4124(2)
_cell_angle_alpha 90
_cell_angle_beta 98.178(1)
_cell_angle_gamma 90
_cell_formula_units_Z 4
loop_
_atom_type_symbol
_atom_type_radius_bond
C 0.68
H 0.23
N 0.68
O 0.68
loop_
_atom_site_label
_atom_site_type_symbol
_atom_site_fract_x
_atom_site_fract_y
_atom_site_fract_z
O1 O 0.90903(10) 0.50466(13) 0.57876(13)
O2 O 0.80682(12) 0.43484(14) 0.81810(14)
O3 O 0.78679(12) 0.61779(13) 0.74566(14)
O4 O 0.63418(10) 0.45481(15) 0.62301(16)
N1 N 0.86921(11) 0.38850(15) 0.35255(15)
H1 H 0.91280 0.42620 0.40160
C1 C 0.78725(13) 0.37255(16) 0.39355(18)
H2 H 0.74090 0.33230 0.33860
C2 C 0.82827(13) 0.47601(15) 0.59933(17)
C3 C 0.60117(13) 0.29706(17) 0.48249(18)
C4 C 0.76178(12) 0.40969(15) 0.51176(17)
C5 C 0.66527(13) 0.39186(17) 0.54386(18)
C6 C 0.80284(14) 0.50582(17) 0.73304(18)
O5 O 0.4383(2) -0.0485(3) 0.2847(3)
C7 C 0.63414(14) 0.19089(18) 0.4458(2)
H3 H 0.69960 0.17600 0.45710
C8 C 0.50295(14) 0.3171(2) 0.4671(2)
H4 H 0.48020 0.38800 0.49230
N2 N 0.40643(19) 0.0401(3) 0.3241(2)
C9 C 0.47440(16) 0.1303(2) 0.3791(2)
C10 C 0.57076(17) 0.1069(2) 0.3926(2)
H5 H 0.59290 0.03600 0.36650
C11 C 0.43924(15) 0.2343(2) 0.4154(3)
H6 H 0.37360 0.24810 0.40510
O6 O 0.32055(17) 0.0558(3) 0.3303(3)
C12 C 0.89154(16) 0.3460(2) 0.2278(2)
H7 H 0.83510 0.30580 0.18310
C13 C 0.9732(2) 0.2608(3) 0.2508(4)
H8 H 0.95580 0.19770 0.30270
H9 H 1.02900 0.29890 0.29520
H10 H 0.98690 0.23170 0.16900
C14 C 0.9137(2) 0.4481(3) 0.1453(3)
H11 H 0.85970 0.49960 0.13290
H12 H 0.92680 0.42070 0.06260
H13 H 0.96870 0.48870 0.18830
C15 C 0.7627(3) 0.6550(3) 0.8710(3)
H14 H 0.69350 0.65980 0.86520
H15 H 0.78470 0.59660 0.93540
C16 C 0.8005(4) 0.7574(4) 0.9115(5)
H16 H 0.78150 0.77640 0.99390
H17 H 0.77800 0.81620 0.84930
H18 H 0.86910 0.75290 0.92020
#END
