
#######################################################################
#
#                 Cambridge Crystallographic Data Centre
#                                CCDC
#
#######################################################################
#
# If this CIF has been generated from an entry in the Cambridge
# Structural Database, then it will include bibliographic, chemical,
# crystal, experimental, refinement or atomic coordinate data resulting
# from the CCDC's data processing and validation procedures.
#
#######################################################################

data_CSD_CIF_NERTIQ
_audit_creation_date 2017-12-06
_audit_creation_method CSD-ConQuest-V1
_database_code_CSD NERTIQ
_database_code_depnum_ccdc_archive 'CCDC 1564287'
_chemical_formula_sum 'C17 H20 N2 O6'
_chemical_formula_moiety
;
C17 H20 N2 O6
;
_journal_coden_Cambridge 35
_journal_volume 82
_journal_year 2017
_journal_page_first 12590
_journal_name_full 'J.Org.Chem. '
loop_
_publ_author_name
"M.J.V.da Silva"
"J.Poletto"
"A.P.Jacomini"
"K.E.Pianoski"
"D.S.Goncalves"
"G.M.Ribeiro"
"S.M.de S.Melo"
"D.F.Back"
"S.Moura"
"F.A.Rosa"
_chemical_name_systematic
;
(Z)-4-(butylamino)-3-(4-nitrobenzoyl)-2-oxobut-3-enoic acid ethyl ester
;
_chemical_name_common
;
ethyl 4-(butylamino)-3-(4-nitrobenzene-1-carbonyl)-2-oxobut-3-enoate
;
_cell_volume   1732.284
_exptl_crystal_colour 'colorless'
_exptl_crystal_density_diffrn 1.336
_exptl_crystal_description 'block'
_diffrn_ambient_temperature 100
#These two values have been output from a single CSD field.
_refine_ls_R_factor_gt 0.0667
_refine_ls_wR_factor_gt 0.0667
_symmetry_cell_setting monoclinic
_symmetry_space_group_name_H-M 'P 21/c'
_symmetry_Int_Tables_number 14
loop_
_symmetry_equiv_pos_site_id
_symmetry_equiv_pos_as_xyz
1 x,y,z
2 -x,1/2+y,1/2-z
3 -x,-y,-z
4 x,-1/2-y,-1/2+z
_cell_length_a 12.1528(8)
_cell_length_b 16.0299(10)
_cell_length_c 8.9727(5)
_cell_angle_alpha 90
_cell_angle_beta 97.678(2)
_cell_angle_gamma 90
_cell_formula_units_Z 4
loop_
_atom_type_symbol
_atom_type_radius_bond
C 0.68
H 0.23
N 0.68
O 0.68
loop_
_atom_site_label
_atom_site_type_symbol
_atom_site_fract_x
_atom_site_fract_y
_atom_site_fract_z
O1 O 0.1699(1) 0.41235(9) 0.35978(15)
O2 O 0.44787(12) -0.12123(9) 0.62760(16)
O3 O 0.39406(11) 0.46928(9) 0.54231(16)
O4 O 0.18616(11) 0.27405(10) 0.55839(18)
O5 O 0.15571(11) 0.46277(10) 0.59132(16)
O6 O 0.33493(14) -0.13047(10) 0.42054(19)
N1 N 0.55700(12) 0.35789(10) 0.52219(18)
H1 H 0.54140 0.41000 0.52880
C1 C 0.39029(16) 0.13006(13) 0.6554(2)
H2 H 0.42580 0.16250 0.73330
N2 N 0.38185(14) -0.09024(11) 0.52707(19)
C2 C 0.41187(16) 0.04570(13) 0.6527(2)
H3 H 0.46060 0.02060 0.72830
C3 C 0.35873(16) -0.00069(12) 0.5338(2)
C4 C 0.67020(15) 0.33549(13) 0.5004(2)
H4 H 0.69450 0.37160 0.42430
H5 H 0.67090 0.27850 0.46390
C5 C 0.47784(15) 0.30383(12) 0.5324(2)
H6 H 0.49680 0.24760 0.53140
C6 C 0.75092(16) 0.34305(14) 0.6444(2)
H7 H 0.75000 0.39980 0.68160
H8 H 0.72760 0.30640 0.72020
C7 C 0.36627(15) 0.32326(12) 0.5448(2)
C8 C 0.33059(15) 0.40839(13) 0.5344(2)
C9 C 0.05079(16) 0.42399(16) 0.3161(2)
H9 H 0.02940 0.48030 0.33940
H10 H 0.00940 0.38520 0.37010
C10 C 0.31602(15) 0.16745(13) 0.5432(2)
C11 C 0.26395(16) 0.11883(13) 0.4256(2)
H11 H 0.21420 0.14340 0.35070
C12 C 0.28566(16) 0.03437(13) 0.4197(2)
H12 H 0.25190 0.00190 0.34060
C13 C 0.20671(16) 0.42927(12) 0.5024(2)
C14 C 0.86810(16) 0.32041(16) 0.6183(2)
H13 H 0.89120 0.35800 0.54360
H14 H 0.86770 0.26430 0.57770
C15 C 0.28415(16) 0.25803(13) 0.5501(2)
C16 C 0.95242(18) 0.32460(18) 0.7592(3)
H15 H 1.02440 0.30970 0.73480
H16 H 0.93140 0.28650 0.83290
H17 H 0.95480 0.38030 0.79890
C17 C 0.02716(18) 0.40860(17) 0.1509(2)
H18 H -0.05080 0.41580 0.11830
H19 H 0.04860 0.35270 0.12930
H20 H 0.06850 0.44740 0.09870
#END
