
#######################################################################
#
#                 Cambridge Crystallographic Data Centre
#                                CCDC
#
#######################################################################
#
# If this CIF has been generated from an entry in the Cambridge
# Structural Database, then it will include bibliographic, chemical,
# crystal, experimental, refinement or atomic coordinate data resulting
# from the CCDC's data processing and validation procedures.
#
#######################################################################

data_CSD_CIF_NESHOI
_audit_creation_date 1998-04-30
_audit_creation_method CSD-ConQuest-V1
_database_code_CSD NESHOI
_database_code_depnum_ccdc_archive 'CCDC 1218700'
_chemical_formula_sum 'C32 H21 N5 O2'
_chemical_formula_moiety
;
C32 H21 N5 O2
;
_journal_coden_Cambridge 154
_journal_volume 50
_journal_year 1997
_journal_page_first 495
_journal_name_full 'Aust.J.Chem. '
loop_
_publ_author_name
"D.P.Arnold"
"R.C.Bott"
"H.Eldridge"
"F.M.Elms"
"G.Smith"
"Mike Zojaji"
_chemical_name_systematic
;
5-Nitro-10,20-diphenylporphyrin
;
_cell_volume   2496.582
_exptl_crystal_colour 'purple'
_exptl_crystal_density_diffrn 1.35
_exptl_crystal_description 'block'
_exptl_crystal_preparation 'dichloromethane and methanol'
_diffrn_ambient_temperature ?
_diffrn_special_details
;
The study was carried out at room temperature,in the range 283-303K

;
#These two values have been output from a single CSD field.
_refine_ls_R_factor_gt 0.049
_refine_ls_wR_factor_gt 0.049
_symmetry_cell_setting monoclinic
_symmetry_space_group_name_H-M 'P 21/c'
_symmetry_Int_Tables_number 14
loop_
_symmetry_equiv_pos_site_id
_symmetry_equiv_pos_as_xyz
1 x,y,z
2 -x,1/2+y,1/2-z
3 -x,-y,-z
4 x,-1/2-y,-1/2+z
_cell_length_a 13.231(4)
_cell_length_b 12.757(3)
_cell_length_c 14.842(3)
_cell_angle_alpha 90
_cell_angle_beta 94.74(2)
_cell_angle_gamma 90
_cell_formula_units_Z 4
loop_
_atom_type_symbol
_atom_type_radius_bond
C 0.68
H 0.23
N 0.68
O 0.68
loop_
_atom_site_label
_atom_site_type_symbol
_atom_site_fract_x
_atom_site_fract_y
_atom_site_fract_z
O1 O 0.127(5) 0.2880(5) 0.6261(5)
O2 O 0.1231(5) 0.1293(5) 0.6572(5)
N1 N 0.4195(4) -0.0051(4) 0.3238(3)
N2 N 0.5672(4) 0.1258(4) 0.4333(3)
N3 N 0.4096(4) 0.2111(4) 0.5292(3)
N4 N 0.2636(4) 0.0752(4) 0.4231(3)
N5 N 0.1558(5) 0.2037(7) 0.6185(4)
C1 C 0.3395(5) -0.0542(5) 0.2741(4)
C2 C 0.3809(5) -0.1226(5) 0.2103(4)
C3 C 0.4816(5) -0.1157(5) 0.2227(4)
C4 C 0.5068(5) -0.0414(5) 0.2931(4)
C5 C 0.6034(5) -0.0074(5) 0.3233(4)
C6 C 0.6335(5) 0.0714(5) 0.3849(4)
C7 C 0.7349(5) 0.1097(5) 0.4045(4)
C8 C 0.7304(5) 0.1888(5) 0.4623(4)
C9 C 0.6249(4) 0.1993(5) 0.4824(4)
C10 C 0.5885(5) 0.2737(5) 0.5411(4)
C11 C 0.4880(5) 0.2736(5) 0.5658(4)
C12 C 0.4499(5) 0.3344(5) 0.6372(4)
C13 C 0.3531(5) 0.3057(5) 0.6466(4)
C14 C 0.3270(5) 0.2304(5) 0.5764(4)
C15 C 0.2329(5) 0.1821(5) 0.5539(4)
C16 C 0.2005(5) 0.1130(5) 0.4829(4)
C17 C 0.0973(5) 0.0828(5) 0.4594(4)
C18 C 0.0970(5) 0.0281(5) 0.3798(4)
C19 C 0.2016(5) 0.0209(5) 0.3580(4)
C20 C 0.2371(5) -0.0364(5) 0.2879(4)
C21 C 0.6582(5) 0.3586(5) 0.5798(4)
C22 C 0.6455(5) 0.4600(5) 0.5482(5)
C23 C 0.7124(6) 0.5370(6) 0.5813(5)
C24 C 0.7901(6) 0.5155(6) 0.6444(5)
C25 C 0.8024(5) 0.4130(6) 0.6746(5)
C26 C 0.7372(5) 0.3332(5) 0.6443(4)
C27 C 0.1617(5) -0.0829(5) 0.2191(4)
C28 C 0.0916(5) -0.1594(5) 0.2417(4)
C29 C 0.0212(5) -0.1990(5) 0.1765(5)
C30 C 0.0185(5) -0.1652(6) 0.0880(5)
C31 C 0.0874(6) -0.0918(6) 0.0648(5)
C32 C 0.1587(5) -0.0531(5) 0.1277(4)
H1 H 0.33060 -0.17110 0.16190
H2 H 0.53820 -0.14810 0.19030
H3 H 0.65750 -0.04370 0.29860
H4 H 0.79500 0.08330 0.38050
H5 H 0.78630 0.25050 0.49660
H6 H 0.40390 0.01000 0.39270
H7 H 0.50080 0.39710 0.67510
H8 H 0.31780 0.34660 0.71100
H9 H 0.01900 0.13660 0.47980
H10 H 0.02140 0.01880 0.33510
H11 H 0.41900 0.19190 0.46240
H12 H 0.57070 0.47560 0.50150
H13 H 0.70360 0.60670 0.55950
H14 H 0.84560 0.57210 0.68430
H15 H 0.85770 0.39690 0.71720
H16 H 0.73110 0.23960 0.67000
H17 H 0.09240 -0.18390 0.30200
H18 H -0.02840 -0.27230 0.20500
H19 H -0.03080 -0.19220 0.04350
H20 H 0.08530 -0.06760 0.00390
H21 H 0.20760 -0.00510 0.10900
#END
