
#######################################################################
#
#                 Cambridge Crystallographic Data Centre
#                                CCDC
#
#######################################################################
#
# If this CIF has been generated from an entry in the Cambridge
# Structural Database, then it will include bibliographic, chemical,
# crystal, experimental, refinement or atomic coordinate data resulting
# from the CCDC's data processing and validation procedures.
#
#######################################################################

data_CSD_CIF_NETDUM
_audit_creation_date 2007-03-09
_audit_creation_method CSD-ConQuest-V1
_database_code_CSD NETDUM
_database_code_depnum_ccdc_archive 'CCDC 623188'
_chemical_formula_sum 'C24 H25 N1 O7'
_chemical_formula_moiety
;
C24 H25 N1 O7
;
_journal_coden_Cambridge 1078
_journal_year 2006
_journal_name_full 'CSD Communication(Private Communication) '
loop_
_publ_author_name
"M.G.Forbes"
"J.C.Barnes"
"I.M.Eggleston"
_chemical_name_systematic
;
(E)-3-(3-(4'-((E)-2-t-Butoxycarboxyvinyl)phenoxy)-4-nitrophenyl)-2-propenoic 
acid ethyl ester
;
_cell_volume   1137.547
_exptl_crystal_colour 'pale yellow'
_exptl_crystal_density_diffrn 1.283
_exptl_special_details
;
contribution from Sir James Black Centre, Faculty of Life Sciences, 
University of Dundee, Dundee DD1 5EH, Scotland
;
_exptl_crystal_description 'blade'
_diffrn_ambient_temperature 120
#These two values have been output from a single CSD field.
_refine_ls_R_factor_gt 0.0426
_refine_ls_wR_factor_gt 0.0426
_symmetry_cell_setting triclinic
_symmetry_space_group_name_H-M 'P -1'
_symmetry_Int_Tables_number 2
loop_
_symmetry_equiv_pos_site_id
_symmetry_equiv_pos_as_xyz
1 x,y,z
2 -x,-y,-z
_cell_length_a 7.2330(1)
_cell_length_b 10.4761(2)
_cell_length_c 15.7002(4)
_cell_angle_alpha 75.685(1)
_cell_angle_beta 87.120(1)
_cell_angle_gamma 80.713(2)
_cell_formula_units_Z 2
loop_
_atom_type_symbol
_atom_type_radius_bond
C 0.68
H 0.23
N 0.68
O 0.68
loop_
_atom_site_label
_atom_site_type_symbol
_atom_site_fract_x
_atom_site_fract_y
_atom_site_fract_z
C1 C 0.62795(16) 0.82935(12) 0.55552(8)
C2 C 0.49798(18) 0.76645(13) 0.61386(8)
H1 H 0.50080 0.76480 0.67460
C3 C 0.36610(18) 0.70709(13) 0.58361(8)
H2 H 0.27560 0.66740 0.62290
C4 C 0.36670(17) 0.70585(12) 0.49562(8)
C5 C 0.49512(16) 0.76584(12) 0.43668(8)
C6 C 0.62492(16) 0.82822(12) 0.46691(8)
H3 H 0.71230 0.87050 0.42690
C7 C 0.75952(17) 0.90337(13) 0.58389(8)
H4 H 0.85180 0.93570 0.54250
C8 C 0.75989(16) 0.92877(12) 0.66276(8)
H5 H 0.67920 0.88910 0.70760
C9 C 0.88303(17) 1.01732(12) 0.68206(8)
O1 O 0.85208(12) 1.03400(9) 0.76390(5)
C10 C 0.95053(19) 1.13046(14) 0.78741(9)
H6 H 0.89900 1.22190 0.75480
H7 H 1.08550 1.11290 0.77270
C11 C 0.9236(2) 1.11617(15) 0.88473(9)
H8 H 0.78980 1.13550 0.89820
H9 H 0.99050 1.17890 0.90330
H10 H 0.97310 1.02480 0.91610
O2 O 0.99412(14) 1.07097(11) 0.63125(6)
N1 N 0.22740(16) 0.63882(11) 0.46644(7)
O3 O 0.27552(16) 0.57502(12) 0.41123(8)
O4 O 0.07169(13) 0.64749(10) 0.50130(6)
O5 O 0.47951(12) 0.77665(9) 0.34778(6)
C12 C 0.61501(16) 0.70401(12) 0.30595(8)
C13 C 0.77338(16) 0.62365(12) 0.34702(8)
H11 H 0.79460 0.61570 0.40750
C14 C 0.89999(16) 0.55529(12) 0.29834(8)
H12 H 1.00870 0.50050 0.32610
C15 C 0.87134(16) 0.56518(12) 0.20936(8)
C16 C 0.71064(18) 0.64762(14) 0.16992(8)
H13 H 0.68890 0.65630 0.10940
C17 C 0.58312(18) 0.71660(14) 0.21756(8)
H14 H 0.47470 0.77210 0.19000
C18 C 1.00218(17) 0.49475(13) 0.15589(8)
H15 H 0.96760 0.50430 0.09680
C19 C 1.16509(18) 0.41861(13) 0.18208(8)
H16 H 1.20520 0.40670 0.24060
C20 C 1.28415(17) 0.35253(13) 0.12134(8)
O6 O 1.44876(12) 0.29400(9) 0.16008(6)
C21 C 1.60311(17) 0.22976(13) 0.11221(8)
C22 C 1.7582(2) 0.18819(16) 0.18015(10)
H17 H 1.77890 0.26590 0.20050
H18 H 1.87390 0.15190 0.15350
H19 H 1.72150 0.12000 0.23020
C23 C 1.66230(19) 0.33129(14) 0.03281(9)
H20 H 1.56530 0.35370 -0.01220
H21 H 1.78050 0.29370 0.00890
H22 H 1.67930 0.41200 0.05050
C24 C 1.5452(2) 0.10956(15) 0.08892(11)
H23 H 1.49640 0.05250 0.14160
H24 H 1.65420 0.05900 0.06610
H25 H 1.44780 0.13960 0.04410
O7 O 1.24180(13) 0.3508(1) 0.04806(6)
#END
