
#######################################################################
#
#                 Cambridge Crystallographic Data Centre
#                                CCDC
#
#######################################################################
#
# If this CIF has been generated from an entry in the Cambridge
# Structural Database, then it will include bibliographic, chemical,
# crystal, experimental, refinement or atomic coordinate data resulting
# from the CCDC's data processing and validation procedures.
#
#######################################################################

data_CSD_CIF_NETMAC
_audit_creation_date 2013-04-24
_audit_creation_method CSD-ConQuest-V1
_database_code_CSD NETMAC
_database_code_depnum_ccdc_archive 'CCDC 873128'
_chemical_formula_sum 'C17 H22 N2 O4'
_chemical_formula_moiety
;
C17 H22 N2 O4
;
_journal_coden_Cambridge 154
_journal_volume 65
_journal_year 2012
_journal_page_first 905
_journal_name_full 'Aust.J.Chem. '
loop_
_publ_author_name
"Shin Dee Yeoh"
"B.L.Harris"
"T.J.Simons"
"J.M.White"
_chemical_name_systematic
;
(((4-t-Butylcyclohexylidene)amino)oxy)(2-nitrophenyl)methanone
;
_cell_volume   1687.619
_exptl_crystal_colour 'colorless'
_exptl_crystal_density_diffrn 1.253
_exptl_crystal_description 'block'
_diffrn_ambient_temperature 130
#These two values have been output from a single CSD field.
_refine_ls_R_factor_gt 0.0385
_refine_ls_wR_factor_gt 0.0385
_symmetry_cell_setting monoclinic
_symmetry_space_group_name_H-M 'P 21/n'
_symmetry_Int_Tables_number 14
loop_
_symmetry_equiv_pos_site_id
_symmetry_equiv_pos_as_xyz
1 x,y,z
2 1/2-x,1/2+y,1/2-z
3 -x,-y,-z
4 -1/2+x,-1/2-y,-1/2+z
_cell_length_a 9.3991(1)
_cell_length_b 15.2220(1)
_cell_length_c 12.5030(1)
_cell_angle_alpha 90
_cell_angle_beta 109.367(1)
_cell_angle_gamma 90
_cell_formula_units_Z 4
loop_
_atom_type_symbol
_atom_type_radius_bond
C 0.68
H 0.23
N 0.68
O 0.68
loop_
_atom_site_label
_atom_site_type_symbol
_atom_site_fract_x
_atom_site_fract_y
_atom_site_fract_z
O1 O 0.82067(9) -0.04194(6) 0.57467(7)
O2 O 0.90895(11) -0.12509(7) 0.45915(7)
O3 O 0.78317(10) -0.24555(7) 0.59835(8)
N1 N 0.71190(11) -0.00511(7) 0.47170(8)
O4 O 0.93117(12) -0.35705(7) 0.65847(9)
N2 N 0.90705(12) -0.27797(7) 0.64845(9)
C1 C 1.02578(13) -0.13181(8) 0.66024(10)
C2 C 0.54135(13) 0.11116(8) 0.4020(1)
H1 H 0.44240 0.11110 0.41050
H2 H 0.53330 0.08240 0.33100
C3 C 0.65107(13) 0.06227(8) 0.49879(10)
C4 C 0.91028(13) -0.10202(8) 0.55096(10)
C5 C 0.59612(13) 0.20609(8) 0.40063(10)
H3 H 0.52130 0.23870 0.34160
H4 H 0.68900 0.20580 0.38270
C6 C 1.03237(13) -0.21751(8) 0.7009(1)
C7 C 0.68142(15) 0.10353(8) 0.61312(10)
H5 H 0.75800 0.07020 0.67000
H6 H 0.59020 0.10340 0.63320
C8 C 1.26343(15) -0.18801(10) 0.84756(11)
H7 H 1.34430 -0.20650 0.90940
C9 C 0.62376(13) 0.25245(8) 0.51496(10)
H8 H 0.52770 0.25160 0.52970
C10 C 0.73558(14) 0.19817(8) 0.60929(10)
H9 H 0.83240 0.19720 0.59730
H10 H 0.74970 0.22620 0.68180
C11 C 1.25746(15) -0.1021(1) 0.81098(11)
H11 H 1.33290 -0.06290 0.84950
C12 C 1.13939(14) -0.07376(9) 0.71686(10)
H12 H 1.13670 -0.01600 0.69200
C13 C 0.66964(14) 0.35066(8) 0.51466(11)
C14 C 0.6718(2) 0.39403(10) 0.62621(13)
H13 H 0.57460 0.38780 0.63490
H14 H 0.69540 0.45530 0.62470
H15 H 0.74680 0.36610 0.68870
C15 C 1.15060(14) -0.24701(9) 0.79324(11)
H16 H 1.15410 -0.30480 0.81800
C16 C 0.55368(18) 0.39933(10) 0.41760(13)
H17 H 0.45560 0.39310 0.42470
H18 H 0.55280 0.37500 0.34650
H19 H 0.57980 0.46050 0.42060
C17 C 0.82538(19) 0.36117(11) 0.5031(2)
H20 H 0.89860 0.33030 0.56370
H21 H 0.85120 0.42240 0.50670
H22 H 0.82430 0.33740 0.43170
#END
