
#######################################################################
#
#                 Cambridge Crystallographic Data Centre
#                                CCDC
#
#######################################################################
#
# If this CIF has been generated from an entry in the Cambridge
# Structural Database, then it will include bibliographic, chemical,
# crystal, experimental, refinement or atomic coordinate data resulting
# from the CCDC's data processing and validation procedures.
#
#######################################################################

data_CSD_CIF_NETNEH
_audit_creation_date 2013-04-24
_audit_creation_method CSD-ConQuest-V1
_database_code_CSD NETNEH
_database_code_depnum_ccdc_archive 'CCDC 873134'
_chemical_formula_sum 'C15 H17 N3 O6'
_chemical_formula_moiety
;
C15 H17 N3 O6
;
_journal_coden_Cambridge 154
_journal_volume 65
_journal_year 2012
_journal_page_first 905
_journal_name_full 'Aust.J.Chem. '
loop_
_publ_author_name
"Shin Dee Yeoh"
"B.L.Harris"
"T.J.Simons"
"J.M.White"
_chemical_name_systematic
;
(((2,2-Dimethylcyclohexylidene)amino)oxy)(2,4-dinitrophenyl)methanone
;
_cell_volume    782.431
_exptl_crystal_colour 'colorless'
_exptl_crystal_density_diffrn 1.423
_exptl_crystal_description 'plate'
_diffrn_ambient_temperature 130
#These two values have been output from a single CSD field.
_refine_ls_R_factor_gt 0.0325
_refine_ls_wR_factor_gt 0.0325
_symmetry_cell_setting monoclinic
_symmetry_space_group_name_H-M 'P 21'
_symmetry_Int_Tables_number 4
loop_
_symmetry_equiv_pos_site_id
_symmetry_equiv_pos_as_xyz
1 x,y,z
2 -x,1/2+y,-z
_cell_length_a 7.7384(1)
_cell_length_b 10.8085(2)
_cell_length_c 9.3550(2)
_cell_angle_alpha 90
_cell_angle_beta 90.465(2)
_cell_angle_gamma 90
_cell_formula_units_Z 2
loop_
_atom_type_symbol
_atom_type_radius_bond
C 0.68
H 0.23
N 0.68
O 0.68
loop_
_atom_site_label
_atom_site_type_symbol
_atom_site_fract_x
_atom_site_fract_y
_atom_site_fract_z
C1 C 0.2185(3) 0.2767(3) 0.0165(3)
C2 C 0.1888(3) 0.3824(3) -0.0880(3)
C3 C 0.3618(4) 0.4066(3) -0.1670(3)
H1 H 0.34150 0.46720 -0.24170
H2 H 0.44400 0.44200 -0.09970
C4 C 0.4417(4) 0.2914(3) -0.2337(3)
H3 H 0.36680 0.26110 -0.30960
H4 H 0.55230 0.31260 -0.27520
C5 C 0.4674(4) 0.1908(3) -0.1231(3)
H5 H 0.55510 0.21690 -0.05490
H6 H 0.50880 0.11650 -0.16990
C6 C 0.3002(4) 0.1605(3) -0.0428(3)
H7 H 0.21930 0.12010 -0.10730
H8 H 0.32590 0.10390 0.03500
C7 C 0.0477(4) 0.3437(3) -0.1935(3)
H9 H 0.02760 0.40930 -0.26080
H10 H -0.05690 0.32690 -0.14260
H11 H 0.08340 0.27070 -0.24350
C8 C 0.1313(4) 0.5009(3) -0.0140(3)
H12 H 0.11400 0.56470 -0.08400
H13 H 0.21860 0.52650 0.05320
H14 H 0.02510 0.48600 0.03540
C9 C 0.1924(3) 0.2136(3) 0.3719(3)
C10 C 0.2177(3) 0.1005(3) 0.4618(3)
C11 C 0.0898(3) 0.0550(2) 0.5535(3)
C12 C 0.1205(3) -0.0340(3) 0.6542(3)
H15 H 0.03470 -0.06080 0.71600
C13 C 0.2860(3) -0.0823(2) 0.6593(3)
C14 C 0.4176(3) -0.0430(3) 0.5691(3)
H16 H 0.52700 -0.07840 0.57450
C15 C 0.3824(3) 0.0494(3) 0.4718(3)
H17 H 0.46940 0.07790 0.41220
N1 N 0.1700(3) 0.2969(2) 0.1453(2)
N2 N -0.0886(2) 0.1031(2) 0.5406(2)
N3 N 0.3227(3) -0.1764(2) 0.7679(2)
O1 O 0.1955(2) 0.18667(17) 0.23313(18)
O2 O 0.1810(2) 0.31489(18) 0.42589(19)
O3 O -0.1307(2) 0.1441(2) 0.4245(2)
O4 O -0.1820(2) 0.0977(2) 0.6454(2)
O5 O 0.2260(2) -0.1833(2) 0.8707(2)
O6 O 0.4496(2) -0.24271(19) 0.7493(2)
#END
