
#######################################################################
#
#                 Cambridge Crystallographic Data Centre
#                                CCDC
#
#######################################################################
#
# If this CIF has been generated from an entry in the Cambridge
# Structural Database, then it will include bibliographic, chemical,
# crystal, experimental, refinement or atomic coordinate data resulting
# from the CCDC's data processing and validation procedures.
#
#######################################################################

data_CSD_CIF_NETNAD
_audit_creation_date 2013-04-24
_audit_creation_method CSD-ConQuest-V1
_database_code_CSD NETNAD
_database_code_depnum_ccdc_archive 'CCDC 873133'
_chemical_formula_sum 'C15 H17 N3 O6'
_chemical_formula_moiety
;
C15 H17 N3 O6
;
_journal_coden_Cambridge 154
_journal_volume 65
_journal_year 2012
_journal_page_first 905
_journal_name_full 'Aust.J.Chem. '
loop_
_publ_author_name
"Shin Dee Yeoh"
"B.L.Harris"
"T.J.Simons"
"J.M.White"
_chemical_name_systematic
;
(((2,2-Dimethylcyclohexylidene)amino)oxy)(3,4-dinitrophenyl)methanone
;
_cell_volume   1601.636
_exptl_crystal_colour 'colorless'
_exptl_crystal_density_diffrn 1.391
_exptl_crystal_description 'block'
_diffrn_ambient_temperature 130
#These two values have been output from a single CSD field.
_refine_ls_R_factor_gt 0.0345
_refine_ls_wR_factor_gt 0.0345
_symmetry_cell_setting monoclinic
_symmetry_space_group_name_H-M 'P 21/n'
_symmetry_Int_Tables_number 14
loop_
_symmetry_equiv_pos_site_id
_symmetry_equiv_pos_as_xyz
1 x,y,z
2 1/2-x,1/2+y,1/2-z
3 -x,-y,-z
4 -1/2+x,-1/2-y,-1/2+z
_cell_length_a 11.9121(7)
_cell_length_b 7.7814(2)
_cell_length_c 17.5510(9)
_cell_angle_alpha 90
_cell_angle_beta 100.101(5)
_cell_angle_gamma 90
_cell_formula_units_Z 4
loop_
_atom_type_symbol
_atom_type_radius_bond
C 0.68
H 0.23
N 0.68
O 0.68
loop_
_atom_site_label
_atom_site_type_symbol
_atom_site_fract_x
_atom_site_fract_y
_atom_site_fract_z
C1 C 0.59777(9) 1.02563(14) 0.12658(6)
C2 C 0.67148(10) 1.18506(15) 0.12528(7)
C3 C 0.71820(11) 1.18412(16) 0.04884(7)
H1 H 0.65570 1.20500 0.00640
H2 H 0.77220 1.27780 0.04970
C4 C 0.77673(11) 1.01710(17) 0.03357(7)
H3 H 0.80260 1.02460 -0.01570
H4 H 0.84290 0.99940 0.07360
C5 C 0.69577(11) 0.86573(16) 0.03230(7)
H5 H 0.73630 0.76000 0.02600
H6 H 0.63410 0.87700 -0.01160
C6 C 0.64631(10) 0.85639(15) 0.10675(7)
H7 H 0.58680 0.76990 0.10100
H8 H 0.70570 0.82130 0.14900
C7 C 0.60493(12) 1.35087(16) 0.13034(9)
H9 H 0.54410 1.35860 0.08660
H10 H 0.65500 1.44750 0.13040
H11 H 0.57370 1.35090 0.17720
C8 C 0.76893(11) 1.1736(2) 0.19518(7)
H12 H 0.81740 1.27240 0.19600
H13 H 0.81260 1.07120 0.19120
H14 H 0.73770 1.17000 0.24200
C9 C 0.33479(9) 0.91440(14) 0.16257(6)
C10 C 0.27082(9) 0.74850(13) 0.15454(6)
C11 C 0.15446(9) 0.75794(14) 0.15334(6)
H15 H 0.11990 0.86280 0.15990
C12 C 0.09066(9) 0.60963(15) 0.14229(7)
C13 C 0.14202(10) 0.45289(14) 0.13312(7)
C14 C 0.25825(10) 0.44183(14) 0.13616(7)
H16 H 0.29280 0.33620 0.13120
C15 C 0.32255(9) 0.59089(14) 0.14672(7)
H17 H 0.40100 0.58550 0.14860
N1 N 0.50128(8) 1.05258(12) 0.14634(6)
N2 N -0.03269(9) 0.62448(14) 0.13930(7)
N3 N 0.07767(9) 0.29018(13) 0.12443(7)
O1 O 0.43957(6) 0.89098(10) 0.14581(5)
O2 O 0.29536(7) 1.04771(10) 0.17921(5)
O3 O -0.06763(8) 0.74875(14) 0.16975(7)
O4 O -0.09272(8) 0.51200(14) 0.10522(9)
O5 O 0.04708(8) 0.23365(12) 0.18171(6)
O6 O 0.06484(11) 0.22049(16) 0.06205(7)
#END
