
#######################################################################
#
#                 Cambridge Crystallographic Data Centre
#                                CCDC
#
#######################################################################
#
# If this CIF has been generated from an entry in the Cambridge
# Structural Database, then it will include bibliographic, chemical,
# crystal, experimental, refinement or atomic coordinate data resulting
# from the CCDC's data processing and validation procedures.
#
#######################################################################

data_CSD_CIF_NEWCIC
_audit_creation_date 2007-03-09
_audit_creation_method CSD-ConQuest-V1
_database_code_CSD NEWCIC
_database_code_depnum_ccdc_archive 'CCDC 286251'
_chemical_formula_sum 'C19 H23 N1 O2'
_chemical_formula_moiety
;
C19 H23 N1 O2
;
_journal_coden_Cambridge 1489
_journal_volume 457
_journal_year 2006
_journal_page_first 93
_journal_name_full 'Mol.Cryst.Liq.Cryst. '
loop_
_publ_author_name
"P.Zugenmaier"
"W.Kuczynski"
_chemical_name_systematic
;
4-n-heptyl-4'-nitrobiphenyl
;
_cell_volume   1671.124
_exptl_crystal_colour 'colorless'
_exptl_crystal_density_diffrn 1.18
_exptl_crystal_description 'platelet'
_diffrn_ambient_temperature 295
#These two values have been output from a single CSD field.
_refine_ls_R_factor_gt 0.044
_refine_ls_wR_factor_gt 0.044
_symmetry_cell_setting monoclinic
_symmetry_space_group_name_H-M 'P 21/a'
_symmetry_Int_Tables_number 14
loop_
_symmetry_equiv_pos_site_id
_symmetry_equiv_pos_as_xyz
1 x,y,z
2 1/2-x,1/2+y,-z
3 -x,-y,-z
4 -1/2+x,-1/2-y,z
_cell_length_a 10.452(6)
_cell_length_b 10.485(1)
_cell_length_c 15.304(12)
_cell_angle_alpha 90
_cell_angle_beta 94.86(3)
_cell_angle_gamma 90
_cell_formula_units_Z 4
loop_
_atom_type_symbol
_atom_type_radius_bond
C 0.68
H 0.23
N 0.68
O 0.68
loop_
_atom_site_label
_atom_site_type_symbol
_atom_site_fract_x
_atom_site_fract_y
_atom_site_fract_z
O1 O -0.4665(2) 0.0367(2) -0.1265(2)
O2 O -0.3779(2) 0.1961(2) -0.1842(1)
N1 N -0.3804(2) 0.1148(2) -0.1279(2)
C1 C -0.2761(3) 0.1112(3) -0.0574(2)
C2 C -0.2833(3) 0.0293(3) 0.0101(2)
C3 C -0.1869(3) 0.0277(3) 0.0771(2)
C4 C -0.0815(2) 0.1068(3) 0.0774(2)
C5 C -0.0782(3) 0.1879(3) 0.0072(2)
C6 C -0.1739(3) 0.1920(3) -0.0606(2)
C7 C 0.0233(2) 0.1038(3) 0.1485(2)
C8 C 0.0398(3) 0.0044(3) 0.2064(2)
C9 C 0.1415(3) -0.0002(3) 0.2702(2)
C10 C 0.2314(3) 0.0940(3) 0.2795(2)
C11 C 0.2134(3) 0.1952(3) 0.2239(2)
C12 C 0.1117(3) 0.2011(3) 0.1599(2)
C13 C 0.3445(3) 0.0834(3) 0.3473(2)
C14 C 0.3974(3) 0.2064(3) 0.3848(2)
C15 C 0.5024(3) 0.1890(3) 0.4588(2)
C16 C 0.5503(3) 0.3129(3) 0.5006(2)
C17 C 0.6539(3) 0.2966(3) 0.5758(2)
C18 C 0.7059(3) 0.4200(3) 0.6136(2)
C19 C 0.8105(3) 0.4039(3) 0.6873(2)
H1 H -0.36000 -0.03200 0.01100
H2 H -0.19400 -0.03400 0.12900
H3 H -0.00100 0.24900 0.00500
H4 H -0.16800 0.25400 -0.11300
H5 H -0.02600 -0.07000 0.20200
H6 H 0.15000 -0.07700 0.31200
H7 H 0.27800 0.27000 0.22900
H8 H 0.10100 0.28100 0.12000
H9 H 0.41700 0.03700 0.31900
H10 H 0.31600 0.02900 0.39800
H11 H 0.32300 0.25700 0.40800
H12 H 0.43500 0.25700 0.33500
H13 H 0.57900 0.14300 0.43400
H14 H 0.46700 0.13300 0.50700
H15 H 0.47300 0.35900 0.52400
H16 H 0.58700 0.36800 0.45300
H17 H 0.72900 0.24600 0.55300
H18 H 0.61500 0.24600 0.62500
H19 H 0.63100 0.47000 0.63700
H20 H 0.74300 0.47200 0.56400
H21 H 0.84100 0.49200 0.71000
H22 H 0.77500 0.35300 0.73800
H23 H 0.88600 0.35500 0.66400
#END
