
#######################################################################
#
#                 Cambridge Crystallographic Data Centre
#                                CCDC
#
#######################################################################
#
# If this CIF has been generated from an entry in the Cambridge
# Structural Database, then it will include bibliographic, chemical,
# crystal, experimental, refinement or atomic coordinate data resulting
# from the CCDC's data processing and validation procedures.
#
#######################################################################

data_CSD_CIF_NEWMEK
_audit_creation_date 2018-04-26
_audit_creation_method CSD-ConQuest-V1
_database_code_CSD NEWMEK
_database_code_depnum_ccdc_archive 'CCDC 1819729'
_chemical_formula_sum 'C27 H25 N3 O4'
_chemical_formula_moiety
;
C27 H25 N3 O4
;
_journal_coden_Cambridge 24
_journal_volume 59
_journal_year 2018
_journal_page_first 2327
_journal_name_full 'Tetrahedron Lett. '
loop_
_publ_author_name
"V.A.Dmitriev"
"M.M.Efremova"
"A.S.Novikov"
"V.V.Zarubaev"
"A.V.Slita"
"A.V.Galochkina"
"G.L.Starova"
"A.V.Ivanov"
"A.P.Molchanov"
_chemical_name_systematic
;
ethyl 
5-(1H-indol-1-yl)-2-phenyl-3-(phenylcarbamoyl)-1,2-oxazolidine-4-carboxylate
;
_cell_volume   1151.541
_exptl_crystal_colour 'colorless'
_exptl_crystal_density_diffrn 1.314
_exptl_crystal_description 'tablets'
_diffrn_ambient_temperature 100
#These two values have been output from a single CSD field.
_refine_ls_R_factor_gt 0.0404
_refine_ls_wR_factor_gt 0.0404
_symmetry_cell_setting triclinic
_symmetry_space_group_name_H-M 'P -1'
_symmetry_Int_Tables_number 2
loop_
_symmetry_equiv_pos_site_id
_symmetry_equiv_pos_as_xyz
1 x,y,z
2 -x,-y,-z
_cell_length_a 8.2791(4)
_cell_length_b 11.9516(5)
_cell_length_c 13.3253(5)
_cell_angle_alpha 68.047(4)
_cell_angle_beta 81.437(4)
_cell_angle_gamma 70.386(4)
_cell_formula_units_Z 2
loop_
_atom_type_symbol
_atom_type_radius_bond
C 0.68
H 0.23
N 0.68
O 0.68
loop_
_atom_site_label
_atom_site_type_symbol
_atom_site_fract_x
_atom_site_fract_y
_atom_site_fract_z
O1 O 0.68381(11) 0.60798(8) 0.74694(7)
O2 O 0.77798(11) 0.60632(9) 0.44391(7)
O3 O 0.98808(12) 0.25980(8) 0.81434(8)
O4 O 0.83214(13) 0.25350(9) 0.69334(8)
N1 N 0.96758(13) 0.61036(10) 0.70073(8)
N2 N 0.57066(13) 0.56468(10) 0.70808(8)
N3 N 0.55171(14) 0.73589(10) 0.50950(9)
H1 H 0.48540 0.73500 0.56580
C1 C 1.01671(15) 0.66203(11) 0.76462(10)
C2 C 0.50882(15) 0.47082(11) 0.79423(10)
C3 C 0.67419(16) 0.62592(12) 0.51612(10)
C4 C 0.89880(16) 0.31206(12) 0.73633(10)
C5 C 0.51721(16) 0.85318(12) 0.4222(1)
C6 C 0.85730(16) 0.45316(11) 0.67082(10)
H2 H 0.94200 0.46590 0.61120
C7 C 0.86173(15) 0.52810(11) 0.74127(10)
H3 H 0.89750 0.46910 0.81410
C8 C 1.10662(16) 0.74616(12) 0.69717(10)
C9 C 0.67589(16) 0.51794(12) 0.62463(10)
H4 H 0.63370 0.45530 0.61500
C10 C 0.38644(16) 0.95493(12) 0.43895(11)
H5 H 0.32620 0.94350 0.50490
C11 C 1.02120(16) 0.66386(12) 0.59475(10)
H6 H 1.00130 0.64680 0.53590
C12 C 0.98585(16) 0.64237(12) 0.87470(11)
H7 H 0.92490 0.58760 0.91750
C13 C 0.55547(17) 0.42890(13) 0.90086(11)
H8 H 0.63150 0.45980 0.91950
C14 C 0.34588(17) 1.07300(12) 0.35785(11)
H9 H 0.25860 1.14040 0.36950
C15 C 1.10716(16) 0.74493(12) 0.58984(11)
H10 H 1.15720 0.79110 0.52820
C16 C 0.39204(16) 0.42598(12) 0.76680(11)
H11 H 0.35820 0.45590 0.69560
C17 C 1.04976(17) 0.70777(13) 0.91779(11)
H12 H 1.03160 0.69660 0.99100
C18 C 1.17032(17) 0.81051(13) 0.74338(11)
H13 H 1.23100 0.86570 0.70110
C19 C 0.43539(18) 1.09073(13) 0.25931(11)
H14 H 0.40860 1.16990 0.20480
C20 C 1.14131(17) 0.79045(13) 0.85276(11)
H15 H 1.18340 0.83260 0.88390
C21 C 0.32698(17) 0.33673(13) 0.84628(12)
H16 H 0.25040 0.30610 0.82800
C22 C 0.37524(17) 0.29273(13) 0.95305(12)
H17 H 0.33250 0.23200 1.00600
C23 C 0.60733(18) 0.87055(13) 0.32333(11)
H18 H 0.69470 0.80340 0.31130
C24 C 0.48746(18) 0.34002(13) 0.98009(11)
H19 H 0.51780 0.31220 1.05180
C25 C 0.56478(19) 0.98973(14) 0.24288(11)
H20 H 0.62450 1.00170 0.17680
C26 C 0.8732(2) 0.11555(13) 0.74820(13)
H21 H 0.99470 0.07960 0.76320
H22 H 0.84920 0.07880 0.70060
C27 C 0.7717(2) 0.08188(15) 0.85238(16)
H23 H 0.65180 0.12450 0.83900
H24 H 0.80710 0.10770 0.90350
H25 H 0.79130 -0.00800 0.88120
#END
