
#######################################################################
#
#                 Cambridge Crystallographic Data Centre
#                                CCDC
#
#######################################################################
#
# If this CIF has been generated from an entry in the Cambridge
# Structural Database, then it will include bibliographic, chemical,
# crystal, experimental, refinement or atomic coordinate data resulting
# from the CCDC's data processing and validation procedures.
#
#######################################################################

data_CSD_CIF_NEWWAN
_audit_creation_date 1998-04-30
_audit_creation_method CSD-ConQuest-V1
_database_code_CSD NEWWAN
_database_code_depnum_ccdc_archive 'CCDC 124916'
_chemical_formula_sum 'C32 H36 N4 O12'
_chemical_formula_moiety
;
C32 H36 N4 O12
;
_journal_coden_Cambridge 4
_journal_volume 119
_journal_year 1997
_journal_page_first 12425
_journal_name_full 'J.Am.Chem.Soc. '
loop_
_publ_author_name
"E.J.Corey"
"B.E.Roberts"
_chemical_name_systematic
;
(1S,4aS,5R,6R)-(-)-1,2,3,4,4a,5,6,7-Octahydro-5-(2-(t-butyldiphenylsiloxy)ethy
l)-1-(3-hydroxypropyl)-1,5,6-trimethylnaphthalene
;
_cell_volume   1608.552
_exptl_crystal_colour 'colorless'
_exptl_crystal_density_diffrn 1.381
_exptl_crystal_description 'plates'
_diffrn_ambient_temperature 213
#These two values have been output from a single CSD field.
_refine_ls_R_factor_gt 0.078
_refine_ls_wR_factor_gt 0.078
_symmetry_cell_setting triclinic
_symmetry_space_group_name_H-M 'P -1'
_symmetry_Int_Tables_number 2
loop_
_symmetry_equiv_pos_site_id
_symmetry_equiv_pos_as_xyz
1 x,y,z
2 -x,-y,-z
_cell_length_a 9.7272(18)
_cell_length_b 11.997(4)
_cell_length_c 15.216(5)
_cell_angle_alpha 75.93(3)
_cell_angle_beta 72.45(2)
_cell_angle_gamma 74.952(19)
_cell_formula_units_Z 2
loop_
_atom_type_symbol
_atom_type_radius_bond
C 0.68
H 0.23
N 0.68
O 0.68
loop_
_atom_site_label
_atom_site_type_symbol
_atom_site_fract_x
_atom_site_fract_y
_atom_site_fract_z
O1 O 0.5652(5) 0.5385(4) 0.3172(3)
O2 O 0.6562(6) 0.5393(4) 0.4342(4)
O3 O 0.3115(8) 1.0163(6) 0.5516(5)
O4 O 0.4372(8) 0.8639(5) 0.6088(4)
O5 O 0.1162(6) 1.0120(5) 0.2949(4)
O6 O 0.1942(5) 0.8641(4) 0.2242(4)
O7 O 0.2416(5) 0.4015(4) 0.2527(3)
O8 O 0.2877(6) 0.3624(4) 0.3920(3)
O9 O 0.0668(6) 0.6790(5) 0.5845(4)
O10 O -0.0455(6) 0.8405(5) 0.5243(4)
O11 O -0.2703(5) 0.8318(4) 0.2816(3)
O12 O -0.1577(7) 0.7131(6) 0.1864(5)
N1 N 0.1923(6) 0.9172(5) 0.2836(4)
N2 N 0.3735(7) 0.9172(6) 0.5514(5)
N3 N 0.0133(6) 0.7397(5) 0.5243(4)
N4 N -0.1726(6) 0.7507(5) 0.2556(5)
C1 C 0.8644(6) 0.2734(5) 0.0920(4)
C2 C 0.9622(7) 0.1496(5) 0.0869(5)
H1 H 1.00880 0.14390 0.02090
H2 H 1.04090 0.14040 0.11750
C3 C 0.8821(7) 0.0495(5) 0.1316(5)
H3 H 0.84940 0.04670 0.19950
H4 H 0.95060 -0.02450 0.12010
C4 C 0.6470(6) 0.1809(5) 0.1074(4)
H5 H 0.62390 0.18540 0.17460
C5 C 0.7487(6) 0.0604(5) 0.0944(4)
H6 H 0.69570 -0.00270 0.12890
H7 H 0.78080 0.05420 0.02790
C6 C 0.4958(6) 0.2024(5) 0.0819(4)
C7 C 0.5231(6) 0.2302(5) -0.0244(4)
H8 H 0.60000 0.16480 -0.04850
C8 C 0.5859(7) 0.3392(6) -0.0651(4)
H9 H 0.50600 0.40790 -0.05620
H10 H 0.62730 0.34220 -0.13270
C9 C 0.7317(6) 0.2751(5) 0.0537(4)
C10 C 0.7046(6) 0.3467(5) -0.0222(4)
H11 H 0.76090 0.40490 -0.05100
C11 C 0.9540(7) 0.3643(6) 0.0321(5)
H12 H 1.03500 0.36050 0.05810
H13 H 0.89160 0.44190 0.03120
H14 H 0.99250 0.34840 -0.03130
C12 C 0.3907(7) 0.2376(6) -0.0621(4)
H15 H 0.41880 0.25560 -0.13010
H16 H 0.31050 0.29880 -0.03830
H17 H 0.35920 0.16300 -0.04190
C13 C 0.4274(7) 0.0932(5) 0.1230(4)
H18 H 0.33430 0.10690 0.10720
H19 H 0.41110 0.07700 0.19060
H20 H 0.49360 0.02650 0.09720
C14 C 0.8120(7) 0.2960(5) 0.1918(4)
H21 H 0.89840 0.29290 0.21330
H22 H 0.76420 0.23200 0.23150
C15 C 0.7060(7) 0.4115(5) 0.2068(4)
H23 H 0.75210 0.47640 0.16750
H24 H 0.61730 0.41480 0.18750
C16 C 0.6649(9) 0.4252(6) 0.3038(5)
H25 H 0.75360 0.41990 0.32360
H26 H 0.61620 0.36140 0.34300
C17 C 0.5743(7) 0.5837(6) 0.3855(5)
C18 C 0.4718(6) 0.7002(5) 0.3939(4)
C19 C 0.3812(6) 0.7538(5) 0.3342(4)
H27 H 0.38240 0.71770 0.28550
C20 C 0.2898(6) 0.8601(5) 0.3468(4)
C21 C 0.2882(7) 0.9173(5) 0.4159(4)
H28 H 0.22880 0.99200 0.42180
C22 C 0.3756(7) 0.8616(5) 0.4749(4)
C23 C 0.4700(6) 0.7542(5) 0.4659(4)
H29 H 0.53090 0.71890 0.50690
C24 C 0.3875(6) 0.3076(5) 0.1254(4)
H30 H 0.43570 0.37520 0.10440
H31 H 0.30090 0.32820 0.10010
C25 C 0.3362(7) 0.2887(5) 0.2295(4)
H32 H 0.28010 0.22580 0.25290
H33 H 0.42010 0.26750 0.25740
C26 C 0.2276(7) 0.4249(6) 0.3360(5)
C27 C 0.1249(6) 0.5375(5) 0.3513(4)
C28 C 0.1164(6) 0.5851(5) 0.4282(4)
H34 H 0.17780 0.54760 0.46860
C29 C 0.0171(6) 0.6875(5) 0.4443(4)
C30 C -0.0784(6) 0.7456(5) 0.3897(4)
H35 H -0.14620 0.81520 0.40240
C31 C -0.0683(6) 0.6947(5) 0.3140(4)
C32 C 0.0325(6) 0.5945(5) 0.2936(4)
H36 H 0.03860 0.56480 0.24060
#END
