
#######################################################################
#
#                 Cambridge Crystallographic Data Centre
#                                CCDC
#
#######################################################################
#
# If this CIF has been generated from an entry in the Cambridge
# Structural Database, then it will include bibliographic, chemical,
# crystal, experimental, refinement or atomic coordinate data resulting
# from the CCDC's data processing and validation procedures.
#
#######################################################################

data_CSD_CIF_NEXNAH
_audit_creation_date 2013-05-23
_audit_creation_method CSD-ConQuest-V1
_database_code_CSD NEXNAH
_database_code_depnum_ccdc_archive 'CCDC 874858'
_chemical_formula_sum 'C12 H11 N1 O2'
_chemical_formula_moiety
;
C12 H11 N1 O2
;
_journal_coden_Cambridge 29
_journal_volume 638
_journal_year 2012
_journal_page_first 2248
_journal_name_full 'Z.Anorg.Allg.Chem. '
loop_
_publ_author_name
"M.Holynska"
"N.Frank"
"S.Dehnen"
_chemical_name_systematic
;
2-(N-Hydroxyethanimidoyl)-1-naphthol
;
_cell_volume   1941.197
_exptl_crystal_colour 'colorless'
_exptl_crystal_density_diffrn 1.377
_exptl_crystal_description 'plate'
_diffrn_ambient_temperature 100
#These two values have been output from a single CSD field.
_refine_ls_R_factor_gt 0.0478
_refine_ls_wR_factor_gt 0.0478
_symmetry_cell_setting orthorhombic
_symmetry_space_group_name_H-M 'P b c a'
_symmetry_Int_Tables_number 61
loop_
_symmetry_equiv_pos_site_id
_symmetry_equiv_pos_as_xyz
1 x,y,z
2 1/2-x,-y,1/2+z
3 1/2+x,1/2-y,-z
4 -x,1/2+y,1/2-z
5 -x,-y,-z
6 -1/2+x,y,-1/2-z
7 -1/2-x,-1/2+y,z
8 x,-1/2-y,-1/2+z
_cell_length_a 13.983(3)
_cell_length_b 6.451(3)
_cell_length_c 21.520(4)
_cell_angle_alpha 90
_cell_angle_beta 90
_cell_angle_gamma 90
_cell_formula_units_Z 8
loop_
_atom_type_symbol
_atom_type_radius_bond
C 0.68
H 0.23
N 0.68
O 0.68
loop_
_atom_site_label
_atom_site_type_symbol
_atom_site_fract_x
_atom_site_fract_y
_atom_site_fract_z
O1 O 0.45245(6) 0.19251(13) 0.06333(4)
H1 H 0.45630 0.15060 0.02740
O2 O 0.42034(7) 0.08984(15) -0.10976(4)
H2 H 0.45630 -0.01060 -0.10860
N1 N 0.42061(7) 0.18966(16) -0.05197(4)
C1 C 0.41039(8) 0.3824(2) 0.06383(6)
C2 C 0.37892(8) 0.4770(2) 0.00914(6)
C3 C 0.33828(8) 0.6793(2) 0.01429(6)
H3 H 0.31810 0.74870 -0.02240
C4 C 0.32757(9) 0.77572(19) 0.07024(6)
H4 H 0.30110 0.91130 0.07180
C5 C 0.35542(9) 0.6760(2) 0.12598(6)
C6 C 0.33996(9) 0.7675(2) 0.18541(6)
H5 H 0.31140 0.90080 0.18830
C7 C 0.36595(10) 0.6644(2) 0.23841(6)
H6 H 0.35500 0.72670 0.27780
C8 C 0.40884(10) 0.4669(2) 0.23520(6)
H7 H 0.42700 0.39750 0.27230
C9 C 0.42428(9) 0.3751(2) 0.17898(6)
H8 H 0.45300 0.24180 0.17730
C10 C 0.39789(9) 0.4770(2) 0.12290(6)
C11 C 0.38316(8) 0.3721(2) -0.05168(5)
C12 C 0.34322(10) 0.4748(2) -0.10879(6)
H9 H 0.35630 0.38830 -0.14520
H10 H 0.37330 0.61080 -0.11430
H11 H 0.27400 0.49230 -0.10410
#END
