
#######################################################################
#
#                 Cambridge Crystallographic Data Centre
#                                CCDC
#
#######################################################################
#
# If this CIF has been generated from an entry in the Cambridge
# Structural Database, then it will include bibliographic, chemical,
# crystal, experimental, refinement or atomic coordinate data resulting
# from the CCDC's data processing and validation procedures.
#
#######################################################################

data_CSD_CIF_NEYKOR
_audit_creation_date 1998-04-30
_audit_creation_method CSD-ConQuest-V1
_database_code_CSD NEYKOR
_chemical_formula_sum 'C22 H25 N1 O8'
_chemical_formula_moiety
;
C22 H25 N1 O8
;
_journal_coden_Cambridge 469
_journal_volume 60
_journal_year 1997
_journal_page_first 811
_journal_name_full 'J.Nat.Prod. '
loop_
_publ_author_name
"L.Rahbaek"
"C.Christophersen"
"J.Frisvad"
"H.S.Bengaard"
"S.Larsen"
"B.R.Rassing"
_chemical_name_systematic
;
(6\b-((Nitrobenzoyl)oxy)-9\a,14-dihydroxy-cinnamolide)
;
_chemical_name_common
;
Insulicolide A
;
_chemical_melting_point 457.15
_cell_volume   2033.157
_exptl_crystal_colour 'white'
_exptl_crystal_density_diffrn 1.409
_exptl_special_details
;
Melting point range 457.15-458.15K
Absolute configuration

;
_diffrn_ambient_temperature 122
#These two values have been output from a single CSD field.
_refine_ls_R_factor_gt 0.0324
_refine_ls_wR_factor_gt 0.0324
_chemical_compound_source
;
Aspergillus insulicola
;
_symmetry_cell_setting orthorhombic
_symmetry_space_group_name_H-M 'P 21 21 21'
_symmetry_Int_Tables_number 19
loop_
_symmetry_equiv_pos_site_id
_symmetry_equiv_pos_as_xyz
1 x,y,z
2 1/2-x,-y,1/2+z
3 -x,1/2+y,1/2-z
4 1/2+x,1/2-y,-z
_cell_length_a 7.157(2)
_cell_length_b 14.432(3)
_cell_length_c 19.684(3)
_cell_angle_alpha 90
_cell_angle_beta 90
_cell_angle_gamma 90
_cell_formula_units_Z 4
loop_
_atom_type_symbol
_atom_type_radius_bond
C 0.68
H 0.23
N 0.68
O 0.68
loop_
_atom_site_label
_atom_site_type_symbol
_atom_site_fract_x
_atom_site_fract_y
_atom_site_fract_z
O1 O -0.4932(2) -0.08556(8) -0.17132(6)
O2 O -0.6057(2) 0.00381(8) -0.25418(6)
O3 O -0.4495(2) -0.27192(8) -0.23841(7)
H1 H -0.4737(28) -0.2904(13) -0.284(1)
O4 O 0.3940(2) -0.30944(9) -0.36933(7)
H2 H 0.3847(33) -0.3353(15) -0.4073(11)
O5 O -0.0299(2) -0.10405(7) -0.39008(5)
O6 O -0.1077(2) -0.09787(11) -0.50059(6)
O7 O 0.6172(3) 0.21543(11) -0.53949(8)
O8 O 0.6809(3) 0.20112(13) -0.43244(9)
C1 C 0.1417(2) -0.00365(11) -0.45956(8)
C2 C 0.1796(3) 0.03401(12) -0.52361(8)
H3 H 0.1057(31) 0.0158(13) -0.5611(10)
C3 C 0.3246(3) 0.09585(12) -0.53145(9)
H4 H 0.3633(31) 0.1258(14) -0.5734(11)
C4 C 0.4296(3) 0.11872(11) -0.47496(9)
C5 C 0.3919(3) 0.08489(11) -0.41067(9)
H5 H 0.4686(29) 0.1060(13) -0.3718(9)
C6 C 0.2472(2) 0.02234(11) -0.40346(8)
H6 H 0.2145(28) -0.0027(13) -0.3600(9)
C7 C -0.0114(2) -0.07211(12) -0.45355(8)
C8 C -0.0668(2) -0.31614(12) -0.21279(9)
H7 H -0.0450(27) -0.3011(13) -0.1641(10)
H8 H -0.1733(29) -0.3583(14) -0.2163(10)
C9 C 0.1032(3) -0.36697(12) -0.24109(10)
H9 H 0.2141(31) -0.3317(15) -0.2316(10)
H10 H 0.1214(30) -0.4272(14) -0.215(1)
C10 C 0.0711(3) -0.39192(12) -0.31501(11)
H11 H -0.0513(31) -0.4289(15) -0.321(1)
H12 H 0.1722(30) -0.4278(15) -0.3313(10)
C11 C 0.0437(2) -0.30711(11) -0.36162(9)
C12 C -0.1215(2) -0.24958(11) -0.33095(8)
H13 H -0.2281(27) -0.2925(13) -0.3369(9)
C13 C -0.1864(2) -0.16734(11) -0.37479(8)
H14 H -0.2289(26) -0.1881(13) -0.4178(9)
C14 C -0.3290(2) -0.10570(11) -0.34174(8)
H15 H -0.3768(28) -0.0548(13) -0.3685(9)
C15 C -0.3827(2) -0.11942(10) -0.27845(8)
C16 C -0.3175(2) -0.19743(11) -0.23431(8)
C17 C -0.1145(2) -0.22758(10) -0.25297(8)
C18 C -0.3507(3) -0.15740(13) -0.16305(8)
H16 H -0.411(3) -0.2037(13) -0.1317(10)
H17 H -0.2428(30) -0.1255(14) -0.1415(9)
C19 C -0.5067(2) -0.05895(11) -0.23693(8)
C20 C 0.2297(2) -0.25244(12) -0.36943(10)
H18 H 0.2274(29) -0.2186(14) -0.4132(10)
H19 H 0.2478(29) -0.2108(14) -0.331(1)
C21 C -0.0151(3) -0.34182(14) -0.43254(10)
H20 H -0.0210(34) -0.2897(16) -0.4688(12)
H21 H -0.1366(38) -0.3764(16) -0.4289(12)
H22 H 0.0741(35) -0.3881(17) -0.4504(12)
C22 C 0.0247(2) -0.15016(11) -0.23489(8)
H23 H 0.0113(29) -0.0954(13) -0.2634(10)
H24 H 0.1498(30) -0.1761(14) -0.2413(10)
H25 H 0.0062(29) -0.1311(13) -0.188(1)
N1 N 0.5867(3) 0.18303(11) -0.48296(9)
#END
