
#######################################################################
#
#                 Cambridge Crystallographic Data Centre
#                                CCDC
#
#######################################################################
#
# If this CIF has been generated from an entry in the Cambridge
# Structural Database, then it will include bibliographic, chemical,
# crystal, experimental, refinement or atomic coordinate data resulting
# from the CCDC's data processing and validation procedures.
#
#######################################################################

data_CSD_CIF_NEYXEX
_audit_creation_date 2018-04-27
_audit_creation_method CSD-ConQuest-V1
_database_code_CSD NEYXEX
_database_code_depnum_ccdc_archive 'CCDC 1830484'
_chemical_formula_sum 'C24 H22 N4 O8'
_chemical_formula_moiety
;
C24 H22 N4 O8
;
_journal_coden_Cambridge 1336
_journal_volume 20
_journal_year 2018
_journal_page_first 3025
_journal_name_full 'Org.Lett. '
loop_
_publ_author_name
"P.Kielty"
"D.A.Smith"
"P.Cannon"
"M.P.Carty"
"M.Kennedy"
"P.McArdle"
"R.J.Singer"
"F.Aldabbagh"
_chemical_name_systematic
;
2-oxo-3-[({6-[(2-oxo-4-phenyl-1,2,5-oxadiazol-3-yl)methoxy]hexahydrofuro[3,2-b
]furan-3-yl}oxy)methyl]-4-phenyl-1,2,5-oxadiazole
;
_cell_volume   1163.510
_exptl_crystal_colour 'colorless'
_exptl_crystal_density_diffrn 1.411
_exptl_crystal_description 'Parallelepiped'
_diffrn_ambient_temperature 298
#These two values have been output from a single CSD field.
_refine_ls_R_factor_gt 0.0653
_refine_ls_wR_factor_gt 0.0653
_symmetry_cell_setting monoclinic
_symmetry_space_group_name_H-M 'P 21'
_symmetry_Int_Tables_number 4
loop_
_symmetry_equiv_pos_site_id
_symmetry_equiv_pos_as_xyz
1 x,y,z
2 -x,1/2+y,-z
_cell_length_a 9.7477(15)
_cell_length_b 6.9314(17)
_cell_length_c 17.336(3)
_cell_angle_alpha 90
_cell_angle_beta 96.616(13)
_cell_angle_gamma 90
_cell_formula_units_Z 2
loop_
_atom_type_symbol
_atom_type_radius_bond
C 0.68
H 0.23
N 0.68
O 0.68
loop_
_atom_site_label
_atom_site_type_symbol
_atom_site_fract_x
_atom_site_fract_y
_atom_site_fract_z
O1 O 0.6676(6) 0.2896(8) 0.4962(3)
O2 O 0.6804(5) 0.6129(8) 0.6572(3)
O3 O 0.7386(5) 0.5554(10) 0.3803(3)
O4 O 0.4836(5) 0.6238(8) 0.8722(3)
O5 O 0.9810(5) 0.5443(10) 0.1749(3)
O6 O 0.8456(6) 0.7071(8) 0.5176(3)
O7 O 1.0859(5) 0.6245(11) 0.2963(3)
O8 O 0.3687(5) 0.5699(10) 0.7518(3)
N1 N 0.4839(6) 0.5724(10) 0.7920(3)
N2 N 0.8462(7) 0.5296(10) 0.1398(4)
N3 N 0.6209(7) 0.6175(11) 0.9049(3)
N4 N 0.9745(6) 0.6010(11) 0.2534(4)
C1 C 0.706(1) 0.7481(14) 0.5321(5)
H1 H 0.64647 0.76284 0.48365
H2 H 0.70246 0.86570 0.56215
C2 C 0.6618(8) 0.5777(13) 0.5770(4)
H3 H 0.56365 0.55300 0.56104
C3 C 0.7453(8) 0.4095(13) 0.5507(5)
H4 H 0.78591 0.33413 0.59549
C4 C 0.8585(8) 0.5045(11) 0.5093(4)
H5 H 0.94972 0.46196 0.53288
C5 C 0.8314(8) 0.4301(13) 0.4255(4)
H6 H 0.91659 0.40665 0.40196
C6 C 0.7514(9) 0.2465(14) 0.4368(5)
H7 H 0.69488 0.21095 0.38920
H8 H 0.81391 0.14097 0.45237
C7 C 0.6372(9) 0.4596(12) 0.7033(4)
H9 H 0.70772 0.36020 0.70892
H10 H 0.55299 0.40298 0.67776
C8 C 0.6131(8) 0.5306(11) 0.7799(4)
C9 C 0.6925(7) 0.5640(11) 0.8497(4)
C10 C 0.8450(7) 0.5391(11) 0.8665(4)
C11 C 0.9270(8) 0.5800(14) 0.8096(5)
H11 H 0.88794 0.61989 0.76068
C12 C 1.0697(9) 0.5609(16) 0.8259(7)
H12 H 1.12692 0.58705 0.78779
C13 C 1.1237(11) 0.5045(18) 0.8967(9)
H13 H 1.21924 0.49431 0.90680
C14 C 1.0467(14) 0.4618(17) 0.9544(8)
H14 H 1.08802 0.42162 1.00281
C15 C 0.9014(10) 0.4797(12) 0.9393(5)
H15 H 0.84512 0.45204 0.97766
C16 C 0.8024(8) 0.7026(13) 0.3379(4)
H16 H 0.88411 0.75081 0.36920
H17 H 0.73874 0.80944 0.32725
C17 C 0.8417(7) 0.6256(12) 0.2634(4)
C18 C 0.7673(7) 0.5789(11) 0.1916(4)
C19 C 0.6135(6) 0.5850(11) 0.1709(4)
C20 C 0.5261(7) 0.5372(11) 0.2256(4)
H18 H 0.56190 0.50593 0.27607
C21 C 0.3830(8) 0.5368(11) 0.2038(5)
H19 H 0.32285 0.50839 0.24013
C22 C 0.3330(8) 0.5777(13) 0.1297(5)
H20 H 0.23835 0.57001 0.11506
C23 C 0.4183(9) 0.6304(13) 0.0753(5)
H21 H 0.38112 0.66691 0.02558
C24 C 0.5614(8) 0.6284(12) 0.0955(4)
H22 H 0.62065 0.65602 0.05864
#END
