
#######################################################################
#
#                 Cambridge Crystallographic Data Centre
#                                CCDC
#
#######################################################################
#
# If this CIF has been generated from an entry in the Cambridge
# Structural Database, then it will include bibliographic, chemical,
# crystal, experimental, refinement or atomic coordinate data resulting
# from the CCDC's data processing and validation procedures.
#
#######################################################################

data_CSD_CIF_NEYXIB
_audit_creation_date 2018-04-27
_audit_creation_method CSD-ConQuest-V1
_database_code_CSD NEYXIB
_database_code_depnum_ccdc_archive 'CCDC 1830485'
_chemical_formula_sum 'C17 H18 N2 O7'
_chemical_formula_moiety
;
C17 H18 N2 O7
;
_journal_coden_Cambridge 1336
_journal_volume 20
_journal_year 2018
_journal_page_first 3025
_journal_name_full 'Org.Lett. '
loop_
_publ_author_name
"P.Kielty"
"D.A.Smith"
"P.Cannon"
"M.P.Carty"
"M.Kennedy"
"P.McArdle"
"R.J.Singer"
"F.Aldabbagh"
_chemical_name_systematic
;
6-[(2-oxo-4-phenyl-1,2,5-oxadiazol-3-yl)methoxy]hexahydrofuro[3,2-b]furan-3-yl
 acetate
;
_cell_volume   1716.892
_exptl_crystal_colour 'colorless'
_exptl_crystal_density_diffrn 1.402
_exptl_crystal_description 'Parallelepiped'
_diffrn_ambient_temperature 300.4
#These two values have been output from a single CSD field.
_refine_ls_R_factor_gt 0.0409
_refine_ls_wR_factor_gt 0.0409
_symmetry_cell_setting orthorhombic
_symmetry_space_group_name_H-M 'P 21 21 21'
_symmetry_Int_Tables_number 19
loop_
_symmetry_equiv_pos_site_id
_symmetry_equiv_pos_as_xyz
1 x,y,z
2 1/2-x,-y,1/2+z
3 -x,1/2+y,1/2-z
4 1/2+x,1/2-y,-z
_cell_length_a 8.4273(6)
_cell_length_b 8.8552(4)
_cell_length_c 23.0068(12)
_cell_angle_alpha 90
_cell_angle_beta 90
_cell_angle_gamma 90
_cell_formula_units_Z 4
loop_
_atom_type_symbol
_atom_type_radius_bond
C 0.68
H 0.23
N 0.68
O 0.68
loop_
_atom_site_label
_atom_site_type_symbol
_atom_site_fract_x
_atom_site_fract_y
_atom_site_fract_z
O1 O 0.6108(2) 0.50154(18) 0.43635(8)
O2 O 0.3650(2) 0.97763(17) 0.35702(8)
O3 O 0.2664(2) 0.7358(2) 0.43665(8)
O4 O 0.5861(2) 0.7685(2) 0.36128(9)
O5 O 0.8636(3) 0.0821(2) 0.45618(9)
O6 O 0.4653(3) 0.9930(3) 0.26699(10)
N1 N 0.9343(3) 0.1346(2) 0.40616(11)
O7 O 0.7155(3) 0.1843(3) 0.52920(11)
N2 N 0.7873(3) 0.2086(3) 0.48374(11)
C1 C 0.6183(4) 0.7762(3) 0.42195(13)
H1 H 0.57842 0.86977 0.43827
H2 H 0.73151 0.76995 0.42923
C2 C 0.5335(3) 0.6426(3) 0.44779(12)
H3 H 0.51155 0.65658 0.48927
C3 C 0.3831(3) 0.6375(3) 0.41205(11)
H4 H 0.34326 0.53430 0.40727
C4 C 0.4310(3) 0.7089(3) 0.35380(11)
H5 H 0.42949 0.63348 0.32264
C5 C 0.3023(3) 0.8307(3) 0.34353(12)
H6 H 0.25908 0.82618 0.30402
C6 C 0.1794(3) 0.7933(3) 0.38850(12)
H7 H 0.12033 0.88291 0.39952
H8 H 0.10570 0.71824 0.37389
C7 C 0.4538(4) 1.0422(3) 0.31504(15)
C8 C 0.5340(4) 1.1808(4) 0.33746(19)
H9 H 0.63784 1.15511 0.35147
H10 H 0.47252 1.22296 0.36863
H11 H 0.54317 1.25357 0.30671
C9 C 0.7532(4) 0.4779(3) 0.46789(13)
H12 H 0.73238 0.48111 0.50934
H13 H 0.82988 0.55596 0.45857
C10 C 0.8153(3) 0.3285(3) 0.45125(11)
C11 C 0.9063(3) 0.2790(3) 0.40344(11)
C12 C 0.9647(3) 0.3690(3) 0.35417(12)
C13 C 1.1137(4) 0.3402(3) 0.33137(13)
H14 H 1.17907 0.26796 0.34835
C14 C 1.1645(5) 0.4198(4) 0.28313(16)
H15 H 1.26406 0.40059 0.26731
C15 C 1.0678(6) 0.5273(4) 0.25853(15)
H16 H 1.10262 0.58120 0.22626
C16 C 0.9213(5) 0.5555(4) 0.28110(16)
H17 H 0.85639 0.62782 0.26393
C17 C 0.8687(4) 0.4777(3) 0.32917(13)
H18 H 0.76917 0.49806 0.34475
#END
