
#######################################################################
#
#                 Cambridge Crystallographic Data Centre
#                                CCDC
#
#######################################################################
#
# If this CIF has been generated from an entry in the Cambridge
# Structural Database, then it will include bibliographic, chemical,
# crystal, experimental, refinement or atomic coordinate data resulting
# from the CCDC's data processing and validation procedures.
#
#######################################################################

data_CSD_CIF_NEZMUA
_audit_creation_date 1998-05-14
_audit_creation_method CSD-ConQuest-V1
_database_code_CSD NEZMUA
_database_code_depnum_ccdc_journal 188/77
_chemical_formula_sum 'C3 H3 N1 O2'
_chemical_formula_moiety
;
C3 H3 N1 O2
;
_journal_coden_Cambridge 188
_journal_year 1997
_journal_page_first 1783
_journal_name_full 'J.Chem.Soc.,Perkin Trans.2 '
loop_
_publ_author_name
"K.Frydenvang"
"L.Matzen"
"P.-O.Norrby"
"F.A.Slok"
"T.Liljefors"
"P.Krogsgaard-Larsen"
"J.W.Jaroszewski"
_chemical_name_systematic
;
Isoxazol-3-ol
;
_chemical_melting_point 371.15
_cell_volume    355.389
_exptl_crystal_colour 'colorless'
_exptl_crystal_density_diffrn 1.59
_exptl_special_details
;
Melting point range 371.15-372.15K

;
_diffrn_ambient_temperature 122
#These two values have been output from a single CSD field.
_refine_ls_R_factor_gt 0.037
_refine_ls_wR_factor_gt 0.037
_symmetry_cell_setting monoclinic
_symmetry_space_group_name_H-M 'P 21/c'
_symmetry_Int_Tables_number 14
loop_
_symmetry_equiv_pos_site_id
_symmetry_equiv_pos_as_xyz
1 x,y,z
2 -x,1/2+y,1/2-z
3 -x,-y,-z
4 x,-1/2-y,-1/2+z
_cell_length_a 6.2611(9)
_cell_length_b 8.011(1)
_cell_length_c 7.086(1)
_cell_angle_alpha 90
_cell_angle_beta 90.72(1)
_cell_angle_gamma 90
_cell_formula_units_Z 4
loop_
_atom_type_symbol
_atom_type_radius_bond
C 0.68
H 0.23
N 0.68
O 0.68
loop_
_atom_site_label
_atom_site_type_symbol
_atom_site_fract_x
_atom_site_fract_y
_atom_site_fract_z
O1 O 0.9166(1) 0.6349(1) 0.1406(1)
N1 N 0.7067(1) 0.5855(1) 0.0925(1)
C1 C 0.5976(2) 0.7247(1) 0.0757(2)
O2 O 0.3915(1) 0.7269(1) 0.0268(1)
C2 C 0.7254(2) 0.8676(1) 0.1142(2)
C3 C 0.9187(2) 0.8031(1) 0.1524(2)
H1 H 0.344(3) 0.624(3) -0.014(3)
H2 H 0.683(3) 0.982(3) 0.111(3)
H3 H 1.061(3) 0.847(3) 0.185(3)
#END
