
#######################################################################
#
#                 Cambridge Crystallographic Data Centre
#                                CCDC
#
#######################################################################
#
# If this CIF has been generated from an entry in the Cambridge
# Structural Database, then it will include bibliographic, chemical,
# crystal, experimental, refinement or atomic coordinate data resulting
# from the CCDC's data processing and validation procedures.
#
#######################################################################

data_CSD_CIF_NFMLEA
_audit_creation_date 1980-09-10
_audit_creation_method CSD-ConQuest-V1
_database_code_CSD NFMLEA
_chemical_formula_sum 'C10 H12 N2 O4'
_chemical_formula_moiety
;
C10 H12 N2 O4
;
_journal_coden_Cambridge 82
_journal_volume 21
_journal_year 1980
_journal_page_first 172-1
_journal_name_full 'Zh.Strukt.Khim.(Russ.)(J.Struct.Chem.) '
loop_
_publ_author_name
"A.Kusa"
"T.N.Polynova"
"M.A.Porai-Koshits"
"Ya.Kovach"
"D.Vegkh"
_chemical_name_systematic
;
(E)-1-(5-Nitro-2-furyl)-2-morpholino-ethylene
;
_cell_volume   1032.977
_exptl_special_details
;
H5 deleted (suspected coordinate error). There are a number of C-H bond 
discrepancies
;
_diffrn_ambient_temperature ?
_diffrn_special_details
;
The study was carried out at room temperature,in the range 283-303K

;
#These two values have been output from a single CSD field.
_refine_ls_R_factor_gt 0.051
_refine_ls_wR_factor_gt 0.051
_symmetry_cell_setting monoclinic
_symmetry_space_group_name_H-M 'P 1 1 21/n'
_symmetry_Int_Tables_number 14
loop_
_symmetry_equiv_pos_site_id
_symmetry_equiv_pos_as_xyz
1 x,y,z
2 1/2-x,1/2-y,1/2+z
3 -x,-y,-z
4 -1/2+x,-1/2+y,-1/2-z
_cell_length_a 8.382(8)
_cell_length_b 15.579(5)
_cell_length_c 11.129(8)
_cell_angle_alpha 90
_cell_angle_beta 90
_cell_angle_gamma 134.7(1)
_cell_formula_units_Z 4
loop_
_atom_type_symbol
_atom_type_radius_bond
C 0.68
H 0.23
N 0.68
O 0.68
loop_
_atom_site_label
_atom_site_type_symbol
_atom_site_fract_x
_atom_site_fract_y
_atom_site_fract_z
O1 O 0.77160 0.07780 0.47020
O2 O 0.84510 0.32710 0.44840
O3 O 0.92170 0.26550 0.59650
O4 O 0.45170 -0.44780 0.65520
N1 N 0.85140 0.25510 0.49320
N2 N 0.64900 -0.22360 0.55830
C1 C 0.65430 -0.10810 0.40940
C2 C 0.69100 -0.12660 0.52170
C3 C 0.68230 -0.00950 0.38310
C4 C 0.63350 0.02110 0.28190
C5 C 0.69250 0.12820 0.30640
C6 C 0.77150 0.15880 0.42080
C7 C 0.56930 -0.32170 0.47780
C8 C 0.38180 -0.44280 0.54190
C9 C 0.50590 -0.35680 0.73280
C10 C 0.70450 -0.23030 0.68180
H1 H 0.57510 -0.17500 0.31700
H2 H 0.73500 -0.07400 0.61100
H3 H 0.59800 -0.00700 0.22700
H4 H 0.64700 0.15300 0.26700
H5 H 0.45700 -0.33600 0.39200
H6 H 0.26600 -0.45400 0.56000
H7 H 0.29700 -0.51300 0.47600
H8 H 0.56100 -0.35300 0.81000
H9 H 0.35700 -0.38200 0.74000
H10 H 0.72400 -0.17200 0.74100
H11 H 0.85700 -0.21300 0.69000
#END
