
#######################################################################
#
#                 Cambridge Crystallographic Data Centre
#                                CCDC
#
#######################################################################
#
# If this CIF has been generated from an entry in the Cambridge
# Structural Database, then it will include bibliographic, chemical,
# crystal, experimental, refinement or atomic coordinate data resulting
# from the CCDC's data processing and validation procedures.
#
#######################################################################

data_CSD_CIF_NHMENT
_audit_creation_date 1972-07-27
_audit_creation_method CSD-ConQuest-V1
_database_code_CSD NHMENT
_chemical_formula_sum 'C9 H13 N3 O5'
_chemical_formula_moiety
;
C9 H13 N3 O5
;
_journal_coeditor_code "IUCr A08875"
_journal_coden_Cambridge 107
_journal_volume 28
_journal_year 1972
_journal_page_first 538
_journal_name_full 'Acta Crystallogr.,Sect.B:Struct.Crystallogr.Cryst.Chem. '
loop_
_publ_author_name
"H.Schenk"
"P.Benci"
_chemical_name_systematic
;
1,3-Dinitro-6-hydroxymethylene-3,4-methano-nortropane
;
_cell_volume   1071.754
_exptl_special_details
;
C2 z 0.4196, not 0.4169

;
_diffrn_ambient_temperature ?
_diffrn_special_details
;
The study was carried out at room temperature,in the range 283-303K

;
#These two values have been output from a single CSD field.
_refine_ls_R_factor_gt 0.048
_refine_ls_wR_factor_gt 0.048
_symmetry_cell_setting monoclinic
_symmetry_space_group_name_H-M 'P 21/c'
_symmetry_Int_Tables_number 14
loop_
_symmetry_equiv_pos_site_id
_symmetry_equiv_pos_as_xyz
1 x,y,z
2 -x,1/2+y,1/2-z
3 -x,-y,-z
4 x,-1/2-y,-1/2+z
_cell_length_a 6.423(1)
_cell_length_b 6.937(1)
_cell_length_c 24.416(1)
_cell_angle_alpha 90
_cell_angle_beta 99.88(1)
_cell_angle_gamma 90
_cell_formula_units_Z 4
loop_
_atom_type_symbol
_atom_type_radius_bond
C 0.68
H 0.20
N 0.68
O 0.68
loop_
_atom_site_label
_atom_site_type_symbol
_atom_site_fract_x
_atom_site_fract_y
_atom_site_fract_z
C1 C 0.24900 0.71680 0.43930
C2 C 0.07200 0.86150 0.41960
C3 C 0.05740 0.93360 0.36040
C4 C 0.22310 1.09110 0.35840
C5 C 0.42570 0.97310 0.35640
C6 C 0.34540 0.76480 0.34670
C7 C 0.38560 0.64100 0.39950
C8 C 0.01980 0.65930 0.43380
C9 C 0.17160 1.21900 0.30760
H1 H 0.05500 0.94100 0.44600
H2 H 0.13700 1.15800 0.27400
H3 H 0.29700 1.29800 0.30300
H4 H -0.08000 1.32500 0.28300
H5 H 0.05300 0.68100 0.32600
H6 H -0.09100 0.96500 0.34500
H7 H 0.23600 1.16400 0.39300
H8 H 0.49200 1.01100 0.32400
H9 H 0.53100 0.95900 0.39200
H10 H 0.35100 0.49800 0.39000
H11 H 0.53500 0.64300 0.41800
H12 H -0.03400 0.63600 0.47100
H13 H -0.02700 0.58700 0.40400
N1 N 0.12490 0.78670 0.32350
N2 N 0.45910 0.67090 0.30360
N3 N 0.36040 0.74930 0.49680
O1 O 0.00540 1.34900 0.31320
O2 O 0.63850 0.61860 0.31900
O3 O 0.55220 0.73970 0.50660
O4 O 0.25610 0.78780 0.53270
O5 O 0.36860 0.65330 0.25630
#END
