
#######################################################################
#
#                 Cambridge Crystallographic Data Centre
#                                CCDC
#
#######################################################################
#
# If this CIF has been generated from an entry in the Cambridge
# Structural Database, then it will include bibliographic, chemical,
# crystal, experimental, refinement or atomic coordinate data resulting
# from the CCDC's data processing and validation procedures.
#
#######################################################################

data_CSD_CIF_NHPYOX10
_audit_creation_date 1972-06-21
_audit_creation_method CSD-ConQuest-V1
_database_code_CSD NHPYOX10
_chemical_formula_sum 'C15 H20 N2 O3'
_chemical_formula_moiety
;
C15 H20 N2 O3
;
_journal_coeditor_code "IUCr A08787"
_journal_coden_Cambridge 107
_journal_volume 28
_journal_year 1972
_journal_page_first 37
_journal_name_full 'Acta Crystallogr.,Sect.B:Struct.Crystallogr.Cryst.Chem. '
loop_
_publ_author_name
"C.S.Huber"
_chemical_name_systematic
;
1-p-Nitrophenyl-3-methylperhydro-2,9-pyridoxazine
;
_cell_volume   1461.413
_exptl_crystal_density_diffrn 1.256
_exptl_special_details
;
Absolute configuration

;
_diffrn_ambient_temperature ?
_diffrn_special_details
;
The study was carried out at room temperature,in the range 283-303K

;
#These two values have been output from a single CSD field.
_refine_ls_R_factor_gt 0.038
_refine_ls_wR_factor_gt 0.038
_symmetry_cell_setting monoclinic
_symmetry_space_group_name_H-M 'C 2'
_symmetry_Int_Tables_number 5
loop_
_symmetry_equiv_pos_site_id
_symmetry_equiv_pos_as_xyz
1 x,y,z
2 1/2+x,1/2+y,z
3 -x,y,-z
4 1/2-x,1/2+y,-z
_cell_length_a 22.506(19)
_cell_length_b 8.089(3)
_cell_length_c 8.443(7)
_cell_angle_alpha 90
_cell_angle_beta 108.05(5)
_cell_angle_gamma 90
_cell_formula_units_Z 4
loop_
_atom_type_symbol
_atom_type_radius_bond
C 0.68
H 0.20
N 0.68
O 0.68
loop_
_atom_site_label
_atom_site_type_symbol
_atom_site_fract_x
_atom_site_fract_y
_atom_site_fract_z
C1 C 0.12647 -0.00757 0.09296
C2 C 0.22458 -0.13749 0.10355
C3 C 0.11032 -0.09198 -0.34313
C4 C 0.09537 0.13591 0.15129
C5 C 0.11561 0.29562 0.13834
C6 C 0.08523 0.42948 0.17931
C7 C 0.03419 0.39999 0.23447
C8 C 0.01370 0.24250 0.25086
C9 C 0.04496 0.10996 0.20978
C10 C 0.13504 -0.12142 -0.15801
C11 C 0.20549 -0.12358 -0.08413
C12 C 0.29507 -0.12757 0.18425
C13 C 0.31379 -0.14012 0.37223
C14 C 0.27813 -0.01357 0.44075
C15 C 0.20838 -0.02840 0.35275
H1 H 0.20930 -0.24970 0.13320
H2 H 0.10570 -0.11540 0.11460
H3 H 0.12400 0.02390 -0.37770
H4 H 0.06690 -0.08590 -0.38450
H5 H 0.12740 -0.17540 -0.39990
H6 H 0.15130 0.30380 0.10050
H7 H 0.09700 0.54140 0.16600
H8 H -0.02170 0.22530 0.28260
H9 H 0.03010 0.00620 0.21350
H10 H 0.11760 -0.22390 -0.12690
H11 H 0.22420 -0.02110 -0.11750
H12 H 0.22050 -0.21770 -0.13610
H13 H 0.31070 -0.02780 0.15670
H14 H 0.31540 -0.20960 0.14200
H15 H 0.35600 -0.13440 0.42070
H16 H 0.30330 -0.25350 0.39620
H17 H 0.28480 -0.02860 0.55920
H18 H 0.28870 0.10700 0.42220
H19 H 0.19040 -0.13440 0.37710
H20 H 0.18410 0.05250 0.39060
N1 N -0.00001 0.54150 0.27201
N2 N 0.19408 -0.00608 0.17241
O1 O -0.04651 0.51447 0.31218
O2 O 0.11126 0.01138 -0.08117
O3 O 0.01927 0.67795 0.26047
#END
