
#######################################################################
#
#                 Cambridge Crystallographic Data Centre
#                                CCDC
#
#######################################################################
#
# If this CIF has been generated from an entry in the Cambridge
# Structural Database, then it will include bibliographic, chemical,
# crystal, experimental, refinement or atomic coordinate data resulting
# from the CCDC's data processing and validation procedures.
#
#######################################################################

data_CSD_CIF_NIBBEI
_audit_creation_date 2018-04-27
_audit_creation_method CSD-ConQuest-V1
_database_code_CSD NIBBEI
_database_code_depnum_ccdc_archive 'CCDC 977234'
_chemical_formula_sum 'C15 H14 N2 O6'
_chemical_formula_moiety
;
C15 H14 N2 O6
;
_journal_coden_Cambridge 1177
_journal_volume 40
_journal_year 2018
_journal_page_first 217
_journal_name_full 'Huaxue Shiji(Chin.)(Chemical Reagents) '
loop_
_publ_author_name
"Wu-lan Zeng"
"Xia Wang"
"Hui-lian Liu"
_chemical_name_systematic
;
8-(((3-nitrophenyl)amino)methylene)-6,10-dioxaspiro[4.5]decane-7,9-dione
;
_cell_volume   1439.413
_exptl_crystal_colour 'colorless'
_exptl_crystal_density_diffrn 1.469
_exptl_crystal_description 'block'
_diffrn_ambient_temperature 293
#These two values have been output from a single CSD field.
_refine_ls_R_factor_gt 0.0488
_refine_ls_wR_factor_gt 0.0488
_symmetry_cell_setting monoclinic
_symmetry_space_group_name_H-M 'P 21/c'
_symmetry_Int_Tables_number 14
loop_
_symmetry_equiv_pos_site_id
_symmetry_equiv_pos_as_xyz
1 x,y,z
2 -x,1/2+y,1/2-z
3 -x,-y,-z
4 x,-1/2-y,-1/2+z
_cell_length_a 11.251(2)
_cell_length_b 11.001(2)
_cell_length_c 12.750(3)
_cell_angle_alpha 90
_cell_angle_beta 114.20(3)
_cell_angle_gamma 90
_cell_formula_units_Z 4
loop_
_atom_type_symbol
_atom_type_radius_bond
C 0.68
H 0.23
N 0.68
O 0.68
loop_
_atom_site_label
_atom_site_type_symbol
_atom_site_fract_x
_atom_site_fract_y
_atom_site_fract_z
O1 O 0.2039(1) 0.68869(9) 0.14038(9)
O2 O 0.28795(12) 0.88422(10) 0.20060(11)
O3 O 0.04541(11) 0.61250(9) 0.17957(10)
N1 N -0.03330(13) 0.73940(11) 0.32380(11)
H1 H -0.04190 0.67220 0.28690
C1 C 0.12525(14) 0.80577(12) 0.25579(12)
C2 C 0.12052(14) 0.69556(12) 0.19260(12)
O4 O 0.20348(13) 1.00814(10) 0.28691(12)
C3 C 0.04762(14) 0.82108(12) 0.31473(12)
H2 H 0.05270 0.89530 0.35120
C4 C -0.10689(14) 0.75456(12) 0.38992(12)
C5 C -0.12763(15) 0.65367(13) 0.44515(12)
H3 H -0.09400 0.57810 0.43900
C6 C 0.20620(16) 0.90670(13) 0.25243(14)
C7 C -0.15685(16) 0.86705(13) 0.40074(14)
H4 H -0.14370 0.93460 0.36290
C8 C -0.19943(16) 0.66857(15) 0.50945(13)
C9 C 0.32035(16) 0.76059(14) 0.19027(14)
C10 C -0.24897(17) 0.77907(17) 0.52257(14)
H5 H -0.29650 0.78660 0.56710
O5 O -0.16576(19) 0.46672(15) 0.56526(15)
C11 C -0.22597(18) 0.87802(15) 0.46779(15)
H6 H -0.25770 0.95380 0.47620
N2 N -0.22250(18) 0.56042(16) 0.56640(13)
O6 O -0.2976(2) 0.56963(19) 0.61228(19)
C12 C 0.41244(17) 0.70495(17) 0.30255(16)
H7 H 0.36530 0.67320 0.34550
H8 H 0.47580 0.76410 0.34960
C13 C 0.3893(2) 0.75219(18) 0.10987(19)
H9 H 0.42660 0.83010 0.10410
H10 H 0.32910 0.72700 0.03360
C14 C 0.4779(2) 0.6034(2) 0.2653(2)
H11 H 0.56110 0.58200 0.32640
H12 H 0.42300 0.53160 0.24290
C15 C 0.4958(3) 0.6575(3) 0.1638(3)
H13 H 0.48890 0.59470 0.10830
H14 H 0.58100 0.69520 0.18890
#END
