
#######################################################################
#
#                 Cambridge Crystallographic Data Centre
#                                CCDC
#
#######################################################################
#
# If this CIF has been generated from an entry in the Cambridge
# Structural Database, then it will include bibliographic, chemical,
# crystal, experimental, refinement or atomic coordinate data resulting
# from the CCDC's data processing and validation procedures.
#
#######################################################################

data_CSD_CIF_NICQIC
_audit_creation_date 2018-04-30
_audit_creation_method CSD-ConQuest-V1
_database_code_CSD NICQIC
_database_code_depnum_ccdc_archive 'CCDC 1840481'
_chemical_formula_sum 'C13 H10 N4 O7'
_chemical_formula_moiety
;
C13 H10 N4 O7
;
_journal_coden_Cambridge 4
_journal_volume 140
_journal_year 2018
_journal_page_first 5560
_journal_name_full 'J.Am.Chem.Soc. '
loop_
_publ_author_name
"Ruirui Gu"
"K.Flidrova"
"J.-M.Lehn"
_chemical_name_systematic
;
5-[(2,4-dinitrophenyl)methylidene]-1,3-dimethylpyrimidine-2,4,6(1H,3H,5H)-trio
ne
;
_cell_volume   1354.613
_exptl_crystal_colour 'colorless'
_exptl_crystal_density_diffrn 1.639
_exptl_crystal_description 'prism'
_diffrn_ambient_temperature 173
#These two values have been output from a single CSD field.
_refine_ls_R_factor_gt 0.0336
_refine_ls_wR_factor_gt 0.0336
_symmetry_cell_setting orthorhombic
_symmetry_space_group_name_H-M 'P 21 21 21'
_symmetry_Int_Tables_number 19
loop_
_symmetry_equiv_pos_site_id
_symmetry_equiv_pos_as_xyz
1 x,y,z
2 1/2+x,1/2-y,-z
3 -x,1/2+y,1/2-z
4 1/2-x,-y,1/2+z
_cell_length_a 7.5143(3)
_cell_length_b 12.9125(4)
_cell_length_c 13.9610(5)
_cell_angle_alpha 90
_cell_angle_beta 90
_cell_angle_gamma 90
_cell_formula_units_Z 4
loop_
_atom_type_symbol
_atom_type_radius_bond
C 0.68
H 0.23
N 0.68
O 0.68
loop_
_atom_site_label
_atom_site_type_symbol
_atom_site_fract_x
_atom_site_fract_y
_atom_site_fract_z
C1 C 0.2473(2) 0.39699(11) -0.07825(10)
C2 C 0.4859(2) 0.35505(10) 0.03631(10)
C3 C 0.37619(19) 0.40182(10) 0.11239(9)
C4 C 0.20243(19) 0.45014(11) 0.08846(10)
C5 C -0.0321(2) 0.47763(15) -0.03019(13)
H1 H -0.11000 0.47480 0.02600
H2 H -0.08300 0.43540 -0.08170
H3 H -0.02110 0.54950 -0.05190
C6 C 0.5151(3) 0.30953(15) -0.13285(12)
H4 H 0.64210 0.30910 -0.11690
H5 H 0.49660 0.34820 -0.19240
H6 H 0.47330 0.23820 -0.14120
C7 C 0.41969(19) 0.39795(11) 0.20577(10)
H7 H 0.32960 0.41990 0.24900
C8 C 0.58878(19) 0.36419(10) 0.25041(9)
C9 C 0.7335(2) 0.43254(11) 0.24734(10)
H8 H 0.72650 0.49270 0.20830
C10 C 0.8868(2) 0.41414(11) 0.30016(10)
H9 H 0.98300 0.46180 0.29870
C11 C 0.89680(18) 0.32469(11) 0.35517(9)
C12 C 0.76003(19) 0.25336(10) 0.35943(9)
H10 H 0.77040 0.19160 0.39600
C13 C 0.60693(18) 0.27589(10) 0.30806(9)
N1 N 0.14446(17) 0.43751(10) -0.00481(9)
N2 N 0.41518(18) 0.35904(10) -0.05505(8)
N3 N 0.45982(17) 0.20176(10) 0.31696(9)
N4 N 1.05927(18) 0.30355(10) 0.40985(9)
O1 O 0.1941(2) 0.39592(10) -0.16040(8)
O2 O 0.63077(18) 0.31506(11) 0.05150(9)
O3 O 0.11356(17) 0.49764(11) 0.14661(8)
O4 O 0.47266(19) 0.13218(10) 0.37629(10)
O5 O 0.32989(18) 0.21341(12) 0.26473(10)
O6 O 1.07358(19) 0.21955(10) 0.44914(10)
O7 O 1.17401(18) 0.37170(11) 0.41361(10)
#END
