
#######################################################################
#
#                 Cambridge Crystallographic Data Centre
#                                CCDC
#
#######################################################################
#
# If this CIF has been generated from an entry in the Cambridge
# Structural Database, then it will include bibliographic, chemical,
# crystal, experimental, refinement or atomic coordinate data resulting
# from the CCDC's data processing and validation procedures.
#
#######################################################################

data_CSD_CIF_NIDMUL
_audit_creation_date 2018-04-30
_audit_creation_method CSD-ConQuest-V1
_database_code_CSD NIDMUL
_database_code_depnum_ccdc_archive 'CCDC 1587199'
_chemical_formula_sum 'C29 H25 N3 O3'
_chemical_formula_moiety
;
C29 H25 N3 O3
;
_journal_coden_Cambridge 2020
_journal_volume 3
_journal_year 2018
_journal_page_first 4557
_journal_name_full 'Chem. Sel. '
loop_
_publ_author_name
"L.Eberlin"
"A.Mace"
"A.S.Batsanov"
"B.Carboni"
"Andrew Whiting"
_chemical_name_systematic
;
2-(2-methylphenyl)-3-[1-(2-methylphenyl)-1H-pyrrol-3-yl]-5-phenyldihydro-2H-py
rrolo[3,4-d][1,2]oxazole-4,6(3H,5H)-dione
;
_cell_volume   4674.985
_exptl_crystal_colour 'colorless'
_exptl_crystal_density_diffrn 1.317
_exptl_crystal_description 'prism'
_exptl_crystal_preparation 'ethyl acetate'
_diffrn_ambient_temperature 120
#These two values have been output from a single CSD field.
_refine_ls_R_factor_gt 0.0365
_refine_ls_wR_factor_gt 0.0365
_symmetry_cell_setting orthorhombic
_symmetry_space_group_name_H-M 'P b c a'
_symmetry_Int_Tables_number 61
loop_
_symmetry_equiv_pos_site_id
_symmetry_equiv_pos_as_xyz
1 x,y,z
2 1/2-x,-y,1/2+z
3 1/2+x,1/2-y,-z
4 -x,1/2+y,1/2-z
5 -x,-y,-z
6 -1/2+x,y,-1/2-z
7 -1/2-x,-1/2+y,z
8 x,-1/2-y,-1/2+z
_cell_length_a 5.9334(2)
_cell_length_b 20.7173(6)
_cell_length_c 38.0315(12)
_cell_angle_alpha 90
_cell_angle_beta 90
_cell_angle_gamma 90
_cell_formula_units_Z 8
loop_
_atom_type_symbol
_atom_type_radius_bond
C 0.68
H 0.23
N 0.68
O 0.68
loop_
_atom_site_label
_atom_site_type_symbol
_atom_site_fract_x
_atom_site_fract_y
_atom_site_fract_z
O1 O 1.20768(16) 0.29693(5) 0.09993(3)
O2 O 0.71591(17) 0.28679(5) 0.00783(3)
O3 O 1.37641(17) 0.38157(5) 0.04224(3)
N1 N 0.97723(19) 0.32210(5) 0.10470(3)
N2 N 1.0384(2) 0.34603(5) 0.01860(3)
N3 N 0.6877(2) 0.13452(6) 0.14867(4)
C1 C 0.8383(2) 0.26793(6) 0.08941(4)
H1 H 0.68350 0.28400 0.08380
C2 C 0.9686(2) 0.25577(6) 0.05514(4)
H2 H 0.97320 0.20880 0.04910
C3 C 0.8861(2) 0.29587(6) 0.02454(4)
C4 C 1.2252(2) 0.34296(7) 0.04086(4)
C5 C 1.2039(2) 0.28205(7) 0.06340(4)
H3 H 1.32330 0.24990 0.05730
C6 C 0.6387(2) 0.19081(7) 0.13111(4)
H4 H 0.49990 0.21360 0.13230
C7 C 0.8223(2) 0.20856(7) 0.11171(4)
C8 C 0.9915(2) 0.16069(7) 0.11748(4)
H5 H 1.13780 0.16000 0.10740
C9 C 0.9043(2) 0.11618(7) 0.14020(4)
H6 H 0.98000 0.07890 0.14870
C10 C 0.9408(2) 0.33442(6) 0.14151(4)
C11 C 0.7614(3) 0.37577(7) 0.15003(4)
C12 C 0.7203(3) 0.38716(8) 0.18567(5)
H7 H 0.59780 0.41420 0.19220
C13 C 0.8531(3) 0.36015(8) 0.21180(5)
H8 H 0.82200 0.36900 0.23580
C14 C 1.0305(3) 0.32040(8) 0.20280(5)
H9 H 1.12250 0.30200 0.22060
C15 C 1.0742(3) 0.30739(7) 0.16766(4)
H10 H 1.19590 0.27990 0.16150
C16 C 1.0061(2) 0.39332(6) -0.00862(4)
C17 C 0.8020(3) 0.42588(7) -0.01049(4)
H11 H 0.68650 0.41760 0.00620
C18 C 0.7692(3) 0.47066(7) -0.03709(5)
H12 H 0.63010 0.49320 -0.03870
C19 C 0.9385(3) 0.48287(8) -0.06150(5)
H13 H 0.91510 0.51370 -0.07960
C20 C 1.1409(3) 0.45000(8) -0.05928(4)
H14 H 1.25620 0.45810 -0.07610
C21 C 1.1765(3) 0.40516(7) -0.03259(4)
H15 H 1.31620 0.38300 -0.03090
C22 C 0.5382(2) 0.09910(7) 0.17093(4)
C23 C 0.4520(3) 0.12763(7) 0.20143(4)
C24 C 0.3094(3) 0.09032(8) 0.22221(4)
H16 H 0.24640 0.10870 0.24290
C25 C 0.2564(3) 0.02687(8) 0.21356(5)
H17 H 0.15830 0.00250 0.22820
C26 C 0.3473(3) -0.00067(7) 0.18356(5)
H18 H 0.31350 -0.04420 0.17770
C27 C 0.4875(3) 0.03558(7) 0.16221(4)
H19 H 0.54940 0.01700 0.14150
C28 C 0.6198(3) 0.40768(7) 0.12226(5)
H20 H 0.71410 0.41800 0.10190
H21 H 0.55440 0.44750 0.13170
H22 H 0.49860 0.37830 0.11510
C29 C 0.5162(3) 0.19534(7) 0.21236(5)
H23 H 0.67710 0.20220 0.20790
H24 H 0.48500 0.20110 0.23750
H25 H 0.42810 0.22660 0.19880
#END
