
#######################################################################
#
#                 Cambridge Crystallographic Data Centre
#                                CCDC
#
#######################################################################
#
# If this CIF has been generated from an entry in the Cambridge
# Structural Database, then it will include bibliographic, chemical,
# crystal, experimental, refinement or atomic coordinate data resulting
# from the CCDC's data processing and validation procedures.
#
#######################################################################

data_CSD_CIF_NIFBUA
_audit_creation_date 2007-06-19
_audit_creation_method CSD-ConQuest-V1
_database_code_CSD NIFBUA
_database_code_depnum_ccdc_archive 'CCDC 647687'
_chemical_formula_sum 'C16 H12 N6 O4'
_chemical_formula_moiety
;
C16 H12 N6 O4
;
_journal_coeditor_code "IUCr CI2368"
_journal_coden_Cambridge 1370
_journal_volume 63
_journal_year 2007
_journal_page_first o2667
_journal_name_full 'Acta Crystallogr.,Sect.E:Struct.Rep.Online '
loop_
_publ_author_name
"Jie-Xing Zhou"
"Li-Hui Niu"
"Xiao-Yue Li"
"Da-Qing Shi"
_chemical_name_systematic
;
7-Amino-1,3-dimethyl-5-(4-nitrophenyl)-2,4-dioxo-1,2,3,4-tetrahydropyrido(2,3-
d)pyrimidine-6-carbonitrile
;
_chemical_name_common
;
7-Amino-1,3-dimethyl-2,4-dioxo-5-(4-nitrophenyl)pyrido(2,3-d)pyrimidine-6-carb
onitrile
;
_chemical_melting_point 573.15
_cell_volume   1567.540
_exptl_crystal_colour 'gold'
_exptl_crystal_density_diffrn 1.493
_exptl_special_details
;
Melts above 573.15K

;
_exptl_crystal_description 'Block'
_exptl_crystal_preparation 'ethanol'
_diffrn_ambient_temperature 193
#These two values have been output from a single CSD field.
_refine_ls_R_factor_gt 0.0458
_refine_ls_wR_factor_gt 0.0458
_symmetry_cell_setting monoclinic
_symmetry_space_group_name_H-M 'P 21/n'
_symmetry_Int_Tables_number 14
loop_
_symmetry_equiv_pos_site_id
_symmetry_equiv_pos_as_xyz
1 x,y,z
2 1/2-x,1/2+y,1/2-z
3 -x,-y,-z
4 -1/2+x,-1/2-y,-1/2+z
_cell_length_a 9.6209(9)
_cell_length_b 11.7064(12)
_cell_length_c 14.5493(16)
_cell_angle_alpha 90
_cell_angle_beta 106.939(3)
_cell_angle_gamma 90
_cell_formula_units_Z 4
loop_
_atom_type_symbol
_atom_type_radius_bond
C 0.68
H 0.23
N 0.68
O 0.68
loop_
_atom_site_label
_atom_site_type_symbol
_atom_site_fract_x
_atom_site_fract_y
_atom_site_fract_z
O1 O 0.40040(11) 0.58289(9) 0.61943(7)
O2 O 0.27711(11) 0.53458(9) 0.89364(8)
O3 O 0.40782(12) 0.88345(11) 0.25427(7)
O4 O 0.58170(12) 0.76386(10) 0.26221(7)
N1 N 0.62792(11) 0.80081(9) 0.90036(7)
N2 N 0.32494(12) 0.57102(9) 0.75276(8)
N3 N 0.45263(12) 0.6659(1) 0.89615(7)
N4 N 0.86032(13) 0.96383(11) 0.68190(8)
N5 N 0.81041(13) 0.93043(10) 0.91201(8)
N6 N 0.50203(12) 0.81687(10) 0.29905(8)
C1 C 0.53176(13) 0.72749(11) 0.84755(9)
C2 C 0.50682(13) 0.70913(11) 0.74838(9)
C3 C 0.58756(13) 0.77512(10) 0.70202(8)
C4 C 0.69181(13) 0.84923(10) 0.75676(8)
C5 C 0.71081(13) 0.85990(11) 0.85729(8)
C6 C 0.40912(14) 0.61853(11) 0.70021(9)
C7 C 0.34766(14) 0.58771(12) 0.85086(10)
C8 C 0.56079(13) 0.77645(10) 0.59552(8)
C9 C 0.44885(14) 0.84520(11) 0.54105(9)
H1 H 0.38610 0.88320 0.57080
C10 C 0.42892(14) 0.85827(11) 0.44323(9)
H2 H 0.35360 0.90570 0.40550
C11 C 0.52071(14) 0.80098(11) 0.40213(8)
C12 C 0.63132(14) 0.73093(11) 0.45431(9)
H3 H 0.69160 0.69120 0.42360
C13 C 0.65246(14) 0.71979(11) 0.55214(9)
H4 H 0.72930 0.67360 0.58960
C14 C 0.78334(13) 0.91355(11) 0.71367(9)
C15 C 0.21570(17) 0.48538(13) 0.70592(12)
H5 H 0.18770 0.49650 0.63620
H6 H 0.12990 0.49380 0.72880
H7 H 0.25650 0.40870 0.72160
C16 C 0.48811(17) 0.67789(15) 1.00141(10)
H8 H 0.42230 0.63010 1.02510
H9 H 0.47690 0.75790 1.01770
H10 H 0.58870 0.65370 1.03130
H11 H 0.8264(18) 0.9259(15) 0.9718(13)
H12 H 0.877(2) 0.9721(17) 0.8866(14)
#END
