
#######################################################################
#
#                 Cambridge Crystallographic Data Centre
#                                CCDC
#
#######################################################################
#
# If this CIF has been generated from an entry in the Cambridge
# Structural Database, then it will include bibliographic, chemical,
# crystal, experimental, refinement or atomic coordinate data resulting
# from the CCDC's data processing and validation procedures.
#
#######################################################################

data_CSD_CIF_NIGQOK
_audit_creation_date 2007-11-06
_audit_creation_method CSD-ConQuest-V1
_database_code_CSD NIGQOK
_database_code_depnum_ccdc_archive 'CCDC 634831'
_chemical_formula_sum 'C16 H17 N5 O2'
_chemical_formula_moiety
;
C16 H17 N5 O2
;
_journal_coden_Cambridge 16
_journal_volume 63
_journal_year 2007
_journal_page_first 8145
_journal_name_full 'Tetrahedron '
loop_
_publ_author_name
"I.Cikotiene"
"E.Pudziuvelyte"
"A.Brukstus"
"S.Tumkevicius"
_chemical_name_systematic
;
4-Amino-5-nitro-6-((E)-2-phenyl-2-(1-pyrrolidinyl)ethenyl)pyrimidine
;
_chemical_melting_point 462.15
_cell_volume   3075.901
_exptl_crystal_colour 'orange'
_exptl_crystal_density_diffrn 1.345
_exptl_special_details
;
Melting point range 462.15-463.15K
A number of C-H bond lengths are in error

;
_exptl_crystal_description 'needles'
_exptl_crystal_preparation 'dichloromethane'
_diffrn_ambient_temperature 293
#These two values have been output from a single CSD field.
_refine_ls_R_factor_gt 0.065
_refine_ls_wR_factor_gt 0.065
_symmetry_cell_setting orthorhombic
_symmetry_space_group_name_H-M 'P b c a'
_symmetry_Int_Tables_number 61
loop_
_symmetry_equiv_pos_site_id
_symmetry_equiv_pos_as_xyz
1 x,y,z
2 1/2-x,-y,1/2+z
3 1/2+x,1/2-y,-z
4 -x,1/2+y,1/2-z
5 -x,-y,-z
6 -1/2+x,y,-1/2-z
7 -1/2-x,-1/2+y,z
8 x,-1/2-y,-1/2+z
_cell_length_a 7.2102(2)
_cell_length_b 15.5331(5)
_cell_length_c 27.4642(12)
_cell_angle_alpha 90
_cell_angle_beta 90
_cell_angle_gamma 90
_cell_formula_units_Z 8
loop_
_atom_type_symbol
_atom_type_radius_bond
C 0.68
H 0.23
N 0.70
O 0.68
loop_
_atom_site_label
_atom_site_type_symbol
_atom_site_fract_x
_atom_site_fract_y
_atom_site_fract_z
N1 N -0.0025(7) -0.0244(3) 0.08567(16)
N2 N -0.2793(7) -0.0195(3) 0.03789(17)
C1 C -0.2374(8) 0.0621(3) 0.0230(2)
N3 N -0.0474(8) 0.1907(3) 0.0294(2)
N4 N -0.3617(7) 0.0978(2) -0.00662(18)
C2 C -0.1581(10) -0.0552(4) 0.0679(2)
C3 C -0.0772(8) 0.1017(3) 0.04137(19)
C4 C 0.3281(8) 0.0608(3) 0.1259(2)
C5 C 0.0445(8) 0.0572(3) 0.07279(19)
C6 C 0.2916(8) -0.0187(4) 0.1540(2)
N5 N 0.4846(7) 0.1046(3) 0.13923(17)
O1 O 0.0175(7) 0.2399(3) 0.06085(18)
C7 C 0.2166(9) 0.0923(4) 0.0898(2)
O2 O -0.0979(9) 0.2193(3) -0.0087(2)
C8 C 0.1787(10) -0.0158(4) 0.1940(3)
C9 C 0.3721(9) -0.0969(4) 0.1412(2)
C10 C 0.5360(9) 0.1892(4) 0.1197(2)
C11 C 0.3374(10) -0.1694(4) 0.1682(3)
C12 C 0.1444(10) -0.0883(5) 0.2216(2)
C13 C 0.6134(12) 0.0791(5) 0.1772(3)
C14 C 0.2241(12) -0.1658(4) 0.2081(3)
C15 C 0.6889(11) 0.2186(6) 0.1519(3)
C16 C 0.745(2) 0.1502(7) 0.1802(7)
H1 H 0.241(8) 0.142(4) 0.080(2)
H2 H -0.527(11) 0.067(4) -0.018(2)
H3 H -0.191(8) -0.111(3) 0.0800(18)
H4 H 0.12104 0.03784 0.20258
H5 H 0.06580 -0.08393 0.24966
H6 H 0.20073 -0.21640 0.22724
H7 H 0.39278 -0.22336 0.15929
H8 H 0.444(8) -0.098(3) 0.110(2)
H9 H 0.552(10) 0.068(4) 0.201(3)
H10 H 0.665(9) 0.019(4) 0.171(2)
H11 H 0.57798 0.18250 0.08674
H12 H 0.42840 0.22558 0.12025
H13 H 0.804(18) 0.157(6) 0.215(3)
H14? H 0.819(18) 0.141(8) 0.192(5)
H15 H 0.752(10) 0.266(4) 0.147(2)
H16 H 0.655(11) 0.251(5) 0.179(3)
H17 H -0.33740 0.15390 -0.01009
#END
