
#######################################################################
#
#                 Cambridge Crystallographic Data Centre
#                                CCDC
#
#######################################################################
#
# If this CIF has been generated from an entry in the Cambridge
# Structural Database, then it will include bibliographic, chemical,
# crystal, experimental, refinement or atomic coordinate data resulting
# from the CCDC's data processing and validation procedures.
#
#######################################################################

data_CSD_CIF_NIGWEH01
_audit_creation_date 2013-09-23
_audit_creation_method CSD-ConQuest-V1
_database_code_CSD NIGWEH01
_database_code_depnum_ccdc_archive 'CCDC 962710'
_chemical_formula_sum 'C7 H14 N3 O2'
_chemical_formula_moiety
;
C7 H14 N3 O2
;
_journal_coden_Cambridge 82
_journal_volume 54
_journal_year 2013
_journal_page_first 506
_journal_name_full 'Zh.Strukt.Khim.(Russ.)(J.Struct.Chem.) '
loop_
_publ_author_name
"E.V.Tretyakov"
"G.V.Romanenko"
"S.E.Tolstikov"
"V.I.Ovcharenko"
_chemical_name_systematic
;
2-Amino-4,4,5,5-tetramethyl-4,5-dihydro-1H-imidazol-1-olate 3-oxide
;
_cell_volume    885.530
_exptl_crystal_colour 'violet'
_exptl_crystal_density_diffrn 1.284
_exptl_special_details
;
polymorph 2

;
_exptl_crystal_description 'plate'
_diffrn_ambient_temperature 240
#These two values have been output from a single CSD field.
_refine_ls_R_factor_gt 0.0588
_refine_ls_wR_factor_gt 0.0588
_symmetry_cell_setting monoclinic
_symmetry_space_group_name_H-M 'P 21/n'
_symmetry_Int_Tables_number 14
loop_
_symmetry_equiv_pos_site_id
_symmetry_equiv_pos_as_xyz
1 x,y,z
2 1/2-x,1/2+y,1/2-z
3 -x,-y,-z
4 -1/2+x,-1/2-y,-1/2+z
_cell_length_a 11.975(6)
_cell_length_b 6.730(3)
_cell_length_c 12.237(6)
_cell_angle_alpha 90
_cell_angle_beta 116.114(10)
_cell_angle_gamma 90
_cell_formula_units_Z 4
loop_
_atom_type_symbol
_atom_type_radius_bond
C 0.68
H 0.23
N 0.68
O 0.68
loop_
_atom_site_label
_atom_site_type_symbol
_atom_site_fract_x
_atom_site_fract_y
_atom_site_fract_z
O1 O 0.78010(17) -0.0716(3) 0.34543(16)
N1 N 0.72550(18) 0.0356(3) 0.39139(16)
C1 C 0.79301(19) 0.1557(3) 0.50444(18)
C2 C 0.8383(2) 0.0092(4) 0.6108(2)
H1 H 0.90580 -0.06990 0.61030
H2 H 0.77040 -0.07750 0.60270
H3 H 0.86750 0.08200 0.68680
C3 C 0.9012(2) 0.2650(4) 0.4991(2)
H4 H 0.96430 0.17000 0.50440
H5 H 0.93640 0.35740 0.56660
H6 H 0.87220 0.33740 0.42300
C4 C 0.68544(19) 0.2920(3) 0.49844(19)
C5 C 0.6751(2) 0.4863(3) 0.4296(2)
H7 H 0.60610 0.56380 0.42790
H8 H 0.66120 0.45670 0.34700
H9 H 0.75160 0.56140 0.47040
C6 C 0.6852(2) 0.3318(4) 0.6201(2)
H10 H 0.69110 0.20690 0.66190
H11 H 0.60880 0.39900 0.60730
H12 H 0.75570 0.41520 0.66910
N2 N 0.57463(16) 0.1687(3) 0.42016(16)
O2 O 0.46686(14) 0.2025(3) 0.41045(17)
C7 C 0.5967(2) 0.0292(3) 0.34877(19)
N3 N 0.5151(2) -0.0744(4) 0.2641(2)
H13 H 0.555(3) -0.147(4) 0.240(3)
#END
