
#######################################################################
#
#                 Cambridge Crystallographic Data Centre
#                                CCDC
#
#######################################################################
#
# If this CIF has been generated from an entry in the Cambridge
# Structural Database, then it will include bibliographic, chemical,
# crystal, experimental, refinement or atomic coordinate data resulting
# from the CCDC's data processing and validation procedures.
#
#######################################################################

data_CSD_CIF_NIHBOX
_audit_creation_date 2013-09-23
_audit_creation_method CSD-ConQuest-V1
_database_code_CSD NIHBOX
_database_code_depnum_ccdc_archive 'CCDC 871602'
_chemical_formula_sum 'C14 H17 N3 O4'
_chemical_formula_moiety
;
C14 H17 N3 O4
;
_journal_coden_Cambridge 35
_journal_volume 77
_journal_year 2012
_journal_page_first 7901
_journal_name_full 'J.Org.Chem. '
loop_
_publ_author_name
"E.Demory"
"D.Farran"
"B.Baptiste"
"V.Blandin"
"P.-Y.Chavant"
_chemical_name_systematic
;
2-Isopropyl-2,3-dimethyl-5-(4-nitrophenyl)-2,3-dihydro-4H-imidazol-4-one 
1-oxide
;
_cell_volume    717.751
_exptl_crystal_colour 'colorless'
_exptl_crystal_density_diffrn 1.348
_exptl_crystal_description 'block'
_diffrn_ambient_temperature 296
#These two values have been output from a single CSD field.
_refine_ls_R_factor_gt 0.0525
_refine_ls_wR_factor_gt 0.0525
_symmetry_cell_setting triclinic
_symmetry_space_group_name_H-M 'P -1'
_symmetry_Int_Tables_number 2
loop_
_symmetry_equiv_pos_site_id
_symmetry_equiv_pos_as_xyz
1 x,y,z
2 -x,-y,-z
_cell_length_a 6.3318(7)
_cell_length_b 10.132(2)
_cell_length_c 11.589(2)
_cell_angle_alpha 101.78(2)
_cell_angle_beta 92.89(2)
_cell_angle_gamma 80.51(2)
_cell_formula_units_Z 2
loop_
_atom_type_symbol
_atom_type_radius_bond
C 0.68
H 0.23
N 0.68
O 0.68
loop_
_atom_site_label
_atom_site_type_symbol
_atom_site_fract_x
_atom_site_fract_y
_atom_site_fract_z
O1 O 0.4107(2) 0.3692(1) 0.7869(1)
O2 O -0.0152(2) 0.0573(1) 0.8490(1)
O3 O 0.8377(3) 0.2397(2) 1.3170(1)
O4 O 0.6311(3) 0.1030(2) 1.3509(1)
N1 N 0.2704(2) 0.2916(1) 0.7835(1)
N2 N -0.0209(2) 0.1946(1) 0.7143(1)
N3 N 0.6872(3) 0.1764(2) 1.2901(1)
C1 C 0.1044(2) 0.2902(1) 0.6855(1)
C2 C 0.0538(3) 0.1455(1) 0.8118(1)
C3 C 0.2370(2) 0.2153(1) 0.8583(1)
C4 C -0.0154(3) 0.4386(2) 0.6995(1)
C5 C -0.0999(4) 0.4945(2) 0.8230(2)
C6 C -0.1989(4) 0.4550(2) 0.6098(2)
C7 C 0.2177(3) 0.2381(2) 0.5690(1)
C8 C -0.1775(3) 0.1303(2) 0.6360(2)
C9 C 0.3589(3) 0.2046(1) 0.9676(1)
C10 C 0.5422(3) 0.2658(2) 0.9982(1)
C11 C 0.6494(3) 0.2565(2) 1.1034(2)
C12 C 0.5722(3) 0.1864(2) 1.1783(1)
C13 C 0.3932(3) 0.1250(2) 1.1514(1)
C14 C 0.2853(3) 0.1341(1) 1.0458(1)
H1 H 0.08520 0.49370 0.68640
H2 H 0.01660 0.49670 0.87800
H3 H -0.17610 0.58430 0.82710
H4 H -0.19310 0.43740 0.84130
H5 H -0.26550 0.54780 0.62240
H6 H -0.14410 0.42830 0.53230
H7 H -0.30110 0.39920 0.61920
H8 H 0.31960 0.29500 0.56180
H9 H 0.11580 0.23940 0.50610
H10 H 0.28880 0.14740 0.56610
H11 H -0.18670 0.16250 0.56410
H12 H -0.13470 0.03410 0.62030
H13 H -0.31340 0.15240 0.67240
H14 H 0.59310 0.31410 0.94590
H15 H 0.77410 0.29760 1.12400
H16 H 0.34430 0.07690 1.20450
H17 H 0.16100 0.09240 1.02620
#END
