
#######################################################################
#
#                 Cambridge Crystallographic Data Centre
#                                CCDC
#
#######################################################################
#
# If this CIF has been generated from an entry in the Cambridge
# Structural Database, then it will include bibliographic, chemical,
# crystal, experimental, refinement or atomic coordinate data resulting
# from the CCDC's data processing and validation procedures.
#
#######################################################################

data_CSD_CIF_NIJHOD
_audit_creation_date 1998-05-21
_audit_creation_method CSD-ConQuest-V1
_database_code_CSD NIJHOD
_database_code_depnum_ccdc_archive 'CCDC 1219994'
_database_code_depnum_ccdc_journal 1003/5172
_chemical_formula_sum 'C20 H23 N1 O10'
_chemical_formula_moiety
;
C20 H23 N1 O10
;
_journal_coden_Cambridge 1003
_journal_volume 27
_journal_year 1997
_journal_page_first 363
_journal_name_full 'J.Chem.Cryst. '
loop_
_publ_author_name
"V.G.Young"
"Y.K.Yun"
"W.A.Donaldson"
_chemical_name_systematic
;
Dimethyl 
2-methyl-2-(2'-trans-methoxycarbonyl-3'-trans-(2''-p-nitrobenzoyloxyethyl))cyc
lopropylpropanedioate
;
_cell_volume   1040.140
_exptl_crystal_colour 'colorless'
_exptl_crystal_density_diffrn 1.397
_exptl_crystal_description 'plate'
_diffrn_ambient_temperature ?
_diffrn_special_details
;
The study was carried out at room temperature,in the range 283-303K

;
#These two values have been output from a single CSD field.
_refine_ls_R_factor_gt 0.0987
_refine_ls_wR_factor_gt 0.0987
_symmetry_cell_setting triclinic
_symmetry_space_group_name_H-M 'P -1'
_symmetry_Int_Tables_number 2
loop_
_symmetry_equiv_pos_site_id
_symmetry_equiv_pos_as_xyz
1 x,y,z
2 -x,-y,-z
_cell_length_a 6.1764(4)
_cell_length_b 7.6645(4)
_cell_length_c 23.642(1)
_cell_angle_alpha 96.099(1)
_cell_angle_beta 93.938(2)
_cell_angle_gamma 109.851(1)
_cell_formula_units_Z 2
loop_
_atom_type_symbol
_atom_type_radius_bond
C 0.68
H 0.23
N 0.68
O 0.68
loop_
_atom_site_label
_atom_site_type_symbol
_atom_site_fract_x
_atom_site_fract_y
_atom_site_fract_z
O1 O 1.0132(6) 0.7344(5) 0.2449(2)
O2 O 1.0268(7) 0.9770(5) 0.3094(2)
O3 O 0.7488(7) 1.2536(5) 0.1033(2)
O4 O 0.9906(7) 1.1827(5) 0.1640(2)
O5 O 0.3721(8) 0.7611(7) 0.0487(2)
O6 O 0.7539(7) 0.8707(5) 0.0512(2)
O7 O 0.5321(6) 0.5037(5) 0.3119(2)
O8 O 0.7088(7) 0.2954(5) 0.2901(2)
O9 O 1.3165(8) 0.9220(6) 0.5467(2)
O10 O 1.4974(8) 0.7296(6) 0.5293(2)
N1 N 1.3376(9) 0.7882(7) 0.5186(2)
C1 C 0.3726(10) 0.4252(7) 0.2583(2)
C2 C 0.4909(10) 0.5050(7) 0.2083(2)
C3 C 0.5171(9) 0.7071(7) 0.2071(2)
C4 C 0.6782(9) 0.8294(7) 0.1722(2)
C5 C 0.7246(8) 0.8750(7) 0.2359(2)
C6 C 0.9330(9) 0.8504(7) 0.2628(2)
C7 C 0.6032(9) 0.9556(7) 0.1344(2)
C8 C 0.8043(9) 1.1404(7) 0.1368(2)
C9 C 0.5575(10) 0.8536(8) 0.0733(2)
C10 C 1.2427(10) 0.9712(9) 0.3379(3)
C11 C 0.9248(11) 1.4358(8) 0.1029(3)
C12 C 0.7423(14) 0.7736(9) -0.0059(3)
C13 C 0.3875(10) 0.9932(8) 0.1505(2)
C14 C 0.6932(9) 0.4251(7) 0.3206(2)
C15 C 0.8540(8) 0.5203(7) 0.3738(2)
C16 C 1.0346(9) 0.4560(7) 0.3872(2)
C17 C 1.1952(10) 0.5430(7) 0.4346(2)
C18 C 1.1657(9) 0.6914(7) 0.4680(2)
C19 C 0.9854(10) 0.7544(7) 0.4566(2)
C20 C 0.8284(9) 0.6686(7) 0.4094(2)
H1 H 0.2306(10) 0.4566(7) 0.2613(2)
H2 H 0.3272(10) 0.2871(7) 0.2523(2)
H3 H 0.6461(10) 0.4938(7) 0.2101(2)
H4 H 0.4003(10) 0.4300(7) 0.1723(2)
H5 H 0.3669(9) 0.7294(7) 0.2079(2)
H6 H 0.7852(9) 0.7719(7) 0.1547(2)
H7 H 0.6887(8) 0.9856(7) 0.2531(2)
H8 H 1.2993(37) 1.0703(36) 0.3708(10)
H9 H 1.3595(24) 0.9905(55) 0.3109(6)
H10 H 1.2135(18) 0.8491(22) 0.3511(15)
H11 H 0.8678(30) 1.5049(24) 0.0765(14)
H12 H 1.0656(27) 1.4195(8) 0.0903(18)
H13 H 0.9600(56) 1.5061(25) 0.1415(5)
H14 H 0.8969(20) 0.8127(54) -0.0189(9)
H15 H 0.6359(66) 0.8046(55) -0.0324(5)
H16 H 0.6862(84) 0.6381(10) -0.0050(5)
H17 H 0.4139(23) 1.0522(44) 0.1904(5)
H18 H 0.2563(16) 0.8747(10) 0.1459(14)
H19 H 0.3533(36) 1.0769(40) 0.1255(10)
H20 H 1.0476(9) 0.3521(7) 0.3638(2)
H21 H 1.3209(10) 0.5025(7) 0.4438(2)
H22 H 0.9701(10) 0.8553(7) 0.4810(2)
H23 H 0.7025(9) 0.7097(7) 0.4008(2)
#END
