
#######################################################################
#
#                 Cambridge Crystallographic Data Centre
#                                CCDC
#
#######################################################################
#
# If this CIF has been generated from an entry in the Cambridge
# Structural Database, then it will include bibliographic, chemical,
# crystal, experimental, refinement or atomic coordinate data resulting
# from the CCDC's data processing and validation procedures.
#
#######################################################################

data_CSD_CIF_NIJWAH
_audit_creation_date 2018-09-26
_audit_creation_method CSD-ConQuest-V1
_database_code_CSD NIJWAH
_database_code_depnum_ccdc_archive 'CCDC 1847550'
_chemical_formula_sum 'C20 H16 N6 O6'
_chemical_formula_moiety
;
C20 H16 N6 O6
;
_journal_coden_Cambridge 1147
_journal_year 2018
_journal_name_full 'Cryst.Growth Des. '
loop_
_publ_author_name
"U.Manna"
"A.Das"
"G.Das"
_chemical_name_systematic
;
N,N'-1,4-phenylenebis[N'-(3-nitrophenyl)urea]
;
_cell_volume    954.657
_exptl_crystal_colour 'pale yellow'
_exptl_crystal_density_diffrn 1.518
_exptl_crystal_description 'block'
_diffrn_ambient_temperature 298
#These two values have been output from a single CSD field.
_refine_ls_R_factor_gt 0.0471
_refine_ls_wR_factor_gt 0.0471
_symmetry_cell_setting monoclinic
_symmetry_space_group_name_H-M 'P 21/n'
_symmetry_Int_Tables_number 14
loop_
_symmetry_equiv_pos_site_id
_symmetry_equiv_pos_as_xyz
1 x,y,z
2 1/2-x,1/2+y,1/2-z
3 -x,-y,-z
4 -1/2+x,-1/2-y,-1/2+z
_cell_length_a 6.7700(3)
_cell_length_b 4.7700(3)
_cell_length_c 29.7119(16)
_cell_angle_alpha 90
_cell_angle_beta 95.749(3)
_cell_angle_gamma 90
_cell_formula_units_Z 2
loop_
_atom_type_symbol
_atom_type_radius_bond
C 0.68
H 0.23
N 0.68
O 0.68
loop_
_atom_site_label
_atom_site_type_symbol
_atom_site_fract_x
_atom_site_fract_y
_atom_site_fract_z
O1 O -0.02478(15) 0.3635(2) 0.08328(4)
C1 C 0.50724(18) 0.4659(3) 0.16892(4)
C2 C 0.2366(2) 0.8621(3) 0.18622(5)
H1 H 0.14370 0.99670 0.19240
C3 C -0.30659(19) 0.4002(3) -0.00001(5)
H2 H -0.17770 0.33290 -0.00010
C4 C 0.34864(18) 0.5111(3) 0.13662(4)
H3 H 0.33380 0.40760 0.11000
N1 N 0.65452(17) 0.2553(3) 0.15887(4)
C5 C 0.21212(18) 0.7170(3) 0.14545(5)
N2 N 0.05551(17) 0.7938(3) 0.11333(4)
H4 H 0.02500 0.96870 0.11170
C6 C 0.5371(2) 0.6087(3) 0.20940(5)
H5 H 0.64630 0.57200 0.23010
N3 N -0.19328(16) 0.7535(3) 0.05666(4)
H6 H -0.18900 0.93360 0.05620
O2 O 0.61739(17) 0.1049(3) 0.12592(5)
C7 C -0.05297(18) 0.6171(3) 0.08439(4)
C8 C -0.5406(2) 0.7181(3) 0.02817(5)
H7 H -0.56770 0.86500 0.04720
C9 C -0.34629(18) 0.6197(3) 0.02840(4)
O3 O 0.80797(17) 0.2371(3) 0.18437(5)
C10 C 0.3970(2) 0.8098(3) 0.21784(5)
H8 H 0.41090 0.90980 0.24480
O1B O -0.97522(15) 0.6365(2) -0.08328(4)
C1B C -1.50724(18) 0.5341(3) -0.16892(4)
C2B C -1.2366(2) 0.1379(3) -0.18622(5)
H1B H -1.14370 0.00330 -0.19240
C3B C -0.69341(19) 0.5998(3) 0.00001(5)
H2B H -0.82230 0.66710 0.00010
C4B C -1.34864(18) 0.4889(3) -0.13662(4)
H3B H -1.33380 0.59240 -0.11000
N1B N -1.65452(17) 0.7447(3) -0.15887(4)
C5B C -1.21212(18) 0.2830(3) -0.14545(5)
N2B N -1.05551(17) 0.2062(3) -0.11333(4)
H4B H -1.02500 0.03130 -0.11170
C6B C -1.5371(2) 0.3913(3) -0.20940(5)
H5B H -1.64630 0.42800 -0.23010
N3B N -0.80672(16) 0.2465(3) -0.05666(4)
H6B H -0.81100 0.06640 -0.05620
O2B O -1.61739(17) 0.8951(3) -0.12592(5)
C7B C -0.94703(18) 0.3829(3) -0.08439(4)
C8B C -0.4594(2) 0.2819(3) -0.02817(5)
H7B H -0.43230 0.13500 -0.04720
C9B C -0.65371(18) 0.3803(3) -0.02840(4)
O3B O -1.80797(17) 0.7629(3) -0.18437(5)
C10B C -1.3970(2) 0.1902(3) -0.21784(5)
H8B H -1.41090 0.09020 -0.24480
#END
