
#######################################################################
#
#                 Cambridge Crystallographic Data Centre
#                                CCDC
#
#######################################################################
#
# If this CIF has been generated from an entry in the Cambridge
# Structural Database, then it will include bibliographic, chemical,
# crystal, experimental, refinement or atomic coordinate data resulting
# from the CCDC's data processing and validation procedures.
#
#######################################################################

data_CSD_CIF_NIKTEH
_audit_creation_date 2007-11-06
_audit_creation_method CSD-ConQuest-V1
_database_code_CSD NIKTEH
_database_code_depnum_ccdc_archive 'CCDC 663696'
_chemical_formula_sum 'C20 H12 N4 O4'
_chemical_formula_moiety
;
C20 H12 N4 O4
;
_journal_coeditor_code "IUCr BH2119"
_journal_coden_Cambridge 1370
_journal_volume 63
_journal_year 2007
_journal_page_first o3969
_journal_name_full 'Acta Crystallogr.,Sect.E:Struct.Rep.Online '
loop_
_publ_author_name
"Peng Lei"
"Zhi-Zhi Hu"
"Cui-Ping Wang"
"Xing Chen"
"Zhi-Qiang Zhang"
_chemical_name_systematic
;
2,3-bis(3-Nitrophenyl)quinoxaline
;
_chemical_melting_point 484
_cell_volume   3358.237
_exptl_crystal_colour 'colorless'
_exptl_crystal_density_diffrn 1.473
_exptl_crystal_description 'plate'
_exptl_crystal_preparation 'chloroform/ethanol'
_diffrn_ambient_temperature 294
#These two values have been output from a single CSD field.
_refine_ls_R_factor_gt 0.0569
_refine_ls_wR_factor_gt 0.0569
_symmetry_cell_setting orthorhombic
_symmetry_space_group_name_H-M 'P b c a'
_symmetry_Int_Tables_number 61
loop_
_symmetry_equiv_pos_site_id
_symmetry_equiv_pos_as_xyz
1 x,y,z
2 1/2-x,-y,1/2+z
3 -x,1/2+y,1/2-z
4 1/2+x,1/2-y,-z
5 -x,-y,-z
6 -1/2+x,y,-1/2-z
7 x,-1/2-y,-1/2+z
8 -1/2-x,-1/2+y,z
_cell_length_a 12.807(3)
_cell_length_b 7.6160(15)
_cell_length_c 34.430(7)
_cell_angle_alpha 90
_cell_angle_beta 90
_cell_angle_gamma 90
_cell_formula_units_Z 8
loop_
_atom_type_symbol
_atom_type_radius_bond
C 0.68
H 0.23
N 0.68
O 0.68
loop_
_atom_site_label
_atom_site_type_symbol
_atom_site_fract_x
_atom_site_fract_y
_atom_site_fract_z
O1 O 0.7566(4) 1.1964(7) -0.02595(10)
O2 O 0.8690(3) 1.0826(5) 0.0111(1)
O3 O 0.2285(3) 0.8632(5) 0.18938(10)
O4 O 0.1405(3) 0.7078(6) 0.14923(13)
N1 N 0.7804(4) 1.1237(5) 0.00377(10)
N2 N 0.7785(2) 0.8778(4) 0.13906(8)
N3 N 0.6311(2) 0.7105(4) 0.18590(8)
N4 N 0.2227(3) 0.7670(6) 0.16106(13)
C1 C 0.7236(3) 0.9972(5) 0.0650(1)
H1 H 0.79020 0.95010 0.06770
C2 C 0.6987(3) 1.0903(5) 0.03248(11)
C3 C 0.6010(4) 1.1591(5) 0.02666(13)
H2 H 0.58430 1.21630 0.00360
C4 C 0.5285(3) 1.1413(5) 0.05580(13)
H3 H 0.46250 1.19080 0.05310
C5 C 0.5536(3) 1.0506(5) 0.08894(12)
H4 H 0.50400 1.04130 0.10860
C6 C 0.6500(3) 0.9724(5) 0.09413(10)
C7 C 0.6801(3) 0.8727(4) 0.12936(9)
C8 C 0.8071(3) 0.7959(5) 0.17225(10)
C9 C 0.9120(3) 0.7918(5) 0.18301(12)
H5 H 0.96210 0.84340 0.16710
C10 C 0.9413(3) 0.7126(6) 0.21664(12)
H6 H 1.01150 0.70930 0.22350
C11 C 0.8674(4) 0.6365(6) 0.24082(12)
H7 H 0.88840 0.58250 0.26370
C12 C 0.7646(3) 0.6403(5) 0.23127(10)
H8 H 0.71560 0.58990 0.24780
C13 C 0.7320(3) 0.7196(5) 0.19665(9)
C14 C 0.6066(3) 0.7777(5) 0.15223(10)
C15 C 0.5015(3) 0.7331(5) 0.13689(10)
C16 C 0.4938(3) 0.6437(5) 0.10190(11)
H9 H 0.55440 0.61620 0.08830
C17 C 0.3983(4) 0.5947(6) 0.08668(12)
H10 H 0.39460 0.53420 0.06330
C18 C 0.3105(4) 0.6358(6) 0.10632(13)
H11 H 0.24560 0.60470 0.09640
C19 C 0.3170(3) 0.7230(5) 0.14073(12)
C20 C 0.4127(3) 0.7711(5) 0.15701(11)
H12 H 0.41580 0.82740 0.18090
#END
