
#######################################################################
#
#                 Cambridge Crystallographic Data Centre
#                                CCDC
#
#######################################################################
#
# If this CIF has been generated from an entry in the Cambridge
# Structural Database, then it will include bibliographic, chemical,
# crystal, experimental, refinement or atomic coordinate data resulting
# from the CCDC's data processing and validation procedures.
#
#######################################################################

data_CSD_CIF_NIKTUW
_audit_creation_date 1998-05-22
_audit_creation_method CSD-ConQuest-V1
_database_code_CSD NIKTUW
_database_code_depnum_ccdc_journal 207/189
_chemical_formula_sum 'C18 H13 N1 O7'
_chemical_formula_moiety
;
C18 H13 N1 O7
;
_journal_coden_Cambridge 207
_journal_year 1998
_journal_page_first 847
_journal_name_full 'J.Chem.Soc.,Perkin Trans.1 '
loop_
_publ_author_name
"A.J.Pearce"
"D.S.Walter"
"C.S.Frampton"
"T.Gallagher"
_chemical_name_systematic
;
Dimethyl 4-(oxyphthalimido)phthalate
;
_chemical_melting_point 331.15
_cell_volume   1617.251
_exptl_crystal_colour 'colorless'
_exptl_crystal_density_diffrn 1.459
_exptl_special_details
;
Melting point range 331.15-333.15K

;
_exptl_crystal_description 'plate'
_diffrn_ambient_temperature 123
#These two values have been output from a single CSD field.
_refine_ls_R_factor_gt 0.0503
_refine_ls_wR_factor_gt 0.0503
_symmetry_cell_setting monoclinic
_symmetry_space_group_name_H-M 'P 21/a'
_symmetry_Int_Tables_number 14
loop_
_symmetry_equiv_pos_site_id
_symmetry_equiv_pos_as_xyz
1 x,y,z
2 1/2+x,1/2-y,z
3 -x,-y,-z
4 -1/2-x,-1/2+y,-z
_cell_length_a 9.471(4)
_cell_length_b 9.776(8)
_cell_length_c 17.477(3)
_cell_angle_alpha 90
_cell_angle_beta 91.93(3)
_cell_angle_gamma 90
_cell_formula_units_Z 4
loop_
_atom_type_symbol
_atom_type_radius_bond
C 0.68
H 0.23
N 0.68
O 0.68
loop_
_atom_site_label
_atom_site_type_symbol
_atom_site_fract_x
_atom_site_fract_y
_atom_site_fract_z
O1 O 0.5213(2) 0.6727(2) 0.51095(9)
O2 O 0.2800(2) 1.0742(2) 0.49341(10)
O3 O 0.4410(2) 0.8887(2) 0.41236(8)
O4 O 0.1494(2) 0.8958(2) 0.07841(8)
O5 O -0.0390(2) 0.9000(2) 0.15335(9)
O6 O 0.5022(2) 0.9421(2) 0.12039(9)
O7 O 0.3454(2) 1.1136(2) 0.12332(9)
N1 N 0.3783(2) 0.8597(2) 0.48119(10)
C1 C 0.4395(2) 0.7587(2) 0.52976(12)
C2 C 0.3777(2) 0.7901(2) 0.60516(12)
C3 C 0.3888(3) 0.7178(2) 0.67334(12)
H1 H 0.4411(3) 0.6350(2) 0.67723(12)
C4 C 0.3203(3) 0.7713(3) 0.73581(13)
H2 H 0.3266(3) 0.7246(3) 0.78349(13)
C5 C 0.2429(3) 0.8916(3) 0.72977(14)
H3 H 0.1970(3) 0.9256(3) 0.77337(14)
C6 C 0.2312(2) 0.9634(3) 0.66093(14)
H4 H 0.1777(2) 1.0454(3) 0.65653(14)
C7 C 0.3006(2) 0.9105(2) 0.59960(12)
C8 C 0.3133(2) 0.9654(2) 0.52097(13)
C9 C 0.3477(2) 0.8885(2) 0.34937(12)
C10 C 0.2080(2) 0.8467(2) 0.35023(12)
H5 H 0.1677(2) 0.8152(2) 0.39604(12)
C11 C 0.1290(2) 0.8523(2) 0.28221(12)
H6 H 0.0333(2) 0.8233(2) 0.28182(12)
C12 C 0.1849(2) 0.8990(2) 0.21440(12)
C13 C 0.1000(2) 0.8980(2) 0.14121(12)
C14 C -0.1305(3) 0.8882(3) 0.08591(13)
H7 H -0.2293(3) 0.8908(3) 0.10083(13)
H8 H -0.1119(3) 0.8014(3) 0.06004(13)
H9 H -0.1125(3) 0.9643(3) 0.05110(13)
C15 C 0.3277(2) 0.9405(2) 0.21537(12)
C16 C 0.4011(2) 0.9953(2) 0.14698(12)
C17 C 0.4122(3) 1.1760(3) 0.05870(14)
H10 H 0.3643(3) 1.2621(3) 0.04562(14)
H11 H 0.4057(3) 1.1139(3) 0.01471(14)
H12 H 0.5118(3) 1.1942(3) 0.07203(14)
C18 C 0.4080(2) 0.9356(2) 0.28278(12)
H13 H 0.5039(2) 0.9641(2) 0.28367(12)
#END
