
#######################################################################
#
#                 Cambridge Crystallographic Data Centre
#                                CCDC
#
#######################################################################
#
# If this CIF has been generated from an entry in the Cambridge
# Structural Database, then it will include bibliographic, chemical,
# crystal, experimental, refinement or atomic coordinate data resulting
# from the CCDC's data processing and validation procedures.
#
#######################################################################

data_CSD_CIF_NIKZAI
_audit_creation_date 1998-05-22
_audit_creation_method CSD-ConQuest-V1
_database_code_CSD NIKZAI
_database_code_depnum_ccdc_journal 182/729
_chemical_formula_sum 'C15 H19 N1 O4'
_chemical_formula_moiety
;
C15 H19 N1 O4
;
_journal_coden_Cambridge 182
_journal_year 1998
_journal_page_first 493
_journal_name_full 'Chem.Commun. '
loop_
_publ_author_name
"P.Merino"
"S.Franco"
"N.Garces"
"F.L.Merchan"
"T.Tejero"
_chemical_name_systematic
;
syn-2-Benzyl-3-((S)-2,2-dimethyl-1,3-dioxolan-4-yl)isoxazolidin-5-one
;
_chemical_melting_point 333.15
_cell_volume    752.909
_exptl_crystal_colour 'colorless'
_exptl_crystal_density_diffrn 1.223
_exptl_special_details
;
Melting point range 333.15-335.15K

;
_exptl_crystal_description 'block'
_diffrn_ambient_temperature ?
_diffrn_special_details
;
The study was carried out at room temperature,in the range 283-303K

;
#These two values have been output from a single CSD field.
_refine_ls_R_factor_gt 0.0383
_refine_ls_wR_factor_gt 0.0383
loop_
_citation_database_id_CSD
_citation_special_details
XAZKOY "is a stereoisomer of this entry"
_symmetry_cell_setting monoclinic
_symmetry_space_group_name_H-M 'P 21'
_symmetry_Int_Tables_number 4
loop_
_symmetry_equiv_pos_site_id
_symmetry_equiv_pos_as_xyz
1 x,y,z
2 -x,1/2+y,-z
_cell_length_a 6.011(1)
_cell_length_b 8.039(1)
_cell_length_c 15.598(2)
_cell_angle_alpha 90
_cell_angle_beta 92.68(1)
_cell_angle_gamma 90
_cell_formula_units_Z 2
loop_
_atom_type_symbol
_atom_type_radius_bond
C 0.68
H 0.23
N 0.68
O 0.68
loop_
_atom_site_label
_atom_site_type_symbol
_atom_site_fract_x
_atom_site_fract_y
_atom_site_fract_z
N1 N 0.3934(4) 0.4453(3) 0.21738(13)
O1 O 0.5694(4) 0.5352(3) 0.17200(13)
O2 O 0.6105(5) 0.6220(4) 0.0386(2)
O3 O 0.0782(4) 0.1554(3) 0.24108(14)
O4 O -0.1675(4) 0.0512(4) 0.1423(2)
C1 C 0.5019(7) 0.5458(5) 0.0882(2)
C2 C 0.2923(6) 0.4487(5) 0.0731(2)
H1 H 0.2933(6) 0.3871(5) 0.0196(2)
H2 H 0.1626(6) 0.5205(5) 0.0722(2)
C3 C 0.2973(5) 0.3335(4) 0.1493(2)
H3 H 0.3968(5) 0.2392(4) 0.1402(2)
C4 C 0.0685(5) 0.2728(4) 0.1734(2)
H4 H -0.0198(5) 0.3686(4) 0.1906(2)
C5 C -0.0564(6) 0.1838(5) 0.1003(2)
H5 H -0.1626(6) 0.2574(5) 0.0708(2)
H6 H 0.0455(6) 0.1409(5) 0.0592(2)
C6 C -0.0142(7) 0.0002(5) 0.2106(3)
C7 C -0.1495(8) -0.0757(6) 0.2796(3)
H7 H -0.0518(8) -0.1116(6) 0.3264(3)
H8 H -0.2311(8) -0.1694(6) 0.2565(3)
H9 H -0.2518(8) 0.0056(6) 0.2997(3)
C8 C 0.1621(9) -0.1116(7) 0.1806(4)
H10 H 0.2600(9) -0.1423(7) 0.2284(4)
H11 H 0.2455(9) -0.0551(7) 0.1384(4)
H12 H 0.0951(9) -0.2097(7) 0.1557(4)
C9 C 0.5157(5) 0.3566(4) 0.2867(2)
H13 H 0.6426(5) 0.3004(4) 0.2636(2)
H14 H 0.4198(5) 0.2728(4) 0.3101(2)
C10 C 0.5961(5) 0.4734(4) 0.3576(2)
C11 C 0.4571(6) 0.5952(5) 0.3881(2)
H15 H 0.3160(6) 0.6097(5) 0.3621(2)
C12 C 0.5240(7) 0.6949(7) 0.4559(2)
H16 H 0.4282(7) 0.7755(7) 0.4759(2)
C13 C 0.7340(7) 0.6752(7) 0.4946(2)
H17 H 0.7798(7) 0.7418(7) 0.5409(2)
C14 C 0.8748(6) 0.5564(7) 0.4640(2)
H18 H 1.0165(6) 0.5431(7) 0.4896(2)
C15 C 0.8076(5) 0.4571(6) 0.3958(2)
H19 H 0.9050(5) 0.3784(6) 0.3752(2)
#END
