
#######################################################################
#
#                 Cambridge Crystallographic Data Centre
#                                CCDC
#
#######################################################################
#
# If this CIF has been generated from an entry in the Cambridge
# Structural Database, then it will include bibliographic, chemical,
# crystal, experimental, refinement or atomic coordinate data resulting
# from the CCDC's data processing and validation procedures.
#
#######################################################################

data_CSD_CIF_NIMDES
_audit_creation_date 1998-05-22
_audit_creation_method CSD-ConQuest-V1
_database_code_CSD NIMDES
_database_code_depnum_ccdc_archive 'CCDC 129848'
_chemical_formula_sum 'C20 H12 N2 O8'
_chemical_formula_moiety
;
C20 H12 N2 O8
;
_journal_coeditor_code "IUCr BK1369"
_journal_coden_Cambridge 591
_journal_volume 54
_journal_year 1998
_journal_page_first 535
_journal_name_full 'Acta Crystallogr.,Sect.C:Cryst.Struct.Commun. '
loop_
_publ_author_name
"L.J.Fitzgerald"
"R.E.Gerkin"
_chemical_name_systematic
;
3',3''-Dinitrophenolphthalein
;
_cell_volume   3532.963
_exptl_crystal_colour 'yellow'
_exptl_crystal_density_diffrn 1.535
_exptl_crystal_description 'cut column'
_diffrn_ambient_temperature ?
_diffrn_special_details
;
The study was carried out at room temperature,in the range 283-303K

;
#These two values have been output from a single CSD field.
_refine_ls_R_factor_gt 0.05
_refine_ls_wR_factor_gt 0.05
_symmetry_cell_setting orthorhombic
_symmetry_space_group_name_H-M 'P b c n'
_symmetry_Int_Tables_number 60
loop_
_symmetry_equiv_pos_site_id
_symmetry_equiv_pos_as_xyz
1 x,y,z
2 1/2-x,1/2-y,1/2+z
3 1/2+x,1/2-y,-z
4 -x,y,1/2-z
5 -x,-y,-z
6 -1/2+x,-1/2+y,-1/2-z
7 -1/2-x,-1/2+y,z
8 x,-y,-1/2+z
_cell_length_a 27.634(2)
_cell_length_b 8.122(4)
_cell_length_c 15.741(3)
_cell_angle_alpha 90
_cell_angle_beta 90
_cell_angle_gamma 90
_cell_formula_units_Z 8
loop_
_atom_type_symbol
_atom_type_radius_bond
C 0.68
H 0.23
N 0.68
O 0.68
loop_
_atom_site_label
_atom_site_type_symbol
_atom_site_fract_x
_atom_site_fract_y
_atom_site_fract_z
O1 O 0.13116(6) 0.1237(2) 0.3774(1)
O2 O 0.11216(8) 0.0935(3) 0.2402(1)
O3 O 0.21115(10) 0.1406(5) 0.7280(2)
O4 O 0.28492(9) 0.2065(5) 0.7170(2)
O5 O 0.06260(8) -0.2600(3) 0.5667(2)
O6 O 0.00412(9) -0.1968(3) 0.6501(2)
O7 O 0.32170(7) 0.3065(3) 0.5755(2)
O8 O -0.02499(8) 0.1028(4) 0.6639(2)
N1 N 0.24434(10) 0.1917(4) 0.6866(2)
N2 N 0.03691(9) -0.1587(3) 0.6002(2)
C1 C 0.13136(9) 0.2561(3) 0.4422(2)
C2 C 0.18147(9) 0.2607(3) 0.4823(2)
C3 C 0.09026(9) 0.2156(3) 0.5037(2)
C4 C 0.12234(9) 0.4086(3) 0.3887(2)
C5 C 0.19018(10) 0.2249(4) 0.5661(2)
C6 C 0.08224(10) 0.0548(4) 0.5269(2)
C7 C 0.11314(9) 0.3628(3) 0.3064(2)
C8 C 0.23705(10) 0.2375(4) 0.5986(2)
C9 C 0.04403(9) 0.0151(3) 0.5802(2)
C10 C 0.11752(10) 0.1844(4) 0.2994(2)
C11 C 0.27581(10) 0.2882(4) 0.5487(2)
C12 C 0.01321(10) 0.1340(4) 0.6133(2)
C13 C 0.12533(10) 0.5734(4) 0.4109(2)
C14 C 0.2664(1) 0.3228(4) 0.4641(2)
C15 C 0.0217(1) 0.2972(4) 0.5906(2)
C16 C 0.1178(1) 0.6875(4) 0.3477(2)
C17 C 0.2206(1) 0.3087(4) 0.4319(2)
C18 C 0.0594(1) 0.3358(4) 0.5364(2)
C19 C 0.1069(1) 0.6408(4) 0.2654(2)
C20 C 0.1045(1) 0.4771(4) 0.2433(2)
H1 H 0.1670(9) 0.187(3) 0.603(2)
H2 H 0.1025(9) -0.030(3) 0.507(2)
H3 H 0.321(2) 0.267(6) 0.633(3)
H4 H -0.025(2) -0.025(6) 0.677(3)
H5 H 0.1331(10) 0.601(3) 0.470(2)
H6 H 0.295(1) 0.355(4) 0.431(2)
H7 H -0.001(1) 0.394(3) 0.622(2)
H8 H 0.118(1) 0.800(4) 0.363(2)
H9 H 0.2163(8) 0.338(3) 0.375(2)
H10 H 0.0635(10) 0.446(4) 0.520(2)
H11 H 0.102(1) 0.717(3) 0.223(2)
H12 H 0.0980(9) 0.443(3) 0.186(2)
#END
