
#######################################################################
#
#                 Cambridge Crystallographic Data Centre
#                                CCDC
#
#######################################################################
#
# If this CIF has been generated from an entry in the Cambridge
# Structural Database, then it will include bibliographic, chemical,
# crystal, experimental, refinement or atomic coordinate data resulting
# from the CCDC's data processing and validation procedures.
#
#######################################################################

data_CSD_CIF_NIMDOC
_audit_creation_date 1998-05-22
_audit_creation_method CSD-ConQuest-V1
_database_code_CSD NIMDOC
_database_code_depnum_ccdc_archive 'CCDC 129886'
_chemical_formula_sum 'C19 H13 N1 O3'
_chemical_formula_moiety
;
C19 H13 N1 O3
;
_journal_coeditor_code "IUCr MU1335"
_journal_coden_Cambridge 591
_journal_volume 54
_journal_year 1998
_journal_page_first 541
_journal_name_full 'Acta Crystallogr.,Sect.C:Cryst.Struct.Commun. '
loop_
_publ_author_name
"S.S.S.Raj"
"M.N.Ponnuswamy"
"G.Shanmugam"
"S.Nanjundan"
_chemical_name_systematic
;
1-(2-(Napthalenyl))-3-(3-nitrophenyl)-2-propen-1-one
;
_chemical_melting_point 453
_cell_volume   1463.909
_exptl_crystal_colour 'pale yellow'
_exptl_crystal_density_diffrn 1.376
_exptl_special_details
;
Melting point range 453-454K

;
_exptl_crystal_description 'needle'
_diffrn_ambient_temperature ?
_diffrn_special_details
;
The study was carried out at room temperature,in the range 283-303K

;
#These two values have been output from a single CSD field.
_refine_ls_R_factor_gt 0.028
_refine_ls_wR_factor_gt 0.028
_symmetry_cell_setting monoclinic
_symmetry_space_group_name_H-M 'P 21/c'
_symmetry_Int_Tables_number 14
loop_
_symmetry_equiv_pos_site_id
_symmetry_equiv_pos_as_xyz
1 x,y,z
2 -x,1/2+y,1/2-z
3 -x,-y,-z
4 x,-1/2-y,-1/2+z
_cell_length_a 10.317(2)
_cell_length_b 5.864(4)
_cell_length_c 24.582(1)
_cell_angle_alpha 90
_cell_angle_beta 100.15(2)
_cell_angle_gamma 90
_cell_formula_units_Z 4
loop_
_atom_type_symbol
_atom_type_radius_bond
C 0.68
H 0.23
N 0.68
O 0.68
loop_
_atom_site_label
_atom_site_type_symbol
_atom_site_fract_x
_atom_site_fract_y
_atom_site_fract_z
C1 C 0.67211(14) 0.3852(3) 0.33109(6)
C2 C 0.58488(13) 0.2390(2) 0.34899(5)
C3 C 0.5566(2) 0.0257(3) 0.32178(7)
C4 C 0.6116(2) -0.0263(3) 0.27590(7)
C5 C 0.7011(2) 0.1241(3) 0.25651(7)
C6 C 0.7592(2) 0.0757(3) 0.20952(7)
C7 C 0.8449(2) 0.2235(3) 0.19243(7)
C8 C 0.8773(2) 0.4274(4) 0.22064(8)
C9 C 0.8223(2) 0.4840(3) 0.26583(8)
C10 C 0.73225(14) 0.3324(3) 0.28540(6)
C11 C 0.52214(15) 0.3087(3) 0.39653(6)
C12 C 0.4253(2) 0.1524(3) 0.41465(8)
C13 C 0.38422(14) 0.1737(2) 0.46252(6)
C14 C 0.29343(15) 0.0154(3) 0.48329(6)
C15 C 0.23687(15) 0.0789(2) 0.52888(6)
C16 C 0.15188(15) -0.0717(2) 0.54762(6)
C17 C 0.1205(2) -0.2807(3) 0.52378(7)
C18 C 0.1779(2) -0.3431(3) 0.47894(7)
C19 C 0.2621(2) -0.1974(3) 0.45893(6)
O1 O 0.54923(10) 0.4930(2) 0.41998(4)
N1 N 0.08679(15) -0.0019(3) 0.59412(6)
O2 O 0.0112(2) -0.1358(3) 0.60976(8)
O3 O 0.1109(2) 0.1869(3) 0.61404(8)
H1 H 0.7002(27) 0.5526(42) 0.3499(11)
H2 H 0.4863(31) -0.0662(46) 0.3411(11)
H3 H 0.6007(19) -0.1738(33) 0.2497(8)
H4 H 0.7279(17) -0.0803(29) 0.1871(7)
H5 H 0.8986(27) 0.2290(45) 0.1623(11)
H6 H 0.9534(38) 0.5016(55) 0.2059(16)
H7 H 0.8494(14) 0.6407(25) 0.2921(6)
H8 H 0.3900(29) 0.0601(47) 0.3867(12)
H9 H 0.4505(22) 0.2781(37) 0.4961(8)
H10 H 0.2401(26) 0.2126(47) 0.5548(11)
H11 H 0.0665(27) -0.3813(48) 0.5437(11)
H12 H 0.1616(17) -0.4881(31) 0.4605(7)
H13 H 0.3015(15) -0.1992(24) 0.4258(6)
#END
