
#######################################################################
#
#                 Cambridge Crystallographic Data Centre
#                                CCDC
#
#######################################################################
#
# If this CIF has been generated from an entry in the Cambridge
# Structural Database, then it will include bibliographic, chemical,
# crystal, experimental, refinement or atomic coordinate data resulting
# from the CCDC's data processing and validation procedures.
#
#######################################################################

data_CSD_CIF_NIMKID
_audit_creation_date 1998-06-02
_audit_creation_method CSD-ConQuest-V1
_database_code_CSD NIMKID
_chemical_formula_sum 'C14 H19 N1 O8'
_chemical_formula_moiety
;
C14 H19 N1 O8
;
_journal_coden_Cambridge 16
_journal_volume 53
_journal_year 1997
_journal_page_first 2979
_journal_name_full 'Tetrahedron '
loop_
_publ_author_name
"P.de March"
"M.Figueredo"
"J.Font"
"S.Milan"
"A.Alvarez-Larena"
"J.F.Piniella"
"E.Molins"
_chemical_name_systematic
;
Dimethyl 
(2RS,3RS,3aSR,6SR,3'SR,4'RS)-hexahydro-6-((3RS,4SR)-dihydro-4-hydroxy-2-(3H)-o
xo-3-furyl)pyrrolo(1,2-b)-isoxazole-2,3-dicarboxylate
;
_chemical_melting_point 353.15
_cell_volume   1498.454
_exptl_crystal_density_diffrn 1.46
_exptl_special_details
;
Melting point range 353.15-355.15K

;
_diffrn_ambient_temperature ?
_diffrn_special_details
;
The study was carried out at room temperature,in the range 283-303K

;
#These two values have been output from a single CSD field.
_refine_ls_R_factor_gt 0.0507
_refine_ls_wR_factor_gt 0.0507
_symmetry_cell_setting monoclinic
_symmetry_space_group_name_H-M 'P 21/c'
_symmetry_Int_Tables_number 14
loop_
_symmetry_equiv_pos_site_id
_symmetry_equiv_pos_as_xyz
1 x,y,z
2 -x,1/2+y,1/2-z
3 -x,-y,-z
4 x,-1/2-y,-1/2+z
_cell_length_a 4.8015(5)
_cell_length_b 12.016(1)
_cell_length_c 26.001(2)
_cell_angle_alpha 90
_cell_angle_beta 92.703(9)
_cell_angle_gamma 90
_cell_formula_units_Z 4
loop_
_atom_type_symbol
_atom_type_radius_bond
C 0.68
H 0.23
N 0.68
O 0.68
loop_
_atom_site_label
_atom_site_type_symbol
_atom_site_fract_x
_atom_site_fract_y
_atom_site_fract_z
C1 C -0.1466(6) 0.2114(2) 0.3158(1)
O1 O 0.0469(4) 0.2925(2) 0.3345(1)
N1 N -0.1278(5) 0.3577(2) 0.3689(1)
C2 C 0.0738(6) 0.4259(2) 0.4005(1)
C3 C 0.0770(7) 0.3750(3) 0.4548(1)
C4 C -0.0106(6) 0.2555(3) 0.4456(1)
C5 C -0.2337(6) 0.2690(2) 0.4021(1)
C6 C -0.2983(6) 0.1732(2) 0.3637(1)
C7 C -0.2108(8) 0.0614(3) 0.3834(1)
O2 O -0.0432(7) 0.0024(2) 0.3652(1)
O3 O -0.3494(5) 0.0342(2) 0.4246(1)
C8 C -0.2938(10) -0.0732(3) 0.4477(2)
C9 C -0.3505(7) 0.2580(3) 0.2743(1)
O4 O -0.5520(5) 0.2079(2) 0.2580(1)
O5 O -0.2682(5) 0.3564(2) 0.2566(1)
C10 C -0.4558(8) 0.4108(3) 0.2192(1)
C11 C -0.0189(6) 0.5472(2) 0.3959(1)
C12 C 0.2024(6) 0.6304(3) 0.4130(1)
O6 O 0.3835(4) 0.6199(2) 0.4463(1)
O7 O 0.1771(5) 0.7238(2) 0.3851(1)
C13 C -0.0576(7) 0.7116(3) 0.3472(1)
C14 C -0.1027(7) 0.5883(3) 0.3419(1)
O8 O 0.0747(5) 0.5461(2) 0.3047(1)
H1 H -0.0455(6) 0.1483(2) 0.3017(1)
H2 H 0.2595(6) 0.4183(2) 0.3868(1)
H3 H 0.2620(7) 0.3789(3) 0.4714(1)
H4 H -0.0532(7) 0.4132(3) 0.4761(1)
H5 H -0.0872(6) 0.2231(3) 0.4761(1)
H6 H 0.1437(6) 0.2103(3) 0.4350(1)
H7 H -0.4077(6) 0.2939(2) 0.4167(1)
H8 H -0.4993(6) 0.1720(2) 0.3553(1)
H9 H -0.3863(49) -0.1300(4) 0.4273(6)
H10 H -0.3617(53) -0.0743(8) 0.4819(4)
H11 H -0.0966(11) -0.0868(10) 0.4494(10)
H12 H -0.4229(37) 0.3830(16) 0.1854(2)
H13 H -0.4235(38) 0.4897(4) 0.2201(7)
H14 H -0.6452(8) 0.3958(18) 0.2273(6)
H15 H -0.1786(6) 0.5574(2) 0.4176(1)
H16 H -0.0126(7) 0.7440(3) 0.3144(1)
H17 H -0.2232(7) 0.7477(3) 0.3591(1)
H18 H -0.2985(7) 0.5712(3) 0.3329(1)
H19 H 0.027(5) 0.4826(12) 0.2969(11)
#END
