
#######################################################################
#
#                 Cambridge Crystallographic Data Centre
#                                CCDC
#
#######################################################################
#
# If this CIF has been generated from an entry in the Cambridge
# Structural Database, then it will include bibliographic, chemical,
# crystal, experimental, refinement or atomic coordinate data resulting
# from the CCDC's data processing and validation procedures.
#
#######################################################################

data_CSD_CIF_NIMURC10
_audit_creation_date 1977-10-06
_audit_creation_method CSD-ConQuest-V1
_database_code_CSD NIMURC10
_chemical_formula_sum 'C5 H5 N3 O4'
_chemical_formula_moiety
;
C5 H5 N3 O4
;
_journal_coeditor_code "IUCr A14733"
_journal_coden_Cambridge 107
_journal_volume 33
_journal_year 1977
_journal_page_first 1749
_journal_name_full 'Acta Crystallogr.,Sect.B:Struct.Crystallogr.Cryst.Chem. '
loop_
_publ_author_name
"R.Parthasarathy"
"T.Srikrishnan"
_chemical_name_systematic
;
5-Nitro-6-methyluracil
;
_cell_volume    684.543
_exptl_crystal_density_diffrn 1.68
_exptl_special_details
;
C4 x 0.0887, not 0.0087

;
_diffrn_ambient_temperature ?
_diffrn_special_details
;
The study was carried out at room temperature,in the range 283-303K

;
_refine_special_details
;
The nitrogroup is orientationally disordered. Minor fraction has occupancy 
factor of 0.16. Major fraction included in file.
;
#These two values have been output from a single CSD field.
_refine_ls_R_factor_gt 0.062
_refine_ls_wR_factor_gt 0.062
_symmetry_cell_setting monoclinic
_symmetry_space_group_name_H-M 'P 21/c'
_symmetry_Int_Tables_number 14
loop_
_symmetry_equiv_pos_site_id
_symmetry_equiv_pos_as_xyz
1 x,y,z
2 -x,1/2+y,1/2-z
3 -x,-y,-z
4 x,-1/2-y,-1/2+z
_cell_length_a 5.612(1)
_cell_length_b 9.521(3)
_cell_length_c 13.116(2)
_cell_angle_alpha 90
_cell_angle_beta 102.37(3)
_cell_angle_gamma 90
_cell_formula_units_Z 4
loop_
_atom_type_symbol
_atom_type_radius_bond
C 0.68
H 0.23
N 0.68
O 0.68
loop_
_atom_site_label
_atom_site_type_symbol
_atom_site_fract_x
_atom_site_fract_y
_atom_site_fract_z
O1 O 0.37040 0.06130 0.37970
O2 O 0.12010 0.17610 0.67400
O3 O -0.48040 0.35090 0.52120
O4 O -0.17790 0.41180 0.64370
N1 N 0.04790 0.20770 0.36580
N2 N 0.22740 0.11120 0.52550
N3 N -0.25770 0.35330 0.56290
C1 C 0.22670 0.12280 0.42100
C2 C 0.08870 0.18880 0.57950
C3 C -0.09530 0.27420 0.51310
C4 C -0.11380 0.28190 0.40780
C5 C -0.29300 0.36700 0.33250
H1 H 0.06100 0.22600 0.30000
H2 H 0.34800 0.06400 0.56600
H3 H -0.44400 0.32100 0.31300
H4 H -0.37200 0.44700 0.36800
H5 H -0.21400 0.39700 0.28100
#END
