
#######################################################################
#
#                 Cambridge Crystallographic Data Centre
#                                CCDC
#
#######################################################################
#
# If this CIF has been generated from an entry in the Cambridge
# Structural Database, then it will include bibliographic, chemical,
# crystal, experimental, refinement or atomic coordinate data resulting
# from the CCDC's data processing and validation procedures.
#
#######################################################################

data_CSD_CIF_NINQEI
_audit_creation_date 2013-10-01
_audit_creation_method CSD-ConQuest-V1
_database_code_CSD NINQEI
_database_code_depnum_ccdc_archive 'CCDC 964031'
_chemical_formula_sum 'C16 H15 N3 O6'
_chemical_formula_moiety
;
C16 H15 N3 O6
;
_journal_coeditor_code "IUCr su2627"
_journal_coden_Cambridge 1370
_journal_volume 69
_journal_year 2013
_journal_page_first o1380
_journal_name_full 'Acta Crystallogr.,Sect.E:Struct.Rep.Online '
loop_
_publ_author_name
"P.Narayanan"
"J.Kamalraja"
"P.T.Perumal"
"K.Sethusankar"
_chemical_name_systematic
;
2-(Methylamino)-3-nitro-4-(4-nitrophenyl)-4,6,7,8-tetrahydro-5H-chromen-5-one
;
_cell_volume    775.052
_exptl_crystal_colour 'colorless'
_exptl_crystal_density_diffrn 1.48
_exptl_crystal_description 'block'
_diffrn_ambient_temperature 296
#These two values have been output from a single CSD field.
_refine_ls_R_factor_gt 0.0444
_refine_ls_wR_factor_gt 0.0444
_symmetry_cell_setting triclinic
_symmetry_space_group_name_H-M 'P -1'
_symmetry_Int_Tables_number 2
loop_
_symmetry_equiv_pos_site_id
_symmetry_equiv_pos_as_xyz
1 x,y,z
2 -x,-y,-z
_cell_length_a 8.2587(3)
_cell_length_b 8.7679(4)
_cell_length_c 10.9346(5)
_cell_angle_alpha 101.616(2)
_cell_angle_beta 90.426(2)
_cell_angle_gamma 91.930(2)
_cell_formula_units_Z 2
loop_
_atom_type_symbol
_atom_type_radius_bond
C 0.68
H 0.23
N 0.68
O 0.68
loop_
_atom_site_label
_atom_site_type_symbol
_atom_site_fract_x
_atom_site_fract_y
_atom_site_fract_z
C1 C 0.2531(2) 1.32368(19) 0.26884(15)
H1 H 0.17100 1.38340 0.30940
C2 C 0.3654(2) 1.3910(2) 0.20151(16)
H2 H 0.36260 1.49610 0.19830
C3 C 0.48192(19) 1.2977(2) 0.13907(15)
C4 C 0.49206(19) 1.1433(2) 0.14415(16)
H3 H 0.57190 1.08310 0.10080
C5 C 0.38164(18) 1.07952(19) 0.21467(15)
H4 H 0.38830 0.97560 0.22060
C6 C 0.26034(17) 1.16853(17) 0.27713(13)
C7 C 0.13772(17) 1.09405(17) 0.35343(14)
H5 H 0.06020 1.17240 0.38940
C8 C 0.04677(17) 0.96034(18) 0.27041(13)
C9 C -0.07332(18) 0.9969(2) 0.18054(15)
C10 C -0.1554(2) 0.8623(2) 0.09238(16)
H6 H -0.17770 0.89340 0.01380
H7 H -0.25830 0.83730 0.12710
C11 C -0.0557(2) 0.7178(2) 0.06734(15)
H8 H 0.04000 0.73690 0.02100
H9 H -0.11880 0.63220 0.01700
C12 C -0.0052(2) 0.6741(2) 0.18949(15)
H10 H -0.09920 0.63580 0.22840
H11 H 0.07200 0.59180 0.17320
C13 C 0.06922(18) 0.81242(18) 0.27499(14)
C14 C 0.23414(18) 0.87924(18) 0.45824(14)
C15 C 0.21916(18) 1.03614(17) 0.45763(13)
C16 C 0.3124(3) 0.6535(2) 0.5443(2)
H12 H 0.20410 0.60940 0.54070
H13 H 0.36550 0.63970 0.61950
H14 H 0.37140 0.60230 0.47330
N1 N 0.30687(19) 0.81832(17) 0.54344(13)
N2 N 0.28580(17) 1.14864(16) 0.55398(12)
N3 N 0.5987(2) 1.3655(3) 0.06260(18)
O1 O 0.16935(14) 0.76920(13) 0.36371(10)
O2 O -0.10506(16) 1.13167(16) 0.18180(13)
O3 O 0.36526(17) 1.11096(15) 0.64145(11)
O4 O 0.26560(19) 1.28774(14) 0.55197(12)
O5 O 0.6313(2) 1.5047(2) 0.09323(18)
O6 O 0.6534(2) 1.2794(2) -0.02896(18)
H15 H 0.349(4) 0.891(3) 0.607(2)
#END
