
#######################################################################
#
#                 Cambridge Crystallographic Data Centre
#                                CCDC
#
#######################################################################
#
# If this CIF has been generated from an entry in the Cambridge
# Structural Database, then it will include bibliographic, chemical,
# crystal, experimental, refinement or atomic coordinate data resulting
# from the CCDC's data processing and validation procedures.
#
#######################################################################

data_CSD_CIF_NIPFAV
_audit_creation_date 2013-10-01
_audit_creation_method CSD-ConQuest-V1
_database_code_CSD NIPFAV
_database_code_depnum_ccdc_archive 'CCDC 955433'
_chemical_formula_sum 'C22 H22 N2 O4'
_chemical_formula_moiety
;
C22 H22 N2 O4
;
_journal_coeditor_code "IUCr xu5734"
_journal_coden_Cambridge 1370
_journal_volume 69
_journal_year 2013
_journal_page_first o1470
_journal_name_full 'Acta Crystallogr.,Sect.E:Struct.Rep.Online '
loop_
_publ_author_name
"M.Kong"
"F.-Y.Hao"
"D.-D.Li"
"J.-Y.Wu"
_chemical_name_systematic
;
4-Ethoxy-N-(4-ethoxyphenyl)-N-(4-nitrophenyl)aniline
;
_cell_volume   1975.825
_exptl_crystal_colour 'red'
_exptl_crystal_density_diffrn 1.272
_exptl_crystal_description 'block'
_diffrn_ambient_temperature 298
#These two values have been output from a single CSD field.
_refine_ls_R_factor_gt 0.0536
_refine_ls_wR_factor_gt 0.0536
_symmetry_cell_setting monoclinic
_symmetry_space_group_name_H-M 'P 21/c'
_symmetry_Int_Tables_number 14
loop_
_symmetry_equiv_pos_site_id
_symmetry_equiv_pos_as_xyz
1 x,y,z
2 -x,1/2+y,1/2-z
3 -x,-y,-z
4 x,-1/2-y,-1/2+z
_cell_length_a 10.926(5)
_cell_length_b 18.380(5)
_cell_length_c 10.345(5)
_cell_angle_alpha 90
_cell_angle_beta 107.998(5)
_cell_angle_gamma 90
_cell_formula_units_Z 4
loop_
_atom_type_symbol
_atom_type_radius_bond
C 0.68
H 0.23
N 0.68
O 0.68
loop_
_atom_site_label
_atom_site_type_symbol
_atom_site_fract_x
_atom_site_fract_y
_atom_site_fract_z
N1 N 0.91897(19) 0.16945(11) 0.28936(19)
O1 O 0.56239(17) 0.18864(10) -0.23010(17)
C1 C 0.8292(2) 0.17241(14) 0.1544(2)
C2 C 0.7178(3) 0.11519(15) -0.0584(3)
H1 H 0.70160 0.07410 -0.11360
C3 C 0.8614(3) 0.04099(13) 0.5958(2)
C4 C 1.0222(2) 0.22159(14) 0.3220(2)
C5 C 0.8063(3) 0.11222(15) 0.0714(3)
H2 H 0.85040 0.06920 0.10220
C6 C 0.6541(2) 0.17944(15) -0.1048(2)
C7 C 0.9971(3) 0.11691(14) 0.5137(2)
H3 H 1.07560 0.14040 0.52820
N2 N 0.8397(3) -0.00099(13) 0.7052(3)
C8 C 0.9009(2) 0.12531(13) 0.3896(2)
C9 C 1.0181(3) 0.28165(15) 0.4004(2)
H4 H 0.94960 0.28780 0.43490
C10 C 0.7672(2) 0.23642(15) 0.1048(3)
H5 H 0.78420 0.27790 0.15900
C11 C 0.7654(3) 0.04742(14) 0.4739(3)
H6 H 0.68720 0.02390 0.46120
C12 C 0.7844(3) 0.08837(14) 0.3707(2)
H7 H 0.71960 0.09160 0.28780
C13 C 1.1156(3) 0.33271(15) 0.4278(3)
H8 H 1.11320 0.37310 0.48100
C14 C 1.2164(3) 0.32350(16) 0.3758(3)
O2 O 0.7323(3) -0.02692(13) 0.6884(2)
C15 C 0.9775(3) 0.07440(14) 0.6150(2)
H9 H 1.04330 0.06840 0.69650
O3 O 1.3142(2) 0.37328(13) 0.3914(2)
C16 C 0.6805(2) 0.23998(15) -0.0236(3)
H10 H 0.63950 0.28370 -0.05550
O4 O 0.9283(3) -0.00806(12) 0.8122(2)
C17 C 1.2193(3) 0.26372(16) 0.2976(3)
H11 H 1.28740 0.25750 0.26250
C18 C 1.1235(3) 0.21351(15) 0.2711(2)
H12 H 1.12650 0.17320 0.21790
C19 C 0.5245(3) 0.12818(17) -0.3152(3)
H13 H 0.49520 0.08960 -0.26790
H14 H 0.59660 0.11010 -0.34180
C20 C 0.4178(3) 0.15093(18) -0.4383(3)
H15 H 0.34160 0.16030 -0.41340
H16 H 0.40090 0.11280 -0.50490
H17 H 0.44240 0.19430 -0.47570
C21 C 1.3504(4) 0.4187(2) 0.5060(5)
H18 H 1.27350 0.43570 0.52460
H19 H 1.39480 0.46090 0.48610
C22 C 1.4317(4) 0.3834(3) 0.6241(4)
H20 H 1.38180 0.34990 0.65830
H21 H 1.46960 0.41910 0.69250
H22 H 1.49840 0.35750 0.60120
#END
