
#######################################################################
#
#                 Cambridge Crystallographic Data Centre
#                                CCDC
#
#######################################################################
#
# If this CIF has been generated from an entry in the Cambridge
# Structural Database, then it will include bibliographic, chemical,
# crystal, experimental, refinement or atomic coordinate data resulting
# from the CCDC's data processing and validation procedures.
#
#######################################################################

data_CSD_CIF_NIPXBZ
_audit_creation_date 1979-02-14
_audit_creation_method CSD-ConQuest-V1
_database_code_CSD NIPXBZ
_database_code_depnum_ccdc_archive 'CCDC 1220534'
_chemical_formula_sum 'C24 H12 N6 O15'
_chemical_formula_moiety
;
C24 H12 N6 O15
;
_journal_coeditor_code "IUCr A16588"
_journal_coden_Cambridge 107
_journal_volume 34
_journal_year 1978
_journal_page_first 3449
_journal_name_full 'Acta Crystallogr.,Sect.B:Struct.Crystallogr.Cryst.Chem. '
loop_
_publ_author_name
"V.Cody"
"J.P.Hazel"
"P.A.Lehmann"
_chemical_name_systematic
;
1,2,3-tris(2,4-Dinitrophenoxy)benzene
;
_chemical_melting_point 479.15
_cell_volume   1280.521
_exptl_crystal_density_diffrn 1.62
_diffrn_ambient_temperature ?
_diffrn_special_details
;
The study was carried out at room temperature,in the range 283-303K

;
_refine_special_details
;
Oxygen atoms of one nitro-group on the central ring are disordered . 
Positions with occupancy factor of 0.75 have been retained.
;
#These two values have been output from a single CSD field.
_refine_ls_R_factor_gt 0.067
_refine_ls_wR_factor_gt 0.067
_symmetry_cell_setting triclinic
_symmetry_space_group_name_H-M 'P -1'
_symmetry_Int_Tables_number 2
loop_
_symmetry_equiv_pos_site_id
_symmetry_equiv_pos_as_xyz
1 x,y,z
2 -x,-y,-z
_cell_length_a 10.453(1)
_cell_length_b 16.524(6)
_cell_length_c 8.146(3)
_cell_angle_alpha 104.48(3)
_cell_angle_beta 101.11(2)
_cell_angle_gamma 71.28(3)
_cell_formula_units_Z 2
loop_
_atom_type_symbol
_atom_type_radius_bond
C 0.68
N 0.68
O 0.68
loop_
_atom_site_label
_atom_site_type_symbol
_atom_site_fract_x
_atom_site_fract_y
_atom_site_fract_z
C1 C 0.91230 0.12690 0.60930
C2 C 0.77300 0.14590 0.62200
C3 C 0.73280 0.10390 0.71780
C4 C 0.82840 0.04010 0.79660
C5 C 0.96260 0.02160 0.77900
C6 C 1.00620 0.06570 0.69110
O1 O 0.95180 0.16800 0.50820
O2 O 0.68400 0.21040 0.54230
O3 O 0.59460 0.11790 0.72850
C7 C 0.51950 0.20200 0.77540
C8 C 0.38110 0.22630 0.70740
C9 C 0.30130 0.31050 0.73970
C10 C 0.35930 0.37110 0.84850
C11 C 0.48800 0.35140 0.92300
C12 C 0.57150 0.26570 0.88630
N1 N 0.32120 0.16120 0.59010
O4 O 0.23720 0.18430 0.47160
O5 O 0.35090 0.09050 0.62530
N2 N 0.27350 0.46310 0.87850
O6 O 0.15360 0.47970 0.81900
O7 O 0.32470 0.51790 0.96590
C13 C 0.92730 0.25560 0.55700
C14 C 0.90200 0.30420 0.43320
C15 C 0.88240 0.39250 0.47390
C16 C 0.88000 0.43270 0.64140
C17 C 0.90540 0.38820 0.76970
C18 C 0.93020 0.29840 0.72650
N3 N 0.89400 0.26210 0.25240
O8 O 0.83250 0.20620 0.20420
O9 O 0.92630 0.28960 0.15220
N4 N 0.85490 0.52790 0.68620
O10 O 0.84200 0.56420 0.83400
O11 O 0.83850 0.56630 0.57460
C19 C 0.59110 0.18970 0.41090
C20 C 0.49730 0.25820 0.34290
C21 C 0.39720 0.24400 0.21400
C22 C 0.38910 0.16020 0.15300
C23 C 0.48160 0.08960 0.21140
C24 C 0.58310 0.10500 0.34250
N5 N 0.50610 0.34770 0.40990
O12 O 0.49040 0.39040 0.31010
O13 O 0.52200 0.37370 0.56170
N6 N 0.27990 0.14370 0.01770
O14 O 0.20460 0.20370 -0.04360
O15 O 0.27520 0.06840 -0.03000
#END
