
#######################################################################
#
#                 Cambridge Crystallographic Data Centre
#                                CCDC
#
#######################################################################
#
# If this CIF has been generated from an entry in the Cambridge
# Structural Database, then it will include bibliographic, chemical,
# crystal, experimental, refinement or atomic coordinate data resulting
# from the CCDC's data processing and validation procedures.
#
#######################################################################

data_CSD_CIF_NIPZOC
_audit_creation_date 2008-01-25
_audit_creation_method CSD-ConQuest-V1
_database_code_CSD NIPZOC
_database_code_depnum_ccdc_archive 'CCDC 651627'
_chemical_formula_sum 'C24 H17 N4 O2'
_chemical_formula_moiety
;
C24 H17 N4 O2
;
_journal_coden_Cambridge 1078
_journal_year 2007
_journal_name_full 'CSD Communication(Private Communication) '
loop_
_publ_author_name
"M.E.Light"
"K.Navakhun"
"P.A.Gale"
_chemical_name_systematic
;
Benzotriazol-1-yl 3,4-diphenyl-2-methylpyrrole-5-carboxylate
;
_cell_volume   1976.718
_exptl_crystal_density_diffrn 1.322
_exptl_special_details
;
contribution from Department of Chemistry, University of Southampton, 
Highfield, Southampton, SO17 1BJ, United Kingdom
;
_diffrn_ambient_temperature 120
#These two values have been output from a single CSD field.
_refine_ls_R_factor_gt 0.0849
_refine_ls_wR_factor_gt 0.0849
_symmetry_cell_setting monoclinic
_symmetry_space_group_name_H-M 'P 21/c'
_symmetry_Int_Tables_number 14
loop_
_symmetry_equiv_pos_site_id
_symmetry_equiv_pos_as_xyz
1 x,y,z
2 -x,1/2+y,1/2-z
3 -x,-y,-z
4 x,-1/2-y,-1/2+z
_cell_length_a 10.4853(4)
_cell_length_b 7.0515(3)
_cell_length_c 26.9705(14)
_cell_angle_alpha 90
_cell_angle_beta 97.575(2)
_cell_angle_gamma 90
_cell_formula_units_Z 4
loop_
_atom_type_symbol
_atom_type_radius_bond
C 0.68
H 0.23
N 0.68
O 0.68
loop_
_atom_site_label
_atom_site_type_symbol
_atom_site_fract_x
_atom_site_fract_y
_atom_site_fract_z
C1 C 0.0881(5) 0.1613(6) 0.44312(15)
H1 H 0.07470 0.29240 0.43150
H2 H 0.14970 0.15920 0.47380
H3 H 0.00600 0.10750 0.44990
C2 C 0.1395(4) 0.0467(6) 0.40364(14)
C3 C 0.2234(4) -0.1077(6) 0.40831(14)
C4 C 0.2505(4) -0.1558(5) 0.36055(14)
C5 C 0.1798(4) -0.0321(5) 0.32667(15)
C6 C 0.1681(4) -0.0282(6) 0.27350(15)
C7 C 0.2722(4) -0.2025(6) 0.45632(15)
C8 C 0.4027(5) -0.2061(6) 0.47429(17)
H4 H 0.46260 -0.14640 0.45580
C9 C 0.4459(5) -0.2965(7) 0.51911(17)
H5 H 0.53520 -0.29710 0.53120
C10 C 0.3604(5) -0.3857(7) 0.54630(16)
H6 H 0.39070 -0.44850 0.57670
C11 C 0.2308(5) -0.3830(6) 0.52892(16)
H7 H 0.17140 -0.44340 0.54750
C12 C 0.1872(5) -0.2918(6) 0.48422(16)
H8 H 0.09760 -0.29040 0.47250
C13 C 0.3334(4) -0.3133(6) 0.34685(15)
C14 C 0.3115(4) -0.4981(6) 0.36221(16)
H9 H 0.24620 -0.52230 0.38270
C15 C 0.3849(4) -0.6466(6) 0.34760(18)
H10 H 0.36920 -0.77220 0.35810
C16 C 0.4801(5) -0.6141(7) 0.31822(18)
H11 H 0.52800 -0.71730 0.30760
C17 C 0.5060(5) -0.4303(8) 0.30411(18)
H12 H 0.57350 -0.40660 0.28460
C18 C 0.4335(4) -0.2824(6) 0.31851(16)
H13 H 0.45210 -0.15680 0.30900
C19 C 0.1271(4) 0.2598(5) 0.18348(15)
C20 C 0.1911(4) 0.4236(6) 0.20301(17)
H14 H 0.19880 0.45560 0.23750
C21 C 0.2414(5) 0.5337(7) 0.1686(2)
H15 H 0.28480 0.64740 0.17960
C22 C 0.2316(5) 0.4854(7) 0.1176(2)
H16 H 0.26960 0.56600 0.09540
C23 C 0.1686(5) 0.3252(7) 0.09913(18)
H17 H 0.16260 0.29260 0.06470
C24 C 0.1135(4) 0.2116(6) 0.13318(15)
N1 N 0.1114(3) 0.0896(5) 0.35403(12)
N2 N 0.0450(4) 0.0435(5) 0.12625(13)
N3 N 0.0161(3) -0.0132(5) 0.16976(13)
N4 N 0.0614(3) 0.1194(5) 0.20378(12)
O1 O 0.0608(3) 0.0878(4) 0.25395(10)
O2 O 0.2328(3) -0.1039(4) 0.2455(1)
#END
