
#######################################################################
#
#                 Cambridge Crystallographic Data Centre
#                                CCDC
#
#######################################################################
#
# If this CIF has been generated from an entry in the Cambridge
# Structural Database, then it will include bibliographic, chemical,
# crystal, experimental, refinement or atomic coordinate data resulting
# from the CCDC's data processing and validation procedures.
#
#######################################################################

data_CSD_CIF_NIQQOU
_audit_creation_date 2008-01-25
_audit_creation_method CSD-ConQuest-V1
_database_code_CSD NIQQOU
_database_code_depnum_ccdc_archive 'CCDC 673035'
_chemical_formula_sum 'C17 H11 N1 O7'
_chemical_formula_moiety
;
C17 H11 N1 O7
;
_journal_coeditor_code "IUCr HG2338"
_journal_coden_Cambridge 1370
_journal_volume 63
_journal_year 2007
_journal_page_first o4836
_journal_name_full 'Acta Crystallogr.,Sect.E:Struct.Rep.Online '
loop_
_publ_author_name
"Yanqing Gong"
"Yang Lu"
"Qitai Zheng"
_chemical_name_systematic
;
8-Methoxy-3,4-methylenedioxy-10-nitrophenanthrene-1-carboxylic acid
;
_chemical_name_common
;
Aristolochic acid
;
_cell_volume   2945.830
_exptl_crystal_colour 'yellow'
_exptl_crystal_density_diffrn 1.539
_exptl_crystal_description 'plate'
_exptl_crystal_preparation 'acetone'
_diffrn_ambient_temperature 295
#These two values have been output from a single CSD field.
_refine_ls_R_factor_gt 0.0507
_refine_ls_wR_factor_gt 0.0507
_chemical_compound_source
;
Aristolochia manshuriensis Kom
;
_symmetry_cell_setting monoclinic
_symmetry_space_group_name_H-M 'C 2/c'
_symmetry_Int_Tables_number 15
loop_
_symmetry_equiv_pos_site_id
_symmetry_equiv_pos_as_xyz
1 x,y,z
2 1/2+x,1/2+y,z
3 -x,y,1/2-z
4 1/2-x,1/2+y,1/2-z
5 -x,-y,-z
6 -1/2-x,-1/2-y,-z
7 x,-y,-1/2+z
8 -1/2+x,-1/2-y,-1/2+z
_cell_length_a 19.695(2)
_cell_length_b 9.050(1)
_cell_length_c 18.986(1)
_cell_angle_alpha 90
_cell_angle_beta 119.483(5)
_cell_angle_gamma 90
_cell_formula_units_Z 8
loop_
_atom_type_symbol
_atom_type_radius_bond
C 0.68
H 0.23
N 0.68
O 0.68
loop_
_atom_site_label
_atom_site_type_symbol
_atom_site_fract_x
_atom_site_fract_y
_atom_site_fract_z
N1 N 0.39126(8) -0.03249(18) 0.65245(9)
O1 O 0.59263(8) 0.36643(16) 0.53372(11)
O2 O 0.65875(7) 0.14805(16) 0.58614(10)
O3 O 0.33911(7) 0.35127(14) 0.53900(9)
H1 H 0.29190 0.35700 0.52110
O4 O 0.31135(7) 0.11097(13) 0.51660(8)
O5 O 0.39179(8) 0.08442(17) 0.68474(9)
O6 O 0.34436(8) -0.13248(17) 0.6390(1)
O7 O 0.55873(9) -0.45721(16) 0.71258(10)
C1 C 0.44277(9) 0.19015(19) 0.56666(10)
C2 C 0.47687(10) 0.3006(2) 0.54393(11)
H2 H 0.45130 0.38940 0.52230
C3 C 0.54982(11) 0.2736(2) 0.55471(12)
C4 C 0.58857(9) 0.1440(2) 0.58507(10)
C5 C 0.67215(10) -0.1437(2) 0.64861(11)
H3 H 0.69800 -0.07250 0.63520
C6 C 0.70591(11) -0.2797(2) 0.67650(12)
H4 H 0.75410 -0.29930 0.68070
C7 C 0.67046(12) -0.3884(2) 0.69862(12)
H5 H 0.69500 -0.47890 0.71820
C8 C 0.59874(11) -0.3612(2) 0.69135(11)
C9 C 0.48868(9) -0.19269(19) 0.65732(10)
H6 H 0.46470 -0.26560 0.67200
C10 C 0.45406(9) -0.05946(19) 0.63288(10)
C11 C 0.48282(9) 0.05599(18) 0.60243(9)
C12 C 0.55825(9) 0.02811(18) 0.61000(9)
C13 C 0.59829(9) -0.11214(19) 0.64024(9)
C14 C 0.56104(10) -0.22350(19) 0.66104(10)
C15 C 0.66290(12) 0.2899(3) 0.55530(16)
H7 H 0.70700 0.34500 0.59620
H8 H 0.66970 0.27860 0.50830
C16 C 0.35875(10) 0.21296(19) 0.54018(10)
C17 C 0.59882(17) -0.5836(3) 0.75850(18)
H9 H 0.56420 -0.64150 0.76940
H10 H 0.64280 -0.55290 0.80860
H11 H 0.61660 -0.64190 0.72850
#END
