
#######################################################################
#
#                 Cambridge Crystallographic Data Centre
#                                CCDC
#
#######################################################################
#
# If this CIF has been generated from an entry in the Cambridge
# Structural Database, then it will include bibliographic, chemical,
# crystal, experimental, refinement or atomic coordinate data resulting
# from the CCDC's data processing and validation procedures.
#
#######################################################################

data_CSD_CIF_NIRJEE02
_audit_creation_date 2008-05-14
_audit_creation_method CSD-ConQuest-V1
_database_code_CSD NIRJEE02
_database_code_depnum_ccdc_archive 'CCDC 657063'
_chemical_formula_sum 'C8 H9 N1 O2'
_chemical_formula_moiety
;
C8 H9 N1 O2
;
_journal_coden_Cambridge 1350
_journal_volume 10
_journal_year 2008
_journal_page_first 239
_journal_name_full 'CrystEngComm '
loop_
_publ_author_name
"P.A.Wood"
"R.S.Forgan"
"A.R.Lennie"
"S.Parsons"
"E.Pidcock"
"P.A.Tasker"
"J.E.Warren"
_chemical_name_systematic
;
3-Methylsalicylaldoxime
;
_chemical_name_common
;
2-hydroxy-3-methylbenzaldehyde oxime
;
_cell_volume    668.973
_exptl_crystal_colour 'yellow'
_exptl_crystal_density_diffrn 1.501
_exptl_crystal_description 'block'
_exptl_crystal_preparation 'hexane'
_diffrn_ambient_temperature 298
_diffrn_ambient_pressure 1300000.0
_diffrn_radiation_probe x-ray
_diffrn_source synchrotron
#These two values have been output from a single CSD field.
_refine_ls_R_factor_gt 0.0763
_refine_ls_wR_factor_gt 0.0763
_symmetry_cell_setting monoclinic
_symmetry_space_group_name_H-M 'P 21/c'
_symmetry_Int_Tables_number 14
loop_
_symmetry_equiv_pos_site_id
_symmetry_equiv_pos_as_xyz
1 x,y,z
2 -x,1/2+y,1/2-z
3 -x,-y,-z
4 x,-1/2-y,-1/2+z
_cell_length_a 12.998(3)
_cell_length_b 3.6988(5)
_cell_length_c 13.9167(16)
_cell_angle_alpha 90
_cell_angle_beta 90.99(2)
_cell_angle_gamma 90
_cell_formula_units_Z 4
loop_
_atom_type_symbol
_atom_type_radius_bond
C 0.68
H 0.23
N 0.68
O 0.68
loop_
_atom_site_label
_atom_site_type_symbol
_atom_site_fract_x
_atom_site_fract_y
_atom_site_fract_z
O1 O 0.5676(6) 0.0569(9) 0.63626(17)
N1 N 0.4738(6) 0.2126(8) 0.60941(18)
C1 C 0.4055(7) 0.1744(9) 0.67248(19)
C2 C 0.3019(7) 0.3172(8) 0.65689(19)
C3 C 0.2696(8) 0.4789(9) 0.56934(18)
O2 O 0.3376(5) 0.5013(6) 0.49422(14)
C4 C 0.1722(8) 0.6102(10) 0.5553(2)
C5 C 0.1409(7) 0.7720(9) 0.45932(19)
C6 C 0.1032(7) 0.5865(9) 0.6310(2)
C7 C 0.1350(9) 0.4352(12) 0.7187(2)
C8 C 0.2309(8) 0.3040(11) 0.7310(2)
H1 H 0.621(6) 0.141(17) 0.609(5)
H2 H 0.42210 0.05180 0.72930
H3 H 0.392(5) 0.384(13) 0.514(3)
H4 H 0.07510 0.88410 0.46210
H5 H 0.19020 0.95140 0.44170
H6 H 0.13820 0.58850 0.41160
H7 H 0.03620 0.67280 0.62220
H8 H 0.08910 0.42420 0.76860
H9 H 0.25010 0.20010 0.79020
#END
