
#######################################################################
#
#                 Cambridge Crystallographic Data Centre
#                                CCDC
#
#######################################################################
#
# If this CIF has been generated from an entry in the Cambridge
# Structural Database, then it will include bibliographic, chemical,
# crystal, experimental, refinement or atomic coordinate data resulting
# from the CCDC's data processing and validation procedures.
#
#######################################################################

data_CSD_CIF_NIRJEE06
_audit_creation_date 2008-05-14
_audit_creation_method CSD-ConQuest-V1
_database_code_CSD NIRJEE06
_database_code_depnum_ccdc_archive 'CCDC 657067'
_chemical_formula_sum 'C8 H9 N1 O2'
_chemical_formula_moiety
;
C8 H9 N1 O2
;
_journal_coden_Cambridge 1350
_journal_volume 10
_journal_year 2008
_journal_page_first 239
_journal_name_full 'CrystEngComm '
loop_
_publ_author_name
"P.A.Wood"
"R.S.Forgan"
"A.R.Lennie"
"S.Parsons"
"E.Pidcock"
"P.A.Tasker"
"J.E.Warren"
_chemical_name_systematic
;
3-Methylsalicylaldoxime
;
_chemical_name_common
;
2-hydroxy-3-methylbenzaldehyde oxime
;
_cell_volume    595.267
_exptl_crystal_colour 'yellow'
_exptl_crystal_density_diffrn 1.687
_exptl_crystal_description 'block'
_exptl_crystal_preparation 'hexane'
_diffrn_ambient_temperature 298
_diffrn_ambient_pressure 4900000.0
_diffrn_radiation_probe x-ray
_diffrn_source synchrotron
#These two values have been output from a single CSD field.
_refine_ls_R_factor_gt 0.0987
_refine_ls_wR_factor_gt 0.0987
_symmetry_cell_setting monoclinic
_symmetry_space_group_name_H-M 'P 21/c'
_symmetry_Int_Tables_number 14
loop_
_symmetry_equiv_pos_site_id
_symmetry_equiv_pos_as_xyz
1 x,y,z
2 -x,1/2+y,1/2-z
3 -x,-y,-z
4 x,-1/2-y,-1/2+z
_cell_length_a 12.766(7)
_cell_length_b 3.4872(9)
_cell_length_c 13.382(3)
_cell_angle_alpha 90
_cell_angle_beta 92.27(4)
_cell_angle_gamma 90
_cell_formula_units_Z 4
loop_
_atom_type_symbol
_atom_type_radius_bond
C 0.68
H 0.23
N 0.68
O 0.68
loop_
_atom_site_label
_atom_site_type_symbol
_atom_site_fract_x
_atom_site_fract_y
_atom_site_fract_z
O1 O 0.5711(6) 0.0251(7) 0.63670(17)
N1 N 0.4762(6) 0.1934(7) 0.60918(17)
C1 C 0.4059(7) 0.1409(8) 0.67428(19)
C2 C 0.3052(6) 0.2965(7) 0.65893(18)
C3 C 0.2676(7) 0.4718(7) 0.56807(18)
O2 O 0.3368(5) 0.5061(6) 0.49144(15)
C4 C 0.1699(7) 0.6080(7) 0.55218(18)
C5 C 0.1385(6) 0.7853(8) 0.45315(18)
C6 C 0.0979(7) 0.5726(8) 0.6285(2)
C7 C 0.1305(7) 0.4058(9) 0.7203(2)
C8 C 0.2297(7) 0.2699(8) 0.73442(19)
H1 H 0.42330 -0.00210 0.73430
H2 H 0.06850 0.88980 0.45540
H3 H 0.18570 0.98840 0.43900
H4 H 0.14080 0.58850 0.40180
H5 H 0.02870 0.66250 0.61830
H6 H 0.08420 0.38740 0.77190
H7 H 0.25050 0.15730 0.79700
H8 H 0.397(4) 0.410(14) 0.510(4)
H9 H 0.619(5) 0.115(12) 0.597(3)
#END
