
#######################################################################
#
#                 Cambridge Crystallographic Data Centre
#                                CCDC
#
#######################################################################
#
# If this CIF has been generated from an entry in the Cambridge
# Structural Database, then it will include bibliographic, chemical,
# crystal, experimental, refinement or atomic coordinate data resulting
# from the CCDC's data processing and validation procedures.
#
#######################################################################

data_CSD_CIF_NIRJII05
_audit_creation_date 2008-05-14
_audit_creation_method CSD-ConQuest-V1
_database_code_CSD NIRJII05
_database_code_depnum_ccdc_archive 'CCDC 657072'
_chemical_formula_sum 'C11 H15 N1 O2'
_chemical_formula_moiety
;
C11 H15 N1 O2
;
_journal_coden_Cambridge 1350
_journal_volume 10
_journal_year 2008
_journal_page_first 239
_journal_name_full 'CrystEngComm '
loop_
_publ_author_name
"P.A.Wood"
"R.S.Forgan"
"A.R.Lennie"
"S.Parsons"
"E.Pidcock"
"P.A.Tasker"
"J.E.Warren"
_chemical_name_systematic
;
3-t-butylsalicylaldoxime
;
_chemical_name_common
;
2-hydroxy-3-t-butylbenzaldehyde oxime
;
_cell_volume   1699.537
_exptl_crystal_colour 'colorless'
_exptl_crystal_density_diffrn 1.51
_exptl_special_details
;
polymorph 2
phase transition from I to II polymorph between 0.2-1.0 GPa

;
_exptl_crystal_description 'block'
_exptl_crystal_preparation 'hexane/chloroform'
_diffrn_ambient_temperature 298
_diffrn_ambient_pressure 3400000.0
_diffrn_radiation_probe x-ray
_diffrn_source synchrotron
#These two values have been output from a single CSD field.
_refine_ls_R_factor_gt 0.0559
_refine_ls_wR_factor_gt 0.0559
_symmetry_cell_setting monoclinic
_symmetry_space_group_name_H-M 'I 2/a'
_symmetry_Int_Tables_number 15
loop_
_symmetry_equiv_pos_site_id
_symmetry_equiv_pos_as_xyz
1 x,y,z
2 1/2+x,1/2+y,1/2+z
3 1/2-x,y,-z
4 -x,1/2+y,1/2-z
5 -x,-y,-z
6 -1/2-x,-1/2-y,-1/2-z
7 -1/2+x,-y,z
8 x,-1/2-y,-1/2+z
_cell_length_a 14.3941(14)
_cell_length_b 6.3329(4)
_cell_length_c 18.7250(19)
_cell_angle_alpha 90
_cell_angle_beta 95.325(5)
_cell_angle_gamma 90
_cell_formula_units_Z 8
loop_
_atom_type_symbol
_atom_type_radius_bond
C 0.68
H 0.23
N 0.68
O 0.68
loop_
_atom_site_label
_atom_site_type_symbol
_atom_site_fract_x
_atom_site_fract_y
_atom_site_fract_z
O1 O 0.0836(3) 0.3421(4) 0.2950(2)
N1 N 0.1468(3) 0.4270(5) 0.2502(2)
C1 C 0.1201(4) 0.6106(5) 0.2278(3)
C2 C 0.1732(4) 0.7308(5) 0.1794(3)
C3 C 0.2535(4) 0.6529(5) 0.1529(3)
O2 O 0.2851(3) 0.4540(4) 0.17186(19)
C4 C 0.3050(4) 0.7692(5) 0.1071(3)
C5 C 0.3917(4) 0.6849(6) 0.0767(3)
C6 C 0.4668(4) 0.6147(6) 0.1359(3)
C7 C 0.3669(5) 0.4996(8) 0.0256(4)
C8 C 0.4389(5) 0.8546(8) 0.0359(4)
C9 C 0.2696(4) 0.9713(6) 0.0890(3)
C10 C 0.1901(4) 1.0509(6) 0.1143(3)
C11 C 0.1415(4) 0.9322(6) 0.1596(3)
H1 H 0.111(2) 0.238(7) 0.314(2)
H2 H 0.06590 0.67010 0.24280
H3 H 0.249(3) 0.397(5) 0.203(3)
H4 H 0.50880 0.52240 0.11410
H5 H 0.50070 0.73580 0.15640
H6 H 0.43890 0.53910 0.17320
H7 H 0.42330 0.43720 0.01200
H8 H 0.32920 0.54970 -0.01640
H9 H 0.33290 0.39540 0.05070
H10 H 0.49790 0.80430 0.02200
H11 H 0.44960 0.98060 0.06540
H12 H 0.39930 0.88950 -0.00660
H13 H 0.30180 1.05570 0.05810
H14 H 0.16930 1.18670 0.10070
H15 H 0.08850 0.98570 0.17810
#END
