
#######################################################################
#
#                 Cambridge Crystallographic Data Centre
#                                CCDC
#
#######################################################################
#
# If this CIF has been generated from an entry in the Cambridge
# Structural Database, then it will include bibliographic, chemical,
# crystal, experimental, refinement or atomic coordinate data resulting
# from the CCDC's data processing and validation procedures.
#
#######################################################################

data_CSD_CIF_NIRJEE
_audit_creation_date 2008-04-10
_audit_creation_method CSD-ConQuest-V1
_database_code_CSD NIRJEE
_database_code_depnum_ccdc_archive 'CCDC 656841'
_chemical_formula_sum 'C8 H9 N1 O2'
_chemical_formula_moiety
;
C8 H9 N1 O2
;
_journal_coden_Cambridge 182
_journal_year 2007
_journal_page_first 4940
_journal_name_full 'Chem.Commun. '
loop_
_publ_author_name
"R.S.Forgan"
"P.A.Wood"
"J.Campbell"
"D.K.Henderson"
"F.E.McAllister"
"S.Parsons"
"E.Pidcock"
"R.M.Swart"
"P.A.Tasker"
_chemical_name_systematic
;
2-hydroxy-3-methylbenzaldehyde oxime
;
_chemical_name_common
;
3-Methyl-2-hydroxybenzaldehyde oxime; 3-Methylsalicylaldoxime
;
_cell_volume    753.944
_exptl_crystal_colour 'yellow'
_exptl_crystal_density_diffrn 1.332
_exptl_crystal_description 'block'
_exptl_crystal_preparation 'hexane'
_diffrn_ambient_temperature 298
#These two values have been output from a single CSD field.
_refine_ls_R_factor_gt 0.0491
_refine_ls_wR_factor_gt 0.0491
_symmetry_cell_setting monoclinic
_symmetry_space_group_name_H-M 'P 21/c'
_symmetry_Int_Tables_number 14
loop_
_symmetry_equiv_pos_site_id
_symmetry_equiv_pos_as_xyz
1 x,y,z
2 -x,1/2+y,1/2-z
3 -x,-y,-z
4 x,-1/2-y,-1/2+z
_cell_length_a 13.249(4)
_cell_length_b 3.9513(11)
_cell_length_c 14.402(4)
_cell_angle_alpha 90
_cell_angle_beta 90.324(4)
_cell_angle_gamma 90
_cell_formula_units_Z 4
loop_
_atom_type_symbol
_atom_type_radius_bond
C 0.68
H 0.23
N 0.68
O 0.68
loop_
_atom_site_label
_atom_site_type_symbol
_atom_site_fract_x
_atom_site_fract_y
_atom_site_fract_z
O1 O 0.56393(13) 0.0895(5) 0.63610(12)
N1 N 0.47242(14) 0.2337(5) 0.60903(12)
C1 C 0.40383(17) 0.2023(6) 0.66971(15)
C2 C 0.30366(16) 0.3371(6) 0.65492(15)
C3 C 0.27359(16) 0.4870(6) 0.57096(15)
O2 O 0.34000(11) 0.5118(5) 0.49824(10)
C4 C 0.17744(16) 0.6125(6) 0.55684(15)
C5 C 0.14845(18) 0.7666(7) 0.46524(16)
C6 C 0.10988(17) 0.5872(7) 0.62950(19)
C7 C 0.13724(19) 0.4437(7) 0.71321(19)
C8 C 0.23264(19) 0.3204(7) 0.72647(16)
H1 H 0.606(2) 0.155(9) 0.600(2)
H2 H 0.41540 0.08030 0.72250
H3 H 0.3990(18) 0.425(7) 0.5127(18)
H4 H 0.08040 0.85410 0.46750
H5 H 0.19220 0.95490 0.45000
H6 H 0.15090 0.60310 0.41770
H7 H 0.04340 0.67360 0.61900
H8 H 0.09110 0.43010 0.76130
H9 H 0.25130 0.21540 0.78390
#END
