
#######################################################################
#
#                 Cambridge Crystallographic Data Centre
#                                CCDC
#
#######################################################################
#
# If this CIF has been generated from an entry in the Cambridge
# Structural Database, then it will include bibliographic, chemical,
# crystal, experimental, refinement or atomic coordinate data resulting
# from the CCDC's data processing and validation procedures.
#
#######################################################################

data_CSD_CIF_NIRLEG
_audit_creation_date 2008-04-10
_audit_creation_method CSD-ConQuest-V1
_database_code_CSD NIRLEG
_database_code_depnum_ccdc_archive 'CCDC 239646'
_chemical_formula_sum 'C22 H18 N2 O3'
_chemical_formula_moiety
;
C22 H18 N2 O3
;
_journal_coden_Cambridge 34
_journal_volume 44
_journal_year 2007
_journal_page_first 719
_journal_name_full 'J.Heterocycl.Chem. '
loop_
_publ_author_name
"S.S.Templin"
"N.J.Wallock"
"D.W.Bennett"
"T.Siddiquee"
"D.T.Haworth"
"W.A.Donaldson"
_chemical_name_systematic
;
5-Phthalimido-8-phenyl-8-aza-7-oxatricyclo(4.2.2.0^2,4^)dec-9-ene
;
_chemical_melting_point 401.15
_cell_volume   1721.919
_exptl_crystal_colour 'colorless'
_exptl_crystal_density_diffrn 1.382
_exptl_special_details
;
Melting point range 401.15-402.15K

;
_exptl_crystal_description 'prism'
_exptl_crystal_preparation 'hexanes/ethyl acetate'
_diffrn_ambient_temperature 293
#These two values have been output from a single CSD field.
_refine_ls_R_factor_gt 0.0434
_refine_ls_wR_factor_gt 0.0434
_symmetry_cell_setting monoclinic
_symmetry_space_group_name_H-M 'P 21/c'
_symmetry_Int_Tables_number 14
loop_
_symmetry_equiv_pos_site_id
_symmetry_equiv_pos_as_xyz
1 x,y,z
2 -x,1/2+y,1/2-z
3 -x,-y,-z
4 x,-1/2-y,-1/2+z
_cell_length_a 9.426(5)
_cell_length_b 10.753(5)
_cell_length_c 17.161(5)
_cell_angle_alpha 90
_cell_angle_beta 98.130(5)
_cell_angle_gamma 90
_cell_formula_units_Z 4
loop_
_atom_type_symbol
_atom_type_radius_bond
C 0.68
H 0.23
N 0.68
O 0.68
loop_
_atom_site_label
_atom_site_type_symbol
_atom_site_fract_x
_atom_site_fract_y
_atom_site_fract_z
N1 N 0.0324(2) 0.1866(2) 0.70956(11)
N2 N -0.2271(2) 0.02604(18) 0.89895(10)
O1 O -0.3994(2) -0.05136(18) 0.80037(10)
O2 O 0.05637(17) 0.11495(18) 0.78151(9)
O3 O -0.11546(19) 0.07996(18) 1.02353(9)
C1 C -0.0597(3) 0.0312(3) 0.79745(15)
C2 C -0.2033(3) 0.0189(2) 0.98134(14)
C3 C -0.3084(3) -0.0719(2) 1.00418(13)
C4 C -0.1232(3) 0.1977(3) 0.68290(15)
C5 C -0.1368(3) 0.1050(2) 0.85588(14)
C6 C -0.3970(3) -0.1077(2) 0.93707(14)
C7 C -0.3477(3) -0.0450(2) 0.86846(14)
C8 C -0.2070(3) 0.2248(3) 0.82378(15)
C9 C -0.1920(3) 0.2721(3) 0.74234(15)
C10 C 0.1189(3) 0.1377(2) 0.65444(14)
C11 C -0.1825(3) 0.0689(3) 0.66793(16)
C12 C 0.0811(4) 0.1522(3) 0.57392(16)
C13 C -0.5103(3) -0.1871(3) 0.94058(17)
C14 C -0.3271(3) -0.1164(3) 1.07777(16)
C15 C 0.2511(3) 0.0841(3) 0.68146(16)
C16 C -0.5313(4) -0.2307(3) 1.01408(19)
C17 C -0.1476(3) -0.0134(3) 0.72371(15)
C18 C -0.3367(3) 0.2356(3) 0.76276(17)
C19 C 0.2997(3) 0.0552(3) 0.54984(18)
C20 C 0.3396(3) 0.0427(3) 0.62913(17)
C21 C 0.1716(4) 0.1113(3) 0.52228(18)
C22 C -0.4401(4) -0.1971(3) 1.08084(19)
H1 H -0.454(3) -0.231(2) 1.1285(15)
H2 H 0.361(3) 0.029(2) 0.5112(14)
H3 H -0.238(3) 0.047(2) 0.6184(15)
H4 H 0.143(3) 0.125(2) 0.4647(15)
H5 H 0.282(3) 0.075(2) 0.7390(15)
H6 H -0.010(3) -0.038(2) 0.8292(13)
H7 H -0.262(3) -0.089(2) 1.1260(14)
H8 H -0.170(3) 0.359(3) 0.7391(14)
H9 H -0.175(3) -0.104(3) 0.7209(15)
H10 H -0.605(3) -0.282(3) 1.0202(15)
H11 H -0.573(3) -0.209(2) 0.8913(14)
H12 H 0.439(3) 0.002(2) 0.6513(14)
H13 H -0.060(2) 0.1314(19) 0.8971(12)
H14 H -0.133(3) 0.247(2) 0.6302(13)
H15 H -0.380(3) 0.152(2) 0.7399(13)
H16 H -0.202(3) 0.286(2) 0.8635(13)
H17 H -0.405(3) 0.306(3) 0.7692(15)
H18 H -0.006(3) 0.189(3) 0.5551(16)
#END
