
#######################################################################
#
#                 Cambridge Crystallographic Data Centre
#                                CCDC
#
#######################################################################
#
# If this CIF has been generated from an entry in the Cambridge
# Structural Database, then it will include bibliographic, chemical,
# crystal, experimental, refinement or atomic coordinate data resulting
# from the CCDC's data processing and validation procedures.
#
#######################################################################

data_CSD_CIF_NIRRUC
_audit_creation_date 2008-04-10
_audit_creation_method CSD-ConQuest-V1
_database_code_CSD NIRRUC
_database_code_depnum_ccdc_archive 'CCDC 649448'
_chemical_formula_sum 'C16 H17 N1 O7'
_chemical_formula_moiety
;
C16 H17 N1 O7
;
_journal_coden_Cambridge 16
_journal_volume 64
_journal_year 2008
_journal_page_first 219
_journal_name_full 'Tetrahedron '
loop_
_publ_author_name
"C.V.Ramana"
"R.Mallik"
"R.G.Gonnade"
_chemical_name_systematic
;
2,2-Dimethyl-7-(4-nitrobenzylidene)-tetrahydrofuro(3',4':4,5)furo(2,3-d)(1,3)d
ioxol-7a(7H)-ol
;
_chemical_name_common
;
1,2-O-Isopropylidene-3-C-(1'-hydroxy-2'-(4-nitrophenyl)vinyl)-1',5-anhydro-alp
ha-D-ribofuranose
;
_chemical_melting_point 493.15
_cell_volume    785.611
_exptl_crystal_density_diffrn 1.417
_exptl_special_details
;
Study temperature given as 273 K in the cif

;
_diffrn_ambient_temperature 297
#These two values have been output from a single CSD field.
_refine_ls_R_factor_gt 0.0471
_refine_ls_wR_factor_gt 0.0471
_symmetry_cell_setting monoclinic
_symmetry_space_group_name_H-M 'P 21'
_symmetry_Int_Tables_number 4
loop_
_symmetry_equiv_pos_site_id
_symmetry_equiv_pos_as_xyz
1 x,y,z
2 -x,1/2+y,-z
_cell_length_a 5.6459(19)
_cell_length_b 8.098(3)
_cell_length_c 17.191(6)
_cell_angle_alpha 90
_cell_angle_beta 91.759(6)
_cell_angle_gamma 90
_cell_formula_units_Z 2
loop_
_atom_type_symbol
_atom_type_radius_bond
C 0.68
H 0.23
N 0.68
O 0.68
loop_
_atom_site_label
_atom_site_type_symbol
_atom_site_fract_x
_atom_site_fract_y
_atom_site_fract_z
O1 O 0.2165(3) 0.3008(3) 0.65163(11)
O2 O 0.7124(3) 0.4916(2) 0.65426(11)
C1 C 0.6615(4) 0.4719(3) 0.94934(15)
C2 C 0.5367(4) 0.5327(3) 0.81033(15)
O3 O 0.5451(3) 0.2795(3) 0.58081(12)
C3 C 0.8961(5) 0.5117(3) 1.09169(15)
O4 O 0.6775(3) 0.6684(2) 0.80199(10)
O5 O 0.1583(3) 0.5556(3) 0.74835(14)
N1 N 1.0187(5) 0.5345(4) 1.16725(16)
C4 C 0.9914(6) 0.5790(4) 1.02568(17)
C5 C 0.5736(5) 0.4023(4) 1.01708(18)
C6 C 0.4082(4) 0.3259(4) 0.70560(16)
C7 C 0.5292(5) 0.6013(3) 0.67745(16)
C8 C 0.8736(5) 0.5594(4) 0.95499(17)
C9 C 0.6893(5) 0.4229(4) 1.08809(18)
C10 C 0.3913(4) 0.5003(3) 0.73661(15)
C11 C 0.5288(5) 0.4470(4) 0.87614(16)
C12 C 0.3046(5) 0.2270(4) 0.58330(15)
C13 C 0.6378(6) 0.7376(4) 0.72539(17)
O6 O 1.2199(5) 0.5897(4) 1.16807(15)
C14 C 0.6273(4) 0.3275(4) 0.65537(17)
O7 O 0.9179(5) 0.4931(4) 1.22601(13)
C15 C 0.1689(6) 0.2909(6) 0.5141(2)
H1 H 0.18380 0.40890 0.51200
H2 H 0.00490 0.26170 0.51800
H3 H 0.23050 0.24330 0.46780
C16 C 0.2915(7) 0.0416(4) 0.5895(2)
H4 H 0.13100 0.00900 0.59830
H5 H 0.39210 0.00480 0.63200
H6 H 0.34290 -0.00720 0.54200
H7 H 0.433(5) 0.641(4) 0.6302(18)
H8 H 0.414(4) 0.248(3) 0.7431(14)
H9 H 0.425(5) 0.361(4) 0.8726(17)
H10 H 0.758(5) 0.257(4) 0.6701(14)
H11 H 0.528(6) 0.826(4) 0.7282(17)
H12 H 0.627(5) 0.378(4) 1.1337(19)
H13 H 0.793(5) 0.773(4) 0.7054(15)
H14 H 1.133(5) 0.635(4) 1.0296(16)
H15 H 0.076(6) 0.524(4) 0.7086(19)
H16 H 0.950(5) 0.603(4) 0.9124(18)
H17 H 0.425(5) 0.331(4) 1.0095(19)
#END
