
#######################################################################
#
#                 Cambridge Crystallographic Data Centre
#                                CCDC
#
#######################################################################
#
# If this CIF has been generated from an entry in the Cambridge
# Structural Database, then it will include bibliographic, chemical,
# crystal, experimental, refinement or atomic coordinate data resulting
# from the CCDC's data processing and validation procedures.
#
#######################################################################

data_CSD_CIF_NIRSAJ
_audit_creation_date 2008-04-10
_audit_creation_method CSD-ConQuest-V1
_database_code_CSD NIRSAJ
_database_code_depnum_ccdc_archive 'CCDC 649449'
_chemical_formula_sum 'C16 H17 N1 O7'
_chemical_formula_moiety
;
C16 H17 N1 O7
;
_journal_coden_Cambridge 16
_journal_volume 64
_journal_year 2008
_journal_page_first 219
_journal_name_full 'Tetrahedron '
loop_
_publ_author_name
"C.V.Ramana"
"R.Mallik"
"R.G.Gonnade"
_chemical_name_systematic
;
2,2-Dimethyl-7-(2-nitrobenzylidene)-tetrahydrofuro(3',4':4,5)furo(2,3-d)(1,3)d
ioxol-7a(7H)-ol
;
_chemical_name_common
;
1,2-O-Isopropylidene-3-C-(1'-hydroxy-2'-(2-nitrophenyl)vinyl)-1',5-anhydro-alp
ha-D-ribofuranose
;
_chemical_melting_point 436.55
_cell_volume    778.630
_exptl_crystal_density_diffrn 1.43
_diffrn_ambient_temperature 297
_refine_special_details
;
An O atom from the nitro group is disordered over four sites with occupancies 
0.1:0.4:0.3:0.2. The second O atom from the nitro group is disordered over 
three sites with occupancies 0.4:0.4:0.2.
;
#These two values have been output from a single CSD field.
_refine_ls_R_factor_gt 0.0329
_refine_ls_wR_factor_gt 0.0329
_symmetry_cell_setting monoclinic
_symmetry_space_group_name_H-M 'P 21'
_symmetry_Int_Tables_number 4
loop_
_symmetry_equiv_pos_site_id
_symmetry_equiv_pos_as_xyz
1 x,y,z
2 -x,1/2+y,-z
_cell_length_a 5.6601(6)
_cell_length_b 9.8552(11)
_cell_length_c 13.9858(15)
_cell_angle_alpha 90
_cell_angle_beta 93.574(2)
_cell_angle_gamma 90
_cell_formula_units_Z 2
loop_
_atom_type_symbol
_atom_type_radius_bond
C 0.68
H 0.23
N 0.68
O 0.68
loop_
_atom_site_label
_atom_site_type_symbol
_atom_site_fract_x
_atom_site_fract_y
_atom_site_fract_z
O1 O 0.1578(2) 0.53388(16) 0.54134(9)
O2 O 0.6685(2) 0.63906(15) 0.63443(10)
O3 O 0.1198(2) 0.5403(2) 0.73044(10)
H1 H 0.02880 0.56570 0.68610
O4 O 0.6414(3) 0.52622(18) 0.82736(10)
C1 C 0.3493(3) 0.5294(2) 0.69850(13)
O5 O 0.4677(2) 0.64584(17) 0.48525(10)
N1 N 0.3083(4) 0.0341(3) 0.83297(18)
C2 C 0.4953(3) 0.4443(2) 0.77172(14)
C3 C 0.2376(3) 0.5954(2) 0.45617(13)
C4 C 0.4902(4) 0.6620(2) 0.70149(15)
H2 H 0.39220 0.74190 0.68600
C5 C 0.4731(4) 0.3121(3) 0.78261(15)
H3 H 0.37300 0.26800 0.73740
C6 C 0.3598(3) 0.4816(2) 0.59436(14)
H4 H 0.37700 0.38310 0.58830
C7 C 0.5883(4) 0.2262(3) 0.85791(15)
C8 C 0.5087(5) 0.0995(3) 0.88377(16)
C9 C 0.5688(3) 0.5610(2) 0.55825(13)
H5 H 0.68640 0.49970 0.53320
C10 C 0.6057(5) 0.6656(3) 0.80095(17)
H6 H 0.75550 0.71350 0.80180
H7 H 0.50420 0.71040 0.84460
C11 C 0.0781(4) 0.7125(2) 0.42919(18)
H8 H 0.07490 0.77420 0.48220
H9 H -0.07900 0.67950 0.41310
H10 H 0.13620 0.75870 0.37500
C12 C 0.6153(7) 0.0257(4) 0.9608(2)
H11 H 0.55510 -0.05840 0.97710
C13 C 0.2502(6) 0.4905(3) 0.37850(18)
H12 H 0.31420 0.53100 0.32330
H13 H 0.09420 0.45660 0.36160
H14 H 0.35020 0.41710 0.40110
C14 C 0.7909(6) 0.2711(4) 0.9103(2)
H15 H 0.85720 0.35350 0.89370
C15 C 0.8963(8) 0.1994(4) 0.9849(3)
H16 H 1.03060 0.23420 1.01780
O6 O 0.1813(14) -0.0688(8) 0.8529(6)
C16 C 0.8081(8) 0.0783(5) 1.0115(2)
H17 H 0.87790 0.03160 1.06370
O7 O 0.2984(9) 0.0374(6) 0.7403(3)
O8? O 0.192(3) -0.0287(19) 0.8949(12)
O9? O 0.3005(18) -0.0802(10) 0.8233(8)
O10? O 0.266(2) -0.0714(12) 0.8761(9)
O11? O 0.132(1) 0.1178(6) 0.8052(4)
O12? O 0.2113(19) 0.0775(11) 0.7634(7)
#END
