
#######################################################################
#
#                 Cambridge Crystallographic Data Centre
#                                CCDC
#
#######################################################################
#
# If this CIF has been generated from an entry in the Cambridge
# Structural Database, then it will include bibliographic, chemical,
# crystal, experimental, refinement or atomic coordinate data resulting
# from the CCDC's data processing and validation procedures.
#
#######################################################################

data_CSD_CIF_NISCAU
_audit_creation_date 2008-04-11
_audit_creation_method CSD-ConQuest-V1
_database_code_CSD NISCAU
_database_code_depnum_ccdc_archive 'CCDC 673370'
_chemical_formula_sum 'C20 H27 N1 O4'
_chemical_formula_moiety
;
C20 H27 N1 O4
;
_journal_coden_Cambridge 4
_journal_volume 129
_journal_year 2007
_journal_page_first 12662
_journal_name_full 'J.Am.Chem.Soc. '
loop_
_publ_author_name
"E.Godineau"
"Y.Landais"
_chemical_name_systematic
;
1-(Benzyloxy)-6-oxo-2-(prop-2-en-1-yl)piperidin-3-yl 2,2-dimethylpropanoate
;
_chemical_melting_point 354.15
_cell_volume    932.984
_exptl_crystal_colour 'colorless'
_exptl_crystal_density_diffrn 1.23
_exptl_special_details
;
Melting point range 354.15-356.15K

;
_exptl_crystal_description 'platelet'
_diffrn_ambient_temperature 94
#These two values have been output from a single CSD field.
_refine_ls_R_factor_gt 0.0493
_refine_ls_wR_factor_gt 0.0493
_symmetry_cell_setting triclinic
_symmetry_space_group_name_H-M 'P -1'
_symmetry_Int_Tables_number 2
loop_
_symmetry_equiv_pos_site_id
_symmetry_equiv_pos_as_xyz
1 x,y,z
2 -x,-y,-z
_cell_length_a 6.1617(9)
_cell_length_b 9.7621(15)
_cell_length_c 16.390(3)
_cell_angle_alpha 75.690(12)
_cell_angle_beta 80.240(12)
_cell_angle_gamma 80.226(12)
_cell_formula_units_Z 2
loop_
_atom_type_symbol
_atom_type_radius_bond
C 0.68
H 0.23
N 0.68
O 0.68
loop_
_atom_site_label
_atom_site_type_symbol
_atom_site_fract_x
_atom_site_fract_y
_atom_site_fract_z
O1 O 0.11776(17) 0.0345(1) 0.78131(6)
O2 O -0.10848(17) 0.45094(10) 0.69543(6)
O3 O -0.2494(2) 0.63776(11) 0.59933(6)
O4 O 0.46036(18) 0.16806(12) 0.78420(7)
N1 N 0.1548(2) 0.16450(12) 0.72487(7)
C1 C -0.0194(2) 0.21763(14) 0.66917(8)
H1 H -0.16360 0.20840 0.70460
C2 C -0.0120(2) 0.37482(14) 0.62860(8)
H2 H -0.10100 0.40460 0.58150
C3 C 0.2235(2) 0.40742(15) 0.59754(8)
H3 H 0.22170 0.50820 0.57150
H4 H 0.29160 0.35390 0.55500
C4 C 0.3592(2) 0.36747(15) 0.67186(9)
H5 H 0.51510 0.36810 0.64910
H6 H 0.31850 0.44070 0.70440
C5 C 0.3321(2) 0.22407(15) 0.73191(8)
C6 C 0.0027(2) 0.12602(15) 0.60325(8)
H7 H 0.12120 0.15390 0.55800
H8 H 0.04240 0.02660 0.63010
C7 C -0.2094(3) 0.14236(15) 0.56604(9)
H9 H -0.33690 0.12170 0.60360
C8 C -0.2292(3) 0.18382(17) 0.48407(10)
H10 H -0.10550 0.20540 0.44450
H11 H -0.36680 0.19130 0.46600
C9 C -0.2161(2) 0.58411(14) 0.67150(8)
C10 C -0.2808(2) 0.65640(15) 0.74655(8)
C11 C -0.4175(3) 0.80141(17) 0.71798(10)
H12 H -0.33200 0.85900 0.67180
H13 H -0.45570 0.84820 0.76460
H14 H -0.55080 0.78820 0.69960
C12 C -0.0643(3) 0.6758(2) 0.77460(11)
H15 H 0.01920 0.73460 0.72840
H16 H 0.02220 0.58430 0.79090
H17 H -0.09900 0.72060 0.82200
C13 C -0.4137(3) 0.56212(17) 0.82053(9)
H18 H -0.54910 0.55000 0.80310
H19 H -0.44820 0.60680 0.86800
H20 H -0.32710 0.47060 0.83670
C14 C -0.0080(2) 0.06502(15) 0.85998(8)
H21 H -0.14740 0.12470 0.84880
H22 H 0.07620 0.11440 0.88580
C15 C -0.0503(2) -0.07584(14) 0.91783(8)
C16 C 0.1277(2) -0.17974(15) 0.94126(8)
H23 H 0.27260 -0.16230 0.91980
C17 C 0.0895(3) -0.30894(15) 0.99641(9)
H24 H 0.20850 -0.37840 1.01090
C18 C -0.1269(3) -0.33452(16) 1.03003(9)
H25 H -0.15230 -0.42040 1.06770
C19 C -0.3050(3) -0.23146(17) 1.00720(9)
H26 H -0.44950 -0.24810 1.03010
C20 C -0.2673(2) -0.10317(15) 0.95008(8)
H27 H -0.38680 -0.03570 0.93340
#END
