
#######################################################################
#
#                 Cambridge Crystallographic Data Centre
#                                CCDC
#
#######################################################################
#
# If this CIF has been generated from an entry in the Cambridge
# Structural Database, then it will include bibliographic, chemical,
# crystal, experimental, refinement or atomic coordinate data resulting
# from the CCDC's data processing and validation procedures.
#
#######################################################################

data_CSD_CIF_NISJUL
_audit_creation_date 1980-02-13
_audit_creation_method CSD-ConQuest-V1
_database_code_CSD NISJUL
_database_code_depnum_ccdc_archive 'CCDC 1220753'
_chemical_formula_sum 'C12 H14 N2 O1'
_chemical_formula_moiety
;
C12 H14 N2 O1
;
_journal_coden_Cambridge 423
_journal_volume 152
_journal_year 1979
_journal_page_first 1848
_journal_name_full 'J.Chem.Res. '
loop_
_publ_author_name
"R.Dunlop"
"A.D.U.Hardy"
"H.H.Mills"
"R.K.Mackenzie"
"D.D.MacNicol"
"D.A.R.Williams"
_chemical_name_systematic
;
9-Nitroso-2,3,6,7-tetrahydro-1H,5H-benzo(ij)quinolizine
;
_chemical_name_common
;
9-Nitroso-julolidine
;
_chemical_melting_point 436.15
_cell_volume   1015.021
_exptl_crystal_colour 'steel blue'
_exptl_crystal_density_diffrn 1.32
_exptl_special_details
;
Melting point range 436.15-437.15K

;
_diffrn_ambient_temperature ?
_diffrn_special_details
;
The study was carried out at room temperature,in the range 283-303K

;
_refine_special_details
;
The nitroso group is disordered over 2 orientations with occupancies 0.83 and 
0.17. Positions for the former are retained. C11 in one of the trimethylene 
chains is disordered over 2 positions with occupancies 0.63 and 0.37. The 
former position is retained.
;
#These two values have been output from a single CSD field.
_refine_ls_R_factor_gt 0.074
_refine_ls_wR_factor_gt 0.074
_symmetry_cell_setting monoclinic
_symmetry_space_group_name_H-M 'P 21/c'
_symmetry_Int_Tables_number 14
loop_
_symmetry_equiv_pos_site_id
_symmetry_equiv_pos_as_xyz
1 x,y,z
2 -x,1/2+y,1/2-z
3 -x,-y,-z
4 x,-1/2-y,-1/2+z
_cell_length_a 7.448(4)
_cell_length_b 8.717(5)
_cell_length_c 15.890(9)
_cell_angle_alpha 90
_cell_angle_beta 100.3(1)
_cell_angle_gamma 90
_cell_formula_units_Z 4
loop_
_atom_type_symbol
_atom_type_radius_bond
C 0.68
H 0.23
N 0.68
O 0.68
loop_
_atom_site_label
_atom_site_type_symbol
_atom_site_fract_x
_atom_site_fract_y
_atom_site_fract_z
N1 N -0.33150 0.79580 0.38960
N2 N 0.22490 0.81260 0.67420
O1 O -0.47230 0.86770 0.39170
C1 C -0.04150 0.73100 0.46620
C2 C -0.20150 0.80590 0.46920
C3 C -0.21950 0.88340 0.54340
C4 C -0.08200 0.88440 0.61370
C5 C 0.08430 0.81010 0.60790
C6 C 0.10050 0.73190 0.53130
C7 C 0.28010 0.65610 0.52400
C8 C 0.38410 0.61130 0.60800
C9 C 0.40180 0.74550 0.66810
C10 C 0.21720 0.89690 0.75360
C11 C 0.08020 1.00570 0.74760
C12 C -0.09850 0.96100 0.69710
H1 H -0.02900 0.68300 0.41300
H2 H -0.31900 0.93100 0.55100
H3 H 0.24500 0.56200 0.48300
H4 H 0.33900 0.71600 0.49000
H5 H 0.50500 0.58000 0.59500
H6 H 0.32400 0.52100 0.63900
H7 H 0.50200 0.83000 0.64400
H8 H 0.45900 0.72800 0.71500
H9 H 0.34000 0.93400 0.76700
H10 H 0.22600 0.82600 0.80600
H11 H 0.06200 1.04500 0.81500
H12 H 0.10700 1.08200 0.71500
H13 H -0.15400 0.90000 0.72000
H14 H -0.19500 1.02600 0.68700
#END
