
#######################################################################
#
#                 Cambridge Crystallographic Data Centre
#                                CCDC
#
#######################################################################
#
# If this CIF has been generated from an entry in the Cambridge
# Structural Database, then it will include bibliographic, chemical,
# crystal, experimental, refinement or atomic coordinate data resulting
# from the CCDC's data processing and validation procedures.
#
#######################################################################

data_CSD_CIF_NITBAL11
_audit_creation_date 2016-11-22
_audit_creation_method CSD-ConQuest-V1
_database_code_CSD NITBAL11
_database_code_depnum_ccdc_archive 'CCDC 1045607'
_chemical_formula_sum 'C7 H6 N2 O3'
_chemical_formula_moiety
;
C7 H6 N2 O3
;
_journal_coden_Cambridge 1078
_journal_year 2016
_journal_name_full 'CSD Communication(Private Communication) '
loop_
_publ_author_name
"V.Sharutin"
_chemical_name_systematic
;
N-hydroxy-1-(4-nitrophenyl)methanimine
;
_chemical_name_common
;
4-nitrobenzaldehyde oxime
;
_cell_volume    754.228
_exptl_crystal_colour 'colorless'
_exptl_crystal_density_diffrn 1.463
_exptl_crystal_description 'plate'
_diffrn_ambient_temperature 296.1
#These two values have been output from a single CSD field.
_refine_ls_R_factor_gt 0.086
_refine_ls_wR_factor_gt 0.086
_symmetry_cell_setting monoclinic
_symmetry_space_group_name_H-M 'P 21/c'
_symmetry_Int_Tables_number 14
loop_
_symmetry_equiv_pos_site_id
_symmetry_equiv_pos_as_xyz
1 x,y,z
2 -x,1/2+y,1/2-z
3 -x,-y,-z
4 x,-1/2-y,-1/2+z
_cell_length_a 6.2548(3)
_cell_length_b 4.8928(2)
_cell_length_c 24.7226(11)
_cell_angle_alpha 90
_cell_angle_beta 94.536(2)
_cell_angle_gamma 90
_cell_formula_units_Z 4
loop_
_atom_type_symbol
_atom_type_radius_bond
C 0.68
H 0.23
N 0.68
O 0.68
loop_
_atom_site_label
_atom_site_type_symbol
_atom_site_fract_x
_atom_site_fract_y
_atom_site_fract_z
C1 C 0.2744(3) 0.5818(3) 0.16710(6)
C2 C 0.0210(3) 0.9668(4) 0.11204(6)
C3 C 0.3459(3) 0.6998(4) 0.12083(7)
N1 N 0.4068(2) 0.3724(3) 0.19607(6)
C4 C -0.0454(3) 0.8438(4) 0.15863(7)
O1 O 0.3352(3) 0.2586(3) 0.23459(7)
C5 C 0.2178(3) 0.8936(4) 0.09335(7)
O2 O 0.5827(3) 0.3232(4) 0.18019(7)
C6 C -0.1230(3) 1.1672(4) 0.08410(8)
C7 C 0.0809(3) 0.6497(4) 0.18648(7)
N2 N -0.0668(3) 1.3106(4) 0.04491(7)
O3 O -0.2325(3) 1.4870(4) 0.02541(7)
H1 H 0.476(5) 0.654(6) 0.1084(11)
H2 H 0.037(4) 0.570(6) 0.2185(11)
H3 H -0.174(4) 0.890(6) 0.1716(11)
H4 H 0.264(4) 0.974(5) 0.061(1)
H5 H -0.269(5) 1.192(6) 0.0952(12)
H6 H -0.167(6) 1.595(9) -0.0035(16)
#END
