
#######################################################################
#
#                 Cambridge Crystallographic Data Centre
#                                CCDC
#
#######################################################################
#
# If this CIF has been generated from an entry in the Cambridge
# Structural Database, then it will include bibliographic, chemical,
# crystal, experimental, refinement or atomic coordinate data resulting
# from the CCDC's data processing and validation procedures.
#
#######################################################################

data_CSD_CIF_NITBAL01
_audit_creation_date 1974-03-25
_audit_creation_method CSD-ConQuest-V1
_database_code_CSD NITBAL01
_database_code_depnum_ccdc_archive 'CCDC 1220809'
_chemical_formula_sum 'C7 H6 N2 O3'
_chemical_formula_moiety
;
C7 H6 N2 O3
;
_journal_coeditor_code "IUCr A10335"
_journal_coden_Cambridge 107
_journal_volume 29
_journal_year 1973
_journal_page_first 2598
_journal_name_full 'Acta Crystallogr.,Sect.B:Struct.Crystallogr.Cryst.Chem. '
loop_
_publ_author_name
"F.Bachechi"
"L.Zambonelli"
_chemical_name_systematic
;
syn-p-Nitrobenzaldoxime
;
_chemical_melting_point 402.15
_cell_volume    756.431
_exptl_crystal_density_diffrn 1.458
_exptl_special_details
;
Melting point range 402.15-403.15K

;
_diffrn_ambient_temperature ?
_diffrn_special_details
;
The study was carried out at room temperature,in the range 283-303K

;
#These two values have been output from a single CSD field.
_refine_ls_R_factor_gt 0.048
_refine_ls_wR_factor_gt 0.048
_symmetry_cell_setting monoclinic
_symmetry_space_group_name_H-M 'P 21/c'
_symmetry_Int_Tables_number 14
loop_
_symmetry_equiv_pos_site_id
_symmetry_equiv_pos_as_xyz
1 x,y,z
2 -x,1/2+y,1/2-z
3 -x,-y,-z
4 x,-1/2-y,-1/2+z
_cell_length_a 6.268(1)
_cell_length_b 4.883(1)
_cell_length_c 24.789(5)
_cell_angle_alpha 90
_cell_angle_beta 94.44(1)
_cell_angle_gamma 90
_cell_formula_units_Z 4
loop_
_atom_type_symbol
_atom_type_radius_bond
C 0.68
H 0.20
N 0.68
O 0.68
loop_
_atom_site_label
_atom_site_type_symbol
_atom_site_fract_x
_atom_site_fract_y
_atom_site_fract_z
C1 C 0.01990 0.46650 0.11180
C2 C -0.04570 0.34300 0.15860
C3 C 0.08040 0.14990 0.18630
C4 C 0.27370 0.08260 0.16680
C5 C 0.34490 0.19910 0.12080
C6 C 0.21710 0.39390 0.09330
C7 C -0.12320 0.66680 0.08400
H1 H -0.18400 0.40470 0.17290
H2 H 0.03260 0.06290 0.21570
H3 H 0.48470 0.14750 0.10650
H4 H 0.26250 0.47510 0.06210
H5 H -0.26530 0.68100 0.09630
H6 H -0.17100 1.07170 0.00170
N1 N -0.06760 0.80980 0.04520
N2 N 0.40580 -0.12800 0.19580
O1 O -0.23340 0.98650 0.02560
O2 O 0.58280 -0.17670 0.17990
O3 O 0.33510 -0.24160 0.23460
#END
