
#######################################################################
#
#                 Cambridge Crystallographic Data Centre
#                                CCDC
#
#######################################################################
#
# If this CIF has been generated from an entry in the Cambridge
# Structural Database, then it will include bibliographic, chemical,
# crystal, experimental, refinement or atomic coordinate data resulting
# from the CCDC's data processing and validation procedures.
#
#######################################################################

data_CSD_CIF_NITPOL
_audit_creation_date 1971-12-31
_audit_creation_method CSD-ConQuest-V1
_database_code_CSD NITPOL
_chemical_formula_sum 'C6 H5 N1 O3'
_chemical_formula_moiety
;
C6 H5 N1 O3
;
_journal_coeditor_code "IUCr A04598"
_journal_coden_Cambridge 1
_journal_volume 18
_journal_year 1965
_journal_page_first 654
_journal_name_full 'Acta Crystallogr. '
loop_
_publ_author_name
"P.Coppens"
"G.M.J.Schmidt"
_chemical_name_systematic
;
p-Nitrophenol
;
_cell_volume    619.606
_exptl_special_details
;
beta polymorph

;
_diffrn_ambient_temperature ?
_diffrn_special_details
;
The study was carried out at room temperature,in the range 283-303K

;
#These two values have been output from a single CSD field.
_refine_ls_R_factor_gt 0.069
_refine_ls_wR_factor_gt 0.069
_symmetry_cell_setting monoclinic
_symmetry_space_group_name_H-M 'P 21/a'
_symmetry_Int_Tables_number 14
loop_
_symmetry_equiv_pos_site_id
_symmetry_equiv_pos_as_xyz
1 x,y,z
2 1/2-x,1/2+y,-z
3 -x,-y,-z
4 -1/2+x,-1/2-y,z
_cell_length_a 15.403
_cell_length_b 11.117
_cell_length_c 3.785
_cell_angle_alpha 90
_cell_angle_beta 107.06
_cell_angle_gamma 90
_cell_formula_units_Z 4
loop_
_atom_type_symbol
_atom_type_radius_bond
C 0.68
H 0.20
N 0.68
O 0.68
loop_
_atom_site_label
_atom_site_type_symbol
_atom_site_fract_x
_atom_site_fract_y
_atom_site_fract_z
C1 C 0.09310 0.31070 0.21120
C2 C 0.10940 0.43180 0.30130
C3 C 0.19270 0.47990 0.31380
C4 C 0.25940 0.40710 0.23950
C5 C 0.24200 0.28590 0.15030
C6 C 0.15820 0.23720 0.13240
H1 H 0.37700 0.41400 0.20500
H2 H 0.06300 0.47800 0.34000
H3 H 0.20600 0.56300 0.37600
H4 H 0.28600 0.23700 0.10900
H5 H 0.14100 0.15900 0.07600
N1 N 0.00590 0.26050 0.20640
O1 O -0.04780 0.32400 0.31430
O2 O -0.01190 0.15560 0.09650
O3 O 0.33980 0.46110 0.25750
#END
