
#######################################################################
#
#                 Cambridge Crystallographic Data Centre
#                                CCDC
#
#######################################################################
#
# If this CIF has been generated from an entry in the Cambridge
# Structural Database, then it will include bibliographic, chemical,
# crystal, experimental, refinement or atomic coordinate data resulting
# from the CCDC's data processing and validation procedures.
#
#######################################################################

data_CSD_CIF_NITPOL03
_audit_creation_date 2000-07-14
_audit_creation_method CSD-ConQuest-V1
_database_code_CSD NITPOL03
_chemical_formula_sum 'C6 H5 N1 O3'
_chemical_formula_moiety
;
C6 H5 N1 O3
;
_journal_coden_Cambridge 1096
_journal_volume 10
_journal_year 1998
_journal_page_first 3498
_journal_name_full 'Chem.Mater. '
loop_
_publ_author_name
"G.U.Kulkarni"
"P.Kumaradhas"
"C.N.R.Rao"
_chemical_name_systematic
;
4-Nitrophenol
;
_cell_volume    611.907
_exptl_crystal_colour 'pale yellow'
_exptl_crystal_density_diffrn 1.51
_exptl_special_details
;
alpha polymorph
photochemically unstable

;
_exptl_crystal_description 'rectangular block'
_exptl_crystal_preparation 'benzene'
_diffrn_ambient_temperature 110
#These two values have been output from a single CSD field.
_refine_ls_R_factor_gt 0.022
_refine_ls_wR_factor_gt 0.022
_symmetry_cell_setting monoclinic
_symmetry_space_group_name_H-M 'P 21/c'
_symmetry_Int_Tables_number 14
loop_
_symmetry_equiv_pos_site_id
_symmetry_equiv_pos_as_xyz
1 x,y,z
2 -x,1/2+y,1/2-z
3 -x,-y,-z
4 x,-1/2-y,-1/2+z
_cell_length_a 6.1664(1)
_cell_length_b 8.8366(3)
_cell_length_c 11.5435(4)
_cell_angle_alpha 90
_cell_angle_beta 103.390(1)
_cell_angle_gamma 90
_cell_formula_units_Z 4
loop_
_atom_type_symbol
_atom_type_radius_bond
C 0.68
H 0.23
N 0.68
O 0.68
loop_
_atom_site_label
_atom_site_type_symbol
_atom_site_fract_x
_atom_site_fract_y
_atom_site_fract_z
O1 O 0.1175(2) -0.0236(1) -0.3188(1)
O2 O 0.9517(1) 0.2070(1) 0.0582(1)
O3 O 0.7090(2) 0.3739(1) 0.0862(1)
N1 N 0.7603(1) 0.2588(1) 0.0353(1)
C1 C 0.2669(1) 0.0476(1) -0.2306(1)
C2 C 0.2093(1) 0.1732(1) -0.1684(1)
C3 C 0.3705(1) 0.2422(1) -0.0797(1)
C4 C 0.5886(1) 0.1853(1) -0.0545(1)
C5 C 0.6480(1) 0.0587(1) -0.1137(1)
C6 C 0.4854(2) -0.0106(1) -0.2014(1)
H1 H -0.00800 0.04160 -0.34750
H2 H 0.03970 0.21580 -0.18970
H3 H 0.32800 0.33850 -0.03090
H4 H 0.81730 0.01560 -0.09140
H5 H 0.52710 -0.10960 -0.24750
#END
