
#######################################################################
#
#                 Cambridge Crystallographic Data Centre
#                                CCDC
#
#######################################################################
#
# If this CIF has been generated from an entry in the Cambridge
# Structural Database, then it will include bibliographic, chemical,
# crystal, experimental, refinement or atomic coordinate data resulting
# from the CCDC's data processing and validation procedures.
#
#######################################################################

data_CSD_CIF_NITPOL01
_audit_creation_date 1971-12-31
_audit_creation_method CSD-ConQuest-V1
_database_code_CSD NITPOL01
_chemical_formula_sum 'C6 H5 N1 O3'
_chemical_formula_moiety
;
C6 H5 N1 O3
;
_journal_coeditor_code "IUCr A04457"
_journal_coden_Cambridge 1
_journal_volume 18
_journal_year 1965
_journal_page_first 62
_journal_name_full 'Acta Crystallogr. '
loop_
_publ_author_name
"P.Coppens"
"G.M.J.Schmidt"
_chemical_name_systematic
;
p-Nitrophenol
;
_cell_volume    595.257
_exptl_special_details
;
alpha polymorph

;
_diffrn_ambient_temperature 90
#These two values have been output from a single CSD field.
_refine_ls_R_factor_gt 0.083
_refine_ls_wR_factor_gt 0.083
_symmetry_cell_setting monoclinic
_symmetry_space_group_name_H-M 'P 21/n'
_symmetry_Int_Tables_number 14
loop_
_symmetry_equiv_pos_site_id
_symmetry_equiv_pos_as_xyz
1 x,y,z
2 1/2-x,1/2+y,1/2-z
3 -x,-y,-z
4 -1/2+x,-1/2-y,-1/2+z
_cell_length_a 11.66
_cell_length_b 8.78
_cell_length_c 6.098
_cell_angle_alpha 90
_cell_angle_beta 107.54
_cell_angle_gamma 90
_cell_formula_units_Z 4
loop_
_atom_type_symbol
_atom_type_radius_bond
C 0.68
H 0.20
N 0.68
O 0.68
loop_
_atom_site_label
_atom_site_type_symbol
_atom_site_fract_x
_atom_site_fract_y
_atom_site_fract_z
C1 C 0.05540 0.31440 -0.35690
C2 C 0.11380 0.44130 -0.23880
C3 C 0.20130 0.51040 -0.31400
C4 C 0.22980 0.45260 -0.50290
C5 C 0.16890 0.32670 -0.62230
C6 C 0.08000 0.25800 -0.54970
H1 H 0.33540 0.48910 -0.63860
H2 H 0.09340 0.48510 -0.11840
H3 H 0.24130 0.60950 -0.22320
H4 H 0.18680 0.29240 -0.75130
H5 H 0.04340 0.15970 -0.63260
N1 N -0.03500 0.24090 -0.27600
O1 O -0.05860 0.29310 -0.10700
O2 O -0.08640 0.12670 -0.37850
O3 O 0.31880 0.52380 -0.56300
#END
