
#######################################################################
#
#                 Cambridge Crystallographic Data Centre
#                                CCDC
#
#######################################################################
#
# If this CIF has been generated from an entry in the Cambridge
# Structural Database, then it will include bibliographic, chemical,
# crystal, experimental, refinement or atomic coordinate data resulting
# from the CCDC's data processing and validation procedures.
#
#######################################################################

data_CSD_CIF_NITPOL02
_audit_creation_date 2000-07-14
_audit_creation_method CSD-ConQuest-V1
_database_code_CSD NITPOL02
_chemical_formula_sum 'C6 H5 N1 O3'
_chemical_formula_moiety
;
C6 H5 N1 O3
;
_journal_coden_Cambridge 1096
_journal_volume 10
_journal_year 1998
_journal_page_first 3498
_journal_name_full 'Chem.Mater. '
loop_
_publ_author_name
"G.U.Kulkarni"
"P.Kumaradhas"
"C.N.R.Rao"
_chemical_name_systematic
;
4-Nitrophenol
;
_cell_volume    598.512
_exptl_crystal_colour 'pale yellow'
_exptl_crystal_density_diffrn 1.544
_exptl_special_details
;
beta polymorph
thermodynamically unstable

;
_exptl_crystal_description 'needle'
_exptl_crystal_preparation 'water'
_diffrn_ambient_temperature 110
#These two values have been output from a single CSD field.
_refine_ls_R_factor_gt 0.025
_refine_ls_wR_factor_gt 0.025
_symmetry_cell_setting monoclinic
_symmetry_space_group_name_H-M 'P 21/n'
_symmetry_Int_Tables_number 14
loop_
_symmetry_equiv_pos_site_id
_symmetry_equiv_pos_as_xyz
1 x,y,z
2 1/2-x,1/2+y,1/2-z
3 -x,-y,-z
4 -1/2+x,-1/2-y,-1/2+z
_cell_length_a 3.6812(3)
_cell_length_b 11.1152(9)
_cell_length_c 14.6449(12)
_cell_angle_alpha 90
_cell_angle_beta 92.804(2)
_cell_angle_gamma 90
_cell_formula_units_Z 4
loop_
_atom_type_symbol
_atom_type_radius_bond
C 0.68
H 0.23
N 0.68
O 0.68
loop_
_atom_site_label
_atom_site_type_symbol
_atom_site_fract_x
_atom_site_fract_y
_atom_site_fract_z
O1 O 0.0875(3) 0.5365(1) 0.6549(1)
O2 O -0.3620(3) 0.6746(1) 1.0455(1)
O3 O -0.0882(4) 0.8400(1) 1.0107(1)
N1 N -0.1896(3) 0.7362(1) 0.9924(1)
C1 C 0.0283(3) 0.5893(1) 0.7358(1)
C2 C 0.1065(3) 0.7106(1) 0.7540(1)
C3 C 0.0409(3) 0.7592(1) 0.8391(1)
C4 C -0.1075(3) 0.6854(1) 0.9048(1)
C5 C -0.1871(3) 0.5644(1) 0.8879(1)
C6 C -0.1177(3) 0.5165(1) 0.8033(1)
H1 H 0.19550 0.59360 0.61520
H2 H 0.21840 0.76660 0.70160
H3 H 0.10400 0.85260 0.85420
H4 H -0.30140 0.50880 0.94020
H5 H -0.17630 0.42250 0.78900
#END
