
#######################################################################
#
#                 Cambridge Crystallographic Data Centre
#                                CCDC
#
#######################################################################
#
# If this CIF has been generated from an entry in the Cambridge
# Structural Database, then it will include bibliographic, chemical,
# crystal, experimental, refinement or atomic coordinate data resulting
# from the CCDC's data processing and validation procedures.
#
#######################################################################

data_CSD_CIF_NITPOL06
_audit_creation_date 2006-03-08
_audit_creation_method CSD-ConQuest-V1
_database_code_CSD NITPOL06
_database_code_depnum_ccdc_archive 'CCDC 298517'
_chemical_formula_sum 'C6 H5 N1 O3'
_chemical_formula_moiety
;
C6 H5 N1 O3
;
_journal_coeditor_code "IUCr NS0011"
_journal_coden_Cambridge 622
_journal_volume 62
_journal_year 2006
_journal_page_first 143
_journal_name_full 'Acta Crystallogr.,Sect.B:Struct.Sci. '
loop_
_publ_author_name
"G.Wojcik"
"I.Mossakowska"
_chemical_name_systematic
;
4-Nitrophenol
;
_cell_volume    626.921
_exptl_crystal_colour 'pale yellow'
_exptl_crystal_density_diffrn 1.474
_exptl_special_details
;
alpha polymorph

;
_exptl_crystal_description 'thin plate'
_exptl_crystal_preparation 'dichlorobenzene'
_diffrn_ambient_temperature 333
#These two values have been output from a single CSD field.
_refine_ls_R_factor_gt 0.048
_refine_ls_wR_factor_gt 0.048
_symmetry_cell_setting monoclinic
_symmetry_space_group_name_H-M 'P 21/c'
_symmetry_Int_Tables_number 14
loop_
_symmetry_equiv_pos_site_id
_symmetry_equiv_pos_as_xyz
1 x,y,z
2 -x,1/2+y,1/2-z
3 -x,-y,-z
4 x,-1/2-y,-1/2+z
_cell_length_a 6.146(1)
_cell_length_b 8.903(2)
_cell_length_c 11.763(5)
_cell_angle_alpha 90
_cell_angle_beta 103.09(3)
_cell_angle_gamma 90
_cell_formula_units_Z 4
loop_
_atom_type_symbol
_atom_type_radius_bond
C 0.68
H 0.23
N 0.68
O 0.68
loop_
_atom_site_label
_atom_site_type_symbol
_atom_site_fract_x
_atom_site_fract_y
_atom_site_fract_z
O1 O 0.1247(4) -0.0116(2) 0.1843(2)
O2 O 0.9450(3) 0.2033(2) 0.55718(18)
O3 O 0.7074(3) 0.3670(2) 0.58425(18)
N1 N 0.7574(3) 0.2557(2) 0.53377(19)
C1 C 0.2719(4) 0.0572(3) 0.2714(2)
C2 C 0.2171(4) 0.1807(2) 0.3299(2)
C3 C 0.3745(4) 0.2451(2) 0.4162(2)
C4 C 0.5873(3) 0.1869(2) 0.44417(18)
C5 C 0.6432(4) 0.0621(2) 0.3872(2)
C6 C 0.4844(5) -0.0023(3) 0.3018(3)
H1 H 0.341(3) 0.327(3) 0.455(2)
H2 H 0.803(4) 0.020(2) 0.414(2)
H3 H 0.076(4) 0.225(3) 0.311(2)
H4 H 0.512(5) -0.086(3) 0.261(3)
H5 H 0.004(7) 0.041(5) 0.171(4)
#END
