
#######################################################################
#
#                 Cambridge Crystallographic Data Centre
#                                CCDC
#
#######################################################################
#
# If this CIF has been generated from an entry in the Cambridge
# Structural Database, then it will include bibliographic, chemical,
# crystal, experimental, refinement or atomic coordinate data resulting
# from the CCDC's data processing and validation procedures.
#
#######################################################################

data_CSD_CIF_NITRBE01
_audit_creation_date 1993-06-02
_audit_creation_method CSD-ConQuest-V1
_database_code_CSD NITRBE01
_database_code_depnum_ccdc_archive 'CCDC 111222'
_chemical_formula_sum 'C6 H5 N1 O2'
_chemical_formula_moiety
;
C6 H5 N1 O2
;
_journal_coden_Cambridge 1094
_journal_volume 3
_journal_year 1992
_journal_page_first 363
_journal_name_full 'Struct.Chem. '
loop_
_publ_author_name
"R.Boese"
"D.Blaser"
"M.Nussbaumer"
"T.M.Krygowski"
_chemical_name_systematic
;
Nitrobenzene
;
_cell_volume    571.146
_exptl_crystal_colour 'yellow'
_exptl_crystal_density_diffrn 1.431
_exptl_special_details
;
Author has supplied revised coordinate table

;
_diffrn_ambient_temperature 103
#These two values have been output from a single CSD field.
_refine_ls_R_factor_gt 0.022
_refine_ls_wR_factor_gt 0.022
_symmetry_cell_setting monoclinic
_symmetry_space_group_name_H-M 'P 21/c'
_symmetry_Int_Tables_number 14
loop_
_symmetry_equiv_pos_site_id
_symmetry_equiv_pos_as_xyz
1 x,y,z
2 -x,1/2+y,1/2-z
3 -x,-y,-z
4 x,-1/2-y,-1/2+z
_cell_length_a 3.8014(3)
_cell_length_b 11.6153(10)
_cell_length_c 12.9843(12)
_cell_angle_alpha 90
_cell_angle_beta 94.984(6)
_cell_angle_gamma 90
_cell_formula_units_Z 4
loop_
_atom_type_symbol
_atom_type_radius_bond
C 0.68
H 0.23
N 0.68
O 0.68
loop_
_atom_site_label
_atom_site_type_symbol
_atom_site_fract_x
_atom_site_fract_y
_atom_site_fract_z
N1 N 0.41130 0.41008 0.18982
O1 O 0.51824 0.38962 0.27948
O2 O 0.45359 0.50329 0.14791
C1 C 0.22317 0.31881 0.12979
C2 C 0.11384 0.34013 0.02704
H1 H 0.16204 0.40845 -0.00193
C3 C -0.06453 0.25374 -0.02912
H2 H -0.15940 0.26792 -0.10476
C4 C -0.12849 0.14892 0.01717
H3 H -0.25548 0.09074 -0.02239
C5 C -0.01252 0.12918 0.11987
H4 H -0.04690 0.05789 0.15269
C6 C 0.16596 0.21446 0.17759
H5 H 0.24666 0.20005 0.24615
#END
