
#######################################################################
#
#                 Cambridge Crystallographic Data Centre
#                                CCDC
#
#######################################################################
#
# If this CIF has been generated from an entry in the Cambridge
# Structural Database, then it will include bibliographic, chemical,
# crystal, experimental, refinement or atomic coordinate data resulting
# from the CCDC's data processing and validation procedures.
#
#######################################################################

data_CSD_CIF_NIVBOJ
_audit_creation_date 1998-06-18
_audit_creation_method CSD-ConQuest-V1
_database_code_CSD NIVBOJ
_database_code_depnum_ccdc_archive 'CCDC 1220945'
_chemical_formula_sum 'C8 H6 N2 O5'
_chemical_formula_moiety
;
C8 H6 N2 O5
;
_journal_coden_Cambridge 3
_journal_volume 51
_journal_year 1997
_journal_page_first 984
_journal_name_full 'Acta Chem.Scand. '
loop_
_publ_author_name
"C.P.Butts"
"L.Eberson"
"R.Gonzales-Luque"
"C.M.Hartshorn"
"M.P.Hartshorn"
"M.Merchan"
"W.T.Robinson"
"B.O.Roos"
"C.Vallance"
"B.R.Wood"
_chemical_name_systematic
;
r-2-t-3-Dinitro-2,3-dihydrobenzofuran
;
_chemical_melting_point 361.15
_cell_volume   1675.458
_exptl_crystal_colour 'colorless'
_exptl_crystal_density_diffrn 1.666
_exptl_special_details
;
Melting point range 361.15-363.15K

;
_exptl_crystal_description 'triangular block'
_diffrn_ambient_temperature 153
#These two values have been output from a single CSD field.
_refine_ls_R_factor_gt 0.033
_refine_ls_wR_factor_gt 0.033
_symmetry_cell_setting monoclinic
_symmetry_space_group_name_H-M 'C 2/c'
_symmetry_Int_Tables_number 15
loop_
_symmetry_equiv_pos_site_id
_symmetry_equiv_pos_as_xyz
1 x,y,z
2 -x,y,1/2-z
3 1/2+x,1/2+y,z
4 1/2-x,1/2+y,1/2-z
5 -x,-y,-z
6 x,-y,-1/2+z
7 -1/2-x,-1/2-y,-z
8 -1/2+x,-1/2-y,-1/2+z
_cell_length_a 16.149(3)
_cell_length_b 6.593(2)
_cell_length_c 15.775(3)
_cell_angle_alpha 90
_cell_angle_beta 94.01(1)
_cell_angle_gamma 90
_cell_formula_units_Z 8
loop_
_atom_type_symbol
_atom_type_radius_bond
C 0.68
H 0.23
N 0.68
O 0.68
loop_
_atom_site_label
_atom_site_type_symbol
_atom_site_fract_x
_atom_site_fract_y
_atom_site_fract_z
O1 O 0.0767(1) -0.4002(2) 0.4049(1)
O2 O 0.0964(1) -0.5312(2) 0.2511(1)
O3 O 0.2209(1) -0.4109(2) 0.2523(1)
O4 O 0.1804(1) 0.2109(2) 0.4002(1)
O5 O 0.2501(1) -0.0502(2) 0.4460(1)
N1 N 0.1543(1) -0.4354(2) 0.2827(1)
N2 N 0.1933(1) 0.0300(2) 0.4037(1)
C1 C 0.1460(1) -0.3280(3) 0.3673(1)
C2 C 0.1340(1) -0.1009(2) 0.3484(1)
C3 C 0.0449(1) -0.0702(3) 0.3674(1)
C4 C -0.0071(1) 0.0956(3) 0.3578(1)
C5 C -0.0885(1) 0.0720(3) 0.3786(1)
C6 C -0.1161(1) -0.1124(3) 0.4082(1)
C7 C -0.0641(1) -0.2782(3) 0.4189(1)
C8 C 0.0162(1) -0.2506(3) 0.3977(1)
H1 H 0.1971(1) -0.3499(3) 0.4058(1)
H2 H 0.1410(1) -0.0733(2) 0.2869(1)
H3 H 0.0123(1) 0.2216(3) 0.3377(1)
H4 H -0.1258(1) 0.1833(3) 0.3725(1)
H5 H -0.1724(1) -0.1250(3) 0.4215(1)
H6 H -0.0828(1) -0.4040(3) 0.4399(1)
#END
