
#######################################################################
#
#                 Cambridge Crystallographic Data Centre
#                                CCDC
#
#######################################################################
#
# If this CIF has been generated from an entry in the Cambridge
# Structural Database, then it will include bibliographic, chemical,
# crystal, experimental, refinement or atomic coordinate data resulting
# from the CCDC's data processing and validation procedures.
#
#######################################################################

data_CSD_CIF_NIVCEA
_audit_creation_date 1998-06-18
_audit_creation_method CSD-ConQuest-V1
_database_code_CSD NIVCEA
_database_code_depnum_ccdc_archive 'CCDC 1220948'
_chemical_formula_sum 'C9 H5 N3 O7'
_chemical_formula_moiety
;
C9 H5 N3 O7
;
_journal_coden_Cambridge 3
_journal_volume 51
_journal_year 1997
_journal_page_first 984
_journal_name_full 'Acta Chem.Scand. '
loop_
_publ_author_name
"C.P.Butts"
"L.Eberson"
"R.Gonzales-Luque"
"C.M.Hartshorn"
"M.P.Hartshorn"
"M.Merchan"
"W.T.Robinson"
"B.O.Roos"
"C.Vallance"
"B.R.Wood"
_chemical_name_systematic
;
4-Trinitromethylbenzofuran
;
_cell_volume    531.558
_exptl_crystal_colour 'colorless'
_exptl_crystal_density_diffrn 1.669
_exptl_crystal_description 'block'
_diffrn_ambient_temperature 168
#These two values have been output from a single CSD field.
_refine_ls_R_factor_gt 0.029
_refine_ls_wR_factor_gt 0.029
_symmetry_cell_setting triclinic
_symmetry_space_group_name_H-M 'P -1'
_symmetry_Int_Tables_number 2
loop_
_symmetry_equiv_pos_site_id
_symmetry_equiv_pos_as_xyz
1 x,y,z
2 -x,-y,-z
_cell_length_a 7.474(1)
_cell_length_b 7.612(1)
_cell_length_c 9.658(1)
_cell_angle_alpha 92.71(1)
_cell_angle_beta 92.25(1)
_cell_angle_gamma 104.11(1)
_cell_formula_units_Z 2
loop_
_atom_type_symbol
_atom_type_radius_bond
C 0.68
H 0.23
N 0.68
O 0.68
loop_
_atom_site_label
_atom_site_type_symbol
_atom_site_fract_x
_atom_site_fract_y
_atom_site_fract_z
O1 O 0.3526(2) 0.4869(2) 0.3273(2)
O2 O -0.4398(2) -0.1007(2) 0.3729(2)
O3 O -0.5578(2) 0.0962(2) 0.2696(2)
O4 O -0.0422(2) -0.0603(2) 0.1415(2)
O5 O -0.3330(2) -0.1957(2) 0.1200(2)
O6 O -0.2965(2) 0.1526(2) -0.0003(2)
O7 O -0.2882(2) 0.3703(2) 0.1558(2)
N1 N -0.4346(3) 0.0241(3) 0.2975(2)
N2 N -0.2038(3) -0.0704(3) 0.1578(2)
N3 N -0.2815(2) 0.2180(3) 0.1185(2)
C1 C 0.3059(3) 0.4612(3) 0.1880(3)
C2 C 0.1389(3) 0.3522(3) 0.1600(2)
C3 C 0.0659(3) 0.3008(3) 0.2912(2)
C4 C -0.0998(3) 0.1950(3) 0.3383(2)
C5 C -0.1189(3) 0.1878(3) 0.4805(2)
C6 C 0.0221(4) 0.2803(3) 0.5748(2)
C7 C 0.1863(4) 0.3806(3) 0.5310(3)
C8 C 0.2027(3) 0.3880(3) 0.3907(2)
C9 C -0.2472(3) 0.0964(3) 0.2353(2)
H1 H 0.3845(3) 0.5155(3) 0.1187(3)
H2 H 0.0798(3) 0.3157(3) 0.0708(2)
H3 H -0.2305(3) 0.1183(3) 0.5142(2)
H4 H 0.0042(4) 0.2740(3) 0.6714(2)
H5 H 0.2839(4) 0.4419(3) 0.5950(3)
#END
