
#######################################################################
#
#                 Cambridge Crystallographic Data Centre
#                                CCDC
#
#######################################################################
#
# If this CIF has been generated from an entry in the Cambridge
# Structural Database, then it will include bibliographic, chemical,
# crystal, experimental, refinement or atomic coordinate data resulting
# from the CCDC's data processing and validation procedures.
#
#######################################################################

data_CSD_CIF_NIVPAJ
_audit_creation_date 1998-06-18
_audit_creation_method CSD-ConQuest-V1
_database_code_CSD NIVPAJ
_chemical_formula_sum 'C7 H8 N2 O3'
_chemical_formula_moiety
;
C7 H8 N2 O3
;
_journal_coden_Cambridge 456
_journal_volume 71
_journal_year 1997
_journal_page_first 119
_journal_name_full 'Pol.J.Chem. '
loop_
_publ_author_name
"G.Rusek"
"J.Mazurek"
"T.Lis"
"K.Krajewski"
_chemical_name_systematic
;
3-Amino-4-nitrobenzyl alcohol
;
_chemical_melting_point 411.65
_cell_volume    363.487
_exptl_crystal_colour 'yellow'
_exptl_crystal_density_diffrn 1.536
_exptl_special_details
;
Melting point range 411.65-413.15K
triclinic polymorph

;
_exptl_crystal_description 'needles'
_exptl_crystal_preparation 'methanol'
_diffrn_ambient_temperature ?
_diffrn_special_details
;
The study was carried out at room temperature,in the range 283-303K

;
#These two values have been output from a single CSD field.
_refine_ls_R_factor_gt 0.0446
_refine_ls_wR_factor_gt 0.0446
_symmetry_cell_setting triclinic
_symmetry_space_group_name_H-M 'P -1'
_symmetry_Int_Tables_number 2
loop_
_symmetry_equiv_pos_site_id
_symmetry_equiv_pos_as_xyz
1 x,y,z
2 -x,-y,-z
_cell_length_a 7.190(4)
_cell_length_b 7.283(4)
_cell_length_c 7.888(4)
_cell_angle_alpha 84.03(5)
_cell_angle_beta 79.43(5)
_cell_angle_gamma 63.57(5)
_cell_formula_units_Z 2
loop_
_atom_type_symbol
_atom_type_radius_bond
C 0.68
H 0.23
N 0.68
O 0.68
loop_
_atom_site_label
_atom_site_type_symbol
_atom_site_fract_x
_atom_site_fract_y
_atom_site_fract_z
C1 C 0.3814(3) 0.7172(3) 0.6837(3)
C2 C 0.3066(3) 0.7721(3) 0.5299(3)
C3 C 0.4298(3) 0.7974(3) 0.3759(3)
C4 C 0.6366(3) 0.7623(3) 0.3883(3)
C5 C 0.7127(3) 0.7062(3) 0.5471(3)
C6 C 0.5876(3) 0.6837(3) 0.6921(3)
C7 C 0.2458(4) 0.6939(4) 0.8460(3)
O1 O 0.7154(3) 0.8300(3) 0.0986(2)
O2 O 0.9534(3) 0.7546(3) 0.2586(2)
O3 O 0.0591(3) 0.7013(4) 0.8114(2)
N1 N 0.3447(3) 0.8503(3) 0.2296(3)
N2 N 0.7759(3) 0.7828(3) 0.2423(2)
H1 H 0.175(4) 0.797(4) 0.522(3)
H2 H 0.850(4) 0.686(4) 0.556(3)
H3 H 0.643(4) 0.641(4) 0.795(4)
H4 H 0.413(4) 0.887(4) 0.137(4)
H5 H 0.215(5) 0.886(4) 0.237(4)
H6 H -0.041(6) 0.738(6) 0.902(6)
H7 H 0.322(4) 0.567(4) 0.908(4)
H8 H 0.202(5) 0.807(5) 0.921(4)
#END
