
#######################################################################
#
#                 Cambridge Crystallographic Data Centre
#                                CCDC
#
#######################################################################
#
# If this CIF has been generated from an entry in the Cambridge
# Structural Database, then it will include bibliographic, chemical,
# crystal, experimental, refinement or atomic coordinate data resulting
# from the CCDC's data processing and validation procedures.
#
#######################################################################

data_CSD_CIF_NIVPAJ01
_audit_creation_date 1998-06-18
_audit_creation_method CSD-ConQuest-V1
_database_code_CSD NIVPAJ01
_chemical_formula_sum 'C7 H8 N2 O3'
_chemical_formula_moiety
;
C7 H8 N2 O3
;
_journal_coden_Cambridge 456
_journal_volume 71
_journal_year 1997
_journal_page_first 119
_journal_name_full 'Pol.J.Chem. '
loop_
_publ_author_name
"G.Rusek"
"J.Mazurek"
"T.Lis"
"K.Krajewski"
_chemical_name_systematic
;
3-Amino-4-nitrobenzyl alcohol
;
_chemical_melting_point 411.65
_cell_volume   1487.574
_exptl_crystal_colour 'light yellow'
_exptl_crystal_density_diffrn 1.502
_exptl_special_details
;
Melting point range 411.65-413.15K
monoclinic polymorph

;
_exptl_crystal_description 'plates'
_exptl_crystal_preparation 'benzene'
_diffrn_ambient_temperature ?
_diffrn_special_details
;
The study was carried out at room temperature,in the range 283-303K

;
#These two values have been output from a single CSD field.
_refine_ls_R_factor_gt 0.0497
_refine_ls_wR_factor_gt 0.0497
_symmetry_cell_setting monoclinic
_symmetry_space_group_name_H-M 'C 2/c'
_symmetry_Int_Tables_number 15
loop_
_symmetry_equiv_pos_site_id
_symmetry_equiv_pos_as_xyz
1 x,y,z
2 -x,y,1/2-z
3 1/2+x,1/2+y,z
4 1/2-x,1/2+y,1/2-z
5 -x,-y,-z
6 x,-y,-1/2+z
7 -1/2-x,-1/2-y,-z
8 -1/2+x,-1/2-y,-1/2+z
_cell_length_a 21.787(7)
_cell_length_b 4.740(2)
_cell_length_c 14.423(3)
_cell_angle_alpha 90
_cell_angle_beta 92.89(3)
_cell_angle_gamma 90
_cell_formula_units_Z 8
loop_
_atom_type_symbol
_atom_type_radius_bond
C 0.68
H 0.23
N 0.68
O 0.68
loop_
_atom_site_label
_atom_site_type_symbol
_atom_site_fract_x
_atom_site_fract_y
_atom_site_fract_z
C1 C 0.14181(6) -0.0547(4) 0.53762(10)
C2 C 0.08589(6) -0.1756(4) 0.54925(10)
C3 C 0.07630(6) -0.3810(4) 0.61788(10)
C4 C 0.12811(6) -0.4551(4) 0.67561(9)
C5 C 0.18540(7) -0.3284(4) 0.66435(11)
C6 C 0.19249(7) -0.1332(4) 0.59698(11)
C7 C 0.15116(7) 0.1596(4) 0.46222(11)
O1 O 0.07564(5) -0.7886(3) 0.75771(8)
O2 O 0.17019(5) -0.7080(4) 0.79871(9)
O3 O 0.09849(6) 0.2061(3) 0.40315(8)
N1 N 0.01980(6) -0.4945(4) 0.62273(11)
N2 N 0.12463(6) -0.6600(3) 0.74764(9)
H1 H 0.0515(8) -0.129(5) 0.5084(13)
H2 H 0.2188(9) -0.379(5) 0.7059(14)
H3 H 0.2326(9) -0.041(5) 0.5911(13)
H4 H 0.0124(9) -0.622(5) 0.6697(14)
H5 H -0.0125(10) -0.405(6) 0.5927(15)
H6 H 0.0965(11) 0.076(7) 0.3613(17)
H7 H 0.1863(8) 0.095(5) 0.4261(12)
H8 H 0.1614(8) 0.343(5) 0.4911(13)
#END
