
#######################################################################
#
#                 Cambridge Crystallographic Data Centre
#                                CCDC
#
#######################################################################
#
# If this CIF has been generated from an entry in the Cambridge
# Structural Database, then it will include bibliographic, chemical,
# crystal, experimental, refinement or atomic coordinate data resulting
# from the CCDC's data processing and validation procedures.
#
#######################################################################

data_CSD_CIF_NIWROB
_audit_creation_date 2008-04-11
_audit_creation_method CSD-ConQuest-V1
_database_code_CSD NIWROB
_database_code_depnum_ccdc_archive 'CCDC 677592'
_chemical_formula_sum 'C14 H11 N3 O3'
_chemical_formula_moiety
;
C14 H11 N3 O3
;
_journal_coeditor_code "IUCr DN2300"
_journal_coden_Cambridge 1370
_journal_volume 64
_journal_year 2008
_journal_page_first o448
_journal_name_full 'Acta Crystallogr.,Sect.E:Struct.Rep.Online '
loop_
_publ_author_name
"Lijun Zhang"
"Jiarong Li"
"Daxin Shi"
"Ling Zhang"
"Yanqiu Fan"
_chemical_name_systematic
;
(S)-2-(3-Nitrophenyl)-1,2-dihydroquinazolin-4(3H)-one
;
_chemical_melting_point 483.15
_cell_volume   1198.987
_exptl_crystal_colour 'yellow'
_exptl_crystal_density_diffrn 1.492
_exptl_special_details
;
Melting point range 483.15-485.15K

;
_exptl_crystal_description 'block'
_exptl_crystal_preparation 'ethanol'
_diffrn_ambient_temperature 113
#These two values have been output from a single CSD field.
_refine_ls_R_factor_gt 0.0531
_refine_ls_wR_factor_gt 0.0531
_symmetry_cell_setting monoclinic
_symmetry_space_group_name_H-M 'P 21/n'
_symmetry_Int_Tables_number 14
loop_
_symmetry_equiv_pos_site_id
_symmetry_equiv_pos_as_xyz
1 x,y,z
2 1/2-x,1/2+y,1/2-z
3 -x,-y,-z
4 -1/2+x,-1/2-y,-1/2+z
_cell_length_a 10.9766(13)
_cell_length_b 9.8626(9)
_cell_length_c 11.7636(14)
_cell_angle_alpha 90
_cell_angle_beta 109.697(7)
_cell_angle_gamma 90
_cell_formula_units_Z 4
loop_
_atom_type_symbol
_atom_type_radius_bond
C 0.68
H 0.23
N 0.68
O 0.68
loop_
_atom_site_label
_atom_site_type_symbol
_atom_site_fract_x
_atom_site_fract_y
_atom_site_fract_z
O1 O 0.38313(11) 0.37578(12) 0.01748(10)
O2 O 0.88573(16) 0.82212(18) 0.63964(16)
O3 O 1.00163(13) 0.66568(15) 0.59857(12)
N1 N 0.59073(14) 0.40329(15) 0.13946(12)
H1 H 0.5980(18) 0.4683(15) 0.0939(15)
N2 N 0.69081(13) 0.25348(14) 0.30194(13)
H2 H 0.7543(14) 0.2352(19) 0.3656(12)
N3 N 0.89721(16) 0.71853(17) 0.58678(14)
C1 C 0.47429(16) 0.34319(17) 0.11042(15)
C2 C 0.46290(16) 0.23302(17) 0.19167(14)
C3 C 0.57453(16) 0.19070(17) 0.28587(14)
C4 C 0.56527(17) 0.07855(17) 0.35660(15)
H3 H 0.63790 0.04820 0.41850
C5 C 0.44777(17) 0.01378(18) 0.33363(16)
H4 H 0.44250 -0.06060 0.38030
C6 C 0.33707(18) 0.05748(18) 0.24215(16)
H5 H 0.25840 0.01380 0.22880
C7 C 0.34564(17) 0.16652(18) 0.17147(16)
H6 H 0.27230 0.19580 0.10980
C8 C 0.69237(16) 0.39113(17) 0.25765(14)
H7 H 0.77580 0.40490 0.24590
C9 C 0.67990(15) 0.49851(16) 0.34659(14)
C10 C 0.79123(16) 0.55921(17) 0.42414(15)
H8 H 0.87230 0.53490 0.42200
C11 C 0.77919(17) 0.65619(17) 0.50431(15)
C12 C 0.66122(18) 0.69635(18) 0.51111(16)
H9 H 0.65600 0.76330 0.56490
C13 C 0.55171(18) 0.63387(19) 0.43545(17)
H10 H 0.47110 0.65730 0.43910
C14 C 0.56071(17) 0.53628(18) 0.35387(16)
H11 H 0.48580 0.49540 0.30310
#END
