
#######################################################################
#
#                 Cambridge Crystallographic Data Centre
#                                CCDC
#
#######################################################################
#
# If this CIF has been generated from an entry in the Cambridge
# Structural Database, then it will include bibliographic, chemical,
# crystal, experimental, refinement or atomic coordinate data resulting
# from the CCDC's data processing and validation procedures.
#
#######################################################################

data_CSD_CIF_NIXPUF
_audit_creation_date 1998-06-18
_audit_creation_method CSD-ConQuest-V1
_database_code_CSD NIXPUF
_database_code_depnum_ccdc_archive 'CCDC 1221204'
_chemical_formula_sum 'C3 H8 N4 O4'
_chemical_formula_moiety
;
C3 H8 N4 O4
;
_journal_coden_Cambridge 95
_journal_year 1997
_journal_page_first 1486
_journal_name_full 'Izv.Akad.Nauk SSSR,Ser.Khim.(Russ.)(Russ.Chem.Bull.) '
loop_
_publ_author_name
"I.N.Zyuzin"
"G.N.Nechiporenko"
"N.I.Golovina"
"R.T.Trofimova"
"N.V.Loginova"
_chemical_name_systematic
;
bis((Methyl-O,N,N-azoxy)oxy)methane
;
_chemical_melting_point 468.15
_cell_volume    716.569
_exptl_crystal_density_diffrn 1.52
_exptl_special_details
;
Melting point range 468.15-470.15K

;
_diffrn_ambient_temperature ?
_diffrn_special_details
;
The study was carried out at room temperature,in the range 283-303K

;
#These two values have been output from a single CSD field.
_refine_ls_R_factor_gt 0.045
_refine_ls_wR_factor_gt 0.045
_symmetry_cell_setting monoclinic
_symmetry_space_group_name_H-M 'P 1 1 21/b'
_symmetry_Int_Tables_number 14
loop_
_symmetry_equiv_pos_site_id
_symmetry_equiv_pos_as_xyz
1 x,y,z
2 -x,1/2-y,1/2+z
3 -x,-y,-z
4 x,-1/2+y,-1/2-z
_cell_length_a 9.980(1)
_cell_length_b 8.365(1)
_cell_length_c 8.584(1)
_cell_angle_alpha 90
_cell_angle_beta 90
_cell_angle_gamma 90.65(2)
_cell_formula_units_Z 4
loop_
_atom_type_symbol
_atom_type_radius_bond
C 0.68
H 0.23
N 0.68
O 0.68
loop_
_atom_site_label
_atom_site_type_symbol
_atom_site_fract_x
_atom_site_fract_y
_atom_site_fract_z
O1 O 0.1267(1) 0.3892(1) 0.6283(1)
O2 O 0.3115(1) 0.5035(1) 0.7559(1)
O3 O 0.5486(1) 0.4421(2) 0.8113(2)
O4 O 0.0683(1) 0.1846(2) 0.4349(2)
N1 N 0.4575(1) 0.3592(2) 0.8740(2)
N2 N 0.1331(1) 0.3065(2) 0.3908(1)
N3 N 0.3326(1) 0.3753(1) 0.8573(1)
N4 N 0.1705(1) 0.4215(2) 0.4778(2)
C1 C 0.1721(2) 0.5140(2) 0.7285(2)
C2 C 0.4959(2) 0.2261(2) 0.9766(2)
C3 C 0.1722(2) 0.3195(2) 0.2266(2)
H1 H 0.4251(22) 0.1846(27) 1.0237(28)
H2 H 0.5645(26) 0.255(3) 1.0215(32)
H3 H 0.5378(24) 0.1559(28) 0.9093(28)
H4 H 0.1251(19) 0.4971(23) 0.8261(23)
H5 H 0.1609(19) 0.6171(24) 0.6774(25)
H6 H 0.2218(24) 0.2457(30) 0.2065(32)
H7 H 0.2155(24) 0.4048(30) 0.2034(30)
H8 H 0.0955(24) 0.3029(29) 0.165(3)
#END
