
#######################################################################
#
#                 Cambridge Crystallographic Data Centre
#                                CCDC
#
#######################################################################
#
# If this CIF has been generated from an entry in the Cambridge
# Structural Database, then it will include bibliographic, chemical,
# crystal, experimental, refinement or atomic coordinate data resulting
# from the CCDC's data processing and validation procedures.
#
#######################################################################

data_CSD_CIF_NIYVUO
_audit_creation_date 2014-02-07
_audit_creation_method CSD-ConQuest-V1
_database_code_CSD NIYVUO
_database_code_depnum_ccdc_archive 'CCDC 959956'
_chemical_formula_sum 'C16 H16 N4 O6'
_chemical_formula_moiety
;
C16 H16 N4 O6
;
_journal_coden_Cambridge 1500
_journal_volume 4
_journal_year 2014
_journal_page_first 9856
_journal_name_full 'RSC Advances '
loop_
_publ_author_name
"Ana Alcaine"
"E.Marques-Lopez"
"R.P.Herrera"
_chemical_name_systematic
;
N'-(1-(2-Methoxyphenyl)-2-nitroethyl)-4-nitrobenzohydrazide
;
_cell_volume    817.542
_exptl_crystal_colour 'colorless'
_exptl_crystal_density_diffrn 1.464
_exptl_special_details
;
Absolute configuration

;
_exptl_crystal_description 'prisms'
_diffrn_ambient_temperature 295
#These two values have been output from a single CSD field.
_refine_ls_R_factor_gt 0.0598
_refine_ls_wR_factor_gt 0.0598
_symmetry_cell_setting monoclinic
_symmetry_space_group_name_H-M 'P 21'
_symmetry_Int_Tables_number 4
loop_
_symmetry_equiv_pos_site_id
_symmetry_equiv_pos_as_xyz
1 x,y,z
2 -x,1/2+y,-z
_cell_length_a 5.0171(2)
_cell_length_b 16.1781(6)
_cell_length_c 10.3154(4)
_cell_angle_alpha 90
_cell_angle_beta 102.463(2)
_cell_angle_gamma 90
_cell_formula_units_Z 2
loop_
_atom_type_symbol
_atom_type_radius_bond
C 0.68
H 0.23
N 0.68
O 0.68
loop_
_atom_site_label
_atom_site_type_symbol
_atom_site_fract_x
_atom_site_fract_y
_atom_site_fract_z
C1 C 0.2415(5) 0.28663(19) -0.1862(3)
C2 C 0.4412(5) 0.34480(17) -0.1328(3)
C3 C 0.5956(6) 0.3792(2) -0.2171(3)
H1 H 0.73310 0.41680 -0.18340
C4 C 0.5466(7) 0.3580(2) -0.3495(3)
H2 H 0.65240 0.38090 -0.40400
C5 C 0.3423(7) 0.3031(2) -0.4014(3)
H3 H 0.30760 0.28990 -0.49120
C6 C 0.1877(6) 0.2674(2) -0.3198(3)
H4 H 0.04840 0.23060 -0.35500
O1 O 0.1067(4) 0.25172(14) -0.0975(2)
C7 C -0.0676(7) 0.1836(2) -0.1432(3)
H5 H -0.12660 0.15890 -0.06960
H6 H 0.03000 0.14350 -0.18350
H7 H -0.22360 0.20250 -0.20740
C8 C 0.4880(5) 0.36665(18) 0.0135(3)
H8 H 0.31130 0.37450 0.03780
C9 C 0.6424(6) 0.2969(2) 0.0967(3)
H9 H 0.58340 0.24470 0.05370
H10 H 0.83550 0.30300 0.09830
N1 N 0.6050(6) 0.29342(18) 0.2372(2)
O2 O 0.7840(7) 0.2617(3) 0.3191(3)
O3 O 0.3925(6) 0.3185(2) 0.2615(3)
N2 N 0.6449(5) 0.44399(17) 0.0366(2)
H11 H 0.67900 0.47380 -0.02700
N3 N 0.7348(5) 0.46525(16) 0.1713(2)
H12 H 0.90310 0.45740 0.20920
C10 C 0.5641(5) 0.49758(18) 0.2427(3)
O4 O 0.3201(4) 0.50643(14) 0.1961(2)
C11 C 0.6887(5) 0.52225(18) 0.3823(3)
C12 C 0.9304(6) 0.4882(2) 0.4560(3)
H13 H 1.02630 0.44960 0.41730
C13 C 1.0266(6) 0.5118(2) 0.5859(3)
H14 H 1.18600 0.48880 0.63560
C14 C 0.8851(7) 0.5697(2) 0.6412(3)
C15 C 0.6480(7) 0.6049(2) 0.5712(3)
H15 H 0.55530 0.64430 0.61010
C16 C 0.5516(6) 0.5800(2) 0.4419(3)
H16 H 0.39010 0.60260 0.39350
N4 N 0.9851(7) 0.5937(2) 0.7797(3)
O5 O 1.2114(7) 0.5725(3) 0.8367(3)
O6 O 0.8346(8) 0.6359(3) 0.8322(3)
#END
