
#######################################################################
#
#                 Cambridge Crystallographic Data Centre
#                                CCDC
#
#######################################################################
#
# If this CIF has been generated from an entry in the Cambridge
# Structural Database, then it will include bibliographic, chemical,
# crystal, experimental, refinement or atomic coordinate data resulting
# from the CCDC's data processing and validation procedures.
#
#######################################################################

data_CSD_CIF_NIZCEE
_audit_creation_date 1998-06-26
_audit_creation_method CSD-ConQuest-V1
_database_code_CSD NIZCEE
_database_code_depnum_ccdc_archive 'CCDC 258115'
_chemical_formula_sum 'C19 H12 N4 O4'
_chemical_formula_moiety
;
C19 H12 N4 O4
;
_journal_coden_Cambridge 37
_journal_volume 100
_journal_year 1996
_journal_page_first 16175
_journal_name_full 'J.Phys.Chem. '
loop_
_publ_author_name
"M.Scherl"
"D.Haarer"
"J.Fischer"
"A.De Cian"
"J.-M.Lehn"
"Y.Eichen"
_chemical_name_systematic
;
2-(2,4-Dinitrobenzyl)-1,10-phenanthroline
;
_cell_volume   3153.323
_exptl_crystal_colour 'blue'
_exptl_crystal_density_diffrn 1.518
_diffrn_ambient_temperature 173.15
#These two values have been output from a single CSD field.
_refine_ls_R_factor_gt 0.091
_refine_ls_wR_factor_gt 0.091
_symmetry_cell_setting monoclinic
_symmetry_space_group_name_H-M 'C 2/c'
_symmetry_Int_Tables_number 15
loop_
_symmetry_equiv_pos_site_id
_symmetry_equiv_pos_as_xyz
1 x,y,z
2 -x,y,1/2-z
3 1/2+x,1/2+y,z
4 1/2-x,1/2+y,1/2-z
5 -x,-y,-z
6 x,-y,-1/2+z
7 -1/2-x,-1/2-y,-z
8 -1/2+x,-1/2-y,-1/2+z
_cell_length_a 27.494(8)
_cell_length_b 8.662(2)
_cell_length_c 15.581(4)
_cell_angle_alpha 90
_cell_angle_beta 121.81(2)
_cell_angle_gamma 90
_cell_formula_units_Z 8
loop_
_atom_type_symbol
_atom_type_radius_bond
C 0.68
H 0.23
N 0.68
O 0.68
loop_
_atom_site_label
_atom_site_type_symbol
_atom_site_fract_x
_atom_site_fract_y
_atom_site_fract_z
O1 O 0.6393(2) 0.6703(7) 0.4354(3)
O2 O 0.6825(3) 0.826(1) 0.4141(5)
O3 O 0.7658(1) 0.7563(5) 0.2155(3)
O4 O 0.7398(1) 0.5590(5) 0.1176(3)
N1 N 0.5657(1) 0.3246(5) 0.4054(3)
N2 N 0.5088(2) 0.2879(6) 0.5059(3)
N3 N 0.6625(2) 0.7084(6) 0.3942(4)
N4 N 0.7356(2) 0.6431(5) 0.1745(3)
C1 C 0.4827(2) 0.2705(8) 0.5560(4)
C2 C 0.4972(2) 0.1585(8) 0.6298(4)
C3 C 0.5421(2) 0.0636(7) 0.6550(4)
C4 C 0.5727(2) 0.0804(6) 0.6063(4)
C5 C 0.6206(2) -0.0138(6) 0.6306(4)
C6 C 0.6490(2) 0.0052(7) 0.5822(4)
C7 C 0.6319(2) 0.1210(6) 0.5058(4)
C8 C 0.6618(2) 0.1471(7) 0.4566(4)
C9 C 0.6431(2) 0.2582(7) 0.3837(4)
C10 C 0.5946(2) 0.3459(6) 0.3598(4)
C11 C 0.5840(2) 0.2153(6) 0.4788(4)
C12 C 0.5534(2) 0.1943(6) 0.5298(3)
C13 C 0.5716(2) 0.4691(7) 0.2801(3)
C14 C 0.6143(2) 0.5241(7) 0.2532(3)
C15 C 0.6123(2) 0.4648(8) 0.1698(4)
C16 C 0.6516(2) 0.4978(8) 0.1441(4)
C17 C 0.6927(2) 0.6060(6) 0.2011(3)
C18 C 0.6957(2) 0.6786(6) 0.2815(4)
C19 C 0.6563(2) 0.6316(6) 0.3068(4)
H1 H 0.45200 0.33850 0.54070
H2 H 0.47600 0.14870 0.66190
H3 H 0.55270 -0.01350 0.70510
H4 H 0.63270 -0.09070 0.68130
H5 H 0.68080 -0.05910 0.59900
H6 H 0.69480 0.08770 0.47390
H7 H 0.66260 0.27590 0.34940
H8 H 0.58170 0.39680 0.12730
H9 H 0.65060 0.44780 0.08890
H10 H 0.72320 0.75680 0.31820
H11 H 0.55840 0.55630 0.31200
H12 H 0.53920 0.41860 0.20780
#END
