
#######################################################################
#
#                 Cambridge Crystallographic Data Centre
#                                CCDC
#
#######################################################################
#
# If this CIF has been generated from an entry in the Cambridge
# Structural Database, then it will include bibliographic, chemical,
# crystal, experimental, refinement or atomic coordinate data resulting
# from the CCDC's data processing and validation procedures.
#
#######################################################################

data_CSD_CIF_NIZWID
_audit_creation_date 2008-08-15
_audit_creation_method CSD-ConQuest-V1
_database_code_CSD NIZWID
_database_code_depnum_ccdc_archive 'CCDC 655610'
_chemical_formula_sum 'C13 H15 N1 O4'
_chemical_formula_moiety
;
C13 H15 N1 O4
;
_journal_coden_Cambridge 1291
_journal_year 2008
_journal_page_first 1449
_journal_name_full 'Eur.J.Org.Chem. '
loop_
_publ_author_name
"Bor-Cherng Hong"
"R.Y.Nimje"
"Ming-Fun Wu"
"A.A.Sadani"
_chemical_name_systematic
;
4-Hydroxy-3-nitro-2-phenyl-cyclohexanecarbaldehyde
;
_cell_volume   2474.422
_exptl_crystal_colour 'colorless'
_exptl_crystal_density_diffrn 1.338
_exptl_crystal_description 'rod'
_diffrn_ambient_temperature 298
#These two values have been output from a single CSD field.
_refine_ls_R_factor_gt 0.0681
_refine_ls_wR_factor_gt 0.0681
_symmetry_cell_setting orthorhombic
_symmetry_space_group_name_H-M 'P b c a'
_symmetry_Int_Tables_number 61
loop_
_symmetry_equiv_pos_site_id
_symmetry_equiv_pos_as_xyz
1 x,y,z
2 1/2-x,-y,1/2+z
3 -x,1/2+y,1/2-z
4 1/2+x,1/2-y,-z
5 -x,-y,-z
6 -1/2+x,y,-1/2-z
7 x,-1/2-y,-1/2+z
8 -1/2-x,-1/2+y,z
_cell_length_a 8.1451(10)
_cell_length_b 16.011(2)
_cell_length_c 18.974(2)
_cell_angle_alpha 90
_cell_angle_beta 90
_cell_angle_gamma 90
_cell_formula_units_Z 8
loop_
_atom_type_symbol
_atom_type_radius_bond
C 0.68
H 0.23
N 0.68
O 0.68
loop_
_atom_site_label
_atom_site_type_symbol
_atom_site_fract_x
_atom_site_fract_y
_atom_site_fract_z
O1 O 0.2488(2) 0.90632(13) 0.64640(12)
O2 O 0.4154(2) 0.93731(12) 0.72932(10)
O3 O 0.4739(2) 1.05894(9) 0.59241(9)
O4 O 0.9430(3) 0.72497(12) 0.57269(11)
N1 N 0.3847(2) 0.92075(11) 0.66824(12)
C1 C 0.5742(2) 0.76704(11) 0.65483(10)
C2 C 0.6173(3) 0.72410(13) 0.71511(11)
H1 H 0.68980 0.74830 0.74700
C3 C 0.5541(3) 0.64569(14) 0.72889(13)
H2 H 0.58550 0.61730 0.76950
C4 C 0.4459(3) 0.60977(13) 0.68309(13)
H3 H 0.40280 0.55720 0.69260
C5 C 0.4013(3) 0.65156(14) 0.62314(13)
H4 H 0.32740 0.62730 0.59190
C6 C 0.4654(3) 0.72954(13) 0.60868(11)
H5 H 0.43520 0.75710 0.56750
C7 C 0.6488(2) 0.85211(11) 0.64059(10)
H6 H 0.69790 0.87160 0.68480
C8 C 0.5256(2) 0.91768(11) 0.61737(10)
H7 H 0.48320 0.90200 0.57090
C9 C 0.6018(2) 1.00392(12) 0.61207(11)
H8 H 0.64410 1.02030 0.65840
C10 C 0.7418(3) 1.00223(13) 0.55977(11)
H9 H 0.79530 1.05630 0.55930
H10 H 0.69840 0.99190 0.51300
C11 C 0.8671(3) 0.93538(12) 0.57762(12)
H11 H 0.92160 0.94980 0.62140
H12 H 0.94960 0.93320 0.54080
C12 C 0.7865(2) 0.84938(12) 0.58508(11)
H13 H 0.73920 0.83330 0.53960
C13 C 0.9111(3) 0.78595(15) 0.60600(14)
H14 H 0.96790 0.79450 0.64790
H15 H 0.512(4) 1.1116(18) 0.5902(13)
#END
