
#######################################################################
#
#                 Cambridge Crystallographic Data Centre
#                                CCDC
#
#######################################################################
#
# If this CIF has been generated from an entry in the Cambridge
# Structural Database, then it will include bibliographic, chemical,
# crystal, experimental, refinement or atomic coordinate data resulting
# from the CCDC's data processing and validation procedures.
#
#######################################################################

data_CSD_CIF_NIZYIF
_audit_creation_date 2008-08-15
_audit_creation_method CSD-ConQuest-V1
_database_code_CSD NIZYIF
_database_code_depnum_ccdc_archive 'CCDC 685123'
_chemical_formula_sum 'C23 H26 N2 O7'
_chemical_formula_moiety
;
C23 H26 N2 O7
;
_journal_coden_Cambridge 4
_journal_volume 130
_journal_year 2008
_journal_page_first 1580
_journal_name_full 'J.Am.Chem.Soc. '
loop_
_publ_author_name
"M.B.Boxer"
"M.Akakura"
"H.Yamamoto"
_chemical_name_systematic
;
5-Hydroxy-5,7-dimethyl-2-phenyloct-6-en-3-yl 3,5-dinitrobenzoate
;
_cell_volume   1097.577
_exptl_crystal_density_diffrn 1.345
_exptl_special_details
;
Two H atoms have been given incorrectly on the NO2 groups and have been 
suppressed in the 3D
;
_diffrn_ambient_temperature 100
#These two values have been output from a single CSD field.
_refine_ls_R_factor_gt 0.0762
_refine_ls_wR_factor_gt 0.0762
_symmetry_cell_setting triclinic
_symmetry_space_group_name_H-M 'P -1'
_symmetry_Int_Tables_number 2
loop_
_symmetry_equiv_pos_site_id
_symmetry_equiv_pos_as_xyz
1 x,y,z
2 -x,-y,-z
_cell_length_a 5.9705(18)
_cell_length_b 12.700(4)
_cell_length_c 15.989(5)
_cell_angle_alpha 111.141(5)
_cell_angle_beta 100.421(5)
_cell_angle_gamma 94.740(5)
_cell_formula_units_Z 2
loop_
_atom_type_symbol
_atom_type_radius_bond
C 0.68
H 0.23
N 0.68
O 0.68
loop_
_atom_site_label
_atom_site_type_symbol
_atom_site_fract_x
_atom_site_fract_y
_atom_site_fract_z
C1 C 0.4938(5) 0.3378(3) 0.8896(2)
H1 H 0.38250 0.39040 0.91160
C2 C 0.7382(6) 0.4061(3) 0.9348(2)
H2 H 0.85200 0.35530 0.91850
H3 H 0.75770 0.43850 1.00180
H4 H 0.76090 0.46800 0.91280
C3 C 0.4452(5) 0.2987(3) 0.7855(2)
C4 C 0.2570(6) 0.3287(3) 0.7384(2)
H5 H 0.15460 0.37020 0.77160
C5 C 0.2168(6) 0.2990(3) 0.6442(2)
H6 H 0.08820 0.32070 0.61340
C6 C 0.3638(7) 0.2378(3) 0.5947(2)
H7 H 0.33740 0.21800 0.53010
C7 C 0.5491(6) 0.2057(3) 0.6401(2)
H8 H 0.64990 0.16350 0.60630
C8 C 0.5891(6) 0.2348(3) 0.7348(2)
H9 H 0.71500 0.21100 0.76510
C9 C 0.4516(5) 0.2367(3) 0.9190(2)
H10 H 0.56280 0.18280 0.90000
C10 C 0.2054(5) 0.1724(3) 0.8836(2)
H11 H 0.13980 0.17730 0.82390
H12 H 0.11170 0.21050 0.92740
C11 C 0.1853(5) 0.0459(3) 0.8705(2)
C12 C -0.0676(6) -0.0045(3) 0.8550(2)
H13 H -0.07780 -0.08310 0.85210
H14 H -0.15510 -0.00430 0.79690
H15 H -0.13190 0.04180 0.90590
C13 C 0.2988(5) -0.0217(3) 0.7948(2)
H16 H 0.42240 -0.05650 0.81380
C14 C 0.2503(5) -0.0393(3) 0.7054(2)
C15 C 0.0601(6) 0.0016(3) 0.6557(2)
H17 H -0.03000 0.04280 0.69890
H18 H -0.04070 -0.06420 0.60570
H19 H 0.12700 0.05300 0.63010
C16 C 0.3969(6) -0.1051(3) 0.6431(3)
H20 H 0.51270 -0.13300 0.67820
H21 H 0.47440 -0.05470 0.61930
H22 H 0.29840 -0.17020 0.59170
C17 C 0.6575(5) 0.2586(3) 1.0700(2)
C18 C 0.6558(5) 0.3135(3) 1.1709(2)
C19 C 0.8300(5) 0.2978(3) 1.2335(2)
H23 H 0.94480 0.25370 1.21310
C20 C 0.8331(5) 0.3478(3) 1.3263(2)
C21 C 0.6702(6) 0.4127(3) 1.3597(2)
H24 H 0.67370 0.44560 1.42360
C22 C 0.5010(5) 0.4269(3) 1.2943(2)
C23 C 0.4887(5) 0.3782(3) 1.2007(2)
H25 H 0.36880 0.38880 1.15800
N1 N 0.3256(5) 0.4974(2) 1.3260(2)
N2 N 1.0177(5) 0.3300(2) 1.39154(18)
O1 O 0.3110(4) 0.0475(2) 0.95695(16)
H26 H 0.28960 -0.01830 0.95770
O2 O 0.4911(4) 0.28711(19) 1.01970(14)
O3 O 0.7978(4) 0.1997(2) 1.04322(15)
O4 O 0.1842(4) 0.5120(2) 1.26756(18)
H27? H 0.09300 0.55300 1.29290
O5 O 0.3308(5) 0.5360(2) 1.40824(17)
O6 O 1.0098(5) 0.3684(2) 1.47320(16)
O7 O 1.1687(4) 0.2790(2) 1.36162(17)
H28? H 1.19580 0.23140 1.38590
#END
