
#######################################################################
#
#                 Cambridge Crystallographic Data Centre
#                                CCDC
#
#######################################################################
#
# If this CIF has been generated from an entry in the Cambridge
# Structural Database, then it will include bibliographic, chemical,
# crystal, experimental, refinement or atomic coordinate data resulting
# from the CCDC's data processing and validation procedures.
#
#######################################################################

data_CSD_CIF_NMBZYA02
_audit_creation_date 2004-12-09
_audit_creation_method CSD-ConQuest-V1
_database_code_CSD NMBZYA02
_database_code_depnum_ccdc_archive 'CCDC 255097'
_chemical_formula_sum 'C14 H12 N2 O3'
_chemical_formula_moiety
;
C14 H12 N2 O3
;
_journal_coeditor_code "IUCr BK5007"
_journal_coden_Cambridge 622
_journal_volume 60
_journal_year 2004
_journal_page_first 578
_journal_name_full 'Acta Crystallogr.,Sect.B:Struct.Sci. '
loop_
_publ_author_name
"J.Harada"
"M.Harakawa"
"K.Ogawa"
_chemical_name_systematic
;
N-(4-Nitrobenzylidene)-4-methoxyaniline
;
_chemical_melting_point 403.8
_cell_volume   1209.802
_exptl_crystal_colour 'yellow'
_exptl_crystal_density_diffrn 1.407
_exptl_crystal_description 'prism'
_exptl_crystal_preparation 'methanol'
_diffrn_ambient_temperature 90
#These two values have been output from a single CSD field.
_refine_ls_R_factor_gt 0.0381
_refine_ls_wR_factor_gt 0.0381
_symmetry_cell_setting monoclinic
_symmetry_space_group_name_H-M 'P 21/c'
_symmetry_Int_Tables_number 14
loop_
_symmetry_equiv_pos_site_id
_symmetry_equiv_pos_as_xyz
1 x,y,z
2 x,1/2-y,1/2+z
3 -x,-y,-z
4 -x,-1/2+y,-1/2-z
_cell_length_a 12.7478(7)
_cell_length_b 6.9429(4)
_cell_length_c 13.9980(8)
_cell_angle_alpha 90
_cell_angle_beta 102.446(1)
_cell_angle_gamma 90
_cell_formula_units_Z 4
loop_
_atom_type_symbol
_atom_type_radius_bond
C 0.68
H 0.23
N 0.68
O 0.68
loop_
_atom_site_label
_atom_site_type_symbol
_atom_site_fract_x
_atom_site_fract_y
_atom_site_fract_z
N1 N 0.51219(6) 0.2456(1) 0.90779(5)
N2 N 0.92524(6) 0.22464(12) 1.27071(5)
O1 O 0.90206(5) 0.13703(11) 1.33961(5)
O2 O 1.01351(6) 0.30118(13) 1.27513(5)
O3 O 0.23258(5) 0.33417(10) 0.54427(4)
C1 C 0.69059(6) 0.27218(12) 1.00863(6)
C2 C 0.78750(6) 0.37299(12) 1.01990(6)
C3 C 0.86562(7) 0.35853(13) 1.10568(6)
C4 C 0.84426(6) 0.24017(12) 1.17914(6)
C5 C 0.74920(7) 0.13655(12) 1.17029(6)
C6 C 0.67226(6) 0.15237(12) 1.08408(6)
C7 C 0.61051(6) 0.29571(12) 0.91669(6)
C8 C 0.44244(6) 0.27035(11) 0.81487(6)
C9 C 0.33554(7) 0.31836(12) 0.81207(6)
C10 C 0.26274(7) 0.34419(12) 0.72291(6)
C11 C 0.29707(7) 0.31884(11) 0.63567(6)
C12 C 0.40380(7) 0.26828(12) 0.63758(6)
C13 C 0.47548(6) 0.24366(12) 0.72629(6)
C14 C 0.12250(7) 0.38198(15) 0.53751(7)
H1 H 0.8000(9) 0.4564(18) 0.9671(8)
H2 H 0.9327(10) 0.435(2) 1.1149(9)
H3 H 0.7388(9) 0.0521(18) 1.2225(8)
H4 H 0.6053(10) 0.0757(19) 1.0743(9)
H5 H 0.6366(10) 0.3595(18) 0.8634(8)
H6 H 0.3112(10) 0.3317(19) 0.8738(9)
H7 H 0.1872(11) 0.376(2) 0.7246(9)
H8 H 0.4251(10) 0.2468(19) 0.5761(9)
H9 H 0.5475(9) 0.2009(18) 0.7268(8)
H10 H 0.1132(10) 0.509(2) 0.5655(9)
H11 H 0.0904(11) 0.383(2) 0.4673(10)
H12 H 0.0882(11) 0.283(2) 0.5706(10)
#END
