
#######################################################################
#
#                 Cambridge Crystallographic Data Centre
#                                CCDC
#
#######################################################################
#
# If this CIF has been generated from an entry in the Cambridge
# Structural Database, then it will include bibliographic, chemical,
# crystal, experimental, refinement or atomic coordinate data resulting
# from the CCDC's data processing and validation procedures.
#
#######################################################################

data_CSD_CIF_NMPCPR
_audit_creation_date 1979-05-25
_audit_creation_method CSD-ConQuest-V1
_database_code_CSD NMPCPR
_database_code_depnum_ccdc_archive 'CCDC 1221422'
_chemical_formula_sum 'C15 H19 N6 O4'
_chemical_formula_moiety
;
C15 H19 N6 O4
;
_journal_coden_Cambridge 93
_journal_volume 243
_journal_year 1978
_journal_page_first 645
_journal_name_full 'Dokl.Akad.Nauk SSSR(Russ.)(Proc.Nat.Acad.Sci.USSR) '
loop_
_publ_author_name
"G.V.Gurskaya"
"S.L.Grokhovskii"
"A.L.Zhuze"
"B.P.Gottikh"
_chemical_name_systematic
;
N-Methyl-4-(1'-methyl-4'-nitropyrrole-2'-carbamoyl)-pyrrole-2-(N-2''-cyanoethy
lcarbamide)
;
_cell_volume   1595.945
_diffrn_ambient_temperature ?
_diffrn_special_details
;
The study was carried out at room temperature,in the range 283-303K

;
#These two values have been output from a single CSD field.
_refine_ls_R_factor_gt 0.045
_refine_ls_wR_factor_gt 0.045
_symmetry_cell_setting monoclinic
_symmetry_space_group_name_H-M 'P 1 1 21/b'
_symmetry_Int_Tables_number 14
loop_
_symmetry_equiv_pos_site_id
_symmetry_equiv_pos_as_xyz
1 x,y,z
2 -x,1/2-y,1/2+z
3 -x,-y,-z
4 x,-1/2+y,-1/2-z
_cell_length_a 11.169(5)
_cell_length_b 21.535(10)
_cell_length_c 7.863(1)
_cell_angle_alpha 90
_cell_angle_beta 90
_cell_angle_gamma 122.45(2)
_cell_formula_units_Z 4
loop_
_atom_type_symbol
_atom_type_radius_bond
C 0.68
N 0.68
O 0.68
loop_
_atom_site_label
_atom_site_type_symbol
_atom_site_fract_x
_atom_site_fract_y
_atom_site_fract_z
O1 O 0.87520 0.39060 0.34610
O2 O 0.90590 0.30320 0.27760
N1 N 0.94440 0.36140 0.35310
C1 C 1.06920 0.39400 0.44860
C2 C 1.13020 0.46220 0.52350
N2 N 1.24990 0.47780 0.60050
C3 C 1.26740 0.41900 0.58050
C4 C 1.15620 0.36710 0.48470
C5 C 1.34270 0.54710 0.69180
C6 C 1.39030 0.42030 0.64900
O3 O 1.48570 0.47270 0.72650
N3 N 1.39030 0.35770 0.62720
C7 C 1.50040 0.34830 0.67960
C8 C 1.62020 0.39460 0.76660
N4 N 1.69620 0.36260 0.78940
C9 C 1.62340 0.29470 0.71340
C10 C 1.50110 0.28410 0.64650
C11 C 1.83530 0.39800 0.86790
C12 C 1.67410 0.24360 0.72180
O4 O 1.74880 0.24430 0.83690
N5 N 1.63090 0.19580 0.59110
C13 C 1.66260 0.13800 0.58510
C14 C 1.81280 0.16730 0.52640
C15 C 1.84010 0.10870 0.51830
N6 N 1.85940 0.06230 0.51330
#END
