
#######################################################################
#
#                 Cambridge Crystallographic Data Centre
#                                CCDC
#
#######################################################################
#
# If this CIF has been generated from an entry in the Cambridge
# Structural Database, then it will include bibliographic, chemical,
# crystal, experimental, refinement or atomic coordinate data resulting
# from the CCDC's data processing and validation procedures.
#
#######################################################################

data_CSD_CIF_NMZNON
_audit_creation_date 1976-05-03
_audit_creation_method CSD-ConQuest-V1
_database_code_CSD NMZNON
_chemical_formula_sum 'C9 H13 N3 O5'
_chemical_formula_moiety
;
C9 H13 N3 O5
;
_journal_coeditor_code "IUCr A13032"
_journal_coden_Cambridge 107
_journal_volume 32
_journal_year 1976
_journal_page_first 1
_journal_name_full 'Acta Crystallogr.,Sect.B:Struct.Crystallogr.Cryst.Chem. '
loop_
_publ_author_name
"M.Kaftory"
"J.D.Dunitz"
_chemical_name_systematic
;
1,5-Dinitro-3-methyl-3-azabicyclo(3.3.1)nonan-7-one
;
_cell_volume   1123.654
_exptl_crystal_density_diffrn 1.434
_exptl_special_details
;
A polymorph

;
_diffrn_ambient_temperature ?
_diffrn_special_details
;
The study was carried out at room temperature,in the range 283-303K

;
#These two values have been output from a single CSD field.
_refine_ls_R_factor_gt 0.086
_refine_ls_wR_factor_gt 0.086
_symmetry_cell_setting monoclinic
_symmetry_space_group_name_H-M 'P 21/c'
_symmetry_Int_Tables_number 14
loop_
_symmetry_equiv_pos_site_id
_symmetry_equiv_pos_as_xyz
1 x,y,z
2 -x,1/2+y,1/2-z
3 -x,-y,-z
4 x,-1/2-y,-1/2+z
_cell_length_a 8.018
_cell_length_b 20.247
_cell_length_c 8.346
_cell_angle_alpha 90
_cell_angle_beta 123.97
_cell_angle_gamma 90
_cell_formula_units_Z 4
loop_
_atom_type_symbol
_atom_type_radius_bond
C 0.68
H 0.23
N 0.68
O 0.68
loop_
_atom_site_label
_atom_site_type_symbol
_atom_site_fract_x
_atom_site_fract_y
_atom_site_fract_z
C1 C 0.37680 0.14830 0.36760
C2 C 0.31240 0.21940 0.34830
C3 C 0.09830 0.22620 0.29670
C4 C -0.05260 0.17750 0.16200
C5 C 0.03430 0.10780 0.18940
C6 C 0.07770 0.07670 0.37610
C7 C 0.41860 0.11560 0.55130
C8 C 0.22410 0.10800 0.18980
C9 C 0.25190 0.09670 0.71560
H1 H 0.11900 0.10400 0.68700
H2 H 0.34400 0.12400 0.80400
H3 H 0.29100 0.05100 0.74200
H4 H 0.40200 0.24600 0.46600
H5 H 0.32400 0.24300 0.23700
H6 H -0.16500 0.17800 0.15800
H7 H -0.09300 0.19000 0.04900
H8 H 0.20200 0.13300 0.07800
H9 H 0.26500 0.06500 0.19600
H10 H 0.13300 0.02900 0.40400
H11 H -0.03500 0.07200 0.36700
H12 H 0.52400 0.14400 0.66900
H13 H 0.46500 0.07200 0.55600
N1 N 0.57490 0.14460 0.37450
N2 N -0.12540 0.06710 0.01880
N3 N 0.22900 0.11760 0.53730
O1 O 0.63460 0.19270 0.34430
O2 O 0.66180 0.09350 0.41770
O3 O -0.11380 0.06110 -0.11840
O4 O -0.25940 0.04380 0.02650
O5 O 0.05540 0.27230 0.35960
#END
