
#######################################################################
#
#                 Cambridge Crystallographic Data Centre
#                                CCDC
#
#######################################################################
#
# If this CIF has been generated from an entry in the Cambridge
# Structural Database, then it will include bibliographic, chemical,
# crystal, experimental, refinement or atomic coordinate data resulting
# from the CCDC's data processing and validation procedures.
#
#######################################################################

data_CSD_CIF_NODTAB01
_audit_creation_date 2011-08-30
_audit_creation_method CSD-ConQuest-V1
_database_code_CSD NODTAB01
_database_code_depnum_ccdc_archive 'CCDC 835572'
_chemical_formula_sum 'C17 H18 N2 O2'
_chemical_formula_moiety
;
C17 H18 N2 O2
;
_journal_coden_Cambridge 1336
_journal_volume 13
_journal_year 2011
_journal_page_first 192
_journal_name_full 'Org.Lett. '
loop_
_publ_author_name
"A.Bigot"
"J.Blythe"
"C.Pandya"
"T.Wagner"
"O.Loiseleur"
_chemical_name_systematic
;
5,5-Dimethyl-3,6-diphenyl-5,6-dihydro-4H-1,2,4-oxadiazin-6-ol
;
_chemical_melting_point 453.15
_cell_volume   1441.483
_exptl_crystal_density_diffrn 1.301
_diffrn_ambient_temperature 100
#These two values have been output from a single CSD field.
_refine_ls_R_factor_gt 0.0343
_refine_ls_wR_factor_gt 0.0343
_symmetry_cell_setting monoclinic
_symmetry_space_group_name_H-M 'C c'
_symmetry_Int_Tables_number 9
loop_
_symmetry_equiv_pos_site_id
_symmetry_equiv_pos_as_xyz
1 x,y,z
2 x,-y,1/2+z
3 1/2+x,1/2+y,z
4 1/2+x,1/2-y,1/2+z
_cell_length_a 8.782(4)
_cell_length_b 19.177(8)
_cell_length_c 9.362(4)
_cell_angle_alpha 90
_cell_angle_beta 113.90(2)
_cell_angle_gamma 90
_cell_formula_units_Z 4
loop_
_atom_type_symbol
_atom_type_radius_bond
C 0.68
H 0.23
N 0.68
O 0.68
loop_
_atom_site_label
_atom_site_type_symbol
_atom_site_fract_x
_atom_site_fract_y
_atom_site_fract_z
C1 C 0.5251(2) 0.13063(9) 0.8515(2)
H1 H 0.55440 0.11380 0.95470
C2 C 0.6319(2) 0.17549(10) 0.8202(2)
H2 H 0.73310 0.18980 0.90220
C3 C 0.5903(2) 0.19947(10) 0.6685(2)
H3 H 0.66310 0.23020 0.64680
C4 C 0.4433(2) 0.17848(9) 0.5501(2)
H4 H 0.41570 0.19460 0.44660
C5 C 0.3348(2) 0.13405(9) 0.5804(2)
H5 H 0.23350 0.12000 0.49820
C6 C 0.3759(2) 0.11016(8) 0.7330(2)
C7 C 0.2564(2) 0.06380(8) 0.7704(2)
O1 O 0.17718(15) 0.02146(6) 0.63277(14)
N1 N 0.05030(18) -0.02542(7) 0.63523(17)
C8 C -0.0173(2) -0.00906(9) 0.7313(2)
N2 N 0.01111(18) 0.04961(7) 0.81813(17)
H6 H -0.004(3) 0.0474(11) 0.902(3)
C9 C 0.1166(2) 0.10415(8) 0.7975(2)
C10 C -0.1354(2) -0.06129(9) 0.74601(19)
C11 C -0.1091(2) -0.13199(9) 0.73067(19)
H7 H -0.01720 -0.14650 0.70910
C12 C -0.2163(2) -0.18117(9) 0.7468(2)
H8 H -0.19820 -0.22940 0.73610
C13 C -0.3506(2) -0.15982(10) 0.7787(2)
H9 H -0.42450 -0.19360 0.78930
C14 C -0.3771(2) -0.08973(9) 0.7951(2)
H10 H -0.46860 -0.07550 0.81780
C15 C -0.2705(2) -0.04011(9) 0.7785(2)
H11 H -0.28910 0.00800 0.78910
C16 C 0.0113(2) 0.14834(9) 0.6562(2)
H12 H -0.03410 0.11870 0.56310
H13 H 0.08090 0.18490 0.64010
H14 H -0.08030 0.16990 0.67450
C17 C 0.1862(2) 0.14834(9) 0.9454(2)
H15 H 0.09410 0.17010 0.96290
H16 H 0.25870 0.18470 0.93370
H17 H 0.25050 0.11870 1.03490
O2 O 0.34885(15) 0.02206(6) 0.89864(14)
H18 H 0.291(3) 0.0107(12) 0.947(3)
#END
