
#######################################################################
#
#                 Cambridge Crystallographic Data Centre
#                                CCDC
#
#######################################################################
#
# If this CIF has been generated from an entry in the Cambridge
# Structural Database, then it will include bibliographic, chemical,
# crystal, experimental, refinement or atomic coordinate data resulting
# from the CCDC's data processing and validation procedures.
#
#######################################################################

data_CSD_CIF_NODXEK
_audit_creation_date 2008-12-16
_audit_creation_method CSD-ConQuest-V1
_database_code_CSD NODXEK
_database_code_depnum_ccdc_archive 'CCDC 710734'
_chemical_formula_sum 'C19 H17 N1 O5'
_chemical_formula_moiety
;
C19 H17 N1 O5
;
_journal_coden_Cambridge 542
_journal_volume 34
_journal_year 1999
_journal_page_first 1339
_journal_name_full 'Cryst.Res.Technol. '
loop_
_publ_author_name
"J.Jeyakanthan"
"D.Velmurugan"
_chemical_name_systematic
;
1,8-Dioxo-9-(2-nitrophenyl)-1,2,3,4,5,6,7,8-octahydroxanthene
;
_chemical_name_common
;
NZ-105
;
_cell_volume   1591.600
_exptl_crystal_colour 'yellow'
_exptl_crystal_density_diffrn 1.399
_exptl_special_details
;
potent antihypertensive agent in dogs

;
_exptl_crystal_description 'rectangular'
_exptl_crystal_preparation 'ethanol'
_diffrn_ambient_temperature 293
#These two values have been output from a single CSD field.
_refine_ls_R_factor_gt 0.0566
_refine_ls_wR_factor_gt 0.0566
_symmetry_cell_setting monoclinic
_symmetry_space_group_name_H-M 'P 21/a'
_symmetry_Int_Tables_number 14
loop_
_symmetry_equiv_pos_site_id
_symmetry_equiv_pos_as_xyz
1 x,y,z
2 1/2-x,1/2+y,-z
3 -x,-y,-z
4 -1/2+x,-1/2-y,z
_cell_length_a 10.809(2)
_cell_length_b 9.998(2)
_cell_length_c 14.855(3)
_cell_angle_alpha 90
_cell_angle_beta 97.506(2)
_cell_angle_gamma 90
_cell_formula_units_Z 4
loop_
_atom_type_symbol
_atom_type_radius_bond
C 0.68
H 0.23
N 0.68
O 0.68
loop_
_atom_site_label
_atom_site_type_symbol
_atom_site_fract_x
_atom_site_fract_y
_atom_site_fract_z
N1 N -0.0027(2) 0.5010(3) 0.3177(2)
O1 O 0.3955(2) 0.5091(2) 0.3811(1)
O2 O 0.2310(2) 0.4962(2) 0.0403(1)
O3 O -0.0149(3) 0.5052(3) 0.3980(2)
O4 O -0.0505(2) 0.4182(2) 0.2657(2)
C1 C 0.0390(3) 0.1559(3) 0.0950(2)
C2 C 0.1085(3) 0.2413(3) 0.1659(2)
C3 C -0.0050(4) 0.2354(4) 0.0118(2)
C4 C 0.0973(4) 0.3191(4) -0.0174(2)
C5 C 0.1671(3) 0.4006(3) 0.0569(2)
C6 C 0.1630(3) 0.3583(3) 0.1509(2)
C7 C 0.3351(2) 0.4072(3) 0.3884(2)
C8 C 0.2451(2) 0.3611(2) 0.3135(2)
C9 C 0.3544(3) 0.3237(3) 0.4729(2)
C10 C 0.2393(3) 0.2469(3) 0.4882(2)
C11 C 0.1934(3) 0.1637(3) 0.4056(2)
C12 C 0.1864(2) 0.2449(3) 0.3214(2)
C13 C 0.2298(2) 0.4413(2) 0.2267(2)
O5 O 0.1121(2) 0.1860(2) 0.2505(1)
C14 C 0.1727(2) 0.5793(2) 0.2376(2)
C15 C 0.2313(3) 0.6907(3) 0.2069(2)
C16 C 0.1915(3) 0.8196(3) 0.2192(2)
C17 C 0.0920(3) 0.8426(3) 0.2643(2)
C18 C 0.0315(3) 0.7363(3) 0.2975(2)
C19 C 0.0713(3) 0.6080(3) 0.2824(2)
H1 H -0.0322(3) 0.1162(3) 0.1185(2)
H2 H 0.0926(3) 0.0840(3) 0.0794(2)
H3 H -0.0732(4) 0.2930(4) 0.0239(2)
H4 H -0.0364(4) 0.1751(4) -0.0370(2)
H5 H 0.1558(4) 0.2608(4) -0.0425(2)
H6 H 0.0618(4) 0.3788(4) -0.0653(2)
H7 H 0.3787(3) 0.3814(3) 0.5247(2)
H8 H 0.4221(3) 0.2613(3) 0.4686(2)
H9 H 0.1744(3) 0.3087(3) 0.5005(2)
H10 H 0.2581(3) 0.1889(3) 0.5406(2)
H11 H 0.2496(3) 0.0889(3) 0.4016(2)
H12 H 0.1115(3) 0.1281(3) 0.4117(2)
H13 H 0.3141(2) 0.4568(2) 0.2113(2)
H14 H 0.3005(3) 0.6779(3) 0.1767(2)
H15 H 0.2329(3) 0.8912(3) 0.1965(2)
H16 H 0.0652(3) 0.9296(3) 0.2727(2)
H17 H -0.0356(3) 0.7505(3) 0.3297(2)
#END
