
#######################################################################
#
#                 Cambridge Crystallographic Data Centre
#                                CCDC
#
#######################################################################
#
# If this CIF has been generated from an entry in the Cambridge
# Structural Database, then it will include bibliographic, chemical,
# crystal, experimental, refinement or atomic coordinate data resulting
# from the CCDC's data processing and validation procedures.
#
#######################################################################

data_CSD_CIF_NODYIO
_audit_creation_date 1998-06-26
_audit_creation_method CSD-ConQuest-V1
_database_code_CSD NODYIO
_chemical_formula_sum 'C20 H21 N1 O3'
_chemical_formula_moiety
;
C20 H21 N1 O3
;
_journal_coden_Cambridge 388
_journal_volume 33
_journal_year 1997
_journal_page_first 1363
_journal_name_full 'Zh.Org.Khim.(Russ.)(Russ.J.Org.Chem.) '
loop_
_publ_author_name
"I.V.Blokhin"
"Yu.M.Atroshchenko"
"O.V.Shishkin"
"S.S.Gitis"
"E.N.Alifanova"
"N.I.Blokhina"
"A.Ya.Kaminsky"
"Yu.D.Grudtsyn"
"V.F.Andrianov"
"I.V.Shakhkel'dyan"
_chemical_name_systematic
;
9-Nitro-10-(1-acetyl-n-butyl)-9,10-dihydroanthracene
;
_chemical_melting_point 419.15
_cell_volume   3484.910
_exptl_crystal_density_diffrn 1.233
_exptl_special_details
;
Melting point range 419.15-420.15K

;
_exptl_crystal_preparation 'acetone'
_diffrn_ambient_temperature ?
_diffrn_special_details
;
The study was carried out at room temperature,in the range 283-303K

;
#These two values have been output from a single CSD field.
_refine_ls_R_factor_gt 0.0474
_refine_ls_wR_factor_gt 0.0474
_symmetry_cell_setting orthorhombic
_symmetry_space_group_name_H-M 'P b c a'
_symmetry_Int_Tables_number 61
loop_
_symmetry_equiv_pos_site_id
_symmetry_equiv_pos_as_xyz
1 x,y,z
2 1/2+x,y,1/2-z
3 x,1/2-y,1/2+z
4 1/2-x,1/2+y,z
5 -x,-y,-z
6 -1/2-x,-y,-1/2+z
7 -x,-1/2+y,-1/2-z
8 -1/2+x,-1/2-y,-z
_cell_length_a 14.150(3)
_cell_length_b 15.102(3)
_cell_length_c 16.308(3)
_cell_angle_alpha 90
_cell_angle_beta 90
_cell_angle_gamma 90
_cell_formula_units_Z 8
loop_
_atom_type_symbol
_atom_type_radius_bond
C 0.68
H 0.23
N 0.68
O 0.68
loop_
_atom_site_label
_atom_site_type_symbol
_atom_site_fract_x
_atom_site_fract_y
_atom_site_fract_z
N1 N 0.28208(13) -0.09085(11) 0.55486(12)
O1 O 0.3270(2) -0.1163(2) 0.61227(13)
O2 O 0.30358(15) -0.10745(14) 0.48636(12)
O3 O 0.38913(13) 0.25614(13) 0.60446(11)
C1 C 0.1211(2) 0.1363(2) 0.42380(14)
H1 H 0.1217(2) 0.2036(2) 0.41982(14)
C2 C 0.0679(2) 0.0889(2) 0.3678(2)
H2 H 0.0415(2) 0.1234(2) 0.3266(2)
C3 C 0.0548(2) -0.0013(2) 0.37666(14)
H3 H 0.0196(2) -0.0325(2) 0.32968(14)
C4 C 0.09439(15) -0.0440(2) 0.44323(14)
H4 H 0.07843(15) -0.1129(2) 0.45053(14)
C5 C 0.14953(14) 0.00265(14) 0.49924(11)
C6 C 0.18682(14) -0.04408(14) 0.57357(12)
H5 H 0.13933(14) -0.09905(14) 0.58417(12)
C7 C 0.19892(13) 0.01517(14) 0.64703(12)
C8 C 0.19086(15) -0.0198(2) 0.72595(13)
H6 H 0.18030(15) -0.0854(2) 0.72450(13)
C9 C 0.1987(2) 0.0349(2) 0.79331(14)
H7 H 0.1997(2) 0.0149(2) 0.84951(14)
C10 C 0.2125(2) 0.1243(2) 0.78270(15)
H8 H 0.2216(2) 0.1597(2) 0.83431(15)
C11 C 0.2196(2) 0.1591(2) 0.70463(13)
H9 H 0.2220(2) 0.2223(2) 0.69668(13)
C12 C 0.21404(14) 0.10479(14) 0.63589(12)
C13 C 0.22583(14) 0.14207(13) 0.55026(12)
H10 H 0.20231(14) 0.20182(13) 0.55004(12)
C14 C 0.16402(14) 0.09193(15) 0.48970(12)
C15 C 0.33180(14) 0.13805(13) 0.52234(13)
H11 H 0.36061(14) 0.08027(13) 0.51368(13)
C16 C 0.39441(15) 0.1778(2) 0.58842(13)
C17 C 0.4604(3) 0.1198(2) 0.6335(2)
H12 H 0.5003(3) 0.1510(2) 0.6759(2)
H13 H 0.4255(34) 0.0631(34) 0.6619(31)
H14 H 0.4978(24) 0.0917(23) 0.5990(19)
C18 C 0.3487(2) 0.18600(15) 0.44055(13)
H15 H 0.3022(2) 0.15464(15) 0.39926(13)
H16 H 0.3234(2) 0.24714(15) 0.44636(13)
C19 C 0.4513(2) 0.1813(2) 0.4112(2)
H17 H 0.4599(2) 0.1105(2) 0.4057(2)
H18 H 0.5014(2) 0.2207(2) 0.4530(2)
C20 C 0.4656(2) 0.2283(2) 0.3311(2)
H19 H 0.4417(2) 0.2092(2) 0.2898(2)
H20 H 0.5223(2) 0.2268(2) 0.3091(2)
H21 H 0.4414(2) 0.3011(2) 0.3357(2)
#END
