
#######################################################################
#
#                 Cambridge Crystallographic Data Centre
#                                CCDC
#
#######################################################################
#
# If this CIF has been generated from an entry in the Cambridge
# Structural Database, then it will include bibliographic, chemical,
# crystal, experimental, refinement or atomic coordinate data resulting
# from the CCDC's data processing and validation procedures.
#
#######################################################################

data_CSD_CIF_NOFBEP
_audit_creation_date 1998-06-26
_audit_creation_method CSD-ConQuest-V1
_database_code_CSD NOFBEP
_chemical_formula_sum 'C13 H19 N3 O4'
_chemical_formula_moiety
;
C13 H19 N3 O4
;
_journal_coden_Cambridge 388
_journal_volume 33
_journal_year 1997
_journal_page_first 1044
_journal_name_full 'Zh.Org.Khim.(Russ.)(Russ.J.Org.Chem.) '
loop_
_publ_author_name
"A.Ya.Strakov"
"O.Ya.Neiland"
"T.F.Kozlovskaya"
"I.A.Strakova"
"M.V.Petrova"
"A.A.Kemme"
"A.F.Mishnev"
_chemical_name_systematic
;
2-(2-(N,N'-Dimethylamidinio)-2-nitroethanylidene)-5,5-dimethylcyclohexan-1,3-d
ione
;
_chemical_melting_point 491.15
_cell_volume    700.947
_exptl_crystal_colour 'yellow-orange'
_exptl_crystal_density_diffrn 1.333
_exptl_special_details
;
Melting point range 491.15-492.15K

;
_exptl_crystal_preparation 'ethanol'
_diffrn_ambient_temperature ?
_diffrn_special_details
;
The study was carried out at room temperature,in the range 283-303K

;
#These two values have been output from a single CSD field.
_refine_ls_R_factor_gt 0.047
_refine_ls_wR_factor_gt 0.047
_symmetry_cell_setting triclinic
_symmetry_space_group_name_H-M 'P -1'
_symmetry_Int_Tables_number 2
loop_
_symmetry_equiv_pos_site_id
_symmetry_equiv_pos_as_xyz
1 x,y,z
2 -x,-y,-z
_cell_length_a 8.262(2)
_cell_length_b 9.079(2)
_cell_length_c 10.065(2)
_cell_angle_alpha 89.27(2)
_cell_angle_beta 70.86(2)
_cell_angle_gamma 79.72(2)
_cell_formula_units_Z 2
loop_
_atom_type_symbol
_atom_type_radius_bond
C 0.68
H 0.23
N 0.68
O 0.68
loop_
_atom_site_label
_atom_site_type_symbol
_atom_site_fract_x
_atom_site_fract_y
_atom_site_fract_z
O1 O -0.6637(3) 0.4330(2) 0.4245(2)
O2 O -0.1841(3) 0.0627(2) 0.4053(2)
O3 O -0.7200(3) 0.1881(3) 0.8334(2)
O4 O -0.5084(3) 0.1824(3) 0.9145(2)
N1 N -0.5661(3) 0.1857(3) 0.8158(3)
N2 N -0.1873(3) 0.2839(3) 0.6305(2)
N3 N -0.1802(3) 0.0421(3) 0.6979(2)
C1 C -0.5203(4) 0.3548(3) 0.3598(3)
C2 C -0.4292(3) 0.2478(3) 0.4287(3)
C3 C -0.2672(4) 0.1552(3) 0.3498(3)
C4 C -0.2023(4) 0.1679(3) 0.1939(3)
C5 C -0.2436(4) 0.3245(3) 0.1462(3)
C6 C -0.4394(4) 0.3741(3) 0.2057(3)
C7 C -0.5120(4) 0.2365(3) 0.5741(3)
C8 C -0.4459(3) 0.1875(3) 0.6770(3)
C9 C -0.2623(4) 0.1674(3) 0.6679(3)
C10 C -0.0061(4) 0.2849(4) 0.6103(3)
C11 C -0.2566(4) -0.0905(3) 0.7373(3)
C12 C -0.1822(5) 0.3236(4) -0.0137(3)
C13 C -0.1515(4) 0.4281(4) 0.2012(4)
H1 H -0.2500(3) 0.3652(3) 0.6169(2)
H2 H -0.0739(3) 0.0378(3) 0.6941(2)
H3 H -0.2529(4) 0.1013(3) 0.1513(3)
H4 H -0.0769(4) 0.1343(3) 0.1598(3)
H5 H -0.4677(4) 0.4792(3) 0.1878(3)
H6 H -0.4923(4) 0.3184(3) 0.1549(3)
H7 H -0.6323(4) 0.2680(3) 0.6047(3)
H8 H 0.0207(7) 0.3807(8) 0.5785(20)
H9 H 0.0662(4) 0.2078(15) 0.5412(15)
H10 H 0.0153(7) 0.2670(22) 0.6978(6)
H11 H -0.3201(23) -0.0834(11) 0.8364(5)
H12 H -0.1659(5) -0.1777(4) 0.7155(20)
H13 H -0.3345(21) -0.0983(13) 0.6859(16)
H14 H -0.0575(5) 0.2957(26) -0.0498(3)
H15 H -0.2171(27) 0.4217(8) -0.0430(3)
H16 H -0.2332(25) 0.2527(19) -0.0439(3)
H17 H -0.0280(5) 0.3913(14) 0.1668(19)
H18 H -0.1923(22) 0.4313(20) 0.3023(4)
H19 H -0.1760(24) 0.5217(7) 0.1694(20)
#END
