
#######################################################################
#
#                 Cambridge Crystallographic Data Centre
#                                CCDC
#
#######################################################################
#
# If this CIF has been generated from an entry in the Cambridge
# Structural Database, then it will include bibliographic, chemical,
# crystal, experimental, refinement or atomic coordinate data resulting
# from the CCDC's data processing and validation procedures.
#
#######################################################################

data_CSD_CIF_NOFLUP
_audit_creation_date 1998-06-25
_audit_creation_method CSD-ConQuest-V1
_database_code_CSD NOFLUP
_database_code_depnum_ccdc_archive 'CCDC 129988'
_chemical_formula_sum 'C14 H14 N2 O3'
_chemical_formula_moiety
;
C14 H14 N2 O3
;
_journal_coeditor_code "IUCr QA0037"
_journal_data_validation_number IUC9800012
_journal_coden_Cambridge 591
_journal_volume 54
_journal_year 1998
_journal_page_first 9800012
_journal_name_full 'Acta Crystallogr.,Sect.C:Cryst.Struct.Commun. '
loop_
_publ_author_name
"K.Chinnakali"
"Hoong Kun Fun"
"K.Sriraghavan"
"V.T.Ramakrishnan"
_chemical_name_systematic
;
2-Hydroxy-N-(4-nitrophenyl)phenethylamine
;
_cell_volume   1296.059
_exptl_crystal_colour 'yellow'
_exptl_crystal_density_diffrn 1.324
_exptl_crystal_description 'parallelepiped'
_diffrn_ambient_temperature ?
_diffrn_special_details
;
The study was carried out at room temperature,in the range 283-303K

;
#These two values have been output from a single CSD field.
_refine_ls_R_factor_gt 0.046
_refine_ls_wR_factor_gt 0.046
_symmetry_cell_setting monoclinic
_symmetry_space_group_name_H-M 'P 21/n'
_symmetry_Int_Tables_number 14
loop_
_symmetry_equiv_pos_site_id
_symmetry_equiv_pos_as_xyz
1 x,y,z
2 1/2-x,1/2+y,1/2-z
3 -x,-y,-z
4 -1/2+x,-1/2-y,-1/2+z
_cell_length_a 8.2820(2)
_cell_length_b 7.8396(1)
_cell_length_c 20.2459(4)
_cell_angle_alpha 90
_cell_angle_beta 99.613(1)
_cell_angle_gamma 90
_cell_formula_units_Z 4
loop_
_atom_type_symbol
_atom_type_radius_bond
C 0.68
H 0.23
N 0.68
O 0.68
loop_
_atom_site_label
_atom_site_type_symbol
_atom_site_fract_x
_atom_site_fract_y
_atom_site_fract_z
O1 O 0.3625(2) 0.3066(2) 0.12328(7)
O2 O 0.5000(2) 0.1310(2) 0.07317(7)
O3 O 0.26526(15) 0.9220(2) -0.19726(6)
N1 N 0.4033(2) 0.2511(2) 0.07195(8)
N2 N 0.1734(2) 0.5669(2) -0.17267(7)
C1 C 0.3389(2) 0.3274(2) 0.00825(7)
C2 C 0.3875(2) 0.2681(2) -0.05027(9)
C3 C 0.3307(2) 0.3469(2) -0.10982(8)
C4 C 0.2241(2) 0.4884(2) -0.11317(7)
C5 C 0.1744(2) 0.5421(2) -0.05318(8)
C6 C 0.2318(2) 0.4625(2) 0.00644(8)
C7 C 0.0619(2) 0.7107(2) -0.18186(8)
C8 C 0.1429(2) 0.8801(2) -0.15762(7)
C9 C 0.0168(2) 1.0200(2) -0.16012(7)
C10 C -0.0210(2) 1.1294(2) -0.21436(8)
C11 C -0.1404(2) 1.2545(3) -0.21496(10)
C12 C -0.2234(3) 1.2704(3) -0.16223(12)
C13 C -0.1891(3) 1.1616(3) -0.10839(12)
C14 C -0.0689(3) 1.0370(3) -0.10711(10)
H1 H 0.2037(23) 0.5231(25) -0.2089(10)
H2 H 0.3536(30) 0.8945(30) -0.1761(12)
H3 H 0.4543(23) 0.1748(25) -0.0490(9)
H4 H 0.3634(23) 0.3082(25) -0.1507(10)
H5 H 0.1026(21) 0.6344(23) -0.0534(9)
H6 H 0.1965(22) 0.5022(24) 0.0458(9)
H7 H 0.0242(21) 0.7217(21) -0.2310(9)
H8 H -0.0282(21) 0.6878(21) -0.1599(8)
H9 H 0.1951(18) 0.8656(19) -0.1108(8)
H10 H 0.0342(22) 1.1201(23) -0.2519(10)
H11 H -0.1598(25) 1.3283(27) -0.2529(11)
H12 H -0.3018(26) 1.3588(30) -0.1616(11)
H13 H -0.2481(30) 1.1660(32) -0.0712(12)
H14 H -0.0451(25) 0.9598(27) -0.0716(11)
#END
