
#######################################################################
#
#                 Cambridge Crystallographic Data Centre
#                                CCDC
#
#######################################################################
#
# If this CIF has been generated from an entry in the Cambridge
# Structural Database, then it will include bibliographic, chemical,
# crystal, experimental, refinement or atomic coordinate data resulting
# from the CCDC's data processing and validation procedures.
#
#######################################################################

data_CSD_CIF_NOFNED
_audit_creation_date 2014-07-12
_audit_creation_method CSD-ConQuest-V1
_database_code_CSD NOFNED
_database_code_depnum_ccdc_archive 'CCDC 986891'
_chemical_formula_sum 'C13 H11 N1 O3'
_chemical_formula_moiety
;
C13 H11 N1 O3
;
_journal_coden_Cambridge 182
_journal_volume 50
_journal_year 2014
_journal_page_first 9481
_journal_name_full 'Chem.Commun. '
loop_
_publ_author_name
"A.Kumar"
"A.Yadav"
"A.Verma"
"Sadhan Jana"
"M.Sattar"
"S.Kumar"
"Ch D.Prasad"
"S.Kumar"
_chemical_name_systematic
;
3-Methyl-2'-nitrobiphenyl-4-ol
;
_cell_volume   1107.463
_exptl_crystal_density_diffrn 1.375
_diffrn_ambient_temperature 296
#These two values have been output from a single CSD field.
_refine_ls_R_factor_gt 0.0414
_refine_ls_wR_factor_gt 0.0414
_symmetry_cell_setting orthorhombic
_symmetry_space_group_name_H-M 'P c a 21'
_symmetry_Int_Tables_number 29
loop_
_symmetry_equiv_pos_site_id
_symmetry_equiv_pos_as_xyz
1 x,y,z
2 -x,-y,1/2+z
3 1/2-x,y,1/2+z
4 1/2+x,-y,z
_cell_length_a 14.4397(11)
_cell_length_b 10.6268(9)
_cell_length_c 7.2172(5)
_cell_angle_alpha 90
_cell_angle_beta 90
_cell_angle_gamma 90
_cell_formula_units_Z 4
loop_
_atom_type_symbol
_atom_type_radius_bond
C 0.68
H 0.23
N 0.68
O 0.68
loop_
_atom_site_label
_atom_site_type_symbol
_atom_site_fract_x
_atom_site_fract_y
_atom_site_fract_z
O1 O 0.05101(13) 1.24127(16) 0.8821(3)
H1 H 0.032(2) 1.254(3) 0.778(6)
O2 O -0.00855(12) 0.69790(18) 1.0075(3)
O3 O -0.00244(13) 0.56489(19) 0.7819(4)
N1 N 0.03513(13) 0.63173(19) 0.8986(4)
C1 C 0.08197(15) 1.1190(2) 0.8884(4)
C2 C 0.14585(15) 1.0887(2) 1.0258(3)
C3 C 0.17699(15) 0.9651(2) 1.0329(3)
H2 H 0.22040 0.94330 1.12260
C4 C 0.14580(14) 0.8723(2) 0.9108(4)
C5 C 0.18607(15) 0.7437(2) 0.9179(3)
C6 C 0.28227(15) 0.7306(2) 0.9288(4)
H3 H 0.31870 0.80260 0.93620
C7 C 0.32507(17) 0.6142(2) 0.9291(4)
H4 H 0.38920 0.60900 0.93920
C8 C 0.27299(18) 0.5060(2) 0.9144(4)
H5 H 0.30190 0.42780 0.91250
C9 C 0.17778(17) 0.5140(2) 0.9025(4)
H6 H 0.14190 0.44160 0.89250
C10 C 0.13666(15) 0.6317(2) 0.9057(4)
C11 C 0.08176(15) 0.9067(2) 0.7756(4)
H7 H 0.05980 0.84650 0.69300
C12 C 0.05055(16) 1.0290(2) 0.7629(4)
H8 H 0.00860 1.05140 0.67090
C13 C 0.1793(2) 1.1851(3) 1.1612(4)
H9 H 0.21510 1.24760 1.09730
H10 H 0.21710 1.14520 1.25350
H11 H 0.12710 1.22450 1.21990
#END
