
#######################################################################
#
#                 Cambridge Crystallographic Data Centre
#                                CCDC
#
#######################################################################
#
# If this CIF has been generated from an entry in the Cambridge
# Structural Database, then it will include bibliographic, chemical,
# crystal, experimental, refinement or atomic coordinate data resulting
# from the CCDC's data processing and validation procedures.
#
#######################################################################

data_CSD_CIF_NOFNIH
_audit_creation_date 2014-07-12
_audit_creation_method CSD-ConQuest-V1
_database_code_CSD NOFNIH
_database_code_depnum_ccdc_archive 'CCDC 986893'
_chemical_formula_sum 'C16 H17 N1 O3'
_chemical_formula_moiety
;
C16 H17 N1 O3
;
_journal_coden_Cambridge 182
_journal_volume 50
_journal_year 2014
_journal_page_first 9481
_journal_name_full 'Chem.Commun. '
loop_
_publ_author_name
"A.Kumar"
"A.Yadav"
"A.Verma"
"Sadhan Jana"
"M.Sattar"
"S.Kumar"
"Ch D.Prasad"
"S.Kumar"
_chemical_name_systematic
;
2,3,4',5-Tetramethyl-2'-nitrobiphenyl-4-ol
;
_cell_volume    709.822
_exptl_crystal_colour 'yellow'
_exptl_crystal_density_diffrn 1.269
_diffrn_ambient_temperature 296
#These two values have been output from a single CSD field.
_refine_ls_R_factor_gt 0.0457
_refine_ls_wR_factor_gt 0.0457
_symmetry_cell_setting triclinic
_symmetry_space_group_name_H-M 'P -1'
_symmetry_Int_Tables_number 2
loop_
_symmetry_equiv_pos_site_id
_symmetry_equiv_pos_as_xyz
1 x,y,z
2 -x,-y,-z
_cell_length_a 6.8419(3)
_cell_length_b 8.4340(3)
_cell_length_c 12.6395(5)
_cell_angle_alpha 82.195(3)
_cell_angle_beta 79.847(3)
_cell_angle_gamma 85.040(2)
_cell_formula_units_Z 2
loop_
_atom_type_symbol
_atom_type_radius_bond
C 0.68
H 0.23
N 0.68
O 0.68
loop_
_atom_site_label
_atom_site_type_symbol
_atom_site_fract_x
_atom_site_fract_y
_atom_site_fract_z
O1 O -0.0248(2) 0.74295(17) -0.14039(12)
H1 H -0.116(4) 0.680(3) -0.141(2)
O2 O 0.1723(3) 0.37230(18) 0.39304(15)
O3 O 0.2850(3) 0.45272(17) 0.22689(15)
N1 N 0.2229(3) 0.47828(18) 0.31991(16)
C1 C 0.0078(3) 0.74893(19) -0.03661(16)
C2 C -0.1193(3) 0.68245(19) 0.05402(17)
C3 C -0.0745(3) 0.6883(2) 0.15704(16)
C4 C 0.0988(3) 0.75933(19) 0.16743(15)
C5 C 0.1587(3) 0.7718(2) 0.27335(16)
C6 C 0.1641(3) 0.9221(2) 0.30615(17)
H2 H 0.13230 1.01270 0.26010
C7 C 0.2147(3) 0.9423(2) 0.40426(18)
H3 H 0.21580 1.04550 0.42230
C8 C 0.2640(3) 0.8127(3) 0.47636(17)
C9 C 0.3136(4) 0.8343(3) 0.5849(2)
H4 H 0.32730 0.94590 0.58770
H5 H 0.43630 0.77440 0.59480
H6 H 0.20890 0.79640 0.64130
C10 C -0.2135(3) 0.6236(3) 0.25735(19)
H7 H -0.34530 0.67170 0.25500
H8 H -0.16840 0.64870 0.32050
H9 H -0.21500 0.50940 0.26020
C11 C 0.2155(3) 0.82984(19) 0.07416(15)
H10 H 0.32560 0.88240 0.08150
C12 C 0.1756(3) 0.82540(19) -0.02822(16)
C13 C 0.3095(4) 0.8960(2) -0.12826(17)
H11 H 0.41080 0.95140 -0.10750
H12 H 0.23240 0.97000 -0.17170
H13 H 0.37050 0.81170 -0.16930
C14 C 0.2601(3) 0.6612(2) 0.44576(17)
H14 H 0.29040 0.57090 0.49240
C15 C 0.2118(3) 0.6432(2) 0.34721(16)
C16 C -0.3027(3) 0.6071(2) 0.03800(19)
H15 H -0.38060 0.68390 -0.00320
H16 H -0.38030 0.57400 0.10730
H17 H -0.26370 0.51550 -0.00020
#END
