
#######################################################################
#
#                 Cambridge Crystallographic Data Centre
#                                CCDC
#
#######################################################################
#
# If this CIF has been generated from an entry in the Cambridge
# Structural Database, then it will include bibliographic, chemical,
# crystal, experimental, refinement or atomic coordinate data resulting
# from the CCDC's data processing and validation procedures.
#
#######################################################################

data_CSD_CIF_NOGRIM
_audit_creation_date 2014-07-12
_audit_creation_method CSD-ConQuest-V1
_database_code_CSD NOGRIM
_database_code_depnum_ccdc_archive 'CCDC 965019'
_chemical_formula_sum 'C18 H18 N4 O4'
_chemical_formula_moiety
;
C18 H18 N4 O4
;
_journal_coden_Cambridge 24
_journal_volume 55
_journal_year 2014
_journal_page_first 3052
_journal_name_full 'Tetrahedron Lett. '
loop_
_publ_author_name
"G.Marandi"
"L.Saghatforoush"
"R.Mendoza-Merono"
"S.Garcia-Granda"
_chemical_name_systematic
;
3-(t-Butylamino)-2-(3-nitrophenyl)imidazo[1,2-a]pyridine-8-carboxylic acid
;
_cell_volume    832.212
_exptl_crystal_colour 'yellow'
_exptl_crystal_density_diffrn 1.414
_exptl_crystal_description 'block'
_diffrn_ambient_temperature 293
#These two values have been output from a single CSD field.
_refine_ls_R_factor_gt 0.0586
_refine_ls_wR_factor_gt 0.0586
_symmetry_cell_setting triclinic
_symmetry_space_group_name_H-M 'P -1'
_symmetry_Int_Tables_number 2
loop_
_symmetry_equiv_pos_site_id
_symmetry_equiv_pos_as_xyz
1 x,y,z
2 -x,-y,-z
_cell_length_a 8.4010(3)
_cell_length_b 10.2130(3)
_cell_length_c 10.7140(4)
_cell_angle_alpha 94.776(3)
_cell_angle_beta 112.841(3)
_cell_angle_gamma 97.013(3)
_cell_formula_units_Z 2
loop_
_atom_type_symbol
_atom_type_radius_bond
C 0.68
H 0.23
N 0.68
O 0.68
loop_
_atom_site_label
_atom_site_type_symbol
_atom_site_fract_x
_atom_site_fract_y
_atom_site_fract_z
N1 N 0.61810(15) 1.36528(11) 0.00294(12)
N2 N 0.49079(16) 1.19787(12) 0.07203(12)
C1 C 0.18604(19) 1.00091(14) -0.07895(15)
H1 H 0.26900 0.98180 0.00170
N3 N -0.01430(18) 0.80301(13) -0.08194(15)
O1 O 0.09610(17) 0.78558(12) 0.02734(14)
N4 N 0.41964(18) 1.35545(13) -0.23444(13)
C2 C 0.76725(19) 1.33605(15) 0.23963(15)
O2 O 0.6424(2) 1.16976(15) 0.33542(14)
C3 C 0.0243(2) 0.91930(14) -0.14392(15)
C4 C 0.22245(19) 1.11230(14) -0.13653(15)
C5 C 0.62617(19) 1.29584(14) 0.10987(14)
O3 O -0.15470(18) 0.72877(13) -0.14195(15)
C6 C 0.39033(19) 1.20357(14) -0.06418(14)
O4 O 0.89306(19) 1.29588(15) 0.46986(13)
C7 C 0.46688(19) 1.30553(14) -0.11100(14)
C8 C 0.7414(2) 1.47412(14) 0.01917(16)
H2 H 0.73170 1.52100 -0.05350
C9 C 0.8766(2) 1.51213(16) 0.14167(17)
H3 H 0.96140 1.58490 0.15280
C10 C 0.0936(2) 1.13672(16) -0.25790(16)
H4 H 0.11640 1.21040 -0.29760
C11 C 0.4731(2) 1.30457(16) -0.34455(15)
C12 C 0.8915(2) 1.44305(16) 0.25361(17)
H5 H 0.98620 1.47040 0.33730
C13 C -0.1040(2) 0.94349(16) -0.26303(17)
H6 H -0.21190 0.88740 -0.30360
C14 C 0.7757(2) 1.26670(17) 0.35828(17)
C15 C 0.6648(2) 1.3614(2) -0.30825(18)
H7 H 0.73770 1.32910 -0.22720
H8 H 0.68150 1.45690 -0.29220
H9 H 0.69570 1.33370 -0.38250
C16 C -0.0675(2) 1.05361(17) -0.32043(17)
H10 H -0.15130 1.07190 -0.40120
C17 C 0.3562(3) 1.3552(2) -0.47254(18)
H11 H 0.23590 1.31890 -0.49490
H12 H 0.38670 1.32810 -0.54720
H13 H 0.37210 1.45080 -0.45640
C18 C 0.4482(3) 1.15315(18) -0.3657(2)
H14 H 0.52300 1.12320 -0.28390
H15 H 0.47740 1.12340 -0.44030
H16 H 0.32820 1.11720 -0.38640
H17 H 0.563(4) 1.160(3) 0.247(3)
H18 H 0.330(4) 1.385(3) -0.255(3)
#END
