
#######################################################################
#
#                 Cambridge Crystallographic Data Centre
#                                CCDC
#
#######################################################################
#
# If this CIF has been generated from an entry in the Cambridge
# Structural Database, then it will include bibliographic, chemical,
# crystal, experimental, refinement or atomic coordinate data resulting
# from the CCDC's data processing and validation procedures.
#
#######################################################################

data_CSD_CIF_NOHCAQ
_audit_creation_date 2014-07-12
_audit_creation_method CSD-ConQuest-V1
_database_code_CSD NOHCAQ
_database_code_depnum_ccdc_archive 'CCDC 918944'
_chemical_formula_sum 'C17 H15 N3 O3'
_chemical_formula_moiety
;
C17 H15 N3 O3
;
_journal_coden_Cambridge 917
_journal_volume 9
_journal_year 2013
_journal_page_first 2846
_journal_name_full 'Beilstein J.Org.Chem. '
loop_
_publ_author_name
"Haijun Qu"
"Xuejian Li"
"Fan Mo"
"Xufeng Lin"
_chemical_name_systematic
;
1-methyl-4-(4-nitrophenyl)-5-phenyl-3,4-dihydropyrimidin-2(1H)-one
;
_cell_volume   3030.348
_exptl_crystal_colour 'yellow'
_exptl_crystal_density_diffrn 1.356
_exptl_crystal_description 'needle'
_diffrn_ambient_temperature 293
#These two values have been output from a single CSD field.
_refine_ls_R_factor_gt 0.0444
_refine_ls_wR_factor_gt 0.0444
_symmetry_cell_setting monoclinic
_symmetry_space_group_name_H-M 'C 2/c'
_symmetry_Int_Tables_number 15
loop_
_symmetry_equiv_pos_site_id
_symmetry_equiv_pos_as_xyz
1 x,y,z
2 -x,y,1/2-z
3 1/2+x,1/2+y,z
4 1/2-x,1/2+y,1/2-z
5 -x,-y,-z
6 x,-y,-1/2+z
7 -1/2-x,-1/2-y,-z
8 -1/2+x,-1/2-y,-1/2+z
_cell_length_a 18.9351(10)
_cell_length_b 10.9774(6)
_cell_length_c 14.7636(10)
_cell_angle_alpha 90
_cell_angle_beta 99.072(6)
_cell_angle_gamma 90
_cell_formula_units_Z 8
loop_
_atom_type_symbol
_atom_type_radius_bond
C 0.68
H 0.23
N 0.68
O 0.68
loop_
_atom_site_label
_atom_site_type_symbol
_atom_site_fract_x
_atom_site_fract_y
_atom_site_fract_z
O1 O 0.27511(7) 0.11337(13) 0.07273(11)
O2 O 0.10342(12) 0.75763(15) 0.24981(13)
O3 O 0.06371(8) 0.65087(14) 0.35160(11)
N1 N 0.18121(8) 0.03581(14) 0.13276(11)
N2 N 0.16795(8) 0.20723(14) 0.04253(11)
H1 H 0.18400 0.25240 0.00280
N3 N 0.08755(9) 0.66028(16) 0.28022(13)
C1 C -0.05831(9) 0.21276(18) 0.05762(13)
H2 H -0.03760 0.28170 0.03620
C2 C -0.13144(10) 0.2087(2) 0.05400(15)
H3 H -0.15920 0.27470 0.03050
C3 C -0.16345(11) 0.1087(2) 0.08468(15)
H4 H -0.21280 0.10610 0.08200
C4 C -0.12168(10) 0.01206(19) 0.11950(14)
H5 H -0.14300 -0.05650 0.14050
C5 C -0.04879(10) 0.01574(17) 0.12351(13)
H6 H -0.02150 -0.05060 0.14760
C6 C -0.01457(9) 0.11621(15) 0.09248(11)
C7 C 0.06351(9) 0.12161(15) 0.09608(11)
C8 C 0.10764(9) 0.03374(16) 0.13082(12)
H7 H 0.08800 -0.03390 0.15560
C9 C 0.21165(10) 0.12057(18) 0.08211(14)
C10 C 0.09581(9) 0.23335(15) 0.05969(12)
H8 H 0.06680 0.25360 0.00070
C11 C 0.09653(8) 0.34497(15) 0.12147(12)
C12 C 0.08820(9) 0.33619(16) 0.21237(12)
H9 H 0.08380 0.25990 0.23830
C13 C 0.08633(9) 0.43915(16) 0.26520(12)
H10 H 0.07970 0.43300 0.32610
C14 C 0.09433(9) 0.55033(16) 0.22681(12)
C15 C 0.10558(12) 0.56222(18) 0.13792(14)
H11 H 0.11260 0.63850 0.11350
C16 C 0.10623(12) 0.45898(17) 0.08575(14)
H12 H 0.11340 0.46590 0.02510
C17 C 0.22466(11) -0.0649(2) 0.17346(18)
H13 H 0.24960 -0.04090 0.23250
H14 H 0.25860 -0.08690 0.13440
H15 H 0.19450 -0.13340 0.18050
#END
