
#######################################################################
#
#                 Cambridge Crystallographic Data Centre
#                                CCDC
#
#######################################################################
#
# If this CIF has been generated from an entry in the Cambridge
# Structural Database, then it will include bibliographic, chemical,
# crystal, experimental, refinement or atomic coordinate data resulting
# from the CCDC's data processing and validation procedures.
#
#######################################################################

data_CSD_CIF_NOHGIC
_audit_creation_date 2014-07-12
_audit_creation_method CSD-ConQuest-V1
_database_code_CSD NOHGIC
_database_code_depnum_ccdc_archive 'CCDC 916535'
_chemical_formula_sum 'C31 H47 N1 O6'
_chemical_formula_moiety
;
C31 H47 N1 O6
;
_journal_coden_Cambridge 1220
_journal_volume 20
_journal_year 2014
_journal_page_first 10298
_journal_name_full 'Chem.-Eur.J. '
loop_
_publ_author_name
"P.R.Jagtap"
"L.Ford"
"E.Deister"
"R.Pohl"
"I.Cisarova"
"Jan Hodek"
"J.Weber"
"R.Mackman"
"G.Bahador"
"U.Jahn"
_chemical_name_systematic
;
diethyl 
2-(1-oxo-1-phenylbutan-2-yl)-5-(((2,2,6,6-tetramethylpiperidin-1-yl)oxy)methyl
)cyclopentane-1,1-dicarboxylate
;
_cell_volume   5793.935
_exptl_crystal_colour 'colorless'
_exptl_crystal_density_diffrn 1.214
_exptl_crystal_description 'prism'
_diffrn_ambient_temperature 150
#These two values have been output from a single CSD field.
_refine_ls_R_factor_gt 0.0383
_refine_ls_wR_factor_gt 0.0383
_symmetry_cell_setting orthorhombic
_symmetry_space_group_name_H-M 'P b c a'
_symmetry_Int_Tables_number 61
loop_
_symmetry_equiv_pos_site_id
_symmetry_equiv_pos_as_xyz
1 x,y,z
2 1/2+x,1/2-y,-z
3 -x,1/2+y,1/2-z
4 1/2-x,-y,1/2+z
5 -x,-y,-z
6 -1/2-x,-1/2+y,z
7 x,-1/2-y,-1/2+z
8 -1/2+x,y,-1/2-z
_cell_length_a 11.1759(2)
_cell_length_b 14.4533(4)
_cell_length_c 35.8694(8)
_cell_angle_alpha 90
_cell_angle_beta 90
_cell_angle_gamma 90
_cell_formula_units_Z 8
loop_
_atom_type_symbol
_atom_type_radius_bond
C 0.68
H 0.23
N 0.68
O 0.68
loop_
_atom_site_label
_atom_site_type_symbol
_atom_site_fract_x
_atom_site_fract_y
_atom_site_fract_z
C1 C 0.63081(10) 0.29708(8) 0.12600(3)
C2 C 0.58362(10) 0.19663(8) 0.11885(3)
H1 H 0.50230 0.19470 0.13050
C3 C 0.66281(12) 0.13204(8) 0.14343(3)
H2 H 0.61380 0.10110 0.16270
H3 H 0.70190 0.08410 0.12790
C4 C 0.75652(11) 0.19486(9) 0.16147(3)
H4 H 0.82970 0.19780 0.14600
H5 H 0.77820 0.17190 0.18660
C5 C 0.69703(10) 0.29019(8) 0.16402(3)
H6 H 0.75990 0.33930 0.16550
C6 C 0.6132(1) 0.29846(9) 0.19728(3)
H7 H 0.56460 0.35550 0.19540
H8 H 0.55870 0.24460 0.19850
C7 C 0.68171(10) 0.43189(8) 0.26961(3)
C8 C 0.60991(12) 0.47267(8) 0.30222(4)
H9 H 0.64900 0.53050 0.31060
H10 H 0.52860 0.48870 0.29340
C9 C 0.59947(12) 0.40679(9) 0.33515(3)
H11 H 0.67970 0.39480 0.34580
H12 H 0.54910 0.43500 0.35480
C10 C 0.54364(11) 0.31643(9) 0.32215(3)
H13 H 0.46040 0.32850 0.31400
H14 H 0.54050 0.27290 0.34340
C11 C 0.61215(10) 0.27074(8) 0.29000(3)
C12 C 0.53442(12) 0.19340(8) 0.27381(4)
H15 H 0.46090 0.22000 0.26340
H16 H 0.51390 0.14930 0.29360
H17 H 0.57860 0.16130 0.25410
C13 C 0.73007(11) 0.22768(9) 0.30370(3)
H18 H 0.78150 0.21400 0.28230
H19 H 0.71290 0.17040 0.31730
H20 H 0.77100 0.27130 0.32030
C14 C 0.81590(11) 0.42628(9) 0.27871(4)
H21 H 0.82670 0.39810 0.30330
H22 H 0.85020 0.48870 0.27870
H23 H 0.85640 0.38840 0.25990
C15 C 0.66716(12) 0.49557(9) 0.23578(4)
H24 H 0.71620 0.47240 0.21510
H25 H 0.69300 0.55830 0.24240
H26 H 0.58290 0.49680 0.22820
C16 C 0.5649(1) 0.16666(8) 0.07804(3)
H27 H 0.51200 0.21380 0.06600
C17 C 0.49942(11) 0.07209(8) 0.07591(3)
H28 H 0.50350 0.04870 0.05000
H29 H 0.54140 0.02710 0.09210
C18 C 0.36899(12) 0.07795(9) 0.08779(4)
H30 H 0.36450 0.09740 0.11390
H31 H 0.33130 0.01710 0.08500
H32 H 0.32720 0.12310 0.07210
C19 C 0.67928(10) 0.16163(8) 0.05536(3)
C20 C 0.67317(11) 0.16533(8) 0.01350(3)
C21 C 0.78129(12) 0.16294(9) -0.00591(4)
H33 H 0.85430 0.15650 0.00740
C22 C 0.78296(15) 0.16985(10) -0.04444(4)
H34 H 0.85700 0.16810 -0.05750
C23 C 0.67710(16) 0.17922(10) -0.06389(4)
H35 H 0.67850 0.18430 -0.09030
C24 C 0.56905(15) 0.18119(11) -0.04521(4)
H36 H 0.49640 0.18720 -0.05870
C25 C 0.56692(12) 0.17427(9) -0.00641(4)
H37 H 0.49270 0.17570 0.00650
C26 C 0.52773(10) 0.36674(8) 0.12742(3)
C27 C 0.48521(12) 0.52788(9) 0.13222(4)
H38 H 0.51810 0.58040 0.14670
H39 H 0.41080 0.50700 0.14460
C28 C 0.45701(13) 0.55924(10) 0.09333(4)
H40 H 0.53130 0.57590 0.08050
H41 H 0.40410 0.61320 0.09430
H42 H 0.41720 0.50910 0.07980
C29 C 0.7188(1) 0.33596(8) 0.09707(3)
C30 C 0.73205(12) 0.39961(9) 0.03637(3)
H43 H 0.79760 0.35850 0.02790
H44 H 0.76780 0.45700 0.04660
C31 C 0.65102(15) 0.42214(11) 0.00447(4)
H45 H 0.61860 0.36480 -0.00600
H46 H 0.69620 0.45530 -0.01480
H47 H 0.58510 0.46110 0.01330
N1 N 0.62262(8) 0.34234(6) 0.26033(2)
O1 O 0.68873(7) 0.30150(6) 0.22958(2)
O2 O 0.77687(8) 0.15483(7) 0.07036(3)
O3 O 0.42293(7) 0.34848(6) 0.12554(2)
O4 O 0.57151(8) 0.45247(6) 0.13176(2)
O5 O 0.82270(8) 0.35248(7) 0.10202(2)
O6 O 0.66097(7) 0.35368(6) 0.06475(2)
#END
