
#######################################################################
#
#                 Cambridge Crystallographic Data Centre
#                                CCDC
#
#######################################################################
#
# If this CIF has been generated from an entry in the Cambridge
# Structural Database, then it will include bibliographic, chemical,
# crystal, experimental, refinement or atomic coordinate data resulting
# from the CCDC's data processing and validation procedures.
#
#######################################################################

data_CSD_CIF_NOHMUU
_audit_creation_date 2014-07-12
_audit_creation_method CSD-ConQuest-V1
_database_code_CSD NOHMUU
_database_code_depnum_ccdc_archive 'CCDC 816633'
_chemical_formula_sum 'C30 H32 N4 O4'
_chemical_formula_moiety
;
C30 H32 N4 O4
;
_journal_coden_Cambridge 1695
_journal_volume 2
_journal_year 2014
_journal_page_first 6618
_journal_name_full 'J.Mater.Chem.C '
loop_
_publ_author_name
"Y.B.Borozdina"
"E.Mostovich"
"V.Enkelmann"
"B.Wolf"
"P.T.Cong"
"U.Tutsch"
"Michael Lang"
"M.Baumgarten"
_chemical_name_systematic
;
2-(4-{4-[4-(1-oxyl-3-oxo-4,4,5,5-tetramethyl-4H,5H-imidazolin-3-ium-2-yl)-phen
yl]buta-1,3-diyn-1-yl}phenyl)-4,4,5,5-tetramethylimidazolin-3-ium-1-oxyl-3-oxo
 biradical
;
_cell_volume   1315.893
_exptl_crystal_colour 'dark blue'
_exptl_crystal_density_diffrn 1.294
_exptl_crystal_description 'prism'
_diffrn_ambient_temperature 120
#These two values have been output from a single CSD field.
_refine_ls_R_factor_gt 0.0724
_refine_ls_wR_factor_gt 0.0724
_symmetry_cell_setting monoclinic
_symmetry_space_group_name_H-M 'P 21/c'
_symmetry_Int_Tables_number 14
loop_
_symmetry_equiv_pos_site_id
_symmetry_equiv_pos_as_xyz
1 x,y,z
2 -x,1/2+y,1/2-z
3 -x,-y,-z
4 x,-1/2-y,-1/2+z
_cell_length_a 8.1768(2)
_cell_length_b 19.0191(8)
_cell_length_c 8.6983(3)
_cell_angle_alpha 90
_cell_angle_beta 103.400(2)
_cell_angle_gamma 90
_cell_formula_units_Z 2
loop_
_atom_type_symbol
_atom_type_radius_bond
C 0.68
H 0.23
N 0.68
O 0.68
loop_
_atom_site_label
_atom_site_type_symbol
_atom_site_fract_x
_atom_site_fract_y
_atom_site_fract_z
O1 O 0.1241(2) 0.28024(9) 0.0477(2)
N1 N 0.1990(2) 0.22256(9) 0.0339(2)
O2 O 0.5261(2) 0.11929(9) -0.0221(2)
C1 C 0.4716(2) 0.27345(10) 0.0063(2)
C2 C 0.5712(3) 0.39095(11) 0.0806(3)
C3 C 0.8239(3) 0.43558(11) 0.0002(2)
C4 C 0.9359(3) 0.47677(12) 0.0000(3)
N2 N 0.3889(2) 0.14614(9) -0.0020(2)
C5 C 0.1062(3) 0.1540(1) 0.0200(2)
C6 C 0.3560(2) 0.21559(10) 0.0127(2)
C7 C 0.6010(3) 0.26496(11) -0.0742(3)
C8 C 0.7123(3) 0.31897(12) -0.0775(3)
C9 C 0.4572(3) 0.33761(11) 0.0812(3)
C10 C 0.7007(3) 0.3825(1) 0.0006(2)
C11 C 0.2512(3) 0.10021(11) 0.0286(3)
C12 C -0.0195(3) 0.15541(12) -0.1406(3)
C13 C 0.0116(4) 0.15010(13) 0.1508(3)
C14 C 0.3191(4) 0.07029(17) 0.1942(4)
C15 C 0.2159(3) 0.04152(14) -0.0917(4)
H1 H 0.56300 0.43380 0.13450
H2 H 0.61140 0.22190 -0.12660
H3 H 0.79870 0.31330 -0.13310
H4 H 0.36810 0.34450 0.13300
H5 H -0.08260 0.11300 -0.15560
H6 H -0.09340 0.19420 -0.14410
H7 H 0.03980 0.16010 -0.22190
H8 H -0.04910 0.10710 0.14270
H9 H -0.06450 0.18850 0.14140
H10 H 0.08960 0.15220 0.25030
H11 H 0.23790 0.04010 0.22180
H12 H 0.34430 0.10760 0.26850
H13 H 0.41860 0.04440 0.19480
H14 H 0.12850 0.01260 -0.07140
H15 H 0.31450 0.01410 -0.08450
H16 H 0.18190 0.06100 -0.19480
O1B O 1.8759(2) 0.71976(9) -0.0477(2)
N1B N 1.8010(2) 0.77744(9) -0.0339(2)
O2B O 1.4739(2) 0.88071(9) 0.0221(2)
C1B C 1.5284(2) 0.72655(10) -0.0063(2)
C2B C 1.4288(3) 0.60905(11) -0.0806(3)
C3B C 1.1761(3) 0.56442(11) -0.0002(2)
C4B C 1.0641(3) 0.52323(12) 0.0000(3)
N2B N 1.6111(2) 0.85386(9) 0.0020(2)
C5B C 1.8938(3) 0.8460(1) -0.0200(2)
C6B C 1.6440(2) 0.78441(10) -0.0127(2)
C7B C 1.3990(3) 0.73504(11) 0.0742(3)
C8B C 1.2877(3) 0.68103(12) 0.0775(3)
C9B C 1.5428(3) 0.66239(11) -0.0812(3)
C10B C 1.2993(3) 0.6175(1) -0.0006(2)
C11B C 1.7488(3) 0.89979(11) -0.0286(3)
C12B C 2.0195(3) 0.84459(12) 0.1406(3)
C13B C 1.9884(4) 0.84990(13) -0.1508(3)
C14B C 1.6809(4) 0.92971(17) -0.1942(4)
C15B C 1.7841(3) 0.95848(14) 0.0917(4)
H1B H 1.43700 0.56620 -0.13450
H2B H 1.38860 0.77810 0.12660
H3B H 1.20130 0.68670 0.13310
H4B H 1.63190 0.65550 -0.13300
H5B H 2.08260 0.88700 0.15560
H6B H 2.09340 0.80580 0.14410
H7B H 1.96020 0.83990 0.22190
H8B H 2.04910 0.89290 -0.14270
H9B H 2.06450 0.81150 -0.14140
H10B H 1.91040 0.84780 -0.25030
H11B H 1.76210 0.95990 -0.22180
H12B H 1.65570 0.89240 -0.26850
H13B H 1.58140 0.95560 -0.19480
H14B H 1.87150 0.98740 0.07140
H15B H 1.68550 0.98590 0.08450
H16B H 1.81810 0.93900 0.19480
#END
