
#######################################################################
#
#                 Cambridge Crystallographic Data Centre
#                                CCDC
#
#######################################################################
#
# If this CIF has been generated from an entry in the Cambridge
# Structural Database, then it will include bibliographic, chemical,
# crystal, experimental, refinement or atomic coordinate data resulting
# from the CCDC's data processing and validation procedures.
#
#######################################################################

data_CSD_CIF_NOHQOR
_audit_creation_date 2008-12-16
_audit_creation_method CSD-ConQuest-V1
_database_code_CSD NOHQOR
_database_code_depnum_ccdc_archive 'CCDC 658474'
_chemical_formula_sum 'C18 H24 N2 O1'
_chemical_formula_moiety
;
C18 H24 N2 O1
;
_journal_coden_Cambridge 36
_journal_volume 693
_journal_year 2008
_journal_page_first 3063
_journal_name_full 'J.Organomet.Chem. '
loop_
_publ_author_name
"K.Nienkemper"
"G.Kehr"
"S.Kehr"
"R.Frohlich"
"G.Erker"
_chemical_name_systematic
;
2-((2,6-di-isopropylphenylamino)methyl)pyridine-N-oxide
;
_chemical_melting_point 365.15
_cell_volume   3221.804
_exptl_crystal_colour 'light yellow'
_exptl_crystal_density_diffrn 1.173
_exptl_crystal_description 'needle'
_exptl_crystal_preparation 'chloroform/methanol/triethylamine'
_diffrn_ambient_temperature 223
#These two values have been output from a single CSD field.
_refine_ls_R_factor_gt 0.0611
_refine_ls_wR_factor_gt 0.0611
_symmetry_cell_setting orthorhombic
_symmetry_space_group_name_H-M 'P b c n'
_symmetry_Int_Tables_number 60
loop_
_symmetry_equiv_pos_site_id
_symmetry_equiv_pos_as_xyz
1 x,y,z
2 1/2-x,1/2-y,1/2+z
3 -x,y,1/2-z
4 1/2+x,1/2-y,-z
5 -x,-y,-z
6 -1/2+x,-1/2+y,-1/2-z
7 x,-y,-1/2+z
8 -1/2-x,-1/2+y,z
_cell_length_a 35.478(2)
_cell_length_b 5.819(1)
_cell_length_c 15.606(1)
_cell_angle_alpha 90
_cell_angle_beta 90
_cell_angle_gamma 90
_cell_formula_units_Z 8
loop_
_atom_type_symbol
_atom_type_radius_bond
C 0.68
H 0.23
N 0.68
O 0.68
loop_
_atom_site_label
_atom_site_type_symbol
_atom_site_fract_x
_atom_site_fract_y
_atom_site_fract_z
O1 O 0.44979(8) 0.1350(5) 0.04021(19)
N1 N 0.45734(9) 0.2897(6) -0.0189(2)
C1 C 0.43694(10) 0.4906(7) -0.0214(2)
C2 C 0.44466(11) 0.6477(8) -0.0839(2)
H1 H 0.43020 0.78260 -0.08740
C3 C 0.47320(12) 0.6124(8) -0.1419(3)
H2 H 0.47850 0.72230 -0.18430
C4 C 0.49392(12) 0.4117(8) -0.1364(3)
H3 H 0.51370 0.38460 -0.17510
C5 C 0.48563(11) 0.2542(8) -0.0753(3)
H4 H 0.49980 0.11800 -0.07210
C6 C 0.40775(10) 0.5136(7) 0.0461(2)
H5 H 0.38990 0.38590 0.04120
H6 H 0.41980 0.50350 0.10250
N2 N 0.38715(10) 0.7319(6) 0.0399(2)
H7 H 0.4028(11) 0.825(6) 0.055(2)
C7 C 0.35238(10) 0.7369(7) 0.0871(2)
C8 C 0.34901(10) 0.8634(7) 0.1633(2)
C9 C 0.31448(11) 0.8571(7) 0.2056(3)
H8 H 0.31130 0.94360 0.25590
C10 C 0.28477(11) 0.7265(8) 0.1753(3)
H9 H 0.26210 0.71920 0.20630
C11 C 0.28852(11) 0.6082(7) 0.1000(3)
H10 H 0.26810 0.52120 0.07970
C12 C 0.32191(10) 0.6126(7) 0.0523(2)
C13 C 0.38148(12) 1.0045(8) 0.1995(3)
H11 H 0.39720 1.05570 0.15070
C14 C 0.36864(14) 1.2204(8) 0.2486(3)
H12 H 0.35170 1.30950 0.21290
H13 H 0.39050 1.31280 0.26330
H14 H 0.35570 1.17470 0.30060
C15 C 0.40626(14) 0.8557(8) 0.2581(3)
H15 H 0.39130 0.79960 0.30580
H16 H 0.42710 0.94700 0.27980
H17 H 0.41610 0.72630 0.22580
C16 C 0.32324(12) 0.4974(7) -0.0342(2)
H18 H 0.34800 0.53270 -0.06020
C17 C 0.29296(13) 0.5912(8) -0.0939(3)
H19 H 0.26830 0.54740 -0.07270
H20 H 0.29660 0.52860 -0.15100
H21 H 0.29470 0.75750 -0.09620
C18 C 0.31997(14) 0.2345(8) -0.0273(3)
H22 H 0.34060 0.17570 0.00710
H23 H 0.32100 0.16730 -0.08410
H24 H 0.29620 0.19480 -0.00040
#END
