
#######################################################################
#
#                 Cambridge Crystallographic Data Centre
#                                CCDC
#
#######################################################################
#
# If this CIF has been generated from an entry in the Cambridge
# Structural Database, then it will include bibliographic, chemical,
# crystal, experimental, refinement or atomic coordinate data resulting
# from the CCDC's data processing and validation procedures.
#
#######################################################################

data_CSD_CIF_NOHREJ
_audit_creation_date 2014-07-12
_audit_creation_method CSD-ConQuest-V1
_database_code_CSD NOHREJ
_database_code_depnum_ccdc_archive 'CCDC 1013568'
_chemical_formula_sum 'C22 H25 N1 O6'
_chemical_formula_moiety
;
C22 H25 N1 O6
;
_journal_coden_Cambridge 1078
_journal_year 2014
_journal_name_full 'CSD Communication(Private Communication) '
loop_
_publ_author_name
"A.Bhaumik"
"T.Pathak"
_chemical_name_systematic
;
2,4-bis((benzyloxy)methyl)-2-methoxy-6-nitro-3-oxabicyclo[3.1.0]hexane
;
_cell_volume   1053.619
_exptl_crystal_colour 'colorless'
_exptl_crystal_density_diffrn 1.259
_exptl_crystal_description 'block'
_exptl_crystal_preparation 'ethyl acetate/petroleum ether'
_diffrn_ambient_temperature 293
#These two values have been output from a single CSD field.
_refine_ls_R_factor_gt 0.04
_refine_ls_wR_factor_gt 0.04
_symmetry_cell_setting monoclinic
_symmetry_space_group_name_H-M 'P 21'
_symmetry_Int_Tables_number 4
loop_
_symmetry_equiv_pos_site_id
_symmetry_equiv_pos_as_xyz
1 x,y,z
2 -x,1/2+y,-z
_cell_length_a 8.3112(6)
_cell_length_b 5.6179(4)
_cell_length_c 22.5691(17)
_cell_angle_alpha 90
_cell_angle_beta 91.018(2)
_cell_angle_gamma 90
_cell_formula_units_Z 2
loop_
_atom_type_symbol
_atom_type_radius_bond
C 0.68
H 0.23
N 0.68
O 0.68
loop_
_atom_site_label
_atom_site_type_symbol
_atom_site_fract_x
_atom_site_fract_y
_atom_site_fract_z
O1 O 0.0747(2) 0.7753(4) 0.26547(7)
O2 O 0.1622(3) 0.5941(4) 0.11750(8)
C1 C 0.1481(3) 0.6333(5) 0.22100(12)
O3 O 0.1147(2) 0.3911(4) 0.22886(8)
O4 O 0.2085(3) 0.9307(5) 0.41171(9)
C2 C 0.0902(3) 0.7324(6) 0.16224(11)
H1 H -0.02610 0.72240 0.15900
H2 H 0.12160 0.89800 0.15850
C3 C 0.1198(4) 0.6679(6) 0.06018(12)
H3 H 0.14830 0.83410 0.05520
H4 H 0.00440 0.65280 0.05420
C4 C 0.2048(3) 0.5205(5) 0.01524(12)
N1 N 0.5475(3) 0.9659(6) 0.23652(11)
C5 C 0.1733(3) 0.7641(6) 0.31842(11)
H5 H 0.14550 0.62090 0.34080
O5 O 0.6486(3) 0.8127(6) 0.24296(13)
C6 C 0.2820(3) 0.3095(6) 0.02988(13)
H6 H 0.28280 0.25620 0.06890
C7 C 0.3782(3) 0.9106(6) 0.24619(12)
H7 H 0.29950 1.03700 0.23810
C8 C 0.3423(3) 0.7398(6) 0.29597(11)
H8 H 0.42900 0.67940 0.32180
O6 O 0.5784(3) 1.1700(5) 0.22182(13)
C9 C 0.2067(4) 0.5965(6) -0.04349(13)
H9 H 0.15590 0.73800 -0.05420
C10 C 0.3270(3) 0.6590(5) 0.23326(12)
H10 H 0.40330 0.54400 0.21710
C11 C 0.3581(4) 0.1774(6) -0.01316(15)
H11 H 0.40900 0.03560 -0.00290
C12 C 0.1397(4) 0.9806(6) 0.35554(11)
H12 H 0.18850 1.12110 0.33850
H13 H 0.02480 1.00700 0.35850
C13 C 0.2834(4) 0.4635(7) -0.08591(14)
H14 H 0.28390 0.51620 -0.12500
C14 C 0.2330(4) 1.0164(7) 0.51434(13)
C15 C -0.0514(4) 0.3267(6) 0.22207(15)
H15 H -0.06300 0.15830 0.22770
H16 H -0.08900 0.36890 0.18300
H17 H -0.11350 0.40990 0.25100
C16 C 0.1811(5) 1.1079(7) 0.45456(13)
H18 H 0.06780 1.14870 0.45480
H19 H 0.24160 1.25010 0.44500
C17 C 0.3588(4) 0.2542(8) -0.07097(15)
H20 H 0.41010 0.16500 -0.09970
C18 C 0.1820(5) 1.1306(9) 0.56437(15)
H21 H 0.11650 1.26420 0.56070
C19 C 0.3297(5) 0.8212(8) 0.52153(17)
H22 H 0.36610 0.74060 0.48840
C20 C 0.3743(6) 0.7417(10) 0.57780(19)
H23 H 0.44040 0.60910 0.58230
C21 C 0.2262(6) 1.0507(11) 0.61989(16)
H24 H 0.19000 1.13080 0.65320
C22 C 0.3196(6) 0.8612(11) 0.62673(18)
H25 H 0.34820 0.80890 0.66460
#END
