
#######################################################################
#
#                 Cambridge Crystallographic Data Centre
#                                CCDC
#
#######################################################################
#
# If this CIF has been generated from an entry in the Cambridge
# Structural Database, then it will include bibliographic, chemical,
# crystal, experimental, refinement or atomic coordinate data resulting
# from the CCDC's data processing and validation procedures.
#
#######################################################################

data_CSD_CIF_NOHROS01
_audit_creation_date 2009-03-18
_audit_creation_method CSD-ConQuest-V1
_database_code_CSD NOHROS01
_database_code_depnum_ccdc_archive 'CCDC 683750'
_chemical_formula_sum 'C22 H24 N2 O1'
_chemical_formula_moiety
;
C22 H24 N2 O1
;
_journal_coden_Cambridge 579
_journal_volume 27
_journal_year 2008
_journal_page_first 4711
_journal_name_full 'Organometallics '
loop_
_publ_author_name
"M.Brasse"
"J.Campora"
"P.Palma"
"E.Alvarez"
_chemical_name_systematic
;
2-((2,6-Di-isopropylphenylimino)methyl)quinoline N-oxide
;
_chemical_melting_point 358.95
_cell_volume    891.239
_exptl_crystal_colour 'yellow'
_exptl_crystal_density_diffrn 1.239
_exptl_special_details
;
The cif gives the study temperature as 273 K

;
_exptl_crystal_description 'prism'
_exptl_crystal_preparation 'diethyl ether/hexane'
_diffrn_ambient_temperature 100
#These two values have been output from a single CSD field.
_refine_ls_R_factor_gt 0.0429
_refine_ls_wR_factor_gt 0.0429
_symmetry_cell_setting triclinic
_symmetry_space_group_name_H-M 'P -1'
_symmetry_Int_Tables_number 2
loop_
_symmetry_equiv_pos_site_id
_symmetry_equiv_pos_as_xyz
1 x,y,z
2 -x,-y,-z
_cell_length_a 7.8275(3)
_cell_length_b 10.8435(3)
_cell_length_c 11.4514(4)
_cell_angle_alpha 104.894(1)
_cell_angle_beta 101.537(1)
_cell_angle_gamma 100.649(1)
_cell_formula_units_Z 2
loop_
_atom_type_symbol
_atom_type_radius_bond
C 0.68
H 0.23
N 0.68
O 0.68
loop_
_atom_site_label
_atom_site_type_symbol
_atom_site_fract_x
_atom_site_fract_y
_atom_site_fract_z
O1 O 0.20741(10) 0.25033(7) 0.68419(7)
N1 N 0.07076(11) 0.20164(8) 0.99011(8)
N2 N 0.18737(11) 0.13468(8) 0.69869(7)
C1 C 0.11644(13) 0.22134(10) 0.89447(9)
H1 H 0.13320 0.30470 0.88430
C2 C 0.14227(12) 0.11065(10) 0.80064(9)
C3 C 0.12160(14) -0.01639(10) 0.81430(9)
H2 H 0.08990 -0.03090 0.88460
C4 C 0.14694(14) -0.11835(10) 0.72689(9)
H3 H 0.13340 -0.20160 0.73730
C5 C 0.19444(13) -0.09523(10) 0.61963(9)
C6 C 0.21340(12) 0.03175(10) 0.60567(9)
C7 C 0.25635(13) 0.0583(1) 0.49992(9)
H4 H 0.26820 0.14240 0.49190
C8 C 0.28058(14) -0.04233(11) 0.40825(10)
H5 H 0.30820 -0.02600 0.33750
C9 C 0.26407(15) -0.16927(11) 0.42037(10)
H6 H 0.28190 -0.23610 0.35810
C10 C 0.22179(14) -0.19513(10) 0.52356(9)
H7 H 0.21090 -0.27970 0.53050
C11 C 0.04320(13) 0.30793(9) 1.08151(9)
C12 C 0.17758(13) 0.36685(9) 1.19530(9)
C13 C 0.14119(14) 0.46114(10) 1.28892(9)
H8 H 0.22740 0.50080 1.36500
C14 C -0.02128(14) 0.49711(10) 1.27097(10)
H9 H -0.04370 0.55940 1.33500
C15 C -0.14997(14) 0.43971(10) 1.1572(1)
H10 H -0.25740 0.46550 1.14530
C16 C -0.12176(13) 0.34424(10) 1.06040(9)
C17 C 0.35703(13) 0.3293(1) 1.21274(9)
H11 H 0.39620 0.32610 1.13610
C18 C 0.50589(14) 0.42829(12) 1.32165(10)
H12 H 0.51640 0.51490 1.31280
H13 H 0.61800 0.40440 1.32150
H14 H 0.47680 0.42780 1.39910
C19 C 0.33683(16) 0.19212(11) 1.22875(11)
H15 H 0.29900 0.19200 1.30350
H16 H 0.45030 0.16920 1.23510
H17 H 0.24850 0.12900 1.15780
C20 C -0.26675(14) 0.27788(11) 0.93796(9)
H18 H -0.20610 0.26010 0.87060
C21 C -0.37428(16) 0.14557(11) 0.93917(12)
H19 H -0.29410 0.09070 0.95340
H20 H -0.46170 0.10300 0.86010
H21 H -0.43470 0.15990 1.00480
C22 C -0.39394(15) 0.36317(12) 0.90732(11)
H22 H -0.46710 0.37250 0.96550
H23 H -0.46980 0.32210 0.82380
H24 H -0.32480 0.44850 0.91340
#END
