
#######################################################################
#
#                 Cambridge Crystallographic Data Centre
#                                CCDC
#
#######################################################################
#
# If this CIF has been generated from an entry in the Cambridge
# Structural Database, then it will include bibliographic, chemical,
# crystal, experimental, refinement or atomic coordinate data resulting
# from the CCDC's data processing and validation procedures.
#
#######################################################################

data_CSD_CIF_NOHRUY
_audit_creation_date 2008-12-16
_audit_creation_method CSD-ConQuest-V1
_database_code_CSD NOHRUY
_database_code_depnum_ccdc_archive 'CCDC 658480'
_chemical_formula_sum 'C22 H26 N2 O1'
_chemical_formula_moiety
;
C22 H26 N2 O1
;
_journal_coden_Cambridge 36
_journal_volume 693
_journal_year 2008
_journal_page_first 3063
_journal_name_full 'J.Organomet.Chem. '
loop_
_publ_author_name
"K.Nienkemper"
"G.Kehr"
"S.Kehr"
"R.Frohlich"
"G.Erker"
_chemical_name_systematic
;
2-((-2,6-di-isopropylphenylamino)methyl)quinoline-N-oxide
;
_chemical_melting_point 397.15
_cell_volume   3696.671
_exptl_crystal_colour 'light yellow'
_exptl_crystal_density_diffrn 1.202
_exptl_crystal_description 'block'
_exptl_crystal_preparation 'methanol/triethylamine'
_diffrn_ambient_temperature 223
#These two values have been output from a single CSD field.
_refine_ls_R_factor_gt 0.0396
_refine_ls_wR_factor_gt 0.0396
_symmetry_cell_setting monoclinic
_symmetry_space_group_name_H-M 'C 2/c'
_symmetry_Int_Tables_number 15
loop_
_symmetry_equiv_pos_site_id
_symmetry_equiv_pos_as_xyz
1 x,y,z
2 1/2+x,1/2+y,z
3 -x,y,1/2-z
4 1/2-x,1/2+y,1/2-z
5 -x,-y,-z
6 -1/2-x,-1/2-y,-z
7 x,-y,-1/2+z
8 -1/2+x,-1/2-y,-1/2+z
_cell_length_a 24.044(1)
_cell_length_b 16.651(1)
_cell_length_c 9.270(1)
_cell_angle_alpha 90
_cell_angle_beta 95.09(1)
_cell_angle_gamma 90
_cell_formula_units_Z 8
loop_
_atom_type_symbol
_atom_type_radius_bond
C 0.68
H 0.23
N 0.68
O 0.68
loop_
_atom_site_label
_atom_site_type_symbol
_atom_site_fract_x
_atom_site_fract_y
_atom_site_fract_z
N1 N 0.18978(4) 0.43968(6) 0.15116(11)
O1 O 0.22073(4) 0.49226(5) 0.09152(10)
C1 C 0.21091(5) 0.39708(7) 0.26695(13)
C2 C 0.17835(5) 0.33816(8) 0.32717(14)
H1 H 0.19380 0.30800 0.40660
C3 C 0.12483(6) 0.32378(8) 0.27300(15)
H2 H 0.10340 0.28420 0.31480
C4 C 0.10177(5) 0.36874(8) 0.15355(14)
C5 C 0.13470(5) 0.42798(7) 0.09305(13)
C6 C 0.26900(5) 0.41917(8) 0.32298(14)
H3 H 0.29350 0.41390 0.24450
H4 H 0.26960 0.47560 0.35330
N2 N 0.29099(4) 0.36956(7) 0.44516(11)
H5 H 0.2843(6) 0.3932(9) 0.5276(17)
C7 C 0.34849(5) 0.34831(7) 0.44492(13)
C8 C 0.38950(5) 0.38391(7) 0.54236(13)
C9 C 0.44495(6) 0.36127(9) 0.53569(15)
H6 H 0.47260 0.38380 0.60150
C10 C 0.46016(6) 0.30652(9) 0.43470(16)
H7 H 0.49790 0.29300 0.43030
C11 C 0.41962(6) 0.27189(8) 0.34043(15)
H8 H 0.43020 0.23440 0.27210
C12 C 0.36341(6) 0.29085(7) 0.34372(14)
C13 C 0.37434(5) 0.44511(8) 0.65397(14)
H9 H 0.33990 0.47270 0.61380
C14 C 0.36071(8) 0.40228(11) 0.79218(16)
H10 H 0.33000 0.36520 0.76980
H11 H 0.35020 0.44160 0.86200
H12 H 0.39330 0.37290 0.83250
C15 C 0.41884(7) 0.50932(10) 0.6873(2)
H13 H 0.45110 0.48560 0.74160
H14 H 0.40390 0.55180 0.74410
H15 H 0.42990 0.53140 0.59730
C16 C 0.32048(7) 0.25004(9) 0.23725(15)
H16 H 0.28300 0.26880 0.25850
C17 C 0.32195(9) 0.15898(10) 0.2537(2)
H17 H 0.35860 0.13920 0.23550
H18 H 0.29400 0.13510 0.18480
H19 H 0.31410 0.14460 0.35130
C18 C 0.32887(8) 0.27344(11) 0.08103(16)
H20 H 0.32440 0.33100 0.06950
H21 H 0.30140 0.24600 0.01550
H22 H 0.36610 0.25810 0.05900
C19 C 0.11358(6) 0.47432(9) -0.02551(15)
H23 H 0.13570 0.51450 -0.06300
C20 C 0.06076(6) 0.46076(10) -0.08601(17)
H24 H 0.04650 0.49170 -0.16570
C21 C 0.02734(6) 0.40109(10) -0.03074(18)
H25 H -0.00880 0.39160 -0.07470
C22 C 0.04715(6) 0.35690(9) 0.08652(16)
H26 H 0.02410 0.31780 0.12360
#END
