
#######################################################################
#
#                 Cambridge Crystallographic Data Centre
#                                CCDC
#
#######################################################################
#
# If this CIF has been generated from an entry in the Cambridge
# Structural Database, then it will include bibliographic, chemical,
# crystal, experimental, refinement or atomic coordinate data resulting
# from the CCDC's data processing and validation procedures.
#
#######################################################################

data_CSD_CIF_NOHTAZ
_audit_creation_date 1981-09-30
_audit_creation_method CSD-ConQuest-V1
_database_code_CSD NOHTAZ
_chemical_formula_sum 'C6 H12 N6 O6'
_chemical_formula_moiety
;
C6 H12 N6 O6
;
_journal_coden_Cambridge 444
_journal_volume 50
_journal_year 1980
_journal_page_first 2110
_journal_name_full 'Zh.Obshch.Khim.(Russ.)(Russ.J.Gen.Chem.) '
loop_
_publ_author_name
"E.L.Golod"
"G.A.Lyushnina"
"M.A.Porai-Koshits"
"V.S.Kuzmin"
"V.A.Shlyapochhikov"
"V.K.Mikhailov"
_chemical_name_systematic
;
2,4,6-Trimethyl-1,3,5-trinitro-hexahydro-1,3,5-triazine
;
_chemical_melting_point 467.15
_cell_volume   1110.473
_exptl_crystal_colour 'colorless'
_exptl_crystal_density_diffrn 1.56
_exptl_special_details
;
The x coordinate of N21 should be 0.5771 not 0.0771

;
_diffrn_ambient_temperature ?
_diffrn_special_details
;
The study was carried out at room temperature,in the range 283-303K

;
#These two values have been output from a single CSD field.
_refine_ls_R_factor_gt 0.032
_refine_ls_wR_factor_gt 0.032
_symmetry_cell_setting orthorhombic
_symmetry_space_group_name_H-M 'P 21 21 21'
_symmetry_Int_Tables_number 19
loop_
_symmetry_equiv_pos_site_id
_symmetry_equiv_pos_as_xyz
1 x,y,z
2 1/2+x,1/2-y,-z
3 -x,1/2+y,1/2-z
4 1/2-x,-y,1/2+z
_cell_length_a 7.310(5)
_cell_length_b 10.732(6)
_cell_length_c 14.155(12)
_cell_angle_alpha 90
_cell_angle_beta 90
_cell_angle_gamma 90
_cell_formula_units_Z 4
loop_
_atom_type_symbol
_atom_type_radius_bond
C 0.68
H 0.23
N 0.68
O 0.68
loop_
_atom_site_label
_atom_site_type_symbol
_atom_site_fract_x
_atom_site_fract_y
_atom_site_fract_z
N1 N 0.21970 0.95720 0.03920
N2 N 0.48500 1.08370 0.03640
N3 N 0.29410 1.08660 0.16840
N4 N 0.06920 0.98970 -0.01700
N5 N 0.57710 1.16210 -0.02200
N6 N 0.22170 1.15470 0.24170
O1 O -0.08040 0.99890 0.02010
O2 O 0.09830 0.99580 -0.10200
O3 O 0.65420 1.25130 0.01320
O4 O 0.57810 1.13460 -0.10560
O5 O 0.31200 1.24350 0.27010
O6 O 0.07130 1.12400 0.27170
C1 C 0.40120 0.97300 -0.00260
C2 C 0.47900 1.11880 0.13730
C3 C 0.19350 0.97360 0.14240
C4 C 0.51680 0.85740 0.00460
C5 C 0.62930 1.06290 0.19510
C6 C 0.24460 0.85910 0.19770
H1 H 0.39000 0.98600 -0.06800
H2 H 0.48800 1.21100 0.13600
H3 H 0.06900 0.98300 0.15100
H4 H 0.54900 0.83700 0.06000
H5 H 0.64400 0.87600 -0.03600
H6 H 0.45200 0.78400 -0.01600
H7 H 0.74000 1.09900 0.17400
H8 H 0.62800 0.96900 0.19800
H9 H 0.61600 1.09300 0.25400
H10 H 0.15100 0.77300 0.17300
H11 H 0.36500 0.83100 0.18800
H12 H 0.18200 0.86800 0.25100
#END
