
#######################################################################
#
#                 Cambridge Crystallographic Data Centre
#                                CCDC
#
#######################################################################
#
# If this CIF has been generated from an entry in the Cambridge
# Structural Database, then it will include bibliographic, chemical,
# crystal, experimental, refinement or atomic coordinate data resulting
# from the CCDC's data processing and validation procedures.
#
#######################################################################

data_CSD_CIF_NOJKUU
_audit_creation_date 2014-07-14
_audit_creation_method CSD-ConQuest-V1
_database_code_CSD NOJKUU
_database_code_depnum_ccdc_archive 'CCDC 1001773'
_chemical_formula_sum 'C18 H22 N4 O6'
_chemical_formula_moiety
;
C18 H22 N4 O6
;
_journal_coden_Cambridge 182
_journal_volume 50
_journal_year 2014
_journal_page_first 9657
_journal_name_full 'Chem.Commun. '
loop_
_publ_author_name
"P.Regenass"
"J.-F.Margathe"
"A.Mann"
"J.Suffert"
"M.Hibert"
"N.Girard"
"D.Bonnet"
_chemical_name_systematic
;
(2R,10R,12aS)-10-methoxy-2-((4-nitrobenzyl)oxy)octahydro-5H,12H-pyridazino[1,2
-a]pyrrolo[1,2-d][1,2,4]triazine-5,12-dione
;
_chemical_name_common
;
(2R,10R,12aS)-10-methoxy-2-((4-nitrobenzyl)oxy)hexahydro-1H-pyridazino[1,2-a]p
yrrolo[1,2-d][1,2,4]triazine-5,12(12aH)-dione
;
_cell_volume   1788.805
_exptl_crystal_colour 'colorless'
_exptl_crystal_density_diffrn 1.45
_exptl_crystal_description 'block'
_diffrn_ambient_temperature 173
#These two values have been output from a single CSD field.
_refine_ls_R_factor_gt 0.0447
_refine_ls_wR_factor_gt 0.0447
_symmetry_cell_setting orthorhombic
_symmetry_space_group_name_H-M 'P 21 21 21'
_symmetry_Int_Tables_number 19
loop_
_symmetry_equiv_pos_site_id
_symmetry_equiv_pos_as_xyz
1 x,y,z
2 1/2-x,-y,1/2+z
3 1/2+x,1/2-y,-z
4 -x,1/2+y,1/2-z
_cell_length_a 7.9428(4)
_cell_length_b 10.4945(4)
_cell_length_c 21.4599(5)
_cell_angle_alpha 90
_cell_angle_beta 90
_cell_angle_gamma 90
_cell_formula_units_Z 4
loop_
_atom_type_symbol
_atom_type_radius_bond
C 0.68
H 0.23
N 0.68
O 0.68
loop_
_atom_site_label
_atom_site_type_symbol
_atom_site_fract_x
_atom_site_fract_y
_atom_site_fract_z
C1 C 0.8573(3) 0.2741(3) 0.91656(13)
H1 H 0.84860 0.33860 0.95000
H2 H 0.77610 0.29520 0.88310
C2 C 1.0369(3) 0.2665(3) 0.89110(12)
H3 H 1.09900 0.34770 0.89940
C3 C 1.1180(3) 0.1560(3) 0.92590(12)
H4 H 1.16360 0.18430 0.96650
H5 H 1.21000 0.11770 0.90110
C4 C 0.9740(3) 0.0618(3) 0.93485(11)
H6 H 0.96210 0.00670 0.89710
C5 C 0.9882(3) -0.0201(2) 0.99270(12)
C6 C 0.6748(3) 0.0989(3) 0.95638(11)
C7 C 0.8221(4) -0.1049(3) 1.08142(12)
H7 H 0.93060 -0.14730 1.09280
C8 C 0.6815(4) -0.2017(3) 1.08492(13)
H8 H 0.66350 -0.22610 1.12900
H9 H 0.71520 -0.27920 1.06180
C9 C 0.5170(4) -0.1512(3) 1.05803(13)
H10 H 0.47490 -0.08010 1.08400
H11 H 0.43110 -0.21950 1.05800
C10 C 0.5470(3) -0.1050(3) 0.99165(12)
H12 H 0.57790 -0.17790 0.96470
H13 H 0.44270 -0.06630 0.97490
C11 C 0.9216(4) 0.0813(3) 1.13330(14)
H14 H 0.93340 0.13290 1.09550
H15 H 1.02690 0.03530 1.14120
H16 H 0.89650 0.13690 1.16880
C12 C 0.9994(4) 0.3399(4) 0.78629(14)
H17 H 1.08500 0.34640 0.75290
H18 H 1.00440 0.41940 0.81100
C13 C 0.8279(4) 0.3296(3) 0.75681(12)
C14 C 0.7316(4) 0.2202(3) 0.76169(12)
H19 H 0.77330 0.14940 0.78460
C15 C 0.5755(4) 0.2129(3) 0.73359(13)
H20 H 0.50910 0.13800 0.73700
C16 C 0.5179(4) 0.3168(3) 0.70050(12)
C17 C 0.6110(4) 0.4270(3) 0.69392(12)
H21 H 0.56900 0.49710 0.67060
C18 C 0.7671(4) 0.4323(3) 0.72221(12)
H22 H 0.83400 0.50680 0.71800
N1 N 0.8277(3) 0.1454(2) 0.9409(1)
N2 N 0.8360(3) -0.0534(2) 1.01775(10)
N3 N 0.6827(3) -0.0108(2) 0.9914(1)
N4 N 0.3485(4) 0.3107(4) 0.67311(11)
O1 O 1.1224(2) -0.05131(19) 1.01604(9)
O2 O 0.5401(2) 0.1484(2) 0.94206(9)
O3 O 0.7879(2) -0.00795(19) 1.12522(8)
O4 O 1.0414(3) 0.2355(2) 0.82562(8)
O5 O 0.2765(4) 0.2072(3) 0.67143(13)
O6 O 0.2853(3) 0.4098(3) 0.65420(12)
#END
