
#######################################################################
#
#                 Cambridge Crystallographic Data Centre
#                                CCDC
#
#######################################################################
#
# If this CIF has been generated from an entry in the Cambridge
# Structural Database, then it will include bibliographic, chemical,
# crystal, experimental, refinement or atomic coordinate data resulting
# from the CCDC's data processing and validation procedures.
#
#######################################################################

data_CSD_CIF_NOLHIG
_audit_creation_date 2009-05-21
_audit_creation_method CSD-ConQuest-V1
_database_code_CSD NOLHIG
_database_code_depnum_ccdc_archive 'CCDC 692612'
_chemical_formula_sum 'C17 H14 N2 O4'
_chemical_formula_moiety
;
C17 H14 N2 O4
;
_journal_coden_Cambridge 1366
_journal_volume 350
_journal_year 2008
_journal_page_first 2359
_journal_name_full 'Adv.Synth.Catal. '
loop_
_publ_author_name
"Cheng Peng"
"Jiajia Cheng"
"Jianbo Wang"
_chemical_name_systematic
;
Methyl 3-methyl-2-(4-nitrophenyl)-2H-isoindole-1-carboxylate
;
_cell_volume    751.508
_exptl_crystal_colour 'colorless'
_exptl_crystal_density_diffrn 1.371
_exptl_crystal_description 'block'
_diffrn_ambient_temperature 293
#These two values have been output from a single CSD field.
_refine_ls_R_factor_gt 0.0536
_refine_ls_wR_factor_gt 0.0536
_symmetry_cell_setting triclinic
_symmetry_space_group_name_H-M 'P -1'
_symmetry_Int_Tables_number 2
loop_
_symmetry_equiv_pos_site_id
_symmetry_equiv_pos_as_xyz
1 x,y,z
2 -x,-y,-z
_cell_length_a 8.1962(16)
_cell_length_b 9.6318(19)
_cell_length_c 10.097(2)
_cell_angle_alpha 82.74(3)
_cell_angle_beta 76.51(3)
_cell_angle_gamma 76.50(3)
_cell_formula_units_Z 2
loop_
_atom_type_symbol
_atom_type_radius_bond
C 0.68
H 0.23
N 0.68
O 0.68
loop_
_atom_site_label
_atom_site_type_symbol
_atom_site_fract_x
_atom_site_fract_y
_atom_site_fract_z
O1 O 0.8052(2) 0.84476(19) 0.49297(18)
O2 O 0.5828(2) 0.7383(2) 0.54996(19)
O3 O 0.0302(3) 0.4254(2) 0.8581(2)
O4 O -0.1693(3) 0.6024(3) 0.8104(3)
N1 N 0.4198(2) 0.92752(19) 0.75862(18)
N2 N -0.0221(3) 0.5507(3) 0.8221(2)
C1 C 0.5768(3) 0.9325(2) 0.6691(2)
C2 C 0.6282(3) 1.0495(2) 0.7020(2)
C3 C 0.7732(3) 1.1101(3) 0.6483(3)
H1 H 0.85660 1.07260 0.57480
C4 C 0.7874(3) 1.2245(3) 0.7071(3)
H2 H 0.88290 1.26480 0.67280
C5 C 0.6628(3) 1.2851(3) 0.8186(3)
H3 H 0.67790 1.36380 0.85550
C6 C 0.5227(3) 1.2301(2) 0.8720(3)
H4 H 0.44060 1.26990 0.94510
C7 C 0.5034(3) 1.1100(2) 0.8140(2)
C8 C 0.3732(3) 1.0350(2) 0.8453(2)
C9 C 0.3143(3) 0.8268(2) 0.7653(2)
C10 C 0.1580(3) 0.8745(3) 0.7267(3)
H5 H 0.12760 0.96790 0.68970
C11 C 0.0481(3) 0.7821(3) 0.7435(3)
H6 H -0.05770 0.81160 0.71850
C12 C 0.0988(3) 0.6462(3) 0.7979(2)
C13 C 0.2563(3) 0.5967(3) 0.8335(3)
H7 H 0.28750 0.50230 0.86790
C14 C 0.3652(3) 0.6876(3) 0.8177(3)
H8 H 0.47150 0.65680 0.84170
C15 C 0.2127(3) 1.0604(3) 0.9520(3)
H9 H 0.11650 1.09720 0.90940
H10 H 0.21910 1.12850 1.01130
H11 H 0.19870 0.97190 1.00430
C16 C 0.6653(3) 0.8370(3) 0.5636(2)
C17 C 0.6714(4) 0.6343(3) 0.4518(3)
H12 H 0.71200 0.68300 0.36560
H13 H 0.59400 0.57780 0.44060
H14 H 0.76710 0.57310 0.48380
#END
