
#######################################################################
#
#                 Cambridge Crystallographic Data Centre
#                                CCDC
#
#######################################################################
#
# If this CIF has been generated from an entry in the Cambridge
# Structural Database, then it will include bibliographic, chemical,
# crystal, experimental, refinement or atomic coordinate data resulting
# from the CCDC's data processing and validation procedures.
#
#######################################################################

data_CSD_CIF_NOLZUJ
_audit_creation_date 1998-07-09
_audit_creation_method CSD-ConQuest-V1
_database_code_CSD NOLZUJ
_chemical_formula_sum 'C20 H22 N2 O6'
_chemical_formula_moiety
;
C20 H22 N2 O6
;
_journal_coden_Cambridge 35
_journal_volume 63
_journal_year 1998
_journal_page_first 1795
_journal_name_full 'J.Org.Chem. '
loop_
_publ_author_name
"M.Ayerbe"
"A.Arrieta"
"F.P.Cossio"
"A.Linden"
_chemical_name_systematic
;
(2S*,3S*,4R*,5S*)-5-(2-Hydroxyphenyl)-2-(methoxycarbonyl)-4-methyl-3-(4-methox
yphenyl)-4-nitropyrrolidine
;
_chemical_melting_point 454.15
_cell_volume   1899.777
_exptl_crystal_density_diffrn 1.351
_exptl_special_details
;
Melting point range 454.15-456.15K

;
_diffrn_ambient_temperature 173
#These two values have been output from a single CSD field.
_refine_ls_R_factor_gt 0.0456
_refine_ls_wR_factor_gt 0.0456
_symmetry_cell_setting monoclinic
_symmetry_space_group_name_H-M 'P 21/c'
_symmetry_Int_Tables_number 14
loop_
_symmetry_equiv_pos_site_id
_symmetry_equiv_pos_as_xyz
1 x,y,z
2 -x,1/2+y,1/2-z
3 -x,-y,-z
4 x,-1/2-y,-1/2+z
_cell_length_a 5.904(2)
_cell_length_b 20.182(1)
_cell_length_c 16.034(1)
_cell_angle_alpha 90
_cell_angle_beta 96.08(1)
_cell_angle_gamma 90
_cell_formula_units_Z 4
loop_
_atom_type_symbol
_atom_type_radius_bond
C 0.68
H 0.23
N 0.68
O 0.68
loop_
_atom_site_label
_atom_site_type_symbol
_atom_site_fract_x
_atom_site_fract_y
_atom_site_fract_z
O1 O -0.4598(3) 0.72776(8) 0.3340(1)
O2 O -0.1595(4) 0.7552(1) 0.2845(2)
O3 O 0.0989(2) 0.47974(7) 0.35894(9)
O4 O -0.2112(2) 0.43630(6) 0.28459(8)
O5 O 0.2624(3) 0.57858(7) 0.49926(9)
O6 O -0.2593(2) 0.57050(7) -0.05170(8)
N1 N -0.1780(3) 0.56253(7) 0.4420(1)
N2 N -0.2685(3) 0.71600(8) 0.3190(1)
C1 C -0.1903(3) 0.63571(9) 0.4381(1)
C2 C -0.1612(3) 0.64848(9) 0.3443(1)
C3 C -0.3127(3) 0.59302(9) 0.3003(1)
C4 C -0.2697(3) 0.53295(9) 0.3617(1)
C5 C -0.1021(3) 0.48100(9) 0.3361(1)
C6 C -0.0695(5) 0.3843(1) 0.2544(2)
C7 C -0.0143(3) 0.66810(9) 0.5006(1)
C8 C 0.1979(3) 0.63971(9) 0.5266(1)
C9 C 0.3556(4) 0.6731(1) 0.5825(1)
C10 C 0.3033(4) 0.7350(1) 0.6118(1)
C11 C 0.0951(4) 0.7639(1) 0.5871(1)
C12 C -0.0629(4) 0.7305(1) 0.5326(1)
C13 C 0.0839(3) 0.6498(1) 0.3247(1)
C14 C -0.2977(3) 0.58335(9) 0.2072(1)
C15 C -0.4816(3) 0.60250(9) 0.1511(1)
C16 C -0.4775(4) 0.5992(1) 0.0643(1)
C17 C -0.2851(3) 0.57552(9) 0.0323(1)
C18 C -0.0993(3) 0.55474(9) 0.0870(1)
C19 C -0.1061(3) 0.55871(9) 0.1729(1)
C20 C -0.4505(5) 0.5889(2) -0.1098(2)
H1 H -0.251(3) 0.547(1) 0.487(1)
H2 H -0.351(3) 0.6530(8) 0.448(1)
H3 H -0.465(3) 0.6071(9) 0.306(1)
H4 H -0.417(3) 0.5114(8) 0.367(1)
H5 H 0.128(4) 0.560(1) 0.474(1)
H6 H 0.496(3) 0.651(1) 0.599(1)
H7 H 0.419(4) 0.757(1) 0.653(1)
H8 H 0.042(4) 0.805(1) 0.607(1)
H9 H -0.219(3) 0.749(1) 0.515(1)
H10 H -0.616(3) 0.6187(9) 0.172(1)
H11 H -0.605(3) 0.615(1) 0.032(1)
H12 H 0.026(3) 0.5403(9) 0.064(1)
H13 H 0.020(3) 0.5447(9) 0.206(1)
H14 H -0.177(4) 0.350(1) 0.231(1)
H15 H 0.039(4) 0.365(1) 0.301(1)
H16 H 0.005(4) 0.400(1) 0.210(2)
H17 H 0.158(3) 0.605(1) 0.336(1)
H18 H 0.092(3) 0.6618(9) 0.264(1)
H19 H 0.173(3) 0.684(1) 0.358(1)
H20 H -0.490(4) 0.637(1) -0.103(1)
H21 H -0.407(4) 0.580(1) -0.162(1)
H22 H -0.588(4) 0.562(1) -0.098(1)
#END
