
#######################################################################
#
#                 Cambridge Crystallographic Data Centre
#                                CCDC
#
#######################################################################
#
# If this CIF has been generated from an entry in the Cambridge
# Structural Database, then it will include bibliographic, chemical,
# crystal, experimental, refinement or atomic coordinate data resulting
# from the CCDC's data processing and validation procedures.
#
#######################################################################

data_CSD_CIF_NOMBEA01
_audit_creation_date 1999-03-02
_audit_creation_method CSD-ConQuest-V1
_database_code_CSD NOMBEA01
_chemical_formula_sum 'C8 H6 N2 O6'
_chemical_formula_moiety
;
C8 H6 N2 O6
;
_journal_coden_Cambridge 24
_journal_volume 39
_journal_year 1998
_journal_page_first 5409
_journal_name_full 'Tetrahedron Lett. '
loop_
_publ_author_name
"V.R.Pedireddi"
"W.Jones"
"A.P.Chorlton"
"R.Docherty"
_chemical_name_systematic
;
3,5-Dinitro-4-methylbenzoic acid
;
_cell_volume    906.211
_exptl_crystal_density_diffrn 1.658
_diffrn_ambient_temperature ?
_diffrn_special_details
;
The study was carried out at room temperature,in the range 283-303K

;
#These two values have been output from a single CSD field.
_refine_ls_R_factor_gt 0.043
_refine_ls_wR_factor_gt 0.043
_symmetry_cell_setting monoclinic
_symmetry_space_group_name_H-M 'P 21/c'
_symmetry_Int_Tables_number 14
loop_
_symmetry_equiv_pos_site_id
_symmetry_equiv_pos_as_xyz
1 x,y,z
2 -x,1/2+y,1/2-z
3 -x,-y,-z
4 x,-1/2-y,-1/2+z
_cell_length_a 8.896(2)
_cell_length_b 8.893(2)
_cell_length_c 12.255(2)
_cell_angle_alpha 90
_cell_angle_beta 110.82(3)
_cell_angle_gamma 90
_cell_formula_units_Z 4
loop_
_atom_type_symbol
_atom_type_radius_bond
C 0.68
H 0.23
N 0.68
O 0.68
loop_
_atom_site_label
_atom_site_type_symbol
_atom_site_fract_x
_atom_site_fract_y
_atom_site_fract_z
C1 C 0.3952(3) 0.0836(3) 0.0907(3)
C2 C 0.4478(4) 0.2091(4) 0.0503(3)
C3 C 0.6084(3) 0.2415(3) 0.0908(3)
C4 C 0.7253(3) 0.1528(4) 0.1705(3)
C5 C 0.6644(3) 0.0261(4) 0.2069(3)
C6 C 0.5052(4) -0.0092(4) 0.1689(3)
C7 C 0.2223(4) 0.0468(4) 0.0494(3)
C8 C 0.9019(4) 0.1845(5) 0.2054(4)
N1 N 0.6560(3) 0.3798(3) 0.0451(3)
N2 N 0.7735(3) -0.0817(4) 0.2891(3)
O1 O 0.5968(3) 0.3997(3) -0.0603(3)
O2 O 0.7460(3) 0.4659(3) 0.1136(3)
O3 O 0.7440(3) -0.2150(3) 0.2670(2)
O4 O 0.8821(3) -0.0325(3) 0.3714(2)
O5 O 0.1805(3) -0.0674(3) 0.0912(2)
O6 O 0.1271(2) 0.1306(3) -0.0273(2)
H1 H 0.0837(15) -0.0812(44) 0.0584(41)
H2 H 0.3817(37) 0.2714(33) -0.0011(27)
H3 H 0.4735(36) -0.0882(34) 0.1998(26)
H4 H 0.9220(41) 0.2473(41) 0.1405(30)
H5 H 0.9359(45) 0.2485(42) 0.2690(36)
H6 H 0.9759(46) 0.0909(41) 0.2268(32)
#END
