
#######################################################################
#
#                 Cambridge Crystallographic Data Centre
#                                CCDC
#
#######################################################################
#
# If this CIF has been generated from an entry in the Cambridge
# Structural Database, then it will include bibliographic, chemical,
# crystal, experimental, refinement or atomic coordinate data resulting
# from the CCDC's data processing and validation procedures.
#
#######################################################################

data_CSD_CIF_NOMKAC
_audit_creation_date 2009-05-21
_audit_creation_method CSD-ConQuest-V1
_database_code_CSD NOMKAC
_database_code_depnum_ccdc_archive 'CCDC 696936'
_chemical_formula_sum 'C3 H7 N5 O7'
_chemical_formula_moiety
;
C3 H7 N5 O7
;
_journal_coden_Cambridge 29
_journal_volume 634
_journal_year 2008
_journal_page_first 2994
_journal_name_full 'Z.Anorg.Allg.Chem. '
loop_
_publ_author_name
"T.M.Klapotke"
"A.Penger"
"S.Scheutzow"
"L.Vejs"
_chemical_name_systematic
;
1,3-Dinitramino-2-nitroxypropane
;
_chemical_name_common
;
1,3-bis(Nitroamino)-2-propanyl nitrate
;
_chemical_melting_point 439.15
_cell_volume    831.762
_exptl_crystal_colour 'yellow'
_exptl_crystal_density_diffrn 1.798
_exptl_special_details
;
decomposes at 168deg.C

;
_exptl_crystal_description 'block'
_exptl_crystal_preparation 'nitromethane'
_diffrn_ambient_temperature 200
#These two values have been output from a single CSD field.
_refine_ls_R_factor_gt 0.0309
_refine_ls_wR_factor_gt 0.0309
_symmetry_cell_setting orthorhombic
_symmetry_space_group_name_H-M 'P n m a'
_symmetry_Int_Tables_number 62
loop_
_symmetry_equiv_pos_site_id
_symmetry_equiv_pos_as_xyz
1 x,y,z
2 1/2-x,-y,1/2+z
3 1/2+x,1/2-y,1/2-z
4 -x,1/2+y,-z
5 -x,-y,-z
6 -1/2+x,y,-1/2-z
7 -1/2-x,-1/2+y,-1/2+z
8 x,-1/2-y,z
_cell_length_a 6.8344(3)
_cell_length_b 13.8632(5)
_cell_length_c 8.7788(3)
_cell_angle_alpha 90
_cell_angle_beta 90
_cell_angle_gamma 90
_cell_formula_units_Z 4
loop_
_atom_type_symbol
_atom_type_radius_bond
C 0.68
H 0.23
N 0.68
O 0.68
loop_
_atom_site_label
_atom_site_type_symbol
_atom_site_fract_x
_atom_site_fract_y
_atom_site_fract_z
N1 N 1.2400(2) 0.96779(12) -0.14156(18)
O1 O 1.1187(2) 0.75000 0.08694(18)
O2 O 1.1522(3) 1.04529(10) -0.14070(17)
C1 C 1.2766(4) 0.75000 -0.0244(3)
O3 O 1.2883(2) 0.92478(10) -0.25810(15)
O4 O 0.8088(3) 0.75000 0.1302(2)
N2 N 0.9275(3) 0.75000 0.0300(3)
O5 O 0.9031(3) 0.75000 -0.1031(2)
C2 C 1.3955(3) 0.84052(13) 0.0025(2)
N3 N 1.2834(3) 0.92822(12) -0.0083(2)
H1 H 1.492(3) 0.8436(13) -0.067(2)
H2 H 1.444(3) 0.8404(12) 0.101(2)
H3 H 1.249(3) 0.9589(16) 0.062(3)
H4 H 1.215(4) 0.75000 -0.118(3)
N1G N 1.2400(2) 0.53221(12) -0.14156(18)
O2G O 1.1522(3) 0.45471(10) -0.14070(17)
O3G O 1.2883(2) 0.57522(10) -0.25810(15)
C2G C 1.3955(3) 0.65948(13) 0.0025(2)
N3G N 1.2834(3) 0.57178(12) -0.0083(2)
H1G H 1.492(3) 0.6564(13) -0.067(2)
H2G H 1.444(3) 0.6596(12) 0.101(2)
H3G H 1.249(3) 0.5411(16) 0.062(3)
#END
