
#######################################################################
#
#                 Cambridge Crystallographic Data Centre
#                                CCDC
#
#######################################################################
#
# If this CIF has been generated from an entry in the Cambridge
# Structural Database, then it will include bibliographic, chemical,
# crystal, experimental, refinement or atomic coordinate data resulting
# from the CCDC's data processing and validation procedures.
#
#######################################################################

data_CSD_CIF_NONYOE
_audit_creation_date 1998-07-29
_audit_creation_method CSD-ConQuest-V1
_database_code_CSD NONYOE
_database_code_depnum_ccdc_archive 'CCDC 1222369'
_chemical_formula_sum 'C8 H15 N1 O5'
_chemical_formula_moiety
;
C8 H15 N1 O5
;
_journal_coden_Cambridge 599
_journal_volume 16
_journal_year 1997
_journal_page_first 373
_journal_name_full 'J.Carbohydr.Chem. '
loop_
_publ_author_name
"Hong Ye"
"L.Noecker"
"W.J.Boyko"
"R.M.Giuliano"
"G.P.A.Yap"
"A.L.Rheingold"
_chemical_name_systematic
;
Methyl 2,3,6-trideoxy-3-C-methyl-3-nitro-\a-D-ribohexapyranoside
;
_cell_volume    516.429
_exptl_crystal_colour 'colorless'
_exptl_crystal_density_diffrn 1.32
_exptl_crystal_description 'block'
_diffrn_ambient_temperature ?
_diffrn_special_details
;
The study was carried out at room temperature,in the range 283-303K

;
#These two values have been output from a single CSD field.
_refine_ls_R_factor_gt 0.0373
_refine_ls_wR_factor_gt 0.0373
_symmetry_cell_setting monoclinic
_symmetry_space_group_name_H-M 'P 21'
_symmetry_Int_Tables_number 4
loop_
_symmetry_equiv_pos_site_id
_symmetry_equiv_pos_as_xyz
1 x,y,z
2 -x,1/2+y,-z
_cell_length_a 7.780(1)
_cell_length_b 6.006(2)
_cell_length_c 11.253(2)
_cell_angle_alpha 90
_cell_angle_beta 100.842(9)
_cell_angle_gamma 90
_cell_formula_units_Z 2
loop_
_atom_type_symbol
_atom_type_radius_bond
C 0.68
H 0.23
N 0.68
O 0.68
loop_
_atom_site_label
_atom_site_type_symbol
_atom_site_fract_x
_atom_site_fract_y
_atom_site_fract_z
N1 N 1.0952(3) 0.5802(3) 0.2840(2)
O1 O 0.6791(2) 0.2824(3) 0.2242(1)
O2 O 0.7765(2) 0.5770(3) 0.3557(2)
O3 O 1.1806(2) 0.6398(3) 0.3807(1)
O4 O 1.0435(3) 0.7075(3) 0.2004(1)
O5 O 1.0326(2) 0.3446(3) 0.0498(1)
C1 C 0.7698(4) 0.3463(5) 0.3408(2)
C2 C 0.9549(3) 0.2599(5) 0.3653(2)
C3 C 1.0582(3) 0.3292(4) 0.2684(2)
C4 C 0.9472(3) 0.2747(4) 0.1454(2)
C5 C 0.7601(3) 0.3626(5) 0.1270(2)
C6 C 0.6510(4) 0.2706(6) 0.0104(2)
C7 C 0.6075(4) 0.6806(7) 0.3448(3)
C8 C 1.2386(3) 0.2193(5) 0.2857(2)
H1 H 0.9710(2) 0.3139(3) -0.0156(1)
H2 H 0.7082(4) 0.2830(5) 0.4013(2)
H3 H 0.9525(3) 0.0987(5) 0.3697(2)
H4 H 1.0145(3) 0.3151(5) 0.4432(2)
H5 H 0.9389(3) 0.1121(4) 0.1405(2)
H6 H 0.7598(3) 0.5257(5) 0.1254(2)
H7 H 0.5339(4) 0.3276(6) 0.0005(2)
H8 H 0.6484(4) 0.1110(6) 0.0146(2)
H9 H 0.7021(4) 0.3153(6) -0.0571(2)
H10 H 0.6219(4) 0.8384(7) 0.3560(3)
H11 H 0.5481(4) 0.6213(7) 0.4053(3)
H12 H 0.5396(4) 0.6511(7) 0.2659(3)
H13 H 1.3045(3) 0.2573(5) 0.3640(2)
H14 H 1.2995(3) 0.2710(5) 0.2243(2)
H15 H 1.2250(3) 0.0605(5) 0.2797(2)
#END
