
#######################################################################
#
#                 Cambridge Crystallographic Data Centre
#                                CCDC
#
#######################################################################
#
# If this CIF has been generated from an entry in the Cambridge
# Structural Database, then it will include bibliographic, chemical,
# crystal, experimental, refinement or atomic coordinate data resulting
# from the CCDC's data processing and validation procedures.
#
#######################################################################

data_CSD_CIF_NOPLUA
_audit_creation_date 2009-05-21
_audit_creation_method CSD-ConQuest-V1
_database_code_CSD NOPLUA
_database_code_depnum_ccdc_archive 'CCDC 695963'
_chemical_formula_sum 'C18 H11 N1 O3'
_chemical_formula_moiety
;
C18 H11 N1 O3
;
_journal_coden_Cambridge 1291
_journal_year 2008
_journal_page_first 6093
_journal_name_full 'Eur.J.Org.Chem. '
loop_
_publ_author_name
"K.K.Laali"
"M.A.Arrica"
"T.Okazaki"
"S.D.Bunge"
_chemical_name_systematic
;
4-Acetyl-3-nitropyrene
;
_cell_volume   2594.006
_exptl_crystal_colour 'yellow'
_exptl_crystal_density_diffrn 1.481
_exptl_crystal_description 'plate'
_diffrn_ambient_temperature 273
#These two values have been output from a single CSD field.
_refine_ls_R_factor_gt 0.051
_refine_ls_wR_factor_gt 0.051
_symmetry_cell_setting orthorhombic
_symmetry_space_group_name_H-M 'P b c a'
_symmetry_Int_Tables_number 61
loop_
_symmetry_equiv_pos_site_id
_symmetry_equiv_pos_as_xyz
1 x,y,z
2 1/2-x,-y,1/2+z
3 -x,1/2+y,1/2-z
4 1/2+x,1/2-y,-z
5 -x,-y,-z
6 -1/2+x,y,-1/2-z
7 x,-1/2-y,-1/2+z
8 -1/2-x,-1/2+y,z
_cell_length_a 14.176(3)
_cell_length_b 9.839(2)
_cell_length_c 18.598(4)
_cell_angle_alpha 90
_cell_angle_beta 90
_cell_angle_gamma 90
_cell_formula_units_Z 8
loop_
_atom_type_symbol
_atom_type_radius_bond
C 0.68
H 0.23
N 0.68
O 0.68
loop_
_atom_site_label
_atom_site_type_symbol
_atom_site_fract_x
_atom_site_fract_y
_atom_site_fract_z
N1 N 0.1771(2) 0.8305(3) 0.31109(18)
O1 O 0.22224(19) 0.7550(3) 0.27008(14)
O2 O 0.1533(2) 0.9477(3) 0.29577(15)
O3 O 0.02364(18) 0.6962(3) 0.26051(14)
C1 C 0.0920(3) 0.5042(4) 0.2029(2)
H1 H 0.05570 0.42200 0.20550
H2 H 0.15800 0.48220 0.20280
H3 H 0.07650 0.55220 0.15950
C2 C 0.0701(2) 0.5919(4) 0.2667(2)
C3 C 0.1024(2) 0.5470(4) 0.3394(2)
C4 C 0.0891(2) 0.4137(4) 0.3576(2)
H4 H 0.07540 0.35200 0.32120
C5 C 0.0951(2) 0.3644(4) 0.4295(2)
C6 C 0.0807(3) 0.2284(4) 0.4475(2)
H5 H 0.07030 0.16500 0.41130
C7 C 0.0815(3) 0.1863(4) 0.5182(2)
H6 H 0.06960 0.09570 0.52930
C8 C 0.1000(2) 0.2782(4) 0.5729(2)
H7 H 0.10150 0.24780 0.62020
C9 C 0.1164(2) 0.4164(4) 0.5584(2)
C10 C 0.1383(2) 0.5106(4) 0.6139(2)
H8 H 0.14030 0.48160 0.66150
C11 C 0.1563(3) 0.6431(4) 0.5978(2)
H9 H 0.17180 0.70300 0.63460
C12 C 0.1518(2) 0.6923(4) 0.5252(2)
C13 C 0.1688(3) 0.8285(4) 0.5085(2)
H10 H 0.17880 0.89060 0.54550
C14 C 0.1711(2) 0.8721(4) 0.4382(2)
H11 H 0.18290 0.96290 0.42760
C15 C 0.1555(2) 0.7795(4) 0.3831(2)
C16 C 0.1303(2) 0.6429(4) 0.3951(2)
C17 C 0.1314(2) 0.5996(4) 0.4684(2)
C18 C 0.1129(2) 0.4603(4) 0.4856(2)
#END
