
#######################################################################
#
#                 Cambridge Crystallographic Data Centre
#                                CCDC
#
#######################################################################
#
# If this CIF has been generated from an entry in the Cambridge
# Structural Database, then it will include bibliographic, chemical,
# crystal, experimental, refinement or atomic coordinate data resulting
# from the CCDC's data processing and validation procedures.
#
#######################################################################

data_CSD_CIF_NORPUG
_audit_creation_date 2009-05-21
_audit_creation_method CSD-ConQuest-V1
_database_code_CSD NORPUG
_database_code_depnum_ccdc_archive 'CCDC 726464'
_chemical_formula_sum 'C11 H12 N2 O6'
_chemical_formula_moiety
;
C11 H12 N2 O6
;
_journal_coeditor_code "IUCr PV2148"
_journal_coden_Cambridge 1370
_journal_volume 65
_journal_year 2009
_journal_page_first o878
_journal_name_full 'Acta Crystallogr.,Sect.E:Struct.Rep.Online '
loop_
_publ_author_name
"P.Zou"
"M.-H.Xie"
"S.-N.Luo"
"Y.-L.Liu"
"Y.-J.He"
_chemical_name_systematic
;
Isobutyl 3,5-dinitrobenzoate
;
_cell_volume   1245.062
_exptl_crystal_colour 'colorless'
_exptl_crystal_density_diffrn 1.431
_exptl_crystal_description 'needle'
_exptl_crystal_preparation 'methanol'
_diffrn_ambient_temperature 293
#These two values have been output from a single CSD field.
_refine_ls_R_factor_gt 0.0694
_refine_ls_wR_factor_gt 0.0694
_symmetry_cell_setting monoclinic
_symmetry_space_group_name_H-M 'P 21/n'
_symmetry_Int_Tables_number 14
loop_
_symmetry_equiv_pos_site_id
_symmetry_equiv_pos_as_xyz
1 x,y,z
2 1/2-x,1/2+y,1/2-z
3 -x,-y,-z
4 -1/2+x,-1/2-y,-1/2+z
_cell_length_a 16.666(3)
_cell_length_b 4.776(1)
_cell_length_c 16.678(3)
_cell_angle_alpha 90
_cell_angle_beta 110.30(3)
_cell_angle_gamma 90
_cell_formula_units_Z 4
loop_
_atom_type_symbol
_atom_type_radius_bond
C 0.68
H 0.23
N 0.68
O 0.68
loop_
_atom_site_label
_atom_site_type_symbol
_atom_site_fract_x
_atom_site_fract_y
_atom_site_fract_z
O1 O -0.17180(16) -0.2811(6) 0.58690(17)
O2 O -0.08913(17) -0.4218(7) 0.51387(18)
O3 O -0.0648(2) 0.3897(9) 0.8166(2)
O4 O 0.0522(2) 0.6102(7) 0.8340(2)
O5 O 0.23983(17) 0.2979(6) 0.68814(18)
O6 O 0.20462(18) -0.0604(6) 0.60527(19)
N1 N -0.0004(2) 0.4291(8) 0.8000(2)
N2 N 0.18975(19) 0.1116(7) 0.6515(2)
C1 C -0.2813(3) -0.6160(11) 0.6546(3)
H1 H -0.23460 -0.51240 0.69360
H2 H -0.26290 -0.80310 0.64910
H3 H -0.32780 -0.62240 0.67610
C2 C -0.3856(3) -0.6279(12) 0.5060(3)
H4 H -0.43080 -0.64440 0.52890
H5 H -0.36800 -0.81120 0.49510
H6 H -0.40550 -0.52370 0.45350
C3 C -0.3102(3) -0.4769(9) 0.5697(3)
H7 H -0.32890 -0.28700 0.57710
C4 C -0.2420(3) -0.4536(10) 0.5323(3)
H8 H -0.22080 -0.63860 0.52640
H9 H -0.26510 -0.37020 0.47590
C5 C -0.1000(2) -0.2845(8) 0.5687(2)
C6 C -0.0337(2) -0.0901(7) 0.6262(2)
C7 C 0.0447(2) -0.0816(7) 0.6143(2)
H10 H 0.05530 -0.19480 0.57360
C8 C 0.1063(2) 0.0988(7) 0.6641(2)
C9 C 0.0934(2) 0.2683(7) 0.7252(2)
H11 H 0.13560 0.39010 0.75780
C10 C 0.0157(2) 0.2503(7) 0.7359(2)
C11 C -0.0482(2) 0.0730(8) 0.6876(2)
H12 H -0.10020 0.06410 0.69650
#END
