
#######################################################################
#
#                 Cambridge Crystallographic Data Centre
#                                CCDC
#
#######################################################################
#
# If this CIF has been generated from an entry in the Cambridge
# Structural Database, then it will include bibliographic, chemical,
# crystal, experimental, refinement or atomic coordinate data resulting
# from the CCDC's data processing and validation procedures.
#
#######################################################################

data_CSD_CIF_NOXBEH
_audit_creation_date 1998-08-03
_audit_creation_method CSD-ConQuest-V1
_database_code_CSD NOXBEH
_database_code_depnum_ccdc_journal 186/679
_chemical_formula_sum 'C9 H16 N4 O4'
_chemical_formula_moiety
;
C9 H16 N4 O4
;
_journal_coden_Cambridge 186
_journal_year 1997
_journal_page_first 3853
_journal_name_full 'J.Chem.Soc.,Dalton Trans. '
loop_
_publ_author_name
"A.M.Duda"
"A.Karaczyn"
"H.Kozlowski"
"I.O.Fritsky"
"T.Glowiak"
"E.V.Prisyazhnaya"
"T.Yu.Sliva"
"J.Swiatek-Kozlowska"
_chemical_name_systematic
;
N,N'-bis(2-Hydroxyiminopropionyl)propane-1,3-diamine
;
_cell_volume   1159.094
_exptl_crystal_colour 'colorless'
_exptl_crystal_density_diffrn 1.4
_exptl_crystal_description 'block'
_diffrn_ambient_temperature ?
_diffrn_special_details
;
The study was carried out at room temperature,in the range 283-303K

;
#These two values have been output from a single CSD field.
_refine_ls_R_factor_gt 0.0319
_refine_ls_wR_factor_gt 0.0319
_symmetry_cell_setting monoclinic
_symmetry_space_group_name_H-M 'P 21/c'
_symmetry_Int_Tables_number 14
loop_
_symmetry_equiv_pos_site_id
_symmetry_equiv_pos_as_xyz
1 x,y,z
2 -x,1/2+y,1/2-z
3 -x,-y,-z
4 x,-1/2-y,-1/2+z
_cell_length_a 9.559(2)
_cell_length_b 14.477(3)
_cell_length_c 8.376(2)
_cell_angle_alpha 90
_cell_angle_beta 90.37(3)
_cell_angle_gamma 90
_cell_formula_units_Z 4
loop_
_atom_type_symbol
_atom_type_radius_bond
C 0.68
H 0.23
N 0.68
O 0.68
loop_
_atom_site_label
_atom_site_type_symbol
_atom_site_fract_x
_atom_site_fract_y
_atom_site_fract_z
O1 O 0.3874(2) 0.39581(11) 0.3066(2)
O2 O 0.1859(2) -0.16495(12) -0.5256(2)
O3 O 0.0387(1) 0.22738(10) 0.0733(2)
O4 O 0.4611(1) -0.12579(10) -0.0838(2)
N1 N 0.3275(2) 0.31047(12) 0.2729(2)
N2 N 0.1974(2) -0.15611(12) -0.3611(2)
N3 N 0.2280(2) 0.15038(12) 0.1559(2)
N4 N 0.2263(2) -0.11889(12) -0.0562(2)
C1 C 0.1772(3) 0.4031(2) 0.0960(4)
C2 C 0.4464(3) -0.1297(2) -0.4234(3)
C3 C 0.2286(2) 0.31671(14) 0.1708(2)
C4 C 0.3229(2) -0.13828(13) -0.3180(2)
C5 C 0.1579(2) 0.22764(14) 0.1295(2)
C6 C 0.3420(2) -0.12721(13) -0.1421(2)
C7 C 0.1708(2) 0.05971(15) 0.1184(3)
C8 C 0.2273(2) -0.1108(2) 0.1159(3)
C9 C 0.2699(2) -0.01509(15) 0.1714(3)
H1 H 0.445(3) 0.383(2) 0.387(4)
H2 H 0.102(3) -0.193(2) -0.538(3)
H3 H 0.240(4) 0.443(3) 0.076(5)
H4 H 0.422(4) -0.128(2) -0.535(4)
H5 H 0.125(5) 0.440(3) 0.170(5)
H6 H 0.501(4) -0.177(3) -0.416(4)
H7 H 0.125(3) 0.393(2) 0.011(4)
H8 H 0.500(4) -0.085(3) -0.391(4)
H9 H 0.319(3) 0.154(2) 0.178(3)
H10 H 0.141(3) -0.131(2) -0.106(3)
H11 H 0.083(3) 0.052(2) 0.168(3)
H12 H 0.287(2) -0.152(2) 0.157(3)
H13 H 0.148(2) 0.056(2) 0.005(3)
H14 H 0.137(2) -0.125(2) 0.154(3)
H15 H 0.364(2) -0.001(2) 0.129(2)
H16 H 0.269(2) -0.015(2) 0.283(3)
#END
