
#######################################################################
#
#                 Cambridge Crystallographic Data Centre
#                                CCDC
#
#######################################################################
#
# If this CIF has been generated from an entry in the Cambridge
# Structural Database, then it will include bibliographic, chemical,
# crystal, experimental, refinement or atomic coordinate data resulting
# from the CCDC's data processing and validation procedures.
#
#######################################################################

data_CSD_CIF_NOYGIR
_audit_creation_date 1998-08-03
_audit_creation_method CSD-ConQuest-V1
_database_code_CSD NOYGIR
_database_code_depnum_ccdc_archive 'CCDC 1223175'
_chemical_formula_sum 'C13 H11 N3 O8'
_chemical_formula_moiety
;
C13 H11 N3 O8
;
_journal_coden_Cambridge 3
_journal_volume 51
_journal_year 1997
_journal_page_first 1066
_journal_name_full 'Acta Chem.Scand. '
loop_
_publ_author_name
"C.P.Butts"
"L.Eberson"
"M.P.Hartshorn"
"O.Persson"
"R.S.Thompson"
"W.T.Robinson"
_chemical_name_systematic
;
1,4-Dimethoxy-2-trinitromethylnaphthalene
;
_chemical_melting_point 388.15
_cell_volume    681.510
_exptl_crystal_colour 'orange'
_exptl_crystal_density_diffrn 1.643
_exptl_special_details
;
Melting point range 388.15-389.15K

;
_exptl_crystal_description 'block'
_diffrn_ambient_temperature 158
#These two values have been output from a single CSD field.
_refine_ls_R_factor_gt 0.0383
_refine_ls_wR_factor_gt 0.0383
_symmetry_cell_setting triclinic
_symmetry_space_group_name_H-M 'P -1'
_symmetry_Int_Tables_number 2
loop_
_symmetry_equiv_pos_site_id
_symmetry_equiv_pos_as_xyz
1 x,y,z
2 -x,-y,-z
_cell_length_a 7.378(3)
_cell_length_b 9.562(2)
_cell_length_c 9.976(2)
_cell_angle_alpha 83.74(1)
_cell_angle_beta 78.33(3)
_cell_angle_gamma 82.99(2)
_cell_formula_units_Z 2
loop_
_atom_type_symbol
_atom_type_radius_bond
C 0.68
H 0.23
N 0.68
O 0.68
loop_
_atom_site_label
_atom_site_type_symbol
_atom_site_fract_x
_atom_site_fract_y
_atom_site_fract_z
N1 N 0.4518(3) 0.0610(2) 0.7161(2)
N2 N 0.1324(3) 0.0638(2) 0.8302(2)
N3 N 0.3493(2) 0.1983(2) 0.9173(2)
O1 O 0.0529(2) 0.3772(1) 0.8898(1)
O2 O 0.3816(2) 0.4533(1) 0.3413(1)
O3 O 0.6039(2) 0.0615(2) 0.7434(2)
O4 O 0.4076(3) -0.0094(2) 0.6343(2)
O5 O 0.1738(2) -0.0513(2) 0.8881(2)
O6 O -0.0178(2) 0.1076(2) 0.8015(2)
O7 O 0.2921(2) 0.1341(2) 1.0252(1)
O8 O 0.4506(2) 0.2924(2) 0.8984(2)
C1 C 0.1325(2) 0.3975(2) 0.7532(2)
C2 C 0.2508(3) 0.2896(2) 0.6942(2)
C3 C 0.3388(3) 0.3034(2) 0.5535(2)
C4 C 0.3081(2) 0.4285(2) 0.4769(2)
C5 C 0.1983(2) 0.5462(2) 0.5376(2)
C6 C 0.1790(3) 0.6800(2) 0.4631(2)
C7 C 0.0789(3) 0.7930(2) 0.5248(2)
C8 C -0.0077(3) 0.7786(2) 0.6641(2)
C9 C 0.0059(2) 0.6507(2) 0.7388(2)
C10 C 0.1085(2) 0.5310(2) 0.6775(2)
C11 C -0.1495(3) 0.3835(2) 0.9221(2)
C12 C 0.2912(3) 0.1603(2) 0.7854(2)
C13 C 0.4839(3) 0.3379(2) 0.2704(2)
H1 H 0.4178(3) 0.2268(2) 0.5133(2)
H2 H 0.2367(3) 0.6913(2) 0.3690(2)
H3 H 0.0674(3) 0.8821(2) 0.4733(2)
H4 H -0.0759(3) 0.8583(2) 0.7064(2)
H5 H -0.0539(2) 0.6418(2) 0.8326(2)
H6 H -0.1990(3) 0.4548(10) 0.9872(10)
H7 H -0.1866(3) 0.2909(4) 0.9631(12)
H8 H -0.1991(3) 0.4089(14) 0.8377(3)
H9 H 0.5243(15) 0.3696(4) 0.1733(3)
H10 H 0.4046(6) 0.2612(6) 0.2781(11)
H11 H 0.5932(10) 0.3037(9) 0.3111(9)
#END
