
#######################################################################
#
#                 Cambridge Crystallographic Data Centre
#                                CCDC
#
#######################################################################
#
# If this CIF has been generated from an entry in the Cambridge
# Structural Database, then it will include bibliographic, chemical,
# crystal, experimental, refinement or atomic coordinate data resulting
# from the CCDC's data processing and validation procedures.
#
#######################################################################

data_CSD_CIF_NOZZAD
_audit_creation_date 1998-08-03
_audit_creation_method CSD-ConQuest-V1
_database_code_CSD NOZZAD
_database_code_depnum_ccdc_archive 'CCDC 130124'
_chemical_formula_sum 'C14 H23 N1 O8'
_chemical_formula_moiety
;
C14 H23 N1 O8
;
_journal_coeditor_code "IUCr SK1167"
_journal_coden_Cambridge 591
_journal_volume 54
_journal_year 1998
_journal_page_first 834
_journal_name_full 'Acta Crystallogr.,Sect.C:Cryst.Struct.Commun. '
loop_
_publ_author_name
"G.Baudoux"
"B.Norberg"
"L.Provins"
"A.Froidbise"
"A.Krief"
"G.Evrard"
_chemical_name_systematic
;
Dimethyl 
2-((1S)-1-((4S)-2,2-dimethyl-1,3-dioxolan-4-yl)-2-methyl-2-nitropropyl)malonat
e
;
_cell_volume   1662.556
_exptl_crystal_colour 'colorless'
_exptl_crystal_density_diffrn 1.332
_exptl_crystal_description 'parallelepiped'
_exptl_crystal_preparation 'diethyl ether'
_diffrn_ambient_temperature ?
_diffrn_special_details
;
The study was carried out at room temperature,in the range 283-303K

;
#These two values have been output from a single CSD field.
_refine_ls_R_factor_gt 0.052
_refine_ls_wR_factor_gt 0.052
_symmetry_cell_setting orthorhombic
_symmetry_space_group_name_H-M 'P 21 21 21'
_symmetry_Int_Tables_number 19
loop_
_symmetry_equiv_pos_site_id
_symmetry_equiv_pos_as_xyz
1 x,y,z
2 1/2-x,-y,1/2+z
3 1/2+x,1/2-y,-z
4 -x,1/2+y,1/2-z
_cell_length_a 8.003(5)
_cell_length_b 11.253(5)
_cell_length_c 18.461(5)
_cell_angle_alpha 90
_cell_angle_beta 90
_cell_angle_gamma 90
_cell_formula_units_Z 4
loop_
_atom_type_symbol
_atom_type_radius_bond
C 0.68
H 0.23
N 0.68
O 0.68
loop_
_atom_site_label
_atom_site_type_symbol
_atom_site_fract_x
_atom_site_fract_y
_atom_site_fract_z
N1 N 0.5886(3) 1.03765(17) 0.64665(10)
O1 O 0.0608(3) 0.88701(18) 0.73781(12)
O2 O 0.0984(3) 0.69409(16) 0.76152(11)
O3 O 0.0907(3) 0.68589(16) 0.59302(12)
O4 O 0.3356(2) 0.59758(14) 0.61596(9)
O5 O 0.1327(2) 1.05642(14) 0.53042(9)
O6 O 0.40216(18) 0.99891(13) 0.53205(8)
O7 O 0.7132(3) 1.05678(18) 0.61078(11)
O8 O 0.5026(3) 1.11593(16) 0.67458(11)
C1 C 0.2820(3) 0.77663(17) 0.67829(11)
H1 H 0.37190 0.74070 0.70690
C2 C 0.5397(3) 0.90748(18) 0.66301(11)
C3 C 0.3514(3) 0.89364(17) 0.64495(10)
H2 H 0.29300 0.95940 0.66880
C4 C 0.3119(3) 0.90260(18) 0.56339(10)
H3 H 0.34180 0.82810 0.53910
C5 C 0.1275(3) 0.9334(2) 0.54808(12)
H4 H 0.08440 0.88690 0.50790
H5 H 0.05860 0.91930 0.59050
C6 C 0.2874(3) 1.0761(2) 0.49542(12)
C7 C 0.6515(3) 0.8248(2) 0.62072(15)
H6 H 0.63540 0.83770 0.56980
H7 H 0.62420 0.74390 0.63240
H8 H 0.76610 0.84000 0.63310
C8 C 0.5733(4) 0.9002(3) 0.74501(13)
H9 H 0.56000 0.81960 0.76100
H10 H 0.49560 0.95030 0.77030
H11 H 0.68530 0.92620 0.75490
C9 C 0.1338(3) 0.79586(19) 0.72877(11)
C10 C -0.0443(4) 0.6906(3) 0.80910(18)
H12 H -0.02540 0.63310 0.84660
H13 H -0.14190 0.66890 0.78190
H14 H -0.06060 0.76750 0.83050
C11 C 0.2220(3) 0.68319(18) 0.62385(11)
C12 C 0.2848(4) 0.4978(2) 0.57063(16)
H15 H 0.30570 0.51650 0.52070
H16 H 0.16780 0.48270 0.57740
H17 H 0.34750 0.42840 0.58400
C13 C 0.2781(4) 1.0426(3) 0.41598(13)
H18 H 0.23900 0.96230 0.41150
H19 H 0.38710 1.04910 0.39460
H20 H 0.20230 1.09510 0.39150
C14 C 0.3414(4) 1.2025(2) 0.50764(18)
H21 H 0.26110 1.25540 0.48630
H22 H 0.44860 1.21510 0.48570
H23 H 0.34870 1.21770 0.55870
#END
