
#######################################################################
#
#                 Cambridge Crystallographic Data Centre
#                                CCDC
#
#######################################################################
#
# If this CIF has been generated from an entry in the Cambridge
# Structural Database, then it will include bibliographic, chemical,
# crystal, experimental, refinement or atomic coordinate data resulting
# from the CCDC's data processing and validation procedures.
#
#######################################################################

data_CSD_CIF_NPBUDO
_audit_creation_date 1976-08-18
_audit_creation_method CSD-ConQuest-V1
_database_code_CSD NPBUDO
_chemical_formula_sum 'C10 H9 N1 O4'
_chemical_formula_moiety
;
C10 H9 N1 O4
;
_journal_coden_Cambridge 188
_journal_year 1976
_journal_page_first 513
_journal_name_full 'J.Chem.Soc.,Perkin Trans.2 '
loop_
_publ_author_name
"R.D.G.Jones"
_chemical_name_systematic
;
1-(4-Nitrophenyl)butane-1,3-dione
;
_cell_volume    976.693
_exptl_crystal_density_diffrn 1.41
_exptl_special_details
;
ATOM H103 REMOVED FOR SUSPECTED ERRORS. BOND C10-H101 GIVEN AS 0.88A 
CALCULATES AT 1.08A
;
_diffrn_ambient_temperature ?
_diffrn_special_details
;
The study was carried out at room temperature,in the range 283-303K

;
#These two values have been output from a single CSD field.
_refine_ls_R_factor_gt 0.049
_refine_ls_wR_factor_gt 0.049
_symmetry_cell_setting orthorhombic
_symmetry_space_group_name_H-M 'P 21 21 21'
_symmetry_Int_Tables_number 19
loop_
_symmetry_equiv_pos_site_id
_symmetry_equiv_pos_as_xyz
1 x,y,z
2 1/2+x,1/2-y,-z
3 -x,1/2+y,1/2-z
4 1/2-x,-y,1/2+z
_cell_length_a 3.864(2)
_cell_length_b 10.384(2)
_cell_length_c 24.342(5)
_cell_angle_alpha 90
_cell_angle_beta 90
_cell_angle_gamma 90
_cell_formula_units_Z 4
loop_
_atom_type_symbol
_atom_type_radius_bond
C 0.68
H 0.23
N 0.68
O 0.68
loop_
_atom_site_label
_atom_site_type_symbol
_atom_site_fract_x
_atom_site_fract_y
_atom_site_fract_z
C1 C 0.02360 -0.10340 0.35580
C2 C 0.47190 -0.06000 0.16130
C3 C 0.07420 0.02480 0.37010
C4 C -0.02270 0.07130 0.42080
C5 C -0.17700 -0.01460 0.45690
C6 C -0.23600 -0.14310 0.44480
C7 C -0.12620 -0.18560 0.39370
C8 C 0.13440 -0.15470 0.30200
C9 C 0.25190 -0.08320 0.25880
C10 C 0.35650 -0.13850 0.20910
H1 H 0.39400 -0.08800 0.12000
H2 H 0.66400 -0.10000 0.14700
H3 H 0.15200 0.09000 0.34400
H4 H -0.00900 0.17900 0.43200
H5 H -0.36500 -0.21200 0.47100
H6 H -0.16600 -0.26200 0.38600
H7 H 0.27100 0.00700 0.26200
N1 N -0.28760 0.03270 0.51140
O1 O 0.12040 -0.28030 0.29730
O2 O 0.35810 -0.26250 0.20390
O3 O -0.21210 0.14220 0.52510
O4 O -0.45230 -0.03920 0.54120
#END
