
#######################################################################
#
#                 Cambridge Crystallographic Data Centre
#                                CCDC
#
#######################################################################
#
# If this CIF has been generated from an entry in the Cambridge
# Structural Database, then it will include bibliographic, chemical,
# crystal, experimental, refinement or atomic coordinate data resulting
# from the CCDC's data processing and validation procedures.
#
#######################################################################

data_CSD_CIF_NPHDZB01
_audit_creation_date 2008-06-26
_audit_creation_method CSD-ConQuest-V1
_database_code_CSD NPHDZB01
_database_code_depnum_ccdc_archive 'CCDC 682043'
_database_code_depnum_ccdc_journal 1267/2122
_chemical_formula_sum 'C9 H10 N4 O4'
_chemical_formula_moiety
;
C9 H10 N4 O4
;
_journal_coden_Cambridge 1267
_journal_volume 222
_journal_year 2007
_journal_page_first 407
_journal_name_full 'Z.Kristallogr.-New Cryst.Struct. '
loop_
_publ_author_name
"Yu-Feng Yang"
_chemical_name_systematic
;
Propionaldehyde 2,4-dinitrophenylhydrazone
;
_cell_volume   1087.481
_exptl_crystal_colour 'red'
_exptl_crystal_density_diffrn 1.455
_exptl_crystal_description 'block'
_exptl_crystal_preparation 'dichloromethane'
_diffrn_ambient_temperature 291
#These two values have been output from a single CSD field.
_refine_ls_R_factor_gt 0.0552
_refine_ls_wR_factor_gt 0.0552
_symmetry_cell_setting monoclinic
_symmetry_space_group_name_H-M 'P 21/c'
_symmetry_Int_Tables_number 14
loop_
_symmetry_equiv_pos_site_id
_symmetry_equiv_pos_as_xyz
1 x,y,z
2 -x,1/2+y,1/2-z
3 -x,-y,-z
4 x,-1/2-y,-1/2+z
_cell_length_a 5.3235(11)
_cell_length_b 11.513(2)
_cell_length_c 17.815(4)
_cell_angle_alpha 90
_cell_angle_beta 95.14(3)
_cell_angle_gamma 90
_cell_formula_units_Z 4
loop_
_atom_type_symbol
_atom_type_radius_bond
C 0.68
H 0.23
N 0.68
O 0.68
loop_
_atom_site_label
_atom_site_type_symbol
_atom_site_fract_x
_atom_site_fract_y
_atom_site_fract_z
O1 O 1.0608(3) 0.26695(17) 0.23786(10)
O2 O 0.8238(4) 0.13493(16) 0.27864(11)
O3 O 0.1892(3) 0.22608(14) 0.43896(10)
O4 O 0.1230(3) 0.39558(15) 0.47124(9)
N1 N 0.8840(4) 0.23572(17) 0.27377(11)
N2 N 0.2403(3) 0.32933(16) 0.43448(9)
N3 N 0.3425(4) 0.58003(15) 0.41389(11)
H1 H 0.238(6) 0.566(3) 0.4431(18)
N4 N 0.4125(4) 0.69534(15) 0.40312(10)
C1 C 0.7485(4) 0.32253(18) 0.31051(12)
C2 C 0.5581(5) 0.29033(17) 0.35430(11)
H2 H 0.515(4) 0.2145(18) 0.3582(11)
C3 C 0.4255(4) 0.37305(19) 0.39100(12)
C4 C 0.4710(4) 0.49413(17) 0.38331(10)
C5 C 0.6697(5) 0.5250(2) 0.33637(13)
H3 H 0.706(5) 0.595(2) 0.3312(14)
C6 C 0.8019(5) 0.4409(2) 0.30126(13)
H4 H 0.926(4) 0.463(2) 0.2704(13)
C7 C 0.2561(6) 0.7681(2) 0.42414(15)
H5 H 0.108(7) 0.747(3) 0.436(2)
C8 C 0.3048(7) 0.8963(2) 0.4178(2)
H6 H 0.167(6) 0.930(2) 0.3871(15)
H7 H 0.273(5) 0.925(2) 0.4653(16)
C9 C 0.5511(8) 0.9255(3) 0.3916(2)
H8 H 0.569(6) 1.003(3) 0.3833(16)
H9 H 0.575(6) 0.888(3) 0.3411(19)
H10 H 0.698(5) 0.889(2) 0.4262(15)
#END
