
#######################################################################
#
#                 Cambridge Crystallographic Data Centre
#                                CCDC
#
#######################################################################
#
# If this CIF has been generated from an entry in the Cambridge
# Structural Database, then it will include bibliographic, chemical,
# crystal, experimental, refinement or atomic coordinate data resulting
# from the CCDC's data processing and validation procedures.
#
#######################################################################

data_CSD_CIF_NPHDZB
_audit_creation_date 1981-08-11
_audit_creation_method CSD-ConQuest-V1
_database_code_CSD NPHDZB
_chemical_formula_sum 'C9 H10 N4 O4'
_chemical_formula_moiety
;
C9 H10 N4 O4
;
_journal_coden_Cambridge 188
_journal_year 1981
_journal_page_first 155
_journal_name_full 'J.Chem.Soc.,Perkin Trans.2 '
loop_
_publ_author_name
"B.Vickery"
"G.R.Willey"
"M.G.B.Drew"
_chemical_name_systematic
;
Propanal-2,4-dinitrophenylhydrazone
;
_cell_volume   1081.066
_exptl_crystal_density_diffrn 1.46
_diffrn_ambient_temperature ?
_diffrn_special_details
;
The study was carried out at room temperature,in the range 283-303K

;
#These two values have been output from a single CSD field.
_refine_ls_R_factor_gt 0.059
_refine_ls_wR_factor_gt 0.059
_symmetry_cell_setting monoclinic
_symmetry_space_group_name_H-M 'P 21/c'
_symmetry_Int_Tables_number 14
loop_
_symmetry_equiv_pos_site_id
_symmetry_equiv_pos_as_xyz
1 x,y,z
2 -x,1/2+y,1/2-z
3 -x,-y,-z
4 x,-1/2-y,-1/2+z
_cell_length_a 5.333(7)
_cell_length_b 11.488(8)
_cell_length_c 17.713(10)
_cell_angle_alpha 90
_cell_angle_beta 95.0(1)
_cell_angle_gamma 90
_cell_formula_units_Z 4
loop_
_atom_type_symbol
_atom_type_radius_bond
C 0.68
H 0.23
N 0.68
O 0.68
loop_
_atom_site_label
_atom_site_type_symbol
_atom_site_fract_x
_atom_site_fract_y
_atom_site_fract_z
C1 C 0.25790 0.17510 0.18800
C2 C 0.44520 0.20820 0.14430
C3 C 0.57430 0.12560 0.10890
C4 C 0.52420 0.00490 0.11710
C5 C 0.32860 -0.02430 0.16350
C6 C 0.20030 0.05850 0.19840
N1 N 0.11570 0.26320 0.22610
O1 O 0.17880 0.36740 0.22030
O2 O -0.06040 0.23320 0.26180
N2 N 0.76330 0.16820 0.06350
O3 O 0.80530 0.27340 0.06130
O4 O 0.88160 0.09660 0.02810
N3 N 0.65430 -0.07880 0.08640
N4 N 0.58960 -0.19460 0.09680
C7 C 0.73970 -0.26830 0.07500
C8 C 0.69890 -0.39540 0.08200
C9 C 0.45520 -0.42670 0.10960
H1 H 0.48900 0.29900 0.13800
H2 H 0.28200 -0.11500 0.17100
H3 H 0.05600 0.03400 0.23500
H4 H 0.78100 -0.05800 0.05200
H5 H 0.90600 -0.23800 0.05100
H6 H 0.71000 -0.43400 0.02700
H7 H 0.84600 -0.43000 0.12100
H8 H 0.43000 -0.52000 0.11300
H9 H 0.29500 -0.39300 0.07100
H10 H 0.43200 -0.39000 0.16500
#END
