
#######################################################################
#
#                 Cambridge Crystallographic Data Centre
#                                CCDC
#
#######################################################################
#
# If this CIF has been generated from an entry in the Cambridge
# Structural Database, then it will include bibliographic, chemical,
# crystal, experimental, refinement or atomic coordinate data resulting
# from the CCDC's data processing and validation procedures.
#
#######################################################################

data_CSD_CIF_NPHYAC01
_audit_creation_date 2006-08-03
_audit_creation_method CSD-ConQuest-V1
_database_code_CSD NPHYAC01
_database_code_depnum_ccdc_archive 'CCDC 613772'
_chemical_formula_sum 'C9 H11 N3 O2'
_chemical_formula_moiety
;
C9 H11 N3 O2
;
_journal_coeditor_code "IUCr LH2094"
_journal_coden_Cambridge 1370
_journal_volume 62
_journal_year 2006
_journal_page_first o2838
_journal_name_full 'Acta Crystallogr.,Sect.E:Struct.Rep.Online '
loop_
_publ_author_name
"S.M.S.V.Wardell"
"M.V.N.de Souza"
"J.L.Wardell"
"J.N.Low"
"C.Glidewell"
_chemical_name_systematic
;
Acetone 3-nitrophenylhydrazone
;
_cell_volume   1866.913
_exptl_crystal_colour 'colorless'
_exptl_crystal_density_diffrn 1.375
_exptl_crystal_description 'plate'
_exptl_crystal_preparation 'ethanol'
_diffrn_ambient_temperature 120
#These two values have been output from a single CSD field.
_refine_ls_R_factor_gt 0.0581
_refine_ls_wR_factor_gt 0.0581
_symmetry_cell_setting monoclinic
_symmetry_space_group_name_H-M 'C 2/c'
_symmetry_Int_Tables_number 15
loop_
_symmetry_equiv_pos_site_id
_symmetry_equiv_pos_as_xyz
1 x,y,z
2 1/2+x,1/2+y,z
3 -x,y,1/2-z
4 1/2-x,1/2+y,1/2-z
5 -x,-y,-z
6 -1/2-x,-1/2-y,-z
7 x,-y,-1/2+z
8 -1/2+x,-1/2-y,-1/2+z
_cell_length_a 22.7837(15)
_cell_length_b 3.8307(2)
_cell_length_c 21.7292(13)
_cell_angle_alpha 90
_cell_angle_beta 100.129(3)
_cell_angle_gamma 90
_cell_formula_units_Z 8
loop_
_atom_type_symbol
_atom_type_radius_bond
C 0.68
H 0.23
N 0.68
O 0.68
loop_
_atom_site_label
_atom_site_type_symbol
_atom_site_fract_x
_atom_site_fract_y
_atom_site_fract_z
C1 C 0.73046(9) 0.6977(5) 0.62467(9)
C2 C 0.76687(9) 0.5776(6) 0.58397(9)
C3 C 0.82780(9) 0.6216(6) 0.60016(9)
N1 N 0.86561(8) 0.4855(5) 0.55769(8)
O1 O 0.84193(7) 0.3164(5) 0.51155(7)
O2 O 0.91943(7) 0.5383(5) 0.56931(7)
C4 C 0.85489(9) 0.7812(6) 0.6552(1)
C5 C 0.81809(10) 0.9004(6) 0.69488(10)
C6 C 0.75668(9) 0.8622(5) 0.68035(9)
N2 N 0.66953(7) 0.6555(5) 0.60836(8)
N3 N 0.63415(8) 0.7306(5) 0.65204(8)
C7 C 0.57836(10) 0.6671(6) 0.63644(10)
C8 C 0.54023(10) 0.7472(7) 0.68419(11)
C9 C 0.54904(9) 0.5192(6) 0.57486(10)
H1 H 0.75010 0.46740 0.54570
H2 H 0.89700 0.80730 0.66520
H3 H 0.83520 1.01100 0.73290
H4 H 0.73230 0.94790 0.70830
H5 H 0.65690 0.51580 0.57920
H6 H 0.56450 0.85930 0.72050
H7 H 0.52330 0.53010 0.69730
H8 H 0.50790 0.90470 0.66600
H9 H 0.55560 0.67650 0.54110
H10 H 0.50620 0.49450 0.57440
H11 H 0.56620 0.29000 0.56880
#END
