
#######################################################################
#
#                 Cambridge Crystallographic Data Centre
#                                CCDC
#
#######################################################################
#
# If this CIF has been generated from an entry in the Cambridge
# Structural Database, then it will include bibliographic, chemical,
# crystal, experimental, refinement or atomic coordinate data resulting
# from the CCDC's data processing and validation procedures.
#
#######################################################################

data_CSD_CIF_NPXMBZ10
_audit_creation_date 1976-05-02
_audit_creation_method CSD-ConQuest-V1
_database_code_CSD NPXMBZ10
_database_code_depnum_ccdc_archive 'CCDC 1223407'
_chemical_formula_sum 'C17 H17 N1 O5'
_chemical_formula_moiety
;
C17 H17 N1 O5
;
_journal_coden_Cambridge 15
_journal_volume 53
_journal_year 1975
_journal_page_first 2084
_journal_name_full 'Can.J.Chem. '
loop_
_publ_author_name
"S.P.N.van der Heijden"
"E.A.H.Griffith"
"W.D.Chandler"
"B.E.Robertson"
_chemical_name_systematic
;
2-(4'-Carbomethoxy-2'-nitrophenoxy)-1,3,5-trimethylbenzene
;
_chemical_melting_point 377.15
_cell_volume   1610.782
_exptl_crystal_density_diffrn 1.32
_exptl_special_details
;
Melting point range 377.15-379.15K

;
_diffrn_ambient_temperature ?
_diffrn_special_details
;
The study was carried out at room temperature,in the range 283-303K

;
#These two values have been output from a single CSD field.
_refine_ls_R_factor_gt 0.054
_refine_ls_wR_factor_gt 0.054
_symmetry_cell_setting monoclinic
_symmetry_space_group_name_H-M 'P 21/c'
_symmetry_Int_Tables_number 14
loop_
_symmetry_equiv_pos_site_id
_symmetry_equiv_pos_as_xyz
1 x,y,z
2 -x,1/2+y,1/2-z
3 -x,-y,-z
4 x,-1/2-y,-1/2+z
_cell_length_a 8.352(4)
_cell_length_b 17.892(10)
_cell_length_c 10.966(6)
_cell_angle_alpha 90
_cell_angle_beta 100.59(3)
_cell_angle_gamma 90
_cell_formula_units_Z 4
loop_
_atom_type_symbol
_atom_type_radius_bond
C 0.68
H 0.23
N 0.68
O 0.68
loop_
_atom_site_label
_atom_site_type_symbol
_atom_site_fract_x
_atom_site_fract_y
_atom_site_fract_z
C1 C 0.32490 0.15090 0.18690
C2 C 0.27050 0.33330 0.17530
C3 C 0.15870 0.39160 0.15380
C4 C 0.00740 0.38730 0.18620
C5 C -0.03280 0.32280 0.24290
C6 C 0.07340 0.26260 0.26850
C7 C 0.43430 0.33810 0.13720
C8 C -0.10910 0.45270 0.16220
C9 C 0.02890 0.19380 0.33360
C10 C 0.42690 0.09020 0.22480
C11 C 0.41020 0.02360 0.16010
C12 C 0.29560 0.01710 0.05310
C13 C 0.20040 0.07830 0.01160
C14 C 0.21340 0.14440 0.07740
C15 C 0.26790 -0.05400 -0.01760
C16 C 0.32220 -0.18330 -0.01450
C17 C 0.22350 0.27020 0.23220
H1 H 0.19400 0.43600 0.11600
H2 H -0.13500 0.31900 0.26800
H3 H 0.43900 0.30300 0.07000
H4 H 0.45100 0.38800 0.10500
H5 H 0.51200 0.31700 0.18800
H6 H -0.09000 0.48900 0.22400
H7 H -0.21300 0.43800 0.15600
H8 H -0.10800 0.47300 0.09000
H9 H 0.00300 0.15500 0.28100
H10 H 0.12700 0.17200 0.38900
H11 H -0.05000 0.20300 0.37800
H12 H 0.48500 -0.01500 0.19300
H13 H 0.12000 0.07400 -0.06300
H14 H 0.13700 0.18300 0.05200
H15 H 0.22200 -0.19800 -0.01100
H16 H 0.38700 -0.21400 0.04100
H17 H 0.35800 -0.18500 -0.09000
N1 N 0.55360 0.09490 0.33590
O1 O 0.62660 0.15310 0.35780
O2 O 0.58000 0.03900 0.39850
O3 O 0.18630 -0.06000 -0.11790
O4 O 0.34600 -0.11090 0.04500
O5 O 0.33920 0.21230 0.26120
#END
