
#######################################################################
#
#                 Cambridge Crystallographic Data Centre
#                                CCDC
#
#######################################################################
#
# If this CIF has been generated from an entry in the Cambridge
# Structural Database, then it will include bibliographic, chemical,
# crystal, experimental, refinement or atomic coordinate data resulting
# from the CCDC's data processing and validation procedures.
#
#######################################################################

data_CSD_CIF_NPYRAM
_audit_creation_date 1981-03-19
_audit_creation_method CSD-ConQuest-V1
_database_code_CSD NPYRAM
_database_code_depnum_ccdc_archive 'CCDC 1223422'
_chemical_formula_sum 'C11 H10 N6 O4'
_chemical_formula_moiety
;
C11 H10 N6 O4
;
_journal_coden_Cambridge 189
_journal_volume 9
_journal_year 1980
_journal_page_first 1249
_journal_name_full 'Cryst.Struct.Commun. '
loop_
_publ_author_name
"A.W.Hanson"
_chemical_name_systematic
;
N,N'-bis(3-Nitro-2-pyridinyl)-methane-diamine
;
_cell_volume    629.302
_exptl_crystal_density_diffrn 1.531
_diffrn_ambient_temperature ?
_diffrn_special_details
;
The study was carried out at room temperature,in the range 283-303K

;
#These two values have been output from a single CSD field.
_refine_ls_R_factor_gt 0.036
_refine_ls_wR_factor_gt 0.036
_symmetry_cell_setting triclinic
_symmetry_space_group_name_H-M 'P -1'
_symmetry_Int_Tables_number 2
loop_
_symmetry_equiv_pos_site_id
_symmetry_equiv_pos_as_xyz
1 x,y,z
2 -x,-y,-z
_cell_length_a 8.267(4)
_cell_length_b 11.182(6)
_cell_length_c 7.790(4)
_cell_angle_alpha 101.27(5)
_cell_angle_beta 112.79(5)
_cell_angle_gamma 72.08(5)
_cell_formula_units_Z 2
loop_
_atom_type_symbol
_atom_type_radius_bond
C 0.68
H 0.23
N 0.68
O 0.68
loop_
_atom_site_label
_atom_site_type_symbol
_atom_site_fract_x
_atom_site_fract_y
_atom_site_fract_z
N1 N 0.49810 0.17740 0.02830
C1 C 0.44380 0.14290 0.14960
C2 C 0.26610 0.12720 0.08900
C3 C 0.15050 0.14580 -0.09280
C4 C 0.20970 0.17920 -0.21370
C5 C 0.38400 0.19300 -0.14580
N2 N 0.19810 0.09340 0.21270
O1 O 0.03530 0.10490 0.16320
O2 O 0.30380 0.05540 0.36380
N3 N 0.56460 0.12870 0.32450
N4 N 0.71150 0.28770 0.70350
C6 C 0.73690 0.34680 0.58480
C7 C 0.75560 0.47190 0.63640
C8 C 0.75660 0.52970 0.81040
C9 C 0.73380 0.46670 0.92910
C10 C 0.71070 0.34720 0.86840
N5 N 0.77720 0.54370 0.51620
O3 O 0.79630 0.64980 0.57120
O4 O 0.77490 0.49660 0.36070
N6 N 0.74630 0.27950 0.42420
C11 C 0.74300 0.14840 0.38370
H1 H 0.02700 0.13800 -0.13000
H2 H 0.13900 0.19100 -0.33800
H3 H 0.42300 0.21900 -0.23100
H4 H 0.53500 0.10700 0.40200
H5 H 0.77700 0.61600 0.85000
H6 H 0.73800 0.50300 1.04800
H7 H 0.69800 0.29700 0.94400
H8 H 0.75800 0.31300 0.34700
H9 H 0.81300 0.10800 0.49600
H10 H 0.78900 0.11900 0.28800
#END
