
#######################################################################
#
#                 Cambridge Crystallographic Data Centre
#                                CCDC
#
#######################################################################
#
# If this CIF has been generated from an entry in the Cambridge
# Structural Database, then it will include bibliographic, chemical,
# crystal, experimental, refinement or atomic coordinate data resulting
# from the CCDC's data processing and validation procedures.
#
#######################################################################

data_CSD_CIF_NSTYRO
_audit_creation_date 1976-02-16
_audit_creation_method CSD-ConQuest-V1
_database_code_CSD NSTYRO
_chemical_formula_sum 'C8 H7 N1 O3'
_chemical_formula_moiety
;
C8 H7 N1 O3
;
_journal_coden_Cambridge 16
_journal_volume 31
_journal_year 1975
_journal_page_first 993
_journal_name_full 'Tetrahedron '
loop_
_publ_author_name
"D.J.Williams"
"P.Crotti"
"B.Macchia"
"F.Macchia"
_chemical_name_systematic
;
p-Nitrostyrene oxide
;
_chemical_melting_point 359.15
_cell_volume    768.079
_exptl_crystal_density_diffrn 1.43
_diffrn_ambient_temperature ?
_diffrn_special_details
;
The study was carried out at room temperature,in the range 283-303K

;
#These two values have been output from a single CSD field.
_refine_ls_R_factor_gt 0.045
_refine_ls_wR_factor_gt 0.045
_symmetry_cell_setting monoclinic
_symmetry_space_group_name_H-M 'P 21/c'
_symmetry_Int_Tables_number 14
loop_
_symmetry_equiv_pos_site_id
_symmetry_equiv_pos_as_xyz
1 x,y,z
2 -x,1/2+y,1/2-z
3 -x,-y,-z
4 x,-1/2-y,-1/2+z
_cell_length_a 7.8244(2)
_cell_length_b 7.1277(2)
_cell_length_c 14.2059(4)
_cell_angle_alpha 90
_cell_angle_beta 104.193
_cell_angle_gamma 90
_cell_formula_units_Z 4
loop_
_atom_type_symbol
_atom_type_radius_bond
C 0.68
H 0.23
N 0.68
O 0.68
loop_
_atom_site_label
_atom_site_type_symbol
_atom_site_fract_x
_atom_site_fract_y
_atom_site_fract_z
C1 C 0.48420 -0.28310 0.12070
C2 C 0.50390 -0.09160 0.11580
C3 C 0.36950 0.02220 0.13030
C4 C 0.21870 -0.05570 0.14930
C5 C 0.20490 -0.24930 0.15550
C6 C 0.33760 -0.36450 0.14090
C7 C 0.07110 0.06460 0.16260
C8 C 0.00580 0.21990 0.09800
H1 H 0.61470 -0.03690 0.10650
H2 H 0.38420 0.15830 0.12630
H3 H 0.09400 -0.30910 0.16370
H4 H 0.32770 -0.50470 0.14880
H5 H -0.00940 0.00160 0.19740
H6 H 0.05870 0.25040 0.04430
H7 H -0.11900 0.25440 0.09010
N1 N 0.62470 -0.40620 0.10340
O1 O 0.75140 -0.33280 0.08220
O2 O 0.60680 -0.57620 0.11000
O3 O 0.11500 0.25410 0.19300
#END
