
#######################################################################
#
#                 Cambridge Crystallographic Data Centre
#                                CCDC
#
#######################################################################
#
# If this CIF has been generated from an entry in the Cambridge
# Structural Database, then it will include bibliographic, chemical,
# crystal, experimental, refinement or atomic coordinate data resulting
# from the CCDC's data processing and validation procedures.
#
#######################################################################

data_CSD_CIF_NTBYPY
_audit_creation_date 1974-09-02
_audit_creation_method CSD-ConQuest-V1
_database_code_CSD NTBYPY
_chemical_formula_sum 'C12 H9 N3 O4'
_chemical_formula_moiety
;
C12 H9 N3 O4
;
_journal_coeditor_code "IUCr A10978"
_journal_coden_Cambridge 107
_journal_volume 30
_journal_year 1974
_journal_page_first 955
_journal_name_full 'Acta Crystallogr.,Sect.B:Struct.Crystallogr.Cryst.Chem. '
loop_
_publ_author_name
"T.Ottersen"
"K.Seff"
_chemical_name_systematic
;
4-(2',4'-Dinitrobenzyl)pyridine
;
_cell_volume   1179.479
_exptl_crystal_density_diffrn 1.46
_diffrn_ambient_temperature ?
_diffrn_special_details
;
The study was carried out at room temperature,in the range 283-303K

;
#These two values have been output from a single CSD field.
_refine_ls_R_factor_gt 0.056
_refine_ls_wR_factor_gt 0.056
_symmetry_cell_setting monoclinic
_symmetry_space_group_name_H-M 'P 21/c'
_symmetry_Int_Tables_number 14
loop_
_symmetry_equiv_pos_site_id
_symmetry_equiv_pos_as_xyz
1 x,y,z
2 -x,1/2+y,1/2-z
3 -x,-y,-z
4 x,-1/2-y,-1/2+z
_cell_length_a 7.214(2)
_cell_length_b 13.344(5)
_cell_length_c 12.553(5)
_cell_angle_alpha 90
_cell_angle_beta 102.56(3)
_cell_angle_gamma 90
_cell_formula_units_Z 4
loop_
_atom_type_symbol
_atom_type_radius_bond
C 0.68
H 0.20
N 0.68
O 0.68
loop_
_atom_site_label
_atom_site_type_symbol
_atom_site_fract_x
_atom_site_fract_y
_atom_site_fract_z
C1 C -0.29988 -0.33323 0.35922
C2 C -0.88323 -0.56024 0.21671
C3 C -0.86240 -0.47479 0.15897
C4 C -0.68670 -0.42794 0.18020
C5 C -0.43216 -0.26358 0.37618
C6 C -0.37786 -0.18938 0.45427
C7 C -0.07650 -0.24791 0.49837
C8 C -0.11668 -0.32393 0.42267
C9 C -0.34177 -0.41349 0.27238
C10 C -0.53273 -0.46448 0.25805
C11 C -0.56646 -0.55047 0.31449
C12 C -0.73820 -0.60045 0.29471
H1 H -0.56030 -0.26710 0.33500
H2 H -0.46400 -0.14040 0.46460
H3 H 0.05030 -0.24310 0.54230
H4 H -0.02390 -0.37070 0.41810
H5 H -0.24280 -0.46520 0.28820
H6 H -0.34170 -0.38220 0.20600
H7 H -0.75370 -0.65250 0.32720
H8 H -0.96140 -0.44800 0.10860
H9 H -0.67420 -0.36850 0.14200
N1 N -0.20311 -0.18044 0.51564
N2 N -0.41342 -0.59586 0.39770
N3 N -1.06711 -0.61275 0.19201
O1 O -0.40515 -0.68701 0.40185
O2 O -0.30625 -0.54011 0.45935
O3 O -1.18572 -0.58426 0.11279
O4 O -1.09097 -0.68139 0.25019
#END
