
#######################################################################
#
#                 Cambridge Crystallographic Data Centre
#                                CCDC
#
#######################################################################
#
# If this CIF has been generated from an entry in the Cambridge
# Structural Database, then it will include bibliographic, chemical,
# crystal, experimental, refinement or atomic coordinate data resulting
# from the CCDC's data processing and validation procedures.
#
#######################################################################

data_CSD_CIF_NTBZAM11
_audit_creation_date 2003-02-11
_audit_creation_method CSD-ConQuest-V1
_database_code_CSD NTBZAM11
_database_code_depnum_ccdc_archive 'CCDC 202356'
_chemical_formula_sum 'C7 H6 N2 O3'
_chemical_formula_moiety
;
C7 H6 N2 O3
;
_journal_coeditor_code "IUCr NA6185"
_journal_coden_Cambridge 1370
_journal_volume 58
_journal_year 2002
_journal_page_first o1436
_journal_name_full 'Acta Crystallogr.,Sect.E:Struct.Rep.Online '
loop_
_publ_author_name
"P.G.Jones"
"H.Thonnessen"
"R.Schmutzler"
"A.K.Fischer"
_chemical_name_systematic
;
p-Nitrobenzamide
;
_chemical_name_common
;
4-Nitrobenzamide
;
_cell_volume    715.176
_exptl_crystal_colour 'colorless'
_exptl_crystal_density_diffrn 1.543
_exptl_special_details
;
polymorph II

;
_exptl_crystal_description 'plate'
_exptl_crystal_preparation 'dichloromethane'
_diffrn_ambient_temperature 173
#These two values have been output from a single CSD field.
_refine_ls_R_factor_gt 0.0492
_refine_ls_wR_factor_gt 0.0492
_symmetry_cell_setting monoclinic
_symmetry_space_group_name_H-M 'P 21/c'
_symmetry_Int_Tables_number 14
loop_
_symmetry_equiv_pos_site_id
_symmetry_equiv_pos_as_xyz
1 x,y,z
2 x,1/2-y,1/2+z
3 -x,-y,-z
4 -x,-1/2+y,-1/2-z
_cell_length_a 7.0993(15)
_cell_length_b 10.183(2)
_cell_length_c 10.1298(15)
_cell_angle_alpha 90
_cell_angle_beta 102.417(10)
_cell_angle_gamma 90
_cell_formula_units_Z 4
loop_
_atom_type_symbol
_atom_type_radius_bond
C 0.68
H 0.23
N 0.68
O 0.68
loop_
_atom_site_label
_atom_site_type_symbol
_atom_site_fract_x
_atom_site_fract_y
_atom_site_fract_z
C1 C 0.2595(2) 0.57451(14) 0.51804(14)
C2 C 0.3409(2) 0.49565(15) 0.62834(15)
H1 H 0.39800 0.53520 0.71230
C3 C 0.3390(2) 0.35940(15) 0.61615(15)
H2 H 0.39530 0.30500 0.69040
C4 C 0.2523(2) 0.30567(15) 0.49214(15)
C5 C 0.1726(2) 0.38100(15) 0.37974(15)
H3 H 0.11590 0.34080 0.29600
C6 C 0.1782(2) 0.51691(15) 0.39312(15)
H4 H 0.12680 0.57080 0.31740
C7 C 0.2575(2) 0.72082(15) 0.54168(15)
N1 N 0.2306(2) 0.79970(15) 0.43350(15)
H5 H 0.233(3) 0.883(3) 0.447(2)
H6 H 0.243(3) 0.772(2) 0.351(2)
N2 N 0.2443(2) 0.16094(14) 0.48053(14)
O1 O 0.27697(19) 0.76407(12) 0.65812(11)
O2 O 0.3159(2) 0.09500(13) 0.57957(15)
O3 O 0.1651(2) 0.11223(13) 0.37189(14)
#END
