
#######################################################################
#
#                 Cambridge Crystallographic Data Centre
#                                CCDC
#
#######################################################################
#
# If this CIF has been generated from an entry in the Cambridge
# Structural Database, then it will include bibliographic, chemical,
# crystal, experimental, refinement or atomic coordinate data resulting
# from the CCDC's data processing and validation procedures.
#
#######################################################################

data_CSD_CIF_NUBJEZ
_audit_creation_date 1998-09-03
_audit_creation_method CSD-ConQuest-V1
_database_code_CSD NUBJEZ
_chemical_formula_sum 'C9 H10 N2 O3'
_chemical_formula_moiety
;
C9 H10 N2 O3
;
_journal_coden_Cambridge 154
_journal_volume 50
_journal_year 1997
_journal_page_first 771
_journal_name_full 'Aust.J.Chem. '
loop_
_publ_author_name
"M.E.Tate"
"I.M.Dalaere"
"G.P.Jones"
"A.A.Seawright"
"E.R.T.Tiekink"
_chemical_name_systematic
;
(Z)-(Benzoyloxymethyl-NNO-azoxy)methane
;
_chemical_melting_point 338.15
_cell_volume    954.760
_exptl_crystal_colour 'colorless'
_exptl_crystal_density_diffrn 1.351
_exptl_special_details
;
Melting point range 338.15-339.15K
hepatotoxicity effects in mice

;
_exptl_crystal_description 'plates'
_exptl_crystal_preparation 'hexane/chloroform'
_diffrn_ambient_temperature ?
_diffrn_special_details
;
The study was carried out at room temperature,in the range 283-303K

;
#These two values have been output from a single CSD field.
_refine_ls_R_factor_gt 0.048
_refine_ls_wR_factor_gt 0.048
_symmetry_cell_setting monoclinic
_symmetry_space_group_name_H-M 'P 21/c'
_symmetry_Int_Tables_number 14
loop_
_symmetry_equiv_pos_site_id
_symmetry_equiv_pos_as_xyz
1 x,y,z
2 -x,1/2+y,1/2-z
3 -x,-y,-z
4 x,-1/2-y,-1/2+z
_cell_length_a 7.436(2)
_cell_length_b 8.771(2)
_cell_length_c 14.640(1)
_cell_angle_alpha 90
_cell_angle_beta 90.73(1)
_cell_angle_gamma 90
_cell_formula_units_Z 4
loop_
_atom_type_symbol
_atom_type_radius_bond
C 0.68
H 0.23
N 0.68
O 0.68
loop_
_atom_site_label
_atom_site_type_symbol
_atom_site_fract_x
_atom_site_fract_y
_atom_site_fract_z
O1 O 0.8632(3) 0.1232(2) 0.0919(1)
O2 O 0.7313(2) 0.2129(2) -0.0352(1)
O3 O 0.5929(3) -0.1777(2) -0.1454(1)
N1 N 0.5973(3) 0.0759(2) -0.1465(1)
N2 N 0.5493(3) -0.0516(3) -0.1785(1)
C1 C 0.8208(3) 0.3919(3) 0.0750(2)
C2 C 0.9031(4) 0.4278(4) 0.1577(2)
C3 C 0.9180(4) 0.5767(4) 0.1849(2)
C4 C 0.8507(4) 0.6913(4) 0.1307(2)
C5 C 0.7687(4) 0.6575(3) 0.0492(2)
C6 C 0.7525(4) 0.5078(3) 0.0212(2)
C7 C 0.8086(3) 0.2297(3) 0.0472(2)
C8 C 0.7092(5) 0.0596(3) -0.0665(2)
C9 C 0.4340(6) -0.0496(5) -0.2609(2)
H1 H 0.953(4) 0.346(3) 0.192(2)
H2 H 0.960(4) 0.595(3) 0.245(2)
H3 H 0.861(4) 0.796(3) 0.142(2)
H4 H 0.721(4) 0.736(4) 0.005(2)
H5 H 0.696(3) 0.489(3) -0.037(2)
H6 H 0.837(4) 0.010(3) -0.084(2)
H7 H 0.655(3) -0.008(3) -0.020(2)
H8 H 0.312(6) -0.091(4) -0.240(3)
H9 H 0.413(5) 0.046(5) -0.277(3)
H10 H 0.492(5) -0.109(4) -0.303(2)
#END
