
#######################################################################
#
#                 Cambridge Crystallographic Data Centre
#                                CCDC
#
#######################################################################
#
# If this CIF has been generated from an entry in the Cambridge
# Structural Database, then it will include bibliographic, chemical,
# crystal, experimental, refinement or atomic coordinate data resulting
# from the CCDC's data processing and validation procedures.
#
#######################################################################

data_CSD_CIF_NUCNOO
_audit_creation_date 1998-09-03
_audit_creation_method CSD-ConQuest-V1
_database_code_CSD NUCNOO
_chemical_formula_sum 'C19 H16 N2 O6'
_chemical_formula_moiety
;
C19 H16 N2 O6
;
_journal_coden_Cambridge 24
_journal_volume 38
_journal_year 1997
_journal_page_first 4521
_journal_name_full 'Tetrahedron Lett. '
loop_
_publ_author_name
"M.G.B.Drew"
"M.Fengler-Veith"
"L.M.Harwood"
"A.W.Jahans"
_chemical_name_systematic
;
exo-9-(4-Nitrophenyl)-5-phenyl-3,10,11-trioxa-6-azatricyclo(6.2.1.0^1,6^)undec
an-7-one
;
_chemical_melting_point 422.15
_cell_volume   1755.227
_exptl_crystal_density_diffrn 1.394
_exptl_special_details
;
Melting point range 422.15-425.15K

;
_diffrn_ambient_temperature ?
_diffrn_special_details
;
The study was carried out at room temperature,in the range 283-303K

;
#These two values have been output from a single CSD field.
_refine_ls_R_factor_gt 0.062
_refine_ls_wR_factor_gt 0.062
_symmetry_cell_setting orthorhombic
_symmetry_space_group_name_H-M 'P 21 21 21'
_symmetry_Int_Tables_number 19
loop_
_symmetry_equiv_pos_site_id
_symmetry_equiv_pos_as_xyz
1 x,y,z
2 1/2-x,-y,1/2+z
3 1/2+x,1/2-y,-z
4 -x,1/2+y,1/2-z
_cell_length_a 7.882(7)
_cell_length_b 9.636(9)
_cell_length_c 23.11(2)
_cell_angle_alpha 90
_cell_angle_beta 90
_cell_angle_gamma 90
_cell_formula_units_Z 4
loop_
_atom_type_symbol
_atom_type_radius_bond
C 0.68
H 0.23
N 0.68
O 0.68
loop_
_atom_site_label
_atom_site_type_symbol
_atom_site_fract_x
_atom_site_fract_y
_atom_site_fract_z
C1 C 0.2441(5) 0.1511(4) 0.1123(2)
C2 C 0.1139(5) 0.1717(4) 0.0640(2)
N1 N 0.0591(4) 0.0396(4) 0.0547(1)
C3 C -0.0633(4) -0.0108(5) 0.0112(1)
C4 C -0.1271(5) -0.1511(5) 0.0325(2)
O1 O 0.0091(4) -0.2391(3) 0.0506(1)
C5 C 0.0795(5) -0.1892(5) 0.1033(2)
C6 C 0.1578(4) -0.0501(4) 0.0938(1)
O2 O 0.1734(3) 0.0348(3) 0.1436(1)
C7 C 0.3986(4) 0.0782(4) 0.0840(1)
O3 O 0.3279(3) -0.0571(3) 0.0722(1)
O4 O 0.0739(4) 0.2762(3) 0.0378(1)
C8 C 0.0090(5) -0.0172(4) -0.0500(1)
C9 C -0.1071(6) -0.0139(5) -0.0953(2)
C10 C -0.0514(7) -0.0258(6) -0.1519(2)
C11 C 0.1207(8) -0.0465(5) -0.1640(2)
C12 C 0.2338(6) -0.0489(5) -0.1193(2)
C13 C 0.1778(5) -0.0355(5) -0.0622(2)
C14 C 0.5477(4) 0.0694(5) 0.1257(1)
C15 C 0.5758(5) -0.0457(5) 0.1600(2)
C16 C 0.7089(5) -0.0458(5) 0.2007(2)
C17 C 0.8061(5) 0.0702(5) 0.2049(2)
C18 C 0.7852(6) 0.1842(5) 0.1708(2)
C19 C 0.6538(5) 0.1822(5) 0.1306(2)
N2 N 0.9416(5) 0.0727(5) 0.2493(2)
O5 O 0.9535(6) -0.0251(6) 0.2815(2)
O6 O 1.0338(6) 0.1740(5) 0.2527(2)
H1 H 0.2700(5) 0.2335(4) 0.1356(2)
H2 H -0.1598(4) 0.0533(5) 0.0108(1)
H3 H -0.2042(5) -0.1369(5) 0.0647(2)
H4 H -0.1896(5) -0.1963(5) 0.0017(2)
H5 H 0.1648(7) -0.2537(5) 0.1172(2)
H6 H -0.0087(5) -0.1823(5) 0.1324(2)
H7 H 0.4315(4) 0.1250(4) 0.0480(1)
H8 H -0.2222(6) -0.0036(5) -0.0876(2)
H9 H -0.1290(7) -0.0200(6) -0.1821(2)
H10 H 0.1573(8) -0.0583(5) -0.2019(2)
H11 H 0.3490(6) -0.0596(5) -0.1270(2)
H12 H 0.2560(5) -0.0390(5) -0.0320(2)
H13 H 0.5067(5) -0.1234(5) 0.1563(2)
H14 H 0.7295(5) -0.1228(5) 0.2239(2)
H15 H 0.8564(6) 0.2607(5) 0.1742(2)
H16 H 0.6373(5) 0.2585(5) 0.1066(2)
#END
