
#######################################################################
#
#                 Cambridge Crystallographic Data Centre
#                                CCDC
#
#######################################################################
#
# If this CIF has been generated from an entry in the Cambridge
# Structural Database, then it will include bibliographic, chemical,
# crystal, experimental, refinement or atomic coordinate data resulting
# from the CCDC's data processing and validation procedures.
#
#######################################################################

data_CSD_CIF_NUFDUP
_audit_creation_date 2015-04-28
_audit_creation_method CSD-ConQuest-V1
_database_code_CSD NUFDUP
_database_code_depnum_ccdc_archive 'CCDC 957445'
_chemical_formula_sum 'C21 H23 N3 O2'
_chemical_formula_moiety
;
C21 H23 N3 O2
;
_journal_coden_Cambridge 493
_journal_volume 86
_journal_year 2014
_journal_page_first 639
_journal_name_full 'Eur.J.Med.Chem. '
loop_
_publ_author_name
"Yiwu Yao"
"Chenzhong Liao"
"Zheng Li"
"Zhen Wang"
"Qiao Suna"
"Chunping Liu"
"Yang Yang"
"Zhengchao Tu"
"Sheng Jiang"
_chemical_name_systematic
;
5-(1-(biphenyl-3-ylmethyl)-1H-pyrazol-5-yl)-N-hydroxypentanamide
;
_cell_volume    928.418
_exptl_crystal_density_diffrn 1.25
_diffrn_ambient_temperature 108
#These two values have been output from a single CSD field.
_refine_ls_R_factor_gt 0.0348
_refine_ls_wR_factor_gt 0.0348
_symmetry_cell_setting monoclinic
_symmetry_space_group_name_H-M 'P c'
_symmetry_Int_Tables_number 7
loop_
_symmetry_equiv_pos_site_id
_symmetry_equiv_pos_as_xyz
1 x,y,z
2 x,-y,1/2+z
_cell_length_a 9.2614(3)
_cell_length_b 10.9532(3)
_cell_length_c 9.7376(3)
_cell_angle_alpha 90
_cell_angle_beta 109.968(3)
_cell_angle_gamma 90
_cell_formula_units_Z 2
loop_
_atom_type_symbol
_atom_type_radius_bond
C 0.68
H 0.23
N 0.68
O 0.68
loop_
_atom_site_label
_atom_site_type_symbol
_atom_site_fract_x
_atom_site_fract_y
_atom_site_fract_z
O1 O 0.13547(14) 0.90375(12) 0.34055(15)
H1 H 0.14680 0.82940 0.34350
O2 O 0.31794(16) 0.95351(12) 0.18093(14)
N1 N 0.27814(17) 0.96005(14) 0.39743(16)
H2 H 0.31370 0.98000 0.48830
C1 C 0.83477(19) 1.71975(17) 0.7304(2)
C2 C 0.3595(2) 0.98295(17) 0.3115(2)
C3 C 0.8626(2) 1.79305(17) 0.4961(2)
H3 H 0.95910 1.82410 0.54900
C4 C 0.77501(19) 1.73611(16) 0.56908(19)
N2 N 0.22552(17) 1.66498(14) 0.36988(17)
N3 N 0.32221(16) 1.60179(13) 0.31796(15)
C5 C 0.9350(2) 1.6914(2) 1.0336(2)
H4 H 0.96720 1.68230 1.13450
C6 C 0.6283(2) 1.69310(16) 0.4867(2)
H5 H 0.56790 1.65620 0.53410
C7 C 0.8058(2) 1.61204(17) 0.7936(2)
H6 H 0.75270 1.54890 0.73380
C8 C 0.8548(2) 1.5980(2) 0.9435(2)
H7 H 0.83410 1.52600 0.98390
C9 C 0.1541(2) 1.57987(19) 0.4204(2)
H8 H 0.08040 1.59650 0.46300
C10 C 0.2036(2) 1.46206(18) 0.4014(2)
H9 H 0.17020 1.38830 0.42740
C11 C 0.5716(2) 1.70447(15) 0.33614(19)
C12 C 0.4126(2) 1.39031(17) 0.2941(2)
H10 H 0.51930 1.41310 0.34220
H11 H 0.39080 1.39510 0.18950
C13 C 0.9671(2) 1.7983(2) 0.9736(2)
H12 H 1.02150 1.86060 1.03420
C14 C 0.5095(2) 1.04773(17) 0.3867(2)
H13 H 0.59350 0.99850 0.37890
H14 H 0.52390 1.05720 0.48950
C15 C 0.5132(2) 1.17347(18) 0.3193(2)
H15 H 0.61330 1.21010 0.36650
H16 H 0.49890 1.16360 0.21650
C16 C 0.6632(2) 1.75860(17) 0.2654(2)
H17 H 0.62760 1.76450 0.16410
C17 C 0.3124(2) 1.47962(17) 0.33600(19)
C18 C 0.3901(2) 1.25897(17) 0.3345(2)
H18 H 0.39160 1.25670 0.43460
H19 H 0.29010 1.23050 0.27190
C19 C 0.9179(2) 1.81205(19) 0.8229(2)
H20 H 0.94050 1.88360 0.78300
C20 C 0.8072(2) 1.80363(18) 0.3458(2)
H21 H 0.86690 1.84120 0.29820
C21 C 0.4108(2) 1.66561(17) 0.24247(19)
H22 H 0.35400 1.73790 0.19670
H23 H 0.41870 1.61320 0.16510
#END
