
#######################################################################
#
#                 Cambridge Crystallographic Data Centre
#                                CCDC
#
#######################################################################
#
# If this CIF has been generated from an entry in the Cambridge
# Structural Database, then it will include bibliographic, chemical,
# crystal, experimental, refinement or atomic coordinate data resulting
# from the CCDC's data processing and validation procedures.
#
#######################################################################

data_CSD_CIF_NUFDOJ
_audit_creation_date 2015-04-28
_audit_creation_method CSD-ConQuest-V1
_database_code_CSD NUFDOJ
_database_code_depnum_ccdc_archive 'CCDC 741896'
_chemical_formula_sum 'C2 H3 N5 O3'
_chemical_formula_moiety
;
C2 H3 N5 O3
;
_journal_coden_Cambridge 584
_journal_volume 30
_journal_year 2010
_journal_page_first 424
_journal_name_full 'Youji Huaxue(Chin.)(Chin.J.Org.Chem.) '
loop_
_publ_author_name
"Chenghui Sun"
"Yuchuan Li"
"Yayu Li"
"Guanqiong Li"
"Siping Pang"
_chemical_name_systematic
;
(5-nitro-2H-tetrazol-2-yl)methanol
;
_cell_volume    274.702
_exptl_crystal_colour 'colorless'
_exptl_crystal_density_diffrn 1.754
_exptl_crystal_description 'prism'
_diffrn_ambient_temperature 93
#These two values have been output from a single CSD field.
_refine_ls_R_factor_gt 0.0366
_refine_ls_wR_factor_gt 0.0366
_symmetry_cell_setting monoclinic
_symmetry_space_group_name_H-M 'P 21'
_symmetry_Int_Tables_number 4
loop_
_symmetry_equiv_pos_site_id
_symmetry_equiv_pos_as_xyz
1 x,y,z
2 -x,1/2+y,-z
_cell_length_a 6.6131(18)
_cell_length_b 5.4905(15)
_cell_length_c 7.566(2)
_cell_angle_alpha 90
_cell_angle_beta 90.578(4)
_cell_angle_gamma 90
_cell_formula_units_Z 2
loop_
_atom_type_symbol
_atom_type_radius_bond
C 0.68
H 0.23
N 0.68
O 0.68
loop_
_atom_site_label
_atom_site_type_symbol
_atom_site_fract_x
_atom_site_fract_y
_atom_site_fract_z
N1 N 0.0546(4) 0.4153(6) 0.1747(4)
N2 N 0.1898(4) 0.2487(6) 0.1389(4)
N3 N 0.3586(4) 0.3196(5) 0.2206(3)
N4 N 0.3421(4) 0.5255(6) 0.3101(4)
N5 N 0.0525(4) 0.7920(5) 0.3449(4)
O1 O 0.6589(3) 0.2574(6) 0.0633(3)
H1 H 0.75100 0.35210 0.09770
O2 O -0.1212(4) 0.8305(5) 0.2956(4)
O3 O 0.1517(4) 0.9179(6) 0.4478(3)
C1 C 0.1512(5) 0.5757(7) 0.2759(4)
C2 C 0.5496(5) 0.1770(8) 0.2082(5)
H2 H 0.63100 0.19840 0.31760
H3 H 0.51800 0.00170 0.19480
#END
