
#######################################################################
#
#                 Cambridge Crystallographic Data Centre
#                                CCDC
#
#######################################################################
#
# If this CIF has been generated from an entry in the Cambridge
# Structural Database, then it will include bibliographic, chemical,
# crystal, experimental, refinement or atomic coordinate data resulting
# from the CCDC's data processing and validation procedures.
#
#######################################################################

data_CSD_CIF_NUFRUB
_audit_creation_date 1998-09-03
_audit_creation_method CSD-ConQuest-V1
_database_code_CSD NUFRUB
_chemical_formula_sum 'C8 H11 N1 O5'
_chemical_formula_moiety
;
C8 H11 N1 O5
;
_journal_coden_Cambridge 35
_journal_volume 63
_journal_year 1998
_journal_page_first 2068
_journal_name_full 'J.Org.Chem. '
loop_
_publ_author_name
"S.Marumoto"
"H.Kogen"
"S.Naruto"
_chemical_name_systematic
;
5-Methyl-3,4-epoxy-3-(N-methyl-N-methoxyacetamido)tetrahydrofuran-2-one
;
_chemical_name_common
;
N-Methoxy-N-methyl 4-methyl-2-oxo-3,6-dioxabicyclo(3.1.0)hexane-1-carboxamide
;
_cell_volume    972.265
_exptl_crystal_colour 'colorless'
_exptl_crystal_density_diffrn 1.374
_exptl_crystal_description 'prismatic'
_diffrn_ambient_temperature ?
_diffrn_special_details
;
The study was carried out at room temperature,in the range 283-303K

;
#These two values have been output from a single CSD field.
_refine_ls_R_factor_gt 0.0413
_refine_ls_wR_factor_gt 0.0413
loop_
_citation_database_id_CSD
_citation_special_details
WIQSOE "is a stereoisomer of this entry"
_symmetry_cell_setting orthorhombic
_symmetry_space_group_name_H-M 'P 21 21 21'
_symmetry_Int_Tables_number 19
loop_
_symmetry_equiv_pos_site_id
_symmetry_equiv_pos_as_xyz
1 x,y,z
2 1/2-x,-y,1/2+z
3 1/2+x,1/2-y,-z
4 -x,1/2+y,1/2-z
_cell_length_a 9.577(2)
_cell_length_b 15.361(1)
_cell_length_c 6.609(2)
_cell_angle_alpha 90
_cell_angle_beta 90
_cell_angle_gamma 90
_cell_formula_units_Z 4
loop_
_atom_type_symbol
_atom_type_radius_bond
C 0.68
H 0.23
N 0.68
O 0.68
loop_
_atom_site_label
_atom_site_type_symbol
_atom_site_fract_x
_atom_site_fract_y
_atom_site_fract_z
O1 O 0.7722(4) 0.6307(2) 0.6149(6)
O2 O 0.5058(3) 0.6053(3) 0.4880(7)
O3 O 0.8162(4) 0.6573(2) 0.2905(6)
O4 O 0.4309(4) 0.7118(3) 0.1548(7)
O5 O 0.6956(3) 0.8329(2) 0.3752(6)
N1 N 0.5841(5) 0.8152(3) 0.2460(8)
C1 C 0.6628(6) 0.6453(3) 0.764(1)
C2 C 0.5388(6) 0.6702(4) 0.6371(8)
C3 C 0.5856(5) 0.6810(3) 0.4281(9)
C4 C 0.7369(6) 0.6570(3) 0.4309(8)
C5 C 0.6429(9) 0.5642(4) 0.887(1)
C6 C 0.5256(6) 0.7359(3) 0.2654(10)
C7 C 0.6590(8) 0.8973(5) 0.522(1)
C8 C 0.564(1) 0.8742(7) 0.081(1)
H1 H 0.687(6) 0.691(4) 0.845(9)
H2 H 0.462(7) 0.696(4) 0.691(9)
H3 H 0.624(6) 0.517(4) 0.80(1)
H4 H 0.574(7) 0.572(5) 0.99(1)
H5 H 0.733(6) 0.550(4) 0.95(1)
H6 H 0.637(7) 0.952(4) 0.42(1)
H7 H 0.736(8) 0.897(5) 0.61(1)
H8 H 0.56(1) 0.865(5) 0.61(1)
H9 H 0.488(9) 0.850(5) 0.00(1)
H10 H 0.537(9) 0.933(6) 0.14(1)
H11 H 0.637(8) 0.886(5) 0.01(1)
#END
