
#######################################################################
#
#                 Cambridge Crystallographic Data Centre
#                                CCDC
#
#######################################################################
#
# If this CIF has been generated from an entry in the Cambridge
# Structural Database, then it will include bibliographic, chemical,
# crystal, experimental, refinement or atomic coordinate data resulting
# from the CCDC's data processing and validation procedures.
#
#######################################################################

data_CSD_CIF_NUGJEG
_audit_creation_date 2015-04-29
_audit_creation_method CSD-ConQuest-V1
_database_code_CSD NUGJEG
_database_code_depnum_ccdc_archive 'CCDC 1037955'
_chemical_formula_sum 'C22 H20 N4 O1'
_chemical_formula_moiety
;
C22 H20 N4 O1
;
_journal_coden_Cambridge 16
_journal_volume 71
_journal_year 2015
_journal_page_first 7077
_journal_name_full 'Tetrahedron '
loop_
_publ_author_name
"M.V.Varaksin"
"I.A.Utepova"
"O.N.Chupakhin"
"V.N.Charushin"
_chemical_name_systematic
;
3-Phenyl-2-(quinoxaline-2-yl)-1,4-diazaspiro[4.5]deca-1,3-diene-1-oxide
;
_cell_volume   1851.689
_exptl_crystal_colour 'colorless'
_exptl_crystal_density_diffrn 1.279
_exptl_crystal_description 'prism'
_diffrn_ambient_temperature 295
#These two values have been output from a single CSD field.
_refine_ls_R_factor_gt 0.0289
_refine_ls_wR_factor_gt 0.0289
_symmetry_cell_setting orthorhombic
_symmetry_space_group_name_H-M 'P 21 21 21'
_symmetry_Int_Tables_number 19
loop_
_symmetry_equiv_pos_site_id
_symmetry_equiv_pos_as_xyz
1 x,y,z
2 1/2-x,-y,1/2+z
3 -x,1/2+y,1/2-z
4 1/2+x,1/2-y,-z
_cell_length_a 7.9877(3)
_cell_length_b 12.1831(4)
_cell_length_c 19.0278(6)
_cell_angle_alpha 90
_cell_angle_beta 90
_cell_angle_gamma 90
_cell_formula_units_Z 4
loop_
_atom_type_symbol
_atom_type_radius_bond
C 0.68
H 0.23
N 0.68
O 0.68
loop_
_atom_site_label
_atom_site_type_symbol
_atom_site_fract_x
_atom_site_fract_y
_atom_site_fract_z
N1 N 0.13998(15) 0.36538(9) 0.01108(6)
O1 O 0.27064(13) 0.30573(8) 0.00706(5)
C1 C 0.0958(2) 0.23077(12) -0.12041(8)
N2 N -0.05304(15) 0.39092(9) -0.15648(6)
C2 C 0.02324(19) 0.33505(11) -0.10698(7)
N3 N -0.05359(15) 0.48555(10) 0.05939(6)
C3 C 0.02346(18) 0.38399(11) -0.03677(7)
C4 C -0.09421(18) 0.46073(10) -0.00432(7)
N4 N 0.09387(19) 0.18446(9) -0.18234(6)
C5 C -0.24673(19) 0.50818(12) -0.03627(7)
C6 C -0.5144(2) 0.48806(18) -0.09016(9)
H1 H -0.59820 0.44290 -0.10790
C7 C -0.3699(2) 0.44245(14) -0.06383(8)
H2 H -0.35570 0.36670 -0.06470
C8 C -0.5355(3) 0.5995(2) -0.09041(9)
H3 H -0.63170 0.63030 -0.10970
C9 C -0.4144(3) 0.66556(17) -0.06219(10)
H4 H -0.42950 0.74130 -0.06170
C10 C -0.2704(2) 0.62095(13) -0.03453(8)
H5 H -0.18940 0.66620 -0.01480
C11 C 0.09952(19) 0.42873(13) 0.07679(7)
C12 C 0.2372(2) 0.51082(14) 0.09291(8)
H6 H 0.24540 0.56380 0.05500
H7 H 0.34370 0.47300 0.09670
C13 C 0.1984(3) 0.56978(15) 0.16163(8)
H8 H 0.09540 0.61120 0.15660
H9 H 0.28780 0.62100 0.17230
C14 C 0.1804(3) 0.48897(16) 0.22109(9)
H10 H 0.28630 0.45170 0.22840
H11 H 0.15290 0.52820 0.26390
C15 C 0.0455(3) 0.40493(15) 0.20610(8)
H12 H -0.06260 0.44110 0.20510
H13 H 0.04360 0.35100 0.24360
C16 C 0.0751(2) 0.34734(13) 0.13656(8)
H14 H 0.17350 0.30110 0.14040
H15 H -0.01990 0.30050 0.12610
C17 C 0.01534(19) 0.24112(11) -0.23485(7)
C18 C 0.0059(2) 0.19568(14) -0.30294(8)
C19 C -0.0757(2) 0.25135(15) -0.35434(9)
C20 C -0.1508(3) 0.35274(17) -0.34118(9)
C21 C -0.1418(2) 0.39886(14) -0.27630(8)
C22 C -0.05901(19) 0.34422(11) -0.22163(7)
H16 H 0.148(2) 0.1923(12) -0.0823(8)
H17 H 0.056(2) 0.1229(13) -0.3105(8)
H18 H -0.079(2) 0.2225(13) -0.3994(9)
H19 H -0.191(2) 0.4685(13) -0.2649(9)
H20 H -0.207(2) 0.3906(14) -0.3784(10)
#END
