
#######################################################################
#
#                 Cambridge Crystallographic Data Centre
#                                CCDC
#
#######################################################################
#
# If this CIF has been generated from an entry in the Cambridge
# Structural Database, then it will include bibliographic, chemical,
# crystal, experimental, refinement or atomic coordinate data resulting
# from the CCDC's data processing and validation procedures.
#
#######################################################################

data_CSD_CIF_NUGSOY
_audit_creation_date 2010-04-23
_audit_creation_method CSD-ConQuest-V1
_database_code_CSD NUGSOY
_database_code_depnum_ccdc_archive 'CCDC 731098'
_chemical_formula_sum 'C38 H28 N2 O4'
_chemical_formula_moiety
;
C38 H28 N2 O4
;
_journal_coden_Cambridge 24
_journal_volume 50
_journal_year 2009
_journal_page_first 5311
_journal_name_full 'Tetrahedron Lett. '
loop_
_publ_author_name
"Hairong Li"
"S.Valiyaveettil"
_chemical_name_systematic
;
3,3''-Dinitro-2',5'-bis(4-phenylbuta-1,3-dien-1-yl)-1,1':4',1''-terphenyl
;
_cell_volume   1446.615
_exptl_crystal_colour 'yellow'
_exptl_crystal_density_diffrn 1.324
_exptl_crystal_description 'thin plate'
_diffrn_ambient_temperature 295
#These two values have been output from a single CSD field.
_refine_ls_R_factor_gt 0.0642
_refine_ls_wR_factor_gt 0.0642
_symmetry_cell_setting monoclinic
_symmetry_space_group_name_H-M 'P 21/c'
_symmetry_Int_Tables_number 14
loop_
_symmetry_equiv_pos_site_id
_symmetry_equiv_pos_as_xyz
1 x,y,z
2 -x,1/2+y,1/2-z
3 -x,-y,-z
4 x,-1/2-y,-1/2+z
_cell_length_a 10.350(2)
_cell_length_b 21.674(5)
_cell_length_c 6.7538(14)
_cell_angle_alpha 90
_cell_angle_beta 107.287(6)
_cell_angle_gamma 90
_cell_formula_units_Z 2
loop_
_atom_type_symbol
_atom_type_radius_bond
C 0.68
H 0.23
N 0.68
O 0.68
loop_
_atom_site_label
_atom_site_type_symbol
_atom_site_fract_x
_atom_site_fract_y
_atom_site_fract_z
O1 O 0.6038(3) 0.16891(9) 0.9107(3)
O2 O 0.4244(3) 0.22038(10) 0.8906(5)
N1 N 0.5440(3) 0.21733(10) 0.9049(3)
C1 C 0.4536(2) 0.47017(10) 0.8054(3)
C2 C 0.3988(2) 0.52562(11) 0.8446(3)
H1 H 0.32960 0.54330 0.73900
C3 C 0.4072(2) 0.44060(11) 0.6015(3)
H2 H 0.45430 0.40530 0.58570
C4 C 0.3080(2) 0.45706(11) 0.4380(3)
H3 H 0.25950 0.49250 0.44660
C5 C 0.2708(2) 0.42334(11) 0.2473(3)
H4 H 0.32180 0.38830 0.24260
C6 C 0.1723(3) 0.43632(11) 0.0771(4)
H5 H 0.12310 0.47200 0.08090
C7 C 0.1316(2) 0.40135(11) -0.1160(3)
C8 C 0.1794(2) 0.34300(12) -0.1325(4)
H6 H 0.23960 0.32460 -0.01710
C9 C 0.1395(3) 0.31147(15) -0.3173(5)
H7 H 0.17360 0.27220 -0.32540
C10 C 0.0510(3) 0.33678(17) -0.4883(5)
H8 H 0.02510 0.31520 -0.61280
C11 C 0.0009(3) 0.39379(17) -0.4755(4)
H9 H -0.06090 0.41110 -0.59130
C12 C 0.0408(3) 0.42644(14) -0.2915(4)
H10 H 0.00640 0.46580 -0.28540
C13 C 0.5580(2) 0.4443(1) 0.9668(3)
C14 C 0.6238(2) 0.38469(10) 0.9454(3)
C15 C 0.7593(3) 0.38192(12) 0.9585(4)
H11 H 0.80880 0.41830 0.97280
C16 C 0.8233(3) 0.32648(13) 0.9508(4)
H12 H 0.91430 0.32600 0.95720
C17 C 0.7534(3) 0.27233(12) 0.9339(4)
H13 H 0.79610 0.23470 0.93220
C18 C 0.6197(3) 0.27497(10) 0.9195(3)
C19 C 0.5533(2) 0.32979(11) 0.9224(3)
H14 H 0.46120 0.32980 0.90890
O1B O 0.3962(3) 0.83109(9) 1.0893(3)
O2B O 0.5756(3) 0.77962(10) 1.1094(5)
N1B N 0.4560(3) 0.78267(10) 1.0951(3)
C1B C 0.5464(2) 0.52983(10) 1.1946(3)
C2B C 0.6012(2) 0.47438(11) 1.1554(3)
H1B H 0.67040 0.45670 1.26100
C3B C 0.5928(2) 0.55940(11) 1.3985(3)
H2B H 0.54570 0.59470 1.41430
C4B C 0.6920(2) 0.54294(11) 1.5620(3)
H3B H 0.74050 0.50750 1.55340
C5B C 0.7292(2) 0.57666(11) 1.7527(3)
H4B H 0.67820 0.61170 1.75740
C6B C 0.8277(3) 0.56368(11) 1.9229(4)
H5B H 0.87690 0.52800 1.91910
C7B C 0.8684(2) 0.59865(11) 2.1160(3)
C8B C 0.8206(2) 0.65700(12) 2.1325(4)
H6B H 0.76040 0.67540 2.01710
C9B C 0.8605(3) 0.68853(15) 2.3173(5)
H7B H 0.82640 0.72780 2.32540
C10B C 0.9490(3) 0.66322(17) 2.4883(5)
H8B H 0.97490 0.68480 2.61280
C11B C 0.9991(3) 0.60621(17) 2.4755(4)
H9B H 1.06090 0.58890 2.59130
C12B C 0.9592(3) 0.57356(14) 2.2915(4)
H10B H 0.99360 0.53420 2.28540
C13B C 0.4420(2) 0.5557(1) 1.0332(3)
C14B C 0.3762(2) 0.61531(10) 1.0546(3)
C15B C 0.2407(3) 0.61808(12) 1.0415(4)
H11B H 0.19120 0.58170 1.02720
C16B C 0.1767(3) 0.67352(13) 1.0492(4)
H12B H 0.08570 0.67400 1.04280
C17B C 0.2466(3) 0.72767(12) 1.0661(4)
H13B H 0.20390 0.76530 1.06780
C18B C 0.3803(3) 0.72503(10) 1.0805(3)
C19B C 0.4467(2) 0.67021(11) 1.0776(3)
H14B H 0.53880 0.67020 1.09110
#END
