
#######################################################################
#
#                 Cambridge Crystallographic Data Centre
#                                CCDC
#
#######################################################################
#
# If this CIF has been generated from an entry in the Cambridge
# Structural Database, then it will include bibliographic, chemical,
# crystal, experimental, refinement or atomic coordinate data resulting
# from the CCDC's data processing and validation procedures.
#
#######################################################################

data_CSD_CIF_NUKMAJ
_audit_creation_date 2015-04-30
_audit_creation_method CSD-ConQuest-V1
_database_code_CSD NUKMAJ
_database_code_depnum_ccdc_archive 'CCDC 1045003'
_chemical_formula_sum 'C18 H19 N1 O5'
_chemical_formula_moiety
;
C18 H19 N1 O5
;
_journal_coden_Cambridge 1475
_journal_volume 6
_journal_year 2015
_journal_page_first 3550
_journal_name_full 'Chemical Science '
loop_
_publ_author_name
"A.R.Burns"
"A.G.E.Madec"
"D.W.Low"
"I.D.Roy"
"Hon Wai Lam"
_chemical_name_systematic
;
1-methyl-6-(2-(4-nitrophenyl)-2-oxoethyl)bicyclo[3.3.1]nonane-2,9-dione
;
_cell_volume   1585.382
_exptl_crystal_colour 'colorless'
_exptl_crystal_density_diffrn 1.38
_exptl_special_details
;
Absolute configuration

;
_exptl_crystal_description 'needle'
_diffrn_ambient_temperature 120
#These two values have been output from a single CSD field.
_refine_ls_R_factor_gt 0.0295
_refine_ls_wR_factor_gt 0.0295
_symmetry_cell_setting orthorhombic
_symmetry_space_group_name_H-M 'P 21 21 21'
_symmetry_Int_Tables_number 19
loop_
_symmetry_equiv_pos_site_id
_symmetry_equiv_pos_as_xyz
1 x,y,z
2 1/2-x,-y,1/2+z
3 1/2+x,1/2-y,-z
4 -x,1/2+y,1/2-z
_cell_length_a 6.71816(7)
_cell_length_b 13.19234(16)
_cell_length_c 17.8880(2)
_cell_angle_alpha 90
_cell_angle_beta 90
_cell_angle_gamma 90
_cell_formula_units_Z 4
loop_
_atom_type_symbol
_atom_type_radius_bond
C 0.68
H 0.23
N 0.68
O 0.68
loop_
_atom_site_label
_atom_site_type_symbol
_atom_site_fract_x
_atom_site_fract_y
_atom_site_fract_z
C1 C 0.3825(3) 0.11073(13) 0.29710(9)
C2 C 0.2103(3) 0.04098(14) 0.31922(11)
C3 C 0.0550(3) 0.08043(16) 0.37156(16)
H1 H 0.00270 0.02250 0.40080
H2 H -0.05640 0.10730 0.34130
C4 C 0.1188(4) 0.16263(16) 0.42637(12)
H3 H 0.16580 0.12950 0.47280
H4 H 0.00020 0.20350 0.43950
C5 C 0.2832(3) 0.23503(13) 0.39868(9)
H5 H 0.33850 0.27170 0.44300
C6 C 0.4472(3) 0.17190(13) 0.36516(10)
C7 C 0.2195(3) 0.31490(12) 0.33999(9)
H6 H 0.34100 0.35540 0.32760
C8 C 0.1509(3) 0.26525(14) 0.26745(9)
H7 H 0.12870 0.31820 0.22910
H8 H 0.02290 0.23000 0.27610
C9 C 0.3045(3) 0.18937(15) 0.23867(10)
H9 H 0.41980 0.22770 0.21900
H10 H 0.24510 0.15170 0.19630
C10 C 0.5546(4) 0.05066(16) 0.26332(12)
H11 H 0.66220 0.09720 0.24950
H12 H 0.50820 0.01460 0.21870
H13 H 0.60390 0.00160 0.30010
O1 O 0.1987(3) -0.04329(11) 0.29214(10)
O2 O 0.6151(2) 0.17059(12) 0.38970(11)
C11 C 0.0652(2) 0.38931(13) 0.37021(10)
H14 H 0.00970 0.42890 0.32800
H15 H -0.04530 0.35060 0.39310
C12 C 0.1491(3) 0.46161(13) 0.42748(9)
O3 O 0.32666(19) 0.46730(11) 0.43977(8)
C13 C 0.0086(2) 0.52940(12) 0.46983(9)
C14 C -0.1917(2) 0.54047(12) 0.45036(9)
H16 H -0.24480 0.50320 0.40950
C15 C -0.3132(2) 0.60581(12) 0.49048(9)
H17 H -0.44930 0.61410 0.47740
C16 C -0.2319(2) 0.65856(12) 0.54981(9)
C17 C -0.0335(3) 0.64948(13) 0.57042(9)
H18 H 0.01890 0.68730 0.61110
C18 C 0.0854(2) 0.58395(13) 0.53015(10)
H19 H 0.22130 0.57590 0.54360
N1 N -0.3600(2) 0.72636(11) 0.59386(8)
O4 O -0.54107(18) 0.7167(1) 0.58769(7)
O5 O -0.2804(2) 0.78964(10) 0.63406(7)
#END
