
#######################################################################
#
#                 Cambridge Crystallographic Data Centre
#                                CCDC
#
#######################################################################
#
# If this CIF has been generated from an entry in the Cambridge
# Structural Database, then it will include bibliographic, chemical,
# crystal, experimental, refinement or atomic coordinate data resulting
# from the CCDC's data processing and validation procedures.
#
#######################################################################

data_CSD_CIF_NUKPOZ
_audit_creation_date 2010-06-17
_audit_creation_method CSD-ConQuest-V1
_database_code_CSD NUKPOZ
_database_code_depnum_ccdc_archive 'CCDC 705364'
_chemical_formula_sum 'C22 H28 N2 O9'
_chemical_formula_moiety
;
C22 H28 N2 O9
;
_journal_coden_Cambridge 1220
_journal_volume 15
_journal_year 2009
_journal_page_first 7867
_journal_name_full 'Chem.-Eur.J. '
loop_
_publ_author_name
"L.Barboni"
"S.Gabrielli"
"A.Palmieri"
"C.Femoni"
"R.Ballini"
_chemical_name_systematic
;
(exo-3,endo-7) Diethyl 
9-(4-methoxyphenyl)-1,5-dinitrobicyclo[3.3.1]nonane-3,7-dicarboxylate
;
_cell_volume   2201.671
_exptl_crystal_colour 'colorless'
_exptl_crystal_density_diffrn 1.401
_exptl_crystal_description 'prismatic'
_diffrn_ambient_temperature 296
_refine_special_details
;
C160 and C16 disordered over two sites with occupancies 0.55:0.45.

;
#These two values have been output from a single CSD field.
_refine_ls_R_factor_gt 0.0764
_refine_ls_wR_factor_gt 0.0764
_symmetry_cell_setting monoclinic
_symmetry_space_group_name_H-M 'P 21/n'
_symmetry_Int_Tables_number 14
loop_
_symmetry_equiv_pos_site_id
_symmetry_equiv_pos_as_xyz
1 x,y,z
2 1/2-x,1/2+y,1/2-z
3 -x,-y,-z
4 -1/2+x,-1/2-y,-1/2+z
_cell_length_a 11.635(5)
_cell_length_b 13.533(6)
_cell_length_c 13.983(6)
_cell_angle_alpha 90
_cell_angle_beta 90.358(6)
_cell_angle_gamma 90
_cell_formula_units_Z 4
loop_
_atom_type_symbol
_atom_type_radius_bond
C 0.68
H 0.23
N 0.68
O 0.68
loop_
_atom_site_label
_atom_site_type_symbol
_atom_site_fract_x
_atom_site_fract_y
_atom_site_fract_z
C1 C 1.1125(5) 0.9374(4) 0.1105(4)
H1 H 1.17960 0.89680 0.10340
H2 H 1.13270 1.00540 0.10080
H3 H 1.05560 0.91820 0.06410
O1 O 1.0675(3) 0.9252(3) 0.2037(3)
C2 C 1.0265(4) 0.8327(4) 0.2275(4)
C3 C 1.0181(4) 0.7562(4) 0.1620(4)
H4 H 1.04190 0.76470 0.09910
C4 C 0.9734(4) 0.6667(4) 0.1925(4)
H5 H 0.96560 0.61590 0.14810
C5 C 0.9399(4) 0.6493(4) 0.2856(4)
C6 C 0.9531(4) 0.7289(4) 0.3493(4)
H6 H 0.93250 0.72030 0.41290
C7 C 0.9958(5) 0.8203(4) 0.3205(4)
H7 H 1.00320 0.87190 0.36410
C8 C 0.8908(4) 0.5546(4) 0.3258(4)
H8 H 0.89560 0.56060 0.39550
C9 C 0.9519(4) 0.4564(4) 0.2999(4)
C10 C 0.9397(5) 0.4256(4) 0.1955(4)
H9 H 0.97090 0.35960 0.18780
H10 H 0.98430 0.47010 0.15610
C11 C 0.8136(5) 0.4263(4) 0.1603(4)
H11 H 0.77660 0.36660 0.18520
C12 C 0.7434(5) 0.5157(4) 0.1953(4)
H12 H 0.76530 0.57390 0.15920
H13 H 0.66230 0.50350 0.18370
C13 C 0.7632(4) 0.5348(4) 0.3017(4)
C14 C 0.7163(5) 0.4525(4) 0.3678(4)
H14 H 0.66560 0.48200 0.41470
H15 H 0.67120 0.40650 0.32980
C15 C 0.7847(13) 0.3615(15) 0.3766(16)
H16 H 0.76310 0.32070 0.32140
C16 C 0.9156(5) 0.3753(4) 0.3699(4)
H17 H 0.90740 0.31350 0.33540
H18 H 0.97550 0.36660 0.41770
N1 N 0.6977(4) 0.6290(3) 0.3307(4)
O2 O 0.6409(3) 0.6720(3) 0.2699(3)
O3 O 0.7057(4) 0.6559(3) 0.4136(3)
N2 N 1.0801(4) 0.4761(4) 0.3211(4)
O4 O 1.1504(3) 0.4616(3) 0.2584(3)
O5 O 1.1048(3) 0.5047(4) 0.4015(3)
C17 C 0.8102(6) 0.4202(5) 0.0523(4)
O6 O 0.8933(4) 0.4156(5) 0.0023(3)
O7 O 0.7028(3) 0.4188(3) 0.0202(3)
C18 C 0.6871(6) 0.4183(6) -0.0832(4)
H19 H 0.73320 0.36660 -0.11190
H20 H 0.71040 0.48130 -0.11000
C19 C 0.5637(5) 0.4005(4) -0.1025(4)
H21 H 0.54270 0.33640 -0.07890
H22 H 0.54950 0.40350 -0.17010
H23 H 0.51870 0.45010 -0.07090
C20 C 0.7576(5) 0.3001(5) 0.4633(4)
O8 O 0.8060(4) 0.2214(3) 0.4723(3)
O9 O 0.6666(3) 0.3276(3) 0.5132(3)
C21 C 0.6287(5) 0.2610(4) 0.5881(4)
H24 H 0.63680 0.19320 0.56660
H25 H 0.54810 0.27280 0.60120
C22 C 0.6974(6) 0.2759(5) 0.6772(4)
H26 H 0.77650 0.26030 0.66510
H27 H 0.66860 0.23340 0.72660
H28 H 0.69120 0.34350 0.69730
C23? C 0.8076(16) 0.3981(17) 0.418(2)
H29? H 0.82900 0.43990 0.47210
#END
