
#######################################################################
#
#                 Cambridge Crystallographic Data Centre
#                                CCDC
#
#######################################################################
#
# If this CIF has been generated from an entry in the Cambridge
# Structural Database, then it will include bibliographic, chemical,
# crystal, experimental, refinement or atomic coordinate data resulting
# from the CCDC's data processing and validation procedures.
#
#######################################################################

data_CSD_CIF_NUKPIT
_audit_creation_date 2010-06-17
_audit_creation_method CSD-ConQuest-V1
_database_code_CSD NUKPIT
_database_code_depnum_ccdc_archive 'CCDC 705363'
_chemical_formula_sum 'C21 H26 N2 O8'
_chemical_formula_moiety
;
C21 H26 N2 O8
;
_journal_coden_Cambridge 1220
_journal_volume 15
_journal_year 2009
_journal_page_first 7867
_journal_name_full 'Chem.-Eur.J. '
loop_
_publ_author_name
"L.Barboni"
"S.Gabrielli"
"A.Palmieri"
"C.Femoni"
"R.Ballini"
_chemical_name_systematic
;
(exo-3,endo-7) Diethyl 
1,5-dinitro-9-phenylbicyclo[3.3.1]nonane-3,7-dicarboxylate
;
_cell_volume   8591.616
_exptl_crystal_colour 'colorless'
_exptl_crystal_density_diffrn 1.343
_exptl_crystal_description 'needle'
_diffrn_ambient_temperature 296
#These two values have been output from a single CSD field.
_refine_ls_R_factor_gt 0.0508
_refine_ls_wR_factor_gt 0.0508
_symmetry_cell_setting tetragonal
_symmetry_space_group_name_H-M 'I 41/a'
_symmetry_Int_Tables_number 88
loop_
_symmetry_equiv_pos_site_id
_symmetry_equiv_pos_as_xyz
1 x,y,z
2 1/2-x,-y,1/2+z
3 3/4-y,1/4+x,1/4+z
4 3/4+y,3/4-x,3/4+z
5 1/2+x,1/2+y,1/2+z
6 -x,1/2-y,z
7 1/4-y,3/4+x,3/4+z
8 1/4+y,1/4-x,1/4+z
9 -x,-y,-z
10 -1/2+x,y,-1/2-z
11 -3/4+y,-1/4-x,-1/4-z
12 -3/4-y,-3/4+x,-3/4-z
13 -1/2-x,-1/2-y,-1/2-z
14 x,-1/2+y,-z
15 -1/4+y,-3/4-x,-3/4-z
16 -1/4-y,-1/4+x,-1/4-z
_cell_length_a 24.3642(10)
_cell_length_b 24.3642(10)
_cell_length_c 14.4734(12)
_cell_angle_alpha 90
_cell_angle_beta 90
_cell_angle_gamma 90
_cell_formula_units_Z 16
loop_
_atom_type_symbol
_atom_type_radius_bond
C 0.68
H 0.23
N 0.68
O 0.68
loop_
_atom_site_label
_atom_site_type_symbol
_atom_site_fract_x
_atom_site_fract_y
_atom_site_fract_z
C1 C 0.55481(8) 1.03192(8) 0.30592(14)
C2 C 0.57767(11) 1.08213(10) 0.32665(17)
H1 H 0.61100 1.09180 0.29970
C3 C 0.55245(14) 1.11853(12) 0.3864(2)
H2 H 0.56890 1.15220 0.39880
C4 C 0.50372(14) 1.10548(13) 0.4272(2)
H3 H 0.48690 1.12990 0.46770
C5 C 0.48014(12) 1.05619(14) 0.4077(2)
H4 H 0.44680 1.04700 0.43490
C6 C 0.50510(11) 1.01953(11) 0.34779(19)
H5 H 0.48830 0.98610 0.33550
C7 C 0.58632(8) 0.99567(8) 0.23865(13)
H6 H 0.61900 1.01670 0.22110
C8 C 0.60782(8) 0.94003(8) 0.27538(13)
C9 C 0.56171(8) 0.89950(8) 0.29619(15)
H7 H 0.53820 0.91420 0.34430
H8 H 0.57710 0.86520 0.31800
C10 C 0.52795(8) 0.88928(8) 0.20869(15)
H9 H 0.55210 0.87020 0.16520
C11 C 0.50898(8) 0.94202(8) 0.16037(14)
H10 H 0.49320 0.93300 0.10080
H11 H 0.48090 0.95980 0.19730
C12 C 0.55719(8) 0.98101(8) 0.14712(13)
C13 C 0.59916(8) 0.95858(8) 0.07562(14)
H12 H 0.58510 0.92470 0.04950
H13 H 0.60290 0.98490 0.02570
C14 C 0.65575(8) 0.94763(8) 0.11748(15)
H14 H 0.67330 0.98300 0.13040
C15 C 0.65123(8) 0.91581(9) 0.20806(15)
H15 H 0.68680 0.91580 0.23830
H16 H 0.64170 0.87800 0.19440
C16 C 0.47883(10) 0.85286(10) 0.22293(19)
C17 C 0.42947(13) 0.79197(14) 0.3182(2)
H17 H 0.39550 0.80860 0.29720
H18 H 0.43540 0.75860 0.28320
C18 C 0.42551(15) 0.77926(18) 0.4150(2)
H19 H 0.45940 0.76330 0.43570
H20 H 0.39610 0.75370 0.42480
H21 H 0.41840 0.81230 0.44920
C19 C 0.69088(10) 0.91697(9) 0.04909(19)
C20 C 0.72544(13) 0.91937(14) -0.1058(2)
H22 H 0.74420 0.94730 -0.14170
H23 H 0.75290 0.89420 -0.08210
C21 C 0.68775(17) 0.88983(18) -0.1648(3)
H24 H 0.67290 0.85910 -0.13170
H25 H 0.70690 0.87700 -0.21860
H26 H 0.65850 0.91380 -0.18330
N1 N 0.63798(7) 0.95343(8) 0.36559(13)
N2 N 0.53586(7) 1.03542(7) 0.10790(12)
O1 O 0.62183(8) 0.93379(8) 0.43738(11)
O2 O 0.67735(7) 0.98377(8) 0.36043(14)
O3 O 0.48753(7) 1.04014(7) 0.09043(14)
O4 O 0.56927(7) 1.07195(6) 0.09618(12)
O5 O 0.44686(12) 0.84419(13) 0.1632(2)
O6 O 0.47524(7) 0.82998(8) 0.30336(13)
O7 O 0.71283(12) 0.87451(9) 0.06291(19)
O8 O 0.69669(8) 0.94515(8) -0.02885(13)
#END
