
#######################################################################
#
#                 Cambridge Crystallographic Data Centre
#                                CCDC
#
#######################################################################
#
# If this CIF has been generated from an entry in the Cambridge
# Structural Database, then it will include bibliographic, chemical,
# crystal, experimental, refinement or atomic coordinate data resulting
# from the CCDC's data processing and validation procedures.
#
#######################################################################

data_CSD_CIF_NULGEI
_audit_creation_date 2015-04-30
_audit_creation_method CSD-ConQuest-V1
_database_code_CSD NULGEI
_database_code_depnum_ccdc_archive 'CCDC 1029360'
_chemical_formula_sum 'C17 H14 N2 O3'
_chemical_formula_moiety
;
C17 H14 N2 O3
;
_journal_coden_Cambridge 177
_journal_volume 13
_journal_year 2015
_journal_page_first 5944
_journal_name_full 'Org.Biomol.Chem. '
loop_
_publ_author_name
"R.Khajuria"
"P.Kannaboina"
"K.K.Kapoor"
"A.Gupta"
"G.Raina"
"A.K.Jassal"
"L.K.Rana"
"M.S.Hundal"
"P.Das"
_chemical_name_systematic
;
3-nitro-4,6-diphenyl-3,4-dihydropyridin-2(1H)-one
;
_cell_volume   1489.331
_exptl_crystal_colour 'orange'
_exptl_crystal_density_diffrn 1.313
_exptl_crystal_description 'Prism'
_diffrn_ambient_temperature 296
#These two values have been output from a single CSD field.
_refine_ls_R_factor_gt 0.0891
_refine_ls_wR_factor_gt 0.0891
_symmetry_cell_setting monoclinic
_symmetry_space_group_name_H-M 'P 21/c'
_symmetry_Int_Tables_number 14
loop_
_symmetry_equiv_pos_site_id
_symmetry_equiv_pos_as_xyz
1 x,y,z
2 -x,1/2+y,1/2-z
3 -x,-y,-z
4 x,-1/2-y,-1/2+z
_cell_length_a 15.617(8)
_cell_length_b 5.565(3)
_cell_length_c 18.62(1)
_cell_angle_alpha 90
_cell_angle_beta 113.024(5)
_cell_angle_gamma 90
_cell_formula_units_Z 4
loop_
_atom_type_symbol
_atom_type_radius_bond
C 0.68
H 0.23
N 0.68
O 0.68
loop_
_atom_site_label
_atom_site_type_symbol
_atom_site_fract_x
_atom_site_fract_y
_atom_site_fract_z
C1 C 0.1107(4) 1.282(1) 0.4139(4)
C2 C 0.0525(6) 1.145(2) 0.3625(6)
H1 H 0.07390 1.00270 0.34940
C3 C -0.0396(7) 1.200(3) 0.3262(6)
H2 H -0.07730 1.09140 0.28940
C4 C -0.0770(6) 1.383(3) 0.3384(10)
H3 H -0.14060 1.41220 0.31390
C5 C -0.0215(9) 1.528(3) 0.3872(16)
H4 H -0.04440 1.67420 0.39600
C6 C 0.0758(7) 1.4740(19) 0.4299(11)
H5 H 0.11310 1.57780 0.46860
C7 C 0.2365(3) 1.0431(10) 0.5174(3)
H6 H 0.19160 0.99790 0.53590
C8 C 0.2138(4) 1.2407(11) 0.4572(3)
H7 H 0.23930 1.38940 0.48580
C9 C 0.2651(3) 1.1945(10) 0.4077(3)
H8 H 0.23420 1.05670 0.37510
C10 C 0.3655(3) 1.1219(9) 0.4490(3)
C11 C 0.3176(3) 0.9320(9) 0.5446(3)
C12 C 0.3472(3) 0.7511(9) 0.6075(3)
C13 C 0.4064(3) 0.5626(9) 0.6087(3)
H9 H 0.42970 0.54990 0.56980
C14 C 0.4302(4) 0.3952(10) 0.6678(3)
H10 H 0.46920 0.26870 0.66780
C15 C 0.3987(4) 0.4091(11) 0.7259(3)
H11 H 0.41530 0.29210 0.76470
C16 C 0.3423(4) 0.5959(11) 0.7276(3)
H12 H 0.32130 0.60800 0.76780
C17 C 0.3168(3) 0.7671(10) 0.6685(3)
H13 H 0.27880 0.89450 0.66980
O1 O 0.4234(2) 1.1769(7) 0.4222(2)
O2 O 0.2792(4) 1.5941(8) 0.3796(3)
O3 O 0.2330(3) 1.3447(8) 0.2842(3)
N1 N 0.3829(3) 0.9882(8) 0.5120(2)
H14 H 0.4365(19) 0.928(8) 0.533(3)
N2 N 0.2579(3) 1.3947(10) 0.3522(3)
#END
