
#######################################################################
#
#                 Cambridge Crystallographic Data Centre
#                                CCDC
#
#######################################################################
#
# If this CIF has been generated from an entry in the Cambridge
# Structural Database, then it will include bibliographic, chemical,
# crystal, experimental, refinement or atomic coordinate data resulting
# from the CCDC's data processing and validation procedures.
#
#######################################################################

data_CSD_CIF_NUMLUE
_audit_creation_date 2015-05-02
_audit_creation_method CSD-ConQuest-V1
_database_code_CSD NUMLUE
_database_code_depnum_ccdc_archive 'CCDC 1036700'
_chemical_formula_sum 'C24 H24 N2 O2'
_chemical_formula_moiety
;
C24 H24 N2 O2
;
_journal_coden_Cambridge 1291
_journal_year 2015
_journal_page_first 3793
_journal_name_full 'Eur.J.Org.Chem. '
loop_
_publ_author_name
"C.S.Lood"
"A.E.Laine"
"A.Hognasbacka"
"M.Nieger"
"A.M.P.Koskinen"
_chemical_name_systematic
;
(S)-N-methoxy-N-methyl-2-((9-phenyl-9H-fluoren-9-yl)amino)propanamide
;
_chemical_name_common
;
(S)-N-methoxy-N-methyl-N$2!-(9-phenyl-9H-fluoren-9-yl)alaninamide
;
_cell_volume   2026.432
_exptl_crystal_colour 'colorless'
_exptl_crystal_density_diffrn 1.221
_exptl_crystal_description 'plates'
_diffrn_ambient_temperature 123
#These two values have been output from a single CSD field.
_refine_ls_R_factor_gt 0.0367
_refine_ls_wR_factor_gt 0.0367
_symmetry_cell_setting orthorhombic
_symmetry_space_group_name_H-M 'P 21 21 21'
_symmetry_Int_Tables_number 19
loop_
_symmetry_equiv_pos_site_id
_symmetry_equiv_pos_as_xyz
1 x,y,z
2 1/2-x,-y,1/2+z
3 -x,1/2+y,1/2-z
4 1/2+x,1/2-y,-z
_cell_length_a 10.274(1)
_cell_length_b 13.700(1)
_cell_length_c 14.397(1)
_cell_angle_alpha 90
_cell_angle_beta 90
_cell_angle_gamma 90
_cell_formula_units_Z 4
loop_
_atom_type_symbol
_atom_type_radius_bond
C 0.68
H 0.23
N 0.68
O 0.68
loop_
_atom_site_label
_atom_site_type_symbol
_atom_site_fract_x
_atom_site_fract_y
_atom_site_fract_z
N1 N 0.12457(11) 0.63561(8) 0.20249(8)
H1 H 0.1222(16) 0.6097(12) 0.1452(10)
C1 C 0.10615(13) 0.55631(10) 0.26933(10)
H2 H 0.16180 0.56810 0.32520
C2 C 0.14305(13) 0.45836(10) 0.22505(10)
O1 O 0.13625(11) 0.44641(8) 0.14096(7)
N2 N 0.17833(13) 0.38565(9) 0.28286(10)
O2 O 0.16845(10) 0.40181(8) 0.37856(8)
C3 C 0.29602(16) 0.41030(14) 0.41920(13)
H3 H 0.33720 0.34580 0.42140
H4 H 0.28840 0.43640 0.48240
H5 H 0.34930 0.45450 0.38150
C4 C 0.20755(19) 0.28638(12) 0.25451(14)
H6 H 0.20300 0.28160 0.18670
H7 H 0.14410 0.24170 0.28230
H8 H 0.29530 0.26890 0.27540
C5 C -0.03715(15) 0.55195(12) 0.29856(12)
H9 H -0.06220 0.61420 0.32700
H10 H -0.04930 0.49910 0.34360
H11 H -0.09150 0.53980 0.24380
C6 C 0.24894(13) 0.68941(9) 0.21076(9)
C7 C 0.37103(13) 0.62573(10) 0.22523(9)
C8 C 0.41860(14) 0.55066(11) 0.17006(10)
H12 H 0.37680 0.53430 0.11330
C9 C 0.52911(15) 0.49938(11) 0.19929(11)
H13 H 0.56200 0.44750 0.16230
C10 C 0.59108(15) 0.52362(11) 0.28171(11)
H14 H 0.66640 0.48850 0.30040
C11 C 0.54409(14) 0.59876(12) 0.33716(11)
H15 H 0.58680 0.61550 0.39350
C12 C 0.43308(13) 0.64918(10) 0.30871(10)
C13 C 0.35822(14) 0.72628(10) 0.35586(9)
C14 C 0.37665(15) 0.77189(12) 0.44136(10)
H16 H 0.45010 0.75680 0.47880
C15 C 0.28510(16) 0.83998(12) 0.47069(10)
H17 H 0.29700 0.87240 0.52840
C16 C 0.17611(15) 0.86136(11) 0.41666(10)
H18 H 0.11410 0.90760 0.43820
C17 C 0.15751(14) 0.81548(10) 0.3314(1)
H19 H 0.08310 0.82970 0.29460
C18 C 0.24933(13) 0.74876(9) 0.30122(9)
C19 C 0.25811(13) 0.75756(9) 0.12664(9)
C20 C 0.14594(14) 0.80385(10) 0.09436(9)
H20 H 0.06550 0.79270 0.12510
C21 C 0.14969(15) 0.86591(10) 0.0181(1)
H21 H 0.07240 0.89690 -0.00280
C22 C 0.26680(16) 0.88256(11) -0.02748(10)
H22 H 0.26970 0.92390 -0.08040
C23 C 0.37876(16) 0.83855(11) 0.00473(11)
H23 H 0.45920 0.85070 -0.02570
C24 C 0.37528(14) 0.77633(10) 0.08155(10)
H24 H 0.45320 0.74670 0.10310
#END
