
#######################################################################
#
#                 Cambridge Crystallographic Data Centre
#                                CCDC
#
#######################################################################
#
# If this CIF has been generated from an entry in the Cambridge
# Structural Database, then it will include bibliographic, chemical,
# crystal, experimental, refinement or atomic coordinate data resulting
# from the CCDC's data processing and validation procedures.
#
#######################################################################

data_CSD_CIF_NUNJIP
_audit_creation_date 1998-09-21
_audit_creation_method CSD-ConQuest-V1
_database_code_CSD NUNJIP
_database_code_depnum_ccdc_archive 'CCDC 130200'
_chemical_formula_sum 'C15 H19 N1 O3'
_chemical_formula_moiety
;
C15 H19 N1 O3
;
_journal_coeditor_code "IUCr NA1331"
_journal_coden_Cambridge 591
_journal_volume 54
_journal_year 1998
_journal_page_first 1003
_journal_name_full 'Acta Crystallogr.,Sect.C:Cryst.Struct.Commun. '
loop_
_publ_author_name
"P.Merino"
"F.L.Merchan"
"T.Tejero"
"S.Franco"
_chemical_name_systematic
;
(3R,4S)-N-Benzyl-4,5-dihydroxy-3-(hydroxyamino)-4,5-O-isopropylidene-1-pentyne
;
_chemical_melting_point 388
_cell_volume   1086.520
_exptl_crystal_colour 'yellow'
_exptl_crystal_density_diffrn 1.198
_exptl_crystal_description 'block'
_diffrn_ambient_temperature 173
#These two values have been output from a single CSD field.
_refine_ls_R_factor_gt 0.041
_refine_ls_wR_factor_gt 0.041
_symmetry_cell_setting hexagonal
_symmetry_space_group_name_H-M 'P 32'
_symmetry_Int_Tables_number 145
loop_
_symmetry_equiv_pos_site_id
_symmetry_equiv_pos_as_xyz
1 x,y,z
2 -y,x-y,2/3+z
3 -x+y,-x,1/3+z
_cell_length_a 13.240(5)
_cell_length_b 13.240(5)
_cell_length_c 7.157(5)
_cell_angle_alpha 90
_cell_angle_beta 90
_cell_angle_gamma 120
_cell_formula_units_Z 3
loop_
_atom_type_symbol
_atom_type_radius_bond
C 0.68
H 0.23
N 0.68
O 0.68
loop_
_atom_site_label
_atom_site_type_symbol
_atom_site_fract_x
_atom_site_fract_y
_atom_site_fract_z
O1 O 0.0680(2) 0.0666(2) 0.1371(3)
H1 H 0.0218(2) 0.0446(30) 0.0460(3)
O2 O 0.2272(2) 0.3407(2) -0.0810(3)
O3 O 0.2976(2) 0.5191(2) 0.0527(3)
N1 N 0.1875(2) 0.1244(2) 0.0690(4)
C1 C 0.2388(3) 0.2203(3) 0.3806(4)
C2 C 0.2501(2) 0.2341(2) 0.1746(4)
H2 H 0.3348(2) 0.2696(2) 0.1439(4)
C3 C 0.2125(3) 0.3214(3) 0.1150(4)
H3 H 0.1291(3) 0.2912(3) 0.1496(4)
C4 C 0.2959(3) 0.4637(2) -0.1172(5)
C5 C 0.3528(3) 0.0896(3) 0.0384(5)
C6 C 0.2309(3) 0.0440(3) 0.1126(5)
H4 H 0.1781(3) -0.0332(3) 0.0567(5)
H5 H 0.2308(3) 0.0340(3) 0.2497(5)
C7 C 0.2270(3) 0.2122(3) 0.5429(5)
H6 H 0.2174(3) 0.2056(3) 0.6747(5)
C8 C 0.2887(3) 0.4426(3) 0.1985(5)
H7 H 0.2516(3) 0.4538(3) 0.3105(5)
H8 H 0.3665(3) 0.4550(3) 0.2332(5)
C9 C 0.2354(3) 0.4965(3) -0.2634(5)
H9 H 0.2337(3) 0.4586(3) -0.3820(5)
H10 H 0.2778(3) 0.5813(3) -0.2803(5)
H11 H 0.1555(3) 0.4708(3) -0.2230(5)
C10 C 0.4167(3) 0.4914(3) -0.1763(7)
H12 H 0.4119(3) 0.4515(3) -0.2941(7)
H13 H 0.4506(3) 0.4649(3) -0.0796(7)
H14 H 0.4661(3) 0.5758(3) -0.1935(7)
C11 C 0.4404(3) 0.1018(3) 0.1533(7)
H15 H 0.4254(3) 0.0830(3) 0.2822(7)
C12 C 0.3768(5) 0.1172(4) -0.1491(7)
H16 H 0.3165(5) 0.1073(4) -0.2319(7)
C13 C 0.5520(4) 0.1417(4) 0.0815(13)
H17 H 0.6126(4) 0.1488(4) 0.1612(13)
C14 C 0.5745(6) 0.1707(4) -0.1024(16)
H18 H 0.6510(6) 0.1991(4) -0.1503(16)
C15 C 0.4893(7) 0.1592(5) -0.2153(11)
H19 H 0.5059(7) 0.1801(5) -0.3433(11)
#END
