
#######################################################################
#
#                 Cambridge Crystallographic Data Centre
#                                CCDC
#
#######################################################################
#
# If this CIF has been generated from an entry in the Cambridge
# Structural Database, then it will include bibliographic, chemical,
# crystal, experimental, refinement or atomic coordinate data resulting
# from the CCDC's data processing and validation procedures.
#
#######################################################################

data_CSD_CIF_NUNPER
_audit_creation_date 1998-09-21
_audit_creation_method CSD-ConQuest-V1
_database_code_CSD NUNPER
_database_code_depnum_ccdc_archive 'CCDC 130205'
_chemical_formula_sum 'C20 H17 N1 O6'
_chemical_formula_moiety
;
C20 H17 N1 O6
;
_journal_coeditor_code "IUCr NA1342"
_journal_coden_Cambridge 591
_journal_volume 54
_journal_year 1998
_journal_page_first 1042
_journal_name_full 'Acta Crystallogr.,Sect.C:Cryst.Struct.Commun. '
loop_
_publ_author_name
"G.Casalone"
"T.Pilati"
"A.Binello"
_chemical_name_systematic
;
cis-3,4-Dihydro-2-ethoxy-4-(2-nitrophenyl)-2H,5H-pyrano(3,2-c)(1)benzopyran-5-
one
;
_chemical_melting_point 452.15
_cell_volume   1775.869
_exptl_crystal_colour 'colorless'
_exptl_crystal_density_diffrn 1.374
_exptl_special_details
;
Melting point range 452.15-453.15K

;
_exptl_crystal_description 'square tablet'
_diffrn_ambient_temperature ?
_diffrn_special_details
;
The study was carried out at room temperature,in the range 283-303K

;
#These two values have been output from a single CSD field.
_refine_ls_R_factor_gt 0.033
_refine_ls_wR_factor_gt 0.033
_symmetry_cell_setting monoclinic
_symmetry_space_group_name_H-M 'P 21/c'
_symmetry_Int_Tables_number 14
loop_
_symmetry_equiv_pos_site_id
_symmetry_equiv_pos_as_xyz
1 x,y,z
2 -x,1/2+y,1/2-z
3 -x,-y,-z
4 x,-1/2-y,-1/2+z
_cell_length_a 8.276(1)
_cell_length_b 15.024(1)
_cell_length_c 14.448(1)
_cell_angle_alpha 90
_cell_angle_beta 98.68(1)
_cell_angle_gamma 90
_cell_formula_units_Z 4
loop_
_atom_type_symbol
_atom_type_radius_bond
C 0.68
H 0.23
N 0.68
O 0.68
loop_
_atom_site_label
_atom_site_type_symbol
_atom_site_fract_x
_atom_site_fract_y
_atom_site_fract_z
O1 O 0.83935(15) 0.86024(8) 0.36507(7)
C1 C 0.8776(2) 0.76893(12) 0.34139(13)
H1 H 0.8863(17) 0.7739(10) 0.2748(11)
C2 C 1.0328(2) 0.73703(14) 0.39808(12)
H2 H 1.0511(19) 0.6758(12) 0.3832(11)
H3 H 1.1204(21) 0.7733(11) 0.3797(11)
C3 C 0.9472(2) 0.82990(11) 0.52472(10)
C4 C 1.0374(2) 0.74724(11) 0.50477(11)
H4 H 1.1519(19) 0.7552(10) 0.531(1)
C5 C 0.9691(2) 0.86061(12) 0.62078(12)
O2 O 0.8865(2) 0.93579(8) 0.64182(8)
C6 C 0.7972(2) 0.98638(11) 0.57271(12)
C7 C 0.7196(3) 1.06085(14) 0.6010(2)
H5 H 0.7298(22) 1.0731(12) 0.6653(13)
C8 C 0.6294(3) 1.11296(15) 0.5341(2)
H6 H 0.5719(23) 1.1645(13) 0.5512(12)
C9 C 0.6162(3) 1.09171(14) 0.4405(2)
H7 H 0.5548(23) 1.1301(13) 0.3926(13)
C10 C 0.6927(2) 1.01735(13) 0.41256(15)
H8 H 0.6861(20) 1.0031(10) 0.3472(12)
C11 C 0.7846(2) 0.96242(11) 0.47907(11)
C12 C 0.8610(2) 0.88013(11) 0.45722(11)
O3 O 1.0541(2) 0.82465(9) 0.68569(8)
O4 O 0.7492(2) 0.71357(8) 0.35517(8)
C13 C 0.6012(3) 0.7264(2) 0.2901(2)
H9 H 0.5648(35) 0.7922(19) 0.2985(19)
H10 H 0.6341(24) 0.7189(13) 0.2287(14)
C14 C 0.4778(3) 0.6610(2) 0.3121(2)
H11 H 0.3782(3) 0.6687(2) 0.2693(2)
H12 H 0.4570(3) 0.6703(2) 0.3750(2)
H13 H 0.5185(3) 0.6017(2) 0.3063(2)
C15 C 0.9808(2) 0.66462(11) 0.55290(11)
C16 C 0.8168(2) 0.65217(12) 0.56046(13)
H14 H 0.7386(21) 0.6977(11) 0.5331(11)
C17 C 0.7634(2) 0.57947(13) 0.60605(13)
H15 H 0.6530(21) 0.5737(11) 0.6080(11)
C18 C 0.8725(3) 0.51685(14) 0.64676(14)
H16 H 0.838(2) 0.4659(11) 0.6755(11)
C19 C 1.0357(3) 0.52679(13) 0.64205(13)
H17 H 1.1166(23) 0.4844(12) 0.6675(12)
C20 C 1.0871(2) 0.59955(12) 0.59519(11)
N1 N 1.2637(2) 0.60615(11) 0.59426(13)
O5 O 1.3144(2) 0.63375(11) 0.52505(10)
O6 O 1.3544(2) 0.58273(13) 0.66490(12)
#END
