
#######################################################################
#
#                 Cambridge Crystallographic Data Centre
#                                CCDC
#
#######################################################################
#
# If this CIF has been generated from an entry in the Cambridge
# Structural Database, then it will include bibliographic, chemical,
# crystal, experimental, refinement or atomic coordinate data resulting
# from the CCDC's data processing and validation procedures.
#
#######################################################################

data_CSD_CIF_NUPJIR
_audit_creation_date 1998-09-24
_audit_creation_method CSD-ConQuest-V1
_database_code_CSD NUPJIR
_chemical_formula_sum 'C20 H19 N5 O6'
_chemical_formula_moiety
;
C20 H19 N5 O6
;
_journal_coden_Cambridge 37
_journal_volume 100
_journal_year 1996
_journal_page_first 11408
_journal_name_full 'J.Phys.Chem. '
loop_
_publ_author_name
"K.Wozniak"
"Heyong He"
"J.Klinowski"
"T.L.Barr"
"S.E.Hardcastle"
_chemical_name_systematic
;
4-Picryl-1,8-bis(dimethylamino)naphthalene
;
_cell_volume   1984.750
_exptl_crystal_colour 'black'
_exptl_crystal_density_diffrn 1.424
_diffrn_ambient_temperature ?
_diffrn_special_details
;
The study was carried out at room temperature,in the range 283-303K

;
#These two values have been output from a single CSD field.
_refine_ls_R_factor_gt 0.0701
_refine_ls_wR_factor_gt 0.0701
_symmetry_cell_setting monoclinic
_symmetry_space_group_name_H-M 'P 21/n'
_symmetry_Int_Tables_number 14
loop_
_symmetry_equiv_pos_site_id
_symmetry_equiv_pos_as_xyz
1 x,y,z
2 1/2-x,1/2+y,1/2-z
3 -x,-y,-z
4 -1/2+x,-1/2-y,-1/2+z
_cell_length_a 13.788(1)
_cell_length_b 10.346(1)
_cell_length_c 13.953(1)
_cell_angle_alpha 90
_cell_angle_beta 94.32(1)
_cell_angle_gamma 90
_cell_formula_units_Z 4
loop_
_atom_type_symbol
_atom_type_radius_bond
C 0.68
H 0.23
N 0.68
O 0.68
loop_
_atom_site_label
_atom_site_type_symbol
_atom_site_fract_x
_atom_site_fract_y
_atom_site_fract_z
O1 O 0.9327(3) 0.0413(4) 0.5886(2)
O2 O 0.9108(3) 0.2472(4) 0.5820(3)
O3 O 1.0443(3) 0.3756(5) 0.2782(3)
O4 O 0.9949(3) 0.2751(5) 0.1488(3)
O5 O 0.6710(3) -0.0482(4) 0.2695(3)
O6 O 0.7850(3) -0.1125(5) 0.1839(3)
C1 C 0.6368(3) -0.1738(5) 0.5667(3)
C2 C 0.6352(3) -0.0429(5) 0.5632(3)
C3 C 0.7001(3) 0.0275(5) 0.5128(3)
C4 C 0.7658(3) -0.0341(5) 0.4605(3)
C5 C 0.8449(3) -0.2378(5) 0.4165(3)
C6 C 0.8598(3) -0.3645(5) 0.4285(3)
C7 C 0.8132(4) -0.4330(5) 0.4982(4)
C8 C 0.7467(3) -0.3725(5) 0.5528(3)
C9 C 0.7182(3) -0.2413(5) 0.5294(3)
C10 C 0.7766(3) -0.1691(5) 0.4665(3)
C11 C 0.5001(4) -0.1719(7) 0.6694(5)
C12 C 0.5200(4) -0.3526(7) 0.5619(5)
C13 C 0.7170(5) -0.3708(9) 0.7221(4)
C14 C 0.7203(6) -0.5716(7) 0.6372(7)
C15 C 0.8276(3) 0.0443(4) 0.4003(3)
C16 C 0.8933(3) 0.1356(5) 0.4408(3)
C17 C 0.9474(3) 0.2167(5) 0.3895(4)
C18 C 0.9395(3) 0.2058(5) 0.2912(3)
C19 C 0.8788(4) 0.1180(5) 0.2442(4)
C20 C 0.8233(3) 0.0416(5) 0.3001(3)
N1 N 0.5640(3) -0.2413(4) 0.6084(3)
N2 N 0.7092(3) -0.4358(4) 0.6290(3)
N3 N 0.9118(3) 0.1413(5) 0.5468(3)
N4 N 0.9981(3) 0.2900(5) 0.2355(4)
N5 N 0.7544(3) -0.0483(4) 0.2477(3)
H1 H 0.544(4) -0.108(5) 0.716(4)
H2 H 0.460(4) -0.239(5) 0.692(4)
H3 H 0.439(6) -0.116(7) 0.631(5)
H4 H 0.697(5) -0.619(6) 0.567(5)
H5 H 0.667(6) -0.604(8) 0.673(6)
H6 H 0.790(6) -0.607(7) 0.654(5)
H7 H 0.587(4) 0.002(4) 0.585(3)
H8 H 0.698(3) 0.1178(4) 0.515(3)
H9 H 0.879(3) -0.187(5) 0.381(4)
H10 H 0.911(4) -0.413(5) 0.393(4)
H11 H 0.830(3) -0.531(5) 0.511(3)
H12 H 0.977(3) 0.284(4) 0.417(3)
H13 H 0.873(3) 0.116(4) 0.179(4)
H14 H 0.499(4) -0.432(6) 0.605(4)
H15 H 0.452(5) -0.339(5) 0.542(4)
H16 H 0.565(4) -0.400(5) 0.523(4)
H17 H 0.716(5) -0.264(7) 0.721(5)
H18 H 0.665(6) -0.402(7) 0.748(6)
H19 H 0.777(9) -0.404(10) 0.764(9)
#END
