
#######################################################################
#
#                 Cambridge Crystallographic Data Centre
#                                CCDC
#
#######################################################################
#
# If this CIF has been generated from an entry in the Cambridge
# Structural Database, then it will include bibliographic, chemical,
# crystal, experimental, refinement or atomic coordinate data resulting
# from the CCDC's data processing and validation procedures.
#
#######################################################################

data_CSD_CIF_NUPMES01
_audit_creation_date 2017-01-19
_audit_creation_method CSD-ConQuest-V1
_database_code_CSD NUPMES01
_database_code_depnum_ccdc_archive 'CCDC 1495247'
_chemical_formula_sum 'C12 H9 N3 O2'
_chemical_formula_moiety
;
C12 H9 N3 O2
;
_journal_coden_Cambridge 9
_journal_volume 55
_journal_year 2016
_journal_page_first 12716
_journal_name_full 'Inorg.Chem. '
loop_
_publ_author_name
"C.Biewer"
"C.Hamacher"
"A.Kaiser"
"N.Vogt"
"A.Sandleben"
"M.T.Chin"
"Siqi Yu"
"D.A.Vicic"
"A.Klein"
_chemical_name_systematic
;
N-(4-nitrophenyl)-1-(pyridin-2-yl)methanimine
;
_cell_volume   1069.337
_exptl_crystal_colour 'yellow'
_exptl_crystal_density_diffrn 1.411
_exptl_crystal_description 'Needle'
_diffrn_ambient_temperature 293
#These two values have been output from a single CSD field.
_refine_ls_R_factor_gt 0.1282
_refine_ls_wR_factor_gt 0.1282
_symmetry_cell_setting monoclinic
_symmetry_space_group_name_H-M 'P 21/n'
_symmetry_Int_Tables_number 14
loop_
_symmetry_equiv_pos_site_id
_symmetry_equiv_pos_as_xyz
1 x,y,z
2 1/2-x,1/2+y,1/2-z
3 -x,-y,-z
4 -1/2+x,-1/2-y,-1/2+z
_cell_length_a 3.8588(6)
_cell_length_b 20.329(3)
_cell_length_c 13.632(2)
_cell_angle_alpha 90
_cell_angle_beta 89.554(14)
_cell_angle_gamma 90
_cell_formula_units_Z 4
loop_
_atom_type_symbol
_atom_type_radius_bond
C 0.68
H 0.23
N 0.68
O 0.68
loop_
_atom_site_label
_atom_site_type_symbol
_atom_site_fract_x
_atom_site_fract_y
_atom_site_fract_z
N1 N 0.2160(11) 0.09757(17) 0.9383(3)
C1 C 0.3952(13) 0.1583(2) 1.2240(3)
C2 C 0.1849(13) 0.1831(2) 1.0657(3)
H1 H 0.08120 0.21230 1.02230
C3 C 0.4472(13) 0.0780(2) 1.0985(3)
H2 H 0.51580 0.03640 1.07800
N2 N 0.2410(12) 0.15764(18) 0.6933(3)
C4 C 0.2348(13) 0.2018(2) 1.1612(4)
H3 H 0.16210 0.24290 1.18330
C5 C 0.5028(14) 0.0971(2) 1.1932(3)
H4 H 0.61290 0.06880 1.23660
O1 O 0.6080(13) 0.1394(2) 1.3787(3)
O2 O 0.3284(12) 0.22873(18) 1.3565(3)
N3 N 0.4463(12) 0.1769(2) 1.3259(3)
C6 C 0.2875(12) 0.1208(2) 1.0323(3)
C7 C -0.0769(13) 0.0381(2) 0.6534(3)
H5 H -0.18240 -0.00200 0.64000
C8 C 0.2657(13) 0.1349(2) 0.8643(3)
H6 H 0.36720 0.17590 0.87350
C9 C 0.1662(12) 0.1146(2) 0.7644(3)
C10 C -0.0044(16) 0.0815(3) 0.5795(4)
H7 H -0.06050 0.07170 0.51490
C11 C 0.0081(13) 0.0545(2) 0.7476(3)
H8 H -0.03940 0.02590 0.79920
C12 C 0.1544(17) 0.1404(3) 0.6029(4)
H9 H 0.20330 0.16970 0.55220
#END
