
#######################################################################
#
#                 Cambridge Crystallographic Data Centre
#                                CCDC
#
#######################################################################
#
# If this CIF has been generated from an entry in the Cambridge
# Structural Database, then it will include bibliographic, chemical,
# crystal, experimental, refinement or atomic coordinate data resulting
# from the CCDC's data processing and validation procedures.
#
#######################################################################

data_CSD_CIF_NUPNIW
_audit_creation_date 2010-07-07
_audit_creation_method CSD-ConQuest-V1
_database_code_CSD NUPNIW
_database_code_depnum_ccdc_archive 'CCDC 777940'
_chemical_formula_sum 'C17 H11 N1 O4'
_chemical_formula_moiety
;
C17 H11 N1 O4
;
_journal_coeditor_code "IUCr TK2650"
_journal_coden_Cambridge 1370
_journal_volume 66
_journal_year 2010
_journal_page_first o1023
_journal_name_full 'Acta Crystallogr.,Sect.E:Struct.Rep.Online '
loop_
_publ_author_name
"U.Bibi"
"H.M.Siddiqi"
"Z.Akhter"
"M.Bolte"
_chemical_name_systematic
;
4-Nitrophenyl 1-naphthoate
;
_chemical_melting_point 385
_cell_volume   1348.435
_exptl_crystal_colour 'colorless'
_exptl_crystal_density_diffrn 1.445
_exptl_special_details
;
Melting point range 385-393K

;
_exptl_crystal_description 'block'
_exptl_crystal_preparation 'n-hexane'
_diffrn_ambient_temperature 173
#These two values have been output from a single CSD field.
_refine_ls_R_factor_gt 0.0344
_refine_ls_wR_factor_gt 0.0344
_symmetry_cell_setting monoclinic
_symmetry_space_group_name_H-M 'P 21/c'
_symmetry_Int_Tables_number 14
loop_
_symmetry_equiv_pos_site_id
_symmetry_equiv_pos_as_xyz
1 x,y,z
2 -x,1/2+y,1/2-z
3 -x,-y,-z
4 x,-1/2-y,-1/2+z
_cell_length_a 7.2049(6)
_cell_length_b 12.8175(8)
_cell_length_c 14.7838(14)
_cell_angle_alpha 90
_cell_angle_beta 99.006(7)
_cell_angle_gamma 90
_cell_formula_units_Z 4
loop_
_atom_type_symbol
_atom_type_radius_bond
C 0.68
H 0.23
N 0.68
O 0.68
loop_
_atom_site_label
_atom_site_type_symbol
_atom_site_fract_x
_atom_site_fract_y
_atom_site_fract_z
N1 N 0.36959(17) 0.15975(9) 0.73346(9)
O1 O 0.28241(13) 0.47946(6) 0.47417(6)
O2 O 0.14518(13) 0.59160(7) 0.56191(7)
O3 O 0.42873(18) 0.18063(9) 0.81407(8)
O4 O 0.33027(18) 0.07066(8) 0.70625(9)
C1 C 0.19783(17) 0.57191(9) 0.49057(9)
C2 C 0.30357(17) 0.40273(9) 0.54233(9)
C3 C 0.38432(18) 0.42424(10) 0.63163(10)
H1 H 0.42490 0.49290 0.64910
C4 C 0.40489(18) 0.34404(10) 0.69505(10)
H2 H 0.45790 0.35680 0.75700
C5 C 0.34691(18) 0.24492(10) 0.66653(9)
C6 C 0.27048(19) 0.22251(10) 0.57696(10)
H3 H 0.23350 0.15340 0.55920
C7 C 0.24893(19) 0.30293(10) 0.51368(10)
H4 H 0.19750 0.28990 0.45160
C8 C 0.17730(17) 0.63938(10) 0.40772(9)
C9 C 0.20200(17) 0.75036(9) 0.41572(9)
C10 C 0.2570(2) 0.80306(10) 0.49996(10)
H5 H 0.27700 0.76460 0.55560
C11 C 0.2816(2) 0.90913(11) 0.50176(12)
H6 H 0.31690 0.94360 0.55880
C12 C 0.2553(2) 0.96756(11) 0.42033(13)
H7 H 0.27380 1.04100 0.42260
C13 C 0.2035(2) 0.91929(11) 0.33809(12)
H8 H 0.18670 0.95940 0.28340
C14 C 0.17434(18) 0.80981(10) 0.33332(10)
C15 C 0.12013(19) 0.75958(11) 0.24776(10)
H9 H 0.09980 0.80000 0.19320
C16 C 0.0969(2) 0.65407(11) 0.24282(10)
H10 H 0.06010 0.62130 0.18510
C17 C 0.12749(19) 0.5937(1) 0.32339(10)
H11 H 0.11340 0.52010 0.31930
#END
