
#######################################################################
#
#                 Cambridge Crystallographic Data Centre
#                                CCDC
#
#######################################################################
#
# If this CIF has been generated from an entry in the Cambridge
# Structural Database, then it will include bibliographic, chemical,
# crystal, experimental, refinement or atomic coordinate data resulting
# from the CCDC's data processing and validation procedures.
#
#######################################################################

data_CSD_CIF_NUPQOF
_audit_creation_date 2010-07-07
_audit_creation_method CSD-ConQuest-V1
_database_code_CSD NUPQOF
_database_code_depnum_ccdc_archive 'CCDC 777951'
_chemical_formula_sum 'C16 H14 N2 O2'
_chemical_formula_moiety
;
C16 H14 N2 O2
;
_journal_coeditor_code "IUCr SJ2761"
_journal_coden_Cambridge 1370
_journal_volume 66
_journal_year 2010
_journal_page_first o1037
_journal_name_full 'Acta Crystallogr.,Sect.E:Struct.Rep.Online '
loop_
_publ_author_name
"H.-K.Fun"
"M.Hemamalini"
"A.M.Asiri"
"S.A.Khan"
_chemical_name_systematic
;
1-[(E)-(3,4-Dimethylisoxazol-5-yl)iminomethyl]-2-naphthol
;
_chemical_melting_point 433.15
_cell_volume   1281.175
_exptl_crystal_colour 'yellow'
_exptl_crystal_density_diffrn 1.381
_exptl_crystal_description 'needle'
_exptl_crystal_preparation 'methanol'
_diffrn_ambient_temperature 100
#These two values have been output from a single CSD field.
_refine_ls_R_factor_gt 0.0457
_refine_ls_wR_factor_gt 0.0457
_symmetry_cell_setting monoclinic
_symmetry_space_group_name_H-M 'P 21/c'
_symmetry_Int_Tables_number 14
loop_
_symmetry_equiv_pos_site_id
_symmetry_equiv_pos_as_xyz
1 x,y,z
2 -x,1/2+y,1/2-z
3 -x,-y,-z
4 x,-1/2-y,-1/2+z
_cell_length_a 7.5250(6)
_cell_length_b 15.4643(12)
_cell_length_c 12.3982(7)
_cell_angle_alpha 90
_cell_angle_beta 117.377(4)
_cell_angle_gamma 90
_cell_formula_units_Z 4
loop_
_atom_type_symbol
_atom_type_radius_bond
C 0.68
H 0.23
N 0.68
O 0.68
loop_
_atom_site_label
_atom_site_type_symbol
_atom_site_fract_x
_atom_site_fract_y
_atom_site_fract_z
O1 O 0.20289(17) 1.11942(6) 0.64493(8)
O2 O 0.24094(15) 0.97368(6) 0.30327(8)
N1 N 0.24292(17) 1.04190(6) 0.47613(9)
N2 N 0.21030(18) 0.99921(7) 0.18571(9)
C1 C 0.2410(2) 1.04273(7) 0.70239(11)
C2 C 0.2479(2) 1.04255(8) 0.81837(11)
C3 C 0.2877(2) 0.96778(8) 0.88407(11)
C4 C 0.3177(2) 0.88841(8) 0.83642(11)
C5 C 0.3597(2) 0.81113(8) 0.90574(12)
C6 C 0.3833(2) 0.73399(8) 0.85954(12)
C7 C 0.3626(2) 0.73093(8) 0.74058(12)
C8 C 0.3253(2) 0.80526(8) 0.67215(12)
C9 C 0.30404(19) 0.88660(7) 0.71809(11)
C10 C 0.26908(19) 0.96648(7) 0.65075(11)
C11 C 0.2611(2) 0.96861(8) 0.53223(11)
C12 C 0.2289(2) 1.04637(7) 0.36180(11)
C13 C 0.1957(2) 1.11763(7) 0.29069(11)
C14 C 0.18303(19) 1.08332(8) 0.18048(11)
C15 C 0.1393(2) 1.13268(9) 0.06759(12)
C16 C 0.1737(2) 1.20938(8) 0.31960(12)
H1 H 0.222(3) 1.0979(12) 0.8512(16)
H2 H 0.290(3) 0.9681(11) 0.9648(16)
H3 H 0.375(3) 0.8132(11) 0.9894(16)
H4 H 0.416(3) 0.6822(12) 0.9078(16)
H5 H 0.376(3) 0.6775(12) 0.7059(16)
H6 H 0.309(3) 0.8009(11) 0.5908(15)
H7 H 0.272(3) 0.9140(11) 0.4942(15)
H8 H 0.091(3) 1.0970(12) 0.0011(17)
H9 H 0.256(3) 1.1642(14) 0.0772(18)
H10 H 0.034(3) 1.1763(14) 0.0517(18)
H11 H 0.202(3) 1.2197(12) 0.4021(18)
H12 H 0.263(4) 1.2459(16) 0.302(2)
H13 H 0.041(4) 1.2329(14) 0.266(2)
H14 H 0.207(4) 1.1091(15) 0.569(2)
#END
