
#######################################################################
#
#                 Cambridge Crystallographic Data Centre
#                                CCDC
#
#######################################################################
#
# If this CIF has been generated from an entry in the Cambridge
# Structural Database, then it will include bibliographic, chemical,
# crystal, experimental, refinement or atomic coordinate data resulting
# from the CCDC's data processing and validation procedures.
#
#######################################################################

data_CSD_CIF_NUPTIC
_audit_creation_date 2010-06-29
_audit_creation_method CSD-ConQuest-V1
_database_code_CSD NUPTIC
_database_code_depnum_ccdc_archive 'CCDC 777964'
_chemical_formula_sum 'C2 H5 N3 O3'
_chemical_formula_moiety
;
C2 H5 N3 O3
;
_journal_coeditor_code "IUCr JH2142"
_journal_coden_Cambridge 1370
_journal_volume 66
_journal_year 2010
_journal_page_first o1058
_journal_name_full 'Acta Crystallogr.,Sect.E:Struct.Rep.Online '
loop_
_publ_author_name
"O.S.Trofymchuk"
"S.V.Pavlova"
"V.Bon"
"A.N.Boyko"
"V.Pekhnyo"
_chemical_name_systematic
;
2-Hydrazino-N-hydroxy-2-oxoacetamide
;
_cell_volume    437.971
_exptl_crystal_colour 'colorless'
_exptl_crystal_density_diffrn 1.806
_exptl_crystal_description 'block'
_diffrn_ambient_temperature 77
#These two values have been output from a single CSD field.
_refine_ls_R_factor_gt 0.0321
_refine_ls_wR_factor_gt 0.0321
_symmetry_cell_setting monoclinic
_symmetry_space_group_name_H-M 'C c'
_symmetry_Int_Tables_number 9
loop_
_symmetry_equiv_pos_site_id
_symmetry_equiv_pos_as_xyz
1 x,y,z
2 x,-y,1/2+z
3 1/2+x,1/2+y,z
4 1/2+x,1/2-y,1/2+z
_cell_length_a 9.3968(7)
_cell_length_b 3.6728(2)
_cell_length_c 12.7510(8)
_cell_angle_alpha 90
_cell_angle_beta 95.598(5)
_cell_angle_gamma 90
_cell_formula_units_Z 4
loop_
_atom_type_symbol
_atom_type_radius_bond
C 0.68
H 0.23
N 0.68
O 0.68
loop_
_atom_site_label
_atom_site_type_symbol
_atom_site_fract_x
_atom_site_fract_y
_atom_site_fract_z
C1 C 0.4570(5) 0.671(1) 0.8492(3)
C2 C 0.4385(4) 0.8528(9) 0.7408(3)
N1 N 0.3439(4) 0.7171(8) 0.9018(3)
H1 H 0.26950 0.83960 0.87320
N2 N 0.5546(4) 0.8238(9) 0.6907(3)
H2 H 0.62950 0.70360 0.71940
N3 N 0.5578(4) 0.9881(9) 0.5899(3)
H3 H 0.64790 1.06960 0.58800
H4 H 0.55340 0.81130 0.53710
O1 O 0.3428(3) 0.5725(8) 1.0016(2)
H5 H 0.41390 0.69690 1.04560
O2 O 0.5674(3) 0.5033(7) 0.8820(2)
O3 O 0.3288(3) 1.0094(7) 0.7077(2)
#END
