
#######################################################################
#
#                 Cambridge Crystallographic Data Centre
#                                CCDC
#
#######################################################################
#
# If this CIF has been generated from an entry in the Cambridge
# Structural Database, then it will include bibliographic, chemical,
# crystal, experimental, refinement or atomic coordinate data resulting
# from the CCDC's data processing and validation procedures.
#
#######################################################################

data_CSD_CIF_NUQPOF
_audit_creation_date 2010-06-17
_audit_creation_method CSD-ConQuest-V1
_database_code_CSD NUQPOF
_database_code_depnum_ccdc_archive 'CCDC 778050'
_chemical_formula_sum 'C14 H4 N4 O12'
_chemical_formula_moiety
;
C14 H4 N4 O12
;
_journal_coeditor_code "IUCr BT5249"
_journal_coden_Cambridge 1370
_journal_volume 66
_journal_year 2010
_journal_page_first o1164
_journal_name_full 'Acta Crystallogr.,Sect.E:Struct.Rep.Online '
loop_
_publ_author_name
"M.Armaghan"
"M.M.Amini"
"S.W.Ng"
_chemical_name_systematic
;
1,8-Dihydroxy-2,4,5,7-tetranitro-9,10-anthraquinone
;
_chemical_melting_point 473
_cell_volume   1515.962
_exptl_crystal_colour 'brown'
_exptl_crystal_density_diffrn 1.841
_exptl_special_details
;
Melts above 473K

;
_exptl_crystal_description 'plate'
_exptl_crystal_preparation 'hexane/methanol'
_diffrn_ambient_temperature 223
#These two values have been output from a single CSD field.
_refine_ls_R_factor_gt 0.0626
_refine_ls_wR_factor_gt 0.0626
_symmetry_cell_setting monoclinic
_symmetry_space_group_name_H-M 'P 21/c'
_symmetry_Int_Tables_number 14
loop_
_symmetry_equiv_pos_site_id
_symmetry_equiv_pos_as_xyz
1 x,y,z
2 -x,1/2+y,1/2-z
3 -x,-y,-z
4 x,-1/2-y,-1/2+z
_cell_length_a 17.726(2)
_cell_length_b 9.007(1)
_cell_length_c 9.731(1)
_cell_angle_alpha 90
_cell_angle_beta 102.643(2)
_cell_angle_gamma 90
_cell_formula_units_Z 4
loop_
_atom_type_symbol
_atom_type_radius_bond
C 0.68
H 0.23
N 0.68
O 0.68
loop_
_atom_site_label
_atom_site_type_symbol
_atom_site_fract_x
_atom_site_fract_y
_atom_site_fract_z
O1 O 0.34937(16) 0.2030(3) 0.4649(3)
H1 H 0.323(2) 0.172(5) 0.388(3)
O2 O 0.24924(13) 0.2174(2) 0.2291(2)
O3 O 0.15091(14) 0.2212(2) -0.0089(3)
H2 H 0.183(2) 0.186(6) 0.060(4)
O4 O 0.07048(14) 0.2831(3) -0.2661(3)
O5 O -0.02307(13) 0.4233(3) -0.2381(3)
O6 O 0.06528(16) 0.8754(3) 0.0919(3)
O7 O 0.17014(16) 0.9106(3) 0.0217(3)
O8 O 0.22018(17) 0.7979(3) 0.2950(3)
O9 O 0.33793(14) 0.8827(3) 0.5708(3)
O10 O 0.3791(2) 0.8835(3) 0.3801(4)
O11 O 0.51679(18) 0.4003(4) 0.7123(4)
O12 O 0.43047(19) 0.2420(4) 0.7288(3)
N1 N 0.04326(15) 0.3791(3) -0.2055(3)
N2 N 0.12252(16) 0.8324(3) 0.0558(3)
N3 N 0.35601(16) 0.8218(3) 0.4727(3)
N4 N 0.45331(17) 0.3494(3) 0.6774(3)
C1 C 0.34783(18) 0.3492(4) 0.4612(3)
C2 C 0.29723(16) 0.4320(3) 0.3556(3)
C3 C 0.24621(16) 0.3536(3) 0.2380(3)
C4 C 0.19253(16) 0.4400(3) 0.1305(3)
C5 C 0.14731(17) 0.3649(3) 0.0136(3)
C6 C 0.09371(17) 0.4510(3) -0.0830(3)
C7 C 0.08449(17) 0.5998(3) -0.0660(3)
H3 H 0.04650 0.65320 -0.12950
C8 C 0.13215(16) 0.6704(3) 0.0466(3)
C9 C 0.18590(16) 0.5934(3) 0.1447(3)
C10 C 0.23464(18) 0.6727(3) 0.2673(3)
C11 C 0.29712(17) 0.5868(3) 0.3616(3)
C12 C 0.35047(17) 0.6585(4) 0.4664(3)
C13 C 0.40121(18) 0.5807(4) 0.5685(3)
H4 H 0.43710 0.63090 0.63860
C14 C 0.39833(18) 0.4294(4) 0.5659(3)
#END
