
#######################################################################
#
#                 Cambridge Crystallographic Data Centre
#                                CCDC
#
#######################################################################
#
# If this CIF has been generated from an entry in the Cambridge
# Structural Database, then it will include bibliographic, chemical,
# crystal, experimental, refinement or atomic coordinate data resulting
# from the CCDC's data processing and validation procedures.
#
#######################################################################

data_CSD_CIF_NUQZOP
_audit_creation_date 2010-06-29
_audit_creation_method CSD-ConQuest-V1
_database_code_CSD NUQZOP
_database_code_depnum_ccdc_archive 'CCDC 778095'
_chemical_formula_sum 'C20 H13 N3 O4'
_chemical_formula_moiety
;
C20 H13 N3 O4
;
_journal_coeditor_code "IUCr TK2653"
_journal_coden_Cambridge 1370
_journal_volume 66
_journal_year 2010
_journal_page_first o1229
_journal_name_full 'Acta Crystallogr.,Sect.E:Struct.Rep.Online '
loop_
_publ_author_name
"J.H.Goh"
"H.-K.Fun"
"Nithinchandra"
"B.Kalluraya"
"N.S.Rai"
_chemical_name_systematic
;
(3-(5-Nitro-2-furyl)-1-phenyl-1H-pyrazol-4-yl)(phenyl)methanone
;
_cell_volume   1621.127
_exptl_crystal_colour 'brown'
_exptl_crystal_density_diffrn 1.472
_exptl_crystal_description 'block'
_diffrn_ambient_temperature 100
#These two values have been output from a single CSD field.
_refine_ls_R_factor_gt 0.0509
_refine_ls_wR_factor_gt 0.0509
_symmetry_cell_setting monoclinic
_symmetry_space_group_name_H-M 'P 21/c'
_symmetry_Int_Tables_number 14
loop_
_symmetry_equiv_pos_site_id
_symmetry_equiv_pos_as_xyz
1 x,y,z
2 -x,1/2+y,1/2-z
3 -x,-y,-z
4 x,-1/2-y,-1/2+z
_cell_length_a 11.2946(12)
_cell_length_b 6.9755(8)
_cell_length_c 22.7064(18)
_cell_angle_alpha 90
_cell_angle_beta 115.015(4)
_cell_angle_gamma 90
_cell_formula_units_Z 4
loop_
_atom_type_symbol
_atom_type_radius_bond
C 0.68
H 0.23
N 0.68
O 0.68
loop_
_atom_site_label
_atom_site_type_symbol
_atom_site_fract_x
_atom_site_fract_y
_atom_site_fract_z
O1 O 1.26743(11) 0.74226(19) 1.00753(6)
O2 O 0.86733(12) 0.95863(19) 0.85528(6)
O3 O 1.55123(13) 0.7939(2) 0.98584(7)
O4 O 1.52027(15) 0.6888(3) 1.06817(9)
N1 N 0.96246(13) 0.6915(2) 1.05307(6)
N2 N 1.07625(13) 0.6992(2) 1.04603(7)
N3 N 1.48065(16) 0.7520(3) 1.01308(9)
C1 C 0.62475(17) 0.6603(3) 0.86532(8)
C2 C 0.49042(19) 0.6327(4) 0.83427(9)
C3 C 0.40950(19) 0.7816(4) 0.80076(9)
C4 C 0.4611(2) 0.9603(4) 0.79806(10)
C5 C 0.5954(2) 0.9876(3) 0.82757(10)
C6 C 0.67801(17) 0.8374(3) 0.86116(8)
C7 C 0.82209(16) 0.8692(3) 0.88763(8)
C8 C 0.90414(16) 0.7934(2) 0.95280(8)
C9 C 1.04207(16) 0.7631(2) 0.98559(8)
C10 C 1.14371(16) 0.7910(2) 0.96325(8)
C11 C 1.14713(18) 0.8593(3) 0.90780(9)
C12 C 1.27856(18) 0.8549(3) 0.91693(9)
C13 C 1.34517(17) 0.7833(3) 0.97709(9)
C14 C 0.85851(16) 0.7448(2) 0.99826(8)
C15 C 0.96295(16) 0.6275(2) 1.11294(8)
C16 C 1.07647(16) 0.5522(3) 1.16079(8)
C17 C 1.07388(18) 0.4800(3) 1.21724(9)
C18 C 0.96039(18) 0.4857(3) 1.22655(9)
C19 C 0.84901(18) 0.5655(3) 1.17896(9)
C20 C 0.84850(17) 0.6368(3) 1.12181(8)
H1 H 0.6830(18) 0.558(3) 0.8899(9)
H2 H 0.458(2) 0.505(3) 0.8376(11)
H3 H 0.315(2) 0.757(3) 0.7776(11)
H4 H 0.406(2) 1.071(4) 0.7748(12)
H5 H 0.635(2) 1.110(4) 0.8263(11)
H6 H 1.071(2) 0.900(4) 0.8687(12)
H7 H 1.319(2) 0.895(3) 0.889(1)
H8 H 0.7722(19) 0.741(3) 0.9963(9)
H9 H 1.1530(18) 0.549(3) 1.1519(9)
H10 H 1.150(2) 0.425(3) 1.2493(10)
H11 H 0.9566(19) 0.433(3) 1.2648(10)
H12 H 0.7709(17) 0.575(3) 1.1840(8)
H13 H 0.7707(18) 0.686(3) 1.0903(9)
#END
