
#######################################################################
#
#                 Cambridge Crystallographic Data Centre
#                                CCDC
#
#######################################################################
#
# If this CIF has been generated from an entry in the Cambridge
# Structural Database, then it will include bibliographic, chemical,
# crystal, experimental, refinement or atomic coordinate data resulting
# from the CCDC's data processing and validation procedures.
#
#######################################################################

data_CSD_CIF_NURBIM
_audit_creation_date 2010-06-29
_audit_creation_method CSD-ConQuest-V1
_database_code_CSD NURBIM
_database_code_depnum_ccdc_archive 'CCDC 778099'
_chemical_formula_sum 'C18 H14 N2 O3'
_chemical_formula_moiety
;
C18 H14 N2 O3
;
_journal_coeditor_code "IUCr HB5399"
_journal_coden_Cambridge 1370
_journal_volume 66
_journal_year 2010
_journal_page_first o1237
_journal_name_full 'Acta Crystallogr.,Sect.E:Struct.Rep.Online '
loop_
_publ_author_name
"W.-S.Loh"
"H.-K.Fun"
"K.Kiran"
"S.Sarveswari"
"V.Vijayakumar"
_chemical_name_systematic
;
1-(2-Methyl-6-nitro-4-phenylquinolin-3-yl)ethanone
;
_chemical_name_common
;
1-(2-Methyl-6-nitro-4-phenyl-3-quinolyl)ethanone
;
_chemical_melting_point 403
_cell_volume   1438.474
_exptl_crystal_colour 'yellow'
_exptl_crystal_density_diffrn 1.414
_exptl_crystal_description 'block'
_exptl_crystal_preparation 'chloroform'
_diffrn_ambient_temperature 100
#These two values have been output from a single CSD field.
_refine_ls_R_factor_gt 0.0606
_refine_ls_wR_factor_gt 0.0606
_symmetry_cell_setting monoclinic
_symmetry_space_group_name_H-M 'P 21/c'
_symmetry_Int_Tables_number 14
loop_
_symmetry_equiv_pos_site_id
_symmetry_equiv_pos_as_xyz
1 x,y,z
2 -x,1/2+y,1/2-z
3 -x,-y,-z
4 x,-1/2-y,-1/2+z
_cell_length_a 13.297(2)
_cell_length_b 7.7689(12)
_cell_length_c 17.9430(19)
_cell_angle_alpha 90
_cell_angle_beta 129.099(7)
_cell_angle_gamma 90
_cell_formula_units_Z 4
loop_
_atom_type_symbol
_atom_type_radius_bond
C 0.68
H 0.23
N 0.68
O 0.68
loop_
_atom_site_label
_atom_site_type_symbol
_atom_site_fract_x
_atom_site_fract_y
_atom_site_fract_z
O1 O 0.22581(15) 0.7458(2) 0.39046(10)
O2 O 0.17169(14) 1.20721(18) 0.84191(10)
O3 O 0.35548(14) 1.19938(18) 0.86969(10)
N1 N 0.00896(15) 0.73719(17) 0.49922(11)
N2 N 0.24139(16) 1.16058(19) 0.82228(11)
C1 C 0.07078(17) 0.6966(2) 0.46604(12)
C2 C 0.07093(16) 0.8420(2) 0.57827(12)
C3 C 0.00244(17) 0.8836(2) 0.61256(13)
H1 H -0.08070 0.84040 0.58090
C4 C 0.05691(18) 0.9862(2) 0.69126(13)
H2 H 0.01240 1.01250 0.71400
C5 C 0.18211(17) 1.0511(2) 0.73696(12)
C6 C 0.25169(17) 1.0187(2) 0.70594(12)
H3 H 0.33340 1.06670 0.73740
C7 C 0.19679(16) 0.9106(2) 0.62512(12)
C8 C 0.26215(16) 0.8663(2) 0.58772(12)
C9 C 0.19839(17) 0.7586(2) 0.50918(12)
C10 C 0.39210(17) 0.9385(2) 0.62955(12)
C11 C 0.50170(17) 0.9063(2) 0.72397(13)
H4 H 0.49450 0.84040 0.76370
C12 C 0.62200(18) 0.9721(2) 0.75941(13)
H5 H 0.69460 0.94970 0.82250
C13 C 0.63368(18) 1.0716(2) 0.70039(14)
H6 H 0.71400 1.11520 0.72400
C14 C 0.52518(18) 1.1051(2) 0.60658(14)
H7 H 0.53280 1.17210 0.56740
C15 C 0.40435(18) 1.0389(2) 0.57040(13)
H8 H 0.33200 1.06120 0.50720
C16 C 0.26170(18) 0.6954(2) 0.46785(13)
C17 C 0.3644(2) 0.5611(3) 0.52599(15)
H9 H 0.40680 0.54030 0.49900
H10 H 0.32550 0.45640 0.52520
H11 H 0.42690 0.60050 0.59100
C18 C 0.00164(17) 0.5814(2) 0.37966(13)
H12 H -0.08120 0.54980 0.36100
H13 H 0.05230 0.47960 0.39500
H14 H -0.01040 0.64110 0.32770
#END
