
#######################################################################
#
#                 Cambridge Crystallographic Data Centre
#                                CCDC
#
#######################################################################
#
# If this CIF has been generated from an entry in the Cambridge
# Structural Database, then it will include bibliographic, chemical,
# crystal, experimental, refinement or atomic coordinate data resulting
# from the CCDC's data processing and validation procedures.
#
#######################################################################

data_CSD_CIF_NURMEU
_audit_creation_date 2015-09-26
_audit_creation_method CSD-ConQuest-V1
_database_code_CSD NURMEU
_database_code_depnum_ccdc_archive 'CCDC 1042263'
_chemical_formula_sum 'C32 H23 N3 O3'
_chemical_formula_moiety
;
C32 H23 N3 O3
;
_journal_coden_Cambridge 177
_journal_volume 13
_journal_year 2015
_journal_page_first 11129
_journal_name_full 'Org.Biomol.Chem. '
loop_
_publ_author_name
"R.Kumar"
"Sana Sandhu"
"G.Hundal"
"Prabhpreet Singh"
"A.Walia"
"V.Vanita"
"S.Kumar"
_chemical_name_systematic
;
N-(9-anthrylmethyl)-N-(3-((4-nitrophenyl)amino)-2-naphthyl)formamide
;
_cell_volume   1450.374
_exptl_crystal_colour 'yellow'
_exptl_crystal_density_diffrn 1.139
_exptl_crystal_description 'needles'
_diffrn_ambient_temperature 100
_refine_special_details
;
The SQUEEZE/PLATON program has been used to model some disorder.

;
#These two values have been output from a single CSD field.
_refine_ls_R_factor_gt 0.0431
_refine_ls_wR_factor_gt 0.0431
_symmetry_cell_setting triclinic
_symmetry_space_group_name_H-M 'P -1'
_symmetry_Int_Tables_number 2
loop_
_symmetry_equiv_pos_site_id
_symmetry_equiv_pos_as_xyz
1 x,y,z
2 -x,-y,-z
_cell_length_a 9.816(4)
_cell_length_b 11.381(4)
_cell_length_c 13.411(6)
_cell_angle_alpha 99.225(19)
_cell_angle_beta 92.06(2)
_cell_angle_gamma 100.585(19)
_cell_formula_units_Z 2
loop_
_atom_type_symbol
_atom_type_radius_bond
C 0.68
H 0.23
N 0.68
O 0.68
loop_
_atom_site_label
_atom_site_type_symbol
_atom_site_fract_x
_atom_site_fract_y
_atom_site_fract_z
C1 C 0.95782(16) 0.64807(13) 0.70456(12)
C2 C 1.07038(16) 0.59240(14) 0.68312(12)
H1 H 1.07910 0.55120 0.61690
C3 C 1.16892(17) 0.59852(13) 0.76022(12)
H2 H 1.24670 0.56080 0.74740
C4 C 1.15571(16) 0.65982(13) 0.85750(12)
C5 C 1.03869(16) 0.71294(13) 0.87665(12)
H3 H 1.02820 0.75340 0.94280
C6 C 0.94064(17) 0.70651(13) 0.80086(12)
H4 H 0.86110 0.74170 0.81370
C7 C 1.30674(15) 0.76804(13) 1.00622(12)
C8 C 1.38446(16) 0.75522(13) 1.09363(12)
C9 C 1.44467(16) 0.85430(14) 1.16243(12)
H5 H 1.49620 0.84340 1.22040
C10 C 1.43242(17) 0.97334(14) 1.14976(13)
C11 C 1.49702(18) 1.07867(15) 1.21837(14)
H6 H 1.55100 1.07070 1.27630
C12 C 1.4826(2) 1.19178(16) 1.20233(16)
H7 H 1.52690 1.26140 1.24900
C13 C 1.4034(2) 1.20555(15) 1.11795(16)
H8 H 1.39370 1.28440 1.10770
C14 C 1.33986(18) 1.10657(15) 1.05013(15)
H9 H 1.28640 1.11710 0.99290
C15 C 1.35264(16) 0.98712(14) 1.06402(13)
C16 C 1.29228(16) 0.88350(14) 0.99379(13)
H10 H 1.23970 0.89310 0.93580
C17 C 1.52489(16) 0.60248(14) 1.09744(11)
H11 H 1.59710 0.65880 1.07600
C18 C 1.28500(16) 0.55367(13) 1.14237(12)
H12 H 1.31650 0.47990 1.15670
H13 H 1.21020 0.52840 1.08740
C19 C 1.22771(16) 0.61390(13) 1.23650(12)
C20 C 1.09886(16) 0.65150(13) 1.23195(12)
C21 C 1.01741(16) 0.64189(14) 1.13998(13)
H14 H 1.05120 0.61090 1.07760
C22 C 0.89184(17) 0.67639(15) 1.14004(13)
H15 H 0.83950 0.66890 1.07760
C23 C 0.83737(18) 0.72341(15) 1.23153(14)
H16 H 0.74890 0.74590 1.23010
C24 C 0.91143(17) 0.73601(14) 1.32008(13)
H17 H 0.87450 0.76730 1.38110
C25 C 1.04425(17) 0.70332(14) 1.32395(12)
C26 C 1.12224(17) 0.72078(14) 1.41516(13)
H18 H 1.08650 0.75560 1.47540
C27 C 1.25183(17) 0.68838(13) 1.42009(12)
C28 C 1.33234(18) 0.70900(15) 1.51336(13)
H19 H 1.29790 0.74620 1.57330
C29 C 1.45728(19) 0.67627(16) 1.51782(13)
H20 H 1.51070 0.69190 1.58070
C30 C 1.50995(19) 0.61868(15) 1.42979(13)
H21 H 1.59770 0.59530 1.43450
C31 C 1.43663(17) 0.59678(14) 1.33929(13)
H22 H 1.47320 0.55750 1.28120
C32 C 1.30489(16) 0.63184(13) 1.32981(12)
N1 N 0.85411(15) 0.64560(12) 0.62428(11)
N2 N 1.40194(13) 0.63536(11) 1.10842(9)
N3 N 1.25454(14) 0.66325(11) 0.93472(10)
H23 H 1.3128(16) 0.6133(14) 0.9234(12)
O1 O 0.75744(14) 0.69887(12) 0.64544(10)
O2 O 0.86748(13) 0.59247(11) 0.53895(9)
O3 O 1.55315(11) 0.50496(9) 1.11279(8)
#END
