
#######################################################################
#
#                 Cambridge Crystallographic Data Centre
#                                CCDC
#
#######################################################################
#
# If this CIF has been generated from an entry in the Cambridge
# Structural Database, then it will include bibliographic, chemical,
# crystal, experimental, refinement or atomic coordinate data resulting
# from the CCDC's data processing and validation procedures.
#
#######################################################################

data_CSD_CIF_NUTPEX
_audit_creation_date 1998-09-24
_audit_creation_method CSD-ConQuest-V1
_database_code_CSD NUTPEX
_database_code_depnum_ccdc_archive 'CCDC 130295'
_chemical_formula_sum 'C18 H15 N1 O4'
_chemical_formula_moiety
;
C18 H15 N1 O4
;
_journal_coeditor_code "IUCr CF1247"
_journal_coden_Cambridge 591
_journal_volume 54
_journal_year 1998
_journal_page_first 1123
_journal_name_full 'Acta Crystallogr.,Sect.C:Cryst.Struct.Commun. '
loop_
_publ_author_name
"N.Kumar"
"S.Roy"
"V.S.Parmar"
"W.Errington"
_chemical_name_systematic
;
2',4'-Dihydroxy-2-(3''-(4'''-methylphenyl)isoxazol-5''-yl)acetophenone
;
_chemical_melting_point 458
_cell_volume   1565.703
_exptl_crystal_colour 'colorless'
_exptl_crystal_density_diffrn 1.312
_exptl_crystal_description 'block'
_exptl_crystal_preparation 'acetone/petroleum ether'
_diffrn_ambient_temperature 180
#These two values have been output from a single CSD field.
_refine_ls_R_factor_gt 0.043
_refine_ls_wR_factor_gt 0.043
_symmetry_cell_setting monoclinic
_symmetry_space_group_name_H-M 'P 21/c'
_symmetry_Int_Tables_number 14
loop_
_symmetry_equiv_pos_site_id
_symmetry_equiv_pos_as_xyz
1 x,y,z
2 -x,1/2+y,1/2-z
3 -x,-y,-z
4 x,-1/2-y,-1/2+z
_cell_length_a 7.9188(14)
_cell_length_b 15.010(3)
_cell_length_c 13.422(2)
_cell_angle_alpha 90
_cell_angle_beta 101.064(3)
_cell_angle_gamma 90
_cell_formula_units_Z 4
loop_
_atom_type_symbol
_atom_type_radius_bond
C 0.68
H 0.23
N 0.68
O 0.68
loop_
_atom_site_label
_atom_site_type_symbol
_atom_site_fract_x
_atom_site_fract_y
_atom_site_fract_z
O1 O -0.28233(12) -0.03964(7) 0.12251(8)
O2 O -0.33237(12) -0.25229(7) 0.10277(8)
O3 O -0.10540(13) 0.07196(7) 0.24257(8)
H1 H -0.19550 0.04790 0.21070
O4 O 0.49725(12) 0.07582(7) 0.25793(8)
H2 H 0.49080 0.11300 0.30380
N1 N -0.49432(15) -0.29352(8) 0.09223(9)
C1 C -0.15098(17) -0.07012(9) 0.09909(10)
C2 C -0.16987(17) -0.14812(9) 0.02523(11)
H3 H -0.16600 -0.12590 -0.04370
H4 H -0.07250 -0.18980 0.04560
C3 C 0.01766(16) -0.03332(9) 0.13979(10)
C4 C 0.03290(17) 0.03672(9) 0.21128(10)
C5 C 0.19274(17) 0.07308(9) 0.25171(10)
H5 H 0.20130 0.12030 0.29950
C6 C 0.33935(17) 0.04069(10) 0.22261(10)
C7 C 0.32823(18) -0.02928(10) 0.15218(11)
H6 H 0.42890 -0.05170 0.13220
C8 C 0.17039(18) -0.06472(9) 0.11276(11)
H7 H 0.16350 -0.11220 0.06540
C9 C -0.58764(18) -0.26124(9) 0.00825(10)
C10 C -0.49058(18) -0.19898(9) -0.03749(10)
H8 H -0.52790 -0.16620 -0.09820
C11 C -0.33527(17) -0.19645(9) 0.02333(10)
C12 C -0.76532(17) -0.29282(9) -0.02647(10)
C13 C -0.84599(19) -0.34678(10) 0.03518(11)
H9 H -0.78660 -0.36220 0.10130
C14 C -1.0108(2) -0.37794(10) 0.00116(13)
H10 H -1.06240 -0.41520 0.04410
C15 C -1.10285(19) -0.35612(10) -0.09418(12)
C16 C -1.0236(2) -0.30186(11) -0.15482(12)
H11 H -1.08470 -0.28560 -0.22030
C17 C -0.8573(2) -0.27065(10) -0.12237(11)
H12 H -0.80580 -0.23390 -0.16590
C18 C -1.2842(2) -0.39063(12) -0.12974(14)
H13 H -1.33960 -0.35740 -0.19010
H14 H -1.35020 -0.38270 -0.07560
H15 H -1.28010 -0.45400 -0.14650
#END
