
#######################################################################
#
#                 Cambridge Crystallographic Data Centre
#                                CCDC
#
#######################################################################
#
# If this CIF has been generated from an entry in the Cambridge
# Structural Database, then it will include bibliographic, chemical,
# crystal, experimental, refinement or atomic coordinate data resulting
# from the CCDC's data processing and validation procedures.
#
#######################################################################

data_CSD_CIF_NUVKOG
_audit_creation_date 2015-09-29
_audit_creation_method CSD-ConQuest-V1
_database_code_CSD NUVKOG
_database_code_depnum_ccdc_archive 'CCDC 1428404'
_chemical_formula_sum 'C19 H15 N3 O8'
_chemical_formula_moiety
;
C19 H15 N3 O8
;
_journal_coden_Cambridge 1340
_journal_volume 26
_journal_year 2010
_journal_page_first 13076
_journal_name_full 'Langmuir '
loop_
_publ_author_name
"Jing Chen"
"J.W.Kampf"
"A.J.McNeil"
_chemical_name_systematic
;
dimethyl 4-((3,5-dinitrophenyl)ethynyl)-2,6-dimethylpyridine-3,5-dicarboxylate
;
_cell_volume    922.261
_exptl_crystal_colour 'colorless'
_exptl_crystal_density_diffrn 1.489
_exptl_crystal_description 'needle'
_diffrn_ambient_temperature 85
#These two values have been output from a single CSD field.
_refine_ls_R_factor_gt 0.0776
_refine_ls_wR_factor_gt 0.0776
_symmetry_cell_setting triclinic
_symmetry_space_group_name_H-M 'P -1'
_symmetry_Int_Tables_number 2
loop_
_symmetry_equiv_pos_site_id
_symmetry_equiv_pos_as_xyz
1 x,y,z
2 -x,-y,-z
_cell_length_a 7.958(2)
_cell_length_b 10.806(3)
_cell_length_c 12.466(4)
_cell_angle_alpha 65.205(5)
_cell_angle_beta 72.708(5)
_cell_angle_gamma 88.913(5)
_cell_formula_units_Z 2
loop_
_atom_type_symbol
_atom_type_radius_bond
C 0.68
H 0.23
N 0.68
O 0.68
loop_
_atom_site_label
_atom_site_type_symbol
_atom_site_fract_x
_atom_site_fract_y
_atom_site_fract_z
O1 O 0.5270(2) 0.8043(2) 0.54540(19)
O2 O 0.2405(2) 0.7660(2) 0.56257(18)
O3 O 0.4224(3) 0.1424(2) 0.7527(2)
O4 O 0.1493(2) 0.1915(2) 0.74330(19)
O5 O 0.1190(3) 0.1740(2) 0.3073(2)
O6 O 0.0069(3) 0.2982(2) 0.1635(2)
O7 O 0.0837(3) 0.7908(2) 0.00734(19)
O8 O 0.2261(3) 0.8836(2) 0.0846(2)
N1 N 0.3750(3) 0.4440(2) 0.8996(2)
N2 N 0.0806(3) 0.2836(3) 0.2403(2)
N3 N 0.1585(3) 0.7842(3) 0.0823(2)
C1 C 0.3867(3) 0.5696(3) 0.8077(3)
C2 C 0.3605(3) 0.5884(3) 0.6957(3)
C3 C 0.3212(3) 0.4724(3) 0.6797(3)
C4 C 0.3210(3) 0.3429(3) 0.7734(3)
C5 C 0.3460(3) 0.3321(3) 0.8826(3)
C6 C 0.4254(4) 0.6878(3) 0.8330(3)
H1 H 0.44390 0.65300 0.91450
H2 H 0.32500 0.74180 0.83320
H3 H 0.53240 0.74600 0.76810
C7 C 0.3880(4) 0.7289(3) 0.5940(3)
C8 C 0.2577(4) 0.9033(3) 0.4647(3)
H4 H 0.30480 0.96960 0.48650
H5 H 0.14120 0.92470 0.45550
H6 H 0.33880 0.90840 0.38610
C9 C 0.3057(4) 0.2158(3) 0.7547(3)
C10 C 0.1254(4) 0.0686(3) 0.7257(3)
H7 H 0.21920 0.07410 0.65160
H8 H 0.00950 0.06190 0.71470
H9 H 0.13150 -0.01270 0.79900
C11 C 0.3390(4) 0.1962(3) 0.9883(3)
H10 H 0.35580 0.21040 1.05720
H11 H 0.43310 0.14620 0.96040
H12 H 0.22350 0.14270 1.01650
C12 C 0.2888(3) 0.4863(3) 0.5684(3)
C13 C 0.2584(3) 0.4948(3) 0.4768(3)
C14 C 0.2171(3) 0.5078(3) 0.3690(3)
C15 C 0.2148(3) 0.6374(3) 0.2770(3)
H13 H 0.24740 0.71790 0.28290
C16 C 0.1644(3) 0.6473(3) 0.1771(3)
C17 C 0.1188(3) 0.5342(3) 0.1629(3)
H14 H 0.08300 0.54330 0.09400
C18 C 0.1273(3) 0.4073(3) 0.2529(3)
C19 C 0.1752(3) 0.3903(3) 0.3557(3)
H15 H 0.17960 0.30110 0.41610
#END
