
#######################################################################
#
#                 Cambridge Crystallographic Data Centre
#                                CCDC
#
#######################################################################
#
# If this CIF has been generated from an entry in the Cambridge
# Structural Database, then it will include bibliographic, chemical,
# crystal, experimental, refinement or atomic coordinate data resulting
# from the CCDC's data processing and validation procedures.
#
#######################################################################

data_CSD_CIF_NXENAM
_audit_creation_date 1979-02-14
_audit_creation_method CSD-ConQuest-V1
_database_code_CSD NXENAM
_database_code_depnum_ccdc_archive 'CCDC 1225217'
_chemical_formula_sum 'C4 H8 N4 O8'
_chemical_formula_moiety
;
C4 H8 N4 O8
;
_journal_coeditor_code "IUCr A16589"
_journal_coden_Cambridge 107
_journal_volume 34
_journal_year 1978
_journal_page_first 3452
_journal_name_full 'Acta Crystallogr.,Sect.B:Struct.Crystallogr.Cryst.Chem. '
loop_
_publ_author_name
"J.Halfpenny"
"R.W.H.Small"
_chemical_name_systematic
;
2,2'-Dinitroxy-diethylnitramine
;
_cell_volume    957.795
_exptl_crystal_density_diffrn 1.663
_exptl_special_details
;
i, orthorhombic polymorph

;
_diffrn_ambient_temperature ?
_diffrn_special_details
;
The study was carried out at room temperature,in the range 283-303K

;
#These two values have been output from a single CSD field.
_refine_ls_R_factor_gt 0.043
_refine_ls_wR_factor_gt 0.043
_symmetry_cell_setting orthorhombic
_symmetry_space_group_name_H-M 'P c a 21'
_symmetry_Int_Tables_number 29
loop_
_symmetry_equiv_pos_site_id
_symmetry_equiv_pos_as_xyz
1 x,y,z
2 1/2-x,y,1/2+z
3 1/2+x,-y,z
4 -x,-y,1/2+z
_cell_length_a 15.345(5)
_cell_length_b 6.183(2)
_cell_length_c 10.095(3)
_cell_angle_alpha 90
_cell_angle_beta 90
_cell_angle_gamma 90
_cell_formula_units_Z 4
loop_
_atom_type_symbol
_atom_type_radius_bond
C 0.68
N 0.68
O 0.68
loop_
_atom_site_label
_atom_site_type_symbol
_atom_site_fract_x
_atom_site_fract_y
_atom_site_fract_z
C1 C 0.64920 0.63500 0.40000
C2 C 0.56590 0.56240 0.33210
C3 C 0.54490 0.21210 0.20160
C4 C 0.62850 0.21300 0.12230
N1 N 0.80170 0.59030 0.36720
N2 N 0.55520 0.32610 0.32790
N3 N 0.52620 0.22910 0.44010
N4 N 0.77260 0.07310 0.13680
O1 O 0.85790 0.50810 0.30010
O2 O 0.80840 0.69190 0.46750
O3 O 0.71860 0.55230 0.31670
O4 O 0.52080 0.34220 0.53960
O5 O 0.50940 0.03470 0.43570
O6 O 0.68950 0.07920 0.19500
O7 O 0.82310 -0.03270 0.19950
O8 O 0.78280 0.17090 0.03510
#END
