
#######################################################################
#
#                 Cambridge Crystallographic Data Centre
#                                CCDC
#
#######################################################################
#
# If this CIF has been generated from an entry in the Cambridge
# Structural Database, then it will include bibliographic, chemical,
# crystal, experimental, refinement or atomic coordinate data resulting
# from the CCDC's data processing and validation procedures.
#
#######################################################################

data_CSD_CIF_OBAJUY
_audit_creation_date 2011-11-29
_audit_creation_method CSD-ConQuest-V1
_database_code_CSD OBAJUY
_database_code_depnum_ccdc_archive 'CCDC 820904'
_chemical_formula_sum 'C14 H15 N1 O3'
_chemical_formula_moiety
;
C14 H15 N1 O3
;
_journal_coden_Cambridge 1336
_journal_volume 13
_journal_year 2011
_journal_page_first 3442
_journal_name_full 'Org.Lett. '
loop_
_publ_author_name
"D.Chaiyaveij"
"L.Cleary"
"A.S.Batsanov"
"T.B.Marder"
"K.J.Shea"
"A.Whiting"
_chemical_name_systematic
;
Benzyl 2-oxa-3-azabicyclo[2.2.2]oct-5-ene-3-carboxylate
;
_cell_volume    604.958
_exptl_crystal_colour 'pale yellow'
_exptl_crystal_density_diffrn 1.346
_exptl_crystal_description 'block'
_diffrn_ambient_temperature 120
#These two values have been output from a single CSD field.
_refine_ls_R_factor_gt 0.0407
_refine_ls_wR_factor_gt 0.0407
_symmetry_cell_setting triclinic
_symmetry_space_group_name_H-M 'P -1'
_symmetry_Int_Tables_number 2
loop_
_symmetry_equiv_pos_site_id
_symmetry_equiv_pos_as_xyz
1 x,y,z
2 -x,-y,-z
_cell_length_a 6.0126(3)
_cell_length_b 10.4102(5)
_cell_length_c 10.6716(5)
_cell_angle_alpha 65.453(6)
_cell_angle_beta 88.454(6)
_cell_angle_gamma 84.712(7)
_cell_formula_units_Z 2
loop_
_atom_type_symbol
_atom_type_radius_bond
C 0.68
H 0.23
N 0.68
O 0.68
loop_
_atom_site_label
_atom_site_type_symbol
_atom_site_fract_x
_atom_site_fract_y
_atom_site_fract_z
O1 O 0.35900(11) 0.41548(6) 0.27060(7)
O2 O 0.67636(12) 0.40042(6) 0.42601(7)
O3 O 0.39639(12) 0.18029(7) 0.32207(7)
N1 N 0.65367(13) 0.27702(7) 0.40043(8)
C1 C 0.74878(15) 0.35659(9) 0.56937(9)
H1 H 0.749(2) 0.4457(14) 0.5776(14)
C2 C 0.45825(14) 0.28335(9) 0.33218(9)
C3 C 0.16081(16) 0.42638(9) 0.18932(9)
H2 H 0.198(2) 0.3756(14) 0.1312(14)
H3 H 0.043(2) 0.3810(14) 0.2545(15)
C4 C 0.71600(14) 0.14294(8) 0.52317(9)
H4 H 0.694(2) 0.0668(14) 0.4960(14)
C5 C 0.57045(16) 0.14313(10) 0.64045(10)
H5 H 0.469(3) 0.0746(19) 0.6823(18)
C6 C 0.58691(17) 0.26113(11) 0.66365(11)
H6 H 0.504(3) 0.2880(19) 0.7270(19)
C7 C 0.97843(15) 0.27584(10) 0.58665(10)
H7 H 1.087(3) 0.337(2) 0.532(2)
H8 H 1.035(3) 0.2510(18) 0.6774(19)
C8 C 0.95917(15) 0.14761(10) 0.55584(10)
H9 H 1.050(3) 0.1465(17) 0.4806(17)
H10 H 1.013(3) 0.0548(19) 0.6318(19)
C9 C 0.09846(15) 0.58096(9) 0.10379(9)
C10 C 0.24477(17) 0.66231(11) 0.00529(11)
H11 H 0.394(3) 0.6176(16) -0.0034(16)
C11 C 0.1839(2) 0.80462(11) -0.07677(12)
H12 H 0.291(3) 0.8581(18) -0.1443(18)
C12 C -0.0237(2) 0.86607(10) -0.06126(10)
H13 H -0.069(3) 0.9667(17) -0.1191(18)
C13 C -0.17101(19) 0.78561(11) 0.03540(11)
H14 H -0.323(3) 0.8310(19) 0.0448(18)
C14 C -0.10944(17) 0.64293(10) 0.11831(10)
H15 H -0.215(2) 0.5853(16) 0.1912(16)
#END
