
#######################################################################
#
#                 Cambridge Crystallographic Data Centre
#                                CCDC
#
#######################################################################
#
# If this CIF has been generated from an entry in the Cambridge
# Structural Database, then it will include bibliographic, chemical,
# crystal, experimental, refinement or atomic coordinate data resulting
# from the CCDC's data processing and validation procedures.
#
#######################################################################

data_CSD_CIF_OBEMIT
_audit_creation_date 2011-11-21
_audit_creation_method CSD-ConQuest-V1
_database_code_CSD OBEMIT
_database_code_depnum_ccdc_archive 'CCDC 782133'
_chemical_formula_sum 'C16 H11 N1 O3'
_chemical_formula_moiety
;
C16 H11 N1 O3
;
_journal_coden_Cambridge 1078
_journal_year 2010
_journal_name_full 'CSD Communication(Private Communication) '
loop_
_publ_author_name
"Z.Akhter"
"M.Bolte"
_chemical_name_systematic
;
1-Naphthyl 4-nitrophenyl ether
;
_cell_volume   2535.717
_exptl_crystal_colour 'light orange'
_exptl_crystal_density_diffrn 1.39
_exptl_special_details
;
contribution from Institut fuer Anorganische 
Chemie,J.-W.-Goethe-Universitaet, Max-von-Laue-Str. 7,D-60438 
Frankfurt/Main,Germany
;
_exptl_crystal_description 'needle'
_diffrn_ambient_temperature 173
#These two values have been output from a single CSD field.
_refine_ls_R_factor_gt 0.0366
_refine_ls_wR_factor_gt 0.0366
_symmetry_cell_setting orthorhombic
_symmetry_space_group_name_H-M 'P b c a'
_symmetry_Int_Tables_number 61
loop_
_symmetry_equiv_pos_site_id
_symmetry_equiv_pos_as_xyz
1 x,y,z
2 1/2-x,-y,1/2+z
3 -x,1/2+y,1/2-z
4 1/2+x,1/2-y,-z
5 -x,-y,-z
6 -1/2+x,y,-1/2-z
7 x,-1/2-y,-1/2+z
8 -1/2-x,-1/2+y,z
_cell_length_a 11.4108(6)
_cell_length_b 9.4004(5)
_cell_length_c 23.6395(12)
_cell_angle_alpha 90
_cell_angle_beta 90
_cell_angle_gamma 90
_cell_formula_units_Z 8
loop_
_atom_type_symbol
_atom_type_radius_bond
C 0.68
H 0.23
N 0.68
O 0.68
loop_
_atom_site_label
_atom_site_type_symbol
_atom_site_fract_x
_atom_site_fract_y
_atom_site_fract_z
N1 N 0.7024(1) 0.47011(13) 0.55834(4)
O1 O 0.26314(8) 0.72395(10) 0.58088(4)
O2 O 0.72445(10) 0.36189(13) 0.58521(5)
O3 O 0.77312(9) 0.52505(12) 0.52583(4)
C1 C 0.36981(11) 0.65597(12) 0.57735(5)
C2 C 0.45164(11) 0.71914(13) 0.54133(5)
H1 H 0.43200 0.80320 0.52110
C3 C 0.56159(11) 0.65848(13) 0.53520(5)
H2 H 0.61820 0.70020 0.51090
C4 C 0.58743(11) 0.53570(13) 0.56524(5)
C5 C 0.50636(11) 0.47111(13) 0.60072(5)
H3 H 0.52600 0.38650 0.62050
C6 C 0.39644(11) 0.53176(13) 0.60681(5)
H4 H 0.33980 0.48910 0.63080
C7 C 0.17613(11) 0.66546(13) 0.61580(5)
C8 C 0.17917(11) 0.69561(13) 0.67457(5)
C9 C 0.27092(13) 0.77621(14) 0.70084(6)
H5 H 0.33270 0.81470 0.67870
C10 C 0.26861(15) 0.79708(16) 0.75803(6)
H6 H 0.32940 0.85060 0.77540
C11 C 0.17829(17) 0.74114(18) 0.79172(6)
H7 H 0.17960 0.75510 0.83150
C12 C 0.08905(15) 0.66715(16) 0.76765(6)
H8 H 0.02770 0.63160 0.79080
C13 C 0.08598(12) 0.64208(13) 0.70860(5)
C14 C -0.00582(13) 0.56341(15) 0.68247(7)
H9 H -0.06870 0.52850 0.70490
C15 C -0.00470(12) 0.53739(15) 0.62548(6)
H10 H -0.06650 0.48470 0.60860
C16 C 0.08804(12) 0.58880(14) 0.59198(6)
H11 H 0.08910 0.56980 0.55250
#END
