
#######################################################################
#
#                 Cambridge Crystallographic Data Centre
#                                CCDC
#
#######################################################################
#
# If this CIF has been generated from an entry in the Cambridge
# Structural Database, then it will include bibliographic, chemical,
# crystal, experimental, refinement or atomic coordinate data resulting
# from the CCDC's data processing and validation procedures.
#
#######################################################################

data_CSD_CIF_OBOHOF
_audit_creation_date 2017-01-07
_audit_creation_method CSD-ConQuest-V1
_database_code_CSD OBOHOF
_database_code_depnum_ccdc_archive 'CCDC 1523249'
_chemical_formula_sum 'C21 H26 N4 O5'
_chemical_formula_moiety
;
C21 H26 N4 O5
;
_journal_coeditor_code "su5340"
_journal_coden_Cambridge 1828
_journal_volume 73
_journal_year 2017
_journal_page_first 96
_journal_name_full 'Acta Crystallogr.,Sect.E:Cryst.Commun. '
loop_
_publ_author_name
"M.S.H.Faizi"
"N.Dege"
"A.Haque"
"V.A.Kalibabchuk"
"M.Cemberci"
_chemical_name_systematic
;
2,6-di-t-butyl-4-(((2,4-dinitrophenyl)hydrazono)methyl)phenol
;
_cell_volume   2240.932
_exptl_crystal_colour 'yellow'
_exptl_crystal_density_diffrn 1.228
_exptl_crystal_description 'block'
_diffrn_ambient_temperature 296
#These two values have been output from a single CSD field.
_refine_ls_R_factor_gt 0.0712
_refine_ls_wR_factor_gt 0.0712
_symmetry_cell_setting orthorhombic
_symmetry_space_group_name_H-M 'P n m a'
_symmetry_Int_Tables_number 62
loop_
_symmetry_equiv_pos_site_id
_symmetry_equiv_pos_as_xyz
1 x,y,z
2 1/2-x,-y,1/2+z
3 1/2+x,1/2-y,1/2-z
4 -x,1/2+y,-z
5 -x,-y,-z
6 -1/2+x,y,-1/2-z
7 -1/2-x,-1/2+y,-1/2+z
8 x,-1/2-y,z
_cell_length_a 18.7651(10)
_cell_length_b 6.9193(4)
_cell_length_c 17.259(1)
_cell_angle_alpha 90
_cell_angle_beta 90
_cell_angle_gamma 90
_cell_formula_units_Z 4
loop_
_atom_type_symbol
_atom_type_radius_bond
C 0.68
H 0.23
N 0.68
O 0.68
loop_
_atom_site_label
_atom_site_type_symbol
_atom_site_fract_x
_atom_site_fract_y
_atom_site_fract_z
O1 O 0.3313(3) 0.25000 0.5101(4)
O2 O 0.2860(3) 0.25000 0.3982(3)
O3 O 0.4249(4) 0.25000 0.1717(3)
O4 O 0.5398(4) 0.25000 0.1781(3)
O5 O 0.7461(2) 0.25000 0.8580(3)
H1 H 0.738(3) 0.25000 0.9045(15)
N1 N 0.5301(3) 0.25000 0.5745(3)
N2 N 0.4674(3) 0.25000 0.5319(3)
H2 H 0.42691 0.25000 0.55518
N3 N 0.3381(3) 0.25000 0.4404(4)
N4 N 0.4801(5) 0.25000 0.2079(4)
C1 C 0.4705(4) 0.25000 0.4537(3)
C2 C 0.4077(3) 0.25000 0.4074(4)
C3 C 0.4119(4) 0.25000 0.3273(4)
H3 H 0.37078 0.25000 0.29727
C4 C 0.4780(4) 0.25000 0.2928(4)
C5 C 0.5396(4) 0.25000 0.3361(4)
H4 H 0.58366 0.25000 0.31149
C6 C 0.5360(3) 0.25000 0.4143(3)
H5 H 0.57808 0.25000 0.44288
C7 C 0.5207(3) 0.25000 0.6478(4)
H6 H 0.47437 0.25000 0.66693
C8 C 0.5798(3) 0.25000 0.7027(3)
C9 C 0.6498(3) 0.25000 0.6776(3)
H7 H 0.65908 0.25000 0.62470
C10 C 0.7066(3) 0.25000 0.7293(3)
C11 C 0.6887(3) 0.25000 0.8089(4)
C12 C 0.6187(3) 0.25000 0.8373(3)
C13 C 0.5656(3) 0.25000 0.7812(3)
H8 H 0.51829 0.25000 0.79728
C14 C 0.7841(3) 0.25000 0.7007(4)
C15 C 0.7881(4) 0.25000 0.6117(4)
H9 H 0.76490 0.13676 0.59211
H10 H 0.83719 0.25000 0.59602
C16 C 0.8233(2) 0.4334(8) 0.7297(3)
H11 H 0.79733 0.54622 0.71382
H12 H 0.87038 0.43720 0.70811
H13 H 0.82633 0.43046 0.78525
C17 C 0.6013(3) 0.25000 0.9242(3)
C18 C 0.6312(3) 0.4323(7) 0.9640(2)
H14 H 0.67915 0.40810 0.98085
H15 H 0.60214 0.46442 1.00786
H16 H 0.63104 0.53794 0.92789
C19 C 0.5207(4) 0.25000 0.9375(4)
H17 H 0.50033 0.36339 0.91429
H18 H 0.51111 0.25000 0.99200
H9G H 0.76490 0.36324 0.59211
C16G C 0.8233(2) 0.0666(8) 0.7297(3)
H11G H 0.79733 -0.04622 0.71382
H12G H 0.87038 0.06280 0.70811
H13G H 0.82633 0.06954 0.78525
C18G C 0.6312(3) 0.0677(7) 0.9640(2)
H14G H 0.67915 0.09190 0.98085
H15G H 0.60214 0.03558 1.00786
H16G H 0.63104 -0.03794 0.92789
H17G H 0.50033 0.13661 0.91429
#END
