
#######################################################################
#
#                 Cambridge Crystallographic Data Centre
#                                CCDC
#
#######################################################################
#
# If this CIF has been generated from an entry in the Cambridge
# Structural Database, then it will include bibliographic, chemical,
# crystal, experimental, refinement or atomic coordinate data resulting
# from the CCDC's data processing and validation procedures.
#
#######################################################################

data_CSD_CIF_OBOZUD
_audit_creation_date 2017-01-09
_audit_creation_method CSD-ConQuest-V1
_database_code_CSD OBOZUD
_database_code_depnum_ccdc_archive 'CCDC 1043991'
_chemical_formula_sum 'C27 H19 N3 O5'
_chemical_formula_moiety
;
C27 H19 N3 O5
;
_journal_coden_Cambridge 1291
_journal_year 2017
_journal_page_first 186
_journal_name_full 'Eur.J.Org.Chem. '
loop_
_publ_author_name
"I.Savych"
"S.A.Ejaz"
"Syed Jawad Ali Shah"
"V.O.Iaroshenko"
"A.Villinger"
"V.Ya Sosnovskikh"
"J.Iqbal"
"A.Abbasi"
"P.Langer"
_chemical_name_systematic
;
(8-benzoyl-5-(2-hydroxyphenyl)-2,3-dihydroimidazo[1,2-a]pyridin-6-yl)(2-nitrop
henyl)methanone
;
_cell_volume   2180.009
_exptl_crystal_colour 'yellow'
_exptl_crystal_density_diffrn 1.418
_exptl_crystal_description 'block'
_diffrn_ambient_temperature 173
#These two values have been output from a single CSD field.
_refine_ls_R_factor_gt 0.0538
_refine_ls_wR_factor_gt 0.0538
_symmetry_cell_setting monoclinic
_symmetry_space_group_name_H-M 'P 21/n'
_symmetry_Int_Tables_number 14
loop_
_symmetry_equiv_pos_site_id
_symmetry_equiv_pos_as_xyz
1 x,y,z
2 1/2-x,1/2+y,1/2-z
3 -x,-y,-z
4 -1/2+x,-1/2-y,-1/2+z
_cell_length_a 12.1392(3)
_cell_length_b 13.7350(3)
_cell_length_c 13.1589(3)
_cell_angle_alpha 90
_cell_angle_beta 96.476(1)
_cell_angle_gamma 90
_cell_formula_units_Z 4
loop_
_atom_type_symbol
_atom_type_radius_bond
C 0.68
H 0.23
N 0.68
O 0.68
loop_
_atom_site_label
_atom_site_type_symbol
_atom_site_fract_x
_atom_site_fract_y
_atom_site_fract_z
N1 N 0.18423(12) 0.41555(10) 0.30197(11)
N2 N 0.28747(13) 0.50804(11) 0.20598(12)
N3 N -0.15280(14) 0.32773(13) 0.54829(13)
O1 O 0.13027(11) 0.54293(10) 0.01331(10)
O2 O -0.19966(11) 0.44513(9) 0.31267(10)
O3 O -0.13304(13) 0.41355(11) 0.53278(11)
O4 O -0.16879(15) 0.29604(14) 0.63275(11)
O5 O 0.13624(12) 0.18953(9) 0.31375(9)
H1 H 0.16190 0.13270 0.31370
C1 C 0.29827(16) 0.38458(16) 0.33731(17)
H2 H 0.30900 0.31440 0.32430
H3 H 0.31740 0.39800 0.41110
C2 C 0.36681(16) 0.44787(14) 0.27181(16)
H4 H 0.41850 0.48970 0.31590
H5 H 0.41050 0.40640 0.22960
C3 C 0.18870(15) 0.48527(12) 0.22555(13)
C4 C 0.08402(15) 0.52380(12) 0.18033(13)
C5 C -0.00970(15) 0.49685(12) 0.22093(13)
H6 H -0.07810 0.52590 0.19500
C6 C -0.00919(14) 0.42620(12) 0.30146(12)
C7 C 0.09122(14) 0.38607(12) 0.34060(12)
C8 C 0.08110(15) 0.57771(13) 0.08094(13)
C9 C 0.01895(15) 0.67076(12) 0.06450(13)
C10 C -0.00061(18) 0.70764(14) -0.03481(14)
H7 H 0.02260 0.67150 -0.09020
C11 C -0.0533(2) 0.79598(15) -0.05340(16)
H8 H -0.06550 0.82080 -0.12110
C12 C -0.08817(17) 0.84778(15) 0.02612(16)
H9 H -0.12400 0.90880 0.01330
C13 C -0.07144(16) 0.81172(14) 0.12520(15)
H10 H -0.09710 0.84730 0.17980
C14 C -0.01720(15) 0.72372(13) 0.14417(14)
H11 H -0.00470 0.69950 0.21210
C15 C -0.11702(15) 0.39503(12) 0.33146(13)
C16 C -0.13149(15) 0.29117(13) 0.36767(13)
C17 C -0.15677(16) 0.25975(14) 0.46245(14)
C18 C -0.18656(17) 0.16392(15) 0.48040(16)
H12 H -0.20370 0.14430 0.54600
C19 C -0.19071(18) 0.09827(15) 0.40117(17)
H13 H -0.21320 0.03310 0.41170
C20 C -0.16263(18) 0.12583(15) 0.30667(17)
H14 H -0.16380 0.07940 0.25300
C21 C -0.13287(16) 0.22079(14) 0.29019(15)
H15 H -0.11290 0.23900 0.22510
C22 C 0.10814(14) 0.31689(12) 0.42791(13)
C23 C 0.10894(15) 0.35131(14) 0.52724(14)
H16 H 0.09560 0.41830 0.53880
C24 C 0.12898(17) 0.28859(16) 0.60919(14)
H17 H 0.13080 0.31250 0.67710
C25 C 0.14643(18) 0.19081(16) 0.59206(15)
H18 H 0.15870 0.14750 0.64850
C26 C 0.14620(17) 0.15545(14) 0.49367(15)
H19 H 0.15690 0.08790 0.48260
C27 C 0.13042(15) 0.21852(13) 0.41114(13)
#END
