
#######################################################################
#
#                 Cambridge Crystallographic Data Centre
#                                CCDC
#
#######################################################################
#
# If this CIF has been generated from an entry in the Cambridge
# Structural Database, then it will include bibliographic, chemical,
# crystal, experimental, refinement or atomic coordinate data resulting
# from the CCDC's data processing and validation procedures.
#
#######################################################################

data_CSD_CIF_OBUJAY
_audit_creation_date 2012-01-25
_audit_creation_method CSD-ConQuest-V1
_database_code_CSD OBUJAY
_database_code_depnum_ccdc_archive 'CCDC 858321'
_chemical_formula_sum 'C15 H14 N4 O5'
_chemical_formula_moiety
;
C15 H14 N4 O5
;
_journal_coeditor_code "IUCr HB6478"
_journal_coden_Cambridge 1370
_journal_volume 67
_journal_year 2011
_journal_page_first o3202
_journal_name_full 'Acta Crystallogr.,Sect.E:Struct.Rep.Online '
loop_
_publ_author_name
"H.-K.Fun"
"B.Nilwanna"
"P.Jansrisewangwong"
"T.Kobkeatthawin"
"S.Chantrapromma"
_chemical_name_systematic
;
(E)-1-(2,4-Dinitrophenyl)-2-(1-(2-methoxyphenyl)ethylidene)hydrazine
;
_chemical_melting_point 462
_cell_volume   3043.184
_exptl_crystal_colour 'orange'
_exptl_crystal_density_diffrn 1.442
_exptl_special_details
;
Melting point range 462-463K
Found to be inactive when tested for antibacterial activity
;
_exptl_crystal_description 'block'
_exptl_crystal_preparation 'ethanol'
_diffrn_ambient_temperature 297
#These two values have been output from a single CSD field.
_refine_ls_R_factor_gt 0.0416
_refine_ls_wR_factor_gt 0.0416
_symmetry_cell_setting monoclinic
_symmetry_space_group_name_H-M 'C 2/c'
_symmetry_Int_Tables_number 15
loop_
_symmetry_equiv_pos_site_id
_symmetry_equiv_pos_as_xyz
1 x,y,z
2 -x,y,1/2-z
3 1/2+x,1/2+y,z
4 1/2-x,1/2+y,1/2-z
5 -x,-y,-z
6 x,-y,-1/2+z
7 -1/2-x,-1/2-y,-z
8 -1/2+x,-1/2-y,-1/2+z
_cell_length_a 33.105(5)
_cell_length_b 7.1288(10)
_cell_length_c 13.4964(19)
_cell_angle_alpha 90
_cell_angle_beta 107.170(2)
_cell_angle_gamma 90
_cell_formula_units_Z 8
loop_
_atom_type_symbol
_atom_type_radius_bond
C 0.68
H 0.23
N 0.68
O 0.68
loop_
_atom_site_label
_atom_site_type_symbol
_atom_site_fract_x
_atom_site_fract_y
_atom_site_fract_z
O1 O 0.07338(3) 0.25310(17) 0.98816(8)
O2 O 0.10350(4) 0.20839(19) 1.15077(8)
O3 O 0.24539(4) -0.0059(3) 1.28175(9)
O4 O 0.28280(4) -0.0482(2) 1.17821(10)
O5 O 0.03857(3) 0.18362(17) 0.48812(7)
N1 N 0.11540(4) 0.21520(17) 0.85348(8)
H1 H 0.0924(6) 0.258(2) 0.8644(13)
N2 N 0.12306(4) 0.22293(16) 0.75869(8)
N3 N 0.10449(4) 0.20867(17) 1.06074(8)
N4 N 0.24971(4) -0.0049(2) 1.19497(10)
C1 C 0.14719(4) 0.16224(18) 0.93741(9)
C2 C 0.14337(4) 0.15613(19) 1.03938(9)
C3 C 0.17682(4) 0.10245(19) 1.12370(9)
H2 H 0.17380 0.10010 1.19000
C4 C 0.21432(4) 0.0530(2) 1.10768(10)
C5 C 0.21945(4) 0.0566(2) 1.00856(10)
H3 H 0.24510 0.02220 0.99910
C6 C 0.18673(4) 0.1105(2) 0.92606(10)
H4 H 0.19050 0.11340 0.86050
C7 C 0.09330(4) 0.28669(19) 0.68182(9)
C8 C 0.10499(4) 0.29961(18) 0.58364(9)
C9 C 0.07723(4) 0.24861(19) 0.48709(9)
C10 C 0.09020(5) 0.2587(2) 0.39813(10)
H5 H 0.07180 0.22410 0.33430
C11 C 0.13047(5) 0.3199(2) 0.40454(11)
H6 H 0.13900 0.32690 0.34490
C12 C 0.15792(5) 0.3706(2) 0.49859(12)
H7 H 0.18500 0.41190 0.50260
C13 C 0.14525(4) 0.3602(2) 0.58725(11)
H8 H 0.16410 0.39450 0.65060
C14 C 0.05141(5) 0.3552(3) 0.68823(11)
H9 H 0.05580 0.44610 0.74290
H10 H 0.03550 0.25150 0.70240
H11 H 0.03610 0.41210 0.62350
C15 C 0.00827(5) 0.1403(3) 0.39214(12)
H12 H -0.01760 0.10090 0.40430
H13 H 0.01890 0.04100 0.35860
H14 H 0.00310 0.24950 0.34860
#END
