
#######################################################################
#
#                 Cambridge Crystallographic Data Centre
#                                CCDC
#
#######################################################################
#
# If this CIF has been generated from an entry in the Cambridge
# Structural Database, then it will include bibliographic, chemical,
# crystal, experimental, refinement or atomic coordinate data resulting
# from the CCDC's data processing and validation procedures.
#
#######################################################################

data_CSD_CIF_OBUWUF01
_audit_creation_date 2013-01-17
_audit_creation_method CSD-ConQuest-V1
_database_code_CSD OBUWUF01
_database_code_depnum_ccdc_archive 'CCDC 880550'
_chemical_formula_sum 'C18 H13 N3 O4'
_chemical_formula_moiety
;
C18 H13 N3 O4
;
_journal_coden_Cambridge 24
_journal_volume 53
_journal_year 2012
_journal_page_first 4819
_journal_name_full 'Tetrahedron Lett. '
loop_
_publ_author_name
"S.Goswami"
"A.K.Das"
"D.Sen"
"K.Aich"
"Hoong-Kun Fun"
"Ching Kheng Quah"
_chemical_name_systematic
;
N'-((2-Hydroxy-1-naphthyl)methylene)-4-nitrobenzohydrazide
;
_cell_volume   1496.182
_exptl_crystal_colour 'yellow'
_exptl_crystal_density_diffrn 1.489
_exptl_crystal_description 'needle'
_diffrn_ambient_temperature 100
#These two values have been output from a single CSD field.
_refine_ls_R_factor_gt 0.039
_refine_ls_wR_factor_gt 0.039
_symmetry_cell_setting monoclinic
_symmetry_space_group_name_H-M 'P 21/c'
_symmetry_Int_Tables_number 14
loop_
_symmetry_equiv_pos_site_id
_symmetry_equiv_pos_as_xyz
1 x,y,z
2 -x,1/2+y,1/2-z
3 -x,-y,-z
4 x,-1/2-y,-1/2+z
_cell_length_a 10.9273(8)
_cell_length_b 15.4072(11)
_cell_length_c 8.8906(6)
_cell_angle_alpha 90
_cell_angle_beta 91.664(2)
_cell_angle_gamma 90
_cell_formula_units_Z 4
loop_
_atom_type_symbol
_atom_type_radius_bond
C 0.68
H 0.23
N 0.68
O 0.68
loop_
_atom_site_label
_atom_site_type_symbol
_atom_site_fract_x
_atom_site_fract_y
_atom_site_fract_z
O1 O 0.55826(8) 0.11978(6) 0.77915(9)
O2 O 0.75823(8) 0.33088(5) 0.69145(9)
O3 O 0.94354(9) 0.67545(6) 0.26489(12)
O4 O 1.02693(8) 0.58697(6) 0.10847(9)
N1 N 0.70062(9) 0.17743(6) 0.57226(10)
N2 N 0.75147(9) 0.24259(6) 0.48714(11)
N3 N 0.96587(9) 0.60213(6) 0.21933(11)
C1 C 0.57588(10) 0.04090(7) 0.71733(12)
C2 C 0.5153(1) -0.02941(8) 0.78456(13)
H1 H 0.46640 -0.01970 0.86680
C3 C 0.52794(11) -0.11163(8) 0.72973(13)
H2 H 0.48640 -0.15710 0.77440
C4 C 0.60359(10) -0.12904(7) 0.60551(12)
C5 C 0.61841(11) -0.21452(7) 0.55014(14)
H3 H 0.57670 -0.26020 0.59410
C6 C 0.69345(11) -0.23069(8) 0.43260(14)
H4 H 0.70220 -0.28700 0.39680
C7 C 0.75725(11) -0.16218(8) 0.36620(14)
H5 H 0.80910 -0.17360 0.28750
C8 C 0.74369(11) -0.07844(7) 0.41652(13)
H6 H 0.78660 -0.03390 0.37120
C9 C 0.66523(10) -0.05886(7) 0.53646(12)
C10 C 0.64772(9) 0.02788(7) 0.59156(11)
C11 C 0.70171(10) 0.10069(7) 0.51425(12)
H7 H 0.73750 0.09200 0.42180
C12 C 0.77675(10) 0.31852(7) 0.55641(12)
C13 C 0.82766(10) 0.38963(7) 0.46195(11)
C14 C 0.89532(10) 0.37473(7) 0.33351(12)
H8 H 0.91020 0.31820 0.30210
C15 C 0.94041(10) 0.44445(7) 0.25269(12)
H9 H 0.98500 0.43530 0.16660
C16 C 0.91758(10) 0.52786(7) 0.30322(12)
C17 C 0.85214(10) 0.54463(7) 0.43165(12)
H10 H 0.83880 0.60120 0.46370
C18 C 0.80728(10) 0.47450(7) 0.51067(12)
H11 H 0.76310 0.48400 0.59700
H12 H 0.7615(14) 0.2332(10) 0.3948(18)
H13 H 0.602(2) 0.1566(13) 0.730(2)
#END
