
#######################################################################
#
#                 Cambridge Crystallographic Data Centre
#                                CCDC
#
#######################################################################
#
# If this CIF has been generated from an entry in the Cambridge
# Structural Database, then it will include bibliographic, chemical,
# crystal, experimental, refinement or atomic coordinate data resulting
# from the CCDC's data processing and validation procedures.
#
#######################################################################

data_CSD_CIF_OBUXIU
_audit_creation_date 2012-01-25
_audit_creation_method CSD-ConQuest-V1
_database_code_CSD OBUXIU
_database_code_depnum_ccdc_archive 'CCDC 858382'
_chemical_formula_sum 'C10 H11 N3 O3'
_chemical_formula_moiety
;
C10 H11 N3 O3
;
_journal_coeditor_code "IUCr YK2025"
_journal_coden_Cambridge 1370
_journal_volume 67
_journal_year 2011
_journal_page_first o3282
_journal_name_full 'Acta Crystallogr.,Sect.E:Struct.Rep.Online '
loop_
_publ_author_name
"M.O.Plutenko"
"R.D.Lampeka"
"Y.S.Moroz"
"M.Haukka"
"S.V.Pavlova"
_chemical_name_systematic
;
N'-(2-Hydroxybenzylidene)-2-(hydroxyimino)propanohydrazide
;
_cell_volume    997.790
_exptl_crystal_colour 'yellow'
_exptl_crystal_density_diffrn 1.473
_exptl_crystal_description 'block'
_exptl_crystal_preparation 'methanol'
_diffrn_ambient_temperature 100
#These two values have been output from a single CSD field.
_refine_ls_R_factor_gt 0.0287
_refine_ls_wR_factor_gt 0.0287
_symmetry_cell_setting monoclinic
_symmetry_space_group_name_H-M 'C c'
_symmetry_Int_Tables_number 9
loop_
_symmetry_equiv_pos_site_id
_symmetry_equiv_pos_as_xyz
1 x,y,z
2 x,-y,1/2+z
3 1/2+x,1/2+y,z
4 1/2+x,1/2-y,1/2+z
_cell_length_a 11.2296(4)
_cell_length_b 8.1905(4)
_cell_length_c 11.1000(5)
_cell_angle_alpha 90
_cell_angle_beta 102.223(2)
_cell_angle_gamma 90
_cell_formula_units_Z 4
loop_
_atom_type_symbol
_atom_type_radius_bond
C 0.68
H 0.23
N 0.68
O 0.68
loop_
_atom_site_label
_atom_site_type_symbol
_atom_site_fract_x
_atom_site_fract_y
_atom_site_fract_z
O1 O 0.43931(7) -0.17009(9) 0.11307(6)
H1 H 0.41540 -0.08630 0.14460
O2 O 0.34012(7) 0.24663(9) 0.12079(6)
O3 O 0.27014(7) 0.63005(9) 0.39602(7)
H2 H 0.29750 0.66080 0.46880
N1 N 0.43375(7) 0.03499(9) 0.28832(7)
N2 N 0.39288(7) 0.18082(9) 0.32287(6)
H3 H 0.39830 0.20710 0.40070
N3 N 0.32114(7) 0.48105(9) 0.37696(7)
C1 C 0.50374(8) -0.26684(11) 0.20397(8)
C2 C 0.54689(9) -0.41516(12) 0.16937(8)
H4 H 0.53020 -0.44650 0.08510
C3 C 0.61440(9) -0.51730(12) 0.25817(9)
H5 H 0.64500 -0.61730 0.23370
C4 C 0.63779(9) -0.47511(11) 0.38250(9)
H6 H 0.68400 -0.54550 0.44270
C5 C 0.59273(8) -0.32933(11) 0.41698(8)
H7 H 0.60730 -0.30110 0.50190
C6 C 0.52600(8) -0.22227(10) 0.32956(7)
C7 C 0.48236(8) -0.06904(11) 0.37043(7)
H8 H 0.48970 -0.04660 0.45570
C8 C 0.34332(8) 0.28258(10) 0.22951(7)
C9 C 0.29200(7) 0.43934(10) 0.26290(7)
C10 C 0.21336(9) 0.53605(12) 0.16288(8)
H9 H 0.14760 0.58770 0.19480
H10 H 0.17840 0.46350 0.09430
H11 H 0.26250 0.62040 0.13390
#END
