
#######################################################################
#
#                 Cambridge Crystallographic Data Centre
#                                CCDC
#
#######################################################################
#
# If this CIF has been generated from an entry in the Cambridge
# Structural Database, then it will include bibliographic, chemical,
# crystal, experimental, refinement or atomic coordinate data resulting
# from the CCDC's data processing and validation procedures.
#
#######################################################################

data_CSD_CIF_OCAKEK
_audit_creation_date 2012-01-25
_audit_creation_method CSD-ConQuest-V1
_database_code_CSD OCAKEK
_database_code_depnum_ccdc_archive 'CCDC 858431'
_chemical_formula_sum 'C15 H21 N2 O4'
_chemical_formula_moiety
;
C15 H21 N2 O4
;
_journal_coeditor_code "IUCr IS5006"
_journal_coden_Cambridge 1370
_journal_volume 67
_journal_year 2011
_journal_page_first o3348
_journal_name_full 'Acta Crystallogr.,Sect.E:Struct.Rep.Online '
loop_
_publ_author_name
"L.-L.Jing"
"H.-P.Ma"
"X.-F.Fan"
"L.He"
"Z.-P.Jia"
_chemical_name_systematic
;
2-[4-(2-Hydroxyethoxy)phenyl]-4,4,5,5-tetramethyl-2-imidazoline-1-oxyl 3-oxide
;
_cell_volume   2978.620
_exptl_crystal_colour 'blue'
_exptl_crystal_density_diffrn 1.308
_exptl_crystal_description 'block'
_exptl_crystal_preparation 'hexane/dichloromethane'
_diffrn_ambient_temperature 296
#These two values have been output from a single CSD field.
_refine_ls_R_factor_gt 0.0472
_refine_ls_wR_factor_gt 0.0472
_symmetry_cell_setting orthorhombic
_symmetry_space_group_name_H-M 'P b c a'
_symmetry_Int_Tables_number 61
loop_
_symmetry_equiv_pos_site_id
_symmetry_equiv_pos_as_xyz
1 x,y,z
2 1/2-x,-y,1/2+z
3 -x,1/2+y,1/2-z
4 1/2+x,1/2-y,-z
5 -x,-y,-z
6 -1/2+x,y,-1/2-z
7 x,-1/2-y,-1/2+z
8 -1/2-x,-1/2+y,z
_cell_length_a 8.869(3)
_cell_length_b 16.050(5)
_cell_length_c 20.925(6)
_cell_angle_alpha 90
_cell_angle_beta 90
_cell_angle_gamma 90
_cell_formula_units_Z 8
loop_
_atom_type_symbol
_atom_type_radius_bond
C 0.68
H 0.23
N 0.68
O 0.68
loop_
_atom_site_label
_atom_site_type_symbol
_atom_site_fract_x
_atom_site_fract_y
_atom_site_fract_z
C1 C 0.8584(2) 1.12763(14) 0.33524(10)
C2 C 0.8507(3) 1.05283(14) 0.38244(10)
C3 C 0.8131(2) 1.00297(13) 0.27718(9)
C4 C 0.7901(2) 0.94682(13) 0.22347(9)
C5 C 0.6890(3) 0.88085(13) 0.22601(10)
H1 H 0.63430 0.87190 0.26330
C6 C 0.6678(3) 0.82848(13) 0.17472(10)
H2 H 0.59860 0.78510 0.17730
C7 C 0.7503(3) 0.84085(13) 0.11912(9)
C8 C 0.8535(3) 0.90560(15) 0.11621(10)
H3 H 0.90980 0.91360 0.07920
C9 C 0.8733(3) 0.95792(14) 0.16734(10)
H4 H 0.94270 1.00120 0.16470
C10 C 0.6427(3) 0.72306(15) 0.06578(10)
H5 H 0.54080 0.73950 0.07700
H6 H 0.67780 0.68290 0.09710
C11 C 0.6449(3) 0.68517(19) 0.00040(12)
H7 H 0.57800 0.63740 -0.00070
H8 H 0.60870 0.72550 -0.03050
C12 C 0.7205(3) 1.18423(16) 0.33598(13)
H9 H 0.72750 1.22360 0.30160
H10 H 0.71610 1.21350 0.37590
H11 H 0.63110 1.15120 0.33090
C13 C 1.0013(3) 1.17980(17) 0.33876(13)
H12 H 1.08710 1.14520 0.33000
H13 H 1.01060 1.20340 0.38070
H14 H 0.99620 1.22380 0.30770
C14 C 0.7400(4) 1.06293(18) 0.43721(12)
H15 H 0.64130 1.07410 0.42040
H16 H 0.77110 1.10850 0.46380
H17 H 0.73750 1.01260 0.46200
C15 C 1.0041(3) 1.02474(19) 0.40759(13)
H18 H 0.99290 0.97330 0.43050
H19 H 1.04400 1.06650 0.43570
H20 H 1.07200 1.01670 0.37240
N1 N 0.8557(2) 1.08321(11) 0.27221(8)
N2 N 0.7976(2) 0.98429(11) 0.33930(8)
O1 O 0.8756(2) 1.12342(10) 0.21999(7)
O2 O 0.7595(2) 0.91285(10) 0.36180(7)
O3 O 0.73915(18) 0.79412(10) 0.06528(7)
O4 O 0.7906(3) 0.66024(15) -0.01595(10)
H21 H 0.78900 0.63690 -0.05080
#END
