
#######################################################################
#
#                 Cambridge Crystallographic Data Centre
#                                CCDC
#
#######################################################################
#
# If this CIF has been generated from an entry in the Cambridge
# Structural Database, then it will include bibliographic, chemical,
# crystal, experimental, refinement or atomic coordinate data resulting
# from the CCDC's data processing and validation procedures.
#
#######################################################################

data_CSD_CIF_OCATEU
_audit_creation_date 2017-01-09
_audit_creation_method CSD-ConQuest-V1
_database_code_CSD OCATEU
_database_code_depnum_ccdc_archive 'CCDC 1526382'
_chemical_formula_sum 'C12 H19 N1 O7'
_chemical_formula_moiety
;
C12 H19 N1 O7
;
_journal_coden_Cambridge 1078
_journal_year 2017
_journal_name_full 'CSD Communication(Private Communication) '
loop_
_publ_author_name
"M.A.Gonzalez"
"A.M.Estevez"
"J.C.Estevez"
"R.J.Estevez"
_chemical_name_systematic
;
methyl 
7-hydroxy-2,2-dimethyl-4-(nitromethyl)hexahydro-1,3-benzodioxole-5-carboxylate

;
_cell_volume   1351.797
_exptl_crystal_colour 'colorless'
_exptl_crystal_density_diffrn 1.421
_exptl_crystal_description 'prism'
_diffrn_ambient_temperature 100
#These two values have been output from a single CSD field.
_refine_ls_R_factor_gt 0.0316
_refine_ls_wR_factor_gt 0.0316
_symmetry_cell_setting orthorhombic
_symmetry_space_group_name_H-M 'P 21 21 21'
_symmetry_Int_Tables_number 19
loop_
_symmetry_equiv_pos_site_id
_symmetry_equiv_pos_as_xyz
1 x,y,z
2 1/2-x,-y,1/2+z
3 1/2+x,1/2-y,-z
4 -x,1/2+y,1/2-z
_cell_length_a 8.6117(4)
_cell_length_b 8.6517(4)
_cell_length_c 18.1435(9)
_cell_angle_alpha 90
_cell_angle_beta 90
_cell_angle_gamma 90
_cell_formula_units_Z 4
loop_
_atom_type_symbol
_atom_type_radius_bond
C 0.68
H 0.23
N 0.68
O 0.68
loop_
_atom_site_label
_atom_site_type_symbol
_atom_site_fract_x
_atom_site_fract_y
_atom_site_fract_z
C1 C 0.4139(2) 1.1091(2) 0.66915(11)
H1 H 0.38150 1.08920 0.72120
C2 C 0.2843(2) 1.0657(2) 0.61653(11)
H2 H 0.18290 1.10220 0.63700
C3 C 0.2715(2) 0.8958(2) 0.59631(12)
H3 H 0.19950 0.88310 0.55350
C4 C 0.4290(2) 0.8272(2) 0.57775(11)
H4 H 0.46860 0.87500 0.53190
H5 H 0.41770 0.71480 0.56900
C5 C 0.5468(2) 0.8540(2) 0.64046(11)
H6 H 0.50670 0.80580 0.68680
C6 C 0.5702(2) 1.0280(2) 0.65280(11)
H7 H 0.61610 1.07400 0.60720
O1 O 0.42822(15) 1.27223(16) 0.65633(7)
O2 O 0.32420(15) 1.15714(16) 0.55368(7)
C7 C 0.3676(2) 1.3045(2) 0.58265(11)
C8 C 0.4931(2) 1.3718(3) 0.53498(12)
H8 H 0.57890 1.29790 0.53090
H9 H 0.53110 1.46800 0.55710
H10 H 0.45120 1.39340 0.48580
C9 C 0.2267(2) 1.4089(2) 0.59020(12)
H11 H 0.18530 1.43260 0.54120
H12 H 0.25700 1.50500 0.61490
H13 H 0.14690 1.35630 0.61940
C10 C 0.6963(2) 0.7743(2) 0.61781(11)
O3 O 0.78789(16) 0.82508(18) 0.57372(8)
O4 O 0.71069(15) 0.63658(16) 0.65071(8)
C11 C 0.8469(2) 0.5474(3) 0.63141(12)
H14 H 0.83740 0.51070 0.58050
H15 H 0.85600 0.45870 0.66470
H16 H 0.93950 0.61250 0.63590
O5 O 0.21176(17) 0.81409(18) 0.65885(9)
C12 C 0.6758(2) 1.0654(3) 0.71791(11)
H17 H 0.65810 1.17370 0.73330
H18 H 0.64840 0.99760 0.75990
N1 N 0.8438(2) 1.0441(2) 0.69979(10)
O6 O 0.91031(16) 0.92654(19) 0.72218(9)
O7 O 0.90605(17) 1.1434(2) 0.66211(10)
H19 H 0.132(3) 0.856(3) 0.6711(14)
#END
