
#######################################################################
#
#                 Cambridge Crystallographic Data Centre
#                                CCDC
#
#######################################################################
#
# If this CIF has been generated from an entry in the Cambridge
# Structural Database, then it will include bibliographic, chemical,
# crystal, experimental, refinement or atomic coordinate data resulting
# from the CCDC's data processing and validation procedures.
#
#######################################################################

data_CSD_CIF_OCAYEW
_audit_creation_date 2001-09-13
_audit_creation_method CSD-ConQuest-V1
_database_code_CSD OCAYEW
_database_code_depnum_ccdc_archive 'CCDC 169959'
_chemical_formula_sum 'C21 H19 N3 O5'
_chemical_formula_moiety
;
C21 H19 N3 O5
;
_journal_coeditor_code "IUCr DA1181"
_journal_coden_Cambridge 591
_journal_volume 57
_journal_year 2001
_journal_page_first 868
_journal_name_full 'Acta Crystallogr.,Sect.C:Cryst.Struct.Commun. '
loop_
_publ_author_name
"F.Jimenez-Cruz"
"R.Cetina-Rosado"
"S.Hernandez-Ortega"
"R.A.Toscano"
"H.Rios-Olivares"
_chemical_name_systematic
;
2,9-bis(3-Nitrophenyl)-1-azaadamantan-4-one
;
_chemical_name_common
;
2,9-bis(3-Nitrophenyl)-1-azatricyclo(3.3.1.1$3,7!)decan-4-one
;
_chemical_melting_point 498
_cell_volume   3640.787
_exptl_crystal_colour 'yellow'
_exptl_crystal_density_diffrn 1.435
_exptl_special_details
;
Melting point range 498-500K

;
_exptl_crystal_description 'block'
_exptl_crystal_preparation 'chloroform/hexane'
_diffrn_ambient_temperature 293
#These two values have been output from a single CSD field.
_refine_ls_R_factor_gt 0.058
_refine_ls_wR_factor_gt 0.058
_symmetry_cell_setting orthorhombic
_symmetry_space_group_name_H-M 'P b c a'
_symmetry_Int_Tables_number 61
loop_
_symmetry_equiv_pos_site_id
_symmetry_equiv_pos_as_xyz
1 x,y,z
2 1/2+x,y,1/2-z
3 x,1/2-y,1/2+z
4 1/2-x,1/2+y,z
5 -x,-y,-z
6 -1/2-x,-y,-1/2+z
7 -x,-1/2+y,-1/2-z
8 -1/2+x,-1/2-y,-z
_cell_length_a 13.318(1)
_cell_length_b 15.217(2)
_cell_length_c 17.965(1)
_cell_angle_alpha 90
_cell_angle_beta 90
_cell_angle_gamma 90
_cell_formula_units_Z 8
loop_
_atom_type_symbol
_atom_type_radius_bond
C 0.68
H 0.23
N 0.68
O 0.68
loop_
_atom_site_label
_atom_site_type_symbol
_atom_site_fract_x
_atom_site_fract_y
_atom_site_fract_z
O1 O 0.06435(16) 0.01712(16) 0.29009(15)
N1 N 0.26213(17) 0.18754(15) 0.37493(15)
C1 C 0.2796(2) 0.0916(2) 0.37123(17)
H1 H 0.24060 0.06570 0.41040
C2 C 0.2401(2) 0.0531(2) 0.29678(18)
H2 H 0.25120 -0.00920 0.29460
C3 C 0.1286(2) 0.0734(2) 0.29550(18)
C4 C 0.1069(2) 0.1705(2) 0.29975(18)
H3 H 0.03580 0.18050 0.29900
C5 C 0.1575(3) 0.2161(2) 0.2342(2)
H4 H 0.14490 0.27820 0.23650
H5 H 0.13050 0.19430 0.18820
C6 C 0.2714(3) 0.1985(2) 0.2370(2)
H6 H 0.30450 0.22870 0.19700
C7 C 0.3107(2) 0.2319(2) 0.31167(19)
H7 H 0.38160 0.22100 0.31440
H8 H 0.30030 0.29420 0.31550
C8 C 0.1527(2) 0.2056(2) 0.37316(19)
H9 H 0.14560 0.26840 0.37230
C9 C 0.2904(2) 0.0993(2) 0.23125(18)
H10 H 0.26390 0.07700 0.18530
H11 H 0.36130 0.08820 0.23220
C10 C 0.3900(2) 0.0710(2) 0.38790(17)
C11 C 0.4348(2) -0.0043(2) 0.36070(18)
H12 H 0.39860 -0.04430 0.32930
C12 C 0.5348(2) -0.0209(2) 0.38024(19)
C13 C 0.5897(2) 0.0326(2) 0.4250(2)
H13 H 0.65840 0.01880 0.43630
C14 C 0.5444(2) 0.1065(2) 0.4531(2)
H14 H 0.58140 0.14500 0.48540
C15 C 0.4449(2) 0.1258(2) 0.43474(19)
H15 H 0.41430 0.17830 0.45380
N2 N 0.5801(2) -0.1012(2) 0.3506(2)
O2 O 0.52849(19) -0.15533(17) 0.3193(2)
O3 O 0.6713(2) -0.1085(2) 0.3576(3)
C16 C 0.1001(2) 0.1736(2) 0.44326(18)
C17 C -0.0040(2) 0.1635(2) 0.4443(2)
H16 H -0.04260 0.17500 0.40020
C18 C -0.0497(2) 0.1349(2) 0.50858(19)
C19 C -0.0004(3) 0.1170(2) 0.5736(2)
H17 H -0.03530 0.09670 0.61710
C20 C 0.1035(3) 0.1288(3) 0.5729(2)
H18 H 0.14200 0.11720 0.61700
C21 C 0.1515(2) 0.1574(3) 0.50934(19)
H19 H 0.22280 0.16670 0.51070
N3 N -0.1605(2) 0.1260(2) 0.50771(19)
O4 O -0.2022(2) 0.0940(2) 0.56047(18)
O5 O -0.2055(2) 0.1558(3) 0.45438(19)
#END
