
#######################################################################
#
#                 Cambridge Crystallographic Data Centre
#                                CCDC
#
#######################################################################
#
# If this CIF has been generated from an entry in the Cambridge
# Structural Database, then it will include bibliographic, chemical,
# crystal, experimental, refinement or atomic coordinate data resulting
# from the CCDC's data processing and validation procedures.
#
#######################################################################

data_CSD_CIF_OCEHEL
_audit_creation_date 2012-01-16
_audit_creation_method CSD-ConQuest-V1
_database_code_CSD OCEHEL
_database_code_depnum_ccdc_archive 'CCDC 858526'
_chemical_formula_sum 'C11 H5 N3 O4'
_chemical_formula_moiety
;
C11 H5 N3 O4
;
_journal_coeditor_code "IUCr RK2314"
_journal_coden_Cambridge 1370
_journal_volume 67
_journal_year 2011
_journal_page_first o3469
_journal_name_full 'Acta Crystallogr.,Sect.E:Struct.Rep.Online '
loop_
_publ_author_name
"S.Karthikeyan"
"K.Sethusankar"
"A.Devaraj"
"M.Bakthadoss"
_chemical_name_systematic
;
2-[(6-Nitro-1,3-benzodioxol-5-yl)methylidene]malononitrile
;
_chemical_name_common
;
((6-Nitro-1,3-benzodioxol-5-yl)methylene)malononitrile
;
_cell_volume    527.299
_exptl_crystal_colour 'yellow'
_exptl_crystal_density_diffrn 1.532
_exptl_crystal_description 'block'
_diffrn_ambient_temperature 295
#These two values have been output from a single CSD field.
_refine_ls_R_factor_gt 0.0476
_refine_ls_wR_factor_gt 0.0476
_symmetry_cell_setting triclinic
_symmetry_space_group_name_H-M 'P -1'
_symmetry_Int_Tables_number 2
loop_
_symmetry_equiv_pos_site_id
_symmetry_equiv_pos_as_xyz
1 x,y,z
2 -x,-y,-z
_cell_length_a 7.0953(2)
_cell_length_b 8.8847(3)
_cell_length_c 9.2212(3)
_cell_angle_alpha 84.470(2)
_cell_angle_beta 67.634(2)
_cell_angle_gamma 78.874(2)
_cell_formula_units_Z 2
loop_
_atom_type_symbol
_atom_type_radius_bond
C 0.68
H 0.23
N 0.68
O 0.68
loop_
_atom_site_label
_atom_site_type_symbol
_atom_site_fract_x
_atom_site_fract_y
_atom_site_fract_z
C1 C 0.1956(2) 0.45131(18) 0.79855(15)
H1 H 0.25530 0.34330 0.79690
H2 H 0.21820 0.49950 0.87920
C2 C 0.13009(16) 0.60560(13) 0.61230(12)
C3 C 0.13982(17) 0.70725(13) 0.48999(12)
H3 H 0.26630 0.72860 0.41900
C4 C -0.04642(16) 0.77900(12) 0.47404(12)
C5 C -0.23081(16) 0.74097(12) 0.58573(13)
C6 C -0.24088(17) 0.63890(13) 0.71134(13)
H4 H -0.36600 0.61710 0.78420
C7 C -0.05588(18) 0.57270(13) 0.72113(12)
C8 C -0.04545(17) 0.90159(12) 0.35650(13)
H5 H -0.16120 0.97860 0.38180
C9 C 0.10476(19) 0.91503(13) 0.21576(14)
C10 C 0.0900(2) 1.05218(15) 0.12130(16)
C11 C 0.2814(2) 0.79907(17) 0.14691(15)
N1 N -0.42888(15) 0.80802(11) 0.57275(13)
N2 N 0.0804(3) 1.16093(16) 0.04706(18)
N3 N 0.4220(2) 0.7081(2) 0.09043(17)
O1 O -0.02108(14) 0.46924(11) 0.82958(10)
O2 O 0.28869(13) 0.52328(11) 0.6486(1)
O3 O -0.43369(15) 0.84163(11) 0.44228(12)
O4 O -0.58153(15) 0.82535(14) 0.69255(14)
#END
