
#######################################################################
#
#                 Cambridge Crystallographic Data Centre
#                                CCDC
#
#######################################################################
#
# If this CIF has been generated from an entry in the Cambridge
# Structural Database, then it will include bibliographic, chemical,
# crystal, experimental, refinement or atomic coordinate data resulting
# from the CCDC's data processing and validation procedures.
#
#######################################################################

data_CSD_CIF_OCHTET12
_audit_creation_date 1971-12-31
_audit_creation_method CSD-ConQuest-V1
_database_code_CSD OCHTET12
_chemical_formula_sum 'C4 H8 N8 O8'
_chemical_formula_moiety
;
C4 H8 N8 O8
;
_journal_coeditor_code "IUCr A07540"
_journal_coden_Cambridge 107
_journal_volume 26
_journal_year 1970
_journal_page_first 1235
_journal_name_full 'Acta Crystallogr.,Sect.B:Struct.Crystallogr.Cryst.Chem. '
loop_
_publ_author_name
"C.S.Choi"
"H.P.Boutin"
_chemical_name_systematic
;
1,3,5,7-Tetranitro-1,3,5,7-tetra-azacyclo-octane
;
_cell_volume    519.387
_exptl_special_details
;
beta polymorph

;
_diffrn_ambient_temperature ?
_diffrn_radiation_probe 'neutron radiation'
_diffrn_special_details
;
The study was carried out at room temperature,in the range 283-303K

;
#These two values have been output from a single CSD field.
_refine_ls_R_factor_gt 0.059
_refine_ls_wR_factor_gt 0.059
_symmetry_cell_setting monoclinic
_symmetry_space_group_name_H-M 'P 21/c'
_symmetry_Int_Tables_number 14
loop_
_symmetry_equiv_pos_site_id
_symmetry_equiv_pos_as_xyz
1 x,y,z
2 -x,1/2+y,1/2-z
3 -x,-y,-z
4 x,-1/2-y,-1/2+z
_cell_length_a 6.54
_cell_length_b 11.05
_cell_length_c 8.7
_cell_angle_alpha 90
_cell_angle_beta 124.3
_cell_angle_gamma 90
_cell_formula_units_Z 2
loop_
_atom_type_symbol
_atom_type_radius_bond
C 0.68
H 0.20
N 0.68
O 0.68
loop_
_atom_site_label
_atom_site_type_symbol
_atom_site_fract_x
_atom_site_fract_y
_atom_site_fract_z
C1 C -0.19670 0.06600 -0.21580
C2 C -0.24480 -0.11470 -0.05470
H1 H -0.08790 0.02180 -0.26230
H2 H -0.31460 0.13260 -0.32230
H3 H -0.33220 -0.20310 -0.11300
H4 H -0.27930 -0.08670 0.04940
N1 N -0.59280 -0.00210 -0.29200
N2 N -0.34820 -0.02490 -0.20580
N3 N -0.01880 0.12280 -0.03770
N4 N -0.10920 0.20230 0.03160
O1 O -0.68850 0.07350 -0.41820
O2 O -0.69910 -0.05980 -0.23720
O3 O 0.04220 0.24600 0.18180
O4 O -0.32900 0.22060 -0.06090
N3B N 0.01880 -0.12280 0.03770
C2B C 0.24480 0.11470 0.05470
C1B C 0.19670 -0.06600 0.21580
N4B N 0.10920 -0.20230 -0.03160
H3B H 0.33220 0.20310 0.11300
H4B H 0.27930 0.08670 -0.04940
N2B N 0.34820 0.02490 0.20580
H1B H 0.08790 -0.02180 0.26230
H2B H 0.31460 -0.13260 0.32230
O3B O -0.04220 -0.24600 -0.18180
O4B O 0.32900 -0.22060 0.06090
N1B N 0.59280 0.00210 0.29200
O1B O 0.68850 -0.07350 0.41820
O2B O 0.69910 0.05980 0.23720
#END
