
#######################################################################
#
#                 Cambridge Crystallographic Data Centre
#                                CCDC
#
#######################################################################
#
# If this CIF has been generated from an entry in the Cambridge
# Structural Database, then it will include bibliographic, chemical,
# crystal, experimental, refinement or atomic coordinate data resulting
# from the CCDC's data processing and validation procedures.
#
#######################################################################

data_CSD_CIF_OCHTET20
_audit_creation_date 2011-08-15
_audit_creation_method CSD-ConQuest-V1
_database_code_CSD OCHTET20
_database_code_depnum_ccdc_archive 'CCDC 792933'
_chemical_formula_sum 'C4 H8 N8 O8'
_chemical_formula_moiety
;
C4 H8 N8 O8
;
_journal_coden_Cambridge 1003
_journal_volume 41
_journal_year 2011
_journal_page_first 966
_journal_name_full 'J.Chem.Cryst. '
loop_
_publ_author_name
"J.R.Deschamps"
"M.Frisch"
"D.Parrish"
_chemical_name_systematic
;
1,3,5,7-Tetranitro-1,3,5,7-tetra-azacyclo-octane
;
_cell_volume    508.914
_exptl_crystal_colour 'colorless'
_exptl_crystal_density_diffrn 1.933
_exptl_special_details
;
beta-phase
explosive

;
_exptl_crystal_description 'prism'
_diffrn_ambient_temperature 173
#These two values have been output from a single CSD field.
_refine_ls_R_factor_gt 0.0281
_refine_ls_wR_factor_gt 0.0281
_symmetry_cell_setting monoclinic
_symmetry_space_group_name_H-M 'P 21/n'
_symmetry_Int_Tables_number 14
loop_
_symmetry_equiv_pos_site_id
_symmetry_equiv_pos_as_xyz
1 x,y,z
2 1/2-x,1/2+y,1/2-z
3 -x,-y,-z
4 -1/2+x,-1/2-y,-1/2+z
_cell_length_a 6.5288(8)
_cell_length_b 10.8862(13)
_cell_length_c 7.3304(9)
_cell_angle_alpha 90
_cell_angle_beta 102.365(2)
_cell_angle_gamma 90
_cell_formula_units_Z 2
loop_
_atom_type_symbol
_atom_type_radius_bond
C 0.68
H 0.23
N 0.68
O 0.68
loop_
_atom_site_label
_atom_site_type_symbol
_atom_site_fract_x
_atom_site_fract_y
_atom_site_fract_z
N1 N 0.98148(12) 0.62332(7) 0.45977(10)
O1 O 1.27271(12) 0.72047(7) 0.43493(11)
N2 N 1.14078(13) 0.70374(7) 0.52956(12)
N3 N 0.85699(13) 0.52641(7) 0.70686(11)
O2 O 0.72562(14) 0.42907(7) 0.92363(11)
N4 N 0.69607(13) 0.50244(8) 0.79355(11)
O3 O 1.14178(13) 0.74870(7) 0.68266(11)
C1 C 0.80831(14) 0.61634(8) 0.55222(13)
H1 H 0.67990 0.59080 0.46200
H2 H 0.78260 0.69810 0.60200
O4 O 0.53331(12) 0.56142(7) 0.73705(11)
C2 C 0.97814(15) 0.56515(8) 0.28013(12)
H3 H 0.8419(8) 0.5267(9) 0.2400(13)
H4 H 0.9961(16) 0.6241(9) 0.1855(11)
N1B N 1.01852(12) 0.37668(7) 0.54023(10)
O1B O 0.72729(12) 0.27953(7) 0.56507(11)
N2B N 0.85922(13) 0.29626(7) 0.47044(12)
N3B N 1.14301(13) 0.47359(7) 0.29314(11)
O2B O 1.27438(14) 0.57093(7) 0.07637(11)
N4B N 1.30393(13) 0.49756(8) 0.20645(11)
O3B O 0.85822(13) 0.25130(7) 0.31734(11)
C1B C 1.19169(14) 0.38366(8) 0.44778(13)
H1B H 1.32010 0.40920 0.53800
H2B H 1.21740 0.30190 0.39800
O4B O 1.46669(12) 0.43858(7) 0.26295(11)
C2B C 1.02186(15) 0.43485(8) 0.71987(12)
H3B H 1.1581(8) 0.4733(9) 0.7600(13)
H4B H 1.0039(16) 0.3759(9) 0.8145(11)
#END
