
#######################################################################
#
#                 Cambridge Crystallographic Data Centre
#                                CCDC
#
#######################################################################
#
# If this CIF has been generated from an entry in the Cambridge
# Structural Database, then it will include bibliographic, chemical,
# crystal, experimental, refinement or atomic coordinate data resulting
# from the CCDC's data processing and validation procedures.
#
#######################################################################

data_CSD_CIF_OCHTET17
_audit_creation_date 2011-08-15
_audit_creation_method CSD-ConQuest-V1
_database_code_CSD OCHTET17
_database_code_depnum_ccdc_archive 'CCDC 792930'
_chemical_formula_sum 'C4 H8 N8 O8'
_chemical_formula_moiety
;
C4 H8 N8 O8
;
_journal_coden_Cambridge 1003
_journal_volume 41
_journal_year 2011
_journal_page_first 966
_journal_name_full 'J.Chem.Cryst. '
loop_
_publ_author_name
"J.R.Deschamps"
"M.Frisch"
"D.Parrish"
_chemical_name_systematic
;
1,3,5,7-Tetranitro-1,3,5,7-tetra-azacyclo-octane
;
_cell_volume    517.450
_exptl_crystal_colour 'colorless'
_exptl_crystal_density_diffrn 1.901
_exptl_special_details
;
beta-phase
explosive

;
_exptl_crystal_description 'prism'
_diffrn_ambient_temperature 303
#These two values have been output from a single CSD field.
_refine_ls_R_factor_gt 0.0304
_refine_ls_wR_factor_gt 0.0304
_symmetry_cell_setting monoclinic
_symmetry_space_group_name_H-M 'P 21/n'
_symmetry_Int_Tables_number 14
loop_
_symmetry_equiv_pos_site_id
_symmetry_equiv_pos_as_xyz
1 x,y,z
2 1/2-x,1/2+y,1/2-z
3 -x,-y,-z
4 -1/2+x,-1/2-y,-1/2+z
_cell_length_a 6.5255(10)
_cell_length_b 11.0369(18)
_cell_length_c 7.3640(12)
_cell_angle_alpha 90
_cell_angle_beta 102.67(1)
_cell_angle_gamma 90
_cell_formula_units_Z 2
loop_
_atom_type_symbol
_atom_type_radius_bond
C 0.68
H 0.23
N 0.68
O 0.68
loop_
_atom_site_label
_atom_site_type_symbol
_atom_site_fract_x
_atom_site_fract_y
_atom_site_fract_z
N1 N 0.98149(19) 0.62239(11) 0.46190(18)
O1 O 1.2707(2) 0.71942(12) 0.4374(2)
N2 N 1.1398(2) 0.70270(12) 0.5318(2)
N3 N 0.8576(2) 0.52452(12) 0.7051(2)
O2 O 0.7296(2) 0.42839(14) 0.92176(19)
N4 N 0.6991(2) 0.50088(13) 0.7935(2)
O3 O 1.1406(2) 0.74671(13) 0.6839(2)
C1 C 0.8097(2) 0.61434(14) 0.5538(2)
H1 H 0.68310 0.59070 0.46510
H2 H 0.78540 0.69290 0.60440
O4 O 0.53723(19) 0.55985(14) 0.7391(2)
C2 C 0.9781(2) 0.56624(14) 0.2829(2)
H3 H 0.8424(11) 0.5276(12) 0.241(2)
H4 H 0.996(2) 0.6247(12) 0.1893(16)
N1B N 1.01851(19) 0.37761(11) 0.53810(18)
O1B O 0.7293(2) 0.28058(12) 0.5626(2)
N2B N 0.8602(2) 0.29730(12) 0.4682(2)
N3B N 1.1424(2) 0.47548(12) 0.2949(2)
O2B O 1.2704(2) 0.57161(14) 0.07824(19)
N4B N 1.3009(2) 0.49912(13) 0.2065(2)
O3B O 0.8594(2) 0.25329(13) 0.3161(2)
C1B C 1.1903(2) 0.38566(14) 0.4462(2)
H1B H 1.31690 0.40930 0.53490
H2B H 1.21460 0.30710 0.39560
O4B O 1.46277(19) 0.44015(14) 0.2609(2)
C2B C 1.0219(2) 0.43376(14) 0.7171(2)
H3B H 1.1576(11) 0.4724(12) 0.759(2)
H4B H 1.004(2) 0.3753(12) 0.8107(16)
#END
