
#######################################################################
#
#                 Cambridge Crystallographic Data Centre
#                                CCDC
#
#######################################################################
#
# If this CIF has been generated from an entry in the Cambridge
# Structural Database, then it will include bibliographic, chemical,
# crystal, experimental, refinement or atomic coordinate data resulting
# from the CCDC's data processing and validation procedures.
#
#######################################################################

data_CSD_CIF_OCHTET
_audit_creation_date 1971-12-31
_audit_creation_method CSD-ConQuest-V1
_database_code_CSD OCHTET
_chemical_formula_sum 'C4 H8 N8 O8'
_chemical_formula_moiety
;
C4 H8 N8 O8
;
_journal_coeditor_code "IUCr A03872"
_journal_coden_Cambridge 1
_journal_volume 16
_journal_year 1963
_journal_page_first 617
_journal_name_full 'Acta Crystallogr. '
loop_
_publ_author_name
"H.H.Cady"
"A.C.Larson"
"D.T.Cromer"
_chemical_name_systematic
;
1,3,5,7-Tetranitro-1,3,5,7-tetra-azacyclo-octane
;
_cell_volume   2138.700
_exptl_special_details
;
alpha polymorph
Y-COORD OF N1 GIVEN AS .0599 IN TAB 2 SHOULD BE NEGATIVE

;
_diffrn_ambient_temperature ?
_diffrn_special_details
;
The study was carried out at room temperature,in the range 283-303K

;
#These two values have been output from a single CSD field.
_refine_ls_R_factor_gt 0.035
_refine_ls_wR_factor_gt 0.035
_symmetry_cell_setting orthorhombic
_symmetry_space_group_name_H-M 'F d d 2'
_symmetry_Int_Tables_number 43
loop_
_symmetry_equiv_pos_site_id
_symmetry_equiv_pos_as_xyz
1 x,y,z
2 x,1/2+y,1/2+z
3 1/2+x,y,1/2+z
4 1/2+x,1/2+y,z
5 1/4-x,1/4+y,1/4+z
6 1/4-x,3/4+y,3/4+z
7 3/4-x,1/4+y,3/4+z
8 3/4-x,3/4+y,1/4+z
9 1/4+x,1/4-y,1/4+z
10 1/4+x,3/4-y,3/4+z
11 3/4+x,1/4-y,3/4+z
12 3/4+x,3/4-y,1/4+z
13 1/2-x,-y,1/2+z
14 1/2-x,1/2-y,z
15 -x,-y,z
16 -x,1/2-y,1/2+z
_cell_length_a 15.14
_cell_length_b 23.89
_cell_length_c 5.913
_cell_angle_alpha 90
_cell_angle_beta 90
_cell_angle_gamma 90
_cell_formula_units_Z 8
loop_
_atom_type_symbol
_atom_type_radius_bond
C 0.68
H 0.23
N 0.68
O 0.68
loop_
_atom_site_label
_atom_site_type_symbol
_atom_site_fract_x
_atom_site_fract_y
_atom_site_fract_z
C1 C 0.09950 -0.04160 0.00000
C2 C -0.06600 -0.06180 -0.01400
H1 H 0.08800 -0.04300 -0.17800
H2 H 0.14200 -0.06200 0.03800
H3 H -0.06000 -0.05900 -0.15400
H4 H -0.10200 -0.09900 0.02700
N1 N 0.01810 -0.05990 0.10350
N2 N 0.12300 0.01530 0.05900
N3 N 0.02100 -0.07260 0.32640
N4 N 0.20600 0.02660 0.13740
O1 O -0.04930 -0.08770 0.41380
O2 O 0.09030 -0.06700 0.42720
O3 O 0.25630 -0.01330 0.17120
O4 O 0.22450 0.07570 0.17170
N2N N -0.12300 -0.01530 0.05900
C2N C 0.06600 0.06180 -0.01400
C1N C -0.09950 0.04160 0.00000
N4N N -0.20600 -0.02660 0.13740
H3N H 0.06000 0.05900 -0.15400
H4N H 0.10200 0.09900 0.02700
N1N N -0.01810 0.05990 0.10350
H1N H -0.08800 0.04300 -0.17800
H2N H -0.14200 0.06200 0.03800
O3N O -0.25630 0.01330 0.17120
O4N O -0.22450 -0.07570 0.17170
N3N N -0.02100 0.07260 0.32640
O1N O 0.04930 0.08770 0.41380
O2N O -0.09030 0.06700 0.42720
#END
