
#######################################################################
#
#                 Cambridge Crystallographic Data Centre
#                                CCDC
#
#######################################################################
#
# If this CIF has been generated from an entry in the Cambridge
# Structural Database, then it will include bibliographic, chemical,
# crystal, experimental, refinement or atomic coordinate data resulting
# from the CCDC's data processing and validation procedures.
#
#######################################################################

data_CSD_CIF_OCONEZ
_audit_creation_date 2002-02-21
_audit_creation_method CSD-ConQuest-V1
_database_code_CSD OCONEZ
_database_code_depnum_ccdc_archive 'CCDC 163772'
_chemical_formula_sum 'C20 H19 N1 O2'
_chemical_formula_moiety
;
C20 H19 N1 O2
;
_journal_coden_Cambridge 16
_journal_volume 57
_journal_year 2001
_journal_page_first 9025
_journal_name_full 'Tetrahedron '
loop_
_publ_author_name
"C.Dell'Erba"
"A.Gabellini"
"A.Mugnoli"
"M.Novi"
"G.Petrillo"
"C.Tavani"
_chemical_name_systematic
;
(1E,3E,5E)-1,6-Di-p-tolyl-3-nitro-1,3,5-hexatriene
;
_cell_volume    836.374
_exptl_crystal_colour 'red'
_exptl_crystal_density_diffrn 1.213
_exptl_crystal_description 'prism'
_diffrn_ambient_temperature 293
#These two values have been output from a single CSD field.
_refine_ls_R_factor_gt 0.0593
_refine_ls_wR_factor_gt 0.0593
_symmetry_cell_setting triclinic
_symmetry_space_group_name_H-M 'P -1'
_symmetry_Int_Tables_number 2
loop_
_symmetry_equiv_pos_site_id
_symmetry_equiv_pos_as_xyz
1 x,y,z
2 -x,-y,-z
_cell_length_a 6.987(2)
_cell_length_b 7.537(2)
_cell_length_c 16.217(5)
_cell_angle_alpha 95.75(2)
_cell_angle_beta 99.60(2)
_cell_angle_gamma 92.33(2)
_cell_formula_units_Z 2
loop_
_atom_type_symbol
_atom_type_radius_bond
C 0.68
H 0.23
N 0.68
O 0.68
loop_
_atom_site_label
_atom_site_type_symbol
_atom_site_fract_x
_atom_site_fract_y
_atom_site_fract_z
C1 C 0.8569(3) 0.8530(3) 0.32557(13)
C2 C 0.7949(3) 0.8593(3) 0.24497(13)
C3 C 0.9015(3) 0.8883(2) 0.17749(12)
C4 C 0.8333(3) 0.8635(3) 0.09482(12)
C5 C 0.6416(3) 0.7998(3) 0.05486(13)
C6 C 0.5870(3) 0.7868(3) -0.02835(13)
C7 C 0.7402(3) 0.8128(3) 0.38927(12)
C8 C 0.5384(3) 0.7957(3) 0.37459(14)
C9 C 0.4373(4) 0.7619(3) 0.43717(15)
C10 C 0.5290(3) 0.7433(3) 0.51788(12)
C11 C 0.7292(4) 0.7593(4) 0.53252(15)
C12 C 0.8324(4) 0.7940(3) 0.47034(14)
C13 C 0.4158(4) 0.7092(3) 0.58622(15)
H1 H 0.29090 0.75870 0.57470
H2 H 0.48540 0.76430 0.63930
H3 H 0.39870 0.58290 0.58840
C14 C 0.3996(3) 0.7225(2) -0.07808(12)
C15 C 0.3741(3) 0.7094(3) -0.16517(13)
C16 C 0.2010(3) 0.6462(3) -0.21471(14)
C17 C 0.0443(3) 0.5936(3) -0.17906(13)
C18 C 0.0679(3) 0.6098(3) -0.09248(14)
C19 C 0.2403(3) 0.6720(3) -0.04275(14)
C20 C -0.1450(4) 0.5231(3) -0.23319(16)
H4 H -0.22080 0.45850 -0.20060
H5 H -0.11930 0.44480 -0.28000
H6 H -0.21560 0.62100 -0.25350
N1 N 1.1078(3) 0.9536(2) 0.19992(11)
O1 O 1.1645(2) 1.0361(2) 0.26787(11)
O2 O 1.2149(3) 0.9209(3) 0.14927(12)
H7 H 0.990(4) 0.868(3) 0.3476(14)
H8 H 0.663(3) 0.833(3) 0.2251(12)
H9 H 0.932(3) 0.896(3) 0.0566(12)
H10 H 0.553(4) 0.770(3) 0.0920(15)
H11 H 0.678(3) 0.826(3) -0.0642(13)
H12 H 0.469(3) 0.799(3) 0.3190(14)
H13 H 0.299(4) 0.755(3) 0.4270(15)
H14 H 0.797(4) 0.748(3) 0.5870(16)
H15 H 0.968(4) 0.801(4) 0.4829(17)
H16 H 0.482(4) 0.739(3) -0.1906(16)
H17 H 0.191(3) 0.641(3) -0.2751(16)
H18 H -0.035(4) 0.586(4) -0.0644(16)
H19 H 0.249(3) 0.681(3) 0.0143(14)
#END
