
#######################################################################
#
#                 Cambridge Crystallographic Data Centre
#                                CCDC
#
#######################################################################
#
# If this CIF has been generated from an entry in the Cambridge
# Structural Database, then it will include bibliographic, chemical,
# crystal, experimental, refinement or atomic coordinate data resulting
# from the CCDC's data processing and validation procedures.
#
#######################################################################

data_CSD_CIF_OCUHUS
_audit_creation_date 2017-01-11
_audit_creation_method CSD-ConQuest-V1
_database_code_CSD OCUHUS
_database_code_depnum_ccdc_archive 'CCDC 1477784'
_chemical_formula_sum 'C7 H6 N8 O8'
_chemical_formula_moiety
;
C7 H6 N8 O8
;
_journal_coden_Cambridge 440
_journal_volume 41
_journal_year 2017
_journal_page_first 1202
_journal_name_full 'New J.Chem. '
loop_
_publ_author_name
"Qiong Yu"
"Guangbin Cheng"
"Xuehai Ju"
"Chunxu Lu"
"Qiuhan Lin"
"Hongwei Yang"
_chemical_name_systematic
;
4-(5-methyl-1,2,4-oxadiazol-3-yl)-N-(2,2,2-trinitroethyl)-1,2,5-oxadiazol-3-am
ine
;
_cell_volume   1269.318
_exptl_crystal_density_diffrn 1.728
_exptl_crystal_description 'block'
_exptl_crystal_preparation 'methanol'
_diffrn_ambient_temperature 172
#These two values have been output from a single CSD field.
_refine_ls_R_factor_gt 0.0426
_refine_ls_wR_factor_gt 0.0426
_symmetry_cell_setting monoclinic
_symmetry_space_group_name_H-M 'P 21/c'
_symmetry_Int_Tables_number 14
loop_
_symmetry_equiv_pos_site_id
_symmetry_equiv_pos_as_xyz
1 x,y,z
2 -x,1/2+y,1/2-z
3 -x,-y,-z
4 x,-1/2-y,-1/2+z
_cell_length_a 5.9313(6)
_cell_length_b 25.036(3)
_cell_length_c 8.5659(9)
_cell_angle_alpha 90
_cell_angle_beta 93.723(4)
_cell_angle_gamma 90
_cell_formula_units_Z 4
loop_
_atom_type_symbol
_atom_type_radius_bond
C 0.68
H 0.23
N 0.68
O 0.68
loop_
_atom_site_label
_atom_site_type_symbol
_atom_site_fract_x
_atom_site_fract_y
_atom_site_fract_z
C1 C -0.1970(4) 0.20806(9) 0.2616(3)
C2 C -0.1484(4) 0.26287(9) 0.2952(3)
C3 C -0.1497(4) 0.12103(9) 0.1419(3)
H1 H -0.11750 0.11450 0.03150
H2 H -0.31570 0.12080 0.14840
C4 C -0.0458(4) 0.07616(9) 0.2436(3)
C5 C 0.0434(4) 0.29436(9) 0.2497(3)
C6 C 0.2862(4) 0.35349(9) 0.2408(3)
C7 C 0.4412(4) 0.39973(9) 0.2581(3)
H3 H 0.39390 0.42720 0.18140
H4 H 0.59540 0.38820 0.24050
H5 H 0.43700 0.41440 0.36390
N1 N -0.3892(3) 0.19514(8) 0.3186(3)
N2 N -0.3086(3) 0.28293(8) 0.3740(3)
N3 N -0.0633(3) 0.17258(8) 0.1889(3)
H6 H 0.044(3) 0.1847(9) 0.142(3)
N4 N -0.1282(3) 0.07373(9) 0.4082(3)
N5 N 0.2102(3) 0.08043(8) 0.2595(3)
N6 N -0.1018(4) 0.02227(8) 0.1692(3)
N7 N 0.1543(3) 0.27913(8) 0.1313(3)
N8 N 0.1186(3) 0.34039(8) 0.3230(2)
O1 O -0.4594(3) 0.24207(7) 0.3904(2)
O2 O -0.2158(3) 0.03236(7) 0.4477(2)
O3 O -0.1010(3) 0.11409(8) 0.4851(2)
O4 O 0.3072(3) 0.07241(8) 0.3858(2)
O5 O 0.2941(3) 0.09099(7) 0.1378(2)
O6 O -0.2893(3) 0.01856(7) 0.1041(2)
O7 O 0.0420(3) -0.01254(7) 0.1826(2)
O8 O 0.3195(3) 0.31912(7) 0.1242(2)
#END
