
#######################################################################
#
#                 Cambridge Crystallographic Data Centre
#                                CCDC
#
#######################################################################
#
# If this CIF has been generated from an entry in the Cambridge
# Structural Database, then it will include bibliographic, chemical,
# crystal, experimental, refinement or atomic coordinate data resulting
# from the CCDC's data processing and validation procedures.
#
#######################################################################

data_CSD_CIF_OCUJEE
_audit_creation_date 2017-01-11
_audit_creation_method CSD-ConQuest-V1
_database_code_CSD OCUJEE
_database_code_depnum_ccdc_archive 'CCDC 1477786'
_chemical_formula_sum 'C5 H4 N6 O4'
_chemical_formula_moiety
;
C5 H4 N6 O4
;
_journal_coden_Cambridge 440
_journal_volume 41
_journal_year 2017
_journal_page_first 1202
_journal_name_full 'New J.Chem. '
loop_
_publ_author_name
"Qiong Yu"
"Guangbin Cheng"
"Xuehai Ju"
"Chunxu Lu"
"Qiuhan Lin"
"Hongwei Yang"
_chemical_name_systematic
;
4-(5-methyl-1,2,4-oxadiazol-3-yl)-N-nitro-1,2,5-oxadiazol-3-amine
;
_cell_volume    850.296
_exptl_crystal_density_diffrn 1.657
_exptl_crystal_description 'block'
_exptl_crystal_preparation 'water'
_diffrn_ambient_temperature 173
#These two values have been output from a single CSD field.
_refine_ls_R_factor_gt 0.0314
_refine_ls_wR_factor_gt 0.0314
_symmetry_cell_setting orthorhombic
_symmetry_space_group_name_H-M 'P c a 21'
_symmetry_Int_Tables_number 29
loop_
_symmetry_equiv_pos_site_id
_symmetry_equiv_pos_as_xyz
1 x,y,z
2 -x,-y,1/2+z
3 1/2+x,-y,z
4 1/2-x,y,1/2+z
_cell_length_a 8.3172(10)
_cell_length_b 7.226(1)
_cell_length_c 14.148(2)
_cell_angle_alpha 90
_cell_angle_beta 90
_cell_angle_gamma 90
_cell_formula_units_Z 4
loop_
_atom_type_symbol
_atom_type_radius_bond
C 0.68
H 0.23
N 0.68
O 0.68
loop_
_atom_site_label
_atom_site_type_symbol
_atom_site_fract_x
_atom_site_fract_y
_atom_site_fract_z
C1 C 0.1020(4) 0.7331(4) 0.6780(2)
C2 C 0.1657(4) 0.5597(4) 0.6469(2)
C3 C 0.1372(3) 0.4607(4) 0.5586(2)
C4 C 0.1511(4) 0.2624(5) 0.4519(3)
C5 C 0.1849(5) 0.1065(5) 0.3875(3)
H1 H 0.25130 0.01450 0.42010
H2 H 0.24240 0.15220 0.33170
H3 H 0.08350 0.04930 0.36780
N1 N 0.1616(3) 0.7745(4) 0.7606(2)
N2 N 0.2650(4) 0.4980(4) 0.71071(19)
N3 N -0.0058(3) 0.8391(4) 0.6269(2)
H4 H -0.082(3) 0.786(4) 0.594(2)
N4 N -0.0230(3) 1.0246(4) 0.6388(2)
N5 N 0.0350(4) 0.5226(4) 0.4971(2)
N6 N 0.2136(3) 0.3001(3) 0.5339(2)
O1 O 0.2647(3) 0.6284(3) 0.78149(17)
O2 O 0.0537(3) 1.1025(3) 0.70002(17)
O3 O -0.1169(3) 1.0993(3) 0.58301(18)
O4 O 0.0431(3) 0.3890(3) 0.42401(17)
#END
