
#######################################################################
#
#                 Cambridge Crystallographic Data Centre
#                                CCDC
#
#######################################################################
#
# If this CIF has been generated from an entry in the Cambridge
# Structural Database, then it will include bibliographic, chemical,
# crystal, experimental, refinement or atomic coordinate data resulting
# from the CCDC's data processing and validation procedures.
#
#######################################################################

data_CSD_CIF_ODANOW
_audit_creation_date 2002-02-21
_audit_creation_method CSD-ConQuest-V1
_database_code_CSD ODANOW
_database_code_depnum_ccdc_archive 'CCDC 162168'
_chemical_formula_sum 'C18 H18 N4 O7'
_chemical_formula_moiety
;
C18 H18 N4 O7
;
_journal_coden_Cambridge 10
_journal_volume 84
_journal_year 2001
_journal_page_first 3403
_journal_name_full 'Helv.Chim.Acta '
loop_
_publ_author_name
"U.Groselj"
"A.Drobnic"
"S.Recnik"
"J.Svete"
"B.Stanovnik"
"A.Golobic"
"N.Lah"
"I.Leban"
"A.Meden"
"S.Golic-Grdadolnik"
_chemical_name_systematic
;
(4R*,5S*)-6-Acetyl-8-methyl-7,9-dioxo-3-(2,4,6-trimethoxyphenyl)-1-oxa-2,6,8-t
riaza-spiro(4.4)non-2-ene-4-carbonitrile
;
_chemical_melting_point 449.15
_cell_volume   1826.019
_exptl_crystal_density_diffrn 1.464
_exptl_special_details
;
Melting point range 449.15-451.15K

;
_diffrn_ambient_temperature 200
#These two values have been output from a single CSD field.
_refine_ls_R_factor_gt 0.0356
_refine_ls_wR_factor_gt 0.0356
_symmetry_cell_setting monoclinic
_symmetry_space_group_name_H-M 'P 21/n'
_symmetry_Int_Tables_number 14
loop_
_symmetry_equiv_pos_site_id
_symmetry_equiv_pos_as_xyz
1 x,y,z
2 1/2+x,1/2-y,1/2+z
3 -x,-y,-z
4 -1/2-x,-1/2+y,-1/2-z
_cell_length_a 14.0662(3)
_cell_length_b 9.3111(2)
_cell_length_c 14.9528(3)
_cell_angle_alpha 90
_cell_angle_beta 111.187(1)
_cell_angle_gamma 90
_cell_formula_units_Z 4
loop_
_atom_type_symbol
_atom_type_radius_bond
C 0.68
H 0.23
N 0.68
O 0.68
loop_
_atom_site_label
_atom_site_type_symbol
_atom_site_fract_x
_atom_site_fract_y
_atom_site_fract_z
O1 O 0.68942(7) 0.78552(12) 0.21369(7)
O2 O 0.58800(9) 1.02351(12) 0.43857(7)
O3 O 0.38540(8) 1.03063(13) 0.17080(7)
O4 O 0.46452(9) 0.75961(14) 0.41027(8)
O5 O 0.81335(9) 1.01867(14) 0.51719(8)
O6 O 0.68413(9) 0.72915(13) 0.68822(8)
N1 N 0.61485(10) 0.80517(15) 0.52816(9)
O7 O 0.40536(8) 0.75570(13) -0.08789(7)
C1 C 0.39615(11) 0.89238(17) 0.03864(10)
H1 H 0.33130 0.92090 -0.00130
C2 C 0.43626(11) 0.94075(16) 0.13265(10)
C3 C 0.53401(11) 0.89611(16) 0.19513(10)
N2 N 0.54126(10) 1.03069(14) 0.33631(8)
C4 C 0.59144(11) 0.81228(16) 0.15464(10)
C5 C 0.45343(12) 0.80097(17) 0.00438(10)
N3 N 0.76842(10) 0.88614(15) 0.62399(9)
C6 C 0.64888(12) 0.89727(17) 0.46772(10)
C7 C 0.65358(11) 0.83613(16) 0.37374(10)
H2 H 0.72020 0.86110 0.37100
C8 C 0.57276(11) 0.92620(16) 0.29848(10)
C9 C 0.55235(11) 0.76232(17) 0.06051(10)
H3 H 0.59130 0.70490 0.03610
C10 C 0.68655(12) 0.79809(17) 0.62183(10)
C11 C 0.51683(12) 0.74324(18) 0.49414(12)
C12 C 0.75506(12) 0.94470(17) 0.53816(11)
C13 C 0.64103(11) 0.68026(17) 0.36233(10)
C14 C 0.74553(13) 0.6771(2) 0.18626(12)
H4 H 0.70420 0.59260 0.16620
H5 H 0.80620 0.65420 0.23990
H6 H 0.76390 0.71180 0.13420
C15 C 0.48445(14) 0.65934(19) 0.56376(13)
H7 H 0.41400 0.63320 0.53400
H8 H 0.49340 0.71700 0.61940
H9 H 0.52520 0.57410 0.58240
C16 C 0.28781(12) 1.0821(2) 0.10956(12)
H10 H 0.29440 1.12990 0.05520
H11 H 0.26190 1.14840 0.14440
H12 H 0.24160 1.00270 0.08800
N4 N 0.63534(12) 0.55830(16) 0.35357(11)
C17 C 0.46038(14) 0.6624(2) -0.12798(12)
H13 H 0.51900 0.71190 -0.13110
H14 H 0.41700 0.63410 -0.19140
H15 H 0.48210 0.57870 -0.08830
C18 C 0.86115(13) 0.9035(2) 0.70839(11)
H16 H 0.91950 0.89970 0.68950
H17 H 0.86550 0.82780 0.75320
H18 H 0.85950 0.99460 0.73790
#END
