
#######################################################################
#
#                 Cambridge Crystallographic Data Centre
#                                CCDC
#
#######################################################################
#
# If this CIF has been generated from an entry in the Cambridge
# Structural Database, then it will include bibliographic, chemical,
# crystal, experimental, refinement or atomic coordinate data resulting
# from the CCDC's data processing and validation procedures.
#
#######################################################################

data_CSD_CIF_ODASIY
_audit_creation_date 2017-01-12
_audit_creation_method CSD-ConQuest-V1
_database_code_CSD ODASIY
_database_code_depnum_ccdc_archive 'CCDC 1504021'
_chemical_formula_sum 'C9 H8 N2 O3'
_chemical_formula_moiety
;
C9 H8 N2 O3
;
_journal_coden_Cambridge 24
_journal_volume 57
_journal_year 2016
_journal_page_first 5685
_journal_name_full 'Tetrahedron Lett. '
loop_
_publ_author_name
"L.L.Fershtat"
"M.A.Epishina"
"I.V.Ovchinnikov"
"M.I.Struchkova"
"A.A.Romanova"
"I.V.Ananyev"
"N.N.Makhova"
_chemical_name_systematic
;
2-methyl-5-oxo-4-phenyl-1,2,5-oxadiazol-3(2H)-one
;
_cell_volume    853.289
_exptl_crystal_colour 'colorless'
_exptl_crystal_density_diffrn 1.496
_exptl_crystal_description 'Prism'
_diffrn_ambient_temperature 120
#These two values have been output from a single CSD field.
_refine_ls_R_factor_gt 0.038
_refine_ls_wR_factor_gt 0.038
_symmetry_cell_setting monoclinic
_symmetry_space_group_name_H-M 'P 21/n'
_symmetry_Int_Tables_number 14
loop_
_symmetry_equiv_pos_site_id
_symmetry_equiv_pos_as_xyz
1 x,y,z
2 1/2-x,1/2+y,1/2-z
3 -x,-y,-z
4 -1/2+x,-1/2-y,-1/2+z
_cell_length_a 7.2204(7)
_cell_length_b 9.1774(9)
_cell_length_c 13.1474(13)
_cell_angle_alpha 90
_cell_angle_beta 101.640(2)
_cell_angle_gamma 90
_cell_formula_units_Z 4
loop_
_atom_type_symbol
_atom_type_radius_bond
C 0.68
H 0.23
N 0.68
O 0.68
loop_
_atom_site_label
_atom_site_type_symbol
_atom_site_fract_x
_atom_site_fract_y
_atom_site_fract_z
O1 O 0.30949(11) 0.71758(9) 0.06089(7)
O2 O 0.03966(10) 0.61715(8) 0.08554(6)
O3 O -0.23255(10) 0.88881(9) 0.16210(6)
N1 N 0.15760(12) 0.74355(9) 0.08619(7)
N2 N -0.12458(12) 0.67268(10) 0.11167(8)
C1 C 0.07434(13) 0.8606(1) 0.11359(7)
C2 C -0.11080(13) 0.81658(11) 0.13304(7)
C3 C -0.26559(16) 0.56810(12) 0.12363(10)
H1 H -0.376(2) 0.6249(17) 0.1277(11)
H2 H -0.226(2) 0.5124(18) 0.1869(13)
H3 H -0.289(2) 0.5084(18) 0.0639(13)
C4 C 0.15953(14) 1.00505(10) 0.12314(7)
C5 C 0.34278(15) 1.03101(12) 0.10740(8)
H4 H 0.419(2) 0.9553(16) 0.0915(11)
C6 C 0.41545(16) 1.17171(13) 0.11635(9)
H5 H 0.545(2) 1.1851(18) 0.1052(11)
C7 C 0.30890(17) 1.28693(12) 0.14120(8)
H6 H 0.364(2) 1.3856(19) 0.1479(12)
C8 C 0.12823(17) 1.26112(11) 0.15882(8)
H7 H 0.051(2) 1.3410(18) 0.1775(11)
C9 C 0.05312(15) 1.12174(11) 0.14966(8)
H8 H -0.071(2) 1.1046(17) 0.1602(11)
#END
