
#######################################################################
#
#                 Cambridge Crystallographic Data Centre
#                                CCDC
#
#######################################################################
#
# If this CIF has been generated from an entry in the Cambridge
# Structural Database, then it will include bibliographic, chemical,
# crystal, experimental, refinement or atomic coordinate data resulting
# from the CCDC's data processing and validation procedures.
#
#######################################################################

data_CSD_CIF_ODAWIA
_audit_creation_date 2006-07-13
_audit_creation_method CSD-ConQuest-V1
_database_code_CSD ODAWIA
_database_code_depnum_ccdc_archive 'CCDC 608454'
_chemical_formula_sum 'C8 H7 N1 O4'
_chemical_formula_moiety
;
C8 H7 N1 O4
;
_journal_coeditor_code "IUCr LH2048"
_journal_coden_Cambridge 1370
_journal_volume 62
_journal_year 2006
_journal_page_first o1915
_journal_name_full 'Acta Crystallogr.,Sect.E:Struct.Rep.Online '
loop_
_publ_author_name
"J.L.Wardell"
"J.N.Low"
"C.Glidewell"
_chemical_name_systematic
;
2-Nitrophenylacetic acid
;
_chemical_melting_point 412
_cell_volume    796.947
_exptl_crystal_colour 'colorless'
_exptl_crystal_density_diffrn 1.51
_exptl_special_details
;
Melting point range 412-413K

;
_exptl_crystal_description 'lath'
_exptl_crystal_preparation 'ethanol'
_diffrn_ambient_temperature 120
#These two values have been output from a single CSD field.
_refine_ls_R_factor_gt 0.0365
_refine_ls_wR_factor_gt 0.0365
_symmetry_cell_setting monoclinic
_symmetry_space_group_name_H-M 'P 21/c'
_symmetry_Int_Tables_number 14
loop_
_symmetry_equiv_pos_site_id
_symmetry_equiv_pos_as_xyz
1 x,y,z
2 -x,1/2+y,1/2-z
3 -x,-y,-z
4 x,-1/2-y,-1/2+z
_cell_length_a 9.3182(3)
_cell_length_b 9.4466(2)
_cell_length_c 9.9733(3)
_cell_angle_alpha 90
_cell_angle_beta 114.7990(17)
_cell_angle_gamma 90
_cell_formula_units_Z 4
loop_
_atom_type_symbol
_atom_type_radius_bond
C 0.68
H 0.23
N 0.68
O 0.68
loop_
_atom_site_label
_atom_site_type_symbol
_atom_site_fract_x
_atom_site_fract_y
_atom_site_fract_z
C1 C 0.23687(14) 0.30836(13) 0.07521(14)
C2 C 0.40523(15) 0.29551(14) 0.18979(14)
C3 C 0.44276(14) 0.38895(14) 0.32300(14)
O1 O 0.34184(11) 0.43438(11) 0.35993(11)
O2 O 0.59458(11) 0.41254(11) 0.39762(11)
C4 C 0.18252(14) 0.41302(13) -0.03303(14)
N1 N 0.28971(12) 0.52395(11) -0.03878(12)
O3 O 0.39974(11) 0.56059(10) 0.07718(11)
O4 O 0.26447(12) 0.57548(11) -0.15940(11)
C5 C 0.02718(15) 0.42023(14) -0.13979(14)
C6 C -0.07970(15) 0.31978(15) -0.13815(15)
C7 C -0.03015(16) 0.21349(15) -0.03267(16)
C8 C 0.12610(16) 0.20739(14) 0.07154(15)
H1 H 0.42570 0.19580 0.22280
H2 H 0.47750 0.31990 0.14350
H3 H 0.61000 0.45580 0.47610
H4 H -0.00460 0.49290 -0.21230
H5 H -0.18660 0.32350 -0.20900
H6 H -0.10350 0.14420 -0.03150
H7 H 0.15810 0.13270 0.14180
#END
