
#######################################################################
#
#                 Cambridge Crystallographic Data Centre
#                                CCDC
#
#######################################################################
#
# If this CIF has been generated from an entry in the Cambridge
# Structural Database, then it will include bibliographic, chemical,
# crystal, experimental, refinement or atomic coordinate data resulting
# from the CCDC's data processing and validation procedures.
#
#######################################################################

data_CSD_CIF_ODEMIU
_audit_creation_date 2007-09-25
_audit_creation_method CSD-ConQuest-V1
_database_code_CSD ODEMIU
_database_code_depnum_ccdc_archive 'CCDC 634282'
_chemical_formula_sum 'C12 H19 N1 O4'
_chemical_formula_moiety
;
C12 H19 N1 O4
;
_journal_coden_Cambridge 1090
_journal_volume 18
_journal_year 2007
_journal_page_first 1085
_journal_name_full 'Tetrahedron:Asymm. '
loop_
_publ_author_name
"S.Stecko"
"K.Pasniczek"
"M.Jurczak"
"Z.Urbanczyk-Lipkowska"
"M.Chmielewski"
_chemical_name_systematic
;
endo-anti-8-t-Butoxy-hexahydrofuro(3,4-d)pyrrolo(1,2-b)isoxazol-1(3H)-one
;
_cell_volume   1277.312
_exptl_crystal_density_diffrn 1.255
_diffrn_ambient_temperature 293
#These two values have been output from a single CSD field.
_refine_ls_R_factor_gt 0.0686
_refine_ls_wR_factor_gt 0.0686
loop_
_citation_database_id_CSD
_citation_special_details
VEBVAA "is a stereoisomer of this entry"
ODEMOA "is a stereoisomer of this entry"
_symmetry_cell_setting orthorhombic
_symmetry_space_group_name_H-M 'P 21 21 21'
_symmetry_Int_Tables_number 19
loop_
_symmetry_equiv_pos_site_id
_symmetry_equiv_pos_as_xyz
1 x,y,z
2 1/2-x,-y,1/2+z
3 1/2+x,1/2-y,-z
4 -x,1/2+y,1/2-z
_cell_length_a 5.7746(2)
_cell_length_b 8.5562(5)
_cell_length_c 25.852(3)
_cell_angle_alpha 90
_cell_angle_beta 90
_cell_angle_gamma 90
_cell_formula_units_Z 4
loop_
_atom_type_symbol
_atom_type_radius_bond
C 0.68
H 0.23
N 0.68
O 0.68
loop_
_atom_site_label
_atom_site_type_symbol
_atom_site_fract_x
_atom_site_fract_y
_atom_site_fract_z
C1 C 0.976(2) -0.0565(15) 0.0108(5)
H1 H 1.14130 -0.05520 0.00220
C2 C 0.903(3) 0.0686(15) 0.0471(5)
H2 H 1.00780 0.15840 0.04400
C3 C 0.926(2) -0.0025(15) 0.0999(4)
H3 H 1.05110 0.04960 0.11900
C4 C 0.821(2) -0.0365(16) -0.0338(5)
H4 H 0.90010 0.01860 -0.06140
H5 H 0.77170 -0.13760 -0.04680
C5 C 0.667(3) 0.113(2) 0.0283(7)
C6 C 0.710(3) -0.006(2) 0.1324(5)
H6 H 0.59250 0.06850 0.12040
C7 C 0.629(3) -0.174(2) 0.1278(7)
H7 H 0.54990 -0.20730 0.15890
H8 H 0.52630 -0.18680 0.09840
C8 C 0.851(3) -0.266(2) 0.1200(7)
H9 H 0.92690 -0.28510 0.15290
H10 H 0.81970 -0.36510 0.10340
C9 C 0.701(3) 0.166(2) 0.2043(6)
C10 C 0.809(3) 0.165(2) 0.2550(6)
H11 H 0.75900 0.07440 0.27380
H12 H 0.76500 0.25760 0.27360
H13 H 0.97420 0.16260 0.25110
C11 C 0.440(3) 0.164(2) 0.2093(7)
H14 H 0.37180 0.16150 0.17540
H15 H 0.38980 0.25630 0.22720
H16 H 0.39330 0.07310 0.22830
C12 C 0.791(4) 0.304(2) 0.1751(7)
H17 H 0.72550 0.30490 0.14100
H18 H 0.95680 0.29700 0.17270
H19 H 0.74940 0.39820 0.19290
N1 N 0.997(3) -0.1671(14) 0.0868(4)
O1 O 0.9018(19) -0.1934(10) 0.0369(3)
O2 O 0.6244(19) 0.0517(12) -0.0167(4)
O3 O 0.523(3) 0.1951(13) 0.0480(4)
O4 O 0.778(2) 0.0221(11) 0.1823(3)
#END
