
#######################################################################
#
#                 Cambridge Crystallographic Data Centre
#                                CCDC
#
#######################################################################
#
# If this CIF has been generated from an entry in the Cambridge
# Structural Database, then it will include bibliographic, chemical,
# crystal, experimental, refinement or atomic coordinate data resulting
# from the CCDC's data processing and validation procedures.
#
#######################################################################

data_CSD_CIF_ODEMOA
_audit_creation_date 2007-09-24
_audit_creation_method CSD-ConQuest-V1
_database_code_CSD ODEMOA
_database_code_depnum_ccdc_archive 'CCDC 634391'
_chemical_formula_sum 'C12 H19 N1 O4'
_chemical_formula_moiety
;
C12 H19 N1 O4
;
_journal_coden_Cambridge 1090
_journal_volume 18
_journal_year 2007
_journal_page_first 1085
_journal_name_full 'Tetrahedron:Asymm. '
loop_
_publ_author_name
"S.Stecko"
"K.Pasniczek"
"M.Jurczak"
"Z.Urbanczyk-Lipkowska"
"M.Chmielewski"
_chemical_name_systematic
;
exo-syn-(3aS,8S,8aS,8bR)-8-t-Butoxy-hexahydrofuro(3,4-d)pyrrolo(1,2-b)isoxazol
-1(3H)-one
;
_chemical_name_common
;
exo-(3aS,8S,8aS,8bR)-8-t-Butoxyhexahydrofuro[3,4-d]pyrrolo[1,2-b][1,2]oxazol-1
(3H)-one; 
exo-syn-8-t-butoxyhexahydrofuro[3,4-d]pyrrolo[1,2-b][1,2]oxazol-1(3H)-one
;
_chemical_melting_point 375.15
_cell_volume   1288.932
_exptl_crystal_colour 'colorless'
_exptl_crystal_density_diffrn 1.243
_exptl_special_details
;
Melting point range 375.15-376.15K

;
_diffrn_ambient_temperature 293
#These two values have been output from a single CSD field.
_refine_ls_R_factor_gt 0.0591
_refine_ls_wR_factor_gt 0.0591
loop_
_citation_database_id_CSD
_citation_special_details
ODEMIU "is a stereoisomer of this entry"
VEBVAA "is a stereoisomer of this entry"
_symmetry_cell_setting orthorhombic
_symmetry_space_group_name_H-M 'P 21 21 21'
_symmetry_Int_Tables_number 19
loop_
_symmetry_equiv_pos_site_id
_symmetry_equiv_pos_as_xyz
1 x,y,z
2 1/2-x,-y,1/2+z
3 1/2+x,1/2-y,-z
4 -x,1/2+y,1/2-z
_cell_length_a 8.8777(8)
_cell_length_b 10.2073(10)
_cell_length_c 14.2239(10)
_cell_angle_alpha 90
_cell_angle_beta 90
_cell_angle_gamma 90
_cell_formula_units_Z 4
loop_
_atom_type_symbol
_atom_type_radius_bond
C 0.68
H 0.23
N 0.68
O 0.68
loop_
_atom_site_label
_atom_site_type_symbol
_atom_site_fract_x
_atom_site_fract_y
_atom_site_fract_z
C1 C 0.5195(4) 1.0689(4) 0.1415(3)
H1 H 0.53770 0.98150 0.16770
C2 C 0.6643(4) 1.1495(3) 0.1428(2)
H2 H 0.74560 1.10520 0.17690
C3 C 0.7001(4) 1.1659(3) 0.0402(2)
H3 H 0.75000 1.25040 0.03010
C4 C 0.4110(5) 1.1431(4) 0.2021(3)
H4 H 0.31500 1.15240 0.17030
H5 H 0.39450 1.09670 0.26080
C5 C 0.6198(5) 1.2759(4) 0.1884(3)
C6 C 0.7936(4) 1.0556(3) -0.0062(2)
H6 H 0.89450 1.08760 -0.02200
C7 C 0.7055(5) 1.0243(4) -0.0955(3)
H7 H 0.76870 1.03600 -0.15050
H8 H 0.66990 0.93450 -0.09430
C8 C 0.5744(6) 1.1181(5) -0.0981(3)
H9 H 0.59580 1.18980 -0.14080
H10 H 0.48460 1.07330 -0.11990
C9 C 0.9457(5) 0.8803(4) 0.0652(3)
C10 C 0.9943(7) 0.8221(5) -0.0276(4)
H11 H 1.01400 0.89120 -0.07170
H12 H 0.91570 0.76680 -0.05150
H13 H 1.08410 0.77120 -0.01860
C11 C 0.9100(6) 0.7719(4) 0.1347(3)
H14 H 0.88170 0.80980 0.19390
H15 H 0.99730 0.71770 0.14320
H16 H 0.82850 0.71970 0.11100
C12 C 1.0599(7) 0.9722(6) 0.1072(6)
H17 H 1.07920 1.04260 0.06420
H18 H 1.15180 0.92550 0.11920
H19 H 1.02160 1.00710 0.16520
N1 N 0.5513(4) 1.1676(3) -0.0038(2)
O1 O 0.4769(3) 1.0594(3) 0.0456(2)
O2 O 0.4755(4) 1.2695(3) 0.2201(2)
O3 O 0.6912(5) 1.3741(3) 0.1960(3)
O4 O 0.8034(3) 0.9465(2) 0.05462(17)
#END
