
#######################################################################
#
#                 Cambridge Crystallographic Data Centre
#                                CCDC
#
#######################################################################
#
# If this CIF has been generated from an entry in the Cambridge
# Structural Database, then it will include bibliographic, chemical,
# crystal, experimental, refinement or atomic coordinate data resulting
# from the CCDC's data processing and validation procedures.
#
#######################################################################

data_CSD_CIF_ODEVAU
_audit_creation_date 2002-05-31
_audit_creation_method CSD-ConQuest-V1
_database_code_CSD ODEVAU
_chemical_formula_sum 'C26 H44 N2 O3'
_chemical_formula_moiety
;
C26 H44 N2 O3
;
_journal_coden_Cambridge 35
_journal_volume 66
_journal_year 2001
_journal_page_first 2611
_journal_name_full 'J.Org.Chem. '
loop_
_publ_author_name
"A.D.Allen"
"B.Cheng"
"M.H.Fenwick"
"B.Givehchi"
"H.Henry-Riyad"
"V.A.Nikolaev"
"E.A.Shikhova"
"D.Tahmassebi"
"T.T.Tidwell"
"S.Wang"
_chemical_name_systematic
;
2,2,6,6-Tetramethyl-1-((5-methyl-1-methylene-6-oxo-6-((2,2,6,6-tetramethylpipe
ridin-1-yl)oxy)hexa-2,4-dienyl)oxy)piperidine
;
_chemical_melting_point 433.15
_cell_volume   2575.735
_exptl_crystal_colour 'white'
_exptl_crystal_density_diffrn 1.116
_diffrn_ambient_temperature 110
#These two values have been output from a single CSD field.
_refine_ls_R_factor_gt 0.0449
_refine_ls_wR_factor_gt 0.0449
_symmetry_cell_setting monoclinic
_symmetry_space_group_name_H-M 'P 21/c'
_symmetry_Int_Tables_number 14
loop_
_symmetry_equiv_pos_site_id
_symmetry_equiv_pos_as_xyz
1 x,y,z
2 -x,1/2+y,1/2-z
3 -x,-y,-z
4 x,-1/2-y,-1/2+z
_cell_length_a 15.4150(3)
_cell_length_b 14.9044(6)
_cell_length_c 11.3137(6)
_cell_angle_alpha 90
_cell_angle_beta 97.727(2)
_cell_angle_gamma 90
_cell_formula_units_Z 4
loop_
_atom_type_symbol
_atom_type_radius_bond
C 0.68
H 0.23
N 0.68
O 0.68
loop_
_atom_site_label
_atom_site_type_symbol
_atom_site_fract_x
_atom_site_fract_y
_atom_site_fract_z
O1 O 0.3655(1) 0.0508(1) 0.7066(1)
O2 O 0.1467(1) -0.3516(1) 0.6795(1)
O3 O 0.1483(1) -0.3800(1) 0.4816(1)
N1 N 0.4084(1) 0.1371(1) 0.7293(1)
N2 N 0.0835(1) -0.4249(1) 0.6820(1)
C1 C 0.3704(1) 0.1986(1) 0.6317(1)
C2 C 0.4186(1) 0.2880(1) 0.6567(2)
C3 C 0.5171(1) 0.2782(1) 0.6661(2)
C4 C 0.5491(1) 0.2112(1) 0.7632(2)
C5 C 0.5046(1) 0.1194(1) 0.7465(1)
C6 C 0.5252(1) 0.0661(1) 0.8624(2)
C7 C 0.5390(1) 0.0654(1) 0.6464(2)
C8 C 0.2736(1) 0.2117(1) 0.6451(2)
C9 C 0.3752(1) 0.1649(1) 0.5039(1)
C10 C 0.3132(1) 0.0283(1) 0.7925(1)
C11 C 0.3039(1) 0.0757(1) 0.8893(1)
C12 C 0.2675(1) -0.0556(1) 0.7648(1)
C13 C 0.2733(1) -0.1091(1) 0.6709(1)
C14 C 0.2235(1) -0.1913(1) 0.6554(1)
C15 C 0.2261(1) -0.2543(1) 0.5714(1)
C16 C 0.2826(1) -0.2507(1) 0.4730(1)
C17 C 0.1694(1) -0.3348(1) 0.5687(1)
C18 C 0.1296(1) -0.4975(1) 0.7559(2)
C19 C 0.0608(1) -0.5708(1) 0.7643(2)
C20 C -0.0212(1) -0.5359(1) 0.8095(2)
C21 C -0.0605(1) -0.4607(1) 0.7283(2)
C22 C 0.0031(1) -0.3830(1) 0.7182(1)
C23 C 0.1740(1) -0.4704(1) 0.8804(2)
C24 C 0.1995(1) -0.5348(1) 0.6854(2)
C25 C 0.0160(1) -0.3263(1) 0.8326(2)
C26 C -0.0348(1) -0.3229(1) 0.6141(2)
H1 H 0.39840 0.33070 0.59180
H2 H 0.40350 0.31340 0.73210
H3 H 0.54530 0.33710 0.68500
H4 H 0.53320 0.25750 0.58880
H5 H 0.53880 0.23610 0.84120
H6 H 0.61300 0.20310 0.76520
H7 H 0.50090 0.09740 0.92670
H8 H 0.58880 0.06060 0.88290
H9 H 0.49920 0.00620 0.85170
H10 H 0.50200 0.01250 0.62740
H11 H 0.59930 0.04620 0.67300
H12 H 0.53770 0.10300 0.57520
H13 H 0.26840 0.22890 0.72740
H14 H 0.24180 0.15550 0.62570
H15 H 0.24880 0.25900 0.59070
H16 H 0.43480 0.17280 0.48470
H17 H 0.33430 0.19940 0.44740
H18 H 0.35940 0.10120 0.49830
H19 H 0.33470 0.13060 0.90430
H20 H 0.26640 0.05480 0.94350
H21 H 0.22920 -0.07480 0.81900
H22 H 0.31050 -0.09270 0.61390
H23 H 0.18410 -0.20200 0.71160
H24 H 0.32490 -0.20160 0.48840
H25 H 0.24570 -0.24040 0.39670
H26 H 0.31390 -0.30770 0.46990
H27 H 0.04440 -0.59770 0.68440
H28 H 0.08680 -0.61870 0.81850
H29 H -0.00640 -0.51310 0.89200
H30 H -0.06420 -0.58510 0.81040
H31 H -0.11310 -0.43730 0.75930
H32 H -0.07930 -0.48550 0.64780
H33 H 0.21110 -0.41780 0.87370
H34 H 0.21010 -0.52030 0.91570
H35 H 0.12920 -0.45600 0.93110
H36 H 0.17280 -0.54920 0.60410
H37 H 0.22500 -0.58920 0.72450
H38 H 0.24550 -0.48980 0.68250
H39 H 0.06490 -0.28480 0.82990
H40 H 0.02870 -0.36580 0.90200
H41 H -0.03750 -0.29220 0.83900
H42 H 0.00270 -0.27010 0.61070
H43 H -0.09390 -0.30370 0.62570
H44 H -0.03750 -0.35650 0.53920
#END
