
#######################################################################
#
#                 Cambridge Crystallographic Data Centre
#                                CCDC
#
#######################################################################
#
# If this CIF has been generated from an entry in the Cambridge
# Structural Database, then it will include bibliographic, chemical,
# crystal, experimental, refinement or atomic coordinate data resulting
# from the CCDC's data processing and validation procedures.
#
#######################################################################

data_CSD_CIF_ODIJIV
_audit_creation_date 2007-09-28
_audit_creation_method CSD-ConQuest-V1
_database_code_CSD ODIJIV
_database_code_depnum_ccdc_archive 'CCDC 299270'
_chemical_formula_sum 'C18 H28 N2 O6'
_chemical_formula_moiety
;
C18 H28 N2 O6
;
_journal_coden_Cambridge 206
_journal_volume 37
_journal_year 2007
_journal_page_first 297
_journal_name_full 'Synth.Commun. '
loop_
_publ_author_name
"Shangli Cheng"
"Huimin Wu"
"Xianmin Hu"
_chemical_name_systematic
;
exo-7-(t-Butoxycarbonyl)-3-(ethoxycarbonyl)-6-oxo-2-oxa-1,7-diazabicyclo(3.3.0
)octane-8-spirocyclohexane
;
_chemical_melting_point 364.15
_cell_volume   3929.051
_exptl_crystal_colour 'colorless'
_exptl_crystal_density_diffrn 1.228
_exptl_special_details
;
Melting point range 364.15-365.15K

;
_exptl_crystal_description 'block'
_exptl_crystal_preparation 'ethyl acetate/petroleum ether'
_diffrn_ambient_temperature 273
#These two values have been output from a single CSD field.
_refine_ls_R_factor_gt 0.0472
_refine_ls_wR_factor_gt 0.0472
_symmetry_cell_setting orthorhombic
_symmetry_space_group_name_H-M 'P b c a'
_symmetry_Int_Tables_number 61
loop_
_symmetry_equiv_pos_site_id
_symmetry_equiv_pos_as_xyz
1 x,y,z
2 1/2-x,-y,1/2+z
3 -x,1/2+y,1/2-z
4 1/2+x,1/2-y,-z
5 -x,-y,-z
6 -1/2+x,y,-1/2-z
7 x,-1/2-y,-1/2+z
8 -1/2-x,-1/2+y,z
_cell_length_a 11.6537(9)
_cell_length_b 8.9902(7)
_cell_length_c 37.502(3)
_cell_angle_alpha 90
_cell_angle_beta 90
_cell_angle_gamma 90
_cell_formula_units_Z 8
loop_
_atom_type_symbol
_atom_type_radius_bond
C 0.68
H 0.23
N 0.68
O 0.68
loop_
_atom_site_label
_atom_site_type_symbol
_atom_site_fract_x
_atom_site_fract_y
_atom_site_fract_z
N1 N 0.46560(11) 0.53227(15) 0.15814(4)
N2 N 0.38523(11) 0.38420(15) 0.11360(4)
O1 O 0.64701(12) 0.6145(2) 0.16863(5)
O2 O 0.49894(10) 0.70385(12) 0.19995(3)
O3 O 0.34343(9) 0.51404(13) 0.09278(3)
O4 O 0.08298(11) 0.37813(18) 0.05544(4)
O5 O 0.26213(14) 0.3283(2) 0.04076(4)
O6 O 0.29554(10) 0.57960(15) 0.18961(4)
C1 C 0.59674(17) 0.3950(2) 0.06959(5)
H1 H 0.64400 0.44340 0.05170
H2 H 0.52550 0.36490 0.05830
C2 C 0.65863(17) 0.2589(3) 0.08379(6)
H3 H 0.67210 0.18960 0.06440
H4 H 0.73250 0.28830 0.09340
C3 C 0.58911(17) 0.1827(2) 0.11270(6)
H5 H 0.63350 0.10140 0.12270
H6 H 0.51990 0.14120 0.10230
C4 C 0.55659(15) 0.29006(19) 0.14233(5)
H7 H 0.62520 0.31840 0.15530
H8 H 0.50550 0.24020 0.15890
C5 C 0.49776(13) 0.42998(17) 0.12815(4)
C6 C 0.57125(14) 0.5034(2) 0.09959(5)
H9 H 0.53130 0.58940 0.09010
H10 H 0.64270 0.53730 0.11010
C7 C 0.54680(15) 0.6204(2) 0.17574(5)
C8 C 0.56582(15) 0.81746(19) 0.21978(5)
C9 C 0.6651(2) 0.7513(3) 0.23933(8)
H11 H 0.63870 0.67100 0.25400
H12 H 0.70020 0.82600 0.25400
H13 H 0.72030 0.71450 0.22250
C10 C 0.4777(2) 0.8741(3) 0.24538(9)
H14 H 0.41400 0.91460 0.23240
H15 H 0.51100 0.95020 0.26010
H16 H 0.45150 0.79380 0.26020
C11 C 0.6016(3) 0.9350(3) 0.19396(8)
H17 H 0.65820 0.89530 0.17800
H18 H 0.63360 1.01770 0.20670
H19 H 0.53610 0.96760 0.18060
C12 C 0.34991(13) 0.51439(18) 0.16734(4)
C13 C 0.30425(13) 0.39172(18) 0.14353(4)
H20 H 0.30250 0.29690 0.15640
C14 C 0.18874(14) 0.4229(2) 0.12654(5)
H21 H 0.14460 0.49330 0.14050
H22 H 0.14460 0.33230 0.12350
C15 C 0.22375(13) 0.4893(2) 0.09047(5)
H23 H 0.18490 0.58510 0.08730
C16 C 0.19506(16) 0.3898(2) 0.05922(5)
C17 C 0.0419(2) 0.2856(3) 0.02651(6)
H24 H 0.05760 0.18170 0.03150
H25 H 0.08010 0.31230 0.00440
C18 C -0.0820(2) 0.3099(4) 0.02329(8)
H26 H -0.11820 0.29080 0.04580
H27 H -0.11290 0.24370 0.00560
H28 H -0.09630 0.41090 0.01630
#END
