
#######################################################################
#
#                 Cambridge Crystallographic Data Centre
#                                CCDC
#
#######################################################################
#
# If this CIF has been generated from an entry in the Cambridge
# Structural Database, then it will include bibliographic, chemical,
# crystal, experimental, refinement or atomic coordinate data resulting
# from the CCDC's data processing and validation procedures.
#
#######################################################################

data_CSD_CIF_ODOGIZ
_audit_creation_date 2013-08-24
_audit_creation_method CSD-ConQuest-V1
_database_code_CSD ODOGIZ
_database_code_depnum_ccdc_archive 'CCDC 869469'
_chemical_formula_sum 'C25 H35 N3 O10'
_chemical_formula_moiety
;
C25 H35 N3 O10
;
_journal_coden_Cambridge 1291
_journal_year 2013
_journal_page_first 6677
_journal_name_full 'Eur.J.Org.Chem. '
loop_
_publ_author_name
"Huy-Dinh Vu"
"J.Renault"
"L.Toupet"
"P.Uriac"
"N.Gouault"
_chemical_name_systematic
;
Di-t-butyl 4-((3,5-dinitrobenzoyl)oxy)-6-propylpiperidine-1,2-dicarboxylate
;
_cell_volume   1349.133
_exptl_crystal_colour 'colorless'
_exptl_crystal_density_diffrn 1.323
_exptl_crystal_description 'prism'
_diffrn_ambient_temperature 140
#These two values have been output from a single CSD field.
_refine_ls_R_factor_gt 0.0414
_refine_ls_wR_factor_gt 0.0414
_symmetry_cell_setting triclinic
_symmetry_space_group_name_H-M 'P -1'
_symmetry_Int_Tables_number 2
loop_
_symmetry_equiv_pos_site_id
_symmetry_equiv_pos_as_xyz
1 x,y,z
2 -x,-y,-z
_cell_length_a 10.4052(4)
_cell_length_b 12.2560(5)
_cell_length_c 12.4804(5)
_cell_angle_alpha 95.763(3)
_cell_angle_beta 110.587(4)
_cell_angle_gamma 110.528(4)
_cell_formula_units_Z 2
loop_
_atom_type_symbol
_atom_type_radius_bond
C 0.68
H 0.23
N 0.68
O 0.68
loop_
_atom_site_label
_atom_site_type_symbol
_atom_site_fract_x
_atom_site_fract_y
_atom_site_fract_z
O1 O 0.16399(12) 0.21014(10) 0.21119(10)
O2 O 0.20481(13) 0.04068(10) 0.19286(10)
O3 O 0.54804(13) 0.36346(10) 0.37366(10)
O4 O 0.58748(12) 0.51935(10) 0.28829(10)
O5 O 0.61580(12) 0.33431(10) -0.02607(9)
O6 O 0.79523(13) 0.51438(11) 0.09213(11)
O7 O 0.57170(18) 0.20322(14) -0.42340(12)
O8 O 0.76913(17) 0.29031(14) -0.45847(12)
O9 O 1.08437(15) 0.71059(13) -0.25155(13)
O10 O 1.12968(14) 0.76187(14) -0.06699(14)
N1 N 0.34722(14) 0.20174(11) 0.15506(11)
N2 N 0.6942(2) 0.28516(16) -0.40055(14)
N3 N 1.05877(17) 0.69258(16) -0.16514(17)
C1 C 0.43287(18) 0.13299(14) 0.13624(14)
H1 H 0.35900 0.04680 0.10080
C2 C 0.49214(18) 0.17302(14) 0.04394(14)
H2 H 0.56540 0.13910 0.04330
H3 H 0.40710 0.14050 -0.03550
C3 C 0.56722(18) 0.30810(14) 0.06868(14)
H4 H 0.65650 0.34190 0.14700
C4 C 0.45700(18) 0.36177(15) 0.06791(14)
H5 H 0.36980 0.32940 -0.01030
H6 H 0.50630 0.45040 0.08210
C5 C 0.40291(17) 0.33073(14) 0.16438(14)
H7 H 0.31530 0.35250 0.15020
C6 C 0.55490(18) 0.13695(14) 0.25188(14)
H8 H 0.64210 0.21620 0.27970
H9 H 0.51440 0.12920 0.31300
C7 C 0.6086(2) 0.03830(16) 0.23873(16)
H10 H 0.52050 -0.04080 0.20590
H11 H 0.65550 0.04930 0.18170
C8 C 0.7211(2) 0.03757(19) 0.35435(18)
H12 H 0.75200 -0.02760 0.34100
H13 H 0.67470 0.02480 0.41070
H14 H 0.80960 0.11500 0.38650
C9 C 0.23229(17) 0.15506(14) 0.18936(13)
C10 C 0.08797(18) -0.03027(14) 0.22901(15)
C11 C 0.1200(3) 0.0301(2) 0.35181(17)
H15 H 0.22080 0.04130 0.40640
H16 H 0.04460 -0.02030 0.37660
H17 H 0.11550 0.10870 0.35280
C12 C -0.0639(2) -0.0499(2) 0.1420(2)
H18 H -0.08000 -0.08860 0.06300
H19 H -0.07080 0.02780 0.14150
H20 H -0.14110 -0.10180 0.16420
C13 C 0.1111(3) -0.14585(18) 0.2287(3)
H21 H 0.21230 -0.12840 0.28750
H22 H 0.10050 -0.18010 0.15000
H23 H 0.03550 -0.20370 0.24830
C14 C 0.52171(17) 0.40386(14) 0.28887(15)
C15 C 0.72225(19) 0.60759(15) 0.39315(15)
C16 C 0.8477(2) 0.56559(18) 0.41624(17)
H24 H 0.86710 0.55670 0.34520
H25 H 0.81790 0.48790 0.43620
H26 H 0.93950 0.62510 0.48230
C17 C 0.7575(2) 0.72145(17) 0.34981(19)
H27 H 0.67510 0.74710 0.33600
H28 H 0.76870 0.70540 0.27580
H29 H 0.85160 0.78540 0.40970
C18 C 0.6838(2) 0.62359(16) 0.49777(17)
H30 H 0.60240 0.65100 0.47740
H31 H 0.77300 0.68360 0.56540
H32 H 0.65090 0.54650 0.51850
C19 C 0.73116(18) 0.43934(16) -0.00125(16)
C20 C 0.77522(18) 0.45411(16) -0.10223(15)
C21 C 0.7074(2) 0.36366(16) -0.20588(15)
H33 H 0.62700 0.28980 -0.21670
C22 C 0.7592(2) 0.38314(17) -0.29325(15)
C23 C 0.8734(2) 0.48977(18) -0.28256(16)
H34 H 0.90730 0.50150 -0.34370
C24 C 0.93579(18) 0.57813(16) -0.17998(16)
C25 C 0.89082(18) 0.56267(16) -0.08873(15)
H35 H 0.93800 0.62510 -0.01800
#END
