
#######################################################################
#
#                 Cambridge Crystallographic Data Centre
#                                CCDC
#
#######################################################################
#
# If this CIF has been generated from an entry in the Cambridge
# Structural Database, then it will include bibliographic, chemical,
# crystal, experimental, refinement or atomic coordinate data resulting
# from the CCDC's data processing and validation procedures.
#
#######################################################################

data_CSD_CIF_ODOVEL
_audit_creation_date 2018-08-25
_audit_creation_method CSD-ConQuest-V1
_database_code_CSD ODOVEL
_database_code_depnum_ccdc_archive 'CCDC 1500760'
_chemical_formula_sum 'C10 H13 N1 O3'
_chemical_formula_moiety
;
C10 H13 N1 O3
;
_journal_coden_Cambridge 16
_journal_volume 74
_journal_year 2018
_journal_page_first 5791
_journal_name_full 'Tetrahedron '
loop_
_publ_author_name
"Jisheng Luo"
"Changmin Xie"
"Yuping Zhang"
"Sha-Hua Huang"
"Lili Zhu"
"Ran Hong"
_chemical_name_systematic
;
2-methoxy-3-oxo-2-azabicyclo[3.3.1]non-6-ene-6-carbaldehyde
;
_cell_volume    965.792
_exptl_crystal_colour 'colorless'
_exptl_crystal_density_diffrn 1.343
_exptl_crystal_description 'prismatic'
_diffrn_ambient_temperature 293
#These two values have been output from a single CSD field.
_refine_ls_R_factor_gt 0.033
_refine_ls_wR_factor_gt 0.033
_symmetry_cell_setting orthorhombic
_symmetry_space_group_name_H-M 'P c a 21'
_symmetry_Int_Tables_number 29
loop_
_symmetry_equiv_pos_site_id
_symmetry_equiv_pos_as_xyz
1 x,y,z
2 -x,-y,1/2+z
3 1/2+x,-y,z
4 1/2-x,y,1/2+z
_cell_length_a 9.4727(17)
_cell_length_b 7.3476(13)
_cell_length_c 13.876(3)
_cell_angle_alpha 90
_cell_angle_beta 90
_cell_angle_gamma 90
_cell_formula_units_Z 4
loop_
_atom_type_symbol
_atom_type_radius_bond
C 0.68
H 0.23
N 0.68
O 0.68
loop_
_atom_site_label
_atom_site_type_symbol
_atom_site_fract_x
_atom_site_fract_y
_atom_site_fract_z
N1 N 0.1411(2) 0.7560(3) 0.47588(16)
O1 O 0.0637(2) 0.5203(3) 0.56388(15)
O2 O 0.0279(2) 0.8600(3) 0.50762(16)
O3 O 0.2795(2) 0.2227(3) 0.2477(2)
C1 C 0.1435(2) 0.5805(4) 0.50321(17)
C2 C 0.2532(3) 0.4637(3) 0.45670(19)
H1 H 0.21110 0.34690 0.44140
H2 H 0.32800 0.44210 0.50300
C3 C 0.3186(2) 0.5410(3) 0.36540(18)
H3 H 0.40530 0.47380 0.35070
C4 C 0.3547(3) 0.7379(4) 0.3832(2)
H4 H 0.41230 0.74920 0.44070
H5 H 0.40730 0.78680 0.32910
C5 C 0.2184(3) 0.8404(3) 0.3958(2)
H6 H 0.24020 0.96670 0.41290
C6 C 0.1310(4) 0.8397(4) 0.3042(2)
H7 H 0.03390 0.86900 0.32000
H8 H 0.16610 0.93320 0.26100
C7 C 0.1356(3) 0.6617(3) 0.25456(18)
H9 H 0.07650 0.64400 0.20190
C8 C 0.2192(3) 0.5263(3) 0.28102(18)
C9 C 0.2120(3) 0.3562(4) 0.2285(2)
H10 H 0.15080 0.34990 0.17620
C10 C 0.0686(5) 0.9622(5) 0.5903(3)
H11 H 0.09380 0.88050 0.64140
H12 H -0.00880 1.03740 0.61050
H13 H 0.14810 1.03760 0.57450
#END
