
#######################################################################
#
#                 Cambridge Crystallographic Data Centre
#                                CCDC
#
#######################################################################
#
# If this CIF has been generated from an entry in the Cambridge
# Structural Database, then it will include bibliographic, chemical,
# crystal, experimental, refinement or atomic coordinate data resulting
# from the CCDC's data processing and validation procedures.
#
#######################################################################

data_CSD_CIF_ODOWOW
_audit_creation_date 2018-08-25
_audit_creation_method CSD-ConQuest-V1
_database_code_CSD ODOWOW
_database_code_depnum_ccdc_archive 'CCDC 1533107'
_chemical_formula_sum 'C21 H16 N2 O6'
_chemical_formula_moiety
;
C21 H16 N2 O6
;
_journal_coden_Cambridge 16
_journal_volume 74
_journal_year 2018
_journal_page_first 5839
_journal_name_full 'Tetrahedron '
loop_
_publ_author_name
"C.Bayrak"
"H.Senol"
"S.Sirtbasi"
"E.Sahin"
"A.Menzek"
_chemical_name_systematic
;
(1',4'-dihydrospiro[cyclopropane-1,9'-[1,4]methanonaphthalen]-2-yl)methyl 
3,5-dinitrobenzoate
;
_cell_volume    915.863
_exptl_crystal_colour 'colorless'
_exptl_crystal_density_diffrn 1.423
_exptl_crystal_description 'prism'
_diffrn_ambient_temperature 293
#These two values have been output from a single CSD field.
_refine_ls_R_factor_gt 0.099
_refine_ls_wR_factor_gt 0.099
_symmetry_cell_setting triclinic
_symmetry_space_group_name_H-M 'P -1'
_symmetry_Int_Tables_number 2
loop_
_symmetry_equiv_pos_site_id
_symmetry_equiv_pos_as_xyz
1 x,y,z
2 -x,-y,-z
_cell_length_a 5.9026(3)
_cell_length_b 11.4783(6)
_cell_length_c 13.7222(9)
_cell_angle_alpha 86.606(9)
_cell_angle_beta 87.113(9)
_cell_angle_gamma 81.005(8)
_cell_formula_units_Z 2
loop_
_atom_type_symbol
_atom_type_radius_bond
C 0.68
H 0.23
N 0.68
O 0.68
loop_
_atom_site_label
_atom_site_type_symbol
_atom_site_fract_x
_atom_site_fract_y
_atom_site_fract_z
O1 O 0.2510(7) 0.2306(3) 0.8863(3)
C1 C 0.4325(10) 0.3972(5) 0.8603(4)
C2 C 0.4981(9) 0.1347(5) 0.6755(4)
C3 C 0.5925(10) 0.5756(5) 0.8427(4)
O2 O 0.8986(8) 0.6036(4) 0.9315(3)
C4 C 0.2949(8) 0.1399(4) 0.6262(4)
C5 C 0.2732(10) 0.4423(5) 0.7917(4)
H1 H 0.16260 0.39850 0.77480
O3 O 0.5835(8) 0.2281(4) 0.9578(4)
C6 C 0.2700(9) 0.0063(4) 0.7584(4)
C7 C 0.2814(10) 0.5536(5) 0.7488(4)
N1 N 0.7628(10) 0.6468(5) 0.8715(4)
C8 C 0.3834(11) -0.0717(5) 0.6082(4)
H2 H 0.36390 -0.11790 0.55670
C9 C 0.5543(10) 0.3199(5) 0.5990(4)
H3 H 0.64260 0.38030 0.58960
C10 C 0.597(1) 0.4643(5) 0.8852(4)
H4 H 0.70750 0.43400 0.92980
O4 O -0.0398(8) 0.5447(4) 0.6618(4)
O5 O 0.7585(10) 0.7450(5) 0.8334(4)
C11 C 0.5712(10) -0.0779(5) 0.6564(4)
H5 H 0.70700 -0.12950 0.64560
C12 C 0.4336(12) 0.2768(6) 0.9078(4)
C13 C 0.5276(8) 0.0157(5) 0.7344(4)
H6 H 0.63070 0.00620 0.78910
C14 C 0.1260(9) 0.0571(4) 0.8422(4)
H7 H -0.03120 0.09300 0.82750
C15 C 0.2007(9) 0.0242(5) 0.6507(4)
H8 H 0.04000 0.02220 0.63710
C16 C 0.1815(10) -0.0758(5) 0.8333(4)
H9 H 0.28980 -0.12010 0.87780
H10 H 0.05930 -0.11700 0.81570
C17 C 0.4372(10) 0.6231(5) 0.7730(4)
H11 H 0.43860 0.69840 0.74410
C18 C 0.3539(11) 0.3264(5) 0.5493(4)
H12 H 0.30730 0.39110 0.50710
C19 C 0.2227(11) 0.2356(5) 0.5629(4)
H13 H 0.08790 0.23910 0.52980
C20 C 0.2309(11) 0.1099(5) 0.9215(4)
H14 H 0.13460 0.11000 0.98090
H15 H 0.38090 0.06570 0.93490
N2 N 0.1125(10) 0.6003(5) 0.6764(4)
O6 O 0.1361(10) 0.6937(5) 0.6330(4)
C21 C 0.6249(10) 0.2236(5) 0.6629(4)
H16 H 0.75840 0.22040 0.69680
#END
