
#######################################################################
#
#                 Cambridge Crystallographic Data Centre
#                                CCDC
#
#######################################################################
#
# If this CIF has been generated from an entry in the Cambridge
# Structural Database, then it will include bibliographic, chemical,
# crystal, experimental, refinement or atomic coordinate data resulting
# from the CCDC's data processing and validation procedures.
#
#######################################################################

data_CSD_CIF_OFEMUI
_audit_creation_date 2007-09-28
_audit_creation_method CSD-ConQuest-V1
_database_code_CSD OFEMUI
_database_code_depnum_ccdc_archive 'CCDC 657697'
_chemical_formula_sum 'C9 H19 N2 O1'
_chemical_formula_moiety
;
C9 H19 N2 O1
;
_journal_coeditor_code "IUCr CF2110"
_journal_coden_Cambridge 1370
_journal_volume 63
_journal_year 2007
_journal_page_first o3414
_journal_name_full 'Acta Crystallogr.,Sect.E:Struct.Rep.Online '
loop_
_publ_author_name
"J.-P.Legros"
"D.De Caro"
"H.Casellas"
_chemical_name_systematic
;
4-Amino-2,2,6,6-tetramethylpiperidine 1-oxyl radical
;
_cell_volume   1024.552
_exptl_crystal_colour 'orange'
_exptl_crystal_density_diffrn 1.11
_exptl_crystal_description 'block'
_exptl_crystal_preparation 'ethanol'
_diffrn_ambient_temperature 160
#These two values have been output from a single CSD field.
_refine_ls_R_factor_gt 0.0397
_refine_ls_wR_factor_gt 0.0397
_symmetry_cell_setting monoclinic
_symmetry_space_group_name_H-M 'P 21/n'
_symmetry_Int_Tables_number 14
loop_
_symmetry_equiv_pos_site_id
_symmetry_equiv_pos_as_xyz
1 x,y,z
2 1/2-x,1/2+y,1/2-z
3 -x,-y,-z
4 -1/2+x,-1/2-y,-1/2+z
_cell_length_a 5.721(2)
_cell_length_b 12.919(3)
_cell_length_c 13.955(4)
_cell_angle_alpha 90
_cell_angle_beta 96.61(4)
_cell_angle_gamma 90
_cell_formula_units_Z 4
loop_
_atom_type_symbol
_atom_type_radius_bond
C 0.68
H 0.23
N 0.68
O 0.68
loop_
_atom_site_label
_atom_site_type_symbol
_atom_site_fract_x
_atom_site_fract_y
_atom_site_fract_z
O1 O 0.46460(17) 0.20119(8) 0.24316(7)
N1 N 0.31364(17) 0.13055(8) 0.25724(7)
N2 N -0.2107(3) -0.09139(10) 0.30952(11)
H1 H -0.114(3) -0.1495(15) 0.3104(12)
H2 H -0.317(3) -0.0991(14) 0.2623(13)
C1 C 0.2392(2) 0.1259(1) 0.35662(8)
C2 C 0.1046(2) 0.0259(1) 0.36838(9)
H3 H 0.032(3) 0.0296(13) 0.4281(12)
H4 H 0.216(3) -0.0332(14) 0.3748(12)
C3 C -0.0812(2) 0.00122(10) 0.28541(9)
H5 H -0.197(3) 0.0590(14) 0.2763(12)
C4 C 0.0425(2) -0.00881(11) 0.19495(9)
H6 H -0.073(3) -0.0298(13) 0.1371(12)
H7 H 0.159(3) -0.0678(14) 0.2042(12)
C5 C 0.1728(2) 0.08874(11) 0.16905(8)
C6 C 0.4609(3) 0.12765(14) 0.42811(10)
H8 H 0.545(3) 0.1949(14) 0.4229(12)
H9 H 0.569(3) 0.0673(14) 0.4148(12)
H10 H 0.415(3) 0.1198(13) 0.4950(13)
C7 C 0.0874(3) 0.22064(11) 0.37282(11)
H11 H 0.054(3) 0.2228(13) 0.4410(13)
H12 H -0.070(3) 0.2211(13) 0.3335(12)
H13 H 0.175(3) 0.2829(14) 0.3599(12)
C8 C 0.0025(3) 0.17256(13) 0.12663(11)
H14 H -0.128(3) 0.1862(13) 0.1671(12)
H15 H -0.068(3) 0.1477(13) 0.0618(13)
H16 H 0.085(3) 0.2351(15) 0.1202(12)
C9 C 0.3451(3) 0.06182(15) 0.0969(1)
H17 H 0.467(3) 0.0109(14) 0.1262(12)
H18 H 0.255(3) 0.0272(13) 0.0418(12)
H19 H 0.421(3) 0.1224(14) 0.0765(12)
#END
