
#######################################################################
#
#                 Cambridge Crystallographic Data Centre
#                                CCDC
#
#######################################################################
#
# If this CIF has been generated from an entry in the Cambridge
# Structural Database, then it will include bibliographic, chemical,
# crystal, experimental, refinement or atomic coordinate data resulting
# from the CCDC's data processing and validation procedures.
#
#######################################################################

data_CSD_CIF_OFENAR
_audit_creation_date 2018-08-28
_audit_creation_method CSD-ConQuest-V1
_database_code_CSD OFENAR
_database_code_depnum_ccdc_archive 'CCDC 1569135'
_chemical_formula_sum 'C17 H17 N5 O3'
_chemical_formula_moiety
;
C17 H17 N5 O3
;
_journal_coden_Cambridge 119
_journal_volume 1176
_journal_year 2019
_journal_page_first 149
_journal_name_full 'J.Mol.Struct. '
loop_
_publ_author_name
"Yingying Chai"
"Changfu Li"
"Liying Meng"
"Xinglong Zhou"
"Zhenqiang Xia"
"Weimin Li"
"Yang He"
_chemical_name_systematic
;
2-nitro-5-[4-(4-oxa-1-azabicyclo[4.1.0]heptan-7-yl)phenyl][1,2,4]triazolo[1,5-
a]pyridine
;
_cell_volume   3218.957
_exptl_crystal_colour 'colorless'
_exptl_crystal_density_diffrn 1.4
_exptl_crystal_description 'needle'
_diffrn_ambient_temperature 170
_refine_special_details
;
C10,C11,C12,C13,C7,C8,C9 and C10',C11',C12',C13',C7',C8',C9' disordered over 
two sites with occupancies 0.5:0.5; C14',C15',C16',C17',N5',O3' and 
C14,C15,C16,C17,N5,O3 disordered over two sites with occupancies 0.65:0.35.
;
#These two values have been output from a single CSD field.
_refine_ls_R_factor_gt 0.0621
_refine_ls_wR_factor_gt 0.0621
_symmetry_cell_setting monoclinic
_symmetry_space_group_name_H-M 'C 2/c'
_symmetry_Int_Tables_number 15
loop_
_symmetry_equiv_pos_site_id
_symmetry_equiv_pos_as_xyz
1 x,y,z
2 -x,y,1/2-z
3 1/2+x,1/2+y,z
4 1/2-x,1/2+y,1/2-z
5 -x,-y,-z
6 x,-y,-1/2+z
7 -1/2-x,-1/2-y,-z
8 -1/2+x,-1/2-y,-1/2+z
_cell_length_a 18.9470(7)
_cell_length_b 6.6831(2)
_cell_length_c 25.5389(9)
_cell_angle_alpha 90
_cell_angle_beta 95.502(2)
_cell_angle_gamma 90
_cell_formula_units_Z 8
loop_
_atom_type_symbol
_atom_type_radius_bond
C 0.68
H 0.23
N 0.68
O 0.68
loop_
_atom_site_label
_atom_site_type_symbol
_atom_site_fract_x
_atom_site_fract_y
_atom_site_fract_z
O1 O 0.84222(9) 0.2851(3) 0.45038(8)
N1 N 0.62325(9) 0.0886(3) 0.42786(7)
O2 O 0.7709(1) 0.4998(3) 0.40914(8)
N2 N 0.66002(10) 0.2580(3) 0.41731(7)
N3 N 0.73541(10) 0.0198(3) 0.45552(7)
N4 N 0.78368(10) 0.3396(3) 0.43097(8)
C1 C 0.72479(11) 0.2009(4) 0.43496(9)
C2 C 0.66894(12) -0.0542(4) 0.45074(9)
C3 C 0.55082(12) 0.0613(4) 0.41768(9)
C4 C 0.52642(14) -0.1206(4) 0.43208(12)
H1 H 0.47710 -0.14800 0.42590
C5 C 0.64253(13) -0.2390(4) 0.46519(11)
H2 H 0.67310 -0.33940 0.48100
C6 C 0.57170(14) -0.2702(4) 0.45587(13)
H3 H 0.55220 -0.39430 0.46550
C7 C 0.40443(18) 0.4494(6) 0.33498(18)
C8 C 0.3845(3) 0.3488(10) 0.3789(3)
H4 H 0.33750 0.36130 0.38850
C9 C 0.4333(5) 0.2297(13) 0.4087(3)
H5 H 0.41960 0.16100 0.43860
C10 C 0.5021(4) 0.2114(12) 0.3946(3)
C11 C 0.5220(2) 0.3120(9) 0.3507(3)
H6 H 0.56900 0.29940 0.34110
C12 C 0.47321(19) 0.4310(7) 0.32091(16)
H7 H 0.48690 0.49980 0.29090
N5 N 0.3806(2) 0.7765(8) 0.27573(16)
C13 C 0.3493(4) 0.6453(9) 0.2365(2)
H8 H 0.29820 0.63110 0.24080
H9 H 0.37140 0.51150 0.24130
C14 C 0.3497(3) 0.9748(7) 0.2672(2)
H10 H 0.37290 1.07060 0.29300
H11 H 0.29840 0.97090 0.27190
C15 C 0.3613(6) 1.0453(15) 0.2077(4)
H12 H 0.33820 1.17600 0.19960
H13 H 0.41240 1.05720 0.20320
O3 O 0.3320(3) 0.9057(7) 0.17739(16)
C16 C 0.3580(4) 0.7191(10) 0.1814(2)
H14 H 0.40870 0.71870 0.17500
H15 H 0.33190 0.63110 0.15510
C17 C 0.3475(3) 0.5512(8) 0.2998(2)
H16 H 0.31970 0.44810 0.27900
H17 H 0.31500 0.62040 0.32190
C18? C 0.3699(3) 0.7095(8) 0.32826(18)
H18? H 0.31970 0.66980 0.32910
H19? H 0.37920 0.82270 0.35300
C19? C 0.48641(19) 0.5230(6) 0.33347(16)
H20? H 0.50280 0.61900 0.31000
C20? C 0.41733(19) 0.5332(6) 0.34733(17)
C21? C 0.3934(3) 0.3929(10) 0.3817(3)
H21? H 0.34620 0.39980 0.39120
C22? C 0.4385(4) 0.2423(12) 0.4022(3)
H22? H 0.42220 0.14630 0.42570
C23? C 0.5076(4) 0.2321(10) 0.3883(4)
C24? C 0.5315(2) 0.3724(8) 0.3540(3)
H23? H 0.57880 0.36550 0.34450
C25? C 0.3173(3) 0.7456(9) 0.2207(2)
H24? H 0.27440 0.78190 0.23800
H25? H 0.30600 0.61990 0.20110
C26? C 0.3939(3) 0.8859(10) 0.2920(2)
H26? H 0.35300 0.93710 0.30930
H27? H 0.43320 0.85960 0.31960
C27? C 0.4165(3) 1.0385(10) 0.2547(3)
H28? H 0.43230 1.16160 0.27390
H29? H 0.45660 0.98670 0.23640
O4? O 0.3570(6) 1.0821(14) 0.2170(4)
C28? C 0.3269(19) 0.913(3) 0.1782(7)
H30? H 0.36130 0.87300 0.15320
H31? H 0.28140 0.95130 0.15850
N6? N 0.3738(3) 0.6963(9) 0.2636(2)
#END
