
#######################################################################
#
#                 Cambridge Crystallographic Data Centre
#                                CCDC
#
#######################################################################
#
# If this CIF has been generated from an entry in the Cambridge
# Structural Database, then it will include bibliographic, chemical,
# crystal, experimental, refinement or atomic coordinate data resulting
# from the CCDC's data processing and validation procedures.
#
#######################################################################

data_CSD_CIF_OFEXUS
_audit_creation_date 2002-05-31
_audit_creation_method CSD-ConQuest-V1
_database_code_CSD OFEXUS
_database_code_depnum_ccdc_archive 'CCDC 184915'
_chemical_formula_sum 'C25 H22 N4 O3'
_chemical_formula_moiety
;
C25 H22 N4 O3
;
_journal_coeditor_code "IUCr NA0133"
_journal_coden_Cambridge 622
_journal_volume 58
_journal_year 2002
_journal_page_first 300
_journal_name_full 'Acta Crystallogr.,Sect.B:Struct.Sci. '
loop_
_publ_author_name
"A.Quesada"
"A.Marchal"
"M.Melguizo"
"M.Nogueras"
"A.Sanchez"
"J.N.Low"
"D.Cannon"
"D.M.M.Farrell"
"C.Glidewell"
_chemical_name_systematic
;
2-Benzylamino-4,6-bis(benzyloxy)-5-nitrosopyrimidine
;
_cell_volume   2146.540
_exptl_crystal_colour 'green'
_exptl_crystal_density_diffrn 1.32
_exptl_crystal_description 'prism'
_diffrn_ambient_temperature 150
#These two values have been output from a single CSD field.
_refine_ls_R_factor_gt 0.0508
_refine_ls_wR_factor_gt 0.0508
_symmetry_cell_setting monoclinic
_symmetry_space_group_name_H-M 'P 21/c'
_symmetry_Int_Tables_number 14
loop_
_symmetry_equiv_pos_site_id
_symmetry_equiv_pos_as_xyz
1 x,y,z
2 x,1/2-y,1/2+z
3 -x,-y,-z
4 -x,-1/2+y,-1/2-z
_cell_length_a 13.8074(3)
_cell_length_b 15.8175(5)
_cell_length_c 10.2119(5)
_cell_angle_alpha 90
_cell_angle_beta 105.7490(11)
_cell_angle_gamma 90
_cell_formula_units_Z 4
loop_
_atom_type_symbol
_atom_type_radius_bond
C 0.68
H 0.23
N 0.68
O 0.68
loop_
_atom_site_label
_atom_site_type_symbol
_atom_site_fract_x
_atom_site_fract_y
_atom_site_fract_z
N1 N 0.50015(9) 0.07931(8) 0.71271(13)
C1 C 0.44359(11) 0.04696(10) 0.79069(15)
N2 N 0.44874(9) -0.03624(8) 0.80871(12)
C2 C 0.39516(12) -0.08108(10) 0.89206(16)
C3 C 0.28385(12) -0.09128(9) 0.82721(15)
C4 C 0.24601(12) -0.10293(10) 0.68817(15)
C5 C 0.14445(13) -0.11537(11) 0.63036(17)
C6 C 0.07894(13) -0.11672(11) 0.70990(18)
C7 C 0.11585(14) -0.10532(12) 0.84851(18)
C8 C 0.21739(13) -0.09243(11) 0.90681(16)
N3 N 0.38383(9) 0.08991(8) 0.85227(12)
C9 C 0.38463(11) 0.17287(10) 0.83976(15)
O1 O 0.32632(8) 0.21897(6) 0.89488(11)
C10 C 0.26184(12) 0.17548(10) 0.96309(16)
C11 C 0.20379(11) 0.24149(10) 1.01514(14)
C12 C 0.22755(12) 0.32645(10) 1.01768(16)
C13 C 0.17441(13) 0.38493(11) 1.07158(17)
C14 C 0.09707(13) 0.35963(12) 1.12310(17)
C15 C 0.07141(14) 0.27519(12) 1.11936(18)
C16 C 0.12455(13) 0.21646(11) 1.06500(17)
C17 C 0.44612(11) 0.21630(9) 0.77017(16)
N4 N 0.45786(10) 0.30110(8) 0.75387(14)
O2 O 0.41075(9) 0.35166(7) 0.80862(12)
C18 C 0.50100(11) 0.16199(10) 0.70490(16)
O3 O 0.55547(8) 0.19977(7) 0.63249(11)
C19 C 0.61012(12) 0.14607(11) 0.56116(17)
C20 C 0.70814(12) 0.11442(10) 0.65098(15)
C21 C 0.78388(13) 0.17051(11) 0.71259(16)
C22 C 0.87612(14) 0.14156(13) 0.78880(17)
C23 C 0.89430(14) 0.05579(13) 0.80209(18)
C24 C 0.81958(15) -0.00022(12) 0.74110(18)
C25 C 0.72629(14) 0.02845(11) 0.66715(17)
H1 H 0.48640 -0.06570 0.76830
H2 H 0.40480 -0.05030 0.97910
H3 H 0.42550 -0.13790 0.91350
H4 H 0.29060 -0.10230 0.63180
H5 H 0.11980 -0.12300 0.53480
H6 H 0.00900 -0.12540 0.67020
H7 H 0.07100 -0.10630 0.90440
H8 H 0.24170 -0.08430 1.00230
H9 H 0.30270 0.14130 1.03950
H10 H 0.21520 0.13730 0.89890
H11 H 0.28080 0.34490 0.98210
H12 H 0.19170 0.44310 1.07290
H13 H 0.06140 0.40000 1.16110
H14 H 0.01750 0.25720 1.15390
H15 H 0.10630 0.15840 1.06200
H16 H 0.62340 0.17840 0.48480
H17 H 0.56740 0.09710 0.52220
H18 H 0.77210 0.22960 0.70220
H19 H 0.92710 0.18060 0.83210
H20 H 0.95820 0.03560 0.85320
H21 H 0.83220 -0.05930 0.74990
H22 H 0.67460 -0.01080 0.62740
#END
