
#######################################################################
#
#                 Cambridge Crystallographic Data Centre
#                                CCDC
#
#######################################################################
#
# If this CIF has been generated from an entry in the Cambridge
# Structural Database, then it will include bibliographic, chemical,
# crystal, experimental, refinement or atomic coordinate data resulting
# from the CCDC's data processing and validation procedures.
#
#######################################################################

data_CSD_CIF_OFEXAY01
_audit_creation_date 2002-05-31
_audit_creation_method CSD-ConQuest-V1
_database_code_CSD OFEXAY01
_database_code_depnum_ccdc_archive 'CCDC 184910'
_chemical_formula_sum 'C16 H19 N5 O4'
_chemical_formula_moiety
;
C16 H19 N5 O4
;
_journal_coeditor_code "IUCr NA0133"
_journal_coden_Cambridge 622
_journal_volume 58
_journal_year 2002
_journal_page_first 300
_journal_name_full 'Acta Crystallogr.,Sect.B:Struct.Sci. '
loop_
_publ_author_name
"A.Quesada"
"A.Marchal"
"M.Melguizo"
"M.Nogueras"
"A.Sanchez"
"J.N.Low"
"D.Cannon"
"D.M.M.Farrell"
"C.Glidewell"
_chemical_name_systematic
;
Ethyl N-(2-amino-6 benzyloxy-5-nitrosopyrimidin-4-yl)-\b-alaninate
;
_cell_volume   1573.675
_exptl_crystal_colour 'blue'
_exptl_crystal_density_diffrn 1.458
_exptl_special_details
;
polymorph i
potential AGT inhibitor

;
_exptl_crystal_description 'plate'
_diffrn_ambient_temperature 150
#These two values have been output from a single CSD field.
_refine_ls_R_factor_gt 0.1059
_refine_ls_wR_factor_gt 0.1059
_symmetry_cell_setting monoclinic
_symmetry_space_group_name_H-M 'P 21/c'
_symmetry_Int_Tables_number 14
loop_
_symmetry_equiv_pos_site_id
_symmetry_equiv_pos_as_xyz
1 x,y,z
2 x,1/2-y,1/2+z
3 -x,-y,-z
4 -x,-1/2+y,-1/2-z
_cell_length_a 5.2399(16)
_cell_length_b 31.1630(14)
_cell_length_c 9.792(4)
_cell_angle_alpha 90
_cell_angle_beta 100.200(12)
_cell_angle_gamma 90
_cell_formula_units_Z 4
loop_
_atom_type_symbol
_atom_type_radius_bond
C 0.68
H 0.23
N 0.68
O 0.68
loop_
_atom_site_label
_atom_site_type_symbol
_atom_site_fract_x
_atom_site_fract_y
_atom_site_fract_z
N1 N 0.9265(14) 0.4168(2) 0.2453(7)
C1 C 0.9267(19) 0.4508(3) 0.3336(8)
N2 N 1.1277(13) 0.4505(2) 0.4369(7)
N3 N 0.7538(14) 0.4831(2) 0.3308(7)
C2 C 0.5553(18) 0.4809(3) 0.2231(9)
N4 N 0.3830(15) 0.5117(2) 0.2111(7)
C3 C 0.5266(18) 0.4463(3) 0.1260(9)
N5 N 0.3306(15) 0.4405(3) 0.0150(7)
O1 O 0.1513(13) 0.4682(2) -0.0022(6)
C4 C 0.7264(19) 0.4166(3) 0.1428(9)
O2 O 0.7049(12) 0.3841(2) 0.0510(6)
C5 C 0.9058(17) 0.3523(3) 0.0611(9)
C6 C 0.823(2) 0.3201(3) -0.0537(9)
C7 C 0.595(2) 0.3242(3) -0.1459(8)
C8 C 0.540(2) 0.2940(3) -0.2488(10)
C9 C 0.705(2) 0.2605(3) -0.2633(10)
C10 C 0.927(2) 0.2566(3) -0.1678(10)
C11 C 0.990(2) 0.2868(3) -0.0653(10)
C12 C 0.3879(16) 0.5479(3) 0.3068(8)
C13 C 0.1487(16) 0.5752(3) 0.2668(8)
C14 C 0.1156(19) 0.6117(3) 0.3632(9)
O3 O -0.0761(14) 0.6330(2) 0.3515(6)
O4 O 0.3289(12) 0.61788(18) 0.4604(6)
C15 C 0.3154(18) 0.6550(3) 0.5500(9)
C16 C 0.5731(17) 0.6589(3) 0.6409(9)
H1 H 1.14460 0.47080 0.50040
H2 H 1.24420 0.42990 0.44210
H3 H 0.25430 0.51060 0.14000
H4 H 0.92920 0.33790 0.15260
H5 H 1.07210 0.36580 0.05040
H6 H 0.47910 0.34720 -0.13890
H7 H 0.38100 0.29620 -0.31260
H8 H 0.66490 0.24070 -0.33780
H9 H 1.03840 0.23270 -0.17220
H10 H 1.15010 0.28470 -0.00230
H11 H 0.54430 0.56550 0.30480
H12 H 0.39630 0.53700 0.40250
H13 H 0.15040 0.58730 0.17340
H14 H -0.00510 0.55630 0.25930
H15 H 0.17840 0.65080 0.60650
H16 H 0.27540 0.68130 0.49350
H17 H 0.60830 0.63290 0.69770
H18 H 0.57390 0.68390 0.70140
H19 H 0.70720 0.66230 0.58350
#END
