
#######################################################################
#
#                 Cambridge Crystallographic Data Centre
#                                CCDC
#
#######################################################################
#
# If this CIF has been generated from an entry in the Cambridge
# Structural Database, then it will include bibliographic, chemical,
# crystal, experimental, refinement or atomic coordinate data resulting
# from the CCDC's data processing and validation procedures.
#
#######################################################################

data_CSD_CIF_OFEXOM
_audit_creation_date 2002-05-31
_audit_creation_method CSD-ConQuest-V1
_database_code_CSD OFEXOM
_database_code_depnum_ccdc_archive 'CCDC 184914'
_chemical_formula_sum 'C25 H22 N4 O3'
_chemical_formula_moiety
;
C25 H22 N4 O3
;
_journal_coeditor_code "IUCr NA0133"
_journal_coden_Cambridge 622
_journal_volume 58
_journal_year 2002
_journal_page_first 300
_journal_name_full 'Acta Crystallogr.,Sect.B:Struct.Sci. '
loop_
_publ_author_name
"A.Quesada"
"A.Marchal"
"M.Melguizo"
"M.Nogueras"
"A.Sanchez"
"J.N.Low"
"D.Cannon"
"D.M.M.Farrell"
"C.Glidewell"
_chemical_name_systematic
;
4-Benzylamino-2,6-bis(benzyloxy)-5-nitrosopyrimidine
;
_cell_volume   2088.448
_exptl_crystal_colour 'blue'
_exptl_crystal_density_diffrn 1.356
_exptl_special_details
;
potential AGT inhibitor

;
_exptl_crystal_description 'block'
_diffrn_ambient_temperature 150
#These two values have been output from a single CSD field.
_refine_ls_R_factor_gt 0.0473
_refine_ls_wR_factor_gt 0.0473
_symmetry_cell_setting monoclinic
_symmetry_space_group_name_H-M 'P 21/n'
_symmetry_Int_Tables_number 14
loop_
_symmetry_equiv_pos_site_id
_symmetry_equiv_pos_as_xyz
1 x,y,z
2 1/2+x,1/2-y,1/2+z
3 -x,-y,-z
4 -1/2-x,-1/2+y,-1/2-z
_cell_length_a 14.6856(5)
_cell_length_b 7.7726(2)
_cell_length_c 18.5721(8)
_cell_angle_alpha 90
_cell_angle_beta 99.8847(13)
_cell_angle_gamma 90
_cell_formula_units_Z 4
loop_
_atom_type_symbol
_atom_type_radius_bond
C 0.68
H 0.23
N 0.68
O 0.68
loop_
_atom_site_label
_atom_site_type_symbol
_atom_site_fract_x
_atom_site_fract_y
_atom_site_fract_z
N1 N 0.43514(9) 0.16792(15) 0.16313(7)
O1 O 0.31952(7) 0.07676(13) 0.21623(5)
C1 C 0.35082(10) 0.09446(18) 0.15333(8)
C2 C 0.22778(11) 0.0022(2) 0.21259(8)
C3 C 0.19932(10) 0.03258(18) 0.28516(8)
C4 C 0.12115(11) 0.1294(2) 0.29029(8)
C5 C 0.09477(11) 0.1594(2) 0.35703(9)
C6 C 0.14670(12) 0.0927(2) 0.42013(9)
C7 C 0.22444(12) -0.0032(2) 0.41601(9)
C8 C 0.25072(11) -0.03397(19) 0.34911(8)
N2 N 0.29821(8) 0.04188(15) 0.09267(7)
N3 N 0.28347(9) 0.01416(16) -0.03202(7)
C9 C 0.1941(1) -0.07359(19) -0.03837(9)
C10 C 0.11406(10) 0.04965(18) -0.05604(8)
C11 C 0.08642(11) 0.14954(19) -0.00150(9)
C12 C 0.01281(12) 0.2617(2) -0.01754(10)
C13 C -0.03421(12) 0.2755(2) -0.08847(11)
C14 C -0.00747(12) 0.1782(2) -0.14326(10)
C15 C 0.06618(11) 0.0657(2) -0.12697(9)
C16 C 0.33259(10) 0.06754(18) 0.03050(8)
C17 C 0.42021(10) 0.15134(18) 0.03175(8)
N4 N 0.46003(9) 0.19294(17) -0.02671(7)
O2 O 0.41633(8) 0.15117(15) -0.08944(6)
C18 C 0.46822(10) 0.19524(18) 0.10270(8)
O3 O 0.55135(7) 0.26660(14) 0.10635(6)
C19 C 0.59712(11) 0.3188(2) 0.17874(9)
C20 C 0.69605(10) 0.36092(18) 0.17546(8)
C21 C 0.76445(11) 0.2924(2) 0.22820(9)
C22 C 0.85648(12) 0.3358(2) 0.23021(9)
C23 C 0.88094(12) 0.4455(2) 0.17856(9)
C24 C 0.81326(12) 0.51391(19) 0.12521(9)
C25 C 0.72119(11) 0.47310(19) 0.12385(8)
H1 H 0.22940 -0.12270 0.20230
H2 H 0.18350 0.05750 0.17320
H3 H 0.08530 0.17560 0.24720
H4 H 0.04110 0.22570 0.35970
H5 H 0.12870 0.11320 0.46620
H6 H 0.26020 -0.04860 0.45930
H7 H 0.30420 -0.10100 0.34680
H8 H 0.30590 0.03250 -0.07230
H9 H 0.19040 -0.13300 0.00820
H10 H 0.18950 -0.16190 -0.07730
H11 H 0.11850 0.14050 0.04730
H12 H -0.00550 0.32930 0.02010
H13 H -0.08510 0.35210 -0.09950
H14 H -0.03950 0.18840 -0.19210
H15 H 0.08430 -0.00150 -0.16490
H16 H 0.59420 0.22450 0.21410
H17 H 0.56580 0.42080 0.19510
H18 H 0.74820 0.21470 0.26340
H19 H 0.90270 0.28970 0.26730
H20 H 0.94400 0.47420 0.17950
H21 H 0.83000 0.58920 0.08940
H22 H 0.67500 0.52190 0.08750
#END
