
#######################################################################
#
#                 Cambridge Crystallographic Data Centre
#                                CCDC
#
#######################################################################
#
# If this CIF has been generated from an entry in the Cambridge
# Structural Database, then it will include bibliographic, chemical,
# crystal, experimental, refinement or atomic coordinate data resulting
# from the CCDC's data processing and validation procedures.
#
#######################################################################

data_CSD_CIF_OFIHER
_audit_creation_date 2009-01-14
_audit_creation_method CSD-ConQuest-V1
_database_code_CSD OFIHER
_database_code_depnum_ccdc_archive 'CCDC 675444'
_chemical_formula_sum 'C21 H22 N2 O5'
_chemical_formula_moiety
;
C21 H22 N2 O5
;
_journal_coden_Cambridge 1200
_journal_volume 16
_journal_year 2008
_journal_page_first 5952
_journal_name_full 'Bioorg.Med.Chem. '
loop_
_publ_author_name
"C.Alvarez"
"R.Alvarez"
"P.Corchete"
"J.L.Lopez"
"C.Perez-Melero"
"R.Pelaez"
"M.Medarde"
_chemical_name_systematic
;
(Z)-(1-Methyl-1H-indol-5-yl)(3,4,5-trimethoxyphenyl)methanone O-acetyloxime
;
_cell_volume    984.696
_exptl_crystal_density_diffrn 1.29
_diffrn_ambient_temperature 293
#These two values have been output from a single CSD field.
_refine_ls_R_factor_gt 0.0437
_refine_ls_wR_factor_gt 0.0437
_symmetry_cell_setting triclinic
_symmetry_space_group_name_H-M 'P -1'
_symmetry_Int_Tables_number 2
loop_
_symmetry_equiv_pos_site_id
_symmetry_equiv_pos_as_xyz
1 x,y,z
2 -x,-y,-z
_cell_length_a 8.2330(16)
_cell_length_b 10.873(2)
_cell_length_c 12.000(2)
_cell_angle_alpha 97.27(3)
_cell_angle_beta 99.15(3)
_cell_angle_gamma 108.94(3)
_cell_formula_units_Z 2
loop_
_atom_type_symbol
_atom_type_radius_bond
C 0.68
H 0.23
N 0.68
O 0.68
loop_
_atom_site_label
_atom_site_type_symbol
_atom_site_fract_x
_atom_site_fract_y
_atom_site_fract_z
O1 O 0.2819(3) 1.3472(2) 0.38456(19)
O2 O 0.5537(3) 1.2945(2) 0.49466(18)
O3 O 0.6977(3) 1.1426(3) 0.38817(19)
O4 O 0.2495(3) 0.8674(2) 0.05984(17)
O5 O 0.1098(5) 0.6944(3) -0.0845(2)
N1 N 0.1425(4) 1.3684(3) -0.3037(2)
N2 N 0.2264(3) 0.9481(3) -0.0240(2)
C1 C 0.3504(4) 1.1298(3) 0.1495(2)
C2 C 0.2765(4) 1.2122(3) 0.2046(3)
H1 H 0.18480 1.23180 0.16430
C3 C 0.3432(4) 1.2647(3) 0.3216(3)
C4 C 0.4803(4) 1.2360(3) 0.3799(3)
C5 C 0.5571(4) 1.1586(3) 0.3234(3)
C6 C 0.4914(4) 1.1035(3) 0.2075(3)
H2 H 0.54120 1.04980 0.16940
C7 C 0.1777(6) 1.4080(4) 0.3256(3)
H3 H 0.23170 1.44460 0.26620
H4 H 0.16680 1.47760 0.37840
H5 H 0.06320 1.34360 0.29180
C8 C 0.4654(6) 1.2240(5) 0.5725(3)
H6 H 0.34380 1.21540 0.55560
H7 H 0.51850 1.27150 0.64980
H8 H 0.47430 1.13760 0.56470
C9 C 0.7893(5) 1.0722(4) 0.3303(3)
H9 H 0.71270 0.98230 0.30030
H10 H 0.89020 1.07310 0.38350
H11 H 0.82670 1.11390 0.26830
C10 C 0.2733(4) 1.0706(3) 0.0247(3)
C11 C 0.2404(4) 1.1561(3) -0.0564(3)
C12 C 0.0951(4) 1.1074(3) -0.1464(3)
H12 H 0.01360 1.02290 -0.15310
C13 C 0.0708(4) 1.1850(3) -0.2270(3)
C14 C -0.0591(4) 1.1657(4) -0.3280(3)
H13 H -0.15790 1.09030 -0.35840
C15 C -0.0107(5) 1.2785(4) -0.3710(3)
H14 H -0.07280 1.29280 -0.43690
C16 C 0.1954(4) 1.3126(3) -0.2142(3)
C17 C 0.3411(4) 1.3640(3) -0.1240(3)
H15 H 0.42250 1.44870 -0.11650
C18 C 0.3605(4) 1.2845(3) -0.0459(3)
H16 H 0.45650 1.31720 0.01590
C19 C 0.2390(5) 1.4974(4) -0.3255(3)
H17 H 0.34420 1.49530 -0.34920
H18 H 0.26940 1.56270 -0.25660
H19 H 0.16720 1.51960 -0.38520
C20 C 0.1787(5) 0.7362(4) 0.0134(3)
C21 C 0.1997(5) 0.6567(3) 0.1042(3)
H20 H 0.10500 0.64470 0.14400
H21 H 0.30960 0.70250 0.15770
H22 H 0.19790 0.57180 0.06900
#END
