
#######################################################################
#
#                 Cambridge Crystallographic Data Centre
#                                CCDC
#
#######################################################################
#
# If this CIF has been generated from an entry in the Cambridge
# Structural Database, then it will include bibliographic, chemical,
# crystal, experimental, refinement or atomic coordinate data resulting
# from the CCDC's data processing and validation procedures.
#
#######################################################################

data_CSD_CIF_OFOQEF
_audit_creation_date 2002-09-17
_audit_creation_method CSD-ConQuest-V1
_database_code_CSD OFOQEF
_database_code_depnum_ccdc_archive 'CCDC 175175'
_chemical_formula_sum 'C34 H60 N2 O2'
_chemical_formula_moiety
;
C34 H60 N2 O2
;
_journal_coden_Cambridge 1291
_journal_year 2002
_journal_page_first 1803
_journal_name_full 'Eur.J.Org.Chem. '
loop_
_publ_author_name
"J.Leitich"
"I.Heise"
"K.Angermund"
"J.Rust"
_chemical_name_systematic
;
(1S*,1'R*,2S*,4'S*)-(Z,Z)-4,2'-bis(2,2,6,6-Tetramethylpiperidinyloxy)-bicyclo-
octyl-2,3'-diene
;
_chemical_melting_point 426
_cell_volume   6636.656
_exptl_crystal_colour 'white'
_exptl_crystal_density_diffrn 1.059
_exptl_special_details
;
Melting point range 426-429K

;
_exptl_crystal_description 'block'
_exptl_crystal_preparation 'n-pentane'
_diffrn_ambient_temperature 293
#These two values have been output from a single CSD field.
_refine_ls_R_factor_gt 0.0817
_refine_ls_wR_factor_gt 0.0817
_symmetry_cell_setting orthorhombic
_symmetry_space_group_name_H-M 'P b c a'
_symmetry_Int_Tables_number 61
loop_
_symmetry_equiv_pos_site_id
_symmetry_equiv_pos_as_xyz
1 x,y,z
2 1/2+x,y,1/2-z
3 x,1/2-y,1/2+z
4 1/2-x,1/2+y,z
5 -x,-y,-z
6 -1/2-x,-y,-1/2+z
7 -x,-1/2+y,-1/2-z
8 -1/2+x,-1/2-y,-z
_cell_length_a 16.537(4)
_cell_length_b 17.571(3)
_cell_length_c 22.840(4)
_cell_angle_alpha 90
_cell_angle_beta 90
_cell_angle_gamma 90
_cell_formula_units_Z 8
loop_
_atom_type_symbol
_atom_type_radius_bond
C 0.68
H 0.23
N 0.68
O 0.68
loop_
_atom_site_label
_atom_site_type_symbol
_atom_site_fract_x
_atom_site_fract_y
_atom_site_fract_z
C1 C 0.8796(3) 0.1328(3) 0.6011(2)
H1 H 0.82530 0.15290 0.59370
C2 C 0.9317(3) 0.1603(3) 0.5509(2)
H2 H 0.91390 0.14390 0.51440
C3 C 0.9978(3) 0.2033(3) 0.5486(2)
H3 H 1.02050 0.20890 0.51160
C4 C 1.0407(3) 0.2440(3) 0.5969(2)
H4 H 1.04840 0.20940 0.63000
C5 C 0.9937(4) 0.3139(3) 0.6169(3)
H5 H 1.01780 0.33210 0.65300
H6 H 1.00050 0.35350 0.58770
C6 C 0.9041(3) 0.3026(4) 0.6272(3)
H7 H 0.87930 0.28650 0.59070
H8 H 0.88040 0.35120 0.63780
C7 C 0.8834(4) 0.2437(4) 0.6753(3)
H9 H 0.91180 0.25820 0.71080
H10 H 0.82590 0.24730 0.68350
C8 C 0.9032(3) 0.1599(4) 0.6624(2)
H11 H 0.96090 0.15230 0.66750
H12 H 0.87570 0.12830 0.69100
C9 C 1.2285(3) 0.1807(3) 0.5784(3)
C10 C 1.3033(4) 0.1601(4) 0.6151(4)
H13 H 1.33490 0.12240 0.59400
H14 H 1.28560 0.13720 0.65150
C11 C 1.3573(4) 0.2287(5) 0.6289(5)
H15 H 1.40230 0.21320 0.65340
H16 H 1.37880 0.25010 0.59300
C12 C 1.3068(4) 0.2866(5) 0.6601(3)
H17 H 1.28850 0.26530 0.69700
H18 H 1.33990 0.33070 0.66890
C13 C 1.2347(3) 0.3114(4) 0.6253(3)
C14 C 1.2515(4) 0.1999(4) 0.5152(3)
H19 H 1.20340 0.20320 0.49180
H20 H 1.28610 0.16070 0.49990
H21 H 1.27940 0.24780 0.51430
C15 C 1.1720(4) 0.1112(3) 0.5778(3)
H22 H 1.15860 0.09740 0.61720
H23 H 1.19860 0.06940 0.55890
H24 H 1.12340 0.12360 0.55680
C16 C 1.2598(4) 0.3617(4) 0.5746(3)
H25 H 1.29690 0.33460 0.55000
H26 H 1.28540 0.40680 0.58940
H27 H 1.21280 0.37560 0.55230
C17 C 1.1798(4) 0.3606(5) 0.6652(4)
H28 H 1.12450 0.34490 0.66050
H29 H 1.18500 0.41320 0.65440
H30 H 1.19580 0.35410 0.70530
C18 C 0.8723(3) 0.0441(3) 0.5969(3)
H31 H 0.85850 0.03120 0.55640
C19 C 0.8058(3) 0.0116(3) 0.6367(2)
H32 H 0.82570 0.01200 0.67710
C20 C 0.7834(3) -0.0685(3) 0.6212(3)
H33 H 0.73950 -0.07510 0.59630
C21 C 0.8203(4) -0.1306(3) 0.6397(3)
H34 H 0.79880 -0.17720 0.62840
C22 C 0.8937(4) -0.1314(4) 0.6773(3)
H35 H 0.89270 -0.08730 0.70290
H36 H 0.89260 -0.17640 0.70180
C23 C 0.9716(4) -0.1308(4) 0.6427(4)
H37 H 0.97970 -0.18090 0.62580
H38 H 1.01610 -0.12120 0.66930
C24 C 0.9741(5) -0.0722(5) 0.5940(4)
H39 H 1.02730 -0.07410 0.57620
H40 H 0.93530 -0.08710 0.56430
C25 C 0.9571(4) 0.0082(4) 0.6108(3)
H41 H 0.99770 0.03980 0.59210
H42 H 0.96570 0.01240 0.65270
C26 C 0.6385(4) 0.0541(3) 0.7069(3)
C27 C 0.5516(4) 0.0269(4) 0.7172(3)
H43 H 0.55030 -0.02820 0.71480
H44 H 0.53520 0.04120 0.75640
C28 C 0.4922(4) 0.0589(5) 0.6743(4)
H45 H 0.43870 0.03840 0.68180
H46 H 0.48970 0.11390 0.67810
C29 C 0.5186(4) 0.0381(4) 0.6146(4)
H47 H 0.48170 0.06120 0.58680
H48 H 0.51400 -0.01660 0.61030
C30 C 0.6058(3) 0.0617(3) 0.5982(3)
C31 C 0.6934(5) 0.0064(4) 0.7477(3)
H49 H 0.69700 -0.04480 0.73310
H50 H 0.67080 0.00570 0.78640
H51 H 0.74650 0.02850 0.74900
C32 C 0.6491(4) 0.1387(4) 0.7235(3)
H52 H 0.69250 0.16030 0.70110
H53 H 0.66120 0.14270 0.76450
H54 H 0.59990 0.16580 0.71520
C33 C 0.6298(4) 0.0206(4) 0.5422(3)
H55 H 0.68420 0.03430 0.53180
H56 H 0.59380 0.03510 0.51110
H57 H 0.62660 -0.03330 0.54820
C34 C 0.6092(4) 0.1485(3) 0.5882(3)
H58 H 0.58520 0.17410 0.62090
H59 H 0.58010 0.16110 0.55310
H60 H 0.66460 0.16420 0.58410
N1 N 1.1865(2) 0.2423(2) 0.61027(18)
N2 N 0.6593(2) 0.0328(2) 0.64629(19)
O1 O 1.1192(2) 0.26764(19) 0.57423(15)
O2 O 0.73851(19) 0.06459(19) 0.63262(16)
#END
