
#######################################################################
#
#                 Cambridge Crystallographic Data Centre
#                                CCDC
#
#######################################################################
#
# If this CIF has been generated from an entry in the Cambridge
# Structural Database, then it will include bibliographic, chemical,
# crystal, experimental, refinement or atomic coordinate data resulting
# from the CCDC's data processing and validation procedures.
#
#######################################################################

data_CSD_CIF_OGEPUM03
_audit_creation_date 2014-10-23
_audit_creation_method CSD-ConQuest-V1
_database_code_CSD OGEPUM03
_database_code_depnum_ccdc_archive 'CCDC 902577'
_chemical_formula_sum 'C16 H11 N3 O3'
_chemical_formula_moiety
;
C16 H11 N3 O3
;
_journal_coden_Cambridge 119
_journal_volume 1078
_journal_year 2014
_journal_page_first 188
_journal_name_full 'J.Mol.Struct. '
loop_
_publ_author_name
"P.Khakhlary"
"J.B.Baruah"
_chemical_name_systematic
;
4-nitro-N-(quinolin-8-yl)benzamide
;
_cell_volume   1340.734
_exptl_crystal_colour 'yellow'
_exptl_crystal_density_diffrn 1.453
_exptl_special_details
;
polymorph I

;
_exptl_crystal_description 'block'
_diffrn_ambient_temperature 296
#These two values have been output from a single CSD field.
_refine_ls_R_factor_gt 0.0542
_refine_ls_wR_factor_gt 0.0542
_symmetry_cell_setting monoclinic
_symmetry_space_group_name_H-M 'P 21/c'
_symmetry_Int_Tables_number 14
loop_
_symmetry_equiv_pos_site_id
_symmetry_equiv_pos_as_xyz
1 x,y,z
2 -x,1/2+y,1/2-z
3 -x,-y,-z
4 x,-1/2-y,-1/2+z
_cell_length_a 7.5561(8)
_cell_length_b 25.171(3)
_cell_length_c 7.1509(8)
_cell_angle_alpha 90
_cell_angle_beta 99.671(7)
_cell_angle_gamma 90
_cell_formula_units_Z 4
loop_
_atom_type_symbol
_atom_type_radius_bond
C 0.68
H 0.23
N 0.68
O 0.68
loop_
_atom_site_label
_atom_site_type_symbol
_atom_site_fract_x
_atom_site_fract_y
_atom_site_fract_z
C1 C 0.4359(4) 0.77695(12) 0.0308(5)
C2 C 0.1800(4) 0.71868(13) -0.0529(5)
H1 H 0.13120 0.68480 -0.07130
C3 C 0.3612(4) 0.72479(12) 0.0043(5)
C4 C 0.3225(4) 0.82133(12) -0.0014(5)
C5 C 0.8886(4) 0.52447(12) 0.2143(4)
C6 C 0.6129(4) 0.59499(12) 0.1021(5)
C7 C 0.9287(4) 0.57334(12) 0.1474(5)
H2 H 1.04650 0.58260 0.14000
C8 C 0.7171(4) 0.50884(12) 0.2235(5)
H3 H 0.69350 0.47510 0.26650
C9 C 0.0674(4) 0.76346(13) -0.0840(5)
H4 H -0.05530 0.75890 -0.12350
C10 C 0.7891(4) 0.60853(12) 0.0911(5)
H5 H 0.81370 0.64180 0.04500
C11 C 0.5794(4) 0.54468(12) 0.1668(5)
H6 H 0.46180 0.53480 0.17230
C12 C 0.6851(5) 0.82937(13) 0.1095(5)
H7 H 0.80850 0.83270 0.14770
C13 C 0.5839(5) 0.87597(13) 0.0813(5)
H8 H 0.63870 0.90910 0.09980
C14 C 0.4028(5) 0.87174(13) 0.0260(5)
H9 H 0.33230 0.90220 0.00650
C15 C 0.1360(4) 0.81338(13) -0.0569(5)
H10 H 0.05940 0.84250 -0.07500
C16 C 0.4534(4) 0.63017(12) 0.0449(5)
N1 N 0.4851(3) 0.68319(9) 0.0431(4)
H11 H 0.59600 0.69250 0.06930
N2 N 0.6183(3) 0.78085(10) 0.0859(4)
O1 O 0.3023(3) 0.61109(8) 0.0059(4)
O2 O 1.1895(3) 0.50077(10) 0.2743(4)
O3 O 0.9985(3) 0.44382(10) 0.3426(4)
N3 N 1.0354(4) 0.48672(12) 0.2799(4)
#END
