
#######################################################################
#
#                 Cambridge Crystallographic Data Centre
#                                CCDC
#
#######################################################################
#
# If this CIF has been generated from an entry in the Cambridge
# Structural Database, then it will include bibliographic, chemical,
# crystal, experimental, refinement or atomic coordinate data resulting
# from the CCDC's data processing and validation procedures.
#
#######################################################################

data_CSD_CIF_OGEPUM
_audit_creation_date 2009-01-14
_audit_creation_method CSD-ConQuest-V1
_database_code_CSD OGEPUM
_database_code_depnum_ccdc_archive 'CCDC 712500'
_chemical_formula_sum 'C16 H11 N3 O3'
_chemical_formula_moiety
;
C16 H11 N3 O3
;
_journal_coeditor_code "IUCr CI2725"
_journal_coden_Cambridge 1370
_journal_volume 64
_journal_year 2008
_journal_page_first o2401
_journal_name_full 'Acta Crystallogr.,Sect.E:Struct.Rep.Online '
loop_
_publ_author_name
"Gang Lei"
"Lin-Hai Jing"
"Li Zhou"
_chemical_name_systematic
;
4-Nitro-N-(8-quinolyl)benzamide
;
_cell_volume   1290.317
_exptl_crystal_colour 'white'
_exptl_crystal_density_diffrn 1.51
_exptl_crystal_description 'block'
_diffrn_ambient_temperature 93
#These two values have been output from a single CSD field.
_refine_ls_R_factor_gt 0.0459
_refine_ls_wR_factor_gt 0.0459
_symmetry_cell_setting monoclinic
_symmetry_space_group_name_H-M 'P 21/c'
_symmetry_Int_Tables_number 14
loop_
_symmetry_equiv_pos_site_id
_symmetry_equiv_pos_as_xyz
1 x,y,z
2 -x,1/2+y,1/2-z
3 -x,-y,-z
4 x,-1/2-y,-1/2+z
_cell_length_a 7.5230(15)
_cell_length_b 25.031(5)
_cell_length_c 6.9596(15)
_cell_angle_alpha 90
_cell_angle_beta 100.081(3)
_cell_angle_gamma 90
_cell_formula_units_Z 4
loop_
_atom_type_symbol
_atom_type_radius_bond
C 0.68
H 0.23
N 0.68
O 0.68
loop_
_atom_site_label
_atom_site_type_symbol
_atom_site_fract_x
_atom_site_fract_y
_atom_site_fract_z
O1 O 0.69786(14) 0.38934(4) 0.50464(16)
O2 O -0.00273(15) 0.55640(4) 0.15111(17)
O3 O -0.19660(14) 0.49876(4) 0.22148(16)
N1 N 0.38108(16) 0.21834(5) 0.42312(18)
N2 N 0.51347(16) 0.31652(5) 0.46574(18)
H1 H 0.39930 0.30690 0.43970
N3 N -0.04073(16) 0.51288(5) 0.21646(18)
C1 C 0.3131(2) 0.16969(6) 0.3996(2)
H2 H 0.18600 0.16630 0.36190
C2 C 0.4163(2) 0.12257(6) 0.4267(2)
H3 H 0.36000 0.08860 0.40730
C3 C 0.5990(2) 0.12671(6) 0.4816(2)
H4 H 0.67130 0.09540 0.50170
C4 C 0.8683(2) 0.18552(6) 0.5631(2)
H5 H 0.94730 0.15560 0.58200
C5 C 0.9366(2) 0.23613(6) 0.5891(2)
H6 H 1.06310 0.24100 0.62730
C6 C 0.8229(2) 0.28130(6) 0.5603(2)
H7 H 0.87290 0.31610 0.58030
C7 C 0.64030(19) 0.27499(5) 0.5036(2)
C8 C 0.56440(19) 0.22250(5) 0.4778(2)
C9 C 0.6807(2) 0.17763(6) 0.5084(2)
C10 C 0.54650(19) 0.36987(6) 0.4646(2)
C11 C 0.38470(19) 0.40539(5) 0.4061(2)
C12 C 0.2074(2) 0.39106(6) 0.4189(2)
H8 H 0.18330 0.35690 0.46790
C13 C 0.06669(19) 0.42655(6) 0.3603(2)
H9 H -0.05400 0.41740 0.36980
C14 C 0.10717(18) 0.47577(6) 0.2876(2)
C15 C 0.2814(2) 0.49139(6) 0.2769(2)
H10 H 0.30510 0.52580 0.22950
C16 C 0.4202(2) 0.45575(6) 0.3369(2)
H11 H 0.54100 0.46570 0.33080
#END
