
#######################################################################
#
#                 Cambridge Crystallographic Data Centre
#                                CCDC
#
#######################################################################
#
# If this CIF has been generated from an entry in the Cambridge
# Structural Database, then it will include bibliographic, chemical,
# crystal, experimental, refinement or atomic coordinate data resulting
# from the CCDC's data processing and validation procedures.
#
#######################################################################

data_CSD_CIF_OGEPUM01
_audit_creation_date 2014-10-23
_audit_creation_method CSD-ConQuest-V1
_database_code_CSD OGEPUM01
_database_code_depnum_ccdc_archive 'CCDC 902579'
_chemical_formula_sum 'C16 H11 N3 O3'
_chemical_formula_moiety
;
C16 H11 N3 O3
;
_journal_coden_Cambridge 119
_journal_volume 1078
_journal_year 2014
_journal_page_first 188
_journal_name_full 'J.Mol.Struct. '
loop_
_publ_author_name
"P.Khakhlary"
"J.B.Baruah"
_chemical_name_systematic
;
4-nitro-N-(quinolin-8-yl)benzamide
;
_cell_volume   1318.631
_exptl_crystal_colour 'yellow'
_exptl_crystal_density_diffrn 1.477
_exptl_special_details
;
polymorph III

;
_exptl_crystal_description 'block'
_diffrn_ambient_temperature 296
#These two values have been output from a single CSD field.
_refine_ls_R_factor_gt 0.0427
_refine_ls_wR_factor_gt 0.0427
_symmetry_cell_setting monoclinic
_symmetry_space_group_name_H-M 'C c'
_symmetry_Int_Tables_number 9
loop_
_symmetry_equiv_pos_site_id
_symmetry_equiv_pos_as_xyz
1 x,y,z
2 x,-y,1/2+z
3 1/2+x,1/2+y,z
4 1/2+x,1/2-y,1/2+z
_cell_length_a 3.8313(3)
_cell_length_b 14.6334(7)
_cell_length_c 23.5223(13)
_cell_angle_alpha 90
_cell_angle_beta 90.851(6)
_cell_angle_gamma 90
_cell_formula_units_Z 4
loop_
_atom_type_symbol
_atom_type_radius_bond
C 0.68
H 0.23
N 0.68
O 0.68
loop_
_atom_site_label
_atom_site_type_symbol
_atom_site_fract_x
_atom_site_fract_y
_atom_site_fract_z
O1 O 0.0605(10) 0.5063(2) 0.75355(14)
O2 O 0.4146(9) 0.14253(19) 0.58248(13)
O3 O 0.3526(11) 0.5962(2) 0.70031(16)
N1 N 0.2336(9) 0.5216(2) 0.71108(14)
N2 N 0.8623(8) 0.2896(2) 0.41240(13)
N3 N 0.6242(8) 0.2302(2) 0.51180(12)
H1 H 0.65850 0.28600 0.50170
C1 C 0.4839(9) 0.2179(3) 0.56401(17)
C2 C 0.4222(8) 0.3022(2) 0.59924(14)
C3 C 0.7193(9) 0.1631(2) 0.47259(14)
C4 C 0.203(1) 0.3581(3) 0.68808(15)
H2 H 0.09980 0.34800 0.72310
C5 C 0.5112(9) 0.3905(2) 0.58421(14)
H3 H 0.61210 0.40110 0.54910
C6 C 0.8106(12) 0.0096(3) 0.43922(18)
H4 H 0.79690 -0.05290 0.44590
C7 C 0.2973(8) 0.4452(3) 0.67119(15)
C8 C 0.8492(9) 0.1968(3) 0.42012(15)
C9 C 0.4533(10) 0.4634(3) 0.62031(15)
H5 H 0.51760 0.52260 0.61050
C10 C 0.7025(12) 0.0707(3) 0.48157(17)
H6 H 0.61930 0.04830 0.51580
C11 C 0.267(1) 0.2873(3) 0.65144(15)
H7 H 0.20530 0.22820 0.66180
C12 C 0.9348(11) 0.0398(3) 0.38881(18)
H8 H 1.00430 -0.00190 0.36140
C13 C 1.0821(10) 0.1708(3) 0.32679(16)
H9 H 1.15920 0.13220 0.29820
C14 C 0.9580(9) 0.1339(3) 0.37815(15)
C15 C 0.9732(12) 0.3195(3) 0.36301(17)
H10 H 0.97480 0.38230 0.35690
C16 C 1.0884(11) 0.2629(3) 0.31930(18)
H11 H 1.16830 0.28780 0.28550
#END
