
#######################################################################
#
#                 Cambridge Crystallographic Data Centre
#                                CCDC
#
#######################################################################
#
# If this CIF has been generated from an entry in the Cambridge
# Structural Database, then it will include bibliographic, chemical,
# crystal, experimental, refinement or atomic coordinate data resulting
# from the CCDC's data processing and validation procedures.
#
#######################################################################

data_CSD_CIF_OGEWUS
_audit_creation_date 2002-09-17
_audit_creation_method CSD-ConQuest-V1
_database_code_CSD OGEWUS
_database_code_depnum_ccdc_archive 'CCDC 165235'
_chemical_formula_sum 'C15 H16 N4 O5'
_chemical_formula_moiety
;
C15 H16 N4 O5
;
_journal_coden_Cambridge 1137
_journal_volume 14
_journal_year 2001
_journal_page_first 811
_journal_name_full 'J.Phys.Org.Chem. '
loop_
_publ_author_name
"A.Perjessy"
"P.Meyer"
"W.-D.Rudorf"
"D.Loos"
"E.Kolehmainen"
"K.Laihia"
"M.Nissinen"
"J.Koivisto"
"R.Kauppinen"
_chemical_name_systematic
;
Ethyl 
3-(4-nitrophenyl)carbamoyl-2,3-diazabicyclo[2.2.1]hept-5-ene-2-carboxylate
;
_cell_volume    766.967
_exptl_crystal_density_diffrn 1.439
_diffrn_ambient_temperature 173
#These two values have been output from a single CSD field.
_refine_ls_R_factor_gt 0.0505
_refine_ls_wR_factor_gt 0.0505
_symmetry_cell_setting triclinic
_symmetry_space_group_name_H-M 'P -1'
_symmetry_Int_Tables_number 2
loop_
_symmetry_equiv_pos_site_id
_symmetry_equiv_pos_as_xyz
1 x,y,z
2 -x,-y,-z
_cell_length_a 7.4577(7)
_cell_length_b 9.955(1)
_cell_length_c 10.405(1)
_cell_angle_alpha 91.136(6)
_cell_angle_beta 90.179(6)
_cell_angle_gamma 96.749(7)
_cell_formula_units_Z 2
loop_
_atom_type_symbol
_atom_type_radius_bond
C 0.68
H 0.23
N 0.68
O 0.68
loop_
_atom_site_label
_atom_site_type_symbol
_atom_site_fract_x
_atom_site_fract_y
_atom_site_fract_z
C1 C 0.3579(3) 0.0907(2) 0.8727(2)
H1 H 0.435(3) 0.165(2) 0.914(2)
C2 C 0.2320(3) -0.0044(3) 0.9508(3)
H2 H 0.192(3) 0.016(2) 1.042(3)
C3 C 0.1722(3) -0.1064(3) 0.8759(2)
H3 H 0.077(3) -0.186(2) 0.895(2)
C4 C 0.2589(3) -0.0837(2) 0.7473(2)
H4 H 0.252(3) -0.160(2) 0.686(2)
C5 C 0.4463(3) -0.0090(3) 0.7861(3)
H5 H 0.515(3) 0.028(2) 0.714(2)
H6 H 0.508(3) -0.062(2) 0.834(2)
C6 C 0.2019(3) 0.0551(2) 0.5596(2)
C7 C 0.1913(4) 0.2207(3) 0.3979(2)
H7 H 0.128(3) 0.141(2) 0.350(2)
H8 H 0.317(3) 0.238(2) 0.362(2)
C8 C 0.0921(4) 0.3425(3) 0.3973(3)
H9 H 0.157(4) 0.419(3) 0.448(3)
H10 H 0.076(4) 0.369(3) 0.308(3)
H11 H -0.028(4) 0.323(3) 0.434(3)
C9 C 0.1093(3) 0.2253(2) 0.8240(2)
C10 C -0.1819(3) 0.3072(2) 0.7671(2)
C11 C -0.1927(3) 0.3984(2) 0.8693(2)
H12 H -0.106(3) 0.402(2) 0.936(2)
C12 C -0.3254(3) 0.4836(2) 0.8702(2)
H13 H -0.330(3) 0.545(2) 0.936(2)
C13 C -0.4474(3) 0.4771(2) 0.7704(2)
C14 C -0.4424(3) 0.3857(2) 0.6693(2)
H14 H -0.530(3) 0.383(2) 0.601(2)
C15 C -0.3095(3) 0.3018(2) 0.6677(2)
H15 H -0.307(3) 0.241(2) 0.600(2)
N1 N -0.5837(3) 0.5715(2) 0.7689(2)
N2 N 0.1774(2) 0.03457(16) 0.69040(17)
N3 N 0.2386(2) 0.14804(17) 0.77446(17)
N4 N -0.0486(2) 0.21839(18) 0.75617(19)
H16 H -0.059(3) 0.160(2) 0.692(2)
O1 O -0.5831(2) 0.65586(18) 0.85571(18)
O2 O -0.6882(3) 0.5662(2) 0.6780(2)
O3 O 0.2026(2) -0.03779(14) 0.48196(14)
O4 O 0.2074(2) 0.18514(14) 0.53244(14)
O5 O 0.1467(2) 0.29929(16) 0.91757(16)
#END
