
#######################################################################
#
#                 Cambridge Crystallographic Data Centre
#                                CCDC
#
#######################################################################
#
# If this CIF has been generated from an entry in the Cambridge
# Structural Database, then it will include bibliographic, chemical,
# crystal, experimental, refinement or atomic coordinate data resulting
# from the CCDC's data processing and validation procedures.
#
#######################################################################

data_CSD_CIF_OGOCUK
_audit_creation_date 2015-06-20
_audit_creation_method CSD-ConQuest-V1
_database_code_CSD OGOCUK
_database_code_depnum_ccdc_archive 'CCDC 1052321'
_chemical_formula_sum 'C30 H26 N2 O6'
_chemical_formula_moiety
;
C30 H26 N2 O6
;
_journal_coden_Cambridge 920
_journal_volume 10
_journal_year 2015
_journal_page_first 2207
_journal_name_full 'Chem.Asian J. '
loop_
_publ_author_name
"Fong-Jiao Hong"
"Kam-Weng Chong"
"Yun-Yee Low"
"N.F.Thomas"
"T.-S.Kam"
_chemical_name_systematic
;
5-methoxy-3-(4-methoxyphenyl)-1-(4-nitrobenzyl)-2-(4-nitrophenyl)indane
;
_chemical_melting_point 452.15
_cell_volume   4995.963
_exptl_crystal_colour 'yellow'
_exptl_crystal_density_diffrn 1.357
_exptl_special_details
;
Melting point range 452.15-454.15K

;
_exptl_crystal_description 'block'
_diffrn_ambient_temperature 100
#These two values have been output from a single CSD field.
_refine_ls_R_factor_gt 0.0648
_refine_ls_wR_factor_gt 0.0648
_symmetry_cell_setting monoclinic
_symmetry_space_group_name_H-M 'C 2/c'
_symmetry_Int_Tables_number 15
loop_
_symmetry_equiv_pos_site_id
_symmetry_equiv_pos_as_xyz
1 x,y,z
2 -x,y,1/2-z
3 1/2+x,1/2+y,z
4 1/2-x,1/2+y,1/2-z
5 -x,-y,-z
6 x,-y,-1/2+z
7 -1/2-x,-1/2-y,-z
8 -1/2+x,-1/2-y,-1/2+z
_cell_length_a 29.519(4)
_cell_length_b 17.793(2)
_cell_length_c 9.6147(13)
_cell_angle_alpha 90
_cell_angle_beta 98.385(3)
_cell_angle_gamma 90
_cell_formula_units_Z 8
loop_
_atom_type_symbol
_atom_type_radius_bond
C 0.68
H 0.23
N 0.68
O 0.68
loop_
_atom_site_label
_atom_site_type_symbol
_atom_site_fract_x
_atom_site_fract_y
_atom_site_fract_z
C1 C 0.82838(9) 0.20375(12) 0.4687(3)
C2 C 0.78978(9) 0.16695(12) 0.5039(3)
H1 H 0.76020 0.17730 0.45440
C3 C 0.79562(10) 0.11441(13) 0.6139(3)
H2 H 0.76980 0.08890 0.63940
C4 C 0.83869(10) 0.09957(13) 0.6852(3)
C5 C 0.87726(10) 0.13937(12) 0.6546(3)
H3 H 0.90670 0.13100 0.70700
C6 C 0.87094(9) 0.19122(12) 0.5455(3)
C7 C 0.83086(9) 0.25828(12) 0.3486(3)
H4 H 0.81800 0.30800 0.37180
C8 C 0.80509(10) 0.22985(13) 0.2086(3)
H5 H 0.81710 0.17950 0.18950
H6 H 0.77240 0.22380 0.21860
C9 C 0.80824(10) 0.27936(12) 0.0834(3)
C10 C 0.82486(11) 0.25193(14) -0.0358(3)
H7 H 0.83580 0.20170 -0.03590
C11 C 0.82571(11) 0.29606(15) -0.1528(3)
H8 H 0.83660 0.27660 -0.23370
C12 C 0.81033(10) 0.36936(13) -0.1505(3)
C13 C 0.79520(11) 0.39971(13) -0.0335(3)
H9 H 0.78570 0.45070 -0.03260
C14 C 0.79416(11) 0.35416(14) 0.0824(3)
H10 H 0.78360 0.37430 0.16330
C15 C 0.81204(13) -0.00059(17) 0.8185(4)
H11 H 0.78990 0.02940 0.86150
H12 H 0.82430 -0.04050 0.88350
H13 H 0.79680 -0.02310 0.73100
C16 C 0.95385(9) 0.20861(12) 0.4990(3)
C17 C 0.9929(1) 0.24816(12) 0.5544(3)
H14 H 0.98990 0.29590 0.59650
C18 C 1.03641(10) 0.21912(13) 0.5493(3)
H15 H 1.06280 0.24640 0.58930
C19 C 1.04109(10) 0.15027(14) 0.4854(4)
C20 C 1.00265(11) 0.10837(14) 0.4354(4)
H16 H 1.00580 0.05980 0.39700
C21 C 0.95933(10) 0.13806(14) 0.4419(3)
H17 H 0.93300 0.10950 0.40640
C22 C 0.90668(9) 0.24187(12) 0.4972(3)
H18 H 0.90970 0.28750 0.55860
C23 C 0.88330(9) 0.26609(12) 0.3477(3)
H19 H 0.89210 0.22830 0.27940
C24 C 0.89935(9) 0.34186(12) 0.3038(3)
C25 C 0.8862(1) 0.40765(12) 0.3658(3)
H20 H 0.86610 0.40470 0.43440
C26 C 0.90188(10) 0.47719(13) 0.3291(3)
H21 H 0.89330 0.52170 0.37310
C27 C 0.93014(10) 0.48024(13) 0.2272(3)
C28 C 0.94427(11) 0.41700(14) 0.1632(3)
H22 H 0.96410 0.42060 0.09420
C29 C 0.92857(11) 0.34765(14) 0.2027(3)
H23 H 0.93790 0.30330 0.15990
C30 C 1.09147(13) 0.05606(16) 0.4189(4)
H24 H 1.07940 0.01740 0.47630
H25 H 1.12420 0.04730 0.41780
H26 H 1.07510 0.05380 0.32270
N1 N 0.80875(9) 0.41585(13) -0.2771(3)
N2 N 0.9464(1) 0.55455(13) 0.1887(3)
O1 O 0.84846(8) 0.04649(10) 0.7890(2)
O2 O 0.79518(9) 0.48087(12) -0.2721(3)
O3 O 0.82011(9) 0.38755(13) -0.3828(3)
O4 O 1.08515(7) 0.12822(10) 0.4772(3)
O5 O 0.97395(9) 0.55656(12) 0.1037(3)
O6 O 0.93099(9) 0.61041(11) 0.2398(3)
#END
