
#######################################################################
#
#                 Cambridge Crystallographic Data Centre
#                                CCDC
#
#######################################################################
#
# If this CIF has been generated from an entry in the Cambridge
# Structural Database, then it will include bibliographic, chemical,
# crystal, experimental, refinement or atomic coordinate data resulting
# from the CCDC's data processing and validation procedures.
#
#######################################################################

data_CSD_CIF_OGOSIO
_audit_creation_date 2015-06-21
_audit_creation_method CSD-ConQuest-V1
_database_code_CSD OGOSIO
_database_code_depnum_ccdc_archive 'CCDC 1037837'
_chemical_formula_sum 'C14 H25 N1 O5'
_chemical_formula_moiety
;
C14 H25 N1 O5
;
_journal_coden_Cambridge 1606
_journal_volume 4
_journal_year 2015
_journal_page_first 733
_journal_name_full 'Asian J.Org.Chem '
loop_
_publ_author_name
"T.Rowicki"
"M.Malinowski"
"S.Lapczynski"
"M.Gryszel"
"K.Czerwinska"
"I.Madura"
"W.Sas"
_chemical_name_systematic
;
(R)-1-((4R,5R)-5-((2R,4R)-6,6-dimethyl-7-oxa-1-azabicyclo[2.2.1]heptan-2-yl)-2
,2-dimethyl-1,3-dioxolan-4-yl)ethane-1,2-diol
;
_chemical_name_common
;
1-(5-(6,6-dimethyl-7-oxa-1-azabicyclo[2.2.1]hept-2-yl)-2,2-dimethyl-1,3-dioxol
an-4-yl)ethane-1,2-diol
;
_cell_volume   3410.440
_exptl_crystal_colour 'colorless'
_exptl_crystal_density_diffrn 1.259
_exptl_crystal_description 'needle'
_diffrn_ambient_temperature 298.1
_diffrn_special_details
;
twin

;
#These two values have been output from a single CSD field.
_refine_ls_R_factor_gt 0.0294
_refine_ls_wR_factor_gt 0.0294
_symmetry_cell_setting rhombohedral
_symmetry_space_group_name_H-M 'R 3'
_symmetry_Int_Tables_number 146
loop_
_symmetry_equiv_pos_site_id
_symmetry_equiv_pos_as_xyz
1 x,y,z
2 -y,x-y,z
3 -x+y,-x,z
4 2/3+x,1/3+y,1/3+z
5 2/3-y,1/3+x-y,1/3+z
6 2/3-x+y,1/3-x,1/3+z
7 1/3+x,2/3+y,2/3+z
8 1/3-y,2/3+x-y,2/3+z
9 1/3-x+y,2/3-x,2/3+z
_cell_length_a 26.0259(5)
_cell_length_b 26.0259(5)
_cell_length_c 5.81391(11)
_cell_angle_alpha 90
_cell_angle_beta 90
_cell_angle_gamma 120
_cell_formula_units_Z 9
loop_
_atom_type_symbol
_atom_type_radius_bond
C 0.68
H 0.23
N 0.68
O 0.68
loop_
_atom_site_label
_atom_site_type_symbol
_atom_site_fract_x
_atom_site_fract_y
_atom_site_fract_z
O1 O 0.57513(8) 0.52707(8) 0.5417(3)
O2 O 0.46182(7) 0.36335(7) 0.3145(3)
O3 O 0.47531(9) 0.29664(8) 0.5177(4)
O4 O 0.60898(8) 0.41386(9) 0.7940(3)
O5 O 0.59567(10) 0.31981(10) 1.0496(3)
N1 N 0.60324(9) 0.49277(8) 0.4826(3)
C1 C 0.65870(11) 0.53998(10) 0.3646(4)
C2 C 0.63522(13) 0.57553(12) 0.2309(5)
H1 H 0.65650 0.61720 0.27300
H2 H 0.63800 0.57180 0.06600
C3 C 0.57102(12) 0.54536(13) 0.3105(5)
H3 H 0.55320 0.57070 0.30200
C4 C 0.53510(12) 0.48591(13) 0.1914(4)
H4 H 0.54310 0.48880 0.02750
H5 H 0.49290 0.46930 0.21620
C5 C 0.55903(10) 0.44965(10) 0.3159(4)
H6 H 0.57830 0.43610 0.20640
C6 C 0.51255(10) 0.39773(10) 0.4559(4)
H7 H 0.50120 0.41260 0.59020
C7 C 0.52979(11) 0.35208(10) 0.5322(4)
H8 H 0.55840 0.35200 0.42250
C8 C 0.55461(11) 0.35985(11) 0.7735(4)
H9 H 0.52590 0.35940 0.88390
C9 C 0.56789(12) 0.31109(12) 0.8325(5)
H10 H 0.53110 0.27330 0.83250
H11 H 0.59350 0.30950 0.71500
C10 C 0.43097(11) 0.30617(11) 0.4155(4)
C11 C 0.39955(14) 0.26128(14) 0.2278(6)
H12 H 0.37170 0.26960 0.15260
H13 H 0.37890 0.22220 0.29340
H14 H 0.42810 0.26340 0.11790
C12 C 0.38903(15) 0.30389(15) 0.6006(6)
H15 H 0.41100 0.33310 0.71610
H16 H 0.36930 0.26520 0.66930
H17 H 0.36010 0.31200 0.53370
C13 C 0.68709(12) 0.51296(14) 0.2171(5)
H18 H 0.69180 0.48450 0.30600
H19 H 0.72520 0.54370 0.16500
H20 H 0.66220 0.49360 0.08670
C14 C 0.70162(13) 0.57764(13) 0.5528(5)
H21 H 0.68250 0.59220 0.65320
H22 H 0.73590 0.61050 0.48460
H23 H 0.71360 0.55400 0.63940
H24 H 0.6075(13) 0.4416(14) 0.715(5)
H25 H 0.627(2) 0.351(2) 1.046(7)
#END
