
#######################################################################
#
#                 Cambridge Crystallographic Data Centre
#                                CCDC
#
#######################################################################
#
# If this CIF has been generated from an entry in the Cambridge
# Structural Database, then it will include bibliographic, chemical,
# crystal, experimental, refinement or atomic coordinate data resulting
# from the CCDC's data processing and validation procedures.
#
#######################################################################

data_CSD_CIF_OGUBUO
_audit_creation_date 2010-07-26
_audit_creation_method CSD-ConQuest-V1
_database_code_CSD OGUBUO
_database_code_depnum_ccdc_archive 'CCDC 712749'
_chemical_formula_sum 'C18 H16 N4 O3'
_chemical_formula_moiety
;
C18 H16 N4 O3
;
_journal_coden_Cambridge 35
_journal_volume 74
_journal_year 2009
_journal_page_first 3612
_journal_name_full 'J.Org.Chem. '
loop_
_publ_author_name
"C.Chowdhury"
"S.Mukherjee"
"B.Das"
"B.Achari"
_chemical_name_systematic
;
3-(2-Methyl-4-nitrophenyl)-7-phenyl-6,7-dihydro-4H-[1,2,3]triazolo[5,1-c][1,4]
oxazine
;
_chemical_melting_point 427.15
_cell_volume   3219.267
_exptl_crystal_colour 'light brown'
_exptl_crystal_density_diffrn 1.39
_exptl_special_details
;
Melting point range 427.15-428.15K

;
_exptl_crystal_description 'needle'
_diffrn_ambient_temperature 296
#These two values have been output from a single CSD field.
_refine_ls_R_factor_gt 0.0465
_refine_ls_wR_factor_gt 0.0465
_symmetry_cell_setting orthorhombic
_symmetry_space_group_name_H-M 'P b c a'
_symmetry_Int_Tables_number 61
loop_
_symmetry_equiv_pos_site_id
_symmetry_equiv_pos_as_xyz
1 x,y,z
2 1/2-x,-y,1/2+z
3 -x,1/2+y,1/2-z
4 1/2+x,1/2-y,-z
5 -x,-y,-z
6 -1/2+x,y,-1/2-z
7 x,-1/2-y,-1/2+z
8 -1/2-x,-1/2+y,z
_cell_length_a 11.3308(3)
_cell_length_b 7.2577(2)
_cell_length_c 39.1469(9)
_cell_angle_alpha 90
_cell_angle_beta 90
_cell_angle_gamma 90
_cell_formula_units_Z 8
loop_
_atom_type_symbol
_atom_type_radius_bond
C 0.68
H 0.23
N 0.68
O 0.68
loop_
_atom_site_label
_atom_site_type_symbol
_atom_site_fract_x
_atom_site_fract_y
_atom_site_fract_z
C1 C 0.46847(13) 0.3676(2) 0.20460(4)
C2 C 0.56120(14) 0.4349(2) 0.17958(4)
H1 H 0.63130 0.47400 0.19230
C3 C 0.56913(14) -0.1937(2) 0.02045(4)
C4 C 0.58309(14) -0.0018(2) 0.08101(4)
C5 C 0.55297(13) 0.2679(2) 0.12376(4)
C6 C 0.59682(14) 0.1009(2) 0.11346(4)
C7 C 0.47382(15) 0.4213(2) 0.23853(4)
H2 H 0.53720 0.49170 0.24610
C8 C 0.46790(14) -0.1648(2) 0.03920(4)
H3 H 0.39590 -0.20890 0.03130
C9 C 0.47327(14) -0.0692(2) 0.07014(4)
C10 C 0.37376(15) 0.2598(2) 0.19404(4)
H4 H 0.36910 0.22130 0.17140
C11 C 0.51840(16) 0.5951(2) 0.15748(5)
H5 H 0.48480 0.68990 0.17200
H6 H 0.58490 0.64820 0.14540
C12 C 0.38584(17) 0.3715(2) 0.26134(4)
H7 H 0.39020 0.40920 0.28400
C13 C 0.67804(15) -0.1320(3) 0.03110(5)
H8 H 0.74550 -0.15400 0.01820
C14 C 0.29202(16) 0.2663(2) 0.25039(5)
H9 H 0.23250 0.23370 0.26560
C15 C 0.68397(14) -0.0365(3) 0.06158(5)
H10 H 0.75670 0.00570 0.06930
C16 C 0.48271(17) 0.4209(3) 0.10799(5)
H11 H 0.53360 0.49430 0.09350
H12 H 0.42070 0.36920 0.09390
C17 C 0.28655(15) 0.2094(2) 0.21681(5)
H13 H 0.22380 0.13680 0.20950
C18 C 0.36260(15) -0.0465(3) 0.09101(5)
H14 H 0.32220 0.06350 0.08400
H15 H 0.38290 -0.03750 0.11480
H16 H 0.31210 -0.15110 0.08760
N1 N 0.59458(11) 0.28833(17) 0.15576(3)
N2 N 0.66139(13) 0.1447(2) 0.16533(4)
N3 N 0.56112(13) -0.2916(2) -0.01211(4)
N4 N 0.66388(12) 0.0301(2) 0.13920(4)
O1 O 0.43189(10) 0.53520(17) 0.13347(3)
O2 O 0.46373(12) -0.3374(2) -0.02289(4)
O3 O 0.65224(13) -0.3264(3) -0.02757(4)
#END
