
#######################################################################
#
#                 Cambridge Crystallographic Data Centre
#                                CCDC
#
#######################################################################
#
# If this CIF has been generated from an entry in the Cambridge
# Structural Database, then it will include bibliographic, chemical,
# crystal, experimental, refinement or atomic coordinate data resulting
# from the CCDC's data processing and validation procedures.
#
#######################################################################

data_CSD_CIF_OGUGOM
_audit_creation_date 2003-01-24
_audit_creation_method CSD-ConQuest-V1
_database_code_CSD OGUGOM
_database_code_depnum_ccdc_archive 'CCDC 195928'
_chemical_formula_sum 'C16 H25 N1 O6'
_chemical_formula_moiety
;
C16 H25 N1 O6
;
_journal_coden_Cambridge 1320
_journal_year 2002
_journal_name_full 'Thesis '
loop_
_publ_author_name
"R.Fassler"
"D.E.Frantz"
"J.Oetiker"
"E.M.Carreira"
_chemical_name_systematic
;
N-(Cyclopropylmethylidene)-N-oxy-2,3:5,6-di-isopropylidene-\b-D-gulofuranosyla
mine
;
_cell_volume    845.518
_exptl_crystal_colour 'colorless'
_exptl_crystal_density_diffrn 1.286
_exptl_special_details
;
contribution from Thesis, Roger Fassler, Laboratorium fur Organische Chemie, 
Federal Institute of Technology, ETH, Wolfgang-Pauli-Strasse 11, 8093 Zurich, 
Switzerland, (2002)
;
_exptl_crystal_description 'prism'
_diffrn_ambient_temperature 293
#These two values have been output from a single CSD field.
_refine_ls_R_factor_gt 0.0396
_refine_ls_wR_factor_gt 0.0396
_symmetry_cell_setting monoclinic
_symmetry_space_group_name_H-M 'P 21'
_symmetry_Int_Tables_number 4
loop_
_symmetry_equiv_pos_site_id
_symmetry_equiv_pos_as_xyz
1 x,y,z
2 -x,1/2+y,-z
_cell_length_a 5.204(4)
_cell_length_b 14.463(11)
_cell_length_c 11.516(7)
_cell_angle_alpha 90
_cell_angle_beta 102.71(5)
_cell_angle_gamma 90
_cell_formula_units_Z 2
loop_
_atom_type_symbol
_atom_type_radius_bond
C 0.68
H 0.23
N 0.68
O 0.68
loop_
_atom_site_label
_atom_site_type_symbol
_atom_site_fract_x
_atom_site_fract_y
_atom_site_fract_z
O1 O 0.2984(5) 0.95940 0.8375(2)
N1 N 0.5500(6) 0.9579(3) 0.8348(2)
O2 O 0.6142(5) 0.8590(3) 1.2107(2)
O3 O 0.7449(5) 1.0121(3) 1.0278(2)
O4 O 0.8417(5) 0.8080(3) 1.0804(2)
O5 O 0.6524(5) 1.1467(3) 1.1979(3)
C1 C 0.4873(7) 0.8992(4) 1.0995(4)
H1 H 0.3015(7) 0.8867(4) 1.0810(4)
C2 C 0.7291(6) 0.9378(4) 0.9492(3)
H2 H 0.9012(6) 0.9237(4) 0.9367(3)
C3 C 0.6400(7) 1.0489(3) 1.2157(3)
H3 H 0.5174(7) 1.0364(3) 1.2650(3)
C4 C 0.4750(8) 0.9927(4) 0.6249(3)
H4 H 0.2899(8) 0.9992(4) 0.6214(3)
O6 O 1.0140(6) 1.1086(4) 1.3377(3)
C5 C 0.8891(9) 1.1831(4) 1.2675(4)
C6 C 0.5446(7) 1.0036(4) 1.0963(3)
H5 H 0.3882(7) 1.0348(4) 1.0550(3)
C7 C 0.7596(9) 0.7805(4) 1.1846(4)
C8 C 0.6406(8) 0.9734(4) 0.7419(3)
H6 H 0.8281(8) 0.9726(4) 0.7498(3)
C9 C 0.5483(11) 0.9514(5) 0.5173(4)
H7 H 0.4080(11) 0.9322(5) 0.4529(4)
H8 H 0.7032(11) 0.9134(5) 0.5295(4)
C10 C 0.6248(7) 0.8554(4) 1.0083(3)
H9 H 0.5115(7) 0.8157(4) 0.9527(3)
C11 C 0.9966(10) 0.7665(5) 1.2826(4)
H10 H 1.0997(10) 0.8221(5) 1.2939(4)
H11 H 0.9424(10) 0.7516(5) 1.3549(4)
H12 H 1.1005(10) 0.7167(5) 1.2621(4)
C12 C 1.0478(9) 1.2196(6) 1.1841(6)
H13 H 1.0820(9) 1.1710(6) 1.1328(6)
H14 H 0.9521(9) 1.2683(6) 1.1370(6)
H15 H 1.2117(9) 1.2433(6) 1.2294(6)
C13 C 0.9128(8) 1.0248(4) 1.2831(3)
H16 H 1.0183(8) 1.0028(4) 1.2301(3)
H17 H 0.9073(8) 0.9781(4) 1.3417(3)
C14 C 0.5828(11) 0.6959(4) 1.1603(5)
H18 H 0.4342(11) 0.7092(4) 1.0967(5)
H19 H 0.6804(11) 0.6451(4) 1.1379(5)
H20 H 0.5223(11) 0.6799(4) 1.2307(5)
C15 C 0.8272(14) 1.2556(5) 1.3506(5)
H21 H 0.7250(14) 1.2289(5) 1.4020(5)
H22 H 0.9888(14) 1.2797(5) 1.3977(5)
H23 H 0.7292(14) 1.3048(5) 1.3052(5)
C16 C 0.5833(11) 1.0507(5) 0.5386(4)
H24 H 0.7602(11) 1.0732(5) 0.5642(4)
H25 H 0.4649(11) 1.0919(5) 0.4876(4)
#END
