
#######################################################################
#
#                 Cambridge Crystallographic Data Centre
#                                CCDC
#
#######################################################################
#
# If this CIF has been generated from an entry in the Cambridge
# Structural Database, then it will include bibliographic, chemical,
# crystal, experimental, refinement or atomic coordinate data resulting
# from the CCDC's data processing and validation procedures.
#
#######################################################################

data_CSD_CIF_OGUZOH
_audit_creation_date 2015-06-23
_audit_creation_method CSD-ConQuest-V1
_database_code_CSD OGUZOH
_database_code_depnum_ccdc_archive 'CCDC 1061592'
_chemical_formula_sum 'C19 H22 N2 O6'
_chemical_formula_moiety
;
C19 H22 N2 O6
;
_journal_coden_Cambridge 1291
_journal_year 2015
_journal_page_first 4900
_journal_name_full 'Eur.J.Org.Chem. '
loop_
_publ_author_name
"N.Vemula"
"B.L.Pagenkopf"
_chemical_name_systematic
;
diethyl 
1-(4-cyanophenyl)hexahydro-3H-furo[2,3-c][1,2]oxazine-3,3-dicarboxylate
;
_cell_volume   1812.908
_exptl_crystal_colour 'colorless'
_exptl_crystal_density_diffrn 1.372
_exptl_crystal_description 'plates'
_diffrn_ambient_temperature 150
#These two values have been output from a single CSD field.
_refine_ls_R_factor_gt 0.0304
_refine_ls_wR_factor_gt 0.0304
loop_
_citation_database_id_CSD
_citation_special_details
FIVZER "is a stereoisomer of this entry"
_symmetry_cell_setting orthorhombic
_symmetry_space_group_name_H-M 'P 21 21 21'
_symmetry_Int_Tables_number 19
loop_
_symmetry_equiv_pos_site_id
_symmetry_equiv_pos_as_xyz
1 x,y,z
2 1/2+x,1/2-y,-z
3 -x,1/2+y,1/2-z
4 1/2-x,-y,1/2+z
_cell_length_a 7.8538(4)
_cell_length_b 14.0614(7)
_cell_length_c 16.4160(8)
_cell_angle_alpha 90
_cell_angle_beta 90
_cell_angle_gamma 90
_cell_formula_units_Z 4
loop_
_atom_type_symbol
_atom_type_radius_bond
C 0.68
H 0.23
N 0.68
O 0.68
loop_
_atom_site_label
_atom_site_type_symbol
_atom_site_fract_x
_atom_site_fract_y
_atom_site_fract_z
O1 O 0.32403(10) 0.48166(5) 0.06437(5)
O2 O 0.66102(11) 0.46443(6) 0.07939(5)
O3 O 0.21673(11) 0.32391(6) 0.14015(5)
O4 O 0.49137(13) 0.27930(6) 0.14139(6)
O5 O 0.66974(13) 0.35599(7) -0.02164(6)
O6 O 0.24693(13) 0.58413(6) -0.13454(5)
N1 N 0.27178(19) 0.98890(8) 0.17544(8)
N2 N 0.35441(12) 0.55356(6) 0.00060(6)
C1 C 0.28437(17) 0.91436(9) 0.14822(8)
C2 C 0.29933(15) 0.82098(8) 0.11195(7)
C3 C 0.22476(15) 0.80458(8) 0.03625(8)
H1 H 0.16520 0.85440 0.00940
C4 C 0.23715(16) 0.71575(8) -0.00014(7)
H2 H 0.18550 0.70460 -0.05160
C5 C 0.32574(14) 0.64293(7) 0.03904(7)
C6 C 0.39899(15) 0.39273(8) 0.04073(7)
C7 C 0.59221(16) 0.40195(8) 0.02773(7)
C8 C 0.84559(17) 0.47298(11) 0.07465(9)
H3 H 0.88040 0.48950 0.01840
H4 H 0.89990 0.41190 0.08970
C9 C 0.89953(19) 0.54929(12) 0.13223(10)
H5 H 0.84530 0.60940 0.11680
H6 H 1.02360 0.55650 0.13000
H7 H 0.86520 0.53210 0.18770
C10 C 0.0038(2) 0.27437(10) 0.23505(9)
H8 H -0.00340 0.33940 0.25630
H9 H -0.02490 0.22920 0.27840
H10 H -0.07630 0.26690 0.18970
C11 C 0.18173(18) 0.25547(9) 0.20548(7)
H11 H 0.26430 0.26370 0.25050
H12 H 0.19120 0.18960 0.18460
C12 C 0.37585(16) 0.32537(8) 0.11422(7)
C13 C 0.30710(17) 0.35213(8) -0.03429(7)
H13 H 0.36570 0.29420 -0.05390
H14 H 0.18800 0.33550 -0.02050
C14 C 0.31114(17) 0.42892(8) -0.09907(7)
H15 H 0.43250 0.43900 -0.11530
C15 C 0.20493(19) 0.42172(9) -0.17654(7)
H16 H 0.08630 0.40230 -0.16480
H17 H 0.25580 0.37700 -0.21630
C16 C 0.21493(18) 0.52521(8) -0.20634(7)
H18 H 0.30830 0.53260 -0.24630
H19 H 0.10660 0.54400 -0.23270
C17 C 0.24257(16) 0.52259(7) -0.06623(6)
H20 H 0.12310 0.51460 -0.04630
C18 C 0.38543(15) 0.74773(8) 0.15212(7)
H21 H 0.43430 0.75860 0.20420
C19 C 0.39922(15) 0.65932(8) 0.11567(7)
H22 H 0.45860 0.60960 0.14260
#END
