
#######################################################################
#
#                 Cambridge Crystallographic Data Centre
#                                CCDC
#
#######################################################################
#
# If this CIF has been generated from an entry in the Cambridge
# Structural Database, then it will include bibliographic, chemical,
# crystal, experimental, refinement or atomic coordinate data resulting
# from the CCDC's data processing and validation procedures.
#
#######################################################################

data_CSD_CIF_OHAYEB
_audit_creation_date 2003-01-24
_audit_creation_method CSD-ConQuest-V1
_database_code_CSD OHAYEB
_database_code_depnum_ccdc_archive 'CCDC 172798'
_chemical_formula_sum 'C5 H9 N1 O4'
_chemical_formula_moiety
;
C5 H9 N1 O4
;
_journal_coden_Cambridge 15
_journal_volume 80
_journal_year 2002
_journal_page_first 857
_journal_name_full 'Can.J.Chem. '
loop_
_publ_author_name
"W.M.Best"
"J.M.Macdonald"
"B.W.Skelton"
"R.V.Stick"
"D.M.G.Tilbrook"
"A.H.White"
_chemical_name_systematic
;
(4R,5S,6R)-5,6-Dihydro-4,5-dihydroxy-6-(hydroxymethyl)-4H-1,2-oxazine
;
_chemical_melting_point 415.15
_cell_volume    631.177
_exptl_crystal_colour 'colorless'
_exptl_crystal_density_diffrn 1.548
_exptl_special_details
;
Melting point range 415.15-418.15K
The a cell value in the paper and cif differ, we have used the latter
;
_exptl_crystal_description 'prism'
_diffrn_ambient_temperature 150
#These two values have been output from a single CSD field.
_refine_ls_R_factor_gt 0.029
_refine_ls_wR_factor_gt 0.029
_symmetry_cell_setting orthorhombic
_symmetry_space_group_name_H-M 'P 21 21 21'
_symmetry_Int_Tables_number 19
loop_
_symmetry_equiv_pos_site_id
_symmetry_equiv_pos_as_xyz
1 x,y,z
2 1/2-x,-y,1/2+z
3 1/2+x,1/2-y,-z
4 -x,1/2+y,1/2-z
_cell_length_a 7.991(1)
_cell_length_b 8.847(1)
_cell_length_c 8.928(1)
_cell_angle_alpha 90
_cell_angle_beta 90
_cell_angle_gamma 90
_cell_formula_units_Z 4
loop_
_atom_type_symbol
_atom_type_radius_bond
C 0.68
H 0.23
N 0.68
O 0.68
loop_
_atom_site_label
_atom_site_type_symbol
_atom_site_fract_x
_atom_site_fract_y
_atom_site_fract_z
O1 O 0.93424(13) 0.67667(12) 0.87314(14)
N1 N 0.76449(16) 0.71232(15) 0.85220(14)
C1 C 0.6550(2) 0.60969(17) 0.86843(17)
C2 C 0.6854(2) 0.44572(16) 0.90436(16)
O2 O 0.57185(15) 0.35569(13) 0.82136(13)
C3 C 0.86527(18) 0.40571(15) 0.86744(15)
O3 O 0.91250(16) 0.26674(12) 0.93445(12)
C4 C 0.9795(2) 0.52835(16) 0.92916(16)
C5 C 1.16155(18) 0.51048(18) 0.88362(17)
O4 O 1.17928(14) 0.51583(12) 0.72487(12)
H1 H 0.536(3) 0.648(3) 0.848(3)
H2 H 0.664(3) 0.431(2) 1.016(2)
H3 H 0.527(3) 0.315(3) 0.879(3)
H4 H 0.874(2) 0.397(2) 0.761(2)
H5 H 0.879(3) 0.202(2) 0.878(2)
H6 H 0.966(2) 0.531(2) 1.035(2)
H7 H 1.201(2) 0.419(2) 0.9275(18)
H8 H 1.229(3) 0.595(3) 0.922(2)
H9 H 1.198(3) 0.436(3) 0.696(3)
#END
