
#######################################################################
#
#                 Cambridge Crystallographic Data Centre
#                                CCDC
#
#######################################################################
#
# If this CIF has been generated from an entry in the Cambridge
# Structural Database, then it will include bibliographic, chemical,
# crystal, experimental, refinement or atomic coordinate data resulting
# from the CCDC's data processing and validation procedures.
#
#######################################################################

data_CSD_CIF_OHELAO
_audit_creation_date 2003-01-24
_audit_creation_method CSD-ConQuest-V1
_database_code_CSD OHELAO
_database_code_depnum_ccdc_archive 'CCDC 189192'
_chemical_formula_sum 'C16 H20 N2 O7'
_chemical_formula_moiety
;
C16 H20 N2 O7
;
_journal_coden_Cambridge 16
_journal_volume 58
_journal_year 2002
_journal_page_first 9387
_journal_name_full 'Tetrahedron '
loop_
_publ_author_name
"S.P.Bew"
"S.D.Bull"
"S.G.Davies"
"E.D.Savory"
"D.J.Watkin"
_chemical_name_systematic
;
(S)-Carbonic acid t-butyl ester-3-(4-nitrobenzyl)-2-oxo-oxazolidin-4-yl 
methyl ester
;
_cell_volume   1740.533
_exptl_crystal_colour 'colorless'
_exptl_crystal_density_diffrn 1.329
_exptl_crystal_description 'block'
_diffrn_ambient_temperature 293
_refine_special_details
;
The carbonic acid group is equally disordered over two sets of positions.

;
#These two values have been output from a single CSD field.
_refine_ls_R_factor_gt 0.0599
_refine_ls_wR_factor_gt 0.0599
_symmetry_cell_setting orthorhombic
_symmetry_space_group_name_H-M 'P 21 21 21'
_symmetry_Int_Tables_number 19
loop_
_symmetry_equiv_pos_site_id
_symmetry_equiv_pos_as_xyz
1 x,y,z
2 1/2+x,1/2-y,-z
3 -x,1/2+y,1/2-z
4 1/2-x,-y,1/2+z
_cell_length_a 6.0043(5)
_cell_length_b 10.846(1)
_cell_length_c 26.727(3)
_cell_angle_alpha 90
_cell_angle_beta 90
_cell_angle_gamma 90
_cell_formula_units_Z 4
loop_
_atom_type_symbol
_atom_type_radius_bond
C 0.68
H 0.23
N 0.68
O 0.68
loop_
_atom_site_label
_atom_site_type_symbol
_atom_site_fract_x
_atom_site_fract_y
_atom_site_fract_z
O1 O 0.1254(4) 0.2219(3) 0.05074(12)
O2 O 0.1519(4) 0.0652(2) -0.00396(9)
O3 O 0.6633(9) 0.0885(3) 0.1461(1)
O4 O 0.8946(8) -0.0457(4) 0.18243(15)
O5 O 0.6100(12) 0.0496(6) 0.22315(16)
O6 O 0.9116(6) -0.4971(3) 0.10529(12)
O7 O 0.5720(8) -0.5008(3) 0.13037(14)
O8? O 0.9444(15) 0.0807(11) 0.1773(4)
O9? O 0.6983(14) -0.0590(6) 0.1996(2)
N1 N 0.4323(4) 0.1104(2) 0.05146(9)
N2 N 0.7260(7) -0.4506(3) 0.10910(11)
C1 C 0.4841(6) 0.2131(3) 0.08524(13)
C2 C 0.2627(9) 0.2733(6) 0.0885(2)
C3 C 0.2331(6) 0.1257(3) 0.02940(12)
C4 C 0.5084(13) 0.1677(6) 0.1417(2)
C5 C 0.7370(9) 0.0339(4) 0.18354(16)
C6 C 0.9181(13) -0.1303(4) 0.22664(16)
C7 C 0.7349(13) -0.2189(7) 0.2404(3)
C8 C 1.1053(16) -0.2024(6) 0.2002(2)
C9 C 0.992(2) -0.0605(5) 0.2713(2)
C10 C 0.6006(5) 0.0331(3) 0.02799(12)
C11 C 0.6275(5) -0.0929(3) 0.05055(11)
C12 C 0.4629(6) -0.1497(3) 0.07860(13)
C13 C 0.4905(6) -0.2683(3) 0.09716(14)
C14 C 0.6911(6) -0.3280(3) 0.08756(11)
C15 C 0.8567(6) -0.2741(3) 0.06000(13)
C16 C 0.8233(6) -0.1569(3) 0.04137(12)
C17? C 0.653(2) 0.1923(8) 0.1225(3)
H1 H 0.27590 0.36340 0.08410
H2 H 0.19420 0.25530 0.12240
H3 H 0.75290 -0.27360 0.27060
H4 H 0.59610 -0.22200 0.22040
H5 H 1.15010 -0.27090 0.22190
H6 H 1.22440 -0.14560 0.19250
H7 H 1.03570 -0.23620 0.16830
H8 H 1.00320 -0.11650 0.30070
H9 H 1.13820 -0.02140 0.26430
H10 H 0.87880 0.00610 0.27890
H11 H 0.74690 0.07500 0.03030
H12 H 0.55850 0.02080 -0.00780
H13 H 0.32170 -0.10450 0.08580
H14 H 0.36890 -0.31080 0.11680
H15 H 0.99920 -0.31900 0.05520
H16 H 0.94190 -0.11860 0.02040
#END
