
#######################################################################
#
#                 Cambridge Crystallographic Data Centre
#                                CCDC
#
#######################################################################
#
# If this CIF has been generated from an entry in the Cambridge
# Structural Database, then it will include bibliographic, chemical,
# crystal, experimental, refinement or atomic coordinate data resulting
# from the CCDC's data processing and validation procedures.
#
#######################################################################

data_CSD_CIF_OHILOI
_audit_creation_date 2015-06-24
_audit_creation_method CSD-ConQuest-V1
_database_code_CSD OHILOI
_database_code_depnum_ccdc_archive 'CCDC 1408199'
_chemical_formula_sum 'C15 H11 N3 O2'
_chemical_formula_moiety
;
C15 H11 N3 O2
;
_journal_coden_Cambridge 1078
_journal_year 2015
_journal_name_full 'CSD Communication(Private Communication) '
loop_
_publ_author_name
"A.Gaywood"
"H.McNab"
"Iain Oswald"
_chemical_name_systematic
;
N-(1-nitro-2-naphthyl)pyridin-2-amine
;
_cell_volume   2459.564
_exptl_crystal_colour 'yellow'
_exptl_crystal_density_diffrn 1.433
_exptl_crystal_description 'block'
_diffrn_ambient_temperature 150
#These two values have been output from a single CSD field.
_refine_ls_R_factor_gt 0.0395
_refine_ls_wR_factor_gt 0.0395
_chemical_compound_source
;
P. Iannarelli
;
_symmetry_cell_setting orthorhombic
_symmetry_space_group_name_H-M 'P b c a'
_symmetry_Int_Tables_number 61
loop_
_symmetry_equiv_pos_site_id
_symmetry_equiv_pos_as_xyz
1 x,y,z
2 1/2+x,1/2-y,-z
3 -x,1/2+y,1/2-z
4 1/2-x,-y,1/2+z
5 -x,-y,-z
6 -1/2-x,-1/2+y,z
7 x,-1/2-y,-1/2+z
8 -1/2+x,y,-1/2-z
_cell_length_a 15.4664(7)
_cell_length_b 7.8752(3)
_cell_length_c 20.1933(9)
_cell_angle_alpha 90
_cell_angle_beta 90
_cell_angle_gamma 90
_cell_formula_units_Z 8
loop_
_atom_type_symbol
_atom_type_radius_bond
C 0.68
H 0.23
N 0.68
O 0.68
loop_
_atom_site_label
_atom_site_type_symbol
_atom_site_fract_x
_atom_site_fract_y
_atom_site_fract_z
O1 O 0.46169(6) 0.73093(13) 0.08642(5)
O2 O 0.43199(6) 0.99699(13) 0.09740(5)
N1 N 0.41553(7) 0.85543(14) 0.07614(5)
N2 N 0.25504(7) 0.97160(13) 0.12575(5)
N3 N 0.15720(6) 0.78424(13) 0.17316(5)
C1 C 0.33641(7) 0.83077(15) 0.03794(6)
C2 C 0.25922(8) 0.88410(14) 0.06558(6)
C3 C 0.18226(8) 0.84569(17) 0.03060(7)
C4 C 0.18436(7) 0.76271(17) -0.02797(7)
C5 C 0.26555(9) 0.62708(17) -0.11900(7)
C6 C 0.34211(10) 0.57727(18) -0.14627(7)
C7 C 0.41995(9) 0.61132(17) -0.11368(7)
C8 C 0.42070(8) 0.69467(17) -0.05441(7)
C9 C 0.34225(7) 0.74572(16) -0.02401(6)
C10 C 0.26328(8) 0.71118(15) -0.05731(6)
C11 C 0.19078(7) 0.94087(15) 0.17218(6)
C12 C 0.16607(8) 1.06641(17) 0.21748(7)
C13 C 0.10531(8) 1.02626(18) 0.26463(7)
C14 C 0.06912(8) 0.86498(17) 0.26573(6)
C15 C 0.09664(7) 0.75061(17) 0.21900(6)
H1 H 0.28740 1.05730 0.13260
H2 H 0.12960 0.88220 0.04990
H3 H 0.13200 0.73950 -0.04920
H4 H 0.21300 0.60800 -0.14150
H5 H 0.34350 0.51960 -0.18710
H6 H 0.47260 0.57420 -0.13230
H7 H 0.47360 0.72010 -0.03320
H8 H 0.19190 1.17590 0.21580
H9 H 0.08650 1.11140 0.29640
H10 H 0.02800 0.83420 0.29810
H11 H 0.07370 0.63510 0.21820
#END
