
#######################################################################
#
#                 Cambridge Crystallographic Data Centre
#                                CCDC
#
#######################################################################
#
# If this CIF has been generated from an entry in the Cambridge
# Structural Database, then it will include bibliographic, chemical,
# crystal, experimental, refinement or atomic coordinate data resulting
# from the CCDC's data processing and validation procedures.
#
#######################################################################

data_CSD_CIF_OHONIK
_audit_creation_date 2015-06-25
_audit_creation_method CSD-ConQuest-V1
_database_code_CSD OHONIK
_database_code_depnum_ccdc_archive 'CCDC 1408820'
_chemical_formula_sum 'C10 H17 N1 O4'
_chemical_formula_moiety
;
C10 H17 N1 O4
;
_journal_coden_Cambridge 1336
_journal_volume 17
_journal_year 2015
_journal_page_first 3122
_journal_name_full 'Org.Lett. '
loop_
_publ_author_name
"Jan Robach"
"K.Harms"
"U.Koert"
_chemical_name_systematic
;
2-Acetyl-2-hydroxy-N-methoxy-N,3-dimethylpent-4-enamide
;
_cell_volume    566.578
_exptl_crystal_colour 'colorless'
_exptl_crystal_density_diffrn 1.262
_exptl_crystal_description 'plate'
_diffrn_ambient_temperature 100
#These two values have been output from a single CSD field.
_refine_ls_R_factor_gt 0.0492
_refine_ls_wR_factor_gt 0.0492
_symmetry_cell_setting triclinic
_symmetry_space_group_name_H-M 'P -1'
_symmetry_Int_Tables_number 2
loop_
_symmetry_equiv_pos_site_id
_symmetry_equiv_pos_as_xyz
1 x,y,z
2 -x,-y,-z
_cell_length_a 7.8792(10)
_cell_length_b 8.1476(11)
_cell_length_c 10.2749(13)
_cell_angle_alpha 106.191(4)
_cell_angle_beta 106.585(4)
_cell_angle_gamma 104.538(4)
_cell_formula_units_Z 2
loop_
_atom_type_symbol
_atom_type_radius_bond
C 0.68
H 0.23
N 0.68
O 0.68
loop_
_atom_site_label
_atom_site_type_symbol
_atom_site_fract_x
_atom_site_fract_y
_atom_site_fract_z
O1 O 0.33056(19) 0.66977(17) 0.44485(14)
H1 H 0.397(3) 0.612(3) 0.482(3)
N1 N 0.4464(2) 0.8613(2) 0.26925(18)
C1 C -0.0425(3) 0.1210(3) 0.1690(2)
H2 H -0.09700 0.09910 0.06770
H3 H -0.04270 0.02120 0.19960
O2 O 0.46612(18) 0.42631(17) 0.32769(14)
C2 C 0.0334(3) 0.2899(3) 0.2672(2)
H4 H 0.08640 0.30610 0.36730
O3 O 0.13067(18) 0.75847(17) 0.15147(14)
C3 C 0.0427(3) 0.4592(2) 0.2331(2)
H5 H -0.01470 0.42210 0.12430
O4 O 0.59665(17) 0.80006(17) 0.31105(15)
C4 C 0.2538(2) 0.5863(2) 0.29010(19)
C5 C 0.3632(2) 0.4666(2) 0.2393(2)
C6 C 0.3288(3) 0.3972(3) 0.0800(2)
H6 H 0.19310 0.32800 0.02260
H7 H 0.40070 0.31720 0.06130
H8 H 0.37000 0.50090 0.05140
C7 C -0.0718(3) 0.5566(3) 0.3019(2)
H9 H -0.07180 0.66250 0.27450
H10 H -0.01420 0.59770 0.40890
H11 H -0.20260 0.47160 0.26620
C8 C 0.2691(3) 0.7402(2) 0.22863(19)
C9 C 0.4820(3) 0.9983(3) 0.2051(2)
H12 H 0.38080 1.04900 0.19420
H13 H 0.48510 0.94140 0.10870
H14 H 0.60430 1.09670 0.26930
C10 C 0.7252(3) 0.9147(3) 0.4602(2)
H15 H 0.83300 0.87450 0.48650
H16 H 0.65850 0.90510 0.52660
H17 H 0.77110 1.04220 0.46870
#END
