
#######################################################################
#
#                 Cambridge Crystallographic Data Centre
#                                CCDC
#
#######################################################################
#
# If this CIF has been generated from an entry in the Cambridge
# Structural Database, then it will include bibliographic, chemical,
# crystal, experimental, refinement or atomic coordinate data resulting
# from the CCDC's data processing and validation procedures.
#
#######################################################################

data_CSD_CIF_OHPOXZ
_audit_creation_date 1981-05-19
_audit_creation_method CSD-ConQuest-V1
_database_code_CSD OHPOXZ
_database_code_depnum_ccdc_archive 'CCDC 1225959'
_chemical_formula_sum 'C8 H6 N2 O3'
_chemical_formula_moiety
;
C8 H6 N2 O3
;
_journal_coden_Cambridge 167
_journal_year 1980
_journal_page_first 1557
_journal_name_full 'Liebigs Ann. '
loop_
_publ_author_name
"U.Plucken"
"W.Winter"
"H.Meier"
_chemical_name_systematic
;
3-(p-Hydroxyphenyl)-1,2,5-oxadiazole-2-oxide
;
_chemical_name_common
;
3-(p-Hydroxyphenyl)-furoxan
;
_chemical_melting_point 470.15
_cell_volume    767.523
_exptl_crystal_colour 'yellow'
_exptl_crystal_density_diffrn 1.54
_exptl_special_details
;
Melting point range 470.15-471.15K

;
_diffrn_ambient_temperature ?
_diffrn_special_details
;
The study was carried out at room temperature,in the range 283-303K

;
#These two values have been output from a single CSD field.
_refine_ls_R_factor_gt 0.05
_refine_ls_wR_factor_gt 0.05
_symmetry_cell_setting monoclinic
_symmetry_space_group_name_H-M 'P 21/c'
_symmetry_Int_Tables_number 14
loop_
_symmetry_equiv_pos_site_id
_symmetry_equiv_pos_as_xyz
1 x,y,z
2 -x,1/2+y,1/2-z
3 -x,-y,-z
4 x,-1/2-y,-1/2+z
_cell_length_a 6.894(2)
_cell_length_b 9.0(4)
_cell_length_c 12.675(3)
_cell_angle_alpha 90
_cell_angle_beta 102.59(2)
_cell_angle_gamma 90
_cell_formula_units_Z 4
loop_
_atom_type_symbol
_atom_type_radius_bond
C 0.68
H 0.23
N 0.68
O 0.68
loop_
_atom_site_label
_atom_site_type_symbol
_atom_site_fract_x
_atom_site_fract_y
_atom_site_fract_z
O1 O 0.34030 0.90540 1.16790
O2 O 0.27900 0.18300 1.07910
O3 O 0.18080 0.12720 0.89990
N1 N 0.23190 0.23380 0.98560
N2 N 0.13420 0.20410 0.80450
C1 C 0.21540 0.36770 0.94320
C2 C 0.15350 0.34350 0.82960
C3 C 0.22540 0.63820 0.94620
C4 C 0.25470 0.77270 0.99850
C5 C 0.31120 0.77640 1.11090
C6 C 0.34100 0.64520 1.16820
C7 C 0.31180 0.51050 1.11540
C8 C 0.25170 0.50600 1.00300
H1 H 0.13970 0.41420 0.77550
H2 H 0.19540 0.63820 0.86900
H3 H 0.23790 0.85940 0.96160
H4 H 0.37310 0.64540 1.24710
H5 H 0.31830 0.42120 1.15310
H6 H 0.32560 0.98160 1.12810
#END
