
#######################################################################
#
#                 Cambridge Crystallographic Data Centre
#                                CCDC
#
#######################################################################
#
# If this CIF has been generated from an entry in the Cambridge
# Structural Database, then it will include bibliographic, chemical,
# crystal, experimental, refinement or atomic coordinate data resulting
# from the CCDC's data processing and validation procedures.
#
#######################################################################

data_CSD_CIF_OHUJUW
_audit_creation_date 2003-10-28
_audit_creation_method CSD-ConQuest-V1
_database_code_CSD OHUJUW
_database_code_depnum_ccdc_archive 'CCDC 197239'
_chemical_formula_sum 'C18 H16 N4 O6'
_chemical_formula_moiety
;
C18 H16 N4 O6
;
_journal_coden_Cambridge 119
_journal_volume 655
_journal_year 2003
_journal_page_first 17
_journal_name_full 'J.Mol.Struct. '
loop_
_publ_author_name
"J.Nowicka-Scheibe"
"E.Grech"
"J.G.Sosnicki"
"T.Glowiak"
"W.Sawka-Dobrowolska"
"L.Sobczyk"
_chemical_name_systematic
;
17,21-dinitro-(3,4;8,9)-dibenzo-2,7-dioxa-5,10-diaza[4.4.4]propellane
;
_chemical_melting_point 500.15
_cell_volume   3266.565
_exptl_crystal_colour 'yellow'
_exptl_crystal_density_diffrn 1.563
_exptl_special_details
;
Melts with decomposition.

;
_exptl_crystal_description 'block'
_exptl_crystal_preparation 'ethanol'
_diffrn_ambient_temperature 100
#These two values have been output from a single CSD field.
_refine_ls_R_factor_gt 0.049
_refine_ls_wR_factor_gt 0.049
_symmetry_cell_setting monoclinic
_symmetry_space_group_name_H-M 'C 2/c'
_symmetry_Int_Tables_number 15
loop_
_symmetry_equiv_pos_site_id
_symmetry_equiv_pos_as_xyz
1 x,y,z
2 1/2+x,1/2+y,z
3 x,-y,1/2+z
4 1/2+x,1/2-y,1/2+z
5 -x,-y,-z
6 -1/2-x,-1/2-y,-z
7 -x,y,-1/2-z
8 -1/2-x,-1/2+y,-1/2-z
_cell_length_a 22.056(4)
_cell_length_b 7.289(1)
_cell_length_c 20.332(4)
_cell_angle_alpha 90
_cell_angle_beta 92.07(3)
_cell_angle_gamma 90
_cell_formula_units_Z 8
loop_
_atom_type_symbol
_atom_type_radius_bond
C 0.68
H 0.23
N 0.68
O 0.68
loop_
_atom_site_label
_atom_site_type_symbol
_atom_site_fract_x
_atom_site_fract_y
_atom_site_fract_z
O1 O 0.06315(4) 0.43797(14) 0.06731(5)
O2 O 0.18650(4) 0.48197(14) 0.01856(5)
O3 O 0.21080(5) 0.26759(17) 0.32722(6)
O4 O 0.12482(6) 0.14313(16) 0.35012(5)
O5 O 0.15435(5) 0.13694(15) -0.26029(5)
O6 O 0.06392(5) 0.24638(17) -0.25017(6)
N1 N 0.16620(6) 0.61629(17) 0.11794(6)
N2 N 0.07303(6) 0.58335(17) -0.03352(6)
N3 N 0.15747(6) 0.22932(18) 0.31340(6)
N4 N 0.11610(6) 0.22094(18) -0.22931(6)
C1 C 0.08455(6) 0.60692(19) 0.03527(7)
C2 C 0.08591(6) 0.3969(2) 0.12927(7)
C3 C 0.14013(6) 0.4772(2) 0.15361(7)
C4 C 0.15320(6) 0.6310(2) 0.04940(7)
C5 C 0.16811(7) 0.4264(2) -0.04324(7)
C6 C 0.11019(6) 0.46909(19) -0.06930(7)
C7 C 0.04896(7) 0.7692(2) 0.06067(7)
C8 C 0.07144(7) 0.9502(2) 0.03257(8)
C9 C 0.13866(7) 0.9760(2) 0.04961(8)
C10 C 0.17542(7) 0.8150(2) 0.02389(8)
C11 C 0.05470(7) 0.2710(2) 0.16614(7)
C12 C 0.07739(7) 0.2168(2) 0.22747(7)
C13 C 0.13194(7) 0.2908(2) 0.24981(7)
C14 C 0.16393(7) 0.4186(2) 0.21433(7)
C15 C 0.20812(7) 0.3198(2) -0.07785(7)
C16 C 0.19132(7) 0.2520(2) -0.13932(7)
C17 C 0.13404(7) 0.2935(2) -0.16449(7)
C18 C 0.09293(7) 0.4002(2) -0.13101(7)
H1 H 0.0165(8) 0.220(3) 0.1494(9)
H2 H 0.0572(8) 0.130(2) 0.2540(8)
H3 H 0.2021(8) 0.467(3) 0.2310(9)
H4 H 0.2010(9) 0.658(3) 0.1311(9)
H5 H 0.2473(9) 0.295(3) -0.0587(9)
H6 H 0.2193(9) 0.177(3) -0.1648(9)
H7 H 0.0540(8) 0.424(2) -0.1507(8)
H8 H 0.0347(9) 0.591(3) -0.0458(9)
H9 H 0.0522(8) 0.772(2) 0.1087(9)
H10 H 0.0061(8) 0.748(2) 0.0490(8)
H11 H 0.0652(7) 0.953(2) -0.0168(8)
H12 H 0.0479(8) 1.055(3) 0.0500(8)
H13 H 0.1537(8) 1.090(3) 0.0304(9)
H14 H 0.1456(8) 0.985(2) 0.0983(8)
H15 H 0.1732(8) 0.813(2) -0.0224(9)
H16 H 0.2182(8) 0.825(2) 0.0380(8)
#END
