
#######################################################################
#
#                 Cambridge Crystallographic Data Centre
#                                CCDC
#
#######################################################################
#
# If this CIF has been generated from an entry in the Cambridge
# Structural Database, then it will include bibliographic, chemical,
# crystal, experimental, refinement or atomic coordinate data resulting
# from the CCDC's data processing and validation procedures.
#
#######################################################################

data_CSD_CIF_OJAREW
_audit_creation_date 2003-10-28
_audit_creation_method CSD-ConQuest-V1
_database_code_CSD OJAREW
_database_code_depnum_ccdc_archive 'CCDC 215153'
_chemical_formula_sum 'C12 H10 N2 O5'
_chemical_formula_moiety
;
C12 H10 N2 O5
;
_journal_coden_Cambridge 35
_journal_volume 68
_journal_year 2003
_journal_page_first 2728
_journal_name_full 'J.Org.Chem. '
loop_
_publ_author_name
"N.Papaioannou"
"J.T.Blank"
"S.J.Miller"
_chemical_name_systematic
;
8a-Methoxy-6-nitro-1a,2,8a,8b-tetrahydro-8H-oxireno(3,4)pyrrolo(1,2-a)indol-8-
one
;
_cell_volume   1169.723
_exptl_crystal_density_diffrn 1.489
_diffrn_ambient_temperature 273
#These two values have been output from a single CSD field.
_refine_ls_R_factor_gt 0.0546
_refine_ls_wR_factor_gt 0.0546
_symmetry_cell_setting monoclinic
_symmetry_space_group_name_H-M 'P 21/c'
_symmetry_Int_Tables_number 14
loop_
_symmetry_equiv_pos_site_id
_symmetry_equiv_pos_as_xyz
1 x,y,z
2 -x,1/2+y,1/2-z
3 -x,-y,-z
4 x,-1/2-y,-1/2+z
_cell_length_a 10.1128(13)
_cell_length_b 15.905(2)
_cell_length_c 7.4177(10)
_cell_angle_alpha 90
_cell_angle_beta 101.359(3)
_cell_angle_gamma 90
_cell_formula_units_Z 4
loop_
_atom_type_symbol
_atom_type_radius_bond
C 0.68
H 0.23
N 0.68
O 0.68
loop_
_atom_site_label
_atom_site_type_symbol
_atom_site_fract_x
_atom_site_fract_y
_atom_site_fract_z
O1 O 0.8516(1) 0.0212(1) 0.7545(2)
N1 N 0.7573(2) 0.1527(1) 0.8328(2)
C1 C 0.6232(2) 0.1758(1) 0.8192(2)
C2 C 0.5369(2) 0.1064(1) 0.7959(2)
O2 O 0.7729(1) 0.0980(1) 1.1751(2)
C3 C 0.6194(2) 0.0310(1) 0.8095(3)
C4 C 0.3991(2) 0.1149(1) 0.7760(3)
C5 C 0.7672(2) 0.0606(1) 0.8560(3)
O3 O 0.5843(2) -0.0419(1) 0.7903(2)
O4 O 0.1295(2) 0.1467(1) 0.7272(3)
C6 C 0.5705(2) 0.2568(1) 0.8211(3)
C7 C 0.4337(2) 0.2652(1) 0.8026(3)
C8 C 0.3494(2) 0.1950(1) 0.7809(3)
C9 C 0.8353(2) 0.0490(1) 1.0535(3)
N2 N 0.2053(2) 0.2069(1) 0.7655(3)
C10 C 0.8937(2) 0.1286(1) 1.1209(3)
C11 C 0.8633(2) 0.1930(1) 0.9721(3)
O5 O 0.1647(2) 0.2768(1) 0.7961(4)
C12 C 0.8173(2) 0.0359(2) 0.5617(3)
H1 H 0.34220 0.06840 0.76000
H2 H 0.62650 0.30370 0.83450
H3 H 0.39640 0.31850 0.80470
H4 H 0.88090 -0.00390 1.09510
H5 H 0.97920 0.13030 1.21010
H6 H 0.83060 0.24470 1.01740
H7 H 0.94260 0.20540 0.92160
H8 H 0.87990 0.00690 0.50180
H9 H 0.82130 0.09510 0.53820
H10 H 0.72770 0.01570 0.51490
#END
