
#######################################################################
#
#                 Cambridge Crystallographic Data Centre
#                                CCDC
#
#######################################################################
#
# If this CIF has been generated from an entry in the Cambridge
# Structural Database, then it will include bibliographic, chemical,
# crystal, experimental, refinement or atomic coordinate data resulting
# from the CCDC's data processing and validation procedures.
#
#######################################################################

data_CSD_CIF_OJEJUK
_audit_creation_date 2015-06-28
_audit_creation_method CSD-ConQuest-V1
_database_code_CSD OJEJUK
_database_code_depnum_ccdc_archive 'CCDC 1054807'
_chemical_formula_sum 'C22 H24 N2 O5'
_chemical_formula_moiety
;
C22 H24 N2 O5
;
_journal_coden_Cambridge 179
_journal_volume 54
_journal_year 2015
_journal_page_first 10303
_journal_name_full 'Angew.Chem.,Int.Ed. '
loop_
_publ_author_name
"M.Mechler"
"R.Peters"
_chemical_name_systematic
;
t-butyl 3-methyl-3-(2-nitro-1-phenylethyl)-2-oxoindoline-1-carboxylate
;
_cell_volume   2023.829
_exptl_crystal_colour 'colorless'
_exptl_crystal_density_diffrn 1.301
_exptl_crystal_description 'prism'
_diffrn_ambient_temperature 100
#These two values have been output from a single CSD field.
_refine_ls_R_factor_gt 0.0417
_refine_ls_wR_factor_gt 0.0417
_symmetry_cell_setting monoclinic
_symmetry_space_group_name_H-M 'C c'
_symmetry_Int_Tables_number 9
loop_
_symmetry_equiv_pos_site_id
_symmetry_equiv_pos_as_xyz
1 x,y,z
2 x,-y,1/2+z
3 1/2+x,1/2+y,z
4 1/2+x,1/2-y,1/2+z
_cell_length_a 14.0628(7)
_cell_length_b 15.8596(7)
_cell_length_c 9.1818(4)
_cell_angle_alpha 90
_cell_angle_beta 98.779(4)
_cell_angle_gamma 90
_cell_formula_units_Z 4
loop_
_atom_type_symbol
_atom_type_radius_bond
C 0.68
H 0.23
N 0.68
O 0.68
loop_
_atom_site_label
_atom_site_type_symbol
_atom_site_fract_x
_atom_site_fract_y
_atom_site_fract_z
O1 O 0.95698(12) 0.20937(13) 0.20967(19)
N1 N 0.79343(14) 0.18880(12) 0.2211(2)
C1 C 0.88537(18) 0.22597(16) 0.2604(3)
C2 C 0.87814(17) 0.29294(16) 0.3795(3)
N2 N 0.9884(2) 0.49027(18) 0.2126(3)
O2 O 0.94449(18) 0.54663(18) 0.2684(3)
C3 C 0.77760(17) 0.27989(15) 0.4113(3)
O3 O 1.0338(2) 0.49950(19) 0.1161(3)
O4 O 0.67614(13) 0.14218(12) 0.0400(2)
C4 C 0.73117(19) 0.31868(17) 0.5158(3)
H1 H 0.76350 0.35980 0.58060
O5 O 0.83304(12) 0.11676(12) 0.02799(19)
C5 C 0.6369(2) 0.29665(18) 0.5244(3)
H2 H 0.60410 0.32280 0.59540
C6 C 0.59037(18) 0.23665(18) 0.4298(3)
H3 H 0.52580 0.22210 0.43720
C7 C 0.63619(18) 0.19704(16) 0.3236(3)
H4 H 0.60420 0.15550 0.25940
C8 C 0.72927(17) 0.22048(15) 0.3159(2)
C9 C 0.95605(19) 0.27686(18) 0.5124(3)
H5 H 0.95370 0.32130 0.58590
H6 H 1.01940 0.27700 0.48040
H7 H 0.94490 0.22200 0.55590
C10 C 0.88430(19) 0.38370(17) 0.3114(3)
H8 H 0.87190 0.42470 0.38910
C11 C 0.9833(2) 0.4023(2) 0.2786(3)
H9 H 1.00120 0.35980 0.20860
H10 H 1.03010 0.39830 0.37070
C12 C 0.80388(19) 0.39643(15) 0.1813(3)
C13 C 0.8079(2) 0.36407(19) 0.0423(3)
H11 H 0.86550 0.33850 0.02210
C14 C 0.7280(2) 0.3686(2) -0.0687(3)
H12 H 0.73100 0.34500 -0.16300
C15 C 0.6452(2) 0.40730(19) -0.0407(3)
H13 H 0.59030 0.40960 -0.11490
C16 C 0.6424(2) 0.4429(2) 0.0961(3)
H14 H 0.58600 0.47140 0.11450
C17 C 0.7205(2) 0.43722(18) 0.2057(3)
H15 H 0.71730 0.46160 0.29940
C18 C 0.76018(18) 0.14733(15) 0.0873(3)
C19 C 0.81387(19) 0.08009(17) -0.1243(3)
C20 C 0.9140(2) 0.0548(3) -0.1510(4)
H16 H 0.95490 0.10510 -0.14740
H17 H 0.90990 0.02820 -0.24810
H18 H 0.94180 0.01490 -0.07480
C21 C 0.7713(2) 0.1464(2) -0.2298(3)
H19 H 0.70740 0.16170 -0.20840
H20 H 0.76580 0.12480 -0.33070
H21 H 0.81290 0.19630 -0.21960
C22 C 0.7509(2) 0.00252(18) -0.1229(3)
H22 H 0.78390 -0.03930 -0.05450
H23 H 0.73810 -0.02170 -0.22220
H24 H 0.68990 0.01840 -0.09110
#END
