
#######################################################################
#
#                 Cambridge Crystallographic Data Centre
#                                CCDC
#
#######################################################################
#
# If this CIF has been generated from an entry in the Cambridge
# Structural Database, then it will include bibliographic, chemical,
# crystal, experimental, refinement or atomic coordinate data resulting
# from the CCDC's data processing and validation procedures.
#
#######################################################################

data_CSD_CIF_OJELUM
_audit_creation_date 2016-04-06
_audit_creation_method CSD-ConQuest-V1
_database_code_CSD OJELUM
_database_code_depnum_ccdc_archive 'CCDC 1419082'
_chemical_formula_sum 'C14 H18 N2 O6'
_chemical_formula_moiety
;
C14 H18 N2 O6
;
_journal_coden_Cambridge 177
_journal_volume 14
_journal_year 2016
_journal_page_first 3963
_journal_name_full 'Org.Biomol.Chem. '
loop_
_publ_author_name
"Y.A.Naumovich"
"V.E.Buckland"
"D.A.Sen'ko"
"Y.V.Nelyubina"
"Y.A.Khoroshutina"
"A.Yu.Sukhorukov"
"S.L.Ioffe"
_chemical_name_systematic
;
(6-ethoxy-4-(4-methoxyphenyl)-5,6-dihydro-4H-1,2-oxazin-3-yl)methyl nitrate
;
_cell_volume    722.480
_exptl_crystal_colour 'colorless'
_exptl_crystal_density_diffrn 1.426
_exptl_crystal_description 'prism'
_diffrn_ambient_temperature 120
#These two values have been output from a single CSD field.
_refine_ls_R_factor_gt 0.0442
_refine_ls_wR_factor_gt 0.0442
_symmetry_cell_setting triclinic
_symmetry_space_group_name_H-M 'P -1'
_symmetry_Int_Tables_number 2
loop_
_symmetry_equiv_pos_site_id
_symmetry_equiv_pos_as_xyz
1 x,y,z
2 -x,-y,-z
_cell_length_a 5.1957(4)
_cell_length_b 12.0390(9)
_cell_length_c 12.8927(10)
_cell_angle_alpha 112.826(2)
_cell_angle_beta 90.743(2)
_cell_angle_gamma 102.195(2)
_cell_formula_units_Z 2
loop_
_atom_type_symbol
_atom_type_radius_bond
C 0.68
H 0.23
N 0.68
O 0.68
loop_
_atom_site_label
_atom_site_type_symbol
_atom_site_fract_x
_atom_site_fract_y
_atom_site_fract_z
N1 N 0.3878(2) 0.82370(11) 0.27076(10)
N2 N 0.2224(3) 0.56801(12) 0.21557(12)
O1 O 0.59486(19) 0.93266(9) 0.30774(9)
O2 O 0.3422(2) 1.08151(10) 0.33952(8)
O3 O 0.0108(2) 0.62711(10) 0.23416(9)
O4 O 0.3167(2) 0.54661(11) 0.12686(10)
O5 O 0.2784(2) 0.54262(11) 0.29310(11)
O6 O 0.1227(2) 0.65115(10) -0.35490(9)
C1 C 0.2149(3) 0.80508(13) 0.19086(12)
C2 C 0.5442(3) 1.03291(13) 0.28168(12)
H1 H 0.70990 1.10020 0.30230
C3 C 0.4615(3) 0.98640(13) 0.15702(12)
H2 H 0.60280 0.95270 0.11330
H3 H 0.43340 1.05570 0.13840
C4 C 0.2041(3) 0.88462(13) 0.12479(12)
H4 H 0.05270 0.92520 0.14710
C5 C 0.4068(3) 1.14299(15) 0.46065(12)
H5 H 0.56180 1.21390 0.47950
H6 H 0.45090 1.08460 0.49110
C6 C 0.1701(3) 1.18792(17) 0.51167(14)
H7 H 0.20970 1.23000 0.59410
H8 H 0.12850 1.24590 0.48130
H9 H 0.01800 1.11710 0.49290
C7 C -0.0076(3) 0.69083(14) 0.16118(13)
H10 H -0.17910 0.71520 0.16680
H11 H -0.00390 0.63360 0.08190
C8 C 0.1642(3) 0.80998(13) -0.00263(12)
C9 C -0.0073(3) 0.83375(13) -0.07185(12)
H12 H -0.11790 0.88870 -0.03800
C10 C -0.0193(3) 0.77897(13) -0.18851(12)
H13 H -0.13570 0.79710 -0.23400
C11 C 0.1405(3) 0.69682(13) -0.23934(12)
C12 C 0.3057(3) 0.66812(13) -0.17225(12)
H14 H 0.40990 0.61000 -0.20630
C13 C 0.3166(3) 0.72524(13) -0.05512(12)
H15 H 0.43080 0.70610 -0.00970
C14 C 0.2926(3) 0.57096(15) -0.40911(13)
H16 H 0.26250 0.54420 -0.49130
H17 H 0.47770 0.61560 -0.38300
H18 H 0.25370 0.49820 -0.39010
#END
