
#######################################################################
#
#                 Cambridge Crystallographic Data Centre
#                                CCDC
#
#######################################################################
#
# If this CIF has been generated from an entry in the Cambridge
# Structural Database, then it will include bibliographic, chemical,
# crystal, experimental, refinement or atomic coordinate data resulting
# from the CCDC's data processing and validation procedures.
#
#######################################################################

data_CSD_CIF_OJEYUZ
_audit_creation_date 2016-04-06
_audit_creation_method CSD-ConQuest-V1
_database_code_CSD OJEYUZ
_database_code_depnum_ccdc_archive 'CCDC 1470145'
_chemical_formula_sum 'C14 H13 N1 O3'
_chemical_formula_moiety
;
C14 H13 N1 O3
;
_journal_coden_Cambridge 1078
_journal_year 2016
_journal_name_full 'CSD Communication(Private Communication) '
loop_
_publ_author_name
"Wei-Cheih Cheng"
"M.J.Kurth"
"M.M.Olmstead"
_chemical_name_systematic
;
3-(3-(4-methoxyphenyl)-1,2-oxazol-5-yl)cyclobutanone
;
_cell_volume    582.030
_exptl_crystal_colour 'colorless'
_exptl_crystal_density_diffrn 1.388
_exptl_crystal_description 'block'
_diffrn_ambient_temperature 91
_diffrn_special_details
;
twin

;
#These two values have been output from a single CSD field.
_refine_ls_R_factor_gt 0.0392
_refine_ls_wR_factor_gt 0.0392
_symmetry_cell_setting monoclinic
_symmetry_space_group_name_H-M 'P 21'
_symmetry_Int_Tables_number 4
loop_
_symmetry_equiv_pos_site_id
_symmetry_equiv_pos_as_xyz
1 x,y,z
2 -x,1/2+y,-z
_cell_length_a 6.764(3)
_cell_length_b 5.666(3)
_cell_length_c 15.263(6)
_cell_angle_alpha 90
_cell_angle_beta 95.729(15)
_cell_angle_gamma 90
_cell_formula_units_Z 2
loop_
_atom_type_symbol
_atom_type_radius_bond
C 0.68
H 0.23
N 0.68
O 0.68
loop_
_atom_site_label
_atom_site_type_symbol
_atom_site_fract_x
_atom_site_fract_y
_atom_site_fract_z
O1 O 0.1586(2) 1.3070(3) 0.5084(1)
O2 O 0.4260(2) 0.5233(3) 0.32873(9)
O3 O 1.3010(2) 0.8271(3) 0.06592(9)
N1 N 0.5864(3) 0.4936(3) 0.27724(11)
C1 C 0.1880(3) 1.1351(4) 0.46612(13)
C2 C 0.3057(3) 0.9088(4) 0.48609(12)
H1 H 0.25830 0.81360 0.53420
H2 H 0.45130 0.93270 0.49530
C3 C 0.1237(3) 1.0610(4) 0.37153(13)
H3 H 0.18350 1.15670 0.32670
H4 H -0.02210 1.04820 0.35780
C4 C 0.2296(3) 0.8191(4) 0.39159(12)
H5 H 0.13140 0.68780 0.39390
C5 C 0.3873(3) 0.7577(4) 0.33548(12)
C6 C 0.5146(3) 0.8824(4) 0.29024(12)
H6 H 0.52050 1.04880 0.28310
C7 C 0.6373(3) 0.7088(4) 0.25587(12)
C8 C 0.8064(3) 0.7442(4) 0.20395(12)
C9 C 0.9539(3) 0.5705(4) 0.20343(12)
H7 H 0.94240 0.42860 0.23570
C10 C 1.1154(3) 0.6041(4) 0.15648(13)
H8 H 1.21410 0.48500 0.15630
C11 C 1.1346(3) 0.8123(4) 0.10927(12)
C12 C 0.9893(3) 0.9866(4) 0.10869(12)
H9 H 1.00100 1.12800 0.07620
C13 C 0.8263(3) 0.9511(4) 0.15650(13)
H10 H 0.72740 1.07010 0.15660
C14 C 1.3369(3) 1.0442(5) 0.02303(15)
H11 H 1.22900 1.07430 -0.02340
H12 H 1.46330 1.03450 -0.00300
H13 H 1.34290 1.17310 0.06600
#END
