
#######################################################################
#
#                 Cambridge Crystallographic Data Centre
#                                CCDC
#
#######################################################################
#
# If this CIF has been generated from an entry in the Cambridge
# Structural Database, then it will include bibliographic, chemical,
# crystal, experimental, refinement or atomic coordinate data resulting
# from the CCDC's data processing and validation procedures.
#
#######################################################################

data_CSD_CIF_OJIRIJ
_audit_creation_date 2011-04-18
_audit_creation_method CSD-ConQuest-V1
_database_code_CSD OJIRIJ
_database_code_depnum_ccdc_archive 'CCDC 781968'
_chemical_formula_sum 'C15 H11 N3 O3'
_chemical_formula_moiety
;
C15 H11 N3 O3
;
_journal_coden_Cambridge 1220
_journal_volume 16
_journal_year 2010
_journal_page_first 13590
_journal_name_full 'Chem.-Eur.J. '
loop_
_publ_author_name
"Yun-Kui Liu"
"Shao-Jie Lou"
"Dan-Qian Xu"
"Zhen-Yuan Xu"
_chemical_name_systematic
;
2-(4-Methoxy-2-nitrophenyl)quinoxaline
;
_cell_volume   1315.988
_exptl_crystal_colour 'yellow'
_exptl_crystal_density_diffrn 1.42
_exptl_crystal_description 'chunk'
_diffrn_ambient_temperature 296
#These two values have been output from a single CSD field.
_refine_ls_R_factor_gt 0.0375
_refine_ls_wR_factor_gt 0.0375
_symmetry_cell_setting monoclinic
_symmetry_space_group_name_H-M 'P 21/n'
_symmetry_Int_Tables_number 14
loop_
_symmetry_equiv_pos_site_id
_symmetry_equiv_pos_as_xyz
1 x,y,z
2 1/2-x,1/2+y,1/2-z
3 -x,-y,-z
4 -1/2+x,-1/2-y,-1/2+z
_cell_length_a 7.313(4)
_cell_length_b 13.882(9)
_cell_length_c 13.112(7)
_cell_angle_alpha 90
_cell_angle_beta 98.647(1)
_cell_angle_gamma 90
_cell_formula_units_Z 4
loop_
_atom_type_symbol
_atom_type_radius_bond
C 0.68
H 0.23
N 0.68
O 0.68
loop_
_atom_site_label
_atom_site_type_symbol
_atom_site_fract_x
_atom_site_fract_y
_atom_site_fract_z
N1 N 0.1757(2) 0.15992(11) 0.95418(12)
N2 N 0.0829(2) 0.03744(12) 0.78144(13)
O1 O 0.4449(2) 0.28576(12) 0.86223(13)
O2 O -0.1020(2) 0.58647(10) 0.85061(12)
C1 C 0.0961(2) 0.19281(14) 0.86380(14)
C2 C 0.0536(2) 0.29679(14) 0.85575(14)
C3 C 0.1657(2) 0.00224(14) 0.87473(15)
C4 C 0.2088(2) 0.06350(14) 0.96111(14)
N3 N 0.3779(2) 0.34286(13) 0.91769(15)
C5 C 0.2896(3) 0.02338(15) 1.05639(15)
H1 H 0.31810 0.06280 1.11390
C6 C -0.1750(3) 0.42432(15) 0.82392(16)
H2 H -0.29700 0.44290 0.80270
C7 C -0.0417(3) 0.49361(14) 0.85559(14)
C8 C 0.0482(3) 0.13041(15) 0.77819(15)
H3 H -0.01080 0.15660 0.71670
C9 C 0.1820(2) 0.36889(14) 0.88787(14)
C10 C -0.1280(3) 0.32827(15) 0.82365(15)
H4 H -0.21930 0.28310 0.80160
O3 O 0.4644(2) 0.38043(14) 0.99420(16)
C11 C 0.1402(3) 0.46603(14) 0.88909(15)
H5 H 0.23090 0.51140 0.91160
C12 C 0.2072(3) -0.09674(15) 0.88462(17)
H6 H 0.18080 -0.13730 0.82790
C13 C 0.3260(3) -0.07253(16) 1.06431(17)
H7 H 0.37760 -0.09850 1.12750
C14 C 0.2860(3) -0.13280(16) 0.97748(19)
H8 H 0.31370 -0.19810 0.98360
C15 C 0.0286(3) 0.66069(16) 0.88198(19)
H9 H 0.09170 0.64700 0.95000
H10 H -0.03450 0.72130 0.88230
H11 H 0.11680 0.66390 0.83470
#END
