
#######################################################################
#
#                 Cambridge Crystallographic Data Centre
#                                CCDC
#
#######################################################################
#
# If this CIF has been generated from an entry in the Cambridge
# Structural Database, then it will include bibliographic, chemical,
# crystal, experimental, refinement or atomic coordinate data resulting
# from the CCDC's data processing and validation procedures.
#
#######################################################################

data_CSD_CIF_OJIZUE
_audit_creation_date 2016-04-06
_audit_creation_method CSD-ConQuest-V1
_database_code_CSD OJIZUE
_database_code_depnum_ccdc_archive 'CCDC 1468294'
_chemical_formula_sum 'C20 H18 N2 O1'
_chemical_formula_moiety
;
C20 H18 N2 O1
;
_journal_coden_Cambridge 1078
_journal_year 2016
_journal_name_full 'CSD Communication(Private Communication) '
loop_
_publ_author_name
"S.N.afraj"
_chemical_name_systematic
;
3,4-diphenyl-6,7,8,8a-tetrahydro-4H-[1,2]oxazolo[3,4-a]pyrrolizine
;
_cell_volume   1548.726
_diffrn_ambient_temperature ?
_diffrn_special_details
;
The study was carried out at room temperature,in the range 283-303K

;
_symmetry_cell_setting orthorhombic
_symmetry_space_group_name_H-M 'P 21 21 21'
_symmetry_Int_Tables_number 19
loop_
_symmetry_equiv_pos_site_id
_symmetry_equiv_pos_as_xyz
1 x,y,z
2 1/2-x,-y,1/2+z
3 -x,1/2+y,1/2-z
4 1/2+x,1/2-y,-z
_cell_length_a 9.3239(5)
_cell_length_b 10.3911(6)
_cell_length_c 15.9851(9)
_cell_angle_alpha 90
_cell_angle_beta 90
_cell_angle_gamma 90
_cell_formula_units_Z 4
loop_
_atom_type_symbol
_atom_type_radius_bond
C 0.68
H 0.23
N 0.68
O 0.68
loop_
_atom_site_label
_atom_site_type_symbol
_atom_site_fract_x
_atom_site_fract_y
_atom_site_fract_z
O1 O 0.76675(12) 0.56714(10) 0.94169(7)
N1 N 0.80233(15) 0.55822(13) 1.02824(8)
N2 N 0.72752(15) 0.86721(14) 1.12476(8)
C1 C 0.71714(16) 0.68859(14) 0.92447(9)
C2 C 0.72030(16) 0.75795(15) 0.99587(9)
C3 C 0.77234(16) 0.67270(16) 1.05639(10)
C4 C 0.77419(17) 0.73166(17) 1.1420(1)
H1 H 0.87310 0.72980 1.16620
C5 C 0.6645(2) 0.67355(19) 1.20362(11)
H2 H 0.63770 0.58500 1.18700
H3 H 0.70320 0.67190 1.26130
C6 C 0.53796(19) 0.7634(2) 1.19713(11)
H4 H 0.47570 0.74050 1.14920
H5 H 0.48020 0.76270 1.24910
C7 C 0.6090(2) 0.8920(2) 1.18400(12)
H6 H 0.54030 0.95480 1.16030
H7 H 0.64640 0.92620 1.23750
C8 C 0.68408(17) 0.88574(15) 1.03470(9)
H8 H 0.57800 0.89940 1.03180
C9 C 0.75937(17) 1.00030(15) 0.99633(9)
C10 C 0.68191(19) 1.10732(16) 0.97131(10)
H9 H 0.58070 1.10830 0.97830
C11 C 0.7499(2) 1.21298(17) 0.93627(11)
H10 H 0.69560 1.28640 0.92040
C12 C 0.8963(2) 1.21156(17) 0.92452(10)
H11 H 0.94300 1.28360 0.90010
C13 C 0.97530(19) 1.10464(17) 0.94837(11)
H12 H 1.07610 1.10310 0.93990
C14 C 0.90738(17) 1.00033(15) 0.98439(10)
H13 H 0.96220 0.92780 1.00120
C15 C 0.67486(15) 0.71198(14) 0.83775(9)
C16 C 0.66847(19) 0.83666(15) 0.80678(10)
H14 H 0.68680 0.90730 0.84290
C17 C 0.6356(2) 0.85871(17) 0.72361(11)
H15 H 0.63100 0.94430 0.70300
C18 C 0.6094(2) 0.75693(19) 0.67078(10)
H16 H 0.59010 0.77200 0.61330
C19 C 0.6114(2) 0.63354(19) 0.70134(12)
H17 H 0.59010 0.56360 0.66520
C20 C 0.6441(2) 0.61025(17) 0.78431(11)
H18 H 0.64550 0.52450 0.80480
#END
