
#######################################################################
#
#                 Cambridge Crystallographic Data Centre
#                                CCDC
#
#######################################################################
#
# If this CIF has been generated from an entry in the Cambridge
# Structural Database, then it will include bibliographic, chemical,
# crystal, experimental, refinement or atomic coordinate data resulting
# from the CCDC's data processing and validation procedures.
#
#######################################################################

data_CSD_CIF_OJOMIL
_audit_creation_date 2016-04-07
_audit_creation_method CSD-ConQuest-V1
_database_code_CSD OJOMIL
_database_code_depnum_ccdc_archive 'CCDC 1458695'
_chemical_formula_sum 'C20 H14 N4 O4'
_chemical_formula_moiety
;
C20 H14 N4 O4
;
_journal_coden_Cambridge 1078
_journal_year 2016
_journal_name_full 'CSD Communication(Private Communication) '
loop_
_publ_author_name
"W.Clegg"
"R.W.Harrington"
_chemical_name_systematic
;
N,N'-1,2-phenylenebis(1-(4-nitrophenyl)methanimine)
;
_cell_volume   1691.787
_exptl_crystal_colour 'yellow'
_exptl_crystal_density_diffrn 1.47
_exptl_crystal_description 'needle'
_exptl_crystal_preparation 'Re-crystallisation from solvent'
_diffrn_ambient_temperature 100
#These two values have been output from a single CSD field.
_refine_ls_R_factor_gt 0.0403
_refine_ls_wR_factor_gt 0.0403
_symmetry_cell_setting monoclinic
_symmetry_space_group_name_H-M 'P 21/n'
_symmetry_Int_Tables_number 14
loop_
_symmetry_equiv_pos_site_id
_symmetry_equiv_pos_as_xyz
1 x,y,z
2 1/2-x,1/2+y,1/2-z
3 -x,-y,-z
4 -1/2+x,-1/2-y,-1/2+z
_cell_length_a 3.7131(1)
_cell_length_b 13.5798(5)
_cell_length_c 33.5808(11)
_cell_angle_alpha 90
_cell_angle_beta 92.382(3)
_cell_angle_gamma 90
_cell_formula_units_Z 4
loop_
_atom_type_symbol
_atom_type_radius_bond
C 0.68
H 0.23
N 0.68
O 0.68
loop_
_atom_site_label
_atom_site_type_symbol
_atom_site_fract_x
_atom_site_fract_y
_atom_site_fract_z
O1 O 1.1128(4) 0.13321(11) 0.60064(4)
O2 O 1.3669(4) 0.02572(11) 0.56328(4)
O3 O 0.1996(4) -0.17516(11) 0.31250(5)
O4 O 0.4601(4) -0.15658(11) 0.25658(5)
N1 N 1.1985(5) 0.10263(13) 0.56783(5)
N2 N 0.6640(4) 0.41367(13) 0.43206(5)
N3 N 0.4692(4) 0.32034(12) 0.35574(5)
N4 N 0.3613(5) -0.12502(13) 0.28881(6)
C1 C 1.0996(5) 0.16205(16) 0.53255(6)
C2 C 0.9422(5) 0.25302(15) 0.53774(6)
H1 H 0.89080 0.27570 0.56370
C3 C 0.8610(5) 0.31040(15) 0.50472(6)
H2 H 0.75450 0.37340 0.50790
C4 C 0.9346(5) 0.27636(16) 0.46656(6)
C5 C 1.0896(5) 0.18393(16) 0.46271(6)
H3 H 1.13880 0.16020 0.43690
C6 C 1.1738(5) 0.12581(16) 0.49541(6)
H4 H 1.27970 0.06270 0.49250
C7 C 0.8539(6) 0.33544(16) 0.43071(6)
H5 H 0.94480 0.31510 0.40600
C8 C 0.5793(5) 0.46714(15) 0.39689(6)
C9 C 0.5727(5) 0.56932(15) 0.40037(6)
H6 H 0.62760 0.59860 0.42560
C10 C 0.4885(6) 0.62898(16) 0.36819(7)
H7 H 0.49580 0.69860 0.37110
C11 C 0.3931(6) 0.58728(16) 0.33156(7)
H8 H 0.32960 0.62800 0.30940
C12 C 0.3913(5) 0.48558(16) 0.32764(6)
H9 H 0.32090 0.45700 0.30270
C13 C 0.4907(5) 0.42458(15) 0.35959(6)
C14 C 0.5687(5) 0.28098(15) 0.32352(6)
H10 H 0.67380 0.32140 0.30400
C15 C 0.5259(5) 0.17520(15) 0.31561(6)
C16 C 0.6168(5) 0.13784(15) 0.27862(6)
H11 H 0.71190 0.18060 0.25930
C17 C 0.5695(5) 0.03920(16) 0.26998(6)
H12 H 0.63160 0.01340 0.24490
C18 C 0.4304(5) -0.02090(15) 0.29852(6)
C19 C 0.3440(5) 0.01271(15) 0.33582(6)
H13 H 0.25240 -0.03080 0.35510
C20 C 0.3951(5) 0.11117(15) 0.34413(6)
H14 H 0.34050 0.13590 0.36970
#END
