
#######################################################################
#
#                 Cambridge Crystallographic Data Centre
#                                CCDC
#
#######################################################################
#
# If this CIF has been generated from an entry in the Cambridge
# Structural Database, then it will include bibliographic, chemical,
# crystal, experimental, refinement or atomic coordinate data resulting
# from the CCDC's data processing and validation procedures.
#
#######################################################################

data_CSD_CIF_OJUHOS
_audit_creation_date 2016-04-07
_audit_creation_method CSD-ConQuest-V1
_database_code_CSD OJUHOS
_database_code_depnum_ccdc_archive 'CCDC 1029552'
_chemical_formula_sum 'C21 H22 N2 O6'
_chemical_formula_moiety
;
C21 H22 N2 O6
;
_journal_coden_Cambridge 1078
_journal_year 2016
_journal_name_full 'CSD Communication(Private Communication) '
loop_
_publ_author_name
"K.L.Ivanov"
"N.S.Stebunov"
"E.M.Budynina"
"O.A.Ivanova"
"I.V.Trushkov"
"V.B.Rybakov"
_chemical_name_systematic
;
dimethyl 5-(4-methylphenyl)-2-(2-nitrophenyl)pyrrolidine-3,3-dicarboxylate
;
_cell_volume   2029.405
_exptl_crystal_colour 'colorless'
_exptl_crystal_density_diffrn 1.304
_exptl_crystal_description 'prism'
_exptl_crystal_preparation 'hexane/dichloromethane'
_diffrn_ambient_temperature 295
#These two values have been output from a single CSD field.
_refine_ls_R_factor_gt 0.0479
_refine_ls_wR_factor_gt 0.0479
_symmetry_cell_setting monoclinic
_symmetry_space_group_name_H-M 'P 21/n'
_symmetry_Int_Tables_number 14
loop_
_symmetry_equiv_pos_site_id
_symmetry_equiv_pos_as_xyz
1 x,y,z
2 1/2-x,1/2+y,1/2-z
3 -x,-y,-z
4 -1/2+x,-1/2-y,-1/2+z
_cell_length_a 7.7936(2)
_cell_length_b 16.4723(4)
_cell_length_c 15.9747(3)
_cell_angle_alpha 90
_cell_angle_beta 98.285(2)
_cell_angle_gamma 90
_cell_formula_units_Z 4
loop_
_atom_type_symbol
_atom_type_radius_bond
C 0.68
H 0.23
N 0.68
O 0.68
loop_
_atom_site_label
_atom_site_type_symbol
_atom_site_fract_x
_atom_site_fract_y
_atom_site_fract_z
N1 N 0.46486(16) 0.48555(6) 0.85985(7)
H1 H 0.431(3) 0.4574(17) 0.9024(15)
C1 C 0.37026(15) 0.46340(7) 0.77690(7)
H2 H 0.26450 0.43360 0.78400
C2 C 0.32206(14) 0.54758(7) 0.73345(7)
C3 C 0.44165(15) 0.60698(6) 0.78730(8)
H3 H 0.55570 0.60840 0.76980
H4 H 0.39340 0.66140 0.78440
C4 C 0.44878(17) 0.57137(7) 0.87521(7)
H5 H 0.34000 0.58230 0.89720
C5 C 0.48519(16) 0.41116(7) 0.72723(7)
C6 C 0.66149(17) 0.42888(9) 0.73561(9)
H6 H 0.70730 0.47000 0.77200
C7 C 0.7693(2) 0.38544(11) 0.6899(1)
H7 H 0.88700 0.39760 0.69570
C8 C 0.7016(3) 0.32390(12) 0.63560(12)
H8 H 0.77390 0.29470 0.60510
C9 C 0.5261(3) 0.30592(11) 0.62676(12)
H9 H 0.48060 0.26480 0.59030
C10 C 0.4184(2) 0.34964(8) 0.67258(10)
N2 N 0.2375(2) 0.32421(10) 0.66204(12)
O1 O 0.1682(2) 0.31409(12) 0.72438(13)
O2 O 0.1643(2) 0.31458(12) 0.59088(13)
C11 C 0.13259(15) 0.56857(8) 0.73901(8)
O3 O 0.03912(14) 0.53153(8) 0.77857(9)
O4 O 0.08663(13) 0.63530(7) 0.69600(9)
C12 C -0.0917(2) 0.66204(15) 0.69397(17)
H10 H -0.16780 0.61600 0.68580
H11 H -0.12090 0.69970 0.64830
H12 H -0.10430 0.68810 0.74650
C13 C 0.34719(16) 0.54832(8) 0.64067(8)
O5 O 0.46321(15) 0.58263(7) 0.61297(7)
O6 O 0.22540(13) 0.50395(7) 0.59508(6)
C14 C 0.2382(3) 0.4968(2) 0.50496(11)
H13 H 0.14640 0.46270 0.47820
H14 H 0.34800 0.47330 0.49810
H15 H 0.22850 0.54970 0.47940
C15 C 0.60538(17) 0.60266(7) 0.93879(7)
C16 C 0.5792(2) 0.66438(7) 0.99495(8)
H16 H 0.46800 0.68420 0.99660
C17 C 0.7187(2) 0.69653(8) 1.04862(8)
H17 H 0.70090 0.73790 1.08610
C18 C 0.8852(2) 0.66689(9) 1.04639(9)
C19 C 0.9111(2) 0.60556(11) 0.99047(11)
H18 H 1.02240 0.58570 0.98890
C20 C 0.7716(2) 0.57334(10) 0.93659(10)
H19 H 0.78970 0.53210 0.89910
C21 C 1.0373(3) 0.70529(14) 1.10192(12)
H20 H 1.03820 0.76270 1.09140
H21 H 1.14340 0.68170 1.08930
H22 H 1.02700 0.69580 1.16030
#END
