
#######################################################################
#
#                 Cambridge Crystallographic Data Centre
#                                CCDC
#
#######################################################################
#
# If this CIF has been generated from an entry in the Cambridge
# Structural Database, then it will include bibliographic, chemical,
# crystal, experimental, refinement or atomic coordinate data resulting
# from the CCDC's data processing and validation procedures.
#
#######################################################################

data_CSD_CIF_OKETOP
_audit_creation_date 2016-04-08
_audit_creation_method CSD-ConQuest-V1
_database_code_CSD OKETOP
_database_code_depnum_ccdc_archive 'CCDC 1439904'
_chemical_formula_sum 'C22 H27 N1 O4'
_chemical_formula_moiety
;
C22 H27 N1 O4
;
_journal_coden_Cambridge 1220
_journal_volume 19
_journal_year 2013
_journal_page_first 9167
_journal_name_full 'Chem.-Eur.J. '
loop_
_publ_author_name
"A.V.Malkov"
"S.Stoncius"
"M.Bell"
"F.Castelluzzo"
"P.Ramirez-Lopez"
"L.Biedermannova"
"V.Langer"
"L.Rulisek"
"P.Kocovsky"
_chemical_name_systematic
;
8,10,10-trimethyl-5-(2,4,6-trimethoxyphenyl)-6-azatricyclo[7.1.1.0^2,7^]undeca
-2,4,6-triene 6-oxide
;
_cell_volume   1908.850
_exptl_crystal_colour 'colorless'
_exptl_crystal_density_diffrn 1.286
_exptl_crystal_description 'plate'
_diffrn_ambient_temperature 153
#These two values have been output from a single CSD field.
_refine_ls_R_factor_gt 0.0357
_refine_ls_wR_factor_gt 0.0357
_symmetry_cell_setting orthorhombic
_symmetry_space_group_name_H-M 'P 21 21 21'
_symmetry_Int_Tables_number 19
loop_
_symmetry_equiv_pos_site_id
_symmetry_equiv_pos_as_xyz
1 x,y,z
2 1/2-x,-y,1/2+z
3 -x,1/2+y,1/2-z
4 1/2+x,1/2-y,-z
_cell_length_a 6.9778(7)
_cell_length_b 13.6948(14)
_cell_length_c 19.9755(19)
_cell_angle_alpha 90
_cell_angle_beta 90
_cell_angle_gamma 90
_cell_formula_units_Z 4
loop_
_atom_type_symbol
_atom_type_radius_bond
C 0.68
H 0.23
N 0.68
O 0.68
loop_
_atom_site_label
_atom_site_type_symbol
_atom_site_fract_x
_atom_site_fract_y
_atom_site_fract_z
O1 O 0.5405(3) 0.99910(12) 0.13517(9)
O2 O 0.3783(3) 0.96098(14) -0.06428(9)
O3 O 0.7974(3) 1.23025(14) -0.09668(9)
O4 O 0.9190(3) 0.98449(14) 0.07229(10)
N1 N 0.5332(3) 0.91031(16) 0.11144(11)
C1 C 0.3609(4) 0.6698(2) 0.17450(14)
H1 H 0.34210 0.60210 0.15700
C2 C 0.4419(4) 0.74260(19) 0.12613(13)
C3 C 0.4839(4) 0.7245(2) 0.05976(13)
H2 H 0.46560 0.66120 0.04140
C4 C 0.5532(4) 0.79996(19) 0.02020(14)
H3 H 0.58380 0.78720 -0.02530
C5 C 0.5789(4) 0.89297(19) 0.04521(13)
C6 C 0.4721(4) 0.83631(19) 0.15194(14)
C7 C 0.4244(4) 0.8594(2) 0.22388(13)
H4 H 0.32300 0.91100 0.22430
C8 C 0.3420(4) 0.7674(2) 0.25608(14)
H5 H 0.30680 0.77490 0.30430
C9 C 0.1854(4) 0.7162(2) 0.21219(15)
C10 C 0.4737(5) 0.67879(19) 0.24089(14)
H6 H 0.61080 0.69560 0.23520
H7 H 0.45680 0.62290 0.27180
C11 C 0.6462(4) 0.9773(2) 0.00542(13)
C12 C 0.5401(4) 1.01285(19) -0.04897(13)
C13 C 0.5955(4) 1.0968(2) -0.08320(14)
H8 H 0.52250 1.12000 -0.12000
C14 C 0.7591(4) 1.14580(19) -0.06258(14)
C15 C 0.8718(4) 1.1111(2) -0.01069(13)
H9 H 0.98500 1.14460 0.00230
C16 C 0.8152(4) 1.0257(2) 0.02200(13)
C17 C 0.5975(4) 0.8970(2) 0.26428(14)
H10 H 0.68740 0.84320 0.27210
H11 H 0.55330 0.92280 0.30740
H12 H 0.66190 0.94890 0.23910
C18 C 0.0743(5) 0.6419(2) 0.25382(16)
H13 H -0.02060 0.67600 0.28140
H14 H 0.16330 0.60620 0.28280
H15 H 0.00890 0.59590 0.22400
C19 C 0.0447(4) 0.7785(2) 0.17240(16)
H16 H -0.04260 0.73600 0.14740
H17 H 0.11560 0.82010 0.14110
H18 H -0.02930 0.81960 0.20320
C20 C 0.2561(4) 0.9999(2) -0.11477(14)
H19 H 0.21230 1.06500 -0.10140
H20 H 0.14510 0.95690 -0.12060
H21 H 0.32670 1.00450 -0.15710
C21 C 0.9601(5) 1.2858(2) -0.07583(16)
H22 H 0.94400 1.30550 -0.02900
H23 H 0.97200 1.34410 -0.10400
H24 H 1.07610 1.24590 -0.08020
C22 C 1.0974(4) 1.0289(2) 0.08993(16)
H25 H 1.18440 1.02670 0.05150
H26 H 1.15470 0.99340 0.12750
H27 H 1.07540 1.09700 0.10290
#END
