
#######################################################################
#
#                 Cambridge Crystallographic Data Centre
#                                CCDC
#
#######################################################################
#
# If this CIF has been generated from an entry in the Cambridge
# Structural Database, then it will include bibliographic, chemical,
# crystal, experimental, refinement or atomic coordinate data resulting
# from the CCDC's data processing and validation procedures.
#
#######################################################################

data_CSD_CIF_OKIGAQ
_audit_creation_date 2003-12-12
_audit_creation_method CSD-ConQuest-V1
_database_code_CSD OKIGAQ
_database_code_depnum_ccdc_archive 'CCDC 189589'
_chemical_formula_sum 'C15 H20 N2 O7'
_chemical_formula_moiety
;
C15 H20 N2 O7
;
_journal_coden_Cambridge 10
_journal_volume 86
_journal_year 2003
_journal_page_first 1982
_journal_name_full 'Helv.Chim.Acta '
loop_
_publ_author_name
"G.Voss"
"M.Gradzielski"
"J.Heinze"
"H.Reinke"
"C.Unverzagt"
_chemical_name_systematic
;
2-(Heptyloxy)-5-methoxy-3,6-dinitrobenzaldehyde
;
_chemical_melting_point 343
_cell_volume   1734.905
_exptl_crystal_colour 'pale yellow'
_exptl_crystal_density_diffrn 1.303
_exptl_crystal_description 'plate'
_exptl_crystal_preparation 'ethanol'
_diffrn_ambient_temperature 293
#These two values have been output from a single CSD field.
_refine_ls_R_factor_gt 0.0497
_refine_ls_wR_factor_gt 0.0497
_symmetry_cell_setting monoclinic
_symmetry_space_group_name_H-M 'P 21/n'
_symmetry_Int_Tables_number 14
loop_
_symmetry_equiv_pos_site_id
_symmetry_equiv_pos_as_xyz
1 x,y,z
2 1/2+x,1/2-y,1/2+z
3 -x,-y,-z
4 -1/2-x,-1/2+y,-1/2-z
_cell_length_a 8.886(1)
_cell_length_b 7.467(1)
_cell_length_c 26.202(4)
_cell_angle_alpha 90
_cell_angle_beta 93.71(1)
_cell_angle_gamma 90
_cell_formula_units_Z 4
loop_
_atom_type_symbol
_atom_type_radius_bond
C 0.68
H 0.23
N 0.68
O 0.68
loop_
_atom_site_label
_atom_site_type_symbol
_atom_site_fract_x
_atom_site_fract_y
_atom_site_fract_z
O1 O 1.1713(3) -0.2596(3) 0.21765(9)
O2 O 1.3031(3) 0.0291(4) 0.15360(11)
O3 O 1.0972(4) -0.0748(3) 0.11611(9)
O4 O 1.0638(3) 0.3338(3) 0.12851(8)
O5 O 0.7311(3) 0.3029(4) 0.31315(11)
O6 O 0.8467(3) 0.5447(4) 0.29343(10)
O7 O 0.9381(2) 0.0308(3) 0.31355(8)
N1 N 1.1664(4) 0.0098(4) 0.14935(11)
N2 N 0.8265(4) 0.3847(5) 0.29064(11)
C1 C 1.0528(3) 0.0180(4) 0.23374(12)
C2 C 1.0780(4) 0.1014(4) 0.18781(11)
C3 C 1.0286(4) 0.2707(4) 0.17503(12)
C4 C 0.9473(4) 0.3632(5) 0.20999(12)
H1 H 0.91190 0.47820 0.20270
C5 C 0.9197(4) 0.2821(4) 0.25575(12)
C6 C 0.9707(4) 0.1124(4) 0.26870(12)
C7 C 1.1054(4) -0.1665(5) 0.24570(13)
H2 H 1.08550 -0.21320 0.27750
C8 C 1.0129(5) 0.5072(5) 0.11303(14)
H3 H 1.04610 0.53320 0.07970
H4 H 1.05360 0.59460 0.13700
H5 H 0.90480 0.51090 0.11200
C9 C 1.0410(5) 0.0701(6) 0.35722(13)
H6 H 1.05760 0.19830 0.35980
H7 H 1.13730 0.01250 0.35320
C10 C 0.9753(6) 0.0036(6) 0.40405(13)
H8 H 0.88880 0.07780 0.41030
H9 H 1.04920 0.02120 0.43250
C11 C 0.9262(5) -0.1870(5) 0.40438(14)
H10 H 1.01280 -0.26160 0.39870
H11 H 0.85310 -0.20530 0.37570
C12 C 0.8579(5) -0.2508(6) 0.45194(14)
H12 H 0.77330 -0.17370 0.45830
H13 H 0.93220 -0.23680 0.48040
C13 C 0.8037(6) -0.4421(6) 0.45111(14)
H14 H 0.72790 -0.45550 0.42310
H15 H 0.88780 -0.51900 0.44400
C14 C 0.7393(5) -0.5060(7) 0.49848(16)
H16 H 0.65460 -0.42980 0.50540
H17 H 0.81490 -0.49160 0.52660
C15 C 0.6868(6) -0.6967(7) 0.4977(2)
H18 H 0.64710 -0.72570 0.52990
H19 H 0.77020 -0.77430 0.49190
H20 H 0.60960 -0.71240 0.47070
#END
