
#######################################################################
#
#                 Cambridge Crystallographic Data Centre
#                                CCDC
#
#######################################################################
#
# If this CIF has been generated from an entry in the Cambridge
# Structural Database, then it will include bibliographic, chemical,
# crystal, experimental, refinement or atomic coordinate data resulting
# from the CCDC's data processing and validation procedures.
#
#######################################################################

data_CSD_CIF_OKIROR
_audit_creation_date 2016-04-11
_audit_creation_method CSD-ConQuest-V1
_database_code_CSD OKIROR
_database_code_depnum_ccdc_archive 'CCDC 1434739'
_chemical_formula_sum 'C7 H6 N10 O14'
_chemical_formula_moiety
;
C7 H6 N10 O14
;
_journal_coden_Cambridge 1500
_journal_volume 6
_journal_year 2016
_journal_page_first 34921
_journal_name_full 'RSC Advances '
loop_
_publ_author_name
"A.A.Gidaspov"
"V.A.Zalomlenkov"
"V.V.Bakharev"
"V.E.Parfenov"
"E.V.Yurtaev"
"M.I.Struchkova"
"N.V.Palysaeva"
"K.Yu.Suponitsky"
"D.B.Lempert"
"A.B.Sheremetev"
_chemical_name_systematic
;
4,6-bis(2,2,2-Trinitroethoxy)-1,3,5-triazin-2-amine
;
_cell_volume    801.564
_exptl_crystal_colour 'colorless'
_exptl_crystal_density_diffrn 1.882
_exptl_crystal_description 'prism'
_diffrn_ambient_temperature 100
_refine_special_details
;
O4' and O4 disordered over two sites with occupancies 0.52:0.48.

;
#These two values have been output from a single CSD field.
_refine_ls_R_factor_gt 0.0513
_refine_ls_wR_factor_gt 0.0513
_symmetry_cell_setting triclinic
_symmetry_space_group_name_H-M 'P -1'
_symmetry_Int_Tables_number 2
loop_
_symmetry_equiv_pos_site_id
_symmetry_equiv_pos_as_xyz
1 x,y,z
2 -x,-y,-z
_cell_length_a 6.0315(5)
_cell_length_b 11.7427(10)
_cell_length_c 11.9923(10)
_cell_angle_alpha 101.500(2)
_cell_angle_beta 101.738(2)
_cell_angle_gamma 97.607(2)
_cell_formula_units_Z 2
loop_
_atom_type_symbol
_atom_type_radius_bond
C 0.68
H 0.23
N 0.68
O 0.68
loop_
_atom_site_label
_atom_site_type_symbol
_atom_site_fract_x
_atom_site_fract_y
_atom_site_fract_z
O1 O 0.8189(3) 1.12102(14) 0.18629(14)
O2 O 0.3589(3) 1.16490(19) -0.03064(16)
O3 O 0.4883(3) 1.27551(16) 0.14412(16)
O4 O 0.698(3) 1.0313(5) -0.0619(5)
O5 O 0.7603(4) 1.15986(18) -0.15674(15)
O6 O 0.6663(3) 1.38739(16) -0.03867(17)
O7 O 1.0278(3) 1.38005(15) 0.02754(16)
O8 O 0.9416(3) 0.83284(13) 0.38189(13)
O9 O 0.6045(3) 0.61973(14) 0.52906(14)
O10 O 0.9588(3) 0.67786(15) 0.52183(14)
O11 O 0.8049(3) 0.58957(18) 0.18687(15)
O12 O 0.8570(3) 0.49237(15) 0.32377(16)
O13 O 0.3660(3) 0.49750(14) 0.26513(14)
O14 O 0.2868(3) 0.66994(15) 0.33180(16)
N1 N 0.8640(3) 0.97632(16) 0.28127(15)
N2 N 1.2316(3) 0.98066(16) 0.40471(15)
N3 N 1.1793(3) 1.12957(15) 0.29640(15)
N4 N 0.5110(3) 1.22054(16) 0.05168(16)
N5 N 0.7611(4) 1.13249(19) -0.06629(18)
N6 N 0.8242(3) 1.34457(17) 0.00766(17)
N7 N 0.7530(3) 0.64995(16) 0.48026(16)
N8 N 0.7942(3) 0.57219(18) 0.28169(17)
N9 N 0.4165(3) 0.60203(16) 0.31186(16)
N10 N 1.5274(3) 1.13127(18) 0.41766(17)
C1 C 0.9646(4) 1.07466(19) 0.25838(17)
C2 C 1.0137(4) 0.93529(18) 0.35329(17)
C3 C 1.3103(4) 1.07873(18) 0.37133(17)
C4 C 0.9216(4) 1.2210(2) 0.15109(19)
H1 H 1.07410 1.21040 0.13640
H2 H 0.94160 1.29410 0.21270
C5 C 0.7585(4) 1.22799(18) 0.04034(18)
C6 C 0.7061(4) 0.78081(19) 0.33302(19)
H3 H 0.66530 0.77860 0.24830
H4 H 0.60610 0.82740 0.37190
C7 C 0.6734(4) 0.65640(19) 0.35210(18)
H5 H 1.581(5) 1.194(3) 0.396(2)
H6 H 1.613(5) 1.101(2) 0.466(3)
O15? O 0.847(3) 1.0449(5) -0.0366(9)
#END
