
#######################################################################
#
#                 Cambridge Crystallographic Data Centre
#                                CCDC
#
#######################################################################
#
# If this CIF has been generated from an entry in the Cambridge
# Structural Database, then it will include bibliographic, chemical,
# crystal, experimental, refinement or atomic coordinate data resulting
# from the CCDC's data processing and validation procedures.
#
#######################################################################

data_CSD_CIF_OKOKAC
_audit_creation_date 2016-04-11
_audit_creation_method CSD-ConQuest-V1
_database_code_CSD OKOKAC
_database_code_depnum_ccdc_archive 'CCDC 1473443'
_chemical_formula_sum 'C14 H15 N3 O3'
_chemical_formula_moiety
;
C14 H15 N3 O3
;
_journal_coden_Cambridge 1291
_journal_year 2016
_journal_page_first 1860
_journal_name_full 'Eur.J.Org.Chem. '
loop_
_publ_author_name
"M.R.Miner"
"K.A.Woerpel"
_chemical_name_systematic
;
2-(1H-benzotriazol-1-yloxy)-1-ethynylcyclohexyl hydroperoxide
;
_cell_volume   1318.540
_exptl_crystal_colour 'yellow'
_exptl_crystal_density_diffrn 1.377
_exptl_special_details
;
Heat-sensitive

;
_exptl_crystal_description 'plate'
_diffrn_ambient_temperature 100
_diffrn_special_details
;
twin

;
#These two values have been output from a single CSD field.
_refine_ls_R_factor_gt 0.0457
_refine_ls_wR_factor_gt 0.0457
_symmetry_cell_setting monoclinic
_symmetry_space_group_name_H-M 'P 21/c'
_symmetry_Int_Tables_number 14
loop_
_symmetry_equiv_pos_site_id
_symmetry_equiv_pos_as_xyz
1 x,y,z
2 -x,1/2+y,1/2-z
3 -x,-y,-z
4 x,-1/2-y,-1/2+z
_cell_length_a 8.3949(5)
_cell_length_b 14.4583(9)
_cell_length_c 11.5551(7)
_cell_angle_alpha 90
_cell_angle_beta 109.927(1)
_cell_angle_gamma 90
_cell_formula_units_Z 4
loop_
_atom_type_symbol
_atom_type_radius_bond
C 0.68
H 0.23
N 0.68
O 0.68
loop_
_atom_site_label
_atom_site_type_symbol
_atom_site_fract_x
_atom_site_fract_y
_atom_site_fract_z
O1 O 0.98835(14) 0.44510(8) 0.25755(9)
O2 O 1.06265(14) 0.43079(8) 0.39087(10)
H1 H 1.1666(17) 0.4270(15) 0.392(2)
O3 O 0.64482(13) 0.46530(7) 0.23514(9)
N1 N 0.57649(15) 0.42540(8) 0.31441(11)
N2 N 0.43513(15) 0.45994(9) 0.32750(12)
N3 N 0.39282(16) 0.40456(9) 0.40216(12)
C1 C 0.90618(18) 0.53439(10) 0.23746(13)
C2 C 0.76793(18) 0.53772(9) 0.29641(13)
H2 H 0.81900 0.52320 0.38610
C3 C 0.67770(18) 0.63029(10) 0.28031(14)
H3 H 0.59630 0.62970 0.32540
H4 H 0.61310 0.64040 0.19200
C4 C 0.8044(2) 0.70963(10) 0.32861(15)
H5 H 0.74370 0.76950 0.31150
H6 H 0.85950 0.70360 0.41890
C5 C 0.9390(2) 0.70784(11) 0.26717(14)
H7 H 1.02180 0.75820 0.30110
H8 H 0.88490 0.71840 0.17760
C6 C 1.03107(18) 0.61465(11) 0.28911(14)
H9 H 1.08930 0.60550 0.37850
H10 H 1.11800 0.61480 0.24890
C7 C 0.83543(19) 0.53916(10) 0.10174(14)
C8 C 0.7848(2) 0.54207(11) -0.00733(15)
H11 H 0.74420 0.54440 -0.09470
C9 C 0.62828(18) 0.34536(10) 0.37793(13)
C10 C 0.50841(18) 0.33279(10) 0.43571(13)
C11 C 0.5191(2) 0.25476(9) 0.51083(17)
H12 H 0.44010 0.24500 0.55210
C12 C 0.6480(2) 0.19355(11) 0.52203(14)
H13 H 0.65770 0.14010 0.57180
C13 C 0.7671(2) 0.20762(10) 0.46161(14)
H14 H 0.85410 0.16310 0.47180
C14 C 0.76089(19) 0.28378(11) 0.38844(14)
H15 H 0.84090 0.29370 0.34810
#END
