
#######################################################################
#
#                 Cambridge Crystallographic Data Centre
#                                CCDC
#
#######################################################################
#
# If this CIF has been generated from an entry in the Cambridge
# Structural Database, then it will include bibliographic, chemical,
# crystal, experimental, refinement or atomic coordinate data resulting
# from the CCDC's data processing and validation procedures.
#
#######################################################################

data_CSD_CIF_OKUBAX
_audit_creation_date 2004-02-04
_audit_creation_method CSD-ConQuest-V1
_database_code_CSD OKUBAX
_database_code_depnum_ccdc_archive 'CCDC 219410'
_chemical_formula_sum 'C17 H25 N1 O4'
_chemical_formula_moiety
;
C17 H25 N1 O4
;
_journal_coden_Cambridge 4
_journal_volume 125
_journal_year 2003
_journal_page_first 9022
_journal_name_full 'J.Am.Chem.Soc. '
loop_
_publ_author_name
"T.Ooi"
"K.Doda"
"K.Maruoka"
_chemical_name_systematic
;
4,6-Dimethyl-2-(4'-nitro-3'-phenylpentan-2'-yl)-1,3-dioxane
;
_cell_volume   1719.260
_exptl_crystal_colour 'colorless'
_exptl_crystal_density_diffrn 1.187
_exptl_crystal_description 'block'
_exptl_crystal_preparation 'ether/hexane'
_diffrn_ambient_temperature 296.2
#These two values have been output from a single CSD field.
_refine_ls_R_factor_gt 0.059
_refine_ls_wR_factor_gt 0.059
_symmetry_cell_setting orthorhombic
_symmetry_space_group_name_H-M 'P 21 21 21'
_symmetry_Int_Tables_number 19
loop_
_symmetry_equiv_pos_site_id
_symmetry_equiv_pos_as_xyz
1 x,y,z
2 1/2-x,-y,1/2+z
3 1/2+x,1/2-y,-z
4 -x,1/2+y,1/2-z
_cell_length_a 6.004(2)
_cell_length_b 14.986(5)
_cell_length_c 19.108(7)
_cell_angle_alpha 90
_cell_angle_beta 90
_cell_angle_gamma 90
_cell_formula_units_Z 4
loop_
_atom_type_symbol
_atom_type_radius_bond
C 0.68
H 0.23
N 0.68
O 0.68
loop_
_atom_site_label
_atom_site_type_symbol
_atom_site_fract_x
_atom_site_fract_y
_atom_site_fract_z
O1 O -0.0175(4) -0.0547(2) -1.1564(1)
O2 O -0.3175(5) -0.1253(2) -1.1375(1)
O3 O 0.1011(2) 0.0997(1) -0.91150(8)
O4 O -0.1930(3) 0.1891(1) -0.87637(8)
N1 N -0.2031(4) -0.0599(2) -1.1325(1)
C1 C -0.0637(4) -0.1290(2) -0.9756(1)
C2 C -0.0950(5) -0.2063(2) -0.9379(2)
C3 C -0.2905(6) -0.2185(2) -0.9017(1)
C4 C -0.4532(5) -0.1539(2) -0.9041(1)
C5 C -0.4192(4) -0.0768(2) -0.9415(1)
C6 C -0.2227(4) -0.0626(1) -0.9779(1)
C7 C -0.1760(3) 0.0204(1) -1.0198(1)
C8 C -0.2903(4) 0.0197(2) -1.0923(1)
C9 C -0.5420(5) 0.0186(3) -1.0924(2)
C10 C -0.2264(4) 0.1085(2) -0.9820(1)
C11 C -0.1436(5) 0.1885(2) -1.0242(1)
C12 C -0.1322(3) 0.1086(2) -0.9087(1)
C13 C 0.2005(4) 0.0968(2) -0.8429(1)
C14 C 0.1564(6) 0.0097(2) -0.8058(2)
C15 C 0.1253(6) 0.1780(2) -0.8014(1)
C16 C -0.1224(6) 0.1914(2) -0.8040(1)
C17 C -0.2014(8) 0.2784(2) -0.7734(2)
H1 H 0.07270 -0.12110 -1.00040
H2 H 0.01470 -0.25260 -0.93720
H3 H -0.31360 -0.27260 -0.87610
H4 H -0.58230 -0.16380 -0.87700
H5 H -0.53610 -0.03200 -0.94270
H6 H -0.01830 0.02260 -1.02920
H7 H -0.24170 0.07310 -1.11710
H8 H -0.59400 -0.03080 -1.06780
H9 H -0.59610 0.01940 -1.13880
H10 H -0.59590 0.07270 -1.06920
H11 H -0.38510 0.11190 -0.97920
H12 H 0.01440 0.18650 -1.02900
H13 H -0.20750 0.18790 -1.07060
H14 H -0.18510 0.24260 -1.00210
H15 H -0.19720 0.06000 -0.88270
H16 H 0.35920 0.10040 -0.84810
H17 H -0.00250 0.00430 -0.79870
H18 H 0.22710 0.00890 -0.76170
H19 H 0.20510 -0.03830 -0.83360
H20 H 0.17510 0.16860 -0.75350
H21 H 0.20060 0.22790 -0.81960
H22 H -0.19470 0.14270 -0.77860
H23 H -0.15990 0.27970 -0.72430
H24 H -0.35580 0.28280 -0.77720
H25 H -0.12820 0.32510 -0.79650
#END
