
#######################################################################
#
#                 Cambridge Crystallographic Data Centre
#                                CCDC
#
#######################################################################
#
# If this CIF has been generated from an entry in the Cambridge
# Structural Database, then it will include bibliographic, chemical,
# crystal, experimental, refinement or atomic coordinate data resulting
# from the CCDC's data processing and validation procedures.
#
#######################################################################

data_CSD_CIF_OKUHIL
_audit_creation_date 2004-02-04
_audit_creation_method CSD-ConQuest-V1
_database_code_CSD OKUHIL
_database_code_depnum_ccdc_archive 'CCDC 161454'
_chemical_formula_sum 'C10 H13 N1 O2'
_chemical_formula_moiety
;
C10 H13 N1 O2
;
_journal_coden_Cambridge 1137
_journal_volume 14
_journal_year 2001
_journal_page_first 764
_journal_name_full 'J.Phys.Org.Chem. '
loop_
_publ_author_name
"E.Pindelska"
"T.M.Krygowski"
"R.Anulewicz-Ostrowska"
"M.K.Cyranski"
"J.Nowacki"
_chemical_name_systematic
;
2,5-Dimethyl-4-methoxybenzaldehyde oxime
;
_chemical_name_common
;
2,5-Dimethyl-p-anisaldoxime
;
_chemical_melting_point 410.15
_cell_volume    963.227
_exptl_crystal_colour 'colorless'
_exptl_crystal_density_diffrn 1.236
_exptl_special_details
;
Melting point range 410.15-411.65K

;
_exptl_crystal_preparation '95% ethanol'
_diffrn_ambient_temperature 293
#These two values have been output from a single CSD field.
_refine_ls_R_factor_gt 0.0537
_refine_ls_wR_factor_gt 0.0537
_symmetry_cell_setting monoclinic
_symmetry_space_group_name_H-M 'P 21/c'
_symmetry_Int_Tables_number 14
loop_
_symmetry_equiv_pos_site_id
_symmetry_equiv_pos_as_xyz
1 x,y,z
2 x,1/2-y,1/2+z
3 -x,-y,-z
4 -x,-1/2+y,-1/2-z
_cell_length_a 6.8400(14)
_cell_length_b 8.0100(16)
_cell_length_c 17.800(4)
_cell_angle_alpha 90
_cell_angle_beta 99.00(3)
_cell_angle_gamma 90
_cell_formula_units_Z 4
loop_
_atom_type_symbol
_atom_type_radius_bond
C 0.68
H 0.23
N 0.68
O 0.68
loop_
_atom_site_label
_atom_site_type_symbol
_atom_site_fract_x
_atom_site_fract_y
_atom_site_fract_z
O1 O 0.3336(3) 0.9693(3) 0.23530(12)
C1 C 0.2230(4) 0.8994(3) 0.17265(18)
C2 C -0.1487(6) 0.6743(4) -0.0134(2)
C3 C 0.0497(5) 0.8176(4) 0.18584(18)
C4 C 0.2714(5) 0.9053(4) 0.1002(2)
C5 C -0.0649(5) 0.7450(4) 0.12403(19)
C6 C -0.0193(4) 0.7498(3) 0.05025(17)
N1 N -0.3094(4) 0.6001(3) -0.00661(15)
C7 C 0.1539(5) 0.8306(4) 0.03874(18)
O2 O -0.4088(4) 0.5401(3) -0.07695(14)
C8 C 0.5076(7) 1.0576(7) 0.2245(3)
C9 C 0.2194(7) 0.8396(6) -0.0380(2)
C10 C 0.0016(7) 0.8097(6) 0.2648(2)
H1 H -0.189(4) 0.687(3) 0.1330(14)
H2 H 0.394(5) 0.961(4) 0.0912(17)
H3 H -0.122(4) 0.679(4) -0.065(2)
H4 H 0.244(6) 0.737(6) -0.056(2)
H5 H 0.138(6) 0.910(5) -0.074(2)
H6 H 0.473(6) 1.163(6) 0.190(2)
H7 H 0.099(7) 0.748(5) 0.296(3)
H8 H 0.560(6) 1.088(4) 0.271(2)
H9 H -0.106(7) 0.740(6) 0.269(2)
H10 H 0.338(7) 0.905(5) -0.042(2)
H11 H -0.038(7) 0.921(6) 0.285(3)
H12 H -0.552(11) 0.456(8) -0.065(4)
H13 H 0.604(7) 0.982(6) 0.202(3)
#END
