
#######################################################################
#
#                 Cambridge Crystallographic Data Centre
#                                CCDC
#
#######################################################################
#
# If this CIF has been generated from an entry in the Cambridge
# Structural Database, then it will include bibliographic, chemical,
# crystal, experimental, refinement or atomic coordinate data resulting
# from the CCDC's data processing and validation procedures.
#
#######################################################################

data_CSD_CIF_OKUHIM
_audit_creation_date 2011-05-03
_audit_creation_method CSD-ConQuest-V1
_database_code_CSD OKUHIM
_database_code_depnum_ccdc_archive 'CCDC 790227'
_chemical_formula_sum 'C17 H30 N4 O2'
_chemical_formula_moiety
;
C17 H30 N4 O2
;
_journal_coden_Cambridge 241
_journal_volume 40
_journal_year 2011
_journal_page_first 22
_journal_name_full 'Chem.Lett. '
loop_
_publ_author_name
"S.Suzuki"
"N.Itoh"
"K.Furuichi"
"M.Kozaki"
"D.Shiomi"
"K.Sato"
"T.Takui"
"H.Ohi"
"S.Itoh"
"K.Okada"
_chemical_name_systematic
;
2,2'-Propane-2,2-diylbis(4,4,5,5-tetramethyl-4,5-dihydro-1H-imidazole 1-oxide 
radical)
;
_cell_volume   1846.623
_exptl_crystal_colour 'red'
_exptl_crystal_density_diffrn 1.16
_exptl_crystal_description 'prism'
_diffrn_ambient_temperature 193
#These two values have been output from a single CSD field.
_refine_ls_R_factor_gt 0.0477
_refine_ls_wR_factor_gt 0.0477
_symmetry_cell_setting orthorhombic
_symmetry_space_group_name_H-M 'P b c n'
_symmetry_Int_Tables_number 60
loop_
_symmetry_equiv_pos_site_id
_symmetry_equiv_pos_as_xyz
1 x,y,z
2 1/2-x,1/2-y,1/2+z
3 1/2+x,1/2-y,-z
4 -x,y,1/2-z
5 -x,-y,-z
6 -1/2+x,-1/2+y,-1/2-z
7 -1/2-x,-1/2+y,z
8 x,-y,-1/2+z
_cell_length_a 13.4628(19)
_cell_length_b 12.1558(18)
_cell_length_c 11.2839(15)
_cell_angle_alpha 90
_cell_angle_beta 90
_cell_angle_gamma 90
_cell_formula_units_Z 4
loop_
_atom_type_symbol
_atom_type_radius_bond
C 0.68
H 0.23
N 0.68
O 0.68
loop_
_atom_site_label
_atom_site_type_symbol
_atom_site_fract_x
_atom_site_fract_y
_atom_site_fract_z
O1 O -0.03951(6) 0.31851(8) 0.10290(9)
N1 N 0.04897(7) 0.28523(8) 0.11844(9)
N2 N 0.17069(7) 0.17560(9) 0.18476(9)
C1 C 0.13953(9) 0.34718(10) 0.08183(11)
C2 C 0.21674(9) 0.25216(11) 0.09649(10)
C3 C 0.07746(8) 0.19527(9) 0.18781(10)
C4 C 0.15242(13) 0.44022(12) 0.17181(14)
H1 H 0.1579(12) 0.4089(14) 0.2543(17)
H2 H 0.2109(13) 0.4835(15) 0.1512(16)
H3 H 0.0936(14) 0.4868(15) 0.1660(16)
C5 C 0.12681(12) 0.39270(13) -0.04299(12)
H4 H 0.1028(13) 0.3363(14) -0.0969(16)
H5 H 0.0800(14) 0.4558(15) -0.0413(16)
H6 H 0.1896(14) 0.4193(15) -0.0714(16)
C6 C 0.3181(1) 0.28844(15) 0.14106(14)
H7 H 0.3476(14) 0.3437(17) 0.0869(18)
H8 H 0.3123(12) 0.3227(13) 0.2199(16)
H9 H 0.3626(15) 0.2212(18) 0.1447(19)
C7 C 0.22918(11) 0.18564(12) -0.01757(12)
H10 H 0.1645(13) 0.1606(14) -0.0470(15)
H11 H 0.2717(13) 0.1203(15) -0.0014(16)
H12 H 0.2610(12) 0.2300(13) -0.0794(14)
C8 C 0.00000 0.12595(13) 0.25000
C9 C -0.05105(10) 0.05322(11) 0.15658(12)
H13 H -0.1021(13) 0.0079(15) 0.1937(16)
H14 H -0.0816(13) 0.0985(15) 0.0956(17)
H15 H 0.0005(13) 0.0058(14) 0.1192(15)
O1C O 0.03951(6) 0.31851(8) 0.39710(9)
N1C N -0.04897(7) 0.28523(8) 0.38156(9)
N2C N -0.17069(7) 0.17560(9) 0.31524(9)
C1C C -0.13953(9) 0.34718(10) 0.41817(11)
C2C C -0.21674(9) 0.25216(11) 0.40351(10)
C3C C -0.07746(8) 0.19527(9) 0.31219(10)
C4C C -0.15242(13) 0.44022(12) 0.32819(14)
H1C H -0.1579(12) 0.4089(14) 0.2457(17)
H2C H -0.2109(13) 0.4835(15) 0.3488(16)
H3C H -0.0936(14) 0.4868(15) 0.3340(16)
C5C C -0.12681(12) 0.39270(13) 0.54299(12)
H4C H -0.1028(13) 0.3363(14) 0.5969(16)
H5C H -0.0800(14) 0.4558(15) 0.5413(16)
H6C H -0.1896(14) 0.4193(15) 0.5714(16)
C6C C -0.3181(1) 0.28844(15) 0.35894(14)
H7C H -0.3476(14) 0.3437(17) 0.4131(18)
H8C H -0.3123(12) 0.3227(13) 0.2801(16)
H9C H -0.3626(15) 0.2212(18) 0.3553(19)
C7C C -0.22918(11) 0.18564(12) 0.51757(12)
H10C H -0.1645(13) 0.1606(14) 0.5470(15)
H11C H -0.2717(13) 0.1203(15) 0.5014(16)
H12C H -0.2610(12) 0.2300(13) 0.5794(14)
C9C C 0.05105(10) 0.05322(11) 0.34342(12)
H13C H 0.1021(13) 0.0079(15) 0.3063(16)
H14C H 0.0816(13) 0.0985(15) 0.4044(17)
H15C H -0.0005(13) 0.0058(14) 0.3808(15)
#END
