
#######################################################################
#
#                 Cambridge Crystallographic Data Centre
#                                CCDC
#
#######################################################################
#
# If this CIF has been generated from an entry in the Cambridge
# Structural Database, then it will include bibliographic, chemical,
# crystal, experimental, refinement or atomic coordinate data resulting
# from the CCDC's data processing and validation procedures.
#
#######################################################################

data_CSD_CIF_OKUTUK
_audit_creation_date 2011-05-03
_audit_creation_method CSD-ConQuest-V1
_database_code_CSD OKUTUK
_database_code_depnum_ccdc_archive 'CCDC 772891'
_chemical_formula_sum 'C19 H18 N2 O3'
_chemical_formula_moiety
;
C19 H18 N2 O3
;
_journal_coden_Cambridge 119
_journal_volume 987
_journal_year 2011
_journal_page_first 106
_journal_name_full 'J.Mol.Struct. '
loop_
_publ_author_name
"O.F.Vazquez-Vuelvas"
"J.V.Hernandez-Madrigal"
"R.Gavino"
"M.A.Tlenkopatchev"
"D.Morales-Morales"
"J.M.German-Acacio"
"Z.Gomez-Sandoval"
"C.Garcias-Morales"
"A.Ariza-Castolo"
"A.Pineda-Contreras"
_chemical_name_systematic
;
1-(4-Nitrophenyl)-2-(1,3,3-trimethyl-1,3-dihydro-2H-indol-2-ylidene)ethanone
;
_chemical_melting_point 469.15
_cell_volume    838.537
_exptl_crystal_colour 'yellow'
_exptl_crystal_density_diffrn 1.277
_exptl_crystal_description 'block'
_exptl_crystal_preparation 'toluene'
_diffrn_ambient_temperature 298
_refine_special_details
;
N1,O2,O3 and N1B,O2B,O3B disordered over two sites with occupancies 
;
#These two values have been output from a single CSD field.
_refine_ls_R_factor_gt 0.0461
_refine_ls_wR_factor_gt 0.0461
_symmetry_cell_setting triclinic
_symmetry_space_group_name_H-M 'P -1'
_symmetry_Int_Tables_number 2
loop_
_symmetry_equiv_pos_site_id
_symmetry_equiv_pos_as_xyz
1 x,y,z
2 -x,-y,-z
_cell_length_a 8.5784(13)
_cell_length_b 9.0870(13)
_cell_length_c 11.1379(16)
_cell_angle_alpha 79.926(2)
_cell_angle_beta 78.848(2)
_cell_angle_gamma 86.990(2)
_cell_formula_units_Z 2
loop_
_atom_type_symbol
_atom_type_radius_bond
C 0.68
H 0.23
N 0.68
O 0.68
loop_
_atom_site_label
_atom_site_type_symbol
_atom_site_fract_x
_atom_site_fract_y
_atom_site_fract_z
O1 O 0.81007(14) 0.66623(15) 0.47241(11)
C1 C 0.69727(19) 0.64591(19) 0.56098(15)
C2 C 0.53338(19) 0.68096(18) 0.55721(15)
H1 H 0.46220 0.64920 0.63040
N1 N 0.30687(15) 0.77693(15) 0.47146(12)
C3 C 0.46719(18) 0.75470(17) 0.46071(14)
C4 C 0.54613(18) 0.82927(18) 0.33012(14)
C5 C 0.3964(2) 0.9881(2) 0.16584(17)
H2 H 0.48810 1.01150 0.10680
C6 C 0.2489(3) 1.0405(3) 0.14153(19)
H3 H 0.24160 1.09860 0.06520
C7 C 0.1135(2) 1.0074(2) 0.22924(19)
H4 H 0.01590 1.04460 0.21160
C8 C 0.1193(2) 0.9197(2) 0.34352(17)
H5 H 0.02770 0.89700 0.40280
C9 C 0.26701(19) 0.86779(18) 0.36531(15)
C10 C 0.40456(19) 0.90097(19) 0.27872(15)
C11 C 0.18979(19) 0.7188(2) 0.58007(15)
H6 H 0.20560 0.61280 0.60130
H7 H 0.08500 0.73940 0.56220
H8 H 0.20140 0.76600 0.64850
C12 C 0.6626(2) 0.9495(2) 0.33477(18)
H9 H 0.60860 1.02090 0.38330
H10 H 0.70300 0.99930 0.25200
H11 H 0.74910 0.90360 0.37190
C13 C 0.6257(2) 0.7124(2) 0.25218(16)
H12 H 0.54820 0.64180 0.24810
H13 H 0.70920 0.66090 0.28990
H14 H 0.66930 0.76140 0.16980
C14 C 0.73475(18) 0.57356(18) 0.68498(15)
C15 C 0.8596(2) 0.4702(2) 0.68698(16)
H15 H 0.91820 0.44840 0.61260
C16 C 0.8978(2) 0.3995(2) 0.79744(18)
H16 H 0.98020 0.32890 0.79860
C17 C 0.8116(2) 0.4356(2) 0.90599(18)
N2 N 0.8479(9) 0.3611(8) 1.0257(6)
O2 O 0.7781(19) 0.4087(19) 1.1188(9)
O3 O 0.945(2) 0.256(2) 1.0224(13)
C18 C 0.6912(2) 0.5401(3) 0.90752(18)
H17 H 0.63670 0.56490 0.98220
C19 C 0.6519(2) 0.6082(2) 0.79661(17)
H18 H 0.56890 0.67830 0.79660
N3? N 0.8502(10) 0.3558(9) 1.0233(6)
O4? O 0.7466(14) 0.343(3) 1.1182(11)
O5? O 0.9849(11) 0.3039(17) 1.0230(13)
#END
