
#######################################################################
#
#                 Cambridge Crystallographic Data Centre
#                                CCDC
#
#######################################################################
#
# If this CIF has been generated from an entry in the Cambridge
# Structural Database, then it will include bibliographic, chemical,
# crystal, experimental, refinement or atomic coordinate data resulting
# from the CCDC's data processing and validation procedures.
#
#######################################################################

data_CSD_CIF_OKUXUN
_audit_creation_date 2004-02-04
_audit_creation_method CSD-ConQuest-V1
_database_code_CSD OKUXUN
_database_code_depnum_ccdc_archive 'CCDC 203064'
_chemical_formula_sum 'C12 H17 N3 O2'
_chemical_formula_moiety
;
C12 H17 N3 O2
;
_journal_coden_Cambridge 580
_journal_volume 22
_journal_year 2003
_journal_page_first 2499
_journal_name_full 'Polyhedron '
loop_
_publ_author_name
"E.V.Tretyakov"
"I.V.Eltsov"
"S.V.Fokin"
"Y.G.Shvedenkov"
"G.V.Romanenko"
"V.I.Ovcharenko"
_chemical_name_systematic
;
2-(4,4,5,5-tetramethyl-3-oxy-4,5-dihydro-1H-imidazol-2-yl)-pyridin-3-ol
;
_cell_volume   2573.199
_exptl_crystal_density_diffrn 1.215
_diffrn_ambient_temperature 293
#These two values have been output from a single CSD field.
_refine_ls_R_factor_gt 0.0378
_refine_ls_wR_factor_gt 0.0378
_symmetry_cell_setting monoclinic
_symmetry_space_group_name_H-M 'C 2/c'
_symmetry_Int_Tables_number 15
loop_
_symmetry_equiv_pos_site_id
_symmetry_equiv_pos_as_xyz
1 x,y,z
2 1/2+x,1/2+y,z
3 x,-y,1/2+z
4 1/2+x,1/2-y,1/2+z
5 -x,-y,-z
6 -1/2-x,-1/2-y,-z
7 -x,y,-1/2-z
8 -1/2-x,-1/2+y,-1/2-z
_cell_length_a 16.331(3)
_cell_length_b 16.546(3)
_cell_length_c 11.356(2)
_cell_angle_alpha 90
_cell_angle_beta 123.01(3)
_cell_angle_gamma 90
_cell_formula_units_Z 8
loop_
_atom_type_symbol
_atom_type_radius_bond
C 0.68
H 0.23
N 0.68
O 0.65
loop_
_atom_site_label
_atom_site_type_symbol
_atom_site_fract_x
_atom_site_fract_y
_atom_site_fract_z
O1 O 0.17397(9) 0.08631(8) 0.15695(13)
N1 N 0.23635(10) 0.09291(8) 0.11416(13)
C1 C 0.20843(13) 0.06256(11) -0.02721(17)
C2 C 0.1572(2) -0.01809(16) -0.0572(3)
H1 H 0.203(2) -0.0570(19) 0.021(3)
H2 H 0.0914(18) -0.0092(14) -0.065(2)
H3 H 0.1431(18) -0.0384(17) -0.148(3)
C3 C 0.14056(19) 0.12666(17) -0.1328(2)
H4 H 0.1819(19) 0.1844(18) -0.111(3)
H5 H 0.1181(17) 0.1082(14) -0.227(3)
H6 H 0.0827(18) 0.1303(15) -0.126(2)
C4 C 0.31121(13) 0.06155(11) -0.00427(17)
C5 C 0.3110(2) 0.07937(18) -0.1364(2)
H7 H 0.280(2) 0.138(2) -0.178(3)
H8 H 0.2719(15) 0.0376(14) -0.205(2)
H9 H 0.3783(18) 0.0752(15) -0.114(3)
C6 C 0.3678(2) -0.01613(16) 0.0641(3)
H10 H 0.3349(17) -0.0586(17) -0.006(3)
H11 H 0.3653(15) -0.0292(14) 0.146(3)
H12 H 0.438(2) -0.0085(15) 0.086(2)
N2 N 0.35825(12) 0.12793(9) 0.09871(14)
H13 H 0.4216(15) 0.1407(12) 0.133(2)
C7 C 0.31798(11) 0.13318(9) 0.17497(15)
C8 C 0.36203(11) 0.18026(9) 0.30497(15)
N3 N 0.45947(10) 0.19022(9) 0.36977(13)
C9 C 0.50579(15) 0.23460(12) 0.48557(19)
H14 H 0.5760(15) 0.2428(11) 0.531(2)
C10 C 0.45845(16) 0.27103(13) 0.5417(2)
H15 H 0.4987(14) 0.3021(13) 0.627(2)
C11 C 0.36060(15) 0.26159(12) 0.4771(2)
H16 H 0.3263(15) 0.2855(13) 0.511(2)
C12 C 0.30805(12) 0.21647(10) 0.35330(16)
O2 O 0.21182(9) 0.21119(9) 0.28615(14)
H17 H 0.1893(17) 0.1547(17) 0.220(3)
#END
