
#######################################################################
#
#                 Cambridge Crystallographic Data Centre
#                                CCDC
#
#######################################################################
#
# If this CIF has been generated from an entry in the Cambridge
# Structural Database, then it will include bibliographic, chemical,
# crystal, experimental, refinement or atomic coordinate data resulting
# from the CCDC's data processing and validation procedures.
#
#######################################################################

data_CSD_CIF_OKUZOJ
_audit_creation_date 2004-02-04
_audit_creation_method CSD-ConQuest-V1
_database_code_CSD OKUZOJ
_database_code_depnum_ccdc_archive 'CCDC 203073'
_chemical_formula_sum 'C13 H16 N3 O4'
_chemical_formula_moiety
;
C13 H16 N3 O4
;
_journal_coden_Cambridge 580
_journal_volume 22
_journal_year 2003
_journal_page_first 2499
_journal_name_full 'Polyhedron '
loop_
_publ_author_name
"E.V.Tretyakov"
"I.V.Eltsov"
"S.V.Fokin"
"Y.G.Shvedenkov"
"G.V.Romanenko"
"V.I.Ovcharenko"
_chemical_name_systematic
;
2-(2-Hydroxy-5-nitrophenyl)-4,4,5,5-tetramethyl-4,5-dihydro-1H-imidazol-1-oxyl
;
_chemical_melting_point 408.15
_cell_volume   1360.711
_exptl_crystal_colour 'red-brown'
_exptl_crystal_density_diffrn 1.358
_exptl_special_details
;
Melts with decomposition.

;
_exptl_crystal_preparation 'hexane'
_diffrn_ambient_temperature 240
#These two values have been output from a single CSD field.
_refine_ls_R_factor_gt 0.0915
_refine_ls_wR_factor_gt 0.0915
_symmetry_cell_setting monoclinic
_symmetry_space_group_name_H-M 'P 21/n'
_symmetry_Int_Tables_number 14
loop_
_symmetry_equiv_pos_site_id
_symmetry_equiv_pos_as_xyz
1 x,y,z
2 1/2+x,1/2-y,1/2+z
3 -x,-y,-z
4 -1/2-x,-1/2+y,-1/2-z
_cell_length_a 9.137(3)
_cell_length_b 11.394(3)
_cell_length_c 13.731(4)
_cell_angle_alpha 90
_cell_angle_beta 107.846(6)
_cell_angle_gamma 90
_cell_formula_units_Z 4
loop_
_atom_type_symbol
_atom_type_radius_bond
C 0.68
H 0.23
N 0.71
O 0.68
loop_
_atom_site_label
_atom_site_type_symbol
_atom_site_fract_x
_atom_site_fract_y
_atom_site_fract_z
O1 O 0.1975(3) 0.60714(18) 1.16016(15)
N1 N 0.2638(2) 0.69520(18) 1.12884(14)
C1 C 0.3009(3) 0.8056(2) 1.1887(2)
C2 C 0.4479(4) 0.7869(3) 1.2743(2)
H1 H 0.480(4) 0.868(3) 1.327(3)
H2 H 0.4255(15) 0.7308(12) 1.3064(10)
H3 H 0.548(3) 0.749(2) 1.2441(18)
C3 C 0.1714(3) 0.8390(2) 1.2304(2)
H4 H 0.183(2) 0.9148(19) 1.2634(15)
H5 H 0.152(3) 0.765(3) 1.269(2)
H6 H 0.072(2) 0.8420(18) 1.1830(15)
C4 C 0.3254(3) 0.8868(2) 1.1051(2)
C5 C 0.1837(3) 0.9536(3) 1.0464(2)
H7 H 0.209(4) 1.007(3) 0.992(3)
H8 H 0.142(2) 0.993(2) 1.0897(15)
H9 H 0.096(3) 0.894(2) 1.0179(19)
C6 C 0.4643(4) 0.9685(3) 1.1441(2)
H10 H 0.4498(19) 1.0100(16) 1.1127(12)
H11 H 0.592(6) 0.945(6) 1.216(4)
H12 H 0.412(3) 1.014(3) 1.1914(19)
N2 N 0.3598(2) 0.80296(17) 1.03307(15)
H13? H 0.393(2) 0.8304(17) 0.9474(14)
C7 C 0.3109(3) 0.7004(2) 1.04461(18)
C8 C 0.3058(3) 0.6016(2) 0.97508(17)
C9 C 0.3618(3) 0.6197(2) 0.89097(18)
O2 O 0.4161(2) 0.72601(17) 0.87592(13)
C10 C 0.3591(3) 0.5298(2) 0.82393(17)
H14 H 0.384(2) 0.5553(19) 0.7732(14)
C11 C 0.3039(3) 0.4224(2) 0.83837(18)
H15 H 0.295(2) 0.3649(16) 0.7951(13)
C12 C 0.2524(3) 0.4045(2) 0.92153(18)
N3 N 0.1971(3) 0.28512(19) 0.93783(15)
O3 O 0.1284(2) 0.27467(17) 1.00056(14)
O4 O 0.2245(2) 0.20536(16) 0.88706(14)
C13 C 0.2503(3) 0.4905(2) 0.98999(17)
H16 H 0.2032(15) 0.4833(12) 1.0578(10)
#END
