
#######################################################################
#
#                 Cambridge Crystallographic Data Centre
#                                CCDC
#
#######################################################################
#
# If this CIF has been generated from an entry in the Cambridge
# Structural Database, then it will include bibliographic, chemical,
# crystal, experimental, refinement or atomic coordinate data resulting
# from the CCDC's data processing and validation procedures.
#
#######################################################################

data_CSD_CIF_OLABEI
_audit_creation_date 2004-02-04
_audit_creation_method CSD-ConQuest-V1
_database_code_CSD OLABEI
_database_code_depnum_ccdc_archive 'CCDC 194642'
_chemical_formula_sum 'C20 H28 N4 O3'
_chemical_formula_moiety
;
C20 H28 N4 O3
;
_journal_coden_Cambridge 580
_journal_volume 22
_journal_year 2003
_journal_page_first 2557
_journal_name_full 'Polyhedron '
loop_
_publ_author_name
"T.Ichimura"
"K.Doi"
"C.Mitsuhashi"
"T.Ishida"
"T.Nogami"
_chemical_name_systematic
;
4-Hydroxy-1,3-phenylene-bis(4,4,5,5-tetramethylimidazolin-2-oxyl-3-yl)
;
_chemical_name_common
;
4-Hydroxy-1,3-phenylene-bis(imino nitroxide)
;
_chemical_melting_point 392.15
_cell_volume   3949.091
_exptl_crystal_colour 'red'
_exptl_crystal_density_diffrn 1.253
_exptl_special_details
;
Melts with decomposition.

;
_exptl_crystal_description 'block'
_exptl_crystal_preparation 'dichloromethane/hexane'
_diffrn_ambient_temperature 100.0
#These two values have been output from a single CSD field.
_refine_ls_R_factor_gt 0.0989
_refine_ls_wR_factor_gt 0.0989
_symmetry_cell_setting orthorhombic
_symmetry_space_group_name_H-M 'P b c a'
_symmetry_Int_Tables_number 61
loop_
_symmetry_equiv_pos_site_id
_symmetry_equiv_pos_as_xyz
1 x,y,z
2 1/2-x,1/2+y,z
3 x,1/2-y,1/2+z
4 1/2+x,y,1/2-z
5 -x,-y,-z
6 -1/2+x,-1/2-y,-z
7 -x,-1/2+y,-1/2-z
8 -1/2-x,-y,-1/2+z
_cell_length_a 13.0055(4)
_cell_length_b 12.1683(4)
_cell_length_c 24.954(1)
_cell_angle_alpha 90
_cell_angle_beta 90
_cell_angle_gamma 90
_cell_formula_units_Z 8
loop_
_atom_type_symbol
_atom_type_radius_bond
C 0.68
H 0.23
N 0.68
O 0.68
loop_
_atom_site_label
_atom_site_type_symbol
_atom_site_fract_x
_atom_site_fract_y
_atom_site_fract_z
O1 O 0.7094(2) -0.0870(2) 0.6254(1)
O2 O 0.6682(2) 0.2793(2) 0.7198(1)
O3 O 0.5068(2) 0.4026(2) 0.6003(1)
N1 N 0.7387(2) 0.2103(2) 0.7103(1)
N2 N 0.8152(2) 0.0617(2) 0.6765(1)
N3 N 0.4361(2) 0.3525(2) 0.5754(1)
N4 N 0.3458(2) 0.2143(2) 0.5392(1)
C1 C 0.6406(3) -0.0071(3) 0.6159(1)
C2 C 0.6476(2) 0.0997(3) 0.6383(1)
C3 C 0.5773(2) 0.1800(3) 0.6239(1)
C4 C 0.4978(2) 0.1567(3) 0.5881(1)
C5 C 0.4896(2) 0.0500(3) 0.5678(1)
C6 C 0.5577(3) -0.0311(3) 0.5821(1)
C7 C 0.7345(3) 0.1222(2) 0.6743(1)
C8 C 0.8294(3) 0.1948(3) 0.7464(1)
C9 C 0.8934(3) 0.1151(3) 0.7117(2)
C10 C 0.8771(3) 0.3051(3) 0.7591(2)
C11 C 0.7870(3) 0.1418(3) 0.7968(2)
C12 C 0.9676(3) 0.1760(4) 0.6726(2)
C13 C 0.9537(4) 0.0273(3) 0.7413(2)
C14 C 0.4249(2) 0.2387(3) 0.5679(1)
C15 C 0.3384(2) 0.4081(3) 0.5574(1)
C16 C 0.2988(3) 0.3180(3) 0.5188(1)
C17 C 0.3623(3) 0.5190(3) 0.5321(2)
C18 C 0.2745(3) 0.4250(4) 0.6073(2)
C19 C 0.3397(3) 0.3315(3) 0.4617(2)
C20 C 0.1826(3) 0.3074(3) 0.5178(2)
H1 H 0.77780 -0.07180 0.65820
H2 H 0.584(2) 0.255(2) 0.639(1)
H3 H 0.433(2) 0.032(2) 0.541(1)
H4 H 0.556(2) -0.114(3) 0.566(1)
H5 H 0.897(3) 0.347(3) 0.726(1)
H6 H 0.824(3) 0.349(3) 0.782(1)
H7 H 0.932(3) 0.290(3) 0.779(1)
H8 H 0.731(3) 0.199(3) 0.813(1)
H9 H 0.759(3) 0.064(3) 0.791(1)
H10 H 0.851(3) 0.121(3) 0.819(2)
H11 H 0.934(4) 0.253(4) 0.668(2)
H12 H 1.008(4) 0.114(4) 0.657(2)
H13 H 1.025(3) 0.212(3) 0.693(1)
H14 H 1.001(3) 0.062(3) 0.765(2)
H15 H 0.896(3) -0.005(3) 0.769(1)
H16 H 0.995(4) -0.014(4) 0.714(2)
H17 H 0.294(3) 0.554(3) 0.523(2)
H18 H 0.405(2) 0.513(2) 0.501(1)
H19 H 0.393(3) 0.565(3) 0.564(2)
H20 H 0.207(3) 0.464(3) 0.602(2)
H21 H 0.248(3) 0.352(3) 0.624(1)
H22 H 0.322(3) 0.473(3) 0.637(2)
H23 H 0.324(3) 0.263(3) 0.442(2)
H24 H 0.317(3) 0.395(3) 0.445(1)
H25 H 0.422(3) 0.332(3) 0.459(1)
H26 H 0.154(2) 0.368(3) 0.506(1)
H27 H 0.166(3) 0.252(3) 0.494(2)
H28 H 0.155(3) 0.286(3) 0.557(2)
#END
