
#######################################################################
#
#                 Cambridge Crystallographic Data Centre
#                                CCDC
#
#######################################################################
#
# If this CIF has been generated from an entry in the Cambridge
# Structural Database, then it will include bibliographic, chemical,
# crystal, experimental, refinement or atomic coordinate data resulting
# from the CCDC's data processing and validation procedures.
#
#######################################################################

data_CSD_CIF_OLAXUV
_audit_creation_date 2011-05-17
_audit_creation_method CSD-ConQuest-V1
_database_code_CSD OLAXUV
_database_code_depnum_ccdc_archive 'CCDC 804323'
_chemical_formula_sum 'C13 H17 N1 O5'
_chemical_formula_moiety
;
C13 H17 N1 O5
;
_journal_coden_Cambridge 1090
_journal_volume 21
_journal_year 2010
_journal_page_first 2988
_journal_name_full 'Tetrahedron:Asymm. '
loop_
_publ_author_name
"Yang Wu"
"Aidang Lu"
"Yunfeng Liu"
"Xiaolei Yu"
"Youming Wang"
"Guiping Wu"
"Haibin Song"
"Zhenghong Zhou"
"Chuchi Tang"
_chemical_name_systematic
;
(2R,4R,5R)-4-(4-Methoxyphenyl)-2-methyl-5-nitrotetrahydro-2H-pyran-2-ol
;
_chemical_melting_point 378.15
_cell_volume    667.221
_exptl_crystal_colour 'colorless'
_exptl_crystal_density_diffrn 1.33
_exptl_special_details
;
Melting point range 378.15-381.15K
Absolute configuration

;
_exptl_crystal_description 'prism'
_diffrn_ambient_temperature 293
#These two values have been output from a single CSD field.
_refine_ls_R_factor_gt 0.0452
_refine_ls_wR_factor_gt 0.0452
_symmetry_cell_setting monoclinic
_symmetry_space_group_name_H-M 'P 21'
_symmetry_Int_Tables_number 4
loop_
_symmetry_equiv_pos_site_id
_symmetry_equiv_pos_as_xyz
1 x,y,z
2 -x,1/2+y,-z
_cell_length_a 9.4527(19)
_cell_length_b 5.2444(10)
_cell_length_c 14.010(3)
_cell_angle_alpha 90
_cell_angle_beta 106.12(3)
_cell_angle_gamma 90
_cell_formula_units_Z 2
loop_
_atom_type_symbol
_atom_type_radius_bond
C 0.68
H 0.23
N 0.68
O 0.68
loop_
_atom_site_label
_atom_site_type_symbol
_atom_site_fract_x
_atom_site_fract_y
_atom_site_fract_z
O1 O 0.5094(2) 1.2484(4) 0.37564(13)
H1 H 0.483(3) 1.296(6) 0.427(2)
N1 N 0.9320(2) 0.7947(6) 0.36883(16)
C1 C 0.4874(2) 0.9832(5) 0.36422(16)
O2 O 0.58648(15) 0.8512(3) 0.4468(1)
C2 C 0.5202(2) 0.9092(6) 0.26712(16)
H2 H 0.45990 1.01240 0.21370
H3 H 0.49280 0.73230 0.25240
C3 C 0.6823(2) 0.9436(5) 0.26995(15)
H4 H 0.70780 1.12280 0.28570
O3 O 0.9877(2) 0.6153(6) 0.33849(19)
C4 C 0.7695(2) 0.7826(6) 0.35909(16)
H5 H 0.73650 0.60490 0.34920
O4 O 0.9975(3) 0.9851(7) 0.4051(2)
O5 O 0.7843(2) 0.7571(5) -0.10699(13)
C5 C 0.7394(2) 0.8855(6) 0.45379(15)
H6 H 0.79930 0.79490 0.51120
H7 H 0.76450 1.06510 0.46150
C6 C 0.3344(2) 0.9016(7) 0.36604(18)
H8 H 0.31800 0.95130 0.42810
H9 H 0.32570 0.71970 0.35890
H10 H 0.26260 0.98200 0.31230
C7 C 0.7142(2) 0.8844(5) 0.17135(16)
C8 C 0.6500(3) 0.6819(6) 0.11065(19)
H11 H 0.58880 0.56940 0.13180
C9 C 0.6761(3) 0.6457(7) 0.0187(2)
H12 H 0.63180 0.50950 -0.02100
C10 C 0.7666(3) 0.8087(6) -0.01444(17)
C11 C 0.8334(3) 1.0073(7) 0.0455(2)
H13 H 0.89600 1.11760 0.02470
C12 C 0.8066(3) 1.0421(6) 0.1377(2)
H14 H 0.85270 1.17630 0.17780
C13 C 0.8524(4) 0.9495(9) -0.1510(2)
H15 H 0.85830 0.89250 -0.21490
H16 H 0.94970 0.98240 -0.10910
H17 H 0.79500 1.10300 -0.15870
#END
