
#######################################################################
#
#                 Cambridge Crystallographic Data Centre
#                                CCDC
#
#######################################################################
#
# If this CIF has been generated from an entry in the Cambridge
# Structural Database, then it will include bibliographic, chemical,
# crystal, experimental, refinement or atomic coordinate data resulting
# from the CCDC's data processing and validation procedures.
#
#######################################################################

data_CSD_CIF_OLETEF
_audit_creation_date 2011-05-25
_audit_creation_method CSD-ConQuest-V1
_database_code_CSD OLETEF
_database_code_depnum_ccdc_archive 'CCDC 780667'
_chemical_formula_sum 'C31 H51 N1 O4'
_chemical_formula_moiety
;
C31 H51 N1 O4
;
_journal_coden_Cambridge 24
_journal_volume 52
_journal_year 2011
_journal_page_first 976
_journal_name_full 'Tetrahedron Lett. '
loop_
_publ_author_name
"O.B.Kazakova"
"D.V.Kazakov"
"E.Y.Yamansarov"
"N.I.Medvedeva"
"G.A.Tolstikov"
"K.Yu.Suponitsky"
"D.E.Arkhipov"
_chemical_name_systematic
;
(3S,5S)-19\b,28-Epoxy-4,5-seco-18\a-oleanan-3(5)-N-methoxydioxazolidine
;
_cell_volume   2704.521
_exptl_crystal_colour 'colorless'
_exptl_crystal_density_diffrn 1.232
_exptl_crystal_description 'prism'
_diffrn_ambient_temperature 100
#These two values have been output from a single CSD field.
_refine_ls_R_factor_gt 0.0562
_refine_ls_wR_factor_gt 0.0562
_symmetry_cell_setting orthorhombic
_symmetry_space_group_name_H-M 'P 21 21 21'
_symmetry_Int_Tables_number 19
loop_
_symmetry_equiv_pos_site_id
_symmetry_equiv_pos_as_xyz
1 x,y,z
2 1/2-x,-y,1/2+z
3 -x,1/2+y,1/2-z
4 1/2+x,1/2-y,-z
_cell_length_a 6.5853(8)
_cell_length_b 12.1733(15)
_cell_length_c 33.737(4)
_cell_angle_alpha 90
_cell_angle_beta 90
_cell_angle_gamma 90
_cell_formula_units_Z 4
loop_
_atom_type_symbol
_atom_type_radius_bond
C 0.68
H 0.23
N 0.68
O 0.68
loop_
_atom_site_label
_atom_site_type_symbol
_atom_site_fract_x
_atom_site_fract_y
_atom_site_fract_z
O1 O 0.9159(4) 0.35943(17) 0.00330(6)
O2 O 1.1043(3) 0.38526(17) 0.07655(6)
O3 O 1.2312(3) 0.44104(17) 0.04606(6)
O4 O 0.4584(3) 0.45346(17) 0.29646(6)
N1 N 0.8941(4) 0.4573(2) 0.02770(7)
C1 C 1.0192(5) 0.6021(2) 0.09244(8)
H1 H 0.98000 0.67260 0.10490
H2 H 1.14080 0.57400 0.10640
C2 C 1.0712(5) 0.6218(2) 0.04896(9)
H3 H 1.20020 0.66330 0.04730
H4 H 0.96340 0.66730 0.03670
C3 C 1.0922(5) 0.5143(2) 0.02553(9)
C4 C 1.1719(5) 0.5302(3) -0.01657(9)
H5 H 1.17340 0.45650 -0.02970
C5 C 0.8936(5) 0.4210(2) 0.06919(8)
C6 C 0.7609(5) 0.3205(2) 0.07727(8)
H6 H 0.80100 0.26000 0.05930
H7 H 0.61700 0.33880 0.07190
C7 C 0.7834(5) 0.2830(2) 0.12034(8)
H8 H 0.92670 0.26250 0.12520
H9 H 0.69910 0.21670 0.12450
C8 C 0.7200(4) 0.3718(2) 0.15061(8)
C9 C 0.8445(4) 0.4775(2) 0.14087(8)
H10 H 0.98890 0.45730 0.14640
C10 C 0.8445(5) 0.5193(2) 0.09696(8)
C11 C 0.7950(5) 0.5689(2) 0.17065(8)
H11 H 0.87330 0.63570 0.16380
H12 H 0.64880 0.58720 0.16900
C12 C 0.8470(5) 0.5336(2) 0.21295(8)
H13 H 0.81360 0.59370 0.23160
H14 H 0.99440 0.51870 0.21490
C13 C 0.7281(5) 0.4302(2) 0.22441(8)
H15 H 0.58080 0.44910 0.22210
C14 C 0.7687(5) 0.3339(2) 0.19487(8)
C15 C 0.6303(5) 0.2369(2) 0.20725(9)
H16 H 0.48670 0.25920 0.20410
H17 H 0.65540 0.17420 0.18920
C16 C 0.6639(5) 0.1989(2) 0.24994(8)
H18 H 0.80000 0.16480 0.25200
H19 H 0.56190 0.14200 0.25650
C17 C 0.6480(5) 0.2930(2) 0.28026(9)
C18 C 0.7649(5) 0.3972(2) 0.26772(8)
H20 H 0.91350 0.38730 0.27260
C19 C 0.6758(5) 0.4772(2) 0.29792(8)
H21 H 0.70180 0.55470 0.28940
C20 C 0.7547(5) 0.4590(2) 0.34063(8)
C21 C 0.6926(5) 0.3422(2) 0.35341(9)
H22 H 0.77010 0.32170 0.37740
H23 H 0.54660 0.34210 0.36040
C22 C 0.7304(5) 0.2558(2) 0.32100(8)
H24 H 0.66380 0.18610 0.32870
H25 H 0.87810 0.24190 0.31880
C23 C 1.0320(6) 0.6047(3) -0.0408(1)
H26 H 0.89200 0.57800 -0.03880
H27 H 1.07470 0.60390 -0.06860
H28 H 1.03970 0.67990 -0.03050
C24 C 1.3893(6) 0.5746(3) -0.0172(1)
H29 H 1.47610 0.52810 -0.00060
H30 H 1.39060 0.64990 -0.00690
H31 H 1.44060 0.57420 -0.04450
C25 C 0.6468(5) 0.5760(3) 0.08385(9)
H32 H 0.67290 0.62040 0.06020
H33 H 0.59750 0.62350 0.10520
H34 H 0.54400 0.52030 0.07780
C26 C 0.4880(5) 0.3905(3) 0.14611(9)
H35 H 0.46030 0.42540 0.12050
H36 H 0.43980 0.43810 0.16760
H37 H 0.41760 0.31960 0.14740
C27 C 0.9912(5) 0.2949(2) 0.19863(9)
H38 H 1.02450 0.28380 0.22670
H39 H 1.08190 0.35070 0.18740
H40 H 1.00850 0.22560 0.18420
C28 C 0.4340(5) 0.3398(2) 0.28454(9)
H41 H 0.36020 0.33510 0.25900
H42 H 0.35680 0.29840 0.30480
C29 C 0.9850(5) 0.4727(3) 0.34242(10)
H43 H 1.02700 0.48450 0.37000
H44 H 1.02530 0.53620 0.32640
H45 H 1.05060 0.40640 0.33210
C30 C 0.6547(6) 0.5436(3) 0.36758(9)
H46 H 0.69360 0.52930 0.39510
H47 H 0.50680 0.53840 0.36500
H48 H 0.69940 0.61740 0.35990
C31 C 0.7364(6) 0.3444(3) -0.01983(9)
H49 H 0.74770 0.27620 -0.03510
H50 H 0.72000 0.40660 -0.03800
H51 H 0.61820 0.34000 -0.00220
#END
