
#######################################################################
#
#                 Cambridge Crystallographic Data Centre
#                                CCDC
#
#######################################################################
#
# If this CIF has been generated from an entry in the Cambridge
# Structural Database, then it will include bibliographic, chemical,
# crystal, experimental, refinement or atomic coordinate data resulting
# from the CCDC's data processing and validation procedures.
#
#######################################################################

data_CSD_CIF_OLIGAR
_audit_creation_date 2004-02-04
_audit_creation_method CSD-ConQuest-V1
_database_code_CSD OLIGAR
_database_code_depnum_ccdc_archive 'CCDC 218209'
_chemical_formula_sum 'C14 H13 N1 O6'
_chemical_formula_moiety
;
C14 H13 N1 O6
;
_journal_coden_Cambridge 24
_journal_volume 44
_journal_year 2003
_journal_page_first 7945
_journal_name_full 'Tetrahedron Lett. '
loop_
_publ_author_name
"M.Hamaguchi"
"N.Tomida"
"E.Mochizuki"
"T.Oshima"
_chemical_name_systematic
;
7-(4-Nitrophenyl)-6-oxo-2-oxabicyclo(3.2.0)hept-7-yl acetate
;
_cell_volume    692.875
_exptl_crystal_colour 'colorless'
_exptl_crystal_density_diffrn 1.396
_diffrn_ambient_temperature 296
#These two values have been output from a single CSD field.
_refine_ls_R_factor_gt 0.0827
_refine_ls_wR_factor_gt 0.0827
_symmetry_cell_setting triclinic
_symmetry_space_group_name_H-M 'P -1'
_symmetry_Int_Tables_number 2
loop_
_symmetry_equiv_pos_site_id
_symmetry_equiv_pos_as_xyz
1 x,y,z
2 -x,-y,-z
_cell_length_a 6.9565(7)
_cell_length_b 8.7384(9)
_cell_length_c 12.302(2)
_cell_angle_alpha 72.031(6)
_cell_angle_beta 84.787(10)
_cell_angle_gamma 76.98(1)
_cell_formula_units_Z 2
loop_
_atom_type_symbol
_atom_type_radius_bond
C 0.68
H 0.23
N 0.68
O 0.68
loop_
_atom_site_label
_atom_site_type_symbol
_atom_site_fract_x
_atom_site_fract_y
_atom_site_fract_z
O1 O -0.3502(3) 0.2537(3) 0.7264(2)
O2 O -0.1390(4) 0.1725(3) 0.5032(2)
O3 O 0.1593(4) 0.0874(4) 0.8211(2)
O4 O -0.2551(4) 0.4717(3) 0.5991(2)
O5 O -0.2511(6) -0.5389(4) 1.0705(2)
O6 O -0.2638(6) -0.5956(4) 0.9129(3)
N1 N -0.2495(5) -0.5020(4) 0.9663(3)
C1 C -0.1777(5) -0.0216(4) 0.7791(3)
C2 C -0.1717(5) -0.1398(4) 0.7233(3)
C3 C -0.0717(5) 0.1766(4) 0.5894(3)
C4 C -0.1593(5) 0.1516(4) 0.7140(3)
C5 C -0.2107(6) -0.0621(5) 0.8981(3)
C6 C -0.2271(5) -0.3327(4) 0.9013(3)
C7 C -0.1952(5) -0.2969(4) 0.7843(3)
C8 C -0.3817(6) 0.4143(5) 0.6628(3)
C9 C 0.0303(5) 0.2066(4) 0.7402(3)
C10 C 0.1190(5) 0.2095(5) 0.6188(3)
C11 C -0.2338(6) -0.2191(5) 0.9603(3)
C12 C 0.3017(6) 0.0693(6) 0.6401(4)
C13 C 0.2810(6) -0.0257(5) 0.7659(4)
C14 C -0.5834(7) 0.5043(6) 0.6818(3)
H1 H -0.15240 -0.11190 0.64280
H2 H -0.21860 0.01980 0.93610
H3 H -0.18990 -0.37810 0.74650
H4 H -0.25470 -0.24820 1.04170
H5 H 0.30300 0.00000 0.59220
H6 H 0.42070 0.10940 0.62550
H7 H 0.40640 -0.06830 0.80160
H8 H 0.21900 -0.11740 0.77500
H9 H 0.14540 0.31350 0.57370
H10 H 0.00000 0.31220 0.75310
H11 H -0.60120 0.61680 0.63720
H12 H -0.67900 0.45620 0.66150
H13 H -0.60320 0.49940 0.76090
#END
