
#######################################################################
#
#                 Cambridge Crystallographic Data Centre
#                                CCDC
#
#######################################################################
#
# If this CIF has been generated from an entry in the Cambridge
# Structural Database, then it will include bibliographic, chemical,
# crystal, experimental, refinement or atomic coordinate data resulting
# from the CCDC's data processing and validation procedures.
#
#######################################################################

data_CSD_CIF_OLIHOG
_audit_creation_date 2004-02-04
_audit_creation_method CSD-ConQuest-V1
_database_code_CSD OLIHOG
_database_code_depnum_ccdc_archive 'CCDC 211433'
_chemical_formula_sum 'C29 H30 N4 O7'
_chemical_formula_moiety
;
C29 H30 N4 O7
;
_journal_coden_Cambridge 16
_journal_volume 59
_journal_year 2003
_journal_page_first 8365
_journal_name_full 'Tetrahedron '
loop_
_publ_author_name
"Hua Jiang"
"J.-M.Leger"
"C.Dolain"
"P.Guionneau"
"I.Huc"
_chemical_name_systematic
;
N-(4-Isobutoxy-2-methoxycarbonylquinolin-8-yl) 
4-isobutoxy-8-nitroquinolin-2-amide
;
_chemical_melting_point 473.15
_cell_volume   2759.134
_exptl_crystal_colour 'yellow'
_exptl_crystal_density_diffrn 1.316
_exptl_special_details
;
Melting point range 473.15-474.15K
air-sensitive

;
_exptl_crystal_preparation 'nitrobenzene/n-hexane'
_diffrn_ambient_temperature 296
#These two values have been output from a single CSD field.
_refine_ls_R_factor_gt 0.0699
_refine_ls_wR_factor_gt 0.0699
_symmetry_cell_setting monoclinic
_symmetry_space_group_name_H-M 'P 21/n'
_symmetry_Int_Tables_number 14
loop_
_symmetry_equiv_pos_site_id
_symmetry_equiv_pos_as_xyz
1 x,y,z
2 1/2+x,1/2-y,1/2+z
3 -x,-y,-z
4 -1/2-x,-1/2+y,-1/2-z
_cell_length_a 10.497(1)
_cell_length_b 21.402(1)
_cell_length_c 12.295(1)
_cell_angle_alpha 90
_cell_angle_beta 92.68(1)
_cell_angle_gamma 90
_cell_formula_units_Z 4
loop_
_atom_type_symbol
_atom_type_radius_bond
C 0.68
H 0.23
N 0.68
O 0.68
loop_
_atom_site_label
_atom_site_type_symbol
_atom_site_fract_x
_atom_site_fract_y
_atom_site_fract_z
C1 C -0.6170(3) 0.14038(16) 1.2295(3)
H1 H -0.55800 0.10840 1.25340
H2 H -0.65790 0.12850 1.16120
H3 H -0.68020 0.14570 1.28280
C2 C -0.6066(5) 0.2520(2) 1.2029(6)
H4 H -0.67880 0.25190 1.24800
H5 H -0.63530 0.25610 1.12790
H6 H -0.55180 0.28640 1.22290
C3 C -0.5458(4) 0.20132(17) 1.2158(5)
H7 H -0.51380 0.20730 1.29130
C4 C -0.4230(3) 0.18859(13) 1.1652(3)
H8 H -0.37060 0.16150 1.21210
H9 H -0.43860 0.16760 1.09590
O1 O -0.3580(2) 0.24668(9) 1.1488(2)
C5 C -0.2408(3) 0.24639(13) 1.1096(3)
C6 C -0.1744(3) 0.19508(12) 1.0812(3)
H10 H -0.20920 0.15540 1.08790
C7 C -0.0522(2) 0.20293(11) 1.0413(2)
N1 N 0.0044(2) 0.25713(9) 1.02785(17)
C8 C -0.0617(3) 0.30859(11) 1.0564(2)
C9 C -0.1861(3) 0.30637(12) 1.0978(2)
C10 C -0.2490(3) 0.36145(14) 1.1270(3)
H11 H -0.32930 0.35890 1.15570
C11 C -0.1945(3) 0.41811(13) 1.1138(3)
H12 H -0.23700 0.45410 1.13390
C12 C -0.0754(3) 0.42235(13) 1.0704(3)
H13 H -0.03880 0.46130 1.05970
C13 C -0.0115(3) 0.36941(12) 1.0432(2)
N2 N 0.1133(3) 0.37735(12) 0.9988(2)
O2 O 0.2021(2) 0.34639(11) 1.0361(2)
O3 O 0.1243(2) 0.41717(11) 0.9284(2)
C14 C 0.0191(3) 0.14444(12) 1.0137(2)
O4 O -0.02966(19) 0.09360(9) 1.0290(2)
N3 N 0.13388(19) 0.15288(10) 0.97199(18)
H14 H 0.15670 0.19090 0.96170
C15 C 0.2205(2) 0.10649(12) 0.9433(2)
C16 C 0.1968(3) 0.04350(12) 0.9484(3)
H15 H 0.11900 0.02930 0.97190
C17 C 0.2893(3) 0.00064(13) 0.9185(3)
H16 H 0.27130 -0.04180 0.92230
C18 C 0.4039(3) 0.01873(14) 0.8843(3)
H17 H 0.46380 -0.01080 0.86520
C19 C 0.4313(2) 0.08256(13) 0.8779(2)
C20 C 0.3401(2) 0.12755(12) 0.9055(2)
N4 N 0.3587(2) 0.19058(10) 0.89864(17)
C21 C 0.4710(3) 0.20870(13) 0.8663(2)
C22 C 0.5696(3) 0.16861(14) 0.8397(2)
H18 H 0.64730 0.18480 0.81960
C23 C 0.5514(3) 0.10563(14) 0.8431(2)
C24 C 0.4986(3) 0.27719(15) 0.8589(3)
O5 O 0.6032(3) 0.29753(12) 0.8518(3)
O6 O 0.3978(2) 0.31281(10) 0.8587(2)
C25 C 0.4199(4) 0.37966(15) 0.8494(4)
H19 H 0.34000 0.40140 0.85020
H20 H 0.45990 0.38830 0.78240
H21 H 0.47440 0.39340 0.90950
O7 O 0.63482(18) 0.06154(10) 0.81575(18)
C26 C 0.7591(3) 0.08183(15) 0.7841(3)
H22 H 0.80500 0.10130 0.84550
H23 H 0.75000 0.11220 0.72580
C27 C 0.8322(3) 0.02525(16) 0.7463(3)
H24 H 0.84180 -0.00470 0.80640
C28 C 0.7662(3) -0.00626(15) 0.6508(3)
H25 H 0.81450 -0.04220 0.63060
H26 H 0.75930 0.02230 0.59060
H27 H 0.68260 -0.01920 0.66980
C29 C 0.9642(3) 0.04801(19) 0.7166(4)
H28 H 1.01360 0.01320 0.69300
H29 H 1.00650 0.06690 0.77920
H30 H 0.95540 0.07820 0.65900
#END
