
#######################################################################
#
#                 Cambridge Crystallographic Data Centre
#                                CCDC
#
#######################################################################
#
# If this CIF has been generated from an entry in the Cambridge
# Structural Database, then it will include bibliographic, chemical,
# crystal, experimental, refinement or atomic coordinate data resulting
# from the CCDC's data processing and validation procedures.
#
#######################################################################

data_CSD_CIF_OLIVOV
_audit_creation_date 2011-03-31
_audit_creation_method CSD-ConQuest-V1
_database_code_CSD OLIVOV
_database_code_depnum_ccdc_archive 'CCDC 793755'
_chemical_formula_sum 'C15 H13 N1 O3'
_chemical_formula_moiety
;
C15 H13 N1 O3
;
_journal_coden_Cambridge 179
_journal_volume 50
_journal_year 2011
_journal_page_first 1380
_journal_name_full 'Angew.Chem.,Int.Ed. '
loop_
_publ_author_name
"Guan-Wu Wang"
"Ting-Ting Yuan"
"Dan-Dan Li"
_chemical_name_systematic
;
2,5-Dimethoxyphenanthridin-6(5H)-one
;
_cell_volume   1208.785
_exptl_crystal_colour 'yellow'
_exptl_crystal_density_diffrn 1.403
_exptl_crystal_description 'block'
_diffrn_ambient_temperature 290
#These two values have been output from a single CSD field.
_refine_ls_R_factor_gt 0.0315
_refine_ls_wR_factor_gt 0.0315
_symmetry_cell_setting orthorhombic
_symmetry_space_group_name_H-M 'P 21 21 21'
_symmetry_Int_Tables_number 19
loop_
_symmetry_equiv_pos_site_id
_symmetry_equiv_pos_as_xyz
1 x,y,z
2 1/2-x,-y,1/2+z
3 1/2+x,1/2-y,-z
4 -x,1/2+y,1/2-z
_cell_length_a 6.2890(2)
_cell_length_b 12.4866(6)
_cell_length_c 15.3930(6)
_cell_angle_alpha 90
_cell_angle_beta 90
_cell_angle_gamma 90
_cell_formula_units_Z 4
loop_
_atom_type_symbol
_atom_type_radius_bond
C 0.68
H 0.23
N 0.68
O 0.68
loop_
_atom_site_label
_atom_site_type_symbol
_atom_site_fract_x
_atom_site_fract_y
_atom_site_fract_z
O1 O 0.00748(18) 0.22522(10) 0.12795(9)
C1 C 0.2646(3) -0.00051(15) 0.29806(12)
C2 C -0.2908(3) 0.17811(16) 0.36306(14)
H1 H -0.41130 0.21780 0.37680
O2 O -0.3012(2) 0.08200(11) 0.50110(9)
C3 C 0.5316(3) -0.04408(16) 0.18902(13)
H2 H 0.58450 -0.03630 0.13300
C4 C 0.3491(3) 0.01253(15) 0.21445(13)
O3 O 0.32487(19) 0.10153(12) 0.07714(9)
C5 C -0.1896(3) 0.19288(16) 0.28407(14)
H3 H -0.24210 0.24280 0.24470
C6 C 0.5513(3) -0.12295(16) 0.32986(14)
H4 H 0.62040 -0.16780 0.36890
C7 C 0.2570(3) 0.08773(16) 0.15145(13)
C8 C -0.0103(3) 0.13348(15) 0.26350(12)
C9 C 0.0745(3) 0.05943(15) 0.32233(12)
C10 C 0.3706(3) -0.06958(15) 0.35549(13)
H5 H 0.31810 -0.07940 0.41140
C11 C 0.6318(3) -0.11082(17) 0.24671(14)
H6 H 0.75350 -0.14780 0.23000
C12 C -0.0300(3) 0.04644(15) 0.40230(12)
H7 H 0.02370 -0.00150 0.44300
C13 C -0.1443(3) 0.18164(17) 0.06672(13)
H8 H -0.08130 0.12230 0.03650
H9 H -0.18380 0.23600 0.02570
H10 H -0.26850 0.15770 0.09740
C14 C -0.2115(3) 0.10393(16) 0.42123(13)
C15 C -0.4819(3) 0.14202(18) 0.52694(15)
H11 H -0.44600 0.21670 0.52870
H12 H -0.52690 0.11910 0.58360
H13 H -0.59500 0.13090 0.48610
N1 N 0.0862(2) 0.14472(12) 0.18171(10)
#END
