
#######################################################################
#
#                 Cambridge Crystallographic Data Centre
#                                CCDC
#
#######################################################################
#
# If this CIF has been generated from an entry in the Cambridge
# Structural Database, then it will include bibliographic, chemical,
# crystal, experimental, refinement or atomic coordinate data resulting
# from the CCDC's data processing and validation procedures.
#
#######################################################################

data_CSD_CIF_OLIVEL
_audit_creation_date 2011-03-31
_audit_creation_method CSD-ConQuest-V1
_database_code_CSD OLIVEL
_database_code_depnum_ccdc_archive 'CCDC 796656'
_chemical_formula_sum 'C17 H22 N2 O1'
_chemical_formula_moiety
;
C17 H22 N2 O1
;
_journal_coden_Cambridge 179
_journal_volume 50
_journal_year 2011
_journal_page_first 1350
_journal_name_full 'Angew.Chem.,Int.Ed. '
loop_
_publ_author_name
"G.Vincent"
"R.Guillot"
"C.Kouklovsky"
_chemical_name_systematic
;
7-Phenyl-2-propylhexahydro-2H-[1,2]oxazolo[2,3-a]pyridine-7-carbonitrile
;
_cell_volume   3174.272
_exptl_crystal_density_diffrn 1.131
_diffrn_ambient_temperature 291
#These two values have been output from a single CSD field.
_refine_ls_R_factor_gt 0.0781
_refine_ls_wR_factor_gt 0.0781
_symmetry_cell_setting orthorhombic
_symmetry_space_group_name_H-M 'P b c a'
_symmetry_Int_Tables_number 61
loop_
_symmetry_equiv_pos_site_id
_symmetry_equiv_pos_as_xyz
1 x,y,z
2 1/2-x,-y,1/2+z
3 -x,1/2+y,1/2-z
4 1/2+x,1/2-y,-z
5 -x,-y,-z
6 -1/2+x,y,-1/2-z
7 x,-1/2-y,-1/2+z
8 -1/2-x,-1/2+y,z
_cell_length_a 9.1895(14)
_cell_length_b 10.4544(13)
_cell_length_c 33.041(5)
_cell_angle_alpha 90
_cell_angle_beta 90
_cell_angle_gamma 90
_cell_formula_units_Z 8
loop_
_atom_type_symbol
_atom_type_radius_bond
C 0.68
H 0.23
N 0.68
O 0.68
loop_
_atom_site_label
_atom_site_type_symbol
_atom_site_fract_x
_atom_site_fract_y
_atom_site_fract_z
C1 C 0.0148(3) 0.7227(2) 0.33200(8)
C2 C -0.1126(4) 0.7596(3) 0.30414(10)
H1 H -0.11940 0.69760 0.28240
H2 H -0.20240 0.75580 0.31950
C3 C -0.0969(4) 0.8921(3) 0.28602(11)
H3 H -0.18480 0.91350 0.27120
H4 H -0.01640 0.89250 0.26700
C4 C -0.0703(4) 0.9922(3) 0.31843(11)
H5 H -0.05080 1.07440 0.30600
H6 H -0.15580 1.00060 0.33550
C5 C 0.0577(3) 0.9512(2) 0.34345(9)
H7 H 0.14420 0.94500 0.32620
C6 C 0.0954(4) 1.0241(3) 0.38195(10)
H8 H 0.15860 1.09620 0.37620
H9 H 0.00830 1.05470 0.39550
C7 C 0.1729(4) 0.9240(3) 0.40717(8)
H10 H 0.27680 0.94520 0.40800
C8 C 0.1505(4) 0.7100(3) 0.30818(9)
C9 C -0.0178(3) 0.5958(2) 0.35305(9)
C10 C -0.0843(4) 0.5932(3) 0.39048(10)
H11 H -0.10460 0.66940 0.40380
C11 C -0.1208(4) 0.4775(3) 0.40825(13)
H12 H -0.16620 0.47680 0.43340
C12 C -0.0908(4) 0.3645(3) 0.38919(15)
H13 H -0.11560 0.28710 0.40130
C13 C -0.0237(4) 0.3663(3) 0.35207(13)
H14 H -0.00260 0.28980 0.33900
C14 C 0.0124(4) 0.4803(3) 0.33416(11)
H15 H 0.05780 0.48010 0.30900
C15 C 0.1193(5) 0.9097(4) 0.44980(9)
H16 H 0.01880 0.88130 0.44950
H17 H 0.12290 0.99210 0.46330
C16 C 0.2101(10) 0.8149(7) 0.47294(18)
H18 H 0.20700 0.73480 0.45820
H19 H 0.31000 0.84480 0.47200
C17 C 0.1760(16) 0.7853(13) 0.5162(2)
H20 H 0.14300 0.86160 0.52950
H21 H 0.26190 0.75400 0.52940
H22 H 0.10110 0.72140 0.51740
N1 N 0.2547(4) 0.7003(3) 0.28974(10)
N2 N 0.0258(2) 0.82595(19) 0.36120(7)
O1 O 0.1557(2) 0.80385(17) 0.38593(6)
#END
