
#######################################################################
#
#                 Cambridge Crystallographic Data Centre
#                                CCDC
#
#######################################################################
#
# If this CIF has been generated from an entry in the Cambridge
# Structural Database, then it will include bibliographic, chemical,
# crystal, experimental, refinement or atomic coordinate data resulting
# from the CCDC's data processing and validation procedures.
#
#######################################################################

data_CSD_CIF_OLIVIP01
_audit_creation_date 2017-04-27
_audit_creation_method CSD-ConQuest-V1
_database_code_CSD OLIVIP01
_database_code_depnum_ccdc_archive 'CCDC 1546652'
_chemical_formula_sum 'C15 H13 N1 O2'
_chemical_formula_moiety
;
C15 H13 N1 O2
;
_journal_coden_Cambridge 35
_journal_volume 82
_journal_year 2017
_journal_page_first 3589
_journal_name_full 'J.Org.Chem. '
loop_
_publ_author_name
"Dongdong Liang"
"Wenbo Yu"
"Nam Nguyen"
"J.R.Deschamps"
"G.H.Imler"
"Yue Li"
"A.D.MacKerell Junior"
"Chao Jiang"
"Fengtian Xue"
_chemical_name_systematic
;
5-methoxy-3-methylphenanthridin-6(5H)-one
;
_cell_volume   1201.455
_exptl_crystal_colour 'colorless'
_exptl_crystal_density_diffrn 1.323
_exptl_crystal_description 'plate'
_diffrn_ambient_temperature 150
#These two values have been output from a single CSD field.
_refine_ls_R_factor_gt 0.0392
_refine_ls_wR_factor_gt 0.0392
_symmetry_cell_setting monoclinic
_symmetry_space_group_name_H-M 'P 21/n'
_symmetry_Int_Tables_number 14
loop_
_symmetry_equiv_pos_site_id
_symmetry_equiv_pos_as_xyz
1 x,y,z
2 1/2-x,1/2+y,1/2-z
3 -x,-y,-z
4 -1/2+x,-1/2-y,-1/2+z
_cell_length_a 5.9394(6)
_cell_length_b 15.8663(16)
_cell_length_c 12.7939(13)
_cell_angle_alpha 90
_cell_angle_beta 94.781(2)
_cell_angle_gamma 90
_cell_formula_units_Z 4
loop_
_atom_type_symbol
_atom_type_radius_bond
C 0.68
H 0.23
N 0.68
O 0.68
loop_
_atom_site_label
_atom_site_type_symbol
_atom_site_fract_x
_atom_site_fract_y
_atom_site_fract_z
C1 C 0.2327(3) 0.54786(10) 0.06828(12)
H1 H 0.13830 0.58590 0.02300
H2 H 0.25360 0.49470 0.03130
H3 H 0.38010 0.57410 0.08630
O1 O 0.12343(18) 0.53136(6) 0.16327(8)
N1 N 0.0799(2) 0.60808(7) 0.21096(9)
C2 C 0.2353(3) 0.63395(9) 0.29314(11)
C3 C 0.4201(3) 0.5835(1) 0.32577(11)
H4 H 0.44210 0.53140 0.29150
C4 C 0.5715(3) 0.60872(10) 0.40767(12)
C5 C 0.7694(3) 0.55446(12) 0.44442(14)
H5 H 0.73950 0.52680 0.51040
H6 H 0.90510 0.58950 0.45560
H7 H 0.79270 0.51160 0.39130
C6 C 0.5345(3) 0.68577(11) 0.45631(12)
H8 H 0.63690 0.70390 0.51280
C7 C 0.3534(3) 0.73575(10) 0.42411(12)
H9 H 0.33320 0.78780 0.45880
C8 C 0.1975(3) 0.71179(9) 0.34106(11)
C9 C 0.0025(3) 0.76241(9) 0.30355(11)
C10 C -0.0403(3) 0.84298(10) 0.34345(12)
H10 H 0.06170 0.86630 0.39690
C11 C -0.2267(3) 0.88833(10) 0.30654(13)
H11 H -0.25080 0.94290 0.33390
C12 C -0.3810(3) 0.85521(10) 0.22933(13)
H12 H -0.51140 0.88660 0.20530
C13 C -0.3433(3) 0.77677(10) 0.18811(12)
H13 H -0.44790 0.75400 0.13530
C14 C -0.1513(3) 0.73055(9) 0.22378(11)
C15 C -0.1151(3) 0.64837(9) 0.17469(11)
O2 O -0.24285(17) 0.61760(6) 0.10382(8)
H14? H 0.88530 0.55840 0.39450
H15? H 0.71980 0.49580 0.44920
H16? H 0.83220 0.57370 0.51360
#END
