
#######################################################################
#
#                 Cambridge Crystallographic Data Centre
#                                CCDC
#
#######################################################################
#
# If this CIF has been generated from an entry in the Cambridge
# Structural Database, then it will include bibliographic, chemical,
# crystal, experimental, refinement or atomic coordinate data resulting
# from the CCDC's data processing and validation procedures.
#
#######################################################################

data_CSD_CIF_OLUTUM
_audit_creation_date 2016-05-13
_audit_creation_method CSD-ConQuest-V1
_database_code_CSD OLUTUM
_database_code_depnum_ccdc_archive 'CCDC 1434237'
_chemical_formula_sum 'C12 H10 N4 O3'
_chemical_formula_moiety
;
C12 H10 N4 O3
;
_journal_coden_Cambridge 643
_journal_volume 231
_journal_year 2016
_journal_page_first 271
_journal_name_full 'Z.Krist.Cryst.Mater. '
loop_
_publ_author_name
"N.R.de L.Correira"
"T.C.M.Noguiera"
"A.C.Pinheiro"
"M.V.N.de Souza"
"J.L.Wardell"
"S.M.S.V.Wardell"
_chemical_name_systematic
;
4-nitro-2-(pyridin-2-ylcarbonohydrazonoyl)phenol
;
_cell_volume   1119.541
_exptl_crystal_colour 'orange'
_exptl_crystal_density_diffrn 1.532
_exptl_crystal_description 'Plate'
_diffrn_ambient_temperature 100
#These two values have been output from a single CSD field.
_refine_ls_R_factor_gt 0.0636
_refine_ls_wR_factor_gt 0.0636
_symmetry_cell_setting monoclinic
_symmetry_space_group_name_H-M 'P 21/c'
_symmetry_Int_Tables_number 14
loop_
_symmetry_equiv_pos_site_id
_symmetry_equiv_pos_as_xyz
1 x,y,z
2 -x,1/2+y,1/2-z
3 -x,-y,-z
4 x,-1/2-y,-1/2+z
_cell_length_a 8.5236(6)
_cell_length_b 5.7168(4)
_cell_length_c 22.9928(16)
_cell_angle_alpha 90
_cell_angle_beta 92.226(4)
_cell_angle_gamma 90
_cell_formula_units_Z 4
loop_
_atom_type_symbol
_atom_type_radius_bond
C 0.68
H 0.23
N 0.68
O 0.68
loop_
_atom_site_label
_atom_site_type_symbol
_atom_site_fract_x
_atom_site_fract_y
_atom_site_fract_z
O1 O 0.11236(19) 0.1890(3) 0.47845(7)
H1 H 0.17020 0.29760 0.49140
N1 N 0.2554(2) 0.5872(4) 0.47820(8)
C1 C 0.0777(2) 0.4707(4) 0.40175(9)
N2 N 0.3597(2) 0.7403(4) 0.50187(8)
H2 H 0.392(3) 0.862(5) 0.4805(11)
C2 C -0.0985(2) 0.3677(4) 0.32248(9)
C3 C 0.1892(2) 0.6331(4) 0.42857(9)
H3 H 0.21330 0.77470 0.40920
O2 O -0.2522(2) 0.2817(3) 0.24057(7)
N3 N 0.5211(2) 0.8666(4) 0.57659(8)
C4 C 0.0044(2) 0.5234(4) 0.34866(9)
H4 H 0.02540 0.66820 0.33020
N4 N -0.1736(2) 0.4301(4) 0.26697(8)
C5 C 0.5862(3) 0.8352(4) 0.63015(10)
H5 H 0.65290 0.95520 0.64550
C6 C 0.3977(2) 0.4926(4) 0.58706(10)
H6 H 0.33130 0.37410 0.57080
C7 C -0.0628(2) 0.1003(4) 0.40036(10)
H7 H -0.08640 -0.04420 0.41850
C8 C 0.4264(2) 0.6964(4) 0.55627(9)
O3 O -0.1562(2) 0.6295(4) 0.24854(8)
C9 C 0.5635(3) 0.6436(5) 0.6641(1)
H8 H 0.61170 0.63170 0.70190
C10 C -0.1328(2) 0.1554(4) 0.34743(10)
H9 H -0.20340 0.04950 0.32830
C11 C 0.0429(2) 0.2553(4) 0.42787(10)
C12 C 0.4677(2) 0.4663(5) 0.64163(10)
H10 H 0.45070 0.32860 0.66360
#END
