
#######################################################################
#
#                 Cambridge Crystallographic Data Centre
#                                CCDC
#
#######################################################################
#
# If this CIF has been generated from an entry in the Cambridge
# Structural Database, then it will include bibliographic, chemical,
# crystal, experimental, refinement or atomic coordinate data resulting
# from the CCDC's data processing and validation procedures.
#
#######################################################################

data_CSD_CIF_OMEVIL
_audit_creation_date 2004-03-18
_audit_creation_method CSD-ConQuest-V1
_database_code_CSD OMEVIL
_database_code_depnum_ccdc_archive 'CCDC 204292'
_chemical_formula_sum 'C8 H6 N2 O3'
_chemical_formula_moiety
;
C8 H6 N2 O3
;
_journal_coden_Cambridge 35
_journal_volume 68
_journal_year 2003
_journal_page_first 9093
_journal_name_full 'J.Org.Chem. '
loop_
_publ_author_name
"A.R.Katritzky"
"Zuoquan Wang"
"C.D.Hall"
"N.G.Akhmedov"
"A.A.Shestopalov"
"P.J.Steel"
_chemical_name_systematic
;
trans-2,1-Benzisoxazole-4,5-dione 4-(O-methyloxime)
;
_chemical_melting_point 432.15
_cell_volume    747.526
_exptl_crystal_colour 'yellow'
_exptl_crystal_density_diffrn 1.583
_exptl_special_details
;
Melting point range 432.15-434.15K

;
_exptl_crystal_description 'block'
_diffrn_ambient_temperature 168
#These two values have been output from a single CSD field.
_refine_ls_R_factor_gt 0.0359
_refine_ls_wR_factor_gt 0.0359
_symmetry_cell_setting monoclinic
_symmetry_space_group_name_H-M 'P 21/c'
_symmetry_Int_Tables_number 14
loop_
_symmetry_equiv_pos_site_id
_symmetry_equiv_pos_as_xyz
1 x,y,z
2 x,1/2-y,1/2+z
3 -x,-y,-z
4 -x,-1/2+y,-1/2-z
_cell_length_a 8.787(4)
_cell_length_b 9.798(4)
_cell_length_c 8.702(4)
_cell_angle_alpha 90
_cell_angle_beta 93.830(6)
_cell_angle_gamma 90
_cell_formula_units_Z 4
loop_
_atom_type_symbol
_atom_type_radius_bond
C 0.68
H 0.23
N 0.68
O 0.68
loop_
_atom_site_label
_atom_site_type_symbol
_atom_site_fract_x
_atom_site_fract_y
_atom_site_fract_z
N1 N 0.37956(14) -0.29727(12) 0.15266(14)
O1 O 0.45684(12) -0.18601(10) 0.22328(12)
C1 C 0.40434(16) -0.07044(15) 0.15905(16)
H1 H 0.43900 0.01850 0.18740
C2 C 0.29539(15) -0.09830(14) 0.04838(15)
C3 C 0.19856(15) -0.02042(14) -0.05828(16)
N2 N 0.18979(13) 0.10975(12) -0.07340(14)
O2 O 0.28939(12) 0.17379(10) 0.02980(12)
C4 C 0.27324(18) 0.31797(14) 0.0084(2)
H2? H 0.35510 0.36520 0.06920
H3? H 0.17420 0.34730 0.04220
H4? H 0.27930 0.34010 -0.10080
H5 H 0.18400 0.33660 -0.06210
H6 H 0.36490 0.35440 -0.03510
H7 H 0.25970 0.36170 0.10790
C5 C 0.09279(16) -0.09859(14) -0.16643(16)
O3 O 0.01348(13) -0.04162(11) -0.26523(13)
C6 C 0.08792(15) -0.24635(14) -0.15058(16)
H8 H 0.01650 -0.29590 -0.21570
C7 C 0.17797(16) -0.31547(13) -0.04992(16)
H9 H 0.17150 -0.41210 -0.04440
C8 C 0.28501(15) -0.24233(14) 0.05022(15)
#END
