
#######################################################################
#
#                 Cambridge Crystallographic Data Centre
#                                CCDC
#
#######################################################################
#
# If this CIF has been generated from an entry in the Cambridge
# Structural Database, then it will include bibliographic, chemical,
# crystal, experimental, refinement or atomic coordinate data resulting
# from the CCDC's data processing and validation procedures.
#
#######################################################################

data_CSD_CIF_OMITIP
_audit_creation_date 2016-05-16
_audit_creation_method CSD-ConQuest-V1
_database_code_CSD OMITIP
_database_code_depnum_ccdc_archive 'CCDC 995717'
_chemical_formula_sum 'C13 H14 N4 O5'
_chemical_formula_moiety
;
C13 H14 N4 O5
;
_journal_coden_Cambridge 177
_journal_volume 14
_journal_year 2016
_journal_page_first 5088
_journal_name_full 'Org.Biomol.Chem. '
loop_
_publ_author_name
"S.S.Bag"
"S.Talukdar"
"S.K.Das"
"M.K.Pradhan"
"S.Mukherjee"
_chemical_name_systematic
;
2-(Hydroxymethyl)-5-(4-(4-nitrophenyl)-1H-1,2,3-triazol-1-yl)tetrahydrofuran-3
-ol
;
_chemical_name_common
;
2 -Deoxy-1 -beta-triazolylnitrobenezene
;
_chemical_melting_point 420.15
_cell_volume   1379.799
_exptl_crystal_colour 'yellow'
_exptl_crystal_density_diffrn 1.474
_exptl_special_details
;
Melting point range 420.15-423.15K

;
_exptl_crystal_description 'rod'
_exptl_crystal_preparation 'slow evaporation'
_diffrn_ambient_temperature 296
#These two values have been output from a single CSD field.
_refine_ls_R_factor_gt 0.0509
_refine_ls_wR_factor_gt 0.0509
_symmetry_cell_setting orthorhombic
_symmetry_space_group_name_H-M 'P 21 21 21'
_symmetry_Int_Tables_number 19
loop_
_symmetry_equiv_pos_site_id
_symmetry_equiv_pos_as_xyz
1 x,y,z
2 1/2-x,-y,1/2+z
3 -x,1/2+y,1/2-z
4 1/2+x,1/2-y,-z
_cell_length_a 6.4456(7)
_cell_length_b 9.8102(8)
_cell_length_c 21.8210(19)
_cell_angle_alpha 90
_cell_angle_beta 90
_cell_angle_gamma 90
_cell_formula_units_Z 4
loop_
_atom_type_symbol
_atom_type_radius_bond
C 0.68
H 0.23
N 0.68
O 0.68
loop_
_atom_site_label
_atom_site_type_symbol
_atom_site_fract_x
_atom_site_fract_y
_atom_site_fract_z
N1 N 0.5892(4) 0.60661(19) 0.93091(9)
N2 N 0.4329(4) 0.64284(19) 0.89546(9)
N3 N 0.5652(4) 0.47366(18) 0.94237(9)
N4 N -0.4244(4) 0.5669(3) 0.73973(10)
O1 O 0.6003(3) 0.34078(14) 1.03178(7)
O2 O 0.8978(3) 0.57269(15) 1.11577(8)
H1 H 0.92230 0.65460 1.11760
O3 O -0.4456(4) 0.6695(2) 0.70734(9)
O4 O -0.5490(4) 0.4741(2) 0.74188(9)
C1 C 0.3986(5) 0.4836(3) 1.09975(14)
H2 H 0.40700 0.54750 1.13360
H3 H 0.33670 0.53000 1.06500
C2 C 0.7653(4) 0.5462(2) 1.06528(11)
H4 H 0.69030 0.62920 1.05380
C3 C 0.3946(5) 0.4257(2) 0.91436(11)
H5 H 0.34520 0.33670 0.91530
C4 C 0.1207(4) 0.5424(2) 0.84661(11)
C5 C 0.6114(4) 0.4340(2) 1.08328(11)
H6 H 0.66820 0.38460 1.11850
C6 C -0.0099(4) 0.4309(3) 0.84052(11)
H7 H 0.02350 0.35030 0.86060
C7 C -0.1080(5) 0.6699(3) 0.78125(13)
H8 H -0.14290 0.75060 0.76140
C8 C 0.0704(5) 0.6621(3) 0.81621(12)
H9 H 0.15730 0.73750 0.81940
C9 C 0.7125(4) 0.3968(2) 0.98189(11)
H10 H 0.77840 0.32370 0.95820
C10 C 0.3083(4) 0.5334(2) 0.88426(11)
C11 C -0.1882(5) 0.4361(3) 0.80541(11)
H11 H -0.27480 0.36070 0.80160
C12 C -0.2329(5) 0.5572(3) 0.77623(12)
C13 C 0.8755(4) 0.4873(2) 1.00970(11)
H12 H 0.91700 0.55860 0.98140
H13 H 0.99690 0.43540 1.02170
O5 O 0.2757(4) 0.37058(17) 1.11658(9)
H14 H 0.17100 0.39730 1.13420
#END
