
#######################################################################
#
#                 Cambridge Crystallographic Data Centre
#                                CCDC
#
#######################################################################
#
# If this CIF has been generated from an entry in the Cambridge
# Structural Database, then it will include bibliographic, chemical,
# crystal, experimental, refinement or atomic coordinate data resulting
# from the CCDC's data processing and validation procedures.
#
#######################################################################

data_CSD_CIF_OMIWEM
_audit_creation_date 2004-03-18
_audit_creation_method CSD-ConQuest-V1
_database_code_CSD OMIWEM
_database_code_depnum_ccdc_archive 'CCDC 227005'
_chemical_formula_sum 'C6 H5 N3 O2'
_chemical_formula_moiety
;
C6 H5 N3 O2
;
_journal_coeditor_code "IUCr CV6219"
_journal_coden_Cambridge 1370
_journal_volume 59
_journal_year 2003
_journal_page_first o1777
_journal_name_full 'Acta Crystallogr.,Sect.E:Struct.Rep.Online '
loop_
_publ_author_name
"R.J.Butcher"
"J.C.Bottaro"
"R.Gilardi"
_chemical_name_systematic
;
1-Nitro-7,8-diazapentalene
;
_cell_volume    642.064
_exptl_crystal_colour 'orange'
_exptl_crystal_density_diffrn 1.563
_exptl_crystal_description 'plate'
_diffrn_ambient_temperature 296
#These two values have been output from a single CSD field.
_refine_ls_R_factor_gt 0.0345
_refine_ls_wR_factor_gt 0.0345
_symmetry_cell_setting orthorhombic
_symmetry_space_group_name_H-M 'P 21 21 21'
_symmetry_Int_Tables_number 19
loop_
_symmetry_equiv_pos_site_id
_symmetry_equiv_pos_as_xyz
1 x,y,z
2 1/2-x,-y,1/2+z
3 -x,1/2+y,1/2-z
4 1/2+x,1/2-y,-z
_cell_length_a 4.0213(1)
_cell_length_b 6.9120(1)
_cell_length_c 23.0998(3)
_cell_angle_alpha 90
_cell_angle_beta 90
_cell_angle_gamma 90
_cell_formula_units_Z 4
loop_
_atom_type_symbol
_atom_type_radius_bond
C 0.68
H 0.23
N 0.68
O 0.68
loop_
_atom_site_label
_atom_site_type_symbol
_atom_site_fract_x
_atom_site_fract_y
_atom_site_fract_z
C1 C 0.7961(6) 0.3363(3) 0.84970(8)
N1 N 0.6784(5) 0.1572(3) 0.85832(8)
O1 O 0.7486(6) 0.0729(2) 0.90520(8)
O2 O 0.4976(6) 0.0793(3) 0.82050(8)
C2 C 0.7576(7) 0.4705(4) 0.80390(9)
H1 H 0.64020 0.45000 0.76980
C3 C 0.9218(8) 0.6336(4) 0.81865(11)
H2 H 0.93620 0.74510 0.79620
C4 C 1.2512(7) 0.6965(4) 0.91371(13)
H3 H 1.33630 0.82140 0.91180
C5 C 1.2904(7) 0.5695(3) 0.95839(11)
H4 H 1.40710 0.59290 0.99240
C6 C 1.1278(6) 0.4014(3) 0.94442(8)
H5 H 1.11430 0.29070 0.96720
N2 N 0.9907(5) 0.4261(2) 0.89134(7)
N3 N 1.0661(5) 0.6076(2) 0.87288(8)
#END
