
#######################################################################
#
#                 Cambridge Crystallographic Data Centre
#                                CCDC
#
#######################################################################
#
# If this CIF has been generated from an entry in the Cambridge
# Structural Database, then it will include bibliographic, chemical,
# crystal, experimental, refinement or atomic coordinate data resulting
# from the CCDC's data processing and validation procedures.
#
#######################################################################

data_CSD_CIF_OMOMIM
_audit_creation_date 2004-03-18
_audit_creation_method CSD-ConQuest-V1
_database_code_CSD OMOMIM
_database_code_depnum_ccdc_archive 'CCDC 231061'
_chemical_formula_sum 'C14 H12 N2 O3'
_chemical_formula_moiety
;
C14 H12 N2 O3
;
_journal_coeditor_code "IUCr SK1677"
_journal_coden_Cambridge 591
_journal_volume 60
_journal_year 2004
_journal_page_first o28
_journal_name_full 'Acta Crystallogr.,Sect.C:Cryst.Struct.Commun. '
loop_
_publ_author_name
"C.E.M.Carvalho"
"S.M.S.V.Wardell"
"J.L.Wardell"
"J.M.S.Skakle"
"J.N.Low"
"C.Glidewell"
_chemical_name_systematic
;
N^2^-Benzoyloxy-2-hydroxybenzamidine
;
_cell_volume   1213.325
_exptl_crystal_colour 'colorless'
_exptl_crystal_density_diffrn 1.403
_exptl_crystal_description 'plate'
_exptl_crystal_preparation 'acetonitrile'
_diffrn_ambient_temperature 120
#These two values have been output from a single CSD field.
_refine_ls_R_factor_gt 0.0556
_refine_ls_wR_factor_gt 0.0556
_symmetry_cell_setting monoclinic
_symmetry_space_group_name_H-M 'P 21/n'
_symmetry_Int_Tables_number 14
loop_
_symmetry_equiv_pos_site_id
_symmetry_equiv_pos_as_xyz
1 x,y,z
2 1/2+x,1/2-y,1/2+z
3 -x,-y,-z
4 -1/2-x,-1/2+y,-1/2-z
_cell_length_a 4.6463(3)
_cell_length_b 22.1280(13)
_cell_length_c 11.9551(9)
_cell_angle_alpha 90
_cell_angle_beta 99.202(3)
_cell_angle_gamma 90
_cell_formula_units_Z 4
loop_
_atom_type_symbol
_atom_type_radius_bond
C 0.68
H 0.23
N 0.68
O 0.68
loop_
_atom_site_label
_atom_site_type_symbol
_atom_site_fract_x
_atom_site_fract_y
_atom_site_fract_z
O1 O 0.3688(3) 0.18366(6) 0.20049(11)
O2 O 0.2346(3) 0.15005(7) 0.02115(12)
O3 O 0.7525(3) 0.28621(7) 0.00167(11)
N1 N 0.5570(4) 0.22553(8) 0.15460(14)
N2 N 0.6513(4) 0.25484(8) 0.34554(14)
C1 C 0.6859(4) 0.25965(9) 0.23640(17)
C2 C 0.2209(4) 0.14696(9) 0.12101(18)
C3 C 0.8891(4) 0.30561(9) 0.20344(16)
C4 C 0.9117(4) 0.31623(9) 0.09000(17)
C5 C 1.1034(5) 0.35978(10) 0.06161(17)
C6 C 1.2743(4) 0.39237(9) 0.14485(18)
C7 C 1.2559(5) 0.38254(9) 0.25700(18)
C8 C 1.0651(4) 0.33982(10) 0.28583(16)
C9 C 0.0454(4) 0.10209(9) 0.17318(17)
C10 C 0.0324(5) 0.10087(10) 0.28767(18)
C11 C -0.1280(5) 0.05619(10) 0.33122(18)
C12 C -0.2764(5) 0.01349(10) 0.2605(2)
C13 C -0.2657(5) 0.01489(10) 0.1465(2)
C14 C -0.1052(5) 0.05889(10) 0.10217(17)
H1 H 0.65580 0.25870 0.02670
H2 H 0.50670 0.23170 0.35900
H3 H 0.70890 0.28480 0.39220
H4 H 1.11620 0.36700 -0.01580
H5 H 1.40570 0.42180 0.12480
H6 H 1.37440 0.40510 0.31440
H7 H 1.05280 0.33340 0.36350
H8 H 0.13300 0.13050 0.33660
H9 H -0.13530 0.05510 0.41010
H10 H -0.38620 -0.01690 0.29070
H11 H -0.36890 -0.01450 0.09780
H12 H -0.09780 0.05960 0.02320
#END
