
#######################################################################
#
#                 Cambridge Crystallographic Data Centre
#                                CCDC
#
#######################################################################
#
# If this CIF has been generated from an entry in the Cambridge
# Structural Database, then it will include bibliographic, chemical,
# crystal, experimental, refinement or atomic coordinate data resulting
# from the CCDC's data processing and validation procedures.
#
#######################################################################

data_CSD_CIF_OMOMEI
_audit_creation_date 2004-03-18
_audit_creation_method CSD-ConQuest-V1
_database_code_CSD OMOMEI
_database_code_depnum_ccdc_archive 'CCDC 231060'
_chemical_formula_sum 'C14 H12 N2 O3'
_chemical_formula_moiety
;
C14 H12 N2 O3
;
_journal_coeditor_code "IUCr SK1677"
_journal_coden_Cambridge 591
_journal_volume 60
_journal_year 2004
_journal_page_first o28
_journal_name_full 'Acta Crystallogr.,Sect.C:Cryst.Struct.Commun. '
loop_
_publ_author_name
"C.E.M.Carvalho"
"S.M.S.V.Wardell"
"J.L.Wardell"
"J.M.S.Skakle"
"J.N.Low"
"C.Glidewell"
_chemical_name_systematic
;
N^2^-(2-Hydroxybenzoyloxy)benzamidine
;
_cell_volume   2417.722
_exptl_crystal_colour 'colorless'
_exptl_crystal_density_diffrn 1.408
_exptl_crystal_description 'block'
_exptl_crystal_preparation 'acetonitrile'
_diffrn_ambient_temperature 120
#These two values have been output from a single CSD field.
_refine_ls_R_factor_gt 0.0391
_refine_ls_wR_factor_gt 0.0391
_symmetry_cell_setting orthorhombic
_symmetry_space_group_name_H-M 'P b c a'
_symmetry_Int_Tables_number 61
loop_
_symmetry_equiv_pos_site_id
_symmetry_equiv_pos_as_xyz
1 x,y,z
2 1/2-x,-y,1/2+z
3 -x,1/2+y,1/2-z
4 1/2+x,1/2-y,-z
5 -x,-y,-z
6 -1/2+x,y,-1/2-z
7 x,-1/2-y,-1/2+z
8 -1/2-x,-1/2+y,z
_cell_length_a 9.3808(1)
_cell_length_b 24.9553(4)
_cell_length_c 10.3277(1)
_cell_angle_alpha 90
_cell_angle_beta 90
_cell_angle_gamma 90
_cell_formula_units_Z 8
loop_
_atom_type_symbol
_atom_type_radius_bond
C 0.68
H 0.23
N 0.68
O 0.68
loop_
_atom_site_label
_atom_site_type_symbol
_atom_site_fract_x
_atom_site_fract_y
_atom_site_fract_z
O1 O 0.16042(9) 0.57063(3) 0.07061(8)
O2 O 0.08972(10) 0.58517(3) 0.27676(8)
O3 O -0.11487(11) 0.65582(4) 0.31260(9)
N1 N 0.24819(12) 0.52822(4) 0.12648(10)
N2 N 0.18746(12) 0.48525(4) -0.07198(10)
C1 C 0.25882(13) 0.48989(5) 0.04147(11)
C2 C 0.09289(13) 0.59851(4) 0.16295(12)
C3 C 0.35734(13) 0.44605(5) 0.08089(11)
C4 C 0.48275(13) 0.45869(5) 0.14659(12)
C5 C 0.57522(15) 0.41826(5) 0.18447(12)
C6 C 0.54277(15) 0.36493(5) 0.15761(13)
C7 C 0.41747(15) 0.35224(5) 0.09349(13)
C8 C 0.32460(14) 0.39244(5) 0.05472(12)
C9 C 0.01932(13) 0.64654(4) 0.11252(12)
C10 C -0.08237(14) 0.67216(5) 0.19139(12)
C11 C -0.15664(14) 0.71658(5) 0.14315(13)
C12 C -0.12627(15) 0.73610(5) 0.02098(14)
C13 C -0.02321(15) 0.71186(5) -0.05625(13)
C14 C 0.04785(14) 0.66696(5) -0.01138(12)
H1 H -0.05930 0.63110 0.33470
H2 H 0.13090 0.51290 -0.09560
H3 H 0.23020 0.46650 -0.13660
H4 H 0.50490 0.49500 0.16540
H5 H 0.66090 0.42700 0.22880
H6 H 0.60650 0.33730 0.18320
H7 H 0.39500 0.31580 0.07600
H8 H 0.23900 0.38360 0.01050
H9 H -0.22800 0.73330 0.19450
H10 H -0.17640 0.76650 -0.01070
H11 H -0.00180 0.72610 -0.13940
H12 H 0.11650 0.64980 -0.06490
#END
