
#######################################################################
#
#                 Cambridge Crystallographic Data Centre
#                                CCDC
#
#######################################################################
#
# If this CIF has been generated from an entry in the Cambridge
# Structural Database, then it will include bibliographic, chemical,
# crystal, experimental, refinement or atomic coordinate data resulting
# from the CCDC's data processing and validation procedures.
#
#######################################################################

data_CSD_CIF_OMOMAE
_audit_creation_date 2004-03-18
_audit_creation_method CSD-ConQuest-V1
_database_code_CSD OMOMAE
_database_code_depnum_ccdc_archive 'CCDC 231059'
_chemical_formula_sum 'C14 H12 N2 O2'
_chemical_formula_moiety
;
C14 H12 N2 O2
;
_journal_coeditor_code "IUCr SK1677"
_journal_coden_Cambridge 591
_journal_volume 60
_journal_year 2004
_journal_page_first o28
_journal_name_full 'Acta Crystallogr.,Sect.C:Cryst.Struct.Commun. '
loop_
_publ_author_name
"C.E.M.Carvalho"
"S.M.S.V.Wardell"
"J.L.Wardell"
"J.M.S.Skakle"
"J.N.Low"
"C.Glidewell"
_chemical_name_systematic
;
N^2^-(Benzoyloxy)benzamidine
;
_cell_volume   1155.274
_exptl_crystal_colour 'colorless'
_exptl_crystal_density_diffrn 1.381
_exptl_crystal_description 'plate'
_exptl_crystal_preparation 'acetonitrile'
_diffrn_ambient_temperature 120
#These two values have been output from a single CSD field.
_refine_ls_R_factor_gt 0.0493
_refine_ls_wR_factor_gt 0.0493
_symmetry_cell_setting monoclinic
_symmetry_space_group_name_H-M 'P 21/n'
_symmetry_Int_Tables_number 14
loop_
_symmetry_equiv_pos_site_id
_symmetry_equiv_pos_as_xyz
1 x,y,z
2 1/2+x,1/2-y,1/2+z
3 -x,-y,-z
4 -1/2-x,-1/2+y,-1/2-z
_cell_length_a 7.0415(2)
_cell_length_b 21.4704(7)
_cell_length_c 8.0570(3)
_cell_angle_alpha 90
_cell_angle_beta 108.4804(16)
_cell_angle_gamma 90
_cell_formula_units_Z 4
loop_
_atom_type_symbol
_atom_type_radius_bond
C 0.68
H 0.23
N 0.68
O 0.68
loop_
_atom_site_label
_atom_site_type_symbol
_atom_site_fract_x
_atom_site_fract_y
_atom_site_fract_z
O1 O 0.68674(18) 0.20793(5) 1.03591(14)
O2 O 0.62128(19) 0.11800(5) 0.87945(15)
N1 N 0.6429(2) 0.23953(6) 0.86857(17)
N2 N 0.8343(2) 0.31800(7) 1.05407(17)
C1 C 0.7286(2) 0.29369(7) 0.8972(2)
C2 C 0.6621(2) 0.14541(8) 1.0169(2)
C3 C 0.6990(2) 0.33248(7) 0.7376(2)
C4 C 0.6842(2) 0.30402(8) 0.5786(2)
C5 C 0.6554(2) 0.33948(8) 0.4299(2)
C6 C 0.6435(3) 0.40380(8) 0.4378(2)
C7 C 0.6600(3) 0.43238(8) 0.5957(2)
C8 C 0.6863(2) 0.39696(8) 0.7450(2)
C9 C 0.6908(2) 0.11529(7) 1.1906(2)
C10 C 0.7371(2) 0.14931(8) 1.3457(2)
C11 C 0.7585(3) 0.11870(8) 1.5029(2)
C12 C 0.7311(3) 0.05492(8) 1.5044(2)
C13 C 0.6868(3) 0.02098(8) 1.3499(2)
C14 C 0.6678(3) 0.05123(8) 1.1937(2)
H1 H 0.69390 0.26000 0.57250
H2 H 0.64370 0.31980 0.32160
H3 H 0.62400 0.42810 0.33530
H4 H 0.65340 0.47650 0.60170
H5 H 0.69570 0.41680 0.85270
H6 H 0.75400 0.19320 1.34410
H7 H 0.79190 0.14160 1.60920
H8 H 0.74260 0.03420 1.61140
H9 H 0.66960 -0.02290 1.35150
H10 H 0.63880 0.02800 1.08830
H11 H 0.89590 0.29070 1.14870
H12 H 0.92230 0.35160 1.05440
#END
