
#######################################################################
#
#                 Cambridge Crystallographic Data Centre
#                                CCDC
#
#######################################################################
#
# If this CIF has been generated from an entry in the Cambridge
# Structural Database, then it will include bibliographic, chemical,
# crystal, experimental, refinement or atomic coordinate data resulting
# from the CCDC's data processing and validation procedures.
#
#######################################################################

data_CSD_CIF_OMOMOS
_audit_creation_date 2004-03-18
_audit_creation_method CSD-ConQuest-V1
_database_code_CSD OMOMOS
_database_code_depnum_ccdc_archive 'CCDC 231062'
_chemical_formula_sum 'C7 H7 N3 O2'
_chemical_formula_moiety
;
C7 H7 N3 O2
;
_journal_coeditor_code "IUCr GG1201"
_journal_coden_Cambridge 591
_journal_volume 60
_journal_year 2004
_journal_page_first o33
_journal_name_full 'Acta Crystallogr.,Sect.C:Cryst.Struct.Commun. '
loop_
_publ_author_name
"C.Glidewell"
"J.N.Low"
"J.M.S.Skakle"
"J.L.Wardell"
_chemical_name_systematic
;
4-Nitrobenzaldehyde hydrazone
;
_chemical_melting_point 407
_cell_volume    363.836
_exptl_crystal_colour 'colorless'
_exptl_crystal_density_diffrn 1.508
_exptl_special_details
;
Melting point range 407-408K

;
_exptl_crystal_description 'plate'
_exptl_crystal_preparation 'ethanol'
_diffrn_ambient_temperature 120
#These two values have been output from a single CSD field.
_refine_ls_R_factor_gt 0.0402
_refine_ls_wR_factor_gt 0.0402
_symmetry_cell_setting monoclinic
_symmetry_space_group_name_H-M 'P c'
_symmetry_Int_Tables_number 7
loop_
_symmetry_equiv_pos_site_id
_symmetry_equiv_pos_as_xyz
1 x,y,z
2 x,-y,1/2+z
_cell_length_a 3.7070(2)
_cell_length_b 6.3963(3)
_cell_length_c 15.4047(10)
_cell_angle_alpha 90
_cell_angle_beta 95.064(2)
_cell_angle_gamma 90
_cell_formula_units_Z 2
loop_
_atom_type_symbol
_atom_type_radius_bond
C 0.68
H 0.23
N 0.68
O 0.68
loop_
_atom_site_label
_atom_site_type_symbol
_atom_site_fract_x
_atom_site_fract_y
_atom_site_fract_z
C1 C 0.4362(7) 0.2888(5) 0.32040(19)
C2 C 0.4310(7) 0.1965(5) 0.40249(19)
C3 C 0.3088(8) 0.3066(5) 0.4712(2)
C4 C 0.1947(7) 0.5132(5) 0.4569(2)
C5 C 0.2066(7) 0.6112(5) 0.37713(19)
C6 C 0.3267(8) 0.4974(5) 0.30925(19)
C7 C 0.5515(7) 0.1757(5) 0.24483(19)
N1 N 0.0612(7) 0.6280(4) 0.52911(17)
N2 N 0.6376(7) -0.0166(4) 0.24894(16)
N3 N 0.7161(8) -0.1091(4) 0.17187(19)
O1 O -0.0046(8) 0.8169(3) 0.51917(18)
O2 O 0.0131(6) 0.5344(4) 0.59654(15)
H1 H 0.51060 0.05950 0.41090
H2 H 0.30240 0.24490 0.52570
H3 H 0.13570 0.74990 0.36950
H4 H 0.33510 0.56040 0.25510
H5 H 0.56200 0.24660 0.19240
H6 H 0.70530 -0.03690 0.12460
H7 H 0.77590 -0.23900 0.17110
#END
