
#######################################################################
#
#                 Cambridge Crystallographic Data Centre
#                                CCDC
#
#######################################################################
#
# If this CIF has been generated from an entry in the Cambridge
# Structural Database, then it will include bibliographic, chemical,
# crystal, experimental, refinement or atomic coordinate data resulting
# from the CCDC's data processing and validation procedures.
#
#######################################################################

data_CSD_CIF_OMUXEB
_audit_creation_date 2016-05-17
_audit_creation_method CSD-ConQuest-V1
_database_code_CSD OMUXEB
_database_code_depnum_ccdc_archive 'CCDC 1428494'
_chemical_formula_sum 'C14 H20 N2 O4'
_chemical_formula_moiety
;
C14 H20 N2 O4
;
_journal_coden_Cambridge 1635
_journal_volume 15
_journal_year 2009
_journal_page_first 19
_journal_name_full 'Butlerovskie soobshcheniya(Russ.)(Butlerov Communications) '
loop_
_publ_author_name
"A.N.Utenyshev"
"V.V.Tkachev"
"V.A.Smirnov"
"T.A.Kondratieva"
"K.V.Bozhenko"
_chemical_name_systematic
;
2-Formyl-4-nitro-6-((triethylammonio)methyl)phenolate
;
_cell_volume   1435.355
_exptl_crystal_colour 'colorless'
_exptl_crystal_density_diffrn 1.297
_exptl_crystal_description 'prism'
_diffrn_ambient_temperature 295
#These two values have been output from a single CSD field.
_refine_ls_R_factor_gt 0.0439
_refine_ls_wR_factor_gt 0.0439
_symmetry_cell_setting monoclinic
_symmetry_space_group_name_H-M 'P 21/n'
_symmetry_Int_Tables_number 14
loop_
_symmetry_equiv_pos_site_id
_symmetry_equiv_pos_as_xyz
1 x,y,z
2 1/2-x,1/2+y,1/2-z
3 -x,-y,-z
4 -1/2+x,-1/2-y,-1/2+z
_cell_length_a 8.1870(16)
_cell_length_b 15.027(3)
_cell_length_c 12.063(2)
_cell_angle_alpha 90
_cell_angle_beta 104.72(3)
_cell_angle_gamma 90
_cell_formula_units_Z 4
loop_
_atom_type_symbol
_atom_type_radius_bond
C 0.68
H 0.23
N 0.68
O 0.68
loop_
_atom_site_label
_atom_site_type_symbol
_atom_site_fract_x
_atom_site_fract_y
_atom_site_fract_z
O1 O 0.06042(17) 0.07842(9) 0.37831(11)
O2 O 0.1308(3) -0.17515(12) -0.00893(17)
O3 O 0.2910(2) -0.06891(12) -0.03811(14)
O4 O 0.3763(2) 0.19562(11) 0.21423(16)
N1 N -0.26945(17) -0.09082(9) 0.29188(12)
N2 N 0.1958(2) -0.10159(12) 0.01479(14)
C1 C 0.1976(2) 0.07464(11) 0.22786(15)
C2 C 0.0896(2) 0.03761(11) 0.29466(15)
C3 C 0.0215(2) -0.05053(11) 0.26099(14)
C4 C 0.0596(2) -0.09339(12) 0.17145(15)
H1 H 0.01810 -0.15050 0.15250
C5 C 0.1598(2) -0.05354(12) 0.10717(14)
C6 C 0.2283(2) 0.02964(12) 0.13577(16)
H2 H 0.29530 0.05550 0.09280
C7 C 0.2794(2) 0.15972(13) 0.26033(19)
H3 H 0.25500 0.18910 0.32200
C8 C -0.0767(2) -0.09717(11) 0.33326(15)
H4 H -0.04220 -0.07300 0.41030
H5 H -0.04550 -0.15960 0.33790
C9 C -0.3322(2) -0.12409(13) 0.16988(17)
H6 H -0.45170 -0.11070 0.14360
H7 H -0.27500 -0.09090 0.12190
C10 C -0.3080(3) -0.22217(16) 0.1516(2)
H8 H -0.19250 -0.23810 0.18550
H9 H -0.33540 -0.23470 0.07090
H10 H -0.38060 -0.25600 0.18680
C11 C -0.3380(2) -0.14693(13) 0.37378(18)
H11 H -0.29210 -0.12490 0.45100
H12 H -0.29840 -0.20750 0.37110
C12 C -0.5285(2) -0.14819(16) 0.3496(2)
H13 H -0.56170 -0.18510 0.40510
H14 H -0.57560 -0.17160 0.27420
H15 H -0.56920 -0.08870 0.35420
C13 C -0.3254(2) 0.00533(12) 0.29161(16)
H16 H -0.25920 0.04060 0.25160
H17 H -0.44250 0.00920 0.24820
C14 C -0.3102(3) 0.04627(14) 0.40752(18)
H18 H -0.34490 0.10740 0.39840
H19 H -0.19490 0.04300 0.45170
H20 H -0.38100 0.01450 0.44640
#END
