
#######################################################################
#
#                 Cambridge Crystallographic Data Centre
#                                CCDC
#
#######################################################################
#
# If this CIF has been generated from an entry in the Cambridge
# Structural Database, then it will include bibliographic, chemical,
# crystal, experimental, refinement or atomic coordinate data resulting
# from the CCDC's data processing and validation procedures.
#
#######################################################################

data_CSD_CIF_ONABAH
_audit_creation_date 2011-05-25
_audit_creation_method CSD-ConQuest-V1
_database_code_CSD ONABAH
_database_code_depnum_ccdc_archive 'CCDC 734274'
_chemical_formula_sum 'C14 H10 N4 O3'
_chemical_formula_moiety
;
C14 H10 N4 O3
;
_journal_coden_Cambridge 1003
_journal_volume 41
_journal_year 2011
_journal_page_first 53
_journal_name_full 'J.Chem.Cryst. '
loop_
_publ_author_name
"A.V.Aparna"
"Ch.S.Devi"
"A.Padmaja"
"B.Sireesha"
"P.Raghavaiah"
_chemical_name_systematic
;
N-(2-Nitrophenyl)-5-phenyl-1,3,4-oxadiazol-2-amine
;
_cell_volume   1283.091
_exptl_crystal_colour 'pale yellow'
_exptl_crystal_density_diffrn 1.461
_exptl_crystal_description 'block'
_diffrn_ambient_temperature 298
#These two values have been output from a single CSD field.
_refine_ls_R_factor_gt 0.0331
_refine_ls_wR_factor_gt 0.0331
_symmetry_cell_setting orthorhombic
_symmetry_space_group_name_H-M 'P c a 21'
_symmetry_Int_Tables_number 29
loop_
_symmetry_equiv_pos_site_id
_symmetry_equiv_pos_as_xyz
1 x,y,z
2 -x,-y,1/2+z
3 1/2+x,-y,z
4 1/2-x,y,1/2+z
_cell_length_a 26.873(3)
_cell_length_b 6.0822(7)
_cell_length_c 7.8502(10)
_cell_angle_alpha 90
_cell_angle_beta 90
_cell_angle_gamma 90
_cell_formula_units_Z 4
loop_
_atom_type_symbol
_atom_type_radius_bond
C 0.68
H 0.23
N 0.68
O 0.68
loop_
_atom_site_label
_atom_site_type_symbol
_atom_site_fract_x
_atom_site_fract_y
_atom_site_fract_z
C1 C 0.71511(9) -0.1206(4) 0.0888(3)
C2 C 0.76444(9) -0.1814(4) 0.0661(3)
H1 H 0.77210 -0.31310 0.01180
C3 C 0.80166(10) -0.0485(4) 0.1232(3)
H2 H 0.83480 -0.08920 0.10870
C4 C 0.78984(9) 0.1474(4) 0.2028(3)
H3 H 0.81520 0.23980 0.23950
C5 C 0.74119(9) 0.2076(4) 0.2284(3)
H4 H 0.73410 0.33830 0.28490
C6 C 0.70232(9) 0.0765(4) 0.1712(3)
C7 C 0.63552(8) 0.3242(3) 0.2680(3)
C8 C 0.57935(8) 0.5560(3) 0.3264(3)
C9 C 0.52983(8) 0.6550(4) 0.3249(3)
C10 C 0.48986(9) 0.5480(4) 0.2527(4)
H5 H 0.49430 0.41090 0.20250
C11 C 0.44341(11) 0.6433(6) 0.2546(4)
H6 H 0.41640 0.56920 0.20770
C12 C 0.43684(11) 0.8477(6) 0.3256(4)
H7 H 0.40560 0.91310 0.32460
C13 C 0.4765(1) 0.9554(4) 0.3981(4)
H8 H 0.47180 1.09300 0.44740
C14 C 0.52299(9) 0.8614(4) 0.3984(4)
H9 H 0.54970 0.93510 0.44730
H10 H 0.6306(9) 0.040(5) 0.157(4)
N1 N 0.67794(9) -0.2668(3) 0.0155(3)
N2 N 0.65281(8) 0.1380(3) 0.1936(3)
N3 N 0.65694(7) 0.4744(3) 0.3566(3)
N4 N 0.61925(7) 0.6270(3) 0.3945(3)
O1 O 0.69150(8) -0.4395(3) -0.0481(3)
O2 O 0.63344(7) -0.2140(3) 0.0182(3)
O3 O 0.58628(5) 0.3603(2) 0.2438(2)
#END
