
#######################################################################
#
#                 Cambridge Crystallographic Data Centre
#                                CCDC
#
#######################################################################
#
# If this CIF has been generated from an entry in the Cambridge
# Structural Database, then it will include bibliographic, chemical,
# crystal, experimental, refinement or atomic coordinate data resulting
# from the CCDC's data processing and validation procedures.
#
#######################################################################

data_CSD_CIF_ONITPH01
_audit_creation_date 2017-07-21
_audit_creation_method CSD-ConQuest-V1
_database_code_CSD ONITPH01
_database_code_depnum_ccdc_archive 'CCDC 1552716'
_chemical_formula_sum 'C6 H5 N1 O3'
_chemical_formula_moiety
;
C6 H5 N1 O3
;
_journal_coden_Cambridge 4
_journal_volume 139
_journal_year 2017
_journal_page_first 9325
_journal_name_full 'J.Am.Chem.Soc. '
loop_
_publ_author_name
"C.D.Sessler"
"M.Rahm"
"S.Becker"
"J.M.Goldberg"
"Fang Wang"
"S.J.Lippard"
_chemical_name_systematic
;
2-nitrophenol
;
_cell_volume    591.172
_exptl_crystal_colour 'yellow'
_exptl_crystal_density_diffrn 1.563
_exptl_crystal_description 'block'
_diffrn_ambient_temperature 100
#These two values have been output from a single CSD field.
_refine_ls_R_factor_gt 0.0363
_refine_ls_wR_factor_gt 0.0363
_symmetry_cell_setting monoclinic
_symmetry_space_group_name_H-M 'P 21/c'
_symmetry_Int_Tables_number 14
loop_
_symmetry_equiv_pos_site_id
_symmetry_equiv_pos_as_xyz
1 x,y,z
2 -x,1/2+y,1/2-z
3 -x,-y,-z
4 x,-1/2-y,-1/2+z
_cell_length_a 6.3511(6)
_cell_length_b 14.3305(14)
_cell_length_c 6.6757(6)
_cell_angle_alpha 90
_cell_angle_beta 103.348(2)
_cell_angle_gamma 90
_cell_formula_units_Z 4
loop_
_atom_type_symbol
_atom_type_radius_bond
C 0.68
H 0.23
N 0.68
O 0.68
loop_
_atom_site_label
_atom_site_type_symbol
_atom_site_fract_x
_atom_site_fract_y
_atom_site_fract_z
O1 O 0.38553(12) 0.67485(6) 0.54131(13)
H1 H 0.443(3) 0.6160(15) 0.556(3)
N1 N 0.82933(14) 0.60384(6) 0.66946(13)
C1 C 0.55884(15) 0.73181(7) 0.59071(15)
O2 O 0.67944(13) 0.54530(5) 0.62690(13)
C2 C 0.77512(15) 0.70215(6) 0.65153(15)
O3 O 1.01920(13) 0.58080(6) 0.72739(14)
C3 C 0.94591(16) 0.76574(7) 0.69923(15)
H2 H 1.09090 0.74400 0.73810
C4 C 0.90333(17) 0.86036(7) 0.68978(16)
H3 H 1.01840 0.90420 0.72230
C5 C 0.68816(17) 0.89091(7) 0.63161(16)
H4 H 0.65800 0.95590 0.62640
C6 C 0.51918(17) 0.82807(7) 0.58181(16)
H5 H 0.37470 0.85030 0.54110
#END
