
#######################################################################
#
#                 Cambridge Crystallographic Data Centre
#                                CCDC
#
#######################################################################
#
# If this CIF has been generated from an entry in the Cambridge
# Structural Database, then it will include bibliographic, chemical,
# crystal, experimental, refinement or atomic coordinate data resulting
# from the CCDC's data processing and validation procedures.
#
#######################################################################

data_CSD_CIF_ONITPH
_audit_creation_date 1978-09-01
_audit_creation_method CSD-ConQuest-V1
_database_code_CSD ONITPH
_database_code_depnum_ccdc_archive 'CCDC 1226093'
_chemical_formula_sum 'C6 H5 N1 O3'
_chemical_formula_moiety
;
C6 H5 N1 O3
;
_journal_coeditor_code "IUCr A15997"
_journal_coden_Cambridge 107
_journal_volume 34
_journal_year 1978
_journal_page_first 1286
_journal_name_full 'Acta Crystallogr.,Sect.B:Struct.Crystallogr.Cryst.Chem. '
loop_
_publ_author_name
"F.Iwasaki"
"Y.Kawano"
_chemical_name_systematic
;
2-Nitrophenol
;
_cell_volume    618.704
_exptl_crystal_density_diffrn 1.494
_diffrn_ambient_temperature ?
_diffrn_special_details
;
The study was carried out at room temperature,in the range 283-303K

;
#These two values have been output from a single CSD field.
_refine_ls_R_factor_gt 0.071
_refine_ls_wR_factor_gt 0.071
_symmetry_cell_setting monoclinic
_symmetry_space_group_name_H-M 'P 21/a'
_symmetry_Int_Tables_number 14
loop_
_symmetry_equiv_pos_site_id
_symmetry_equiv_pos_as_xyz
1 x,y,z
2 1/2-x,1/2+y,-z
3 -x,-y,-z
4 -1/2+x,-1/2-y,z
_cell_length_a 6.876(5)
_cell_length_b 14.389(7)
_cell_length_c 6.439(3)
_cell_angle_alpha 90
_cell_angle_beta 103.79(6)
_cell_angle_gamma 90
_cell_formula_units_Z 4
loop_
_atom_type_symbol
_atom_type_radius_bond
C 0.68
H 0.23
N 0.68
O 0.68
loop_
_atom_site_label
_atom_site_type_symbol
_atom_site_fract_x
_atom_site_fract_y
_atom_site_fract_z
C1 C 0.38860 0.26680 -0.05080
C2 C 0.32780 0.29690 -0.26240
C3 C 0.27910 0.23310 -0.42940
C4 C 0.28900 0.14010 -0.38650
C5 C 0.34830 0.11100 -0.17800
C6 C 0.39710 0.17190 -0.01360
N1 N 0.31120 0.39530 -0.31710
O1 O 0.43850 0.32310 0.11910
O2 O 0.35490 0.45190 -0.16940
O3 O 0.25240 0.41710 -0.50200
H1 H 0.43100 0.37600 0.07900
H2 H 0.24800 0.25400 -0.57200
H3 H 0.25400 0.10600 -0.49600
H4 H 0.35000 0.04700 -0.14900
H5 H 0.43600 0.15500 0.12400
#END
