
#######################################################################
#
#                 Cambridge Crystallographic Data Centre
#                                CCDC
#
#######################################################################
#
# If this CIF has been generated from an entry in the Cambridge
# Structural Database, then it will include bibliographic, chemical,
# crystal, experimental, refinement or atomic coordinate data resulting
# from the CCDC's data processing and validation procedures.
#
#######################################################################

data_CSD_CIF_OPIJIH
_audit_creation_date 2011-04-26
_audit_creation_method CSD-ConQuest-V1
_database_code_CSD OPIJIH
_database_code_depnum_ccdc_archive 'CCDC 704356'
_chemical_formula_sum 'C10 H13 N5 O3'
_chemical_formula_moiety
;
C10 H13 N5 O3
;
_journal_coden_Cambridge 122
_journal_year 2009
_journal_page_first 1345
_journal_name_full 'Khim.Get.Soedin.,SSSR(Russ.)(Chem.Heterocycl.Compd.) '
loop_
_publ_author_name
"V.V.Bakharev"
"A.A.Gidaspov"
"E.V.Peresedova"
"D.B.Krivolapov"
"E.V.Mironova"
"I.A.Litvinov"
_chemical_name_systematic
;
3-(2-Methoxy-4-dimethylamino-1,3,5-triazin-6-yl)-5-hydroxymethylisoxazole
;
_chemical_name_common
;
(3-(4-(Dimethylamino)-6-methoxy-1,3,5-triazin-2-yl)-1,2-oxazol-5-yl)methanol
;
_chemical_melting_point 140
_cell_volume    587.665
_exptl_crystal_colour 'colorless'
_exptl_crystal_density_diffrn 1.42
_exptl_special_details
;
Melting point range 140-3K

;
_exptl_crystal_description 'prism'
_exptl_crystal_preparation 'methanol/dichloromethane'
_diffrn_ambient_temperature 295
#These two values have been output from a single CSD field.
_refine_ls_R_factor_gt 0.0371
_refine_ls_wR_factor_gt 0.0371
_symmetry_cell_setting triclinic
_symmetry_space_group_name_H-M 'P -1'
_symmetry_Int_Tables_number 2
loop_
_symmetry_equiv_pos_site_id
_symmetry_equiv_pos_as_xyz
1 x,y,z
2 -x,-y,-z
_cell_length_a 8.1898(8)
_cell_length_b 8.6088(8)
_cell_length_c 9.5926(9)
_cell_angle_alpha 67.721(1)
_cell_angle_beta 88.074(1)
_cell_angle_gamma 70.766(1)
_cell_formula_units_Z 2
loop_
_atom_type_symbol
_atom_type_radius_bond
C 0.68
H 0.23
N 0.68
O 0.68
loop_
_atom_site_label
_atom_site_type_symbol
_atom_site_fract_x
_atom_site_fract_y
_atom_site_fract_z
N1 N 0.15621(18) 0.68652(18) 0.69971(15)
N2 N -0.12908(18) 0.90469(19) 0.63260(15)
N3 N 0.09163(17) 0.94229(18) 0.76131(15)
C1 C -0.0094(2) 0.7555(2) 0.63816(18)
C2 C -0.0734(2) 0.9935(2) 0.70042(18)
C3 C 0.1974(2) 0.7917(2) 0.75518(17)
C4 C 0.3791(2) 0.7393(2) 0.81573(17)
N4 N 0.49915(18) 0.59576(19) 0.81285(17)
O1 O 0.65141(14) 0.58847(16) 0.88129(13)
C5 C 0.4472(2) 0.8290(2) 0.8818(2)
C6 C 0.6157(2) 0.7286(2) 0.92201(18)
C7 C -0.2231(3) 0.7174(3) 0.5047(3)
N5 N -0.18851(18) 1.14055(19) 0.70824(17)
C8 C -0.3662(3) 1.2120(4) 0.6391(3)
C9 C -0.1367(4) 1.2396(3) 0.7829(3)
O2 O 0.73323(17) 0.70361(19) 1.15956(15)
C10 C 0.7605(2) 0.7360(3) 1.0069(2)
H1 H 0.768(2) 0.859(3) 0.962(2)
H2 H 0.391(3) 0.934(3) 0.895(2)
H3 H 0.865(3) 0.656(3) 0.997(2)
H4 H 0.746(3) 0.586(3) 1.206(2)
H5 H -0.242(3) 0.826(3) 0.420(3)
H6 H -0.219(3) 0.625(3) 0.469(2)
H7 H -0.305(3) 0.724(3) 0.578(3)
H8 H -0.381(4) 1.306(4) 0.548(3)
H9 H -0.443(4) 1.253(4) 0.698(3)
H10 H -0.401(5) 1.124(5) 0.627(4)
H11 H -0.242(5) 1.328(5) 0.780(4)
H12 H -0.053(4) 1.272(4) 0.745(3)
H13 H -0.095(4) 1.169(4) 0.886(4)
O3 O -0.04883(16) 0.65457(17) 0.57764(14)
#END
