
#######################################################################
#
#                 Cambridge Crystallographic Data Centre
#                                CCDC
#
#######################################################################
#
# If this CIF has been generated from an entry in the Cambridge
# Structural Database, then it will include bibliographic, chemical,
# crystal, experimental, refinement or atomic coordinate data resulting
# from the CCDC's data processing and validation procedures.
#
#######################################################################

data_CSD_CIF_OQIVUG
_audit_creation_date 2011-08-02
_audit_creation_method CSD-ConQuest-V1
_database_code_CSD OQIVUG
_database_code_depnum_ccdc_archive 'CCDC 792139'
_chemical_formula_sum 'C16 H13 N1 O2'
_chemical_formula_moiety
;
C16 H13 N1 O2
;
_journal_coden_Cambridge 1291
_journal_year 2011
_journal_page_first 2360
_journal_name_full 'Eur.J.Org.Chem. '
loop_
_publ_author_name
"D.Janreddy"
"V.Kavala"
"J.W.J.Bosco"
"Chun-Wei Kuo"
"Ching-Fa Yao"
_chemical_name_systematic
;
(1-Hydroxy-2-methyl-1H-indol-3-yl)(phenyl)methanone
;
_cell_volume   5001.728
_exptl_crystal_colour 'colorless'
_exptl_crystal_density_diffrn 1.335
_exptl_crystal_description 'prism'
_diffrn_ambient_temperature 200
#These two values have been output from a single CSD field.
_refine_ls_R_factor_gt 0.0495
_refine_ls_wR_factor_gt 0.0495
_symmetry_cell_setting tetragonal
_symmetry_space_group_name_H-M 'I 41/a'
_symmetry_Int_Tables_number 88
loop_
_symmetry_equiv_pos_site_id
_symmetry_equiv_pos_as_xyz
1 x,y,z
2 1/2-x,-y,1/2+z
3 3/4-y,1/4+x,1/4+z
4 3/4+y,3/4-x,3/4+z
5 1/2+x,1/2+y,1/2+z
6 -x,1/2-y,z
7 1/4-y,3/4+x,3/4+z
8 1/4+y,1/4-x,1/4+z
9 -x,-y,-z
10 -1/2+x,y,-1/2-z
11 -3/4+y,-1/4-x,-1/4-z
12 -3/4-y,-3/4+x,-3/4-z
13 -1/2-x,-1/2-y,-1/2-z
14 x,-1/2+y,-z
15 -1/4+y,-3/4-x,-3/4-z
16 -1/4-y,-1/4+x,-1/4-z
_cell_length_a 23.639(4)
_cell_length_b 23.639(4)
_cell_length_c 8.9508(16)
_cell_angle_alpha 90
_cell_angle_beta 90
_cell_angle_gamma 90
_cell_formula_units_Z 16
loop_
_atom_type_symbol
_atom_type_radius_bond
C 0.68
H 0.23
N 0.68
O 0.68
loop_
_atom_site_label
_atom_site_type_symbol
_atom_site_fract_x
_atom_site_fract_y
_atom_site_fract_z
C1 C 0.67391(10) 0.74412(11) 0.1601(3)
C2 C 0.6417(1) 0.76587(10) 0.2927(3)
C3 C 0.58400(11) 0.77322(12) 0.2856(3)
H1 H 0.56390 0.76120 0.19930
C4 C 0.55496(12) 0.79790(12) 0.4026(3)
H2 H 0.51530 0.80390 0.39480
C5 C 0.58297(12) 0.81371(11) 0.5295(3)
H3 H 0.56280 0.82970 0.61100
C6 C 0.64026(12) 0.80627(12) 0.5381(3)
H4 H 0.65990 0.81690 0.62650
C7 C 0.66981(11) 0.78347(12) 0.4197(3)
H5 H 0.70980 0.77990 0.42550
C8 C 0.66897(10) 0.68678(10) 0.1108(3)
C9 C 0.68737(10) 0.66588(10) -0.0334(3)
C10 C 0.71002(10) 0.69034(11) -0.1620(3)
H6 H 0.71720 0.72980 -0.16610
C11 C 0.72179(11) 0.65621(12) -0.2834(3)
H7 H 0.73710 0.67260 -0.37140
C12 C 0.71156(11) 0.59796(12) -0.2793(3)
H8 H 0.72080 0.57550 -0.36370
C13 C 0.68845(11) 0.57276(11) -0.1558(3)
H9 H 0.68090 0.53330 -0.15260
C14 C 0.67661(10) 0.60771(11) -0.0363(3)
C15 C 0.64814(10) 0.64027(11) 0.1905(3)
C16 C 0.62620(12) 0.63328(12) 0.3455(3)
H10 H 0.61530 0.59370 0.36160
H11 H 0.59310 0.65770 0.35980
H12 H 0.65570 0.64380 0.41720
N1 N 0.65284(8) 0.59470(8) 0.1013(2)
O1 O 0.70366(7) 0.77846(7) 0.0890(2)
O2 O 0.63842(7) 0.54017(7) 0.14088(19)
H13 H 0.60520 0.53330 0.11250
#END
