
#######################################################################
#
#                 Cambridge Crystallographic Data Centre
#                                CCDC
#
#######################################################################
#
# If this CIF has been generated from an entry in the Cambridge
# Structural Database, then it will include bibliographic, chemical,
# crystal, experimental, refinement or atomic coordinate data resulting
# from the CCDC's data processing and validation procedures.
#
#######################################################################

data_CSD_CIF_OQOWOI
_audit_creation_date 2016-07-14
_audit_creation_method CSD-ConQuest-V1
_database_code_CSD OQOWOI
_database_code_depnum_ccdc_archive 'CCDC 1039808'
_chemical_formula_sum 'C21 H14 N2 O3'
_chemical_formula_moiety
;
C21 H14 N2 O3
;
_journal_coden_Cambridge 24
_journal_volume 57
_journal_year 2016
_journal_page_first 3823
_journal_name_full 'Tetrahedron Lett. '
loop_
_publ_author_name
"Mengru Li"
"Fushun Liang"
_chemical_name_systematic
;
(Z)-1-(1,3-dioxoisoindolin-2-yl)-N,1-diphenylmethanimine oxide
;
_chemical_melting_point 471.15
_cell_volume   1634.843
_exptl_special_details
;
Melting point range 471.15-473.15K

;
_diffrn_ambient_temperature 293
#These two values have been output from a single CSD field.
_refine_ls_R_factor_gt 0.0836
_refine_ls_wR_factor_gt 0.0836
loop_
_citation_database_id_CSD
_citation_special_details
OQOWIC "is a stereoisomer of this entry"
_symmetry_cell_setting monoclinic
_symmetry_space_group_name_H-M 'P 21/c'
_symmetry_Int_Tables_number 14
loop_
_symmetry_equiv_pos_site_id
_symmetry_equiv_pos_as_xyz
1 x,y,z
2 -x,1/2+y,1/2-z
3 -x,-y,-z
4 x,-1/2-y,-1/2+z
_cell_length_a 8.1631(7)
_cell_length_b 12.5325(12)
_cell_length_c 16.1842(12)
_cell_angle_alpha 90
_cell_angle_beta 99.106(7)
_cell_angle_gamma 90
_cell_formula_units_Z 4
loop_
_atom_type_symbol
_atom_type_radius_bond
C 0.68
N 0.68
O 0.68
loop_
_atom_site_label
_atom_site_type_symbol
_atom_site_fract_x
_atom_site_fract_y
_atom_site_fract_z
O1 O 0.3434(3) 0.3747(2) 0.23762(14)
N1 N 0.6642(3) 0.4730(2) 0.19951(15)
C1 C 0.7977(4) 0.2952(2) 0.22289(16)
C2 C 0.4361(4) 0.3736(3) 0.30332(18)
C3 C 0.3997(4) 0.3695(2) 0.38955(18)
C4 C 0.6919(4) 0.3826(2) 0.24147(17)
O2 O 0.8337(3) 0.3719(2) 0.41685(15)
N2 N 0.6093(3) 0.3733(2) 0.31118(14)
O3 O 0.5893(3) 0.55231(19) 0.22666(14)
C5 C 0.5487(4) 0.3665(2) 0.44416(18)
C6 C 0.2495(4) 0.3723(3) 0.4178(2)
C7 C 0.7050(4) 0.4855(2) 0.11612(18)
C8 C 0.5545(5) 0.3648(3) 0.52938(19)
C9 C 0.6864(4) 0.3703(3) 0.39471(18)
C10 C 0.7513(4) 0.1906(3) 0.24094(18)
C11 C 0.9452(4) 0.3115(3) 0.19134(18)
C12 C 0.9932(5) 0.1222(3) 0.1905(2)
C13 C 0.4034(5) 0.3681(3) 0.5587(2)
C14 C 0.7904(5) 0.5769(3) 0.0998(2)
C15 C 0.2540(5) 0.3726(3) 0.5043(2)
C16 C 1.0423(4) 0.2260(3) 0.1749(2)
C17 C 0.8497(5) 0.1056(3) 0.2250(2)
C18 C 0.6493(5) 0.4105(3) 0.0558(2)
C19 C 0.7713(6) 0.5153(4) -0.0425(2)
C20 C 0.6846(6) 0.4279(4) -0.0252(2)
C21 C 0.8245(6) 0.5898(4) 0.0187(3)
#END
