
#######################################################################
#
#                 Cambridge Crystallographic Data Centre
#                                CCDC
#
#######################################################################
#
# If this CIF has been generated from an entry in the Cambridge
# Structural Database, then it will include bibliographic, chemical,
# crystal, experimental, refinement or atomic coordinate data resulting
# from the CCDC's data processing and validation procedures.
#
#######################################################################

data_CSD_CIF_ORAWAG
_audit_creation_date 2011-08-15
_audit_creation_method CSD-ConQuest-V1
_database_code_CSD ORAWAG
_database_code_depnum_ccdc_archive 'CCDC 798667'
_chemical_formula_sum 'C8 H7 N3 O9'
_chemical_formula_moiety
;
C8 H7 N3 O9
;
_journal_coden_Cambridge 1003
_journal_volume 41
_journal_year 2011
_journal_page_first 971
_journal_name_full 'J.Chem.Cryst. '
loop_
_publ_author_name
"J.R.Deschamps"
"N.A.Straessler"
_chemical_name_systematic
;
3,5-Dimethoxy-2,4,6-trinitrophenol
;
_cell_volume   1133.772
_exptl_crystal_colour 'colorless'
_exptl_crystal_density_diffrn 1.694
_exptl_crystal_description 'thick plate'
_diffrn_ambient_temperature 296
#These two values have been output from a single CSD field.
_refine_ls_R_factor_gt 0.0332
_refine_ls_wR_factor_gt 0.0332
_symmetry_cell_setting monoclinic
_symmetry_space_group_name_H-M 'P 21/c'
_symmetry_Int_Tables_number 14
loop_
_symmetry_equiv_pos_site_id
_symmetry_equiv_pos_as_xyz
1 x,y,z
2 -x,1/2+y,1/2-z
3 -x,-y,-z
4 x,-1/2-y,-1/2+z
_cell_length_a 8.7071(4)
_cell_length_b 9.6339(4)
_cell_length_c 13.7861(6)
_cell_angle_alpha 90
_cell_angle_beta 101.359(2)
_cell_angle_gamma 90
_cell_formula_units_Z 4
loop_
_atom_type_symbol
_atom_type_radius_bond
C 0.68
H 0.23
N 0.68
O 0.68
loop_
_atom_site_label
_atom_site_type_symbol
_atom_site_fract_x
_atom_site_fract_y
_atom_site_fract_z
C1 C 1.04932(12) 0.24204(11) 0.02980(7)
O1 O 1.06346(10) 0.13448(9) -0.02862(6)
H1 H 0.971(2) 0.1127(18) -0.0548(12)
C2 C 1.18444(12) 0.28665(11) 0.09398(8)
N1 N 1.33127(11) 0.21116(10) 0.09515(7)
O2 O 1.38999(11) 0.15243(11) 0.17181(7)
O3 O 1.3860(1) 0.21369(11) 0.01998(7)
C3 C 1.18538(12) 0.39403(11) 0.16123(7)
O4 O 1.32053(9) 0.43460(9) 0.21942(6)
C4 C 1.34212(14) 0.39365(15) 0.32294(8)
H2 H 1.44470 0.42070 0.35700
H3 H 1.33130 0.29480 0.32720
H4 H 1.26460 0.43840 0.35290
C5 C 1.04214(12) 0.45845(11) 0.16189(7)
N2 N 1.03503(11) 0.57239(10) 0.23162(7)
O5 O 1.09193(13) 0.68349(10) 0.21534(8)
O6 O 0.97210(11) 0.54874(10) 0.30196(6)
C6 C 0.90305(12) 0.42121(11) 0.09951(8)
O7 O 0.77545(9) 0.49795(8) 0.10492(6)
C7 C 0.65540(14) 0.42997(14) 0.14769(10)
H5 H 0.56170 0.48510 0.13550
H6 H 0.69170 0.41980 0.21770
H7 H 0.63340 0.34010 0.11810
C8 C 0.90777(12) 0.31203(11) 0.03207(7)
N3 N 0.76718(11) 0.27091(10) -0.03810(7)
O8 O 0.66226(10) 0.35477(10) -0.06260(6)
O9 O 0.76218(10) 0.15016(9) -0.07093(7)
#END
