
#######################################################################
#
#                 Cambridge Crystallographic Data Centre
#                                CCDC
#
#######################################################################
#
# If this CIF has been generated from an entry in the Cambridge
# Structural Database, then it will include bibliographic, chemical,
# crystal, experimental, refinement or atomic coordinate data resulting
# from the CCDC's data processing and validation procedures.
#
#######################################################################

data_CSD_CIF_OROMOZ
_audit_creation_date 2016-07-20
_audit_creation_method CSD-ConQuest-V1
_database_code_CSD OROMOZ
_database_code_depnum_ccdc_archive 'CCDC 1489217'
_chemical_formula_sum 'C17 H28 N2 O3'
_chemical_formula_moiety
;
C17 H28 N2 O3
;
_journal_coeditor_code "zs2363"
_journal_coden_Cambridge 1828
_journal_volume 72
_journal_year 2016
_journal_page_first 1150
_journal_name_full 'Acta Crystallogr.,Sect.E:Cryst.Commun. '
loop_
_publ_author_name
"H.Abda"
"K.Ezzayani"
"K.Aouadi"
"T.Guerfel"
"S.Vidal"
"M.Msaddek"
_chemical_name_systematic
;
2-isopropyl-5,7'-dimethyltetrahydro-1'H-spiro[cyclohexane-1,6'-furo[3,4-d]imid
azo[1,5-b][1,2]oxazol]-8'(7'H)-one
;
_chemical_melting_point 410.15
_cell_volume   1657.826
_exptl_crystal_colour 'colorless'
_exptl_crystal_density_diffrn 1.236
_exptl_special_details
;
Melting point range 410.15-411.15K

;
_exptl_crystal_description 'block'
_diffrn_ambient_temperature 150
#These two values have been output from a single CSD field.
_refine_ls_R_factor_gt 0.0423
_refine_ls_wR_factor_gt 0.0423
_symmetry_cell_setting orthorhombic
_symmetry_space_group_name_H-M 'P 21 21 21'
_symmetry_Int_Tables_number 19
loop_
_symmetry_equiv_pos_site_id
_symmetry_equiv_pos_as_xyz
1 x,y,z
2 1/2-x,-y,1/2+z
3 1/2+x,1/2-y,-z
4 -x,1/2+y,1/2-z
_cell_length_a 7.7474(6)
_cell_length_b 11.1404(8)
_cell_length_c 19.208(2)
_cell_angle_alpha 90
_cell_angle_beta 90
_cell_angle_gamma 90
_cell_formula_units_Z 4
loop_
_atom_type_symbol
_atom_type_radius_bond
C 0.68
H 0.23
N 0.68
O 0.68
loop_
_atom_site_label
_atom_site_type_symbol
_atom_site_fract_x
_atom_site_fract_y
_atom_site_fract_z
O1 O 0.3924(2) 0.46528(13) 0.43226(8)
N1 N 0.2276(2) 0.48439(15) 0.39468(9)
C1 C 0.2216(3) 0.39172(18) 0.33856(11)
N2 N 0.3084(3) 0.44977(16) 0.27929(9)
C2 C 0.3388(3) 0.3911(2) 0.21315(11)
H1 H 0.39340 0.44670 0.18120
H2 H 0.23210 0.36820 0.19190
H3 H 0.41290 0.32130 0.21930
C3 C 0.3369(3) 0.56800(19) 0.28913(11)
C4 C 0.2626(3) 0.60075(18) 0.35923(11)
C5 C 0.3798(3) 0.67280(19) 0.40726(12)
C6 C 0.4274(3) 0.5792(2) 0.46276(11)
C7 C 0.3137(4) 0.6110(2) 0.52465(12)
O2 O 0.1969(2) 0.70248(16) 0.50158(9)
C8 C 0.2873(3) 0.7679(2) 0.44941(13)
H4 H 0.20940 0.81630 0.42020
H5 H 0.36890 0.82360 0.47140
H6 H 0.24950 0.53960 0.54100
H7 H 0.38210 0.64330 0.56350
H8 H 0.54990 0.58390 0.47530
H9 H 0.47580 0.70270 0.38120
H10 H 0.15510 0.64150 0.35180
O3 O 0.4052(2) 0.63710(15) 0.24780(8)
C9 C 0.0307(3) 0.3616(2) 0.32135(11)
C10 C -0.0806(3) 0.4686(2) 0.29604(12)
C11 C -0.2129(4) 0.4250(3) 0.24307(14)
H11 H -0.28450 0.49370 0.22880
H12 H -0.15940 0.39030 0.20170
H13 H -0.28500 0.36290 0.26520
C12 C -0.1731(4) 0.5369(2) 0.35403(14)
H14 H -0.21860 0.61220 0.33360
H15 H -0.26720 0.49080 0.37210
H16 H -0.09790 0.55420 0.39310
H17 H -0.00310 0.52630 0.27110
C13 C -0.0536(3) 0.2924(2) 0.38122(13)
C14 C 0.0460(4) 0.1795(2) 0.40142(14)
C15 C 0.2339(3) 0.2100(2) 0.41916(12)
C16 C 0.3154(3) 0.27553(19) 0.35817(12)
H18 H 0.30960 0.22120 0.31710
H19 H 0.43420 0.29490 0.36840
C17 C 0.3387(4) 0.0976(2) 0.43654(13)
H20 H 0.45830 0.11730 0.44690
H21 H 0.33580 0.04160 0.39630
H22 H 0.29120 0.05490 0.47870
H23 H 0.23580 0.26440 0.45990
H24 H 0.04690 0.12370 0.36070
H25 H -0.01130 0.13900 0.44180
H26 H -0.17240 0.27210 0.36580
H27 H -0.06060 0.34690 0.42170
H28 H 0.03900 0.30550 0.28100
#END
