
#######################################################################
#
#                 Cambridge Crystallographic Data Centre
#                                CCDC
#
#######################################################################
#
# If this CIF has been generated from an entry in the Cambridge
# Structural Database, then it will include bibliographic, chemical,
# crystal, experimental, refinement or atomic coordinate data resulting
# from the CCDC's data processing and validation procedures.
#
#######################################################################

data_CSD_CIF_OSICEA
_audit_creation_date 2016-08-18
_audit_creation_method CSD-ConQuest-V1
_database_code_CSD OSICEA
_database_code_depnum_ccdc_archive 'CCDC 1019280'
_chemical_formula_sum 'C16 H10 N2 O6'
_chemical_formula_moiety
;
C16 H10 N2 O6
;
_journal_coden_Cambridge 1749
_journal_volume 10
_journal_year 2015
_journal_page_first e0119440
_journal_name_full 'Plos One '
loop_
_publ_author_name
"C.S.Chidan Kumar"
"Wan-Sin Loh"
"S.Chandraju"
"Yip-Foo Win"
"Weng Kang Tan"
"Ching Kheng Quah"
"Hoong-Kun Fun"
_chemical_name_systematic
;
(1,3-dioxo-1,3-dihydro-2H-isoindol-2-yl)methyl 2-nitrobenzoate
;
_cell_volume    697.594
_exptl_crystal_colour 'colorless'
_exptl_crystal_density_diffrn 1.553
_exptl_crystal_description 'block'
_diffrn_ambient_temperature 100
#These two values have been output from a single CSD field.
_refine_ls_R_factor_gt 0.0472
_refine_ls_wR_factor_gt 0.0472
_symmetry_cell_setting triclinic
_symmetry_space_group_name_H-M 'P -1'
_symmetry_Int_Tables_number 2
loop_
_symmetry_equiv_pos_site_id
_symmetry_equiv_pos_as_xyz
1 x,y,z
2 -x,-y,-z
_cell_length_a 7.5556(5)
_cell_length_b 7.6118(4)
_cell_length_c 13.6551(8)
_cell_angle_alpha 99.1319(17)
_cell_angle_beta 97.0675(19)
_cell_angle_gamma 113.2039(16)
_cell_formula_units_Z 2
loop_
_atom_type_symbol
_atom_type_radius_bond
C 0.68
H 0.23
N 0.68
O 0.68
loop_
_atom_site_label
_atom_site_type_symbol
_atom_site_fract_x
_atom_site_fract_y
_atom_site_fract_z
O1 O 0.43222(16) 0.76005(14) 0.36907(7)
O2 O 0.14850(15) 0.11461(14) 0.38433(7)
O3 O 0.16531(13) 0.35472(14) 0.17941(6)
O4 O 0.29891(14) 0.23383(14) 0.06348(7)
O5 O 0.30928(15) 0.36894(15) -0.12774(8)
O6 O 0.16438(16) 0.05108(15) -0.16949(8)
N1 N 0.29363(16) 0.42388(16) 0.35172(8)
N2 N 0.17206(16) 0.21148(16) -0.13248(8)
C1 C 0.35267(19) 0.61912(19) 0.40315(9)
C2 C 0.29611(19) 0.60855(19) 0.50333(9)
C3 C 0.3170(2) 0.75828(19) 0.58256(10)
H1 H 0.37800 0.88940 0.57970
C4 C 0.2423(2) 0.7033(2) 0.66697(10)
H2 H 0.25220 0.79960 0.72130
C5 C 0.1531(2) 0.5063(2) 0.67116(9)
H3 H 0.10460 0.47410 0.72830
C6 C 0.1349(2) 0.35615(19) 0.59133(9)
H4 H 0.07650 0.22490 0.59430
C7 C 0.20798(18) 0.41224(18) 0.50763(9)
C8 C 0.20648(19) 0.28976(18) 0.41054(9)
C9 C 0.32905(19) 0.3704(2) 0.25345(9)
H5 H 0.33900 0.24590 0.24510
H6 H 0.45120 0.46930 0.24470
C10 C 0.17034(18) 0.27975(17) 0.08384(9)
C11 C -0.00060(18) 0.25708(17) 0.00815(9)
C12 C -0.16953(19) 0.26353(19) 0.03611(9)
H7 H -0.17370 0.29020 0.10440
C13 C -0.33136(19) 0.2308(2) -0.03636(10)
H8 H -0.44250 0.23690 -0.01630
C14 C -0.32845(19) 0.18902(19) -0.1384(1)
H9 H -0.43770 0.16690 -0.18660
C15 C -0.16240(19) 0.18006(18) -0.16912(9)
H10 H -0.15950 0.15100 -0.23750
C16 C -0.00236(18) 0.21535(17) -0.09545(9)
#END
