
#######################################################################
#
#                 Cambridge Crystallographic Data Centre
#                                CCDC
#
#######################################################################
#
# If this CIF has been generated from an entry in the Cambridge
# Structural Database, then it will include bibliographic, chemical,
# crystal, experimental, refinement or atomic coordinate data resulting
# from the CCDC's data processing and validation procedures.
#
#######################################################################

data_CSD_CIF_OSIGAZ
_audit_creation_date 2011-08-04
_audit_creation_method CSD-ConQuest-V1
_database_code_CSD OSIGAZ
_database_code_depnum_ccdc_archive 'CCDC 783983'
_chemical_formula_sum 'C11 H21 N3 O3'
_chemical_formula_moiety
;
C11 H21 N3 O3
;
_journal_coden_Cambridge 4
_journal_volume 132
_journal_year 2010
_journal_page_first 15908
_journal_name_full 'J.Am.Chem.Soc. '
loop_
_publ_author_name
"S.Suzuki"
"T.Furui"
"M.Kuratsu"
"M.Kozaki"
"D.Shiomi"
"K.Sato"
"T.Takui"
"K.Okada"
_chemical_name_systematic
;
(2-[t-butyl(oxido)amino]-4,4,5,5-tetramethyl-3-oxido-4,5-dihydro-1H-imidazol-1
-yl)oxidanyl
;
_cell_volume   6347.011
_exptl_crystal_colour 'red'
_exptl_crystal_density_diffrn 1.146
_exptl_crystal_description 'prism'
_diffrn_ambient_temperature 170
#These two values have been output from a single CSD field.
_refine_ls_R_factor_gt 0.0756
_refine_ls_wR_factor_gt 0.0756
_symmetry_cell_setting rhombohedral
_symmetry_space_group_name_H-M 'R -3'
_symmetry_Int_Tables_number 148
loop_
_symmetry_equiv_pos_site_id
_symmetry_equiv_pos_as_xyz
1 x,y,z
2 -y,x-y,z
3 -x+y,-x,z
4 2/3+x,1/3+y,1/3+z
5 2/3-y,1/3+x-y,1/3+z
6 2/3-x+y,1/3-x,1/3+z
7 1/3+x,2/3+y,2/3+z
8 1/3-y,2/3+x-y,2/3+z
9 1/3-x+y,2/3-x,2/3+z
10 -x,-y,-z
11 y,-x+y,-z
12 x-y,x,-z
13 -2/3-x,-1/3-y,-1/3-z
14 -2/3+y,-1/3-x+y,-1/3-z
15 -2/3+x-y,-1/3+x,-1/3-z
16 -1/3-x,-2/3-y,-2/3-z
17 -1/3+y,-2/3-x+y,-2/3-z
18 -1/3+x-y,-2/3+x,-2/3-z
_cell_length_a 34.674(2)
_cell_length_b 34.674(2)
_cell_length_c 6.0958(4)
_cell_angle_alpha 90
_cell_angle_beta 90
_cell_angle_gamma 120
_cell_formula_units_Z 18
loop_
_atom_type_symbol
_atom_type_radius_bond
C 0.68
H 0.23
N 0.68
O 0.68
loop_
_atom_site_label
_atom_site_type_symbol
_atom_site_fract_x
_atom_site_fract_y
_atom_site_fract_z
C1 C 0.20180(7) -0.00381(7) 0.3125(3)
N1 N 0.16133(6) -0.01314(6) 0.2407(3)
C2 C 0.16223(8) 0.02832(8) 0.1596(4)
C3 C 0.21342(8) 0.06038(7) 0.1253(4)
N2 N 0.23229(6) 0.03853(6) 0.2697(3)
O1 O 0.12557(6) -0.05077(6) 0.2536(3)
O2 O 0.27313(6) 0.05767(6) 0.3250(3)
C4 C 0.14202(12) 0.04249(12) 0.3428(5)
H1 H 0.1412(11) 0.0700(11) 0.291(5)
H2 H 0.1131(14) 0.0193(13) 0.369(6)
H3 H 0.1597(11) 0.0503(11) 0.474(6)
C5 C 0.13426(9) 0.01752(10) -0.0472(4)
H4 H 0.1415(9) 0.0019(9) -0.147(5)
H5 H 0.1371(10) 0.0451(10) -0.101(5)
H6 H 0.1037(12) -0.0024(11) -0.011(5)
C6 C 0.23031(12) 0.10783(9) 0.2023(5)
H7 H 0.2226(11) 0.1083(11) 0.368(6)
H8 H 0.2163(11) 0.1201(12) 0.111(6)
H9 H 0.2610(13) 0.1250(12) 0.182(6)
C7 C 0.22964(9) 0.06004(10) -0.1069(4)
H10 H 0.2219(10) 0.0300(11) -0.161(5)
H11 H 0.2627(12) 0.0760(11) -0.103(5)
H12 H 0.2190(11) 0.0777(11) -0.206(5)
N3 N 0.21009(6) -0.03339(6) 0.4291(3)
O3 O 0.19232(6) -0.04427(6) 0.6199(3)
C8 C 0.23166(8) -0.05763(8) 0.3298(4)
C9 C 0.19655(11) -0.1068(1) 0.3236(7)
H13 H 0.2101(13) -0.1209(13) 0.256(6)
H14 H 0.1723(12) -0.1105(12) 0.233(6)
H15 H 0.1873(12) -0.1168(12) 0.479(6)
C10 C 0.2703(1) -0.04999(11) 0.4762(5)
H16 H 0.2839(11) -0.0690(11) 0.413(5)
H17 H 0.2949(13) -0.0157(13) 0.482(6)
H18 H 0.2597(12) -0.0632(12) 0.620(6)
C11 C 0.24807(13) -0.03916(12) 0.1017(4)
H19 H 0.2225(13) -0.0427(12) 0.008(6)
H20 H 0.2719(14) -0.0022(14) 0.110(6)
H21 H 0.2626(12) -0.0578(12) 0.039(6)
#END
