
#######################################################################
#
#                 Cambridge Crystallographic Data Centre
#                                CCDC
#
#######################################################################
#
# If this CIF has been generated from an entry in the Cambridge
# Structural Database, then it will include bibliographic, chemical,
# crystal, experimental, refinement or atomic coordinate data resulting
# from the CCDC's data processing and validation procedures.
#
#######################################################################

data_CSD_CIF_OSIGUU
_audit_creation_date 2016-08-18
_audit_creation_method CSD-ConQuest-V1
_database_code_CSD OSIGUU
_database_code_depnum_ccdc_archive 'CCDC 1062360'
_chemical_formula_sum 'C9 H10 N6 O4'
_chemical_formula_moiety
;
C9 H10 N6 O4
;
_journal_coden_Cambridge 1003
_journal_volume 46
_journal_year 2016
_journal_page_first 296
_journal_name_full 'J.Chem.Cryst. '
loop_
_publ_author_name
"N.Boechat"
"B.M.C.S.Quaresma"
"A.S.Carvalho"
"J.L.Wardell"
"S.M.S.V.Wardell"
_chemical_name_systematic
;
ethyl 1-(1-methyl-4-nitro-1H-imidazol-5-yl)-1H-1,2,3-triazole-4-carboxylate
;
_cell_volume   1229.024
_exptl_crystal_colour 'colorless'
_exptl_crystal_density_diffrn 1.439
_exptl_crystal_description 'Plate'
_diffrn_ambient_temperature 100
_refine_special_details
;
C8A and C8B disordered over two sites with occupancies 0.619:0.381.

;
#These two values have been output from a single CSD field.
_refine_ls_R_factor_gt 0.0436
_refine_ls_wR_factor_gt 0.0436
_symmetry_cell_setting monoclinic
_symmetry_space_group_name_H-M 'P 21/c'
_symmetry_Int_Tables_number 14
loop_
_symmetry_equiv_pos_site_id
_symmetry_equiv_pos_as_xyz
1 x,y,z
2 -x,1/2+y,1/2-z
3 -x,-y,-z
4 x,-1/2-y,-1/2+z
_cell_length_a 5.2740(4)
_cell_length_b 8.9695(5)
_cell_length_c 26.0080(18)
_cell_angle_alpha 90
_cell_angle_beta 92.6220(15)
_cell_angle_gamma 90
_cell_formula_units_Z 4
loop_
_atom_type_symbol
_atom_type_radius_bond
C 0.68
H 0.23
N 0.68
O 0.68
loop_
_atom_site_label
_atom_site_type_symbol
_atom_site_fract_x
_atom_site_fract_y
_atom_site_fract_z
O1 O 1.0819(2) 0.23443(12) 0.50244(4)
O2 O 0.7805(2) 0.39908(13) 0.47642(4)
N1 N 0.1671(2) 0.46011(15) 0.72785(5)
O3 O 0.5673(3) 0.64769(14) 0.64489(5)
N2 N 0.9275(2) 0.23602(15) 0.60093(5)
N3 N 0.8022(2) 0.24337(15) 0.64266(5)
N4 N 0.5856(2) 0.32383(13) 0.63064(5)
N5 N 0.3102(2) 0.24497(13) 0.69721(5)
C1 C 0.4184(3) 0.35504(16) 0.66985(5)
O4 O 0.3005(3) 0.73876(13) 0.69695(6)
C2 C 0.3296(3) 0.48557(17) 0.68955(6)
C3 C 0.7961(3) 0.31070(15) 0.56225(5)
N6 N 0.4015(3) 0.63382(15) 0.67596(5)
C4 C 0.5781(3) 0.36735(16) 0.58110(6)
H1 H 0.45050 0.42450 0.56320
C5 C 0.1610(3) 0.31371(17) 0.73135(6)
H2 H 0.06280 0.26150 0.75520
C6 C 0.8829(3) 0.32206(16) 0.50915(6)
C7 C 0.3272(3) 0.08387(17) 0.68865(6)
H3 H 0.27750 0.06130 0.65270
H4 H 0.21340 0.03200 0.71140
H5 H 0.50200 0.05060 0.69610
C8 C 1.1823(4) 0.2347(2) 0.45115(7)
H6 H 1.246(4) 0.335(2) 0.4417(8)
H7 H 1.043(4) 0.226(3) 0.4246(8)
C9 C 1.3577(7) 0.1008(4) 0.44905(15)
H8 H 1.49790 0.11240 0.47480
H9 H 1.42580 0.09370 0.41470
H10 H 1.26270 0.00990 0.45630
C10? C 1.0304(11) 0.1358(6) 0.41635(19)
H11? H 1.01860 0.03680 0.43200
H12? H 1.11220 0.12760 0.38340
H13? H 0.85970 0.17740 0.41060
#END
