
#######################################################################
#
#                 Cambridge Crystallographic Data Centre
#                                CCDC
#
#######################################################################
#
# If this CIF has been generated from an entry in the Cambridge
# Structural Database, then it will include bibliographic, chemical,
# crystal, experimental, refinement or atomic coordinate data resulting
# from the CCDC's data processing and validation procedures.
#
#######################################################################

data_CSD_CIF_OSILUZ
_audit_creation_date 2016-08-18
_audit_creation_method CSD-ConQuest-V1
_database_code_CSD OSILUZ
_database_code_depnum_ccdc_archive 'CCDC 995729'
_chemical_formula_sum 'C15 H17 N1 O4'
_chemical_formula_moiety
;
C15 H17 N1 O4
;
_journal_coden_Cambridge 2039
_journal_volume 60
_journal_year 2015
_journal_page_first 210
_journal_name_full 'Sci.Bull. '
loop_
_publ_author_name
"Liang-Wen Feng"
"Peng Wang"
"Lijia Wang"
"Yong Tang"
_chemical_name_systematic
;
ethyl 2-methyl-1-nitro-3-(2-phenylvinyl)cyclopropanecarboxylate
;
_cell_volume   1424.571
_exptl_crystal_colour 'colorless'
_exptl_crystal_density_diffrn 1.284
_exptl_special_details
;
Absolute configuration

;
_exptl_crystal_description 'Block'
_exptl_crystal_preparation 'Petroleum ether'
_diffrn_ambient_temperature 140
#These two values have been output from a single CSD field.
_refine_ls_R_factor_gt 0.0507
_refine_ls_wR_factor_gt 0.0507
_symmetry_cell_setting orthorhombic
_symmetry_space_group_name_H-M 'P 21 21 21'
_symmetry_Int_Tables_number 19
loop_
_symmetry_equiv_pos_site_id
_symmetry_equiv_pos_as_xyz
1 x,y,z
2 1/2+x,1/2-y,-z
3 -x,1/2+y,1/2-z
4 1/2-x,-y,1/2+z
_cell_length_a 6.4861(8)
_cell_length_b 11.1688(13)
_cell_length_c 19.665(2)
_cell_angle_alpha 90
_cell_angle_beta 90
_cell_angle_gamma 90
_cell_formula_units_Z 4
loop_
_atom_type_symbol
_atom_type_radius_bond
C 0.68
H 0.23
N 0.68
O 0.68
loop_
_atom_site_label
_atom_site_type_symbol
_atom_site_fract_x
_atom_site_fract_y
_atom_site_fract_z
N1 N -0.2541(3) -0.13708(18) 0.74695(10)
O1 O 0.0719(3) -0.21986(18) 0.84877(9)
O2 O -0.1497(3) -0.10646(16) 0.90636(8)
O3 O -0.2949(3) -0.09959(18) 0.69022(8)
O4 O -0.3347(3) -0.22436(15) 0.77340(11)
C1 C -0.2998(4) 0.39478(19) 0.93334(11)
H1 H -0.42890 0.39370 0.91050
C2 C -0.2708(4) 0.4712(2) 0.98815(12)
H2 H -0.38080 0.52080 1.00310
C3 C -0.0836(5) 0.4756(2) 1.02100(12)
H3 H -0.06400 0.52850 1.05820
C4 C 0.0754(4) 0.4026(2) 0.99957(11)
H4 H 0.20480 0.40540 1.02220
C5 C 0.0470(4) 0.32545(19) 0.94533(11)
H5 H 0.15770 0.27580 0.93100
C6 C -0.1414(3) 0.31954(17) 0.91147(10)
C7 C -0.1789(3) 0.23692(18) 0.85466(10)
H6 H -0.29260 0.25360 0.82570
C8 C -0.0663(3) 0.14098(18) 0.84065(10)
H7 H 0.04380 0.12090 0.87040
C9 C -0.1041(3) 0.06408(18) 0.78110(11)
H8 H -0.20920 0.09560 0.74850
C10 C -0.1000(3) -0.07230(18) 0.78768(10)
C11 C 0.0663(3) -0.00830(19) 0.74871(11)
H9 H 0.05490 -0.01610 0.69820
C12 C 0.2835(4) -0.0077(2) 0.77499(14)
H10 H 0.34740 -0.08580 0.76630
H11 H 0.28250 0.00800 0.82400
H12 H 0.36240 0.05500 0.75180
C13 C -0.0656(3) -0.13397(19) 0.85496(11)
C14 C 0.1127(6) -0.2903(3) 0.91001(16)
H13 H 0.08490 -0.24130 0.95090
H14 H 0.02080 -0.36110 0.91110
C15 C 0.3251(6) -0.3286(3) 0.90988(18)
H15 H 0.41500 -0.25880 0.90420
H16 H 0.34770 -0.38460 0.87230
H17 H 0.35690 -0.36830 0.95310
#END
