
#######################################################################
#
#                 Cambridge Crystallographic Data Centre
#                                CCDC
#
#######################################################################
#
# If this CIF has been generated from an entry in the Cambridge
# Structural Database, then it will include bibliographic, chemical,
# crystal, experimental, refinement or atomic coordinate data resulting
# from the CCDC's data processing and validation procedures.
#
#######################################################################

data_CSD_CIF_OSUGIU
_audit_creation_date 2016-08-19
_audit_creation_method CSD-ConQuest-V1
_database_code_CSD OSUGIU
_database_code_depnum_ccdc_archive 'CCDC 1500069'
_chemical_formula_sum 'C13 H9 N1 O3'
_chemical_formula_moiety
;
C13 H9 N1 O3
;
_journal_coden_Cambridge 1122
_journal_volume 31
_journal_year 2013
_journal_page_first 49
_journal_name_full 'Chin.J.Chem. '
loop_
_publ_author_name
"Mingming Li"
"Zuogang Huang"
"Biao Jiang"
_chemical_name_systematic
;
4-nitro-2,3-dihydro-1H-cyclopenta[a]naphthalen-1-one
;
_cell_volume   1002.910
_diffrn_ambient_temperature 153
#These two values have been output from a single CSD field.
_refine_ls_R_factor_gt 0.0335
_refine_ls_wR_factor_gt 0.0335
_symmetry_cell_setting monoclinic
_symmetry_space_group_name_H-M 'P 21/n'
_symmetry_Int_Tables_number 14
loop_
_symmetry_equiv_pos_site_id
_symmetry_equiv_pos_as_xyz
1 x,y,z
2 1/2-x,1/2+y,1/2-z
3 -x,-y,-z
4 -1/2+x,-1/2-y,-1/2+z
_cell_length_a 7.0819
_cell_length_b 7.6258
_cell_length_c 18.583
_cell_angle_alpha 90
_cell_angle_beta 92.091
_cell_angle_gamma 90
_cell_formula_units_Z 4
loop_
_atom_type_symbol
_atom_type_radius_bond
C 0.68
H 0.23
N 0.68
O 0.68
loop_
_atom_site_label
_atom_site_type_symbol
_atom_site_fract_x
_atom_site_fract_y
_atom_site_fract_z
N1 N 0.8760(1) 0.9638(1) 0.1376(1)
O1 O 0.1098(1) 0.6266(1) 0.1388(1)
O2 O 0.8740(1) 0.9802(1) 0.2033(1)
O3 O 1.0082(1) 1.0140(1) 0.1019(1)
C1 C 0.2543(2) 0.7084(2) 0.1522(1)
C2 C 0.3152(2) 0.7793(2) 0.2256(1)
C3 C 0.5132(2) 0.8560(2) 0.2182(1)
C4 C 0.5517(2) 0.8335(1) 0.1392(1)
C5 C 0.4032(2) 0.7545(2) 0.1015(1)
C6 C 0.4044(2) 0.7230(2) 0.0258(1)
C7 C 0.2518(2) 0.6468(2) -0.0146(1)
C8 C 0.2637(2) 0.6219(2) -0.0875(1)
C9 C 0.4281(2) 0.6701(2) -0.1234(1)
C10 C 0.5780(2) 0.7437(2) -0.0861(1)
C11 C 0.5694(2) 0.7728(2) -0.0108(1)
C12 C 0.7226(2) 0.8511(2) 0.0283(1)
C13 C 0.7129(2) 0.8805(2) 0.1008(1)
H1 H 0.31740 0.68420 0.26190
H2 H 0.22640 0.87130 0.24090
H3 H 0.51630 0.98140 0.23190
H4 H 0.60720 0.79130 0.24870
H5 H 0.14060 0.61270 0.00890
H6 H 0.16010 0.57160 -0.11400
H7 H 0.43460 0.65120 -0.17370
H8 H 0.68820 0.77550 -0.11060
H9 H 0.83320 0.88340 0.00410
#END
