
#######################################################################
#
#                 Cambridge Crystallographic Data Centre
#                                CCDC
#
#######################################################################
#
# If this CIF has been generated from an entry in the Cambridge
# Structural Database, then it will include bibliographic, chemical,
# crystal, experimental, refinement or atomic coordinate data resulting
# from the CCDC's data processing and validation procedures.
#
#######################################################################

data_CSD_CIF_OTENEI
_audit_creation_date 2016-08-22
_audit_creation_method CSD-ConQuest-V1
_database_code_CSD OTENEI
_database_code_depnum_ccdc_archive 'CCDC 1479825'
_chemical_formula_sum 'C17 H14 N4 O4'
_chemical_formula_moiety
;
C17 H14 N4 O4
;
_journal_coden_Cambridge 1500
_journal_volume 6
_journal_year 2016
_journal_page_first 79361
_journal_name_full 'RSC Advances '
loop_
_publ_author_name
"J.Selvakumar"
"G.S.Grandhi"
"H.Sahoo"
"M.Baidya"
_chemical_name_systematic
;
2-methoxy-4-nitro-N-(2-(1H-pyrazol-1-yl)phenyl)benzamide
;
_cell_volume   3150.602
_exptl_crystal_colour 'colorless'
_exptl_crystal_density_diffrn 1.426
_exptl_crystal_description 'block'
_diffrn_ambient_temperature 296
#These two values have been output from a single CSD field.
_refine_ls_R_factor_gt 0.0424
_refine_ls_wR_factor_gt 0.0424
_symmetry_cell_setting orthorhombic
_symmetry_space_group_name_H-M 'P b c a'
_symmetry_Int_Tables_number 61
loop_
_symmetry_equiv_pos_site_id
_symmetry_equiv_pos_as_xyz
1 x,y,z
2 1/2-x,-y,1/2+z
3 -x,1/2+y,1/2-z
4 1/2+x,1/2-y,-z
5 -x,-y,-z
6 -1/2+x,y,-1/2-z
7 x,-1/2-y,-1/2+z
8 -1/2-x,-1/2+y,z
_cell_length_a 12.098(2)
_cell_length_b 8.3128(11)
_cell_length_c 31.328(6)
_cell_angle_alpha 90
_cell_angle_beta 90
_cell_angle_gamma 90
_cell_formula_units_Z 8
loop_
_atom_type_symbol
_atom_type_radius_bond
C 0.68
H 0.23
N 0.68
O 0.68
loop_
_atom_site_label
_atom_site_type_symbol
_atom_site_fract_x
_atom_site_fract_y
_atom_site_fract_z
C1 C 0.7847(3) 0.3248(4) 0.26648(12)
H1 H 0.72180 0.26160 0.26980
C2 C 0.8019(3) 0.4058(5) 0.22858(13)
H2 H 0.75000 0.39850 0.20680
C3 C 0.8954(4) 0.4973(4) 0.22289(13)
H3 H 0.90690 0.55100 0.19720
C4 C 0.9714(3) 0.5091(4) 0.25498(13)
H4 H 1.03530 0.56940 0.25090
C5 C 0.9538(3) 0.4317(4) 0.29343(11)
C6 C 0.8601(3) 0.3366(4) 0.29964(11)
C7 C 0.7462(3) 0.2138(4) 0.35598(11)
C8 C 0.7455(3) 0.1112(4) 0.39560(11)
C9 C 0.8369(3) 0.0476(4) 0.41681(12)
C10 C 0.8230(3) -0.0451(4) 0.45305(12)
H5 H 0.88380 -0.08660 0.46750
C11 C 0.7171(4) -0.0749(4) 0.46743(12)
C12 C 0.6249(3) -0.0166(5) 0.44766(13)
H6 H 0.55430 -0.03840 0.45790
C13 C 0.6413(3) 0.0757(4) 0.41186(12)
H7 H 0.57970 0.11650 0.39780
C14 C 1.0797(3) 0.6018(4) 0.33689(13)
H8 H 1.06900 0.69970 0.32310
C15 C 1.1466(3) 0.5739(5) 0.37086(14)
H9 H 1.19120 0.64770 0.38500
C16 C 1.1342(3) 0.4125(5) 0.37994(12)
H10 H 1.17050 0.36040 0.40220
C17 C 1.0327(3) 0.0002(5) 0.41624(16)
H11 H 1.04780 0.03510 0.44490
H12 H 1.09490 0.02440 0.39830
H13 H 1.01970 -0.11370 0.41610
N1 N 1.0316(2) 0.4599(3) 0.32687(9)
N2 N 1.0648(2) 0.3400(3) 0.35343(9)
N3 N 0.8450(3) 0.2514(3) 0.33854(10)
N4 N 0.7026(4) -0.1745(4) 0.50602(12)
O1 O 0.6585(2) 0.2601(3) 0.34112(9)
O2 O 0.93821(19) 0.0807(3) 0.40070(8)
O3 O 0.7846(3) -0.2228(4) 0.52421(11)
O4 O 0.6086(3) -0.2069(4) 0.51731(11)
H14 H 0.905(3) 0.225(4) 0.3507(11)
#END
