
#######################################################################
#
#                 Cambridge Crystallographic Data Centre
#                                CCDC
#
#######################################################################
#
# If this CIF has been generated from an entry in the Cambridge
# Structural Database, then it will include bibliographic, chemical,
# crystal, experimental, refinement or atomic coordinate data resulting
# from the CCDC's data processing and validation procedures.
#
#######################################################################

data_CSD_CIF_OTEYET
_audit_creation_date 2016-08-22
_audit_creation_method CSD-ConQuest-V1
_database_code_CSD OTEYET
_database_code_depnum_ccdc_archive 'CCDC 1495440'
_chemical_formula_sum 'C28 H29 N1 O2'
_chemical_formula_moiety
;
C28 H29 N1 O2
;
_journal_coden_Cambridge 1336
_journal_volume 18
_journal_year 2016
_journal_page_first 3972
_journal_name_full 'Org.Lett. '
loop_
_publ_author_name
"Wenbo Li"
"Xiuzhao Yu"
"Zhenting Yue"
"Junliang Zhang"
_chemical_name_systematic
;
1-(5-benzyl-2-(mesitylmethyl)-3-phenyl-2,3-dihydro-1,2-oxazol-4-yl)ethanone
;
_cell_volume   2218.460
_exptl_crystal_colour 'colorless'
_exptl_crystal_density_diffrn 1.232
_exptl_special_details
;
Absolute configuration

;
_exptl_crystal_description 'prismatic'
_diffrn_ambient_temperature 133
#These two values have been output from a single CSD field.
_refine_ls_R_factor_gt 0.0303
_refine_ls_wR_factor_gt 0.0303
_symmetry_cell_setting orthorhombic
_symmetry_space_group_name_H-M 'P 21 21 21'
_symmetry_Int_Tables_number 19
loop_
_symmetry_equiv_pos_site_id
_symmetry_equiv_pos_as_xyz
1 x,y,z
2 1/2-x,-y,1/2+z
3 -x,1/2+y,1/2-z
4 1/2+x,1/2-y,-z
_cell_length_a 5.0975(1)
_cell_length_b 10.8070(1)
_cell_length_c 40.2707(4)
_cell_angle_alpha 90
_cell_angle_beta 90
_cell_angle_gamma 90
_cell_formula_units_Z 4
loop_
_atom_type_symbol
_atom_type_radius_bond
C 0.68
H 0.23
N 0.68
O 0.68
loop_
_atom_site_label
_atom_site_type_symbol
_atom_site_fract_x
_atom_site_fract_y
_atom_site_fract_z
N1 N 0.6050(3) 0.64950(13) 0.86028(3)
O1 O 0.7396(3) 0.57072(11) 0.88552(3)
O2 O 0.5610(3) 0.22834(11) 0.84029(3)
C1 C 1.1289(4) 0.47199(18) 0.93758(5)
H1 H 1.23370 0.50550 0.92030
C2 C 1.1835(4) 0.50247(19) 0.97035(5)
H2 H 1.32490 0.55670 0.97530
C3 C 1.0328(5) 0.45411(19) 0.99565(5)
H3 H 1.06910 0.47520 1.01810
C4 C 0.8296(5) 0.3751(2) 0.98824(5)
H4 H 0.72670 0.34100 1.00570
C5 C 0.7736(4) 0.34483(18) 0.95539(5)
H5 H 0.63200 0.29070 0.95050
C6 C 0.9235(4) 0.39332(16) 0.92978(4)
C7 C 0.8638(4) 0.35947(17) 0.89394(4)
H6 H 1.03160 0.34880 0.88190
H7 H 0.77120 0.27890 0.89360
C8 C 0.7004(4) 0.45280(15) 0.87580(4)
C9 C 0.5197(4) 0.44097(15) 0.85143(4)
C10 C 0.4037(4) 0.56775(16) 0.84496(4)
H8 H 0.23340 0.57650 0.85710
C11 C 0.3705(4) 0.60739(17) 0.80897(4)
C12 C 0.5432(4) 0.56787(19) 0.78459(4)
H9 H 0.68440 0.51440 0.79020
C13 C 0.5091(5) 0.6068(2) 0.75189(5)
H10 H 0.62460 0.57800 0.73510
C14 C 0.3082(5) 0.6869(2) 0.74384(5)
H11 H 0.28650 0.71380 0.72150
C15 C 0.1392(5) 0.7280(2) 0.76812(5)
H12 H 0.00290 0.78440 0.76260
C16 C 0.1680(4) 0.68691(19) 0.80081(5)
H13 H 0.04850 0.71360 0.81740
C17 C 0.4377(4) 0.32435(16) 0.83620(4)
C18 C 0.1944(4) 0.32417(17) 0.81484(4)
H14 H 0.24270 0.34230 0.79180
H15 H 0.07210 0.38740 0.82290
H16 H 0.11050 0.24270 0.81600
C19 C 0.4915(4) 0.75317(16) 0.87923(4)
H17 H 0.40320 0.72080 0.89930
H18 H 0.35830 0.79580 0.86550
C20 C 0.7017(4) 0.84428(15) 0.88929(4)
C21 C 0.8003(4) 0.92624(16) 0.86534(4)
C22 C 0.9978(4) 1.00927(16) 0.87421(4)
H19 H 1.06520 1.06430 0.85790
C23 C 1.0987(4) 1.01376(16) 0.90622(4)
C24 C 0.9970(4) 0.93243(16) 0.92976(4)
H20 H 1.06370 0.93480 0.95180
C25 C 0.8004(4) 0.84771(16) 0.92194(4)
C26 C 0.6960(4) 0.76316(17) 0.94886(4)
H21 H 0.79070 0.77880 0.96960
H22 H 0.72120 0.67670 0.94220
H23 H 0.50860 0.77920 0.95220
C27 C 0.6924(4) 0.93024(17) 0.83036(4)
H24 H 0.51490 0.96500 0.83070
H25 H 0.68670 0.84620 0.82120
H26 H 0.80570 0.98210 0.81650
C28 C 1.3106(4) 1.10508(17) 0.91508(5)
H27 H 1.36010 1.15230 0.89530
H28 H 1.46410 1.06050 0.92350
H29 H 1.24540 1.16180 0.93220
#END
