
#######################################################################
#
#                 Cambridge Crystallographic Data Centre
#                                CCDC
#
#######################################################################
#
# If this CIF has been generated from an entry in the Cambridge
# Structural Database, then it will include bibliographic, chemical,
# crystal, experimental, refinement or atomic coordinate data resulting
# from the CCDC's data processing and validation procedures.
#
#######################################################################

data_CSD_CIF_OTOFIN
_audit_creation_date 2011-08-22
_audit_creation_method CSD-ConQuest-V1
_database_code_CSD OTOFIN
_database_code_depnum_ccdc_archive 'CCDC 785955'
_chemical_formula_sum 'C13 H12 N4 O5'
_chemical_formula_moiety
;
C13 H12 N4 O5
;
_journal_coden_Cambridge 24
_journal_volume 52
_journal_year 2011
_journal_page_first 3678
_journal_name_full 'Tetrahedron Lett. '
loop_
_publ_author_name
"M.Touil"
"M.Lachkar"
"O.Siri"
_chemical_name_systematic
;
5-((3-Amino-4-methylphenyl)amino)-2,4-dinitrophenol
;
_cell_volume   1326.598
_exptl_crystal_colour 'red'
_exptl_crystal_density_diffrn 1.523
_exptl_crystal_description 'prism'
_diffrn_ambient_temperature 293
#These two values have been output from a single CSD field.
_refine_ls_R_factor_gt 0.0582
_refine_ls_wR_factor_gt 0.0582
_symmetry_cell_setting monoclinic
_symmetry_space_group_name_H-M 'P 21/c'
_symmetry_Int_Tables_number 14
loop_
_symmetry_equiv_pos_site_id
_symmetry_equiv_pos_as_xyz
1 x,y,z
2 -x,1/2+y,1/2-z
3 -x,-y,-z
4 x,-1/2-y,-1/2+z
_cell_length_a 5.3179(2)
_cell_length_b 17.5462(6)
_cell_length_c 14.6185(5)
_cell_angle_alpha 90
_cell_angle_beta 103.455(2)
_cell_angle_gamma 90
_cell_formula_units_Z 4
loop_
_atom_type_symbol
_atom_type_radius_bond
C 0.68
H 0.23
N 0.68
O 0.68
loop_
_atom_site_label
_atom_site_type_symbol
_atom_site_fract_x
_atom_site_fract_y
_atom_site_fract_z
C1 C -0.1432(4) 0.69231(11) 0.56834(13)
C2 C -0.1441(4) 0.61951(11) 0.52923(14)
H1 H -0.00320 0.58770 0.55170
C3 C -0.3444(4) 0.59264(12) 0.45873(14)
C4 C -0.5603(4) 0.64055(12) 0.42427(14)
C5 C -0.5627(4) 0.71330(12) 0.45846(14)
H2 H -0.70230 0.74510 0.43440
C6 C -0.3606(4) 0.73967(11) 0.52801(14)
C7 C 0.2484(4) 0.67513(11) 0.70015(13)
C8 C 0.4757(4) 0.71300(12) 0.74066(14)
H3 H 0.49980 0.76340 0.72500
C9 C 0.6670(4) 0.67461(13) 0.80492(15)
H4 H 0.81860 0.70040 0.83250
C10 C 0.6401(4) 0.59933(13) 0.82944(14)
C11 C 0.4102(4) 0.56151(12) 0.78757(15)
C12 C 0.2142(4) 0.60006(12) 0.72444(14)
H5 H 0.05960 0.57520 0.69850
C13 C 0.8482(5) 0.55834(17) 0.89993(18)
H6 H 0.99730 0.59060 0.91780
H7 H 0.89460 0.51240 0.87230
H8 H 0.78500 0.54600 0.95450
N1 N 0.0501(3) 0.71731(10) 0.63929(12)
H9 H 0.05340 0.76570 0.64890
N2 N -0.7772(4) 0.61608(12) 0.35221(14)
N3 N -0.3818(4) 0.81727(10) 0.55834(12)
N4 N 0.3765(4) 0.48599(12) 0.80654(17)
H10 H 0.23590 0.46300 0.77960
H11 H 0.49610 0.46170 0.84530
O1 O -0.3197(4) 0.52252(10) 0.42596(13)
H12 H -0.44040 0.51390 0.38090
O2 O -0.7799(4) 0.54984(12) 0.32286(15)
O3 O -0.9539(4) 0.66061(12) 0.32186(14)
O4 O -0.5897(4) 0.85002(11) 0.53537(15)
O5 O -0.1881(4) 0.84891(9) 0.60725(13)
#END
