
#######################################################################
#
#                 Cambridge Crystallographic Data Centre
#                                CCDC
#
#######################################################################
#
# If this CIF has been generated from an entry in the Cambridge
# Structural Database, then it will include bibliographic, chemical,
# crystal, experimental, refinement or atomic coordinate data resulting
# from the CCDC's data processing and validation procedures.
#
#######################################################################

data_CSD_CIF_OVAZES
_audit_creation_date 2016-09-16
_audit_creation_method CSD-ConQuest-V1
_database_code_CSD OVAZES
_database_code_depnum_ccdc_archive 'CCDC 1504585'
_chemical_formula_sum 'C6 H6 N12 O4'
_chemical_formula_moiety
;
C6 H6 N12 O4
;
_journal_coden_Cambridge 1078
_journal_year 2016
_journal_name_full 'CSD Communication(Private Communication) '
loop_
_publ_author_name
"D.A.Parrish"
"G.H.Imler"
"J.Shreeve"
"D.Kumar"
_chemical_name_systematic
;
1-(2-(5-azido-3,4-dinitro-1H-pyrazol-1-yl)ethyl)-1H-tetrazol-5-amine
;
_cell_volume   1184.713
_exptl_crystal_colour 'colorless'
_exptl_crystal_density_diffrn 1.739
_exptl_crystal_description 'needle'
_diffrn_ambient_temperature 150
#These two values have been output from a single CSD field.
_refine_ls_R_factor_gt 0.0353
_refine_ls_wR_factor_gt 0.0353
_symmetry_cell_setting monoclinic
_symmetry_space_group_name_H-M 'P 21/c'
_symmetry_Int_Tables_number 14
loop_
_symmetry_equiv_pos_site_id
_symmetry_equiv_pos_as_xyz
1 x,y,z
2 -x,1/2+y,1/2-z
3 -x,-y,-z
4 x,-1/2-y,-1/2+z
_cell_length_a 6.5577(7)
_cell_length_b 31.045(3)
_cell_length_c 5.8420(6)
_cell_angle_alpha 90
_cell_angle_beta 95.054(2)
_cell_angle_gamma 90
_cell_formula_units_Z 4
loop_
_atom_type_symbol
_atom_type_radius_bond
C 0.68
H 0.23
N 0.68
O 0.68
loop_
_atom_site_label
_atom_site_type_symbol
_atom_site_fract_x
_atom_site_fract_y
_atom_site_fract_z
N1 N 0.61487(19) 0.28240(4) 0.9436(3)
N2 N 0.47895(16) 0.30202(3) 0.9790(2)
N3 N 0.34558(16) 0.32516(3) 1.05854(18)
C1 C 0.17539(16) 0.33833(3) 0.92187(19)
C2 C 0.05834(17) 0.32567(3) 0.72161(19)
N4 N 0.09664(17) 0.28985(3) 0.57804(18)
O1 O 0.26864(17) 0.27420(3) 0.60138(19)
O2 O -0.04223(17) 0.27688(4) 0.4431(2)
C3 C -0.10906(17) 0.35405(4) 0.70705(19)
N5 N -0.28011(15) 0.35816(3) 0.53146(17)
O3 O -0.24305(15) 0.35447(4) 0.33142(16)
O4 O -0.44838(14) 0.36594(4) 0.59661(17)
N6 N -0.09928(14) 0.38234(3) 0.87548(16)
N7 N 0.07538(14) 0.37226(3) 1.00584(15)
C4 C 0.15041(17) 0.39944(3) 1.20059(18)
H1 H 0.19250 0.38100 1.33480
H2 H 0.03870 0.41850 1.24280
C5 C 0.33177(17) 0.42675(3) 1.14121(18)
H3 H 0.38910 0.44210 1.28080
H4 H 0.43980 0.40760 1.09030
N8 N 0.27503(14) 0.45813(3) 0.96086(15)
N9 N 0.25903(15) 0.44684(3) 0.73363(16)
N10 N 0.22495(16) 0.48223(3) 0.62148(17)
N11 N 0.21752(15) 0.51711(3) 0.76237(16)
C6 C 0.24895(16) 0.50117(3) 0.97457(18)
N12 N 0.26047(15) 0.52394(3) 1.17090(16)
H5 H 0.24680 0.55210 1.16640
H6 H 0.28170 0.51070 1.30390
#END
