
#######################################################################
#
#                 Cambridge Crystallographic Data Centre
#                                CCDC
#
#######################################################################
#
# If this CIF has been generated from an entry in the Cambridge
# Structural Database, then it will include bibliographic, chemical,
# crystal, experimental, refinement or atomic coordinate data resulting
# from the CCDC's data processing and validation procedures.
#
#######################################################################

data_CSD_CIF_OVIZAW
_audit_creation_date 2016-09-19
_audit_creation_method CSD-ConQuest-V1
_database_code_CSD OVIZAW
_database_code_depnum_ccdc_archive 'CCDC 1505038'
_chemical_formula_sum 'C30 H33 N5 O2'
_chemical_formula_moiety
;
C30 H33 N5 O2
;
_journal_coden_Cambridge 4
_journal_volume 138
_journal_year 2016
_journal_page_first 9377
_journal_name_full 'J.Am.Chem.Soc. '
loop_
_publ_author_name
"N.M.Gallagher"
"J.J.Bauer"
"M.Pink"
"S.Rajca"
"A.Rajca"
_chemical_name_systematic
;
7-t-butyl-1-[4-(1-oxidanyl-4,4,5,5-tetramethyl-3-oxo-4,5-dihydro-1H-imidazol-2
-yl)phenyl]-3-phenyl-1,2,4-benzotriazin-4(1H)-yl diradical
;
_cell_volume   1326.662
_exptl_crystal_colour 'brown'
_exptl_crystal_density_diffrn 1.241
_exptl_crystal_description 'plate'
_diffrn_ambient_temperature 150
#These two values have been output from a single CSD field.
_refine_ls_R_factor_gt 0.0687
_refine_ls_wR_factor_gt 0.0687
_symmetry_cell_setting triclinic
_symmetry_space_group_name_H-M 'P -1'
_symmetry_Int_Tables_number 2
loop_
_symmetry_equiv_pos_site_id
_symmetry_equiv_pos_as_xyz
1 x,y,z
2 -x,-y,-z
_cell_length_a 7.2513(9)
_cell_length_b 9.3654(13)
_cell_length_c 20.598(3)
_cell_angle_alpha 95.768(6)
_cell_angle_beta 98.328(7)
_cell_angle_gamma 104.441(6)
_cell_formula_units_Z 2
loop_
_atom_type_symbol
_atom_type_radius_bond
C 0.68
H 0.23
N 0.68
O 0.68
loop_
_atom_site_label
_atom_site_type_symbol
_atom_site_fract_x
_atom_site_fract_y
_atom_site_fract_z
O1 O 1.0398(4) 0.7960(3) 0.46350(14)
O2 O 0.4625(4) 0.6723(4) 0.54271(14)
N1 N 0.9170(5) 0.7684(4) 0.50282(16)
N2 N 0.6426(5) 0.7154(4) 0.54065(16)
N3 N 0.2842(5) 0.6404(4) 0.22655(16)
N4 N 0.0305(5) 0.5333(4) 0.10803(16)
N5 N 0.0975(5) 0.5633(4) 0.22698(17)
C1 C 0.6145(6) 0.7127(5) 0.4181(2)
C2 C 0.6896(7) 0.6667(5) 0.3625(2)
H1 H 0.81410 0.64920 0.36860
C3 C 0.5841(7) 0.6469(5) 0.2996(2)
H2 H 0.63460 0.61450 0.26240
C4 C 0.4025(7) 0.6747(5) 0.2907(2)
C5 C 0.3275(7) 0.7219(4) 0.3448(2)
H3 H 0.20390 0.74100 0.33840
C6 C 0.4326(6) 0.7410(5) 0.4077(2)
H4 H 0.38110 0.77370 0.44460
C7 C 0.7215(6) 0.7305(5) 0.4851(2)
C8 C 0.9782(6) 0.7626(5) 0.57501(19)
C9 C 0.7925(6) 0.7730(5) 0.60199(19)
C10 C 1.1561(7) 0.8897(5) 0.6028(2)
H5 H 1.12930 0.98430 0.59430
H6 H 1.26410 0.87640 0.58140
H7 H 1.19010 0.89080 0.65070
C11 C 1.0223(6) 0.6126(5) 0.5792(2)
H8 H 0.90720 0.53230 0.55880
H9 H 1.05890 0.60190 0.62580
H10 H 1.12910 0.60720 0.55570
C12 C 0.7854(7) 0.9323(5) 0.6236(2)
H11 H 0.81510 0.99260 0.58830
H12 H 0.88070 0.97510 0.66410
H13 H 0.65570 0.93130 0.63230
C13 C 0.7416(7) 0.6775(5) 0.6556(2)
H14 H 0.74730 0.57580 0.64160
H15 H 0.61070 0.67580 0.66300
H16 H 0.83400 0.71930 0.69680
C14 C 0.3461(7) 0.6825(5) 0.1684(2)
C15 C 0.5266(7) 0.7784(5) 0.1683(2)
H17 H 0.61020 0.82170 0.20920
C16 C 0.5862(7) 0.8118(5) 0.1092(2)
C17 C 0.4548(7) 0.7479(5) 0.0503(2)
H18 H 0.49300 0.76770 0.00920
C18 C 0.2731(7) 0.6577(5) 0.0499(2)
H19 H 0.18690 0.61920 0.00900
C19 C 0.2146(7) 0.6223(5) 0.1094(2)
C20 C -0.0152(7) 0.5138(5) 0.1675(2)
C21 C -0.2138(7) 0.4281(5) 0.1708(2)
C22 C -0.2492(7) 0.3423(5) 0.2219(2)
H20 H -0.14480 0.34040 0.25520
C23 C -0.4340(8) 0.2610(6) 0.2242(3)
H21 H -0.45610 0.20200 0.25870
C24 C -0.5861(8) 0.2647(6) 0.1771(3)
H22 H -0.71370 0.21000 0.17940
C25 C -0.5534(8) 0.3486(6) 0.1260(3)
H23 H -0.65890 0.35160 0.09340
C26 C -0.3663(7) 0.4285(5) 0.1225(2)
H24 H -0.34390 0.48330 0.08670
C27 C 0.7837(7) 0.9135(5) 0.1068(2)
C28 C 0.7573(8) 1.0593(5) 0.0845(2)
H25 H 0.67940 1.03830 0.03990
H26 H 0.88420 1.12670 0.08400
H27 H 0.69140 1.10600 0.11540
C29 C 0.8816(7) 0.8402(6) 0.0568(3)
H28 H 0.80190 0.82250 0.01260
H29 H 0.89610 0.74520 0.06970
H30 H 1.00940 0.90620 0.05610
C30 C 0.9141(8) 0.9476(7) 0.1748(3)
H31 H 0.91930 0.85410 0.19160
H32 H 0.86200 1.00710 0.20570
H33 H 1.04470 1.00350 0.17090
#END
