
#######################################################################
#
#                 Cambridge Crystallographic Data Centre
#                                CCDC
#
#######################################################################
#
# If this CIF has been generated from an entry in the Cambridge
# Structural Database, then it will include bibliographic, chemical,
# crystal, experimental, refinement or atomic coordinate data resulting
# from the CCDC's data processing and validation procedures.
#
#######################################################################

data_CSD_CIF_OVOLAO
_audit_creation_date 2016-09-19
_audit_creation_method CSD-ConQuest-V1
_database_code_CSD OVOLAO
_database_code_depnum_ccdc_archive 'CCDC 1505208'
_chemical_formula_sum 'C27 H25 N1 O5'
_chemical_formula_moiety
;
C27 H25 N1 O5
;
_journal_coden_Cambridge 4
_journal_volume 138
_journal_year 2016
_journal_page_first 11093
_journal_name_full 'J.Am.Chem.Soc. '
loop_
_publ_author_name
"Xiaohong Huo"
"Rui He"
"Xiao Zhang"
"Wanbin Zhang"
_chemical_name_systematic
;
(3R,4S,5R)-5-hydroxy-3,5-diphenylocta-1,7-dien-4-yl 4-nitrobenzoate
;
_chemical_melting_point 419.65
_cell_volume   1198.864
_exptl_crystal_colour 'colorless'
_exptl_crystal_density_diffrn 1.229
_exptl_special_details
;
Melting point range 419.65-420.45K

;
_exptl_crystal_description 'block'
_diffrn_ambient_temperature 301
#These two values have been output from a single CSD field.
_refine_ls_R_factor_gt 0.0653
_refine_ls_wR_factor_gt 0.0653
_symmetry_cell_setting monoclinic
_symmetry_space_group_name_H-M 'P 21'
_symmetry_Int_Tables_number 4
loop_
_symmetry_equiv_pos_site_id
_symmetry_equiv_pos_as_xyz
1 x,y,z
2 -x,1/2+y,-z
_cell_length_a 5.7846(18)
_cell_length_b 10.081(2)
_cell_length_c 20.654(18)
_cell_angle_alpha 90
_cell_angle_beta 95.51(3)
_cell_angle_gamma 90
_cell_formula_units_Z 2
loop_
_atom_type_symbol
_atom_type_radius_bond
C 0.68
H 0.23
N 0.68
O 0.68
loop_
_atom_site_label
_atom_site_type_symbol
_atom_site_fract_x
_atom_site_fract_y
_atom_site_fract_z
O1 O 0.6484(8) 0.4745(4) 0.2903(2)
N1 N 0.774(2) -0.0162(10) 0.4811(5)
C1 C 0.5584(13) 0.2872(7) 0.3504(3)
C2 C 0.7763(14) 0.2908(8) 0.3838(4)
H1 H 0.87580 0.36110 0.37750
O2 O 0.2792(9) 0.4039(6) 0.2805(3)
C3 C 0.8468(16) 0.1912(9) 0.4263(4)
H2 H 0.99430 0.19280 0.44860
O3 O 0.973(3) -0.0297(15) 0.4965(9)
C4 C 0.4819(17) 0.0832(9) 0.4041(4)
H3 H 0.38280 0.01330 0.41140
O4 O 0.9968(7) 0.6098(5) 0.2168(3)
H4 H 1.056(10) 0.544(10) 0.242(5)
O5 O 0.6369(19) -0.0867(9) 0.5031(4)
C5 C 0.6977(17) 0.0894(9) 0.4355(4)
C6 C 0.4766(12) 0.3941(7) 0.3033(3)
C7 C 0.4123(14) 0.1836(8) 0.3608(4)
H5 H 0.26480 0.18090 0.33860
C8 C 0.6042(11) 0.5881(7) 0.2476(3)
H6 H 0.44220 0.58590 0.22880
C9 C 0.6404(14) 0.7091(7) 0.2932(4)
H7 H 0.79860 0.70310 0.31470
C10 C 0.6196(13) 0.8425(7) 0.2592(4)
C11 C 0.4171(14) 0.8770(8) 0.2225(4)
H8 H 0.29250 0.81830 0.21910
C12 C 0.3962(15) 0.9969(8) 0.1907(5)
H9 H 0.25960 1.01790 0.16540
C13 C 0.5766(17) 1.0850(9) 0.1965(5)
H10 H 0.56360 1.16580 0.17460
C14 C 0.7759(16) 1.0543(8) 0.2343(5)
H11 H 0.89740 1.11500 0.23910
C15 C 0.7975(13) 0.9336(8) 0.2654(4)
H12 H 0.93410 0.91330 0.29100
C16 C 0.478(2) 0.7031(10) 0.3455(5)
H13 H 0.32190 0.71590 0.33170
C17 C 0.524(4) 0.6833(16) 0.4053(8)
H14 H 0.67640 0.66980 0.42250
H15 H 0.40450 0.68220 0.43250
C18 C 0.4737(12) 0.6560(8) 0.1011(4)
H16 H 0.37530 0.58890 0.11260
C19 C 0.6890(12) 0.6707(7) 0.1360(3)
C20 C 0.4018(15) 0.7376(10) 0.0502(4)
H17 H 0.25730 0.72460 0.02720
C21 C 0.5435(17) 0.8390(11) 0.0329(4)
H18 H 0.49420 0.89620 -0.00100
C22 C 0.7582(16) 0.8544(9) 0.0664(4)
H19 H 0.85550 0.92200 0.05470
C23 C 0.8310(13) 0.7711(7) 0.1169(4)
H20 H 0.97820 0.78230 0.13860
C24 C 0.7673(11) 0.5767(7) 0.1922(3)
C25 C 0.7651(12) 0.4332(7) 0.1661(4)
H21 H 0.81520 0.37420 0.20180
H22 H 0.60650 0.40970 0.15090
C26 C 1.0709(17) 0.3193(10) 0.1116(5)
H23 H 1.09810 0.26230 0.14690
H24 H 1.15690 0.31100 0.07600
C27 C 0.9150(14) 0.4094(8) 0.1120(4)
H25 H 0.89310 0.46450 0.07580
#END
