
#######################################################################
#
#                 Cambridge Crystallographic Data Centre
#                                CCDC
#
#######################################################################
#
# If this CIF has been generated from an entry in the Cambridge
# Structural Database, then it will include bibliographic, chemical,
# crystal, experimental, refinement or atomic coordinate data resulting
# from the CCDC's data processing and validation procedures.
#
#######################################################################

data_CSD_CIF_OVOLES
_audit_creation_date 2016-09-19
_audit_creation_method CSD-ConQuest-V1
_database_code_CSD OVOLES
_database_code_depnum_ccdc_archive 'CCDC 1505209'
_chemical_formula_sum 'C17 H15 N1 O4'
_chemical_formula_moiety
;
C17 H15 N1 O4
;
_journal_coden_Cambridge 4
_journal_volume 138
_journal_year 2016
_journal_page_first 11093
_journal_name_full 'J.Am.Chem.Soc. '
loop_
_publ_author_name
"Xiaohong Huo"
"Rui He"
"Xiao Zhang"
"Wanbin Zhang"
_chemical_name_systematic
;
(2S,3R)-2-hydroxy-3-(4-nitrophenyl)-1-phenylpent-4-en-1-one
;
_chemical_melting_point 341.95
_cell_volume    370.765
_exptl_crystal_colour 'yellow'
_exptl_crystal_density_diffrn 1.332
_exptl_special_details
;
Melting point range 341.95-343.15K
Absolute configuration

;
_exptl_crystal_description 'block'
_diffrn_ambient_temperature 293.1
#These two values have been output from a single CSD field.
_refine_ls_R_factor_gt 0.0366
_refine_ls_wR_factor_gt 0.0366
_symmetry_cell_setting triclinic
_symmetry_space_group_name_H-M 'P 1'
_symmetry_Int_Tables_number 1
loop_
_symmetry_equiv_pos_site_id
_symmetry_equiv_pos_as_xyz
1 x,y,z
_cell_length_a 6.4718(4)
_cell_length_b 7.7276(6)
_cell_length_c 7.9956(5)
_cell_angle_alpha 68.426(7)
_cell_angle_beta 85.638(5)
_cell_angle_gamma 87.899(6)
_cell_formula_units_Z 1
loop_
_atom_type_symbol
_atom_type_radius_bond
C 0.68
H 0.23
N 0.68
O 0.68
loop_
_atom_site_label
_atom_site_type_symbol
_atom_site_fract_x
_atom_site_fract_y
_atom_site_fract_z
O1 O 0.4124(3) 0.6567(2) 0.9685(2)
O2 O 0.4985(3) 0.3335(2) 1.2083(2)
H1 H 0.40570 0.41070 1.20060
O3 O 0.8376(3) -0.5495(2) 1.4946(3)
O4 O 1.0923(5) -0.5069(4) 1.3092(4)
N1 N 0.9316(3) -0.4551(3) 1.3572(2)
C1 C 0.6642(4) 0.8894(3) 0.6818(3)
H2 H 0.52780 0.92750 0.69390
C2 C 0.8009(5) 1.0066(4) 0.5531(4)
H3 H 0.75550 1.12250 0.47700
C3 C 1.0023(5) 0.9537(4) 0.5366(4)
H4 H 1.09440 1.03500 0.45140
C4 C 1.0706(4) 0.7807(4) 0.6452(4)
H5 H 1.20780 0.74480 0.63250
C5 C 0.9347(3) 0.6614(3) 0.7728(3)
H6 H 0.98100 0.54450 0.84550
C6 C 0.7300(3) 0.7129(3) 0.7945(3)
C7 C 0.5812(3) 0.5962(3) 0.9369(3)
C8 C 0.6332(3) 0.3951(3) 1.0505(3)
H7 H 0.77580 0.38940 1.08570
C9 C 0.6167(3) 0.2675(3) 0.9401(2)
H8 H 0.70980 0.31750 0.83120
C10 C 0.4015(3) 0.2708(3) 0.8807(3)
H9 H 0.29260 0.24230 0.96890
C11 C 0.3563(4) 0.3105(3) 0.7153(3)
H10 H 0.46120 0.33960 0.62340
H11 H 0.21910 0.30970 0.68860
C12 C 0.6940(3) 0.0736(3) 1.0477(2)
C13 C 0.8929(3) 0.0189(3) 1.0087(3)
H12 H 0.97440 0.10070 0.91370
C14 C 0.9724(3) -0.1530(3) 1.1069(3)
H13 H 1.10580 -0.18780 1.07910
C15 C 0.8499(3) -0.2722(3) 1.2472(2)
C16 C 0.6504(3) -0.2258(3) 1.2885(3)
H14 H 0.56910 -0.30930 1.38240
C17 C 0.5736(3) -0.0531(3) 1.1878(3)
H15 H 0.43860 -0.02060 1.21400
#END
