
#######################################################################
#
#                 Cambridge Crystallographic Data Centre
#                                CCDC
#
#######################################################################
#
# If this CIF has been generated from an entry in the Cambridge
# Structural Database, then it will include bibliographic, chemical,
# crystal, experimental, refinement or atomic coordinate data resulting
# from the CCDC's data processing and validation procedures.
#
#######################################################################

data_CSD_CIF_OVUYEL
_audit_creation_date 2016-09-19
_audit_creation_method CSD-ConQuest-V1
_database_code_CSD OVUYEL
_database_code_depnum_ccdc_archive 'CCDC 1487497'
_chemical_formula_sum 'C14 H18 N2 O2'
_chemical_formula_moiety
;
C14 H18 N2 O2
;
_journal_coden_Cambridge 1336
_journal_volume 18
_journal_year 2016
_journal_page_first 4746
_journal_name_full 'Org.Lett. '
loop_
_publ_author_name
"Mingchun Gao"
"Bin Xu"
_chemical_name_systematic
;
(E)-1-(1-(4-methylphenyl)-2-nitrovinyl)piperidine
;
_chemical_name_common
;
(E)-1-(2-Nitro-1-(p-tolyl)vinyl)piperidine
;
_cell_volume   1322.685
_exptl_crystal_colour 'yellow'
_exptl_crystal_density_diffrn 1.237
_exptl_crystal_description 'prism'
_diffrn_ambient_temperature 293
#These two values have been output from a single CSD field.
_refine_ls_R_factor_gt 0.0439
_refine_ls_wR_factor_gt 0.0439
_symmetry_cell_setting monoclinic
_symmetry_space_group_name_H-M 'P 21/c'
_symmetry_Int_Tables_number 14
loop_
_symmetry_equiv_pos_site_id
_symmetry_equiv_pos_as_xyz
1 x,y,z
2 -x,1/2+y,1/2-z
3 -x,-y,-z
4 x,-1/2-y,-1/2+z
_cell_length_a 8.018(6)
_cell_length_b 16.118(13)
_cell_length_c 10.272(8)
_cell_angle_alpha 90
_cell_angle_beta 94.878(9)
_cell_angle_gamma 90
_cell_formula_units_Z 4
loop_
_atom_type_symbol
_atom_type_radius_bond
C 0.68
H 0.23
N 0.68
O 0.68
loop_
_atom_site_label
_atom_site_type_symbol
_atom_site_fract_x
_atom_site_fract_y
_atom_site_fract_z
O1 O 0.27786(13) 0.17336(7) 0.84126(12)
N1 N 0.78246(14) 0.20157(7) 0.95592(12)
O2 O 0.29189(15) 0.05122(8) 0.92753(18)
N2 N 0.35853(15) 0.11836(8) 0.90185(13)
C1 C 0.61424(17) 0.20096(8) 0.94108(13)
C2 C 0.53937(19) 0.3336(1) 0.81979(14)
H1 H 0.60760 0.31770 0.75530
C3 C 0.88272(19) 0.27498(9) 0.99565(15)
H2 H 0.81310 0.32420 0.98660
H3 H 0.97300 0.28120 0.93920
C4 C 0.52802(18) 0.12724(9) 0.94329(15)
C5 C 0.42773(19) 0.30913(9) 1.02419(15)
H4 H 0.41920 0.27650 1.09800
C6 C 0.88370(18) 0.12523(10) 0.96630(16)
H5 H 0.97510 0.12960 0.91060
H6 H 0.81500 0.07820 0.93700
C7 C 0.52628(17) 0.28285(8) 0.92726(13)
C8 C 0.9549(2) 0.26631(10) 1.13666(15)
H7 H 0.86460 0.26610 1.19380
H8 H 1.02660 0.31340 1.16000
C9 C 0.3512(2) 0.43351(10) 0.90216(16)
C10 C 0.4526(2) 0.40749(10) 0.80708(16)
H9 H 0.46230 0.44040 0.73370
C11 C 1.0556(2) 0.18655(11) 1.15610(17)
H10 H 1.15570 0.19050 1.10970
H11 H 1.08990 0.17940 1.24830
C12 C 0.9533(2) 0.11165(11) 1.10657(16)
H12 H 1.02350 0.06250 1.11180
H13 H 0.86190 0.10280 1.16110
C13 C 0.3420(2) 0.38382(10) 1.01127(16)
H14 H 0.27710 0.40090 1.07720
C14 C 0.2529(3) 0.51334(12) 0.8878(2)
H15 H 0.27410 0.53980 0.80710
H16 H 0.28650 0.54960 0.95950
H17 H 0.13560 0.50140 0.88770
H18 H 0.574(2) 0.0768(10) 0.9753(15)
#END
