
#######################################################################
#
#                 Cambridge Crystallographic Data Centre
#                                CCDC
#
#######################################################################
#
# If this CIF has been generated from an entry in the Cambridge
# Structural Database, then it will include bibliographic, chemical,
# crystal, experimental, refinement or atomic coordinate data resulting
# from the CCDC's data processing and validation procedures.
#
#######################################################################

data_CSD_CIF_OWAPEI
_audit_creation_date 2011-09-15
_audit_creation_method CSD-ConQuest-V1
_database_code_CSD OWAPEI
_database_code_depnum_ccdc_archive 'CCDC 790338'
_chemical_formula_sum 'C12 H13 N1 O5'
_chemical_formula_moiety
;
C12 H13 N1 O5
;
_journal_coden_Cambridge 1291
_journal_year 2011
_journal_page_first 1557
_journal_name_full 'Eur.J.Org.Chem. '
loop_
_publ_author_name
"R.Balamurugan"
"R.B.Kothapalli"
"G.K.Thota"
_chemical_name_systematic
;
5-Methyl-7-(4-nitrophenyl)-3,6,8-trioxabicyclo[3.2.1]octane
;
_cell_volume   1120.821
_exptl_crystal_colour 'colorless'
_exptl_crystal_density_diffrn 1.489
_exptl_crystal_description 'block'
_diffrn_ambient_temperature 100
#These two values have been output from a single CSD field.
_refine_ls_R_factor_gt 0.0367
_refine_ls_wR_factor_gt 0.0367
_symmetry_cell_setting monoclinic
_symmetry_space_group_name_H-M 'P 21/n'
_symmetry_Int_Tables_number 14
loop_
_symmetry_equiv_pos_site_id
_symmetry_equiv_pos_as_xyz
1 x,y,z
2 1/2-x,1/2+y,1/2-z
3 -x,-y,-z
4 -1/2+x,-1/2-y,-1/2+z
_cell_length_a 11.5989(6)
_cell_length_b 5.7251(3)
_cell_length_c 17.8093(9)
_cell_angle_alpha 90
_cell_angle_beta 108.605(1)
_cell_angle_gamma 90
_cell_formula_units_Z 4
loop_
_atom_type_symbol
_atom_type_radius_bond
C 0.68
H 0.23
N 0.68
O 0.68
loop_
_atom_site_label
_atom_site_type_symbol
_atom_site_fract_x
_atom_site_fract_y
_atom_site_fract_z
C1 C 0.94071(11) 0.6510(2) 0.87441(8)
H1 H 0.98020 0.50820 0.87760
O1 O 0.84357(8) 0.91313(16) 1.06858(5)
O2 O 0.95655(9) 0.84866(19) 0.68899(6)
O3 O 0.68265(9) 0.56871(17) 0.99358(6)
O4 O 0.64844(8) 1.00834(16) 1.05655(5)
N1 N 0.96524(10) 0.7150(2) 0.74429(7)
C2 C 0.92237(11) 0.7936(2) 0.80896(8)
C3 C 0.83996(11) 0.9392(2) 0.93029(8)
O5 O 1.00765(11) 0.51742(19) 0.74798(7)
C4 C 0.82430(12) 1.0796(2) 0.86370(8)
H2 H 0.78580 1.22340 0.86050
C5 C 0.89889(12) 0.7254(2) 0.93512(8)
H3 H 0.91030 0.63150 0.97950
C6 C 0.77954(13) 0.9099(3) 1.18543(8)
H4 H 0.79930 1.07250 1.19430
H5 H 0.84880 0.81730 1.21360
H6 H 0.71250 0.87310 1.20400
C7 C 0.86493(12) 1.0087(2) 0.80246(8)
H7 H 0.85410 1.10240 0.75810
C8 C 0.65291(12) 0.9887(2) 0.97702(8)
H8 H 0.60490 1.11160 0.94280
C9 C 0.74506(12) 0.8580(2) 1.09860(8)
C10 C 0.70513(13) 0.6071(2) 1.07609(9)
H9 H 0.76810 0.50100 1.10630
H10 H 0.63170 0.57480 1.08920
C11 C 0.79047(12) 1.0266(2) 0.99350(8)
H11 H 0.80740 1.19430 1.00060
C12 C 0.60811(12) 0.7483(2) 0.94596(9)
H12 H 0.52490 0.72890 0.94570
H13 H 0.60870 0.73370 0.89180
#END
