
#######################################################################
#
#                 Cambridge Crystallographic Data Centre
#                                CCDC
#
#######################################################################
#
# If this CIF has been generated from an entry in the Cambridge
# Structural Database, then it will include bibliographic, chemical,
# crystal, experimental, refinement or atomic coordinate data resulting
# from the CCDC's data processing and validation procedures.
#
#######################################################################

data_CSD_CIF_OWOPOH
_audit_creation_date 2016-09-20
_audit_creation_method CSD-ConQuest-V1
_database_code_CSD OWOPOH
_database_code_depnum_ccdc_archive 'CCDC 1438956'
_chemical_formula_sum 'C4 H6 N4 O8'
_chemical_formula_moiety
;
C4 H6 N4 O8
;
_journal_coden_Cambridge 644
_journal_volume 71
_journal_year 2016
_journal_page_first 811
_journal_name_full 'Z.Naturforsch.,B:Chem.Sci. '
loop_
_publ_author_name
"Q.J.Axthammer"
"T.M.Klapoetke"
"B.Krumm"
_chemical_name_systematic
;
1,1,1-trinitropropan-2-yl carbamate
;
_cell_volume    905.663
_exptl_crystal_colour 'colorless'
_exptl_crystal_density_diffrn 1.746
_exptl_crystal_description 'plate'
_diffrn_ambient_temperature 173
#These two values have been output from a single CSD field.
_refine_ls_R_factor_gt 0.0565
_refine_ls_wR_factor_gt 0.0565
_symmetry_cell_setting monoclinic
_symmetry_space_group_name_H-M 'P 21/c'
_symmetry_Int_Tables_number 14
loop_
_symmetry_equiv_pos_site_id
_symmetry_equiv_pos_as_xyz
1 x,y,z
2 -x,1/2+y,1/2-z
3 -x,-y,-z
4 x,-1/2-y,-1/2+z
_cell_length_a 12.846(2)
_cell_length_b 7.5006(10)
_cell_length_c 9.5234(13)
_cell_angle_alpha 90
_cell_angle_beta 99.254(15)
_cell_angle_gamma 90
_cell_formula_units_Z 4
loop_
_atom_type_symbol
_atom_type_radius_bond
C 0.68
H 0.23
N 0.68
O 0.68
loop_
_atom_site_label
_atom_site_type_symbol
_atom_site_fract_x
_atom_site_fract_y
_atom_site_fract_z
N1 N 0.6880(2) -0.1449(3) 0.5719(3)
N2 N 0.86889(16) -0.1095(3) 0.5427(2)
N3 N 0.8177(2) -0.0524(3) 0.7776(2)
N4 N 0.54019(17) 0.3659(3) 0.6810(2)
O1 O 0.6147(2) -0.0788(4) 0.4984(3)
O2 O 0.6963(2) -0.2975(3) 0.6123(3)
O3 O 0.87239(18) -0.0516(3) 0.4256(2)
O4 O 0.92100(16) -0.2296(3) 0.6004(2)
O5 O 0.7507(2) -0.0950(4) 0.8452(2)
O6 O 0.9097(2) -0.0146(3) 0.8225(2)
O7 O 0.68718(13) 0.2194(3) 0.66372(16)
O8 O 0.59407(13) 0.3462(2) 0.46575(16)
C1 C 0.78515(18) -0.0273(3) 0.6186(2)
C2 C 0.76543(18) 0.1666(3) 0.5814(3)
C3 C 0.8612(2) 0.2840(4) 0.6171(3)
C4 C 0.60365(18) 0.3150(3) 0.5925(2)
H1 H 0.739(2) 0.167(3) 0.482(3)
H2 H 0.927(2) 0.245(4) 0.579(3)
H3 H 0.881(3) 0.284(6) 0.717(5)
H4 H 0.844(3) 0.411(5) 0.580(4)
H5 H 0.553(2) 0.326(4) 0.761(2)
H6 H 0.490(2) 0.422(4) 0.643(3)
#END
