
#######################################################################
#
#                 Cambridge Crystallographic Data Centre
#                                CCDC
#
#######################################################################
#
# If this CIF has been generated from an entry in the Cambridge
# Structural Database, then it will include bibliographic, chemical,
# crystal, experimental, refinement or atomic coordinate data resulting
# from the CCDC's data processing and validation procedures.
#
#######################################################################

data_CSD_CIF_OWUXEK
_audit_creation_date 2011-10-11
_audit_creation_method CSD-ConQuest-V1
_database_code_CSD OWUXEK
_database_code_depnum_ccdc_archive 'CCDC 801335'
_chemical_formula_sum 'C16 H17 N1 O5'
_chemical_formula_moiety
;
C16 H17 N1 O5
;
_journal_coden_Cambridge 1366
_journal_volume 353
_journal_year 2011
_journal_page_first 1763
_journal_name_full 'Adv.Synth.Catal. '
loop_
_publ_author_name
"Baoqiang Wan"
"Guochen Jia"
"Shengming Ma"
_chemical_name_systematic
;
(E)-3-Acetyl-5-(4-nitrophenyl)-4,7,8,9-tetrahydrooxonin-2(3H)-one
;
_cell_volume    733.424
_exptl_crystal_colour 'colorless'
_exptl_crystal_density_diffrn 1.373
_exptl_crystal_description 'block'
_diffrn_ambient_temperature 296
#These two values have been output from a single CSD field.
_refine_ls_R_factor_gt 0.0372
_refine_ls_wR_factor_gt 0.0372
_symmetry_cell_setting triclinic
_symmetry_space_group_name_H-M 'P -1'
_symmetry_Int_Tables_number 2
loop_
_symmetry_equiv_pos_site_id
_symmetry_equiv_pos_as_xyz
1 x,y,z
2 -x,-y,-z
_cell_length_a 8.1581(6)
_cell_length_b 9.5889(7)
_cell_length_c 10.4998(8)
_cell_angle_alpha 108.780(2)
_cell_angle_beta 106.228(2)
_cell_angle_gamma 94.613(2)
_cell_formula_units_Z 2
loop_
_atom_type_symbol
_atom_type_radius_bond
C 0.68
H 0.23
N 0.68
O 0.68
loop_
_atom_site_label
_atom_site_type_symbol
_atom_site_fract_x
_atom_site_fract_y
_atom_site_fract_z
N1 N -0.13475(18) 1.41044(16) 1.13172(14)
O1 O 0.46413(16) 1.40166(13) 0.63772(13)
O2 O 0.32029(17) 1.03065(13) 0.42486(12)
O3 O 0.18848(13) 0.93465(11) 0.54681(11)
O4 O -0.07470(17) 1.52203(16) 1.23884(15)
O5 O -0.28944(16) 1.35677(16) 1.08096(15)
C1 C 0.2513(2) 0.79378(17) 0.50558(18)
H1 H 0.34230 0.80420 0.46460
H2 H 0.15710 0.71460 0.43510
C2 C 0.3209(2) 0.75564(18) 0.63655(19)
H3 H 0.38410 0.67440 0.61490
H4 H 0.22380 0.72010 0.66150
C3 C 0.4411(2) 0.88757(19) 0.76501(18)
H5 H 0.51720 0.84920 0.82940
H6 H 0.51310 0.94520 0.73300
C4 C 0.3424(2) 0.98882(18) 0.84352(16)
H7 H 0.28920 0.95030 0.89580
C5 C 0.32075(19) 1.12616(17) 0.84848(15)
C6 C 0.39652(19) 1.21201(17) 0.77437(15)
H8 H 0.50000 1.17560 0.76020
H9 H 0.43120 1.31710 0.83510
C7 C 0.26833(18) 1.19791(16) 0.62860(15)
H10 H 0.15250 1.20520 0.63720
C8 C 0.26018(18) 1.04738(17) 0.51965(15)
C9 C 0.3247(2) 1.32042(17) 0.57766(16)
C10 C 0.1984(3) 1.3347(2) 0.4502(2)
H11 H 0.24820 1.41490 0.42850
H12 H 0.09310 1.35580 0.46980
H13 H 0.17310 1.24250 0.37050
C11 C -0.01645(19) 1.33790(17) 1.06131(15)
C12 C -0.0811(2) 1.20297(19) 0.94972(17)
H14 H -0.19750 1.15850 0.91990
C13 C 0.0306(2) 1.13524(19) 0.88308(17)
H15 H -0.01120 1.04330 0.80850
C14 C 0.20417(19) 1.20124(16) 0.92485(15)
C15 C 0.26426(19) 1.33874(17) 1.03775(16)
H16 H 0.37970 1.38540 1.06640
C16 C 0.1555(2) 1.40641(17) 1.10742(16)
H17 H 0.19720 1.49670 1.18420
#END
