
#######################################################################
#
#                 Cambridge Crystallographic Data Centre
#                                CCDC
#
#######################################################################
#
# If this CIF has been generated from an entry in the Cambridge
# Structural Database, then it will include bibliographic, chemical,
# crystal, experimental, refinement or atomic coordinate data resulting
# from the CCDC's data processing and validation procedures.
#
#######################################################################

data_CSD_CIF_OXAKUV
_audit_creation_date 2016-10-17
_audit_creation_method CSD-ConQuest-V1
_database_code_CSD OXAKUV
_database_code_depnum_ccdc_archive 'CCDC 1510279'
_chemical_formula_sum 'C24 H16 N2 O2'
_chemical_formula_moiety
;
C24 H16 N2 O2
;
_journal_coden_Cambridge 35
_journal_volume 81
_journal_year 2016
_journal_page_first 9188
_journal_name_full 'J.Org.Chem. '
loop_
_publ_author_name
"B.Pigulski"
"A.Arendt"
"D.N.Tomilin"
"L.N.Sobenina"
"B.A.Trofimov"
"S.Szafert"
_chemical_name_systematic
;
2-(8-(4-nitrophenyl)octa-1,3,5,7-tetrayn-1-yl)-1-vinyl-4,5,6,7-tetrahydro-1H-i
ndole
;
_cell_volume   1814.993
_exptl_crystal_colour 'red'
_exptl_crystal_density_diffrn 1.334
_exptl_crystal_description 'plates'
_diffrn_ambient_temperature 100
#These two values have been output from a single CSD field.
_refine_ls_R_factor_gt 0.067
_refine_ls_wR_factor_gt 0.067
_symmetry_cell_setting monoclinic
_symmetry_space_group_name_H-M 'P 21/c'
_symmetry_Int_Tables_number 14
loop_
_symmetry_equiv_pos_site_id
_symmetry_equiv_pos_as_xyz
1 x,y,z
2 -x,1/2+y,1/2-z
3 -x,-y,-z
4 x,-1/2-y,-1/2+z
_cell_length_a 15.996(5)
_cell_length_b 6.903(2)
_cell_length_c 17.091(6)
_cell_angle_alpha 90
_cell_angle_beta 105.90(3)
_cell_angle_gamma 90
_cell_formula_units_Z 4
loop_
_atom_type_symbol
_atom_type_radius_bond
C 0.68
H 0.23
N 0.68
O 0.68
loop_
_atom_site_label
_atom_site_type_symbol
_atom_site_fract_x
_atom_site_fract_y
_atom_site_fract_z
O1 O 0.27499(15) 0.1201(3) 0.84804(13)
N1 N -0.32711(16) 0.1071(4) -0.16464(14)
C1 C -0.2834(2) 0.1185(5) -0.36525(18)
H1 H -0.23920 0.02890 -0.37540
H2 H -0.27050 0.25040 -0.38150
C2 C -0.00883(19) 0.1304(5) 0.24319(18)
C3 C 0.3053(2) 0.1108(5) 0.65012(18)
H3 H 0.36700 0.10500 0.66420
C4 C 0.16534(19) 0.1225(4) 0.54979(17)
C5 C 0.07597(19) 0.1315(4) 0.39512(19)
C6 C -0.1874(2) 0.1176(4) -0.05594(18)
C7 C -0.0957(2) 0.1249(4) 0.09247(19)
C8 C -0.2792(2) 0.1169(4) -0.27675(18)
C9 C -0.05420(19) 0.1275(5) 0.16390(18)
C10 C 0.03150(19) 0.1325(4) 0.31489(19)
N2 N 0.31358(17) 0.1170(4) 0.79548(15)
C11 C -0.1430(2) 0.1221(4) 0.01319(19)
C12 C 0.1159(2) 0.1274(4) 0.46645(19)
C13 C 0.1728(2) 0.1259(4) 0.69300(18)
H4 H 0.14570 0.13050 0.73590
C14 C -0.2061(2) 0.1186(4) -0.20669(18)
H5 H -0.14680 0.12350 -0.20670
O2 O 0.39332(14) 0.1155(3) 0.80912(14)
C15 C -0.4437(2) 0.1074(5) -0.30086(19)
H6 H -0.47870 0.20250 -0.28010
H7 H -0.46890 -0.02300 -0.29890
C16 C 0.2616(2) 0.1171(4) 0.70870(17)
C17 C -0.23688(19) 0.1117(4) -0.13941(18)
C18 C -0.35245(19) 0.1113(4) -0.25022(17)
C19 C 0.2555(2) 0.1130(5) 0.56871(19)
H8 H 0.28340 0.10810 0.52630
C20 C -0.4452(2) 0.1578(5) -0.38875(19)
H9 H -0.50240 0.12100 -0.42550
H10 H -0.43850 0.29960 -0.39320
C21 C 0.1235(2) 0.1281(5) 0.61118(18)
H11 H 0.06190 0.13330 0.59780
C22 C -0.3883(2) 0.0879(5) -0.1186(2)
H12 H -0.44710 0.11840 -0.14570
C23 C -0.3741(2) 0.0563(5) -0.41610(19)
H13 H -0.38050 0.08670 -0.47410
H14 H -0.38030 -0.08550 -0.41120
C24 C -0.3719(3) 0.0318(5) -0.0416(2)
H15 H -0.31420 -0.00030 -0.01170
H16 H -0.41770 0.02380 -0.01630
#END
