
#######################################################################
#
#                 Cambridge Crystallographic Data Centre
#                                CCDC
#
#######################################################################
#
# If this CIF has been generated from an entry in the Cambridge
# Structural Database, then it will include bibliographic, chemical,
# crystal, experimental, refinement or atomic coordinate data resulting
# from the CCDC's data processing and validation procedures.
#
#######################################################################

data_CSD_CIF_OXALOQ
_audit_creation_date 2016-10-17
_audit_creation_method CSD-ConQuest-V1
_database_code_CSD OXALOQ
_database_code_depnum_ccdc_archive 'CCDC 1455189'
_chemical_formula_sum 'C20 H23 N3 O5'
_chemical_formula_moiety
;
C20 H23 N3 O5
;
_journal_coden_Cambridge 35
_journal_volume 81
_journal_year 2016
_journal_page_first 9206
_journal_name_full 'J.Org.Chem. '
loop_
_publ_author_name
"V.Rathore"
"M.Sattar"
"R.Kumar"
"S.Kumar"
_chemical_name_systematic
;
2-(2,4-dinitrophenyl)-N,N-diisopropyl-2-phenylacetamide
;
_cell_volume   1991.110
_exptl_crystal_colour 'colorless'
_exptl_crystal_density_diffrn 1.286
_exptl_crystal_description 'char'
_diffrn_ambient_temperature 298
#These two values have been output from a single CSD field.
_refine_ls_R_factor_gt 0.0488
_refine_ls_wR_factor_gt 0.0488
_symmetry_cell_setting monoclinic
_symmetry_space_group_name_H-M 'P 21/c'
_symmetry_Int_Tables_number 14
loop_
_symmetry_equiv_pos_site_id
_symmetry_equiv_pos_as_xyz
1 x,y,z
2 -x,1/2+y,1/2-z
3 -x,-y,-z
4 x,-1/2-y,-1/2+z
_cell_length_a 8.6317(7)
_cell_length_b 14.0216(16)
_cell_length_c 16.5617(18)
_cell_angle_alpha 90
_cell_angle_beta 96.618(3)
_cell_angle_gamma 90
_cell_formula_units_Z 4
loop_
_atom_type_symbol
_atom_type_radius_bond
C 0.68
H 0.23
N 0.68
O 0.68
loop_
_atom_site_label
_atom_site_type_symbol
_atom_site_fract_x
_atom_site_fract_y
_atom_site_fract_z
O1 O 0.18391(17) 0.34777(10) 0.73086(9)
O2 O 0.02018(18) 0.47724(13) 0.58922(10)
N1 N 0.06410(19) 0.47073(12) 0.78627(10)
N2 N 0.0850(2) 0.40646(15) 0.56592(11)
O3 O 0.0168(2) 0.33591(15) 0.53800(13)
C1 C 0.1689(2) 0.43400(14) 0.74106(12)
N3 N 0.5430(3) 0.30657(16) 0.44419(13)
C2 C 0.4022(2) 0.53707(15) 0.77243(12)
C3 C 0.2817(2) 0.50247(14) 0.70401(11)
H1 H 0.22050 0.55900 0.68150
C4 C 0.2571(2) 0.40710(14) 0.57049(12)
C5 C 0.3493(2) 0.45307(14) 0.63421(12)
C6 C 0.5093(2) 0.45011(15) 0.63020(13)
H2 H 0.57660 0.48080 0.67170
C7 C 0.5744(3) 0.40427(15) 0.56822(13)
H3 H 0.68400 0.40440 0.56660
O4 O 0.6811(2) 0.31491(18) 0.43924(13)
O5 O 0.4563(3) 0.26042(18) 0.39693(14)
C8 C 0.4773(3) 0.35875(15) 0.50926(13)
C9 C 0.3179(3) 0.35888(15) 0.50894(12)
H4 H 0.25200 0.32680 0.46770
C10 C 0.4424(3) 0.63311(16) 0.77780(15)
H5 H 0.40030 0.67590 0.73650
C11 C 0.4667(3) 0.47529(19) 0.83202(14)
H6 H 0.44310 0.40910 0.82830
C12 C -0.0364(3) 0.40507(17) 0.82724(14)
H7 H -0.10700 0.44620 0.85620
C13 C 0.0358(3) 0.57392(16) 0.79539(16)
H8 H 0.11640 0.60810 0.76750
C14 C 0.5668(3) 0.5102(3) 0.89796(15)
H9 H 0.61040 0.46800 0.93940
C15 C -0.1411(3) 0.34443(19) 0.76803(18)
H10 H -0.19050 0.38470 0.72400
H11 H -0.22180 0.31440 0.79650
H12 H -0.07880 0.29490 0.74530
C16 C 0.5425(3) 0.6669(2) 0.84226(19)
H13 H 0.57030 0.73250 0.84490
C17 C 0.6016(3) 0.6061(3) 0.90233(18)
H14 H 0.66750 0.63020 0.94770
C18 C -0.1228(3) 0.60164(18) 0.75118(19)
H15 H -0.12580 0.58610 0.69330
H16 H -0.13930 0.67030 0.75740
H17 H -0.20510 0.56640 0.77440
C19 C 0.0572(3) 0.3454(2) 0.89211(17)
H18 H 0.12380 0.30090 0.86630
H19 H -0.01420 0.30950 0.92260
H20 H 0.12230 0.38730 0.92930
C20 C 0.0581(4) 0.6048(2) 0.8836(2)
H21 H -0.01770 0.57190 0.91340
H22 H 0.04240 0.67390 0.88690
H23 H 0.16400 0.58870 0.90750
#END
