
#######################################################################
#
#                 Cambridge Crystallographic Data Centre
#                                CCDC
#
#######################################################################
#
# If this CIF has been generated from an entry in the Cambridge
# Structural Database, then it will include bibliographic, chemical,
# crystal, experimental, refinement or atomic coordinate data resulting
# from the CCDC's data processing and validation procedures.
#
#######################################################################

data_CSD_CIF_OXEJUX
_audit_creation_date 2011-10-18
_audit_creation_method CSD-ConQuest-V1
_database_code_CSD OXEJUX
_database_code_depnum_ccdc_archive 'CCDC 792922'
_chemical_formula_sum 'C14 H16 N2 O4'
_chemical_formula_moiety
;
C14 H16 N2 O4
;
_journal_coden_Cambridge 35
_journal_volume 76
_journal_year 2011
_journal_page_first 424
_journal_name_full 'J.Org.Chem. '
loop_
_publ_author_name
"M.J.Raihan"
"V.Kavala"
"P.M.Habib"
"Qiao-Zhi Guan"
"Chun-Wei Kuo"
"Ching-Fa Yao"
_chemical_name_systematic
;
anti-3-(3-Nitrophenyl)-3a,4,5,6,7,8-hexahydro-3H-cyclohepta(c)isoxazole-1-oxid
e
;
_cell_volume   1280.090
_exptl_crystal_colour 'colorless'
_exptl_crystal_density_diffrn 1.433
_exptl_crystal_description 'prism'
_diffrn_ambient_temperature 200
#These two values have been output from a single CSD field.
_refine_ls_R_factor_gt 0.1771
_refine_ls_wR_factor_gt 0.1771
loop_
_citation_database_id_CSD
_citation_special_details
OXEJIL "is a stereoisomer of this entry"
_symmetry_cell_setting monoclinic
_symmetry_space_group_name_H-M 'P 21/c'
_symmetry_Int_Tables_number 14
loop_
_symmetry_equiv_pos_site_id
_symmetry_equiv_pos_as_xyz
1 x,y,z
2 -x,1/2+y,1/2-z
3 -x,-y,-z
4 x,-1/2-y,-1/2+z
_cell_length_a 6.74(2)
_cell_length_b 12.46(4)
_cell_length_c 15.25(5)
_cell_angle_alpha 90
_cell_angle_beta 91.77(7)
_cell_angle_gamma 90
_cell_formula_units_Z 4
loop_
_atom_type_symbol
_atom_type_radius_bond
C 0.68
H 0.23
N 0.68
O 0.68
loop_
_atom_site_label
_atom_site_type_symbol
_atom_site_fract_x
_atom_site_fract_y
_atom_site_fract_z
C1 C 0.838(3) 0.6095(10) -0.0576(7)
C2 C 1.028(3) 0.6297(11) -0.0724(9)
H1 H 1.08200 0.61030 -0.12690
C3 C 1.143(2) 0.6776(11) -0.0102(9)
H2 H 1.28060 0.68700 -0.01850
C4 C 1.058(3) 0.7132(10) 0.0666(9)
H3 H 1.13470 0.75260 0.10870
C5 C 0.861(2) 0.6911(10) 0.0813(8)
C6 C 0.747(2) 0.6409(10) 0.0206(7)
H4 H 0.61020 0.62690 0.02980
C7 C 0.784(2) 0.7306(10) 0.1707(7)
H5 H 0.87290 0.78720 0.19680
C8 C 0.757(2) 0.6368(8) 0.2353(7)
H6 H 0.72440 0.56950 0.20230
C9 C 0.936(2) 0.6190(9) 0.2952(7)
H7 H 0.94750 0.67950 0.33710
H8 H 1.05650 0.61860 0.25990
C10 C 0.926(2) 0.5133(10) 0.3470(7)
H9 H 0.89770 0.45390 0.30530
H10 H 1.05790 0.49940 0.37520
C11 C 0.771(3) 0.512(1) 0.4172(8)
H11 H 0.78340 0.44400 0.45060
H12 H 0.79850 0.57170 0.45860
C12 C 0.564(2) 0.5221(9) 0.3825(7)
H13 H 0.47440 0.49090 0.42590
H14 H 0.55020 0.47860 0.32830
C13 C 0.4953(18) 0.6351(10) 0.3618(7)
H15 H 0.53400 0.68320 0.41110
H16 H 0.34890 0.63620 0.35500
C14 C 0.586(2) 0.6756(10) 0.2783(8)
N1 N 0.703(2) 0.5613(9) -0.1206(7)
N2 N 0.488(2) 0.7465(9) 0.2333(6)
O1 O 0.7697(17) 0.5389(9) -0.1943(6)
O2 O 0.533(2) 0.5404(9) -0.1053(6)
O3 O 0.5899(16) 0.7710(6) 0.1534(5)
O4 O 0.3295(16) 0.7975(7) 0.2436(5)
#END
