
#######################################################################
#
#                 Cambridge Crystallographic Data Centre
#                                CCDC
#
#######################################################################
#
# If this CIF has been generated from an entry in the Cambridge
# Structural Database, then it will include bibliographic, chemical,
# crystal, experimental, refinement or atomic coordinate data resulting
# from the CCDC's data processing and validation procedures.
#
#######################################################################

data_CSD_CIF_OXEKEI
_audit_creation_date 2011-10-18
_audit_creation_method CSD-ConQuest-V1
_database_code_CSD OXEKEI
_database_code_depnum_ccdc_archive 'CCDC 792924'
_chemical_formula_sum 'C13 H12 N2 O4'
_chemical_formula_moiety
;
C13 H12 N2 O4
;
_journal_coden_Cambridge 35
_journal_volume 76
_journal_year 2011
_journal_page_first 424
_journal_name_full 'J.Org.Chem. '
loop_
_publ_author_name
"M.J.Raihan"
"V.Kavala"
"P.M.Habib"
"Qiao-Zhi Guan"
"Chun-Wei Kuo"
"Ching-Fa Yao"
_chemical_name_systematic
;
3-(2-Nitrophenyl)-3,5,6,7-tetrahydrobenzo(c)isoxazole-1-oxide
;
_cell_volume   1189.863
_exptl_crystal_colour 'yellow'
_exptl_crystal_density_diffrn 1.453
_exptl_special_details
;
Study temperature given as 200 K and 296 K in the CIF

;
_exptl_crystal_description 'prism'
_diffrn_ambient_temperature 200
_refine_special_details
;
C11 and C11' disordered over two sites with occupancies 0.569:0.431.

;
#These two values have been output from a single CSD field.
_refine_ls_R_factor_gt 0.0469
_refine_ls_wR_factor_gt 0.0469
_symmetry_cell_setting monoclinic
_symmetry_space_group_name_H-M 'P 21/n'
_symmetry_Int_Tables_number 14
loop_
_symmetry_equiv_pos_site_id
_symmetry_equiv_pos_as_xyz
1 x,y,z
2 1/2-x,1/2+y,1/2-z
3 -x,-y,-z
4 -1/2+x,-1/2-y,-1/2+z
_cell_length_a 8.7484(2)
_cell_length_b 14.5938(4)
_cell_length_c 9.8507(2)
_cell_angle_alpha 90
_cell_angle_beta 108.899(2)
_cell_angle_gamma 90
_cell_formula_units_Z 4
loop_
_atom_type_symbol
_atom_type_radius_bond
C 0.68
H 0.23
N 0.68
O 0.68
loop_
_atom_site_label
_atom_site_type_symbol
_atom_site_fract_x
_atom_site_fract_y
_atom_site_fract_z
C1 C 0.9063(2) 0.36835(13) 0.3164(2)
C2 C 0.8590(3) 0.33865(15) 0.4301(2)
H1 H 0.90600 0.36360 0.52100
C3 C 0.7428(3) 0.27236(16) 0.4082(2)
H2 H 0.70840 0.25290 0.48340
C4 C 0.6776(3) 0.23486(16) 0.2736(2)
H3 H 0.59920 0.18940 0.25810
C5 C 0.7274(3) 0.26407(15) 0.1612(2)
H4 H 0.68250 0.23720 0.07140
C6 C 0.8423(2) 0.33220(13) 0.17871(19)
C7 C 0.8888(2) 0.36241(14) 0.0497(2)
H5 H 0.99600 0.39090 0.08070
C8 C 0.7653(2) 0.42593(13) -0.0493(2)
C9 C 0.7179(3) 0.51079(14) -0.0331(2)
H6 H 0.76900 0.54290 0.05100
C10 C 0.5828(3) 0.55489(15) -0.1491(3)
H7 H 0.51630 0.58970 -0.10570
H8 H 0.62750 0.59740 -0.20190
C11 C 0.4779(6) 0.4850(3) -0.2540(5)
H9 H 0.40540 0.45720 -0.20930
H10 H 0.41170 0.51780 -0.33810
C12 C 0.5596(3) 0.41304(18) -0.3010(3)
H11 H 0.60380 0.43660 -0.37250
H12 H 0.48410 0.36440 -0.34460
C13 C 0.6915(2) 0.37585(14) -0.1780(2)
N1 N 0.7554(2) 0.29521(12) -0.17195(18)
N2 N 1.0293(2) 0.43980(12) 0.34844(18)
O1 O 0.7292(2) 0.22864(12) -0.25570(18)
O2 O 1.0226(2) 0.49850(12) 0.25754(19)
O3 O 1.1327(2) 0.43985(12) 0.46678(17)
O4 O 0.88693(18) 0.28249(11) -0.03856(15)
C14? C 0.5471(8) 0.5141(4) -0.2957(6)
H13? H 0.43860 0.53190 -0.35310
H14? H 0.62090 0.54070 -0.34010
#END
