
#######################################################################
#
#                 Cambridge Crystallographic Data Centre
#                                CCDC
#
#######################################################################
#
# If this CIF has been generated from an entry in the Cambridge
# Structural Database, then it will include bibliographic, chemical,
# crystal, experimental, refinement or atomic coordinate data resulting
# from the CCDC's data processing and validation procedures.
#
#######################################################################

data_CSD_CIF_OXIMOZ
_audit_creation_date 2016-10-18
_audit_creation_method CSD-ConQuest-V1
_database_code_CSD OXIMOZ
_database_code_depnum_ccdc_archive 'CCDC 1453290'
_chemical_formula_sum 'C14 H14 N2 O5'
_chemical_formula_moiety
;
C14 H14 N2 O5
;
_journal_coden_Cambridge 122
_journal_volume 52
_journal_year 2016
_journal_page_first 237
_journal_name_full 'Khim.Get.Soedin.,SSSR(Russ.)(Chem.Heterocycl.Compd.) '
loop_
_publ_author_name
"N.N.Kolos"
"V.V.Zubar"
"I.V.Omelchenko"
"V.I.Musatov"
_chemical_name_systematic
;
ethyl 4-hydroxy-2-methyl-5-(4-nitrophenyl)-1H-pyrrole-3-carboxylate
;
_cell_volume   2694.004
_exptl_crystal_colour 'dark red'
_exptl_crystal_density_diffrn 1.431
_exptl_crystal_description 'prism'
_diffrn_ambient_temperature 298
#These two values have been output from a single CSD field.
_refine_ls_R_factor_gt 0.0437
_refine_ls_wR_factor_gt 0.0437
_symmetry_cell_setting orthorhombic
_symmetry_space_group_name_H-M 'P b c n'
_symmetry_Int_Tables_number 60
loop_
_symmetry_equiv_pos_site_id
_symmetry_equiv_pos_as_xyz
1 x,y,z
2 1/2-x,1/2-y,1/2+z
3 1/2+x,1/2-y,-z
4 -x,y,1/2-z
5 -x,-y,-z
6 -1/2+x,-1/2+y,-1/2-z
7 -1/2-x,-1/2+y,z
8 x,-y,-1/2+z
_cell_length_a 13.6806(9)
_cell_length_b 7.6185(8)
_cell_length_c 25.8478(16)
_cell_angle_alpha 90
_cell_angle_beta 90
_cell_angle_gamma 90
_cell_formula_units_Z 8
loop_
_atom_type_symbol
_atom_type_radius_bond
C 0.68
H 0.23
N 0.68
O 0.68
loop_
_atom_site_label
_atom_site_type_symbol
_atom_site_fract_x
_atom_site_fract_y
_atom_site_fract_z
O1 O 0.76740(8) 0.25427(15) 0.77573(4)
O2 O 0.60781(8) 0.23130(18) 0.75812(4)
O3 O 0.55029(8) 0.10046(18) 0.66515(5)
H1 H 0.5441(18) 0.142(3) 0.6959(10)
O4 O 0.59508(10) -0.4255(2) 0.41467(5)
O5 O 0.45094(9) -0.3765(2) 0.44302(5)
N1 N 0.79418(10) 0.02704(19) 0.62749(5)
H2 H 0.8414(13) -0.011(3) 0.6075(7)
N2 N 0.53954(11) -0.3584(2) 0.44561(5)
C1 C 0.69427(10) 0.0129(2) 0.61686(6)
C2 C 0.64827(11) 0.0841(2) 0.65931(6)
C3 C 0.72005(11) 0.1386(2) 0.69557(6)
C4 C 0.81060(11) 0.1002(2) 0.67402(6)
C5 C 0.91185(11) 0.1262(3) 0.69372(7)
H3 H 0.95780 0.08370 0.66860
H4 H 0.92000 0.06270 0.72550
H5 H 0.92310 0.24890 0.69970
C6 C 0.69293(11) 0.2117(2) 0.74516(6)
C7 C 0.74081(12) 0.3275(2) 0.82578(6)
H6 H 0.69780 0.24770 0.84410
H7 H 0.70720 0.43860 0.82130
C8 C 0.83284(14) 0.3539(3) 0.85549(7)
H8 H 0.87660 0.42660 0.83590
H9 H 0.86300 0.24220 0.86190
H10 H 0.81820 0.40990 0.88790
C9 C 0.65578(11) -0.0730(2) 0.57156(6)
C10 C 0.71563(12) -0.1311(2) 0.53107(6)
H11 H 0.78230 -0.10760 0.53220
C11 C 0.67790(12) -0.2219(3) 0.48983(6)
H12 H 0.71870 -0.26010 0.46330
C12 C 0.57925(12) -0.2560(2) 0.48802(6)
C13 C 0.51733(11) -0.1969(2) 0.52636(6)
H13 H 0.45050 -0.21800 0.52430
C14 C 0.55540(12) -0.1068(2) 0.56750(6)
H14 H 0.51370 -0.06710 0.59340
#END
