
#######################################################################
#
#                 Cambridge Crystallographic Data Centre
#                                CCDC
#
#######################################################################
#
# If this CIF has been generated from an entry in the Cambridge
# Structural Database, then it will include bibliographic, chemical,
# crystal, experimental, refinement or atomic coordinate data resulting
# from the CCDC's data processing and validation procedures.
#
#######################################################################

data_CSD_CIF_OXIRUK
_audit_creation_date 2016-10-18
_audit_creation_method CSD-ConQuest-V1
_database_code_CSD OXIRUK
_database_code_depnum_ccdc_archive 'CCDC 1063169'
_chemical_formula_sum 'C5 H4 N4 O2'
_chemical_formula_moiety
;
C5 H4 N4 O2
;
_journal_coden_Cambridge 122
_journal_volume 52
_journal_year 2016
_journal_page_first 253
_journal_name_full 'Khim.Get.Soedin.,SSSR(Russ.)(Chem.Heterocycl.Compd.) '
loop_
_publ_author_name
"G.B.Zakaryan"
"S.S.Hayotsyan"
"A.G.Ayvazyan"
"R.A.Tamazyan"
"H.A.Panosyan"
"G.G.Danagulyan"
"H.S.Attaryan"
_chemical_name_systematic
;
3-nitro-1-(prop-2-yn-1-yl)-1H-1,2,4-triazole
;
_cell_volume   1358.348
_exptl_crystal_colour 'colorless'
_exptl_crystal_density_diffrn 1.488
_exptl_crystal_description 'prism'
_diffrn_ambient_temperature 293
#These two values have been output from a single CSD field.
_refine_ls_R_factor_gt 0.0424
_refine_ls_wR_factor_gt 0.0424
_symmetry_cell_setting orthorhombic
_symmetry_space_group_name_H-M 'P b c a'
_symmetry_Int_Tables_number 61
loop_
_symmetry_equiv_pos_site_id
_symmetry_equiv_pos_as_xyz
1 x,y,z
2 1/2-x,-y,1/2+z
3 -x,1/2+y,1/2-z
4 1/2+x,1/2-y,-z
5 -x,-y,-z
6 -1/2+x,y,-1/2-z
7 x,-1/2-y,-1/2+z
8 -1/2-x,-1/2+y,z
_cell_length_a 7.1909(14)
_cell_length_b 12.811(3)
_cell_length_c 14.745(3)
_cell_angle_alpha 90
_cell_angle_beta 90
_cell_angle_gamma 90
_cell_formula_units_Z 8
loop_
_atom_type_symbol
_atom_type_radius_bond
C 0.68
H 0.23
N 0.68
O 0.68
loop_
_atom_site_label
_atom_site_type_symbol
_atom_site_fract_x
_atom_site_fract_y
_atom_site_fract_z
N1 N 0.19151(17) 0.60899(9) 0.10023(7)
N2 N 0.16074(18) 0.63415(9) 0.18766(7)
C1 C 0.1021(2) 0.73043(11) 0.17889(9)
N3 N 0.0915(3) 0.77005(10) 0.09571(9)
C2 C 0.1503(3) 0.68991(13) 0.04712(10)
H1 H 0.161(3) 0.6857(18) -0.0203(15)
N4 N 0.0507(2) 0.79059(12) 0.25861(9)
O1 O 0.0761(3) 0.75134(11) 0.33211(8)
O2 O -0.0179(3) 0.87564(11) 0.24697(9)
C3 C 0.2501(3) 0.50242(13) 0.07797(10)
H2 H 0.165(3) 0.4546(17) 0.1090(14)
H3 H 0.371(3) 0.4940(15) 0.1011(13)
C4 C 0.2492(2) 0.48513(12) -0.01984(10)
C5 C 0.2499(3) 0.46959(15) -0.09804(12)
H4 H 0.255(3) 0.4600(18) -0.1629(15)
#END
