
#######################################################################
#
#                 Cambridge Crystallographic Data Centre
#                                CCDC
#
#######################################################################
#
# If this CIF has been generated from an entry in the Cambridge
# Structural Database, then it will include bibliographic, chemical,
# crystal, experimental, refinement or atomic coordinate data resulting
# from the CCDC's data processing and validation procedures.
#
#######################################################################

data_CSD_CIF_OXUCOA
_audit_creation_date 2011-10-18
_audit_creation_method CSD-ConQuest-V1
_database_code_CSD OXUCOA
_database_code_depnum_ccdc_archive 'CCDC 842737'
_chemical_formula_sum 'C34 H20 N2 O1'
_chemical_formula_moiety
;
C34 H20 N2 O1
;
_journal_coden_Cambridge 1336
_journal_volume 13
_journal_year 2011
_journal_page_first 1654
_journal_name_full 'Org.Lett. '
loop_
_publ_author_name
"Jinshui Chen"
"B.Captain"
"N.Takenaka"
_chemical_name_systematic
;
10-(Pyridin-2-yl)-benzo[5,6]chryseno[3,4-h]quinoline 9-oxide
;
_cell_volume   2273.052
_exptl_crystal_colour 'yellow'
_exptl_crystal_density_diffrn 1.381
_exptl_crystal_description 'plate'
_diffrn_ambient_temperature 296
#These two values have been output from a single CSD field.
_refine_ls_R_factor_gt 0.0391
_refine_ls_wR_factor_gt 0.0391
_symmetry_cell_setting orthorhombic
_symmetry_space_group_name_H-M 'P 21 21 21'
_symmetry_Int_Tables_number 19
loop_
_symmetry_equiv_pos_site_id
_symmetry_equiv_pos_as_xyz
1 x,y,z
2 1/2-x,-y,1/2+z
3 -x,1/2+y,1/2-z
4 1/2+x,1/2-y,-z
_cell_length_a 8.3737(3)
_cell_length_b 12.6257(5)
_cell_length_c 21.4999(8)
_cell_angle_alpha 90
_cell_angle_beta 90
_cell_angle_gamma 90
_cell_formula_units_Z 4
loop_
_atom_type_symbol
_atom_type_radius_bond
C 0.68
H 0.23
N 0.68
O 0.68
loop_
_atom_site_label
_atom_site_type_symbol
_atom_site_fract_x
_atom_site_fract_y
_atom_site_fract_z
O1 O 0.98353(11) 0.53475(7) 0.78821(4)
N1 N 0.92567(13) 0.62658(8) 0.80321(5)
N2 N 1.1235(2) 0.69475(10) 0.94815(6)
C1 C 0.98328(16) 0.68153(10) 0.85295(6)
C2 C 0.9458(2) 0.79014(11) 0.85730(8)
H1 H 0.98230 0.82880 0.89120
C3 C 0.8577(2) 0.83921(12) 0.81310(9)
H2 H 0.84590 0.91240 0.81380
C4 C 0.6929(2) 0.82613(16) 0.71688(9)
H3 H 0.67760 0.89910 0.71600
C5 C 0.6293(2) 0.76488(19) 0.67190(8)
H4 H 0.58150 0.79700 0.63770
C6 C 0.5608(3) 0.5893(2) 0.62774(8)
H5 H 0.50490 0.62220 0.59570
C7 C 0.5722(3) 0.4833(2) 0.62865(8)
H6 H 0.53710 0.44460 0.59450
C8 C 0.6500(2) 0.31713(17) 0.68226(8)
H7 H 0.61440 0.27800 0.64830
C9 C 0.7125(2) 0.26631(15) 0.73124(8)
H8 H 0.73350 0.19410 0.72860
C10 C 0.81778(18) 0.26912(11) 0.84098(7)
C11 C 0.83284(18) 0.32355(10) 0.89779(7)
C12 C 0.74433(19) 0.47781(11) 0.96255(6)
H9 H 0.79280 0.44720 0.99710
C13 C 0.6622(2) 0.57017(11) 0.96977(6)
H10 H 0.65750 0.60290 1.00850
C14 C 0.5856(2) 0.61514(11) 0.91891(6)
H11 H 0.52390 0.67580 0.92400
C15 C 0.60077(17) 0.56997(10) 0.86097(6)
H12 H 0.54880 0.60060 0.82720
C16 C 0.78400(19) 0.77913(13) 0.76598(7)
C17 C 0.80396(16) 0.66857(11) 0.76578(6)
C18 C 0.6332(2) 0.65260(17) 0.67530(7)
C19 C 0.71006(16) 0.60147(13) 0.72596(6)
C20 C 0.6367(2) 0.42918(17) 0.68082(7)
C21 C 0.68715(17) 0.48825(13) 0.73351(6)
C22 C 0.74722(17) 0.32169(11) 0.78743(7)
C23 C 0.71325(15) 0.43039(11) 0.79026(6)
C24 C 0.75796(17) 0.42750(9) 0.90444(6)
C25 C 0.69342(15) 0.47822(9) 0.85173(5)
C26 C 0.8861(2) 0.16614(12) 0.83677(9)
H13 H 0.87530 0.12800 0.80000
C27 C 0.9667(3) 0.12216(13) 0.88524(11)
H14 H 1.01190 0.05530 0.88090
C28 C 0.9817(3) 0.17568(14) 0.94055(11)
H15 H 1.03710 0.14520 0.97350
C29 C 0.9144(2) 0.27472(12) 0.94714(8)
H16 H 0.92310 0.30990 0.98500
C30 C 1.08424(16) 0.62977(10) 0.90077(6)
C31 C 1.13024(19) 0.52384(11) 0.90132(7)
H17 H 1.10790 0.48010 0.86760
C32 C 1.2097(2) 0.48477(13) 0.95285(8)
H18 H 1.23900 0.41380 0.95440
C33 C 1.2452(2) 0.55032(14) 1.00128(7)
H19 H 1.29650 0.52510 1.03670
C34 C 1.2025(3) 0.65458(15) 0.99600(8)
H20 H 1.23090 0.70020 1.02810
#END
