
#######################################################################
#
#                 Cambridge Crystallographic Data Centre
#                                CCDC
#
#######################################################################
#
# If this CIF has been generated from an entry in the Cambridge
# Structural Database, then it will include bibliographic, chemical,
# crystal, experimental, refinement or atomic coordinate data resulting
# from the CCDC's data processing and validation procedures.
#
#######################################################################

data_CSD_CIF_OYEKUZ
_audit_creation_date 2011-10-17
_audit_creation_method CSD-ConQuest-V1
_database_code_CSD OYEKUZ
_database_code_depnum_ccdc_archive 'CCDC 781679'
_chemical_formula_sum 'C13 H18 N3 O5'
_chemical_formula_moiety
;
C13 H18 N3 O5
;
_journal_coden_Cambridge 1037
_journal_volume 12
_journal_year 2011
_journal_page_first 76-8
_journal_name_full 'ARKIVOC '
loop_
_publ_author_name
"E.V.Tretyakov"
"I.A.Utepova"
"M.V.Varaksin"
"S.E.Tolstikov"
"G.V.Romanenko"
"A.S.Bogomyakov"
"D.V.Stass"
"V.I.Ovcharenko"
"O.N.Chupakhin"
_chemical_name_systematic
;
2-(3-(Ethoxycarbonyl)isoxazol-5-yl)-4,4,5,5-tetramethyl-4,5-dihydro-1H-imidazo
l-3-oxide-1-oxyl
;
_cell_volume   1480.207
_exptl_crystal_colour 'blue'
_exptl_crystal_density_diffrn 1.33
_exptl_crystal_description 'plate'
_diffrn_ambient_temperature 240
#These two values have been output from a single CSD field.
_refine_ls_R_factor_gt 0.059
_refine_ls_wR_factor_gt 0.059
_symmetry_cell_setting monoclinic
_symmetry_space_group_name_H-M 'P 21/n'
_symmetry_Int_Tables_number 14
loop_
_symmetry_equiv_pos_site_id
_symmetry_equiv_pos_as_xyz
1 x,y,z
2 1/2-x,1/2+y,1/2-z
3 -x,-y,-z
4 -1/2+x,-1/2-y,-1/2+z
_cell_length_a 7.178(3)
_cell_length_b 17.301(6)
_cell_length_c 12.046(3)
_cell_angle_alpha 90
_cell_angle_beta 98.32(2)
_cell_angle_gamma 90
_cell_formula_units_Z 4
loop_
_atom_type_symbol
_atom_type_radius_bond
C 0.68
H 0.23
N 0.68
O 0.68
loop_
_atom_site_label
_atom_site_type_symbol
_atom_site_fract_x
_atom_site_fract_y
_atom_site_fract_z
O1 O 0.7724(5) 0.0985(2) 0.6658(2)
N1 N 0.7440(5) 0.1552(2) 0.7292(3)
C1 C 0.7469(7) 0.2379(3) 0.6920(3)
N2 N 0.6880(5) 0.2206(2) 0.8775(3)
O2 O 0.6625(4) 0.23560(17) 0.9777(2)
C2 C 0.6465(8) 0.2465(3) 0.5746(3)
H1 H 0.51460 0.23350 0.57270
H2 H 0.70260 0.21210 0.52510
H3 H 0.65730 0.29950 0.55000
O3 O 0.7850(4) 0.01443(19) 0.8616(2)
N3 N 0.7957(5) -0.0434(2) 0.9440(3)
C3 C 0.9557(8) 0.2588(3) 0.6977(4)
H4 H 1.01810 0.25330 0.77430
H5 H 0.96700 0.31180 0.67330
H6 H 1.01410 0.22450 0.64910
O4 O 0.7867(5) -0.1220(2) 1.1462(2)
C4 C 0.6582(7) 0.2793(3) 0.7855(3)
O5 O 0.7240(5) -0.00785(18) 1.2212(2)
C5 C 0.7421(8) 0.3545(3) 0.8286(3)
H7 H 0.87780 0.34940 0.84520
H8 H 0.69200 0.36880 0.89630
H9 H 0.71090 0.39430 0.77210
C6 C 0.4432(7) 0.2885(3) 0.7568(3)
H10 H 0.39480 0.31400 0.81840
H11 H 0.38550 0.23790 0.74470
H12 H 0.41390 0.31920 0.68920
C7 C 0.7229(6) 0.1498(3) 0.8385(3)
C8 C 0.7382(6) 0.0825(3) 0.9076(3)
C9 C 0.7144(6) 0.0710(3) 1.0155(3)
H13 H 0.67950 0.10740 1.06670
C10 C 0.7539(6) -0.0083(3) 1.0339(4)
C11 C 0.7567(7) -0.0545(3) 1.1389(4)
C12 C 0.7317(8) -0.0434(3) 1.3328(3)
H14 H 0.62340 -0.07780 1.33380
H15 H 0.84690 -0.07420 1.35000
C13 C 0.7292(9) 0.0155(3) 1.4138(4)
H16 H 0.73600 -0.00760 1.48770
H17 H 0.61370 0.04500 1.39730
H18 H 0.83630 0.04940 1.41220
#END
