
#######################################################################
#
#                 Cambridge Crystallographic Data Centre
#                                CCDC
#
#######################################################################
#
# If this CIF has been generated from an entry in the Cambridge
# Structural Database, then it will include bibliographic, chemical,
# crystal, experimental, refinement or atomic coordinate data resulting
# from the CCDC's data processing and validation procedures.
#
#######################################################################

data_CSD_CIF_OYELIO
_audit_creation_date 2011-10-17
_audit_creation_method CSD-ConQuest-V1
_database_code_CSD OYELIO
_database_code_depnum_ccdc_archive 'CCDC 781682'
_chemical_formula_sum 'C22 H22 N5 O1'
_chemical_formula_moiety
;
C22 H22 N5 O1
;
_journal_coden_Cambridge 1037
_journal_volume 12
_journal_year 2011
_journal_page_first 76-8
_journal_name_full 'ARKIVOC '
loop_
_publ_author_name
"E.V.Tretyakov"
"I.A.Utepova"
"M.V.Varaksin"
"S.E.Tolstikov"
"G.V.Romanenko"
"A.S.Bogomyakov"
"D.V.Stass"
"V.I.Ovcharenko"
"O.N.Chupakhin"
_chemical_name_systematic
;
4,4,5,5-Tetramethyl-2-(3,6-diphenyl-1,2,4-triazin-5-yl)-4,5-dihydro-1H-imidazo
l-1-oxyl
;
_cell_volume   4063.297
_exptl_crystal_colour 'orange'
_exptl_crystal_density_diffrn 1.218
_exptl_crystal_description 'prism'
_diffrn_ambient_temperature 240
#These two values have been output from a single CSD field.
_refine_ls_R_factor_gt 0.046
_refine_ls_wR_factor_gt 0.046
_symmetry_cell_setting orthorhombic
_symmetry_space_group_name_H-M 'P b c a'
_symmetry_Int_Tables_number 61
loop_
_symmetry_equiv_pos_site_id
_symmetry_equiv_pos_as_xyz
1 x,y,z
2 1/2-x,-y,1/2+z
3 -x,1/2+y,1/2-z
4 1/2+x,1/2-y,-z
5 -x,-y,-z
6 -1/2+x,y,-1/2-z
7 x,-1/2-y,-1/2+z
8 -1/2-x,-1/2+y,z
_cell_length_a 14.6206(12)
_cell_length_b 14.6087(15)
_cell_length_c 19.0240(12)
_cell_angle_alpha 90
_cell_angle_beta 90
_cell_angle_gamma 90
_cell_formula_units_Z 8
loop_
_atom_type_symbol
_atom_type_radius_bond
C 0.68
H 0.23
N 0.68
O 0.68
loop_
_atom_site_label
_atom_site_type_symbol
_atom_site_fract_x
_atom_site_fract_y
_atom_site_fract_z
N1 N 0.14999(15) 1.01103(14) -0.07566(8)
C1 C 0.21752(17) 1.02108(17) -0.13378(10)
O1 O 0.06899(14) 0.98443(16) -0.08382(9)
N2 N 0.27258(14) 1.05828(13) -0.01756(8)
C2 C 0.1742(2) 1.0678(3) -0.19533(13)
H1 H 0.12790 1.02810 -0.21560
H2 H 0.22050 1.08110 -0.23040
H3 H 0.14600 1.12450 -0.18000
N3 N 0.11080(13) 1.04781(13) 0.17202(8)
C3 C 0.2444(2) 0.9239(2) -0.15465(15)
H4 H 0.19390 0.89500 -0.17920
H5 H 0.25900 0.88890 -0.11280
H6 H 0.29750 0.92590 -0.18520
N4 N 0.10375(14) 0.95885(14) 0.18776(9)
C4 C 0.29337(17) 1.07359(16) -0.09404(10)
N5 N 0.13564(12) 0.91744(13) 0.06972(8)
C5 C 0.38982(19) 1.0391(2) -0.10922(14)
H7 H 0.43360 1.07510 -0.08270
H8 H 0.40260 1.04500 -0.15910
H9 H 0.39460 0.97530 -0.09560
C6 C 0.2894(3) 1.17666(19) -0.10453(15)
H10 H 0.33870 1.20540 -0.07850
H11 H 0.23120 1.19970 -0.08760
H12 H 0.29580 1.19070 -0.15410
C7 C 0.19194(16) 1.02717(14) -0.01249(9)
C8 C 0.14706(15) 1.00491(15) 0.05578(9)
C9 C 0.12723(15) 1.07294(15) 0.1056(1)
C10 C 0.12314(15) 1.17166(15) 0.08988(11)
C11 C 0.08405(16) 1.20214(16) 0.02819(12)
H13 H 0.05900 1.15960 -0.00340
C12 C 0.08123(18) 1.29446(19) 0.01219(14)
H14 H 0.05490 1.31420 -0.03030
C13 C 0.11663(19) 1.35678(19) 0.05807(15)
H15 H 0.11550 1.41950 0.04700
C14 C 0.15380(19) 1.32814(19) 0.12024(15)
H16 H 0.17690 1.37150 0.15220
C15 C 0.15776(17) 1.23607(17) 0.13660(12)
H17 H 0.18390 1.21700 0.17930
C16 C 0.10896(15) 0.89745(15) 0.13573(10)
C17 C 0.08978(15) 0.80100(16) 0.15331(10)
C18 C 0.11406(17) 0.73137(17) 0.10808(12)
H18 H 0.14290 0.74560 0.06530
C19 C 0.09656(18) 0.64094(18) 0.12483(13)
H19 H 0.11420 0.59410 0.09380
C20 C 0.05361(19) 0.61978(18) 0.18650(15)
H20 H 0.04100 0.55840 0.19780
C21 C 0.02886(19) 0.6887(2) 0.23192(14)
H21 H -0.00060 0.67400 0.27440
C22 C 0.04673(18) 0.77885(17) 0.21601(12)
H22 H 0.02980 0.82530 0.24760
#END
