
#######################################################################
#
#                 Cambridge Crystallographic Data Centre
#                                CCDC
#
#######################################################################
#
# If this CIF has been generated from an entry in the Cambridge
# Structural Database, then it will include bibliographic, chemical,
# crystal, experimental, refinement or atomic coordinate data resulting
# from the CCDC's data processing and validation procedures.
#
#######################################################################

data_CSD_CIF_OYEQEP
_audit_creation_date 2011-10-18
_audit_creation_method CSD-ConQuest-V1
_database_code_CSD OYEQEP
_database_code_depnum_ccdc_archive 'CCDC 762541'
_chemical_formula_sum 'C25 H25 N3 O6'
_chemical_formula_moiety
;
C25 H25 N3 O6
;
_journal_coden_Cambridge 603
_journal_volume 30
_journal_year 2011
_journal_page_first 717
_journal_name_full 'Jiegou Huaxue(Chin.)(Chin.J.Struct.Chem.) '
loop_
_publ_author_name
"Wen-Wen Zhu"
"Yun-Long Song"
"Can-Hui Zheng"
"Jia-Guo Lv"
"Jun Chen"
"Jing-Jing Huang"
"You-Jun Zhou"
"Ju Zhu"
_chemical_name_systematic
;
6,7,8-Trimethoxy-1-(4-methoxy-3-nitrophenyl)-4-(pyridin-4-ylmethyl)-3,4-dihydr
oisoquinoline
;
_cell_volume   2314.245
_exptl_crystal_colour 'yellow'
_exptl_crystal_density_diffrn 1.33
_exptl_crystal_description 'block'
_diffrn_ambient_temperature 293
#These two values have been output from a single CSD field.
_refine_ls_R_factor_gt 0.0467
_refine_ls_wR_factor_gt 0.0467
_symmetry_cell_setting monoclinic
_symmetry_space_group_name_H-M 'P 21/n'
_symmetry_Int_Tables_number 14
loop_
_symmetry_equiv_pos_site_id
_symmetry_equiv_pos_as_xyz
1 x,y,z
2 1/2-x,1/2+y,1/2-z
3 -x,-y,-z
4 -1/2+x,-1/2-y,-1/2+z
_cell_length_a 12.074(5)
_cell_length_b 12.896(6)
_cell_length_c 15.450(7)
_cell_angle_alpha 90
_cell_angle_beta 105.846(5)
_cell_angle_gamma 90
_cell_formula_units_Z 4
loop_
_atom_type_symbol
_atom_type_radius_bond
C 0.68
H 0.23
N 0.68
O 0.68
loop_
_atom_site_label
_atom_site_type_symbol
_atom_site_fract_x
_atom_site_fract_y
_atom_site_fract_z
N1 N 0.30024(11) 0.17454(11) 0.16793(9)
N2 N -0.09196(16) -0.10609(13) 0.15207(13)
N3 N 0.33369(13) 0.24110(15) -0.19588(11)
O1 O 0.38976(10) 0.44837(9) 0.06110(8)
O2 O 0.26096(11) 0.62713(9) 0.05490(8)
O3 O 0.06433(10) 0.62372(9) 0.10158(9)
O4 O 0.27817(14) 0.32165(14) -0.21123(10)
O5 O 0.34129(15) 0.17971(16) -0.25294(10)
O6 O 0.54508(11) 0.13500(11) -0.14105(9)
C1 C 0.28857(13) 0.44420(13) 0.08511(10)
C2 C 0.22314(14) 0.53407(12) 0.08079(11)
C3 C 0.12131(14) 0.53208(12) 0.10656(10)
C4 C 0.08563(13) 0.44031(12) 0.13686(10)
H1 H 0.01870 0.43910 0.15570
C5 C 0.14903(13) 0.34998(12) 0.13935(10)
C6 C 0.25038(13) 0.35022(12) 0.11226(10)
C7 C 0.31171(13) 0.24918(12) 0.11619(11)
C8 C 0.22065(14) 0.19194(13) 0.22287(11)
H2 H 0.25910 0.23240 0.27540
H3 H 0.19950 0.12570 0.24350
C9 C 0.11204(13) 0.24858(12) 0.17100(11)
H4 H 0.06440 0.26290 0.21180
C10 C 0.38036(13) 0.22572(12) 0.05176(11)
C11 C 0.33640(13) 0.24951(13) -0.03847(11)
H5 H 0.26920 0.28840 -0.05710
C12 C 0.39068(14) 0.21651(13) -0.10103(11)
C13 C 0.49414(15) 0.16133(13) -0.07602(12)
C14 C 0.53918(15) 0.14031(15) 0.01487(13)
H6 H 0.60880 0.10510 0.03420
C15 C 0.48261(15) 0.17060(15) 0.07710(12)
H7 H 0.51380 0.15370 0.13740
C16 C 0.03961(15) 0.18722(13) 0.08899(12)
H8 H -0.02460 0.23010 0.05710
H9 H 0.08680 0.17380 0.04850
C17 C -0.00660(14) 0.08576(13) 0.11219(11)
C18 C 0.05640(17) -0.00498(14) 0.11823(15)
H10 H 0.12910 -0.00380 0.10860
C19 C 0.0113(2) -0.09657(15) 0.13840(16)
H11 H 0.05620 -0.15600 0.14280
C20 C -0.15124(18) -0.01862(16) 0.14729(15)
H12 H -0.22370 -0.02210 0.15720
C21 C -0.11215(15) 0.07736(14) 0.12844(13)
H13 H -0.15750 0.13600 0.12680
C22 C 0.48209(17) 0.5024(2) 0.12078(16)
H14 H 0.45220 0.55940 0.14740
H15 H 0.53350 0.52810 0.08810
H16 H 0.52300 0.45610 0.16720
C23 C 0.2540(2) 0.63460(16) -0.03832(14)
H17 H 0.29390 0.57720 -0.05560
H18 H 0.28870 0.69840 -0.04960
H19 H 0.17470 0.63330 -0.07270
C24 C -0.03587(15) 0.62431(15) 0.13304(16)
H20 H -0.09280 0.57900 0.09640
H21 H -0.06610 0.69350 0.12970
H22 H -0.01640 0.60080 0.19430
C25 C 0.65748(17) 0.09108(18) -0.11350(15)
H23 H 0.70880 0.13850 -0.07420
H24 H 0.68450 0.07800 -0.16550
H25 H 0.65500 0.02710 -0.08230
#END
