
#######################################################################
#
#                 Cambridge Crystallographic Data Centre
#                                CCDC
#
#######################################################################
#
# If this CIF has been generated from an entry in the Cambridge
# Structural Database, then it will include bibliographic, chemical,
# crystal, experimental, refinement or atomic coordinate data resulting
# from the CCDC's data processing and validation procedures.
#
#######################################################################

data_CSD_CIF_OYIBUV
_audit_creation_date 2016-10-21
_audit_creation_method CSD-ConQuest-V1
_database_code_CSD OYIBUV
_database_code_depnum_ccdc_archive 'CCDC 990980'
_chemical_formula_sum 'C11 H20 N1 O2'
_chemical_formula_moiety
;
C11 H20 N1 O2
;
_journal_coden_Cambridge 1037
_journal_volume 16
_journal_year 2015
_journal_page_first 330-7
_journal_name_full 'ARKIVOC '
loop_
_publ_author_name
"L.A.Oparina"
"A.V.Artemev"
"O.V.Vysotskaya"
"I.V.Sterkhova"
"S.S.Khutsishvili"
"V.I.Smirnov"
"B.A.Trofimov"
_chemical_name_systematic
;
[4-(ethenyloxy)-2,2,6,6-tetramethylpiperidin-1-yl]oxidanyl radical
;
_cell_volume   1171.987
_exptl_crystal_colour 'bronze'
_exptl_crystal_density_diffrn 1.124
_exptl_crystal_description 'needle'
_diffrn_ambient_temperature 100
#These two values have been output from a single CSD field.
_refine_ls_R_factor_gt 0.0428
_refine_ls_wR_factor_gt 0.0428
_symmetry_cell_setting monoclinic
_symmetry_space_group_name_H-M 'P 21/c'
_symmetry_Int_Tables_number 14
loop_
_symmetry_equiv_pos_site_id
_symmetry_equiv_pos_as_xyz
1 x,y,z
2 -x,1/2+y,1/2-z
3 -x,-y,-z
4 x,-1/2-y,-1/2+z
_cell_length_a 11.5408(4)
_cell_length_b 10.0341(4)
_cell_length_c 11.2571(5)
_cell_angle_alpha 90
_cell_angle_beta 115.967(1)
_cell_angle_gamma 90
_cell_formula_units_Z 4
loop_
_atom_type_symbol
_atom_type_radius_bond
C 0.68
H 0.23
N 0.68
O 0.68
loop_
_atom_site_label
_atom_site_type_symbol
_atom_site_fract_x
_atom_site_fract_y
_atom_site_fract_z
O1 O 0.35487(7) -0.06895(7) 0.75511(7)
O2 O 0.15676(7) 0.35101(7) 0.91983(8)
N1 N 0.20323(8) 0.25067(8) 0.88363(8)
C1 C 0.29958(11) -0.26947(12) 0.63495(12)
H1 H 0.35050 -0.31730 0.71070
H2 H 0.25470 -0.31380 0.55520
C2 C 0.29101(10) -0.13882(11) 0.64062(11)
H3 H 0.23960 -0.09260 0.56390
C3 C 0.29076(9) 0.05303(9) 0.75978(10)
H4 H 0.26060 0.10030 0.67530
C4 C 0.17834(9) 0.02237(9) 0.79099(10)
H5 H 0.20990 -0.02600 0.87390
H6 H 0.11800 -0.03490 0.72240
C5 C 0.10741(9) 0.14741(9) 0.8014(1)
C6 C 0.02349(11) 0.11234(11) 0.87062(12)
H7 H 0.07730 0.08340 0.95920
H8 H -0.03500 0.04210 0.82310
H9 H -0.02460 0.18950 0.87310
C7 C 0.33216(9) 0.2716(1) 0.8844(1)
C8 C 0.38739(9) 0.13707(10) 0.8697(1)
H10 H 0.46160 0.15250 0.85250
H11 H 0.41650 0.08840 0.95220
C9 C 0.31738(11) 0.36862(10) 0.77304(11)
H12 H 0.26700 0.32740 0.68910
H13 H 0.40100 0.39090 0.77990
H14 H 0.27500 0.44820 0.78060
C10 C 0.42225(10) 0.33199(11) 1.01785(11)
H15 H 0.39170 0.41890 1.02600
H16 H 0.50750 0.33920 1.02370
H17 H 0.42410 0.27580 1.08770
C11 C 0.02261(10) 0.20441(11) 0.66412(11)
H18 H -0.01240 0.28850 0.67320
H19 H -0.04650 0.14350 0.61650
H20 H 0.07360 0.21690 0.61670
#END
