
#######################################################################
#
#                 Cambridge Crystallographic Data Centre
#                                CCDC
#
#######################################################################
#
# If this CIF has been generated from an entry in the Cambridge
# Structural Database, then it will include bibliographic, chemical,
# crystal, experimental, refinement or atomic coordinate data resulting
# from the CCDC's data processing and validation procedures.
#
#######################################################################

data_CSD_CIF_OYOYUY
_audit_creation_date 2016-11-16
_audit_creation_method CSD-ConQuest-V1
_database_code_CSD OYOYUY
_database_code_depnum_ccdc_archive 'CCDC 1504724'
_chemical_formula_sum 'C15 H13 N3 O5'
_chemical_formula_moiety
;
C15 H13 N3 O5
;
_journal_coden_Cambridge 1326
_journal_volume 18
_journal_year 2016
_journal_page_first 32256
_journal_name_full 'Phys.Chem.Chem.Phys.(PCCP) '
loop_
_publ_author_name
"R.I.Stock"
"C.E.A.de Melo"
"A.D.S.Schramm"
"C.R.Nicoleti"
"A.J.Bortoluzzi"
"R.da S.Heying"
"V.G.Machado"
"M.C.Rezende"
_chemical_name_systematic
;
(E)-4-(2,4-Dinitrophenylmethylenimino)-2,6-dimethylphenol
;
_cell_volume    722.105
_exptl_crystal_colour 'orange'
_exptl_crystal_density_diffrn 1.45
_exptl_crystal_description 'plate'
_exptl_crystal_preparation 'Ethanol'
_diffrn_ambient_temperature 200
#These two values have been output from a single CSD field.
_refine_ls_R_factor_gt 0.0382
_refine_ls_wR_factor_gt 0.0382
_symmetry_cell_setting triclinic
_symmetry_space_group_name_H-M 'P -1'
_symmetry_Int_Tables_number 2
loop_
_symmetry_equiv_pos_site_id
_symmetry_equiv_pos_as_xyz
1 x,y,z
2 -x,-y,-z
_cell_length_a 6.6932(4)
_cell_length_b 7.6756(5)
_cell_length_c 15.1649(9)
_cell_angle_alpha 86.795(2)
_cell_angle_beta 85.596(2)
_cell_angle_gamma 68.438(2)
_cell_formula_units_Z 2
loop_
_atom_type_symbol
_atom_type_radius_bond
C 0.68
H 0.23
N 0.68
O 0.68
loop_
_atom_site_label
_atom_site_type_symbol
_atom_site_fract_x
_atom_site_fract_y
_atom_site_fract_z
C1 C 0.2489(2) 0.4996(2) 0.48089(10)
C2 C 0.3120(3) 0.3091(2) 0.46297(10)
H1 H 0.33690 0.22060 0.51110
C3 C 0.3392(3) 0.2456(2) 0.37808(10)
H2 H 0.38660 0.11530 0.36770
C4 C 0.2960(2) 0.3755(2) 0.30826(10)
C5 C 0.2272(2) 0.5648(2) 0.32127(10)
H3 H 0.19310 0.65270 0.27290
C6 C 0.2091(2) 0.6227(2) 0.40692(10)
C7 C 0.2188(2) 0.5594(2) 0.57312(10)
H4 H 0.15220 0.68850 0.58600
C8 C 0.2547(2) 0.4923(2) 0.72493(10)
C9 C 0.3203(3) 0.3477(2) 0.78851(10)
H5 H 0.37740 0.22160 0.77010
C10 C 0.3043(3) 0.3831(2) 0.87813(10)
C11 C 0.2178(3) 0.5699(2) 0.90339(10)
C12 C 0.1518(3) 0.7191(2) 0.8412(1)
C13 C 0.1721(3) 0.6775(2) 0.75283(10)
H6 H 0.12900 0.77700 0.70990
C14 C 0.3803(3) 0.2269(2) 0.94667(11)
H7 H 0.49080 0.24460 0.98010
H8 H 0.44110 0.10640 0.91730
H9 H 0.25850 0.22810 0.98720
C15 C 0.0626(3) 0.9192(2) 0.87082(11)
H10 H 0.16130 0.93840 0.91040
H11 H -0.07820 0.94450 0.90230
H12 H 0.04690 1.00440 0.81900
N1 N 0.1516(3) 0.8254(2) 0.41570(9)
N2 N 0.3241(2) 0.3120(2) 0.21695(9)
N3 N 0.2822(2) 0.43787(18) 0.63562(8)
O1 O 0.0320(4) 0.9284(2) 0.36319(10)
O2 O 0.2298(2) 0.88109(17) 0.47320(9)
O3 O 0.2788(2) 0.43228(18) 0.15743(7)
O4 O 0.3908(2) 0.14354(19) 0.20500(8)
O5 O 0.1950(2) 0.61870(17) 0.98991(7)
H13 H 0.23780 0.52320 1.01960
#END
