
#######################################################################
#
#                 Cambridge Crystallographic Data Centre
#                                CCDC
#
#######################################################################
#
# If this CIF has been generated from an entry in the Cambridge
# Structural Database, then it will include bibliographic, chemical,
# crystal, experimental, refinement or atomic coordinate data resulting
# from the CCDC's data processing and validation procedures.
#
#######################################################################

data_CSD_CIF_OYOYIM
_audit_creation_date 2016-11-16
_audit_creation_method CSD-ConQuest-V1
_database_code_CSD OYOYIM
_database_code_depnum_ccdc_archive 'CCDC 1504722'
_chemical_formula_sum 'C26 H19 N1 O3'
_chemical_formula_moiety
;
C26 H19 N1 O3
;
_journal_coden_Cambridge 1326
_journal_volume 18
_journal_year 2016
_journal_page_first 32256
_journal_name_full 'Phys.Chem.Chem.Phys.(PCCP) '
loop_
_publ_author_name
"R.I.Stock"
"C.E.A.de Melo"
"A.D.S.Schramm"
"C.R.Nicoleti"
"A.J.Bortoluzzi"
"R.da S.Heying"
"V.G.Machado"
"M.C.Rezende"
_chemical_name_systematic
;
(E)-2,6-Diphenyl-4-(4-nitrostyryl)phenol
;
_cell_volume   1941.664
_exptl_crystal_colour 'yellow'
_exptl_crystal_density_diffrn 1.346
_exptl_crystal_description 'plate-like'
_exptl_crystal_preparation 'Ethanol'
_diffrn_ambient_temperature 200
#These two values have been output from a single CSD field.
_refine_ls_R_factor_gt 0.0494
_refine_ls_wR_factor_gt 0.0494
_symmetry_cell_setting monoclinic
_symmetry_space_group_name_H-M 'P 21/c'
_symmetry_Int_Tables_number 14
loop_
_symmetry_equiv_pos_site_id
_symmetry_equiv_pos_as_xyz
1 x,y,z
2 -x,1/2+y,1/2-z
3 -x,-y,-z
4 x,-1/2-y,-1/2+z
_cell_length_a 11.8923(3)
_cell_length_b 12.9590(3)
_cell_length_c 12.7118(3)
_cell_angle_alpha 90
_cell_angle_beta 97.638(1)
_cell_angle_gamma 90
_cell_formula_units_Z 4
loop_
_atom_type_symbol
_atom_type_radius_bond
C 0.68
H 0.23
N 0.68
O 0.68
loop_
_atom_site_label
_atom_site_type_symbol
_atom_site_fract_x
_atom_site_fract_y
_atom_site_fract_z
C1 C 0.09377(11) -0.10308(10) -0.10286(10)
C2 C 0.06099(13) -0.20345(11) -0.13238(11)
H1 H 0.07198 -0.25715 -0.08116
C3 C 0.01286(13) -0.22625(11) -0.23468(11)
H2 H -0.01127 -0.29446 -0.25346
C4 C 0.00046(11) -0.14802(11) -0.3092(1)
C5 C 0.03740(13) -0.04819(11) -0.28506(10)
H3 H 0.03098 0.00401 -0.33800
C6 C 0.08393(13) -0.02675(11) -0.18154(11)
H4 H 0.10970 0.04118 -0.16358
C7 C 0.13755(11) -0.08218(10) 0.00865(10)
H5 H 0.14921 -0.13975 0.05507
C8 C 0.16220(11) 0.01058(11) 0.05001(10)
H6 H 0.14487 0.06787 0.00408
C9 C 0.21317(10) 0.03415(10) 0.15869(9)
C10 C 0.25085(11) 0.13453(10) 0.18132(9)
H7 H 0.23615 0.18573 0.12778
C11 C 0.30934(10) 0.16275(10) 0.27960(9)
C12 C 0.32921(11) 0.08644(10) 0.35831(9)
C13 C 0.28573(11) -0.01399(10) 0.34090(9)
C14 C 0.22926(11) -0.03862(10) 0.24098(9)
H8 H 0.20084 -0.10662 0.22820
C15 C 0.35245(11) 0.27027(10) 0.29618(9)
C16 C 0.30560(11) -0.09458(10) 0.42491(9)
C17 C 0.39901(12) 0.32085(11) 0.21509(10)
H9 H 0.40309 0.28581 0.15006
C18 C 0.28430(13) -0.07624(11) 0.52858(10)
H10 H 0.25442 -0.01155 0.54650
C19 C 0.43937(13) 0.42098(11) 0.22743(12)
H11 H 0.46977 0.45426 0.17088
C20 C 0.30666(14) -0.15246(12) 0.60609(11)
H12 H 0.29141 -0.13945 0.67637
C21 C 0.43538(13) 0.47247(11) 0.32216(12)
H13 H 0.46498 0.54042 0.33155
C22 C 0.35081(13) -0.24670(11) 0.58141(11)
H14 H 0.36813 -0.29760 0.63489
C23 C 0.38806(13) 0.42462(11) 0.40331(12)
H15 H 0.38411 0.46037 0.46796
C24 C 0.36959(13) -0.26635(11) 0.47822(12)
H16 H 0.39834 -0.33155 0.46043
C25 C 0.34638(12) 0.32469(11) 0.39062(10)
H17 H 0.31341 0.29285 0.44649
C26 C 0.34660(12) -0.19119(10) 0.40057(10)
H18 H 0.35899 -0.20583 0.32979
N1 N -0.05472(11) -0.17101(10) -0.41626(9)
O1 O -0.06374(13) -0.10263(10) -0.48283(9)
O2 O -0.09006(12) -0.25892(10) -0.43506(9)
O3 O 0.39542(9) 0.10521(8) 0.45306(7)
H19 H 0.43656 0.15946 0.44650
#END
