
#######################################################################
#
#                 Cambridge Crystallographic Data Centre
#                                CCDC
#
#######################################################################
#
# If this CIF has been generated from an entry in the Cambridge
# Structural Database, then it will include bibliographic, chemical,
# crystal, experimental, refinement or atomic coordinate data resulting
# from the CCDC's data processing and validation procedures.
#
#######################################################################

data_CSD_CIF_OZERIW
_audit_creation_date 2016-11-17
_audit_creation_method CSD-ConQuest-V1
_database_code_CSD OZERIW
_database_code_depnum_ccdc_archive 'CCDC 1490377'
_chemical_formula_sum 'C15 H16 N2 O5'
_chemical_formula_moiety
;
C15 H16 N2 O5
;
_journal_coden_Cambridge 1600
_journal_volume 1099
_journal_year 2017
_journal_page_first 75
_journal_name_full 'Comp.Theo.Chem. '
loop_
_publ_author_name
"H.R.Memarian"
"M.Kalantari"
"H.A.Rudbari"
"H.Sabzyan"
"G.Bruno"
_chemical_name_systematic
;
ethyl 
2-methyl-4-(3-nitrophenyl)-6-oxo-1,4,5,6-tetrahydropyridine-3-carboxylate
;
_cell_volume   1483.227
_exptl_crystal_colour 'colorless'
_exptl_crystal_density_diffrn 1.363
_exptl_crystal_description 'irregular'
_diffrn_ambient_temperature 298
#These two values have been output from a single CSD field.
_refine_ls_R_factor_gt 0.0727
_refine_ls_wR_factor_gt 0.0727
_symmetry_cell_setting monoclinic
_symmetry_space_group_name_H-M 'P 21/c'
_symmetry_Int_Tables_number 14
loop_
_symmetry_equiv_pos_site_id
_symmetry_equiv_pos_as_xyz
1 x,y,z
2 -x,1/2+y,1/2-z
3 -x,-y,-z
4 x,-1/2-y,-1/2+z
_cell_length_a 8.4730(17)
_cell_length_b 21.717(4)
_cell_length_c 9.0180(18)
_cell_angle_alpha 90
_cell_angle_beta 116.64(3)
_cell_angle_gamma 90
_cell_formula_units_Z 4
loop_
_atom_type_symbol
_atom_type_radius_bond
C 0.68
H 0.23
N 0.68
O 0.68
loop_
_atom_site_label
_atom_site_type_symbol
_atom_site_fract_x
_atom_site_fract_y
_atom_site_fract_z
O1 O 0.4539(4) 0.88965(13) 0.7472(3)
O2 O 0.3752(5) 0.98731(14) 0.7432(3)
O3 O 0.1189(3) 0.92960(11) -0.0176(3)
C1 C 0.1455(5) 1.04023(16) 0.4307(4)
H1 H 0.06970 1.06280 0.32950
H2 H 0.25110 1.06470 0.49690
H3 H 0.08060 1.03250 0.49550
C2 C 0.2679(5) 0.76527(16) 0.3578(5)
H4 H 0.37910 0.76060 0.35720
O4 O -0.2625(4) 0.83155(15) 0.3970(6)
C3 C 0.2180(4) 0.82364(13) 0.3887(3)
C4 C 0.3417(4) 0.87777(14) 0.4119(4)
H5 H 0.46380 0.86400 0.48960
N1 N 0.1277(4) 0.97278(12) 0.2132(3)
C5 C 0.1989(4) 0.98019(14) 0.3852(4)
O5 O -0.3250(6) 0.7414(2) 0.3082(9)
N2 N -0.2240(4) 0.78400(15) 0.3559(5)
C6 C -0.0501(4) 0.77735(15) 0.3577(4)
C7 C 0.0559(4) 0.82904(14) 0.3892(4)
H6 H 0.01760 0.86760 0.41070
C8 C 0.3028(4) 0.93527(13) 0.4868(4)
C9 C 0.3796(5) 0.94211(16) 0.6685(4)
C10 C 0.5313(6) 0.8900(2) 0.9306(5)
H7 H 0.46030 0.91690 0.96640
H8 H 0.52960 0.84780 0.97140
C11 C 0.7070(7) 0.9118(3) 0.9982(7)
H9 H 0.75750 0.91220 1.11960
H10 H 0.70800 0.95360 0.95790
H11 H 0.77720 0.88460 0.96410
C12 C 0.3427(4) 0.89436(14) 0.2467(4)
H12 H 0.45180 0.91760 0.27010
H13 H 0.34530 0.85590 0.18890
C13 C 0.1866(4) 0.93183(13) 0.1343(4)
C14 C 0.1598(6) 0.71446(17) 0.3281(6)
H14 H 0.19750 0.67550 0.30790
C15 C -0.0026(5) 0.72006(17) 0.3275(5)
H15 H -0.07860 0.68560 0.30700
H16 H 0.050(5) 0.9946(19) 0.155(5)
H17? H 0.19790 1.04380 0.55180
H18? H 0.01650 1.04200 0.38440
H19? H 0.18700 1.07420 0.38570
#END
