
#######################################################################
#
#                 Cambridge Crystallographic Data Centre
#                                CCDC
#
#######################################################################
#
# If this CIF has been generated from an entry in the Cambridge
# Structural Database, then it will include bibliographic, chemical,
# crystal, experimental, refinement or atomic coordinate data resulting
# from the CCDC's data processing and validation procedures.
#
#######################################################################

data_CSD_CIF_OZIKIS
_audit_creation_date 2011-11-21
_audit_creation_method CSD-ConQuest-V1
_database_code_CSD OZIKIS
_database_code_depnum_ccdc_archive 'CCDC 794588'
_chemical_formula_sum 'C15 H20 N2 O2'
_chemical_formula_moiety
;
C15 H20 N2 O2
;
_journal_coden_Cambridge 4
_journal_volume 133
_journal_year 2011
_journal_page_first 7096
_journal_name_full 'J.Am.Chem.Soc. '
loop_
_publ_author_name
"H.Oguri"
"T.Hiruma"
"Y.Yamagishi"
"H.Oikawa"
"A.Ishiyama"
"K.Otoguro"
"H.Yamada"
"S.Omura"
_chemical_name_systematic
;
(1S,4aS,8R,8aS)-8-hydroxy-4'-methyl-3,4,4a,5,6,7,8,8a-octahydro-2H-spiro[napht
halene-1,6'-[1,2]oxazine]-4a-carbonitrile
;
_cell_volume   1364.250
_exptl_crystal_colour 'colorless'
_exptl_crystal_density_diffrn 1.267
_exptl_special_details
;
Absolute configuration

;
_exptl_crystal_description 'block'
_diffrn_ambient_temperature 173
#These two values have been output from a single CSD field.
_refine_ls_R_factor_gt 0.0317
_refine_ls_wR_factor_gt 0.0317
_symmetry_cell_setting orthorhombic
_symmetry_space_group_name_H-M 'P 21 21 21'
_symmetry_Int_Tables_number 19
loop_
_symmetry_equiv_pos_site_id
_symmetry_equiv_pos_as_xyz
1 x,y,z
2 1/2+x,1/2-y,-z
3 -x,1/2+y,1/2-z
4 1/2-x,-y,1/2+z
_cell_length_a 8.15817(15)
_cell_length_b 12.4378(2)
_cell_length_c 13.4449(3)
_cell_angle_alpha 90
_cell_angle_beta 90
_cell_angle_gamma 90
_cell_formula_units_Z 4
loop_
_atom_type_symbol
_atom_type_radius_bond
C 0.68
H 0.23
N 0.68
O 0.68
loop_
_atom_site_label
_atom_site_type_symbol
_atom_site_fract_x
_atom_site_fract_y
_atom_site_fract_z
O1 O 0.30182(15) 0.63404(9) 0.53615(8)
H1 H 0.29130 0.63910 0.59970
O2 O 0.19199(15) 0.46320(9) 0.26354(8)
N1 N 0.5529(2) 0.49856(16) 0.16633(12)
N2 N 0.20094(19) 0.35023(12) 0.26035(11)
C1 C 0.1946(2) 0.51546(13) 0.36126(11)
C2 C 0.37223(19) 0.51147(13) 0.40270(11)
H2 H 0.41030 0.43570 0.39370
C3 C 0.3790(2) 0.53365(14) 0.51570(11)
H3 H 0.31610 0.47580 0.55050
C4 C 0.5543(2) 0.53217(14) 0.55454(13)
H4 H 0.55420 0.55020 0.62630
H5 H 0.60020 0.45900 0.54690
C5 C 0.6617(2) 0.61193(15) 0.49901(13)
H6 H 0.61820 0.68560 0.50800
H7 H 0.77440 0.60990 0.52630
C6 C 0.6653(2) 0.58420(16) 0.38945(13)
H8 H 0.71670 0.51270 0.38090
H9 H 0.73400 0.63750 0.35410
C7 C 0.4920(2) 0.58252(14) 0.34152(12)
C8 C 0.5190(2) 0.53381(15) 0.24184(14)
C9 C 0.4247(2) 0.69687(14) 0.32616(14)
H10 H 0.41730 0.73370 0.39130
H11 H 0.50140 0.73810 0.28370
C10 C 0.2564(2) 0.69531(16) 0.27767(14)
H12 H 0.26560 0.66460 0.20990
H13 H 0.21520 0.76990 0.27140
C11 C 0.1349(2) 0.62893(14) 0.33823(13)
H14 H 0.11260 0.66670 0.40160
H15 H 0.03030 0.62420 0.30110
C12 C 0.1373(2) 0.30126(15) 0.33421(13)
H16 H 0.14460 0.22500 0.33490
C13 C 0.0545(2) 0.35260(14) 0.41753(13)
C14 C -0.0526(3) 0.28556(17) 0.48382(16)
H17 H -0.13620 0.24940 0.44370
H18 H -0.10590 0.33190 0.53310
H19 H 0.01460 0.23170 0.51800
C15 C 0.0786(2) 0.45715(14) 0.42895(12)
H20 H 0.02250 0.49520 0.47990
#END
