
#######################################################################
#
#                 Cambridge Crystallographic Data Centre
#                                CCDC
#
#######################################################################
#
# If this CIF has been generated from an entry in the Cambridge
# Structural Database, then it will include bibliographic, chemical,
# crystal, experimental, refinement or atomic coordinate data resulting
# from the CCDC's data processing and validation procedures.
#
#######################################################################

data_CSD_CIF_OZUJEA
_audit_creation_date 2016-11-17
_audit_creation_method CSD-ConQuest-V1
_database_code_CSD OZUJEA
_database_code_depnum_ccdc_archive 'CCDC 1026371'
_chemical_formula_sum 'C18 H15 N3 O2'
_chemical_formula_moiety
;
C18 H15 N3 O2
;
_journal_coden_Cambridge 423
_journal_volume 39
_journal_year 2015
_journal_page_first 63
_journal_name_full 'J.Chem.Res. '
loop_
_publ_author_name
"M.John Plater"
"W.T.A.Harrison"
_chemical_name_systematic
;
4-nitro-N,N'-diphenylbenzene-1,3-diamine unknown solvate
;
_cell_volume   5246.257
_exptl_crystal_colour 'yellow'
_exptl_crystal_density_diffrn 1.16
_exptl_crystal_description 'needle'
_exptl_crystal_preparation 'ether/petroleum ether'
_diffrn_ambient_temperature 293
_diffrn_radiation_probe x-ray
_diffrn_source synchrotron
_refine_special_details
;
Disordered solvent molecules were not modelled and the disordered density was 
taken into account using the SQUEEZE/PLATON procedure.
;
#These two values have been output from a single CSD field.
_refine_ls_R_factor_gt 0.1894
_refine_ls_wR_factor_gt 0.1894
_symmetry_cell_setting hexagonal
_symmetry_space_group_name_H-M 'P 6 c c'
_symmetry_Int_Tables_number 184
loop_
_symmetry_equiv_pos_site_id
_symmetry_equiv_pos_as_xyz
1 x,y,z
2 x-y,x,z
3 -y,x-y,z
4 -x,-y,z
5 -x+y,-x,z
6 y,-x+y,z
7 -x+y,y,1/2+z
8 x,x-y,1/2+z
9 -y,-x,1/2+z
10 y,x,1/2+z
11 x-y,-y,1/2+z
12 -x,-x+y,1/2+z
_cell_length_a 28.807(16)
_cell_length_b 28.807(16)
_cell_length_c 7.300(4)
_cell_angle_alpha 90
_cell_angle_beta 90
_cell_angle_gamma 120
_cell_formula_units_Z 12
loop_
_atom_type_symbol
_atom_type_radius_bond
C 0.68
H 0.23
N 0.68
O 0.68
loop_
_atom_site_label
_atom_site_type_symbol
_atom_site_fract_x
_atom_site_fract_y
_atom_site_fract_z
C1 C 0.8049(2) 0.1211(2) 0.2243(15)
C2 C 0.7925(2) 0.1619(3) 0.2271(18)
C3 C 0.8332(3) 0.2152(3) 0.2212(18)
H1 H 0.82490 0.24250 0.22300
C4 C 0.8864(3) 0.2277(2) 0.2124(17)
C5 C 0.8989(2) 0.1869(3) 0.2096(19)
H2 H 0.93450 0.19520 0.20370
C6 C 0.8582(3) 0.1336(3) 0.2155(18)
H3 H 0.86650 0.10630 0.21360
C7 C 0.7136(3) 0.1800(3) 0.2283(15)
C8 C 0.6693(3) 0.1606(3) 0.3430(16)
H4 H 0.66050 0.13140 0.41880
C9 C 0.6379(3) 0.1848(5) 0.344(2)
H5 H 0.60830 0.17190 0.42110
C10 C 0.6510(4) 0.2285(5) 0.231(3)
H6 H 0.63000 0.24470 0.23200
C11 C 0.6953(5) 0.2478(4) 0.116(2)
H7 H 0.70410 0.27700 0.04060
C12 C 0.7267(3) 0.2236(3) 0.1150(16)
H8 H 0.75630 0.23660 0.03830
C13 C 0.93167(19) 0.3305(2) 0.2142(15)
C14 C 0.8965(2) 0.3367(2) 0.3285(14)
H9 H 0.87340 0.30870 0.40450
C15 C 0.8960(3) 0.3847(2) 0.3292(16)
H10 H 0.87250 0.38880 0.40570
C16 C 0.9306(3) 0.4265(2) 0.2156(18)
H11 H 0.93030 0.45860 0.21600
C17 C 0.9658(3) 0.4203(2) 0.1013(16)
H12 H 0.98890 0.44830 0.02520
C18 C 0.9663(2) 0.3723(2) 0.1006(16)
H13 H 0.98980 0.36820 0.02410
N1 N 0.7431(3) 0.1517(3) 0.244(2)
H14 H 0.72210 0.11860 0.27160
N2 N 0.9260(4) 0.2779(4) 0.204(2)
H15 H 0.95640 0.27970 0.18880
N3 N 0.7661(5) 0.0614(5) 0.2051(4)
O1 O 0.7163(4) 0.0470(4) 0.222(2)
O2 O 0.7812(7) 0.0297(5) 0.176(3)
#END
