
#######################################################################
#
#                 Cambridge Crystallographic Data Centre
#                                CCDC
#
#######################################################################
#
# If this CIF has been generated from an entry in the Cambridge
# Structural Database, then it will include bibliographic, chemical,
# crystal, experimental, refinement or atomic coordinate data resulting
# from the CCDC's data processing and validation procedures.
#
#######################################################################

data_CSD_CIF_OZUPIK
_audit_creation_date 2016-11-17
_audit_creation_method CSD-ConQuest-V1
_database_code_CSD OZUPIK
_database_code_depnum_ccdc_archive 'CCDC 1043523'
_chemical_formula_sum 'C16 H18 N2 O2'
_chemical_formula_moiety
;
C16 H18 N2 O2
;
_journal_coden_Cambridge 1220
_journal_volume 22
_journal_year 2016
_journal_page_first 16986
_journal_name_full 'Chem.-Eur.J. '
loop_
_publ_author_name
"Riki Das"
"M.Kapur"
_chemical_name_systematic
;
(E)-3-(2-(1,2-oxazepane-2-carbonyl)phenyl)acrylonitrile
;
_cell_volume   1390.717
_exptl_crystal_colour 'white'
_exptl_crystal_density_diffrn 1.296
_exptl_crystal_description 'char'
_exptl_crystal_preparation 'chloroform'
_diffrn_ambient_temperature 296
#These two values have been output from a single CSD field.
_refine_ls_R_factor_gt 0.0379
_refine_ls_wR_factor_gt 0.0379
_symmetry_cell_setting orthorhombic
_symmetry_space_group_name_H-M 'P 21 21 21'
_symmetry_Int_Tables_number 19
loop_
_symmetry_equiv_pos_site_id
_symmetry_equiv_pos_as_xyz
1 x,y,z
2 1/2+x,1/2-y,-z
3 -x,1/2+y,1/2-z
4 1/2-x,-y,1/2+z
_cell_length_a 7.2775(3)
_cell_length_b 7.4754(3)
_cell_length_c 25.5636(10)
_cell_angle_alpha 90
_cell_angle_beta 90
_cell_angle_gamma 90
_cell_formula_units_Z 4
loop_
_atom_type_symbol
_atom_type_radius_bond
C 0.68
H 0.23
N 0.68
O 0.68
loop_
_atom_site_label
_atom_site_type_symbol
_atom_site_fract_x
_atom_site_fract_y
_atom_site_fract_z
O1 O 0.50762(19) 0.24949(18) 0.85856(5)
O2 O 0.65729(17) 0.69290(19) 0.85800(5)
N1 N 0.6125(2) 0.3999(2) 0.87143(6)
C1 C -0.0654(3) 0.6155(3) 0.71184(8)
H1 H -0.17700 0.58620 0.73000
H2 H -0.05010 0.53630 0.68260
H3 H -0.07160 0.73670 0.69960
C2 C 0.4826(3) 0.0746(3) 0.93955(8)
H4 H 0.51390 -0.03450 0.92100
H5 H 0.39680 0.04330 0.96710
C3 C 0.3882(3) 0.2005(3) 0.90189(8)
H6 H 0.27830 0.14370 0.88830
H7 H 0.35110 0.30780 0.92040
C4 C 0.5636(2) 0.5578(3) 0.85064(7)
C5 C 0.3944(2) 0.5627(3) 0.81702(7)
C6 C 0.2286(2) 0.6348(3) 0.83548(7)
C7 C 0.2140(2) 0.6938(3) 0.89013(7)
H8 H 0.31980 0.68900 0.91040
C8 C 0.0608(3) 0.7538(3) 0.91304(7)
H9 H -0.04730 0.75890 0.89370
C9 C 0.0581(2) 0.8105(3) 0.96642(7)
N2 N 0.0499(2) 0.8581(3) 1.00905(7)
C10 C 0.4079(3) 0.5043(3) 0.76530(8)
H10 H 0.51670 0.45290 0.75350
C11 C 0.2610(3) 0.5223(3) 0.73150(8)
H11 H 0.27250 0.48510 0.69690
C12 C 0.0958(3) 0.5954(3) 0.74863(7)
C13 C 0.0806(3) 0.6482(3) 0.80054(7)
H12 H -0.03080 0.69370 0.81250
C14 C 0.7873(3) 0.3753(3) 0.89901(8)
H13 H 0.79850 0.46650 0.92580
H14 H 0.88740 0.39180 0.87440
C15 C 0.8056(3) 0.1927(3) 0.92430(8)
H15 H 0.92420 0.18560 0.94150
H16 H 0.80330 0.10220 0.89710
C16 C 0.6556(3) 0.1495(3) 0.96437(8)
H17 H 0.70310 0.06330 0.98930
H18 H 0.62470 0.25760 0.98340
#END
