
#######################################################################
#
#                 Cambridge Crystallographic Data Centre
#                                CCDC
#
#######################################################################
#
# If this CIF has been generated from an entry in the Cambridge
# Structural Database, then it will include bibliographic, chemical,
# crystal, experimental, refinement or atomic coordinate data resulting
# from the CCDC's data processing and validation procedures.
#
#######################################################################

data_CSD_CIF_OZUQIL
_audit_creation_date 2016-11-17
_audit_creation_method CSD-ConQuest-V1
_database_code_CSD OZUQIL
_database_code_depnum_ccdc_archive 'CCDC 813671'
_chemical_formula_sum 'C24 H21 N5 O3'
_chemical_formula_moiety
;
C24 H21 N5 O3
;
_journal_coden_Cambridge 388
_journal_volume 48
_journal_year 2012
_journal_page_first 281
_journal_name_full 'Zh.Org.Khim.(Russ.)(Russ.J.Org.Chem.) '
loop_
_publ_author_name
"V.V.Lipson"
"N.V.Svetlichnaya"
"M.G.Shirobokov"
"V.I.Musatov"
"O.V.Shishkin"
"S.V.Shishkina"
_chemical_name_systematic
;
3-amino-7,7-dimethyl-10-(4-nitrophenyl)-1-phenyl-7,8-dihydroimidazo[1,5-b]cinn
olin-9(6H)-one
;
_cell_volume   2091.613
_exptl_crystal_colour 'colorless'
_exptl_crystal_density_diffrn 1.357
_exptl_crystal_description 'stick'
_diffrn_ambient_temperature 293
#These two values have been output from a single CSD field.
_refine_ls_R_factor_gt 0.0552
_refine_ls_wR_factor_gt 0.0552
_symmetry_cell_setting monoclinic
_symmetry_space_group_name_H-M 'P 21/c'
_symmetry_Int_Tables_number 14
loop_
_symmetry_equiv_pos_site_id
_symmetry_equiv_pos_as_xyz
1 x,y,z
2 -x,1/2+y,1/2-z
3 -x,-y,-z
4 x,-1/2-y,-1/2+z
_cell_length_a 9.2446(16)
_cell_length_b 9.8782(17)
_cell_length_c 23.185(4)
_cell_angle_alpha 90
_cell_angle_beta 98.926(16)
_cell_angle_gamma 90
_cell_formula_units_Z 4
loop_
_atom_type_symbol
_atom_type_radius_bond
C 0.68
H 0.23
N 0.68
O 0.68
loop_
_atom_site_label
_atom_site_type_symbol
_atom_site_fract_x
_atom_site_fract_y
_atom_site_fract_z
O1 O 0.7211(2) 0.7924(2) 0.37515(10)
O2 O 0.2879(3) 0.6665(3) 0.12732(11)
O3 O 0.4869(3) 0.5477(3) 0.13572(11)
N1 N 0.4439(2) 0.6793(2) 0.52511(9)
N2 N 0.3332(2) 0.6323(2) 0.48426(9)
N3 N 0.1209(2) 0.5441(2) 0.44722(9)
N4 N 0.1730(3) 0.5807(3) 0.55051(12)
H1 H 0.079(4) 0.555(4) 0.5539(16)
H2 H 0.218(3) 0.634(3) 0.5759(13)
N5 N 0.3963(4) 0.6158(3) 0.15597(12)
C1 C 0.2046(3) 0.5872(2) 0.49575(12)
C2 C 0.2003(3) 0.5615(2) 0.40221(11)
C3 C 0.3344(2) 0.6196(2) 0.42381(10)
C4 C 0.4590(3) 0.6696(2) 0.40286(11)
C5 C 0.5732(3) 0.7180(2) 0.44303(11)
C6 C 0.7084(3) 0.7747(3) 0.42597(14)
C7 C 0.8318(3) 0.8045(3) 0.47339(13)
H3 H 0.89800 0.86720 0.45860
H4 H 0.88540 0.72130 0.48370
C8 C 0.7863(3) 0.8645(3) 0.52856(12)
C9 C 0.6823(3) 0.7651(3) 0.54963(12)
H5 H 0.73770 0.68640 0.56520
H6 H 0.64120 0.80640 0.58140
C10 C 0.5592(3) 0.7187(2) 0.50442(11)
C11 C 0.9189(3) 0.8789(3) 0.57653(14)
H7 H 0.88870 0.91890 0.61050
H8 H 0.99080 0.93570 0.56290
H9 H 0.96030 0.79130 0.58630
C12 C 0.7145(4) 1.0021(3) 0.51528(14)
H10 H 0.68290 1.03720 0.54990
H11 H 0.63150 0.99250 0.48500
H12 H 0.78380 1.06330 0.50260
C13 C 0.1406(3) 0.5160(3) 0.34335(12)
C14 C 0.0052(3) 0.5591(3) 0.31642(14)
H13 H -0.05160 0.61440 0.33640
C15 C -0.0466(4) 0.5198(4) 0.25941(17)
H14 H -0.13740 0.55050 0.24120
C16 C 0.0350(4) 0.4361(4) 0.22971(16)
H15 H 0.00020 0.41110 0.19140
C17 C 0.1663(4) 0.3901(3) 0.25651(13)
H16 H 0.22080 0.33190 0.23680
C18 C 0.2196(3) 0.4290(3) 0.31287(12)
H17 H 0.30990 0.39660 0.33080
C19 C 0.4546(3) 0.6649(2) 0.33837(11)
C20 C 0.3477(3) 0.7356(3) 0.30309(12)
H18 H 0.28720 0.79390 0.32000
C21 C 0.3279(3) 0.7221(3) 0.24306(13)
H19 H 0.25470 0.76980 0.21940
C22 C 0.4187(3) 0.6368(3) 0.21957(12)
C23 C 0.5278(3) 0.5668(3) 0.25298(13)
H20 H 0.58940 0.51070 0.23560
C24 C 0.5461(3) 0.5801(3) 0.31285(12)
H21 H 0.61970 0.53220 0.33610
#END
