
#######################################################################
#
#                 Cambridge Crystallographic Data Centre
#                                CCDC
#
#######################################################################
#
# If this CIF has been generated from an entry in the Cambridge
# Structural Database, then it will include bibliographic, chemical,
# crystal, experimental, refinement or atomic coordinate data resulting
# from the CCDC's data processing and validation procedures.
#
#######################################################################

data_CSD_CIF_PABBOL
_audit_creation_date 2011-02-04
_audit_creation_method CSD-ConQuest-V1
_database_code_CSD PABBOL
_database_code_depnum_ccdc_archive 'CCDC 752992'
_chemical_formula_sum 'C20 H14 N4 O4'
_chemical_formula_moiety
;
C20 H14 N4 O4
;
_journal_coden_Cambridge 1488
_journal_volume 26
_journal_year 2010
_journal_page_first 55
_journal_name_full 'X-ray.Str.Anal.Online. '
loop_
_publ_author_name
"S.Fukuyoshi"
"T.Ooi"
"R.Nakagaki"
_chemical_name_systematic
;
2-(1-(2,4-Dinitrophenyl)ethyl)-1,10-phenanthroline
;
_cell_volume   1734.124
_exptl_crystal_colour 'colorless'
_exptl_crystal_density_diffrn 1.434
_exptl_crystal_description 'needle'
_diffrn_ambient_temperature 173
#These two values have been output from a single CSD field.
_refine_ls_R_factor_gt 0.06
_refine_ls_wR_factor_gt 0.06
_symmetry_cell_setting monoclinic
_symmetry_space_group_name_H-M 'P 21/n'
_symmetry_Int_Tables_number 14
loop_
_symmetry_equiv_pos_site_id
_symmetry_equiv_pos_as_xyz
1 x,y,z
2 1/2-x,1/2+y,1/2-z
3 -x,-y,-z
4 -1/2+x,-1/2-y,-1/2+z
_cell_length_a 15.477(2)
_cell_length_b 5.1818(6)
_cell_length_c 21.754(2)
_cell_angle_alpha 90
_cell_angle_beta 96.295(3)
_cell_angle_gamma 90
_cell_formula_units_Z 4
loop_
_atom_type_symbol
_atom_type_radius_bond
C 0.68
H 0.23
N 0.68
O 0.68
loop_
_atom_site_label
_atom_site_type_symbol
_atom_site_fract_x
_atom_site_fract_y
_atom_site_fract_z
O1 O 0.2943(1) 0.3150(5) 0.3463(1)
O2 O 0.3108(1) 0.0805(5) 0.2654(1)
O3 O 0.3879(3) 0.5881(9) 0.0904(2)
O4 O 0.4617(2) 0.9386(9) 0.1085(1)
N1 N 0.5936(1) 0.3610(5) 0.3874(1)
N2 N 0.6871(2) -0.0074(6) 0.3319(1)
N3 N 0.3278(2) 0.2696(6) 0.2975(2)
N4 N 0.4261(3) 0.735(1) 0.1248(2)
C1 C 0.4543(2) 0.5663(6) 0.3885(1)
C2 C 0.4445(2) 0.6007(6) 0.3191(1)
C3 C 0.4943(2) 0.7905(7) 0.2936(2)
C4 C 0.7281(2) 0.1313(7) 0.3786(2)
C5 C 0.5501(2) 0.5503(6) 0.4128(1)
C6 C 0.4345(2) 0.6922(9) 0.1924(2)
C7 C 0.6796(2) 0.3305(6) 0.4078(1)
C8 C 0.3883(2) 0.4617(6) 0.2769(2)
C9 C 0.5898(2) 0.7141(7) 0.4585(1)
C10 C 0.6747(2) 0.6801(7) 0.4805(1)
C11 C 0.4054(2) 0.7833(6) 0.4171(1)
C12 C 0.3838(2) 0.4987(8) 0.2132(2)
C13 C 0.7318(2) -0.1915(7) 0.3068(2)
C14 C 0.7223(2) 0.4831(7) 0.4554(1)
C15 C 0.8166(2) 0.0889(7) 0.4016(2)
C16 C 0.8564(2) 0.2415(9) 0.4516(2)
C17 C 0.8125(2) 0.4284(8) 0.4770(2)
C18 C 0.4886(2) 0.8388(8) 0.2317(2)
C19 C 0.8189(2) -0.2467(8) 0.3259(2)
C20 C 0.8606(2) -0.1062(8) 0.3722(2)
H1 H 0.42760 0.40830 0.39800
H2 H 0.53390 0.88940 0.32050
H3 H 0.55710 0.84780 0.47490
H4 H 0.70200 0.78940 0.51190
H5 H 0.34700 0.39390 0.18570
H6 H 0.70310 -0.29030 0.27390
H7 H 0.91470 0.20640 0.46780
H8 H 0.84130 0.52980 0.50950
H9 H 0.52230 0.97130 0.21580
H10 H 0.84810 -0.37970 0.30630
H11 H 0.91970 -0.14330 0.38590
H12 H 0.42860 0.94440 0.40610
H13 H 0.34540 0.77550 0.40230
H14 H 0.41220 0.76590 0.46090
#END
