
#######################################################################
#
#                 Cambridge Crystallographic Data Centre
#                                CCDC
#
#######################################################################
#
# If this CIF has been generated from an entry in the Cambridge
# Structural Database, then it will include bibliographic, chemical,
# crystal, experimental, refinement or atomic coordinate data resulting
# from the CCDC's data processing and validation procedures.
#
#######################################################################

data_CSD_CIF_PABBOJ
_audit_creation_date 1992-11-16
_audit_creation_method CSD-ConQuest-V1
_database_code_CSD PABBOJ
_chemical_formula_sum 'C12 H4 N8 O10'
_chemical_formula_moiety
;
C12 H4 N8 O10
;
_journal_coden_Cambridge 154
_journal_volume 45
_journal_year 1992
_journal_page_first 513
_journal_name_full 'Aust.J.Chem. '
loop_
_publ_author_name
"J.L.Flippen-Anderson"
"R.D.Gilardi"
"A.M.Pitt"
"W.S.Wilson"
_chemical_name_systematic
;
5,7-Dinitro-1-picrylbenzotriazole
;
_chemical_melting_point 531.15
_cell_volume   1589.650
_exptl_crystal_colour 'slightly yellow'
_exptl_crystal_density_diffrn 1.756
_exptl_special_details
;
Explosive properties

;
_diffrn_ambient_temperature ?
_diffrn_special_details
;
The study was carried out at room temperature,in the range 283-303K

;
#These two values have been output from a single CSD field.
_refine_ls_R_factor_gt 0.0521
_refine_ls_wR_factor_gt 0.0521
_symmetry_cell_setting monoclinic
_symmetry_space_group_name_H-M 'P 21/c'
_symmetry_Int_Tables_number 14
loop_
_symmetry_equiv_pos_site_id
_symmetry_equiv_pos_as_xyz
1 x,y,z
2 -x,1/2+y,1/2-z
3 -x,-y,-z
4 x,-1/2-y,-1/2+z
_cell_length_a 6.697(2)
_cell_length_b 20.325(5)
_cell_length_c 11.868(3)
_cell_angle_alpha 90
_cell_angle_beta 100.25(2)
_cell_angle_gamma 90
_cell_formula_units_Z 4
loop_
_atom_type_symbol
_atom_type_radius_bond
C 0.68
H 0.23
N 0.68
O 0.68
loop_
_atom_site_label
_atom_site_type_symbol
_atom_site_fract_x
_atom_site_fract_y
_atom_site_fract_z
N1 N 0.2901(6) 0.3576(2) 0.5379(3)
N2 N 0.4262(7) 0.3587(2) 0.4634(3)
N3 N 0.5644(7) 0.4012(2) 0.4983(4)
C1 C 0.5236(7) 0.4292(2) 0.5985(4)
C2 C 0.6349(9) 0.4772(3) 0.6658(5)
C3 C 0.5618(8) 0.4969(2) 0.7604(4)
N4 N 0.6786(9) 0.5465(2) 0.8340(4)
O1 O 0.8319(8) 0.5668(3) 0.8070(4)
O2 O 0.6165(7) 0.5632(2) 0.9192(4)
C4 C 0.3848(9) 0.4722(3) 0.7884(5)
C5 C 0.2764(7) 0.4248(2) 0.7215(4)
N5 N 0.0966(7) 0.3977(3) 0.7569(4)
O3 O 0.0085(7) 0.3536(2) 0.7011(4)
O4 O 0.0422(7) 0.4204(2) 0.8404(4)
C6 C 0.3461(7) 0.4016(2) 0.6241(4)
C7 C 0.1299(7) 0.3102(2) 0.5127(4)
C8 C -0.0435(8) 0.3216(2) 0.4328(4)
N6 N -0.0813(7) 0.3861(2) 0.3762(4)
O5 O -0.0093(6) 0.4350(2) 0.4277(3)
O6 O -0.1900(6) 0.3866(2) 0.2814(3)
C9 C -0.1879(8) 0.2739(3) 0.4040(4)
C10 C -0.1605(8) 0.2143(3) 0.4591(4)
N7 N -0.3176(9) 0.1638(3) 0.4303(5)
O7 O -0.4691(9) 0.1779(3) 0.3629(5)
O8 O -0.2871(7) 0.1105(2) 0.4762(4)
C11 C 0.0071(9) 0.1999(3) 0.5379(5)
C12 C 0.1530(8) 0.2483(3) 0.5623(4)
N8 N 0.3367(9) 0.2319(3) 0.6477(5)
O9 O 0.3102(9) 0.2077(3) 0.7337(4)
O10 O 0.4991(8) 0.2446(3) 0.6250(4)
H1 H 0.7607(70) 0.4918(22) 0.6489(38)
H2 H 0.3456(70) 0.4901(22) 0.8528(38)
H3 H -0.3009(71) 0.2842(22) 0.3527(38)
H4 H 0.0265(74) 0.1615(23) 0.5752(40)
#END
