
#######################################################################
#
#                 Cambridge Crystallographic Data Centre
#                                CCDC
#
#######################################################################
#
# If this CIF has been generated from an entry in the Cambridge
# Structural Database, then it will include bibliographic, chemical,
# crystal, experimental, refinement or atomic coordinate data resulting
# from the CCDC's data processing and validation procedures.
#
#######################################################################

data_CSD_CIF_PABHAB
_audit_creation_date 1992-11-16
_audit_creation_method CSD-ConQuest-V1
_database_code_CSD PABHAB
_chemical_formula_sum 'C14 H7 N7 O10'
_chemical_formula_moiety
;
C14 H7 N7 O10
;
_journal_coden_Cambridge 154
_journal_volume 45
_journal_year 1992
_journal_page_first 525
_journal_name_full 'Aust.J.Chem. '
loop_
_publ_author_name
"A.J.Freyer"
"C.K.Lowe-Ma"
"R.A.Nissan"
"W.S.Wilson"
_chemical_name_systematic
;
2-Methyl-4,6-dinitro-1-(2',4',6'-trinitrophenyl)benzimidazole
;
_chemical_melting_point 563.15
_cell_volume   1736.198
_exptl_crystal_colour 'orange-brown'
_exptl_crystal_density_diffrn 1.658
_exptl_special_details
;
Melts with decomposition.
polymorph I

;
_diffrn_ambient_temperature ?
_diffrn_special_details
;
The study was carried out at room temperature,in the range 283-303K

;
#These two values have been output from a single CSD field.
_refine_ls_R_factor_gt 0.052
_refine_ls_wR_factor_gt 0.052
_symmetry_cell_setting monoclinic
_symmetry_space_group_name_H-M 'P 21/c'
_symmetry_Int_Tables_number 14
loop_
_symmetry_equiv_pos_site_id
_symmetry_equiv_pos_as_xyz
1 x,y,z
2 -x,1/2+y,1/2-z
3 -x,-y,-z
4 x,-1/2-y,-1/2+z
_cell_length_a 11.261(2)
_cell_length_b 9.770(2)
_cell_length_c 16.420(3)
_cell_angle_alpha 90
_cell_angle_beta 106.04(2)
_cell_angle_gamma 90
_cell_formula_units_Z 4
loop_
_atom_type_symbol
_atom_type_radius_bond
C 0.68
H 0.23
N 0.68
O 0.68
loop_
_atom_site_label
_atom_site_type_symbol
_atom_site_fract_x
_atom_site_fract_y
_atom_site_fract_z
C1 C 0.2790(3) 0.5481(3) 0.5916(2)
C2 C 0.3232(3) 0.5168(3) 0.5221(2)
C3 C 0.3415(3) 0.3790(3) 0.5067(2)
C4 C 0.3190(3) 0.2805(3) 0.5608(2)
C5 C 0.2742(3) 0.3187(3) 0.6276(2)
C6 C 0.2519(3) 0.4520(3) 0.6463(2)
C7 C 0.3062(3) 0.7356(3) 0.5228(2)
C8 C 0.3113(4) 0.8839(3) 0.5035(3)
C9 C 0.2068(3) 0.7660(3) 0.6407(2)
C10 C 0.2641(3) 0.7933(3) 0.7251(2)
C11 C 0.2091(3) 0.8666(3) 0.7769(2)
C12 C 0.0932(3) 0.9192(3) 0.7395(2)
C13 C 0.0308(3) 0.8943(3) 0.6557(2)
C14 C 0.0874(3) 0.8158(3) 0.6086(2)
N1 N 0.2689(2) 0.6902(2) 0.5909(2)
N2 N 0.3401(3) 0.6359(3) 0.4807(2)
N3 N 0.2460(3) 0.2098(3) 0.6808(2)
N4 N 0.3802(3) 0.3335(3) 0.4336(2)
N5 N 0.3920(3) 0.7461(3) 0.7621(2)
N6 N 0.0359(3) 1.0119(3) 0.7875(2)
N7 N 0.0149(3) 0.7867(3) 0.5199(2)
O1 O 0.1875(3) 0.2402(3) 0.7305(2)
O2 O 0.2803(3) 0.0940(2) 0.6715(2)
O3 O 0.3896(3) 0.2101(3) 0.4236(2)
O4 O 0.4037(3) 0.4198(3) 0.3861(2)
O5 O 0.4082(3) 0.6660(3) 0.8212(2)
O6 O 0.4698(3) 0.7915(4) 0.7331(2)
O7 O 0.0892(3) 1.0304(3) 0.8626(2)
O8 O -0.0608(3) 1.0678(3) 0.7497(2)
O9 O -0.0663(3) 0.8666(3) 0.4870(2)
O10 O 0.0362(3) 0.6843(4) 0.4870(2)
H1 H 0.33470 0.18580 0.55210
H2 H 0.22090 0.47650 0.69330
H3 H 0.28130 0.93620 0.54320
H4 H 0.26110 0.90210 0.44700
H5 H 0.39530 0.90920 0.50810
H6 H 0.24930 0.87980 0.83600
H7 H -0.05010 0.93150 0.63120
#END
