
#######################################################################
#
#                 Cambridge Crystallographic Data Centre
#                                CCDC
#
#######################################################################
#
# If this CIF has been generated from an entry in the Cambridge
# Structural Database, then it will include bibliographic, chemical,
# crystal, experimental, refinement or atomic coordinate data resulting
# from the CCDC's data processing and validation procedures.
#
#######################################################################

data_CSD_CIF_PABHUV
_audit_creation_date 1992-11-16
_audit_creation_method CSD-ConQuest-V1
_database_code_CSD PABHUV
_chemical_formula_sum 'C18 H21 N1 O6'
_chemical_formula_moiety
;
C18 H21 N1 O6
;
_journal_coden_Cambridge 207
_journal_year 1992
_journal_page_first 1015
_journal_name_full 'J.Chem.Soc.,Perkin Trans.1 '
loop_
_publ_author_name
"J.E.T.Corrie"
"G.P.Reid"
"D.R.Trentham"
"M.B.Hursthouse"
"M.A.Mazid"
_chemical_name_systematic
;
(S)-1-(2-Nitrophenyl)ethyl (1S)-camphanate
;
_chemical_melting_point 406.15
_cell_volume   1739.189
_exptl_crystal_colour 'pale yellow'
_exptl_crystal_density_diffrn 1.327
_exptl_special_details
;
Melting point range 406.15-407.15K

;
_diffrn_ambient_temperature ?
_diffrn_special_details
;
The study was carried out at room temperature,in the range 283-303K

;
#These two values have been output from a single CSD field.
_refine_ls_R_factor_gt 0.041
_refine_ls_wR_factor_gt 0.041
_symmetry_cell_setting orthorhombic
_symmetry_space_group_name_H-M 'P 21 21 21'
_symmetry_Int_Tables_number 19
loop_
_symmetry_equiv_pos_site_id
_symmetry_equiv_pos_as_xyz
1 x,y,z
2 1/2+x,1/2-y,-z
3 -x,1/2+y,1/2-z
4 1/2-x,-y,1/2+z
_cell_length_a 13.147(1)
_cell_length_b 18.045(3)
_cell_length_c 7.331(1)
_cell_angle_alpha 90
_cell_angle_beta 90
_cell_angle_gamma 90
_cell_formula_units_Z 4
loop_
_atom_type_symbol
_atom_type_radius_bond
C 0.68
H 0.23
N 0.68
O 0.68
loop_
_atom_site_label
_atom_site_type_symbol
_atom_site_fract_x
_atom_site_fract_y
_atom_site_fract_z
O1 O 0.1846(3) -1.1849(2) 0.1592(5)
O2 O 0.3190(3) -1.1190(3) 0.1274(6)
O3 O -0.0684(1) -1.0708(1) -0.0365(3)
O4 O 0.0307(2) -0.9861(1) 0.0977(4)
O5 O -0.2204(1) -0.9755(1) -0.0570(3)
O6 O -0.3736(2) -0.9239(1) -0.0878(4)
N1 N 0.2361(2) -1.1410(2) 0.0728(5)
C1 C 0.1993(2) -1.1148(1) -0.1036(4)
C2 C 0.2712(2) -1.0938(2) -0.2304(5)
C3 C 0.2417(3) -1.0735(2) -0.4012(5)
C4 C 0.1405(3) -1.0738(2) -0.4457(5)
C5 C 0.0684(2) -1.0932(2) -0.3166(5)
C6 C 0.0948(2) -1.1136(2) -0.1412(4)
C7 C 0.0103(2) -1.1268(2) -0.0037(4)
C8 C -0.0429(3) -1.2010(2) -0.0295(7)
C9 C -0.0443(2) -1.0022(2) 0.0135(4)
C10 C -0.1171(2) -0.9455(1) -0.0600(4)
C11 C -0.2830(2) -0.9165(2) -0.0780(4)
C12 C -0.2181(2) -0.8476(1) -0.0917(4)
C13 C -0.2737(3) -0.7760(2) -0.0560(6)
C14 C -0.1695(3) -0.8577(2) -0.2842(4)
C15 C -0.0985(2) -0.9243(2) -0.2613(4)
C16 C -0.1298(2) -0.8703(1) 0.0371(4)
C17 C -0.0374(3) -0.8192(2) 0.0276(6)
C18 C -0.1627(3) -0.8784(2) 0.2367(4)
H1 H 0.3420(2) -1.0935(2) -0.1983(5)
H2 H 0.2916(3) -1.0590(2) -0.4900(5)
H3 H 0.1196(3) -1.0605(2) -0.5669(5)
H4 H -0.0022(2) -1.0924(2) -0.3500(5)
H5 H 0.0413(22) -1.1184(17) 0.1305(45)
H6 H 0.0036(3) -1.2413(2) -0.0094(7)
H7 H -0.0672(3) -1.2026(2) -0.1529(7)
H8 H -0.0993(3) -1.2053(2) 0.0529(7)
H9 H -0.2230(3) -0.7390(2) -0.0791(6)
H10 H -0.3013(3) -0.7691(2) 0.0641(6)
H11 H -0.3271(3) -0.7718(2) -0.1446(6)
H12 H -0.1318(3) -0.8143(2) -0.3188(4)
H13 H -0.2207(3) -0.8676(2) -0.3741(4)
H14 H -0.1169(2) -0.9639(2) -0.3420(4)
H15 H -0.0288(2) -0.9107(2) -0.2819(4)
H16 H -0.0206(3) -0.8116(2) -0.0984(6)
H17 H 0.0198(3) -0.8406(2) 0.0898(6)
H18 H -0.0543(3) -0.7726(2) 0.0828(6)
H19 H -0.2202(3) -0.9111(2) 0.2432(4)
H20 H -0.1816(3) -0.8304(2) 0.2823(4)
H21 H -0.1082(3) -0.8980(2) 0.3091(4)
#END
