
#######################################################################
#
#                 Cambridge Crystallographic Data Centre
#                                CCDC
#
#######################################################################
#
# If this CIF has been generated from an entry in the Cambridge
# Structural Database, then it will include bibliographic, chemical,
# crystal, experimental, refinement or atomic coordinate data resulting
# from the CCDC's data processing and validation procedures.
#
#######################################################################

data_CSD_CIF_PABPIR
_audit_creation_date 1992-11-16
_audit_creation_method CSD-ConQuest-V1
_database_code_CSD PABPIR
_chemical_formula_sum 'C14 H18 N4 O2'
_chemical_formula_moiety
;
C14 H18 N4 O2
;
_journal_coden_Cambridge 188
_journal_year 1992
_journal_page_first 579
_journal_name_full 'J.Chem.Soc.,Perkin Trans.2 '
loop_
_publ_author_name
"M.Boyd"
"P.D.W.Boyd"
"G.J.Atwell"
"W.R.Wilson"
"W.A.Denny"
_chemical_name_systematic
;
4-(3-(N,N-Dimethylamino)propylamino)-8-nitroquinoline
;
_cell_volume   2892.030
_exptl_crystal_colour 'red'
_exptl_crystal_density_diffrn 1.26
_diffrn_ambient_temperature ?
_diffrn_special_details
;
The study was carried out at room temperature,in the range 283-303K

;
#These two values have been output from a single CSD field.
_refine_ls_R_factor_gt 0.0469
_refine_ls_wR_factor_gt 0.0469
_symmetry_cell_setting orthorhombic
_symmetry_space_group_name_H-M 'P b c a'
_symmetry_Int_Tables_number 61
loop_
_symmetry_equiv_pos_site_id
_symmetry_equiv_pos_as_xyz
1 x,y,z
2 1/2-x,1/2+y,z
3 x,1/2-y,1/2+z
4 1/2-x,-y,1/2+z
5 -x,-y,-z
6 -1/2+x,-1/2-y,-z
7 -x,-1/2+y,-1/2-z
8 -1/2+x,y,-1/2-z
_cell_length_a 13.015(5)
_cell_length_b 13.178(3)
_cell_length_c 16.862(4)
_cell_angle_alpha 90
_cell_angle_beta 90
_cell_angle_gamma 90
_cell_formula_units_Z 8
loop_
_atom_type_symbol
_atom_type_radius_bond
C 0.68
H 0.23
N 0.68
O 0.68
loop_
_atom_site_label
_atom_site_type_symbol
_atom_site_fract_x
_atom_site_fract_y
_atom_site_fract_z
O1 O 0.0142(4) -0.0654(5) 0.0649(4)
O2 O -0.0052(4) -0.1980(5) 0.1316(5)
N1 N 0.0665(3) 0.0281(4) 0.2232(3)
N2 N 0.3531(4) 0.0891(4) 0.3292(3)
N3 N 0.3385(4) 0.3523(4) 0.4890(3)
N4 N 0.0425(4) -0.1255(5) 0.1131(4)
C1 C 0.0802(5) 0.1010(5) 0.2760(4)
C2 C 0.1735(4) 0.1231(5) 0.3123(4)
C3 C 0.2619(4) 0.0689(4) 0.2953(3)
C4 C 0.2504(4) -0.0134(4) 0.2401(3)
H1 H 0.406(4) 0.047(4) 0.319(3)
H2 H 0.019(4) 0.146(4) 0.291(3)
H3 H 0.165(4) 0.173(4) 0.349(3)
H4 H 0.393(4) -0.069(4) 0.233(3)
H5 H 0.376(5) -0.198(6) 0.160(4)
H6 H 0.205(4) -0.232(4) 0.091(3)
H7 H 0.307(4) 0.162(4) 0.425(3)
H8 H 0.435(6) 0.140(5) 0.423(4)
H9 H 0.440(5) 0.268(4) 0.323(3)
C5 C 0.3304(5) -0.0800(5) 0.2191(4)
C6 C 0.3155(5) -0.1568(5) 0.1657(4)
C7 C 0.2209(5) -0.1727(5) 0.1315(4)
C8 C 0.1433(4) -0.1081(4) 0.1508(4)
C9 C 0.1515(4) -0.0278(4) 0.2050(3)
C10 C 0.3698(5) 0.1649(5) 0.3893(4)
C11 C 0.3780(6) 0.2724(5) 0.3580(4)
C12 C 0.4077(6) 0.3499(5) 0.4215(5)
C13 C 0.3827(8) 0.4187(8) 0.5499(5)
C14 C 0.2351(7) 0.3858(8) 0.4685(7)
H10 H 0.316(4) 0.289(4) 0.328(3)
H11 H 0.476(4) 0.325(4) 0.448(3)
H12 H 0.412(6) 0.422(6) 0.394(4)
H13 H 0.349(5) 0.412(5) 0.598(4)
H14 H 0.370(8) 0.505(10) 0.526(7)
H15 H 0.464(7) 0.391(6) 0.561(4)
H16 H 0.197(6) 0.370(5) 0.524(4)
H17 H 0.212(6) 0.326(6) 0.425(5)
H18 H 0.231(7) 0.455(7) 0.455(5)
#END
