
#######################################################################
#
#                 Cambridge Crystallographic Data Centre
#                                CCDC
#
#######################################################################
#
# If this CIF has been generated from an entry in the Cambridge
# Structural Database, then it will include bibliographic, chemical,
# crystal, experimental, refinement or atomic coordinate data resulting
# from the CCDC's data processing and validation procedures.
#
#######################################################################

data_CSD_CIF_PABPOX
_audit_creation_date 1992-11-16
_audit_creation_method CSD-ConQuest-V1
_database_code_CSD PABPOX
_chemical_formula_sum 'C15 H20 N4 O2'
_chemical_formula_moiety
;
C15 H20 N4 O2
;
_journal_coden_Cambridge 188
_journal_year 1992
_journal_page_first 579
_journal_name_full 'J.Chem.Soc.,Perkin Trans.2 '
loop_
_publ_author_name
"M.Boyd"
"P.D.W.Boyd"
"G.J.Atwell"
"W.R.Wilson"
"W.A.Denny"
_chemical_name_systematic
;
4-(3-(N,N-Dimethylamino)propylamino)-2-methyl-3-nitroquinoline
;
_cell_volume   1523.749
_exptl_crystal_colour 'yellow'
_exptl_crystal_density_diffrn 1.257
_diffrn_ambient_temperature ?
_diffrn_special_details
;
The study was carried out at room temperature,in the range 283-303K

;
#These two values have been output from a single CSD field.
_refine_ls_R_factor_gt 0.0362
_refine_ls_wR_factor_gt 0.0362
_symmetry_cell_setting monoclinic
_symmetry_space_group_name_H-M 'P 21/c'
_symmetry_Int_Tables_number 14
loop_
_symmetry_equiv_pos_site_id
_symmetry_equiv_pos_as_xyz
1 x,y,z
2 -x,1/2+y,1/2-z
3 -x,-y,-z
4 x,-1/2-y,-1/2+z
_cell_length_a 9.458(1)
_cell_length_b 17.918(2)
_cell_length_c 9.012(2)
_cell_angle_alpha 90
_cell_angle_beta 93.88(2)
_cell_angle_gamma 90
_cell_formula_units_Z 4
loop_
_atom_type_symbol
_atom_type_radius_bond
C 0.68
H 0.23
N 0.68
O 0.68
loop_
_atom_site_label
_atom_site_type_symbol
_atom_site_fract_x
_atom_site_fract_y
_atom_site_fract_z
O1 O 1.3672(4) 0.63656(17) -0.0150(5)
O2 O 1.2403(4) 0.73536(18) -0.0016(5)
N1 N 1.0907(5) 0.55795(19) 0.2999(7)
N2 N 0.9685(6) 0.6496(2) -0.1172(7)
N3 N 0.7143(5) 0.6773(2) -0.3019(6)
N4 N 1.2593(4) 0.6687(2) 0.0161(5)
C1 C 1.1850(6) 0.5939(2) 0.2253(8)
C2 C 1.1483(6) 0.6250(2) 0.0843(7)
C3 C 1.0134(6) 0.6224(2) 0.0154(7)
C4 C 0.9100(6) 0.5832(2) 0.0999(9)
C5 C 0.7662(9) 0.5758(3) 0.0479(9)
H1 H 0.875(7) 0.648(3) -0.153(9)
H2 H 0.743(8) 0.586(3) -0.037(6)
H3 H 0.583(7) 0.531(2) 0.099(8)
H4 H 0.656(5) 0.483(2) 0.321(6)
H5 H 0.894(6) 0.499(2) 0.418(5)
H6 H 1.147(5) 0.644(2) -0.232(6)
H7 H 1.070(5) 0.725(2) -0.224(6)
H8 H 0.934(6) 0.604(3) -0.405(6)
H9 H 1.010(7) 0.674(3) -0.464(8)
H10 H 0.829(7) 0.761(3) -0.366(8)
C6 C 0.6724(8) 0.5387(3) 0.1296(10)
C7 C 0.7172(8) 0.5088(3) 0.2667(9)
C8 C 0.8540(8) 0.5155(3) 0.3203(9)
C9 C 0.9559(6) 0.5532(2) 0.2383(8)
C10 C 1.0473(8) 0.6764(3) -0.2429(9)
C11 C 0.9604(8) 0.6644(4) -0.3843(9)
C12 C 0.8189(11) 0.7090(4) -0.3981(10)
C13 C 0.6554(11) 0.6090(4) -0.3620(13)
C14 C 0.5982(10) 0.7335(5) -0.2907(13)
C15 C 1.3271(7) 0.6029(4) 0.3018(9)
H11 H 0.798(10) 0.697(3) -0.494(8)
H12 H 0.606(10) 0.610(4) -0.472(9)
H13 H 0.587(7) 0.586(3) -0.292(7)
H14 H 0.730(7) 0.564(3) -0.360(8)
H15 H 0.643(8) 0.784(4) -0.250(9)
H16 H 0.526(7) 0.704(3) -0.239(8)
H17 H 0.556(9) 0.744(4) -0.394(10)
H18 H 1.334(13) 0.563(5) 0.406(13)
H19 H 1.362(7) 0.642(3) 0.295(8)
H20 H 1.397(9) 0.568(3) 0.257(9)
#END
