
#######################################################################
#
#                 Cambridge Crystallographic Data Centre
#                                CCDC
#
#######################################################################
#
# If this CIF has been generated from an entry in the Cambridge
# Structural Database, then it will include bibliographic, chemical,
# crystal, experimental, refinement or atomic coordinate data resulting
# from the CCDC's data processing and validation procedures.
#
#######################################################################

data_CSD_CIF_PABPEN
_audit_creation_date 1992-11-16
_audit_creation_method CSD-ConQuest-V1
_database_code_CSD PABPEN
_chemical_formula_sum 'C15 H20 N4 O2'
_chemical_formula_moiety
;
C15 H20 N4 O2
;
_journal_coden_Cambridge 188
_journal_year 1992
_journal_page_first 579
_journal_name_full 'J.Chem.Soc.,Perkin Trans.2 '
loop_
_publ_author_name
"M.Boyd"
"P.D.W.Boyd"
"G.J.Atwell"
"W.R.Wilson"
"W.A.Denny"
_chemical_name_systematic
;
4-(3-(N,N-Dimethylamino)propylamino)-7-methyl-8-nitroquinoline
;
_cell_volume   1584.527
_exptl_crystal_colour 'yellow'
_exptl_crystal_density_diffrn 1.209
_diffrn_ambient_temperature ?
_diffrn_special_details
;
The study was carried out at room temperature,in the range 283-303K

;
#These two values have been output from a single CSD field.
_refine_ls_R_factor_gt 0.0579
_refine_ls_wR_factor_gt 0.0579
_symmetry_cell_setting monoclinic
_symmetry_space_group_name_H-M 'P 21/c'
_symmetry_Int_Tables_number 14
loop_
_symmetry_equiv_pos_site_id
_symmetry_equiv_pos_as_xyz
1 x,y,z
2 -x,1/2+y,1/2-z
3 -x,-y,-z
4 x,-1/2-y,-1/2+z
_cell_length_a 11.288(2)
_cell_length_b 11.057(2)
_cell_length_c 12.699(9)
_cell_angle_alpha 90
_cell_angle_beta 91.37(3)
_cell_angle_gamma 90
_cell_formula_units_Z 4
loop_
_atom_type_symbol
_atom_type_radius_bond
C 0.68
H 0.23
N 0.68
O 0.68
loop_
_atom_site_label
_atom_site_type_symbol
_atom_site_fract_x
_atom_site_fract_y
_atom_site_fract_z
O1 O 0.8842(2) 0.2441(3) 0.86142(18)
O2 O 0.9373(3) 0.0928(3) 0.7704(3)
N1 N 0.6653(2) 0.0558(2) 0.82005(17)
N2 N 0.37383(19) 0.0761(2) 0.6067(2)
N3 N 0.2528(2) 0.2219(2) 0.4554(2)
N4 N 0.8711(2) 0.1745(2) 0.78793(19)
C1 C 0.5670(3) -0.0077(3) 0.8312(2)
C2 C 0.4689(3) -0.0070(3) 0.7628(2)
C3 C 0.4676(2) 0.0682(3) 0.6747(2)
C4 C 0.5714(2) 0.1401(2) 0.65842(17)
C5 C 0.5863(2) 0.2176(2) 0.57174(19)
H1 H 0.373(3) 0.135(3) 0.550(2)
H2 H 0.554(4) -0.069(4) 0.896(4)
H3 H 0.403(3) -0.064(3) 0.778(2)
H4 H 0.525(3) 0.223(2) 0.517(2)
H5 H 0.694(2) 0.328(3) 0.506(2)
H6 H 0.273(4) -0.081(4) 0.618(3)
H7 H 0.235(3) 0.038(3) 0.674(3)
H8 H 0.102(4) -0.022(4) 0.542(3)
H9? H 0.1549(14) 0.0904(17) 0.5826(14)
H10 H 0.082(3) 0.148(3) 0.450(3)
C6 C 0.6879(2) 0.2824(2) 0.5590(2)
C7 C 0.7847(2) 0.2730(2) 0.63127(19)
C8 C 0.7703(2) 0.1943(2) 0.71369(17)
C9 C 0.6668(2) 0.1273(2) 0.73286(18)
C10 C 0.2644(3) 0.0082(4) 0.6193(3)
C11 C 0.1829(4) 0.0242(4) 0.5252(4)
C12 C 0.1518(4) 0.1512(5) 0.5020(6)
C13 C 0.2220(5) 0.3474(4) 0.4711(6)
C14 C 0.2718(9) 0.2008(6) 0.3459(5)
C15 C 0.8963(3) 0.3449(4) 0.6161(3)
H11 H 0.179(2) 0.112(3) 0.455(2)
H12 H 0.216(4) 0.367(5) 0.549(5)
H13 H 0.142(5) 0.367(5) 0.428(5)
H14 H 0.286(4) 0.397(4) 0.449(3)
H15 H 0.261(12) 0.127(13) 0.362(11)
H16 H 0.343(4) 0.252(5) 0.330(3)
H17 H 0.201(6) 0.226(6) 0.302(5)
H18 H 0.892(4) 0.387(4) 0.544(4)
H19 H 0.971(5) 0.309(5) 0.646(4)
H20 H 0.907(6) 0.416(7) 0.653(5)
#END
