
#######################################################################
#
#                 Cambridge Crystallographic Data Centre
#                                CCDC
#
#######################################################################
#
# If this CIF has been generated from an entry in the Cambridge
# Structural Database, then it will include bibliographic, chemical,
# crystal, experimental, refinement or atomic coordinate data resulting
# from the CCDC's data processing and validation procedures.
#
#######################################################################

data_CSD_CIF_PABRUG
_audit_creation_date 2002-10-14
_audit_creation_method CSD-ConQuest-V1
_database_code_CSD PABRUG
_database_code_depnum_ccdc_archive 'CCDC 193447'
_chemical_formula_sum 'C14 H13 N1 O5'
_chemical_formula_moiety
;
C14 H13 N1 O5
;
_journal_coden_Cambridge 151
_journal_volume 45
_journal_year 2002
_journal_page_first 2222
_journal_name_full 'J.Med.Chem. '
loop_
_publ_author_name
"Chung-Shieh Wu"
"Jian-Lin Huang"
"Yang-Sheng Sun"
"Ding-Yah Yang"
_chemical_name_systematic
;
3-Methoxy-2-(2-nitrobenzoyl)-2-cyclohexen-1-one
;
_chemical_melting_point 410.15
_cell_volume   2627.415
_exptl_crystal_colour 'light-brown'
_exptl_crystal_density_diffrn 1.392
_exptl_special_details
;
Melting point range 410.15-411.15K
no 4-HPPD inhibition activity

;
_exptl_crystal_description 'plate'
_exptl_crystal_preparation 'ethyl acetate'
_diffrn_ambient_temperature 295
#These two values have been output from a single CSD field.
_refine_ls_R_factor_gt 0.0555
_refine_ls_wR_factor_gt 0.0555
_symmetry_cell_setting orthorhombic
_symmetry_space_group_name_H-M 'P b c a'
_symmetry_Int_Tables_number 61
loop_
_symmetry_equiv_pos_site_id
_symmetry_equiv_pos_as_xyz
1 x,y,z
2 1/2+x,y,1/2-z
3 x,1/2-y,1/2+z
4 1/2-x,1/2+y,z
5 -x,-y,-z
6 -1/2-x,-y,-1/2+z
7 -x,-1/2+y,-1/2-z
8 -1/2+x,-1/2-y,-z
_cell_length_a 10.433(2)
_cell_length_b 9.925(2)
_cell_length_c 25.374(4)
_cell_angle_alpha 90
_cell_angle_beta 90
_cell_angle_gamma 90
_cell_formula_units_Z 8
loop_
_atom_type_symbol
_atom_type_radius_bond
C 0.68
H 0.23
N 0.68
O 0.68
loop_
_atom_site_label
_atom_site_type_symbol
_atom_site_fract_x
_atom_site_fract_y
_atom_site_fract_z
O1 O 0.7373(2) 0.1613(2) 0.66880(8)
O2 O 0.6528(2) 0.4404(2) 0.52749(8)
O3 O 0.4885(2) 0.2235(2) 0.56882(7)
O4 O 0.3820(2) 0.0457(2) 0.64552(11)
O5 O 0.2107(2) 0.1527(3) 0.63077(13)
N1 N 0.3183(2) 0.1466(3) 0.64656(10)
C1 C 0.7785(2) 0.2367(3) 0.63505(11)
C2 C 0.9169(3) 0.2736(4) 0.63132(13)
H1 H 0.9320(3) 0.3538(4) 0.65231(13)
H2 H 0.9679(3) 0.2013(4) 0.64620(13)
C3 C 0.9605(3) 0.2992(4) 0.57674(13)
H3 H 0.9610(3) 0.2148(4) 0.55745(13)
H4 H 1.0476(3) 0.3331(4) 0.57761(13)
C4 C 0.8772(3) 0.3986(3) 0.54805(12)
H5 H 0.9000(3) 0.4890(3) 0.55919(12)
H6 H 0.8942(3) 0.3918(3) 0.51055(12)
C5 C 0.7385(3) 0.3772(3) 0.55737(10)
C6 C 0.6925(2) 0.2982(2) 0.59675(9)
C7 C 0.5530(2) 0.2733(2) 0.60360(9)
C8 C 0.4908(2) 0.3185(3) 0.65356(9)
C9 C 0.5399(2) 0.4262(3) 0.68143(10)
H7 H 0.6180(2) 0.4631(3) 0.67132(10)
C10 C 0.4750(3) 0.4805(3) 0.72430(11)
H8 H 0.5101(3) 0.5527(3) 0.74270(11)
C11 C 0.3601(3) 0.4281(3) 0.73936(12)
H9 H 0.3164(3) 0.4654(3) 0.76775(12)
C12 C 0.3083(3) 0.3204(3) 0.71291(11)
H10 H 0.2301(3) 0.2841(3) 0.72329(11)
C13 C 0.3737(2) 0.2672(3) 0.67102(10)
C14 C 0.6926(4) 0.5239(4) 0.48399(13)
H11 H 0.6185(4) 0.5612(4) 0.46699(13)
H12 H 0.7401(4) 0.4706(4) 0.45918(13)
H13 H 0.7459(4) 0.5957(4) 0.49684(13)
#END
