
#######################################################################
#
#                 Cambridge Crystallographic Data Centre
#                                CCDC
#
#######################################################################
#
# If this CIF has been generated from an entry in the Cambridge
# Structural Database, then it will include bibliographic, chemical,
# crystal, experimental, refinement or atomic coordinate data resulting
# from the CCDC's data processing and validation procedures.
#
#######################################################################

data_CSD_CIF_PABSUH
_audit_creation_date 2002-10-14
_audit_creation_method CSD-ConQuest-V1
_database_code_CSD PABSUH
_database_code_depnum_ccdc_archive 'CCDC 193463'
_chemical_formula_sum 'C29 H26 N2 O6'
_chemical_formula_moiety
;
C29 H26 N2 O6
;
_journal_coden_Cambridge 35
_journal_volume 67
_journal_year 2002
_journal_page_first 5673
_journal_name_full 'J.Org.Chem. '
loop_
_publ_author_name
"Wei-Chieh Cheng"
"Yannan Liu"
"M.Wong"
"M.M.Olmstead"
"K.S.Lam"
"M.J.Kurth"
_chemical_name_systematic
;
(5S,8S)-3-(2-Methoxyphenyl)-1-oxa-2,7-diaza-spiro[4,4]non-2-ene-7-(fluorene-9-
methoxycarbonyl)-8-carboxylic acid
;
_cell_volume   2346.519
_exptl_crystal_colour 'colorless'
_exptl_crystal_density_diffrn 1.411
_exptl_crystal_description 'needle'
_diffrn_ambient_temperature 91
#These two values have been output from a single CSD field.
_refine_ls_R_factor_gt 0.0479
_refine_ls_wR_factor_gt 0.0479
_symmetry_cell_setting orthorhombic
_symmetry_space_group_name_H-M 'P 21 21 21'
_symmetry_Int_Tables_number 19
loop_
_symmetry_equiv_pos_site_id
_symmetry_equiv_pos_as_xyz
1 x,y,z
2 1/2-x,-y,1/2+z
3 -x,1/2+y,1/2-z
4 1/2+x,1/2-y,-z
_cell_length_a 5.6686(7)
_cell_length_b 17.323(2)
_cell_length_c 23.896(2)
_cell_angle_alpha 90
_cell_angle_beta 90
_cell_angle_gamma 90
_cell_formula_units_Z 4
loop_
_atom_type_symbol
_atom_type_radius_bond
C 0.68
H 0.23
N 0.68
O 0.68
loop_
_atom_site_label
_atom_site_type_symbol
_atom_site_fract_x
_atom_site_fract_y
_atom_site_fract_z
O1 O 0.1849(4) 0.62479(12) 0.02080(9)
O2 O 0.7977(4) 0.56878(12) 0.18216(9)
O3 O 0.7966(4) 0.47631(11) 0.11502(8)
O4 O 0.5208(4) 0.50332(12) -0.12741(9)
O5 O 0.1574(4) 0.72078(12) 0.13758(9)
O6 O 0.2496(4) 0.60300(13) 0.16914(10)
H1 H 0.105(4) 0.603(2) 0.1837(14)
N1 N 0.0906(5) 0.59958(15) -0.03122(11)
N2 N 0.6088(5) 0.58518(15) 0.09910(11)
C1 C 0.4430(5) 0.63189(18) 0.01484(13)
C2 C 0.5211(6) 0.69819(17) 0.05148(12)
H2 H 0.40730 0.74150 0.04950
H3 H 0.67880 0.71710 0.04010
C3 C 0.5287(6) 0.66375(17) 0.11037(12)
H4 H 0.64920 0.69150 0.13340
C4 C 0.5593(6) 0.56081(18) 0.04134(13)
H5 H 0.45130 0.51590 0.04070
H6 H 0.70670 0.54710 0.02150
C5 C 0.4793(6) 0.63708(18) -0.04824(12)
H7 H 0.50270 0.69110 -0.06060
H8 H 0.61480 0.60530 -0.06070
C6 C 0.2502(6) 0.60506(17) -0.06887(13)
C7 C 0.7374(5) 0.54575(17) 0.13542(13)
C8 C 0.9573(6) 0.43081(18) 0.14898(13)
H9 H 0.88990 0.42250 0.18670
H10 H 1.11010 0.45790 0.15300
C9 C 0.9921(6) 0.35457(17) 0.11975(13)
H11 H 0.83490 0.33080 0.11180
C10 C 1.1367(6) 0.30001(18) 0.15488(13)
C11 C 1.0969(6) 0.27319(18) 0.20871(14)
H12 H 0.95980 0.28880 0.22860
C12 C 1.2567(6) 0.22399(18) 0.23322(13)
H13 H 1.23000 0.20610 0.27030
C13 C 1.4577(6) 0.20001(18) 0.20430(14)
H14 H 1.56570 0.16560 0.22170
C14 C 1.5011(6) 0.22622(18) 0.15005(13)
H15 H 1.63750 0.21000 0.13020
C15 C 1.3405(6) 0.27653(17) 0.12585(13)
C16 C 1.3373(6) 0.31315(17) 0.06994(13)
C17 C 1.4947(6) 0.30765(17) 0.02597(13)
H16 H 1.63190 0.27640 0.02900
C18 C 1.4483(6) 0.34886(18) -0.02290(14)
H17 H 1.55480 0.34570 -0.05350
C19 C 1.2480(6) 0.39446(18) -0.02722(13)
H18 H 1.21980 0.42260 -0.06070
C20 C 1.0871(6) 0.39960(18) 0.01691(13)
H19 H 0.94870 0.43010 0.01350
C21 C 1.1343(6) 0.35888(18) 0.06608(13)
C22 C 0.1961(6) 0.58666(16) -0.12804(13)
C23 C 0.3397(6) 0.53457(18) -0.15735(14)
C24 C 0.2905(6) 0.51675(19) -0.21284(14)
H20 H 0.38740 0.48150 -0.23280
C25 C 0.0975(7) 0.5512(2) -0.23888(15)
H21 H 0.06240 0.53870 -0.27670
C26 C -0.0428(6) 0.6029(2) -0.21072(14)
H22 H -0.17200 0.62670 -0.22920
C27 C 0.0047(6) 0.62006(18) -0.15548(14)
H23 H -0.09430 0.65510 -0.13590
C28 C 0.6568(7) 0.44359(19) -0.15310(15)
H24 H 0.55680 0.39830 -0.15940
H25 H 0.78840 0.42950 -0.12850
H26 H 0.71870 0.46200 -0.18900
C29 C 0.2901(6) 0.66652(17) 0.13981(12)
#END
