
#######################################################################
#
#                 Cambridge Crystallographic Data Centre
#                                CCDC
#
#######################################################################
#
# If this CIF has been generated from an entry in the Cambridge
# Structural Database, then it will include bibliographic, chemical,
# crystal, experimental, refinement or atomic coordinate data resulting
# from the CCDC's data processing and validation procedures.
#
#######################################################################

data_CSD_CIF_PACCEB
_audit_creation_date 1992-11-25
_audit_creation_method CSD-ConQuest-V1
_database_code_CSD PACCEB
_chemical_formula_sum 'C14 H16 N4 O8'
_chemical_formula_moiety
;
C14 H16 N4 O8
;
_journal_coden_Cambridge 16
_journal_volume 48
_journal_year 1992
_journal_page_first 3813
_journal_name_full 'Tetrahedron '
loop_
_publ_author_name
"J.Barluenga"
"J.Perez-Prieto"
"G.Asensio"
"S.Garcia-Granda"
"M.A.Salvado"
_chemical_name_systematic
;
trans-2,6-Dinitrato-N-o-nitrophenyl-9-azabicyclo(3.3.1)nonane
;
_cell_volume   1604.387
_exptl_crystal_colour 'yellow'
_exptl_crystal_density_diffrn 1.52
_exptl_special_details
;
Absolute configuration

;
_diffrn_ambient_temperature ?
_diffrn_special_details
;
The study was carried out at room temperature,in the range 283-303K

;
#These two values have been output from a single CSD field.
_refine_ls_R_factor_gt 0.033
_refine_ls_wR_factor_gt 0.033
_symmetry_cell_setting orthorhombic
_symmetry_space_group_name_H-M 'P 21 21 21'
_symmetry_Int_Tables_number 19
loop_
_symmetry_equiv_pos_site_id
_symmetry_equiv_pos_as_xyz
1 x,y,z
2 1/2+x,1/2-y,-z
3 -x,1/2+y,1/2-z
4 1/2-x,-y,1/2+z
_cell_length_a 8.784(7)
_cell_length_b 10.095(2)
_cell_length_c 18.093(4)
_cell_angle_alpha 90
_cell_angle_beta 90
_cell_angle_gamma 90
_cell_formula_units_Z 4
loop_
_atom_type_symbol
_atom_type_radius_bond
C 0.68
H 0.23
N 0.68
O 0.68
loop_
_atom_site_label
_atom_site_type_symbol
_atom_site_fract_x
_atom_site_fract_y
_atom_site_fract_z
C1 C 0.1608(5) 0.6317(4) 0.7130(2)
C2 C 0.0031(5) 0.6240(4) 0.7028(2)
C3 C -0.0630(5) 0.6446(4) 0.6346(2)
C4 C 0.0241(6) 0.6772(4) 0.5735(3)
C5 C 0.1806(6) 0.6847(4) 0.5813(2)
C6 C 0.2474(5) 0.6590(5) 0.6494(2)
C7 C 0.1458(5) 0.5499(4) 0.8424(2)
C8 C 0.0534(5) 0.6543(4) 0.8844(2)
C9 C 0.1447(5) 0.7693(5) 0.9143(2)
C10 C 0.2504(5) 0.8234(4) 0.8539(2)
C11 C 0.3376(5) 0.7169(4) 0.8103(2)
C12 C 0.2629(5) 0.4726(4) 0.8884(3)
C13 C 0.4001(5) 0.5523(5) 0.9149(2)
C14 C 0.4589(5) 0.6405(4) 0.8528(2)
N1 N 0.2291(3) 0.6167(3) 0.7823(2)
N2 N 0.4134(5) 0.6485(4) 0.6483(2)
N3 N 0.6749(5) 0.7898(4) 0.8488(3)
N4 N -0.1496(4) 0.5215(4) 0.9360(3)
O1 O 0.4754(4) 0.5593(3) 0.6828(2)
O2 O 0.4841(4) 0.7276(4) 0.6105(2)
O3 O 0.5606(3) 0.7325(3) 0.8917(2)
O4 O 0.7621(4) 0.8547(3) 0.8855(2)
O5 O 0.6772(4) 0.7672(4) 0.7837(2)
O6 O -0.0194(4) 0.5955(3) 0.9507(2)
O7 O -0.2042(4) 0.4758(4) 0.9917(2)
O8 O -0.1947(4) 0.5110(3) 0.8732(2)
H1 H -0.0687(5) 0.6012(4) 0.7496(2)
H2 H -0.1849(5) 0.6351(4) 0.6288(2)
H3 H -0.0294(6) 0.6966(4) 0.5207(3)
H4 H 0.2508(6) 0.7105(4) 0.5345(2)
H5 H 0.0678(5) 0.4783(4) 0.8193(2)
H6 H -0.0366(5) 0.6882(4) 0.8484(2)
H7 H 0.0600(5) 0.8423(5) 0.9290(2)
H8 H 0.2055(5) 0.7388(5) 0.9634(2)
H9 H 0.3307(5) 0.8939(4) 0.8761(2)
H10 H 0.1745(5) 0.8730(4) 0.8159(2)
H11 H 0.3822(5) 0.7735(4) 0.7645(2)
H12 H 0.2001(5) 0.4324(4) 0.9346(3)
H13 H 0.2953(5) 0.3933(4) 0.8516(3)
H14 H 0.4868(5) 0.4789(5) 0.9254(2)
H15 H 0.3779(5) 0.6075(5) 0.9649(2)
H16 H 0.5323(5) 0.5885(4) 0.8147(2)
#END
