
#######################################################################
#
#                 Cambridge Crystallographic Data Centre
#                                CCDC
#
#######################################################################
#
# If this CIF has been generated from an entry in the Cambridge
# Structural Database, then it will include bibliographic, chemical,
# crystal, experimental, refinement or atomic coordinate data resulting
# from the CCDC's data processing and validation procedures.
#
#######################################################################

data_CSD_CIF_PADBIF
_audit_creation_date 1992-11-25
_audit_creation_method CSD-ConQuest-V1
_database_code_CSD PADBIF
_chemical_formula_sum 'C16 H16 N2 O7'
_chemical_formula_moiety
;
C16 H16 N2 O7
;
_journal_coden_Cambridge 16
_journal_volume 48
_journal_year 1992
_journal_page_first 4399
_journal_name_full 'Tetrahedron '
loop_
_publ_author_name
"J.F.Biernat"
"E.Luboch"
"A.Cygan"
"Y.A.Simonov"
"A.A.Dvorkin"
"E.Muszalska"
"R.Bilewicz"
_chemical_name_systematic
;
1,5-bis(2'-Nitrophenoxy)-3-oxapentane
;
_cell_volume   1615.206
_exptl_crystal_density_diffrn 1.432
_diffrn_ambient_temperature ?
_diffrn_special_details
;
The study was carried out at room temperature,in the range 283-303K

;
#These two values have been output from a single CSD field.
_refine_ls_R_factor_gt 0.071
_refine_ls_wR_factor_gt 0.071
_symmetry_cell_setting monoclinic
_symmetry_space_group_name_H-M 'P 1 1 21/b'
_symmetry_Int_Tables_number 14
loop_
_symmetry_equiv_pos_site_id
_symmetry_equiv_pos_as_xyz
1 x,y,z
2 -x,1/2-y,1/2+z
3 -x,-y,-z
4 x,-1/2+y,-1/2-z
_cell_length_a 7.854(3)
_cell_length_b 7.298(3)
_cell_length_c 31.746(9)
_cell_angle_alpha 90
_cell_angle_beta 90
_cell_angle_gamma 117.42(2)
_cell_formula_units_Z 4
loop_
_atom_type_symbol
_atom_type_radius_bond
C 0.68
H 0.23
N 0.68
O 0.68
loop_
_atom_site_label
_atom_site_type_symbol
_atom_site_fract_x
_atom_site_fract_y
_atom_site_fract_z
O1 O 0.4913(5) 0.8305(6) 0.2217(1)
O2 O 0.6215(5) 0.7716(5) 0.1397(1)
O3 O 0.7681(5) 0.5647(5) 0.0825(1)
O4 O 0.7834(6) 1.1112(6) 0.2669(1)
O5 O 0.8217(6) 0.9411(7) 0.3184(1)
O6 O 0.4614(6) 0.2086(7) 0.0564(2)
O7 O 0.5337(6) 0.2188(7) -0.0093(1)
N1 N 0.7200(6) 0.9791(7) 0.2931(1)
N2 N 0.5763(6) 0.2430(6) 0.0284(1)
C1 C 0.3792(8) 0.7764(8) 0.1842(2)
C2 C 0.5118(8) 0.8788(8) 0.1483(2)
C3 C 0.7499(8) 0.8626(8) 0.1060(2)
C4 C 0.8780(7) 0.7616(7) 0.1016(2)
C5 C 0.8676(7) 0.4658(8) 0.0688(2)
C6 C 0.7796(7) 0.3092(7) 0.0392(2)
C7 C 0.4007(7) 0.7818(8) 0.2595(2)
C8 C 0.5131(7) 0.8498(7) 0.2959(2)
C9 C 0.4319(8) 0.8034(8) 0.3354(2)
C10 C 0.2338(8) 0.6903(8) 0.3402(2)
C11 C 0.1235(8) 0.6255(8) 0.3045(2)
C12 C 0.2035(7) 0.6656(8) 0.2645(2)
C13 C 0.8752(8) 0.2149(8) 0.0197(2)
C14 C 1.0614(8) 0.2667(8) 0.0314(2)
C15 C 1.1496(8) 0.4120(8) 0.0615(2)
C16 C 1.0559(7) 0.5110(8) 0.0800(2)
H1 H 0.800(5) 0.106(5) 0.000(1)
H2 H 1.125(5) 0.208(5) 0.021(1)
H3 H 1.292(5) 0.500(5) 0.073(1)
H4 H 1.125(5) 0.625(5) 0.104(1)
H5 H 0.967(5) 0.847(5) 0.086(1)
H6 H 0.923(5) 0.733(5) 0.128(1)
H7 H 0.708(5) 0.875(5) 0.083(1)
H8 H 0.829(5) 1.016(5) 0.113(1)
H9 H 0.458(5) 0.917(5) 0.125(1)
H10? H 0.813(5) 1.014(5) 0.157(1)
H11 H 0.301(5) 0.620(5) 0.181(1)
H12 H 0.292(5) 0.833(5) 0.188(1)
H13 H 0.142(5) 0.600(5) 0.243(1)
H14 H 0.017(5) 0.557(5) 0.306(1)
H15 H 0.208(5) 0.750(5) 0.375(1)
H16 H 0.500(5) 0.833(5) 0.354(1)
#END
