
#######################################################################
#
#                 Cambridge Crystallographic Data Centre
#                                CCDC
#
#######################################################################
#
# If this CIF has been generated from an entry in the Cambridge
# Structural Database, then it will include bibliographic, chemical,
# crystal, experimental, refinement or atomic coordinate data resulting
# from the CCDC's data processing and validation procedures.
#
#######################################################################

data_CSD_CIF_PADZAX
_audit_creation_date 2011-02-15
_audit_creation_method CSD-ConQuest-V1
_database_code_CSD PADZAX
_database_code_depnum_ccdc_archive 'CCDC 685276'
_chemical_formula_sum 'C17 H11 N5 O2'
_chemical_formula_moiety
;
C17 H11 N5 O2
;
_journal_coden_Cambridge 315
_journal_volume 75
_journal_year 2010
_journal_page_first 753
_journal_name_full 'Spectrochim.Acta,Part A '
loop_
_publ_author_name
"Mingtian Li"
"Jun Huang"
"Xuan Zhou"
"Hong Luo"
_chemical_name_systematic
;
5-((4-Nitrophenyl)hydrazono)-5H-pyrido[3',2':4,5]cyclopenta[1,2-b]pyridine
;
_chemical_name_common
;
4,5-Diazafluorene-p-nitrophenylhydrazone
;
_chemical_melting_point 461.15
_cell_volume   1442.761
_exptl_crystal_colour 'yellow'
_exptl_crystal_density_diffrn 1.461
_exptl_special_details
;
Melting point range 461.15-462.15K
thermochromic

;
_exptl_crystal_description 'block'
_diffrn_ambient_temperature 273
#These two values have been output from a single CSD field.
_refine_ls_R_factor_gt 0.0562
_refine_ls_wR_factor_gt 0.0562
_symmetry_cell_setting monoclinic
_symmetry_space_group_name_H-M 'P 21/n'
_symmetry_Int_Tables_number 14
loop_
_symmetry_equiv_pos_site_id
_symmetry_equiv_pos_as_xyz
1 x,y,z
2 1/2-x,1/2+y,1/2-z
3 -x,-y,-z
4 -1/2+x,-1/2-y,-1/2+z
_cell_length_a 9.063(2)
_cell_length_b 13.473(3)
_cell_length_c 12.215(3)
_cell_angle_alpha 90
_cell_angle_beta 104.691(4)
_cell_angle_gamma 90
_cell_formula_units_Z 4
loop_
_atom_type_symbol
_atom_type_radius_bond
C 0.68
H 0.23
N 0.68
O 0.68
loop_
_atom_site_label
_atom_site_type_symbol
_atom_site_fract_x
_atom_site_fract_y
_atom_site_fract_z
C1 C 0.5242(3) 0.3305(2) 0.5207(2)
H1 H 0.58160 0.38850 0.52850
C2 C 0.4017(3) 0.3230(2) 0.4289(2)
H2 H 0.37900 0.37460 0.37680
C3 C 0.3116(3) 0.23886(19) 0.4134(2)
H3 H 0.22690 0.23290 0.35210
C4 C 0.3525(3) 0.16393(18) 0.49258(19)
C5 C 0.4818(3) 0.17909(19) 0.58275(19)
C6 C 0.5091(3) 0.08784(19) 0.6527(2)
C7 C 0.3995(3) 0.01805(18) 0.60342(19)
C8 C 0.4054(3) -0.0748(2) 0.6515(2)
H4 H 0.33470 -0.12370 0.62060
C9 C 0.5208(3) -0.0919(2) 0.7476(2)
H5 H 0.53050 -0.15380 0.78250
C10 C 0.6209(3) -0.0172(3) 0.7913(2)
H6 H 0.69560 -0.03050 0.85740
C11 C 0.2966(3) 0.06163(18) 0.50339(19)
C12 C -0.0358(3) -0.01195(17) 0.2942(2)
C13 C -0.1351(3) 0.02805(19) 0.2026(2)
H7 H -0.12280 0.09360 0.18260
C14 C -0.2518(3) -0.02631(18) 0.1402(2)
H8 H -0.31850 0.00140 0.07690
C15 C -0.2716(3) -0.12383(16) 0.17096(19)
C16 C -0.1760(3) -0.16593(19) 0.2642(2)
H9 H -0.19210 -0.23060 0.28500
C17 C -0.0533(3) -0.1102(2) 0.3280(2)
H10 H 0.01460 -0.13740 0.39100
N1 N 0.5676(3) 0.26040(18) 0.60041(19)
N2 N 0.6197(3) 0.07431(19) 0.74595(18)
N3 N 0.1832(2) 0.00782(16) 0.44531(17)
N4 N 0.0854(3) 0.04589(17) 0.35579(19)
N5 N -0.3975(2) -0.18018(16) 0.10255(19)
O1 O -0.4793(3) -0.14383(17) 0.01841(17)
O2 O -0.4176(2) -0.26490(15) 0.1335(2)
H11 H 0.087(5) 0.115(3) 0.347(3)
#END
