
#######################################################################
#
#                 Cambridge Crystallographic Data Centre
#                                CCDC
#
#######################################################################
#
# If this CIF has been generated from an entry in the Cambridge
# Structural Database, then it will include bibliographic, chemical,
# crystal, experimental, refinement or atomic coordinate data resulting
# from the CCDC's data processing and validation procedures.
#
#######################################################################

data_CSD_CIF_PAFCOR
_audit_creation_date 2015-12-18
_audit_creation_method CSD-ConQuest-V1
_database_code_CSD PAFCOR
_database_code_depnum_ccdc_archive 'CCDC 1009510'
_chemical_formula_sum 'C19 H14 N2 O3'
_chemical_formula_moiety
;
C19 H14 N2 O3
;
_journal_coden_Cambridge 206
_journal_volume 45
_journal_year 2015
_journal_page_first 2203
_journal_name_full 'Synth.Commun. '
loop_
_publ_author_name
"R.Satheeshkumar"
"W.Kaminsky"
"H.A.Sparkes"
"K.J.R.Prasad"
_chemical_name_systematic
;
7-nitro-9-phenyl-3,4-dihydroacridin-1(2H)-one
;
_cell_volume   1468.644
_exptl_crystal_colour 'yellow'
_exptl_crystal_density_diffrn 1.44
_exptl_crystal_description 'prism'
_diffrn_ambient_temperature 130
#These two values have been output from a single CSD field.
_refine_ls_R_factor_gt 0.0513
_refine_ls_wR_factor_gt 0.0513
_symmetry_cell_setting monoclinic
_symmetry_space_group_name_H-M 'P 21/c'
_symmetry_Int_Tables_number 14
loop_
_symmetry_equiv_pos_site_id
_symmetry_equiv_pos_as_xyz
1 x,y,z
2 -x,1/2+y,1/2-z
3 -x,-y,-z
4 x,-1/2-y,-1/2+z
_cell_length_a 9.7295(6)
_cell_length_b 20.7475(17)
_cell_length_c 7.8417(4)
_cell_angle_alpha 90
_cell_angle_beta 111.907(4)
_cell_angle_gamma 90
_cell_formula_units_Z 4
loop_
_atom_type_symbol
_atom_type_radius_bond
C 0.68
H 0.23
N 0.68
O 0.68
loop_
_atom_site_label
_atom_site_type_symbol
_atom_site_fract_x
_atom_site_fract_y
_atom_site_fract_z
C1 C 0.35512(18) -0.07038(8) 0.5887(2)
C2 C 0.46489(19) -0.11581(7) 0.6781(2)
H1 H 0.44870 -0.16050 0.65260
C3 C 0.5951(2) -0.09386(7) 0.8025(2)
H2 H 0.67210 -0.12370 0.86240
C4 C 0.61864(19) -0.02721(7) 0.8449(2)
C5 C 0.50248(18) 0.01746(7) 0.7599(2)
C6 C 0.37028(18) -0.00564(7) 0.6245(2)
H3 H 0.29290 0.02330 0.55920
C7 C 0.52741(18) 0.08419(7) 0.8126(2)
C8 C 0.66590(18) 0.10055(7) 0.9402(2)
C9 C 0.70325(19) 0.16678(8) 1.0218(2)
C10 C 0.8631(2) 0.18605(8) 1.1058(3)
H4 H 0.88700 0.19620 1.23710
H5 H 0.87680 0.22610 1.04510
C11 C 0.9729(2) 0.13629(8) 1.0929(3)
H6 H 1.07390 0.14750 1.17890
H7 H 0.97290 0.13560 0.96670
C12 C 0.92974(19) 0.07045(8) 1.1411(3)
H8 H 1.00220 0.03790 1.13510
H9 H 0.93190 0.07110 1.26830
C13 C 0.77736(18) 0.05209(8) 1.0107(2)
C14 C 0.40852(18) 0.13240(7) 0.7237(2)
C15 C 0.43889(19) 0.18563(7) 0.6342(2)
H10 H 0.53630 0.19190 0.63670
C16 C 0.32882(19) 0.22927(8) 0.5423(2)
H11 H 0.35040 0.26480 0.48020
C17 C 0.18692(19) 0.22115(8) 0.5407(2)
H12 H 0.11130 0.25120 0.47780
C18 C 0.15559(19) 0.16902(7) 0.6312(2)
H13 H 0.05870 0.16370 0.63130
C19 C 0.26537(18) 0.12474(7) 0.7213(2)
H14 H 0.24290 0.08890 0.78180
N1 N 0.75465(15) -0.00953(6) 0.9676(2)
N2 N 0.21751(16) -0.09363(6) 0.4460(2)
O1 O 0.60905(13) 0.20342(5) 1.02837(18)
O2 O 0.11704(15) -0.05536(6) 0.3738(2)
O3 O 0.20944(14) -0.15107(5) 0.4059(2)
#END
