
#######################################################################
#
#                 Cambridge Crystallographic Data Centre
#                                CCDC
#
#######################################################################
#
# If this CIF has been generated from an entry in the Cambridge
# Structural Database, then it will include bibliographic, chemical,
# crystal, experimental, refinement or atomic coordinate data resulting
# from the CCDC's data processing and validation procedures.
#
#######################################################################

data_CSD_CIF_PAGNUJ
_audit_creation_date 2017-02-01
_audit_creation_method CSD-ConQuest-V1
_database_code_CSD PAGNUJ
_database_code_depnum_ccdc_archive 'CCDC 883593'
_chemical_formula_sum 'C9 H5 N7 O8'
_chemical_formula_moiety
;
C9 H5 N7 O8
;
_journal_coden_Cambridge 1122
_journal_volume 31
_journal_year 2013
_journal_page_first 243
_journal_name_full 'Chin.J.Chem. '
loop_
_publ_author_name
"Kehui Hou"
"Zuliang Liu"
_chemical_name_systematic
;
2,4,6-trinitro-3-(4-nitro-1H-imidazol-1-yl)aniline
;
_cell_volume   1302.111
_exptl_crystal_density_diffrn 1.73
_diffrn_ambient_temperature 293
#These two values have been output from a single CSD field.
_refine_ls_R_factor_gt 0.074
_refine_ls_wR_factor_gt 0.074
_symmetry_cell_setting monoclinic
_symmetry_space_group_name_H-M 'P 21/n'
_symmetry_Int_Tables_number 14
loop_
_symmetry_equiv_pos_site_id
_symmetry_equiv_pos_as_xyz
1 x,y,z
2 1/2-x,1/2+y,1/2-z
3 -x,-y,-z
4 -1/2+x,-1/2-y,-1/2+z
_cell_length_a 8.3830(17)
_cell_length_b 18.448(4)
_cell_length_c 8.5850(17)
_cell_angle_alpha 90
_cell_angle_beta 101.26(3)
_cell_angle_gamma 90
_cell_formula_units_Z 4
loop_
_atom_type_symbol
_atom_type_radius_bond
C 0.68
H 0.23
N 0.68
O 0.68
loop_
_atom_site_label
_atom_site_type_symbol
_atom_site_fract_x
_atom_site_fract_y
_atom_site_fract_z
O1 O 0.6444(4) 0.13511(18) 0.5485(4)
N1 N 0.8312(5) 0.2404(2) 0.4572(4)
C1 C 0.9358(6) 0.2931(3) 0.4634(5)
H1 H 0.95870 0.31650 0.37440
O2 O 0.7440(4) 0.15470(19) 0.7948(4)
N2 N 1.0079(4) 0.3098(2) 0.6154(4)
C2 C 0.8384(5) 0.2226(2) 0.6117(5)
O3 O 1.2826(5) 0.24215(18) 0.5852(4)
N3 N 0.7377(4) 0.1672(2) 0.6536(5)
C3 C 0.9446(5) 0.2640(2) 0.7117(5)
H2 H 0.96920 0.26180 0.82200
N4 N 1.3646(5) 0.2963(2) 0.6223(4)
C4 C 1.1200(5) 0.3667(2) 0.6641(4)
O4 O 1.5096(4) 0.2984(2) 0.6263(5)
C5 C 1.2858(5) 0.3618(2) 0.6653(4)
O5 O 1.5744(8) 0.5282(3) 0.8387(9)
N5 N 1.4341(9) 0.5414(3) 0.8224(7)
C6 C 1.3853(5) 0.4204(2) 0.7167(5)
H3 H 1.49640 0.41740 0.71860
N6 N 1.0893(6) 0.5517(2) 0.8142(5)
H4 H 1.14960 0.58850 0.84740
H5 H 0.98640 0.55350 0.81200
O6 O 1.3897(7) 0.5982(3) 0.8563(7)
C7 C 1.3204(6) 0.4831(2) 0.7648(5)
N7 N 0.8853(5) 0.4369(3) 0.7000(5)
O7 O 0.8004(5) 0.4517(4) 0.5792(5)
C8 C 1.1553(7) 0.4921(3) 0.7664(5)
O8 O 0.8289(5) 0.4227(4) 0.8126(6)
C9 C 1.0608(5) 0.4307(3) 0.7088(5)
#END
