
#######################################################################
#
#                 Cambridge Crystallographic Data Centre
#                                CCDC
#
#######################################################################
#
# If this CIF has been generated from an entry in the Cambridge
# Structural Database, then it will include bibliographic, chemical,
# crystal, experimental, refinement or atomic coordinate data resulting
# from the CCDC's data processing and validation procedures.
#
#######################################################################

data_CSD_CIF_PAHBEG01
_audit_creation_date 2005-02-28
_audit_creation_method CSD-ConQuest-V1
_database_code_CSD PAHBEG01
_database_code_depnum_ccdc_archive 'CCDC 263066'
_chemical_formula_sum 'C16 H14 N4 O4'
_chemical_formula_moiety
;
C16 H14 N4 O4
;
_journal_coeditor_code "IUCr SK1795"
_journal_coden_Cambridge 591
_journal_volume 61
_journal_year 2005
_journal_page_first o53
_journal_name_full 'Acta Crystallogr.,Sect.C:Cryst.Struct.Commun. '
loop_
_publ_author_name
"J.A.S.Bomfim"
"J.L.Wardell"
"J.N.Low"
"J.M.S.Skakle"
"C.Glidewell"
_chemical_name_systematic
;
N,N'-bis(4-Nitrobenzylidene)ethane-1,2-diamine
;
_chemical_melting_point 470
_cell_volume    756.383
_exptl_crystal_colour 'colorless'
_exptl_crystal_density_diffrn 1.433
_exptl_special_details
;
Melting point range 470-474K

;
_exptl_crystal_description 'block'
_exptl_crystal_preparation 'ethanol'
_diffrn_ambient_temperature 291
#These two values have been output from a single CSD field.
_refine_ls_R_factor_gt 0.0498
_refine_ls_wR_factor_gt 0.0498
_symmetry_cell_setting monoclinic
_symmetry_space_group_name_H-M 'P 21/n'
_symmetry_Int_Tables_number 14
loop_
_symmetry_equiv_pos_site_id
_symmetry_equiv_pos_as_xyz
1 x,y,z
2 1/2+x,1/2-y,1/2+z
3 -x,-y,-z
4 -1/2-x,-1/2+y,-1/2-z
_cell_length_a 9.1606(5)
_cell_length_b 7.2295(4)
_cell_length_c 11.5201(6)
_cell_angle_alpha 90
_cell_angle_beta 97.515(1)
_cell_angle_gamma 90
_cell_formula_units_Z 2
loop_
_atom_type_symbol
_atom_type_radius_bond
C 0.68
H 0.23
N 0.68
O 0.68
loop_
_atom_site_label
_atom_site_type_symbol
_atom_site_fract_x
_atom_site_fract_y
_atom_site_fract_z
C1 C 0.65651(10) 0.61482(12) 0.84386(8)
C2 C 0.76610(11) 0.55056(15) 0.92992(9)
C3 C 0.75854(11) 0.58513(15) 1.04745(9)
C4 C 0.64019(10) 0.68550(13) 1.07645(8)
C5 C 0.53105(11) 0.75438(14) 0.99337(9)
C6 C 0.54022(10) 0.71854(13) 0.87660(8)
N1 N 0.62729(11) 0.71766(14) 1.20096(8)
O1 O 0.71543(10) 0.64149(18) 1.27437(7)
O2 O 0.52630(12) 0.81622(15) 1.22517(8)
C7 C 0.66027(11) 0.56711(14) 0.71954(8)
N2 N 0.56005(11) 0.61914(13) 0.64048(7)
C8 C 0.56739(13) 0.55764(17) 0.52097(9)
H1 H 0.84500 0.48380 0.90830
H2 H 0.83110 0.54190 1.10510
H3 H 0.45340 0.82310 1.01550
H4 H 0.46810 0.76400 0.81940
H5 H 0.73820 0.49720 0.69910
H6 H 0.65570 0.48460 0.51820
H7 H 0.57160 0.66400 0.47020
C8B C 0.43261(13) 0.44236(17) 0.47903(9)
N2B N 0.43995(11) 0.38086(13) 0.35952(7)
C7B C 0.33973(11) 0.43289(14) 0.28046(8)
C1B C 0.34349(10) 0.38518(12) 0.15614(8)
C2B C 0.23390(11) 0.44944(15) 0.07008(9)
C3B C 0.24146(11) 0.41487(15) -0.04745(9)
C4B C 0.35981(10) 0.31450(13) -0.07645(8)
C5B C 0.46895(11) 0.24562(14) 0.00663(9)
C6B C 0.45978(10) 0.28146(13) 0.12340(8)
H4B H 0.53190 0.23600 0.18060
H3B H 0.54660 0.17690 -0.01550
N1B N 0.37271(11) 0.28234(14) -0.20096(8)
O1B O 0.28457(10) 0.35851(18) -0.27437(7)
O2B O 0.47370(12) 0.18378(15) -0.22517(8)
H2B H 0.16890 0.45810 -0.10510
H1B H 0.15500 0.51620 0.09170
H5B H 0.26180 0.50280 0.30090
H6B H 0.34430 0.51540 0.48180
H7B H 0.42840 0.33600 0.52980
#END
