
#######################################################################
#
#                 Cambridge Crystallographic Data Centre
#                                CCDC
#
#######################################################################
#
# If this CIF has been generated from an entry in the Cambridge
# Structural Database, then it will include bibliographic, chemical,
# crystal, experimental, refinement or atomic coordinate data resulting
# from the CCDC's data processing and validation procedures.
#
#######################################################################

data_CSD_CIF_PAJXEG
_audit_creation_date 2017-02-01
_audit_creation_method CSD-ConQuest-V1
_database_code_CSD PAJXEG
_database_code_depnum_ccdc_archive 'CCDC 1526274'
_chemical_formula_sum 'C12 H5 N5 O8'
_chemical_formula_moiety
;
C12 H5 N5 O8
;
_journal_coden_Cambridge 1320
_journal_volume 20
_journal_year 2017
_journal_page_first 850
_journal_name_full 'Thesis '
loop_
_publ_author_name
"J.Sarlauskas"
_chemical_name_systematic
;
1,3,6,8-tetranitro-9H-carbazole
;
_cell_volume   1306.693
_exptl_crystal_colour 'brown'
_exptl_crystal_density_diffrn 1.765
_exptl_special_details
;
Light-sensitive

;
_exptl_crystal_description 'Plate'
_exptl_crystal_preparation 'Nitromethane'
_diffrn_ambient_temperature 173
#These two values have been output from a single CSD field.
_refine_ls_R_factor_gt 0.0625
_refine_ls_wR_factor_gt 0.0625
_symmetry_cell_setting monoclinic
_symmetry_space_group_name_H-M 'P 21/c'
_symmetry_Int_Tables_number 14
loop_
_symmetry_equiv_pos_site_id
_symmetry_equiv_pos_as_xyz
1 x,y,z
2 -x,1/2+y,1/2-z
3 -x,-y,-z
4 x,-1/2-y,-1/2+z
_cell_length_a 7.3465(3)
_cell_length_b 15.0876(7)
_cell_length_c 12.3372(5)
_cell_angle_alpha 90
_cell_angle_beta 107.146(3)
_cell_angle_gamma 90
_cell_formula_units_Z 4
loop_
_atom_type_symbol
_atom_type_radius_bond
C 0.68
H 0.23
N 0.68
O 0.68
loop_
_atom_site_label
_atom_site_type_symbol
_atom_site_fract_x
_atom_site_fract_y
_atom_site_fract_z
N1 N -0.4832(3) 0.14661(15) -0.14332(17)
O1 O -0.5897(2) 0.09308(12) -0.11660(14)
C1 C -0.2228(3) 0.08986(15) 0.01454(18)
H1 H -0.32510 0.05070 0.03170
O2 O 0.6481(2) 0.11506(13) 0.23889(15)
C2 C -0.0316(3) 0.09105(15) 0.07578(18)
C3 C 0.0810(3) 0.04172(15) 0.17268(18)
N2 N 0.2762(3) 0.13609(14) 0.11750(16)
H2 H 0.376(4) 0.167(2) 0.118(2)
N3 N 0.1577(3) 0.26646(16) -0.0804(2)
N4 N 0.6119(3) 0.06161(16) 0.30561(18)
O3 O 0.3217(3) 0.27258(13) -0.01723(17)
C4 C 0.0296(3) 0.20470(16) -0.04859(19)
C5 C 0.0967(3) 0.14921(15) 0.04492(18)
C6 C -0.2819(3) 0.14643(16) -0.07737(18)
C7 C 0.1836(4) -0.06041(18) 0.32369(19)
C8 C 0.0355(3) -0.02410(17) 0.23816(19)
H3 H -0.08740 -0.05060 0.22190
C9 C 0.3717(4) -0.03360(19) 0.3470(2)
H4 H 0.48060 -0.05080 0.41550
C10 C -0.1594(3) 0.20376(16) -0.1100(2)
H5 H -0.20500 0.24240 -0.17410
C11 C 0.4146(3) 0.03350(18) 0.28281(19)
O4 O 0.0964(3) 0.30831(18) -0.1675(2)
C12 C 0.2712(3) 0.07148(16) 0.19464(18)
O5 O 0.7316(3) 0.02989(19) 0.38640(18)
N5 N 0.1409(4) -0.13450(19) 0.3885(2)
O6 O -0.0255(3) -0.14951(18) 0.3800(2)
O7 O -0.5369(3) 0.19848(14) -0.22221(16)
O8 O 0.2732(3) -0.1768(2) 0.4476(2)
#END
