
#######################################################################
#
#                 Cambridge Crystallographic Data Centre
#                                CCDC
#
#######################################################################
#
# If this CIF has been generated from an entry in the Cambridge
# Structural Database, then it will include bibliographic, chemical,
# crystal, experimental, refinement or atomic coordinate data resulting
# from the CCDC's data processing and validation procedures.
#
#######################################################################

data_CSD_CIF_PAKPAV
_audit_creation_date 2017-02-02
_audit_creation_method CSD-ConQuest-V1
_database_code_CSD PAKPAV
_database_code_depnum_ccdc_archive 'CCDC 742038'
_chemical_formula_sum 'C21 H23 N5 O5'
_chemical_formula_moiety
;
C21 H23 N5 O5
;
_journal_coden_Cambridge 1517
_journal_volume 57
_journal_year 2009
_journal_page_first 9
_journal_name_full 'Mukogawa Joshi Daigaku Kiyo (Shizen Kagaku Hen)(Bulletin of Mukogawa Women's University (Natural Science)) '
loop_
_publ_author_name
"K.Seguchi"
"S.Tanaka"
_chemical_name_systematic
;
9-methoxy-6-(methoxyamino)-5-(N-methoxyethanimidoyl)-2-phenyl-5,6-dihydro-1H-[
1,2,4]triazolo[1,2-a]cinnoline-1,3(2H)-dione
;
_chemical_melting_point 434
_cell_volume   2185.846
_exptl_crystal_colour 'colorless'
_exptl_crystal_density_diffrn 1.293
_exptl_special_details
;
ethanol

;
_exptl_crystal_description 'plates'
_diffrn_ambient_temperature ?
_diffrn_special_details
;
The study was carried out at room temperature,in the range 283-303K

;
#These two values have been output from a single CSD field.
_refine_ls_R_factor_gt 0.049
_refine_ls_wR_factor_gt 0.049
loop_
_citation_database_id_CSD
_citation_special_details
PAKNUN "is a stereoisomer of this entry"
_symmetry_cell_setting monoclinic
_symmetry_space_group_name_H-M 'P 21/c'
_symmetry_Int_Tables_number 14
loop_
_symmetry_equiv_pos_site_id
_symmetry_equiv_pos_as_xyz
1 x,y,z
2 -x,1/2+y,1/2-z
3 -x,-y,-z
4 x,-1/2-y,-1/2+z
_cell_length_a 12.168(3)
_cell_length_b 14.908(3)
_cell_length_c 13.258(3)
_cell_angle_alpha 90
_cell_angle_beta 114.65(1)
_cell_angle_gamma 90
_cell_formula_units_Z 4
loop_
_atom_type_symbol
_atom_type_radius_bond
C 0.68
H 0.23
N 0.68
O 0.68
loop_
_atom_site_label
_atom_site_type_symbol
_atom_site_fract_x
_atom_site_fract_y
_atom_site_fract_z
O1 O 0.5638(2) -0.1239(1) 0.6399(2)
O2 O 0.8650(2) 0.0752(2) 0.6778(2)
O3 O 0.6028(2) 0.3111(2) 0.5736(2)
O4 O 0.2103(3) -0.0388(2) 0.6765(3)
O5 O 0.8336(3) 0.0659(2) 0.9953(3)
N1 N 0.5110(3) 0.2546(2) 0.5814(3)
N2 N 0.7328(2) -0.0442(2) 0.6528(2)
N3 N 0.5806(2) 0.0307(2) 0.6569(2)
N4 N 0.6690(2) 0.0935(2) 0.6601(2)
N5 N 0.7711(3) 0.0745(2) 0.8782(3)
C1 C 0.8104(3) -0.1191(2) 0.6579(3)
C2 C 0.8934(4) -0.1495(3) 0.7557(4)
C3 C 0.9656(4) -0.2216(4) 0.7581(4)
C4 C 0.9549(3) -0.2613(3) 0.6671(4)
C5 C 0.8717(4) -0.2318(3) 0.5706(4)
C6 C 0.7989(4) -0.1600(3) 0.5660(4)
C7 C 0.7691(3) 0.0442(2) 0.6669(3)
C8 C 0.6179(3) -0.0538(2) 0.6498(3)
C9 C 0.6857(3) 0.1728(2) 0.7288(3)
C10 C 0.5615(3) 0.2168(2) 0.6936(3)
C11 C 0.4712(3) 0.1492(2) 0.6983(3)
C12 C 0.3750(3) 0.1753(2) 0.7224(3)
C13 C 0.2876(3) 0.1154(3) 0.7183(3)
C14 C 0.2944(3) 0.0277(3) 0.6880(3)
C15 C 0.3917(3) -0.0013(2) 0.6674(3)
C16 C 0.4797(3) 0.0598(2) 0.6742(3)
C17 C 0.7476(3) 0.1557(3) 0.8506(3)
C18 C 0.7790(4) 0.2340(3) 0.9277(3)
C19 C 0.8519(6) -0.0266(4) 1.0204(4)
C20 C 0.5539(4) 0.3959(3) 0.5391(4)
C21 C 0.1018(5) -0.0144(4) 0.6742(6)
H1 H 0.73600 0.21430 0.70940
H2 H 0.37120 0.23760 0.74340
H3 H 0.39520 -0.06400 0.64710
H4 H 0.56850 0.26600 0.74540
H5 H 1.01020 -0.31020 0.66910
H6 H 0.22190 0.13360 0.73740
H7 H 0.73600 -0.14000 0.49520
H8 H 0.86380 0.24010 0.97180
H9 H 0.75090 0.29040 0.88830
H10 H 0.74050 0.22990 0.97920
H11 H 0.61090 0.43800 0.53250
H12 H 0.48500 0.39510 0.46620
H13 H 0.52360 0.42300 0.58900
H14 H 1.02220 -0.25020 0.82740
H15 H 0.86400 -0.26320 0.50090
H16 H 0.89940 -0.12340 0.82760
H17 H 0.76870 -0.05750 0.99220
H18 H 0.89070 -0.05810 0.98120
H19 H 0.88870 -0.04120 1.09590
H20 H 0.10420 0.02000 0.73610
H21 H 0.05700 0.02760 0.60820
H22 H 0.04440 -0.06220 0.66160
H23 H 0.50130 0.20400 0.52160
#END
