
#######################################################################
#
#                 Cambridge Crystallographic Data Centre
#                                CCDC
#
#######################################################################
#
# If this CIF has been generated from an entry in the Cambridge
# Structural Database, then it will include bibliographic, chemical,
# crystal, experimental, refinement or atomic coordinate data resulting
# from the CCDC's data processing and validation procedures.
#
#######################################################################

data_CSD_CIF_PALBIO
_audit_creation_date 2005-07-27
_audit_creation_method CSD-ConQuest-V1
_database_code_CSD PALBIO
_database_code_depnum_ccdc_archive 'CCDC 252498'
_chemical_formula_sum 'C17 H28 N2 O6'
_chemical_formula_moiety
;
C17 H28 N2 O6
;
_journal_coden_Cambridge 1291
_journal_year 2005
_journal_page_first 1003
_journal_name_full 'Eur.J.Org.Chem. '
loop_
_publ_author_name
"M.Helms"
"W.Schade"
"R.Pulz"
"T.Watanabe"
"A.Al-Harrasi"
"L.Fisera"
"I.Hlobilova"
"G.Zahn"
"H.-U.Reissig"
_chemical_name_systematic
;
(3R,3'R,4''R,5''R)-3,3'-(2'',2''-Dimethyl-1'',3''-dioxolan-4'',5''-yl)-bis(4-m
ethoxy-2-methyl-3,6-dihydro-2H-1,2-oxazine)
;
_chemical_melting_point 388
_cell_volume   1899.023
_exptl_crystal_colour 'colorless'
_exptl_crystal_density_diffrn 1.247
_diffrn_ambient_temperature 301
#These two values have been output from a single CSD field.
_refine_ls_R_factor_gt 0.045
_refine_ls_wR_factor_gt 0.045
_symmetry_cell_setting orthorhombic
_symmetry_space_group_name_H-M 'P 21 21 21'
_symmetry_Int_Tables_number 19
loop_
_symmetry_equiv_pos_site_id
_symmetry_equiv_pos_as_xyz
1 x,y,z
2 1/2-x,-y,1/2+z
3 -x,1/2+y,1/2-z
4 1/2+x,1/2-y,-z
_cell_length_a 8.8000(4)
_cell_length_b 14.6592(7)
_cell_length_c 14.7210(7)
_cell_angle_alpha 90
_cell_angle_beta 90
_cell_angle_gamma 90
_cell_formula_units_Z 4
loop_
_atom_type_symbol
_atom_type_radius_bond
C 0.68
H 0.23
N 0.68
O 0.68
loop_
_atom_site_label
_atom_site_type_symbol
_atom_site_fract_x
_atom_site_fract_y
_atom_site_fract_z
O1 O 0.28834(17) 1.12589(9) 0.80761(11)
O2 O 0.56831(17) 0.92468(11) 0.71395(11)
O3 O 0.2516(2) 0.92626(12) 0.64885(9)
O4 O 0.1036(2) 0.80485(12) 0.68643(10)
O5 O 0.1662(2) 0.75668(13) 0.94700(11)
O6 O -0.0452(2) 0.98936(10) 0.86898(11)
N1 N 0.47806(19) 0.90595(11) 0.79355(12)
N2 N 0.0279(2) 0.75278(13) 0.89420(13)
C1 C 0.3216(3) 1.22072(13) 0.79800(19)
H1 H 0.23840 1.25600 0.82130
H2 H 0.33640 1.23480 0.73490
H3 H 0.41230 1.23510 0.83130
C2 C 0.3978(2) 1.06651(12) 0.77842(13)
C3 C 0.5298(2) 1.08654(14) 0.74190(15)
H4 H 0.55670 1.14730 0.73330
C4 C 0.6367(3) 1.01312(16) 0.71418(17)
H5 H 0.67480 1.02640 0.65380
H6 H 0.72270 1.01280 0.75540
C5 C 0.5728(3) 0.91056(18) 0.87466(17)
H7 H 0.51690 0.88770 0.92580
H8 H 0.60150 0.97280 0.88570
H9 H 0.66240 0.87430 0.86580
C6 C 0.3504(2) 0.96971(11) 0.79771(13)
H10 H 0.31690 0.96940 0.86120
C7 C 0.2131(2) 0.93803(13) 0.74251(13)
H11 H 0.13060 0.98260 0.74820
C8 C 0.1580(3) 0.85690(15) 0.61326(14)
C9 C 0.2509(5) 0.7963(3) 0.5528(3)
H12 H 0.28890 0.83110 0.50250
H13 H 0.18860 0.74740 0.53060
H14 H 0.33460 0.77160 0.58670
C10 C 0.0276(5) 0.8976(3) 0.5641(4)
H15 H 0.06440 0.93350 0.51420
H16 H -0.02910 0.93580 0.60480
H17 H -0.03690 0.84990 0.54160
C11 C 0.1560(2) 0.84356(12) 0.77014(13)
H18 H 0.24250 0.80760 0.79190
C12 C 0.0276(2) 0.83697(12) 0.84024(13)
H19 H -0.06830 0.83820 0.80640
C13 C 0.0403(4) 0.66966(15) 0.8401(2)
H20 H 0.13150 0.67190 0.80440
H21 H -0.04620 0.66480 0.80070
H22 H 0.04380 0.61770 0.87970
C14 C 0.1391(5) 0.8176(2) 1.02128(18)
H23 H 0.23380 0.82840 1.05330
H24 H 0.06870 0.78940 1.06350
C15 C 0.0756(3) 0.90630(19) 0.99022(15)
H25 H 0.07360 0.95590 1.02960
C16 C 0.0222(2) 0.91472(14) 0.90725(14)
C17 C -0.0587(4) 1.06879(18) 0.9227(2)
H26 H -0.12170 1.05620 0.97440
H27 H -0.10370 1.11670 0.88720
H28 H 0.04030 1.08750 0.94290
#END
