
#######################################################################
#
#                 Cambridge Crystallographic Data Centre
#                                CCDC
#
#######################################################################
#
# If this CIF has been generated from an entry in the Cambridge
# Structural Database, then it will include bibliographic, chemical,
# crystal, experimental, refinement or atomic coordinate data resulting
# from the CCDC's data processing and validation procedures.
#
#######################################################################

data_CSD_CIF_PALTAZ
_audit_creation_date 2012-04-10
_audit_creation_method CSD-ConQuest-V1
_database_code_CSD PALTAZ
_database_code_depnum_ccdc_archive 'CCDC 814435 (not 81445 as published)'
_chemical_formula_sum 'C19 H16 N2 O8'
_chemical_formula_moiety
;
C19 H16 N2 O8
;
_journal_coden_Cambridge 1291
_journal_year 2012
_journal_page_first 353
_journal_name_full 'Eur.J.Org.Chem. '
loop_
_publ_author_name
"R.J.Reddy"
"Pei-Hsun Lee"
"D.R.Magar"
"Jung-Hsuan Chen"
"Kwunmin Chen"
_chemical_name_systematic
;
(Z)-1-ethoxy-4-nitro-1-oxo-3-phenylbut-3-en-2-yl 4-nitrobenzoate
;
_chemical_melting_point 429.15
_cell_volume   1898.251
_exptl_crystal_colour 'colorless'
_exptl_crystal_density_diffrn 1.401
_exptl_special_details
;
Melting point range 429.15-431.15K

;
_exptl_crystal_description 'prism'
_diffrn_ambient_temperature 200
#These two values have been output from a single CSD field.
_refine_ls_R_factor_gt 0.0463
_refine_ls_wR_factor_gt 0.0463
_symmetry_cell_setting monoclinic
_symmetry_space_group_name_H-M 'P 21/a'
_symmetry_Int_Tables_number 14
loop_
_symmetry_equiv_pos_site_id
_symmetry_equiv_pos_as_xyz
1 x,y,z
2 1/2-x,1/2+y,-z
3 -x,-y,-z
4 -1/2+x,-1/2-y,z
_cell_length_a 15.6370(4)
_cell_length_b 6.7130(2)
_cell_length_c 18.4780(5)
_cell_angle_alpha 90
_cell_angle_beta 101.860(1)
_cell_angle_gamma 90
_cell_formula_units_Z 4
loop_
_atom_type_symbol
_atom_type_radius_bond
C 0.68
H 0.23
N 0.68
O 0.68
loop_
_atom_site_label
_atom_site_type_symbol
_atom_site_fract_x
_atom_site_fract_y
_atom_site_fract_z
C1 C 0.39494(14) 0.6335(3) 0.46308(11)
C2 C 0.36764(15) 0.4386(4) 0.45947(12)
H1 H 0.33510 0.38770 0.49350
C3 C 0.38877(15) 0.3188(4) 0.40506(12)
H2 H 0.37080 0.18340 0.40150
C4 C 0.43605(13) 0.3943(3) 0.35547(11)
C5 C 0.46157(15) 0.5923(3) 0.35972(12)
H3 H 0.49290 0.64520 0.32510
C6 C 0.44120(15) 0.7127(3) 0.41463(12)
H4 H 0.45910 0.84830 0.41860
C7 C 0.45699(13) 0.2548(3) 0.29919(11)
C8 C 0.51640(12) 0.2199(3) 0.19260(11)
H5 H 0.52640 0.08180 0.21280
C9 C 0.43549(13) 0.2142(3) 0.13009(11)
C10 C 0.38405(14) 0.0837(4) 0.00954(12)
H6 H 0.40630 0.07470 -0.03680
H7 H 0.34030 0.19230 0.00390
C11 C 0.34216(18) -0.1091(4) 0.02328(14)
H8 H 0.29380 -0.13810 -0.01820
H9 H 0.31980 -0.09920 0.06900
H10 H 0.38540 -0.21640 0.02810
C12 C 0.59829(13) 0.2857(3) 0.17009(11)
C13 C 0.67492(13) 0.1925(3) 0.18395(11)
H11 H 0.72000 0.24840 0.16280
C14 C 0.69690(12) 0.0119(3) 0.22861(12)
C15 C 0.66714(15) -0.0245(4) 0.29360(12)
H12 H 0.63330 0.07320 0.31220
C16 C 0.68668(17) -0.2021(4) 0.33094(14)
H13 H 0.66650 -0.22600 0.37530
C17 C 0.73536(18) -0.3446(4) 0.30403(16)
H14 H 0.74680 -0.46890 0.32870
C18 C 0.76745(17) -0.3069(4) 0.24143(16)
H15 H 0.80200 -0.40450 0.22360
C19 C 0.74991(15) -0.1293(3) 0.20440(13)
H16 H 0.77400 -0.10280 0.16220
N1 N 0.37227(14) 0.7614(3) 0.52102(12)
N2 N 0.58981(13) 0.4651(3) 0.12372(11)
O1 O 0.39334(16) 0.9359(3) 0.52319(13)
O2 O 0.33395(14) 0.6863(3) 0.56524(11)
O3 O 0.44006(11) 0.0797(2) 0.29697(9)
O4 O 0.49907(9) 0.3454(2) 0.25128(7)
O5 O 0.36433(9) 0.2663(2) 0.13667(9)
O6 O 0.45643(9) 0.1281(2) 0.07172(7)
O7 O 0.52160(12) 0.5590(3) 0.11724(11)
O8 O 0.65039(11) 0.5134(3) 0.09469(10)
#END
