
#######################################################################
#
#                 Cambridge Crystallographic Data Centre
#                                CCDC
#
#######################################################################
#
# If this CIF has been generated from an entry in the Cambridge
# Structural Database, then it will include bibliographic, chemical,
# crystal, experimental, refinement or atomic coordinate data resulting
# from the CCDC's data processing and validation procedures.
#
#######################################################################

data_CSD_CIF_PAMHUH
_audit_creation_date 2005-07-27
_audit_creation_method CSD-ConQuest-V1
_database_code_CSD PAMHUH
_database_code_depnum_ccdc_archive 'CCDC 257571'
_chemical_formula_sum 'C33 H30 N2 O14'
_chemical_formula_moiety
;
C33 H30 N2 O14
;
_journal_coden_Cambridge 182
_journal_year 2005
_journal_page_first 1883
_journal_name_full 'Chem.Commun. '
loop_
_publ_author_name
"C.D.L.Baker"
"J.Fawcett"
"C.D.Insley"
"D.S.Messenger"
"C.L.Newland"
"H.L.Overend"
"A.B.Patel"
"M.Shah"
"B.Vara"
"D.Virdee"
"B.J.Rawlings"
_chemical_name_systematic
;
Methyl 
(2R,3S)-bis(4-nitrobenzoyloxy)-3-((1R,4(2')R,5R)-spiro[5-phenyl-3,6,8-trioxabi
cyclo[3.2.1]octan-2-yl-4(2')-tetrahydropyran])propanoate
;
_cell_volume   3145.575
_exptl_crystal_colour 'colorless'
_exptl_crystal_density_diffrn 1.433
_exptl_crystal_description 'needle'
_diffrn_ambient_temperature 150
#These two values have been output from a single CSD field.
_refine_ls_R_factor_gt 0.0548
_refine_ls_wR_factor_gt 0.0548
_symmetry_cell_setting orthorhombic
_symmetry_space_group_name_H-M 'P 21 21 21'
_symmetry_Int_Tables_number 19
loop_
_symmetry_equiv_pos_site_id
_symmetry_equiv_pos_as_xyz
1 x,y,z
2 1/2-x,-y,1/2+z
3 -x,1/2+y,1/2-z
4 1/2+x,1/2-y,-z
_cell_length_a 12.6293(16)
_cell_length_b 12.9407(17)
_cell_length_c 19.247(3)
_cell_angle_alpha 90
_cell_angle_beta 90
_cell_angle_gamma 90
_cell_formula_units_Z 4
loop_
_atom_type_symbol
_atom_type_radius_bond
C 0.68
H 0.23
N 0.68
O 0.68
loop_
_atom_site_label
_atom_site_type_symbol
_atom_site_fract_x
_atom_site_fract_y
_atom_site_fract_z
O1 O 0.61768(18) 0.27097(19) 0.70672(12)
O2 O 0.73259(18) 0.13008(18) 0.71754(11)
O3 O 0.77723(18) 0.30110(19) 0.80010(12)
O4 O 0.90004(18) 0.25967(19) 0.71987(12)
O5 O 0.69142(19) -0.05258(18) 0.76586(12)
O6 O 0.8257(2) -0.0907(2) 0.69268(13)
O7 O 0.4446(2) -0.2489(2) 0.45971(14)
O8 O 0.3294(2) -0.2526(2) 0.54195(15)
O9 O 0.64013(18) 0.00431(19) 0.90336(12)
O10 O 0.6982(2) -0.0012(2) 1.01336(12)
O11 O 0.1272(2) 0.0060(2) 1.01696(15)
O12 O 0.1824(2) -0.0284(2) 1.12097(14)
O13 O 0.6987(2) -0.1933(2) 0.91183(14)
O14 O 0.8636(2) -0.15735(19) 0.87630(14)
N1 N 0.4192(3) -0.2377(3) 0.52051(18)
N2 N 0.1976(3) -0.0073(2) 1.05942(17)
C1 C 0.5315(3) 0.2123(3) 0.6759(2)
H1 H 0.46320 0.24490 0.68830
H2 H 0.53170 0.14130 0.69500
C2 C 0.5418(3) 0.2075(3) 0.59812(19)
H3 H 0.53600 0.27790 0.57840
H4 H 0.48390 0.16490 0.57860
C3 C 0.6474(3) 0.1611(3) 0.57893(19)
H5 H 0.65620 0.16200 0.52780
H6 H 0.65040 0.08830 0.59470
C4 C 0.7367(3) 0.2228(3) 0.61303(18)
H7 H 0.80510 0.18780 0.60440
H8 H 0.74010 0.29250 0.59200
C5 C 0.7187(3) 0.2326(3) 0.69050(18)
C6 C 0.7981(3) 0.3040(3) 0.72753(18)
C7 C 0.9191(3) 0.1959(3) 0.7792(2)
H9 H 0.97780 0.22370 0.80770
H10 H 0.93650 0.12430 0.76510
C8 C 0.8156(3) 0.1998(3) 0.81837(19)
H11 H 0.82650 0.19270 0.86960
C9 C 0.7336(3) 0.1234(3) 0.79134(17)
H12 H 0.66210 0.14070 0.81040
C10 C 0.7611(3) 0.0107(3) 0.80755(18)
H13 H 0.83620 -0.00300 0.79380
C11 C 0.7331(3) -0.0903(3) 0.70560(19)
C12 C 0.6498(3) -0.1315(3) 0.65983(18)
C13 C 0.6796(3) -0.1665(3) 0.59521(19)
H14 H 0.75230 -0.16630 0.58250
C14 C 0.6051(3) -0.2018(3) 0.5489(2)
H15 H 0.62520 -0.22470 0.50390
C15 C 0.5007(3) -0.2032(3) 0.56943(19)
C16 C 0.4676(3) -0.1714(3) 0.63451(19)
H16 H 0.39520 -0.17470 0.64770
C17 C 0.5443(3) -0.1346(3) 0.6798(2)
H17 H 0.52440 -0.11130 0.72480
C18 C 0.7458(3) -0.0190(3) 0.88211(18)
H18 H 0.79670 0.02080 0.91160
C19 C 0.6256(3) 0.0038(3) 0.97319(19)
C20 C 0.5136(3) 0.0085(3) 0.99328(18)
C21 C 0.4326(3) -0.0008(3) 0.94489(19)
H19 H 0.44910 -0.00610 0.89690
C22 C 0.3278(3) -0.0023(3) 0.96624(19)
H20 H 0.27190 -0.00780 0.93350
C23 C 0.3071(3) 0.0044(3) 1.03645(19)
C24 C 0.3858(3) 0.0169(3) 1.0856(2)
H21 H 0.36870 0.02310 1.13350
C25 C 0.4900(3) 0.0201(3) 1.06374(19)
H22 H 0.54530 0.03020 1.09650
C26 C 0.7641(3) -0.1337(3) 0.89266(19)
C27 C 0.8907(4) -0.2667(3) 0.8825(2)
H23 H 0.84500 -0.30750 0.85190
H24 H 0.88050 -0.28910 0.93070
H25 H 0.96490 -0.27700 0.86930
C28 C 0.8007(3) 0.4150(3) 0.70477(18)
C29 C 0.7224(3) 0.4829(3) 0.72542(19)
H26 H 0.66370 0.45860 0.75160
C30 C 0.7299(3) 0.5866(3) 0.7078(2)
H27 H 0.67680 0.63380 0.72260
C31 C 0.8149(3) 0.6215(3) 0.6685(2)
H28 H 0.82060 0.69270 0.65700
C32 C 0.8901(3) 0.5535(3) 0.6464(2)
H29 H 0.94680 0.57730 0.61820
C33 C 0.8850(3) 0.4502(3) 0.66456(19)
H30 H 0.93860 0.40360 0.64970
#END
