
#######################################################################
#
#                 Cambridge Crystallographic Data Centre
#                                CCDC
#
#######################################################################
#
# If this CIF has been generated from an entry in the Cambridge
# Structural Database, then it will include bibliographic, chemical,
# crystal, experimental, refinement or atomic coordinate data resulting
# from the CCDC's data processing and validation procedures.
#
#######################################################################

data_CSD_CIF_PAMNIA
_audit_creation_date 1993-05-11
_audit_creation_method CSD-ConQuest-V1
_database_code_CSD PAMNIA
_database_code_depnum_ccdc_archive 'CCDC 1227795'
_chemical_formula_sum 'C10 H10 N2 O3'
_chemical_formula_moiety
;
C10 H10 N2 O3
;
_journal_coden_Cambridge 464
_journal_volume 44
_journal_year 1991
_journal_page_first 75
_journal_name_full 'S.Afr.J.Chem. '
loop_
_publ_author_name
"D.G.Billing"
"J.C.A.Boeyens"
"D.C.Levendis"
"J.P.Michael"
_chemical_name_systematic
;
N-(3-Nitrophenyl)pyrrolidin-2-one
;
_chemical_melting_point 380.15
_cell_volume    937.317
_exptl_crystal_density_diffrn 1.46
_exptl_special_details
;
Melting point range 380.15-381.65K

;
_diffrn_ambient_temperature ?
_diffrn_special_details
;
The study was carried out at room temperature,in the range 283-303K

;
#These two values have been output from a single CSD field.
_refine_ls_R_factor_gt 0.052
_refine_ls_wR_factor_gt 0.052
_symmetry_cell_setting monoclinic
_symmetry_space_group_name_H-M 'P 21/c'
_symmetry_Int_Tables_number 14
loop_
_symmetry_equiv_pos_site_id
_symmetry_equiv_pos_as_xyz
1 x,y,z
2 -x,1/2+y,1/2-z
3 -x,-y,-z
4 x,-1/2-y,-1/2+z
_cell_length_a 6.950(2)
_cell_length_b 10.608(2)
_cell_length_c 12.730(2)
_cell_angle_alpha 90
_cell_angle_beta 92.91(1)
_cell_angle_gamma 90
_cell_formula_units_Z 4
loop_
_atom_type_symbol
_atom_type_radius_bond
C 0.68
H 0.23
N 0.68
O 0.68
loop_
_atom_site_label
_atom_site_type_symbol
_atom_site_fract_x
_atom_site_fract_y
_atom_site_fract_z
O1 O 0.3822(2) 0.2420(1) 0.2401(1)
O2 O 0.1777(3) -0.1443(1) 0.1829(1)
O3 O 0.1278(3) -0.2949(2) 0.2916(1)
N1 N 0.2805(2) 0.2392(1) 0.4094(1)
N2 N 0.1695(3) -0.1857(2) 0.2724(2)
C1 C 0.3386(3) 0.2956(2) 0.3195(2)
C2 C 0.3430(4) 0.4361(2) 0.3377(2)
C3 C 0.2440(3) 0.4562(2) 0.4396(2)
C4 C 0.2609(3) 0.3293(2) 0.4959(1)
C5 C 0.2627(3) 0.1078(2) 0.4255(1)
C6 C 0.2292(3) 0.0268(2) 0.3403(1)
C7 C 0.2097(3) -0.1001(2) 0.3621(2)
C8 C 0.2208(3) -0.1502(2) 0.4619(2)
C9 C 0.2516(3) -0.0679(2) 0.5451(2)
C10 C 0.2733(3) 0.0606(2) 0.5277(1)
H1 H 0.4898(4) 0.4696(2) 0.3448(2)
H2 H 0.2664(4) 0.4847(2) 0.2738(2)
H3 H 0.3155(3) 0.5292(2) 0.4860(2)
H4 H 0.0946(3) 0.4813(2) 0.4242(2)
H5 H 0.1334(3) 0.3097(2) 0.5382(1)
H6 H 0.3860(3) 0.3270(2) 0.5497(1)
H7 H 0.2188(3) 0.0618(2) 0.2606(1)
H8 H 0.2061(3) -0.2503(2) 0.4748(2)
H9 H 0.2587(3) -0.1038(2) 0.6246(2)
H10 H 0.2986(3) 0.1238(2) 0.5934(1)
#END
