
#######################################################################
#
#                 Cambridge Crystallographic Data Centre
#                                CCDC
#
#######################################################################
#
# If this CIF has been generated from an entry in the Cambridge
# Structural Database, then it will include bibliographic, chemical,
# crystal, experimental, refinement or atomic coordinate data resulting
# from the CCDC's data processing and validation procedures.
#
#######################################################################

data_CSD_CIF_PANJOE
_audit_creation_date 2005-07-27
_audit_creation_method CSD-ConQuest-V1
_database_code_CSD PANJOE
_database_code_depnum_ccdc_archive 'CCDC 277245'
_chemical_formula_sum 'C15 H13 N3 O2'
_chemical_formula_moiety
;
C15 H13 N3 O2
;
_journal_coeditor_code "IUCr DN6224"
_journal_coden_Cambridge 1370
_journal_volume 61
_journal_year 2005
_journal_page_first o2038
_journal_name_full 'Acta Crystallogr.,Sect.E:Struct.Rep.Online '
loop_
_publ_author_name
"S.O.Yildirim"
"M.Akkurt"
"H.Kucukbay"
"E.Orhan"
"O.Buyukgungor"
_chemical_name_systematic
;
6-Nitro-1-(2-phenylethyl)-1H-benzimidazole
;
_chemical_melting_point 409
_cell_volume   1324.909
_exptl_crystal_colour 'colorless'
_exptl_crystal_density_diffrn 1.34
_exptl_special_details
;
Melting point range 409-410K

;
_exptl_crystal_description 'prism'
_exptl_crystal_preparation 'ethanol'
_diffrn_ambient_temperature 296
#These two values have been output from a single CSD field.
_refine_ls_R_factor_gt 0.0419
_refine_ls_wR_factor_gt 0.0419
_symmetry_cell_setting monoclinic
_symmetry_space_group_name_H-M 'P 21/c'
_symmetry_Int_Tables_number 14
loop_
_symmetry_equiv_pos_site_id
_symmetry_equiv_pos_as_xyz
1 x,y,z
2 -x,1/2+y,1/2-z
3 -x,-y,-z
4 x,-1/2-y,-1/2+z
_cell_length_a 6.6382(6)
_cell_length_b 11.4258(6)
_cell_length_c 18.2702(16)
_cell_angle_alpha 90
_cell_angle_beta 107.039(7)
_cell_angle_gamma 90
_cell_formula_units_Z 4
loop_
_atom_type_symbol
_atom_type_radius_bond
C 0.68
H 0.23
N 0.68
O 0.68
loop_
_atom_site_label
_atom_site_type_symbol
_atom_site_fract_x
_atom_site_fract_y
_atom_site_fract_z
O1 O 0.5397(2) 0.24673(14) 0.67652(7)
O2 O 0.2466(3) 0.28135(15) 0.59085(8)
N1 N 0.7196(2) 0.05178(14) 0.38204(8)
N2 N 0.3718(2) 0.08776(11) 0.35325(6)
N3 N 0.4263(3) 0.24378(13) 0.61029(8)
C1 C 0.6745(3) 0.09986(13) 0.44519(9)
C2 C 0.8095(3) 0.12279(15) 0.51789(10)
C3 C 0.7251(3) 0.16928(15) 0.57105(9)
C4 C 0.5111(3) 0.19340(13) 0.55199(8)
C5 C 0.3709(3) 0.17203(13) 0.48051(8)
C6 C 0.4596(2) 0.12379(12) 0.42813(7)
C7 C 0.5344(3) 0.04725(15) 0.33028(10)
C8 C 0.1497(3) 0.08718(16) 0.30919(8)
C9 C 0.0789(3) 0.19722(18) 0.26334(9)
C10 C 0.1051(3) 0.30562(16) 0.31172(9)
C11 C 0.2856(4) 0.3712(2) 0.32642(13)
C12 C 0.3164(5) 0.4663(2) 0.37383(17)
C13 C 0.1647(7) 0.4982(2) 0.40753(16)
C14 C -0.0161(5) 0.4348(2) 0.39367(14)
C15 C -0.0454(4) 0.33838(19) 0.34612(11)
H1 H 0.95280 0.10690 0.52980
H2 H 0.81110 0.18490 0.62020
H3 H 0.22790 0.18890 0.46880
H4 H 0.51660 0.01820 0.28130
H5 H 0.06550 0.07660 0.34400
H6 H 0.12360 0.02080 0.27460
H7 H 0.15900 0.20620 0.22700
H8 H -0.06840 0.18910 0.23440
H9 H 0.38900 0.35050 0.30370
H10 H 0.44010 0.50950 0.38330
H11 H 0.18560 0.56290 0.43970
H12 H -0.11950 0.45630 0.41610
H13 H -0.16870 0.29490 0.33710
#END
