
#######################################################################
#
#                 Cambridge Crystallographic Data Centre
#                                CCDC
#
#######################################################################
#
# If this CIF has been generated from an entry in the Cambridge
# Structural Database, then it will include bibliographic, chemical,
# crystal, experimental, refinement or atomic coordinate data resulting
# from the CCDC's data processing and validation procedures.
#
#######################################################################

data_CSD_CIF_PANJUK
_audit_creation_date 2005-07-27
_audit_creation_method CSD-ConQuest-V1
_database_code_CSD PANJUK
_database_code_depnum_ccdc_archive 'CCDC 277246'
_chemical_formula_sum 'C11 H10 N4 O3'
_chemical_formula_moiety
;
C11 H10 N4 O3
;
_journal_coeditor_code "IUCr DN6226"
_journal_coden_Cambridge 1370
_journal_volume 61
_journal_year 2005
_journal_page_first o1997
_journal_name_full 'Acta Crystallogr.,Sect.E:Struct.Rep.Online '
loop_
_publ_author_name
"Jun Wan"
"Chun-Li Li"
"Xue-Mei Li"
"Ying Li"
"Shu-Sheng Zhang"
"Hong Xu"
"Ping-Kai Ouyang"
_chemical_name_systematic
;
1-(3-Nitrophenyl)-3-(1H-1,2,4-triazol-1-yl)propan-1-one
;
_cell_volume   1158.318
_exptl_crystal_colour 'colorless'
_exptl_crystal_density_diffrn 1.412
_exptl_crystal_description 'column'
_exptl_crystal_preparation 'ethyl acetate/petroleum ether'
_diffrn_ambient_temperature 293
#These two values have been output from a single CSD field.
_refine_ls_R_factor_gt 0.0384
_refine_ls_wR_factor_gt 0.0384
_symmetry_cell_setting orthorhombic
_symmetry_space_group_name_H-M 'P c a 21'
_symmetry_Int_Tables_number 29
loop_
_symmetry_equiv_pos_site_id
_symmetry_equiv_pos_as_xyz
1 x,y,z
2 -x,-y,1/2+z
3 1/2+x,-y,z
4 1/2-x,y,1/2+z
_cell_length_a 26.334(8)
_cell_length_b 4.5962(13)
_cell_length_c 9.570(3)
_cell_angle_alpha 90
_cell_angle_beta 90
_cell_angle_gamma 90
_cell_formula_units_Z 4
loop_
_atom_type_symbol
_atom_type_radius_bond
C 0.68
H 0.23
N 0.68
O 0.68
loop_
_atom_site_label
_atom_site_type_symbol
_atom_site_fract_x
_atom_site_fract_y
_atom_site_fract_z
O1 O 0.16810(9) -0.0697(10) 0.1654(4)
O2 O 0.14445(9) 0.2662(7) 0.3039(3)
O3 O 0.34668(8) -0.2138(5) 0.0558(3)
N1 N 0.49112(7) 0.1405(5) -0.0004(3)
N2 N 0.55200(11) 0.3987(8) -0.0894(4)
N3 N 0.52309(10) 0.1932(8) 0.1071(3)
N4 N 0.17699(9) 0.1252(7) 0.2458(3)
C1 C 0.26751(9) 0.0620(6) 0.1962(3)
H1 H 0.25870 -0.07510 0.12890
C2 C 0.23060(9) 0.1958(6) 0.2745(3)
C3 C 0.24159(11) 0.3947(6) 0.3773(3)
H2 H 0.21590 0.48340 0.42850
C4 C 0.29223(11) 0.4592(7) 0.4023(4)
H3 H 0.30080 0.58770 0.47360
C5 C 0.32982(10) 0.3346(6) 0.3225(3)
H4 H 0.36350 0.38540 0.33820
C6 C 0.31812(9) 0.1334(6) 0.2185(3)
C7 C 0.35737(9) -0.0023(6) 0.1263(3)
C8 C 0.40862(9) 0.1342(6) 0.1182(3)
H5 H 0.42330 0.13930 0.21110
H6 H 0.40500 0.33350 0.08640
C9 C 0.44446(10) -0.0241(6) 0.0214(3)
H7 H 0.45270 -0.21270 0.06090
H8 H 0.42790 -0.05590 -0.06780
C10 C 0.55876(12) 0.3483(9) 0.0459(4)
H9 H 0.58690 0.41810 0.09430
C11 C 0.50887(13) 0.2660(9) -0.1132(4)
H10 H 0.49280 0.26140 -0.19970
#END
