
#######################################################################
#
#                 Cambridge Crystallographic Data Centre
#                                CCDC
#
#######################################################################
#
# If this CIF has been generated from an entry in the Cambridge
# Structural Database, then it will include bibliographic, chemical,
# crystal, experimental, refinement or atomic coordinate data resulting
# from the CCDC's data processing and validation procedures.
#
#######################################################################

data_CSD_CIF_PAPBUG
_audit_creation_date 2017-02-04
_audit_creation_method CSD-ConQuest-V1
_database_code_CSD PAPBUG
_database_code_depnum_ccdc_archive 'CCDC 1509031'
_chemical_formula_sum 'C15 H11 N5 O7'
_chemical_formula_moiety
;
C15 H11 N5 O7
;
_journal_coden_Cambridge 368
_journal_volume 70
_journal_year 2017
_journal_page_first 237
_journal_name_full 'Bioorg.Chem. '
loop_
_publ_author_name
"M.Sarfraz"
"N.Sultana"
"U.Rashid"
"M.S.Akram"
"A.Sadiq"
"M.I.Tariq"
_chemical_name_systematic
;
2-methyl-6,8-dinitro-2-(3-nitrophenyl)-2,3-dihydroquinazolin-4(1H)-one
;
_cell_volume    817.591
_exptl_special_details
;
The R-factor and temperature were not reported. The unit cell volume is 
reported as 890, we calculate 818
;
_diffrn_ambient_temperature ?
_diffrn_special_details
;
The study was carried out at room temperature,in the range 283-303K

;
_symmetry_cell_setting triclinic
_symmetry_space_group_name_H-M 'P -1'
_symmetry_Int_Tables_number 2
loop_
_symmetry_equiv_pos_site_id
_symmetry_equiv_pos_as_xyz
1 x,y,z
2 -x,-y,-z
_cell_length_a 6.7524(8)
_cell_length_b 9.22862(9)
_cell_length_c 13.5144(15)
_cell_angle_alpha 76.424(6)
_cell_angle_beta 88.586(7)
_cell_angle_gamma 87.231(7)
_cell_formula_units_Z 2
loop_
_atom_type_symbol
_atom_type_radius_bond
C 0.68
H 0.23
N 0.68
O 0.68
loop_
_atom_site_label
_atom_site_type_symbol
_atom_site_fract_x
_atom_site_fract_y
_atom_site_fract_z
C1 C 0.6656(7) 0.1751(5) 0.8254(4)
C2 C 0.6775(7) 0.0369(5) 0.7961(4)
C3 C 0.5281(8) -0.0597(5) 0.8182(4)
H1 H 0.53820 -0.14840 0.79770
C4 C 0.3649(8) -0.0247(5) 0.8705(4)
C5 C 0.3486(7) 0.1037(5) 0.9045(4)
H2 H 0.23880 0.12410 0.94200
C6 C 0.4959(7) 0.2013(5) 0.8826(4)
C7 C 0.4912(8) 0.3295(5) 0.9310(4)
C8 C 0.7650(8) 0.4278(5) 0.8170(4)
C9 C 0.9567(9) 0.4859(7) 0.8365(6)
H3 H 0.93370 0.58380 0.84810
H4 H 1.04330 0.49140 0.77900
H5 H 1.01480 0.41950 0.89470
C10 C 0.6525(17) 0.5296(12) 0.7192(6)
C11 C 0.4757(18) 0.6030(12) 0.7359(5)
H6 H 0.42100 0.58690 0.80060
C12 C 0.3807(14) 0.7005(10) 0.6557(7)
H7 H 0.26240 0.74960 0.66680
C13 C 0.4624(15) 0.7246(9) 0.5589(5)
C14 C 0.6392(16) 0.6512(10) 0.5422(5)
C15 C 0.7342(14) 0.5537(11) 0.6224(7)
H8 H 0.85250 0.50460 0.61130
N1 N 0.6380(6) 0.4198(4) 0.9038(3)
H9 H 0.65830 0.47850 0.94150
N2 N 0.8019(7) 0.2756(4) 0.8038(3)
H10 H 0.91470 0.25050 0.78140
N3 N 0.8464(7) -0.0089(5) 0.7414(4)
N4 N 0.2091(8) -0.1292(5) 0.8942(4)
O1 O 0.9864(6) 0.0713(4) 0.7251(3)
O2 O 0.8450(6) -0.1227(5) 0.7148(4)
O3 O 0.2263(6) -0.2401(5) 0.8615(4)
O4 O 0.0718(7) -0.1034(5) 0.9463(4)
O5 O 0.3663(6) 0.3415(4) 0.9956(3)
O6 O 0.914(6) 0.6698(14) 0.4572(12)
O7 O 0.638(5) 0.712(3) 0.3774(13)
N5 N 0.703(5) 0.680(4) 0.448(3)
#END
