
#######################################################################
#
#                 Cambridge Crystallographic Data Centre
#                                CCDC
#
#######################################################################
#
# If this CIF has been generated from an entry in the Cambridge
# Structural Database, then it will include bibliographic, chemical,
# crystal, experimental, refinement or atomic coordinate data resulting
# from the CCDC's data processing and validation procedures.
#
#######################################################################

data_CSD_CIF_PAPFIW
_audit_creation_date 2005-10-19
_audit_creation_method CSD-ConQuest-V1
_database_code_CSD PAPFIW
_database_code_depnum_ccdc_archive 'CCDC 275871'
_chemical_formula_sum 'C16 H17 N1 O3'
_chemical_formula_moiety
;
C16 H17 N1 O3
;
_journal_coden_Cambridge 35
_journal_volume 70
_journal_year 2005
_journal_page_first 4629
_journal_name_full 'J.Org.Chem. '
loop_
_publ_author_name
"S.Coseri"
"G.D.Mendenhall"
"K.U.Ingold"
_chemical_name_systematic
;
3-(Phthalimido-N-oxyl)cyclo-octene
;
_cell_volume   1384.888
_exptl_crystal_density_diffrn 1.301
_diffrn_ambient_temperature 125
_refine_special_details
;
The cyclo-octene ring is disordered over two sites with occupancies of 
0.93:0.07.
;
#These two values have been output from a single CSD field.
_refine_ls_R_factor_gt 0.0575
_refine_ls_wR_factor_gt 0.0575
_symmetry_cell_setting monoclinic
_symmetry_space_group_name_H-M 'P 21/n'
_symmetry_Int_Tables_number 14
loop_
_symmetry_equiv_pos_site_id
_symmetry_equiv_pos_as_xyz
1 x,y,z
2 1/2-x,1/2+y,1/2-z
3 -x,-y,-z
4 -1/2+x,-1/2-y,-1/2+z
_cell_length_a 12.6673(13)
_cell_length_b 8.1210(8)
_cell_length_c 14.0349(14)
_cell_angle_alpha 90
_cell_angle_beta 106.422(2)
_cell_angle_gamma 90
_cell_formula_units_Z 4
loop_
_atom_type_symbol
_atom_type_radius_bond
C 0.68
H 0.23
N 0.68
O 0.68
loop_
_atom_site_label
_atom_site_type_symbol
_atom_site_fract_x
_atom_site_fract_y
_atom_site_fract_z
O1 O 0.17618(15) 0.7072(2) 0.02782(13)
O2 O -0.03360(16) 1.1083(2) -0.16511(14)
O3 O 0.14510(15) 1.0543(2) 0.00519(13)
N1 N 0.08970(17) 0.9344(3) -0.06020(15)
C1 C 0.1049(2) 0.7673(3) -0.03815(18)
C2 C 0.01424(19) 0.6877(3) -0.11641(17)
C3 C -0.0108(2) 0.5227(3) -0.13376(18)
H1 H 0.03220 0.43970 -0.09300
C4 C -0.1009(2) 0.4827(3) -0.21288(19)
H2 H -0.12040 0.37020 -0.22600
C5 C -0.1632(2) 0.6040(3) -0.27343(18)
H3 H -0.22440 0.57320 -0.32730
C6 C -0.1371(2) 0.7695(3) -0.25597(18)
H4 H -0.17890 0.85290 -0.29730
C7 C -0.0484(2) 0.8082(3) -0.17653(17)
C8 C -0.0034(2) 0.9720(3) -0.13846(19)
C9 C 0.2237(3) 1.1425(6) -0.0345(3)
H5 H 0.18320 1.19680 -0.09830
C10 C 0.3095(2) 1.0310(4) -0.0529(3)
H6 H 0.32930 0.93470 -0.01350
C11 C 0.3590(3) 1.0618(5) -0.1226(3)
H7 H 0.41680 0.99010 -0.12680
C12 C 0.3307(4) 1.2010(5) -0.1949(3)
H8 H 0.24970 1.21380 -0.21650
H9 H 0.35410 1.17130 -0.25430
C13 C 0.3820(3) 1.3667(5) -0.1561(3)
H10 H 0.46160 1.34920 -0.12470
H11 H 0.37490 1.44040 -0.21380
C14 C 0.3349(3) 1.4556(4) -0.0818(3)
H12 H 0.25400 1.46140 -0.10970
H13 H 0.36310 1.57000 -0.07470
C15 C 0.3609(4) 1.3780(5) 0.0221(3)
H14 H 0.42720 1.30820 0.03190
H15 H 0.37950 1.46750 0.07190
C16 C 0.2701(3) 1.2743(6) 0.0428(2)
H16 H 0.20940 1.34810 0.04710
H17 H 0.29920 1.22060 0.10830
C17? C 0.228(4) 1.128(8) -0.036(3)
H18? H 0.29600 1.05910 -0.02000
C18? C 0.200(3) 1.188(5) -0.142(3)
H19? H 0.12740 1.22290 -0.17470
C19? C 0.275(3) 1.193(6) -0.190(3)
H20? H 0.25590 1.23650 -0.25570
C20? C 0.390(3) 1.131(6) -0.146(4)
H21? H 0.42370 1.10740 -0.20020
H22? H 0.38720 1.02620 -0.11070
C21? C 0.464(3) 1.250(5) -0.074(3)
H23? H 0.51920 1.29700 -0.10420
H24? H 0.50440 1.19030 -0.01270
C22? C 0.396(4) 1.390(4) -0.047(3)
H25? H 0.43930 1.49320 -0.03520
H26? H 0.32870 1.40920 -0.10250
C23? C 0.363(5) 1.346(8) 0.046(3)
H27? H 0.37220 1.44520 0.08880
H28? H 0.41410 1.26110 0.08290
C24? C 0.246(4) 1.284(10) 0.028(4)
H29? H 0.19380 1.37010 -0.00640
H30? H 0.23190 1.25960 0.09190
#END
