
#######################################################################
#
#                 Cambridge Crystallographic Data Centre
#                                CCDC
#
#######################################################################
#
# If this CIF has been generated from an entry in the Cambridge
# Structural Database, then it will include bibliographic, chemical,
# crystal, experimental, refinement or atomic coordinate data resulting
# from the CCDC's data processing and validation procedures.
#
#######################################################################

data_CSD_CIF_PAQJEZ
_audit_creation_date 2017-02-04
_audit_creation_method CSD-ConQuest-V1
_database_code_CSD PAQJEZ
_database_code_depnum_ccdc_archive 'CCDC 946072'
_chemical_formula_sum 'C16 H13 N1 O3'
_chemical_formula_moiety
;
C16 H13 N1 O3
;
_journal_coden_Cambridge 119
_journal_volume 1136
_journal_year 2017
_journal_page_first 244
_journal_name_full 'J.Mol.Struct. '
loop_
_publ_author_name
"S.R.Prabhu"
"A.Jayarama"
"K.Chandrasekharan"
"V.Upadhyaya"
"Seik Weng Ng"
_chemical_name_systematic
;
(2E)-3-(3-methylphenyl)-1-(4-nitrophenyl)prop-2-en-1-one
;
_chemical_melting_point 397
_cell_volume   1352.826
_exptl_crystal_colour 'pale yellow'
_exptl_crystal_density_diffrn 1.312
_exptl_special_details
;
Heat-sensitive

;
_exptl_crystal_description 'plate'
_diffrn_ambient_temperature 295
#These two values have been output from a single CSD field.
_refine_ls_R_factor_gt 0.0697
_refine_ls_wR_factor_gt 0.0697
_symmetry_cell_setting monoclinic
_symmetry_space_group_name_H-M 'P 21/c'
_symmetry_Int_Tables_number 14
loop_
_symmetry_equiv_pos_site_id
_symmetry_equiv_pos_as_xyz
1 x,y,z
2 -x,1/2+y,1/2-z
3 -x,-y,-z
4 x,-1/2-y,-1/2+z
_cell_length_a 6.9246(7)
_cell_length_b 24.739(3)
_cell_length_c 7.9590(8)
_cell_angle_alpha 90
_cell_angle_beta 97.153(11)
_cell_angle_gamma 90
_cell_formula_units_Z 4
loop_
_atom_type_symbol
_atom_type_radius_bond
C 0.68
H 0.23
N 0.68
O 0.68
loop_
_atom_site_label
_atom_site_type_symbol
_atom_site_fract_x
_atom_site_fract_y
_atom_site_fract_z
O1 O 0.2824(3) 0.54399(9) 0.0748(2)
O2 O 1.1669(3) 0.66903(10) 0.2680(3)
O3 O 1.2640(3) 0.60359(10) 0.4344(3)
N1 N 1.1406(4) 0.62622(13) 0.3348(3)
C1 C 0.5998(4) 0.54762(12) 0.2196(3)
C2 C 0.6200(4) 0.60181(12) 0.1804(3)
H1 H 0.51260 0.62080 0.12910
C3 C 0.7959(4) 0.62808(12) 0.2161(3)
H2 H 0.80910 0.66430 0.18830
C4 C 0.9512(4) 0.59899(13) 0.2940(3)
C5 C 0.9373(4) 0.54614(13) 0.3333(4)
H3 H 1.04570 0.52750 0.38450
C6 C 0.7601(4) 0.51978(12) 0.2968(3)
H4 H 0.74910 0.48350 0.32420
C7 C 0.4065(4) 0.52063(12) 0.1717(3)
C8 C 0.3715(4) 0.46709(12) 0.2390(3)
H5 H 0.46530 0.45220 0.31950
C9 C 0.2112(4) 0.43882(13) 0.1900(3)
H6 H 0.12010 0.45530 0.11040
C10 C 0.1615(4) 0.38541(13) 0.2459(3)
C11 C -0.0279(4) 0.36598(15) 0.2015(4)
H7 H -0.11800 0.38660 0.13270
C12 C -0.0809(5) 0.31688(17) 0.2589(5)
H8 H -0.20730 0.30450 0.22890
C13 C 0.0506(6) 0.28519(15) 0.3610(4)
H9 H 0.01150 0.25220 0.40130
C14 C 0.2413(5) 0.30287(14) 0.4031(3)
C15 C 0.2922(5) 0.35268(13) 0.3463(3)
H10 H 0.41870 0.36500 0.37600
C16 C 0.3876(6) 0.26708(15) 0.5065(5)
H11 H 0.51090 0.28530 0.52530
H12 H 0.40180 0.23390 0.44660
H13 H 0.34310 0.25930 0.61350
#END
