
#######################################################################
#
#                 Cambridge Crystallographic Data Centre
#                                CCDC
#
#######################################################################
#
# If this CIF has been generated from an entry in the Cambridge
# Structural Database, then it will include bibliographic, chemical,
# crystal, experimental, refinement or atomic coordinate data resulting
# from the CCDC's data processing and validation procedures.
#
#######################################################################

data_CSD_CIF_PAQWEL
_audit_creation_date 2012-02-24
_audit_creation_method CSD-ConQuest-V1
_database_code_CSD PAQWEL
_database_code_depnum_ccdc_archive 'CCDC 846465'
_chemical_formula_sum 'C15 H20 N3 O3'
_chemical_formula_moiety
;
C15 H20 N3 O3
;
_journal_coden_Cambridge 1096
_journal_volume 23
_journal_year 2011
_journal_page_first 4844
_journal_name_full 'Chem.Mater. '
loop_
_publ_author_name
"S.Aboaku"
"A.Paduan-Filho"
"V.Bindilatti"
"N.F.Oliveira Junior"
"J.A.Schlueter"
"P.M.Lahti"
_chemical_name_systematic
;
4,4,5,5-Tetramethyl-2-(3-(acetylamino)phenyl)-4,5-dihydro-1H-imidazol-1-oxyl 
3-oxide
;
_cell_volume   1473.850
_exptl_crystal_colour 'dark blue'
_exptl_crystal_density_diffrn 1.308
_exptl_crystal_description 'prism'
_diffrn_ambient_temperature 293
#These two values have been output from a single CSD field.
_refine_ls_R_factor_gt 0.0363
_refine_ls_wR_factor_gt 0.0363
_symmetry_cell_setting orthorhombic
_symmetry_space_group_name_H-M 'P n a 21'
_symmetry_Int_Tables_number 33
loop_
_symmetry_equiv_pos_site_id
_symmetry_equiv_pos_as_xyz
1 x,y,z
2 -x,-y,1/2+z
3 1/2-x,1/2+y,1/2+z
4 1/2+x,1/2-y,z
_cell_length_a 19.9092(5)
_cell_length_b 7.7405(1)
_cell_length_c 9.5638(2)
_cell_angle_alpha 90
_cell_angle_beta 90
_cell_angle_gamma 90
_cell_formula_units_Z 4
loop_
_atom_type_symbol
_atom_type_radius_bond
C 0.68
H 0.23
N 0.68
O 0.68
loop_
_atom_site_label
_atom_site_type_symbol
_atom_site_fract_x
_atom_site_fract_y
_atom_site_fract_z
N1 N 0.65263(7) 0.17050(17) 0.85883(16)
O1 O 0.61757(7) 0.30229(16) 0.89260(15)
O2 O 0.70248(7) -0.25364(15) 0.87922(15)
N2 N 0.51143(8) -0.40669(19) 1.17763(15)
O3 O 0.48049(8) -0.44804(18) 0.95268(13)
C1 C 0.69484(8) 0.1690(2) 0.72763(18)
C2 C 0.53101(9) -0.1228(3) 1.27072(17)
C3 C 0.64945(7) 0.01302(19) 0.91812(16)
C4 C 0.58041(8) -0.1998(2) 1.04805(16)
C5 C 0.47996(8) -0.4946(2) 1.07453(18)
C6 C 0.73599(8) 0.0008(2) 0.74887(17)
C7 C 0.54128(8) -0.2420(2) 1.16384(15)
C8 C 0.60748(7) -0.0331(2) 1.03827(15)
C9 C 0.59612(8) 0.0875(2) 1.14388(19)
N3 N 0.69186(7) -0.09473(17) 0.85119(15)
C10 C 0.64559(12) 0.1572(3) 0.6057(2)
C11 C 0.73529(12) 0.3337(2) 0.7196(3)
H1 H 0.70540 0.43100 0.71560
H2 H 0.76280 0.33180 0.63720
H3 H 0.76330 0.34320 0.80090
C12 C 0.55884(9) 0.0406(3) 1.26110(18)
C13 C 0.80298(10) 0.0264(3) 0.8238(3)
C14 C 0.44112(11) -0.6508(3) 1.1221(2)
H4 H 0.39690 -0.64800 1.08230
H5 H 0.43790 -0.65040 1.22220
H6 H 0.46390 -0.75370 1.09210
C15 C 0.74607(12) -0.1079(3) 0.6190(2)
H7 H 0.70360 -0.12540 0.57360
H8 H 0.76480 -0.21770 0.64480
H9 H 0.77620 -0.04970 0.55640
H10 H 0.6717(15) 0.149(3) 0.508(3)
H11 H 0.5884(10) -0.278(3) 0.972(3)
H12 H 0.6120(12) 0.204(3) 1.139(3)
H13 H 0.7975(13) 0.094(3) 0.917(3)
H14 H 0.5060(12) -0.157(3) 1.351(3)
H15 H 0.5529(13) 0.127(3) 1.336(3)
H16 H 0.6164(13) 0.052(3) 0.613(3)
H17 H 0.8309(16) 0.089(3) 0.769(3)
H18 H 0.8222(14) -0.093(4) 0.848(3)
H19 H 0.5060(12) -0.439(3) 1.262(3)
H20 H 0.6161(15) 0.256(3) 0.607(3)
#END
