
#######################################################################
#
#                 Cambridge Crystallographic Data Centre
#                                CCDC
#
#######################################################################
#
# If this CIF has been generated from an entry in the Cambridge
# Structural Database, then it will include bibliographic, chemical,
# crystal, experimental, refinement or atomic coordinate data resulting
# from the CCDC's data processing and validation procedures.
#
#######################################################################

data_CSD_CIF_PARKUR
_audit_creation_date 2017-02-06
_audit_creation_method CSD-ConQuest-V1
_database_code_CSD PARKUR
_database_code_depnum_ccdc_archive 'CCDC 1500870'
_chemical_formula_sum 'C20 H14 N2 O2'
_chemical_formula_moiety
;
C20 H14 N2 O2
;
_journal_coden_Cambridge 35
_journal_volume 82
_journal_year 2017
_journal_page_first 1487
_journal_name_full 'J.Org.Chem. '
loop_
_publ_author_name
"B.Pigulski"
"P.Mecik"
"J.Cichos"
"S.Szafert"
_chemical_name_systematic
;
N-benzyl-N-methyl-6-(4-nitrophenyl)hexa-1,3,5-triyn-1-amine
;
_cell_volume    788.883
_exptl_crystal_colour 'orange'
_exptl_crystal_density_diffrn 1.323
_exptl_crystal_description 'plate'
_diffrn_ambient_temperature 153
#These two values have been output from a single CSD field.
_refine_ls_R_factor_gt 0.0816
_refine_ls_wR_factor_gt 0.0816
_symmetry_cell_setting triclinic
_symmetry_space_group_name_H-M 'P -1'
_symmetry_Int_Tables_number 2
loop_
_symmetry_equiv_pos_site_id
_symmetry_equiv_pos_as_xyz
1 x,y,z
2 -x,-y,-z
_cell_length_a 6.0498(17)
_cell_length_b 8.2177(19)
_cell_length_c 16.171(5)
_cell_angle_alpha 88.79(5)
_cell_angle_beta 82.33(5)
_cell_angle_gamma 81.94(5)
_cell_formula_units_Z 2
loop_
_atom_type_symbol
_atom_type_radius_bond
C 0.68
H 0.23
N 0.68
O 0.68
loop_
_atom_site_label
_atom_site_type_symbol
_atom_site_fract_x
_atom_site_fract_y
_atom_site_fract_z
O1 O -0.7709(3) -0.1869(2) 1.24730(11)
N1 N -0.8438(3) -0.0534(2) 1.21832(12)
O2 O -1.0380(3) 0.0166(2) 1.23725(11)
N2 N 0.6176(3) 0.6643(2) 0.69480(12)
C1 C -0.1148(4) 0.3224(3) 0.94210(14)
C2 C 0.4684(4) 0.5962(3) 0.74635(15)
C3 C 0.0403(4) 0.3953(3) 0.88984(15)
C4 C 0.1803(4) 0.4596(3) 0.84515(15)
C5 C -0.4023(4) 0.1812(3) 1.04673(14)
C6 C -0.2495(4) 0.2597(3) 0.98863(14)
C7 C -0.4681(4) -0.0413(3) 1.14211(14)
H1 H -0.41520 -0.14000 1.16920
C8 C 0.3344(4) 0.5329(3) 0.79398(15)
C9 C -0.6295(4) 0.2491(3) 1.06389(14)
H2 H -0.68370 0.34760 1.03690
C10 C -0.7747(4) 0.1724(3) 1.12031(14)
H3 H -0.92870 0.21770 1.13270
C11 C 0.5917(4) 0.7958(3) 0.55658(14)
C12 C -0.6915(4) 0.0289(3) 1.15808(14)
C13 C -0.3244(4) 0.0357(3) 1.08584(14)
H4 H -0.17090 -0.01090 1.07360
C14 C 0.8544(3) 0.5901(3) 0.68211(15)
H5 H 0.87380 0.49040 0.71620
H6 H 0.94860 0.66840 0.69850
H7 H 0.89920 0.56180 0.62310
C15 C 0.5516(4) 0.8178(3) 0.64992(14)
H8 H 0.63860 0.90330 0.66550
H9 H 0.38990 0.85640 0.66730
C16 C 0.7823(4) 0.8420(3) 0.51079(15)
H10 H 0.88730 0.88890 0.53840
C17 C 0.8223(4) 0.8209(3) 0.42498(16)
H11 H 0.95500 0.85230 0.39440
C18 C 0.4811(5) 0.7071(3) 0.42876(17)
H12 H 0.37710 0.66000 0.40080
C19 C 0.6716(5) 0.7551(3) 0.38395(17)
H13 H 0.69820 0.74250 0.32500
C20 C 0.4408(4) 0.7277(3) 0.51496(16)
H14 H 0.30900 0.69470 0.54550
#END
