
#######################################################################
#
#                 Cambridge Crystallographic Data Centre
#                                CCDC
#
#######################################################################
#
# If this CIF has been generated from an entry in the Cambridge
# Structural Database, then it will include bibliographic, chemical,
# crystal, experimental, refinement or atomic coordinate data resulting
# from the CCDC's data processing and validation procedures.
#
#######################################################################

data_CSD_CIF_PARLIG
_audit_creation_date 2017-02-06
_audit_creation_method CSD-ConQuest-V1
_database_code_CSD PARLIG
_database_code_depnum_ccdc_archive 'CCDC 1500873'
_chemical_formula_sum 'C18 H18 N2 O2'
_chemical_formula_moiety
;
C18 H18 N2 O2
;
_journal_coden_Cambridge 35
_journal_volume 82
_journal_year 2017
_journal_page_first 1487
_journal_name_full 'J.Org.Chem. '
loop_
_publ_author_name
"B.Pigulski"
"P.Mecik"
"J.Cichos"
"S.Szafert"
_chemical_name_systematic
;
N,N-diisopropyl-6-(4-nitrophenyl)hexa-1,3,5-triyn-1-amine
;
_cell_volume   1579.348
_exptl_crystal_colour 'yellow'
_exptl_crystal_density_diffrn 1.238
_exptl_crystal_description 'plate'
_diffrn_ambient_temperature 80
#These two values have been output from a single CSD field.
_refine_ls_R_factor_gt 0.0483
_refine_ls_wR_factor_gt 0.0483
_symmetry_cell_setting monoclinic
_symmetry_space_group_name_H-M 'P 21/c'
_symmetry_Int_Tables_number 14
loop_
_symmetry_equiv_pos_site_id
_symmetry_equiv_pos_as_xyz
1 x,y,z
2 -x,1/2+y,1/2-z
3 -x,-y,-z
4 x,-1/2-y,-1/2+z
_cell_length_a 8.074(2)
_cell_length_b 8.623(2)
_cell_length_c 22.992(6)
_cell_angle_alpha 90
_cell_angle_beta 99.38(3)
_cell_angle_gamma 90
_cell_formula_units_Z 4
loop_
_atom_type_symbol
_atom_type_radius_bond
C 0.68
H 0.23
N 0.68
O 0.68
loop_
_atom_site_label
_atom_site_type_symbol
_atom_site_fract_x
_atom_site_fract_y
_atom_site_fract_z
N1 N 0.11217(14) -0.28345(12) 0.28068(5)
O1 O 0.95905(13) 0.99115(12) 0.56434(4)
O2 O 0.76328(14) 1.12529(11) 0.51082(5)
N2 N 0.83309(15) 1.00186(14) 0.52642(5)
C1 C 0.18391(17) -0.15498(15) 0.30380(6)
C2 C 0.54750(16) 0.45081(15) 0.42037(6)
C3 C 0.24811(17) -0.03523(16) 0.32454(6)
C4 C 0.62280(17) 0.58990(15) 0.44647(6)
C5 C 0.32538(17) 0.09414(15) 0.34936(6)
C6 C 0.39712(17) 0.20838(15) 0.37218(6)
C7 C 0.61728(17) 0.86879(16) 0.45630(6)
H1 H 0.56700 0.96660 0.44570
C8 C 0.18914(17) -0.36550(15) 0.23471(6)
H2 H 0.12290 -0.46240 0.22410
C9 C 0.47834(17) 0.33645(15) 0.39777(6)
C10 C 0.84048(17) 0.71888(15) 0.51415(6)
H3 H 0.94030 0.71570 0.54250
C11 C 0.76178(17) 0.85811(15) 0.49781(6)
C12 C 0.54791(17) 0.73360(15) 0.43054(6)
H4 H 0.44890 0.73830 0.40190
C13 C 0.77023(17) 0.58393(15) 0.48820(6)
H5 H 0.82220 0.48680 0.49870
C14 C 0.07486(18) -0.41463(16) 0.37425(6)
H6 H 0.17210 -0.48080 0.37170
H7 H -0.00610 -0.47190 0.39340
H8 H 0.11170 -0.32180 0.39740
C15 C 0.1763(2) -0.26756(18) 0.17936(6)
H9 H 0.05850 -0.24100 0.16550
H10 H 0.22050 -0.32610 0.14870
H11 H 0.24170 -0.17220 0.18810
C16 C -0.00753(16) -0.36708(15) 0.31252(6)
H12 H -0.04270 -0.46400 0.29000
C17 C 0.36915(19) -0.41335(19) 0.25776(7)
H13 H 0.43810 -0.32050 0.26760
H14 H 0.41340 -0.47300 0.22740
H15 H 0.37190 -0.47730 0.29310
C18 C -0.16409(18) -0.27094(18) 0.31403(7)
H16 H -0.13430 -0.17710 0.33740
H17 H -0.24520 -0.33180 0.33190
H18 H -0.21390 -0.24180 0.27380
#END
