
#######################################################################
#
#                 Cambridge Crystallographic Data Centre
#                                CCDC
#
#######################################################################
#
# If this CIF has been generated from an entry in the Cambridge
# Structural Database, then it will include bibliographic, chemical,
# crystal, experimental, refinement or atomic coordinate data resulting
# from the CCDC's data processing and validation procedures.
#
#######################################################################

data_CSD_CIF_PARMEB
_audit_creation_date 2005-10-19
_audit_creation_method CSD-ConQuest-V1
_database_code_CSD PARMEB
_chemical_formula_sum 'C10 H11 N1 O2'
_chemical_formula_moiety
;
C10 H11 N1 O2
;
_journal_coden_Cambridge 1037
_journal_volume 4
_journal_year 2003
_journal_page_first 102-8
_journal_name_full 'ARKIVOC '
loop_
_publ_author_name
"F.Yamada"
"A.Kawanishi"
"A.Tomita"
"M.Somei"
_chemical_name_systematic
;
3-Hydroxy-2,3-dimethyl-3H-indole N-oxide
;
_chemical_melting_point 437.15
_cell_volume   1864.092
_exptl_crystal_colour 'colorless'
_exptl_crystal_density_diffrn 1.263
_exptl_special_details
;
Melting point range 437.15-439.15K

;
_exptl_crystal_description 'prism'
_exptl_crystal_preparation 'ethyl acetate'
_diffrn_ambient_temperature ?
_diffrn_special_details
;
The study was carried out at room temperature,in the range 283-303K

;
#These two values have been output from a single CSD field.
_refine_ls_R_factor_gt 0.038
_refine_ls_wR_factor_gt 0.038
_symmetry_cell_setting monoclinic
_symmetry_space_group_name_H-M 'C 2/c'
_symmetry_Int_Tables_number 15
loop_
_symmetry_equiv_pos_site_id
_symmetry_equiv_pos_as_xyz
1 x,y,z
2 -x,y,1/2-z
3 1/2+x,1/2+y,z
4 1/2-x,1/2+y,1/2-z
5 -x,-y,-z
6 x,-y,-1/2+z
7 -1/2-x,-1/2-y,-z
8 -1/2+x,-1/2-y,-1/2+z
_cell_length_a 11.344(1)
_cell_length_b 12.3639(8)
_cell_length_c 13.785(1)
_cell_angle_alpha 90
_cell_angle_beta 105.391(6)
_cell_angle_gamma 90
_cell_formula_units_Z 8
loop_
_atom_type_symbol
_atom_type_radius_bond
C 0.68
H 0.23
N 0.68
O 0.68
loop_
_atom_site_label
_atom_site_type_symbol
_atom_site_fract_x
_atom_site_fract_y
_atom_site_fract_z
O1 O 0.3989(1) -0.0311(1) 0.12803(8)
O2 O 0.7602(1) 0.0210(1) 0.05423(9)
N1 N 0.5029(1) 0.0144(1) 0.12735(8)
C1 C 0.6083(1) -0.0325(1) 0.1399(1)
C2 C 0.7047(1) 0.0491(1) 0.1316(1)
C3 C 0.6301(1) 0.1524(1) 0.1111(1)
C4 C 0.6603(2) 0.2569(1) 0.0933(1)
C5 C 0.5690(2) 0.3350(1) 0.0776(1)
C6 C 0.4516(2) 0.3089(2) 0.0809(1)
C7 C 0.4201(2) 0.2040(2) 0.0983(1)
C8 C 0.5117(1) 0.1285(1) 0.1115(1)
C9 C 0.6257(2) -0.1485(1) 0.1611(2)
C10 C 0.8069(2) 0.0554(2) 0.2290(1)
H1 H 0.744(2) 0.276(1) 0.089(1)
H2 H 0.589(2) 0.407(2) 0.061(2)
H3 H 0.390(2) 0.367(2) 0.070(2)
H4 H 0.336(2) 0.187(1) 0.099(1)
H5 H 0.636(3) -0.163(2) 0.235(2)
H6 H 0.704(3) -0.177(2) 0.150(2)
H7 H 0.561(4) -0.188(2) 0.126(2)
H8 H 0.773(2) 0.069(2) 0.288(2)
H9 H 0.867(2) 0.111(2) 0.220(1)
H10 H 0.852(2) -0.009(2) 0.239(2)
H11 H 0.702(2) 0.026(1) -0.008(2)
#END
