
#######################################################################
#
#                 Cambridge Crystallographic Data Centre
#                                CCDC
#
#######################################################################
#
# If this CIF has been generated from an entry in the Cambridge
# Structural Database, then it will include bibliographic, chemical,
# crystal, experimental, refinement or atomic coordinate data resulting
# from the CCDC's data processing and validation procedures.
#
#######################################################################

data_CSD_CIF_PARPOO
_audit_creation_date 2005-10-19
_audit_creation_method CSD-ConQuest-V1
_database_code_CSD PARPOO
_chemical_formula_sum 'C12 H10 N4 O2'
_chemical_formula_moiety
;
C12 H10 N4 O2
;
_journal_coden_Cambridge 119
_journal_volume 744
_journal_year 2005
_journal_page_first 377
_journal_name_full 'J.Mol.Struct. '
loop_
_publ_author_name
"J.Michalski"
"R.Kucharska"
"M.Wandas"
"J.Hanuza"
"A.Waskowska"
"M.Maczka"
"Z.Talik"
"S.Olejniczak"
"M.J.Potrzebowski"
_chemical_name_systematic
;
2-Phenylazo-6-methyl-5-nitropyridine
;
_chemical_melting_point 415.15
_cell_volume    579.206
_exptl_crystal_colour 'orange'
_exptl_crystal_density_diffrn 1.389
_exptl_crystal_preparation 'acetonitrile'
_diffrn_ambient_temperature ?
_diffrn_special_details
;
The study was carried out at room temperature,in the range 283-303K

;
#These two values have been output from a single CSD field.
_refine_ls_R_factor_gt 0.0808
_refine_ls_wR_factor_gt 0.0808
_symmetry_cell_setting triclinic
_symmetry_space_group_name_H-M 'P -1'
_symmetry_Int_Tables_number 2
loop_
_symmetry_equiv_pos_site_id
_symmetry_equiv_pos_as_xyz
1 x,y,z
2 -x,-y,-z
_cell_length_a 6.372(1)
_cell_length_b 7.522(2)
_cell_length_c 12.495(2)
_cell_angle_alpha 99.06(3)
_cell_angle_beta 89.62(3)
_cell_angle_gamma 101.57(3)
_cell_formula_units_Z 2
loop_
_atom_type_symbol
_atom_type_radius_bond
C 0.68
H 0.23
N 0.68
O 0.68
loop_
_atom_site_label
_atom_site_type_symbol
_atom_site_fract_x
_atom_site_fract_y
_atom_site_fract_z
N1 N 0.4690(4) 0.2790(4) 0.2926(2)
N2 N 0.5685(5) 0.2842(4) 0.4697(3)
N3 N 0.5122(5) 0.2389(4) 0.5584(3)
N4 N -0.0506(5) 0.1334(5) 0.1370(3)
C1 C 0.4013(5) 0.2419(4) 0.3884(3)
C2 C 0.1861(6) 0.1681(5) 0.4089(3)
C3 C 0.0416(6) 0.1356(5) 0.3237(3)
C4 C 0.1110(5) 0.1744(5) 0.2247(3)
C5 C 0.3274(6) 0.2472(5) 0.2088(3)
C6 C 0.4199(6) 0.2893(6) 0.1025(3)
C7 C 0.6741(5) 0.2789(4) 0.6412(3)
C8 C 0.8867(6) 0.3620(5) 0.6273(3)
C9 C 1.0305(6) 0.3917(5) 0.7129(3)
C10 C 0.9672(7) 0.3378(5) 0.8104(3)
C11 C 0.7585(6) 0.2568(5) 0.8244(3)
C12 C 0.6133(6) 0.2272(5) 0.7404(3)
O1 O -0.2107(5) 0.0156(4) 0.1433(2)
O2 O -0.0197(5) 0.2190(4) 0.0610(3)
H1 H 0.14400 0.14270 0.47720
H2 H -0.10240 0.08770 0.33320
H3 H 0.35780 0.38200 0.07920
H4 H 0.39080 0.18050 0.04970
H5 H 0.57170 0.33160 0.11160
H6 H 0.93030 0.39680 0.56120
H7 H 1.17200 0.44880 0.70480
H8 H 1.06690 0.35660 0.86720
H9 H 0.71590 0.22210 0.89080
H10 H 0.47170 0.17160 0.74980
#END
