
#######################################################################
#
#                 Cambridge Crystallographic Data Centre
#                                CCDC
#
#######################################################################
#
# If this CIF has been generated from an entry in the Cambridge
# Structural Database, then it will include bibliographic, chemical,
# crystal, experimental, refinement or atomic coordinate data resulting
# from the CCDC's data processing and validation procedures.
#
#######################################################################

data_CSD_CIF_PATJUR
_audit_creation_date 2012-08-21
_audit_creation_method CSD-ConQuest-V1
_database_code_CSD PATJUR
_database_code_depnum_ccdc_archive 'CCDC 854944'
_chemical_formula_sum 'C15 H21 N1 O5'
_chemical_formula_moiety
;
C15 H21 N1 O5
;
_journal_coden_Cambridge 1291
_journal_year 2012
_journal_page_first 3304
_journal_name_full 'Eur.J.Org.Chem. '
loop_
_publ_author_name
"M.Jasinski"
"D.Lentz"
"E.Moreno-Clavijo"
"H.-U.Reissig"
_chemical_name_systematic
;
(4aS,6S,7R,7aS)-1-Benzyl-6-(hydroxymethyl)-4a-methoxyhexahydro-1H-furo[3,2-c][
1,2]oxazin-7-ol
;
_chemical_melting_point 413.15
_cell_volume   1456.497
_exptl_crystal_colour 'colorless'
_exptl_crystal_density_diffrn 1.347
_exptl_special_details
;
Melting point range 413.15-414.15K

;
_exptl_crystal_description 'platelet'
_exptl_crystal_preparation 'ethyl acetate'
_diffrn_ambient_temperature 133
#These two values have been output from a single CSD field.
_refine_ls_R_factor_gt 0.0317
_refine_ls_wR_factor_gt 0.0317
_symmetry_cell_setting orthorhombic
_symmetry_space_group_name_H-M 'P 21 21 21'
_symmetry_Int_Tables_number 19
loop_
_symmetry_equiv_pos_site_id
_symmetry_equiv_pos_as_xyz
1 x,y,z
2 1/2-x,-y,1/2+z
3 -x,1/2+y,1/2-z
4 1/2+x,1/2-y,-z
_cell_length_a 8.7280(14)
_cell_length_b 9.9497(16)
_cell_length_c 16.772(3)
_cell_angle_alpha 90
_cell_angle_beta 90
_cell_angle_gamma 90
_cell_formula_units_Z 4
loop_
_atom_type_symbol
_atom_type_radius_bond
C 0.68
H 0.23
N 0.68
O 0.68
loop_
_atom_site_label
_atom_site_type_symbol
_atom_site_fract_x
_atom_site_fract_y
_atom_site_fract_z
C1 C -0.00261(13) 0.31593(13) 0.35433(7)
H1 H -0.04630 0.31480 0.40880
H2 H 0.03470 0.22450 0.34160
C2 C -0.12405(14) 0.35814(12) 0.29480(7)
H3 H -0.20640 0.28980 0.29310
H4 H -0.16990 0.44460 0.31160
C3 C -0.05378(13) 0.37324(11) 0.21278(6)
C4 C 0.10628(13) 0.43863(11) 0.21010(6)
H5 H 0.09990 0.53900 0.21120
C5 C 0.16105(13) 0.38614(12) 0.12809(6)
H6 H 0.11860 0.44510 0.08520
C6 C 0.08616(13) 0.24612(11) 0.12226(6)
H7 H 0.16410 0.17540 0.13450
C7 C 0.33995(13) 0.46941(12) 0.28592(7)
H8 H 0.30900 0.56140 0.30170
H9 H 0.39570 0.47570 0.23460
C8 C 0.44482(13) 0.41166(12) 0.34857(7)
C9 C 0.53413(15) 0.49685(14) 0.39509(8)
H10 H 0.52780 0.59130 0.38740
C10 C 0.63278(17) 0.44529(16) 0.45280(8)
H11 H 0.69370 0.50450 0.48400
C11 C 0.64216(16) 0.30725(17) 0.46483(8)
H12 H 0.70850 0.27160 0.50450
C12 C 0.55394(17) 0.22255(16) 0.41848(9)
H13 H 0.56010 0.12820 0.42640
C13 C 0.45625(16) 0.27359(14) 0.36038(9)
H14 H 0.39710 0.21390 0.32860
C14 C 0.01995(15) 0.22182(12) 0.04009(6)
H15 H -0.06140 0.28900 0.03000
H16 H 0.10150 0.23620 0.00000
C15 C -0.29833(14) 0.41182(15) 0.15243(8)
H17 H -0.30130 0.31590 0.13920
H18 H -0.34760 0.46350 0.10980
H19 H -0.35280 0.42710 0.20270
N1 N 0.20289(11) 0.38641(10) 0.27524(5)
O1 O 0.12107(10) 0.40981(9) 0.35028(5)
O2 O -0.03374(10) 0.24192(8) 0.18087(5)
O3 O -0.1431(1) 0.45391(9) 0.16061(5)
O4 O 0.32263(10) 0.37777(11) 0.11922(5)
H20 H 0.34740 0.40350 0.07330
O5 O -0.04271(12) 0.09075(9) 0.02923(5)
H21 H -0.07880 0.06300 0.07260
#END
