
#######################################################################
#
#                 Cambridge Crystallographic Data Centre
#                                CCDC
#
#######################################################################
#
# If this CIF has been generated from an entry in the Cambridge
# Structural Database, then it will include bibliographic, chemical,
# crystal, experimental, refinement or atomic coordinate data resulting
# from the CCDC's data processing and validation procedures.
#
#######################################################################

data_CSD_CIF_PATXOY
_audit_creation_date 2006-02-07
_audit_creation_method CSD-ConQuest-V1
_database_code_CSD PATXOY
_database_code_depnum_ccdc_archive 'CCDC 237585'
_chemical_formula_sum 'C15 H14 N2 O6'
_chemical_formula_moiety
;
C15 H14 N2 O6
;
_journal_coden_Cambridge 504
_journal_volume 60
_journal_year 2005
_journal_page_first 172
_journal_name_full 'Pharmazie '
loop_
_publ_author_name
"K.Gorlitzer"
"M.Bode"
"P.G.Jones"
_chemical_name_systematic
;
Dimethyl 1,2-dihydro-2-(2-nitrophenyl)pyridine-3,5-dicarboxylate
;
_cell_volume   1438.256
_exptl_crystal_colour 'orange'
_exptl_crystal_density_diffrn 1.47
_exptl_crystal_description 'tablet'
_diffrn_ambient_temperature 133
_refine_special_details
;
The nitrate group is disordered over two sites with occupancies 0.812:0.188.

;
#These two values have been output from a single CSD field.
_refine_ls_R_factor_gt 0.043
_refine_ls_wR_factor_gt 0.043
_symmetry_cell_setting monoclinic
_symmetry_space_group_name_H-M 'P 21/n'
_symmetry_Int_Tables_number 14
loop_
_symmetry_equiv_pos_site_id
_symmetry_equiv_pos_as_xyz
1 x,y,z
2 1/2-x,1/2+y,1/2-z
3 -x,-y,-z
4 -1/2+x,-1/2-y,-1/2+z
_cell_length_a 8.1524(11)
_cell_length_b 8.6491(11)
_cell_length_c 20.423(3)
_cell_angle_alpha 90
_cell_angle_beta 92.856(5)
_cell_angle_gamma 90
_cell_formula_units_Z 4
loop_
_atom_type_symbol
_atom_type_radius_bond
C 0.68
H 0.23
N 0.68
O 0.68
loop_
_atom_site_label
_atom_site_type_symbol
_atom_site_fract_x
_atom_site_fract_y
_atom_site_fract_z
N1 N 0.60287(12) 0.36222(11) 0.21444(5)
H1 H 0.5900(18) 0.3242(18) 0.2539(8)
C1 C 0.52275(14) 0.29554(13) 0.16371(5)
H2 H 0.44790 0.21420 0.17160
C2 C 0.54485(14) 0.34074(13) 0.09999(5)
C3 C 0.67716(14) 0.44539(13) 0.09010(5)
H3 H 0.71130 0.46280 0.04690
C4 C 0.75478(14) 0.52019(13) 0.14090(5)
C5 C 0.69094(14) 0.51018(13) 0.20905(5)
H4 H 0.78670 0.51050 0.24160
C6 C 0.46657(15) 0.26264(14) 0.04316(6)
O1 O 0.50641(11) 0.28011(11) -0.01284(4)
O2 O 0.34360(11) 0.16703(11) 0.05933(4)
C7 C 0.26500(18) 0.08359(17) 0.00486(7)
H5 H 0.23870 0.15550 -0.03120
H6 H 0.16370 0.03550 0.01890
H7 H 0.33940 0.00330 -0.01000
C8 C 0.90437(14) 0.60946(13) 0.13316(5)
O3 O 0.97855(11) 0.67901(10) 0.17752(4)
O4 O 0.95602(11) 0.60644(11) 0.07189(4)
C9 C 1.10402(17) 0.69259(18) 0.06081(7)
H8 H 1.09840 0.79380 0.08210
H9 H 1.11460 0.70680 0.01360
H10 H 1.19940 0.63560 0.07920
C10 C 0.57458(13) 0.64300(13) 0.22582(5)
C11 C 0.52444(14) 0.67721(14) 0.28928(5)
C12 C 0.41278(15) 0.79340(15) 0.30158(6)
H11 H 0.38100 0.81180 0.34500
C13 C 0.34774(15) 0.88265(15) 0.25016(7)
H12 H 0.27140 0.96270 0.25800
C14 C 0.39575(15) 0.85336(14) 0.18719(6)
H13 H 0.35240 0.91440 0.15170
C15 C 0.50664(15) 0.73565(14) 0.17537(6)
H14 H 0.53710 0.71770 0.13170
N2 N 0.59140(13) 0.59335(13) 0.34798(5)
O5 O 0.5625(3) 0.6481(3) 0.40238(6)
O6 O 0.6795(3) 0.4826(2) 0.34223(7)
O7? O 0.4946(8) 0.5717(9) 0.3916(3)
O8? O 0.7185(9) 0.5233(9) 0.3454(4)
#END
