
#######################################################################
#
#                 Cambridge Crystallographic Data Centre
#                                CCDC
#
#######################################################################
#
# If this CIF has been generated from an entry in the Cambridge
# Structural Database, then it will include bibliographic, chemical,
# crystal, experimental, refinement or atomic coordinate data resulting
# from the CCDC's data processing and validation procedures.
#
#######################################################################

data_CSD_CIF_PAVMIK
_audit_creation_date 2012-07-11
_audit_creation_method CSD-ConQuest-V1
_database_code_CSD PAVMIK
_database_code_depnum_ccdc_archive 'CCDC 886897'
_chemical_formula_sum 'C25 H22 N2 O3'
_chemical_formula_moiety
;
C25 H22 N2 O3
;
_journal_coeditor_code "IUCr KP2408"
_journal_coden_Cambridge 1370
_journal_volume 68
_journal_year 2012
_journal_page_first o1660
_journal_name_full 'Acta Crystallogr.,Sect.E:Struct.Rep.Online '
loop_
_publ_author_name
"S.Paramasivam"
"J.Srinivasan"
"P.R.Seshadri"
"M.Bakthadoss"
_chemical_name_systematic
;
6-Ethoxy-1,3-diphenyl-1,9b-dihydro-3H-chromeno[4,3-c][1,2]oxazole-3a(4H)-carbo
nitrile
;
_cell_volume   2059.554
_exptl_crystal_colour 'colorless'
_exptl_crystal_density_diffrn 1.285
_exptl_crystal_description 'block'
_diffrn_ambient_temperature 298
#These two values have been output from a single CSD field.
_refine_ls_R_factor_gt 0.051
_refine_ls_wR_factor_gt 0.051
_symmetry_cell_setting monoclinic
_symmetry_space_group_name_H-M 'P 21/c'
_symmetry_Int_Tables_number 14
loop_
_symmetry_equiv_pos_site_id
_symmetry_equiv_pos_as_xyz
1 x,y,z
2 -x,1/2+y,1/2-z
3 -x,-y,-z
4 x,-1/2-y,-1/2+z
_cell_length_a 15.2994(9)
_cell_length_b 7.5421(5)
_cell_length_c 18.7248(12)
_cell_angle_alpha 90
_cell_angle_beta 107.596(4)
_cell_angle_gamma 90
_cell_formula_units_Z 4
loop_
_atom_type_symbol
_atom_type_radius_bond
C 0.68
H 0.23
N 0.68
O 0.68
loop_
_atom_site_label
_atom_site_type_symbol
_atom_site_fract_x
_atom_site_fract_y
_atom_site_fract_z
O1 O 0.74167(9) 0.45965(16) 0.72376(7)
O2 O 0.88519(9) -0.03937(17) 0.68806(7)
O3 O 0.59365(9) 0.65386(17) 0.67710(8)
N1 N 0.81401(10) 0.0634(2) 0.63282(8)
C1 C 0.74962(12) 0.0946(2) 0.67721(10)
H1 H 0.72570 -0.01890 0.68870
C2 C 0.81684(12) 0.1717(2) 0.74828(10)
C3 C 0.67024(13) 0.3889(2) 0.66889(10)
C4 C 0.67181(12) 0.2174(2) 0.64144(9)
C5 C 0.94613(12) -0.0419(3) 0.82161(11)
C6 C 0.90766(13) 0.0711(3) 0.75323(11)
H2 H 0.95420 0.15730 0.75000
C7 C 0.77892(12) -0.0486(3) 0.56829(11)
C8 C 0.82649(14) 0.3691(2) 0.73450(11)
H3 H 0.87270 0.42020 0.77700
H4 H 0.84660 0.38450 0.69050
C9 C 0.59079(13) 0.4927(2) 0.64301(10)
C10 C 0.59528(13) 0.1560(3) 0.58543(10)
H5 H 0.59570 0.04260 0.56600
C11 C 1.02141(13) 0.0150(3) 0.87856(12)
H6 H 1.04930 0.12210 0.87380
C12 C 0.78370(14) 0.1491(3) 0.81384(11)
C13 C 0.51685(14) 0.4285(3) 0.58771(11)
H7 H 0.46460 0.49810 0.56950
C14 C 0.50900(15) 0.7498(3) 0.66297(12)
H8 H 0.46040 0.67020 0.66580
H9 H 0.49220 0.80140 0.61320
C15 C 0.75973(14) 0.0310(3) 0.49899(12)
H10 H 0.77020 0.15170 0.49560
C16 C 0.51968(14) 0.2608(3) 0.55889(11)
H11 H 0.46950 0.21890 0.52090
N2 N 0.75559(15) 0.1391(3) 0.86341(11)
C17 C 0.90569(15) -0.2018(3) 0.83037(13)
H12 H 0.85470 -0.24220 0.79280
C18 C 0.72930(16) -0.3275(3) 0.50900(16)
H13 H 0.71910 -0.44850 0.51200
C19 C 0.76250(14) -0.2284(3) 0.57391(13)
H14 H 0.77360 -0.28160 0.62060
C20 C 0.94057(18) -0.3005(3) 0.89414(14)
H15 H 0.91300 -0.40730 0.89970
C21 C 0.71127(16) -0.2466(4) 0.43976(15)
H16 H 0.68970 -0.31390 0.39640
C22 C 0.72498(16) -0.0680(4) 0.43459(13)
H17 H 0.71090 -0.01370 0.38790
C23 C 0.52145(18) 0.8905(3) 0.71959(13)
H18 H 0.46540 0.95620 0.71070
H19 H 0.56960 0.96880 0.71640
H20 H 0.53740 0.83830 0.76860
C24 C 1.01620(18) -0.2420(4) 0.94988(14)
H21 H 1.04030 -0.31020 0.99270
C25 C 1.05552(16) -0.0852(4) 0.94225(14)
H22 H 1.10600 -0.04490 0.98040
#END
