
#######################################################################
#
#                 Cambridge Crystallographic Data Centre
#                                CCDC
#
#######################################################################
#
# If this CIF has been generated from an entry in the Cambridge
# Structural Database, then it will include bibliographic, chemical,
# crystal, experimental, refinement or atomic coordinate data resulting
# from the CCDC's data processing and validation procedures.
#
#######################################################################

data_CSD_CIF_PAVZIX
_audit_creation_date 2012-07-19
_audit_creation_method CSD-ConQuest-V1
_database_code_CSD PAVZIX
_database_code_depnum_ccdc_archive 'CCDC 886952'
_chemical_formula_sum 'C14 H12 N4 O3'
_chemical_formula_moiety
;
C14 H12 N4 O3
;
_journal_coeditor_code "IUCr TK5092"
_journal_coden_Cambridge 1370
_journal_volume 68
_journal_year 2012
_journal_page_first o1726
_journal_name_full 'Acta Crystallogr.,Sect.E:Struct.Rep.Online '
loop_
_publ_author_name
"Zhong-Feng Shi"
"Jia-Ming Li"
_chemical_name_systematic
;
(E)-4-Amino-N'-(2-nitrobenzylidene)benzohydrazide
;
_cell_volume    609.603
_exptl_crystal_colour 'yellow'
_exptl_crystal_density_diffrn 1.549
_exptl_crystal_description 'block'
_diffrn_ambient_temperature 296
#These two values have been output from a single CSD field.
_refine_ls_R_factor_gt 0.0448
_refine_ls_wR_factor_gt 0.0448
_symmetry_cell_setting monoclinic
_symmetry_space_group_name_H-M 'P 21'
_symmetry_Int_Tables_number 4
loop_
_symmetry_equiv_pos_site_id
_symmetry_equiv_pos_as_xyz
1 x,y,z
2 -x,1/2+y,-z
_cell_length_a 6.4594(13)
_cell_length_b 4.5998(13)
_cell_length_c 20.598(5)
_cell_angle_alpha 90
_cell_angle_beta 95.08(4)
_cell_angle_gamma 90
_cell_formula_units_Z 2
loop_
_atom_type_symbol
_atom_type_radius_bond
C 0.68
H 0.23
N 0.68
O 0.68
loop_
_atom_site_label
_atom_site_type_symbol
_atom_site_fract_x
_atom_site_fract_y
_atom_site_fract_z
O1 O 0.6908(3) 1.3470(4) 0.16727(9)
O2 O 0.5696(3) 0.5737(5) 0.40854(9)
O3 O 0.3389(3) 0.4666(5) 0.47354(9)
N1 N 1.4552(3) 0.7167(6) 0.05402(10)
H1 H 1.50390 0.82520 0.02360
H2 H 1.55830 0.64430 0.08110
N2 N 0.6727(3) 0.9187(5) 0.21889(9)
H3 H 0.70970 0.74150 0.22150
N3 N 0.5305(3) 1.0250(5) 0.25824(9)
N4 N 0.3968(3) 0.6017(5) 0.42806(10)
C1 C 1.2814(3) 0.8062(6) 0.08357(11)
C2 C 1.2309(3) 0.6722(6) 0.14030(11)
H4 H 1.31340 0.52340 0.15850
C3 C 1.0579(3) 0.7606(6) 0.16970(11)
H5 H 1.02710 0.67150 0.20780
C4 C 0.9293(3) 0.9809(6) 0.14297(11)
C5 C 0.9786(3) 1.1101(6) 0.08586(11)
H6 H 0.89380 1.25550 0.06710
C6 C 1.1522(3) 1.0262(6) 0.05623(11)
H7 H 1.18270 1.11620 0.01820
C7 C 0.7535(3) 1.0973(6) 0.17592(11)
C8 C 0.4572(3) 0.8400(6) 0.29566(11)
H8 H 0.50660 0.65250 0.29780
C9 C 0.2917(3) 0.9327(6) 0.33548(11)
C10 C 0.2529(3) 0.8118(6) 0.39485(11)
C11 C 0.0792(4) 0.8859(6) 0.42611(11)
H9 H 0.05550 0.79750 0.46500
C12 C -0.0568(4) 1.0909(7) 0.39888(12)
H10 H -0.17350 1.14050 0.41910
C13 C -0.0189(4) 1.2225(6) 0.34132(12)
H11 H -0.10850 1.36470 0.32360
C14 C 0.1523(3) 1.1439(6) 0.30967(12)
H12 H 0.17460 1.23310 0.27070
#END
