
#######################################################################
#
#                 Cambridge Crystallographic Data Centre
#                                CCDC
#
#######################################################################
#
# If this CIF has been generated from an entry in the Cambridge
# Structural Database, then it will include bibliographic, chemical,
# crystal, experimental, refinement or atomic coordinate data resulting
# from the CCDC's data processing and validation procedures.
#
#######################################################################

data_CSD_CIF_PAWDID
_audit_creation_date 2017-06-21
_audit_creation_method CSD-ConQuest-V1
_database_code_CSD PAWDID
_database_code_depnum_ccdc_archive 'CCDC 1556039'
_chemical_formula_sum 'C14 H13 N1 O2'
_chemical_formula_moiety
;
C14 H13 N1 O2
;
_journal_coeditor_code "wm5397"
_journal_coden_Cambridge 1828
_journal_volume 73
_journal_year 2017
_journal_page_first 1062
_journal_name_full 'Acta Crystallogr.,Sect.E:Cryst.Commun. '
loop_
_publ_author_name
"H.Reuter"
"C.K.Y.A.Okio"
_chemical_name_systematic
;
2-(hydroxyimino)-1,2-diphenylethan-1-ol
;
_cell_volume   2260.641
_exptl_crystal_colour 'colorless'
_exptl_crystal_density_diffrn 1.335
_exptl_crystal_description 'block'
_diffrn_ambient_temperature 100
#These two values have been output from a single CSD field.
_refine_ls_R_factor_gt 0.0358
_refine_ls_wR_factor_gt 0.0358
_symmetry_cell_setting monoclinic
_symmetry_space_group_name_H-M 'C 2/c'
_symmetry_Int_Tables_number 15
loop_
_symmetry_equiv_pos_site_id
_symmetry_equiv_pos_as_xyz
1 x,y,z
2 -x,y,1/2-z
3 1/2+x,1/2+y,z
4 1/2-x,1/2+y,1/2-z
5 -x,-y,-z
6 x,-y,-1/2+z
7 -1/2-x,-1/2-y,-z
8 -1/2+x,-1/2-y,-1/2+z
_cell_length_a 24.1434(9)
_cell_length_b 10.5348(4)
_cell_length_c 8.9006(4)
_cell_angle_alpha 90
_cell_angle_beta 93.042(2)
_cell_angle_gamma 90
_cell_formula_units_Z 8
loop_
_atom_type_symbol
_atom_type_radius_bond
C 0.68
H 0.23
N 0.68
O 0.68
loop_
_atom_site_label
_atom_site_type_symbol
_atom_site_fract_x
_atom_site_fract_y
_atom_site_fract_z
O1 O 0.43413(4) 0.17890(9) 0.80605(10)
H1 H 0.46930 0.17760 0.86190
C1 C 0.41037(6) 0.14256(12) 0.55975(15)
N1 N 0.44993(5) 0.16404(11) 0.65751(12)
O2 O 0.48687(4) 0.10235(9) 0.40164(11)
H2 H 0.49380 0.02310 0.45240
C2 C 0.42878(6) 0.12695(13) 0.39955(15)
H3 H 0.40860 0.05310 0.35190
C3 C 0.35015(6) 0.13354(13) 0.58375(15)
C4 C 0.31705(6) 0.04617(14) 0.50248(16)
H4 H 0.33320 -0.00720 0.43070
C5 C 0.26100(6) 0.03627(15) 0.52511(17)
H5 H 0.23910 -0.02450 0.47000
C6 C 0.23671(6) 0.11432(16) 0.62737(17)
H6 H 0.19820 0.10710 0.64320
C7 C 0.26863(6) 0.20283(15) 0.70637(17)
H7 H 0.25180 0.25760 0.77550
C8 C 0.32497(6) 0.21281(14) 0.68598(16)
H8 H 0.34660 0.27380 0.74170
C9 C 0.41529(5) 0.24451(14) 0.30732(15)
C10 C 0.43786(6) 0.36078(15) 0.34820(17)
H9 H 0.46270 0.36710 0.43440
C11 C 0.42453(7) 0.46786(16) 0.2644(2)
H10 H 0.43970 0.54780 0.29400
C12 C 0.38915(7) 0.45886(17) 0.13770(19)
H11 H 0.37970 0.53270 0.08070
C13 C 0.36771(7) 0.34293(18) 0.09425(18)
H12 H 0.34400 0.33620 0.00590
C14 C 0.38058(6) 0.23623(16) 0.17912(17)
H13 H 0.36540 0.15640 0.14910
H14? H 0.49590 0.09730 0.29810
#END
