
#######################################################################
#
#                 Cambridge Crystallographic Data Centre
#                                CCDC
#
#######################################################################
#
# If this CIF has been generated from an entry in the Cambridge
# Structural Database, then it will include bibliographic, chemical,
# crystal, experimental, refinement or atomic coordinate data resulting
# from the CCDC's data processing and validation procedures.
#
#######################################################################

data_CSD_CIF_PAWGUR
_audit_creation_date 2012-07-19
_audit_creation_method CSD-ConQuest-V1
_database_code_CSD PAWGUR
_database_code_depnum_ccdc_archive 'CCDC 886978'
_chemical_formula_sum 'C12 H14 N2 O2'
_chemical_formula_moiety
;
C12 H14 N2 O2
;
_journal_coeditor_code "IUCr PV2541"
_journal_coden_Cambridge 1370
_journal_volume 68
_journal_year 2012
_journal_page_first o1758
_journal_name_full 'Acta Crystallogr.,Sect.E:Struct.Rep.Online '
loop_
_publ_author_name
"Zheng Fang"
"Feng Zhang"
"Bao-hua Zou"
"Kai Guo"
_chemical_name_systematic
;
3-(2-Methyl-2-nitropropyl)-1H-indole
;
_cell_volume   1168.023
_exptl_crystal_colour 'yellow'
_exptl_crystal_density_diffrn 1.241
_exptl_crystal_description 'block'
_exptl_crystal_preparation 'ethanol'
_diffrn_ambient_temperature 293
#These two values have been output from a single CSD field.
_refine_ls_R_factor_gt 0.0573
_refine_ls_wR_factor_gt 0.0573
_symmetry_cell_setting monoclinic
_symmetry_space_group_name_H-M 'P 21/n'
_symmetry_Int_Tables_number 14
loop_
_symmetry_equiv_pos_site_id
_symmetry_equiv_pos_as_xyz
1 x,y,z
2 1/2-x,1/2+y,1/2-z
3 -x,-y,-z
4 -1/2+x,-1/2-y,-1/2+z
_cell_length_a 6.1170(12)
_cell_length_b 10.123(2)
_cell_length_c 18.868(4)
_cell_angle_alpha 90
_cell_angle_beta 91.36(3)
_cell_angle_gamma 90
_cell_formula_units_Z 4
loop_
_atom_type_symbol
_atom_type_radius_bond
C 0.68
H 0.23
N 0.68
O 0.68
loop_
_atom_site_label
_atom_site_type_symbol
_atom_site_fract_x
_atom_site_fract_y
_atom_site_fract_z
O1 O 0.3793(4) 0.2257(3) 1.01215(14)
C1 C 0.3885(5) 0.3891(3) 0.78945(14)
N1 N 0.5544(5) 0.5489(3) 0.85178(14)
H1 H 0.64450 0.60980 0.86500
O2 O 0.1178(5) 0.3613(3) 1.02354(13)
C2 C 0.3631(5) 0.3039(3) 0.73199(16)
H2 H 0.24340 0.24740 0.72880
N2 N 0.2086(5) 0.2746(3) 0.99150(14)
C3 C 0.5157(7) 0.3042(4) 0.68028(18)
H3 H 0.49910 0.24720 0.64190
C4 C 0.6966(7) 0.3888(4) 0.68414(19)
H4 H 0.79940 0.38580 0.64870
C5 C 0.7254(6) 0.4763(4) 0.73929(19)
H5 H 0.84420 0.53350 0.74180
C6 C 0.5676(5) 0.4748(3) 0.79116(16)
C7 C 0.3738(6) 0.5096(3) 0.88767(17)
H6 H 0.33070 0.54500 0.93060
C8 C 0.2668(5) 0.4125(3) 0.85229(14)
C9 C 0.0639(5) 0.3434(3) 0.87513(15)
H7 H -0.01790 0.31570 0.83300
H8 H -0.02590 0.40650 0.90000
C10 C 0.0990(4) 0.2237(3) 0.92255(15)
C11 C -0.1206(5) 0.1680(4) 0.9453(2)
H9 H -0.20750 0.23770 0.96460
H10 H -0.09640 0.10100 0.98060
H11 H -0.19610 0.13030 0.90490
C12 C 0.2438(5) 0.1190(3) 0.89062(18)
H12 H 0.37890 0.15830 0.87670
H13 H 0.17090 0.08110 0.84980
H14 H 0.27320 0.05110 0.92510
#END
