
#######################################################################
#
#                 Cambridge Crystallographic Data Centre
#                                CCDC
#
#######################################################################
#
# If this CIF has been generated from an entry in the Cambridge
# Structural Database, then it will include bibliographic, chemical,
# crystal, experimental, refinement or atomic coordinate data resulting
# from the CCDC's data processing and validation procedures.
#
#######################################################################

data_CSD_CIF_PAWVIV
_audit_creation_date 2017-06-21
_audit_creation_method CSD-ConQuest-V1
_database_code_CSD PAWVIV
_database_code_depnum_ccdc_archive 'CCDC 1537833'
_chemical_formula_sum 'C7 H9 N7 O9'
_chemical_formula_moiety
;
C7 H9 N7 O9
;
_journal_coden_Cambridge 1748
_journal_volume 4
_journal_year 2017
_journal_page_first 1819
_journal_name_full 'Org.Chem.Front. '
loop_
_publ_author_name
"Tianjiao Hou"
"Jian Zhang"
"Chenjiao Wang"
"Jun Luo"
_chemical_name_systematic
;
2,4,9-trinitro-2,4,9-triazatricyclo[3.3.1.1^3,7^]decan-7-yl nitrate
;
_chemical_name_common
;
2,4,9-trinitro-2,4,9-triaza-adamantane-7-yl nitrate
;
_cell_volume   1210.141
_exptl_crystal_density_diffrn 1.84
_diffrn_ambient_temperature 296
#These two values have been output from a single CSD field.
_refine_ls_R_factor_gt 0.0256
_refine_ls_wR_factor_gt 0.0256
_symmetry_cell_setting monoclinic
_symmetry_space_group_name_H-M 'C c'
_symmetry_Int_Tables_number 9
loop_
_symmetry_equiv_pos_site_id
_symmetry_equiv_pos_as_xyz
1 x,y,z
2 x,-y,1/2+z
3 1/2+x,1/2+y,z
4 1/2+x,1/2-y,1/2+z
_cell_length_a 7.6272(7)
_cell_length_b 13.3952(13)
_cell_length_c 11.8460(12)
_cell_angle_alpha 90
_cell_angle_beta 90.870(3)
_cell_angle_gamma 90
_cell_formula_units_Z 4
loop_
_atom_type_symbol
_atom_type_radius_bond
C 0.68
H 0.23
N 0.68
O 0.68
loop_
_atom_site_label
_atom_site_type_symbol
_atom_site_fract_x
_atom_site_fract_y
_atom_site_fract_z
O1 O 0.3670(2) 0.63735(11) 0.76663(12)
O2 O 0.6182(2) 0.71222(11) 0.78426(12)
O3 O 0.68219(18) 0.52138(10) 0.31353(12)
O4 O 0.7674(2) 0.89002(11) 0.60956(14)
O5 O 0.5866(2) 0.94613(11) 0.48034(15)
O6 O 0.10298(19) 0.71535(13) 0.59173(14)
O7 O 0.8975(2) 0.46229(13) 0.21581(14)
N1 N 0.5064(2) 0.66705(12) 0.73038(13)
O8 O 0.8919(2) 0.62262(12) 0.24514(14)
O9 O 0.2165(2) 0.85218(11) 0.52561(16)
N2 N 0.5466(2) 0.64123(11) 0.61893(13)
N3 N 0.3358(2) 0.70427(11) 0.48080(14)
N4 N 0.6575(2) 0.87880(11) 0.53464(14)
N5 N 0.6126(2) 0.78340(11) 0.50651(14)
N6 N 0.8386(2) 0.53826(14) 0.25372(14)
N7 N 0.2117(2) 0.76163(12) 0.53810(15)
C1 C 0.7689(2) 0.62823(13) 0.47646(15)
H1 H 0.86290 0.66250 0.43820
H2 H 0.81680 0.56890 0.51220
C2 C 0.4007(2) 0.61502(12) 0.54121(15)
H3 H 0.30570 0.58230 0.58190
C3 C 0.4764(2) 0.54528(13) 0.45206(15)
H4 H 0.52110 0.48510 0.48770
H5 H 0.38540 0.52650 0.39800
C4 C 0.5498(3) 0.69180(13) 0.33269(16)
H6 H 0.45840 0.67260 0.27910
H7 H 0.64140 0.72610 0.29210
C5 C 0.6244(2) 0.59946(12) 0.39180(15)
C6 C 0.6885(2) 0.69688(12) 0.56545(15)
H8 H 0.77700 0.71780 0.62140
C7 C 0.4742(2) 0.76063(13) 0.42386(15)
H9 H 0.42700 0.82200 0.39010
#END
