
#######################################################################
#
#                 Cambridge Crystallographic Data Centre
#                                CCDC
#
#######################################################################
#
# If this CIF has been generated from an entry in the Cambridge
# Structural Database, then it will include bibliographic, chemical,
# crystal, experimental, refinement or atomic coordinate data resulting
# from the CCDC's data processing and validation procedures.
#
#######################################################################

data_CSD_CIF_PAXTAL
_audit_creation_date 2012-07-11
_audit_creation_method CSD-ConQuest-V1
_database_code_CSD PAXTAL
_database_code_depnum_ccdc_archive 'CCDC 887133'
_chemical_formula_sum 'C14 H14 N2 O2'
_chemical_formula_moiety
;
C14 H14 N2 O2
;
_journal_coeditor_code "IUCr FJ2555"
_journal_coden_Cambridge 1370
_journal_volume 68
_journal_year 2012
_journal_page_first o1967
_journal_name_full 'Acta Crystallogr.,Sect.E:Struct.Rep.Online '
loop_
_publ_author_name
"M.Dakovic"
"T.Portada"
"T.Klacic"
_chemical_name_systematic
;
N-(4-Methylbenzyl)-3-nitroaniline
;
_cell_volume    624.706
_exptl_crystal_colour 'yellow'
_exptl_crystal_density_diffrn 1.288
_exptl_crystal_description 'plate'
_diffrn_ambient_temperature 296
#These two values have been output from a single CSD field.
_refine_ls_R_factor_gt 0.0459
_refine_ls_wR_factor_gt 0.0459
_symmetry_cell_setting monoclinic
_symmetry_space_group_name_H-M 'P 21'
_symmetry_Int_Tables_number 4
loop_
_symmetry_equiv_pos_site_id
_symmetry_equiv_pos_as_xyz
1 x,y,z
2 -x,1/2+y,-z
_cell_length_a 5.1851(4)
_cell_length_b 21.408(2)
_cell_length_c 5.6833(4)
_cell_angle_alpha 90
_cell_angle_beta 98.010(7)
_cell_angle_gamma 90
_cell_formula_units_Z 2
loop_
_atom_type_symbol
_atom_type_radius_bond
C 0.68
H 0.23
N 0.68
O 0.68
loop_
_atom_site_label
_atom_site_type_symbol
_atom_site_fract_x
_atom_site_fract_y
_atom_site_fract_z
O1 O 0.0400(4) 0.59135(11) 0.2460(4)
O2 O 0.1836(4) 0.49767(11) 0.2911(3)
N1 N 0.8389(4) 0.47827(11) -0.2730(5)
N2 N 0.1802(4) 0.54885(10) 0.1976(3)
C1 C 0.6686(4) 0.52300(11) -0.2149(4)
C2 C 0.5065(4) 0.51224(10) -0.0402(4)
C3 C 0.3489(4) 0.56021(10) 0.0150(4)
C4 C 0.3374(5) 0.61797(11) -0.0925(5)
C5 C 0.4936(5) 0.62762(13) -0.2656(5)
C6 C 0.6563(5) 0.58119(12) -0.3245(4)
C7 C 0.8676(5) 0.41780(13) -0.1683(5)
C8 C 0.6482(4) 0.37253(11) -0.2473(4)
C9 C 0.5891(6) 0.32463(15) -0.1024(5)
C10 C 0.3929(7) 0.28214(14) -0.1763(6)
C11 C 0.2506(6) 0.28531(12) -0.3980(5)
C12 C 0.3078(6) 0.33344(14) -0.5412(5)
C13 C 0.5021(6) 0.37587(13) -0.4681(5)
C14 C 0.0335(7) 0.23991(16) -0.4795(9)
H1 H 0.913(6) 0.4885(14) -0.376(5)
H2 H 0.50580 0.47380 0.03580
H3 H 0.22830 0.64920 -0.04980
H4 H 0.48930 0.66590 -0.34350
H5 H 0.76130 0.58890 -0.44120
H6 H 0.88320 0.42240 0.00290
H7 H 1.02900 0.39970 -0.20470
H8 H 0.68320 0.32070 0.04860
H9 H 0.35690 0.25070 -0.07280
H10 H 0.21290 0.33750 -0.69180
H11 H 0.53540 0.40770 -0.57100
H12 H -0.04300 0.25020 -0.63840
H13 H -0.09690 0.24240 -0.37530
H14 H 0.10230 0.19820 -0.47650
#END
