
#######################################################################
#
#                 Cambridge Crystallographic Data Centre
#                                CCDC
#
#######################################################################
#
# If this CIF has been generated from an entry in the Cambridge
# Structural Database, then it will include bibliographic, chemical,
# crystal, experimental, refinement or atomic coordinate data resulting
# from the CCDC's data processing and validation procedures.
#
#######################################################################

data_CSD_CIF_PAYBOI
_audit_creation_date 2012-07-11
_audit_creation_method CSD-ConQuest-V1
_database_code_CSD PAYBOI
_database_code_depnum_ccdc_archive 'CCDC 887514'
_chemical_formula_sum 'C17 H25 N3 O2'
_chemical_formula_moiety
;
C17 H25 N3 O2
;
_journal_coeditor_code "IUCr AA2057"
_journal_coden_Cambridge 1370
_journal_volume 68
_journal_year 2012
_journal_page_first o1941
_journal_name_full 'Acta Crystallogr.,Sect.E:Struct.Rep.Online '
loop_
_publ_author_name
"Z.-Q.Wang"
"Y.Ma"
_chemical_name_systematic
;
1-[(3-Nitrophenyl)(piperidin-1-yl)methyl]piperidine
;
_cell_volume   3346.936
_exptl_crystal_colour 'pale yellow'
_exptl_crystal_density_diffrn 1.204
_exptl_crystal_description 'needle'
_diffrn_ambient_temperature 296
#These two values have been output from a single CSD field.
_refine_ls_R_factor_gt 0.0726
_refine_ls_wR_factor_gt 0.0726
_symmetry_cell_setting orthorhombic
_symmetry_space_group_name_H-M 'P b c a'
_symmetry_Int_Tables_number 61
loop_
_symmetry_equiv_pos_site_id
_symmetry_equiv_pos_as_xyz
1 x,y,z
2 1/2-x,-y,1/2+z
3 -x,1/2+y,1/2-z
4 1/2+x,1/2-y,-z
5 -x,-y,-z
6 -1/2+x,y,-1/2-z
7 x,-1/2-y,-1/2+z
8 -1/2-x,-1/2+y,z
_cell_length_a 12.1993(14)
_cell_length_b 8.2012(9)
_cell_length_c 33.453(4)
_cell_angle_alpha 90
_cell_angle_beta 90
_cell_angle_gamma 90
_cell_formula_units_Z 8
loop_
_atom_type_symbol
_atom_type_radius_bond
C 0.68
H 0.23
N 0.68
O 0.68
loop_
_atom_site_label
_atom_site_type_symbol
_atom_site_fract_x
_atom_site_fract_y
_atom_site_fract_z
C1 C 0.4378(2) 0.0644(3) 0.59215(7)
C2 C 0.3469(2) 0.0225(3) 0.56963(8)
H1 H 0.27910 0.06970 0.57480
C3 C 0.3587(2) -0.0929(4) 0.53875(8)
C4 C 0.4570(3) -0.1650(4) 0.53052(9)
H2 H 0.46250 -0.24180 0.51010
C5 C 0.5477(3) -0.1236(4) 0.55250(9)
H3 H 0.61500 -0.17210 0.54710
C6 C 0.5383(2) -0.0096(4) 0.58258(8)
H4 H 0.60050 0.01930 0.59700
C7 C 0.4282(2) 0.1804(3) 0.62769(7)
H5 H 0.36350 0.24930 0.62350
C8 C 0.5060(2) -0.0124(4) 0.67719(8)
H6 H 0.57420 0.04750 0.67490
H7 H 0.50920 -0.10510 0.65920
C9 C 0.4918(3) -0.0723(4) 0.72010(9)
H8 H 0.55220 -0.14360 0.72710
H9 H 0.49260 0.02000 0.73820
C10 C 0.3842(3) -0.1638(4) 0.72440(9)
H10 H 0.37300 -0.19340 0.75220
H11 H 0.38680 -0.26320 0.70870
C11 C 0.2898(3) -0.0577(4) 0.71015(9)
H12 H 0.22250 -0.12050 0.71060
H13 H 0.28110 0.03410 0.72820
C12 C 0.3100(2) 0.0049(4) 0.66804(8)
H14 H 0.31150 -0.08630 0.64960
H15 H 0.25060 0.07670 0.66020
C13 C 0.5397(3) 0.3828(4) 0.59340(8)
H16 H 0.48150 0.46280 0.59110
H17 H 0.53650 0.31190 0.57020
C14 C 0.6505(3) 0.4692(4) 0.59470(9)
H18 H 0.70870 0.38860 0.59550
H19 H 0.65980 0.53370 0.57060
C15 C 0.6591(3) 0.5790(4) 0.6310(1)
H20 H 0.73330 0.62070 0.63320
H21 H 0.60990 0.67100 0.62800
C16 C 0.6299(3) 0.4858(4) 0.66823(9)
H22 H 0.62560 0.56090 0.69060
H23 H 0.68740 0.40760 0.67400
C17 C 0.5214(2) 0.3963(4) 0.66416(8)
H24 H 0.50700 0.33450 0.68830
H25 H 0.46260 0.47470 0.66070
N1 N 0.2630(3) -0.1308(4) 0.51498(8)
N2 N 0.41423(16) 0.0934(3) 0.66589(6)
N3 N 0.52421(17) 0.2863(3) 0.62994(6)
O1 O 0.2761(3) -0.2159(4) 0.48535(9)
O2 O 0.1737(2) -0.0787(5) 0.52516(9)
#END
