
#######################################################################
#
#                 Cambridge Crystallographic Data Centre
#                                CCDC
#
#######################################################################
#
# If this CIF has been generated from an entry in the Cambridge
# Structural Database, then it will include bibliographic, chemical,
# crystal, experimental, refinement or atomic coordinate data resulting
# from the CCDC's data processing and validation procedures.
#
#######################################################################

data_CSD_CIF_PAYBIC
_audit_creation_date 2012-07-10
_audit_creation_method CSD-ConQuest-V1
_database_code_CSD PAYBIC
_database_code_depnum_ccdc_archive 'CCDC 854148'
_chemical_formula_sum 'C26 H20 N2 O2'
_chemical_formula_moiety
;
C26 H20 N2 O2
;
_journal_coeditor_code "IUCr CV5302"
_journal_coden_Cambridge 1370
_journal_volume 68
_journal_year 2012
_journal_page_first o1933
_journal_name_full 'Acta Crystallogr.,Sect.E:Struct.Rep.Online '
loop_
_publ_author_name
"Zhi-Wen Zhang"
"Yan-Qiu Liu"
"Yu-Chao Zhu"
"Jie-Ying Wu"
_chemical_name_systematic
;
4-(2-(4-Nitrophenyl)vinyl)-N,N-diphenylaniline
;
_cell_volume   2052.309
_exptl_crystal_colour 'red'
_exptl_crystal_density_diffrn 1.27
_exptl_crystal_description 'block'
_diffrn_ambient_temperature 298
#These two values have been output from a single CSD field.
_refine_ls_R_factor_gt 0.0565
_refine_ls_wR_factor_gt 0.0565
_symmetry_cell_setting monoclinic
_symmetry_space_group_name_H-M 'P 21/c'
_symmetry_Int_Tables_number 14
loop_
_symmetry_equiv_pos_site_id
_symmetry_equiv_pos_as_xyz
1 x,y,z
2 -x,1/2+y,1/2-z
3 -x,-y,-z
4 x,-1/2-y,-1/2+z
_cell_length_a 8.4884(3)
_cell_length_b 8.9834(3)
_cell_length_c 27.0880(8)
_cell_angle_alpha 90
_cell_angle_beta 96.500(2)
_cell_angle_gamma 90
_cell_formula_units_Z 4
loop_
_atom_type_symbol
_atom_type_radius_bond
C 0.68
H 0.23
N 0.68
O 0.68
loop_
_atom_site_label
_atom_site_type_symbol
_atom_site_fract_x
_atom_site_fract_y
_atom_site_fract_z
O1 O 0.1022(4) 0.1217(4) 1.06736(14)
O2 O 0.2236(5) -0.0213(4) 1.02338(11)
N1 N 0.4781(2) 1.2271(2) 0.81947(8)
N2 N 0.1826(4) 0.1004(4) 1.03580(13)
C1 C 0.3616(3) 1.3187(3) 0.78910(9)
C2 C 0.3483(3) 1.4677(3) 0.79922(10)
H1 H 0.41280 1.51060 0.82540
C3 C 0.2364(4) 1.5551(4) 0.76972(13)
H2 H 0.22890 1.65590 0.77700
C4 C 0.1355(4) 1.4960(5) 0.72958(14)
H3 H 0.06310 1.55660 0.71070
C5 C 0.1463(4) 1.3478(4) 0.71906(13)
H4 H 0.08060 1.30530 0.69300
C6 C 0.2598(4) 1.2596(3) 0.74862(11)
H5 H 0.26770 1.15900 0.74110
C7 C 0.6385(3) 1.2784(3) 0.83323(9)
C8 C 0.7061(3) 1.3620(3) 0.80040(11)
H6 H 0.65190 1.38620 0.76970
C9 C 0.8628(4) 1.4119(3) 0.81420(15)
H7 H 0.90970 1.47010 0.79150
C10 C 0.9527(4) 1.3801(3) 0.85959(15)
H8 H 1.05510 1.41690 0.86670
C11 C 0.8878(4) 1.2964(3) 0.89204(12)
H9 H 0.94410 1.27120 0.92240
C12 C 0.7319(3) 1.2467(3) 0.87945(10)
H10 H 0.68610 1.18940 0.90260
C13 C 0.4293(3) 1.0942(3) 0.83959(9)
C14 C 0.2812(3) 1.0854(3) 0.85408(10)
H11 H 0.21010 1.16380 0.84790
C15 C 0.2386(4) 0.9612(3) 0.87764(11)
H12 H 0.13750 0.95670 0.88770
C16 C 0.3393(3) 0.8402(3) 0.88742(10)
C17 C 0.4834(3) 0.8447(3) 0.87023(11)
H13 H 0.55120 0.76340 0.87460
C18 C 0.5286(3) 0.9702(3) 0.84636(11)
H14 H 0.62720 0.97250 0.83450
C19 C 0.2936(4) 0.7155(3) 0.91720(11)
H15 H 0.19500 0.72390 0.92880
C20 C 0.3702(4) 0.5964(3) 0.92954(11)
H16 H 0.46870 0.58730 0.91800
C21 C 0.3225(3) 0.4725(3) 0.95959(10)
C22 C 0.2273(3) 0.4916(3) 0.99516(12)
H17 H 0.19080 0.58610 1.00210
C23 C 0.1839(3) 0.3702(4) 1.02138(12)
H18 H 0.11890 0.38300 1.04650
C24 C 0.2349(3) 0.2320(3) 1.01095(11)
C25 C 0.3328(4) 0.2112(3) 0.97748(11)
H19 H 0.37090 0.11690 0.97110
C26 C 0.3760(4) 0.3325(3) 0.95259(11)
H20 H 0.44690 0.31900 0.92920
#END
