
#######################################################################
#
#                 Cambridge Crystallographic Data Centre
#                                CCDC
#
#######################################################################
#
# If this CIF has been generated from an entry in the Cambridge
# Structural Database, then it will include bibliographic, chemical,
# crystal, experimental, refinement or atomic coordinate data resulting
# from the CCDC's data processing and validation procedures.
#
#######################################################################

data_CSD_CIF_PAYPOV
_audit_creation_date 2006-02-07
_audit_creation_method CSD-ConQuest-V1
_database_code_CSD PAYPOV
_database_code_depnum_ccdc_archive 'CCDC 248571'
_chemical_formula_sum 'C12 H13 N3 O2'
_chemical_formula_moiety
;
C12 H13 N3 O2
;
_journal_coden_Cambridge 206
_journal_volume 35
_journal_year 2005
_journal_page_first 2067
_journal_name_full 'Synth.Commun. '
loop_
_publ_author_name
"M.R.Heiskell"
"M.D.Rudd"
"B.B.Penn"
"J.A.Kautz"
_chemical_name_systematic
;
N-Ethyl-(4-methyl-6-nitro-quinolin-2-yl)amine
;
_chemical_melting_point 453.15
_cell_volume   1180.427
_exptl_crystal_colour 'yellow'
_exptl_crystal_density_diffrn 1.301
_exptl_special_details
;
Melting point range 453.15-455.15K

;
_exptl_crystal_description 'blocks'
_exptl_crystal_preparation 'heptane/toluene'
_diffrn_ambient_temperature 293
_refine_special_details
;
The ethyl group is equally disordered over two sites related by symmetry.

;
#These two values have been output from a single CSD field.
_refine_ls_R_factor_gt 0.0521
_refine_ls_wR_factor_gt 0.0521
_symmetry_cell_setting orthorhombic
_symmetry_space_group_name_H-M 'P b c m'
_symmetry_Int_Tables_number 57
loop_
_symmetry_equiv_pos_site_id
_symmetry_equiv_pos_as_xyz
1 x,y,z
2 -x,-y,1/2+z
3 -x,1/2+y,1/2-z
4 x,1/2-y,-z
5 -x,-y,-z
6 x,y,-1/2-z
7 x,-1/2-y,-1/2+z
8 -x,-1/2+y,z
_cell_length_a 8.0685(14)
_cell_length_b 21.458(5)
_cell_length_c 6.818(3)
_cell_angle_alpha 90
_cell_angle_beta 90
_cell_angle_gamma 90
_cell_formula_units_Z 4
loop_
_atom_type_symbol
_atom_type_radius_bond
C 0.68
H 0.23
N 0.68
O 0.68
loop_
_atom_site_label
_atom_site_type_symbol
_atom_site_fract_x
_atom_site_fract_y
_atom_site_fract_z
N1 N 0.2652(3) 0.46607(12) 0.25000
C1 C 0.3693(5) 0.41816(17) 0.25000
C2 C 0.5434(5) 0.42541(17) 0.25000
H1 H 0.61050 0.39020 0.25000
C3 C 0.6135(4) 0.48166(18) 0.25000
C4 C 0.5069(4) 0.53531(16) 0.25000
C5 C 0.5630(5) 0.59664(17) 0.25000
H2 H 0.67610 0.60490 0.25000
C6 C 0.4522(5) 0.64478(17) 0.25000
C7 C 0.2823(5) 0.63497(17) 0.25000
H3 H 0.20920 0.66850 0.25000
C8 C 0.2248(5) 0.57534(16) 0.25000
H4 H 0.11100 0.56830 0.25000
C9 C 0.3335(4) 0.52413(16) 0.25000
N2 N 0.3043(4) 0.36040(14) 0.25000
C10 C 0.1307(7) 0.3471(3) 0.1854(10)
C11 C 0.0437(8) 0.3350(4) 0.3721(14)
H5 H -0.07050 0.32560 0.34590
H6 H 0.09450 0.30030 0.43730
N3 N 0.5153(6) 0.70817(18) 0.25000
O1 O 0.6647(5) 0.71644(15) 0.25000
O2 O 0.4157(5) 0.75126(16) 0.25000
C12 C 0.8000(4) 0.4904(2) 0.25000
H7 H 0.82550 0.53410 0.25000
H8 H 0.84630 0.47130 0.13500
H9 H 0.364(6) 0.334(2) 0.25000
H10? H 0.08310 0.38260 0.11770
H11? H 0.12660 0.31100 0.10000
H12? H 0.05050 0.37120 0.45430
H13? H 0.12020 0.33910 0.47910
H14? H -0.00090 0.29350 0.37070
H15? H -0.04480 0.36450 0.38770
H16? H 0.84630 0.47130 0.36500
H17? H 0.85330 0.45040 0.25000
H18? H 0.83250 0.51320 0.36500
H19? H 0.83250 0.51320 0.13500
C10E C 0.1307(7) 0.3471(3) 0.3146(10)
C11E C 0.0437(8) 0.3350(4) 0.1279(14)
H5E H -0.07050 0.32560 0.15410
H6E H 0.09450 0.30030 0.06270
H8E H 0.84630 0.47130 0.36500
#END
