
#######################################################################
#
#                 Cambridge Crystallographic Data Centre
#                                CCDC
#
#######################################################################
#
# If this CIF has been generated from an entry in the Cambridge
# Structural Database, then it will include bibliographic, chemical,
# crystal, experimental, refinement or atomic coordinate data resulting
# from the CCDC's data processing and validation procedures.
#
#######################################################################

data_CSD_CIF_PAYPUB
_audit_creation_date 2006-02-07
_audit_creation_method CSD-ConQuest-V1
_database_code_CSD PAYPUB
_database_code_depnum_ccdc_archive 'CCDC 248572'
_chemical_formula_sum 'C16 H19 N3 O2'
_chemical_formula_moiety
;
C16 H19 N3 O2
;
_journal_coden_Cambridge 206
_journal_volume 35
_journal_year 2005
_journal_page_first 2067
_journal_name_full 'Synth.Commun. '
loop_
_publ_author_name
"M.R.Heiskell"
"M.D.Rudd"
"B.B.Penn"
"J.A.Kautz"
_chemical_name_systematic
;
N-Cyclohexyl-(4-methyl-6-nitro-quinolin-2-yl)amine
;
_cell_volume   1505.568
_exptl_crystal_colour 'yellow'
_exptl_crystal_density_diffrn 1.259
_exptl_crystal_description 'plates'
_diffrn_ambient_temperature 293
#These two values have been output from a single CSD field.
_refine_ls_R_factor_gt 0.0514
_refine_ls_wR_factor_gt 0.0514
_symmetry_cell_setting monoclinic
_symmetry_space_group_name_H-M 'P 21/n'
_symmetry_Int_Tables_number 14
loop_
_symmetry_equiv_pos_site_id
_symmetry_equiv_pos_as_xyz
1 x,y,z
2 1/2-x,1/2+y,1/2-z
3 -x,-y,-z
4 -1/2+x,-1/2-y,-1/2+z
_cell_length_a 6.3495(7)
_cell_length_b 21.783(4)
_cell_length_c 11.0252(14)
_cell_angle_alpha 90
_cell_angle_beta 99.135(10)
_cell_angle_gamma 90
_cell_formula_units_Z 4
loop_
_atom_type_symbol
_atom_type_radius_bond
C 0.68
H 0.23
N 0.68
O 0.68
loop_
_atom_site_label
_atom_site_type_symbol
_atom_site_fract_x
_atom_site_fract_y
_atom_site_fract_z
N1 N 0.2661(3) 0.86811(10) 0.0744(2)
C1 C 0.4309(4) 0.83565(13) 0.1307(2)
C2 C 0.4396(4) 0.77080(14) 0.1274(3)
H1 H 0.559(4) 0.7522(12) 0.167(2)
C3 C 0.2761(4) 0.73759(12) 0.0688(2)
C4 C 0.0926(4) 0.77045(13) 0.0095(2)
C5 C -0.0909(5) 0.74153(15) -0.0531(3)
H2 H -0.099(4) 0.6992(13) -0.061(2)
C6 C -0.2587(4) 0.77614(17) -0.1077(2)
C7 C -0.2563(5) 0.83915(18) -0.1034(3)
H3 H -0.374(5) 0.8604(13) -0.144(3)
C8 C -0.0792(4) 0.86877(16) -0.0440(3)
H4 H -0.075(4) 0.9134(14) -0.042(2)
C9 C 0.0987(4) 0.83515(13) 0.0141(2)
N2 N 0.5963(3) 0.86681(11) 0.1952(2)
C10 C 0.6024(4) 0.93287(13) 0.2078(3)
H5 H 0.554(5) 0.9535(12) 0.124(3)
C11 C 0.4687(5) 0.95393(14) 0.3035(3)
H6 H 0.321(5) 0.9384(12) 0.282(3)
H7 H 0.532(5) 0.9318(13) 0.386(3)
C12 C 0.4725(6) 1.02212(16) 0.3202(5)
H8 H 0.374(6) 1.0388(17) 0.364(4)
H9 H 0.409(6) 1.0417(16) 0.232(3)
C13 C 0.6980(6) 1.04643(19) 0.3510(5)
H10 H 0.710(6) 1.0911(18) 0.350(4)
H11 H 0.774(7) 1.0278(18) 0.429(4)
C14 C 0.8343(7) 1.0249(2) 0.2580(5)
H12 H 0.973(6) 1.0373(17) 0.284(4)
H13 H 0.774(7) 1.0418(18) 0.185(4)
C15 C 0.8317(5) 0.95512(18) 0.2454(4)
H14 H 0.890(5) 0.9388(14) 0.338(3)
H15 H 0.910(5) 0.9407(15) 0.183(3)
N3 N -0.4486(4) 0.74520(18) -0.1723(3)
O1 O -0.5927(4) 0.77788(14) -0.2244(3)
O2 O -0.4564(4) 0.68961(14) -0.1725(2)
C16 C 0.2828(5) 0.66848(13) 0.0683(3)
H16 H 0.15270 0.65290 0.02230
H17 H 0.29860 0.65360 0.15120
H18 H 0.40150 0.65490 0.03100
H19? H 0.41580 0.65470 0.11400
H20? H 0.26990 0.65400 -0.01480
H21? H 0.16710 0.65270 0.10530
H22 H 0.711(5) 0.8460(15) 0.220(3)
#END
