
#######################################################################
#
#                 Cambridge Crystallographic Data Centre
#                                CCDC
#
#######################################################################
#
# If this CIF has been generated from an entry in the Cambridge
# Structural Database, then it will include bibliographic, chemical,
# crystal, experimental, refinement or atomic coordinate data resulting
# from the CCDC's data processing and validation procedures.
#
#######################################################################

data_CSD_CIF_PAZKOQ
_audit_creation_date 1998-11-04
_audit_creation_method CSD-ConQuest-V1
_database_code_CSD PAZKOQ
_database_code_depnum_ccdc_archive 'CCDC 1229153; CCDC 407937'
_database_code_depnum_ccdc_fiz 'CSD 407937'
_chemical_formula_sum 'C26 H29 N1 O3'
_chemical_formula_moiety
;
C26 H29 N1 O3
;
_journal_coden_Cambridge 16
_journal_volume 54
_journal_year 1998
_journal_page_first 7273
_journal_name_full 'Tetrahedron '
loop_
_publ_author_name
"W.Beil"
"P.G.Jones"
"F.Nerenz"
"E.Winterfeldt"
_chemical_name_systematic
;
(2'S,4aS,4bS,8aS,9R,9aR)-9-(4-Methoxyphenyl)-8a-methyl-4,4a,4b,5,6,7,8,8a,9,9a
-decahydrospiro(1H-4b,9-etheno-4H-fluorene-4,2'-4'-methylisoxazoline)-1-one
;
_chemical_melting_point 422.15
_cell_volume   2126.428
_exptl_crystal_colour 'colorless'
_exptl_crystal_density_diffrn 1.26
_exptl_crystal_description 'tablet'
_diffrn_ambient_temperature 143
#These two values have been output from a single CSD field.
_refine_ls_R_factor_gt 0.0515
_refine_ls_wR_factor_gt 0.0515
_symmetry_cell_setting orthorhombic
_symmetry_space_group_name_H-M 'P 21 21 2'
_symmetry_Int_Tables_number 18
loop_
_symmetry_equiv_pos_site_id
_symmetry_equiv_pos_as_xyz
1 x,y,z
2 -x,-y,z
3 1/2-x,1/2+y,-z
4 1/2+x,1/2-y,-z
_cell_length_a 13.607(2)
_cell_length_b 15.559(2)
_cell_length_c 10.044(2)
_cell_angle_alpha 90
_cell_angle_beta 90
_cell_angle_gamma 90
_cell_formula_units_Z 4
loop_
_atom_type_symbol
_atom_type_radius_bond
C 0.68
H 0.23
N 0.68
O 0.68
loop_
_atom_site_label
_atom_site_type_symbol
_atom_site_fract_x
_atom_site_fract_y
_atom_site_fract_z
C1 C 0.6138(2) 0.44797(19) 0.6415(4)
C2 C 0.6381(2) 0.4343(2) 0.7811(4)
H1 H 0.68190 0.47300 0.82410
C3 C 0.6010(3) 0.3696(2) 0.8491(4)
H2 H 0.62140 0.36280 0.93890
C4 C 0.5290(2) 0.3060(2) 0.7948(3)
C5 C 0.5318(2) 0.29418(18) 0.6424(3)
H3 H 0.46270 0.28390 0.61270
C6 C 0.5957(2) 0.21859(17) 0.5853(3)
C7 C 0.5606(2) 0.12627(18) 0.6037(3)
H4 H 0.49140 0.12120 0.57420
H5 H 0.56380 0.11050 0.69910
C8 C 0.6253(3) 0.06508(19) 0.5225(4)
H6 H 0.69260 0.06550 0.55980
H7 H 0.59920 0.00590 0.53080
C9 C 0.6299(3) 0.08911(19) 0.3764(3)
H8 H 0.56380 0.08300 0.33650
H9 H 0.67480 0.04910 0.32960
C10 C 0.6663(2) 0.18181(17) 0.3570(3)
H10 H 0.66440 0.19670 0.26120
H11 H 0.73520 0.18640 0.38760
C11 C 0.60191(19) 0.24538(17) 0.4356(3)
C12 C 0.65163(19) 0.33377(17) 0.4670(3)
C13 C 0.57052(19) 0.37372(17) 0.5631(3)
H12 H 0.51560 0.39640 0.50700
C14 C 0.73203(19) 0.30492(17) 0.5625(3)
H13 H 0.79490 0.33070 0.57190
C15 C 0.6993(2) 0.23775(18) 0.6301(3)
H14 H 0.73490 0.20680 0.69580
C16 C 0.5037(2) 0.25338(19) 0.3614(3)
H15 H 0.46080 0.29350 0.40920
H16 H 0.47210 0.19690 0.35670
H17 H 0.51560 0.27490 0.27120
C17 C 0.6828(2) 0.38725(17) 0.3500(3)
C18 C 0.7770(2) 0.38157(18) 0.3004(3)
H18 H 0.82200 0.34330 0.34170
C19 C 0.8085(2) 0.42979(18) 0.1922(3)
H19 H 0.87410 0.42460 0.16090
C20 C 0.7439(2) 0.48535(18) 0.1302(3)
C21 C 0.6487(2) 0.4900(2) 0.1758(3)
H20 H 0.60300 0.52660 0.13210
C22 C 0.6188(2) 0.4422(2) 0.2839(4)
H21 H 0.55280 0.44690 0.31400
C23 C 0.8680(3) 0.5389(2) -0.0157(4)
H22 H 0.90950 0.55350 0.06080
H23 H 0.87670 0.58220 -0.08560
H24 H 0.88690 0.48230 -0.05010
O1 O 0.62873(16) 0.51693(13) 0.5874(3)
O2 O 0.76739(18) 0.53706(14) 0.0247(2)
O3 O 0.55159(16) 0.22385(14) 0.8601(2)
N1 N 0.4793(2) 0.20535(16) 0.9567(3)
C24 C 0.4258(2) 0.3288(2) 0.8483(4)
H25 H 0.42450 0.38700 0.88800
H26 H 0.37530 0.32500 0.77750
C25 C 0.4117(2) 0.2617(2) 0.9502(3)
C26 C 0.3247(3) 0.2563(3) 1.0391(5)
H27 H 0.33620 0.21250 1.10740
H28 H 0.26660 0.24070 0.98660
H29 H 0.31380 0.31210 1.08190
#END
