
#######################################################################
#
#                 Cambridge Crystallographic Data Centre
#                                CCDC
#
#######################################################################
#
# If this CIF has been generated from an entry in the Cambridge
# Structural Database, then it will include bibliographic, chemical,
# crystal, experimental, refinement or atomic coordinate data resulting
# from the CCDC's data processing and validation procedures.
#
#######################################################################

data_CSD_CIF_PAZYUN
_audit_creation_date 2017-06-23
_audit_creation_method CSD-ConQuest-V1
_database_code_CSD PAZYUN
_database_code_depnum_ccdc_archive 'CCDC 951522'
_chemical_formula_sum 'C35 H25 N5 O3'
_chemical_formula_moiety
;
C35 H25 N5 O3
;
_journal_coden_Cambridge 1540
_journal_volume 7
_journal_year 2017
_journal_page_first 41024
_journal_name_full 'Scientific Reports '
loop_
_publ_author_name
"Jing Sun"
"Guo-Liang Shen"
"Ying Huang"
"Chao Yan"
_chemical_name_systematic
;
1-benzyl-5-methyl-3'-(4-nitrophenyl)-2-oxo-1,2-dihydrospiro[indole-3,2'-pyrrol
o[2,1-a]isoquinoline]-1',1'(10b'H)-dicarbonitrile
;
_cell_volume   1395.898
_exptl_crystal_density_diffrn 1.341
_diffrn_ambient_temperature 296
#These two values have been output from a single CSD field.
_refine_ls_R_factor_gt 0.0526
_refine_ls_wR_factor_gt 0.0526
_symmetry_cell_setting triclinic
_symmetry_space_group_name_H-M 'P -1'
_symmetry_Int_Tables_number 2
loop_
_symmetry_equiv_pos_site_id
_symmetry_equiv_pos_as_xyz
1 x,y,z
2 -x,-y,-z
_cell_length_a 10.1786(19)
_cell_length_b 12.289(2)
_cell_length_c 12.295(2)
_cell_angle_alpha 73.696(2)
_cell_angle_beta 75.823(2)
_cell_angle_gamma 74.102(2)
_cell_formula_units_Z 2
loop_
_atom_type_symbol
_atom_type_radius_bond
C 0.68
H 0.23
N 0.68
O 0.68
loop_
_atom_site_label
_atom_site_type_symbol
_atom_site_fract_x
_atom_site_fract_y
_atom_site_fract_z
C1 C 0.0577(3) 1.0565(2) 0.3069(2)
H1 H 0.14680 1.01420 0.31610
C2 C -0.0110(3) 1.1354(2) 0.3736(2)
H2 H 0.03150 1.14510 0.42810
C3 C -0.1409(3) 1.1993(2) 0.3601(2)
H3 H -0.18630 1.25330 0.40450
C4 C -0.2044(3) 1.1839(2) 0.2814(2)
H4 H -0.29290 1.22770 0.27190
C5 C -0.1366(2) 1.1029(2) 0.2156(2)
H5 H -0.18110 1.09120 0.16340
C6 C -0.0039(2) 1.03928(18) 0.22660(18)
C7 C 0.0704(2) 0.95827(19) 0.1477(2)
H6 H 0.00400 0.92030 0.13720
H7 H 0.10430 1.00400 0.07300
C8 C 0.1766(2) 0.77262(18) 0.28262(18)
C9 C 0.0597(2) 0.7454(2) 0.35755(19)
H8 H -0.02810 0.79120 0.34870
C10 C 0.0768(2) 0.6472(2) 0.4470(2)
H9 H -0.00150 0.62720 0.49800
C11 C 0.2069(2) 0.57790(19) 0.46293(18)
C12 C 0.2238(3) 0.4746(2) 0.5638(2)
H10 H 0.13400 0.46180 0.60440
H11 H 0.27140 0.48950 0.61480
H12 H 0.27690 0.40690 0.53620
C13 C 0.3239(2) 0.60731(19) 0.38486(18)
H13 H 0.41190 0.56170 0.39340
C14 C 0.3086(2) 0.70472(18) 0.29450(17)
C15 C 0.41458(19) 0.75945(17) 0.20164(17)
C16 C 0.3217(2) 0.87021(19) 0.13889(19)
C17 C 0.5020(2) 0.68659(18) 0.11067(18)
C18 C 0.4135(2) 0.6816(2) 0.0342(2)
C19 C 0.5643(2) 0.5681(2) 0.1697(2)
C20 C 0.6197(2) 0.75556(19) 0.04856(18)
H14 H 0.57960 0.82720 -0.00290
C21 C 0.7481(2) 0.69207(19) -0.02069(19)
C22 C 0.7354(3) 0.6422(2) -0.1043(2)
H15 H 0.64750 0.64320 -0.11470
C23 C 0.8529(3) 0.5903(2) -0.1733(2)
H16 H 0.84410 0.55630 -0.22910
C24 C 0.9825(3) 0.5903(2) -0.1576(2)
H17 H 1.06140 0.55710 -0.20400
C25 C 0.9966(3) 0.6385(2) -0.0748(2)
H18 H 1.08500 0.63720 -0.06530
C26 C 0.8802(2) 0.68962(19) -0.0041(2)
C27 C 0.8924(2) 0.7343(2) 0.0892(2)
H19 H 0.98000 0.73500 0.09890
C28 C 0.7804(2) 0.7747(2) 0.1615(2)
H20 H 0.79260 0.79580 0.22480
C29 C 0.53191(19) 0.78541(18) 0.24439(18)
H21 H 0.56060 0.71970 0.30690
C30 C 0.4868(2) 0.89470(18) 0.29043(18)
C31 C 0.5196(2) 0.99902(19) 0.22521(19)
H22 H 0.57180 1.00280 0.15120
C32 C 0.4752(2) 1.0971(2) 0.2692(2)
H23 H 0.49840 1.16680 0.22600
C33 C 0.3963(2) 1.09060(19) 0.3778(2)
C34 C 0.3608(2) 0.9893(2) 0.4448(2)
H24 H 0.30640 0.98690 0.51780
C35 C 0.4083(2) 0.8907(2) 0.40068(19)
H25 H 0.38730 0.82070 0.44540
N1 N 0.18710(16) 0.86912(15) 0.18869(15)
N2 N 0.3404(3) 0.6822(2) -0.0224(2)
N3 N 0.6153(2) 0.4798(2) 0.2187(2)
N4 N 0.64705(17) 0.78622(15) 0.14619(15)
N5 N 0.3487(2) 1.1958(2) 0.4250(2)
O1 O 0.36082(15) 0.94454(14) 0.05733(13)
O2 O 0.2691(2) 1.19014(18) 0.5183(2)
O3 O 0.3951(2) 1.28113(18) 0.37075(19)
#END
