
#######################################################################
#
#                 Cambridge Crystallographic Data Centre
#                                CCDC
#
#######################################################################
#
# If this CIF has been generated from an entry in the Cambridge
# Structural Database, then it will include bibliographic, chemical,
# crystal, experimental, refinement or atomic coordinate data resulting
# from the CCDC's data processing and validation procedures.
#
#######################################################################

data_CSD_CIF_PBTZBO
_audit_creation_date 1975-07-10
_audit_creation_method CSD-ConQuest-V1
_database_code_CSD PBTZBO
_chemical_formula_sum 'C13 H9 N3 O2'
_chemical_formula_moiety
;
C13 H9 N3 O2
;
_journal_coeditor_code "IUCr A11984"
_journal_coden_Cambridge 107
_journal_volume 31
_journal_year 1975
_journal_page_first 626
_journal_name_full 'Acta Crystallogr.,Sect.B:Struct.Crystallogr.Cryst.Chem. '
loop_
_publ_author_name
"R.E.Ballard"
"E.K.Norris"
_chemical_name_systematic
;
2-Phenylbenzo-1,2,3-triazinium-betaine 1-oxide
;
_chemical_melting_point 420.15
_cell_volume   1085.811
_exptl_crystal_density_diffrn 1.463
_exptl_special_details
;
Melting point range 420.15-422.15K

;
_diffrn_ambient_temperature ?
_diffrn_special_details
;
The study was carried out at room temperature,in the range 283-303K

;
#These two values have been output from a single CSD field.
_refine_ls_R_factor_gt 0.056
_refine_ls_wR_factor_gt 0.056
_symmetry_cell_setting monoclinic
_symmetry_space_group_name_H-M 'P 21/n'
_symmetry_Int_Tables_number 14
loop_
_symmetry_equiv_pos_site_id
_symmetry_equiv_pos_as_xyz
1 x,y,z
2 1/2-x,1/2+y,1/2-z
3 -x,-y,-z
4 -1/2+x,-1/2-y,-1/2+z
_cell_length_a 8.13(5)
_cell_length_b 21.02(5)
_cell_length_c 8.13(5)
_cell_angle_alpha 90
_cell_angle_beta 128.6(2)
_cell_angle_gamma 90
_cell_formula_units_Z 4
loop_
_atom_type_symbol
_atom_type_radius_bond
C 0.68
H 0.23
N 0.68
O 0.68
loop_
_atom_site_label
_atom_site_type_symbol
_atom_site_fract_x
_atom_site_fract_y
_atom_site_fract_z
C1 C -0.43240 0.08950 0.44100
C2 C -1.11360 0.31880 0.38570
C3 C -1.18960 0.26040 0.38990
C4 C -1.11110 0.20460 0.37680
C5 C -0.95110 0.20880 0.36020
C6 C -0.35280 0.03700 0.40860
C7 C -0.48320 -0.00100 0.23470
C8 C -0.69350 0.01220 0.09230
C9 C -0.77600 0.06400 0.12170
C10 C -0.64340 0.10110 0.29480
C11 C -0.69710 0.26790 0.35050
C12 C -0.87090 0.26650 0.35830
C13 C -0.95430 0.32190 0.37220
H1 H -0.33200 0.12000 0.57620
H2 H -1.18040 0.36200 0.39300
H3 H -1.31320 0.25880 0.40390
H4 H -1.17120 0.15910 0.37910
H5 H -0.18730 0.02580 0.52070
H6 H -0.41910 -0.04150 0.21030
H7 H -0.79490 -0.01810 -0.04330
H8 H -0.94180 0.07500 0.01040
H9 H -0.89340 0.36760 0.37240
N1 N -0.87130 0.15280 0.34140
N2 N -0.72140 0.15860 0.32350
N3 N -0.62940 0.21190 0.33050
O1 O -0.93640 0.09930 0.34390
O2 O -0.60980 0.31750 0.36420
#END
