
#######################################################################
#
#                 Cambridge Crystallographic Data Centre
#                                CCDC
#
#######################################################################
#
# If this CIF has been generated from an entry in the Cambridge
# Structural Database, then it will include bibliographic, chemical,
# crystal, experimental, refinement or atomic coordinate data resulting
# from the CCDC's data processing and validation procedures.
#
#######################################################################

data_CSD_CIF_PBZQOX
_audit_creation_date 1971-12-31
_audit_creation_method CSD-ConQuest-V1
_database_code_CSD PBZQOX
_chemical_formula_sum 'C9 H11 N1 O3'
_chemical_formula_moiety
;
C9 H11 N1 O3
;
_journal_coeditor_code "IUCr A04364"
_journal_coden_Cambridge 1
_journal_volume 17
_journal_year 1964
_journal_page_first 1287
_journal_name_full 'Acta Crystallogr. '
loop_
_publ_author_name
"C.Romers"
_chemical_name_systematic
;
\b-5-n-Propoxy-o-benzoquinone-2-oxime
;
_cell_volume    880.993
_diffrn_ambient_temperature 153.15
#These two values have been output from a single CSD field.
_refine_ls_R_factor_gt 0.116
_refine_ls_wR_factor_gt 0.116
_symmetry_cell_setting monoclinic
_symmetry_space_group_name_H-M 'P 21/c'
_symmetry_Int_Tables_number 14
loop_
_symmetry_equiv_pos_site_id
_symmetry_equiv_pos_as_xyz
1 x,y,z
2 -x,1/2+y,1/2-z
3 -x,-y,-z
4 x,-1/2-y,-1/2+z
_cell_length_a 10.64
_cell_length_b 12.57
_cell_length_c 6.63
_cell_angle_alpha 90
_cell_angle_beta 96.52
_cell_angle_gamma 90
_cell_formula_units_Z 4
loop_
_atom_type_symbol
_atom_type_radius_bond
C 0.68
H 0.20
N 0.68
O 0.68
loop_
_atom_site_label
_atom_site_type_symbol
_atom_site_fract_x
_atom_site_fract_y
_atom_site_fract_z
C1 C 0.28450 0.02410 0.30100
C2 C 0.38640 -0.03600 0.26720
C3 C 0.50260 0.01400 0.24310
C4 C 0.51010 0.13150 0.25750
C5 C 0.39880 0.19090 0.29520
C6 C 0.29000 0.13980 0.31700
C7 C 0.14860 -0.12770 0.30230
C8 C 0.01390 -0.15030 0.34310
C9 C -0.08330 -0.09660 0.19280
H1 H -0.07100 -0.12800 0.06200
H2 H 0.19800 0.16300 0.33300
H3 H 0.69400 0.06500 0.26700
H4 H -0.18500 -0.11300 0.20000
H5 H -0.07200 -0.03300 0.15300
H6 H -0.00300 -0.11000 0.45600
H7 H 0.00500 -0.23000 0.35700
H8 H 0.20000 -0.15800 0.42300
H9 H 0.15500 -0.15200 0.15400
H10 H 0.39200 -0.11200 0.26700
H11 H 0.40500 0.27000 0.31600
N1 N 0.61330 0.18730 0.23830
O1 O 0.16860 -0.01390 0.32330
O2 O 0.71850 0.13180 0.20610
O3 O 0.60120 -0.03780 0.21090
#END
