
#######################################################################
#
#                 Cambridge Crystallographic Data Centre
#                                CCDC
#
#######################################################################
#
# If this CIF has been generated from an entry in the Cambridge
# Structural Database, then it will include bibliographic, chemical,
# crystal, experimental, refinement or atomic coordinate data resulting
# from the CCDC's data processing and validation procedures.
#
#######################################################################

data_CSD_CIF_PCHSYD10
_audit_creation_date 1980-02-13
_audit_creation_method CSD-ConQuest-V1
_database_code_CSD PCHSYD10
_chemical_formula_sum 'C14 H14 N2 O2'
_chemical_formula_moiety
;
C14 H14 N2 O2
;
_journal_coeditor_code "IUCr A17872"
_journal_coden_Cambridge 107
_journal_volume 35
_journal_year 1979
_journal_page_first 2449
_journal_name_full 'Acta Crystallogr.,Sect.B:Struct.Crystallogr.Cryst.Chem. '
loop_
_publ_author_name
"J.Hasek"
"J.Obrda"
"K.Huml"
"S.Nespurek"
"M.Sorm"
_chemical_name_systematic
;
4-(1-Cyclohexenyl)-3-phenylsydnone
;
_chemical_melting_point 397
_cell_volume   1246.499
_exptl_crystal_colour 'bright yellow'
_exptl_crystal_density_diffrn 1.29
_exptl_special_details
;
Melting point range 397-9K

;
_diffrn_ambient_temperature ?
_diffrn_special_details
;
The study was carried out at room temperature,in the range 283-303K

;
#These two values have been output from a single CSD field.
_refine_ls_R_factor_gt 0.046
_refine_ls_wR_factor_gt 0.046
_symmetry_cell_setting monoclinic
_symmetry_space_group_name_H-M 'P 21/c'
_symmetry_Int_Tables_number 14
loop_
_symmetry_equiv_pos_site_id
_symmetry_equiv_pos_as_xyz
1 x,y,z
2 -x,1/2+y,1/2-z
3 -x,-y,-z
4 x,-1/2-y,-1/2+z
_cell_length_a 11.015(2)
_cell_length_b 10.042(2)
_cell_length_c 15.164(3)
_cell_angle_alpha 90
_cell_angle_beta 132.0(1)
_cell_angle_gamma 90
_cell_formula_units_Z 4
loop_
_atom_type_symbol
_atom_type_radius_bond
C 0.68
H 0.23
N 0.68
O 0.68
loop_
_atom_site_label
_atom_site_type_symbol
_atom_site_fract_x
_atom_site_fract_y
_atom_site_fract_z
O1 O 0.07020 0.77890 -0.03200
N1 N 0.21450 0.82690 0.00350
N2 N 0.27470 0.89970 0.09800
C1 C 0.18540 0.90270 0.12940
C2 C 0.04720 0.82240 0.04370
O2 O -0.07230 0.78780 0.02600
C3 C 0.43170 0.96000 0.15600
C4 C 0.56610 0.91950 0.26940
C5 C 0.71710 0.97490 0.32290
C6 C 0.73010 1.06680 0.26190
C7 C 0.59410 1.10430 0.14870
C8 C 0.44320 1.05120 0.09370
C9 C 0.21880 0.97780 0.22640
C10 C 0.15550 0.93190 0.27310
C11 C 0.17300 1.00510 0.36710
C12 C 0.29120 1.11660 0.42320
C13 C 0.28850 1.19000 0.33800
C14 C 0.31200 1.10350 0.26910
H1 H 0.54500 0.85200 0.31000
H2 H 0.82500 0.93500 0.40600
H3 H 0.83900 1.09700 0.30200
H4 H 0.60400 1.15700 0.10700
H5 H 0.33500 1.08000 0.01200
H6 H 0.07900 0.85800 0.23400
H7 H 0.20200 0.94400 0.42700
H8 H 0.06800 1.03700 0.33500
H9 H 0.39900 1.08300 0.48600
H10 H 0.26100 1.17700 0.46700
H11 H 0.35400 1.27000 0.37100
H12 H 0.18700 1.23800 0.28400
H13 H 0.43400 1.08900 0.32700
H14 H 0.29300 1.15400 0.20400
#END
