
#######################################################################
#
#                 Cambridge Crystallographic Data Centre
#                                CCDC
#
#######################################################################
#
# If this CIF has been generated from an entry in the Cambridge
# Structural Database, then it will include bibliographic, chemical,
# crystal, experimental, refinement or atomic coordinate data resulting
# from the CCDC's data processing and validation procedures.
#
#######################################################################

data_CSD_CIF_PEBBOP
_audit_creation_date 2012-09-12
_audit_creation_method CSD-ConQuest-V1
_database_code_CSD PEBBOP
_database_code_depnum_ccdc_archive 'CCDC 848527'
_chemical_formula_sum 'C16 H23 N1 O4'
_chemical_formula_moiety
;
C16 H23 N1 O4
;
_journal_coden_Cambridge 1336
_journal_volume 14
_journal_year 2012
_journal_page_first 2614
_journal_name_full 'Org.Lett. '
loop_
_publ_author_name
"Xiao-Jing Wang"
"Gui-Jie Zhang"
"Peng-Yu Zhuang"
"Yan Zhang"
"Shi-Shan Yu"
"Xiu-Qi Bao"
"Dan Zhang"
"Yu-He Yuan"
"Nai-Hong Chen"
"Shuang-gang Ma"
"Jing Qu"
"Yong Li"
_chemical_name_systematic
;
3,4-Dihydroxy-7-methyl-17-oxa-14-azapentacyclo[12.2.1.0^2,10^.0^2,13^.0^5,10^]
heptadecan-9-one
;
_chemical_name_common
;
lycojaponicumin B
;
_cell_volume    711.317
_exptl_crystal_colour 'colorless'
_exptl_crystal_density_diffrn 1.37
_exptl_special_details
;
Absolute configuration

;
_exptl_crystal_description 'cubic'
_diffrn_ambient_temperature 140
#These two values have been output from a single CSD field.
_refine_ls_R_factor_gt 0.0357
_refine_ls_wR_factor_gt 0.0357
_chemical_compound_source
;
Lycopodium japonicum Thunb
;
_symmetry_cell_setting monoclinic
_symmetry_space_group_name_H-M 'P 21'
_symmetry_Int_Tables_number 4
loop_
_symmetry_equiv_pos_site_id
_symmetry_equiv_pos_as_xyz
1 x,y,z
2 -x,1/2+y,-z
_cell_length_a 6.659(8)
_cell_length_b 9.549(7)
_cell_length_c 11.189(8)
_cell_angle_alpha 90
_cell_angle_beta 91.20(2)
_cell_angle_gamma 90
_cell_formula_units_Z 2
loop_
_atom_type_symbol
_atom_type_radius_bond
C 0.68
H 0.23
N 0.68
O 0.68
loop_
_atom_site_label
_atom_site_type_symbol
_atom_site_fract_x
_atom_site_fract_y
_atom_site_fract_z
N1 N -0.6058(2) 0.39355(19) -0.98975(13)
O1 O -0.6617(2) -0.01097(15) -0.84426(11)
H1 H -0.59130 -0.04360 -0.89670
O2 O -0.7210(2) 0.00674(16) -0.61923(12)
H2 H -0.74560 -0.05280 -0.67030
O3 O -1.0838(2) 0.21858(18) -0.72344(11)
O4 O -0.6771(2) 0.25374(17) -1.02203(11)
C1 C -0.8006(3) 0.4705(3) -0.99327(17)
H3 H -0.83530 0.49960 -1.07420
H4 H -0.79430 0.55260 -0.94230
C2 C -0.9541(3) 0.3646(3) -0.94704(16)
H5 H -1.01460 0.39660 -0.87380
H6 H -1.05890 0.34540 -1.00640
C3 C -0.8205(3) 0.2372(2) -0.92523(15)
H7 H -0.89410 0.14840 -0.92890
C4 C -0.6784(3) 0.2484(2) -0.81707(14)
C5 C -0.5658(3) 0.1078(2) -0.79324(15)
H8 H -0.42880 0.11480 -0.82310
C6 C -0.5576(3) 0.0913(2) -0.65636(16)
H9 H -0.42890 0.05120 -0.62950
C7 C -0.5837(3) 0.2376(2) -0.60779(14)
H10 H -0.45790 0.28850 -0.61960
C8 C -0.6290(3) 0.2413(2) -0.47286(15)
H11 H -0.63050 0.14580 -0.44320
H12 H -0.52010 0.28990 -0.43160
C9 C -0.5339(3) 0.3656(2) -0.86447(15)
H13 H -0.39660 0.32880 -0.86600
C10 C -0.5408(3) 0.4888(2) -0.77724(17)
H14 H -0.55390 0.57650 -0.82040
H15 H -0.41910 0.49200 -0.72820
C11 C -0.7256(3) 0.4642(2) -0.69886(17)
H16 H -0.84490 0.50610 -0.73500
H17 H -0.70420 0.50350 -0.61970
C12 C -0.7463(3) 0.3027(2) -0.69266(15)
C13 C -0.9535(3) 0.2551(2) -0.65343(15)
C14 C -0.9959(3) 0.2572(3) -0.52061(15)
H18 H -1.02870 0.16280 -0.49580
H19 H -1.11340 0.31500 -0.50810
C15 C -0.8258(3) 0.3112(2) -0.44059(16)
H20 H -0.81230 0.41210 -0.45390
C16 C -0.8684(4) 0.2872(3) -0.30819(17)
H21 H -0.75690 0.32040 -0.26040
H22 H -0.88730 0.18900 -0.29400
H23 H -0.98760 0.33720 -0.28720
#END
