
#######################################################################
#
#                 Cambridge Crystallographic Data Centre
#                                CCDC
#
#######################################################################
#
# If this CIF has been generated from an entry in the Cambridge
# Structural Database, then it will include bibliographic, chemical,
# crystal, experimental, refinement or atomic coordinate data resulting
# from the CCDC's data processing and validation procedures.
#
#######################################################################

data_CSD_CIF_PEFCIM
_audit_creation_date 1993-10-27
_audit_creation_method CSD-ConQuest-V1
_database_code_CSD PEFCIM
_database_code_depnum_ccdc_archive 'CCDC 1230038'
_chemical_formula_sum 'C14 H21 N1 O5'
_chemical_formula_moiety
;
C14 H21 N1 O5
;
_journal_coden_Cambridge 241
_journal_year 1992
_journal_page_first 2339
_journal_name_full 'Chem.Lett. '
loop_
_publ_author_name
"Y.Nishigaichi"
"M.Fujimoto"
"K.Nakayama"
"A.Takuwa"
"K.Hamada"
"T.Fujiwara"
_chemical_name_systematic
;
(2-Ethyl-1,3-dihydroxy-4-methoxy-1-(p-nitrophenyl))pentane
;
_cell_volume   1479.545
_exptl_crystal_density_diffrn 1.272
_diffrn_ambient_temperature ?
_diffrn_special_details
;
The study was carried out at room temperature,in the range 283-303K

;
#These two values have been output from a single CSD field.
_refine_ls_R_factor_gt 0.07
_refine_ls_wR_factor_gt 0.07
_symmetry_cell_setting monoclinic
_symmetry_space_group_name_H-M 'P 21/n'
_symmetry_Int_Tables_number 14
loop_
_symmetry_equiv_pos_site_id
_symmetry_equiv_pos_as_xyz
1 x,y,z
2 1/2-x,1/2+y,1/2-z
3 -x,-y,-z
4 -1/2+x,-1/2-y,-1/2+z
_cell_length_a 15.202(2)
_cell_length_b 12.925(1)
_cell_length_c 7.642(1)
_cell_angle_alpha 90
_cell_angle_beta 99.82(1)
_cell_angle_gamma 90
_cell_formula_units_Z 4
loop_
_atom_type_symbol
_atom_type_radius_bond
C 0.68
H 0.23
N 0.68
O 0.68
loop_
_atom_site_label
_atom_site_type_symbol
_atom_site_fract_x
_atom_site_fract_y
_atom_site_fract_z
O1 O 0.6976(2) 0.3289(3) 0.3491(6)
O2 O 0.6456(2) 0.1830(3) 0.2481(5)
O3 O 0.2904(2) 0.5574(2) 0.1219(5)
O4 O 0.1199(2) 0.5436(2) 0.1831(4)
O5 O -0.0266(2) 0.4175(2) 0.1607(4)
N1 N 0.6364(2) 0.2761(3) 0.2786(4)
C1 C 0.5476(2) 0.3197(3) 0.2316(5)
C2 C 0.5361(2) 0.4245(3) 0.2555(6)
C3 C 0.4518(2) 0.4655(3) 0.2148(6)
C4 C 0.3790(2) 0.4047(3) 0.1494(5)
C5 C 0.3930(2) 0.2994(3) 0.1240(5)
C6 C 0.4769(2) 0.2572(3) 0.1664(5)
C7 C 0.2853(2) 0.4481(3) 0.1097(5)
C8 C 0.2242(2) 0.4019(2) 0.2329(5)
C9 C 0.2551(2) 0.4273(3) 0.4288(5)
C10 C 0.3157(3) 0.3484(3) 0.5333(6)
C11 C 0.1274(2) 0.4339(3) 0.1625(4)
C12 C 0.0574(2) 0.3796(3) 0.2515(4)
C13 C -0.0969(2) 0.4143(3) 0.2629(6)
C14 C 0.0605(2) 0.2627(3) 0.2400(5)
H1 H 0.589(3) 0.469(4) 0.289(6)
H2 H 0.442(3) 0.540(3) 0.242(5)
H3 H 0.341(2) 0.257(3) 0.074(5)
H4 H 0.487(2) 0.182(3) 0.148(4)
H5 H 0.257(2) 0.427(2) -0.020(6)
H6 H 0.235(3) 0.577(3) 0.136(5)
H7 H 0.226(2) 0.326(2) 0.216(3)
H8 H 0.285(3) 0.491(3) 0.433(5)
H9 H 0.208(3) 0.435(3) 0.485(6)
H10 H 0.333(2) 0.358(3) 0.677(5)
H11 H 0.374(3) 0.345(4) 0.501(6)
H12 H 0.283(3) 0.288(3) 0.514(6)
H13 H 0.113(2) 0.419(2) 0.030(3)
H14 H 0.073(2) 0.557(3) 0.083(5)
H15 H 0.068(2) 0.397(2) 0.383(4)
H16 H -0.105(3) 0.340(3) 0.292(5)
H17 H -0.150(3) 0.442(3) 0.195(6)
H18 H -0.069(3) 0.447(4) 0.399(7)
H19 H 0.117(2) 0.240(3) 0.323(5)
H20 H 0.054(3) 0.240(3) 0.103(5)
H21 H 0.009(3) 0.227(3) 0.283(5)
#END
