
#######################################################################
#
#                 Cambridge Crystallographic Data Centre
#                                CCDC
#
#######################################################################
#
# If this CIF has been generated from an entry in the Cambridge
# Structural Database, then it will include bibliographic, chemical,
# crystal, experimental, refinement or atomic coordinate data resulting
# from the CCDC's data processing and validation procedures.
#
#######################################################################

data_CSD_CIF_PEFHIU
_audit_creation_date 2017-10-24
_audit_creation_method CSD-ConQuest-V1
_database_code_CSD PEFHIU
_database_code_depnum_ccdc_archive 'CCDC 1472225'
_chemical_formula_sum 'C19 H16 N2 O3'
_chemical_formula_moiety
;
C19 H16 N2 O3
;
_journal_coden_Cambridge 1366
_journal_volume 359
_journal_year 2017
_journal_page_first 260
_journal_name_full 'Adv.Synth.Catal. '
loop_
_publ_author_name
"S.Kattela"
"G.Heerdt"
"C.R.D.Correia"
_chemical_name_systematic
;
(1S,4R)-1'-methyl-4-(4-nitrophenyl)spiro[cyclopentane-1,3'-indolin]-2-en-2'-on
e
;
_cell_volume   1559.613
_exptl_crystal_colour 'colorless'
_exptl_crystal_density_diffrn 1.364
_exptl_special_details
;
Absolute configuration

;
_exptl_crystal_description 'block'
_diffrn_ambient_temperature 150
#These two values have been output from a single CSD field.
_refine_ls_R_factor_gt 0.0331
_refine_ls_wR_factor_gt 0.0331
_symmetry_cell_setting orthorhombic
_symmetry_space_group_name_H-M 'P 21 21 21'
_symmetry_Int_Tables_number 19
loop_
_symmetry_equiv_pos_site_id
_symmetry_equiv_pos_as_xyz
1 x,y,z
2 1/2+x,1/2-y,-z
3 -x,1/2+y,1/2-z
4 1/2-x,-y,1/2+z
_cell_length_a 6.0164(7)
_cell_length_b 10.5781(12)
_cell_length_c 24.506(3)
_cell_angle_alpha 90
_cell_angle_beta 90
_cell_angle_gamma 90
_cell_formula_units_Z 4
loop_
_atom_type_symbol
_atom_type_radius_bond
C 0.68
H 0.23
N 0.68
O 0.68
loop_
_atom_site_label
_atom_site_type_symbol
_atom_site_fract_x
_atom_site_fract_y
_atom_site_fract_z
O1 O 0.3902(3) 0.44570(16) -0.02958(6)
O2 O 0.7362(3) 0.47124(16) -0.05016(6)
O3 O 1.3855(2) 0.39487(12) 0.25487(5)
N1 N 0.5890(3) 0.43541(14) -0.01932(6)
N2 N 1.2665(3) 0.33429(14) 0.34016(6)
C1 C 0.6532(3) 0.37663(16) 0.03248(7)
C2 C 0.8695(3) 0.38907(18) 0.05092(7)
H1 H 0.97800 0.43240 0.02980
C3 C 0.9232(3) 0.33657(19) 0.10096(7)
H2 H 1.07010 0.34560 0.11470
C4 C 0.7664(3) 0.27066(16) 0.13170(7)
C5 C 0.8273(3) 0.21497(16) 0.18655(7)
H3 H 0.69430 0.17070 0.20180
C6 C 0.9050(3) 0.31603(16) 0.22802(7)
H4 H 0.77740 0.34890 0.24920
H5 H 0.97800 0.38750 0.20910
C7 C 1.0716(3) 0.24700(16) 0.26586(7)
C8 C 0.9750(3) 0.20391(15) 0.31978(7)
C9 C 1.0954(3) 0.26023(17) 0.36186(7)
C10 C 1.0376(4) 0.24283(19) 0.41614(8)
H6 H 1.12060 0.28080 0.44480
C11 C 0.8531(5) 0.1675(2) 0.42698(8)
H7 H 0.80880 0.15470 0.46380
C12 C 0.5513(3) 0.25846(16) 0.11118(7)
H8 H 0.44310 0.21310 0.13150
C13 C 0.4935(3) 0.31150(16) 0.06163(7)
H9 H 0.34660 0.30330 0.04790
C14 C 1.0218(3) 0.12396(15) 0.18660(7)
H10 H 1.04680 0.06240 0.15910
C15 C 1.1528(3) 0.14006(16) 0.22939(7)
H11 H 1.28170 0.09090 0.23650
C16 C 1.2611(3) 0.33474(15) 0.28435(7)
C17 C 0.7935(3) 0.12839(17) 0.33120(8)
H12 H 0.71180 0.08920 0.30270
C18 C 0.7330(4) 0.11094(19) 0.38572(9)
H13 H 0.60820 0.05980 0.39440
C19 C 1.4271(4) 0.40575(19) 0.37205(9)
H14 H 1.53280 0.44720 0.34740
H15 H 1.50730 0.34830 0.39650
H16 H 1.34930 0.46980 0.39370
#END
