
#######################################################################
#
#                 Cambridge Crystallographic Data Centre
#                                CCDC
#
#######################################################################
#
# If this CIF has been generated from an entry in the Cambridge
# Structural Database, then it will include bibliographic, chemical,
# crystal, experimental, refinement or atomic coordinate data resulting
# from the CCDC's data processing and validation procedures.
#
#######################################################################

data_CSD_CIF_PEFNAP
_audit_creation_date 1993-11-16
_audit_creation_method CSD-ConQuest-V1
_database_code_CSD PEFNAP
_chemical_formula_sum 'C16 H16 N2 O3'
_chemical_formula_moiety
;
C16 H16 N2 O3
;
_journal_coden_Cambridge 16
_journal_volume 49
_journal_year 1993
_journal_page_first 2115
_journal_name_full 'Tetrahedron '
loop_
_publ_author_name
"F.Fulop"
"L.Lazar"
"G.Bernath"
"R.Sillanpaa"
"K.Pihlaja"
_chemical_name_systematic
;
6-Phenyl-2-(4-nitrophenyl)-2H-1,3-oxazine
;
_chemical_melting_point 367.15
_cell_volume    711.776
_exptl_crystal_colour 'colorless'
_exptl_crystal_density_diffrn 1.327
_exptl_special_details
;
Melting point range 367.15-369.15K

;
_diffrn_ambient_temperature ?
_diffrn_special_details
;
The study was carried out at room temperature,in the range 283-303K

;
#These two values have been output from a single CSD field.
_refine_ls_R_factor_gt 0.079
_refine_ls_wR_factor_gt 0.079
_symmetry_cell_setting triclinic
_symmetry_space_group_name_H-M 'P -1'
_symmetry_Int_Tables_number 2
loop_
_symmetry_equiv_pos_site_id
_symmetry_equiv_pos_as_xyz
1 x,y,z
2 -x,-y,-z
_cell_length_a 8.715(2)
_cell_length_b 12.599(2)
_cell_length_c 7.188(3)
_cell_angle_alpha 95.23(2)
_cell_angle_beta 112.37(2)
_cell_angle_gamma 77.23(2)
_cell_formula_units_Z 2
loop_
_atom_type_symbol
_atom_type_radius_bond
C 0.68
H 0.23
N 0.68
O 0.68
loop_
_atom_site_label
_atom_site_type_symbol
_atom_site_fract_x
_atom_site_fract_y
_atom_site_fract_z
O1 O 0.6400(7) 0.1351(4) 0.4643(7)
O2 O 0.0815(8) 0.6222(5) -0.001(1)
O3 O 0.1967(8) 0.5357(5) -0.202(1)
N1 N 0.597(1) 0.2389(6) 0.734(1)
N2 N 0.1839(9) 0.5484(6) -0.038(1)
C1 C 0.602(2) 0.2332(8) 0.571(2)
C2 C 0.712(1) 0.1538(8) 0.875(1)
C3 C 0.760(2) 0.0471(9) 0.773(2)
C4 C 0.756(2) 0.0498(9) 0.596(2)
C5 C 0.492(1) 0.3167(6) 0.411(1)
C6 C 0.363(1) 0.3947(7) 0.439(1)
C7 C 0.264(1) 0.4716(6) 0.296(1)
C8 C 0.294(1) 0.4694(6) 0.122(1)
C9 C 0.423(1) 0.3949(7) 0.090(1)
C10 C 0.521(1) 0.3196(6) 0.236(1)
C11 C 0.789(1) -0.0497(7) 0.474(1)
C12 C 0.892(1) -0.1445(9) 0.570(1)
C13 C 0.922(1) -0.2372(8) 0.460(2)
C14 C 0.854(1) -0.2352(7) 0.256(2)
C15 C 0.753(1) -0.1418(7) 0.160(1)
C16 C 0.720(1) -0.0499(6) 0.268(1)
H1 H 0.70680 0.25610 0.60470
H2 H 0.81200 0.17950 0.95410
H3 H 0.65770 0.13950 0.95960
H4 H 0.87590 0.01660 0.85450
H5 H 0.69000 0.00100 0.77410
H6 H 0.85730 0.07430 0.62320
H7 H 0.34310 0.39480 0.55980
H8 H 0.17720 0.52530 0.31740
H9 H 0.44330 0.39570 -0.03010
H10 H 0.61110 0.26810 0.21580
H11 H 0.94210 -0.14610 0.71290
H12 H 0.99090 -0.30230 0.52710
H13 H 0.87720 -0.29820 0.17980
H14 H 0.70450 -0.14030 0.01750
H15 H 0.64840 0.01420 0.19890
#END
