
#######################################################################
#
#                 Cambridge Crystallographic Data Centre
#                                CCDC
#
#######################################################################
#
# If this CIF has been generated from an entry in the Cambridge
# Structural Database, then it will include bibliographic, chemical,
# crystal, experimental, refinement or atomic coordinate data resulting
# from the CCDC's data processing and validation procedures.
#
#######################################################################

data_CSD_CIF_PEFTIE02
_audit_creation_date 2006-05-10
_audit_creation_method CSD-ConQuest-V1
_database_code_CSD PEFTIE02
_database_code_depnum_ccdc_archive 'CCDC 278157'
_chemical_formula_sum 'C9 H9 N3 O2'
_chemical_formula_moiety
;
C9 H9 N3 O2
;
_journal_coden_Cambridge 119
_journal_volume 784
_journal_year 2006
_journal_page_first 214
_journal_name_full 'J.Mol.Struct. '
loop_
_publ_author_name
"D.S.Yufit"
"O.V.Chetina"
"J.A.K.Howard"
_chemical_name_systematic
;
N-(4-nitrophenyl)-N-methylaminoacetonitrile
;
_chemical_name_common
;
NPAN
;
_chemical_melting_point 367
_cell_volume   1971.201
_exptl_crystal_colour 'yellow'
_exptl_crystal_density_diffrn 1.288
_exptl_special_details
;
Melting point range 367-368K
polymorph 2
phase transitions at 95-98 C and 330-340 K
;
_exptl_crystal_description 'half-pipe'
_exptl_crystal_preparation 'from the melt'
_diffrn_ambient_temperature 363
#These two values have been output from a single CSD field.
_refine_ls_R_factor_gt 0.0882
_refine_ls_wR_factor_gt 0.0882
_symmetry_cell_setting orthorhombic
_symmetry_space_group_name_H-M 'P b c a'
_symmetry_Int_Tables_number 61
loop_
_symmetry_equiv_pos_site_id
_symmetry_equiv_pos_as_xyz
1 x,y,z
2 1/2-x,-y,1/2+z
3 -x,1/2+y,1/2-z
4 1/2+x,1/2-y,-z
5 -x,-y,-z
6 -1/2+x,y,-1/2-z
7 x,-1/2-y,-1/2+z
8 -1/2-x,-1/2+y,z
_cell_length_a 10.4224(14)
_cell_length_b 7.3995(10)
_cell_length_c 25.560(3)
_cell_angle_alpha 90
_cell_angle_beta 90
_cell_angle_gamma 90
_cell_formula_units_Z 8
loop_
_atom_type_symbol
_atom_type_radius_bond
C 0.68
H 0.23
N 0.68
O 0.68
loop_
_atom_site_label
_atom_site_type_symbol
_atom_site_fract_x
_atom_site_fract_y
_atom_site_fract_z
O1 O -0.0690(5) 0.4166(9) 0.1274(2)
O2 O -0.0379(5) 0.3397(7) 0.04733(18)
N1 N 0.0014(6) 0.3859(7) 0.0904(2)
N2 N 0.5358(5) 0.4390(6) 0.11925(14)
N3 N 0.6011(8) 0.2077(9) 0.2309(2)
C1 C 0.1415(5) 0.3965(6) 0.09777(17)
C2 C 0.1884(5) 0.4503(6) 0.14583(17)
H1 H 0.13200 0.47760 0.17290
C3 C 0.3166(5) 0.4631(6) 0.15346(15)
H2 H 0.34720 0.49890 0.18600
C4 C 0.4046(5) 0.4235(6) 0.11345(15)
C5 C 0.3517(6) 0.3690(6) 0.06504(15)
H3 H 0.40620 0.34000 0.03750
C6 C 0.2233(6) 0.3581(6) 0.05799(16)
H4 H 0.19070 0.32400 0.02560
C7 C 0.6232(6) 0.3781(10) 0.0791(2)
H5 H 0.57580 0.34980 0.04790
H6 H 0.66770 0.27220 0.09100
H7 H 0.68420 0.47190 0.07160
C8 C 0.5916(6) 0.4883(8) 0.1697(2)
H8 H 0.54030 0.58240 0.18580
H9 H 0.67750 0.53540 0.16440
C9 C 0.5971(7) 0.3307(10) 0.2046(2)
#END
