
#######################################################################
#
#                 Cambridge Crystallographic Data Centre
#                                CCDC
#
#######################################################################
#
# If this CIF has been generated from an entry in the Cambridge
# Structural Database, then it will include bibliographic, chemical,
# crystal, experimental, refinement or atomic coordinate data resulting
# from the CCDC's data processing and validation procedures.
#
#######################################################################

data_CSD_CIF_PEGZUZ
_audit_creation_date 2017-10-25
_audit_creation_method CSD-ConQuest-V1
_database_code_CSD PEGZUZ
_database_code_depnum_ccdc_archive 'CCDC 1451911'
_chemical_formula_sum 'C29 H24 N4 O5'
_chemical_formula_moiety
;
C29 H24 N4 O5
;
_journal_coden_Cambridge 1336
_journal_volume 18
_journal_year 2016
_journal_page_first 2974
_journal_name_full 'Org.Lett. '
loop_
_publ_author_name
"D.Chandrasekhar"
"S.Borra"
"J.B.Nanubolu"
"R.A.Maurya"
_chemical_name_systematic
;
methyl 
(1S,1aR,2R,10bR)-1a-benzoyl-1-(4-nitrophenyl)-1a,2,4,5,10,10b-hexahydro-1H-azi
reno[1'',2'':3',4']imidazo[1',2':1,2]pyrido[3,4-b]indole-2-carboxylate
;
_cell_volume   2531.511
_exptl_crystal_colour 'colorless'
_exptl_crystal_density_diffrn 1.334
_exptl_crystal_description 'block'
_diffrn_ambient_temperature 293
#These two values have been output from a single CSD field.
_refine_ls_R_factor_gt 0.0648
_refine_ls_wR_factor_gt 0.0648
_symmetry_cell_setting monoclinic
_symmetry_space_group_name_H-M 'P 21/n'
_symmetry_Int_Tables_number 14
loop_
_symmetry_equiv_pos_site_id
_symmetry_equiv_pos_as_xyz
1 x,y,z
2 1/2-x,1/2+y,1/2-z
3 -x,-y,-z
4 -1/2+x,-1/2-y,-1/2+z
_cell_length_a 10.9086(6)
_cell_length_b 12.1724(7)
_cell_length_c 19.3163(11)
_cell_angle_alpha 90
_cell_angle_beta 99.254(1)
_cell_angle_gamma 90
_cell_formula_units_Z 4
loop_
_atom_type_symbol
_atom_type_radius_bond
C 0.68
H 0.23
N 0.68
O 0.68
loop_
_atom_site_label
_atom_site_type_symbol
_atom_site_fract_x
_atom_site_fract_y
_atom_site_fract_z
C1 C 0.7152(2) 0.0531(2) 0.02415(12)
C2 C 0.8182(2) 0.0128(3) -0.00145(15)
H1 H 0.86840 -0.04120 0.02250
C3 C 0.8433(3) 0.0556(4) -0.06354(18)
H2 H 0.91170 0.03000 -0.08190
C4 C 0.7684(3) 0.1367(3) -0.09953(16)
H3 H 0.78780 0.16400 -0.14140
C5 C 0.6664(3) 0.1773(3) -0.07455(13)
H4 H 0.61720 0.23150 -0.09900
C6 C 0.6384(2) 0.1351(2) -0.01143(11)
C7 C 0.54513(19) 0.15885(18) 0.03079(10)
C8 C 0.56990(19) 0.09417(17) 0.08852(10)
C9 C 0.50589(18) 0.10169(16) 0.15087(10)
H5 H 0.45650 0.03530 0.15470
C10 C 0.35755(19) 0.22053(19) 0.07646(11)
H6 H 0.30540 0.28460 0.07830
H7 H 0.30340 0.15850 0.06250
C11 C 0.4396(2) 0.2394(2) 0.02046(11)
H8 H 0.39100 0.22990 -0.02580
H9 H 0.47190 0.31380 0.02390
C12 C 0.50391(17) 0.28986(16) 0.17756(10)
H10 H 0.54630 0.32400 0.14200
C13 C 0.42969(19) 0.37536(17) 0.21027(10)
C14 C 0.4318(3) 0.5604(2) 0.24554(18)
H11 H 0.34950 0.57250 0.22050
H12 H 0.48060 0.62570 0.24380
H13 H 0.42740 0.54280 0.29350
C15 C 0.59804(17) 0.23204(16) 0.23282(10)
C16 C 0.54537(18) 0.14816(16) 0.27627(10)
H14 H 0.45450 0.14550 0.27060
C17 C 0.71471(17) 0.29480(16) 0.26265(10)
C18 C 0.82290(17) 0.29756(16) 0.22529(11)
C19 C 0.81707(19) 0.2618(2) 0.15661(11)
H15 H 0.74410 0.23100 0.13300
C20 C 0.9192(2) 0.2718(2) 0.12337(13)
H16 H 0.91490 0.24840 0.07720
C21 C 1.0276(2) 0.3163(2) 0.15850(15)
H17 H 1.09650 0.32270 0.13590
C22 C 1.0349(2) 0.3513(2) 0.22652(14)
H18 H 1.10860 0.38100 0.25000
C23 C 0.93335(18) 0.34264(17) 0.25990(12)
H19 H 0.93830 0.36700 0.30590
C24 C 0.61233(18) 0.11035(16) 0.34526(10)
C25 C 0.7299(2) 0.06461(19) 0.35210(11)
H20 H 0.76980 0.05970 0.31310
C26 C 0.7884(2) 0.02622(19) 0.41616(11)
H21 H 0.86750 -0.00420 0.42080
C27 C 0.7276(2) 0.03384(17) 0.47287(10)
C28 C 0.6123(2) 0.0812(2) 0.46809(11)
H22 H 0.57350 0.08710 0.50740
C29 C 0.5553(2) 0.1198(2) 0.40393(11)
H23 H 0.47750 0.15260 0.40000
H24 H 0.704(2) -0.018(2) 0.1168(14)
N1 N 0.67075(18) 0.02807(17) 0.08467(10)
N2 N 0.42622(15) 0.19961(14) 0.14700(8)
N3 N 0.60016(15) 0.11465(13) 0.21415(8)
N4 N 0.7864(2) -0.01109(17) 0.54047(10)
O1 O 0.33531(16) 0.35923(15) 0.23162(10)
O2 O 0.48896(16) 0.47016(13) 0.21366(9)
O3 O 0.71317(14) 0.34500(14) 0.31678(8)
O4 O 0.8929(2) -0.0437(2) 0.54622(10)
O5 O 0.7274(2) -0.0127(2) 0.58845(10)
#END
