
#######################################################################
#
#                 Cambridge Crystallographic Data Centre
#                                CCDC
#
#######################################################################
#
# If this CIF has been generated from an entry in the Cambridge
# Structural Database, then it will include bibliographic, chemical,
# crystal, experimental, refinement or atomic coordinate data resulting
# from the CCDC's data processing and validation procedures.
#
#######################################################################

data_CSD_CIF_PEHQEB
_audit_creation_date 2017-10-25
_audit_creation_method CSD-ConQuest-V1
_database_code_CSD PEHQEB
_database_code_depnum_ccdc_archive 'CCDC 1471819'
_chemical_formula_sum 'C19 H22 N2 O4'
_chemical_formula_moiety
;
C19 H22 N2 O4
;
_journal_coden_Cambridge 1291
_journal_year 2017
_journal_page_first 3461
_journal_name_full 'Eur.J.Org.Chem. '
loop_
_publ_author_name
"P.Ramaraju"
"N.A.Mir"
"Deepika Singh"
"P.Sharma"
"R.Kant"
"I.Kumar"
_chemical_name_systematic
;
(1-(4-methoxyphenyl)-2-(4-nitrophenyl)piperidin-3-yl)methanol
;
_cell_volume   1792.071
_exptl_crystal_colour 'brown'
_exptl_crystal_density_diffrn 1.269
_exptl_crystal_description 'block'
_diffrn_ambient_temperature 293
#These two values have been output from a single CSD field.
_refine_ls_R_factor_gt 0.0625
_refine_ls_wR_factor_gt 0.0625
_symmetry_cell_setting orthorhombic
_symmetry_space_group_name_H-M 'P 21 21 21'
_symmetry_Int_Tables_number 19
loop_
_symmetry_equiv_pos_site_id
_symmetry_equiv_pos_as_xyz
1 x,y,z
2 1/2-x,-y,1/2+z
3 -x,1/2+y,1/2-z
4 1/2+x,1/2-y,-z
_cell_length_a 10.3757(10)
_cell_length_b 12.0232(8)
_cell_length_c 14.3654(11)
_cell_angle_alpha 90
_cell_angle_beta 90
_cell_angle_gamma 90
_cell_formula_units_Z 4
loop_
_atom_type_symbol
_atom_type_radius_bond
C 0.68
H 0.23
N 0.68
O 0.68
loop_
_atom_site_label
_atom_site_type_symbol
_atom_site_fract_x
_atom_site_fract_y
_atom_site_fract_z
O1 O 0.7993(3) 0.8385(2) -0.01111(17)
O2 O 1.4178(3) 0.4601(3) 0.1779(3)
O3 O 1.5545(4) 0.5898(3) 0.1534(3)
O4 O 1.3446(4) 0.8731(3) 0.5798(2)
H1 H 1.42150 0.88790 0.58390
N1 N 0.9855(3) 0.8464(3) 0.3554(2)
N2 N 1.4521(4) 0.5564(3) 0.1842(3)
C1 C 0.9057(5) 0.9270(4) 0.4069(3)
H2 H 0.81540 0.91020 0.39680
H3 H 0.92220 1.00120 0.38340
C2 C 0.9340(6) 0.9238(4) 0.5095(3)
H4 H 0.90890 0.85200 0.53450
H5 H 0.88370 0.98050 0.54090
C3 C 1.0763(6) 0.9432(4) 0.5286(3)
H6 H 1.09310 0.93290 0.59440
H7 H 1.09810 1.01940 0.51270
C4 C 1.1619(5) 0.8639(3) 0.4725(2)
H8 H 1.14570 0.78800 0.49450
C5 C 1.1246(4) 0.8696(3) 0.3682(2)
H9 H 1.14320 0.94450 0.34500
C6 C 1.2046(4) 0.7869(3) 0.3140(2)
C7 C 1.3132(4) 0.8224(3) 0.2654(3)
H10 H 1.33050 0.89810 0.26120
C8 C 1.3949(4) 0.7482(3) 0.2237(3)
H11 H 1.46820 0.77250 0.19240
C9 C 1.3659(4) 0.6374(3) 0.2292(3)
C10 C 1.2582(4) 0.5986(3) 0.2743(3)
H12 H 1.23940 0.52300 0.27550
C11 C 1.1793(4) 0.6739(3) 0.3176(2)
H13 H 1.10740 0.64870 0.34990
C12 C 0.9437(4) 0.8425(3) 0.2590(2)
C13 C 0.9952(4) 0.9087(3) 0.1887(3)
H14 H 1.06350 0.95620 0.20220
C14 C 0.9468(4) 0.9053(3) 0.0994(2)
H15 H 0.98260 0.94990 0.05320
C15 C 0.8444(4) 0.8350(3) 0.0783(2)
C16 C 0.7937(5) 0.7688(4) 0.1474(3)
H16 H 0.72550 0.72120 0.13410
C17 C 0.8436(4) 0.7731(4) 0.2355(3)
H17 H 0.80850 0.72740 0.28110
C18 C 1.3032(5) 0.8894(4) 0.4871(3)
H18 H 1.35390 0.84230 0.44630
H19 H 1.31930 0.96610 0.46960
C19 C 0.6913(4) 0.7724(4) -0.0326(3)
H20 H 0.71190 0.69550 -0.02260
H21 H 0.66780 0.78350 -0.09660
H22 H 0.62040 0.79320 0.00670
#END
