
#######################################################################
#
#                 Cambridge Crystallographic Data Centre
#                                CCDC
#
#######################################################################
#
# If this CIF has been generated from an entry in the Cambridge
# Structural Database, then it will include bibliographic, chemical,
# crystal, experimental, refinement or atomic coordinate data resulting
# from the CCDC's data processing and validation procedures.
#
#######################################################################

data_CSD_CIF_PEHVAZ
_audit_creation_date 1994-01-24
_audit_creation_method CSD-ConQuest-V1
_database_code_CSD PEHVAZ
_database_code_depnum_ccdc_archive 'CCDC 1230347'
_database_code_depnum_ccdc_fiz 'CSD 57021'
_chemical_formula_sum 'C18 H10 N6 O6'
_chemical_formula_moiety
;
C18 H10 N6 O6
;
_journal_coden_Cambridge 167
_journal_year 1993
_journal_page_first 441
_journal_name_full 'Liebigs Ann. '
loop_
_publ_author_name
"A.M.Gasco"
"A.D.Stilo"
"R.Fruttero"
"G.Sorba"
"A.Gasco"
"P.Sabatino"
_chemical_name_systematic
;
3,4-bis(4-Phenyl-3-furoxanyl)furoxan
;
_chemical_melting_point 446.15
_cell_volume   1775.302
_exptl_crystal_colour 'white'
_exptl_crystal_density_diffrn 1.52
_exptl_special_details
;
Melting point range 446.15-447.15K

;
_diffrn_ambient_temperature ?
_diffrn_special_details
;
The study was carried out at room temperature,in the range 283-303K

;
#These two values have been output from a single CSD field.
_refine_ls_R_factor_gt 0.075
_refine_ls_wR_factor_gt 0.075
_symmetry_cell_setting monoclinic
_symmetry_space_group_name_H-M 'P 21/c'
_symmetry_Int_Tables_number 14
loop_
_symmetry_equiv_pos_site_id
_symmetry_equiv_pos_as_xyz
1 x,y,z
2 -x,1/2+y,1/2-z
3 -x,-y,-z
4 x,-1/2-y,-1/2+z
_cell_length_a 12.783(9)
_cell_length_b 7.658(6)
_cell_length_c 18.458(9)
_cell_angle_alpha 90
_cell_angle_beta 100.73(5)
_cell_angle_gamma 90
_cell_formula_units_Z 4
loop_
_atom_type_symbol
_atom_type_radius_bond
C 0.68
H 0.23
N 0.68
O 0.68
loop_
_atom_site_label
_atom_site_type_symbol
_atom_site_fract_x
_atom_site_fract_y
_atom_site_fract_z
O1 O 0.7340(4) 0.1333(8) 0.7807(3)
O2 O 1.0654(4) -0.1691(8) 0.6614(3)
O3 O 0.7135(5) -0.1350(8) 0.4330(3)
O4 O 0.8581(5) -0.0771(8) 0.8157(3)
O5 O 1.0654(5) -0.0019(10) 0.7628(3)
O6 O 0.8950(5) -0.115(1) 0.4421(3)
N1 N 0.7028(5) 0.2339(9) 0.7180(3)
N2 N 0.8191(5) 0.0273(8) 0.7676(3)
N3 N 0.9931(5) -0.2143(9) 0.5988(3)
N4 N 1.0125(5) -0.0576(9) 0.7046(4)
N5 N 0.6452(5) -0.1557(9) 0.4811(3)
N6 N 0.8193(5) -0.1307(10) 0.4757(3)
C1 C 0.7643(5) 0.1922(9) 0.6710(3)
C2 C 0.8373(5) 0.0627(9) 0.7011(3)
C3 C 0.9042(5) -0.1326(9) 0.6037(3)
C4 C 0.9138(5) -0.0353(9) 0.6691(3)
C5 C 0.7010(5) -0.1672(10) 0.5482(3)
C6 C 0.8105(5) -0.1479(9) 0.5457(3)
C7 C 0.7511(3) 0.2739(7) 0.5991(2)
C8 C 0.8395(3) 0.3126(7) 0.5681(3)
C9 C 0.8263(4) 0.3920(8) 0.4992(3)
C10 C 0.7248(4) 0.4327(8) 0.4614(2)
C11 C 0.6364(3) 0.3940(8) 0.4924(3)
C12 C 0.6496(3) 0.3146(8) 0.5612(3)
C13 C 0.6508(3) -0.1967(6) 0.6115(2)
C14 C 0.5518(3) -0.1248(6) 0.6145(2)
C15 C 0.5056(3) -0.1527(8) 0.6759(3)
C16 C 0.5582(4) -0.2525(8) 0.7344(2)
C17 C 0.6572(4) -0.3244(7) 0.7314(2)
C18 C 0.7034(3) -0.2965(7) 0.6700(2)
H1 H 0.9100(3) 0.2843(11) 0.5943(4)
H2 H 0.8877(4) 0.4188(12) 0.4777(4)
H3 H 0.7157(6) 0.4878(12) 0.4136(3)
H4 H 0.5659(4) 0.4223(12) 0.4661(4)
H5 H 0.5882(3) 0.2878(11) 0.5827(4)
H6 H 0.5152(5) -0.0556(9) 0.5738(3)
H7 H 0.4369(4) -0.1028(11) 0.6780(4)
H8 H 0.5261(5) -0.2719(11) 0.7771(3)
H9 H 0.6938(5) -0.3936(10) 0.7720(3)
H10 H 0.7721(4) -0.3464(9) 0.6679(3)
#END
