
#######################################################################
#
#                 Cambridge Crystallographic Data Centre
#                                CCDC
#
#######################################################################
#
# If this CIF has been generated from an entry in the Cambridge
# Structural Database, then it will include bibliographic, chemical,
# crystal, experimental, refinement or atomic coordinate data resulting
# from the CCDC's data processing and validation procedures.
#
#######################################################################

data_CSD_CIF_PEHVED
_audit_creation_date 1994-02-10
_audit_creation_method CSD-ConQuest-V1
_database_code_CSD PEHVED
_chemical_formula_sum 'C16 H20 N2 O1'
_chemical_formula_moiety
;
C16 H20 N2 O1
;
_journal_coden_Cambridge 154
_journal_volume 46
_journal_year 1993
_journal_page_first 603
_journal_name_full 'Aust.J.Chem. '
loop_
_publ_author_name
"D.St.C.Black"
"D.C.Craig"
"R.B.Deb-Das"
"N.Kumar"
_chemical_name_systematic
;
1,3,3,10-Tetramethyl-1,3a,4,10b-tetrahydro-3H-isoxazolo(3',4':3,4)pyrrolo(1,2-
a)indole
;
_chemical_melting_point 371.15
_cell_volume   1428.160
_exptl_crystal_colour 'colorless'
_exptl_crystal_density_diffrn 1.19
_exptl_special_details
;
Melting point range 371.15-373.15K

;
_diffrn_ambient_temperature ?
_diffrn_special_details
;
The study was carried out at room temperature,in the range 283-303K

;
#These two values have been output from a single CSD field.
_refine_ls_R_factor_gt 0.046
_refine_ls_wR_factor_gt 0.046
_symmetry_cell_setting monoclinic
_symmetry_space_group_name_H-M 'P 21/c'
_symmetry_Int_Tables_number 14
loop_
_symmetry_equiv_pos_site_id
_symmetry_equiv_pos_as_xyz
1 x,y,z
2 -x,1/2+y,1/2-z
3 -x,-y,-z
4 x,-1/2-y,-1/2+z
_cell_length_a 13.1462(7)
_cell_length_b 7.4167(3)
_cell_length_c 17.6274(9)
_cell_angle_alpha 90
_cell_angle_beta 123.803(2)
_cell_angle_gamma 90
_cell_formula_units_Z 4
loop_
_atom_type_symbol
_atom_type_radius_bond
C 0.68
H 0.23
N 0.68
O 0.68
loop_
_atom_site_label
_atom_site_type_symbol
_atom_site_fract_x
_atom_site_fract_y
_atom_site_fract_z
O1 O 0.1250(1) 0.6568(1) 0.2069(1)
N1 N 0.4918(1) 0.6538(2) 0.4079(1)
N2 N 0.2345(1) 0.5830(2) 0.2151(1)
C1 C 0.4371(1) 0.5049(2) 0.3529(1)
C2 C 0.5226(1) 0.3980(2) 0.3546(1)
C3 C 0.6379(1) 0.4872(2) 0.4146(1)
C4 C 0.7594(2) 0.4465(3) 0.4451(1)
C5 C 0.8513(2) 0.5615(3) 0.5063(1)
C6 C 0.8268(2) 0.7170(3) 0.5381(1)
C7 C 0.7085(2) 0.7624(3) 0.5088(1)
C8 C 0.6159(1) 0.6464(2) 0.4477(1)
C9 C 0.3022(1) 0.5153(2) 0.3100(1)
C10 C 0.1756(1) 0.7782(2) 0.2835(1)
C11 C 0.2867(1) 0.6719(2) 0.3612(1)
C12 C 0.4116(1) 0.7683(2) 0.4189(1)
C13 C 0.5048(2) 0.2241(3) 0.3058(1)
C14 C 0.1881(2) 0.4411(3) 0.1468(1)
C15 C 0.2058(2) 0.9562(2) 0.2572(1)
C16 C 0.0763(2) 0.8048(3) 0.3020(1)
H1 H 0.77720 0.33600 0.42170
H2 H 0.93820 0.53260 0.52990
H3 H 0.89600 0.80060 0.58220
H4 H 0.68940 0.87240 0.53090
H5 H 0.26780 0.40000 0.31580
H6 H 0.26460 0.62080 0.40270
H7 H 0.44080 0.77680 0.48450
H8 H 0.40870 0.89250 0.39490
H9 H 0.55750 0.11990 0.34550
H10 H 0.52160 0.24080 0.26150
H11 H 0.42160 0.17030 0.27180
H12 H 0.25710 0.37830 0.14820
H13 H 0.14240 0.35080 0.15460
H14 H 0.12660 0.52420 0.07670
H15 H 0.27150 0.93560 0.24580
H16 H 0.13130 1.00490 0.20100
H17 H 0.23590 1.04430 0.30850
H18 H 0.05710 0.68570 0.31860
H19 H 0.10490 0.89140 0.35300
H20 H 0.00020 0.85200 0.24560
#END
