
#######################################################################
#
#                 Cambridge Crystallographic Data Centre
#                                CCDC
#
#######################################################################
#
# If this CIF has been generated from an entry in the Cambridge
# Structural Database, then it will include bibliographic, chemical,
# crystal, experimental, refinement or atomic coordinate data resulting
# from the CCDC's data processing and validation procedures.
#
#######################################################################

data_CSD_CIF_PEHXEG
_audit_creation_date 2006-10-06
_audit_creation_method CSD-ConQuest-V1
_database_code_CSD PEHXEG
_database_code_depnum_ccdc_archive 'CCDC 282875'
_chemical_formula_sum 'C11 H11 N3 O1'
_chemical_formula_moiety
;
C11 H11 N3 O1
;
_journal_coden_Cambridge 151
_journal_volume 48
_journal_year 2005
_journal_page_first 4231
_journal_name_full 'J.Med.Chem. '
loop_
_publ_author_name
"L.Oresmaa"
"H.Kotikoski"
"M.Haukka"
"J.Salminen"
"O.Oksala"
"E.Pohjala"
"E.Moilanen"
"H.Vapaatalo"
"P.Vainiotalo"
"P.Aulaskari"
_chemical_name_systematic
;
1-Benzylimidazole-5-carbaldehyde oxime
;
_cell_volume   1022.557
_exptl_crystal_colour 'colorless'
_exptl_crystal_density_diffrn 1.307
_exptl_crystal_description 'block'
_diffrn_ambient_temperature 150
#These two values have been output from a single CSD field.
_refine_ls_R_factor_gt 0.0327
_refine_ls_wR_factor_gt 0.0327
_symmetry_cell_setting orthorhombic
_symmetry_space_group_name_H-M 'P 21 21 21'
_symmetry_Int_Tables_number 19
loop_
_symmetry_equiv_pos_site_id
_symmetry_equiv_pos_as_xyz
1 x,y,z
2 1/2-x,-y,1/2+z
3 -x,1/2+y,1/2-z
4 1/2+x,1/2-y,-z
_cell_length_a 4.9800(1)
_cell_length_b 6.4126(1)
_cell_length_c 32.0202(8)
_cell_angle_alpha 90
_cell_angle_beta 90
_cell_angle_gamma 90
_cell_formula_units_Z 4
loop_
_atom_type_symbol
_atom_type_radius_bond
C 0.68
H 0.23
N 0.68
O 0.68
loop_
_atom_site_label
_atom_site_type_symbol
_atom_site_fract_x
_atom_site_fract_y
_atom_site_fract_z
C1 C 0.1926(3) 0.1206(2) 0.20125(4)
H1 H 0.09700 0.17080 0.22490
C2 C 0.4028(3) 0.2486(2) 0.18402(4)
C3 C 0.4846(3) 0.4417(2) 0.19706(5)
H2 H 0.40500 0.51770 0.21930
C4 C 0.7422(3) 0.3600(2) 0.14650(5)
H3 H 0.88010 0.36470 0.12600
C5 C 0.5805(3) 0.0040(2) 0.12697(5)
H4 H 0.56090 -0.11490 0.14640
H5 H 0.75920 -0.00760 0.11360
C6 C 0.3677(3) -0.0128(2) 0.09368(4)
C7 C 0.3004(3) 0.1532(3) 0.06817(5)
H6 H 0.38460 0.28460 0.07220
C8 C 0.1113(4) 0.1297(3) 0.03673(5)
H7 H 0.06520 0.24520 0.01960
C9 C -0.0101(4) -0.0609(3) 0.03027(5)
H8 H -0.13700 -0.07730 0.00840
C10 C 0.0530(4) -0.2274(3) 0.05563(5)
H9 H -0.03210 -0.35830 0.05150
C11 C 0.2414(3) -0.2035(2) 0.08735(5)
H10 H 0.28410 -0.31850 0.10480
N1 N 0.1289(2) -0.05655(18) 0.18633(4)
N2 N 0.6974(2) 0.5105(2) 0.17356(4)
N3 N 0.5711(2) 0.19816(17) 0.15101(3)
O1 O -0.0816(2) -0.14516(17) 0.20945(3)
H11 H -0.12750 -0.26520 0.19420
#END
