
#######################################################################
#
#                 Cambridge Crystallographic Data Centre
#                                CCDC
#
#######################################################################
#
# If this CIF has been generated from an entry in the Cambridge
# Structural Database, then it will include bibliographic, chemical,
# crystal, experimental, refinement or atomic coordinate data resulting
# from the CCDC's data processing and validation procedures.
#
#######################################################################

data_CSD_CIF_PEHZOR
_audit_creation_date 1994-02-10
_audit_creation_method CSD-ConQuest-V1
_database_code_CSD PEHZOR
_database_code_depnum_ccdc_fiz 'CSD 56528'
_chemical_formula_sum 'C14 H17 N1 O4'
_chemical_formula_moiety
;
C14 H17 N1 O4
;
_journal_coden_Cambridge 692
_journal_year 1992
_journal_page_first 1242
_journal_name_full 'Synthesis '
loop_
_publ_author_name
"D.Enders"
"O.Meyer"
"G.Raabe"
_chemical_name_systematic
;
(2R,4S,5R)-5-(4-Methoxyphenyl)-2-methyl-4-nitrocyclohexanone
;
_chemical_melting_point 391.15
_cell_volume   1403.329
_exptl_crystal_colour 'colorless'
_exptl_crystal_density_diffrn 1.246
_diffrn_ambient_temperature ?
_diffrn_special_details
;
The study was carried out at room temperature,in the range 283-303K

;
#These two values have been output from a single CSD field.
_refine_ls_R_factor_gt 0.049
_refine_ls_wR_factor_gt 0.049
_symmetry_cell_setting orthorhombic
_symmetry_space_group_name_H-M 'P 21 21 21'
_symmetry_Int_Tables_number 19
loop_
_symmetry_equiv_pos_site_id
_symmetry_equiv_pos_as_xyz
1 x,y,z
2 1/2+x,1/2-y,-z
3 -x,1/2+y,1/2-z
4 1/2-x,-y,1/2+z
_cell_length_a 7.7911(9)
_cell_length_b 10.272(1)
_cell_length_c 17.535(2)
_cell_angle_alpha 90
_cell_angle_beta 90
_cell_angle_gamma 90
_cell_formula_units_Z 4
loop_
_atom_type_symbol
_atom_type_radius_bond
C 0.68
H 0.23
N 0.68
O 0.68
loop_
_atom_site_label
_atom_site_type_symbol
_atom_site_fract_x
_atom_site_fract_y
_atom_site_fract_z
O1 O 0.5004(3) -0.2005(2) 0.9585(1)
O2 O -0.0392(3) 0.2357(2) 1.0599(1)
O3 O -0.1018(3) 0.0422(3) 1.0920(2)
O4 O -0.3179(3) 0.2606(2) 0.7498(1)
N1 N -0.0096(3) 0.1214(2) 1.0625(1)
C1 C 0.4165(3) -0.1071(2) 0.9770(1)
C2 C 0.4338(3) -0.0435(2) 1.0541(1)
C3 C 0.2554(3) -0.0076(2) 1.0859(1)
C4 C 0.1587(3) 0.0744(2) 1.0279(1)
C5 C 0.1197(3) -0.0053(2) 0.9567(1)
C6 C 0.2948(3) -0.0434(2) 0.9211(1)
C7 C 0.5349(4) -0.1257(3) 1.1106(2)
C8 C 0.0057(3) 0.0637(2) 0.9001(1)
C9 C 0.0535(3) 0.1770(3) 0.8625(1)
C10 C -0.0553(4) 0.2407(3) 0.8129(1)
C11 C -0.2183(3) 0.1892(3) 0.7986(1)
C12 C -0.2669(3) 0.0754(3) 0.8334(1)
C13 C -0.1579(4) 0.0139(2) 0.8839(2)
C14 C -0.4849(4) 0.2131(4) 0.7330(2)
H1 H 0.49120 0.04490 1.04430
H2 H -0.18890 -0.06750 0.91030
H3 H 0.19250 -0.09240 1.09750
H4 H 0.26750 0.04380 1.13170
H5 H 0.21300 0.15120 1.01010
H6 H 0.06670 -0.09540 0.97290
H7 H 0.35480 0.04050 0.90310
H8 H 0.27870 -0.10770 0.87410
H9 H 0.53050 -0.08750 1.16370
H10 H 0.47880 -0.21530 1.12060
H11 H 0.65830 -0.13730 1.08650
H12 H 0.15210 0.21660 0.87560
H13 H -0.01750 0.31890 0.78360
H14 H -0.37620 0.03460 0.82130
H15 H -0.52710 0.27180 0.69630
H16 H -0.56270 0.20820 0.77840
H17 H -0.47900 0.12380 0.70800
#END
