
#######################################################################
#
#                 Cambridge Crystallographic Data Centre
#                                CCDC
#
#######################################################################
#
# If this CIF has been generated from an entry in the Cambridge
# Structural Database, then it will include bibliographic, chemical,
# crystal, experimental, refinement or atomic coordinate data resulting
# from the CCDC's data processing and validation procedures.
#
#######################################################################

data_CSD_CIF_PEJKEX
_audit_creation_date 2017-10-25
_audit_creation_method CSD-ConQuest-V1
_database_code_CSD PEJKEX
_database_code_depnum_ccdc_archive 'CCDC 1570353'
_chemical_formula_sum 'C9 H9 N1 O3'
_chemical_formula_moiety
;
C9 H9 N1 O3
;
_journal_coden_Cambridge 16
_journal_volume 73
_journal_year 2017
_journal_page_first 7054
_journal_name_full 'Tetrahedron '
loop_
_publ_author_name
"K.Ogawa"
"S.Nakamura"
"Y.Asada"
"M.Yamashita"
"H.Matsuda"
_chemical_name_systematic
;
7-methoxy-1-methyl-2,1-benzoxazol-3(1H)-one
;
_cell_volume    420.348
_exptl_crystal_density_diffrn 1.416
_diffrn_ambient_temperature 296
#These two values have been output from a single CSD field.
_refine_ls_R_factor_gt 0.0569
_refine_ls_wR_factor_gt 0.0569
_symmetry_cell_setting triclinic
_symmetry_space_group_name_H-M 'P -1'
_symmetry_Int_Tables_number 2
loop_
_symmetry_equiv_pos_site_id
_symmetry_equiv_pos_as_xyz
1 x,y,z
2 -x,-y,-z
_cell_length_a 7.385(2)
_cell_length_b 7.804(2)
_cell_length_c 8.662(3)
_cell_angle_alpha 65.742(6)
_cell_angle_beta 75.256(7)
_cell_angle_gamma 68.529(7)
_cell_formula_units_Z 2
loop_
_atom_type_symbol
_atom_type_radius_bond
C 0.68
H 0.23
N 0.68
O 0.68
loop_
_atom_site_label
_atom_site_type_symbol
_atom_site_fract_x
_atom_site_fract_y
_atom_site_fract_z
O1 O 0.1742(3) 0.7824(3) 0.4921(2)
O2 O 0.1945(3) 0.6853(3) 0.0385(2)
O3 O 0.2714(4) 0.3846(3) 0.0255(3)
N1 N 0.1640(4) 0.7691(3) 0.1691(3)
C1 C 0.2212(4) 0.6039(4) 0.4772(3)
C2 C 0.2669(4) 0.4223(4) 0.6067(3)
H1 H 0.267(4) 0.415(4) 0.726(4)
C3 C 0.3081(5) 0.2478(4) 0.5777(4)
H2 H 0.336(5) 0.127(5) 0.669(4)
C4 C 0.3069(4) 0.2489(4) 0.4187(3)
H3 H 0.335(5) 0.115(5) 0.405(4)
C5 C 0.2635(4) 0.4314(4) 0.2884(3)
C6 C 0.2200(4) 0.6054(4) 0.3150(3)
C7 C 0.2475(5) 0.4830(4) 0.1110(4)
C8 C 0.2674(7) 0.9180(5) 0.0986(4)
H4 H 0.198(5) 1.022(5) 0.008(5)
H5 H 0.255(5) 0.969(5) 0.188(4)
H6 H 0.407(7) 0.858(6) 0.063(5)
C9 C 0.1666(5) 0.7815(4) 0.6599(3)
H7 H 0.13230 0.91430 0.65570
H8 H 0.06990 0.72090 0.73640
H9 H 0.29260 0.70870 0.69960
#END
