
#######################################################################
#
#                 Cambridge Crystallographic Data Centre
#                                CCDC
#
#######################################################################
#
# If this CIF has been generated from an entry in the Cambridge
# Structural Database, then it will include bibliographic, chemical,
# crystal, experimental, refinement or atomic coordinate data resulting
# from the CCDC's data processing and validation procedures.
#
#######################################################################

data_CSD_CIF_PEKHUI
_audit_creation_date 1994-02-02
_audit_creation_method CSD-ConQuest-V1
_database_code_CSD PEKHUI
_chemical_formula_sum 'C42 H30 N2 O2'
_chemical_formula_moiety
;
C42 H30 N2 O2
;
_journal_coden_Cambridge 16
_journal_volume 49
_journal_year 1993
_journal_page_first 5099
_journal_name_full 'Tetrahedron '
loop_
_publ_author_name
"P.Carloni"
"E.Damiani"
"L.Greci"
"P.Stipa"
"C.Rizzoli"
"P.Sgarabotto"
"F.Ugozzoli"
_chemical_name_systematic
;
6,6-bis-(1-Oxide-1,2,6,8a-tetrahydro-2,2-diphenyl-quinolino)ylidene
;
_cell_volume   3071.360
_exptl_crystal_colour 'dark violet'
_exptl_crystal_density_diffrn 1.29
_diffrn_ambient_temperature ?
_diffrn_special_details
;
The study was carried out at room temperature,in the range 283-303K

;
#These two values have been output from a single CSD field.
_refine_ls_R_factor_gt 0.034
_refine_ls_wR_factor_gt 0.034
_symmetry_cell_setting monoclinic
_symmetry_space_group_name_H-M 'C 2/c'
_symmetry_Int_Tables_number 15
loop_
_symmetry_equiv_pos_site_id
_symmetry_equiv_pos_as_xyz
1 x,y,z
2 1/2+x,1/2+y,z
3 -x,y,1/2-z
4 1/2-x,1/2+y,1/2-z
5 -x,-y,-z
6 -1/2-x,-1/2-y,-z
7 x,-y,-1/2+z
8 -1/2+x,-1/2-y,-1/2+z
_cell_length_a 20.547(4)
_cell_length_b 14.381(3)
_cell_length_c 11.097(2)
_cell_angle_alpha 90
_cell_angle_beta 110.5(1)
_cell_angle_gamma 90
_cell_formula_units_Z 4
loop_
_atom_type_symbol
_atom_type_radius_bond
C 0.68
H 0.23
N 0.68
O 0.68
loop_
_atom_site_label
_atom_site_type_symbol
_atom_site_fract_x
_atom_site_fract_y
_atom_site_fract_z
O1 O 0.2389(1) 0.5719(2) 0.1097(2)
N1 N 0.2326(1) 0.5896(2) 0.2183(3)
C1 C 0.2999(2) 0.6021(3) 0.3293(3)
C2 C 0.2853(2) 0.6244(3) 0.4499(4)
C3 C 0.2225(2) 0.6285(3) 0.4582(4)
C4 C 0.1612(2) 0.6126(2) 0.3482(3)
C5 C 0.0949(2) 0.6152(3) 0.3538(4)
C6 C 0.0346(2) 0.6018(2) 0.2462(4)
C7 C 0.0442(2) 0.5861(2) 0.1279(4)
C8 C 0.1086(2) 0.5810(3) 0.1176(4)
C9 C 0.1678(2) 0.5935(3) 0.2278(3)
C10 C 0.3378(2) 0.6860(3) 0.3007(3)
C11 C 0.3028(2) 0.7556(3) 0.2173(4)
C12 C 0.3388(3) 0.8328(4) 0.1980(5)
C13 C 0.4089(3) 0.8417(4) 0.2622(5)
C14 C 0.4436(3) 0.7731(3) 0.3463(5)
C15 C 0.4086(2) 0.6965(3) 0.3671(4)
C16 C 0.3403(2) 0.5106(3) 0.3422(3)
C17 C 0.3364(2) 0.4431(3) 0.4275(4)
C18 C 0.3714(3) 0.3596(4) 0.4387(5)
C19 C 0.4096(3) 0.3423(4) 0.3611(5)
C20 C 0.4133(2) 0.4083(4) 0.2749(5)
C21 C 0.3793(2) 0.4929(3) 0.2651(4)
H1 H 0.325(2) 0.637(2) 0.526(3)
H2 H 0.217(2) 0.641(2) 0.543(3)
H3 H 0.092(2) 0.632(2) 0.437(3)
H4 H 0.005(2) 0.579(2) 0.050(3)
H5 H 0.115(2) 0.569(2) 0.038(3)
H6 H 0.249(2) 0.753(3) 0.160(4)
H7 H 0.313(2) 0.875(3) 0.136(4)
H8 H 0.434(2) 0.896(3) 0.248(4)
H9 H 0.492(2) 0.782(3) 0.395(4)
H10 H 0.433(2) 0.643(3) 0.429(4)
H11 H 0.309(2) 0.451(2) 0.480(3)
H12 H 0.370(2) 0.318(3) 0.503(4)
H13 H 0.430(2) 0.287(3) 0.359(4)
H14 H 0.442(2) 0.402(3) 0.220(4)
H15 H 0.383(2) 0.543(3) 0.208(3)
C6B C -0.0346(2) 0.6018(2) 0.2538(4)
C5B C -0.0949(2) 0.6152(3) 0.1462(4)
C7B C -0.0442(2) 0.5861(2) 0.3721(4)
C4B C -0.1612(2) 0.6126(2) 0.1518(3)
H3B H -0.092(2) 0.632(2) 0.063(3)
C8B C -0.1086(2) 0.5810(3) 0.3824(4)
H4B H -0.005(2) 0.579(2) 0.450(3)
C3B C -0.2225(2) 0.6285(3) 0.0418(4)
C9B C -0.1678(2) 0.5935(3) 0.2722(3)
H5B H -0.115(2) 0.569(2) 0.462(3)
C2B C -0.2853(2) 0.6244(3) 0.0501(4)
H2B H -0.217(2) 0.641(2) -0.043(3)
N1B N -0.2326(1) 0.5896(2) 0.2817(3)
C1B C -0.2999(2) 0.6021(3) 0.1707(3)
H1B H -0.325(2) 0.637(2) -0.026(3)
O1B O -0.2389(1) 0.5719(2) 0.3903(2)
C10B C -0.3378(2) 0.6860(3) 0.1993(3)
C16B C -0.3403(2) 0.5106(3) 0.1578(3)
C11B C -0.3028(2) 0.7556(3) 0.2827(4)
C15B C -0.4086(2) 0.6965(3) 0.1329(4)
C17B C -0.3364(2) 0.4431(3) 0.0725(4)
C21B C -0.3793(2) 0.4929(3) 0.2349(4)
C12B C -0.3388(3) 0.8328(4) 0.3020(5)
H6B H -0.249(2) 0.753(3) 0.340(4)
C14B C -0.4436(3) 0.7731(3) 0.1537(5)
H10B H -0.433(2) 0.643(3) 0.071(4)
C18B C -0.3714(3) 0.3596(4) 0.0613(5)
H11B H -0.309(2) 0.451(2) 0.020(3)
C20B C -0.4133(2) 0.4083(4) 0.2251(5)
H15B H -0.383(2) 0.543(3) 0.292(3)
C13B C -0.4089(3) 0.8417(4) 0.2378(5)
H7B H -0.313(2) 0.875(3) 0.364(4)
H9B H -0.492(2) 0.782(3) 0.105(4)
C19B C -0.4096(3) 0.3423(4) 0.1389(5)
H12B H -0.370(2) 0.318(3) -0.003(4)
H14B H -0.442(2) 0.402(3) 0.280(4)
H8B H -0.434(2) 0.896(3) 0.252(4)
H13B H -0.430(2) 0.287(3) 0.141(4)
#END
