
#######################################################################
#
#                 Cambridge Crystallographic Data Centre
#                                CCDC
#
#######################################################################
#
# If this CIF has been generated from an entry in the Cambridge
# Structural Database, then it will include bibliographic, chemical,
# crystal, experimental, refinement or atomic coordinate data resulting
# from the CCDC's data processing and validation procedures.
#
#######################################################################

data_CSD_CIF_PELDOA
_audit_creation_date 2006-10-05
_audit_creation_method CSD-ConQuest-V1
_database_code_CSD PELDOA
_database_code_depnum_ccdc_archive 'CCDC 610396'
_chemical_formula_sum 'C13 H9 N3 O2'
_chemical_formula_moiety
;
C13 H9 N3 O2
;
_journal_coden_Cambridge 1078
_journal_year 2006
_journal_name_full 'CSD Communication(Private Communication) '
loop_
_publ_author_name
"S.Parsons"
"L.Crawford"
"H.McNab"
"A.Dawson"
"R.Johnstone"
_chemical_name_systematic
;
1-(2-nitrophenyl)-1H-indazole
;
_chemical_melting_point 424.15
_cell_volume    530.387
_exptl_crystal_colour 'colorless'
_exptl_crystal_density_diffrn 1.498
_exptl_special_details
;
contribution from School of Chemistry, The University of Edinburgh King's 
Buildings, West Mains Road, Edinburgh, Scotland EH9 3JJ
;
_exptl_crystal_description 'tablet'
_exptl_crystal_preparation 'chloroform'
_diffrn_ambient_temperature 150
#These two values have been output from a single CSD field.
_refine_ls_R_factor_gt 0.0502
_refine_ls_wR_factor_gt 0.0502
_symmetry_cell_setting monoclinic
_symmetry_space_group_name_H-M 'P 21'
_symmetry_Int_Tables_number 4
loop_
_symmetry_equiv_pos_site_id
_symmetry_equiv_pos_as_xyz
1 x,y,z
2 -x,1/2+y,-z
_cell_length_a 7.519(5)
_cell_length_b 7.223(5)
_cell_length_c 10.049(7)
_cell_angle_alpha 90
_cell_angle_beta 103.631(11)
_cell_angle_gamma 90
_cell_formula_units_Z 2
loop_
_atom_type_symbol
_atom_type_radius_bond
C 0.68
H 0.23
N 0.68
O 0.68
loop_
_atom_site_label
_atom_site_type_symbol
_atom_site_fract_x
_atom_site_fract_y
_atom_site_fract_z
N1 N 0.5561(5) 0.3452(5) 0.0700(4)
C1 C 0.6471(6) 0.3789(6) -0.1440(4)
H1 H 0.53010 0.33280 -0.18890
N2 N 0.8926(4) 0.5246(5) 0.2040(3)
C2 C 0.9439(6) 0.4910(6) -0.1501(4)
H2 H 1.03310 0.51680 -0.20060
O1 O 0.3961(5) 0.3895(6) 0.0207(3)
C3 C 0.8559(5) 0.4820(5) 0.0633(4)
C4 C 1.0244(5) 0.6117(5) 0.4146(4)
O2 O 0.6062(4) 0.2534(5) 0.1710(3)
C5 C 0.9844(6) 0.5260(6) -0.0111(4)
H3 H 1.09850 0.57940 0.03310
C6 C 0.8372(6) 0.6574(6) 0.3820(4)
H4 H 0.77620 0.71550 0.44350
N3 N 0.7573(5) 0.6096(5) 0.2556(4)
C7 C 0.6929(5) 0.4075(6) -0.0048(4)
C8 C 1.3672(6) 0.4869(6) 0.4062(4)
H5 H 1.48680 0.44520 0.40540
C9 C 1.0553(5) 0.5240(6) 0.2991(4)
C10 C 1.2265(6) 0.4555(5) 0.2934(4)
H6 H 1.24510 0.39050 0.21570
C11 C 1.1685(6) 0.6399(6) 0.5277(4)
H7 H 1.14950 0.70030 0.60720
C12 C 1.3391(6) 0.5784(6) 0.5218(4)
H8 H 1.43970 0.59840 0.59760
C13 C 0.7782(6) 0.4200(6) -0.2167(4)
H9 H 0.75260 0.39870 -0.31270
#END
