
#######################################################################
#
#                 Cambridge Crystallographic Data Centre
#                                CCDC
#
#######################################################################
#
# If this CIF has been generated from an entry in the Cambridge
# Structural Database, then it will include bibliographic, chemical,
# crystal, experimental, refinement or atomic coordinate data resulting
# from the CCDC's data processing and validation procedures.
#
#######################################################################

data_CSD_CIF_PELGET
_audit_creation_date 2006-10-06
_audit_creation_method CSD-ConQuest-V1
_database_code_CSD PELGET
_database_code_depnum_ccdc_archive 'CCDC 610404'
_chemical_formula_sum 'C7 H6 N2 O1'
_chemical_formula_moiety
;
C7 H6 N2 O1
;
_journal_coden_Cambridge 1078
_journal_year 2006
_journal_name_full 'CSD Communication(Private Communication) '
loop_
_publ_author_name
"S.Parsons"
"A.Gaywood"
"H.McNab"
"S.Parsons"
"R.Johnstone"
_chemical_name_systematic
;
3-methylisoxazolo[3,4-b]pyridine
;
_chemical_melting_point 346.15
_cell_volume    629.753
_exptl_crystal_colour 'colorless'
_exptl_crystal_density_diffrn 1.415
_exptl_special_details
;
contribution from School of Chemistry, The University of Edinburgh King's 
Buildings, West Mains Road, Edinburgh, Scotland EH9 3JJ
;
_exptl_crystal_description 'block'
_exptl_crystal_preparation 'ethanol'
_diffrn_ambient_temperature 220
#These two values have been output from a single CSD field.
_refine_ls_R_factor_gt 0.0532
_refine_ls_wR_factor_gt 0.0532
_symmetry_cell_setting monoclinic
_symmetry_space_group_name_H-M 'P 21/n'
_symmetry_Int_Tables_number 14
loop_
_symmetry_equiv_pos_site_id
_symmetry_equiv_pos_as_xyz
1 x,y,z
2 1/2-x,1/2+y,1/2-z
3 -x,-y,-z
4 -1/2+x,-1/2-y,-1/2+z
_cell_length_a 10.249(4)
_cell_length_b 8.610(3)
_cell_length_c 7.3365(19)
_cell_angle_alpha 90
_cell_angle_beta 103.409(10)
_cell_angle_gamma 90
_cell_formula_units_Z 4
loop_
_atom_type_symbol
_atom_type_radius_bond
C 0.68
H 0.23
N 0.68
O 0.68
loop_
_atom_site_label
_atom_site_type_symbol
_atom_site_fract_x
_atom_site_fract_y
_atom_site_fract_z
N1 N 0.33817(18) -0.0147(2) 0.1065(2)
O1 O 0.34219(14) 0.14735(18) 0.13011(19)
C1 C 0.4605(2) 0.1941(2) 0.2385(3)
C2 C 0.4807(2) 0.3614(3) 0.2742(3)
H1 H 0.48990 0.41300 0.16030
H2 H 0.56130 0.37770 0.37180
H3 H 0.40420 0.40400 0.31400
C3 C 0.5383(2) 0.0649(2) 0.2903(2)
C4 C 0.6678(2) 0.0335(2) 0.4026(3)
H4 H 0.72420 0.11330 0.46290
C5 C 0.7060(2) -0.1172(3) 0.4186(3)
H5 H 0.79060 -0.14450 0.49280
C6 C 0.6179(2) -0.2350(3) 0.3225(3)
H6 H 0.64990 -0.33770 0.33550
N2 N 0.49675(18) -0.2138(2) 0.2181(2)
C7 C 0.4579(2) -0.0608(2) 0.2038(2)
#END
