
#######################################################################
#
#                 Cambridge Crystallographic Data Centre
#                                CCDC
#
#######################################################################
#
# If this CIF has been generated from an entry in the Cambridge
# Structural Database, then it will include bibliographic, chemical,
# crystal, experimental, refinement or atomic coordinate data resulting
# from the CCDC's data processing and validation procedures.
#
#######################################################################

data_CSD_CIF_PELGEV
_audit_creation_date 2017-10-26
_audit_creation_method CSD-ConQuest-V1
_database_code_CSD PELGEV
_database_code_depnum_ccdc_archive 'CCDC 1500811'
_chemical_formula_sum 'C13 H14 N2 O4'
_chemical_formula_moiety
;
C13 H14 N2 O4
;
_journal_coden_Cambridge 1090
_journal_volume 28
_journal_year 2017
_journal_page_first 1717
_journal_name_full 'Tetrahedron:Asymm. '
loop_
_publ_author_name
"P.Borowiecki"
"I.Justyniak"
"Z.Ochal"
_chemical_name_systematic
;
1-(5-nitro-1H-indol-1-yl)propan-2-yl acetate
;
_cell_volume    624.575
_exptl_crystal_colour 'colorless'
_exptl_crystal_density_diffrn 1.395
_exptl_crystal_description 'block'
_diffrn_ambient_temperature 100
#These two values have been output from a single CSD field.
_refine_ls_R_factor_gt 0.0299
_refine_ls_wR_factor_gt 0.0299
_symmetry_cell_setting monoclinic
_symmetry_space_group_name_H-M 'P 21'
_symmetry_Int_Tables_number 4
loop_
_symmetry_equiv_pos_site_id
_symmetry_equiv_pos_as_xyz
1 x,y,z
2 -x,1/2+y,-z
_cell_length_a 4.6908(1)
_cell_length_b 10.7522(3)
_cell_length_c 12.3836(4)
_cell_angle_alpha 90
_cell_angle_beta 89.686(3)
_cell_angle_gamma 90
_cell_formula_units_Z 2
loop_
_atom_type_symbol
_atom_type_radius_bond
C 0.68
H 0.23
N 0.68
O 0.68
loop_
_atom_site_label
_atom_site_type_symbol
_atom_site_fract_x
_atom_site_fract_y
_atom_site_fract_z
C1 C -0.8073(5) 0.4311(2) 1.32718(17)
H1 H -0.90680 0.40350 1.38980
C2 C -0.6083(5) 0.3637(2) 1.27323(18)
H2 H -0.54380 0.28260 1.29100
C3 C -0.3113(4) 0.4220(2) 1.10236(17)
H3 H -0.20260 0.34770 1.09690
C4 C -0.2761(4) 0.5181(2) 1.02985(17)
C5 C -0.4309(4) 0.6304(2) 1.03401(16)
H4 H -0.39790 0.69350 0.98180
C6 C -0.6300(4) 0.64756(19) 1.11441(16)
H5 H -0.73800 0.72220 1.11870
C7 C -0.6692(4) 0.55193(19) 1.18988(16)
C8 C -0.5138(4) 0.43867(18) 1.18413(16)
C9 C -1.0490(4) 0.6390(2) 1.31406(17)
H6 H -1.20890 0.59700 1.35160
H7 H -1.12770 0.68110 1.24970
C10 C -0.9251(4) 0.7370(2) 1.38906(16)
H8 H -1.08110 0.79490 1.41180
C11 C -0.7828(5) 0.6855(2) 1.48919(17)
H9 H -0.62930 0.62860 1.46780
H10 H -0.92380 0.64040 1.53290
H11 H -0.70350 0.75410 1.53160
C12 C -0.6569(4) 0.9228(2) 1.35724(16)
C13 C -0.4506(5) 0.9841(2) 1.28283(18)
H12 H -0.54350 1.05430 1.24680
H13 H -0.38540 0.92400 1.22850
H14 H -0.28690 1.01430 1.32410
N1 N -0.8455(3) 0.54539(16) 1.27855(14)
N2 N -0.0658(4) 0.50351(17) 0.94340(15)
O1 O -0.7186(3) 0.80601(14) 1.32443(11)
O2 O -0.7612(3) 0.96897(16) 1.43721(13)
O3 O -0.0254(3) 0.59113(17) 0.88095(13)
O4 O 0.0627(3) 0.40392(15) 0.93631(13)
#END
