
#######################################################################
#
#                 Cambridge Crystallographic Data Centre
#                                CCDC
#
#######################################################################
#
# If this CIF has been generated from an entry in the Cambridge
# Structural Database, then it will include bibliographic, chemical,
# crystal, experimental, refinement or atomic coordinate data resulting
# from the CCDC's data processing and validation procedures.
#
#######################################################################

data_CSD_CIF_PELMOJ
_audit_creation_date 2006-10-06
_audit_creation_method CSD-ConQuest-V1
_database_code_CSD PELMOJ
_database_code_depnum_ccdc_archive 'CCDC 618475'
_chemical_formula_sum 'C14 H10 N4 O4'
_chemical_formula_moiety
;
C14 H10 N4 O4
;
_journal_coeditor_code "IUCr BM5032"
_journal_coden_Cambridge 622
_journal_volume 62
_journal_year 2006
_journal_page_first 666
_journal_name_full 'Acta Crystallogr.,Sect.B:Struct.Sci. '
loop_
_publ_author_name
"C.Glidewell"
"J.N.Low"
"J.M.S.Skakle"
"J.L.Wardell"
_chemical_name_systematic
;
(E,E)-1-(3-Nitrophenyl)-4-(4-nitrophenyl)-2,3-diaza-1,3-butadiene
;
_chemical_melting_point 480
_cell_volume   2653.090
_exptl_crystal_colour 'yellow'
_exptl_crystal_density_diffrn 1.493
_exptl_special_details
;
Melting point range 480-483K

;
_exptl_crystal_description 'lath'
_exptl_crystal_preparation '1,2-dichloroethane'
_diffrn_ambient_temperature 120
_diffrn_radiation_probe x-ray
_diffrn_source synchrotron
#These two values have been output from a single CSD field.
_refine_ls_R_factor_gt 0.0565
_refine_ls_wR_factor_gt 0.0565
_symmetry_cell_setting monoclinic
_symmetry_space_group_name_H-M 'C 2/c'
_symmetry_Int_Tables_number 15
loop_
_symmetry_equiv_pos_site_id
_symmetry_equiv_pos_as_xyz
1 x,y,z
2 1/2+x,1/2+y,z
3 -x,y,1/2-z
4 1/2-x,1/2+y,1/2-z
5 -x,-y,-z
6 -1/2-x,-1/2-y,-z
7 x,-y,-1/2+z
8 -1/2+x,-1/2-y,-1/2+z
_cell_length_a 30.865(3)
_cell_length_b 4.7660(5)
_cell_length_c 21.736(2)
_cell_angle_alpha 90
_cell_angle_beta 123.926(2)
_cell_angle_gamma 90
_cell_formula_units_Z 8
loop_
_atom_type_symbol
_atom_type_radius_bond
C 0.68
H 0.23
N 0.68
O 0.68
loop_
_atom_site_label
_atom_site_type_symbol
_atom_site_fract_x
_atom_site_fract_y
_atom_site_fract_z
O1 O 0.47646(6) -0.6159(3) 0.32018(8)
O2 O 0.47144(5) -0.8936(3) 0.39427(8)
O3 O 0.71080(5) 1.3799(3) 0.24123(7)
O4 O 0.78120(5) 1.3094(3) 0.34947(6)
N1 N 0.61784(6) 0.0894(3) 0.41626(8)
N2 N 0.49204(6) -0.6999(3) 0.38204(8)
N3 N 0.65162(6) 0.2929(3) 0.41794(7)
N4 N 0.73536(6) 1.2586(3) 0.30096(7)
C1 C 0.60740(6) -0.2324(3) 0.49114(9)
C2 C 0.56194(6) -0.3538(3) 0.43126(9)
C3 C 0.53815(6) -0.5646(3) 0.44561(9)
C4 C 0.55621(7) -0.6589(4) 0.51591(10)
C5 C 0.60081(7) -0.5358(4) 0.57473(9)
C6 C 0.62627(6) -0.3254(3) 0.56259(9)
C7 C 0.63593(6) -0.0149(3) 0.48018(9)
C8 C 0.65817(6) 0.6351(3) 0.34322(8)
C9 C 0.63189(7) 0.7801(3) 0.27598(9)
C10 C 0.65688(7) 0.9832(3) 0.26155(8)
C11 C 0.70876(6) 1.0414(3) 0.31580(8)
C12 C 0.73586(6) 0.9054(3) 0.38355(8)
C13 C 0.71045(6) 0.7001(3) 0.39661(9)
C14 C 0.63041(7) 0.4180(3) 0.35565(9)
H1 H 0.54780 -0.29250 0.38200
H2 H 0.53860 -0.80360 0.52370
H3 H 0.61420 -0.59580 0.62390
H4 H 0.65700 -0.24360 0.60360
H5 H 0.66850 0.04960 0.52140
H6 H 0.59630 0.73820 0.23970
H7 H 0.63900 1.08080 0.21560
H8 H 0.77110 0.95230 0.42020
H9 H 0.72870 0.60160 0.44240
H10 H 0.59590 0.36910 0.31650
#END
