
#######################################################################
#
#                 Cambridge Crystallographic Data Centre
#                                CCDC
#
#######################################################################
#
# If this CIF has been generated from an entry in the Cambridge
# Structural Database, then it will include bibliographic, chemical,
# crystal, experimental, refinement or atomic coordinate data resulting
# from the CCDC's data processing and validation procedures.
#
#######################################################################

data_CSD_CIF_PENGOG
_audit_creation_date 2013-03-18
_audit_creation_method CSD-ConQuest-V1
_database_code_CSD PENGOG
_database_code_depnum_ccdc_archive 'CCDC 913287'
_chemical_formula_sum 'C14 H23 N1 O5'
_chemical_formula_moiety
;
C14 H23 N1 O5
;
_journal_coden_Cambridge 1336
_journal_volume 14
_journal_year 2012
_journal_page_first 5562
_journal_name_full 'Org.Lett. '
loop_
_publ_author_name
"Jun Deng"
"R.P.Hsung"
"Changhong Ko"
_chemical_name_systematic
;
Ethyl 
8-(1,3-dioxolan-2-yl)-7,7-dimethyl-3-oxa-4-azabicyclo[4.2.0]octane-4-carboxyla
te
;
_cell_volume    734.338
_exptl_crystal_colour 'colorless'
_exptl_crystal_density_diffrn 1.29
_exptl_crystal_description 'block'
_diffrn_ambient_temperature 173
#These two values have been output from a single CSD field.
_refine_ls_R_factor_gt 0.0422
_refine_ls_wR_factor_gt 0.0422
_symmetry_cell_setting triclinic
_symmetry_space_group_name_H-M 'P -1'
_symmetry_Int_Tables_number 2
loop_
_symmetry_equiv_pos_site_id
_symmetry_equiv_pos_as_xyz
1 x,y,z
2 -x,-y,-z
_cell_length_a 6.2528(6)
_cell_length_b 9.4257(9)
_cell_length_c 13.6643(14)
_cell_angle_alpha 104.187(1)
_cell_angle_beta 101.932(1)
_cell_angle_gamma 102.161(1)
_cell_formula_units_Z 2
loop_
_atom_type_symbol
_atom_type_radius_bond
C 0.68
H 0.23
N 0.68
O 0.68
loop_
_atom_site_label
_atom_site_type_symbol
_atom_site_fract_x
_atom_site_fract_y
_atom_site_fract_z
O1 O 0.64004(19) 0.09512(12) 0.76835(9)
O2 O 1.0990(2) 0.28787(12) 0.99101(8)
O3 O 1.01464(17) 0.06227(11) 0.86560(8)
O4 O 0.2447(2) 0.15981(13) 0.49664(8)
O5 O 0.08553(17) 0.34276(12) 0.55929(8)
N1 N 0.7645(2) 0.20200(15) 0.86543(10)
C1 C 0.7035(3) 0.15065(18) 0.68585(12)
H1 H 0.61390 0.07710 0.61690
H2 H 0.86630 0.15840 0.69180
C2 C 0.6632(2) 0.30396(16) 0.69138(11)
H3 H 0.74470 0.35100 0.64650
C3 C 0.7208(2) 0.42061(15) 0.80189(10)
H4 H 0.87030 0.49880 0.82110
C4 C 0.6941(3) 0.34138(17) 0.88486(11)
H5 H 0.78630 0.41140 0.95460
H6 H 0.53290 0.31720 0.88610
C5 C 0.9729(3) 0.19270(16) 0.91257(11)
C6 C 1.2195(2) 0.03711(17) 0.92253(12)
H7 H 1.20960 0.03500 0.99360
H8 H 1.35410 0.12010 0.92980
C7 C 1.2400(3) -0.1120(2) 0.86169(14)
H9 H 1.37210 -0.13510 0.90040
H10 H 1.25920 -0.10650 0.79320
H11 H 1.10210 -0.19240 0.85160
C8 C 0.4199(2) 0.32210(15) 0.67123(10)
H12 H 0.32450 0.24740 0.69660
C9 C 0.5128(2) 0.47771(15) 0.75891(10)
C10 C 0.5927(3) 0.61198(17) 0.71930(13)
H13 H 0.46100 0.63050 0.67670
H14 H 0.69620 0.58880 0.67660
H15 H 0.67240 0.70290 0.77920
C11 C 0.3610(3) 0.51754(18) 0.82891(12)
H16 H 0.23420 0.54510 0.78990
H17 H 0.44940 0.60370 0.89080
H18 H 0.30160 0.42950 0.85120
C12 C 0.2965(2) 0.31087(16) 0.56232(11)
H19 H 0.39190 0.38220 0.53460
C13 C 0.0485(3) 0.13884(18) 0.41424(12)
H20 H -0.06240 0.03950 0.40050
H21 H 0.09050 0.14320 0.34880
C14 C -0.0501(3) 0.2693(2) 0.45363(12)
H22 H -0.03850 0.34030 0.41100
H23 H -0.21180 0.23060 0.45110
#END
