
#######################################################################
#
#                 Cambridge Crystallographic Data Centre
#                                CCDC
#
#######################################################################
#
# If this CIF has been generated from an entry in the Cambridge
# Structural Database, then it will include bibliographic, chemical,
# crystal, experimental, refinement or atomic coordinate data resulting
# from the CCDC's data processing and validation procedures.
#
#######################################################################

data_CSD_CIF_PENHAT
_audit_creation_date 2013-03-18
_audit_creation_method CSD-ConQuest-V1
_database_code_CSD PENHAT
_database_code_depnum_ccdc_archive 'CCDC 897822'
_chemical_formula_sum 'C13 H12 N2 O3'
_chemical_formula_moiety
;
C13 H12 N2 O3
;
_journal_coden_Cambridge 1336
_journal_volume 14
_journal_year 2012
_journal_page_first 5566
_journal_name_full 'Org.Lett. '
loop_
_publ_author_name
"J.K.Lam"
"Y.Schmidt"
"C.D.Vanderwal"
_chemical_name_systematic
;
9-Nitro-8-vinyl-7,8-dihydro-3H,5H-pyrrolo[2,1-i]indol-5-one
;
_cell_volume   1144.484
_exptl_crystal_colour 'colorless'
_exptl_crystal_density_diffrn 1.418
_exptl_crystal_description 'irregular'
_diffrn_ambient_temperature 143
#These two values have been output from a single CSD field.
_refine_ls_R_factor_gt 0.0364
_refine_ls_wR_factor_gt 0.0364
_symmetry_cell_setting monoclinic
_symmetry_space_group_name_H-M 'P 21/n'
_symmetry_Int_Tables_number 14
loop_
_symmetry_equiv_pos_site_id
_symmetry_equiv_pos_as_xyz
1 x,y,z
2 1/2-x,1/2+y,1/2-z
3 -x,-y,-z
4 -1/2+x,-1/2-y,-1/2+z
_cell_length_a 10.5663(7)
_cell_length_b 10.9334(7)
_cell_length_c 11.1163(8)
_cell_angle_alpha 90
_cell_angle_beta 116.9766(7)
_cell_angle_gamma 90
_cell_formula_units_Z 4
loop_
_atom_type_symbol
_atom_type_radius_bond
C 0.68
H 0.23
N 0.68
O 0.68
loop_
_atom_site_label
_atom_site_type_symbol
_atom_site_fract_x
_atom_site_fract_y
_atom_site_fract_z
O1 O 0.22977(9) 0.00146(8) 1.23160(8)
O2 O 0.32499(10) 0.53449(8) 0.93473(10)
O3 O 0.35003(11) 0.41431(10) 0.79202(10)
N1 N 0.17208(9) 0.19813(8) 1.14960(9)
N2 N 0.29707(10) 0.44094(9) 0.86682(10)
C1 C 0.18764(11) 0.07325(10) 1.13727(11)
C2 C 0.14221(11) 0.04753(10) 0.99277(11)
C3 C 0.08285(11) 0.14739(9) 0.92092(10)
C4 C 0.02628(12) 0.17696(10) 0.7754(1)
C5 C 0.12594(11) 0.26935(10) 0.75408(10)
C6 C 0.19636(11) 0.35179(9) 0.87544(11)
C7 C 0.18430(11) 0.35058(9) 0.98928(11)
C8 C 0.09715(11) 0.25272(9) 1.01406(10)
C9 C -0.03464(11) 0.30655(10) 1.01493(11)
C10 C -0.02537(12) 0.30039(11) 1.13778(12)
C11 C 0.11071(12) 0.24138(11) 1.23771(11)
C12 C 0.04019(13) 0.34216(11) 0.62716(12)
C13 C 0.05202(18) 0.33128(13) 0.51488(13)
H1 H 0.1512(15) -0.0300(14) 0.9603(14)
H2 H -0.0691(16) 0.2155(13) 0.7440(14)
H3 H 0.0186(15) 0.1055(14) 0.7215(14)
H4 H 0.2012(15) 0.2244(14) 0.7423(14)
H5 H 0.2316(15) 0.4090(14) 1.0572(14)
H6 H -0.1086(16) 0.3455(14) 0.9361(15)
H7 H -0.0955(16) 0.3318(15) 1.1633(15)
H8 H 0.1717(15) 0.3009(14) 1.3033(14)
H9 H 0.0993(15) 0.1698(14) 1.2870(14)
H10 H -0.0292(17) 0.3975(16) 0.6315(15)
H11 H 0.120(2) 0.2751(18) 0.5065(19)
H12 H -0.006(2) 0.3749(18) 0.4371(19)
#END
