
#######################################################################
#
#                 Cambridge Crystallographic Data Centre
#                                CCDC
#
#######################################################################
#
# If this CIF has been generated from an entry in the Cambridge
# Structural Database, then it will include bibliographic, chemical,
# crystal, experimental, refinement or atomic coordinate data resulting
# from the CCDC's data processing and validation procedures.
#
#######################################################################

data_CSD_CIF_PENVUZ
_audit_creation_date 1994-03-29
_audit_creation_method CSD-ConQuest-V1
_database_code_CSD PENVUZ
_chemical_formula_sum 'C29 H45 N1 O4'
_chemical_formula_moiety
;
C29 H45 N1 O4
;
_journal_coden_Cambridge 82
_journal_volume 33
_journal_year 1992
_journal_page_first 152-5
_journal_name_full 'Zh.Strukt.Khim.(Russ.)(J.Struct.Chem.) '
loop_
_publ_author_name
"A.I.Verenich"
"A.A.Govorova"
"N.M.Galitskii"
"A.V.Baranovskii"
"R.P.Litvinovskii"
"V.A.Khripach"
_chemical_name_systematic
;
(20R,22R)-3\b-Acetoxy-20-hydroxy-20-(3'-isopropyl-isoxazolin-5'-yl)pregn-5-ene
;
_cell_volume   2722.930
_exptl_crystal_density_diffrn 1.15
_diffrn_ambient_temperature ?
_diffrn_special_details
;
The study was carried out at room temperature,in the range 283-303K

;
#These two values have been output from a single CSD field.
_refine_ls_R_factor_gt 0.0405
_refine_ls_wR_factor_gt 0.0405
_symmetry_cell_setting orthorhombic
_symmetry_space_group_name_H-M 'P 21 21 21'
_symmetry_Int_Tables_number 19
loop_
_symmetry_equiv_pos_site_id
_symmetry_equiv_pos_as_xyz
1 x,y,z
2 1/2+x,1/2-y,-z
3 -x,1/2+y,1/2-z
4 1/2-x,-y,1/2+z
_cell_length_a 6.342(1)
_cell_length_b 13.797(4)
_cell_length_c 31.119(7)
_cell_angle_alpha 90
_cell_angle_beta 90
_cell_angle_gamma 90
_cell_formula_units_Z 4
loop_
_atom_type_symbol
_atom_type_radius_bond
C 0.68
N 0.68
O 0.68
loop_
_atom_site_label
_atom_site_type_symbol
_atom_site_fract_x
_atom_site_fract_y
_atom_site_fract_z
O1 O 0.4751(6) -0.1557(2) 0.0449(1)
O2 O -0.1836(4) 0.6248(2) 0.1362(1)
O3 O 0.0012(4) 0.7669(2) 0.1819(1)
O4 O 0.6929(6) -0.2057(2) 0.0931(1)
N1 N 0.1742(4) 0.8315(2) 0.1886(1)
C1 C 0.4936(6) 0.1144(3) 0.0599(1)
C2 C 0.5314(6) 0.0154(3) 0.0384(1)
C3 C 0.4519(8) -0.0633(3) 0.0669(12)
C4 C 0.2136(7) -0.0511(3) 0.0759(1)
C5 C 0.1690(6) 0.0478(2) 0.0949(1)
C6 C 0.0628(7) 0.0563(2) 0.1309(1)
C7 C 0.0059(7) 0.1494(2) 0.1518(1)
C8 C 0.0367(5) 0.2360(2) 0.1230(1)
C9 C 0.2441(5) 0.2274(2) 0.0982(1)
C10 C 0.2562(5) 0.1344(2) 0.0702(1)
C11 C 0.2957(5) 0.3204(2) 0.0731(1)
C12 C 0.2883(5) 0.4141(2) 0.0997(1)
C13 C 0.0673(5) 0.4237(2) 0.1221(1)
C14 C 0.0387(5) 0.3305(2) 0.1485(1)
C15 C -0.1477(6) 0.3528(2) 0.1779(1)
C16 C -0.1161(6) 0.4608(3) 0.1891(1)
C17 C 0.0582(5) 0.4999(2) 0.1588(1)
C18 C -0.1085(5) 0.4368(2) 0.0893(1)
C19 C 0.1334(6) 0.1460(3) 0.0279(1)
C20 C 0.0347(5) 0.6085(2) 0.1486(1)
C21 C 0.1779(6) 0.6453(2) 0.1137(1)
C22 C 0.0680(6) 0.6664(2) 0.1898(1)
C23 C 0.2939(6) 0.6775(3) 0.2063(1)
C24 C 0.3312(5) 0.7834(3) 0.2013(1)
C25 C 0.5398(6) 0.8331(4) 0.2085(1)
C26 C 0.5234(8) 0.9434(4) 0.2040(2)
C27 C 0.6316(7) 0.8019(5) 0.2518(1)
C28 C 0.6017(6) -0.2197(2) 0.0608(1)
C29 C 0.6078(8) -0.3107(3) 0.0355(1)
#END
