
#######################################################################
#
#                 Cambridge Crystallographic Data Centre
#                                CCDC
#
#######################################################################
#
# If this CIF has been generated from an entry in the Cambridge
# Structural Database, then it will include bibliographic, chemical,
# crystal, experimental, refinement or atomic coordinate data resulting
# from the CCDC's data processing and validation procedures.
#
#######################################################################

data_CSD_CIF_PEQWOX
_audit_creation_date 1998-11-13
_audit_creation_method CSD-ConQuest-V1
_database_code_CSD PEQWOX
_chemical_formula_sum 'C22 H30 N4 O5'
_chemical_formula_moiety
;
C22 H30 N4 O5
;
_journal_coden_Cambridge 35
_journal_volume 62
_journal_year 1997
_journal_page_first 8722
_journal_name_full 'J.Org.Chem. '
loop_
_publ_author_name
"S.N.Crane"
"T.J.Jenkins"
"D.J.Burnell"
_chemical_name_systematic
;
t-8-t-Butyl-2,2-dimethyl-r-1-spiro(4.5)decane-1,4-dione 
4-(2,4-dinitrophenylhydrazone)
;
_chemical_melting_point 507.15
_cell_volume   2249.945
_exptl_crystal_colour 'orange'
_exptl_crystal_density_diffrn 1.271
_exptl_special_details
;
Melting point range 507.15-508.15K

;
_exptl_crystal_description 'prisms'
_diffrn_ambient_temperature ?
_diffrn_special_details
;
The study was carried out at room temperature,in the range 283-303K

;
#These two values have been output from a single CSD field.
_refine_ls_R_factor_gt 0.044
_refine_ls_wR_factor_gt 0.044
_symmetry_cell_setting monoclinic
_symmetry_space_group_name_H-M 'P 21/c'
_symmetry_Int_Tables_number 14
loop_
_symmetry_equiv_pos_site_id
_symmetry_equiv_pos_as_xyz
1 x,y,z
2 -x,1/2+y,1/2-z
3 -x,-y,-z
4 x,-1/2-y,-1/2+z
_cell_length_a 6.253(3)
_cell_length_b 16.123(2)
_cell_length_c 22.492(3)
_cell_angle_alpha 90
_cell_angle_beta 97.15(1)
_cell_angle_gamma 90
_cell_formula_units_Z 4
loop_
_atom_type_symbol
_atom_type_radius_bond
C 0.68
H 0.23
N 0.68
O 0.68
loop_
_atom_site_label
_atom_site_type_symbol
_atom_site_fract_x
_atom_site_fract_y
_atom_site_fract_z
O1 O 0.0431(7) -0.3497(2) 0.1923(2)
O2 O 0.4444(6) 0.1199(2) -0.0170(2)
O3 O 0.2230(6) 0.0412(2) 0.0240(2)
O4 O 1.2326(7) 0.1555(3) 0.1690(2)
O5 O 1.1030(7) 0.2107(3) 0.0845(2)
N1 N 0.3408(6) -0.0892(3) 0.1699(2)
N2 N 0.3506(6) -0.0331(2) 0.1232(2)
N3 N 0.3980(8) 0.0778(3) 0.0255(2)
N4 N 1.0912(8) 0.1637(3) 0.1269(3)
C1 C 0.0699(8) -0.2810(3) 0.1736(2)
C2 C 0.5247(8) 0.0171(3) 0.1259(2)
C3 C 0.1701(7) -0.2087(3) 0.2104(2)
C4 C 0.5540(8) 0.0715(3) 0.0782(2)
C5 C 0.1997(8) -0.1464(3) 0.1624(2)
C6 C 0.739(1) 0.1197(3) 0.0787(2)
C7 C 0.0478(8) -0.1626(3) 0.1066(2)
C8 C 0.8926(8) 0.1151(3) 0.1269(3)
C9 C -0.0019(8) -0.2560(3) 0.1088(2)
C10 C 0.8685(8) 0.0658(3) 0.1761(2)
C11 C 0.3677(7) -0.2344(3) 0.2529(2)
C12 C 0.6887(9) 0.0178(3) 0.1754(2)
C13 C 0.4454(7) -0.1704(3) 0.3008(2)
C14 C 0.2665(8) -0.1409(3) 0.3367(2)
C15 C 0.0761(8) -0.1099(3) 0.2928(2)
C16 C -0.0073(8) -0.1766(3) 0.2478(2)
C17 C 0.135(1) -0.3047(4) 0.0686(3)
C18 C -0.239(1) -0.2757(4) 0.0904(3)
C19 C 0.3442(9) -0.0803(3) 0.3879(2)
C20 C 0.452(1) -0.0031(4) 0.3648(3)
C21 C 0.508(1) -0.1240(4) 0.4341(3)
C22 C 0.155(1) -0.0520(4) 0.4203(2)
H1? H 0.43080 -0.08360 0.20670
H2 H 0.75020 0.15480 0.04350
H3 H 0.10270 -0.14380 0.06670
H4 H -0.09140 -0.13050 0.10670
H5 H 0.98290 0.06150 0.21030
H6 H 0.33940 -0.28860 0.27380
H7 H 0.48800 -0.25260 0.22800
H8 H 0.67610 -0.01540 0.20940
H9 H 0.57080 -0.19810 0.33180
H10 H 0.51490 -0.12410 0.28400
H11 H 0.21340 -0.19080 0.35320
H12 H -0.05340 -0.09080 0.31200
H13 H 0.12590 -0.05530 0.27250
H14 H -0.05950 -0.22620 0.27040
H15 H -0.13810 -0.15450 0.21980
H16 H 0.29770 -0.28300 0.08270
H17 H 0.08250 -0.28430 0.02480
H18 H 0.14680 -0.36280 0.08110
H19 H -0.26310 -0.26430 0.04280
H20 H -0.26640 -0.32760 0.10750
H21 H -0.32250 -0.24830 0.12040
H22 H 0.60480 -0.01800 0.34890
H23 H 0.35870 0.02840 0.33180
H24 H 0.48210 0.03270 0.39570
H25 H 0.44800 -0.16820 0.44950
H26 H 0.65530 -0.12860 0.41510
H27 H 0.56570 -0.08380 0.47280
H28 H 0.21050 -0.01370 0.45850
H29 H 0.04940 -0.01480 0.39150
H30 H 0.07490 -0.09250 0.43160
#END
