
#######################################################################
#
#                 Cambridge Crystallographic Data Centre
#                                CCDC
#
#######################################################################
#
# If this CIF has been generated from an entry in the Cambridge
# Structural Database, then it will include bibliographic, chemical,
# crystal, experimental, refinement or atomic coordinate data resulting
# from the CCDC's data processing and validation procedures.
#
#######################################################################

data_CSD_CIF_PEQWIR
_audit_creation_date 1998-11-13
_audit_creation_method CSD-ConQuest-V1
_database_code_CSD PEQWIR
_chemical_formula_sum 'C19 H22 N4 O5'
_chemical_formula_moiety
;
C19 H22 N4 O5
;
_journal_coden_Cambridge 35
_journal_volume 62
_journal_year 1997
_journal_page_first 8722
_journal_name_full 'J.Org.Chem. '
loop_
_publ_author_name
"S.N.Crane"
"T.J.Jenkins"
"D.J.Burnell"
_chemical_name_systematic
;
(1RS,2SR,4SR)-4',4'-Dimethylspiro(bicyclo(2.2.1)heptane-2,2'-cyclopentane)-1',
3'-dione 1'-(2,4-dinitrophenylhydrazone)
;
_chemical_melting_point 472.65
_cell_volume   1906.161
_exptl_crystal_colour 'red-orange'
_exptl_crystal_density_diffrn 1.346
_exptl_special_details
;
Melting point range 472.65-474.15K

;
_exptl_crystal_description 'irregular'
_diffrn_ambient_temperature ?
_diffrn_special_details
;
The study was carried out at room temperature,in the range 283-303K

;
#These two values have been output from a single CSD field.
_refine_ls_R_factor_gt 0.056
_refine_ls_wR_factor_gt 0.056
_symmetry_cell_setting monoclinic
_symmetry_space_group_name_H-M 'P 21/n'
_symmetry_Int_Tables_number 14
loop_
_symmetry_equiv_pos_site_id
_symmetry_equiv_pos_as_xyz
1 x,y,z
2 1/2-x,1/2+y,1/2-z
3 -x,-y,-z
4 -1/2+x,-1/2-y,-1/2+z
_cell_length_a 9.756(1)
_cell_length_b 18.571(4)
_cell_length_c 11.040(2)
_cell_angle_alpha 90
_cell_angle_beta 107.64(1)
_cell_angle_gamma 90
_cell_formula_units_Z 4
loop_
_atom_type_symbol
_atom_type_radius_bond
C 0.68
H 0.23
N 0.68
O 0.68
loop_
_atom_site_label
_atom_site_type_symbol
_atom_site_fract_x
_atom_site_fract_y
_atom_site_fract_z
O1 O -0.2513(8) 0.4011(4) 0.4025(7)
O2 O 0.0162(6) -0.0392(3) 0.8245(6)
O3 O -0.0778(6) 0.0638(3) 0.7588(5)
O4 O 0.4165(7) -0.1052(4) 0.5106(6)
O5 O 0.3221(6) -0.1612(3) 0.6389(5)
N1 N 0.0320(6) 0.1984(4) 0.5316(6)
N2 N 0.0273(6) 0.1412(3) 0.6117(5)
N3 N 0.0054(7) 0.0143(4) 0.7559(6)
N4 N 0.3385(8) -0.1100(4) 0.5779(7)
C1 C -0.183(1) 0.3559(5) 0.4744(9)
C2 C -0.2239(9) 0.3299(4) 0.5895(7)
C3 C -0.1301(8) 0.2635(4) 0.6337(7)
C4 C -0.0411(8) 0.2533(4) 0.5449(7)
C5 C -0.0516(8) 0.3177(4) 0.4607(7)
C6 C -0.053(1) 0.3027(4) 0.3208(7)
C7 C 0.071(1) 0.3475(6) 0.3048(8)
C8 C 0.208(1) 0.3114(5) 0.382(1)
C9 C 0.218(1) 0.3307(5) 0.5184(9)
C10 C 0.078(1) 0.3723(5) 0.5072(8)
C11 C 0.062(1) 0.4132(5) 0.379(1)
C12 C -0.384(1) 0.3125(5) 0.5510(9)
C13 C -0.191(1) 0.3891(5) 0.6895(9)
C14 C 0.1049(8) 0.0811(4) 0.6067(7)
C15 C 0.0975(7) 0.0173(4) 0.6746(6)
C16 C 0.1750(8) -0.0432(4) 0.6664(7)
C17 C 0.2600(8) -0.0420(4) 0.5885(7)
C18 C 0.2746(8) 0.0177(4) 0.5215(7)
C19 C 0.1984(8) 0.0804(4) 0.5286(7)
H1 H -0.01770 0.14870 0.68750
H2 H -0.17670 0.20970 0.64090
H3 H -0.06540 0.25890 0.72230
H4 H -0.05820 0.24450 0.29210
H5 H -0.14810 0.32480 0.25710
H6 H 0.05370 0.34850 0.20600
H7 H 0.22020 0.25180 0.35860
H8 H 0.29700 0.32620 0.35250
H9 H 0.29730 0.36620 0.55650
H10 H 0.22450 0.29220 0.57630
H11 H 0.07470 0.40570 0.58360
H12 H 0.13530 0.44200 0.37000
H13 H -0.02370 0.44390 0.38000
H14 H -0.43750 0.35740 0.50720
H15 H -0.40380 0.27350 0.48280
H16 H -0.40790 0.30020 0.62250
H17 H -0.08900 0.40260 0.70930
H18 H -0.24790 0.43130 0.65410
H19 H -0.21180 0.37270 0.76790
H20 H 0.16310 -0.08390 0.71480
H21 H 0.33170 0.01970 0.44850
H22 H 0.18700 0.11900 0.45040
#END
