
#######################################################################
#
#                 Cambridge Crystallographic Data Centre
#                                CCDC
#
#######################################################################
#
# If this CIF has been generated from an entry in the Cambridge
# Structural Database, then it will include bibliographic, chemical,
# crystal, experimental, refinement or atomic coordinate data resulting
# from the CCDC's data processing and validation procedures.
#
#######################################################################

data_CSD_CIF_PERNUX
_audit_creation_date 2013-05-19
_audit_creation_method CSD-ConQuest-V1
_database_code_CSD PERNUX
_database_code_depnum_ccdc_archive 'CCDC 908146'
_chemical_formula_sum 'C19 H19 N1 O2'
_chemical_formula_moiety
;
C19 H19 N1 O2
;
_journal_coden_Cambridge 179
_journal_volume 52
_journal_year 2013
_journal_page_first 4599
_journal_name_full 'Angew.Chem.,Int.Ed. '
loop_
_publ_author_name
"Chun-Hao Chen"
"Yen-Ching Tsai"
"Rai-Shung Liu"
_chemical_name_systematic
;
3,3,8a-Trimethyl-1-phenyl-1,3,3a,8a-tetrahydro-8H-indeno[2,1-c][1,2]oxazol-8-o
ne
;
_cell_volume   1524.605
_exptl_crystal_colour 'colorless'
_exptl_crystal_density_diffrn 1.278
_diffrn_ambient_temperature 100
#These two values have been output from a single CSD field.
_refine_ls_R_factor_gt 0.0281
_refine_ls_wR_factor_gt 0.0281
_symmetry_cell_setting orthorhombic
_symmetry_space_group_name_H-M 'P c a 21'
_symmetry_Int_Tables_number 29
loop_
_symmetry_equiv_pos_site_id
_symmetry_equiv_pos_as_xyz
1 x,y,z
2 -x,-y,1/2+z
3 1/2-x,y,1/2+z
4 1/2+x,-y,z
_cell_length_a 12.6141(7)
_cell_length_b 9.6065(6)
_cell_length_c 12.5816(7)
_cell_angle_alpha 90
_cell_angle_beta 90
_cell_angle_gamma 90
_cell_formula_units_Z 4
loop_
_atom_type_symbol
_atom_type_radius_bond
C 0.68
H 0.23
N 0.68
O 0.68
loop_
_atom_site_label
_atom_site_type_symbol
_atom_site_fract_x
_atom_site_fract_y
_atom_site_fract_z
O1 O -0.03452(8) 0.36263(11) 0.13543(10)
O2 O 0.22786(7) 0.32106(10) -0.10159(8)
N1 N 0.12600(9) 0.29962(12) -0.04952(10)
C1 C 0.05243(12) 0.80435(16) 0.18007(13)
H1 H 0.01170 0.87680 0.21130
C2 C 0.01050(11) 0.67253(16) 0.17173(12)
H2 H -0.05880 0.65260 0.19710
C3 C 0.07284(11) 0.56847(15) 0.12474(12)
C4 C 0.04732(10) 0.42005(15) 0.11002(12)
C5 C 0.14649(11) 0.34699(15) 0.06233(12)
C6 C 0.09354(11) 0.15952(15) -0.06983(12)
C7 C -0.00305(12) 0.11440(16) -0.02861(14)
H3 H -0.04220 0.17290 0.01790
C8 C -0.04211(13) -0.01623(17) -0.05551(14)
H4 H -0.10790 -0.04640 -0.02700
C9 C 0.01356(13) -0.10289(16) -0.12329(14)
H5 H -0.01410 -0.19150 -0.14220
C10 C 0.15469(12) 0.83208(16) 0.14277(14)
H6 H 0.18210 0.92390 0.14820
C11 C 0.21695(11) 0.72892(15) 0.09810(14)
H7 H 0.28680 0.74870 0.07430
C12 C 0.1750(1) 0.59566(15) 0.08879(12)
C13 C 0.18536(12) 0.23326(15) 0.13697(13)
H8 H 0.12800 0.16660 0.14990
H9 H 0.20750 0.27500 0.20450
H10 H 0.24570 0.18490 0.10450
C14 C 0.25373(11) 0.46353(14) -0.07446(12)
C15 C 0.37180(11) 0.47839(17) -0.09680(13)
H11 H 0.41130 0.41090 -0.05380
H12 H 0.39480 0.57290 -0.07860
H13 H 0.38530 0.46090 -0.17230
C16 C 0.18849(12) 0.56365(16) -0.14095(13)
H14 H 0.20230 0.54680 -0.21650
H15 H 0.20800 0.65960 -0.12310
H16 H 0.11300 0.54930 -0.12620
C17 C 0.22784(11) 0.46641(14) 0.04589(12)
H17 H 0.29350 0.44640 0.08770
C18 C 0.15093(12) 0.07111(15) -0.13631(13)
H18 H 0.21790 0.09960 -0.16320
C19 C 0.11012(13) -0.05874(16) -0.16316(14)
H19 H 0.14900 -0.11790 -0.20940
#END
