
#######################################################################
#
#                 Cambridge Crystallographic Data Centre
#                                CCDC
#
#######################################################################
#
# If this CIF has been generated from an entry in the Cambridge
# Structural Database, then it will include bibliographic, chemical,
# crystal, experimental, refinement or atomic coordinate data resulting
# from the CCDC's data processing and validation procedures.
#
#######################################################################

data_CSD_CIF_PERPEJ
_audit_creation_date 2013-05-19
_audit_creation_method CSD-ConQuest-V1
_database_code_CSD PERPEJ
_database_code_depnum_ccdc_archive 'CCDC 908115'
_chemical_formula_sum 'C20 H16 N3 O5'
_chemical_formula_moiety
;
C20 H16 N3 O5
;
_journal_coden_Cambridge 392
_journal_volume 87
_journal_year 2013
_journal_page_first 319
_journal_name_full 'Heterocycles '
loop_
_publ_author_name
"K.Yamaguchi"
"K.Harano"
"M.Eto"
_chemical_name_systematic
;
1,3-Dihydroxy-5-methyl-2,3a-diphenyl-3b,6a-dihydro-1H-pyrazolo[1,5-b]pyrrolo[3
,4-d][1,2]oxazole-4,6(3aH,5H)-dione
;
_cell_volume   1750.423
_exptl_crystal_colour 'colorless'
_exptl_crystal_density_diffrn 1.432
_exptl_crystal_description 'needle'
_diffrn_ambient_temperature 296
#These two values have been output from a single CSD field.
_refine_ls_R_factor_gt 0.09
_refine_ls_wR_factor_gt 0.09
_symmetry_cell_setting monoclinic
_symmetry_space_group_name_H-M 'P 21/n'
_symmetry_Int_Tables_number 14
loop_
_symmetry_equiv_pos_site_id
_symmetry_equiv_pos_as_xyz
1 x,y,z
2 1/2-x,1/2+y,1/2-z
3 -x,-y,-z
4 -1/2+x,-1/2-y,-1/2+z
_cell_length_a 10.1933(17)
_cell_length_b 10.4959(14)
_cell_length_c 16.406(3)
_cell_angle_alpha 90
_cell_angle_beta 94.247(6)
_cell_angle_gamma 90
_cell_formula_units_Z 4
loop_
_atom_type_symbol
_atom_type_radius_bond
C 0.68
H 0.23
N 0.68
O 0.68
loop_
_atom_site_label
_atom_site_type_symbol
_atom_site_fract_x
_atom_site_fract_y
_atom_site_fract_z
O1 O 0.0481(4) 0.1394(4) 0.7249(3)
O2 O 0.1912(5) -0.0163(4) 0.4836(3)
O3 O 0.1512(4) -0.2214(3) 0.5765(2)
O4 O 0.3484(5) 0.0632(4) 0.7450(3)
O5 O 0.4441(5) -0.2352(5) 0.5583(3)
N1 N 0.1428(5) 0.0010(4) 0.5491(3)
N2 N 0.0780(5) -0.1116(4) 0.5875(3)
N3 N 0.4238(5) -0.0735(4) 0.6518(3)
C1 C 0.0813(5) 0.0696(5) 0.6703(4)
C2 C 0.1300(5) 0.1055(5) 0.5930(3)
C3 C 0.0848(5) -0.0765(5) 0.6742(3)
C4 C 0.2248(5) -0.1289(5) 0.7052(3)
C5 C 0.3353(6) -0.0344(6) 0.7059(4)
C6 C 0.3854(7) -0.1842(6) 0.6101(4)
C7 C 0.2542(6) -0.2277(4) 0.6415(3)
C8 C 0.1655(6) 0.2357(5) 0.5669(4)
C9 C 0.0868(6) 0.3378(5) 0.5906(4)
C10 C 0.1219(7) 0.4587(5) 0.5692(4)
C11 C 0.2267(7) 0.4815(5) 0.5238(4)
C12 C 0.3047(7) 0.3803(6) 0.5027(4)
C13 C 0.2733(6) 0.2576(5) 0.5240(4)
C14 C -0.0256(5) -0.1353(5) 0.7201(4)
C15 C -0.0262(7) -0.1140(6) 0.8034(4)
C16 C -0.1264(9) -0.1655(8) 0.8461(6)
C17 C -0.2267(8) -0.2364(8) 0.8075(6)
C18 C -0.2232(7) -0.2561(8) 0.7255(6)
C19 C -0.1231(7) -0.2051(8) 0.6807(5)
C20 C 0.5415(7) -0.0025(7) 0.6358(6)
H1 H 0.22190 -0.16750 0.75940
H2 H 0.26140 -0.31330 0.66510
H3 H 0.01590 0.32250 0.62190
H4 H 0.06930 0.52700 0.58240
H5 H 0.24830 0.56380 0.50880
H6 H 0.37910 0.39560 0.47460
H7 H 0.32630 0.19030 0.50950
H8 H 0.04190 -0.06700 0.82950
H9 H -0.12650 -0.15230 0.90210
H10 H -0.29440 -0.27060 0.83550
H11 H -0.29180 -0.30280 0.69960
H12 H -0.12210 -0.22050 0.62490
H13 H 0.60350 -0.06060 0.61190
H14 H 0.51810 0.06630 0.59700
H15 H 0.58260 0.03380 0.68650
#END
