
#######################################################################
#
#                 Cambridge Crystallographic Data Centre
#                                CCDC
#
#######################################################################
#
# If this CIF has been generated from an entry in the Cambridge
# Structural Database, then it will include bibliographic, chemical,
# crystal, experimental, refinement or atomic coordinate data resulting
# from the CCDC's data processing and validation procedures.
#
#######################################################################

data_CSD_CIF_PERSEN
_audit_creation_date 2018-03-07
_audit_creation_method CSD-ConQuest-V1
_database_code_CSD PERSEN
_database_code_depnum_ccdc_archive 'CCDC 1811781'
_chemical_formula_sum 'C7 H1 N11 O14'
_chemical_formula_moiety
;
C7 H1 N11 O14
;
_journal_coden_Cambridge 1699
_journal_volume 6
_journal_year 2018
_journal_page_first 5136
_journal_name_full 'J.Mater.Chem.A '
loop_
_publ_author_name
"Yongxing Tang"
"Chunlin He"
"G.H.Imler"
"D.A.Parrish"
"J.M.Shreeve"
_chemical_name_systematic
;
4,4',5,5'-tetranitro-2'-(trinitromethyl)-1H,2'H-3,3'-bipyrazole
;
_cell_volume   3253.218
_exptl_crystal_colour 'colorless'
_exptl_crystal_density_diffrn 1.891
_exptl_crystal_description 'needle'
_diffrn_ambient_temperature 293
_refine_special_details
;
O15A,O16A and O15B,O16B disordered over two sites with occupancies 
0.556:0.444.
;
#These two values have been output from a single CSD field.
_refine_ls_R_factor_gt 0.0514
_refine_ls_wR_factor_gt 0.0514
_symmetry_cell_setting monoclinic
_symmetry_space_group_name_H-M 'C 2/c'
_symmetry_Int_Tables_number 15
loop_
_symmetry_equiv_pos_site_id
_symmetry_equiv_pos_as_xyz
1 x,y,z
2 -x,y,1/2-z
3 1/2+x,1/2+y,z
4 1/2-x,1/2+y,1/2-z
5 -x,-y,-z
6 x,-y,-1/2+z
7 -1/2-x,-1/2-y,-z
8 -1/2+x,-1/2-y,-1/2+z
_cell_length_a 17.130(3)
_cell_length_b 6.8390(11)
_cell_length_c 27.832(5)
_cell_angle_alpha 90
_cell_angle_beta 93.850(6)
_cell_angle_gamma 90
_cell_formula_units_Z 8
loop_
_atom_type_symbol
_atom_type_radius_bond
C 0.68
H 0.23
N 0.68
O 0.68
loop_
_atom_site_label
_atom_site_type_symbol
_atom_site_fract_x
_atom_site_fract_y
_atom_site_fract_z
O1 O 0.73280(13) 0.7795(5) 0.4266(1)
O2 O 0.63179(14) 0.9239(3) 0.39227(8)
N1 N 0.66394(13) 0.8047(4) 0.41810(8)
C1 C 0.60742(13) 0.6695(3) 0.44448(8)
N2 N 0.64836(13) 0.4717(3) 0.45805(7)
O3 O 0.70206(18) 0.4901(4) 0.48735(11)
O4 O 0.62239(13) 0.3316(3) 0.43906(7)
N3 N 0.59224(14) 0.7696(4) 0.49272(8)
O5 O 0.61062(16) 0.9381(4) 0.49638(9)
O6 O 0.56330(15) 0.6657(4) 0.52136(8)
N4 N 0.53547(10) 0.6468(3) 0.41689(7)
N5 N 0.47245(12) 0.7471(3) 0.43242(7)
C2 C 0.41843(13) 0.7203(4) 0.39815(9)
N6 N 0.34057(13) 0.8042(4) 0.40285(10)
O7 O 0.3192(4) 0.9160(18) 0.3721(4)
O8 O 0.3095(5) 0.7595(15) 0.4387(3)
C3 C 0.44375(13) 0.6085(4) 0.36037(8)
N7 N 0.39996(14) 0.5601(4) 0.31622(9)
O9 O 0.43125(13) 0.4791(5) 0.28541(8)
O10 O 0.33234(17) 0.6049(8) 0.31338(13)
C4 C 0.52049(13) 0.5621(3) 0.37261(8)
C5 C 0.57719(12) 0.4553(3) 0.34544(7)
C6 C 0.57188(13) 0.2668(3) 0.32549(8)
N8 N 0.50967(15) 0.1294(3) 0.33091(9)
O11 O 0.47024(15) 0.1546(4) 0.36492(11)
O12 O 0.50162(19) -0.0038(4) 0.30325(11)
C7 C 0.63805(13) 0.2488(3) 0.30065(8)
N9 N 0.66729(13) 0.0945(3) 0.27112(8)
O13 O 0.70423(12) 0.1451(3) 0.23799(7)
O14 O 0.6526(2) -0.0711(3) 0.28061(11)
N10 N 0.67833(11) 0.4143(3) 0.30689(7)
H1 H 0.72240 0.43600 0.29470
N11 N 0.64260(11) 0.5431(3) 0.33422(7)
O15? O 0.2868(4) 0.6896(11) 0.4032(7)
O16? O 0.3311(6) 0.9747(9) 0.4009(7)
#END
