
#######################################################################
#
#                 Cambridge Crystallographic Data Centre
#                                CCDC
#
#######################################################################
#
# If this CIF has been generated from an entry in the Cambridge
# Structural Database, then it will include bibliographic, chemical,
# crystal, experimental, refinement or atomic coordinate data resulting
# from the CCDC's data processing and validation procedures.
#
#######################################################################

data_CSD_CIF_PERYTN12
_audit_creation_date 2007-03-05
_audit_creation_method CSD-ConQuest-V1
_database_code_CSD PERYTN12
_database_code_depnum_ccdc_archive 'CCDC 632960'
_chemical_formula_sum 'C5 H8 N4 O12'
_chemical_formula_moiety
;
C5 H8 N4 O12
;
_journal_coden_Cambridge 4
_journal_volume 128
_journal_year 2006
_journal_page_first 14728
_journal_name_full 'J.Am.Chem.Soc. '
loop_
_publ_author_name
"E.A.Zhurova"
"A.I.Stash"
"V.G.Tsirelson"
"V.V.Zhurov"
"E.V.Bartashevich"
"V.A.Potemkin"
"A.A.Pinkerton"
_chemical_name_systematic
;
Pentaerythritol tetranitrate
;
_cell_volume    568.972
_exptl_crystal_colour 'colorless'
_exptl_crystal_density_diffrn 1.845
_exptl_special_details
;
polymorph i

;
_exptl_crystal_description 'prism'
_diffrn_ambient_temperature 100
_refine_special_details
;
multipole refinement

;
#These two values have been output from a single CSD field.
_refine_ls_R_factor_gt 0.0104
_refine_ls_wR_factor_gt 0.0104
_symmetry_cell_setting tetragonal
_symmetry_space_group_name_H-M 'P -4 21 c'
_symmetry_Int_Tables_number 114
loop_
_symmetry_equiv_pos_site_id
_symmetry_equiv_pos_as_xyz
1 x,y,z
2 -x,-y,z
3 y,-x,-z
4 -y,x,-z
5 1/2-x,1/2+y,1/2-z
6 1/2+x,1/2-y,1/2-z
7 1/2-y,1/2-x,1/2+z
8 1/2+y,1/2+x,1/2+z
_cell_length_a 9.2759(8)
_cell_length_b 9.2759(8)
_cell_length_c 6.6127(4)
_cell_angle_alpha 90
_cell_angle_beta 90
_cell_angle_gamma 90
_cell_formula_units_Z 2
loop_
_atom_type_symbol
_atom_type_radius_bond
C 0.68
H 0.23
N 0.68
O 0.68
loop_
_atom_site_label
_atom_site_type_symbol
_atom_site_fract_x
_atom_site_fract_y
_atom_site_fract_z
C1 C 0.00000 0.00000 0.00000
C2 C -0.06143(1) 0.12308(1) 0.12875(2)
O1 O -0.08876(2) 0.35546(2) 0.33051(3)
O2 O 0.10863(2) 0.31930(2) 0.50181(2)
O3 O 0.04968(1) 0.16253(1) 0.27230(2)
N1 N 0.01868(1) 0.29075(1) 0.37614(2)
H1 H -0.08905 0.21506 0.03322
H2 H -0.15847 0.08769 0.20796
C2A C 0.06143(1) -0.12308(1) 0.12875(2)
C2B C 0.12308(1) 0.06143(1) -0.12875(2)
C2C C -0.12308(1) -0.06143(1) -0.12875(2)
O1A O 0.08876(2) -0.35546(2) 0.33051(3)
O1B O 0.35546(2) 0.08876(2) -0.33051(3)
O1C O -0.35546(2) -0.08876(2) -0.33051(3)
O2A O -0.10863(2) -0.31930(2) 0.50181(2)
O2B O 0.31930(2) -0.10863(2) -0.50181(2)
O2C O -0.31930(2) 0.10863(2) -0.50181(2)
O3A O -0.04968(1) -0.16253(1) 0.27230(2)
O3B O 0.16253(1) -0.04968(1) -0.27230(2)
O3C O -0.16253(1) 0.04968(1) -0.27230(2)
N1A N -0.01868(1) -0.29075(1) 0.37614(2)
N1B N 0.29075(1) -0.01868(1) -0.37614(2)
N1C N -0.29075(1) 0.01868(1) -0.37614(2)
H1A H 0.08905 -0.21506 0.03322
H1B H 0.21506 0.08905 -0.03322
H1C H -0.21506 -0.08905 -0.03322
H2A H 0.15847 -0.08769 0.20796
H2B H 0.08769 0.15847 -0.20796
H2C H -0.08769 -0.15847 -0.20796
#END
