
#######################################################################
#
#                 Cambridge Crystallographic Data Centre
#                                CCDC
#
#######################################################################
#
# If this CIF has been generated from an entry in the Cambridge
# Structural Database, then it will include bibliographic, chemical,
# crystal, experimental, refinement or atomic coordinate data resulting
# from the CCDC's data processing and validation procedures.
#
#######################################################################

data_CSD_CIF_PESCIB
_audit_creation_date 2013-05-19
_audit_creation_method CSD-ConQuest-V1
_database_code_CSD PESCIB
_database_code_depnum_ccdc_archive 'CCDC 907818'
_chemical_formula_sum 'C16 H30 N2 O6'
_chemical_formula_moiety
;
C16 H30 N2 O6
;
_journal_coden_Cambridge 177
_journal_volume 11
_journal_year 2013
_journal_page_first 803
_journal_name_full 'Org.Biomol.Chem. '
loop_
_publ_author_name
"M.G.Kumar"
"S.M.Mali"
"H.N.Gopi"
_chemical_name_systematic
;
Ethyl 4-((t-butoxycarbonyl)amino)-6-methyl-3-(nitromethyl)heptanoate
;
_cell_volume   1928.018
_exptl_crystal_colour 'colorless'
_exptl_crystal_density_diffrn 1.193
_exptl_crystal_description 'thin rod'
_diffrn_ambient_temperature 100
#These two values have been output from a single CSD field.
_refine_ls_R_factor_gt 0.0931
_refine_ls_wR_factor_gt 0.0931
_symmetry_cell_setting orthorhombic
_symmetry_space_group_name_H-M 'P 21 21 2'
_symmetry_Int_Tables_number 18
loop_
_symmetry_equiv_pos_site_id
_symmetry_equiv_pos_as_xyz
1 x,y,z
2 -x,-y,z
3 1/2-x,1/2+y,-z
4 1/2+x,1/2-y,-z
_cell_length_a 11.306(6)
_cell_length_b 31.857(16)
_cell_length_c 5.353(3)
_cell_angle_alpha 90
_cell_angle_beta 90
_cell_angle_gamma 90
_cell_formula_units_Z 4
loop_
_atom_type_symbol
_atom_type_radius_bond
C 0.68
H 0.23
N 0.68
O 0.68
loop_
_atom_site_label
_atom_site_type_symbol
_atom_site_fract_x
_atom_site_fract_y
_atom_site_fract_z
O1 O 0.2206(4) 0.22852(9) 0.5784(5)
O2 O 0.2092(3) 0.17427(9) 0.3052(5)
O3 O -0.1488(4) 0.13189(11) 0.9800(7)
O4 O -0.1998(4) 0.09223(12) 0.6737(8)
O5 O 0.1006(3) 0.05249(9) 1.2682(6)
O6 O 0.1635(4) -0.00050(9) 1.0287(6)
N1 N 0.2125(4) 0.16449(10) 0.7273(6)
H1 H 0.21590 0.17710 0.86930
N2 N -0.1290(5) 0.11553(12) 0.7796(9)
C1 C 0.2231(5) 0.26122(13) 0.3831(8)
C2 C 0.3342(4) 0.25696(15) 0.2261(10)
H2 H 0.40210 0.25580 0.33360
H3 H 0.34090 0.28070 0.11670
H4 H 0.32980 0.23170 0.12880
C3 C 0.2296(8) 0.30101(15) 0.5422(11)
H5 H 0.16490 0.30130 0.65820
H6 H 0.22500 0.32520 0.43590
H7 H 0.30300 0.30140 0.63230
C4 C 0.1125(5) 0.26054(16) 0.2277(10)
H8 H 0.10770 0.23440 0.13910
H9 H 0.11440 0.28330 0.11030
H10 H 0.04480 0.26350 0.33440
C5 C 0.2127(5) 0.18803(12) 0.5178(8)
C6 C 0.2067(5) 0.11887(12) 0.7250(8)
H11 H 0.21510 0.10950 0.55150
C7 C 0.3093(6) 0.10069(17) 0.8736(10)
H12 H 0.30910 0.07040 0.85310
H13 H 0.29630 0.10660 1.04920
C8 C 0.4367(8) 0.1181(4) 0.7971(15)
H14 H 0.45870 0.14500 0.87290
C9 C 0.4751(11) 0.1123(4) 0.546(2)
H15 H 0.55950 0.10910 0.54270
H16 H 0.45300 0.13630 0.44800
H17 H 0.43860 0.08760 0.47790
C10 C 0.5096(13) 0.0780(5) 0.896(3)
H18 H 0.54170 0.06290 0.75660
H19 H 0.45770 0.05990 0.98890
H20 H 0.57290 0.08730 1.00250
C11 C 0.0855(5) 0.10437(13) 0.8191(8)
H21 H 0.07560 0.11490 0.98970
C12 C -0.0118(5) 0.12284(15) 0.6610(9)
H22 H 0.00110 0.15280 0.64110
H23 H -0.01060 0.11010 0.49660
C13 C 0.0735(6) 0.05646(13) 0.8272(8)
H24 H -0.00900 0.04910 0.80210
H25 H 0.11830 0.04460 0.68980
C14 C 0.1152(5) 0.03694(13) 1.0661(8)
C15 C 0.1986(5) -0.02382(13) 1.2530(9)
H26 H 0.20490 -0.05350 1.21410
H27 H 0.13890 -0.02040 1.38170
C16 C 0.3151(6) -0.00787(16) 1.3464(12)
H28 H 0.37370 -0.01090 1.21790
H29 H 0.33860 -0.02370 1.49070
H30 H 0.30780 0.02120 1.39050
#END
