
#######################################################################
#
#                 Cambridge Crystallographic Data Centre
#                                CCDC
#
#######################################################################
#
# If this CIF has been generated from an entry in the Cambridge
# Structural Database, then it will include bibliographic, chemical,
# crystal, experimental, refinement or atomic coordinate data resulting
# from the CCDC's data processing and validation procedures.
#
#######################################################################

data_CSD_CIF_PESFOJ
_audit_creation_date 2007-01-23
_audit_creation_method CSD-ConQuest-V1
_database_code_CSD PESFOJ
_database_code_depnum_ccdc_archive 'CCDC 627776'
_chemical_formula_sum 'C21 H18 N4 O5'
_chemical_formula_moiety
;
C21 H18 N4 O5
;
_journal_coeditor_code "IUCr HB2171"
_journal_coden_Cambridge 1370
_journal_volume 62
_journal_year 2006
_journal_page_first o5209
_journal_name_full 'Acta Crystallogr.,Sect.E:Struct.Rep.Online '
loop_
_publ_author_name
"Chun-Hua Diao"
"Ming Yu"
_chemical_name_systematic
;
(E)-N'-(3-Methoxy-4-(4-nitrobenzyloxy)benzylidene)isonicotinohydrazide
;
_cell_volume   3745.691
_exptl_crystal_colour 'yellow'
_exptl_crystal_density_diffrn 1.441
_exptl_crystal_description 'block'
_exptl_crystal_preparation 'acetonitrile'
_diffrn_ambient_temperature 294
#These two values have been output from a single CSD field.
_refine_ls_R_factor_gt 0.054
_refine_ls_wR_factor_gt 0.054
_symmetry_cell_setting orthorhombic
_symmetry_space_group_name_H-M 'P c c n'
_symmetry_Int_Tables_number 56
loop_
_symmetry_equiv_pos_site_id
_symmetry_equiv_pos_as_xyz
1 x,y,z
2 1/2-x,1/2-y,z
3 -x,1/2+y,1/2-z
4 1/2+x,-y,1/2-z
5 -x,-y,-z
6 -1/2+x,-1/2+y,-z
7 x,-1/2-y,-1/2+z
8 -1/2-x,y,-1/2+z
_cell_length_a 23.601(5)
_cell_length_b 10.798(2)
_cell_length_c 14.698(3)
_cell_angle_alpha 90
_cell_angle_beta 90
_cell_angle_gamma 90
_cell_formula_units_Z 8
loop_
_atom_type_symbol
_atom_type_radius_bond
C 0.68
H 0.23
N 0.68
O 0.68
loop_
_atom_site_label
_atom_site_type_symbol
_atom_site_fract_x
_atom_site_fract_y
_atom_site_fract_z
O1 O 0.69036(16) 0.3291(3) 0.3731(2)
O2 O 0.65600(14) 0.1733(3) 0.4462(2)
O3 O 0.68958(10) 0.65139(19) 0.75532(14)
O4 O 0.63779(10) 0.8444(2) 0.70253(14)
O5 O 0.51482(11) 1.2758(2) 0.96599(14)
N1 N 0.67874(15) 0.2737(4) 0.4437(3)
N2 N 0.56503(11) 1.0557(2) 0.99432(16)
N3 N 0.54292(10) 1.1265(2) 1.06424(15)
H1 H 0.54410 1.10060 1.11950
N4 N 0.46182(12) 1.4733(2) 1.26035(17)
C1 C 0.73066(13) 0.5052(3) 0.6085(2)
H2 H 0.75130 0.57860 0.60840
C2 C 0.72127(15) 0.4451(3) 0.5287(2)
H3 H 0.73440 0.47770 0.47410
C3 C 0.69213(14) 0.3359(3) 0.5303(2)
C4 C 0.67278(15) 0.2841(3) 0.6099(3)
H4 H 0.65400 0.20840 0.60990
C5 C 0.68206(14) 0.3478(3) 0.6895(2)
H5 H 0.66920 0.31490 0.74410
C6 C 0.71013(14) 0.4596(3) 0.6896(2)
C7 C 0.71411(16) 0.5339(3) 0.7754(2)
H6 H 0.69350 0.49350 0.82420
H7 H 0.75340 0.54350 0.79370
C8 C 0.66810(13) 0.7216(3) 0.8238(2)
C9 C 0.67299(14) 0.6977(3) 0.9152(2)
H8 H 0.69350 0.62930 0.93500
C10 C 0.64731(14) 0.7755(3) 0.9782(2)
H9 H 0.65100 0.75900 1.04000
C11 C 0.61659(13) 0.8763(3) 0.95033(18)
C12 C 0.61295(13) 0.9025(3) 0.85764(18)
H10 H 0.59320 0.97220 0.83830
C13 C 0.63828(13) 0.8266(3) 0.7947(2)
C14 C 0.60668(19) 0.9466(4) 0.6692(2)
H11 H 0.56710 0.93460 0.68170
H12 H 0.61230 0.95380 0.60470
H13 H 0.61950 1.02090 0.69860
C15 C 0.59057(13) 0.9568(3) 1.0179(2)
H14 H 0.59260 0.93570 1.07910
C16 C 0.51950(14) 1.2372(3) 1.0438(2)
C17 C 0.49899(13) 1.3137(3) 1.12230(18)
C18 C 0.51209(14) 1.2923(3) 1.21246(19)
H15 H 0.53360 1.22360 1.22870
C19 C 0.49303(15) 1.3732(3) 1.27835(19)
H16 H 0.50250 1.35720 1.33860
C20 C 0.44930(13) 1.4923(3) 1.1732(2)
H17 H 0.42730 1.56110 1.15860
C21 C 0.46678(13) 1.4168(3) 1.1034(2)
H18 H 0.45690 1.43530 1.04370
#END
