
#######################################################################
#
#                 Cambridge Crystallographic Data Centre
#                                CCDC
#
#######################################################################
#
# If this CIF has been generated from an entry in the Cambridge
# Structural Database, then it will include bibliographic, chemical,
# crystal, experimental, refinement or atomic coordinate data resulting
# from the CCDC's data processing and validation procedures.
#
#######################################################################

data_CSD_CIF_PESJIH
_audit_creation_date 2007-01-23
_audit_creation_method CSD-ConQuest-V1
_database_code_CSD PESJIH
_database_code_depnum_ccdc_archive 'CCDC 627790'
_chemical_formula_sum 'C8 H9 N3 O2'
_chemical_formula_moiety
;
C8 H9 N3 O2
;
_journal_coeditor_code "IUCr HG2121"
_journal_coden_Cambridge 1370
_journal_volume 62
_journal_year 2006
_journal_page_first o5305
_journal_name_full 'Acta Crystallogr.,Sect.E:Struct.Rep.Online '
loop_
_publ_author_name
"Jun Xu"
_chemical_name_systematic
;
Acetaldehyde 4-nitrophenylhydrazone
;
_cell_volume    884.484
_exptl_crystal_colour 'yellow'
_exptl_crystal_density_diffrn 1.346
_exptl_crystal_description 'block'
_exptl_crystal_preparation 'methanol'
_diffrn_ambient_temperature 291
#These two values have been output from a single CSD field.
_refine_ls_R_factor_gt 0.0602
_refine_ls_wR_factor_gt 0.0602
_symmetry_cell_setting monoclinic
_symmetry_space_group_name_H-M 'P 21/c'
_symmetry_Int_Tables_number 14
loop_
_symmetry_equiv_pos_site_id
_symmetry_equiv_pos_as_xyz
1 x,y,z
2 -x,1/2+y,1/2-z
3 -x,-y,-z
4 x,-1/2-y,-1/2+z
_cell_length_a 4.372(2)
_cell_length_b 17.780(3)
_cell_length_c 11.465(3)
_cell_angle_alpha 90
_cell_angle_beta 97.050(3)
_cell_angle_gamma 90
_cell_formula_units_Z 4
loop_
_atom_type_symbol
_atom_type_radius_bond
C 0.68
H 0.23
N 0.68
O 0.68
loop_
_atom_site_label
_atom_site_type_symbol
_atom_site_fract_x
_atom_site_fract_y
_atom_site_fract_z
C1 C 0.7518(7) 0.86340(16) 0.6567(3)
C2 C 0.8136(8) 0.78728(18) 0.6600(3)
H1 H 0.73990 0.75770 0.71740
C3 C 0.9782(7) 0.75499(16) 0.5820(2)
H2 H 1.01970 0.70370 0.58570
C4 C 1.0843(6) 0.79859(17) 0.4969(3)
C5 C 1.0243(8) 0.87240(18) 0.4911(3)
H3 H 1.09690 0.90110 0.43240
C6 C 0.8578(7) 0.90640(18) 0.5701(3)
H4 H 0.81700 0.95770 0.56540
C7 C 0.3538(8) 0.98838(19) 0.8178(3)
H5 H 0.27410 0.95180 0.86350
C8 C 0.2800(7) 1.06647(17) 0.8323(3)
H6 H 0.36920 1.09600 0.77510
H7 H 0.36130 1.08260 0.90990
H8 H 0.06030 1.07280 0.82170
N1 N 0.5872(5) 0.89370(14) 0.7382(2)
H9 H 0.51650 0.86500 0.78900
N2 N 0.5331(6) 0.96946(15) 0.7400(2)
N3 N 1.2595(6) 0.76486(15) 0.4148(2)
O1 O 1.3091(5) 0.69618(12) 0.42246(17)
O2 O 1.3561(5) 0.80290(11) 0.34011(18)
#END
