
#######################################################################
#
#                 Cambridge Crystallographic Data Centre
#                                CCDC
#
#######################################################################
#
# If this CIF has been generated from an entry in the Cambridge
# Structural Database, then it will include bibliographic, chemical,
# crystal, experimental, refinement or atomic coordinate data resulting
# from the CCDC's data processing and validation procedures.
#
#######################################################################

data_CSD_CIF_PESPUY
_audit_creation_date 1998-11-13
_audit_creation_method CSD-ConQuest-V1
_database_code_CSD PESPUY
_chemical_formula_sum 'C23 H24 N2 O2'
_chemical_formula_moiety
;
C23 H24 N2 O2
;
_journal_coden_Cambridge 1088
_journal_year 1997
_journal_page_first 777
_journal_name_full 'Synlett '
loop_
_publ_author_name
"I.A.O'Neil"
"C.D.Turner"
"S.B.Kalindjian"
_chemical_name_systematic
;
1-(N-(3-Pyridylmethyl)pyrrolidinium)-1,1-diphenylmethanol N-oxide
;
_cell_volume   1896.305
_exptl_crystal_colour 'colorless'
_exptl_crystal_density_diffrn 1.263
_exptl_crystal_description 'prism'
_diffrn_ambient_temperature 153.15
#These two values have been output from a single CSD field.
_refine_ls_R_factor_gt 0.064
_refine_ls_wR_factor_gt 0.064
_symmetry_cell_setting orthorhombic
_symmetry_space_group_name_H-M 'P 21 21 21'
_symmetry_Int_Tables_number 19
loop_
_symmetry_equiv_pos_site_id
_symmetry_equiv_pos_as_xyz
1 x,y,z
2 1/2-x,-y,1/2+z
3 1/2+x,1/2-y,-z
4 -x,1/2+y,1/2-z
_cell_length_a 10.46(1)
_cell_length_b 18.111(7)
_cell_length_c 10.010(9)
_cell_angle_alpha 90
_cell_angle_beta 90
_cell_angle_gamma 90
_cell_formula_units_Z 4
loop_
_atom_type_symbol
_atom_type_radius_bond
C 0.68
H 0.21
N 0.68
O 0.63
loop_
_atom_site_label
_atom_site_type_symbol
_atom_site_fract_x
_atom_site_fract_y
_atom_site_fract_z
O1 O 0.2961(6) 0.9428(3) 0.1199(6)
O2 O 0.0729(6) 0.9854(4) 0.0945(6)
N1 N 0.3029(7) 0.9611(4) 0.2557(7)
N2 N 0.5487(8) 0.7619(5) 0.1537(9)
C1 C 0.1807(8) 1.0017(5) 0.305(1)
C2 C 0.2078(9) 1.0834(5) 0.282(1)
C3 C 0.3460(9) 1.0884(5) 0.227(1)
C4 C 0.4060(8) 1.0178(5) 0.2735(9)
C5 C 0.3317(8) 0.8917(5) 0.336(1)
C6 C 0.452(1) 0.8541(5) 0.293(1)
C7 C 0.567(1) 0.8705(6) 0.351(1)
C8 C 0.675(1) 0.8313(6) 0.305(1)
C9 C 0.661(1) 0.7796(6) 0.212(1)
C10 C 0.446(1) 0.8003(5) 0.196(1)
C11 C 0.058(1) 0.9735(5) 0.2349(8)
C12 C -0.0577(9) 1.0194(5) 0.2777(9)
C13 C -0.069(1) 1.0496(5) 0.407(1)
C14 C -0.179(1) 1.0881(5) 0.444(1)
C15 C -0.279(1) 1.0986(6) 0.352(1)
C16 C -0.2649(9) 1.0724(5) 0.225(1)
C17 C -0.1577(9) 1.0303(5) 0.188(1)
C18 C 0.0324(8) 0.8927(5) 0.2677(9)
C19 C 0.0104(9) 0.8704(5) 0.399(1)
C20 C 0.0029(9) 0.7968(5) 0.433(1)
C21 C 0.014(1) 0.7446(6) 0.336(1)
C22 C 0.028(1) 0.7640(6) 0.207(1)
C23 C 0.0390(9) 0.8387(5) 0.171(1)
H1 H 0.16380 0.98250 0.40720
H2 H 0.20120 1.11450 0.37080
H3 H 0.17190 1.12370 0.21000
H4 H 0.38950 1.13150 0.25360
H5 H 0.34280 1.09140 0.12570
H6 H 0.47250 1.00480 0.20410
H7 H 0.43490 1.02480 0.36790
H8 H 0.25710 0.85750 0.33190
H9 H 0.33740 0.90680 0.42500
H10 H 0.56710 0.90260 0.42590
H11 H 0.77360 0.84700 0.33540
H12 H 0.72210 0.73680 0.14460
H13 H 0.36510 0.78890 0.15700
H14 H -0.00820 1.05600 0.46710
H15 H -0.18130 1.11390 0.54950
H16 H -0.37590 1.12920 0.36320
H17 H -0.34230 1.03630 0.16580
H18 H -0.14970 1.01270 0.09820
H19 H 0.00750 0.91130 0.45720
H20 H -0.01050 0.78240 0.52300
H21 H 0.01330 0.69380 0.35920
H22 H 0.02960 0.72700 0.13980
H23 H 0.05900 0.85910 0.07450
H24 H 0.18310 0.96060 0.09700
#END
