
#######################################################################
#
#                 Cambridge Crystallographic Data Centre
#                                CCDC
#
#######################################################################
#
# If this CIF has been generated from an entry in the Cambridge
# Structural Database, then it will include bibliographic, chemical,
# crystal, experimental, refinement or atomic coordinate data resulting
# from the CCDC's data processing and validation procedures.
#
#######################################################################

data_CSD_CIF_PESWAN
_audit_creation_date 2013-05-19
_audit_creation_method CSD-ConQuest-V1
_database_code_CSD PESWAN
_database_code_depnum_ccdc_archive 'CCDC 907266'
_chemical_formula_sum 'C18 H15 N1 O5'
_chemical_formula_moiety
;
C18 H15 N1 O5
;
_journal_coden_Cambridge 16
_journal_volume 69
_journal_year 2013
_journal_page_first 1532
_journal_name_full 'Tetrahedron '
loop_
_publ_author_name
"Meng-Yang Chang"
"Chieh-Kai Chan"
"Shin-Ying Lin"
_chemical_name_systematic
;
7-Methoxy-8-((4-nitrobenzyl)oxy)-2-naphthol
;
_cell_volume   1471.370
_exptl_crystal_colour 'colorless'
_exptl_crystal_density_diffrn 1.469
_exptl_crystal_description 'tabular'
_diffrn_ambient_temperature 100
#These two values have been output from a single CSD field.
_refine_ls_R_factor_gt 0.0361
_refine_ls_wR_factor_gt 0.0361
_symmetry_cell_setting monoclinic
_symmetry_space_group_name_H-M 'P 21/c'
_symmetry_Int_Tables_number 14
loop_
_symmetry_equiv_pos_site_id
_symmetry_equiv_pos_as_xyz
1 x,y,z
2 -x,1/2+y,1/2-z
3 -x,-y,-z
4 x,-1/2-y,-1/2+z
_cell_length_a 8.6976(7)
_cell_length_b 22.816(2)
_cell_length_c 7.4313(6)
_cell_angle_alpha 90
_cell_angle_beta 93.851(3)
_cell_angle_gamma 90
_cell_formula_units_Z 4
loop_
_atom_type_symbol
_atom_type_radius_bond
C 0.68
H 0.23
N 0.68
O 0.68
loop_
_atom_site_label
_atom_site_type_symbol
_atom_site_fract_x
_atom_site_fract_y
_atom_site_fract_z
C1 C 0.51425(18) 0.35290(7) 0.3883(2)
C2 C 0.66795(18) 0.35677(7) 0.4423(2)
H1 H 0.73900 0.37140 0.36160
C3 C 0.72081(18) 0.33886(6) 0.6190(2)
C4 C 0.87864(17) 0.34099(7) 0.6810(2)
C5 C 1.06858(18) 0.41161(7) 0.6203(2)
H2 H 1.15160 0.40020 0.71110
H3 H 0.99950 0.43940 0.67760
C6 C 1.13737(17) 0.44072(7) 0.4630(2)
C7 C 1.26144(18) 0.47856(7) 0.4993(2)
H4 H 1.30240 0.48350 0.62010
C8 C 1.32583(18) 0.50907(7) 0.3621(2)
H5 H 1.40990 0.53510 0.38710
C9 C 1.26430(17) 0.50062(7) 0.1874(2)
C10 C 0.40629(18) 0.33092(7) 0.5062(2)
H6 H 0.30040 0.32820 0.46660
C11 C 0.45466(18) 0.31371(7) 0.6765(2)
H7 H 0.38150 0.29930 0.75500
C12 C 0.61259(18) 0.31691(7) 0.7385(2)
C13 C 0.66512(19) 0.29866(7) 0.9132(2)
H8 H 0.59270 0.28480 0.99350
C14 C 0.81819(19) 0.30047(7) 0.9697(2)
H9 H 0.85110 0.28800 1.08810
C15 C 0.92735(18) 0.32095(7) 0.8514(2)
C16 C 1.13727(19) 0.29226(8) 1.0584(2)
H10 H 1.09350 0.31090 1.16220
H11 H 1.25000 0.29460 1.07220
H12 H 1.10550 0.25110 1.05190
C17 C 1.14266(18) 0.46267(7) 0.1453(2)
H13 H 1.10380 0.45720 0.02390
C18 C 1.07921(17) 0.43288(7) 0.2854(2)
H14 H 0.99530 0.40690 0.25980
N1 N 1.32888(16) 0.53424(6) 0.04285(18)
O1 O 0.45266(13) 0.36928(5) 0.22181(15)
H15 H 0.52240 0.38310 0.16140
O2 O 0.98299(12) 0.36050(5) 0.56040(14)
O3 O 1.08289(13) 0.32183(5) 0.89611(15)
O4 O 1.45292(14) 0.55951(5) 0.07513(16)
O5 O 1.25545(15) 0.53693(6) -0.10441(16)
#END
