
#######################################################################
#
#                 Cambridge Crystallographic Data Centre
#                                CCDC
#
#######################################################################
#
# If this CIF has been generated from an entry in the Cambridge
# Structural Database, then it will include bibliographic, chemical,
# crystal, experimental, refinement or atomic coordinate data resulting
# from the CCDC's data processing and validation procedures.
#
#######################################################################

data_CSD_CIF_PEVNUA
_audit_creation_date 2007-04-17
_audit_creation_method CSD-ConQuest-V1
_database_code_CSD PEVNUA
_database_code_depnum_ccdc_archive 'CCDC 614146'
_chemical_formula_sum 'C24 H29 N1 O5'
_chemical_formula_moiety
;
C24 H29 N1 O5
;
_journal_coden_Cambridge 1336
_journal_volume 9
_journal_year 2007
_journal_page_first 207
_journal_name_full 'Org.Lett. '
loop_
_publ_author_name
"T.K.M.Shing"
"Wai F.Wong"
"T.Ikeno"
"T.Yamada"
_chemical_name_systematic
;
11-Benzyl-2-benzyloxy-5,5-dimethyl-4,6,10-trioxa-11-azatricyclo(7.2.1.0^3,7^)d
odecan-8-ol
;
_cell_volume   2201.971
_exptl_crystal_colour 'colorless'
_exptl_crystal_density_diffrn 1.241
_exptl_crystal_description 'Block'
_diffrn_ambient_temperature 293
#These two values have been output from a single CSD field.
_refine_ls_R_factor_gt 0.0545
_refine_ls_wR_factor_gt 0.0545
_symmetry_cell_setting orthorhombic
_symmetry_space_group_name_H-M 'P 21 21 21'
_symmetry_Int_Tables_number 19
loop_
_symmetry_equiv_pos_site_id
_symmetry_equiv_pos_as_xyz
1 x,y,z
2 1/2-x,-y,1/2+z
3 -x,1/2+y,1/2-z
4 1/2+x,1/2-y,-z
_cell_length_a 9.6762(10)
_cell_length_b 11.9288(13)
_cell_length_c 19.077(2)
_cell_angle_alpha 90
_cell_angle_beta 90
_cell_angle_gamma 90
_cell_formula_units_Z 4
loop_
_atom_type_symbol
_atom_type_radius_bond
C 0.68
H 0.23
N 0.68
O 0.68
loop_
_atom_site_label
_atom_site_type_symbol
_atom_site_fract_x
_atom_site_fract_y
_atom_site_fract_z
N1 N 0.0242(4) 0.3651(3) 0.3628(2)
O1 O 0.2220(4) 0.2838(3) 0.16843(15)
O2 O 0.1544(4) 0.4521(3) 0.12168(15)
O3 O 0.1189(4) 0.6589(3) 0.20633(17)
H1 H 0.05390 0.70110 0.19830
O4 O 0.2167(3) 0.2070(2) 0.30835(16)
O5 O -0.0444(4) 0.4480(3) 0.31735(17)
C1 C 0.1956(5) 0.3406(4) 0.1039(2)
C2 C 0.0763(6) 0.2855(5) 0.0668(3)
H2 H -0.00440 0.28890 0.09600
H3 H 0.09880 0.20860 0.05730
H4 H 0.05860 0.32380 0.02350
C3 C 0.3280(6) 0.3420(5) 0.0621(3)
H5 H 0.39840 0.38030 0.08820
H6 H 0.31280 0.38010 0.01840
H7 H 0.35700 0.26640 0.05300
C4 C 0.1558(5) 0.3468(3) 0.2232(2)
H8 H 0.05790 0.32650 0.22670
C5 C 0.1717(5) 0.4666(4) 0.1961(2)
H9 H 0.26530 0.49370 0.20600
C6 C 0.0674(5) 0.5498(4) 0.2230(2)
H10 H -0.02150 0.53780 0.19950
C7 C 0.0483(6) 0.5422(4) 0.3026(2)
H11 H 0.00650 0.61180 0.31980
C8 C 0.1778(6) 0.5173(4) 0.3445(2)
H12 H 0.17610 0.55490 0.38950
H13 H 0.26020 0.53980 0.31910
C9 C 0.1717(6) 0.3892(4) 0.3533(2)
H14 H 0.22190 0.36800 0.39590
C10 C 0.2294(5) 0.3233(4) 0.2912(2)
H15 H 0.32750 0.34150 0.28570
C11 C 0.3327(8) 0.1406(6) 0.2908(5)
H16 H 0.41650 0.17800 0.30590
H17 H 0.33720 0.13120 0.24030
C12 C 0.3227(6) 0.0291(5) 0.3250(4)
C13 C 0.3446(8) -0.0699(8) 0.2853(3)
H18 H 0.36720 -0.06590 0.23800
C14 C 0.3314(8) -0.1747(5) 0.3191(4)
H19 H 0.34340 -0.24150 0.29470
C15 C 0.3015(7) -0.1747(6) 0.3866(4)
H20 H 0.29570 -0.24350 0.40930
C16 C 0.2798(8) -0.0851(6) 0.4231(4)
H21 H 0.25740 -0.09040 0.47040
C17 C 0.2898(6) 0.0139(6) 0.3927(4)
H22 H 0.27290 0.07720 0.41990
C18 C -0.0242(7) 0.3876(5) 0.4348(3)
H23 H -0.12390 0.39630 0.43450
H24 H 0.01590 0.45730 0.45120
C19 C 0.0143(6) 0.2950(5) 0.4839(3)
C20 C -0.0300(6) 0.1857(5) 0.4725(3)
H25 H -0.08080 0.16960 0.43240
C21 C -0.0004(7) 0.0999(6) 0.5194(3)
H26 H -0.03140 0.02730 0.51100
C22 C 0.0741(7) 0.1237(6) 0.5773(3)
H27 H 0.09310 0.06670 0.60910
C23 C 0.1223(8) 0.2290(7) 0.5906(3)
H28 H 0.17340 0.24350 0.63090
C24 C 0.0941(6) 0.3143(6) 0.5432(3)
H29 H 0.12930 0.38570 0.55130
#END
