
#######################################################################
#
#                 Cambridge Crystallographic Data Centre
#                                CCDC
#
#######################################################################
#
# If this CIF has been generated from an entry in the Cambridge
# Structural Database, then it will include bibliographic, chemical,
# crystal, experimental, refinement or atomic coordinate data resulting
# from the CCDC's data processing and validation procedures.
#
#######################################################################

data_CSD_CIF_PEVNOV
_audit_creation_date 2013-05-19
_audit_creation_method CSD-ConQuest-V1
_database_code_CSD PEVNOV
_database_code_depnum_ccdc_archive 'CCDC 906551'
_chemical_formula_sum 'C19 H17 N1 O5'
_chemical_formula_moiety
;
C19 H17 N1 O5
;
_journal_coden_Cambridge 1336
_journal_volume 14
_journal_year 2012
_journal_page_first 6060
_journal_name_full 'Org.Lett. '
loop_
_publ_author_name
"Jun-gang Wang"
"Meng Wang"
"Jia-chen Xiang"
"Yan-ping Zhu"
"Wei-jian Xue"
"An-xin Wu"
_chemical_name_systematic
;
Ethyl 2-(4-nitrobenzoyl)indane-2-carboxylate
;
_cell_volume   1643.632
_exptl_crystal_colour 'colorless'
_exptl_crystal_density_diffrn 1.371
_exptl_crystal_description 'block'
_diffrn_ambient_temperature 298
#These two values have been output from a single CSD field.
_refine_ls_R_factor_gt 0.0618
_refine_ls_wR_factor_gt 0.0618
_symmetry_cell_setting monoclinic
_symmetry_space_group_name_H-M 'P 21/c'
_symmetry_Int_Tables_number 14
loop_
_symmetry_equiv_pos_site_id
_symmetry_equiv_pos_as_xyz
1 x,y,z
2 -x,1/2+y,1/2-z
3 -x,-y,-z
4 x,-1/2-y,-1/2+z
_cell_length_a 8.0757(12)
_cell_length_b 6.1510(9)
_cell_length_c 33.116(5)
_cell_angle_alpha 90
_cell_angle_beta 92.330(3)
_cell_angle_gamma 90
_cell_formula_units_Z 4
loop_
_atom_type_symbol
_atom_type_radius_bond
C 0.68
H 0.23
N 0.68
O 0.68
loop_
_atom_site_label
_atom_site_type_symbol
_atom_site_fract_x
_atom_site_fract_y
_atom_site_fract_z
C1 C 1.2278(3) 0.4537(3) 0.20834(6)
H1 H 1.24340 0.31320 0.19880
C2 C 1.3089(3) 0.5230(4) 0.24344(7)
H2 H 1.38050 0.42920 0.25760
C3 C 1.2845(3) 0.7302(4) 0.25768(7)
H3 H 1.33820 0.77410 0.28170
C4 C 1.1818(3) 0.8731(3) 0.23685(6)
H4 H 1.16570 1.01300 0.24660
C5 C 1.1025(2) 0.8060(3) 0.20116(6)
C6 C 1.1228(2) 0.5961(3) 0.18745(6)
C7 C 1.0180(3) 0.5511(3) 0.14991(6)
H5 H 0.94310 0.43070 0.15410
H6 H 1.08670 0.51650 0.12740
C8 C 0.9195(2) 0.7655(3) 0.14167(6)
C9 C 0.9934(3) 0.9359(3) 0.17239(7)
H7 H 1.05730 1.04490 0.15870
H8 H 0.90600 1.00780 0.18660
C10 C 0.9350(2) 0.8393(3) 0.09784(6)
C11 C 0.8610(2) 0.7010(3) 0.06413(6)
C12 C 0.8669(3) 0.7833(4) 0.02511(7)
H9 H 0.91310 0.91960 0.02110
C13 C 0.8057(3) 0.6670(4) -0.00755(7)
H10 H 0.81130 0.72240 -0.03360
C14 C 0.7363(3) 0.4684(4) -0.00105(6)
C15 C 0.7259(3) 0.3819(4) 0.03704(6)
H11 H 0.67780 0.24630 0.04070
C16 C 0.7879(3) 0.4992(3) 0.06955(6)
H12 H 0.78090 0.44290 0.09550
C17 C 0.7366(3) 0.7428(3) 0.15016(6)
C18 C 0.4793(3) 0.9344(4) 0.14242(7)
H13 H 0.45940 0.94060 0.17110
H14 H 0.42090 0.80980 0.13090
C19 C 0.4213(3) 1.1380(5) 0.12208(8)
H15 H 0.47430 1.26070 0.13500
H16 H 0.30340 1.15050 0.12390
H17 H 0.44890 1.13400 0.09420
N1 N 0.6726(3) 0.3407(4) -0.03590(6)
O1 O 0.6738(2) 0.5973(3) 0.16772(5)
O2 O 0.65607(17) 0.9170(2) 0.13600(5)
O3 O 1.0065(2) 1.0047(3) 0.08969(5)
O4 O 0.6054(4) 0.1687(4) -0.02955(6)
O5 O 0.6894(3) 0.4142(4) -0.06932(6)
#END
