
#######################################################################
#
#                 Cambridge Crystallographic Data Centre
#                                CCDC
#
#######################################################################
#
# If this CIF has been generated from an entry in the Cambridge
# Structural Database, then it will include bibliographic, chemical,
# crystal, experimental, refinement or atomic coordinate data resulting
# from the CCDC's data processing and validation procedures.
#
#######################################################################

data_CSD_CIF_PEWMEJ
_audit_creation_date 1994-05-23
_audit_creation_method CSD-ConQuest-V1
_database_code_CSD PEWMEJ
_database_code_depnum_ccdc_archive 'CCDC 1231724'
_chemical_formula_sum 'C34 H30 N2 O6'
_chemical_formula_moiety
;
C34 H30 N2 O6
;
_journal_coden_Cambridge 15
_journal_volume 71
_journal_year 1993
_journal_page_first 942
_journal_name_full 'Can.J.Chem. '
loop_
_publ_author_name
"M.V.Capparelli"
"P.W.Codding"
_chemical_name_systematic
;
r-1,t-3-bis(2'-Methoxyphenyl)-c-2,t-4-bis(4'-nitro-trans-styryl)cyclobutane
;
_cell_volume   1471.001
_exptl_crystal_colour 'yellow'
_exptl_crystal_density_diffrn 1.27
_diffrn_ambient_temperature ?
_diffrn_special_details
;
The study was carried out at room temperature,in the range 283-303K

;
#These two values have been output from a single CSD field.
_refine_ls_R_factor_gt 0.0512
_refine_ls_wR_factor_gt 0.0512
_symmetry_cell_setting monoclinic
_symmetry_space_group_name_H-M 'P 21/c'
_symmetry_Int_Tables_number 14
loop_
_symmetry_equiv_pos_site_id
_symmetry_equiv_pos_as_xyz
1 x,y,z
2 -x,1/2+y,1/2-z
3 -x,-y,-z
4 x,-1/2-y,-1/2+z
_cell_length_a 11.5396(5)
_cell_length_b 16.129(1)
_cell_length_c 7.9035(3)
_cell_angle_alpha 90
_cell_angle_beta 90.264(3)
_cell_angle_gamma 90
_cell_formula_units_Z 2
loop_
_atom_type_symbol
_atom_type_radius_bond
C 0.68
H 0.23
N 0.68
O 0.68
loop_
_atom_site_label
_atom_site_type_symbol
_atom_site_fract_x
_atom_site_fract_y
_atom_site_fract_z
C1 C 0.5227(1) -0.0672(1) 0.2701(2)
C2 C 0.6171(2) -0.0624(1) 0.3821(2)
C3 C 0.6307(2) -0.1198(1) 0.5111(3)
C4 C 0.5500(2) -0.1829(1) 0.5310(3)
C5 C 0.4575(2) -0.1889(1) 0.4223(3)
C6 C 0.4451(2) -0.1315(1) 0.2920(3)
O1 O 0.6915(1) 0.0017(1) 0.3533(2)
C7 C 0.7799(3) 0.0165(2) 0.4741(4)
C8 C 0.5107(1) -0.0006(1) 0.1383(2)
C9 C 0.4044(1) 0.0000(1) 0.0161(2)
C10 C 0.3274(1) 0.0732(1) 0.0415(2)
C11 C 0.2159(1) 0.0689(1) 0.0782(2)
C12 C 0.1409(1) 0.1388(1) 0.1241(2)
C13 C 0.0244(2) 0.1247(2) 0.1603(3)
C14 C -0.0473(2) 0.1903(2) 0.2066(3)
C15 C -0.0021(2) 0.2688(1) 0.2182(3)
C16 C 0.1123(2) 0.2850(1) 0.1850(3)
C17 C 0.1827(2) 0.2200(1) 0.1389(3)
N1 N -0.0780(2) 0.3380(2) 0.2680(3)
O2 O -0.1729(2) 0.3213(2) 0.3218(4)
O3 O -0.0402(2) 0.4084(2) 0.2549(3)
H1 H 0.691(2) -0.115(2) 0.586(3)
H2 H 0.563(2) -0.228(1) 0.629(4)
H3 H 0.397(3) -0.232(2) 0.442(4)
H4 H 0.387(2) -0.136(1) 0.214(3)
H5 H 0.841(3) -0.023(2) 0.463(4)
H6 H 0.743(3) 0.021(2) 0.592(4)
H7 H 0.818(3) 0.062(2) 0.433(4)
H8 H 0.515(2) 0.054(1) 0.193(3)
H9 H 0.357(2) -0.053(1) 0.021(3)
H10 H 0.369(2) 0.125(1) 0.038(3)
H11 H 0.180(2) 0.015(2) 0.086(3)
H12 H -0.004(2) 0.069(2) 0.139(3)
H13 H -0.121(3) 0.176(2) 0.228(4)
H14 H 0.139(3) 0.342(2) 0.199(4)
H15 H 0.269(2) 0.233(1) 0.132(4)
C9B C 0.5956(1) 0.0000(1) -0.0161(2)
C8B C 0.4893(1) 0.0006(1) -0.1383(2)
C10B C 0.6726(1) -0.0732(1) -0.0415(2)
H9B H 0.643(2) 0.053(1) -0.021(3)
C1B C 0.4773(1) 0.0672(1) -0.2701(2)
H8B H 0.485(2) -0.054(1) -0.193(3)
C11B C 0.7841(1) -0.0689(1) -0.0782(2)
H10B H 0.631(2) -0.125(1) -0.038(3)
C2B C 0.3829(2) 0.0624(1) -0.3821(2)
C6B C 0.5549(2) 0.1315(1) -0.2920(3)
C12B C 0.8591(1) -0.1388(1) -0.1241(2)
H11B H 0.820(2) -0.015(2) -0.086(3)
C3B C 0.3693(2) 0.1198(1) -0.5111(3)
O1B O 0.3085(1) -0.0017(1) -0.3533(2)
C5B C 0.5425(2) 0.1889(1) -0.4223(3)
H4B H 0.613(2) 0.136(1) -0.214(3)
C13B C 0.9756(2) -0.1247(2) -0.1603(3)
C17B C 0.8173(2) -0.2200(1) -0.1389(3)
C4B C 0.4500(2) 0.1829(1) -0.5310(3)
H1B H 0.309(2) 0.115(2) -0.586(3)
C7B C 0.2201(3) -0.0165(2) -0.4741(4)
H3B H 0.603(3) 0.232(2) -0.442(4)
C14B C 1.0473(2) -0.1903(2) -0.2066(3)
H12B H 1.004(2) -0.069(2) -0.139(3)
C16B C 0.8877(2) -0.2850(1) -0.1850(3)
H15B H 0.731(2) -0.233(1) -0.132(4)
H2B H 0.437(2) 0.228(1) -0.629(4)
H5B H 0.159(3) 0.023(2) -0.463(4)
H6B H 0.257(3) -0.021(2) -0.592(4)
H7B H 0.182(3) -0.062(2) -0.433(4)
C15B C 1.0021(2) -0.2688(1) -0.2182(3)
H13B H 1.121(3) -0.176(2) -0.228(4)
H14B H 0.861(3) -0.342(2) -0.199(4)
N1B N 1.0780(2) -0.3380(2) -0.2680(3)
O2B O 1.1729(2) -0.3213(2) -0.3218(4)
O3B O 1.0402(2) -0.4084(2) -0.2549(3)
#END
