
#######################################################################
#
#                 Cambridge Crystallographic Data Centre
#                                CCDC
#
#######################################################################
#
# If this CIF has been generated from an entry in the Cambridge
# Structural Database, then it will include bibliographic, chemical,
# crystal, experimental, refinement or atomic coordinate data resulting
# from the CCDC's data processing and validation procedures.
#
#######################################################################

data_CSD_CIF_PEWMAF
_audit_creation_date 1994-05-23
_audit_creation_method CSD-ConQuest-V1
_database_code_CSD PEWMAF
_database_code_depnum_ccdc_archive 'CCDC 1231723'
_chemical_formula_sum 'C17 H15 N1 O3'
_chemical_formula_moiety
;
C17 H15 N1 O3
;
_journal_coden_Cambridge 15
_journal_volume 71
_journal_year 1993
_journal_page_first 942
_journal_name_full 'Can.J.Chem. '
loop_
_publ_author_name
"M.V.Capparelli"
"P.W.Codding"
_chemical_name_systematic
;
trans,trans-1-(2'-Methoxyphenyl)-4-(4'-nitrophenyl)-1,3-butadiene
;
_cell_volume   2768.013
_exptl_crystal_colour 'orange'
_exptl_crystal_density_diffrn 1.35
_exptl_special_details
;
Light-sensitive

;
_diffrn_ambient_temperature ?
_diffrn_special_details
;
The study was carried out at room temperature,in the range 283-303K

;
#These two values have been output from a single CSD field.
_refine_ls_R_factor_gt 0.0481
_refine_ls_wR_factor_gt 0.0481
_symmetry_cell_setting orthorhombic
_symmetry_space_group_name_H-M 'P b c a'
_symmetry_Int_Tables_number 61
loop_
_symmetry_equiv_pos_site_id
_symmetry_equiv_pos_as_xyz
1 x,y,z
2 1/2-x,-y,1/2+z
3 1/2+x,1/2-y,-z
4 -x,1/2+y,1/2-z
5 -x,-y,-z
6 -1/2+x,y,-1/2-z
7 -1/2-x,-1/2+y,z
8 x,-1/2-y,-1/2+z
_cell_length_a 7.471(1)
_cell_length_b 14.283(1)
_cell_length_c 25.940(1)
_cell_angle_alpha 90
_cell_angle_beta 90
_cell_angle_gamma 90
_cell_formula_units_Z 8
loop_
_atom_type_symbol
_atom_type_radius_bond
C 0.68
H 0.23
N 0.68
O 0.68
loop_
_atom_site_label
_atom_site_type_symbol
_atom_site_fract_x
_atom_site_fract_y
_atom_site_fract_z
C1 C 0.71494(17) -0.15266(8) 0.47166(5)
C2 C 0.80054(17) -0.15103(8) 0.42307(5)
C3 C 0.81078(18) -0.23152(9) 0.39307(5)
C4 C 0.73336(19) -0.31428(9) 0.41056(6)
C5 C 0.64306(18) -0.31666(9) 0.45723(6)
C6 C 0.63485(18) -0.23650(9) 0.48735(5)
O1 O 0.87032(15) -0.06667(6) 0.40873(4)
C7 C 0.92582(20) -0.05587(10) 0.35653(5)
C8 C 0.71218(19) -0.06786(8) 0.50290(5)
C9 C 0.64711(17) -0.05806(8) 0.55063(5)
C10 C 0.65256(17) 0.03042(8) 0.57791(5)
C11 C 0.58834(16) 0.04331(8) 0.62560(5)
C12 C 0.59632(15) 0.13044(8) 0.65475(4)
C13 C 0.53312(17) 0.13071(8) 0.70598(5)
C14 C 0.54148(18) 0.21036(9) 0.73611(5)
C15 C 0.61333(16) 0.29108(8) 0.71497(4)
C16 C 0.67446(18) 0.29466(8) 0.66422(5)
C17 C 0.66424(18) 0.21452(9) 0.63473(5)
N1 N 0.63076(16) 0.37470(7) 0.74722(4)
O2 O 0.68570(19) 0.44699(7) 0.72783(5)
O3 O 0.58730(21) 0.36840(8) 0.79284(4)
H1 H 0.8834(27) -0.2251(14) 0.3568(8)
H2 H 0.7311(29) -0.3667(13) 0.3906(7)
H3 H 0.5793(29) -0.3753(14) 0.4689(8)
H4 H 0.5631(23) -0.2407(12) 0.5210(6)
H5 H 1.0285(23) -0.0975(12) 0.3477(6)
H6 H 0.8214(27) -0.0717(12) 0.3341(7)
H7 H 0.9697(32) 0.0091(16) 0.3504(9)
H8 H 0.7691(27) -0.0167(14) 0.4862(7)
H9 H 0.5777(27) -0.1108(15) 0.5683(7)
H10 H 0.7124(27) 0.0786(15) 0.5581(7)
H11 H 0.5342(28) -0.0085(15) 0.6429(8)
H12 H 0.4903(26) 0.0791(15) 0.7194(7)
H13 H 0.4974(21) 0.2038(10) 0.7717(6)
H14 H 0.7319(24) 0.3530(12) 0.6502(6)
H15 H 0.7126(25) 0.2139(12) 0.5979(7)
#END
