
#######################################################################
#
#                 Cambridge Crystallographic Data Centre
#                                CCDC
#
#######################################################################
#
# If this CIF has been generated from an entry in the Cambridge
# Structural Database, then it will include bibliographic, chemical,
# crystal, experimental, refinement or atomic coordinate data resulting
# from the CCDC's data processing and validation procedures.
#
#######################################################################

data_CSD_CIF_PEWNIO
_audit_creation_date 1994-05-23
_audit_creation_method CSD-ConQuest-V1
_database_code_CSD PEWNIO
_database_code_depnum_ccdc_archive 'CCDC 1231730'
_chemical_formula_sum 'C21 H19 N5 O7'
_chemical_formula_moiety
;
C21 H19 N5 O7
;
_journal_coden_Cambridge 15
_journal_volume 71
_journal_year 1993
_journal_page_first 1057
_journal_name_full 'Can.J.Chem. '
loop_
_publ_author_name
"D.L.Draper"
"R.J.Barton"
"B.E.Robertson"
"B.R.Nelson"
"J.A.Weil"
_chemical_name_systematic
;
2,2-Diphenyl-1-(5-acetonyl-2,4,6-trinitro-1,3-cyclohexadienyl)hydrazine
;
_chemical_melting_point 423.15
_cell_volume   2091.376
_exptl_crystal_colour 'dark orange'
_exptl_crystal_density_diffrn 1.413
_exptl_special_details
;
Melts with decomposition.

;
_diffrn_ambient_temperature ?
_diffrn_special_details
;
The study was carried out at room temperature,in the range 283-303K

;
#These two values have been output from a single CSD field.
_refine_ls_R_factor_gt 0.038
_refine_ls_wR_factor_gt 0.038
_symmetry_cell_setting monoclinic
_symmetry_space_group_name_H-M 'P 21/c'
_symmetry_Int_Tables_number 14
loop_
_symmetry_equiv_pos_site_id
_symmetry_equiv_pos_as_xyz
1 x,y,z
2 -x,1/2+y,1/2-z
3 -x,-y,-z
4 x,-1/2-y,-1/2+z
_cell_length_a 9.254(3)
_cell_length_b 13.531(3)
_cell_length_c 17.391(5)
_cell_angle_alpha 90
_cell_angle_beta 106.18(2)
_cell_angle_gamma 90
_cell_formula_units_Z 4
loop_
_atom_type_symbol
_atom_type_radius_bond
C 0.68
H 0.23
N 0.68
O 0.68
loop_
_atom_site_label
_atom_site_type_symbol
_atom_site_fract_x
_atom_site_fract_y
_atom_site_fract_z
C1 C 0.4415(2) 0.3117(1) 0.1245(1)
C2 C 0.3151(2) 0.2924(1) 0.0620(1)
C3 C 0.2248(2) 0.3721(1) 0.0181(1)
C4 C 0.2353(2) 0.4620(1) 0.0498(1)
C5 C 0.3283(7) 0.4811(1) 0.1338(1)
C6 C 0.4695(2) 0.4182(1) 0.1502(1)
C7 C 0.6482(2) 0.2931(1) 0.3010(1)
C8 C 0.5324(2) 0.2495(2) 0.3240(1)
C9 C 0.5116(3) 0.2738(2) 0.3976(1)
C10 C 0.6021(3) 0.3418(2) 0.4461(2)
C11 C 0.7171(3) 0.3847(2) 0.4234(1)
C12 C 0.7413(3) 0.3616(2) 0.3499(1)
C13 C 0.8080(2) 0.2394(1) 0.2145(1)
C14 C 0.8356(2) 0.2432(2) 0.1399(1)
C15 C 0.9695(2) 0.2094(2) 0.1305(1)
C16 C 1.0783(2) 0.1712(2) 0.1943(1)
C17 C 1.0517(2) 0.1680(2) 0.2681(2)
C18 C 0.9192(2) 0.2016(2) 0.2795(1)
C19 C 0.2391(2) 0.4555(2) 0.1937(1)
C20 C 0.3054(2) 0.4941(1) 0.2764(1)
C21 C 0.2281(3) 0.4685(2) 0.3379(1)
N1 N 0.2768(2) 0.1951(1) 0.0325(1)
N2 N 0.1529(2) 0.5426(1) 0.0046(1)
N3 N 0.5750(2) 0.4622(1) 0.1058(1)
N4 N 0.5418(2) 0.2453(1) 0.1638(1)
N5 N 0.6703(2) 0.2761(1) 0.2234(1)
O1 O 0.3576(2) 0.1260(1) 0.0652(1)
O2 O 0.1641(2) 0.1835(1) -0.0243(1)
O3 O 0.1549(2) 0.6224(1) 0.0388(1)
O4 O 0.0842(1) 0.5289(1) -0.0661(1)
O5 O 0.4177(2) 0.5463(1) 0.2916(1)
O6 O 0.6327(2) 0.5408(1) 0.1304(1)
O7 O 0.5921(1) 0.4187(1) 0.0484(1)
H1 H 0.148(2) 0.358(1) -0.034(1)
H2 H 0.375(2) 0.549(2) 0.139(2)
H3 H 0.151(3) 0.484(2) 0.176(2)
H4 H 0.226(2) 0.382(1) 0.197(1)
H5 H 0.127(5) 0.507(3) 0.320(3)
H6 H 0.239(5) 0.396(4) 0.343(4)
H7 H 0.302(3) 0.484(2) 0.391(2)
H8 H 0.516(2) 0.424(1) 0.205(1)
H9 H 0.514(3) 0.173(2) 0.148(2)
H10 H 0.485(3) 0.195(2) 0.291(2)
H11 H 0.403(3) 0.233(2) 0.410(2)
H12 H 0.596(3) 0.367(2) 0.498(2)
H13 H 0.789(3) 0.436(2) 0.462(2)
H14 H 0.813(2) 0.392(2) 0.331(2)
H15 H 0.746(3) 0.273(1) 0.096(1)
H16 H 0.974(2) 0.212(2) 0.079(2)
H17 H 1.182(3) 0.147(2) 0.189(2)
H18 H 1.115(3) 0.144(2) 0.307(2)
H19 H 0.901(3) 0.198(2) 0.338(2)
#END
