
#######################################################################
#
#                 Cambridge Crystallographic Data Centre
#                                CCDC
#
#######################################################################
#
# If this CIF has been generated from an entry in the Cambridge
# Structural Database, then it will include bibliographic, chemical,
# crystal, experimental, refinement or atomic coordinate data resulting
# from the CCDC's data processing and validation procedures.
#
#######################################################################

data_CSD_CIF_PEWVUK
_audit_creation_date 2013-05-19
_audit_creation_method CSD-ConQuest-V1
_database_code_CSD PEWVUK
_database_code_depnum_ccdc_archive 'CCDC 905855'
_chemical_formula_sum 'C26 H21 N1 O5'
_chemical_formula_moiety
;
C26 H21 N1 O5
;
_journal_coden_Cambridge 1336
_journal_volume 15
_journal_year 2013
_journal_page_first 542
_journal_name_full 'Org.Lett. '
loop_
_publ_author_name
"Jing An"
"Liang-Qiu Lu"
"Qing-Qing Yang"
"Tao Wang"
"Wen-Jing Xiao"
_chemical_name_systematic
;
2-Benzoyl-3,7-diphenyltetrahydro-6H-furo[3,4-c][1,2]oxazolo[2,3-b][1,2]oxazol-
6-one
;
_cell_volume   2113.562
_diffrn_ambient_temperature 296
#These two values have been output from a single CSD field.
_refine_ls_R_factor_gt 0.0308
_refine_ls_wR_factor_gt 0.0308
_symmetry_cell_setting monoclinic
_symmetry_space_group_name_H-M 'P 21/c'
_symmetry_Int_Tables_number 14
loop_
_symmetry_equiv_pos_site_id
_symmetry_equiv_pos_as_xyz
1 x,y,z
2 -x,1/2+y,1/2-z
3 -x,-y,-z
4 x,-1/2-y,-1/2+z
_cell_length_a 11.1729(1)
_cell_length_b 22.3738(3)
_cell_length_c 8.8833(1)
_cell_angle_alpha 90
_cell_angle_beta 107.866(1)
_cell_angle_gamma 90
_cell_formula_units_Z 4
loop_
_atom_type_symbol
_atom_type_radius_bond
C 0.68
H 0.23
N 0.68
O 0.68
loop_
_atom_site_label
_atom_site_type_symbol
_atom_site_fract_x
_atom_site_fract_y
_atom_site_fract_z
C1 C 0.20975(11) 0.34864(5) 1.19255(14)
C2 C 0.20525(12) 0.29384(5) 1.26482(15)
H1 H 0.12810 0.27620 1.25630
C3 C 0.31570(13) 0.26563(6) 1.34937(19)
H2 H 0.31270 0.22950 1.39960
C4 C 0.43050(14) 0.29118(7) 1.3592(2)
H3 H 0.50460 0.27190 1.41490
C5 C 0.43559(13) 0.34536(6) 1.28641(19)
H4 H 0.51300 0.36230 1.29280
C6 C 0.32579(12) 0.37425(6) 1.20428(16)
H5 H 0.32940 0.41090 1.15670
C7 C 0.09360(11) 0.38291(5) 1.10984(14)
C8 C -0.02906(11) 0.34883(5) 1.03332(14)
H6 H -0.07180 0.34200 1.11300
C9 C -0.11861(11) 0.38282(5) 0.89244(13)
H7 H -0.07930 0.42110 0.88180
C10 C -0.24852(11) 0.39548(5) 0.90460(13)
C11 C -0.30508(11) 0.45001(5) 0.85019(15)
H8 H -0.26110 0.47880 0.81290
C12 C -0.42666(12) 0.46174(6) 0.85127(17)
H9 H -0.46370 0.49830 0.81460
C13 C -0.49305(12) 0.41957(6) 0.90636(17)
H10 H -0.57500 0.42740 0.90560
C14 C -0.43667(12) 0.36550(6) 0.96280(16)
H11 H -0.48050 0.33710 1.00160
C15 C -0.31528(12) 0.35340(5) 0.96185(15)
H12 H -0.27820 0.31690 0.99970
C16 C -0.11891(11) 0.34285(5) 0.74875(14)
C17 C -0.23846(11) 0.30782(5) 0.66737(14)
H13 H -0.23880 0.27000 0.72070
H14 H -0.31230 0.33050 0.66830
C18 C -0.15354(11) 0.33448(5) 0.47013(14)
C19 C -0.08173(11) 0.37061(5) 0.61349(14)
H15 H -0.10350 0.41310 0.60060
C20 C 0.06272(11) 0.36058(5) 0.65774(14)
H16 H 0.07990 0.32970 0.58890
C21 C 0.13956(11) 0.41536(5) 0.65188(14)
C22 C 0.21642(12) 0.41525(6) 0.55585(15)
H17 H 0.22300 0.38090 0.50010
C23 C 0.28372(13) 0.46593(6) 0.54199(17)
H18 H 0.33400 0.46570 0.47570
C24 C 0.27610(12) 0.51674(6) 0.62662(16)
H19 H 0.32110 0.55080 0.61730
C25 C 0.20157(13) 0.51701(6) 0.72510(16)
H20 H 0.19740 0.55110 0.78320
C26 C 0.13304(13) 0.46673(5) 0.73771(16)
H21 H 0.08250 0.46720 0.80370
N1 N -0.01340(9) 0.29953(4) 0.81279(11)
O1 O 0.09350(8) 0.43722(4) 1.10737(10)
O2 O -0.00576(7) 0.29136(3) 0.97051(9)
O3 O 0.09589(7) 0.33838(3) 0.81716(9)
O4 O -0.23753(8) 0.29796(4) 0.50645(10)
O5 O -0.14214(9) 0.33510(4) 0.34032(10)
#END
