
#######################################################################
#
#                 Cambridge Crystallographic Data Centre
#                                CCDC
#
#######################################################################
#
# If this CIF has been generated from an entry in the Cambridge
# Structural Database, then it will include bibliographic, chemical,
# crystal, experimental, refinement or atomic coordinate data resulting
# from the CCDC's data processing and validation procedures.
#
#######################################################################

data_CSD_CIF_PEXROZ
_audit_creation_date 1994-04-27
_audit_creation_method CSD-ConQuest-V1
_database_code_CSD PEXROZ
_database_code_depnum_ccdc_archive 'CCDC 1231849'
_chemical_formula_sum 'C15 H16 N4 O8'
_chemical_formula_moiety
;
C15 H16 N4 O8
;
_journal_coden_Cambridge 3
_journal_volume 47
_journal_year 1993
_journal_page_first 1025
_journal_name_full 'Acta Chem.Scand. '
loop_
_publ_author_name
"L.Eberson"
"J.L.Calvert"
"M.P.Hartshorn"
"W.T.Robinson"
_chemical_name_systematic
;
1,4,5,8-Tetramethyl-r-1-nitro-c-2-trinitromethyl-1,2-dihydro-naphthalene
;
_chemical_melting_point 401.15
_cell_volume    828.970
_exptl_crystal_colour 'pale yellow'
_exptl_crystal_density_diffrn 1.523
_exptl_special_details
;
Melts with decomposition.
y(N3) is .0561, not .0913; z(N3) is .6005, not .8280
;
_diffrn_ambient_temperature ?
_diffrn_special_details
;
The study was carried out at room temperature,in the range 283-303K

;
#These two values have been output from a single CSD field.
_refine_ls_R_factor_gt 0.037
_refine_ls_wR_factor_gt 0.037
_symmetry_cell_setting triclinic
_symmetry_space_group_name_H-M 'P -1'
_symmetry_Int_Tables_number 2
loop_
_symmetry_equiv_pos_site_id
_symmetry_equiv_pos_as_xyz
1 x,y,z
2 -x,-y,-z
_cell_length_a 6.4040(3)
_cell_length_b 9.553(5)
_cell_length_c 14.08(1)
_cell_angle_alpha 83.74(5)
_cell_angle_beta 86.12(5)
_cell_angle_gamma 75.70(4)
_cell_formula_units_Z 2
loop_
_atom_type_symbol
_atom_type_radius_bond
C 0.68
N 0.68
O 0.68
loop_
_atom_site_label
_atom_site_type_symbol
_atom_site_fract_x
_atom_site_fract_y
_atom_site_fract_z
O1 O 0.3592(3) -0.0066(2) 0.8702(1)
O2 O 0.0593(3) 0.0766(2) 0.7995(1)
O3 O -0.1346(3) 0.1419(2) 0.6262(1)
O4 O -0.1393(3) 0.3585(2) 0.6640(1)
O5 O 0.2408(3) 0.0237(2) 0.5238(1)
O6 O 0.3946(3) -0.0228(2) 0.6604(1)
O7 O 0.4057(4) 0.2885(2) 0.4957(1)
O8 O 0.0587(4) 0.3542(2) 0.4780(1)
N1 N 0.2283(3) 0.0913(2) 0.8280(1)
N2 N -0.0501(3) 0.2399(3) 0.6393(1)
N3 N 0.2837(3) 0.0561(2) 0.6005(2)
N4 N 0.2192(4) 0.2953(2) 0.5220(2)
C1 C 0.2762(4) 0.2419(2) 0.8061(2)
C2 C 0.3217(4) 0.2648(2) 0.6949(2)
C3 C 0.3309(4) 0.4211(3) 0.6725(2)
C4 C 0.2112(4) 0.5292(3) 0.7186(2)
C5 C 0.0507(4) 0.5006(2) 0.7947(2)
C6 C -0.1294(4) 0.6102(2) 0.8200(2)
C7 C -0.2578(4) 0.5783(3) 0.8990(2)
C8 C -0.2082(4) 0.4469(3) 0.9531(2)
C9 C -0.0369(4) 0.3336(2) 0.9272(2)
C10 C 0.0870(3) 0.3591(2) 0.8437(2)
C11 C 0.4818(4) 0.2395(3) 0.8547(2)
C12 C 0.1920(4) 0.2160(3) 0.6216(2)
C13 C 0.2615(4) 0.6768(3) 0.7008(2)
C14 C -0.2015(4) 0.7575(3) 0.7642(2)
C15 C 0.0013(4) 0.1944(3) 0.9933(2)
#END
