
#######################################################################
#
#                 Cambridge Crystallographic Data Centre
#                                CCDC
#
#######################################################################
#
# If this CIF has been generated from an entry in the Cambridge
# Structural Database, then it will include bibliographic, chemical,
# crystal, experimental, refinement or atomic coordinate data resulting
# from the CCDC's data processing and validation procedures.
#
#######################################################################

data_CSD_CIF_PEYDUU
_audit_creation_date 2013-05-19
_audit_creation_method CSD-ConQuest-V1
_database_code_CSD PEYDUU
_database_code_depnum_ccdc_archive 'CCDC 905467'
_chemical_formula_sum 'C16 H13 N1 O5'
_chemical_formula_moiety
;
C16 H13 N1 O5
;
_journal_coden_Cambridge 475
_journal_volume 40
_journal_year 2012
_journal_page_first 178
_journal_name_full 'Rev.Latinoam Quim. '
loop_
_publ_author_name
"B.M.Munoz-Flores"
"R.L.Santillan"
"M.Rodriguez"
"G.Ramos"
"J.L.Maldonado"
"M.Romero"
"N.Farfan"
_chemical_name_systematic
;
3-(4-Methoxyphenyl)-2-(4-nitrophenyl)acrylic acid
;
_cell_volume   1473.984
_exptl_crystal_colour 'yellow'
_exptl_crystal_density_diffrn 1.349
_exptl_crystal_description 'prism'
_diffrn_ambient_temperature 298
#These two values have been output from a single CSD field.
_refine_ls_R_factor_gt 0.0642
_refine_ls_wR_factor_gt 0.0642
_symmetry_cell_setting monoclinic
_symmetry_space_group_name_H-M 'P 21/c'
_symmetry_Int_Tables_number 14
loop_
_symmetry_equiv_pos_site_id
_symmetry_equiv_pos_as_xyz
1 x,y,z
2 -x,1/2+y,1/2-z
3 -x,-y,-z
4 x,-1/2-y,-1/2+z
_cell_length_a 6.5267(6)
_cell_length_b 15.1735(15)
_cell_length_c 14.9585(17)
_cell_angle_alpha 90
_cell_angle_beta 95.729(7)
_cell_angle_gamma 90
_cell_formula_units_Z 4
loop_
_atom_type_symbol
_atom_type_radius_bond
C 0.68
H 0.23
N 0.68
O 0.68
loop_
_atom_site_label
_atom_site_type_symbol
_atom_site_fract_x
_atom_site_fract_y
_atom_site_fract_z
C1 C 0.3199(6) 0.7720(3) 0.8494(2)
H1 H 0.18610 0.79220 0.86160
H2 H 0.42350 0.80930 0.87960
H3 H 0.33990 0.71260 0.87060
O1 O 1.2823(4) 0.56546(16) 0.49506(14)
O2 O 1.4239(4) 0.47594(18) 0.60096(15)
C2 C 1.3104(5) 0.5178(2) 0.7843(2)
H4 H 1.42830 0.54690 0.77000
O3 O 0.3349(4) 0.77466(17) 0.75492(17)
C3 C 1.1395(5) 0.5150(2) 0.7218(2)
C4 C 0.9995(5) 0.6215(2) 0.6032(2)
H5 H 1.01050 0.64030 0.54470
C5 C 0.8381(5) 0.6641(2) 0.6469(2)
C6 C 0.8360(5) 0.6728(2) 0.7397(2)
H6 H 0.94810 0.65200 0.77700
C7 C 0.5080(5) 0.7372(2) 0.6316(2)
H7 H 0.39750 0.76000 0.59470
C8 C 1.2905(5) 0.5318(2) 0.5744(2)
C9 C 0.9674(6) 0.4288(2) 0.8263(2)
H8 H 0.85200 0.39790 0.84070
C10 C 1.1362(5) 0.5591(2) 0.63309(19)
C11 C 0.5084(6) 0.7412(2) 0.7239(2)
C12 C 1.1361(6) 0.4349(2) 0.8862(2)
C13 C 0.6761(6) 0.7106(2) 0.7779(2)
H9 H 0.68070 0.71570 0.84000
C14 C 0.9686(5) 0.4688(2) 0.7438(2)
H10 H 0.85310 0.46480 0.70230
C15 C 1.3098(6) 0.4784(2) 0.8671(2)
H11 H 1.42470 0.48140 0.90900
C16 C 0.6710(6) 0.6996(2) 0.5946(2)
H12 H 0.66930 0.69780 0.53240
N1 N 1.1359(8) 0.3939(3) 0.9752(2)
O4 O 0.9807(7) 0.3547(3) 0.99195(19)
O5 O 1.2874(6) 0.3996(3) 1.02801(19)
H13 H 1.419(9) 0.542(4) 0.452(4)
#END
