
#######################################################################
#
#                 Cambridge Crystallographic Data Centre
#                                CCDC
#
#######################################################################
#
# If this CIF has been generated from an entry in the Cambridge
# Structural Database, then it will include bibliographic, chemical,
# crystal, experimental, refinement or atomic coordinate data resulting
# from the CCDC's data processing and validation procedures.
#
#######################################################################

data_CSD_CIF_PEYFAC
_audit_creation_date 2013-05-19
_audit_creation_method CSD-ConQuest-V1
_database_code_CSD PEYFAC
_database_code_depnum_ccdc_archive 'CCDC 905466'
_chemical_formula_sum 'C16 H13 N1 O5'
_chemical_formula_moiety
;
C16 H13 N1 O5
;
_journal_coden_Cambridge 475
_journal_volume 40
_journal_year 2012
_journal_page_first 178
_journal_name_full 'Rev.Latinoam Quim. '
loop_
_publ_author_name
"B.M.Munoz-Flores"
"R.L.Santillan"
"M.Rodriguez"
"G.Ramos"
"J.L.Maldonado"
"M.Romero"
"N.Farfan"
_chemical_name_systematic
;
3-(4-Methoxyphenyl)-2-(4-nitrophenyl)acrylic acid
;
_cell_volume    690.094
_exptl_crystal_colour 'yellow'
_exptl_crystal_density_diffrn 1.44
_exptl_crystal_description 'prism'
_diffrn_ambient_temperature 293
#These two values have been output from a single CSD field.
_refine_ls_R_factor_gt 0.0428
_refine_ls_wR_factor_gt 0.0428
_symmetry_cell_setting triclinic
_symmetry_space_group_name_H-M 'P -1'
_symmetry_Int_Tables_number 2
loop_
_symmetry_equiv_pos_site_id
_symmetry_equiv_pos_as_xyz
1 x,y,z
2 -x,-y,-z
_cell_length_a 6.5697(2)
_cell_length_b 10.6569(4)
_cell_length_c 11.0720(4)
_cell_angle_alpha 101.192(1)
_cell_angle_beta 104.486(1)
_cell_angle_gamma 106.409(2)
_cell_formula_units_Z 2
loop_
_atom_type_symbol
_atom_type_radius_bond
C 0.68
H 0.23
N 0.68
O 0.68
loop_
_atom_site_label
_atom_site_type_symbol
_atom_site_fract_x
_atom_site_fract_y
_atom_site_fract_z
C1 C 0.2639(2) 0.52295(12) 0.22528(12)
C2 C 0.4301(2) 0.55219(14) 0.16650(14)
C3 C 0.4337(2) 0.63856(14) 0.08815(14)
C4 C 0.2721(2) 0.69916(13) 0.06661(13)
C5 C 0.1054(2) 0.67220(15) 0.12341(14)
C6 C 0.1033(2) 0.58524(14) 0.20103(14)
C7 C 0.2482(2) 0.43659(14) 0.31336(13)
C8 C 0.3559(2) 0.35082(13) 0.34200(12)
C9 C 0.5287(2) 0.32936(14) 0.28206(14)
C10 C 0.3179(2) 0.27412(13) 0.43732(12)
C11 C 0.1395(2) 0.26771(15) 0.48654(15)
C12 C 0.1061(3) 0.19642(15) 0.57543(15)
C13 C 0.2521(2) 0.13064(13) 0.61654(13)
C14 C 0.4296(3) 0.13430(15) 0.57135(15)
C15 C 0.4611(2) 0.20552(15) 0.48169(15)
C16 C 0.1594(4) 0.8712(2) -0.0150(2)
N1 N 0.2174(2) 0.05442(13) 0.71098(12)
O1 O 0.3362(2) -0.01333(13) 0.73740(13)
O2 O 0.0711(2) 0.06141(14) 0.75867(14)
O3 O 0.43818(19) 0.24085(11) 0.16471(11)
O4 O 0.72743(16) 0.38542(12) 0.33509(11)
O5 O 0.29193(18) 0.78448(11) -0.01134(10)
H1 H 0.544(3) 0.2311(19) 0.131(2)
H2 H 0.551(3) 0.5154(15) 0.1809(15)
H3 H 0.555(3) 0.6597(15) 0.0509(16)
H4 H -0.009(3) 0.7125(16) 0.1109(15)
H5 H -0.009(3) 0.5672(16) 0.2402(16)
H6 H 0.143(3) 0.4474(16) 0.3585(16)
H7 H 0.037(3) 0.3128(18) 0.4569(17)
H8 H -0.016(3) 0.1902(17) 0.6064(18)
H9 H 0.533(3) 0.0891(18) 0.6024(17)
H10 H 0.590(3) 0.2062(18) 0.4497(17)
H11 H 0.209(3) 0.931(2) -0.063(2)
H12 H 0.182(3) 0.925(2) 0.077(2)
H13 H -0.001(4) 0.817(2) -0.053(2)
#END
