
#######################################################################
#
#                 Cambridge Crystallographic Data Centre
#                                CCDC
#
#######################################################################
#
# If this CIF has been generated from an entry in the Cambridge
# Structural Database, then it will include bibliographic, chemical,
# crystal, experimental, refinement or atomic coordinate data resulting
# from the CCDC's data processing and validation procedures.
#
#######################################################################

data_CSD_CIF_PEYTUJ
_audit_creation_date 2007-04-17
_audit_creation_method CSD-ConQuest-V1
_database_code_CSD PEYTUJ
_database_code_depnum_ccdc_archive 'CCDC 641820'
_chemical_formula_sum 'C22 H23 N1 O3'
_chemical_formula_moiety
;
C22 H23 N1 O3
;
_journal_coeditor_code "IUCr AV3067"
_journal_coden_Cambridge 591
_journal_volume 63
_journal_year 2007
_journal_page_first o196
_journal_name_full 'Acta Crystallogr.,Sect.C:Cryst.Struct.Commun. '
loop_
_publ_author_name
"Y.Sonoda"
"S.Tsuzuki"
"N.Tamaoki"
"M.Goto"
_chemical_name_systematic
;
(1E,3Z,5E)-1-(4-n-Butoxyphenyl)-6-(4-nitrophenyl)hexa-1,3,5-triene
;
_cell_volume   1898.540
_exptl_crystal_colour 'orange'
_exptl_crystal_density_diffrn 1.222
_exptl_crystal_description 'rectangular'
_exptl_crystal_preparation 'dichloromethane/toluene'
_diffrn_ambient_temperature 183
#These two values have been output from a single CSD field.
_refine_ls_R_factor_gt 0.0463
_refine_ls_wR_factor_gt 0.0463
loop_
_citation_database_id_CSD
_citation_special_details
QEVVAP "is a stereoisomer of this entry"
_symmetry_cell_setting monoclinic
_symmetry_space_group_name_H-M 'P 21/c'
_symmetry_Int_Tables_number 14
loop_
_symmetry_equiv_pos_site_id
_symmetry_equiv_pos_as_xyz
1 x,y,z
2 -x,1/2+y,1/2-z
3 -x,-y,-z
4 x,-1/2-y,-1/2+z
_cell_length_a 17.0571(10)
_cell_length_b 6.7244(4)
_cell_length_c 17.2095(10)
_cell_angle_alpha 90
_cell_angle_beta 105.884(1)
_cell_angle_gamma 90
_cell_formula_units_Z 4
loop_
_atom_type_symbol
_atom_type_radius_bond
C 0.68
H 0.23
N 0.68
O 0.68
loop_
_atom_site_label
_atom_site_type_symbol
_atom_site_fract_x
_atom_site_fract_y
_atom_site_fract_z
C1 C 0.66312(7) 0.82779(19) 0.58353(7)
C2 C 0.69457(8) 0.6376(2) 0.58700(8)
H1 H 0.74070 0.59990 0.62940
C3 C 0.65767(8) 0.50399(19) 0.52772(7)
H2 H 0.67900 0.37300 0.52960
C4 C 0.58955(7) 0.55577(17) 0.46470(7)
C5 C 0.56058(7) 0.75163(18) 0.46264(7)
H3 H 0.51520 0.79160 0.41980
C6 C 0.59677(7) 0.88668(18) 0.52161(7)
H4 H 0.57650 1.01860 0.51980
C7 C 0.55240(7) 0.40636(17) 0.40463(7)
H5 H 0.57860 0.28050 0.40950
C8 C 0.48492(7) 0.42851(17) 0.34316(7)
H6 H 0.45760 0.55300 0.33710
C9 C 0.45174(7) 0.27339(18) 0.28592(7)
H7 H 0.47690 0.14640 0.29610
C10 C 0.38838(7) 0.29124(18) 0.21929(7)
H8 H 0.37300 0.17480 0.18750
C11 C 0.34151(7) 0.46822(18) 0.19116(7)
H9 H 0.34960 0.58150 0.22540
C12 C 0.28687(7) 0.47921(18) 0.11832(7)
H10 H 0.27960 0.36260 0.08590
C13 C 0.23756(7) 0.65117(18) 0.08378(7)
C14 C 0.19030(7) 0.64741(19) 0.00360(7)
H11 H 0.19110 0.53190 -0.02800
C15 C 0.14211(8) 0.8074(2) -0.03142(8)
H12 H 0.11100 0.80140 -0.08640
C16 C 0.13960(8) 0.97538(19) 0.01405(8)
C17 C 0.18606(8) 0.9823(2) 0.09453(8)
H13 H 0.18450 1.09730 0.12610
C18 C 0.23406(8) 0.82371(19) 0.12820(7)
H14 H 0.26560 0.83120 0.18290
C19 C 0.04326(9) 1.1428(2) -0.09347(8)
H15 H 0.00440 1.03020 -0.10260
H16 H 0.07720 1.13050 -0.13160
C20 C -0.00246(9) 1.3378(2) -0.10661(9)
H17 H -0.03830 1.34420 -0.07010
H18 H 0.03720 1.44850 -0.09220
C21 C -0.05353(11) 1.3651(3) -0.19259(10)
H19 H -0.09180 1.25190 -0.20800
H20 H -0.01760 1.36520 -0.22910
C22 C -0.10171(11) 1.5589(3) -0.20315(12)
H21 H -0.13670 1.56010 -0.16650
H22 H -0.13550 1.56970 -0.25910
H23 H -0.06390 1.67150 -0.19070
N1 N 0.70014(7) 0.97044(18) 0.64688(7)
O1 O 0.76613(8) 0.9295(2) 0.69331(7)
O2 O 0.66309(7) 1.12423(15) 0.65132(6)
O3 O 0.09348(6) 1.14076(15) -0.01225(6)
#END
