
#######################################################################
#
#                 Cambridge Crystallographic Data Centre
#                                CCDC
#
#######################################################################
#
# If this CIF has been generated from an entry in the Cambridge
# Structural Database, then it will include bibliographic, chemical,
# crystal, experimental, refinement or atomic coordinate data resulting
# from the CCDC's data processing and validation procedures.
#
#######################################################################

data_CSD_CIF_PEYZAW
_audit_creation_date 2013-05-19
_audit_creation_method CSD-ConQuest-V1
_database_code_CSD PEYZAW
_database_code_depnum_ccdc_archive 'CCDC 905107'
_chemical_formula_sum 'C14 H15 N1 O5'
_chemical_formula_moiety
;
C14 H15 N1 O5
;
_journal_coden_Cambridge 1291
_journal_year 2013
_journal_page_first 2472
_journal_name_full 'Eur.J.Org.Chem. '
loop_
_publ_author_name
"Bor-Cherng Hong"
"Ding-Jyun Lan"
"N.S.Dange"
"Gene-Hsiang Lee"
"Ju-Hsiou Liao"
_chemical_name_systematic
;
6-Hydroxy-5-nitro-9-phenyl-3-oxabicyclo[3.3.1]nonan-2-one
;
_cell_volume    632.390
_exptl_crystal_colour 'colorless'
_exptl_crystal_density_diffrn 1.456
_exptl_special_details
;
Absolute configuration

;
_exptl_crystal_description 'plate'
_diffrn_ambient_temperature 200
#These two values have been output from a single CSD field.
_refine_ls_R_factor_gt 0.0816
_refine_ls_wR_factor_gt 0.0816
_symmetry_cell_setting monoclinic
_symmetry_space_group_name_H-M 'P 21'
_symmetry_Int_Tables_number 4
loop_
_symmetry_equiv_pos_site_id
_symmetry_equiv_pos_as_xyz
1 x,y,z
2 -x,1/2+y,-z
_cell_length_a 6.3154(9)
_cell_length_b 7.5422(10)
_cell_length_c 13.2769(17)
_cell_angle_alpha 90
_cell_angle_beta 90.397(2)
_cell_angle_gamma 90
_cell_formula_units_Z 2
loop_
_atom_type_symbol
_atom_type_radius_bond
C 0.68
H 0.23
N 0.68
O 0.68
loop_
_atom_site_label
_atom_site_type_symbol
_atom_site_fract_x
_atom_site_fract_y
_atom_site_fract_z
O1 O -0.1206(7) 0.6419(7) 0.1789(4)
O2 O -0.1728(8) 0.9291(7) 0.1793(3)
O3 O 0.2619(7) 0.3817(6) 0.0335(3)
H1 H 0.20360 0.40690 -0.02180
O4 O 0.5432(8) 0.3490(7) 0.2275(4)
O5 O 0.2477(8) 0.2436(6) 0.2768(4)
N1 N 0.3549(10) 0.3580(8) 0.2358(4)
C1 C -0.0456(10) 0.8074(10) 0.1894(4)
C2 C 0.1849(10) 0.8374(9) 0.2052(4)
H2 H 0.20470 0.94710 0.24650
C3 C 0.3062(10) 0.6855(8) 0.2551(4)
H3 H 0.46070 0.70710 0.24430
C4 C 0.2425(10) 0.5174(9) 0.1922(4)
C5 C 0.0070(11) 0.4891(8) 0.2021(5)
H4 H -0.03590 0.39090 0.15690
H5 H -0.02310 0.45160 0.27200
C6 C 0.2748(11) 0.8704(10) 0.0992(5)
H6 H 0.20370 0.97460 0.06870
H7 H 0.42800 0.89680 0.10450
C7 C 0.2411(10) 0.7078(9) 0.0314(4)
H8 H 0.08850 0.69450 0.01560
H9 H 0.31780 0.72440 -0.03270
C8 C 0.3216(10) 0.5414(9) 0.0842(4)
H10 H 0.47970 0.54690 0.08650
C9 C 0.272(1) 0.6638(8) 0.3681(4)
C10 C 0.4336(12) 0.5951(9) 0.4272(5)
H11 H 0.56250 0.55840 0.39720
C11 C 0.4064(16) 0.5798(10) 0.5320(5)
H12 H 0.51710 0.53090 0.57210
C12 C 0.2259(15) 0.6333(10) 0.5766(6)
H13 H 0.20800 0.62160 0.64730
C13 C 0.0652(14) 0.7068(13) 0.5161(5)
H14 H -0.06160 0.74760 0.54640
C14 C 0.0882(12) 0.7204(10) 0.4153(5)
H15 H -0.02330 0.76960 0.37590
#END
