
#######################################################################
#
#                 Cambridge Crystallographic Data Centre
#                                CCDC
#
#######################################################################
#
# If this CIF has been generated from an entry in the Cambridge
# Structural Database, then it will include bibliographic, chemical,
# crystal, experimental, refinement or atomic coordinate data resulting
# from the CCDC's data processing and validation procedures.
#
#######################################################################

data_CSD_CIF_PEZPAN
_audit_creation_date 2013-05-19
_audit_creation_method CSD-ConQuest-V1
_database_code_CSD PEZPAN
_database_code_depnum_ccdc_archive 'CCDC 904805'
_chemical_formula_sum 'C16 H20 N6 O2'
_chemical_formula_moiety
;
C16 H20 N6 O2
;
_journal_coden_Cambridge 1291
_journal_year 2013
_journal_page_first 3721
_journal_name_full 'Eur.J.Org.Chem. '
loop_
_publ_author_name
"R.Centore"
"S.Fusco"
"A.Capobianco"
"V.Piccialli"
"S.Zaccaria"
"A.Peluso"
_chemical_name_systematic
;
3-Heptyl-6-(4-nitrophenyl)-1H-[1,2,4]triazolo[4,3-b][1,2,4]triazole
;
_cell_volume   1662.857
_exptl_crystal_colour 'colorless'
_exptl_crystal_density_diffrn 1.312
_exptl_crystal_description 'prism'
_diffrn_ambient_temperature 173
#These two values have been output from a single CSD field.
_refine_ls_R_factor_gt 0.0474
_refine_ls_wR_factor_gt 0.0474
_symmetry_cell_setting monoclinic
_symmetry_space_group_name_H-M 'P 21/c'
_symmetry_Int_Tables_number 14
loop_
_symmetry_equiv_pos_site_id
_symmetry_equiv_pos_as_xyz
1 x,y,z
2 -x,1/2+y,1/2-z
3 -x,-y,-z
4 x,-1/2-y,-1/2+z
_cell_length_a 18.594(6)
_cell_length_b 5.910(3)
_cell_length_c 15.422(6)
_cell_angle_alpha 90
_cell_angle_beta 101.13(3)
_cell_angle_gamma 90
_cell_formula_units_Z 4
loop_
_atom_type_symbol
_atom_type_radius_bond
C 0.68
H 0.23
N 0.68
O 0.68
loop_
_atom_site_label
_atom_site_type_symbol
_atom_site_fract_x
_atom_site_fract_y
_atom_site_fract_z
C1 C 0.09394(15) 0.2799(6) 0.55442(18)
H1 H 0.09570 0.13630 0.58650
H2 H 0.06430 0.38910 0.58000
H3 H 0.14380 0.33910 0.55910
C2 C 0.05989(13) 0.2416(5) 0.45768(16)
H4 H 0.00880 0.18880 0.45320
H5 H 0.05850 0.38690 0.42550
C3 C 0.10180(11) 0.0702(4) 0.41471(14)
H6 H 0.10370 -0.07390 0.44780
H7 H 0.15280 0.12430 0.41920
C4 C 0.06904(11) 0.0246(4) 0.31792(14)
H8 H 0.01850 -0.03320 0.31350
H9 H 0.06610 0.16910 0.28490
C5 C 0.11268(10) -0.1442(3) 0.27484(14)
H10 H 0.11640 -0.28780 0.30840
H11 H 0.08590 -0.17580 0.21410
C6 C 0.18916(10) -0.0624(3) 0.27057(12)
H12 H 0.21700 -0.04000 0.33150
H13 H 0.18560 0.08590 0.24020
C7 C 0.2310(1) -0.2260(3) 0.22237(13)
H14 H 0.22990 -0.37860 0.24850
H15 H 0.20620 -0.23520 0.15960
C8 C 0.30815(9) -0.1571(3) 0.22706(11)
C9 C 0.40367(9) 0.0441(3) 0.20707(11)
C10 C 0.36363(9) 0.3126(3) 0.12401(11)
C11 C 0.36077(9) 0.5136(3) 0.06783(11)
C12 C 0.42446(10) 0.6071(3) 0.04966(12)
H16 H 0.47060 0.54140 0.07410
C13 C 0.42128(11) 0.7962(3) -0.00394(12)
H17 H 0.46480 0.85910 -0.01760
C14 C 0.35429(11) 0.8912(3) -0.03705(11)
C15 C 0.2901(1) 0.8018(3) -0.02072(12)
H18 H 0.24430 0.87000 -0.04470
C16 C 0.29352(10) 0.6109(3) 0.03124(12)
H19 H 0.24950 0.54490 0.04220
N1 N 0.36618(8) -0.2592(2) 0.27079(9)
N2 N 0.42643(9) -0.1341(2) 0.25849(10)
H20 H 0.4711(14) -0.173(4) 0.2832(16)
N3 N 0.42844(9) 0.2205(2) 0.16802(9)
N4 N 0.33039(7) 0.0324(2) 0.18727(9)
N5 N 0.30192(8) 0.2065(2) 0.13232(9)
N6 N 0.35152(11) 1.0960(2) -0.09218(11)
O1 O 0.29095(9) 1.1658(2) -0.12777(10)
O2 O 0.40917(9) 1.1859(2) -0.09894(10)
H21? H 0.472(7) 0.259(18) 0.180(7)
#END
