
#######################################################################
#
#                 Cambridge Crystallographic Data Centre
#                                CCDC
#
#######################################################################
#
# If this CIF has been generated from an entry in the Cambridge
# Structural Database, then it will include bibliographic, chemical,
# crystal, experimental, refinement or atomic coordinate data resulting
# from the CCDC's data processing and validation procedures.
#
#######################################################################

data_CSD_CIF_PHAZOX01
_audit_creation_date 1971-12-31
_audit_creation_method CSD-ConQuest-V1
_database_code_CSD PHAZOX01
_chemical_formula_sum 'C12 H8 N2 O2'
_chemical_formula_moiety
;
C12 H8 N2 O2
;
_journal_coden_Cambridge 92
_journal_volume 30
_journal_year 1960
_journal_page_first 1570
_journal_name_full 'Ric.Sci.,Parte 1 '
loop_
_publ_author_name
"V.Riganti"
"R.Curti"
"A.Coda"
_chemical_name_systematic
;
Phenazine-5,10-dioxide
;
_cell_volume    458.445
_diffrn_ambient_temperature ?
_diffrn_special_details
;
The study was carried out at room temperature,in the range 283-303K

;
#These two values have been output from a single CSD field.
_refine_ls_R_factor_gt 0.153
_refine_ls_wR_factor_gt 0.153
_symmetry_cell_setting monoclinic
_symmetry_space_group_name_H-M 'P 21/c'
_symmetry_Int_Tables_number 14
loop_
_symmetry_equiv_pos_site_id
_symmetry_equiv_pos_as_xyz
1 x,y,z
2 -x,1/2+y,1/2-z
3 -x,-y,-z
4 x,-1/2-y,-1/2+z
_cell_length_a 7.67
_cell_length_b 4.07
_cell_length_c 15.18
_cell_angle_alpha 90
_cell_angle_beta 104.66
_cell_angle_gamma 90
_cell_formula_units_Z 2
loop_
_atom_type_symbol
_atom_type_radius_bond
C 0.68
N 0.68
O 0.68
loop_
_atom_site_label
_atom_site_type_symbol
_atom_site_fract_x
_atom_site_fract_y
_atom_site_fract_z
C1 C 0.05300 0.15400 0.08300
C2 C 0.10300 0.32600 0.16500
C3 C 0.27700 0.45100 0.19200
C4 C 0.39300 0.42800 0.13400
C5 C 0.34200 0.26300 0.05200
C6 C 0.16800 0.13200 0.02400
N1 N -0.11700 0.03600 0.05500
O1 O -0.22200 0.05300 0.10700
N1B N 0.11700 -0.03600 -0.05500
C6B C -0.16800 -0.13200 -0.02400
C1B C -0.05300 -0.15400 -0.08300
O1B O 0.22200 -0.05300 -0.10700
C5B C -0.34200 -0.26300 -0.05200
C2B C -0.10300 -0.32600 -0.16500
C4B C -0.39300 -0.42800 -0.13400
C3B C -0.27700 -0.45100 -0.19200
#END
