
#######################################################################
#
#                 Cambridge Crystallographic Data Centre
#                                CCDC
#
#######################################################################
#
# If this CIF has been generated from an entry in the Cambridge
# Structural Database, then it will include bibliographic, chemical,
# crystal, experimental, refinement or atomic coordinate data resulting
# from the CCDC's data processing and validation procedures.
#
#######################################################################

data_CSD_CIF_PHTHIB
_audit_creation_date 1981-11-16
_audit_creation_method CSD-ConQuest-V1
_database_code_CSD PHTHIB
_database_code_depnum_ccdc_archive 'CCDC 1232693'
_chemical_formula_sum 'C10 H10 N4 O3'
_chemical_formula_moiety
;
C10 H10 N4 O3
;
_journal_coden_Cambridge 10
_journal_volume 64
_journal_year 1981
_journal_page_first 905
_journal_name_full 'Helv.Chim.Acta '
loop_
_publ_author_name
"L.Hoesch"
"J.H.Bieri"
"J.P.Declercq"
"G.Germain"
"M.van Meerssche"
_chemical_name_systematic
;
(Z)-1-Dimethylamino-2-phthalimido-diazene-1-oxide
;
_chemical_melting_point 443.15
_cell_volume    537.350
_exptl_crystal_colour 'colorless'
_exptl_special_details
;
Melting point range 443.15-445.15K

;
_diffrn_ambient_temperature ?
_diffrn_special_details
;
The study was carried out at room temperature,in the range 283-303K

;
#These two values have been output from a single CSD field.
_refine_ls_R_factor_gt 0.037
_refine_ls_wR_factor_gt 0.037
_symmetry_cell_setting triclinic
_symmetry_space_group_name_H-M 'P -1'
_symmetry_Int_Tables_number 2
loop_
_symmetry_equiv_pos_site_id
_symmetry_equiv_pos_as_xyz
1 x,y,z
2 -x,-y,-z
_cell_length_a 8.726(4)
_cell_length_b 7.920(5)
_cell_length_c 7.941(4)
_cell_angle_alpha 101.41(5)
_cell_angle_beta 92.21(4)
_cell_angle_gamma 88.01(4)
_cell_formula_units_Z 2
loop_
_atom_type_symbol
_atom_type_radius_bond
C 0.68
H 0.23
N 0.68
O 0.68
loop_
_atom_site_label
_atom_site_type_symbol
_atom_site_fract_x
_atom_site_fract_y
_atom_site_fract_z
N1 N 0.82180 1.02270 0.81000
N2 N 0.70420 1.02630 0.90710
N3 N 0.60250 0.90150 0.82540
C1 C 0.60890 0.72890 0.84130
C2 C 0.47460 0.65150 0.74120
C3 C 0.42600 0.48400 0.70970
C4 C 0.30070 0.44440 0.59970
C5 C 0.22580 0.56880 0.52380
C6 C 0.27370 0.73810 0.55650
C7 C 0.39820 0.77670 0.66650
C8 C 0.47810 0.94100 0.72270
O1 O 0.44860 1.08160 0.69290
O2 O 0.70760 0.66340 0.91980
O3 O 0.84540 0.92300 0.67310
N4 N 0.92820 1.14000 0.87250
C9 C 0.89290 1.27250 1.01860
C10 C 1.05340 1.15330 0.76660
H1 H 0.47910 0.39630 0.75850
H2 H 0.26050 0.32620 0.57090
H3 H 0.14050 0.53920 0.44570
H4 H 0.22390 0.82380 0.50260
H5 H 0.98300 1.33280 1.05160
H6 H 0.86630 1.22220 1.12240
H7 H 0.80290 1.33030 1.00330
H8 H 1.02950 1.15070 0.65700
H9 H 1.12380 1.22540 0.82790
H10 H 1.10970 1.04270 0.73760
#END
