
#######################################################################
#
#                 Cambridge Crystallographic Data Centre
#                                CCDC
#
#######################################################################
#
# If this CIF has been generated from an entry in the Cambridge
# Structural Database, then it will include bibliographic, chemical,
# crystal, experimental, refinement or atomic coordinate data resulting
# from the CCDC's data processing and validation procedures.
#
#######################################################################

data_CSD_CIF_PIBGUD
_audit_creation_date 2007-07-19
_audit_creation_method CSD-ConQuest-V1
_database_code_CSD PIBGUD
_database_code_depnum_ccdc_archive 'CCDC 602255'
_chemical_formula_sum 'C14 H20 N2 O2'
_chemical_formula_moiety
;
C14 H20 N2 O2
;
_journal_coden_Cambridge 7
_journal_volume 79
_journal_year 2006
_journal_page_first 1069
_journal_name_full 'Bull.Chem.Soc.Jpn. '
loop_
_publ_author_name
"Xia Ding"
"K.Taniguchi"
"Y.Hamamoto"
"K.Sada"
"S.Fujinami"
"Y.Ukaji"
"K.Inomata"
_chemical_name_systematic
;
N-((Di-isopropylcarbamoyl)methylene)aniline N-oxide
;
_chemical_melting_point 392.15
_cell_volume   1423.770
_exptl_crystal_colour 'colorless'
_exptl_crystal_density_diffrn 1.158
_exptl_special_details
;
Melting point range 392.15-394.15K

;
_exptl_crystal_description 'prism'
_diffrn_ambient_temperature 143.2
#These two values have been output from a single CSD field.
_refine_ls_R_factor_gt 0.045
_refine_ls_wR_factor_gt 0.045
_symmetry_cell_setting monoclinic
_symmetry_space_group_name_H-M 'P 2/c'
_symmetry_Int_Tables_number 13
loop_
_symmetry_equiv_pos_site_id
_symmetry_equiv_pos_as_xyz
1 x,y,z
2 -x,y,1/2-z
3 -x,-y,-z
4 x,-y,-1/2+z
_cell_length_a 12.446(1)
_cell_length_b 8.3599(9)
_cell_length_c 15.236(2)
_cell_angle_alpha 90
_cell_angle_beta 116.0870(6)
_cell_angle_gamma 90
_cell_formula_units_Z 4
loop_
_atom_type_symbol
_atom_type_radius_bond
C 0.68
H 0.23
N 0.68
O 0.68
loop_
_atom_site_label
_atom_site_type_symbol
_atom_site_fract_x
_atom_site_fract_y
_atom_site_fract_z
O1 O 0.42001(9) 0.3161(1) 0.33608(7)
O2 O 0.14674(10) 0.1811(2) 0.13884(8)
N1 N 0.2791(1) 0.5008(2) 0.24757(9)
N2 N 0.2379(1) 0.1881(2) 0.11983(9)
C1 C 0.4280(2) 0.6680(3) 0.3799(1)
C2 C 0.2705(2) 0.5135(3) 0.4078(1)
C3 C 0.3013(2) 0.6011(2) 0.3343(1)
C4 C 0.1860(2) 0.5549(2) 0.1515(1)
C5 C 0.2187(2) 0.7140(3) 0.1216(2)
C6 C 0.0635(2) 0.5587(3) 0.1508(1)
C7 C 0.3432(1) 0.3682(2) 0.2573(1)
C8 C 0.3297(1) 0.2801(2) 0.1676(1)
C9 C 0.2297(1) 0.0949(2) 0.03584(10)
C10 C 0.3315(1) 0.0401(2) 0.0299(1)
C11 C 0.3176(2) -0.0458(2) -0.0526(1)
C12 C 0.2046(2) -0.0755(2) -0.1268(1)
C13 C 0.1043(2) -0.0224(2) -0.1181(1)
C14 C 0.1163(1) 0.0636(2) -0.0365(1)
H1 H 0.48380 0.58400 0.39800
H2 H 0.44970 0.73570 0.43830
H3 H 0.44150 0.71900 0.33160
H4 H 0.27480 0.59570 0.46300
H5 H 0.32840 0.41800 0.43440
H6 H 0.18850 0.46610 0.37130
H7 H 0.24710 0.69260 0.31080
H8 H 0.18340 0.46950 0.09950
H9 H 0.29830 0.70480 0.12760
H10 H 0.22110 0.80790 0.17010
H11 H 0.16500 0.73300 0.05780
H12 H 0.05370 0.65490 0.19200
H13 H 0.00030 0.57540 0.08420
H14 H 0.04670 0.45320 0.17360
H15 H 0.39490 0.28450 0.14790
H16 H 0.40900 0.06620 0.08280
H17 H 0.38670 -0.08570 -0.06460
H18 H 0.19440 -0.13740 -0.18530
H19 H 0.02530 -0.04500 -0.16980
H20 H 0.04940 0.10470 -0.02740
#END
