
#######################################################################
#
#                 Cambridge Crystallographic Data Centre
#                                CCDC
#
#######################################################################
#
# If this CIF has been generated from an entry in the Cambridge
# Structural Database, then it will include bibliographic, chemical,
# crystal, experimental, refinement or atomic coordinate data resulting
# from the CCDC's data processing and validation procedures.
#
#######################################################################

data_CSD_CIF_PIBGOX
_audit_creation_date 2007-07-19
_audit_creation_method CSD-ConQuest-V1
_database_code_CSD PIBGOX
_database_code_depnum_ccdc_archive 'CCDC 602254'
_chemical_formula_sum 'C22 H20 N2 O2'
_chemical_formula_moiety
;
C22 H20 N2 O2
;
_journal_coden_Cambridge 7
_journal_volume 79
_journal_year 2006
_journal_page_first 1069
_journal_name_full 'Bull.Chem.Soc.Jpn. '
loop_
_publ_author_name
"Xia Ding"
"K.Taniguchi"
"Y.Hamamoto"
"K.Sada"
"S.Fujinami"
"Y.Ukaji"
"K.Inomata"
_chemical_name_systematic
;
N-((Dibenzylcarbamoyl)methylene)aniline N-oxide
;
_chemical_melting_point 396.15
_cell_volume   1856.433
_exptl_crystal_colour 'colorless'
_exptl_crystal_density_diffrn 1.232
_exptl_special_details
;
Melting point range 396.15-396.65K

;
_exptl_crystal_description 'prismatic'
_exptl_crystal_preparation 'ethyl acetate/hexane'
_diffrn_ambient_temperature 296.2
#These two values have been output from a single CSD field.
_refine_ls_R_factor_gt 0.0423
_refine_ls_wR_factor_gt 0.0423
_symmetry_cell_setting monoclinic
_symmetry_space_group_name_H-M 'P 21/c'
_symmetry_Int_Tables_number 14
loop_
_symmetry_equiv_pos_site_id
_symmetry_equiv_pos_as_xyz
1 x,y,z
2 -x,1/2+y,1/2-z
3 -x,-y,-z
4 x,-1/2-y,-1/2+z
_cell_length_a 18.278(2)
_cell_length_b 10.037(2)
_cell_length_c 10.1438(7)
_cell_angle_alpha 90
_cell_angle_beta 93.990(7)
_cell_angle_gamma 90
_cell_formula_units_Z 4
loop_
_atom_type_symbol
_atom_type_radius_bond
C 0.68
H 0.23
N 0.68
O 0.68
loop_
_atom_site_label
_atom_site_type_symbol
_atom_site_fract_x
_atom_site_fract_y
_atom_site_fract_z
O1 O 0.2359(1) -0.0553(2) 0.3386(2)
O2 O 0.1294(1) -0.2752(2) 0.2333(2)
N1 N 0.2849(1) -0.2280(2) 0.4602(2)
N2 N 0.1096(1) -0.2478(2) 0.3499(2)
C1 C 0.2780(3) -0.7322(4) 0.3897(6)
C2 C 0.3138(3) -0.7047(4) 0.5076(5)
C3 C 0.3148(2) -0.5776(4) 0.5562(4)
C4 C 0.2785(2) -0.4759(3) 0.4862(3)
C5 C 0.2431(2) -0.5028(3) 0.3651(3)
C6 C 0.2423(2) -0.6312(4) 0.3165(5)
C7 C 0.2754(2) -0.3392(3) 0.5500(3)
C8 C 0.3600(2) -0.1969(4) 0.4285(3)
C9 C 0.4070(1) -0.1435(3) 0.5448(3)
C10 C 0.4795(2) -0.1809(4) 0.5654(4)
C11 C 0.5231(2) -0.1272(4) 0.6684(4)
C12 C 0.4958(2) -0.0357(4) 0.7516(4)
C13 C 0.4238(2) 0.0019(3) 0.7328(3)
C14 C 0.3799(2) -0.0516(3) 0.6309(3)
C15 C 0.2287(2) -0.1532(3) 0.4085(3)
C16 C 0.1536(2) -0.1954(3) 0.4404(3)
C17 C 0.0340(2) -0.2821(3) 0.3741(3)
C18 C 0.0049(2) -0.3959(5) 0.3203(4)
C19 C -0.0676(3) -0.4275(6) 0.3436(5)
C20 C -0.1074(2) -0.3485(6) 0.4173(5)
C21 C -0.0775(3) -0.2381(7) 0.4730(6)
C22 C -0.0054(2) -0.2029(5) 0.4531(5)
H1 H 0.280(2) -0.813(4) 0.358(4)
H2 H 0.348(3) -0.779(5) 0.558(4)
H3 H 0.332(2) -0.560(3) 0.647(4)
H4 H 0.221(2) -0.434(3) 0.315(3)
H5 H 0.218(2) -0.642(4) 0.238(4)
H6 H 0.313(2) -0.335(3) 0.613(4)
H7 H 0.228(2) -0.333(3) 0.590(3)
H8 H 0.381(2) -0.279(3) 0.396(3)
H9 H 0.355(2) -0.127(3) 0.357(3)
H10 H 0.499(2) -0.250(4) 0.511(3)
H11 H 0.570(3) -0.152(4) 0.683(4)
H12 H 0.525(2) 0.000(3) 0.822(3)
H13 H 0.405(2) 0.064(3) 0.791(3)
H14 H 0.332(2) -0.021(3) 0.619(3)
H15 H 0.138(2) -0.183(3) 0.525(3)
H16 H 0.039(3) -0.446(5) 0.260(4)
H17 H -0.085(3) -0.512(6) 0.297(6)
H18 H -0.159(2) -0.369(4) 0.433(4)
H19 H -0.102(4) -0.178(7) 0.538(7)
H20 H 0.015(2) -0.125(4) 0.486(4)
#END
