
#######################################################################
#
#                 Cambridge Crystallographic Data Centre
#                                CCDC
#
#######################################################################
#
# If this CIF has been generated from an entry in the Cambridge
# Structural Database, then it will include bibliographic, chemical,
# crystal, experimental, refinement or atomic coordinate data resulting
# from the CCDC's data processing and validation procedures.
#
#######################################################################

data_CSD_CIF_PIBVEE
_audit_creation_date 2018-07-23
_audit_creation_method CSD-ConQuest-V1
_database_code_CSD PIBVEE
_database_code_depnum_ccdc_archive 'CCDC 1544905'
_chemical_formula_sum 'C24 H24 N2 O3'
_chemical_formula_moiety
;
C24 H24 N2 O3
;
_journal_coden_Cambridge 757
_journal_volume 22
_journal_year 2018
_journal_page_first 627
_journal_name_full 'Mol.Diversity '
loop_
_publ_author_name
"A.N.Vereshchagin"
"M.N.Elinson"
"Y.E.Anisina"
"K.A.Karpenko"
"A.S.Goloveshkin"
"S.G.Zlotin"
"M.P.Egorov"
_chemical_name_systematic
;
3-[(hydroxyimino)(phenyl)methyl]-7,7-dimethyl-4-phenyl-4,6,7,8-tetrahydroquino
line-2,5(1H,3H)-dione
;
_cell_volume   1958.852
_exptl_crystal_colour 'colorless'
_exptl_crystal_density_diffrn 1.317
_exptl_crystal_description 'needle'
_diffrn_ambient_temperature 120
#These two values have been output from a single CSD field.
_refine_ls_R_factor_gt 0.059
_refine_ls_wR_factor_gt 0.059
_symmetry_cell_setting monoclinic
_symmetry_space_group_name_H-M 'P 21/c'
_symmetry_Int_Tables_number 14
loop_
_symmetry_equiv_pos_site_id
_symmetry_equiv_pos_as_xyz
1 x,y,z
2 -x,1/2+y,1/2-z
3 -x,-y,-z
4 x,-1/2-y,-1/2+z
_cell_length_a 9.6423(7)
_cell_length_b 17.9281(13)
_cell_length_c 12.2046(9)
_cell_angle_alpha 90
_cell_angle_beta 111.804(2)
_cell_angle_gamma 90
_cell_formula_units_Z 4
loop_
_atom_type_symbol
_atom_type_radius_bond
C 0.68
H 0.23
N 0.68
O 0.68
loop_
_atom_site_label
_atom_site_type_symbol
_atom_site_fract_x
_atom_site_fract_y
_atom_site_fract_z
O1 O 0.58317(11) 0.21489(6) 0.13182(9)
O2 O 1.03083(12) -0.04532(6) 0.38149(9)
O3 O 0.59456(12) 0.19571(7) 0.45163(11)
N1 N 0.78823(14) 0.15453(7) 0.13003(11)
C1 C 0.91008(16) 0.05726(8) 0.26482(12)
C2 C 0.79563(15) 0.06082(8) 0.32214(12)
H1 H 0.85010 0.05710 0.40760
N2 N 0.73514(14) 0.22356(8) 0.46258(12)
C3 C 1.02370(16) -0.00157(8) 0.30220(12)
C4 C 0.68603(16) 0.17054(8) 0.17880(13)
C5 C 0.78888(16) 0.19546(8) 0.39064(13)
C6 C 0.70994(16) 0.13645(8) 0.29825(12)
H2 H 0.61150 0.12750 0.30190
C7 C 1.01848(16) 0.10529(9) 0.11929(13)
H3 H 1.04060 0.15680 0.10770
H4 H 0.97530 0.08220 0.04210
C8 C 0.90585(15) 0.10369(8) 0.17695(12)
C9 C 0.63650(17) -0.03538(9) 0.17432(15)
H5 H 0.67310 -0.01750 0.11870
C10 C 0.95861(17) 0.27603(9) 0.32584(13)
H6 H 0.87630 0.29190 0.26150
C11 C 0.94017(16) 0.22438(8) 0.40478(13)
C12 C 1.09963(18) 0.30370(9) 0.34327(15)
H7 H 1.11210 0.33760 0.28990
C13 C 1.06379(17) 0.20160(9) 0.50201(14)
H8 H 1.05210 0.16720 0.55500
C14 C 1.22200(18) 0.28084(9) 0.44021(15)
H9 H 1.31630 0.29960 0.45180
C15 C 0.68523(16) -0.00396(8) 0.28625(13)
C16 C 1.12576(17) -0.00937(9) 0.23438(13)
H10 H 1.07810 -0.04150 0.16680
H11 H 1.21740 -0.03360 0.28450
C17 C 1.16520(16) 0.06505(9) 0.19097(13)
C18 C 1.25513(18) 0.05111(10) 0.11270(15)
H12 H 1.19740 0.02110 0.04630
H13 H 1.34620 0.02560 0.15740
H14 H 1.27820 0.09790 0.08530
C19 C 0.52537(19) -0.08931(10) 0.33808(18)
H15 H 0.48810 -0.10700 0.39340
C20 C 1.20460(17) 0.23036(9) 0.51980(15)
H16 H 1.28690 0.21560 0.58510
C21 C 1.25914(18) 0.11236(10) 0.29659(15)
H17 H 1.28340 0.15890 0.26920
H18 H 1.34950 0.08620 0.34080
H19 H 1.20360 0.12170 0.34610
C22 C 0.62761(17) -0.03158(9) 0.36717(15)
H20 H 0.65850 -0.01080 0.44230
C23 C 0.47834(19) -0.12076(10) 0.22643(18)
H21 H 0.41030 -0.15990 0.20680
C24 C 0.53299(18) -0.09366(10) 0.14454(17)
H22 H 0.50080 -0.11430 0.06930
H23 H 0.784(2) 0.1853(10) 0.0747(15)
H24 H 0.579(2) 0.2209(10) 0.5048(16)
#END
