
#######################################################################
#
#                 Cambridge Crystallographic Data Centre
#                                CCDC
#
#######################################################################
#
# If this CIF has been generated from an entry in the Cambridge
# Structural Database, then it will include bibliographic, chemical,
# crystal, experimental, refinement or atomic coordinate data resulting
# from the CCDC's data processing and validation procedures.
#
#######################################################################

data_CSD_CIF_PICANO03
_audit_creation_date 2000-07-13
_audit_creation_method CSD-ConQuest-V1
_database_code_CSD PICANO03
_database_code_depnum_ccdc_archive 'CCDC 145539'
_chemical_formula_sum 'C6 H5 N1 O3'
_chemical_formula_moiety
;
C6 H5 N1 O3
;
_journal_coeditor_code "IUCr DE1129"
_journal_coden_Cambridge 591
_journal_volume 56
_journal_year 2000
_journal_page_first 577
_journal_name_full 'Acta Crystallogr.,Sect.C:Cryst.Struct.Commun. '
loop_
_publ_author_name
"T.Steiner"
"A.M.M.Schreurs"
"M.Lutz"
"J.Kroon"
_chemical_name_systematic
;
2-Carboxypyridine-N-oxide
;
_chemical_name_common
;
Picolinic acid N-oxide
;
_cell_volume    297.252
_exptl_crystal_colour 'colorless'
_exptl_crystal_density_diffrn 1.554
_exptl_crystal_description 'block'
_exptl_crystal_preparation 'methanol'
_diffrn_ambient_temperature 125
#These two values have been output from a single CSD field.
_refine_ls_R_factor_gt 0.0344
_refine_ls_wR_factor_gt 0.0344
_symmetry_cell_setting monoclinic
_symmetry_space_group_name_H-M 'P 21/m'
_symmetry_Int_Tables_number 11
loop_
_symmetry_equiv_pos_site_id
_symmetry_equiv_pos_as_xyz
1 x,y,z
2 -x,1/2+y,-z
3 -x,-y,-z
4 x,-1/2-y,z
_cell_length_a 6.8020(11)
_cell_length_b 6.066(2)
_cell_length_c 7.8040(13)
_cell_angle_alpha 90
_cell_angle_beta 112.610(11)
_cell_angle_gamma 90
_cell_formula_units_Z 2
loop_
_atom_type_symbol
_atom_type_radius_bond
C 0.68
H 0.23
N 0.68
O 0.68
loop_
_atom_site_label
_atom_site_type_symbol
_atom_site_fract_x
_atom_site_fract_y
_atom_site_fract_z
O1 O 0.57949(17) 0.25000 0.43581(16)
O2 O 0.5744(2) 0.25000 0.74478(16)
O3 O 0.2628(2) 0.25000 0.77797(17)
N1 N 0.36573(19) 0.25000 0.36202(16)
C1 C 0.2519(2) 0.25000 0.4725(2)
C2 C 0.0326(3) 0.25000 0.3903(2)
C3 C -0.0703(3) 0.25000 0.1985(2)
C4 C 0.0506(3) 0.25000 0.0916(2)
C5 C 0.2686(3) 0.25000 0.1748(2)
C6 C 0.3661(3) 0.25000 0.6819(2)
H1 H 0.611(5) 0.25000 0.627(4)
H2 H -0.040(3) 0.25000 0.466(3)
H3 H -0.220(4) 0.25000 0.142(3)
H4 H -0.012(4) 0.25000 -0.045(3)
H5 H 0.365(3) 0.25000 0.110(3)
#END
