
#######################################################################
#
#                 Cambridge Crystallographic Data Centre
#                                CCDC
#
#######################################################################
#
# If this CIF has been generated from an entry in the Cambridge
# Structural Database, then it will include bibliographic, chemical,
# crystal, experimental, refinement or atomic coordinate data resulting
# from the CCDC's data processing and validation procedures.
#
#######################################################################

data_CSD_CIF_PICANO04
_audit_creation_date 2013-05-26
_audit_creation_method CSD-ConQuest-V1
_database_code_CSD PICANO04
_database_code_depnum_ccdc_archive 'CCDC 930307'
_chemical_formula_sum 'C6 H5 N1 O3'
_chemical_formula_moiety
;
C6 H5 N1 O3
;
_journal_coden_Cambridge 1147
_journal_volume 13
_journal_year 2013
_journal_page_first 816
_journal_name_full 'Cryst.Growth Des. '
loop_
_publ_author_name
"A.V.Shishkina"
"V.V.Zhurov"
"A.I.Stash"
"M.V.Vener"
"A.A.Pinkerton"
"V.G.Tsirelson"
_chemical_name_systematic
;
Picolinic acid N-oxide
;
_cell_volume    295.083
_diffrn_ambient_temperature ?
_diffrn_special_details
;
The study was carried out at room temperature,in the range 283-303K

;
_refine_special_details
;
multipole refinement

;
#These two values have been output from a single CSD field.
_refine_ls_R_factor_gt 0.0383
_refine_ls_wR_factor_gt 0.0383
_symmetry_cell_setting monoclinic
_symmetry_space_group_name_H-M 'P 21/m'
_symmetry_Int_Tables_number 11
loop_
_symmetry_equiv_pos_site_id
_symmetry_equiv_pos_as_xyz
1 x,y,z
2 -x,1/2+y,-z
3 -x,-y,-z
4 x,-1/2-y,z
_cell_length_a 6.7970(4)
_cell_length_b 6.0349(4)
_cell_length_c 7.7927(4)
_cell_angle_alpha 90
_cell_angle_beta 112.610(4)
_cell_angle_gamma 90
_cell_formula_units_Z 2
loop_
_atom_type_symbol
_atom_type_radius_bond
C 0.68
H 0.23
N 0.68
O 0.68
loop_
_atom_site_label
_atom_site_type_symbol
_atom_site_fract_x
_atom_site_fract_y
_atom_site_fract_z
O1 O 0.57849(4) 0.25000 0.43552(3)
O2 O 0.57472(5) 0.25000 0.74534(3)
O3 O 0.26276(7) 0.25000 0.77862(4)
N1 N 0.36579(9) 0.25000 0.36189(8)
C1 C 0.25212(10) 0.25000 0.47278(7)
C2 C 0.03121(12) 0.25000 0.39058(11)
C3 C -0.07267(13) 0.25000 0.19841(12)
C4 C 0.04931(14) 0.25000 0.09088(9)
C5 C 0.26951(12) 0.25000 0.17551(9)
C6 C 0.36572(14) 0.25000 0.68142(8)
H1 H 0.6070(12) 0.25000 0.629(3)
H2 H -0.0538(16) 0.25000 0.4754(15)
H3 H -0.242(3) 0.25000 0.1312(14)
H4 H -0.0194(15) 0.25000 -0.057(2)
H5 H 0.3728(19) 0.25000 0.0984(12)
#END
