
#######################################################################
#
#                 Cambridge Crystallographic Data Centre
#                                CCDC
#
#######################################################################
#
# If this CIF has been generated from an entry in the Cambridge
# Structural Database, then it will include bibliographic, chemical,
# crystal, experimental, refinement or atomic coordinate data resulting
# from the CCDC's data processing and validation procedures.
#
#######################################################################

data_CSD_CIF_PICFOW
_audit_creation_date 1994-06-28
_audit_creation_method CSD-ConQuest-V1
_database_code_CSD PICFOW
_chemical_formula_sum 'C11 H12 N2 O3'
_chemical_formula_moiety
;
C11 H12 N2 O3
;
_journal_coden_Cambridge 188
_journal_year 1993
_journal_page_first 1765
_journal_name_full 'J.Chem.Soc.,Perkin Trans.2 '
loop_
_publ_author_name
"M.A.V.R.Da Silva"
"M.D.M.C.R.Da Silva"
"J.P.A.Paiva"
"I.M.C.S.Nogueira"
"A.M.Damas"
"J.V.Barkley"
"M.M.Harding"
"M.J.Akello"
"G.Pilcher"
_chemical_name_systematic
;
4-p-Nitrophenylamino-pent-3-en-2-one
;
_cell_volume   1083.561
_exptl_crystal_colour 'orange'
_exptl_crystal_density_diffrn 1.35
_diffrn_ambient_temperature ?
_diffrn_special_details
;
The study was carried out at room temperature,in the range 283-303K

;
#These two values have been output from a single CSD field.
_refine_ls_R_factor_gt 0.045
_refine_ls_wR_factor_gt 0.045
_symmetry_cell_setting monoclinic
_symmetry_space_group_name_H-M 'P 21/n'
_symmetry_Int_Tables_number 14
loop_
_symmetry_equiv_pos_site_id
_symmetry_equiv_pos_as_xyz
1 x,y,z
2 1/2-x,1/2+y,1/2-z
3 -x,-y,-z
4 -1/2+x,-1/2-y,-1/2+z
_cell_length_a 4.370(3)
_cell_length_b 13.157(3)
_cell_length_c 18.876(2)
_cell_angle_alpha 90
_cell_angle_beta 93.24(3)
_cell_angle_gamma 90
_cell_formula_units_Z 4
loop_
_atom_type_symbol
_atom_type_radius_bond
C 0.68
H 0.23
N 0.68
O 0.68
loop_
_atom_site_label
_atom_site_type_symbol
_atom_site_fract_x
_atom_site_fract_y
_atom_site_fract_z
O1 O 0.5458(5) 0.4882(1) 0.9065(1)
O2 O -0.5867(6) 0.1910(2) 1.1651(1)
O3 O -0.5541(6) 0.0457(2) 1.1147(1)
N1 N 0.2379(5) 0.3152(2) 0.9183(1)
N2 N -0.4945(6) 0.1365(2) 1.1187(1)
C1 C 0.0521(6) 0.2662(2) 0.9647(1)
C2 C -0.0278(8) 0.1640(2) 0.9623(2)
C3 C -0.2051(7) 0.1226(2) 1.0122(2)
C4 C -0.3052(6) 0.1815(2) 1.0659(1)
C5 C -0.2318(8) 0.2830(2) 1.0694(2)
C6 C -0.0537(7) 0.3235(2) 1.0199(2)
C7 C 0.6108(6) 0.4567(2) 0.8470(2)
C8 C 0.5133(7) 0.3599(2) 0.8198(2)
C9 C 0.3353(6) 0.2928(2) 0.8528(1)
C10 C 0.239(1) 0.1958(3) 0.8169(2)
C11 C 0.7908(9) 0.5230(3) 0.8003(2)
H1 H 0.300(6) 0.369(2) 0.930(1)
H2 H 0.043(6) 0.126(2) 0.930(1)
H3 H -0.260(6) 0.057(2) 1.011(1)
H4 H -0.309(6) 0.319(2) 1.103(1)
H5 H -0.006(6) 0.386(2) 1.021(1)
H6 H 0.579(5) 0.343(2) 0.775(1)
H7 H 0.989(7) 0.534(2) 0.822(2)
H8 H 0.747(7) 0.586(2) 0.809(2)
H9 H 0.902(7) 0.490(2) 0.773(2)
H10 H 0.296(6) 0.201(2) 0.774(2)
H11 H 0.326(6) 0.137(2) 0.840(1)
H12 H 0.010(7) 0.184(2) 0.822(1)
#END
