
#######################################################################
#
#                 Cambridge Crystallographic Data Centre
#                                CCDC
#
#######################################################################
#
# If this CIF has been generated from an entry in the Cambridge
# Structural Database, then it will include bibliographic, chemical,
# crystal, experimental, refinement or atomic coordinate data resulting
# from the CCDC's data processing and validation procedures.
#
#######################################################################

data_CSD_CIF_PICGUF
_audit_creation_date 2013-07-18
_audit_creation_method CSD-ConQuest-V1
_database_code_CSD PICGUF
_database_code_depnum_ccdc_archive 'CCDC 840634'
_chemical_formula_sum 'C16 H11 N1 O5'
_chemical_formula_moiety
;
C16 H11 N1 O5
;
_journal_coden_Cambridge 261
_journal_volume 16
_journal_year 2013
_journal_page_first 442
_journal_name_full 'Comptes Rendus Chimie '
loop_
_publ_author_name
"P.Goswami"
"M.Talukdar"
"T.C.Bora"
"J.C.Sarma"
_chemical_name_systematic
;
(E)-3-(benzo[d][1,3]dioxol-5-yl)-1-(3-nitrophenyl)prop-2-en-1-one
;
_chemical_melting_point 415
_cell_volume   1352.855
_exptl_crystal_colour 'yellow'
_exptl_crystal_density_diffrn 1.459
_exptl_crystal_description 'block'
_diffrn_ambient_temperature 298
#These two values have been output from a single CSD field.
_refine_ls_R_factor_gt 0.0533
_refine_ls_wR_factor_gt 0.0533
_symmetry_cell_setting orthorhombic
_symmetry_space_group_name_H-M 'P 21 21 21'
_symmetry_Int_Tables_number 19
loop_
_symmetry_equiv_pos_site_id
_symmetry_equiv_pos_as_xyz
1 x,y,z
2 1/2-x,-y,1/2+z
3 -x,1/2+y,1/2-z
4 1/2+x,1/2-y,-z
_cell_length_a 7.3690(15)
_cell_length_b 11.313(2)
_cell_length_c 16.228(3)
_cell_angle_alpha 90
_cell_angle_beta 90
_cell_angle_gamma 90
_cell_formula_units_Z 4
loop_
_atom_type_symbol
_atom_type_radius_bond
C 0.68
H 0.23
N 0.68
O 0.68
loop_
_atom_site_label
_atom_site_type_symbol
_atom_site_fract_x
_atom_site_fract_y
_atom_site_fract_z
C1 C 0.1277(3) 0.18919(16) 0.21417(12)
C2 C 0.1454(3) 0.31149(19) -0.16247(12)
H1 H 0.15790 0.23420 -0.18110
C3 C 0.1364(3) 0.2574(2) 0.06856(13)
H2 H 0.09650 0.33190 0.08470
N1 N 0.1272(3) 0.3774(2) -0.30620(11)
C4 C 0.1264(3) 0.40283(19) -0.21745(12)
C5 C 0.1456(3) 0.33617(18) -0.07822(12)
C6 C 0.1683(3) 0.23560(19) -0.01932(12)
C7 C 0.1241(4) 0.45272(18) -0.05314(13)
H3 H 0.12470 0.47060 0.00280
C8 C 0.1648(3) 0.09469(18) 0.26678(14)
H4 H 0.21220 0.02550 0.24460
C9 C 0.1619(3) 0.17562(19) 0.12628(13)
H5 H 0.20590 0.10270 0.10880
O1 O 0.0209(3) 0.23187(17) 0.4606(1)
C10 C 0.0562(3) 0.29395(18) 0.24727(13)
H6 H 0.03050 0.35860 0.21390
C11 C 0.1033(4) 0.5184(2) -0.19327(13)
H7 H 0.08910 0.57840 -0.23190
O2 O -0.0405(3) 0.38980(15) 0.37556(10)
C12 C 0.0634(3) 0.2029(2) 0.38120(13)
O3 O 0.1430(4) 0.4598(2) -0.35396(11)
O4 O 0.2120(3) 0.13815(15) -0.04484(10)
C13 C 0.0256(3) 0.29755(19) 0.32991(13)
C14 C 0.1335(3) 0.1003(2) 0.35144(14)
H8 H 0.15940 0.03680 0.38590
C15 C 0.1018(4) 0.5425(2) -0.10995(15)
H9 H 0.08560 0.61980 -0.09190
O5 O 0.1140(4) 0.27499(19) -0.32808(11)
C16 C -0.0590(5) 0.3469(3) 0.45748(15)
H10 H -0.18630 0.34270 0.47250
H11 H 0.00190 0.39950 0.49570
#END
