
#######################################################################
#
#                 Cambridge Crystallographic Data Centre
#                                CCDC
#
#######################################################################
#
# If this CIF has been generated from an entry in the Cambridge
# Structural Database, then it will include bibliographic, chemical,
# crystal, experimental, refinement or atomic coordinate data resulting
# from the CCDC's data processing and validation procedures.
#
#######################################################################

data_CSD_CIF_PICNEX
_audit_creation_date 2018-07-23
_audit_creation_method CSD-ConQuest-V1
_database_code_CSD PICNEX
_database_code_depnum_ccdc_archive 'CCDC 860838'
_chemical_formula_sum 'C6 H2 N6 O6'
_chemical_formula_moiety
;
C6 H2 N6 O6
;
_journal_coden_Cambridge 1271
_journal_volume 38
_journal_year 2013
_journal_page_first 113
_journal_name_full 'Propellants,Explos.,Pyrotech. '
loop_
_publ_author_name
"E.Ozkaramete"
"N.Senocak"
"K.E.Inal"
"Sevi Oz"
"Ingrid Svoboda"
"O.Atakol"
_chemical_name_systematic
;
2-azido-1,3,5-trinitrobenzene
;
_cell_volume   1902.819
_exptl_crystal_colour 'white'
_exptl_crystal_density_diffrn 1.774
_exptl_crystal_description 'Prism'
_diffrn_ambient_temperature 293
#These two values have been output from a single CSD field.
_refine_ls_R_factor_gt 0.048
_refine_ls_wR_factor_gt 0.048
_symmetry_cell_setting orthorhombic
_symmetry_space_group_name_H-M 'P b c a'
_symmetry_Int_Tables_number 61
loop_
_symmetry_equiv_pos_site_id
_symmetry_equiv_pos_as_xyz
1 x,y,z
2 1/2-x,-y,1/2+z
3 1/2+x,1/2-y,-z
4 -x,1/2+y,1/2-z
5 -x,-y,-z
6 -1/2+x,y,-1/2-z
7 -1/2-x,-1/2+y,z
8 x,-1/2-y,-1/2+z
_cell_length_a 10.3309(7)
_cell_length_b 12.534(1)
_cell_length_c 14.695(1)
_cell_angle_alpha 90
_cell_angle_beta 90
_cell_angle_gamma 90
_cell_formula_units_Z 8
loop_
_atom_type_symbol
_atom_type_radius_bond
C 0.68
H 0.23
N 0.68
O 0.68
loop_
_atom_site_label
_atom_site_type_symbol
_atom_site_fract_x
_atom_site_fract_y
_atom_site_fract_z
C1 C 0.4401(2) 0.68339(18) 0.29788(15)
C2 C 0.3359(2) 0.74889(18) 0.27912(17)
H1 H 0.28570 0.73740 0.22750
C3 C 0.3076(2) 0.83026(19) 0.33694(17)
C4 C 0.3814(2) 0.85187(19) 0.41256(18)
H2 H 0.36420 0.91020 0.44980
C5 C 0.4813(2) 0.78352(19) 0.43044(17)
C6 C 0.5131(2) 0.69517(19) 0.37695(16)
N1 N 0.4747(2) 0.60640(16) 0.22673(14)
N2 N 0.1940(2) 0.89705(18) 0.31862(17)
N3 N 0.5593(2) 0.8029(2) 0.51257(17)
N4 N 0.6189(2) 0.63713(18) 0.40870(15)
N5 N 0.6235(2) 0.5388(2) 0.39477(16)
N6 N 0.6433(3) 0.4516(2) 0.3897(2)
O1 O 0.58482(18) 0.57093(16) 0.22688(13)
O2 O 0.39478(19) 0.58492(15) 0.16914(13)
O3 O 0.12852(19) 0.87573(16) 0.25253(16)
O4 O 0.17084(18) 0.96973(15) 0.37153(15)
O5 O 0.6317(3) 0.8775(3) 0.51113(17)
O6 O 0.5431(2) 0.74493(17) 0.57663(16)
#END
