
#######################################################################
#
#                 Cambridge Crystallographic Data Centre
#                                CCDC
#
#######################################################################
#
# If this CIF has been generated from an entry in the Cambridge
# Structural Database, then it will include bibliographic, chemical,
# crystal, experimental, refinement or atomic coordinate data resulting
# from the CCDC's data processing and validation procedures.
#
#######################################################################

data_CSD_CIF_PIDDAK
_audit_creation_date 2018-07-24
_audit_creation_method CSD-ConQuest-V1
_database_code_CSD PIDDAK
_database_code_depnum_ccdc_archive 'CCDC 1839357'
_chemical_formula_sum 'C21 H33 N1 O2'
_chemical_formula_moiety
;
C21 H33 N1 O2
;
_journal_coden_Cambridge 1200
_journal_volume 26
_journal_year 2018
_journal_page_first 4502
_journal_name_full 'Bioorg.Med.Chem. '
loop_
_publ_author_name
"Patima Phainuphong"
"V.Rukachaisirikul"
"Saowanit Saithong"
"S.Phongpaichit"
"J.Sakayaroj"
"C.Srimaroeng"
"A.Ontawong"
"Acharaporn Duangjai"
"P.Muangnil"
"C.Muanprasat"
_chemical_name_systematic
;
2-nonyl-6-phenyl-7-oxa-1-azabicyclo[3.2.1]octan-4-ol
;
_cell_volume    943.939
_exptl_crystal_colour 'colorless'
_exptl_crystal_density_diffrn 1.166
_exptl_crystal_description 'plate'
_diffrn_ambient_temperature 100.0
#These two values have been output from a single CSD field.
_refine_ls_R_factor_gt 0.0247
_refine_ls_wR_factor_gt 0.0247
_symmetry_cell_setting monoclinic
_symmetry_space_group_name_H-M 'P 21'
_symmetry_Int_Tables_number 4
loop_
_symmetry_equiv_pos_site_id
_symmetry_equiv_pos_as_xyz
1 x,y,z
2 -x,1/2+y,-z
_cell_length_a 6.6892(1)
_cell_length_b 7.1653(1)
_cell_length_c 19.7476(2)
_cell_angle_alpha 90
_cell_angle_beta 94.220(1)
_cell_angle_gamma 90
_cell_formula_units_Z 2
loop_
_atom_type_symbol
_atom_type_radius_bond
C 0.68
H 0.23
N 0.68
O 0.68
loop_
_atom_site_label
_atom_site_type_symbol
_atom_site_fract_x
_atom_site_fract_y
_atom_site_fract_z
C1 C 0.8828(2) 0.5264(2) 0.82327(8)
C2 C 0.8291(2) 0.3943(2) 0.87881(8)
C3 C 0.6392(3) 0.3861(3) 0.90286(9)
C4 C 0.6025(3) 0.2647(3) 0.95561(9)
C5 C 1.1018(2) 0.7988(2) 0.80093(9)
C6 C 0.7540(3) 0.1523(3) 0.98472(9)
C7 C 0.9435(3) 0.1587(3) 0.96087(8)
C8 C 0.9804(2) 0.2788(3) 0.90797(8)
O1 O 0.71003(16) 0.55749(16) 0.77480(6)
C9 C 0.7518(2) 0.8297(2) 0.83444(8)
O2 O 1.28150(18) 0.69495(19) 0.81497(7)
C10 C 0.9480(2) 0.7222(2) 0.84707(8)
C11 C 1.0205(2) 0.7783(3) 0.72681(8)
C12 C 0.7976(2) 0.8293(2) 0.71360(8)
C13 C 0.7165(2) 0.7590(2) 0.64408(8)
C14 C 0.5129(2) 0.8369(3) 0.61887(9)
C15 C 0.4410(2) 0.7650(3) 0.54854(8)
C16 C 0.2405(2) 0.8461(3) 0.52154(9)
C17 C 0.1685(2) 0.7717(3) 0.45173(9)
C18 C -0.0343(2) 0.8478(2) 0.42427(8)
C19 C -0.1047(3) 0.7645(3) 0.35569(9)
C20 C -0.3138(3) 0.8229(3) 0.32850(9)
C21 C -0.3818(3) 0.7271(3) 0.26187(10)
N1 N 0.67265(19) 0.75856(19) 0.76766(7)
H1 H 0.993(3) 0.470(3) 0.7982(9)
H2 H 1.365(3) 0.727(3) 0.7890(11)
H3 H 0.653(3) 0.800(3) 0.8689(9)
H4 H 0.767(3) 0.965(3) 0.8308(10)
H5 H 0.999(3) 0.725(3) 0.8937(10)
H6 H 0.532(3) 0.458(3) 0.8794(10)
H7 H 0.468(3) 0.258(3) 0.9726(10)
H8 H 1.127(3) 0.933(3) 0.812(1)
H9 H 0.728(3) 0.072(3) 1.0226(11)
H10 H 1.037(3) 0.645(3) 0.7134(10)
H11 H 1.101(3) 0.854(3) 0.6977(10)
H12 H 0.779(3) 0.964(3) 0.7166(9)
H13 H 1.048(3) 0.082(3) 0.9820(11)
H14 H 1.114(3) 0.286(3) 0.8906(9)
H15 H 0.714(3) 0.619(3) 0.6478(10)
H16 H 0.812(3) 0.791(3) 0.6113(11)
H17 H 0.411(3) 0.801(3) 0.6527(10)
H18 H 0.518(3) 0.974(4) 0.6172(10)
H19 H 0.545(3) 0.791(3) 0.5175(10)
H20 H 0.430(3) 0.621(3) 0.5512(10)
H21 H 0.252(3) 0.987(4) 0.5202(11)
H22 H 0.140(3) 0.818(3) 0.5535(10)
H23 H 0.163(3) 0.633(4) 0.4539(11)
H24 H 0.274(3) 0.798(3) 0.4180(9)
H25 H -0.134(3) 0.819(3) 0.4567(11)
H26 H -0.030(3) 0.988(3) 0.4207(11)
H27 H -0.106(3) 0.627(4) 0.3616(11)
H28 H -0.006(3) 0.795(3) 0.323(1)
H29 H -0.321(3) 0.964(3) 0.322(1)
H30 H -0.410(3) 0.790(3) 0.3636(10)
H31 H -0.287(3) 0.758(4) 0.2266(12)
H32 H -0.524(3) 0.763(3) 0.2461(10)
H33 H -0.381(3) 0.586(4) 0.2665(11)
#END
