
#######################################################################
#
#                 Cambridge Crystallographic Data Centre
#                                CCDC
#
#######################################################################
#
# If this CIF has been generated from an entry in the Cambridge
# Structural Database, then it will include bibliographic, chemical,
# crystal, experimental, refinement or atomic coordinate data resulting
# from the CCDC's data processing and validation procedures.
#
#######################################################################

data_CSD_CIF_PIDKOF
_audit_creation_date 2018-07-24
_audit_creation_method CSD-ConQuest-V1
_database_code_CSD PIDKOF
_database_code_depnum_ccdc_archive 'CCDC 1830397'
_chemical_formula_sum 'C26 H35 N1 O3'
_chemical_formula_moiety
;
C26 H35 N1 O3
;
_journal_coden_Cambridge 4
_journal_volume 140
_journal_year 2018
_journal_page_first 9678
_journal_name_full 'J.Am.Chem.Soc. '
loop_
_publ_author_name
"Yaxin Wang"
"Xiafei Hu"
"C.A.Morales-Rivera"
"Guo-Xing Li"
"Xin Huang"
"Gang He"
"Peng Liu"
"Gong Chen"
_chemical_name_systematic
;
17-(hydroxyimino)androstan-3-yl benzoate
;
_cell_volume   1169.731
_exptl_crystal_colour 'colorless'
_exptl_crystal_density_diffrn 1.163
_exptl_crystal_description 'block'
_exptl_crystal_preparation 'acetone/hexane'
_diffrn_ambient_temperature 298
#These two values have been output from a single CSD field.
_refine_ls_R_factor_gt 0.0355
_refine_ls_wR_factor_gt 0.0355
_symmetry_cell_setting monoclinic
_symmetry_space_group_name_H-M 'P 21'
_symmetry_Int_Tables_number 4
loop_
_symmetry_equiv_pos_site_id
_symmetry_equiv_pos_as_xyz
1 x,y,z
2 -x,1/2+y,-z
_cell_length_a 6.1268(2)
_cell_length_b 13.2115(5)
_cell_length_c 14.7663(5)
_cell_angle_alpha 90
_cell_angle_beta 101.860(4)
_cell_angle_gamma 90
_cell_formula_units_Z 2
loop_
_atom_type_symbol
_atom_type_radius_bond
C 0.68
H 0.23
N 0.68
O 0.68
loop_
_atom_site_label
_atom_site_type_symbol
_atom_site_fract_x
_atom_site_fract_y
_atom_site_fract_z
C1 C 0.4006(4) 0.7983(2) 0.26673(16)
H1 H 0.27270 0.84430 0.26010
O1 O 0.0738(3) 0.81612(16) 0.09263(10)
C2 C 0.2646(3) 0.72691(19) 0.40259(15)
H2 H 0.13340 0.77100 0.38740
C3 C 0.4459(3) 0.78760(19) 0.46877(15)
H3 H 0.57440 0.74250 0.48740
C4 C 0.3702(4) 0.8194(2) 0.55732(15)
H4 H 0.50090 0.84800 0.59900
C5 C 0.3298(4) 0.69923(19) 0.30960(15)
C6 C 0.4440(4) 0.7829(2) 0.16931(16)
H5 H 0.47990 0.84760 0.14500
H6 H 0.57180 0.73870 0.17260
C7 C 0.1620(5) 0.6429(2) 0.14302(17)
H7 H 0.26940 0.58890 0.14320
H8 H 0.02280 0.62230 0.10320
O2 O -0.0948(3) 0.75249(17) -0.04444(12)
C8 C 0.1243(4) 0.6578(2) 0.24152(15)
H9 H 0.08230 0.59350 0.26450
H10 H 0.00080 0.70430 0.23960
C9 C 0.5259(4) 0.8789(2) 0.42094(17)
H11 H 0.40770 0.92900 0.40870
H12 H 0.65260 0.90930 0.46230
C10 C 0.2456(4) 0.7375(2) 0.10414(16)
H13 H 0.28450 0.72250 0.04440
C11 C 0.1845(4) 0.8998(2) 0.54665(17)
H14 H 0.24340 0.96670 0.53900
H15 H 0.06650 0.88500 0.49370
C12 C 0.1966(4) 0.6358(2) 0.45547(16)
H16 H 0.07980 0.59820 0.41490
H17 H 0.32370 0.59120 0.47360
C13 C -0.0841(4) 0.8155(2) 0.01588(15)
C14 C 0.1136(4) 0.6688(2) 0.54133(16)
H18 H 0.07500 0.60900 0.57280
H19 H -0.02110 0.70850 0.52230
C15 C -0.2462(4) 0.8994(2) 0.01393(15)
C16 C 0.5158(4) 0.6194(3) 0.32381(19)
H20 H 0.56870 0.61120 0.26740
H21 H 0.45850 0.55610 0.34070
H22 H 0.63650 0.64110 0.37220
C17 C 0.2851(4) 0.7316(2) 0.61010(15)
C18 C -0.2065(5) 0.9791(2) 0.07642(17)
H23 H -0.07170 0.98290 0.11890
O3 O -0.0079(4) 0.8187(2) 0.78828(14)
H24 H -0.03990 0.79240 0.83410
C19 C 0.5926(4) 0.8512(2) 0.33088(17)
H25 H 0.72150 0.80690 0.34330
H26 H 0.63310 0.91200 0.30130
C20 C 0.1612(4) 0.7886(2) 0.67288(16)
N1 N 0.1151(4) 0.7485(2) 0.74478(15)
C21 C 0.0988(5) 0.8931(3) 0.63623(19)
H27 H 0.16860 0.94420 0.67990
H28 H -0.06160 0.90250 0.62440
C22 C -0.3664(5) 1.0526(3) 0.0756(2)
H29 H -0.33870 1.10660 0.11680
C23 C -0.4475(5) 0.8948(3) -0.04998(17)
H30 H -0.47480 0.84230 -0.09280
C24 C 0.4726(5) 0.6646(3) 0.6630(2)
H31 H 0.54430 0.63010 0.61990
H32 H 0.41120 0.61580 0.69900
H33 H 0.57970 0.70580 0.70330
C25 C -0.5675(5) 1.0460(3) 0.0136(2)
H34 H -0.67750 1.09420 0.01450
C26 C -0.6060(5) 0.9685(3) -0.0493(2)
H35 H -0.74050 0.96570 -0.09210
#END
