
#######################################################################
#
#                 Cambridge Crystallographic Data Centre
#                                CCDC
#
#######################################################################
#
# If this CIF has been generated from an entry in the Cambridge
# Structural Database, then it will include bibliographic, chemical,
# crystal, experimental, refinement or atomic coordinate data resulting
# from the CCDC's data processing and validation procedures.
#
#######################################################################

data_CSD_CIF_PIDRIF
_audit_creation_date 2013-07-18
_audit_creation_method CSD-ConQuest-V1
_database_code_CSD PIDRIF
_database_code_depnum_ccdc_archive 'CCDC 930514'
_chemical_formula_sum 'C41 H44 N2 O4'
_chemical_formula_moiety
;
C41 H44 N2 O4
;
_journal_coden_Cambridge 177
_journal_volume 11
_journal_year 2013
_journal_page_first 5425
_journal_name_full 'Org.Biomol.Chem. '
loop_
_publ_author_name
"B.J.Laughlin"
"T.L.Duniho"
"S.J.El Homsi"
"B.E.Levy"
"N.Deligonul"
"J.R.Gaffen"
"J.D.Protasiewicz"
"A.G.Tennyson"
"R.C.Smith"
_chemical_name_systematic
;
9,9-Dihexyl-1,4-bis(2-(4-nitrophenyl)vinyl)-9H-fluorene
;
_cell_volume   1710.302
_exptl_crystal_colour 'orange'
_exptl_crystal_density_diffrn 1.221
_exptl_crystal_description 'irregular'
_diffrn_ambient_temperature 160
_refine_special_details
;
C33,C34,C35 and C33A,C34A,C35A disordered over two sites with occupancies 
0.50:0.50.
;
#These two values have been output from a single CSD field.
_refine_ls_R_factor_gt 0.0969
_refine_ls_wR_factor_gt 0.0969
_symmetry_cell_setting triclinic
_symmetry_space_group_name_H-M 'P -1'
_symmetry_Int_Tables_number 2
loop_
_symmetry_equiv_pos_site_id
_symmetry_equiv_pos_as_xyz
1 x,y,z
2 -x,-y,-z
_cell_length_a 10.771(4)
_cell_length_b 12.902(5)
_cell_length_c 14.467(6)
_cell_angle_alpha 114.478(5)
_cell_angle_beta 91.822(6)
_cell_angle_gamma 107.997(5)
_cell_formula_units_Z 2
loop_
_atom_type_symbol
_atom_type_radius_bond
C 0.68
H 0.23
N 0.68
O 0.68
loop_
_atom_site_label
_atom_site_type_symbol
_atom_site_fract_x
_atom_site_fract_y
_atom_site_fract_z
O1 O 0.2779(5) 1.1497(5) 0.7992(5)
C1 C 0.4529(6) 0.8781(5) 0.5641(5)
H1 H 0.46850 0.84040 0.49590
N1 N 1.1672(5) -0.0128(4) 0.3171(4)
N2 N 0.3061(6) 1.1104(5) 0.7132(6)
O2 O 1.1940(4) -0.0402(4) 0.2301(3)
O3 O 1.2039(4) -0.0465(4) 0.3771(3)
O4 O 0.2851(6) 1.1421(5) 0.6477(5)
C2 C 0.9432(5) 0.2170(4) 0.4163(4)
C3 C 1.0886(5) 0.0666(4) 0.3516(4)
C4 C 0.9956(5) 0.1829(5) 0.4828(4)
H2 H 0.98100 0.21210 0.55200
C5 C 1.0677(5) 0.1085(5) 0.4518(4)
H3 H 1.10300 0.08590 0.49860
C6 C 0.9655(5) 0.1733(5) 0.3154(4)
H4 H 0.93140 0.19670 0.26880
C7 C 1.0367(5) 0.0961(5) 0.2821(4)
H5 H 1.04950 0.06410 0.21250
C8 C 0.8472(6) 0.3567(5) 0.5432(5)
C9 C 0.8712(5) 0.3008(5) 0.4485(4)
C10 C 0.7773(5) 0.4432(4) 0.5735(4)
C11 C 0.7183(5) 0.5992(5) 0.5517(4)
H6 H 0.71550 0.64070 0.51120
C12 C 0.7751(5) 0.5112(5) 0.5205(4)
H7 H 0.81430 0.49640 0.46050
C13 C 0.6646(5) 0.6288(4) 0.6420(4)
C14 C 0.6067(5) 0.7244(5) 0.6734(5)
C15 C 0.4908(5) 0.8463(5) 0.6376(4)
C16 C 0.5508(5) 0.7539(5) 0.6097(5)
C17 C 0.4646(5) 0.9032(5) 0.7373(5)
H8 H 0.48830 0.88150 0.78880
C18 C 0.3700(6) 1.0184(5) 0.6864(6)
C19 C 0.4057(6) 0.9890(5) 0.7623(5)
H9 H 0.38980 1.02740 0.83030
C20 C 0.6268(5) 0.5816(5) 0.8029(4)
C21 C 0.6683(5) 0.5632(5) 0.6974(4)
C22 C 0.7174(5) 0.4684(5) 0.6616(4)
C23 C 0.6939(5) 0.4068(5) 0.7290(4)
C24 C 0.7062(5) 0.3009(5) 0.7201(4)
H10 H 0.73790 0.25380 0.66270
C25 C 0.6233(6) 0.3307(5) 0.8780(4)
H11 H 0.60030 0.30430 0.92950
C26 C 0.6411(5) 0.4728(5) 0.8107(4)
C27 C 0.6081(5) 0.4357(5) 0.8860(4)
H12 H 0.57520 0.48220 0.94290
C28 C 0.6717(5) 0.2627(5) 0.7958(4)
H13 H 0.68150 0.19000 0.79100
C29 C 0.7254(5) 0.7004(5) 0.8899(4)
H14 H 0.71310 0.76990 0.88290
H15 H 0.70260 0.70520 0.95700
C30 C 0.8714(5) 0.7148(6) 0.8926(4)
H16 H 0.89620 0.71250 0.82670
H17 H 0.88510 0.64580 0.89960
C31 C 0.4858(5) 0.5810(5) 0.8107(4)
H18 H 0.46580 0.57990 0.87670
H19 H 0.48200 0.65780 0.81320
C32 C 0.3790(6) 0.4756(6) 0.7236(4)
H20 H 0.38140 0.39870 0.72190
H21 H 0.39970 0.47570 0.65750
C33 C 0.3923(6) 0.9641(6) 0.5883(5)
H22 H 0.36650 0.98510 0.53700
C34 C 0.2350(6) 0.4770(7) 0.7312(5)
C35 C 0.1991(12) 0.4423(13) 0.819(1)
C36 C 1.3212(15) 0.8399(14) 0.9615(11)
C37 C 0.0524(11) 0.4231(10) 0.8219(8)
C38 C 0.9613(7) 0.8343(6) 0.9822(6)
C39 C 1.1696(16) 0.7877(14) 0.9649(12)
C40 C 1.0988(10) 0.8838(10) 0.9811(7)
H23 H 0.543(4) 0.707(4) 0.522(4)
H24 H 0.834(4) 0.309(4) 0.396(3)
H25 H 0.606(5) 0.772(5) 0.751(4)
H26 H 0.889(6) 0.341(5) 0.584(5)
C41 C 0.0188(15) 0.4146(14) 0.9226(12)
C42? C 0.0655(17) 0.2783(15) 0.7816(13)
C43? C 0.1874(14) 0.4999(14) 0.8431(11)
C44? C 0.1799(16) 0.3939(16) 0.8605(13)
C45? C 1.1321(18) 0.8046(17) 0.9551(14)
C46? C 1.224(2) 0.928(2) 0.9961(16)
C47? C 1.3587(17) 0.9021(16) 0.9970(13)
#END
