
#######################################################################
#
#                 Cambridge Crystallographic Data Centre
#                                CCDC
#
#######################################################################
#
# If this CIF has been generated from an entry in the Cambridge
# Structural Database, then it will include bibliographic, chemical,
# crystal, experimental, refinement or atomic coordinate data resulting
# from the CCDC's data processing and validation procedures.
#
#######################################################################

data_CSD_CIF_PIDSEA
_audit_creation_date 1994-07-28
_audit_creation_method CSD-ConQuest-V1
_database_code_CSD PIDSEA
_chemical_formula_sum 'C17 H16 N2 O4'
_chemical_formula_moiety
;
C17 H16 N2 O4
;
_journal_coden_Cambridge 151
_journal_volume 36
_journal_year 1993
_journal_page_first 3580
_journal_name_full 'J.Med.Chem. '
loop_
_publ_author_name
"Y.Satoh"
"J.L.Stanton"
"A.J.Hutchison"
"A.H.Libby"
"T.J.Kowalski"
"W.H.Lee"
"D.H.White"
"E.F.Kimble"
_chemical_name_systematic
;
N-(6-Phenoxy-2H-chromen-3-ylmethyl)-N-hydroxyurea
;
_cell_volume   1523.347
_exptl_crystal_density_diffrn 1.362
_exptl_special_details
;
agent which inhibits sheep seminal vesicle cyclo-oxygenase and guinea pig PMN 
5-lipoxygenase
Space group given as P2/m in paper, should probably be P21/c
;
_diffrn_ambient_temperature ?
_diffrn_special_details
;
The study was carried out at room temperature,in the range 283-303K

;
#These two values have been output from a single CSD field.
_refine_ls_R_factor_gt 0.0548
_refine_ls_wR_factor_gt 0.0548
_symmetry_cell_setting monoclinic
_symmetry_space_group_name_H-M 'P 21/c'
_symmetry_Int_Tables_number 14
loop_
_symmetry_equiv_pos_site_id
_symmetry_equiv_pos_as_xyz
1 x,y,z
2 -x,1/2+y,1/2-z
3 -x,-y,-z
4 x,-1/2-y,-1/2+z
_cell_length_a 16.901(3)
_cell_length_b 5.2193(8)
_cell_length_c 19.214(3)
_cell_angle_alpha 90
_cell_angle_beta 116.001(11)
_cell_angle_gamma 90
_cell_formula_units_Z 4
loop_
_atom_type_symbol
_atom_type_radius_bond
C 0.68
H 0.23
N 0.68
O 0.68
loop_
_atom_site_label
_atom_site_type_symbol
_atom_site_fract_x
_atom_site_fract_y
_atom_site_fract_z
C1 C 0.2019(3) -0.0510(9) 0.3225(3)
C2 C 0.1221(3) 0.0525(11) 0.2711(3)
C3 C 0.1181(3) 0.2459(12) 0.2222(3)
C4 C 0.1945(3) 0.3427(10) 0.2241(3)
C5 C 0.2752(3) 0.2422(9) 0.2753(3)
C6 C 0.2782(3) 0.0512(8) 0.3239(2)
O1 O 0.3555(2) -0.0591(7) 0.3787(2)
C7 C 0.4342(3) -0.0083(9) 0.3728(3)
C8 C 0.4543(3) -0.1412(8) 0.3218(2)
C9 C 0.5336(3) -0.0961(8) 0.3189(2)
C10 C 0.5908(2) 0.0829(7) 0.3682(2)
C11 C 0.5722(2) 0.2150(7) 0.4218(2)
C12 C 0.4918(2) 0.1675(8) 0.4234(2)
C13 C 0.6392(2) 0.3883(7) 0.4748(2)
C14 C 0.7053(2) 0.4617(7) 0.4599(2)
C15 C 0.7105(2) 0.3634(8) 0.3892(2)
O2 O 0.6700(2) 0.1186(5) 0.3645(1)
C16 C 0.7706(2) 0.6601(7) 0.5081(2)
N1 N 0.8609(2) 0.5931(5) 0.5245(2)
O3 O 0.8952(2) 0.3917(5) 0.5786(2)
C17 C 0.9199(2) 0.7757(7) 0.5287(2)
O4 O 0.8936(2) 0.9793(5) 0.4921(2)
N2 N 1.0047(2) 0.7256(7) 0.5708(2)
H1 H 0.20420 -0.19100 0.35570
H2 H 0.06820 -0.01000 0.27010
H3 H 0.06180 0.31400 0.18720
H4 H 0.19240 0.47660 0.18910
H5 H 0.32940 0.30900 0.27800
H6 H 0.41310 -0.26530 0.28870
H7 H 0.54850 -0.18690 0.28280
H8 H 0.47610 0.25720 0.45920
H9 H 0.63510 0.44990 0.52010
H10 H 0.77090 0.35460 0.39800
H11 H 0.68090 0.48360 0.34810
H12 H 0.76660 0.67940 0.55610
H13 H 0.75570 0.82110 0.48130
H14 H 0.8917(21) 0.2398(40) 0.5456(16)
H15 H 1.04150 0.81860 0.54690
H16 H 1.02670 0.56280 0.59930
#END
