
#######################################################################
#
#                 Cambridge Crystallographic Data Centre
#                                CCDC
#
#######################################################################
#
# If this CIF has been generated from an entry in the Cambridge
# Structural Database, then it will include bibliographic, chemical,
# crystal, experimental, refinement or atomic coordinate data resulting
# from the CCDC's data processing and validation procedures.
#
#######################################################################

data_CSD_CIF_PIFPEA
_audit_creation_date 2007-07-19
_audit_creation_method CSD-ConQuest-V1
_database_code_CSD PIFPEA
_database_code_depnum_ccdc_archive 'CCDC 647715'
_chemical_formula_sum 'C14 H11 N3 O3'
_chemical_formula_moiety
;
C14 H11 N3 O3
;
_journal_coeditor_code "IUCr AT2278"
_journal_coden_Cambridge 1370
_journal_volume 63
_journal_year 2007
_journal_page_first o2736
_journal_name_full 'Acta Crystallogr.,Sect.E:Struct.Rep.Online '
loop_
_publ_author_name
"Huan-Mei Guo"
_chemical_name_systematic
;
2-Nitrobenzaldehyde benzoylhydrazone
;
_cell_volume   1274.887
_exptl_crystal_colour 'colorless'
_exptl_crystal_density_diffrn 1.403
_exptl_crystal_description 'block'
_exptl_crystal_preparation 'ethanol'
_diffrn_ambient_temperature 113
#These two values have been output from a single CSD field.
_refine_ls_R_factor_gt 0.0555
_refine_ls_wR_factor_gt 0.0555
_symmetry_cell_setting monoclinic
_symmetry_space_group_name_H-M 'P 21/n'
_symmetry_Int_Tables_number 14
loop_
_symmetry_equiv_pos_site_id
_symmetry_equiv_pos_as_xyz
1 x,y,z
2 1/2-x,1/2+y,1/2-z
3 -x,-y,-z
4 -1/2+x,-1/2-y,-1/2+z
_cell_length_a 6.9121(12)
_cell_length_b 25.854(2)
_cell_length_c 7.6626(14)
_cell_angle_alpha 90
_cell_angle_beta 111.406(7)
_cell_angle_gamma 90
_cell_formula_units_Z 4
loop_
_atom_type_symbol
_atom_type_radius_bond
C 0.68
H 0.23
N 0.68
O 0.68
loop_
_atom_site_label
_atom_site_type_symbol
_atom_site_fract_x
_atom_site_fract_y
_atom_site_fract_z
O1 O 0.40173(19) 0.30647(5) 0.67476(18)
O2 O 0.0596(3) 0.06885(6) 0.4061(2)
O3 O 0.2749(3) 0.00827(6) 0.5525(2)
N1 N 0.1914(2) 0.24328(6) 0.4954(2)
N2 N 0.2363(2) 0.21033(6) 0.6474(2)
N3 N 0.1778(3) 0.04839(7) 0.5520(3)
C1 C 0.2827(3) 0.29049(8) 0.5203(2)
C2 C 0.2344(3) 0.32216(7) 0.3462(3)
C3 C 0.2281(3) 0.37602(8) 0.3620(3)
H1 H 0.24900 0.39140 0.48020
C4 C 0.1913(3) 0.40687(8) 0.2055(3)
H2 H 0.18450 0.44340 0.21580
C5 C 0.1644(3) 0.38448(9) 0.0339(3)
H3 H 0.14000 0.40580 -0.07290
C6 C 0.1727(3) 0.33112(9) 0.0163(3)
H4 H 0.15460 0.31610 -0.10170
C7 C 0.2077(3) 0.29990(8) 0.1728(3)
H5 H 0.21350 0.26340 0.16170
C8 C 0.1707(3) 0.16388(8) 0.6035(3)
H6 H 0.10340 0.15410 0.47600
C9 C 0.2021(3) 0.12596(7) 0.7554(3)
C10 C 0.2048(3) 0.07208(8) 0.7335(3)
C11 C 0.2366(3) 0.03809(8) 0.8819(3)
H7 H 0.24050 0.00190 0.86290
C12 C 0.2625(3) 0.05726(9) 1.0573(3)
H8 H 0.28140 0.03430 1.15900
C13 C 0.2607(3) 0.11027(8) 1.0839(3)
H9 H 0.27820 0.12360 1.20430
C14 C 0.2337(3) 0.14395(8) 0.9368(3)
H10 H 0.23670 0.18020 0.95890
H11 H 0.090(3) 0.2336(8) 0.385(3)
#END
