
#######################################################################
#
#                 Cambridge Crystallographic Data Centre
#                                CCDC
#
#######################################################################
#
# If this CIF has been generated from an entry in the Cambridge
# Structural Database, then it will include bibliographic, chemical,
# crystal, experimental, refinement or atomic coordinate data resulting
# from the CCDC's data processing and validation procedures.
#
#######################################################################

data_CSD_CIF_PIGPOK
_audit_creation_date 1994-09-09
_audit_creation_method CSD-ConQuest-V1
_database_code_CSD PIGPOK
_chemical_formula_sum 'C14 H18 N4 O9'
_chemical_formula_moiety
;
C14 H18 N4 O9
;
_journal_coden_Cambridge 24
_journal_volume 35
_journal_year 1994
_journal_page_first 89
_journal_name_full 'Tetrahedron Lett. '
loop_
_publ_author_name
"J.-P.Praly"
"C.Di Stefano"
"G.Descotes"
"R.Faure"
_chemical_name_systematic
;
3-Acetoxymethyl-4,5,6-triacetoxy-2-oxa-1,8,9,10-tetra-azabicyclo(5.3.0)deca-7,
9-diene
;
_chemical_melting_point 410.15
_cell_volume   1822.054
_exptl_crystal_colour 'colorless'
_exptl_crystal_density_diffrn 1.409
_diffrn_ambient_temperature ?
_diffrn_special_details
;
The study was carried out at room temperature,in the range 283-303K

;
#These two values have been output from a single CSD field.
_refine_ls_R_factor_gt 0.034
_refine_ls_wR_factor_gt 0.034
_symmetry_cell_setting orthorhombic
_symmetry_space_group_name_H-M 'P 21 21 21'
_symmetry_Int_Tables_number 19
loop_
_symmetry_equiv_pos_site_id
_symmetry_equiv_pos_as_xyz
1 x,y,z
2 1/2+x,1/2-y,-z
3 -x,1/2+y,1/2-z
4 1/2-x,-y,1/2+z
_cell_length_a 6.690(1)
_cell_length_b 12.199(2)
_cell_length_c 22.326(2)
_cell_angle_alpha 90
_cell_angle_beta 90
_cell_angle_gamma 90
_cell_formula_units_Z 4
loop_
_atom_type_symbol
_atom_type_radius_bond
C 0.68
H 0.23
N 0.68
O 0.68
loop_
_atom_site_label
_atom_site_type_symbol
_atom_site_fract_x
_atom_site_fract_y
_atom_site_fract_z
O1 O 0.7827(3) 0.0362(2) 0.22091(9)
O2 O 0.7204(3) -0.0526(2) 0.03226(9)
O3 O 0.6960(5) -0.2319(2) 0.0515(1)
O4 O 0.4226(3) 0.0814(2) 0.06271(9)
O5 O 0.5357(5) 0.1750(2) -0.0162(1)
O6 O 0.4886(3) 0.2465(2) 0.14543(9)
O7 O 0.1690(3) 0.2031(2) 0.1618(1)
O8 O 0.5121(4) 0.1417(2) 0.28862(9)
O9 O 0.3127(5) 0.2876(2) 0.2913(1)
N1 N 0.9155(4) -0.0097(2) 0.1821(1)
N2 N 1.1016(4) -0.0365(2) 0.2008(1)
N3 N 1.1801(4) -0.0830(2) 0.1544(1)
N4 N 1.0525(4) -0.0857(2) 0.1064(1)
C1 C 0.8850(4) -0.0404(2) 0.1259(1)
C2 C 0.6892(5) -0.0277(2) 0.0941(1)
C3 C 0.6082(4) 0.0893(2) 0.0949(1)
C4 C 0.5512(4) 0.1354(2) 0.1558(1)
C5 C 0.7231(4) 0.1461(2) 0.2011(1)
C6 C 0.6634(5) 0.2046(3) 0.2580(1)
C7 C 0.7163(5) -0.1594(3) 0.0163(2)
C8 C 0.7402(7) -0.1713(3) -0.0495(2)
C9 C 0.4103(6) 0.1208(3) 0.0067(1)
C10 C 0.2166(7) 0.0858(4) -0.0212(2)
C11 C 0.2879(5) 0.2707(3) 0.1510(1)
C12 C 0.2587(6) 0.3901(3) 0.1427(2)
C13 C 0.3394(6) 0.1931(3) 0.3026(1)
C14 C 0.2027(7) 0.1152(4) 0.3330(2)
H1 H 0.596(5) -0.079(3) 0.113(1)
H2 H 0.688(5) 0.145(3) 0.074(1)
H3 H 0.465(5) 0.092(3) 0.172(1)
H4 H 0.822(5) 0.175(3) 0.181(1)
H5 H 0.608(5) 0.283(3) 0.248(1)
H6 H 0.761(5) 0.215(3) 0.282(1)
H7 H 0.672(5) -0.244(3) -0.063(1)
H8 H 0.672(5) -0.115(3) -0.067(1)
H9 H 0.857(5) -0.157(3) -0.061(1)
H10 H 0.206(5) 0.006(3) -0.019(1)
H11 H 0.210(5) 0.125(3) -0.058(1)
H12 H 0.121(5) 0.146(3) 0.001(1)
H13 H 0.311(5) 0.434(3) 0.177(1)
H14 H 0.276(5) 0.412(3) 0.101(1)
H15 H 0.150(5) 0.406(3) 0.149(1)
H16 H 0.165(5) 0.058(3) 0.308(1)
H17 H 0.122(5) 0.166(3) 0.355(1)
H18 H 0.278(5) 0.090(3) 0.375(1)
#END
