
#######################################################################
#
#                 Cambridge Crystallographic Data Centre
#                                CCDC
#
#######################################################################
#
# If this CIF has been generated from an entry in the Cambridge
# Structural Database, then it will include bibliographic, chemical,
# crystal, experimental, refinement or atomic coordinate data resulting
# from the CCDC's data processing and validation procedures.
#
#######################################################################

data_CSD_CIF_PIGSOP
_audit_creation_date 2013-07-19
_audit_creation_method CSD-ConQuest-V1
_database_code_CSD PIGSOP
_database_code_depnum_ccdc_archive 'CCDC 884547'
_chemical_formula_sum 'C9 H3 N7 O10'
_chemical_formula_moiety
;
C9 H3 N7 O10
;
_journal_coden_Cambridge 440
_journal_volume 37
_journal_year 2013
_journal_page_first 2837
_journal_name_full 'New J.Chem. '
loop_
_publ_author_name
"Kehui Hou"
"Congming Ma"
"Zuliang Liu"
_chemical_name_systematic
;
2,4-Dinitro-1-(2,4,6-trinitrophenyl)-1H-imidazole
;
_cell_volume   1403.079
_exptl_crystal_density_diffrn 1.748
_diffrn_ambient_temperature 293
#These two values have been output from a single CSD field.
_refine_ls_R_factor_gt 0.0508
_refine_ls_wR_factor_gt 0.0508
_symmetry_cell_setting monoclinic
_symmetry_space_group_name_H-M 'P 21/n'
_symmetry_Int_Tables_number 14
loop_
_symmetry_equiv_pos_site_id
_symmetry_equiv_pos_as_xyz
1 x,y,z
2 1/2-x,1/2+y,1/2-z
3 -x,-y,-z
4 -1/2+x,-1/2-y,-1/2+z
_cell_length_a 8.7000(17)
_cell_length_b 11.397(2)
_cell_length_c 14.164(3)
_cell_angle_alpha 90
_cell_angle_beta 92.50(3)
_cell_angle_gamma 90
_cell_formula_units_Z 4
loop_
_atom_type_symbol
_atom_type_radius_bond
C 0.68
H 0.23
N 0.68
O 0.68
loop_
_atom_site_label
_atom_site_type_symbol
_atom_site_fract_x
_atom_site_fract_y
_atom_site_fract_z
N1 N 0.4150(2) 0.4897(2) 0.38527(16)
C1 C 0.3597(3) 0.3991(3) 0.33802(19)
O1 O 0.5846(3) 0.3411(3) 0.2772(2)
N2 N 0.2042(2) 0.38556(19) 0.34321(14)
C2 C 0.1581(3) 0.4754(2) 0.39930(17)
H1 H 0.05850 0.49150 0.41690
O2 O 0.3837(3) 0.2300(2) 0.25021(18)
C3 C 0.2884(3) 0.5365(2) 0.42421(17)
O3 O 0.1793(3) 0.6597(2) 0.52922(18)
N3 N 0.4499(3) 0.3171(3) 0.2839(2)
C4 C 0.0987(3) 0.3015(2) 0.29850(17)
N4 N 0.2952(3) 0.6393(2) 0.48544(16)
O4 O 0.4123(3) 0.6984(2) 0.49139(16)
N5 N 0.1162(3) 0.1729(2) 0.44194(18)
C5 C 0.0445(3) 0.2049(2) 0.34815(17)
O5 O 0.0361(3) 0.1225(3) 0.49738(18)
N6 N -0.2730(3) 0.0971(2) 0.18644(19)
O6 O 0.2522(3) 0.1969(2) 0.45645(16)
C6 C -0.0769(3) 0.1368(2) 0.3134(2)
H2 H -0.11300 0.07340 0.34730
C7 C -0.1425(3) 0.1673(2) 0.22581(19)
N7 N 0.0844(3) 0.4276(2) 0.15214(16)
O7 O -0.3270(3) 0.0220(3) 0.2357(2)
C8 C -0.0925(3) 0.2613(2) 0.17245(18)
H3 H -0.13880 0.27910 0.11380
O8 O -0.3219(3) 0.1198(2) 0.10627(17)
C9 C 0.0294(3) 0.3274(2) 0.21040(18)
O9 O -0.0083(3) 0.4752(3) 0.09897(18)
O10 O 0.2199(3) 0.4549(3) 0.16088(18)
#END
