
#######################################################################
#
#                 Cambridge Crystallographic Data Centre
#                                CCDC
#
#######################################################################
#
# If this CIF has been generated from an entry in the Cambridge
# Structural Database, then it will include bibliographic, chemical,
# crystal, experimental, refinement or atomic coordinate data resulting
# from the CCDC's data processing and validation procedures.
#
#######################################################################

data_CSD_CIF_PIJRUY
_audit_creation_date 2018-07-25
_audit_creation_method CSD-ConQuest-V1
_database_code_CSD PIJRUY
_database_code_depnum_ccdc_archive 'CCDC 1838942'
_chemical_formula_sum 'C18 H17 N3 O3'
_chemical_formula_moiety
;
C18 H17 N3 O3
;
_journal_coden_Cambridge 2020
_journal_volume 3
_journal_year 2018
_journal_page_first 7900
_journal_name_full 'Chem. Sel. '
loop_
_publ_author_name
"J.Gujral"
"T.Prabhakar Reddy"
"B.Gorachand"
"D.B.Ramachary"
_chemical_name_systematic
;
6-(2-nitrophenyl)-5-phenyltetrahydro-1H,5H-pyrazolo[1,2-a]pyrazol-1-one
;
_cell_volume   1628.280
_exptl_crystal_colour 'colorless'
_exptl_crystal_density_diffrn 1.319
_exptl_crystal_description 'needle'
_diffrn_ambient_temperature 293
#These two values have been output from a single CSD field.
_refine_ls_R_factor_gt 0.11
_refine_ls_wR_factor_gt 0.11
loop_
_citation_database_id_CSD
_citation_special_details
PIJSAF "is a stereoisomer of this entry"
_symmetry_cell_setting monoclinic
_symmetry_space_group_name_H-M 'P 21/c'
_symmetry_Int_Tables_number 14
loop_
_symmetry_equiv_pos_site_id
_symmetry_equiv_pos_as_xyz
1 x,y,z
2 -x,1/2+y,1/2-z
3 -x,-y,-z
4 x,-1/2-y,-1/2+z
_cell_length_a 10.100(3)
_cell_length_b 9.045(2)
_cell_length_c 17.889(4)
_cell_angle_alpha 90
_cell_angle_beta 94.895(10)
_cell_angle_gamma 90
_cell_formula_units_Z 4
loop_
_atom_type_symbol
_atom_type_radius_bond
C 0.68
H 0.23
N 0.68
O 0.68
loop_
_atom_site_label
_atom_site_type_symbol
_atom_site_fract_x
_atom_site_fract_y
_atom_site_fract_z
C1 C 0.7284(2) 0.3113(2) 0.12028(12)
H1 H 0.70970 0.38165 0.07906
N1 N 0.6319(2) 0.3339(3) 0.17786(12)
C2 C 0.7380(2) 0.1054(2) 0.02099(13)
N2 N 0.5086(2) 0.2937(3) 0.13521(14)
O1 O 0.3594(2) 0.4109(3) 0.04942(15)
C3 C 0.6869(2) 0.1552(3) 0.09390(13)
H2 H 0.71902 0.08519 0.13315
C4 C 0.8705(2) 0.3269(2) 0.15159(13)
C5 C 0.9565(3) 0.4187(3) 0.11709(17)
H3 H 0.92579 0.47260 0.07484
C6 C 0.7855(3) -0.0352(3) 0.00760(14)
N3 N 0.7783(4) -0.1517(3) 0.06343(18)
C7 C 0.7422(4) 0.2031(3) -0.03845(16)
H4 H 0.71207 0.29925 -0.03276
C8 C 0.9200(3) 0.2479(3) 0.21459(14)
H5 H 0.86430 0.18438 0.23817
C9 C 0.6110(3) 0.4900(4) 0.19801(19)
H6 H 0.69347 0.54498 0.19807
H7 H 0.57885 0.49686 0.24745
O2 O 0.8663(5) -0.2433(3) 0.06961(19)
C10 C 1.0881(3) 0.4305(4) 0.1453(2)
H8 H 1.14540 0.49149 0.12140
C11 C 0.8385(3) -0.0749(3) -0.05883(19)
H9 H 0.87288 -0.16917 -0.06454
O3 O 0.6841(4) -0.1560(3) 0.10046(17)
C12 C 0.4471(3) 0.4162(4) 0.10085(18)
C13 C 0.5328(3) 0.1615(3) 0.09199(18)
H10 H 0.49281 0.17002 0.04092
H11 H 0.49796 0.07427 0.11497
C14 C 1.0514(3) 0.2630(4) 0.24251(18)
H12 H 1.08312 0.21105 0.28521
C15 C 1.1346(3) 0.3539(4) 0.2076(2)
H13 H 1.22299 0.36349 0.22631
C16 C 0.8395(4) 0.0258(4) -0.1154(2)
H14 H 0.87409 0.00117 -0.16035
C17 C 0.7889(5) 0.1636(4) -0.1051(2)
H15 H 0.78619 0.23174 -0.14411
C18 C 0.5087(3) 0.5504(4) 0.1390(2)
H16 H 0.44225 0.60828 0.16205
H17 H 0.55055 0.61220 0.10350
#END
