
#######################################################################
#
#                 Cambridge Crystallographic Data Centre
#                                CCDC
#
#######################################################################
#
# If this CIF has been generated from an entry in the Cambridge
# Structural Database, then it will include bibliographic, chemical,
# crystal, experimental, refinement or atomic coordinate data resulting
# from the CCDC's data processing and validation procedures.
#
#######################################################################

data_CSD_CIF_PIKQIJ
_audit_creation_date 1998-11-13
_audit_creation_method CSD-ConQuest-V1
_database_code_CSD PIKQIJ
_database_code_depnum_ccdc_archive 'CCDC 118137'
_database_code_depnum_ccdc_journal 182/893
_chemical_formula_sum 'C11 H15 N1 O2'
_chemical_formula_moiety
;
C11 H15 N1 O2
;
_journal_coden_Cambridge 182
_journal_year 1998
_journal_page_first 1487
_journal_name_full 'Chem.Commun. '
loop_
_publ_author_name
"I.A.O'Neil"
"A.J.Potter"
_chemical_name_systematic
;
N-Benzyl-6-hydroxy-tetrahydro-1,2-oxazine
;
_cell_volume   1023.263
_exptl_crystal_colour 'colorless'
_exptl_crystal_density_diffrn 1.254
_exptl_crystal_description 'prism'
_exptl_crystal_preparation 'dichloromethane'
_diffrn_ambient_temperature 153.2
#These two values have been output from a single CSD field.
_refine_ls_R_factor_gt 0.04
_refine_ls_wR_factor_gt 0.04
_symmetry_cell_setting monoclinic
_symmetry_space_group_name_H-M 'P 21/c'
_symmetry_Int_Tables_number 14
loop_
_symmetry_equiv_pos_site_id
_symmetry_equiv_pos_as_xyz
1 x,y,z
2 -x,1/2+y,1/2-z
3 -x,-y,-z
4 x,-1/2-y,-1/2+z
_cell_length_a 9.036(6)
_cell_length_b 13.551(6)
_cell_length_c 8.478(4)
_cell_angle_alpha 90
_cell_angle_beta 99.70(4)
_cell_angle_gamma 90
_cell_formula_units_Z 4
loop_
_atom_type_symbol
_atom_type_radius_bond
C 0.68
H 0.23
N 0.68
O 0.68
loop_
_atom_site_label
_atom_site_type_symbol
_atom_site_fract_x
_atom_site_fract_y
_atom_site_fract_z
O1 O 0.4093(2) 0.1535(1) 0.4002(2)
O2 O 0.2606(2) 0.1538(1) 0.1567(2)
N1 N 0.4131(2) 0.1786(2) 0.5693(2)
C1 C 0.1725(3) 0.0952(2) 0.5598(4)
C2 C 0.5737(3) 0.1777(2) 0.6381(3)
C3 C 0.3368(3) 0.0965(2) 0.6367(3)
C4 C 0.1568(3) 0.0904(2) 0.3776(3)
C5 C 0.6310(3) 0.3564(2) 0.5874(3)
C6 C 0.2566(3) 0.1667(2) 0.3180(3)
C7 C 0.6642(3) 0.2570(2) 0.5725(3)
C8 C 0.8763(3) 0.3034(3) 0.4501(4)
C9 C 0.7186(4) 0.4277(2) 0.5311(4)
C10 C 0.7879(3) 0.2313(2) 0.5038(4)
C11 C 0.8419(4) 0.4016(3) 0.4636(4)
H1 H 0.54550 0.37650 0.63780
H2 H 0.96230 0.28380 0.40020
H3 H 0.69230 0.49770 0.53830
H4 H 0.81310 0.16180 0.49330
H5 H 0.90410 0.45250 0.42760
H6 H 0.58600 0.18570 0.75340
H7 H 0.61730 0.11410 0.62010
H8 H 0.11990 0.04130 0.59870
H9 H 0.12460 0.15550 0.58790
H10 H 0.38190 0.03390 0.61670
H11 H 0.34650 0.10320 0.75120
H12 H 0.18840 0.02570 0.34800
H13 H 0.05440 0.09880 0.32790
H14 H 0.21960 0.23280 0.33980
#END
