
#######################################################################
#
#                 Cambridge Crystallographic Data Centre
#                                CCDC
#
#######################################################################
#
# If this CIF has been generated from an entry in the Cambridge
# Structural Database, then it will include bibliographic, chemical,
# crystal, experimental, refinement or atomic coordinate data resulting
# from the CCDC's data processing and validation procedures.
#
#######################################################################

data_CSD_CIF_PIKRAC
_audit_creation_date 1994-09-21
_audit_creation_method CSD-ConQuest-V1
_database_code_CSD PIKRAC
_database_code_depnum_ccdc_archive 'CCDC 1233689'
_chemical_formula_sum 'C17 H10 N4 O8'
_chemical_formula_moiety
;
C17 H10 N4 O8
;
_journal_coden_Cambridge 3
_journal_volume 47
_journal_year 1993
_journal_page_first 410
_journal_name_full 'Acta Chem.Scand. '
loop_
_publ_author_name
"L.Eberson"
"M.P.Hartshorn"
"F.Radner"
"W.T.Robinson"
_chemical_name_systematic
;
trans-2-Nitro-3-trinitromethyl-2,3-dihydrofluoroanthene
;
_chemical_melting_point 396.65
_cell_volume    804.967
_exptl_special_details
;
Melts with decomposition.

;
_diffrn_ambient_temperature 123
#These two values have been output from a single CSD field.
_refine_ls_R_factor_gt 0.069
_refine_ls_wR_factor_gt 0.069
_symmetry_cell_setting monoclinic
_symmetry_space_group_name_H-M 'P 21'
_symmetry_Int_Tables_number 4
loop_
_symmetry_equiv_pos_site_id
_symmetry_equiv_pos_as_xyz
1 x,y,z
2 -x,1/2+y,-z
_cell_length_a 11.124(25)
_cell_length_b 6.286(4)
_cell_length_c 11.856(4)
_cell_angle_alpha 90
_cell_angle_beta 103.84(4)
_cell_angle_gamma 90
_cell_formula_units_Z 2
loop_
_atom_type_symbol
_atom_type_radius_bond
C 0.68
N 0.68
O 0.68
loop_
_atom_site_label
_atom_site_type_symbol
_atom_site_fract_x
_atom_site_fract_y
_atom_site_fract_z
C1 C 0.3863(8) 0.4522(17) 1.7542(8)
C2 C 0.3152(9) 0.5974(18) 1.7919(8)
C3 C 0.3757(9) 0.7585(19) 1.8678(8)
C4 C 0.5042(8) 0.7588(19) 1.9076(8)
C5 C 0.5751(9) 0.6060(18) 1.8687(8)
C6 C 0.5182(9) 0.4479(19) 1.7920(9)
C7 C 0.5605(8) 0.2663(19) 1.7355(8)
C8 C 0.6786(10) 0.1959(20) 1.7436(10)
C9 C 0.6935(10) 0.0052(23) 1.6841(9)
C10 C 0.5917(11) -0.094(2) 1.6165(9)
C11 C 0.4726(10) -0.0216(19) 1.6058(9)
C12 C 0.4560(8) 0.1632(18) 1.6645(8)
C13 C 0.3451(8) 0.2867(19) 1.6699(8)
C14 C 0.2279(8) 0.2798(21) 1.6078(9)
C15 C 0.1404(9) 0.4511(19) 1.6274(8)
C16 C 0.1756(8) 0.5864(19) 1.7393(8)
C17 C 0.0985(10) 0.5030(18) 1.8238(9)
O1 O 0.1730(7) 0.7659(17) 1.5286(7)
O2 O 0.0444(7) 0.5332(15) 1.4337(6)
O3 O -0.0804(6) 0.6144(14) 1.6877(7)
O4 O -0.0902(7) 0.5860(16) 1.8688(7)
O5 O 0.1853(7) 0.4559(16) 2.0242(7)
O6 O 0.1415(7) 0.7738(18) 1.9563(7)
O7 O -0.0050(7) 0.1773(14) 1.8233(7)
O8 O 0.1940(8) 0.1806(14) 1.8465(8)
N1 N 0.1173(8) 0.5995(21) 1.5230(8)
N2 N -0.0363(7) 0.5778(16) 1.7901(9)
N3 N 0.1469(8) 0.5796(24) 1.9478(9)
N4 N 0.0957(10) 0.2656(19) 1.8324(8)
#END
