
#######################################################################
#
#                 Cambridge Crystallographic Data Centre
#                                CCDC
#
#######################################################################
#
# If this CIF has been generated from an entry in the Cambridge
# Structural Database, then it will include bibliographic, chemical,
# crystal, experimental, refinement or atomic coordinate data resulting
# from the CCDC's data processing and validation procedures.
#
#######################################################################

data_CSD_CIF_PILVOY
_audit_creation_date 2018-07-26
_audit_creation_method CSD-ConQuest-V1
_database_code_CSD PILVOY
_database_code_depnum_ccdc_archive 'CCDC 1841184'
_chemical_formula_sum 'C21 H17 N3 O3'
_chemical_formula_moiety
;
C21 H17 N3 O3
;
_journal_coden_Cambridge 1267
_journal_volume 233
_journal_year 2018
_journal_page_first 699
_journal_name_full 'Z.Kristallogr.-New Cryst.Struct. '
loop_
_publ_author_name
"Xin-Sheng Xiao"
"Guo-Kai Jia"
"Wen-Yi Li"
"Xiu-Wen Chen"
_chemical_name_systematic
;
(Z)-N-(4-nitrophenyl)-3-phenyl-3-(phenylamino)prop-2-enamide
;
_chemical_name_common
;
(Z)-N-(4-nitrophenyl)-3-phenyl-3-(phenylamino)acrylamide
;
_cell_volume   3655.616
_exptl_crystal_colour 'yellow'
_exptl_crystal_density_diffrn 1.306
_exptl_crystal_description 'block'
_diffrn_ambient_temperature 571
#These two values have been output from a single CSD field.
_refine_ls_R_factor_gt 0.0399
_refine_ls_wR_factor_gt 0.0399
_symmetry_cell_setting orthorhombic
_symmetry_space_group_name_H-M 'P b c a'
_symmetry_Int_Tables_number 61
loop_
_symmetry_equiv_pos_site_id
_symmetry_equiv_pos_as_xyz
1 x,y,z
2 1/2-x,-y,1/2+z
3 -x,1/2+y,1/2-z
4 1/2+x,1/2-y,-z
5 -x,-y,-z
6 -1/2+x,y,-1/2-z
7 x,-1/2-y,-1/2+z
8 -1/2-x,-1/2+y,z
_cell_length_a 14.3606(4)
_cell_length_b 7.4250(2)
_cell_length_c 34.2840(9)
_cell_angle_alpha 90
_cell_angle_beta 90
_cell_angle_gamma 90
_cell_formula_units_Z 8
loop_
_atom_type_symbol
_atom_type_radius_bond
C 0.68
H 0.23
N 0.68
O 0.68
loop_
_atom_site_label
_atom_site_type_symbol
_atom_site_fract_x
_atom_site_fract_y
_atom_site_fract_z
O1 O 0.65345(9) 0.05732(18) 0.37001(4)
O2 O 0.31779(10) -0.3752(3) 0.50822(5)
O3 O 0.25421(10) -0.2581(3) 0.45739(4)
N1 N 0.81351(10) 0.1057(2) 0.32865(4)
H1 H 0.75700 0.14240 0.33110
N2 N 0.67252(9) -0.0362(2) 0.43292(4)
H2 H 0.71280 -0.03870 0.45150
N3 N 0.32194(11) -0.2859(3) 0.47814(5)
C1 C 0.84768(11) 0.1020(2) 0.29017(5)
C2 C 0.81285(14) 0.2236(3) 0.26350(7)
H3 H 0.76820 0.30690 0.27130
C3 C 0.84371(18) 0.2228(4) 0.22515(7)
H4 H 0.81940 0.30470 0.20730
C4 C 0.90962(18) 0.1019(4) 0.21363(7)
H5 H 0.93160 0.10270 0.18810
C5 C 0.94295(16) -0.0200(4) 0.23976(7)
H6 H 0.98760 -0.10310 0.23180
C6 C 0.91179(13) -0.0225(3) 0.27762(6)
H7 H 0.93420 -0.10880 0.29490
C7 C 0.85638(11) 0.0600(2) 0.36253(5)
C8 C 0.95999(11) 0.0530(2) 0.36397(5)
C9 C 1.01408(12) 0.1790(3) 0.34450(5)
H8 H 0.98550 0.27020 0.33030
C10 C 1.10992(13) 0.1699(3) 0.34612(6)
H9 H 1.14560 0.25360 0.33260
C11 C 1.15295(14) 0.0379(4) 0.36769(7)
H10 H 1.21760 0.03200 0.36870
C12 C 1.10006(15) -0.0853(3) 0.38774(7)
H11 H 1.12890 -0.17360 0.40270
C13 C 1.00411(13) -0.0782(3) 0.38563(6)
H12 H 0.96880 -0.16310 0.39900
C14 C 0.80657(12) 0.0283(2) 0.39545(5)
H13 H 0.83940 0.01020 0.41850
C15 C 0.70617(12) 0.0208(2) 0.39717(5)
C16 C 0.58295(11) -0.0899(2) 0.44317(5)
C17 C 0.57356(11) -0.1889(2) 0.47746(5)
H14 H 0.62590 -0.21260 0.49260
C18 C 0.48855(12) -0.2517(2) 0.48914(5)
H15 H 0.48270 -0.31840 0.51200
C19 C 0.41173(11) -0.2144(2) 0.46654(5)
C20 C 0.41844(11) -0.1137(3) 0.43327(5)
H16 H 0.36530 -0.08770 0.41880
C21 C 0.50398(11) -0.0507(2) 0.42120(5)
H17 H 0.50890 0.01740 0.39850
#END
