
#######################################################################
#
#                 Cambridge Crystallographic Data Centre
#                                CCDC
#
#######################################################################
#
# If this CIF has been generated from an entry in the Cambridge
# Structural Database, then it will include bibliographic, chemical,
# crystal, experimental, refinement or atomic coordinate data resulting
# from the CCDC's data processing and validation procedures.
#
#######################################################################

data_CSD_CIF_PILVIP
_audit_creation_date 1994-10-27
_audit_creation_method CSD-ConQuest-V1
_database_code_CSD PILVIP
_chemical_formula_sum 'C37 H29 N5 O9'
_chemical_formula_moiety
;
C37 H29 N5 O9
;
_journal_coden_Cambridge 179
_journal_volume 33
_journal_year 1994
_journal_page_first 446
_journal_name_full 'Angew.Chem.,Int.Ed. '
loop_
_publ_author_name
"Y.Hamuro"
"S.J.Geib"
"A.D.Hamilton"
_chemical_name_systematic
;
N,N'-bis(2-(N-(2-Methoxycarbonylphenyl)carbamoyl)phenyl)-2,6-pyridinecarboxami
de N-oxide
;
_chemical_melting_point 520.15
_cell_volume   1607.980
_exptl_crystal_colour 'colorless'
_exptl_crystal_density_diffrn 1.42
_exptl_special_details
;
Melting point range 520.15-522.15K

;
_diffrn_ambient_temperature ?
_diffrn_special_details
;
The study was carried out at room temperature,in the range 283-303K

;
#These two values have been output from a single CSD field.
_refine_ls_R_factor_gt 0.0461
_refine_ls_wR_factor_gt 0.0461
_symmetry_cell_setting monoclinic
_symmetry_space_group_name_H-M 'P 2/n'
_symmetry_Int_Tables_number 13
loop_
_symmetry_equiv_pos_site_id
_symmetry_equiv_pos_as_xyz
1 x,y,z
2 1/2-x,y,1/2-z
3 -x,-y,-z
4 -1/2+x,-y,-1/2+z
_cell_length_a 13.109(2)
_cell_length_b 8.730(1)
_cell_length_c 14.354(2)
_cell_angle_alpha 90
_cell_angle_beta 101.80(1)
_cell_angle_gamma 90
_cell_formula_units_Z 2
loop_
_atom_type_symbol
_atom_type_radius_bond
C 0.68
H 0.23
N 0.68
O 0.68
loop_
_atom_site_label
_atom_site_type_symbol
_atom_site_fract_x
_atom_site_fract_y
_atom_site_fract_z
C1 C 0.0426(2) 0.5190(3) 0.7701(2)
C2 C 0.0525(2) 0.6683(3) 0.6332(2)
C3 C -0.0009(2) 0.7121(3) 0.5347(2)
C4 C -0.1010(2) 0.6555(3) 0.4976(2)
C5 C -0.1552(2) 0.6981(3) 0.4077(2)
C6 C -0.1093(2) 0.7976(3) 0.3537(2)
C7 C -0.0089(2) 0.8536(3) 0.3871(2)
C8 C 0.0469(2) 0.8113(3) 0.4777(2)
C9 C 0.2138(2) 0.9471(2) 0.4691(2)
C10 C 0.3164(2) 0.9931(3) 0.5306(1)
C11 C 0.3643(2) 0.9002(3) 0.6070(2)
C12 C 0.4610(2) 0.9383(2) 0.6621(2)
C13 C 0.5103(2) 1.0715(3) 0.6431(2)
C14 C 0.4645(2) 1.1672(3) 0.5690(2)
C15 C 0.3683(2) 1.1280(2) 0.5119(1)
C16 C 0.3303(2) 1.3760(3) 0.4287(2)
C17 C 0.2853(2) 1.4541(2) 0.3343(2)
C18 C 0.2831(2) 1.6131(3) 0.3338(2)
C19 C 0.25000 1.6938(4) 0.25000
N1 N 0.25000 1.3763(3) 0.25000
N2 N 0.3247(2) 1.2206(2) 0.4320(1)
N3 N 0.1481(2) 0.8687(2) 0.5145(1)
O1 O 0.25000 1.2257(3) 0.25000
O2 O 0.3675(2) 1.4579(2) 0.4969(1)
O3 O 0.1930(1) 0.9771(2) 0.3828(1)
O4 O 0.1376(2) 0.7129(2) 0.6736(1)
O5 O -0.0043(1) 0.5723(2) 0.6751(1)
H1 H -0.00360 0.44850 0.79190
H2 H 0.10780 0.46910 0.76980
H3 H 0.05430 0.60590 0.81190
H4 H -0.13310 0.58690 0.53520
H5 H -0.22430 0.66000 0.38350
H6 H -0.14680 0.82460 0.29120
H7 H 0.02220 0.92400 0.34970
H8 H 0.32940 0.80910 0.62120
H9 H 0.49340 0.87210 0.71300
H10 H 0.57680 1.09770 0.68170
H11 H 0.49830 1.26030 0.55670
H12 H 0.30360 1.66700 0.39290
H13 H 0.25000 1.80380 0.25000
H14 H 0.2828(19) 1.1788(27) 0.3771(17)
H15 H 0.1665(18) 0.8443(25) 0.5789(17)
C18A C 0.2169(2) 1.6131(3) 0.1662(2)
C17A C 0.2147(2) 1.4541(2) 0.1657(2)
H12A H 0.19640 1.66700 0.10710
C16A C 0.1697(2) 1.3760(3) 0.0713(2)
N2A N 0.1753(2) 1.2206(2) 0.0680(1)
O2A O 0.1325(2) 1.4579(2) 0.0031(1)
C15A C 0.1317(2) 1.1280(2) -0.0119(1)
H14A H 0.2172(19) 1.1788(27) 0.1229(17)
C10A C 0.1836(2) 0.9931(3) -0.0306(1)
C14A C 0.0355(2) 1.1672(3) -0.0690(2)
C9A C 0.2862(2) 0.9471(2) 0.0309(2)
C11A C 0.1357(2) 0.9002(3) -0.1070(2)
C13A C -0.0103(2) 1.0715(3) -0.1431(2)
H11A H 0.00170 1.26030 -0.05670
N3A N 0.3519(2) 0.8687(2) -0.0145(1)
O3A O 0.3070(1) 0.9771(2) 0.1172(1)
C12A C 0.0390(2) 0.9383(2) -0.1621(2)
H8A H 0.17060 0.80910 -0.12120
H10A H -0.07680 1.09770 -0.18170
C8A C 0.4531(2) 0.8113(3) 0.0223(2)
H15A H 0.3335(18) 0.8443(25) -0.0789(17)
H9A H 0.00660 0.87210 -0.21300
C3A C 0.5009(2) 0.7121(3) -0.0347(2)
C7A C 0.5089(2) 0.8536(3) 0.1129(2)
C2A C 0.4475(2) 0.6683(3) -0.1332(2)
C4A C 0.6010(2) 0.6555(3) 0.0024(2)
C6A C 0.6093(2) 0.7976(3) 0.1463(2)
H7A H 0.47780 0.92400 0.15030
O4A O 0.3624(2) 0.7129(2) -0.1736(1)
O5A O 0.5043(1) 0.5723(2) -0.1751(1)
C5A C 0.6552(2) 0.6981(3) 0.0923(2)
H4A H 0.63310 0.58690 -0.03520
H6A H 0.64680 0.82460 0.20880
C1A C 0.4574(2) 0.5190(3) -0.2701(2)
H5A H 0.72430 0.66000 0.11650
H1A H 0.50360 0.44850 -0.29190
H2A H 0.39220 0.46910 -0.26980
H3A H 0.44570 0.60590 -0.31190
#END
