
#######################################################################
#
#                 Cambridge Crystallographic Data Centre
#                                CCDC
#
#######################################################################
#
# If this CIF has been generated from an entry in the Cambridge
# Structural Database, then it will include bibliographic, chemical,
# crystal, experimental, refinement or atomic coordinate data resulting
# from the CCDC's data processing and validation procedures.
#
#######################################################################

data_CSD_CIF_PILXAM
_audit_creation_date 2018-07-26
_audit_creation_method CSD-ConQuest-V1
_database_code_CSD PILXAM
_database_code_depnum_ccdc_archive 'CCDC 1589739'
_chemical_formula_sum 'C18 H21 N3 O3'
_chemical_formula_moiety
;
C18 H21 N3 O3
;
_journal_coden_Cambridge 1267
_journal_volume 233
_journal_year 2018
_journal_page_first 635
_journal_name_full 'Z.Kristallogr.-New Cryst.Struct. '
loop_
_publ_author_name
"Yun-Dong Peng"
"Yang Zhang"
"Zong-Li Ren"
"Li Wang"
"Wen-Kui Dong"
_chemical_name_systematic
;
(E,E)-2-{8-[4-(dimethylamino)phenyl]-3,6-dioxa-2,7-diazaocta-1,7-dien-1-yl}phe
nol
;
_chemical_name_common
;
(E)-2-hydroxybenzaldehyde 
O-(2-(((E)-(4-(dimethylamino)benzylidene)amino)oxy)ethyl)oxime
;
_cell_volume   1728.096
_exptl_crystal_colour 'colorless'
_exptl_crystal_density_diffrn 1.258
_exptl_crystal_description 'block'
_diffrn_ambient_temperature 290.7
#These two values have been output from a single CSD field.
_refine_ls_R_factor_gt 0.0677
_refine_ls_wR_factor_gt 0.0677
_symmetry_cell_setting monoclinic
_symmetry_space_group_name_H-M 'P 21/n'
_symmetry_Int_Tables_number 14
loop_
_symmetry_equiv_pos_site_id
_symmetry_equiv_pos_as_xyz
1 x,y,z
2 1/2-x,1/2+y,1/2-z
3 -x,-y,-z
4 -1/2+x,-1/2-y,-1/2+z
_cell_length_a 5.3025(3)
_cell_length_b 9.7824(7)
_cell_length_c 33.3847(19)
_cell_angle_alpha 90
_cell_angle_beta 93.699(6)
_cell_angle_gamma 90
_cell_formula_units_Z 4
loop_
_atom_type_symbol
_atom_type_radius_bond
C 0.68
H 0.23
N 0.68
O 0.68
loop_
_atom_site_label
_atom_site_type_symbol
_atom_site_fract_x
_atom_site_fract_y
_atom_site_fract_z
O1 O -0.2019(4) 0.2529(3) 0.11029(6)
O2 O 0.0003(4) 0.2511(2) 0.03252(6)
O3 O 0.5505(5) 0.1132(2) -0.03188(7)
H1 H 0.43730 0.11840 -0.01630
N1 N 0.7311(6) 0.2782(4) 0.29939(9)
N2 N 0.0000(5) 0.2187(3) 0.13851(7)
N3 N 0.1971(4) 0.2346(3) 0.00699(7)
C1 C 0.5677(6) 0.2899(4) 0.26551(9)
C2 C 0.3824(9) 0.3882(4) 0.26234(11)
H2 H 0.37130 0.45160 0.28290
C3 C 0.2127(9) 0.3949(4) 0.22946(12)
H3 H 0.09030 0.46310 0.22840
C4 C 0.2180(6) 0.3038(4) 0.19788(9)
C5 C 0.4099(6) 0.2106(5) 0.20039(10)
H4 H 0.42590 0.15020 0.17920
C6 C 0.5802(6) 0.2026(5) 0.23307(10)
H5 H 0.70710 0.13690 0.23340
C7 C 0.0265(7) 0.3104(4) 0.16476(10)
H6 H -0.08080 0.38570 0.16290
C8 C -0.2353(6) 0.1466(4) 0.08160(9)
H7 H -0.38680 0.16520 0.06460
H8 H -0.26170 0.06140 0.09560
C9 C -0.0198(6) 0.1289(3) 0.05569(9)
H9 H 0.13530 0.11350 0.07210
H10 H -0.04910 0.05080 0.03810
C10 C 0.2313(6) 0.3395(3) -0.01402(10)
H11 H 0.12870 0.41540 -0.01090
C11 C 0.4236(6) 0.3464(3) -0.04269(8)
C12 C 0.5742(5) 0.2355(3) -0.05083(8)
C13 C 0.7535(7) 0.2481(4) -0.07867(11)
H12 H 0.85350 0.17350 -0.08440
C14 C 0.7853(7) 0.3696(5) -0.09788(10)
H13 H 0.90970 0.37710 -0.11620
C15 C 0.6384(7) 0.4796(4) -0.09075(10)
H14 H 0.66040 0.56190 -0.10410
C16 C 0.4565(7) 0.4670(4) -0.06344(10)
H15 H 0.35300 0.54130 -0.05880
C17 C 0.7135(9) 0.3686(5) 0.33270(11)
H16 H 0.76910 0.45810 0.32550
H17 H 0.81820 0.33530 0.35510
H18 H 0.54120 0.37310 0.33990
C18 C 0.9132(8) 0.1696(5) 0.30321(13)
H19 H 0.82700 0.08330 0.30290
H20 H 1.01330 0.17950 0.32800
H21 H 1.02090 0.17340 0.28120
#END
