
#######################################################################
#
#                 Cambridge Crystallographic Data Centre
#                                CCDC
#
#######################################################################
#
# If this CIF has been generated from an entry in the Cambridge
# Structural Database, then it will include bibliographic, chemical,
# crystal, experimental, refinement or atomic coordinate data resulting
# from the CCDC's data processing and validation procedures.
#
#######################################################################

data_CSD_CIF_PIMKIF
_audit_creation_date 1994-10-27
_audit_creation_method CSD-ConQuest-V1
_database_code_CSD PIMKIF
_chemical_formula_sum 'C8 H14 N2 O6'
_chemical_formula_moiety
;
C8 H14 N2 O6
;
_journal_coden_Cambridge 119
_journal_volume 298
_journal_year 1993
_journal_page_first 113
_journal_name_full 'J.Mol.Struct. '
loop_
_publ_author_name
"J.A.Kanters"
"A.Schouten"
"G.J.Sterk"
"M.H.de Jong"
_chemical_name_systematic
;
1,4-trans-Cyclohexanedimethanol dinitrate
;
_cell_volume    550.362
_exptl_crystal_colour 'colorless'
_exptl_crystal_density_diffrn 1.413
_exptl_special_details
;
vasodilatory activity

;
_diffrn_ambient_temperature ?
_diffrn_special_details
;
The study was carried out at room temperature,in the range 283-303K

;
#These two values have been output from a single CSD field.
_refine_ls_R_factor_gt 0.036
_refine_ls_wR_factor_gt 0.036
_symmetry_cell_setting monoclinic
_symmetry_space_group_name_H-M 'P 21/a'
_symmetry_Int_Tables_number 14
loop_
_symmetry_equiv_pos_site_id
_symmetry_equiv_pos_as_xyz
1 x,y,z
2 1/2-x,1/2+y,-z
3 -x,-y,-z
4 -1/2+x,-1/2-y,z
_cell_length_a 5.9443(4)
_cell_length_b 16.7052(9)
_cell_length_c 6.2022(2)
_cell_angle_alpha 90
_cell_angle_beta 116.669(4)
_cell_angle_gamma 90
_cell_formula_units_Z 2
loop_
_atom_type_symbol
_atom_type_radius_bond
C 0.68
H 0.23
N 0.68
O 0.68
loop_
_atom_site_label
_atom_site_type_symbol
_atom_site_fract_x
_atom_site_fract_y
_atom_site_fract_z
O1 O 0.9236(2) 0.13647(7) 0.4941(2)
O2 O 0.7535(3) 0.20523(9) 0.1657(3)
O3 O 0.9490(2) 0.26909(8) 0.5044(3)
N1 N 0.8733(3) 0.21025(9) 0.3821(3)
C1 C 1.0533(3) 0.0557(1) 0.8424(3)
C2 C 1.2284(3) 0.0486(1) 1.1111(3)
C3 C 0.7853(3) 0.0340(1) 0.7932(4)
C4 C 1.0670(4) 0.1393(1) 0.7572(3)
H1 H 1.126(3) 0.020(1) 0.762(3)
H2 H 1.385(3) 0.060(1) 1.138(3)
H3 H 1.190(3) 0.090(1) 1.202(3)
H4 H 0.688(3) 0.039(1) 0.632(3)
H5 H 0.727(3) 0.074(1) 0.872(3)
H6 H 0.979(3) 0.174(1) 0.813(3)
H7 H 1.235(3) 0.155(1) 0.793(3)
C3B C 1.2147(3) -0.0340(1) 1.2068(4)
C2B C 0.7716(3) -0.0486(1) 0.8889(3)
C1B C 0.9467(3) -0.0557(1) 1.1576(3)
H4B H 1.312(3) -0.039(1) 1.368(3)
H5B H 1.273(3) -0.074(1) 1.128(3)
H2B H 0.615(3) -0.060(1) 0.862(3)
H3B H 0.810(3) -0.090(1) 0.798(3)
C4B C 0.9330(4) -0.1393(1) 1.2428(3)
H1B H 0.874(3) -0.020(1) 1.238(3)
O1B O 1.0764(2) -0.13647(7) 1.5059(2)
H6B H 1.021(3) -0.174(1) 1.187(3)
H7B H 0.765(3) -0.155(1) 1.207(3)
N1B N 1.1267(3) -0.21025(9) 1.6179(3)
O2B O 1.2465(3) -0.20523(9) 1.8343(3)
O3B O 1.0510(2) -0.26909(8) 1.4956(3)
#END
