
#######################################################################
#
#                 Cambridge Crystallographic Data Centre
#                                CCDC
#
#######################################################################
#
# If this CIF has been generated from an entry in the Cambridge
# Structural Database, then it will include bibliographic, chemical,
# crystal, experimental, refinement or atomic coordinate data resulting
# from the CCDC's data processing and validation procedures.
#
#######################################################################

data_CSD_CIF_PIMKOO
_audit_creation_date 1994-10-26
_audit_creation_method CSD-ConQuest-V1
_database_code_CSD PIMKOO
_database_code_depnum_ccdc_archive 'CCDC 1233906'
_chemical_formula_sum 'C6 H9 N1 O6'
_chemical_formula_moiety
;
C6 H9 N1 O6
;
_journal_coden_Cambridge 119
_journal_volume 298
_journal_year 1993
_journal_page_first 113
_journal_name_full 'J.Mol.Struct. '
loop_
_publ_author_name
"J.A.Kanters"
"A.Schouten"
"G.J.Sterk"
"M.H.de Jong"
_chemical_name_systematic
;
1,4:3,6-Dianhydro-D-glucitol-2-mononitrate
;
_chemical_name_common
;
Isosorbide-2-mononitrate; DrugBank: DB01020
;
_cell_volume    768.138
_exptl_crystal_colour 'colorless'
_exptl_crystal_density_diffrn 1.653
_exptl_special_details
;
vasodilatory activity

;
_diffrn_ambient_temperature 100
#These two values have been output from a single CSD field.
_refine_ls_R_factor_gt 0.026
_refine_ls_wR_factor_gt 0.026
loop_
_citation_database_id_CSD
_citation_special_details
TUQGET "is a stereoisomer of this entry"
_symmetry_cell_setting orthorhombic
_symmetry_space_group_name_H-M 'P 21 21 21'
_symmetry_Int_Tables_number 19
loop_
_symmetry_equiv_pos_site_id
_symmetry_equiv_pos_as_xyz
1 x,y,z
2 1/2+x,1/2-y,-z
3 -x,1/2+y,1/2-z
4 1/2-x,-y,1/2+z
_cell_length_a 6.4318(4)
_cell_length_b 7.5273(4)
_cell_length_c 15.866(1)
_cell_angle_alpha 90
_cell_angle_beta 90
_cell_angle_gamma 90
_cell_formula_units_Z 4
loop_
_atom_type_symbol
_atom_type_radius_bond
C 0.68
H 0.23
N 0.68
O 0.68
loop_
_atom_site_label
_atom_site_type_symbol
_atom_site_fract_x
_atom_site_fract_y
_atom_site_fract_z
O1 O 0.2964(2) 0.7012(1) 0.03089(7)
O2 O -0.0705(2) 0.5155(2) 0.10590(8)
O3 O 0.0367(2) 0.2322(2) 0.11588(8)
O4 O -0.2666(2) 0.2987(2) 0.06360(8)
O5 O 0.6046(2) 0.8415(2) 0.12667(8)
O6 O 0.2347(2) 0.8012(2) 0.23402(7)
N1 N -0.1000(2) 0.3317(2) 0.09468(9)
C1 C 0.3069(3) 0.5424(2) 0.0813(1)
C2 C 0.1303(3) 0.5601(2) 0.1440(1)
C3 C 0.1174(3) 0.7603(2) 0.1599(1)
C4 C 0.2342(3) 0.8445(2) 0.0848(1)
C5 C 0.4201(3) 0.9444(2) 0.1258(1)
C6 C 0.3469(3) 0.9624(3) 0.2160(1)
H1 H 0.644(3) 0.830(3) 0.079(1)
H2 H 0.288(3) 0.442(2) 0.042(1)
H3 H 0.439(3) 0.539(2) 0.110(1)
H4 H 0.144(3) 0.496(2) 0.192(1)
H5 H -0.029(3) 0.801(2) 0.162(1)
H6 H 0.149(3) 0.919(2) 0.052(1)
H7 H 0.451(3) 1.062(2) 0.097(1)
H8 H 0.459(3) 0.969(3) 0.252(1)
H9 H 0.252(3) 1.072(2) 0.223(1)
#END
