
#######################################################################
#
#                 Cambridge Crystallographic Data Centre
#                                CCDC
#
#######################################################################
#
# If this CIF has been generated from an entry in the Cambridge
# Structural Database, then it will include bibliographic, chemical,
# crystal, experimental, refinement or atomic coordinate data resulting
# from the CCDC's data processing and validation procedures.
#
#######################################################################

data_CSD_CIF_PIMWEQ
_audit_creation_date 2018-07-26
_audit_creation_method CSD-ConQuest-V1
_database_code_CSD PIMWEQ
_database_code_depnum_ccdc_archive 'CCDC 1580712'
_chemical_formula_sum 'C24 H18 N4 O5'
_chemical_formula_moiety
;
C24 H18 N4 O5
;
_journal_coden_Cambridge 2066
_journal_volume 3
_journal_year 2018
_journal_page_first 7288
_journal_name_full 'ACS Omega '
loop_
_publ_author_name
"Ajay Gupta"
"R.Jamatia"
"R.A.Patil"
"Yuan-Ron Ma"
"A.K.Pal"
_chemical_name_systematic
;
2-(2-{[1-(4-nitrophenyl)-1H-1,2,3-triazol-4-yl]methoxy}phenyl)-2,3-dihydro-4H-
1-benzopyran-4-one
;
_cell_volume   1037.273
_exptl_crystal_colour 'light white'
_exptl_crystal_density_diffrn 1.417
_exptl_crystal_description 'block'
_diffrn_ambient_temperature 294.7
#These two values have been output from a single CSD field.
_refine_ls_R_factor_gt 0.0657
_refine_ls_wR_factor_gt 0.0657
_symmetry_cell_setting triclinic
_symmetry_space_group_name_H-M 'P -1'
_symmetry_Int_Tables_number 2
loop_
_symmetry_equiv_pos_site_id
_symmetry_equiv_pos_as_xyz
1 x,y,z
2 -x,-y,-z
_cell_length_a 10.6360(8)
_cell_length_b 10.6484(11)
_cell_length_c 10.8135(9)
_cell_angle_alpha 73.377(8)
_cell_angle_beta 75.078(7)
_cell_angle_gamma 63.401(9)
_cell_formula_units_Z 2
loop_
_atom_type_symbol
_atom_type_radius_bond
C 0.68
H 0.23
N 0.68
O 0.68
loop_
_atom_site_label
_atom_site_type_symbol
_atom_site_fract_x
_atom_site_fract_y
_atom_site_fract_z
O1 O 0.3190(2) 0.5195(2) 0.88017(18)
O2 O 0.1160(2) 0.4674(2) 0.7966(2)
O3 O 0.5402(2) 0.6159(2) 0.5236(2)
N1 N 0.3824(3) 0.0748(2) 0.7136(2)
O4 O 0.9884(3) -0.3554(3) 0.5064(3)
N2 N 0.2876(3) 0.0138(3) 0.7493(3)
N3 N 0.9513(3) -0.2311(3) 0.5125(3)
O5 O 1.0305(3) -0.1693(3) 0.4770(3)
C1 C 0.4616(3) 0.4452(3) 0.8550(3)
N4 N 0.1634(3) 0.1130(3) 0.7836(3)
C2 C 0.5430(3) 0.4707(3) 0.7348(3)
C3 C 0.0284(3) 0.5967(3) 0.8292(3)
C4 C 0.5272(3) -0.0030(3) 0.6658(3)
C5 C -0.1163(3) 0.6394(3) 0.8715(3)
H1 H -0.16000 0.57820 0.87980
C6 C 0.1777(3) 0.2374(3) 0.7692(3)
C7 C 0.4736(3) 0.5798(3) 0.6266(3)
C8 C 0.6898(3) 0.3873(4) 0.7177(3)
H2 H 0.74520 0.40390 0.63800
C9 C 0.3158(3) 0.2145(3) 0.7250(3)
H3 H 0.35650 0.28030 0.70640
C10 C 0.5262(4) 0.3385(4) 0.9563(3)
H4 H 0.47210 0.32230 1.03690
C11 C 0.5690(3) -0.1396(3) 0.6445(3)
H5 H 0.50330 -0.18030 0.66400
C12 C 0.8026(3) -0.1518(3) 0.5663(3)
C13 C 0.7081(3) -0.2147(3) 0.5943(3)
H6 H 0.73730 -0.30630 0.57970
C14 C 0.0554(3) 0.3707(3) 0.8009(3)
H7 H -0.00950 0.41040 0.73760
H8 H 0.00380 0.35120 0.88710
C15 C 0.7632(3) -0.0178(3) 0.5878(3)
H9 H 0.82930 0.02250 0.56790
C16 C 0.6241(3) 0.0570(3) 0.6392(3)
H10 H 0.59620 0.14760 0.65580
C17 C -0.1952(3) 0.7743(4) 0.9015(3)
H11 H -0.29240 0.80350 0.93070
C18 C 0.0951(3) 0.6878(4) 0.8201(3)
C19 C 0.7523(4) 0.2815(4) 0.8176(4)
H12 H 0.84970 0.22600 0.80550
C20 C 0.6700(4) 0.2574(4) 0.9365(4)
H13 H 0.71270 0.18530 1.00400
C21 C -0.1315(4) 0.8652(4) 0.8884(3)
H14 H -0.18600 0.95660 0.90620
C22 C 0.0127(4) 0.8218(4) 0.8491(3)
H15 H 0.05520 0.88380 0.84190
C23 C 0.3141(4) 0.6348(5) 0.6509(3)
H16 H 0.27510 0.73030 0.59840
H17 H 0.28630 0.57370 0.62230
C24 C 0.2534(4) 0.6404(4) 0.7841(3)
H18 H 0.27090 0.71670 0.80040
#END
