
#######################################################################
#
#                 Cambridge Crystallographic Data Centre
#                                CCDC
#
#######################################################################
#
# If this CIF has been generated from an entry in the Cambridge
# Structural Database, then it will include bibliographic, chemical,
# crystal, experimental, refinement or atomic coordinate data resulting
# from the CCDC's data processing and validation procedures.
#
#######################################################################

data_CSD_CIF_PINBAS
_audit_creation_date 2018-07-26
_audit_creation_method CSD-ConQuest-V1
_database_code_CSD PINBAS
_database_code_depnum_ccdc_archive 'CCDC 1835635'
_chemical_formula_sum 'C16 H20 N2 O5'
_chemical_formula_moiety
;
C16 H20 N2 O5
;
_journal_coden_Cambridge 1336
_journal_volume 20
_journal_year 2018
_journal_page_first 4632
_journal_name_full 'Org.Lett. '
loop_
_publ_author_name
"A.K.Pandey"
"Dahye Kang"
"Sang Hoon Han"
"Heeyoung Lee"
"N.K.Mishra"
"Hyung Sik Kim"
"Young Hoon Jung"
"Sungwoo Hong"
"In Su Kim"
_chemical_name_systematic
;
methyl 
2-t-butyl-7-nitro-1,5-dihydro-1,4-methano-3,2-benzoxazepine-4(2H)-carboxylate
;
_cell_volume    798.970
_exptl_crystal_colour 'colorless'
_exptl_crystal_density_diffrn 1.332
_exptl_crystal_description 'block'
_diffrn_ambient_temperature 296
_refine_special_details
;
C13,O1,O2,O3,O4 and C13*,O1*,O2*,O3*,O4* disordered over two sites with 
occupancies 0.5:0.5.
;
#These two values have been output from a single CSD field.
_refine_ls_R_factor_gt 0.0431
_refine_ls_wR_factor_gt 0.0431
_symmetry_cell_setting triclinic
_symmetry_space_group_name_H-M 'P -1'
_symmetry_Int_Tables_number 2
loop_
_symmetry_equiv_pos_site_id
_symmetry_equiv_pos_as_xyz
1 x,y,z
2 -x,-y,-z
_cell_length_a 6.5869(3)
_cell_length_b 11.3778(6)
_cell_length_c 12.1067(6)
_cell_angle_alpha 63.399(3)
_cell_angle_beta 80.889(3)
_cell_angle_gamma 82.271(3)
_cell_formula_units_Z 2
loop_
_atom_type_symbol
_atom_type_radius_bond
C 0.68
H 0.23
N 0.68
O 0.68
loop_
_atom_site_label
_atom_site_type_symbol
_atom_site_fract_x
_atom_site_fract_y
_atom_site_fract_z
C1 C -0.1413(2) 1.29217(14) 0.03501(12)
C2 C -0.3186(2) 1.24695(15) 0.11302(13)
H1 H -0.43800 1.30240 0.10700
C3 C -0.3138(2) 1.11688(14) 0.20049(12)
H2 H -0.43080 1.08450 0.25520
C4 C -0.13572(17) 1.03350(12) 0.2077(1)
C5 C 0.04150(18) 1.08155(12) 0.12581(10)
C6 C 0.0385(2) 1.21316(13) 0.04000(11)
H3 H 0.15590 1.24750 -0.01330
C7 C 0.23332(18) 0.99084(12) 0.12743(11)
H4 H 0.35080 1.02810 0.13590
H5 H 0.25940 0.98440 0.04910
C8 C 0.21113(17) 0.85358(12) 0.23367(11)
C9 C 0.00055(18) 0.80736(13) 0.24331(12)
H6 H -0.00690 0.71370 0.29610
H7 H -0.04060 0.82900 0.16250
C10 C -0.12403(17) 0.89151(12) 0.30394(11)
H8 H -0.26140 0.86010 0.34050
O1 O 0.21394(12) 0.85765(9) 0.35070(7)
C11 C 0.39509(19) 0.76049(13) 0.22380(12)
C12 C -0.0434(2) 0.77828(12) 0.52852(11)
C13 C -0.2481(3) 0.82437(16) 0.58064(14)
H9 H -0.23820 0.91060 0.57440
H10 H -0.27930 0.76390 0.66620
H11 H -0.35550 0.82760 0.53400
C14 C 0.1252(3) 0.77768(14) 0.60140(12)
H12 H 0.25540 0.74960 0.56920
H13 H 0.09510 0.71820 0.68740
H14 H 0.13170 0.86490 0.59360
C15 C -0.0523(3) 0.64008(13) 0.53898(14)
H15 H -0.16350 0.63980 0.49650
H16 H -0.07440 0.57870 0.62500
H17 H 0.07540 0.61490 0.50190
N1 N -0.1420(3) 1.43019(14) -0.06070(14)
N2 N -0.00006(14) 0.88377(9) 0.39898(8)
O2 O 0.028(3) 1.4769(15) -0.1164(14)
O3 O -0.2797(12) 1.5089(7) -0.0485(7)
O4 O 0.5571(8) 0.7997(7) 0.1712(6)
O5 O 0.3886(11) 0.6433(6) 0.3209(5)
C16 C 0.5523(16) 0.5473(8) 0.3176(9)
H18 H 0.68280 0.58290 0.30470
H19 H 0.54110 0.52560 0.25090
H20 H 0.54230 0.46930 0.39500
O6? O -0.004(3) 1.4612(14) -0.1380(13)
O7? O -0.3145(14) 1.4868(7) -0.0888(6)
O8? O 0.5243(10) 0.7855(7) 0.1381(6)
O9? O 0.3589(10) 0.6361(6) 0.2787(5)
C17? C 0.5298(17) 0.5392(11) 0.2796(11)
H21? H 0.58100 0.55510 0.19570
H22? H 0.48220 0.45210 0.32360
H23? H 0.63820 0.54670 0.32000
#END
