
#######################################################################
#
#                 Cambridge Crystallographic Data Centre
#                                CCDC
#
#######################################################################
#
# If this CIF has been generated from an entry in the Cambridge
# Structural Database, then it will include bibliographic, chemical,
# crystal, experimental, refinement or atomic coordinate data resulting
# from the CCDC's data processing and validation procedures.
#
#######################################################################

data_CSD_CIF_PINCVN
_audit_creation_date 1975-01-07
_audit_creation_method CSD-ConQuest-V1
_database_code_CSD PINCVN
_chemical_formula_sum 'C17 H19 N1 O4'
_chemical_formula_moiety
;
C17 H19 N1 O4
;
_journal_coden_Cambridge 35
_journal_volume 39
_journal_year 1974
_journal_page_first 86
_journal_name_full 'J.Org.Chem. '
loop_
_publ_author_name
"G.F.Richards"
"R.A.Moran"
"J.A.Heitmann"
"W.E.Scott"
_chemical_name_systematic
;
cis-Pinocarvyl p-nitrobenzoate
;
_chemical_melting_point 376.15
_cell_volume    744.869
_diffrn_ambient_temperature 80.15
#These two values have been output from a single CSD field.
_refine_ls_R_factor_gt 0.085
_refine_ls_wR_factor_gt 0.085
_symmetry_cell_setting monoclinic
_symmetry_space_group_name_H-M 'P 21'
_symmetry_Int_Tables_number 4
loop_
_symmetry_equiv_pos_site_id
_symmetry_equiv_pos_as_xyz
1 x,y,z
2 -x,1/2+y,-z
_cell_length_a 10.583(6)
_cell_length_b 6.740(3)
_cell_length_c 10.443(9)
_cell_angle_alpha 90
_cell_angle_beta 90.46(15)
_cell_angle_gamma 90
_cell_formula_units_Z 2
loop_
_atom_type_symbol
_atom_type_radius_bond
C 0.68
H 0.20
N 0.68
O 0.68
loop_
_atom_site_label
_atom_site_type_symbol
_atom_site_fract_x
_atom_site_fract_y
_atom_site_fract_z
C1 C 0.44110 -0.47400 -0.27370
C2 C 0.48930 -0.74670 -0.12040
C3 C 0.24860 -0.72770 0.09690
C4 C 0.19330 -0.91660 0.14760
C5 C 0.18280 -0.93710 0.27920
C6 C 0.13270 -1.10850 0.33160
C7 C 0.09290 -1.25660 0.24870
C8 C 0.10010 -1.23930 0.11710
C9 C 0.15140 -1.06750 0.06550
C10 C 0.41600 -0.60260 -0.15910
C11 C 0.29220 -0.54700 -0.09510
C12 C 0.19100 -0.46480 -0.19010
C13 C 0.25430 -0.36110 -0.30270
C14 C 0.33500 -0.51440 -0.37910
C15 C 0.38010 -0.26620 -0.25750
C16 C 0.28420 -0.72390 -0.39450
C17 C 0.37230 -0.43460 -0.50980
H1 H 0.51600 -0.48100 -0.32200
H2 H 0.35400 -0.80900 -0.43400
H3 H 0.31500 -0.50300 -0.55000
H4 H 0.42600 -0.53900 -0.53000
H5 H 0.42900 -0.32100 -0.50500
H6 H 0.46800 -0.83800 -0.05700
H7 H 0.55000 -0.80300 -0.17000
H8 H 0.21000 -0.82900 0.33000
H9 H 0.11800 -1.09200 0.41200
H10 H 0.07600 -1.36800 0.07500
H11 H 0.17600 -1.06600 -0.02000
H12 H 0.31600 -0.45500 -0.03000
H13 H 0.13500 -0.57400 -0.21900
H14 H 0.15000 -0.37200 -0.13600
H15 H 0.20000 -0.26000 -0.34000
H16 H 0.40400 -0.17900 -0.33200
H17 H 0.36400 -0.20500 -0.17600
H18 H 0.20000 -0.72400 -0.44500
H19 H 0.26800 -0.75400 -0.30900
N1 N 0.03600 -1.43860 0.30220
O1 O 0.23920 -0.71830 -0.03090
O2 O 0.29610 -0.60410 0.16450
O3 O 0.03750 -1.45790 0.41890
O4 O -0.00770 -1.55990 0.22750
#END
