
#######################################################################
#
#                 Cambridge Crystallographic Data Centre
#                                CCDC
#
#######################################################################
#
# If this CIF has been generated from an entry in the Cambridge
# Structural Database, then it will include bibliographic, chemical,
# crystal, experimental, refinement or atomic coordinate data resulting
# from the CCDC's data processing and validation procedures.
#
#######################################################################

data_CSD_CIF_PIPREN
_audit_creation_date 2013-12-10
_audit_creation_method CSD-ConQuest-V1
_database_code_CSD PIPREN
_database_code_depnum_ccdc_archive 'CCDC 903078'
_chemical_formula_sum 'C22 H23 N3 O4'
_chemical_formula_moiety
;
C22 H23 N3 O4
;
_journal_coden_Cambridge 10
_journal_volume 96
_journal_year 2013
_journal_page_first 2081
_journal_name_full 'Helv.Chim.Acta '
loop_
_publ_author_name
"P.Punda"
"L.Ponikiewski"
"S.Makowiec"
_chemical_name_systematic
;
1-t-Butyl-N-(4-nitrophenyl)-2-oxo-4-(1-phenylvinyl)azetidine-3-carboxamide
;
_cell_volume   2161.449
_exptl_crystal_colour 'colorless'
_exptl_crystal_density_diffrn 1.212
_exptl_crystal_description 'block'
_diffrn_ambient_temperature 298
_refine_special_details
;
C6,C7,C8 and C6A,C7A,C8A disordered over two sites with occupancies 0.5:0.5; 
C17,C18,C19,C20,C21,C22 and C17A,C18A,C19A, C20A,C21A,C22A disordered over 
two sites with occupancies 0.5:0.5.
;
#These two values have been output from a single CSD field.
_refine_ls_R_factor_gt 0.0933
_refine_ls_wR_factor_gt 0.0933
_symmetry_cell_setting monoclinic
_symmetry_space_group_name_H-M 'P 21/c'
_symmetry_Int_Tables_number 14
loop_
_symmetry_equiv_pos_site_id
_symmetry_equiv_pos_as_xyz
1 x,y,z
2 -x,1/2+y,1/2-z
3 -x,-y,-z
4 x,-1/2-y,-1/2+z
_cell_length_a 13.3919(13)
_cell_length_b 20.346(2)
_cell_length_c 7.9436(11)
_cell_angle_alpha 90
_cell_angle_beta 92.995(9)
_cell_angle_gamma 90
_cell_formula_units_Z 4
loop_
_atom_type_symbol
_atom_type_radius_bond
C 0.68
H 0.23
N 0.68
O 0.68
loop_
_atom_site_label
_atom_site_type_symbol
_atom_site_fract_x
_atom_site_fract_y
_atom_site_fract_z
O1 O 0.5276(2) 0.28355(14) 0.6893(4)
O2 O 0.4381(2) 0.43282(13) 0.3939(5)
O3 O -0.0139(3) 0.2590(3) -0.0010(9)
O4 O -0.0462(3) 0.3503(3) 0.1173(7)
N1 N 0.6405(2) 0.37198(14) 0.6859(4)
N2 N 0.4172(2) 0.32725(16) 0.3017(4)
H1 H 0.450(3) 0.292(2) 0.287(5)
N3 N 0.0116(3) 0.3071(3) 0.0848(6)
C1 C 0.7481(3) 0.41459(19) 0.4531(5)
C2 C 0.5735(3) 0.32789(18) 0.6249(5)
C3 C 0.5734(3) 0.35635(17) 0.4444(5)
H2 H 0.60670 0.32730 0.36660
C4 C 0.6455(3) 0.40942(18) 0.5240(5)
H3 H 0.612(2) 0.4526(17) 0.534(4)
C5 C 0.6713(3) 0.3899(2) 0.8619(5)
C6 C 0.4715(3) 0.37734(18) 0.3763(5)
C7 C 0.3153(3) 0.32565(18) 0.2471(5)
C8 C 0.2460(3) 0.3733(2) 0.2893(5)
H4 H 0.26670 0.40970 0.35290
C9 C 0.1476(3) 0.3666(2) 0.2372(6)
H5 H 0.10150 0.39840 0.26540
C10 C 0.1165(3) 0.3128(2) 0.1433(6)
C11 C 0.1838(3) 0.2647(2) 0.0983(6)
H6 H 0.16240 0.22880 0.03360
C12 C 0.2827(3) 0.27119(19) 0.1513(6)
H7 H 0.32850 0.23910 0.12310
C13 C 0.8096(4) 0.3631(2) 0.4604(7)
H8 H 0.87090 0.37440 0.40970
H9 H 0.77870 0.32680 0.40070
C14 C 0.7666(11) 0.4329(9) 0.857(2)
H10 H 0.74850 0.47640 0.82010
H11 H 0.81130 0.41400 0.77920
H12 H 0.79910 0.43480 0.96700
C15 C 0.695(1) 0.3336(8) 0.9760(16)
H13 H 0.64940 0.33330 1.06530
H14 H 0.76220 0.33800 1.02300
H15 H 0.68880 0.29330 0.91360
C16 C 0.5831(10) 0.4307(6) 0.9294(16)
H16 H 0.57010 0.46800 0.85740
H17 H 0.60070 0.44550 1.04170
H18 H 0.52440 0.40370 0.93040
C17 C 0.7793(7) 0.4789(4) 0.3799(13)
C18 C 0.7124(5) 0.5231(4) 0.3026(14)
H19 H 0.64440 0.51350 0.29470
C19 C 0.7471(5) 0.5817(4) 0.2371(11)
H20 H 0.70240 0.61120 0.18540
C20 C 0.8487(6) 0.5960(3) 0.2489(9)
H21 H 0.87190 0.63520 0.20510
C21 C 0.9156(5) 0.5518(4) 0.3262(10)
H22 H 0.98360 0.56140 0.33420
C22 C 0.8809(7) 0.4932(3) 0.3917(11)
H23 H 0.92570 0.46360 0.44350
C23? C 0.7405(11) 0.4483(8) 0.866(2)
H24? H 0.70490 0.48620 0.82380
H25? H 0.79580 0.43950 0.79740
H26? H 0.76490 0.45620 0.98020
C24? C 0.7223(10) 0.3224(8) 0.9319(16)
H27? H 0.78120 0.31340 0.87210
H28? H 0.67580 0.28680 0.91520
H29? H 0.74010 0.32690 1.05000
C25? C 0.578(1) 0.4024(6) 0.9620(16)
H30? H 0.54550 0.44180 0.92180
H31? H 0.59750 0.40720 1.07940
H32? H 0.53290 0.36590 0.94730
C26? C 0.7714(7) 0.4795(4) 0.3642(14)
C27? C 0.6904(5) 0.5182(4) 0.3105(15)
H33? H 0.62560 0.50420 0.32770
C28? C 0.7062(5) 0.5779(4) 0.2312(12)
H34? H 0.65200 0.60390 0.19530
C29? C 0.8030(6) 0.5989(3) 0.2056(9)
H35? H 0.81360 0.63890 0.15250
C30? C 0.8840(5) 0.5601(4) 0.2592(10)
H36? H 0.94880 0.57420 0.24210
C31? C 0.8682(6) 0.5004(4) 0.3385(11)
H37? H 0.92240 0.47450 0.37440
H38? H 0.82370 0.35100 0.57600
#END
