
#######################################################################
#
#                 Cambridge Crystallographic Data Centre
#                                CCDC
#
#######################################################################
#
# If this CIF has been generated from an entry in the Cambridge
# Structural Database, then it will include bibliographic, chemical,
# crystal, experimental, refinement or atomic coordinate data resulting
# from the CCDC's data processing and validation procedures.
#
#######################################################################

data_CSD_CIF_PIQQOV
_audit_creation_date 1998-11-13
_audit_creation_method CSD-ConQuest-V1
_database_code_CSD PIQQOV
_database_code_depnum_ccdc_archive 'CCDC 1234314'
_database_code_depnum_ccdc_fiz 'CSD 402728'
_chemical_formula_sum 'C4 H5 N2 O3'
_chemical_formula_moiety
;
C4 H5 N2 O3
;
_journal_coden_Cambridge 1267
_journal_volume 212
_journal_year 1997
_journal_page_first 407
_journal_name_full 'Z.Kristallogr.-New Cryst.Struct. '
loop_
_publ_author_name
"A.Hergold-Brundic"
"A.Nagl"
"L.Spoljaric-Lukacic"
"M.Sindler-Kulyk"
_chemical_name_systematic
;
4-Formyl-3-methylsydnone
;
_cell_volume    542.663
_exptl_crystal_colour 'yellowish'
_exptl_crystal_description 'prismatic'
_diffrn_ambient_temperature ?
_diffrn_special_details
;
The study was carried out at room temperature,in the range 283-303K

;
#These two values have been output from a single CSD field.
_refine_ls_R_factor_gt 0.06
_refine_ls_wR_factor_gt 0.06
_symmetry_cell_setting monoclinic
_symmetry_space_group_name_H-M 'P 21/n'
_symmetry_Int_Tables_number 14
loop_
_symmetry_equiv_pos_site_id
_symmetry_equiv_pos_as_xyz
1 x,y,z
2 1/2-x,1/2+y,1/2-z
3 -x,-y,-z
4 -1/2+x,-1/2-y,-1/2+z
_cell_length_a 5.471
_cell_length_b 8.484
_cell_length_c 11.694
_cell_angle_alpha 90
_cell_angle_beta 91.23
_cell_angle_gamma 90
_cell_formula_units_Z 4
loop_
_atom_type_symbol
_atom_type_radius_bond
C 0.68
H 0.23
N 0.68
O 0.68
loop_
_atom_site_label
_atom_site_type_symbol
_atom_site_fract_x
_atom_site_fract_y
_atom_site_fract_z
O1 O 0.12840 0.28310 0.68530
O2 O 0.75330 -0.02030 0.61870
O3 O 0.80130 0.01150 0.81130
N1 N 0.49180 0.15180 0.84890
N2 N 0.67730 0.08340 0.89890
C1 C 0.67710 0.03720 0.70590
C2 C 0.47760 0.13290 0.73460
C3 C 0.29820 0.19890 0.65800
C4 C 0.32430 0.23730 0.92390
H1 H 0.14310 0.19020 0.90870
H2 H 0.32750 0.36000 0.89950
H3 H 0.35260 0.23580 1.00040
H4 H 0.32260 0.15990 0.56560
#END
