
#######################################################################
#
#                 Cambridge Crystallographic Data Centre
#                                CCDC
#
#######################################################################
#
# If this CIF has been generated from an entry in the Cambridge
# Structural Database, then it will include bibliographic, chemical,
# crystal, experimental, refinement or atomic coordinate data resulting
# from the CCDC's data processing and validation procedures.
#
#######################################################################

data_CSD_CIF_PIRSOA
_audit_creation_date 2013-12-11
_audit_creation_method CSD-ConQuest-V1
_database_code_CSD PIRSOA
_database_code_depnum_ccdc_archive 'CCDC 976557'
_chemical_formula_sum 'C18 H18 N2 O1'
_chemical_formula_moiety
;
C18 H18 N2 O1
;
_journal_coden_Cambridge 1291
_journal_year 2013
_journal_page_first 16746
_journal_name_full 'Eur.J.Org.Chem. '
loop_
_publ_author_name
"M.Jakel"
"J.Qu"
"T.Schnitzer"
"G.Helmchen"
_chemical_name_systematic
;
1-methoxy-2,5-diphenylpyrrolidine-2-carbonitrile
;
_cell_volume   1545.489
_exptl_crystal_colour 'colorless'
_exptl_crystal_density_diffrn 1.196
_exptl_crystal_description 'plate'
_diffrn_ambient_temperature 200
#These two values have been output from a single CSD field.
_refine_ls_R_factor_gt 0.0379
_refine_ls_wR_factor_gt 0.0379
_symmetry_cell_setting orthorhombic
_symmetry_space_group_name_H-M 'P 21 21 21'
_symmetry_Int_Tables_number 19
loop_
_symmetry_equiv_pos_site_id
_symmetry_equiv_pos_as_xyz
1 x,y,z
2 1/2-x,-y,1/2+z
3 -x,1/2+y,1/2-z
4 1/2+x,1/2-y,-z
_cell_length_a 6.6128(3)
_cell_length_b 15.2067(8)
_cell_length_c 15.3690(8)
_cell_angle_alpha 90
_cell_angle_beta 90
_cell_angle_gamma 90
_cell_formula_units_Z 4
loop_
_atom_type_symbol
_atom_type_radius_bond
C 0.68
H 0.23
N 0.68
O 0.68
loop_
_atom_site_label
_atom_site_type_symbol
_atom_site_fract_x
_atom_site_fract_y
_atom_site_fract_z
N1 N 1.0333(4) -0.0019(2) 0.53903(17)
C1 C 1.0793(6) 0.0351(2) 0.6247(2)
C2 C 0.8982(6) -0.0003(3) 0.6760(2)
H1 H 0.77630 0.03610 0.66590
H2 H 0.92750 -0.00160 0.73920
C3 C 0.8688(7) -0.0944(3) 0.6399(2)
H3 H 0.92340 -0.13860 0.68090
H4 H 0.72370 -0.10680 0.62990
C4 C 0.9861(6) -0.0962(2) 0.5538(2)
H5 H 1.11540 -0.12910 0.56260
O1 O 1.2104(4) 0.00569(18) 0.48539(15)
C5 C 1.1510(7) 0.0345(3) 0.4009(2)
H6 H 1.27170 0.04610 0.36580
H7 H 1.07090 0.08850 0.40610
H8 H 1.06950 -0.01130 0.37290
C6 C 1.2665(6) -0.0043(3) 0.6625(2)
N2 N 1.4025(6) -0.0387(2) 0.6927(2)
C7 C 1.0967(6) 0.1347(2) 0.6218(2)
C8 C 0.9537(6) 0.1815(3) 0.5753(3)
H9 H 0.84770 0.15090 0.54660
C9 C 0.9625(7) 0.2726(3) 0.5698(3)
H10 H 0.86500 0.30390 0.53670
C10 C 1.1141(8) 0.3170(3) 0.6128(3)
H11 H 1.12000 0.37930 0.61020
C11 C 1.2568(7) 0.2715(3) 0.6596(3)
H12 H 1.36120 0.30230 0.68920
C12 C 1.2480(6) 0.1810(3) 0.6634(2)
H13 H 1.34800 0.14990 0.69540
C13 C 0.8764(5) -0.1344(2) 0.4769(2)
C14 C 0.6859(6) -0.1053(3) 0.4539(3)
H14 H 0.62100 -0.06170 0.48830
C15 C 0.5888(7) -0.1389(3) 0.3816(3)
H15 H 0.45710 -0.11890 0.36700
C16 C 0.6820(8) -0.2013(3) 0.3307(3)
H16 H 0.61670 -0.22320 0.28010
C17 C 0.8710(7) -0.2319(3) 0.3538(3)
H17 H 0.93490 -0.27600 0.31970
C18 C 0.9675(6) -0.1984(2) 0.4265(2)
H18 H 1.09780 -0.21960 0.44190
#END
