
#######################################################################
#
#                 Cambridge Crystallographic Data Centre
#                                CCDC
#
#######################################################################
#
# If this CIF has been generated from an entry in the Cambridge
# Structural Database, then it will include bibliographic, chemical,
# crystal, experimental, refinement or atomic coordinate data resulting
# from the CCDC's data processing and validation procedures.
#
#######################################################################

data_CSD_CIF_PIRYUM
_audit_creation_date 2013-12-11
_audit_creation_method CSD-ConQuest-V1
_database_code_CSD PIRYUM
_database_code_depnum_ccdc_archive 'CCDC 928960'
_chemical_formula_sum 'C27 H22 N2 O6'
_chemical_formula_moiety
;
C27 H22 N2 O6
;
_journal_coden_Cambridge 35
_journal_volume 78
_journal_year 2013
_journal_page_first 11798
_journal_name_full 'J.Org.Chem. '
loop_
_publ_author_name
"Wen-Chung Lin"
"Ding-Yah Yang"
_chemical_name_systematic
;
18-Methoxy-21,21-dimethyl-13-(2-nitrophenyl)-4,12-dioxa-14-azapentacyclo[11.7.
1.0^2,11^.0^5,10^.0^15,20^]henicosa-2(11),5,7,9,15,17,19-heptaen-3-one
;
_cell_volume   2235.062
_exptl_crystal_colour 'yellow'
_exptl_crystal_density_diffrn 1.398
_exptl_crystal_description 'parallelepiped'
_diffrn_ambient_temperature 297
#These two values have been output from a single CSD field.
_refine_ls_R_factor_gt 0.0408
_refine_ls_wR_factor_gt 0.0408
_symmetry_cell_setting monoclinic
_symmetry_space_group_name_H-M 'P 21/n'
_symmetry_Int_Tables_number 14
loop_
_symmetry_equiv_pos_site_id
_symmetry_equiv_pos_as_xyz
1 x,y,z
2 1/2-x,1/2+y,1/2-z
3 -x,-y,-z
4 -1/2+x,-1/2-y,-1/2+z
_cell_length_a 10.1296(7)
_cell_length_b 18.4212(14)
_cell_length_c 11.9851(9)
_cell_angle_alpha 90
_cell_angle_beta 91.991(1)
_cell_angle_gamma 90
_cell_formula_units_Z 4
loop_
_atom_type_symbol
_atom_type_radius_bond
C 0.68
H 0.23
N 0.68
O 0.68
loop_
_atom_site_label
_atom_site_type_symbol
_atom_site_fract_x
_atom_site_fract_y
_atom_site_fract_z
O1 O 0.49013(11) 0.89876(6) 0.58950(8)
O2 O 0.42352(9) 0.83203(5) 0.26268(7)
O3 O 0.65130(11) 0.81937(6) 0.61431(8)
O4 O 0.47373(11) 0.56487(6) 0.65805(8)
O5 O 0.33735(13) 0.93122(8) 0.07953(12)
O6 O 0.54164(14) 0.94999(7) 0.12521(13)
N1 N 0.41216(12) 0.70274(6) 0.24429(9)
H1 H 0.3370(17) 0.7005(9) 0.2085(14)
N2 N 0.45274(13) 0.91241(8) 0.08599(11)
C1 C 0.39324(14) 0.93118(8) 0.52315(12)
C2 C 0.32116(17) 0.98568(9) 0.57267(14)
H2 H 0.33860 0.99870 0.64670
C3 C 0.22308(18) 1.02022(10) 0.51012(16)
H3 H 0.17370 1.05670 0.54250
C4 C 0.19722(18) 1.00115(10) 0.39934(16)
H4 H 0.13120 1.02520 0.35800
C5 C 0.26907(15) 0.94666(9) 0.35010(14)
H5 H 0.25110 0.93400 0.27600
C6 C 0.36925(14) 0.91044(8) 0.41215(12)
C7 C 0.44852(13) 0.85142(7) 0.37003(11)
C8 C 0.54126(13) 0.81844(7) 0.43734(11)
C9 C 0.56675(14) 0.84346(8) 0.54998(11)
C10 C 0.61248(12) 0.75195(7) 0.39733(11)
H6 H 0.69870 0.74790 0.43650
C11 C 0.52719(12) 0.68700(7) 0.42521(11)
C12 C 0.54071(14) 0.65094(7) 0.52687(11)
H7 H 0.60850 0.66380 0.57730
C13 C 0.45321(14) 0.59569(7) 0.55363(11)
C14 C 0.35378(14) 0.57587(7) 0.47790(12)
H8 H 0.29570 0.53880 0.49520
C15 C 0.34041(13) 0.61145(7) 0.37563(11)
H9 H 0.27390 0.59750 0.32460
C16 C 0.42555(13) 0.66766(7) 0.34888(11)
C17 C 0.48778(13) 0.76475(7) 0.21824(10)
C18 C 0.63135(13) 0.75762(7) 0.27058(11)
C19 C 0.71663(14) 0.82361(8) 0.24337(13)
H10 H 0.80350 0.81750 0.27670
H11 H 0.67710 0.86670 0.27250
H12 H 0.72270 0.82800 0.16390
C20 C 0.70058(15) 0.68902(8) 0.22921(13)
H13 H 0.78800 0.68630 0.26250
H14 H 0.70590 0.69090 0.14950
H15 H 0.65110 0.64690 0.24980
C21 C 0.38969(17) 0.50606(9) 0.68449(14)
H16 H 0.41200 0.48890 0.75840
H17 H 0.40080 0.46750 0.63180
H18 H 0.29950 0.52210 0.68120
C22 C 0.48819(13) 0.77569(8) 0.09165(11)
C23 C 0.50776(16) 0.7141(1) 0.02579(12)
H19 H 0.50460 0.66850 0.05900
C24 C 0.53157(17) 0.71868(12) -0.08702(14)
H20 H 0.54610 0.67670 -0.12780
C25 C 0.53376(17) 0.78532(13) -0.13881(14)
H21 H 0.55260 0.78860 -0.21400
C26 C 0.50788(16) 0.84699(11) -0.07874(14)
H22 H 0.50560 0.89200 -0.11390
C27 C 0.48520(14) 0.84181(9) 0.03441(12)
#END
