
#######################################################################
#
#                 Cambridge Crystallographic Data Centre
#                                CCDC
#
#######################################################################
#
# If this CIF has been generated from an entry in the Cambridge
# Structural Database, then it will include bibliographic, chemical,
# crystal, experimental, refinement or atomic coordinate data resulting
# from the CCDC's data processing and validation procedures.
#
#######################################################################

data_CSD_CIF_PIRZEX
_audit_creation_date 2013-12-11
_audit_creation_method CSD-ConQuest-V1
_database_code_CSD PIRZEX
_database_code_depnum_ccdc_archive 'CCDC 686994'
_chemical_formula_sum 'C18 H20 N2 O4'
_chemical_formula_moiety
;
C18 H20 N2 O4
;
_journal_coden_Cambridge 35
_journal_volume 78
_journal_year 2013
_journal_page_first 11798
_journal_name_full 'J.Org.Chem. '
loop_
_publ_author_name
"Wen-Chung Lin"
"Ding-Yah Yang"
_chemical_name_systematic
;
6-Methoxy-3,3-dimethyl-2-(2-nitrophenyl)-1,2,3,4-tetrahydroquinolin-4-ol
;
_cell_volume   3319.943
_exptl_crystal_colour 'red'
_exptl_crystal_density_diffrn 1.314
_exptl_crystal_description 'parallelepiped'
_diffrn_ambient_temperature 297
_refine_special_details
;
O3,O4 and O3',O4' disordered over two sites with occupancies 0.55:0.45.

;
#These two values have been output from a single CSD field.
_refine_ls_R_factor_gt 0.0502
_refine_ls_wR_factor_gt 0.0502
_symmetry_cell_setting orthorhombic
_symmetry_space_group_name_H-M 'P b c a'
_symmetry_Int_Tables_number 61
loop_
_symmetry_equiv_pos_site_id
_symmetry_equiv_pos_as_xyz
1 x,y,z
2 1/2-x,-y,1/2+z
3 -x,1/2+y,1/2-z
4 1/2+x,1/2-y,-z
5 -x,-y,-z
6 -1/2+x,y,-1/2-z
7 x,-1/2-y,-1/2+z
8 -1/2-x,-1/2+y,z
_cell_length_a 11.6208(7)
_cell_length_b 8.9292(6)
_cell_length_c 31.995(2)
_cell_angle_alpha 90
_cell_angle_beta 90
_cell_angle_gamma 90
_cell_formula_units_Z 8
loop_
_atom_type_symbol
_atom_type_radius_bond
C 0.68
H 0.23
N 0.68
O 0.68
loop_
_atom_site_label
_atom_site_type_symbol
_atom_site_fract_x
_atom_site_fract_y
_atom_site_fract_z
O1 O 0.68357(11) 0.15394(14) 0.48213(4)
O2 O 0.49416(14) -0.34274(15) 0.55306(4)
O3 O 0.2185(4) -0.3039(6) 0.64912(17)
O4 O 0.2596(5) -0.5133(5) 0.6760(2)
N1 N 0.49884(13) -0.04902(16) 0.63236(5)
H1 H 0.454(2) 0.010(2) 0.6442(6)
N2 N 0.26638(17) -0.3726(3) 0.67348(6)
C1 C 0.7571(2) 0.0615(3) 0.45779(7)
H2 H 0.78280 0.11590 0.43370
H3 H 0.71580 -0.02620 0.44900
H4 H 0.82240 0.03210 0.47430
C2 C 0.63796(14) 0.09325(18) 0.51840(5)
C3 C 0.58358(14) 0.19496(18) 0.54477(5)
H5 H 0.57980 0.29570 0.53750
C4 C 0.53543(15) 0.14576(18) 0.58164(6)
H6 H 0.49940 0.21420 0.59920
C5 C 0.53967(14) -0.00450(17) 0.59307(5)
C6 C 0.59105(13) -0.10704(17) 0.56582(5)
C7 C 0.64118(14) -0.05623(18) 0.52885(5)
H7 H 0.67720 -0.12400 0.51110
C8 C 0.58565(14) -0.27272(17) 0.57558(5)
H8 H 0.65790 -0.31770 0.56600
C9 C 0.57460(13) -0.30451(18) 0.62278(5)
C10 C 0.47330(14) -0.20717(18) 0.63907(5)
H9 H 0.40430 -0.23270 0.62300
C11 C 0.54939(19) -0.4700(2) 0.62964(6)
H10 H 0.61280 -0.52870 0.61950
H11 H 0.48070 -0.49710 0.61480
H12 H 0.53870 -0.48860 0.65890
C12 C 0.68946(15) -0.2650(3) 0.64342(6)
H13 H 0.74890 -0.32830 0.63240
H14 H 0.68360 -0.27970 0.67310
H15 H 0.70790 -0.16210 0.63780
C13 C 0.44652(14) -0.2280(2) 0.68532(5)
C14 C 0.51713(18) -0.1632(2) 0.71537(6)
H16 H 0.57930 -0.10550 0.70670
C15 C 0.4982(2) -0.1814(3) 0.75784(6)
H17 H 0.54850 -0.13780 0.77690
C16 C 0.4073(2) -0.2619(3) 0.77196(7)
H18 H 0.39550 -0.27460 0.80050
C17 C 0.33298(19) -0.3243(3) 0.74368(7)
H19 H 0.26930 -0.37810 0.75290
C18 C 0.35330(16) -0.3069(2) 0.70118(6)
H20 H 0.437(2) -0.263(3) 0.5446(8)
O5? O 0.2823(4) -0.4306(10) 0.6431(2)
O6? O 0.1633(4) -0.3458(11) 0.6820(3)
#END
