
#######################################################################
#
#                 Cambridge Crystallographic Data Centre
#                                CCDC
#
#######################################################################
#
# If this CIF has been generated from an entry in the Cambridge
# Structural Database, then it will include bibliographic, chemical,
# crystal, experimental, refinement or atomic coordinate data resulting
# from the CCDC's data processing and validation procedures.
#
#######################################################################

data_CSD_CIF_PISXHZ
_audit_creation_date 1979-11-16
_audit_creation_method CSD-ConQuest-V1
_database_code_CSD PISXHZ
_database_code_depnum_ccdc_archive 'CCDC 1234472'
_chemical_formula_sum 'C18 H12 N4 O4'
_chemical_formula_moiety
;
C18 H12 N4 O4
;
_journal_coden_Cambridge 195
_journal_volume 8
_journal_year 1978
_journal_page_first 149
_journal_name_full 'J.Cryst.Mol.Struct. '
loop_
_publ_author_name
"B.Bovio"
"S.Locchi"
_chemical_name_systematic
;
3-Phenyl-isoxazolin-4,5-dione-4-(3'-phenyl-(2'H)-\D(2'H)-isoxazolin-5'-on-4'-y
l)-hydrazone
;
_cell_volume   3125.479
_exptl_crystal_colour 'orange'
_exptl_crystal_density_diffrn 1.48
_diffrn_ambient_temperature ?
_diffrn_special_details
;
The study was carried out at room temperature,in the range 283-303K

;
#These two values have been output from a single CSD field.
_refine_ls_R_factor_gt 0.047
_refine_ls_wR_factor_gt 0.047
_symmetry_cell_setting monoclinic
_symmetry_space_group_name_H-M 'C 2/c'
_symmetry_Int_Tables_number 15
loop_
_symmetry_equiv_pos_site_id
_symmetry_equiv_pos_as_xyz
1 x,y,z
2 1/2+x,1/2+y,z
3 -x,y,1/2-z
4 1/2-x,1/2+y,1/2-z
5 -x,-y,-z
6 -1/2-x,-1/2-y,-z
7 x,-y,-1/2+z
8 -1/2+x,-1/2-y,-1/2+z
_cell_length_a 13.76(1)
_cell_length_b 16.11(1)
_cell_length_c 14.10(1)
_cell_angle_alpha 90
_cell_angle_beta 90.5(1)
_cell_angle_gamma 90
_cell_formula_units_Z 8
loop_
_atom_type_symbol
_atom_type_radius_bond
C 0.68
H 0.23
N 0.68
O 0.68
loop_
_atom_site_label
_atom_site_type_symbol
_atom_site_fract_x
_atom_site_fract_y
_atom_site_fract_z
O1 O 0.47288 0.35272 0.13339
N1 N 0.56337 0.39916 0.12841
C1 C 0.54159 0.47797 0.12411
C2 C 0.43801 0.48940 0.12590
C3 C 0.39653 0.40704 0.13182
N2 N 0.38918 0.56056 0.12843
N3 N 0.29460 0.55462 0.13159
O2 O 0.31259 0.38448 0.13596
C4 C 0.61967 0.54037 0.11676
C5 C 0.71541 0.51507 0.10121
C6 C 0.78950 0.57297 0.09416
C7 C 0.76943 0.65601 0.10076
C8 C 0.67540 0.68257 0.11555
C9 C 0.60119 0.62434 0.12412
O3 O 0.09201 0.67977 0.18915
N4 N 0.16516 0.74077 0.18464
C10 C 0.24827 0.70592 0.15143
C11 C 0.23405 0.62241 0.14413
C12 C 0.13404 0.60470 0.16549
O4 O 0.08922 0.54075 0.16629
C13 C 0.32973 0.76161 0.13070
C14 C 0.34455 0.83394 0.18355
C15 C 0.41843 0.88766 0.16033
C16 C 0.47797 0.87093 0.08396
C17 C 0.46468 0.79909 0.03226
C18 C 0.39109 0.74443 0.05421
H1 H 0.26800 0.50400 0.12600
H2 H 0.72600 0.46000 0.08900
H3 H 0.85400 0.55300 0.07600
H4 H 0.81700 0.69400 0.09000
H5 H 0.66200 0.73900 0.12100
H6 H 0.54200 0.64300 0.13300
H7 H 0.14500 0.78900 0.16600
H8 H 0.30300 0.84100 0.23900
H9 H 0.42600 0.93500 0.20400
H10 H 0.53000 0.90800 0.06500
H11 H 0.50200 0.78400 -0.02000
H12 H 0.38400 0.69300 0.01200
#END
