
#######################################################################
#
#                 Cambridge Crystallographic Data Centre
#                                CCDC
#
#######################################################################
#
# If this CIF has been generated from an entry in the Cambridge
# Structural Database, then it will include bibliographic, chemical,
# crystal, experimental, refinement or atomic coordinate data resulting
# from the CCDC's data processing and validation procedures.
#
#######################################################################

data_CSD_CIF_PIVKEL
_audit_creation_date 2008-06-16
_audit_creation_method CSD-ConQuest-V1
_database_code_CSD PIVKEL
_database_code_depnum_ccdc_archive 'CCDC 639695'
_chemical_formula_sum 'C23 H28 N1 O4'
_chemical_formula_moiety
;
C23 H28 N1 O4
;
_journal_coden_Cambridge 1086
_journal_volume 20
_journal_year 2008
_journal_page_first 282
_journal_name_full 'Chirality '
loop_
_publ_author_name
"Y.Uchida"
"T.Uematsu"
"Y.Nakayama"
"H.Takahashi"
"H.Tsue"
"K.Tanaka"
"R.Tamura"
_chemical_name_systematic
;
rac-trans-4-(5-(4-Butoxyphenyl)-2,5-dimethylpyrrolidine-1-oxyl)benzoic acid
;
_chemical_melting_point 445.95
_cell_volume   2016.476
_exptl_crystal_colour 'yellow'
_exptl_crystal_density_diffrn 1.26
_exptl_special_details
;
Melting point range 445.95-446.15K

;
_exptl_crystal_description 'needle'
_exptl_crystal_preparation 'dichloromethane'
_diffrn_ambient_temperature 173.1
#These two values have been output from a single CSD field.
_refine_ls_R_factor_gt 0.0919
_refine_ls_wR_factor_gt 0.0919
_symmetry_cell_setting monoclinic
_symmetry_space_group_name_H-M 'P 21/a'
_symmetry_Int_Tables_number 14
loop_
_symmetry_equiv_pos_site_id
_symmetry_equiv_pos_as_xyz
1 x,y,z
2 1/2-x,1/2+y,-z
3 -x,-y,-z
4 -1/2+x,-1/2-y,z
_cell_length_a 8.4879(7)
_cell_length_b 17.7605(15)
_cell_length_c 13.5429(14)
_cell_angle_alpha 90
_cell_angle_beta 98.995(3)
_cell_angle_gamma 90
_cell_formula_units_Z 4
loop_
_atom_type_symbol
_atom_type_radius_bond
C 0.68
H 0.23
N 0.68
O 0.68
loop_
_atom_site_label
_atom_site_type_symbol
_atom_site_fract_x
_atom_site_fract_y
_atom_site_fract_z
O1 O 0.2048(3) 0.22499(14) 0.4466(2)
O2 O 0.7867(3) 0.14918(15) 0.8320(2)
O3 O -0.4424(3) 0.06091(17) 0.0963(2)
O4 O -0.2944(3) -0.01706(18) 0.0198(2)
N1 N 0.2302(3) 0.15404(16) 0.4486(2)
C1 C 0.2302(4) 0.1088(2) 0.5404(3)
C2 C 0.2386(4) 0.0286(2) 0.4976(3)
C3 C 0.3342(4) 0.0389(2) 0.4130(3)
C4 C 0.2642(4) 0.1108(2) 0.3597(3)
C5 C 0.0778(4) 0.1238(2) 0.5831(3)
C6 C 0.3799(4) 0.12448(19) 0.6170(3)
C7 C 0.5082(4) 0.1655(2) 0.5950(3)
C8 C 0.6468(4) 0.1752(2) 0.6634(3)
C9 C 0.6585(4) 0.1437(2) 0.7577(3)
C10 C 0.5290(4) 0.1022(2) 0.7816(3)
C11 C 0.3944(4) 0.0925(2) 0.7118(3)
C12 C 0.9163(4) 0.1968(2) 0.8143(3)
C13 C 1.0363(5) 0.1979(3) 0.9085(3)
C14 C 0.9730(6) 0.2354(4) 0.9955(4)
C15 C 1.0820(6) 0.2377(3) 1.0906(4)
C16 C 0.3791(5) 0.1548(2) 0.3060(3)
C17 C 0.1096(4) 0.0928(2) 0.2898(3)
C18 C -0.0371(4) 0.1243(2) 0.2985(3)
C19 C -0.1732(4) 0.1050(2) 0.2333(3)
C20 C -0.1641(4) 0.0539(2) 0.1563(3)
C21 C -0.0176(4) 0.0225(2) 0.1462(3)
C22 C 0.1176(4) 0.0419(2) 0.2116(3)
C23 C -0.3106(4) 0.0322(2) 0.0872(3)
H1 H 0.129(5) 0.014(2) 0.469(3)
H2 H 0.283(6) -0.009(2) 0.551(4)
H3 H 0.324(4) -0.002(2) 0.371(3)
H4 H 0.450(4) 0.054(2) 0.446(3)
H5 H 0.074(5) 0.087(2) 0.630(3)
H6 H 0.076(4) 0.178(2) 0.607(3)
H7 H -0.016(4) 0.118(2) 0.530(3)
H8 H 0.498(4) 0.190(2) 0.532(3)
H9 H 0.747(6) 0.202(2) 0.643(3)
H10 H 0.534(4) 0.078(2) 0.849(3)
H11 H 0.299(6) 0.064(2) 0.736(4)
H12 H 0.962(7) 0.175(3) 0.759(5)
H13 H 0.876(4) 0.247(2) 0.798(3)
H14 H 1.13280 0.22500 0.89550
H15 H 1.06780 0.14550 0.92730
H16 H 0.94230 0.28770 0.97590
H17 H 0.87490 0.20860 1.00640
H18 H 1.19230 0.23970 1.07770
H19 H 1.06710 0.19250 1.12960
H20 H 1.05950 0.28250 1.12830
H21 H 0.405(5) 0.122(2) 0.258(3)
H22 H 0.486(4) 0.163(2) 0.351(3)
H23 H 0.338(5) 0.197(3) 0.280(3)
H24 H -0.042(4) 0.159(2) 0.347(2)
H25 H -0.273(4) 0.127(2) 0.235(3)
H26 H -0.017(4) -0.012(2) 0.086(3)
H27 H 0.226(5) 0.017(2) 0.205(3)
H28 H -0.403(9) -0.027(4) -0.028(6)
#END
