
#######################################################################
#
#                 Cambridge Crystallographic Data Centre
#                                CCDC
#
#######################################################################
#
# If this CIF has been generated from an entry in the Cambridge
# Structural Database, then it will include bibliographic, chemical,
# crystal, experimental, refinement or atomic coordinate data resulting
# from the CCDC's data processing and validation procedures.
#
#######################################################################

data_CSD_CIF_PIWDUU
_audit_creation_date 1995-01-12
_audit_creation_method CSD-ConQuest-V1
_database_code_CSD PIWDUU
_chemical_formula_sum 'C13 H22 N2 O2'
_chemical_formula_moiety
;
C13 H22 N2 O2
;
_journal_coden_Cambridge 16
_journal_volume 50
_journal_year 1994
_journal_page_first 6129
_journal_name_full 'Tetrahedron '
loop_
_publ_author_name
"K.D.Hutchinson"
"J.V.Silverton"
"J.W.Daly"
_chemical_name_systematic
;
Hexahydro-2,2-dimethyl-7'-nitro-spiro(cyclopentane-1,1'-(1H)pyrrolizine)
;
_chemical_name_common
;
Nitropolyzonamine
;
_chemical_melting_point 323.15
_cell_volume   1302.292
_exptl_crystal_colour 'yellow'
_exptl_crystal_density_diffrn 1.215
_exptl_special_details
;
Melting point range 323.15-328.15K
Hygroscopic

;
_diffrn_ambient_temperature ?
_diffrn_special_details
;
The study was carried out at room temperature,in the range 283-303K

;
#These two values have been output from a single CSD field.
_refine_ls_R_factor_gt 0.048
_refine_ls_wR_factor_gt 0.048
_symmetry_cell_setting monoclinic
_symmetry_space_group_name_H-M 'P 21/a'
_symmetry_Int_Tables_number 14
loop_
_symmetry_equiv_pos_site_id
_symmetry_equiv_pos_as_xyz
1 x,y,z
2 1/2-x,1/2+y,-z
3 -x,-y,-z
4 -1/2+x,-1/2-y,z
_cell_length_a 10.650(1)
_cell_length_b 9.127(1)
_cell_length_c 14.084(2)
_cell_angle_alpha 90
_cell_angle_beta 107.96(1)
_cell_angle_gamma 90
_cell_formula_units_Z 4
loop_
_atom_type_symbol
_atom_type_radius_bond
C 0.68
H 0.23
N 0.68
O 0.68
loop_
_atom_site_label
_atom_site_type_symbol
_atom_site_fract_x
_atom_site_fract_y
_atom_site_fract_z
O1 O 0.6685(3) 0.0128(3) 0.2870(2)
O2 O 0.6517(3) -0.0412(3) 0.1391(2)
N1 N 0.7787(2) 0.3417(3) 0.1505(1)
N2 N 0.6430(3) 0.0448(3) 0.2012(2)
C1 C 0.7138(3) 0.2596(4) 0.0584(2)
C2 C 0.5768(3) 0.2267(4) 0.0620(2)
C3 C 0.5981(3) 0.2015(3) 0.1714(2)
C4 C 0.7084(2) 0.3082(3) 0.2245(2)
C5 C 0.6695(2) 0.4558(3) 0.2614(2)
C6 C 0.7674(3) 0.5592(4) 0.2340(2)
C7 C 0.7741(3) 0.5002(4) 0.1375(2)
C8 C 0.6785(3) 0.4620(3) 0.3733(2)
C9 C 0.6117(3) 0.6091(4) 0.3782(3)
C10 C 0.5030(3) 0.6266(4) 0.2796(3)
C11 C 0.5290(3) 0.5112(3) 0.2092(2)
C12 C 0.8184(3) 0.4564(4) 0.4457(2)
C13 C 0.5989(3) 0.3380(4) 0.3992(2)
H1 H 0.87100 0.53300 0.43200
H2 H 0.81400 0.46700 0.51200
H3 H 0.85600 0.36400 0.43900
H4 H 0.51100 0.33900 0.35500
H5 H 0.63900 0.24700 0.39300
H6 H 0.59700 0.35000 0.46600
H7 H 0.67500 0.68500 0.38500
H8 H 0.57900 0.61200 0.43400
H9 H 0.42000 0.60900 0.29000
H10 H 0.50300 0.72200 0.25200
H11 H 0.46800 0.43300 0.20100
H12 H 0.52300 0.55300 0.14600
H13 H 0.85200 0.55400 0.28200
H14 H 0.73700 0.65700 0.22800
H15 H 0.84900 0.53500 0.12100
H16 H 0.69600 0.52700 0.08600
H17 H 0.76000 0.17100 0.05600
H18 H 0.71100 0.31800 0.00200
H19 H 0.52000 0.30800 0.03900
H20 H 0.54000 0.14200 0.02400
H21 H 0.51900 0.21800 0.18800
H22 H 0.75800 0.26000 0.28400
#END
