
#######################################################################
#
#                 Cambridge Crystallographic Data Centre
#                                CCDC
#
#######################################################################
#
# If this CIF has been generated from an entry in the Cambridge
# Structural Database, then it will include bibliographic, chemical,
# crystal, experimental, refinement or atomic coordinate data resulting
# from the CCDC's data processing and validation procedures.
#
#######################################################################

data_CSD_CIF_PIWSEU
_audit_creation_date 2008-06-16
_audit_creation_method CSD-ConQuest-V1
_database_code_CSD PIWSEU
_database_code_depnum_ccdc_archive 'CCDC 665392'
_chemical_formula_sum 'C10 H10 N2 O3'
_chemical_formula_moiety
;
C10 H10 N2 O3
;
_journal_coden_Cambridge 182
_journal_year 2008
_journal_page_first 768
_journal_name_full 'Chem.Commun. '
loop_
_publ_author_name
"M.Angelin"
"P.Vongvilai"
"A.Fischer"
"O.Ramstrom"
_chemical_name_systematic
;
3-(1-Nitroethyl)isoindolin-1-one
;
_cell_volume    949.672
_exptl_crystal_colour 'colorless'
_exptl_crystal_density_diffrn 1.442
_exptl_crystal_description 'needle'
_diffrn_ambient_temperature 299
#These two values have been output from a single CSD field.
_refine_ls_R_factor_gt 0.0648
_refine_ls_wR_factor_gt 0.0648
_symmetry_cell_setting monoclinic
_symmetry_space_group_name_H-M 'P 21/n'
_symmetry_Int_Tables_number 14
loop_
_symmetry_equiv_pos_site_id
_symmetry_equiv_pos_as_xyz
1 x,y,z
2 1/2-x,1/2+y,1/2-z
3 -x,-y,-z
4 -1/2+x,-1/2-y,-1/2+z
_cell_length_a 5.5118(7)
_cell_length_b 10.8225(9)
_cell_length_c 16.149(2)
_cell_angle_alpha 90
_cell_angle_beta 99.653(8)
_cell_angle_gamma 90
_cell_formula_units_Z 4
loop_
_atom_type_symbol
_atom_type_radius_bond
C 0.68
H 0.23
N 0.68
O 0.68
loop_
_atom_site_label
_atom_site_type_symbol
_atom_site_fract_x
_atom_site_fract_y
_atom_site_fract_z
N1 N 0.7011(4) 0.0325(2) 0.76516(13)
O1 O 0.7959(3) 0.04943(19) 1.07531(11)
C1 C 0.6783(5) 0.1893(2) 0.87460(15)
N2 N 0.8023(4) 0.1051(2) 0.93789(13)
O2 O 0.9026(4) 0.0719(2) 0.75588(14)
C2 C 0.4040(5) 0.1970(3) 0.73000(16)
C3 C 0.5119(5) 0.2593(2) 0.92341(15)
C4 C 0.3950(6) 0.2503(3) 1.06128(17)
C5 C 0.5314(5) 0.2083(2) 1.00299(16)
O3 O 0.6275(5) -0.0711(2) 0.74508(15)
C6 C 0.5296(5) 0.1176(2) 0.80159(15)
C7 C 0.7221(5) 0.1114(2) 1.01222(15)
C8 C 0.3584(7) 0.3575(3) 0.90102(19)
C9 C 0.2219(10) 0.4002(5) 0.9590(2)
C10 C 0.2380(9) 0.3458(4) 1.0383(2)
H1 H 0.78610 0.24610 0.85310
H2 H 0.92310 0.06120 0.92460
H3 H 0.29240 0.25290 0.75050
H4 H 0.31460 0.14550 0.68690
H5 H 0.52590 0.24330 0.70710
H6 H 0.41420 0.21260 1.11590
H7 H 0.40340 0.07100 0.82190
H8 H 0.35390 0.39460 0.84670
H9 H 0.10720 0.46680 0.94540
H10 H 0.13610 0.37690 1.07640
#END
