
#######################################################################
#
#                 Cambridge Crystallographic Data Centre
#                                CCDC
#
#######################################################################
#
# If this CIF has been generated from an entry in the Cambridge
# Structural Database, then it will include bibliographic, chemical,
# crystal, experimental, refinement or atomic coordinate data resulting
# from the CCDC's data processing and validation procedures.
#
#######################################################################

data_CSD_CIF_PIXMAL
_audit_creation_date 2008-06-16
_audit_creation_method CSD-ConQuest-V1
_database_code_CSD PIXMAL
_database_code_depnum_ccdc_archive 'CCDC 638239'
_chemical_formula_sum 'C26 H23 N1 O3'
_chemical_formula_moiety
;
C26 H23 N1 O3
;
_journal_coden_Cambridge 1366
_journal_volume 350
_journal_year 2008
_journal_page_first 267
_journal_name_full 'Adv.Synth.Catal. '
loop_
_publ_author_name
"D.Enders"
"M.R.M.Huttl"
"G.Raabe"
"J.W.Bats"
_chemical_name_systematic
;
3-Benzyl-5-nitro-4,6-diphenylcyclohex-1-ene-carbaldehyde
;
_cell_volume   2076.014
_exptl_crystal_density_diffrn 1.272
_exptl_special_details
;
Cif has cell temp. 150 K, main diffrn temp. 293 K with no temperature 
information in the paper. The name of this structure (6s) is incorrect in the 
supp. info
;
_diffrn_ambient_temperature 150
#These two values have been output from a single CSD field.
_refine_ls_R_factor_gt 0.076
_refine_ls_wR_factor_gt 0.076
_symmetry_cell_setting orthorhombic
_symmetry_space_group_name_H-M 'P 21 21 21'
_symmetry_Int_Tables_number 19
loop_
_symmetry_equiv_pos_site_id
_symmetry_equiv_pos_as_xyz
1 x,y,z
2 1/2-x,-y,1/2+z
3 1/2+x,1/2-y,-z
4 -x,1/2+y,1/2-z
_cell_length_a 8.627(2)
_cell_length_b 13.826(7)
_cell_length_c 17.405(9)
_cell_angle_alpha 90
_cell_angle_beta 90
_cell_angle_gamma 90
_cell_formula_units_Z 4
loop_
_atom_type_symbol
_atom_type_radius_bond
C 0.68
H 0.23
N 0.68
O 0.68
loop_
_atom_site_label
_atom_site_type_symbol
_atom_site_fract_x
_atom_site_fract_y
_atom_site_fract_z
O1 O 0.0497(6) 0.2832(3) 0.5003(2)
O2 O -0.1046(8) 0.4032(4) 0.5073(3)
N1 N -0.0243(7) 0.3480(4) 0.4712(3)
C1 C 0.1344(6) 0.3459(3) 0.3490(3)
C2 C -0.2088(6) 0.3314(3) 0.2764(3)
C3 C -0.1460(7) 0.3057(4) 0.2056(3)
C4 C -0.0838(7) 0.1886(3) 0.3464(3)
C5 C 0.2481(6) 0.4210(3) 0.3773(3)
C6 C 0.1947(6) 0.2404(3) 0.3511(3)
C7 C 0.0658(7) 0.1688(3) 0.3460(3)
C8 C -0.3103(8) 0.4194(4) 0.1414(4)
C9 C 0.2548(7) 0.5081(4) 0.3415(3)
C10 C 0.1381(8) 0.1548(4) 0.0973(4)
C11 C -0.1496(6) 0.2889(3) 0.3523(3)
C12 C -0.3736(7) 0.4429(3) 0.2110(5)
C13 C 0.2666(6) 0.2258(4) 0.2076(3)
C14 C 0.1906(7) 0.1506(4) 0.1717(3)
C15 C 0.4516(7) 0.4745(4) 0.4611(3)
C16 C 0.3488(8) 0.4061(3) 0.4377(3)
C17 C 0.2855(7) 0.3106(4) 0.1629(4)
C18 C 0.3191(7) 0.2206(4) 0.2890(4)
C19 C -0.3235(6) 0.4018(3) 0.2778(3)
C20 C -0.1957(8) 0.3507(5) 0.1391(3)
C21 C 0.4572(8) 0.5623(4) 0.4241(4)
C22 C -0.0257(6) 0.3591(3) 0.3855(3)
C23 C 0.2347(9) 0.3154(5) 0.0887(4)
C24 C 0.1592(9) 0.2374(5) 0.0553(4)
C25 C 0.3586(8) 0.5801(4) 0.3639(4)
O3 O -0.3301(6) 0.1141(3) 0.3406(3)
C26 C -0.1944(9) 0.1073(4) 0.3434(3)
H1 H 0.11143 0.35963 0.29194
H2 H -0.06980 0.26029 0.20702
H3 H -0.24096 0.27772 0.39405
H4 H 0.41604 0.27206 0.27778
H5 H 0.18930 0.51623 0.28910
H6 H 0.26605 0.21638 0.40278
H7 H 0.36333 0.16366 0.30762
H8 H -0.14878 0.33593 0.08879
H9 H -0.34943 0.44920 0.09504
H10 H -0.45715 0.48922 0.21102
H11 H -0.37370 0.42213 0.32747
H12 H 0.35795 0.64292 0.33923
H13 H 0.52792 0.45912 0.50085
H14 H 0.34069 0.34677 0.46348
H15 H 0.34160 0.36608 0.18471
H16 H 0.25268 0.37351 0.05558
H17 H 0.11515 0.23830 0.00099
H18 H 0.08551 0.09579 0.07692
H19 H 0.17018 0.09158 0.19884
H20 H -0.15049 0.04155 0.34239
H21 H 0.52757 0.61297 0.44208
H22 H 0.09568 0.10248 0.33825
H23 H -0.06396 0.42414 0.37257
#END
