
#######################################################################
#
#                 Cambridge Crystallographic Data Centre
#                                CCDC
#
#######################################################################
#
# If this CIF has been generated from an entry in the Cambridge
# Structural Database, then it will include bibliographic, chemical,
# crystal, experimental, refinement or atomic coordinate data resulting
# from the CCDC's data processing and validation procedures.
#
#######################################################################

data_CSD_CIF_PIZNUJ
_audit_creation_date 2014-05-22
_audit_creation_method CSD-ConQuest-V1
_database_code_CSD PIZNUJ
_database_code_depnum_ccdc_archive 'CCDC 976490'
_chemical_formula_sum 'C17 H16 N2 O3'
_chemical_formula_moiety
;
C17 H16 N2 O3
;
_journal_coden_Cambridge 177
_journal_volume 12
_journal_year 2014
_journal_page_first 4503
_journal_name_full 'Org.Biomol.Chem. '
loop_
_publ_author_name
"D.Roca-Lopez"
"E.Marques-Lopez"
"Ana Alcaine"
"P.Merino"
"R.P.Herrera"
_chemical_name_systematic
;
3-(1-(4-methoxyphenyl)-2-nitroethyl)-1H-indole
;
_cell_volume   1527.709
_exptl_crystal_colour 'colorless'
_exptl_crystal_density_diffrn 1.288
_exptl_special_details
;
Absolute configuration

;
_exptl_crystal_description 'prisms'
_diffrn_ambient_temperature 297
#These two values have been output from a single CSD field.
_refine_ls_R_factor_gt 0.0492
_refine_ls_wR_factor_gt 0.0492
loop_
_citation_database_id_CSD
_citation_special_details
WIFQEI "is a racemate of this entry"
_symmetry_cell_setting orthorhombic
_symmetry_space_group_name_H-M 'P 21 21 21'
_symmetry_Int_Tables_number 19
loop_
_symmetry_equiv_pos_site_id
_symmetry_equiv_pos_as_xyz
1 x,y,z
2 1/2-x,-y,1/2+z
3 -x,1/2+y,1/2-z
4 1/2+x,1/2-y,-z
_cell_length_a 9.3671(6)
_cell_length_b 9.5385(7)
_cell_length_c 17.0984(12)
_cell_angle_alpha 90
_cell_angle_beta 90
_cell_angle_gamma 90
_cell_formula_units_Z 4
loop_
_atom_type_symbol
_atom_type_radius_bond
C 0.68
H 0.23
N 0.68
O 0.68
loop_
_atom_site_label
_atom_site_type_symbol
_atom_site_fract_x
_atom_site_fract_y
_atom_site_fract_z
C1 C 0.3720(7) 0.9224(6) 0.7284(3)
H1 H 0.32720 1.00930 0.71020
C2 C 0.3669(6) 0.9212(9) 0.8165(4)
C3 C 0.3509(6) 1.0452(8) 0.8574(5)
H2 H 0.34010 1.12860 0.82990
C4 C 0.3504(6) 1.0478(8) 0.9380(5)
H3 H 0.33940 1.13270 0.96410
C5 C 0.3662(6) 0.9263(11) 0.9802(4)
C6 C 0.3821(7) 0.8022(9) 0.9403(5)
H4 H 0.39300 0.71870 0.96780
C7 C 0.3819(7) 0.8008(8) 0.8597(5)
H5 H 0.39220 0.71570 0.83380
O1 O 0.3623(4) 0.9404(4) 1.0600(3)
C8 C 0.3924(8) 0.8173(8) 1.1046(4)
H6 H 0.31890 0.74890 1.09570
H7 H 0.39550 0.84070 1.15920
H8 H 0.48290 0.77940 1.08880
C9 C 0.2918(7) 0.7996(8) 0.6921(3)
H9 H 0.29940 0.80540 0.63560
H10 H 0.33650 0.71280 0.70860
N1 N 0.1362(7) 0.796(1) 0.7144(3)
O2 O 0.0769(5) 0.9041(7) 0.7308(3)
O3 O 0.0805(5) 0.6816(7) 0.7150(3)
C10 C 0.5233(8) 0.9179(7) 0.6968(5)
C11 C 0.6418(11) 0.9102(6) 0.7407(4)
H11 H 0.64280 0.90630 0.79510
N2 N 0.7615(6) 0.9091(5) 0.6940(5)
H12 H 0.84860 0.90410 0.70960
C12 C 0.7158(11) 0.9173(7) 0.6185(5)
C13 C 0.5675(10) 0.9246(6) 0.6171(4)
C14 C 0.4993(7) 0.9343(7) 0.5452(5)
H13 H 0.40010 0.93740 0.54290
C15 C 0.5784(11) 0.9393(7) 0.4772(4)
H14 H 0.53280 0.94770 0.42910
C16 C 0.7271(14) 0.9316(8) 0.4808(5)
H15 H 0.77950 0.93280 0.43460
C17 C 0.7980(8) 0.9225(8) 0.5510(7)
H16 H 0.89720 0.91980 0.55320
#END
