
#######################################################################
#
#                 Cambridge Crystallographic Data Centre
#                                CCDC
#
#######################################################################
#
# If this CIF has been generated from an entry in the Cambridge
# Structural Database, then it will include bibliographic, chemical,
# crystal, experimental, refinement or atomic coordinate data resulting
# from the CCDC's data processing and validation procedures.
#
#######################################################################

data_CSD_CIF_PIZQIY
_audit_creation_date 1998-11-19
_audit_creation_method CSD-ConQuest-V1
_database_code_CSD PIZQIY
_chemical_formula_sum 'C21 H22 N2 O4'
_chemical_formula_moiety
;
C21 H22 N2 O4
;
_journal_coden_Cambridge 35
_journal_volume 63
_journal_year 1998
_journal_page_first 44
_journal_name_full 'J.Org.Chem. '
loop_
_publ_author_name
"A.Padwa"
"S.R.Harring"
"M.A.Semones"
_chemical_name_systematic
;
2-Acetyl-7a-ethyl-5,6,7,7a,8,9-hexahydro-1-(2-nitrophenyl)-3H-cyclopenta(ij)qu
inolizin-3-one
;
_chemical_melting_point 429.15
_cell_volume   1881.866
_exptl_crystal_density_diffrn 1.293
_exptl_special_details
;
Melting point range 429.15-430.15K
H20B coordinates are in error and have been suppressed. The space group is 
P21/n, not P21/c
;
_diffrn_ambient_temperature ?
_diffrn_special_details
;
The study was carried out at room temperature,in the range 283-303K

;
#These two values have been output from a single CSD field.
_refine_ls_R_factor_gt 0.0592
_refine_ls_wR_factor_gt 0.0592
loop_
_citation_database_id_CSD
_citation_special_details
PIZQOE "is a stereoisomer of this entry"
_symmetry_cell_setting monoclinic
_symmetry_space_group_name_H-M 'P 21/n'
_symmetry_Int_Tables_number 14
loop_
_symmetry_equiv_pos_site_id
_symmetry_equiv_pos_as_xyz
1 x,y,z
2 1/2-x,1/2+y,1/2-z
3 -x,-y,-z
4 -1/2+x,-1/2-y,-1/2+z
_cell_length_a 10.503(2)
_cell_length_b 9.690(2)
_cell_length_c 18.516(4)
_cell_angle_alpha 90
_cell_angle_beta 93.00(3)
_cell_angle_gamma 90
_cell_formula_units_Z 4
loop_
_atom_type_symbol
_atom_type_radius_bond
C 0.68
H 0.23
N 0.68
O 0.68
loop_
_atom_site_label
_atom_site_type_symbol
_atom_site_fract_x
_atom_site_fract_y
_atom_site_fract_z
O1 O 0.6695(5) 0.5080(5) 0.9784(3)
O2 O 0.5373(4) 0.4638(4) 0.8936(2)
O3 O 0.7481(3) 0.3452(4) 0.7590(2)
O4 O 0.4472(3) 0.2950(4) 0.6341(2)
N1 N 0.6224(5) 0.4282(5) 0.9345(2)
N2 N 0.3144(3) 0.2645(4) 0.7259(2)
C1 C 0.0337(6) 0.4228(7) 0.8933(4)
C2 C 0.1520(5) 0.3954(5) 0.8542(3)
C3 C 0.1722(4) 0.2427(5) 0.8306(3)
C4 C 0.2025(5) 0.1542(6) 0.8985(3)
C5 C 0.3452(5) 0.1739(5) 0.9176(2)
C6 C 0.2987(4) 0.2378(4) 0.7972(2)
C7 C 0.3964(4) 0.2102(5) 0.8451(2)
C8 C 0.5220(4) 0.2252(4) 0.8231(2)
C9 C 0.6938(5) 0.0733(5) 0.8735(2)
C10 C 0.7952(5) 0.0401(6) 0.9214(3)
C11 C 0.8350(5) 0.1305(7) 0.9742(3)
C12 C 0.7759(5) 0.2548(7) 0.9791(2)
C13 C 0.6759(4) 0.2889(5) 0.9299(2)
C14 C 0.6318(4) 0.1978(5) 0.8763(2)
C15 C 0.5411(4) 0.2535(4) 0.7517(2)
C16 C 0.6743(4) 0.2692(5) 0.7264(2)
C17 C 0.7141(4) 0.1847(6) 0.6651(3)
C18 C 0.4370(4) 0.2709(5) 0.6993(3)
C19 C 0.2038(4) 0.2659(6) 0.6733(3)
C20 C 0.0778(5) 0.2691(8) 0.7053(3)
C21 C 0.0704(5) 0.1913(6) 0.7768(3)
H1 H 0.0269(6) 0.5181(7) 0.9067(4)
H2 H -0.0386(6) 0.3976(7) 0.8622(4)
H3 H 0.0359(6) 0.3663(7) 0.9360(4)
H4 H 0.2239(5) 0.4224(5) 0.8851(3)
H5 H 0.1501(5) 0.4533(5) 0.8121(3)
H6 H 0.1849(5) 0.0585(6) 0.8891(3)
H7 H 0.1519(5) 0.1849(6) 0.9371(3)
H8 H 0.3849(5) 0.0921(5) 0.9375(2)
H9 H 0.3590(5) 0.2491(5) 0.9508(2)
H10 H 0.6656(5) 0.0080(5) 0.8371(2)
H11 H 0.8376(5) -0.0472(6) 0.9174(3)
H12 H 0.9046(5) 0.1072(7) 1.0077(3)
H13 H 0.8029(5) 0.3200(7) 1.0159(2)
H14 H 0.8007(4) 0.2067(6) 0.6555(3)
H15 H 0.7080(4) 0.0886(6) 0.6770(3)
H16 H 0.6598(4) 0.2042(6) 0.6230(3)
H17 H 0.2091(4) 0.1862(6) 0.6428(3)
H18 H 0.2107(4) 0.3463(6) 0.6435(3)
H19 H 0.0055(5) 0.3164(8) 0.6832(3)
H20 H -0.0118(5) 0.2044(6) 0.7962(3)
H21 H 0.0826(5) 0.0944(6) 0.7689(3)
H22? H 0.0212(5) 0.2121(6) 0.6557(3)
#END
