
#######################################################################
#
#                 Cambridge Crystallographic Data Centre
#                                CCDC
#
#######################################################################
#
# If this CIF has been generated from an entry in the Cambridge
# Structural Database, then it will include bibliographic, chemical,
# crystal, experimental, refinement or atomic coordinate data resulting
# from the CCDC's data processing and validation procedures.
#
#######################################################################

data_CSD_CIF_PMOXMB
_audit_creation_date 1978-09-01
_audit_creation_method CSD-ConQuest-V1
_database_code_CSD PMOXMB
_database_code_depnum_ccdc_archive 'CCDC 1235334'
_chemical_formula_sum 'C16 H20 N2 O7'
_chemical_formula_moiety
;
C16 H20 N2 O7
;
_journal_coden_Cambridge 189
_journal_volume 7
_journal_year 1978
_journal_page_first 309
_journal_name_full 'Cryst.Struct.Commun. '
loop_
_publ_author_name
"M.Hospital"
"F.Leroy"
"J.P.Bats"
"J.Moulines"
_chemical_name_systematic
;
threo-3,3,4,4,\a-Pentamethyl-2-oxetane-methanol 3,5-dinitrobenzoate
;
_cell_volume   3500.665
_diffrn_ambient_temperature ?
_diffrn_special_details
;
The study was carried out at room temperature,in the range 283-303K

;
#These two values have been output from a single CSD field.
_refine_ls_R_factor_gt 0.046
_refine_ls_wR_factor_gt 0.046
_symmetry_cell_setting orthorhombic
_symmetry_space_group_name_H-M 'P b c a'
_symmetry_Int_Tables_number 61
loop_
_symmetry_equiv_pos_site_id
_symmetry_equiv_pos_as_xyz
1 x,y,z
2 1/2-x,-y,1/2+z
3 1/2+x,1/2-y,-z
4 -x,1/2+y,1/2-z
5 -x,-y,-z
6 -1/2+x,y,-1/2-z
7 -1/2-x,-1/2+y,z
8 x,-1/2-y,-1/2+z
_cell_length_a 29.860(8)
_cell_length_b 10.131(3)
_cell_length_c 11.572(3)
_cell_angle_alpha 90
_cell_angle_beta 90
_cell_angle_gamma 90
_cell_formula_units_Z 8
loop_
_atom_type_symbol
_atom_type_radius_bond
C 0.68
H 0.23
N 0.68
O 0.68
loop_
_atom_site_label
_atom_site_type_symbol
_atom_site_fract_x
_atom_site_fract_y
_atom_site_fract_z
C1 C -0.47462 -0.47534 0.29151
C2 C -0.43276 -0.51611 0.25397
C3 C -0.39530 -0.47242 0.31215
C4 C -0.39777 -0.39211 0.40839
C5 C -0.44003 -0.35644 0.44397
C6 C -0.47858 -0.39470 0.38799
C7 C -0.51381 -0.51481 0.21901
C8 C -0.59030 -0.47317 0.17579
C9 C -0.63009 -0.43388 0.24644
C10 C -0.67805 -0.46679 0.20402
C11 C -0.68539 -0.50950 0.33192
C12 C -0.70544 -0.35278 0.15674
C13 C -0.68028 -0.58244 0.11968
C14 C -0.70605 -0.64170 0.35977
C15 C -0.70623 -0.40353 0.40815
C16 C -0.58518 -0.38563 0.07052
O1 O -0.55115 -0.45280 0.25102
O2 O -0.63655 -0.51141 0.34989
O3 O -0.51099 -0.59184 0.14002
O4 O -0.34892 -0.58267 0.18422
O5 O -0.31809 -0.46103 0.31397
O6 O -0.47954 -0.26524 0.59612
O7 O -0.41057 -0.20491 0.57194
N1 N -0.35088 -0.50818 0.26718
N2 N -0.44358 -0.26953 0.54552
H1 H -0.42900 -0.57110 0.18600
H2 H -0.37190 -0.36280 0.44510
H3 H -0.50620 -0.36540 0.41530
H4 H -0.59170 -0.56940 0.15850
H5 H -0.62600 -0.33530 0.26670
H6 H -0.71300 -0.60940 0.10780
H7 H -0.67110 -0.54780 0.04030
H8 H -0.66300 -0.66500 0.14290
H9 H -0.70540 -0.66040 0.44980
H10 H -0.73870 -0.63790 0.33080
H11 H -0.68940 -0.70470 0.31560
H12 H -0.70350 -0.43300 0.48750
H13 H -0.74120 -0.40480 0.38590
H14 H -0.69070 -0.31410 0.40140
H15 H -0.60940 -0.39300 0.02100
H16 H -0.56050 -0.41210 0.03260
H17 H -0.58670 -0.28510 0.08790
H18 H -0.73780 -0.37500 0.15240
H19 H -0.69410 -0.33280 0.07510
H20 H -0.70420 -0.27970 0.20250
#END
