
#######################################################################
#
#                 Cambridge Crystallographic Data Centre
#                                CCDC
#
#######################################################################
#
# If this CIF has been generated from an entry in the Cambridge
# Structural Database, then it will include bibliographic, chemical,
# crystal, experimental, refinement or atomic coordinate data resulting
# from the CCDC's data processing and validation procedures.
#
#######################################################################

data_CSD_CIF_PNBPIP
_audit_creation_date 1978-01-11
_audit_creation_method CSD-ConQuest-V1
_database_code_CSD PNBPIP
_chemical_formula_sum 'C12 H14 N2 O3'
_chemical_formula_moiety
;
C12 H14 N2 O3
;
_journal_coden_Cambridge 189
_journal_volume 6
_journal_year 1977
_journal_page_first 493
_journal_name_full 'Cryst.Struct.Commun. '
loop_
_publ_author_name
"E.Arte"
"J.Feneau-Dupont"
"J.P.Declercq"
"G.Germain"
"M.van Meerssche"
_chemical_name_systematic
;
p-Nitrobenzoylpiperidine
;
_cell_volume   1186.823
_exptl_crystal_density_diffrn 1.31
_diffrn_ambient_temperature ?
_diffrn_special_details
;
The study was carried out at room temperature,in the range 283-303K

;
#These two values have been output from a single CSD field.
_refine_ls_R_factor_gt 0.058
_refine_ls_wR_factor_gt 0.058
_symmetry_cell_setting orthorhombic
_symmetry_space_group_name_H-M 'P 21 21 21'
_symmetry_Int_Tables_number 19
loop_
_symmetry_equiv_pos_site_id
_symmetry_equiv_pos_as_xyz
1 x,y,z
2 1/2+x,1/2-y,-z
3 -x,1/2+y,1/2-z
4 1/2-x,-y,1/2+z
_cell_length_a 11.501(3)
_cell_length_b 10.391(3)
_cell_length_c 9.931(3)
_cell_angle_alpha 90
_cell_angle_beta 90
_cell_angle_gamma 90
_cell_formula_units_Z 4
loop_
_atom_type_symbol
_atom_type_radius_bond
C 0.68
H 0.23
N 0.68
O 0.68
loop_
_atom_site_label
_atom_site_type_symbol
_atom_site_fract_x
_atom_site_fract_y
_atom_site_fract_z
C1 C 0.20590 0.10000 0.32140
C2 C 0.13370 0.17360 0.40460
C3 C 0.01460 0.15200 0.40550
C4 C -0.02920 0.05920 0.32250
C5 C 0.03980 -0.01570 0.23970
C6 C 0.15830 0.00570 0.24000
C7 C 0.33490 0.11700 0.33540
C8 C 0.52720 0.12630 0.23020
C9 C 0.57860 0.25350 0.18420
C10 C 0.53580 0.28420 0.04230
C11 C 0.40360 0.28530 0.03930
C12 C 0.35400 0.15940 0.08920
N1 N 0.39930 0.12940 0.22240
O1 O 0.37850 0.11120 0.44780
N2 N -0.15570 0.03510 0.32210
O2 O -0.19540 -0.04110 0.24350
O3 O -0.21490 0.09250 0.40190
H1 H 0.16690 0.24130 0.45990
H2 H -0.04040 0.21080 0.45840
H3 H 0.00910 -0.07210 0.18470
H4 H 0.21110 -0.05800 0.18040
H5 H 0.55390 0.04360 0.14930
H6 H 0.53810 0.11580 0.32410
H7 H 0.54580 0.31090 0.26000
H8 H 0.66780 0.25090 0.19240
H9 H 0.57200 0.36950 0.01730
H10 H 0.55910 0.21820 -0.01750
H11 H 0.37050 0.37400 0.10600
H12 H 0.37220 0.28140 -0.05830
H13 H 0.27080 0.17110 0.09970
H14 H 0.38050 0.08350 0.01460
#END
