
#######################################################################
#
#                 Cambridge Crystallographic Data Centre
#                                CCDC
#
#######################################################################
#
# If this CIF has been generated from an entry in the Cambridge
# Structural Database, then it will include bibliographic, chemical,
# crystal, experimental, refinement or atomic coordinate data resulting
# from the CCDC's data processing and validation procedures.
#
#######################################################################

data_CSD_CIF_PNFPRO
_audit_creation_date 1978-09-01
_audit_creation_method CSD-ConQuest-V1
_database_code_CSD PNFPRO
_database_code_depnum_ccdc_archive 'CCDC 1235446'
_chemical_formula_sum 'C13 H9 N1 O4'
_chemical_formula_moiety
;
C13 H9 N1 O4
;
_journal_coden_Cambridge 189
_journal_volume 7
_journal_year 1978
_journal_page_first 187
_journal_name_full 'Cryst.Struct.Commun. '
loop_
_publ_author_name
"A.Carpy"
"J.M.Leger"
"A.Nuhrich"
_chemical_name_systematic
;
1-Phenyl-3-(5-nitro-2-furanyl)-2-propen-1-one
;
_cell_volume   1133.634
_diffrn_ambient_temperature ?
_diffrn_special_details
;
The study was carried out at room temperature,in the range 283-303K

;
#These two values have been output from a single CSD field.
_refine_ls_R_factor_gt 0.042
_refine_ls_wR_factor_gt 0.042
_symmetry_cell_setting monoclinic
_symmetry_space_group_name_H-M 'P 21/c'
_symmetry_Int_Tables_number 14
loop_
_symmetry_equiv_pos_site_id
_symmetry_equiv_pos_as_xyz
1 x,y,z
2 -x,1/2+y,1/2-z
3 -x,-y,-z
4 x,-1/2-y,-1/2+z
_cell_length_a 14.061(4)
_cell_length_b 5.188(2)
_cell_length_c 18.379(5)
_cell_angle_alpha 90
_cell_angle_beta 122.27(2)
_cell_angle_gamma 90
_cell_formula_units_Z 4
loop_
_atom_type_symbol
_atom_type_radius_bond
C 0.68
H 0.23
N 0.68
O 0.68
loop_
_atom_site_label
_atom_site_type_symbol
_atom_site_fract_x
_atom_site_fract_y
_atom_site_fract_z
C1 C 0.17310 -0.45750 0.26540
C2 C 0.08580 -0.28000 0.23440
C3 C -0.00730 -0.29980 0.15040
C4 C -0.01360 -0.49280 0.09730
C5 C 0.07220 -0.67310 0.12790
C6 C 0.16570 -0.65420 0.21150
C7 C 0.27430 -0.43980 0.35380
O1 O 0.35200 -0.59440 0.37750
C8 C 0.28260 -0.23510 0.41260
C9 C 0.37930 -0.19770 0.48800
C10 C 0.39670 -0.00190 0.54930
C11 C 0.48990 0.06200 0.62670
C12 C 0.45920 0.27210 0.65970
C13 C 0.34980 0.31940 0.59910
O2 O 0.30850 0.15740 0.53090
N1 N 0.27520 0.50770 0.59590
O3 O 0.18060 0.52090 0.53190
O4 O 0.31140 0.64750 0.65900
H1 H 0.09000 -0.13800 0.27300
H2 H -0.07100 -0.17000 0.12900
H3 H -0.08100 -0.51000 0.03600
H4 H 0.06700 -0.81900 0.09000
H5 H 0.22700 -0.78200 0.23300
H6 H 0.21600 -0.12100 0.39600
H7 H 0.44500 -0.31500 0.50300
H8 H 0.56700 -0.02800 0.65500
H9 H 0.50800 0.36700 0.71500
#END
