
#######################################################################
#
#                 Cambridge Crystallographic Data Centre
#                                CCDC
#
#######################################################################
#
# If this CIF has been generated from an entry in the Cambridge
# Structural Database, then it will include bibliographic, chemical,
# crystal, experimental, refinement or atomic coordinate data resulting
# from the CCDC's data processing and validation procedures.
#
#######################################################################

data_CSD_CIF_PNOIZD
_audit_creation_date 1981-09-30
_audit_creation_method CSD-ConQuest-V1
_database_code_CSD PNOIZD
_chemical_formula_sum 'C14 H10 N2 O2'
_chemical_formula_moiety
;
C14 H10 N2 O2
;
_journal_coden_Cambridge 82
_journal_volume 21
_journal_year 1980
_journal_page_first 69-6
_journal_name_full 'Zh.Strukt.Khim.(Russ.)(J.Struct.Chem.) '
loop_
_publ_author_name
"V.A.Tafeenko"
"L.A.Aslanov"
_chemical_name_systematic
;
3-Phenyl-7-nitro-indole
;
_cell_volume   2224.012
_diffrn_ambient_temperature ?
_diffrn_special_details
;
The study was carried out at room temperature,in the range 283-303K

;
#These two values have been output from a single CSD field.
_refine_ls_R_factor_gt 0.064
_refine_ls_wR_factor_gt 0.064
_symmetry_cell_setting orthorhombic
_symmetry_space_group_name_H-M 'P b c a'
_symmetry_Int_Tables_number 61
loop_
_symmetry_equiv_pos_site_id
_symmetry_equiv_pos_as_xyz
1 x,y,z
2 1/2-x,1/2+y,z
3 x,1/2-y,1/2+z
4 1/2-x,-y,1/2+z
5 -x,-y,-z
6 -1/2+x,-1/2-y,-z
7 -x,-1/2+y,-1/2-z
8 -1/2+x,y,-1/2-z
_cell_length_a 8.648(3)
_cell_length_b 25.362(6)
_cell_length_c 10.140(3)
_cell_angle_alpha 90
_cell_angle_beta 90
_cell_angle_gamma 90
_cell_formula_units_Z 8
loop_
_atom_type_symbol
_atom_type_radius_bond
C 0.68
H 0.23
N 0.68
O 0.68
loop_
_atom_site_label
_atom_site_type_symbol
_atom_site_fract_x
_atom_site_fract_y
_atom_site_fract_z
O1 O 0.71850 -0.00080 0.18210
O2 O 0.67320 0.01900 -0.02190
N1 N 0.58390 0.05530 0.38510
N2 N 0.65600 0.02660 0.09680
C1 C 0.52220 0.08010 0.49370
C2 C 0.42870 0.12100 0.45540
C3 C 0.36400 0.15210 0.21490
C4 C 0.39270 0.14190 0.08340
C5 C 0.48870 0.10060 0.04480
C6 C 0.55810 0.06950 0.13940
C7 C 0.53330 0.07950 0.27360
C8 C 0.43430 0.12170 0.31230
C9 C 0.33470 0.15420 0.54290
C10 C 0.28720 0.13540 0.66650
C11 C 0.19050 0.16540 0.74550
C12 C 0.13680 0.21400 0.70430
C13 C 0.18460 0.23320 0.58500
C14 C 0.28420 0.20430 0.50520
H1 H 0.64700 0.03100 0.38800
H2 H 0.55200 0.06700 0.58500
H3 H 0.29700 0.18100 0.23900
H4 H 0.35300 0.16500 0.01400
H5 H 0.51000 0.09500 -0.04300
H6 H 0.31400 0.10100 0.68900
H7 H 0.15400 0.15300 0.82300
H8 H 0.06300 0.23300 0.76100
H9 H 0.14700 0.26700 0.55300
H10 H 0.31600 0.22100 0.42400
#END
