
#######################################################################
#
#                 Cambridge Crystallographic Data Centre
#                                CCDC
#
#######################################################################
#
# If this CIF has been generated from an entry in the Cambridge
# Structural Database, then it will include bibliographic, chemical,
# crystal, experimental, refinement or atomic coordinate data resulting
# from the CCDC's data processing and validation procedures.
#
#######################################################################

data_CSD_CIF_POBGUJ
_audit_creation_date 2008-10-16
_audit_creation_method CSD-ConQuest-V1
_database_code_CSD POBGUJ
_database_code_depnum_ccdc_archive 'CCDC 669285'
_chemical_formula_sum 'C16 H15 N5 O5'
_chemical_formula_moiety
;
C16 H15 N5 O5
;
_journal_coden_Cambridge 179
_journal_volume 47
_journal_year 2008
_journal_page_first 4009
_journal_name_full 'Angew.Chem.,Int.Ed. '
loop_
_publ_author_name
"Chan Hyuk Kim"
"Ki Po Jang"
"Soo Young Choi"
"Young Keun Chung"
"Eun Lee"
_chemical_name_systematic
;
6-(2-(2,4-dinitrophenyl)hydrazinyliden)-2-methylhexahydro-5H-2,5-methanocyclop
enta[b]furan-5-carbonitrile
;
_cell_volume   1632.627
_exptl_crystal_colour 'dark yellow'
_exptl_crystal_density_diffrn 1.454
_exptl_crystal_description 'plate'
_diffrn_ambient_temperature 293
#These two values have been output from a single CSD field.
_refine_ls_R_factor_gt 0.0379
_refine_ls_wR_factor_gt 0.0379
_symmetry_cell_setting monoclinic
_symmetry_space_group_name_H-M 'C c'
_symmetry_Int_Tables_number 9
loop_
_symmetry_equiv_pos_site_id
_symmetry_equiv_pos_as_xyz
1 x,y,z
2 x,-y,1/2+z
3 1/2+x,1/2+y,z
4 1/2+x,1/2-y,1/2+z
_cell_length_a 9.3975(5)
_cell_length_b 8.1874(4)
_cell_length_c 21.3155(10)
_cell_angle_alpha 90
_cell_angle_beta 95.449(3)
_cell_angle_gamma 90
_cell_formula_units_Z 4
loop_
_atom_type_symbol
_atom_type_radius_bond
C 0.68
H 0.23
N 0.68
O 0.68
loop_
_atom_site_label
_atom_site_type_symbol
_atom_site_fract_x
_atom_site_fract_y
_atom_site_fract_z
N1 N 0.2290(2) 0.2041(2) -0.17096(9)
N2 N 0.4356(2) 0.6749(3) -0.26438(10)
N3 N 0.05246(17) 0.4239(2) -0.10325(8)
N4 N -0.01672(17) 0.5314(2) -0.06628(8)
N5 N -0.1736(2) 0.8763(2) -0.00682(12)
O1 O 0.14403(18) 0.13846(18) -0.13760(8)
O2 O 0.3101(2) 0.1233(2) -0.19998(11)
O3 O 0.4947(3) 0.5821(3) -0.29743(15)
O4 O 0.4555(2) 0.8207(2) -0.26479(9)
O5 O 0.00386(15) 0.28219(17) 0.05151(7)
C1 C 0.1463(2) 0.4835(2) -0.14159(9)
C2 C 0.2332(2) 0.3798(2) -0.17547(10)
C3 C 0.3269(2) 0.4432(3) -0.21577(10)
H1 H 0.38200 0.37390 -0.23820
C4 C 0.3372(2) 0.6091(3) -0.22218(10)
C5 C 0.2562(2) 0.7150(3) -0.18892(10)
H2 H 0.26560 0.82740 -0.19340
C6 C 0.1629(2) 0.6533(2) -0.14978(9)
H3 H 0.10880 0.72500 -0.12790
C7 C -0.0855(2) 0.4672(2) -0.02429(9)
C8 C -0.1036(2) 0.2935(2) -0.00141(9)
H4 H -0.09530 0.20990 -0.03380
C9 C -0.2511(2) 0.2950(2) 0.02668(11)
H5 H -0.31760 0.21170 0.00840
C10 C -0.2063(2) 0.2692(3) 0.09695(12)
H6 H -0.27320 0.31910 0.12310
H7 H -0.19580 0.15420 0.10740
C11 C -0.0629(2) 0.3572(3) 0.10272(10)
C12 C -0.0843(2) 0.5408(2) 0.08801(10)
H8 H 0.00810 0.59450 0.09010
H9 H -0.13890 0.59020 0.11950
C13 C -0.1644(2) 0.5669(2) 0.02123(9)
C14 C -0.3069(2) 0.4710(3) 0.01635(11)
H10 H -0.36680 0.50380 0.04880
H11 H -0.35950 0.48400 -0.02470
C15 C 0.0346(3) 0.3297(4) 0.16250(12)
H12 H 0.04910 0.21470 0.16900
H13 H -0.00850 0.37530 0.19770
H14 H 0.12490 0.38190 0.15880
C16 C -0.1726(2) 0.7402(3) 0.00521(11)
H15 H 0.049(3) 0.313(3) -0.0930(13)
#END
