
#######################################################################
#
#                 Cambridge Crystallographic Data Centre
#                                CCDC
#
#######################################################################
#
# If this CIF has been generated from an entry in the Cambridge
# Structural Database, then it will include bibliographic, chemical,
# crystal, experimental, refinement or atomic coordinate data resulting
# from the CCDC's data processing and validation procedures.
#
#######################################################################

data_CSD_CIF_POBKEY
_audit_creation_date 2014-05-22
_audit_creation_method CSD-ConQuest-V1
_database_code_CSD POBKEY
_database_code_depnum_ccdc_archive 'CCDC 953447'
_chemical_formula_sum 'C14 H27 N2 O3'
_chemical_formula_moiety
;
C14 H27 N2 O3
;
_journal_coden_Cambridge 177
_journal_volume 12
_journal_year 2014
_journal_page_first 4491
_journal_name_full 'Org.Biomol.Chem. '
loop_
_publ_author_name
"M.Kavala"
"V.Brezova"
"L.Svorc"
"Z.Vihonska"
"P.Olejnikova"
"Jan Moncol"
"J.Kozisek"
"P.Herich"
"P.Szolcsanyi"
_chemical_name_systematic
;
t-butyl (1-oxy-2,2,6,6-tetramethylpiperidin-4-yl)carbamate
;
_cell_volume   1625.287
_exptl_crystal_colour 'orange'
_exptl_crystal_density_diffrn 1.109
_exptl_crystal_description 'rod'
_diffrn_ambient_temperature 293
#These two values have been output from a single CSD field.
_refine_ls_R_factor_gt 0.058
_refine_ls_wR_factor_gt 0.058
_symmetry_cell_setting orthorhombic
_symmetry_space_group_name_H-M 'P n m a'
_symmetry_Int_Tables_number 62
loop_
_symmetry_equiv_pos_site_id
_symmetry_equiv_pos_as_xyz
1 x,y,z
2 1/2-x,-y,1/2+z
3 1/2+x,1/2-y,1/2-z
4 -x,1/2+y,-z
5 -x,-y,-z
6 -1/2+x,y,-1/2-z
7 -1/2-x,-1/2+y,-1/2+z
8 x,-1/2-y,z
_cell_length_a 11.94158(18)
_cell_length_b 12.0243(2)
_cell_length_c 11.31901(19)
_cell_angle_alpha 90
_cell_angle_beta 90
_cell_angle_gamma 90
_cell_formula_units_Z 4
loop_
_atom_type_symbol
_atom_type_radius_bond
C 0.68
H 0.23
N 0.68
O 0.68
loop_
_atom_site_label
_atom_site_type_symbol
_atom_site_fract_x
_atom_site_fract_y
_atom_site_fract_z
C1 C 0.63576(13) 0.36048(14) 0.64181(16)
C2 C 0.50857(14) 0.35191(17) 0.6281(2)
H1 H 0.473(2) 0.3486(18) 0.704(2)
H2 H 0.4851(19) 0.4227(19) 0.595(2)
C3 C 0.46938(18) 0.25000 0.5604(2)
H3 H 0.499(3) 0.25000 0.477(3)
C4 C 0.69246(18) 0.4001(2) 0.5283(2)
H4 H 0.77190 0.40420 0.54050
H5 H 0.66440 0.47230 0.50750
H6 H 0.67670 0.34860 0.46560
C5 C 0.66388(19) 0.43909(17) 0.7442(3)
H7 H 0.74370 0.44430 0.75270
H8 H 0.63190 0.41070 0.81590
H9 H 0.63360 0.51150 0.72810
C6 C 0.28909(18) 0.25000 0.4530(2)
C7 C 0.09154(18) 0.25000 0.3903(2)
C8 C 0.0994(2) 0.1484(2) 0.3152(3)
H10 H 0.16780 0.15030 0.27070
H11 H 0.03690 0.14610 0.26190
H12 H 0.09850 0.08350 0.36460
C9 C -0.0141(3) 0.25000 0.4606(4)
H13 H -0.017(4) 0.190(2) 0.516(3)
H14 H -0.081(3) 0.25000 0.414(4)
N1 N 0.68198(13) 0.25000 0.67296(15)
N2 N 0.34742(17) 0.25000 0.5528(2)
H15 H 0.31050 0.25000 0.61810
O1 O 0.78597(12) 0.25000 0.70222(16)
O2 O 0.17919(13) 0.25000 0.48000(15)
O3 O 0.32844(14) 0.25000 0.35638(16)
C1G C 0.63576(13) 0.13952(14) 0.64181(16)
C2G C 0.50857(14) 0.14809(17) 0.6281(2)
H1G H 0.473(2) 0.1514(18) 0.704(2)
H2G H 0.4851(19) 0.0773(19) 0.595(2)
C4G C 0.69246(18) 0.0999(2) 0.5283(2)
H4G H 0.77190 0.09580 0.54050
H5G H 0.66440 0.02770 0.50750
H6G H 0.67670 0.15140 0.46560
C5G C 0.66388(19) 0.06091(17) 0.7442(3)
H7G H 0.74370 0.05570 0.75270
H8G H 0.63190 0.08930 0.81590
H9G H 0.63360 -0.01150 0.72810
C8G C 0.0994(2) 0.3516(2) 0.3152(3)
H10G H 0.16780 0.34970 0.27070
H11G H 0.03690 0.35390 0.26190
H12G H 0.09850 0.41650 0.36460
H13G H -0.017(4) 0.310(2) 0.516(3)
#END
