
#######################################################################
#
#                 Cambridge Crystallographic Data Centre
#                                CCDC
#
#######################################################################
#
# If this CIF has been generated from an entry in the Cambridge
# Structural Database, then it will include bibliographic, chemical,
# crystal, experimental, refinement or atomic coordinate data resulting
# from the CCDC's data processing and validation procedures.
#
#######################################################################

data_CSD_CIF_POBRUU
_audit_creation_date 2008-10-16
_audit_creation_method CSD-ConQuest-V1
_database_code_CSD POBRUU
_database_code_depnum_ccdc_archive 'CCDC 628362'
_chemical_formula_sum 'C20 H22 N2 O7'
_chemical_formula_moiety
;
C20 H22 N2 O7
;
_journal_coden_Cambridge 16
_journal_volume 64
_journal_year 2008
_journal_page_first 5221
_journal_name_full 'Tetrahedron '
loop_
_publ_author_name
"I.Yavari"
"A.Mokhtarporyani-Sanandaj"
"L.Moradi"
"A.Mirzaei"
_chemical_name_systematic
;
dimethyl 2-(cyclohexylamino)-5-(4-nitrophenyl)-3,4-furandicarboxylate
;
_chemical_melting_point 449.15
_cell_volume    945.096
_exptl_crystal_colour 'orange'
_exptl_crystal_density_diffrn 1.414
_exptl_special_details
;
Melting point range 449.15-451.15K

;
_exptl_crystal_description 'plate'
_diffrn_ambient_temperature 100
#These two values have been output from a single CSD field.
_refine_ls_R_factor_gt 0.0412
_refine_ls_wR_factor_gt 0.0412
_symmetry_cell_setting triclinic
_symmetry_space_group_name_H-M 'P -1'
_symmetry_Int_Tables_number 2
loop_
_symmetry_equiv_pos_site_id
_symmetry_equiv_pos_as_xyz
1 x,y,z
2 -x,-y,-z
_cell_length_a 6.8628(5)
_cell_length_b 11.5872(9)
_cell_length_c 12.6526(9)
_cell_angle_alpha 75.449(1)
_cell_angle_beta 80.457(1)
_cell_angle_gamma 77.799(2)
_cell_formula_units_Z 2
loop_
_atom_type_symbol
_atom_type_radius_bond
C 0.68
H 0.23
N 0.68
O 0.68
loop_
_atom_site_label
_atom_site_type_symbol
_atom_site_fract_x
_atom_site_fract_y
_atom_site_fract_z
N1 N 0.31072(17) 0.70666(11) -0.43588(9)
N2 N 0.12115(17) 0.53981(10) 0.27563(9)
H1 H 0.127(2) 0.4903(15) 0.3401(14)
O1 O 0.36991(17) 0.64395(10) -0.50384(8)
O2 O 0.26437(17) 0.81773(10) -0.46057(8)
O3 O 0.18039(13) 0.55212(8) 0.08908(7)
O4 O 0.27816(15) 0.19479(9) -0.00135(9)
O5 O 0.56506(13) 0.20431(8) 0.05710(8)
O6 O 0.22499(15) 0.29066(8) 0.38323(7)
O7 O 0.30959(14) 0.15750(8) 0.27295(7)
C1 C 0.29437(19) 0.64596(12) -0.31914(10)
C2 C 0.37445(19) 0.52392(12) -0.28945(10)
H2 H 0.43740 0.48100 -0.34250
C3 C 0.35869(19) 0.46720(11) -0.17907(10)
H3 H 0.41210 0.38530 -0.15770
C4 C 0.26282(18) 0.53177(11) -0.09868(10)
C5 C 0.18301(18) 0.65492(11) -0.13244(10)
H4 H 0.11800 0.69840 -0.08020
C6 C 0.19973(19) 0.71262(12) -0.24256(10)
H5 H 0.14830 0.79470 -0.26470
C7 C 0.25012(18) 0.47341(11) 0.01728(10)
C8 C 0.29780(18) 0.35883(11) 0.07783(10)
C9 C 0.25983(18) 0.36370(11) 0.19174(10)
C10 C 0.18554(18) 0.48441(11) 0.19271(10)
C11 C 0.01406(19) 0.66503(11) 0.26265(10)
H6 H -0.07000 0.68190 0.20310
C12 C 0.1573(2) 0.75605(12) 0.23269(11)
H7 H 0.24240 0.74680 0.16500
H8 H 0.24270 0.74090 0.29040
C13 C 0.0367(2) 0.88523(13) 0.21822(12)
H9 H 0.12840 0.94230 0.20300
H10 H -0.03840 0.90260 0.15580
C14 C -0.1081(2) 0.90164(13) 0.32086(12)
H11 H -0.18920 0.98210 0.30710
H12 H -0.03230 0.89450 0.38110
C15 C -0.2452(2) 0.80733(12) 0.35330(11)
H13 H -0.32900 0.81630 0.42150
H14 H -0.33240 0.82050 0.29680
C16 C -0.1224(2) 0.67958(12) 0.36791(10)
H15 H -0.04210 0.66420 0.42790
H16 H -0.21200 0.62100 0.38630
C17 C 0.37386(19) 0.24454(11) 0.03888(10)
C18 C 0.6521(2) 0.08467(12) 0.04043(13)
H17 H 0.78900 0.06500 0.05610
H18 H 0.64810 0.08260 -0.03450
H19 H 0.57730 0.02680 0.08860
C19 C 0.26373(18) 0.27003(11) 0.29128(10)
C20 C 0.3104(2) 0.06106(12) 0.37074(11)
H20 H 0.34460 -0.01570 0.35020
H21 H 0.17960 0.06780 0.41220
H22 H 0.40750 0.06700 0.41480
#END
