
#######################################################################
#
#                 Cambridge Crystallographic Data Centre
#                                CCDC
#
#######################################################################
#
# If this CIF has been generated from an entry in the Cambridge
# Structural Database, then it will include bibliographic, chemical,
# crystal, experimental, refinement or atomic coordinate data resulting
# from the CCDC's data processing and validation procedures.
#
#######################################################################

data_CSD_CIF_POBTEF10
_audit_creation_date 1995-10-10
_audit_creation_method CSD-ConQuest-V1
_database_code_CSD POBTEF10
_chemical_formula_sum 'C24 H23 N1 O7'
_chemical_formula_moiety
;
C24 H23 N1 O7
;
_journal_coden_Cambridge 35
_journal_volume 59
_journal_year 1994
_journal_page_first 5078
_journal_name_full 'J.Org.Chem. '
loop_
_publ_author_name
"D.L.Boger"
"R.A.Lerner"
"B.F.Cravatt"
_chemical_name_systematic
;
(1R*,2S*,4R*,5S*,6S*)-6-Benzoyl-6-nitro-5-phenylbicyclo(2.2.1)-heptan-2-yl 
hemisuccinate
;
_chemical_melting_point 445.15
_cell_volume   4305.486
_exptl_crystal_colour 'colorless'
_exptl_crystal_density_diffrn 1.35
_exptl_special_details
;
Melting point range 445.15-446.15K

;
_diffrn_ambient_temperature ?
_diffrn_special_details
;
The study was carried out at room temperature,in the range 283-303K

;
#These two values have been output from a single CSD field.
_refine_ls_R_factor_gt 0.0407
_refine_ls_wR_factor_gt 0.0407
_symmetry_cell_setting monoclinic
_symmetry_space_group_name_H-M 'C 2/c'
_symmetry_Int_Tables_number 15
loop_
_symmetry_equiv_pos_site_id
_symmetry_equiv_pos_as_xyz
1 x,y,z
2 -x,y,1/2-z
3 1/2+x,1/2+y,z
4 1/2-x,1/2+y,1/2-z
5 -x,-y,-z
6 x,-y,-1/2+z
7 -1/2-x,-1/2-y,-z
8 -1/2+x,-1/2-y,-1/2+z
_cell_length_a 13.934
_cell_length_b 15.528
_cell_length_c 20.101
_cell_angle_alpha 90
_cell_angle_beta 98.13
_cell_angle_gamma 90
_cell_formula_units_Z 8
loop_
_atom_type_symbol
_atom_type_radius_bond
C 0.68
H 0.23
N 0.68
O 0.68
loop_
_atom_site_label
_atom_site_type_symbol
_atom_site_fract_x
_atom_site_fract_y
_atom_site_fract_z
O1 O 0.3438(2) 0.0887(2) 0.4278(1)
O2 O 0.3461(2) 0.0789(2) 0.3212(1)
O3 O 0.1305(2) 0.0048(2) 0.2494(1)
O4 O 0.1422(2) 0.2972(1) 0.3382(1)
O5 O 0.2322(2) 0.3816(2) 0.4129(1)
O6 O 0.0812(2) 0.5762(1) 0.4697(1)
O7 O 0.0190(2) 0.4510(1) 0.4310(1)
N1 N 0.3041(2) 0.0765(2) 0.3707(1)
C1 C 0.1946(2) 0.0612(2) 0.3562(1)
C2 C 0.1461(2) 0.0447(2) 0.4215(1)
C3 C 0.0748(2) 0.1211(2) 0.4185(1)
C4 C 0.1336(2) 0.2038(2) 0.4370(2)
C5 C 0.1820(2) 0.2211(2) 0.3744(1)
C6 C 0.1481(2) 0.1466(2) 0.3277(1)
C7 C 0.0445(2) 0.1347(2) 0.3424(1)
C8 C 0.1800(2) -0.0111(2) 0.3020(2)
C9 C 0.2204(2) -0.0993(2) 0.3153(1)
C10 C 0.3075(2) -0.1179(2) 0.3556(2)
C11 C 0.3387(3) -0.2021(2) 0.3642(2)
C12 C 0.2846(3) -0.2680(2) 0.3340(2)
C13 C 0.1982(3) -0.2510(2) 0.2938(2)
C14 C 0.1666(3) -0.1671(2) 0.2839(2)
C15 C 0.1016(2) -0.0442(2) 0.4267(1)
C16 C 0.1556(2) -0.1085(2) 0.4631(2)
C17 C 0.1192(3) -0.1910(2) 0.4663(2)
C18 C 0.0280(3) -0.2109(2) 0.4350(2)
C19 C -0.0273(3) -0.1476(2) 0.4011(2)
C20 C 0.0088(2) -0.0651(2) 0.3970(2)
C21 C 0.1723(2) 0.3734(2) 0.3642(2)
C22 C 0.1220(3) 0.4460(2) 0.3239(2)
C23 C 0.1216(3) 0.5268(2) 0.3662(2)
C24 C 0.0697(2) 0.5140(2) 0.4251(2)
H1 H 0.03890 0.55690 0.51480
H2 H 0.19160 0.04310 0.46210
H3 H 0.02480 0.11090 0.44580
H4 H 0.18120 0.19490 0.47580
H5 H 0.09180 0.25050 0.44530
H6 H 0.25060 0.22780 0.38690
H7 H 0.16020 0.15740 0.28260
H8 H 0.00470 0.18480 0.33220
H9 H 0.01280 0.08540 0.32030
H10 H 0.34600 -0.07200 0.37740
H11 H 0.39920 -0.21430 0.39180
H12 H 0.30660 -0.32630 0.34060
H13 H 0.15990 -0.29750 0.27270
H14 H 0.10700 -0.15540 0.25510
H15 H 0.21900 -0.09530 0.48620
H16 H 0.15810 -0.23470 0.49080
H17 H 0.00320 -0.26850 0.43690
H18 H -0.09190 -0.16050 0.38010
H19 H -0.03110 -0.02160 0.37300
H20 H 0.15530 0.45760 0.28620
H21 H 0.05640 0.42940 0.30810
H22 H 0.09020 0.57210 0.33880
H23 H 0.18740 0.54300 0.38190
#END
