
#######################################################################
#
#                 Cambridge Crystallographic Data Centre
#                                CCDC
#
#######################################################################
#
# If this CIF has been generated from an entry in the Cambridge
# Structural Database, then it will include bibliographic, chemical,
# crystal, experimental, refinement or atomic coordinate data resulting
# from the CCDC's data processing and validation procedures.
#
#######################################################################

data_CSD_CIF_POBYIO
_audit_creation_date 1995-01-30
_audit_creation_method CSD-ConQuest-V1
_database_code_CSD POBYIO
_chemical_formula_sum 'C19 H22 N4 O7'
_chemical_formula_moiety
;
C19 H22 N4 O7
;
_journal_coden_Cambridge 579
_journal_volume 13
_journal_year 1994
_journal_page_first 1788
_journal_name_full 'Organometallics '
loop_
_publ_author_name
"Ming-Chang P.Yeh"
"Chong-Chen Hwu"
"Chuen-Her Ueng"
"Huei-Lin Lue"
_chemical_name_systematic
;
(1R*,2S*,4S*,6R*,7R*,8R*)-6-Carbethoxy-2-hydroxytricyclo(5.2.1.0^4,8^)decan-9-
one-2,4-dinitrophenylhydrazone
;
_chemical_melting_point 446.15
_cell_volume   1948.461
_exptl_crystal_colour 'yellow'
_exptl_crystal_density_diffrn 1.426
_exptl_special_details
;
Melting point range 446.15-448.15K

;
_diffrn_ambient_temperature ?
_diffrn_special_details
;
The study was carried out at room temperature,in the range 283-303K

;
#These two values have been output from a single CSD field.
_refine_ls_R_factor_gt 0.06
_refine_ls_wR_factor_gt 0.06
_symmetry_cell_setting monoclinic
_symmetry_space_group_name_H-M 'P 21/c'
_symmetry_Int_Tables_number 14
loop_
_symmetry_equiv_pos_site_id
_symmetry_equiv_pos_as_xyz
1 x,y,z
2 -x,1/2+y,1/2-z
3 -x,-y,-z
4 x,-1/2-y,-1/2+z
_cell_length_a 12.3872(14)
_cell_length_b 12.269(5)
_cell_length_c 13.8479(19)
_cell_angle_alpha 90
_cell_angle_beta 112.208(12)
_cell_angle_gamma 90
_cell_formula_units_Z 4
loop_
_atom_type_symbol
_atom_type_radius_bond
C 0.68
H 0.23
N 0.68
O 0.68
loop_
_atom_site_label
_atom_site_type_symbol
_atom_site_fract_x
_atom_site_fract_y
_atom_site_fract_z
O1 O 0.53254 0.77179 0.05120
O2 O 0.33497 0.45881 0.38154
O3 O 0.20461 0.58136 0.37584
O4 O 0.98062 0.70435 0.08124
O5 O 0.80658 0.72141 0.07948
O6 O 1.09800 0.22312 0.17619
O7 O 1.17511 0.36622 0.13652
N1 N 0.63027 0.51375 0.18221
N2 N 0.71282 0.56355 0.15128
N3 N 0.89434 0.66666 0.09323
N4 N 1.09695 0.32058 0.15488
C1 C 0.56621 0.57820 0.20823
C2 C 0.46514 0.54679 0.23478
C3 C 0.48010 0.61281 0.33201
C4 C 0.54741 0.71572 0.32318
C5 C 0.57291 0.70521 0.22471
C6 C 0.48236 0.74857 0.12595
C7 C 0.38346 0.66618 0.07272
C8 C 0.35266 0.59469 0.14791
C9 C 0.29002 0.65800 0.20846
C10 C 0.35671 0.63982 0.32406
C11 C 0.29941 0.54822 0.36234
C12 C 0.14383 0.50583 0.41911
C13 C 0.17308 0.52575 0.52694
C14 C 0.80637 0.50784 0.15177
C15 C 0.89622 0.55245 0.12334
C16 C 0.99007 0.49144 0.12440
C17 C 0.99683 0.38408 0.15327
C18 C 0.91246 0.33730 0.18343
C19 C 0.82026 0.39742 0.18330
H1 H 0.45699 0.45977 0.24638
H2 H 0.52858 0.56781 0.40438
H3 H 0.62878 0.72453 0.39216
H4 H 0.49478 0.78820 0.31999
H5 H 0.66086 0.73698 0.23609
H6 H 0.44304 0.82361 0.14366
H7 H 0.40855 0.61517 0.02156
H8 H 0.30425 0.71221 0.02327
H9 H 0.29346 0.52937 0.10365
H10 H 0.20027 0.63276 0.18598
H11 H 0.28837 0.74663 0.18899
H12 H 0.35753 0.71777 0.36700
H13 H 0.16065 0.42004 0.40781
H14 H 0.04579 0.51463 0.38112
H15 H 1.06022 0.52736 0.10267
H16 H 0.92087 0.25035 0.20806
H17 H 0.75648 0.35965 0.21065
H18 H 0.26707 0.51513 0.56839
H19 H 0.12910 0.47089 0.56515
H20 H 0.15130 0.60974 0.54532
H21 H 0.70896 0.64703 0.14022
H22 H 0.61195 0.83388 0.09375
#END
