
#######################################################################
#
#                 Cambridge Crystallographic Data Centre
#                                CCDC
#
#######################################################################
#
# If this CIF has been generated from an entry in the Cambridge
# Structural Database, then it will include bibliographic, chemical,
# crystal, experimental, refinement or atomic coordinate data resulting
# from the CCDC's data processing and validation procedures.
#
#######################################################################

data_CSD_CIF_POCVOU
_audit_creation_date 2014-05-22
_audit_creation_method CSD-ConQuest-V1
_database_code_CSD POCVOU
_database_code_depnum_ccdc_archive 'CCDC 1004773'
_database_code_depnum_ccdc_journal 1267/2709
_chemical_formula_sum 'C15 H26 N2 O5'
_chemical_formula_moiety
;
C15 H26 N2 O5
;
_journal_coden_Cambridge 1267
_journal_volume 224
_journal_year 2009
_journal_page_first 587
_journal_name_full 'Z.Kristallogr.-New Cryst.Struct. '
loop_
_publ_author_name
"Wolfgang Frey"
"M.Ibrahim"
"V.Jager"
_chemical_name_systematic
;
(3R,1'S)-3-(1,4-dioxaspiro[4.5]dec-2-yl)-2,5,5-trimethyl-3-(nitromethyl)-1,2-o
xazolidine
;
_chemical_name_common
;
(3R,1'S)-3-(1',2'-O-cyclohexylidenedioxyethyl)-2,5,5-trimethyl-3-nitromethylte
trahydro-1,2-oxazole
;
_chemical_melting_point 320
_cell_volume   1696.881
_exptl_crystal_colour 'colorless'
_exptl_crystal_density_diffrn 1.231
_exptl_special_details
;
Melting point range 320-322K

;
_exptl_crystal_description 'block'
_exptl_crystal_preparation 'petroleum ether'
_diffrn_ambient_temperature 293
#These two values have been output from a single CSD field.
_refine_ls_R_factor_gt 0.0688
_refine_ls_wR_factor_gt 0.0688
_symmetry_cell_setting orthorhombic
_symmetry_space_group_name_H-M 'P 21 21 21'
_symmetry_Int_Tables_number 19
loop_
_symmetry_equiv_pos_site_id
_symmetry_equiv_pos_as_xyz
1 x,y,z
2 1/2-x,-y,1/2+z
3 -x,1/2+y,1/2-z
4 1/2+x,1/2-y,-z
_cell_length_a 8.0695(18)
_cell_length_b 9.942(3)
_cell_length_c 21.151(4)
_cell_angle_alpha 90
_cell_angle_beta 90
_cell_angle_gamma 90
_cell_formula_units_Z 4
loop_
_atom_type_symbol
_atom_type_radius_bond
C 0.68
H 0.23
N 0.68
O 0.68
loop_
_atom_site_label
_atom_site_type_symbol
_atom_site_fract_x
_atom_site_fract_y
_atom_site_fract_z
O1 O -0.2134(3) 0.81993(19) 0.91747(9)
N1 N -0.0676(3) 0.7343(2) 0.92327(10)
C1 C -0.2021(4) 0.8733(3) 0.85434(13)
O2 O 0.1188(2) 0.48120(18) 0.89831(9)
C2 C -0.1231(4) 0.7575(3) 0.81655(12)
H1 H -0.02430 0.78800 0.79470
H2 H -0.20060 0.72210 0.78570
N2 N -0.2296(3) 0.4515(3) 0.81713(18)
C3 C -0.0792(3) 0.6495(3) 0.86625(11)
O3 O 0.3639(2) 0.5834(2) 0.87878(12)
O4 O -0.2865(6) 0.4957(4) 0.77005(15)
C4 C -0.0850(5) 0.6721(3) 0.98567(12)
H3 H -0.07560 0.74000 1.01780
H4 H 0.00070 0.60630 0.99140
H5 H -0.19130 0.62940 0.98870
C5 C -0.3783(5) 0.9046(5) 0.83504(17)
H6 H -0.44270 0.82340 0.83540
H7 H -0.37880 0.94220 0.79320
H8 H -0.42530 0.96800 0.86420
O5 O -0.1891(5) 0.3365(3) 0.8232(2)
C6 C -0.0935(6) 0.9970(3) 0.85487(17)
H9 H 0.01680 0.97250 0.86740
H10 H -0.13740 1.06140 0.88420
H11 H -0.09080 1.03570 0.81330
C7 C -0.2168(3) 0.5429(3) 0.87341(13)
H12 H -0.19490 0.48930 0.91080
H13 H -0.32220 0.58810 0.87950
C8 C 0.0850(3) 0.5816(3) 0.85152(12)
H14 H 0.07710 0.53800 0.81010
C9 C 0.2412(3) 0.6676(3) 0.85319(16)
H15 H 0.27160 0.69660 0.81100
H16 H 0.22500 0.74630 0.87950
C10 C 0.2929(3) 0.4576(3) 0.89721(14)
C11 C 0.3510(4) 0.4208(3) 0.96220(15)
H17 H 0.31560 0.48900 0.99210
H18 H 0.47110 0.41730 0.96280
C12 C 0.2809(5) 0.2845(3) 0.98192(16)
H19 H 0.32590 0.26010 1.02290
H20 H 0.16160 0.29170 0.98620
C13 C 0.3213(5) 0.1754(3) 0.93485(17)
H21 H 0.26740 0.09250 0.94750
H22 H 0.44000 0.15990 0.93450
C14 C 0.2643(5) 0.2142(3) 0.86910(17)
H23 H 0.14420 0.21820 0.86820
H24 H 0.29950 0.14600 0.83920
C15 C 0.3350(4) 0.3502(3) 0.84950(14)
H25 H 0.45440 0.34320 0.84560
H26 H 0.29050 0.37530 0.80860
#END
