
#######################################################################
#
#                 Cambridge Crystallographic Data Centre
#                                CCDC
#
#######################################################################
#
# If this CIF has been generated from an entry in the Cambridge
# Structural Database, then it will include bibliographic, chemical,
# crystal, experimental, refinement or atomic coordinate data resulting
# from the CCDC's data processing and validation procedures.
#
#######################################################################

data_CSD_CIF_POFSAF
_audit_creation_date 2008-10-16
_audit_creation_method CSD-ConQuest-V1
_database_code_CSD POFSAF
_database_code_depnum_ccdc_archive 'CCDC 702590'
_chemical_formula_sum 'C8 H10 N4 O2'
_chemical_formula_moiety
;
C8 H10 N4 O2
;
_journal_coeditor_code "IUCr AT2614"
_journal_coden_Cambridge 1370
_journal_volume 64
_journal_year 2008
_journal_page_first o1862
_journal_name_full 'Acta Crystallogr.,Sect.E:Struct.Rep.Online '
loop_
_publ_author_name
"Ju Na Chen"
"Lin Yan Yang"
_chemical_name_systematic
;
(2E,3E)-3-(Pyrazin-2-yloxyimino)butan-2-one oxime
;
_cell_volume   1958.081
_exptl_crystal_colour 'colorless'
_exptl_crystal_density_diffrn 1.318
_exptl_crystal_description 'block'
_diffrn_ambient_temperature 293
#These two values have been output from a single CSD field.
_refine_ls_R_factor_gt 0.0518
_refine_ls_wR_factor_gt 0.0518
_symmetry_cell_setting monoclinic
_symmetry_space_group_name_H-M 'C 2/c'
_symmetry_Int_Tables_number 15
loop_
_symmetry_equiv_pos_site_id
_symmetry_equiv_pos_as_xyz
1 x,y,z
2 1/2+x,1/2+y,z
3 -x,y,1/2-z
4 1/2-x,1/2+y,1/2-z
5 -x,-y,-z
6 -1/2-x,-1/2-y,-z
7 x,-y,-1/2+z
8 -1/2+x,-1/2-y,-1/2+z
_cell_length_a 18.174(4)
_cell_length_b 10.962(3)
_cell_length_c 13.271(3)
_cell_angle_alpha 90
_cell_angle_beta 132.217(3)
_cell_angle_gamma 90
_cell_formula_units_Z 8
loop_
_atom_type_symbol
_atom_type_radius_bond
C 0.68
H 0.23
N 0.68
O 0.68
loop_
_atom_site_label
_atom_site_type_symbol
_atom_site_fract_x
_atom_site_fract_y
_atom_site_fract_z
C1 C 0.12820(11) 0.43770(16) 0.26471(15)
C2 C 0.12053(12) 0.20436(15) 0.48282(18)
H1 H 0.12340 0.28710 0.50060
C3 C 0.12962(12) 0.56843(16) 0.29319(16)
C4 C 0.13696(16) 0.60601(15) 0.4082(2)
H2 H 0.19450 0.65660 0.47020
H3 H 0.14260 0.53470 0.45500
H4 H 0.07850 0.65080 0.37300
C5 C 0.12486(18) 0.39842(18) 0.1538(2)
H5 H 0.17070 0.33250 0.18570
H6 H 0.14280 0.46580 0.12780
H7 H 0.05890 0.37180 0.07660
C6 C 0.12287(11) 0.16599(15) 0.38501(16)
C7 C 0.11298(15) -0.02865(17) 0.4241(2)
H8 H 0.10960 -0.11130 0.40560
C8 C 0.11035(14) 0.00630(17) 0.5209(2)
H9 H 0.10580 -0.05300 0.56660
N1 N 0.12018(11) 0.05109(14) 0.35580(16)
N2 N 0.11418(11) 0.12313(13) 0.55072(16)
N3 N 0.12995(10) 0.36663(12) 0.34221(14)
N4 N 0.12369(11) 0.64309(14) 0.21366(14)
O1 O 0.12332(10) 0.76336(11) 0.24571(14)
H10 H 0.11300 0.80350 0.18630
O2 O 0.12790(9) 0.24281(11) 0.30873(12)
#END
