
#######################################################################
#
#                 Cambridge Crystallographic Data Centre
#                                CCDC
#
#######################################################################
#
# If this CIF has been generated from an entry in the Cambridge
# Structural Database, then it will include bibliographic, chemical,
# crystal, experimental, refinement or atomic coordinate data resulting
# from the CCDC's data processing and validation procedures.
#
#######################################################################

data_CSD_CIF_POGGOH
_audit_creation_date 1995-05-18
_audit_creation_method CSD-ConQuest-V1
_database_code_CSD POGGOH
_database_code_depnum_ccdc_archive 'CCDC 1236014'
_chemical_formula_sum 'C13 H13 N1 O3'
_chemical_formula_moiety
;
C13 H13 N1 O3
;
_journal_coden_Cambridge 423
_journal_volume 335
_journal_year 1994
_journal_page_first 1801
_journal_name_full 'J.Chem.Res. '
loop_
_publ_author_name
"G.Zvilichovsky"
"V.Gurich"
"S.Cohen"
_chemical_name_systematic
;
4-Phenyl-3,5-dioxo-isoxazolinium-2-spirocyclopentane enolate
;
_cell_volume   2338.432
_exptl_crystal_density_diffrn 1.31
_diffrn_ambient_temperature ?
_diffrn_special_details
;
The study was carried out at room temperature,in the range 283-303K

;
#These two values have been output from a single CSD field.
_refine_ls_R_factor_gt 0.063
_refine_ls_wR_factor_gt 0.063
_symmetry_cell_setting orthorhombic
_symmetry_space_group_name_H-M 'P b c a'
_symmetry_Int_Tables_number 61
loop_
_symmetry_equiv_pos_site_id
_symmetry_equiv_pos_as_xyz
1 x,y,z
2 1/2-x,-y,1/2+z
3 1/2+x,1/2-y,-z
4 -x,1/2+y,1/2-z
5 -x,-y,-z
6 -1/2+x,y,-1/2-z
7 -1/2-x,-1/2+y,z
8 x,-1/2-y,-1/2+z
_cell_length_a 17.589(3)
_cell_length_b 12.726(3)
_cell_length_c 10.447(2)
_cell_angle_alpha 90
_cell_angle_beta 90
_cell_angle_gamma 90
_cell_formula_units_Z 8
loop_
_atom_type_symbol
_atom_type_radius_bond
C 0.68
H 0.23
N 0.68
O 0.68
loop_
_atom_site_label
_atom_site_type_symbol
_atom_site_fract_x
_atom_site_fract_y
_atom_site_fract_z
O1 O 0.4920(2) 0.6302(2) 0.1478(3)
O2 O 0.4151(2) 0.6097(3) -0.0207(3)
O3 O 0.4277(2) 0.4639(3) 0.3913(3)
N1 N 0.4973(2) 0.5892(3) 0.2751(3)
C1 C 0.4269(3) 0.5828(3) 0.0880(5)
C2 C 0.3897(2) 0.5156(3) 0.1767(4)
C3 C 0.4306(2) 0.5113(3) 0.2901(4)
C4 C 0.4951(3) 0.6790(4) 0.3672(5)
C5 C 0.5742(3) 0.7206(4) 0.3692(6)
C6 C 0.6259(3) 0.6353(4) 0.3164(5)
C7 C 0.5747(3) 0.5423(4) 0.2917(4)
C8 C 0.3212(2) 0.4547(4) 0.1490(4)
C9 C 0.2910(3) 0.4469(4) 0.0265(4)
C10 C 0.2279(3) 0.3853(4) 0.0019(5)
C11 C 0.1930(3) 0.3314(4) 0.0993(5)
C12 C 0.2202(3) 0.3393(4) 0.2221(5)
C13 C 0.2838(3) 0.4002(3) 0.2468(4)
H1 H 0.31410 0.48470 -0.04160
H2 H 0.20870 0.38020 -0.08280
H3 H 0.15000 0.28860 0.08170
H4 H 0.19540 0.30320 0.28980
H5 H 0.30240 0.40510 0.33200
H6 H 0.46060 0.73140 0.33880
H7 H 0.48060 0.65540 0.45000
H8 H 0.57740 0.78170 0.31730
H9 H 0.58850 0.73740 0.45440
H10 H 0.64920 0.65790 0.23920
H11 H 0.66400 0.61760 0.37700
H12 H 0.57540 0.49530 0.36220
H13 H 0.58990 0.50620 0.21630
#END
