
#######################################################################
#
#                 Cambridge Crystallographic Data Centre
#                                CCDC
#
#######################################################################
#
# If this CIF has been generated from an entry in the Cambridge
# Structural Database, then it will include bibliographic, chemical,
# crystal, experimental, refinement or atomic coordinate data resulting
# from the CCDC's data processing and validation procedures.
#
#######################################################################

data_CSD_CIF_POHHUR
_audit_creation_date 2014-05-24
_audit_creation_method CSD-ConQuest-V1
_database_code_CSD POHHUR
_database_code_depnum_ccdc_archive 'CCDC 926979'
_chemical_formula_sum 'C17 H17 N1 O2'
_chemical_formula_moiety
;
C17 H17 N1 O2
;
_journal_coden_Cambridge 177
_journal_volume 12
_journal_year 2014
_journal_page_first 4567
_journal_name_full 'Org.Biomol.Chem. '
loop_
_publ_author_name
"Xu Zhu"
"Shunsuke Chiba"
_chemical_name_systematic
;
4,4-dimethyl-3,5-diphenyl-4,5-dihydro-1,2-oxazol-5-ol
;
_cell_volume   1408.174
_exptl_crystal_colour 'colorless'
_exptl_crystal_density_diffrn 1.261
_exptl_crystal_description 'block'
_diffrn_ambient_temperature 103
#These two values have been output from a single CSD field.
_refine_ls_R_factor_gt 0.0401
_refine_ls_wR_factor_gt 0.0401
_symmetry_cell_setting orthorhombic
_symmetry_space_group_name_H-M 'P 21 21 21'
_symmetry_Int_Tables_number 19
loop_
_symmetry_equiv_pos_site_id
_symmetry_equiv_pos_as_xyz
1 x,y,z
2 1/2-x,-y,1/2+z
3 -x,1/2+y,1/2-z
4 1/2+x,1/2-y,-z
_cell_length_a 8.6589(7)
_cell_length_b 10.1791(6)
_cell_length_c 15.9766(12)
_cell_angle_alpha 90
_cell_angle_beta 90
_cell_angle_gamma 90
_cell_formula_units_Z 4
loop_
_atom_type_symbol
_atom_type_radius_bond
C 0.68
H 0.23
N 0.68
O 0.68
loop_
_atom_site_label
_atom_site_type_symbol
_atom_site_fract_x
_atom_site_fract_y
_atom_site_fract_z
C1 C 0.84962(17) 0.12726(15) 0.07019(10)
C2 C 0.92688(17) 0.08389(14) 0.15344(9)
C3 C 0.9432(2) -0.06694(15) 0.15782(11)
H1 H 1.00000 -0.09110 0.20860
H2 H 0.99950 -0.09830 0.10850
H3 H 0.84040 -0.10710 0.15910
C4 C 0.84289(19) 0.13480(17) 0.23032(10)
H4 H 0.89890 0.10790 0.28080
H5 H 0.73810 0.09840 0.23180
H6 H 0.83740 0.23090 0.22800
C5 C 1.08660(18) 0.14148(14) 0.13705(10)
C6 C 1.20921(18) 0.17167(15) 0.19845(10)
C7 C 1.31277(19) 0.27400(17) 0.18152(11)
H7 H 1.30170 0.32430 0.13180
C8 C 1.4317(2) 0.30234(18) 0.23708(12)
H8 H 1.50210 0.37130 0.22500
C9 C 1.4478(2) 0.22989(19) 0.31039(12)
H9 H 1.52930 0.24930 0.34820
C10 C 1.3450(2) 0.12933(19) 0.32823(12)
H10 H 1.35600 0.08010 0.37840
C11 C 1.22564(19) 0.10033(17) 0.27283(11)
H11 H 1.15500 0.03180 0.28560
C12 C 0.72713(18) 0.03693(14) 0.03461(10)
C13 C 0.76502(18) -0.06835(15) -0.01765(10)
H12 H 0.86960 -0.08260 -0.03320
C14 C 0.6508(2) -0.15238(16) -0.04709(11)
H13 H 0.67780 -0.22460 -0.08180
C15 C 0.49695(19) -0.13085(16) -0.02583(11)
H14 H 0.41860 -0.18740 -0.04670
C16 C 0.45857(19) -0.02611(16) 0.02611(12)
H15 H 0.35370 -0.01140 0.04090
C17 C 0.57298(19) 0.05713(15) 0.05643(11)
H16 H 0.54600 0.12810 0.09220
N1 N 1.11362(15) 0.16008(13) 0.05870(9)
O1 O 0.97919(13) 0.12708(11) 0.01205(7)
O2 O 0.79704(14) 0.25559(11) 0.08080(8)
H17 H 0.74730 0.27890 0.03820
#END
