
#######################################################################
#
#                 Cambridge Crystallographic Data Centre
#                                CCDC
#
#######################################################################
#
# If this CIF has been generated from an entry in the Cambridge
# Structural Database, then it will include bibliographic, chemical,
# crystal, experimental, refinement or atomic coordinate data resulting
# from the CCDC's data processing and validation procedures.
#
#######################################################################

data_CSD_CIF_POHJIH
_audit_creation_date 2014-05-24
_audit_creation_method CSD-ConQuest-V1
_database_code_CSD POHJIH
_database_code_depnum_ccdc_archive 'CCDC 875855'
_chemical_formula_sum 'C29 H30 N2 O5'
_chemical_formula_moiety
;
C29 H30 N2 O5
;
_journal_coden_Cambridge 920
_journal_volume 9
_journal_year 2014
_journal_page_first 1586
_journal_name_full 'Chem.Asian J. '
loop_
_publ_author_name
"S.Shirakawa"
"Lijia Wang"
"Rongjun He"
"S.Arimitsu"
"K.Maruoka"
_chemical_name_systematic
;
t-butyl 3-(1-nitro-4-phenylbutan-2-yl)-2-oxo-3-phenylindoline-1-carboxylate
;
_cell_volume   2507.514
_exptl_crystal_colour 'colorless'
_exptl_crystal_density_diffrn 1.289
_exptl_crystal_description 'block'
_diffrn_ambient_temperature 123
#These two values have been output from a single CSD field.
_refine_ls_R_factor_gt 0.0626
_refine_ls_wR_factor_gt 0.0626
_symmetry_cell_setting orthorhombic
_symmetry_space_group_name_H-M 'P 21 21 21'
_symmetry_Int_Tables_number 19
loop_
_symmetry_equiv_pos_site_id
_symmetry_equiv_pos_as_xyz
1 x,y,z
2 1/2+x,1/2-y,-z
3 -x,1/2+y,1/2-z
4 1/2-x,-y,1/2+z
_cell_length_a 10.9538(4)
_cell_length_b 12.5419(4)
_cell_length_c 18.2522(5)
_cell_angle_alpha 90
_cell_angle_beta 90
_cell_angle_gamma 90
_cell_formula_units_Z 4
loop_
_atom_type_symbol
_atom_type_radius_bond
C 0.68
H 0.23
N 0.68
O 0.68
loop_
_atom_site_label
_atom_site_type_symbol
_atom_site_fract_x
_atom_site_fract_y
_atom_site_fract_z
O1 O 0.52088(19) 0.88156(17) 0.10368(10)
O2 O 0.8689(2) 0.8724(2) 0.19804(13)
O3 O 0.7368(2) 0.79269(18) 0.12056(13)
O4 O 0.6885(3) 1.0383(3) 0.01002(16)
O5 O 0.5019(3) 1.0630(3) -0.02491(14)
N1 N 0.5858(3) 1.0759(3) 0.01824(15)
N2 N 0.6727(3) 0.9322(2) 0.18729(13)
C1 C 0.7706(3) 0.8636(3) 0.16966(15)
C2 C 0.3692(3) 0.9765(3) 0.22266(15)
C3 C 0.5570(3) 1.1502(3) 0.29736(16)
C4 C 0.1933(3) 1.2083(3) 0.08736(17)
C5 C 0.5640(3) 1.1451(3) 0.08379(16)
C6 C 0.1651(4) 0.8747(3) 0.2833(2)
C7 C 0.4838(3) 1.0274(3) 0.18909(14)
C8 C 0.5720(3) 1.0699(3) 0.24550(15)
C9 C 0.6811(3) 1.0136(3) 0.24274(15)
C10 C 0.4517(3) 1.1111(3) 0.12849(16)
C11 C 0.6521(3) 1.1744(3) 0.34465(17)
C12 C 0.1604(3) 0.9153(3) 0.21338(19)
C13 C 0.7611(3) 1.1178(3) 0.33992(17)
C14 C 0.2618(3) 0.9644(3) 0.18268(17)
C15 C 0.3090(4) 1.2690(3) 0.10371(18)
C16 C 0.8285(3) 0.7172(3) 0.08847(18)
C17 C 0.7776(3) 1.0358(3) 0.28961(16)
C18 C 0.3887(3) 1.2106(3) 0.16001(17)
C19 C 0.1849(4) 1.1429(3) 0.02559(19)
C20 C 0.9262(4) 0.7794(4) 0.0486(2)
C21 C 0.3731(4) 0.9343(3) 0.29267(17)
C22 C -0.0073(4) 1.1508(3) 0.1238(3)
C23 C 0.0791(4) 1.0835(3) 0.0130(3)
C24 C 0.2733(4) 0.8831(3) 0.32246(19)
C25 C 0.8804(4) 0.6468(3) 0.1484(2)
C26 C 0.0963(3) 1.2107(3) 0.1359(2)
C27 C -0.0167(4) 1.0863(3) 0.0623(3)
C28 C 0.7516(4) 0.6550(4) 0.0354(3)
C29 C 0.5575(3) 0.9370(3) 0.15329(15)
H1 H 0.48210 1.18820 0.30030
H2 H 0.55290 1.21970 0.06730
H3 H 0.63700 1.14280 0.11580
H4 H 0.09560 0.84140 0.30440
H5 H 0.39310 1.07650 0.09390
H6 H 0.64290 1.22930 0.38010
H7 H 0.08710 0.90980 0.18580
H8 H 0.82630 1.13580 0.37200
H9 H 0.25790 0.99000 0.13380
H10 H 0.28790 1.34050 0.12280
H11 H 0.35590 1.27870 0.05780
H12 H 0.85170 0.99660 0.28740
H13 H 0.33710 1.18900 0.20200
H14 H 0.45180 1.26020 0.17850
H15 H 0.25110 1.13890 -0.00790
H16 H 0.96730 0.73280 0.01330
H17 H 0.98590 0.80640 0.08410
H18 H 0.88880 0.83950 0.02270
H19 H 0.44580 0.94070 0.32070
H20 H -0.07270 1.15370 0.15790
H21 H 0.07300 1.04070 -0.02980
H22 H 0.27870 0.85330 0.37020
H23 H 0.81340 0.61500 0.17650
H24 H 0.93150 0.68980 0.18110
H25 H 0.92980 0.59010 0.12640
H26 H 0.10120 1.25440 0.17830
H27 H -0.08790 1.04470 0.05420
H28 H 0.71480 0.70380 -0.00020
H29 H 0.68700 0.61740 0.06210
H30 H 0.80290 0.60300 0.00960
#END
