
#######################################################################
#
#                 Cambridge Crystallographic Data Centre
#                                CCDC
#
#######################################################################
#
# If this CIF has been generated from an entry in the Cambridge
# Structural Database, then it will include bibliographic, chemical,
# crystal, experimental, refinement or atomic coordinate data resulting
# from the CCDC's data processing and validation procedures.
#
#######################################################################

data_CSD_CIF_POJJII
_audit_creation_date 2009-03-09
_audit_creation_method CSD-ConQuest-V1
_database_code_CSD POJJII
_database_code_depnum_ccdc_archive 'CCDC 671317'
_chemical_formula_sum 'C14 H19 N1 O1'
_chemical_formula_moiety
;
C14 H19 N1 O1
;
_journal_coden_Cambridge 24
_journal_volume 49
_journal_year 2008
_journal_page_first 6134
_journal_name_full 'Tetrahedron Lett. '
loop_
_publ_author_name
"H.S.P.Rao"
"S.Rafi"
_chemical_name_systematic
;
cis-trans-2-Phenyloctahydro-1H-cyclopenta(b)pyridin-1-ol
;
_cell_volume   1214.264
_exptl_crystal_colour 'colorless'
_exptl_crystal_density_diffrn 1.189
_exptl_crystal_description 'block'
_diffrn_ambient_temperature 290
#These two values have been output from a single CSD field.
_refine_ls_R_factor_gt 0.0488
_refine_ls_wR_factor_gt 0.0488
_symmetry_cell_setting monoclinic
_symmetry_space_group_name_H-M 'P 21/n'
_symmetry_Int_Tables_number 14
loop_
_symmetry_equiv_pos_site_id
_symmetry_equiv_pos_as_xyz
1 x,y,z
2 1/2-x,1/2+y,1/2-z
3 -x,-y,-z
4 -1/2+x,-1/2-y,-1/2+z
_cell_length_a 9.917(4)
_cell_length_b 6.715(3)
_cell_length_c 18.611(7)
_cell_angle_alpha 90
_cell_angle_beta 101.549(7)
_cell_angle_gamma 90
_cell_formula_units_Z 4
loop_
_atom_type_symbol
_atom_type_radius_bond
C 0.68
H 0.23
N 0.68
O 0.68
loop_
_atom_site_label
_atom_site_type_symbol
_atom_site_fract_x
_atom_site_fract_y
_atom_site_fract_z
O1 O 0.58701(15) 0.1994(2) 0.02321(7)
H1 H 0.55760 0.14580 -0.01640
N1 N 0.54530(16) 0.0843(2) 0.08136(8)
C1 C 0.4341(2) 0.1984(3) 0.10399(10)
H2 H 0.35280 0.18660 0.06440
C2 C 0.7780(2) -0.0571(3) 0.11148(10)
C3 C 0.67012(19) 0.0634(3) 0.13909(10)
H3 H 0.70730 0.19630 0.15290
C4 C 0.3943(2) 0.1155(3) 0.17348(11)
H4 H 0.34320 -0.00950 0.16270
C5 C 0.5200(2) 0.0843(4) 0.23370(11)
H5 H 0.49360 0.01350 0.27420
H6 H 0.55710 0.21260 0.25170
C6 C 0.6301(2) -0.0339(4) 0.20598(11)
H7 H 0.59630 -0.16740 0.19320
H8 H 0.71100 -0.04470 0.24490
C7 C 0.7508(2) -0.2500(3) 0.08607(11)
H9 H 0.66380 -0.30390 0.08420
C8 C 0.4572(2) 0.4211(3) 0.12001(13)
H10 H 0.55170 0.44640 0.14430
H11 H 0.43700 0.49810 0.07500
C9 C 0.8506(3) -0.3636(4) 0.06350(13)
H12 H 0.83080 -0.49280 0.04670
C10 C 1.0080(3) -0.0938(5) 0.09051(16)
H13 H 1.09500 -0.04050 0.09180
C11 C 0.9080(2) 0.0198(4) 0.11346(13)
H14 H 0.92840 0.14880 0.13030
C12 C 0.2995(3) 0.2798(4) 0.19236(15)
H15 H 0.20600 0.26040 0.16550
H16 H 0.29920 0.27950 0.24440
C13 C 0.9790(3) -0.2851(5) 0.06588(14)
H17 H 1.04660 -0.36130 0.05080
C14 C 0.3576(3) 0.4742(4) 0.17016(17)
H18 H 0.40560 0.54500 0.21320
H19 H 0.28410 0.55840 0.14440
#END
