
#######################################################################
#
#                 Cambridge Crystallographic Data Centre
#                                CCDC
#
#######################################################################
#
# If this CIF has been generated from an entry in the Cambridge
# Structural Database, then it will include bibliographic, chemical,
# crystal, experimental, refinement or atomic coordinate data resulting
# from the CCDC's data processing and validation procedures.
#
#######################################################################

data_CSD_CIF_POJTOX
_audit_creation_date 1995-07-07
_audit_creation_method CSD-ConQuest-V1
_database_code_CSD POJTOX
_chemical_formula_sum 'C18 H16 N2 O2'
_chemical_formula_moiety
;
C18 H16 N2 O2
;
_journal_coden_Cambridge 207
_journal_year 1994
_journal_page_first 2841
_journal_name_full 'J.Chem.Soc.,Perkin Trans.1 '
loop_
_publ_author_name
"A.J.Blake"
"E.C.Boyd"
"R.O.Gould"
"R.M.Paton"
_chemical_name_systematic
;
RS:SR-5-Phenyl-3-(2-phenyl-4,5-dihydro-oxazol-4-yl)-4,5-dihydroisoxazole
;
_chemical_melting_point 408.15
_cell_volume   1419.926
_exptl_crystal_colour 'white'
_exptl_crystal_density_diffrn 1.367
_exptl_special_details
;
Melting point range 408.15-409.15K

;
_diffrn_ambient_temperature ?
_diffrn_special_details
;
The study was carried out at room temperature,in the range 283-303K

;
#These two values have been output from a single CSD field.
_refine_ls_R_factor_gt 0.039
_refine_ls_wR_factor_gt 0.039
_symmetry_cell_setting monoclinic
_symmetry_space_group_name_H-M 'P 21/n'
_symmetry_Int_Tables_number 14
loop_
_symmetry_equiv_pos_site_id
_symmetry_equiv_pos_as_xyz
1 x,y,z
2 1/2-x,1/2+y,1/2-z
3 -x,-y,-z
4 -1/2+x,-1/2-y,-1/2+z
_cell_length_a 14.624(4)
_cell_length_b 5.492(2)
_cell_length_c 17.709(6)
_cell_angle_alpha 90
_cell_angle_beta 93.31(2)
_cell_angle_gamma 90
_cell_formula_units_Z 4
loop_
_atom_type_symbol
_atom_type_radius_bond
C 0.68
H 0.23
N 0.68
O 0.68
loop_
_atom_site_label
_atom_site_type_symbol
_atom_site_fract_x
_atom_site_fract_y
_atom_site_fract_z
O1 O 0.11347(10) 0.1290(3) 0.21503(9)
N1 N 0.19092(12) -0.0195(4) 0.20343(10)
C1 C 0.23604(14) 0.0732(4) 0.15109(12)
C2 C 0.19456(16) 0.2982(5) 0.11650(15)
C3 C 0.11966(15) 0.3527(5) 0.16939(14)
C4 C 0.02623(14) 0.4070(4) 0.13357(12)
C5 C -0.01709(16) 0.2432(5) 0.08376(14)
C6 C -0.10485(17) 0.2884(5) 0.05380(15)
C7 C -0.15000(17) 0.4977(5) 0.07294(15)
C8 C -0.10679(17) 0.6642(5) 0.12097(15)
C9 C -0.01868(16) 0.6189(5) 0.15122(14)
O2 O 0.41792(10) 0.2250(3) 0.06401(9)
C10 C 0.36612(14) 0.0796(4) 0.01619(13)
N2 N 0.31456(13) -0.0787(4) 0.04406(10)
C11 C 0.32284(15) -0.0416(5) 0.12698(13)
C12 C 0.40483(16) 0.1307(5) 0.13935(13)
C13 C 0.37274(14) 0.1315(4) -0.06507(13)
C14 C 0.41723(17) 0.3360(5) -0.08951(15)
C15 C 0.41926(18) 0.3855(5) -0.16635(14)
C16 C 0.37709(16) 0.2304(5) -0.21853(15)
C17 C 0.33314(16) 0.0259(5) -0.19440(14)
C18 C 0.33044(16) -0.0254(5) -0.11828(14)
H1 H 0.2384(17) 0.432(5) 0.1133(14)
H2 H 0.1706(17) 0.265(5) 0.0636(16)
H3 H 0.1381(14) 0.487(5) 0.2030(13)
H4 H 0.0120(15) 0.099(5) 0.0705(12)
H5 H -0.1335(17) 0.185(5) 0.0229(15)
H6 H -0.2119(18) 0.529(5) 0.0539(14)
H7 H -0.1378(18) 0.813(5) 0.1359(15)
H8 H 0.0110(18) 0.743(5) 0.1849(16)
H9 H 0.3332(15) -0.197(5) 0.1534(13)
H10 H 0.3945(15) 0.275(5) 0.1729(14)
H11 H 0.4622(16) 0.043(5) 0.1546(13)
H12 H 0.4486(18) 0.443(5) -0.0564(15)
H13 H 0.4499(17) 0.525(5) -0.1828(14)
H14 H 0.3821(16) 0.262(5) -0.2722(15)
H15 H 0.3066(16) -0.090(5) -0.2295(15)
H16 H 0.3001(17) -0.165(5) -0.0993(15)
#END
