
#######################################################################
#
#                 Cambridge Crystallographic Data Centre
#                                CCDC
#
#######################################################################
#
# If this CIF has been generated from an entry in the Cambridge
# Structural Database, then it will include bibliographic, chemical,
# crystal, experimental, refinement or atomic coordinate data resulting
# from the CCDC's data processing and validation procedures.
#
#######################################################################

data_CSD_CIF_POJTIR
_audit_creation_date 1995-07-07
_audit_creation_method CSD-ConQuest-V1
_database_code_CSD POJTIR
_chemical_formula_sum 'C20 H16 N4 O4'
_chemical_formula_moiety
;
C20 H16 N4 O4
;
_journal_coden_Cambridge 207
_journal_year 1994
_journal_page_first 2841
_journal_name_full 'J.Chem.Soc.,Perkin Trans.1 '
loop_
_publ_author_name
"A.J.Blake"
"E.C.Boyd"
"R.O.Gould"
"R.M.Paton"
_chemical_name_systematic
;
RR:SS-4,5-bis(2-Phenyl-4,5-dihydro-oxazol-4-yl)furazan-N-oxide
;
_chemical_melting_point 417.15
_cell_volume   1714.923
_exptl_crystal_density_diffrn 1.457
_exptl_special_details
;
Melting point range 417.15-418.15K

;
_diffrn_ambient_temperature 150
_refine_special_details
;
The exocyclic oxygen atom is disordered by symmetry.

;
#These two values have been output from a single CSD field.
_refine_ls_R_factor_gt 0.0451
_refine_ls_wR_factor_gt 0.0451
_symmetry_cell_setting monoclinic
_symmetry_space_group_name_H-M 'C 2/c'
_symmetry_Int_Tables_number 15
loop_
_symmetry_equiv_pos_site_id
_symmetry_equiv_pos_as_xyz
1 x,y,z
2 -x,y,1/2-z
3 1/2+x,1/2+y,z
4 1/2-x,1/2+y,1/2-z
5 -x,-y,-z
6 x,-y,-1/2+z
7 -1/2-x,-1/2-y,-z
8 -1/2+x,-1/2-y,-1/2+z
_cell_length_a 13.645(7)
_cell_length_b 12.221(10)
_cell_length_c 11.394(7)
_cell_angle_alpha 90
_cell_angle_beta 115.50(4)
_cell_angle_gamma 90
_cell_formula_units_Z 4
loop_
_atom_type_symbol
_atom_type_radius_bond
C 0.68
H 0.23
N 0.68
O 0.68
loop_
_atom_site_label
_atom_site_type_symbol
_atom_site_fract_x
_atom_site_fract_y
_atom_site_fract_z
O1 O 0.45718(15) 0.34988(16) 0.05148(16)
C1 C 0.39389(20) 0.35049(24) 0.11623(22)
N1 N 0.36480(17) 0.25859(20) 0.14437(22)
C2 C 0.40870(22) 0.1734(3) 0.0886(3)
C3 C 0.48209(24) 0.23634(25) 0.0398(3)
C4 C 0.46289(24) 0.08379(25) 0.1834(3)
N2 N 0.4420(3) -0.01830(5) 0.1437(4)
O2 O 0.50000 -0.0874(3) 0.25000
O3 O 0.4007(4) -0.0673(4) 0.0594(5)
C5 C 0.36335(20) 0.45859(23) 0.14548(23)
C6 C 0.38519(22) 0.55235(24) 0.09226(25)
C7 C 0.35450(24) 0.6536(3) 0.1206(3)
C8 C 0.30399(23) 0.6611(3) 0.2022(3)
C9 C 0.28315(22) 0.56807(25) 0.2560(3)
C10 C 0.31235(21) 0.46654(25) 0.22787(24)
H1 H 0.34690 0.12960 0.00890
H2 H 0.46250 0.21580 -0.06000
H3 H 0.56660 0.21910 0.09970
H4 H 0.42570 0.54660 0.02940
H5 H 0.37030 0.72690 0.07860
H6 H 0.28070 0.74010 0.22400
H7 H 0.24400 0.57450 0.32020
H8 H 0.29570 0.39360 0.26970
C4A C 0.53711(24) 0.08379(25) 0.3166(3)
N2A N 0.5580(3) -0.01830(5) 0.3563(4)
C2A C 0.59130(22) 0.1734(3) 0.4114(3)
O3A O 0.5993(4) -0.0673(4) 0.4406(5)
N1A N 0.63520(17) 0.25859(20) 0.35563(22)
C3A C 0.51791(24) 0.23634(25) 0.4602(3)
H1A H 0.65310 0.12960 0.49110
C1A C 0.60611(20) 0.35049(24) 0.38377(22)
O1A O 0.54282(15) 0.34988(16) 0.44852(16)
H2A H 0.53750 0.21580 0.56000
H3A H 0.43340 0.21910 0.40030
C5A C 0.63665(20) 0.45859(23) 0.35452(23)
C6A C 0.61481(22) 0.55235(24) 0.40774(25)
C10A C 0.68765(21) 0.46654(25) 0.27213(24)
C7A C 0.64550(24) 0.6536(3) 0.3794(3)
H4A H 0.57430 0.54660 0.47060
C9A C 0.71685(22) 0.56807(25) 0.2440(3)
H8A H 0.70430 0.39360 0.23030
C8A C 0.69601(23) 0.6611(3) 0.2978(3)
H5A H 0.62970 0.72690 0.42140
H7A H 0.75600 0.57450 0.17980
H6A H 0.71930 0.74010 0.27600
#END
