
#######################################################################
#
#                 Cambridge Crystallographic Data Centre
#                                CCDC
#
#######################################################################
#
# If this CIF has been generated from an entry in the Cambridge
# Structural Database, then it will include bibliographic, chemical,
# crystal, experimental, refinement or atomic coordinate data resulting
# from the CCDC's data processing and validation procedures.
#
#######################################################################

data_CSD_CIF_POLWUK
_audit_creation_date 2014-10-23
_audit_creation_method CSD-ConQuest-V1
_database_code_CSD POLWUK
_database_code_depnum_ccdc_archive 'CCDC 996729'
_chemical_formula_sum 'C15 H8 N10 O10'
_chemical_formula_moiety
;
C15 H8 N10 O10
;
_journal_coden_Cambridge 1500
_journal_volume 4
_journal_year 2014
_journal_page_first 53282
_journal_name_full 'RSC Advances '
loop_
_publ_author_name
"Bo Wu"
"Hongwei Yang"
"Zhixin Wang"
"Qiuhan Lin"
"Xuehai Ju"
"Chunxu Lu"
"Guangbin Cheng"
_chemical_name_systematic
;
4,6-Dinitro-N'-(2,4,6-trinitrobenzylidene)-1H-indazole-1-carbohydrazonamide
;
_cell_volume   3853.126
_exptl_crystal_colour 'colorless'
_exptl_crystal_density_diffrn 1.683
_exptl_crystal_description 'prism'
_diffrn_ambient_temperature 113
#These two values have been output from a single CSD field.
_refine_ls_R_factor_gt 0.0673
_refine_ls_wR_factor_gt 0.0673
_symmetry_cell_setting orthorhombic
_symmetry_space_group_name_H-M 'A b a 2'
_symmetry_Int_Tables_number 41
loop_
_symmetry_equiv_pos_site_id
_symmetry_equiv_pos_as_xyz
1 x,y,z
2 1/2-x,1/2+y,z
3 1/2+x,1/2-y,z
4 -x,-y,z
5 x,1/2+y,1/2+z
6 1/2-x,y,1/2+z
7 1/2+x,-y,1/2+z
8 -x,1/2-y,1/2+z
_cell_length_a 24.962(3)
_cell_length_b 16.401(2)
_cell_length_c 9.4116(10)
_cell_angle_alpha 90
_cell_angle_beta 90
_cell_angle_gamma 90
_cell_formula_units_Z 8
loop_
_atom_type_symbol
_atom_type_radius_bond
C 0.68
H 0.23
N 0.68
O 0.68
loop_
_atom_site_label
_atom_site_type_symbol
_atom_site_fract_x
_atom_site_fract_y
_atom_site_fract_z
O1 O 0.36370(18) 0.4587(3) 0.5650(4)
O2 O 0.31269(18) 0.5646(3) 0.5683(5)
O3 O 0.29562(17) 0.6424(3) 1.2077(5)
O4 O 0.26759(18) 0.6944(3) 1.0120(5)
O5 O 0.54892(16) 0.1689(3) 0.9895(4)
O6 O 0.61582(19) 0.2335(3) 1.0830(5)
O7 O 0.7488(4) 0.0930(7) 0.7279(7)
O8 O 0.7372(2) 0.1191(4) 0.5116(6)
O9 O 0.5860(2) 0.2880(4) 0.3696(5)
O10 O 0.56832(19) 0.3844(3) 0.5178(5)
N1 N 0.4209(2) 0.4709(3) 1.2219(5)
N2 N 0.43093(16) 0.4477(3) 1.0828(5)
N3 N 0.34172(19) 0.5146(3) 0.6271(5)
N4 N 0.29416(18) 0.6443(3) 1.0784(6)
N5 N 0.5028(2) 0.3706(4) 1.1689(6)
N6 N 0.48520(17) 0.3839(3) 0.9211(5)
N7 N 0.53226(17) 0.3379(3) 0.9053(5)
N8 N 0.59113(18) 0.2065(3) 0.9824(5)
N9 N 0.7266(2) 0.1282(4) 0.6351(6)
N10 N 0.58616(19) 0.3169(4) 0.4901(5)
C1 C 0.3816(2) 0.5236(4) 1.2152(6)
H1 H 0.36650 0.55010 1.29560
C2 C 0.3638(2) 0.5366(3) 1.0715(6)
C3 C 0.39642(18) 0.4849(3) 0.9877(6)
C4 C 0.3903(2) 0.4757(3) 0.8420(6)
H2 H 0.41190 0.43950 0.78780
C5 C 0.3507(2) 0.5225(4) 0.7817(6)
C6 C 0.3190(2) 0.5791(3) 0.8555(6)
H3 H 0.29370 0.61230 0.80730
C7 C 0.3261(2) 0.5847(3) 1.0000(6)
C8 C 0.47633(19) 0.3981(3) 1.0551(6)
C9 C 0.5392(2) 0.3156(3) 0.7762(6)
H4 H 0.51380 0.32970 0.70510
C10 C 0.5870(2) 0.2680(3) 0.7403(5)
C11 C 0.61423(19) 0.2188(3) 0.8385(5)
C12 C 0.6599(2) 0.1752(4) 0.8104(6)
H5 H 0.67770 0.14520 0.88260
C13 C 0.6788(2) 0.1769(4) 0.6719(6)
C14 C 0.6544(2) 0.2215(3) 0.5662(6)
H6 H 0.66770 0.22110 0.47160
C15 C 0.6098(2) 0.2668(3) 0.6031(5)
H7 H 0.529(3) 0.340(5) 1.160(8)
H8 H 0.493(3) 0.390(4) 1.256(9)
#END
