
#######################################################################
#
#                 Cambridge Crystallographic Data Centre
#                                CCDC
#
#######################################################################
#
# If this CIF has been generated from an entry in the Cambridge
# Structural Database, then it will include bibliographic, chemical,
# crystal, experimental, refinement or atomic coordinate data resulting
# from the CCDC's data processing and validation procedures.
#
#######################################################################

data_CSD_CIF_PONJAF
_audit_creation_date 2014-10-24
_audit_creation_method CSD-ConQuest-V1
_database_code_CSD PONJAF
_database_code_depnum_ccdc_archive 'CCDC 990366'
_chemical_formula_sum 'C30 H24 N2 O6'
_chemical_formula_moiety
;
C30 H24 N2 O6
;
_journal_coden_Cambridge 35
_journal_volume 79
_journal_year 2014
_journal_page_first 4528
_journal_name_full 'J.Org.Chem. '
loop_
_publ_author_name
"Fong-Jiao Hong"
"Yun-Yee Low"
"Kam-Weng Chong"
"N.F.Thomas"
"T.-S.Kam"
_chemical_name_systematic
;
7-methoxy-1-(4-methoxyphenyl)-2,3-bis(4-nitrophenyl)-1,2-dihydronaphthalene
;
_chemical_melting_point 375.15
_cell_volume   4934.969
_exptl_crystal_colour 'yellow'
_exptl_crystal_density_diffrn 1.387
_exptl_special_details
;
Melting point range 375.15-379.15K

;
_exptl_crystal_description 'block'
_diffrn_ambient_temperature 100
#These two values have been output from a single CSD field.
_refine_ls_R_factor_gt 0.0567
_refine_ls_wR_factor_gt 0.0567
_symmetry_cell_setting monoclinic
_symmetry_space_group_name_H-M 'C 2/c'
_symmetry_Int_Tables_number 15
loop_
_symmetry_equiv_pos_site_id
_symmetry_equiv_pos_as_xyz
1 x,y,z
2 -x,y,1/2-z
3 1/2+x,1/2+y,z
4 1/2-x,1/2+y,1/2-z
5 -x,-y,-z
6 x,-y,-1/2+z
7 -1/2-x,-1/2-y,-z
8 -1/2+x,-1/2-y,-1/2+z
_cell_length_a 21.8582(9)
_cell_length_b 11.2916(5)
_cell_length_c 20.2879(8)
_cell_angle_alpha 90
_cell_angle_beta 99.753(3)
_cell_angle_gamma 90
_cell_formula_units_Z 8
loop_
_atom_type_symbol
_atom_type_radius_bond
C 0.68
H 0.23
N 0.68
O 0.68
loop_
_atom_site_label
_atom_site_type_symbol
_atom_site_fract_x
_atom_site_fract_y
_atom_site_fract_z
C1 C 0.81909(9) 0.82711(19) 0.29144(10)
C2 C 0.81836(10) 0.8771(2) 0.35463(11)
H1 H 0.84410 0.94340 0.36860
C3 C 0.78101(10) 0.8318(2) 0.39687(12)
H2 H 0.78170 0.86580 0.43980
C4 C 0.74222(10) 0.7362(2) 0.37637(12)
C5 C 0.73958(10) 0.6899(2) 0.31265(11)
H3 H 0.71160 0.62720 0.29790
C6 C 0.77748(9) 0.73461(19) 0.2703(1)
C7 C 0.86387(9) 0.86333(19) 0.24992(10)
H4 H 0.88490 0.93660 0.25920
C8 C 0.87664(9) 0.79670(18) 0.19874(10)
C9 C 0.92575(9) 0.82382(18) 0.15931(10)
C10 C 0.94259(9) 0.73973(19) 0.11459(11)
H5 H 0.92380 0.66370 0.11230
C11 C 0.98542(9) 0.76384(19) 0.07395(11)
H6 H 0.99590 0.70590 0.04380
C12 C 1.01283(9) 0.87440(19) 0.07812(10)
C13 C 0.99929(10) 0.95929(19) 0.12254(11)
H7 H 1.01900 1.03450 0.12490
C14 C 0.95681(10) 0.93336(19) 0.16322(11)
H8 H 0.94820 0.99070 0.19470
C15 C 0.67073(12) 0.5918(3) 0.40419(13)
H9 H 0.63860 0.61060 0.36570
H10 H 0.65110 0.56800 0.44210
H11 H 0.69660 0.52690 0.39240
C16 C 0.73225(9) 0.76011(19) 0.14754(10)
C17 C 0.71172(12) 0.7096(2) 0.08546(12)
H12 H 0.72150 0.62920 0.07830
C18 C 0.67733(12) 0.7731(2) 0.03351(13)
H13 H 0.66400 0.73650 -0.00860
C19 C 0.66253(10) 0.8908(2) 0.04367(11)
C20 C 0.68057(9) 0.94160(19) 0.10532(11)
H14 H 0.66960 1.02130 0.11290
C21 C 0.71499(9) 0.87581(19) 0.15674(11)
H15 H 0.72690 0.91150 0.19940
C22 C 0.77467(9) 0.68826(18) 0.2004(1)
H16 H 0.75790 0.60570 0.19930
C23 C 0.84112(9) 0.68172(18) 0.18287(10)
H17 H 0.83650 0.66900 0.13350
C24 C 0.87585(9) 0.57517(19) 0.2167(1)
C25 C 0.8652(1) 0.46543(19) 0.18610(12)
H18 H 0.83910 0.46010 0.14370
C26 C 0.89187(11) 0.3640(2) 0.21613(13)
H19 H 0.88450 0.28900 0.19500
C27 C 0.92952(11) 0.3745(2) 0.27774(13)
C28 C 0.94268(10) 0.4819(2) 0.30905(12)
H20 H 0.96950 0.48670 0.35100
C29 C 0.91585(10) 0.5829(2) 0.27781(11)
H21 H 0.92480 0.65800 0.29820
C30 C 0.61561(12) 1.0702(2) -0.00306(12)
H22 H 0.59180 1.07800 0.03350
H23 H 0.59090 1.10000 -0.04460
H24 H 0.65410 1.11610 0.00750
N1 N 1.05600(8) 0.90224(16) 0.03275(9)
N2 N 0.95530(12) 0.2655(2) 0.31068(14)
O1 O 0.70870(8) 0.69457(17) 0.42223(9)
O2 O 1.07607(7) 1.00437(14) 0.03244(8)
O3 O 1.07077(8) 0.82310(15) -0.00304(9)
O4 O 0.63028(9) 0.94846(14) -0.01118(8)
O5 O 0.93849(15) 0.1703(2) 0.28349(14)
O6 O 0.9911(1) 0.2743(2) 0.36403(12)
#END
