
#######################################################################
#
#                 Cambridge Crystallographic Data Centre
#                                CCDC
#
#######################################################################
#
# If this CIF has been generated from an entry in the Cambridge
# Structural Database, then it will include bibliographic, chemical,
# crystal, experimental, refinement or atomic coordinate data resulting
# from the CCDC's data processing and validation procedures.
#
#######################################################################

data_CSD_CIF_PONTIW
_audit_creation_date 2009-03-09
_audit_creation_method CSD-ConQuest-V1
_database_code_CSD PONTIW
_database_code_depnum_ccdc_archive 'CCDC 722007'
_chemical_formula_sum 'C14 H12 N4 O5'
_chemical_formula_moiety
;
C14 H12 N4 O5
;
_journal_coeditor_code "IUCr PK2139"
_journal_coden_Cambridge 1370
_journal_volume 65
_journal_year 2009
_journal_page_first o246
_journal_name_full 'Acta Crystallogr.,Sect.E:Struct.Rep.Online '
loop_
_publ_author_name
"H.-K.Fun"
"R.Kia"
"H.Kargar"
_chemical_name_systematic
;
2-Methoxybenzaldehyde 2,4-dinitrophenylhydrazone
;
_cell_volume    697.987
_exptl_crystal_colour 'orange'
_exptl_crystal_density_diffrn 1.505
_exptl_crystal_description 'block'
_exptl_crystal_preparation 'ethanol'
_diffrn_ambient_temperature 100.00
#These two values have been output from a single CSD field.
_refine_ls_R_factor_gt 0.0446
_refine_ls_wR_factor_gt 0.0446
_symmetry_cell_setting triclinic
_symmetry_space_group_name_H-M 'P -1'
_symmetry_Int_Tables_number 2
loop_
_symmetry_equiv_pos_site_id
_symmetry_equiv_pos_as_xyz
1 x,y,z
2 -x,-y,-z
_cell_length_a 7.0315(1)
_cell_length_b 7.6205(2)
_cell_length_c 14.1896(4)
_cell_angle_alpha 98.048(1)
_cell_angle_beta 97.064(1)
_cell_angle_gamma 109.467(1)
_cell_formula_units_Z 2
loop_
_atom_type_symbol
_atom_type_radius_bond
C 0.68
H 0.23
N 0.68
O 0.68
loop_
_atom_site_label
_atom_site_type_symbol
_atom_site_fract_x
_atom_site_fract_y
_atom_site_fract_z
O1 O 0.52355(11) 0.19077(9) 0.30740(5)
O2 O 0.31793(12) 0.47602(10) -0.06604(5)
O3 O 0.20422(12) 0.51054(10) -0.20851(5)
O4 O -0.18137(11) -0.00408(11) -0.45869(5)
O5 O -0.19171(12) -0.28928(10) -0.44929(5)
N1 N 0.27092(11) 0.00256(11) 0.02604(5)
N2 N 0.26656(12) 0.13732(11) -0.02830(5)
N3 N 0.22761(12) 0.4093(1) -0.15138(6)
N4 N -0.14093(12) -0.11921(11) -0.41450(5)
C1 C 0.46732(13) 0.00043(12) 0.27560(6)
C2 C 0.48758(14) -0.12628(13) 0.33510(6)
H1 H 0.54760 -0.08150 0.40010
C3 C 0.41767(15) -0.31935(14) 0.29676(7)
H2 H 0.43060 -0.40350 0.33650
C4 C 0.32856(14) -0.38821(13) 0.19954(7)
H3 H 0.28140 -0.51770 0.17450
C5 C 0.31052(13) -0.26234(12) 0.14015(6)
H4 H 0.25140 -0.30850 0.07510
C6 C 0.38009(12) -0.06701(12) 0.17671(6)
C7 C 0.36703(13) 0.06671(12) 0.11394(6)
H5 H 0.42760 0.19670 0.13730
C8 C 0.17242(12) 0.07996(12) -0.12228(6)
C9 C 0.09189(13) -0.11672(12) -0.16426(6)
H6 H 0.10560 -0.20380 -0.12660
C10 C -0.00529(13) -0.18102(12) -0.25882(6)
H7 H -0.05470 -0.31010 -0.28520
C11 C -0.02975(12) -0.05112(12) -0.31553(6)
C12 C 0.04681(12) 0.14065(12) -0.27956(6)
H8 H 0.03070 0.22530 -0.31840
C13 C 0.14893(12) 0.20609(11) -0.18400(6)
C14 C 0.64623(15) 0.27271(14) 0.40200(7)
H9 H 0.68760 0.40840 0.41200
H10 H 0.76570 0.23770 0.40740
H11 H 0.56750 0.22690 0.45000
H12 H 0.329(2) 0.256(2) -0.0027(11)
#END
