
#######################################################################
#
#                 Cambridge Crystallographic Data Centre
#                                CCDC
#
#######################################################################
#
# If this CIF has been generated from an entry in the Cambridge
# Structural Database, then it will include bibliographic, chemical,
# crystal, experimental, refinement or atomic coordinate data resulting
# from the CCDC's data processing and validation procedures.
#
#######################################################################

data_CSD_CIF_POPDAZ
_audit_creation_date 1995-10-10
_audit_creation_method CSD-ConQuest-V1
_database_code_CSD POPDAZ
_chemical_formula_sum 'C21 H24 N2 O3'
_chemical_formula_moiety
;
C21 H24 N2 O3
;
_journal_coden_Cambridge 4
_journal_volume 116
_journal_year 1994
_journal_page_first 9009
_journal_name_full 'J.Am.Chem.Soc. '
loop_
_publ_author_name
"J.Aube"
"S.Ghosh"
"M.Tanol"
_chemical_name_systematic
;
3-(2-Methoxycarbonyl-2-(spiro(3a,4,7,7a-tetrahydroindan-2,3'-oxaziran)-2'-yl)e
thyl)indole
;
_cell_volume   1880.543
_exptl_crystal_colour 'colorless'
_exptl_crystal_density_diffrn 1.245
_diffrn_ambient_temperature ?
_diffrn_special_details
;
The study was carried out at room temperature,in the range 283-303K

;
#These two values have been output from a single CSD field.
_refine_ls_R_factor_gt 0.046
_refine_ls_wR_factor_gt 0.046
_symmetry_cell_setting monoclinic
_symmetry_space_group_name_H-M 'P 21/n'
_symmetry_Int_Tables_number 14
loop_
_symmetry_equiv_pos_site_id
_symmetry_equiv_pos_as_xyz
1 x,y,z
2 1/2-x,1/2+y,1/2-z
3 -x,-y,-z
4 -1/2+x,-1/2-y,-1/2+z
_cell_length_a 9.9006
_cell_length_b 12.7952
_cell_length_c 15.2781
_cell_angle_alpha 90
_cell_angle_beta 103.678
_cell_angle_gamma 90
_cell_formula_units_Z 4
loop_
_atom_type_symbol
_atom_type_radius_bond
C 0.68
H 0.23
N 0.68
O 0.68
loop_
_atom_site_label
_atom_site_type_symbol
_atom_site_fract_x
_atom_site_fract_y
_atom_site_fract_z
O1 O 0.5045(1) 0.5858(1) 0.15713(9)
N1 N 0.4210(1) 0.5668(1) 0.2270(1)
C1 C 0.3922(2) 0.5141(1) 0.1414(1)
C2 C 0.4255(2) 0.4017(2) 0.1239(2)
C3 C 0.3530(2) 0.3880(1) 0.0241(1)
C4 C 0.3369(3) 0.2772(2) -0.0115(2)
C5 C 0.2091(3) 0.2240(2) -0.0030(2)
C6 C 0.1086(3) 0.2704(2) 0.0255(2)
C7 C 0.1157(2) 0.3809(2) 0.0555(2)
C8 C 0.2155(2) 0.4463(1) 0.0170(1)
C9 C 0.2613(2) 0.5455(2) 0.0725(1)
C10 C 0.5084(2) 0.5122(1) 0.3033(1)
C11 C 0.4177(2) 0.4859(2) 0.3701(1)
C12 C 0.2824(2) 0.4315(1) 0.3305(1)
C13 C 0.2582(2) 0.3275(2) 0.3243(1)
N2 N 0.1197(2) 0.3081(1) 0.2904(1)
C14 C 0.0509(2) 0.4008(2) 0.2742(1)
C15 C -0.0892(2) 0.4225(2) 0.2403(1)
C16 C -0.1287(2) 0.5249(2) 0.2302(2)
C17 C -0.0305(2) 0.6066(2) 0.2541(2)
C18 C 0.1070(2) 0.5852(2) 0.2885(1)
C19 C 0.1510(2) 0.4810(1) 0.2988(1)
C20 C 0.6232(2) 0.5850(2) 0.3503(1)
O2 O 0.6304(2) 0.6759(1) 0.3343(1)
O3 O 0.7150(1) 0.5343(1) 0.4125(1)
C21 C 0.8320(3) 0.5937(3) 0.4623(2)
H1 H 0.526(2) 0.389(1) 0.135(1)
H2 H 0.384(2) 0.360(2) 0.160(1)
H3 H 0.412(2) 0.430(2) -0.010(1)
H4 H 0.349(2) 0.273(2) -0.064(2)
H5 H 0.417(3) 0.238(2) 0.011(2)
H6 H 0.195(3) 0.148(2) -0.024(2)
H7 H 0.017(3) 0.232(2) 0.022(2)
H8 H 0.024(3) 0.408(2) 0.035(2)
H9 H 0.143(3) 0.372(2) 0.120(2)
H10 H 0.175(2) 0.461(1) -0.041(1)
H11 H 0.192(2) 0.572(2) 0.100(2)
H12 H 0.287(2) 0.602(2) 0.040(2)
H13 H 0.549(2) 0.450(1) 0.280(1)
H14 H 0.472(3) 0.450(2) 0.415(2)
H15 H 0.394(2) 0.556(2) 0.396(1)
H16 H 0.323(2) 0.273(2) 0.340(1)
H17 H 0.085(3) 0.245(2) 0.279(2)
H18 H -0.159(3) 0.369(2) 0.221(2)
H19 H -0.231(3) 0.542(2) 0.202(2)
H20 H -0.063(2) 0.677(2) 0.244(2)
H21 H 0.170(2) 0.646(2) 0.302(1)
H22 H 0.893(3) 0.612(2) 0.429(2)
H23 H 0.874(4) 0.558(3) 0.512(3)
H24 H 0.800(4) 0.645(4) 0.499(3)
#END
