
#######################################################################
#
#                 Cambridge Crystallographic Data Centre
#                                CCDC
#
#######################################################################
#
# If this CIF has been generated from an entry in the Cambridge
# Structural Database, then it will include bibliographic, chemical,
# crystal, experimental, refinement or atomic coordinate data resulting
# from the CCDC's data processing and validation procedures.
#
#######################################################################

data_CSD_CIF_POPDUU
_audit_creation_date 2009-09-08
_audit_creation_method CSD-ConQuest-V1
_database_code_CSD POPDUU
_database_code_depnum_ccdc_archive 'CCDC 656347'
_chemical_formula_sum 'C22 H27 N3 O4'
_chemical_formula_moiety
;
C22 H27 N3 O4
;
_journal_coden_Cambridge 799
_journal_volume 17
_journal_year 2008
_journal_page_first 507
_journal_name_full 'Med.Chem.Res. '
loop_
_publ_author_name
"J.Kossakowski"
"A.Bielenica"
"M.Struga"
"A.E.Koziol"
_chemical_name_systematic
;
4-(2-Hydroxy-3-(4-phenyl-1-piperazinyl)propoxy)-4-azatricyclo[5.2.1.0^2,6^]dec
-8-ene-3,5-dione
;
_chemical_melting_point 380.65
_cell_volume   2036.968
_exptl_crystal_colour 'colorless'
_exptl_crystal_density_diffrn 1.296
_exptl_special_details
;
Melting point range 380.65-381.65K
potential antipsychotic activity

;
_exptl_crystal_description 'block'
_diffrn_ambient_temperature 293
#These two values have been output from a single CSD field.
_refine_ls_R_factor_gt 0.0627
_refine_ls_wR_factor_gt 0.0627
_symmetry_cell_setting monoclinic
_symmetry_space_group_name_H-M 'P 21/c'
_symmetry_Int_Tables_number 14
loop_
_symmetry_equiv_pos_site_id
_symmetry_equiv_pos_as_xyz
1 x,y,z
2 -x,1/2+y,1/2-z
3 -x,-y,-z
4 x,-1/2-y,-1/2+z
_cell_length_a 16.641(4)
_cell_length_b 17.833(5)
_cell_length_c 6.946(2)
_cell_angle_alpha 90
_cell_angle_beta 98.81(3)
_cell_angle_gamma 90
_cell_formula_units_Z 4
loop_
_atom_type_symbol
_atom_type_radius_bond
C 0.68
H 0.23
N 0.68
O 0.68
loop_
_atom_site_label
_atom_site_type_symbol
_atom_site_fract_x
_atom_site_fract_y
_atom_site_fract_z
N1 N 0.54758(17) 0.35324(17) 0.7502(5)
C1 C 0.6239(2) 0.3572(2) 0.6716(6)
H1 H 0.63340 0.40860 0.63550
H2 H 0.61950 0.32670 0.55470
C2 C 0.6950(2) 0.3304(2) 0.8152(6)
H3 H 0.68810 0.27760 0.84120
H4 H 0.74440 0.33600 0.75840
N2 N 0.70338(18) 0.37156(15) 0.9970(4)
C3 C 0.6259(2) 0.3759(2) 1.0718(6)
H5 H 0.63170 0.41030 1.18120
H6 H 0.61320 0.32680 1.11950
C4 C 0.5565(2) 0.4013(2) 0.9228(6)
H7 H 0.50660 0.40020 0.97890
H8 H 0.56590 0.45250 0.88530
C5 C 0.4782(2) 0.3758(2) 0.6057(6)
H9 H 0.49330 0.41950 0.53640
H10 H 0.43350 0.39000 0.67290
C6 C 0.4490(2) 0.3142(3) 0.4575(6)
H11 H 0.44370 0.26760 0.52920
O1 O 0.50490(17) 0.30218(17) 0.3322(5)
H12 H 0.52000 0.24800 0.30500
C7 C 0.3674(3) 0.3334(2) 0.3466(7)
H13 H 0.34950 0.29400 0.25380
H14 H 0.32810 0.33790 0.43560
O2 O 0.37306(16) 0.40442(16) 0.2438(5)
N3 N 0.3005(2) 0.42120(19) 0.1312(6)
C8 C 0.2390(3) 0.4598(2) 0.2020(8)
O3 O 0.2438(2) 0.47973(18) 0.3694(6)
C9 C 0.2804(3) 0.3957(3) -0.0572(7)
O4 O 0.3220(2) 0.3550(2) -0.1379(5)
C10 C 0.1977(3) 0.4252(2) -0.1290(6)
H15 H 0.19850 0.45860 -0.24080
C11 C 0.1704(2) 0.4672(2) 0.0409(6)
H16 H 0.15910 0.52000 0.00810
C12 C 0.0911(3) 0.4245(3) 0.0699(8)
H17 H 0.05490 0.45090 0.14600
C13 C 0.0568(3) 0.4084(3) -0.1375(9)
H18 H 0.04800 0.45330 -0.21680
H19 H 0.00760 0.37850 -0.15080
C14 C 0.1300(3) 0.3642(3) -0.1748(7)
H20 H 0.12580 0.34010 -0.30270
C15 C 0.1414(3) 0.3131(3) -0.0039(10)
H21 H 0.16170 0.26450 -0.00200
C16 C 0.1185(3) 0.3479(3) 0.1417(9)
H22 H 0.11890 0.32910 0.26670
C17 C 0.7740(2) 0.3592(2) 1.1299(6)
C18 C 0.7857(2) 0.3907(2) 1.3179(6)
H23 H 0.74270 0.41540 1.36130
C19 C 0.8582(3) 0.3858(2) 1.4381(7)
H24 H 0.86370 0.40820 1.56040
C20 C 0.9226(3) 0.3494(3) 1.3847(8)
H25 H 0.97220 0.34740 1.46670
C21 C 0.9118(3) 0.3151(2) 1.2029(8)
H26 H 0.95490 0.28850 1.16490
C22 C 0.8397(2) 0.3192(2) 1.0779(6)
H27 H 0.83440 0.29530 0.95770
#END
