
#######################################################################
#
#                 Cambridge Crystallographic Data Centre
#                                CCDC
#
#######################################################################
#
# If this CIF has been generated from an entry in the Cambridge
# Structural Database, then it will include bibliographic, chemical,
# crystal, experimental, refinement or atomic coordinate data resulting
# from the CCDC's data processing and validation procedures.
#
#######################################################################

data_CSD_CIF_POPNOX
_audit_creation_date 1995-10-19
_audit_creation_method CSD-ConQuest-V1
_database_code_CSD POPNOX
_database_code_depnum_ccdc_archive 'CCDC 1236891'
_chemical_formula_sum 'C13 H13 N1 O6'
_chemical_formula_moiety
;
C13 H13 N1 O6
;
_journal_coden_Cambridge 194
_journal_volume 42
_journal_year 1994
_journal_page_first 1562
_journal_name_full 'Chem.Pharm.Bull. '
loop_
_publ_author_name
"K.Harada"
"E.Kaji"
"K.Takahashi"
"S.Zen"
_chemical_name_systematic
;
Methyl \a-hydroxy-3-methoxycarbonyl-4H-1,2-benzoxazine-4-acetate
;
_cell_volume   1302.538
_exptl_crystal_density_diffrn 1.424
_diffrn_ambient_temperature ?
_diffrn_special_details
;
The study was carried out at room temperature,in the range 283-303K

;
#These two values have been output from a single CSD field.
_refine_ls_R_factor_gt 0.072
_refine_ls_wR_factor_gt 0.072
_symmetry_cell_setting monoclinic
_symmetry_space_group_name_H-M 'P 21/n'
_symmetry_Int_Tables_number 14
loop_
_symmetry_equiv_pos_site_id
_symmetry_equiv_pos_as_xyz
1 x,y,z
2 1/2-x,1/2+y,1/2-z
3 -x,-y,-z
4 -1/2+x,-1/2-y,-1/2+z
_cell_length_a 8.584
_cell_length_b 19.259
_cell_length_c 8.752
_cell_angle_alpha 90
_cell_angle_beta 115.81
_cell_angle_gamma 90
_cell_formula_units_Z 4
loop_
_atom_type_symbol
_atom_type_radius_bond
C 0.68
N 0.68
O 0.68
loop_
_atom_site_label
_atom_site_type_symbol
_atom_site_fract_x
_atom_site_fract_y
_atom_site_fract_z
O1 O 0.2830(6) -0.1798(2) 0.9340(5)
O2 O 0.2458(5) -0.0139(2) 0.5355(5)
O3 O 0.3532(6) -0.1193(2) 0.5316(5)
O4 O 0.2781(5) -0.0225(2) 1.0416(5)
O5 O 0.3875(6) 0.0687(2) 0.8669(6)
O6 O 0.1109(5) 0.0986(2) 0.7089(5)
N1 N 0.3260(6) -0.1518(2) 0.8075(6)
C1 C 0.2374(8) -0.0987(3) 0.7261(7)
C2 C 0.0943(7) -0.0626(3) 0.7525(7)
C3 C 0.0144(8) -0.1159(3) 0.8196(7)
C4 C -0.1564(9) -0.1116(3) 0.7992(8)
C5 C -0.218(1) -0.1606(4) 0.876(1)
C6 C -0.113(1) -0.2123(4) 0.974(1)
C7 C 0.055(1) -0.2184(3) 0.9937(9)
C8 C 0.1135(8) -0.1703(3) 0.9145(7)
C9 C 0.2798(8) -0.0722(3) 0.5879(7)
C10 C 0.384(1) -0.0978(4) 0.386(1)
C11 C 0.1589(8) -0.0006(3) 0.8797(7)
C12 C 0.235(1) 0.0582(3) 0.8210(8)
C13 C 0.167(1) 0.1596(3) 0.6467(9)
#END
