
#######################################################################
#
#                 Cambridge Crystallographic Data Centre
#                                CCDC
#
#######################################################################
#
# If this CIF has been generated from an entry in the Cambridge
# Structural Database, then it will include bibliographic, chemical,
# crystal, experimental, refinement or atomic coordinate data resulting
# from the CCDC's data processing and validation procedures.
#
#######################################################################

data_CSD_CIF_POPQER
_audit_creation_date 2009-09-08
_audit_creation_method CSD-ConQuest-V1
_database_code_CSD POPQER
_database_code_depnum_ccdc_archive 'CCDC 701790'
_chemical_formula_sum 'C25 H28 N4 O3'
_chemical_formula_moiety
;
C25 H28 N4 O3
;
_journal_coden_Cambridge 1336
_journal_volume 11
_journal_year 2009
_journal_page_first 245
_journal_name_full 'Org.Lett. '
loop_
_publ_author_name
"S.Simonovic"
"J.-C.Frison"
"H.Koyuncu"
"A.C.Whitwood"
"R.E.Douthwaite"
_chemical_name_systematic
;
(R,R,S)-2-(3-Isopropyl-1-phenyl-4,5,5a,6,7,8,9,9a-octahydroimidazo[1,2-a]quino
xalin-3-ium-4-yl)-4-nitrophenolate
;
_cell_volume   1097.972
_exptl_crystal_colour 'yellow'
_exptl_crystal_density_diffrn 1.308
_exptl_special_details
;
Absolute configuration

;
_exptl_crystal_description 'block'
_exptl_crystal_preparation 'dichloromethane'
_diffrn_ambient_temperature 110
#These two values have been output from a single CSD field.
_refine_ls_R_factor_gt 0.0298
_refine_ls_wR_factor_gt 0.0298
_symmetry_cell_setting monoclinic
_symmetry_space_group_name_H-M 'P 21'
_symmetry_Int_Tables_number 4
loop_
_symmetry_equiv_pos_site_id
_symmetry_equiv_pos_as_xyz
1 x,y,z
2 -x,1/2+y,-z
_cell_length_a 9.53356(12)
_cell_length_b 8.72657(10)
_cell_length_c 13.20228(16)
_cell_angle_alpha 90
_cell_angle_beta 91.5371(11)
_cell_angle_gamma 90
_cell_formula_units_Z 2
loop_
_atom_type_symbol
_atom_type_radius_bond
C 0.68
H 0.23
N 0.68
O 0.68
loop_
_atom_site_label
_atom_site_type_symbol
_atom_site_fract_x
_atom_site_fract_y
_atom_site_fract_z
C1 C 0.81890(18) -0.18058(19) 0.42190(13)
C2 C 0.82513(18) -0.2294(2) 0.31792(13)
H1 H 0.75510 -0.29350 0.29180
C3 C 0.93101(19) -0.18431(19) 0.25599(13)
H2 H 0.93120 -0.21600 0.18870
C4 C 1.03876(18) -0.0903(2) 0.29477(13)
C5 C 1.03440(17) -0.03361(19) 0.39362(13)
H3 H 1.10460 0.03170 0.41800
C6 C 0.92589(17) -0.07463(19) 0.45500(12)
C7 C 0.92557(17) -0.0173(2) 0.56253(12)
H4 H 0.999(2) 0.062(2) 0.5700(14)
C8 C 0.78606(17) 0.04623(19) 0.59646(12)
C9 C 0.69352(18) 0.1894(2) 0.43946(13)
H5 H 0.78690 0.17060 0.41280
C10 C 0.5856(2) 0.1017(2) 0.37497(13)
H6 H 0.49290 0.12870 0.39540
H7 H 0.59980 -0.00640 0.38390
H8 H 0.59610 0.12780 0.30490
C11 C 0.6650(2) 0.3607(2) 0.43754(14)
H9 H 0.72780 0.41120 0.48480
H10 H 0.56990 0.37950 0.45600
H11 H 0.67950 0.39960 0.37060
C12 C 0.58057(18) 0.1620(2) 0.60947(13)
H12 H 0.501(2) 0.216(3) 0.5880(16)
C13 C 0.61021(17) 0.0955(2) 0.69928(12)
C14 C 0.52305(17) 0.0902(2) 0.79024(12)
C15 C 0.48727(19) 0.2270(2) 0.83767(14)
H13 H 0.51710 0.32030 0.81190
C16 C 0.4067(2) 0.2226(3) 0.92371(15)
H14 H 0.38120 0.31360 0.95490
C17 C 0.36422(19) 0.0844(3) 0.96330(14)
H15 H 0.31300 0.08250 1.02220
C18 C 0.39766(19) -0.0516(3) 0.91556(14)
H16 H 0.36700 -0.14450 0.94150
C19 C 0.47742(18) -0.0490(2) 0.82857(14)
H17 H 0.50000 -0.14010 0.79630
C20 C 0.96754(17) -0.0910(2) 0.73604(13)
H18 H 1.012(2) 0.012(2) 0.7392(15)
C21 C 0.81793(17) -0.0660(2) 0.77117(13)
H19 H 0.769(2) -0.160(3) 0.7753(15)
C22 C 0.82230(18) 0.0090(2) 0.87575(13)
H20 H 0.72760 0.02740 0.89810
H21 H 0.87080 0.10660 0.87290
C23 C 0.89963(19) -0.0988(3) 0.95008(13)
H22 H 0.90590 -0.05080 1.01630
H23 H 0.84620 -0.19280 0.95640
C24 C 1.04627(19) -0.1371(2) 0.91579(13)
H24 H 1.08830 -0.21190 0.96170
H25 H 1.10370 -0.04540 0.91860
C25 C 1.04442(19) -0.2009(2) 0.80859(13)
H26 H 0.99790 -0.29970 0.80730
H27 H 1.13990 -0.21540 0.78690
N1 N 1.15268(16) -0.04699(18) 0.23234(11)
N2 N 0.97309(15) -0.14029(18) 0.63110(11)
H28 H 0.915(3) -0.219(3) 0.6186(19)
N3 N 0.74040(15) 0.02446(16) 0.69125(10)
N4 N 0.69088(15) 0.13228(15) 0.54637(10)
O1 O 0.72591(13) -0.22706(15) 0.48161(9)
O2 O 1.15472(16) -0.09556(18) 0.14406(10)
O3 O 1.24538(14) 0.03859(17) 0.26773(10)
#END
