
#######################################################################
#
#                 Cambridge Crystallographic Data Centre
#                                CCDC
#
#######################################################################
#
# If this CIF has been generated from an entry in the Cambridge
# Structural Database, then it will include bibliographic, chemical,
# crystal, experimental, refinement or atomic coordinate data resulting
# from the CCDC's data processing and validation procedures.
#
#######################################################################

data_CSD_CIF_POQBON
_audit_creation_date 2009-09-08
_audit_creation_method CSD-ConQuest-V1
_database_code_CSD POQBON
_database_code_depnum_ccdc_archive 'CCDC 723773'
_chemical_formula_sum 'C17 H19 N3 O6'
_chemical_formula_moiety
;
C17 H19 N3 O6
;
_journal_coden_Cambridge 1336
_journal_volume 11
_journal_year 2009
_journal_page_first 181
_journal_name_full 'Org.Lett. '
loop_
_publ_author_name
"A.Martins"
"S.Lemouzy"
"M.Lautens"
_chemical_name_systematic
;
t-butyl 
(4-nitrophenyl)(2-oxo-4,6a-dihydro-2H-cyclopenta[d][1,3]oxazol-3(3aH)-yl)carba
mate
;
_cell_volume   1734.325
_exptl_crystal_colour 'colorless'
_exptl_crystal_density_diffrn 1.384
_exptl_crystal_description 'plate'
_diffrn_ambient_temperature 150
#These two values have been output from a single CSD field.
_refine_ls_R_factor_gt 0.0498
_refine_ls_wR_factor_gt 0.0498
_symmetry_cell_setting monoclinic
_symmetry_space_group_name_H-M 'P 21/c'
_symmetry_Int_Tables_number 14
loop_
_symmetry_equiv_pos_site_id
_symmetry_equiv_pos_as_xyz
1 x,y,z
2 -x,1/2+y,1/2-z
3 -x,-y,-z
4 x,-1/2-y,-1/2+z
_cell_length_a 5.8184(2)
_cell_length_b 20.7156(10)
_cell_length_c 14.5591(6)
_cell_angle_alpha 90
_cell_angle_beta 98.768(3)
_cell_angle_gamma 90
_cell_formula_units_Z 4
loop_
_atom_type_symbol
_atom_type_radius_bond
C 0.68
H 0.23
N 0.68
O 0.68
loop_
_atom_site_label
_atom_site_type_symbol
_atom_site_fract_x
_atom_site_fract_y
_atom_site_fract_z
O1 O 0.6877(2) 0.25182(6) 0.78239(9)
O2 O 0.7369(2) 0.26611(6) 0.63288(9)
O3 O -0.1627(3) 0.00898(7) 0.33221(11)
O4 O 0.1701(3) -0.03163(7) 0.39098(10)
O5 O 0.2638(2) 0.34233(6) 0.63158(9)
O6 O 0.0756(2) 0.31510(6) 0.48777(9)
N1 N 0.3923(2) 0.22872(7) 0.67335(10)
N2 N 0.2585(2) 0.23952(7) 0.58747(10)
N3 N 0.0285(3) 0.01307(8) 0.38132(12)
C1 C 0.6168(3) 0.25088(9) 0.68980(13)
C2 C 0.5061(3) 0.22337(10) 0.82953(13)
H1 H 0.48340 0.24860 0.88600
C3 C 0.5525(3) 0.15381(10) 0.85179(14)
H2 H 0.69160 0.13800 0.88730
C4 C 0.3765(3) 0.11721(10) 0.81613(14)
H3 H 0.37580 0.07150 0.82170
C5 C 0.1776(3) 0.15526(9) 0.76578(13)
H4 H 0.04650 0.15710 0.80180
H5 H 0.12200 0.13660 0.70380
C6 C 0.2849(3) 0.22219(9) 0.75754(12)
H6 H 0.17540 0.25820 0.76570
C7 C 0.2015(3) 0.18461(9) 0.53064(12)
C8 C 0.3608(3) 0.13464(10) 0.53449(14)
H7 H 0.50920 0.13890 0.57150
C9 C 0.3051(3) 0.07896(10) 0.48508(15)
H8 H 0.41360 0.04450 0.48820
C10 C 0.0909(3) 0.07355(9) 0.43102(13)
C11 C -0.0684(3) 0.12328(9) 0.42370(14)
H9 H -0.21430 0.11920 0.38470
C12 C -0.0123(3) 0.17919(10) 0.47417(14)
H10 H -0.12010 0.21390 0.47010
C13 C 0.1862(3) 0.30217(9) 0.56205(13)
C14 C 0.1958(3) 0.41126(9) 0.62697(13)
C15 C 0.3355(3) 0.43711(10) 0.71545(14)
H11 H 0.50180 0.43310 0.71200
H12 H 0.29860 0.41230 0.76860
H13 H 0.29660 0.48260 0.72300
C16 C 0.2686(3) 0.44379(10) 0.54282(14)
H14 H 0.43080 0.43290 0.53910
H15 H 0.25340 0.49070 0.54850
H16 H 0.16880 0.42890 0.48650
C17 C -0.0625(3) 0.41593(10) 0.62927(15)
H17 H -0.10030 0.39280 0.68380
H18 H -0.14780 0.39660 0.57270
H19 H -0.10690 0.46140 0.63280
#END
