
#######################################################################
#
#                 Cambridge Crystallographic Data Centre
#                                CCDC
#
#######################################################################
#
# If this CIF has been generated from an entry in the Cambridge
# Structural Database, then it will include bibliographic, chemical,
# crystal, experimental, refinement or atomic coordinate data resulting
# from the CCDC's data processing and validation procedures.
#
#######################################################################

data_CSD_CIF_POQPOB
_audit_creation_date 2009-09-08
_audit_creation_method CSD-ConQuest-V1
_database_code_CSD POQPOB
_database_code_depnum_ccdc_archive 'CCDC 723768'
_chemical_formula_sum 'C35 H32 N4 O3'
_chemical_formula_moiety
;
C35 H32 N4 O3
;
_journal_coden_Cambridge 1336
_journal_volume 11
_journal_year 2009
_journal_page_first 125
_journal_name_full 'Org.Lett. '
loop_
_publ_author_name
"R.Scheffelaar"
"M.Paravidino"
"D.Muilwijk"
"M.Lutz"
"A.L.Spek"
"F.J.J.de Kanter"
"R.V.A.Orru"
"E.Ruijter"
_chemical_name_systematic
;
2-Methyl-N-(4-nitrobenzyl)-1-(5,7,7a-triphenyl-7,7a-dihydro[1,3]oxazolo[5,4-b]
pyridin-2-yl)-1-propanamine
;
_cell_volume   1451.820
_exptl_crystal_colour 'yellow'
_exptl_crystal_density_diffrn 1.273
_exptl_crystal_description 'needle'
_exptl_crystal_preparation 'benzene/pentane'
_diffrn_ambient_temperature 150
#These two values have been output from a single CSD field.
_refine_ls_R_factor_gt 0.0516
_refine_ls_wR_factor_gt 0.0516
_symmetry_cell_setting triclinic
_symmetry_space_group_name_H-M 'P -1'
_symmetry_Int_Tables_number 2
loop_
_symmetry_equiv_pos_site_id
_symmetry_equiv_pos_as_xyz
1 x,y,z
2 -x,-y,-z
_cell_length_a 6.2462(1)
_cell_length_b 10.9131(3)
_cell_length_c 21.5977(6)
_cell_angle_alpha 89.2207(11)
_cell_angle_beta 85.5827(13)
_cell_angle_gamma 81.5275(13)
_cell_formula_units_Z 2
loop_
_atom_type_symbol
_atom_type_radius_bond
C 0.68
H 0.23
N 0.68
O 0.68
loop_
_atom_site_label
_atom_site_type_symbol
_atom_site_fract_x
_atom_site_fract_y
_atom_site_fract_z
O1 O 0.47137(16) 0.23566(10) 0.24605(5)
O2 O -0.2554(4) 0.15705(19) -0.08830(8)
O3 O -0.3890(3) 0.3441(2) -0.05878(8)
N1 N 0.4390(2) 0.37872(11) 0.32488(6)
N2 N 0.1164(2) 0.21687(11) 0.23490(6)
N3 N 0.5411(3) 0.13644(16) 0.12197(8)
H1 H 0.669(4) 0.141(2) 0.1388(11)
N4 N -0.2530(4) 0.2510(2) -0.05738(9)
C1 C 0.3516(2) 0.32332(13) 0.28484(7)
C2 C 0.1150(2) 0.32711(13) 0.27456(7)
C3 C -0.0036(2) 0.32486(14) 0.34032(7)
H2 H -0.16170 0.35320 0.33640
C4 C 0.0825(3) 0.42125(15) 0.37823(7)
H3 H -0.017(3) 0.4626(15) 0.4091(8)
C5 C 0.2839(2) 0.44984(13) 0.36807(7)
C6 C 0.3139(3) 0.17705(14) 0.21930(7)
C7 C 0.0224(2) 0.44084(14) 0.23715(7)
C8 C 0.1249(3) 0.54495(14) 0.22844(8)
H4 H 0.25720 0.54870 0.24680
C9 C 0.0349(3) 0.64375(16) 0.19298(9)
H5 H 0.10590 0.71480 0.18730
C10 C -0.1574(3) 0.63937(16) 0.16589(8)
H6 H -0.21810 0.70690 0.14150
C11 C -0.2609(3) 0.53582(16) 0.17455(8)
H7 H -0.39350 0.53270 0.15630
C12 C -0.1719(3) 0.43707(15) 0.20970(7)
H8 H -0.24330 0.36620 0.21520
C13 C 0.0201(3) 0.19633(14) 0.36921(7)
C14 C -0.1419(3) 0.12359(15) 0.36350(8)
H9 H -0.26710 0.15600 0.34290
C15 C -0.1234(3) 0.00433(16) 0.38745(9)
H10 H -0.23560 -0.04430 0.38310
C16 C 0.0571(3) -0.04406(17) 0.41759(9)
H11 H 0.07000 -0.12590 0.43380
C17 C 0.2192(3) 0.02740(17) 0.42402(9)
H12 H 0.34350 -0.00540 0.44490
C18 C 0.2011(3) 0.14664(16) 0.40012(8)
H13 H 0.31330 0.19510 0.40490
C19 C 0.3750(3) 0.54761(13) 0.40045(7)
C20 C 0.2888(3) 0.59339(16) 0.45821(8)
H14 H 0.16550 0.56300 0.47770
C21 C 0.3802(3) 0.68287(16) 0.48780(9)
H15 H 0.31940 0.71310 0.52730
C22 C 0.5590(3) 0.72812(16) 0.46009(9)
H16 H 0.62200 0.78890 0.48060
C23 C 0.6459(3) 0.68480(15) 0.40257(9)
H17 H 0.76820 0.71630 0.38320
C24 C 0.5547(3) 0.59487(14) 0.37280(8)
H18 H 0.61580 0.56540 0.33320
C25 C 0.4044(3) 0.08220(15) 0.17042(8)
H19 H 0.27760 0.05980 0.14980
C26 C 0.5237(3) -0.03896(16) 0.19618(10)
H20 H 0.54270 -0.10100 0.16180
C27 C 0.3848(4) -0.08882(19) 0.24814(12)
H21 H 0.45090 -0.17260 0.25910
H22 H 0.23940 -0.09150 0.23450
H23 H 0.37380 -0.03480 0.28450
C28 C 0.7501(3) -0.0289(2) 0.21565(12)
H24 H 0.74080 0.03820 0.24590
H25 H 0.84370 -0.01120 0.17910
H26 H 0.81140 -0.10720 0.23450
C29 C 0.4466(3) 0.25769(19) 0.09930(9)
H27 H 0.56120 0.29550 0.07510
H28 H 0.39410 0.31200 0.13530
C30 C 0.2608(3) 0.25218(18) 0.05914(8)
C31 C 0.0973(3) 0.35244(18) 0.05753(8)
H29 H 0.10040 0.42180 0.08340
C32 C -0.0704(3) 0.35386(19) 0.01915(9)
H30 H -0.18110 0.42340 0.01810
C33 C -0.0728(4) 0.2513(2) -0.01764(9)
C34 C 0.0863(4) 0.1497(2) -0.01702(9)
H31 H 0.08170 0.08040 -0.04270
C35 C 0.2532(4) 0.14998(19) 0.02157(9)
H32 H 0.36330 0.08010 0.02250
#END
