
#######################################################################
#
#                 Cambridge Crystallographic Data Centre
#                                CCDC
#
#######################################################################
#
# If this CIF has been generated from an entry in the Cambridge
# Structural Database, then it will include bibliographic, chemical,
# crystal, experimental, refinement or atomic coordinate data resulting
# from the CCDC's data processing and validation procedures.
#
#######################################################################

data_CSD_CIF_POQQAN
_audit_creation_date 1998-11-19
_audit_creation_method CSD-ConQuest-V1
_database_code_CSD POQQAN
_database_code_depnum_ccdc_archive 'CCDC 1236999'
_chemical_formula_sum 'C16 H18 N2 O2'
_chemical_formula_moiety
;
C16 H18 N2 O2
;
_journal_coden_Cambridge 15
_journal_volume 75
_journal_year 1997
_journal_page_first 1830
_journal_name_full 'Can.J.Chem. '
loop_
_publ_author_name
"W.Kliegel"
"J.Metge"
"S.J.Rettig"
"J.Trotter"
_chemical_name_systematic
;
C-(4-Dimethylaminophenyl)-N-(2-hydroxyphenylmethyl)nitrone
;
_chemical_melting_point 474.15
_cell_volume   1418.690
_exptl_crystal_colour 'pale yellow'
_exptl_crystal_density_diffrn 1.265
_exptl_crystal_preparation 'ethyl acetate'
_diffrn_ambient_temperature ?
_diffrn_special_details
;
The study was carried out at room temperature,in the range 283-303K

;
#These two values have been output from a single CSD field.
_refine_ls_R_factor_gt 0.032
_refine_ls_wR_factor_gt 0.032
_symmetry_cell_setting monoclinic
_symmetry_space_group_name_H-M 'P 21/a'
_symmetry_Int_Tables_number 14
loop_
_symmetry_equiv_pos_site_id
_symmetry_equiv_pos_as_xyz
1 x,y,z
2 1/2-x,1/2+y,-z
3 -x,-y,-z
4 -1/2+x,-1/2-y,z
_cell_length_a 12.2319(8)
_cell_length_b 7.071(1)
_cell_length_c 17.2005(9)
_cell_angle_alpha 90
_cell_angle_beta 107.520(4)
_cell_angle_gamma 90
_cell_formula_units_Z 4
loop_
_atom_type_symbol
_atom_type_radius_bond
C 0.68
H 0.23
N 0.68
O 0.68
loop_
_atom_site_label
_atom_site_type_symbol
_atom_site_fract_x
_atom_site_fract_y
_atom_site_fract_z
O1 O 0.37986(9) 0.1588(2) 0.28554(8)
O2 O 0.4404(1) 0.3113(2) 0.17254(9)
N1 N 0.2665(1) 0.1598(2) 0.25789(8)
N2 N 0.2872(1) 0.1491(2) 0.64420(8)
C1 C 0.2183(2) 0.1708(3) 0.1674(1)
C2 C 0.2375(1) 0.3613(3) 0.13453(9)
C3 C 0.3467(1) 0.4187(3) 0.13657(10)
C4 C 0.3610(2) 0.5893(4) 0.1002(1)
C5 C 0.2675(2) 0.6995(4) 0.0631(1)
C6 C 0.1598(2) 0.6461(4) 0.0617(1)
C7 C 0.1448(2) 0.4763(3) 0.0975(1)
C8 C 0.2001(1) 0.1543(2) 0.3037(1)
C9 C 0.2309(1) 0.1491(2) 0.39115(10)
C10 C 0.3423(1) 0.1462(3) 0.4454(1)
C11 C 0.3602(1) 0.1443(3) 0.5280(1)
C12 C 0.2689(1) 0.1468(2) 0.5616(1)
C13 C 0.1575(1) 0.1469(3) 0.5071(1)
C14 C 0.1401(1) 0.1484(3) 0.4246(1)
C15 C 0.4016(2) 0.1581(4) 0.7000(1)
C16 C 0.1921(2) 0.1616(4) 0.6775(1)
H1 H 0.260(1) 0.066(3) 0.147(1)
H2 H 0.132(1) 0.141(3) 0.154(1)
H3 H 0.439(2) 0.620(3) 0.100(1)
H4 H 0.279(2) 0.814(3) 0.039(1)
H5 H 0.094(2) 0.722(3) 0.036(1)
H6 H 0.066(1) 0.434(2) 0.0978(9)
H7 H 0.117(1) 0.154(2) 0.2722(10)
H8 H 0.410(1) 0.143(2) 0.4239(9)
H9 H 0.439(1) 0.14(2) 0.5627(10)
H10 H 0.090(1) 0.145(2) 0.5275(10)
H11 H 0.061(1) 0.151(2) 0.3885(10)
H12 H 0.397(2) 0.151(3) 0.756(2)
H13 H 0.445(2) 0.278(3) 0.691(2)
H14 H 0.455(2) 0.057(3) 0.690(1)
H15 H 0.221(2) 0.176(3) 0.736(2)
H16 H 0.138(2) 0.055(3) 0.659(1)
H17 H 0.142(2) 0.278(3) 0.656(1)
H18 H 0.417(2) 0.237(4) 0.224(2)
#END
