
#######################################################################
#
#                 Cambridge Crystallographic Data Centre
#                                CCDC
#
#######################################################################
#
# If this CIF has been generated from an entry in the Cambridge
# Structural Database, then it will include bibliographic, chemical,
# crystal, experimental, refinement or atomic coordinate data resulting
# from the CCDC's data processing and validation procedures.
#
#######################################################################

data_CSD_CIF_POQQUJ
_audit_creation_date 2014-10-27
_audit_creation_method CSD-ConQuest-V1
_database_code_CSD POQQUJ
_database_code_depnum_ccdc_archive 'CCDC 960014'
_chemical_formula_sum 'C16 H19 N1 O7'
_chemical_formula_moiety
;
C16 H19 N1 O7
;
_journal_coden_Cambridge 1220
_journal_volume 20
_journal_year 2014
_journal_page_first 10160
_journal_name_full 'Chem.-Eur.J. '
loop_
_publ_author_name
"I.A.Yaremenko"
"A.O.Terent'ev"
"V.A.Vil'"
"R.A.Novikov"
"V.V.Chernyshev"
"V.A.Tafeenko"
"D.O.Levitsky"
"F.Fleury"
"G.I.Nikishin"
_chemical_name_systematic
;
4-(1,4-dimethyl-7-(4-nitrobenzyl)-2,3,5,6-tetraoxabicyclo[2.2.1]hept-7-yl)buta
n-2-one
;
_cell_volume   1608.628
_exptl_crystal_density_diffrn 1.393
_diffrn_ambient_temperature 295
#These two values have been output from a single CSD field.
_refine_ls_R_factor_gt 0.0504
_refine_ls_wR_factor_gt 0.0504
_symmetry_cell_setting monoclinic
_symmetry_space_group_name_H-M 'P 21/n'
_symmetry_Int_Tables_number 14
loop_
_symmetry_equiv_pos_site_id
_symmetry_equiv_pos_as_xyz
1 x,y,z
2 1/2-x,1/2+y,1/2-z
3 -x,-y,-z
4 -1/2+x,-1/2-y,-1/2+z
_cell_length_a 10.2138(7)
_cell_length_b 9.3874(6)
_cell_length_c 16.778(6)
_cell_angle_alpha 90
_cell_angle_beta 90.512(4)
_cell_angle_gamma 90
_cell_formula_units_Z 4
loop_
_atom_type_symbol
_atom_type_radius_bond
C 0.68
H 0.23
N 0.68
O 0.68
loop_
_atom_site_label
_atom_site_type_symbol
_atom_site_fract_x
_atom_site_fract_y
_atom_site_fract_z
O1 O 0.83963(19) 0.47520(18) 0.1703(1)
O2 O 0.83123(18) 0.56445(17) 0.09563(11)
O3 O 0.61497(18) 0.44878(19) 0.16392(11)
O4 O 0.60778(18) 0.53375(18) 0.08816(12)
O5 O 0.4089(2) 0.1250(2) -0.03150(15)
O6 O 1.0945(3) -0.2972(2) 0.19454(18)
O7 O 1.1961(3) -0.1458(3) 0.26826(16)
N1 N 1.1205(2) -0.1756(3) 0.21462(16)
C1 C 0.7465(2) 0.3387(2) 0.06877(13)
C2 C 0.7373(2) 0.3751(3) 0.15766(15)
C3 C 0.7287(2) 0.4987(2) 0.05068(15)
C4 C 0.7289(3) 0.5591(3) -0.03197(17)
H1 H 0.73420 0.66110 -0.02920
H2 H 0.64970 0.53200 -0.05930
H3 H 0.80300 0.52290 -0.06040
C5 C 0.7401(3) 0.2653(3) 0.22305(16)
H4 H 0.82360 0.21830 0.22360
H5 H 0.67220 0.19640 0.21370
H6 H 0.72640 0.31100 0.27340
C6 C 0.6330(2) 0.2433(2) 0.04091(15)
H7 H 0.63710 0.15490 0.07080
H8 H 0.55140 0.29000 0.05450
C7 C 0.6285(2) 0.2070(3) -0.04695(15)
H9 H 0.63850 0.29420 -0.07730
H10 H 0.70260 0.14620 -0.05900
C8 C 0.5053(3) 0.1335(3) -0.07426(18)
C9 C 0.5118(4) 0.0693(4) -0.15604(19)
H11 H 0.56950 -0.01150 -0.15500
H12 H 0.54430 0.13880 -0.19290
H13 H 0.42590 0.03930 -0.17250
C10 C 0.9425(2) 0.1644(2) 0.08743(13)
C11 C 0.8992(2) 0.0242(2) 0.07695(13)
H14 H 0.83060 0.00560 0.04170
C12 C 0.9570(2) -0.0872(2) 0.11820(14)
H15 H 0.92790 -0.18020 0.11100
C13 C 1.0582(2) -0.0577(3) 0.17000(14)
C14 C 1.1044(2) 0.0788(3) 0.18225(15)
H16 H 1.17290 0.09650 0.21780
C15 C 1.0455(2) 0.1886(3) 0.13997(15)
H17 H 1.07600 0.28110 0.14700
C16 C 0.8834(2) 0.2876(2) 0.04167(14)
H18 H 0.87730 0.26070 -0.01400
H19 H 0.94330 0.36760 0.04530
#END
