
#######################################################################
#
#                 Cambridge Crystallographic Data Centre
#                                CCDC
#
#######################################################################
#
# If this CIF has been generated from an entry in the Cambridge
# Structural Database, then it will include bibliographic, chemical,
# crystal, experimental, refinement or atomic coordinate data resulting
# from the CCDC's data processing and validation procedures.
#
#######################################################################

data_CSD_CIF_POQTAR
_audit_creation_date 2009-09-08
_audit_creation_method CSD-ConQuest-V1
_database_code_CSD POQTAR
_database_code_depnum_ccdc_archive 'CCDC 658436'
_chemical_formula_sum 'C31 H50 N2 O6'
_chemical_formula_moiety
;
C31 H50 N2 O6
;
_journal_coden_Cambridge 200
_journal_volume 73
_journal_year 2008
_journal_page_first 657
_journal_name_full 'Steroids '
loop_
_publ_author_name
"Y.Lopez"
"K.M.Ruiz-Perez"
"R.Yepez"
"R.Santillan"
"M.Flores-Alamo"
"M.A.Iglesias-Arteaga"
_chemical_name_systematic
;
anti-3\b,5\a-Diacetoxy-6-nitroiminocholestane
;
_chemical_melting_point 438.15
_cell_volume   3083.688
_exptl_crystal_colour 'colorless'
_exptl_crystal_density_diffrn 1.178
_exptl_special_details
;
Melting point range 438.15-440.15K

;
_exptl_crystal_description 'prism'
_exptl_crystal_preparation 'dichloromethane/hexane'
_diffrn_ambient_temperature 293
#These two values have been output from a single CSD field.
_refine_ls_R_factor_gt 0.0711
_refine_ls_wR_factor_gt 0.0711
_symmetry_cell_setting orthorhombic
_symmetry_space_group_name_H-M 'P 21 21 21'
_symmetry_Int_Tables_number 19
loop_
_symmetry_equiv_pos_site_id
_symmetry_equiv_pos_as_xyz
1 x,y,z
2 1/2-x,-y,1/2+z
3 1/2+x,1/2-y,-z
4 -x,1/2+y,1/2-z
_cell_length_a 9.4166(2)
_cell_length_b 11.7206(3)
_cell_length_c 27.9400(7)
_cell_angle_alpha 90
_cell_angle_beta 90
_cell_angle_gamma 90
_cell_formula_units_Z 4
loop_
_atom_type_symbol
_atom_type_radius_bond
C 0.68
H 0.23
N 0.68
O 0.68
loop_
_atom_site_label
_atom_site_type_symbol
_atom_site_fract_x
_atom_site_fract_y
_atom_site_fract_z
C1 C 0.2821(3) 0.9508(3) 0.63028(12)
H1 H 0.23720 1.02080 0.61960
H2 H 0.32060 0.91270 0.60230
C2 C 0.1693(3) 0.8737(3) 0.65309(13)
H3 H 0.12320 0.91420 0.67910
H4 H 0.09760 0.85490 0.62940
C3 C 0.2354(3) 0.7647(3) 0.67217(12)
H5 H 0.27120 0.71900 0.64540
C4 C 0.3559(3) 0.7892(3) 0.70683(12)
H6 H 0.39990 0.71800 0.71640
H7 H 0.31820 0.82570 0.73530
C5 C 0.4671(3) 0.8664(3) 0.68399(11)
C6 C 0.5887(3) 0.8961(3) 0.71754(13)
C7 C 0.7094(3) 0.9605(3) 0.69489(13)
H8 H 0.75690 0.91200 0.67170
H9 H 0.77790 0.98150 0.71930
C8 C 0.6543(3) 1.0691(3) 0.66973(11)
H10 H 0.62620 1.12440 0.69430
C9 C 0.5260(3) 1.0452(2) 0.63769(11)
H11 H 0.55920 0.99440 0.61220
C10 C 0.4046(3) 0.9809(3) 0.66420(12)
C11 C 0.4782(3) 1.1565(3) 0.61318(13)
H12 H 0.44440 1.20940 0.63730
H13 H 0.39990 1.14000 0.59170
C12 C 0.5995(3) 1.2129(3) 0.58461(12)
H14 H 0.62570 1.16360 0.55810
H15 H 0.56590 1.28450 0.57130
C13 C 0.7307(3) 1.2356(3) 0.61546(11)
C14 C 0.7718(3) 1.1217(3) 0.63943(12)
H16 H 0.78990 1.06780 0.61330
C15 C 0.9153(3) 1.1461(3) 0.66228(13)
H17 H 0.97030 1.07660 0.66580
H18 H 0.90400 1.18140 0.69350
C16 C 0.9867(4) 1.2285(3) 0.62682(12)
H19 H 1.06710 1.19190 0.61150
H20 H 1.02020 1.29610 0.64340
C17 C 0.8732(3) 1.2613(3) 0.58903(11)
H21 H 0.88120 1.20580 0.56290
C18 C 0.6996(4) 1.3298(3) 0.65193(13)
H22 H 0.67430 1.39860 0.63540
H23 H 0.78260 1.34310 0.67110
H24 H 0.62250 1.30660 0.67220
C19 C 0.3474(4) 1.0531(3) 0.70603(12)
H25 H 0.42370 1.07110 0.72750
H26 H 0.27580 1.01070 0.72290
H27 H 0.30690 1.12230 0.69380
C20 C 0.9006(3) 1.3807(3) 0.56697(12)
H28 H 0.88830 1.43790 0.59220
C21 C 0.7963(4) 1.4079(3) 0.52685(14)
H29 H 0.70120 1.40630 0.53920
H30 H 0.80570 1.35220 0.50190
H31 H 0.81640 1.48240 0.51420
C22 C 1.0539(3) 1.3873(3) 0.54924(13)
H32 H 1.06890 1.32570 0.52660
H33 H 1.11630 1.37370 0.57630
C23 C 1.0992(4) 1.4990(3) 0.52532(14)
H34 H 1.04930 1.50720 0.49510
H35 H 1.07250 1.56260 0.54570
C24 C 1.2582(4) 1.5029(3) 0.51629(13)
H36 H 1.28560 1.43370 0.49960
H37 H 1.30660 1.50310 0.54690
C25 C 1.3099(4) 1.6047(3) 0.48739(14)
H38 H 1.24880 1.61200 0.45920
C26 C 1.2983(4) 1.7150(3) 0.51605(17)
H39 H 1.33020 1.77780 0.49680
H40 H 1.35620 1.70950 0.54420
H41 H 1.20120 1.72710 0.52520
C27 C 1.4622(4) 1.5883(4) 0.47006(16)
H42 H 1.49140 1.65410 0.45210
H43 H 1.46720 1.52190 0.45000
H44 H 1.52380 1.57860 0.49710
C28 C 0.0383(4) 0.6358(3) 0.67500(14)
C29 C -0.0481(3) 0.5628(3) 0.70744(14)
H45 H -0.01910 0.57540 0.74000
H46 H -0.03410 0.48410 0.69930
H47 H -0.14670 0.58200 0.70400
C30 C 0.6099(4) 0.7156(3) 0.64806(15)
C31 C 0.6448(4) 0.6596(3) 0.60210(14)
H48 H 0.59880 0.69940 0.57640
H49 H 0.61260 0.58190 0.60280
H50 H 0.74580 0.66110 0.59730
N1 N 0.5684(3) 0.8752(2) 0.76174(11)
N2 N 0.6775(4) 0.9139(4) 0.79340(13)
O1 O 0.6547(4) 1.0008(3) 0.81590(12)
O2 O 0.1339(2) 0.69771(17) 0.69956(8)
O3 O 0.5240(2) 0.80810(17) 0.64171(8)
O4 O 0.0268(3) 0.6397(2) 0.63216(10)
O5 O 0.6513(3) 0.6867(2) 0.68683(10)
O6 O 0.7794(4) 0.8521(3) 0.79771(13)
#END
