
#######################################################################
#
#                 Cambridge Crystallographic Data Centre
#                                CCDC
#
#######################################################################
#
# If this CIF has been generated from an entry in the Cambridge
# Structural Database, then it will include bibliographic, chemical,
# crystal, experimental, refinement or atomic coordinate data resulting
# from the CCDC's data processing and validation procedures.
#
#######################################################################

data_CSD_CIF_POQVEY
_audit_creation_date 2014-10-27
_audit_creation_method CSD-ConQuest-V1
_database_code_CSD POQVEY
_database_code_depnum_ccdc_archive 'CCDC 974195'
_chemical_formula_sum 'C26 H27 N3 O10'
_chemical_formula_moiety
;
C26 H27 N3 O10
;
_journal_coden_Cambridge 154
_journal_volume 67
_journal_year 2014
_journal_page_first 1189
_journal_name_full 'Aust.J.Chem. '
loop_
_publ_author_name
"J.F.Hooper"
"J.M.White"
"A.B.Holmes"
_chemical_name_systematic
;
(3-(benzyloxy)-9-cyano-7-(methoxymethoxy)-2,3,4,7,8,9-hexahydrooxonin-2-yl)met
hyl 3,5-dinitrobenzoate
;
_cell_volume   2582.234
_exptl_crystal_colour 'colorless'
_exptl_crystal_density_diffrn 1.393
_exptl_crystal_description 'plate'
_diffrn_ambient_temperature 130
#These two values have been output from a single CSD field.
_refine_ls_R_factor_gt 0.0477
_refine_ls_wR_factor_gt 0.0477
_symmetry_cell_setting orthorhombic
_symmetry_space_group_name_H-M 'P 21 21 21'
_symmetry_Int_Tables_number 19
loop_
_symmetry_equiv_pos_site_id
_symmetry_equiv_pos_as_xyz
1 x,y,z
2 1/2-x,-y,1/2+z
3 1/2+x,1/2-y,-z
4 -x,1/2+y,1/2-z
_cell_length_a 7.2957(3)
_cell_length_b 13.6588(4)
_cell_length_c 25.9129(9)
_cell_angle_alpha 90
_cell_angle_beta 90
_cell_angle_gamma 90
_cell_formula_units_Z 4
loop_
_atom_type_symbol
_atom_type_radius_bond
C 0.68
H 0.23
N 0.68
O 0.68
loop_
_atom_site_label
_atom_site_type_symbol
_atom_site_fract_x
_atom_site_fract_y
_atom_site_fract_z
C1 C 0.7985(8) 0.4862(3) 0.2059(2)
H1 H 0.71190 0.44530 0.18660
C2 C 0.9885(8) 0.4406(4) 0.2022(2)
H2 H 1.06860 0.47120 0.22790
C3 C 1.0790(8) 0.4489(4) 0.1489(2)
H3 H 1.08480 0.51750 0.13920
H4 H 1.20370 0.42480 0.15120
C4 C 0.9813(8) 0.3938(4) 0.1074(2)
H5 H 1.00500 0.32710 0.10530
C5 C 0.8648(8) 0.4299(4) 0.0733(2)
H6 H 0.81860 0.38660 0.04890
C6 C 0.7993(8) 0.5344(4) 0.0702(2)
H7 H 0.89530 0.57870 0.08270
C7 C 0.6224(8) 0.5483(4) 0.1027(2)
H8 H 0.52930 0.57900 0.08140
H9 H 0.57680 0.48470 0.11320
C8 C 0.6537(8) 0.6103(4) 0.1501(2)
H10 H 0.67980 0.67680 0.13800
C9 C 0.7339(8) 0.4935(3) 0.2614(2)
H11 H 0.61940 0.52950 0.26330
H12 H 0.71460 0.42870 0.27570
C10 C 0.9069(9) 0.5629(4) -0.0145(2)
H13 H 0.86630 0.56490 -0.05020
H14 H 0.97930 0.50400 -0.01000
C11 C 0.9357(8) 0.7327(4) -0.0246(2)
H15 H 0.92140 0.72660 -0.06130
H16 H 1.01200 0.78820 -0.01700
H17 H 0.81770 0.74160 -0.00890
C12 C 0.4788(9) 0.6153(5) 0.1798(2)
C13 C 1.1150(9) 0.2961(4) 0.2409(2)
H18 H 1.22480 0.31500 0.22230
H19 H 1.10390 0.22540 0.23860
C14 C 1.1354(9) 0.3248(4) 0.2963(2)
C15 C 1.0007(9) 0.2994(4) 0.3323(2)
H20 H 0.89550 0.26720 0.32120
C16 C 1.0208(10) 0.3212(4) 0.3843(2)
H21 H 0.93170 0.30210 0.40790
C17 C 1.1756(11) 0.3720(4) 0.4007(2)
H22 H 1.18990 0.38830 0.43530
C18 C 1.3075(10) 0.3978(4) 0.3652(3)
H23 H 1.41200 0.43070 0.37620
C19 C 1.2871(8) 0.3755(4) 0.3135(3)
H24 H 1.37650 0.39490 0.29010
C20 C 0.8503(9) 0.5547(4) 0.3409(2)
C21 C 1.0139(8) 0.6018(4) 0.3667(2)
C22 C 1.1608(8) 0.6383(3) 0.3386(2)
H25 H 1.16470 0.63260 0.30280
C23 C 1.3014(8) 0.6835(4) 0.3654(2)
C24 C 1.3061(9) 0.6913(3) 0.4175(2)
H26 H 1.40390 0.72120 0.43430
C25 C 1.1602(9) 0.6532(3) 0.4446(2)
C26 C 1.0129(8) 0.6080(3) 0.4204(2)
H27 H 0.91620 0.58250 0.43950
N1 N 0.3402(7) 0.6158(4) 0.20072(19)
N2 N 1.4552(8) 0.7265(4) 0.3360(2)
N3 N 1.1573(8) 0.6631(3) 0.50073(19)
O1 O 0.8039(5) 0.5820(2) 0.18254(14)
O2 O 0.7521(5) 0.5584(2) 0.01806(14)
O3 O 1.0191(5) 0.6461(3) -0.00462(14)
O4 O 0.8775(5) 0.5451(2) 0.29029(14)
O5 O 0.7165(6) 0.5287(3) 0.36400(15)
O6 O 0.9581(6) 0.3404(2) 0.21634(13)
O7 O 1.4659(7) 0.7116(4) 0.29057(18)
O8 O 1.5615(7) 0.7769(4) 0.35920(19)
O9 O 1.2566(6) 0.7274(3) 0.51968(15)
O10 O 1.0555(6) 0.6102(3) 0.52568(15)
#END
