
#######################################################################
#
#                 Cambridge Crystallographic Data Centre
#                                CCDC
#
#######################################################################
#
# If this CIF has been generated from an entry in the Cambridge
# Structural Database, then it will include bibliographic, chemical,
# crystal, experimental, refinement or atomic coordinate data resulting
# from the CCDC's data processing and validation procedures.
#
#######################################################################

data_CSD_CIF_POQVUO
_audit_creation_date 2014-10-27
_audit_creation_method CSD-ConQuest-V1
_database_code_CSD POQVUO
_database_code_depnum_ccdc_archive 'CCDC 1008164'
_chemical_formula_sum 'C9 H7 N1 O3'
_chemical_formula_moiety
;
C9 H7 N1 O3
;
_journal_coden_Cambridge 154
_journal_volume 67
_journal_year 2014
_journal_page_first 1866
_journal_name_full 'Aust.J.Chem. '
loop_
_publ_author_name
"B.L.Harris"
"J.M.White"
_chemical_name_systematic
;
4-nitrophenyl prop-2-yn-1-yl ether
;
_cell_volume    805.098
_exptl_crystal_colour 'colorless'
_exptl_crystal_density_diffrn 1.462
_exptl_crystal_description 'slab'
_diffrn_ambient_temperature 130
#These two values have been output from a single CSD field.
_refine_ls_R_factor_gt 0.0337
_refine_ls_wR_factor_gt 0.0337
_symmetry_cell_setting monoclinic
_symmetry_space_group_name_H-M 'P 21/c'
_symmetry_Int_Tables_number 14
loop_
_symmetry_equiv_pos_site_id
_symmetry_equiv_pos_as_xyz
1 x,y,z
2 -x,1/2+y,1/2-z
3 -x,-y,-z
4 x,-1/2-y,-1/2+z
_cell_length_a 7.2557(2)
_cell_length_b 12.8127(2)
_cell_length_c 8.9630(2)
_cell_angle_alpha 90
_cell_angle_beta 104.935(2)
_cell_angle_gamma 90
_cell_formula_units_Z 4
loop_
_atom_type_symbol
_atom_type_radius_bond
C 0.68
H 0.23
N 0.68
O 0.68
loop_
_atom_site_label
_atom_site_type_symbol
_atom_site_fract_x
_atom_site_fract_y
_atom_site_fract_z
H1 H 0.0665(17) 0.7678(10) -0.1171(14)
H2 H 0.1079(18) 0.9275(10) -0.1971(16)
H3 H 0.4338(17) 0.9497(9) 0.2448(14)
H4 H 0.2647(16) 0.7607(9) -0.1639(14)
H5 H 0.424(2) 1.1274(11) 0.2298(17)
H6 H 0.097(2) 1.1053(10) -0.2145(18)
H7 H 0.243(2) 0.4846(16) 0.025(2)
O1 O 0.28981(10) 0.81436(5) 0.04897(8)
C1 C 0.36676(13) 0.97973(7) 0.15291(11)
C2 C 0.17025(13) 0.96668(7) -0.11071(11)
C3 C 0.27255(12) 0.91931(7) 0.02612(11)
C4 C 0.16380(13) 1.07452(8) -0.11972(11)
C5 C 0.22495(13) 0.64076(8) -0.02964(11)
C6 C 0.25925(12) 1.13332(8) 0.00687(11)
O2 O 0.34705(12) 1.29768(6) 0.10504(10)
O3 O 0.15168(11) 1.28750(6) -0.12070(9)
C7 C 0.36074(13) 1.08711(7) 0.14372(11)
C8 C 0.20230(13) 0.74914(7) -0.08026(11)
N1 N 0.25262(10) 1.24658(7) -0.00410(9)
C9 C 0.23763(15) 0.55045(9) 0.00230(12)
#END
