
#######################################################################
#
#                 Cambridge Crystallographic Data Centre
#                                CCDC
#
#######################################################################
#
# If this CIF has been generated from an entry in the Cambridge
# Structural Database, then it will include bibliographic, chemical,
# crystal, experimental, refinement or atomic coordinate data resulting
# from the CCDC's data processing and validation procedures.
#
#######################################################################

data_CSD_CIF_POQWEZ
_audit_creation_date 2014-10-27
_audit_creation_method CSD-ConQuest-V1
_database_code_CSD POQWEZ
_database_code_depnum_ccdc_archive 'CCDC 1008166'
_chemical_formula_sum 'C10 H7 N1 O4'
_chemical_formula_moiety
;
C10 H7 N1 O4
;
_journal_coden_Cambridge 154
_journal_volume 67
_journal_year 2014
_journal_page_first 1866
_journal_name_full 'Aust.J.Chem. '
loop_
_publ_author_name
"B.L.Harris"
"J.M.White"
_chemical_name_systematic
;
prop-2-yn-1-yl 3-nitrobenzoate
;
_cell_volume    461.548
_exptl_crystal_colour 'colorless'
_exptl_crystal_density_diffrn 1.476
_exptl_crystal_description 'slab'
_diffrn_ambient_temperature 130
#These two values have been output from a single CSD field.
_refine_ls_R_factor_gt 0.0521
_refine_ls_wR_factor_gt 0.0521
_symmetry_cell_setting monoclinic
_symmetry_space_group_name_H-M 'P n'
_symmetry_Int_Tables_number 7
loop_
_symmetry_equiv_pos_site_id
_symmetry_equiv_pos_as_xyz
1 x,y,z
2 1/2+x,-y,1/2+z
_cell_length_a 3.8202(4)
_cell_length_b 7.4684(4)
_cell_length_c 16.1979(18)
_cell_angle_alpha 90
_cell_angle_beta 92.897(9)
_cell_angle_gamma 90
_cell_formula_units_Z 2
loop_
_atom_type_symbol
_atom_type_radius_bond
C 0.68
H 0.23
N 0.68
O 0.68
loop_
_atom_site_label
_atom_site_type_symbol
_atom_site_fract_x
_atom_site_fract_y
_atom_site_fract_z
O1 O 0.7584(3) 0.13185(16) 0.58249(8)
O2 O 1.0824(4) 0.36353(17) 0.63150(9)
O3 O 1.1620(5) 0.8873(2) 0.44768(11)
C1 C 0.6671(5) -0.1313(2) 0.65807(11)
C2 C 0.8245(5) 0.0462(2) 0.66220(11)
C3 C 0.8249(4) 0.3769(2) 0.49378(11)
N1 N 0.9681(5) 0.8182(2) 0.39385(10)
C4 C 0.9056(4) 0.2934(2) 0.57623(10)
O4 O 0.8647(5) 0.8944(2) 0.33001(11)
C5 C 0.9308(4) 0.5538(2) 0.48257(10)
C6 C 0.8584(5) 0.6313(2) 0.40592(11)
C7 C 0.5912(5) 0.3637(2) 0.35222(11)
C8 C 0.6914(5) 0.5407(2) 0.34002(11)
C9 C 0.5386(5) -0.2778(2) 0.65794(12)
C10 C 0.6550(5) 0.2820(2) 0.42893(11)
H1 H 1.041(7) 0.620(3) 0.5255(16)
H2 H 0.680(6) 0.598(3) 0.2832(14)
H3 H 0.714(8) 0.111(4) 0.7082(19)
H4 H 0.485(7) 0.298(4) 0.3061(18)
H5 H 0.567(7) 0.166(4) 0.4323(16)
H6 H 1.090(7) 0.037(3) 0.6732(16)
H7 H 0.413(9) -0.400(4) 0.655(2)
#END
