
#######################################################################
#
#                 Cambridge Crystallographic Data Centre
#                                CCDC
#
#######################################################################
#
# If this CIF has been generated from an entry in the Cambridge
# Structural Database, then it will include bibliographic, chemical,
# crystal, experimental, refinement or atomic coordinate data resulting
# from the CCDC's data processing and validation procedures.
#
#######################################################################

data_CSD_CIF_POQWOJ
_audit_creation_date 2014-10-27
_audit_creation_method CSD-ConQuest-V1
_database_code_CSD POQWOJ
_database_code_depnum_ccdc_archive 'CCDC 1008168'
_chemical_formula_sum 'C10 H6 N2 O6'
_chemical_formula_moiety
;
C10 H6 N2 O6
;
_journal_coden_Cambridge 154
_journal_volume 67
_journal_year 2014
_journal_page_first 1866
_journal_name_full 'Aust.J.Chem. '
loop_
_publ_author_name
"B.L.Harris"
"J.M.White"
_chemical_name_systematic
;
prop-2-yn-1-yl 3,5-dinitrobenzoate
;
_cell_volume   1045.488
_exptl_crystal_colour 'colorless'
_exptl_crystal_density_diffrn 1.589
_exptl_crystal_description 'block'
_diffrn_ambient_temperature 130
#These two values have been output from a single CSD field.
_refine_ls_R_factor_gt 0.0419
_refine_ls_wR_factor_gt 0.0419
_symmetry_cell_setting orthorhombic
_symmetry_space_group_name_H-M 'P 21 21 21'
_symmetry_Int_Tables_number 19
loop_
_symmetry_equiv_pos_site_id
_symmetry_equiv_pos_as_xyz
1 x,y,z
2 1/2-x,-y,1/2+z
3 -x,1/2+y,1/2-z
4 1/2+x,1/2-y,-z
_cell_length_a 5.4350(2)
_cell_length_b 9.5587(3)
_cell_length_c 20.1243(6)
_cell_angle_alpha 90
_cell_angle_beta 90
_cell_angle_gamma 90
_cell_formula_units_Z 4
loop_
_atom_type_symbol
_atom_type_radius_bond
C 0.68
H 0.23
N 0.68
O 0.68
loop_
_atom_site_label
_atom_site_type_symbol
_atom_site_fract_x
_atom_site_fract_y
_atom_site_fract_z
H1 H 1.458(4) 0.9510(19) 0.1129(8)
H2 H 1.641(3) 0.8901(16) 0.0611(7)
H3 H 2.062(4) 0.948(2) 0.2193(10)
H4 H 0.903(3) 0.5654(17) 0.0401(7)
H5 H 1.018(3) 0.1950(19) 0.1351(7)
H6 H 1.478(3) 0.5186(17) 0.1684(7)
C1 C 1.5819(3) 0.88868(12) 0.10498(6)
C2 C 1.7799(2) 0.91299(12) 0.15245(5)
C3 C 1.9442(3) 0.93045(16) 0.19037(7)
C4 C 1.2888(2) 0.71220(11) 0.08384(5)
C5 C 1.2088(2) 0.56752(11) 0.10221(5)
C6 C 1.0030(2) 0.51174(11) 0.07046(5)
C7 C 0.9376(2) 0.37429(11) 0.08467(5)
C8 C 1.0661(2) 0.29062(12) 0.12891(5)
C9 C 1.2684(2) 0.35107(11) 0.15943(5)
C10 C 1.3417(2) 0.48778(11) 0.14777(5)
N1 N 0.72213(19) 0.31443(10) 0.05087(4)
N2 N 1.41624(19) 0.26512(10) 0.20530(5)
O1 O 1.48581(18) 0.75032(9) 0.11925(4)
O2 O 1.19134(17) 0.78271(9) 0.04194(4)
O3 O 0.62483(19) 0.38367(10) 0.00684(4)
O4 O 0.64974(18) 0.19918(9) 0.06884(4)
O5 O 1.3349(2) 0.15055(9) 0.22130(5)
O6 O 1.61288(17) 0.31237(10) 0.22418(4)
#END
