
#######################################################################
#
#                 Cambridge Crystallographic Data Centre
#                                CCDC
#
#######################################################################
#
# If this CIF has been generated from an entry in the Cambridge
# Structural Database, then it will include bibliographic, chemical,
# crystal, experimental, refinement or atomic coordinate data resulting
# from the CCDC's data processing and validation procedures.
#
#######################################################################

data_CSD_CIF_POQXEA
_audit_creation_date 2014-10-27
_audit_creation_method CSD-ConQuest-V1
_database_code_CSD POQXEA
_database_code_depnum_ccdc_archive 'CCDC 993058'
_chemical_formula_sum 'C30 H46 N4 O6'
_chemical_formula_moiety
;
C30 H46 N4 O6
;
_journal_coden_Cambridge 182
_journal_volume 50
_journal_year 2014
_journal_page_first 15333
_journal_name_full 'Chem.Commun. '
loop_
_publ_author_name
"Can Xue"
"Chunling Fu"
"Shengming Ma"
_chemical_name_systematic
;
1,1'-(1,4-Phenylenebis((2-nitroprop-1-ene-1,3-diyl)oxy))bis(2,2,6,6-tetramethy
lpiperidine)
;
_cell_volume   3019.074
_exptl_crystal_colour 'colorless'
_exptl_crystal_density_diffrn 1.229
_exptl_crystal_description 'block'
_diffrn_ambient_temperature 170
#These two values have been output from a single CSD field.
_refine_ls_R_factor_gt 0.0385
_refine_ls_wR_factor_gt 0.0385
_symmetry_cell_setting orthorhombic
_symmetry_space_group_name_H-M 'P b c a'
_symmetry_Int_Tables_number 61
loop_
_symmetry_equiv_pos_site_id
_symmetry_equiv_pos_as_xyz
1 x,y,z
2 1/2-x,-y,1/2+z
3 1/2+x,1/2-y,-z
4 -x,1/2+y,1/2-z
5 -x,-y,-z
6 -1/2+x,y,-1/2-z
7 -1/2-x,-1/2+y,z
8 x,-1/2-y,-1/2+z
_cell_length_a 9.4439(4)
_cell_length_b 11.2685(4)
_cell_length_c 28.3698(16)
_cell_angle_alpha 90
_cell_angle_beta 90
_cell_angle_gamma 90
_cell_formula_units_Z 4
loop_
_atom_type_symbol
_atom_type_radius_bond
C 0.68
H 0.23
N 0.68
O 0.68
loop_
_atom_site_label
_atom_site_type_symbol
_atom_site_fract_x
_atom_site_fract_y
_atom_site_fract_z
O1 O 0.54857(11) 0.36797(10) 0.04103(4)
O2 O 0.49551(12) 0.23646(13) 0.09236(6)
O3 O 0.15427(10) 0.24682(8) 0.11368(3)
N1 N 0.08787(12) 0.13688(10) 0.13077(4)
N2 N 0.46170(12) 0.30886(11) 0.06278(5)
C1 C -0.11780(15) 0.47695(12) 0.02745(5)
H1 H -0.19870 0.45970 0.04610
C2 C 0.01439(14) 0.44057(12) 0.04243(5)
H2 H 0.02400 0.40110 0.07180
C3 C 0.13384(14) 0.46127(11) 0.01478(5)
C4 C 0.27557(14) 0.42192(12) 0.02888(5)
H3 H 0.35240 0.47130 0.01980
C5 C 0.30841(14) 0.32455(12) 0.05307(5)
C6 C 0.21608(14) 0.22347(12) 0.06843(5)
H4 H 0.14000 0.21110 0.04490
H5 H 0.27320 0.14990 0.07010
C7 C -0.06843(15) 0.15687(13) 0.13196(5)
C8 C -0.13467(17) 0.04465(14) 0.15353(6)
H6 H -0.23760 0.05780 0.15760
H7 H -0.12230 -0.02210 0.13120
C9 C -0.07175(19) 0.01007(15) 0.20056(6)
H8 H -0.09160 0.07260 0.22420
H9 H -0.11480 -0.06500 0.21170
C10 C 0.08633(18) -0.00551(14) 0.19503(6)
H10 H 0.10440 -0.07290 0.17350
H11 H 0.12770 -0.02580 0.22610
C11 C 0.16105(17) 0.10532(13) 0.17576(5)
C12 C -0.11867(17) 0.26914(14) 0.15800(6)
H12 H -0.11180 0.25650 0.19210
H13 H -0.21730 0.28590 0.14950
H14 H -0.05890 0.33650 0.14900
C13 C -0.11937(15) 0.16344(14) 0.08109(6)
H15 H -0.08540 0.23710 0.06670
H16 H -0.22310 0.16200 0.08040
H17 H -0.08240 0.09540 0.06340
C14 C 0.1653(2) 0.20514(15) 0.21274(6)
H18 H 0.19110 0.28000 0.19740
H19 H 0.23560 0.18580 0.23700
H20 H 0.07180 0.21310 0.22740
C15 C 0.31257(18) 0.07048(16) 0.16323(6)
H21 H 0.31130 0.01220 0.13760
H22 H 0.35870 0.03580 0.19090
H23 H 0.36500 0.14110 0.15310
O1D O -0.54857(11) 0.63203(10) -0.04103(4)
O2D O -0.49551(12) 0.76354(13) -0.09236(6)
O3D O -0.15427(10) 0.75318(8) -0.11368(3)
N1D N -0.08787(12) 0.86312(10) -0.13077(4)
N2D N -0.46170(12) 0.69114(11) -0.06278(5)
C1D C 0.11780(15) 0.52305(12) -0.02745(5)
H1D H 0.19870 0.54030 -0.04610
C2D C -0.01439(14) 0.55943(12) -0.04243(5)
H2D H -0.02400 0.59890 -0.07180
C3D C -0.13384(14) 0.53873(11) -0.01478(5)
C4D C -0.27557(14) 0.57808(12) -0.02888(5)
H3D H -0.35240 0.52870 -0.01980
C5D C -0.30841(14) 0.67545(12) -0.05307(5)
C6D C -0.21608(14) 0.77653(12) -0.06843(5)
H4D H -0.14000 0.78890 -0.04490
H5D H -0.27320 0.85010 -0.07010
C7D C 0.06843(15) 0.84313(13) -0.13196(5)
C8D C 0.13467(17) 0.95535(14) -0.15353(6)
H6D H 0.23760 0.94220 -0.15760
H7D H 0.12230 1.02210 -0.13120
C9D C 0.07175(19) 0.98993(15) -0.20056(6)
H8D H 0.09160 0.92740 -0.22420
H9D H 0.11480 1.06500 -0.21170
C10D C -0.08633(18) 1.00551(14) -0.19503(6)
H10D H -0.10440 1.07290 -0.17350
H11D H -0.12770 1.02580 -0.22610
C11D C -0.16105(17) 0.89468(13) -0.17576(5)
C12D C 0.11867(17) 0.73086(14) -0.15800(6)
H12D H 0.11180 0.74350 -0.19210
H13D H 0.21730 0.71410 -0.14950
H14D H 0.05890 0.66350 -0.14900
C13D C 0.11937(15) 0.83656(14) -0.08109(6)
H15D H 0.08540 0.76290 -0.06670
H16D H 0.22310 0.83800 -0.08040
H17D H 0.08240 0.90460 -0.06340
C14D C -0.1653(2) 0.79486(15) -0.21274(6)
H18D H -0.19110 0.72000 -0.19740
H19D H -0.23560 0.81420 -0.23700
H20D H -0.07180 0.78690 -0.22740
C15D C -0.31257(18) 0.92952(16) -0.16323(6)
H21D H -0.31130 0.98780 -0.13760
H22D H -0.35870 0.96420 -0.19090
H23D H -0.36500 0.85890 -0.15310
#END
