
#######################################################################
#
#                 Cambridge Crystallographic Data Centre
#                                CCDC
#
#######################################################################
#
# If this CIF has been generated from an entry in the Cambridge
# Structural Database, then it will include bibliographic, chemical,
# crystal, experimental, refinement or atomic coordinate data resulting
# from the CCDC's data processing and validation procedures.
#
#######################################################################

data_CSD_CIF_POSGAG
_audit_creation_date 2009-09-08
_audit_creation_method CSD-ConQuest-V1
_database_code_CSD POSGAG
_database_code_depnum_ccdc_archive 'CCDC 242454'
_chemical_formula_sum 'C18 H25 N1 O4'
_chemical_formula_moiety
;
C18 H25 N1 O4
;
_journal_coden_Cambridge 1220
_journal_volume 15
_journal_year 2009
_journal_page_first 2693
_journal_name_full 'Chem.-Eur.J. '
loop_
_publ_author_name
"T.K.M.Shing"
"W.F.Wong"
"T.Ikeno"
"T.Yamada"
_chemical_name_systematic
;
7-(Benzyloxy)-4,4,11-trimethyl-3,5,10-trioxa-11-azatricyclo(7.2.1.0^2,6^)dodec
ane
;
_chemical_melting_point 326.15
_cell_volume   1765.414
_exptl_crystal_colour 'colorless'
_exptl_crystal_density_diffrn 1.202
_exptl_special_details
;
Melting point range 326.15-327.15K

;
_exptl_crystal_description 'block'
_diffrn_ambient_temperature 293
#These two values have been output from a single CSD field.
_refine_ls_R_factor_gt 0.0509
_refine_ls_wR_factor_gt 0.0509
_symmetry_cell_setting orthorhombic
_symmetry_space_group_name_H-M 'P 21 21 21'
_symmetry_Int_Tables_number 19
loop_
_symmetry_equiv_pos_site_id
_symmetry_equiv_pos_as_xyz
1 x,y,z
2 1/2-x,-y,1/2+z
3 -x,1/2+y,1/2-z
4 1/2+x,1/2-y,-z
_cell_length_a 10.261(2)
_cell_length_b 12.771(3)
_cell_length_c 13.472(3)
_cell_angle_alpha 90
_cell_angle_beta 90
_cell_angle_gamma 90
_cell_formula_units_Z 4
loop_
_atom_type_symbol
_atom_type_radius_bond
C 0.68
H 0.23
N 0.68
O 0.68
loop_
_atom_site_label
_atom_site_type_symbol
_atom_site_fract_x
_atom_site_fract_y
_atom_site_fract_z
N1 N 0.6040(2) 0.35800(18) 0.08965(16)
O1 O 0.29676(14) 0.60796(12) 0.16218(12)
O2 O 0.48177(17) 0.53414(12) 0.32507(11)
O3 O 0.47854(18) 0.35854(11) 0.29109(11)
O4 O 0.62600(17) 0.45830(17) 0.04261(15)
C1 C 0.0968(2) 0.66913(18) 0.23093(18)
C2 C 0.0160(3) 0.5857(2) 0.2139(2)
H1 H 0.05120 0.51870 0.21120
C3 C -0.1160(3) 0.5986(3) 0.2005(3)
H2 H -0.16860 0.54070 0.18820
C4 C -0.1693(3) 0.6956(3) 0.2054(3)
H3 H -0.25890 0.70440 0.19850
C5 C -0.0923(3) 0.7783(3) 0.2202(4)
H4 H -0.12880 0.84500 0.22260
C6 C 0.0408(3) 0.7667(2) 0.2319(3)
H5 H 0.09290 0.82560 0.24060
C7 C 0.2405(3) 0.6548(3) 0.2473(2)
H6 H 0.28110 0.72210 0.25970
H7 H 0.25500 0.61050 0.30480
C8 C 0.5017(2) 0.43285(17) 0.36865(16)
C9 C 0.4032(3) 0.4187(2) 0.4500(2)
H8 H 0.31710 0.42820 0.42350
H9 H 0.41860 0.46930 0.50130
H10 H 0.41080 0.34940 0.47710
C10 C 0.6410(3) 0.4203(3) 0.4027(3)
H11 H 0.69860 0.43020 0.34730
H12 H 0.65300 0.35130 0.42940
H13 H 0.65990 0.47140 0.45290
C11 C 0.4366(2) 0.60992(16) 0.16224(18)
H14 H 0.46540 0.67600 0.19200
C12 C 0.4959(2) 0.52072(15) 0.22019(15)
H15 H 0.58880 0.51590 0.20410
C13 C 0.43398(19) 0.41427(15) 0.20633(15)
H16 H 0.33920 0.42210 0.21120
C14 C 0.4653(2) 0.35774(18) 0.11074(17)
H17 H 0.43210 0.28580 0.11290
C15 C 0.4034(3) 0.4180(2) 0.02395(18)
H18 H 0.39170 0.37340 -0.03360
H19 H 0.32020 0.44820 0.04260
C16 C 0.5044(3) 0.50171(19) 0.00503(18)
H20 H 0.51260 0.51210 -0.06680
C17 C 0.4818(3) 0.6073(2) 0.05393(18)
H21 H 0.41760 0.64460 0.01470
H22 H 0.56250 0.64660 0.04970
C18 C 0.6401(5) 0.2779(3) 0.0159(3)
H23 H 0.62610 0.20950 0.04350
H24 H 0.73030 0.28580 -0.00140
H25 H 0.58730 0.28620 -0.04240
#END
