
#######################################################################
#
#                 Cambridge Crystallographic Data Centre
#                                CCDC
#
#######################################################################
#
# If this CIF has been generated from an entry in the Cambridge
# Structural Database, then it will include bibliographic, chemical,
# crystal, experimental, refinement or atomic coordinate data resulting
# from the CCDC's data processing and validation procedures.
#
#######################################################################

data_CSD_CIF_POSRUM
_audit_creation_date 2014-10-28
_audit_creation_method CSD-ConQuest-V1
_database_code_CSD POSRUM
_database_code_depnum_ccdc_archive 'CCDC 1030399'
_chemical_formula_sum 'C18 H17 N1 O5'
_chemical_formula_moiety
;
C18 H17 N1 O5
;
_journal_coeditor_code "IUCr hb7301"
_journal_coden_Cambridge 1370
_journal_volume 70
_journal_year 2014
_journal_page_first o1200
_journal_name_full 'Acta Crystallogr.,Sect.E:Struct.Rep.Online '
loop_
_publ_author_name
"L.J.Martins"
"D.de A.Simoni"
"R.Aparicio"
"F.Coelho"
_chemical_name_systematic
;
methyl 
2-(4-methoxyphenyl)-8-oxo-1-azaspiro[4.5]deca-1,6,9-triene-3-carboxylate 
1-oxide
;
_cell_volume    781.294
_exptl_crystal_colour 'colorless'
_exptl_crystal_density_diffrn 1.391
_exptl_crystal_description 'prismatic'
_diffrn_ambient_temperature 100
#These two values have been output from a single CSD field.
_refine_ls_R_factor_gt 0.0422
_refine_ls_wR_factor_gt 0.0422
_symmetry_cell_setting triclinic
_symmetry_space_group_name_H-M 'P -1'
_symmetry_Int_Tables_number 2
loop_
_symmetry_equiv_pos_site_id
_symmetry_equiv_pos_as_xyz
1 x,y,z
2 -x,-y,-z
_cell_length_a 6.0916(11)
_cell_length_b 8.7713(16)
_cell_length_c 15.167(3)
_cell_angle_alpha 80.255(6)
_cell_angle_beta 81.703(6)
_cell_angle_gamma 80.122(6)
_cell_formula_units_Z 2
loop_
_atom_type_symbol
_atom_type_radius_bond
C 0.68
H 0.23
N 0.68
O 0.68
loop_
_atom_site_label
_atom_site_type_symbol
_atom_site_fract_x
_atom_site_fract_y
_atom_site_fract_z
O1 O 0.20642(16) 0.89397(12) 0.62486(6)
O2 O 0.19082(18) 0.28804(12) 0.01392(7)
O3 O 0.19910(14) 0.44109(11) 0.32280(6)
O4 O 0.91693(15) 0.79511(11) 0.19091(7)
O5 O 0.54105(16) 0.85337(11) 0.19863(7)
N1 N 0.38917(17) 0.48769(12) 0.29230(7)
C1 C -0.0287(2) 0.92550(17) 0.65513(10)
H1 H -0.11060 0.97200 0.60360
H2 H -0.05350 0.99850 0.69910
H3 H -0.08270 0.82760 0.68330
C2 C 0.2673(2) 0.80731(16) 0.55566(9)
C3 C 0.1260(2) 0.72330(16) 0.52570(9)
H4 H -0.02220 0.72030 0.55510
C4 C 0.2017(2) 0.64391(15) 0.45269(9)
H5 H 0.10480 0.58550 0.43330
C5 C 0.4179(2) 0.64816(15) 0.40712(9)
C6 C 0.4981(2) 0.57613(15) 0.32644(9)
C7 C 0.4972(2) 0.44582(15) 0.20162(9)
C8 C 0.3688(2) 0.55382(15) 0.13203(9)
H6 H 0.35690 0.66350 0.13120
C9 C 0.2712(2) 0.50353(16) 0.07177(9)
H7 H 0.19340 0.57770 0.02930
C10 C 0.2811(2) 0.33526(16) 0.06944(9)
C11 C 0.5596(2) 0.73034(16) 0.44026(9)
H8 H 0.70830 0.73320 0.41140
C12 C 0.4867(2) 0.80683(16) 0.51396(9)
H9 H 0.58630 0.85930 0.53630
C13 C 0.4924(2) 0.27616(15) 0.20004(9)
H10 H 0.55800 0.20100 0.24540
C14 C 0.4002(2) 0.22581(16) 0.13799(9)
H11 H 0.41170 0.11640 0.13790
C15 C 0.7367(2) 0.48121(15) 0.20051(9)
H12 H 0.79560 0.52740 0.13940
H13 H 0.83890 0.38460 0.21990
C16 C 0.7139(2) 0.59949(15) 0.26787(9)
H14 H 0.84220 0.57320 0.30490
C17 C 0.7081(2) 0.76464(16) 0.21684(9)
C18 C 0.9377(3) 0.93704(17) 0.12808(10)
H15 H 0.87040 0.93290 0.07380
H16 H 1.09680 0.94700 0.11180
H17 H 0.86010 1.02740 0.15610
#END
