
#######################################################################
#
#                 Cambridge Crystallographic Data Centre
#                                CCDC
#
#######################################################################
#
# If this CIF has been generated from an entry in the Cambridge
# Structural Database, then it will include bibliographic, chemical,
# crystal, experimental, refinement or atomic coordinate data resulting
# from the CCDC's data processing and validation procedures.
#
#######################################################################

data_CSD_CIF_POTCUX
_audit_creation_date 2009-09-08
_audit_creation_method CSD-ConQuest-V1
_database_code_CSD POTCUX
_database_code_depnum_ccdc_archive 'CCDC 696029'
_chemical_formula_sum 'C18 H23 N1 O5'
_chemical_formula_moiety
;
C18 H23 N1 O5
;
_journal_coden_Cambridge 16
_journal_volume 65
_journal_year 2009
_journal_page_first 2478
_journal_name_full 'Tetrahedron '
loop_
_publ_author_name
"F.Benfatti"
"G.Cardillo"
"S.Contaldi"
"L.Gentilucci"
"E.Mosconi"
"A.Tolomelli"
"E.Juaristi"
"G.Reyes-Rangel"
_chemical_name_systematic
;
2-Benzyl 4-ethyl 3-isopropyl-5-methyl-1,2-oxazole-2,4(3H)-dicarboxylate
;
_cell_volume    913.762
_exptl_crystal_density_diffrn 1.212
_diffrn_ambient_temperature 296
#These two values have been output from a single CSD field.
_refine_ls_R_factor_gt 0.0954
_refine_ls_wR_factor_gt 0.0954
_symmetry_cell_setting triclinic
_symmetry_space_group_name_H-M 'P -1'
_symmetry_Int_Tables_number 2
loop_
_symmetry_equiv_pos_site_id
_symmetry_equiv_pos_as_xyz
1 x,y,z
2 -x,-y,-z
_cell_length_a 8.799(9)
_cell_length_b 10.031(10)
_cell_length_c 11.428(12)
_cell_angle_alpha 79.902(11)
_cell_angle_beta 69.470(11)
_cell_angle_gamma 76.533(11)
_cell_formula_units_Z 2
loop_
_atom_type_symbol
_atom_type_radius_bond
C 0.68
H 0.23
N 0.68
O 0.68
loop_
_atom_site_label
_atom_site_type_symbol
_atom_site_fract_x
_atom_site_fract_y
_atom_site_fract_z
C1 C 0.2507(8) 0.5369(5) -0.1622(5)
C2 C 0.3641(10) 0.4704(7) -0.2623(6)
H1 H 0.47290 0.43910 -0.26390
C3 C 0.0461(12) 0.5570(9) -0.2604(9)
H2 H -0.06280 0.58720 -0.25900
C4 C 0.0910(9) 0.5789(7) -0.1622(7)
H3 H 0.01200 0.62270 -0.09530
C5 C 0.1560(15) 0.4930(9) -0.3578(8)
H4 H 0.12410 0.47780 -0.42310
C6 C 0.3170(14) 0.4503(9) -0.3594(7)
H5 H 0.39510 0.40730 -0.42720
C7 C 0.3023(8) 0.5503(5) -0.0550(6)
H6 H 0.26410 0.48180 0.01420
H7 H 0.42180 0.53590 -0.08010
O1 O 0.2311(5) 0.6872(3) -0.0167(3)
O2 O 0.3044(5) 0.6219(4) 0.1575(4)
C8 C 0.2468(6) 0.7075(5) 0.0896(5)
N1 N 0.1798(5) 0.8407(4) 0.1194(4)
C9 C 0.2840(6) 1.0315(5) 0.1144(5)
C10 C 0.2362(6) 1.0424(5) 0.0137(5)
C11 C 0.2390(7) 0.9034(5) 0.1986(5)
H8 H 0.33860 0.84350 0.21080
O3 O 0.4005(6) 1.0881(5) 0.2443(4)
O4 O 0.4047(6) 1.2299(4) 0.0699(5)
C12 C 0.3673(7) 1.1283(6) 0.1376(6)
C13 C 0.4860(11) 1.1769(10) 0.2760(7)
H9 H 0.60410 1.14630 0.23950
H10 H 0.45800 1.27000 0.23890
C14 C 0.1070(8) 0.9278(6) 0.3263(5)
H11 H 0.14970 0.97690 0.37140
C15 C -0.0510(9) 1.0156(9) 0.3136(7)
H12 H -0.10630 0.96310 0.28440
H13 H -0.02670 1.09480 0.25450
H14 H -0.12100 1.04520 0.39380
C16 C 0.0764(12) 0.7932(8) 0.4025(7)
H15 H 0.02280 0.74750 0.36530
H16 H 0.00700 0.80970 0.48660
H17 H 0.17970 0.73610 0.40430
C17 C 0.450(2) 1.178(2) 0.3959(11)
H18 H 0.51910 1.23030 0.41100
H19 H 0.46840 1.08570 0.43450
H20 H 0.33640 1.22030 0.43110
O5 O 0.1664(5) 0.9364(3) 0.0116(3)
C18 C 0.2397(8) 1.1497(6) -0.0945(6)
H21 H 0.29770 1.10840 -0.17150
H22 H 0.29510 1.21950 -0.08970
H23 H 0.12870 1.19050 -0.09220
#END
