
#######################################################################
#
#                 Cambridge Crystallographic Data Centre
#                                CCDC
#
#######################################################################
#
# If this CIF has been generated from an entry in the Cambridge
# Structural Database, then it will include bibliographic, chemical,
# crystal, experimental, refinement or atomic coordinate data resulting
# from the CCDC's data processing and validation procedures.
#
#######################################################################

data_CSD_CIF_POTLUF
_audit_creation_date 1998-11-19
_audit_creation_method CSD-ConQuest-V1
_database_code_CSD POTLUF
_database_code_depnum_ccdc_archive 'CCDC 1237312; CCDC 409241'
_database_code_depnum_ccdc_fiz 'CSD 409241'
_chemical_formula_sum 'C8 H13 N1 O3'
_chemical_formula_moiety
;
C8 H13 N1 O3
;
_journal_coden_Cambridge 1267
_journal_volume 213
_journal_year 1998
_journal_page_first 577
_journal_name_full 'Z.Kristallogr.-New Cryst.Struct. '
loop_
_publ_author_name
"W.Frey"
"L.Bierer"
"D.Shaw"
"V.Jager"
_chemical_name_systematic
;
(Z)-2,3-O-Isopropylidene-D-erythro-4-pentenose-oxime
;
_chemical_melting_point 362.15
_cell_volume    955.426
_exptl_crystal_colour 'colorless'
_exptl_crystal_density_diffrn 1.19
_exptl_special_details
;
Melting point range 362.15-363.15K

;
_exptl_crystal_description 'block'
_exptl_crystal_preparation 'petroleum ether/ethyl acetate'
_diffrn_ambient_temperature ?
_diffrn_special_details
;
The study was carried out at room temperature,in the range 283-303K

;
#These two values have been output from a single CSD field.
_refine_ls_R_factor_gt 0.0517
_refine_ls_wR_factor_gt 0.0517
_symmetry_cell_setting orthorhombic
_symmetry_space_group_name_H-M 'P 21 21 21'
_symmetry_Int_Tables_number 19
loop_
_symmetry_equiv_pos_site_id
_symmetry_equiv_pos_as_xyz
1 x,y,z
2 1/2-x,-y,1/2+z
3 -x,1/2+y,1/2-z
4 1/2+x,1/2-y,-z
_cell_length_a 5.229(1)
_cell_length_b 12.281(2)
_cell_length_c 14.878(2)
_cell_angle_alpha 90
_cell_angle_beta 90
_cell_angle_gamma 90
_cell_formula_units_Z 4
loop_
_atom_type_symbol
_atom_type_radius_bond
C 0.68
H 0.23
N 0.68
O 0.68
loop_
_atom_site_label
_atom_site_type_symbol
_atom_site_fract_x
_atom_site_fract_y
_atom_site_fract_z
N1 N 1.1328(3) 0.17326(11) 0.04432(11)
O1 O 1.5247(3) -0.11478(14) 0.13894(10)
C1 C 1.3462(9) -0.1328(2) -0.0874(2)
H1 H 1.2129(9) -0.1827(2) -0.0832(2)
H2 H 1.4201(9) -0.1181(2) -0.1430(2)
O2 O 1.2217(3) -0.01654(13) 0.21172(9)
C2 C 1.4295(6) -0.0836(2) -0.01559(15)
H3 H 1.5629(6) -0.0341(2) -0.02152(15)
O3 O 0.8833(3) 0.14135(10) 0.02446(11)
H4 H 0.79540 0.19880 -0.00060
C3 C 1.3204(5) -0.10303(14) 0.07599(14)
H5 H 1.2158(5) -0.16925(14) 0.07551(14)
C4 C 1.1671(4) -0.00836(13) 0.11790(12)
H6 H 0.9837(4) -0.01722(13) 0.10661(12)
C5 C 1.2578(4) 0.10107(13) 0.08648(12)
H7 H 1.4270(4) 0.11811(13) 0.09959(12)
C6 C 1.4190(5) -0.0947(2) 0.22570(14)
C7 C 1.3046(11) -0.1966(3) 0.2653(2)
H8 H 1.4370(11) -0.2495(3) 0.2749(2)
H9 H 1.1793(11) -0.2257(3) 0.2247(2)
H10 H 1.2246(11) -0.1795(3) 0.3217(2)
C8 C 1.6218(6) -0.0428(4) 0.2842(2)
H11 H 1.7572(6) -0.0941(4) 0.2946(2)
H12 H 1.5476(6) -0.0218(4) 0.3407(2)
H13 H 1.6893(6) 0.0204(4) 0.2546(2)
#END
