
#######################################################################
#
#                 Cambridge Crystallographic Data Centre
#                                CCDC
#
#######################################################################
#
# If this CIF has been generated from an entry in the Cambridge
# Structural Database, then it will include bibliographic, chemical,
# crystal, experimental, refinement or atomic coordinate data resulting
# from the CCDC's data processing and validation procedures.
#
#######################################################################

data_CSD_CIF_POVHUD
_audit_creation_date 1998-11-19
_audit_creation_method CSD-ConQuest-V1
_database_code_CSD POVHUD
_database_code_depnum_ccdc_archive 'CCDC 130504'
_chemical_formula_sum 'C15 H13 N3 O1'
_chemical_formula_moiety
;
C15 H13 N3 O1
;
_journal_coeditor_code "IUCr NA1359"
_journal_coden_Cambridge 591
_journal_volume 54
_journal_year 1998
_journal_page_first 1513
_journal_name_full 'Acta Crystallogr.,Sect.C:Cryst.Struct.Commun. '
loop_
_publ_author_name
"E.Kendi"
"S.Ozbey"
"A.Karakurt"
"S.Dalkara"
_chemical_name_systematic
;
2-(Imidazolyl)-1-(2-naphthyl)ethanone oxime
;
_chemical_name_common
;
Nafimidone oxime
;
_chemical_melting_point 466
_cell_volume   1251.617
_exptl_crystal_colour 'light brown'
_exptl_crystal_density_diffrn 1.333
_exptl_special_details
;
Melting point range 466-469K
possible pharmacological activity

;
_exptl_crystal_description 'prismatic'
_exptl_crystal_preparation 'methanol'
_diffrn_ambient_temperature ?
_diffrn_special_details
;
The study was carried out at room temperature,in the range 283-303K

;
#These two values have been output from a single CSD field.
_refine_ls_R_factor_gt 0.0452
_refine_ls_wR_factor_gt 0.0452
_symmetry_cell_setting monoclinic
_symmetry_space_group_name_H-M 'P 21/a'
_symmetry_Int_Tables_number 14
loop_
_symmetry_equiv_pos_site_id
_symmetry_equiv_pos_as_xyz
1 x,y,z
2 1/2-x,1/2+y,-z
3 -x,-y,-z
4 -1/2+x,-1/2-y,z
_cell_length_a 11.301(2)
_cell_length_b 8.665(1)
_cell_length_c 13.422(1)
_cell_angle_alpha 90
_cell_angle_beta 107.77(1)
_cell_angle_gamma 90
_cell_formula_units_Z 4
loop_
_atom_type_symbol
_atom_type_radius_bond
C 0.68
H 0.23
N 0.68
O 0.68
loop_
_atom_site_label
_atom_site_type_symbol
_atom_site_fract_x
_atom_site_fract_y
_atom_site_fract_z
O1 O 1.3581(1) 0.4814(2) 0.4207(1)
N1 N 1.3581(1) 0.0343(2) 0.3885(1)
N2 N 1.3801(2) -0.2159(2) 0.3760(1)
N3 N 1.2602(1) 0.4295(2) 0.3368(1)
C1 C 1.1389(2) 0.2196(2) 0.2521(1)
C2 C 1.1104(2) 0.2807(2) 0.1535(1)
C3 C 0.9741(2) 0.2933(3) -0.0305(2)
C4 C 0.8725(2) 0.2423(3) -0.1073(2)
C5 C 0.8000(2) 0.1228(3) -0.0871(2)
C6 C 0.8281(2) 0.0577(3) 0.0091(2)
C7 C 0.9624(2) 0.0492(2) 0.1942(2)
C8 C 1.0624(2) 0.1010(2) 0.2720(2)
C9 C 1.0064(2) 0.2296(2) 0.0713(1)
C10 C 0.9314(2) 0.1101(2) 0.0923(2)
C11 C 1.2434(2) 0.2826(2) 0.3381(1)
C12 C 1.3201(2) 0.1801(2) 0.4240(2)
C13 C 1.4424(2) 0.0123(2) 0.3359(2)
C14 C 1.4547(2) -0.1411(2) 0.3288(2)
C15 C 1.3243(2) -0.1059(2) 0.4108(2)
H1 H 1.365(2) 0.598(3) 0.397(2)
H2 H 1.16200 0.36000 0.14000
H3 H 1.02500 0.37200 -0.04600
H4 H 0.85000 0.28900 -0.17500
H5 H 0.73100 0.08600 -0.14200
H6 H 0.77800 -0.02400 0.02200
H7 H 0.91200 -0.02900 0.20900
H8 H 1.08200 0.05800 0.34000
H9 H 1.48300 0.09100 0.30900
H10 H 1.50800 -0.19100 0.29600
H11 H 1.26600 -0.12300 0.44800
H12 H 1.386(2) 0.232(3) 0.464(2)
H13 H 1.277(2) 0.152(3) 0.476(2)
#END
