
#######################################################################
#
#                 Cambridge Crystallographic Data Centre
#                                CCDC
#
#######################################################################
#
# If this CIF has been generated from an entry in the Cambridge
# Structural Database, then it will include bibliographic, chemical,
# crystal, experimental, refinement or atomic coordinate data resulting
# from the CCDC's data processing and validation procedures.
#
#######################################################################

data_CSD_CIF_POWJUG
_audit_creation_date 1998-11-26
_audit_creation_method CSD-ConQuest-V1
_database_code_CSD POWJUG
_chemical_formula_sum 'C26 H32 N8 O2'
_chemical_formula_moiety
;
C26 H32 N8 O2
;
_journal_coden_Cambridge 35
_journal_volume 62
_journal_year 1997
_journal_page_first 8854
_journal_name_full 'J.Org.Chem. '
loop_
_publ_author_name
"R.Akabane"
"M.Tanaka"
"K.Matsuo"
"N.Koga"
"K.Matsuda"
"H.Iwamura"
_chemical_name_systematic
;
1,3-bis(2-(1-Oxyl-4,4,5,5-tetramethylimidazolin-2-yl)imidazol-1-yl)benzene
;
_chemical_melting_point 501.15
_cell_volume   2551.577
_exptl_crystal_colour 'orange'
_exptl_crystal_density_diffrn 1.27
_exptl_special_details
;
Melting point range 501.15-502.15K

;
_exptl_crystal_description 'bricks'
_exptl_crystal_preparation 'n-hexane-dichloromethane'
_diffrn_ambient_temperature ?
_diffrn_special_details
;
The study was carried out at room temperature,in the range 283-303K

;
#These two values have been output from a single CSD field.
_refine_ls_R_factor_gt 0.055
_refine_ls_wR_factor_gt 0.055
_symmetry_cell_setting orthorhombic
_symmetry_space_group_name_H-M 'P b c n'
_symmetry_Int_Tables_number 60
loop_
_symmetry_equiv_pos_site_id
_symmetry_equiv_pos_as_xyz
1 x,y,z
2 1/2-x,1/2-y,1/2+z
3 1/2+x,1/2-y,-z
4 -x,y,1/2-z
5 -x,-y,-z
6 -1/2+x,-1/2+y,-1/2-z
7 -1/2-x,-1/2+y,z
8 x,-y,-1/2+z
_cell_length_a 10.617(3)
_cell_length_b 13.082(2)
_cell_length_c 18.371(4)
_cell_angle_alpha 90
_cell_angle_beta 90
_cell_angle_gamma 90
_cell_formula_units_Z 4
loop_
_atom_type_symbol
_atom_type_radius_bond
C 0.68
H 0.23
N 0.68
O 0.68
loop_
_atom_site_label
_atom_site_type_symbol
_atom_site_fract_x
_atom_site_fract_y
_atom_site_fract_z
O1 O -0.0551(6) 0.0395(5) 0.4226(3)
N1 N 0.0336(6) -0.2024(5) 0.3676(4)
N2 N -0.0492(7) -0.0564(5) 0.4079(4)
N3 N 0.2795(7) -0.0905(6) 0.3836(4)
N4 N 0.1819(7) 0.0404(5) 0.3288(4)
C1 C 0.0525(8) -0.1068(6) 0.3776(5)
C2 C -0.0899(8) -0.2288(7) 0.4021(6)
C3 C -0.1592(8) -0.1270(7) 0.4120(5)
C4 C -0.0573(9) -0.2747(9) 0.4757(6)
C5 C -0.1559(9) -0.3051(8) 0.3558(6)
C6 C -0.230(1) -0.1087(8) 0.4809(6)
C7 C -0.2436(9) -0.1006(7) 0.3462(6)
C8 C 0.1715(8) -0.0536(7) 0.3622(5)
C9 C 0.3644(8) -0.0175(8) 0.3634(5)
C10 C 0.3084(9) 0.0621(7) 0.3304(5)
C11 C 0.00000 0.0432(8) 0.25000
C12 C 0.0896(8) 0.0972(7) 0.2898(5)
C13 C 0.0889(8) 0.2028(7) 0.2919(5)
C14 C 0.00000 0.2530(9) 0.25000
H1 H -0.01470 -0.22510 0.50440
H2 H -0.00440 -0.33250 0.46900
H3 H -0.13250 -0.29510 0.49970
H4 H -0.10490 -0.36430 0.35080
H5 H -0.17150 -0.27640 0.30910
H6 H -0.23370 -0.32320 0.37790
H7 H -0.17740 -0.12360 0.52140
H8 H -0.30220 -0.15170 0.48230
H9 H -0.25590 -0.03920 0.48300
H10 H -0.31670 -0.14250 0.34690
H11 H -0.19820 -0.11220 0.30240
H12 H -0.26780 -0.03080 0.34870
H13 H 0.45260 -0.02240 0.37170
H14 H 0.34840 0.12160 0.31180
H15 H 0.00000 -0.02950 0.25000
H16 H 0.14730 0.23950 0.32110
H17 H 0.00000 0.32560 0.25000
C12C C -0.0896(8) 0.0972(7) 0.2102(5)
N4C N -0.1819(7) 0.0404(5) 0.1712(4)
C8C C -0.1715(8) -0.0536(7) 0.1378(5)
N3C N -0.2795(7) -0.0905(6) 0.1164(4)
C9C C -0.3644(8) -0.0175(8) 0.1366(5)
C10C C -0.3084(9) 0.0621(7) 0.1696(5)
H14C H -0.34840 0.12160 0.18820
H13C H -0.45260 -0.02240 0.12830
C1C C -0.0525(8) -0.1068(6) 0.1224(5)
N1C N -0.0336(6) -0.2024(5) 0.1324(4)
C2C C 0.0899(8) -0.2288(7) 0.0979(6)
C3C C 0.1592(8) -0.1270(7) 0.0880(5)
N2C N 0.0492(7) -0.0564(5) 0.0921(4)
O1C O 0.0551(6) 0.0395(5) 0.0774(3)
C6C C 0.230(1) -0.1087(8) 0.0191(6)
H7C H 0.17740 -0.12360 -0.02140
H8C H 0.30220 -0.15170 0.01770
H9C H 0.25590 -0.03920 0.01700
C7C C 0.2436(9) -0.1006(7) 0.1538(6)
H10C H 0.31670 -0.14250 0.15310
H11C H 0.19820 -0.11220 0.19760
H12C H 0.26780 -0.03080 0.15130
C4C C 0.0573(9) -0.2747(9) 0.0243(6)
H1C H 0.01470 -0.22510 -0.00440
H2C H 0.00440 -0.33250 0.03100
H3C H 0.13250 -0.29510 0.00030
C5C C 0.1559(9) -0.3051(8) 0.1442(6)
H4C H 0.10490 -0.36430 0.14920
H5C H 0.17150 -0.27640 0.19090
H6C H 0.23370 -0.32320 0.12210
C13C C -0.0889(8) 0.2028(7) 0.2081(5)
H16C H -0.14730 0.23950 0.17890
#END
