
#######################################################################
#
#                 Cambridge Crystallographic Data Centre
#                                CCDC
#
#######################################################################
#
# If this CIF has been generated from an entry in the Cambridge
# Structural Database, then it will include bibliographic, chemical,
# crystal, experimental, refinement or atomic coordinate data resulting
# from the CCDC's data processing and validation procedures.
#
#######################################################################

data_CSD_CIF_POXXUV
_audit_creation_date 1998-11-26
_audit_creation_method CSD-ConQuest-V1
_database_code_CSD POXXUV
_chemical_formula_sum 'C10 H17 N1 O4'
_chemical_formula_moiety
;
C10 H17 N1 O4
;
_journal_coden_Cambridge 24
_journal_volume 39
_journal_year 1998
_journal_page_first 3237
_journal_name_full 'Tetrahedron Lett. '
loop_
_publ_author_name
"J.Alberto Marco"
"M.Carda"
"J.Murga"
"R.Portoles"
"E.Falomir"
"J.Lex"
_chemical_name_systematic
;
2,2-Dimethyl-4-(2,2-dimethyl-3-oxido-2H,5H-1,3-oxazol-4-yl)-1,3-dioxolane
;
_cell_volume   2326.200
_exptl_crystal_density_diffrn 1.229
_diffrn_ambient_temperature ?
_diffrn_special_details
;
The study was carried out at room temperature,in the range 283-303K

;
#These two values have been output from a single CSD field.
_refine_ls_R_factor_gt 0.0717
_refine_ls_wR_factor_gt 0.0717
_symmetry_cell_setting orthorhombic
_symmetry_space_group_name_H-M 'C 2 2 21'
_symmetry_Int_Tables_number 20
loop_
_symmetry_equiv_pos_site_id
_symmetry_equiv_pos_as_xyz
1 x,y,z
2 -x,-y,1/2+z
3 x,-y,-z
4 -x,y,1/2-z
5 1/2+x,1/2+y,z
6 1/2-x,1/2-y,1/2+z
7 1/2+x,1/2-y,-z
8 1/2-x,1/2+y,1/2-z
_cell_length_a 6.509(2)
_cell_length_b 9.129(3)
_cell_length_c 39.148(12)
_cell_angle_alpha 90
_cell_angle_beta 90
_cell_angle_gamma 90
_cell_formula_units_Z 8
loop_
_atom_type_symbol
_atom_type_radius_bond
C 0.68
H 0.23
N 0.68
O 0.68
loop_
_atom_site_label
_atom_site_type_symbol
_atom_site_fract_x
_atom_site_fract_y
_atom_site_fract_z
O1 O 1.0505(10) 0.2722(6) 0.1951(1)
C1 C 0.8337(1) 0.2618(8) 0.1944(2)
N1 N 0.7915(12) 0.2032(6) 0.1589(2)
C2 C 0.9558(13) 0.2145(7) 0.1399(2)
C3 C 1.1224(14) 0.2803(11) 0.1612(2)
O2 O 0.6127(9) 0.1564(6) 0.1500(2)
C4 C 0.7342(24) 0.4114(12) 0.1958(4)
C5 C 0.7506(17) 0.1565(12) 0.2205(3)
O3 O 1.0858(14) 0.0058(7) 0.0655(2)
C6 C 1.1861(16) 0.1390(9) 0.0598(2)
O4 O 1.1322(10) 0.2325(6) 0.0878(1)
C7 C 0.9577(15) 0.1731(9) 0.1035(2)
C8 C 0.9858(26) 0.0119(11) 0.0962(3)
C9 C 1.4188(19) 0.1225(14) 0.0603(4)
C10 C 1.1093(36) 0.2047(29) 0.0271(4)
H1 H 1.136(13) 0.3676(93) 0.1558(20)
H2 H 1.202(18) 0.207(15) 0.1541(32)
H3 H 0.598(15) 0.3962(86) 0.1889(20)
H4 H 0.738(15) 0.411(10) 0.2222(25)
H5 H 0.787(17) 0.479(12) 0.1796(27)
H6 H 0.885(17) 0.060(11) 0.2159(26)
H7 H 0.763(16) 0.1627(76) 0.2447(25)
H8 H 0.551(16) 0.1460(94) 0.2213(19)
H9 H 0.861(16) 0.229(11) 0.0893(27)
H10 H 0.901(17) -0.035(10) 0.0955(25)
H11 H 1.066(13) -0.0386(86) 0.1165(20)
H12 H 1.472(13) 0.2424(84) 0.0576(20)
H13 H 1.439(16) 0.0732(95) 0.0863(25)
H14 H 1.435(14) 0.0494(94) 0.0406(25)
H15 H 1.128(24) 0.278(13) 0.0222(31)
H16 H 1.135(16) 0.152(12) 0.0080(32)
H17 H 0.930(19) 0.222(13) 0.0290(27)
#END
