
#######################################################################
#
#                 Cambridge Crystallographic Data Centre
#                                CCDC
#
#######################################################################
#
# If this CIF has been generated from an entry in the Cambridge
# Structural Database, then it will include bibliographic, chemical,
# crystal, experimental, refinement or atomic coordinate data resulting
# from the CCDC's data processing and validation procedures.
#
#######################################################################

data_CSD_CIF_POYHES
_audit_creation_date 2015-03-19
_audit_creation_method CSD-ConQuest-V1
_database_code_CSD POYHES
_database_code_depnum_ccdc_archive 'CCDC 921281'
_chemical_formula_sum 'C23 H18 N4 O3'
_chemical_formula_moiety
;
C23 H18 N4 O3
;
_journal_coden_Cambridge 35
_journal_volume 79
_journal_year 2014
_journal_page_first 10593
_journal_name_full 'J.Org.Chem. '
loop_
_publ_author_name
"D.S.Panmand"
"D.Jishkariani"
"C.Dennis Hall"
"P.J.Steel"
"A.M.Asiri"
"A.R.Katritzky"
_chemical_name_systematic
;
Benzoyl(1-benzyl-2-(4-nitrophenyl)-1H-imidazol-3-ium-3-yl)azanide
;
_cell_volume   1861.698
_exptl_crystal_colour 'colorless'
_exptl_crystal_density_diffrn 1.421
_exptl_crystal_description 'block'
_diffrn_ambient_temperature 120
#These two values have been output from a single CSD field.
_refine_ls_R_factor_gt 0.0409
_refine_ls_wR_factor_gt 0.0409
_symmetry_cell_setting monoclinic
_symmetry_space_group_name_H-M 'P 21/n'
_symmetry_Int_Tables_number 14
loop_
_symmetry_equiv_pos_site_id
_symmetry_equiv_pos_as_xyz
1 x,y,z
2 1/2-x,1/2+y,1/2-z
3 -x,-y,-z
4 -1/2+x,-1/2-y,-1/2+z
_cell_length_a 5.87321(10)
_cell_length_b 16.3775(3)
_cell_length_c 19.4994(3)
_cell_angle_alpha 90
_cell_angle_beta 96.9849(16)
_cell_angle_gamma 90
_cell_formula_units_Z 4
loop_
_atom_type_symbol
_atom_type_radius_bond
C 0.68
H 0.23
N 0.68
O 0.68
loop_
_atom_site_label
_atom_site_type_symbol
_atom_site_fract_x
_atom_site_fract_y
_atom_site_fract_z
N1 N 0.96628(19) 0.47163(7) 0.36192(6)
C1 C 0.9145(2) 0.54958(8) 0.37684(7)
N2 N 1.05755(19) 0.57262(7) 0.43269(6)
C2 C 1.1462(2) 0.44565(9) 0.40871(7)
H1 H 1.21580 0.39460 0.40960
C3 C 1.2032(2) 0.50773(9) 0.45300(7)
H2 H 1.31850 0.50720 0.49020
N3 N 1.0410(2) 0.65144(7) 0.45846(6)
C4 C 1.2081(2) 0.67343(9) 0.50768(7)
O1 O 1.3771(2) 0.63302(7) 0.53434(6)
C5 C 1.1816(2) 0.76070(9) 0.52982(7)
C6 C 0.9756(2) 0.80346(9) 0.51671(7)
H3 H 0.84610 0.77730 0.49490
C7 C 0.9621(3) 0.88458(9) 0.53593(8)
H4 H 0.82370 0.91250 0.52720
C8 C 1.1550(3) 0.92445(9) 0.56825(7)
H5 H 1.14670 0.97920 0.58030
C9 C 1.3594(3) 0.88217(10) 0.58239(8)
H6 H 1.48830 0.90840 0.60460
C10 C 1.3724(3) 0.8007(1) 0.56350(7)
H7 H 1.51000 0.77260 0.57350
C11 C 0.7337(2) 0.60044(8) 0.33918(7)
C12 C 0.5640(2) 0.63508(9) 0.37444(7)
H8 H 0.56570 0.62610 0.42160
C13 C 0.3934(2) 0.68268(9) 0.33921(7)
H9 H 0.27650 0.70450 0.36170
C14 C 0.4012(2) 0.69696(8) 0.26955(7)
C15 C 0.5670(2) 0.66435(9) 0.23318(7)
H10 H 0.56740 0.67530 0.18640
C16 C 0.7334(2) 0.61463(9) 0.26874(7)
H11 H 0.84520 0.59070 0.24530
C17 C 0.8537(2) 0.42216(9) 0.30521(7)
H12 H 0.69760 0.44140 0.29350
H13 H 0.84640 0.36600 0.32060
C18 C 0.9757(2) 0.42483(8) 0.24107(7)
C19 C 0.8805(3) 0.38211(9) 0.18261(7)
H14 H 0.74270 0.35430 0.18330
C20 C 0.9903(3) 0.38093(9) 0.12350(8)
H15 H 0.92550 0.35220 0.08480
C21 C 1.1957(3) 0.42215(9) 0.12151(7)
H16 H 1.26960 0.42080 0.08200
C22 C 1.2896(2) 0.46539(9) 0.17941(7)
H17 H 1.42640 0.49370 0.17840
C23 C 1.1812(2) 0.46669(9) 0.23868(7)
H18 H 1.24610 0.49570 0.27720
N4 N 0.2287(2) 0.75172(8) 0.23256(6)
O2 O 0.06110(18) 0.77031(7) 0.26070(6)
O3 O 0.26465(19) 0.77686(7) 0.17541(5)
#END
