
#######################################################################
#
#                 Cambridge Crystallographic Data Centre
#                                CCDC
#
#######################################################################
#
# If this CIF has been generated from an entry in the Cambridge
# Structural Database, then it will include bibliographic, chemical,
# crystal, experimental, refinement or atomic coordinate data resulting
# from the CCDC's data processing and validation procedures.
#
#######################################################################

data_CSD_CIF_POZGER
_audit_creation_date 2009-12-22
_audit_creation_method CSD-ConQuest-V1
_database_code_CSD POZGER
_database_code_depnum_ccdc_archive 'CCDC 716946'
_chemical_formula_sum 'C14 H10 N4 O2'
_chemical_formula_moiety
;
C14 H10 N4 O2
;
_journal_coden_Cambridge 16
_journal_volume 65
_journal_year 2009
_journal_page_first 3974
_journal_name_full 'Tetrahedron '
loop_
_publ_author_name
"K.A.Dururgkar"
"R.G.Gonnade"
"C.V.Ramana"
_chemical_name_systematic
;
1-(3-Nitrophenyl)-5-phenyl-1H-1,2,3-triazole
;
_chemical_melting_point 406.15
_cell_volume   1347.469
_exptl_crystal_colour 'yellow'
_exptl_crystal_density_diffrn 1.313
_exptl_special_details
;
Melting point range 406.15-407.15K

;
_exptl_crystal_description 'plate'
_diffrn_ambient_temperature 297
#These two values have been output from a single CSD field.
_refine_ls_R_factor_gt 0.0542
_refine_ls_wR_factor_gt 0.0542
_symmetry_cell_setting monoclinic
_symmetry_space_group_name_H-M 'P 21/n'
_symmetry_Int_Tables_number 14
loop_
_symmetry_equiv_pos_site_id
_symmetry_equiv_pos_as_xyz
1 x,y,z
2 1/2-x,1/2+y,1/2-z
3 -x,-y,-z
4 -1/2+x,-1/2-y,-1/2+z
_cell_length_a 7.533(11)
_cell_length_b 18.94(3)
_cell_length_c 9.546(14)
_cell_angle_alpha 90
_cell_angle_beta 98.37(3)
_cell_angle_gamma 90
_cell_formula_units_Z 4
loop_
_atom_type_symbol
_atom_type_radius_bond
C 0.68
H 0.23
N 0.68
O 0.68
loop_
_atom_site_label
_atom_site_type_symbol
_atom_site_fract_x
_atom_site_fract_y
_atom_site_fract_z
O1 O -0.2208(3) 0.13609(17) 0.2630(3)
O2 O -0.2906(3) 0.11681(14) 0.4694(3)
N1 N 0.2316(3) 0.19731(13) 1.0275(3)
N2 N 0.1589(3) 0.20562(12) 0.8938(3)
N3 N 0.2665(3) 0.16946(11) 0.8138(2)
N4 N -0.1838(3) 0.13443(14) 0.3907(3)
C1 C 0.3845(4) 0.15678(17) 1.0320(4)
C2 C 0.4091(3) 0.13822(14) 0.8986(3)
C3 C 0.5493(4) 0.09230(13) 0.8491(3)
C4 C 0.5049(5) 0.03882(15) 0.7478(3)
C5 C 0.6383(5) -0.00593(18) 0.7115(4)
C6 C 0.8162(5) 0.00220(18) 0.7761(4)
C7 C 0.8618(5) 0.05489(18) 0.8760(4)
C8 C 0.7297(4) 0.09991(16) 0.9127(3)
C9 C 0.2190(3) 0.17188(13) 0.6623(3)
C10 C 0.0439(4) 0.15378(13) 0.6014(3)
C11 C 0.0000(3) 0.15681(13) 0.4568(3)
C12 C 0.1237(4) 0.17836(14) 0.3688(3)
C13 C 0.2957(4) 0.19629(14) 0.4324(3)
C14 C 0.3454(4) 0.19316(14) 0.5771(3)
H1 H 0.461(4) 0.1457(15) 1.126(4)
H2 H 0.374(4) 0.0316(13) 0.706(3)
H3 H 0.612(4) -0.0394(16) 0.642(3)
H4 H 0.911(4) -0.0294(14) 0.741(3)
H5 H 0.989(4) 0.0626(14) 0.924(3)
H6 H 0.764(3) 0.1373(14) 0.988(3)
H7 H -0.044(3) 0.1404(13) 0.667(3)
H8 H 0.081(3) 0.1790(12) 0.272(3)
H9 H 0.378(3) 0.2121(13) 0.373(3)
H10 H 0.461(3) 0.2038(12) 0.626(3)
#END
