
#######################################################################
#
#                 Cambridge Crystallographic Data Centre
#                                CCDC
#
#######################################################################
#
# If this CIF has been generated from an entry in the Cambridge
# Structural Database, then it will include bibliographic, chemical,
# crystal, experimental, refinement or atomic coordinate data resulting
# from the CCDC's data processing and validation procedures.
#
#######################################################################

data_CSD_CIF_POZNUO
_audit_creation_date 2009-12-22
_audit_creation_method CSD-ConQuest-V1
_database_code_CSD POZNUO
_database_code_depnum_ccdc_archive 'CCDC 695998'
_chemical_formula_sum 'C11 H11 N3 O2'
_chemical_formula_moiety
;
C11 H11 N3 O2
;
_journal_coden_Cambridge 1336
_journal_volume 10
_journal_year 2008
_journal_page_first 2333
_journal_name_full 'Org.Lett. '
loop_
_publ_author_name
"Fong Tian Wong"
"P.K.Patra"
"J.Seayad"
"Yugen Zhang"
"J.Y.Ying"
_chemical_name_systematic
;
N-Hydroxy-1-methyl-N-phenyl-1H-imidazole-2-carboxamide
;
_cell_volume   1078.648
_exptl_crystal_density_diffrn 1.338
_diffrn_ambient_temperature 223
#These two values have been output from a single CSD field.
_refine_ls_R_factor_gt 0.0465
_refine_ls_wR_factor_gt 0.0465
_symmetry_cell_setting monoclinic
_symmetry_space_group_name_H-M 'P 21/c'
_symmetry_Int_Tables_number 14
loop_
_symmetry_equiv_pos_site_id
_symmetry_equiv_pos_as_xyz
1 x,y,z
2 -x,1/2+y,1/2-z
3 -x,-y,-z
4 x,-1/2-y,-1/2+z
_cell_length_a 7.6884(6)
_cell_length_b 7.8483(6)
_cell_length_c 17.8783(14)
_cell_angle_alpha 90
_cell_angle_beta 90.938(2)
_cell_angle_gamma 90
_cell_formula_units_Z 4
loop_
_atom_type_symbol
_atom_type_radius_bond
C 0.68
H 0.23
N 0.68
O 0.68
loop_
_atom_site_label
_atom_site_type_symbol
_atom_site_fract_x
_atom_site_fract_y
_atom_site_fract_z
O1 O 0.4487(2) 0.2421(2) 0.3077(1)
O2 O 0.3108(1) 0.1098(1) 0.4830(1)
N1 N 0.3375(2) 0.0998(2) 0.4058(1)
N2 N 0.6223(2) 0.4604(2) 0.4195(1)
N3 N 0.6749(2) 0.2166(2) 0.4772(1)
C1 C 0.4485(2) 0.2118(2) 0.3748(1)
C2 C 0.5778(2) 0.2944(2) 0.4259(1)
C3 C 0.7542(2) 0.4888(2) 0.4700(1)
C4 C 0.7865(2) 0.3387(2) 0.5044(1)
C5 C 0.5465(2) 0.5896(2) 0.3699(1)
C6 C 0.2067(2) 0.0109(2) 0.3638(1)
C7 C 0.2548(2) -0.0865(2) 0.3031(1)
C8 C 0.1289(3) -0.1741(2) 0.2631(1)
C9 C -0.0433(3) -0.1668(3) 0.2837(1)
C10 C -0.0891(2) -0.0722(2) 0.3452(1)
C11 C 0.0352(2) 0.0174(2) 0.3855(1)
H1 H 0.320(3) -0.002(3) 0.4984(11)
H2 H 0.81150 0.59270 0.47910
H3 H 0.87250 0.32070 0.54150
H4 H 0.62080 0.60560 0.32710
H5 H 0.53620 0.69640 0.39680
H6 H 0.43210 0.55270 0.35280
H7 H 0.37200 -0.09280 0.28920
H8 H 0.16050 -0.23950 0.22140
H9 H -0.12870 -0.22600 0.25580
H10 H -0.20590 -0.06870 0.35980
H11 H 0.00350 0.08220 0.42740
#END
