
#######################################################################
#
#                 Cambridge Crystallographic Data Centre
#                                CCDC
#
#######################################################################
#
# If this CIF has been generated from an entry in the Cambridge
# Structural Database, then it will include bibliographic, chemical,
# crystal, experimental, refinement or atomic coordinate data resulting
# from the CCDC's data processing and validation procedures.
#
#######################################################################

data_CSD_CIF_PPRDOX
_audit_creation_date 1978-01-11
_audit_creation_method CSD-ConQuest-V1
_database_code_CSD PPRDOX
_database_code_depnum_ccdc_archive 'CCDC 1237869'
_chemical_formula_sum 'C9 H9 N1 O2'
_chemical_formula_moiety
;
C9 H9 N1 O2
;
_journal_coden_Cambridge 189
_journal_volume 6
_journal_year 1977
_journal_page_first 557
_journal_name_full 'Cryst.Struct.Commun. '
loop_
_publ_author_name
"H.Saarinen"
"J.Korvenranta"
"E.Nasakkala"
_chemical_name_systematic
;
1-Phenyl-1,2-propanedione-2-oxime
;
_cell_volume    832.446
_exptl_crystal_density_diffrn 1.3
_diffrn_ambient_temperature ?
_diffrn_special_details
;
The study was carried out at room temperature,in the range 283-303K

;
#These two values have been output from a single CSD field.
_refine_ls_R_factor_gt 0.065
_refine_ls_wR_factor_gt 0.065
_symmetry_cell_setting monoclinic
_symmetry_space_group_name_H-M 'P 21/c'
_symmetry_Int_Tables_number 14
loop_
_symmetry_equiv_pos_site_id
_symmetry_equiv_pos_as_xyz
1 x,y,z
2 -x,1/2+y,1/2-z
3 -x,-y,-z
4 x,-1/2-y,-1/2+z
_cell_length_a 9.796(7)
_cell_length_b 14.221(12)
_cell_length_c 6.239(6)
_cell_angle_alpha 90
_cell_angle_beta 73.29(7)
_cell_angle_gamma 90
_cell_formula_units_Z 4
loop_
_atom_type_symbol
_atom_type_radius_bond
C 0.68
H 0.23
N 0.68
O 0.68
loop_
_atom_site_label
_atom_site_type_symbol
_atom_site_fract_x
_atom_site_fract_y
_atom_site_fract_z
C1 C 0.43060 0.36160 0.04780
C2 C 0.55510 0.37610 0.13910
C3 C 0.69670 0.33410 0.01990
C4 C 0.28050 0.37320 0.18800
C5 C 0.23590 0.34820 0.41320
C6 C 0.09120 0.35080 0.53120
C7 C -0.00830 0.38140 0.42730
C8 C 0.03600 0.40790 0.20380
C9 C 0.17920 0.40310 0.08410
N1 N 0.53140 0.43100 0.30780
O1 O 0.45680 0.33940 -0.15040
O2 O 0.65340 0.44780 0.37750
H1 H 0.68500 0.25500 0.04600
H2 H 0.69900 0.31400 -0.10800
H3 H 0.76900 0.34100 0.13000
H4 H 0.30800 0.33000 0.47800
H5 H 0.06100 0.33200 0.71200
H6 H -0.12300 0.38000 0.52000
H7 H -0.04600 0.43200 0.12800
H8 H 0.22000 0.41800 -0.09500
H9 H 0.61900 0.49400 0.51600
#END
