
#######################################################################
#
#                 Cambridge Crystallographic Data Centre
#                                CCDC
#
#######################################################################
#
# If this CIF has been generated from an entry in the Cambridge
# Structural Database, then it will include bibliographic, chemical,
# crystal, experimental, refinement or atomic coordinate data resulting
# from the CCDC's data processing and validation procedures.
#
#######################################################################

data_CSD_CIF_PQUAZX
_audit_creation_date 1980-02-13
_audit_creation_method CSD-ConQuest-V1
_database_code_CSD PQUAZX
_database_code_depnum_ccdc_archive 'CCDC 1237912'
_chemical_formula_sum 'C14 H10 N2 O2'
_chemical_formula_moiety
;
C14 H10 N2 O2
;
_journal_coeditor_code "IUCr A17817"
_journal_coden_Cambridge 107
_journal_volume 35
_journal_year 1979
_journal_page_first 2276
_journal_name_full 'Acta Crystallogr.,Sect.B:Struct.Crystallogr.Cryst.Chem. '
loop_
_publ_author_name
"K.L.Brown"
"G.J.Gainsford"
_chemical_name_systematic
;
2-Phenyl-quinazoline 1,3-dioxide
;
_cell_volume   1090.876
_exptl_crystal_colour 'pale yellow'
_exptl_crystal_density_diffrn 1.45
_diffrn_ambient_temperature ?
_diffrn_special_details
;
The study was carried out at room temperature,in the range 283-303K

;
#These two values have been output from a single CSD field.
_refine_ls_R_factor_gt 0.03
_refine_ls_wR_factor_gt 0.03
_symmetry_cell_setting orthorhombic
_symmetry_space_group_name_H-M 'P c a 21'
_symmetry_Int_Tables_number 29
loop_
_symmetry_equiv_pos_site_id
_symmetry_equiv_pos_as_xyz
1 x,y,z
2 1/2-x,y,1/2+z
3 1/2+x,-y,z
4 -x,-y,1/2+z
_cell_length_a 12.868(1)
_cell_length_b 5.3709(5)
_cell_length_c 15.784(1)
_cell_angle_alpha 90
_cell_angle_beta 90
_cell_angle_gamma 90
_cell_formula_units_Z 4
loop_
_atom_type_symbol
_atom_type_radius_bond
C 0.68
N 0.68
O 0.68
loop_
_atom_site_label
_atom_site_type_symbol
_atom_site_fract_x
_atom_site_fract_y
_atom_site_fract_z
O1 O 0.80220 0.82640 0.29470
O2 O 0.95320 0.15690 0.16370
N1 N 0.88030 0.67930 0.28480
N2 N 0.96130 0.33050 0.22010
C1 C 0.87810 0.49840 0.22610
C2 C 1.04420 0.35300 0.26940
C3 C 1.13610 0.76240 0.44260
C4 C 1.05380 0.93010 0.44820
C5 C 0.96880 0.90920 0.39580
C6 C 0.96780 0.71280 0.33730
C7 C 0.79030 0.48090 0.16730
C8 C 0.77540 0.67500 0.10980
C9 C 0.69180 0.66410 0.05480
C10 C 0.62300 0.47030 0.05780
C11 C 0.63720 0.27740 0.11500
C12 C 0.72240 0.28170 0.16930
C13 C 1.04950 0.54490 0.32950
C14 C 1.13590 0.57540 0.38480
#END
