
#######################################################################
#
#                 Cambridge Crystallographic Data Centre
#                                CCDC
#
#######################################################################
#
# If this CIF has been generated from an entry in the Cambridge
# Structural Database, then it will include bibliographic, chemical,
# crystal, experimental, refinement or atomic coordinate data resulting
# from the CCDC's data processing and validation procedures.
#
#######################################################################

data_CSD_CIF_PUBLON
_audit_creation_date 1998-11-26
_audit_creation_method CSD-ConQuest-V1
_database_code_CSD PUBLON
_database_code_depnum_ccdc_archive 'CCDC 117772'
_chemical_formula_sum 'C14 H18 N8 O6'
_chemical_formula_moiety
;
C14 H18 N8 O6
;
_journal_coden_Cambridge 16
_journal_volume 54
_journal_year 1998
_journal_page_first 11793
_journal_name_full 'Tetrahedron '
loop_
_publ_author_name
"A.T.Nielsen"
"A.P.Chafin"
"S.L.Christian"
"D.W.Moore"
"M.P.Nadler"
"R.A.Nissan"
"D.J.Vanderah"
"R.D.Gilardi"
"C.F.George"
"J.L.Flippen-Anderson"
_chemical_name_systematic
;
4,10-Dinitroso-2,6,8,12-tetra-acetyl-2,4,6,8,10,12-hexa-azatetracyclo(5.5.0.0^
5,9^.0^3,11^)dodecane
;
_chemical_name_common
;
Dinitrosotetra-acetylhexa-azaisowurtzitane
;
_chemical_melting_point 563
_cell_volume   1758.092
_exptl_crystal_density_diffrn 1.49
_exptl_special_details
;
Melting point range 563-568K

;
_exptl_crystal_description 'block'
_diffrn_ambient_temperature ?
_diffrn_special_details
;
The study was carried out at room temperature,in the range 283-303K

;
_refine_special_details
;
One methyl group and one nitroso group are disordered over two positions with 
occupancies of 0.49:0.51 and 0.786:0.214 respectively.
;
#These two values have been output from a single CSD field.
_refine_ls_R_factor_gt 0.0359
_refine_ls_wR_factor_gt 0.0359
_symmetry_cell_setting monoclinic
_symmetry_space_group_name_H-M 'P 21/n'
_symmetry_Int_Tables_number 14
loop_
_symmetry_equiv_pos_site_id
_symmetry_equiv_pos_as_xyz
1 x,y,z
2 1/2-x,1/2+y,1/2-z
3 -x,-y,-z
4 -1/2+x,-1/2-y,-1/2+z
_cell_length_a 10.862(2)
_cell_length_b 14.851(2)
_cell_length_c 11.058(2)
_cell_angle_alpha 90
_cell_angle_beta 99.736(14)
_cell_angle_gamma 90
_cell_formula_units_Z 4
loop_
_atom_type_symbol
_atom_type_radius_bond
C 0.68
H 0.23
N 0.68
O 0.68
loop_
_atom_site_label
_atom_site_type_symbol
_atom_site_fract_x
_atom_site_fract_y
_atom_site_fract_z
C1 C 0.2580(2) 1.42764(13) 0.0323(2)
H1 H 0.2390(2) 1.46376(13) 0.1010(2)
N1 N 0.32072(15) 1.48131(10) -0.0501(2)
C2 C 0.3901(2) 1.42064(14) -0.1175(2)
H2 H 0.4688(2) 1.44821(14) -0.1304(2)
C3 C 0.1985(2) 1.34776(13) -0.2288(2)
H3 H 0.1573(2) 1.33014(13) -0.3112(2)
N2 N 0.11636(14) 1.40348(11) -0.16853(14)
C4 C 0.1362(2) 1.37935(12) -0.0394(2)
H4 H 0.0627(2) 1.39365(12) -0.0023(2)
N3 N 0.15396(15) 1.28244(10) -0.04644(15)
C5 C 0.2247(2) 1.26398(13) -0.1433(2)
H5 H 0.1955(2) 1.20861(13) -0.1872(2)
N4 N 0.3574(2) 1.25900(11) -0.0949(2)
C6 C 0.4150(2) 1.33766(14) -0.0309(2)
H6 H 0.5049(2) 1.32826(14) -0.0049(2)
N5 N 0.3561(2) 1.36207(11) 0.07287(15)
C7 C 0.2970(2) 1.56761(14) -0.0893(2)
O1 O 0.3462(2) 1.59536(11) -0.1737(2)
C8 C 0.2153(2) 1.6243(2) -0.0256(3)
H7 H 0.2131(87) 1.6845(19) -0.0576(75)
H8 H 0.2477(61) 1.6254(64) 0.0607(14)
H9 H 0.1324(26) 1.5997(44) -0.0387(89)
N6 N 0.3163(2) 1.39328(11) -0.2331(2)
N7 N 0.3585(13) 1.4218(13) -0.3349(3)
O2 O 0.2905(2) 1.4016(2) -0.4304(2)
C9 C 0.0156(2) 1.45231(13) -0.2223(2)
O3 O -0.05370(15) 1.48603(11) -0.15943(14)
C10 C -0.0020(2) 1.4642(2) -0.3574(2)
H10 H -0.0643(11) 1.5095(8) -0.3820(3)
H11 H -0.0286(14) 1.4083(3) -0.3970(2)
H12 H 0.0755(4) 1.4826(10) -0.3806(2)
C11 C 0.1082(2) 1.2227(2) 0.0277(2)
O4 O 0.0527(2) 1.24955(12) 0.1075(2)
C12 C 0.1317(3) 1.1250(2) 0.0072(3)
H13 H 0.0759(14) 1.0892(2) 0.0459(17)
H14 H 0.2165(7) 1.1105(4) 0.0418(17)
H15 H 0.1178(19) 1.1127(3) -0.0793(3)
N8 N 0.4206(2) 1.18702(12) -0.1238(2)
O5 O 0.5334(2) 1.19028(12) -0.0888(2)
C13 C 0.3780(2) 1.31629(15) 0.1815(2)
O6 O 0.4509(2) 1.25284(11) 0.1925(2)
C14 C 0.3124(3) 1.3480(2) 0.2813(2)
H16 H 0.3367(14) 1.3113(9) 0.3529(6)
H17 H 0.2238(3) 1.3435(12) 0.2549(7)
H18 H 0.3345(14) 1.4095(4) 0.3006(12)
H19? H 0.1824(87) 1.5886(19) 0.0339(75)
H20? H 0.1477(61) 1.6477(64) -0.0844(15)
H21? H 0.2630(26) 1.6733(44) 0.0150(89)
N9? N 0.3443(48) 1.4101(52) -0.3457(7)
O7? O 0.4407(8) 1.4528(6) -0.3430(9)
#END
