
#######################################################################
#
#                 Cambridge Crystallographic Data Centre
#                                CCDC
#
#######################################################################
#
# If this CIF has been generated from an entry in the Cambridge
# Structural Database, then it will include bibliographic, chemical,
# crystal, experimental, refinement or atomic coordinate data resulting
# from the CCDC's data processing and validation procedures.
#
#######################################################################

data_CSD_CIF_PUBMUU02
_audit_creation_date 1998-11-26
_audit_creation_method CSD-ConQuest-V1
_database_code_CSD PUBMUU02
_database_code_depnum_ccdc_archive 'CCDC 117779'
_chemical_formula_sum 'C6 H6 N12 O12'
_chemical_formula_moiety
;
C6 H6 N12 O12
;
_journal_coden_Cambridge 16
_journal_volume 54
_journal_year 1998
_journal_page_first 11793
_journal_name_full 'Tetrahedron '
loop_
_publ_author_name
"A.T.Nielsen"
"A.P.Chafin"
"S.L.Christian"
"D.W.Moore"
"M.P.Nadler"
"R.A.Nissan"
"D.J.Vanderah"
"R.D.Gilardi"
"C.F.George"
"J.L.Flippen-Anderson"
_chemical_name_systematic
;
2,4,6,8,10,12-Hexanitro-2,4,6,8,10,12-hexa-azatetracyclo(5.5.0.0^5,9^.0^3,11^)
dodecane
;
_chemical_name_common
;
Hexanitrohexa-azaisowurtzitane
;
_chemical_melting_point 533
_cell_volume   1424.146
_exptl_crystal_colour 'colorless'
_exptl_crystal_density_diffrn 2.044
_exptl_special_details
;
monoclinic epsilon polymorph

;
_exptl_crystal_description 'prism'
_diffrn_ambient_temperature ?
_diffrn_special_details
;
The study was carried out at room temperature,in the range 283-303K

;
#These two values have been output from a single CSD field.
_refine_ls_R_factor_gt 0.0363
_refine_ls_wR_factor_gt 0.0363
_symmetry_cell_setting monoclinic
_symmetry_space_group_name_H-M 'P 21/n'
_symmetry_Int_Tables_number 14
loop_
_symmetry_equiv_pos_site_id
_symmetry_equiv_pos_as_xyz
1 x,y,z
2 1/2-x,1/2+y,1/2-z
3 -x,-y,-z
4 -1/2+x,-1/2-y,-1/2+z
_cell_length_a 8.852(2)
_cell_length_b 12.556(3)
_cell_length_c 13.386(3)
_cell_angle_alpha 90
_cell_angle_beta 106.82(2)
_cell_angle_gamma 90
_cell_formula_units_Z 4
loop_
_atom_type_symbol
_atom_type_radius_bond
C 0.68
H 0.23
N 0.68
O 0.68
loop_
_atom_site_label
_atom_site_type_symbol
_atom_site_fract_x
_atom_site_fract_y
_atom_site_fract_z
C1 C 0.4374(2) 0.6373(2) 0.8657(2)
H1 H 0.4198(27) 0.6418(19) 0.9313(18)
N1 N 0.3029(2) 0.59733(14) 0.78357(13)
N2 N 0.1518(2) 0.6059(2) 0.8017(2)
O1 O 0.0392(2) 0.61538(14) 0.7257(2)
O2 O 0.1519(2) 0.5967(2) 0.8917(2)
C2 C 0.3167(2) 0.6365(2) 0.6834(2)
H2 H 0.2140(28) 0.6533(19) 0.6331(18)
N3 N 0.3887(2) 0.55455(14) 0.63653(13)
N4 N 0.3121(2) 0.5124(2) 0.53944(14)
O3 O 0.3749(2) 0.43742(14) 0.51000(12)
O4 O 0.1906(2) 0.5549(2) 0.49201(14)
C3 C 0.5451(2) 0.5196(2) 0.6926(2)
H3 H 0.5822(27) 0.4693(19) 0.6532(18)
N5 N 0.5514(2) 0.47789(13) 0.79625(13)
N6 N 0.4514(2) 0.39691(14) 0.80497(14)
O5 O 0.4040(2) 0.33973(12) 0.72922(13)
O6 O 0.4231(2) 0.38818(13) 0.88858(12)
C4 C 0.5851(2) 0.5622(2) 0.8735(2)
H4 H 0.6276(27) 0.5353(19) 0.9411(19)
N7 N 0.7064(2) 0.61363(14) 0.83683(13)
N8 N 0.7860(2) 0.6979(2) 0.89494(14)
O7 O 0.8485(2) 0.76092(14) 0.85045(14)
O8 O 0.7890(2) 0.6997(2) 0.98628(12)
C5 C 0.6579(2) 0.6189(2) 0.7215(2)
H5 H 0.7451(29) 0.6161(18) 0.6957(18)
N9 N 0.5677(2) 0.71259(14) 0.67918(13)
N10 N 0.6460(2) 0.7983(2) 0.64663(15)
O9 O 0.5887(2) 0.88556(14) 0.6474(2)
O10 O 0.7596(2) 0.77526(14) 0.61841(14)
C6 C 0.4314(2) 0.7349(2) 0.7138(2)
H6 H 0.3845(28) 0.7978(20) 0.6840(18)
N11 N 0.4718(2) 0.74090(13) 0.82785(13)
N12 N 0.4188(2) 0.83113(15) 0.8723(2)
O11 O 0.4029(2) 0.91205(13) 0.82158(15)
O12 O 0.4017(2) 0.81931(15) 0.95792(15)
#END
