
#######################################################################
#
#                 Cambridge Crystallographic Data Centre
#                                CCDC
#
#######################################################################
#
# If this CIF has been generated from an entry in the Cambridge
# Structural Database, then it will include bibliographic, chemical,
# crystal, experimental, refinement or atomic coordinate data resulting
# from the CCDC's data processing and validation procedures.
#
#######################################################################

data_CSD_CIF_PUBMUU19
_audit_creation_date 2005-04-28
_audit_creation_method CSD-ConQuest-V1
_database_code_CSD PUBMUU19
_database_code_depnum_ccdc_archive 'CCDC 260028'
_chemical_formula_sum 'C6 H6 N12 O12'
_chemical_formula_moiety
;
C6 H6 N12 O12
;
_journal_coden_Cambridge 1354
_journal_volume 48
_journal_year 2004
_journal_page_first 41-1
_journal_name_full 'Ross.Khim.Zhurnal(Russ.)(Russ.Chem.J.) '
loop_
_publ_author_name
"N.I.Golovina"
"A.V.Raevsky"
"N.V.Chukanov"
"B.L.Korsunsky"
"L.O.Atovmyan"
"S.M.Aldoshin"
_chemical_name_systematic
;
2,4,6,8,10,12-Hexanitro-2,4,6,8,10,12-hexa-azatetracyclo(5.5.0.0^3,11^.0^5,9^)
dodecane
;
_chemical_name_common
;
Hexanitro-hexa-azaisowurtzitane
;
_cell_volume   1427.126
_exptl_crystal_density_diffrn 2.04
_exptl_special_details
;
monoclinic epsilon polymorph

;
_diffrn_ambient_temperature 295
#These two values have been output from a single CSD field.
_refine_ls_R_factor_gt 0.0443
_refine_ls_wR_factor_gt 0.0443
_symmetry_cell_setting monoclinic
_symmetry_space_group_name_H-M 'P 21/n'
_symmetry_Int_Tables_number 14
loop_
_symmetry_equiv_pos_site_id
_symmetry_equiv_pos_as_xyz
1 x,y,z
2 1/2-x,1/2+y,1/2-z
3 -x,-y,-z
4 -1/2+x,-1/2-y,-1/2+z
_cell_length_a 8.855(2)
_cell_length_b 12.584(3)
_cell_length_c 13.386(3)
_cell_angle_alpha 90
_cell_angle_beta 106.91(3)
_cell_angle_gamma 90
_cell_formula_units_Z 4
loop_
_atom_type_symbol
_atom_type_radius_bond
C 0.68
H 0.23
N 0.68
O 0.68
loop_
_atom_site_label
_atom_site_type_symbol
_atom_site_fract_x
_atom_site_fract_y
_atom_site_fract_z
N1 N 0.2059(4) 0.8862(3) 0.8366(3)
N2 N -0.0484(4) 1.1026(3) 0.8052(3)
O1 O -0.1253(4) 1.0621(3) 0.5092(2)
O2 O -0.0944(4) 1.1600(2) 0.7289(3)
N3 N -0.0280(4) 0.7596(2) 0.8287(3)
O3 O -0.0766(4) 1.1121(3) 0.8885(3)
N4 N 0.0523(4) 1.0216(3) 0.7969(3)
N5 N -0.0825(4) 0.6696(3) 0.8718(3)
O4 O -0.0967(4) 0.6818(3) 0.9589(3)
O5 O 0.3490(4) 0.7400(3) 0.8509(3)
O6 O 0.2891(4) 0.8008(3) 0.9871(3)
O7 O 0.2597(4) 0.7246(3) 0.6192(3)
N6 N -0.1970(4) 0.9027(3) 0.7839(3)
O8 O -0.0982(4) 0.5884(2) 0.8212(3)
O9 O -0.3091(5) 0.9446(3) 0.4905(3)
C1 C 0.0860(5) 0.9381(3) 0.8741(3)
N7 N -0.3484(4) 0.8947(3) 0.8020(4)
N8 N -0.1107(4) 0.9454(3) 0.6368(3)
O10 O 0.0888(4) 0.6147(3) 0.6482(3)
N9 N 0.1464(5) 0.7022(3) 0.6474(3)
N10 N -0.1885(5) 0.9880(3) 0.5388(3)
N11 N 0.0672(4) 0.7874(3) 0.6794(3)
C2 C -0.0627(5) 0.8627(3) 0.8661(3)
O11 O -0.4611(4) 0.8842(3) 0.7253(3)
O12 O -0.3481(4) 0.9042(3) 0.8920(3)
C3 C 0.1578(5) 0.8813(3) 0.7220(3)
N12 N 0.2860(4) 0.8025(3) 0.8956(3)
C4 C -0.1839(6) 0.8632(3) 0.6822(4)
C5 C 0.0454(5) 0.9809(3) 0.6932(3)
C6 C -0.0680(5) 0.7657(4) 0.7142(4)
H1 H 0.123(6) 0.965(4) 0.949(4)
H2 H -0.084(6) 0.857(4) 0.932(4)
H3 H 0.242(4) 0.893(3) 0.697(2)
H4 H 0.084(5) 1.031(4) 0.651(4)
H5 H -0.276(7) 0.849(5) 0.642(5)
H6 H -0.108(5) 0.708(4) 0.687(4)
#END
