
#######################################################################
#
#                 Cambridge Crystallographic Data Centre
#                                CCDC
#
#######################################################################
#
# If this CIF has been generated from an entry in the Cambridge
# Structural Database, then it will include bibliographic, chemical,
# crystal, experimental, refinement or atomic coordinate data resulting
# from the CCDC's data processing and validation procedures.
#
#######################################################################

data_CSD_CIF_PUBMUU
_audit_creation_date 1998-11-26
_audit_creation_method CSD-ConQuest-V1
_database_code_CSD PUBMUU
_database_code_depnum_ccdc_archive 'CCDC 117778'
_chemical_formula_sum 'C6 H6 N12 O12'
_chemical_formula_moiety
;
C6 H6 N12 O12
;
_journal_coden_Cambridge 16
_journal_volume 54
_journal_year 1998
_journal_page_first 11793
_journal_name_full 'Tetrahedron '
loop_
_publ_author_name
"A.T.Nielsen"
"A.P.Chafin"
"S.L.Christian"
"D.W.Moore"
"M.P.Nadler"
"R.A.Nissan"
"D.J.Vanderah"
"R.D.Gilardi"
"C.F.George"
"J.L.Flippen-Anderson"
_chemical_name_systematic
;
2,4,6,8,10,12-Hexanitro-2,4,6,8,10,12-hexa-azatetracyclo(5.5.0.0^5,9^.0^3,11^)
dodecane
;
_chemical_name_common
;
Hexanitrohexa-azaisowurtzitane
;
_chemical_melting_point 533
_cell_volume   1518.886
_exptl_crystal_density_diffrn 1.916
_exptl_special_details
;
monoclinic gamma polymorph

;
_exptl_crystal_description 'rectangular'
_exptl_crystal_preparation 'by heating the beta form to 185 deg.C'
_diffrn_ambient_temperature ?
_diffrn_special_details
;
The study was carried out at room temperature,in the range 283-303K

;
#These two values have been output from a single CSD field.
_refine_ls_R_factor_gt 0.043
_refine_ls_wR_factor_gt 0.043
_symmetry_cell_setting monoclinic
_symmetry_space_group_name_H-M 'P 21/n'
_symmetry_Int_Tables_number 14
loop_
_symmetry_equiv_pos_site_id
_symmetry_equiv_pos_as_xyz
1 x,y,z
2 1/2-x,1/2+y,1/2-z
3 -x,-y,-z
4 -1/2+x,-1/2-y,-1/2+z
_cell_length_a 13.231(3)
_cell_length_b 8.170(2)
_cell_length_c 14.876(3)
_cell_angle_alpha 90
_cell_angle_beta 109.17(2)
_cell_angle_gamma 90
_cell_formula_units_Z 4
loop_
_atom_type_symbol
_atom_type_radius_bond
C 0.68
H 0.23
N 0.68
O 0.68
loop_
_atom_site_label
_atom_site_type_symbol
_atom_site_fract_x
_atom_site_fract_y
_atom_site_fract_z
C1 C 0.6074(2) 0.4859(3) 0.32329(14)
H1 H 0.6706(19) 0.5479(29) 0.3573(16)
N1 N 0.61601(13) 0.3133(2) 0.34885(11)
N2 N 0.69280(15) 0.2693(3) 0.43759(13)
O1 O 0.6836(2) 0.1334(2) 0.46573(13)
O2 O 0.76225(15) 0.3681(3) 0.47424(13)
C2 C 0.5063(2) 0.2496(2) 0.32963(14)
H2 H 0.5043(18) 0.1779(29) 0.3733(17)
N3 N 0.47027(14) 0.1711(2) 0.23860(12)
N4 N 0.4660(2) 0.0006(2) 0.2327(2)
O3 O 0.4390(2) -0.0572(2) 0.15338(14)
O4 O 0.4848(2) -0.0717(2) 0.3075(2)
C3 C 0.4689(2) 0.2669(3) 0.15726(14)
H3 H 0.4428(18) 0.2109(30) 0.1047(18)
N5 N 0.57295(13) 0.3390(2) 0.16584(12)
N6 N 0.6613(2) 0.2415(3) 0.17875(13)
O5 O 0.6449(2) 0.0988(2) 0.15707(14)
O6 O 0.74813(13) 0.3086(3) 0.20919(14)
C4 C 0.5842(2) 0.4983(3) 0.21183(13)
H4 H 0.6374(19) 0.5659(29) 0.1953(16)
N7 N 0.47785(14) 0.5640(2) 0.16438(11)
N8 N 0.4672(2) 0.6418(2) 0.07490(12)
O7 O 0.5482(2) 0.6922(2) 0.06375(12)
O8 O 0.37689(15) 0.6566(2) 0.02038(11)
C5 C 0.4015(2) 0.4259(2) 0.15359(14)
H5 H 0.3473(19) 0.4396(28) 0.0971(17)
N9 N 0.35958(13) 0.4219(2) 0.23140(12)
N10 N 0.2754(2) 0.5331(3) 0.22495(15)
O9 O 0.2562(2) 0.5576(4) 0.29773(15)
O10 O 0.2285(2) 0.5894(3) 0.14727(14)
C6 C 0.4368(2) 0.4072(2) 0.32610(14)
H6 H 0.4004(19) 0.3980(27) 0.3715(17)
N11 N 0.51368(14) 0.5425(2) 0.34552(11)
N12 N 0.5302(2) 0.6360(2) 0.42841(12)
O11 O 0.4536(2) 0.6498(2) 0.45587(12)
O12 O 0.6163(2) 0.7006(2) 0.46281(13)
#END
