
#######################################################################
#
#                 Cambridge Crystallographic Data Centre
#                                CCDC
#
#######################################################################
#
# If this CIF has been generated from an entry in the Cambridge
# Structural Database, then it will include bibliographic, chemical,
# crystal, experimental, refinement or atomic coordinate data resulting
# from the CCDC's data processing and validation procedures.
#
#######################################################################

data_CSD_CIF_PUBMUU16
_audit_creation_date 2004-10-11
_audit_creation_method CSD-ConQuest-V1
_database_code_CSD PUBMUU16
_database_code_depnum_ccdc_archive 'CCDC 251410'
_chemical_formula_sum 'C6 H6 N12 O12'
_chemical_formula_moiety
;
C6 H6 N12 O12
;
_journal_coeditor_code "IUCr DO5007"
_journal_coden_Cambridge 228
_journal_volume 37
_journal_year 2004
_journal_page_first 808
_journal_name_full 'J.Appl.Crystallogr. '
loop_
_publ_author_name
"N.B.Bolotina"
"M.J.Hardie"
"R.L.Speer Junior"
"A.Alan Pinkerton"
_chemical_name_systematic
;
2,4,6,8,10,12-Hexanitro-2,4,6,8,10,12-hexa-azatetracyclo(5.5.0.0^5,9^.0^3,11^)
dodecane
;
_chemical_name_common
;
Hexanitrohexa-azaisowurtzitane; HNIW; CL-20
;
_cell_volume   1430.235
_exptl_crystal_colour 'colorless'
_exptl_crystal_density_diffrn 2.035
_exptl_special_details
;
monoclinic epsilon polymorph

;
_exptl_crystal_description 'block'
_diffrn_ambient_temperature 298.0
#These two values have been output from a single CSD field.
_refine_ls_R_factor_gt 0.0557
_refine_ls_wR_factor_gt 0.0557
_symmetry_cell_setting monoclinic
_symmetry_space_group_name_H-M 'P 21/n'
_symmetry_Int_Tables_number 14
loop_
_symmetry_equiv_pos_site_id
_symmetry_equiv_pos_as_xyz
1 x,y,z
2 1/2-x,1/2+y,1/2-z
3 -x,-y,-z
4 -1/2+x,-1/2-y,-1/2+z
_cell_length_a 8.8628(11)
_cell_length_b 12.5928(16)
_cell_length_c 13.3947(17)
_cell_angle_alpha 90
_cell_angle_beta 106.920(2)
_cell_angle_gamma 90
_cell_formula_units_Z 4
loop_
_atom_type_symbol
_atom_type_radius_bond
C 0.68
H 0.23
N 0.68
O 0.68
loop_
_atom_site_label
_atom_site_type_symbol
_atom_site_fract_x
_atom_site_fract_y
_atom_site_fract_z
C1 C 0.4311(3) -0.23426(18) 0.21368(18)
H1 H 0.389(3) -0.297(2) 0.1834(18)
C2 C 0.6578(3) -0.11856(18) 0.22188(17)
H2 H 0.746(3) -0.1124(17) 0.1963(17)
C3 C 0.5852(3) -0.06188(18) 0.37374(18)
H3 H 0.628(3) -0.0344(17) 0.4418(18)
C4 C 0.5456(3) -0.01946(18) 0.19291(17)
H4 H 0.582(3) 0.0302(17) 0.1539(16)
C5 C 0.3175(3) -0.13616(18) 0.18368(18)
H5 H 0.221(3) -0.1552(18) 0.1344(17)
C6 C 0.4378(3) -0.13681(17) 0.36616(18)
H6 H 0.420(3) -0.1383(18) 0.4300(18)
N1 N 0.6462(3) -0.29780(17) 0.14733(16)
N2 N 0.5678(2) -0.21221(14) 0.17942(14)
N3 N 0.7865(2) -0.19742(16) 0.39606(16)
N4 N 0.7066(2) -0.11325(14) 0.33720(14)
N5 N 0.4523(2) 0.10326(15) 0.30473(16)
N6 N 0.5518(2) 0.02215(14) 0.29654(13)
N7 N 0.3128(3) -0.01271(17) 0.03894(15)
N8 N 0.3894(2) -0.05447(15) 0.13678(14)
N9 N 0.1521(3) -0.10523(16) 0.30145(18)
N10 N 0.3028(2) -0.09681(15) 0.28366(14)
N11 N 0.4182(2) -0.33030(15) 0.37243(17)
N12 N 0.4725(2) -0.24022(13) 0.32829(14)
O1 O 0.5890(3) -0.38519(15) 0.14840(18)
O2 O 0.7598(2) -0.27482(15) 0.11910(14)
O3 O 0.8488(2) -0.26021(14) 0.35129(15)
O4 O 0.7889(2) -0.19887(15) 0.48707(14)
O5 O 0.4238(2) 0.11200(13) 0.38849(13)
O6 O 0.4058(2) 0.16054(12) 0.22897(13)
O7 O 0.1913(3) -0.05533(17) -0.00819(14)
O8 O 0.3753(2) 0.06240(14) 0.00985(13)
O9 O 0.0395(2) -0.11530(14) 0.22564(15)
O10 O 0.1525(2) -0.09586(16) 0.39190(16)
O11 O 0.4019(2) -0.31862(14) 0.45821(15)
O12 O 0.4020(2) -0.41139(13) 0.32126(14)
#END
