
#######################################################################
#
#                 Cambridge Crystallographic Data Centre
#                                CCDC
#
#######################################################################
#
# If this CIF has been generated from an entry in the Cambridge
# Structural Database, then it will include bibliographic, chemical,
# crystal, experimental, refinement or atomic coordinate data resulting
# from the CCDC's data processing and validation procedures.
#
#######################################################################

data_CSD_CIF_PUBMUU24
_audit_creation_date 2016-08-10
_audit_creation_method CSD-ConQuest-V1
_database_code_CSD PUBMUU24
_database_code_depnum_ccdc_archive 'CCDC 1498603'
_chemical_formula_sum 'C6 H6 N12 O12'
_chemical_formula_moiety
;
C6 H6 N12 O12
;
_journal_coden_Cambridge 1123
_journal_volume 42
_journal_year 1999
_journal_page_first 217
_journal_name_full 'Sci.China,Ser.B:Chem. '
loop_
_publ_author_name
"Yuxiang Ou"
"Huiping Jia"
"Yongjiang Xu"
"Boren Chen"
"Guangyu Fan"
"Lihua Liu"
"Fuping Zheng"
"Zelin Pan"
"Cai Wang"
_chemical_name_systematic
;
hexanitrohexa-azaisowurtzitane
;
_chemical_name_common
;
2,4,6,8,10,12-hexanitro-2,4,6,8,10,12-hexa-azatetracyclo[5.5.0.0$3,11!.0$5,9!]
dodecane
;
_cell_volume   1463.842
_exptl_crystal_density_diffrn 1.989
_exptl_special_details
;
orthorhombic beta polymorph

;
_diffrn_ambient_temperature ?
_diffrn_special_details
;
The study was carried out at room temperature,in the range 283-303K

;
#These two values have been output from a single CSD field.
_refine_ls_R_factor_gt 0.0357
_refine_ls_wR_factor_gt 0.0357
_symmetry_cell_setting orthorhombic
_symmetry_space_group_name_H-M 'P c a 21'
_symmetry_Int_Tables_number 29
loop_
_symmetry_equiv_pos_site_id
_symmetry_equiv_pos_as_xyz
1 x,y,z
2 -x,-y,1/2+z
3 1/2+x,-y,z
4 1/2-x,y,1/2+z
_cell_length_a 9.670(2)
_cell_length_b 11.616(2)
_cell_length_c 13.032(3)
_cell_angle_alpha 90
_cell_angle_beta 90
_cell_angle_gamma 90
_cell_formula_units_Z 4
loop_
_atom_type_symbol
_atom_type_radius_bond
C 0.68
N 0.68
O 0.68
loop_
_atom_site_label
_atom_site_type_symbol
_atom_site_fract_x
_atom_site_fract_y
_atom_site_fract_z
O1 O 0.1934(4) 0.0165(3) 0.53410
O2 O 0.0850(4) -0.0484(3) 0.3989(5)
O3 O -0.1669(5) 0.1907(5) 0.7143(5)
O4 O -0.33260 0.2501(5) 0.6154(5)
O5 O -0.3671(4) 0.3810(3) 0.3916(5)
O6 O -0.2792(4) 0.5000(4) 0.3234(5)
O7 O 0.3979(4) 0.2456(4) 0.4761(5)
O8 O 0.3590(5) 0.2469(5) 0.3115(5)
O9 O -0.0904(5) 0.5183(4) 0.5308(5)
O10 O 0.0411(6) 0.4392(4) 0.6469(5)
O11 O -0.0549(6) 0.0240(5) 0.2186(5)
O12 O 0.1210(6) 0.1323(6) 0.1789(5)
N1 N -0.0074(4) 0.0940(3) 0.4877(4)
N2 N 0.0972(5) 0.0160(4) 0.4718(4)
N3 N -0.1198(4) 0.2435(4) 0.5532(5)
N4 N -0.2153(5) 0.2236(4) 0.6332(5)
N5 N -0.1458(4) 0.3357(3) 0.3903(5)
N6 N -0.2511(5) 0.4117(4) 0.3685(5)
N7 N 0.1798(4) 0.2360(4) 0.4192(5)
N8 N 0.3255(5) 0.2468(4) 0.4011(6)
N9 N 0.0645(4) 0.3868(4) 0.4846(5)
N10 N -0.0002(6) 0.4530(4) 0.5590(5)
N11 N -0.0082(4) 0.1782(4) 0.3153(5)
N12 N 0.0237(6) 0.1042(6) 0.2314(5)
C1 C 0.0149(5) 0.1893(4) 0.5587(5)
C2 C -0.1740(5) 0.2335(4) 0.4473(5)
C3 C 0.1276(5) 0.2781(5) 0.5169(5)
C4 C 0.0847(6) 0.2708(5) 0.3370(5)
C5 C -0.0031(5) 0.3720(5) 0.3833(5)
C6 C -0.0902(5) 0.1318(4) 0.3981(5)
#END
