
#######################################################################
#
#                 Cambridge Crystallographic Data Centre
#                                CCDC
#
#######################################################################
#
# If this CIF has been generated from an entry in the Cambridge
# Structural Database, then it will include bibliographic, chemical,
# crystal, experimental, refinement or atomic coordinate data resulting
# from the CCDC's data processing and validation procedures.
#
#######################################################################

data_CSD_CIF_PUBMUU17
_audit_creation_date 2005-04-28
_audit_creation_method CSD-ConQuest-V1
_database_code_CSD PUBMUU17
_database_code_depnum_ccdc_archive 'CCDC 1238592'
_chemical_formula_sum 'C6 H6 N12 O12'
_chemical_formula_moiety
;
C6 H6 N12 O12
;
_journal_coden_Cambridge 1354
_journal_volume 48
_journal_year 2004
_journal_page_first 41-1
_journal_name_full 'Ross.Khim.Zhurnal(Russ.)(Russ.Chem.J.) '
loop_
_publ_author_name
"N.I.Golovina"
"A.V.Raevsky"
"N.V.Chukanov"
"B.L.Korsunsky"
"L.O.Atovmyan"
"S.M.Aldoshin"
_chemical_name_systematic
;
2,4,6,8,10,12-Hexanitro-2,4,6,8,10,12-hexa-azatetracyclo(5.5.0.0^3,11^.0^5,9^)
dodecane
;
_chemical_name_common
;
Hexanitro-hexa-azaisowurtzitane
;
_cell_volume   1426.968
_exptl_crystal_density_diffrn 2.039
_exptl_special_details
;
monoclinic epsilon polymorph

;
_diffrn_ambient_temperature 295
#These two values have been output from a single CSD field.
_refine_ls_R_factor_gt 0.037
_refine_ls_wR_factor_gt 0.037
_symmetry_cell_setting monoclinic
_symmetry_space_group_name_H-M 'P 21/n'
_symmetry_Int_Tables_number 14
loop_
_symmetry_equiv_pos_site_id
_symmetry_equiv_pos_as_xyz
1 x,y,z
2 1/2-x,1/2+y,1/2-z
3 -x,-y,-z
4 -1/2+x,-1/2-y,-1/2+z
_cell_length_a 8.855(1)
_cell_length_b 12.579(2)
_cell_length_c 13.387(5)
_cell_angle_alpha 90
_cell_angle_beta 106.87(3)
_cell_angle_gamma 90
_cell_formula_units_Z 4
loop_
_atom_type_symbol
_atom_type_radius_bond
C 0.68
H 0.23
N 0.68
O 0.68
loop_
_atom_site_label
_atom_site_type_symbol
_atom_site_fract_x
_atom_site_fract_y
_atom_site_fract_z
O1 O -0.3487(2) 0.2397(2) 0.1492(2)
O2 O -0.2893(3) 0.3007(2) 0.0130(2)
O3 O 0.0955(2) 0.6599(1) 0.2711(1)
O4 O 0.0765(2) 0.6119(1) 0.1116(1)
O5 O 0.0963(3) 0.0885(1) 0.1780(2)
O6 O 0.0971(3) 0.1811(1) 0.0416(2)
O7 O 0.4615(2) 0.3845(1) 0.2746(2)
O8 O 0.3478(3) 0.4036(2) 0.1082(2)
O9 O -0.2597(3) 0.2248(2) 0.3809(2)
O10 O -0.0888(3) 0.1146(2) 0.3520(2)
O11 O 0.1256(2) 0.5620(2) 0.4904(1)
O12 O 0.3083(3) 0.4450(2) 0.5085(2)
N1 N -0.2063(2) 0.3866(1) 0.1630(1)
N2 N -0.2868(2) 0.3025(2) 0.1047(1)
N3 N -0.0514(2) 0.5220(1) 0.2036(1)
N4 N 0.0478(2) 0.6028(1) 0.1953(2)
N5 N 0.0278(2) 0.2600(1) 0.1713(1)
N6 N 0.0808(2) 0.1696(1) 0.1273(2)
N7 N 0.1976(2) 0.4032(1) 0.2165(1)
N8 N 0.3478(3) 0.3941(2) 0.1980(2)
N9 N -0.0676(2) 0.2874(2) 0.3206(1)
N10 N -0.1457(3) 0.2019(2) 0.3527(2)
N11 N 0.1112(2) 0.4449(2) 0.3632(1)
N12 N 0.1884(3) 0.4876(2) 0.4607(2)
C1 C -0.0856(3) 0.4382(2) 0.1257(2)
C2 C -0.1582(3) 0.3808(2) 0.2777(2)
C3 C -0.0449(3) 0.4804(2) 0.3075(2)
C4 C 0.0622(3) 0.3629(2) 0.1340(2)
C5 C 0.0687(3) 0.2653(2) 0.2860(2)
C6 C 0.1833(3) 0.3635(2) 0.3167(2)
H1 H -0.137(4) 0.464(2) 0.052(2)
H2 H -0.244(3) 0.384(2) 0.305(2)
H3 H -0.084(3) 0.534(2) 0.347(2)
H4 H 0.084(3) 0.361(2) 0.073(2)
H5 H 0.119(4) 0.205(3) 0.318(2)
H6 H 0.286(4) 0.346(2) 0.363(2)
#END
