
#######################################################################
#
#                 Cambridge Crystallographic Data Centre
#                                CCDC
#
#######################################################################
#
# If this CIF has been generated from an entry in the Cambridge
# Structural Database, then it will include bibliographic, chemical,
# crystal, experimental, refinement or atomic coordinate data resulting
# from the CCDC's data processing and validation procedures.
#
#######################################################################

data_CSD_CIF_PUBMUU01
_audit_creation_date 1998-11-26
_audit_creation_method CSD-ConQuest-V1
_database_code_CSD PUBMUU01
_database_code_depnum_ccdc_archive 'CCDC 117777'
_chemical_formula_sum 'C6 H6 N12 O12'
_chemical_formula_moiety
;
C6 H6 N12 O12
;
_journal_coden_Cambridge 16
_journal_volume 54
_journal_year 1998
_journal_page_first 11793
_journal_name_full 'Tetrahedron '
loop_
_publ_author_name
"A.T.Nielsen"
"A.P.Chafin"
"S.L.Christian"
"D.W.Moore"
"M.P.Nadler"
"R.A.Nissan"
"D.J.Vanderah"
"R.D.Gilardi"
"C.F.George"
"J.L.Flippen-Anderson"
_chemical_name_systematic
;
2,4,6,8,10,12-Hexanitro-2,4,6,8,10,12-hexa-azatetracyclo(5.5.0.0^5,9^.0^3,11^)
dodecane
;
_chemical_name_common
;
Hexanitrohexa-azaisowurtzitane
;
_chemical_melting_point 533
_cell_volume   1465.981
_exptl_crystal_density_diffrn 1.985
_exptl_special_details
;
orthorhombic beta polymorph

;
_exptl_crystal_description 'brick'
_exptl_crystal_preparation 'benzene'
_diffrn_ambient_temperature ?
_diffrn_special_details
;
The study was carried out at room temperature,in the range 283-303K

;
#These two values have been output from a single CSD field.
_refine_ls_R_factor_gt 0.0223
_refine_ls_wR_factor_gt 0.0223
_symmetry_cell_setting orthorhombic
_symmetry_space_group_name_H-M 'P b 21 a'
_symmetry_Int_Tables_number 29
loop_
_symmetry_equiv_pos_site_id
_symmetry_equiv_pos_as_xyz
1 x,y,z
2 1/2-x,1/2+y,z
3 1/2+x,y,-z
4 -x,1/2+y,-z
_cell_length_a 9.676(2)
_cell_length_b 13.006(4)
_cell_length_c 11.649(3)
_cell_angle_alpha 90
_cell_angle_beta 90
_cell_angle_gamma 90
_cell_formula_units_Z 4
loop_
_atom_type_symbol
_atom_type_radius_bond
C 0.68
H 0.23
N 0.68
O 0.68
loop_
_atom_site_label
_atom_site_type_symbol
_atom_site_fract_x
_atom_site_fract_y
_atom_site_fract_z
C1 C 0.3724(3) 0.5745(3) 0.2223(3)
H1 H 0.2966(34) 0.6250(29) 0.2136(27)
N1 N 0.3201(2) 0.4770(2) 0.2629(2)
N2 N 0.1749(3) 0.4574(3) 0.2534(2)
O1 O 0.1414(3) 0.3685(3) 0.2535(3)
O2 O 0.1015(3) 0.5326(3) 0.2543(2)
C2 C 0.4158(3) 0.3954(2) 0.2288(3)
H2 H 0.3698(37) 0.3353(32) 0.2073(32)
N3 N 0.5081(2) 0.3728(2) 0.3222(2)
N4 N 0.4769(4) 0.2892(2) 0.3958(3)
O3 O 0.3792(4) 0.2366(2) 0.3675(3)
O4 O 0.5549(4) 0.2759(2) 0.4755(3)
C3 C 0.5891(3) 0.4555(3) 0.3674(3)
H3 H 0.6489(32) 0.4316(26) 0.4307(28)
N5 N 0.5069(2) 0.5451(2) 0.4061(2)
N6 N 0.4021(3) 0.5302(2) 0.4837(2)
O5 O 0.4146(3) 0.4566(2) 0.5483(2)
O6 O 0.3078(2) 0.5916(2) 0.4837(2)
C4 C 0.4849(3) 0.6155(3) 0.3106(3)
H4 H 0.4689(33) 0.6832(29) 0.3334(29)
N7 N 0.6201(3) 0.6099(2) 0.2565(2)
N8 N 0.7152(3) 0.6913(2) 0.2767(2)
O7 O 0.6679(3) 0.7717(2) 0.3099(3)
O8 O 0.8335(2) 0.6725(2) 0.2508(3)
C5 C 0.6737(3) 0.5047(2) 0.2670(2)
H5 H 0.7605(39) 0.5037(26) 0.2792(26)
N9 N 0.6453(2) 0.4478(2) 0.1647(2)
O9 O 0.8664(2) 0.4496(3) 0.1183(2)
O10 O 0.4582(3) 0.7044(2) 0.0606(3)
N10 N 0.7516(3) 0.4253(2) 0.0882(2)
N11 N 0.4356(3) 0.5417(2) 0.1133(2)
O11 O 0.5904(3) 0.5884(2) -0.0181(2)
O12 O 0.7205(2) 0.3809(2) 0.0005(2)
C6 C 0.5032(3) 0.4414(3) 0.1279(3)
H6 H 0.4984(30) 0.4042(29) 0.0631(32)
N12 N 0.5000(3) 0.6171(3) 0.0472(2)
#END
