
#######################################################################
#
#                 Cambridge Crystallographic Data Centre
#                                CCDC
#
#######################################################################
#
# If this CIF has been generated from an entry in the Cambridge
# Structural Database, then it will include bibliographic, chemical,
# crystal, experimental, refinement or atomic coordinate data resulting
# from the CCDC's data processing and validation procedures.
#
#######################################################################

data_CSD_CIF_PUBMUU13
_audit_creation_date 2004-10-11
_audit_creation_method CSD-ConQuest-V1
_database_code_CSD PUBMUU13
_database_code_depnum_ccdc_archive 'CCDC 251407'
_chemical_formula_sum 'C6 H6 N12 O12'
_chemical_formula_moiety
;
C6 H6 N12 O12
;
_journal_coeditor_code "IUCr DO5007"
_journal_coden_Cambridge 228
_journal_volume 37
_journal_year 2004
_journal_page_first 808
_journal_name_full 'J.Appl.Crystallogr. '
loop_
_publ_author_name
"N.B.Bolotina"
"M.J.Hardie"
"R.L.Speer Junior"
"A.Alan Pinkerton"
_chemical_name_systematic
;
2,4,6,8,10,12-Hexanitro-2,4,6,8,10,12-hexa-azatetracyclo(5.5.0.0^5,9^.0^3,11^)
dodecane
;
_chemical_name_common
;
Hexanitrohexa-azaisowurtzitane; HNIW; CL-20
;
_cell_volume   1401.681
_exptl_crystal_colour 'colorless'
_exptl_crystal_density_diffrn 2.077
_exptl_special_details
;
monoclinic epsilon polymorph

;
_exptl_crystal_description 'block'
_diffrn_ambient_temperature 150.0
#These two values have been output from a single CSD field.
_refine_ls_R_factor_gt 0.0451
_refine_ls_wR_factor_gt 0.0451
_symmetry_cell_setting monoclinic
_symmetry_space_group_name_H-M 'P 21/n'
_symmetry_Int_Tables_number 14
loop_
_symmetry_equiv_pos_site_id
_symmetry_equiv_pos_as_xyz
1 x,y,z
2 1/2-x,1/2+y,1/2-z
3 -x,-y,-z
4 -1/2+x,-1/2-y,-1/2+z
_cell_length_a 8.8004(10)
_cell_length_b 12.4992(14)
_cell_length_c 13.2985(15)
_cell_angle_alpha 90
_cell_angle_beta 106.622(2)
_cell_angle_gamma 90
_cell_formula_units_Z 4
loop_
_atom_type_symbol
_atom_type_radius_bond
C 0.68
H 0.23
N 0.68
O 0.68
loop_
_atom_site_label
_atom_site_type_symbol
_atom_site_fract_x
_atom_site_fract_y
_atom_site_fract_z
C1 C 0.4317(2) -0.23561(16) 0.21320(15)
H1 H 0.389(2) -0.2981(17) 0.1851(15)
C2 C 0.6597(2) -0.11876(15) 0.22120(14)
H2 H 0.750(2) -0.1159(14) 0.1947(15)
C3 C 0.5863(2) -0.06174(15) 0.37475(15)
H3 H 0.629(3) -0.0347(17) 0.4449(18)
C4 C 0.5467(2) -0.01899(15) 0.19250(15)
H4 H 0.580(2) 0.0341(16) 0.1534(16)
C5 C 0.3168(2) -0.13679(15) 0.18290(15)
H5 H 0.218(3) -0.1537(15) 0.1347(15)
C6 C 0.4380(2) -0.13701(15) 0.36692(15)
H6 H 0.413(3) -0.1419(16) 0.4292(16)
N1 N 0.6476(2) -0.29880(13) 0.14577(13)
N2 N 0.56883(19) -0.21303(12) 0.17848(12)
N3 N 0.78692(19) -0.19912(13) 0.39526(13)
N4 N 0.70805(19) -0.11377(12) 0.33725(12)
N5 N 0.4507(2) 0.10364(12) 0.30450(13)
N6 N 0.55269(19) 0.02294(12) 0.29645(12)
N7 N 0.3132(2) -0.01169(13) 0.03827(12)
N8 N 0.38946(19) -0.05407(13) 0.13608(12)
N9 N 0.1505(2) -0.10646(13) 0.30242(14)
N10 N 0.30240(19) -0.09690(13) 0.28396(12)
N11 N 0.4182(2) -0.33230(13) 0.37287(13)
N12 N 0.4731(2) -0.24137(12) 0.32882(12)
O1 O 0.58986(19) -0.38730(11) 0.14617(13)
O2 O 0.76277(18) -0.27567(12) 0.11731(11)
O3 O 0.84850(18) -0.26291(11) 0.35006(11)
O4 O 0.79001(18) -0.20093(12) 0.48790(11)
O5 O 0.42133(17) 0.11261(11) 0.3890(1)
O6 O 0.40305(17) 0.1612(1) 0.22807(11)
O7 O 0.19062(19) -0.05483(12) -0.01069(11)
O8 O 0.37638(18) 0.06450(11) 0.00893(11)
O9 O 0.03745(17) -0.11666(11) 0.22556(12)
O10 O 0.15030(19) -0.09702(12) 0.39345(12)
O11 O 0.40164(19) -0.32067(11) 0.45951(11)
O12 O 0.40215(17) -0.41404(11) 0.32126(11)
#END
