
#######################################################################
#
#                 Cambridge Crystallographic Data Centre
#                                CCDC
#
#######################################################################
#
# If this CIF has been generated from an entry in the Cambridge
# Structural Database, then it will include bibliographic, chemical,
# crystal, experimental, refinement or atomic coordinate data resulting
# from the CCDC's data processing and validation procedures.
#
#######################################################################

data_CSD_CIF_PUBMUU09
_audit_creation_date 2004-10-11
_audit_creation_method CSD-ConQuest-V1
_database_code_CSD PUBMUU09
_database_code_depnum_ccdc_archive 'CCDC 251403'
_chemical_formula_sum 'C6 H6 N12 O12'
_chemical_formula_moiety
;
C6 H6 N12 O12
;
_journal_coeditor_code "IUCr DO5007"
_journal_coden_Cambridge 228
_journal_volume 37
_journal_year 2004
_journal_page_first 808
_journal_name_full 'J.Appl.Crystallogr. '
loop_
_publ_author_name
"N.B.Bolotina"
"M.J.Hardie"
"R.L.Speer Junior"
"A.Alan Pinkerton"
_chemical_name_systematic
;
2,4,6,8,10,12-Hexanitro-2,4,6,8,10,12-hexa-azatetracyclo(5.5.0.0^5,9^.0^3,11^)
dodecane
;
_chemical_name_common
;
Hexanitrohexa-azaisowurtzitane; HNIW; CL-20
;
_cell_volume   1501.749
_exptl_crystal_density_diffrn 1.938
_exptl_special_details
;
monoclinic gamma polymorph

;
_exptl_crystal_description 'block'
_diffrn_ambient_temperature 200.0
#These two values have been output from a single CSD field.
_refine_ls_R_factor_gt 0.0369
_refine_ls_wR_factor_gt 0.0369
_symmetry_cell_setting monoclinic
_symmetry_space_group_name_H-M 'P 21/n'
_symmetry_Int_Tables_number 14
loop_
_symmetry_equiv_pos_site_id
_symmetry_equiv_pos_as_xyz
1 x,y,z
2 1/2-x,1/2+y,1/2-z
3 -x,-y,-z
4 -1/2+x,-1/2-y,-1/2+z
_cell_length_a 13.1156(7)
_cell_length_b 8.1713(4)
_cell_length_c 14.8059(8)
_cell_angle_alpha 90
_cell_angle_beta 108.841(1)
_cell_angle_gamma 90
_cell_formula_units_Z 4
loop_
_atom_type_symbol
_atom_type_radius_bond
C 0.68
H 0.23
N 0.68
O 0.68
loop_
_atom_site_label
_atom_site_type_symbol
_atom_site_fract_x
_atom_site_fract_y
_atom_site_fract_z
C1 C 1.10720(11) 0.5111(2) 0.32365(9)
C2 C 0.93625(11) 0.5956(2) 0.32705(9)
C3 C 1.00836(11) 0.7511(2) 0.33030(9)
C4 C 1.08410(12) 0.4987(2) 0.21157(9)
C5 C 0.90077(11) 0.5757(2) 0.15365(9)
C6 C 0.97020(11) 0.7335(2) 0.15690(9)
N1 N 1.01222(10) 0.45845(14) 0.34615(8)
N2 N 1.02746(11) 0.36460(14) 0.42874(8)
N3 N 1.11783(9) 0.68472(14) 0.34902(8)
N4 N 1.19506(10) 0.7277(2) 0.43801(8)
N5 N 0.97287(10) 0.83010(13) 0.23890(8)
N6 N 0.96981(12) 0.99998(15) 0.23253(9)
N7 N 0.85806(9) 0.58261(13) 0.23218(8)
N8 N 0.77247(11) 0.4731(2) 0.22624(10)
N9 N 0.9762(1) 0.43585(13) 0.16435(7)
N10 N 0.96495(11) 0.35815(14) 0.07412(8)
N11 N 1.07432(10) 0.65821(14) 0.16502(8)
N12 N 1.16436(10) 0.7536(2) 0.17904(8)
O1 O 1.11373(11) 0.29824(15) 0.46342(8)
O2 O 0.94947(10) 0.35243(13) 0.45625(7)
O3 O 1.18758(11) 0.86525(15) 0.46553(8)
O4 O 1.26401(10) 0.6273(2) 0.47512(8)
O5 O 0.98885(15) 1.07368(14) 0.30776(9)
O6 O 0.94454(12) 1.05803(13) 0.15316(8)
O7 O 0.75175(11) 0.4517(2) 0.29931(9)
O8 O 0.72508(11) 0.4161(2) 0.14838(9)
O9 O 0.87372(10) 0.34231(13) 0.02086(7)
O10 O 1.04669(10) 0.30949(14) 0.06142(8)
O11 O 1.25148(9) 0.6851(2) 0.20917(9)
O12 O 1.14891(10) 0.89760(14) 0.15769(8)
H1 H 1.1713(14) 0.4526(19) 0.3563(11)
H2 H 0.8996(14) 0.6011(18) 0.3708(11)
H3 H 1.0088(14) 0.827(2) 0.3782(12)
H4 H 1.1379(14) 0.4329(19) 0.2004(11)
H5 H 0.8437(14) 0.5633(18) 0.0976(11)
H6 H 0.9434(12) 0.7964(18) 0.1026(11)
#END
