
#######################################################################
#
#                 Cambridge Crystallographic Data Centre
#                                CCDC
#
#######################################################################
#
# If this CIF has been generated from an entry in the Cambridge
# Structural Database, then it will include bibliographic, chemical,
# crystal, experimental, refinement or atomic coordinate data resulting
# from the CCDC's data processing and validation procedures.
#
#######################################################################

data_CSD_CIF_PUBMUU06
_audit_creation_date 2001-09-19
_audit_creation_method CSD-ConQuest-V1
_database_code_CSD PUBMUU06
_database_code_depnum_ccdc_archive 'CCDC 1238591'
_chemical_formula_sum 'C6 H6 N12 O12'
_chemical_formula_moiety
;
C6 H6 N12 O12
;
_journal_coden_Cambridge 127
_journal_volume 57
_journal_year 1999
_journal_page_first 431
_journal_name_full 'Huaxue Xuebao(Chin.)(Acta Chim.Sinica) '
loop_
_publ_author_name
"Yu-Xiang Ou"
"Hui-Ping Jia"
"Bo-Ren Chen"
"Yong-Jiang Xu"
"Cai Wang"
"Ze-Lin Pan"
_chemical_name_systematic
;
2,4,6,8,10,12-Hexanitro-2,4,6,8,10,12-hexa-azatetracyclo(5.5.0.0^5,9^.0^3,11^)
dodecane
;
_chemical_name_common
;
gamma-Hexanitrohexa-azaisowurtzitane
;
_cell_volume   1517.408
_exptl_crystal_density_diffrn 1.918
_exptl_special_details
;
monoclinic gamma polymorph

;
_diffrn_ambient_temperature ?
_diffrn_special_details
;
The study was carried out at room temperature,in the range 283-303K

;
#These two values have been output from a single CSD field.
_refine_ls_R_factor_gt 0.036
_refine_ls_wR_factor_gt 0.036
_symmetry_cell_setting monoclinic
_symmetry_space_group_name_H-M 'P 21/n'
_symmetry_Int_Tables_number 14
loop_
_symmetry_equiv_pos_site_id
_symmetry_equiv_pos_as_xyz
1 x,y,z
2 1/2-x,1/2+y,1/2-z
3 -x,-y,-z
4 -1/2+x,-1/2-y,-1/2+z
_cell_length_a 13.213(11)
_cell_length_b 8.161(6)
_cell_length_c 14.898(4)
_cell_angle_alpha 90
_cell_angle_beta 109.168(9)
_cell_angle_gamma 90
_cell_formula_units_Z 4
loop_
_atom_type_symbol
_atom_type_radius_bond
C 0.68
N 0.68
O 0.68
loop_
_atom_site_label
_atom_site_type_symbol
_atom_site_fract_x
_atom_site_fract_y
_atom_site_fract_z
O1 O 0.5481(1) 1.1921(2) 0.0636(1)
O2 O 0.3767(1) 1.1566(2) 0.0205(1)
O3 O 0.7481(1) 0.8097(2) 0.2088(1)
O4 O 0.6452(1) 0.5992(2) 0.1574(1)
O5 O 0.6161(1) 1.2006(2) 0.4628(1)
O6 O 0.4535(1) 1.1495(2) 0.4559(1)
O7 O 0.6836(1) 0.6338(2) 0.4655(1)
O8 O 0.7624(1) 0.8682(2) 0.4740(1)
O9 O 0.2563(1) 1.0585(3) 0.2976(1)
O10 O 0.2284(1) 1.0896(2) 0.1472(1)
O11 O 0.4851(2) 0.4283(2) 0.3071(1)
O12 O 0.4393(2) 0.4428(2) 0.1535(1)
N1 N 0.4776(1) 1.0641(2) 0.1644(1)
N2 N 0.5732(1) 0.8394(2) 0.1659(1)
N3 N 0.5136(1) 1.0429(2) 0.3456(1)
N4 N 0.6161(1) 0.8140(2) 0.3489(1)
N5 N 0.3593(1) 0.9217(2) 0.2313(1)
N6 N 0.4704(1) 0.6710(2) 0.2386(1)
N7 N 0.4670(1) 1.1423(2) 0.0747(1)
N8 N 0.6614(1) 0.7422(2) 0.1789(1)
N9 N 0.5302(1) 1.1363(2) 0.4283(1)
N10 N 0.6927(1) 0.7696(2) 0.4377(1)
N11 N 0.2750(1) 1.0328(2) 0.2247(1)
N12 N 0.4664(1) 0.5007(2) 0.2326(1)
C1 C 0.5840(1) 0.9992(2) 0.2118(1)
C2 C 0.6073(1) 0.9869(2) 0.3234(1)
C3 C 0.4687(1) 0.7668(2) 0.1570(1)
C4 C 0.4014(1) 0.9260(2) 0.1533(1)
C5 C 0.4368(1) 0.9073(2) 0.3261(1)
C6 C 0.5065(1) 0.7499(2) 0.3296(1)
#END
