
#######################################################################
#
#                 Cambridge Crystallographic Data Centre
#                                CCDC
#
#######################################################################
#
# If this CIF has been generated from an entry in the Cambridge
# Structural Database, then it will include bibliographic, chemical,
# crystal, experimental, refinement or atomic coordinate data resulting
# from the CCDC's data processing and validation procedures.
#
#######################################################################

data_CSD_CIF_PUBMUU23
_audit_creation_date 2011-01-20
_audit_creation_method CSD-ConQuest-V1
_database_code_CSD PUBMUU23
_database_code_depnum_ccdc_archive 'CCDC 765864'
_chemical_formula_sum 'C6 H6 N12 O12'
_chemical_formula_moiety
;
C6 H6 N12 O12
;
_journal_coden_Cambridge 1350
_journal_volume 12
_journal_year 2010
_journal_page_first 2524
_journal_name_full 'CrystEngComm '
loop_
_publ_author_name
"D.I.A.Millar"
"H.E.Maynard-Casely"
"A.K.Kleppe"
"W.G.Marshall"
"C.R.Pulham"
"A.S.Cumming"
_chemical_name_systematic
;
2,4,6,8,10,12-Hexanitro-2,4,6,8,10,12-hexaazatetracyclo[5.5.0.0^3,11^.0^5,9^]d
odecane
;
_chemical_name_common
;
zeta-CL-20; 2,4,6,8,10,12-Hexanitro-2,4,6,8,10,12-hexaazaisowurzitane
;
_cell_volume   1279.097
_exptl_crystal_colour 'colorless'
_exptl_crystal_density_diffrn 2.275
_exptl_special_details
;
high explosive
zeta polymorph
Phase transition from the gamma-polymorph to the zeta-polymorph above 0.7(5) 
GPa
;
_exptl_crystal_description 'block'
_diffrn_ambient_temperature 293
_diffrn_ambient_pressure 3300000.0
#These two values have been output from a single CSD field.
_refine_ls_R_factor_gt 0.0877
_refine_ls_wR_factor_gt 0.0877
_symmetry_cell_setting monoclinic
_symmetry_space_group_name_H-M 'P 21/n'
_symmetry_Int_Tables_number 14
loop_
_symmetry_equiv_pos_site_id
_symmetry_equiv_pos_as_xyz
1 x,y,z
2 1/2-x,1/2+y,1/2-z
3 -x,-y,-z
4 -1/2+x,-1/2-y,-1/2+z
_cell_length_a 12.579(2)
_cell_length_b 7.7219(19)
_cell_length_c 14.1260(15)
_cell_angle_alpha 90
_cell_angle_beta 111.218(10)
_cell_angle_gamma 90
_cell_formula_units_Z 4
loop_
_atom_type_symbol
_atom_type_radius_bond
C 0.68
H 0.23
N 0.68
O 0.68
loop_
_atom_site_label
_atom_site_type_symbol
_atom_site_fract_x
_atom_site_fract_y
_atom_site_fract_z
C1 C 0.6366(12) 0.111(3) 0.3579(10)
H1 H 0.70940 0.07760 0.40950
N1 N 0.5436(9) 0.0006(18) 0.3578(7)
N2 N 0.5623(8) -0.101(2) 0.4451(7)
O1 O 0.4769(8) -0.1568(18) 0.4542(6)
O2 O 0.6598(8) -0.119(2) 0.5015(7)
C2 C 0.4374(11) 0.102(3) 0.3153(9)
H2 H 0.38790 0.07690 0.35530
N3 N 0.3811(9) 0.0597(17) 0.2105(7)
N4 N 0.3126(9) -0.0885(17) 0.1907(7)
O3 O 0.3084(9) -0.1672(19) 0.1161(7)
O4 O 0.2664(8) -0.121(2) 0.2496(7)
C3 C 0.4472(11) 0.096(3) 0.1491(10)
H3 H 0.40100 0.06450 0.07860
N5 N 0.5517(9) -0.014(2) 0.1830(8)
N6 N 0.5767(8) -0.113(2) 0.1103(7)
O5 O 0.4973(7) -0.1568(18) 0.0356(6)
O6 O 0.6757(8) -0.1533(19) 0.1334(7)
C4 C 0.6441(12) 0.103(3) 0.2451(9)
H4 H 0.71920 0.06270 0.24920
N7 N 0.6132(8) 0.268(2) 0.1957(7)
N8 N 0.6673(9) 0.3124(17) 0.1281(8)
O7 O 0.7587(8) 0.2438(18) 0.1447(7)
O8 O 0.6268(8) 0.4298(17) 0.0705(7)
C5 C 0.4879(11) 0.277(3) 0.1576(10)
H5 H 0.46010 0.33500 0.09140
N9 N 0.4474(9) 0.370(2) 0.2282(7)
N10 N 0.4676(10) 0.550(2) 0.2329(9)
O9 O 0.4492(10) 0.630(2) 0.2986(8)
O10 O 0.5018(11) 0.608(2) 0.1694(10)
C6 C 0.4779(10) 0.294(3) 0.3283(9)
H6 H 0.44520 0.36310 0.37000
N11 N 0.6032(9) 0.287(2) 0.3748(7)
N12 N 0.652(1) 0.3461(17) 0.4763(7)
O11 O 0.6085(9) 0.4750(18) 0.4938(8)
O12 O 0.7347(8) 0.270(2) 0.5306(7)
#END
