
#######################################################################
#
#                 Cambridge Crystallographic Data Centre
#                                CCDC
#
#######################################################################
#
# If this CIF has been generated from an entry in the Cambridge
# Structural Database, then it will include bibliographic, chemical,
# crystal, experimental, refinement or atomic coordinate data resulting
# from the CCDC's data processing and validation procedures.
#
#######################################################################

data_CSD_CIF_PUBMUU11
_audit_creation_date 2004-10-11
_audit_creation_method CSD-ConQuest-V1
_database_code_CSD PUBMUU11
_database_code_depnum_ccdc_archive 'CCDC 251405'
_chemical_formula_sum 'C6 H6 N12 O12'
_chemical_formula_moiety
;
C6 H6 N12 O12
;
_journal_coeditor_code "IUCr DO5007"
_journal_coden_Cambridge 228
_journal_volume 37
_journal_year 2004
_journal_page_first 808
_journal_name_full 'J.Appl.Crystallogr. '
loop_
_publ_author_name
"N.B.Bolotina"
"M.J.Hardie"
"R.L.Speer Junior"
"A.Alan Pinkerton"
_chemical_name_systematic
;
2,4,6,8,10,12-Hexanitro-2,4,6,8,10,12-hexa-azatetracyclo(5.5.0.0^5,9^.0^3,11^)
dodecane
;
_chemical_name_common
;
Hexanitrohexa-azaisowurtzitane; HNIW; CL-20
;
_cell_volume   1519.989
_exptl_crystal_density_diffrn 1.915
_exptl_special_details
;
monoclinic gamma polymorph

;
_exptl_crystal_description 'block'
_diffrn_ambient_temperature 298.0
#These two values have been output from a single CSD field.
_refine_ls_R_factor_gt 0.0411
_refine_ls_wR_factor_gt 0.0411
_symmetry_cell_setting monoclinic
_symmetry_space_group_name_H-M 'P 21/n'
_symmetry_Int_Tables_number 14
loop_
_symmetry_equiv_pos_site_id
_symmetry_equiv_pos_as_xyz
1 x,y,z
2 1/2-x,1/2+y,1/2-z
3 -x,-y,-z
4 -1/2+x,-1/2-y,-1/2+z
_cell_length_a 13.2272(7)
_cell_length_b 8.1692(5)
_cell_length_c 14.8920(8)
_cell_angle_alpha 90
_cell_angle_beta 109.164(1)
_cell_angle_gamma 90
_cell_formula_units_Z 4
loop_
_atom_type_symbol
_atom_type_radius_bond
C 0.68
H 0.23
N 0.68
O 0.68
loop_
_atom_site_label
_atom_site_type_symbol
_atom_site_fract_x
_atom_site_fract_y
_atom_site_fract_z
N1 N 1.01349(11) 0.4574(2) 0.34558(8)
C1 C 1.10707(13) 0.5134(2) 0.32341(10)
H1 H 1.1698(15) 0.455(2) 0.3558(12)
O1 O 1.11604(13) 0.2992(2) 0.46269(9)
O2 O 0.95367(12) 0.3504(2) 0.45602(8)
C2 C 0.93689(12) 0.5926(2) 0.32615(10)
H2 H 0.9006(15) 0.5929(19) 0.3688(12)
N2 N 1.03025(14) 0.3637(2) 0.42837(9)
N3 N 1.11598(10) 0.6861(2) 0.34891(8)
C3 C 1.00665(12) 0.7500(2) 0.32963(10)
H3 H 1.0065(14) 0.825(2) 0.3780(12)
O3 O 1.18378(13) 0.8665(2) 0.46544(10)
C4 C 1.08410(12) 0.5012(2) 0.21178(10)
H4 H 1.1372(15) 0.437(2) 0.2000(11)
O4 O 1.26246(12) 0.6317(2) 0.47409(10)
N4 N 1.19287(12) 0.7302(2) 0.4376(1)
N5 N 0.97052(11) 0.82907(14) 0.23881(8)
C5 C 0.90143(13) 0.5741(2) 0.15363(10)
H5 H 0.8471(14) 0.5608(18) 0.0980(11)
O5 O 0.9853(2) 1.0716(2) 0.30754(11)
C6 C 0.96894(13) 0.7334(2) 0.15718(10)
H6 H 0.9407(13) 0.796(2) 0.1022(12)
O6 O 0.93915(14) 1.0574(2) 0.15360(9)
N6 N 0.96633(14) 0.9988(2) 0.23263(11)
N7 N 0.85936(10) 0.5784(2) 0.23148(8)
O7 O 0.75611(14) 0.4420(3) 0.29756(11)
O8 O 0.72838(13) 0.4108(2) 0.14741(10)
N8 N 0.77517(13) 0.4669(2) 0.22496(11)
O9 O 0.87675(12) 0.3432(2) 0.02050(8)
N9 N 0.97772(11) 0.43594(14) 0.16436(8)
N10 N 0.96690(13) 0.3580(2) 0.07474(9)
O10 O 1.04827(12) 0.3081(2) 0.06365(9)
N11 N 1.07285(11) 0.66059(15) 0.16574(8)
O11 O 1.24831(11) 0.6909(2) 0.20907(11)
N12 N 1.16158(12) 0.7583(2) 0.17901(10)
O12 O 1.14506(12) 0.9007(2) 0.1574(1)
#END
