
#######################################################################
#
#                 Cambridge Crystallographic Data Centre
#                                CCDC
#
#######################################################################
#
# If this CIF has been generated from an entry in the Cambridge
# Structural Database, then it will include bibliographic, chemical,
# crystal, experimental, refinement or atomic coordinate data resulting
# from the CCDC's data processing and validation procedures.
#
#######################################################################

data_CSD_CIF_PUCRIP
_audit_creation_date 2009-12-22
_audit_creation_method CSD-ConQuest-V1
_database_code_CSD PUCRIP
_database_code_depnum_ccdc_archive 'CCDC 733353'
_chemical_formula_sum 'C17 H18 N4 O6'
_chemical_formula_moiety
;
C17 H18 N4 O6
;
_journal_coden_Cambridge 4
_journal_volume 131
_journal_year 2009
_journal_page_first 3991
_journal_name_full 'J.Am.Chem.Soc. '
loop_
_publ_author_name
"J.C.Ruble"
"A.R.Hurd"
"T.A.Johnson"
"D.A.Sherry"
"M.R.Barbachyn"
"P.L.Toogood"
"G.L.Bundy"
"D.R.Graber"
"G.M.Kamilar"
_chemical_name_systematic
;
(+/-)-2,4-Dimethyl-8-nitro-1,2,4,4a-tetrahydro-2'H,6H-spiro[1,4-oxazino[4,3-a]
quinoline-5,5'-pyrimidine]-2',4',6'(1'H,3'H)-trione
;
_cell_volume   3776.799
_exptl_crystal_density_diffrn 1.317
_exptl_special_details
;
Antibacterial agent. Inhibits bacterial DNA gyrase

;
_diffrn_ambient_temperature 293
#These two values have been output from a single CSD field.
_refine_ls_R_factor_gt 0.0431
_refine_ls_wR_factor_gt 0.0431
_symmetry_cell_setting monoclinic
_symmetry_space_group_name_H-M 'C 2/c'
_symmetry_Int_Tables_number 15
loop_
_symmetry_equiv_pos_site_id
_symmetry_equiv_pos_as_xyz
1 x,y,z
2 -x,y,1/2-z
3 1/2+x,1/2+y,z
4 1/2-x,1/2+y,1/2-z
5 -x,-y,-z
6 x,-y,-1/2+z
7 -1/2-x,-1/2-y,-z
8 -1/2+x,-1/2-y,-1/2+z
_cell_length_a 22.5453(7)
_cell_length_b 10.6236(3)
_cell_length_c 17.5931(6)
_cell_angle_alpha 90
_cell_angle_beta 116.324(2)
_cell_angle_gamma 90
_cell_formula_units_Z 8
loop_
_atom_type_symbol
_atom_type_radius_bond
C 0.68
H 0.23
N 0.68
O 0.68
loop_
_atom_site_label
_atom_site_type_symbol
_atom_site_fract_x
_atom_site_fract_y
_atom_site_fract_z
O1 O 0.10444(7) 0.19256(13) 0.0561(1)
O2 O 0.16725(7) 0.80606(14) -0.04511(10)
O3 O 0.23167(7) 0.39931(13) -0.02597(10)
O4 O 0.24243(9) 0.29426(15) -0.34494(11)
O5 O 0.27677(9) 0.10418(16) -0.30508(11)
O6 O 0.00587(7) 0.51141(14) -0.13232(10)
N1 N 0.11345(9) 0.19505(15) -0.09850(12)
N2 N 0.24532(10) 0.19859(18) -0.30335(13)
N3 N 0.08708(9) 0.65661(16) -0.08929(11)
H1 H 0.05790 0.71480 -0.10050
N4 N 0.19815(9) 0.60125(16) -0.03380(12)
H2 H 0.23890 0.62400 -0.00790
C1 C 0.14492(11) 0.30132(19) -0.19561(15)
C2 C 0.15225(11) 0.6944(2) -0.05582(15)
C3 C 0.20885(11) 0.0861(2) -0.21007(14)
H3 H 0.22960 0.01390 -0.21630
C4 C 0.09777(11) 0.31102(19) -0.06506(15)
H4 H 0.04970 0.31120 -0.08460
C5 C 0.14485(11) 0.19143(19) -0.14957(14)
C6 C 0.09355(12) 0.0822(2) -0.06812(15)
H5 H 0.10750 0.00820 -0.08820
H6 H 0.04570 0.08010 -0.09130
C7 C 0.21108(11) 0.1964(2) -0.25109(15)
C8 C 0.11467(10) 0.43395(19) -0.09862(14)
C9 C 0.12944(11) 0.30324(19) 0.03234(14)
H7 H 0.17760 0.29630 0.05440
C10 C 0.09940(11) -0.0316(2) 0.06066(15)
H8 H 0.12020 -0.02990 0.12150
H9 H 0.11050 -0.10870 0.04150
H10 H 0.05230 -0.02640 0.04000
C11 C 0.12330(11) 0.0784(2) 0.02767(15)
H11 H 0.17160 0.07490 0.05100
C12 C 0.17620(11) 0.0833(2) -0.16049(14)
H12 H 0.17470 0.00880 -0.13360
C13 C 0.11328(12) 0.4138(2) 0.07346(16)
H13 H 0.13470 0.40350 0.13390
H14 H 0.06630 0.41850 0.05400
H15 H 0.12860 0.48990 0.05860
C14 C 0.17807(11) 0.3036(2) -0.24437(15)
H16 H 0.17860 0.37670 -0.27310
C15 C 0.06432(11) 0.5349(2) -0.10645(14)
C16 C 0.18635(11) 0.4739(2) -0.04857(14)
C17 C 0.10462(11) 0.4107(2) -0.19118(14)
H17 H 0.05820 0.39460 -0.22750
H18 H 0.11730 0.48570 -0.21190
#END
