
#######################################################################
#
#                 Cambridge Crystallographic Data Centre
#                                CCDC
#
#######################################################################
#
# If this CIF has been generated from an entry in the Cambridge
# Structural Database, then it will include bibliographic, chemical,
# crystal, experimental, refinement or atomic coordinate data resulting
# from the CCDC's data processing and validation procedures.
#
#######################################################################

data_CSD_CIF_PUFFOL01
_audit_creation_date 2001-02-12
_audit_creation_method CSD-ConQuest-V1
_database_code_CSD PUFFOL01
_database_code_depnum_ccdc_archive 'CCDC 1238850'
_chemical_formula_sum 'C5 H6 N2 O3'
_chemical_formula_moiety
;
C5 H6 N2 O3
;
_journal_coden_Cambridge 194
_journal_volume 47
_journal_year 1999
_journal_page_first 601
_journal_name_full 'Chem.Pharm.Bull. '
loop_
_publ_author_name
"Y.Yoshitake"
"M.Eto"
"K.Harano"
_chemical_name_systematic
;
3,5-Dimethyl-4-oxopyrazole 1,2-dioxide
;
_cell_volume    678.210
_exptl_crystal_colour 'yellow'
_exptl_crystal_density_diffrn 1.392
_exptl_crystal_description 'needles'
_exptl_crystal_preparation 'ethanol/acetone'
_diffrn_ambient_temperature ?
_diffrn_special_details
;
The study was carried out at room temperature,in the range 283-303K

;
#These two values have been output from a single CSD field.
_refine_ls_R_factor_gt 0.042
_refine_ls_wR_factor_gt 0.042
_symmetry_cell_setting orthorhombic
_symmetry_space_group_name_H-M 'P 21 21 21'
_symmetry_Int_Tables_number 19
loop_
_symmetry_equiv_pos_site_id
_symmetry_equiv_pos_as_xyz
1 x,y,z
2 1/2-x,-y,1/2+z
3 1/2+x,1/2-y,-z
4 -x,1/2+y,1/2-z
_cell_length_a 9.695(3)
_cell_length_b 14.986(2)
_cell_length_c 4.668(3)
_cell_angle_alpha 90
_cell_angle_beta 90
_cell_angle_gamma 90
_cell_formula_units_Z 4
loop_
_atom_type_symbol
_atom_type_radius_bond
C 0.68
H 0.23
N 0.68
O 0.68
loop_
_atom_site_label
_atom_site_type_symbol
_atom_site_fract_x
_atom_site_fract_y
_atom_site_fract_z
O1 O 0.2080(2) 0.0644(1) 0.7668(4)
O2 O 0.0421(2) 0.2342(1) 0.0212(5)
O3 O -0.1170(2) 0.0853(1) 0.0484(5)
N1 N 0.0734(2) 0.1808(1) 0.2116(5)
N2 N -0.0241(2) 0.0899(1) 0.2273(5)
C1 C 0.1422(2) 0.0894(2) 0.5662(5)
C2 C 0.1645(3) 0.1742(2) 0.4103(6)
C3 C 0.0248(2) 0.0425(2) 0.4357(6)
C4 C 0.2703(4) 0.2431(3) 0.469(1)
C5 C -0.0305(3) -0.0449(2) 0.5168(9)
H1 H 0.279(4) 0.254(2) 0.655(9)
H2 H 0.347(3) 0.217(2) 0.371(9)
H3 H 0.250(3) 0.300(2) 0.406(9)
H4 H 0.03010 -0.09200 0.47260
H5 H -0.04920 -0.04640 0.72110
H6 H -0.11800 -0.05620 0.42260
#END
