
#######################################################################
#
#                 Cambridge Crystallographic Data Centre
#                                CCDC
#
#######################################################################
#
# If this CIF has been generated from an entry in the Cambridge
# Structural Database, then it will include bibliographic, chemical,
# crystal, experimental, refinement or atomic coordinate data resulting
# from the CCDC's data processing and validation procedures.
#
#######################################################################

data_CSD_CIF_PUFMEJ
_audit_creation_date 2009-12-22
_audit_creation_method CSD-ConQuest-V1
_database_code_CSD PUFMEJ
_database_code_depnum_ccdc_archive 'CCDC 750765'
_chemical_formula_sum 'C11 H9 N3 O3'
_chemical_formula_moiety
;
C11 H9 N3 O3
;
_journal_coeditor_code "IUCr DN2486"
_journal_coden_Cambridge 1370
_journal_volume 65
_journal_year 2009
_journal_page_first o2534
_journal_name_full 'Acta Crystallogr.,Sect.E:Struct.Rep.Online '
loop_
_publ_author_name
"Zhi-Gang Yin"
"Zong-Lei Fei"
"Heng-Yu Qian"
"Xue-Wen Zhu"
"Chun-Xia Zhang"
_chemical_name_systematic
;
1-(2-Furylmethylene)-2-(2-nitrophenyl)hydrazine
;
_cell_volume   1057.365
_exptl_crystal_colour 'red'
_exptl_crystal_density_diffrn 1.452
_exptl_crystal_description 'block'
_exptl_crystal_preparation 'methanol'
_diffrn_ambient_temperature 296
#These two values have been output from a single CSD field.
_refine_ls_R_factor_gt 0.0699
_refine_ls_wR_factor_gt 0.0699
_symmetry_cell_setting monoclinic
_symmetry_space_group_name_H-M 'P 21/n'
_symmetry_Int_Tables_number 14
loop_
_symmetry_equiv_pos_site_id
_symmetry_equiv_pos_as_xyz
1 x,y,z
2 1/2-x,1/2+y,1/2-z
3 -x,-y,-z
4 -1/2+x,-1/2-y,-1/2+z
_cell_length_a 15.852(3)
_cell_length_b 3.8000(12)
_cell_length_c 17.721(4)
_cell_angle_alpha 90
_cell_angle_beta 97.89(2)
_cell_angle_gamma 90
_cell_formula_units_Z 4
loop_
_atom_type_symbol
_atom_type_radius_bond
C 0.68
H 0.23
N 0.68
O 0.68
loop_
_atom_site_label
_atom_site_type_symbol
_atom_site_fract_x
_atom_site_fract_y
_atom_site_fract_z
C1 C 0.5620(4) -0.1566(18) 0.1304(3)
H1 H 0.54670 -0.24700 0.08170
C2 C 0.6396(4) -0.0571(18) 0.1574(4)
H2 H 0.68780 -0.06660 0.13280
C3 C 0.6342(3) 0.0688(15) 0.2323(3)
H3 H 0.67810 0.16730 0.26590
C4 C 0.5541(3) 0.0181(15) 0.2450(3)
C5 C 0.5169(3) 0.1022(14) 0.3106(2)
H4 H 0.55000 0.21880 0.35020
C6 C 0.3320(2) 0.0389(13) 0.3999(2)
C7 C 0.2756(2) -0.1246(13) 0.3415(3)
H5 H 0.29380 -0.18060 0.29520
C8 C 0.1937(3) -0.2002(14) 0.3537(3)
H6 H 0.15740 -0.31160 0.31540
C9 C 0.1634(3) -0.1163(15) 0.4210(3)
H7 H 0.10710 -0.16360 0.42690
C10 C 0.2168(3) 0.0365(14) 0.4787(3)
H8 H 0.19790 0.08610 0.52500
C11 C 0.3009(2) 0.1184(13) 0.4672(2)
N1 N 0.4392(2) 0.0254(11) 0.3182(2)
N2 N 0.4128(2) 0.1163(11) 0.3862(2)
H9 H 0.44730 0.22270 0.42050
N3 N 0.3518(2) 0.2903(12) 0.5299(2)
O1 O 0.42600(19) 0.3693(10) 0.52361(17)
O2 O 0.32065(19) 0.3559(12) 0.58821(19)
O3 O 0.5066(2) -0.1130(12) 0.1815(2)
#END
