
#######################################################################
#
#                 Cambridge Crystallographic Data Centre
#                                CCDC
#
#######################################################################
#
# If this CIF has been generated from an entry in the Cambridge
# Structural Database, then it will include bibliographic, chemical,
# crystal, experimental, refinement or atomic coordinate data resulting
# from the CCDC's data processing and validation procedures.
#
#######################################################################

data_CSD_CIF_PUGSUG
_audit_creation_date 2009-12-22
_audit_creation_method CSD-ConQuest-V1
_database_code_CSD PUGSUG
_database_code_depnum_ccdc_archive 'CCDC 754407'
_chemical_formula_sum 'C19 H19 N1 O13'
_chemical_formula_moiety
;
C19 H19 N1 O13
;
_journal_coeditor_code "IUCr DN2497"
_journal_coden_Cambridge 1370
_journal_volume 65
_journal_year 2009
_journal_page_first o2849
_journal_name_full 'Acta Crystallogr.,Sect.E:Struct.Rep.Online '
loop_
_publ_author_name
"Yue Zhang"
"Ping-An Wang"
"Meng-Yao Zhang"
"Xiao-Li Sun"
_chemical_name_systematic
;
(1S,4S,5S,8R)-8-Nitrooxy-2,6-dioxabicyclo[3.3.0]octan-4-yl 
3,4,5-triacetoxybenzoate
;
_chemical_name_common
;
6-(Nitrooxy)hexahydrofuro[3,2-b]furan-3-yl 3,4,5-triacetoxybenzoate
;
_cell_volume   1087.795
_exptl_crystal_colour 'colorless'
_exptl_crystal_density_diffrn 1.433
_exptl_crystal_description 'block'
_exptl_crystal_preparation 'hexane/ethyl acetate'
_diffrn_ambient_temperature 296
#These two values have been output from a single CSD field.
_refine_ls_R_factor_gt 0.0387
_refine_ls_wR_factor_gt 0.0387
_symmetry_cell_setting monoclinic
_symmetry_space_group_name_H-M 'P 21'
_symmetry_Int_Tables_number 4
loop_
_symmetry_equiv_pos_site_id
_symmetry_equiv_pos_as_xyz
1 x,y,z
2 -x,1/2+y,-z
_cell_length_a 10.8053(19)
_cell_length_b 6.5941(12)
_cell_length_c 16.075(3)
_cell_angle_alpha 90
_cell_angle_beta 108.243(3)
_cell_angle_gamma 90
_cell_formula_units_Z 2
loop_
_atom_type_symbol
_atom_type_radius_bond
C 0.68
H 0.23
N 0.68
O 0.68
loop_
_atom_site_label
_atom_site_type_symbol
_atom_site_fract_x
_atom_site_fract_y
_atom_site_fract_z
N1 N -0.0658(8) 0.548(4) 0.4472(4)
O1 O -0.0166(3) 0.369(4) 0.28660(18)
O2 O 0.0245(3) 0.779(4) 0.21440(17)
O3 O 0.5258(2) -0.138(4) 0.32531(17)
O4 O 0.3795(4) -0.169(4) 0.39702(18)
O5 O 0.5277(3) -0.439(4) 0.20426(18)
O6 O 0.4726(3) -0.581(4) 0.3144(2)
O7 O 0.3201(3) -0.487(4) 0.05899(17)
O8 O 0.3616(5) -0.318(4) -0.0486(2)
O9 O 0.1465(2) 0.293(4) 0.17708(15)
O10 O 0.0434(3) 0.151(4) 0.04764(18)
O11 O -0.0735(3) 0.671(4) 0.37604(19)
O12 O 0.0378(6) 0.480(4) 0.4869(3)
O13 O -0.1700(6) 0.521(4) 0.4569(4)
C1 C 0.0854(4) 0.513(4) 0.3148(2)
H1 H 0.16560 0.44960 0.35200
C2 C -0.0643(4) 0.367(4) 0.1932(3)
H2 H -0.14030 0.45330 0.17190
H3 H -0.08760 0.23030 0.17150
C3 C 0.0463(4) 0.446(4) 0.1642(2)
H4 H 0.01750 0.50080 0.10460
C4 C 0.1061(4) 0.605(4) 0.2330(2)
H5 H 0.19750 0.63480 0.23950
C5 C 0.0305(6) 0.868(4) 0.2950(3)
H6 H -0.04960 0.94040 0.28990
H7 H 0.10250 0.96300 0.31300
C6 C 0.0497(5) 0.700(4) 0.3605(3)
H8 H 0.11900 0.73220 0.41490
C7 C 0.4899(5) -0.151(4) 0.3995(3)
C8 C 0.6060(5) -0.142(4) 0.4792(3)
H9 H 0.62130 -0.00440 0.49910
H10 H 0.68080 -0.19210 0.46550
H11 H 0.59100 -0.22430 0.52440
C9 C 0.5425(4) -0.574(4) 0.2703(3)
C10 C 0.6544(4) -0.711(4) 0.2740(3)
H12 H 0.66820 -0.80330 0.32230
H13 H 0.73150 -0.63130 0.28170
H14 H 0.63530 -0.78650 0.22040
C11 C 0.3353(5) -0.473(4) -0.0211(3)
C12 C 0.3109(6) -0.673(4) -0.0662(3)
H15 H 0.32500 -0.66200 -0.12210
H16 H 0.22250 -0.71370 -0.07450
H17 H 0.36930 -0.77210 -0.03110
C13 C 0.1323(4) 0.151(4) 0.1152(2)
C14 C 0.2370(4) -0.002(4) 0.1410(2)
C15 C 0.3335(4) 0.005(4) 0.2218(2)
H18 H 0.33480 0.11030 0.26050
C16 C 0.4267(4) -0.144(4) 0.2443(2)
C17 C 0.4261(4) -0.300(4) 0.1875(2)
C18 C 0.3280(4) -0.310(4) 0.1084(2)
C19 C 0.2337(4) -0.165(4) 0.0849(2)
H19 H 0.16750 -0.17450 0.03160
#END
