
#######################################################################
#
#                 Cambridge Crystallographic Data Centre
#                                CCDC
#
#######################################################################
#
# If this CIF has been generated from an entry in the Cambridge
# Structural Database, then it will include bibliographic, chemical,
# crystal, experimental, refinement or atomic coordinate data resulting
# from the CCDC's data processing and validation procedures.
#
#######################################################################

data_CSD_CIF_PUGTIV
_audit_creation_date 2009-12-22
_audit_creation_method CSD-ConQuest-V1
_database_code_CSD PUGTIV
_database_code_depnum_ccdc_archive 'CCDC 754410'
_chemical_formula_sum 'C10 H11 N1 O5'
_chemical_formula_moiety
;
C10 H11 N1 O5
;
_journal_coeditor_code "IUCr PV2219"
_journal_coden_Cambridge 1370
_journal_volume 65
_journal_year 2009
_journal_page_first o2852
_journal_name_full 'Acta Crystallogr.,Sect.E:Struct.Rep.Online '
loop_
_publ_author_name
"Jin Chen"
"Xukang Ren"
"Zhaobo Li"
"Xiaohua Du"
_chemical_name_systematic
;
2-(2-Nitrophenyl)-1,3-dioxan-5-ol
;
_cell_volume   1039.338
_exptl_crystal_colour 'colorless'
_exptl_crystal_density_diffrn 1.439
_exptl_crystal_description 'chunk'
_exptl_crystal_preparation 'acetone/hexane'
_diffrn_ambient_temperature 296
#These two values have been output from a single CSD field.
_refine_ls_R_factor_gt 0.0413
_refine_ls_wR_factor_gt 0.0413
_symmetry_cell_setting monoclinic
_symmetry_space_group_name_H-M 'P 21/c'
_symmetry_Int_Tables_number 14
loop_
_symmetry_equiv_pos_site_id
_symmetry_equiv_pos_as_xyz
1 x,y,z
2 -x,1/2+y,1/2-z
3 -x,-y,-z
4 x,-1/2-y,-1/2+z
_cell_length_a 8.0166(4)
_cell_length_b 10.6499(5)
_cell_length_c 12.4109(6)
_cell_angle_alpha 90
_cell_angle_beta 101.221(1)
_cell_angle_gamma 90
_cell_formula_units_Z 4
loop_
_atom_type_symbol
_atom_type_radius_bond
C 0.68
H 0.23
N 0.68
O 0.68
loop_
_atom_site_label
_atom_site_type_symbol
_atom_site_fract_x
_atom_site_fract_y
_atom_site_fract_z
O1 O 0.65238(15) 0.6834(1) 0.28615(9)
C1 C 0.78112(19) 0.53115(14) 0.41276(12)
O2 O 0.70918(18) 0.73226(11) 0.4709(1)
N1 N 0.89732(19) 0.48237(15) 0.24515(13)
C2 C 0.8397(2) 0.31608(16) 0.36545(16)
H1 H 0.87620 0.26000 0.31740
C3 C 0.7680(2) 0.66933(14) 0.38712(13)
H2 H 0.87970 0.70220 0.38040
C4 C 0.83678(19) 0.44328(15) 0.34425(13)
C5 C 0.7294(2) 0.48360(17) 0.50467(14)
H3 H 0.69030 0.53860 0.55240
C6 C 0.7884(3) 0.27296(19) 0.45772(18)
H4 H 0.79050 0.18740 0.47300
O3 O 0.9752(2) 0.57938(16) 0.24619(14)
O4 O 0.6154(2) 1.02233(13) 0.3183(2)
H5 H 0.52920 1.04970 0.27870
C7 C 0.7052(3) 0.86500(18) 0.45027(19)
H6 H 0.81950 0.89490 0.45020
H7 H 0.66280 0.90840 0.50820
C8 C 0.5922(3) 0.89338(17) 0.3408(2)
H8 H 0.47300 0.87750 0.34460
C9 C 0.6432(3) 0.81319(17) 0.25365(17)
H9 H 0.56100 0.82280 0.18560
H10 H 0.75310 0.84030 0.24080
C10 C 0.7342(3) 0.3565(2) 0.52745(16)
H11 H 0.70040 0.32740 0.59050
O5 O 0.8708(2) 0.41251(17) 0.16609(13)
#END
