
#######################################################################
#
#                 Cambridge Crystallographic Data Centre
#                                CCDC
#
#######################################################################
#
# If this CIF has been generated from an entry in the Cambridge
# Structural Database, then it will include bibliographic, chemical,
# crystal, experimental, refinement or atomic coordinate data resulting
# from the CCDC's data processing and validation procedures.
#
#######################################################################

data_CSD_CIF_PUGZOH
_audit_creation_date 2009-12-22
_audit_creation_method CSD-ConQuest-V1
_database_code_CSD PUGZOH
_database_code_depnum_ccdc_archive 'CCDC 754437'
_chemical_formula_sum 'C18 H20 N2 O5'
_chemical_formula_moiety
;
C18 H20 N2 O5
;
_journal_coeditor_code "IUCr CI2940"
_journal_coden_Cambridge 1370
_journal_volume 65
_journal_year 2009
_journal_page_first o2888
_journal_name_full 'Acta Crystallogr.,Sect.E:Struct.Rep.Online '
loop_
_publ_author_name
"Y.Bathich"
"M.F.Mohammat"
"A.S.Hamzah"
"J.H.Goh"
"H.-K.Fun"
_chemical_name_systematic
;
(5R)-Ethyl 
6-benzyl-8,8-dimethyl-7,9-dioxo-1-oxa-2,6-diazaspiro[4.4]non-2-ene-3-carboxyla
te
;
_chemical_melting_point 372
_cell_volume    842.014
_exptl_crystal_colour 'colorless'
_exptl_crystal_density_diffrn 1.358
_exptl_special_details
;
Melting point range 372-373K

;
_exptl_crystal_description 'plate'
_diffrn_ambient_temperature 100
#These two values have been output from a single CSD field.
_refine_ls_R_factor_gt 0.0412
_refine_ls_wR_factor_gt 0.0412
_symmetry_cell_setting triclinic
_symmetry_space_group_name_H-M 'P -1'
_symmetry_Int_Tables_number 2
loop_
_symmetry_equiv_pos_site_id
_symmetry_equiv_pos_as_xyz
1 x,y,z
2 -x,-y,-z
_cell_length_a 5.5727(1)
_cell_length_b 10.8497(1)
_cell_length_c 14.2803(2)
_cell_angle_alpha 100.911(1)
_cell_angle_beta 96.532(1)
_cell_angle_gamma 90.237(1)
_cell_formula_units_Z 2
loop_
_atom_type_symbol
_atom_type_radius_bond
C 0.68
H 0.23
N 0.68
O 0.68
loop_
_atom_site_label
_atom_site_type_symbol
_atom_site_fract_x
_atom_site_fract_y
_atom_site_fract_z
O1 O 0.53030(15) 0.76962(8) 0.26077(6)
O2 O 0.1624(2) 0.63031(10) 0.50066(7)
O3 O -0.11125(14) 0.55167(8) 0.30096(6)
O4 O 0.06035(17) 0.15205(8) 0.32887(7)
O5 O -0.30443(15) 0.17804(8) 0.25016(6)
N1 N 0.27928(17) 0.60309(9) 0.26453(7)
N2 N -0.20831(17) 0.42836(9) 0.28294(7)
C1 C -0.0217(2) 0.69660(12) 0.10602(9)
H1 H -0.11420 0.68660 0.15450
C2 C -0.0965(2) 0.77651(13) 0.04324(10)
H2 H -0.23820 0.82050 0.05050
C3 C 0.0384(2) 0.79100(13) -0.03008(9)
H3 H -0.01320 0.84410 -0.07200
C4 C 0.2504(2) 0.72606(12) -0.04063(9)
H4 H 0.34100 0.73490 -0.08990
C5 C 0.3269(2) 0.64765(11) 0.02275(8)
H5 H 0.47040 0.60520 0.01610
C6 C 0.1919(2) 0.63167(11) 0.09602(8)
C7 C 0.2811(2) 0.54453(11) 0.16325(8)
H6 H 0.17930 0.46900 0.14900
H7 H 0.44430 0.52020 0.15220
C8 C 0.39757(19) 0.71552(10) 0.30263(8)
C9 C 0.3302(2) 0.76286(10) 0.40337(8)
C10 C 0.2086(2) 0.64820(11) 0.42404(8)
C11 C 0.1512(2) 0.55087(10) 0.33003(8)
C12 C 0.2001(2) 0.41513(11) 0.33980(9)
H8 H 0.32340 0.37950 0.30070
H9 H 0.24790 0.40850 0.40610
C13 C -0.0410(2) 0.3541(1) 0.30338(8)
C14 C -0.0892(2) 0.21729(11) 0.29615(8)
C15 C -0.3570(2) 0.04300(11) 0.23740(9)
H10 H -0.39530 0.02200 0.29720
H11 H -0.21810 -0.00440 0.21770
C16 C -0.5689(2) 0.01234(12) 0.1614(1)
H12 H -0.60690 -0.07600 0.15040
H13 H -0.52960 0.03470 0.10290
H14 H -0.70590 0.05870 0.18220
C17 C 0.1416(2) 0.86566(12) 0.39864(10)
H15 H 0.00400 0.83220 0.35420
H16 H 0.21160 0.93520 0.37760
H17 H 0.09170 0.89360 0.46120
C18 C 0.5478(2) 0.80908(12) 0.47626(9)
H18 H 0.66560 0.74460 0.47450
H19 H 0.49750 0.82910 0.53940
H20 H 0.61770 0.88270 0.46090
#END
