
#######################################################################
#
#                 Cambridge Crystallographic Data Centre
#                                CCDC
#
#######################################################################
#
# If this CIF has been generated from an entry in the Cambridge
# Structural Database, then it will include bibliographic, chemical,
# crystal, experimental, refinement or atomic coordinate data resulting
# from the CCDC's data processing and validation procedures.
#
#######################################################################

data_CSD_CIF_PUHKIN
_audit_creation_date 2009-12-22
_audit_creation_method CSD-ConQuest-V1
_database_code_CSD PUHKIN
_database_code_depnum_ccdc_archive 'CCDC 754509'
_chemical_formula_sum 'C24 H33 N1 O9'
_chemical_formula_moiety
;
C24 H33 N1 O9
;
_journal_coeditor_code "IUCr HB5144"
_journal_coden_Cambridge 1370
_journal_volume 65
_journal_year 2009
_journal_page_first o2965
_journal_name_full 'Acta Crystallogr.,Sect.E:Struct.Rep.Online '
loop_
_publ_author_name
"Juan Jia"
"Cheng Yao"
_chemical_name_systematic
;
(2-Acetoxy-1,4a-dimethyl-5-(3-nitro-2-(2-oxo-2,5-dihydrofuran-3-yl)propyl)-6-o
xodecahydronaphthalen-1-yl)methyl acetate
;
_chemical_name_common
;
3,19-Diacetyl-12-nitromethyl-14-deoxyandrographolide
;
_cell_volume   1275.585
_exptl_crystal_colour 'colorless'
_exptl_crystal_density_diffrn 1.248
_exptl_crystal_description 'block'
_exptl_crystal_preparation 'ethyl acetate'
_diffrn_ambient_temperature 293
#These two values have been output from a single CSD field.
_refine_ls_R_factor_gt 0.0718
_refine_ls_wR_factor_gt 0.0718
_symmetry_cell_setting monoclinic
_symmetry_space_group_name_H-M 'P 21'
_symmetry_Int_Tables_number 4
loop_
_symmetry_equiv_pos_site_id
_symmetry_equiv_pos_as_xyz
1 x,y,z
2 -x,1/2+y,-z
_cell_length_a 10.533(2)
_cell_length_b 12.756(3)
_cell_length_c 10.659(2)
_cell_angle_alpha 90
_cell_angle_beta 117.04(3)
_cell_angle_gamma 90
_cell_formula_units_Z 2
loop_
_atom_type_symbol
_atom_type_radius_bond
C 0.68
H 0.23
N 0.68
O 0.68
loop_
_atom_site_label
_atom_site_type_symbol
_atom_site_fract_x
_atom_site_fract_y
_atom_site_fract_z
N1 N 0.7992(9) -0.3512(6) 0.7140(12)
O1 O 0.1814(7) 0.3398(4) 0.6418(6)
C1 C 0.0804(12) 0.4065(7) 0.7867(12)
H1 H 0.07690 0.47280 0.74270
H2 H 0.13870 0.41270 0.88660
H3 H -0.01430 0.38590 0.76790
O2 O 0.1466(6) 0.2330(3) 0.7887(5)
C2 C 0.1425(7) 0.3259(5) 0.7293(8)
O3 O -0.1429(6) -0.0145(5) 0.8828(7)
C3 C -0.1806(8) 0.1612(7) 0.9391(9)
H4 H -0.26680 0.13420 0.93650
H5 H -0.20330 0.21600 0.87040
H6 H -0.12070 0.18870 1.03120
O4 O 0.0165(4) 0.1100(3) 0.9106(4)
C4 C -0.1040(7) 0.0749(5) 0.9066(6)
C5 C 0.1112(7) 0.0355(5) 0.8929(6)
H7 H 0.08130 -0.03500 0.90110
H8 H 0.20700 0.04540 0.96810
C6 C 0.1141(6) 0.0463(5) 0.7499(5)
O5 O 0.3609(8) -0.3524(5) 0.7817(8)
C7 C 0.1806(6) -0.0527(4) 0.7167(5)
H9 H 0.16590 -0.04120 0.62010
O6 O 0.4623(8) -0.1819(6) 0.3207(5)
C8 C 0.3456(6) -0.0689(4) 0.8036(5)
O7 O 0.4337(11) -0.3352(6) 0.4088(7)
O8 O 0.8651(14) -0.3399(8) 0.6600(15)
C9 C 0.4175(7) 0.0340(5) 0.7949(8)
H10 H 0.51870 0.02940 0.85800
H11 H 0.40630 0.04200 0.69990
O9 O 0.7740(7) -0.4391(5) 0.7441(9)
C10 C 0.3570(7) 0.1318(5) 0.8330(8)
H12 H 0.37760 0.12800 0.93130
H13 H 0.40380 0.19370 0.82090
C11 C 0.2003(7) 0.1420(4) 0.7444(7)
H14 H 0.18170 0.15270 0.64650
C12 C -0.0425(6) 0.0581(5) 0.6332(6)
H15 H -0.04330 0.06590 0.54330
H16 H -0.08480 0.11880 0.65230
H17 H -0.09590 -0.00320 0.63210
C13 C 0.3944(7) -0.0991(5) 0.9598(6)
H18 H 0.36760 -0.04470 1.00530
H19 H 0.49610 -0.10750 1.00660
H20 H 0.34980 -0.16370 0.96400
C14 C 0.0996(6) -0.1543(4) 0.7078(6)
H21 H -0.00170 -0.14260 0.65050
H22 H 0.11500 -0.17430 0.80140
C15 C 0.1489(7) -0.2431(5) 0.6436(7)
H23 H 0.10090 -0.30750 0.64530
H24 H 0.12340 -0.22670 0.54620
C16 C 0.3051(6) -0.2581(5) 0.7227(6)
C17 C 0.3904(6) -0.1603(4) 0.7310(6)
H25 H 0.35920 -0.13790 0.63340
C18 C 0.5504(6) -0.1759(5) 0.7935(6)
H26 H 0.58370 -0.20950 0.88470
H27 H 0.59590 -0.10780 0.80860
C19 C 0.5979(6) -0.2425(5) 0.7016(6)
H28 H 0.54790 -0.30980 0.68360
C20 C 0.5592(6) -0.1911(5) 0.5610(6)
C21 C 0.4825(11) -0.2478(8) 0.4296(8)
C22 C 0.5278(9) -0.0844(7) 0.3765(9)
H29 H 0.45870 -0.02790 0.34150
H30 H 0.60360 -0.07010 0.35110
C23 C 0.5853(8) -0.0952(6) 0.5302(8)
H31 H 0.63260 -0.04280 0.59570
C24 C 0.7548(7) -0.2639(5) 0.7812(8)
H32 H 0.77840 -0.28300 0.87740
H33 H 0.80720 -0.20080 0.78380
#END
