
#######################################################################
#
#                 Cambridge Crystallographic Data Centre
#                                CCDC
#
#######################################################################
#
# If this CIF has been generated from an entry in the Cambridge
# Structural Database, then it will include bibliographic, chemical,
# crystal, experimental, refinement or atomic coordinate data resulting
# from the CCDC's data processing and validation procedures.
#
#######################################################################

data_CSD_CIF_PUJBEC
_audit_creation_date 2010-06-03
_audit_creation_method CSD-ConQuest-V1
_database_code_CSD PUJBEC
_database_code_depnum_ccdc_archive 'CCDC 769926'
_chemical_formula_sum 'C20 H17 N1 O5'
_chemical_formula_moiety
;
C20 H17 N1 O5
;
_journal_coeditor_code "IUCr SJ2717"
_journal_coden_Cambridge 1370
_journal_volume 66
_journal_year 2010
_journal_page_first o511
_journal_name_full 'Acta Crystallogr.,Sect.E:Struct.Rep.Online '
loop_
_publ_author_name
"Hui Wang"
"Su-hua Xu"
"Zhuo Zeng"
"Yong-hong Zhang"
_chemical_name_systematic
;
3-[(E)-1-(Benzyloxyimino)ethyl]-2-oxo-2H-chromen-7-yl acetate
;
_chemical_melting_point 426
_cell_volume    873.495
_exptl_crystal_colour 'colorless'
_exptl_crystal_density_diffrn 1.336
_exptl_crystal_description 'block'
_exptl_crystal_preparation 'dmso'
_diffrn_ambient_temperature 298
#These two values have been output from a single CSD field.
_refine_ls_R_factor_gt 0.0509
_refine_ls_wR_factor_gt 0.0509
_symmetry_cell_setting triclinic
_symmetry_space_group_name_H-M 'P -1'
_symmetry_Int_Tables_number 2
loop_
_symmetry_equiv_pos_site_id
_symmetry_equiv_pos_as_xyz
1 x,y,z
2 -x,-y,-z
_cell_length_a 6.3901(9)
_cell_length_b 11.2413(16)
_cell_length_c 12.9298(18)
_cell_angle_alpha 102.643(2)
_cell_angle_beta 96.923(2)
_cell_angle_gamma 101.860(2)
_cell_formula_units_Z 2
loop_
_atom_type_symbol
_atom_type_radius_bond
C 0.68
H 0.23
N 0.68
O 0.68
loop_
_atom_site_label
_atom_site_type_symbol
_atom_site_fract_x
_atom_site_fract_y
_atom_site_fract_z
O1 O -0.33761(19) 0.48915(12) 0.6268(1)
C1 C -0.2517(3) 0.56481(18) 0.72817(15)
O2 O -0.3700(2) 0.62098(15) 0.77276(12)
C2 C -0.0274(3) 0.56859(17) 0.77165(15)
C3 C 0.0814(3) 0.49479(17) 0.71383(15)
H1 H 0.22340 0.49700 0.74210
C4 C 0.0893(3) 0.33485(18) 0.54693(16)
H2 H 0.23010 0.33200 0.57250
C5 C -0.0133(3) 0.26229(17) 0.44758(16)
H3 H 0.05680 0.20970 0.40620
C6 C -0.2229(3) 0.26729(17) 0.40849(15)
O3 O -0.3080(2) 0.19654(12) 0.30368(10)
C7 C -0.5180(4) 0.12835(19) 0.27716(18)
O4 O -0.6377(3) 0.12328(15) 0.34060(14)
C8 C -0.5679(4) 0.0639(2) 0.1608(2)
H4 H -0.71670 0.01730 0.14240
H5 H -0.47490 0.00760 0.14550
H6 H -0.54450 0.12510 0.11940
C9 C -0.3309(3) 0.34359(17) 0.46779(14)
H7 H -0.47060 0.34710 0.44100
C10 C -0.2257(3) 0.41476(16) 0.56822(14)
C11 C -0.0149(3) 0.41373(16) 0.61081(14)
C12 C 0.0738(3) 0.65509(19) 0.87771(16)
C13 C 0.0328(4) 0.7832(2) 0.90913(19)
H8 H 0.16070 0.84040 0.95360
H9 H -0.08570 0.78040 0.94840
H10 H -0.00300 0.81110 0.84560
N1 N 0.2041(3) 0.61121(16) 0.93402(13)
O5 O 0.3083(3) 0.70165(14) 1.03000(11)
C14 C 0.4579(5) 0.6475(3) 1.0870(2)
H11 H 0.56900 0.62950 1.04520
H12 H 0.38160 0.57000 1.10060
C15 C 0.5568(4) 0.74251(19) 1.19015(17)
C16 C 0.4399(4) 0.7731(2) 1.26843(19)
H13 H 0.29370 0.73260 1.25730
C17 C 0.5268(5) 0.8596(2) 1.3618(2)
H14 H 0.44150 0.87720 1.41390
C18 C 0.7365(5) 0.9205(2) 1.3795(2)
H15 H 0.79440 0.98110 1.44370
C19 C 0.8661(4) 0.8957(3) 1.3058(2)
H16 H 1.01150 0.93840 1.31940
C20 C 0.7778(4) 0.8050(3) 1.2092(2)
H17 H 0.86440 0.78620 1.15790
#END
