
#######################################################################
#
#                 Cambridge Crystallographic Data Centre
#                                CCDC
#
#######################################################################
#
# If this CIF has been generated from an entry in the Cambridge
# Structural Database, then it will include bibliographic, chemical,
# crystal, experimental, refinement or atomic coordinate data resulting
# from the CCDC's data processing and validation procedures.
#
#######################################################################

data_CSD_CIF_PUJFUW
_audit_creation_date 2010-05-14
_audit_creation_method CSD-ConQuest-V1
_database_code_CSD PUJFUW
_database_code_depnum_ccdc_archive 'CCDC 769944'
_chemical_formula_sum 'C10 H9 N1 O2'
_chemical_formula_moiety
;
C10 H9 N1 O2
;
_journal_coeditor_code "IUCr CV2692"
_journal_coden_Cambridge 1370
_journal_volume 66
_journal_year 2010
_journal_page_first o536
_journal_name_full 'Acta Crystallogr.,Sect.E:Struct.Rep.Online '
loop_
_publ_author_name
"Ling Yin"
"Gui-Long Zhao"
"Jiong Jia"
"Qing-Yang Meng"
"Jian-wu Wang"
_chemical_name_systematic
;
(3-Phenylisoxazol-5-yl)methanol
;
_cell_volume   1697.775
_exptl_crystal_colour 'colorless'
_exptl_crystal_density_diffrn 1.371
_exptl_crystal_description 'plate'
_exptl_crystal_preparation 'petroleum ether/ethyl acetate/dichloromethane'
_diffrn_ambient_temperature 298
_refine_special_details
;
The hydroxyl H atom is disordered over two sites with occupancies 0.50:0.50.

;
#These two values have been output from a single CSD field.
_refine_ls_R_factor_gt 0.0544
_refine_ls_wR_factor_gt 0.0544
_symmetry_cell_setting monoclinic
_symmetry_space_group_name_H-M 'C 2/c'
_symmetry_Int_Tables_number 15
loop_
_symmetry_equiv_pos_site_id
_symmetry_equiv_pos_as_xyz
1 x,y,z
2 -x,y,1/2-z
3 1/2+x,1/2+y,z
4 1/2-x,1/2+y,1/2-z
5 -x,-y,-z
6 x,-y,-1/2+z
7 -1/2-x,-1/2-y,-z
8 -1/2+x,-1/2-y,-1/2+z
_cell_length_a 41.03(4)
_cell_length_b 5.694(5)
_cell_length_c 7.348(7)
_cell_angle_alpha 90
_cell_angle_beta 98.51(2)
_cell_angle_gamma 90
_cell_formula_units_Z 8
loop_
_atom_type_symbol
_atom_type_radius_bond
C 0.68
H 0.23
N 0.68
O 0.68
loop_
_atom_site_label
_atom_site_type_symbol
_atom_site_fract_x
_atom_site_fract_y
_atom_site_fract_z
C1 C 0.15963(5) 0.9135(4) 0.2841(2)
H1 H 0.14390 1.02930 0.24970
C2 C 0.19149(5) 0.9476(4) 0.2556(3)
H2 H 0.19730 1.08550 0.20090
C3 C 0.21488(5) 0.7785(4) 0.3078(3)
H3 H 0.23660 0.80220 0.28890
C4 C 0.20619(5) 0.5744(4) 0.3878(3)
H4 H 0.22210 0.46040 0.42370
C5 C 0.17421(5) 0.5374(4) 0.4152(2)
H5 H 0.16850 0.39800 0.46820
C6 C 0.15054(5) 0.7074(3) 0.3639(2)
C7 C 0.11668(5) 0.6746(4) 0.4006(2)
C8 C 0.09363(5) 0.8478(4) 0.4305(3)
H6 H 0.09610 1.00980 0.42360
C9 C 0.06769(5) 0.7318(4) 0.4705(3)
C10 C 0.03668(5) 0.8061(5) 0.5327(3)
H7 H 0.03770 0.76460 0.66150
H8 H 0.03500 0.97570 0.52370
N1 N 0.10486(4) 0.4641(3) 0.4183(2)
O1 O 0.07313(3) 0.4982(3) 0.4643(2)
O2 O 0.00792(4) 0.7069(3) 0.4334(3)
H9 H 0.00460 0.55890 0.43960
H10? H 0.01670 0.66980 0.33500
#END
