
#######################################################################
#
#                 Cambridge Crystallographic Data Centre
#                                CCDC
#
#######################################################################
#
# If this CIF has been generated from an entry in the Cambridge
# Structural Database, then it will include bibliographic, chemical,
# crystal, experimental, refinement or atomic coordinate data resulting
# from the CCDC's data processing and validation procedures.
#
#######################################################################

data_CSD_CIF_PUJJEK
_audit_creation_date 2010-05-14
_audit_creation_method CSD-ConQuest-V1
_database_code_CSD PUJJEK
_database_code_depnum_ccdc_archive 'CCDC 769956'
_chemical_formula_sum 'C13 H12 N4 O6'
_chemical_formula_moiety
;
C13 H12 N4 O6
;
_journal_coeditor_code "IUCr TK2618"
_journal_coden_Cambridge 1370
_journal_volume 66
_journal_year 2010
_journal_page_first o548
_journal_name_full 'Acta Crystallogr.,Sect.E:Struct.Rep.Online '
loop_
_publ_author_name
"S.B.Khan"
"I.Anis"
"K.Singh"
"M.R.Shah"
_chemical_name_systematic
;
2-(2-Methyl-5-nitro-1H-imidazol-1-yl)ethyl 2-nitrobenzoate
;
_cell_volume   1392.321
_exptl_crystal_colour 'yellow'
_exptl_crystal_density_diffrn 1.528
_exptl_crystal_description 'plate'
_exptl_crystal_preparation 'dichloromethane'
_diffrn_ambient_temperature 150
#These two values have been output from a single CSD field.
_refine_ls_R_factor_gt 0.056
_refine_ls_wR_factor_gt 0.056
_symmetry_cell_setting monoclinic
_symmetry_space_group_name_H-M 'P 21/c'
_symmetry_Int_Tables_number 14
loop_
_symmetry_equiv_pos_site_id
_symmetry_equiv_pos_as_xyz
1 x,y,z
2 -x,1/2+y,1/2-z
3 -x,-y,-z
4 x,-1/2-y,-1/2+z
_cell_length_a 15.392(8)
_cell_length_b 8.605(4)
_cell_length_c 10.968(5)
_cell_angle_alpha 90
_cell_angle_beta 106.576(9)
_cell_angle_gamma 90
_cell_formula_units_Z 4
loop_
_atom_type_symbol
_atom_type_radius_bond
C 0.68
H 0.23
N 0.68
O 0.68
loop_
_atom_site_label
_atom_site_type_symbol
_atom_site_fract_x
_atom_site_fract_y
_atom_site_fract_z
O1 O 0.23596(12) 0.70542(19) 0.54231(16)
O2 O 0.09150(14) 0.6281(2) 0.5020(2)
O3 O 0.17653(15) 0.8476(3) 0.73301(19)
O4 O 0.17995(15) 1.0918(3) 0.7714(2)
O5 O 0.33567(14) 0.2348(2) 0.51061(18)
O6 O 0.35085(16) 0.1756(2) 0.3260(2)
N1 N 0.38462(14) 0.5437(2) 0.47700(18)
N2 N 0.42041(15) 0.6345(3) 0.3073(2)
N3 N 0.16552(16) 0.9819(3) 0.6976(2)
N4 N 0.35352(16) 0.2691(3) 0.4118(2)
C1 C 0.14715(19) 0.7286(3) 0.5095(2)
C2 C 0.12371(17) 0.8940(3) 0.4747(3)
C3 C 0.13293(17) 1.0152(3) 0.5613(3)
C4 C 0.10931(18) 1.1655(3) 0.5259(3)
H1 H 0.11700 1.24490 0.58820
C5 C 0.0745(2) 1.1999(4) 0.3993(3)
H2 H 0.05760 1.30350 0.37320
C6 C 0.0642(2) 1.0840(4) 0.3104(3)
H3 H 0.03950 1.10760 0.22270
C7 C 0.08938(19) 0.9331(4) 0.3477(3)
H4 H 0.08300 0.85460 0.28480
C8 C 0.26654(18) 0.5514(3) 0.5882(2)
H5 H 0.23390 0.47170 0.52720
H6 H 0.25520 0.53230 0.67130
C9 C 0.36572(17) 0.5446(3) 0.6016(2)
H7 H 0.39590 0.63540 0.65140
H8 H 0.39150 0.44950 0.64920
C10 C 0.40945(17) 0.6699(3) 0.4201(2)
C11 C 0.40087(18) 0.4813(3) 0.2895(2)
H9 H 0.40190 0.42310 0.21630
C12 C 0.37939(18) 0.4234(3) 0.3933(2)
C13 C 0.4210(2) 0.8282(3) 0.4750(3)
H10 H 0.45100 0.89420 0.42640
H11 H 0.45820 0.82320 0.56380
H12 H 0.36150 0.87180 0.47120
#END
