
#######################################################################
#
#                 Cambridge Crystallographic Data Centre
#                                CCDC
#
#######################################################################
#
# If this CIF has been generated from an entry in the Cambridge
# Structural Database, then it will include bibliographic, chemical,
# crystal, experimental, refinement or atomic coordinate data resulting
# from the CCDC's data processing and validation procedures.
#
#######################################################################

data_CSD_CIF_PUJVUM
_audit_creation_date 2010-04-23
_audit_creation_method CSD-ConQuest-V1
_database_code_CSD PUJVUM
_database_code_depnum_ccdc_archive 'CCDC 770009'
_chemical_formula_sum 'C20 H22 N2 O5'
_chemical_formula_moiety
;
C20 H22 N2 O5
;
_journal_coeditor_code "IUCr HB5320"
_journal_coden_Cambridge 1370
_journal_volume 66
_journal_year 2010
_journal_page_first o619
_journal_name_full 'Acta Crystallogr.,Sect.E:Struct.Rep.Online '
loop_
_publ_author_name
"Hui Chen"
"Ding Qu"
"Qiao-Feng Wang"
"Ru Jiang"
_chemical_name_systematic
;
Isobutyl methyl 2,6-dimethyl-4-(2-nitrosophenyl)pyridine-3,5-dicarboxylate
;
_cell_volume    983.190
_exptl_crystal_colour 'colorless'
_exptl_crystal_density_diffrn 1.251
_exptl_crystal_description 'block'
_exptl_crystal_preparation 'ethanol'
_diffrn_ambient_temperature 296
#These two values have been output from a single CSD field.
_refine_ls_R_factor_gt 0.0765
_refine_ls_wR_factor_gt 0.0765
_symmetry_cell_setting triclinic
_symmetry_space_group_name_H-M 'P -1'
_symmetry_Int_Tables_number 2
loop_
_symmetry_equiv_pos_site_id
_symmetry_equiv_pos_as_xyz
1 x,y,z
2 -x,-y,-z
_cell_length_a 7.1831(4)
_cell_length_b 9.7819(6)
_cell_length_c 15.0245(9)
_cell_angle_alpha 89.488(3)
_cell_angle_beta 81.201(3)
_cell_angle_gamma 70.625(3)
_cell_formula_units_Z 2
loop_
_atom_type_symbol
_atom_type_radius_bond
C 0.68
H 0.23
N 0.68
O 0.68
loop_
_atom_site_label
_atom_site_type_symbol
_atom_site_fract_x
_atom_site_fract_y
_atom_site_fract_z
C1 C 0.6145(4) 0.4193(3) 0.3529(2)
C2 C 0.7137(5) 0.5026(4) 0.3888(2)
H1 H 0.64240 0.58930 0.42150
C3 C 0.9183(5) 0.4525(4) 0.3742(2)
H2 H 0.98720 0.50680 0.39630
C4 C 1.0230(5) 0.3236(4) 0.3276(2)
H3 H 1.16200 0.29080 0.31900
C5 C 0.9240(4) 0.2413(4) 0.2931(2)
H4 H 0.99690 0.15380 0.26150
C6 C 0.7173(4) 0.2887(3) 0.30541(18)
C7 C 0.6111(4) 0.2014(3) 0.26614(18)
C8 C 0.5973(4) 0.0750(3) 0.30544(19)
C9 C 0.5000(5) -0.0045(3) 0.2660(2)
C10 C 0.4346(5) 0.1561(4) 0.1519(2)
C11 C 0.5245(5) 0.2442(3) 0.1897(2)
C12 C 0.6737(4) 0.0337(3) 0.3918(2)
C13 C 0.8802(7) -0.1539(4) 0.4692(3)
H5 H 0.89120 -0.07620 0.50430
H6 H 1.00890 -0.22780 0.45500
H7 H 0.78780 -0.19420 0.50300
C14 C 0.4632(7) -0.1378(4) 0.3078(3)
H8 H 0.35210 -0.15240 0.28590
H9 H 0.43380 -0.12330 0.37220
H10 H 0.58030 -0.22140 0.29150
C15 C 0.3426(7) 0.1944(5) 0.0689(3)
H11 H 0.32020 0.11120 0.04530
H12 H 0.43070 0.22460 0.02460
H13 H 0.21740 0.27200 0.08310
C16 C 0.5224(5) 0.3875(4) 0.1491(2)
C17 C 0.3105(6) 0.6240(4) 0.1237(3)
H14 H 0.35030 0.61150 0.05890
H15 H 0.39220 0.67140 0.14790
C18 C 0.0950(7) 0.7135(4) 0.1464(3)
H16 H 0.06350 0.73000 0.21200
C19 C -0.0422(8) 0.6433(6) 0.1188(4)
H17 H -0.00700 0.61790 0.05540
H18 H -0.17710 0.70920 0.13130
H19 H -0.03140 0.55730 0.15190
C20 C 0.0630(9) 0.8621(5) 0.1047(4)
H20 H 0.10120 0.84890 0.04040
H21 H 0.14310 0.90960 0.12870
H22 H -0.07550 0.92070 0.11880
N1 N 0.4005(4) 0.4598(3) 0.36627(18)
N2 N 0.4221(4) 0.0355(3) 0.19043(18)
O1 O 0.3121(4) 0.5800(3) 0.4003(2)
O2 O 0.3373(4) 0.4833(3) 0.16329(17)
O3 O 0.6613(4) 0.4107(3) 0.1127(2)
O4 O 0.6244(4) 0.1108(2) 0.45823(15)
O5 O 0.8089(4) -0.0987(2) 0.38649(16)
#END
