
#######################################################################
#
#                 Cambridge Crystallographic Data Centre
#                                CCDC
#
#######################################################################
#
# If this CIF has been generated from an entry in the Cambridge
# Structural Database, then it will include bibliographic, chemical,
# crystal, experimental, refinement or atomic coordinate data resulting
# from the CCDC's data processing and validation procedures.
#
#######################################################################

data_CSD_CIF_PUKZIF
_audit_creation_date 2010-08-30
_audit_creation_method CSD-ConQuest-V1
_database_code_CSD PUKZIF
_database_code_depnum_ccdc_archive 'CCDC 755301'
_chemical_formula_sum 'C14 H13 N1 O5'
_chemical_formula_moiety
;
C14 H13 N1 O5
;
_journal_coden_Cambridge 1336
_journal_volume 12
_journal_year 2010
_journal_page_first 568
_journal_name_full 'Org.Lett. '
loop_
_publ_author_name
"M.C.Redondo"
"M.Ribagorda"
"M.C.Carreno"
_chemical_name_systematic
;
4-Hydroxy-2-(hydroxy(4-nitrophenyl)methyl)-4-methylcyclohexa-2,5-dien-1-one
;
_cell_volume    629.811
_exptl_crystal_colour 'colorless'
_exptl_crystal_density_diffrn 1.451
_exptl_crystal_description 'prismatic'
_diffrn_ambient_temperature 100
#These two values have been output from a single CSD field.
_refine_ls_R_factor_gt 0.0392
_refine_ls_wR_factor_gt 0.0392
_symmetry_cell_setting triclinic
_symmetry_space_group_name_H-M 'P -1'
_symmetry_Int_Tables_number 2
loop_
_symmetry_equiv_pos_site_id
_symmetry_equiv_pos_as_xyz
1 x,y,z
2 -x,-y,-z
_cell_length_a 6.9945(3)
_cell_length_b 8.7663(6)
_cell_length_c 10.6230(6)
_cell_angle_alpha 101.662(3)
_cell_angle_beta 98.586(3)
_cell_angle_gamma 91.319(3)
_cell_formula_units_Z 2
loop_
_atom_type_symbol
_atom_type_radius_bond
C 0.68
H 0.23
N 0.68
O 0.68
loop_
_atom_site_label
_atom_site_type_symbol
_atom_site_fract_x
_atom_site_fract_y
_atom_site_fract_z
C1 C 1.0869(2) -0.08955(19) 0.15247(16)
C2 C 1.1920(2) -0.0133(2) 0.26919(17)
C3 C 1.0951(2) 0.0812(2) 0.35707(17)
C4 C 0.8977(2) 0.10139(19) 0.32605(16)
C5 C 0.7954(2) 0.02015(19) 0.20835(17)
C6 C 0.8885(2) -0.0777(2) 0.12084(18)
C7 C 0.7968(2) 0.2162(2) 0.41789(17)
C8 C 0.7357(2) 0.35362(19) 0.35708(15)
C9 C 0.8907(2) 0.45446(19) 0.33129(15)
C10 C 0.8348(2) 0.5874(2) 0.27241(17)
C11 C 0.6500(2) 0.6180(2) 0.24363(17)
C12 C 0.4857(2) 0.51580(19) 0.26047(16)
C13 C 0.5513(2) 0.38785(19) 0.32902(16)
C14 C 0.3724(3) 0.4393(2) 0.12698(17)
N1 N 1.1889(2) -0.18560(17) 0.05672(14)
O1 O 1.36564(17) -0.16447(15) 0.06929(13)
O2 O 1.09438(19) -0.28100(16) -0.03193(14)
O3 O 0.63538(17) 0.13565(15) 0.44678(12)
O4 O 0.36375(17) 0.61724(14) 0.33275(12)
O5 O 1.06255(16) 0.43020(14) 0.36313(12)
H1 H 1.325(3) -0.025(2) 0.2916(19)
H2 H 1.165(3) 0.135(2) 0.441(2)
H3 H 0.599(3) 0.201(3) 0.513(2)
H4 H 0.266(3) 0.558(3) 0.339(2)
H5 H 0.661(3) 0.034(2) 0.1853(18)
H6 H 0.824(3) -0.132(2) 0.041(2)
H7 H 0.888(3) 0.252(2) 0.4987(18)
H8 H 0.938(3) 0.654(2) 0.2581(19)
H9 H 0.613(3) 0.703(2) 0.2077(19)
H10 H 0.451(3) 0.327(2) 0.3498(18)
H11 H 0.455(3) 0.367(2) 0.0768(18)
H12 H 0.258(3) 0.378(2) 0.1386(18)
H13 H 0.324(3) 0.520(2) 0.0768(19)
#END
