
#######################################################################
#
#                 Cambridge Crystallographic Data Centre
#                                CCDC
#
#######################################################################
#
# If this CIF has been generated from an entry in the Cambridge
# Structural Database, then it will include bibliographic, chemical,
# crystal, experimental, refinement or atomic coordinate data resulting
# from the CCDC's data processing and validation procedures.
#
#######################################################################

data_CSD_CIF_PUKZEB
_audit_creation_date 2010-08-30
_audit_creation_method CSD-ConQuest-V1
_database_code_CSD PUKZEB
_database_code_depnum_ccdc_archive 'CCDC 755300'
_chemical_formula_sum 'C14 H13 N1 O5'
_chemical_formula_moiety
;
C14 H13 N1 O5
;
_journal_coden_Cambridge 1336
_journal_volume 12
_journal_year 2010
_journal_page_first 568
_journal_name_full 'Org.Lett. '
loop_
_publ_author_name
"M.C.Redondo"
"M.Ribagorda"
"M.C.Carreno"
_chemical_name_systematic
;
7a-Methyl-2-(4-nitrophenyl)-3a,7a-dihydro-1,3-benzodioxol-5(4H)-one
;
_cell_volume   1274.932
_exptl_crystal_colour 'colorless'
_exptl_crystal_density_diffrn 1.434
_exptl_crystal_description 'prism'
_diffrn_ambient_temperature 100
#These two values have been output from a single CSD field.
_refine_ls_R_factor_gt 0.0337
_refine_ls_wR_factor_gt 0.0337
_symmetry_cell_setting monoclinic
_symmetry_space_group_name_H-M 'P 21/c'
_symmetry_Int_Tables_number 14
loop_
_symmetry_equiv_pos_site_id
_symmetry_equiv_pos_as_xyz
1 x,y,z
2 -x,1/2+y,1/2-z
3 -x,-y,-z
4 x,-1/2-y,-1/2+z
_cell_length_a 7.5838(1)
_cell_length_b 17.6558(6)
_cell_length_c 9.6242(3)
_cell_angle_alpha 90
_cell_angle_beta 98.371(2)
_cell_angle_gamma 90
_cell_formula_units_Z 4
loop_
_atom_type_symbol
_atom_type_radius_bond
C 0.68
H 0.23
N 0.68
O 0.68
loop_
_atom_site_label
_atom_site_type_symbol
_atom_site_fract_x
_atom_site_fract_y
_atom_site_fract_z
C1 C 0.64034(18) 0.27437(7) 0.76409(13)
C2 C 0.47451(18) 0.23464(7) 0.79474(14)
C3 C 0.32828(17) 0.28874(7) 0.82061(13)
C4 C 0.29005(17) 0.35206(7) 0.71300(13)
C5 C 0.4575(2) 0.38164(7) 0.66442(14)
C6 C 0.61482(19) 0.34727(8) 0.68800(15)
C7 C 0.1480(2) 0.33255(9) 0.59114(15)
C8 C 0.30177(18) 0.40234(7) 0.93725(13)
C9 C 0.16309(17) 0.41105(7) 1.03452(13)
C10 C 0.20268(17) 0.45098(7) 1.15931(13)
C11 C 0.07730(17) 0.45774(7) 1.25034(13)
C12 C -0.08793(17) 0.42508(7) 1.21124(13)
C13 C -0.13231(18) 0.38522(7) 1.08685(13)
C14 C -0.00441(18) 0.37788(7) 0.99901(14)
N1 N -0.22465(14) 0.43519(6) 1.30302(11)
O1 O 0.78819(13) 0.24666(6) 0.79596(11)
O2 O 0.38325(12) 0.32886(5) 0.94992(9)
O3 O 0.21937(12) 0.41002(5) 0.79607(9)
O4 O -0.17692(13) 0.45257(6) 1.42641(9)
O5 O -0.38120(12) 0.42677(5) 1.25155(10)
H1 H 0.214(2) 0.2623(8) 0.8252(15)
H2 H 0.431(2) 0.2030(9) 0.7128(16)
H3 H 0.504(2) 0.2011(9) 0.8753(18)
H4 H 0.443(2) 0.4292(9) 0.6119(17)
H5 H 0.720(2) 0.368(1) 0.6568(17)
H6 H 0.037(3) 0.3177(10) 0.6255(18)
H7 H 0.127(2) 0.3770(11) 0.5274(19)
H8 H 0.190(2) 0.2892(10) 0.5399(18)
H9 H 0.399(2) 0.4400(8) 0.9611(14)
H10 H 0.320(2) 0.4741(9) 1.1833(15)
H11 H 0.101(2) 0.4842(9) 1.3335(17)
H12 H -0.248(2) 0.3637(9) 1.0624(16)
H13 H -0.030(2) 0.3494(10) 0.9117(19)
#END
