
#######################################################################
#
#                 Cambridge Crystallographic Data Centre
#                                CCDC
#
#######################################################################
#
# If this CIF has been generated from an entry in the Cambridge
# Structural Database, then it will include bibliographic, chemical,
# crystal, experimental, refinement or atomic coordinate data resulting
# from the CCDC's data processing and validation procedures.
#
#######################################################################

data_CSD_CIF_PULTEW
_audit_creation_date 2010-09-06
_audit_creation_method CSD-ConQuest-V1
_database_code_CSD PULTEW
_database_code_depnum_ccdc_archive 'CCDC 752167'
_chemical_formula_sum 'C17 H19 N1 O6'
_chemical_formula_moiety
;
C17 H19 N1 O6
;
_journal_coden_Cambridge 1336
_journal_volume 12
_journal_year 2010
_journal_page_first 544
_journal_name_full 'Org.Lett. '
loop_
_publ_author_name
"Silong Xu"
"Lili Zhou"
"Renqin Ma"
"Haibin Song"
"Zhengjie He"
_chemical_name_systematic
;
trans-Diethyl 2-(2-(4-nitrophenyl)cyclopropyl)but-2-enedioate
;
_chemical_name_common
;
diethyl 2-((trans)-2-(4-nitrophenyl)cyclopropyl)maleate
;
_cell_volume    828.285
_exptl_crystal_density_diffrn 1.337
_diffrn_ambient_temperature 113
#These two values have been output from a single CSD field.
_refine_ls_R_factor_gt 0.0603
_refine_ls_wR_factor_gt 0.0603
_symmetry_cell_setting triclinic
_symmetry_space_group_name_H-M 'P -1'
_symmetry_Int_Tables_number 2
loop_
_symmetry_equiv_pos_site_id
_symmetry_equiv_pos_as_xyz
1 x,y,z
2 -x,-y,-z
_cell_length_a 6.9270(14)
_cell_length_b 9.783(2)
_cell_length_c 12.619(3)
_cell_angle_alpha 88.48(3)
_cell_angle_beta 89.77(3)
_cell_angle_gamma 75.68(3)
_cell_formula_units_Z 2
loop_
_atom_type_symbol
_atom_type_radius_bond
C 0.68
H 0.23
N 0.68
O 0.68
loop_
_atom_site_label
_atom_site_type_symbol
_atom_site_fract_x
_atom_site_fract_y
_atom_site_fract_z
O1 O -0.5483(4) 0.2436(3) -0.04805(18)
O2 O -0.3592(4) 0.3856(3) -0.07999(19)
O3 O 0.0615(3) 0.27647(19) 0.45991(14)
O4 O 0.1305(2) 0.25119(17) 0.63415(13)
O5 O 0.4133(2) -0.21817(18) 0.57536(13)
O6 O 0.3734(3) -0.27678(19) 0.40777(14)
N1 N -0.3926(5) 0.2826(4) -0.0363(2)
C1 C -0.1224(4) -0.0102(3) 0.14183(19)
H1 H -0.13600 -0.09770 0.16670
C2 C -0.2621(4) 0.0686(3) 0.07208(19)
H2 H -0.36870 0.03460 0.04970
C3 C -0.2411(4) 0.1976(3) 0.03639(19)
C4 C -0.0822(4) 0.2499(3) 0.0657(2)
H3 H -0.06870 0.33660 0.03910
C5 C 0.0573(4) 0.1697(3) 0.1360(2)
H4 H 0.16480 0.20380 0.15710
C6 C 0.0388(4) 0.0394(3) 0.17551(19)
C7 C 0.1830(4) -0.0494(3) 0.25108(18)
H5 H 0.15920 -0.14210 0.26860
C8 C 0.2607(4) 0.0224(3) 0.34319(18)
H6 H 0.22040 0.12560 0.33780
C9 C 0.3975(4) -0.0428(3) 0.2555(2)
H7 H 0.49670 -0.12970 0.27190
H8 H 0.44070 0.02040 0.20540
C10 C 0.2754(3) -0.0329(3) 0.45374(18)
C11 C 0.2171(3) 0.0479(3) 0.53802(19)
H9 H 0.23410 0.00260 0.60430
C12 C 0.1285(4) 0.2020(3) 0.53580(19)
C13 C 0.0515(4) 0.4027(3) 0.6442(2)
H10 H -0.08910 0.42920 0.62630
H11 H 0.12090 0.45370 0.59660
C14 C 0.0814(5) 0.4373(3) 0.7561(2)
H12 H 0.01040 0.38740 0.80240
H13 H 0.03220 0.53700 0.76510
H14 H 0.22080 0.40970 0.77310
C15 C 0.3588(3) -0.1880(3) 0.47453(19)
C16 C 0.4772(4) -0.3675(3) 0.6051(2)
H15 H 0.59620 -0.41230 0.56620
H16 H 0.37330 -0.41460 0.58900
C17 C 0.5189(5) -0.3768(3) 0.7213(2)
H17 H 0.62460 -0.33230 0.73580
H18 H 0.55790 -0.47410 0.74410
H19 H 0.40110 -0.32990 0.75870
#END
