
#######################################################################
#
#                 Cambridge Crystallographic Data Centre
#                                CCDC
#
#######################################################################
#
# If this CIF has been generated from an entry in the Cambridge
# Structural Database, then it will include bibliographic, chemical,
# crystal, experimental, refinement or atomic coordinate data resulting
# from the CCDC's data processing and validation procedures.
#
#######################################################################

data_CSD_CIF_PUPBAD02
_audit_creation_date 1999-01-07
_audit_creation_method CSD-ConQuest-V1
_database_code_CSD PUPBAD02
_chemical_formula_sum 'C4 H4 N4 O2'
_chemical_formula_moiety
;
C4 H4 N4 O2
;
_journal_coden_Cambridge 4
_journal_volume 120
_journal_year 1998
_journal_page_first 8986
_journal_name_full 'J.Am.Chem.Soc. '
loop_
_publ_author_name
"C.B.Aakeroy"
"M.Nieuwenhuyzen"
"S.L.Price"
_chemical_name_systematic
;
2-Amino-5-nitropyrimidine
;
_cell_volume    549.001
_exptl_crystal_colour 'colorless'
_exptl_crystal_density_diffrn 1.695
_exptl_special_details
;
monoclinic ii polymorph

;
_exptl_crystal_description 'needles'
_exptl_crystal_preparation 'ethanol'
_diffrn_ambient_temperature 123
#These two values have been output from a single CSD field.
_refine_ls_R_factor_gt 0.0322
_refine_ls_wR_factor_gt 0.0322
_symmetry_cell_setting monoclinic
_symmetry_space_group_name_H-M 'P 21/n'
_symmetry_Int_Tables_number 14
loop_
_symmetry_equiv_pos_site_id
_symmetry_equiv_pos_as_xyz
1 x,y,z
2 1/2-x,1/2+y,1/2-z
3 -x,-y,-z
4 -1/2+x,-1/2-y,-1/2+z
_cell_length_a 3.554(1)
_cell_length_b 16.524(6)
_cell_length_c 9.465(4)
_cell_angle_alpha 90
_cell_angle_beta 99.00(2)
_cell_angle_gamma 90
_cell_formula_units_Z 4
loop_
_atom_type_symbol
_atom_type_radius_bond
C 0.68
H 0.23
N 0.68
O 0.68
loop_
_atom_site_label
_atom_site_type_symbol
_atom_site_fract_x
_atom_site_fract_y
_atom_site_fract_z
N1 N -0.0490(3) 0.43003(7) 0.14412(12)
C1 C -0.1828(4) 0.49450(8) 0.21014(15)
N2 N -0.2079(4) 0.56353(8) 0.14028(13)
H1 H -0.1391(4) 0.56601(8) 0.03959(13)
H2 H -0.3166(4) 0.60571(8) 0.18089(13)
N3 N -0.2923(3) 0.49345(7) 0.34079(12)
C2 C -0.2428(4) 0.42509(8) 0.41145(15)
H3 H -0.3212(4) 0.42220(8) 0.50045(15)
C3 C -0.0963(4) 0.35744(8) 0.35386(15)
N4 N -0.0289(4) 0.28473(7) 0.43508(14)
O1 O 0.1095(3) 0.22673(6) 0.38034(13)
O2 O -0.1058(4) 0.28389(7) 0.55678(13)
C4 C -0.0092(4) 0.36195(8) 0.21664(15)
H4 H 0.0719(4) 0.31530(8) 0.16060(15)
#END
