
#######################################################################
#
#                 Cambridge Crystallographic Data Centre
#                                CCDC
#
#######################################################################
#
# If this CIF has been generated from an entry in the Cambridge
# Structural Database, then it will include bibliographic, chemical,
# crystal, experimental, refinement or atomic coordinate data resulting
# from the CCDC's data processing and validation procedures.
#
#######################################################################

data_CSD_CIF_PUQBUA
_audit_creation_date 2015-08-24
_audit_creation_method CSD-ConQuest-V1
_database_code_CSD PUQBUA
_database_code_depnum_ccdc_archive 'CCDC 1008852'
_chemical_formula_sum 'C43 H35 N3 O6'
_chemical_formula_moiety
;
C43 H35 N3 O6
;
_journal_coden_Cambridge 1366
_journal_volume 357
_journal_year 2015
_journal_page_first 2633
_journal_name_full 'Adv.Synth.Catal. '
loop_
_publ_author_name
"S.Abbaraju"
"N.Ramireddy"
"N.K.Rana"
"H.Arman"
"J.C.-G Zhao"
_chemical_name_systematic
;
methyl 
2-cyano-6-nitro-2'-oxo-3-(2-oxo-2-phenylethyl)-1'-trityl-1',2'-dihydrospiro[cy
clohexane-1,3'-indole]-2-carboxylate
;
_cell_volume   3417.908
_exptl_crystal_colour 'colorless'
_exptl_crystal_density_diffrn 1.34
_exptl_crystal_description 'platelet'
_exptl_crystal_preparation 'ethyl acetate/n-hexane'
_diffrn_ambient_temperature 98
#These two values have been output from a single CSD field.
_refine_ls_R_factor_gt 0.0419
_refine_ls_wR_factor_gt 0.0419
_symmetry_cell_setting orthorhombic
_symmetry_space_group_name_H-M 'P 21 21 21'
_symmetry_Int_Tables_number 19
loop_
_symmetry_equiv_pos_site_id
_symmetry_equiv_pos_as_xyz
1 x,y,z
2 1/2+x,1/2-y,-z
3 -x,1/2+y,1/2-z
4 1/2-x,-y,1/2+z
_cell_length_a 8.9227(5)
_cell_length_b 16.8849(12)
_cell_length_c 22.6864(17)
_cell_angle_alpha 90
_cell_angle_beta 90
_cell_angle_gamma 90
_cell_formula_units_Z 4
loop_
_atom_type_symbol
_atom_type_radius_bond
C 0.68
H 0.23
N 0.68
O 0.68
loop_
_atom_site_label
_atom_site_type_symbol
_atom_site_fract_x
_atom_site_fract_y
_atom_site_fract_z
O1 O -0.99388(15) 0.03644(9) -0.58493(6)
O2 O -0.77247(18) 0.06052(10) -0.47585(7)
O3 O -1.08899(17) -0.14642(10) -0.58794(8)
O4 O -0.89729(17) -0.0046(1) -0.41055(6)
O5 O -0.67371(17) -0.36024(9) -0.56064(7)
O6 O -1.00823(19) -0.0969(1) -0.67360(7)
N1 N -0.75125(18) 0.06843(11) -0.61326(7)
N2 N -0.6518(3) -0.12176(13) -0.69492(9)
N3 N -0.8399(2) 0.00187(11) -0.45924(7)
C1 C -0.8663(2) -0.42500(13) -0.61322(9)
C2 C -0.7839(3) -0.20582(13) -0.57184(9)
H1 H -0.67230 -0.20990 -0.56980
C3 C -0.6171(2) 0.07478(14) -0.72531(9)
H2 H -0.61840 0.02760 -0.70250
C4 C -0.3465(2) 0.03838(14) -0.57842(9)
H3 H -0.25020 0.06140 -0.58380
C5 C -0.4714(2) 0.07629(14) -0.60174(9)
H4 H -0.46240 0.12500 -0.62250
C6 C -1.0055(3) -0.42055(14) -0.63982(9)
H5 H -1.05200 -0.37040 -0.64500
C7 C -0.8611(2) 0.02337(12) -0.58805(8)
C8 C -0.8603(2) -0.06777(13) -0.50072(9)
H6 H -0.97040 -0.07410 -0.50760
C9 C -0.5458(2) 0.07531(16) -0.77967(9)
H7 H -0.49860 0.02850 -0.79370
C10 C -0.6090(2) 0.04061(13) -0.59368(9)
C11 C -0.8058(3) -0.14225(14) -0.47065(9)
H8 H -0.85410 -0.14770 -0.43160
H9 H -0.69600 -0.13960 -0.46480
C12 C -1.2277(2) 0.18082(15) -0.70481(10)
H10 H -1.32630 0.18900 -0.71940
C13 C -0.7146(2) 0.21072(12) -0.60312(9)
C14 C -1.0215(2) 0.22102(13) -0.6438(1)
H11 H -0.98020 0.25730 -0.61620
C15 C -1.1448(3) 0.11700(15) -0.72345(9)
H12 H -1.18720 0.08040 -0.75050
C16 C -0.7392(3) 0.27444(15) -0.5088(1)
H13 H -0.78850 0.27870 -0.47180
C17 C -0.8403(3) -0.27333(13) -0.60991(10)
H14 H -0.95130 -0.27350 -0.60890
H15 H -0.80920 -0.26360 -0.65120
C18 C -0.5990(2) 0.26256(13) -0.61688(10)
H16 H -0.54940 0.25840 -0.65380
C19 C -0.6866(2) 0.14260(14) -0.70384(9)
C20 C -0.7877(2) -0.05122(12) -0.56037(9)
C21 C -1.0006(2) 0.10564(14) -0.70325(9)
H17 H -0.94390 0.06190 -0.71730
C22 C -0.4979(2) -0.06652(14) -0.53988(9)
H18 H -0.50650 -0.11550 -0.51950
C23 C -0.7846(2) -0.35389(13) -0.59136(9)
C24 C -1.1663(3) 0.23293(15) -0.66462(11)
H19 H -1.22300 0.27700 -0.65120
C25 C -0.8236(2) -0.12475(13) -0.60166(9)
C26 C -0.9370(2) 0.15765(13) -0.66246(9)
C27 C -0.9905(3) -0.12434(13) -0.61918(9)
C28 C -0.6873(2) 0.20954(15) -0.73968(9)
H20 H -0.73930 0.25560 -0.72700
C29 C -0.6137(3) 0.21034(17) -0.79332(10)
H21 H -0.61170 0.25730 -0.81640
C30 C -0.7706(2) 0.14480(13) -0.64497(8)
C31 C -0.7292(3) -0.12013(14) -0.65509(10)
C32 C -0.7984(3) -0.49836(15) -0.60656(11)
H22 H -0.70300 -0.50230 -0.58820
C33 C -0.7803(3) 0.21611(13) -0.54807(9)
H23 H -0.85510 0.17890 -0.53710
C34 C -0.6242(2) -0.02912(13) -0.56197(8)
C35 C -0.8450(3) -0.21306(13) -0.50910(9)
H24 H -0.95540 -0.21860 -0.51080
H25 H -0.80400 -0.26170 -0.49080
C36 C -0.6256(3) 0.32696(15) -0.52356(11)
H26 H -0.59670 0.36730 -0.49660
C37 C -0.5553(2) 0.32062(15) -0.57684(11)
H27 H -0.47620 0.35600 -0.58660
C38 C -0.3588(2) -0.03143(14) -0.54788(10)
H28 H -0.27170 -0.05590 -0.53210
C39 C -1.0090(3) -0.56072(15) -0.65269(12)
H29 H -1.05750 -0.60740 -0.66630
C40 C -0.5430(3) 0.14266(18) -0.81327(10)
H30 H -0.49250 0.14280 -0.85020
C41 C -0.8696(3) -0.56551(16) -0.62656(13)
H31 H -0.82240 -0.61560 -0.62230
C42 C -1.0778(3) -0.48808(15) -0.65895(10)
H32 H -1.17440 -0.48450 -0.67630
C43 C -1.1619(3) -0.09068(17) -0.69301(12)
H33 H -1.16450 -0.06990 -0.73330
H34 H -1.21670 -0.05480 -0.66680
H35 H -1.20880 -0.14320 -0.69210
#END
