
#######################################################################
#
#                 Cambridge Crystallographic Data Centre
#                                CCDC
#
#######################################################################
#
# If this CIF has been generated from an entry in the Cambridge
# Structural Database, then it will include bibliographic, chemical,
# crystal, experimental, refinement or atomic coordinate data resulting
# from the CCDC's data processing and validation procedures.
#
#######################################################################

data_CSD_CIF_PUQQOI
_audit_creation_date 2010-09-15
_audit_creation_method CSD-ConQuest-V1
_database_code_CSD PUQQOI
_database_code_depnum_ccdc_archive 'CCDC 720911'
_chemical_formula_sum 'C14 H15 N3 O4'
_chemical_formula_moiety
;
C14 H15 N3 O4
;
_journal_coden_Cambridge 119
_journal_volume 963
_journal_year 2010
_journal_page_first 250
_journal_name_full 'J.Mol.Struct. '
loop_
_publ_author_name
"A.Sethkumar"
"B.A.Prakasam"
_chemical_name_systematic
;
5,5-Dimethyl-2-((3-nitrophenyl)hydrazono)cyclohexane-1,3-dione
;
_cell_volume    684.840
_exptl_crystal_colour 'orange'
_exptl_crystal_density_diffrn 1.403
_exptl_crystal_description 'prismatic'
_diffrn_ambient_temperature 293
#These two values have been output from a single CSD field.
_refine_ls_R_factor_gt 0.0446
_refine_ls_wR_factor_gt 0.0446
_symmetry_cell_setting triclinic
_symmetry_space_group_name_H-M 'P -1'
_symmetry_Int_Tables_number 2
loop_
_symmetry_equiv_pos_site_id
_symmetry_equiv_pos_as_xyz
1 x,y,z
2 -x,-y,-z
_cell_length_a 5.8348(1)
_cell_length_b 10.2105(3)
_cell_length_c 12.1654(3)
_cell_angle_alpha 98.353(1)
_cell_angle_beta 95.166(1)
_cell_angle_gamma 105.450(1)
_cell_formula_units_Z 2
loop_
_atom_type_symbol
_atom_type_radius_bond
C 0.68
H 0.23
N 0.68
O 0.68
loop_
_atom_site_label
_atom_site_type_symbol
_atom_site_fract_x
_atom_site_fract_y
_atom_site_fract_z
C1 C 1.1459(2) 1.02797(12) 1.32742(10)
C2 C 1.3282(2) 0.96627(14) 1.33580(11)
H1 H 1.44340 0.99120 1.39890
C3 C 1.3345(2) 0.86613(15) 1.24754(12)
H2 H 1.45500 0.82230 1.25150
C4 C 1.1649(2) 0.83017(13) 1.15369(11)
H3 H 1.17040 0.76220 1.09500
C5 C 0.9850(2) 0.89636(11) 1.14724(9)
C6 C 0.9741(2) 0.99670(11) 1.23419(10)
H4 H 0.85530 1.04180 1.23020
C7 C 0.5784(2) 0.67783(11) 0.91854(9)
C8 C 0.5473(2) 0.53014(11) 0.87162(9)
C9 C 0.3227(2) 0.45638(12) 0.79271(11)
H5 H 0.19900 0.41590 0.83590
H6 H 0.35340 0.38140 0.74300
C10 C 0.2278(2) 0.54650(11) 0.72183(9)
C11 C 0.1870(2) 0.66483(12) 0.80257(10)
H7 H 0.13070 0.72540 0.75920
H8 H 0.06120 0.62690 0.84570
C12 C 0.4047(2) 0.74876(11) 0.88214(9)
C13 C 0.4071(3) 0.60216(18) 0.64448(11)
H9 H 0.55630 0.65590 0.68850
H10 H 0.34500 0.65920 0.60070
H11 H 0.43330 0.52650 0.59540
C14 C -0.0116(2) 0.46253(15) 0.65265(11)
H12 H 0.01110 0.38500 0.60450
H13 H -0.07100 0.51960 0.60790
H14 H -0.12520 0.43020 0.70200
N1 N 1.1258(2) 1.12661(12) 1.42384(9)
N2 N 0.80334(19) 0.85669(10) 1.05414(8)
N3 N 0.76044(17) 0.73151(10) 0.99805(8)
O1 O 1.2676(3) 1.14856(15) 1.50824(9)
O2 O 0.9655(3) 1.18095(15) 1.41587(10)
O3 O 0.69246(17) 0.47082(9) 0.89879(8)
O4 O 0.43360(18) 0.87110(9) 0.91879(8)
H15 H 0.706(3) 0.9090(19) 1.0411(15)
#END
