
#######################################################################
#
#                 Cambridge Crystallographic Data Centre
#                                CCDC
#
#######################################################################
#
# If this CIF has been generated from an entry in the Cambridge
# Structural Database, then it will include bibliographic, chemical,
# crystal, experimental, refinement or atomic coordinate data resulting
# from the CCDC's data processing and validation procedures.
#
#######################################################################

data_CSD_CIF_PURSEB
_audit_creation_date 2010-10-03
_audit_creation_method CSD-ConQuest-V1
_database_code_CSD PURSEB
_database_code_depnum_ccdc_archive 'CCDC 769292'
_chemical_formula_sum 'C24 H24 N4 O9'
_chemical_formula_moiety
;
C24 H24 N4 O9
;
_journal_coden_Cambridge 1147
_journal_volume 10
_journal_year 2010
_journal_page_first 754
_journal_name_full 'Cryst.Growth Des. '
loop_
_publ_author_name
"S.K.Dey"
"G.Das"
_chemical_name_systematic
;
tris(2-(4-nitrophenoxy)ethyl)amine
;
_cell_volume   1233.876
_exptl_crystal_colour 'yellow'
_exptl_crystal_density_diffrn 1.379
_exptl_special_details
;
polymorph I

;
_exptl_crystal_description 'rectangular'
_diffrn_ambient_temperature 298
#These two values have been output from a single CSD field.
_refine_ls_R_factor_gt 0.0459
_refine_ls_wR_factor_gt 0.0459
_symmetry_cell_setting triclinic
_symmetry_space_group_name_H-M 'P -1'
_symmetry_Int_Tables_number 2
loop_
_symmetry_equiv_pos_site_id
_symmetry_equiv_pos_as_xyz
1 x,y,z
2 -x,-y,-z
_cell_length_a 9.252(2)
_cell_length_b 11.950(3)
_cell_length_c 12.445(3)
_cell_angle_alpha 73.244(14)
_cell_angle_beta 78.589(14)
_cell_angle_gamma 70.475(14)
_cell_formula_units_Z 2
loop_
_atom_type_symbol
_atom_type_radius_bond
C 0.68
H 0.23
N 0.68
O 0.68
loop_
_atom_site_label
_atom_site_type_symbol
_atom_site_fract_x
_atom_site_fract_y
_atom_site_fract_z
N1 N 0.35381(13) 0.45928(11) 0.41383(10)
C1 C 0.23505(17) 0.57083(15) 0.43274(13)
H1 H 0.17130 0.54980 0.50280
H2 H 0.16940 0.60190 0.37230
C2 C 0.28536(18) 0.36324(15) 0.41794(12)
H3 H 0.36310 0.29820 0.38850
H4 H 0.20250 0.39710 0.37000
C3 C 0.22253(18) 0.31064(14) 0.53664(12)
H5 H 0.29830 0.28890 0.58880
H6 H 0.12960 0.36900 0.56160
C4 C 0.39611(18) 0.53636(15) 0.19846(12)
H7 H 0.30570 0.60560 0.20540
H8 H 0.47210 0.56530 0.14150
C5 C 0.46215(16) 0.47845(15) 0.31107(12)
H9 H 0.53580 0.39970 0.30650
H10 H 0.51930 0.52920 0.32050
C6 C 0.29439(19) 0.67137(15) 0.43860(13)
H11 H 0.21470 0.72900 0.47570
H12 H 0.38260 0.63760 0.48140
O1 O 0.35493(13) 0.44573(10) 0.16624(9)
O2 O 0.33876(12) 0.73235(10) 0.32433(8)
O3 O 0.18948(13) 0.20413(10) 0.52987(9)
C7 C 0.29226(17) 0.47817(15) 0.06775(13)
C8 C 0.16687(17) 0.52299(16) -0.12931(13)
C9 C 0.20585(17) 0.61396(16) -0.10582(13)
H13 H 0.19040 0.69010 -0.15650
C10 C 0.11617(17) 0.14290(15) 0.62142(14)
C11 C 0.26791(18) 0.59251(15) -0.00698(13)
H14 H 0.29330 0.65440 0.00940
C12 C 0.2525(2) 0.38703(16) 0.04251(14)
H15 H 0.26820 0.31050 0.09260
C13 C 0.19008(19) 0.40874(17) -0.05584(15)
H16 H 0.16400 0.34740 -0.07260
C14 C 0.0812(2) 0.04542(17) 0.60456(16)
H17 H 0.10920 0.02650 0.53440
C15 C -0.0355(2) 0.0073(2) 0.79126(19)
C16 C 0.07580(19) 0.17178(17) 0.72446(14)
H18 H 0.10050 0.23620 0.73650
C17 C -0.0024(2) 0.1034(2) 0.81037(16)
H19 H -0.03220 0.12230 0.88050
C18 C 0.0060(2) -0.02311(18) 0.6900(2)
H20 H -0.01620 -0.08910 0.67910
C19 C 0.39821(17) 0.82633(15) 0.30644(14)
C20 C 0.5207(2) 1.01773(17) 0.2508(2)
C21 C 0.4537(2) 0.98356(17) 0.35797(19)
H21 H 0.44880 1.02570 0.41150
C22 C 0.4664(2) 0.86217(16) 0.19777(15)
H22 H 0.47060 0.82130 0.14350
C23 C 0.39304(19) 0.88648(16) 0.38709(15)
H23 H 0.34910 0.86180 0.46050
C24 C 0.5279(2) 0.95834(18) 0.17018(18)
H24 H 0.57380 0.98270 0.09740
N2 N 0.10320(17) 0.54624(18) -0.23499(14)
N3 N 0.5908(2) 1.11839(17) 0.2202(3)
N4 N -0.1181(2) -0.0648(2) 0.8822(2)
O4 O 0.06789(18) 0.46444(15) -0.25466(12)
O5 O 0.08646(18) 0.64630(16) -0.30058(13)
O6 O 0.60297(18) 1.15848(15) 0.29855(19)
O7 O -0.1495(3) -0.14693(19) 0.8636(2)
O8 O 0.6330(3) 1.15582(17) 0.1222(2)
O9 O -0.1597(3) -0.0340(3) 0.97093(18)
#END
