
#######################################################################
#
#                 Cambridge Crystallographic Data Centre
#                                CCDC
#
#######################################################################
#
# If this CIF has been generated from an entry in the Cambridge
# Structural Database, then it will include bibliographic, chemical,
# crystal, experimental, refinement or atomic coordinate data resulting
# from the CCDC's data processing and validation procedures.
#
#######################################################################

data_CSD_CIF_PURSEB01
_audit_creation_date 2010-10-03
_audit_creation_method CSD-ConQuest-V1
_database_code_CSD PURSEB01
_database_code_depnum_ccdc_archive 'CCDC 769293'
_chemical_formula_sum 'C24 H24 N4 O9'
_chemical_formula_moiety
;
C24 H24 N4 O9
;
_journal_coden_Cambridge 1147
_journal_volume 10
_journal_year 2010
_journal_page_first 754
_journal_name_full 'Cryst.Growth Des. '
loop_
_publ_author_name
"S.K.Dey"
"G.Das"
_chemical_name_systematic
;
tris(2-(4-nitrophenoxy)ethyl)amine
;
_cell_volume   2392.021
_exptl_crystal_colour 'yellow'
_exptl_crystal_density_diffrn 1.429
_exptl_special_details
;
polymorph II

;
_exptl_crystal_description 'rectangular'
_diffrn_ambient_temperature 298
#These two values have been output from a single CSD field.
_refine_ls_R_factor_gt 0.0427
_refine_ls_wR_factor_gt 0.0427
_symmetry_cell_setting monoclinic
_symmetry_space_group_name_H-M 'P 21/n'
_symmetry_Int_Tables_number 14
loop_
_symmetry_equiv_pos_site_id
_symmetry_equiv_pos_as_xyz
1 x,y,z
2 1/2-x,1/2+y,1/2-z
3 -x,-y,-z
4 -1/2+x,-1/2-y,-1/2+z
_cell_length_a 10.5408(6)
_cell_length_b 19.9111(12)
_cell_length_c 11.8327(8)
_cell_angle_alpha 90
_cell_angle_beta 105.594(3)
_cell_angle_gamma 90
_cell_formula_units_Z 4
loop_
_atom_type_symbol
_atom_type_radius_bond
C 0.68
H 0.23
N 0.68
O 0.68
loop_
_atom_site_label
_atom_site_type_symbol
_atom_site_fract_x
_atom_site_fract_y
_atom_site_fract_z
C1 C 0.17902(13) 0.23178(7) 1.13944(12)
C2 C 0.16546(14) 0.24176(7) 1.36726(12)
C3 C 0.25540(14) 0.19818(7) 1.34077(13)
H1 H 0.31050 0.17240 1.39930
C4 C 0.08318(15) 0.27992(7) 1.28164(13)
H2 H 0.02330 0.30910 1.30090
C5 C 0.08933(14) 0.27494(7) 1.16732(13)
H3 H 0.03330 0.30050 1.10900
C6 C 0.26207(14) 0.19362(7) 1.22668(13)
H4 H 0.32270 0.16470 1.20780
C7 C 0.35858(14) 0.03551(7) 1.07508(12)
C8 C 0.50998(14) 0.00210(8) 1.29475(13)
C9 C 0.48147(14) 0.06502(7) 1.11915(13)
H5 H 0.51300 0.09580 1.07420
C10 C 0.31290(15) -0.01071(7) 1.14269(13)
H6 H 0.23030 -0.03010 1.11340
C11 C 0.55615(15) 0.04825(8) 1.22994(13)
H7 H 0.63790 0.06830 1.26070
C12 C 0.38830(16) -0.02792(8) 1.25195(14)
H8 H 0.35820 -0.05940 1.29680
C13 C -0.14038(14) 0.14776(7) 0.25820(12)
H9 H -0.20320 0.17530 0.20960
C14 C -0.03330(13) 0.10534(6) 0.44889(12)
C15 C -0.06086(14) 0.10801(6) 0.21177(12)
C16 C 0.03342(15) 0.06759(7) 0.28229(13)
H10 H 0.08770 0.04140 0.24980
C17 C -0.12666(13) 0.14665(7) 0.37710(12)
H11 H -0.18010 0.17360 0.40930
C18 C 0.04725(15) 0.06595(7) 0.40036(13)
H12 H 0.11070 0.03840 0.44830
O1 O -0.01232(10) 0.10009(5) 0.56661(8)
O2 O 0.19372(9) 0.22317(5) 1.03018(8)
O3 O 0.27665(10) 0.04831(5) 0.96828(8)
O4 O 0.23629(14) 0.21472(6) 1.56387(10)
O5 O -0.15906(15) 0.14444(7) 0.02345(10)
O6 O -0.00254(13) 0.07433(7) 0.04626(10)
O7 O 0.07020(13) 0.28118(7) 1.50922(10)
O8 O 0.56352(14) -0.06612(7) 1.45843(11)
O9 O 0.68501(14) 0.02056(8) 1.45725(12)
C19 C 0.31520(15) 0.09735(7) 0.89524(12)
H13 H 0.39250 0.08210 0.87290
H14 H 0.33630 0.13950 0.93710
C20 C 0.20119(15) 0.10670(8) 0.78756(12)
H15 H 0.23210 0.12900 0.72710
H16 H 0.16700 0.06310 0.75770
C21 C 0.11849(15) 0.21829(7) 0.82291(12)
H17 H 0.06200 0.24040 0.75470
H18 H 0.20920 0.22750 0.82400
C22 C 0.09167(14) 0.24669(7) 0.93197(12)
H19 H 0.09180 0.29540 0.92930
H20 H 0.00630 0.23180 0.93850
C23 C -0.08697(14) 0.14128(8) 0.62456(12)
H21 H -0.18000 0.13080 0.59630
H22 H -0.07470 0.18840 0.60920
C24 C -0.03832(14) 0.12708(7) 0.75438(12)
H23 H -0.09640 0.14980 0.79310
H24 H -0.04700 0.07920 0.76590
N1 N 0.09569(11) 0.14632(6) 0.81310(9)
N2 N -0.07483(14) 0.10921(7) 0.08545(11)
N3 N 0.15698(16) 0.24603(7) 1.48833(12)
N4 N 0.59169(15) -0.01613(9) 1.41094(13)
#END
