
#######################################################################
#
#                 Cambridge Crystallographic Data Centre
#                                CCDC
#
#######################################################################
#
# If this CIF has been generated from an entry in the Cambridge
# Structural Database, then it will include bibliographic, chemical,
# crystal, experimental, refinement or atomic coordinate data resulting
# from the CCDC's data processing and validation procedures.
#
#######################################################################

data_CSD_CIF_PURSEB02
_audit_creation_date 2010-10-03
_audit_creation_method CSD-ConQuest-V1
_database_code_CSD PURSEB02
_database_code_depnum_ccdc_archive 'CCDC 769294'
_chemical_formula_sum 'C24 H24 N4 O9'
_chemical_formula_moiety
;
C24 H24 N4 O9
;
_journal_coden_Cambridge 1147
_journal_volume 10
_journal_year 2010
_journal_page_first 754
_journal_name_full 'Cryst.Growth Des. '
loop_
_publ_author_name
"S.K.Dey"
"G.Das"
_chemical_name_systematic
;
tris(2-(4-nitrophenoxy)ethyl)amine
;
_cell_volume   2460.024
_exptl_crystal_colour 'yellow'
_exptl_crystal_density_diffrn 1.386
_exptl_special_details
;
polymorph III

;
_exptl_crystal_description 'rectangular'
_diffrn_ambient_temperature 298
#These two values have been output from a single CSD field.
_refine_ls_R_factor_gt 0.0522
_refine_ls_wR_factor_gt 0.0522
_symmetry_cell_setting orthorhombic
_symmetry_space_group_name_H-M 'P n a 21'
_symmetry_Int_Tables_number 33
loop_
_symmetry_equiv_pos_site_id
_symmetry_equiv_pos_as_xyz
1 x,y,z
2 -x,-y,1/2+z
3 1/2+x,1/2-y,z
4 1/2-x,1/2+y,1/2+z
_cell_length_a 23.1068(15)
_cell_length_b 23.107
_cell_length_c 4.6074(4)
_cell_angle_alpha 90
_cell_angle_beta 90
_cell_angle_gamma 90
_cell_formula_units_Z 4
loop_
_atom_type_symbol
_atom_type_radius_bond
C 0.68
H 0.23
N 0.68
O 0.68
loop_
_atom_site_label
_atom_site_type_symbol
_atom_site_fract_x
_atom_site_fract_y
_atom_site_fract_z
N1 N 0.73266(9) 0.52371(8) 0.2156(5)
C1 C 0.91700(12) 0.39085(11) 0.2757(7)
H1 H 0.88540 0.38320 0.15650
C2 C 0.82679(11) 0.47586(10) 0.2669(7)
H2 H 0.80600 0.44250 0.34080
H3 H 0.83430 0.47020 0.06170
C3 C 0.79251(11) 0.53083(10) 0.3166(7)
H4 H 0.79250 0.54020 0.52180
H5 H 0.81060 0.56260 0.21290
C4 C 1.00780(12) 0.36273(14) 0.4798(8)
C5 C 0.96249(14) 0.35114(12) 0.2996(9)
H6 H 0.96180 0.31700 0.19300
C6 C 0.91989(11) 0.44117(11) 0.4312(6)
C7 C 1.01089(13) 0.41260(15) 0.6369(8)
H7 H 1.04230 0.41970 0.75810
C8 C 0.96669(13) 0.45217(13) 0.6127(8)
H8 H 0.96810 0.48640 0.71820
O1 O 0.88006(8) 0.48421(8) 0.4236(5)
O2 O 1.05404(12) 0.27776(14) 0.3616(11)
O3 O 1.09291(15) 0.32991(16) 0.6875(11)
N2 N 1.05520(14) 0.32021(16) 0.512(1)
C9 C 0.79372(11) 0.75800(11) 0.8969(6)
H9 H 0.82850 0.77080 0.97600
C10 C 0.69072(11) 0.76665(10) 0.8541(6)
H10 H 0.65650 0.78520 0.90620
C11 C 0.74079(9) 0.69429(10) 0.5855(6)
C12 C 0.68945(10) 0.72189(9) 0.6610(5)
H11 H 0.65450 0.70990 0.58050
C13 C 0.74229(11) 0.78432(10) 0.9714(5)
C14 C 0.79297(10) 0.71305(11) 0.7059(6)
H12 H 0.82740 0.69480 0.65550
O4 O 0.78965(11) 0.84841(10) 1.2705(6)
O5 O 0.69674(11) 0.85470(9) 1.2421(6)
O6 O 0.74451(6) 0.64835(7) 0.4046(4)
C15 C 0.69554(11) 0.49215(10) 0.4187(6)
H13 H 0.66690 0.51860 0.49670
H14 H 0.71900 0.47850 0.57920
C16 C 0.66494(11) 0.4416(1) 0.2859(6)
H15 H 0.69250 0.41740 0.18310
H16 H 0.64690 0.41850 0.43670
C17 C 0.58301(12) 0.42396(11) -0.0238(6)
C18 C 0.54118(14) 0.44743(15) -0.2075(8)
H17 H 0.54110 0.48690 -0.24650
C19 C 0.53990(15) 0.33130(15) -0.0902(10)
H18 H 0.53910 0.29180 -0.05160
C20 C 0.49966(14) 0.35479(18) -0.2672(9)
C21 C 0.58291(13) 0.36603(12) 0.0358(7)
H19 H 0.61080 0.35000 0.15730
C22 C 0.50001(14) 0.41200(19) -0.3312(9)
H20 H 0.47260 0.42730 -0.45770
O7 O 0.44825(13) 0.26998(16) -0.2944(12)
O8 O 0.42703(13) 0.3387(2) -0.604(1)
O9 O 0.62151(8) 0.46241(7) 0.0877(5)
N3 N 0.74268(12) 0.83217(9) 1.1733(5)
N4 N 0.45522(14) 0.3183(2) -0.4032(12)
C23 C 0.69178(10) 0.62487(10) 0.2908(6)
H21 H 0.67090 0.65450 0.18450
H22 H 0.66740 0.61140 0.44830
C24 C 0.70644(11) 0.57515(10) 0.0915(6)
H23 H 0.67110 0.56340 -0.00540
H24 H 0.73240 0.58970 -0.05690
#END
