
#######################################################################
#
#                 Cambridge Crystallographic Data Centre
#                                CCDC
#
#######################################################################
#
# If this CIF has been generated from an entry in the Cambridge
# Structural Database, then it will include bibliographic, chemical,
# crystal, experimental, refinement or atomic coordinate data resulting
# from the CCDC's data processing and validation procedures.
#
#######################################################################

data_CSD_CIF_PUTCOW
_audit_creation_date 1999-01-19
_audit_creation_method CSD-ConQuest-V1
_database_code_CSD PUTCOW
_chemical_formula_sum 'C13 H8 N8 O9'
_chemical_formula_moiety
;
C13 H8 N8 O9
;
_journal_coden_Cambridge 35
_journal_volume 63
_journal_year 1998
_journal_page_first 3352
_journal_name_full 'J.Org.Chem. '
loop_
_publ_author_name
"K.L.Altmann"
"A.P.Chafin"
"L.H.Merwin"
"W.S.Wilson"
"R.Gilardi"
_chemical_name_systematic
;
2-(2'-Amino-3',5'-dinitrophenyl)-7-methoxy-4,6-dinitrobenzotriazole
;
_chemical_melting_point 502.15
_cell_volume   1618.767
_exptl_crystal_colour 'ochre yellow'
_exptl_crystal_density_diffrn 1.724
_exptl_special_details
;
Melting point range 502.15-505.15K

;
_exptl_crystal_preparation 'acetone/ethanol'
_diffrn_ambient_temperature ?
_diffrn_special_details
;
The study was carried out at room temperature,in the range 283-303K

;
#These two values have been output from a single CSD field.
_refine_ls_R_factor_gt 0.0425
_refine_ls_wR_factor_gt 0.0425
_symmetry_cell_setting monoclinic
_symmetry_space_group_name_H-M 'P 21/c'
_symmetry_Int_Tables_number 14
loop_
_symmetry_equiv_pos_site_id
_symmetry_equiv_pos_as_xyz
1 x,y,z
2 -x,1/2+y,1/2-z
3 -x,-y,-z
4 x,-1/2-y,-1/2+z
_cell_length_a 7.190(2)
_cell_length_b 8.836(2)
_cell_length_c 25.555(6)
_cell_angle_alpha 90
_cell_angle_beta 94.39(2)
_cell_angle_gamma 90
_cell_formula_units_Z 4
loop_
_atom_type_symbol
_atom_type_radius_bond
C 0.68
H 0.23
N 0.68
O 0.68
loop_
_atom_site_label
_atom_site_type_symbol
_atom_site_fract_x
_atom_site_fract_y
_atom_site_fract_z
C1 C 0.3129(4) 0.1999(3) 0.3370(1)
C2 C 0.2639(4) 0.3165(3) 0.2996(1)
O1 O 0.3619(3) 0.3550(2) 0.2599(1)
C3 C 0.5259(4) 0.2708(4) 0.2478(1)
C4 C 0.0983(4) 0.3921(3) 0.3077(1)
N1 N 0.0300(4) 0.5180(3) 0.2741(1)
O2 O 0.1374(3) 0.5829(3) 0.2472(1)
O3 O -0.1342(3) 0.5540(3) 0.2757(1)
C5 C -0.0154(4) 0.3551(3) 0.3482(1)
C6 C 0.0332(4) 0.2440(3) 0.3835(1)
N2 N -0.0862(4) 0.2133(3) 0.4253(1)
O4 O -0.2374(3) 0.2767(3) 0.4243(1)
O5 O -0.0305(3) 0.1234(3) 0.4595(1)
C7 C 0.2020(4) 0.1652(3) 0.3787(1)
N3 N 0.2842(3) 0.0544(3) 0.4076(1)
N4 N 0.4388(3) 0.0254(3) 0.3829(1)
N5 N 0.4633(3) 0.1080(3) 0.3406(1)
C8 C 0.5732(4) -0.0859(3) 0.4012(1)
C9 C 0.5466(4) -0.1754(3) 0.4471(1)
N6 N 0.3976(4) -0.1617(3) 0.4747(1)
C10 C 0.6949(4) -0.2793(3) 0.4604(1)
N7 N 0.6923(4) -0.3760(3) 0.5067(1)
O6 O 0.5632(3) -0.3683(3) 0.5352(1)
O7 O 0.8224(3) -0.4611(3) 0.5164(1)
C11 C 0.8499(4) -0.2932(4) 0.4327(1)
C12 C 0.8649(4) -0.2045(3) 0.3890(1)
N8 N 1.0321(3) -0.2162(3) 0.3605(1)
O8 O 1.1501(3) -0.3105(3) 0.3749(1)
O9 O 1.0494(3) -0.1295(3) 0.3237(1)
C13 C 0.7281(4) -0.1010(4) 0.3729(1)
H1 H 0.5755(19) 0.3129(17) 0.2172(5)
H2 H 0.4928(8) 0.1668(7) 0.2414(9)
H3 H 0.6182(13) 0.2767(21) 0.2769(4)
H4 H -0.1282(41) 0.4058(35) 0.3511(11)
H5 H 0.3861(42) -0.2243(39) 0.5025(13)
H6 H 0.3137(45) -0.0875(40) 0.4654(13)
H7 H 0.9393(41) -0.3625(37) 0.4421(11)
H8 H 0.7389(38) -0.0425(35) 0.3411(12)
#END
