
#######################################################################
#
#                 Cambridge Crystallographic Data Centre
#                                CCDC
#
#######################################################################
#
# If this CIF has been generated from an entry in the Cambridge
# Structural Database, then it will include bibliographic, chemical,
# crystal, experimental, refinement or atomic coordinate data resulting
# from the CCDC's data processing and validation procedures.
#
#######################################################################

data_CSD_CIF_PUTCEM
_audit_creation_date 1999-01-19
_audit_creation_method CSD-ConQuest-V1
_database_code_CSD PUTCEM
_database_code_depnum_ccdc_archive 'CCDC 1239934'
_chemical_formula_sum 'C12 H4 N8 O8'
_chemical_formula_moiety
;
C12 H4 N8 O8
;
_journal_coden_Cambridge 35
_journal_volume 63
_journal_year 1998
_journal_page_first 3352
_journal_name_full 'J.Org.Chem. '
loop_
_publ_author_name
"K.L.Altmann"
"A.P.Chafin"
"L.H.Merwin"
"W.S.Wilson"
"R.Gilardi"
_chemical_name_systematic
;
2,4,8,10-Tetranitrobenzotriazolo(2,1-a)benzotriazole
;
_chemical_melting_point 683.15
_cell_volume   1409.221
_exptl_crystal_density_diffrn 1.83
_diffrn_ambient_temperature ?
_diffrn_special_details
;
The study was carried out at room temperature,in the range 283-303K

;
#These two values have been output from a single CSD field.
_refine_ls_R_factor_gt 0.0388
_refine_ls_wR_factor_gt 0.0388
_symmetry_cell_setting orthorhombic
_symmetry_space_group_name_H-M 'P b c a'
_symmetry_Int_Tables_number 61
loop_
_symmetry_equiv_pos_site_id
_symmetry_equiv_pos_as_xyz
1 x,y,z
2 1/2-x,-y,1/2+z
3 1/2+x,1/2-y,-z
4 -x,1/2+y,1/2-z
5 -x,-y,-z
6 -1/2+x,y,-1/2-z
7 -1/2-x,-1/2+y,z
8 x,-1/2-y,-1/2+z
_cell_length_a 8.589(3)
_cell_length_b 11.452(2)
_cell_length_c 14.327(3)
_cell_angle_alpha 90
_cell_angle_beta 90
_cell_angle_gamma 90
_cell_formula_units_Z 4
loop_
_atom_type_symbol
_atom_type_radius_bond
C 0.68
H 0.23
N 0.68
O 0.68
loop_
_atom_site_label
_atom_site_type_symbol
_atom_site_fract_x
_atom_site_fract_y
_atom_site_fract_z
N1 N 0.0214(2) 0.5091(2) -0.0451(1)
C1 C 0.0639(3) 0.4014(2) -0.0800(2)
C2 C 0.1217(3) 0.3695(2) -0.1666(2)
C3 C 0.1567(3) 0.2525(2) -0.1754(2)
N2 N 0.2293(3) 0.2113(2) -0.2616(2)
O1 O 0.2702(2) 0.2842(2) -0.3192(1)
O2 O 0.2472(3) 0.1062(2) -0.2712(1)
C4 C 0.1343(3) 0.1715(2) -0.1046(2)
C5 C 0.0787(3) 0.2061(2) -0.0198(2)
N3 N 0.0619(3) 0.1188(2) 0.0536(1)
O3 O 0.1449(2) 0.0317(1) 0.0500(1)
O4 O -0.0343(2) 0.1369(2) 0.1152(1)
C6 C 0.0399(3) 0.3248(2) -0.0042(2)
N4 N 0.0139(2) 0.6205(2) -0.0737(1)
H1 H 0.1382(29) 0.4216(20) -0.2135(17)
H2 H 0.1591(26) 0.0917(20) -0.1172(15)
N1D N -0.0214(2) 0.4909(2) 0.0451(1)
C1D C -0.0639(3) 0.5986(2) 0.0800(2)
C2D C -0.1217(3) 0.6305(2) 0.1666(2)
C3D C -0.1567(3) 0.7475(2) 0.1754(2)
N2D N -0.2293(3) 0.7887(2) 0.2616(2)
O1D O -0.2702(2) 0.7158(2) 0.3192(1)
O2D O -0.2472(3) 0.8938(2) 0.2712(1)
C4D C -0.1343(3) 0.8285(2) 0.1046(2)
C5D C -0.0787(3) 0.7939(2) 0.0198(2)
N3D N -0.0619(3) 0.8812(2) -0.0536(1)
O3D O -0.1449(2) 0.9683(1) -0.0500(1)
O4D O 0.0343(2) 0.8631(2) -0.1152(1)
C6D C -0.0399(3) 0.6752(2) 0.0042(2)
N4D N -0.0139(2) 0.3795(2) 0.0737(1)
H2D H -0.1591(26) 0.9083(20) 0.1172(15)
H1D H -0.1382(29) 0.5784(20) 0.2135(17)
#END
