
#######################################################################
#
#                 Cambridge Crystallographic Data Centre
#                                CCDC
#
#######################################################################
#
# If this CIF has been generated from an entry in the Cambridge
# Structural Database, then it will include bibliographic, chemical,
# crystal, experimental, refinement or atomic coordinate data resulting
# from the CCDC's data processing and validation procedures.
#
#######################################################################

data_CSD_CIF_PUTNOJ
_audit_creation_date 2015-08-26
_audit_creation_method CSD-ConQuest-V1
_database_code_CSD PUTNOJ
_database_code_depnum_ccdc_archive 'CCDC 1048891'
_chemical_formula_sum 'C27 H21 N3 O4'
_chemical_formula_moiety
;
C27 H21 N3 O4
;
_journal_coden_Cambridge 179
_journal_volume 54
_journal_year 2015
_journal_page_first 9092
_journal_name_full 'Angew.Chem.,Int.Ed. '
loop_
_publ_author_name
"Liejin Zhou"
"Bing Xu"
"Junliang Zhang"
_chemical_name_systematic
;
5-methyl-2-(4-nitrophenyl)-10-phenyl-4,5,10,10a-tetrahydropyrrolo[3,4-b]carbaz
ole-1,3(2H,3aH)-dione
;
_cell_volume   2188.041
_exptl_crystal_colour 'yellow'
_exptl_crystal_density_diffrn 1.371
_exptl_crystal_description 'block'
_diffrn_ambient_temperature 296
#These two values have been output from a single CSD field.
_refine_ls_R_factor_gt 0.0418
_refine_ls_wR_factor_gt 0.0418
_symmetry_cell_setting monoclinic
_symmetry_space_group_name_H-M 'P 21/n'
_symmetry_Int_Tables_number 14
loop_
_symmetry_equiv_pos_site_id
_symmetry_equiv_pos_as_xyz
1 x,y,z
2 1/2-x,1/2+y,1/2-z
3 -x,-y,-z
4 -1/2+x,-1/2-y,-1/2+z
_cell_length_a 9.5446(9)
_cell_length_b 10.7769(11)
_cell_length_c 21.277(2)
_cell_angle_alpha 90
_cell_angle_beta 91.269(3)
_cell_angle_gamma 90
_cell_formula_units_Z 4
loop_
_atom_type_symbol
_atom_type_radius_bond
C 0.68
H 0.23
N 0.68
O 0.68
loop_
_atom_site_label
_atom_site_type_symbol
_atom_site_fract_x
_atom_site_fract_y
_atom_site_fract_z
O1 O -0.00857(16) 0.05094(14) 0.15428(8)
O2 O 0.01073(16) 0.47117(14) 0.13002(7)
O3 O 0.27064(18) 0.42762(18) 0.41848(8)
O4 O 0.41076(17) 0.27656(17) 0.39913(8)
N1 N -0.38004(18) 0.38730(16) -0.04513(8)
N2 N 0.02261(17) 0.26263(15) 0.15569(8)
N3 N 0.30867(19) 0.3415(2) 0.38612(9)
C1 C -0.4823(2) 0.22648(18) 0.00442(9)
C2 C -0.5927(2) 0.1458(2) 0.01735(11)
H1 H -0.58300 0.08540 0.04830
C3 C -0.7163(2) 0.1578(2) -0.01679(12)
H2 H -0.79070 0.10520 -0.00830
C4 C -0.7321(2) 0.2466(2) -0.06366(12)
H3 H -0.81690 0.25220 -0.08590
C5 C -0.6249(2) 0.3268(2) -0.07794(11)
H4 H -0.63520 0.38510 -0.10990
C6 C -0.5011(2) 0.3172(2) -0.0429(1)
C7 C -0.2864(2) 0.34178(19) 0.00003(9)
C8 C -0.3432(2) 0.24336(18) 0.03015(9)
C9 C -0.2690(2) 0.17440(18) 0.08233(9)
H5 H -0.29700 0.08710 0.07930
C10 C -0.1079(2) 0.18149(18) 0.07021(10)
H6 H -0.08360 0.12260 0.03710
C11 C -0.0262(2) 0.1508(2) 0.12992(10)
C12 C -0.0063(2) 0.3636(2) 0.11577(10)
C13 C -0.0542(2) 0.31119(18) 0.05332(9)
H7 H 0.03130 0.29760 0.02960
C14 C -0.1461(2) 0.3975(2) 0.01254(10)
H8 H -0.15690 0.47640 0.03380
H9 H -0.10060 0.41290 -0.02700
C15 C 0.0903(2) 0.27579(19) 0.21612(10)
C16 C 0.2071(2) 0.2057(2) 0.23115(11)
H10 H 0.23870 0.14600 0.20330
C17 C 0.2770(2) 0.2248(2) 0.28799(11)
H11 H 0.35540 0.17770 0.29890
C18 C 0.2291(2) 0.3139(2) 0.3279(1)
C19 C 0.1094(2) 0.3807(2) 0.31445(11)
H12 H 0.07630 0.43870 0.34290
C20 C 0.0397(2) 0.3604(2) 0.25823(11)
H13 H -0.04210 0.40400 0.24870
C21 C -0.3578(2) 0.4930(2) -0.08596(11)
H14 H -0.43860 0.50450 -0.11300
H15 H -0.27700 0.47830 -0.11100
H16 H -0.34300 0.56610 -0.06090
C22 C -0.3082(2) 0.22099(18) 0.14732(9)
C23 C -0.3171(2) 0.1396(2) 0.19737(10)
H17 H -0.30190 0.05540 0.19090
C24 C -0.3483(2) 0.1816(2) 0.25688(11)
H18 H -0.35220 0.12590 0.29020
C25 C -0.3735(2) 0.3060(2) 0.26706(11)
H19 H -0.39440 0.33430 0.30710
C26 C -0.3676(2) 0.3876(2) 0.21767(10)
H20 H -0.38600 0.47140 0.22400
C27 C -0.3344(2) 0.34520(19) 0.15862(10)
H21 H -0.32940 0.40150 0.12560
#END
