
#######################################################################
#
#                 Cambridge Crystallographic Data Centre
#                                CCDC
#
#######################################################################
#
# If this CIF has been generated from an entry in the Cambridge
# Structural Database, then it will include bibliographic, chemical,
# crystal, experimental, refinement or atomic coordinate data resulting
# from the CCDC's data processing and validation procedures.
#
#######################################################################

data_CSD_CIF_PUWDOC
_audit_creation_date 2015-12-15
_audit_creation_method CSD-ConQuest-V1
_database_code_CSD PUWDOC
_database_code_depnum_ccdc_archive 'CCDC 1417856'
_chemical_formula_sum 'C13 H13 N1 O2'
_chemical_formula_moiety
;
C13 H13 N1 O2
;
_journal_coden_Cambridge 182
_journal_volume 52
_journal_year 2016
_journal_page_first 1831
_journal_name_full 'Chem.Commun. '
loop_
_publ_author_name
"A.K.Jha"
"Nidhi Jain"
_chemical_name_systematic
;
2-(4-Methoxybenzyl)pyridine 1-oxide
;
_cell_volume   2207.348
_exptl_crystal_colour 'colorless'
_exptl_crystal_density_diffrn 1.295
_exptl_crystal_description 'cube'
_diffrn_ambient_temperature 273
#These two values have been output from a single CSD field.
_refine_ls_R_factor_gt 0.0951
_refine_ls_wR_factor_gt 0.0951
_symmetry_cell_setting orthorhombic
_symmetry_space_group_name_H-M 'P b c a'
_symmetry_Int_Tables_number 61
loop_
_symmetry_equiv_pos_site_id
_symmetry_equiv_pos_as_xyz
1 x,y,z
2 1/2-x,-y,1/2+z
3 -x,1/2+y,1/2-z
4 1/2+x,1/2-y,-z
5 -x,-y,-z
6 -1/2+x,y,-1/2-z
7 x,-1/2-y,-1/2+z
8 -1/2-x,-1/2+y,z
_cell_length_a 13.273(4)
_cell_length_b 8.870(3)
_cell_length_c 18.749(6)
_cell_angle_alpha 90
_cell_angle_beta 90
_cell_angle_gamma 90
_cell_formula_units_Z 8
loop_
_atom_type_symbol
_atom_type_radius_bond
C 0.68
H 0.23
N 0.68
O 0.68
loop_
_atom_site_label
_atom_site_type_symbol
_atom_site_fract_x
_atom_site_fract_y
_atom_site_fract_z
N1 N 0.6375(3) 0.0335(4) 0.57497(16)
O1 O 0.7239(2) 0.0926(3) 0.55810(16)
O2 O 0.2451(2) 0.6281(4) 0.69019(15)
C1 C 0.6276(3) -0.1180(4) 0.5793(2)
H1 H 0.68300 -0.17880 0.56940
C2 C 0.5565(3) 0.1242(4) 0.58888(18)
C3 C 0.4667(3) 0.0582(4) 0.6064(2)
H2 H 0.41120 0.11940 0.61540
C4 C 0.4898(3) 0.3854(4) 0.61251(19)
C5 C 0.3286(3) 0.5484(5) 0.6683(2)
C6 C 0.4088(3) 0.4267(4) 0.5703(2)
H3 H 0.40810 0.39890 0.52250
C7 C 0.5387(3) -0.1834(5) 0.5976(2)
H4 H 0.53400 -0.28770 0.60110
C8 C 0.4875(3) 0.4285(5) 0.6834(2)
H5 H 0.54080 0.40180 0.71310
C9 C 0.4078(3) 0.5107(5) 0.7113(2)
H6 H 0.40820 0.53980 0.75890
C10 C 0.5754(3) 0.2910(4) 0.5840(2)
H7 H 0.58700 0.31750 0.53440
H8 H 0.63620 0.31490 0.61040
C11 C 0.4557(3) -0.0953(5) 0.6111(2)
H9 H 0.39400 -0.13840 0.62310
C12 C 0.3291(3) 0.5079(5) 0.5974(2)
H10 H 0.27580 0.53540 0.56790
C13 C 0.2346(4) 0.6619(6) 0.7633(2)
H11 H 0.23940 0.57060 0.79060
H12 H 0.17010 0.70790 0.77140
H13 H 0.28700 0.73000 0.77760
#END
