
#######################################################################
#
#                 Cambridge Crystallographic Data Centre
#                                CCDC
#
#######################################################################
#
# If this CIF has been generated from an entry in the Cambridge
# Structural Database, then it will include bibliographic, chemical,
# crystal, experimental, refinement or atomic coordinate data resulting
# from the CCDC's data processing and validation procedures.
#
#######################################################################

data_CSD_CIF_PUWGIX
_audit_creation_date 2002-10-14
_audit_creation_method CSD-ConQuest-V1
_database_code_CSD PUWGIX
_database_code_depnum_ccdc_archive 'CCDC 168693'
_chemical_formula_sum 'C15 H18 N2 O4'
_chemical_formula_moiety
;
C15 H18 N2 O4
;
_journal_coden_Cambridge 188
_journal_year 2001
_journal_page_first 1534
_journal_name_full 'J.Chem.Soc.,Perkin Trans.2 '
loop_
_publ_author_name
"M.Beit-Yannai"
"Xin Chen"
"Z.Rappoport"
_chemical_name_systematic
;
(E)-Methyl \a-nitro-\b-piperidinocinnamate
;
_chemical_melting_point 403.15
_cell_volume   1496.159
_exptl_crystal_colour 'yellow'
_exptl_crystal_density_diffrn 1.29
_exptl_crystal_preparation 'ethanol'
_diffrn_ambient_temperature ?
_diffrn_special_details
;
The study was carried out at room temperature,in the range 283-303K

;
#These two values have been output from a single CSD field.
_refine_ls_R_factor_gt 0.05
_refine_ls_wR_factor_gt 0.05
_symmetry_cell_setting monoclinic
_symmetry_space_group_name_H-M 'P 21/c'
_symmetry_Int_Tables_number 14
loop_
_symmetry_equiv_pos_site_id
_symmetry_equiv_pos_as_xyz
1 x,y,z
2 -x,1/2+y,1/2-z
3 -x,-y,-z
4 x,-1/2-y,-1/2+z
_cell_length_a 8.344(2)
_cell_length_b 10.309(2)
_cell_length_c 17.769(2)
_cell_angle_alpha 90
_cell_angle_beta 101.80(1)
_cell_angle_gamma 90
_cell_formula_units_Z 4
loop_
_atom_type_symbol
_atom_type_radius_bond
C 0.68
H 0.23
N 0.68
O 0.68
loop_
_atom_site_label
_atom_site_type_symbol
_atom_site_fract_x
_atom_site_fract_y
_atom_site_fract_z
O1 O 0.8014(3) 0.3891(2) 0.2491(2)
O2 O 0.6775(3) 0.5646(2) 0.2841(1)
O3 O 0.4174(4) 0.3357(3) 0.0732(2)
O4 O 0.6740(4) 0.3871(3) 0.0932(2)
N1 N 0.2493(3) 0.5186(3) 0.1501(1)
N2 N 0.5397(4) 0.3861(3) 0.1131(2)
C1 C 0.5294(4) 0.4431(3) 0.1844(2)
C2 C 0.3767(4) 0.4751(3) 0.2015(2)
C3 C 0.3577(4) 0.4623(3) 0.2830(2)
C4 C 0.3992(4) 0.3471(3) 0.3222(2)
C5 C 0.3864(4) 0.3357(4) 0.3979(2)
C6 C 0.3368(5) 0.4399(5) 0.4353(2)
C7 C 0.2985(5) 0.5556(4) 0.3971(2)
C8 C 0.3082(4) 0.5670(3) 0.3206(2)
C9 C 0.0770(4) 0.5041(3) 0.1580(2)
C10 C -0.0127(4) 0.6324(4) 0.1478(2)
C11 C 0.0031(5) 0.6986(4) 0.0736(2)
C12 C 0.1816(5) 0.7074(4) 0.0675(2)
C13 C 0.2656(4) 0.5768(3) 0.0767(2)
C14 C 0.6823(4) 0.4583(3) 0.2402(2)
C15 C 0.8156(5) 0.5865(5) 0.3461(3)
H1 H 0.43660 0.27560 0.29670
H2 H 0.41190 0.25580 0.42420
H3 H 0.32890 0.43220 0.48770
H4 H 0.26520 0.62780 0.42340
H5 H 0.28090 0.64670 0.29420
H6 H 0.02310 0.44510 0.12010
H7 H 0.07520 0.47090 0.20770
H8 H -0.12530 0.61750 0.14720
H9 H 0.03180 0.68740 0.18980
H10 H -0.05560 0.65020 0.03140
H11 H -0.04140 0.78360 0.07260
H12 H 0.18720 0.74160 0.01840
H13 H 0.23700 0.76390 0.10650
H14 H 0.37830 0.58750 0.07590
H15 H 0.21630 0.52150 0.03570
H16 H 0.82770 0.51500 0.38050
H17 H 0.91200 0.59570 0.32590
H18 H 0.79830 0.66340 0.37280
#END
