
#######################################################################
#
#                 Cambridge Crystallographic Data Centre
#                                CCDC
#
#######################################################################
#
# If this CIF has been generated from an entry in the Cambridge
# Structural Database, then it will include bibliographic, chemical,
# crystal, experimental, refinement or atomic coordinate data resulting
# from the CCDC's data processing and validation procedures.
#
#######################################################################

data_CSD_CIF_PUWGET
_audit_creation_date 2002-10-14
_audit_creation_method CSD-ConQuest-V1
_database_code_CSD PUWGET
_database_code_depnum_ccdc_archive 'CCDC 168692'
_chemical_formula_sum 'C16 H14 N2 O4'
_chemical_formula_moiety
;
C16 H14 N2 O4
;
_journal_coden_Cambridge 188
_journal_year 2001
_journal_page_first 1534
_journal_name_full 'J.Chem.Soc.,Perkin Trans.2 '
loop_
_publ_author_name
"M.Beit-Yannai"
"Xin Chen"
"Z.Rappoport"
_chemical_name_systematic
;
(E)-Methyl \a-nitro-\b-anilinocinnamate
;
_chemical_melting_point 441.15
_cell_volume   1502.230
_exptl_crystal_colour 'yellow'
_exptl_crystal_density_diffrn 1.32
_exptl_crystal_description 'needle'
_exptl_crystal_preparation 'ethanol'
_diffrn_ambient_temperature ?
_diffrn_special_details
;
The study was carried out at room temperature,in the range 283-303K

;
#These two values have been output from a single CSD field.
_refine_ls_R_factor_gt 0.062
_refine_ls_wR_factor_gt 0.062
_symmetry_cell_setting monoclinic
_symmetry_space_group_name_H-M 'P 21/c'
_symmetry_Int_Tables_number 14
loop_
_symmetry_equiv_pos_site_id
_symmetry_equiv_pos_as_xyz
1 x,y,z
2 -x,1/2+y,1/2-z
3 -x,-y,-z
4 x,-1/2-y,-1/2+z
_cell_length_a 11.452(2)
_cell_length_b 8.899(1)
_cell_length_c 15.330(3)
_cell_angle_alpha 90
_cell_angle_beta 105.94(2)
_cell_angle_gamma 90
_cell_formula_units_Z 4
loop_
_atom_type_symbol
_atom_type_radius_bond
C 0.68
H 0.23
N 0.68
O 0.68
loop_
_atom_site_label
_atom_site_type_symbol
_atom_site_fract_x
_atom_site_fract_y
_atom_site_fract_z
O1 O 0.4035(4) 0.2270(5) 0.3094(3)
O2 O 0.4272(3) -0.0183(4) 0.3207(3)
O3 O 0.4464(3) 0.0899(4) 0.0531(2)
O4 O 0.3011(3) 0.1073(4) 0.1179(2)
N1 N 0.6690(3) 0.0548(4) 0.1544(2)
N2 N 0.4110(3) 0.0987(4) 0.1227(3)
C1 C 0.4948(4) 0.0980(5) 0.2087(3)
C2 C 0.6177(4) 0.0794(5) 0.2211(3)
C3 C 0.6958(4) 0.0862(5) 0.3165(3)
C4 C 0.7590(4) -0.0401(6) 0.3557(3)
C5 C 0.8300(5) -0.0340(7) 0.4444(4)
C6 C 0.8422(5) 0.097(1) 0.4920(3)
C7 C 0.7819(5) 0.2227(8) 0.4543(4)
C8 C 0.7076(4) 0.2187(6) 0.3659(3)
C9 C 0.7951(4) 0.0417(5) 0.1597(3)
C10 C 0.8311(4) -0.0698(5) 0.1108(3)
C11 C 0.9500(5) -0.0780(6) 0.1088(3)
C12 C 1.0340(4) 0.0229(8) 0.1561(4)
C13 C 0.9987(5) 0.1362(7) 0.2048(4)
C14 C 0.8789(4) 0.1454(6) 0.2062(3)
C15 C 0.4374(4) 0.1132(6) 0.2843(3)
C16 C 0.3665(7) -0.0180(8) 0.3920(5)
H1 H 0.62590 -0.01540 0.10500
H2 H 0.75370 -0.13050 0.32190
H3 H 0.87070 -0.12180 0.47250
H4 H 0.89350 0.10120 0.55230
H5 H 0.79040 0.31350 0.48820
H6 H 0.66480 0.30630 0.33940
H7 H 0.77380 -0.14140 0.07840
H8 H 0.97430 -0.15420 0.07410
H9 H 1.11660 0.01470 0.15550
H10 H 1.05630 0.20740 0.23720
H11 H 0.85390 0.22370 0.23930
H12 H 0.41040 0.04370 0.44070
H13 H 0.28650 0.02020 0.36910
H14 H 0.36300 -0.11760 0.41350
#END
