
#######################################################################
#
#                 Cambridge Crystallographic Data Centre
#                                CCDC
#
#######################################################################
#
# If this CIF has been generated from an entry in the Cambridge
# Structural Database, then it will include bibliographic, chemical,
# crystal, experimental, refinement or atomic coordinate data resulting
# from the CCDC's data processing and validation procedures.
#
#######################################################################

data_CSD_CIF_PUXQUW
_audit_creation_date 2015-12-15
_audit_creation_method CSD-ConQuest-V1
_database_code_CSD PUXQUW
_database_code_depnum_ccdc_archive 'CCDC 930799'
_chemical_formula_sum 'C16 H15 N5 O4'
_chemical_formula_moiety
;
C16 H15 N5 O4
;
_journal_coden_Cambridge 1481
_journal_volume 5
_journal_year 2014
_journal_page_first 321
_journal_name_full 'Eur.J.Chem. '
loop_
_publ_author_name
"A.Al-Etaibi"
"M.A.El-Apasery"
"H.Mahmoud"
"N.Al-Awadi"
_chemical_name_systematic
;
1,4-diethyl-5-((4-nitrophenyl)hydrazono)-2,6-dioxo-1,2,5,6-tetrahydropyridine-
3-carbonitrile
;
_cell_volume    790.588
_exptl_crystal_colour 'light yellow'
_exptl_crystal_density_diffrn 1.434
_exptl_crystal_description 'Flake'
_diffrn_ambient_temperature 296
#These two values have been output from a single CSD field.
_refine_ls_R_factor_gt 0.0361
_refine_ls_wR_factor_gt 0.0361
_symmetry_cell_setting monoclinic
_symmetry_space_group_name_H-M 'P c'
_symmetry_Int_Tables_number 7
loop_
_symmetry_equiv_pos_site_id
_symmetry_equiv_pos_as_xyz
1 x,y,z
2 x,-y,1/2+z
_cell_length_a 4.9132(4)
_cell_length_b 13.194(1)
_cell_length_c 12.3592(9)
_cell_angle_alpha 90
_cell_angle_beta 99.328(6)
_cell_angle_gamma 90
_cell_formula_units_Z 2
loop_
_atom_type_symbol
_atom_type_radius_bond
C 0.68
H 0.23
N 0.68
O 0.68
loop_
_atom_site_label
_atom_site_type_symbol
_atom_site_fract_x
_atom_site_fract_y
_atom_site_fract_z
N1 N 0.529(3) 0.6920(13) 0.0530(12)
H1 H 0.56980 0.65310 0.10910
O1 O -0.493(3) 0.5161(13) -0.2647(14)
O2 O 1.563(4) 0.8721(13) 0.3364(14)
O3 O 0.865(3) 0.6519(11) 0.2298(12)
N2 N 1.215(3) 0.7609(13) 0.2835(13)
C1 C 0.317(4) 0.6637(15) -0.0334(14)
N3 N -0.297(4) 0.5646(14) -0.2869(15)
O4 O -0.262(4) 0.5823(15) -0.3809(14)
C2 C 1.225(4) 0.9213(14) 0.1885(14)
C3 C 1.203(7) 0.721(2) 0.477(2)
H2 H 1.26770 0.78710 0.50180
H3 H 1.25980 0.67230 0.53380
H4 H 1.00540 0.72170 0.45960
C4 C 1.321(5) 0.6932(17) 0.3772(17)
H5 H 1.52090 0.69820 0.39310
H6 H 1.27400 0.62360 0.35740
C5 C 0.979(4) 0.7328(14) 0.2147(15)
C6 C 0.873(4) 0.7999(14) 0.1234(15)
N4 N 0.662(3) 0.7771(13) 0.0476(12)
C7 C 0.282(4) 0.7137(15) -0.1335(16)
H7 H 0.39400 0.76840 -0.14440
C8 C 0.079(5) 0.6811(16) -0.2165(15)
H8 H 0.05440 0.71240 -0.28480
C9 C -0.087(4) 0.6016(15) -0.1967(16)
C10 C 1.000(4) 0.8983(14) 0.1139(14)
C11 C 1.358(5) 1.0186(17) 0.1896(17)
N5 N 1.461(5) 1.0957(16) 0.1919(18)
C12 C 1.351(4) 0.8524(16) 0.2746(16)
C13 C 0.886(5) 0.9692(15) 0.0235(16)
H9 H 0.91450 1.03850 0.04930
H10 H 0.68860 0.95830 0.00430
C14 C 1.017(6) 0.955(2) -0.077(2)
H11 H 1.21310 0.96510 -0.05800
H12 H 0.94300 1.00400 -0.13140
H13 H 0.98070 0.88810 -0.10510
C15 C 0.146(4) 0.5836(15) -0.0149(15)
H14 H 0.17160 0.55090 0.05260
C16 C -0.060(4) 0.5533(15) -0.0971(16)
H15 H -0.17840 0.50090 -0.08560
#END
