
#######################################################################
#
#                 Cambridge Crystallographic Data Centre
#                                CCDC
#
#######################################################################
#
# If this CIF has been generated from an entry in the Cambridge
# Structural Database, then it will include bibliographic, chemical,
# crystal, experimental, refinement or atomic coordinate data resulting
# from the CCDC's data processing and validation procedures.
#
#######################################################################

data_CSD_CIF_PUYPOQ
_audit_creation_date 2015-12-16
_audit_creation_method CSD-ConQuest-V1
_database_code_CSD PUYPOQ
_database_code_depnum_ccdc_archive 'CCDC 1058048'
_chemical_formula_sum 'C18 H18 N2 O5'
_chemical_formula_moiety
;
C18 H18 N2 O5
;
_journal_coden_Cambridge 1088
_journal_volume 26
_journal_year 2015
_journal_page_first 2843
_journal_name_full 'Synlett '
loop_
_publ_author_name
"Meng Sun"
"Liang Zhang"
"Cheng-Wen Hua"
"Zhe Wang"
"L.-K.Hou"
"Su-Xian Cai"
"Shuang Li"
_chemical_name_systematic
;
2-(1-oxy-2-(4-methylphenyl)diazen-1-yl)-5-methyl-1,3-phenylene diacetate
;
_cell_volume   1758.644
_exptl_crystal_colour 'light yellow'
_exptl_crystal_density_diffrn 1.293
_exptl_crystal_description 'block'
_diffrn_ambient_temperature 296
#These two values have been output from a single CSD field.
_refine_ls_R_factor_gt 0.0484
_refine_ls_wR_factor_gt 0.0484
_symmetry_cell_setting monoclinic
_symmetry_space_group_name_H-M 'P 21/c'
_symmetry_Int_Tables_number 14
loop_
_symmetry_equiv_pos_site_id
_symmetry_equiv_pos_as_xyz
1 x,y,z
2 -x,1/2+y,1/2-z
3 -x,-y,-z
4 x,-1/2-y,-1/2+z
_cell_length_a 10.154(3)
_cell_length_b 8.093(2)
_cell_length_c 21.720(6)
_cell_angle_alpha 90
_cell_angle_beta 99.834(5)
_cell_angle_gamma 90
_cell_formula_units_Z 4
loop_
_atom_type_symbol
_atom_type_radius_bond
C 0.68
H 0.23
N 0.68
O 0.68
loop_
_atom_site_label
_atom_site_type_symbol
_atom_site_fract_x
_atom_site_fract_y
_atom_site_fract_z
O1 O 0.31984(16) 0.6307(2) -0.00198(7)
O2 O 0.04590(15) 0.56747(18) 0.08984(6)
O3 O 0.0053(2) 0.7662(2) 0.15641(8)
O4 O 0.18699(15) 0.9129(2) -0.06361(7)
O5 O 0.14250(19) 0.7796(3) -0.15514(8)
N1 N 0.28988(18) 0.7311(2) 0.09296(8)
N2 N 0.25276(18) 0.6975(2) 0.03537(8)
C1 C 0.7841(3) 0.5658(4) 0.24983(13)
H1 H 0.81440 0.45820 0.24000
H2 H 0.76910 0.56700 0.29230
H3 H 0.85060 0.64660 0.24480
C2 C 0.6556(2) 0.6060(3) 0.20665(11)
C3 C 0.5549(2) 0.6941(3) 0.22729(11)
H4 H 0.56620 0.72810 0.26880
C4 C 0.4376(2) 0.7327(3) 0.18745(10)
H5 H 0.37120 0.79160 0.20250
C5 C 0.4178(2) 0.6844(3) 0.1249(1)
C6 C 0.5196(2) 0.5973(3) 0.1032(1)
H6 H 0.50970 0.56510 0.06160
C7 C 0.6346(2) 0.5598(3) 0.14413(11)
H7 H 0.70130 0.50080 0.12930
C8 C 0.1143(2) 0.7375(3) 0.01121(9)
C9 C 0.0126(2) 0.6740(2) 0.03927(9)
C10 C -0.1183(2) 0.7045(3) 0.01419(10)
H8 H -0.18590 0.66010 0.03310
C11 C -0.1514(2) 0.8013(3) -0.03944(10)
C12 C -0.0498(2) 0.8683(3) -0.06624(10)
H9 H -0.07030 0.93560 -0.10130
C13 C 0.0815(2) 0.8361(3) -0.04145(9)
C14 C -0.2956(3) 0.8313(4) -0.06628(13)
H10 H -0.30220 0.92040 -0.09580
H11 H -0.34340 0.85960 -0.03330
H12 H -0.33340 0.73310 -0.08690
C15 C 0.0462(2) 0.6314(3) 0.14821(10)
C16 C 0.1060(3) 0.5092(4) 0.19600(11)
H13 H 0.11170 0.55650 0.23690
H14 H 0.19390 0.48000 0.18900
H15 H 0.05100 0.41200 0.19290
C17 C 0.2095(3) 0.8732(3) -0.12169(10)
C18 C 0.3292(3) 0.9632(5) -0.13470(15)
H16 H 0.34400 0.93690 -0.17610
H17 H 0.40590 0.93090 -0.10490
H18 H 0.31520 1.08000 -0.13160
#END
