
#######################################################################
#
#                 Cambridge Crystallographic Data Centre
#                                CCDC
#
#######################################################################
#
# If this CIF has been generated from an entry in the Cambridge
# Structural Database, then it will include bibliographic, chemical,
# crystal, experimental, refinement or atomic coordinate data resulting
# from the CCDC's data processing and validation procedures.
#
#######################################################################

data_CSD_CIF_PUYYUD
_audit_creation_date 2002-10-14
_audit_creation_method CSD-ConQuest-V1
_database_code_CSD PUYYUD
_database_code_depnum_ccdc_archive 'CCDC 189408'
_chemical_formula_sum 'C39 H38 N2 O5'
_chemical_formula_moiety
;
C39 H38 N2 O5
;
_journal_coeditor_code "IUCr CI6123"
_journal_coden_Cambridge 1370
_journal_volume 58
_journal_year 2002
_journal_page_first o685
_journal_name_full 'Acta Crystallogr.,Sect.E:Struct.Rep.Online '
loop_
_publ_author_name
"A.Jeyabharathi"
"M.N.Ponnuswamy"
"A.A.Raj"
"R.Raghunathan"
"H.-K.Fun"
_chemical_name_systematic
;
5-Benzoyl-1-cyclohexyl-3-(m-nitrophenyl)-2-phenylpyrrolidine-spiro-4,2'-(6'-me
thoxy-1'-tetralone)
;
_cell_volume   1648.055
_exptl_crystal_colour 'yellow'
_exptl_crystal_density_diffrn 1.239
_exptl_crystal_description 'slab'
_exptl_crystal_preparation 'ethanol'
_diffrn_ambient_temperature 293
#These two values have been output from a single CSD field.
_refine_ls_R_factor_gt 0.068
_refine_ls_wR_factor_gt 0.068
_symmetry_cell_setting triclinic
_symmetry_space_group_name_H-M 'P -1'
_symmetry_Int_Tables_number 2
loop_
_symmetry_equiv_pos_site_id
_symmetry_equiv_pos_as_xyz
1 x,y,z
2 -x,-y,-z
_cell_length_a 11.2284(1)
_cell_length_b 12.6346(4)
_cell_length_c 12.9056(3)
_cell_angle_alpha 102.453(2)
_cell_angle_beta 96.412(2)
_cell_angle_gamma 109.775(1)
_cell_formula_units_Z 2
loop_
_atom_type_symbol
_atom_type_radius_bond
C 0.68
H 0.23
N 0.68
O 0.68
loop_
_atom_site_label
_atom_site_type_symbol
_atom_site_fract_x
_atom_site_fract_y
_atom_site_fract_z
O1 O 0.7376(2) 0.1864(2) 0.28030(18)
O2 O 0.4593(2) 0.4448(2) 0.27962(19)
O3 O 0.6057(2) 0.0545(2) 0.70635(19)
O4 O 0.8704(3) 0.9219(2) 0.4015(3)
O5 O 0.6819(3) 0.7928(2) 0.3711(3)
N1 N 0.5388(2) 0.2654(2) 0.14556(19)
N2 N 0.7978(3) 0.8215(3) 0.3806(2)
C1 C 0.6451(3) 0.3722(3) 0.1489(2)
H1 H 0.61300 0.43520 0.14830
C2 C 0.7337(3) 0.3989(3) 0.2588(2)
H2 H 0.79370 0.35900 0.24430
C3 C 0.6468(3) 0.3339(3) 0.3302(2)
C4 C 0.5091(3) 0.2726(3) 0.2545(2)
H3 H 0.46830 0.19360 0.26230
C5 C 0.6870(3) 0.2319(3) 0.3463(2)
C6 C 0.6615(3) 0.1885(3) 0.4414(2)
C7 C 0.6939(3) 0.0937(3) 0.4546(3)
H4 H 0.72910 0.05880 0.40170
C8 C 0.6755(3) 0.0512(3) 0.5425(3)
H5 H 0.69740 -0.01210 0.54890
C9 C 0.6232(3) 0.1034(3) 0.6232(3)
C10 C 0.5923(3) 0.1986(3) 0.6123(3)
H6 H 0.55960 0.23460 0.66650
C11 C 0.6092(3) 0.2410(3) 0.5222(2)
C12 C 0.5740(3) 0.3429(3) 0.5106(3)
H7 H 0.58670 0.39450 0.58190
H8 H 0.48330 0.31480 0.47720
C13 C 0.6542(3) 0.4112(3) 0.4426(2)
H9 H 0.74350 0.44770 0.48070
H10 H 0.62410 0.47280 0.43340
C14 C 0.5360(4) 0.0945(4) 0.7822(3)
H11 H 0.53010 0.05340 0.83700
H12 H 0.45070 0.08010 0.74510
H13 H 0.58050 0.17670 0.81520
C15 C 0.8174(3) 0.5271(3) 0.3077(3)
C16 C 0.7673(3) 0.6145(3) 0.3225(2)
H14 H 0.67880 0.59590 0.30450
C17 C 0.8509(3) 0.7294(3) 0.3644(3)
C18 C 0.9820(3) 0.7624(3) 0.3925(3)
H15 H 1.03570 0.84060 0.42070
C19 C 1.0313(3) 0.6758(3) 0.3773(3)
H16 H 1.12010 0.69540 0.39510
C20 C 0.9501(3) 0.5593(3) 0.3357(3)
H17 H 0.98540 0.50190 0.32640
C21 C 0.7152(3) 0.3568(3) 0.0559(3)
C22 C 0.7393(5) 0.4332(4) -0.0071(4)
H18 H 0.70700 0.49260 0.00290
C23 C 0.8132(7) 0.4216(6) -0.0872(5)
H19 H 0.82810 0.47260 -0.13090
C24 C 0.8625(6) 0.3372(7) -0.1009(5)
H20 H 0.91330 0.33180 -0.15250
C25 C 0.8389(5) 0.2603(5) -0.0405(4)
H21 H 0.87140 0.20110 -0.05180
C26 C 0.7659(4) 0.2697(4) 0.0386(3)
H22 H 0.75070 0.21700 0.08050
C27 C 0.4212(3) 0.3417(3) 0.2797(3)
C28 C 0.2875(3) 0.2811(3) 0.2944(3)
C29 C 0.2465(3) 0.1741(3) 0.3161(3)
H23 H 0.30460 0.13710 0.32320
C30 C 0.1209(4) 0.1200(4) 0.3277(3)
H24 H 0.09510 0.04770 0.34260
C31 C 0.0357(4) 0.1740(4) 0.3169(4)
H25 H -0.04860 0.13860 0.32520
C32 C 0.0728(4) 0.2794(5) 0.2939(5)
H26 H 0.01300 0.31420 0.28410
C33 C 0.1993(4) 0.3346(4) 0.2854(4)
H27 H 0.22530 0.40830 0.27340
C34 C 0.4344(3) 0.2157(3) 0.0484(3)
H28 H 0.47700 0.20260 -0.01280
C35 C 0.3634(4) 0.2942(3) 0.0235(3)
H29 H 0.31790 0.30990 0.08110
H30 H 0.42550 0.36810 0.02060
C36 C 0.2671(5) 0.2359(4) -0.0844(4)
H31 H 0.22120 0.28600 -0.09730
H32 H 0.31350 0.22610 -0.14250
C37 C 0.1725(5) 0.1201(4) -0.0851(4)
H33 H 0.11460 0.08430 -0.15530
H34 H 0.12120 0.13030 -0.03080
C38 C 0.2409(4) 0.0407(4) -0.0618(3)
H35 H 0.28430 0.02350 -0.12050
H36 H 0.17780 -0.03240 -0.05830
C39 C 0.3401(4) 0.0969(3) 0.0451(3)
H37 H 0.29520 0.10400 0.10470
H38 H 0.38700 0.04660 0.05440
#END
