
#######################################################################
#
#                 Cambridge Crystallographic Data Centre
#                                CCDC
#
#######################################################################
#
# If this CIF has been generated from an entry in the Cambridge
# Structural Database, then it will include bibliographic, chemical,
# crystal, experimental, refinement or atomic coordinate data resulting
# from the CCDC's data processing and validation procedures.
#
#######################################################################

data_CSD_CIF_PYMCOX
_audit_creation_date 1974-03-25
_audit_creation_method CSD-ConQuest-V1
_database_code_CSD PYMCOX
_chemical_formula_sum 'C5 H5 N3 O1'
_chemical_formula_moiety
;
C5 H5 N3 O1
;
_journal_coeditor_code "IUCr A10272"
_journal_coden_Cambridge 107
_journal_volume 29
_journal_year 1973
_journal_page_first 2260
_journal_name_full 'Acta Crystallogr.,Sect.B:Struct.Crystallogr.Cryst.Chem. '
loop_
_publ_author_name
"M.Martinez-Ripoll"
"H.P.Lorenz"
_chemical_name_systematic
;
syn-4-Pyrimidine-carboxaldehyde oxime
;
_chemical_melting_point 423.15
_cell_volume   1206.736
_exptl_crystal_density_diffrn 1.35
_diffrn_ambient_temperature ?
_diffrn_special_details
;
The study was carried out at room temperature,in the range 283-303K

;
#These two values have been output from a single CSD field.
_refine_ls_R_factor_gt 0.048
_refine_ls_wR_factor_gt 0.048
loop_
_citation_database_id_CSD
_citation_special_details
APMCOX "is a stereoisomer of this entry"
_symmetry_cell_setting orthorhombic
_symmetry_space_group_name_H-M 'P c c n'
_symmetry_Int_Tables_number 56
loop_
_symmetry_equiv_pos_site_id
_symmetry_equiv_pos_as_xyz
1 x,y,z
2 1/2-x,y,1/2+z
3 x,1/2-y,1/2+z
4 1/2-x,1/2-y,z
5 -x,-y,-z
6 -1/2+x,-y,-1/2-z
7 -x,-1/2+y,-1/2-z
8 -1/2+x,-1/2+y,-z
_cell_length_a 8.500(2)
_cell_length_b 12.101(2)
_cell_length_c 11.732(10)
_cell_angle_alpha 90
_cell_angle_beta 90
_cell_angle_gamma 90
_cell_formula_units_Z 8
loop_
_atom_type_symbol
_atom_type_radius_bond
C 0.68
H 0.20
N 0.68
O 0.68
loop_
_atom_site_label
_atom_site_type_symbol
_atom_site_fract_x
_atom_site_fract_y
_atom_site_fract_z
C1 C -0.38260 0.11640 -0.44870
C2 C -0.45340 0.18700 -0.37210
C3 C -0.54010 0.29370 -0.51790
C4 C -0.39780 0.14130 -0.56390
C5 C -0.33040 0.07280 -0.65510
H1 H -0.32800 0.04900 -0.42600
H2 H -0.45200 0.17900 -0.29200
H3 H -0.60500 0.35900 -0.54800
H4 H -0.36300 0.09700 -0.74000
H5 H -0.14100 -0.12500 -0.70600
N1 N -0.53250 0.27730 -0.40550
N2 N -0.47780 0.23090 -0.59950
N3 N -0.24620 -0.01020 -0.62820
O1 O -0.19440 -0.06830 -0.72350
#END
