
#######################################################################
#
#                 Cambridge Crystallographic Data Centre
#                                CCDC
#
#######################################################################
#
# If this CIF has been generated from an entry in the Cambridge
# Structural Database, then it will include bibliographic, chemical,
# crystal, experimental, refinement or atomic coordinate data resulting
# from the CCDC's data processing and validation procedures.
#
#######################################################################

data_CSD_CIF_PYRCOX01
_audit_creation_date 2012-01-16
_audit_creation_method CSD-ConQuest-V1
_database_code_CSD PYRCOX01
_database_code_depnum_ccdc_archive 'CCDC 604549'
_chemical_formula_sum 'C6 H6 N2 O1'
_chemical_formula_moiety
;
C6 H6 N2 O1
;
_journal_coden_Cambridge 1287
_journal_volume 23
_journal_year 2011
_journal_page_first 3546
_journal_name_full 'Asian J.Chem. '
loop_
_publ_author_name
"R.Erenler"
_chemical_name_systematic
;
N-Hydroxy-1-(pyridin-4-yl)methanimine
;
_cell_volume    618.572
_exptl_crystal_colour 'colorless'
_exptl_crystal_density_diffrn 1.311
_exptl_crystal_description 'prism'
_diffrn_ambient_temperature 100
#These two values have been output from a single CSD field.
_refine_ls_R_factor_gt 0.0934
_refine_ls_wR_factor_gt 0.0934
loop_
_citation_database_id_CSD
_citation_special_details
APYRCX "is a stereoisomer of this entry"
_symmetry_cell_setting orthorhombic
_symmetry_space_group_name_H-M 'P 21 21 21'
_symmetry_Int_Tables_number 19
loop_
_symmetry_equiv_pos_site_id
_symmetry_equiv_pos_as_xyz
1 x,y,z
2 1/2-x,-y,1/2+z
3 -x,1/2+y,1/2-z
4 1/2+x,1/2-y,-z
_cell_length_a 5.5111(6)
_cell_length_b 7.1023(8)
_cell_length_c 15.8035(17)
_cell_angle_alpha 90
_cell_angle_beta 90
_cell_angle_gamma 90
_cell_formula_units_Z 4
loop_
_atom_type_symbol
_atom_type_radius_bond
C 0.68
H 0.23
N 0.68
O 0.68
loop_
_atom_site_label
_atom_site_type_symbol
_atom_site_fract_x
_atom_site_fract_y
_atom_site_fract_z
C1 C 0.9417(11) 0.9884(7) 0.5796(3)
C2 C 1.0289(12) 0.9298(6) 0.6580(3)
H1 H 1.17520 0.86520 0.66220
C3 C 0.8937(12) 0.9698(7) 0.7297(3)
H2 H 0.95200 0.92740 0.78150
N1 N 0.6854(9) 1.0651(6) 0.7291(2)
C4 C 0.6018(12) 1.1247(7) 0.6528(3)
H3 H 0.45720 1.19200 0.65090
C5 C 0.7229(10) 1.0896(7) 0.5779(3)
H4 H 0.66000 1.13250 0.52680
C6 C 1.0690(11) 0.9377(6) 0.5026(3)
H5 H 1.22700 0.89220 0.50550
N2 N 0.9659(8) 0.9553(5) 0.4312(3)
O1 O 1.1112(8) 0.9013(5) 0.3630(2)
H6 H 1.24050 0.86010 0.38070
#END
