
#######################################################################
#
#                 Cambridge Crystallographic Data Centre
#                                CCDC
#
#######################################################################
#
# If this CIF has been generated from an entry in the Cambridge
# Structural Database, then it will include bibliographic, chemical,
# crystal, experimental, refinement or atomic coordinate data resulting
# from the CCDC's data processing and validation procedures.
#
#######################################################################

data_CSD_CIF_PYRDNO21
_audit_creation_date 2014-05-31
_audit_creation_method CSD-ConQuest-V1
_database_code_CSD PYRDNO21
_database_code_depnum_ccdc_archive 'CCDC 1003292'
_chemical_formula_sum 'C5 H5 N1 O1'
_chemical_formula_moiety
;
C5 H5 N1 O1
;
_journal_coeditor_code "zb5041"
_journal_coden_Cambridge 1743
_journal_volume 70
_journal_year 2014
_journal_page_first 487
_journal_name_full 'Acta Crystallogr.,Sect.B:Struct.Sci.,Cryst.Eng. and Mat. '
loop_
_publ_author_name
"E.Patyk"
"J.Marciniak"
"H.Tomkowiak"
"A.Katrusiak"
"K.Merz"
_chemical_name_systematic
;
pyridine 1-oxide
;
_chemical_name_common
;
pyridine N-oxide
;
_chemical_melting_point 338
_cell_volume    403.060
_exptl_crystal_colour 'colorless'
_exptl_crystal_density_diffrn 1.567
_exptl_special_details
;
polymorph 1

;
_exptl_crystal_description 'tetragonal trapezohedron'
_diffrn_ambient_temperature 295
_diffrn_ambient_pressure 2000000.0
#These two values have been output from a single CSD field.
_refine_ls_R_factor_gt 0.061
_refine_ls_wR_factor_gt 0.061
_symmetry_cell_setting tetragonal
_symmetry_space_group_name_H-M 'P 41 21 2'
_symmetry_Int_Tables_number 92
loop_
_symmetry_equiv_pos_site_id
_symmetry_equiv_pos_as_xyz
1 x,y,z
2 -x,-y,1/2+z
3 1/2-y,1/2+x,1/4+z
4 1/2+y,1/2-x,3/4+z
5 1/2-x,1/2+y,1/4-z
6 1/2+x,1/2-y,3/4-z
7 y,x,-z
8 -y,-x,1/2-z
_cell_length_a 5.4980(8)
_cell_length_b 5.4980(8)
_cell_length_c 13.334(3)
_cell_angle_alpha 90
_cell_angle_beta 90
_cell_angle_gamma 90
_cell_formula_units_Z 4
loop_
_atom_type_symbol
_atom_type_radius_bond
C 0.68
H 0.23
N 0.68
O 0.68
loop_
_atom_site_label
_atom_site_type_symbol
_atom_site_fract_x
_atom_site_fract_y
_atom_site_fract_z
O1 O 0.1750(7) 0.1750(7) 0.00000
N1 N 0.0071(8) 0.0071(8) 0.00000
C1 C 0.0384(12) -0.1994(11) 0.0557(4)
C2 C -0.1392(10) -0.3720(11) 0.0550(4)
C3 C -0.3501(10) -0.3501(10) 0.00000
H1 H 0.193(9) -0.190(11) 0.100(4)
H2 H -0.091(8) -0.509(12) 0.096(4)
H3 H -0.467(10) -0.467(10) 0.00000
C1F C -0.1994(12) 0.0384(11) -0.0557(4)
C2F C -0.372(1) -0.1392(11) -0.0550(4)
H1F H -0.190(9) 0.193(11) -0.100(4)
H2F H -0.509(8) -0.091(12) -0.096(4)
#END
