
#######################################################################
#
#                 Cambridge Crystallographic Data Centre
#                                CCDC
#
#######################################################################
#
# If this CIF has been generated from an entry in the Cambridge
# Structural Database, then it will include bibliographic, chemical,
# crystal, experimental, refinement or atomic coordinate data resulting
# from the CCDC's data processing and validation procedures.
#
#######################################################################

data_CSD_CIF_QABDEE
_audit_creation_date 2011-03-30
_audit_creation_method CSD-ConQuest-V1
_database_code_CSD QABDEE
_database_code_depnum_ccdc_archive 'CCDC 753249'
_chemical_formula_sum 'C16 H16 N2 O4'
_chemical_formula_moiety
;
C16 H16 N2 O4
;
_journal_coden_Cambridge 692
_journal_volume 2010
_journal_year 2010
_journal_page_first 678
_journal_name_full 'Synthesis '
loop_
_publ_author_name
"A.Diez-Martinez"
"Z.Gultekin"
"I.Delso"
"T.Tejero"
"P.Merino"
_chemical_name_systematic
;
(Z)-2-(Benzyloxy)-N-(4-nitrobenzylidene)ethanamine oxide
;
_chemical_name_common
;
C
;
_chemical_melting_point 405.15
_cell_volume   1494.174
_exptl_crystal_colour 'yellow'
_exptl_crystal_density_diffrn 1.335
_exptl_special_details
;
Melting point range 405.15-407.15K

;
_exptl_crystal_description 'block'
_diffrn_ambient_temperature 293
#These two values have been output from a single CSD field.
_refine_ls_R_factor_gt 0.0372
_refine_ls_wR_factor_gt 0.0372
_symmetry_cell_setting monoclinic
_symmetry_space_group_name_H-M 'P 21/n'
_symmetry_Int_Tables_number 14
loop_
_symmetry_equiv_pos_site_id
_symmetry_equiv_pos_as_xyz
1 x,y,z
2 1/2-x,1/2+y,1/2-z
3 -x,-y,-z
4 -1/2+x,-1/2-y,-1/2+z
_cell_length_a 4.7189(2)
_cell_length_b 27.9343(11)
_cell_length_c 11.7716(5)
_cell_angle_alpha 90
_cell_angle_beta 105.653(5)
_cell_angle_gamma 90
_cell_formula_units_Z 4
loop_
_atom_type_symbol
_atom_type_radius_bond
C 0.68
H 0.23
N 0.68
O 0.68
loop_
_atom_site_label
_atom_site_type_symbol
_atom_site_fract_x
_atom_site_fract_y
_atom_site_fract_z
O1 O 0.0278(3) 0.07066(4) 0.36389(11)
O2 O 0.2745(3) 0.06945(4) 0.67267(11)
O3 O -0.9965(3) 0.23443(5) 0.07356(13)
O4 O -0.7714(4) 0.29822(5) 0.14393(14)
N1 N -0.7912(4) 0.25511(7) 0.13981(15)
N2 N 0.1897(3) 0.10161(6) 0.43233(13)
C1 C 0.1308(4) 0.14716(7) 0.43455(15)
H1 H 0.26160 0.16550 0.49110
C2 C -0.1156(4) 0.17193(6) 0.35857(15)
C3 C -0.1194(4) 0.22166(7) 0.37052(16)
H2 H 0.02990 0.23650 0.42760
C4 C -0.3386(4) 0.24905(6) 0.29985(17)
H3 H -0.33900 0.28220 0.30820
C5 C -0.5565(4) 0.22638(7) 0.21689(16)
C6 C -0.5625(4) 0.17796(7) 0.20286(15)
H4 H -0.71410 0.16350 0.14590
C7 C -0.3424(4) 0.15066(6) 0.27367(16)
H5 H -0.34570 0.11760 0.26450
C8 C 0.4664(5) 0.08248(7) 0.51096(19)
H6 H 0.579(4) 0.1086(5) 0.5556(15)
H7 H 0.583(4) 0.0682(5) 0.4635(14)
C9 C 0.4086(5) 0.04588(7) 0.59442(19)
H8 H 0.279(4) 0.0211(5) 0.5513(15)
H9 H 0.592(4) 0.0311(5) 0.6380(15)
C10 C 0.2834(5) 0.04251(7) 0.77440(19)
H10 H 0.486(4) 0.0360(5) 0.8166(16)
H11 H 0.185(4) 0.0121(6) 0.7520(14)
C11 C 0.1366(4) 0.06923(6) 0.85284(17)
C12 C -0.0231(4) 0.11007(7) 0.81615(17)
H12 H -0.03440 0.12250 0.74180
C13 C -0.1667(5) 0.13277(7) 0.8883(2)
H13 H -0.27440 0.16040 0.86240
C14 C -0.1523(5) 0.11501(9) 0.9974(2)
H14 H -0.25350 0.13010 1.04510
C15 C 0.0107(5) 0.07517(9) 1.0365(2)
H15 H 0.02560 0.06340 1.11180
C16 C 0.1543(4) 0.05209(7) 0.96389(19)
H16 H 0.26390 0.02470 0.99060
#END
