
#######################################################################
#
#                 Cambridge Crystallographic Data Centre
#                                CCDC
#
#######################################################################
#
# If this CIF has been generated from an entry in the Cambridge
# Structural Database, then it will include bibliographic, chemical,
# crystal, experimental, refinement or atomic coordinate data resulting
# from the CCDC's data processing and validation procedures.
#
#######################################################################

data_CSD_CIF_QABDII
_audit_creation_date 2011-03-30
_audit_creation_method CSD-ConQuest-V1
_database_code_CSD QABDII
_database_code_depnum_ccdc_archive 'CCDC 753250'
_chemical_formula_sum 'C19 H23 N1 O2'
_chemical_formula_moiety
;
C19 H23 N1 O2
;
_journal_coden_Cambridge 692
_journal_volume 2010
_journal_year 2010
_journal_page_first 678
_journal_name_full 'Synthesis '
loop_
_publ_author_name
"A.Diez-Martinez"
"Z.Gultekin"
"I.Delso"
"T.Tejero"
"P.Merino"
_chemical_name_systematic
;
(S,Z)-N-benzylidene-1-(benzyloxy)-3-methylbutan-2-amine oxide
;
_chemical_melting_point 352.15
_cell_volume   1643.375
_exptl_crystal_colour 'colorless'
_exptl_crystal_density_diffrn 1.202
_exptl_special_details
;
Melting point range 352.15-354.15K

;
_exptl_crystal_description 'block'
_diffrn_ambient_temperature 293
#These two values have been output from a single CSD field.
_refine_ls_R_factor_gt 0.0376
_refine_ls_wR_factor_gt 0.0376
_symmetry_cell_setting orthorhombic
_symmetry_space_group_name_H-M 'P 21 21 21'
_symmetry_Int_Tables_number 19
loop_
_symmetry_equiv_pos_site_id
_symmetry_equiv_pos_as_xyz
1 x,y,z
2 1/2-x,-y,1/2+z
3 1/2+x,1/2-y,-z
4 -x,1/2+y,1/2-z
_cell_length_a 5.424
_cell_length_b 12.353
_cell_length_c 24.527
_cell_angle_alpha 90
_cell_angle_beta 90
_cell_angle_gamma 90
_cell_formula_units_Z 4
loop_
_atom_type_symbol
_atom_type_radius_bond
C 0.68
H 0.23
N 0.68
O 0.68
loop_
_atom_site_label
_atom_site_type_symbol
_atom_site_fract_x
_atom_site_fract_y
_atom_site_fract_z
N1 N 0.6818(2) 0.47885(9) 0.17447(4)
O1 O 0.45133(17) 0.48900(8) 0.18777(4)
O2 O 0.74705(17) 0.25357(8) 0.13501(4)
C1 C 0.8001(3) 0.54358(11) 0.14149(5)
H1 H 0.96260 0.52530 0.13370
C2 C 0.7063(2) 0.64097(10) 0.11558(5)
C3 C 0.4897(2) 0.69498(12) 0.13031(6)
H2 H 0.38690 0.66580 0.15690
C4 C 0.4286(3) 0.79159(12) 0.10546(6)
H3 H 0.28550 0.82760 0.11590
C5 C 0.5765(3) 0.83577(12) 0.06527(6)
H4 H 0.53320 0.90080 0.04870
C6 C 0.7893(3) 0.78231(12) 0.04997(6)
H5 H 0.88940 0.81130 0.02290
C7 C 0.8538(3) 0.68639(11) 0.07469(5)
H6 H 0.99750 0.65120 0.06410
C8 C 0.8184(3) 0.3893(1) 0.20181(5)
H7 H 0.98490 0.38600 0.18640
C9 C 0.8404(3) 0.41213(11) 0.26365(5)
H8 H 0.68390 0.39360 0.28130
C10 C 1.0437(3) 0.34136(14) 0.28743(6)
H9 H 1.00630 0.26660 0.28070
H10 H 1.05490 0.35350 0.32600
H11 H 1.19810 0.35940 0.27060
C11 C 0.8977(3) 0.53080(13) 0.27459(6)
H12 H 0.76870 0.57510 0.25980
H13 H 1.05160 0.54950 0.25770
H14 H 0.90900 0.54260 0.31320
C12 C 0.6893(3) 0.28378(11) 0.18950(5)
H15 H 0.74420 0.22810 0.21460
H16 H 0.51250 0.29240 0.19360
C13 C 0.6068(3) 0.16249(12) 0.11771(6)
H17 H 0.43270 0.18040 0.11800
H18 H 0.63320 0.10250 0.14260
C14 C 0.6836(3) 0.13036(11) 0.06110(6)
C15 C 0.5358(3) 0.15425(12) 0.01677(6)
H19 H 0.38970 0.19220 0.02210
C16 C 0.6014(3) 0.12269(11) -0.03552(6)
H20 H 0.49970 0.13930 -0.06490
C17 C 0.8178(3) 0.06653(11) -0.04380(6)
H21 H 0.86180 0.04450 -0.07870
C18 C 0.9687(3) 0.04310(12) -0.00013(6)
H22 H 1.11580 0.00610 -0.00570
C19 C 0.9019(3) 0.07451(11) 0.05184(6)
H23 H 1.00450 0.05800 0.08110
#END
