
#######################################################################
#
#                 Cambridge Crystallographic Data Centre
#                                CCDC
#
#######################################################################
#
# If this CIF has been generated from an entry in the Cambridge
# Structural Database, then it will include bibliographic, chemical,
# crystal, experimental, refinement or atomic coordinate data resulting
# from the CCDC's data processing and validation procedures.
#
#######################################################################

data_CSD_CIF_QABLOX
_audit_creation_date 2016-03-14
_audit_creation_method CSD-ConQuest-V1
_database_code_CSD QABLOX
_database_code_depnum_ccdc_archive 'CCDC 1465289'
_chemical_formula_sum 'C12 H14 N2 O5'
_chemical_formula_moiety
;
C12 H14 N2 O5
;
_journal_coden_Cambridge 1336
_journal_volume 18
_journal_year 2016
_journal_page_first 1178
_journal_name_full 'Org.Lett. '
loop_
_publ_author_name
"Jie Wang"
"Mingyang Wang"
"Kehao Chen"
"Shanke Zha"
"Chao Song"
"Jin Zhu"
_chemical_name_systematic
;
dimethyl (2-(methyl(nitroso)amino)phenyl)malonate
;
_cell_volume   1322.448
_exptl_crystal_colour 'colorless'
_exptl_crystal_density_diffrn 1.337
_exptl_crystal_description 'needle'
_diffrn_ambient_temperature 293
#These two values have been output from a single CSD field.
_refine_ls_R_factor_gt 0.0557
_refine_ls_wR_factor_gt 0.0557
_symmetry_cell_setting monoclinic
_symmetry_space_group_name_H-M 'P 21/c'
_symmetry_Int_Tables_number 14
loop_
_symmetry_equiv_pos_site_id
_symmetry_equiv_pos_as_xyz
1 x,y,z
2 -x,1/2+y,1/2-z
3 -x,-y,-z
4 x,-1/2-y,-1/2+z
_cell_length_a 8.9220(18)
_cell_length_b 19.474(4)
_cell_length_c 8.1800(16)
_cell_angle_alpha 90
_cell_angle_beta 111.49(3)
_cell_angle_gamma 90
_cell_formula_units_Z 4
loop_
_atom_type_symbol
_atom_type_radius_bond
C 0.68
H 0.23
N 0.68
O 0.68
loop_
_atom_site_label
_atom_site_type_symbol
_atom_site_fract_x
_atom_site_fract_y
_atom_site_fract_z
O1 O 0.3624(3) 0.38960(12) 0.0972(3)
N1 N 0.4156(3) 0.32838(12) 0.5858(3)
C1 C 0.2534(3) 0.32544(12) 0.4627(3)
O2 O 0.5355(2) 0.46072(10) 0.2892(3)
C2 C 0.1583(4) 0.27006(14) 0.4709(4)
H1 H 0.19970 0.23660 0.55670
N2 N 0.5283(3) 0.32697(16) 0.5186(4)
O3 O 0.1876(3) 0.53212(12) 0.1301(3)
C3 C 0.0031(4) 0.26478(15) 0.3523(4)
H2 H -0.06160 0.22840 0.35970
O4 O 0.1101(2) 0.51927(9) 0.3591(3)
C4 C -0.0561(3) 0.31298(15) 0.2233(4)
H3 H -0.15990 0.30840 0.14060
C5 C 0.0378(3) 0.36865(13) 0.2150(3)
H4 H -0.00410 0.40130 0.12700
O5 O 0.6657(3) 0.32386(17) 0.6253(4)
C6 C 0.1931(3) 0.37624(12) 0.3364(3)
C7 C 0.2946(3) 0.43887(12) 0.3314(3)
H5 H 0.36620 0.44900 0.45220
C8 C 0.3986(3) 0.42561(13) 0.2242(3)
C9 C 0.6513(4) 0.4496(2) 0.2051(5)
H6 H 0.74470 0.47750 0.26110
H7 H 0.60350 0.46170 0.08320
H8 H 0.68220 0.40210 0.21550
C10 C 0.1918(3) 0.50219(13) 0.2591(3)
C11 C 0.0078(4) 0.57912(15) 0.3077(5)
H9 H -0.04540 0.58620 0.38930
H10 H -0.07120 0.57230 0.19200
H11 H 0.07210 0.61860 0.30770
C12 C 0.4571(6) 0.3271(3) 0.7753(5)
H12 H 0.57200 0.32920 0.83310
H13 H 0.41750 0.28550 0.80780
H14 H 0.40910 0.36580 0.80980
#END
