
#######################################################################
#
#                 Cambridge Crystallographic Data Centre
#                                CCDC
#
#######################################################################
#
# If this CIF has been generated from an entry in the Cambridge
# Structural Database, then it will include bibliographic, chemical,
# crystal, experimental, refinement or atomic coordinate data resulting
# from the CCDC's data processing and validation procedures.
#
#######################################################################

data_CSD_CIF_QABPIV
_audit_creation_date 2016-03-14
_audit_creation_method CSD-ConQuest-V1
_database_code_CSD QABPIV
_database_code_depnum_ccdc_archive 'CCDC 1030768'
_chemical_formula_sum 'C19 H13 N1 O5'
_chemical_formula_moiety
;
C19 H13 N1 O5
;
_journal_coden_Cambridge 154
_journal_volume 69
_journal_year 2016
_journal_page_first 291
_journal_name_full 'Aust.J.Chem. '
loop_
_publ_author_name
"J.L.Jios"
"R.Wartchow"
"G.A.Echeverria"
"H.Duddeck"
_chemical_name_systematic
;
2-acetyl-5-nitrophenyl 2-naphthoate
;
_chemical_name_common
;
2-(2'-naphthoyloxy)-4-nitro-acetophenone
;
_chemical_melting_point 387
_cell_volume   3188.957
_exptl_crystal_colour 'light yellow'
_exptl_crystal_density_diffrn 1.397
_exptl_crystal_description 'needle || a'
_diffrn_ambient_temperature 300
_diffrn_special_details
;
2theta-max is too low. This is caused by the chosen detector distance of 
100mm. This large distance was chosen since there is a large lattice constant 
c of 34 Angstrom.
;
#These two values have been output from a single CSD field.
_refine_ls_R_factor_gt 0.0338
_refine_ls_wR_factor_gt 0.0338
_symmetry_cell_setting orthorhombic
_symmetry_space_group_name_H-M 'P c a b'
_symmetry_Int_Tables_number 61
loop_
_symmetry_equiv_pos_site_id
_symmetry_equiv_pos_as_xyz
1 x,y,z
2 1/2+x,-y,1/2-z
3 1/2-x,1/2+y,-z
4 -x,1/2-y,1/2+z
5 -x,-y,-z
6 -1/2-x,y,-1/2+z
7 -1/2+x,-1/2-y,z
8 x,-1/2+y,-1/2-z
_cell_length_a 8.252(1)
_cell_length_b 11.454(2)
_cell_length_c 33.739(3)
_cell_angle_alpha 90
_cell_angle_beta 90
_cell_angle_gamma 90
_cell_formula_units_Z 8
loop_
_atom_type_symbol
_atom_type_radius_bond
C 0.68
H 0.23
N 0.68
O 0.68
loop_
_atom_site_label
_atom_site_type_symbol
_atom_site_fract_x
_atom_site_fract_y
_atom_site_fract_z
O1 O 0.2840(3) 0.2800(2) 0.36329(6)
O2 O 0.0959(3) 0.12239(19) 0.40276(5)
O3 O 0.3117(3) 0.0182(2) 0.42294(7)
O4 O -0.0451(4) 0.2894(2) 0.56199(7)
O5 O 0.0292(4) 0.1126(2) 0.55043(7)
N1 N 0.0139(4) 0.2154(3) 0.54079(9)
C1 C 0.2164(5) 0.3500(3) 0.38427(10)
C2 C 0.1863(5) 0.4742(3) 0.37182(9)
H1 H 0.19900 0.48080 0.34360
H2 H 0.26250 0.52460 0.38480
H3 H 0.07810 0.49640 0.37910
C3 C 0.2082(5) 0.0357(3) 0.39886(10)
C4 C 0.1625(4) 0.3142(3) 0.42551(10)
C5 C 0.1160(4) 0.2019(3) 0.43404(10)
C6 C 0.0702(4) 0.1663(3) 0.47163(10)
H4 H 0.04100 0.08950 0.47700
C7 C 0.0700(5) 0.2509(3) 0.50079(9)
C8 C 0.1140(4) 0.3640(3) 0.49456(10)
H5 H 0.11290 0.41830 0.51510
C9 C 0.1604(4) 0.3955(3) 0.45647(10)
H6 H 0.19090 0.47220 0.45140
C10 C 0.0862(4) 0.0101(3) 0.33210(9)
H7 H 0.03140 0.08030 0.33560
C11 C 0.1829(5) -0.0320(3) 0.36165(10)
C12 C 0.2660(5) -0.1384(3) 0.35705(10)
H8 H 0.33170 -0.16640 0.37730
C13 C 0.2499(5) -0.2006(3) 0.32269(11)
H9 H 0.30430 -0.27120 0.31990
C14 C 0.1370(5) -0.2208(3) 0.25479(11)
H10 H 0.18990 -0.29180 0.25150
C15 C 0.0472(5) -0.1770(3) 0.22505(10)
H11 H 0.03920 -0.21820 0.20140
C16 C -0.0348(5) -0.0699(3) 0.22915(10)
H12 H -0.09490 -0.04020 0.20810
C17 C -0.0262(4) -0.0096(3) 0.26413(10)
H13 H -0.08300 0.06000 0.26700
C18 C 0.0688(4) -0.0527(3) 0.29588(9)
C19 C 0.1518(4) -0.1593(3) 0.29136(10)
#END
