
#######################################################################
#
#                 Cambridge Crystallographic Data Centre
#                                CCDC
#
#######################################################################
#
# If this CIF has been generated from an entry in the Cambridge
# Structural Database, then it will include bibliographic, chemical,
# crystal, experimental, refinement or atomic coordinate data resulting
# from the CCDC's data processing and validation procedures.
#
#######################################################################

data_CSD_CIF_QABWOF
_audit_creation_date 1999-12-16
_audit_creation_method CSD-ConQuest-V1
_database_code_CSD QABWOF
_chemical_formula_sum 'C27 H32 N2 O8'
_chemical_formula_moiety
;
C27 H32 N2 O8
;
_journal_coden_Cambridge 1090
_journal_volume 10
_journal_year 1999
_journal_page_first 77
_journal_name_full 'Tetrahedron:Asymm. '
loop_
_publ_author_name
"P.Borrachero"
"F.Cabrera"
"M.J.Dianez"
"M.D.Estrada"
"M.Gomez-Guillen"
"A.Lopez-Castro"
"J.M.Moreno"
"J.L.de Paz"
"S.Perez-Garrido"
_chemical_name_systematic
;
(2S,3S,4S,5R)-2-Benzyl-3-(1,2:3,4-di-O-isoproylidene-\a-D-galacto-pentopyranos
-5-yl)-4-nitro-5-phenylisoxazolidine
;
_chemical_melting_point 416.15
_cell_volume   2628.254
_exptl_crystal_colour 'colorless'
_exptl_crystal_density_diffrn 1.3
_exptl_special_details
;
Melting point range 416.15-417.15K
Absolute configuration

;
_exptl_crystal_description 'parallelepiped'
_exptl_crystal_preparation 'ethanol'
_diffrn_ambient_temperature ?
_diffrn_special_details
;
The study was carried out at room temperature,in the range 283-303K

;
#These two values have been output from a single CSD field.
_refine_ls_R_factor_gt 0.06
_refine_ls_wR_factor_gt 0.06
_symmetry_cell_setting orthorhombic
_symmetry_space_group_name_H-M 'P 21 21 21'
_symmetry_Int_Tables_number 19
loop_
_symmetry_equiv_pos_site_id
_symmetry_equiv_pos_as_xyz
1 x,y,z
2 1/2-x,-y,1/2+z
3 1/2+x,1/2-y,-z
4 -x,1/2+y,1/2-z
_cell_length_a 11.086(10)
_cell_length_b 24.755(4)
_cell_length_c 9.577(2)
_cell_angle_alpha 90
_cell_angle_beta 90
_cell_angle_gamma 90
_cell_formula_units_Z 4
loop_
_atom_type_symbol
_atom_type_radius_bond
C 0.68
H 0.23
N 0.68
O 0.68
loop_
_atom_site_label
_atom_site_type_symbol
_atom_site_fract_x
_atom_site_fract_y
_atom_site_fract_z
O1 O 1.0917(6) 0.0357(3) 1.0375(9)
O2 O 0.9779(6) -0.0192(3) 0.9066(8)
O3 O 0.7073(6) 0.0287(3) 1.0690(8)
O4 O 0.6835(6) 0.0949(3) 0.9099(10)
O5 O 0.9774(6) 0.2306(3) 0.7383(8)
O6 O 0.9338(6) 0.0978(3) 1.0183(7)
O7 O 0.7022(11) 0.1292(5) 0.5360(13)
O8 O 0.891(1) 0.1073(4) 0.5576(10)
N1 N 1.0110(6) 0.1757(3) 0.7840(8)
N2 N 0.8033(11) 0.1324(4) 0.5905(11)
C1 C 0.9708(9) 0.0473(4) 1.0730(11)
C2 C 0.9029(9) 0.0006(4) 1.0142(11)
C3 C 0.7814(9) 0.0132(4) 0.9536(11)
C4 C 0.7819(9) 0.0628(4) 0.8596(11)
C5 C 0.8998(9) 0.0945(4) 0.8733(10)
C6 C 0.8908(8) 0.1545(4) 0.8289(10)
C7 C 0.8114(9) 0.1727(4) 0.7079(11)
C8 C 0.8755(9) 0.2225(4) 0.6491(10)
C9 C 1.0995(10) -0.0118(4) 0.9527(12)
C10 C 1.1774(10) -0.0007(5) 0.8283(14)
C11 C 1.1409(12) -0.0610(5) 1.0420(14)
C12 C 0.6222(9) 0.0668(4) 1.0181(13)
C13 C 0.5134(11) 0.0391(5) 0.9556(17)
C14 C 0.5892(14) 0.1046(5) 1.1343(16)
C15 C 1.0937(9) 0.1854(4) 0.9008(10)
C16 C 1.2172(9) 0.2047(4) 0.8516(10)
C17 C 1.244(1) 0.2592(5) 0.8476(13)
C18 C 1.3585(11) 0.2764(6) 0.8028(13)
C19 C 1.443(1) 0.2381(5) 0.7650(15)
C20 C 1.4164(10) 0.1838(5) 0.7698(17)
C21 C 1.302(1) 0.1676(4) 0.8135(14)
C22 C 0.7967(9) 0.2729(3) 0.6555(9)
C23 C 0.7269(9) 0.2837(4) 0.5385(11)
C24 C 0.6510(9) 0.3297(4) 0.5416(13)
C25 C 0.6448(10) 0.3622(4) 0.6597(13)
C26 C 0.7166(12) 0.3507(4) 0.7740(12)
C27 C 0.7927(10) 0.3058(4) 0.7726(10)
H1 H 0.95700 0.05200 1.17800
H2 H 0.88500 -0.02600 1.09100
H3 H 0.75300 -0.01900 0.89500
H4 H 0.77300 0.05200 0.75800
H5 H 0.95800 0.07400 0.81200
H6 H 0.85300 0.16900 0.91800
H7 H 0.72800 0.17900 0.74700
H8 H 0.89700 0.21700 0.54800
H9 H 1.17900 0.28700 0.87300
H10 H 1.38000 0.31700 0.80200
H11 H 1.52500 0.25000 0.73200
H12 H 1.48000 0.15600 0.74600
H13 H 1.28100 0.12700 0.81600
H14 H 0.73000 0.26000 0.45300
H15 H 0.60000 0.34000 0.45800
H16 H 0.58600 0.39400 0.66400
H17 H 0.71500 0.37500 0.85800
H18 H 0.84400 0.29700 0.85700
H19 H 1.17400 -0.03200 0.76100
H20 H 1.15000 0.03300 0.77900
H21 H 1.26400 0.00400 0.85900
H22 H 1.08700 -0.06400 1.12700
H23 H 1.13500 -0.09500 0.98800
H24 H 1.22600 -0.05600 1.07600
H25 H 0.55300 0.08500 1.21600
H26 H 0.66200 0.12500 1.17000
H27 H 0.52800 0.13200 1.10200
H28 H 0.53900 0.01600 0.87400
H29 H 0.47300 0.01500 1.02600
H30 H 0.45100 0.06600 0.92000
H31 H 1.05700 0.21100 0.97100
H32 H 1.10000 0.15200 0.96200
#END
