
#######################################################################
#
#                 Cambridge Crystallographic Data Centre
#                                CCDC
#
#######################################################################
#
# If this CIF has been generated from an entry in the Cambridge
# Structural Database, then it will include bibliographic, chemical,
# crystal, experimental, refinement or atomic coordinate data resulting
# from the CCDC's data processing and validation procedures.
#
#######################################################################

data_CSD_CIF_QACWEZ
_audit_creation_date 2016-03-14
_audit_creation_method CSD-ConQuest-V1
_database_code_CSD QACWEZ
_database_code_depnum_ccdc_archive 'CCDC 1442715'
_chemical_formula_sum 'C12 H16 N2 O5'
_chemical_formula_moiety
;
C12 H16 N2 O5
;
_journal_coden_Cambridge 1500
_journal_volume 6
_journal_year 2016
_journal_page_first 25713
_journal_name_full 'RSC Advances '
loop_
_publ_author_name
"B.A.Chalyk"
"Inna Y.Kandaurova"
"K.V.Hrebeniuk"
"O.V.Manoilenko"
"I.B.Kulik"
"R.T.Iminov"
"V.Kubyshkin"
"A.V.Tverdokhlebov"
"O.K.Ablialimov"
"P.K.Mykhailiuk"
_chemical_name_systematic
;
3-(1-(t-butoxycarbonyl)azetidin-3-yl)-1,2-oxazole-4-carboxylic acid
;
_chemical_melting_point 428
_cell_volume   2640.343
_exptl_crystal_colour 'colorless'
_diffrn_ambient_temperature 100
#These two values have been output from a single CSD field.
_refine_ls_R_factor_gt 0.058
_refine_ls_wR_factor_gt 0.058
_symmetry_cell_setting monoclinic
_symmetry_space_group_name_H-M 'C 2/c'
_symmetry_Int_Tables_number 15
loop_
_symmetry_equiv_pos_site_id
_symmetry_equiv_pos_as_xyz
1 x,y,z
2 -x,y,1/2-z
3 1/2+x,1/2+y,z
4 1/2-x,1/2+y,1/2-z
5 -x,-y,-z
6 x,-y,-1/2+z
7 -1/2-x,-1/2-y,-z
8 -1/2+x,-1/2-y,-1/2+z
_cell_length_a 16.0117(9)
_cell_length_b 9.6657(9)
_cell_length_c 17.4382(9)
_cell_angle_alpha 90
_cell_angle_beta 101.948(7)
_cell_angle_gamma 90
_cell_formula_units_Z 8
loop_
_atom_type_symbol
_atom_type_radius_bond
C 0.68
H 0.23
N 0.68
O 0.68
loop_
_atom_site_label
_atom_site_type_symbol
_atom_site_fract_x
_atom_site_fract_y
_atom_site_fract_z
O1 O -0.04261(10) 0.05070(14) 0.06157(9)
O2 O 0.15456(9) 0.55838(12) 0.30973(7)
O3 O 0.16247(8) 0.38457(11) 0.39918(6)
O4 O 0.16516(10) -0.11685(14) 0.25818(9)
O5 O 0.07395(10) -0.27584(14) 0.19739(8)
H1 H 0.1054(16) -0.328(2) 0.2366(14)
N1 N 0.01643(11) 0.15636(16) 0.09255(9)
N2 N 0.13381(11) 0.33477(15) 0.27400(8)
C1 C 0.07314(12) 0.09562(18) 0.14699(10)
C2 C 0.05515(13) -0.04738(18) 0.15356(11)
C3 C -0.01702(15) -0.0668(2) 0.09923(13)
H2 H -0.04590 -0.15290 0.08910
C4 C 0.14488(12) 0.17755(19) 0.19373(10)
H3 H 0.20140 0.14690 0.18390
C5 C 0.13567(13) 0.33700(19) 0.19013(10)
H4 H 0.18570 0.38560 0.17790
H5 H 0.08190 0.36980 0.15610
C6 C 0.14505(13) 0.18463(18) 0.28288(10)
H6 H 0.09630 0.13650 0.29800
H7 H 0.19980 0.15680 0.31700
C7 C 0.15102(11) 0.43564(17) 0.32668(10)
C8 C 0.16525(12) 0.47405(17) 0.46816(10)
C9 C 0.0888(2) 0.5688(3) 0.45445(14)
H8 H 0.03650 0.51360 0.44080
H9 H 0.09200 0.63240 0.41140
H10 H 0.08830 0.62190 0.50220
C10 C 0.24952(18) 0.5507(3) 0.48448(14)
H11 H 0.25740 0.59630 0.53570
H12 H 0.24950 0.62030 0.44360
H13 H 0.29620 0.48500 0.48470
C11 C 0.16046(14) 0.37203(19) 0.53249(10)
H14 H 0.15770 0.42220 0.58070
H15 H 0.21130 0.31290 0.54150
H16 H 0.10930 0.31470 0.51700
C12 C 0.10424(13) -0.14845(19) 0.20830(11)
#END
