
#######################################################################
#
#                 Cambridge Crystallographic Data Centre
#                                CCDC
#
#######################################################################
#
# If this CIF has been generated from an entry in the Cambridge
# Structural Database, then it will include bibliographic, chemical,
# crystal, experimental, refinement or atomic coordinate data resulting
# from the CCDC's data processing and validation procedures.
#
#######################################################################

data_CSD_CIF_QACWID
_audit_creation_date 2016-03-14
_audit_creation_method CSD-ConQuest-V1
_database_code_CSD QACWID
_database_code_depnum_ccdc_archive 'CCDC 1442716'
_chemical_formula_sum 'C14 H20 N2 O4'
_chemical_formula_moiety
;
C14 H20 N2 O4
;
_journal_coden_Cambridge 1500
_journal_volume 6
_journal_year 2016
_journal_page_first 25713
_journal_name_full 'RSC Advances '
loop_
_publ_author_name
"B.A.Chalyk"
"Inna Y.Kandaurova"
"K.V.Hrebeniuk"
"O.V.Manoilenko"
"I.B.Kulik"
"R.T.Iminov"
"V.Kubyshkin"
"A.V.Tverdokhlebov"
"O.K.Ablialimov"
"P.K.Mykhailiuk"
_chemical_name_systematic
;
t-butyl 2-(4-acetyl-1,2-oxazol-3-yl)pyrrolidine-1-carboxylate
;
_chemical_melting_point 413
_cell_volume   1528.188
_exptl_crystal_colour 'colorless'
_diffrn_ambient_temperature 293
#These two values have been output from a single CSD field.
_refine_ls_R_factor_gt 0.048
_refine_ls_wR_factor_gt 0.048
_symmetry_cell_setting orthorhombic
_symmetry_space_group_name_H-M 'P 21 21 21'
_symmetry_Int_Tables_number 19
loop_
_symmetry_equiv_pos_site_id
_symmetry_equiv_pos_as_xyz
1 x,y,z
2 1/2-x,-y,1/2+z
3 -x,1/2+y,1/2-z
4 1/2+x,1/2-y,-z
_cell_length_a 8.7120(4)
_cell_length_b 11.1379(7)
_cell_length_c 15.7491(8)
_cell_angle_alpha 90
_cell_angle_beta 90
_cell_angle_gamma 90
_cell_formula_units_Z 4
loop_
_atom_type_symbol
_atom_type_radius_bond
C 0.68
H 0.23
N 0.68
O 0.68
loop_
_atom_site_label
_atom_site_type_symbol
_atom_site_fract_x
_atom_site_fract_y
_atom_site_fract_z
O1 O 0.5811(2) 0.82169(12) 0.45969(8)
O2 O 0.33748(19) 0.46536(13) 0.46712(9)
O3 O 0.13675(13) 0.77971(13) 0.28759(7)
O4 O 0.22338(13) 0.81361(11) 0.15324(6)
N1 N 0.35953(13) 0.70121(13) 0.23982(7)
N2 N 0.5240(2) 0.79072(14) 0.37722(9)
C1 C 0.46795(18) 0.67640(18) 0.17088(10)
H1 H 0.51800 0.74940 0.15180
H2 H 0.41700 0.63870 0.12310
C2 C 0.5813(2) 0.5919(2) 0.21190(12)
H3 H 0.66540 0.63590 0.23760
H4 H 0.62250 0.53580 0.17070
C3 C 0.4876(2) 0.52721(16) 0.27870(11)
H5 H 0.55300 0.49490 0.32300
H6 H 0.42850 0.46230 0.25380
C4 C 0.38272(16) 0.62516(14) 0.31333(9)
H7 H 0.28460 0.58990 0.33070
C5 C 0.45439(17) 0.68914(13) 0.38749(9)
C6 C 0.46037(17) 0.64974(13) 0.47360(9)
C7 C 0.5403(2) 0.73691(16) 0.51361(11)
H8 H 0.56350 0.73710 0.57130
C8 C 0.39488(19) 0.54112(16) 0.51106(10)
C9 C 0.4002(3) 0.5289(2) 0.60615(12)
H9 H 0.36160 0.45140 0.62220
H10 H 0.33810 0.59030 0.63160
H11 H 0.50430 0.53710 0.62530
C10 C 0.23070(16) 0.76625(15) 0.23140(9)
C11 C 0.0871(2) 0.87724(18) 0.12179(11)
C12 C 0.1324(4) 0.9039(3) 0.03105(13)
H12 H 0.22700 0.94800 0.03050
H13 H 0.05340 0.95060 0.00440
H14 H 0.14550 0.82980 0.00070
C13 C 0.0664(3) 0.99265(19) 0.16889(14)
H15 H -0.02190 1.03410 0.14720
H16 H 0.15590 1.04190 0.16150
H17 H 0.05200 0.97610 0.22820
C14 C -0.0513(3) 0.7977(3) 0.1285(3)
H18 H -0.13320 0.83060 0.09500
H19 H -0.08300 0.79270 0.18680
H20 H -0.02620 0.71890 0.10800
#END
