
#######################################################################
#
#                 Cambridge Crystallographic Data Centre
#                                CCDC
#
#######################################################################
#
# If this CIF has been generated from an entry in the Cambridge
# Structural Database, then it will include bibliographic, chemical,
# crystal, experimental, refinement or atomic coordinate data resulting
# from the CCDC's data processing and validation procedures.
#
#######################################################################

data_CSD_CIF_QADLIQ
_audit_creation_date 1999-12-16
_audit_creation_method CSD-ConQuest-V1
_database_code_CSD QADLIQ
_database_code_depnum_ccdc_archive 'CCDC 1241294'
_chemical_formula_sum 'C11 H15 N1 O5'
_chemical_formula_moiety
;
C11 H15 N1 O5
;
_journal_coden_Cambridge 194
_journal_volume 46
_journal_year 1998
_journal_page_first 744
_journal_name_full 'Chem.Pharm.Bull. '
loop_
_publ_author_name
"T.Yakura"
"S.Yamada"
"M.Shima"
"M.Iwamoto"
"M.Ikeda"
_chemical_name_systematic
;
Methyl cis-3a-nitro-octahydro-benzo[b]furan-(E)-\D^3,\a^-acetate
;
_chemical_melting_point 387.15
_cell_volume   1157.357
_exptl_crystal_colour 'colorless'
_exptl_crystal_density_diffrn 1.384
_exptl_special_details
;
Melting point range 387.15-387.65K

;
_exptl_crystal_description 'prism'
_exptl_crystal_preparation 'hexane/ethyl acetate'
_diffrn_ambient_temperature ?
_diffrn_special_details
;
The study was carried out at room temperature,in the range 283-303K

;
#These two values have been output from a single CSD field.
_refine_ls_R_factor_gt 0.035
_refine_ls_wR_factor_gt 0.035
loop_
_citation_database_id_CSD
_citation_special_details
QADLEM "is a stereoisomer of this entry"
_symmetry_cell_setting monoclinic
_symmetry_space_group_name_H-M 'P 21/c'
_symmetry_Int_Tables_number 14
loop_
_symmetry_equiv_pos_site_id
_symmetry_equiv_pos_as_xyz
1 x,y,z
2 -x,1/2+y,1/2-z
3 -x,-y,-z
4 x,-1/2-y,-1/2+z
_cell_length_a 9.784(1)
_cell_length_b 10.271(1)
_cell_length_c 11.557(1)
_cell_angle_alpha 90
_cell_angle_beta 94.77(1)
_cell_angle_gamma 90
_cell_formula_units_Z 4
loop_
_atom_type_symbol
_atom_type_radius_bond
C 0.68
H 0.23
N 0.68
O 0.68
loop_
_atom_site_label
_atom_site_type_symbol
_atom_site_fract_x
_atom_site_fract_y
_atom_site_fract_z
O1 O -0.2873(1) -0.5201(1) -0.7316(1)
O2 O -0.0705(1) -0.1769(1) -0.9756(1)
O3 O 0.1351(1) -0.2654(2) -0.9899(1)
O4 O -0.1414(2) -0.1589(2) -0.7193(2)
O5 O -0.3031(2) -0.1004(2) -0.8474(2)
N1 N -0.2309(2) -0.1826(2) -0.7967(2)
C1 C -0.2576(2) -0.3247(2) -0.8253(2)
C2 C -0.3516(2) -0.3419(3) -0.9364(2)
C3 C -0.5030(3) -0.3196(3) -0.9236(3)
C4 C -0.5530(3) -0.3999(3) -0.8254(2)
C5 C -0.4707(2) -0.3666(3) -0.7122(2)
C6 C -0.3192(2) -0.3863(2) -0.7183(2)
C7 C -0.1473(2) -0.5225(2) -0.7577(2)
C8 C -0.1269(2) -0.4022(2) -0.8295(2)
C9 C -0.0157(2) -0.3799(2) -0.8846(2)
C10 C 0.0094(2) -0.2634(2) -0.9535(2)
C11 C 0.1738(3) -0.1532(3) -1.0554(3)
H1 H -0.319(2) -0.285(2) -0.995(2)
H2 H -0.336(2) -0.432(3) -0.961(2)
H3 H -0.518(3) -0.232(3) -0.912(2)
H4 H -0.556(3) -0.343(2) -0.998(2)
H5 H -0.647(3) -0.381(3) -0.819(3)
H6 H -0.543(3) -0.501(3) -0.843(2)
H7 H -0.485(3) -0.274(3) -0.695(2)
H8 H -0.504(3) -0.418(3) -0.652(3)
H9 H -0.264(2) -0.351(2) -0.649(2)
H10 H -0.088(3) -0.515(3) -0.683(3)
H11 H -0.132(3) -0.597(3) -0.798(3)
H12 H 0.059(2) -0.439(2) -0.879(2)
H13 H 0.111(4) -0.154(3) -1.124(3)
H14 H 0.159(4) -0.074(4) -1.011(4)
H15 H 0.248(4) -0.174(3) -1.088(3)
#END
