
#######################################################################
#
#                 Cambridge Crystallographic Data Centre
#                                CCDC
#
#######################################################################
#
# If this CIF has been generated from an entry in the Cambridge
# Structural Database, then it will include bibliographic, chemical,
# crystal, experimental, refinement or atomic coordinate data resulting
# from the CCDC's data processing and validation procedures.
#
#######################################################################

data_CSD_CIF_QADLEM
_audit_creation_date 1999-12-16
_audit_creation_method CSD-ConQuest-V1
_database_code_CSD QADLEM
_database_code_depnum_ccdc_archive 'CCDC 1241293'
_chemical_formula_sum 'C11 H15 N1 O5'
_chemical_formula_moiety
;
C11 H15 N1 O5
;
_journal_coden_Cambridge 194
_journal_volume 46
_journal_year 1998
_journal_page_first 744
_journal_name_full 'Chem.Pharm.Bull. '
loop_
_publ_author_name
"T.Yakura"
"S.Yamada"
"M.Shima"
"M.Iwamoto"
"M.Ikeda"
_chemical_name_systematic
;
Methyl cis-3a-nitro-octahydro-benzo[b]furan-(Z)-\D^3,\a^-acetate
;
_chemical_melting_point 336.15
_cell_volume   1163.861
_exptl_crystal_colour 'colorless'
_exptl_crystal_density_diffrn 1.377
_exptl_special_details
;
Melting point range 336.15-336.65K

;
_exptl_crystal_description 'needle'
_exptl_crystal_preparation 'hexane/ethyl acetate'
_diffrn_ambient_temperature ?
_diffrn_special_details
;
The study was carried out at room temperature,in the range 283-303K

;
#These two values have been output from a single CSD field.
_refine_ls_R_factor_gt 0.039
_refine_ls_wR_factor_gt 0.039
loop_
_citation_database_id_CSD
_citation_special_details
QADLIQ "is a stereoisomer of this entry"
_symmetry_cell_setting monoclinic
_symmetry_space_group_name_H-M 'P 21/c'
_symmetry_Int_Tables_number 14
loop_
_symmetry_equiv_pos_site_id
_symmetry_equiv_pos_as_xyz
1 x,y,z
2 -x,1/2+y,1/2-z
3 -x,-y,-z
4 x,-1/2-y,-1/2+z
_cell_length_a 6.4085(7)
_cell_length_b 26.654(5)
_cell_length_c 7.5127(8)
_cell_angle_alpha 90
_cell_angle_beta 114.912(9)
_cell_angle_gamma 90
_cell_formula_units_Z 4
loop_
_atom_type_symbol
_atom_type_radius_bond
C 0.68
H 0.23
N 0.68
O 0.68
loop_
_atom_site_label
_atom_site_type_symbol
_atom_site_fract_x
_atom_site_fract_y
_atom_site_fract_z
O1 O -0.2220(3) 0.87562(6) 0.0407(3)
O2 O 0.0422(3) 0.98256(6) -0.2327(2)
O3 O 0.3896(3) 0.96817(6) -0.2262(2)
O4 O -0.1990(4) 0.77621(9) -0.1373(4)
O5 O 0.0431(5) 0.79329(9) -0.2546(4)
N1 N -0.0327(4) 0.79808(8) -0.1313(3)
C1 C 0.0993(4) 0.83475(8) 0.0414(3)
C2 C 0.3377(4) 0.81164(8) 0.1526(4)
C3 C 0.4704(4) 0.83717(9) 0.3480(4)
C4 C 0.3321(5) 0.8390(1) 0.4689(4)
C5 C 0.1085(5) 0.8669(1) 0.3590(4)
C6 C -0.0373(4) 0.84311(9) 0.1614(4)
C7 C -0.1306(4) 0.90996(9) -0.0547(4)
C8 C 0.0821(3) 0.88558(8) -0.0524(3)
C9 C 0.2306(4) 0.90458(8) -0.1136(3)
C10 C 0.2054(4) 0.95513(9) -0.1963(3)
C11 C 0.3901(5) 1.0180(1) -0.2992(4)
H1 H 0.32260 0.77640 0.17530
H2 H 0.42280 0.81350 0.07250
H3 H 0.61600 0.82050 0.41930
H4 H 0.50610 0.87120 0.32430
H5 H 0.29870 0.80500 0.49450
H6 H 0.42120 0.85410 0.59530
H7 H 0.02330 0.86920 0.43850
H8 H 0.14430 0.90110 0.33710
H9 H -0.09960 0.81140 0.18300
H10 H -0.24070 0.91720 -0.18750
H11 H -0.09350 0.94210 0.01310
H12 H 0.36130 0.88420 -0.10260
H13 H 0.53840 1.02660 -0.29450
H14 H 0.27930 1.02140 -0.43370
H15 H 0.35520 1.04280 -0.22380
#END
