
#######################################################################
#
#                 Cambridge Crystallographic Data Centre
#                                CCDC
#
#######################################################################
#
# If this CIF has been generated from an entry in the Cambridge
# Structural Database, then it will include bibliographic, chemical,
# crystal, experimental, refinement or atomic coordinate data resulting
# from the CCDC's data processing and validation procedures.
#
#######################################################################

data_CSD_CIF_QADNIU
_audit_creation_date 2011-03-31
_audit_creation_method CSD-ConQuest-V1
_database_code_CSD QADNIU
_database_code_depnum_ccdc_archive 'CCDC 730151'
_chemical_formula_sum 'C21 H18 N2 O5'
_chemical_formula_moiety
;
C21 H18 N2 O5
;
_journal_coden_Cambridge 151
_journal_volume 53
_journal_year 2010
_journal_page_first 504
_journal_name_full 'J.Med.Chem. '
loop_
_publ_author_name
"E.N.da Silva Junior"
"C.F.de Deus"
"B.C.Cavalcanti"
"C.Pessoa"
"L.V.Costa-Lotufo"
"R.C.Montenegro"
"M.O.de Moraes"
"M.do C.F.R.Pinto"
"C.A.de Simone"
"V.F.Ferreira"
"M.O.F.Goulart"
"C.K.Z.Andrade"
"A.V.Pinto"
_chemical_name_systematic
;
2,2-Dimethyl-3-((2-methyl-5-nitrophenyl)amino)-2,3-dihydronaphtho[1,2-b]furan-
4,5-dione
;
_chemical_melting_point 489.15
_cell_volume   1819.647
_exptl_crystal_colour 'colorless'
_exptl_crystal_density_diffrn 1.381
_exptl_special_details
;
Melting point range 489.15-490.15K
Tested for cytotoxic activity against four cancer cell lines
;
_exptl_crystal_description 'prism'
_diffrn_ambient_temperature 295
#These two values have been output from a single CSD field.
_refine_ls_R_factor_gt 0.0667
_refine_ls_wR_factor_gt 0.0667
_symmetry_cell_setting monoclinic
_symmetry_space_group_name_H-M 'P 21/c'
_symmetry_Int_Tables_number 14
loop_
_symmetry_equiv_pos_site_id
_symmetry_equiv_pos_as_xyz
1 x,y,z
2 -x,1/2+y,1/2-z
3 -x,-y,-z
4 x,-1/2-y,-1/2+z
_cell_length_a 9.2660(3)
_cell_length_b 25.6250(8)
_cell_length_c 7.6640(2)
_cell_angle_alpha 90
_cell_angle_beta 90.609(2)
_cell_angle_gamma 90
_cell_formula_units_Z 4
loop_
_atom_type_symbol
_atom_type_radius_bond
C 0.68
H 0.23
N 0.68
O 0.68
loop_
_atom_site_label
_atom_site_type_symbol
_atom_site_fract_x
_atom_site_fract_y
_atom_site_fract_z
O1 O 0.41438(16) 0.12276(6) 0.2693(2)
O2 O 0.5212(2) 0.32564(7) 0.1618(3)
O3 O 1.2285(2) -0.00412(9) 0.1675(3)
O4 O 0.7284(2) 0.25317(8) 0.1046(3)
C1 C 0.6646(2) 0.13795(9) 0.2066(3)
H1 H 0.72450 0.13600 0.10220
C2 C 0.3254(2) 0.21100(9) 0.2957(3)
C3 C 1.1270(3) 0.04868(11) 0.4458(3)
H2 H 1.20990 0.02890 0.46410
C4 C 0.5445(2) 0.09544(9) 0.2013(3)
C5 C 0.4391(2) 0.17389(9) 0.2540(3)
O5 O 1.1134(3) 0.04542(14) -0.0102(3)
C6 C 1.0687(2) 0.05483(10) 0.2838(3)
N1 N 0.7536(2) 0.13809(9) 0.3626(3)
H3 H 0.72890 0.15860 0.44590
C7 C 0.5742(2) 0.18666(9) 0.2041(3)
C8 C 0.6134(3) 0.23892(10) 0.1655(3)
C9 C 0.8754(2) 0.10776(9) 0.3883(3)
C10 C 0.9320(3) 0.10174(10) 0.5588(3)
C11 C 0.8555(3) 0.12475(12) 0.7107(4)
H4 H 0.77160 0.14330 0.67020
H5 H 0.91890 0.14840 0.77130
H6 H 0.82670 0.09740 0.78850
N2 N 1.1405(2) 0.03023(10) 0.1368(3)
C12 C 1.0572(3) 0.07324(11) 0.5833(4)
H7 H 1.09610 0.07040 0.69520
C13 C 0.2541(3) 0.30082(11) 0.3218(4)
H8 H 0.27330 0.33620 0.30740
C14 C 0.9452(2) 0.08348(10) 0.2490(3)
H9 H 0.90930 0.08650 0.13570
C15 C 0.4962(3) 0.28074(10) 0.1994(3)
C16 C 0.5690(3) 0.04881(11) 0.3189(4)
H10 H 0.59050 0.06060 0.43530
H11 H 0.64850 0.02860 0.27630
H12 H 0.48360 0.02760 0.31990
C17 C 0.1928(3) 0.19532(11) 0.3602(3)
H13 H 0.17170 0.16000 0.37210
C18 C 0.5093(3) 0.08045(11) 0.0156(4)
H14 H 0.49460 0.11140 -0.05280
H15 H 0.42310 0.05970 0.01300
H16 H 0.58780 0.06070 -0.03160
C19 C 0.3562(2) 0.26397(9) 0.2743(3)
C20 C 0.1237(3) 0.28498(12) 0.3905(4)
H17 H 0.05710 0.30980 0.42620
C21 C 0.0920(3) 0.23272(12) 0.4066(4)
H18 H 0.00260 0.22250 0.44870
#END
