
#######################################################################
#
#                 Cambridge Crystallographic Data Centre
#                                CCDC
#
#######################################################################
#
# If this CIF has been generated from an entry in the Cambridge
# Structural Database, then it will include bibliographic, chemical,
# crystal, experimental, refinement or atomic coordinate data resulting
# from the CCDC's data processing and validation procedures.
#
#######################################################################

data_CSD_CIF_QADVEW01
_audit_creation_date 2004-07-08
_audit_creation_method CSD-ConQuest-V1
_database_code_CSD QADVEW01
_database_code_depnum_ccdc_archive 'CCDC 237362'
_chemical_formula_sum 'C19 H15 N1 O5'
_chemical_formula_moiety
;
C19 H15 N1 O5
;
_journal_coeditor_code "IUCr BK0142"
_journal_coden_Cambridge 622
_journal_volume 60
_journal_year 2004
_journal_page_first 252
_journal_name_full 'Acta Crystallogr.,Sect.B:Struct.Sci. '
loop_
_publ_author_name
"R.E.Marsh"
_chemical_name_systematic
;
3-Ethoxycarbonyl-2,3,3a,4-tetrahydro-2,4-dioxo-3a-phenylisoxazolo[2,3-a]indole
;
_cell_volume   6665.398
_diffrn_ambient_temperature ?
_diffrn_special_details
;
The study was carried out at room temperature,in the range 283-303K

;
loop_
_citation_database_id_CSD
_citation_special_details
QADVEW "is reinterpreted by this entry"
_symmetry_cell_setting orthorhombic
_symmetry_space_group_name_H-M 'F d d 2'
_symmetry_Int_Tables_number 43
loop_
_symmetry_equiv_pos_site_id
_symmetry_equiv_pos_as_xyz
1 x,y,z
2 -x,-y,z
3 1/4-x,1/4+y,1/4+z
4 3/4+x,3/4-y,1/4+z
5 x,1/2+y,1/2+z
6 -x,1/2-y,1/2+z
7 1/4-x,3/4+y,3/4+z
8 3/4+x,1/4-y,3/4+z
9 1/2+x,y,1/2+z
10 1/2-x,-y,1/2+z
11 3/4-x,1/4+y,3/4+z
12 1/4+x,3/4-y,3/4+z
13 1/2+x,1/2+y,z
14 1/2-x,1/2-y,z
15 3/4-x,3/4+y,1/4+z
16 1/4+x,1/4-y,1/4+z
_cell_length_a 13.098
_cell_length_b 52.076
_cell_length_c 9.772
_cell_angle_alpha 90
_cell_angle_beta 90
_cell_angle_gamma 90
_cell_formula_units_Z 16
loop_
_atom_type_symbol
_atom_type_radius_bond
C 0.68
H 0.23
N 0.68
O 0.68
loop_
_atom_site_label
_atom_site_type_symbol
_atom_site_fract_x
_atom_site_fract_y
_atom_site_fract_z
N1 N 0.76695 0.43235 0.04785
O1 O 0.74840 0.41138 0.14392
O2 O 0.98020 0.46622 -0.07743
O3 O 0.84180 0.38322 0.25978
O4 O 0.94225 0.43677 0.31848
O5 O 1.07700 0.43715 0.17960
C1 C 0.87385 0.42982 -0.00252
C2 C 0.90860 0.45843 -0.00982
C3 C 0.83710 0.47285 0.07480
C4 C 0.83865 0.49848 0.11733
C5 C 0.76160 0.50645 0.20445
C6 C 0.68610 0.48970 0.24625
C7 C 0.68245 0.46442 0.20433
C8 C 0.75925 0.45648 0.11592
C9 C 0.83940 0.40100 0.18415
C10 C 0.92675 0.41420 0.11135
C11 C 0.99165 0.43022 0.20888
C12 C 0.99750 0.45270 0.41725
C13 C 0.92460 0.46485 0.50485
C14 C 0.88015 0.41700 -0.14150
C15 C 0.97520 0.40915 -0.19115
C16 C 0.98355 0.39773 -0.31828
C17 C 0.89715 0.39405 -0.39715
C18 C 0.80380 0.40235 -0.35070
C19 C 0.79545 0.41377 -0.22287
H1 H 0.89650 0.50925 0.08325
H2 H 0.76300 0.52475 0.23675
H3 H 0.63850 0.49425 0.30425
H4 H 0.62550 0.45325 0.22975
H5 H 0.97350 0.40100 0.07000
H6 H 1.04650 0.44350 0.44750
H7 H 1.03500 0.46750 0.38100
H8 H 0.86850 0.47575 0.44775
H9 H 0.95950 0.47725 0.58075
H10 H 0.88750 0.44900 0.55550
H11 H 1.03800 0.41100 -0.13250
H12 H 1.05500 0.39000 -0.34850
H13 H 0.90950 0.38650 -0.48950
H14 H 0.74850 0.39925 -0.40225
H15 H 0.73050 0.41975 -0.19325
#END
