
#######################################################################
#
#                 Cambridge Crystallographic Data Centre
#                                CCDC
#
#######################################################################
#
# If this CIF has been generated from an entry in the Cambridge
# Structural Database, then it will include bibliographic, chemical,
# crystal, experimental, refinement or atomic coordinate data resulting
# from the CCDC's data processing and validation procedures.
#
#######################################################################

data_CSD_CIF_QADWOI
_audit_creation_date 2003-05-06
_audit_creation_method CSD-ConQuest-V1
_database_code_CSD QADWOI
_database_code_depnum_ccdc_archive 'CCDC 204370'
_chemical_formula_sum 'C23 H15 N1 O4'
_chemical_formula_moiety
;
C23 H15 N1 O4
;
_journal_coden_Cambridge 1277
_journal_volume 106
_journal_year 2002
_journal_page_first 4868
_journal_name_full 'J.Phys.Chem.A '
loop_
_publ_author_name
"K.Hirano"
"S.Minakata"
"M.Komatsu"
"J.Mizuguchi"
_chemical_name_systematic
;
3,4-Diphenyl-6-(4-nitrophenyl)-\a-pyrone
;
_cell_volume   1824.682
_exptl_crystal_colour 'yellow'
_exptl_crystal_density_diffrn 1.344
_exptl_special_details
;
blue luminescent

;
_exptl_crystal_description 'block'
_exptl_crystal_preparation 'hexane/ethyl acetate'
_diffrn_ambient_temperature 296.2
#These two values have been output from a single CSD field.
_refine_ls_R_factor_gt 0.0454
_refine_ls_wR_factor_gt 0.0454
_symmetry_cell_setting monoclinic
_symmetry_space_group_name_H-M 'P 21/c'
_symmetry_Int_Tables_number 14
loop_
_symmetry_equiv_pos_site_id
_symmetry_equiv_pos_as_xyz
1 x,y,z
2 x,1/2-y,1/2+z
3 -x,-y,-z
4 -x,-1/2+y,-1/2-z
_cell_length_a 16.0948(5)
_cell_length_b 7.3080(3)
_cell_length_c 16.4446(5)
_cell_angle_alpha 90
_cell_angle_beta 109.3754(7)
_cell_angle_gamma 90
_cell_formula_units_Z 4
loop_
_atom_type_symbol
_atom_type_radius_bond
C 0.68
H 0.23
N 0.68
O 0.68
loop_
_atom_site_label
_atom_site_type_symbol
_atom_site_fract_x
_atom_site_fract_y
_atom_site_fract_z
O1 O -0.2587(1) 0.0456(3) 0.8029(2)
O2 O -0.1639(2) 0.0856(4) 0.9281(2)
O3 O 0.06559(10) 0.1041(2) 0.6224(1)
O4 O 0.0874(1) 0.1474(3) 0.4987(1)
N1 N -0.1830(2) 0.0641(3) 0.8514(2)
C1 C 0.0229(1) 0.0637(3) 0.7451(2)
C2 C 0.0402(2) 0.0798(4) 0.8326(2)
C3 C -0.0265(2) 0.0798(4) 0.8682(2)
C4 C -0.0646(2) 0.0463(3) 0.6915(2)
C5 C -0.1119(2) 0.0612(3) 0.8130(2)
C6 C 0.0948(1) 0.0663(3) 0.7089(2)
C7 C 0.1215(2) 0.1121(3) 0.5742(2)
C8 C 0.2148(1) 0.0799(3) 0.6185(1)
C9 C 0.2437(1) 0.0493(3) 0.7052(1)
C10 C 0.1809(2) 0.0388(3) 0.7502(2)
C11 C -0.1318(2) 0.0448(3) 0.7255(2)
C12 C 0.3389(1) 0.0343(3) 0.7577(1)
C13 C 0.3974(2) 0.1680(4) 0.7522(2)
C14 C 0.2711(1) 0.0762(3) 0.5628(1)
C15 C 0.2784(2) 0.2266(4) 0.5138(2)
C16 C 0.3304(2) 0.2166(5) 0.4619(2)
C17 C 0.3743(2) 0.0605(5) 0.4571(2)
C18 C 0.3674(2) -0.0891(5) 0.5038(2)
C19 C 0.3163(2) -0.0816(4) 0.5574(2)
C20 C 0.3699(2) -0.1078(4) 0.8157(2)
C21 C 0.4580(2) -0.1154(4) 0.8655(2)
C22 C 0.5151(2) 0.0176(4) 0.8594(2)
C23 C 0.4850(2) 0.1592(4) 0.8033(2)
H1 H 0.330(1) -0.202(3) 0.817(2)
H2 H 0.478(1) -0.217(3) 0.904(2)
H3 H 0.576(2) 0.015(4) 0.889(2)
H4 H 0.523(2) 0.260(3) 0.803(2)
H5 H 0.399(2) -0.201(4) 0.498(2)
H6 H 0.406(2) 0.051(4) 0.423(2)
H7 H 0.337(2) 0.320(4) 0.439(2)
H8 H 0.244(2) 0.339(3) 0.514(2)
H9 H 0.310(1) -0.190(4) 0.598(2)
H10 H 0.374(2) 0.264(3) 0.709(2)
H11 H 0.201(1) 0.017(3) 0.807(2)
H12 H -0.078(2) 0.038(3) 0.626(2)
H13 H -0.192(2) 0.032(4) 0.694(2)
H14 H -0.016(2) 0.092(4) 0.926(2)
H15 H 0.099(2) 0.095(4) 0.878(2)
#END
