
#######################################################################
#
#                 Cambridge Crystallographic Data Centre
#                                CCDC
#
#######################################################################
#
# If this CIF has been generated from an entry in the Cambridge
# Structural Database, then it will include bibliographic, chemical,
# crystal, experimental, refinement or atomic coordinate data resulting
# from the CCDC's data processing and validation procedures.
#
#######################################################################

data_CSD_CIF_QAGMUJ
_audit_creation_date 2016-03-15
_audit_creation_method CSD-ConQuest-V1
_database_code_CSD QAGMUJ
_database_code_depnum_ccdc_archive 'CCDC 940709'
_chemical_formula_sum 'C17 H19 N1 O6'
_chemical_formula_moiety
;
C17 H19 N1 O6
;
_journal_coden_Cambridge 151
_journal_volume 56
_journal_year 2013
_journal_page_first 6792
_journal_name_full 'J.Med.Chem. '
loop_
_publ_author_name
"A.K.Ghosh"
"G.L.Parham"
"C.D.Martyr"
"P.R.Nyalapatla"
"H.L.Osswald"
"J.Agniswamy"
"Yuan-Fang Wang"
"M.Amano"
"I.T.Weber"
"H.Mitsuya"
_chemical_name_systematic
;
decahydrofuro[2,3-b][1]benzofuran-4-yl 4-nitrobenzoate
;
_cell_volume   1560.914
_exptl_crystal_colour 'colorless'
_exptl_crystal_density_diffrn 1.418
_exptl_crystal_description 'chunk'
_diffrn_ambient_temperature 150
#These two values have been output from a single CSD field.
_refine_ls_R_factor_gt 0.034
_refine_ls_wR_factor_gt 0.034
_symmetry_cell_setting monoclinic
_symmetry_space_group_name_H-M 'C c'
_symmetry_Int_Tables_number 9
loop_
_symmetry_equiv_pos_site_id
_symmetry_equiv_pos_as_xyz
1 x,y,z
2 x,-y,1/2+z
3 1/2+x,1/2+y,z
4 1/2+x,1/2-y,1/2+z
_cell_length_a 11.9797(5)
_cell_length_b 18.6235(15)
_cell_length_c 8.4983(5)
_cell_angle_alpha 90
_cell_angle_beta 124.587(4)
_cell_angle_gamma 90
_cell_formula_units_Z 4
loop_
_atom_type_symbol
_atom_type_radius_bond
C 0.68
H 0.23
N 0.68
O 0.68
loop_
_atom_site_label
_atom_site_type_symbol
_atom_site_fract_x
_atom_site_fract_y
_atom_site_fract_z
O1 O 1.03440(15) 0.41334(8) 1.4933(2)
O2 O 1.07043(17) 0.52684(9) 1.5328(3)
O3 O 0.46852(11) 0.58707(6) 0.67984(15)
O4 O 0.43719(12) 0.73666(6) 0.77440(16)
O5 O 0.37128(14) 0.73452(8) 0.98616(17)
O6 O 0.46009(14) 0.47294(7) 0.58682(18)
N1 N 1.00542(14) 0.47522(8) 1.4372(2)
C1 C 0.88265(16) 0.48775(9) 1.2439(2)
C2 C 0.83985(16) 0.55749(9) 1.1867(3)
C3 C 0.72009(16) 0.56858(8) 1.0088(2)
C4 C 0.64694(16) 0.51062(9) 0.8919(2)
C5 C 0.51577(16) 0.52041(8) 0.7023(2)
C6 C 0.33593(16) 0.60351(9) 0.5026(2)
C7 C 0.26600(14) 0.65874(8) 0.5518(2)
C8 C 0.32021(18) 0.73496(9) 0.5786(2)
C9 C 0.40874(16) 0.69288(8) 0.8844(2)
C10 C 0.2270(2) 0.74007(12) 0.8747(3)
C11 C 0.17469(18) 0.67047(11) 0.7653(3)
C12 C 0.28848(15) 0.64425(8) 0.7454(2)
C13 C 0.3612(2) 0.75881(12) 0.4480(3)
C14 C 0.43964(19) 0.70122(13) 0.4225(3)
C15 C 0.36082(18) 0.63104(12) 0.3574(2)
C16 C 0.69508(17) 0.44107(9) 0.9522(2)
C17 C 0.81372(17) 0.42925(9) 1.1298(3)
H1 H 0.88990 0.59600 1.26530
H2 H 0.68860 0.61510 0.96750
H3 H 0.28100 0.55970 0.45400
H4 H 0.16850 0.65860 0.45160
H5 H 0.25220 0.76850 0.56490
H6 H 0.48810 0.66350 0.97350
H7 H 0.31000 0.59360 0.78160
H8 H 0.64720 0.40240 0.87270
H9 H 0.84630 0.38290 1.17130
H10 H 0.19650 0.78050 0.78770
H11 H 0.19540 0.74640 0.95660
H12 H 0.09120 0.67830 0.64060
H13 H 0.15800 0.63570 0.83470
H14 H 0.41680 0.80160 0.50060
H15 H 0.28050 0.77110 0.32410
H16 H 0.52680 0.69370 0.54250
H17 H 0.45590 0.71700 0.32840
H18 H 0.27460 0.63840 0.23600
H19 H 0.41130 0.59540 0.33870
#END
