
#######################################################################
#
#                 Cambridge Crystallographic Data Centre
#                                CCDC
#
#######################################################################
#
# If this CIF has been generated from an entry in the Cambridge
# Structural Database, then it will include bibliographic, chemical,
# crystal, experimental, refinement or atomic coordinate data resulting
# from the CCDC's data processing and validation procedures.
#
#######################################################################

data_CSD_CIF_QAHPIZ
_audit_creation_date 2005-03-31
_audit_creation_method CSD-ConQuest-V1
_database_code_CSD QAHPIZ
_database_code_depnum_ccdc_archive 'CCDC 254763'
_chemical_formula_sum 'C16 H11 N5 O4'
_chemical_formula_moiety
;
C16 H11 N5 O4
;
_journal_coden_Cambridge 493
_journal_volume 39
_journal_year 2004
_journal_page_first 873
_journal_name_full 'Eur.J.Med.Chem. '
loop_
_publ_author_name
"B.Modzelewska-Banachiewicz"
"J.Banachiewicz"
"A.Chodkowska"
"E.Jagiello-Wojtowicz"
"L.Mazur"
_chemical_name_systematic
;
3-(3-(2-Pyridyl)-4-(4-nitrophenyl)-1,2,4-triazole-5-yl)propenoic acid
;
_chemical_melting_point 477.15
_cell_volume   1754.563
_exptl_crystal_colour 'orange'
_exptl_crystal_density_diffrn 1.277
_exptl_special_details
;
Melting point range 477.15-479.15K

;
_exptl_crystal_description 'plate'
_diffrn_ambient_temperature 293
#These two values have been output from a single CSD field.
_refine_ls_R_factor_gt 0.0324
_refine_ls_wR_factor_gt 0.0324
_symmetry_cell_setting monoclinic
_symmetry_space_group_name_H-M 'P 21/c'
_symmetry_Int_Tables_number 14
loop_
_symmetry_equiv_pos_site_id
_symmetry_equiv_pos_as_xyz
1 x,y,z
2 x,1/2-y,1/2+z
3 -x,-y,-z
4 -x,-1/2+y,-1/2-z
_cell_length_a 15.446(3)
_cell_length_b 9.027(2)
_cell_length_c 12.686(3)
_cell_angle_alpha 90
_cell_angle_beta 97.28(3)
_cell_angle_gamma 90
_cell_formula_units_Z 4
loop_
_atom_type_symbol
_atom_type_radius_bond
C 0.68
H 0.23
N 0.68
O 0.68
loop_
_atom_site_label
_atom_site_type_symbol
_atom_site_fract_x
_atom_site_fract_y
_atom_site_fract_z
N1 N 0.5246(3) 0.3289(6) 0.9378(3)
N2 N 0.5735(3) 0.4176(6) 0.8752(4)
C1 C 0.6520(4) 0.4330(7) 0.9290(5)
N3 N 0.6550(3) 0.3527(6) 1.0265(3)
C2 C 0.5728(4) 0.2932(7) 1.0274(4)
C3 C 0.5436(4) 0.1996(7) 1.1148(4)
H1 H 0.58570 0.18790 1.17340
C4 C 0.4677(4) 0.1299(8) 1.1235(5)
H2 H 0.46650 0.08340 1.18870
C5 C 0.3872(5) 0.1130(9) 1.0511(5)
O1 O 0.3776(2) 0.1885(5) 0.9562(3)
H3 H 0.42110 0.23920 0.95220
O2 O 0.3270(3) 0.0297(6) 1.0748(4)
N4 N 0.7931(4) 0.5555(7) 0.9654(4)
C6 C 0.7242(4) 0.5254(7) 0.8943(5)
C7 C 0.7177(4) 0.5811(7) 0.7900(5)
H4 H 0.66910 0.55940 0.74150
C8 C 0.7857(5) 0.6705(8) 0.7594(5)
H5 H 0.78220 0.70790 0.69070
C9 C 0.8576(4) 0.7015(9) 0.8332(7)
H6 H 0.90380 0.75830 0.81530
C10 C 0.8580(5) 0.6444(10) 0.9351(6)
H7 H 0.90490 0.66760 0.98580
C11 C 0.7294(3) 0.3251(8) 1.1065(4)
C12 C 0.7918(4) 0.2137(8) 1.0855(4)
H8 H 0.78370 0.15880 1.02300
C13 C 0.8643(4) 0.1896(9) 1.1603(5)
H9 H 0.90750 0.12180 1.14910
C14 C 0.8685(4) 0.2747(9) 1.2548(5)
N5 N 0.9467(4) 0.246(1) 1.3333(5)
O3 O 0.9500(3) 0.3400(9) 1.4121(4)
O4 O 0.9981(3) 0.1410(8) 1.3175(4)
C15 C 0.8038(4) 0.3828(8) 1.2763(4)
H10 H 0.81000 0.43520 1.33990
C16 C 0.7330(4) 0.4066(8) 1.2009(5)
H11 H 0.68950 0.47390 1.21210
#END
