
#######################################################################
#
#                 Cambridge Crystallographic Data Centre
#                                CCDC
#
#######################################################################
#
# If this CIF has been generated from an entry in the Cambridge
# Structural Database, then it will include bibliographic, chemical,
# crystal, experimental, refinement or atomic coordinate data resulting
# from the CCDC's data processing and validation procedures.
#
#######################################################################

data_CSD_CIF_QAJJUI
_audit_creation_date 2011-03-31
_audit_creation_method CSD-ConQuest-V1
_database_code_CSD QAJJUI
_database_code_depnum_ccdc_archive 'CCDC 807301'
_chemical_formula_sum 'C14 H11 N3 O4'
_chemical_formula_moiety
;
C14 H11 N3 O4
;
_journal_coeditor_code "IUCr SJ5070"
_journal_coden_Cambridge 1370
_journal_volume 67
_journal_year 2011
_journal_page_first o7
_journal_name_full 'Acta Crystallogr.,Sect.E:Struct.Rep.Online '
loop_
_publ_author_name
"Fu-Lin Mao"
"Chun-Hua Dai"
_chemical_name_systematic
;
(E)-N'-(3-Hydroxybenzylidene)-3-nitrobenzohydrazide
;
_cell_volume   2509.541
_exptl_crystal_colour 'yellow'
_exptl_crystal_density_diffrn 1.51
_exptl_crystal_description 'block'
_diffrn_ambient_temperature 298
#These two values have been output from a single CSD field.
_refine_ls_R_factor_gt 0.0542
_refine_ls_wR_factor_gt 0.0542
_symmetry_cell_setting monoclinic
_symmetry_space_group_name_H-M 'C 2/c'
_symmetry_Int_Tables_number 15
loop_
_symmetry_equiv_pos_site_id
_symmetry_equiv_pos_as_xyz
1 x,y,z
2 -x,y,1/2-z
3 1/2+x,1/2+y,z
4 1/2-x,1/2+y,1/2-z
5 -x,-y,-z
6 x,-y,-1/2+z
7 -1/2-x,-1/2-y,-z
8 -1/2+x,-1/2-y,-1/2+z
_cell_length_a 16.154(3)
_cell_length_b 13.295(3)
_cell_length_c 13.537(2)
_cell_angle_alpha 90
_cell_angle_beta 120.324(2)
_cell_angle_gamma 90
_cell_formula_units_Z 8
loop_
_atom_type_symbol
_atom_type_radius_bond
C 0.68
H 0.23
N 0.68
O 0.68
loop_
_atom_site_label
_atom_site_type_symbol
_atom_site_fract_x
_atom_site_fract_y
_atom_site_fract_z
N1 N 1.05387(12) 0.55191(13) 0.15027(16)
N2 N 0.95666(13) 0.55067(14) 0.10982(17)
N3 N 0.59440(14) 0.63671(15) -0.07753(18)
O1 O 1.36619(12) 0.85288(13) 0.36202(19)
O2 O 0.95061(11) 0.38209(12) 0.09885(16)
O3 O 0.50831(13) 0.62855(15) -0.1151(2)
O4 O 0.63203(12) 0.71586(13) -0.07821(16)
C1 C 1.19663(15) 0.65018(16) 0.22714(18)
C2 C 1.23682(17) 0.74283(17) 0.2723(2)
H1 H 1.19810 0.79400 0.27360
C3 C 1.33314(17) 0.76106(16) 0.3155(2)
C4 C 1.39012(16) 0.68658(17) 0.3115(2)
H2 H 1.45470 0.69860 0.33770
C5 C 1.35046(16) 0.59342(18) 0.2679(2)
H3 H 1.38920 0.54250 0.26620
C6 C 1.25507(16) 0.57453(18) 0.22723(19)
H4 H 1.22990 0.51100 0.19980
C7 C 1.09381(16) 0.63653(17) 0.1815(2)
H5 H 1.05670 0.69220 0.17530
C8 C 0.91039(16) 0.46268(17) 0.08701(19)
C9 C 0.80596(15) 0.46724(16) 0.04857(18)
C10 C 0.75046(15) 0.55308(16) 0.00497(18)
H6 H 0.77740 0.61300 -0.00080
C11 C 0.65446(15) 0.54756(16) -0.02961(19)
C12 C 0.61190(17) 0.46063(17) -0.0223(2)
H7 H 0.54690 0.45900 -0.04610
C13 C 0.66761(17) 0.37664(18) 0.0209(2)
H8 H 0.64030 0.31690 0.02640
C14 C 0.76350(16) 0.37974(17) 0.0561(2)
H9 H 0.80050 0.32200 0.08560
H10 H 0.9284(18) 0.6098(12) 0.104(2)
H11 H 1.4208(11) 0.863(2) 0.369(2)
#END
