
#######################################################################
#
#                 Cambridge Crystallographic Data Centre
#                                CCDC
#
#######################################################################
#
# If this CIF has been generated from an entry in the Cambridge
# Structural Database, then it will include bibliographic, chemical,
# crystal, experimental, refinement or atomic coordinate data resulting
# from the CCDC's data processing and validation procedures.
#
#######################################################################

data_CSD_CIF_QAJWUV
_audit_creation_date 2011-02-02
_audit_creation_method CSD-ConQuest-V1
_database_code_CSD QAJWUV
_database_code_depnum_ccdc_archive 'CCDC 807356'
_chemical_formula_sum 'C11 H10 N2 O5'
_chemical_formula_moiety
;
C11 H10 N2 O5
;
_journal_coeditor_code "IUCr GK2328"
_journal_coden_Cambridge 1370
_journal_volume 67
_journal_year 2011
_journal_page_first o77
_journal_name_full 'Acta Crystallogr.,Sect.E:Struct.Rep.Online '
loop_
_publ_author_name
"K.S.Munawar"
"S.Ali"
"M.N.Tahir"
_chemical_name_systematic
;
Methyl (2Z)-3-((4-nitrophenyl)carbamoyl)prop-2-enoate
;
_chemical_name_common
;
(Z)-Methyl 4-((4-nitrophenyl)amino)-4-oxobut-2-enoate
;
_cell_volume    562.393
_exptl_crystal_colour 'light green'
_exptl_crystal_density_diffrn 1.478
_exptl_crystal_description 'prism'
_diffrn_ambient_temperature 296
#These two values have been output from a single CSD field.
_refine_ls_R_factor_gt 0.0347
_refine_ls_wR_factor_gt 0.0347
_symmetry_cell_setting triclinic
_symmetry_space_group_name_H-M 'P -1'
_symmetry_Int_Tables_number 2
loop_
_symmetry_equiv_pos_site_id
_symmetry_equiv_pos_as_xyz
1 x,y,z
2 -x,-y,-z
_cell_length_a 6.8382(2)
_cell_length_b 7.7497(2)
_cell_length_c 11.8277(5)
_cell_angle_alpha 97.805(2)
_cell_angle_beta 92.119(2)
_cell_angle_gamma 114.425(1)
_cell_formula_units_Z 2
loop_
_atom_type_symbol
_atom_type_radius_bond
C 0.68
H 0.23
N 0.68
O 0.68
loop_
_atom_site_label
_atom_site_type_symbol
_atom_site_fract_x
_atom_site_fract_y
_atom_site_fract_z
O1 O 0.14198(15) 0.84577(15) 0.41306(9)
O2 O 0.10967(16) 1.06232(16) 0.31587(9)
O3 O 0.34399(14) 0.84813(15) 0.17681(8)
O4 O 0.5882(2) 0.46462(19) -0.33243(11)
O5 O 0.92706(19) 0.55754(18) -0.28426(12)
N1 N 0.70053(17) 0.91905(18) 0.16737(10)
N2 N 0.7481(2) 0.54311(18) -0.26298(12)
C1 C -0.0900(3) 0.7351(3) 0.39699(17)
C2 C 0.2191(2) 1.0025(2) 0.36544(11)
C3 C 0.4580(2) 1.1052(2) 0.39010(12)
C4 C 0.5981(2) 1.0757(2) 0.32569(12)
C5 C 0.5316(2) 0.9364(2) 0.21728(12)
C6 C 0.6983(2) 0.8127(2) 0.06154(12)
C7 C 0.5276(2) 0.7463(2) -0.02453(12)
C8 C 0.5423(2) 0.6543(2) -0.12949(12)
C9 C 0.7270(2) 0.6289(2) -0.14903(13)
C10 C 0.8956(2) 0.6898(2) -0.06399(14)
C11 C 0.8810(2) 0.7806(2) 0.04099(14)
H1 H 0.82501 0.98188 0.20614
H2 H -0.15939 0.81926 0.41485
H3 H -0.13094 0.64057 0.44679
H4 H -0.13336 0.67204 0.31868
H5 H 0.51277 1.19737 0.45606
H6 H 0.74467 1.14518 0.34934
H7 H 0.40353 0.76407 -0.01099
H8 H 0.42826 0.60944 -0.18708
H9 H 1.01806 0.66940 -0.07773
H10 H 0.99377 0.82118 0.09894
#END
