
#######################################################################
#
#                 Cambridge Crystallographic Data Centre
#                                CCDC
#
#######################################################################
#
# If this CIF has been generated from an entry in the Cambridge
# Structural Database, then it will include bibliographic, chemical,
# crystal, experimental, refinement or atomic coordinate data resulting
# from the CCDC's data processing and validation procedures.
#
#######################################################################

data_CSD_CIF_QAKGEQ
_audit_creation_date 2011-02-04
_audit_creation_method CSD-ConQuest-V1
_database_code_CSD QAKGEQ
_database_code_depnum_ccdc_archive 'CCDC 807393'
_chemical_formula_sum 'C10 H18 N4 O2'
_chemical_formula_moiety
;
C10 H18 N4 O2
;
_journal_coeditor_code "IUCr LX2184"
_journal_coden_Cambridge 1370
_journal_volume 67
_journal_year 2011
_journal_page_first o135
_journal_name_full 'Acta Crystallogr.,Sect.E:Struct.Rep.Online '
loop_
_publ_author_name
"S.Achiwawanich"
"T.Duangtongyou"
"C.Pakawatchai"
"S.Siripaisarnpipat"
_chemical_name_systematic
;
3,8-Dimethyl-4,7-diazadeca-3,7-diene-2,9-dione dioxime
;
_cell_volume    594.708
_exptl_crystal_colour 'colorless'
_exptl_crystal_density_diffrn 1.264
_exptl_crystal_description 'needle'
_diffrn_ambient_temperature 293
#These two values have been output from a single CSD field.
_refine_ls_R_factor_gt 0.0485
_refine_ls_wR_factor_gt 0.0485
_symmetry_cell_setting monoclinic
_symmetry_space_group_name_H-M 'P 21/n'
_symmetry_Int_Tables_number 14
loop_
_symmetry_equiv_pos_site_id
_symmetry_equiv_pos_as_xyz
1 x,y,z
2 1/2-x,1/2+y,1/2-z
3 -x,-y,-z
4 -1/2+x,-1/2-y,-1/2+z
_cell_length_a 4.4128(3)
_cell_length_b 12.8534(8)
_cell_length_c 10.4860(7)
_cell_angle_alpha 90
_cell_angle_beta 90.762(2)
_cell_angle_gamma 90
_cell_formula_units_Z 2
loop_
_atom_type_symbol
_atom_type_radius_bond
C 0.68
H 0.23
N 0.68
O 0.68
loop_
_atom_site_label
_atom_site_type_symbol
_atom_site_fract_x
_atom_site_fract_y
_atom_site_fract_z
O1 O 0.8167(3) 0.17534(10) 0.32669(12)
H1 H 0.87040 0.16610 0.40100
N1 N 0.6414(3) 0.26556(11) 0.31833(13)
N2 N 0.2568(3) 0.40201(11) 0.07864(13)
C1 C 0.5506(4) 0.28417(13) 0.20383(15)
C2 C 0.3631(4) 0.37999(13) 0.19019(15)
C3 C 0.0664(4) 0.49535(14) 0.06676(16)
H2 H 0.18710 0.55660 0.08610
H3 H -0.09640 0.49180 0.12790
C4 C 0.6133(5) 0.21689(16) 0.09136(17)
H4 H 0.74420 0.25320 0.03400
H5 H 0.42620 0.20030 0.04830
H6 H 0.71000 0.15390 0.11940
C5 C 0.3088(5) 0.44515(16) 0.30710(17)
H7 H 0.35190 0.51670 0.28850
H8 H 0.43870 0.42180 0.37540
H9 H 0.10100 0.43850 0.33190
O1B O -0.8167(3) 0.82466(10) -0.32669(12)
H1B H -0.87040 0.83390 -0.40100
N1B N -0.6414(3) 0.73444(11) -0.31833(13)
N2B N -0.2568(3) 0.59799(11) -0.07864(13)
C1B C -0.5506(4) 0.71583(13) -0.20383(15)
C2B C -0.3631(4) 0.62001(13) -0.19019(15)
C3B C -0.0664(4) 0.50465(14) -0.06676(16)
H2B H -0.18710 0.44340 -0.08610
H3B H 0.09640 0.50820 -0.12790
C4B C -0.6133(5) 0.78311(16) -0.09136(17)
H4B H -0.74420 0.74680 -0.03400
H5B H -0.42620 0.79970 -0.04830
H6B H -0.71000 0.84610 -0.11940
C5B C -0.3088(5) 0.55485(16) -0.30710(17)
H7B H -0.35190 0.48330 -0.28850
H8B H -0.43870 0.57820 -0.37540
H9B H -0.10100 0.56150 -0.33190
#END
