
#######################################################################
#
#                 Cambridge Crystallographic Data Centre
#                                CCDC
#
#######################################################################
#
# If this CIF has been generated from an entry in the Cambridge
# Structural Database, then it will include bibliographic, chemical,
# crystal, experimental, refinement or atomic coordinate data resulting
# from the CCDC's data processing and validation procedures.
#
#######################################################################

data_CSD_CIF_QALDAI
_audit_creation_date 2001-03-02
_audit_creation_method CSD-ConQuest-V1
_database_code_CSD QALDAI
_database_code_depnum_ccdc_archive 'CCDC 141625 (not 141624 as published)'
_chemical_formula_sum 'C14 H19 N2 O3'
_chemical_formula_moiety
;
C14 H19 N2 O3
;
_journal_coden_Cambridge 1291
_journal_year 2000
_journal_page_first 3347
_journal_name_full 'Eur.J.Org.Chem. '
loop_
_publ_author_name
"R.Endtner"
"E.Rentschler"
"D.Blaser"
"R.Boese"
"R.Sustmann"
_chemical_name_systematic
;
4,4,5,5-Tetramethyl-2-(p-(hydroxymethyl)phenyl)-3-oxylimidazoline 1-oxide
;
_chemical_melting_point 315.15
_cell_volume   1376.282
_exptl_crystal_colour 'colorless'
_exptl_crystal_density_diffrn 1.271
_exptl_crystal_description 'needles'
_exptl_crystal_preparation 'petroleum ether'
_diffrn_ambient_temperature ?
_diffrn_special_details
;
The study was carried out at room temperature,in the range 283-303K

;
_refine_special_details
;
The hydroxymethyl group is disordered over two sites with occupancies of 
0.6667:0.3333.
;
#These two values have been output from a single CSD field.
_refine_ls_R_factor_gt 0.0611
_refine_ls_wR_factor_gt 0.0611
_symmetry_cell_setting monoclinic
_symmetry_space_group_name_H-M 'P 21/c'
_symmetry_Int_Tables_number 14
loop_
_symmetry_equiv_pos_site_id
_symmetry_equiv_pos_as_xyz
1 x,y,z
2 x,1/2-y,1/2+z
3 -x,-y,-z
4 -x,-1/2+y,-1/2-z
_cell_length_a 8.1860(5)
_cell_length_b 18.9486(11)
_cell_length_c 9.3799(5)
_cell_angle_alpha 90
_cell_angle_beta 108.927(1)
_cell_angle_gamma 90
_cell_formula_units_Z 4
loop_
_atom_type_symbol
_atom_type_radius_bond
C 0.68
H 0.23
N 0.68
O 0.68
loop_
_atom_site_label
_atom_site_type_symbol
_atom_site_fract_x
_atom_site_fract_y
_atom_site_fract_z
N1 N 0.3519(3) 0.34070(13) 0.7471(3)
N2 N 0.5391(4) 0.26568(14) 0.7188(3)
O1 O 0.2104(3) 0.36642(12) 0.7564(3)
O2 O 0.6114(3) 0.20755(14) 0.7036(4)
O3 O -0.0699(9) -0.0109(3) 0.6767(6)
O4? O 0.0130(14) -0.0188(6) 0.7975(18)
H1 H -0.0992(75) -0.0514(32) 0.711(7)
C1 C 0.3820(4) 0.27210(15) 0.7330(3)
C2 C 0.6331(4) 0.3342(2) 0.7310(4)
C3 C 0.4988(4) 0.3871(2) 0.7482(4)
C4 C 0.7907(6) 0.3290(3) 0.8754(7)
H2 H 0.7523(6) 0.3252(3) 0.9615(7)
H3 H 0.8607(6) 0.3705(3) 0.8848(7)
H4 H 0.8575(6) 0.2881(3) 0.8697(7)
C5 C 0.6885(9) 0.3424(3) 0.5955(7)
H5 H 0.7604(9) 0.3032(3) 0.5894(7)
H6 H 0.7523(9) 0.3855(3) 0.6032(7)
H7 H 0.5886(9) 0.3436(3) 0.5066(7)
C6 C 0.4321(7) 0.4373(3) 0.6159(8)
H8 H 0.4299(7) 0.4137(3) 0.5248(8)
H9 H 0.5068(7) 0.4776(3) 0.6314(8)
H10 H 0.3175(7) 0.4523(3) 0.6079(8)
C7 C 0.5474(7) 0.4268(3) 0.8962(6)
H11 H 0.5888(7) 0.3941(3) 0.9782(6)
H12 H 0.4479(7) 0.4511(3) 0.9043(6)
H13 H 0.6365(7) 0.4604(3) 0.8998(6)
C8 C 0.2666(4) 0.21388(15) 0.7388(3)
C9 C 0.1616(4) 0.2198(2) 0.8290(4)
H14 H 0.1624(4) 0.2613(2) 0.8823(4)
C10 C 0.0582(4) 0.1646(2) 0.8409(4)
H15 H -0.0095(4) 0.1692(2) 0.9031(4)
C11 C 0.0526(4) 0.1027(2) 0.7625(4)
C12 C 0.1543(4) 0.0972(2) 0.6711(4)
H16 H 0.1498(4) 0.0565(2) 0.6145(4)
C13 C 0.2624(4) 0.1516(2) 0.6609(3)
H17 H 0.3336(4) 0.1463(2) 0.6018(3)
C14 C -0.0642(5) 0.0439(2) 0.7770(5)
H18 H -0.0235(5) 0.0257(2) 0.8779(5)
H19 H -0.1784(5) 0.0623(2) 0.7595(5)
H20? H -0.0999(5) 0.0526(2) 0.8633(5)
H21? H -0.1658(5) 0.0439(2) 0.6896(5)
#END
