
#######################################################################
#
#                 Cambridge Crystallographic Data Centre
#                                CCDC
#
#######################################################################
#
# If this CIF has been generated from an entry in the Cambridge
# Structural Database, then it will include bibliographic, chemical,
# crystal, experimental, refinement or atomic coordinate data resulting
# from the CCDC's data processing and validation procedures.
#
#######################################################################

data_CSD_CIF_QALRUS
_audit_creation_date 2011-03-31
_audit_creation_method CSD-ConQuest-V1
_database_code_CSD QALRUS
_database_code_depnum_ccdc_archive 'CCDC 788547'
_chemical_formula_sum 'C32 H42 N2 O6'
_chemical_formula_moiety
;
C32 H42 N2 O6
;
_journal_coden_Cambridge 1127
_journal_volume 20
_journal_year 2010
_journal_page_first 6359
_journal_name_full 'Bioorg.Med.Chem.Lett. '
loop_
_publ_author_name
"Yuxiang Dong"
"K.J.McCullough"
"S.Wittlin"
"J.Chollet"
"J.L.Vennerstrom"
_chemical_name_systematic
;
1,1'-(5,14-Dimethyl-7,8,15,16-tetraoxadispiro[5.2.5.2]hexadecane-2,11-diyl)bis
(N-(benzyloxy)ethanimine)
;
_chemical_name_common
;
4,13-bis(1-Benzyloxyiminoethyl)-1,10-dimethyl-7,8,15,16-tetraoxadispiro[5.2.5.
2]hexadecane
;
_chemical_melting_point 377.15
_cell_volume   1470.386
_exptl_crystal_colour 'colorless'
_exptl_crystal_density_diffrn 1.244
_exptl_special_details
;
Melting point range 377.15-379.15K
heat-sensitive

;
_exptl_crystal_description 'block'
_exptl_crystal_preparation 'dichloromethane/petroleum ether'
_diffrn_ambient_temperature 100
#These two values have been output from a single CSD field.
_refine_ls_R_factor_gt 0.0454
_refine_ls_wR_factor_gt 0.0454
_symmetry_cell_setting monoclinic
_symmetry_space_group_name_H-M 'P 21'
_symmetry_Int_Tables_number 4
loop_
_symmetry_equiv_pos_site_id
_symmetry_equiv_pos_as_xyz
1 x,y,z
2 -x,1/2+y,-z
_cell_length_a 10.7247(5)
_cell_length_b 11.3299(6)
_cell_length_c 12.3872(7)
_cell_angle_alpha 90
_cell_angle_beta 102.341(3)
_cell_angle_gamma 90
_cell_formula_units_Z 2
loop_
_atom_type_symbol
_atom_type_radius_bond
C 0.68
H 0.23
N 0.68
O 0.68
loop_
_atom_site_label
_atom_site_type_symbol
_atom_site_fract_x
_atom_site_fract_y
_atom_site_fract_z
O1 O 0.66752(14) 0.14623(13) 0.95309(12)
O2 O 0.72930(13) 0.21453(13) 1.05100(12)
O3 O 0.92647(13) 0.18367(14) 1.00688(12)
O4 O 0.86421(14) 0.11530(14) 0.90829(12)
O5 O 0.87329(14) -0.26809(14) 1.28107(12)
N1 N 0.84333(17) -0.18897(17) 1.19013(15)
O6 O 0.53718(15) 0.62749(14) 0.72610(14)
N2 N 0.56271(17) 0.54692(16) 0.81661(15)
C1 C 0.75567(19) 0.05776(19) 0.93557(17)
C2 C 0.83792(19) 0.27192(19) 1.02518(18)
C3 C 0.6898(2) -0.0081(2) 0.83026(18)
H1 H 0.75260 -0.06640 0.81260
C4 C 0.5767(2) -0.0786(2) 0.85506(19)
H2 H 0.51110 -0.02270 0.86920
H3 H 0.53820 -0.12600 0.78920
C5 C 0.6146(2) -0.1611(2) 0.95462(18)
H4 H 0.67220 -0.22340 0.93730
H5 H 0.53730 -0.20000 0.96940
C6 C 0.68229(19) -0.09351(18) 1.05847(18)
H6 H 0.62050 -0.03520 1.07770
C7 C 0.79598(19) -0.02499(19) 1.03333(18)
H7 H 0.83650 0.02140 1.09920
H8 H 0.86000 -0.08150 1.01720
C8 C 0.6499(2) 0.0724(2) 0.72916(18)
H9 H 0.58670 0.12970 0.74300
H10 H 0.61260 0.02460 0.66440
H11 H 0.72490 0.11440 0.71550
C9 C 0.9031(2) 0.3343(2) 1.13262(18)
H12 H 0.98630 0.36620 1.12110
C10 C 0.8226(2) 0.4398(2) 1.15484(18)
H13 H 0.74250 0.41020 1.17270
H14 H 0.87000 0.48340 1.22010
C11 C 0.7896(2) 0.5244(2) 1.05738(19)
H15 H 0.86880 0.56060 1.04350
H16 H 0.73430 0.58840 1.07490
C12 C 0.7203(2) 0.45821(19) 0.95355(18)
H17 H 0.64050 0.42370 0.96970
C13 C 0.8032(2) 0.35592(19) 0.92776(18)
H18 H 0.75620 0.31220 0.86240
H19 H 0.88220 0.38790 0.90970
C14 C 0.9330(2) 0.2519(2) 1.23224(19)
H20 H 0.98390 0.18510 1.21570
H21 H 0.85310 0.22280 1.24880
H22 H 0.98130 0.29510 1.29630
C15 C 0.72275(19) -0.17612(19) 1.15583(17)
C16 C 0.6219(2) -0.2356(2) 1.2037(2)
H23 H 0.65500 -0.25050 1.28260
H24 H 0.59830 -0.31070 1.16550
H25 H 0.54660 -0.18450 1.19430
C17 C 1.0099(2) -0.2746(2) 1.31439(19)
H26 H 1.04660 -0.27310 1.24750
H27 H 1.03340 -0.35090 1.35220
C18 C 1.0687(2) -0.1757(2) 1.39050(18)
C19 C 1.0342(3) -0.0584(2) 1.3703(2)
H28 H 0.97200 -0.03830 1.30610
C20 C 1.0892(3) 0.0299(2) 1.4424(2)
H29 H 1.06270 0.10940 1.42770
C21 C 1.1814(2) 0.0044(2) 1.5347(2)
H30 H 1.21930 0.06530 1.58360
C22 C 1.2179(3) -0.1119(3) 1.5548(2)
H31 H 1.28220 -0.13120 1.61780
C23 C 1.1614(3) -0.2007(3) 1.4837(2)
H32 H 1.18700 -0.28030 1.49940
C24 C 0.6826(2) 0.53922(19) 0.85634(18)
C25 C 0.7833(2) 0.6020(2) 0.8107(2)
H33 H 0.75830 0.68450 0.79570
H34 H 0.79280 0.56360 0.74200
H35 H 0.86470 0.59870 0.86460
C26 C 0.4077(2) 0.6105(2) 0.6716(2)
H36 H 0.37860 0.68000 0.62450
H37 H 0.35460 0.60520 0.72770
C27 C 0.3879(2) 0.5004(3) 0.6007(2)
C28 C 0.4890(3) 0.4362(3) 0.5775(2)
H38 H 0.57410 0.46210 0.60520
C29 C 0.4667(4) 0.3345(4) 0.5140(3)
H39 H 0.53680 0.29030 0.50010
C30 C 0.3442(5) 0.2966(4) 0.4711(3)
H40 H 0.32960 0.22700 0.42740
C31 C 0.2431(4) 0.3608(4) 0.4923(3)
H41 H 0.15820 0.33580 0.46240
C32 C 0.2644(3) 0.4616(3) 0.5568(3)
H42 H 0.19390 0.50490 0.57120
#END
