
#######################################################################
#
#                 Cambridge Crystallographic Data Centre
#                                CCDC
#
#######################################################################
#
# If this CIF has been generated from an entry in the Cambridge
# Structural Database, then it will include bibliographic, chemical,
# crystal, experimental, refinement or atomic coordinate data resulting
# from the CCDC's data processing and validation procedures.
#
#######################################################################

data_CSD_CIF_QAMWAC
_audit_creation_date 2001-03-02
_audit_creation_method CSD-ConQuest-V1
_database_code_CSD QAMWAC
_database_code_depnum_ccdc_archive 'CCDC 155901'
_chemical_formula_sum 'C11 H18 N1 O3'
_chemical_formula_moiety
;
C11 H18 N1 O3
;
_journal_coeditor_code "IUCr NA6018"
_journal_coden_Cambridge 1370
_journal_volume 57
_journal_year 2001
_journal_page_first o85
_journal_name_full 'Acta Crystallogr.,Sect.E:Struct.Rep.Online '
loop_
_publ_author_name
"J.Duskova"
"J.Labsky"
"J.Hasek"
"I.Cisarova"
_chemical_name_systematic
;
3-Ethoxycarbonyl-2,2,5,5-tetramethyl-1H-2,5-dihydropyrrol-1-yloxyl
;
_chemical_melting_point 378
_cell_volume   1211.699
_exptl_crystal_colour 'yellow'
_exptl_crystal_density_diffrn 1.164
_exptl_special_details
;
Melting point range 378-380K

;
_exptl_crystal_description 'prism'
_exptl_crystal_preparation 'hexane'
_diffrn_ambient_temperature 150
#These two values have been output from a single CSD field.
_refine_ls_R_factor_gt 0.044
_refine_ls_wR_factor_gt 0.044
_symmetry_cell_setting orthorhombic
_symmetry_space_group_name_H-M 'P n m a'
_symmetry_Int_Tables_number 62
loop_
_symmetry_equiv_pos_site_id
_symmetry_equiv_pos_as_xyz
1 x,y,z
2 1/2+x,y,1/2-z
3 1/2-x,1/2+y,1/2+z
4 x,1/2-y,z
5 -x,-y,-z
6 -1/2-x,-y,-1/2+z
7 -1/2+x,-1/2-y,-1/2-z
8 -x,-1/2+y,-z
_cell_length_a 10.4710(4)
_cell_length_b 9.3700(3)
_cell_length_c 12.3500(4)
_cell_angle_alpha 90
_cell_angle_beta 90
_cell_angle_gamma 90
_cell_formula_units_Z 4
loop_
_atom_type_symbol
_atom_type_radius_bond
C 0.68
H 0.23
N 0.68
O 0.68
loop_
_atom_site_label
_atom_site_type_symbol
_atom_site_fract_x
_atom_site_fract_y
_atom_site_fract_z
N1 N -0.18529(12) 0.25000 0.62264(11)
C1 C -0.14572(14) 0.25000 0.50795(12)
C2 C -0.00289(14) 0.25000 0.52252(11)
C3 C 0.03176(14) 0.25000 0.62623(11)
C4 C -0.07972(13) 0.25000 0.70199(13)
O1 O -0.30192(11) 0.25000 0.65080(11)
C5 C -0.19680(13) 0.11609(12) 0.45207(11)
C6 C 0.08547(15) 0.25000 0.42918(12)
O2 O 0.05073(12) 0.25000 0.33631(10)
O3 O 0.20763(11) 0.25000 0.45910(8)
C7 C 0.30171(17) 0.25000 0.37204(15)
C8 C 0.4288(2) 0.25000 0.4199(2)
C9 C -0.08471(13) 0.3840(1) 0.77207(10)
H1 H 0.1239(17) 0.25000 0.6551(15)
H2 H -0.0108(13) 0.3868(13) 0.8198(12)
H3 H -0.0784(12) 0.4699(17) 0.7274(11)
H4 H -0.2888(15) 0.1179(15) 0.4577(10)
H5 H -0.1663(14) 0.3828(15) 0.8143(14)
H6 H -0.1693(13) 0.1170(16) 0.3737(13)
H7 H -0.1639(12) 0.0314(17) 0.4861(12)
H8 H 0.492(2) 0.25000 0.358(2)
H9 H 0.2852(16) 0.162(2) 0.3302(15)
H10 H 0.446(2) 0.179(3) 0.475(2)
C9C C -0.08471(13) 0.1160(1) 0.77207(10)
H2C H -0.0108(13) 0.1132(13) 0.8198(12)
H3C H -0.0784(12) 0.0301(17) 0.7274(11)
H5C H -0.1663(14) 0.1172(15) 0.8143(14)
H10C H 0.446(2) 0.321(3) 0.475(2)
H9C H 0.2852(16) 0.338(2) 0.3302(15)
C5C C -0.19680(13) 0.38391(12) 0.45207(11)
H4C H -0.2888(15) 0.3821(15) 0.4577(10)
H6C H -0.1693(13) 0.3830(16) 0.3737(13)
H7C H -0.1639(12) 0.4686(17) 0.4861(12)
#END
