
#######################################################################
#
#                 Cambridge Crystallographic Data Centre
#                                CCDC
#
#######################################################################
#
# If this CIF has been generated from an entry in the Cambridge
# Structural Database, then it will include bibliographic, chemical,
# crystal, experimental, refinement or atomic coordinate data resulting
# from the CCDC's data processing and validation procedures.
#
#######################################################################

data_CSD_CIF_QAMZOV
_audit_creation_date 2012-06-01
_audit_creation_method CSD-ConQuest-V1
_database_code_CSD QAMZOV
_database_code_depnum_ccdc_archive 'CCDC 840318'
_chemical_formula_sum 'C16 H21 N1 O2'
_chemical_formula_moiety
;
C16 H21 N1 O2
;
_journal_coden_Cambridge 1291
_journal_year 2012
_journal_page_first 1328
_journal_name_full 'Eur.J.Org.Chem. '
loop_
_publ_author_name
"S.Pichette"
"S.Aubert-Nicol"
"J.Lessard"
"C.Spino"
_chemical_name_systematic
;
1-(Benzyloxy)-4a-methyloctahydro-2H-cyclopenta[b]pyridin-2-one
;
_cell_volume    709.546
_exptl_crystal_colour 'yellow'
_exptl_crystal_density_diffrn 1.214
_exptl_crystal_description 'prism'
_diffrn_ambient_temperature 293
#These two values have been output from a single CSD field.
_refine_ls_R_factor_gt 0.061
_refine_ls_wR_factor_gt 0.061
_symmetry_cell_setting triclinic
_symmetry_space_group_name_H-M 'P -1'
_symmetry_Int_Tables_number 2
loop_
_symmetry_equiv_pos_site_id
_symmetry_equiv_pos_as_xyz
1 x,y,z
2 -x,-y,-z
_cell_length_a 7.655(4)
_cell_length_b 8.239(3)
_cell_length_c 11.870(2)
_cell_angle_alpha 97.36(2)
_cell_angle_beta 94.28(3)
_cell_angle_gamma 105.84(4)
_cell_formula_units_Z 2
loop_
_atom_type_symbol
_atom_type_radius_bond
C 0.68
H 0.23
N 0.68
O 0.68
loop_
_atom_site_label
_atom_site_type_symbol
_atom_site_fract_x
_atom_site_fract_y
_atom_site_fract_z
C1 C 0.6710(4) 0.2347(3) 0.3886(2)
C2 C 0.7910(4) 0.1324(4) 0.4310(2)
H1 H 0.71290 0.03080 0.45390
H2 H 0.86790 0.19950 0.49900
C3 C 0.9146(4) 0.0765(4) 0.3477(3)
H3 H 1.00870 0.04180 0.38930
H4 H 0.84300 -0.02040 0.29250
C4 C 1.0032(3) 0.2240(3) 0.2854(2)
C5 C 1.1041(5) 0.1839(4) 0.1830(3)
H5 H 1.04540 0.06970 0.14240
H6 H 1.23040 0.19300 0.20800
C6 C 1.0921(4) 0.3201(4) 0.1062(3)
H7 H 1.20870 0.40700 0.11310
H8 H 1.05960 0.26750 0.02670
C7 C 0.9431(4) 0.3995(4) 0.1481(2)
H9 H 0.99640 0.51300 0.19130
H10 H 0.85860 0.40550 0.08470
C8 C 0.8492(3) 0.2738(3) 0.2240(2)
H11 H 0.77140 0.17180 0.17400
C9 C 1.1323(4) 0.3727(4) 0.3694(3)
H12 H 1.18590 0.46400 0.32870
H13 H 1.22700 0.33470 0.40570
H14 H 1.06460 0.41260 0.42640
C10 C 0.6441(4) 0.5767(4) 0.3131(2)
H15 H 0.77410 0.63400 0.32780
H16 H 0.59410 0.57370 0.38580
C11 C 0.5523(3) 0.6707(3) 0.2395(2)
C12 C 0.5799(4) 0.6708(4) 0.1246(2)
H17 H 0.65370 0.60890 0.09240
C13 C 0.4999(4) 0.7608(4) 0.0592(2)
H18 H 0.51750 0.75870 -0.01760
C14 C 0.3932(5) 0.8546(4) 0.1066(3)
H19 H 0.33990 0.91720 0.06200
C15 C 0.3650(4) 0.8564(4) 0.2194(3)
H20 H 0.29220 0.91980 0.25110
C16 C 0.4442(4) 0.7644(3) 0.2858(2)
H21 H 0.42460 0.76570 0.36220
N1 N 0.7374(3) 0.3313(3) 0.30545(17)
O1 O 0.5327(3) 0.2422(3) 0.43091(17)
O2 O 0.6136(2) 0.4054(2) 0.25424(14)
#END
