
#######################################################################
#
#                 Cambridge Crystallographic Data Centre
#                                CCDC
#
#######################################################################
#
# If this CIF has been generated from an entry in the Cambridge
# Structural Database, then it will include bibliographic, chemical,
# crystal, experimental, refinement or atomic coordinate data resulting
# from the CCDC's data processing and validation procedures.
#
#######################################################################

data_CSD_CIF_QANHET
_audit_creation_date 2005-03-31
_audit_creation_method CSD-ConQuest-V1
_database_code_CSD QANHET
_database_code_depnum_ccdc_archive 'CCDC 264799'
_chemical_formula_sum 'C27 H27 N7 O6'
_chemical_formula_moiety
;
C27 H27 N7 O6
;
_journal_coeditor_code "IUCr SK1801"
_journal_coden_Cambridge 591
_journal_volume 61
_journal_year 2005
_journal_page_first o75
_journal_name_full 'Acta Crystallogr.,Sect.C:Cryst.Struct.Commun. '
loop_
_publ_author_name
"C.Glidewell"
"J.N.Low"
"J.M.S.Skakle"
"J.L.Wardell"
_chemical_name_systematic
;
tris(4-(4-Nitrophenyl)-3-aza-3-butenyl)amine
;
_cell_volume   1287.014
_exptl_crystal_colour 'orange'
_exptl_crystal_density_diffrn 1.408
_exptl_crystal_description 'plate'
_exptl_crystal_preparation '1,2-dichloroethane'
_diffrn_ambient_temperature 120
#These two values have been output from a single CSD field.
_refine_ls_R_factor_gt 0.0514
_refine_ls_wR_factor_gt 0.0514
_symmetry_cell_setting triclinic
_symmetry_space_group_name_H-M 'P -1'
_symmetry_Int_Tables_number 2
loop_
_symmetry_equiv_pos_site_id
_symmetry_equiv_pos_as_xyz
1 x,y,z
2 -x,-y,-z
_cell_length_a 7.8020(2)
_cell_length_b 12.5233(5)
_cell_length_c 13.8920(6)
_cell_angle_alpha 83.5872(18)
_cell_angle_beta 89.022(2)
_cell_angle_gamma 72.611(2)
_cell_formula_units_Z 2
loop_
_atom_type_symbol
_atom_type_radius_bond
C 0.68
H 0.23
N 0.68
O 0.68
loop_
_atom_site_label
_atom_site_type_symbol
_atom_site_fract_x
_atom_site_fract_y
_atom_site_fract_z
O1 O 0.14641(17) -0.28778(11) -0.07882(10)
O2 O 0.0595(2) -0.16591(12) -0.20336(10)
O3 O 0.4627(2) 0.01656(13) 0.66805(11)
O4 O 0.4846(2) 0.16844(13) 0.71936(11)
O5 O 0.9532(3) 0.04366(12) 0.64009(12)
O6 O 0.94378(19) 0.19154(12) 0.70732(10)
N1 N 0.24909(16) 0.49233(11) 0.14451(9)
N2 N 0.12691(18) -0.19402(13) -0.12215(11)
N3 N 0.32739(17) 0.22701(12) 0.02761(11)
N4 N 0.4352(2) 0.11912(15) 0.65962(12)
N5 N 0.02316(17) 0.48288(12) 0.30892(10)
N6 N 0.9099(2) 0.14538(13) 0.64024(12)
N7 N 0.53931(17) 0.52233(12) 0.29041(10)
C1 C 0.27778(19) 0.04781(14) 0.01678(12)
C2 C 0.2630(2) -0.05033(14) 0.06968(13)
C3 C 0.2153(2) -0.13072(14) 0.02430(13)
C4 C 0.18322(19) -0.11124(13) -0.07416(12)
C5 C 0.1988(2) -0.01525(14) -0.12921(13)
C6 C 0.2472(2) 0.06392(14) -0.08307(12)
C7 C 0.32195(19) 0.13281(14) 0.06855(13)
C8 C 0.3686(2) 0.30337(14) 0.08880(13)
C9 C 0.2282(2) 0.41863(14) 0.07335(12)
C10 C 0.1542(2) 0.30965(15) 0.40992(12)
C11 C 0.2066(2) 0.19299(15) 0.41728(14)
C12 C 0.2970(2) 0.12981(16) 0.49947(14)
C13 C 0.3352(2) 0.18580(15) 0.57335(13)
C14 C 0.2852(2) 0.30187(15) 0.56829(13)
C15 C 0.1927(2) 0.36310(15) 0.48608(13)
C16 C 0.0610(2) 0.37721(16) 0.32134(13)
C17 C -0.0562(2) 0.53831(15) 0.21550(12)
C18 C 0.0810(2) 0.58175(14) 0.15663(12)
C19 C 0.6448(2) 0.34655(14) 0.39083(12)
C20 C 0.6897(2) 0.23063(15) 0.39648(13)
C21 C 0.7773(2) 0.16399(15) 0.47776(14)
C22 C 0.8142(2) 0.21619(14) 0.55403(12)
C23 C 0.7699(2) 0.33155(14) 0.55189(12)
C24 C 0.6846(2) 0.39620(14) 0.46897(12)
C25 C 0.5584(2) 0.41843(15) 0.30179(13)
C26 C 0.4579(2) 0.59222(14) 0.20125(12)
C27 C 0.3992(2) 0.53747(14) 0.12041(12)
H1 H 0.28580 -0.06230 0.13760
H2 H 0.20510 -0.19760 0.06030
H3 H 0.17670 -0.00420 -0.19720
H4 H 0.25970 0.12980 -0.11970
H5 H 0.34760 0.11600 0.13610
H6 H 0.48890 0.31100 0.07310
H7 H 0.37070 0.27220 0.15760
H8 H 0.23940 0.45440 0.00730
H9 H 0.10680 0.40920 0.07860
H10 H 0.18030 0.15620 0.36570
H11 H 0.33210 0.04990 0.50520
H12 H 0.31330 0.33840 0.61950
H13 H 0.15470 0.44300 0.48140
H14 H 0.02850 0.33960 0.27210
H15 H -0.16410 0.60190 0.22530
H16 H -0.09350 0.48440 0.18000
H17 H 0.02840 0.61600 0.09200
H18 H 0.10790 0.64130 0.18950
H19 H 0.66010 0.19630 0.34410
H20 H 0.81120 0.08420 0.48110
H21 H 0.79680 0.36550 0.60520
H22 H 0.65260 0.47600 0.46540
H23 H 0.51680 0.38510 0.25240
H24 H 0.54480 0.63040 0.17360
H25 H 0.35120 0.65160 0.22000
H26 H 0.36470 0.59390 0.06280
H27 H 0.50310 0.47550 0.10270
#END
