
#######################################################################
#
#                 Cambridge Crystallographic Data Centre
#                                CCDC
#
#######################################################################
#
# If this CIF has been generated from an entry in the Cambridge
# Structural Database, then it will include bibliographic, chemical,
# crystal, experimental, refinement or atomic coordinate data resulting
# from the CCDC's data processing and validation procedures.
#
#######################################################################

data_CSD_CIF_QANSEG
_audit_creation_date 2017-05-05
_audit_creation_method CSD-ConQuest-V1
_database_code_CSD QANSEG
_database_code_depnum_ccdc_archive 'CCDC 1514223'
_chemical_formula_sum 'C25 H25 N3 O4'
_chemical_formula_moiety
;
C25 H25 N3 O4
;
_journal_coden_Cambridge 179
_journal_volume 56
_journal_year 2017
_journal_page_first 2035
_journal_name_full 'Angew.Chem.,Int.Ed. '
loop_
_publ_author_name
"R.K.Kawade"
"Rai-Shung Liu"
_chemical_name_systematic
;
4,4-dimethyl-7-(4-nitrophenyl)-1,5-diphenylhexahydro-1H-[1,2]oxazolo[4,3-d][1,
2]oxazine
;
_cell_volume   2273.378
_exptl_crystal_colour 'colorless'
_exptl_crystal_density_diffrn 1.261
_diffrn_ambient_temperature 296
#These two values have been output from a single CSD field.
_refine_ls_R_factor_gt 0.0465
_refine_ls_wR_factor_gt 0.0465
_symmetry_cell_setting monoclinic
_symmetry_space_group_name_H-M 'P 21/c'
_symmetry_Int_Tables_number 14
loop_
_symmetry_equiv_pos_site_id
_symmetry_equiv_pos_as_xyz
1 x,y,z
2 -x,1/2+y,1/2-z
3 -x,-y,-z
4 x,-1/2-y,-1/2+z
_cell_length_a 6.2364(2)
_cell_length_b 17.6382(5)
_cell_length_c 20.6899(5)
_cell_angle_alpha 90
_cell_angle_beta 92.679(2)
_cell_angle_gamma 90
_cell_formula_units_Z 4
loop_
_atom_type_symbol
_atom_type_radius_bond
C 0.68
H 0.23
N 0.68
O 0.68
loop_
_atom_site_label
_atom_site_type_symbol
_atom_site_fract_x
_atom_site_fract_y
_atom_site_fract_z
O1 O 0.59136(18) 0.75775(6) 0.63769(5)
O2 O 0.2912(2) 0.89823(8) 0.75509(7)
O3 O 0.9982(3) 0.56884(10) 0.92379(8)
O4 O 1.2666(3) 0.58360(9) 0.86338(9)
N1 N 0.4283(2) 0.79777(7) 0.59775(6)
N2 N 0.5120(2) 0.88446(8) 0.77441(7)
C1 C 0.5057(3) 0.87807(9) 0.59285(8)
C2 C 0.3233(4) 0.67151(13) 0.42647(11)
H1 H 0.29710 0.64360 0.38880
C3 C 0.5209(4) 0.66878(13) 0.45822(11)
H2 H 0.62830 0.63850 0.44210
C4 C 0.5623(3) 0.71074(11) 0.5142(1)
H3 H 0.69720 0.70890 0.53530
C5 C 0.4027(3) 0.75510(9) 0.53846(8)
C6 C 0.5542(3) 0.77617(9) 0.70311(8)
H4 H 0.40260 0.76730 0.71120
C7 C 0.6068(3) 0.86009(9) 0.71458(8)
H5 H 0.76250 0.86800 0.71710
C8 C 0.6078(3) 0.94878(10) 0.80665(8)
C9 C 0.4939(4) 1.01389(12) 0.81947(10)
H6 H 0.35390 1.01970 0.80270
C10 C 0.5890(5) 1.07026(13) 0.85730(13)
H7 H 0.51160 1.11390 0.86580
C11 C 0.7939(5) 1.06313(14) 0.88243(12)
H8 H 0.85510 1.10120 0.90830
C12 C 0.1647(4) 0.71553(13) 0.4504(1)
H9 H 0.03090 0.71800 0.42870
C13 C 0.2030(3) 0.75637(11) 0.50677(9)
H10 H 0.09320 0.78500 0.52350
C14 C 0.2788(3) 0.92168(12) 0.68829(9)
H11 H 0.23680 0.97450 0.68500
H12 H 0.17320 0.89150 0.66390
C15 C 0.5001(3) 0.91047(9) 0.66171(8)
H13 H 0.57380 0.95960 0.66250
C16 C 0.3518(3) 0.92249(10) 0.54749(9)
H14 H 0.36500 0.90500 0.50390
H15 H 0.38650 0.97550 0.55000
H16 H 0.20710 0.91490 0.56010
C17 C 0.7317(3) 0.88353(11) 0.56804(9)
H17 H 0.82960 0.85590 0.59640
H18 H 0.77470 0.93580 0.56680
H19 H 0.73310 0.86240 0.52530
C18 C 0.8170(3) 0.94172(12) 0.83123(10)
H20 H 0.89560 0.89850 0.82230
C19 C 0.9099(4) 0.99861(15) 0.86897(11)
H21 H 1.05060 0.99350 0.88530
C20 C 0.6915(3) 0.72565(9) 0.74671(8)
C21 C 0.8891(3) 0.69855(11) 0.72807(10)
H22 H 0.93590 0.70980 0.68710
C22 C 1.0156(3) 0.65505(11) 0.77011(10)
H23 H 1.14780 0.63690 0.75790
C23 C 0.9432(3) 0.63911(9) 0.83004(9)
N3 N 1.0784(3) 0.59379(9) 0.87558(9)
C24 C 0.7487(3) 0.66383(11) 0.84952(9)
H24 H 0.70200 0.65170 0.89030
C25 C 0.6233(3) 0.70742(11) 0.80691(9)
H25 H 0.49040 0.72470 0.81930
#END
