
#######################################################################
#
#                 Cambridge Crystallographic Data Centre
#                                CCDC
#
#######################################################################
#
# If this CIF has been generated from an entry in the Cambridge
# Structural Database, then it will include bibliographic, chemical,
# crystal, experimental, refinement or atomic coordinate data resulting
# from the CCDC's data processing and validation procedures.
#
#######################################################################

data_CSD_CIF_QANTAD
_audit_creation_date 2017-05-05
_audit_creation_method CSD-ConQuest-V1
_database_code_CSD QANTAD
_database_code_depnum_ccdc_archive 'CCDC 1514227'
_chemical_formula_sum 'C32 H30 N4 O7'
_chemical_formula_moiety
;
C32 H30 N4 O7
;
_journal_coden_Cambridge 179
_journal_volume 56
_journal_year 2017
_journal_page_first 2035
_journal_name_full 'Angew.Chem.,Int.Ed. '
loop_
_publ_author_name
"R.K.Kawade"
"Rai-Shung Liu"
_chemical_name_systematic
;
(5-anilino-3,3-dimethyl-2,6-diphenyl-1,2-oxazinan-4-yl)methyl 
3,5-dinitrobenzoate
;
_cell_volume   2942.471
_exptl_crystal_colour 'yellow'
_exptl_crystal_density_diffrn 1.315
_exptl_crystal_description 'prism'
_diffrn_ambient_temperature 200
#These two values have been output from a single CSD field.
_refine_ls_R_factor_gt 0.0467
_refine_ls_wR_factor_gt 0.0467
_symmetry_cell_setting monoclinic
_symmetry_space_group_name_H-M 'P 21/n'
_symmetry_Int_Tables_number 14
loop_
_symmetry_equiv_pos_site_id
_symmetry_equiv_pos_as_xyz
1 x,y,z
2 1/2-x,1/2+y,1/2-z
3 -x,-y,-z
4 -1/2+x,-1/2-y,-1/2+z
_cell_length_a 7.5463(19)
_cell_length_b 20.602(6)
_cell_length_c 19.281(5)
_cell_angle_alpha 90
_cell_angle_beta 101.005(13)
_cell_angle_gamma 90
_cell_formula_units_Z 4
loop_
_atom_type_symbol
_atom_type_radius_bond
C 0.68
H 0.23
N 0.68
O 0.68
loop_
_atom_site_label
_atom_site_type_symbol
_atom_site_fract_x
_atom_site_fract_y
_atom_site_fract_z
C1 C 0.1199(3) 0.59710(11) 0.18995(12)
C2 C -0.0370(3) 0.62094(11) 0.20699(12)
H1 H -0.12500 0.64290 0.17330
C3 C -0.0597(3) 0.61122(11) 0.27585(12)
C4 C 0.0642(3) 0.57872(10) 0.32579(11)
H2 H 0.04290 0.57240 0.37230
C5 C 0.2207(3) 0.55546(10) 0.30653(11)
C6 C 0.2492(3) 0.56515(10) 0.23829(12)
H3 H 0.35670 0.54990 0.22500
C7 C 0.3511(3) 0.51954(10) 0.36107(12)
C8 C 0.6517(3) 0.47891(10) 0.39044(12)
H4 H 0.63240 0.48730 0.43900
H5 H 0.76890 0.49830 0.38570
C9 C 0.6561(3) 0.40587(10) 0.37770(11)
H6 H 0.53430 0.38890 0.38170
C10 C 0.7955(3) 0.37077(10) 0.43623(10)
C11 C 0.6992(3) 0.34661(11) 0.49447(11)
H7 H 0.63360 0.38270 0.51110
H8 H 0.78850 0.32950 0.53390
H9 H 0.61390 0.31220 0.47560
C12 C 0.9537(3) 0.41445(11) 0.46849(12)
H10 H 0.90860 0.45170 0.49160
H11 H 1.01500 0.42990 0.43110
H12 H 1.03900 0.38980 0.50340
C13 C 0.9724(3) 0.26764(10) 0.44377(11)
C14 C 1.1550(3) 0.27938(12) 0.46708(12)
H13 H 1.20950 0.31690 0.45150
C15 C 1.2578(4) 0.23617(15) 0.51318(14)
H14 H 1.38200 0.24500 0.53030
C16 C 1.1824(4) 0.18075(15) 0.53442(14)
H15 H 1.25390 0.15170 0.56630
C17 C 1.0026(4) 0.16743(12) 0.50934(13)
H16 H 0.95120 0.12840 0.52280
C18 C 0.8961(3) 0.21095(11) 0.46441(11)
H17 H 0.77170 0.20200 0.44780
C19 C 0.6663(3) 0.31479(11) 0.29161(10)
H18 H 0.75160 0.30060 0.26070
C20 C 0.4785(3) 0.29266(10) 0.25925(11)
C21 C 0.3530(3) 0.27436(11) 0.29990(12)
H19 H 0.38500 0.27560 0.35000
C22 C 0.1817(3) 0.25436(12) 0.26786(13)
H20 H 0.09740 0.24150 0.29600
C23 C 0.1331(3) 0.25312(12) 0.19494(13)
H21 H 0.01560 0.23940 0.17300
C24 C 0.2559(3) 0.27187(13) 0.15425(13)
H22 H 0.22220 0.27150 0.10420
C25 C 0.4275(3) 0.29112(12) 0.18583(11)
H23 H 0.51160 0.30340 0.15730
C26 C 0.6821(3) 0.38988(10) 0.30256(11)
H24 H 0.58000 0.41030 0.26900
C27 C 0.8537(3) 0.43730(11) 0.21717(11)
C28 C 1.0037(4) 0.42388(12) 0.18717(14)
H25 H 1.10190 0.39990 0.21310
C29 C 1.0102(5) 0.44560(15) 0.11906(15)
H26 H 1.11270 0.43600 0.09900
C30 C 0.8694(5) 0.48075(16) 0.08065(16)
H27 H 0.87420 0.49520 0.03430
C31 C 0.7231(5) 0.49445(14) 0.11005(14)
H28 H 0.62560 0.51860 0.08380
C32 C 0.7151(4) 0.47359(12) 0.17781(12)
H29 H 0.61280 0.48430 0.19760
N1 N 0.1473(3) 0.60428(11) 0.11661(11)
N2 N -0.2258(3) 0.63555(11) 0.29606(13)
N3 N 0.8705(2) 0.31586(8) 0.39805(8)
N4 N 0.8503(2) 0.41681(9) 0.28713(9)
O1 O 0.2816(3) 0.57899(12) 0.10114(10)
H30 H 0.96350 0.39190 0.31360
O2 O 0.0323(3) 0.63372(10) 0.07478(10)
O3 O -0.3456(3) 0.65438(13) 0.24859(12)
O4 O -0.2371(3) 0.63497(10) 0.35873(11)
O5 O 0.3194(2) 0.50236(9) 0.41726(9)
O6 O 0.5066(2) 0.50874(7) 0.33946(8)
O7 O 0.71262(18) 0.28238(7) 0.35888(7)
#END
