
#######################################################################
#
#                 Cambridge Crystallographic Data Centre
#                                CCDC
#
#######################################################################
#
# If this CIF has been generated from an entry in the Cambridge
# Structural Database, then it will include bibliographic, chemical,
# crystal, experimental, refinement or atomic coordinate data resulting
# from the CCDC's data processing and validation procedures.
#
#######################################################################

data_CSD_CIF_QAPXAJ
_audit_creation_date 2017-05-05
_audit_creation_method CSD-ConQuest-V1
_database_code_CSD QAPXAJ
_database_code_depnum_ccdc_archive 'CCDC 1534530'
_chemical_formula_sum 'C38 H53 N1 O4'
_chemical_formula_moiety
;
C38 H53 N1 O4
;
_journal_coden_Cambridge 35
_journal_volume 82
_journal_year 2017
_journal_page_first 4958
_journal_name_full 'J.Org.Chem. '
loop_
_publ_author_name
"A.Ortiz"
"M.Soumeillant"
"S.A.Savage"
"N.A.Strotman"
"M.Haley"
"T.Benkovics"
"J.Nye"
"Zhongmin Xu"
"Yichen Tan"
"S.Ayers"
"Qi Gao"
"S.Kiau"
_chemical_name_systematic
;
methyl 4-[28-(hydroxyamino)-28-oxolupa-2,20(29)-dien-3-yl]benzoate
;
_cell_volume   6534.015
_exptl_crystal_density_diffrn 1.195
_diffrn_ambient_temperature 296
#These two values have been output from a single CSD field.
_refine_ls_R_factor_gt 0.0329
_refine_ls_wR_factor_gt 0.0329
_symmetry_cell_setting tetragonal
_symmetry_space_group_name_H-M 'P 43 21 2'
_symmetry_Int_Tables_number 96
loop_
_symmetry_equiv_pos_site_id
_symmetry_equiv_pos_as_xyz
1 x,y,z
2 1/2-y,1/2+x,3/4+z
3 1/2+y,1/2-x,1/4+z
4 1/2+x,1/2-y,1/4-z
5 1/2-x,1/2+y,3/4-z
6 -x,-y,1/2+z
7 y,x,-z
8 -y,-x,1/2-z
_cell_length_a 10.9331(2)
_cell_length_b 10.9331(2)
_cell_length_c 54.663(1)
_cell_angle_alpha 90
_cell_angle_beta 90
_cell_angle_gamma 90
_cell_formula_units_Z 8
loop_
_atom_type_symbol
_atom_type_radius_bond
C 0.68
H 0.23
N 0.68
O 0.68
loop_
_atom_site_label
_atom_site_type_symbol
_atom_site_fract_x
_atom_site_fract_y
_atom_site_fract_z
O1 O 1.18669(15) 0.19437(16) 0.02794(3)
H1 H 1.22220 0.14220 0.01980
O2 O 0.85588(18) 1.43121(17) 0.17334(3)
O3 O 0.65029(19) 1.44095(17) 0.17176(3)
O4 O 1.00448(14) 0.26666(15) -0.00139(3)
N1 N 1.06507(18) 0.15967(19) 0.03127(4)
H2 H 1.04620 0.10760 0.04240
C1 C 0.76885(19) 0.61657(18) 0.06344(3)
H3 H 0.68450 0.59860 0.06830
C2 C 0.9776(2) 0.20769(19) 0.01699(4)
C3 C 0.8448(2) 0.1778(2) 0.02374(4)
C4 C 0.7552(2) 0.28237(19) 0.01703(4)
H4 H 0.67560 0.25790 0.02370
C5 C 0.78903(19) 0.40098(19) 0.03015(3)
H5 H 0.87480 0.41760 0.02610
C6 C 0.7169(2) 0.51399(19) 0.02251(4)
H6 H 0.63120 0.50210 0.02640
H7 H 0.72360 0.52470 0.00490
C7 C 0.7636(2) 0.62946(19) 0.03538(4)
H8 H 0.71050 0.69740 0.03120
H9 H 0.84480 0.64840 0.02930
C8 C 0.80141(18) 0.73852(18) 0.07708(3)
C9 C 0.6970(2) 0.83037(19) 0.07251(4)
H10 H 0.70230 0.86000 0.05580
H11 H 0.61920 0.78860 0.07430
C10 C 0.70045(19) 0.93718(19) 0.08961(4)
H12 H 0.65510 1.00580 0.08530
C11 C 0.76315(18) 0.94215(19) 0.11050(4)
C12 C 0.7623(2) 1.05937(19) 0.12458(4)
C13 C 0.6517(2) 1.1131(2) 0.13092(4)
H13 H 0.57900 1.07550 0.12630
C14 C 0.6472(2) 1.2211(2) 0.14391(4)
H14 H 0.57190 1.25580 0.14770
C15 C 0.7538(2) 1.27837(19) 0.15133(4)
C16 C 0.7449(2) 1.3909(2) 0.16639(4)
C17 C 0.8583(3) 1.5332(3) 0.19000(5)
H15 H 0.79920 1.59310 0.18490
H16 H 0.93830 1.56920 0.19000
H17 H 0.83880 1.50530 0.20620
C18 C 0.8691(2) 1.1211(2) 0.13121(4)
H18 H 0.94450 1.08960 0.12640
C19 C 0.8653(2) 1.2276(2) 0.14465(4)
H19 H 0.93770 1.26560 0.14930
C20 C 0.80092(18) 0.71512(19) 0.10508(3)
H20 H 0.71700 0.69000 0.10880
C21 C 0.8800(2) 0.6048(2) 0.11192(4)
H21 H 0.96430 0.62120 0.10750
H22 H 0.87660 0.59240 0.12950
C22 C 0.8371(2) 0.48960(19) 0.09904(4)
H23 H 0.75350 0.47230 0.10390
H24 H 0.88760 0.42140 0.10420
C23 C 0.84307(19) 0.50039(19) 0.07091(4)
C24 C 0.78331(19) 0.38318(19) 0.05855(4)
C25 C 0.6491(2) 0.3641(2) 0.06709(4)
H25 H 0.61240 0.29950 0.05770
H26 H 0.60380 0.43830 0.06470
H27 H 0.64830 0.34260 0.08410
C26 C 0.7411(2) 0.2793(2) -0.01109(4)
H28 H 0.80240 0.33350 -0.01840
C27 C 0.6159(2) 0.3134(3) -0.02099(5)
C28 C 0.5065(3) 0.2526(4) -0.00957(7)
H29 H 0.48780 0.29160 0.00570
H30 H 0.52410 0.16780 -0.00680
H31 H 0.43760 0.25970 -0.02040
C29 C 0.6056(3) 0.3883(3) -0.03990(6)
H32 H 0.52900 0.40470 -0.04650
H33 H 0.67500 0.42450 -0.04660
C30 C 0.7730(2) 0.1439(2) -0.01780(5)
H34 H 0.70460 0.10560 -0.02610
H35 H 0.84350 0.14150 -0.02860
C31 C 0.8011(2) 0.0768(2) 0.00608(5)
H36 H 0.86450 0.01600 0.00360
H37 H 0.72850 0.03660 0.01240
C32 C 0.8274(2) 0.1520(2) 0.05094(4)
H38 H 0.88210 0.08660 0.05590
H39 H 0.74420 0.12500 0.05380
C33 C 0.8533(2) 0.2658(2) 0.06636(4)
H40 H 0.94040 0.28270 0.06570
H41 H 0.83290 0.24770 0.08320
C34 C 0.9790(2) 0.5112(2) 0.06329(4)
H42 H 1.032(3) 0.538(4) 0.0767(5)
H43 H 0.981(4) 0.553(4) 0.0475(5)
H44 H 1.016(3) 0.435(2) 0.0579(10)
C35 C 0.82435(19) 0.8293(2) 0.12152(4)
C36 C 0.9615(2) 0.8487(2) 0.12715(5)
H45 H 1.00270 0.87560 0.11260
H46 H 0.99670 0.77300 0.13260
H47 H 0.97020 0.90940 0.13970
C37 C 0.7608(2) 0.8069(2) 0.14643(4)
H48 H 0.77400 0.87610 0.15690
H49 H 0.79450 0.73500 0.15390
H50 H 0.67470 0.79570 0.14390
C38 C 0.9204(2) 0.7987(2) 0.06811(4)
H51 H 0.92260 0.79750 0.05060
H52 H 0.98930 0.75440 0.07440
H53 H 0.92360 0.88180 0.07380
H54? H 1.015(4) 0.589(3) 0.0685(9)
H55? H 0.999(6) 0.485(7) 0.0468(6)
H56? H 1.028(4) 0.451(4) 0.0721(10)
#END
