
#######################################################################
#
#                 Cambridge Crystallographic Data Centre
#                                CCDC
#
#######################################################################
#
# If this CIF has been generated from an entry in the Cambridge
# Structural Database, then it will include bibliographic, chemical,
# crystal, experimental, refinement or atomic coordinate data resulting
# from the CCDC's data processing and validation procedures.
#
#######################################################################

data_CSD_CIF_QAPXIR
_audit_creation_date 2017-05-05
_audit_creation_method CSD-ConQuest-V1
_database_code_CSD QAPXIR
_database_code_depnum_ccdc_archive 'CCDC 1541787'
_chemical_formula_sum 'C19 H13 N3 O3'
_chemical_formula_moiety
;
C19 H13 N3 O3
;
_journal_coden_Cambridge 35
_journal_volume 82
_journal_year 2017
_journal_page_first 4918
_journal_name_full 'J.Org.Chem. '
loop_
_publ_author_name
"Jian-Quan Liu"
"Yong-Gang Ma"
"Mei-Mei Zhang"
"Xiang-Shan Wang"
_chemical_name_systematic
;
12-(cyclopropylmethylidene)-3-nitroisoindolo[1,2-b]quinazolin-10(12H)-one
;
_cell_volume   1548.896
_exptl_crystal_colour 'pale yellow'
_exptl_crystal_density_diffrn 1.417
_exptl_crystal_description 'block'
_diffrn_ambient_temperature 296
#These two values have been output from a single CSD field.
_refine_ls_R_factor_gt 0.0467
_refine_ls_wR_factor_gt 0.0467
_symmetry_cell_setting monoclinic
_symmetry_space_group_name_H-M 'P 21/c'
_symmetry_Int_Tables_number 14
loop_
_symmetry_equiv_pos_site_id
_symmetry_equiv_pos_as_xyz
1 x,y,z
2 -x,1/2+y,1/2-z
3 -x,-y,-z
4 x,-1/2-y,-1/2+z
_cell_length_a 7.5350(3)
_cell_length_b 13.0568(5)
_cell_length_c 15.7680(7)
_cell_angle_alpha 90
_cell_angle_beta 93.192(2)
_cell_angle_gamma 90
_cell_formula_units_Z 4
loop_
_atom_type_symbol
_atom_type_radius_bond
C 0.68
H 0.23
N 0.68
O 0.68
loop_
_atom_site_label
_atom_site_type_symbol
_atom_site_fract_x
_atom_site_fract_y
_atom_site_fract_z
N1 N 0.2866(2) 0.52504(11) 1.02903(10)
N2 N 0.2019(2) 0.69380(12) 0.98250(12)
N3 N -0.1256(3) 0.53524(18) 0.69469(14)
O1 O 0.4416(2) 0.49564(11) 1.15571(10)
O2 O -0.1587(3) 0.62616(16) 0.68774(13)
O3 O -0.1752(3) 0.47181(18) 0.64243(14)
C1 C 0.2194(4) 0.1598(2) 1.0814(2)
H1 H 0.20370 0.18760 1.13750
H2 H 0.13390 0.10760 1.06320
C2 C 0.2838(3) 0.23161(16) 1.01455(16)
C3 C 0.3956(4) 0.14954(18) 1.05515(17)
H3 H 0.42190 0.09040 1.02080
H4 H 0.49170 0.17030 1.09500
C4 C 0.3124(3) 0.33801(15) 1.04114(14)
H5 H 0.37200 0.34820 1.09370
C5 C 0.2618(2) 0.42211(14) 0.99775(13)
C6 C 0.1654(2) 0.43438(14) 0.91503(12)
C7 C 0.1024(3) 0.36329(16) 0.85448(14)
H6 H 0.12350 0.29370 0.86250
C8 C 0.0084(3) 0.39777(17) 0.78266(14)
H7 H -0.03480 0.35110 0.74200
C9 C -0.0221(3) 0.50140(17) 0.77056(13)
C10 C 0.0397(3) 0.57362(16) 0.82837(13)
H8 H 0.01910 0.64310 0.81960
C11 C 0.1342(2) 0.53813(15) 0.90039(13)
C12 C 0.2091(2) 0.59587(15) 0.97174(13)
C13 C 0.2762(3) 0.73111(16) 1.05864(14)
C14 C 0.2659(3) 0.83646(17) 1.07574(17)
H9 H 0.21130 0.88020 1.03570
C15 C 0.3352(4) 0.8748(2) 1.15051(19)
H10 H 0.32730 0.94470 1.16120
C16 C 0.4171(4) 0.8115(2) 1.21074(18)
H11 H 0.46340 0.83900 1.26170
C17 C 0.4308(3) 0.70805(19) 1.19600(16)
H12 H 0.48690 0.66580 1.23670
C18 C 0.3601(3) 0.66658(16) 1.11970(14)
C19 C 0.3699(3) 0.55652(16) 1.10566(14)
#END
