
#######################################################################
#
#                 Cambridge Crystallographic Data Centre
#                                CCDC
#
#######################################################################
#
# If this CIF has been generated from an entry in the Cambridge
# Structural Database, then it will include bibliographic, chemical,
# crystal, experimental, refinement or atomic coordinate data resulting
# from the CCDC's data processing and validation procedures.
#
#######################################################################

data_CSD_CIF_QAQLIF
_audit_creation_date 2012-07-19
_audit_creation_method CSD-ConQuest-V1
_database_code_CSD QAQLIF
_database_code_depnum_ccdc_archive 'CCDC 855291'
_chemical_formula_sum 'C36 H39 N5 O4'
_chemical_formula_moiety
;
C36 H39 N5 O4
;
_journal_coden_Cambridge 177
_journal_volume 10
_journal_year 2012
_journal_page_first 2733
_journal_name_full 'Org.Biomol.Chem. '
loop_
_publ_author_name
"B.Bag"
"B.Biswal"
_chemical_name_systematic
;
3',6'-bis(diethylamino)-2-(2-((4-nitrophenyl)amino)ethyl)spiro[isoindole-1,9'-
xanthen]-3(2H)-one
;
_chemical_name_common
;
p-nitrophenyl-amino-ethylene-amido-rhodamine
;
_cell_volume   1572.976
_exptl_crystal_colour 'pale yellow'
_exptl_crystal_density_diffrn 1.279
_exptl_crystal_description 'needle'
_diffrn_ambient_temperature 296
#These two values have been output from a single CSD field.
_refine_ls_R_factor_gt 0.0771
_refine_ls_wR_factor_gt 0.0771
_symmetry_cell_setting triclinic
_symmetry_space_group_name_H-M 'P -1'
_symmetry_Int_Tables_number 2
loop_
_symmetry_equiv_pos_site_id
_symmetry_equiv_pos_as_xyz
1 x,y,z
2 -x,-y,-z
_cell_length_a 9.225(2)
_cell_length_b 12.144(3)
_cell_length_c 14.886(4)
_cell_angle_alpha 74.73(1)
_cell_angle_beta 78.29(2)
_cell_angle_gamma 83.99(4)
_cell_formula_units_Z 2
loop_
_atom_type_symbol
_atom_type_radius_bond
C 0.68
H 0.23
N 0.68
O 0.68
loop_
_atom_site_label
_atom_site_type_symbol
_atom_site_fract_x
_atom_site_fract_y
_atom_site_fract_z
N1 N 0.1202(3) 1.2670(2) -0.08416(18)
N2 N 0.5367(3) 0.56024(18) 0.22423(18)
N3 N 0.2961(2) 1.03675(16) 0.32417(13)
N4 N -0.0077(2) 0.83640(18) 0.44140(16)
H1 H -0.09190 0.86580 0.46360
N5 N -0.0048(4) 0.4172(2) 0.3534(2)
O1 O 0.3656(2) 0.93345(14) 0.07556(12)
O2 O 0.2962(2) 1.10124(18) 0.45603(13)
O3 O -0.1147(3) 0.3593(2) 0.3884(2)
O4 O 0.1054(4) 0.3834(3) 0.3049(3)
C1 C 0.4910(2) 0.8284(2) 0.30216(16)
H2 H 0.50700 0.85350 0.35310
C2 C 0.5250(3) 0.7155(2) 0.30147(17)
H3 H 0.56190 0.66600 0.35190
C3 C 0.5044(2) 0.67391(19) 0.22509(17)
C4 C 0.4498(3) 0.7523(2) 0.15098(17)
H4 H 0.43600 0.72840 0.09900
C5 C 0.2520(3) 1.2022(2) 0.14363(19)
H5 H 0.25330 1.23790 0.19160
C6 C 0.1835(3) 1.2594(2) 0.0695(2)
H6 H 0.13840 1.33170 0.06910
C7 C 0.1806(3) 1.2100(2) -0.00597(18)
C8 C 0.2446(3) 1.0992(2) 0.00140(17)
H7 H 0.24240 1.06240 -0.04570
C9 C 0.3942(2) 1.03077(18) 0.23242(15)
C10 C 0.4336(2) 0.90648(18) 0.22925(15)
C11 C 0.4159(2) 0.86536(19) 0.15395(15)
C12 C 0.3199(2) 1.09242(19) 0.14991(16)
C13 C 0.3111(2) 1.04319(19) 0.07772(16)
C14 C 0.5300(2) 1.08704(18) 0.23997(17)
C15 C 0.6613(3) 1.1073(2) 0.1768(2)
H8 H 0.67390 1.09200 0.11750
C16 C 0.7745(3) 1.1511(2) 0.2034(3)
H9 H 0.86420 1.16510 0.16160
C17 C 0.7556(3) 1.1741(2) 0.2918(3)
H10 H 0.83350 1.20180 0.30890
C18 C 0.6222(3) 1.1564(2) 0.3548(2)
H11 H 0.60880 1.17310 0.41350
C19 C 0.5092(3) 1.11285(19) 0.32744(18)
C20 C 0.3577(3) 1.08496(19) 0.37854(17)
C21 C 0.0455(5) 1.3800(3) -0.0914(3)
H12 H 0.09480 1.42220 -0.06050
H13 H 0.05720 1.42010 -0.15790
C22 C -0.1093(6) 1.3809(5) -0.0512(6)
H14 H -0.15860 1.33480 -0.07790
H15 H -0.15110 1.45790 -0.06490
H16 H -0.12200 1.35050 0.01610
C23 C 0.1220(3) 1.2125(3) -0.1612(2)
H17 H 0.21810 1.17300 -0.17370
H18 H 0.11050 1.27150 -0.21800
C24 C 0.0036(4) 1.1286(3) -0.1418(3)
H19 H 0.00960 1.07260 -0.08340
H20 H 0.01770 1.09140 -0.19260
H21 H -0.09210 1.16850 -0.13690
C25 C 0.5257(6) 0.5223(5) 0.1410(4)
H22 H 0.45830 0.57730 0.10780
H23 H 0.62250 0.53040 0.10040
C26 C 0.4857(11) 0.4240(9) 0.1449(7)
H24 H 0.42320 0.43060 0.09920
H25 H 0.43190 0.39190 0.20720
H26 H 0.57170 0.37520 0.13120
C27 C 0.6031(3) 0.4822(2) 0.2992(2)
H27 H 0.67550 0.52210 0.31590
H28 H 0.65530 0.41920 0.27540
C28 C 0.4922(5) 0.4345(3) 0.3877(3)
H29 H 0.43630 0.49640 0.41010
H30 H 0.54380 0.38870 0.43570
H31 H 0.42600 0.38830 0.37330
C29 C 0.1468(3) 0.9966(2) 0.34832(17)
H32 H 0.12480 0.97470 0.29460
H33 H 0.07710 1.05890 0.36030
C30 C 0.1244(3) 0.8953(2) 0.43467(18)
H34 H 0.21020 0.84200 0.43120
H35 H 0.11700 0.92210 0.49140
C31 C -0.0066(3) 0.7377(2) 0.41475(16)
C32 C 0.1186(3) 0.6958(2) 0.35836(18)
H36 H 0.20230 0.73840 0.33530
C33 C 0.1163(3) 0.5924(2) 0.3377(2)
H37 H 0.19880 0.56540 0.30060
C34 C -0.0065(3) 0.5283(2) 0.37139(19)
C35 C -0.1335(3) 0.5692(2) 0.42555(18)
H38 H -0.21680 0.52600 0.44770
C36 C -0.1336(3) 0.6729(2) 0.44538(17)
H39 H -0.21870 0.70110 0.47950
#END
