
#######################################################################
#
#                 Cambridge Crystallographic Data Centre
#                                CCDC
#
#######################################################################
#
# If this CIF has been generated from an entry in the Cambridge
# Structural Database, then it will include bibliographic, chemical,
# crystal, experimental, refinement or atomic coordinate data resulting
# from the CCDC's data processing and validation procedures.
#
#######################################################################

data_CSD_CIF_QATZOD
_audit_creation_date 2017-05-09
_audit_creation_method CSD-ConQuest-V1
_database_code_CSD QATZOD
_database_code_depnum_ccdc_archive 'CCDC 1432915'
_chemical_formula_sum 'C14 H9 N3 O4'
_chemical_formula_moiety
;
C14 H9 N3 O4
;
_journal_coden_Cambridge 1186
_journal_volume 29
_journal_year 2017
_journal_page_first 417
_journal_name_full 'Supramol.Chem. '
loop_
_publ_author_name
"P.R.Sahoo"
"K.Prakash"
"P.Mishra"
"P.Agarwal"
"N.Gupta"
"S.Kumar"
_chemical_name_systematic
;
2-((4-nitrophenyl)amino)-1H-isoindole-1,3(2H)-dione
;
_cell_volume   1203.681
_exptl_crystal_colour 'dark yellow'
_exptl_crystal_density_diffrn 1.563
_exptl_crystal_description 'block'
_diffrn_ambient_temperature 297
#These two values have been output from a single CSD field.
_refine_ls_R_factor_gt 0.0684
_refine_ls_wR_factor_gt 0.0684
_symmetry_cell_setting orthorhombic
_symmetry_space_group_name_H-M 'P 21 21 21'
_symmetry_Int_Tables_number 19
loop_
_symmetry_equiv_pos_site_id
_symmetry_equiv_pos_as_xyz
1 x,y,z
2 1/2-x,-y,1/2+z
3 -x,1/2+y,1/2-z
4 1/2+x,1/2-y,-z
_cell_length_a 5.2001(10)
_cell_length_b 8.8939(19)
_cell_length_c 26.026(7)
_cell_angle_alpha 90
_cell_angle_beta 90
_cell_angle_gamma 90
_cell_formula_units_Z 4
loop_
_atom_type_symbol
_atom_type_radius_bond
C 0.68
H 0.23
N 0.68
O 0.68
loop_
_atom_site_label
_atom_site_type_symbol
_atom_site_fract_x
_atom_site_fract_y
_atom_site_fract_z
O1 O -0.0684(7) -0.3530(4) -0.79221(13)
O2 O -0.7838(7) -0.0523(4) -0.80025(14)
N1 N -0.3389(8) -0.1215(4) -0.73879(15)
H1 H -0.25380 -0.03860 -0.73800
N2 N -0.4065(8) -0.1842(4) -0.78508(15)
O3 O -0.4707(9) -0.3731(6) -0.51548(16)
N3 N -0.6049(10) -0.3949(5) -0.55336(19)
O4 O -0.7968(9) -0.4757(6) -0.55245(17)
C1 C -0.6261(10) -0.2807(5) -0.69012(18)
H2 H -0.72930 -0.29560 -0.71890
C2 C -0.620(1) -0.1386(5) -0.8144(2)
C3 C -0.4080(9) -0.1919(5) -0.69352(18)
C4 C -0.3827(9) -0.3169(5) -0.86057(17)
C5 C -0.5974(10) -0.2239(5) -0.86293(18)
C6 C -0.2582(10) -0.2947(6) -0.80980(19)
C7 C -0.2607(10) -0.1670(5) -0.65010(19)
H3 H -0.11690 -0.10510 -0.65220
C8 C -0.6892(9) -0.3469(6) -0.6440(2)
H4 H -0.83420 -0.40780 -0.64150
C9 C -0.5377(9) -0.3228(6) -0.60183(19)
C10 C -0.316(1) -0.4077(5) -0.90101(19)
H5 H -0.17320 -0.47040 -0.89920
C11 C -0.7478(10) -0.2181(6) -0.9063(2)
H6 H -0.88970 -0.15470 -0.90820
C12 C -0.3236(10) -0.2323(6) -0.6039(2)
H7 H -0.22380 -0.21580 -0.57480
C13 C -0.6803(10) -0.3099(6) -0.9470(2)
H8 H -0.78010 -0.30900 -0.97660
C14 C -0.4681(10) -0.4029(6) -0.9446(2)
H9 H -0.42690 -0.46310 -0.97260
#END
