
#######################################################################
#
#                 Cambridge Crystallographic Data Centre
#                                CCDC
#
#######################################################################
#
# If this CIF has been generated from an entry in the Cambridge
# Structural Database, then it will include bibliographic, chemical,
# crystal, experimental, refinement or atomic coordinate data resulting
# from the CCDC's data processing and validation procedures.
#
#######################################################################

data_CSD_CIF_QAWVIW
_audit_creation_date 2017-05-09
_audit_creation_method CSD-ConQuest-V1
_database_code_CSD QAWVIW
_database_code_depnum_ccdc_archive 'CCDC 1481492'
_chemical_formula_sum 'C28 H21 N1 O1'
_chemical_formula_moiety
;
C28 H21 N1 O1
;
_journal_coden_Cambridge 1366
_journal_volume 359
_journal_year 2017
_journal_page_first 786
_journal_name_full 'Adv.Synth.Catal. '
loop_
_publ_author_name
"S.Muthusamy"
"A.Balasubramani"
"E.Suresh"
_chemical_name_systematic
;
3-(diphenylmethylidene)-5-methyl-1-oxo-2-phenyl-3H-1\l^5^-indole
;
_cell_volume   1030.148
_exptl_crystal_density_diffrn 1.249
_exptl_crystal_description 'blocks'
_diffrn_ambient_temperature 293
#These two values have been output from a single CSD field.
_refine_ls_R_factor_gt 0.0413
_refine_ls_wR_factor_gt 0.0413
_symmetry_cell_setting triclinic
_symmetry_space_group_name_H-M 'P -1'
_symmetry_Int_Tables_number 2
loop_
_symmetry_equiv_pos_site_id
_symmetry_equiv_pos_as_xyz
1 x,y,z
2 -x,-y,-z
_cell_length_a 9.6491(11)
_cell_length_b 11.2524(13)
_cell_length_c 11.2569(13)
_cell_angle_alpha 66.122(2)
_cell_angle_beta 83.504(2)
_cell_angle_gamma 67.357(2)
_cell_formula_units_Z 2
loop_
_atom_type_symbol
_atom_type_radius_bond
C 0.68
H 0.23
N 0.68
O 0.68
loop_
_atom_site_label
_atom_site_type_symbol
_atom_site_fract_x
_atom_site_fract_y
_atom_site_fract_z
N1 N 0.76033(14) 0.49410(13) 0.48168(12)
O1 O 0.86308(14) 0.37346(12) 0.49973(12)
C1 C 0.55210(15) 0.86402(14) 0.32897(13)
C2 C 0.40301(16) 0.96229(15) 0.34378(13)
C3 C 0.60085(15) 0.72278(15) 0.40006(14)
C4 C 0.81583(16) 0.62083(15) 0.25895(15)
C5 C 0.54980(16) 0.64951(15) 0.52839(14)
C6 C 0.65334(16) 0.51327(15) 0.57715(15)
C7 C 0.73175(16) 0.61433(15) 0.37724(14)
C8 C 0.38979(18) 1.08756(16) 0.35042(15)
H1 H 0.47500 1.10890 0.34460
C9 C 0.43888(17) 0.69031(16) 0.60969(15)
H2 H 0.36730 0.78110 0.58000
C10 C 0.64879(16) 0.93004(15) 0.23605(14)
C11 C 0.73979(18) 0.69340(17) 0.13768(16)
H3 H 0.63540 0.73500 0.13240
C12 C 0.6548(2) 0.41719(17) 0.70057(16)
H4 H 0.72730 0.32680 0.73030
C13 C 0.79656(18) 0.89681(19) 0.27046(17)
H5 H 0.83790 0.83040 0.35250
C14 C 0.2526(2) 1.17961(18) 0.36546(17)
H6 H 0.24630 1.26160 0.37150
C15 C 0.4347(2) 0.59591(17) 0.73494(16)
C16 C 0.97110(18) 0.55764(19) 0.26399(18)
H7 H 1.02450 0.50680 0.34400
C17 C 0.27242(17) 0.93637(18) 0.34874(16)
H8 H 0.27750 0.85500 0.34230
C18 C 0.5900(2) 1.02994(17) 0.11243(16)
H9 H 0.49010 1.05500 0.08940
C19 C 0.13503(19) 1.0303(2) 0.36309(19)
H10 H 0.04870 1.01110 0.36700
C20 C 0.5428(2) 0.46146(18) 0.77879(17)
H11 H 0.54000 0.39910 0.86320
C21 C 0.1248(2) 1.1518(2) 0.37169(18)
H12 H 0.03220 1.21450 0.38160
C22 C 0.8162(2) 0.7047(2) 0.02521(18)
H13 H 0.76350 0.75390 -0.05510
C23 C 0.9697(2) 0.6437(2) 0.0315(2)
H14 H 1.02150 0.65220 -0.04450
C24 C 0.8220(3) 1.0605(2) 0.0590(2)
H15 H 0.88000 1.10470 -0.00010
C25 C 0.8827(2) 0.9632(2) 0.1817(2)
H16 H 0.98140 0.94220 0.20490
C26 C 0.6769(2) 1.09179(19) 0.0245(2)
H17 H 0.63720 1.15520 -0.05890
C27 C 1.0468(2) 0.5699(2) 0.1504(2)
H18 H 1.15110 0.52780 0.15460
C28 C 0.3117(3) 0.6394(2) 0.8214(2)
H19 H 0.29180 0.73410 0.80920
H20 H 0.34290 0.57850 0.91070
H21 H 0.22210 0.63320 0.79950
#END
