
#######################################################################
#
#                 Cambridge Crystallographic Data Centre
#                                CCDC
#
#######################################################################
#
# If this CIF has been generated from an entry in the Cambridge
# Structural Database, then it will include bibliographic, chemical,
# crystal, experimental, refinement or atomic coordinate data resulting
# from the CCDC's data processing and validation procedures.
#
#######################################################################

data_CSD_CIF_QAWZUK
_audit_creation_date 2006-02-15
_audit_creation_method CSD-ConQuest-V1
_database_code_CSD QAWZUK
_database_code_depnum_ccdc_archive 'CCDC 258842'
_chemical_formula_sum 'C19 H27 N1 O9'
_chemical_formula_moiety
;
C19 H27 N1 O9
;
_journal_coden_Cambridge 35
_journal_volume 70
_journal_year 2005
_journal_page_first 8579
_journal_name_full 'J.Org.Chem. '
loop_
_publ_author_name
"J.Sengupta"
"R.Mukhopadhyay"
"A.Bhattacharjya"
"M.M.Bhadbhade"
"G.V.Bhosekar"
_chemical_name_systematic
;
6,6,16,16-Tetramethyl-3,5,7,10,13,15,17,20,23-nonaoxa-24-azahexacyclo(20.2.1.0
^2,9^.0^4,8^.0^12,19^.0^14,18^)pentacos-1(24)-ene
;
_chemical_melting_point 427.15
_cell_volume   1977.762
_exptl_crystal_colour 'colorless'
_exptl_crystal_density_diffrn 1.388
_exptl_special_details
;
Melting point range 427.15-429.15K

;
_exptl_crystal_description 'plate'
_exptl_crystal_preparation 'ethyl acetate/petroleum ether'
_diffrn_ambient_temperature 293
#These two values have been output from a single CSD field.
_refine_ls_R_factor_gt 0.0456
_refine_ls_wR_factor_gt 0.0456
_symmetry_cell_setting orthorhombic
_symmetry_space_group_name_H-M 'P 21 21 21'
_symmetry_Int_Tables_number 19
loop_
_symmetry_equiv_pos_site_id
_symmetry_equiv_pos_as_xyz
1 x,y,z
2 1/2-x,-y,1/2+z
3 -x,1/2+y,1/2-z
4 1/2+x,1/2-y,-z
_cell_length_a 6.8229(8)
_cell_length_b 15.4730(17)
_cell_length_c 18.734(2)
_cell_angle_alpha 90
_cell_angle_beta 90
_cell_angle_gamma 90
_cell_formula_units_Z 4
loop_
_atom_type_symbol
_atom_type_radius_bond
C 0.68
H 0.23
N 0.68
O 0.68
loop_
_atom_site_label
_atom_site_type_symbol
_atom_site_fract_x
_atom_site_fract_y
_atom_site_fract_z
C1 C 0.6477(4) 0.72464(14) 0.28295(12)
C2 C 0.7843(3) 0.68223(14) 0.23146(12)
H1 H 0.89060 0.65510 0.25860
O1 O 0.6841(2) 0.61617(10) 0.19227(8)
C3 C 0.7964(3) 0.59722(15) 0.13086(12)
H2 H 0.71170 0.58870 0.08920
O2 O 0.9162(2) 0.52546(10) 0.14199(11)
C4 C 1.1186(4) 0.54883(15) 0.13818(14)
O3 O 1.1219(2) 0.64077(10) 0.14094(10)
C5 C 0.9347(3) 0.67348(15) 0.11954(13)
H3 H 0.93340 0.69550 0.07050
C6 C 0.8756(4) 0.74062(14) 0.17435(12)
H4 H 0.99560 0.76580 0.19430
O4 O 0.7564(2) 0.80917(10) 0.14955(8)
C7 C 0.5804(4) 0.78820(16) 0.11227(13)
H5 H 0.50740 0.74410 0.13770
H6 H 0.60990 0.76710 0.06470
C8 C 0.4641(4) 0.87118(17) 0.10843(12)
H7 H 0.54550 0.91650 0.08710
O5 O 0.2978(3) 0.85532(12) 0.06337(8)
C9 C 0.1502(4) 0.91514(15) 0.07941(12)
H8 H 0.02130 0.88720 0.08120
N1 N 0.7104(3) 0.78807(13) 0.31908(11)
O6 O 0.1511(3) 0.98374(11) 0.03065(8)
C10 C 0.1706(5) 1.06367(17) 0.06748(14)
O7 O 0.2604(3) 1.0416(1) 0.13375(8)
C11 C 0.2023(4) 0.95622(14) 0.15134(12)
H9 H 0.09250 0.95500 0.18500
C12 C 0.3773(3) 0.90420(14) 0.17769(12)
H10 H 0.47050 0.94020 0.20420
O8 O 0.3155(2) 0.83207(10) 0.21782(8)
C13 C 0.2647(4) 0.84544(16) 0.29122(12)
H11 H 0.12470 0.83780 0.29750
H12 H 0.29790 0.90400 0.30520
C14 C 0.3741(4) 0.78199(14) 0.33775(13)
H13 H 0.29210 0.76590 0.37860
O9 O 0.5559(3) 0.81978(11) 0.36310(9)
C15 C 0.4400(4) 0.70074(14) 0.29857(12)
H14 H 0.43150 0.64990 0.32870
H15 H 0.36530 0.69140 0.25520
C16 C 1.2233(4) 0.51472(16) 0.20233(14)
H16 H 1.35820 0.53210 0.20070
H17 H 1.21550 0.45280 0.20280
H18 H 1.16330 0.53730 0.24480
C17 C 1.2037(5) 0.5161(2) 0.06946(14)
H19 H 1.13050 0.53910 0.03000
H20 H 1.19700 0.45410 0.06860
H21 H 1.33800 0.53400 0.06580
C18 C 0.3076(6) 1.1211(2) 0.02687(16)
H22 H 0.43690 1.09670 0.02760
H23 H 0.31010 1.17730 0.04860
H24 H 0.26350 1.12610 -0.02160
C19 C -0.0279(5) 1.1038(2) 0.07950(18)
H25 H -0.08670 1.11730 0.03430
H26 H -0.01350 1.15580 0.10690
H27 H -0.11000 1.06390 0.10490
#END
