
#######################################################################
#
#                 Cambridge Crystallographic Data Centre
#                                CCDC
#
#######################################################################
#
# If this CIF has been generated from an entry in the Cambridge
# Structural Database, then it will include bibliographic, chemical,
# crystal, experimental, refinement or atomic coordinate data resulting
# from the CCDC's data processing and validation procedures.
#
#######################################################################

data_CSD_CIF_QAWZOE
_audit_creation_date 2006-02-15
_audit_creation_method CSD-ConQuest-V1
_database_code_CSD QAWZOE
_database_code_depnum_ccdc_archive 'CCDC 232682'
_chemical_formula_sum 'C9 H12 N2 O4'
_chemical_formula_moiety
;
C9 H12 N2 O4
;
_journal_coden_Cambridge 35
_journal_volume 70
_journal_year 2005
_journal_page_first 8564
_journal_name_full 'J.Org.Chem. '
loop_
_publ_author_name
"S.Spange"
"K.Hofmann"
"B.Walfort"
"T.Ruffer"
"H.Lang"
_chemical_name_systematic
;
(R)-N-(1-(2,3-Dihydroxypropyl))-2-nitroaniline
;
_chemical_melting_point 400.15
_cell_volume   1978.220
_exptl_crystal_colour 'orange'
_exptl_crystal_density_diffrn 1.425
_exptl_special_details
;
Melting point range 400.15-402.15K

;
_exptl_crystal_description 'block'
_diffrn_ambient_temperature 203
#These two values have been output from a single CSD field.
_refine_ls_R_factor_gt 0.0386
_refine_ls_wR_factor_gt 0.0386
_symmetry_cell_setting orthorhombic
_symmetry_space_group_name_H-M 'I 2 2 2'
_symmetry_Int_Tables_number 23
loop_
_symmetry_equiv_pos_site_id
_symmetry_equiv_pos_as_xyz
1 x,y,z
2 -x,-y,z
3 -x,y,-z
4 x,-y,-z
5 1/2+x,1/2+y,1/2+z
6 1/2-x,1/2-y,1/2+z
7 1/2-x,1/2+y,1/2-z
8 1/2+x,1/2-y,1/2-z
_cell_length_a 6.8961(4)
_cell_length_b 14.1021(8)
_cell_length_c 20.3417(14)
_cell_angle_alpha 90
_cell_angle_beta 90
_cell_angle_gamma 90
_cell_formula_units_Z 8
loop_
_atom_type_symbol
_atom_type_radius_bond
C 0.68
H 0.23
N 0.68
O 0.68
loop_
_atom_site_label
_atom_site_type_symbol
_atom_site_fract_x
_atom_site_fract_y
_atom_site_fract_z
O1 O 0.1905(2) 0.12543(10) -0.00517(6)
C1 C 0.2709(4) 0.15714(13) 0.05546(8)
H1 H 0.411(4) 0.1646(17) 0.0505(12)
H2 H 0.227(3) 0.2166(15) 0.0654(10)
C2 C 0.2221(3) 0.09068(11) 0.11108(7)
H3 H 0.080(3) 0.0849(12) 0.1130(8)
O2 O 0.3063(2) -0.00103(9) 0.10060(6)
C3 C 0.2935(3) 0.13130(13) 0.17573(8)
H4 H 0.429(3) 0.1487(14) 0.1713(10)
H5 H 0.220(3) 0.1927(15) 0.1841(10)
N1 N 0.2611(3) 0.06285(10) 0.22770(6)
H6 H 0.261(3) 0.0057(18) 0.2178(9)
C4 C 0.2673(3) 0.08418(11) 0.29243(7)
C5 C 0.2492(3) 0.01611(13) 0.34258(7)
C6 C 0.2509(4) 0.04206(16) 0.40898(9)
H7 H 0.246(4) -0.010(2) 0.4412(12)
C7 C 0.2716(5) 0.13371(17) 0.42676(10)
H8 H 0.273(4) 0.1556(19) 0.4734(12)
C8 C 0.2923(4) 0.20289(15) 0.37837(10)
H9 H 0.297(4) 0.273(2) 0.3883(13)
C9 C 0.2925(3) 0.17912(13) 0.31310(8)
H10 H 0.315(3) 0.2247(15) 0.2792(10)
N2 N 0.2273(3) -0.08313(11) 0.32855(7)
O3 O 0.2285(3) -0.11058(9) 0.27085(6)
O4 O 0.2090(3) -0.13871(10) 0.37432(7)
H11 H 0.083(6) 0.101(5) -0.016(4)
H12 H 0.405(9) -0.016(10) 0.078(4)
#END
