
#######################################################################
#
#                 Cambridge Crystallographic Data Centre
#                                CCDC
#
#######################################################################
#
# If this CIF has been generated from an entry in the Cambridge
# Structural Database, then it will include bibliographic, chemical,
# crystal, experimental, refinement or atomic coordinate data resulting
# from the CCDC's data processing and validation procedures.
#
#######################################################################

data_CSD_CIF_QAYBUO
_audit_creation_date 2006-02-15
_audit_creation_method CSD-ConQuest-V1
_database_code_CSD QAYBUO
_database_code_depnum_ccdc_archive 'CCDC 290712'
_database_code_depnum_ccdc_journal 1267/1301
_chemical_formula_sum 'C8 H13 N1 O4'
_chemical_formula_moiety
;
C8 H13 N1 O4
;
_journal_coden_Cambridge 1267
_journal_volume 220
_journal_year 2005
_journal_page_first 151
_journal_name_full 'Z.Kristallogr.-New Cryst.Struct. '
loop_
_publ_author_name
"W.Frey"
"M.Imerhasan"
"Y.Bathich"
"V.Jager"
_chemical_name_systematic
;
(5S,8S)-8-hydroxymethyl-1-methyl-2,7-dioxa-1-azaspiro(4.4)nonan-6-one
;
_chemical_melting_point 383
_cell_volume    912.488
_exptl_crystal_colour 'colorless'
_exptl_crystal_density_diffrn 1.363
_exptl_special_details
;
Melting point range 383-384K

;
_exptl_crystal_description 'block'
_exptl_crystal_preparation 'ethanol/petroleum ether'
_diffrn_ambient_temperature 293
#These two values have been output from a single CSD field.
_refine_ls_R_factor_gt 0.0483
_refine_ls_wR_factor_gt 0.0483
_symmetry_cell_setting orthorhombic
_symmetry_space_group_name_H-M 'P 21 21 21'
_symmetry_Int_Tables_number 19
loop_
_symmetry_equiv_pos_site_id
_symmetry_equiv_pos_as_xyz
1 x,y,z
2 1/2-x,-y,1/2+z
3 -x,1/2+y,1/2-z
4 1/2+x,1/2-y,-z
_cell_length_a 8.8739(5)
_cell_length_b 9.5664(5)
_cell_length_c 10.7489(6)
_cell_angle_alpha 90
_cell_angle_beta 90
_cell_angle_gamma 90
_cell_formula_units_Z 4
loop_
_atom_type_symbol
_atom_type_radius_bond
C 0.68
H 0.23
N 0.68
O 0.68
loop_
_atom_site_label
_atom_site_type_symbol
_atom_site_fract_x
_atom_site_fract_y
_atom_site_fract_z
N1 N 0.4822(3) 0.4246(3) 0.4365(2)
O1 O 0.4800(3) 0.2877(2) 0.4946(2)
C1 C 0.5118(5) 0.3056(4) 0.6271(3)
H1 H 0.620(4) 0.278(4) 0.639(4)
H2 H 0.443(5) 0.232(5) 0.675(4)
C2 C 0.4835(3) 0.4587(3) 0.6554(3)
H3 H 0.582(5) 0.500(4) 0.668(3)
H4 H 0.409(5) 0.470(5) 0.724(4)
O2 O 0.1929(2) 0.5969(2) 0.43378(17)
O3 O 0.2727(3) 0.8015(3) 0.3638(2)
C3 C 0.4130(3) 0.5123(3) 0.5351(2)
O4 O 0.1732(3) 0.6310(2) 0.6996(2)
H5 H 0.127(5) 0.621(4) 0.781(4)
C4 C 0.4277(3) 0.6675(3) 0.5078(3)
H6 H 0.416(5) 0.720(5) 0.585(5)
H7 H 0.517(3) 0.697(3) 0.472(3)
C5 C 0.2947(3) 0.6999(3) 0.4277(3)
C6 C 0.2405(3) 0.4902(3) 0.5227(3)
H8 H 0.222(4) 0.390(3) 0.482(4)
C7 C 0.1443(3) 0.5025(3) 0.6383(3)
H9 H 0.039(4) 0.498(3) 0.617(3)
H10 H 0.176(4) 0.424(4) 0.697(3)
C8 C 0.6405(4) 0.4579(5) 0.4068(4)
H11 H 0.678(5) 0.368(5) 0.360(4)
H12 H 0.706(4) 0.470(4) 0.484(4)
H13 H 0.637(5) 0.555(5) 0.360(5)
#END
