
#######################################################################
#
#                 Cambridge Crystallographic Data Centre
#                                CCDC
#
#######################################################################
#
# If this CIF has been generated from an entry in the Cambridge
# Structural Database, then it will include bibliographic, chemical,
# crystal, experimental, refinement or atomic coordinate data resulting
# from the CCDC's data processing and validation procedures.
#
#######################################################################

data_CSD_CIF_QAYJEG
_audit_creation_date 2006-02-15
_audit_creation_method CSD-ConQuest-V1
_database_code_CSD QAYJEG
_database_code_depnum_ccdc_archive 'CCDC 290424'
_chemical_formula_sum 'C26 H32 N4 O8'
_chemical_formula_moiety
;
C26 H32 N4 O8
;
_journal_coden_Cambridge 1078
_journal_year 2003
_journal_name_full 'CSD Communication(Private Communication) '
loop_
_publ_author_name
"M.B.Hursthouse"
"M.A.Mazid"
"P.C.B.Page"
_chemical_name_systematic
;
diethyl 
3-[(2,4-dinitrophenyl)hydrazono]-2,3,3a,4,6,6a,9,10,10a,10b-decahydrobenzo[e]a
zulene-5,5(1H)-dicarboxylate
;
_cell_volume   5366.458
_exptl_crystal_density_diffrn 1.308
_exptl_special_details
;
contribution from Queen Mary College, University of London, UK

;
_diffrn_ambient_temperature 293
#These two values have been output from a single CSD field.
_refine_ls_R_factor_gt 0.065
_refine_ls_wR_factor_gt 0.065
_symmetry_cell_setting monoclinic
_symmetry_space_group_name_H-M 'C 2/c'
_symmetry_Int_Tables_number 15
loop_
_symmetry_equiv_pos_site_id
_symmetry_equiv_pos_as_xyz
1 x,y,z
2 -x,y,1/2-z
3 1/2+x,1/2+y,z
4 1/2-x,1/2+y,1/2-z
5 -x,-y,-z
6 x,-y,-1/2+z
7 -1/2-x,-1/2-y,-z
8 -1/2+x,-1/2-y,-1/2+z
_cell_length_a 19.154
_cell_length_b 14.552
_cell_length_c 19.35
_cell_angle_alpha 90
_cell_angle_beta 95.73
_cell_angle_gamma 90
_cell_formula_units_Z 8
loop_
_atom_type_symbol
_atom_type_radius_bond
C 0.68
H 0.23
N 0.68
O 0.68
loop_
_atom_site_label
_atom_site_type_symbol
_atom_site_fract_x
_atom_site_fract_y
_atom_site_fract_z
O1 O 0.0365(4) 0.2946(6) 0.3457(4)
O2 O 0.1067(4) 0.3980(6) 0.3881(4)
N1 N 0.0925(5) 0.3364(7) 0.3479(5)
C1 C 0.1396(5) 0.3100(7) 0.2976(5)
C2 C 0.1226(5) 0.2439(6) 0.2479(5)
C3 C 0.1685(4) 0.2184(6) 0.2011(4)
C4 C 0.2348(5) 0.2603(6) 0.2040(4)
C5 C 0.2519(5) 0.3273(6) 0.2559(5)
N2 N 0.3180(5) 0.3746(7) 0.2620(5)
O3 O 0.3271(4) 0.4384(6) 0.3020(4)
O4 O 0.3645(4) 0.3467(6) 0.2274(4)
C6 C 0.2037(5) 0.3515(6) 0.3013(4)
N3 N 0.2786(4) 0.2354(5) 0.1570(4)
N4 N 0.2558(3) 0.1746(5) 0.1036(4)
C7 C 0.3016(4) 0.1554(6) 0.0618(4)
C8 C 0.3760(4) 0.1879(7) 0.0658(5)
C9 C 0.4001(4) 0.1544(7) -0.0028(5)
C10 C 0.3565(2) 0.0722(6) -0.0224(4)
C11 C 0.2844(4) 0.0941(6) 0.0006(4)
C12 C 0.2378(4) 0.0129(6) 0.0147(5)
C13 C 0.1999(5) -0.0341(7) -0.0497(5)
C14 C 0.1310(7) 0.0101(10) -0.0736(7)
O5 O 0.1153(3) 0.0842(7) -0.0547(6)
O6 O 0.0939(5) -0.0384(7) -0.1192(5)
C15 C 0.0242(8) -0.0052(16) -0.1444(10)
C16 C -0.0267(8) -0.0577(11) -0.123(1)
C17 C 0.1786(7) -0.1293(9) -0.0295(8)
O7 O 0.1997(4) -0.1969(7) -0.0592(6)
O8 O 0.1404(5) -0.1310(5) 0.0193(4)
C18 C 0.1181(11) -0.2226(10) 0.0405(10)
C19 C 0.0612(8) -0.2141(10) 0.0749(11)
C20 C 0.2440(7) -0.0370(12) -0.1127(8)
C21 C 0.3054(7) -0.0337(9) -0.1206(8)
C22 C 0.3607(4) 0.0360(7) -0.0959(5)
C23 C 0.4337(6) 0.0039(8) -0.1067(6)
C24 C 0.4395(7) -0.0206(9) -0.1820(6)
C25 C 0.3796(9) -0.071(1) -0.2150(8)
C26 C 0.3221(9) -0.0763(10) -0.1877(7)
H1 H 0.0776(5) 0.2146(6) 0.2460(5)
H2 H 0.1551(4) 0.1724(6) 0.1668(4)
H3 H 0.2154(5) 0.3978(6) 0.3359(4)
H4 H 0.3255(4) 0.2593(5) 0.1602(4)
H5 H 0.3784(4) 0.2537(7) 0.0690(5)
H6 H 0.4038(4) 0.1613(7) 0.1049(5)
H7 H 0.4490(4) 0.1382(7) 0.0033(5)
H8 H 0.3927(4) 0.2010(7) -0.0378(5)
H9 H 0.3747(4) 0.0178(6) 0.0010(4)
H10 H 0.2547(4) 0.1223(6) -0.0364(4)
H11 H 0.2668(4) -0.0323(6) 0.0397(5)
H12 H 0.2029(4) 0.0342(6) 0.0432(5)
H13 H 0.0196(8) -0.0033(16) -0.1942(10)
H14 H 0.0190(8) 0.0557(16) -0.1265(10)
H15 H -0.0748(8) -0.0394(11) -0.1337(10)
H16 H -0.0109(8) -0.0400(11) -0.0763(10)
H17 H -0.0230(8) -0.1231(11) -0.1276(10)
H18 H 0.1554(11) -0.2504(10) 0.0701(10)
H19 H 0.1071(11) -0.2603(10) 0.0002(10)
H20 H 0.0365(8) -0.2601(10) 0.0983(11)
H21 H 0.0289(8) -0.1676(12) 0.0568(11)
H22 H 0.0967(8) -0.1868(10) 0.1070(11)
H23 H 0.2228(7) 0.0096(12) -0.1431(8)
H24 H 0.2320(7) -0.0965(12) -0.1316(8)
H25 H 0.3110(7) -0.0599(9) -0.0749(8)
H26 H 0.3499(4) 0.0882(7) -0.1254(5)
H27 H 0.4664(6) 0.0522(8) -0.0932(6)
H28 H 0.4448(6) -0.0493(8) -0.0784(6)
H29 H 0.4807(7) -0.0576(9) -0.1842(6)
H30 H 0.4441(7) 0.0353(6) -0.2075(6)
H31 H 0.3838(9) -0.1013(10) -0.2584(8)
H32 H 0.2854(9) -0.1117(10) -0.2125(7)
#END
