
#######################################################################
#
#                 Cambridge Crystallographic Data Centre
#                                CCDC
#
#######################################################################
#
# If this CIF has been generated from an entry in the Cambridge
# Structural Database, then it will include bibliographic, chemical,
# crystal, experimental, refinement or atomic coordinate data resulting
# from the CCDC's data processing and validation procedures.
#
#######################################################################

data_CSD_CIF_QAYVIY
_audit_creation_date 2017-08-31
_audit_creation_method CSD-ConQuest-V1
_database_code_CSD QAYVIY
_database_code_depnum_ccdc_archive 'CCDC 1504100'
_chemical_formula_sum 'C13 H11 N3 O3'
_chemical_formula_moiety
;
C13 H11 N3 O3
;
_journal_coden_Cambridge 1147
_journal_volume 17
_journal_year 2017
_journal_page_first 5065
_journal_name_full 'Cryst.Growth Des. '
loop_
_publ_author_name
"M.A.Solomos"
"T.A.Watts"
"J.A.Swift"
_chemical_name_systematic
;
1-(2-nitrophenyl)-3-phenylurea
;
_chemical_melting_point 436.15
_cell_volume   1175.618
_exptl_crystal_colour 'colorless'
_exptl_crystal_density_diffrn 1.453
_exptl_special_details
;
Melting point range 436.15-439.75K
beta polymorph

;
_exptl_crystal_description 'needle'
_exptl_crystal_preparation 'ethanol'
_diffrn_ambient_temperature 173
#These two values have been output from a single CSD field.
_refine_ls_R_factor_gt 0.0426
_refine_ls_wR_factor_gt 0.0426
_symmetry_cell_setting monoclinic
_symmetry_space_group_name_H-M 'P 21/c'
_symmetry_Int_Tables_number 14
loop_
_symmetry_equiv_pos_site_id
_symmetry_equiv_pos_as_xyz
1 x,y,z
2 -x,1/2+y,1/2-z
3 -x,-y,-z
4 x,-1/2-y,-1/2+z
_cell_length_a 4.6245(1)
_cell_length_b 20.3783(8)
_cell_length_c 12.631
_cell_angle_alpha 90
_cell_angle_beta 99.020(4)
_cell_angle_gamma 90
_cell_formula_units_Z 4
loop_
_atom_type_symbol
_atom_type_radius_bond
C 0.68
H 0.23
N 0.68
O 0.68
loop_
_atom_site_label
_atom_site_type_symbol
_atom_site_fract_x
_atom_site_fract_y
_atom_site_fract_z
O1 O 0.4504(2) 0.60893(5) 0.56504(8)
N1 N 0.0469(3) 0.56937(6) 0.62889(9)
O2 O 0.0935(3) 0.56308(6) 0.95371(8)
O3 O -0.2068(2) 0.58001(6) 0.80638(8)
N2 N 0.0051(3) 0.65708(6) 0.5139(1)
N3 N 0.0130(3) 0.55422(6) 0.85722(10)
C1 C 0.1855(3) 0.61154(7) 0.56845(10)
C2 C 0.3758(3) 0.47572(7) 0.64403(11)
H1 H 0.38580 0.47950 0.56970
C3 C 0.1991(3) 0.51915(7) 0.69109(11)
C4 C 0.3385(3) 0.74768(8) 0.49246(12)
H2 H 0.42250 0.74410 0.56580
C5 C 0.5364(3) 0.42731(7) 0.70393(12)
H3 H 0.65740 0.39880 0.67050
C6 C 0.1114(3) 0.70594(7) 0.44893(12)
C7 C 0.1870(3) 0.51069(7) 0.80053(11)
C8 C 0.3457(3) 0.46162(8) 0.86116(11)
H4 H 0.33250 0.45680 0.93510
C9 C 0.5221(3) 0.42010(8) 0.81287(12)
H5 H 0.63280 0.38690 0.85360
C10 C -0.0161(3) 0.71240(8) 0.34243(13)
H6 H -0.17260 0.68430 0.31330
C11 C 0.4412(3) 0.79482(8) 0.42728(14)
H7 H 0.59790 0.82290 0.45610
C12 C 0.0856(4) 0.76006(9) 0.27827(13)
H8 H -0.00250 0.76460 0.20550
C13 C 0.3154(4) 0.80087(9) 0.32048(15)
H9 H 0.38650 0.83290 0.27630
H10 H -0.177(4) 0.6518(9) 0.5117(14)
H11 H -0.126(5) 0.5783(10) 0.6360(15)
#END
