
#######################################################################
#
#                 Cambridge Crystallographic Data Centre
#                                CCDC
#
#######################################################################
#
# If this CIF has been generated from an entry in the Cambridge
# Structural Database, then it will include bibliographic, chemical,
# crystal, experimental, refinement or atomic coordinate data resulting
# from the CCDC's data processing and validation procedures.
#
#######################################################################

data_CSD_CIF_QAZCAW
_audit_creation_date 2006-02-15
_audit_creation_method CSD-ConQuest-V1
_database_code_CSD QAZCAW
_database_code_depnum_ccdc_archive 'CCDC 289193'
_chemical_formula_sum 'C12 H13 N1 O2'
_chemical_formula_moiety
;
C12 H13 N1 O2
;
_journal_coden_Cambridge 1336
_journal_volume 7
_journal_year 2005
_journal_page_first 4285
_journal_name_full 'Org.Lett. '
loop_
_publ_author_name
"Lin Dong"
"Yan-Jun Xu"
"Lin-Feng Cun"
"Xin Cui"
"Ai-Qiao Mi"
"Yao-Zhong Jiang"
"Liu-Zhu Gong"
_chemical_name_systematic
;
1-Nitro-6-phenylcyclohexene
;
_chemical_melting_point 344.45
_cell_volume   1079.528
_exptl_crystal_density_diffrn 1.25
_exptl_special_details
;
Melting point range 344.45-345.15K

;
_diffrn_ambient_temperature 290
#These two values have been output from a single CSD field.
_refine_ls_R_factor_gt 0.0327
_refine_ls_wR_factor_gt 0.0327
_symmetry_cell_setting orthorhombic
_symmetry_space_group_name_H-M 'P 21 21 21'
_symmetry_Int_Tables_number 19
loop_
_symmetry_equiv_pos_site_id
_symmetry_equiv_pos_as_xyz
1 x,y,z
2 1/2-x,-y,1/2+z
3 -x,1/2+y,1/2-z
4 1/2+x,1/2-y,-z
_cell_length_a 6.1206(5)
_cell_length_b 12.592(1)
_cell_length_c 14.007(1)
_cell_angle_alpha 90
_cell_angle_beta 90
_cell_angle_gamma 90
_cell_formula_units_Z 4
loop_
_atom_type_symbol
_atom_type_radius_bond
C 0.68
H 0.23
N 0.68
O 0.68
loop_
_atom_site_label
_atom_site_type_symbol
_atom_site_fract_x
_atom_site_fract_y
_atom_site_fract_z
O1 O 0.0177(4) 0.67786(16) 0.55821(17)
O2 O 0.3139(4) 0.65402(15) 0.63662(14)
N1 N 0.2062(4) 0.64631(14) 0.56434(18)
C1 C 0.5209(3) 0.54231(14) 0.49911(13)
H1 H 0.61220 0.59070 0.53670
C2 C 0.6351(4) 0.52359(19) 0.40271(15)
H2 H 0.69320 0.59040 0.37940
H3 H 0.75670 0.47520 0.41180
C3 C 0.4816(4) 0.47800(19) 0.32927(14)
H4 H 0.56110 0.46310 0.27090
H5 H 0.42070 0.41180 0.35270
C4 C 0.3001(4) 0.5552(2) 0.30894(16)
H6 H 0.35420 0.61040 0.26680
H7 H 0.18300 0.51840 0.27610
C5 C 0.2110(4) 0.60539(17) 0.39756(18)
H8 H 0.08250 0.64460 0.39350
C6 C 0.3077(4) 0.59614(15) 0.48092(14)
C7 C 0.4969(3) 0.43953(13) 0.55520(11)
C8 C 0.3163(4) 0.37487(15) 0.54673(12)
H9 H 0.20120 0.39560 0.50760
C9 C 0.3033(4) 0.27948(15) 0.59557(14)
H10 H 0.18110 0.23630 0.58850
C10 C 0.4715(4) 0.24887(16) 0.65450(14)
H11 H 0.46280 0.18510 0.68780
C11 C 0.6511(4) 0.31197(18) 0.66416(14)
H12 H 0.76450 0.29130 0.70420
C12 C 0.6649(4) 0.40663(16) 0.61445(13)
H13 H 0.78870 0.44880 0.62090
#END
