
#######################################################################
#
#                 Cambridge Crystallographic Data Centre
#                                CCDC
#
#######################################################################
#
# If this CIF has been generated from an entry in the Cambridge
# Structural Database, then it will include bibliographic, chemical,
# crystal, experimental, refinement or atomic coordinate data resulting
# from the CCDC's data processing and validation procedures.
#
#######################################################################

data_CSD_CIF_QEBCUY
_audit_creation_date 2017-09-01
_audit_creation_method CSD-ConQuest-V1
_database_code_CSD QEBCUY
_database_code_depnum_ccdc_archive 'CCDC 1529984'
_chemical_formula_sum 'C7 H11 N7 O6'
_chemical_formula_moiety
;
C7 H11 N7 O6
;
_journal_coden_Cambridge 1678
_journal_volume 53
_journal_year 2017
_journal_page_first 702
_journal_name_full 'Chemistry of Heterocyclic Compounds '
loop_
_publ_author_name
"I.N.Zyuzin"
"I.L.Dalinger"
"K.Yu.Suponitsky"
_chemical_name_systematic
;
1-[2,2-bis(methoxy-NNO-azoxy)ethyl]-4-nitro-1H-pyrazole
;
_cell_volume   1211.828
_exptl_crystal_colour 'colorless'
_exptl_crystal_density_diffrn 1.585
_exptl_crystal_description 'prism'
_diffrn_ambient_temperature 100
#These two values have been output from a single CSD field.
_refine_ls_R_factor_gt 0.0404
_refine_ls_wR_factor_gt 0.0404
_symmetry_cell_setting monoclinic
_symmetry_space_group_name_H-M 'P 21/c'
_symmetry_Int_Tables_number 14
loop_
_symmetry_equiv_pos_site_id
_symmetry_equiv_pos_as_xyz
1 x,y,z
2 -x,1/2+y,1/2-z
3 -x,-y,-z
4 x,-1/2-y,-1/2+z
_cell_length_a 9.9434(8)
_cell_length_b 14.1356(12)
_cell_length_c 9.3125(8)
_cell_angle_alpha 90
_cell_angle_beta 112.208(2)
_cell_angle_gamma 90
_cell_formula_units_Z 4
loop_
_atom_type_symbol
_atom_type_radius_bond
C 0.68
H 0.23
N 0.68
O 0.68
loop_
_atom_site_label
_atom_site_type_symbol
_atom_site_fract_x
_atom_site_fract_y
_atom_site_fract_z
O1 O -0.23026(10) 0.59652(7) -0.14818(11)
O2 O -0.44368(11) 0.53353(8) -0.21123(12)
O3 O -0.05568(10) 0.17064(7) 0.38236(11)
O4 O -0.19705(11) 0.08092(7) 0.14426(11)
O5 O 0.24083(11) 0.15443(7) 0.30169(12)
O6 O 0.40946(10) 0.24041(7) 0.53107(11)
N1 N -0.11251(11) 0.39746(7) 0.19227(12)
N2 N -0.24450(12) 0.35498(8) 0.15780(14)
N3 N -0.31430(12) 0.53899(8) -0.12806(13)
N4 N -0.04414(11) 0.18944(7) 0.25570(12)
N5 N -0.10867(12) 0.14971(8) 0.12493(13)
N6 N 0.20258(12) 0.23028(7) 0.34547(13)
N7 N 0.27577(11) 0.28124(8) 0.46187(13)
C1 C -0.11687(13) 0.46954(8) 0.09774(14)
H1 H -0.03850 0.50890 0.10030
C2 C -0.25838(13) 0.47449(8) -0.00360(14)
C3 C -0.33406(14) 0.40273(9) 0.03752(16)
H2 H -0.43490 0.39020 -0.01350
C4 C 0.01567(13) 0.35780(9) 0.31122(14)
H3 H -0.00380 0.34520 0.40610
H4 H 0.09720 0.40320 0.33760
C5 C 0.05576(13) 0.26604(8) 0.25130(14)
H5 H 0.04780 0.27540 0.14190
C6 C -0.2867(2) 0.04643(13) -0.00755(19)
H6 H -0.35410 -0.00140 0.00220
H7 H -0.22500 0.01810 -0.05690
H8 H -0.34190 0.09910 -0.07120
C7 C 0.49279(16) 0.29493(12) 0.66611(19)
H9 H 0.59080 0.26840 0.71330
H10 H 0.44540 0.29280 0.74120
H11 H 0.49880 0.36070 0.63570
#END
