
#######################################################################
#
#                 Cambridge Crystallographic Data Centre
#                                CCDC
#
#######################################################################
#
# If this CIF has been generated from an entry in the Cambridge
# Structural Database, then it will include bibliographic, chemical,
# crystal, experimental, refinement or atomic coordinate data resulting
# from the CCDC's data processing and validation procedures.
#
#######################################################################

data_CSD_CIF_QEBDEJ
_audit_creation_date 2017-09-01
_audit_creation_method CSD-ConQuest-V1
_database_code_CSD QEBDEJ
_database_code_depnum_ccdc_archive 'CCDC 1529986'
_chemical_formula_sum 'C7 H10 N8 O8'
_chemical_formula_moiety
;
C7 H10 N8 O8
;
_journal_coden_Cambridge 1678
_journal_volume 53
_journal_year 2017
_journal_page_first 702
_journal_name_full 'Chemistry of Heterocyclic Compounds '
loop_
_publ_author_name
"I.N.Zyuzin"
"I.L.Dalinger"
"K.Yu.Suponitsky"
_chemical_name_systematic
;
1-[2,2-bis(methoxy-NNO-azoxy)ethyl]-3,4-dinitro-1H-pyrazole
;
_cell_volume   1358.266
_exptl_crystal_colour 'colorless'
_exptl_crystal_density_diffrn 1.634
_exptl_crystal_description 'plate'
_diffrn_ambient_temperature 100
#These two values have been output from a single CSD field.
_refine_ls_R_factor_gt 0.0762
_refine_ls_wR_factor_gt 0.0762
_symmetry_cell_setting monoclinic
_symmetry_space_group_name_H-M 'P 21/c'
_symmetry_Int_Tables_number 14
loop_
_symmetry_equiv_pos_site_id
_symmetry_equiv_pos_as_xyz
1 x,y,z
2 -x,1/2+y,1/2-z
3 -x,-y,-z
4 x,-1/2-y,-1/2+z
_cell_length_a 11.369(5)
_cell_length_b 12.950(6)
_cell_length_c 9.300(4)
_cell_angle_alpha 90
_cell_angle_beta 97.254(7)
_cell_angle_gamma 90
_cell_formula_units_Z 4
loop_
_atom_type_symbol
_atom_type_radius_bond
C 0.68
H 0.23
N 0.68
O 0.68
loop_
_atom_site_label
_atom_site_type_symbol
_atom_site_fract_x
_atom_site_fract_y
_atom_site_fract_z
O1 O 0.1696(2) 0.4166(2) 0.0595(3)
O2 O 0.0368(2) 0.5066(2) 0.1571(3)
O3 O 0.0814(2) 0.5882(2) 0.4306(3)
O4 O 0.1664(3) 0.7376(2) 0.4718(3)
O5 O 0.5158(2) 0.8699(2) 0.3701(3)
O6 O 0.3265(2) 0.9654(2) 0.2860(3)
O7 O 0.6209(2) 0.9143(2) 0.0433(3)
O8 O 0.8152(2) 0.8299(2) 0.1259(3)
N1 N 0.4029(2) 0.6375(2) 0.2222(3)
N2 N 0.3435(3) 0.6767(2) 0.3278(3)
N3 N 0.1389(3) 0.4895(3) 0.1328(3)
N4 N 0.1565(3) 0.6533(3) 0.4109(3)
N5 N 0.4620(3) 0.8582(2) 0.2431(3)
N6 N 0.3645(3) 0.9016(2) 0.1855(3)
N7 N 0.6253(3) 0.8301(3) 0.1131(3)
N8 N 0.7184(3) 0.7775(2) 0.1629(3)
C1 C 0.3388(3) 0.5672(3) 0.1388(4)
H1 H 0.36250 0.53090 0.05850
C2 C 0.2329(3) 0.5585(3) 0.1929(4)
C3 C 0.2397(3) 0.6286(3) 0.3086(4)
C4 C 0.5211(3) 0.6766(3) 0.2080(4)
H2 H 0.56090 0.63040 0.14450
H3 H 0.56940 0.67870 0.30440
C5 C 0.5106(3) 0.7854(3) 0.1430(4)
H4 H 0.45560 0.78290 0.05030
C6 C 0.2141(3) 1.0099(3) 0.2227(4)
H5 H 0.19050 1.06430 0.28650
H6 H 0.15320 0.95600 0.21130
H7 H 0.22310 1.03950 0.12770
C7 C 0.9215(3) 0.7733(3) 0.1825(4)
H8 H 0.99170 0.81290 0.16490
H9 H 0.92200 0.70620 0.13400
H10 H 0.92230 0.76280 0.28700
#END
