
#######################################################################
#
#                 Cambridge Crystallographic Data Centre
#                                CCDC
#
#######################################################################
#
# If this CIF has been generated from an entry in the Cambridge
# Structural Database, then it will include bibliographic, chemical,
# crystal, experimental, refinement or atomic coordinate data resulting
# from the CCDC's data processing and validation procedures.
#
#######################################################################

data_CSD_CIF_QEBWUP
_audit_creation_date 2001-05-08
_audit_creation_method CSD-ConQuest-V1
_database_code_CSD QEBWUP
_chemical_formula_sum 'C11 H9 N3 O6'
_chemical_formula_moiety
;
C11 H9 N3 O6
;
_journal_coden_Cambridge 35
_journal_volume 64
_journal_year 1999
_journal_page_first 8702
_journal_name_full 'J.Org.Chem. '
loop_
_publ_author_name
"G.Guichard"
"V.Semetey"
"C.Didierjean"
"A.Aubry"
"J.-P.Briand"
"M.Rodriguez"
_chemical_name_systematic
;
O-Succinimidyl-(2-nitrophenyl)carbamate
;
_chemical_melting_point 439.15
_cell_volume   1204.881
_exptl_crystal_colour 'light yellow'
_exptl_crystal_density_diffrn 1.539
_exptl_special_details
;
Melting point range 439.15-440.15K
The space group is P21/c, not P21/a

;
_exptl_crystal_preparation 'ethyl acetate'
_diffrn_ambient_temperature ?
_diffrn_special_details
;
The study was carried out at room temperature,in the range 283-303K

;
#These two values have been output from a single CSD field.
_refine_ls_R_factor_gt 0.0368
_refine_ls_wR_factor_gt 0.0368
_symmetry_cell_setting monoclinic
_symmetry_space_group_name_H-M 'P 21/c'
_symmetry_Int_Tables_number 14
loop_
_symmetry_equiv_pos_site_id
_symmetry_equiv_pos_as_xyz
1 x,y,z
2 -x,1/2+y,1/2-z
3 -x,-y,-z
4 x,-1/2-y,-1/2+z
_cell_length_a 12.530(1)
_cell_length_b 10.077(2)
_cell_length_c 9.572(2)
_cell_angle_alpha 90
_cell_angle_beta 94.50(1)
_cell_angle_gamma 90
_cell_formula_units_Z 4
loop_
_atom_type_symbol
_atom_type_radius_bond
C 0.68
H 0.23
N 0.68
O 0.68
loop_
_atom_site_label
_atom_site_type_symbol
_atom_site_fract_x
_atom_site_fract_y
_atom_site_fract_z
O1 O 0.7967(1) -0.1829(2) 1.6083(2)
O2 O 0.7139(1) -0.0606(2) 1.4541(2)
N1 N 0.7933(1) -0.1225(1) 1.4981(2)
C1 C 0.8894(1) -0.1195(2) 1.4194(2)
C2 C 0.9798(2) -0.1800(2) 1.4826(2)
C3 C 1.0742(2) -0.1774(2) 1.4187(2)
C4 C 1.0784(2) -0.1124(2) 1.2927(2)
C5 C 0.9887(1) -0.0516(2) 1.2291(2)
C6 C 0.8914(1) -0.0556(2) 1.2900(2)
N2 N 0.8005(1) 0.0061(1) 1.2238(1)
C7 C 0.7778(1) 0.0104(2) 1.0844(2)
O3 O 0.8289(1) -0.0233(1) 0.9914(1)
O4 O 0.6758(1) 0.0675(1) 1.0626(1)
N3 N 0.6365(1) 0.0571(1) 0.9241(1)
C8 C 0.6398(1) 0.1612(2) 0.8320(2)
O5 O 0.6807(1) 0.2670(1) 0.8613(1)
C9 C 0.5845(2) 0.1121(2) 0.6972(2)
C10 C 0.5518(2) -0.0304(2) 0.7239(2)
C11 C 0.5871(1) -0.0581(2) 0.8740(2)
O6 O 0.5780(1) -0.1549(2) 0.9452(2)
H1 H 0.9724(16) -0.2200(2) 1.5710(2)
H2 H 1.1378(19) -0.2160(2) 1.4620(2)
H3 H 1.1468(19) -0.1080(2) 1.2480(2)
H4 H 0.9926(16) -0.0060(2) 1.1400(2)
H5 H 0.7409(11) 0.0268(18) 1.2822(17)
H6 H 0.6354(18) 0.1190(2) 0.6240(2)
H7 H 0.5248(19) 0.1610(2) 0.6820(2)
H8 H 0.4770(2) -0.0470(2) 0.7110(2)
H9 H 0.5842(18) -0.0910(2) 0.6650(2)
#END
