
#######################################################################
#
#                 Cambridge Crystallographic Data Centre
#                                CCDC
#
#######################################################################
#
# If this CIF has been generated from an entry in the Cambridge
# Structural Database, then it will include bibliographic, chemical,
# crystal, experimental, refinement or atomic coordinate data resulting
# from the CCDC's data processing and validation procedures.
#
#######################################################################

data_CSD_CIF_QECKIU
_audit_creation_date 2012-11-07
_audit_creation_method CSD-ConQuest-V1
_database_code_CSD QECKIU
_database_code_depnum_ccdc_archive 'CCDC 899632'
_chemical_formula_sum 'C13 H10 N2 O4'
_chemical_formula_moiety
;
C13 H10 N2 O4
;
_journal_coeditor_code "IUCr YK2068"
_journal_coden_Cambridge 1370
_journal_volume 68
_journal_year 2012
_journal_page_first o2622
_journal_name_full 'Acta Crystallogr.,Sect.E:Struct.Rep.Online '
loop_
_publ_author_name
"M.A.Shaheen"
"M.N.Tahir"
"R.M.Irfan"
"S.Iqbal"
"S.Ahmad"
_chemical_name_systematic
;
5-Hydroxy-2-((E)-[(3-nitrophenyl)iminio]methyl)phenolate
;
_chemical_name_common
;
5-Hydroxy-2-(((3-nitrophenyl)iminio)methyl)phenolate
;
_cell_volume   2384.921
_exptl_crystal_colour 'orange'
_exptl_crystal_density_diffrn 1.438
_exptl_crystal_description 'prism'
_diffrn_ambient_temperature 296
#These two values have been output from a single CSD field.
_refine_ls_R_factor_gt 0.0384
_refine_ls_wR_factor_gt 0.0384
_symmetry_cell_setting monoclinic
_symmetry_space_group_name_H-M 'C 2/c'
_symmetry_Int_Tables_number 15
loop_
_symmetry_equiv_pos_site_id
_symmetry_equiv_pos_as_xyz
1 x,y,z
2 -x,y,1/2-z
3 1/2+x,1/2+y,z
4 1/2-x,1/2+y,1/2-z
5 -x,-y,-z
6 x,-y,-1/2+z
7 -1/2-x,-1/2-y,-z
8 -1/2+x,-1/2-y,-1/2+z
_cell_length_a 12.8518(9)
_cell_length_b 7.8501(5)
_cell_length_c 24.1316(18)
_cell_angle_alpha 90
_cell_angle_beta 101.593(3)
_cell_angle_gamma 90
_cell_formula_units_Z 8
loop_
_atom_type_symbol
_atom_type_radius_bond
C 0.68
H 0.23
N 0.68
O 0.68
loop_
_atom_site_label
_atom_site_type_symbol
_atom_site_fract_x
_atom_site_fract_y
_atom_site_fract_z
O1 O 0.15456(11) -0.19142(18) 0.02818(6)
O2 O 0.20746(12) 0.03661(18) -0.00681(6)
O3 O 0.62612(10) 0.43187(15) 0.22353(5)
O4 O 0.76284(11) 0.95669(16) 0.17361(5)
N1 N 0.21457(12) -0.0694(2) 0.03061(7)
N2 N 0.49661(11) 0.26941(19) 0.14644(6)
C1 C 0.43511(13) 0.1203(2) 0.13474(7)
C2 C 0.35653(14) 0.1006(2) 0.08681(7)
C3 C 0.29944(13) -0.0494(2) 0.08125(7)
C4 C 0.31558(15) -0.1781(2) 0.12040(8)
C5 C 0.39528(16) -0.1569(3) 0.16724(8)
C6 C 0.45478(14) -0.0106(3) 0.17409(7)
C7 C 0.50024(13) 0.4025(2) 0.11385(7)
C8 C 0.56478(13) 0.5432(2) 0.13102(7)
C9 C 0.62972(13) 0.5521(2) 0.18714(7)
C10 C 0.69554(13) 0.6942(2) 0.20049(7)
C11 C 0.69865(13) 0.8209(2) 0.16195(7)
C12 C 0.63360(14) 0.8146(2) 0.10705(7)
C13 C 0.56882(14) 0.6792(2) 0.09292(7)
H1 H 0.34268 0.18528 0.05936
H2 H 0.53731 0.27396 0.17938
H3 H 0.27414 -0.27611 0.11547
H4 H 0.79725 0.94912 0.20604
H5 H 0.40893 -0.24223 0.19446
H6 H 0.50928 0.00111 0.20566
H7 H 0.45787 0.40280 0.07774
H8 H 0.73819 0.70276 0.23640
H9 H 0.63551 0.90201 0.08126
H10 H 0.52555 0.67518 0.05708
#END
