
#######################################################################
#
#                 Cambridge Crystallographic Data Centre
#                                CCDC
#
#######################################################################
#
# If this CIF has been generated from an entry in the Cambridge
# Structural Database, then it will include bibliographic, chemical,
# crystal, experimental, refinement or atomic coordinate data resulting
# from the CCDC's data processing and validation procedures.
#
#######################################################################

data_CSD_CIF_QECLUH
_audit_creation_date 2012-11-07
_audit_creation_method CSD-ConQuest-V1
_database_code_CSD QECLUH
_database_code_depnum_ccdc_archive 'CCDC 899639'
_chemical_formula_sum 'C18 H13 N3 O5'
_chemical_formula_moiety
;
C18 H13 N3 O5
;
_journal_coeditor_code "IUCr GK2492"
_journal_coden_Cambridge 1370
_journal_volume 68
_journal_year 2012
_journal_page_first o2630
_journal_name_full 'Acta Crystallogr.,Sect.E:Struct.Rep.Online '
loop_
_publ_author_name
"M.Pekdemir"
"S.Isik"
"S.Gumus"
"E.Agar"
"S.O.Yildirim"
"R.J.Butcher"
_chemical_name_systematic
;
2-Methyl-3-nitro-N-((E)-[5-(4-nitrophenyl)furan-2-yl]methylidene)aniline
;
_chemical_name_common
;
2-Methyl-3-nitro-N-((5-(4-nitrophenyl)-2-furyl)methylene)aniline
;
_cell_volume   1569.941
_exptl_crystal_colour 'light yellow'
_exptl_crystal_density_diffrn 1.486
_exptl_crystal_description 'block'
_diffrn_ambient_temperature 123
#These two values have been output from a single CSD field.
_refine_ls_R_factor_gt 0.0423
_refine_ls_wR_factor_gt 0.0423
_symmetry_cell_setting monoclinic
_symmetry_space_group_name_H-M 'P 21/c'
_symmetry_Int_Tables_number 14
loop_
_symmetry_equiv_pos_site_id
_symmetry_equiv_pos_as_xyz
1 x,y,z
2 -x,1/2+y,1/2-z
3 -x,-y,-z
4 x,-1/2-y,-1/2+z
_cell_length_a 10.9026(3)
_cell_length_b 10.2798(3)
_cell_length_c 14.2962(3)
_cell_angle_alpha 90
_cell_angle_beta 101.529(2)
_cell_angle_gamma 90
_cell_formula_units_Z 4
loop_
_atom_type_symbol
_atom_type_radius_bond
C 0.68
H 0.23
N 0.68
O 0.68
loop_
_atom_site_label
_atom_site_type_symbol
_atom_site_fract_x
_atom_site_fract_y
_atom_site_fract_z
N1 N -0.22774(12) 0.22828(14) -0.24867(10)
N2 N 0.28795(11) 0.40005(12) 0.30426(9)
N3 N 0.26983(13) 0.41136(13) 0.64618(9)
O1 O -0.32515(11) 0.21084(14) -0.21964(10)
O2 O -0.21821(12) 0.20872(15) -0.33171(9)
O3 O 0.20668(9) 0.40126(10) 0.10398(7)
O4 O 0.15778(13) 0.43153(18) 0.63095(9)
O5 O 0.33489(12) 0.41218(14) 0.72703(8)
C1 C -0.11759(13) 0.27566(15) -0.18146(10)
C2 C -0.01288(15) 0.31134(16) -0.21649(11)
H1 H -0.01210 0.30410 -0.28120
C3 C 0.09029(14) 0.35784(16) -0.15327(10)
H2 H 0.16110 0.38320 -0.17560
C4 C 0.08916(13) 0.36719(14) -0.05598(10)
C5 C -0.01791(13) 0.32932(14) -0.02242(10)
H3 H -0.01870 0.33450 0.04240
C6 C -0.12221(13) 0.28430(14) -0.08556(11)
H4 H -0.19400 0.26030 -0.06410
C7 C 0.20003(13) 0.41645(14) 0.00792(10)
C8 C 0.30432(14) 0.47801(15) -0.00873(10)
H5 H 0.32170 0.49990 -0.06790
C9 C 0.38082(14) 0.50202(15) 0.08172(10)
H6 H 0.45850 0.54280 0.09360
C10 C 0.31886(13) 0.45401(14) 0.14813(10)
C11 C 0.35804(13) 0.44480(14) 0.2500(1)
H7 H 0.43820 0.47270 0.27780
C12 C 0.34377(13) 0.38033(14) 0.40136(10)
C13 C 0.46195(14) 0.32360(15) 0.42596(11)
H8 H 0.50560 0.30280 0.37830
C14 C 0.51519(14) 0.29778(15) 0.52044(11)
H9 H 0.59450 0.26080 0.53610
C15 C 0.45026(14) 0.32705(15) 0.59109(10)
H10 H 0.48490 0.30990 0.65480
C16 C 0.33171(13) 0.38282(14) 0.56546(10)
C17 C 0.27330(13) 0.41176(14) 0.47145(10)
C18 C 0.14791(14) 0.47584(16) 0.43966(11)
H11 H 0.14860 0.55960 0.46940
H12 H 0.08410 0.42270 0.45770
H13 H 0.13100 0.48610 0.37150
#END
