
#######################################################################
#
#                 Cambridge Crystallographic Data Centre
#                                CCDC
#
#######################################################################
#
# If this CIF has been generated from an entry in the Cambridge
# Structural Database, then it will include bibliographic, chemical,
# crystal, experimental, refinement or atomic coordinate data resulting
# from the CCDC's data processing and validation procedures.
#
#######################################################################

data_CSD_CIF_QECPAS
_audit_creation_date 2017-09-04
_audit_creation_method CSD-ConQuest-V1
_database_code_CSD QECPAS
_database_code_depnum_ccdc_archive 'CCDC 1572392'
_chemical_formula_sum 'C4 H5 N9 O1'
_chemical_formula_moiety
;
C4 H5 N9 O1
;
_journal_coden_Cambridge 1078
_journal_year 2017
_journal_name_full 'CSD Communication(Private Communication) '
loop_
_publ_author_name
"qian wang"
_chemical_name_systematic
;
7-amino-N'-hydroxytetrazolo[1,5-b][1,2,4]triazine-6-carboximidamide
;
_cell_volume    748.792
_exptl_crystal_colour 'colorless'
_exptl_crystal_density_diffrn 1.731
_exptl_crystal_description 'block'
_diffrn_ambient_temperature 205
#These two values have been output from a single CSD field.
_refine_ls_R_factor_gt 0.0471
_refine_ls_wR_factor_gt 0.0471
_symmetry_cell_setting monoclinic
_symmetry_space_group_name_H-M 'P 21/n'
_symmetry_Int_Tables_number 14
loop_
_symmetry_equiv_pos_site_id
_symmetry_equiv_pos_as_xyz
1 x,y,z
2 1/2-x,1/2+y,1/2-z
3 -x,-y,-z
4 -1/2+x,-1/2-y,-1/2+z
_cell_length_a 10.653(2)
_cell_length_b 5.9702(12)
_cell_length_c 12.223(3)
_cell_angle_alpha 90
_cell_angle_beta 105.589(4)
_cell_angle_gamma 90
_cell_formula_units_Z 4
loop_
_atom_type_symbol
_atom_type_radius_bond
C 0.68
H 0.23
N 0.68
O 0.68
loop_
_atom_site_label
_atom_site_type_symbol
_atom_site_fract_x
_atom_site_fract_y
_atom_site_fract_z
O1 O 0.09739(16) 0.5488(2) 0.68621(13)
H1 H 0.06710 0.65910 0.71170
N1 N 0.43843(14) 0.7477(2) 0.42131(12)
N2 N 0.34827(14) 0.4146(2) 0.33074(12)
N3 N 0.27315(14) 0.3641(2) 0.39941(13)
N4 N 0.48481(15) 0.5831(3) 0.25661(13)
N5 N 0.36705(16) 0.8628(3) 0.57117(13)
H2 H 0.41920 0.97740 0.57860
H3 H 0.31820 0.84580 0.61730
N6 N 0.35557(16) 0.2880(3) 0.24012(13)
N7 N 0.43723(16) 0.3938(3) 0.19716(13)
N8 N 0.17936(16) 0.6215(3) 0.62103(14)
N9 N 0.13967(17) 0.2577(3) 0.54842(15)
H4 H 0.09060 0.22380 0.59250
H5 H 0.15390 0.15910 0.50070
C1 C 0.36209(17) 0.7155(3) 0.49016(15)
C2 C 0.27717(16) 0.5144(3) 0.47785(14)
C3 C 0.42647(17) 0.5947(3) 0.33950(15)
C4 C 0.19378(18) 0.4633(3) 0.55397(15)
#END
