
#######################################################################
#
#                 Cambridge Crystallographic Data Centre
#                                CCDC
#
#######################################################################
#
# If this CIF has been generated from an entry in the Cambridge
# Structural Database, then it will include bibliographic, chemical,
# crystal, experimental, refinement or atomic coordinate data resulting
# from the CCDC's data processing and validation procedures.
#
#######################################################################

data_CSD_CIF_QECWEA
_audit_creation_date 2001-05-08
_audit_creation_method CSD-ConQuest-V1
_database_code_CSD QECWEA
_database_code_depnum_ccdc_archive 'CCDC 135522'
_chemical_formula_sum 'C20 H27 N3 O6'
_chemical_formula_moiety
;
C20 H27 N3 O6
;
_journal_coden_Cambridge 179
_journal_volume 39
_journal_year 2000
_journal_page_first 2893
_journal_name_full 'Angew.Chem.,Int.Ed. '
loop_
_publ_author_name
"R.Fernandez"
"A.Ferrete"
"J.M.Lassaletta"
"J.M.Llera"
"A.Monge"
_chemical_name_systematic
;
N-(2-(3-methoxypent-3-yl)pyrrolidinyl)-2-oxo-azetidin-3-yl p-nitrobenzoate
;
_cell_volume   2120.089
_exptl_crystal_colour 'colorless'
_exptl_crystal_density_diffrn 1.27
_exptl_crystal_preparation 'diethyl ether/cyclohexane'
_diffrn_ambient_temperature 173
#These two values have been output from a single CSD field.
_refine_ls_R_factor_gt 0.0774
_refine_ls_wR_factor_gt 0.0774
_symmetry_cell_setting orthorhombic
_symmetry_space_group_name_H-M 'P 21 21 21'
_symmetry_Int_Tables_number 19
loop_
_symmetry_equiv_pos_site_id
_symmetry_equiv_pos_as_xyz
1 x,y,z
2 1/2-x,-y,1/2+z
3 -x,1/2+y,1/2-z
4 1/2+x,1/2-y,-z
_cell_length_a 7.557(2)
_cell_length_b 14.066(4)
_cell_length_c 19.945(5)
_cell_angle_alpha 90
_cell_angle_beta 90
_cell_angle_gamma 90
_cell_formula_units_Z 4
loop_
_atom_type_symbol
_atom_type_radius_bond
C 0.68
H 0.23
N 0.68
O 0.68
loop_
_atom_site_label
_atom_site_type_symbol
_atom_site_fract_x
_atom_site_fract_y
_atom_site_fract_z
O1 O -0.0042(10) 0.7429(6) 1.0114(4)
O2 O -0.1118(9) 0.5312(5) 1.0305(3)
O3 O -0.3430(12) 0.4332(6) 1.0360(4)
O4 O 0.4675(16) 0.1771(7) 1.1088(5)
O5 O 0.2511(16) 0.0953(5) 1.1527(4)
O6 O 0.2079(9) 0.7458(5) 0.7667(3)
N1 N -0.1603(11) 0.6775(6) 0.9203(5)
N2 N 0.3068(18) 0.1607(9) 1.1209(5)
C1 C -0.1041(16) 0.6892(7) 0.9836(7)
C2 C -0.2254(15) 0.6068(7) 1.0070(5)
H1 H -0.3204(15) 0.6260(7) 1.0392(5)
C3 C -0.2858(15) 0.5982(7) 0.9344(4)
H2 H -0.2541(15) 0.5372(7) 0.9128(4)
H3 H -0.4118(15) 0.6143(7) 0.9270(4)
C4 C -0.1896(22) 0.4464(9) 1.0416(5)
C5 C -0.1147(17) 0.2847(8) 1.0818(5)
H4 H -0.2377(17) 0.2707(8) 1.0826(5)
C6 C 0.0087(25) 0.2179(8) 1.1022(6)
H5 H -0.0293(25) 0.1579(8) 1.1187(6)
C7 C 0.1874(24) 0.2387(10) 1.0985(6)
C8 C -0.0541(20) 0.3719(8) 1.0602(5)
C9 C 0.2472(19) 0.3230(9) 1.0756(5)
H6 H 0.3709(19) 0.3344(9) 1.0725(5)
C10 C 0.1276(20) 0.3935(8) 1.0566(5)
H7 H 0.1673(20) 0.4540(8) 1.0417(5)
N3 N -0.1158(12) 0.7282(6) 0.8626(5)
C11 C -0.2716(17) 0.7861(8) 0.8403(6)
H8 H -0.3845(17) 0.7535(8) 0.8507(6)
H9 H -0.2715(17) 0.8497(8) 0.8615(6)
C12 C -0.2430(18) 0.7928(8) 0.7678(6)
H10 H -0.1656(18) 0.8477(8) 0.7576(6)
H11 H -0.3576(18) 0.8026(8) 0.7447(6)
C13 C -0.1588(14) 0.7034(9) 0.7434(5)
H12 H -0.0746(14) 0.7166(9) 0.7065(5)
H13 H -0.2490(14) 0.6577(9) 0.7274(5)
C14 C -0.0614(15) 0.6648(9) 0.8059(5)
H14 H -0.1061(15) 0.5993(9) 0.8153(5)
C15 C 0.1429(16) 0.6601(7) 0.7980(5)
C16 C 0.1832(16) 0.5820(7) 0.7467(5)
H15 H 0.1294(16) 0.5218(7) 0.7625(5)
H16 H 0.1260(16) 0.5989(7) 0.7037(5)
C17 C 0.2328(15) 0.6430(6) 0.8642(5)
H17 H 0.1868(15) 0.6900(6) 0.8968(5)
H18 H 0.3608(15) 0.6557(6) 0.8585(5)
C18 C 0.2121(15) 0.5435(6) 0.8950(5)
H19 H 0.2735(69) 0.5412(15) 0.9382(16)
H20 H 0.2634(73) 0.4961(8) 0.8646(16)
H21 H 0.0862(16) 0.5297(18) 0.9017(28)
C19 C 0.3767(15) 0.5654(8) 0.7343(5)
H22 H 0.4324(21) 0.5416(38) 0.7754(9)
H23 H 0.4329(21) 0.6252(11) 0.7210(27)
H24 H 0.3910(15) 0.5184(29) 0.6984(19)
C20 C 0.2294(15) 0.8292(7) 0.8075(5)
H25 H 0.3225(56) 0.8180(17) 0.8407(20)
H26 H 0.1178(27) 0.8433(24) 0.8305(23)
H27 H 0.2624(77) 0.8832(12) 0.7790(6)
#END
