
#######################################################################
#
#                 Cambridge Crystallographic Data Centre
#                                CCDC
#
#######################################################################
#
# If this CIF has been generated from an entry in the Cambridge
# Structural Database, then it will include bibliographic, chemical,
# crystal, experimental, refinement or atomic coordinate data resulting
# from the CCDC's data processing and validation procedures.
#
#######################################################################

data_CSD_CIF_QECZAZ
_audit_creation_date 2001-05-08
_audit_creation_method CSD-ConQuest-V1
_database_code_CSD QECZAZ
_database_code_depnum_ccdc_archive 'CCDC 155627'
_chemical_formula_sum 'C18 H22 N2 O3'
_chemical_formula_moiety
;
C18 H22 N2 O3
;
_journal_coden_Cambridge 24
_journal_volume 41
_journal_year 2000
_journal_page_first 8781
_journal_name_full 'Tetrahedron Lett. '
loop_
_publ_author_name
"N.Auzeil"
"A.Tomas"
"M.-B.Fleury"
"M.Largeron"
_chemical_name_systematic
;
N-Methyl-N-(tricyclopropylmethyl)-4-nitrobenzamide
;
_cell_volume    801.694
_exptl_crystal_density_diffrn 1.302
_diffrn_ambient_temperature ?
_diffrn_special_details
;
The study was carried out at room temperature,in the range 283-303K

;
#These two values have been output from a single CSD field.
_refine_ls_R_factor_gt 0.0403
_refine_ls_wR_factor_gt 0.0403
_symmetry_cell_setting triclinic
_symmetry_space_group_name_H-M 'P -1'
_symmetry_Int_Tables_number 2
loop_
_symmetry_equiv_pos_site_id
_symmetry_equiv_pos_as_xyz
1 x,y,z
2 -x,-y,-z
_cell_length_a 7.652(1)
_cell_length_b 10.335(1)
_cell_length_c 10.925(1)
_cell_angle_alpha 109.16(2)
_cell_angle_beta 92.04(2)
_cell_angle_gamma 99.32(2)
_cell_formula_units_Z 2
loop_
_atom_type_symbol
_atom_type_radius_bond
C 0.68
H 0.23
N 0.68
O 0.68
loop_
_atom_site_label
_atom_site_type_symbol
_atom_site_fract_x
_atom_site_fract_y
_atom_site_fract_z
C1 C 0.66329(19) 0.04533(15) 0.39955(14)
N1 N 0.76269(18) -0.01619(15) 0.47748(14)
O1 O 0.8068(2) 0.05177(15) 0.59202(13)
O2 O 0.7924(2) -0.13280(15) 0.42448(14)
C2 C 0.6252(2) 0.17590(16) 0.45922(14)
H1 H 0.667(2) 0.2245(16) 0.5491(7)
C3 C 0.5273(2) 0.23152(15) 0.38736(14)
H2 H 0.500(2) 0.3223(9) 0.4257(15)
C4 C 0.47109(19) 0.15838(14) 0.25700(13)
C5 C 0.5163(2) 0.02858(14) 0.19890(14)
H3 H 0.479(2) -0.0228(16) 0.1110(7)
C6 C 0.6107(2) -0.03007(15) 0.27043(15)
H4 H 0.641(2) -0.1208(9) 0.2343(15)
C7 C 0.3781(2) 0.22184(14) 0.17284(13)
O3 O 0.44178(16) 0.22128(11) 0.07101(10)
N2 N 0.23507(16) 0.27861(12) 0.21739(11)
C8 C 0.1363(3) 0.2318(2) 0.31336(18)
H5 H 0.159(3) 0.1441(10) 0.3075(19)
H6 H 0.172(2) 0.3008(16) 0.4041(9)
H7 H 0.0057(8) 0.224(2) 0.2971(18)
C9 C 0.16248(18) 0.38125(13) 0.16669(13)
C10 C 0.0209(2) 0.30816(15) 0.05280(15)
H8 H -0.032(2) 0.3737(14) 0.0310(16)
C11 C 0.0429(3) 0.18591(18) -0.06131(17)
H9 H 0.004(2) 0.182(2) -0.1472(9)
H10 H 0.1534(16) 0.1461(19) -0.0557(19)
C12 C -0.0944(3) 0.1692(2) 0.0280(2)
H11 H -0.2232(10) 0.160(2) 0.0004(18)
H12 H -0.068(3) 0.1187(18) 0.0770(17)
C13 C 0.3142(2) 0.46440(14) 0.12055(13)
H13 H 0.346(2) 0.4128(16) 0.0365(9)
C14 C 0.3384(2) 0.61891(16) 0.14726(16)
H14 H 0.375(2) 0.651(2) 0.0764(13)
H15 H 0.262(2) 0.6695(18) 0.2006(16)
C15 C 0.4669(2) 0.56088(17) 0.21083(17)
H16 H 0.5873(12) 0.560(2) 0.1842(18)
H17 H 0.464(3) 0.573(2) 0.3043(7)
C16 C 0.0855(2) 0.47801(15) 0.28147(14)
H18 H 0.1675(18) 0.5171(17) 0.3582(10)
C17 C -0.0378(2) 0.57207(18) 0.26571(19)
H19 H -0.019(3) 0.6628(10) 0.3274(15)
H20 H -0.079(2) 0.563(2) 0.1751(9)
C18 C -0.1053(3) 0.4525(2) 0.3097(2)
H21 H -0.127(3) 0.473(2) 0.3996(7)
H22 H -0.180(2) 0.3719(14) 0.2461(15)
#END
