
#######################################################################
#
#                 Cambridge Crystallographic Data Centre
#                                CCDC
#
#######################################################################
#
# If this CIF has been generated from an entry in the Cambridge
# Structural Database, then it will include bibliographic, chemical,
# crystal, experimental, refinement or atomic coordinate data resulting
# from the CCDC's data processing and validation procedures.
#
#######################################################################

data_CSD_CIF_QEDFUD
_audit_creation_date 2017-09-04
_audit_creation_method CSD-ConQuest-V1
_database_code_CSD QEDFUD
_database_code_depnum_ccdc_archive 'CCDC 1572469'
_chemical_formula_sum 'C10 H9 N3 O2'
_chemical_formula_moiety
;
C10 H9 N3 O2
;
_journal_coden_Cambridge 35
_journal_volume 82
_journal_year 2017
_journal_page_first 8864
_journal_name_full 'J.Org.Chem. '
loop_
_publ_author_name
"Adrian Huang"
"Kellie Wo"
"So Y.C.Lee"
"N.Kneitschel"
"Jennifer Chang"
"K.Zhu"
"T.Mello"
"L.Bancroft"
"N.J.Norman"
"Shao-Liang Zheng"
_chemical_name_systematic
;
1-benzyl-3-nitro-1H-pyrazole
;
_cell_volume    952.430
_exptl_crystal_colour 'colorless'
_exptl_crystal_density_diffrn 1.417
_exptl_crystal_description 'plate'
_diffrn_ambient_temperature 100
#These two values have been output from a single CSD field.
_refine_ls_R_factor_gt 0.0324
_refine_ls_wR_factor_gt 0.0324
_symmetry_cell_setting orthorhombic
_symmetry_space_group_name_H-M 'P n a 21'
_symmetry_Int_Tables_number 33
loop_
_symmetry_equiv_pos_site_id
_symmetry_equiv_pos_as_xyz
1 x,y,z
2 -x,-y,1/2+z
3 1/2+x,1/2-y,z
4 1/2-x,1/2+y,1/2+z
_cell_length_a 21.142(2)
_cell_length_b 4.2420(4)
_cell_length_c 10.6198(10)
_cell_angle_alpha 90
_cell_angle_beta 90
_cell_angle_gamma 90
_cell_formula_units_Z 4
loop_
_atom_type_symbol
_atom_type_radius_bond
C 0.68
H 0.23
N 0.68
O 0.68
loop_
_atom_site_label
_atom_site_type_symbol
_atom_site_fract_x
_atom_site_fract_y
_atom_site_fract_z
C1 C 0.54918(9) 0.8230(5) 0.61356(19)
C2 C 0.53813(10) 0.8420(5) 0.7418(2)
H1 H 0.56060 0.95980 0.80340
C3 C 0.48652(10) 0.6477(5) 0.7579(2)
H2 H 0.46610 0.60120 0.83540
C4 C 0.41493(10) 0.3421(5) 0.6127(2)
H3 H 0.40290 0.21480 0.68710
H4 H 0.42590 0.19530 0.54360
C5 C 0.3594(1) 0.5439(5) 0.57310(19)
C6 C 0.31589(11) 0.6466(5) 0.6626(2)
H5 H 0.32100 0.58960 0.74860
C7 C 0.26487(10) 0.8328(5) 0.6262(2)
H6 H 0.23500 0.90100 0.68730
C8 C 0.25738(10) 0.9187(5) 0.5020(3)
H7 H 0.22270 1.04720 0.47760
C9 C 0.30048(10) 0.8176(5) 0.4129(2)
H8 H 0.29540 0.87660 0.32720
C10 C 0.35132(10) 0.6291(5) 0.4487(2)
H9 H 0.38060 0.55860 0.38710
N1 N 0.50853(8) 0.6412(4) 0.55129(16)
N2 N 0.47044(8) 0.5361(4) 0.64370(16)
N3 N 0.59907(8) 0.9795(5) 0.54547(18)
O1 O 0.63191(7) 1.1659(4) 0.60542(17)
O2 O 0.60588(8) 0.9230(5) 0.43304(14)
#END
