
#######################################################################
#
#                 Cambridge Crystallographic Data Centre
#                                CCDC
#
#######################################################################
#
# If this CIF has been generated from an entry in the Cambridge
# Structural Database, then it will include bibliographic, chemical,
# crystal, experimental, refinement or atomic coordinate data resulting
# from the CCDC's data processing and validation procedures.
#
#######################################################################

data_CSD_CIF_QEDGUE
_audit_creation_date 2017-09-04
_audit_creation_method CSD-ConQuest-V1
_database_code_CSD QEDGUE
_database_code_depnum_ccdc_archive 'CCDC 1572474'
_chemical_formula_sum 'C6 H9 N3 O2'
_chemical_formula_moiety
;
C6 H9 N3 O2
;
_journal_coden_Cambridge 35
_journal_volume 82
_journal_year 2017
_journal_page_first 8864
_journal_name_full 'J.Org.Chem. '
loop_
_publ_author_name
"Adrian Huang"
"Kellie Wo"
"So Y.C.Lee"
"N.Kneitschel"
"Jennifer Chang"
"K.Zhu"
"T.Mello"
"L.Bancroft"
"N.J.Norman"
"Shao-Liang Zheng"
_chemical_name_systematic
;
3-nitro-1-(propan-2-yl)-1H-pyrazole
;
_cell_volume    369.608
_exptl_crystal_colour 'colorless'
_exptl_crystal_density_diffrn 1.394
_exptl_crystal_description 'block'
_diffrn_ambient_temperature 100
#These two values have been output from a single CSD field.
_refine_ls_R_factor_gt 0.0232
_refine_ls_wR_factor_gt 0.0232
_symmetry_cell_setting monoclinic
_symmetry_space_group_name_H-M 'C m'
_symmetry_Int_Tables_number 8
loop_
_symmetry_equiv_pos_site_id
_symmetry_equiv_pos_as_xyz
1 x,y,z
2 x,-y,z
3 1/2+x,1/2+y,z
4 1/2+x,1/2-y,z
_cell_length_a 7.6930(2)
_cell_length_b 6.6662(2)
_cell_length_c 7.3655(2)
_cell_angle_alpha 90
_cell_angle_beta 101.9002(12)
_cell_angle_gamma 90
_cell_formula_units_Z 2
loop_
_atom_type_symbol
_atom_type_radius_bond
C 0.68
H 0.23
N 0.68
O 0.68
loop_
_atom_site_label
_atom_site_type_symbol
_atom_site_fract_x
_atom_site_fract_y
_atom_site_fract_z
C1 C -0.5505(4) -0.50000 -0.6232(4)
C2 C -0.4293(4) -0.50000 -0.7403(4)
H1 H -0.45230 -0.50000 -0.87210
C3 C -0.2681(4) -0.50000 -0.6173(4)
H2 H -0.15410 -0.50000 -0.64810
C4 C -0.1729(4) -0.50000 -0.2646(4)
H3 H -0.05050 -0.50000 -0.29100
C5 C -0.1952(3) -0.3106(3) -0.1573(3)
H4 H -0.10790 -0.31000 -0.03970
H5 H -0.31530 -0.30670 -0.13210
H6 H -0.17660 -0.19300 -0.23070
N1 N -0.4766(3) -0.50000 -0.4441(3)
N2 N -0.3024(3) -0.50000 -0.4441(3)
N3 N -0.7417(3) -0.50000 -0.6787(3)
O1 O -0.8062(3) -0.50000 -0.8458(3)
O2 O -0.8300(3) -0.50000 -0.5571(3)
C5A C -0.1952(3) -0.6894(3) -0.1573(3)
H4A H -0.10790 -0.69000 -0.03970
H5A H -0.31530 -0.69330 -0.13210
H6A H -0.17660 -0.80700 -0.23070
#END
