
#######################################################################
#
#                 Cambridge Crystallographic Data Centre
#                                CCDC
#
#######################################################################
#
# If this CIF has been generated from an entry in the Cambridge
# Structural Database, then it will include bibliographic, chemical,
# crystal, experimental, refinement or atomic coordinate data resulting
# from the CCDC's data processing and validation procedures.
#
#######################################################################

data_CSD_CIF_QEDHAL
_audit_creation_date 2017-09-04
_audit_creation_method CSD-ConQuest-V1
_database_code_CSD QEDHAL
_database_code_depnum_ccdc_archive 'CCDC 1572475'
_chemical_formula_sum 'C11 H11 N3 O2'
_chemical_formula_moiety
;
C11 H11 N3 O2
;
_journal_coden_Cambridge 35
_journal_volume 82
_journal_year 2017
_journal_page_first 8864
_journal_name_full 'J.Org.Chem. '
loop_
_publ_author_name
"Adrian Huang"
"Kellie Wo"
"So Y.C.Lee"
"N.Kneitschel"
"Jennifer Chang"
"K.Zhu"
"T.Mello"
"L.Bancroft"
"N.J.Norman"
"Shao-Liang Zheng"
_chemical_name_systematic
;
3-nitro-1-(2-phenylethyl)-1H-pyrazole
;
_cell_volume   2062.281
_exptl_crystal_colour 'colorless'
_exptl_crystal_density_diffrn 1.399
_exptl_crystal_description 'block'
_diffrn_ambient_temperature 100
#These two values have been output from a single CSD field.
_refine_ls_R_factor_gt 0.0346
_refine_ls_wR_factor_gt 0.0346
_symmetry_cell_setting orthorhombic
_symmetry_space_group_name_H-M 'P b c a'
_symmetry_Int_Tables_number 61
loop_
_symmetry_equiv_pos_site_id
_symmetry_equiv_pos_as_xyz
1 x,y,z
2 1/2-x,-y,1/2+z
3 -x,1/2+y,1/2-z
4 1/2+x,1/2-y,-z
5 -x,-y,-z
6 -1/2+x,y,-1/2-z
7 x,-1/2-y,-1/2+z
8 -1/2-x,-1/2+y,z
_cell_length_a 11.0134(6)
_cell_length_b 9.5835(5)
_cell_length_c 19.539(1)
_cell_angle_alpha 90
_cell_angle_beta 90
_cell_angle_gamma 90
_cell_formula_units_Z 8
loop_
_atom_type_symbol
_atom_type_radius_bond
C 0.68
H 0.23
N 0.68
O 0.68
loop_
_atom_site_label
_atom_site_type_symbol
_atom_site_fract_x
_atom_site_fract_y
_atom_site_fract_z
C1 C 0.40366(11) 0.21477(12) 0.48404(6)
C2 C 0.51926(12) 0.27175(13) 0.47983(7)
H1 H 0.59070 0.24530 0.50380
C3 C 0.50438(11) 0.37584(13) 0.43234(7)
H2 H 0.56560 0.43760 0.41640
C4 C 0.32942(11) 0.47417(12) 0.36538(6)
H3 H 0.39000 0.50470 0.33110
H4 H 0.30340 0.55750 0.39150
C5 C 0.22027(11) 0.41268(13) 0.32860(7)
H5 H 0.24520 0.32870 0.30270
H6 H 0.15800 0.38450 0.36240
C6 C 0.16762(11) 0.51983(12) 0.28011(6)
C7 C 0.06842(11) 0.60099(13) 0.29909(6)
H7 H 0.03140 0.58690 0.34240
C8 C 0.02307(11) 0.70243(12) 0.25522(7)
H8 H -0.04480 0.75710 0.26870
C9 C 0.07652(12) 0.72410(13) 0.19187(6)
H9 H 0.04540 0.79340 0.16190
C10 C 0.17558(12) 0.64423(13) 0.17243(6)
H10 H 0.21270 0.65920 0.12910
C11 C 0.22070(12) 0.54249(13) 0.21609(6)
H11 H 0.28830 0.48770 0.20230
N1 N 0.32149(9) 0.27557(10) 0.44387(5)
N2 N 0.38664(9) 0.37446(10) 0.41241(5)
N3 N 0.36706(9) 0.09842(10) 0.52597(5)
O1 O 0.44392(8) 0.05067(9) 0.56536(4)
O2 O 0.26348(8) 0.05278(10) 0.52096(5)
#END
