
#######################################################################
#
#                 Cambridge Crystallographic Data Centre
#                                CCDC
#
#######################################################################
#
# If this CIF has been generated from an entry in the Cambridge
# Structural Database, then it will include bibliographic, chemical,
# crystal, experimental, refinement or atomic coordinate data resulting
# from the CCDC's data processing and validation procedures.
#
#######################################################################

data_CSD_CIF_QEDVUT
_audit_creation_date 2017-09-04
_audit_creation_method CSD-ConQuest-V1
_database_code_CSD QEDVUT
_database_code_depnum_ccdc_archive 'CCDC 1572489'
_chemical_formula_sum 'C10 H9 N3 O2'
_chemical_formula_moiety
;
C10 H9 N3 O2
;
_journal_coden_Cambridge 35
_journal_volume 82
_journal_year 2017
_journal_page_first 8864
_journal_name_full 'J.Org.Chem. '
loop_
_publ_author_name
"Adrian Huang"
"Kellie Wo"
"So Y.C.Lee"
"N.Kneitschel"
"Jennifer Chang"
"K.Zhu"
"T.Mello"
"L.Bancroft"
"N.J.Norman"
"Shao-Liang Zheng"
_chemical_name_systematic
;
3-methyl-1-(4-nitrophenyl)-1H-pyrazole
;
_cell_volume    936.984
_exptl_crystal_colour 'colorless'
_exptl_crystal_density_diffrn 1.44
_exptl_crystal_description 'plate'
_diffrn_ambient_temperature 100
_diffrn_special_details
;
twin

;
#These two values have been output from a single CSD field.
_refine_ls_R_factor_gt 0.0384
_refine_ls_wR_factor_gt 0.0384
_symmetry_cell_setting orthorhombic
_symmetry_space_group_name_H-M 'P 21 21 21'
_symmetry_Int_Tables_number 19
loop_
_symmetry_equiv_pos_site_id
_symmetry_equiv_pos_as_xyz
1 x,y,z
2 1/2-x,-y,1/2+z
3 -x,1/2+y,1/2-z
4 1/2+x,1/2-y,-z
_cell_length_a 3.9074(1)
_cell_length_b 12.9574(5)
_cell_length_c 18.5066(7)
_cell_angle_alpha 90
_cell_angle_beta 90
_cell_angle_gamma 90
_cell_formula_units_Z 4
loop_
_atom_type_symbol
_atom_type_radius_bond
C 0.68
H 0.23
N 0.68
O 0.68
loop_
_atom_site_label
_atom_site_type_symbol
_atom_site_fract_x
_atom_site_fract_y
_atom_site_fract_z
C1 C -0.0212(9) 0.5762(3) 0.40141(17)
H1 H -0.26870 0.58780 0.40420
H2 H 0.02410 0.51340 0.37350
H3 H 0.08780 0.63530 0.37760
C2 C 0.1209(8) 0.5643(2) 0.47589(16)
C3 C 0.1277(8) 0.6383(2) 0.53213(16)
H4 H 0.03560 0.70620 0.53100
C4 C 0.2924(8) 0.5925(2) 0.58784(16)
H5 H 0.34040 0.62240 0.63360
C5 C 0.5420(7) 0.4174(2) 0.60547(15)
C6 C 0.6748(8) 0.4399(2) 0.67383(15)
H6 H 0.65560 0.50750 0.69310
C7 C 0.8345(8) 0.3628(2) 0.71328(15)
H7 H 0.92930 0.37720 0.75950
C8 C 0.8538(8) 0.2645(2) 0.68433(14)
C9 C 0.7254(8) 0.2411(2) 0.61658(15)
H8 H 0.74280 0.17310 0.59780
C10 C 0.5719(7) 0.3182(2) 0.57688(15)
H9 H 0.48620 0.30380 0.52990
N1 N 0.2701(7) 0.47745(19) 0.49636(13)
N2 N 0.3765(7) 0.49552(18) 0.56590(12)
N3 N 1.0225(7) 0.1838(2) 0.72622(13)
O1 O 1.1700(6) 0.20741(17) 0.78253(11)
O2 O 1.0072(8) 0.09451(17) 0.70358(13)
#END
