
#######################################################################
#
#                 Cambridge Crystallographic Data Centre
#                                CCDC
#
#######################################################################
#
# If this CIF has been generated from an entry in the Cambridge
# Structural Database, then it will include bibliographic, chemical,
# crystal, experimental, refinement or atomic coordinate data resulting
# from the CCDC's data processing and validation procedures.
#
#######################################################################

data_CSD_CIF_QEDWOO
_audit_creation_date 2017-09-04
_audit_creation_method CSD-ConQuest-V1
_database_code_CSD QEDWOO
_database_code_depnum_ccdc_archive 'CCDC 1572493'
_chemical_formula_sum 'C15 H11 N3 O2'
_chemical_formula_moiety
;
C15 H11 N3 O2
;
_journal_coden_Cambridge 35
_journal_volume 82
_journal_year 2017
_journal_page_first 8864
_journal_name_full 'J.Org.Chem. '
loop_
_publ_author_name
"Adrian Huang"
"Kellie Wo"
"So Y.C.Lee"
"N.Kneitschel"
"Jennifer Chang"
"K.Zhu"
"T.Mello"
"L.Bancroft"
"N.J.Norman"
"Shao-Liang Zheng"
_chemical_name_systematic
;
1-(4-nitrophenyl)-3-phenyl-1H-pyrazole
;
_cell_volume   1214.401
_exptl_crystal_colour 'colorless'
_exptl_crystal_density_diffrn 1.451
_exptl_crystal_description 'block'
_diffrn_ambient_temperature 100
#These two values have been output from a single CSD field.
_refine_ls_R_factor_gt 0.0358
_refine_ls_wR_factor_gt 0.0358
_symmetry_cell_setting monoclinic
_symmetry_space_group_name_H-M 'P 21/n'
_symmetry_Int_Tables_number 14
loop_
_symmetry_equiv_pos_site_id
_symmetry_equiv_pos_as_xyz
1 x,y,z
2 1/2-x,1/2+y,1/2-z
3 -x,-y,-z
4 -1/2+x,-1/2-y,-1/2+z
_cell_length_a 7.2479(8)
_cell_length_b 16.0198(18)
_cell_length_c 10.5934(12)
_cell_angle_alpha 90
_cell_angle_beta 99.1343(18)
_cell_angle_gamma 90
_cell_formula_units_Z 4
loop_
_atom_type_symbol
_atom_type_radius_bond
C 0.68
H 0.23
N 0.68
O 0.68
loop_
_atom_site_label
_atom_site_type_symbol
_atom_site_fract_x
_atom_site_fract_y
_atom_site_fract_z
C1 C 0.86082(18) 0.59448(8) 0.65543(12)
H1 H 0.84780 0.65350 0.65530
C2 C 0.95758(18) 0.54740(8) 0.75035(12)
H2 H 1.02520 0.56630 0.82940
C3 C 0.93583(16) 0.46393(8) 0.70592(11)
C4 C 0.67460(16) 0.56135(7) 0.44270(11)
C5 C 0.62548(17) 0.49948(8) 0.35163(11)
H3 H 0.66220 0.44330 0.36990
C6 C 0.52302(17) 0.51999(8) 0.23433(12)
H4 H 0.48860 0.47830 0.17120
C7 C 0.47150(16) 0.60227(8) 0.21047(11)
C8 C 0.51585(17) 0.66405(8) 0.30122(12)
H5 H 0.47690 0.72000 0.28310
C9 C 0.61729(17) 0.64344(8) 0.41830(12)
H6 H 0.64790 0.68510 0.48200
C10 C 1.01162(16) 0.38739(8) 0.77088(12)
C11 C 1.09892(17) 0.39019(8) 0.89842(12)
H7 H 1.10810 0.44170 0.94340
C12 C 1.17195(18) 0.31831(8) 0.95951(13)
H8 H 1.23000 0.32080 1.04640
C13 C 1.16120(18) 0.24287(8) 0.89532(12)
H9 H 1.21210 0.19380 0.93750
C14 C 1.07528(19) 0.23959(8) 0.76851(13)
H10 H 1.06750 0.18800 0.72370
C15 C 1.00105(18) 0.31108(8) 0.70714(12)
H11 H 0.94220 0.30810 0.62050
N1 N 0.78599(14) 0.54129(6) 0.56043(10)
N2 N 0.83205(13) 0.46060(6) 0.59015(9)
N3 N 0.37100(14) 0.62511(7) 0.08516(10)
O1 O 0.32275(13) 0.56918(6) 0.00736(9)
O2 O 0.34031(14) 0.69931(6) 0.06134(9)
#END
