
#######################################################################
#
#                 Cambridge Crystallographic Data Centre
#                                CCDC
#
#######################################################################
#
# If this CIF has been generated from an entry in the Cambridge
# Structural Database, then it will include bibliographic, chemical,
# crystal, experimental, refinement or atomic coordinate data resulting
# from the CCDC's data processing and validation procedures.
#
#######################################################################

data_CSD_CIF_QEFCIN
_audit_creation_date 2001-05-08
_audit_creation_method CSD-ConQuest-V1
_database_code_CSD QEFCIN
_database_code_depnum_ccdc_archive 'CCDC 155702'
_chemical_formula_sum 'C26 H12 N4 O8'
_chemical_formula_moiety
;
C26 H12 N4 O8
;
_journal_coden_Cambridge 1078
_journal_year 2001
_journal_name_full 'CSD Communication(Private Communication) '
loop_
_publ_author_name
"A.Yu.Kovalevsky"
"I.I.Ponomarev"
"O.V.Shishkin"
_chemical_name_systematic
;
N,N'-bis(4-Nitrophenyl)-1,8:4,5-naphthalenetetracarboximide
;
_cell_volume   1044.680
_exptl_crystal_colour 'colorless'
_exptl_crystal_density_diffrn 1.616
_exptl_special_details
;
contribution from 738 NSMC SUNY at Buffalo, Buffalo, NY 14260, USA

;
_exptl_crystal_description 'parallelepiped'
_exptl_crystal_preparation 'trifluoroacetic acid'
_diffrn_ambient_temperature 193
#These two values have been output from a single CSD field.
_refine_ls_R_factor_gt 0.0544
_refine_ls_wR_factor_gt 0.0544
_symmetry_cell_setting orthorhombic
_symmetry_space_group_name_H-M 'P m n a'
_symmetry_Int_Tables_number 53
loop_
_symmetry_equiv_pos_site_id
_symmetry_equiv_pos_as_xyz
1 x,y,z
2 1/2+x,y,1/2-z
3 1/2+x,-y,1/2+z
4 -x,y,z
5 -x,-y,-z
6 -1/2-x,-y,-1/2+z
7 -1/2-x,y,-1/2-z
8 x,-y,-z
_cell_length_a 23.021(10)
_cell_length_b 5.188(2)
_cell_length_c 8.747(3)
_cell_angle_alpha 90
_cell_angle_beta 90
_cell_angle_gamma 90
_cell_formula_units_Z 2
loop_
_atom_type_symbol
_atom_type_radius_bond
C 0.68
H 0.23
N 0.68
O 0.68
loop_
_atom_site_label
_atom_site_type_symbol
_atom_site_fract_x
_atom_site_fract_y
_atom_site_fract_z
O1 O 0.34638(6) 0.3247(3) 0.1756(2)
O2 O 0.07560(8) -0.1619(4) 0.0761(3)
N1 N 0.34669(9) 0.00000 0.00000
N2 N 0.10071(10) 0.00000 0.00000
C1 C 0.37467(7) 0.1778(4) 0.0962(2)
C2 C 0.43911(7) 0.1745(4) 0.0960(2)
C3 C 0.46913(11) 0.00000 0.00000
C4 C 0.46941(8) 0.3423(4) 0.1902(2)
H1 H 0.4497(9) 0.4565(46) 0.2622(29)
C5 C 0.28307(11) 0.00000 0.00000
C6 C 0.25389(9) -0.2027(4) 0.0678(2)
H2 H 0.2747(10) -0.3321(51) 0.1131(32)
C7 C 0.19352(9) -0.2024(4) 0.0693(2)
H3 H 0.1724(9) -0.3365(48) 0.1178(28)
C8 C 0.16480(11) 0.00000 0.00000
C1G C 0.37467(7) -0.1778(4) -0.0962(2)
O1G O 0.34638(6) -0.3247(3) -0.1756(2)
C2G C 0.43911(7) -0.1745(4) -0.0960(2)
C4C C 0.53059(8) 0.3423(4) 0.1902(2)
C2C C 0.56089(7) 0.1745(4) 0.0960(2)
C1C C 0.62533(7) 0.1778(4) 0.0962(2)
O1C O 0.65362(6) 0.3247(3) 0.1756(2)
N1C N 0.65331(9) 0.00000 0.00000
C1D C 0.62533(7) -0.1778(4) -0.0962(2)
O1D O 0.65362(6) -0.3247(3) -0.1756(2)
C2D C 0.56089(7) -0.1745(4) -0.0960(2)
C3D C 0.53087(11) 0.00000 0.00000
C4D C 0.53059(8) -0.3423(4) -0.1902(2)
C4G C 0.46941(8) -0.3423(4) -0.1902(2)
H1G H 0.4497(9) -0.4565(46) -0.2622(29)
H1D H 0.5503(9) -0.4565(46) -0.2622(29)
C5C C 0.71693(11) 0.00000 0.00000
C6C C 0.74611(9) -0.2027(4) 0.0678(2)
H2C H 0.7253(10) -0.3321(51) 0.1131(32)
C7C C 0.80648(9) -0.2024(4) 0.0693(2)
H3C H 0.8276(9) -0.3365(48) 0.1178(28)
C8C C 0.83520(11) 0.00000 0.00000
N2C N 0.89929(10) 0.00000 0.00000
O2C O 0.92440(8) -0.1619(4) 0.0761(3)
O2D O 0.92440(8) 0.1619(4) -0.0761(3)
C7D C 0.80648(9) 0.2024(4) -0.0693(2)
C6D C 0.74611(9) 0.2027(4) -0.0678(2)
H2D H 0.7253(10) 0.3321(51) -0.1131(32)
H3D H 0.8276(9) 0.3365(48) -0.1178(28)
H1C H 0.5503(9) 0.4565(46) 0.2622(29)
O2G O 0.07560(8) 0.1619(4) -0.0761(3)
C7G C 0.19352(9) 0.2024(4) -0.0693(2)
C6G C 0.25389(9) 0.2027(4) -0.0678(2)
H2G H 0.2747(10) 0.3321(51) -0.1131(32)
H3G H 0.1724(9) 0.3365(48) -0.1178(28)
#END
