
#######################################################################
#
#                 Cambridge Crystallographic Data Centre
#                                CCDC
#
#######################################################################
#
# If this CIF has been generated from an entry in the Cambridge
# Structural Database, then it will include bibliographic, chemical,
# crystal, experimental, refinement or atomic coordinate data resulting
# from the CCDC's data processing and validation procedures.
#
#######################################################################

data_CSD_CIF_QEFKER
_audit_creation_date 2001-05-08
_audit_creation_method CSD-ConQuest-V1
_database_code_CSD QEFKER
_database_code_depnum_ccdc_archive 'CCDC 149968'
_chemical_formula_sum 'C21 H17 N3 O2'
_chemical_formula_moiety
;
C21 H17 N3 O2
;
_journal_coden_Cambridge 1336
_journal_volume 2
_journal_year 2000
_journal_page_first 4181
_journal_name_full 'Org.Lett. '
loop_
_publ_author_name
"R.U.Braun"
"K.Zeitler"
"T.J.J.Muller"
_chemical_name_systematic
;
2-(4'-Nitrophenyl)-4-phenyl-2,3-dihydro-1H-1,5-benzodiazepine
;
_cell_volume   1674.635
_exptl_crystal_colour 'yellow'
_exptl_crystal_density_diffrn 1.362
_exptl_crystal_description 'stick'
_diffrn_ambient_temperature ?
_diffrn_special_details
;
The study was carried out at room temperature,in the range 283-303K

;
#These two values have been output from a single CSD field.
_refine_ls_R_factor_gt 0.0373
_refine_ls_wR_factor_gt 0.0373
_symmetry_cell_setting monoclinic
_symmetry_space_group_name_H-M 'P 21/c'
_symmetry_Int_Tables_number 14
loop_
_symmetry_equiv_pos_site_id
_symmetry_equiv_pos_as_xyz
1 x,y,z
2 x,1/2-y,1/2+z
3 -x,-y,-z
4 -x,-1/2+y,-1/2-z
_cell_length_a 13.337(5)
_cell_length_b 13.157(6)
_cell_length_c 10.000(7)
_cell_angle_alpha 90
_cell_angle_beta 107.38(5)
_cell_angle_gamma 90
_cell_formula_units_Z 4
loop_
_atom_type_symbol
_atom_type_radius_bond
C 0.68
H 0.23
N 0.68
O 0.68
loop_
_atom_site_label
_atom_site_type_symbol
_atom_site_fract_x
_atom_site_fract_y
_atom_site_fract_z
N1 N 0.82465(15) 0.27042(14) 0.1135(2)
H1 H 0.90382(15) 0.29994(14) 0.1329(2)
N2 N 0.62466(13) 0.15899(13) -0.0027(2)
N3 N 0.91102(15) 0.6823(2) 0.4814(2)
O1 O 0.9302(2) 0.66475(13) 0.6057(2)
O2 O 0.9212(2) 0.76658(14) 0.4364(2)
C1 C 0.8028(2) 0.1782(2) 0.1676(2)
C2 C 0.8830(2) 0.1291(2) 0.2691(2)
H2 H 0.9460(2) 0.1632(2) 0.3086(2)
C3 C 0.8718(2) 0.0318(2) 0.3126(2)
H3 H 0.9274(2) 0.0004(2) 0.3787(2)
C4 C 0.7782(2) -0.0193(2) 0.2583(2)
H4 H 0.7698(2) -0.0847(2) 0.2883(2)
C5 C 0.6980(2) 0.0278(2) 0.1597(2)
H5 H 0.6348(2) -0.0067(2) 0.1233(2)
C6 C 0.7077(2) 0.1256(2) 0.1119(2)
C7 C 0.5976(2) 0.2528(2) -0.0164(2)
C8 C 0.6471(2) 0.3305(2) 0.0939(2)
H6 H 0.6514(2) 0.3031(2) 0.1855(2)
H7 H 0.6030(2) 0.3906(2) 0.0792(2)
C9 C 0.7565(2) 0.3601(2) 0.0906(2)
H8 H 0.7504(2) 0.3865(2) -0.0031(2)
C10 C 0.5148(2) 0.2825(2) -0.1461(2)
C11 C 0.4579(2) 0.2081(2) -0.2348(2)
H9 H 0.4691(2) 0.1401(2) -0.2091(2)
C12 C 0.3851(2) 0.2329(2) -0.3600(3)
H10 H 0.3482(2) 0.1818(2) -0.4185(3)
C13 C 0.3667(2) 0.3329(2) -0.3988(3)
H11 H 0.3177(2) 0.3495(2) -0.4838(3)
C14 C 0.4205(2) 0.4079(2) -0.3127(3)
H12 H 0.4077(2) 0.4757(2) -0.3384(3)
C15 C 0.4940(2) 0.3831(2) -0.1874(3)
H13 H 0.5304(2) 0.4348(2) -0.1295(3)
C16 C 0.8006(2) 0.44379(15) 0.1947(2)
C17 C 0.8116(2) 0.5409(2) 0.1491(2)
H14 H 0.7940(2) 0.5535(2) 0.0534(2)
C18 C 0.8479(2) 0.6195(2) 0.2417(2)
H15 H 0.8546(2) 0.6848(2) 0.2097(2)
C19 C 0.8738(2) 0.5992(2) 0.3819(2)
C20 C 0.8645(2) 0.5033(2) 0.4326(2)
H16 H 0.8824(2) 0.4913(2) 0.5285(2)
C21 C 0.8283(2) 0.4259(2) 0.3384(2)
H17 H 0.8221(2) 0.3607(2) 0.3709(2)
#END
