
#######################################################################
#
#                 Cambridge Crystallographic Data Centre
#                                CCDC
#
#######################################################################
#
# If this CIF has been generated from an entry in the Cambridge
# Structural Database, then it will include bibliographic, chemical,
# crystal, experimental, refinement or atomic coordinate data resulting
# from the CCDC's data processing and validation procedures.
#
#######################################################################

data_CSD_CIF_QEGNUO
_audit_creation_date 2017-09-05
_audit_creation_method CSD-ConQuest-V1
_database_code_CSD QEGNUO
_database_code_depnum_ccdc_archive 'CCDC 1548526'
_chemical_formula_sum 'C27 H23 N1 O1'
_chemical_formula_moiety
;
C27 H23 N1 O1
;
_journal_coden_Cambridge 4
_journal_volume 139
_journal_year 2017
_journal_page_first 11702
_journal_name_full 'J.Am.Chem.Soc. '
loop_
_publ_author_name
"Zhanyu Li"
"Jinbo Zhao"
"Baozhen Sun"
"Tingting Zhou"
"Mingzhu Liu"
"Shuang Liu"
"Mengru Zhang"
"Qian Zhang"
_chemical_name_systematic
;
(1R,2S)-N-(diphenylmethylene)-2-methyl-2-(naphthalen-2-yl)cyclopropanamine 
oxide
;
_cell_volume   2069.147
_exptl_crystal_density_diffrn 1.218
_exptl_special_details
;
Absolute configuration

;
_exptl_crystal_preparation 'EtOAc/hexanes'
_diffrn_ambient_temperature 292.7
#These two values have been output from a single CSD field.
_refine_ls_R_factor_gt 0.043
_refine_ls_wR_factor_gt 0.043
_symmetry_cell_setting orthorhombic
_symmetry_space_group_name_H-M 'P 21 21 21'
_symmetry_Int_Tables_number 19
loop_
_symmetry_equiv_pos_site_id
_symmetry_equiv_pos_as_xyz
1 x,y,z
2 1/2-x,-y,1/2+z
3 -x,1/2+y,1/2-z
4 1/2+x,1/2-y,-z
_cell_length_a 8.7558(3)
_cell_length_b 11.1462(4)
_cell_length_c 21.2016(7)
_cell_angle_alpha 90
_cell_angle_beta 90
_cell_angle_gamma 90
_cell_formula_units_Z 4
loop_
_atom_type_symbol
_atom_type_radius_bond
C 0.68
H 0.23
N 0.68
O 0.68
loop_
_atom_site_label
_atom_site_type_symbol
_atom_site_fract_x
_atom_site_fract_y
_atom_site_fract_z
O1 O 0.4805(3) 0.84976(15) 0.59286(10)
N1 N 0.5178(2) 0.73868(16) 0.60257(9)
C1 C 0.6423(3) 0.57502(19) 0.65649(11)
C2 C 0.4338(3) 0.6493(2) 0.5651(1)
H1 H 0.49400 0.58040 0.55070
C3 C 0.2762(3) 0.4036(2) 0.60040(11)
H2 H 0.35210 0.41910 0.63000
C4 C 0.2276(3) 0.2838(2) 0.59099(10)
C5 C 0.5699(3) 0.5276(2) 0.70920(12)
H3 H 0.50810 0.57660 0.73380
C6 C 0.2152(3) 0.4970(2) 0.56739(10)
C7 C 0.2663(3) 0.6242(2) 0.57741(11)
C8 C 0.6259(3) 0.7054(2) 0.64219(11)
C9 C 0.0986(3) 0.4722(2) 0.52346(13)
H4 H 0.05520 0.53490 0.50080
C10 C 0.7323(3) 0.5001(3) 0.62023(13)
H5 H 0.78400 0.53050 0.58540
C11 C 0.7283(3) 0.7911(2) 0.67382(11)
C12 C 0.3168(4) 0.6929(3) 0.52035(13)
H6 H 0.30960 0.65310 0.47980
H7 H 0.29640 0.77840 0.51940
C13 C 0.1115(3) 0.2605(2) 0.54685(11)
C14 C 0.2914(3) 0.1857(2) 0.62428(12)
H8 H 0.36870 0.19950 0.65350
C15 C 0.0484(4) 0.3581(3) 0.51359(14)
H9 H -0.02890 0.34440 0.48440
C16 C 0.1869(4) 0.6899(3) 0.63039(17)
H10 H 0.20410 0.64810 0.66940
H11 H 0.07930 0.69340 0.62200
H12 H 0.22690 0.76980 0.63350
C17 C 0.8234(3) 0.7479(3) 0.72165(14)
H13 H 0.81720 0.66750 0.73300
C18 C 0.2420(4) 0.0720(2) 0.61435(13)
H14 H 0.28560 0.00870 0.63650
C19 C 0.6745(4) 0.3357(3) 0.68841(18)
H15 H 0.68510 0.25520 0.69890
C20 C 0.5886(4) 0.4090(3) 0.72545(14)
H16 H 0.54250 0.37890 0.76170
C21 C 0.7417(4) 0.9122(3) 0.65768(16)
H17 H 0.68020 0.94510 0.62640
C22 C 0.8493(5) 0.9836(3) 0.6893(2)
H18 H 0.85980 1.06390 0.67810
C23 C 0.9387(5) 0.9378(4) 0.7361(2)
H19 H 1.00840 0.98690 0.75690
C24 C 0.7456(4) 0.3798(3) 0.63569(17)
H20 H 0.80290 0.32890 0.61030
C25 C 0.0617(4) 0.1407(3) 0.53796(15)
H21 H -0.01580 0.12430 0.50920
C26 C 0.1259(4) 0.0501(3) 0.57096(14)
H22 H 0.09210 -0.02810 0.56460
C27 C 0.9259(4) 0.8208(3) 0.75240(17)
H23 H 0.98660 0.78960 0.78450
#END
