
#######################################################################
#
#                 Cambridge Crystallographic Data Centre
#                                CCDC
#
#######################################################################
#
# If this CIF has been generated from an entry in the Cambridge
# Structural Database, then it will include bibliographic, chemical,
# crystal, experimental, refinement or atomic coordinate data resulting
# from the CCDC's data processing and validation procedures.
#
#######################################################################

data_CSD_CIF_QEGYUZ
_audit_creation_date 2017-09-05
_audit_creation_method CSD-ConQuest-V1
_database_code_CSD QEGYUZ
_database_code_depnum_ccdc_archive 'CCDC 1553041'
_chemical_formula_sum 'C20 H15 N3 O3'
_chemical_formula_moiety
;
C20 H15 N3 O3
;
_journal_coden_Cambridge 119
_journal_volume 1150
_journal_year 2017
_journal_page_first 258
_journal_name_full 'J.Mol.Struct. '
loop_
_publ_author_name
"S.S.Wazalwar"
"A.R.Banpurkar"
"F.Perdih"
_chemical_name_systematic
;
(4E)-4-((3-(3-hydroxyphenyl)-1-phenyl-1H-pyrazol-4-yl)methylene)-3-methyl-1,2-
oxazol-5(4H)-one
;
_cell_volume    825.214
_exptl_crystal_colour 'orange'
_exptl_crystal_density_diffrn 1.39
_exptl_crystal_description 'plate'
_diffrn_ambient_temperature 293
_diffrn_special_details
;
twin

;
#These two values have been output from a single CSD field.
_refine_ls_R_factor_gt 0.0534
_refine_ls_wR_factor_gt 0.0534
_symmetry_cell_setting monoclinic
_symmetry_space_group_name_H-M 'P 21'
_symmetry_Int_Tables_number 4
loop_
_symmetry_equiv_pos_site_id
_symmetry_equiv_pos_as_xyz
1 x,y,z
2 -x,1/2+y,-z
_cell_length_a 9.6545(8)
_cell_length_b 7.4121(8)
_cell_length_c 12.0115(14)
_cell_angle_alpha 90
_cell_angle_beta 106.248(10)
_cell_angle_gamma 90
_cell_formula_units_Z 2
loop_
_atom_type_symbol
_atom_type_radius_bond
C 0.68
H 0.23
N 0.68
O 0.68
loop_
_atom_site_label
_atom_site_type_symbol
_atom_site_fract_x
_atom_site_fract_y
_atom_site_fract_z
O1 O 1.2410(3) 0.5552(5) 0.0878(2)
O2 O 1.0274(3) 0.4254(6) 0.0682(2)
O3 O 0.9343(3) 0.4445(7) 0.8296(2)
H1 H 0.98300 0.43890 0.89740
N1 N 0.7721(3) 0.2801(5) 0.2872(2)
N2 N 0.8114(3) 0.2755(5) 0.4069(2)
N3 N 1.3597(4) 0.6193(6) 0.1790(3)
C1 C 0.9468(4) 0.3312(6) 0.4391(3)
C2 C 0.9965(4) 0.3760(5) 0.3399(3)
C3 C 0.8791(4) 0.3387(6) 0.2463(3)
H2 H 0.87540 0.35210 0.16860
C4 C 0.6329(4) 0.2198(6) 0.2240(3)
C5 C 0.5312(5) 0.1775(8) 0.2810(4)
H3 H 0.55340 0.19030 0.36110
C6 C 0.3966(5) 0.1161(7) 0.2193(4)
H4 H 0.32810 0.08920 0.25800
C7 C 0.3628(4) 0.0943(7) 0.1014(4)
H5 H 0.27230 0.05190 0.06020
C8 C 0.4634(5) 0.1356(7) 0.0454(4)
H6 H 0.44060 0.12160 -0.03470
C9 C 0.5979(4) 0.1977(7) 0.1050(3)
H7 H 0.66540 0.22470 0.06530
C10 C 1.0238(4) 0.3369(6) 0.5641(3)
C11 C 0.9498(4) 0.3962(6) 0.6413(3)
H8 H 0.85580 0.43850 0.61330
C12 C 1.0152(4) 0.3924(6) 0.7594(3)
C13 C 1.1556(4) 0.3370(7) 0.8012(3)
H9 H 1.20000 0.33680 0.88060
C14 C 1.2314(4) 0.2812(7) 0.7252(4)
H10 H 1.32670 0.24380 0.75370
C15 C 1.1660(4) 0.2808(6) 0.6066(3)
H11 H 1.21730 0.24300 0.55580
C16 C 1.1312(4) 0.4569(6) 0.3451(3)
H12 H 1.18760 0.48350 0.41970
C17 C 1.1926(4) 0.5026(6) 0.2589(3)
C18 C 1.1378(5) 0.4838(7) 0.1327(4)
C19 C 1.3291(4) 0.5869(7) 0.2752(4)
C20 C 1.4311(5) 0.6423(10) 0.3876(4)
H13 H 1.50740 0.71320 0.37310
H14 H 1.47110 0.53680 0.43130
H15 H 1.38060 0.71250 0.43090
#END
