
#######################################################################
#
#                 Cambridge Crystallographic Data Centre
#                                CCDC
#
#######################################################################
#
# If this CIF has been generated from an entry in the Cambridge
# Structural Database, then it will include bibliographic, chemical,
# crystal, experimental, refinement or atomic coordinate data resulting
# from the CCDC's data processing and validation procedures.
#
#######################################################################

data_CSD_CIF_QEHZUZ
_audit_creation_date 2006-09-20
_audit_creation_method CSD-ConQuest-V1
_database_code_CSD QEHZUZ
_database_code_depnum_ccdc_archive 'CCDC 287830'
_chemical_formula_sum 'C15 H17 N1 O5'
_chemical_formula_moiety
;
C15 H17 N1 O5
;
_journal_coden_Cambridge 1220
_journal_volume 12
_journal_year 2006
_journal_page_first 4321
_journal_name_full 'Chem.-Eur.J. '
loop_
_publ_author_name
"Jian Wang"
"Hao Li"
"Bihshow Lou"
"Liansuo Zu"
"Hua Guo"
"Wei Wang"
_chemical_name_systematic
;
(S)-2-((R)-1-(Benzo(d)(1,3)dioxol-5-yl)-2-nitroethyl)cyclohexanone
;
_cell_volume   1400.081
_exptl_crystal_colour 'colorless'
_exptl_crystal_density_diffrn 1.382
_exptl_crystal_description 'needle'
_diffrn_ambient_temperature 292
#These two values have been output from a single CSD field.
_refine_ls_R_factor_gt 0.0445
_refine_ls_wR_factor_gt 0.0445
_symmetry_cell_setting orthorhombic
_symmetry_space_group_name_H-M 'P 21 21 21'
_symmetry_Int_Tables_number 19
loop_
_symmetry_equiv_pos_site_id
_symmetry_equiv_pos_as_xyz
1 x,y,z
2 1/2-x,-y,1/2+z
3 -x,1/2+y,1/2-z
4 1/2+x,1/2-y,-z
_cell_length_a 5.6108(8)
_cell_length_b 8.4734(11)
_cell_length_c 29.449(3)
_cell_angle_alpha 90
_cell_angle_beta 90
_cell_angle_gamma 90
_cell_formula_units_Z 4
loop_
_atom_type_symbol
_atom_type_radius_bond
C 0.68
H 0.23
N 0.68
O 0.68
loop_
_atom_site_label
_atom_site_type_symbol
_atom_site_fract_x
_atom_site_fract_y
_atom_site_fract_z
O1 O 0.0776(6) 0.7517(4) 0.23223(9)
O2 O -0.3027(6) 1.1104(4) 0.15771(10)
O3 O -0.0345(7) 1.2865(3) 0.14611(11)
O4 O 0.1492(7) 1.0239(4) -0.04158(9)
O5 O 0.4376(7) 1.1277(4) 0.00568(9)
N1 N -0.0962(7) 1.1550(4) 0.15801(10)
C1 C 0.0914(8) 1.0432(4) 0.17330(11)
H1 H 0.06840 1.01840 0.20520
H2 H 0.24710 1.09150 0.16990
C2 C 0.0797(7) 0.8915(4) 0.14512(11)
H3 H -0.07300 0.84000 0.15150
C3 C 0.0898(7) 0.9257(4) 0.09474(11)
C4 C -0.0827(8) 0.8666(4) 0.06615(12)
H4 H -0.20600 0.80710 0.07850
C5 C -0.0794(10) 0.8928(5) 0.01903(14)
H5 H -0.19590 0.85120 0.00000
C6 C 0.1013(10) 0.9813(5) 0.00275(12)
C7 C 0.3563(11) 1.1225(6) -0.04026(14)
H6 H 0.47970 1.07980 -0.05980
H7 H 0.31710 1.22790 -0.05070
C8 C 0.2757(9) 1.0426(5) 0.03064(12)
C9 C 0.2758(8) 1.0167(4) 0.07651(11)
H8 H 0.39490 1.05810 0.09500
C10 C 0.2799(7) 0.7799(4) 0.16074(10)
H9 H 0.43160 0.83640 0.15790
C11 C 0.2549(8) 0.7252(4) 0.20957(11)
C12 C 0.4554(9) 0.6243(5) 0.22650(12)
H10 H 0.42600 0.59410 0.25780
H11 H 0.60360 0.68300 0.22540
C13 C 0.4745(10) 0.4765(5) 0.19675(12)
H12 H 0.61400 0.41630 0.20560
H13 H 0.33520 0.41070 0.20140
C14 C 0.4932(9) 0.5199(5) 0.14712(13)
H14 H 0.64560 0.57050 0.14180
H15 H 0.48810 0.42430 0.12900
C15 C 0.2960(9) 0.6290(4) 0.13190(11)
H16 H 0.14520 0.57330 0.13360
H17 H 0.32250 0.65800 0.10040
#END
