
#######################################################################
#
#                 Cambridge Crystallographic Data Centre
#                                CCDC
#
#######################################################################
#
# If this CIF has been generated from an entry in the Cambridge
# Structural Database, then it will include bibliographic, chemical,
# crystal, experimental, refinement or atomic coordinate data resulting
# from the CCDC's data processing and validation procedures.
#
#######################################################################

data_CSD_CIF_QEKQOM
_audit_creation_date 2001-05-10
_audit_creation_method CSD-ConQuest-V1
_database_code_CSD QEKQOM
_chemical_formula_sum 'C11 H14 N2 O2'
_chemical_formula_moiety
;
C11 H14 N2 O2
;
_journal_coden_Cambridge 1336
_journal_volume 1
_journal_year 1999
_journal_page_first 1795
_journal_name_full 'Org.Lett. '
loop_
_publ_author_name
"M.A.Arai"
"T.Arai"
"H.Sasai"
_chemical_name_systematic
;
(M,S,R)-Spiro(cyclopenta(c)isoxazoline-3,3'-cyclopenta(c)isoxazoline)
;
_cell_volume   1022.334
_exptl_crystal_colour 'colorless'
_exptl_crystal_density_diffrn 1.34
_exptl_special_details
;
There are a number of bond length problems involving C and H atoms

;
_exptl_crystal_description 'prismatic'
_diffrn_ambient_temperature 198.15
#These two values have been output from a single CSD field.
_refine_ls_R_factor_gt 0.083
_refine_ls_wR_factor_gt 0.083
loop_
_citation_database_id_CSD
_citation_special_details
QEKQIG "is a stereoisomer of this entry"
QEKQUS "is a stereoisomer of this entry"
_symmetry_cell_setting orthorhombic
_symmetry_space_group_name_H-M 'P 21 21 21'
_symmetry_Int_Tables_number 19
loop_
_symmetry_equiv_pos_site_id
_symmetry_equiv_pos_as_xyz
1 x,y,z
2 1/2-x,-y,1/2+z
3 1/2+x,1/2-y,-z
4 -x,1/2+y,1/2-z
_cell_length_a 10.461(2)
_cell_length_b 11.285(2)
_cell_length_c 8.660(1)
_cell_angle_alpha 90
_cell_angle_beta 90
_cell_angle_gamma 90
_cell_formula_units_Z 4
loop_
_atom_type_symbol
_atom_type_radius_bond
C 0.68
H 0.23
N 0.68
O 0.68
loop_
_atom_site_label
_atom_site_type_symbol
_atom_site_fract_x
_atom_site_fract_y
_atom_site_fract_z
O1 O -0.6630(4) 0.0479(4) -0.4160(5)
O2 O -0.2391(4) -0.0814(4) -0.8325(6)
N1 N -0.6296(5) -0.0097(4) -0.5601(6)
N2 N -0.2978(5) -0.1194(5) -0.6904(6)
C1 C -0.5144(5) -0.1973(4) -0.6223(5)
C2 C -0.5803(5) -0.1052(4) -0.5264(6)
C3 C -0.5991(6) -0.0151(6) -0.2931(7)
C4 C -0.5760(7) -0.1322(5) -0.3547(6)
C5 C -0.4599(6) -0.2095(5) -0.3463(6)
C6 C -0.4657(8) -0.2819(5) -0.4943(7)
C7 C -0.4087(5) -0.1430(4) -0.7178(5)
C8 C -0.3277(6) -0.1085(6) -0.9566(7)
C9 C -0.4571(7) -0.1229(7) -0.8806(7)
C10 C -0.5471(6) -0.2176(8) -0.9024(6)
C11 C -0.6017(7) -0.2530(6) -0.7506(7)
H1 H -0.521(7) 0.023(6) -0.267(9)
H2 H -0.652(7) -0.019(6) -0.204(9)
H3 H -0.648(7) -0.180(6) -0.331(9)
H4 H -0.384(7) -0.163(6) -0.343(9)
H5 H -0.463(7) -0.260(6) -0.258(9)
H6 H -0.523(7) -0.347(6) -0.482(9)
H7 H -0.383(7) -0.311(6) -0.520(9)
H8 H -0.501(7) -0.049(6) -0.884(9)
H9 H -0.614(7) -0.192(6) -0.969(9)
H10 H -0.505(7) -0.284(6) -0.948(9)
H11 H -0.602(7) -0.337(6) -0.742(9)
H12 H -0.687(7) -0.224(6) -0.741(9)
H13 H -0.330(7) -0.046(6) -1.029(9)
H14 H -0.303(7) -0.180(6) -1.007(9)
#END
