
#######################################################################
#
#                 Cambridge Crystallographic Data Centre
#                                CCDC
#
#######################################################################
#
# If this CIF has been generated from an entry in the Cambridge
# Structural Database, then it will include bibliographic, chemical,
# crystal, experimental, refinement or atomic coordinate data resulting
# from the CCDC's data processing and validation procedures.
#
#######################################################################

data_CSD_CIF_QEKQUS
_audit_creation_date 2001-05-10
_audit_creation_method CSD-ConQuest-V1
_database_code_CSD QEKQUS
_chemical_formula_sum 'C11 H14 N2 O2'
_chemical_formula_moiety
;
C11 H14 N2 O2
;
_journal_coden_Cambridge 1336
_journal_volume 1
_journal_year 1999
_journal_page_first 1795
_journal_name_full 'Org.Lett. '
loop_
_publ_author_name
"M.A.Arai"
"T.Arai"
"H.Sasai"
_chemical_name_systematic
;
(M,R,R)-Spiro(cyclopenta(c)isoxazoline-3,3'-cyclopenta(c)isoxazoline)
;
_cell_volume   1000.474
_exptl_crystal_colour 'colorless'
_exptl_crystal_density_diffrn 1.369
_exptl_crystal_description 'prismatic'
_diffrn_ambient_temperature 198.15
#These two values have been output from a single CSD field.
_refine_ls_R_factor_gt 0.063
_refine_ls_wR_factor_gt 0.063
loop_
_citation_database_id_CSD
_citation_special_details
QEKQIG "is a stereoisomer of this entry"
QEKQOM "is a stereoisomer of this entry"
_symmetry_cell_setting orthorhombic
_symmetry_space_group_name_H-M 'P c c n'
_symmetry_Int_Tables_number 56
loop_
_symmetry_equiv_pos_site_id
_symmetry_equiv_pos_as_xyz
1 x,y,z
2 1/2-x,1/2-y,z
3 1/2+x,-y,1/2-z
4 -x,1/2+y,1/2-z
5 -x,-y,-z
6 -1/2+x,-1/2+y,-z
7 -1/2-x,y,-1/2+z
8 x,-1/2-y,-1/2+z
_cell_length_a 8.786(2)
_cell_length_b 10.351(2)
_cell_length_c 11.001(2)
_cell_angle_alpha 90
_cell_angle_beta 90
_cell_angle_gamma 90
_cell_formula_units_Z 4
loop_
_atom_type_symbol
_atom_type_radius_bond
C 0.68
H 0.23
N 0.68
O 0.68
loop_
_atom_site_label
_atom_site_type_symbol
_atom_site_fract_x
_atom_site_fract_y
_atom_site_fract_z
O1 O -0.5150(3) -0.0130(2) -0.3008(2)
N1 N -0.6597(3) -0.0541(2) -0.3474(2)
C1 C -0.75000 -0.25000 -0.4592(3)
C2 C -0.6447(3) -0.1680(2) -0.3837(2)
C3 C -0.4015(4) -0.1029(3) -0.3448(3)
C4 C -0.4877(3) -0.2225(2) -0.3786(2)
C5 C -0.4748(3) -0.2797(3) -0.5073(3)
C6 C -0.6317(5) -0.3329(5) -0.5317(4)
H1 H -0.640(8) -0.428(7) -0.484(7)
H2 H -0.657(4) -0.365(3) -0.599(4)
H3 H -0.451(4) -0.202(4) -0.571(4)
H4 H -0.391(4) -0.329(3) -0.517(3)
H5 H -0.481(3) -0.284(3) -0.318(3)
H6 H -0.328(4) -0.126(3) -0.278(4)
H7 H -0.357(4) -0.059(3) -0.424(3)
C2A C -0.8553(3) -0.3320(2) -0.3837(2)
N1A N -0.8403(3) -0.4459(2) -0.3474(2)
O1A O -0.9850(3) -0.4870(2) -0.3008(2)
C3A C -1.0985(4) -0.3971(3) -0.3448(3)
C4A C -1.0123(3) -0.2775(2) -0.3786(2)
C5A C -1.0252(3) -0.2203(3) -0.5073(3)
C6A C -0.8683(5) -0.1671(5) -0.5317(4)
H1A H -0.860(8) -0.072(7) -0.484(7)
H2A H -0.843(4) -0.135(3) -0.599(4)
H3A H -1.049(4) -0.298(4) -0.571(4)
H4A H -1.109(4) -0.171(3) -0.517(3)
H5A H -1.019(3) -0.216(3) -0.318(3)
H6A H -1.172(4) -0.374(3) -0.278(4)
H7A H -1.143(4) -0.441(3) -0.424(3)
#END
