
#######################################################################
#
#                 Cambridge Crystallographic Data Centre
#                                CCDC
#
#######################################################################
#
# If this CIF has been generated from an entry in the Cambridge
# Structural Database, then it will include bibliographic, chemical,
# crystal, experimental, refinement or atomic coordinate data resulting
# from the CCDC's data processing and validation procedures.
#
#######################################################################

data_CSD_CIF_QEKQIG
_audit_creation_date 2001-05-10
_audit_creation_method CSD-ConQuest-V1
_database_code_CSD QEKQIG
_chemical_formula_sum 'C11 H14 N2 O2'
_chemical_formula_moiety
;
C11 H14 N2 O2
;
_journal_coden_Cambridge 1336
_journal_volume 1
_journal_year 1999
_journal_page_first 1795
_journal_name_full 'Org.Lett. '
loop_
_publ_author_name
"M.A.Arai"
"T.Arai"
"H.Sasai"
_chemical_name_systematic
;
(M,S,S)-Spiro(cyclopenta(c)isoxazoline-3,3'-cyclopenta(c)isoxazoline)
;
_cell_volume   1020.791
_exptl_crystal_colour 'colorless'
_exptl_crystal_density_diffrn 1.342
_exptl_crystal_description 'prismatic'
_diffrn_ambient_temperature 198.15
#These two values have been output from a single CSD field.
_refine_ls_R_factor_gt 0.053
_refine_ls_wR_factor_gt 0.053
loop_
_citation_database_id_CSD
_citation_special_details
QEKQUS "is a stereoisomer of this entry"
QEKQOM "is a stereoisomer of this entry"
_symmetry_cell_setting monoclinic
_symmetry_space_group_name_H-M 'C 2/c'
_symmetry_Int_Tables_number 15
loop_
_symmetry_equiv_pos_site_id
_symmetry_equiv_pos_as_xyz
1 x,y,z
2 -x,y,1/2-z
3 1/2+x,1/2+y,z
4 1/2-x,1/2+y,1/2-z
5 -x,-y,-z
6 x,-y,-1/2+z
7 -1/2-x,-1/2-y,-z
8 -1/2+x,-1/2-y,-1/2+z
_cell_length_a 10.860(3)
_cell_length_b 10.154(2)
_cell_length_c 10.865(3)
_cell_angle_alpha 90
_cell_angle_beta 121.57(1)
_cell_angle_gamma 90
_cell_formula_units_Z 4
loop_
_atom_type_symbol
_atom_type_radius_bond
C 0.68
H 0.23
N 0.68
O 0.68
loop_
_atom_site_label
_atom_site_type_symbol
_atom_site_fract_x
_atom_site_fract_y
_atom_site_fract_z
O1 O 0.72215(9) 0.22795(8) 0.70802(9)
N1 N 0.87116(10) 0.18812(10) 0.7793(1)
C1 C 0.8744(1) 0.07532(10) 0.7306(1)
C2 C 0.6392(1) 0.1437(1) 0.5817(1)
C3 C 0.7318(1) 0.0223(1) 0.6124(1)
C4 C 0.7753(1) -0.0271(1) 0.5068(1)
C5 C 0.9234(1) -0.0909(1) 0.6088(1)
C6 C 1.00000 -0.0054(1) 0.75000
H1 H 0.629(2) 0.199(2) 0.496(2)
H2 H 0.553(2) 0.127(2) 0.582(2)
H3 H 0.704(2) -0.053(1) 0.652(2)
H4 H 0.787(2) 0.048(2) 0.460(2)
H5 H 0.699(2) -0.088(2) 0.428(2)
H6 H 0.981(1) -0.101(1) 0.563(2)
H7 H 0.906(2) -0.181(2) 0.633(2)
C1A C 1.1256(1) 0.07532(10) 0.7694(1)
N1A N 1.12884(10) 0.18812(10) 0.7207(1)
O1A O 1.27785(9) 0.22795(8) 0.79198(9)
C2A C 1.3608(1) 0.1437(1) 0.9183(1)
C3A C 1.2682(1) 0.0223(1) 0.8876(1)
C4A C 1.2247(1) -0.0271(1) 0.9932(1)
C5A C 1.0766(1) -0.0909(1) 0.8912(1)
H6A H 1.019(1) -0.101(1) 0.937(2)
H7A H 1.094(2) -0.181(2) 0.867(2)
H4A H 1.213(2) 0.048(2) 1.040(2)
H5A H 1.301(2) -0.088(2) 1.072(2)
H3A H 1.296(2) -0.053(1) 0.848(2)
H1A H 1.371(2) 0.199(2) 1.004(2)
H2A H 1.447(2) 0.127(2) 0.918(2)
#END
