
#######################################################################
#
#                 Cambridge Crystallographic Data Centre
#                                CCDC
#
#######################################################################
#
# If this CIF has been generated from an entry in the Cambridge
# Structural Database, then it will include bibliographic, chemical,
# crystal, experimental, refinement or atomic coordinate data resulting
# from the CCDC's data processing and validation procedures.
#
#######################################################################

data_CSD_CIF_QENGEY
_audit_creation_date 2018-01-14
_audit_creation_method CSD-ConQuest-V1
_database_code_CSD QENGEY
_database_code_depnum_ccdc_archive 'CCDC 1584886'
_chemical_formula_sum 'C27 H28 N4 O6'
_chemical_formula_moiety
;
C27 H28 N4 O6
;
_journal_coden_Cambridge 1336
_journal_volume 20
_journal_year 2018
_journal_page_first 526
_journal_name_full 'Org.Lett. '
loop_
_publ_author_name
"Bo Sun"
"R.Pluta"
"N.Kumagai"
"M.Shibasaki"
_chemical_name_systematic
;
t-butyl 
[3-(2,3-dihydro-1H-pyrrolo[2,3-b]pyridin-1-yl)-1-(2-nitrophenyl)-3-oxo-2-pheno
xypropyl]carbamate
;
_cell_volume   2623.941
_exptl_crystal_colour 'colorless'
_exptl_crystal_density_diffrn 1.277
_exptl_crystal_description 'needle'
_diffrn_ambient_temperature 93
_refine_special_details
;
C35,C36,C37 and C35A,C36A,C37A disordered over two sites with occupancies 
0.576:0.424.
;
#These two values have been output from a single CSD field.
_refine_ls_R_factor_gt 0.0374
_refine_ls_wR_factor_gt 0.0374
_symmetry_cell_setting orthorhombic
_symmetry_space_group_name_H-M 'P 21 21 21'
_symmetry_Int_Tables_number 19
loop_
_symmetry_equiv_pos_site_id
_symmetry_equiv_pos_as_xyz
1 x,y,z
2 1/2-x,-y,1/2+z
3 1/2+x,1/2-y,-z
4 -x,1/2+y,1/2-z
_cell_length_a 9.5015(3)
_cell_length_b 13.5192(4)
_cell_length_c 20.4273(6)
_cell_angle_alpha 90
_cell_angle_beta 90
_cell_angle_gamma 90
_cell_formula_units_Z 4
loop_
_atom_type_symbol
_atom_type_radius_bond
C 0.68
H 0.23
N 0.68
O 0.68
loop_
_atom_site_label
_atom_site_type_symbol
_atom_site_fract_x
_atom_site_fract_y
_atom_site_fract_z
O1 O 0.72523(17) 0.28849(12) 0.35073(8)
O2 O 0.7189(2) 0.30950(13) 0.12270(8)
O3 O 0.92953(18) 0.36407(13) 0.27692(9)
O4 O 0.3758(2) 0.55216(14) 0.27493(11)
O5 O 0.3334(3) 0.56073(15) 0.37854(14)
O6 O 0.6751(3) 0.46319(15) 0.15747(10)
N1 N 0.6726(2) 0.60482(14) 0.34140(9)
N2 N 0.8766(2) 0.52186(14) 0.2972(1)
N3 N 0.6355(2) 0.33146(14) 0.22182(9)
H1 H 0.63470 0.26643 0.22373
N4 N 0.3558(2) 0.51361(17) 0.32875(14)
C1 C 0.8021(3) 0.60692(17) 0.31713(11)
C2 C 0.8104(3) 0.26720(19) 0.40381(12)
C3 C 0.4559(2) 0.34634(17) 0.30673(11)
C4 C 0.8830(3) 0.69073(18) 0.30536(12)
C5 C 0.6773(3) 0.37615(19) 0.16602(12)
C6 C 0.7088(2) 0.38795(17) 0.33100(11)
H2 H 0.68159 0.43064 0.36892
C7 C 0.3501(3) 0.40504(18) 0.33245(12)
C8 C 0.5922(2) 0.38746(18) 0.27830(11)
H3 H 0.57493 0.45728 0.26427
C9 C 0.6887(3) 0.78214(18) 0.34508(12)
H4 H 0.64471 0.84331 0.35530
C10 C 0.8467(3) 0.42365(18) 0.30026(12)
C11 C 0.6188(3) 0.69444(18) 0.35542(11)
H5 H 0.52688 0.69730 0.37358
C12 C 0.8249(3) 0.78052(19) 0.31947(13)
H6 H 0.87548 0.84009 0.31209
C13 C 0.8247(3) 0.1678(2) 0.41738(13)
H7 H 0.78018 0.11963 0.39060
C14 C 0.3139(2) 0.20540(18) 0.33938(11)
H8 H 0.30126 0.13573 0.34096
C15 C 0.2119(3) 0.2672(2) 0.36474(12)
H9 H 0.12908 0.24039 0.38378
C16 C 0.4346(3) 0.24467(18) 0.31165(11)
H10 H 0.50492 0.20103 0.29553
C17 C 0.8752(3) 0.3380(2) 0.44237(12)
H11 H 0.86451 0.40639 0.43285
C18 C 0.2310(3) 0.36732(19) 0.36224(12)
H12 H 0.16311 0.41060 0.38081
C19 C 1.0032(3) 0.55287(18) 0.26022(14)
H13 H 0.98758 0.54629 0.21250
H14 H 1.08576 0.51242 0.27274
C20 C 0.7639(3) 0.3368(2) 0.05635(12)
C21 C 0.9054(3) 0.1393(2) 0.47091(14)
H15 H 0.91531 0.07106 0.48096
C22 C 1.0251(3) 0.66075(19) 0.27904(15)
H16 H 1.09903 0.66742 0.31292
H17 H 1.05139 0.70108 0.24048
C23 C 0.9711(3) 0.2090(3) 0.50958(13)
H18 H 1.02643 0.18877 0.54592
C24 C 0.9562(3) 0.3072(3) 0.49538(13)
H19 H 1.00177 0.35508 0.52201
C25 C 0.9067(11) 0.3830(9) 0.0611(6)
H20 H 0.90146 0.44246 0.08842
H21 H 0.93959 0.40097 0.01722
H22 H 0.97249 0.33575 0.08078
C26 C 0.6561(12) 0.4053(10) 0.0236(5)
H23 H 0.56187 0.37657 0.02780
H24 H 0.67958 0.41292 -0.02280
H25 H 0.65808 0.47017 0.04504
C27 C 0.7631(15) 0.2384(6) 0.0211(4)
H26 H 0.82788 0.19273 0.04298
H27 H 0.79309 0.24799 -0.02438
H28 H 0.66777 0.21074 0.02179
C28? C 0.6363(14) 0.3557(13) 0.0177(6)
H29? H 0.57093 0.30008 0.02279
H30? H 0.66149 0.36288 -0.02855
H31? H 0.59122 0.41655 0.03315
C29? C 0.868(2) 0.4248(14) 0.0556(8)
H32? H 0.81671 0.48612 0.06508
H33? H 0.91177 0.42964 0.01230
H34? H 0.94058 0.41439 0.08883
C30? C 0.840(2) 0.241(1) 0.0351(6)
H35? H 0.91626 0.22649 0.06590
H36? H 0.87880 0.24964 -0.00893
H37? H 0.77269 0.18595 0.03494
#END
