
#######################################################################
#
#                 Cambridge Crystallographic Data Centre
#                                CCDC
#
#######################################################################
#
# If this CIF has been generated from an entry in the Cambridge
# Structural Database, then it will include bibliographic, chemical,
# crystal, experimental, refinement or atomic coordinate data resulting
# from the CCDC's data processing and validation procedures.
#
#######################################################################

data_CSD_CIF_QENNEF
_audit_creation_date 2018-01-15
_audit_creation_method CSD-ConQuest-V1
_database_code_CSD QENNEF
_database_code_depnum_ccdc_archive 'CCDC 1443541'
_chemical_formula_sum 'C15 H25 N1 O8'
_chemical_formula_moiety
;
C15 H25 N1 O8
;
_journal_coden_Cambridge 1255
_journal_volume 22
_journal_year 2016
_journal_page_first 95
_journal_name_full 'Heterocyclic Communications '
loop_
_publ_author_name
"I.Ivanovs"
"S.Berzina"
"J.Luginina"
"S.Belyakov"
"V.Rjabovs"
_chemical_name_systematic
;
5-(2,2-dimethyl-1,3-dioxolan-4-yl)-2,2-dimethyl-6-ethoxy-6-nitromethyl-5,6a-di
hydro-3aH-furo[2,3-d][1,3]dioxole
;
_cell_volume   1764.427
_exptl_crystal_colour 'colorless'
_exptl_crystal_density_diffrn 1.308
_exptl_crystal_description 'Prism'
_exptl_crystal_preparation 'ethanol'
_diffrn_ambient_temperature 173
#These two values have been output from a single CSD field.
_refine_ls_R_factor_gt 0.041
_refine_ls_wR_factor_gt 0.041
_symmetry_cell_setting orthorhombic
_symmetry_space_group_name_H-M 'P 21 21 21'
_symmetry_Int_Tables_number 19
loop_
_symmetry_equiv_pos_site_id
_symmetry_equiv_pos_as_xyz
1 x,y,z
2 1/2-x,-y,1/2+z
3 1/2+x,1/2-y,-z
4 -x,1/2+y,1/2-z
_cell_length_a 8.0100(1)
_cell_length_b 11.6069(2)
_cell_length_c 18.9782(5)
_cell_angle_alpha 90
_cell_angle_beta 90
_cell_angle_gamma 90
_cell_formula_units_Z 4
loop_
_atom_type_symbol
_atom_type_radius_bond
C 0.68
H 0.23
N 0.68
O 0.68
loop_
_atom_site_label
_atom_site_type_symbol
_atom_site_fract_x
_atom_site_fract_y
_atom_site_fract_z
O1 O 0.29236(17) 0.08285(14) 0.61584(8)
O2 O -0.09527(17) 0.10978(13) 0.63013(9)
O3 O 0.03281(18) -0.02757(13) 0.75808(8)
O4 O 0.4213(2) -0.05456(15) 0.74575(9)
O5 O -0.17269(19) -0.19872(14) 0.63173(11)
O6 O 0.1130(2) 0.22138(16) 0.57912(9)
N1 N 0.3279(2) -0.13534(17) 0.73318(10)
O7 O -0.43357(18) -0.15619(15) 0.59117(9)
C1 C -0.2038(3) -0.0787(2) 0.64596(11)
C2 C -0.0479(2) -0.01025(18) 0.63199(11)
O8 O 0.3352(3) -0.22805(19) 0.76248(13)
C3 C 0.0931(2) -0.01571(18) 0.68753(10)
C4 C 0.2003(2) -0.12137(19) 0.67593(11)
C5 C -0.3455(3) -0.0496(2) 0.59568(15)
C6 C 0.3027(3) 0.1384(3) 0.49582(14)
C7 C -0.2538(4) -0.2744(3) 0.51935(14)
C8 C 0.0464(3) 0.17904(19) 0.64289(12)
C9 C -0.0550(3) 0.0688(2) 0.78856(12)
C10 C 0.1824(2) 0.10005(19) 0.67332(11)
C11 C -0.3832(3) -0.3470(2) 0.63129(16)
C12 C 0.2800(3) 0.1802(2) 0.57000(13)
C13 C -0.3117(3) -0.2449(2) 0.59272(13)
C14 C 0.4023(4) 0.2721(2) 0.59086(17)
C15 C -0.1067(4) 0.0326(3) 0.86096(15)
H1 H -0.00225 -0.02695 0.58609
H2 H -0.23626 -0.07382 0.69556
H3 H 0.13238 -0.18727 0.67973
H4 H 0.25358 -0.11297 0.63313
H5 H 0.24439 0.12455 0.71452
H6 H -0.16529 0.09452 0.88362
H7 H -0.01020 0.01249 0.88832
H8 H -0.17901 -0.03308 0.85717
H9 H 0.01375 0.25006 0.67208
H10 H -0.15223 0.08985 0.75531
H11 H 0.01216 0.14063 0.78798
H12 H -0.47520 -0.37767 0.60487
H13 H -0.42148 -0.32300 0.67692
H14 H -0.29897 -0.40517 0.63662
H15 H 0.29371 0.19499 0.46248
H16 H -0.29716 -0.02951 0.54765
H17 H -0.41907 0.01621 0.61501
H18 H 0.21825 0.08848 0.48219
H19 H 0.40111 0.10149 0.48538
H20 H 0.39199 0.33678 0.55962
H21 H 0.51375 0.24196 0.58824
H22 H 0.37936 0.29633 0.63825
H23 H -0.34543 -0.30577 0.49301
H24 H -0.16569 -0.33034 0.52205
H25 H -0.21330 -0.20627 0.49631
#END
