
#######################################################################
#
#                 Cambridge Crystallographic Data Centre
#                                CCDC
#
#######################################################################
#
# If this CIF has been generated from an entry in the Cambridge
# Structural Database, then it will include bibliographic, chemical,
# crystal, experimental, refinement or atomic coordinate data resulting
# from the CCDC's data processing and validation procedures.
#
#######################################################################

data_CSD_CIF_QENQEF
_audit_creation_date 2001-05-10
_audit_creation_method CSD-ConQuest-V1
_database_code_CSD QENQEF
_database_code_depnum_ccdc_archive 'CCDC 151720'
_chemical_formula_sum 'C29 H24 N4 O4'
_chemical_formula_moiety
;
C29 H24 N4 O4
;
_journal_coden_Cambridge 10
_journal_volume 84
_journal_year 2001
_journal_page_first 401
_journal_name_full 'Helv.Chim.Acta '
loop_
_publ_author_name
"G.A.Schmid"
"H.-J.Borschberg"
_chemical_name_systematic
;
rac-(Z)-Phenyl(5,6,7,8-tetrahydro-dibenzo(a,c)cycloocten-6-yl)methanone 
(2,4-dinitrophenyl)hydrazone
;
_chemical_melting_point 497.15
_cell_volume   1209.015
_exptl_crystal_colour 'yellow'
_exptl_crystal_density_diffrn 1.353
_exptl_special_details
;
Melting point range 497.15-498.15K

;
_exptl_crystal_description 'plate'
_exptl_crystal_preparation 'tetrahydrofuran/cyclohexane'
_diffrn_ambient_temperature ?
_diffrn_special_details
;
The study was carried out at room temperature,in the range 283-303K

;
#These two values have been output from a single CSD field.
_refine_ls_R_factor_gt 0.0643
_refine_ls_wR_factor_gt 0.0643
_symmetry_cell_setting triclinic
_symmetry_space_group_name_H-M 'P -1'
_symmetry_Int_Tables_number 2
loop_
_symmetry_equiv_pos_site_id
_symmetry_equiv_pos_as_xyz
1 x,y,z
2 -x,-y,-z
_cell_length_a 7.8760(1)
_cell_length_b 10.810(3)
_cell_length_c 14.931(4)
_cell_angle_alpha 80.06(2)
_cell_angle_beta 74.92(2)
_cell_angle_gamma 87.31(2)
_cell_formula_units_Z 2
loop_
_atom_type_symbol
_atom_type_radius_bond
C 0.68
H 0.23
N 0.68
O 0.68
loop_
_atom_site_label
_atom_site_type_symbol
_atom_site_fract_x
_atom_site_fract_y
_atom_site_fract_z
O1 O 0.5752(3) 0.2150(3) 0.56621(15)
O2 O 0.4092(3) 0.3042(2) 0.48243(16)
O3 O 1.0494(4) -0.1290(3) 0.3319(3)
O4 O 0.9495(4) -0.1278(2) 0.4816(2)
N1 N 0.3284(2) 0.20275(17) 0.25595(13)
H1 H 0.337(4) 0.270(3) 0.373(2)
N2 N 0.3979(3) 0.22505(19) 0.32739(14)
N3 N 0.5206(3) 0.2259(2) 0.49688(15)
N4 N 0.9447(4) -0.0943(2) 0.3990(3)
C1 C -0.0594(3) 0.33847(18) 0.05097(15)
C2 C -0.0420(3) 0.29657(18) -0.03368(15)
C3 C 0.1308(3) 0.25426(19) -0.08782(16)
C4 C 0.2199(3) 0.1523(2) -0.04828(17)
C5 C 0.1444(3) 0.0789(2) 0.04739(18)
H2 H 0.17300 -0.00910 0.04610
H3 H 0.01730 0.08680 0.06240
C6 C 0.2105(3) 0.1204(2) 0.12596(17)
H4 H 0.20220 0.04930 0.17640
H5 H 0.33390 0.14210 0.10120
C7 C 0.1131(3) 0.23160(18) 0.16779(15)
H6 H -0.00630 0.20260 0.20110
C8 C 0.0941(3) 0.34685(18) 0.09380(15)
H7 H 0.07950 0.42140 0.12310
H8 H 0.20190 0.35650 0.04380
C9 C -0.2248(3) 0.3761(2) 0.09883(17)
H9 H -0.23880 0.40230 0.15650
C10 C -0.3698(3) 0.3751(2) 0.0617(2)
H10 H -0.47920 0.40140 0.09410
C11 C -0.3507(3) 0.3352(2) -0.02263(19)
H11 H -0.44710 0.33440 -0.04760
C12 C -0.1889(3) 0.2964(2) -0.07029(18)
H12 H -0.17660 0.26970 -0.12760
C13 C 0.2064(4) 0.3171(2) -0.17749(17)
H13 H 0.14570 0.38320 -0.20390
C14 C 0.3693(4) 0.2840(3) -0.2285(2)
H14 H 0.41840 0.32780 -0.28840
C15 C 0.4582(4) 0.1857(3) -0.1897(2)
H15 H 0.56920 0.16350 -0.22310
C16 C 0.3835(4) 0.1196(3) -0.1014(2)
H16 H 0.44390 0.05170 -0.07690
C17 C 0.1957(3) 0.26806(19) 0.24095(15)
C18 C 0.1152(3) 0.37185(19) 0.29296(15)
C19 C 0.2158(3) 0.4731(2) 0.29509(18)
H17 H 0.33410 0.47720 0.26300
C20 C 0.1415(4) 0.5675(2) 0.3445(2)
H18 H 0.21040 0.63430 0.34600
C21 C -0.0320(4) 0.5634(3) 0.39099(19)
H19 H -0.08110 0.62720 0.42430
C22 C -0.1349(4) 0.4653(3) 0.3889(2)
H20 H -0.25330 0.46200 0.42090
C23 C -0.0601(3) 0.3706(2) 0.33829(18)
H21 H -0.13040 0.30550 0.33530
C24 C 0.5321(3) 0.1512(2) 0.34578(16)
C25 C 0.5924(3) 0.1462(2) 0.42757(17)
C26 C 0.7247(3) 0.0636(2) 0.4460(2)
H22 H 0.75810 0.05770 0.50190
C27 C 0.8048(3) -0.0091(2) 0.3801(2)
C28 C 0.7561(3) -0.0028(2) 0.2969(2)
H23 H 0.81450 -0.05120 0.25240
C29 C 0.6219(3) 0.0748(2) 0.28050(18)
H24 H 0.58870 0.07750 0.22480
#END
