
#######################################################################
#
#                 Cambridge Crystallographic Data Centre
#                                CCDC
#
#######################################################################
#
# If this CIF has been generated from an entry in the Cambridge
# Structural Database, then it will include bibliographic, chemical,
# crystal, experimental, refinement or atomic coordinate data resulting
# from the CCDC's data processing and validation procedures.
#
#######################################################################

data_CSD_CIF_QEPBUK
_audit_creation_date 2013-04-24
_audit_creation_method CSD-ConQuest-V1
_database_code_CSD QEPBUK
_database_code_depnum_ccdc_archive 'CCDC 923192'
_chemical_formula_sum 'C16 H14 N4 O2'
_chemical_formula_moiety
;
C16 H14 N4 O2
;
_journal_coden_Cambridge 1078
_journal_year 2013
_journal_name_full 'CSD Communication(Private Communication) '
loop_
_publ_author_name
"J.G.Malecki"
_chemical_name_systematic
;
3,3'-bis(2-Pyridyl)-4,4',5,5'-tetrahydro-5,5'-bi-1,2-oxazole
;
_cell_volume   1370.290
_exptl_crystal_colour 'colorless'
_exptl_crystal_density_diffrn 1.427
_exptl_special_details
;
contribution from University of Silesia Institute of Chemistry, Katowice, 
Poland
;
_diffrn_ambient_temperature 295.0
#These two values have been output from a single CSD field.
_refine_ls_R_factor_gt 0.0372
_refine_ls_wR_factor_gt 0.0372
_symmetry_cell_setting monoclinic
_symmetry_space_group_name_H-M 'C 2/c'
_symmetry_Int_Tables_number 15
loop_
_symmetry_equiv_pos_site_id
_symmetry_equiv_pos_as_xyz
1 x,y,z
2 1/2+x,1/2+y,z
3 -x,y,1/2-z
4 1/2-x,1/2+y,1/2-z
5 -x,-y,-z
6 -1/2-x,-1/2-y,-z
7 x,-y,-1/2+z
8 -1/2+x,-1/2-y,-1/2+z
_cell_length_a 10.5593(10)
_cell_length_b 8.8278(7)
_cell_length_c 15.3279(11)
_cell_angle_alpha 90
_cell_angle_beta 106.453(9)
_cell_angle_gamma 90
_cell_formula_units_Z 4
loop_
_atom_type_symbol
_atom_type_radius_bond
C 0.68
H 0.23
N 0.68
O 0.68
loop_
_atom_site_label
_atom_site_type_symbol
_atom_site_fract_x
_atom_site_fract_y
_atom_site_fract_z
O1 O 0.14530(11) 0.28135(13) 0.76995(6)
N1 N 0.16755(12) 0.19175(14) 0.69972(8)
C1 C 0.05836(15) 0.40714(16) 0.73094(9)
H1 H 0.10690 0.50240 0.74750
C2 C 0.02606(16) 0.38490(17) 0.62834(9)
H2 H -0.06770 0.36840 0.60110
H3 H 0.05460 0.47080 0.59920
C3 C 0.10385(13) 0.24700(15) 0.62287(8)
C4 C 0.10731(13) 0.17599(15) 0.53663(9)
N2 N 0.03267(13) 0.24362(13) 0.46152(8)
C5 C 0.03428(18) 0.18364(18) 0.38205(10)
H4 H -0.01810 0.22840 0.32920
C6 C 0.10879(17) 0.05936(19) 0.37336(11)
H5 H 0.10840 0.02340 0.31630
C7 C 0.18309(16) -0.00951(18) 0.45062(11)
H6 H 0.23370 -0.09430 0.44720
C8 C 0.18204(15) 0.04865(17) 0.53393(10)
H7 H 0.23100 0.00280 0.58750
O1B O -0.14530(11) 0.28135(13) 0.73005(6)
N1B N -0.16755(12) 0.19175(14) 0.80028(8)
C1B C -0.05836(15) 0.40714(16) 0.76906(9)
H1B H -0.10690 0.50240 0.75250
C2B C -0.02606(16) 0.38490(17) 0.87166(9)
H2B H 0.06770 0.36840 0.89890
H3B H -0.05460 0.47080 0.90080
C3B C -0.10385(13) 0.24700(15) 0.87713(8)
C4B C -0.10731(13) 0.17599(15) 0.96337(9)
N2B N -0.03267(13) 0.24362(13) 1.03848(8)
C5B C -0.03428(18) 0.18364(18) 1.11795(10)
H4B H 0.01810 0.22840 1.17080
C6B C -0.10879(17) 0.05936(19) 1.12664(11)
H5B H -0.10840 0.02340 1.18370
C7B C -0.18309(16) -0.00951(18) 1.04938(11)
H6B H -0.23370 -0.09430 1.05280
C8B C -0.18204(15) 0.04865(17) 0.96607(10)
H7B H -0.23100 0.00280 0.91250
#END
