
#######################################################################
#
#                 Cambridge Crystallographic Data Centre
#                                CCDC
#
#######################################################################
#
# If this CIF has been generated from an entry in the Cambridge
# Structural Database, then it will include bibliographic, chemical,
# crystal, experimental, refinement or atomic coordinate data resulting
# from the CCDC's data processing and validation procedures.
#
#######################################################################

data_CSD_CIF_QEPJEC
_audit_creation_date 2013-04-23
_audit_creation_method CSD-ConQuest-V1
_database_code_CSD QEPJEC
_database_code_depnum_ccdc_archive 'CCDC 923416'
_chemical_formula_sum 'C14 H15 N3 O4'
_chemical_formula_moiety
;
C14 H15 N3 O4
;
_journal_coden_Cambridge 1078
_journal_year 2013
_journal_name_full 'CSD Communication(Private Communication) '
loop_
_publ_author_name
"S.Yousuf"
_chemical_name_systematic
;
1-(2-Methyl-5-nitro-1H-imidazol-1-yl)propan-2-yl benzoate
;
_cell_volume    720.630
_exptl_crystal_colour 'colorless'
_exptl_crystal_density_diffrn 1.333
_exptl_special_details
;
contribution from H.E.J. Research Institute of Chemistry, International 
Center for Chemical and Biological Sciences, University of Karachi, 
Karachi-75270, Pakistan
;
_exptl_crystal_description 'block'
_diffrn_ambient_temperature 273
#These two values have been output from a single CSD field.
_refine_ls_R_factor_gt 0.0416
_refine_ls_wR_factor_gt 0.0416
_symmetry_cell_setting monoclinic
_symmetry_space_group_name_H-M 'P 21'
_symmetry_Int_Tables_number 4
loop_
_symmetry_equiv_pos_site_id
_symmetry_equiv_pos_as_xyz
1 x,y,z
2 -x,1/2+y,-z
_cell_length_a 6.5627(7)
_cell_length_b 8.8814(9)
_cell_length_c 12.7277(13)
_cell_angle_alpha 90
_cell_angle_beta 103.736(2)
_cell_angle_gamma 90
_cell_formula_units_Z 2
loop_
_atom_type_symbol
_atom_type_radius_bond
C 0.68
H 0.23
N 0.68
O 0.68
loop_
_atom_site_label
_atom_site_type_symbol
_atom_site_fract_x
_atom_site_fract_y
_atom_site_fract_z
O1 O 0.4137(3) 0.56315(18) 0.23330(13)
O2 O 0.4947(2) 0.80529(16) 0.26735(10)
O3 O 0.1966(3) 0.85751(19) -0.19297(13)
O4 O 0.4817(3) 0.81499(19) -0.07049(12)
N1 N 0.3289(2) 0.99350(16) 0.07650(12)
N2 N 0.0006(3) 1.0765(2) 0.05051(16)
N3 N 0.3069(3) 0.87019(19) -0.10037(14)
C1 C 0.1884(3) 1.0697(2) 0.11894(16)
C2 C 0.0210(4) 1.0033(3) -0.03919(19)
H1 H -0.08600 0.98960 -0.10110
C3 C 0.2202(3) 0.9525(2) -0.02600(15)
C4 C 0.2403(4) 1.1401(3) 0.22752(18)
H2 H 0.11770 1.18830 0.24060
H3 H 0.34890 1.21360 0.23090
H4 H 0.28790 1.06420 0.28140
C5 C 0.5496(3) 0.9696(2) 0.12918(16)
H5 H 0.59220 1.04320 0.18650
H6 H 0.63340 0.98610 0.07690
C6 C 0.5938(3) 0.8126(2) 0.17662(15)
H7 H 0.53220 0.73690 0.12230
C7 C 0.8258(4) 0.7855(3) 0.2165(2)
H8 H 0.84910 0.68550 0.24540
H9 H 0.88370 0.85730 0.27190
H10 H 0.89260 0.79640 0.15740
C8 C 0.4176(3) 0.6731(2) 0.28833(15)
C9 C 0.3378(3) 0.6771(2) 0.38840(16)
C10 C 0.2097(3) 0.5615(3) 0.40650(17)
H11 H 0.17430 0.48390 0.35640
C11 C 0.1339(4) 0.5610(3) 0.4990(2)
H12 H 0.04610 0.48370 0.51060
C12 C 0.1884(4) 0.6746(4) 0.5740(2)
H13 H 0.13740 0.67420 0.63630
C13 C 0.3170(4) 0.7876(3) 0.55686(18)
H14 H 0.35590 0.86320 0.60820
C14 C 0.3898(3) 0.7905(3) 0.46401(16)
H15 H 0.47460 0.86960 0.45220
#END
