
#######################################################################
#
#                 Cambridge Crystallographic Data Centre
#                                CCDC
#
#######################################################################
#
# If this CIF has been generated from an entry in the Cambridge
# Structural Database, then it will include bibliographic, chemical,
# crystal, experimental, refinement or atomic coordinate data resulting
# from the CCDC's data processing and validation procedures.
#
#######################################################################

data_CSD_CIF_QEPPIN
_audit_creation_date 2018-01-15
_audit_creation_method CSD-ConQuest-V1
_database_code_CSD QEPPIN
_database_code_depnum_ccdc_archive 'CCDC 1817134'
_chemical_formula_sum 'C21 H25 N1 O4'
_chemical_formula_moiety
;
C21 H25 N1 O4
;
_journal_coden_Cambridge 1078
_journal_year 2018
_journal_name_full 'CSD Communication(Private Communication) '
loop_
_publ_author_name
"R.D.Rogers"
_chemical_name_systematic
;
1,2,3,3a,6,6a,7,8,9,10,10a,10b-dodecahydrocyclohepta[de]naphthalen-7-yl 
4-nitrobenzoate
;
_cell_volume    902.359
_exptl_crystal_colour 'colorless'
_exptl_crystal_density_diffrn 1.308
_exptl_special_details
;
Department of Chemistry, McGill University, 801 Sherbrooke St. West, 
Montreal, Canada
We calculate void space in the structure
;
_exptl_crystal_description 'plate'
_diffrn_ambient_temperature 173
#These two values have been output from a single CSD field.
_refine_ls_R_factor_gt 0.0775
_refine_ls_wR_factor_gt 0.0775
_symmetry_cell_setting triclinic
_symmetry_space_group_name_H-M 'P 1'
_symmetry_Int_Tables_number 1
loop_
_symmetry_equiv_pos_site_id
_symmetry_equiv_pos_as_xyz
1 x,y,z
_cell_length_a 6.1817(6)
_cell_length_b 8.2004(8)
_cell_length_c 19.230(2)
_cell_angle_alpha 97.375(2)
_cell_angle_beta 96.555(2)
_cell_angle_gamma 108.829(2)
_cell_formula_units_Z 2
loop_
_atom_type_symbol
_atom_type_radius_bond
C 0.68
H 0.23
N 0.68
O 0.68
loop_
_atom_site_label
_atom_site_type_symbol
_atom_site_fract_x
_atom_site_fract_y
_atom_site_fract_z
O1 O 0.6626(3) 0.0139(2) 0.2604(1)
O2 O 0.8436(4) -0.1711(3) 0.2892(1)
O3 O 0.1961(6) -0.3669(4) 0.5530(2)
O4 O 0.0065(6) -0.1994(4) 0.5242(2)
N1 N 0.1533(6) -0.2663(4) 0.5157(2)
C1 C 0.7975(5) 0.0459(4) 0.2019(2)
C2 C 1.0493(5) 0.1575(4) 0.2296(2)
C3 C 1.0984(6) 0.3152(5) 0.2880(2)
C4 C 0.9303(6) 0.4152(4) 0.2849(2)
C5 C 0.8413(5) 0.4470(4) 0.2123(2)
C6 C 0.6370(4) 0.2913(3) 0.1687(2)
C7 C 0.5428(5) 0.3477(4) 0.1018(2)
C8 C 0.3439(5) 0.2023(4) 0.0557(2)
C9 C 0.2940(5) 0.0354(4) 0.0621(2)
C10 C 0.4344(5) -0.0248(3) 0.1143(2)
C11 C 0.6703(5) 0.1145(3) 0.1468(2)
C12 C 1.0308(5) 0.5254(4) 0.1691(2)
C13 C 0.9332(6) 0.5780(4) 0.1032(2)
C14 C 0.7334(5) 0.4237(4) 0.0585(2)
C15 C 0.7026(5) -0.1014(4) 0.2985(2)
C16 C 0.5532(5) -0.1393(3) 0.3544(2)
C17 C 0.5707(6) -0.2691(4) 0.3926(2)
C18 C 0.4383(7) -0.3118(4) 0.4447(2)
C19 C 0.2903(6) -0.2228(4) 0.4585(2)
C20 C 0.2666(6) -0.0949(4) 0.4217(2)
C21 C 0.3993(5) -0.0537(4) 0.3690(2)
H1 H 0.7970(5) -0.0705(4) 0.1786(2)
H2 H 1.1205(5) 0.2001(4) 0.1889(2)
H3 H 1.1297(5) 0.0808(4) 0.2476(2)
H4 H 1.1030(6) 0.2747(5) 0.3343(2)
H5 H 1.2550(6) 0.3980(5) 0.2872(2)
H6 H 1.0066(6) 0.5305(4) 0.3162(2)
H7 H 0.7944(6) 0.3513(4) 0.3054(2)
H8 H 0.7735(5) 0.5409(4) 0.2235(2)
H9 H 0.5112(4) 0.2681(3) 0.1984(2)
H10 H 0.4827(5) 0.4431(4) 0.1181(2)
H11 H 0.2492(5) 0.2311(4) 0.0203(2)
H12 H 0.1626(5) -0.0493(4) 0.0320(2)
H13 H 0.4599(5) -0.1298(3) 0.0904(2)
H14 H 0.3460(5) -0.0593(3) 0.1530(2)
H15 H 0.7636(5) 0.1299(3) 0.1074(2)
H16 H 1.1515(5) 0.6293(4) 0.1990(2)
H17 H 1.1046(5) 0.4383(4) 0.1550(2)
H18 H 1.0569(6) 0.6190(4) 0.0745(2)
H19 H 0.8774(6) 0.6758(4) 0.1173(2)
H20 H 0.7934(5) 0.3312(4) 0.0402(2)
H21 H 0.6667(5) 0.4629(4) 0.0173(2)
H22 H 0.6751(6) -0.3288(4) 0.3825(2)
H23 H 0.4491(7) -0.4008(4) 0.4706(2)
H24 H 0.1614(6) -0.0361(4) 0.4322(2)
H25 H 0.3848(5) 0.0337(4) 0.3426(2)
#END
