
#######################################################################
#
#                 Cambridge Crystallographic Data Centre
#                                CCDC
#
#######################################################################
#
# If this CIF has been generated from an entry in the Cambridge
# Structural Database, then it will include bibliographic, chemical,
# crystal, experimental, refinement or atomic coordinate data resulting
# from the CCDC's data processing and validation procedures.
#
#######################################################################

data_CSD_CIF_QEPVEN
_audit_creation_date 2007-01-05
_audit_creation_method CSD-ConQuest-V1
_database_code_CSD QEPVEN
_database_code_depnum_ccdc_archive 'CCDC 612700'
_chemical_formula_sum 'C12 H11 N1 O6'
_chemical_formula_moiety
;
C12 H11 N1 O6
;
_journal_coden_Cambridge 1366
_journal_volume 348
_journal_year 2006
_journal_page_first 1826
_journal_name_full 'Adv.Synth.Catal. '
loop_
_publ_author_name
"Zhong-Zhen Zhou"
"Feng-Qing Ji"
"Min Cao"
"Guang-Fu Yang"
_chemical_name_systematic
;
methyl 2-(2-methyl-5-nitro-3-oxo-2,3-dihydrobenzofuran-2-yl)acetate
;
_cell_volume   2467.316
_exptl_crystal_colour 'colorless'
_exptl_crystal_density_diffrn 1.428
_exptl_crystal_description 'block'
_exptl_crystal_preparation 'acetone'
_diffrn_ambient_temperature 292
#These two values have been output from a single CSD field.
_refine_ls_R_factor_gt 0.0489
_refine_ls_wR_factor_gt 0.0489
_symmetry_cell_setting orthorhombic
_symmetry_space_group_name_H-M 'P b c a'
_symmetry_Int_Tables_number 61
loop_
_symmetry_equiv_pos_site_id
_symmetry_equiv_pos_as_xyz
1 x,y,z
2 1/2-x,-y,1/2+z
3 -x,1/2+y,1/2-z
4 1/2+x,1/2-y,-z
5 -x,-y,-z
6 -1/2+x,y,-1/2-z
7 x,-1/2-y,-1/2+z
8 -1/2-x,-1/2+y,z
_cell_length_a 6.4456(7)
_cell_length_b 16.3915(17)
_cell_length_c 23.353(3)
_cell_angle_alpha 90
_cell_angle_beta 90
_cell_angle_gamma 90
_cell_formula_units_Z 8
loop_
_atom_type_symbol
_atom_type_radius_bond
C 0.68
H 0.23
N 0.68
O 0.68
loop_
_atom_site_label
_atom_site_type_symbol
_atom_site_fract_x
_atom_site_fract_y
_atom_site_fract_z
C1 C 0.6021(2) 0.39575(9) 0.52285(7)
C2 C 0.4297(3) 0.35234(10) 0.54148(7)
H1 H 0.40620 0.34580 0.58050
C3 C 0.2933(3) 0.31893(10) 0.50271(7)
H2 H 0.17750 0.28970 0.51460
C4 C 0.3359(2) 0.33073(10) 0.44518(7)
C5 C 0.5068(2) 0.37511(9) 0.42677(6)
C6 C 0.6453(2) 0.40841(9) 0.46567(7)
H3 H 0.76120 0.43770 0.45390
C7 C 0.5008(3) 0.37444(10) 0.36398(7)
C8 C 0.2998(3) 0.32982(10) 0.34796(7)
C9 C 0.1438(3) 0.38986(13) 0.32363(9)
H4 H 0.01260 0.36310 0.31860
H5 H 0.19230 0.40950 0.28730
H6 H 0.12790 0.43490 0.34950
C10 C 0.3328(3) 0.25781(11) 0.30835(7)
H7 H 0.20460 0.22700 0.30610
H8 H 0.36340 0.27820 0.27030
C11 C 0.5039(3) 0.20131(10) 0.32636(7)
C12 C 0.6746(4) 0.07827(12) 0.30541(10)
H9 H 0.81090 0.10180 0.30550
H10 H 0.66930 0.03480 0.27790
H11 H 0.64360 0.05720 0.34280
N1 N 0.7417(3) 0.42964(9) 0.56616(6)
O1 O 0.8973(3) 0.46404(12) 0.55056(7)
O2 O 0.6941(3) 0.42241(10) 0.61642(6)
O3 O 0.21816(19) 0.29987(7) 0.40248(5)
O4 O 0.6188(2) 0.40410(9) 0.32980(5)
O5 O 0.6090(3) 0.21072(9) 0.36776(7)
O6 O 0.5240(2) 0.14003(8) 0.29037(5)
#END
