
#######################################################################
#
#                 Cambridge Crystallographic Data Centre
#                                CCDC
#
#######################################################################
#
# If this CIF has been generated from an entry in the Cambridge
# Structural Database, then it will include bibliographic, chemical,
# crystal, experimental, refinement or atomic coordinate data resulting
# from the CCDC's data processing and validation procedures.
#
#######################################################################

data_CSD_CIF_QEPZAO
_audit_creation_date 2013-04-23
_audit_creation_method CSD-ConQuest-V1
_database_code_CSD QEPZAO
_database_code_depnum_ccdc_archive 'CCDC 928430'
_chemical_formula_sum 'C27 H22 N4 O7'
_chemical_formula_moiety
;
C27 H22 N4 O7
;
_journal_coden_Cambridge 392
_journal_volume 87
_journal_year 2013
_journal_page_first 2249
_journal_name_full 'Heterocycles '
loop_
_publ_author_name
"E.Korkusuz"
"I.Yildirim"
"E.Sahin"
_chemical_name_systematic
;
Ethyl 
1-(2,4-dinitrophenyl)-4-(4-methylbenzoyl)-3-(4-methylphenyl)-1H-pyrazole-5-car
boxylate
;
_cell_volume   1264.441
_exptl_crystal_colour 'colorless'
_exptl_crystal_density_diffrn 1.351
_exptl_special_details
;
contribution from Ataturk University, Chemistry Department, Erzurum-25240, 
Turkey
;
_exptl_crystal_description 'prism'
_diffrn_ambient_temperature 293
#These two values have been output from a single CSD field.
_refine_ls_R_factor_gt 0.0626
_refine_ls_wR_factor_gt 0.0626
_symmetry_cell_setting triclinic
_symmetry_space_group_name_H-M 'P -1'
_symmetry_Int_Tables_number 2
loop_
_symmetry_equiv_pos_site_id
_symmetry_equiv_pos_as_xyz
1 x,y,z
2 -x,-y,-z
_cell_length_a 9.6716(2)
_cell_length_b 10.3003(2)
_cell_length_c 12.7144(3)
_cell_angle_alpha 89.716(4)
_cell_angle_beta 89.395(5)
_cell_angle_gamma 86.708(4)
_cell_formula_units_Z 2
loop_
_atom_type_symbol
_atom_type_radius_bond
C 0.68
H 0.23
N 0.68
O 0.68
loop_
_atom_site_label
_atom_site_type_symbol
_atom_site_fract_x
_atom_site_fract_y
_atom_site_fract_z
O1 O 0.9716(2) 0.2797(2) 0.27415(18)
N1 N 0.7556(2) 0.0712(2) 0.52710(18)
O2 O 0.6990(3) 0.3188(2) 0.63056(18)
O3 O 0.4802(2) 0.1639(2) 0.51456(18)
O4 O 0.3932(2) 0.2270(2) 0.66510(19)
N2 N 0.7982(2) -0.0253(2) 0.45922(19)
N3 N 0.4752(2) 0.1611(2) 0.6115(2)
C1 C 0.7016(3) 0.0295(3) 0.6263(2)
O5 O 0.7716(3) 0.4122(2) 0.4841(2)
C2 C 0.7383(3) 0.3557(3) 0.2556(2)
O6 O 0.6387(3) -0.1973(3) 0.9613(2)
O7 O 0.4372(3) -0.1012(3) 0.93716(19)
C3 C 0.8342(3) 0.0345(3) 0.3713(2)
C4 C 0.5726(3) 0.0702(3) 0.6673(2)
N4 N 0.5578(3) -0.1270(3) 0.9118(2)
C5 C 0.8569(3) -0.0053(3) 0.1779(2)
H1 H 0.80790 0.07340 0.16500
C6 C 0.7662(3) 0.1917(3) 0.4825(2)
C7 C 0.8851(3) -0.0442(3) 0.2806(2)
C8 C 0.7368(3) -0.1136(3) 0.7743(2)
H2 H 0.79110 -0.17630 0.81030
C9 C 0.7693(3) 0.4621(3) 0.1953(2)
H3 H 0.86150 0.47950 0.18350
C10 C 0.7396(3) 0.3125(3) 0.5423(3)
C11 C 0.9597(3) -0.1615(3) 0.2970(3)
H4 H 0.98000 -0.18950 0.36500
C12 C 0.8517(3) 0.2723(3) 0.3019(2)
C13 C 0.7338(8) 0.5420(4) 0.5255(5)
H5 H 0.65850 0.58150 0.48440
H6 H 0.70100 0.53400 0.59750
C14 C 0.7827(3) -0.0620(3) 0.6804(2)
H7 H 0.86920 -0.08930 0.65350
C15 C 0.8163(3) 0.1713(3) 0.3821(2)
C16 C 0.5257(3) 0.0214(3) 0.7618(2)
H8 H 0.44010 0.04970 0.78990
C17 C 0.4969(3) 0.4124(3) 0.2270(3)
H9 H 0.40470 0.39410 0.23770
C18 C 0.6099(3) -0.0707(3) 0.8132(2)
C19 C 0.5282(4) 0.5199(3) 0.1671(2)
C20 C 0.6002(3) 0.3322(3) 0.2711(3)
H10 H 0.57660 0.26130 0.31170
C21 C 0.6665(4) 0.5430(3) 0.1522(3)
H11 H 0.69040 0.61440 0.11240
C22 C 0.9016(3) -0.0834(3) 0.0950(3)
H12 H 0.88080 -0.05660 0.02670
C23 C 0.9759(3) -0.1998(3) 0.1103(3)
C24 C 1.0040(3) -0.2369(3) 0.2118(3)
H13 H 1.05440 -0.31510 0.22390
C25 C 0.4137(4) 0.6080(4) 0.1208(3)
H14 H 0.38010 0.66950 0.17280
H15 H 0.33940 0.55670 0.09900
H16 H 0.44900 0.65360 0.06120
C26 C 1.0237(5) -0.2839(4) 0.0182(3)
H17 H 0.95450 -0.27860 -0.03540
H18 H 1.03810 -0.37250 0.04130
H19 H 1.10900 -0.25400 -0.00970
C27 C 0.8343(8) 0.6151(6) 0.5232(9)
H20 H 0.89490 0.59360 0.58080
H21 H 0.80010 0.70410 0.52900
H22 H 0.88430 0.60310 0.45800
#END
