
#######################################################################
#
#                 Cambridge Crystallographic Data Centre
#                                CCDC
#
#######################################################################
#
# If this CIF has been generated from an entry in the Cambridge
# Structural Database, then it will include bibliographic, chemical,
# crystal, experimental, refinement or atomic coordinate data resulting
# from the CCDC's data processing and validation procedures.
#
#######################################################################

data_CSD_CIF_QERYUK
_audit_creation_date 2018-01-17
_audit_creation_method CSD-ConQuest-V1
_database_code_CSD QERYUK
_database_code_depnum_ccdc_archive 'CCDC 1570491'
_chemical_formula_sum 'C15 H10 N2 O3'
_chemical_formula_moiety
;
C15 H10 N2 O3
;
_journal_coden_Cambridge 1495
_journal_year 2017
_journal_name_full 'Arab.J.Chem. '
loop_
_publ_author_name
"M.R.C.de Castro"
"R.F.Naves"
"A.Bernardes"
"C.C.da Silva"
"C.N.Perez"
"A.F.Moura"
"M.O.de Moraes"
"F.T.Martins"
_chemical_name_systematic
;
2-[(2-nitrophenyl)methylidene]-1,2-dihydro-3H-indol-3-one
;
_cell_volume    594.041
_exptl_crystal_colour 'colorless'
_exptl_crystal_density_diffrn 1.489
_exptl_crystal_description 'prism'
_diffrn_ambient_temperature 296
#These two values have been output from a single CSD field.
_refine_ls_R_factor_gt 0.0425
_refine_ls_wR_factor_gt 0.0425
_symmetry_cell_setting monoclinic
_symmetry_space_group_name_H-M 'P 21'
_symmetry_Int_Tables_number 4
loop_
_symmetry_equiv_pos_site_id
_symmetry_equiv_pos_as_xyz
1 x,y,z
2 -x,1/2+y,-z
_cell_length_a 3.897(6)
_cell_length_b 20.47(2)
_cell_length_c 7.447(8)
_cell_angle_alpha 90
_cell_angle_beta 90.45(3)
_cell_angle_gamma 90
_cell_formula_units_Z 2
loop_
_atom_type_symbol
_atom_type_radius_bond
C 0.68
H 0.23
N 0.68
O 0.68
loop_
_atom_site_label
_atom_site_type_symbol
_atom_site_fract_x
_atom_site_fract_y
_atom_site_fract_z
O1 O 0.780(1) 0.35414(17) 1.0001(4)
O2 O 0.7404(13) 0.6285(2) 1.3277(5)
O3 O 0.9890(15) 0.5361(2) 1.3050(5)
C1 C 0.9574(11) 0.4914(2) 0.9432(5)
H1 H 0.99360 0.47280 1.05570
C2 C 0.8258(11) 0.45211(19) 0.8179(5)
C3 C 1.2223(13) 0.6931(2) 0.8731(7)
H2 H 1.27600 0.73690 0.85530
C4 C 1.2584(12) 0.6488(3) 0.7358(6)
H3 H 1.34330 0.66250 0.62560
C5 C 1.1703(12) 0.5849(2) 0.7600(6)
H4 H 1.18960 0.55640 0.66330
C6 C 1.0514(11) 0.5599(2) 0.9252(6)
C7 C 0.7276(11) 0.3820(2) 0.8593(6)
C8 C 0.5639(11) 0.3578(2) 0.6968(5)
C9 C 0.4176(11) 0.2979(2) 0.6560(6)
H5 H 0.40670 0.26500 0.74180
C10 C 0.2904(12) 0.2884(3) 0.4880(7)
H6 H 0.19040 0.24860 0.45790
C11 C 1.1048(13) 0.6718(2) 1.0387(7)
H7 H 1.07950 0.70110 1.13310
C12 C 1.0261(12) 0.6067(2) 1.0612(5)
N1 N 0.7316(10) 0.46262(17) 0.6417(5)
H8 H 0.76280 0.49860 0.58440
C13 C 0.5791(11) 0.4072(2) 0.5694(6)
C14 C 0.3089(12) 0.3378(3) 0.3610(7)
H9 H 0.22120 0.33020 0.24630
C15 C 0.4543(13) 0.3981(2) 0.3997(6)
H10 H 0.46610 0.43090 0.31350
N2 N 0.9099(11) 0.5888(2) 1.2438(5)
#END
