
#######################################################################
#
#                 Cambridge Crystallographic Data Centre
#                                CCDC
#
#######################################################################
#
# If this CIF has been generated from an entry in the Cambridge
# Structural Database, then it will include bibliographic, chemical,
# crystal, experimental, refinement or atomic coordinate data resulting
# from the CCDC's data processing and validation procedures.
#
#######################################################################

data_CSD_CIF_QESKUU
_audit_creation_date 2001-06-22
_audit_creation_method CSD-ConQuest-V1
_database_code_CSD QESKUU
_database_code_depnum_ccdc_archive 'CCDC 147799'
_chemical_formula_sum 'C13 H19 N1 O3'
_chemical_formula_moiety
;
C13 H19 N1 O3
;
_journal_coden_Cambridge 1291
_journal_year 2001
_journal_page_first 1293
_journal_name_full 'Eur.J.Org.Chem. '
loop_
_publ_author_name
"A.M.Palmer"
"V.Jager"
_chemical_name_systematic
;
(2S,3S,4R,5R)-N-Benzyl-3,4-dihydroxy-2,5-dimethyl-pyrrolidine-N-oxide
;
_chemical_melting_point 459.15
_cell_volume   1265.271
_exptl_crystal_colour 'colorless'
_exptl_crystal_density_diffrn 1.246
_exptl_special_details
;
no activity as glycosidase inhibitor

;
_exptl_crystal_description 'needles'
_exptl_crystal_preparation 'methanol/diethyl ether'
_diffrn_ambient_temperature ?
_diffrn_special_details
;
The study was carried out at room temperature,in the range 283-303K

;
#These two values have been output from a single CSD field.
_refine_ls_R_factor_gt 0.0545
_refine_ls_wR_factor_gt 0.0545
_symmetry_cell_setting orthorhombic
_symmetry_space_group_name_H-M 'P n m a'
_symmetry_Int_Tables_number 62
loop_
_symmetry_equiv_pos_site_id
_symmetry_equiv_pos_as_xyz
1 x,y,z
2 1/2-x,-y,1/2+z
3 1/2+x,1/2-y,1/2-z
4 -x,1/2+y,-z
5 -x,-y,-z
6 -1/2+x,y,-1/2-z
7 -1/2-x,-1/2+y,-1/2+z
8 x,-1/2-y,z
_cell_length_a 9.890(2)
_cell_length_b 11.245(2)
_cell_length_c 11.377(2)
_cell_angle_alpha 90
_cell_angle_beta 90
_cell_angle_gamma 90
_cell_formula_units_Z 4
loop_
_atom_type_symbol
_atom_type_radius_bond
C 0.68
H 0.23
N 0.68
O 0.68
loop_
_atom_site_label
_atom_site_type_symbol
_atom_site_fract_x
_atom_site_fract_y
_atom_site_fract_z
O1 O 1.0069(2) 0.75000 0.1569(2)
N1 N 1.1453(2) 0.75000 0.1341(2)
C1 C 1.2089(2) 0.6452(2) 0.1972(2)
O2 O 1.2881(2) 0.6247(2) 0.3992(1)
C2 C 1.1921(2) 0.6806(2) 0.3268(2)
C3 C 1.1473(3) 0.5269(2) 0.1650(2)
C4 C 1.1655(3) 0.75000 0.0024(2)
C5 C 1.3107(3) 0.75000 -0.0389(2)
C6 C 1.3785(2) 0.6443(2) -0.0608(2)
C7 C 1.5105(3) 0.6449(2) -0.0998(2)
C8 C 1.5771(4) 0.75000 -0.1186(3)
H1 H 1.3055(2) 0.6431(2) 0.1785(2)
H2 H 1.3632(5) 0.6526(18) 0.3859(18)
H3 H 1.1023(2) 0.6542(2) 0.3523(2)
H4 H 1.1621(3) 0.5115(2) 0.0830(2)
H5 H 1.0519(3) 0.5287(2) 0.1806(2)
H6 H 1.1886(3) 0.4652(2) 0.2109(2)
H7 H 1.1208(3) 0.68050 -0.0299(2)
H8 H 1.3344(2) 0.5722(2) -0.0491(2)
H9 H 1.5547(3) 0.5733(2) -0.1136(2)
H10 H 1.6666(4) 0.75000 -0.1437(3)
C2G C 1.1921(2) 0.8194(2) 0.3268(2)
C1G C 1.2089(2) 0.8548(2) 0.1972(2)
C7G C 1.5105(3) 0.8551(2) -0.0998(2)
C6G C 1.3785(2) 0.8557(2) -0.0608(2)
H8G H 1.3344(2) 0.9278(2) -0.0491(2)
H9G H 1.5547(3) 0.9267(2) -0.1136(2)
H7G H 1.1208(3) 0.81950 -0.0299(2)
C3G C 1.1473(3) 0.9731(2) 0.1650(2)
H4G H 1.1621(3) 0.9885(2) 0.0830(2)
H5G H 1.0519(3) 0.9713(2) 0.1806(2)
H6G H 1.1886(3) 1.0348(2) 0.2109(2)
H1G H 1.3055(2) 0.8569(2) 0.1785(2)
O2G O 1.2881(2) 0.8753(2) 0.3992(1)
H2G H 1.3632(5) 0.8474(18) 0.3859(18)
H3G H 1.1023(2) 0.8458(2) 0.3523(2)
#END
