
#######################################################################
#
#                 Cambridge Crystallographic Data Centre
#                                CCDC
#
#######################################################################
#
# If this CIF has been generated from an entry in the Cambridge
# Structural Database, then it will include bibliographic, chemical,
# crystal, experimental, refinement or atomic coordinate data resulting
# from the CCDC's data processing and validation procedures.
#
#######################################################################

data_CSD_CIF_QEWWOF
_audit_creation_date 2007-04-03
_audit_creation_method CSD-ConQuest-V1
_database_code_CSD QEWWOF
_database_code_depnum_ccdc_archive 'CCDC 626438'
_chemical_formula_sum 'C22 H26 N2 O7'
_chemical_formula_moiety
;
C22 H26 N2 O7
;
_journal_coden_Cambridge 1336
_journal_volume 9
_journal_year 2007
_journal_page_first 359
_journal_name_full 'Org.Lett. '
loop_
_publ_author_name
"H.Watanabe"
"M.Takano"
"A.Umino"
"T.Ito"
"H.Ishikawa"
"M.Nakada"
_chemical_name_systematic
;
(+)-(3aS,5a,6S,9aR,9bS)-Dodecahydro-3a,5a-dimethyl-1-oxo-1H-cyclopenta(a)napht
halen-6-yl 3,5-dinitrobenzoate
;
_chemical_melting_point 469.95
_cell_volume   2049.917
_exptl_crystal_colour 'colorless'
_exptl_crystal_density_diffrn 1.394
_exptl_special_details
;
Melting point range 469.95-470.25K

;
_exptl_crystal_description 'prism'
_diffrn_ambient_temperature 93.1
#These two values have been output from a single CSD field.
_refine_ls_R_factor_gt 0.032
_refine_ls_wR_factor_gt 0.032
_symmetry_cell_setting monoclinic
_symmetry_space_group_name_H-M 'C 2'
_symmetry_Int_Tables_number 5
loop_
_symmetry_equiv_pos_site_id
_symmetry_equiv_pos_as_xyz
1 x,y,z
2 -x,y,-z
3 1/2+x,1/2+y,z
4 1/2-x,1/2+y,-z
_cell_length_a 23.80(1)
_cell_length_b 6.428(3)
_cell_length_c 15.690(8)
_cell_angle_alpha 90
_cell_angle_beta 121.35(2)
_cell_angle_gamma 90
_cell_formula_units_Z 4
loop_
_atom_type_symbol
_atom_type_radius_bond
C 0.68
H 0.23
N 0.68
O 0.68
loop_
_atom_site_label
_atom_site_type_symbol
_atom_site_fract_x
_atom_site_fract_y
_atom_site_fract_z
O1 O 1.23282(6) 0.8148(2) 0.93041(9)
O2 O 0.93939(5) 0.8455(2) 0.68803(8)
O3 O 0.86330(6) 0.6134(2) 0.5863(1)
O4 O 0.64209(6) 0.6814(2) 0.5225(1)
O5 O 0.61736(7) 0.9324(3) 0.5887(1)
O6 O 0.76822(8) 1.5015(2) 0.7442(1)
O7 O 0.86885(7) 1.4717(2) 0.7806(1)
N1 N 0.65480(7) 0.8433(3) 0.5695(1)
N2 N 0.81234(8) 1.4093(2) 0.7424(1)
C1 C 1.20497(8) 0.8614(3) 0.9732(1)
C2 C 1.23137(8) 0.8222(3) 1.0834(1)
C3 C 1.18532(8) 0.9404(3) 1.1061(1)
C4 C 1.08281(8) 0.7397(3) 0.9894(1)
C5 C 1.02725(8) 0.7067(3) 0.8812(1)
C6 C 0.99189(8) 0.7048(3) 0.6988(1)
C7 C 1.00734(8) 0.7604(3) 0.6192(1)
C8 C 1.04186(8) 0.9701(3) 0.6379(1)
C9 C 1.10296(8) 0.9800(3) 0.7426(1)
C10 C 1.13955(7) 0.9775(3) 0.9290(1)
C11 C 1.11871(8) 0.9486(3) 1.0066(1)
C12 C 1.05062(8) 0.7242(3) 0.8065(1)
C13 C 1.08432(7) 0.9382(3) 0.8206(1)
C14 C 1.07782(9) 1.1292(3) 1.0068(1)
C15 C 1.09611(9) 0.5397(3) 0.8216(1)
C16 C 0.87857(8) 0.7729(3) 0.6328(1)
C17 C 0.82888(8) 0.9089(3) 0.6377(1)
C18 C 0.76606(8) 0.8266(3) 0.5974(1)
C19 C 0.84457(8) 1.1014(3) 0.6843(1)
C20 C 0.72018(8) 0.9373(3) 0.6075(1)
C21 C 0.79604(9) 1.2071(3) 0.6900(1)
C22 C 0.73351(9) 1.1295(3) 0.6529(1)
H1 H 1.23380 0.67050 1.09850
H2 H 1.27780 0.89150 1.12050
H3 H 1.18070 0.87330 1.15880
H4 H 1.20470 1.07530 1.12580
H5 H 1.06570 0.73820 1.03700
H6 H 1.11970 0.63020 1.01100
H7 H 0.99340 0.80130 0.85790
H8 H 1.00140 0.57530 0.87290
H9 H 0.96820 0.56620 0.68390
H10 H 0.96600 0.76810 0.55780
H11 H 1.03500 0.65910 0.62180
H12 H 1.00630 1.07580 0.62350
H13 H 1.05730 0.99480 0.59250
H14 H 1.12430 1.12320 0.75510
H15 H 1.13530 0.88220 0.74410
H16 H 1.15700 1.11590 0.94010
H17 H 1.04510 1.03900 0.80780
H18 H 1.10300 1.26630 1.02150
H19 H 1.06600 1.11130 1.05550
H20 H 1.03800 1.15930 0.94350
H21 H 1.13490 0.52760 0.89130
H22 H 1.11990 0.55160 0.78230
H23 H 1.06690 0.40860 0.80430
H24 H 0.75610 0.71170 0.56130
H25 H 0.88660 1.16190 0.71180
H26 H 0.69930 1.20920 0.65790
#END
