
#######################################################################
#
#                 Cambridge Crystallographic Data Centre
#                                CCDC
#
#######################################################################
#
# If this CIF has been generated from an entry in the Cambridge
# Structural Database, then it will include bibliographic, chemical,
# crystal, experimental, refinement or atomic coordinate data resulting
# from the CCDC's data processing and validation procedures.
#
#######################################################################

data_CSD_CIF_QEXYOI
_audit_creation_date 2007-04-03
_audit_creation_method CSD-ConQuest-V1
_database_code_CSD QEXYOI
_database_code_depnum_ccdc_archive 'CCDC 639993'
_chemical_formula_sum 'C29 H22 N4 O5'
_chemical_formula_moiety
;
C29 H22 N4 O5
;
_journal_coden_Cambridge 95
_journal_year 2006
_journal_page_first 350
_journal_name_full 'Izv.Akad.Nauk SSSR,Ser.Khim.(Russ.)(Russ.Chem.Bull.) '
loop_
_publ_author_name
"A.I.Zbruev"
"F.G.Yaremenko"
"V.A.Chebanov"
"S.M.Desenko"
"O.V.Shishkin"
"E.V.Lukinova"
"I.V.Knyazeva"
_chemical_name_systematic
;
8-Methyl-1,2-bis(4-nitrophenyl)-4-phenyl-1,2-dihydro-3aH-(1,3)oxazolo(3,2-a)qu
inoxaline
;
_cell_volume   5079.012
_exptl_crystal_colour 'colorless'
_exptl_crystal_density_diffrn 1.325
_exptl_crystal_description 'plate'
_exptl_crystal_preparation 'acetonitrile'
_diffrn_ambient_temperature 295
#These two values have been output from a single CSD field.
_refine_ls_R_factor_gt 0.0842
_refine_ls_wR_factor_gt 0.0842
_symmetry_cell_setting orthorhombic
_symmetry_space_group_name_H-M 'P b c n'
_symmetry_Int_Tables_number 60
loop_
_symmetry_equiv_pos_site_id
_symmetry_equiv_pos_as_xyz
1 x,y,z
2 1/2-x,1/2-y,1/2+z
3 -x,y,1/2-z
4 1/2+x,1/2-y,-z
5 -x,-y,-z
6 -1/2+x,-1/2+y,-1/2-z
7 x,-y,-1/2+z
8 -1/2-x,-1/2+y,z
_cell_length_a 36.98(2)
_cell_length_b 10.552(7)
_cell_length_c 13.016(9)
_cell_angle_alpha 90
_cell_angle_beta 90
_cell_angle_gamma 90
_cell_formula_units_Z 8
loop_
_atom_type_symbol
_atom_type_radius_bond
C 0.68
H 0.23
N 0.68
O 0.68
loop_
_atom_site_label
_atom_site_type_symbol
_atom_site_fract_x
_atom_site_fract_y
_atom_site_fract_z
N1 N 0.34723(11) 0.2314(4) 0.8186(3)
N2 N 0.36119(9) 0.2474(4) 0.6051(3)
N3 N 0.5112(2) -0.207(1) 0.5373(11)
N4 N 0.32158(15) 0.3991(7) 0.1355(4)
O1 O 0.35681(8) 0.0320(3) 0.6216(3)
O2 O 0.5196(2) -0.2748(9) 0.4687(10)
O3 O 0.5299(2) -0.1819(8) 0.6124(8)
O4 O 0.3318(2) 0.3553(5) 0.0549(3)
O5 O 0.30139(13) 0.4907(7) 0.1401(3)
C1 C 0.40682(15) 0.4085(5) 0.6391(4)
H1 H 0.41139(15) 0.4148(5) 0.5690(4)
C2 C 0.42596(14) 0.4831(5) 0.7060(5)
C3 C 0.4182(2) 0.4753(6) 0.8104(5)
H2 H 0.4303(2) 0.5272(6) 0.8567(5)
C4 C 0.3927(2) 0.3915(6) 0.8448(4)
H3 H 0.3885(2) 0.3862(6) 0.9151(4)
C5 C 0.37280(14) 0.3133(5) 0.7787(4)
C6 C 0.33063(13) 0.1558(5) 0.7594(4)
C7 C 0.33793(13) 0.1472(5) 0.6448(4)
H4 H 0.31489(13) 0.1483(5) 0.6077(4)
C8 C 0.38091(13) 0.3243(5) 0.6734(4)
C9 C 0.37404(11) 0.0504(4) 0.5252(3)
H5 H 0.35871(11) 0.0165(4) 0.4702(3)
C10 C 0.37803(12) 0.1980(5) 0.5119(3)
H6 H 0.40379(12) 0.2198(5) 0.5128(3)
C11 C 0.4520(2) 0.5763(8) 0.6705(6)
H7 H 0.4483(11) 0.5920(42) 0.5986(12)
H8 H 0.4760(2) 0.5448(25) 0.6813(42)
H9 H 0.4488(11) 0.6537(20) 0.7082(32)
C12 C 0.30308(12) 0.0697(5) 0.8039(4)
C13 C 0.29159(14) 0.0887(6) 0.9035(4)
H10 H 0.30098(14) 0.1554(6) 0.9419(4)
C14 C 0.26615(15) 0.0088(8) 0.9464(5)
H11 H 0.25817(15) 0.0236(8) 1.0131(5)
C15 C 0.2526(2) -0.0909(8) 0.8933(6)
H12 H 0.2358(2) -0.1444(8) 0.9243(6)
C16 C 0.26338(12) -0.1134(6) 0.7937(5)
H13 H 0.25384(12) -0.1809(6) 0.7566(5)
C17 C 0.28937(13) -0.0315(6) 0.7491(4)
H14 H 0.29726(13) -0.0461(6) 0.6823(4)
C18 C 0.40995(12) -0.0193(5) 0.5261(4)
C19 C 0.4330(2) -0.0008(6) 0.6105(4)
H15 H 0.4259(2) 0.0516(6) 0.6644(4)
C20 C 0.4664(2) -0.0608(8) 0.6134(6)
H16 H 0.4820(2) -0.0471(8) 0.6682(6)
C21 C 0.4758(2) -0.1374(8) 0.5378(9)
C22 C 0.4548(2) -0.1584(6) 0.4561(8)
H17 H 0.4624(2) -0.2125(6) 0.4040(8)
C23 C 0.4202(2) -0.0960(6) 0.4499(5)
H18 H 0.4052(2) -0.1090(6) 0.3935(5)
C24 C 0.36153(11) 0.2464(5) 0.4129(3)
C25 C 0.37514(14) 0.2061(5) 0.3197(4)
H19 H 0.39327(14) 0.1451(5) 0.3180(4)
C26 C 0.3621(2) 0.2557(6) 0.2294(4)
H20 H 0.3713(2) 0.2283(6) 0.1667(4)
C27 C 0.33539(14) 0.3458(5) 0.2320(3)
C28 C 0.32189(13) 0.3893(6) 0.3240(4)
H21 H 0.30434(13) 0.4524(6) 0.3255(4)
C29 C 0.33477(13) 0.3381(5) 0.4130(4)
H22 H 0.32532(13) 0.3656(5) 0.4754(4)
#END
