
#######################################################################
#
#                 Cambridge Crystallographic Data Centre
#                                CCDC
#
#######################################################################
#
# If this CIF has been generated from an entry in the Cambridge
# Structural Database, then it will include bibliographic, chemical,
# crystal, experimental, refinement or atomic coordinate data resulting
# from the CCDC's data processing and validation procedures.
#
#######################################################################

data_CSD_CIF_QEYHAF01
_audit_creation_date 2014-10-31
_audit_creation_method CSD-ConQuest-V1
_database_code_CSD QEYHAF01
_database_code_depnum_ccdc_archive 'CCDC 1025092'
_chemical_formula_sum 'C18 H16 N2 O3'
_chemical_formula_moiety
;
C18 H16 N2 O3
;
_journal_coden_Cambridge 1500
_journal_volume 4
_journal_year 2014
_journal_page_first 56063
_journal_name_full 'RSC Advances '
loop_
_publ_author_name
"A.Thottiparambil"
"P.R.Anil Kumar"
"L.Chakkumkumarath"
_chemical_name_systematic
;
2-(2-(3,3-dimethyl-3H-indol-2-yl)vinyl)-4-nitrophenol
;
_cell_volume   1552.540
_exptl_crystal_colour 'yellow'
_exptl_crystal_density_diffrn 1.319
_exptl_crystal_description 'block'
_diffrn_ambient_temperature 296
#These two values have been output from a single CSD field.
_refine_ls_R_factor_gt 0.0491
_refine_ls_wR_factor_gt 0.0491
_symmetry_cell_setting monoclinic
_symmetry_space_group_name_H-M 'P 21/n'
_symmetry_Int_Tables_number 14
loop_
_symmetry_equiv_pos_site_id
_symmetry_equiv_pos_as_xyz
1 x,y,z
2 1/2-x,1/2+y,1/2-z
3 -x,-y,-z
4 -1/2+x,-1/2-y,-1/2+z
_cell_length_a 16.299(2)
_cell_length_b 5.7664(6)
_cell_length_c 16.537(2)
_cell_angle_alpha 90
_cell_angle_beta 92.692(5)
_cell_angle_gamma 90
_cell_formula_units_Z 4
loop_
_atom_type_symbol
_atom_type_radius_bond
C 0.68
H 0.23
N 0.68
O 0.68
loop_
_atom_site_label
_atom_site_type_symbol
_atom_site_fract_x
_atom_site_fract_y
_atom_site_fract_z
O1 O 0.82679(11) 0.1196(3) -0.03778(10)
O2 O 0.94187(10) 0.2813(3) -0.00469(9)
O3 O 0.70825(8) 0.8934(2) 0.19230(8)
H1 H 0.66140 0.85050 0.20030
N1 N 0.86722(11) 0.2674(3) -0.00104(8)
N2 N 0.94991(9) 1.3149(2) 0.27926(8)
C1 C 1.13965(14) 1.6151(3) 0.41835(11)
H2 H 1.18350 1.67200 0.45050
C2 C 1.15457(12) 1.4672(3) 0.35465(10)
H3 H 1.20790 1.42640 0.34300
C3 C 1.08837(11) 1.3818(3) 0.30898(9)
C4 C 1.08232(10) 1.2218(3) 0.23642(9)
C5 C 0.98999(10) 1.1853(3) 0.22972(9)
C6 C 0.95113(11) 1.0149(3) 0.17595(10)
H4 H 0.98240 0.94670 0.13680
C7 C 0.87305(11) 0.9513(3) 0.17984(10)
H5 H 0.84210 1.03530 0.21550
C8 C 0.82989(10) 0.7665(3) 0.13536(9)
C9 C 0.86899(11) 0.6088(3) 0.08623(9)
H6 H 0.92490 0.62350 0.07840
C10 C 0.82494(11) 0.4314(3) 0.04922(9)
C11 C 0.74137(12) 0.4026(3) 0.05937(10)
H7 H 0.71280 0.28090 0.03410
C12 C 0.70167(11) 0.5570(3) 0.10741(10)
H8 H 0.64580 0.53990 0.11460
C13 C 0.74451(10) 0.7389(3) 0.14531(9)
C14 C 1.00874(11) 1.4390(3) 0.3280(1)
C15 C 1.06075(16) 1.6788(4) 0.43467(11)
H9 H 1.05230 1.78270 0.47650
C16 C 0.99345(14) 1.5913(3) 0.38997(11)
H10 H 0.94010 1.63360 0.40130
C17 C 1.10994(12) 1.3450(3) 0.15965(10)
H11 H 1.08000 1.48740 0.15220
H12 H 1.09940 1.24650 0.11350
H13 H 1.16770 1.37790 0.16530
C18 C 1.12993(13) 0.9954(3) 0.24930(13)
H14 H 1.18660 1.02960 0.26270
H15 H 1.12590 0.90480 0.20060
H16 H 1.10720 0.90970 0.29270
#END
