
#######################################################################
#
#                 Cambridge Crystallographic Data Centre
#                                CCDC
#
#######################################################################
#
# If this CIF has been generated from an entry in the Cambridge
# Structural Database, then it will include bibliographic, chemical,
# crystal, experimental, refinement or atomic coordinate data resulting
# from the CCDC's data processing and validation procedures.
#
#######################################################################

data_CSD_CIF_QEYLAI
_audit_creation_date 2007-07-11
_audit_creation_method CSD-ConQuest-V1
_database_code_CSD QEYLAI
_database_code_depnum_ccdc_archive 'CCDC 642762'
_chemical_formula_sum 'C9 H12 N2 O6'
_chemical_formula_moiety
;
C9 H12 N2 O6
;
_journal_coden_Cambridge 33
_journal_volume 41
_journal_year 2002
_journal_page_first 9026
_journal_name_full 'Biochemistry '
loop_
_publ_author_name
"D.A.Harki"
"J.D.Graci"
"V.S.Korneeva"
"S.K.B.Ghosh"
"Zhi Hong"
"C.E.Cameron"
"B.R.Peterson"
_chemical_name_systematic
;
1-\b-D-Ribofuranosyl-3-nitropyrrole
;
_chemical_melting_point 412.15
_cell_volume   1101.245
_exptl_crystal_colour 'colorless'
_exptl_crystal_density_diffrn 1.473
_exptl_special_details
;
Melting point range 412.15-414.15K
no cytotoxicity against HeLa S3 cells; no antiviral activity against 
poliovirus
;
_exptl_crystal_description 'prism'
_diffrn_ambient_temperature 100
#These two values have been output from a single CSD field.
_refine_ls_R_factor_gt 0.0328
_refine_ls_wR_factor_gt 0.0328
_symmetry_cell_setting orthorhombic
_symmetry_space_group_name_H-M 'P 21 21 21'
_symmetry_Int_Tables_number 19
loop_
_symmetry_equiv_pos_site_id
_symmetry_equiv_pos_as_xyz
1 x,y,z
2 1/2-x,-y,1/2+z
3 -x,1/2+y,1/2-z
4 1/2+x,1/2-y,-z
_cell_length_a 6.6218(4)
_cell_length_b 9.8971(6)
_cell_length_c 16.8035(10)
_cell_angle_alpha 90
_cell_angle_beta 90
_cell_angle_gamma 90
_cell_formula_units_Z 4
loop_
_atom_type_symbol
_atom_type_radius_bond
C 0.68
H 0.23
N 0.68
O 0.68
loop_
_atom_site_label
_atom_site_type_symbol
_atom_site_fract_x
_atom_site_fract_y
_atom_site_fract_z
O1 O 0.29874(11) 0.73026(7) 0.42715(4)
C1 C 0.20283(14) 0.76903(9) 0.35268(5)
H1 H 0.21820 0.86870 0.34500
C2 C 0.31696(15) 0.69532(9) 0.28663(6)
H2 H 0.22460 0.66600 0.24280
C3 C 0.41088(14) 0.57475(9) 0.32972(5)
H3 H 0.31190 0.49870 0.33320
C4 C 0.45159(14) 0.63408(9) 0.41268(5)
H4 H 0.58640 0.67960 0.41310
N1 N 0.44471(13) 0.53165(8) 0.47481(5)
C5 C 0.60966(15) 0.48412(10) 0.51335(5)
H5 H 0.74520 0.51370 0.50710
C6 C 0.54059(15) 0.38379(10) 0.56362(6)
C7 C 0.32783(16) 0.36944(11) 0.55532(6)
H6 H 0.24240 0.30800 0.58270
C8 C 0.27232(15) 0.46318(11) 0.49929(6)
H7 H 0.13900 0.47860 0.48050
C9 C -0.01953(14) 0.73481(10) 0.35718(6)
H8 H -0.08130 0.77980 0.40380
H9 H -0.08930 0.76700 0.30860
O2 O -0.04049(12) 0.59205(8) 0.36414(5)
H10 H -0.15730 0.57020 0.34080
O3 O 0.47378(12) 0.78204(8) 0.25796(5)
H11 H 0.54180 0.73540 0.22110
O4 O 0.59294(10) 0.53030(7) 0.29448(4)
H12 H 0.57500 0.45060 0.27750
N2 N 0.66568(15) 0.31046(9) 0.61644(5)
O5 O 0.84923(13) 0.33799(10) 0.61862(5)
O6 O 0.58914(14) 0.22195(9) 0.65847(5)
#END
