
#######################################################################
#
#                 Cambridge Crystallographic Data Centre
#                                CCDC
#
#######################################################################
#
# If this CIF has been generated from an entry in the Cambridge
# Structural Database, then it will include bibliographic, chemical,
# crystal, experimental, refinement or atomic coordinate data resulting
# from the CCDC's data processing and validation procedures.
#
#######################################################################

data_CSD_CIF_QEYZID
_audit_creation_date 2001-05-25
_audit_creation_method CSD-ConQuest-V1
_database_code_CSD QEYZID
_database_code_depnum_ccdc_archive 'CCDC 144431'
_chemical_formula_sum 'C20 H20 N2 O1'
_chemical_formula_moiety
;
C20 H20 N2 O1
;
_journal_coden_Cambridge 35
_journal_volume 65
_journal_year 2000
_journal_page_first 8924
_journal_name_full 'J.Org.Chem. '
loop_
_publ_author_name
"E.Beccalli"
"G.Broggini"
"C.La Rosa"
"D.Passarella"
"T.Pilati"
"A.Terraneo"
"G.Zecchi"
_chemical_name_systematic
;
(-)-(\aR,3aS,10bS)-1-(\a-Phenylethyl)-1,3a,4,10b-tetrahydro-3H-isoxazolo 
(3',4':3,4)pyrrolo(1,2-a)indole
;
_chemical_melting_point 455.15
_cell_volume   1634.044
_exptl_crystal_colour 'yellow'
_exptl_crystal_density_diffrn 1.237
_exptl_special_details
;
Melting point range 455.15-457.15K

;
_exptl_crystal_description 'prism'
_exptl_crystal_preparation 'hexane/benzene'
_diffrn_ambient_temperature ?
_diffrn_special_details
;
The study was carried out at room temperature,in the range 283-303K

;
#These two values have been output from a single CSD field.
_refine_ls_R_factor_gt 0.0302
_refine_ls_wR_factor_gt 0.0302
_symmetry_cell_setting orthorhombic
_symmetry_space_group_name_H-M 'P 21 21 21'
_symmetry_Int_Tables_number 19
loop_
_symmetry_equiv_pos_site_id
_symmetry_equiv_pos_as_xyz
1 x,y,z
2 1/2-x,-y,1/2+z
3 1/2+x,1/2-y,-z
4 -x,1/2+y,1/2-z
_cell_length_a 5.5252(6)
_cell_length_b 9.2394(9)
_cell_length_c 32.009(3)
_cell_angle_alpha 90
_cell_angle_beta 90
_cell_angle_gamma 90
_cell_formula_units_Z 4
loop_
_atom_type_symbol
_atom_type_radius_bond
C 0.68
H 0.23
N 0.68
O 0.68
loop_
_atom_site_label
_atom_site_type_symbol
_atom_site_fract_x
_atom_site_fract_y
_atom_site_fract_z
N1 N 0.2166(3) 0.86702(15) 0.61109(4)
O1 O 0.2143(3) 0.71089(13) 0.61440(4)
C1 C -0.0296(6) 0.6687(2) 0.62408(8)
H1 H -0.018(4) 0.575(2) 0.6387(6)
H2 H -0.131(4) 0.663(2) 0.5973(7)
C2 C -0.1320(4) 0.7856(2) 0.65241(6)
H3 H -0.288(4) 0.811(2) 0.6436(6)
C3 C -0.1246(4) 0.7502(2) 0.69922(6)
H4 H -0.269(4) 0.767(2) 0.7142(5)
H5 H -0.088(4) 0.647(2) 0.7056(5)
N2 N 0.0711(3) 0.83970(14) 0.71498(4)
C4 C 0.1845(3) 0.85531(17) 0.75274(5)
C5 C 0.1346(4) 0.79412(19) 0.79168(6)
H6 H -0.001(4) 0.7371(19) 0.7939(5)
C6 C 0.2824(4) 0.8325(2) 0.82435(6)
H7 H 0.243(4) 0.793(2) 0.8539(6)
C7 C 0.4752(4) 0.9279(2) 0.81883(7)
H8 H 0.577(4) 0.957(2) 0.8443(6)
C8 C 0.5240(4) 0.9884(2) 0.78071(7)
H9 H 0.655(5) 1.045(2) 0.7761(7)
C9 C 0.3765(3) 0.95458(18) 0.74661(5)
C10 C 0.3675(3) 0.99819(17) 0.70374(6)
H10 H 0.476(4) 1.064(2) 0.6890(6)
C11 C 0.1796(3) 0.92555(16) 0.68579(5)
C12 C 0.0519(3) 0.91143(18) 0.64504(6)
H11 H -0.027(4) 0.9992(17) 0.6341(5)
C13 C 0.1275(4) 0.9085(2) 0.56906(6)
H12 H -0.040(4) 0.873(2) 0.5648(6)
C14 C 0.2926(7) 0.8405(3) 0.53609(8)
H13 H 0.283(5) 0.739(3) 0.5372(6)
H14 H 0.460(5) 0.870(3) 0.5393(8)
H15 H 0.225(4) 0.872(2) 0.5104(7)
C15 C 0.1281(4) 1.0722(2) 0.56548(5)
C16 C 0.3170(4) 1.1541(2) 0.58093(6)
H16 H 0.458(5) 1.108(2) 0.5972(6)
C17 C 0.3142(6) 1.3040(2) 0.57553(7)
H17 H 0.442(5) 1.358(2) 0.5864(7)
C18 C 0.1269(6) 1.3699(3) 0.55511(7)
H18 H 0.129(5) 1.473(3) 0.5496(7)
C19 C -0.0574(6) 1.2897(3) 0.53902(8)
H19 H -0.191(6) 1.338(3) 0.5214(8)
C20 C -0.0578(4) 1.1407(3) 0.54482(7)
H20 H -0.187(5) 1.084(2) 0.5345(7)
#END
