
#######################################################################
#
#                 Cambridge Crystallographic Data Centre
#                                CCDC
#
#######################################################################
#
# If this CIF has been generated from an entry in the Cambridge
# Structural Database, then it will include bibliographic, chemical,
# crystal, experimental, refinement or atomic coordinate data resulting
# from the CCDC's data processing and validation procedures.
#
#######################################################################

data_CSD_CIF_QEZDOO
_audit_creation_date 2001-05-25
_audit_creation_method CSD-ConQuest-V1
_database_code_CSD QEZDOO
_database_code_depnum_ccdc_archive 'CCDC 154267'
_database_code_depnum_ccdc_journal 1135/74
_chemical_formula_sum 'C19 H32 N2 O2'
_chemical_formula_moiety
;
C19 H32 N2 O2
;
_journal_coden_Cambridge 1135
_journal_year 2000
_journal_page_first 211
_journal_name_full 'Mendeleev Commun. '
loop_
_publ_author_name
"A.V.Tkachev"
"A.M.Agafontsev"
"T.V.Rybalova"
"Y.V.Gatilov"
_chemical_name_systematic
;
(1S,2S,5R,8S)-1,4,4,8-Tetramethyl-8-morpholin-4-yl-11-oxa-10-aza-tricyclo(7.2.
2.0^2,5^)tridec-9-ene
;
_chemical_melting_point 447
_cell_volume    930.889
_exptl_crystal_colour 'colorless'
_exptl_crystal_density_diffrn 1.143
_exptl_special_details
;
Melting point range 447-449K

;
_exptl_crystal_description 'plate'
_exptl_crystal_preparation 'hexane'
_diffrn_ambient_temperature ?
_diffrn_special_details
;
The study was carried out at room temperature,in the range 283-303K

;
#These two values have been output from a single CSD field.
_refine_ls_R_factor_gt 0.0377
_refine_ls_wR_factor_gt 0.0377
_symmetry_cell_setting monoclinic
_symmetry_space_group_name_H-M 'P 21'
_symmetry_Int_Tables_number 4
loop_
_symmetry_equiv_pos_site_id
_symmetry_equiv_pos_as_xyz
1 x,y,z
2 -x,1/2+y,-z
_cell_length_a 11.429(1)
_cell_length_b 6.3262(7)
_cell_length_c 13.868(1)
_cell_angle_alpha 90
_cell_angle_beta 111.814(5)
_cell_angle_gamma 90
_cell_formula_units_Z 2
loop_
_atom_type_symbol
_atom_type_radius_bond
C 0.68
H 0.23
N 0.68
O 0.68
loop_
_atom_site_label
_atom_site_type_symbol
_atom_site_fract_x
_atom_site_fract_y
_atom_site_fract_z
N1 N 0.32058(16) 0.7027(3) 0.33702(12)
O1 O 0.26274(15) 0.5920(3) 0.39862(12)
N2 N 0.42380(16) 0.9004(3) 0.21980(13)
O2 O 0.58170(19) 0.7247(4) 0.12047(15)
C1 C 0.06300(19) 0.9762(4) 0.23504(15)
H1 H 0.08290 1.08750 0.28780
C2 C 0.1396(2) 1.0206(5) 0.16627(15)
H2 H 0.16510 0.88660 0.14630
H3 H 0.08510 1.09040 0.10330
C3 C 0.2573(2) 1.1573(4) 0.21717(17)
H4 H 0.23860 1.26320 0.25990
H5 H 0.27510 1.23110 0.16280
C4 C 0.37800(19) 1.0365(3) 0.28537(15)
C5 C 0.33471(18) 0.8999(4) 0.35646(14)
C6 C 0.3059(2) 1.0092(4) 0.44164(15)
H6 H 0.27960 1.15310 0.42020
H7 H 0.38230 1.01590 0.50330
C7 C 0.2026(2) 0.8989(5) 0.46920(17)
H8 H 0.23650 0.85650 0.54160
H9 H 0.13380 0.99660 0.45960
C8 C 0.1537(2) 0.7062(4) 0.40127(17)
C9 C 0.0643(2) 0.7615(4) 0.29011(17)
H10 H 0.06890 0.64760 0.24370
C10 C -0.0759(2) 0.8016(6) 0.2710(2)
H11 H -0.12890 0.67780 0.24690
H12 H -0.08930 0.86650 0.32950
C11 C -0.0839(2) 0.9586(5) 0.18365(18)
C12 C 0.4777(2) 1.1958(4) 0.35001(19)
H13 H 0.55230 1.12140 0.39260
H14 H 0.44520 1.27530 0.39350
H15 H 0.49820 1.29030 0.30440
C13 C 0.0942(3) 0.5476(5) 0.4513(2)
H16 H 0.15190 0.51650 0.52040
H17 H 0.07500 0.42010 0.41090
H18 H 0.01810 0.60590 0.45430
C14 C -0.1309(3) 0.8503(8) 0.0774(2)
H19 H -0.22130 0.84410 0.05060
H20 H -0.09730 0.70950 0.08440
H21 H -0.10360 0.92930 0.03050
C15 C -0.1557(3) 1.1625(7) 0.1791(3)
H22 H -0.24460 1.13600 0.14690
H23 H -0.13140 1.26560 0.13940
H24 H -0.13670 1.21480 0.24830
C16 C 0.4353(3) 0.9972(5) 0.12798(18)
H25 H 0.50020 1.10510 0.14920
H26 H 0.35620 1.06410 0.08640
C17 C 0.4683(3) 0.8328(6) 0.0645(2)
H27 H 0.40020 0.73090 0.03970
H28 H 0.47620 0.90000 0.00440
C18 C 0.5701(3) 0.6293(5) 0.2081(2)
H29 H 0.64790 0.55630 0.24760
H30 H 0.50290 0.52540 0.18570
C19 C 0.5419(2) 0.7910(5) 0.27712(17)
H31 H 0.53550 0.72100 0.33720
H32 H 0.61010 0.89280 0.30150
#END
