
#######################################################################
#
#                 Cambridge Crystallographic Data Centre
#                                CCDC
#
#######################################################################
#
# If this CIF has been generated from an entry in the Cambridge
# Structural Database, then it will include bibliographic, chemical,
# crystal, experimental, refinement or atomic coordinate data resulting
# from the CCDC's data processing and validation procedures.
#
#######################################################################

data_CSD_CIF_QEZFAC
_audit_creation_date 2001-05-25
_audit_creation_method CSD-ConQuest-V1
_database_code_CSD QEZFAC
_database_code_depnum_ccdc_archive 'CCDC 154269'
_database_code_depnum_ccdc_journal 1135/71
_chemical_formula_sum 'C23 H38 N4 O2'
_chemical_formula_moiety
;
C23 H38 N4 O2
;
_journal_coden_Cambridge 1135
_journal_year 2000
_journal_page_first 209
_journal_name_full 'Mendeleev Commun. '
loop_
_publ_author_name
"P.A.Petukhov"
"I.Yu.Bagryanskaya"
"Y.V.Gatilov"
"A.V.Tkachev"
_chemical_name_systematic
;
(1R,11R,13S,15S,20S,22S)-5,7-Dioxa-4,8,16,19-tetra-aza-12,12,15,20,23,23-hexam
ethylpentacyclo(20.1.0.0^3,20^.0^9,15^.0^11,13^)tricosa-3,8-diene
;
_chemical_melting_point 491
_cell_volume   2332.814
_exptl_crystal_colour 'colorless'
_exptl_crystal_density_diffrn 1.146
_exptl_crystal_description 'prism'
_exptl_crystal_preparation 'ethyl acetate'
_diffrn_ambient_temperature ?
_diffrn_special_details
;
The study was carried out at room temperature,in the range 283-303K

;
#These two values have been output from a single CSD field.
_refine_ls_R_factor_gt 0.0503
_refine_ls_wR_factor_gt 0.0503
_symmetry_cell_setting orthorhombic
_symmetry_space_group_name_H-M 'P 21 21 21'
_symmetry_Int_Tables_number 19
loop_
_symmetry_equiv_pos_site_id
_symmetry_equiv_pos_as_xyz
1 x,y,z
2 1/2-x,-y,1/2+z
3 -x,1/2+y,1/2-z
4 1/2+x,1/2-y,-z
_cell_length_a 9.311(1)
_cell_length_b 10.588(1)
_cell_length_c 23.663(3)
_cell_angle_alpha 90
_cell_angle_beta 90
_cell_angle_gamma 90
_cell_formula_units_Z 4
loop_
_atom_type_symbol
_atom_type_radius_bond
C 0.68
H 0.23
N 0.68
O 0.68
loop_
_atom_site_label
_atom_site_type_symbol
_atom_site_fract_x
_atom_site_fract_y
_atom_site_fract_z
C1 C 1.3088(4) 0.3814(4) 0.8742(2)
H1 H 1.3758(4) 0.3849(4) 0.8423(2)
C2 C 1.1656(4) 0.3222(4) 0.8610(2)
H2 H 1.1464(4) 0.2567(4) 0.8887(2)
H3 H 1.1709(4) 0.2823(4) 0.8242(2)
C3 C 1.0404(4) 0.4157(3) 0.86112(14)
C4 C 1.0386(4) 0.4878(3) 0.91709(14)
C5 C 1.1755(5) 0.5440(5) 0.9380(2)
H4 H 1.1797(5) 0.5317(5) 0.9786(2)
H5 H 1.1717(5) 0.6344(5) 0.9313(2)
C6 C 1.3128(4) 0.4948(4) 0.9130(2)
H6 H 1.3821(4) 0.5602(4) 0.9022(2)
C7 C 1.3783(5) 0.3728(4) 0.9314(2)
C8 C 1.3093(7) 0.2963(5) 0.9766(2)
H7 H 1.3648(7) 0.2214(5) 0.9831(2)
H8 H 1.2140(7) 0.2732(5) 0.9650(2)
H9 H 1.3044(7) 0.3451(5) 1.0107(2)
C9 C 1.5430(5) 0.3688(8) 0.9317(3)
H10 H 1.5793(5) 0.4202(8) 0.9014(3)
H11 H 1.5748(5) 0.2833(8) 0.9266(3)
H12 H 1.5780(5) 0.4006(8) 0.9671(3)
C10 C 0.9010(4) 0.3437(4) 0.8506(2)
H13 H 0.9070(4) 0.3001(4) 0.8151(2)
H14 H 0.8221(4) 0.4020(4) 0.8496(2)
H15 H 0.8861(4) 0.2837(4) 0.8804(2)
C11 C 0.9598(4) 0.6065(3) 0.8061(2)
H16 H 0.8783(4) 0.5905(3) 0.8305(2)
H17 H 0.9254(4) 0.6033(3) 0.7674(2)
C12 C 0.7948(7) 0.6330(5) 1.0024(2)
H18 H 0.8056(7) 0.6936(5) 1.0328(2)
H19 H 0.7377(7) 0.5632(5) 1.0165(2)
N1 N 1.0644(4) 0.5045(3) 0.81405(12)
H20 H 1.1489(46) 0.5369(42) 0.8180(17)
N2 N 0.9159(4) 0.5053(3) 0.93941(12)
O1 O 0.9313(4) 0.5878(3) 0.98686(10)
C13 C 0.6322(4) 0.9617(4) 0.7911(2)
H21 H 0.6413(4) 0.9728(4) 0.7502(2)
C14 C 0.7552(4) 1.0136(3) 0.8247(2)
H22 H 0.7174(4) 1.0664(3) 0.8547(2)
H23 H 0.8132(4) 1.0666(3) 0.8003(2)
C15 C 0.8521(4) 0.9109(3) 0.8511(2)
C16 C 0.7595(4) 0.8224(3) 0.8856(2)
C17 C 0.6224(4) 0.7715(4) 0.8610(2)
H24 H 0.5486(4) 0.7752(4) 0.8898(2)
H25 H 0.6371(4) 0.6832(4) 0.8516(2)
C18 C 0.5669(4) 0.8383(4) 0.8088(2)
H26 H 0.5405(4) 0.7822(4) 0.7776(2)
C19 C 0.4802(4) 0.9581(4) 0.8124(2)
C20 C 0.4411(5) 1.0138(5) 0.8683(2)
H27 H 0.3401(5) 1.0028(5) 0.8748(2)
H28 H 0.4637(5) 1.1022(5) 0.8684(2)
H29 H 0.4942(5) 0.9721(5) 0.8976(2)
C21 C 0.3647(5) 0.9758(6) 0.7687(2)
H30 H 0.3949(5) 0.9385(6) 0.7336(2)
H31 H 0.3477(5) 1.0644(6) 0.7631(2)
H32 H 0.2779(5) 0.9358(6) 0.7812(2)
C22 C 0.9694(5) 0.9751(4) 0.8855(2)
H33 H 1.0243(5) 1.0298(4) 0.8614(2)
H34 H 1.0314(5) 0.9121(4) 0.9015(2)
H35 H 0.9264(5) 1.0238(4) 0.9153(2)
C23 C 1.0133(4) 0.7365(3) 0.8175(2)
H36 H 1.0387(4) 0.7432(3) 0.8571(2)
H37 H 1.0997(4) 0.7509(3) 0.7955(2)
N3 N 0.9089(4) 0.8342(3) 0.80393(14)
H38 H 0.9361(51) 0.8830(49) 0.7749(21)
N4 N 0.8102(4) 0.7872(3) 0.93307(13)
O2 O 0.7208(3) 0.6911(3) 0.95703(12)
#END
