
#######################################################################
#
#                 Cambridge Crystallographic Data Centre
#                                CCDC
#
#######################################################################
#
# If this CIF has been generated from an entry in the Cambridge
# Structural Database, then it will include bibliographic, chemical,
# crystal, experimental, refinement or atomic coordinate data resulting
# from the CCDC's data processing and validation procedures.
#
#######################################################################

data_CSD_CIF_QEZGEJ
_audit_creation_date 2013-05-28
_audit_creation_method CSD-ConQuest-V1
_database_code_CSD QEZGEJ
_database_code_depnum_ccdc_archive 'CCDC 933944'
_chemical_formula_sum 'C27 H22 N4 O5'
_chemical_formula_moiety
;
C27 H22 N4 O5
;
_journal_coden_Cambridge 182
_journal_volume 49
_journal_year 2013
_journal_page_first 5892
_journal_name_full 'Chem.Commun. '
loop_
_publ_author_name
"Zhi-Jun Jia"
"Kun Jiang"
"Qing-Qing Zhou"
"Lin Dong"
"Ying-Chun Chen"
_chemical_name_systematic
;
1-((2,4-Dinitrophenyl)hydrazono)-3-phenyl-1,2,2a,5,5a,9c-hexahydro-9bH-cyclope
nta[jk]fluoren-9b-ol
;
_cell_volume   2225.710
_exptl_crystal_colour 'yellow'
_exptl_crystal_density_diffrn 1.44
_exptl_special_details
;
Absolute configuration

;
_exptl_crystal_description 'block'
_diffrn_ambient_temperature 150
#These two values have been output from a single CSD field.
_refine_ls_R_factor_gt 0.0256
_refine_ls_wR_factor_gt 0.0256
_symmetry_cell_setting orthorhombic
_symmetry_space_group_name_H-M 'P 21 21 21'
_symmetry_Int_Tables_number 19
loop_
_symmetry_equiv_pos_site_id
_symmetry_equiv_pos_as_xyz
1 x,y,z
2 1/2-x,-y,1/2+z
3 1/2+x,1/2-y,-z
4 -x,1/2+y,1/2-z
_cell_length_a 6.0887(1)
_cell_length_b 18.7001(1)
_cell_length_c 19.5479(1)
_cell_angle_alpha 90
_cell_angle_beta 90
_cell_angle_gamma 90
_cell_formula_units_Z 4
loop_
_atom_type_symbol
_atom_type_radius_bond
C 0.68
H 0.23
N 0.68
O 0.68
loop_
_atom_site_label
_atom_site_type_symbol
_atom_site_fract_x
_atom_site_fract_y
_atom_site_fract_z
O1 O -0.64825(14) 1.22572(4) 0.18053(4)
H1 H -0.74670 1.25270 0.19290
O2 O -1.90216(16) 1.18399(5) 0.49979(5)
N1 N -1.83890(17) 1.21617(6) 0.44859(5)
O3 O -1.01979(16) 1.04300(5) 0.42632(5)
N2 N -1.06777(16) 1.12390(5) 0.31849(5)
H2 H -0.99210 1.08940 0.33560
O4 O -1.26851(17) 1.04058(6) 0.50484(5)
N3 N -1.00102(16) 1.15532(5) 0.25781(5)
O5 O -1.93927(16) 1.26647(5) 0.42296(5)
C1 C -0.6290(2) 1.06746(6) 0.07643(6)
H3 H -0.50900 1.06790 0.04300
N4 N -1.19629(18) 1.06381(5) 0.45110(5)
C2 C -0.5435(2) 0.94944(6) 0.12957(6)
H4 H -0.51030 0.90250 0.11760
C3 C -1.25122(19) 1.14688(6) 0.35114(5)
C4 C -0.1239(2) 0.89607(6) 0.18620(7)
H5 H -0.13950 0.89040 0.13920
C5 C -1.32115(19) 1.11828(6) 0.41492(5)
C6 C -0.55406(18) 1.10473(6) 0.14324(6)
H6 H -0.42060 1.13230 0.13390
C7 C -1.38705(19) 1.19998(6) 0.32146(6)
H7 H -1.34740 1.21980 0.27960
C8 C -1.5133(2) 1.14085(6) 0.44631(6)
H8 H -1.55740 1.12110 0.48780
C9 C -0.44376(19) 0.97907(6) 0.18342(6)
C10 C -0.88742(19) 1.16020(6) 0.10163(6)
C11 C -1.5748(2) 1.22287(6) 0.35283(6)
H9 H -1.66050 1.25830 0.33280
C12 C -0.2697(2) 0.94088(6) 0.22164(6)
C13 C -1.63717(19) 1.19265(6) 0.41535(6)
C14 C -0.74016(19) 1.15686(6) 0.16376(5)
C15 C -0.0735(2) 0.91173(8) 0.32608(8)
H10 H -0.05720 0.91670 0.37310
C16 C 0.0429(2) 0.86020(7) 0.22009(9)
H11 H 0.13730 0.83050 0.19580
C17 C -1.0672(2) 1.20454(7) 0.09042(6)
H12 H -1.11700 1.23510 0.12460
C18 C -0.7244(2) 1.05591(6) 0.24769(6)
H13 H -0.81490 1.01460 0.23750
H14 H -0.69060 1.05590 0.29620
C19 C -0.84136(19) 1.12372(6) 0.22799(5)
C20 C -0.7074(2) 0.99024(7) 0.08823(6)
H15 H -0.84730 0.99080 0.11190
H16 H -0.72840 0.96670 0.04450
C21 C -0.51038(19) 1.05422(6) 0.20476(6)
H17 H -0.39160 1.07470 0.23230
C22 C -0.8148(2) 1.11342(6) 0.05124(6)
C23 C -1.0958(3) 1.15647(8) -0.02364(7)
H18 H -1.16510 1.15610 -0.06600
C24 C -0.2413(2) 0.94795(7) 0.29232(7)
H19 H -0.33580 0.97720 0.31710
C25 C 0.0694(3) 0.86831(7) 0.28968(9)
H20 H 0.18280 0.84470 0.31220
C26 C -1.1710(2) 1.20218(7) 0.02710(7)
H21 H -1.29150 1.23140 0.01870
C27 C -0.9191(3) 1.11140(8) -0.01205(7)
H22 H -0.87100 1.08030 -0.04600
#END
