
#######################################################################
#
#                 Cambridge Crystallographic Data Centre
#                                CCDC
#
#######################################################################
#
# If this CIF has been generated from an entry in the Cambridge
# Structural Database, then it will include bibliographic, chemical,
# crystal, experimental, refinement or atomic coordinate data resulting
# from the CCDC's data processing and validation procedures.
#
#######################################################################

data_CSD_CIF_QIBJEQ
_audit_creation_date 2001-05-25
_audit_creation_method CSD-ConQuest-V1
_database_code_CSD QIBJEQ
_database_code_depnum_ccdc_archive 'CCDC 162817'
_chemical_formula_sum 'C11 H11 N1 O5'
_chemical_formula_moiety
;
C11 H11 N1 O5
;
_journal_coeditor_code "IUCr TK6006"
_journal_coden_Cambridge 1370
_journal_volume 57
_journal_year 2001
_journal_page_first o326
_journal_name_full 'Acta Crystallogr.,Sect.E:Struct.Rep.Online '
loop_
_publ_author_name
"K.Kubo"
"T.Tsuruta"
"A.Mori"
_chemical_name_systematic
;
2-Butanoyloxy-5-nitrotropone
;
_chemical_name_common
;
4-Nitro-7-oxocyclohepta-1,3,5-trienylbutanoate
;
_cell_volume   1122.231
_exptl_crystal_colour 'yellow'
_exptl_crystal_density_diffrn 1.404
_exptl_crystal_description 'prism'
_exptl_crystal_preparation 'chloroform'
_diffrn_ambient_temperature ?
_diffrn_special_details
;
The study was carried out at room temperature,in the range 283-303K

;
#These two values have been output from a single CSD field.
_refine_ls_R_factor_gt 0.055
_refine_ls_wR_factor_gt 0.055
_symmetry_cell_setting monoclinic
_symmetry_space_group_name_H-M 'P 21/a'
_symmetry_Int_Tables_number 14
loop_
_symmetry_equiv_pos_site_id
_symmetry_equiv_pos_as_xyz
1 x,y,z
2 1/2+x,1/2-y,z
3 -x,-y,-z
4 -1/2-x,-1/2+y,-z
_cell_length_a 12.8585(14)
_cell_length_b 10.7092(11)
_cell_length_c 8.3657(14)
_cell_angle_alpha 90
_cell_angle_beta 103.052(11)
_cell_angle_gamma 90
_cell_formula_units_Z 4
loop_
_atom_type_symbol
_atom_type_radius_bond
C 0.68
H 0.23
N 0.68
O 0.68
loop_
_atom_site_label
_atom_site_type_symbol
_atom_site_fract_x
_atom_site_fract_y
_atom_site_fract_z
N1 N 0.2129(2) 0.1110(3) 0.4515(4)
O1 O 0.66475(19) 0.2185(2) 0.7017(3)
O2 O 0.65022(17) -0.0067(2) 0.8162(3)
O3 O 0.15680(19) 0.0242(2) 0.4730(4)
O4 O 0.18189(18) 0.1968(2) 0.3565(3)
O5 O 0.6630(2) 0.1186(3) 1.0328(3)
C1 C 0.5734(3) 0.1770(3) 0.6764(4)
C2 C 0.5561(3) 0.0518(3) 0.7365(4)
C3 C 0.4674(2) -0.0177(3) 0.7161(4)
H1 H 0.47600 -0.09470 0.76880
C4 C 0.3627(2) 0.0088(3) 0.6261(4)
H2 H 0.31260 -0.05410 0.62420
C5 C 0.3266(2) 0.1128(3) 0.5436(4)
C6 C 0.3820(3) 0.2241(3) 0.5300(4)
H3 H 0.34090 0.28770 0.47190
C7 C 0.4855(3) 0.2521(3) 0.5882(5)
H4 H 0.50370 0.33380 0.56850
C8 C 0.7031(3) 0.0443(4) 0.9621(5)
C9 C 0.8117(3) -0.0124(4) 1.0177(6)
H5 H 0.80600 -0.08670 1.08160
H6 H 0.83710 -0.03810 0.92210
C10 C 0.8914(4) 0.0733(7) 1.1180(5)
H7 H 0.86340 0.10450 1.20870
H8 H 0.95590 0.02670 1.16370
C11 C 0.9185(4) 0.1800(5) 1.0241(11)
H9 H 0.96970 0.23210 1.09510
H10 H 0.85520 0.22750 0.98010
H11 H 0.94830 0.15000 0.93600
#END
