
#######################################################################
#
#                 Cambridge Crystallographic Data Centre
#                                CCDC
#
#######################################################################
#
# If this CIF has been generated from an entry in the Cambridge
# Structural Database, then it will include bibliographic, chemical,
# crystal, experimental, refinement or atomic coordinate data resulting
# from the CCDC's data processing and validation procedures.
#
#######################################################################

data_CSD_CIF_QIBVEF
_audit_creation_date 2018-06-01
_audit_creation_method CSD-ConQuest-V1
_database_code_CSD QIBVEF
_database_code_depnum_ccdc_archive 'CCDC 1836255'
_chemical_formula_sum 'C18 H19 N1 O2'
_chemical_formula_moiety
;
C18 H19 N1 O2
;
_journal_coden_Cambridge 177
_journal_volume 16
_journal_year 2018
_journal_page_first 4439
_journal_name_full 'Org.Biomol.Chem. '
loop_
_publ_author_name
"Yixin Zhang"
"Haojie Ma"
"Xingxing Liu"
"Xinfeng Cui"
"Shaohua Wang"
"Zhenzhen Zhan"
"Jinghong Pu"
"Guosheng Huang"
_chemical_name_systematic
;
1-(benzyloxy)-3-methyl-5-phenylpyrrolidin-2-one
;
_cell_volume   1522.100
_exptl_crystal_colour 'colorless'
_exptl_crystal_density_diffrn 1.228
_exptl_crystal_description 'needle'
_diffrn_ambient_temperature 293
#These two values have been output from a single CSD field.
_refine_ls_R_factor_gt 0.0649
_refine_ls_wR_factor_gt 0.0649
_symmetry_cell_setting monoclinic
_symmetry_space_group_name_H-M 'P 21/n'
_symmetry_Int_Tables_number 14
loop_
_symmetry_equiv_pos_site_id
_symmetry_equiv_pos_as_xyz
1 x,y,z
2 1/2-x,1/2+y,1/2-z
3 -x,-y,-z
4 -1/2+x,-1/2-y,-1/2+z
_cell_length_a 5.4408(4)
_cell_length_b 10.1935(9)
_cell_length_c 27.458(2)
_cell_angle_alpha 90
_cell_angle_beta 91.789(8)
_cell_angle_gamma 90
_cell_formula_units_Z 4
loop_
_atom_type_symbol
_atom_type_radius_bond
C 0.68
H 0.23
N 0.68
O 0.68
loop_
_atom_site_label
_atom_site_type_symbol
_atom_site_fract_x
_atom_site_fract_y
_atom_site_fract_z
O1 O 0.2313(4) 0.4902(2) 0.22817(9)
O2 O 0.0169(4) 0.55435(19) 0.13685(7)
N1 N -0.0388(5) 0.6116(2) 0.18150(9)
C1 C -0.0941(5) 0.8909(3) 0.14569(12)
H1 H 0.03990 0.88600 0.16750
C2 C -0.1060(6) 0.9903(3) 0.11206(13)
H2 H 0.01970 1.05190 0.11120
C3 C -0.3025(7) 0.9994(3) 0.07958(13)
H3 H -0.31000 1.06680 0.05670
C4 C -0.4865(6) 0.9090(4) 0.08111(13)
H4 H -0.62040 0.91530 0.05940
C5 C -0.4759(6) 0.8078(3) 0.11472(12)
H5 H -0.60180 0.74620 0.11520
C6 C -0.2780(5) 0.7978(3) 0.14768(11)
C7 C -0.2670(6) 0.6881(3) 0.18438(11)
H6 H -0.41000 0.63050 0.17970
C8 C -0.2431(6) 0.7322(3) 0.23809(11)
H7 H -0.15900 0.81590 0.24080
H8 H -0.40380 0.74050 0.25210
C9 C -0.0934(6) 0.6245(3) 0.26382(12)
H9 H -0.20910 0.55680 0.27390
C10 C 0.0582(6) 0.5664(3) 0.22383(12)
C11 C 0.0558(7) 0.6649(4) 0.30820(12)
H10 H 0.15980 0.59350 0.31860
H11 H -0.05240 0.68760 0.33380
H12 H 0.15540 0.73940 0.30050
C12 C -0.1026(7) 0.4274(3) 0.13212(12)
H13 H -0.27700 0.43590 0.13770
H14 H -0.03240 0.36650 0.15590
C13 C -0.0641(6) 0.3782(3) 0.08186(12)
C14 C 0.1391(6) 0.3040(3) 0.07163(13)
H15 H 0.25540 0.28540 0.09620
C15 C 0.1710(6) 0.2574(3) 0.02542(14)
H16 H 0.30840 0.20650 0.01910
C16 C 0.0063(7) 0.2840(3) -0.01122(13)
H17 H 0.03050 0.25240 -0.04250
C17 C -0.1938(7) 0.3572(4) -0.00183(14)
H18 H -0.30790 0.37600 -0.02680
C18 C -0.2300(6) 0.4043(3) 0.04468(14)
H19 H -0.36870 0.45430 0.05070
#END
