
#######################################################################
#
#                 Cambridge Crystallographic Data Centre
#                                CCDC
#
#######################################################################
#
# If this CIF has been generated from an entry in the Cambridge
# Structural Database, then it will include bibliographic, chemical,
# crystal, experimental, refinement or atomic coordinate data resulting
# from the CCDC's data processing and validation procedures.
#
#######################################################################

data_CSD_CIF_QIFPON
_audit_creation_date 2018-06-04
_audit_creation_method CSD-ConQuest-V1
_database_code_CSD QIFPON
_database_code_depnum_ccdc_archive 'CCDC 1566496'
_chemical_formula_sum 'C5 H2 N8 O4'
_chemical_formula_moiety
;
C5 H2 N8 O4
;
_journal_coden_Cambridge 440
_journal_volume 42
_journal_year 2018
_journal_page_first 11259
_journal_name_full 'New J.Chem. '
loop_
_publ_author_name
"Congming Ma"
"Yong Pan"
"Juncheng Jiang"
"Zuliang Liu"
"Qizheng Yao"
_chemical_name_systematic
;
5-nitro-3-oxo-3\l^5^-[1,2,5]oxadiazolo[3,4-e]tetrazolo[1,5-a]pyridin-4-amine
;
_cell_volume    823.531
_exptl_crystal_colour 'grass green'
_exptl_crystal_density_diffrn 1.921
_exptl_crystal_description 'strip'
_diffrn_ambient_temperature 293
#These two values have been output from a single CSD field.
_refine_ls_R_factor_gt 0.0456
_refine_ls_wR_factor_gt 0.0456
_symmetry_cell_setting orthorhombic
_symmetry_space_group_name_H-M 'P 21 21 21'
_symmetry_Int_Tables_number 19
loop_
_symmetry_equiv_pos_site_id
_symmetry_equiv_pos_as_xyz
1 x,y,z
2 1/2-x,-y,1/2+z
3 -x,1/2+y,1/2-z
4 1/2+x,1/2-y,-z
_cell_length_a 8.9130(18)
_cell_length_b 14.057(3)
_cell_length_c 6.5730(13)
_cell_angle_alpha 90
_cell_angle_beta 90
_cell_angle_gamma 90
_cell_formula_units_Z 4
loop_
_atom_type_symbol
_atom_type_radius_bond
C 0.68
H 0.23
N 0.68
O 0.68
loop_
_atom_site_label
_atom_site_type_symbol
_atom_site_fract_x
_atom_site_fract_y
_atom_site_fract_z
N1 N 0.4848(4) 0.4882(2) 0.4807(6)
C1 C 0.3925(4) 0.5463(3) 0.5903(7)
O1 O 0.2238(4) 0.6709(3) 0.8011(6)
N2 N 0.5026(4) 0.4042(3) 0.5831(6)
C2 C 0.3574(5) 0.6401(3) 0.5148(7)
O2 O 0.2374(5) 0.7801(3) 0.5748(7)
O3 O 0.5737(4) 0.6706(3) -0.0918(5)
N3 N 0.4235(4) 0.4128(3) 0.7432(6)
C3 C 0.4083(4) 0.6708(3) 0.3240(6)
C4 C 0.5005(4) 0.6017(3) 0.2194(6)
O4 O 0.6484(3) 0.5220(2) 0.0082(5)
N4 N 0.3529(4) 0.4993(3) 0.7556(6)
N5 N 0.2675(4) 0.6998(3) 0.6357(6)
C5 C 0.5388(4) 0.5128(3) 0.2945(6)
N6 N 0.3836(4) 0.7521(3) 0.2340(6)
H1 H 0.32988 0.79482 0.29302
H2 H 0.42108 0.76302 0.11571
N7 N 0.5669(4) 0.6101(3) 0.0405(5)
N8 N 0.6258(4) 0.4636(3) 0.1738(6)
#END
