
#######################################################################
#
#                 Cambridge Crystallographic Data Centre
#                                CCDC
#
#######################################################################
#
# If this CIF has been generated from an entry in the Cambridge
# Structural Database, then it will include bibliographic, chemical,
# crystal, experimental, refinement or atomic coordinate data resulting
# from the CCDC's data processing and validation procedures.
#
#######################################################################

data_CSD_CIF_QIGGIY
_audit_creation_date 2013-06-14
_audit_creation_method CSD-ConQuest-V1
_database_code_CSD QIGGIY
_database_code_depnum_ccdc_archive 'CCDC 944595'
_chemical_formula_sum 'C18 H22 N2 O2'
_chemical_formula_moiety
;
C18 H22 N2 O2
;
_journal_coden_Cambridge 579
_journal_volume 31
_journal_year 2012
_journal_page_first 8063
_journal_name_full 'Organometallics '
loop_
_publ_author_name
"Julia Kozhukh"
"J.F.Lopes"
"H.F.Dos Santos"
"S.J.Lippard"
_chemical_name_systematic
;
1,2-Dimesityldiazene 1,2-dioxide
;
_cell_volume   1569.340
_exptl_crystal_colour 'colorless'
_exptl_crystal_density_diffrn 1.263
_exptl_crystal_description 'block'
_diffrn_ambient_temperature 110
_refine_special_details
;
C1,C2,C3,C4,C5,C6,C7,C8,C9,O1 and C1A,C2A,C3A,C4A,C5A,C6A,C7A,C8A,C9A,O1A 
disordered over two sites with occupancies 0.8489:0.1511; N1 and N1A 
disordered over two sites with occupancies 0.8489:0.1511.
;
#These two values have been output from a single CSD field.
_refine_ls_R_factor_gt 0.0387
_refine_ls_wR_factor_gt 0.0387
_symmetry_cell_setting orthorhombic
_symmetry_space_group_name_H-M 'P b c a'
_symmetry_Int_Tables_number 61
loop_
_symmetry_equiv_pos_site_id
_symmetry_equiv_pos_as_xyz
1 x,y,z
2 1/2-x,-y,1/2+z
3 -x,1/2+y,1/2-z
4 1/2+x,1/2-y,-z
5 -x,-y,-z
6 -1/2+x,y,-1/2-z
7 x,-1/2-y,-1/2+z
8 -1/2-x,-1/2+y,z
_cell_length_a 8.7539(7)
_cell_length_b 10.3947(8)
_cell_length_c 17.2466(14)
_cell_angle_alpha 90
_cell_angle_beta 90
_cell_angle_gamma 90
_cell_formula_units_Z 4
loop_
_atom_type_symbol
_atom_type_radius_bond
C 0.68
H 0.23
N 0.68
O 0.68
loop_
_atom_site_label
_atom_site_type_symbol
_atom_site_fract_x
_atom_site_fract_y
_atom_site_fract_z
O1 O 0.0297(6) 0.1061(2) 0.07388(14)
N1 N 0.00192(8) 0.00241(7) 0.03837(4)
C1 C -0.02241(12) -0.11622(10) 0.08214(6)
C2 C -0.17125(19) -0.16376(11) 0.08981(9)
C3 C -0.19439(18) -0.2714(2) 0.13684(13)
H1 H -0.29470 -0.30500 0.14270
C4 C -0.07255(17) -0.3308(2) 0.17558(14)
C5 C 0.0749(2) -0.28008(15) 0.16601(10)
H2 H 0.15790 -0.32010 0.19210
C6 C 0.10409(16) -0.17170(13) 0.11907(6)
C7 C -0.30491(15) -0.10495(11) 0.04869(9)
H3 H -0.30780 -0.01230 0.05920
H4 H -0.39960 -0.14490 0.06720
H5 H -0.29470 -0.11920 -0.00720
C8 C -0.0927(5) -0.4473(2) 0.22649(16)
H6 H -0.02190 -0.51500 0.20990
H7 H -0.19790 -0.47860 0.22220
H8 H -0.07130 -0.42400 0.28050
C9 C 0.26416(13) -0.12256(11) 0.10771(7)
H9 H 0.29800 -0.14180 0.05480
H10 H 0.33260 -0.16450 0.14490
H11 H 0.26610 -0.02930 0.11600
O2? O -0.028(4) -0.1207(17) -0.0689(9)
N2? N -0.0149(5) -0.0627(4) -0.0045(2)
C10? C -0.0368(8) -0.1423(6) 0.0645(4)
C11? C 0.0933(11) -0.1795(8) 0.1032(5)
C12? C 0.0865(14) -0.2646(10) 0.1583(7)
H12? H 0.17710 -0.28640 0.18560
C13? C -0.0451(13) -0.3225(14) 0.1778(9)
C14? C -0.1743(14) -0.2807(14) 0.1426(8)
H13? H -0.26810 -0.31810 0.15870
C15? C -0.1808(12) -0.185(1) 0.0831(6)
C16? C 0.2526(9) -0.1337(8) 0.0860(5)
H14? H 0.26880 -0.13260 0.02980
H15? H 0.32660 -0.19200 0.11020
H16? H 0.26630 -0.04680 0.10680
C17? C -0.083(3) -0.4336(17) 0.2336(11)
H17? H -0.11250 -0.39850 0.28410
H18? H 0.00770 -0.48830 0.23990
H19? H -0.16680 -0.48470 0.21230
C18? C -0.3225(11) -0.1310(9) 0.0415(6)
H20? H -0.40800 -0.19100 0.04760
H21? H -0.29990 -0.12010 -0.01380
H22? H -0.34980 -0.04760 0.06410
O1D O -0.0297(6) -0.1061(2) -0.07388(14)
N1D N -0.00192(8) -0.00241(7) -0.03837(4)
C1D C 0.02241(12) 0.11622(10) -0.08214(6)
C2D C 0.17125(19) 0.16376(11) -0.08981(9)
C3D C 0.19439(18) 0.2714(2) -0.13684(13)
H1D H 0.29470 0.30500 -0.14270
C4D C 0.07255(17) 0.3308(2) -0.17558(14)
C5D C -0.0749(2) 0.28008(15) -0.16601(10)
H2D H -0.15790 0.32010 -0.19210
C6D C -0.10409(16) 0.17170(13) -0.11907(6)
C7D C 0.30491(15) 0.10495(11) -0.04869(9)
H3D H 0.30780 0.01230 -0.05920
H4D H 0.39960 0.14490 -0.06720
H5D H 0.29470 0.11920 0.00720
C8D C 0.0927(5) 0.4473(2) -0.22649(16)
H6D H 0.02190 0.51500 -0.20990
H7D H 0.19790 0.47860 -0.22220
H8D H 0.07130 0.42400 -0.28050
C9D C -0.26416(13) 0.12256(11) -0.10771(7)
H9D H -0.29800 0.14180 -0.05480
H10D H -0.33260 0.16450 -0.14490
H11D H -0.26610 0.02930 -0.11600
#END
