
#######################################################################
#
#                 Cambridge Crystallographic Data Centre
#                                CCDC
#
#######################################################################
#
# If this CIF has been generated from an entry in the Cambridge
# Structural Database, then it will include bibliographic, chemical,
# crystal, experimental, refinement or atomic coordinate data resulting
# from the CCDC's data processing and validation procedures.
#
#######################################################################

data_CSD_CIF_QIGSOO
_audit_creation_date 2001-06-05
_audit_creation_method CSD-ConQuest-V1
_database_code_CSD QIGSOO
_database_code_depnum_ccdc_archive 'CCDC 161286'
_chemical_formula_sum 'C14 H13 N3 O1'
_chemical_formula_moiety
;
C14 H13 N3 O1
;
_journal_coden_Cambridge 1147
_journal_volume 1
_journal_year 2001
_journal_page_first 47
_journal_name_full 'Cryst.Growth Des. '
loop_
_publ_author_name
"C.B.Aakeroy"
"A.M.Beatty"
"D.S.Leinen"
_chemical_name_systematic
;
1-(3-((Pyrid-3-ylmethylene)amino)phenyl)ethanone oxime
;
_chemical_name_common
;
3'-((Pyrid-3-ylmethylene)amino)acetophenone oxime
;
_chemical_melting_point 410.15
_cell_volume   1219.750
_exptl_crystal_colour 'pale yellow'
_exptl_crystal_density_diffrn 1.303
_exptl_special_details
;
Melting point range 410.15-412.15K

;
_exptl_crystal_description 'plate'
_exptl_crystal_preparation 'dichloromethane'
_diffrn_ambient_temperature 173
#These two values have been output from a single CSD field.
_refine_ls_R_factor_gt 0.051
_refine_ls_wR_factor_gt 0.051
_symmetry_cell_setting monoclinic
_symmetry_space_group_name_H-M 'P 21/c'
_symmetry_Int_Tables_number 14
loop_
_symmetry_equiv_pos_site_id
_symmetry_equiv_pos_as_xyz
1 x,y,z
2 x,1/2-y,1/2+z
3 -x,-y,-z
4 -x,-1/2+y,-1/2-z
_cell_length_a 13.2046(15)
_cell_length_b 11.2632(12)
_cell_length_c 8.2638(9)
_cell_angle_alpha 90
_cell_angle_beta 97.050(2)
_cell_angle_gamma 90
_cell_formula_units_Z 4
loop_
_atom_type_symbol
_atom_type_radius_bond
C 0.68
H 0.23
N 0.68
O 0.68
loop_
_atom_site_label
_atom_site_type_symbol
_atom_site_fract_x
_atom_site_fract_y
_atom_site_fract_z
O1 O 0.84528(10) 0.58505(11) 0.35273(18)
H1 H 0.83310 0.52240 0.30290
N1 N 0.17646(12) 0.64705(14) -0.2513(2)
N2 N 0.41784(11) 0.80723(13) 0.04616(19)
N3 N 0.75247(11) 0.64546(13) 0.3075(2)
C1 C 0.25574(14) 0.69905(16) -0.1645(2)
H2 H 0.31510 0.65950 -0.13010
C2 C 0.25866(13) 0.81923(16) -0.1238(2)
C3 C 0.17334(15) 0.88719(17) -0.1790(2)
H3 H 0.16960 0.95850 -0.14020
C4 C 0.09045(15) 0.83400(18) -0.2686(3)
H4 H 0.02710 0.87710 -0.31340
C5 C 0.09503(15) 0.71458(18) -0.3025(3)
H5 H 0.04120 0.67980 -0.36530
C6 C 0.34656(14) 0.87193(16) -0.0230(2)
H6 H 0.34250 0.95980 -0.00860
C7 C 0.49793(13) 0.85828(15) 0.1545(2)
C8 C 0.58615(13) 0.79066(15) 0.1896(2)
H7 H 0.59120 0.72150 0.13510
C9 C 0.66697(14) 0.82964(15) 0.3020(2)
C10 C 0.65806(15) 0.93944(16) 0.3777(2)
H8 H 0.70730 0.97910 0.45680
C11 C 0.57031(14) 1.00760(16) 0.3423(2)
H9 H 0.56240 1.08000 0.39450
C12 C 0.48987(14) 0.96769(16) 0.2330(2)
H10 H 0.42840 1.02300 0.21020
C13 C 0.76033(14) 0.75649(15) 0.3436(2)
C14 C 0.85635(15) 0.81190(17) 0.4255(3)
H11 H 0.85850 0.90040 0.41540
H12 H 0.91680 0.78060 0.40570
H13 H 0.86000 0.79920 0.54650
#END
