
#######################################################################
#
#                 Cambridge Crystallographic Data Centre
#                                CCDC
#
#######################################################################
#
# If this CIF has been generated from an entry in the Cambridge
# Structural Database, then it will include bibliographic, chemical,
# crystal, experimental, refinement or atomic coordinate data resulting
# from the CCDC's data processing and validation procedures.
#
#######################################################################

data_CSD_CIF_QIHKIE
_audit_creation_date 2018-06-04
_audit_creation_method CSD-ConQuest-V1
_database_code_CSD QIHKIE
_database_code_depnum_ccdc_archive 'CCDC 1558932'
_chemical_formula_sum 'C18 H22 N2 O2'
_chemical_formula_moiety
;
C18 H22 N2 O2
;
_journal_coden_Cambridge 1220
_journal_volume 24
_journal_year 2018
_journal_page_first 4453
_journal_name_full 'Chem.-Eur.J. '
loop_
_publ_author_name
"Y.Iwasaki"
"R.Morisawa"
"S.Yokojima"
"H.Hasegawa"
"C.Roussel"
"N.Vanthuyne"
"E.Caytan"
"O.Kitagawa"
_chemical_name_systematic
;
2-t-butyl-N,6-dimethyl-N-(4-nitrophenyl)aniline
;
_chemical_melting_point 389
_cell_volume    790.518
_exptl_crystal_colour 'pale yellow'
_exptl_crystal_density_diffrn 1.254
_exptl_crystal_description 'block'
_exptl_crystal_preparation 'ethyl acetate'
_diffrn_ambient_temperature 90
#These two values have been output from a single CSD field.
_refine_ls_R_factor_gt 0.036
_refine_ls_wR_factor_gt 0.036
_symmetry_cell_setting triclinic
_symmetry_space_group_name_H-M 'P -1'
_symmetry_Int_Tables_number 2
loop_
_symmetry_equiv_pos_site_id
_symmetry_equiv_pos_as_xyz
1 x,y,z
2 -x,-y,-z
_cell_length_a 8.5454(7)
_cell_length_b 9.1933(8)
_cell_length_c 10.2203(9)
_cell_angle_alpha 98.215(1)
_cell_angle_beta 92.967(1)
_cell_angle_gamma 94.573(1)
_cell_formula_units_Z 2
loop_
_atom_type_symbol
_atom_type_radius_bond
C 0.68
H 0.23
N 0.68
O 0.68
loop_
_atom_site_label
_atom_site_type_symbol
_atom_site_fract_x
_atom_site_fract_y
_atom_site_fract_z
C1 C 0.09957(15) 0.54445(14) 0.28090(12)
C2 C 0.07330(15) 0.40333(14) 0.20438(13)
C3 C -0.07608(16) 0.36781(15) 0.13922(13)
H1 H -0.09920 0.27310 0.08810
C4 C -0.19101(16) 0.46577(16) 0.14667(13)
H2 H -0.29170 0.43700 0.10260
C5 C -0.15992(15) 0.60545(15) 0.21805(13)
H3 H -0.23830 0.67330 0.22060
C6 C -0.01469(15) 0.64725(14) 0.28607(13)
C7 C 0.19500(16) 0.28624(14) 0.19133(14)
C8 C 0.1430(2) 0.15992(17) 0.07793(15)
H4 H 0.12550 0.20060 -0.00460
H5 H 0.04530 0.10730 0.09870
H6 H 0.22530 0.09140 0.06750
C9 C 0.35810(18) 0.35087(17) 0.16098(18)
H7 H 0.40280 0.42190 0.23700
H8 H 0.34830 0.40070 0.08280
H9 H 0.42730 0.27120 0.14380
C10 C 0.20743(17) 0.21540(15) 0.31823(14)
H10 H 0.27760 0.13590 0.30620
H11 H 0.10280 0.17500 0.33720
H12 H 0.24980 0.29010 0.39240
C11 C 0.01699(17) 0.80045(15) 0.36349(15)
H13 H 0.08670 0.86080 0.31540
H14 H 0.06730 0.79440 0.45070
H15 H -0.08250 0.84550 0.37460
C12 C 0.24023(16) 0.56124(15) 0.50172(13)
H16 H 0.33930 0.52320 0.52790
H17 H 0.15230 0.48850 0.50970
H18 H 0.22720 0.65350 0.55960
C13 C 0.35016(15) 0.69557(14) 0.33177(13)
C14 C 0.34460(15) 0.73710(14) 0.20347(13)
H19 H 0.26750 0.68850 0.13810
C15 C 0.44899(15) 0.84670(14) 0.17192(13)
H20 H 0.44290 0.87470 0.08600
C16 C 0.56391(15) 0.91624(14) 0.26733(13)
C17 C 0.57553(15) 0.87524(14) 0.39288(13)
H21 H 0.65570 0.92210 0.45630
C18 C 0.47020(15) 0.76627(14) 0.42508(13)
H22 H 0.47840 0.73840 0.51100
N1 N 0.24317(12) 0.58894(12) 0.36379(10)
N2 N 0.67248(13) 1.03336(12) 0.23537(11)
O1 O 0.78108(11) 1.08546(11) 0.31755(10)
O2 O 0.65208(11) 1.07726(11) 0.12750(9)
#END
