
#######################################################################
#
#                 Cambridge Crystallographic Data Centre
#                                CCDC
#
#######################################################################
#
# If this CIF has been generated from an entry in the Cambridge
# Structural Database, then it will include bibliographic, chemical,
# crystal, experimental, refinement or atomic coordinate data resulting
# from the CCDC's data processing and validation procedures.
#
#######################################################################

data_CSD_CIF_QIHKUQ
_audit_creation_date 2018-06-04
_audit_creation_method CSD-ConQuest-V1
_database_code_CSD QIHKUQ
_database_code_depnum_ccdc_archive 'CCDC 1560806'
_chemical_formula_sum 'C18 H19 N3 O3'
_chemical_formula_moiety
;
C18 H19 N3 O3
;
_journal_coden_Cambridge 1220
_journal_volume 24
_journal_year 2018
_journal_page_first 4289
_journal_name_full 'Chem.-Eur.J. '
loop_
_publ_author_name
"Jingchuan Zhang"
"Kai Fu"
"Lili Lin"
"Yan Lu"
"Xiaohua Liu"
"Xiaoming Feng"
_chemical_name_systematic
;
t-Butyl (S)-2-cyano-2-(hydroxy(pyridin-2-yl)amino)-2-phenylacetate
;
_chemical_melting_point 413.15
_cell_volume    916.955
_exptl_crystal_colour 'colorless'
_exptl_crystal_density_diffrn 1.178
_exptl_special_details
;
Melting point range 413.15-415.15K
Absolute configuration

;
_exptl_crystal_description 'block'
_diffrn_ambient_temperature 292.6
#These two values have been output from a single CSD field.
_refine_ls_R_factor_gt 0.046
_refine_ls_wR_factor_gt 0.046
_symmetry_cell_setting monoclinic
_symmetry_space_group_name_H-M 'P 21'
_symmetry_Int_Tables_number 4
loop_
_symmetry_equiv_pos_site_id
_symmetry_equiv_pos_as_xyz
1 x,y,z
2 -x,1/2+y,-z
_cell_length_a 6.25804(16)
_cell_length_b 15.7256(3)
_cell_length_c 9.5073(2)
_cell_angle_alpha 90
_cell_angle_beta 101.466(2)
_cell_angle_gamma 90
_cell_formula_units_Z 2
loop_
_atom_type_symbol
_atom_type_radius_bond
C 0.68
H 0.23
N 0.68
O 0.68
loop_
_atom_site_label
_atom_site_type_symbol
_atom_site_fract_x
_atom_site_fract_y
_atom_site_fract_z
O1 O 0.0022(3) 0.49147(14) 0.94677(18)
H1 H -0.12510 0.50380 0.91360
O2 O 0.2847(3) 0.50120(13) 0.59726(16)
O3 O 0.6192(3) 0.50621(16) 0.73809(19)
N1 N 0.3093(4) 0.35297(14) 0.7839(3)
N2 N 0.1088(3) 0.46893(13) 0.8332(2)
N3 N 0.5728(4) 0.48863(19) 1.0877(2)
C1 C 0.3298(6) 0.26914(19) 0.7657(4)
H2 H 0.45140 0.24960 0.73290
C2 C 0.1812(7) 0.2110(2) 0.7927(5)
H3 H 0.20170 0.15330 0.77930
C3 C 0.0027(7) 0.2395(2) 0.8395(6)
H4 H -0.09990 0.20100 0.85980
C4 C -0.0262(6) 0.3257(2) 0.8571(4)
H5 H -0.14800 0.34650 0.88820
C5 C 0.1334(4) 0.37991(16) 0.8265(3)
C6 C 0.3036(4) 0.52070(14) 0.8443(2)
C7 C 0.4593(4) 0.50212(17) 0.9811(2)
C8 C 0.2505(5) 0.61560(16) 0.8333(3)
C9 C 0.0528(6) 0.6432(2) 0.7570(4)
H6 H -0.05370 0.60430 0.71620
C10 C 0.0148(8) 0.7300(3) 0.7417(6)
H7 H -0.11990 0.74920 0.69230
C11 C 0.1729(8) 0.7882(2) 0.7982(5)
H8 H 0.14560 0.84620 0.78700
C12 C 0.3691(8) 0.7600(2) 0.8706(5)
H9 H 0.47780 0.79880 0.90770
C13 C 0.4078(6) 0.6744(2) 0.8891(4)
H10 H 0.54210 0.65580 0.94000
C14 C 0.4247(4) 0.50424(16) 0.7195(2)
C15 C 0.3588(5) 0.4967(2) 0.4580(3)
C16 C 0.490(1) 0.4173(4) 0.4533(5)
H11 H 0.62260 0.42080 0.52390
H12 H 0.52410 0.41130 0.35970
H13 H 0.40720 0.36890 0.47320
C17 C 0.1436(8) 0.4932(5) 0.3534(3)
H14 H 0.05360 0.44990 0.38260
H15 H 0.16850 0.48040 0.25930
H16 H 0.07160 0.54720 0.35170
C18 C 0.4797(10) 0.5765(3) 0.4377(4)
H17 H 0.39430 0.62500 0.45370
H18 H 0.50580 0.57830 0.34160
H19 H 0.61640 0.57740 0.50470
#END
