
#######################################################################
#
#                 Cambridge Crystallographic Data Centre
#                                CCDC
#
#######################################################################
#
# If this CIF has been generated from an entry in the Cambridge
# Structural Database, then it will include bibliographic, chemical,
# crystal, experimental, refinement or atomic coordinate data resulting
# from the CCDC's data processing and validation procedures.
#
#######################################################################

data_CSD_CIF_QIHREE
_audit_creation_date 2001-06-05
_audit_creation_method CSD-ConQuest-V1
_database_code_CSD QIHREE
_database_code_depnum_ccdc_archive 'CCDC 161367'
_database_code_depnum_ccdc_journal 1267/482
_chemical_formula_sum 'C16 H21 N1 O4'
_chemical_formula_moiety
;
C16 H21 N1 O4
;
_journal_coden_Cambridge 1267
_journal_volume 216
_journal_year 2001
_journal_page_first 89
_journal_name_full 'Z.Kristallogr.-New Cryst.Struct. '
loop_
_publ_author_name
"S.Henkel"
"M.Kleban"
"V.Jager"
_chemical_name_systematic
;
(3aS,3bS,6aR,7S,7aS)-1-benzyl-5,5-dimethylhexahydro-1H-[1,3]dioxolo[4',5':3,4]
cyclopenta[1,2-c]isoxazol-7-ol
;
_chemical_name_common
;
(3aS,4S,5R,6S,6aS)-1-benzyl-4,5,6-trihydroxy-4,5-O-isopropylidene-3,3a,4,5,6,6
a-hexahydro-1H-cyclopenta(c)isoxazole
;
_chemical_melting_point 391
_cell_volume   1515.167
_exptl_crystal_colour 'colorless'
_exptl_crystal_density_diffrn 1.277
_exptl_crystal_description 'block'
_exptl_crystal_preparation 'ethyl acetate/heptane'
_diffrn_ambient_temperature ?
_diffrn_special_details
;
The study was carried out at room temperature,in the range 283-303K

;
#These two values have been output from a single CSD field.
_refine_ls_R_factor_gt 0.0482
_refine_ls_wR_factor_gt 0.0482
loop_
_citation_database_id_CSD
_citation_special_details
GANBOP "is a stereoisomer of this entry"
_symmetry_cell_setting orthorhombic
_symmetry_space_group_name_H-M 'P 21 21 21'
_symmetry_Int_Tables_number 19
loop_
_symmetry_equiv_pos_site_id
_symmetry_equiv_pos_as_xyz
1 x,y,z
2 1/2-x,-y,1/2+z
3 -x,1/2+y,1/2-z
4 1/2+x,1/2-y,-z
_cell_length_a 7.932(1)
_cell_length_b 10.312(1)
_cell_length_c 18.524(2)
_cell_angle_alpha 90
_cell_angle_beta 90
_cell_angle_gamma 90
_cell_formula_units_Z 4
loop_
_atom_type_symbol
_atom_type_radius_bond
C 0.68
H 0.23
N 0.68
O 0.68
loop_
_atom_site_label
_atom_site_type_symbol
_atom_site_fract_x
_atom_site_fract_y
_atom_site_fract_z
N1 N -0.0547(2) 0.0579(2) 0.64729(9)
O1 O 0.0591(3) 0.0617(3) 0.5868(1)
C1 C 0.1923(5) -0.0220(6) 0.6006(2)
H1 H 0.2936(5) 0.0087(6) 0.5768(2)
H2 H 0.1664(5) -0.1080(6) 0.5824(2)
C2 C 0.2191(3) -0.0268(3) 0.6811(2)
H3 H 0.2266(3) -0.1172(3) 0.6972(2)
C3 C 0.3677(3) 0.0500(2) 0.71019(12)
H4 H 0.4318(3) 0.0906(2) 0.67099(12)
C4 C 0.2949(3) 0.1526(2) 0.76185(12)
H5 H 0.3535(3) 0.2359(2) 0.75813(12)
C5 C 0.1083(3) 0.1642(2) 0.74579(13)
H6 H 0.0449(3) 0.1777(2) 0.79058(13)
C6 C 0.0557(3) 0.0356(2) 0.71015(12)
H7 H 0.0008(3) -0.0215(2) 0.74527(12)
O2 O 0.0869(4) 0.272(2) 0.69876(12)
H8 H 0.0101(43) 0.2384(32) 0.6711(19)
O3 O 0.4730(3) -0.0285(2) 0.75404(10)
O4 O 0.3180(2) 0.0927(2) 0.83079(8)
C7 C 0.4698(3) 0.0189(3) 0.82641(13)
C8 C 0.4568(6) -0.0942(4) 0.8769(2)
H9 H 0.5584(6) -0.1446(4) 0.8744(2)
H10 H 0.3625(6) -0.1472(4) 0.8634(2)
H11 H 0.4413(6) -0.0632(4) 0.9254(2)
C9 C 0.6233(4) 0.1016(4) 0.8397(2)
H12 H 0.7227(4) 0.0489(4) 0.8363(2)
H13 H 0.6166(4) 0.1393(4) 0.8870(2)
H14 H 0.6283(4) 0.1693(4) 0.8042(2)
C10 C -0.1765(3) -0.0455(2) 0.63658(12)
H15 H -0.2482(3) -0.0511(2) 0.67890(12)
H16 H -0.1167(3) -0.1271(2) 0.63206(12)
C11 C -0.2862(3) -0.0266(2) 0.57064(11)
C12 C -0.3130(4) 0.0939(3) 0.54027(14)
H17 H -0.2597(4) 0.1664(3) 0.55954(14)
C13 C -0.4194(4) 0.1076(4) 0.4810(2)
H18 H -0.4377(4) 0.1894(4) 0.4614(2)
C14 C -0.4971(4) 0.0023(4) 0.4513(2)
H19 H -0.5666(4) 0.0121(4) 0.4113(2)
C15 C -0.4719(4) -0.1180(4) 0.4810(2)
H20 H -0.5260(4) -0.1899(4) 0.4615(2)
C16 C -0.3656(4) -0.1327(3) 0.5402(2)
H21 H -0.3477(4) -0.2148(3) 0.5594(2)
#END
