
#######################################################################
#
#                 Cambridge Crystallographic Data Centre
#                                CCDC
#
#######################################################################
#
# If this CIF has been generated from an entry in the Cambridge
# Structural Database, then it will include bibliographic, chemical,
# crystal, experimental, refinement or atomic coordinate data resulting
# from the CCDC's data processing and validation procedures.
#
#######################################################################

data_CSD_CIF_QIJDAO02
_audit_creation_date 2016-10-28
_audit_creation_method CSD-ConQuest-V1
_database_code_CSD QIJDAO02
_database_code_depnum_ccdc_archive 'CCDC 1423842'
_chemical_formula_sum 'C8 H8 N2 O2'
_chemical_formula_moiety
;
C8 H8 N2 O2
;
_journal_coden_Cambridge 1870
_journal_volume 2
_journal_year 2016
_journal_page_first e1600192
_journal_name_full 'Sci. Adv. '
loop_
_publ_author_name
"M.Woinska"
"S.Grabowsky"
"P.M.Dominiak"
"K.Wozniak"
"D.Jayatilaka"
_chemical_name_systematic
;
1-Nitroindoline
;
_cell_volume    362.991
_exptl_crystal_description 'irregular'
_diffrn_ambient_temperature 90
_refine_special_details
;
Hirshfeld atom refinement (HAR)

;
#These two values have been output from a single CSD field.
_refine_ls_R_factor_gt 0.0171
_refine_ls_wR_factor_gt 0.0171
loop_
_citation_database_id_CSD
_citation_special_details
QIJDAO01 "is reinterpreted by this entry"
_symmetry_cell_setting triclinic
_symmetry_space_group_name_H-M 'P -1'
_symmetry_Int_Tables_number 2
loop_
_symmetry_equiv_pos_site_id
_symmetry_equiv_pos_as_xyz
1 x,y,z
2 -x,-y,-z
_cell_length_a 5.7913(3)
_cell_length_b 8.2458(6)
_cell_length_c 8.9223(10)
_cell_angle_alpha 116.823(8)
_cell_angle_beta 104.589(9)
_cell_angle_gamma 91.602(5)
_cell_formula_units_Z 2
loop_
_atom_type_symbol
_atom_type_radius_bond
C 0.68
H 0.23
N 0.68
O 0.68
loop_
_atom_site_label
_atom_site_type_symbol
_atom_site_fract_x
_atom_site_fract_y
_atom_site_fract_z
O1 O 0.78206(3) 1.08679(2) 0.27351(2)
O2 O 1.11917(3) 1.13978(2) 0.48237(2)
N1 N 1.06730(3) 0.90150(2) 0.22092(2)
N2 N 0.98503(3) 1.05036(2) 0.33009(2)
C1 C 0.96753(3) 0.79786(2) 0.03614(2)
C2 C 1.12752(3) 0.67055(2) -0.02719(2)
C3 C 1.07483(3) 0.54992(2) -0.20612(2)
C4 C 0.86128(3) 0.55773(3) -0.32105(2)
C5 C 0.70389(3) 0.68544(3) -0.25608(2)
C6 C 0.75381(3) 0.80813(2) -0.07576(2)
C7 C 1.34212(3) 0.68722(2) 0.12133(2)
C8 C 1.30982(3) 0.85646(2) 0.28537(2)
H1 H 1.1954(7) 0.4512(6) -0.2570(5)
H2 H 0.8200(8) 0.4634(6) -0.4606(5)
H3 H 0.5381(7) 0.6927(6) -0.3429(5)
H4 H 0.6323(7) 0.9054(5) -0.0268(5)
H5 H 1.5140(7) 0.7066(5) 0.1001(5)
H6 H 1.3416(7) 0.5626(5) 0.1351(5)
H7 H 1.3127(7) 0.8278(5) 0.3917(5)
H8 H 1.4422(7) 0.9754(5) 0.3342(5)
#END
