
#######################################################################
#
#                 Cambridge Crystallographic Data Centre
#                                CCDC
#
#######################################################################
#
# If this CIF has been generated from an entry in the Cambridge
# Structural Database, then it will include bibliographic, chemical,
# crystal, experimental, refinement or atomic coordinate data resulting
# from the CCDC's data processing and validation procedures.
#
#######################################################################

data_CSD_CIF_QIJMED
_audit_creation_date 2013-10-24
_audit_creation_method CSD-ConQuest-V1
_database_code_CSD QIJMED
_database_code_depnum_ccdc_archive 'CCDC 961995'
_chemical_formula_sum 'C22 H22 N4 O4'
_chemical_formula_moiety
;
C22 H22 N4 O4
;
_journal_coeditor_code "IUCr cu3041"
_journal_coden_Cambridge 591
_journal_volume 69
_journal_year 2013
_journal_page_first 1383
_journal_name_full 'Acta Crystallogr.,Sect.C:Cryst.Struct.Commun. '
loop_
_publ_author_name
"C.B.Wade"
"D.K.Mohanty"
"P.J.Squattrito"
"N.J.Amato"
"K.Kirschbaum"
_chemical_name_systematic
;
4,6-Dinitro-N,N'-bis(2-phenylethyl)benzene-1,3-diamine
;
_chemical_melting_point 408
_cell_volume    979.881
_exptl_crystal_colour 'orange'
_exptl_crystal_density_diffrn 1.378
_exptl_crystal_description 'parallelepiped'
_diffrn_ambient_temperature 100
#These two values have been output from a single CSD field.
_refine_ls_R_factor_gt 0.0427
_refine_ls_wR_factor_gt 0.0427
_symmetry_cell_setting triclinic
_symmetry_space_group_name_H-M 'P -1'
_symmetry_Int_Tables_number 2
loop_
_symmetry_equiv_pos_site_id
_symmetry_equiv_pos_as_xyz
1 x,y,z
2 -x,-y,-z
_cell_length_a 8.1121(7)
_cell_length_b 10.1819(8)
_cell_length_c 13.1018(11)
_cell_angle_alpha 93.466(1)
_cell_angle_beta 106.595(1)
_cell_angle_gamma 106.932(1)
_cell_formula_units_Z 2
loop_
_atom_type_symbol
_atom_type_radius_bond
C 0.68
H 0.23
N 0.68
O 0.68
loop_
_atom_site_label
_atom_site_type_symbol
_atom_site_fract_x
_atom_site_fract_y
_atom_site_fract_z
O1 O 0.23044(11) 0.49365(8) -0.03714(6)
O2 O 0.20579(10) 0.44974(8) 0.11874(6)
O3 O 0.80203(11) 0.91022(8) 0.45448(6)
O4 O 0.57135(10) 0.72779(8) 0.43962(6)
N1 N 0.51043(11) 0.69381(9) -0.05088(6)
H1 H 0.410(2) 0.6227(15) -0.0847(12)
N2 N 0.28480(11) 0.52119(8) 0.06328(7)
N3 N 0.67006(11) 0.80913(9) 0.39872(6)
N4 N 0.86876(11) 1.00007(8) 0.28122(7)
H2 H 0.905(2) 1.0156(17) 0.3538(14)
C1 C 0.54668(12) 0.72552(9) 0.05682(7)
C2 C 0.44289(12) 0.63957(9) 0.11528(7)
C3 C 0.48939(12) 0.67177(9) 0.22604(7)
H3 H 0.4177(19) 0.6132(15) 0.2631(11)
C4 C 0.63377(12) 0.78684(9) 0.28394(7)
C5 C 0.73706(12) 0.88063(9) 0.22938(7)
C6 C 0.69047(12) 0.84309(9) 0.11745(7)
H4 H 0.7613(18) 0.9005(14) 0.0809(11)
C7 C 0.60110(13) 0.78288(10) -0.11463(8)
H5 H 0.5825(17) 0.7264(13) -0.1818(10)
H6 H 0.7300(18) 0.8193(13) -0.077(1)
C8 C 0.52363(14) 0.90188(11) -0.14096(8)
H7 H 0.5228(19) 0.9459(15) -0.0728(12)
H8 H 0.396(2) 0.8610(15) -0.1902(12)
C9 C 0.63215(12) 1.0050(1) -0.19438(7)
C10 C 0.59759(13) 0.98259(10) -0.30591(8)
H9 H 0.501(2) 0.9015(16) -0.3492(12)
C11 C 0.70127(14) 1.07599(11) -0.35487(8)
H10 H 0.677(2) 1.0608(16) -0.4351(13)
C12 C 0.84093(14) 1.19286(11) -0.29268(9)
H11 H 0.915(2) 1.2594(18) -0.3244(14)
C13 C 0.87739(14) 1.21631(11) -0.18180(9)
H12 H 0.974(2) 1.2986(18) -0.1407(14)
C14 C 0.77321(14) 1.12241(10) -0.13291(8)
H13 H 0.796(2) 1.1411(16) -0.0549(13)
C15 C 0.97367(13) 1.0993(1) 0.22897(8)
H14 H 1.0524(17) 1.0589(13) 0.2021(10)
H15 H 0.8901(18) 1.1204(14) 0.1646(11)
C16 C 1.08512(12) 1.23457(10) 0.30761(8)
H16 H 1.1659(18) 1.2924(14) 0.2730(11)
H17 H 1.1643(18) 1.2117(14) 0.3725(11)
C17 C 0.96790(12) 1.31233(9) 0.33662(7)
C18 C 0.90244(13) 1.28766(10) 0.42395(8)
H18 H 0.9416(18) 1.2227(14) 0.4720(11)
C19 C 0.78662(14) 1.35502(11) 0.44617(8)
H19 H 0.7421(18) 1.3349(14) 0.5078(11)
C20 C 0.73618(14) 1.44989(11) 0.38173(9)
H20 H 0.658(2) 1.4978(15) 0.4001(12)
C21 C 0.80260(14) 1.47698(10) 0.29578(8)
H21 H 0.7735(19) 1.5465(15) 0.2518(12)
C22 C 0.91731(13) 1.40873(10) 0.27311(8)
H22 H 0.9588(18) 1.4296(14) 0.2116(11)
#END
