
#######################################################################
#
#                 Cambridge Crystallographic Data Centre
#                                CCDC
#
#######################################################################
#
# If this CIF has been generated from an entry in the Cambridge
# Structural Database, then it will include bibliographic, chemical,
# crystal, experimental, refinement or atomic coordinate data resulting
# from the CCDC's data processing and validation procedures.
#
#######################################################################

data_CSD_CIF_QIKFEV
_audit_creation_date 2001-06-22
_audit_creation_method CSD-ConQuest-V1
_database_code_CSD QIKFEV
_database_code_depnum_ccdc_archive 'CCDC 163935'
_chemical_formula_sum 'C12 H11 N3 O1'
_chemical_formula_moiety
;
C12 H11 N3 O1
;
_journal_coeditor_code "IUCr DA1152"
_journal_coden_Cambridge 591
_journal_volume 57
_journal_year 2001
_journal_page_first 467
_journal_name_full 'Acta Crystallogr.,Sect.C:Cryst.Struct.Commun. '
loop_
_publ_author_name
"A.Domanski"
"K.Ejsmont"
"J.B.Kyziol"
"J.Zaleski"
_chemical_name_systematic
;
\a-trans-1-(4-Aminophenyl)-2-phenyldiazene 2-oxide
;
_chemical_melting_point 411
_cell_volume   1065.134
_exptl_crystal_colour 'orange'
_exptl_crystal_density_diffrn 1.33
_exptl_special_details
;
Melting point range 411-412.3K
alpha monoclinic polymorph

;
_exptl_crystal_description 'prism'
_diffrn_ambient_temperature ?
_diffrn_special_details
;
The study was carried out at room temperature,in the range 283-303K

;
#These two values have been output from a single CSD field.
_refine_ls_R_factor_gt 0.037
_refine_ls_wR_factor_gt 0.037
_symmetry_cell_setting monoclinic
_symmetry_space_group_name_H-M 'P 21/n'
_symmetry_Int_Tables_number 14
loop_
_symmetry_equiv_pos_site_id
_symmetry_equiv_pos_as_xyz
1 x,y,z
2 1/2+x,1/2-y,1/2+z
3 -x,-y,-z
4 -1/2-x,-1/2+y,-1/2-z
_cell_length_a 5.733(1)
_cell_length_b 11.602(2)
_cell_length_c 16.038(3)
_cell_angle_alpha 90
_cell_angle_beta 93.16(3)
_cell_angle_gamma 90
_cell_formula_units_Z 4
loop_
_atom_type_symbol
_atom_type_radius_bond
C 0.68
H 0.23
N 0.68
O 0.68
loop_
_atom_site_label
_atom_site_type_symbol
_atom_site_fract_x
_atom_site_fract_y
_atom_site_fract_z
O1 O 0.2548(2) 0.30930(13) 0.11594(9)
N1 N 0.0834(2) 0.31672(11) 0.06282(7)
N2 N -0.0788(2) 0.39013(10) 0.06244(7)
N3 N -0.2063(3) 0.73408(15) 0.29746(10)
C1 C -0.0835(2) 0.47497(12) 0.12451(8)
C2 C 0.0665(2) 0.23009(13) -0.00289(9)
C3 C 0.0850(3) 0.50300(13) 0.1877(1)
C4 C 0.2487(3) 0.15477(17) -0.00918(12)
C5 C 0.0439(3) 0.58957(14) 0.24344(10)
C6 C 0.2361(4) 0.07247(18) -0.07149(13)
C7 C -0.1636(3) 0.65113(13) 0.23948(9)
C8 C 0.0450(4) 0.06598(17) -0.12593(13)
C9 C -0.3316(3) 0.62343(14) 0.17657(10)
C10 C -0.1347(4) 0.14192(18) -0.11885(13)
C11 C -0.2911(3) 0.53820(14) 0.12043(9)
C12 C -0.1258(3) 0.22458(16) -0.05703(11)
H1 H 0.230(3) 0.4641(15) 0.1919(10)
H2 H 0.382(4) 0.1598(17) 0.0265(12)
H3 H 0.163(3) 0.6091(15) 0.2838(10)
H4 H 0.360(4) 0.0215(19) -0.0781(13)
H5 H 0.037(3) 0.0071(18) -0.1683(12)
H6 H -0.480(3) 0.6657(16) 0.1726(10)
H7 H -0.271(4) 0.138(2) -0.1561(13)
H8 H -0.411(3) 0.5189(14) 0.0768(10)
H9 H -0.258(3) 0.2780(17) -0.0485(11)
H10 H -0.084(4) 0.7602(18) 0.3269(14)
H11 H -0.333(4) 0.779(2) 0.2878(13)
#END
