
#######################################################################
#
#                 Cambridge Crystallographic Data Centre
#                                CCDC
#
#######################################################################
#
# If this CIF has been generated from an entry in the Cambridge
# Structural Database, then it will include bibliographic, chemical,
# crystal, experimental, refinement or atomic coordinate data resulting
# from the CCDC's data processing and validation procedures.
#
#######################################################################

data_CSD_CIF_QIKFEV01
_audit_creation_date 2002-11-27
_audit_creation_method CSD-ConQuest-V1
_database_code_CSD QIKFEV01
_database_code_depnum_ccdc_archive 'CCDC 195616'
_chemical_formula_sum 'C12 H11 N3 O1'
_chemical_formula_moiety
;
C12 H11 N3 O1
;
_journal_coeditor_code "IUCr GD1210"
_journal_coden_Cambridge 591
_journal_volume 58
_journal_year 2002
_journal_page_first o545
_journal_name_full 'Acta Crystallogr.,Sect.C:Cryst.Struct.Commun. '
loop_
_publ_author_name
"K.Ejsmont"
"M.Broda"
"A.Domanski"
"J.B.Kyziol"
"J.Zaleski"
_chemical_name_systematic
;
1-(4-Aminophenyl)-2-phenyldiazene 2-oxide
;
_chemical_melting_point 416.2
_cell_volume   2075.224
_exptl_crystal_colour 'orange'
_exptl_crystal_density_diffrn 1.365
_exptl_special_details
;
Melting point range 416.2-417.7K
alpha orthorhombic polymorph

;
_exptl_crystal_description 'prism'
_exptl_crystal_preparation 'methanol'
_diffrn_ambient_temperature 90.00
#These two values have been output from a single CSD field.
_refine_ls_R_factor_gt 0.042
_refine_ls_wR_factor_gt 0.042
_symmetry_cell_setting orthorhombic
_symmetry_space_group_name_H-M 'P b c a'
_symmetry_Int_Tables_number 61
loop_
_symmetry_equiv_pos_site_id
_symmetry_equiv_pos_as_xyz
1 x,y,z
2 1/2+x,y,1/2-z
3 x,1/2-y,1/2+z
4 1/2-x,1/2+y,z
5 -x,-y,-z
6 -1/2-x,-y,-1/2+z
7 -x,-1/2+y,-1/2-z
8 -1/2+x,-1/2-y,-z
_cell_length_a 12.058(2)
_cell_length_b 7.054(1)
_cell_length_c 24.398(5)
_cell_angle_alpha 90
_cell_angle_beta 90
_cell_angle_gamma 90
_cell_formula_units_Z 8
loop_
_atom_type_symbol
_atom_type_radius_bond
C 0.68
H 0.23
N 0.68
O 0.68
loop_
_atom_site_label
_atom_site_type_symbol
_atom_site_fract_x
_atom_site_fract_y
_atom_site_fract_z
N1 N 1.03622(10) 0.22089(19) 0.58438(6)
N2 N 0.93829(11) 0.20682(19) 0.60288(6)
O1 O 1.12684(9) 0.21446(17) 0.61182(5)
C1 C 0.92224(13) 0.1715(2) 0.65905(6)
C2 C 0.99093(14) 0.0673(2) 0.69493(6)
C3 C 0.95795(13) 0.0352(2) 0.74829(7)
C4 C 0.85716(13) 0.1060(2) 0.76819(6)
C5 C 0.78915(13) 0.2084(2) 0.73222(7)
C6 C 0.82079(13) 0.2373(2) 0.67901(7)
N3 N 0.82633(13) 0.0769(2) 0.82143(6)
C7 C 1.04477(13) 0.2524(2) 0.52500(7)
C8 C 1.14561(15) 0.3095(3) 0.50438(7)
C9 C 1.15634(15) 0.3386(3) 0.44821(7)
C10 C 1.06694(14) 0.3096(2) 0.41366(7)
C11 C 0.96671(15) 0.2527(3) 0.43516(8)
C12 C 0.95509(15) 0.2239(3) 0.49113(8)
H1 H 1.0605(14) 0.016(2) 0.6830(6)
H2 H 1.0023(14) -0.035(3) 0.7718(7)
H3 H 0.7162(15) 0.255(3) 0.7450(7)
H4 H 0.7736(14) 0.311(3) 0.6540(7)
H5 H 0.8538(16) -0.024(3) 0.8408(9)
H6 H 0.7525(18) 0.107(3) 0.8322(8)
H7 H 1.2060(17) 0.326(3) 0.5304(8)
H8 H 1.2311(18) 0.380(3) 0.4342(8)
H9 H 1.072(1) 0.3304(19) 0.3713(6)
H10 H 0.9041(16) 0.236(3) 0.4108(8)
H11 H 0.8879(18) 0.187(3) 0.5065(8)
#END
