
#######################################################################
#
#                 Cambridge Crystallographic Data Centre
#                                CCDC
#
#######################################################################
#
# If this CIF has been generated from an entry in the Cambridge
# Structural Database, then it will include bibliographic, chemical,
# crystal, experimental, refinement or atomic coordinate data resulting
# from the CCDC's data processing and validation procedures.
#
#######################################################################

data_CSD_CIF_QIKFIZ01
_audit_creation_date 2002-11-27
_audit_creation_method CSD-ConQuest-V1
_database_code_CSD QIKFIZ01
_database_code_depnum_ccdc_archive 'CCDC 195617'
_chemical_formula_sum 'C12 H11 N3 O1'
_chemical_formula_moiety
;
C12 H11 N3 O1
;
_journal_coeditor_code "IUCr GD1210"
_journal_coden_Cambridge 591
_journal_volume 58
_journal_year 2002
_journal_page_first o545
_journal_name_full 'Acta Crystallogr.,Sect.C:Cryst.Struct.Commun. '
loop_
_publ_author_name
"K.Ejsmont"
"M.Broda"
"A.Domanski"
"J.B.Kyziol"
"J.Zaleski"
_chemical_name_systematic
;
2-(4-Aminophenyl)-1-phenyldiazene 2-oxide
;
_chemical_melting_point 418.5
_cell_volume   1048.229
_exptl_crystal_colour 'yellow'
_exptl_crystal_density_diffrn 1.351
_exptl_special_details
;
beta orthorhombic polymorph

;
_exptl_crystal_description 'prism'
_exptl_crystal_preparation 'methanol'
_diffrn_ambient_temperature 90.00
#These two values have been output from a single CSD field.
_refine_ls_R_factor_gt 0.031
_refine_ls_wR_factor_gt 0.031
_symmetry_cell_setting orthorhombic
_symmetry_space_group_name_H-M 'P c a 21'
_symmetry_Int_Tables_number 29
loop_
_symmetry_equiv_pos_site_id
_symmetry_equiv_pos_as_xyz
1 x,y,z
2 -x,-y,1/2+z
3 1/2+x,-y,z
4 1/2-x,y,1/2+z
_cell_length_a 17.779(4)
_cell_length_b 5.535(1)
_cell_length_c 10.652(2)
_cell_angle_alpha 90
_cell_angle_beta 90
_cell_angle_gamma 90
_cell_formula_units_Z 4
loop_
_atom_type_symbol
_atom_type_radius_bond
C 0.68
H 0.23
N 0.68
O 0.68
loop_
_atom_site_label
_atom_site_type_symbol
_atom_site_fract_x
_atom_site_fract_y
_atom_site_fract_z
N1 N 0.33494(10) 0.3120(3) 0.08364(17)
N2 N 0.30226(11) 0.1672(3) 0.00566(18)
N3 N 0.56451(12) 0.9054(4) -0.1173(2)
O1 O 0.32237(9) 0.3354(3) 0.20214(15)
C1 C 0.39418(12) 0.4655(4) 0.0301(2)
C2 C 0.41356(12) 0.6791(4) 0.0928(2)
C3 C 0.47079(13) 0.8243(4) 0.0451(2)
C4 C 0.50954(12) 0.7595(4) -0.0660(2)
C5 C 0.48904(13) 0.5406(4) -0.1269(2)
C6 C 0.43173(13) 0.3961(4) -0.0805(2)
C7 C 0.24549(13) 0.0068(3) 0.0506(2)
C8 C 0.19978(13) 0.0337(4) 0.1586(2)
C9 C 0.14420(13) -0.1402(4) 0.1831(2)
C10 C 0.13417(13) -0.3398(4) 0.1029(2)
C11 C 0.17917(13) -0.3650(4) -0.0042(2)
C12 C 0.23349(14) -0.1914(4) -0.0317(2)
H1 H 0.3872(13) 0.720(4) 0.168(2)
H2 H 0.4859(14) 0.983(5) 0.087(3)
H3 H 0.5825(16) 1.027(5) -0.069(3)
H4 H 0.5947(16) 0.844(5) -0.176(3)
H5 H 0.5148(14) 0.493(4) -0.202(2)
H6 H 0.4181(15) 0.244(5) -0.123(3)
H7 H 0.2066(14) 0.173(4) 0.218(3)
H8 H 0.0965(15) -0.466(4) 0.120(3)
H9 H 0.1096(14) -0.126(4) 0.259(3)
H10 H 0.1735(13) -0.502(4) -0.060(3)
H11 H 0.2639(16) -0.203(4) -0.109(3)
#END
