
#######################################################################
#
#                 Cambridge Crystallographic Data Centre
#                                CCDC
#
#######################################################################
#
# If this CIF has been generated from an entry in the Cambridge
# Structural Database, then it will include bibliographic, chemical,
# crystal, experimental, refinement or atomic coordinate data resulting
# from the CCDC's data processing and validation procedures.
#
#######################################################################

data_CSD_CIF_QIKKAY
_audit_creation_date 2013-10-25
_audit_creation_method CSD-ConQuest-V1
_database_code_CSD QIKKAY
_database_code_depnum_ccdc_archive 'CCDC 929329'
_chemical_formula_sum 'C26 H27 N3 O8'
_chemical_formula_moiety
;
C26 H27 N3 O8
;
_journal_coden_Cambridge 1220
_journal_volume 19
_journal_year 2013
_journal_page_first 13893
_journal_name_full 'Chem.-Eur.J. '
loop_
_publ_author_name
"P.Lorenzo"
"A.R.de Lera"
"J.M.Aurrecoechea"
"R.Alvarez"
"A.Durana"
"M.Arrate"
_chemical_name_systematic
;
4-(2-Methyl-2-(((1-phenylethyl)carbamoyl)oxy)cyclopentyl)but-3-yn-1-yl 
3,5-dinitrobenzoate
;
_cell_volume   2491.254
_exptl_special_details
;
The R-factor and temperature of the study were not reported

;
_diffrn_ambient_temperature ?
_diffrn_special_details
;
The study was carried out at room temperature,in the range 283-303K

;
_symmetry_cell_setting orthorhombic
_symmetry_space_group_name_H-M 'P 21 21 21'
_symmetry_Int_Tables_number 19
loop_
_symmetry_equiv_pos_site_id
_symmetry_equiv_pos_as_xyz
1 x,y,z
2 1/2-x,-y,1/2+z
3 -x,1/2+y,1/2-z
4 1/2+x,1/2-y,-z
_cell_length_a 5.3575(8)
_cell_length_b 19.038(3)
_cell_length_c 24.425(4)
_cell_angle_alpha 90
_cell_angle_beta 90
_cell_angle_gamma 90
_cell_formula_units_Z 4
loop_
_atom_type_symbol
_atom_type_radius_bond
C 0.68
H 0.23
N 0.68
O 0.68
loop_
_atom_site_label
_atom_site_type_symbol
_atom_site_fract_x
_atom_site_fract_y
_atom_site_fract_z
C1 C 0.6924(7) 0.47045(18) 0.25234(15)
C2 C 0.5492(8) 0.42214(19) 0.29215(15)
H1 H 0.40640 0.44840 0.30660
C3 C 0.7347(9) 0.4108(2) 0.33891(16)
H2 H 0.64910 0.39650 0.37210
H3 H 0.85680 0.37530 0.32930
C4 C 0.8589(9) 0.4821(2) 0.34645(17)
H4 H 1.03300 0.47630 0.35640
H5 H 0.77570 0.50860 0.37500
C5 C 0.8360(9) 0.5203(2) 0.29097(16)
H6 H 1.00010 0.53060 0.27620
H7 H 0.74580 0.56420 0.29540
C6 C 0.8607(8) 0.4302(2) 0.21367(16)
H8 H 0.76150 0.39970 0.19120
H9 H 0.97730 0.40270 0.23450
H10 H 0.95000 0.46270 0.19080
C7 C 0.4552(7) 0.3557(2) 0.26865(17)
C8 C 0.3817(8) 0.3012(2) 0.25159(16)
C9 C 0.2910(8) 0.2343(2) 0.22826(16)
H11 H 0.24980 0.20230 0.25780
H12 H 0.42310 0.21310 0.20670
C10 C 0.0637(8) 0.2446(2) 0.19249(15)
H13 H 0.00480 0.19990 0.17860
H14 H -0.07000 0.26660 0.21310
O1 O 0.1433(5) 0.28966(13) 0.1479(1)
C11 C 0.0012(8) 0.2923(2) 0.10333(17)
O2 O -0.1960(6) 0.26276(16) 0.09867(12)
C12 C 0.1181(7) 0.33518(19) 0.05974(16)
C13 C 0.0189(8) 0.3319(2) 0.00748(16)
H15 H -0.11880 0.30360 0.00020
C14 C 0.1264(8) 0.3708(2) -0.03348(15)
C15 C 0.3285(8) 0.4135(2) -0.02558(16)
H16 H 0.39950 0.43890 -0.05420
C16 C 0.4209(8) 0.4169(2) 0.02666(17)
C17 C 0.3235(7) 0.37879(19) 0.06992(16)
H17 H 0.39250 0.38200 0.10480
N1 N 0.0165(8) 0.3686(2) -0.08919(16)
O3 O -0.1899(7) 0.34116(17) -0.09373(13)
O4 O 0.1346(7) 0.39450(18) -0.12687(13)
N2 N 0.6381(7) 0.46236(18) 0.03742(18)
O5 O 0.7382(6) 0.48967(17) -0.00253(13)
O6 O 0.7116(7) 0.46920(17) 0.08435(14)
O7 O 0.4996(4) 0.50729(13) 0.22112(10)
C18 C 0.5707(8) 0.5635(2) 0.18996(16)
O8 O 0.7827(5) 0.58269(14) 0.18385(11)
N3 N 0.3684(6) 0.59476(16) 0.16881(13)
H18 H 0.22370 0.57650 0.17420
C19 C 0.3888(8) 0.65951(19) 0.13660(15)
H19 H 0.54830 0.68160 0.14620
C20 C 0.1834(8) 0.7103(2) 0.15277(16)
H20 H 0.02390 0.68850 0.14720
H21 H 0.19470 0.75190 0.13060
H22 H 0.20180 0.72270 0.19060
C21 C 0.3911(8) 0.64665(19) 0.07546(16)
C22 C 0.2110(8) 0.6073(2) 0.04987(17)
H23 H 0.09350 0.58340 0.07080
C23 C 0.2015(9) 0.6025(2) -0.00694(19)
H24 H 0.07720 0.57590 -0.02360
C24 C 0.3748(10) 0.6369(2) -0.03843(19)
H25 H 0.36740 0.63390 -0.07640
C25 C 0.560(1) 0.6758(3) -0.0136(2)
H26 H 0.67920 0.69870 -0.03470
C26 C 0.5675(8) 0.6806(2) 0.04316(18)
H27 H 0.69260 0.70690 0.05980
#END
