
#######################################################################
#
#                 Cambridge Crystallographic Data Centre
#                                CCDC
#
#######################################################################
#
# If this CIF has been generated from an entry in the Cambridge
# Structural Database, then it will include bibliographic, chemical,
# crystal, experimental, refinement or atomic coordinate data resulting
# from the CCDC's data processing and validation procedures.
#
#######################################################################

data_CSD_CIF_QIMGOI01
_audit_creation_date 2013-07-07
_audit_creation_method CSD-ConQuest-V1
_database_code_CSD QIMGOI01
_database_code_depnum_ccdc_archive 'CCDC 865275'
_chemical_formula_sum 'C16 H15 N3 O5'
_chemical_formula_moiety
;
C16 H15 N3 O5
;
_journal_coden_Cambridge 206
_journal_volume 43
_journal_year 2013
_journal_page_first 465
_journal_name_full 'Synth.Commun. '
loop_
_publ_author_name
"R.Smits"
"S.Belyakov"
"A.Plotniece"
"G.Duburs"
_chemical_name_systematic
;
Ethyl 6-amino-5-cyano-2-methyl-4-(3-nitrophenyl)-4H-pyran-3-carboxylate
;
_cell_volume    779.292
_exptl_crystal_colour 'yellow'
_exptl_crystal_density_diffrn 1.403
_exptl_crystal_description 'Prism'
_diffrn_ambient_temperature 173
#These two values have been output from a single CSD field.
_refine_ls_R_factor_gt 0.047
_refine_ls_wR_factor_gt 0.047
_symmetry_cell_setting triclinic
_symmetry_space_group_name_H-M 'P -1'
_symmetry_Int_Tables_number 2
loop_
_symmetry_equiv_pos_site_id
_symmetry_equiv_pos_as_xyz
1 x,y,z
2 -x,-y,-z
_cell_length_a 8.3621(2)
_cell_length_b 8.4736(3)
_cell_length_c 12.0001(5)
_cell_angle_alpha 82.1919(13)
_cell_angle_beta 71.039(2)
_cell_angle_gamma 76.176(2)
_cell_formula_units_Z 2
loop_
_atom_type_symbol
_atom_type_radius_bond
C 0.68
H 0.23
N 0.68
O 0.68
loop_
_atom_site_label
_atom_site_type_symbol
_atom_site_fract_x
_atom_site_fract_y
_atom_site_fract_z
O1 O 0.58135(15) 0.27395(15) 0.33268(11)
O2 O 0.80949(16) -0.22002(16) 0.27402(12)
C1 C 0.5667(2) -0.0016(2) 0.32931(15)
O3 O 0.54821(17) -0.27689(16) 0.36341(14)
C2 C 0.4058(2) 0.3190(2) 0.38130(15)
N1 N 0.36019(19) 0.47457(19) 0.40394(15)
C3 C 0.6396(2) -0.1783(2) 0.32492(16)
C4 C 0.3724(2) 0.0453(2) 0.34810(15)
C5 C 0.1239(2) 0.2589(2) 0.45635(16)
C6 C 0.3035(2) 0.2093(2) 0.40003(15)
C7 C 0.6591(2) 0.1104(2) 0.32218(15)
C8 C 0.3335(2) 0.0422(2) 0.23220(15)
C9 C 0.3122(2) -0.1005(2) 0.19942(16)
N2 N -0.0219(2) 0.2968(2) 0.50290(16)
C10 C 0.8870(3) -0.3944(2) 0.27523(18)
C11 C 0.8482(2) 0.0932(2) 0.30430(18)
O4 O 0.3014(3) -0.3791(3) 0.11419(18)
C12 C 0.3226(2) 0.1816(3) 0.15621(17)
N3 N 0.2664(3) -0.2539(3) 0.05677(18)
C13 C 0.2809(2) -0.0992(3) 0.09257(17)
C14 C 0.8890(3) -0.4670(3) 0.16787(19)
C15 C 0.2665(3) 0.0381(3) 0.01751(18)
C16 C 0.2892(3) 0.1796(3) 0.05052(18)
O5 O 0.2196(4) -0.2470(4) -0.03127(18)
H1 H 0.23569 0.03922 -0.05739
H2 H 1.00340 -0.40102 0.28219
H3 H 0.25347 0.52038 0.42390
H4 H 0.42647 0.54264 0.38503
H5 H 0.81026 -0.44305 0.35034
H6 H 0.33698 0.28114 0.17786
H7 H 0.28039 0.27878 -0.00288
H8 H 0.93991 -0.58110 0.17073
H9 H 0.95545 -0.41386 0.09850
H10 H 0.77270 -0.45250 0.16545
H11 H 0.90561 0.11796 0.21723
H12 H 0.86435 0.16809 0.35094
H13 H 0.89522 -0.01616 0.32807
H14 H 0.31633 -0.04523 0.40907
H15 H 0.31926 -0.19788 0.25036
#END
