
#######################################################################
#
#                 Cambridge Crystallographic Data Centre
#                                CCDC
#
#######################################################################
#
# If this CIF has been generated from an entry in the Cambridge
# Structural Database, then it will include bibliographic, chemical,
# crystal, experimental, refinement or atomic coordinate data resulting
# from the CCDC's data processing and validation procedures.
#
#######################################################################

data_CSD_CIF_QIMLIH
_audit_creation_date 2001-06-22
_audit_creation_method CSD-ConQuest-V1
_database_code_CSD QIMLIH
_database_code_depnum_ccdc_archive 'CCDC 164689'
_chemical_formula_sum 'C18 H24 N2 O11'
_chemical_formula_moiety
;
C18 H24 N2 O11
;
_journal_coeditor_code "IUCr DA1176"
_journal_coden_Cambridge 591
_journal_volume 57
_journal_year 2001
_journal_page_first 649
_journal_name_full 'Acta Crystallogr.,Sect.C:Cryst.Struct.Commun. '
loop_
_publ_author_name
"O.Renaudet"
"P.Dumy"
"C.Philouze"
"M.-T.Averbuch-Pouchot"
_chemical_name_systematic
;
N-(2-Acetamido-3,4,6-tri-O-acetyl-2-deoxy-\a-D-galactopyranosyloxy)succinimide
;
_cell_volume   1108.664
_exptl_crystal_colour 'colorless'
_exptl_crystal_density_diffrn 1.331
_exptl_special_details
;
pharmacological activity

;
_exptl_crystal_description 'monoclinic prism'
_exptl_crystal_preparation 'methylene chloride/diethyl ether'
_diffrn_ambient_temperature ?
_diffrn_special_details
;
The study was carried out at room temperature,in the range 283-303K

;
#These two values have been output from a single CSD field.
_refine_ls_R_factor_gt 0.055
_refine_ls_wR_factor_gt 0.055
_symmetry_cell_setting monoclinic
_symmetry_space_group_name_H-M 'P 21'
_symmetry_Int_Tables_number 4
loop_
_symmetry_equiv_pos_site_id
_symmetry_equiv_pos_as_xyz
1 x,y,z
2 -x,1/2+y,-z
_cell_length_a 10.556(4)
_cell_length_b 9.191(1)
_cell_length_c 12.536(6)
_cell_angle_alpha 90
_cell_angle_beta 114.28(5)
_cell_angle_gamma 90
_cell_formula_units_Z 2
loop_
_atom_type_symbol
_atom_type_radius_bond
C 0.68
H 0.23
N 0.68
O 0.68
loop_
_atom_site_label
_atom_site_type_symbol
_atom_site_fract_x
_atom_site_fract_y
_atom_site_fract_z
O1 O -0.2804(1) -0.55250 -0.98523(9)
O2 O 0.1246(1) -0.6080(1) -0.72175(9)
O3 O 0.0209(1) -0.3635(1) -0.65250(9)
O4 O -0.2342(1) -0.3564(1) -0.85519(8)
O5 O -0.4031(1) -0.3098(2) -0.7315(1)
O6 O -0.5199(2) -0.5766(3) -0.9433(2)
O7 O -0.3494(2) -0.4554(3) -1.2095(1)
O8 O 0.0420(2) -0.3547(1) -1.0389(1)
O9 O 0.0822(1) -0.7987(2) -0.6300(1)
O10 O 0.1505(2) -0.4715(2) -0.4817(1)
O11 O -0.4488(2) -0.5150(2) -0.6609(2)
N1 N -0.4113(2) -0.5083(2) -1.0598(1)
N2 N -0.0150(1) -0.5564(1) -0.9704(1)
C1 C -0.1936(2) -0.4268(2) -0.9345(1)
C2 C -0.0467(2) -0.4825(2) -0.8826(1)
C3 C -0.0214(2) -0.5760(2) -0.7760(1)
C4 C -0.0653(2) -0.4917(2) -0.6920(1)
C5 C -0.2139(2) -0.4398(2) -0.7522(1)
C6 C -0.2567(2) -0.3432(2) -0.6766(1)
C7 C -0.5232(2) -0.5258(3) -1.0315(2)
C8 C -0.6434(3) -0.4686(4) -1.1371(3)
C9 C -0.5863(4) -0.4200(4) -1.2241(3)
C10 C -0.4367(3) -0.4611(3) -1.1721(2)
C11 C 0.0160(2) -0.4850(2) -1.0480(1)
C12 C 0.0113(3) -0.5700(2) -1.1514(2)
C13 C 0.1639(2) -0.7240(2) -0.6477(1)
C14 C 0.3160(2) -0.7380(3) -0.5940(2)
C15 C 0.1261(2) -0.3677(3) -0.5452(2)
C16 C 0.2027(3) -0.2266(3) -0.5205(2)
C17 C -0.4899(2) -0.4077(3) -0.7189(2)
C18 C -0.6375(2) -0.3638(4) -0.7819(2)
H1 H -0.20320 -0.36080 -0.99570
H2 H 0.01330 -0.40080 -0.85700
H3 H -0.07310 -0.66360 -0.79910
H4 H -0.05490 -0.55130 -0.62690
H5 H -0.27360 -0.52220 -0.77460
H6 H -0.20540 -0.25540 -0.66260
H7 H -0.23730 -0.39130 -0.60450
H8 H -0.68420 -0.38800 -1.11580
H9 H -0.71040 -0.54270 -1.17010
H10 H -0.59650 -0.31870 -1.23650
H11 H -0.63330 -0.46970 -1.29680
H12 H -0.01300 -0.66770 -1.14470
H13 H -0.05560 -0.52820 -1.22100
H14 H 0.10030 -0.56710 -1.15350
H15 H -0.02950 -0.64520 -0.97900
H16 H 0.35600 -0.65240 -0.55090
H17 H 0.34180 -0.81960 -0.54280
H18 H 0.34880 -0.75130 -0.65350
H19 H 0.14100 -0.14970 -0.52410
H20 H 0.23910 -0.21040 -0.57760
H21 H 0.27680 -0.22940 -0.44510
H22 H -0.69580 -0.43580 -0.77150
H23 H -0.65230 -0.27340 -0.75210
H24 H -0.65880 -0.35380 -0.86310
#END
