
#######################################################################
#
#                 Cambridge Crystallographic Data Centre
#                                CCDC
#
#######################################################################
#
# If this CIF has been generated from an entry in the Cambridge
# Structural Database, then it will include bibliographic, chemical,
# crystal, experimental, refinement or atomic coordinate data resulting
# from the CCDC's data processing and validation procedures.
#
#######################################################################

data_CSD_CIF_QIQYIA
_audit_creation_date 2013-10-30
_audit_creation_method CSD-ConQuest-V1
_database_code_CSD QIQYIA
_database_code_depnum_ccdc_archive 'CCDC 940835'
_chemical_formula_sum 'C24 H27 N3 O5'
_chemical_formula_moiety
;
C24 H27 N3 O5
;
_journal_coden_Cambridge 1475
_journal_volume 5
_journal_year 2014
_journal_page_first 297
_journal_name_full 'Chemical Science '
loop_
_publ_author_name
"Yan Zhang"
"Qifan Wu"
"Sunliang Cui"
_chemical_name_systematic
;
Diethyl 
1-(2-(2-((hydroxyimino)(phenyl)methyl)phenyl)cyclopent-3-en-1-yl)hydrazine-1,2
-dicarboxylate
;
_cell_volume   1130.211
_exptl_crystal_colour 'colorless'
_exptl_crystal_density_diffrn 1.286
_exptl_crystal_description 'block'
_diffrn_ambient_temperature 170
#These two values have been output from a single CSD field.
_refine_ls_R_factor_gt 0.0448
_refine_ls_wR_factor_gt 0.0448
_symmetry_cell_setting triclinic
_symmetry_space_group_name_H-M 'P -1'
_symmetry_Int_Tables_number 2
loop_
_symmetry_equiv_pos_site_id
_symmetry_equiv_pos_as_xyz
1 x,y,z
2 -x,-y,-z
_cell_length_a 8.9819(6)
_cell_length_b 10.2800(9)
_cell_length_c 13.0080(11)
_cell_angle_alpha 86.490(7)
_cell_angle_beta 73.036(7)
_cell_angle_gamma 79.688(7)
_cell_formula_units_Z 2
loop_
_atom_type_symbol
_atom_type_radius_bond
C 0.68
H 0.23
N 0.68
O 0.68
loop_
_atom_site_label
_atom_site_type_symbol
_atom_site_fract_x
_atom_site_fract_y
_atom_site_fract_z
O1 O 0.13668(15) 0.27646(15) 0.08554(11)
H1 H 0.16990 0.22130 0.03550
O2 O 0.71399(14) -0.06793(13) 0.04244(9)
O3 O 0.73817(13) -0.01951(14) 0.20264(9)
O4 O 0.51155(15) -0.29312(14) 0.13475(11)
O5 O 0.35024(14) -0.21336(13) 0.0319(1)
N1 N 0.24684(17) 0.26620(17) 0.14429(12)
N2 N 0.50093(16) -0.04077(15) 0.19042(11)
N3 N 0.40737(16) -0.07308(16) 0.13094(12)
H2 H 0.33530 -0.01340 0.11340
C1 C 0.0019(2) 0.5268(2) 0.17262(16)
H3 H 0.05000 0.50830 0.09850
C2 C -0.1273(2) 0.6262(2) 0.20372(18)
H4 H -0.16730 0.67570 0.15060
C3 C -0.1990(2) 0.6545(2) 0.3107(2)
H5 H -0.28640 0.72440 0.33120
C4 C -0.1430(2) 0.5809(2) 0.38777(18)
H6 H -0.19360 0.59840 0.46180
C5 C -0.0131(2) 0.4817(2) 0.35749(16)
H7 H 0.02540 0.43210 0.41120
C6 C 0.0620(2) 0.45342(19) 0.24965(15)
C7 C 0.2055(2) 0.34900(19) 0.22161(14)
C8 C 0.3201(2) 0.34113(19) 0.28671(14)
C9 C 0.3787(2) 0.4562(2) 0.29357(16)
H8 H 0.34220 0.53500 0.25980
C10 C 0.4882(2) 0.4577(2) 0.34830(16)
H9 H 0.52880 0.53630 0.35070
C11 C 0.5387(2) 0.3445(2) 0.39958(16)
H10 H 0.61440 0.34470 0.43750
C12 C 0.4788(2) 0.2304(2) 0.39571(15)
H11 H 0.51240 0.15350 0.43280
C13 C 0.37033(19) 0.22569(19) 0.33879(14)
C14 C 0.30505(19) 0.09917(19) 0.34052(14)
H12 H 0.23540 0.11090 0.29190
C15 C 0.2123(2) 0.0564(2) 0.45013(16)
H13 H 0.14540 0.11580 0.50410
C16 C 0.2350(2) -0.0729(2) 0.46193(16)
H14 H 0.18590 -0.11810 0.52520
C17 C 0.3481(2) -0.1403(2) 0.36340(15)
H15 H 0.29190 -0.17500 0.31880
H16 H 0.42410 -0.21330 0.38220
C18 C 0.4301(2) -0.02608(19) 0.30667(14)
H17 H 0.51730 -0.02070 0.33880
C19 C 0.6560(2) -0.04467(18) 0.13817(14)
C20 C 0.9056(2) -0.0186(2) 0.15225(15)
H18 H 0.92040 0.04900 0.09430
H19 H 0.95890 -0.10610 0.12100
C21 C 0.9716(3) 0.0128(3) 0.23816(19)
H20 H 1.08470 0.01450 0.20790
H21 H 0.95600 -0.05490 0.29490
H22 H 0.91760 0.09940 0.26840
C22 C 0.4329(2) -0.2034(2) 0.10056(14)
C23 C 0.3668(2) -0.3456(2) -0.00817(17)
H23 H 0.33020 -0.40670 0.05220
H24 H 0.47890 -0.37920 -0.04570
C24 C 0.2685(2) -0.3373(2) -0.08426(18)
H25 H 0.30590 -0.27680 -0.14370
H26 H 0.15790 -0.30420 -0.04620
H27 H 0.27740 -0.42530 -0.11280
#END
