
#######################################################################
#
#                 Cambridge Crystallographic Data Centre
#                                CCDC
#
#######################################################################
#
# If this CIF has been generated from an entry in the Cambridge
# Structural Database, then it will include bibliographic, chemical,
# crystal, experimental, refinement or atomic coordinate data resulting
# from the CCDC's data processing and validation procedures.
#
#######################################################################

data_CSD_CIF_QIRRUG
_audit_creation_date 2013-10-31
_audit_creation_method CSD-ConQuest-V1
_database_code_CSD QIRRUG
_database_code_depnum_ccdc_archive 'CCDC 903890'
_chemical_formula_sum 'C8 H12 N4 O5'
_chemical_formula_moiety
;
C8 H12 N4 O5
;
_journal_coden_Cambridge 122
_journal_year 2013
_journal_page_first 1073
_journal_name_full 'Khim.Get.Soedin.,SSSR(Russ.)(Chem.Heterocycl.Compd.) '
loop_
_publ_author_name
"E.V.Ivanova"
"I.V.Fedyanin"
"I.I.Surova"
"I.V.Blokhin"
"Yu.M.Atroshchenko"
"I.V.Shahkeldyan"
_chemical_name_systematic
;
7-Methyl-1,5-dinitro-3,7-diazabicyclo[3.3.1]nonan-2-one
;
_cell_volume   1026.821
_exptl_crystal_colour 'colorless'
_exptl_crystal_density_diffrn 1.58
_exptl_crystal_description 'prism'
_diffrn_ambient_temperature 100
#These two values have been output from a single CSD field.
_refine_ls_R_factor_gt 0.0311
_refine_ls_wR_factor_gt 0.0311
_symmetry_cell_setting monoclinic
_symmetry_space_group_name_H-M 'P 21/n'
_symmetry_Int_Tables_number 14
loop_
_symmetry_equiv_pos_site_id
_symmetry_equiv_pos_as_xyz
1 x,y,z
2 1/2-x,1/2+y,1/2-z
3 -x,-y,-z
4 -1/2+x,-1/2-y,-1/2+z
_cell_length_a 7.6100(4)
_cell_length_b 9.7784(6)
_cell_length_c 13.8124(9)
_cell_angle_alpha 90
_cell_angle_beta 92.540(1)
_cell_angle_gamma 90
_cell_formula_units_Z 4
loop_
_atom_type_symbol
_atom_type_radius_bond
C 0.68
H 0.23
N 0.68
O 0.68
loop_
_atom_site_label
_atom_site_type_symbol
_atom_site_fract_x
_atom_site_fract_y
_atom_site_fract_z
O1 O 0.19804(10) 0.39761(7) 0.65363(5)
O2 O 0.43562(9) 0.60355(8) 0.77249(5)
O3 O 0.20289(10) 0.57379(8) 0.85504(5)
O4 O -0.36980(9) 0.85096(8) 0.57859(5)
O5 O -0.26481(11) 0.90003(9) 0.72279(6)
N1 N 0.27585(11) 0.60309(8) 0.78061(6)
N2 N -0.26015(10) 0.83894(8) 0.64571(6)
N3 N -0.05912(10) 0.49632(8) 0.60271(5)
H1 H -0.08280 0.42850 0.56970
N4 N 0.15546(10) 0.73589(8) 0.52950(5)
C1 C 0.15808(11) 0.63592(9) 0.69190(6)
C2 C 0.09856(12) 0.49695(9) 0.64945(6)
C3 C -0.18766(11) 0.60719(9) 0.59497(6)
H2 H -0.28850 0.58530 0.63510
H3 H -0.23230 0.61560 0.52680
C4 C -0.10641(11) 0.74366(9) 0.62841(6)
C5 C -0.00074(11) 0.81664(9) 0.55134(6)
H4 H -0.07560 0.82910 0.49150
H5 H 0.03590 0.90810 0.57540
C6 C 0.26685(11) 0.71082(9) 0.61746(6)
H6 H 0.31030 0.79880 0.64480
H7 H 0.36970 0.65460 0.60140
C7 C 0.00333(11) 0.72269(9) 0.72202(6)
H8 H -0.06520 0.67440 0.77080
H9 H 0.04430 0.81130 0.74930
C8 C 0.25826(12) 0.80882(10) 0.45743(6)
H10 H 0.18400 0.82550 0.39880
H11 H 0.35970 0.75300 0.44100
H12 H 0.29930 0.89630 0.48460
#END
