
#######################################################################
#
#                 Cambridge Crystallographic Data Centre
#                                CCDC
#
#######################################################################
#
# If this CIF has been generated from an entry in the Cambridge
# Structural Database, then it will include bibliographic, chemical,
# crystal, experimental, refinement or atomic coordinate data resulting
# from the CCDC's data processing and validation procedures.
#
#######################################################################

data_CSD_CIF_QIRROA
_audit_creation_date 2013-10-31
_audit_creation_method CSD-ConQuest-V1
_database_code_CSD QIRROA
_database_code_depnum_ccdc_archive 'CCDC 917445'
_chemical_formula_sum 'C17 H13 N3 O3'
_chemical_formula_moiety
;
C17 H13 N3 O3
;
_journal_coden_Cambridge 122
_journal_year 2013
_journal_page_first 1108
_journal_name_full 'Khim.Get.Soedin.,SSSR(Russ.)(Chem.Heterocycl.Compd.) '
loop_
_publ_author_name
"V.P.Kislyi"
"E.B.Danilova"
_chemical_name_systematic
;
2-Cyano-2-((2-oxo-2-phenylethoxy)imino)-N-phenylacetamide
;
_cell_volume   1464.671
_exptl_crystal_colour 'colorless'
_exptl_crystal_density_diffrn 1.394
_exptl_crystal_description 'plate'
_diffrn_ambient_temperature 100
#These two values have been output from a single CSD field.
_refine_ls_R_factor_gt 0.0476
_refine_ls_wR_factor_gt 0.0476
_symmetry_cell_setting monoclinic
_symmetry_space_group_name_H-M 'P 21/n'
_symmetry_Int_Tables_number 14
loop_
_symmetry_equiv_pos_site_id
_symmetry_equiv_pos_as_xyz
1 x,y,z
2 1/2-x,1/2+y,1/2-z
3 -x,-y,-z
4 -1/2+x,-1/2-y,-1/2+z
_cell_length_a 13.6577(12)
_cell_length_b 5.4330(5)
_cell_length_c 19.7468(18)
_cell_angle_alpha 90
_cell_angle_beta 91.621(2)
_cell_angle_gamma 90
_cell_formula_units_Z 4
loop_
_atom_type_symbol
_atom_type_radius_bond
C 0.68
H 0.23
N 0.68
O 0.68
loop_
_atom_site_label
_atom_site_type_symbol
_atom_site_fract_x
_atom_site_fract_y
_atom_site_fract_z
O1 O -0.00782(9) 0.1065(2) 0.21612(6)
O2 O -0.22238(10) 0.5549(2) 0.33632(6)
O3 O -0.16431(9) 0.8756(3) 0.43342(6)
N1 N -0.15922(11) 0.3570(3) 0.33899(7)
N2 N -0.02843(11) -0.0275(3) 0.32511(7)
H1 H -0.0666(14) -0.008(3) 0.3597(9)
N3 N -0.14729(12) 0.5989(3) 0.17640(8)
C1 C -0.11761(13) 0.3262(3) 0.28228(8)
C2 C -0.04497(13) 0.1209(3) 0.27158(8)
C3 C -0.13548(13) 0.4819(3) 0.22370(8)
C4 C -0.27877(15) 0.5695(3) 0.39642(8)
H2 H -0.27380 0.41160 0.42130
H3 H -0.34850 0.59690 0.38360
C5 C -0.24290(13) 0.7769(3) 0.44204(8)
C6 C -0.30673(12) 0.8538(3) 0.49819(8)
C7 C -0.38950(15) 0.7234(4) 0.51542(10)
H4 H -0.40810 0.58020 0.49060
C8 C -0.44518(16) 0.8019(4) 0.56881(10)
H5 H -0.50110 0.71000 0.58110
C9 C -0.42020(14) 1.0116(4) 0.60406(9)
H6 H -0.45970 1.06670 0.63990
C10 C -0.33798(15) 1.1416(3) 0.58744(9)
H7 H -0.32040 1.28600 0.61200
C11 C -0.28083(14) 1.0629(4) 0.53511(8)
H8 H -0.22350 1.15210 0.52430
C12 C 0.03979(13) -0.2229(3) 0.33022(8)
C13 C 0.09874(13) -0.2949(3) 0.27741(9)
H9 H 0.09560 -0.20950 0.23540
C14 C 0.16222(14) -0.4927(3) 0.28662(9)
H10 H 0.20260 -0.54150 0.25060
C15 C 0.16761(14) -0.6194(4) 0.34708(9)
H11 H 0.21090 -0.75510 0.35260
C16 C 0.10912(14) -0.5466(4) 0.39969(10)
H12 H 0.11230 -0.63310 0.44150
C17 C 0.04602(13) -0.3487(4) 0.39169(9)
H13 H 0.00680 -0.29850 0.42820
#END
