
#######################################################################
#
#                 Cambridge Crystallographic Data Centre
#                                CCDC
#
#######################################################################
#
# If this CIF has been generated from an entry in the Cambridge
# Structural Database, then it will include bibliographic, chemical,
# crystal, experimental, refinement or atomic coordinate data resulting
# from the CCDC's data processing and validation procedures.
#
#######################################################################

data_CSD_CIF_QISNUB
_audit_creation_date 2001-07-19
_audit_creation_method CSD-ConQuest-V1
_database_code_CSD QISNUB
_chemical_formula_sum 'C15 H23 N1 O4'
_chemical_formula_moiety
;
C15 H23 N1 O4
;
_journal_coden_Cambridge 4
_journal_volume 122
_journal_year 2000
_journal_page_first 4583
_journal_name_full 'J.Am.Chem.Soc. '
loop_
_publ_author_name
"H.Abe"
"S.Aoyagi"
"C.Kibayashi"
_chemical_name_systematic
;
(3R*,8aR*,12R*)-2-((methoxymethoxy)methyl)-8,8a,9,10,11,12-hexahydro-3H-(1,2)o
xazino(3,2-j)quinolin-6(7H)-one
;
_chemical_melting_point 374.15
_cell_volume    710.214
_exptl_crystal_colour 'colorless'
_exptl_crystal_density_diffrn 1.315
_exptl_special_details
;
Melting point range 374.15-375.15K

;
_exptl_crystal_description 'needles'
_exptl_crystal_preparation 'ethyl acetate/hexane'
_diffrn_ambient_temperature ?
_diffrn_special_details
;
The study was carried out at room temperature,in the range 283-303K

;
#These two values have been output from a single CSD field.
_refine_ls_R_factor_gt 0.039
_refine_ls_wR_factor_gt 0.039
_symmetry_cell_setting triclinic
_symmetry_space_group_name_H-M 'P -1'
_symmetry_Int_Tables_number 2
loop_
_symmetry_equiv_pos_site_id
_symmetry_equiv_pos_as_xyz
1 x,y,z
2 -x,-y,-z
_cell_length_a 7.938(2)
_cell_length_b 8.482(3)
_cell_length_c 11.808(3)
_cell_angle_alpha 104.93(2)
_cell_angle_beta 108.90(2)
_cell_angle_gamma 96.35(2)
_cell_formula_units_Z 2
loop_
_atom_type_symbol
_atom_type_radius_bond
C 0.68
H 0.23
N 0.68
O 0.68
loop_
_atom_site_label
_atom_site_type_symbol
_atom_site_fract_x
_atom_site_fract_y
_atom_site_fract_z
O1 O 0.26478(4) 0.63672(3) 0.86646(2)
O2 O 0.13353(4) 0.94481(3) 0.89389(3)
O3 O 0.01237(4) 1.15514(4) 0.82160(3)
O4 O -0.08137(4) 0.53275(4) 0.71112(3)
N1 N 0.21229(4) 0.51655(4) 0.74694(3)
C1 C 0.35871(6) 0.79188(4) 0.86652(4)
C2 C 0.49391(6) 0.76255(5) 0.80464(4)
C3 C 0.50349(5) 0.61208(5) 0.74310(4)
C4 C 0.36842(5) 0.45764(4) 0.72250(3)
C5 C 0.45108(5) 0.36167(5) 0.81387(4)
C6 C 0.59935(6) 0.27978(6) 0.78404(4)
C7 C 0.52953(6) 0.16543(6) 0.64878(5)
C8 C 0.45215(6) 0.26096(5) 0.55806(4)
C9 C 0.30146(5) 0.34500(5) 0.58452(3)
C10 C 0.12677(6) 0.22073(5) 0.55464(4)
C11 C -0.02362(6) 0.31185(5) 0.56612(4)
C12 C 0.03117(5) 0.46325(5) 0.68084(4)
C13 C 0.22770(6) 0.89239(5) 0.81220(4)
C14 C -0.02405(6) 1.00015(6) 0.83818(4)
C15 C 0.08025(7) 1.28816(6) 0.93756(5)
H1 H 0.42421 0.86268 0.95192
H2 H 0.60129 0.60048 0.71080
H3 H 0.50298 0.43817 0.89807
H4 H 0.35568 0.27687 0.80917
H5 H 0.62643 0.12033 0.63108
H6 H 0.43383 0.07523 0.63768
H7 H 0.55045 0.34486 0.56486
H8 H 0.27836 0.41250 0.52952
H9 H 0.14957 0.15893 0.61364
H10 H -0.11942 0.23475 0.56862
H11 H -0.06842 0.34535 0.49212
H12 H 0.29580 0.98799 0.80270
H13 H 0.14460 0.82419 0.73110
H14 H -0.09165 1.00755 0.89028
H15 H -0.08995 0.92005 0.75718
H16 H 0.64055 0.21568 0.83974
H17 H 0.69965 0.36518 0.79644
H18 H 0.08898 0.14583 0.47044
H19 H 0.40287 0.18485 0.47375
H20 H 0.58035 0.85727 0.80934
H21 H 0.11200 1.39506 0.92616
H22 H 0.19541 1.26596 0.99217
H23 H -0.00347 1.28916 0.97657
#END
