
#######################################################################
#
#                 Cambridge Crystallographic Data Centre
#                                CCDC
#
#######################################################################
#
# If this CIF has been generated from an entry in the Cambridge
# Structural Database, then it will include bibliographic, chemical,
# crystal, experimental, refinement or atomic coordinate data resulting
# from the CCDC's data processing and validation procedures.
#
#######################################################################

data_CSD_CIF_QISTUH
_audit_creation_date 2001-07-18
_audit_creation_method CSD-ConQuest-V1
_database_code_CSD QISTUH
_chemical_formula_sum 'C21 H13 N1 O3'
_chemical_formula_moiety
;
C21 H13 N1 O3
;
_journal_coden_Cambridge 643
_journal_volume 215
_journal_year 2000
_journal_page_first 299
_journal_name_full 'Z.Krist.Cryst.Mater. '
loop_
_publ_author_name
"A.Yu.Kovalevsky"
"M.Yu.Antipin"
"Z.N.Tarakhno"
"O.V.Shishkin"
_chemical_name_systematic
;
10-(4-Nitrophenylmethylidene)-9-anthrone
;
_cell_volume    753.215
_exptl_crystal_colour 'yellow'
_exptl_crystal_density_diffrn 1.443
_exptl_crystal_description 'plate'
_exptl_crystal_preparation 'methanol'
_diffrn_ambient_temperature 163
#These two values have been output from a single CSD field.
_refine_ls_R_factor_gt 0.041
_refine_ls_wR_factor_gt 0.041
_symmetry_cell_setting triclinic
_symmetry_space_group_name_H-M 'P -1'
_symmetry_Int_Tables_number 2
loop_
_symmetry_equiv_pos_site_id
_symmetry_equiv_pos_as_xyz
1 x,y,z
2 -x,-y,-z
_cell_length_a 7.773(3)
_cell_length_b 8.611(3)
_cell_length_c 11.920(5)
_cell_angle_alpha 103.74(3)
_cell_angle_beta 101.60(3)
_cell_angle_gamma 94.09(3)
_cell_formula_units_Z 2
loop_
_atom_type_symbol
_atom_type_radius_bond
C 0.68
N 0.68
O 0.68
loop_
_atom_site_label
_atom_site_type_symbol
_atom_site_fract_x
_atom_site_fract_y
_atom_site_fract_z
O1 O -0.1611(1) 0.3314(1) 0.5889(1)
O2 O 1.1581(2) 0.2768(2) 1.0661(1)
O3 O 1.0537(2) 0.4956(2) 1.1370(1)
N1 N 1.0346(2) 0.3544(2) 1.0789(1)
C1 C 0.1857(2) 0.4751(2) 0.6294(1)
C2 C 0.3575(2) 0.5402(2) 0.6462(2)
C3 C 0.4926(2) 0.4604(2) 0.6918(1)
C4 C 0.4537(2) 0.3200(2) 0.7238(1)
C5 C 0.2814(2) 0.2550(2) 0.7126(1)
C6 C 0.0142(2) -0.1443(2) 0.6937(1)
C7 C -0.1524(2) -0.2244(2) 0.6435(1)
C8 C -0.2850(2) -0.1476(2) 0.5907(1)
C9 C -0.2466(2) 0.0111(2) 0.5890(1)
C10 C -0.0782(2) 0.0930(2) 0.6385(1)
C11 C -0.0414(2) 0.2604(2) 0.6287(1)
C12 C 0.1443(2) 0.3321(2) 0.6603(1)
C13 C 0.2343(2) 0.1068(2) 0.7497(1)
C14 C 0.0566(2) 0.0180(2) 0.6938(1)
C15 C 0.3411(2) 0.0568(2) 0.8348(1)
C16 C 0.5189(2) 0.1311(2) 0.9050(1)
C17 C 0.5458(2) 0.2804(2) 0.9889(1)
C18 C 0.7137(2) 0.3528(2) 1.0474(1)
C19 C 0.8555(2) 0.2752(2) 1.0217(1)
C20 C 0.8339(2) 0.1244(2) 0.9437(1)
C21 C 0.6649(2) 0.0520(2) 0.8872(1)
#END
