
#######################################################################
#
#                 Cambridge Crystallographic Data Centre
#                                CCDC
#
#######################################################################
#
# If this CIF has been generated from an entry in the Cambridge
# Structural Database, then it will include bibliographic, chemical,
# crystal, experimental, refinement or atomic coordinate data resulting
# from the CCDC's data processing and validation procedures.
#
#######################################################################

data_CSD_CIF_QIXLEQ
_audit_creation_date 2014-03-19
_audit_creation_method CSD-ConQuest-V1
_database_code_CSD QIXLEQ
_database_code_depnum_ccdc_archive 'CCDC 826478'
_chemical_formula_sum 'C34 H26 N2 O8'
_chemical_formula_moiety
;
C34 H26 N2 O8
;
_journal_coden_Cambridge 24
_journal_volume 55
_journal_year 2014
_journal_page_first 1207
_journal_name_full 'Tetrahedron Lett. '
loop_
_publ_author_name
"Jia-Ru Syu"
"Chi-Hui Lin"
"Chiao-Wen Kuo"
"Ding-Yah Yang"
_chemical_name_systematic
;
1,2-bis(2-methoxy-5-methylphenyl)-6,7-bis(3-nitrophenyl)-4-oxaspiro[2.4]hepta-
1,6-dien-5-one unknown solvate
;
_cell_volume   6739.471
_exptl_crystal_colour 'colorless'
_exptl_crystal_density_diffrn 1.164
_exptl_crystal_description 'parallelepiped'
_diffrn_ambient_temperature 110
_refine_special_details
;
Disordered solvent molecules were not modelled and the disordered density was 
taken into account using the SQUEEZE/PLATON procedure.
;
#These two values have been output from a single CSD field.
_refine_ls_R_factor_gt 0.0607
_refine_ls_wR_factor_gt 0.0607
_symmetry_cell_setting tetragonal
_symmetry_space_group_name_H-M 'P 4/n'
_symmetry_Int_Tables_number 85
loop_
_symmetry_equiv_pos_site_id
_symmetry_equiv_pos_as_xyz
1 x,y,z
2 1/2-x,1/2-y,z
3 1/2-y,x,z
4 y,1/2-x,z
5 -x,-y,-z
6 -1/2+x,-1/2+y,-z
7 -1/2+y,-x,-z
8 -y,-1/2+x,-z
_cell_length_a 28.5755(5)
_cell_length_b 28.5755(5)
_cell_length_c 8.2535(3)
_cell_angle_alpha 90
_cell_angle_beta 90
_cell_angle_gamma 90
_cell_formula_units_Z 8
loop_
_atom_type_symbol
_atom_type_radius_bond
C 0.68
H 0.23
N 0.68
O 0.68
loop_
_atom_site_label
_atom_site_type_symbol
_atom_site_fract_x
_atom_site_fract_y
_atom_site_fract_z
O1 O 0.52789(6) 0.71828(6) 0.0433(2)
O2 O 0.48486(6) 0.66328(6) 0.1694(2)
O3 O 0.3008(1) 0.69368(11) 0.5456(3)
O4 O 0.37052(9) 0.72135(10) 0.5844(3)
O5 O 0.39439(12) 0.88175(10) -0.5963(3)
O6 O 0.43595(9) 0.81835(8) -0.6121(3)
O7 O 0.50410(7) 0.70747(7) -0.3395(2)
O8 O 0.61701(9) 0.86475(9) -0.1366(3)
N1 N 0.33841(10) 0.70787(10) 0.4946(3)
N2 N 0.41646(10) 0.84928(10) -0.5334(3)
C1 C 0.48672(9) 0.70025(9) 0.0962(3)
C2 C 0.44839(9) 0.73122(8) 0.0483(3)
C3 C 0.46611(9) 0.76656(9) -0.0398(3)
C4 C 0.51758(9) 0.76129(9) -0.0454(3)
C5 C 0.55063(9) 0.77542(9) -0.1735(3)
C6 C 0.55232(9) 0.80003(9) -0.0397(3)
C7 C 0.39995(9) 0.72142(9) 0.1015(3)
C8 C 0.36398(10) 0.71082(9) -0.0062(4)
H1 H 0.36970 0.71160 -0.11960
C9 C 0.31946(10) 0.69897(10) 0.0512(4)
H2 H 0.29520 0.69170 -0.02330
C10 C 0.31060(11) 0.69773(11) 0.2159(4)
H3 H 0.28050 0.68940 0.25570
C11 C 0.34610(11) 0.70872(10) 0.3197(4)
C12 C 0.39093(10) 0.72053(9) 0.2665(3)
H4 H 0.41490 0.72790 0.34220
C13 C 0.44287(8) 0.80663(9) -0.1181(3)
C14 C 0.4248(1) 0.84349(10) -0.0258(4)
H5 H 0.42630 0.84210 0.08910
C15 C 0.40477(11) 0.88204(10) -0.1003(4)
H6 H 0.39270 0.90690 -0.03630
C16 C 0.40219(10) 0.88452(10) -0.2672(4)
H7 H 0.38880 0.91100 -0.31910
C17 C 0.41936(10) 0.84789(11) -0.3558(3)
C18 C 0.44010(9) 0.80883(10) -0.2852(3)
H8 H 0.45210 0.78420 -0.35040
C19 C 0.56602(9) 0.76159(9) -0.3336(3)
C20 C 0.54227(9) 0.72581(9) -0.4174(3)
C21 C 0.55836(10) 0.71197(10) -0.5677(3)
H9 H 0.54260 0.68780 -0.62490
C22 C 0.59721(10) 0.7331(1) -0.6355(3)
H10 H 0.60770 0.72310 -0.73910
C23 C 0.62139(10) 0.76854(10) -0.5565(4)
C24 C 0.60544(9) 0.78219(10) -0.4053(3)
H11 H 0.62160 0.80620 -0.34860
C25 C 0.48258(11) 0.66754(11) -0.4091(4)
H12 H 0.45590 0.65800 -0.34220
H13 H 0.50530 0.64190 -0.41480
H14 H 0.47160 0.67510 -0.51850
C26 C 0.66312(11) 0.79219(12) -0.6328(4)
H15 H 0.67540 0.81600 -0.55870
H16 H 0.65360 0.80700 -0.73470
H17 H 0.68750 0.76890 -0.65450
C27 C 0.56718(9) 0.83711(10) 0.0657(3)
C28 C 0.60012(11) 0.87004(11) 0.0168(4)
C29 C 0.61264(12) 0.90620(12) 0.1206(4)
H18 H 0.63470 0.92910 0.08700
C30 C 0.59269(11) 0.90869(11) 0.2737(4)
H19 H 0.60200 0.93320 0.34450
C31 C 0.5596(1) 0.87654(10) 0.3270(4)
C32 C 0.54743(9) 0.84088(10) 0.2219(3)
H20 H 0.52510 0.81830 0.25580
C33 C 0.65068(18) 0.89816(18) -0.1914(5)
H21 H 0.66000 0.89070 -0.30270
H22 H 0.67820 0.89720 -0.12070
H23 H 0.63690 0.92960 -0.18830
C34 C 0.53800(12) 0.88032(12) 0.4936(4)
H24 H 0.55080 0.90770 0.54960
H25 H 0.54520 0.85200 0.55590
H26 H 0.50400 0.88370 0.48340
#END
