
#######################################################################
#
#                 Cambridge Crystallographic Data Centre
#                                CCDC
#
#######################################################################
#
# If this CIF has been generated from an entry in the Cambridge
# Structural Database, then it will include bibliographic, chemical,
# crystal, experimental, refinement or atomic coordinate data resulting
# from the CCDC's data processing and validation procedures.
#
#######################################################################

data_CSD_CIF_QIXQOE
_audit_creation_date 2008-05-08
_audit_creation_method CSD-ConQuest-V1
_database_code_CSD QIXQOE
_database_code_depnum_ccdc_archive 'CCDC 670524'
_chemical_formula_sum 'C10 H10 N2 O2'
_chemical_formula_moiety
;
C10 H10 N2 O2
;
_journal_coeditor_code "IUCr CI2565"
_journal_coden_Cambridge 1370
_journal_volume 64
_journal_year 2008
_journal_page_first o653
_journal_name_full 'Acta Crystallogr.,Sect.E:Struct.Rep.Online '
loop_
_publ_author_name
"M.Mojzych"
"Z.Karczmarzyk"
"A.Fruzinski"
_chemical_name_systematic
;
(E)-1-(pyridin-2-yl)ethanone O-acryloyloxime
;
_chemical_melting_point 338
_cell_volume    928.473
_exptl_crystal_colour 'colorless'
_exptl_crystal_density_diffrn 1.361
_exptl_crystal_description 'prism'
_exptl_crystal_preparation 'ethanol'
_diffrn_ambient_temperature 100
#These two values have been output from a single CSD field.
_refine_ls_R_factor_gt 0.0327
_refine_ls_wR_factor_gt 0.0327
_symmetry_cell_setting monoclinic
_symmetry_space_group_name_H-M 'P 21/n'
_symmetry_Int_Tables_number 14
loop_
_symmetry_equiv_pos_site_id
_symmetry_equiv_pos_as_xyz
1 x,y,z
2 1/2-x,1/2+y,1/2-z
3 -x,-y,-z
4 -1/2+x,-1/2-y,-1/2+z
_cell_length_a 7.0240(5)
_cell_length_b 18.4054(14)
_cell_length_c 7.8642(6)
_cell_angle_alpha 90
_cell_angle_beta 114.043(1)
_cell_angle_gamma 90
_cell_formula_units_Z 4
loop_
_atom_type_symbol
_atom_type_radius_bond
C 0.68
H 0.23
N 0.68
O 0.68
loop_
_atom_site_label
_atom_site_type_symbol
_atom_site_fract_x
_atom_site_fract_y
_atom_site_fract_z
O1 O 0.29133(11) -0.01660(4) 0.63817(9)
O2 O 0.12879(12) -0.12207(4) 0.50393(10)
N1 N 0.27586(13) 0.17974(5) 0.26737(12)
N2 N 0.23265(12) 0.01032(5) 0.45236(11)
C1 C 0.25793(14) 0.10712(5) 0.27155(14)
C2 C 0.19186(15) 0.06379(6) 0.11195(14)
C3 C 0.13150(15) 0.09699(6) -0.06045(14)
C4 C 0.14439(15) 0.17215(6) -0.06672(15)
C5 C 0.22032(15) 0.21070(6) 0.09936(15)
C6 C 0.30844(14) 0.07431(5) 0.45895(13)
C7 C 0.22368(15) -0.08629(5) 0.63995(14)
C8 C 0.28945(16) -0.10972(6) 0.83633(15)
C9 C 0.25144(17) -0.17670(6) 0.87484(16)
C10 C 0.43601(17) 0.11625(6) 0.63073(14)
H1 H 0.185(2) 0.0111(7) 0.1226(18)
H2 H 0.081(2) 0.0693(8) -0.173(2)
H3 H 0.106(2) 0.1958(8) -0.180(2)
H4 H 0.234(2) 0.2626(8) 0.0980(19)
H5 H 0.363(2) -0.0726(8) 0.931(2)
H6 H 0.293(2) -0.1938(7) 1.002(2)
H7 H 0.180(2) -0.2100(7) 0.776(2)
H8 H 0.389(2) 0.1079(8) 0.726(2)
H9 H 0.429(2) 0.1661(9) 0.605(2)
H10 H 0.581(3) 0.1023(8) 0.673(2)
#END
