
#######################################################################
#
#                 Cambridge Crystallographic Data Centre
#                                CCDC
#
#######################################################################
#
# If this CIF has been generated from an entry in the Cambridge
# Structural Database, then it will include bibliographic, chemical,
# crystal, experimental, refinement or atomic coordinate data resulting
# from the CCDC's data processing and validation procedures.
#
#######################################################################

data_CSD_CIF_QIXWEZ
_audit_creation_date 2001-07-19
_audit_creation_method CSD-ConQuest-V1
_database_code_CSD QIXWEZ
_database_code_depnum_ccdc_archive 'CCDC 156271'
_chemical_formula_sum 'C20 H25 N1 O6'
_chemical_formula_moiety
;
C20 H25 N1 O6
;
_journal_coden_Cambridge 207
_journal_year 2001
_journal_page_first 1024
_journal_name_full 'J.Chem.Soc.,Perkin Trans.1 '
loop_
_publ_author_name
"P.S.Aburel"
"C.Romming"
"K.Undheim"
_chemical_name_systematic
;
(1R*,7S*,9R*)-trans-2,2-(Ethylenedioxy)bicyclo(5.4.0)undecan-9-yl 
p-nitrobenzoate
;
_chemical_melting_point 374.15
_cell_volume   1819.044
_exptl_crystal_colour 'pale yellow'
_exptl_crystal_density_diffrn 1.371
_exptl_special_details
;
Melting point range 374.15-375.15K

;
_diffrn_ambient_temperature 150
#These two values have been output from a single CSD field.
_refine_ls_R_factor_gt 0.0422
_refine_ls_wR_factor_gt 0.0422
_symmetry_cell_setting orthorhombic
_symmetry_space_group_name_H-M 'P 21 21 21'
_symmetry_Int_Tables_number 19
loop_
_symmetry_equiv_pos_site_id
_symmetry_equiv_pos_as_xyz
1 x,y,z
2 1/2-x,-y,1/2+z
3 -x,1/2+y,1/2-z
4 1/2+x,1/2-y,-z
_cell_length_a 5.4613(9)
_cell_length_b 16.035(3)
_cell_length_c 20.772(3)
_cell_angle_alpha 90
_cell_angle_beta 90
_cell_angle_gamma 90
_cell_formula_units_Z 4
loop_
_atom_type_symbol
_atom_type_radius_bond
C 0.68
H 0.23
N 0.68
O 0.68
loop_
_atom_site_label
_atom_site_type_symbol
_atom_site_fract_x
_atom_site_fract_y
_atom_site_fract_z
O1 O 0.2992(3) 0.70056(10) 0.42806(7)
O2 O -0.0525(3) 0.71096(10) 0.36912(8)
O3 O 0.6310(3) 0.66121(10) 0.13562(8)
O4 O 0.4801(4) 0.53568(11) 0.10662(9)
O5 O 1.3237(5) 0.54339(13) -0.14230(11)
O6 O 1.4897(4) 0.65202(13) -0.10113(11)
N1 N 1.3358(5) 0.59721(14) -0.10111(11)
C1 C 0.1064(5) 0.66606(16) 0.46610(12)
H1 H 0.04670 0.70660 0.49840
H2 H 0.15990 0.61460 0.48830
C2 C -0.0880(5) 0.64753(16) 0.41594(12)
H3 H -0.06410 0.59150 0.39700
H4 H -0.25420 0.65080 0.43480
C3 C 0.1844(4) 0.74703(14) 0.37711(10)
C4 C 0.1534(5) 0.83726(15) 0.39943(11)
H5 H 0.10650 0.83690 0.44550
H6 H 0.31380 0.86570 0.39600
C5 C -0.0358(5) 0.88817(16) 0.36221(13)
H7 H -0.18470 0.85370 0.35690
H8 H -0.08130 0.93720 0.38860
C6 C 0.0431(5) 0.91898(17) 0.29615(13)
H9 H 0.07140 0.97980 0.29920
H10 H -0.09540 0.91040 0.26610
C7 C 0.2697(5) 0.87959(14) 0.26638(12)
H11 H 0.41230 0.89360 0.29380
H12 H 0.29740 0.90570 0.22380
C8 C 0.2640(4) 0.78408(14) 0.25721(10)
H13 H 0.09390 0.76720 0.24510
C9 C 0.3418(4) 0.73377(13) 0.31715(10)
H14 H 0.51180 0.75190 0.32840
C10 C 0.3546(5) 0.64031(14) 0.30096(11)
H15 H 0.40550 0.60910 0.33980
H16 H 0.18950 0.62060 0.28860
C11 C 0.5323(5) 0.62184(14) 0.24675(11)
H17 H 0.69980 0.63890 0.25930
H18 H 0.53390 0.56130 0.23750
C12 C 0.4519(5) 0.66970(14) 0.18750(11)
H19 H 0.28900 0.64870 0.17270
C13 C 0.4358(5) 0.76277(14) 0.20136(11)
H20 H 0.37810 0.79180 0.16210
H21 H 0.60170 0.78390 0.21150
C14 C 0.6241(5) 0.59164(15) 0.10002(11)
C15 C 0.8176(5) 0.59348(14) 0.04916(11)
C16 C 0.8136(6) 0.53230(16) 0.00190(12)
H22 H 0.69270 0.48970 0.00330
C17 C 0.9846(5) 0.53290(16) -0.04730(13)
H23 H 0.98290 0.49100 -0.07970
C18 C 1.1562(5) 0.59518(15) -0.04827(12)
C19 C 1.1676(5) 0.65608(15) -0.00150(12)
H24 H 1.29050 0.69800 -0.00290
C20 C 0.9963(4) 0.65485(15) 0.04735(11)
H25 H 1.00100 0.69630 0.08000
#END
