
#######################################################################
#
#                 Cambridge Crystallographic Data Centre
#                                CCDC
#
#######################################################################
#
# If this CIF has been generated from an entry in the Cambridge
# Structural Database, then it will include bibliographic, chemical,
# crystal, experimental, refinement or atomic coordinate data resulting
# from the CCDC's data processing and validation procedures.
#
#######################################################################

data_CSD_CIF_QIXXOL
_audit_creation_date 2008-09-17
_audit_creation_method CSD-ConQuest-V1
_database_code_CSD QIXXOL
_database_code_depnum_ccdc_archive 'CCDC 604873'
_chemical_formula_sum 'C13 H8 N4 O6'
_chemical_formula_moiety
;
C13 H8 N4 O6
;
_journal_coden_Cambridge 91
_journal_volume 132
_journal_year 2007
_journal_page_first 986
_journal_name_full 'The Analyst '
loop_
_publ_author_name
"C.J.McHugh"
"A.R.Kennedy"
"W.E.Smith"
"D.Graham"
_chemical_name_systematic
;
4-(2-(2,4,6-trinitrophenyl)vinyl)pyridine
;
_cell_volume   1340.454
_exptl_crystal_colour 'yellow'
_exptl_crystal_density_diffrn 1.567
_exptl_crystal_description 'hexagonal prism'
_diffrn_ambient_temperature 150
#These two values have been output from a single CSD field.
_refine_ls_R_factor_gt 0.0422
_refine_ls_wR_factor_gt 0.0422
_symmetry_cell_setting orthorhombic
_symmetry_space_group_name_H-M 'P 21 21 21'
_symmetry_Int_Tables_number 19
loop_
_symmetry_equiv_pos_site_id
_symmetry_equiv_pos_as_xyz
1 x,y,z
2 1/2-x,-y,1/2+z
3 1/2+x,1/2-y,-z
4 -x,1/2+y,1/2-z
_cell_length_a 7.1622(2)
_cell_length_b 9.0664(3)
_cell_length_c 20.6429(7)
_cell_angle_alpha 90
_cell_angle_beta 90
_cell_angle_gamma 90
_cell_formula_units_Z 4
loop_
_atom_type_symbol
_atom_type_radius_bond
C 0.68
H 0.23
N 0.68
O 0.68
loop_
_atom_site_label
_atom_site_type_symbol
_atom_site_fract_x
_atom_site_fract_y
_atom_site_fract_z
O1 O 0.2276(3) -0.0190(2) 0.19796(10)
O2 O 0.4413(3) 0.0520(2) 0.13015(9)
O3 O 0.1796(3) 0.4148(2) 0.34982(8)
O4 O 0.1715(3) 0.6337(2) 0.30701(9)
O5 O 0.0327(5) 0.6742(3) 0.08527(10)
O6 O 0.0671(4) 0.5009(2) 0.01712(10)
N1 N 0.3073(3) 0.0749(3) 0.16503(10)
N2 N 0.1793(3) 0.4980(3) 0.30339(10)
N3 N 0.0763(4) 0.5494(3) 0.07141(11)
N4 N 0.0928(4) -0.0876(3) -0.15365(11)
C1 C 0.1879(4) 0.3055(3) 0.11420(11)
C2 C 0.2377(4) 0.2284(3) 0.17034(12)
C3 C 0.2345(4) 0.2857(3) 0.23234(12)
H1 H 0.26540 0.22750 0.26900
C4 C 0.1840(4) 0.4320(3) 0.23819(11)
C5 C 0.1378(4) 0.5175(3) 0.18597(12)
H2 H 0.10670 0.61870 0.19110
C6 C 0.1378(4) 0.4515(3) 0.12511(12)
C7 C 0.1884(4) 0.2353(3) 0.04944(12)
H3 H 0.25810 0.28180 0.01600
C8 C 0.0982(4) 0.1116(3) 0.03485(12)
H4 H 0.03150 0.06280 0.06830
C9 C 0.0961(4) 0.0461(3) -0.03044(11)
C10 C 0.0368(4) -0.0993(3) -0.03887(13)
H5 H -0.00450 -0.15590 -0.00290
C11 C 0.0393(4) -0.1601(3) -0.10075(13)
H6 H 0.00030 -0.25960 -0.10560
C12 C 0.1473(4) 0.0526(3) -0.14507(12)
H7 H 0.18500 0.10710 -0.18220
C13 C 0.1521(4) 0.1231(3) -0.08553(12)
H8 H 0.19300 0.22250 -0.08230
#END
