
#######################################################################
#
#                 Cambridge Crystallographic Data Centre
#                                CCDC
#
#######################################################################
#
# If this CIF has been generated from an entry in the Cambridge
# Structural Database, then it will include bibliographic, chemical,
# crystal, experimental, refinement or atomic coordinate data resulting
# from the CCDC's data processing and validation procedures.
#
#######################################################################

data_CSD_CIF_QIZMER
_audit_creation_date 2001-07-31
_audit_creation_method CSD-ConQuest-V1
_database_code_CSD QIZMER
_chemical_formula_sum 'C43 H61 N3 O9'
_chemical_formula_moiety
;
C43 H61 N3 O9
;
_journal_coden_Cambridge 4
_journal_volume 122
_journal_year 2000
_journal_page_first 4219
_journal_name_full 'J.Am.Chem.Soc. '
loop_
_publ_author_name
"Jin Zhu"
"R.D.Parra"
"Huaqiang Zeng"
"E.Skrzypczak-Jankun"
"Xiao Cheng Zeng"
"Bing Gong"
_chemical_name_systematic
;
1-(5-(((5-nitro-2,4-bis(decyloxy)phenyl)(oxo)methyl)amino)-2,4-dimethoxyphenyl
)-2-(2-methoxyphenyl)ethanone
;
_cell_volume   2077.898
_exptl_crystal_density_diffrn 1.221
_diffrn_ambient_temperature 100
#These two values have been output from a single CSD field.
_refine_ls_R_factor_gt 0.0757
_refine_ls_wR_factor_gt 0.0757
_symmetry_cell_setting triclinic
_symmetry_space_group_name_H-M 'P -1'
_symmetry_Int_Tables_number 2
loop_
_symmetry_equiv_pos_site_id
_symmetry_equiv_pos_as_xyz
1 x,y,z
2 -x,-y,-z
_cell_length_a 9.2931(3)
_cell_length_b 12.4808(4)
_cell_length_c 18.4099(2)
_cell_angle_alpha 84.11(1)
_cell_angle_beta 84.97(1)
_cell_angle_gamma 78.71(1)
_cell_formula_units_Z 2
loop_
_atom_type_symbol
_atom_type_radius_bond
C 0.68
H 0.23
N 0.68
O 0.68
loop_
_atom_site_label
_atom_site_type_symbol
_atom_site_fract_x
_atom_site_fract_y
_atom_site_fract_z
C1 C 0.2382(3) -0.0108(2) 0.4935(2)
C2 C 0.2803(3) 0.0068(2) 0.4188(2)
C3 C 0.3748(3) 0.0805(2) 0.3953(2)
C4 C 0.4213(3) 0.1433(2) 0.4438(2)
C5 C 0.3735(3) 0.1290(2) 0.5179(2)
C6 C 0.2851(3) 0.0522(2) 0.5410(2)
C7 C 0.1428(3) -0.0887(2) 0.5300(2)
O1 O 0.1119(2) -0.0910(2) 0.5962(1)
N1 N 0.0970(3) -0.1561(2) 0.4864(1)
C8 C 0.0082(3) -0.2346(2) 0.5088(2)
C9 C -0.0283(3) -0.2925(2) 0.4536(2)
C10 C -0.1137(3) -0.3734(2) 0.4705(2)
C11 C -0.1658(3) -0.3964(2) 0.5427(2)
C12 C -0.1344(3) -0.3375(2) 0.5986(2)
C13 C -0.0462(3) -0.2577(2) 0.5802(2)
C14 C -0.1938(3) -0.3440(2) 0.6777(2)
O2 O -0.1760(2) -0.2762(2) 0.7183(1)
N2 N -0.2692(3) -0.4260(2) 0.7000(1)
C15 C -0.3432(3) -0.4464(3) 0.7691(2)
C16 C -0.4047(4) -0.5416(3) 0.7775(2)
C17 C -0.4856(4) -0.5678(3) 0.8420(2)
C18 C -0.5023(4) -0.4997(3) 0.8985(2)
C19 C -0.4402(4) -0.4064(3) 0.8911(2)
C20 C -0.3601(4) -0.3799(3) 0.8264(2)
O3 O -0.3797(3) -0.6020(2) 0.7180(1)
C21 C -0.4384(4) -0.7010(3) 0.7234(2)
O4 O -0.2476(2) -0.4768(2) 0.5618(1)
C22 C -0.2939(4) -0.5295(3) 0.5046(2)
O5 O 0.0270(2) -0.2650(2) 0.3844(1)
C23 C -0.0085(4) -0.3212(3) 0.3260(2)
N3 N 0.4127(3) 0.1913(2) 0.5730(2)
O6 O 0.3711(3) 0.1688(2) 0.6376(1)
O7 O 0.4805(3) 0.2647(2) 0.5555(1)
O8 O 0.5086(2) 0.2169(2) 0.4223(1)
C24 C 0.5718(4) 0.2240(3) 0.3478(2)
C25 C 0.6550(4) 0.3178(3) 0.3411(2)
C26 C 0.7392(4) 0.3284(3) 0.2668(2)
C27 C 0.8120(4) 0.4291(3) 0.2559(2)
C28 C 0.8908(4) 0.4442(3) 0.1808(2)
C29 C 0.9538(4) 0.5483(3) 0.1685(2)
C30 C 1.0277(4) 0.5677(3) 0.0922(2)
C31 C 1.0966(4) 0.6709(3) 0.0820(2)
C32 C 1.1845(4) 0.6837(3) 0.0092(2)
C33 C 1.2488(5) 0.7884(4) -0.0015(3)
O9 O 0.2278(2) -0.0485(2) 0.3708(1)
C34 C 0.2403(4) -0.0102(3) 0.2931(2)
C35 C 0.1334(5) -0.0567(3) 0.2542(2)
C36 C 0.1424(7) -0.0253(5) 0.1759(3)
C37 C 0.1026(7) 0.1006(5) 0.1511(3)
C38 C 0.1454(7) 0.1310(6) 0.0718(3)
C39 C 0.3044(6) 0.1229(5) 0.0480(3)
C40 C 0.3378(6) 0.1519(4) -0.0330(3)
C41 C 0.3020(5) 0.0709(4) -0.0788(3)
C42 C 0.3449(5) 0.0892(4) -0.1605(3)
C43 C 0.3071(9) 0.0020(5) -0.2063(3)
H1 H 0.40710 0.08760 0.34610
H2 H 0.25620 0.04290 0.59050
H3 H 0.12530 -0.14990 0.44070
H4 H -0.13590 -0.41190 0.43360
H5 H -0.02370 -0.21920 0.61700
H6 H -0.27220 -0.47120 0.66820
H7 H -0.52790 -0.63000 0.84710
H8 H -0.55570 -0.51690 0.94180
H9 H -0.45200 -0.36160 0.92940
H10 H -0.31790 -0.31760 0.82170
H11 H -0.41450 -0.73530 0.67850
H12 H -0.54330 -0.68370 0.73250
H13 H -0.39660 -0.75000 0.76300
H14 H -0.35050 -0.58290 0.52580
H15 H -0.20910 -0.56510 0.47670
H16 H -0.35320 -0.47560 0.47310
H17 H 0.03750 -0.29520 0.28060
H18 H -0.11320 -0.30730 0.32290
H19 H 0.02660 -0.39860 0.33530
H20 H 0.49520 0.23820 0.31360
H21 H 0.63800 0.15600 0.33770
H22 H 0.72340 0.30610 0.37930
H23 H 0.58600 0.38570 0.34820
H24 H 0.67210 0.33260 0.22870
H25 H 0.81440 0.26310 0.26180
H26 H 0.73730 0.49390 0.26330
H27 H 0.88210 0.42310 0.29280
H28 H 0.97000 0.38180 0.17470
H29 H 0.82230 0.44520 0.14380
H30 H 1.02520 0.54560 0.20430
H31 H 0.87510 0.61030 0.17700
H32 H 0.95540 0.57400 0.05630
H33 H 1.10380 0.50450 0.08270
H34 H 1.01890 0.73480 0.08600
H35 H 1.16060 0.66850 0.12130
H36 H 1.12140 0.68380 -0.03000
H37 H 1.26430 0.62090 0.00590
H38 H 1.30270 0.79180 -0.04830
H39 H 1.31350 0.78810 0.03640
H40 H 1.17040 0.85100 0.00070
H41 H 0.33980 -0.03440 0.27270
H42 H 0.21780 0.06930 0.28710
H43 H 0.15420 -0.13610 0.26250
H44 H 0.03420 -0.03070 0.27440
H45 H 0.07760 -0.06230 0.15340
H46 H 0.24190 -0.05250 0.15660
H47 H -0.00270 0.12470 0.15980
H48 H 0.15070 0.14010 0.18140
H49 H 0.10540 0.08510 0.04250
H50 H 0.09680 0.20610 0.05970
H51 H 0.35470 0.04840 0.06060
H52 H 0.34480 0.17100 0.07550
H53 H 0.28150 0.22390 -0.04720
H54 H 0.44140 0.15520 -0.04180
H55 H 0.19690 0.07230 -0.07250
H56 H 0.35110 -0.00170 -0.06100
H57 H 0.44980 0.08830 -0.16710
H58 H 0.29470 0.16120 -0.17880
H59 H 0.33630 0.01810 -0.25690
H60 H 0.20310 0.00340 -0.20080
H61 H 0.35860 -0.06940 -0.18940
#END
