
#######################################################################
#
#                 Cambridge Crystallographic Data Centre
#                                CCDC
#
#######################################################################
#
# If this CIF has been generated from an entry in the Cambridge
# Structural Database, then it will include bibliographic, chemical,
# crystal, experimental, refinement or atomic coordinate data resulting
# from the CCDC's data processing and validation procedures.
#
#######################################################################

data_CSD_CIF_QOCMOM
_audit_creation_date 2014-03-26
_audit_creation_method CSD-ConQuest-V1
_database_code_CSD QOCMOM
_database_code_depnum_ccdc_archive 'CCDC 993656'
_chemical_formula_sum 'C18 H17 N1 O5'
_chemical_formula_moiety
;
C18 H17 N1 O5
;
_journal_coden_Cambridge 1078
_journal_year 2014
_journal_name_full 'CSD Communication(Private Communication) '
loop_
_publ_author_name
"Li Shui"
"M.L.McLaughlin"
"F.R.Fronczek"
_chemical_name_systematic
;
ethyl 3-(4-(benzyloxy)phenyl)-2-nitroacrylate
;
_cell_volume   1575.434
_exptl_crystal_colour 'yellow'
_exptl_crystal_density_diffrn 1.38
_exptl_special_details
;
contribution from Department of Chemistry, Louisiana State University, Baton 
Rouge, LA, 70803, USA
;
_exptl_crystal_description 'prism'
_diffrn_ambient_temperature 100
#These two values have been output from a single CSD field.
_refine_ls_R_factor_gt 0.0444
_refine_ls_wR_factor_gt 0.0444
_symmetry_cell_setting monoclinic
_symmetry_space_group_name_H-M 'P 21/n'
_symmetry_Int_Tables_number 14
loop_
_symmetry_equiv_pos_site_id
_symmetry_equiv_pos_as_xyz
1 x,y,z
2 1/2-x,1/2+y,1/2-z
3 -x,-y,-z
4 -1/2+x,-1/2-y,-1/2+z
_cell_length_a 7.7957(7)
_cell_length_b 14.6607(12)
_cell_length_c 13.9398(12)
_cell_angle_alpha 90
_cell_angle_beta 98.561(4)
_cell_angle_gamma 90
_cell_formula_units_Z 4
loop_
_atom_type_symbol
_atom_type_radius_bond
C 0.68
H 0.23
N 0.68
O 0.68
loop_
_atom_site_label
_atom_site_type_symbol
_atom_site_fract_x
_atom_site_fract_y
_atom_site_fract_z
O1 O 0.78953(10) 0.56351(5) 0.39400(5)
O2 O 0.50570(11) 0.20363(6) 0.86103(6)
O3 O 0.55927(11) 0.34657(5) 0.91796(5)
O4 O 0.70988(12) 0.18913(6) 0.69057(7)
O5 O 0.44855(11) 0.22961(6) 0.63055(6)
N1 N 0.58347(12) 0.23927(6) 0.68704(7)
C1 C 0.75597(13) 0.51845(7) 0.47447(7)
C2 C 0.68893(13) 0.57177(7) 0.54295(7)
H1 H 0.67000 0.63510 0.53170
C3 C 0.65014(13) 0.53253(7) 0.62706(7)
H2 H 0.60730 0.56960 0.67410
C4 C 0.67310(13) 0.43842(7) 0.64422(7)
C5 C 0.74442(13) 0.38668(7) 0.57550(7)
H3 H 0.76410 0.32340 0.58670
C6 C 0.78702(13) 0.42562(7) 0.49161(7)
H4 H 0.83680 0.38960 0.44630
C7 C 0.62728(13) 0.40115(7) 0.73385(7)
H5 H 0.62190 0.44460 0.78390
C8 C 0.59149(13) 0.31525(7) 0.75682(7)
C9 C 0.54735(14) 0.28202(7) 0.85017(8)
C10 C 0.85879(14) 0.51198(7) 0.32147(7)
H6 H 0.77470 0.46460 0.29450
H7 H 0.96730 0.48130 0.35050
C11 C 0.89488(13) 0.57566(7) 0.24207(7)
C12 C 0.86473(14) 0.66908(8) 0.24582(8)
H8 H 0.81780 0.69440 0.29900
C13 C 0.90338(15) 0.72553(8) 0.17154(8)
H9 H 0.88320 0.78930 0.17450
C14 C 0.97071(16) 0.68954(8) 0.09375(8)
H10 H 0.99590 0.72830 0.04300
C15 C 1.00162(16) 0.59636(8) 0.08982(8)
H11 H 1.04850 0.57140 0.03640
C16 C 0.96413(15) 0.53964(8) 0.16369(8)
H12 H 0.98580 0.47600 0.16080
C17 C 0.51509(16) 0.31611(9) 1.01115(8)
H13 H 0.58670 0.26260 1.03490
H14 H 0.39140 0.29810 1.00370
C18 C 0.5487(2) 0.39288(10) 1.08140(9)
H15 H 0.66980 0.41250 1.08550
H16 H 0.52680 0.37270 1.14550
H17 H 0.47180 0.44400 1.05950
#END
