
#######################################################################
#
#                 Cambridge Crystallographic Data Centre
#                                CCDC
#
#######################################################################
#
# If this CIF has been generated from an entry in the Cambridge
# Structural Database, then it will include bibliographic, chemical,
# crystal, experimental, refinement or atomic coordinate data resulting
# from the CCDC's data processing and validation procedures.
#
#######################################################################

data_CSD_CIF_QOCNUT
_audit_creation_date 2014-03-26
_audit_creation_method CSD-ConQuest-V1
_database_code_CSD QOCNUT
_database_code_depnum_ccdc_archive 'CCDC 953438'
_chemical_formula_sum 'C15 H14 N4 O2'
_chemical_formula_moiety
;
C15 H14 N4 O2
;
_journal_coden_Cambridge 182
_journal_volume 50
_journal_year 2014
_journal_page_first 4567
_journal_name_full 'Chem.Commun. '
loop_
_publ_author_name
"B.Alcaide"
"P.Almendros"
"J.M.Alonso"
"I.Fernandez"
"G.Gomez-Campillos"
"M.Rosario Torres"
_chemical_name_systematic
;
3-((3,6-Dimethylpyrazin-2-yl)methyl)-4-nitro-1H-indole
;
_cell_volume    687.511
_exptl_crystal_colour 'amber'
_exptl_crystal_density_diffrn 1.364
_exptl_crystal_description 'prismatic'
_diffrn_ambient_temperature 296
#These two values have been output from a single CSD field.
_refine_ls_R_factor_gt 0.0389
_refine_ls_wR_factor_gt 0.0389
_symmetry_cell_setting triclinic
_symmetry_space_group_name_H-M 'P -1'
_symmetry_Int_Tables_number 2
loop_
_symmetry_equiv_pos_site_id
_symmetry_equiv_pos_as_xyz
1 x,y,z
2 -x,-y,-z
_cell_length_a 8.2193(12)
_cell_length_b 8.2471(12)
_cell_length_c 11.2596(16)
_cell_angle_alpha 103.760(3)
_cell_angle_beta 91.764(3)
_cell_angle_gamma 110.780(3)
_cell_formula_units_Z 2
loop_
_atom_type_symbol
_atom_type_radius_bond
C 0.68
H 0.23
N 0.68
O 0.68
loop_
_atom_site_label
_atom_site_type_symbol
_atom_site_fract_x
_atom_site_fract_y
_atom_site_fract_z
C1 C 0.2271(2) 0.9896(2) 0.56184(17)
C2 C 0.1748(2) 0.9739(2) 0.67775(16)
C3 C -0.0656(2) 0.7194(2) 0.58445(17)
C4 C -0.0088(2) 0.7336(3) 0.47247(18)
H1 H -0.07310 0.64530 0.40200
C5 C 0.3858(2) 1.1424(2) 0.54905(18)
H2 H 0.39370 1.13600 0.46330
H3 H 0.48900 1.13480 0.58570
H4 H 0.37660 1.25440 0.59000
C6 C -0.2293(2) 0.5709(2) 0.59726(18)
H5 H -0.19960 0.50290 0.64670
H6 H -0.28380 0.49320 0.51710
H7 H -0.30900 0.62160 0.63610
C7 C 0.2855(2) 1.1091(2) 0.79301(17)
H8 H 0.40780 1.13260 0.78270
H9 H 0.26740 1.22080 0.80010
C8 C 0.2536(2) 1.0590(2) 0.91165(16)
C9 C 0.2020(2) 1.1596(3) 1.00660(18)
H10 H 0.18320 1.26350 1.00410
C10 C 0.2149(2) 0.9344(3) 1.07548(17)
C11 C 0.2024(3) 0.8155(3) 1.14598(19)
H11 H 0.16950 0.83610 1.22480
C12 C 0.2400(3) 0.6664(3) 1.0965(2)
H12 H 0.23000 0.58320 1.14160
C13 C 0.2928(3) 0.6376(3) 0.9799(2)
H13 H 0.32010 0.53680 0.94830
C14 C 0.3049(2) 0.7575(3) 0.91099(17)
C15 C 0.2653(2) 0.9120(2) 0.95395(16)
N1 N 0.1344(2) 0.8679(2) 0.45931(14)
N2 N 0.02846(18) 0.84234(19) 0.68820(13)
N3 N 0.18135(19) 1.0889(2) 1.10550(14)
H14 H 0.12190 1.13410 1.17910
N4 N 0.3679(2) 0.7174(3) 0.79135(15)
O1 O 0.42380(18) 0.8372(2) 0.74058(13)
O2 O 0.3665(2) 0.5657(2) 0.74733(15)
#END
