
#######################################################################
#
#                 Cambridge Crystallographic Data Centre
#                                CCDC
#
#######################################################################
#
# If this CIF has been generated from an entry in the Cambridge
# Structural Database, then it will include bibliographic, chemical,
# crystal, experimental, refinement or atomic coordinate data resulting
# from the CCDC's data processing and validation procedures.
#
#######################################################################

data_CSD_CIF_QOFQUX01
_audit_creation_date 2002-04-24
_audit_creation_method CSD-ConQuest-V1
_database_code_CSD QOFQUX01
_database_code_depnum_ccdc_archive 'CCDC 162503'
_chemical_formula_sum 'C6 H16 N2 O2'
_chemical_formula_moiety
;
C6 H16 N2 O2
;
_journal_coden_Cambridge 36
_journal_volume 637
_journal_year 2001
_journal_page_first 507
_journal_name_full 'J.Organomet.Chem. '
loop_
_publ_author_name
"C.Sporer"
"D.Ruiz-Molina"
"K.Wurst"
"H.Kopacka"
"J.Veciana"
"P.Jaitner"
_chemical_name_systematic
;
N,N-Dihydroxy-2,3-diamino-2,3-dimethylbutane
;
_cell_volume   1648.349
_exptl_crystal_colour 'colorless'
_exptl_crystal_density_diffrn 1.194
_exptl_crystal_description 'plate'
_diffrn_ambient_temperature 223
_refine_special_details
;
H-atoms on O and N atoms are disordered over two equal sets of positions.

;
#These two values have been output from a single CSD field.
_refine_ls_R_factor_gt 0.051
_refine_ls_wR_factor_gt 0.051
_symmetry_cell_setting monoclinic
_symmetry_space_group_name_H-M 'C 2/c'
_symmetry_Int_Tables_number 15
loop_
_symmetry_equiv_pos_site_id
_symmetry_equiv_pos_as_xyz
1 x,y,z
2 1/2+x,1/2+y,z
3 x,-y,1/2+z
4 1/2+x,1/2-y,1/2+z
5 -x,-y,-z
6 -1/2-x,-1/2-y,-z
7 -x,y,-1/2-z
8 -1/2-x,-1/2+y,-1/2-z
_cell_length_a 23.5669(7)
_cell_length_b 6.129(1)
_cell_length_c 13.435(1)
_cell_angle_alpha 90
_cell_angle_beta 121.852(6)
_cell_angle_gamma 90
_cell_formula_units_Z 8
loop_
_atom_type_symbol
_atom_type_radius_bond
C 0.68
H 0.23
N 0.68
O 0.68
loop_
_atom_site_label
_atom_site_type_symbol
_atom_site_fract_x
_atom_site_fract_y
_atom_site_fract_z
H1 H 0.4848(9) -0.633(10) 1.2052(38)
H2? H 0.4367(49) -0.7867(86) 1.0944(67)
H3 H 0.4779(15) 0.1372(82) 0.9175(42)
H4? H 0.4328(39) 0.2907(59) 0.9644(60)
H5 H 0.4268(22) -0.5502(69) 0.9978(24)
H6? H 0.4776(9) -0.4276(64) 1.0967(31)
H7 H 0.4716(12) -0.0974(59) 1.0559(29)
H8? H 0.4278(27) 0.0569(79) 1.0653(35)
O1 O 0.43892(10) -0.6456(3) 1.1468(2)
O2 O 0.43285(11) 0.1329(3) 0.9248(2)
N1 N 0.43400(12) -0.4844(4) 1.0629(2)
N2 N 0.43093(12) -0.0181(4) 1.0069(2)
C1 C 0.37678(13) -0.3384(4) 1.0313(2)
C2 C 0.37407(13) -0.1719(4) 0.9399(2)
C3 C 0.3880(2) -0.2248(5) 1.1418(2)
H9 H 0.3835(10) -0.3302(8) 1.1911(8)
H10 H 0.3552(6) -0.1100(21) 1.1198(3)
H11 H 0.4325(4) -0.1621(28) 1.1845(9)
C4 C 0.31292(14) -0.4732(5) 0.9779(3)
H12 H 0.2760(2) -0.3799(8) 0.9630(15)
H13 H 0.3184(3) -0.5882(19) 1.0319(8)
H14 H 0.3037(5) -0.5373(25) 0.9049(9)
C5 C 0.30900(14) -0.0420(5) 0.8811(3)
H15 H 0.2720(2) -0.1377(8) 0.8305(13)
H16 H 0.3115(4) 0.0749(20) 0.8349(14)
H17 H 0.3022(5) 0.0193(27) 0.9406(3)
C6 C 0.3812(2) -0.2850(5) 0.8448(2)
H18 H 0.3739(10) -0.1794(9) 0.7854(9)
H19 H 0.3485(7) -0.4011(22) 0.8092(12)
H20 H 0.4258(4) -0.3457(29) 0.8800(4)
#END
