
#######################################################################
#
#                 Cambridge Crystallographic Data Centre
#                                CCDC
#
#######################################################################
#
# If this CIF has been generated from an entry in the Cambridge
# Structural Database, then it will include bibliographic, chemical,
# crystal, experimental, refinement or atomic coordinate data resulting
# from the CCDC's data processing and validation procedures.
#
#######################################################################

data_CSD_CIF_QOFQOR
_audit_creation_date 2001-07-31
_audit_creation_method CSD-ConQuest-V1
_database_code_CSD QOFQOR
_database_code_depnum_ccdc_archive 'CCDC 149196'
_chemical_formula_sum 'C13 H19 N3 O4'
_chemical_formula_moiety
;
C13 H19 N3 O4
;
_journal_coden_Cambridge 1220
_journal_volume 7
_journal_year 2001
_journal_page_first 2007
_journal_name_full 'Chem.-Eur.J. '
loop_
_publ_author_name
"C.Hirel"
"K.E.Vostrikova"
"J.Pecaut"
"V.I.Ovcharenko"
"P.Rey"
_chemical_name_systematic
;
1,3-Dihydroxy-2-(4-p-nitrophenyl)-4,4,5,5-tetramethylimidazoline
;
_cell_volume   1437.233
_exptl_crystal_colour 'colorless'
_exptl_crystal_density_diffrn 1.305
_exptl_special_details
;
not CCDC 149195 as published

;
_exptl_crystal_preparation 'methanol'
_diffrn_ambient_temperature ?
_diffrn_special_details
;
The study was carried out at room temperature,in the range 283-303K

;
#These two values have been output from a single CSD field.
_refine_ls_R_factor_gt 0.0632
_refine_ls_wR_factor_gt 0.0632
_symmetry_cell_setting monoclinic
_symmetry_space_group_name_H-M 'P 21/c'
_symmetry_Int_Tables_number 14
loop_
_symmetry_equiv_pos_site_id
_symmetry_equiv_pos_as_xyz
1 x,y,z
2 x,1/2-y,1/2+z
3 -x,-y,-z
4 -x,-1/2+y,-1/2-z
_cell_length_a 6.6040(11)
_cell_length_b 10.8734(17)
_cell_length_c 20.030(3)
_cell_angle_alpha 90
_cell_angle_beta 92.220(3)
_cell_angle_gamma 90
_cell_formula_units_Z 4
loop_
_atom_type_symbol
_atom_type_radius_bond
C 0.68
H 0.23
N 0.68
O 0.68
loop_
_atom_site_label
_atom_site_type_symbol
_atom_site_fract_x
_atom_site_fract_y
_atom_site_fract_z
O1 O 0.3109(2) 0.43419(15) 0.03267(8)
H1 H 0.343(4) 0.484(3) 0.0005(15)
O2 O 0.5997(4) 0.14878(14) 0.16236(9)
H2 H 0.732(6) 0.122(4) 0.1681(18)
O3 O 1.2055(3) 0.1093(2) -0.12883(11)
O4 O 0.9830(3) -0.0319(2) -0.14567(11)
N1 N 0.5067(3) 0.41945(15) 0.06594(8)
N2 N 0.6274(3) 0.27530(16) 0.14115(9)
N3 N 1.0413(4) 0.0631(2) -0.11836(10)
C1 C 0.5354(4) 0.28542(19) 0.07424(10)
H3 H 0.407(3) 0.2472(19) 0.0704(10)
C2 C 0.5137(4) 0.4741(2) 0.13667(10)
C3 C 0.7174(6) 0.5394(3) 0.14277(17)
H4 H 0.716(5) 0.609(3) 0.1078(16)
H5 H 0.843(5) 0.483(3) 0.1394(15)
H6 H 0.746(4) 0.574(3) 0.1816(16)
C4 C 0.3430(6) 0.5647(3) 0.14667(16)
H7 H 0.346(4) 0.633(3) 0.1172(15)
H8 H 0.364(4) 0.592(3) 0.1966(17)
H9 H 0.198(5) 0.534(3) 0.1318(17)
C5 C 0.5066(4) 0.3596(2) 0.18294(11)
C6 C 0.6155(7) 0.3767(3) 0.25064(13)
H10 H 0.596(4) 0.309(3) 0.2781(15)
H11 H 0.555(4) 0.445(3) 0.2747(13)
H12 H 0.761(6) 0.387(3) 0.2475(16)
C7 C 0.2902(5) 0.3145(3) 0.19206(18)
H13 H 0.300(5) 0.232(3) 0.2113(16)
H14 H 0.200(4) 0.313(3) 0.1506(16)
H15 H 0.217(4) 0.370(3) 0.2220(14)
C8 C 0.6684(3) 0.23027(19) 0.02195(10)
C9 C 0.8696(4) 0.2668(2) 0.01725(13)
H16 H 0.918(3) 0.328(2) 0.0452(11)
C10 C 0.9914(4) 0.2141(2) -0.02988(12)
H17 H 1.133(4) 0.239(2) -0.0319(12)
C11 C 0.9105(4) 0.1225(2) -0.07020(11)
C12 C 0.7132(4) 0.0844(2) -0.06771(12)
H18 H 0.654(3) 0.021(2) -0.0969(11)
C13 C 0.5922(4) 0.1401(2) -0.02063(11)
H19 H 0.446(3) 0.117(2) -0.0195(10)
#END
