
#######################################################################
#
#                 Cambridge Crystallographic Data Centre
#                                CCDC
#
#######################################################################
#
# If this CIF has been generated from an entry in the Cambridge
# Structural Database, then it will include bibliographic, chemical,
# crystal, experimental, refinement or atomic coordinate data resulting
# from the CCDC's data processing and validation procedures.
#
#######################################################################

data_CSD_CIF_QOFYER
_audit_creation_date 2014-08-12
_audit_creation_method CSD-ConQuest-V1
_database_code_CSD QOFYER
_database_code_depnum_ccdc_archive 'CCDC 949671'
_chemical_formula_sum 'C30 H29 N3 O5'
_chemical_formula_moiety
;
C30 H29 N3 O5
;
_journal_coden_Cambridge 1122
_journal_volume 31
_journal_year 2013
_journal_page_first 1546
_journal_name_full 'Chin.J.Chem. '
loop_
_publ_author_name
"Lili Zhang"
"Jing Sun"
"Chaoguo Yan"
_chemical_name_systematic
;
methyl 
3-((2-(1H-indol-3-yl)ethyl)amino)-2-(2-(4-methylphenyl)-3-nitro-3,4-dihydro-2H
-chromen-4-yl)acrylate
;
_cell_volume   2672.304
_exptl_crystal_density_diffrn 1.271
_diffrn_ambient_temperature 296
#These two values have been output from a single CSD field.
_refine_ls_R_factor_gt 0.0837
_refine_ls_wR_factor_gt 0.0837
_symmetry_cell_setting monoclinic
_symmetry_space_group_name_H-M 'P 21/c'
_symmetry_Int_Tables_number 14
loop_
_symmetry_equiv_pos_site_id
_symmetry_equiv_pos_as_xyz
1 x,y,z
2 -x,1/2+y,1/2-z
3 -x,-y,-z
4 x,-1/2-y,-1/2+z
_cell_length_a 13.1823(17)
_cell_length_b 13.9995(17)
_cell_length_c 16.9980(17)
_cell_angle_alpha 90
_cell_angle_beta 121.582(7)
_cell_angle_gamma 90
_cell_formula_units_Z 4
loop_
_atom_type_symbol
_atom_type_radius_bond
C 0.68
H 0.23
N 0.68
O 0.68
loop_
_atom_site_label
_atom_site_type_symbol
_atom_site_fract_x
_atom_site_fract_y
_atom_site_fract_z
C1 C 0.6901(3) 0.5642(3) 0.5646(2)
C2 C 0.7407(3) 0.6231(3) 0.5292(3)
H1 H 0.78200 0.59790 0.50330
C3 C 0.7281(4) 0.7190(4) 0.5334(3)
H2 H 0.76230 0.76020 0.51080
C4 C 0.6651(4) 0.7566(3) 0.5710(3)
H3 H 0.65730 0.82250 0.57240
C5 C 0.6138(3) 0.6985(3) 0.6061(2)
H4 H 0.57180 0.72480 0.63100
C6 C 0.6259(3) 0.5997(2) 0.6038(2)
C7 C 0.5869(3) 0.5191(3) 0.6329(2)
C8 C 0.6266(3) 0.4418(3) 0.6108(3)
H5 H 0.61310 0.37920 0.62140
C9 C 0.5130(3) 0.5189(3) 0.6764(3)
H6 H 0.46640 0.46060 0.65870
H7 H 0.45790 0.57210 0.65170
C10 C 0.5844(3) 0.5259(3) 0.7813(3)
H8 H 0.53070 0.51980 0.80380
H9 H 0.64050 0.47330 0.80630
C11 C 0.7623(3) 0.6243(2) 0.8386(2)
H10 H 0.80580 0.56820 0.85020
C12 C 0.8212(3) 0.7077(2) 0.8480(2)
C13 C 0.7565(3) 0.7966(2) 0.8241(2)
C14 C 0.7702(4) 0.9645(3) 0.8059(3)
H11 H 0.72940 0.97590 0.83810
H12 H 0.71420 0.96680 0.74050
H13 H 0.83000 1.01250 0.82260
C15 C 1.0940(3) 0.5704(2) 0.9426(2)
C16 C 1.1425(3) 0.4861(2) 0.9338(3)
H14 H 1.20730 0.45810 0.98520
C17 C 1.0938(4) 0.4441(3) 0.8483(3)
H15 H 1.12630 0.38790 0.84180
C18 C 0.9969(3) 0.4851(3) 0.7720(3)
H16 H 0.96270 0.45590 0.71450
C19 C 0.9515(3) 0.5698(3) 0.7822(3)
H17 H 0.88730 0.59820 0.73060
C20 C 0.9994(3) 0.6138(2) 0.8678(2)
C21 C 0.9504(3) 0.7095(2) 0.8741(2)
H18 H 0.95460 0.75210 0.83010
C22 C 1.0291(3) 0.7540(2) 0.9704(2)
H19 H 0.97880 0.79560 0.98230
C23 C 1.0846(3) 0.6791(2) 1.0463(2)
H20 H 1.01950 0.64650 1.04740
C24 C 1.1643(3) 0.7220(2) 1.1401(2)
C25 C 1.2860(3) 0.7301(2) 1.1791(2)
H21 H 1.32140 0.70530 1.14840
C26 C 1.3550(3) 0.7747(3) 1.2630(3)
H22 H 1.43690 0.77810 1.28870
C27 C 1.3065(3) 0.8143(2) 1.3102(2)
C28 C 1.3821(4) 0.8637(3) 1.4016(3)
H23 H 1.45880 0.87780 1.41060
H24 H 1.39170 0.82280 1.45030
H25 H 1.34410 0.92200 1.40210
C29 C 1.1849(3) 0.8065(3) 1.2703(3)
H26 H 1.14930 0.83290 1.30020
C30 C 1.1153(3) 0.7607(2) 1.1874(2)
H27 H 1.03370 0.75570 1.16280
N1 N 0.6898(3) 0.4669(2) 0.5703(2)
H28 H 0.72340 0.42790 0.55180
N2 N 0.6491(2) 0.6149(2) 0.81449(19)
H29 H 0.61290 0.66380 0.81890
N3 N 1.1249(3) 0.8142(2) 0.9733(2)
O1 O 0.6528(2) 0.80733(17) 0.80029(17)
O2 O 0.8255(2) 0.87170(16) 0.83064(17)
O3 O 1.1889(3) 0.7789(2) 0.9498(2)
O4 O 1.1343(3) 0.8963(2) 0.9994(2)
O5 O 1.1496(2) 0.60836(16) 1.02994(16)
#END
