
#######################################################################
#
#                 Cambridge Crystallographic Data Centre
#                                CCDC
#
#######################################################################
#
# If this CIF has been generated from an entry in the Cambridge
# Structural Database, then it will include bibliographic, chemical,
# crystal, experimental, refinement or atomic coordinate data resulting
# from the CCDC's data processing and validation procedures.
#
#######################################################################

data_CSD_CIF_QOGPAF
_audit_creation_date 2014-08-13
_audit_creation_method CSD-ConQuest-V1
_database_code_CSD QOGPAF
_database_code_depnum_ccdc_archive 'CCDC 994061'
_chemical_formula_sum 'C21 H36 N2 O2'
_chemical_formula_moiety
;
C21 H36 N2 O2
;
_journal_coden_Cambridge 1291
_journal_year 2014
_journal_page_first 6017
_journal_name_full 'Eur.J.Org.Chem. '
loop_
_publ_author_name
"Heithem Abda"
"K.Aouadi"
"L.Perrin"
"M.Msaddek"
"J.-P.Praly"
"S.Vidal"
_chemical_name_systematic
;
2-isopropyl-2',5-dimethyloctahydro-2'H-spiro[cyclohexane-1,3'-cycloocta[d]imid
azo[1,5-b][1,2]oxazol]-1'(5a'H)-one
;
_cell_volume   1971.614
_exptl_crystal_colour 'colorless'
_exptl_crystal_density_diffrn 1.174
_exptl_special_details
;
Absolute configuration

;
_exptl_crystal_description 'block'
_diffrn_ambient_temperature 150
#These two values have been output from a single CSD field.
_refine_ls_R_factor_gt 0.0292
_refine_ls_wR_factor_gt 0.0292
_symmetry_cell_setting tetragonal
_symmetry_space_group_name_H-M 'P 43'
_symmetry_Int_Tables_number 78
loop_
_symmetry_equiv_pos_site_id
_symmetry_equiv_pos_as_xyz
1 x,y,z
2 -y,x,3/4+z
3 -x,-y,1/2+z
4 y,-x,1/4+z
_cell_length_a 11.1879(6)
_cell_length_b 11.1879(6)
_cell_length_c 15.7516(6)
_cell_angle_alpha 90
_cell_angle_beta 90
_cell_angle_gamma 90
_cell_formula_units_Z 4
loop_
_atom_type_symbol
_atom_type_radius_bond
C 0.68
H 0.23
N 0.68
O 0.68
loop_
_atom_site_label
_atom_site_type_symbol
_atom_site_fract_x
_atom_site_fract_y
_atom_site_fract_z
O1 O 0.17344(9) 0.97140(9) 0.51509(8)
N1 N 0.28208(10) 0.9066(1) 0.48947(9)
C1 C 0.25927(13) 0.77407(12) 0.48806(10)
N2 N 0.30495(11) 0.73202(10) 0.57092(9)
C2 C 0.29493(17) 0.60867(14) 0.59928(12)
H1 H 0.34140 0.60150 0.65010
H2 H 0.21080 0.59250 0.61380
H3 H 0.32150 0.55550 0.55560
C3 C 0.37030(13) 0.81357(13) 0.6122(1)
C4 C 0.36808(13) 0.92819(12) 0.55997(10)
C5 C 0.32000(12) 1.03600(12) 0.60852(10)
C6 C 0.18700(13) 1.00485(12) 0.60333(10)
C7 C 0.08572(13) 1.09128(13) 0.62438(12)
C8 C 0.08571(14) 1.21477(13) 0.58388(11)
C9 C 0.14104(15) 1.31393(13) 0.63811(12)
C10 C 0.25918(15) 1.28475(15) 0.68161(11)
C11 C 0.36595(15) 1.26238(14) 0.62334(13)
C12 C 0.35842(13) 1.15322(14) 0.56526(11)
H4 H 0.43880 1.13810 0.54290
H5 H 0.30460 1.16820 0.51770
H6 H 0.43860 1.24960 0.66000
H7 H 0.37980 1.33670 0.58780
H8 H 0.27860 1.35250 0.71930
H9 H 0.24950 1.21370 0.71920
H10 H 0.08300 1.33430 0.68320
H11 H 0.15100 1.38770 0.60340
H12 H -0.00060 1.23640 0.57230
H13 H 0.12740 1.20900 0.52880
H14 H 0.08730 1.10190 0.68760
H15 H 0.01280 1.05020 0.60760
H16 H 0.17410 0.93070 0.63810
H17 H 0.34870 1.03490 0.66770
H18 H 0.44850 0.94170 0.53830
O2 O 0.42396(10) 0.80021(10) 0.67949(8)
C13 C 0.33214(13) 0.71759(12) 0.41411(10)
C14 C 0.27829(13) 0.75582(14) 0.32897(10)
C15 C 0.14719(14) 0.72241(14) 0.32145(11)
C16 C 0.07404(13) 0.77808(13) 0.39284(11)
C17 C 0.12734(13) 0.74166(13) 0.47842(10)
H19 H 0.08240 0.77850 0.52500
H20 H 0.12210 0.65390 0.48260
C18 C -0.05703(15) 0.74317(16) 0.38742(12)
H21 H -0.10240 0.78070 0.43290
H22 H -0.09300 0.76520 0.33260
H23 H -0.06470 0.65710 0.39750
H24 H 0.08020 0.86470 0.38920
H25 H 0.11580 0.74930 0.26500
H26 H 0.13820 0.63450 0.32610
H27 H 0.28890 0.84140 0.32260
H28 H 0.32340 0.72000 0.28260
C19 C 0.46934(13) 0.73636(14) 0.41776(11)
C20 C 0.53311(15) 0.62678(16) 0.38065(12)
H29 H 0.61970 0.63770 0.38190
H30 H 0.51250 0.55260 0.41220
H31 H 0.50940 0.61380 0.32180
C21 C 0.51477(15) 0.84924(15) 0.37336(12)
H32 H 0.59930 0.85840 0.38540
H33 H 0.47120 0.91960 0.39160
H34 H 0.50700 0.84220 0.31070
H35 H 0.49300 0.74140 0.47820
H36 H 0.31530 0.63270 0.41960
#END
