
#######################################################################
#
#                 Cambridge Crystallographic Data Centre
#                                CCDC
#
#######################################################################
#
# If this CIF has been generated from an entry in the Cambridge
# Structural Database, then it will include bibliographic, chemical,
# crystal, experimental, refinement or atomic coordinate data resulting
# from the CCDC's data processing and validation procedures.
#
#######################################################################

data_CSD_CIF_QOGPIN
_audit_creation_date 2014-08-13
_audit_creation_method CSD-ConQuest-V1
_database_code_CSD QOGPIN
_database_code_depnum_ccdc_archive 'CCDC 994064'
_chemical_formula_sum 'C19 H32 N2 O2'
_chemical_formula_moiety
;
C19 H32 N2 O2
;
_journal_coden_Cambridge 1291
_journal_year 2014
_journal_page_first 6017
_journal_name_full 'Eur.J.Org.Chem. '
loop_
_publ_author_name
"Heithem Abda"
"K.Aouadi"
"L.Perrin"
"M.Msaddek"
"J.-P.Praly"
"S.Vidal"
_chemical_name_systematic
;
2-isopropyl-2',5-dimethylhexahydro-2'H-spiro[cyclohexane-1,3'-imidazo[1,5-b][1
,2]benzoxazol]-1'(5a'H)-one
;
_cell_volume   1832.579
_exptl_crystal_colour 'colorless'
_exptl_crystal_density_diffrn 1.161
_exptl_crystal_description 'plate'
_diffrn_ambient_temperature 100
#These two values have been output from a single CSD field.
_refine_ls_R_factor_gt 0.0589
_refine_ls_wR_factor_gt 0.0589
_symmetry_cell_setting tetragonal
_symmetry_space_group_name_H-M 'P 43'
_symmetry_Int_Tables_number 78
loop_
_symmetry_equiv_pos_site_id
_symmetry_equiv_pos_as_xyz
1 x,y,z
2 -y,x,3/4+z
3 -x,-y,1/2+z
4 y,-x,1/4+z
_cell_length_a 10.920(1)
_cell_length_b 10.920(1)
_cell_length_c 15.368(2)
_cell_angle_alpha 90
_cell_angle_beta 90
_cell_angle_gamma 90
_cell_formula_units_Z 4
loop_
_atom_type_symbol
_atom_type_radius_bond
C 0.68
H 0.23
N 0.68
O 0.68
loop_
_atom_site_label
_atom_site_type_symbol
_atom_site_fract_x
_atom_site_fract_y
_atom_site_fract_z
O1 O 0.6735(3) 0.4832(3) 0.6091(2)
N1 N 0.7847(4) 0.4139(4) 0.5853(3)
C1 C 0.7593(5) 0.2790(5) 0.5795(3)
N2 N 0.8025(4) 0.2301(4) 0.6635(3)
C2 C 0.8726(4) 0.3093(4) 0.7065(3)
C3 C 0.8702(4) 0.4309(4) 0.6611(3)
C4 C 0.8143(4) 0.5309(4) 0.7168(3)
C5 C 0.6789(4) 0.5069(5) 0.7001(3)
C6 C 0.5913(5) 0.6120(4) 0.7224(4)
C7 C 0.6398(5) 0.7382(5) 0.6965(4)
C8 C 0.7707(5) 0.7577(5) 0.7263(4)
C9 C 0.8535(5) 0.6595(5) 0.6877(4)
H1 H 0.93790 0.67390 0.70660
H2 H 0.84940 0.66320 0.62400
H3 H 0.77400 0.75360 0.78990
H4 H 0.79830 0.83860 0.70740
H5 H 0.58690 0.80120 0.72150
H6 H 0.63830 0.74410 0.63310
H7 H 0.58000 0.61160 0.78550
H8 H 0.51240 0.59690 0.69320
H9 H 0.65280 0.43250 0.73120
H10 H 0.83430 0.51840 0.77870
H11 H 0.95290 0.45320 0.64150
O2 O 0.9301(3) 0.2894(3) 0.7755(3)
C10 C 0.7888(5) 0.1031(4) 0.6897(3)
H12 H 0.83620 0.08840 0.74160
H13 H 0.81780 0.05000 0.64420
H14 H 0.70340 0.08580 0.70130
C11 C 0.8345(4) 0.2239(4) 0.5036(3)
C12 C 0.7813(4) 0.2660(4) 0.4168(3)
C13 C 0.6476(4) 0.2301(5) 0.4074(3)
C14 C 0.5705(4) 0.2857(5) 0.4792(3)
C15 C 0.6227(5) 0.2482(4) 0.5677(3)
H15 H 0.57590 0.28890 0.61380
H16 H 0.61410 0.15950 0.57400
C16 C 0.4363(5) 0.2420(5) 0.4712(3)
H17 H 0.38460 0.28490 0.51210
H18 H 0.43160 0.15500 0.48240
H19 H 0.40630 0.25800 0.41330
H20 H 0.57310 0.37620 0.47490
H21 H 0.64110 0.14060 0.41110
H22 H 0.61680 0.25730 0.35140
H23 H 0.78920 0.35430 0.41240
H24 H 0.82840 0.22760 0.37000
C17 C 0.9755(5) 0.2400(5) 0.5082(3)
C18 C 1.0235(5) 0.3584(5) 0.4658(4)
H25 H 1.11050 0.36570 0.47770
H26 H 0.98000 0.42820 0.48850
H27 H 1.01180 0.35340 0.40360
C19 C 1.0394(5) 0.1297(5) 0.4661(4)
H28 H 1.12690 0.14070 0.46840
H29 H 1.01750 0.05600 0.49680
H30 H 1.01320 0.12250 0.40640
H31 H 0.99910 0.24270 0.57020
H32 H 0.81900 0.13520 0.50620
#END
