
#######################################################################
#
#                 Cambridge Crystallographic Data Centre
#                                CCDC
#
#######################################################################
#
# If this CIF has been generated from an entry in the Cambridge
# Structural Database, then it will include bibliographic, chemical,
# crystal, experimental, refinement or atomic coordinate data resulting
# from the CCDC's data processing and validation procedures.
#
#######################################################################

data_CSD_CIF_QOHBEV
_audit_creation_date 2009-03-02
_audit_creation_method CSD-ConQuest-V1
_database_code_CSD QOHBEV
_database_code_depnum_ccdc_archive 'CCDC 656895'
_chemical_formula_sum 'C16 H22 N1 O2'
_chemical_formula_moiety
;
C16 H22 N1 O2
;
_journal_coden_Cambridge 392
_journal_volume 74
_journal_year 2007
_journal_page_first 607
_journal_name_full 'Heterocycles '
loop_
_publ_author_name
"Y.Uchida"
"N.Matsuoka"
"H.Takahashi"
"S.Shimono"
"N.Ikuma"
"R.Tamura"
_chemical_name_systematic
;
(+-)-4-(2-Methyl-1-azaspiro(4.5)decane-1-oxyl-2-yl)phenol
;
_cell_volume   2767.293
_exptl_crystal_colour 'yellow'
_exptl_crystal_density_diffrn 1.25
_exptl_special_details
;
magnetic properties
alpha monoclinic polymorph

;
_exptl_crystal_description 'block'
_exptl_crystal_preparation 'hexane/diethyl ether'
_diffrn_ambient_temperature 173.1
#These two values have been output from a single CSD field.
_refine_ls_R_factor_gt 0.046
_refine_ls_wR_factor_gt 0.046
_symmetry_cell_setting monoclinic
_symmetry_space_group_name_H-M 'C 2/c'
_symmetry_Int_Tables_number 15
loop_
_symmetry_equiv_pos_site_id
_symmetry_equiv_pos_as_xyz
1 x,y,z
2 1/2+x,1/2+y,z
3 -x,y,1/2-z
4 1/2-x,1/2+y,1/2-z
5 -x,-y,-z
6 -1/2-x,-1/2-y,-z
7 x,-y,-1/2+z
8 -1/2+x,-1/2-y,-1/2+z
_cell_length_a 25.382(4)
_cell_length_b 6.5431(7)
_cell_length_c 17.724(2)
_cell_angle_alpha 90
_cell_angle_beta 109.928(9)
_cell_angle_gamma 90
_cell_formula_units_Z 8
loop_
_atom_type_symbol
_atom_type_radius_bond
C 0.68
H 0.23
N 0.68
O 0.68
loop_
_atom_site_label
_atom_site_type_symbol
_atom_site_fract_x
_atom_site_fract_y
_atom_site_fract_z
O1 O 0.35300(5) 0.06429(19) 0.34122(7)
O2 O 0.60735(6) -0.1692(2) 0.49836(8)
N1 N 0.36741(6) 0.1556(2) 0.28746(8)
C1 C 0.41803(8) 0.2874(2) 0.30709(10)
C2 C 0.41960(9) 0.3251(3) 0.22204(11)
C3 C 0.35909(9) 0.3139(3) 0.16527(12)
C4 C 0.33002(8) 0.1568(2) 0.20207(9)
C5 C 0.4054(1) 0.4829(2) 0.34511(14)
C6 C 0.46908(7) 0.1709(2) 0.36039(10)
C7 C 0.50701(8) 0.2522(2) 0.43008(11)
C8 C 0.55365(8) 0.1435(2) 0.47647(10)
C9 C 0.56324(7) -0.0518(2) 0.4544(1)
C10 C 0.52633(8) -0.1348(2) 0.38387(10)
C11 C 0.48008(8) -0.0245(2) 0.33834(10)
C12 C 0.27112(8) 0.2224(2) 0.19664(11)
C13 C 0.22960(9) 0.2025(3) 0.11142(12)
C14 C 0.22762(9) -0.0150(3) 0.08177(13)
C15 C 0.28533(10) -0.0855(3) 0.08517(12)
C16 C 0.32866(9) -0.0609(2) 0.16882(11)
H1 H 0.4416(8) 0.216(3) 0.2062(10)
H2 H 0.4384(8) 0.457(3) 0.2207(11)
H3 H 0.3560(8) 0.278(2) 0.1095(12)
H4 H 0.3398(9) 0.452(3) 0.1633(12)
H5 H 0.3978(8) 0.447(2) 0.3954(12)
H6 H 0.4375(8) 0.576(3) 0.3572(11)
H7 H 0.3720(8) 0.551(2) 0.3084(11)
H8 H 0.5015(7) 0.389(2) 0.4464(10)
H9 H 0.5789(8) 0.201(2) 0.5245(11)
H10 H 0.5323(7) -0.273(2) 0.3694(11)
H11 H 0.4541(7) -0.082(2) 0.2907(11)
H12 H 0.2732(7) 0.365(3) 0.2153(10)
H13 H 0.2602(8) 0.129(2) 0.2355(11)
H14 H 0.2415(8) 0.297(2) 0.0780(11)
H15 H 0.1926(9) 0.249(3) 0.1107(12)
H16 H 0.2006(9) -0.022(3) 0.0279(12)
H17 H 0.2136(9) -0.106(3) 0.1157(13)
H18 H 0.2975(8) -0.004(2) 0.0462(12)
H19 H 0.2875(9) -0.227(3) 0.0689(12)
H20 H 0.3675(9) -0.093(2) 0.1690(11)
H21 H 0.3207(8) -0.152(2) 0.2068(11)
H22 H 0.6195(10) -0.123(3) 0.5480(15)
#END
