
#######################################################################
#
#                 Cambridge Crystallographic Data Centre
#                                CCDC
#
#######################################################################
#
# If this CIF has been generated from an entry in the Cambridge
# Structural Database, then it will include bibliographic, chemical,
# crystal, experimental, refinement or atomic coordinate data resulting
# from the CCDC's data processing and validation procedures.
#
#######################################################################

data_CSD_CIF_QOHBEV01
_audit_creation_date 2009-03-02
_audit_creation_method CSD-ConQuest-V1
_database_code_CSD QOHBEV01
_database_code_depnum_ccdc_archive 'CCDC 656896'
_chemical_formula_sum 'C16 H22 N1 O2'
_chemical_formula_moiety
;
C16 H22 N1 O2
;
_journal_coden_Cambridge 392
_journal_volume 74
_journal_year 2007
_journal_page_first 607
_journal_name_full 'Heterocycles '
loop_
_publ_author_name
"Y.Uchida"
"N.Matsuoka"
"H.Takahashi"
"S.Shimono"
"N.Ikuma"
"R.Tamura"
_chemical_name_systematic
;
(+-)-4-(2-Methyl-1-azaspiro(4.5)decane-1-oxyl-2-yl)phenol
;
_cell_volume   2868.463
_exptl_crystal_colour 'brown'
_exptl_crystal_density_diffrn 1.206
_exptl_special_details
;
magnetic properties
beta orthorhombic polymorph

;
_exptl_crystal_description 'prism'
_exptl_crystal_preparation 'hexane/diethyl ether'
_diffrn_ambient_temperature 173.1
#These two values have been output from a single CSD field.
_refine_ls_R_factor_gt 0.04
_refine_ls_wR_factor_gt 0.04
_symmetry_cell_setting orthorhombic
_symmetry_space_group_name_H-M 'P b c a'
_symmetry_Int_Tables_number 61
loop_
_symmetry_equiv_pos_site_id
_symmetry_equiv_pos_as_xyz
1 x,y,z
2 1/2+x,1/2-y,-z
3 -x,1/2+y,1/2-z
4 1/2-x,-y,1/2+z
5 -x,-y,-z
6 -1/2-x,-1/2+y,z
7 x,-1/2-y,-1/2+z
8 -1/2+x,y,-1/2-z
_cell_length_a 13.899(7)
_cell_length_b 12.957(6)
_cell_length_c 15.928(9)
_cell_angle_alpha 90
_cell_angle_beta 90
_cell_angle_gamma 90
_cell_formula_units_Z 8
loop_
_atom_type_symbol
_atom_type_radius_bond
C 0.68
H 0.23
N 0.68
O 0.68
loop_
_atom_site_label
_atom_site_type_symbol
_atom_site_fract_x
_atom_site_fract_y
_atom_site_fract_z
O1 O 0.19451(6) 0.11414(6) 0.27934(5)
O2 O 0.10572(7) 0.39605(7) 0.62740(6)
N1 N 0.17725(7) 0.05670(7) 0.34272(6)
C1 C 0.23505(8) 0.06440(9) 0.42075(7)
C2 C 0.21034(10) -0.04004(10) 0.46100(9)
C3 C 0.10812(9) -0.06293(10) 0.43304(8)
C4 C 0.10269(8) -0.02586(8) 0.34179(7)
C5 C 0.34119(10) 0.07550(14) 0.39854(11)
C6 C 0.20009(8) 0.15492(8) 0.47468(7)
C7 C 0.24746(8) 0.17749(9) 0.54962(8)
C8 C 0.21734(9) 0.25687(9) 0.60163(8)
C9 C 0.13781(8) 0.31562(8) 0.57961(7)
C10 C 0.08987(8) 0.29429(9) 0.50548(8)
C11 C 0.12126(8) 0.21542(9) 0.45358(8)
C12 C 0.13242(10) -0.10945(9) 0.27846(8)
C13 C 0.05377(10) -0.19086(10) 0.26727(10)
C14 C -0.04218(11) -0.14289(11) 0.24393(10)
C15 C -0.07157(9) -0.06303(10) 0.30891(10)
C16 C 0.00505(8) 0.02049(9) 0.31787(8)
H1 H 0.2169(9) -0.0359(10) 0.522(1)
H2 H 0.2552(10) -0.0908(10) 0.4387(9)
H3 H 0.0616(9) -0.0217(10) 0.4680(9)
H4 H 0.0925(9) -0.1354(11) 0.4381(9)
H5 H 0.3483(11) 0.1412(13) 0.3692(10)
H6 H 0.3821(12) 0.0701(12) 0.4516(12)
H7 H 0.3624(11) 0.0185(12) 0.3604(11)
H8 H 0.3030(9) 0.1345(10) 0.5666(9)
H9 H 0.2499(9) 0.2728(9) 0.6531(8)
H10 H 0.0361(9) 0.3385(9) 0.4887(8)
H11 H 0.0879(8) 0.2050(9) 0.4007(8)
H12 H 0.1369(12) 0.3970(12) 0.6775(12)
H13 H 0.1940(9) -0.1417(10) 0.2998(9)
H14 H 0.1438(9) -0.0743(9) 0.2252(9)
H15 H 0.0467(10) -0.2340(11) 0.3196(11)
H16 H 0.0756(9) -0.2412(10) 0.2242(9)
H17 H -0.0928(11) -0.1975(13) 0.2377(10)
H18 H -0.0352(9) -0.1073(10) 0.1886(10)
H19 H -0.0828(9) -0.0967(10) 0.3636(10)
H20 H -0.1331(11) -0.0296(10) 0.2941(10)
H21 H -0.0122(9) 0.0733(10) 0.3612(9)
H22 H 0.0132(9) 0.0588(9) 0.2637(8)
#END
