
#######################################################################
#
#                 Cambridge Crystallographic Data Centre
#                                CCDC
#
#######################################################################
#
# If this CIF has been generated from an entry in the Cambridge
# Structural Database, then it will include bibliographic, chemical,
# crystal, experimental, refinement or atomic coordinate data resulting
# from the CCDC's data processing and validation procedures.
#
#######################################################################

data_CSD_CIF_QOHFUQ
_audit_creation_date 2014-08-13
_audit_creation_method CSD-ConQuest-V1
_database_code_CSD QOHFUQ
_database_code_depnum_ccdc_archive 'CCDC 956175'
_chemical_formula_sum 'C18 H23 N1 O7'
_chemical_formula_moiety
;
C18 H23 N1 O7
;
_journal_coden_Cambridge 1232
_journal_volume 9
_journal_year 2014
_journal_page_first 643
_journal_name_full 'ACS Chem.Biol. '
loop_
_publ_author_name
"C.Lagisetti"
"M.V.Yermolina"
"L.K.Sharma"
"G.Palacios"
"B.J.Prigaro"
"T.R.Webb"
_chemical_name_systematic
;
1-(6-(2-methoxy-2-oxoethyl)-3-methyltetrahydro-2H-pyran-2-yl)ethyl 
4-nitrobenzoate
;
_cell_volume   1891.439
_exptl_crystal_colour 'colorless'
_exptl_crystal_density_diffrn 1.283
_exptl_crystal_description 'rod'
_diffrn_ambient_temperature 100
#These two values have been output from a single CSD field.
_refine_ls_R_factor_gt 0.0362
_refine_ls_wR_factor_gt 0.0362
_symmetry_cell_setting monoclinic
_symmetry_space_group_name_H-M 'C 2'
_symmetry_Int_Tables_number 5
loop_
_symmetry_equiv_pos_site_id
_symmetry_equiv_pos_as_xyz
1 x,y,z
2 -x,y,-z
3 1/2+x,1/2+y,z
4 1/2-x,1/2+y,-z
_cell_length_a 16.8670(8)
_cell_length_b 7.1147(3)
_cell_length_c 15.7883(7)
_cell_angle_alpha 90
_cell_angle_beta 93.338(3)
_cell_angle_gamma 90
_cell_formula_units_Z 4
loop_
_atom_type_symbol
_atom_type_radius_bond
C 0.68
H 0.23
N 0.68
O 0.68
loop_
_atom_site_label
_atom_site_type_symbol
_atom_site_fract_x
_atom_site_fract_y
_atom_site_fract_z
C1 C 0.45333(15) 0.7683(4) 1.12735(18)
H1 H 0.50630 0.71800 1.11850
H2 H 0.42120 0.67160 1.15330
H3 H 0.45810 0.87790 1.16490
O1 O 0.41537(11) 0.8238(2) 1.04641(13)
C2 C 0.35014(14) 0.7341(4) 1.02184(14)
O2 O 0.32146(15) 0.6203(4) 1.06484(12)
C3 C 0.31492(16) 0.7989(4) 0.93816(16)
H4 H 0.35490 0.87280 0.90900
H5 H 0.26920 0.88220 0.94740
C4 C 0.28737(14) 0.6360(3) 0.88205(14)
H6 H 0.25210 0.55310 0.91460
O3 O 0.35777(8) 0.5341(2) 0.86523(8)
C5 C 0.24354(15) 0.6917(4) 0.79938(16)
H7 H 0.27650 0.78000 0.76810
H8 H 0.19350 0.75650 0.81140
C6 C 0.22508(13) 0.5191(4) 0.74521(14)
H9 H 0.20170 0.55890 0.68910
H10 H 0.18540 0.44070 0.77260
C7 C 0.29928(13) 0.4028(3) 0.73308(13)
H11 H 0.33560 0.47910 0.69880
C8 C 0.27957(16) 0.2219(4) 0.68437(15)
H12 H 0.32880 0.15500 0.67380
H13 H 0.25130 0.25250 0.63010
H14 H 0.24590 0.14190 0.71790
C9 C 0.34206(12) 0.3635(3) 0.81876(12)
H15 H 0.30700 0.28250 0.85240
C10 C 0.42144(12) 0.2645(3) 0.81346(12)
H16 H 0.41260 0.13710 0.78780
C11 C 0.46806(15) 0.2450(4) 0.89777(14)
H17 H 0.43790 0.16830 0.93620
H18 H 0.47740 0.36980 0.92270
H19 H 0.51910 0.18430 0.88910
O4 O 0.46751(8) 0.3792(2) 0.75716(8)
C12 C 0.51024(12) 0.2925(3) 0.70072(13)
O5 O 0.51862(11) 0.1245(2) 0.69643(11)
C13 C 0.54635(12) 0.4299(3) 0.64285(13)
C14 C 0.59367(13) 0.3618(4) 0.58015(13)
H20 H 0.60300 0.23060 0.57600
C15 C 0.62697(13) 0.4828(4) 0.52415(14)
H21 H 0.65960 0.43710 0.48170
C16 C 0.61152(13) 0.6724(3) 0.53154(13)
C17 C 0.56507(13) 0.7444(4) 0.59293(13)
H22 H 0.55610 0.87590 0.59690
C18 C 0.53191(12) 0.6215(3) 0.64843(13)
H23 H 0.49910 0.66810 0.69060
N1 N 0.64718(13) 0.8037(3) 0.47230(12)
O6 O 0.68792(12) 0.7400(3) 0.41849(11)
O7 O 0.63534(18) 0.9689(3) 0.48060(16)
H24? H 0.41750 0.79370 1.17270
H25? H 0.50250 0.84010 1.13780
H26? H 0.46560 0.63380 1.12630
#END
