
#######################################################################
#
#                 Cambridge Crystallographic Data Centre
#                                CCDC
#
#######################################################################
#
# If this CIF has been generated from an entry in the Cambridge
# Structural Database, then it will include bibliographic, chemical,
# crystal, experimental, refinement or atomic coordinate data resulting
# from the CCDC's data processing and validation procedures.
#
#######################################################################

data_CSD_CIF_QOHRUB
_audit_creation_date 2009-03-02
_audit_creation_method CSD-ConQuest-V1
_database_code_CSD QOHRUB
_database_code_depnum_ccdc_archive 'CCDC 677702'
_chemical_formula_sum 'C13 H19 N1 O6'
_chemical_formula_moiety
;
C13 H19 N1 O6
;
_journal_coden_Cambridge 16
_journal_volume 64
_journal_year 2008
_journal_page_first 9953
_journal_name_full 'Tetrahedron '
loop_
_publ_author_name
"M.Buchlovic"
"S.Man"
"M.Potacek"
_chemical_name_systematic
;
(3aR,6S)-dimethyl 
6-hydroxy-3a,5,5-trimethyl-3a,4,5,6-tetrahydropyrrolo[1,2-b]isoxazole-2,3-dica
rboxylate
;
_chemical_melting_point 422.15
_cell_volume    723.863
_exptl_crystal_colour 'white'
_exptl_crystal_density_diffrn 1.309
_exptl_special_details
;
Melting point range 422.15-424.15K

;
_exptl_crystal_description 'needle'
_exptl_crystal_preparation 'diethyl ether'
_diffrn_ambient_temperature 120
#These two values have been output from a single CSD field.
_refine_ls_R_factor_gt 0.0414
_refine_ls_wR_factor_gt 0.0414
_symmetry_cell_setting monoclinic
_symmetry_space_group_name_H-M 'P 21'
_symmetry_Int_Tables_number 4
loop_
_symmetry_equiv_pos_site_id
_symmetry_equiv_pos_as_xyz
1 x,y,z
2 -x,1/2+y,-z
_cell_length_a 10.768(2)
_cell_length_b 6.2844(13)
_cell_length_c 10.869(2)
_cell_angle_alpha 90
_cell_angle_beta 100.21(3)
_cell_angle_gamma 90
_cell_formula_units_Z 2
loop_
_atom_type_symbol
_atom_type_radius_bond
C 0.68
H 0.23
N 0.68
O 0.68
loop_
_atom_site_label
_atom_site_type_symbol
_atom_site_fract_x
_atom_site_fract_y
_atom_site_fract_z
N1 N 0.92315(16) 0.1043(3) 0.34785(15)
O1 O 1.07587(14) 0.2209(3) 0.51716(13)
H1 H 1.07910 0.35250 0.55960
C1 C 1.0257(2) 0.2598(3) 0.39069(19)
H2 H 0.99270 0.40860 0.37940
C2 C 1.1174(2) 0.2141(4) 0.2993(2)
C3 C 1.2097(2) 0.3996(4) 0.3007(2)
H3 H 1.16250 0.53050 0.27550
H4 H 1.26710 0.37010 0.24220
H5 H 1.25850 0.41700 0.38520
C4 C 1.1895(2) 0.0064(4) 0.3348(2)
H6 H 1.24880 0.02630 0.41340
H7 H 1.23620 -0.03310 0.26860
H8 H 1.12960 -0.10690 0.34510
C5 C 1.0244(2) 0.1955(4) 0.17391(19)
H9 H 1.05730 0.09510 0.11730
H10 H 1.01190 0.33600 0.13240
C6 C 0.8978(2) 0.1121(4) 0.20615(19)
C7 C 0.8609(2) -0.1098(4) 0.1524(2)
H11 H 0.93130 -0.20850 0.17750
H12 H 0.84120 -0.10170 0.06100
H13 H 0.78680 -0.16080 0.18450
C8 C 0.78736(19) 0.2663(3) 0.18024(19)
C9 C 0.7422(2) 0.2936(3) 0.28701(19)
O2 O 0.80713(13) 0.1886(3) 0.38773(13)
C10 C 0.6256(2) 0.4008(4) 0.31649(19)
O3 O 0.53543(15) 0.2985(3) 0.33336(17)
O4 O 0.63812(14) 0.6093(3) 0.32492(14)
C11 C 0.5316(2) 0.7228(4) 0.3620(2)
H14 H 0.45440 0.69180 0.30220
H15 H 0.54810 0.87630 0.36300
H16 H 0.52130 0.67630 0.44570
C12 C 0.7368(2) 0.3505(4) 0.0554(2)
O5 O 0.77975(17) 0.3111(3) -0.03743(15)
O6 O 0.63497(15) 0.4751(3) 0.05637(15)
C13 C 0.5780(3) 0.5674(5) -0.0630(2)
H17 H 0.64030 0.65610 -0.09470
H18 H 0.50550 0.65490 -0.05200
H19 H 0.54990 0.45330 -0.12300
#END
