
#######################################################################
#
#                 Cambridge Crystallographic Data Centre
#                                CCDC
#
#######################################################################
#
# If this CIF has been generated from an entry in the Cambridge
# Structural Database, then it will include bibliographic, chemical,
# crystal, experimental, refinement or atomic coordinate data resulting
# from the CCDC's data processing and validation procedures.
#
#######################################################################

data_CSD_CIF_QOHSOW
_audit_creation_date 2009-03-02
_audit_creation_method CSD-ConQuest-V1
_database_code_CSD QOHSOW
_database_code_depnum_ccdc_archive 'CCDC 675246'
_chemical_formula_sum 'C39 H49 N5 O2'
_chemical_formula_moiety
;
C39 H49 N5 O2
;
_journal_coden_Cambridge 16
_journal_volume 64
_journal_year 2008
_journal_page_first 9244
_journal_name_full 'Tetrahedron '
loop_
_publ_author_name
"Wenzhi Yang"
"Zhenming Yin"
"Chun-Hua Wang"
"Chengyun Huang"
"Jiaqi He"
"Xiaoqing Zhu"
"Jin-Pei Cheng"
_chemical_name_systematic
;
5,5,15,15,20,20-hexaethyl-10-methyl-10-(3-nitrophenyl)-5,10,15,20,22,24-hexahy
droporphyrin
;
_cell_volume   3430.517
_exptl_crystal_colour 'colorless'
_exptl_crystal_density_diffrn 1.2
_exptl_special_details
;
1,3-alternate conformer

;
_exptl_crystal_description 'prism'
_exptl_crystal_preparation 'acetonitrile'
_diffrn_ambient_temperature 293
#These two values have been output from a single CSD field.
_refine_ls_R_factor_gt 0.0624
_refine_ls_wR_factor_gt 0.0624
_symmetry_cell_setting monoclinic
_symmetry_space_group_name_H-M 'P 21/c'
_symmetry_Int_Tables_number 14
loop_
_symmetry_equiv_pos_site_id
_symmetry_equiv_pos_as_xyz
1 x,y,z
2 -x,1/2+y,1/2-z
3 -x,-y,-z
4 x,-1/2-y,-1/2+z
_cell_length_a 12.525(3)
_cell_length_b 16.783(3)
_cell_length_c 19.490(6)
_cell_angle_alpha 90
_cell_angle_beta 123.14(2)
_cell_angle_gamma 90
_cell_formula_units_Z 4
loop_
_atom_type_symbol
_atom_type_radius_bond
C 0.68
H 0.23
N 0.68
O 0.68
loop_
_atom_site_label
_atom_site_type_symbol
_atom_site_fract_x
_atom_site_fract_y
_atom_site_fract_z
C1 C 0.24957(17) -0.11531(10) 0.18521(11)
C2 C 0.12180(17) -0.10634(12) 0.15572(12)
H1 H 0.07090 -0.15000 0.14840
C3 C 0.07231(17) -0.02991(12) 0.13740(12)
H2 H -0.01330 -0.02170 0.11760
C4 C 0.14925(16) 0.03423(11) 0.14840(11)
H3 H 0.11430 0.08520 0.13600
C5 C 0.27818(15) 0.0247(1) 0.17767(11)
C6 C 0.32796(16) -0.05188(10) 0.19606(11)
H4 H 0.41330 -0.06050 0.21550
C7 C 0.36176(16) 0.09782(10) 0.19180(11)
C8 C 0.36418(17) 0.15172(11) 0.25693(11)
H5 H 0.41810 0.19690 0.26740
H6 H 0.39670 0.12210 0.30670
H7 H 0.27930 0.16960 0.23710
C9 C 0.30695(15) 0.14342(10) 0.11233(11)
C10 C 0.21078(16) 0.12681(11) 0.03340(11)
H8 H 0.15840 0.08210 0.01590
C11 C 0.20507(16) 0.18985(11) -0.01719(11)
H9 H 0.14840 0.19360 -0.07370
C12 C 0.29750(15) 0.24401(10) 0.03172(10)
C13 C 0.32694(15) 0.32619(10) 0.01508(10)
C14 C 0.27903(16) 0.38813(10) 0.05181(11)
H10 H 0.32530 0.38010 0.11060
H11 H 0.29930 0.44120 0.04240
C15 C 0.13679(18) 0.38419(13) 0.01695(13)
H12 H 0.08980 0.39530 -0.04070
H13 H 0.11560 0.42290 0.04390
H14 H 0.11530 0.33190 0.02570
C16 C 0.25980(16) 0.33807(11) -0.07863(10)
H15 H 0.29000 0.29770 -0.09970
H16 H 0.16890 0.33020 -0.10450
C17 C 0.2820(2) 0.41935(12) -0.10231(12)
H17 H 0.24730 0.45960 -0.08490
H18 H 0.24080 0.42200 -0.16070
H19 H 0.37180 0.42800 -0.07630
C18 C 0.46883(15) 0.33675(10) 0.05582(10)
C19 C 0.54928(16) 0.39664(10) 0.10422(11)
H20 H 0.52630 0.44180 0.12090
C20 C 0.67362(16) 0.37773(10) 0.12447(11)
H21 H 0.74640 0.40840 0.15680
C21 C 0.66806(15) 0.30679(10) 0.08832(10)
C22 C 0.77057(15) 0.26023(10) 0.08685(11)
C23 C 0.77926(18) 0.28830(11) 0.01427(12)
H22 H 0.83870 0.25390 0.01110
H23 H 0.69630 0.28150 -0.03610
C24 C 0.8212(2) 0.37435(13) 0.01896(14)
H24 H 0.76270 0.40920 0.02150
H25 H 0.82230 0.38670 -0.02880
H26 H 0.90510 0.38140 0.06710
C25 C 0.89906(16) 0.27461(11) 0.16995(11)
H27 H 0.91610 0.33140 0.17650
H28 H 0.88960 0.25740 0.21390
C26 C 1.01392(17) 0.23235(13) 0.17950(14)
H29 H 0.99580 0.17650 0.16870
H30 H 1.08650 0.23950 0.23440
H31 H 1.03200 0.25430 0.14140
C27 C 0.74189(15) 0.17202(10) 0.07692(10)
C28 C 0.73418(17) 0.11752(11) 0.02197(11)
H32 H 0.73920 0.12890 -0.02290
C29 C 0.71720(16) 0.04096(11) 0.04520(11)
H33 H 0.70930 -0.00660 0.01830
C30 C 0.71443(15) 0.04921(10) 0.11408(11)
C31 C 0.71201(15) -0.01304(10) 0.16931(11)
C32 C 0.84915(17) -0.04275(12) 0.23124(12)
H34 H 0.84830 -0.07420 0.27270
H35 H 0.87360 -0.07790 0.20260
C33 C 0.95022(18) 0.02048(13) 0.27393(13)
H36 H 0.96050 0.04770 0.23460
H37 H 1.02950 -0.00390 0.31460
H38 H 0.92510 0.05790 0.29980
C34 C 0.62989(18) -0.08455(10) 0.11536(12)
H39 H 0.54560 -0.06500 0.07400
H40 H 0.66790 -0.10580 0.08720
C35 C 0.6156(2) -0.15184(11) 0.16180(14)
H41 H 0.69770 -0.17470 0.19990
H42 H 0.56020 -0.19200 0.12380
H43 H 0.57990 -0.13140 0.19100
C36 C 0.65472(15) 0.02101(10) 0.21381(10)
C37 C 0.70068(17) 0.03181(11) 0.29482(11)
H44 H 0.78270 0.01990 0.33850
C38 C 0.60140(17) 0.06433(11) 0.30069(11)
H45 H 0.60690 0.07740 0.34890
C39 C 0.49677(15) 0.07302(9) 0.22339(10)
N1 N 0.30647(16) -0.19524(10) 0.21057(11)
N2 N 0.35919(12) 0.21475(8) 0.11040(9)
H46 H 0.42190 0.23800 0.15260
N3 N 0.54238(12) 0.28236(8) 0.04599(9)
H47 H 0.51390 0.23940 0.01750
N4 N 0.72888(13) 0.12941(8) 0.13251(9)
H48 H 0.72970 0.15010 0.17320
N5 N 0.52970(13) 0.04642(8) 0.17039(9)
H49 H 0.47950 0.04580 0.11790
O1 O 0.24065(16) -0.25049(8) 0.20876(12)
O2 O 0.41933(13) -0.20319(8) 0.23392(9)
#END
