
#######################################################################
#
#                 Cambridge Crystallographic Data Centre
#                                CCDC
#
#######################################################################
#
# If this CIF has been generated from an entry in the Cambridge
# Structural Database, then it will include bibliographic, chemical,
# crystal, experimental, refinement or atomic coordinate data resulting
# from the CCDC's data processing and validation procedures.
#
#######################################################################

data_CSD_CIF_QOLXOE
_audit_creation_date 2001-08-09
_audit_creation_method CSD-ConQuest-V1
_database_code_CSD QOLXOE
_database_code_depnum_ccdc_archive 'CCDC 163411'
_chemical_formula_sum 'C15 H16 N6 O6'
_chemical_formula_moiety
;
C15 H16 N6 O6
;
_journal_coden_Cambridge 35
_journal_volume 66
_journal_year 2001
_journal_page_first 3090
_journal_name_full 'J.Org.Chem. '
loop_
_publ_author_name
"J.E.Saavedra"
"A.Srinivasan"
"C.L.Bonifant"
"Jingxi Chu"
"A.P.Shanklin"
"J.L.Flippen-Anderson"
"W.G.Rice"
"J.A.Turpin"
"K.M.Davies"
"L.K.Keefer"
_chemical_name_systematic
;
2-(2,4-Dinitro-5-(methyl(phenyl)amino)phenoxy)-1-(dimethylamino)diazene 
1-oxide
;
_chemical_melting_point 436.15
_cell_volume   1708.252
_exptl_crystal_colour 'yellow'
_exptl_crystal_density_diffrn 1.463
_exptl_special_details
;
Melting point range 436.15-437.15K

;
_exptl_crystal_description 'thin plate'
_diffrn_ambient_temperature ?
_diffrn_special_details
;
The study was carried out at room temperature,in the range 283-303K

;
#These two values have been output from a single CSD field.
_refine_ls_R_factor_gt 0.056
_refine_ls_wR_factor_gt 0.056
_symmetry_cell_setting monoclinic
_symmetry_space_group_name_H-M 'P 21/n'
_symmetry_Int_Tables_number 14
loop_
_symmetry_equiv_pos_site_id
_symmetry_equiv_pos_as_xyz
1 x,y,z
2 1/2+x,1/2-y,1/2+z
3 -x,-y,-z
4 -1/2-x,-1/2+y,-1/2-z
_cell_length_a 13.152(3)
_cell_length_b 7.3661(15)
_cell_length_c 17.821(4)
_cell_angle_alpha 90
_cell_angle_beta 98.333(18)
_cell_angle_gamma 90
_cell_formula_units_Z 4
loop_
_atom_type_symbol
_atom_type_radius_bond
C 0.68
H 0.23
N 0.68
O 0.68
loop_
_atom_site_label
_atom_site_type_symbol
_atom_site_fract_x
_atom_site_fract_y
_atom_site_fract_z
C1 C 0.5159(3) 0.2957(5) 0.5449(2)
C2 C 0.5652(3) 0.2406(5) 0.48350(18)
C3 C 0.6704(3) 0.2535(5) 0.48980(19)
H1 H 0.70380 0.21190 0.45050
C4 C 0.7264(3) 0.3266(5) 0.55321(19)
C5 C 0.6802(3) 0.4045(5) 0.61255(18)
C6 C 0.5725(3) 0.3806(5) 0.60673(19)
H2 H 0.53870 0.42310 0.64560
O1 O 0.41275(18) 0.2640(4) 0.53961(13)
N1 N 0.3702(2) 0.3509(5) 0.59895(17)
N2 N 0.2880(2) 0.2607(5) 0.60539(17)
O2 O 0.2539(2) 0.1279(4) 0.56718(17)
N3 N 0.2367(2) 0.3163(5) 0.66434(18)
C7 C 0.2699(4) 0.4905(7) 0.6978(3)
H3 H 0.34350 0.49280 0.70880
H4 H 0.24110 0.50760 0.74380
H5 H 0.24690 0.58610 0.66280
C8 C 0.1249(3) 0.2970(7) 0.6452(3)
H6 H 0.10900 0.17920 0.62350
H7 H 0.09900 0.38880 0.60920
H8 H 0.09350 0.31020 0.69020
N4 N 0.5110(3) 0.1669(5) 0.41364(18)
O3 O 0.5596(2) 0.1536(5) 0.35973(16)
O4 O 0.4210(2) 0.1244(5) 0.40928(15)
N5 N 0.8383(2) 0.3009(5) 0.5588(2)
O5 O 0.8773(2) 0.3171(6) 0.50111(17)
O6 O 0.88549(19) 0.2550(4) 0.61995(16)
N6 N 0.7326(2) 0.4994(4) 0.67213(15)
C9 C 0.8246(3) 0.5962(5) 0.66488(19)
C10 C 0.8297(3) 0.7057(6) 0.6028(2)
H9 H 0.77260 0.71810 0.56580
C11 C 0.9200(3) 0.7975(6) 0.5957(2)
H10 H 0.92400 0.86900 0.55320
C12 C 1.0039(3) 0.7827(6) 0.6517(3)
H11 H 1.06450 0.84360 0.64680
C13 C 0.9976(3) 0.6778(6) 0.7147(2)
H12 H 1.05370 0.67020 0.75290
C14 C 0.9080(3) 0.5829(5) 0.7215(2)
H13 H 0.90420 0.51100 0.76390
C15 C 0.6805(3) 0.5531(6) 0.7370(2)
H14 H 0.61970 0.48110 0.73710
H15 H 0.66210 0.67920 0.73250
H16 H 0.72600 0.53390 0.78350
#END
