
#######################################################################
#
#                 Cambridge Crystallographic Data Centre
#                                CCDC
#
#######################################################################
#
# If this CIF has been generated from an entry in the Cambridge
# Structural Database, then it will include bibliographic, chemical,
# crystal, experimental, refinement or atomic coordinate data resulting
# from the CCDC's data processing and validation procedures.
#
#######################################################################

data_CSD_CIF_QOMQUG
_audit_creation_date 2014-08-15
_audit_creation_method CSD-ConQuest-V1
_database_code_CSD QOMQUG
_database_code_depnum_ccdc_archive 'CCDC 1018885'
_chemical_formula_sum 'C17 H15 N1 O4'
_chemical_formula_moiety
;
C17 H15 N1 O4
;
_journal_coeditor_code "hg5405"
_journal_coden_Cambridge 1370
_journal_volume 70
_journal_year 2014
_journal_page_first o1020
_journal_name_full 'Acta Crystallogr.,Sect.E:Struct.Rep.Online '
loop_
_publ_author_name
"J.Zukerman-Schpector"
"S.H.Maganhi"
"P.J.S.Moran"
"B.R.S.de Paula"
"P.R.Nucci Jr"
"E.R.T.Tiekink"
_chemical_name_systematic
;
3-((4-Nitrophenoxy)methyl)-4-phenylbut-3-en-2-one
;
_cell_volume   1492.604
_exptl_crystal_colour 'colorless'
_exptl_crystal_density_diffrn 1.323
_exptl_crystal_description 'irregular'
_diffrn_ambient_temperature 290
#These two values have been output from a single CSD field.
_refine_ls_R_factor_gt 0.0381
_refine_ls_wR_factor_gt 0.0381
_symmetry_cell_setting monoclinic
_symmetry_space_group_name_H-M 'P 21/c'
_symmetry_Int_Tables_number 14
loop_
_symmetry_equiv_pos_site_id
_symmetry_equiv_pos_as_xyz
1 x,y,z
2 -x,1/2+y,1/2-z
3 -x,-y,-z
4 x,-1/2-y,-1/2+z
_cell_length_a 12.769(3)
_cell_length_b 9.4607(2)
_cell_length_c 13.0022(4)
_cell_angle_alpha 90
_cell_angle_beta 108.145(1)
_cell_angle_gamma 90
_cell_formula_units_Z 4
loop_
_atom_type_symbol
_atom_type_radius_bond
C 0.68
H 0.23
N 0.68
O 0.68
loop_
_atom_site_label
_atom_site_type_symbol
_atom_site_fract_x
_atom_site_fract_y
_atom_site_fract_z
O1 O 0.18817(9) 0.97520(13) 0.36449(8)
O2 O 0.07283(12) 1.20609(17) 0.47397(12)
O3 O 0.28681(13) 1.06055(17) -0.07967(11)
O4 O 0.16374(15) 0.90131(18) -0.12490(11)
N1 N 0.22052(14) 0.98328(17) -0.05788(12)
C1 C 0.19856(12) 0.98711(17) 0.26230(12)
C2 C 0.27428(14) 1.07139(18) 0.23691(13)
H1 H 0.32100 1.12910 0.28930
C3 C 0.28067(14) 1.06981(18) 0.13101(14)
H2 H 0.33280 1.12570 0.11390
C4 C 0.21123(13) 0.98717(17) 0.05269(12)
C5 C 0.13386(14) 0.90499(19) 0.07617(13)
H3 H 0.08580 0.84990 0.02270
C6 C 0.12779(14) 0.90476(19) 0.18155(13)
H4 H 0.07550 0.84850 0.19810
C7 C 0.24741(14) 1.07108(18) 0.44897(12)
H5 H 0.23140 1.16810 0.42510
H6 H 0.32610 1.05570 0.46640
C8 C 0.21127(13) 1.04372(17) 0.54754(12)
C9 C 0.11652(14) 1.13064(19) 0.55156(14)
C10 C 0.07616(17) 1.1245(2) 0.64904(16)
H7 H 0.01780 1.19180 0.64050
H8 H 0.13580 1.14660 0.71310
H9 H 0.04920 1.03130 0.65550
C11 C 0.25497(13) 0.94713(18) 0.62529(12)
H10 H 0.22270 0.94400 0.68030
C12 C 0.34410(13) 0.84741(17) 0.63703(12)
C13 C 0.38193(14) 0.80114(19) 0.55154(14)
H11 H 0.34840 0.83360 0.48150
C14 C 0.46774(15) 0.7087(2) 0.57213(15)
H12 H 0.49360 0.67930 0.51620
C15 C 0.51684(15) 0.65826(19) 0.67625(16)
H13 H 0.57620 0.59640 0.68940
C16 C 0.47913(15) 0.69833(19) 0.76078(15)
H14 H 0.51170 0.66240 0.83000
C17 C 0.39348(15) 0.79129(18) 0.74136(13)
H15 H 0.36730 0.81800 0.79770
#END
