
#######################################################################
#
#                 Cambridge Crystallographic Data Centre
#                                CCDC
#
#######################################################################
#
# If this CIF has been generated from an entry in the Cambridge
# Structural Database, then it will include bibliographic, chemical,
# crystal, experimental, refinement or atomic coordinate data resulting
# from the CCDC's data processing and validation procedures.
#
#######################################################################

data_CSD_CIF_QOMSEQ
_audit_creation_date 2001-08-08
_audit_creation_method CSD-ConQuest-V1
_database_code_CSD QOMSEQ
_database_code_depnum_ccdc_archive 'CCDC 158298'
_chemical_formula_sum 'C19 H24 N2 O7'
_chemical_formula_moiety
;
C19 H24 N2 O7
;
_journal_coden_Cambridge 16
_journal_volume 57
_journal_year 2001
_journal_page_first 4237
_journal_name_full 'Tetrahedron '
loop_
_publ_author_name
"D.Giomi"
"S.Turchi"
"A.Danesi"
"C.Faggi"
_chemical_name_systematic
;
Methyl 
(2SR,3aRS,6aRS,8RS)-2,8-diethoxy-4-phenyl-2,3,7,8-tetrahydro-6aH-1,6,9-trioxa-
5,9a-diazacyclopent(d)indene-6a-carboxylate
;
_chemical_melting_point 389.15
_cell_volume   1973.963
_exptl_crystal_colour 'white'
_exptl_crystal_density_diffrn 1.32
_exptl_special_details
;
Melting point range 389.15-389.65K
There are slight variations in the published cell parameters b (11.590) and c 
(13.450)
;
_diffrn_ambient_temperature ?
_diffrn_special_details
;
The study was carried out at room temperature,in the range 283-303K

;
#These two values have been output from a single CSD field.
_refine_ls_R_factor_gt 0.0413
_refine_ls_wR_factor_gt 0.0413
_symmetry_cell_setting monoclinic
_symmetry_space_group_name_H-M 'P 21/c'
_symmetry_Int_Tables_number 14
loop_
_symmetry_equiv_pos_site_id
_symmetry_equiv_pos_as_xyz
1 x,y,z
2 -x,1/2+y,1/2-z
3 -x,-y,-z
4 x,-1/2-y,-1/2+z
_cell_length_a 12.804(2)
_cell_length_b 11.587(1)
_cell_length_c 13.453(1)
_cell_angle_alpha 90
_cell_angle_beta 98.500(8)
_cell_angle_gamma 90
_cell_formula_units_Z 4
loop_
_atom_type_symbol
_atom_type_radius_bond
C 0.68
H 0.23
N 0.68
O 0.68
loop_
_atom_site_label
_atom_site_type_symbol
_atom_site_fract_x
_atom_site_fract_y
_atom_site_fract_z
O1 O 0.28173(10) 0.42004(11) 0.26724(11)
O2 O 0.32806(9) 0.25239(11) 0.35702(10)
O3 O 0.04242(10) 0.15930(13) 0.49771(11)
O4 O 0.02723(11) 0.00053(13) 0.27165(12)
O5 O -0.04455(10) 0.16948(13) 0.30022(12)
O6 O 0.26588(10) 0.07373(11) 0.33807(11)
O7 O 0.31802(11) -0.07429(13) 0.45807(13)
N1 N 0.27600(11) 0.17363(13) 0.41047(12)
N2 N 0.08366(13) 0.2635(2) 0.54013(12)
C1 C 0.15478(14) 0.2970(2) 0.49158(14)
C2 C 0.09996(14) 0.1175(2) 0.41834(15)
C3 C 0.17048(13) 0.2194(2) 0.39950(13)
C4 C 0.15602(15) 0.2811(2) 0.2923(2)
H1 H 0.1193(17) 0.3533(20) 0.2938(16)
H2 H 0.1238(17) 0.2324(20) 0.2417(18)
C5 C 0.26082(15) 0.3036(2) 0.2688(2)
H3 H 0.2767(16) 0.2663(18) 0.2017(17)
C6 C 0.2364(2) -0.0231(2) 0.3945(2)
H4 H 0.2103(17) -0.0735(19) 0.3380(18)
C7 C 0.1600(2) 0.0128(2) 0.4629(2)
H5 H 0.1931(18) 0.0354(19) 0.5338(19)
H6 H 0.1160(18) -0.0494(20) 0.4686(16)
C8 C 0.02387(14) 0.0873(2) 0.3216(2)
C9 C -0.1148(2) 0.1556(2) 0.2034(2)
H7 H -0.1620(13) 0.2202(11) 0.1929(9)
H8 H -0.1549(14) 0.0858(11) 0.2047(7)
H9 H -0.0731(2) 0.1518(21) 0.1498(3)
C10 C 0.3854(2) -0.1300(3) 0.3982(3)
H10 H 0.407(3) -0.0653(35) 0.3504(30)
H11 H 0.3522(32) -0.1952(34) 0.3549(31)
C11 C 0.4723(2) -0.1773(3) 0.4706(3)
H12 H 0.5170(11) -0.2240(17) 0.4356(4)
H13 H 0.4438(2) -0.2236(17) 0.5193(11)
H14 H 0.5128(12) -0.1151(3) 0.5040(13)
C12 C 0.3763(2) 0.4461(2) 0.2330(3)
H15 H 0.4264(24) 0.4074(26) 0.2789(23)
H16 H 0.3749(24) 0.4169(27) 0.1535(26)
C13 C 0.3957(3) 0.5705(3) 0.2442(3)
H17 H 0.4625(9) 0.5889(4) 0.2239(17)
H18 H 0.3966(18) 0.5921(4) 0.3132(4)
H19 H 0.3406(10) 0.6119(3) 0.2028(13)
C14 C 0.2028(2) 0.4089(2) 0.52413(14)
C15 C 0.3046(2) 0.4276(2) 0.5296(2)
H20 H 0.3491(2) 0.3703(2) 0.5116(2)
C16 C 0.3447(2) 0.5342(3) 0.5629(2)
H21 H 0.4170(2) 0.5465(3) 0.5671(2)
C17 C 0.2843(3) 0.6208(3) 0.5894(2)
H22 H 0.3139(3) 0.6918(3) 0.6096(2)
C18 C 0.1841(3) 0.6031(2) 0.5860(2)
H23 H 0.1404(3) 0.6608(2) 0.6046(2)
C19 C 0.1435(2) 0.4974(2) 0.5547(2)
H24 H 0.0717(2) 0.4849(2) 0.5540(2)
#END
