
#######################################################################
#
#                 Cambridge Crystallographic Data Centre
#                                CCDC
#
#######################################################################
#
# If this CIF has been generated from an entry in the Cambridge
# Structural Database, then it will include bibliographic, chemical,
# crystal, experimental, refinement or atomic coordinate data resulting
# from the CCDC's data processing and validation procedures.
#
#######################################################################

data_CSD_CIF_QONHOS
_audit_creation_date 2014-08-15
_audit_creation_method CSD-ConQuest-V1
_database_code_CSD QONHOS
_database_code_depnum_ccdc_archive 'CCDC 955531'
_chemical_formula_sum 'C17 H19 N1 O4'
_chemical_formula_moiety
;
C17 H19 N1 O4
;
_journal_coden_Cambridge 692
_journal_volume 46
_journal_year 2014
_journal_page_first 2085
_journal_name_full 'Synthesis '
loop_
_publ_author_name
"Silong Xu"
"Liyi Wang"
"Yuhai Tang"
"Zhengjie He"
_chemical_name_systematic
;
ethyl 5,5-dimethyl-2-(3-nitrobenzylidene)hex-3-ynoate
;
_cell_volume   1610.301
_exptl_crystal_colour 'colorless'
_exptl_crystal_density_diffrn 1.243
_exptl_crystal_description 'prism'
_diffrn_ambient_temperature 113
#These two values have been output from a single CSD field.
_refine_ls_R_factor_gt 0.1463
_refine_ls_wR_factor_gt 0.1463
_symmetry_cell_setting monoclinic
_symmetry_space_group_name_H-M 'P 21/a'
_symmetry_Int_Tables_number 14
loop_
_symmetry_equiv_pos_site_id
_symmetry_equiv_pos_as_xyz
1 x,y,z
2 1/2-x,1/2+y,-z
3 -x,-y,-z
4 -1/2+x,-1/2-y,z
_cell_length_a 6.780(5)
_cell_length_b 13.991(12)
_cell_length_c 17.005(15)
_cell_angle_alpha 90
_cell_angle_beta 93.362(14)
_cell_angle_gamma 90
_cell_formula_units_Z 4
loop_
_atom_type_symbol
_atom_type_radius_bond
C 0.68
H 0.23
N 0.68
O 0.68
loop_
_atom_site_label
_atom_site_type_symbol
_atom_site_fract_x
_atom_site_fract_y
_atom_site_fract_z
O1 O 0.2948(8) 0.2301(3) 0.0428(2)
O2 O 0.2663(6) 0.3908(2) 0.0372(2)
O3 O 0.2591(7) 0.4295(3) 0.4625(2)
O4 O 0.2244(8) 0.3247(3) 0.5547(2)
N1 N 0.2423(7) 0.3463(3) 0.4858(3)
C1 C 0.2670(8) 0.2361(4) 0.2056(3)
H1 H 0.27250 0.17950 0.17500
C2 C 0.2659(8) 0.3177(3) 0.1634(3)
C3 C 0.2590(8) 0.4136(4) 0.1958(3)
C4 C 0.2565(8) 0.4942(3) 0.2212(3)
C5 C 0.2505(9) 0.5917(3) 0.2573(3)
C6 C 0.0650(11) 0.6023(4) 0.3034(4)
H2 H -0.05230 0.59840 0.26700
H3 H 0.06740 0.66430 0.33030
H4 H 0.06100 0.55090 0.34250
C7 C 0.4336(10) 0.6045(4) 0.3137(4)
H5 H 0.44100 0.55180 0.35180
H6 H 0.42440 0.66530 0.34190
H7 H 0.55250 0.60440 0.28360
C8 C 0.2548(11) 0.6680(4) 0.1910(3)
H8 H 0.37540 0.66030 0.16260
H9 H 0.25260 0.73210 0.21430
H10 H 0.13910 0.65980 0.15430
C9 C 0.2613(8) 0.2193(3) 0.2913(3)
C10 C 0.2538(8) 0.2932(4) 0.3482(3)
H11 H 0.24990 0.35840 0.33270
C11 C 0.2524(8) 0.2679(4) 0.4270(3)
C12 C 0.2516(9) 0.1736(4) 0.4532(3)
H12 H 0.24880 0.15950 0.50780
C13 C 0.2549(9) 0.1001(4) 0.3976(3)
H13 H 0.25450 0.03510 0.41380
C14 C 0.2589(9) 0.1238(4) 0.3174(3)
H14 H 0.26010 0.07390 0.27960
C15 C 0.2754(9) 0.3063(4) 0.0753(3)
C16 C 0.2725(13) 0.3854(4) -0.0480(3)
H15 H 0.16610 0.34290 -0.07000
H16 H 0.40100 0.35920 -0.06250
C17 C 0.2447(12) 0.4849(4) -0.0803(3)
H17 H 0.11690 0.51000 -0.06580
H18 H 0.24840 0.48340 -0.13780
H19 H 0.35090 0.52620 -0.05820
#END
