
#######################################################################
#
#                 Cambridge Crystallographic Data Centre
#                                CCDC
#
#######################################################################
#
# If this CIF has been generated from an entry in the Cambridge
# Structural Database, then it will include bibliographic, chemical,
# crystal, experimental, refinement or atomic coordinate data resulting
# from the CCDC's data processing and validation procedures.
#
#######################################################################

data_CSD_CIF_QONMUB
_audit_creation_date 2001-08-17
_audit_creation_method CSD-ConQuest-V1
_database_code_CSD QONMUB
_chemical_formula_sum 'C14 H14 N2 O3'
_chemical_formula_moiety
;
C14 H14 N2 O3
;
_journal_coden_Cambridge 35
_journal_volume 65
_journal_year 2000
_journal_page_first 4333
_journal_name_full 'J.Org.Chem. '
loop_
_publ_author_name
"Yongchun Hou"
"Wenhua Xie"
"A.J.Janczuk"
"P.G.Wang"
_chemical_name_systematic
;
N-(p-Methoxybenzyloxy)-N'-phenyldiimide N'-oxide
;
_chemical_melting_point 357.55
_cell_volume   1309.748
_exptl_crystal_density_diffrn 1.31
_exptl_special_details
;
Melting point range 357.55-357.95K

;
_diffrn_ambient_temperature ?
_diffrn_special_details
;
The study was carried out at room temperature,in the range 283-303K

;
#These two values have been output from a single CSD field.
_refine_ls_R_factor_gt 0.0467
_refine_ls_wR_factor_gt 0.0467
_symmetry_cell_setting orthorhombic
_symmetry_space_group_name_H-M 'P 21 21 21'
_symmetry_Int_Tables_number 19
loop_
_symmetry_equiv_pos_site_id
_symmetry_equiv_pos_as_xyz
1 x,y,z
2 1/2-x,-y,1/2+z
3 1/2+x,1/2-y,-z
4 -x,1/2+y,1/2-z
_cell_length_a 5.6801(5)
_cell_length_b 11.3505(10)
_cell_length_c 20.315(2)
_cell_angle_alpha 90
_cell_angle_beta 90
_cell_angle_gamma 90
_cell_formula_units_Z 4
loop_
_atom_type_symbol
_atom_type_radius_bond
C 0.68
H 0.23
N 0.68
O 0.68
loop_
_atom_site_label
_atom_site_type_symbol
_atom_site_fract_x
_atom_site_fract_y
_atom_site_fract_z
N1 N 0.1667(3) 0.2447(2) 0.6464(1)
O1 O 0.3295(3) 0.3203(2) 0.6462(1)
C1 C 0.1827(4) 0.1436(2) 0.6901(1)
C2 C 0.0164(5) 0.0562(2) 0.6888(1)
C3 C 0.0413(6) -0.0407(2) 0.7294(2)
C4 C 0.2306(5) -0.0485(3) 0.7704(2)
C5 C 0.3931(5) 0.0394(3) 0.7723(2)
C6 C 0.3714(4) 0.1370(3) 0.7318(1)
N2 N -0.0182(3) 0.2486(2) 0.6105(1)
O2 O -0.0098(2) 0.3483(1) 0.5726(1)
C7 C -0.2151(4) 0.3446(2) 0.5295(1)
C8 C -0.2197(4) 0.4577(2) 0.4915(1)
C9 C -0.4009(4) 0.5363(2) 0.4992(1)
C10 C -0.4120(4) 0.6403(2) 0.4637(1)
C11 C -0.2359(4) 0.6662(2) 0.4193(1)
C12 C -0.0518(4) 0.5883(2) 0.4113(1)
C13 C -0.0448(4) 0.4851(2) 0.4461(1)
O3 O -0.2291(3) 0.7658(2) 0.3817(1)
C14 C -0.4237(7) 0.8451(3) 0.3866(2)
H1 H -0.1048(42) 0.0646(20) 0.6642(12)
H2 H -0.0720(55) -0.1039(25) 0.7261(15)
H3 H 0.2466(46) -0.1138(23) 0.7960(13)
H4 H 0.5232(57) 0.0310(24) 0.8022(15)
H5 H 0.4777(51) 0.201(2) 0.7317(12)
H6 H -0.3569(39) 0.3424(19) 0.5576(11)
H7 H -0.1921(46) 0.2690(27) 0.4993(14)
H8 H -0.5083(43) 0.5193(21) 0.5282(12)
H9 H -0.5405(42) 0.6893(20) 0.4688(12)
H10 H 0.0630(37) 0.6125(18) 0.3784(10)
H11 H 0.0877(41) 0.4319(19) 0.4403(11)
H12 H -0.5829(63) 0.8038(28) 0.3721(16)
H13 H -0.3834(52) 0.9058(27) 0.3589(15)
H14 H -0.4387(67) 0.8691(32) 0.4307(17)
#END
