
#######################################################################
#
#                 Cambridge Crystallographic Data Centre
#                                CCDC
#
#######################################################################
#
# If this CIF has been generated from an entry in the Cambridge
# Structural Database, then it will include bibliographic, chemical,
# crystal, experimental, refinement or atomic coordinate data resulting
# from the CCDC's data processing and validation procedures.
#
#######################################################################

data_CSD_CIF_QONPOY
_audit_creation_date 2001-08-16
_audit_creation_method CSD-ConQuest-V1
_database_code_CSD QONPOY
_database_code_depnum_ccdc_archive 'CCDC 1243579'
_chemical_formula_sum 'C11 H10 N2 O3'
_chemical_formula_moiety
;
C11 H10 N2 O3
;
_journal_coden_Cambridge 34
_journal_volume 36
_journal_year 1999
_journal_page_first 881
_journal_name_full 'J.Heterocycl.Chem. '
loop_
_publ_author_name
"C.Mitsos"
"J.Petrou"
"O.Igglessi-Markopoulou"
"J.Markopoulos"
_chemical_name_systematic
;
3-(1-Hydroxyiminoethyl)-4-hydroxyquinolin-2(1H)-one
;
_chemical_melting_point 477.15
_cell_volume    484.803
_exptl_crystal_colour 'white'
_exptl_crystal_density_diffrn 1.495
_exptl_crystal_description 'prisms'
_diffrn_ambient_temperature ?
_diffrn_special_details
;
The study was carried out at room temperature,in the range 283-303K

;
#These two values have been output from a single CSD field.
_refine_ls_R_factor_gt 0.048
_refine_ls_wR_factor_gt 0.048
_symmetry_cell_setting triclinic
_symmetry_space_group_name_H-M 'P -1'
_symmetry_Int_Tables_number 2
loop_
_symmetry_equiv_pos_site_id
_symmetry_equiv_pos_as_xyz
1 x,y,z
2 -x,-y,-z
_cell_length_a 8.125(3)
_cell_length_b 10.187(3)
_cell_length_c 7.198(2)
_cell_angle_alpha 99.97(2)
_cell_angle_beta 112.00(2)
_cell_angle_gamma 110.46(2)
_cell_formula_units_Z 2
loop_
_atom_type_symbol
_atom_type_radius_bond
C 0.68
H 0.23
N 0.68
O 0.68
loop_
_atom_site_label
_atom_site_type_symbol
_atom_site_fract_x
_atom_site_fract_y
_atom_site_fract_z
O1 O -0.1301(3) -0.1569(2) 0.2490(3)
O2 O -0.3334(3) 0.0443(2) -0.2992(3)
O3 O -0.2925(3) -0.2985(2) -0.5329(3)
N1 N -0.18010 0.04640 0.31130
N2 N -0.2739(4) -0.1790(3) -0.3825(4)
C1 C -0.2237(4) 0.1578(3) 0.2537(5)
C2 C -0.2099(4) 0.2714(3) 0.4071(5)
C3 C -0.2473(5) 0.3841(3) 0.3503(5)
C4 C -0.2995(5) 0.3846(3) 0.1428(5)
C5 C -0.3149(4) 0.2724(3) -0.0087(5)
C6 C -0.2768(4) 0.1563(3) 0.0445(5)
C7 C -0.2851(4) 0.0368(3) -0.1041(4)
C8 C -0.2454(4) -0.0767(3) -0.0479(4)
C9 C -0.1845(4) -0.0684(3) 0.1718(4)
C10 C -0.2581(4) -0.1998(3) -0.2056(4)
C11 C -0.2578(5) -0.3399(3) -0.1702(5)
H1 H -0.14530 0.04870 0.45390
H2 H -0.17240 0.27150 0.55080
H3 H -0.23660 0.46370 0.45600
H4 H -0.32800 0.46380 0.10430
H5 H -0.35220 0.27330 -0.15370
H6 H -0.38030 -0.42450 -0.27500
H7 H -0.15050 -0.35220 -0.18130
H8 H -0.24420 -0.33580 -0.03180
H9 H -0.33530 -0.05050 -0.38480
H10 H -0.25290 -0.24760 -0.63010
#END
