
#######################################################################
#
#                 Cambridge Crystallographic Data Centre
#                                CCDC
#
#######################################################################
#
# If this CIF has been generated from an entry in the Cambridge
# Structural Database, then it will include bibliographic, chemical,
# crystal, experimental, refinement or atomic coordinate data resulting
# from the CCDC's data processing and validation procedures.
#
#######################################################################

data_CSD_CIF_QONWIB
_audit_creation_date 2014-08-18
_audit_creation_method CSD-ConQuest-V1
_database_code_CSD QONWIB
_database_code_depnum_ccdc_archive 'CCDC 977830'
_chemical_formula_sum 'C29 H18 N2 O5'
_chemical_formula_moiety
;
C29 H18 N2 O5
;
_journal_coden_Cambridge 1277
_journal_volume 118
_journal_year 2014
_journal_page_first 3479
_journal_name_full 'J.Phys.Chem.A '
loop_
_publ_author_name
"R.Pal"
"S.Mukherjee"
"S.Chandrasekhar"
"T.N.Guru Row"
_chemical_name_systematic
;
2,5-bis(4-Nitrophenyl)-3,4-diphenylcyclopenta-2,4-dien-1-one
;
_cell_volume   4682.685
_exptl_crystal_colour 'dark red'
_exptl_crystal_density_diffrn 1.346
_exptl_crystal_description 'block'
_exptl_crystal_preparation 'dichloromethane/hexane'
_diffrn_ambient_temperature 110
#These two values have been output from a single CSD field.
_refine_ls_R_factor_gt 0.058
_refine_ls_wR_factor_gt 0.058
_symmetry_cell_setting monoclinic
_symmetry_space_group_name_H-M 'C 2/c'
_symmetry_Int_Tables_number 15
loop_
_symmetry_equiv_pos_site_id
_symmetry_equiv_pos_as_xyz
1 x,y,z
2 -x,y,1/2-z
3 1/2+x,1/2+y,z
4 1/2-x,1/2+y,1/2-z
5 -x,-y,-z
6 x,-y,-1/2+z
7 -1/2-x,-1/2-y,-z
8 -1/2+x,-1/2-y,-1/2+z
_cell_length_a 28.491(2)
_cell_length_b 9.4151(6)
_cell_length_c 18.4113(13)
_cell_angle_alpha 90
_cell_angle_beta 108.531(8)
_cell_angle_gamma 90
_cell_formula_units_Z 8
loop_
_atom_type_symbol
_atom_type_radius_bond
C 0.68
H 0.23
N 0.68
O 0.68
loop_
_atom_site_label
_atom_site_type_symbol
_atom_site_fract_x
_atom_site_fract_y
_atom_site_fract_z
C1 C 0.0667(1) 0.7027(3) 0.11792(15)
C2 C 0.11294(10) 0.7110(3) 0.18584(14)
C3 C 0.14694(10) 0.7796(2) 0.16187(13)
C4 C 0.12351(10) 0.8262(2) 0.07962(13)
C5 C 0.07657(10) 0.7796(3) 0.05297(14)
C6 C 0.03849(10) 0.8041(3) -0.02196(15)
C7 C 0.00681(11) 0.6952(3) -0.05858(16)
H1 H 0.00950 0.60660 -0.03520
C8 C -0.02877(11) 0.7162(3) -0.12932(17)
H2 H -0.04940 0.64250 -0.15410
C9 C -0.03271(10) 0.8488(3) -0.16172(16)
C10 C -0.00217(11) 0.9601(3) -0.12726(16)
H3 H -0.00560 1.04880 -0.15060
C11 C 0.03367(11) 0.9369(3) -0.05727(15)
H4 H 0.05470 1.01050 -0.03350
C12 C 0.15025(9) 0.9156(2) 0.03999(13)
C13 C 0.15226(10) 0.8791(3) -0.03243(13)
H5 H 0.13800 0.79480 -0.05540
C14 C 0.17542(11) 0.9681(3) -0.06987(15)
H6 H 0.17700 0.94260 -0.11780
C15 C 0.19625(10) 1.0942(3) -0.03720(14)
H7 H 0.21150 1.15400 -0.06310
C16 C 0.19431(10) 1.1311(3) 0.03447(14)
H8 H 0.20820 1.21640 0.05670
C17 C 0.17194(10) 1.0421(3) 0.07306(14)
H9 H 0.17140 1.06690 0.12170
C18 C 0.19908(10) 0.8084(2) 0.20468(13)
C19 C 0.23693(10) 0.7658(2) 0.17680(14)
H10 H 0.22920 0.72360 0.12880
C20 C 0.28575(10) 0.7857(3) 0.21982(15)
H11 H 0.31080 0.75440 0.20150
C21 C 0.29747(11) 0.8528(3) 0.29065(15)
H12 H 0.33040 0.86550 0.32000
C22 C 0.26019(11) 0.9004(3) 0.31732(15)
H13 H 0.26800 0.94810 0.36390
C23 C 0.21141(11) 0.8775(3) 0.27509(14)
H14 H 0.18640 0.90840 0.29380
C24 C 0.1172(1) 0.6537(3) 0.26246(14)
C25 C 0.07703(11) 0.6626(3) 0.29043(15)
H15 H 0.04710 0.69890 0.25900
C26 C 0.08079(11) 0.6187(3) 0.36396(16)
H16 H 0.05420 0.62710 0.38260
C27 C 0.12536(10) 0.5619(3) 0.40878(14)
C28 C 0.16538(10) 0.5473(3) 0.38279(14)
H17 H 0.19470 0.50680 0.41370
C29 C 0.16106(10) 0.5942(2) 0.30976(14)
H18 H 0.18800 0.58580 0.29180
N1 N -0.07124(10) 0.8745(3) -0.23594(16)
N2 N 0.13042(9) 0.5192(2) 0.48801(12)
O1 O 0.02819(7) 0.6447(2) 0.11630(11)
O2 O -0.09493(9) 0.7712(3) -0.27057(14)
O3 O -0.07704(9) 0.9962(3) -0.26081(13)
O4 O 0.09670(8) 0.5470(2) 0.51383(11)
O5 O 0.16859(7) 0.4581(2) 0.52504(10)
#END
