
#######################################################################
#
#                 Cambridge Crystallographic Data Centre
#                                CCDC
#
#######################################################################
#
# If this CIF has been generated from an entry in the Cambridge
# Structural Database, then it will include bibliographic, chemical,
# crystal, experimental, refinement or atomic coordinate data resulting
# from the CCDC's data processing and validation procedures.
#
#######################################################################

data_CSD_CIF_QONWOH
_audit_creation_date 2014-08-18
_audit_creation_method CSD-ConQuest-V1
_database_code_CSD QONWOH
_database_code_depnum_ccdc_archive 'CCDC 977831'
_chemical_formula_sum 'C30 H21 N1 O4'
_chemical_formula_moiety
;
C30 H21 N1 O4
;
_journal_coden_Cambridge 1277
_journal_volume 118
_journal_year 2014
_journal_page_first 3479
_journal_name_full 'J.Phys.Chem.A '
loop_
_publ_author_name
"R.Pal"
"S.Mukherjee"
"S.Chandrasekhar"
"T.N.Guru Row"
_chemical_name_systematic
;
3-(4-Methoxyphenyl)-4-(3-nitrophenyl)-2,5-diphenylcyclopenta-2,4-dien-1-one
;
_cell_volume   2231.956
_exptl_crystal_colour 'dark red'
_exptl_crystal_density_diffrn 1.367
_exptl_crystal_description 'plate'
_exptl_crystal_preparation 'dichloromethane/hexane'
_diffrn_ambient_temperature 110
#These two values have been output from a single CSD field.
_refine_ls_R_factor_gt 0.058
_refine_ls_wR_factor_gt 0.058
_symmetry_cell_setting monoclinic
_symmetry_space_group_name_H-M 'P 21/c'
_symmetry_Int_Tables_number 14
loop_
_symmetry_equiv_pos_site_id
_symmetry_equiv_pos_as_xyz
1 x,y,z
2 -x,1/2+y,1/2-z
3 -x,-y,-z
4 x,-1/2-y,-1/2+z
_cell_length_a 10.6891(4)
_cell_length_b 9.8020(3)
_cell_length_c 21.9169(9)
_cell_angle_alpha 90
_cell_angle_beta 103.599(4)
_cell_angle_gamma 90
_cell_formula_units_Z 4
loop_
_atom_type_symbol
_atom_type_radius_bond
C 0.68
H 0.23
N 0.68
O 0.68
loop_
_atom_site_label
_atom_site_type_symbol
_atom_site_fract_x
_atom_site_fract_y
_atom_site_fract_z
O1 O 0.28844(13) 0.26006(15) -0.00382(6)
O2 O 0.90907(14) 0.63622(15) 0.28477(7)
O3 O 1.12544(14) -0.04781(17) 0.10145(7)
N1 N 1.01244(17) -0.02657(19) 0.10193(8)
C1 C 0.62283(18) 0.2603(2) 0.03409(9)
O4 O 0.94928(16) -0.10014(17) 0.12892(8)
C2 C 0.46095(19) 0.3574(2) 0.07646(9)
C3 C 0.78025(19) 0.5009(2) 0.12523(9)
H1 H 0.79140 0.50950 0.08460
C4 C 0.38386(18) 0.4424(2) 0.10955(9)
C5 C 0.75875(18) 0.2292(2) 0.03354(9)
C6 C 0.40361(19) 0.2758(2) 0.01869(9)
C7 C 0.94796(19) 0.0931(2) 0.06730(9)
C8 C 0.82083(19) 0.1191(2) 0.06795(9)
H2 H 0.77780 0.06410 0.09090
C9 C 0.59021(19) 0.34768(19) 0.08505(9)
C10 C 0.68668(18) 0.4125(2) 0.13645(9)
C11 C 0.85814(18) 0.5772(2) 0.17328(9)
H3 H 0.91960 0.63670 0.16470
C12 C 0.67571(19) 0.3973(2) 0.19883(9)
H4 H 0.61540 0.33680 0.20770
C13 C 0.8276(2) 0.3106(2) 0.00038(9)
H5 H 0.78730 0.38470 -0.02260
C14 C 0.9553(2) 0.2823(2) 0.00129(10)
H6 H 0.99980 0.33800 -0.02070
C15 C 0.49446(19) 0.13297(19) -0.06303(9)
C16 C 0.84255(19) 0.5630(2) 0.23418(9)
C17 C 0.2309(2) 0.6149(2) 0.1636(1)
H7 H 0.17920 0.67270 0.18070
C18 C 0.58601(19) 0.0383(2) -0.07268(9)
H8 H 0.65970 0.02340 -0.04110
C19 C 0.2650(2) 0.3988(2) 0.11852(10)
H9 H 0.23620 0.31120 0.10640
C20 C 0.3681(2) 0.0788(2) -0.1676(1)
H10 H 0.29450 0.09220 -0.19940
C21 C 0.38337(19) 0.1504(2) -0.11183(9)
H11 H 0.31960 0.21070 -0.10660
C22 C 0.51332(19) 0.2163(2) -0.00602(9)
C23 C 0.3501(2) 0.6593(2) 0.15645(9)
H12 H 0.37910 0.74640 0.16940
C24 C 0.42582(19) 0.5732(2) 0.12984(9)
H13 H 0.50580 0.60320 0.12550
C25 C 1.01656(19) 0.1725(2) 0.03455(9)
H14 H 1.10180 0.15230 0.03490
C26 C 0.5689(2) -0.0334(2) -0.12840(9)
H15 H 0.63060 -0.09640 -0.13360
C27 C 0.7527(2) 0.4705(2) 0.24685(9)
H16 H 0.74480 0.45820 0.28790
C28 C 0.1898(2) 0.4844(2) 0.1452(1)
H17 H 0.11090 0.45380 0.15080
C29 C 0.4607(2) -0.0122(2) -0.1765(1)
H18 H 0.45060 -0.05870 -0.21430
C30 C 1.0093(2) 0.7246(2) 0.27506(10)
H19 H 1.07420 0.67150 0.26220
H20 H 1.04690 0.77150 0.31340
H21 H 0.97400 0.78990 0.24300
#END
