
#######################################################################
#
#                 Cambridge Crystallographic Data Centre
#                                CCDC
#
#######################################################################
#
# If this CIF has been generated from an entry in the Cambridge
# Structural Database, then it will include bibliographic, chemical,
# crystal, experimental, refinement or atomic coordinate data resulting
# from the CCDC's data processing and validation procedures.
#
#######################################################################

data_CSD_CIF_QOPWID
_audit_creation_date 2014-08-18
_audit_creation_method CSD-ConQuest-V1
_database_code_CSD QOPWID
_database_code_depnum_ccdc_archive 'CCDC 993489'
_chemical_formula_sum 'C22 H20 N2 O3'
_chemical_formula_moiety
;
C22 H20 N2 O3
;
_journal_coden_Cambridge 1500
_journal_volume 4
_journal_year 2014
_journal_page_first 35635
_journal_name_full 'RSC Advances '
loop_
_publ_author_name
"Ya-Jun Tan"
"Ze Zhang"
"Fang-Jian Wang"
"Hao-Hao Wu"
"Qing-Hai Li"
_chemical_name_systematic
;
6-methoxy-2-(3-nitrophenyl)-4-phenyl-1,2,3,4-tetrahydroquinoline
;
_cell_volume    949.056
_exptl_crystal_colour 'red'
_exptl_crystal_density_diffrn 1.261
_exptl_crystal_description 'block'
_diffrn_ambient_temperature 296
#These two values have been output from a single CSD field.
_refine_ls_R_factor_gt 0.057
_refine_ls_wR_factor_gt 0.057
_symmetry_cell_setting triclinic
_symmetry_space_group_name_H-M 'P -1'
_symmetry_Int_Tables_number 2
loop_
_symmetry_equiv_pos_site_id
_symmetry_equiv_pos_as_xyz
1 x,y,z
2 -x,-y,-z
_cell_length_a 9.226(5)
_cell_length_b 9.609(5)
_cell_length_c 12.006(7)
_cell_angle_alpha 84.063(13)
_cell_angle_beta 72.757(12)
_cell_angle_gamma 69.008(12)
_cell_formula_units_Z 2
loop_
_atom_type_symbol
_atom_type_radius_bond
C 0.68
H 0.23
N 0.68
O 0.68
loop_
_atom_site_label
_atom_site_type_symbol
_atom_site_fract_x
_atom_site_fract_y
_atom_site_fract_z
C1 C 0.8425(2) 0.6496(2) 0.61006(16)
H1 H 0.93940 0.65500 0.61430
C2 C 0.8015(2) 0.6786(2) 0.50614(17)
C3 C 0.6606(3) 0.6715(3) 0.49432(19)
H2 H 0.63630 0.68990 0.42320
C4 C 0.5558(3) 0.6356(3) 0.5929(2)
H3 H 0.45890 0.63100 0.58790
C5 C 0.5930(2) 0.6064(3) 0.69849(19)
H4 H 0.52090 0.58280 0.76340
C6 C 0.7380(2) 0.6122(2) 0.70836(17)
C7 C 0.7815(2) 0.5791(2) 0.82212(16)
H5 H 0.89420 0.57200 0.80750
C8 C 0.6755(2) 0.6977(2) 0.91606(17)
H6 H 0.56490 0.69930 0.93740
H7 H 0.67630 0.79510 0.88580
C9 C 0.7387(2) 0.66380(19) 1.02400(16)
H8 H 0.84050 0.68360 1.00290
C10 C 0.6230(2) 0.76898(19) 1.12417(16)
C11 C 0.6589(3) 0.8837(2) 1.1559(2)
H9 H 0.75530 0.89820 1.11530
C12 C 0.5530(4) 0.9782(3) 1.2480(3)
H10 H 0.57870 1.05540 1.26840
C13 C 0.4109(4) 0.9579(3) 1.3089(2)
H11 H 0.34040 1.02110 1.37060
C14 C 0.3730(3) 0.8450(3) 1.2788(2)
H12 H 0.27710 0.83060 1.32060
C15 C 0.4771(2) 0.7516(2) 1.1861(2)
H13 H 0.44900 0.67630 1.16510
C16 C 0.77799(18) 0.49852(19) 1.05740(15)
C17 C 0.8048(2) 0.4502(2) 1.16504(16)
H14 H 0.79500 0.51980 1.21770
C18 C 0.8462(2) 0.2995(2) 1.19626(17)
C19 C 0.8615(2) 0.1944(2) 1.11857(19)
H15 H 0.88910 0.09390 1.13820
C20 C 0.8347(2) 0.2423(2) 1.01045(18)
H16 H 0.84360 0.17240 0.95840
C21 C 0.7947(2) 0.3927(2) 0.97773(16)
C22 C 0.9126(4) 0.1135(3) 1.3413(3)
H17 H 0.83050 0.07550 1.33890
H18 H 0.92260 0.10580 1.41920
H19 H 1.01400 0.05660 1.28920
N1 N 0.9133(2) 0.7201(2) 0.40382(16)
N2 N 0.7667(2) 0.43540(19) 0.86834(15)
O1 O 0.8941(2) 0.7189(3) 0.30844(15)
O2 O 1.0243(3) 0.7491(3) 0.41771(16)
O3 O 0.86930(19) 0.26604(17) 1.30633(14)
H20 H 0.826(3) 0.361(3) 0.815(2)
#END
