
#######################################################################
#
#                 Cambridge Crystallographic Data Centre
#                                CCDC
#
#######################################################################
#
# If this CIF has been generated from an entry in the Cambridge
# Structural Database, then it will include bibliographic, chemical,
# crystal, experimental, refinement or atomic coordinate data resulting
# from the CCDC's data processing and validation procedures.
#
#######################################################################

data_CSD_CIF_QOQHOV
_audit_creation_date 2014-08-18
_audit_creation_method CSD-ConQuest-V1
_database_code_CSD QOQHOV
_database_code_depnum_ccdc_archive 'CCDC 955135; not CCDC 995135 as published'
_chemical_formula_sum 'C24 H28 N2 O4'
_chemical_formula_moiety
;
C24 H28 N2 O4
;
_journal_coden_Cambridge 1003
_journal_volume 44
_journal_year 2014
_journal_page_first 401
_journal_name_full 'J.Chem.Cryst. '
loop_
_publ_author_name
"C.R.Metz"
"J.L.Radke"
"W.G.Shuler"
"M.G.Celli"
"C.D.McMillen"
"W.T.Pennington"
"C.F.Beam"
_chemical_name_systematic
;
3'-(3,4-Dimethoxyphenyl)-N,N-diethyl-4-methyl-4'H-spiro[chromene-2,5'-[1,2]oxa
zol]-7-amine
;
_chemical_melting_point 455
_cell_volume   1062.533
_exptl_crystal_colour 'yellow'
_exptl_crystal_density_diffrn 1.277
_exptl_crystal_description 'Prism'
_exptl_crystal_preparation 'ethanol/benzene'
_diffrn_ambient_temperature 203
#These two values have been output from a single CSD field.
_refine_ls_R_factor_gt 0.0539
_refine_ls_wR_factor_gt 0.0539
_symmetry_cell_setting triclinic
_symmetry_space_group_name_H-M 'P -1'
_symmetry_Int_Tables_number 2
loop_
_symmetry_equiv_pos_site_id
_symmetry_equiv_pos_as_xyz
1 x,y,z
2 -x,-y,-z
_cell_length_a 9.1606(18)
_cell_length_b 9.7158(19)
_cell_length_c 12.869(3)
_cell_angle_alpha 75.84(3)
_cell_angle_beta 81.03(3)
_cell_angle_gamma 73.96(3)
_cell_formula_units_Z 2
loop_
_atom_type_symbol
_atom_type_radius_bond
C 0.68
H 0.23
N 0.68
O 0.68
loop_
_atom_site_label
_atom_site_type_symbol
_atom_site_fract_x
_atom_site_fract_y
_atom_site_fract_z
O1 O 0.23651(16) 0.49327(15) 0.73423(10)
O2 O 0.16981(16) 0.72902(15) 0.76663(11)
O3 O 0.53912(17) 1.06620(16) 0.21876(11)
N1 N 0.19370(19) 0.81921(18) 0.66302(13)
O4 O 0.28919(17) 1.18930(15) 0.31663(11)
C1 C 0.1502(2) 0.3811(2) 0.91380(15)
C2 C 0.3870(2) 0.8395(2) 0.51550(15)
C3 C 0.1461(2) 0.4107(2) 0.80234(15)
C4 C 0.3292(2) 0.7673(2) 0.62157(16)
C5 C 0.3064(2) 0.9803(2) 0.46721(15)
H1 H 0.21310 1.02720 0.50360
C6 C 0.4959(2) 0.9841(2) 0.31473(15)
C7 C -0.0275(2) 0.2581(2) 0.81472(17)
C8 C 0.2487(2) 0.4435(2) 0.95747(15)
C9 C 0.3176(2) 0.5404(2) 0.89079(16)
H2 H 0.38740 0.57730 0.91820
C10 C 0.0605(2) 0.3532(2) 0.75283(16)
H3 H 0.06080 0.37810 0.67590
C11 C 0.3589(2) 1.0517(2) 0.36897(15)
C12 C 0.5743(2) 0.8444(2) 0.36111(16)
H4 H 0.66640 0.79640 0.32420
C13 C 0.0588(2) 0.2907(2) 0.97429(16)
H5 H 0.05620 0.26930 1.05130
C14 C 0.5198(2) 0.7729(2) 0.46155(16)
H6 H 0.57550 0.67630 0.49340
N2 N -0.1048(2) 0.1921(2) 0.76569(16)
C15 C -0.0279(3) 0.2310(2) 0.92775(17)
H7 H -0.08960 0.17000 0.97280
C16 C 0.2892(2) 0.5925(2) 0.77539(15)
C17 C 0.4157(2) 0.6344(2) 0.69402(17)
H8 H 0.49020 0.65730 0.72740
H9 H 0.46530 0.55810 0.65580
C18 C 0.6848(3) 1.0073(3) 0.16691(19)
H10 H 0.76190 0.98730 0.21500
H11 H 0.70650 1.07680 0.10320
H12 H 0.68380 0.91810 0.14770
C19 C 0.1459(3) 1.2577(2) 0.36617(19)
H13 H 0.07750 1.19510 0.37790
H14 H 0.10330 1.34960 0.32010
H15 H 0.16040 1.27440 0.43390
C20 C 0.2688(3) 0.3986(3) 1.07545(17)
H16 H 0.33240 0.45230 1.09230
H17 H 0.31580 0.29560 1.09360
H18 H 0.17100 0.41930 1.11600
C21 C -0.2055(4) 0.1011(3) 0.8300(2)
H19 H -0.15700 0.04160 0.89250
H20 H -0.21830 0.03660 0.78820
C22 C -0.0909(3) 0.2141(3) 0.6475(2)
H21 H -0.11500 0.13350 0.62900
H22 H 0.01330 0.21250 0.62080
C23 C -0.3598(4) 0.1881(5) 0.8655(3)
H23 H -0.34830 0.25230 0.90810
H24 H -0.41880 0.12270 0.90770
H25 H -0.41090 0.24520 0.80340
C24 C -0.1920(4) 0.3550(3) 0.5918(3)
H26 H -0.29690 0.35540 0.61480
H27 H -0.17430 0.36280 0.51530
H28 H -0.16920 0.43650 0.60990
#END
