
#######################################################################
#
#                 Cambridge Crystallographic Data Centre
#                                CCDC
#
#######################################################################
#
# If this CIF has been generated from an entry in the Cambridge
# Structural Database, then it will include bibliographic, chemical,
# crystal, experimental, refinement or atomic coordinate data resulting
# from the CCDC's data processing and validation procedures.
#
#######################################################################

data_CSD_CIF_QOQPIV
_audit_creation_date 2001-08-17
_audit_creation_method CSD-ConQuest-V1
_database_code_CSD QOQPIV
_database_code_depnum_ccdc_archive 'CCDC 165644'
_chemical_formula_sum 'C33 H26 N2 O2'
_chemical_formula_moiety
;
C33 H26 N2 O2
;
_journal_coeditor_code "IUCr NA6057"
_journal_coden_Cambridge 1370
_journal_volume 57
_journal_year 2001
_journal_page_first o396
_journal_name_full 'Acta Crystallogr.,Sect.E:Struct.Rep.Online '
loop_
_publ_author_name
"G.Bruno"
"F.Nicolo"
"A.Rotondo"
"F.Foti"
"F.Risitano"
"G.Grassi"
"C.Bilardo"
_chemical_name_systematic
;
9-(4-Methylbenzylidene)-4,8-diphenyl-6-p-tolyl-2-oxa-3,7-diazaspiro(4.4)nona-3
,7-dien-1-one
;
_cell_volume   2621.959
_exptl_crystal_colour 'colorless'
_exptl_crystal_density_diffrn 1.222
_exptl_crystal_description 'prism'
_diffrn_ambient_temperature ?
_diffrn_special_details
;
The study was carried out at room temperature,in the range 283-303K

;
#These two values have been output from a single CSD field.
_refine_ls_R_factor_gt 0.0493
_refine_ls_wR_factor_gt 0.0493
_symmetry_cell_setting monoclinic
_symmetry_space_group_name_H-M 'P 21/c'
_symmetry_Int_Tables_number 14
loop_
_symmetry_equiv_pos_site_id
_symmetry_equiv_pos_as_xyz
1 x,y,z
2 x,1/2-y,1/2+z
3 -x,-y,-z
4 -x,-1/2+y,-1/2-z
_cell_length_a 10.909(3)
_cell_length_b 18.502(7)
_cell_length_c 13.092(4)
_cell_angle_alpha 90
_cell_angle_beta 97.143(12)
_cell_angle_gamma 90
_cell_formula_units_Z 4
loop_
_atom_type_symbol
_atom_type_radius_bond
C 0.68
H 0.23
N 0.68
O 0.68
loop_
_atom_site_label
_atom_site_type_symbol
_atom_site_fract_x
_atom_site_fract_y
_atom_site_fract_z
C1 C 0.8696(4) 0.23869(19) 0.2732(3)
O1 O 0.9447(2) 0.20392(13) 0.23488(18)
C2 C 0.8783(3) 0.27669(17) 0.3770(2)
C3 C 0.7621(3) 0.31989(18) 0.3618(2)
N1 N 0.6886(3) 0.30278(16) 0.2801(2)
O2 O 0.7530(2) 0.25016(13) 0.22350(17)
C4 C 0.7272(3) 0.38018(18) 0.4265(3)
C5 C 0.6598(3) 0.4372(2) 0.3791(3)
H1 H 0.63310 0.43530 0.30890
C6 C 0.6323(4) 0.4968(2) 0.4353(4)
H2 H 0.58870 0.53520 0.40250
C7 C 0.6688(4) 0.4997(2) 0.5397(4)
H3 H 0.64870 0.53970 0.57740
C8 C 0.7351(4) 0.4437(2) 0.5881(3)
H4 H 0.75920 0.44550 0.65870
C9 C 0.7664(3) 0.38412(19) 0.5317(3)
H5 H 0.81350 0.34690 0.56430
C10 C 0.8801(3) 0.21671(17) 0.4665(2)
H6 H 0.83510 0.23670 0.52030
N2 N 1.0105(3) 0.20973(15) 0.5103(2)
C11 C 1.0739(3) 0.26304(19) 0.4793(2)
C12 C 1.0018(3) 0.31331(19) 0.4075(2)
C13 C 0.8206(3) 0.14485(19) 0.4336(2)
C14 C 0.8888(3) 0.0855(2) 0.4104(2)
H7 H 0.97430 0.08890 0.41480
C15 C 0.8309(4) 0.0207(2) 0.3805(3)
H8 H 0.87860 -0.01860 0.36530
C16 C 0.7049(5) 0.0133(3) 0.3730(3)
C17 C 0.6373(4) 0.0725(3) 0.3966(3)
H9 H 0.55180 0.06870 0.39220
C18 C 0.6935(4) 0.1377(2) 0.4267(3)
H10 H 0.64550 0.17680 0.44240
C19 C 0.6431(4) -0.0589(2) 0.3402(3)
H11 H 0.55520 -0.05420 0.33790
H12 H 0.67240 -0.09570 0.38900
H13 H 0.66310 -0.07190 0.27330
C20 C 1.2067(3) 0.27094(17) 0.5154(3)
C21 C 1.2897(3) 0.29086(18) 0.4488(3)
H14 H 1.26120 0.30090 0.38040
C22 C 1.4142(4) 0.2960(2) 0.4825(4)
H15 H 1.46930 0.30820 0.43650
C23 C 1.4565(4) 0.2833(2) 0.5838(4)
H16 H 1.54040 0.28770 0.60670
C24 C 1.3756(4) 0.2639(2) 0.6521(4)
H17 H 1.40480 0.25510 0.72080
C25 C 1.2506(4) 0.25749(19) 0.6180(3)
H18 H 1.19590 0.24420 0.66380
C26 C 1.0358(3) 0.38088(18) 0.3855(2)
H19 H 1.11330 0.39540 0.41640
C27 C 0.9665(3) 0.43470(19) 0.3192(3)
C28 C 0.9031(3) 0.41793(18) 0.2233(3)
H20 H 0.90810 0.37140 0.19740
C29 C 0.8324(3) 0.4695(2) 0.1655(3)
H21 H 0.78900 0.45670 0.10240
C30 C 0.8260(3) 0.5397(2) 0.2010(3)
C31 C 0.8929(3) 0.55711(19) 0.2943(3)
H22 H 0.89110 0.60430 0.31860
C32 C 0.9623(3) 0.50596(19) 0.3519(3)
H23 H 1.00730 0.51940 0.41400
C33 C 0.7501(4) 0.5968(2) 0.1383(3)
H24 H 0.71040 0.57550 0.07590
H25 H 0.80330 0.63520 0.12170
H26 H 0.68870 0.61560 0.17760
#END
