
#######################################################################
#
#                 Cambridge Crystallographic Data Centre
#                                CCDC
#
#######################################################################
#
# If this CIF has been generated from an entry in the Cambridge
# Structural Database, then it will include bibliographic, chemical,
# crystal, experimental, refinement or atomic coordinate data resulting
# from the CCDC's data processing and validation procedures.
#
#######################################################################

data_CSD_CIF_QOQWUO
_audit_creation_date 2001-08-17
_audit_creation_method CSD-ConQuest-V1
_database_code_CSD QOQWUO
_database_code_depnum_ccdc_archive 'CCDC 165676'
_chemical_formula_sum 'C17 H12 N4 O6'
_chemical_formula_moiety
;
C17 H12 N4 O6
;
_journal_coeditor_code "IUCr NA6066"
_journal_coden_Cambridge 1370
_journal_volume 57
_journal_year 2001
_journal_page_first o474
_journal_name_full 'Acta Crystallogr.,Sect.E:Struct.Rep.Online '
loop_
_publ_author_name
"J.Jeyakanthan"
"D.Velmurugan"
"S.Selvi"
"P.T.Perumal"
_chemical_name_systematic
;
1-(2,4-Dinitrophenyl)-3-(2-hydroxy-5-methylphenyl)pyrazole-4-carboxaldehyde
;
_cell_volume    808.463
_exptl_crystal_colour 'orange'
_exptl_crystal_density_diffrn 1.513
_exptl_crystal_description 'block'
_exptl_crystal_preparation 'ethyl acetate'
_diffrn_ambient_temperature ?
_diffrn_special_details
;
The study was carried out at room temperature,in the range 283-303K

;
#These two values have been output from a single CSD field.
_refine_ls_R_factor_gt 0.0504
_refine_ls_wR_factor_gt 0.0504
_symmetry_cell_setting triclinic
_symmetry_space_group_name_H-M 'P -1'
_symmetry_Int_Tables_number 2
loop_
_symmetry_equiv_pos_site_id
_symmetry_equiv_pos_as_xyz
1 x,y,z
2 -x,-y,-z
_cell_length_a 8.411(2)
_cell_length_b 9.617(3)
_cell_length_c 10.538(3)
_cell_angle_alpha 102.62(2)
_cell_angle_beta 91.23(2)
_cell_angle_gamma 102.94(2)
_cell_formula_units_Z 2
loop_
_atom_type_symbol
_atom_type_radius_bond
C 0.68
H 0.23
N 0.68
O 0.68
loop_
_atom_site_label
_atom_site_type_symbol
_atom_site_fract_x
_atom_site_fract_y
_atom_site_fract_z
N1 N 0.0068(2) 0.6797(2) 0.9573(2)
N2 N 0.1554(2) 0.7008(2) 0.9047(2)
N3 N 0.3091(4) 0.2692(3) 0.5045(3)
N4 N -0.1040(3) 0.4938(4) 0.7176(3)
O1 O 0.3816(2) 1.1051(2) 1.1384(2)
O2 O -0.3074(2) 0.5996(2) 0.9783(2)
H1 H -0.21820 0.59000 0.95290
O3 O 0.4517(3) 0.2780(3) 0.4849(3)
O4 O 0.1970(4) 0.1695(3) 0.4472(2)
O5 O -0.1391(3) 0.6027(4) 0.6960(2)
O6 O -0.1996(3) 0.3875(3) 0.7366(4)
C1 C 0.1903(3) 0.5938(3) 0.8017(3)
C2 C 0.3525(3) 0.5888(3) 0.7852(3)
H2 H 0.43510 0.65610 0.84120
C3 C 0.3918(3) 0.4848(3) 0.6864(3)
H3 H 0.50070 0.48390 0.67350
C4 C 0.2691(3) 0.3833(3) 0.6077(3)
C5 C 0.1082(3) 0.3833(3) 0.6222(3)
H4 H 0.02610 0.31190 0.56910
C6 C 0.0704(3) 0.4911(3) 0.7168(3)
C7 C -0.1336(3) 0.8160(3) 1.1204(2)
C8 C -0.2859(3) 0.7197(3) 1.0785(3)
C9 C -0.4242(3) 0.7448(3) 1.1392(3)
H5 H -0.52490 0.68030 1.11080
C10 C -0.4148(3) 0.8627(4) 1.2399(3)
H6 H -0.50980 0.87910 1.27780
C11 C -0.2662(4) 0.9587(3) 1.2871(3)
C12 C -0.1278(3) 0.9316(3) 1.2274(3)
H7 H -0.02670 0.99310 1.26020
C13 C -0.2548(5) 1.0892(4) 1.4002(4)
H8 H -0.23090 1.06300 1.48010
H9 H -0.35700 1.11810 1.40360
H10 H -0.16930 1.16920 1.38860
C14 C 0.2537(3) 0.8304(3) 0.9633(3)
H11 H 0.36000 0.86680 0.94360
C15 C 0.1693(3) 0.8995(3) 1.0573(2)
C16 C 0.0127(3) 0.8001(3) 1.0495(2)
C17 C 0.2388(3) 1.0472(3) 1.1340(3)
H12 H 0.16990 1.09870 1.18140
#END
