
#######################################################################
#
#                 Cambridge Crystallographic Data Centre
#                                CCDC
#
#######################################################################
#
# If this CIF has been generated from an entry in the Cambridge
# Structural Database, then it will include bibliographic, chemical,
# crystal, experimental, refinement or atomic coordinate data resulting
# from the CCDC's data processing and validation procedures.
#
#######################################################################

data_CSD_CIF_QOQZIH
_audit_creation_date 2014-08-19
_audit_creation_method CSD-ConQuest-V1
_database_code_CSD QOQZIH
_database_code_depnum_ccdc_archive 'CCDC 1019990'
_chemical_formula_sum 'C16 H18 N2 O5'
_chemical_formula_moiety
;
C16 H18 N2 O5
;
_journal_coden_Cambridge 1182
_journal_volume 24
_journal_year 2013
_journal_page_first 953
_journal_name_full 'Chin.Chem.Lett. '
loop_
_publ_author_name
"Yue-Jie Chen"
"Rui-Yang Bao"
"Xiao-Dong Zhang"
"Ye-Feng Tang"
_chemical_name_systematic
;
(3-Oxo-octahydroindolizin-8-yl)methyl 4-nitrobenzoate
;
_cell_volume    774.589
_exptl_crystal_colour 'colorless'
_exptl_crystal_density_diffrn 1.365
_exptl_crystal_description 'Plate'
_diffrn_ambient_temperature 173
#These two values have been output from a single CSD field.
_refine_ls_R_factor_gt 0.0685
_refine_ls_wR_factor_gt 0.0685
_symmetry_cell_setting monoclinic
_symmetry_space_group_name_H-M 'P 21'
_symmetry_Int_Tables_number 4
loop_
_symmetry_equiv_pos_site_id
_symmetry_equiv_pos_as_xyz
1 x,y,z
2 -x,1/2+y,-z
_cell_length_a 11.303(2)
_cell_length_b 5.245(1)
_cell_length_c 13.127(3)
_cell_angle_alpha 90
_cell_angle_beta 95.54(3)
_cell_angle_gamma 90
_cell_formula_units_Z 2
loop_
_atom_type_symbol
_atom_type_radius_bond
C 0.68
H 0.23
N 0.68
O 0.68
loop_
_atom_site_label
_atom_site_type_symbol
_atom_site_fract_x
_atom_site_fract_y
_atom_site_fract_z
O1 O 0.0973(3) -0.2344(9) 1.3199(2)
O2 O 0.0146(3) -0.3687(9) 1.1739(3)
O3 O 0.4143(2) 0.6632(7) 1.06339(19)
O4 O 0.3028(2) 0.5417(6) 0.92025(18)
O5 O 0.3376(3) 0.2250(7) 0.44996(19)
N1 N 0.0798(3) -0.2233(9) 1.2258(3)
N2 N 0.2963(3) 0.4075(7) 0.6010(2)
C1 C 0.1450(3) -0.0237(9) 1.1738(3)
C2 C 0.2220(3) 0.1359(10) 1.2306(3)
H1 H 0.23290 0.12330 1.30310
C3 C 0.2830(4) 0.3146(9) 1.1793(3)
H2 H 0.33720 0.42550 1.21720
C4 C 0.2668(3) 0.3363(9) 1.0725(3)
C5 C 0.1871(3) 0.1727(9) 1.0178(3)
H3 H 0.17490 0.18650 0.94530
C6 C 0.1254(3) -0.0094(10) 1.0673(3)
H4 H 0.07140 -0.12170 1.03000
C7 C 0.3370(4) 0.5309(9) 1.0211(3)
C8 C 0.3675(3) 0.7216(9) 0.8612(3)
H5 H 0.45360 0.68240 0.86930
H6 H 0.35600 0.89790 0.88530
C9 C 0.3188(3) 0.6952(8) 0.7498(3)
H7 H 0.36020 0.82520 0.71030
C10 C 0.3480(3) 0.4353(8) 0.7074(2)
H8 H 0.31590 0.29880 0.75030
C11 C 0.4810(3) 0.3854(10) 0.6982(3)
H9 H 0.52460 0.54800 0.69400
H10 H 0.51680 0.28760 0.75790
C12 C 0.4847(3) 0.231(1) 0.5993(3)
H11 H 0.55110 0.28800 0.56080
H12 H 0.49420 0.04680 0.61450
C13 C 0.3671(3) 0.2835(9) 0.5401(3)
C14 C 0.1712(4) 0.4688(10) 0.5742(3)
H13 H 0.12060 0.33880 0.60320
H14 H 0.15360 0.46760 0.49880
C15 C 0.1437(4) 0.7322(11) 0.6162(3)
H15 H 0.05710 0.76400 0.60550
H16 H 0.18430 0.86470 0.57870
C16 C 0.1852(4) 0.7493(10) 0.7307(3)
H17 H 0.16820 0.92180 0.75610
H18 H 0.14080 0.62430 0.76870
#END
