
#######################################################################
#
#                 Cambridge Crystallographic Data Centre
#                                CCDC
#
#######################################################################
#
# If this CIF has been generated from an entry in the Cambridge
# Structural Database, then it will include bibliographic, chemical,
# crystal, experimental, refinement or atomic coordinate data resulting
# from the CCDC's data processing and validation procedures.
#
#######################################################################

data_CSD_CIF_QORQUK
_audit_creation_date 2009-06-25
_audit_creation_method CSD-ConQuest-V1
_database_code_CSD QORQUK
_database_code_depnum_ccdc_archive 'CCDC 699136'
_chemical_formula_sum 'C5 H6 N12 O12'
_chemical_formula_moiety
;
C5 H6 N12 O12
;
_journal_coden_Cambridge 1367
_journal_volume 19
_journal_year 2009
_journal_page_first 347
_journal_name_full 'Adv.Funct.Mater. '
loop_
_publ_author_name
"M.Gobel"
"T.M.Klapotke"
_chemical_name_systematic
;
N^1^,N^5^-bis(2,2,2-Trinitroethyl)-1H-tetrazole-1,5-diamine
;
_cell_volume   1492.642
_exptl_crystal_colour 'colorless'
_exptl_crystal_density_diffrn 1.897
_exptl_special_details
;
high explosive

;
_exptl_crystal_description 'thin plate'
_diffrn_ambient_temperature 100
#These two values have been output from a single CSD field.
_refine_ls_R_factor_gt 0.0844
_refine_ls_wR_factor_gt 0.0844
_symmetry_cell_setting monoclinic
_symmetry_space_group_name_H-M 'P 21/c'
_symmetry_Int_Tables_number 14
loop_
_symmetry_equiv_pos_site_id
_symmetry_equiv_pos_as_xyz
1 x,y,z
2 -x,1/2+y,1/2-z
3 -x,-y,-z
4 x,-1/2-y,-1/2+z
_cell_length_a 9.9710(7)
_cell_length_b 6.4861(4)
_cell_length_c 23.1501(13)
_cell_angle_alpha 90
_cell_angle_beta 94.464(5)
_cell_angle_gamma 90
_cell_formula_units_Z 4
loop_
_atom_type_symbol
_atom_type_radius_bond
C 0.68
H 0.23
N 0.68
O 0.68
loop_
_atom_site_label
_atom_site_type_symbol
_atom_site_fract_x
_atom_site_fract_y
_atom_site_fract_z
C1 C 1.1024(3) 0.0678(6) 0.33303(15)
C2 C 0.7618(4) 0.1184(7) 0.29341(16)
C3 C 0.6540(4) 0.0681(7) 0.33393(15)
C4 C 1.2301(4) -0.0532(8) 0.41933(17)
C5 C 1.2262(4) -0.2779(7) 0.43804(15)
N1 N 0.9980(3) 0.1610(5) 0.30456(12)
N2 N 1.0282(3) 0.1965(5) 0.24873(13)
N3 N 1.1479(3) 0.1234(5) 0.24584(13)
N4 N 1.1989(3) 0.0419(5) 0.29765(13)
N5 N 1.1045(3) 0.0088(6) 0.38940(13)
N6 N 0.8769(3) 0.2139(5) 0.32675(14)
N7 N 0.5787(3) 0.2576(6) 0.35180(13)
N8 N 0.5493(3) -0.0794(6) 0.30701(14)
N9 N 0.7133(3) -0.0325(6) 0.38965(14)
N10 N 1.1587(4) -0.4132(6) 0.39079(15)
N11 N 1.1495(4) -0.3107(6) 0.49237(14)
N12 N 1.3668(4) -0.3639(9) 0.45226(15)
O1 O 0.6469(3) 0.4132(5) 0.36033(12)
O2 O 0.4580(3) 0.2403(5) 0.35591(13)
O3 O 0.5234(3) -0.0562(5) 0.25511(11)
O4 O 0.4993(3) -0.2011(5) 0.33829(12)
O5 O 0.6804(3) 0.0372(6) 0.43529(11)
O6 O 0.7883(3) -0.1761(5) 0.38269(12)
O7 O 1.2165(3) -0.4196(5) 0.34663(11)
O8 O 1.0548(4) -0.4990(6) 0.40059(14)
O9 O 1.0618(3) -0.1866(5) 0.49903(11)
O10 O 1.1812(4) -0.4559(6) 0.52336(14)
O11 O 1.3804(4) -0.5481(7) 0.44749(14)
O12 O 1.4514(3) -0.2370(8) 0.46733(14)
H1 H 1.048(5) 0.041(10) 0.406(2)
H2 H 0.867(6) 0.333(9) 0.327(2)
H3 H 1.300(5) -0.052(9) 0.394(2)
H4 H 1.247(5) 0.025(9) 0.454(2)
H5 H 0.728(5) 0.206(9) 0.266(2)
H6 H 0.788(5) -0.009(9) 0.280(2)
#END
