
#######################################################################
#
#                 Cambridge Crystallographic Data Centre
#                                CCDC
#
#######################################################################
#
# If this CIF has been generated from an entry in the Cambridge
# Structural Database, then it will include bibliographic, chemical,
# crystal, experimental, refinement or atomic coordinate data resulting
# from the CCDC's data processing and validation procedures.
#
#######################################################################

data_CSD_CIF_QOTGOV01
_audit_creation_date 2001-08-17
_audit_creation_method CSD-ConQuest-V1
_database_code_CSD QOTGOV01
_database_code_depnum_ccdc_archive 'CCDC 167093'
_database_code_depnum_ccdc_journal 1145/263
_chemical_formula_sum 'C15 H19 N3 O2'
_chemical_formula_moiety
;
C15 H19 N3 O2
;
_journal_coden_Cambridge 1145
_journal_volume 11
_journal_year 2001
_journal_page_first 351
_journal_name_full 'J.Mater.Chem. '
loop_
_publ_author_name
"M.Yu.Antipin"
"T.V.Timofeeva"
"R.D.Clark"
"V.N.Nesterov"
"F.M.Dolgushin"
"J.Wu"
"A.Leyderman"
_chemical_name_systematic
;
2-(Adamantylamino)-5-nitropyridine
;
_chemical_melting_point 438.15
_cell_volume   1370.976
_exptl_crystal_colour 'yellow'
_exptl_crystal_density_diffrn 1.324
_exptl_special_details
;
orthorhombic Pca21 polymorph
isostructural with the cyclo-octyl analogue

;
_exptl_crystal_description 'prism'
_diffrn_ambient_temperature 163
#These two values have been output from a single CSD field.
_refine_ls_R_factor_gt 0.0513
_refine_ls_wR_factor_gt 0.0513
_symmetry_cell_setting orthorhombic
_symmetry_space_group_name_H-M 'P c a 21'
_symmetry_Int_Tables_number 29
loop_
_symmetry_equiv_pos_site_id
_symmetry_equiv_pos_as_xyz
1 x,y,z
2 -x,-y,1/2+z
3 1/2+x,-y,z
4 1/2-x,y,1/2+z
_cell_length_a 28.158(6)
_cell_length_b 6.584(2)
_cell_length_c 7.395(1)
_cell_angle_alpha 90
_cell_angle_beta 90
_cell_angle_gamma 90
_cell_formula_units_Z 4
loop_
_atom_type_symbol
_atom_type_radius_bond
C 0.68
H 0.23
N 0.68
O 0.68
loop_
_atom_site_label
_atom_site_type_symbol
_atom_site_fract_x
_atom_site_fract_y
_atom_site_fract_z
O1 O 0.23362(5) -0.4794(2) -0.4287(3)
O2 O 0.30490(5) -0.6016(2) -0.4197(2)
N1 N 0.35370(5) -0.1137(2) -0.1393(2)
N2 N 0.33632(5) 0.1929(2) 0.0036(2)
N3 N 0.27628(5) -0.4671(2) -0.3862(2)
C1 C 0.32234(5) 0.0359(2) -0.1001(2)
C2 C 0.27428(5) 0.0313(2) -0.1606(2)
C3 C 0.25869(5) -0.1325(2) -0.2559(2)
C4 C 0.29140(5) -0.2864(2) -0.2947(2)
C5 C 0.33803(6) -0.2701(3) -0.2359(2)
C6 C 0.38047(5) 0.2158(2) 0.1083(2)
C7 C 0.38543(6) 0.0448(2) 0.2489(2)
C8 C 0.42986(6) 0.0812(2) 0.3646(2)
C9 C 0.47379(6) 0.0865(3) 0.2424(3)
C10 C 0.46890(5) 0.2576(2) 0.1043(2)
C11 C 0.46432(6) 0.4612(3) 0.2038(3)
C12 C 0.42023(6) 0.4561(2) 0.3249(2)
C13 C 0.37605(5) 0.4202(2) 0.2077(2)
C14 C 0.42466(5) 0.2225(2) -0.0133(2)
C15 C 0.42498(6) 0.2846(3) 0.4644(2)
H1 H 0.3155(8) 0.2757(30) 0.0244(36)
H2 H 0.2523(10) 0.1406(33) -0.1260(43)
H3 H 0.2272(7) -0.1457(31) -0.2877(34)
H4 H 0.3588(7) -0.3732(34) -0.2665(32)
H5 H 0.3869(8) -0.0869(38) 0.1806(37)
H6 H 0.3561(12) 0.0317(48) 0.3147(59)
H7 H 0.4336(8) -0.0298(33) 0.4448(37)
H8 H 0.4754(8) -0.0471(42) 0.1847(48)
H9 H 0.5020(9) 0.1203(39) 0.3162(43)
H10 H 0.4989(9) 0.2626(35) 0.0286(41)
H11 H 0.4599(8) 0.5755(41) 0.1130(45)
H12 H 0.4938(10) 0.4867(46) 0.2780(42)
H13 H 0.4168(7) 0.5823(36) 0.3804(38)
H14 H 0.3730(9) 0.5233(38) 0.1201(42)
H15 H 0.3482(7) 0.4125(34) 0.2832(31)
H16 H 0.4282(8) 0.0944(39) -0.0864(40)
H17 H 0.4203(8) 0.3218(41) -0.1019(43)
H18 H 0.4535(8) 0.3139(36) 0.5388(38)
H19 H 0.3954(8) 0.2829(34) 0.5468(38)
#END
