
#######################################################################
#
#                 Cambridge Crystallographic Data Centre
#                                CCDC
#
#######################################################################
#
# If this CIF has been generated from an entry in the Cambridge
# Structural Database, then it will include bibliographic, chemical,
# crystal, experimental, refinement or atomic coordinate data resulting
# from the CCDC's data processing and validation procedures.
#
#######################################################################

data_CSD_CIF_QOTPUL
_audit_creation_date 2009-06-25
_audit_creation_method CSD-ConQuest-V1
_database_code_CSD QOTPUL
_database_code_depnum_ccdc_archive 'CCDC 731215'
_chemical_formula_sum 'C18 H14 N4 O2'
_chemical_formula_moiety
;
C18 H14 N4 O2
;
_journal_coeditor_code "IUCr BT2909"
_journal_coden_Cambridge 1370
_journal_volume 65
_journal_year 2009
_journal_page_first o957
_journal_name_full 'Acta Crystallogr.,Sect.E:Struct.Rep.Online '
loop_
_publ_author_name
"M.Schulz"
"T.Kloubert"
"H.Gorls"
"M.Westerhausen"
_chemical_name_systematic
;
1-Nitro-2,3-di-2-pyridyl-2,3-dihydroindolizine unknown solvate
;
_cell_volume   3553.437
_exptl_crystal_colour 'light yellow'
_exptl_special_details
;
Published density is 1.219, we calculate 1.190

;
_exptl_crystal_description 'prism'
_diffrn_ambient_temperature 183
_refine_special_details
;
Disordered unspecified solvent molecules were not modelled and the disordered 
density was taken into account using the SQUEEZE/PLATON procedure.
;
#These two values have been output from a single CSD field.
_refine_ls_R_factor_gt 0.0645
_refine_ls_wR_factor_gt 0.0645
_symmetry_cell_setting monoclinic
_symmetry_space_group_name_H-M 'C 2/c'
_symmetry_Int_Tables_number 15
loop_
_symmetry_equiv_pos_site_id
_symmetry_equiv_pos_as_xyz
1 x,y,z
2 -x,y,1/2-z
3 1/2+x,1/2+y,z
4 1/2-x,1/2+y,1/2-z
5 -x,-y,-z
6 x,-y,-1/2+z
7 -1/2-x,-1/2-y,-z
8 -1/2+x,-1/2-y,-1/2+z
_cell_length_a 28.0688(19)
_cell_length_b 7.9672(6)
_cell_length_c 21.1859(15)
_cell_angle_alpha 90
_cell_angle_beta 131.408(4)
_cell_angle_gamma 90
_cell_formula_units_Z 8
loop_
_atom_type_symbol
_atom_type_radius_bond
C 0.68
H 0.23
N 0.68
O 0.68
loop_
_atom_site_label
_atom_site_type_symbol
_atom_site_fract_x
_atom_site_fract_y
_atom_site_fract_z
O1 O 0.17598(9) 1.2960(2) 0.14775(13)
O2 O 0.16787(9) 1.2549(2) 0.03788(12)
N1 N 0.17260(9) 1.1975(2) 0.09773(14)
N2 N 0.17010(8) 0.7804(2) 0.15264(11)
N3 N 0.04544(10) 0.8231(3) -0.00295(16)
N4 N 0.27897(9) 0.8055(3) 0.13515(12)
C1 C 0.17419(10) 1.0305(3) 0.10757(14)
C2 C 0.17024(10) 0.9055(3) 0.05051(14)
H1 H 0.13480 0.93680 -0.00970
C3 C 0.15344(10) 0.7422(3) 0.07139(14)
H2 H 0.17900 0.64560 0.07760
C4 C 0.17739(10) 0.9488(3) 0.16928(13)
C5 C 0.18579(10) 1.0032(3) 0.23890(14)
H3 H 0.19140 1.11900 0.25280
C6 C 0.18587(11) 0.8876(3) 0.28665(15)
H4 H 0.19120 0.92420 0.33370
C7 C 0.17820(12) 0.7160(3) 0.26747(16)
H5 H 0.17810 0.63650 0.30080
C8 C 0.17096(11) 0.6654(3) 0.20010(15)
H6 H 0.16650 0.54960 0.18660
C9 C 0.08294(11) 0.7031(3) 0.00711(14)
C10 C 0.06039(11) 0.5554(3) -0.03744(15)
H7 H 0.08860 0.47140 -0.02780
C11 C -0.00528(12) 0.5328(3) -0.09736(17)
H8 H -0.02270 0.43280 -0.12990
C12 C -0.04402(12) 0.6548(4) -0.10870(16)
H9 H -0.08890 0.64210 -0.14940
C13 C -0.01697(13) 0.7973(4) -0.0600(2)
H10 H -0.04430 0.88170 -0.06750
C14 C 0.23253(10) 0.8989(3) 0.06895(13)
C15 C 0.24114(12) 0.9906(3) 0.02183(15)
H11 H 0.20710 1.05450 -0.02500
C16 C 0.29952(13) 0.9886(3) 0.04343(17)
H12 H 0.30660 1.05200 0.01230
C17 C 0.34797(12) 0.8915(3) 0.11200(17)
H13 H 0.38870 0.88650 0.12860
C18 C 0.33500(12) 0.8037(3) 0.15471(16)
H14 H 0.36800 0.73730 0.20130
#END
