
#######################################################################
#
#                 Cambridge Crystallographic Data Centre
#                                CCDC
#
#######################################################################
#
# If this CIF has been generated from an entry in the Cambridge
# Structural Database, then it will include bibliographic, chemical,
# crystal, experimental, refinement or atomic coordinate data resulting
# from the CCDC's data processing and validation procedures.
#
#######################################################################

data_CSD_CIF_QOVXUV
_audit_creation_date 2009-11-17
_audit_creation_method CSD-ConQuest-V1
_database_code_CSD QOVXUV
_database_code_depnum_ccdc_archive 'CCDC 687467'
_chemical_formula_sum 'C10 H12 N2 O4'
_chemical_formula_moiety
;
C10 H12 N2 O4
;
_journal_coden_Cambridge 471
_journal_volume 25
_journal_year 2009
_journal_page_first 25
_journal_name_full 'Anal.Sci.:X-Ray Struct.Anal.Online '
loop_
_publ_author_name
"I.Kilic"
"F.Ersahin"
"E.Agar"
"S.Isik"
_chemical_name_systematic
;
N-n-Propylalcohol-2-oxo-5-nitro-1-benzylidene-methylamine
;
_chemical_melting_point 445
_cell_volume   1077.899
_exptl_crystal_colour 'yellow'
_exptl_crystal_density_diffrn 1.382
_exptl_special_details
;
Melting point range 445-446K

;
_exptl_crystal_description 'prism'
_exptl_crystal_preparation 'ethanol'
_diffrn_ambient_temperature 296
#These two values have been output from a single CSD field.
_refine_ls_R_factor_gt 0.0719
_refine_ls_wR_factor_gt 0.0719
_symmetry_cell_setting monoclinic
_symmetry_space_group_name_H-M 'P 21/c'
_symmetry_Int_Tables_number 14
loop_
_symmetry_equiv_pos_site_id
_symmetry_equiv_pos_as_xyz
1 x,y,z
2 -x,1/2+y,1/2-z
3 -x,-y,-z
4 x,-1/2-y,-1/2+z
_cell_length_a 10.953(2)
_cell_length_b 5.5272(6)
_cell_length_c 18.754(4)
_cell_angle_alpha 90
_cell_angle_beta 108.306(16)
_cell_angle_gamma 90
_cell_formula_units_Z 4
loop_
_atom_type_symbol
_atom_type_radius_bond
C 0.68
H 0.23
N 0.68
O 0.68
loop_
_atom_site_label
_atom_site_type_symbol
_atom_site_fract_x
_atom_site_fract_y
_atom_site_fract_z
H1 H 0.890(3) 0.622(7) 0.5412(19)
C1 C 0.6916(3) 0.6797(6) 0.4324(2)
C2 C 0.5898(4) 0.7348(6) 0.3657(2)
H2 H 0.59720 0.87160 0.33850
C3 C 0.4824(3) 0.5967(6) 0.3400(2)
H3 H 0.41790 0.63940 0.29620
C4 C 0.4697(3) 0.3899(6) 0.3799(2)
C5 C 0.5652(3) 0.3230(6) 0.4434(2)
H4 H 0.55570 0.18350 0.46890
C6 C 0.6758(3) 0.4606(6) 0.47019(18)
C7 C 0.7740(4) 0.3815(6) 0.5352(2)
H5 H 0.75970 0.23820 0.55730
C8 C 0.9850(3) 0.4075(6) 0.6321(2)
H6 H 1.05070 0.32830 0.61580
H7 H 0.95090 0.28970 0.65920
C9 C 1.0438(3) 0.6116(6) 0.68332(19)
H8 H 1.09130 0.54660 0.73220
H9 H 0.97580 0.71330 0.68960
C10 C 1.1327(3) 0.7644(6) 0.6555(2)
H10 H 1.16210 0.90200 0.68850
H11 H 1.20730 0.67030 0.65510
N1 N 0.8813(3) 0.4913(6) 0.56605(17)
N2 N 0.3538(3) 0.2458(6) 0.3539(2)
O1 O 0.7907(2) 0.8111(4) 0.45702(13)
O2 O 0.3396(2) 0.0748(5) 0.39167(17)
O3 O 0.2726(3) 0.3024(6) 0.2948(2)
O4 O 1.0668(2) 0.8452(4) 0.58238(14)
H12 H 1.11490 0.92880 0.56690
#END
