
#######################################################################
#
#                 Cambridge Crystallographic Data Centre
#                                CCDC
#
#######################################################################
#
# If this CIF has been generated from an entry in the Cambridge
# Structural Database, then it will include bibliographic, chemical,
# crystal, experimental, refinement or atomic coordinate data resulting
# from the CCDC's data processing and validation procedures.
#
#######################################################################

data_CSD_CIF_QOYHES
_audit_creation_date 2009-11-17
_audit_creation_method CSD-ConQuest-V1
_database_code_CSD QOYHES
_database_code_depnum_ccdc_archive 'CCDC 689891'
_chemical_formula_sum 'C14 H13 N3 O3'
_chemical_formula_moiety
;
C14 H13 N3 O3
;
_journal_coden_Cambridge 643
_journal_volume 224
_journal_year 2009
_journal_page_first 213
_journal_name_full 'Z.Krist.Cryst.Mater. '
loop_
_publ_author_name
"T.C.Baddeley"
"L.F.de S.Franca"
"R.A.Howie"
"G.M.de Lima"
"J.M.S.Skakle"
"J.D.de Souza"
"J.L.Wardell"
"S.M.S.V.Wardell"
_chemical_name_systematic
;
2-Hydroxyacetophenone 4-nitrophenylhydrazone
;
_chemical_melting_point 517.15
_cell_volume   1222.939
_exptl_crystal_colour 'dark orange'
_exptl_crystal_density_diffrn 1.473
_exptl_special_details
;
Melting point range 517.15-520.15K
isostructural with the 4-methylphenyl analogue
;
_exptl_crystal_description 'plate'
_exptl_crystal_preparation 'acetonitrile'
_diffrn_ambient_temperature 120
#These two values have been output from a single CSD field.
_refine_ls_R_factor_gt 0.0485
_refine_ls_wR_factor_gt 0.0485
_symmetry_cell_setting monoclinic
_symmetry_space_group_name_H-M 'C c'
_symmetry_Int_Tables_number 9
loop_
_symmetry_equiv_pos_site_id
_symmetry_equiv_pos_as_xyz
1 x,y,z
2 x,-y,1/2+z
3 1/2+x,1/2+y,z
4 1/2+x,1/2-y,1/2+z
_cell_length_a 10.5960(4)
_cell_length_b 9.2912(5)
_cell_length_c 12.4369(6)
_cell_angle_alpha 90
_cell_angle_beta 92.806(3)
_cell_angle_gamma 90
_cell_formula_units_Z 4
loop_
_atom_type_symbol
_atom_type_radius_bond
C 0.68
H 0.23
N 0.68
O 0.68
loop_
_atom_site_label
_atom_site_type_symbol
_atom_site_fract_x
_atom_site_fract_y
_atom_site_fract_z
O1 O 0.5765(2) 0.6018(2) 0.65709(16)
H1 H 0.55770 0.54780 0.60450
O2 O 0.2876(2) -0.1909(2) 0.43104(19)
O3 O 0.3067(2) -0.1316(3) 0.59974(18)
N1 N 0.4941(2) 0.4360(3) 0.3832(2)
H2 H 0.511(3) 0.457(4) 0.313(3)
N2 N 0.5388(2) 0.5351(3) 0.45831(18)
N3 N 0.3178(2) -0.1040(3) 0.5031(2)
C1 C 0.4574(3) 0.3015(3) 0.4160(2)
C2 C 0.4091(3) 0.2060(3) 0.3367(2)
H3 H 0.40720 0.23370 0.26310
C3 C 0.3647(3) 0.0732(3) 0.3647(2)
H4 H 0.33230 0.00870 0.31090
C4 C 0.3675(3) 0.0338(3) 0.4732(2)
C5 C 0.4167(3) 0.1259(3) 0.5527(2)
H5 H 0.41900 0.09710 0.62610
C6 C 0.4621(3) 0.2594(3) 0.5248(2)
H6 H 0.49630 0.32260 0.57880
C7 C 0.5664(3) 0.6634(3) 0.4267(2)
C8 C 0.6174(3) 0.7645(3) 0.5094(2)
C9 C 0.6223(3) 0.7288(3) 0.6206(2)
C10 C 0.6746(3) 0.8239(3) 0.6975(2)
H7 H 0.67740 0.79840 0.77150
C11 C 0.7224(3) 0.9556(4) 0.6659(3)
H8 H 0.75820 1.01990 0.71830
C12 C 0.7179(3) 0.9938(3) 0.5575(3)
H9 H 0.75000 1.08420 0.53590
C13 C 0.6664(3) 0.8990(3) 0.4814(3)
H10 H 0.66420 0.92600 0.40760
C14 C 0.5483(3) 0.7092(4) 0.3102(2)
H11 H 0.46730 0.67240 0.28030
H12 H 0.61710 0.67030 0.26910
H13 H 0.54870 0.81450 0.30590
#END
