
#######################################################################
#
#                 Cambridge Crystallographic Data Centre
#                                CCDC
#
#######################################################################
#
# If this CIF has been generated from an entry in the Cambridge
# Structural Database, then it will include bibliographic, chemical,
# crystal, experimental, refinement or atomic coordinate data resulting
# from the CCDC's data processing and validation procedures.
#
#######################################################################

data_CSD_CIF_QOYJOD03
_audit_creation_date 2003-06-24
_audit_creation_method CSD-ConQuest-V1
_database_code_CSD QOYJOD03
_database_code_depnum_ccdc_archive 'CCDC 200144'
_chemical_formula_sum 'C2 H2 N4 O3'
_chemical_formula_moiety
;
C2 H2 N4 O3
;
_journal_coeditor_code "IUCr DO0018"
_journal_coden_Cambridge 228
_journal_volume 36
_journal_year 2003
_journal_page_first 280
_journal_name_full 'J.Appl.Crystallogr. '
loop_
_publ_author_name
"N.B.Bolotina"
"E.A.Zhurova"
"A.A.Pinkerton"
_chemical_name_systematic
;
5-Nitro-2,4-dihydro-3H-1,2,4-triazol-3-one
;
_cell_volume    454.391
_exptl_crystal_colour 'colorless'
_exptl_crystal_density_diffrn 1.901
_exptl_special_details
;
metastable beta polymorph

;
_exptl_crystal_description 'plate-like'
_diffrn_ambient_temperature 200
#These two values have been output from a single CSD field.
_refine_ls_R_factor_gt 0.0369
_refine_ls_wR_factor_gt 0.0369
_symmetry_cell_setting monoclinic
_symmetry_space_group_name_H-M 'P 21/c'
_symmetry_Int_Tables_number 14
loop_
_symmetry_equiv_pos_site_id
_symmetry_equiv_pos_as_xyz
1 x,y,z
2 -x,1/2+y,1/2-z
3 -x,-y,-z
4 x,-1/2-y,-1/2+z
_cell_length_a 9.3220(4)
_cell_length_b 5.4791(2)
_cell_length_c 9.0685(3)
_cell_angle_alpha 90
_cell_angle_beta 101.182(1)
_cell_angle_gamma 90
_cell_formula_units_Z 4
loop_
_atom_type_symbol
_atom_type_radius_bond
C 0.68
H 0.23
N 0.68
O 0.68
loop_
_atom_site_label
_atom_site_type_symbol
_atom_site_fract_x
_atom_site_fract_y
_atom_site_fract_z
N1 N 0.6540(2) 0.7379(3) 0.2356(2)
H1 H 0.5820(36) 0.6448(56) 0.1990(38)
O1 O 0.8629(2) 0.5915(3) 0.1605(2)
N2 N 0.6157(2) 0.9281(3) 0.3179(2)
N3 N 0.8522(2) 0.9453(3) 0.3059(2)
H2 H 0.9450(36) 0.9962(60) 0.3192(37)
C1 C 0.7985(2) 0.7417(4) 0.2251(2)
O2 O 0.8701(2) 1.3592(3) 0.4764(2)
O3 O 0.6416(2) 1.3237(3) 0.4967(2)
N4 N 0.7510(2) 1.2590(4) 0.4503(2)
C2 C 0.7380(2) 1.0430(4) 0.3573(3)
#END
