
#######################################################################
#
#                 Cambridge Crystallographic Data Centre
#                                CCDC
#
#######################################################################
#
# If this CIF has been generated from an entry in the Cambridge
# Structural Database, then it will include bibliographic, chemical,
# crystal, experimental, refinement or atomic coordinate data resulting
# from the CCDC's data processing and validation procedures.
#
#######################################################################

data_CSD_CIF_QOYJOD
_audit_creation_date 2001-08-27
_audit_creation_method CSD-ConQuest-V1
_database_code_CSD QOYJOD
_database_code_depnum_ccdc_archive 'CCDC 166510'
_chemical_formula_sum 'C2 H2 N4 O3'
_chemical_formula_moiety
;
C2 H2 N4 O3
;
_journal_coeditor_code "IUCr BR0102"
_journal_coden_Cambridge 622
_journal_volume 57
_journal_year 2001
_journal_page_first 359
_journal_name_full 'Acta Crystallogr.,Sect.B:Struct.Sci. '
loop_
_publ_author_name
"E.A.Zhurova"
"A.A.Pinkerton"
_chemical_name_systematic
;
5-Nitro-2,4-dihydro-3H-1,2,4-triazol-3-one
;
_cell_volume    450.291
_exptl_crystal_colour 'colorless'
_exptl_crystal_density_diffrn 1.919
_exptl_special_details
;
beta polymorph

;
_exptl_crystal_description 'plate'
_diffrn_ambient_temperature 100.0
#These two values have been output from a single CSD field.
_refine_ls_R_factor_gt 0.0333
_refine_ls_wR_factor_gt 0.0333
loop_
_citation_database_id_CSD
_citation_special_details
QOYJOD09 "is a reinterpretation of this cif"
_symmetry_cell_setting monoclinic
_symmetry_space_group_name_H-M 'P 21/c'
_symmetry_Int_Tables_number 14
loop_
_symmetry_equiv_pos_site_id
_symmetry_equiv_pos_as_xyz
1 x,y,z
2 -x,1/2+y,1/2-z
3 -x,-y,-z
4 x,-1/2-y,-1/2+z
_cell_length_a 9.3255(1)
_cell_length_b 5.4503(1)
_cell_length_c 9.0400(1)
_cell_angle_alpha 90
_cell_angle_beta 101.474(1)
_cell_angle_gamma 90
_cell_formula_units_Z 4
loop_
_atom_type_symbol
_atom_type_radius_bond
C 0.68
H 0.23
N 0.68
O 0.68
loop_
_atom_site_label
_atom_site_type_symbol
_atom_site_fract_x
_atom_site_fract_y
_atom_site_fract_z
N1 N 0.65343(3) 0.73475(4) 0.23553(3)
H1 H 0.57735 0.61089 0.18887
O1 O 0.86295(2) 0.58983(4) 0.15996(3)
N2 N 0.61566(3) 0.92544(4) 0.31807(3)
N3 N 0.85229(2) 0.94632(4) 0.30610(3)
H2 H 0.95523 1.01280 0.32263
C1 C 0.79842(3) 0.74010(5) 0.22532(3)
O2 O 0.86967(3) 1.36316(4) 0.47666(3)
O3 O 0.64118(3) 1.32520(5) 0.49799(3)
N4 N 0.75032(3) 1.26075(5) 0.45135(3)
C2 C 0.73793(3) 1.04447(5) 0.35760(3)
#END
