
#######################################################################
#
#                 Cambridge Crystallographic Data Centre
#                                CCDC
#
#######################################################################
#
# If this CIF has been generated from an entry in the Cambridge
# Structural Database, then it will include bibliographic, chemical,
# crystal, experimental, refinement or atomic coordinate data resulting
# from the CCDC's data processing and validation procedures.
#
#######################################################################

data_CSD_CIF_QOYJOD05
_audit_creation_date 2003-06-24
_audit_creation_method CSD-ConQuest-V1
_database_code_CSD QOYJOD05
_database_code_depnum_ccdc_archive 'CCDC 200146'
_chemical_formula_sum 'C2 H2 N4 O3'
_chemical_formula_moiety
;
C2 H2 N4 O3
;
_journal_coeditor_code "IUCr DO0018"
_journal_coden_Cambridge 228
_journal_volume 36
_journal_year 2003
_journal_page_first 280
_journal_name_full 'J.Appl.Crystallogr. '
loop_
_publ_author_name
"N.B.Bolotina"
"E.A.Zhurova"
"A.A.Pinkerton"
_chemical_name_systematic
;
5-Nitro-2,4-dihydro-3H-1,2,4-triazol-3-one
;
_cell_volume    460.437
_exptl_crystal_colour 'colorless'
_exptl_crystal_density_diffrn 1.876
_exptl_special_details
;
metastable beta polymorph

;
_exptl_crystal_description 'plate-like'
_diffrn_ambient_temperature 298
#These two values have been output from a single CSD field.
_refine_ls_R_factor_gt 0.0438
_refine_ls_wR_factor_gt 0.0438
_symmetry_cell_setting monoclinic
_symmetry_space_group_name_H-M 'P 21/c'
_symmetry_Int_Tables_number 14
loop_
_symmetry_equiv_pos_site_id
_symmetry_equiv_pos_as_xyz
1 x,y,z
2 -x,1/2+y,1/2-z
3 -x,-y,-z
4 x,-1/2-y,-1/2+z
_cell_length_a 9.3207(4)
_cell_length_b 5.5215(2)
_cell_length_c 9.1102(3)
_cell_angle_alpha 90
_cell_angle_beta 100.870(1)
_cell_angle_gamma 90
_cell_formula_units_Z 4
loop_
_atom_type_symbol
_atom_type_radius_bond
C 0.68
H 0.23
N 0.68
O 0.68
loop_
_atom_site_label
_atom_site_type_symbol
_atom_site_fract_x
_atom_site_fract_y
_atom_site_fract_z
N1 N 0.6540(3) 0.7414(6) 0.2357(3)
H1 H 0.5856(39) 0.6408(70) 0.2012(40)
O1 O 0.8626(2) 0.5938(4) 0.1612(2)
N2 N 0.6163(2) 0.9308(5) 0.3172(3)
N3 N 0.8523(3) 0.9441(5) 0.3060(3)
H2 H 0.9401(41) 0.9903(77) 0.3161(42)
C1 C 0.7986(3) 0.7430(7) 0.2253(3)
O2 O 0.8705(3) 1.3544(5) 0.4762(3)
O3 O 0.6424(3) 1.3238(6) 0.4944(3)
N4 N 0.7519(3) 1.2566(6) 0.4496(3)
C2 C 0.7385(3) 1.0437(6) 0.3568(3)
#END
