
#######################################################################
#
#                 Cambridge Crystallographic Data Centre
#                                CCDC
#
#######################################################################
#
# If this CIF has been generated from an entry in the Cambridge
# Structural Database, then it will include bibliographic, chemical,
# crystal, experimental, refinement or atomic coordinate data resulting
# from the CCDC's data processing and validation procedures.
#
#######################################################################

data_CSD_CIF_QQQAZG31
_audit_creation_date 1986-10-23
_audit_creation_method CSD-ConQuest-V1
_database_code_CSD QQQAZG31
_database_code_depnum_ccdc_archive 'CCDC 1243925'
_chemical_formula_sum 'C17 H16 N4 O4'
_chemical_formula_moiety
;
C17 H16 N4 O4
;
_journal_coden_Cambridge 643
_journal_volume 170
_journal_year 1985
_journal_page_first 213
_journal_name_full 'Z.Krist.Cryst.Mater. '
loop_
_publ_author_name
"A.Whitaker"
_chemical_name_systematic
;
(1-N-(Acetyl-(N-phenylcarbamoyl)-methylene)-azo)-4-methyl-2-nitrobenzene
;
_chemical_name_common
;
C.I.Pigment Yellow 1 and C.I.Pigment Yellow 5
;
_cell_volume   1577.524
_exptl_crystal_colour 'yellow'
_diffrn_ambient_temperature ?
_diffrn_special_details
;
The study was carried out at room temperature,in the range 283-303K

;
_refine_special_details
;
The crystal is a mixture of molecules with acetyl:acid ligand 0.53:0.47 and 
the former is shown.
;
#These two values have been output from a single CSD field.
_refine_ls_R_factor_gt 0.077
_refine_ls_wR_factor_gt 0.077
_symmetry_cell_setting monoclinic
_symmetry_space_group_name_H-M 'P 21/n'
_symmetry_Int_Tables_number 14
loop_
_symmetry_equiv_pos_site_id
_symmetry_equiv_pos_as_xyz
1 x,y,z
2 1/2-x,1/2+y,1/2-z
3 -x,-y,-z
4 -1/2+x,-1/2-y,-1/2+z
_cell_length_a 7.567(1)
_cell_length_b 20.420(3)
_cell_length_c 10.345(1)
_cell_angle_alpha 90
_cell_angle_beta 99.29(1)
_cell_angle_gamma 90
_cell_formula_units_Z 4
loop_
_atom_type_symbol
_atom_type_radius_bond
C 0.68
H 0.23
N 0.68
O 0.68
loop_
_atom_site_label
_atom_site_type_symbol
_atom_site_fract_x
_atom_site_fract_y
_atom_site_fract_z
C1 C 0.0055(4) 0.4669(2) 0.7372(3)
N1 N -0.0251(4) 0.5375(2) 0.7238(3)
O1 O 0.0484(4) 0.5742(1) 0.8087(3)
O2 O -0.1285(4) 0.5573(2) 0.6296(3)
C2 C -0.0755(5) 0.4275(2) 0.6347(4)
H1 H -0.15310 0.44880 0.55210
C3 C -0.0542(6) 0.3614(2) 0.6416(4)
C4 C -0.1212(12) 0.3172(5) 0.5379(9)
H2 H -0.19780 0.34330 0.46100
H3 H -0.20160 0.28150 0.57290
H4 H -0.01350 0.29430 0.50360
C5 C 0.0496(5) 0.3340(2) 0.7501(5)
H5 H 0.06730 0.28300 0.75500
C6 C 0.1301(5) 0.3725(2) 0.8518(4)
H6 H 0.20520 0.35030 0.93440
C7 C 0.1141(4) 0.4404(2) 0.8475(3)
N2 N 0.2015(3) 0.4783(1) 0.9495(2)
H7 H 0.14839 0.52930 0.95060
N3 N 0.3076(3) 0.4482(1) 1.0450(3)
C8 C 0.3991(4) 0.4809(2) 1.1431(3)
C9 C 0.5102(5) 0.4376(2) 1.2394(4)
C10 C 0.5104(7) 0.3656(2) 1.2114(5)
H8 H 0.3898(54) 0.3465(21) 1.1889(40)
H9 H 0.5982(50) 0.343(2) 1.2839(39)
H10 H 0.5357(52) 0.3583(19) 1.1276(38)
O3 O 0.5998(4) 0.4591(1) 1.3386(3)
C11 C 0.3934(4) 0.5532(2) 1.1556(3)
O4 O 0.3048(3) 0.5867(1) 1.0680(2)
N4 N 0.4872(4) 0.5790(4) 1.2658(3)
H11 H 0.55540 0.54500 1.3317(3)
C12 C 0.5067(4) 0.6440(2) 1.3047(3)
C13 C 0.5824(6) 0.6558(2) 1.4346(4)
H12 H 0.61710 0.61590 1.49760
C14 C 0.6127(6) 0.7182(2) 1.4822(4)
H13 H 0.67020 0.72540 1.58050
C15 C 0.5681(6) 0.7712(2) 1.4017(4)
H14 H 0.59160 0.81910 1.43730
C16 C 0.4918(6) 0.7602(2) 1.2732(4)
H15 H 0.45650 0.80050 1.21140
C17 C 0.4603(5) 0.6977(2) 1.2233(4)
H16 H 0.40200 0.69080 1.12500
#END
