
#######################################################################
#
#                 Cambridge Crystallographic Data Centre
#                                CCDC
#
#######################################################################
#
# If this CIF has been generated from an entry in the Cambridge
# Structural Database, then it will include bibliographic, chemical,
# crystal, experimental, refinement or atomic coordinate data resulting
# from the CCDC's data processing and validation procedures.
#
#######################################################################

data_CSD_CIF_QQQAZG02
_audit_creation_date 1984-11-14
_audit_creation_method CSD-ConQuest-V1
_database_code_CSD QQQAZG02
_chemical_formula_sum 'C17 H16 N4 O4'
_chemical_formula_moiety
;
C17 H16 N4 O4
;
_journal_coeditor_code "IUCr A23493"
_journal_coden_Cambridge 591
_journal_volume 40
_journal_year 1984
_journal_page_first 564
_journal_name_full 'Acta Crystallogr.,Sect.C:Cryst.Struct.Commun. '
loop_
_publ_author_name
"C.J.Brown"
"H.R.Yadav"
_chemical_name_systematic
;
\a-(4-Methyl-2-nitrophenylhydrazono)-acetoacetanilide
;
_chemical_melting_point 532
_cell_volume   1611.502
_exptl_crystal_colour 'yellow'
_exptl_crystal_density_diffrn 1.403
_diffrn_ambient_temperature ?
_diffrn_special_details
;
The study was carried out at room temperature,in the range 283-303K

;
#These two values have been output from a single CSD field.
_refine_ls_R_factor_gt 0.044
_refine_ls_wR_factor_gt 0.044
_symmetry_cell_setting monoclinic
_symmetry_space_group_name_H-M 'P 21/a'
_symmetry_Int_Tables_number 14
loop_
_symmetry_equiv_pos_site_id
_symmetry_equiv_pos_as_xyz
1 x,y,z
2 1/2-x,1/2+y,-z
3 -x,-y,-z
4 -1/2+x,-1/2-y,z
_cell_length_a 12.034(11)
_cell_length_b 20.388(13)
_cell_length_c 7.623(10)
_cell_angle_alpha 90
_cell_angle_beta 120.5(3)
_cell_angle_gamma 90
_cell_formula_units_Z 4
loop_
_atom_type_symbol
_atom_type_radius_bond
C 0.68
H 0.23
N 0.68
O 0.68
loop_
_atom_site_label
_atom_site_type_symbol
_atom_site_fract_x
_atom_site_fract_y
_atom_site_fract_z
C1 C 0.96000 0.67800 0.32890
C2 C 0.84780 0.63600 0.29710
C3 C 0.85220 0.56830 0.28840
C4 C 0.74940 0.52870 0.26590
C5 C 0.64170 0.55700 0.25830
C6 C 0.63660 0.62590 0.26420
C7 C 0.73900 0.66280 0.28380
C8 C 0.28950 0.63650 0.29480
C9 C 0.26080 0.56470 0.26630
C10 C 0.35280 0.51980 0.25300
C11 C 0.33840 0.44640 0.23960
C12 C 0.18500 0.35750 0.21030
C13 C 0.26520 0.30280 0.23690
C14 C 0.21200 0.24100 0.22080
C15 C 0.08920 0.23140 0.18360
C16 C 0.01220 0.28690 0.15470
C17 C 0.06300 0.34950 0.17160
N1 N 0.76400 0.45880 0.25470
N2 N 0.54140 0.51950 0.24770
N3 N 0.44900 0.55070 0.25600
N4 N 0.23000 0.42360 0.22690
O1 O 0.85810 0.43760 0.25370
O2 O 0.68120 0.42240 0.24540
O3 O 0.42320 0.41220 0.24130
O4 O 0.16200 0.54500 0.26110
H1 H 0.97620 0.67110 0.20320
H2 H 0.93850 0.72900 0.33710
H3 H 1.04550 0.66400 0.46910
H4 H 0.93620 0.54520 0.29910
H5 H 0.55330 0.64980 0.25360
H6 H 0.73300 0.71560 0.28880
H7 H 0.38100 0.64430 0.43240
H8 H 0.21440 0.66150 0.30640
H9 H 0.29380 0.65550 0.16610
H10 H 0.36270 0.30900 0.26800
H11 H 0.27030 0.19850 0.23860
H12 H 0.05250 0.18250 0.17650
H13 H -0.08620 0.28100 0.11940
H14 H 0.00450 0.39200 0.15380
H15 H 0.16690 0.46080 0.22960
H16 H 0.53990 0.46680 0.23320
#END
