
#######################################################################
#
#                 Cambridge Crystallographic Data Centre
#                                CCDC
#
#######################################################################
#
# If this CIF has been generated from an entry in the Cambridge
# Structural Database, then it will include bibliographic, chemical,
# crystal, experimental, refinement or atomic coordinate data resulting
# from the CCDC's data processing and validation procedures.
#
#######################################################################

data_CSD_CIF_QUBBAS
_audit_creation_date 2015-02-06
_audit_creation_method CSD-ConQuest-V1
_database_code_CSD QUBBAS
_database_code_depnum_ccdc_archive 'CCDC 1025816'
_chemical_formula_sum 'C48 H40 N4 O5'
_chemical_formula_moiety
;
C48 H40 N4 O5
;
_journal_coden_Cambridge 920
_journal_volume 10
_journal_year 2015
_journal_page_first 989
_journal_name_full 'Chem.Asian J. '
loop_
_publ_author_name
"Wei Shyang Tan"
"Po-Ya Chuang"
"Chia-Huei Chen"
"C.Prabhakar"
"Shing-Jong Huang"
"Shou-Ling Huang"
"Yi-Hung Liu"
"Ying-Chih Lin"
"Shie-Ming Peng"
"Jye-Shane Yang"
_chemical_name_systematic
;
1-(3,5-Dinitrophenyl)-2-(14-(octyloxy)nonacyclo[14.6.6.6^5,12^.0^2,15^.0^4,13^
.0^6,11^.0^17,22^.0^23,28^.0^29,34^]tetratriaconta-2(15),3,6,8,10,13,17,19,21,
23,25,27,29,31,33-pentadecaen-3-yl)diazene
;
_cell_volume   3867.473
_exptl_crystal_density_diffrn 1.293
_exptl_crystal_description 'Columnar'
_diffrn_ambient_temperature 200
#These two values have been output from a single CSD field.
_refine_ls_R_factor_gt 0.1052
_refine_ls_wR_factor_gt 0.1052
_symmetry_cell_setting monoclinic
_symmetry_space_group_name_H-M 'P 21/c'
_symmetry_Int_Tables_number 14
loop_
_symmetry_equiv_pos_site_id
_symmetry_equiv_pos_as_xyz
1 x,y,z
2 -x,1/2+y,1/2-z
3 -x,-y,-z
4 x,-1/2-y,-1/2+z
_cell_length_a 11.8647(14)
_cell_length_b 35.759(3)
_cell_length_c 9.3258(9)
_cell_angle_alpha 90
_cell_angle_beta 102.188(11)
_cell_angle_gamma 90
_cell_formula_units_Z 4
loop_
_atom_type_symbol
_atom_type_radius_bond
C 0.68
H 0.23
N 0.68
O 0.68
loop_
_atom_site_label
_atom_site_type_symbol
_atom_site_fract_x
_atom_site_fract_y
_atom_site_fract_z
O1 O 0.2572(4) 0.22481(11) 0.5165(4)
O2 O 0.0487(6) -0.02453(17) 0.1526(8)
O3 O 0.0989(6) -0.06748(16) 0.0152(7)
O4 O 0.4842(6) 0.00959(18) -0.2307(6)
O5 O 0.3884(6) -0.04242(19) -0.2604(8)
N1 N 0.2421(4) 0.09322(13) 0.1920(5)
N2 N 0.3228(5) 0.08210(14) 0.1367(6)
N3 N 0.1083(7) -0.03599(18) 0.0682(8)
N4 N 0.4075(7) -0.0115(2) -0.2061(8)
C1 C 0.2582(5) 0.19311(15) 0.4357(6)
C2 C 0.1554(5) 0.17718(15) 0.3636(6)
C3 C 0.1547(5) 0.14448(15) 0.2838(6)
C4 C 0.2565(5) 0.12670(14) 0.2715(6)
C5 C 0.3622(5) 0.14255(14) 0.3463(6)
C6 C 0.3613(5) 0.17505(15) 0.4281(6)
C7 C 0.4810(5) 0.18756(16) 0.5071(6)
H1 H 0.47980 0.21110 0.56450
C8 C 0.5478(5) 0.19148(17) 0.3852(6)
C9 C 0.6014(6) 0.22338(18) 0.3485(7)
H2 H 0.59920 0.24600 0.40140
C10 C 0.6593(6) 0.22184(19) 0.2315(7)
H3 H 0.69560 0.24350 0.20350
C11 C 0.6628(6) 0.18865(19) 0.1580(7)
H4 H 0.70320 0.18760 0.08030
C12 C 0.6090(5) 0.15662(18) 0.1944(6)
H5 H 0.61170 0.13390 0.14220
C13 C 0.5511(5) 0.15852(16) 0.3089(6)
C14 C 0.4835(5) 0.12678(15) 0.3596(6)
H6 H 0.48520 0.10320 0.30240
C15 C 0.5329(5) 0.12205(16) 0.5217(6)
C16 C 0.5733(6) 0.08952(18) 0.5881(7)
H7 H 0.57000 0.06710 0.53280
C17 C 0.6206(6) 0.0894(2) 0.7403(8)
H8 H 0.64840 0.06680 0.78860
C18 C 0.6261(6) 0.1227(2) 0.8194(7)
H9 H 0.66110 0.12310 0.92090
C19 C 0.5800(5) 0.15545(19) 0.7488(7)
H10 H 0.58030 0.17800 0.80280
C20 C 0.5346(6) 0.15479(16) 0.6017(6)
C21 C 0.0358(5) 0.19268(15) 0.3613(6)
H11 H 0.03680 0.21630 0.41920
C22 C -0.0185(5) 0.19752(15) 0.1981(6)
C23 C -0.0656(5) 0.22991(15) 0.1297(7)
H12 H -0.06280 0.25240 0.18440
C24 C -0.1168(5) 0.22964(17) -0.0175(7)
H13 H -0.14770 0.25200 -0.06490
C25 C -0.1230(6) 0.19645(17) -0.0959(7)
H14 H -0.16120 0.19600 -0.19630
C26 C -0.0743(5) 0.16402(16) -0.0297(6)
H15 H -0.07660 0.14160 -0.08490
C27 C -0.0220(5) 0.16456(15) 0.1179(6)
C28 C 0.0328(5) 0.13144(15) 0.2108(6)
H16 H 0.03200 0.10780 0.15320
C29 C -0.0337(5) 0.12844(15) 0.3324(6)
C30 C -0.0942(6) 0.09741(16) 0.3629(7)
H17 H -0.09480 0.07510 0.30730
C31 C -0.1542(6) 0.09919(18) 0.4756(7)
H18 H -0.19460 0.07780 0.49850
C32 C -0.1555(6) 0.13160(18) 0.5543(7)
H19 H -0.19840 0.13280 0.62950
C33 C -0.0931(5) 0.16305(16) 0.5231(6)
H20 H -0.09190 0.18530 0.57880
C34 C -0.0344(5) 0.16117(15) 0.4124(6)
C35 C 0.292(1) 0.2577(2) 0.4524(13)
H21 H 0.37650 0.25960 0.48860
H22 H 0.27960 0.25260 0.34580
C36 C 0.2531(14) 0.2896(3) 0.4639(18)
H23 H 0.26310 0.29480 0.57010
H24 H 0.16910 0.28840 0.42340
C37 C 0.2979(10) 0.3231(2) 0.3965(13)
H25 H 0.35140 0.33690 0.47460
H26 H 0.34280 0.31440 0.32480
C38 C 0.2075(8) 0.3497(2) 0.3208(10)
H27 H 0.16870 0.36110 0.39420
H28 H 0.14880 0.33560 0.24990
C39 C 0.2565(8) 0.3805(2) 0.2403(9)
H29 H 0.28410 0.36920 0.15690
H30 H 0.32400 0.39150 0.30760
C40 C 0.1721(8) 0.4113(2) 0.1824(10)
H31 H 0.10110 0.40010 0.12340
H32 H 0.15100 0.42450 0.26640
C41 C 0.2188(10) 0.4395(2) 0.0891(10)
H33 H 0.29490 0.44820 0.14430
H34 H 0.23140 0.42670 -0.00030
C42 C 0.1433(11) 0.4733(3) 0.0431(12)
H35 H 0.18110 0.49010 -0.01520
H36 H 0.13090 0.48650 0.13060
H37 H 0.06890 0.46530 -0.01580
C43 C 0.2979(6) 0.04662(17) 0.0683(7)
C44 C 0.2137(6) 0.02287(17) 0.1003(7)
H38 H 0.16810 0.03030 0.16770
C45 C 0.1971(6) -0.01170(18) 0.0328(8)
C46 C 0.2595(7) -0.02387(19) -0.0686(8)
H39 H 0.24620 -0.04760 -0.11480
C47 C 0.3429(7) 0.00068(19) -0.0988(8)
C48 C 0.3623(6) 0.03526(18) -0.0332(7)
H40 H 0.41940 0.05130 -0.05680
#END
