
#######################################################################
#
#                 Cambridge Crystallographic Data Centre
#                                CCDC
#
#######################################################################
#
# If this CIF has been generated from an entry in the Cambridge
# Structural Database, then it will include bibliographic, chemical,
# crystal, experimental, refinement or atomic coordinate data resulting
# from the CCDC's data processing and validation procedures.
#
#######################################################################

data_CSD_CIF_QUBJII
_audit_creation_date 2015-02-06
_audit_creation_method CSD-ConQuest-V1
_database_code_CSD QUBJII
_database_code_depnum_ccdc_archive 'CCDC 1007710'
_chemical_formula_sum 'C19 H20 N2 O2'
_chemical_formula_moiety
;
C19 H20 N2 O2
;
_journal_coden_Cambridge 1336
_journal_volume 16
_journal_year 2014
_journal_page_first 4650
_journal_name_full 'Org.Lett. '
loop_
_publ_author_name
"Xie-Xue Peng"
"Yun-Jing Deng"
"Xiu-Long Yang"
"Lin Zhang"
"Wei Yu"
"Bing Han"
_chemical_name_systematic
;
(Z)-2-((hydroxyimino)(phenyl)methyl)-4,4-dimethyl-5-phenyl-3,4-dihydro-2H-pyrr
ole 1-oxide unknown solvate
;
_chemical_name_common
;
1-(4,4-dimethyl-1-oxido-5-phenyl-3,4-dihydro-2H-pyrrol-2-yl)-N-hydroxy-1-pheny
lmethanimine unknown solvate
;
_chemical_melting_point 463
_cell_volume    920.652
_exptl_crystal_colour 'white'
_exptl_crystal_density_diffrn 1.112
_exptl_special_details
;
Melting point range 463-465K

;
_exptl_crystal_description 'block'
_exptl_crystal_preparation 'Dichloromethane/ Petroleum ether'
_diffrn_ambient_temperature 293
_refine_special_details
;
The MASK/OLEX2 program has been used to model some disorder.

;
#These two values have been output from a single CSD field.
_refine_ls_R_factor_gt 0.0619
_refine_ls_wR_factor_gt 0.0619
_symmetry_cell_setting triclinic
_symmetry_space_group_name_H-M 'P -1'
_symmetry_Int_Tables_number 2
loop_
_symmetry_equiv_pos_site_id
_symmetry_equiv_pos_as_xyz
1 x,y,z
2 -x,-y,-z
_cell_length_a 8.4089(8)
_cell_length_b 10.0499(15)
_cell_length_c 12.6368(17)
_cell_angle_alpha 102.268(12)
_cell_angle_beta 103.727(10)
_cell_angle_gamma 110.298(11)
_cell_formula_units_Z 2
loop_
_atom_type_symbol
_atom_type_radius_bond
C 0.68
H 0.23
N 0.68
O 0.68
loop_
_atom_site_label
_atom_site_type_symbol
_atom_site_fract_x
_atom_site_fract_y
_atom_site_fract_z
O1 O 0.1613(2) 1.05183(17) -0.04620(12)
H1 H 0.09960 1.08920 -0.07790
C1 C 0.5390(3) 0.7040(3) 0.2046(2)
H2 H 0.64980 0.73680 0.18870
H3 H 0.50080 0.60100 0.20120
H4 H 0.55710 0.76450 0.28000
C2 C 0.3939(3) 0.7197(2) 0.11492(18)
N1 N 0.2431(2) 1.1340(2) 0.07103(16)
C3 C 0.4529(3) 0.8821(3) 0.1114(2)
H5 H 0.53790 0.95300 0.18550
H6 H 0.50910 0.89450 0.05330
C4 C 0.4909(3) 1.3018(3) 0.2915(2)
H7 H 0.50130 1.34930 0.23620
O2 O 0.01823(19) 0.80415(18) 0.13593(14)
C5 C 0.3486(4) 0.6121(3) -0.0047(2)
H8 H 0.45470 0.63550 -0.02620
H9 H 0.25670 0.62250 -0.05970
H10 H 0.30590 0.51090 -0.00330
C6 C 0.0502(3) 0.6166(3) 0.2721(2)
H11 H 0.04650 0.70990 0.29050
C7 C -0.0266(4) 0.5146(3) 0.3217(2)
H12 H -0.07960 0.54010 0.37500
N2 N 0.1651(2) 0.79531(18) 0.12562(15)
C8 C 0.5730(4) 1.3867(3) 0.4062(3)
H13 H 0.63480 1.49030 0.42740
C9 C 0.2237(3) 0.6959(2) 0.14596(17)
C10 C 0.1359(3) 0.4425(3) 0.1677(2)
H14 H 0.19200 0.41800 0.11620
C11 C 0.2998(3) 1.0618(2) 0.13214(18)
C12 C 0.3938(3) 1.1485(2) 0.25602(19)
C13 C 0.0559(3) 0.3388(3) 0.2167(2)
H15 H 0.05740 0.24470 0.19770
C14 C 0.2819(3) 0.9056(2) 0.08217(18)
H16 H 0.22810 0.87410 -0.00180
C15 C 0.4750(6) 1.1687(4) 0.4573(3)
H17 H 0.47130 1.12220 0.51340
C16 C 0.1335(3) 0.5824(2) 0.19451(17)
C17 C 0.5638(4) 1.3193(4) 0.4884(3)
H18 H 0.61840 1.37670 0.56590
C18 C -0.0263(4) 0.3750(3) 0.2939(3)
H19 H -0.08110 0.30540 0.32670
C19 C 0.3895(5) 1.0831(3) 0.3418(2)
H20 H 0.32800 0.97970 0.32160
#END
