
#######################################################################
#
#                 Cambridge Crystallographic Data Centre
#                                CCDC
#
#######################################################################
#
# If this CIF has been generated from an entry in the Cambridge
# Structural Database, then it will include bibliographic, chemical,
# crystal, experimental, refinement or atomic coordinate data resulting
# from the CCDC's data processing and validation procedures.
#
#######################################################################

data_CSD_CIF_QUBMUW
_audit_creation_date 2009-11-17
_audit_creation_method CSD-ConQuest-V1
_database_code_CSD QUBMUW
_database_code_depnum_ccdc_archive 'CCDC 746068'
_chemical_formula_sum 'C22 H17 N3 O2'
_chemical_formula_moiety
;
C22 H17 N3 O2
;
_journal_coeditor_code "IUCr GG3195"
_journal_coden_Cambridge 591
_journal_volume 65
_journal_year 2009
_journal_page_first o365
_journal_name_full 'Acta Crystallogr.,Sect.C:Cryst.Struct.Commun. '
loop_
_publ_author_name
"D.Yanover"
"M.Kaftory"
_chemical_name_systematic
;
1-Methyl-2-(3-nitrophenyl)-4,5-diphenyl-1H-imidazole
;
_cell_volume   1802.609
_exptl_crystal_colour 'yellow'
_exptl_crystal_density_diffrn 1.31
_exptl_crystal_description 'plate'
_exptl_crystal_preparation 'acetonitrile'
_diffrn_ambient_temperature 293
#These two values have been output from a single CSD field.
_refine_ls_R_factor_gt 0.0564
_refine_ls_wR_factor_gt 0.0564
_symmetry_cell_setting monoclinic
_symmetry_space_group_name_H-M 'P 21/c'
_symmetry_Int_Tables_number 14
loop_
_symmetry_equiv_pos_site_id
_symmetry_equiv_pos_as_xyz
1 x,y,z
2 -x,1/2+y,1/2-z
3 -x,-y,-z
4 x,-1/2-y,-1/2+z
_cell_length_a 16.242(3)
_cell_length_b 9.583(2)
_cell_length_c 11.615(2)
_cell_angle_alpha 90
_cell_angle_beta 94.36(2)
_cell_angle_gamma 90
_cell_formula_units_Z 4
loop_
_atom_type_symbol
_atom_type_radius_bond
C 0.68
H 0.23
N 0.68
O 0.68
loop_
_atom_site_label
_atom_site_type_symbol
_atom_site_fract_x
_atom_site_fract_y
_atom_site_fract_z
N1 N 0.29718(11) 0.62150(18) 0.56097(15)
N2 N 0.24985(12) 0.77893(17) 0.43241(16)
N3 N 0.44693(14) 1.1969(2) 0.4849(2)
O1 O 0.43516(13) 1.18055(19) 0.38129(19)
O2 O 0.48089(15) 1.2993(2) 0.5286(2)
C1 C 0.35062(14) 0.8685(2) 0.58039(18)
C2 C 0.36471(16) 0.8822(2) 0.7004(2)
H1 H 0.34560 0.81100 0.75000
C3 C 0.40664(17) 0.9967(3) 0.7481(2)
H2 H 0.41570 1.00670 0.83040
C4 C 0.43443(16) 1.1010(2) 0.6788(2)
H3 H 0.46440 1.18100 0.70900
C5 C 0.41943(14) 1.0863(2) 0.5615(2)
C6 C 0.37952(14) 0.9729(2) 0.5113(2)
H4 H 0.37120 0.96390 0.42890
C7 C 0.30113(14) 0.7572(2) 0.52405(19)
C8 C 0.23869(14) 0.5544(2) 0.48800(19)
C9 C 0.20959(14) 0.6538(2) 0.40956(18)
C10 C 0.14388(14) 0.6451(2) 0.31503(19)
C11 C 0.08058(16) 0.5466(2) 0.3139(2)
H5 H 0.07970 0.48050 0.37580
C12 C 0.01967(18) 0.5451(3) 0.2239(3)
H6 H -0.02390 0.47750 0.22370
C13 C 0.02078(18) 0.6384(3) 0.1349(2)
H7 H -0.02210 0.63640 0.07340
C14 C 0.08184(17) 0.7361(3) 0.1353(2)
H8 H 0.08390 0.80020 0.07200
C15 C 0.14259(16) 0.7400(2) 0.2247(2)
H9 H 0.18460 0.81050 0.22560
C16 C 0.21831(15) 0.4063(2) 0.5027(2)
C17 C 0.18107(19) 0.3616(3) 0.5993(2)
H10 H 0.16830 0.42930 0.65610
C18 C 0.1625(2) 0.2221(3) 0.6144(3)
H11 H 0.13680 0.18930 0.68100
C19 C 0.1812(2) 0.1270(3) 0.5320(3)
H12 H 0.16900 0.03020 0.54380
C20 C 0.21659(18) 0.1693(3) 0.4354(3)
H13 H 0.22770 0.10090 0.37830
C21 C 0.23568(16) 0.3083(2) 0.4202(2)
H14 H 0.26170 0.33850 0.35300
C22 C 0.35172(17) 0.5524(2) 0.6496(2)
H15 H 0.33540 0.45710 0.65930
H16 H 0.34910 0.60150 0.72120
H17 H 0.40720 0.55520 0.62640
#END
