
#######################################################################
#
#                 Cambridge Crystallographic Data Centre
#                                CCDC
#
#######################################################################
#
# If this CIF has been generated from an entry in the Cambridge
# Structural Database, then it will include bibliographic, chemical,
# crystal, experimental, refinement or atomic coordinate data resulting
# from the CCDC's data processing and validation procedures.
#
#######################################################################

data_CSD_CIF_QUCJEE
_audit_creation_date 2009-11-17
_audit_creation_method CSD-ConQuest-V1
_database_code_CSD QUCJEE
_database_code_depnum_ccdc_archive 'CCDC 750706'
_chemical_formula_sum 'C15 H13 N3 O3'
_chemical_formula_moiety
;
C15 H13 N3 O3
;
_journal_coeditor_code "IUCr LX2109"
_journal_coden_Cambridge 1370
_journal_volume 65
_journal_year 2009
_journal_page_first o2462
_journal_name_full 'Acta Crystallogr.,Sect.E:Struct.Rep.Online '
loop_
_publ_author_name
"Li Zhao"
"Wen-Kui Dong"
"Jian-Chao Wu"
"Yin-Xia Sun"
"Li Xu"
_chemical_name_systematic
;
4-(N-Hydroxyethanimidoyl)-N-(4-nitrobenzylidene)aniline
;
_chemical_name_common
;
4-[1-(Hydroxyimino)ethyl]-N-(4-nitrobenzylidene)aniline
;
_chemical_melting_point 484
_cell_volume   1342.822
_exptl_crystal_colour 'pale-yellow'
_exptl_crystal_density_diffrn 1.401
_exptl_special_details
;
Melting point range 484-485K

;
_exptl_crystal_description 'block-like'
_exptl_crystal_preparation 'ethyl acetate'
_diffrn_ambient_temperature 298
#These two values have been output from a single CSD field.
_refine_ls_R_factor_gt 0.0426
_refine_ls_wR_factor_gt 0.0426
_symmetry_cell_setting orthorhombic
_symmetry_space_group_name_H-M 'P 21 21 21'
_symmetry_Int_Tables_number 19
loop_
_symmetry_equiv_pos_site_id
_symmetry_equiv_pos_as_xyz
1 x,y,z
2 1/2-x,-y,1/2+z
3 -x,1/2+y,1/2-z
4 1/2+x,1/2-y,-z
_cell_length_a 7.375(1)
_cell_length_b 10.770(2)
_cell_length_c 16.906(2)
_cell_angle_alpha 90
_cell_angle_beta 90
_cell_angle_gamma 90
_cell_formula_units_Z 4
loop_
_atom_type_symbol
_atom_type_radius_bond
C 0.68
H 0.23
N 0.68
O 0.68
loop_
_atom_site_label
_atom_site_type_symbol
_atom_site_fract_x
_atom_site_fract_y
_atom_site_fract_z
N1 N 0.7084(5) 0.5375(3) 0.90756(16)
N2 N 0.6140(4) 0.6960(3) 0.54920(16)
N3 N 0.6281(5) 0.8627(4) 0.1831(2)
O1 O 0.7150(4) 0.5267(3) 0.99032(15)
H1 H 0.784(6) 0.454(4) 0.999(3)
O2 O 0.6733(5) 0.9635(3) 0.15589(17)
O3 O 0.5894(6) 0.7723(3) 0.14311(17)
C1 C 0.5534(7) 0.7318(4) 0.9402(2)
H2 H 0.58210 0.70900 0.99360
H3 H 0.42410 0.73520 0.93390
H4 H 0.60460 0.81170 0.92860
C2 C 0.6304(5) 0.6371(3) 0.8846(2)
C3 C 0.6214(5) 0.6542(3) 0.79802(19)
C4 C 0.5531(5) 0.7611(3) 0.76460(19)
H5 H 0.50840 0.82350 0.79720
C5 C 0.5498(5) 0.7776(3) 0.6832(2)
H6 H 0.50410 0.85100 0.66210
C6 C 0.6133(5) 0.6869(3) 0.63323(19)
C7 C 0.6787(5) 0.5777(3) 0.6663(2)
H7 H 0.72010 0.51450 0.63340
C8 C 0.6832(5) 0.5618(3) 0.7469(2)
H8 H 0.72830 0.48800 0.76770
C9 C 0.6249(5) 0.8019(3) 0.5170(2)
H9 H 0.63640 0.87190 0.54890
C10 C 0.6198(5) 0.8171(3) 0.43071(19)
C11 C 0.6747(5) 0.9298(3) 0.3977(2)
H10 H 0.70980 0.99480 0.43050
C12 C 0.6773(5) 0.9453(4) 0.3167(2)
H11 H 0.71560 1.01980 0.29440
C13 C 0.6223(5) 0.8484(4) 0.2699(2)
C14 C 0.5622(5) 0.7378(3) 0.3007(2)
H12 H 0.52230 0.67430 0.26780
C15 C 0.5627(5) 0.7232(3) 0.3816(2)
H13 H 0.52370 0.64850 0.40340
#END
