
#######################################################################
#
#                 Cambridge Crystallographic Data Centre
#                                CCDC
#
#######################################################################
#
# If this CIF has been generated from an entry in the Cambridge
# Structural Database, then it will include bibliographic, chemical,
# crystal, experimental, refinement or atomic coordinate data resulting
# from the CCDC's data processing and validation procedures.
#
#######################################################################

data_CSD_CIF_QUDROX
_audit_creation_date 2010-07-07
_audit_creation_method CSD-ConQuest-V1
_database_code_CSD QUDROX
_database_code_depnum_ccdc_archive 'CCDC 721723'
_chemical_formula_sum 'C16 H10 N2 O4'
_chemical_formula_moiety
;
C16 H10 N2 O4
;
_journal_coden_Cambridge 1291
_journal_year 2009
_journal_page_first 5971
_journal_name_full 'Eur.J.Org.Chem. '
loop_
_publ_author_name
"E.Trogu"
"L.Cecchi"
"F.De Sarlo"
"L.Guideri"
"F.Ponticelli"
"F.Machetti"
_chemical_name_systematic
;
(4-Nitro-5-phenyl-1,2-oxazol-3-yl)(phenyl)methanone
;
_chemical_melting_point 373
_cell_volume   1380.886
_exptl_crystal_colour 'white'
_exptl_crystal_density_diffrn 1.415
_exptl_special_details
;
Melting point range 373-374K

;
_exptl_crystal_description 'polyhedron'
_exptl_crystal_preparation 'methanol/diethyl ether'
_diffrn_ambient_temperature 293
#These two values have been output from a single CSD field.
_refine_ls_R_factor_gt 0.0399
_refine_ls_wR_factor_gt 0.0399
_symmetry_cell_setting monoclinic
_symmetry_space_group_name_H-M 'P 21/n'
_symmetry_Int_Tables_number 14
loop_
_symmetry_equiv_pos_site_id
_symmetry_equiv_pos_as_xyz
1 x,y,z
2 1/2-x,1/2+y,1/2-z
3 -x,-y,-z
4 -1/2+x,-1/2-y,-1/2+z
_cell_length_a 5.737(1)
_cell_length_b 12.195(1)
_cell_length_c 19.844(3)
_cell_angle_alpha 90
_cell_angle_beta 95.94(1)
_cell_angle_gamma 90
_cell_formula_units_Z 4
loop_
_atom_type_symbol
_atom_type_radius_bond
C 0.68
H 0.23
N 0.68
O 0.68
loop_
_atom_site_label
_atom_site_type_symbol
_atom_site_fract_x
_atom_site_fract_y
_atom_site_fract_z
O1 O 0.7749(3) -0.05082(12) 0.51369(7)
O2 O 1.1216(2) -0.05336(11) 0.71043(6)
N1 N 1.2675(3) -0.14307(14) 0.69802(9)
O3 O 0.9952(3) -0.19298(12) 0.50553(7)
O4 O 1.5182(3) -0.24838(13) 0.58713(10)
C1 C 0.8175(3) 0.06179(15) 0.66219(9)
C2 C 1.2007(3) -0.17412(16) 0.63628(10)
N2 N 0.9194(3) -0.11723(14) 0.53764(8)
C3 C 0.9718(3) -0.03181(15) 0.65495(9)
C4 C 0.8910(4) 0.14479(17) 0.70803(10)
C5 C 1.0162(3) -0.10728(15) 0.60689(9)
C6 C 1.2202(3) -0.37719(16) 0.60463(10)
C7 C 0.5983(4) 0.07004(18) 0.62576(11)
C8 C 0.5338(4) 0.24145(19) 0.67946(11)
C9 C 0.7489(4) 0.23375(18) 0.71629(11)
C10 C 1.0272(4) -0.39883(19) 0.63839(12)
C11 C 1.3292(4) -0.26775(17) 0.60638(10)
C12 C 0.4580(4) 0.15940(19) 0.63454(11)
C13 C 1.3143(5) -0.46025(19) 0.56854(12)
C14 C 1.2131(5) -0.5627(2) 0.56543(14)
C15 C 0.9316(5) -0.5028(2) 0.63633(13)
C16 C 1.0234(5) -0.5840(2) 0.59941(13)
H1 H 1.044(4) 0.1399(15) 0.733(1)
H2 H 0.440(4) 0.3036(17) 0.6849(10)
H3 H 0.305(4) 0.1652(17) 0.6096(10)
H4 H 0.805(4) 0.2918(18) 0.7467(11)
H5 H 0.549(4) 0.0135(18) 0.5944(10)
H6 H 0.947(4) -0.656(2) 0.5975(11)
H7 H 0.797(4) -0.519(2) 0.6590(11)
H8 H 0.964(4) -0.3430(19) 0.6630(11)
H9 H 1.443(4) -0.4437(19) 0.5462(12)
H10 H 1.281(4) -0.620(2) 0.5398(12)
#END
