
#######################################################################
#
#                 Cambridge Crystallographic Data Centre
#                                CCDC
#
#######################################################################
#
# If this CIF has been generated from an entry in the Cambridge
# Structural Database, then it will include bibliographic, chemical,
# crystal, experimental, refinement or atomic coordinate data resulting
# from the CCDC's data processing and validation procedures.
#
#######################################################################

data_CSD_CIF_QUFPAK
_audit_creation_date 2015-06-06
_audit_creation_method CSD-ConQuest-V1
_database_code_CSD QUFPAK
_database_code_depnum_ccdc_archive 'CCDC 1057558'
_chemical_formula_sum 'C6 H6 N4 O4'
_chemical_formula_moiety
;
C6 H6 N4 O4
;
_journal_coden_Cambridge 1291
_journal_year 2015
_journal_page_first 4311
_journal_name_full 'Eur.J.Org.Chem. '
loop_
_publ_author_name
"T.M.Klapotke"
"A.Preimesser"
"J.Stierstorfer"
_chemical_name_systematic
;
2,6-dinitrobenzene-1,4-diamine
;
_chemical_name_common
;
1,4-diamino,2,6-dinitrobenzene
;
_cell_volume    755.604
_exptl_crystal_colour 'red'
_exptl_crystal_density_diffrn 1.742
_exptl_crystal_description 'plate'
_diffrn_ambient_temperature 173
#These two values have been output from a single CSD field.
_refine_ls_R_factor_gt 0.0354
_refine_ls_wR_factor_gt 0.0354
_symmetry_cell_setting monoclinic
_symmetry_space_group_name_H-M 'P 21/c'
_symmetry_Int_Tables_number 14
loop_
_symmetry_equiv_pos_site_id
_symmetry_equiv_pos_as_xyz
1 x,y,z
2 -x,1/2+y,1/2-z
3 -x,-y,-z
4 x,-1/2-y,-1/2+z
_cell_length_a 5.1323(4)
_cell_length_b 14.2678(9)
_cell_length_c 10.4372(9)
_cell_angle_alpha 90
_cell_angle_beta 98.642(7)
_cell_angle_gamma 90
_cell_formula_units_Z 4
loop_
_atom_type_symbol
_atom_type_radius_bond
C 0.68
H 0.23
N 0.68
O 0.68
loop_
_atom_site_label
_atom_site_type_symbol
_atom_site_fract_x
_atom_site_fract_y
_atom_site_fract_z
O1 O 0.9150(2) -0.05034(8) 0.33173(12)
O2 O 0.6611(3) 0.04499(9) 0.41248(12)
O3 O 1.2331(2) 0.22638(8) -0.10102(11)
O4 O 1.3743(2) 0.08976(8) -0.03531(10)
N1 N 1.1917(3) 0.00628(9) 0.15555(14)
N2 N 0.8096(2) 0.02710(9) 0.33441(12)
N3 N 0.5926(3) 0.33617(10) 0.16760(15)
N4 N 1.2321(2) 0.15898(9) -0.02751(12)
C1 C 1.0454(3) 0.08386(10) 0.15565(13)
C2 C 0.8569(3) 0.0986(1) 0.24175(13)
C3 C 0.7079(3) 0.17911(11) 0.24343(14)
C4 C 0.7329(3) 0.25357(10) 0.16003(14)
C5 C 0.9114(3) 0.24286(11) 0.07341(14)
C6 C 1.0589(3) 0.16152(10) 0.07034(13)
H1 H 0.932(3) 0.2894(12) 0.0184(17)
H2 H 0.462(4) 0.3302(14) 0.207(2)
H3 H 0.585(3) 0.1834(12) 0.3025(17)
H4 H 1.305(4) 0.0076(14) 0.100(2)
H5 H 1.179(4) -0.0424(14) 0.214(2)
H6 H 0.568(4) 0.3700(14) 0.096(2)
#END
