
#######################################################################
#
#                 Cambridge Crystallographic Data Centre
#                                CCDC
#
#######################################################################
#
# If this CIF has been generated from an entry in the Cambridge
# Structural Database, then it will include bibliographic, chemical,
# crystal, experimental, refinement or atomic coordinate data resulting
# from the CCDC's data processing and validation procedures.
#
#######################################################################

data_CSD_CIF_QUFPUE
_audit_creation_date 2015-06-06
_audit_creation_method CSD-ConQuest-V1
_database_code_CSD QUFPUE
_database_code_depnum_ccdc_archive 'CCDC 1057561'
_chemical_formula_sum 'C6 H2 N4 O6'
_chemical_formula_moiety
;
C6 H2 N4 O6
;
_journal_coden_Cambridge 1291
_journal_year 2015
_journal_page_first 4311
_journal_name_full 'Eur.J.Org.Chem. '
loop_
_publ_author_name
"T.M.Klapotke"
"A.Preimesser"
"J.Stierstorfer"
_chemical_name_systematic
;
6-diazonio-3-hydroxy-2,4-dinitrophenolate
;
_chemical_name_common
;
3-Hydroxy-6-diazo-2,4-dinitro-phenolate
;
_cell_volume   1634.796
_exptl_crystal_colour 'yellow'
_exptl_crystal_density_diffrn 1.837
_exptl_crystal_description 'plate'
_diffrn_ambient_temperature 173
#These two values have been output from a single CSD field.
_refine_ls_R_factor_gt 0.0334
_refine_ls_wR_factor_gt 0.0334
_symmetry_cell_setting orthorhombic
_symmetry_space_group_name_H-M 'P b c a'
_symmetry_Int_Tables_number 61
loop_
_symmetry_equiv_pos_site_id
_symmetry_equiv_pos_as_xyz
1 x,y,z
2 1/2-x,-y,1/2+z
3 1/2+x,1/2-y,-z
4 -x,1/2+y,1/2-z
5 -x,-y,-z
6 -1/2+x,y,-1/2-z
7 -1/2-x,-1/2+y,z
8 x,-1/2-y,-1/2+z
_cell_length_a 11.3036(4)
_cell_length_b 9.3770(4)
_cell_length_c 15.4235(5)
_cell_angle_alpha 90
_cell_angle_beta 90
_cell_angle_gamma 90
_cell_formula_units_Z 8
loop_
_atom_type_symbol
_atom_type_radius_bond
C 0.68
H 0.23
N 0.68
O 0.68
loop_
_atom_site_label
_atom_site_type_symbol
_atom_site_fract_x
_atom_site_fract_y
_atom_site_fract_z
O1 O -0.12014(9) 0.20189(11) 0.23799(7)
O2 O 0.06151(14) 0.15599(14) 0.09922(8)
O3 O 0.03443(13) 0.37741(16) 0.06652(7)
O4 O 0.23417(9) 0.44293(11) 0.17860(7)
O5 O 0.34324(9) 0.54554(12) 0.31024(8)
O6 O 0.25882(12) 0.55354(14) 0.43596(7)
N1 N 0.05192(11) 0.28204(15) 0.11846(8)
N2 N 0.26165(11) 0.51296(14) 0.36082(8)
N3 N -0.09303(12) 0.24651(14) 0.41055(8)
N4 N -0.16490(13) 0.20093(17) 0.44996(10)
C1 C -0.03121(12) 0.26461(15) 0.26417(9)
C2 C 0.06210(13) 0.31743(16) 0.21022(9)
C3 C 0.15687(12) 0.39651(14) 0.23717(9)
C4 C 0.16735(12) 0.42484(15) 0.32836(9)
C5 C 0.08572(13) 0.37567(15) 0.38618(9)
C6 C -0.00974(13) 0.29830(15) 0.35500(9)
H1 H 0.0947(15) 0.3929(19) 0.4454(12)
H2 H 0.287(2) 0.492(3) 0.2070(16)
#END
