
#######################################################################
#
#                 Cambridge Crystallographic Data Centre
#                                CCDC
#
#######################################################################
#
# If this CIF has been generated from an entry in the Cambridge
# Structural Database, then it will include bibliographic, chemical,
# crystal, experimental, refinement or atomic coordinate data resulting
# from the CCDC's data processing and validation procedures.
#
#######################################################################

data_CSD_CIF_QUFSAN
_audit_creation_date 2015-06-06
_audit_creation_method CSD-ConQuest-V1
_database_code_CSD QUFSAN
_database_code_depnum_ccdc_archive 'CCDC 1403525'
_chemical_formula_sum 'C13 H9 N3 O6'
_chemical_formula_moiety
;
C13 H9 N3 O6
;
_journal_coeditor_code "su5141"
_journal_coden_Cambridge 1828
_journal_volume 71
_journal_year 2015
_journal_page_first 744
_journal_name_full 'Acta Crystallogr.,Sect.E:Cryst.Commun. '
loop_
_publ_author_name
"R.Raja"
"S.Sathiyaraj"
"B.M.Ali"
"A.S.Nasar"
_chemical_name_systematic
;
phenyl (3,5-dinitrophenyl)carbamate
;
_cell_volume   1320.081
_exptl_crystal_colour 'yellow'
_exptl_crystal_density_diffrn 1.526
_exptl_crystal_description 'block'
_diffrn_ambient_temperature 293
#These two values have been output from a single CSD field.
_refine_ls_R_factor_gt 0.0443
_refine_ls_wR_factor_gt 0.0443
_symmetry_cell_setting monoclinic
_symmetry_space_group_name_H-M 'P 21/c'
_symmetry_Int_Tables_number 14
loop_
_symmetry_equiv_pos_site_id
_symmetry_equiv_pos_as_xyz
1 x,y,z
2 -x,1/2+y,1/2-z
3 -x,-y,-z
4 x,-1/2-y,-1/2+z
_cell_length_a 12.2549(4)
_cell_length_b 8.8717(4)
_cell_length_c 12.1470(5)
_cell_angle_alpha 90
_cell_angle_beta 91.673(2)
_cell_angle_gamma 90
_cell_formula_units_Z 4
loop_
_atom_type_symbol
_atom_type_radius_bond
C 0.68
H 0.23
N 0.68
O 0.68
loop_
_atom_site_label
_atom_site_type_symbol
_atom_site_fract_x
_atom_site_fract_y
_atom_site_fract_z
O1 O 0.61513(10) 0.32392(15) 0.60653(10)
O2 O 0.79022(12) 0.31538(18) 0.63113(11)
O3 O 1.00811(10) 0.0409(2) 0.37541(12)
O4 O 0.93014(11) -0.11517(17) 0.26319(12)
O5 O 0.42568(8) 0.16533(11) 0.29697(8)
O6 O 0.38141(10) -0.04444(13) 0.20033(12)
N1 N 0.70568(11) 0.27772(15) 0.58344(10)
N2 N 0.92743(10) -0.01973(18) 0.33498(11)
N3 N 0.53349(9) -0.04417(13) 0.30003(10)
H1 H 0.53270 -0.13900 0.28520
C1 C 0.72796(11) -0.03251(16) 0.32278(11)
H2 H 0.73400 -0.10280 0.26650
C2 C 0.81974(11) 0.02594(17) 0.37459(11)
C3 C 0.81594(12) 0.12779(17) 0.46001(11)
H3 H 0.87890 0.16570 0.49440
C4 C 0.71342(12) 0.17011(15) 0.49145(11)
C5 C 0.61827(11) 0.11716(15) 0.44186(11)
H4 H 0.55060 0.14910 0.46550
C6 C 0.62602(11) 0.01493(14) 0.35580(11)
C7 C 0.44606(11) 0.03875(15) 0.26836(12)
C8 C 0.29939(12) 0.03219(17) 0.13844(14)
C9 C 0.19265(13) 0.0095(2) 0.16418(15)
H5 H 0.17470 -0.04810 0.22500
C10 C 0.11244(14) 0.0740(2) 0.09776(16)
H6 H 0.03940 0.05930 0.11370
C11 C 0.13885(15) 0.1595(2) 0.00871(15)
H7 H 0.08390 0.20240 -0.03540
C12 C 0.24650(15) 0.1821(2) -0.01578(14)
H8 H 0.26430 0.24070 -0.07610
C13 C 0.32810(14) 0.1174(2) 0.04939(15)
H9 H 0.40110 0.13140 0.03330
#END
