
#######################################################################
#
#                 Cambridge Crystallographic Data Centre
#                                CCDC
#
#######################################################################
#
# If this CIF has been generated from an entry in the Cambridge
# Structural Database, then it will include bibliographic, chemical,
# crystal, experimental, refinement or atomic coordinate data resulting
# from the CCDC's data processing and validation procedures.
#
#######################################################################

data_CSD_CIF_QUGLIN
_audit_creation_date 2001-09-03
_audit_creation_method CSD-ConQuest-V1
_database_code_CSD QUGLIN
_database_code_depnum_ccdc_archive 'CCDC 157040'
_chemical_formula_sum 'C15 H12 N2 O3'
_chemical_formula_moiety
;
C15 H12 N2 O3
;
_journal_coden_Cambridge 188
_journal_year 2001
_journal_page_first 1139
_journal_name_full 'J.Chem.Soc.,Perkin Trans.2 '
loop_
_publ_author_name
"E.Damiani"
"L.Greci"
"C.Rizzoli"
_chemical_name_systematic
;
2-Methyl-2-phenyl-N-nitroindolin-3-one
;
_cell_volume   1329.128
_exptl_crystal_colour 'yellow'
_exptl_crystal_density_diffrn 1.341
_exptl_crystal_description 'prism'
_diffrn_ambient_temperature ?
_diffrn_special_details
;
The study was carried out at room temperature,in the range 283-303K

;
#These two values have been output from a single CSD field.
_refine_ls_R_factor_gt 0.0873
_refine_ls_wR_factor_gt 0.0873
_symmetry_cell_setting monoclinic
_symmetry_space_group_name_H-M 'P 21/n'
_symmetry_Int_Tables_number 14
loop_
_symmetry_equiv_pos_site_id
_symmetry_equiv_pos_as_xyz
1 x,y,z
2 1/2+x,1/2-y,1/2+z
3 -x,-y,-z
4 -1/2-x,-1/2+y,-1/2-z
_cell_length_a 9.871(2)
_cell_length_b 13.901(3)
_cell_length_c 10.714(2)
_cell_angle_alpha 90
_cell_angle_beta 115.3(2)
_cell_angle_gamma 90
_cell_formula_units_Z 4
loop_
_atom_type_symbol
_atom_type_radius_bond
C 0.68
H 0.23
N 0.68
O 0.68
loop_
_atom_site_label
_atom_site_type_symbol
_atom_site_fract_x
_atom_site_fract_y
_atom_site_fract_z
O1 O 0.2761(4) 0.5156(3) -0.4330(3)
O2 O 0.6219(7) 0.8005(4) -0.2100(5)
O3 O 0.4567(7) 0.8810(5) -0.1823(5)
N1 N 0.4027(5) 0.7367(3) -0.2630(4)
N2 N 0.4981(8) 0.8106(4) -0.2145(6)
C1 C 0.2943(5) 0.5945(4) -0.3751(4)
C2 C 0.1896(5) 0.6489(4) -0.3395(4)
C3 C 0.0431(6) 0.6281(5) -0.3632(5)
C4 C -0.0356(8) 0.6933(6) -0.3247(7)
C5 C 0.0313(10) 0.7777(7) -0.2617(7)
C6 C 0.1774(9) 0.8000(5) -0.2330(5)
C7 C 0.2557(6) 0.7339(4) -0.2747(4)
C8 C 0.4415(5) 0.6533(4) -0.3261(4)
C9 C 0.5692(5) 0.5951(4) -0.2211(4)
C10 C 0.6649(7) 0.5444(5) -0.2575(7)
C11 C 0.7776(8) 0.4897(5) -0.1618(11)
C12 C 0.7946(8) 0.4835(5) -0.0271(10)
C13 C 0.6972(7) 0.5310(5) 0.0081(6)
C14 C 0.5863(6) 0.5889(4) -0.0860(5)
C15 C 0.4633(8) 0.6833(5) -0.4560(6)
H1 H -0.0011(6) 0.5704(5) -0.4050(5)
H2 H -0.1342(8) 0.6804(6) -0.3411(7)
H3 H -0.0245(10) 0.8215(7) -0.2374(7)
H4 H 0.2218(9) 0.8567(5) -0.1878(5)
H5 H 0.6539(7) 0.5469(5) -0.3481(7)
H6 H 0.8430(8) 0.4564(5) -0.1880(11)
H7 H 0.8717(8) 0.4472(5) 0.0379(10)
H8 H 0.7046(7) 0.5248(5) 0.0972(6)
H9 H 0.5232(6) 0.6236(4) -0.0586(5)
H10 H 0.3780(8) 0.7198(5) -0.5171(6)
H11 H 0.4734(8) 0.6267(5) -0.5028(6)
H12 H 0.5520(8) 0.7220(5) -0.4285(6)
#END
