
#######################################################################
#
#                 Cambridge Crystallographic Data Centre
#                                CCDC
#
#######################################################################
#
# If this CIF has been generated from an entry in the Cambridge
# Structural Database, then it will include bibliographic, chemical,
# crystal, experimental, refinement or atomic coordinate data resulting
# from the CCDC's data processing and validation procedures.
#
#######################################################################

data_CSD_CIF_QUGLEJ
_audit_creation_date 2001-09-03
_audit_creation_method CSD-ConQuest-V1
_database_code_CSD QUGLEJ
_database_code_depnum_ccdc_archive 'CCDC 157039'
_chemical_formula_sum 'C15 H12 N2 O2'
_chemical_formula_moiety
;
C15 H12 N2 O2
;
_journal_coden_Cambridge 188
_journal_year 2001
_journal_page_first 1139
_journal_name_full 'J.Chem.Soc.,Perkin Trans.2 '
loop_
_publ_author_name
"E.Damiani"
"L.Greci"
"C.Rizzoli"
_chemical_name_systematic
;
2-Methyl-2-phenyl-N-nitrosoindolin-3-one
;
_cell_volume   1277.393
_exptl_crystal_colour 'orange'
_exptl_crystal_density_diffrn 1.312
_exptl_crystal_description 'prism'
_diffrn_ambient_temperature ?
_diffrn_special_details
;
The study was carried out at room temperature,in the range 283-303K

;
#These two values have been output from a single CSD field.
_refine_ls_R_factor_gt 0.0712
_refine_ls_wR_factor_gt 0.0712
_symmetry_cell_setting monoclinic
_symmetry_space_group_name_H-M 'P 21/n'
_symmetry_Int_Tables_number 14
loop_
_symmetry_equiv_pos_site_id
_symmetry_equiv_pos_as_xyz
1 x,y,z
2 1/2+x,1/2-y,1/2+z
3 -x,-y,-z
4 -1/2-x,-1/2+y,-1/2-z
_cell_length_a 10.076(2)
_cell_length_b 13.318(3)
_cell_length_c 10.721(2)
_cell_angle_alpha 90
_cell_angle_beta 117.39(2)
_cell_angle_gamma 90
_cell_formula_units_Z 4
loop_
_atom_type_symbol
_atom_type_radius_bond
C 0.68
H 0.23
N 0.68
O 0.68
loop_
_atom_site_label
_atom_site_type_symbol
_atom_site_fract_x
_atom_site_fract_y
_atom_site_fract_z
O1 O -0.2248(2) 0.0159(2) 0.0604(2)
O2 O 0.0941(4) 0.3246(2) 0.3092(3)
N1 N -0.1060(3) 0.2446(2) 0.2430(2)
N2 N -0.0266(4) 0.3245(2) 0.3046(3)
C1 C -0.2087(3) 0.0959(2) 0.1231(3)
C2 C -0.3142(3) 0.1459(2) 0.1610(3)
C3 C -0.4587(3) 0.1187(3) 0.1336(4)
C4 C -0.5367(4) 0.1839(4) 0.1748(4)
C5 C -0.4736(5) 0.2716(4) 0.2416(4)
C6 C -0.3276(5) 0.3003(3) 0.2746(4)
C7 C -0.2511(3) 0.2342(2) 0.2296(3)
C8 C -0.0657(3) 0.1608(2) 0.1752(3)
C9 C 0.0655(2) 0.0998(1) 0.2825(2)
C10 C 0.1579(2) 0.0474(2) 0.2409(2)
C11 C 0.2728(2) -0.0120(2) 0.3372(3)
C12 C 0.2954(2) -0.0190(2) 0.4749(3)
C13 C 0.2030(2) 0.0334(2) 0.5164(2)
C14 C 0.0881(2) 0.0928(2) 0.4202(2)
C15 C -0.0484(4) 0.1991(3) 0.0492(4)
H1 H -0.50520 0.03510 0.10130
H2 H -0.64630 0.15830 0.15930
H3 H -0.52050 0.31740 0.29670
H4 H -0.27830 0.35860 0.33420
H5 H 0.13790 0.05600 0.13200
H6 H 0.35590 -0.06350 0.32940
H7 H 0.37210 -0.06340 0.55100
H8 H 0.22610 0.02620 0.61630
H9 H 0.02370 0.12920 0.44700
H10 H -0.05840 0.14640 -0.00880
H11 H -0.12990 0.24250 -0.01460
H12 H 0.05460 0.23510 0.07890
#END
