
#######################################################################
#
#                 Cambridge Crystallographic Data Centre
#                                CCDC
#
#######################################################################
#
# If this CIF has been generated from an entry in the Cambridge
# Structural Database, then it will include bibliographic, chemical,
# crystal, experimental, refinement or atomic coordinate data resulting
# from the CCDC's data processing and validation procedures.
#
#######################################################################

data_CSD_CIF_QUJMOX
_audit_creation_date 2001-11-07
_audit_creation_method CSD-ConQuest-V1
_database_code_CSD QUJMOX
_database_code_depnum_ccdc_archive 'CCDC 164157'
_chemical_formula_sum 'C18 H21 N1 O6'
_chemical_formula_moiety
;
C18 H21 N1 O6
;
_journal_coden_Cambridge 1336
_journal_volume 3
_journal_year 2001
_journal_page_first 2001
_journal_name_full 'Org.Lett. '
loop_
_publ_author_name
"D.Johnston"
"N.Francon"
"D.J.Edmonds"
"D.J.Procter"
_chemical_name_systematic
;
2-(1,7,7-Trimethyl-2-oxabicyclo(3.2.0)hept-3-on-4-yl)ethyl p-nitrobenzoate
;
_cell_volume    878.698
_exptl_crystal_colour 'colorless'
_exptl_crystal_density_diffrn 1.313
_exptl_crystal_description 'plate'
_diffrn_ambient_temperature 293
#These two values have been output from a single CSD field.
_refine_ls_R_factor_gt 0.0506
_refine_ls_wR_factor_gt 0.0506
_symmetry_cell_setting triclinic
_symmetry_space_group_name_H-M 'P -1'
_symmetry_Int_Tables_number 2
loop_
_symmetry_equiv_pos_site_id
_symmetry_equiv_pos_as_xyz
1 x,y,z
2 -x,-y,-z
_cell_length_a 6.5693(6)
_cell_length_b 7.6665(10)
_cell_length_c 19.936(2)
_cell_angle_alpha 85.814(11)
_cell_angle_beta 81.746(10)
_cell_angle_gamma 62.170(12)
_cell_formula_units_Z 2
loop_
_atom_type_symbol
_atom_type_radius_bond
C 0.68
H 0.23
N 0.68
O 0.68
loop_
_atom_site_label
_atom_site_type_symbol
_atom_site_fract_x
_atom_site_fract_y
_atom_site_fract_z
O1 O 0.50800(19) 0.95493(18) 0.12015(6)
O2 O 0.7678(2) 0.7916(2) 0.19075(8)
O3 O 0.2562(2) 0.6949(2) 0.35417(6)
O4 O -0.0638(3) 0.7011(3) 0.41165(7)
O5 O 0.6150(3) 0.8268(3) 0.64019(7)
O6 O 0.3325(3) 0.8072(3) 0.70173(7)
N1 N 0.4396(3) 0.8082(2) 0.64714(7)
C1 C 0.1395(3) 1.2622(3) 0.11834(9)
C2 C 0.2594(3) 1.0346(3) 0.11739(8)
C3 C 0.1605(3) 1.0330(3) 0.19201(8)
H1 H 0.02260 1.01230 0.19850
C4 C 0.1068(4) 1.2501(3) 0.19648(9)
H2 H 0.21980 1.26810 0.21760
H3 H -0.04970 1.33530 0.21690
C5 C 0.5684(3) 0.8684(3) 0.18022(9)
C6 C 0.3602(3) 0.8813(3) 0.22706(8)
H4 H 0.35730 0.93060 0.27140
C7 C 0.3652(3) 0.6796(3) 0.23549(9)
H5 H 0.34040 0.64330 0.19290
H6 H 0.51760 0.58220 0.24580
C8 C 0.1856(3) 0.6748(3) 0.29047(9)
H7 H 0.03370 0.78230 0.28450
H8 H 0.17910 0.55110 0.28960
C9 C 0.1163(3) 0.7070(3) 0.41041(9)
C10 C 0.2064(3) 0.7307(2) 0.47150(8)
C11 C 0.3947(3) 0.7670(3) 0.46633(9)
H9 H 0.47040 0.77450 0.42390
C12 C 0.4705(3) 0.7921(3) 0.52395(9)
H10 H 0.59760 0.81650 0.52080
C13 C 0.3566(3) 0.7808(2) 0.58592(8)
C14 C 0.1714(3) 0.7420(3) 0.59272(9)
H11 H 0.09780 0.73280 0.63530
C15 C 0.0972(3) 0.7172(3) 0.53488(9)
H12 H -0.02850 0.69080 0.53840
C16 C 0.2777(4) 1.3650(4) 0.08683(13)
H13 H 0.42380 1.30910 0.10460
H14 H 0.19300 1.50300 0.09730
H15 H 0.30440 1.34830 0.03860
C17 C -0.0933(4) 1.3491(4) 0.09083(13)
H16 H -0.17890 1.48710 0.10120
H17 H -0.17980 1.28270 0.11140
H18 H -0.06800 1.33220 0.04260
C18 C 0.2305(4) 0.9242(3) 0.06315(10)
H19 H 0.28110 0.96180 0.01950
H20 H 0.07010 0.95560 0.06550
H21 H 0.32180 0.78500 0.06990
#END
