
#######################################################################
#
#                 Cambridge Crystallographic Data Centre
#                                CCDC
#
#######################################################################
#
# If this CIF has been generated from an entry in the Cambridge
# Structural Database, then it will include bibliographic, chemical,
# crystal, experimental, refinement or atomic coordinate data resulting
# from the CCDC's data processing and validation procedures.
#
#######################################################################

data_CSD_CIF_QUJNOZ
_audit_creation_date 2010-07-16
_audit_creation_method CSD-ConQuest-V1
_database_code_CSD QUJNOZ
_database_code_depnum_ccdc_archive 'CCDC 722668'
_chemical_formula_sum 'C16 H27 N1 O5'
_chemical_formula_moiety
;
C16 H27 N1 O5
;
_journal_coden_Cambridge 1090
_journal_volume 20
_journal_year 2009
_journal_page_first 1778
_journal_name_full 'Tetrahedron:Asymm. '
loop_
_publ_author_name
"S.Stecko"
"J.Frelek"
"M.Chmielewskii"
_chemical_name_systematic
;
exo-(3aS,7S,8S,8aS,8bR)-7,8-Di-t-butoxyhexahydrofuro[3,4-d]pyrrolo[1,2-b][1,2]
oxazol-1(3H)-one
;
_cell_volume   1733.299
_exptl_crystal_colour 'colorless'
_exptl_crystal_density_diffrn 1.201
_exptl_crystal_description 'plate'
_diffrn_ambient_temperature 293
#These two values have been output from a single CSD field.
_refine_ls_R_factor_gt 0.0601
_refine_ls_wR_factor_gt 0.0601
_symmetry_cell_setting orthorhombic
_symmetry_space_group_name_H-M 'P 21 21 21'
_symmetry_Int_Tables_number 19
loop_
_symmetry_equiv_pos_site_id
_symmetry_equiv_pos_as_xyz
1 x,y,z
2 1/2-x,-y,1/2+z
3 1/2+x,1/2-y,-z
4 -x,1/2+y,1/2-z
_cell_length_a 9.709(5)
_cell_length_b 10.719(5)
_cell_length_c 16.655(3)
_cell_angle_alpha 90
_cell_angle_beta 90
_cell_angle_gamma 90
_cell_formula_units_Z 4
loop_
_atom_type_symbol
_atom_type_radius_bond
C 0.68
H 0.23
N 0.68
O 0.68
loop_
_atom_site_label
_atom_site_type_symbol
_atom_site_fract_x
_atom_site_fract_y
_atom_site_fract_z
C1 C 0.5547(11) 1.0474(11) 0.0164(6)
H1 H 0.46690 1.08420 0.00460
H2 H 0.59870 1.02260 -0.03270
H3 H 0.61150 1.10710 0.04380
H4 H 0.237(9) 0.946(9) 0.163(5)
H5 H 0.311(9) 1.137(8) 0.227(5)
H6 H 0.229(9) 1.087(8) 0.312(5)
H7 H 0.309(6) 0.879(6) 0.405(3)
H8 H 0.603(11) 0.957(10) 0.278(6)
H9 H 0.453(9) 0.791(8) 0.339(6)
H10 H 0.467(6) 0.840(6) 0.200(4)
O1 O 0.2235(7) 0.8515(8) 0.2732(4)
O2 O 0.4811(7) 0.9886(7) 0.1413(5)
N1 N 0.4379(9) 1.0616(9) 0.3084(6)
O3 O 0.4193(8) 1.0500(8) 0.3933(5)
O4 O 0.6064(9) 0.8590(8) 0.4779(5)
C2 C 0.4012(13) 0.9201(11) 0.4118(8)
C3 C 0.5345(12) 0.9352(11) 0.0689(7)
O5 O 0.7334(8) 0.8056(8) 0.3739(5)
C4 C 0.2836(11) 0.9405(12) 0.2237(8)
C5 C 0.4929(12) 0.8568(13) 0.3521(8)
C6 C 0.5075(14) 0.9467(14) 0.2821(8)
C7 C 0.4318(13) 0.9124(14) 0.2028(10)
C8 C -0.0055(11) 0.8427(12) 0.2146(8)
H11 H -0.04120 0.89490 0.25660
H12 H -0.07580 0.78580 0.19720
H13 H 0.02290 0.89380 0.17020
C9 C 0.0769(13) 0.6918(12) 0.3177(6)
H14 H 0.04200 0.74450 0.35960
H15 H 0.15720 0.64860 0.33650
H16 H 0.00760 0.63240 0.30260
C10 C 0.6217(14) 0.8395(12) 0.4002(9)
C11 C 0.4620(12) 0.8977(10) 0.4931(6)
H17 H 0.45910 0.97310 0.52520
H18 H 0.41200 0.83250 0.52100
C12 C 0.1147(13) 0.7711(11) 0.2453(8)
C13 C 0.6706(11) 0.8715(10) 0.0862(7)
H19 H 0.73820 0.93300 0.10040
H20 H 0.70060 0.82700 0.03930
H21 H 0.65920 0.81400 0.12990
C14 C 0.1715(13) 0.6897(13) 0.1787(7)
H22 H 0.24890 0.64310 0.19840
H23 H 0.20030 0.74130 0.13470
H24 H 0.10130 0.63310 0.16070
C15 C 0.2977(14) 1.0629(14) 0.2665(9)
C16 C 0.4323(11) 0.8454(11) 0.0318(6)
H25 H 0.35000 0.88960 0.01720
H26 H 0.41000 0.78120 0.06980
H27 H 0.47200 0.80820 -0.01530
#END
