
#######################################################################
#
#                 Cambridge Crystallographic Data Centre
#                                CCDC
#
#######################################################################
#
# If this CIF has been generated from an entry in the Cambridge
# Structural Database, then it will include bibliographic, chemical,
# crystal, experimental, refinement or atomic coordinate data resulting
# from the CCDC's data processing and validation procedures.
#
#######################################################################

data_CSD_CIF_QUKCUW
_audit_creation_date 2015-06-09
_audit_creation_method CSD-ConQuest-V1
_database_code_CSD QUKCUW
_database_code_depnum_ccdc_archive 'CCDC 1405866'
_chemical_formula_sum 'C19 H27 N1 O4'
_chemical_formula_moiety
;
C19 H27 N1 O4
;
_journal_coden_Cambridge 1078
_journal_year 2015
_journal_name_full 'CSD Communication(Private Communication) '
loop_
_publ_author_name
"E.A.Noe"
"F.R.Fronczek"
_chemical_name_systematic
;
cycloundecyl (4-nitrophenyl)acetate
;
_chemical_melting_point 322
_cell_volume    876.951
_exptl_crystal_colour 'colorless'
_exptl_crystal_density_diffrn 1.263
_exptl_crystal_description 'lath'
_exptl_crystal_preparation 'Re-crystallisation from solvent'
_diffrn_ambient_temperature 115
_refine_special_details
;
C10A,C9A and C10B,C9B disordered over two sites with occupancies 0.555:0.445.

;
#These two values have been output from a single CSD field.
_refine_ls_R_factor_gt 0.072
_refine_ls_wR_factor_gt 0.072
_symmetry_cell_setting monoclinic
_symmetry_space_group_name_H-M 'P 21'
_symmetry_Int_Tables_number 4
loop_
_symmetry_equiv_pos_site_id
_symmetry_equiv_pos_as_xyz
1 x,y,z
2 -x,1/2+y,-z
_cell_length_a 7.525(3)
_cell_length_b 5.888(2)
_cell_length_c 20.022(8)
_cell_angle_alpha 90
_cell_angle_beta 98.683(13)
_cell_angle_gamma 90
_cell_formula_units_Z 2
loop_
_atom_type_symbol
_atom_type_radius_bond
C 0.68
H 0.23
N 0.68
O 0.68
loop_
_atom_site_label
_atom_site_type_symbol
_atom_site_fract_x
_atom_site_fract_y
_atom_site_fract_z
O1 O 0.1439(6) 0.2747(8) 0.19389(19)
O2 O 0.3219(6) 0.5845(8) 0.20997(19)
O3 O 1.0204(5) -0.0542(8) 0.05141(19)
O4 O 0.9291(6) -0.3106(8) 0.1158(3)
N1 N 0.9099(6) -0.1289(8) 0.0852(2)
C1 C 0.2510(7) 0.4345(10) 0.1742(3)
C2 C 0.2768(6) 0.4000(9) 0.1020(2)
H1 H 0.29030 0.54950 0.08060
H2 H 0.16910 0.32490 0.07700
C3 C 0.4404(6) 0.2567(9) 0.0972(2)
C4 C 0.5764(7) 0.3387(9) 0.0620(2)
H3 H 0.56230 0.48330 0.04080
C5 C 0.7295(7) 0.2134(9) 0.0578(2)
H4 H 0.82060 0.26960 0.03410
C6 C 0.7460(7) 0.005(1) 0.0889(3)
C7 C 0.6171(6) -0.0847(10) 0.1241(2)
H5 H 0.63360 -0.22870 0.14550
C8 C 0.4635(7) 0.0422(10) 0.1270(3)
H6 H 0.37200 -0.01790 0.14990
C9 C 0.0573(10) 0.3051(14) 0.2577(4)
H7 H 0.12410 0.42230 0.28780
C10 C 0.1028(10) 0.0609(14) 0.2870(5)
H8 H 0.03440 0.02290 0.32410
H9 H 0.08300 -0.05770 0.25160
C11 C -0.1517(11) 0.3585(16) 0.2466(4)
H10 H -0.17040 0.49440 0.21720
H11 H -0.21250 0.23050 0.22040
C12 C -0.2425(15) 0.396(3) 0.3008(6)
H12 H -0.22560 0.25720 0.32890
H13 H -0.37180 0.40180 0.28180
C13 C -0.2091(11) 0.5965(19) 0.3499(4)
H14 H -0.23950 0.73810 0.32400
H15 H -0.29370 0.58320 0.38310
C14 C -0.0198(10) 0.6220(14) 0.3890(4)
H16 H 0.06650 0.62740 0.35620
H17 H -0.01210 0.76890 0.41330
C15 C 0.0363(11) 0.4355(16) 0.4391(4)
H18 H 0.00350 0.28740 0.41730
H19 H -0.03170 0.45170 0.47750
C16 C 0.2401(10) 0.4346(18) 0.4668(3)
H20 H 0.27600 0.58940 0.48280
H21 H 0.26130 0.33170 0.50630
C17 C 0.3598(11) 0.3610(16) 0.4162(4)
H22 H 0.48650 0.38440 0.43680
H23 H 0.33590 0.46200 0.37640
C18 C 0.3383(11) 0.1123(18) 0.3915(4)
H24 H 0.23520 0.04190 0.40900
H25 H 0.44780 0.02540 0.40930
C19 C 0.3070(9) 0.100(2) 0.3133(4)
H26 H 0.37830 -0.02640 0.29820
H27 H 0.34710 0.24310 0.29440
C20? C 0.1576(12) 0.255(2) 0.2714(4)
H28? H 0.16840 0.41200 0.29090
C21? C -0.0327(12) 0.1585(17) 0.2795(6)
H29? H -0.05900 0.01430 0.25450
H30? H -0.04580 0.13620 0.32750
H31? H -0.07940 0.49140 0.23660
H32? H -0.23290 0.31140 0.20530
H33? H 0.27780 -0.05980 0.30050
H34? H 0.42280 0.13530 0.29780
#END
