
#######################################################################
#
#                 Cambridge Crystallographic Data Centre
#                                CCDC
#
#######################################################################
#
# If this CIF has been generated from an entry in the Cambridge
# Structural Database, then it will include bibliographic, chemical,
# crystal, experimental, refinement or atomic coordinate data resulting
# from the CCDC's data processing and validation procedures.
#
#######################################################################

data_CSD_CIF_QUKKOX
_audit_creation_date 2010-07-07
_audit_creation_method CSD-ConQuest-V1
_database_code_CSD QUKKOX
_database_code_depnum_ccdc_archive 'CCDC 737227'
_chemical_formula_sum 'C19 H16 N2 O3'
_chemical_formula_moiety
;
C19 H16 N2 O3
;
_journal_coden_Cambridge 580
_journal_volume 28
_journal_year 2009
_journal_page_first 3979
_journal_name_full 'Polyhedron '
loop_
_publ_author_name
"S.Pailloux"
"I.Binyamin"
"L.M.Deck"
"B.P.Hay"
"E.N.Duesler"
"L.N.Zakharov"
"W.S.Kassel"
"A.L.Rheingold"
"R.T.Paine"
_chemical_name_systematic
;
2-Hydroxy-2-(1-oxypyridin-2-yl)-N,N-diphenylacetamide
;
_cell_volume   1528.075
_exptl_crystal_colour 'colorless'
_exptl_crystal_density_diffrn 1.392
_exptl_crystal_description 'blade'
_exptl_crystal_preparation 'dichloromethane/methanol'
_diffrn_ambient_temperature 100
#These two values have been output from a single CSD field.
_refine_ls_R_factor_gt 0.0456
_refine_ls_wR_factor_gt 0.0456
_symmetry_cell_setting orthorhombic
_symmetry_space_group_name_H-M 'P n a 21'
_symmetry_Int_Tables_number 33
loop_
_symmetry_equiv_pos_site_id
_symmetry_equiv_pos_as_xyz
1 x,y,z
2 -x,-y,1/2+z
3 1/2+x,1/2-y,z
4 1/2-x,1/2+y,1/2+z
_cell_length_a 8.4864(8)
_cell_length_b 31.677(3)
_cell_length_c 5.6843(6)
_cell_angle_alpha 90
_cell_angle_beta 90
_cell_angle_gamma 90
_cell_formula_units_Z 4
loop_
_atom_type_symbol
_atom_type_radius_bond
C 0.68
H 0.23
N 0.68
O 0.68
loop_
_atom_site_label
_atom_site_type_symbol
_atom_site_fract_x
_atom_site_fract_y
_atom_site_fract_z
O1 O 0.9246(3) 0.45946(7) 0.7373(5)
O2 O 0.5814(2) 0.40538(7) 0.9607(5)
O3 O 0.7558(3) 0.42853(7) 1.3843(5)
H1 H 0.821(5) 0.4391(12) 1.479(9)
N1 N 0.8297(3) 0.48681(8) 0.8423(6)
N2 N 0.7974(3) 0.36332(8) 0.9601(5)
C1 C 0.7201(3) 0.39962(9) 1.0106(6)
C2 C 0.8088(4) 0.43387(10) 1.1507(6)
H2 H 0.92510 0.42930 1.14070
C3 C 0.7656(3) 0.47652(10) 1.0542(6)
C4 C 0.6645(3) 0.50466(9) 1.1626(7)
H3 H 0.62020 0.49780 1.31120
C5 C 0.6274(4) 0.54258(10) 1.0567(7)
H4 H 0.55790 0.56190 1.13130
C6 C 0.6934(4) 0.55202(10) 0.8389(8)
H5 H 0.66810 0.57780 0.76200
C7 C 0.7951(4) 0.52399(10) 0.7363(7)
H6 H 0.84190 0.53070 0.58910
C8 C 0.9652(3) 0.35727(9) 1.0009(6)
C9 C 1.0685(4) 0.36859(9) 0.8225(6)
H7 H 1.03030 0.38070 0.68060
C10 C 1.2294(4) 0.36192(9) 0.8554(7)
H8 H 1.30200 0.36970 0.73600
C11 C 1.2834(4) 0.34388(10) 1.0622(7)
H9 H 1.39300 0.33900 1.08240
C12 C 1.1803(4) 0.33301(10) 1.2382(7)
H10 H 1.21850 0.32070 1.37950
C13 C 1.0182(4) 0.34013(9) 1.2087(6)
H11 H 0.94610 0.33320 1.33050
C14 C 0.7157(3) 0.32928(9) 0.8427(6)
C15 C 0.7112(4) 0.28968(10) 0.9452(7)
H12 H 0.76320 0.28490 1.09080
C16 C 0.6309(4) 0.25712(10) 0.8360(8)
H13 H 0.62710 0.23000 0.90720
C17 C 0.5561(4) 0.26399(11) 0.6230(7)
H14 H 0.49970 0.24180 0.54860
C18 C 0.5638(4) 0.30320(11) 0.5197(6)
H15 H 0.51330 0.30770 0.37270
C19 C 0.6438(4) 0.33628(10) 0.6260(7)
H16 H 0.64940 0.36320 0.55240
#END
