
#######################################################################
#
#                 Cambridge Crystallographic Data Centre
#                                CCDC
#
#######################################################################
#
# If this CIF has been generated from an entry in the Cambridge
# Structural Database, then it will include bibliographic, chemical,
# crystal, experimental, refinement or atomic coordinate data resulting
# from the CCDC's data processing and validation procedures.
#
#######################################################################

data_CSD_CIF_QULMAL
_audit_creation_date 2001-11-07
_audit_creation_method CSD-ConQuest-V1
_database_code_CSD QULMAL
_database_code_depnum_ccdc_archive 'CCDC 169703'
_chemical_formula_sum 'C11 H16 N2 O5'
_chemical_formula_moiety
;
C11 H16 N2 O5
;
_journal_coden_Cambridge 35
_journal_volume 66
_journal_year 2001
_journal_page_first 4809
_journal_name_full 'J.Org.Chem. '
loop_
_publ_author_name
"B.T.Shireman"
"M.J.Miller"
_chemical_name_systematic
;
10-Methyl-8,11-dioxo-3-methoxycarbonyl-1,9-diaza-2-oxabicyclo(5.4.0)-undecane
;
_chemical_melting_point 424.15
_cell_volume   1256.052
_exptl_special_details
;
Melting point range 424.15-426.15K

;
_diffrn_ambient_temperature 293
#These two values have been output from a single CSD field.
_refine_ls_R_factor_gt 0.0363
_refine_ls_wR_factor_gt 0.0363
_symmetry_cell_setting orthorhombic
_symmetry_space_group_name_H-M 'P 21 21 21'
_symmetry_Int_Tables_number 19
loop_
_symmetry_equiv_pos_site_id
_symmetry_equiv_pos_as_xyz
1 x,y,z
2 1/2-x,-y,1/2+z
3 1/2+x,1/2-y,-z
4 -x,1/2+y,1/2-z
_cell_length_a 7.9622(5)
_cell_length_b 10.5768(13)
_cell_length_c 14.9149(8)
_cell_angle_alpha 90
_cell_angle_beta 90
_cell_angle_gamma 90
_cell_formula_units_Z 4
loop_
_atom_type_symbol
_atom_type_radius_bond
C 0.68
H 0.23
N 0.68
O 0.68
loop_
_atom_site_label
_atom_site_type_symbol
_atom_site_fract_x
_atom_site_fract_y
_atom_site_fract_z
C1 C 0.22467 0.45386 0.57202
H1 H 0.20399 0.45256 0.50874
C2 C 0.39426 0.39471 0.59375
H2 H 0.40310 0.38454 0.66227
H3 H 0.39807 0.31612 0.56708
C3 C 0.54525 0.46841 0.56216
H4 H 0.54320 0.48278 0.48991
H5 H 0.64540 0.42244 0.57915
C4 C 0.56382 0.59846 0.60494
H6 H 0.53334 0.60261 0.66602
H7 H 0.68705 0.62643 0.60409
C5 C 0.46610 0.70040 0.55827
H8 H 0.50907 0.71966 0.49768
C6 C 0.45938 0.82238 0.61199
O1 O 0.50734 0.83278 0.68698
O2 O 0.39784 0.91686 0.56398
C7 C 0.37140 1.03440 0.61121
H9 H 0.33291 1.08668 0.57125
H10 H 0.47814 1.06956 0.63724
H11 H 0.29037 1.02199 0.65496
O3 O 0.29585 0.66423 0.53316
N1 N 0.21840 0.58715 0.59722
C8 C 0.13075 0.64135 0.66237
O4 O 0.12646 0.75553 0.67407
C9 C 0.04278 0.55102 0.72598
H12 H -0.06001 0.59198 0.73904
C10 C 0.14490 0.53331 0.81039
H13 H 0.15737 0.61691 0.83939
H14 H 0.24517 0.48600 0.79440
H15 H 0.08857 0.47203 0.85269
N2 N 0.00246 0.43026 0.68392
C11 C 0.08640 0.37800 0.61543
O5 O 0.05700 0.27154 0.58813
#END
