
#######################################################################
#
#                 Cambridge Crystallographic Data Centre
#                                CCDC
#
#######################################################################
#
# If this CIF has been generated from an entry in the Cambridge
# Structural Database, then it will include bibliographic, chemical,
# crystal, experimental, refinement or atomic coordinate data resulting
# from the CCDC's data processing and validation procedures.
#
#######################################################################

data_CSD_CIF_QUMMOB
_audit_creation_date 2010-07-07
_audit_creation_method CSD-ConQuest-V1
_database_code_CSD QUMMOB
_database_code_depnum_ccdc_archive 'CCDC 745162'
_chemical_formula_sum 'C25 H27 N1 O8'
_chemical_formula_moiety
;
C25 H27 N1 O8
;
_journal_coden_Cambridge 16
_journal_volume 65
_journal_year 2009
_journal_page_first 9819
_journal_name_full 'Tetrahedron '
loop_
_publ_author_name
"C.V.Ramana"
"B.Induvadana"
"B.Srinivas"
"K.Yadagiri"
"M.N.Deshmukh"
"R.G.Gonnade"
_chemical_name_systematic
;
1,2-O-Isopropylidene-3-O-benzyl-3-C-(2'-oxo-3'-(4-nitrophenyl)propyl)-\a-D-all
ofuranose-(2'-C,5-O,6-O)-ketal
;
_chemical_melting_point 446
_cell_volume   2298.473
_exptl_crystal_colour 'colorless'
_exptl_crystal_density_diffrn 1.357
_exptl_special_details
;
Melting point range 446-448K

;
_exptl_crystal_description 'needle'
_diffrn_ambient_temperature 297
#These two values have been output from a single CSD field.
_refine_ls_R_factor_gt 0.0488
_refine_ls_wR_factor_gt 0.0488
_symmetry_cell_setting orthorhombic
_symmetry_space_group_name_H-M 'P 21 21 21'
_symmetry_Int_Tables_number 19
loop_
_symmetry_equiv_pos_site_id
_symmetry_equiv_pos_as_xyz
1 x,y,z
2 1/2-x,-y,1/2+z
3 -x,1/2+y,1/2-z
4 1/2+x,1/2-y,-z
_cell_length_a 5.9696(9)
_cell_length_b 16.175(2)
_cell_length_c 23.804(4)
_cell_angle_alpha 90
_cell_angle_beta 90
_cell_angle_gamma 90
_cell_formula_units_Z 4
loop_
_atom_type_symbol
_atom_type_radius_bond
C 0.68
H 0.23
N 0.68
O 0.68
loop_
_atom_site_label
_atom_site_type_symbol
_atom_site_fract_x
_atom_site_fract_y
_atom_site_fract_z
N1 N 0.5567(5) 0.56377(16) 0.75515(9)
O1 O 0.4724(3) 0.88667(9) 0.90126(6)
O2 O 0.7490(3) 0.81925(9) 0.94739(6)
O3 O 0.8127(3) 0.88358(10) 1.05623(7)
O4 O 0.6946(3) 1.07519(10) 1.07419(7)
O5 O 0.8709(3) 0.98057(11) 1.12663(7)
O6 O 0.3745(4) 0.56088(15) 0.73201(10)
O7 O 0.6823(4) 0.50456(13) 0.75738(9)
O8 O 0.4519(2) 1.02253(8) 0.98494(6)
C1 C 0.7104(4) 0.88577(13) 0.91015(9)
C2 C 0.7832(4) 0.96565(13) 0.93808(9)
H1 H 0.75490 1.01130 0.91260
H2 H 0.94320 0.96340 0.94490
C3 C 0.6625(3) 0.98247(13) 0.99382(9)
C4 C 0.6128(4) 0.90065(13) 1.02511(9)
H3 H 0.48640 0.90820 1.05090
C5 C 0.5688(4) 0.82755(13) 0.98661(10)
H4 H 0.54730 0.77660 1.00820
C6 C 0.3737(4) 0.84281(14) 0.94702(10)
H5 H 0.30860 0.79110 0.93440
H6 H 0.25840 0.87570 0.96510
C7 C 0.8179(4) 1.02756(14) 1.03503(9)
H7 H 0.93310 1.06010 1.01580
C8 C 0.9187(4) 0.95769(15) 1.07094(10)
H8 H 1.08070 0.95370 1.06500
C9 C 0.8014(4) 1.06476(15) 1.12715(10)
C10 C 0.6320(6) 1.07781(19) 1.17248(12)
H9 H 0.50120 1.04530 1.16470
H10 H 0.59170 1.13520 1.17400
H11 H 0.69440 1.06130 1.20790
C11 C 1.0005(5) 1.1220(2) 1.13269(13)
H12 H 0.95040 1.17840 1.13120
H13 H 1.10340 1.11190 1.10250
H14 H 1.07400 1.11210 1.16790
C12 C 0.8279(5) 0.87002(16) 0.85461(10)
H15 H 0.79440 0.91510 0.82910
H16 H 0.98850 0.86960 0.86080
C13 C 0.7602(5) 0.78962(16) 0.82752(10)
C14 C 0.8912(5) 0.71981(17) 0.83278(11)
H17 H 1.02480 0.72270 0.85280
C15 C 0.8273(5) 0.64570(17) 0.80885(11)
H18 H 0.91830 0.59920 0.81180
C16 C 0.6276(4) 0.64176(16) 0.78060(9)
C17 C 0.4927(5) 0.71021(19) 0.77465(11)
H19 H 0.35790 0.70680 0.75520
C18 C 0.5614(5) 0.78360(18) 0.79801(11)
H20 H 0.47200 0.83030 0.79390
C19 C 0.4679(4) 1.10727(13) 0.96900(11)
H21 H 0.60920 1.11670 0.94990
H22 H 0.46470 1.14180 1.00230
C20 C 0.2775(4) 1.13063(12) 0.93084(9)
C21 C 0.2300(4) 1.08570(14) 0.88288(10)
H23 H 0.31430 1.03900 0.87440
C22 C 0.0589(5) 1.10948(17) 0.84756(10)
H24 H 0.02800 1.07880 0.81540
C23 C -0.0670(5) 1.17907(18) 0.85987(11)
H25 H -0.18250 1.19530 0.83610
C24 C -0.0202(5) 1.22386(17) 0.90729(12)
H26 H -0.10430 1.27060 0.91590
C25 C 0.1512(5) 1.19971(15) 0.94215(11)
H27 H 0.18240 1.23080 0.97410
#END
