
#######################################################################
#
#                 Cambridge Crystallographic Data Centre
#                                CCDC
#
#######################################################################
#
# If this CIF has been generated from an entry in the Cambridge
# Structural Database, then it will include bibliographic, chemical,
# crystal, experimental, refinement or atomic coordinate data resulting
# from the CCDC's data processing and validation procedures.
#
#######################################################################

data_CSD_CIF_QUMMER
_audit_creation_date 2010-07-07
_audit_creation_method CSD-ConQuest-V1
_database_code_CSD QUMMER
_database_code_depnum_ccdc_archive 'CCDC 674815'
_chemical_formula_sum 'C17 H21 N1 O8'
_chemical_formula_moiety
;
C17 H21 N1 O8
;
_journal_coden_Cambridge 16
_journal_volume 65
_journal_year 2009
_journal_page_first 9819
_journal_name_full 'Tetrahedron '
loop_
_publ_author_name
"C.V.Ramana"
"B.Induvadana"
"B.Srinivas"
"K.Yadagiri"
"M.N.Deshmukh"
"R.G.Gonnade"
_chemical_name_systematic
;
1,2-O-Isopropylidene-3-C-(2'-oxo-3'-(3-nitrophenyl)propyl)-\a-D-ribofuranose-(
2'-C,5-O)-hemiketal
;
_chemical_melting_point 425.15
_cell_volume   1757.599
_exptl_crystal_colour 'colorless'
_exptl_crystal_density_diffrn 1.388
_exptl_special_details
;
Melting point range 425.15-426.15K

;
_exptl_crystal_description 'needle'
_diffrn_ambient_temperature 297
#These two values have been output from a single CSD field.
_refine_ls_R_factor_gt 0.0494
_refine_ls_wR_factor_gt 0.0494
_symmetry_cell_setting orthorhombic
_symmetry_space_group_name_H-M 'P 21 21 21'
_symmetry_Int_Tables_number 19
loop_
_symmetry_equiv_pos_site_id
_symmetry_equiv_pos_as_xyz
1 x,y,z
2 1/2-x,-y,1/2+z
3 -x,1/2+y,1/2-z
4 1/2+x,1/2-y,-z
_cell_length_a 5.5126(16)
_cell_length_b 16.461(5)
_cell_length_c 19.369(6)
_cell_angle_alpha 90
_cell_angle_beta 90
_cell_angle_gamma 90
_cell_formula_units_Z 4
loop_
_atom_type_symbol
_atom_type_radius_bond
C 0.68
H 0.23
N 0.68
O 0.68
loop_
_atom_site_label
_atom_site_type_symbol
_atom_site_fract_x
_atom_site_fract_y
_atom_site_fract_z
O1 O 0.6523(4) 0.27334(12) 0.87173(9)
O2 O 0.3184(3) 0.30520(12) 0.81057(9)
O3 O 0.2227(3) 0.21774(13) 0.69419(9)
H1 H 0.14520 0.20750 0.72930
O4 O 0.7986(3) 0.19844(11) 0.78001(9)
O5 O 0.7592(4) 0.10707(11) 0.64573(9)
O6 O 0.3995(4) 0.13263(12) 0.58536(10)
H2 H 0.32060 0.12270 0.62020
O7 O 0.2910(8) 0.06582(18) 0.33694(17)
O8 O 0.3655(5) -0.05871(18) 0.33050(15)
N1 N 0.4048(6) 0.0076(2) 0.35343(15)
C1 C 0.7316(5) 0.27717(17) 0.80232(13)
H3 H 0.86510 0.31590 0.79670
C2 C 0.5092(5) 0.30271(17) 0.76105(13)
H4 H 0.53160 0.35460 0.73710
C3 C 0.4691(5) 0.23215(18) 0.71184(13)
C4 C 0.5831(6) 0.16174(16) 0.75195(14)
H5 H 0.47500 0.14580 0.78980
C5 C 0.6445(7) 0.08829(17) 0.70934(14)
H6 H 0.75050 0.05320 0.73600
H7 H 0.49650 0.05830 0.70000
C6 C 0.6029(5) 0.24295(15) 0.64347(12)
H8 H 0.51560 0.28170 0.61510
H9 H 0.76300 0.26500 0.65240
C7 C 0.6281(5) 0.16356(16) 0.60424(13)
C8 C 0.7782(6) 0.17244(15) 0.53870(13)
H10 H 0.71540 0.21770 0.51210
H11 H 0.94410 0.18530 0.55140
C9 C 0.7784(5) 0.09726(16) 0.49374(13)
C10 C 0.6012(6) 0.08753(17) 0.44387(14)
H12 H 0.48840 0.12840 0.43560
C11 C 0.5947(6) 0.01629(19) 0.40664(15)
C12 C 0.7562(6) -0.04617(19) 0.41614(15)
H13 H 0.74490 -0.09420 0.39110
C13 C 0.9358(6) -0.0343(2) 0.46453(17)
H14 H 1.05190 -0.07450 0.47140
C14 C 0.9466(5) 0.03598(18) 0.50283(15)
H15 H 1.06920 0.04230 0.53540
C15 C 0.4253(5) 0.31444(18) 0.87701(14)
C16 C 0.2668(6) 0.2709(2) 0.92786(15)
H16 H 0.24760 0.21540 0.91380
H17 H 0.11080 0.29680 0.92960
H18 H 0.34040 0.27280 0.97270
C17 C 0.4664(7) 0.4035(2) 0.89328(17)
H19 H 0.31640 0.43260 0.88850
H20 H 0.58400 0.42550 0.86190
H21 H 0.52490 0.40880 0.93980
#END
