
#######################################################################
#
#                 Cambridge Crystallographic Data Centre
#                                CCDC
#
#######################################################################
#
# If this CIF has been generated from an entry in the Cambridge
# Structural Database, then it will include bibliographic, chemical,
# crystal, experimental, refinement or atomic coordinate data resulting
# from the CCDC's data processing and validation procedures.
#
#######################################################################

data_CSD_CIF_QUMSIC
_audit_creation_date 2015-06-10
_audit_creation_method CSD-ConQuest-V1
_database_code_CSD QUMSIC
_database_code_depnum_ccdc_archive 'CCDC 928892'
_chemical_formula_sum 'C28 H24 N6 O2'
_chemical_formula_moiety
;
C28 H24 N6 O2
;
_journal_coden_Cambridge 34
_journal_volume 52
_journal_year 2015
_journal_page_first 902
_journal_name_full 'J.Heterocycl.Chem. '
loop_
_publ_author_name
"Le Huang"
"Ting-Hong Fei"
"Kun Hu"
"Fang-Ming Liu"
_chemical_name_systematic
;
3-(4-(4-methoxyphenyl)-3-(4-methylphenyl)-4,5-dihydro-1,2,4-oxadiazol-5-yl)-6-
methyl-2-(1H-1,2,4-triazol-1-yl)quinoline
;
_cell_volume   1178.730
_exptl_crystal_density_diffrn 1.343
_diffrn_ambient_temperature 296
#These two values have been output from a single CSD field.
_refine_ls_R_factor_gt 0.0468
_refine_ls_wR_factor_gt 0.0468
_symmetry_cell_setting triclinic
_symmetry_space_group_name_H-M 'P -1'
_symmetry_Int_Tables_number 2
loop_
_symmetry_equiv_pos_site_id
_symmetry_equiv_pos_as_xyz
1 x,y,z
2 -x,-y,-z
_cell_length_a 7.0789(7)
_cell_length_b 11.7228(11)
_cell_length_c 15.4030(14)
_cell_angle_alpha 71.193(2)
_cell_angle_beta 80.543(2)
_cell_angle_gamma 78.491(2)
_cell_formula_units_Z 2
loop_
_atom_type_symbol
_atom_type_radius_bond
C 0.68
H 0.23
N 0.68
O 0.68
loop_
_atom_site_label
_atom_site_type_symbol
_atom_site_fract_x
_atom_site_fract_y
_atom_site_fract_z
O1 O 0.98263(15) 0.19167(10) 0.27718(8)
O2 O 0.77554(17) -0.11689(11) -0.03069(9)
N1 N 0.71242(18) 0.57005(11) 0.17988(10)
N2 N 0.99810(17) 0.47733(11) 0.12290(9)
N3 N 1.14187(18) 0.38126(12) 0.12036(10)
N4 N 1.2398(2) 0.55882(13) 0.03304(10)
N5 N 0.74322(18) 0.13372(11) 0.22585(9)
N6 N 0.8895(2) 0.10548(13) 0.35244(10)
C1 C 0.2431(2) 0.47578(14) 0.29680(11)
H1 H 0.18260 0.40690 0.31640
C2 C 0.1432(2) 0.58292(15) 0.30953(12)
C3 C 0.2367(2) 0.68667(16) 0.27743(14)
H2 H 0.17020 0.76000 0.28560
C4 C 0.4214(3) 0.68297(15) 0.23479(14)
H3 H 0.47840 0.75330 0.21390
C5 C 0.8099(2) 0.46585(13) 0.17227(10)
C6 C 0.7370(2) 0.35243(12) 0.20535(10)
C7 C 0.5485(2) 0.35782(13) 0.24415(10)
H4 H 0.49260 0.28710 0.26440
C8 C 0.4362(2) 0.46747(13) 0.25446(10)
C9 C 0.5267(2) 0.57251(13) 0.22219(11)
C10 C -0.0602(3) 0.59163(19) 0.35730(15)
H5 H -0.10670 0.51580 0.36960
H6 H -0.14300 0.65620 0.31840
H7 H -0.06070 0.60840 0.41440
C11 C 1.0612(2) 0.58109(15) 0.07005(12)
H8 H 0.98800 0.65850 0.06090
C12 C 1.2812(2) 0.43569(15) 0.06591(12)
H9 H 1.40060 0.39260 0.05080
C13 C 0.8592(2) 0.23116(12) 0.20316(11)
H10 H 0.93690 0.23860 0.14330
C14 C 0.7614(2) 0.07313(13) 0.31931(11)
C15 C 0.6368(2) -0.01730(14) 0.37490(11)
C16 C 0.4501(3) -0.00855(16) 0.35414(13)
H11 H 0.39930 0.05820 0.30770
C17 C 0.3391(3) -0.09816(18) 0.40197(14)
H12 H 0.21360 -0.09050 0.38780
C18 C 0.4114(3) -0.19936(17) 0.47074(13)
C19 C 0.5946(3) -0.20507(18) 0.49293(14)
H13 H 0.64410 -0.27120 0.54020
C20 C 0.7075(3) -0.11482(17) 0.44671(13)
H14 H 0.82960 -0.11980 0.46380
C21 C 0.2928(4) -0.3000(2) 0.51960(16)
H15 H 0.37710 -0.37340 0.54740
H16 H 0.22470 -0.31410 0.47590
H17 H 0.20120 -0.27660 0.56650
C22 C 0.75068(19) 0.06942(12) 0.1603(1)
C23 C 0.7894(2) -0.05735(13) 0.18369(11)
H18 H 0.81180 -0.10310 0.24380
C24 C 0.7950(2) -0.11552(13) 0.11839(12)
H19 H 0.81870 -0.20030 0.13520
C25 C 0.7656(2) -0.04936(14) 0.02817(12)
C26 C 0.7303(2) 0.07699(14) 0.00372(12)
H20 H 0.71270 0.12260 -0.05700
C27 C 0.7211(2) 0.13508(13) 0.07017(11)
H21 H 0.69460 0.21980 0.05370
C28 C 0.7359(2) -0.05342(19) -0.12274(13)
H22 H 0.60950 -0.00490 -0.12250
H23 H 0.74000 -0.11100 -0.15560
H24 H 0.83140 -0.00140 -0.15240
#END
