
#######################################################################
#
#                 Cambridge Crystallographic Data Centre
#                                CCDC
#
#######################################################################
#
# If this CIF has been generated from an entry in the Cambridge
# Structural Database, then it will include bibliographic, chemical,
# crystal, experimental, refinement or atomic coordinate data resulting
# from the CCDC's data processing and validation procedures.
#
#######################################################################

data_CSD_CIF_QUMYOO
_audit_creation_date 2015-06-10
_audit_creation_method CSD-ConQuest-V1
_database_code_CSD QUMYOO
_database_code_depnum_ccdc_archive 'CCDC 1013045'
_chemical_formula_sum 'C13 H13 N3 O9'
_chemical_formula_moiety
;
C13 H13 N3 O9
;
_journal_coden_Cambridge 1326
_journal_volume 17
_journal_year 2015
_journal_page_first 16983
_journal_name_full 'Phys.Chem.Chem.Phys.(PCCP) '
loop_
_publ_author_name
"S.Bera"
"D.K.S.Ambast"
"B.Pal"
"D.Haldar"
_chemical_name_systematic
;
dimethyl N-(3,5-dinitrobenzoyl)aspartate
;
_cell_volume   1619.980
_exptl_crystal_colour 'colorless'
_exptl_crystal_density_diffrn 1.457
_exptl_crystal_description 'needle'
_diffrn_ambient_temperature 100
#These two values have been output from a single CSD field.
_refine_ls_R_factor_gt 0.0807
_refine_ls_wR_factor_gt 0.0807
_symmetry_cell_setting orthorhombic
_symmetry_space_group_name_H-M 'P 21 21 21'
_symmetry_Int_Tables_number 19
loop_
_symmetry_equiv_pos_site_id
_symmetry_equiv_pos_as_xyz
1 x,y,z
2 1/2+x,1/2-y,-z
3 -x,1/2+y,1/2-z
4 1/2-x,-y,1/2+z
_cell_length_a 4.895(2)
_cell_length_b 12.127(12)
_cell_length_c 27.29(1)
_cell_angle_alpha 90
_cell_angle_beta 90
_cell_angle_gamma 90
_cell_formula_units_Z 4
loop_
_atom_type_symbol
_atom_type_radius_bond
C 0.68
H 0.23
N 0.68
O 0.68
loop_
_atom_site_label
_atom_site_type_symbol
_atom_site_fract_x
_atom_site_fract_y
_atom_site_fract_z
O1 O 0.7017(11) 0.2364(4) 0.39496(14)
O2 O 0.3441(11) 0.3479(4) 0.06004(15)
O3 O 0.3608(11) 0.1374(4) 0.36920(15)
O4 O 1.2634(8) 0.4380(3) 0.27448(14)
O5 O 1.0808(10) 0.4640(4) 0.20325(15)
O6 O 0.1867(8) 0.0984(3) 0.18988(13)
O7 O 0.0236(10) 0.2448(4) 0.09463(18)
O8 O 0.5675(10) -0.0608(3) 0.03899(13)
O9 O 0.8204(10) -0.0578(4) 0.10712(16)
N1 N 0.5575(13) 0.1980(4) 0.36218(17)
N2 N 0.5597(9) 0.1265(3) 0.14145(13)
H1 H 0.72160 0.15380 0.14000
N3 N 1.0909(10) 0.4187(4) 0.24330(18)
C1 C 0.6311(10) 0.2270(4) 0.31032(17)
C2 C 0.4943(10) 0.1730(4) 0.27275(18)
H2 H 0.36050 0.12090 0.27970
C3 C 0.561(1) 0.1984(4) 0.22427(17)
C4 C 0.4183(11) 0.1354(4) 0.18368(18)
C5 C 0.4486(11) 0.0725(4) 0.09808(16)
H3 H 0.26940 0.04190 0.10650
C6 C 0.4099(12) 0.1567(5) 0.05594(19)
H4 H 0.58700 0.18340 0.04530
H5 H 0.32310 0.12060 0.02830
C7 C 0.2369(15) 0.2525(5) 0.0724(2)
C8 C 0.188(2) 0.4450(5) 0.0768(3)
H6 H -0.00080 0.43590 0.06850
H7 H 0.25830 0.51000 0.06100
H8 H 0.20670 0.45240 0.11160
C9 C 0.7542(10) 0.2818(4) 0.21499(17)
H9 H 0.79480 0.30260 0.18300
C10 C 0.8831(11) 0.3326(4) 0.25428(19)
C11 C 0.8280(11) 0.3073(4) 0.30226(19)
H10 H 0.91770 0.34210 0.32800
C12 C 0.6355(13) -0.0227(5) 0.0827(2)
C13 C 0.7485(17) -0.1512(5) 0.0220(2)
H11 H 0.93570 -0.12850 0.02470
H12 H 0.70790 -0.16820 -0.01160
H13 H 0.71880 -0.21550 0.04190
#END
