
#######################################################################
#
#                 Cambridge Crystallographic Data Centre
#                                CCDC
#
#######################################################################
#
# If this CIF has been generated from an entry in the Cambridge
# Structural Database, then it will include bibliographic, chemical,
# crystal, experimental, refinement or atomic coordinate data resulting
# from the CCDC's data processing and validation procedures.
#
#######################################################################

data_CSD_CIF_QUNDIO02
_audit_creation_date 2017-01-04
_audit_creation_method CSD-ConQuest-V1
_database_code_CSD QUNDIO02
_database_code_depnum_ccdc_archive 'CCDC 1062088'
_chemical_formula_sum 'C13 H8 N2 O5'
_chemical_formula_moiety
;
C13 H8 N2 O5
;
_journal_coden_Cambridge 1751
_journal_volume 5
_journal_year 2016
_journal_page_first 231
_journal_name_full 'J.Applic.Chem. '
loop_
_publ_author_name
"N.Latha Rani"
"C.S.Karthik"
"P.Mallu"
"L.Mallesha"
"M.A.Sridhar"
_chemical_name_systematic
;
bis(3-nitrophenyl)methanone
;
_cell_volume    592.597
_exptl_crystal_colour 'pale yellow'
_exptl_crystal_density_diffrn 1.526
_exptl_crystal_description 'prismatic'
_diffrn_ambient_temperature 293
#These two values have been output from a single CSD field.
_refine_ls_R_factor_gt 0.0364
_refine_ls_wR_factor_gt 0.0364
_symmetry_cell_setting triclinic
_symmetry_space_group_name_H-M 'P -1'
_symmetry_Int_Tables_number 2
loop_
_symmetry_equiv_pos_site_id
_symmetry_equiv_pos_as_xyz
1 x,y,z
2 -x,-y,-z
_cell_length_a 7.6180(5)
_cell_length_b 8.0341(6)
_cell_length_c 10.8056(8)
_cell_angle_alpha 74.358(4)
_cell_angle_beta 82.516(4)
_cell_angle_gamma 68.607(5)
_cell_formula_units_Z 2
loop_
_atom_type_symbol
_atom_type_radius_bond
C 0.68
H 0.23
N 0.68
O 0.68
loop_
_atom_site_label
_atom_site_type_symbol
_atom_site_fract_x
_atom_site_fract_y
_atom_site_fract_z
N1 N -0.22109(18) -0.38069(19) 0.43593(12)
C1 C -0.2474(2) -0.0766(2) 0.45563(13)
H1 H -0.32920 -0.08870 0.52650
C2 C -0.1991(2) 0.0797(2) 0.41272(14)
H2 H -0.24810 0.17410 0.45540
C3 C -0.0790(2) 0.09659(19) 0.30717(14)
H3 H -0.04950 0.20360 0.27800
C4 C -0.00068(18) -0.04535(18) 0.24323(13)
C5 C -0.04621(18) -0.20442(18) 0.28598(13)
H4 H 0.00560 -0.30120 0.24560
C6 C -0.17066(18) -0.21436(19) 0.39029(13)
C7 C 0.12555(19) -0.01680(18) 0.12709(13)
O1 O 0.08279(15) 0.13131(13) 0.04910(9)
C8 C 0.30657(18) -0.16790(18) 0.11040(13)
C9 C 0.3908(2) -0.3140(2) 0.21152(14)
H5 H 0.33050 -0.32400 0.29240
C10 C 0.5637(2) -0.4449(2) 0.19320(16)
H6 H 0.61840 -0.54210 0.26190
C11 C 0.6560(2) -0.4327(2) 0.07412(17)
H7 H 0.77220 -0.52050 0.06130
C12 C 0.5708(2) -0.2866(2) -0.02512(14)
C13 C 0.3990(2) -0.15318(19) -0.01009(13)
H8 H 0.34590 -0.05540 -0.07890
O2 O -0.3574(2) -0.3755(2) 0.50998(15)
O3 O -0.12433(18) -0.51750(16) 0.39854(12)
N2 N 0.6665(2) -0.2702(2) -0.15290(15)
O4 O 0.5995(2) -0.1290(2) -0.23546(12)
O5 O 0.8100(2) -0.3963(2) -0.16923(16)
#END
