
#######################################################################
#
#                 Cambridge Crystallographic Data Centre
#                                CCDC
#
#######################################################################
#
# If this CIF has been generated from an entry in the Cambridge
# Structural Database, then it will include bibliographic, chemical,
# crystal, experimental, refinement or atomic coordinate data resulting
# from the CCDC's data processing and validation procedures.
#
#######################################################################

data_CSD_CIF_QUNDOT
_audit_creation_date 2010-07-16
_audit_creation_method CSD-ConQuest-V1
_database_code_CSD QUNDOT
_database_code_depnum_ccdc_archive 'CCDC 749562'
_chemical_formula_sum 'C22 H31 N1 O6'
_chemical_formula_moiety
;
C22 H31 N1 O6
;
_journal_coden_Cambridge 24
_journal_volume 50
_journal_year 2009
_journal_page_first 7152
_journal_name_full 'Tetrahedron Lett. '
loop_
_publ_author_name
"E.Marca"
"I.Delso"
"T.Tejero"
"J.T.Vazquez"
"R.L.Dorta"
"P.Merino"
_chemical_name_systematic
;
N-Benzyl-N-((R)-1-((3aR,5R,5aS,8aS,8bR)-2,2,7,7-tetramethyltetrahydro-3aH-bis[
1,3]dioxolo[4,5-b:4',5'-d]pyran-5-yl)but-3-enyl)hydroxylamine
;
_chemical_melting_point 402
_cell_volume   2163.237
_exptl_crystal_colour 'colorless'
_exptl_crystal_density_diffrn 1.245
_exptl_special_details
;
Absolute configuration

;
_exptl_crystal_description 'prism'
_diffrn_ambient_temperature 150
#These two values have been output from a single CSD field.
_refine_ls_R_factor_gt 0.0303
_refine_ls_wR_factor_gt 0.0303
_symmetry_cell_setting orthorhombic
_symmetry_space_group_name_H-M 'P 21 21 21'
_symmetry_Int_Tables_number 19
loop_
_symmetry_equiv_pos_site_id
_symmetry_equiv_pos_as_xyz
1 x,y,z
2 1/2-x,-y,1/2+z
3 1/2+x,1/2-y,-z
4 -x,1/2+y,1/2-z
_cell_length_a 9.8380(18)
_cell_length_b 10.4724(16)
_cell_length_c 20.9967(15)
_cell_angle_alpha 90
_cell_angle_beta 90
_cell_angle_gamma 90
_cell_formula_units_Z 4
loop_
_atom_type_symbol
_atom_type_radius_bond
C 0.63
H 0.23
N 0.68
O 0.68
loop_
_atom_site_label
_atom_site_type_symbol
_atom_site_fract_x
_atom_site_fract_y
_atom_site_fract_z
N1 N 0.6739(5) 0.0627(4) 0.12145(18)
O1 O 0.6743(4) 0.3821(3) 0.18910(14)
O2 O 0.8281(5) 0.4121(4) 0.27209(16)
O3 O 0.6947(5) 0.2847(3) 0.33261(14)
O4 O 0.3890(4) 0.3755(4) 0.24970(16)
O5 O 0.4211(4) 0.2279(4) 0.17093(15)
O6 O 0.7785(4) 0.0091(3) 0.16282(14)
H1 H 0.76920 -0.07050 0.16470
C1 C 0.6924(7) 0.4306(5) 0.2506(2)
H2 H 0.67290 0.52430 0.25000
C2 C 0.6006(6) 0.3672(6) 0.3012(2)
H3 H 0.56370 0.43230 0.33140
C3 C 0.4880(6) 0.2874(6) 0.2736(2)
H4 H 0.44730 0.23110 0.30710
C4 C 0.5313(5) 0.2086(6) 0.2156(2)
H5 H 0.53450 0.11630 0.22780
C5 C 0.6659(6) 0.2464(5) 0.1892(2)
H6 H 0.73760 0.21330 0.21860
C6 C 0.6992(7) 0.1998(5) 0.1224(2)
H7 H 0.63230 0.24020 0.09270
C7 C 0.8408(6) 0.2449(5) 0.10226(19)
H8 H 0.86300 0.32320 0.12660
H9 H 0.90740 0.17860 0.11470
C8 C 0.8590(8) 0.2727(8) 0.0335(2)
H10 H 0.77400 0.23980 0.01960
C9 C 0.890(1) 0.2974(8) -0.0058(3)
H11 H 0.97690 0.33620 -0.00970
H12 H 0.83530 0.28430 -0.04250
C10 C 0.6949(6) 0.0021(5) 0.0585(2)
H13 H 0.79060 0.01410 0.04530
H14 H 0.63630 0.04490 0.02670
C11 C 0.6627(8) -0.1383(6) 0.0593(3)
C12 C 0.5324(7) -0.1818(7) 0.0493(3)
H15 H 0.46160 -0.12290 0.04020
C13 C 0.5044(7) -0.3105(7) 0.0524(3)
H16 H 0.41420 -0.34020 0.04590
C14 C 0.6066(7) -0.3957(7) 0.0647(3)
H17 H 0.58840 -0.48470 0.06660
C15 C 0.7354(8) -0.3503(7) 0.0742(3)
H18 H 0.80640 -0.40920 0.08290
C16 C 0.7650(7) -0.2229(6) 0.0716(2)
H19 H 0.85530 -0.19370 0.07820
C17 C 0.8248(8) 0.3419(6) 0.3309(3)
C18 C 0.9309(5) 0.2402(5) 0.3298(2)
H20 H 1.02120 0.27970 0.33000
H21 H 0.92030 0.18840 0.29130
H22 H 0.92080 0.18580 0.36750
C19 C 0.8430(6) 0.4366(5) 0.38558(19)
H23 H 0.93490 0.47260 0.38410
H24 H 0.82960 0.39250 0.42630
H25 H 0.77610 0.50550 0.38150
C20 C 0.3340(7) 0.3274(6) 0.1921(3)
C21 C 0.3299(7) 0.4343(4) 0.1454(2)
H26 H 0.26500 0.49910 0.15990
H27 H 0.30130 0.40170 0.10370
H28 H 0.42050 0.47250 0.14180
C22 C 0.1946(6) 0.2723(5) 0.2052(2)
H29 H 0.13340 0.34060 0.21930
H30 H 0.20140 0.20720 0.23860
H31 H 0.15870 0.23340 0.16620
#END
