
#######################################################################
#
#                 Cambridge Crystallographic Data Centre
#                                CCDC
#
#######################################################################
#
# If this CIF has been generated from an entry in the Cambridge
# Structural Database, then it will include bibliographic, chemical,
# crystal, experimental, refinement or atomic coordinate data resulting
# from the CCDC's data processing and validation procedures.
#
#######################################################################

data_CSD_CIF_QUNFEL
_audit_creation_date 2010-07-16
_audit_creation_method CSD-ConQuest-V1
_database_code_CSD QUNFEL
_database_code_depnum_ccdc_archive 'CCDC 749565'
_chemical_formula_sum 'C19 H25 N1 O5'
_chemical_formula_moiety
;
C19 H25 N1 O5
;
_journal_coden_Cambridge 24
_journal_volume 50
_journal_year 2009
_journal_page_first 7152
_journal_name_full 'Tetrahedron Lett. '
loop_
_publ_author_name
"E.Marca"
"I.Delso"
"T.Tejero"
"J.T.Vazquez"
"R.L.Dorta"
"P.Merino"
_chemical_name_systematic
;
(2R,4S,6R)-2-((3aS,4R,6S,6aS)-6-methoxy-2,2-dimethyltetrahydrofuro[3,4-d][1,3]
dioxol-4-yl)-6-phenyl-7-oxa-1-azabicyclo[2.2.1]heptane
;
_chemical_melting_point 409
_cell_volume   1798.091
_exptl_crystal_colour 'colorless'
_exptl_crystal_density_diffrn 1.283
_exptl_crystal_description 'block'
_diffrn_ambient_temperature 150
#These two values have been output from a single CSD field.
_refine_ls_R_factor_gt 0.0347
_refine_ls_wR_factor_gt 0.0347
loop_
_citation_database_id_CSD
_citation_special_details
QUNFAH "is a stereoisomer of this entry"
QUNFOV "is a stereoisomer of this entry"
_symmetry_cell_setting orthorhombic
_symmetry_space_group_name_H-M 'P 21 21 21'
_symmetry_Int_Tables_number 19
loop_
_symmetry_equiv_pos_site_id
_symmetry_equiv_pos_as_xyz
1 x,y,z
2 1/2-x,-y,1/2+z
3 1/2+x,1/2-y,-z
4 -x,1/2+y,1/2-z
_cell_length_a 8.38
_cell_length_b 11.308
_cell_length_c 18.975
_cell_angle_alpha 90
_cell_angle_beta 90
_cell_angle_gamma 90
_cell_formula_units_Z 4
loop_
_atom_type_symbol
_atom_type_radius_bond
C 0.68
H 0.23
N 0.68
O 0.68
loop_
_atom_site_label
_atom_site_type_symbol
_atom_site_fract_x
_atom_site_fract_y
_atom_site_fract_z
O1 O 0.72155(11) 0.38784(9) 0.52938(5)
O2 O 0.07731(11) 0.51962(9) 0.39616(5)
O3 O 0.57395(10) 0.50862(8) 0.40707(5)
O4 O 0.66395(12) 0.34165(9) 0.34613(5)
O5 O 0.45701(12) 0.40499(10) 0.55079(5)
N1 N 0.15242(13) 0.49542(11) 0.46427(6)
C1 C 0.46797(16) 0.36083(13) 0.48108(8)
H1 H 0.40530 0.28840 0.47480
C2 C 0.11449(16) 0.58305(13) 0.58446(8)
C3 C 0.64662(15) 0.33952(13) 0.46883(7)
H2 H 0.67210 0.25580 0.46180
C4 C 0.60654(16) 0.39312(13) 0.58483(8)
C5 C 0.28374(16) 0.65188(12) 0.39983(8)
H3 H 0.32070 0.72750 0.41760
H4 H 0.33360 0.63580 0.35470
C6 C 0.68580(15) 0.41422(13) 0.40529(7)
H5 H 0.79550 0.44400 0.40760
C7 C 0.15880(17) 0.68748(14) 0.61689(8)
H6 H 0.14910 0.75860 0.59270
C8 C 0.05136(17) 0.57487(14) 0.50980(8)
H7 H -0.05400 0.53770 0.51290
C9 C 0.2179(2) 0.68726(16) 0.68548(9)
H8 H 0.24690 0.75830 0.70660
C10 C 0.31325(16) 0.55104(12) 0.45326(7)
H9 H 0.35330 0.58340 0.49780
C11 C 0.10349(17) 0.64672(13) 0.39528(9)
H10 H 0.05920 0.68650 0.35380
C12 C 0.03056(19) 0.68700(15) 0.46481(9)
H11 H -0.08110 0.70790 0.45940
H12 H 0.08810 0.75360 0.48460
C13 C 0.7046(2) 0.39812(18) 0.28167(8)
H13 H 0.68770 0.34430 0.24320
H14 H 0.81480 0.42130 0.28280
H15 H 0.63890 0.46680 0.27540
C14 C 0.42357(15) 0.45571(12) 0.42682(7)
H16 H 0.37580 0.41770 0.38550
C15 C 0.12689(19) 0.47954(15) 0.62317(9)
H17 H 0.09430 0.40860 0.60300
C16 C 0.2339(2) 0.58351(18) 0.72242(9)
H18 H 0.27590 0.58340 0.76780
C17 C 0.6382(2) 0.50260(16) 0.62742(10)
H19 H 0.73950 0.49540 0.65060
H20 H 0.55560 0.51220 0.66200
H21 H 0.63970 0.57020 0.59680
C18 C 0.1861(2) 0.47919(17) 0.69068(9)
H22 H 0.19420 0.40830 0.71520
C19 C 0.6098(2) 0.28187(15) 0.6282(1)
H23 H 0.71170 0.27470 0.65090
H24 H 0.59270 0.21480 0.59810
H25 H 0.52720 0.28510 0.66320
#END
