
#######################################################################
#
#                 Cambridge Crystallographic Data Centre
#                                CCDC
#
#######################################################################
#
# If this CIF has been generated from an entry in the Cambridge
# Structural Database, then it will include bibliographic, chemical,
# crystal, experimental, refinement or atomic coordinate data resulting
# from the CCDC's data processing and validation procedures.
#
#######################################################################

data_CSD_CIF_QUNFIP
_audit_creation_date 2010-07-16
_audit_creation_method CSD-ConQuest-V1
_database_code_CSD QUNFIP
_database_code_depnum_ccdc_archive 'CCDC 749566'
_chemical_formula_sum 'C19 H27 N1 O5'
_chemical_formula_moiety
;
C19 H27 N1 O5
;
_journal_coden_Cambridge 24
_journal_volume 50
_journal_year 2009
_journal_page_first 7152
_journal_name_full 'Tetrahedron Lett. '
loop_
_publ_author_name
"E.Marca"
"I.Delso"
"T.Tejero"
"J.T.Vazquez"
"R.L.Dorta"
"P.Merino"
_chemical_name_systematic
;
N-Benzyl-N-((S)-1-((3aR,4R,6R,6aR)-6-methoxy-2,2-dimethyltetrahydrofuro[3,4-d]
[1,3]dioxol-4-yl)but-3-enyl)hydroxylamine
;
_chemical_melting_point 360
_cell_volume   1821.634
_exptl_crystal_colour 'colorless'
_exptl_crystal_density_diffrn 1.274
_exptl_crystal_description 'needle'
_diffrn_ambient_temperature 150
#These two values have been output from a single CSD field.
_refine_ls_R_factor_gt 0.0671
_refine_ls_wR_factor_gt 0.0671
_symmetry_cell_setting orthorhombic
_symmetry_space_group_name_H-M 'P 21 21 21'
_symmetry_Int_Tables_number 19
loop_
_symmetry_equiv_pos_site_id
_symmetry_equiv_pos_as_xyz
1 x,y,z
2 1/2-x,-y,1/2+z
3 1/2+x,1/2-y,-z
4 -x,1/2+y,1/2-z
_cell_length_a 5.549(2)
_cell_length_b 17.409(6)
_cell_length_c 18.857(4)
_cell_angle_alpha 90
_cell_angle_beta 90
_cell_angle_gamma 90
_cell_formula_units_Z 4
loop_
_atom_type_symbol
_atom_type_radius_bond
C 0.68
H 0.23
N 0.68
O 0.68
loop_
_atom_site_label
_atom_site_type_symbol
_atom_site_fract_x
_atom_site_fract_y
_atom_site_fract_z
N1 N 0.0012(10) 0.4611(3) 0.0178(3)
O1 O 0.4434(8) 0.3429(3) 0.1168(2)
O2 O 0.1186(8) 0.3093(2) 0.2756(2)
O3 O -0.1265(8) 0.4122(2) 0.2660(2)
O4 O 0.0245(9) 0.3424(3) 0.1183(2)
O5 O -0.2193(9) 0.4644(3) 0.0029(2)
H1 H -0.294(12) 0.482(4) 0.037(3)
C1 C 0.2363(12) 0.3192(3) 0.1527(3)
H2 H 0.23730 0.26320 0.15820
C2 C 0.2317(13) 0.3573(4) 0.2247(3)
H3 H 0.39300 0.37310 0.23990
C3 C 0.0603(12) 0.4266(4) 0.2164(3)
H4 H 0.14130 0.47580 0.22460
C4 C -0.0349(11) 0.4188(4) 0.1412(3)
H5 H -0.21070 0.42420 0.14200
C5 C 0.0692(13) 0.4798(4) 0.0924(3)
H6 H 0.24520 0.47950 0.09650
C6 C -0.0240(13) 0.5597(3) 0.1096(3)
H7 H -0.19870 0.55920 0.10760
H8 H 0.02220 0.57260 0.15780
C7 C 0.0674(14) 0.6202(4) 0.0610(3)
H9 H 0.23360 0.62500 0.05650
C8 C -0.0651(16) 0.6665(4) 0.0246(3)
H10 H -0.23210 0.66340 0.02760
H11 H 0.00640 0.70290 -0.00480
C9 C 0.4915(12) 0.2978(4) 0.0553(3)
H12 H 0.63370 0.31680 0.03220
H13 H 0.35720 0.30100 0.02340
H14 H 0.51600 0.24530 0.06900
C10 C -0.0392(13) 0.3555(4) 0.3157(3)
C11 C 0.0896(12) 0.3936(4) 0.3765(3)
H15 H -0.02270 0.42400 0.40310
H16 H 0.21520 0.42600 0.35830
H17 H 0.15860 0.35500 0.40660
C12 C -0.2504(13) 0.3077(4) 0.3389(3)
H18 H -0.35710 0.33840 0.36720
H19 H -0.19410 0.26490 0.36640
H20 H -0.33500 0.28920 0.29790
C13 C 0.1635(10) 0.4413(3) -0.0281(4)
H21 H 0.24930 0.39870 -0.00670
H22 H 0.27670 0.48370 -0.02960
C14 C 0.1257(13) 0.4191(4) -0.1024(3)
C15 C -0.0717(13) 0.4385(4) -0.1405(3)
H23 H -0.19370 0.46690 -0.11920
C16 C -0.0942(14) 0.4172(4) -0.2093(4)
H24 H -0.22900 0.43270 -0.23490
C17 C 0.0782(16) 0.3731(4) -0.2418(4)
H25 H 0.05930 0.35720 -0.28860
C18 C 0.2802(15) 0.3530(4) -0.2036(4)
H26 H 0.39930 0.32310 -0.22460
C19 C 0.3066(13) 0.3771(4) -0.1342(4)
H27 H 0.44570 0.36500 -0.10900
#END
