
#######################################################################
#
#                 Cambridge Crystallographic Data Centre
#                                CCDC
#
#######################################################################
#
# If this CIF has been generated from an entry in the Cambridge
# Structural Database, then it will include bibliographic, chemical,
# crystal, experimental, refinement or atomic coordinate data resulting
# from the CCDC's data processing and validation procedures.
#
#######################################################################

data_CSD_CIF_QUNRIC
_audit_creation_date 2015-06-11
_audit_creation_method CSD-ConQuest-V1
_database_code_CSD QUNRIC
_database_code_depnum_ccdc_archive 'CCDC 1406277'
_chemical_formula_sum 'C12 H10 N4 O7'
_chemical_formula_moiety
;
C12 H10 N4 O7
;
_journal_coden_Cambridge 1078
_journal_year 2015
_journal_name_full 'CSD Communication(Private Communication) '
loop_
_publ_author_name
"D.Kalaivani"
"G.Sridevi"
_chemical_name_systematic
;
5-(2,4-dinitrophenyl)-1,3-dimethylpyrimidine-2,4,6(1H,3H,5H)-trione
;
_chemical_melting_point 463
_cell_volume   1377.772
_exptl_crystal_colour 'colorless'
_exptl_crystal_density_diffrn 1.554
_exptl_special_details
;
Highly soluble in water
orthorhombic polymorph

;
_exptl_crystal_description 'block'
_exptl_crystal_preparation 'Re-crystallisation from solvent'
_diffrn_ambient_temperature 293
#These two values have been output from a single CSD field.
_refine_ls_R_factor_gt 0.0511
_refine_ls_wR_factor_gt 0.0511
_symmetry_cell_setting orthorhombic
_symmetry_space_group_name_H-M 'P 21 21 21'
_symmetry_Int_Tables_number 19
loop_
_symmetry_equiv_pos_site_id
_symmetry_equiv_pos_as_xyz
1 x,y,z
2 1/2-x,-y,1/2+z
3 1/2+x,1/2-y,-z
4 -x,1/2+y,1/2-z
_cell_length_a 7.7986(2)
_cell_length_b 21.3911(6)
_cell_length_c 8.2590(2)
_cell_angle_alpha 90
_cell_angle_beta 90
_cell_angle_gamma 90
_cell_formula_units_Z 4
loop_
_atom_type_symbol
_atom_type_radius_bond
C 0.68
H 0.23
N 0.68
O 0.68
loop_
_atom_site_label
_atom_site_type_symbol
_atom_site_fract_x
_atom_site_fract_y
_atom_site_fract_z
C1 C 0.1787(5) 0.75395(14) 0.2257(4)
C2 C 0.0235(4) 0.77171(13) 0.2879(4)
H1 H -0.07770 0.75250 0.25490
C3 C 0.0223(4) 0.81891(13) 0.4011(4)
C4 C 0.1710(4) 0.84828(13) 0.4538(3)
C5 C 0.3243(4) 0.82799(14) 0.3862(4)
H2 H 0.42630 0.84680 0.41840
C6 C 0.3294(4) 0.78086(15) 0.2732(4)
H3 H 0.43330 0.76760 0.22990
C7 C 0.1769(4) 0.90060(13) 0.5756(4)
H4 H 0.29460 0.91660 0.57110
C8 C 0.0651(5) 0.95521(15) 0.5296(4)
C9 C 0.0382(5) 0.98011(15) 0.8159(4)
C10 C 0.1533(4) 0.87804(14) 0.7464(4)
C11 C 0.1151(6) 0.90771(18) 1.0281(4)
H5 H 0.20240 0.87680 1.04560
H6 H 0.00640 0.89160 1.06310
H7 H 0.14220 0.94470 1.08870
C12 C -0.0946(6) 1.04773(18) 0.6150(6)
H8 H -0.19190 1.03560 0.55120
H9 H -0.02670 1.07730 0.55550
H10 H -0.13320 1.06650 0.71400
N1 N -0.1466(3) 0.83628(12) 0.4623(4)
N2 N 0.1822(6) 0.70481(16) 0.1028(4)
N3 N 0.0097(4) 0.99225(11) 0.6523(3)
N4 N 0.1066(4) 0.92297(12) 0.8562(3)
O1 O -0.1553(3) 0.86468(11) 0.5907(3)
O2 O -0.2716(3) 0.82144(16) 0.3851(4)
O3 O 0.3168(5) 0.69124(18) 0.0418(4)
O4 O 0.0511(6) 0.6804(2) 0.0678(7)
O5 O 0.1842(4) 0.82498(11) 0.7859(3)
O6 O 0.0361(5) 0.96695(12) 0.3897(3)
O7 O -0.0004(4) 1.01772(11) 0.9180(3)
#END
