
#######################################################################
#
#                 Cambridge Crystallographic Data Centre
#                                CCDC
#
#######################################################################
#
# If this CIF has been generated from an entry in the Cambridge
# Structural Database, then it will include bibliographic, chemical,
# crystal, experimental, refinement or atomic coordinate data resulting
# from the CCDC's data processing and validation procedures.
#
#######################################################################

data_CSD_CIF_QURVOO
_audit_creation_date 2002-02-05
_audit_creation_method CSD-ConQuest-V1
_database_code_CSD QURVOO
_database_code_depnum_ccdc_archive 'CCDC 176043'
_chemical_formula_sum 'C22 H26 N2 O5'
_chemical_formula_moiety
;
C22 H26 N2 O5
;
_journal_coeditor_code "IUCr CF6119"
_journal_coden_Cambridge 1370
_journal_volume 57
_journal_year 2001
_journal_page_first o1123
_journal_name_full 'Acta Crystallogr.,Sect.E:Struct.Rep.Online '
loop_
_publ_author_name
"A.Linden"
"M.Ayerbe"
"A.Arrieta"
"A.Zubia"
"S.Vivanco"
"E.Erquicia"
"E.Aldaba"
"F.P.Cossio"
"B.Lecea"
_chemical_name_systematic
;
(2S*,3R*,4S*,5R*)-3-(S*-1-Benzyloxyethyl)-4-methyl-4-nitro-5-phenylproline 
methyl ester
;
_chemical_melting_point 454
_cell_volume   2063.018
_exptl_crystal_colour 'colorless'
_exptl_crystal_density_diffrn 1.283
_exptl_crystal_description 'prism'
_exptl_crystal_preparation 'ethanol'
_diffrn_ambient_temperature 173.0
#These two values have been output from a single CSD field.
_refine_ls_R_factor_gt 0.0494
_refine_ls_wR_factor_gt 0.0494
_symmetry_cell_setting monoclinic
_symmetry_space_group_name_H-M 'P 21/n'
_symmetry_Int_Tables_number 14
loop_
_symmetry_equiv_pos_site_id
_symmetry_equiv_pos_as_xyz
1 x,y,z
2 1/2+x,1/2-y,1/2+z
3 -x,-y,-z
4 -1/2-x,-1/2+y,-1/2-z
_cell_length_a 9.245(2)
_cell_length_b 8.4082(17)
_cell_length_c 26.6330(15)
_cell_angle_alpha 90
_cell_angle_beta 94.802(11)
_cell_angle_gamma 90
_cell_formula_units_Z 4
loop_
_atom_type_symbol
_atom_type_radius_bond
C 0.68
H 0.23
N 0.68
O 0.68
loop_
_atom_site_label
_atom_site_type_symbol
_atom_site_fract_x
_atom_site_fract_y
_atom_site_fract_z
O1 O 0.61730(17) 0.9198(2) 0.07951(7)
O2 O 0.7218(2) 1.0383(2) 0.14481(7)
O3 O 0.80889(18) 0.4743(2) 0.00001(5)
O4 O 0.65473(18) 0.3568(2) 0.04833(5)
O5 O 0.59975(15) 0.68719(16) 0.18720(4)
N1 N 0.95987(18) 0.6213(2) 0.08183(6)
H1 H 1.008(2) 0.591(3) 0.0549(9)
N2 N 0.7077(2) 0.9252(2) 0.11587(7)
C1 C 0.8363(2) 0.5196(2) 0.09011(7)
H2 H 0.86980 0.42990 0.11290
C2 C 0.7304(2) 0.6274(2) 0.11770(7)
H3 H 0.64100 0.64440 0.09450
C3 C 0.8129(2) 0.7876(2) 0.12326(7)
C4 C 0.9054(2) 0.7839(2) 0.07735(7)
H4 H 0.83900 0.79260 0.04580
C5 C 0.7655(2) 0.4513(2) 0.04074(7)
C6 C 0.5836(3) 0.2781(3) 0.00460(9)
H5 H 0.54910 0.35790 -0.02040
H6 H 0.50110 0.21620 0.01470
H7 H 0.65270 0.20690 -0.01010
C7 C 0.6837(2) 0.5613(2) 0.16744(7)
H8 H 0.77170 0.54080 0.19100
C8 C 0.5888(3) 0.6765(3) 0.24016(7)
H9 H 0.68640 0.68680 0.25820
H10 H 0.54870 0.57140 0.24850
C9 C 0.4914(2) 0.8065(2) 0.25670(7)
C10 C 0.4452(3) 0.9301(3) 0.22514(8)
H11 H 0.47880 0.93700 0.19250
C11 C 0.3502(3) 1.0442(3) 0.24071(9)
H12 H 0.31890 1.12840 0.21860
C12 C 0.3009(3) 1.0360(3) 0.28824(9)
H13 H 0.23440 1.11290 0.29860
C13 C 0.3491(2) 0.9151(3) 0.32042(8)
H14 H 0.31760 0.91010 0.35340
C14 C 0.4431(2) 0.8014(2) 0.30466(7)
H15 H 0.47530 0.71830 0.32700
C15 C 0.5942(3) 0.4103(3) 0.16107(9)
H16 H 0.56320 0.37760 0.19380
H17 H 0.65290 0.32580 0.14760
H18 H 0.50860 0.43010 0.13760
C16 C 0.9070(2) 0.8094(3) 0.17272(7)
H19 H 0.96370 0.90750 0.17120
H20 H 0.97290 0.71850 0.17800
H21 H 0.84470 0.81600 0.20070
C17 C 1.0205(2) 0.9107(3) 0.07653(7)
C18 C 1.1639(2) 0.8830(3) 0.09425(8)
H22 H 1.19270 0.78160 0.10730
C19 C 1.2667(3) 1.0073(4) 0.09275(9)
H23 H 1.36490 0.98910 0.10480
C20 C 1.2256(3) 1.1538(4) 0.07398(9)
H24 H 1.29570 1.23610 0.07300
C21 C 1.0837(3) 1.1827(3) 0.05655(9)
H25 H 1.05540 1.28480 0.04400
C22 C 0.9824(2) 1.0613(3) 0.05753(8)
H26 H 0.88480 1.08090 0.04500
#END
