
#######################################################################
#
#                 Cambridge Crystallographic Data Centre
#                                CCDC
#
#######################################################################
#
# If this CIF has been generated from an entry in the Cambridge
# Structural Database, then it will include bibliographic, chemical,
# crystal, experimental, refinement or atomic coordinate data resulting
# from the CCDC's data processing and validation procedures.
#
#######################################################################

data_CSD_CIF_QUSZOT
_audit_creation_date 2002-02-05
_audit_creation_method CSD-ConQuest-V1
_database_code_CSD QUSZOT
_database_code_depnum_ccdc_archive 'CCDC 157419'
_chemical_formula_sum 'C20 H26 N2 O1'
_chemical_formula_moiety
;
C20 H26 N2 O1
;
_journal_coden_Cambridge 16
_journal_volume 57
_journal_year 2001
_journal_page_first 8323
_journal_name_full 'Tetrahedron '
loop_
_publ_author_name
"G.Broggini"
"C.La Rosa"
"T.Pilati"
"A.Terraneo"
"G.Zecchi"
_chemical_name_systematic
;
(\aR,3aS,8bS)-6-n-Butyl-1-(\a-phenylethyl)-1,3a,4,8b-tetrahydro-3H-isoxazolo(3
,4-a)pyrrolizine
;
_chemical_melting_point 389.15
_cell_volume   1781.388
_exptl_crystal_colour 'colorless'
_exptl_crystal_density_diffrn 1.157
_exptl_special_details
;
Melting point range 389.15-390.15K

;
_exptl_crystal_description 'prism'
_exptl_crystal_preparation 'di-isopropyl ether'
_diffrn_ambient_temperature 293
#These two values have been output from a single CSD field.
_refine_ls_R_factor_gt 0.0408
_refine_ls_wR_factor_gt 0.0408
_symmetry_cell_setting orthorhombic
_symmetry_space_group_name_H-M 'P 21 21 21'
_symmetry_Int_Tables_number 19
loop_
_symmetry_equiv_pos_site_id
_symmetry_equiv_pos_as_xyz
1 x,y,z
2 1/2-x,-y,1/2+z
3 1/2+x,1/2-y,-z
4 -x,1/2+y,1/2-z
_cell_length_a 5.2871(7)
_cell_length_b 14.8271(12)
_cell_length_c 22.724(2)
_cell_angle_alpha 90
_cell_angle_beta 90
_cell_angle_gamma 90
_cell_formula_units_Z 4
loop_
_atom_type_symbol
_atom_type_radius_bond
C 0.68
H 0.23
N 0.68
O 0.68
loop_
_atom_site_label
_atom_site_type_symbol
_atom_site_fract_x
_atom_site_fract_y
_atom_site_fract_z
N1 N 0.6113(4) 0.95163(12) 0.46491(9)
O1 O 0.5896(4) 0.85483(11) 0.46192(9)
C1 C 0.3246(6) 0.83452(19) 0.46805(16)
H1 H 0.236(6) 0.8423(17) 0.4288(11)
H2 H 0.326(6) 0.7760(17) 0.4792(10)
C2 C 0.2312(5) 0.89809(17) 0.51468(12)
H3 H 0.063(5) 0.9185(17) 0.504(1)
C3 C 0.2425(7) 0.8616(2) 0.57775(14)
H4 H 0.300(6) 0.7995(18) 0.5791(11)
H5 H 0.073(6) 0.8778(18) 0.5972(12)
N2 N 0.4364(4) 0.91666(13) 0.60529(10)
C4 C 0.5404(7) 0.9205(2) 0.66014(13)
C5 C 0.7172(7) 0.9873(2) 0.65813(16)
H6 H 0.833(6) 1.007(2) 0.6892(13)
C6 C 0.7142(7) 1.02594(19) 0.60134(16)
H7 H 0.809(6) 1.0716(19) 0.5832(12)
C7 C 0.5378(5) 0.98001(15) 0.56965(11)
C8 C 0.4257(5) 0.97626(14) 0.51020(11)
H8 H 0.343(5) 1.0354(14) 0.5004(9)
C9 C 0.5552(6) 0.99067(18) 0.40679(13)
H9 H 0.396(5) 0.9799(18) 0.4003(11)
C10 C 0.7252(6) 0.94872(18) 0.36094(12)
H10 H 0.69710 0.88480 0.35980
H11 H 0.89870 0.96050 0.37080
H12 H 0.68790 0.97420 0.32310
C11 C 0.5970(5) 1.09180(15) 0.40988(10)
C12 C 0.4407(6) 1.14871(16) 0.37901(11)
H13 H 0.30340 1.12520 0.35850
C13 C 0.4858(6) 1.24103(17) 0.37816(12)
H14 H 0.37830 1.27900 0.35730
C14 C 0.6869(6) 1.27624(18) 0.40783(12)
H15 H 0.71900 1.33790 0.40650
C15 C 0.8410(6) 1.22040(18) 0.43947(12)
H16 H 0.97560 1.24420 0.46070
C16 C 0.7968(5) 1.12884(17) 0.43986(12)
H17 H 0.90490 1.09130 0.46090
C17 C 0.4727(9) 0.8569(2) 0.70850(13)
H18 H 0.29520 0.84120 0.70510
H19 H 0.49670 0.88700 0.74600
C18 C 0.6333(9) 0.7689(2) 0.70760(15)
H20 H 0.61230 0.74020 0.66950
H21 H 0.81020 0.78510 0.71150
C19 C 0.5714(9) 0.7031(3) 0.75333(16)
H22 H 0.39730 0.68400 0.74840
H23 H 0.58530 0.73200 0.79150
C20 C 0.7378(8) 0.6225(3) 0.75225(17)
H24 H 0.68730 0.58150 0.78270
H25 H 0.90990 0.64070 0.75860
H26 H 0.72390 0.59320 0.71470
#END
