
#######################################################################
#
#                 Cambridge Crystallographic Data Centre
#                                CCDC
#
#######################################################################
#
# If this CIF has been generated from an entry in the Cambridge
# Structural Database, then it will include bibliographic, chemical,
# crystal, experimental, refinement or atomic coordinate data resulting
# from the CCDC's data processing and validation procedures.
#
#######################################################################

data_CSD_CIF_QUWROQ
_audit_creation_date 2012-11-07
_audit_creation_method CSD-ConQuest-V1
_database_code_CSD QUWROQ
_database_code_depnum_ccdc_archive 'CCDC 771074'
_chemical_formula_sum 'C21 H36 N2 O6'
_chemical_formula_moiety
;
C21 H36 N2 O6
;
_journal_coden_Cambridge 1291
_journal_year 2012
_journal_page_first 4461
_journal_name_full 'Eur.J.Org.Chem. '
loop_
_publ_author_name
"E.Dinca"
"P.Hartmann"
"J.Smrcek"
"I.Dix"
"P.G.Jones"
"U.Jahn"
_chemical_name_systematic
;
1-t-Butyl 2-ethyl 
5-oxo-4-((2,2,6,6-tetramethylpiperidin-1-yl)oxy)pyrrolidine-1,2-dicarboxylate
;
_cell_volume   2240.641
_exptl_crystal_colour 'colorless'
_exptl_crystal_density_diffrn 1.223
_exptl_crystal_description 'irregular prism'
_diffrn_ambient_temperature 133
#These two values have been output from a single CSD field.
_refine_ls_R_factor_gt 0.0287
_refine_ls_wR_factor_gt 0.0287
_symmetry_cell_setting orthorhombic
_symmetry_space_group_name_H-M 'P 21 21 21'
_symmetry_Int_Tables_number 19
loop_
_symmetry_equiv_pos_site_id
_symmetry_equiv_pos_as_xyz
1 x,y,z
2 1/2-x,-y,1/2+z
3 1/2+x,1/2-y,-z
4 -x,1/2+y,1/2-z
_cell_length_a 9.8723(11)
_cell_length_b 13.4279(12)
_cell_length_c 16.9023(16)
_cell_angle_alpha 90
_cell_angle_beta 90
_cell_angle_gamma 90
_cell_formula_units_Z 4
loop_
_atom_type_symbol
_atom_type_radius_bond
C 0.68
H 0.23
N 0.68
O 0.68
loop_
_atom_site_label
_atom_site_type_symbol
_atom_site_fract_x
_atom_site_fract_y
_atom_site_fract_z
O1 O 0.76049(12) 0.46180(9) 0.40793(9)
O2 O 0.91513(11) 0.35230(9) 0.45279(7)
O3 O 0.49762(10) 0.23902(8) 0.25978(6)
O4 O 0.34891(11) 0.32459(9) 0.38678(7)
O5 O 0.39912(11) 0.40213(9) 0.53885(7)
O6 O 0.62203(10) 0.38438(9) 0.57083(7)
N1 N 0.55242(12) 0.3270(1) 0.45523(8)
N2 N 0.52789(12) 0.28028(10) 0.18141(7)
C1 C 0.69274(15) 0.29398(12) 0.44124(9)
H1 H 0.72330 0.24750 0.48390
C2 C 0.68217(15) 0.23946(12) 0.36131(9)
H2 H 0.76740 0.24550 0.33080
H3 H 0.66100 0.16800 0.36890
C3 C 0.56552(14) 0.29352(12) 0.31974(9)
H4 H 0.59990 0.35750 0.29700
C4 C 0.46991(15) 0.31655(12) 0.38859(9)
C5 C 0.78965(15) 0.38092(12) 0.43307(10)
C6 C 1.02463(17) 0.42092(13) 0.43159(11)
H5 H 1.10390 0.40930 0.46630
H6 H 0.99420 0.49060 0.43900
C7 C 1.06340(18) 0.40432(15) 0.34739(12)
H7 H 1.09870 0.33660 0.34110
H8 H 1.13330 0.45250 0.33210
H9 H 0.98370 0.41300 0.31350
C8 C 0.51241(15) 0.37479(11) 0.52488(9)
C9 C 0.61621(16) 0.44396(12) 0.64438(9)
C10 C 0.5728(2) 0.54976(13) 0.62456(12)
H10 H 0.62940 0.57560 0.58160
H11 H 0.58340 0.59210 0.67140
H12 H 0.47770 0.54980 0.60790
C11 C 0.52384(18) 0.39349(12) 0.70359(10)
H13 H 0.42930 0.40300 0.68760
H14 H 0.53800 0.42270 0.75610
H15 H 0.54440 0.32210 0.70540
C12 C 0.76301(18) 0.44080(15) 0.67188(11)
H16 H 0.79160 0.37130 0.67810
H17 H 0.77130 0.47540 0.72270
H18 H 0.82070 0.47360 0.63250
C13 C 0.58784(15) 0.19715(11) 0.13349(9)
C14 C 0.50584(18) 0.09983(12) 0.13046(10)
H19 H 0.47400 0.08310 0.18370
H20 H 0.56340 0.04600 0.11050
H21 H 0.42790 0.10840 0.09520
C15 C 0.72636(16) 0.17351(13) 0.16989(11)
H22 H 0.77600 0.23560 0.17900
H23 H 0.77800 0.13110 0.13360
H24 H 0.71360 0.13870 0.22030
C16 C 0.61111(16) 0.23835(13) 0.04989(9)
H25 H 0.68240 0.29010 0.05220
H26 H 0.64460 0.18390 0.01560
C17 C 0.48458(17) 0.28295(13) 0.01277(10)
H27 H 0.41490 0.23070 0.00570
H28 H 0.50650 0.31120 -0.03980
C18 C 0.43125(16) 0.36432(12) 0.06704(9)
H29 H 0.34740 0.39230 0.04380
H30 H 0.49900 0.41860 0.06970
C19 C 0.40044(15) 0.32871(12) 0.15134(9)
C20 C 0.37533(17) 0.42126(12) 0.20198(10)
H31 H 0.35350 0.40100 0.25620
H32 H 0.29950 0.45930 0.17990
H33 H 0.45690 0.46290 0.20230
C21 C 0.27267(15) 0.26335(13) 0.15431(10)
H34 H 0.27860 0.21160 0.11360
H35 H 0.19250 0.30470 0.14470
H36 H 0.26550 0.23210 0.20650
#END
