
#######################################################################
#
#                 Cambridge Crystallographic Data Centre
#                                CCDC
#
#######################################################################
#
# If this CIF has been generated from an entry in the Cambridge
# Structural Database, then it will include bibliographic, chemical,
# crystal, experimental, refinement or atomic coordinate data resulting
# from the CCDC's data processing and validation procedures.
#
#######################################################################

data_CSD_CIF_QUXPOQ
_audit_creation_date 2015-11-04
_audit_creation_method CSD-ConQuest-V1
_database_code_CSD QUXPOQ
_database_code_depnum_ccdc_archive 'CCDC 1008920'
_chemical_formula_sum 'C23 H42 N4 O9'
_chemical_formula_moiety
;
C23 H42 N4 O9
;
_journal_coden_Cambridge 1336
_journal_volume 17
_journal_year 2015
_journal_page_first 4738
_journal_name_full 'Org.Lett. '
loop_
_publ_author_name
"M.G.Kumar"
"H.N.Gopi"
_chemical_name_systematic
;
(3R,4R)-ethyl 
4-((3R,4S)-4-((t-butoxycarbonyl)amino)-5-methyl-3-(nitromethyl)hexanamido)-5-m
ethyl-3-(nitromethyl)hexanoate
;
_chemical_name_common
;
ethyl 
4-((4-((t-butoxycarbonyl)amino)-5-methyl-3-(nitromethyl)hexanoyl)amino)-5-meth
yl-3-(nitromethyl)hexanoate
;
_cell_volume   2161.187
_exptl_crystal_density_diffrn 1.196
_exptl_crystal_description 'rod'
_exptl_crystal_preparation 'ethyl acetate'
_diffrn_ambient_temperature 100
#These two values have been output from a single CSD field.
_refine_ls_R_factor_gt 0.0726
_refine_ls_wR_factor_gt 0.0726
_symmetry_cell_setting hexagonal
_symmetry_space_group_name_H-M 'P 32'
_symmetry_Int_Tables_number 145
loop_
_symmetry_equiv_pos_site_id
_symmetry_equiv_pos_as_xyz
1 x,y,z
2 -y,x-y,2/3+z
3 -x+y,-x,1/3+z
_cell_length_a 13.414(11)
_cell_length_b 13.414(11)
_cell_length_c 13.869(11)
_cell_angle_alpha 90
_cell_angle_beta 90
_cell_angle_gamma 120
_cell_formula_units_Z 3
loop_
_atom_type_symbol
_atom_type_radius_bond
C 0.68
H 0.23
N 0.68
O 0.68
loop_
_atom_site_label
_atom_site_type_symbol
_atom_site_fract_x
_atom_site_fract_y
_atom_site_fract_z
O1 O 0.2081(3) 0.3854(3) -0.2736(2)
O2 O -0.1376(3) 0.2031(3) 0.3086(3)
O3 O 0.0283(3) 0.3553(3) 0.3547(3)
O4 O -0.1078(3) -0.0759(3) 0.0888(3)
O5 O 0.0403(3) 0.0206(4) 0.1803(3)
O6 O 0.0593(3) 0.4857(3) 0.1378(3)
O7 O 0.0887(3) 0.3008(3) -0.1458(3)
O8 O 0.3811(3) 0.7416(3) 0.1079(3)
O9 O 0.4880(3) 0.8319(3) -0.0130(3)
N1 N 0.2808(3) 0.4226(3) -0.1269(3)
H1 H 0.34460 0.46380 -0.15710
N2 N 0.0137(3) 0.3467(3) 0.0272(3)
H2 H 0.03290 0.32960 -0.02690
N3 N -0.0249(4) 0.0143(4) 0.1163(4)
N4 N 0.4214(3) 0.7439(3) 0.0289(3)
C1 C 0.1833(5) 0.3789(5) -0.4387(4)
H3 H 0.21520 0.46090 -0.43770
H4 H 0.13200 0.34690 -0.49270
H5 H 0.24430 0.36160 -0.44460
C2 C 0.1180(4) 0.3278(4) -0.3467(4)
C3 C 0.1853(4) 0.3643(4) -0.1792(4)
C4 C 0.2842(4) 0.4210(4) -0.0219(4)
H6 H 0.21220 0.35420 -0.00030
C5 C 0.2867(4) 0.5288(4) 0.0187(4)
H7 H 0.29470 0.52820 0.08890
C6 C 0.1774(4) 0.5337(4) -0.0029(4)
H8 H 0.19300 0.61190 0.00650
H9 H 0.15650 0.51360 -0.07000
C7 C 0.0774(4) 0.4536(4) 0.0601(4)
C8 C -0.0877(4) 0.2558(4) 0.0775(4)
H10 H -0.11380 0.29360 0.12340
C9 C -0.0561(4) 0.1783(4) 0.1355(4)
H11 H -0.12710 0.11650 0.16390
C10 C 0.0266(4) 0.2444(4) 0.2185(4)
H12 H 0.05750 0.19800 0.24370
H13 H 0.09050 0.31450 0.19270
C11 C -0.0251(4) 0.2760(4) 0.3002(4)
C12 C -0.1936(5) 0.2209(5) 0.3902(5)
H14 H -0.19270 0.29340 0.38390
H15 H -0.15440 0.22260 0.44950
C13 C -0.3151(5) 0.1225(5) 0.3916(5)
H16 H -0.35260 0.12140 0.33230
H17 H -0.35560 0.13170 0.44480
H18 H -0.31470 0.05150 0.39870
C14 C -0.0056(5) 0.1219(5) 0.0695(5)
H19 H -0.04310 0.10470 0.00700
H20 H 0.07610 0.17380 0.06010
C15 C 0.0232(5) 0.3571(5) -0.3329(5)
H21 H -0.02120 0.31820 -0.27680
H22 H -0.02590 0.33300 -0.38860
H23 H 0.05680 0.43880 -0.32460
C16 C 0.0710(6) 0.1986(5) -0.3427(4)
H24 H 0.13340 0.18320 -0.34740
H25 H 0.01870 0.16220 -0.39540
H26 H 0.03110 0.16890 -0.28280
C17 C 0.3821(4) 0.4019(4) 0.0101(4)
H27 H 0.45120 0.45490 -0.02630
C18 C 0.4096(5) 0.4246(5) 0.1166(4)
H28 H 0.34080 0.37970 0.15360
H29 H 0.43950 0.50490 0.12980
H30 H 0.46600 0.40360 0.13400
C19 C 0.3527(5) 0.2797(5) -0.0140(5)
H31 H 0.41940 0.27190 -0.00450
H32 H 0.32860 0.26330 -0.08010
H33 H 0.29170 0.22660 0.02720
C20 C 0.3926(4) 0.6345(4) -0.0205(4)
H34 H 0.45800 0.62250 -0.01530
H35 H 0.38060 0.64220 -0.08850
C21 C -0.1856(5) 0.1912(5) 0.0030(4)
H36 H -0.15740 0.16050 -0.04760
C22 C -0.2182(6) 0.2727(5) -0.0428(5)
H37 H -0.27860 0.23180 -0.08890
H38 H -0.15240 0.33350 -0.07470
H39 H -0.24450 0.30490 0.00610
C23 C -0.2902(5) 0.0908(6) 0.0505(5)
H40 H -0.31210 0.11790 0.10610
H41 H -0.27140 0.03340 0.06970
H42 H -0.35290 0.05790 0.00540
#END
