
#######################################################################
#
#                 Cambridge Crystallographic Data Centre
#                                CCDC
#
#######################################################################
#
# If this CIF has been generated from an entry in the Cambridge
# Structural Database, then it will include bibliographic, chemical,
# crystal, experimental, refinement or atomic coordinate data resulting
# from the CCDC's data processing and validation procedures.
#
#######################################################################

data_CSD_CIF_QUYKUR01
_audit_creation_date 2011-09-07
_audit_creation_method CSD-ConQuest-V1
_database_code_CSD QUYKUR01
_database_code_depnum_ccdc_archive 'CCDC 743290'
_chemical_formula_sum 'C15 H14 N2 O2'
_chemical_formula_moiety
;
C15 H14 N2 O2
;
_journal_coden_Cambridge 315
_journal_volume 75
_journal_year 2010
_journal_page_first 1492
_journal_name_full 'Spectrochim.Acta,Part A '
loop_
_publ_author_name
"A.Karakas"
"H.Unver"
_chemical_name_systematic
;
(E)-2,3-Dimethyl-N-(4-nitrobenzylidene)aniline
;
_cell_volume   1299.606
_exptl_crystal_density_diffrn 1.3
_diffrn_ambient_temperature 301
#These two values have been output from a single CSD field.
_refine_ls_R_factor_gt 0.0616
_refine_ls_wR_factor_gt 0.0616
_symmetry_cell_setting orthorhombic
_symmetry_space_group_name_H-M 'P 21 21 21'
_symmetry_Int_Tables_number 19
loop_
_symmetry_equiv_pos_site_id
_symmetry_equiv_pos_as_xyz
1 x,y,z
2 1/2-x,-y,1/2+z
3 1/2+x,1/2-y,-z
4 -x,1/2+y,1/2-z
_cell_length_a 7.172(1)
_cell_length_b 11.798(1)
_cell_length_c 15.359(2)
_cell_angle_alpha 90
_cell_angle_beta 90
_cell_angle_gamma 90
_cell_formula_units_Z 4
loop_
_atom_type_symbol
_atom_type_radius_bond
C 0.68
H 0.23
N 0.68
O 0.68
loop_
_atom_site_label
_atom_site_type_symbol
_atom_site_fract_x
_atom_site_fract_y
_atom_site_fract_z
C1 C -0.1286(2) -0.49226(9) -1.15397(7)
C2 C -0.0865(2) -0.60207(10) -1.17562(7)
H1 H -0.0525(2) -0.62152(10) -1.23211(7)
C3 C -0.09610(15) -0.68272(8) -1.11070(6)
H2 H -0.07057(15) -0.75804(8) -1.12400(6)
C4 C -0.14282(14) -0.65381(8) -1.02654(7)
C5 C -0.1826(2) -0.54071(8) -1.00732(7)
H3 H -0.2140(2) -0.51993(8) -0.95077(7)
C6 C -0.1757(2) -0.46028(9) -1.07158(8)
H4 H -0.2027(2) -0.38489(9) -1.05914(8)
C7 C -0.1561(2) -0.73974(8) -0.95751(6)
H5 H -0.1975(2) -0.71828(8) -0.90255(6)
C8 C -0.12349(15) -0.92211(8) -0.90287(6)
C9 C -0.15193(15) -1.03489(9) -0.92691(7)
C10 C -0.1581(2) -1.11839(9) -0.86164(8)
C11 C -0.1344(2) -1.08610(11) -0.77577(9)
H6 H -0.1390(2) -1.14109(11) -0.73244(9)
C12 C -0.1044(2) -0.97597(12) -0.75282(7)
H7 H -0.0877(2) -0.95668(12) -0.69463(7)
C13 C -0.0988(2) -0.89323(9) -0.81628(7)
H8 H -0.0785(2) -0.81801(9) -0.80085(7)
C14 C -0.1759(2) -1.06631(10) -1.02089(8)
H9 H -0.1939(2) -1.1467(1) -1.02568(8)
H10 H -0.0665(2) -1.04468(10) -1.05288(8)
H11 H -0.2825(2) -1.02767(10) -1.04424(8)
C15 C -0.1870(3) -1.24119(11) -0.88364(10)
H12 H -0.2011(3) -1.24931(11) -0.94548(10)
H13 H -0.2972(3) -1.26843(11) -0.85499(10)
H14 H -0.0812(3) -1.28432(11) -0.8645(1)
N1 N -0.1257(2) -0.40608(10) -1.22374(8)
N2 N -0.11291(13) -0.84123(7) -0.97089(6)
O1 O -0.1416(2) -0.30735(9) -1.20188(9)
O2 O -0.1090(2) -0.43661(10) -1.29822(6)
#END
