
#######################################################################
#
#                 Cambridge Crystallographic Data Centre
#                                CCDC
#
#######################################################################
#
# If this CIF has been generated from an entry in the Cambridge
# Structural Database, then it will include bibliographic, chemical,
# crystal, experimental, refinement or atomic coordinate data resulting
# from the CCDC's data processing and validation procedures.
#
#######################################################################

data_CSD_CIF_QUYQEH
_audit_creation_date 2010-09-06
_audit_creation_method CSD-ConQuest-V1
_database_code_CSD QUYQEH
_database_code_depnum_ccdc_archive 'CCDC 786544'
_chemical_formula_sum 'C17 H15 N3 O3'
_chemical_formula_moiety
;
C17 H15 N3 O3
;
_journal_coeditor_code "IUCr LH5050"
_journal_coden_Cambridge 1370
_journal_volume 66
_journal_year 2010
_journal_page_first o1587
_journal_name_full 'Acta Crystallogr.,Sect.E:Struct.Rep.Online '
loop_
_publ_author_name
"Huan-Mei Guo"
"Ben-Yu Huang"
"Xiang Qin"
"Huan-Ze Zou"
"Fang-Fang Jian"
_chemical_name_systematic
;
1-(3-(2-Nitrophenyl)-5-phenyl-4,5-dihydro-1H-pyrazol-1-yl)ethanone
;
_cell_volume   1495.394
_exptl_crystal_colour 'colorless'
_exptl_crystal_density_diffrn 1.374
_exptl_crystal_description 'bar'
_diffrn_ambient_temperature 293
#These two values have been output from a single CSD field.
_refine_ls_R_factor_gt 0.0296
_refine_ls_wR_factor_gt 0.0296
_symmetry_cell_setting monoclinic
_symmetry_space_group_name_H-M 'C c'
_symmetry_Int_Tables_number 9
loop_
_symmetry_equiv_pos_site_id
_symmetry_equiv_pos_as_xyz
1 x,y,z
2 x,-y,1/2+z
3 1/2+x,1/2+y,z
4 1/2+x,1/2-y,1/2+z
_cell_length_a 6.5064(13)
_cell_length_b 12.385(3)
_cell_length_c 18.752(4)
_cell_angle_alpha 90
_cell_angle_beta 98.26(3)
_cell_angle_gamma 90
_cell_formula_units_Z 4
loop_
_atom_type_symbol
_atom_type_radius_bond
C 0.68
H 0.23
N 0.68
O 0.68
loop_
_atom_site_label
_atom_site_type_symbol
_atom_site_fract_x
_atom_site_fract_y
_atom_site_fract_z
C1 C 0.1900(3) 0.67920(17) 0.28552(12)
N1 N -0.1077(3) 0.79477(16) 0.27976(10)
C2 C 0.2478(3) 0.68202(17) 0.36067(13)
N2 N -0.2744(3) 0.82918(16) 0.23108(10)
O1 O -0.5900(3) 0.90449(18) 0.20896(11)
C3 C 0.0046(3) 0.73132(18) 0.24741(12)
C4 C 0.3234(4) 0.6223(2) 0.24684(14)
H1 H 0.29190 0.61800 0.19700
N3 N 0.1191(3) 0.73560(17) 0.40852(11)
O2 O -0.0409(3) 0.69121(17) 0.41903(11)
C5 C -0.4397(4) 0.8805(2) 0.25303(13)
C6 C -0.4249(4) 0.9042(2) 0.33180(14)
H2 H -0.54930 0.93990 0.34110
H3 H -0.30750 0.95020 0.34640
H4 H -0.40830 0.83790 0.35850
C7 C 0.5016(4) 0.5720(2) 0.28093(17)
H5 H 0.58730 0.53450 0.25390
C8 C -0.2630(4) 0.7933(2) 0.15621(12)
H6 H -0.39020 0.75430 0.13720
C9 C -0.2353(4) 0.8890(2) 0.10825(11)
C10 C -0.4070(4) 0.9335(2) 0.06620(13)
H7 H -0.53630 0.90120 0.06520
O3 O 0.1846(4) 0.8190(2) 0.43697(15)
C11 C 0.4254(4) 0.6332(2) 0.39490(15)
H8 H 0.45950 0.63790 0.44470
C12 C 0.5517(4) 0.5776(2) 0.35494(18)
H9 H 0.67090 0.54370 0.37770
C13 C -0.0785(5) 0.7133(2) 0.16914(13)
H10 H -0.12490 0.63940 0.16050
H11 H 0.02540 0.73000 0.13850
C14 C -0.0422(4) 0.9367(2) 0.10715(13)
H12 H 0.07540 0.90710 0.13420
C15 C -0.0242(5) 1.0285(3) 0.06587(15)
H13 H 0.10520 1.06030 0.06570
C16 C -0.3884(5) 1.0259(3) 0.02551(14)
H14 H -0.50540 1.05600 -0.00150
C17 C -0.1966(5) 1.0726(3) 0.02533(14)
H15 H -0.18360 1.13400 -0.00220
#END
