
#######################################################################
#
#                 Cambridge Crystallographic Data Centre
#                                CCDC
#
#######################################################################
#
# If this CIF has been generated from an entry in the Cambridge
# Structural Database, then it will include bibliographic, chemical,
# crystal, experimental, refinement or atomic coordinate data resulting
# from the CCDC's data processing and validation procedures.
#
#######################################################################

data_CSD_CIF_QUYSUA
_audit_creation_date 2015-11-05
_audit_creation_method CSD-ConQuest-V1
_database_code_CSD QUYSUA
_database_code_depnum_ccdc_archive 'CCDC 1412146'
_chemical_formula_sum 'C26 H19 N1 O3'
_chemical_formula_moiety
;
C26 H19 N1 O3
;
_journal_coden_Cambridge 119
_journal_volume 1106
_journal_year 2016
_journal_page_first 399
_journal_name_full 'J.Mol.Struct. '
loop_
_publ_author_name
"R.Suzuki"
"R.Tada"
"Y.Miura"
"N.Yoshioka"
_chemical_name_systematic
;
7-Methoxy-9,9-diphenylacridin-2(9H)-one 10-oxide
;
_cell_volume    989.250
_exptl_crystal_density_diffrn 1.321
_exptl_crystal_description 'block'
_diffrn_ambient_temperature 296
#These two values have been output from a single CSD field.
_refine_ls_R_factor_gt 0.0795
_refine_ls_wR_factor_gt 0.0795
_symmetry_cell_setting triclinic
_symmetry_space_group_name_H-M 'P -1'
_symmetry_Int_Tables_number 2
loop_
_symmetry_equiv_pos_site_id
_symmetry_equiv_pos_as_xyz
1 x,y,z
2 -x,-y,-z
_cell_length_a 9.3694(8)
_cell_length_b 10.5189(9)
_cell_length_c 10.9779(11)
_cell_angle_alpha 104.237(3)
_cell_angle_beta 99.501(3)
_cell_angle_gamma 103.800(2)
_cell_formula_units_Z 2
loop_
_atom_type_symbol
_atom_type_radius_bond
C 0.68
H 0.23
N 0.68
O 0.68
loop_
_atom_site_label
_atom_site_type_symbol
_atom_site_fract_x
_atom_site_fract_y
_atom_site_fract_z
N1 N 0.2081(3) 1.0034(2) 0.8742(2)
O1 O 0.6782(2) 1.33656(19) 0.7514(2)
O2 O 0.2365(3) 0.5066(2) 0.9040(2)
C1 C 0.2101(3) 0.8775(3) 0.8739(3)
C2 C 0.3039(3) 0.8108(3) 0.8048(3)
C3 C 0.5561(3) 1.2607(3) 0.7805(3)
C4 C 0.3225(3) 1.0892(3) 0.8344(3)
C5 C 0.5319(3) 1.1190(3) 0.7391(3)
H1 H 0.59640 1.08370 0.69390
C6 C 0.4146(3) 1.0311(3) 0.7641(2)
C7 C 0.3713(3) 0.8757(2) 0.7085(2)
C8 C 0.2414(3) 0.8311(3) 0.5842(3)
C9 C 0.1223(3) 0.8086(3) 0.9476(3)
H2 H 0.05800 0.84970 0.98800
O3 O 0.1139(3) 1.0583(2) 0.9179(2)
C10 C 0.5101(3) 0.8302(2) 0.6819(3)
C11 C 0.4606(4) 1.3159(3) 0.8454(3)
H3 H 0.47490 1.41010 0.87010
C12 C 0.1314(3) 0.6883(3) 0.9589(3)
H4 H 0.07520 0.64740 1.00880
C13 C 0.3129(3) 0.6890(3) 0.8189(3)
H5 H 0.37680 0.64770 0.77810
C14 C 0.2274(3) 0.6187(3) 0.8950(3)
C15 C 0.6328(3) 0.8581(3) 0.7834(3)
H6 H 0.62730 0.89910 0.86710
C16 C 0.3440(3) 1.2292(3) 0.8726(3)
H7 H 0.27910 1.26470 0.91710
C17 C 0.2059(3) 0.9215(3) 0.5206(3)
H8 H 0.26010 1.01390 0.55400
C18 C 0.1582(3) 0.6937(3) 0.5295(3)
H9 H 0.17970 0.62940 0.56880
C19 C 0.5211(3) 0.7695(3) 0.5584(3)
H10 H 0.44040 0.74990 0.48810
C20 C 0.6539(4) 0.7375(4) 0.5390(3)
H11 H 0.66100 0.69670 0.45570
C21 C 0.7635(3) 0.8266(4) 0.7634(3)
H12 H 0.84540 0.84660 0.83280
C22 C 0.7716(4) 0.7653(3) 0.6400(4)
H13 H 0.85890 0.74280 0.62600
C23 C 0.0447(4) 0.6509(4) 0.4182(3)
H14 H -0.00980 0.55860 0.38380
C24 C 0.0114(4) 0.7442(4) 0.3574(3)
H15 H -0.06520 0.71570 0.28230
C25 C 0.0931(4) 0.8795(4) 0.4096(3)
H16 H 0.07200 0.94340 0.36960
C26 C 0.7026(5) 1.4808(3) 0.7791(4)
H17 H 0.61510 1.49820 0.73520
H18 H 0.78920 1.51990 0.75000
H19 H 0.71980 1.52150 0.87070
#END
