
#######################################################################
#
#                 Cambridge Crystallographic Data Centre
#                                CCDC
#
#######################################################################
#
# If this CIF has been generated from an entry in the Cambridge
# Structural Database, then it will include bibliographic, chemical,
# crystal, experimental, refinement or atomic coordinate data resulting
# from the CCDC's data processing and validation procedures.
#
#######################################################################

data_CSD_CIF_QUZLII
_audit_creation_date 2015-11-05
_audit_creation_method CSD-ConQuest-V1
_database_code_CSD QUZLII
_database_code_depnum_ccdc_archive 'CCDC 1416484'
_chemical_formula_sum 'C12 H10 N4 O2'
_chemical_formula_moiety
;
C12 H10 N4 O2
;
_journal_coden_Cambridge 9
_journal_volume 54
_journal_year 2015
_journal_page_first 9594
_journal_name_full 'Inorg.Chem. '
loop_
_publ_author_name
"A.J.North"
"D.J.Hayne"
"C.Schieber"
"K.Price"
"A.R.White"
"P.J.Crouch"
"Angela Rigopoulos"
"G.J.OKeefe"
"Henri Tochon-Danguy"
"A.M.Scott"
"J.M.White"
"U.Ackermann"
"P.S.Donnelly"
_chemical_name_systematic
;
2-(2-(4-Nitrobenzylidene)hydrazino)pyridine
;
_cell_volume    549.944
_exptl_crystal_colour 'yellow'
_exptl_crystal_density_diffrn 1.463
_exptl_crystal_description 'needle'
_diffrn_ambient_temperature 130
#These two values have been output from a single CSD field.
_refine_ls_R_factor_gt 0.041
_refine_ls_wR_factor_gt 0.041
_symmetry_cell_setting triclinic
_symmetry_space_group_name_H-M 'P -1'
_symmetry_Int_Tables_number 2
loop_
_symmetry_equiv_pos_site_id
_symmetry_equiv_pos_as_xyz
1 x,y,z
2 -x,-y,-z
_cell_length_a 4.5731(3)
_cell_length_b 10.1399(5)
_cell_length_c 11.9298(6)
_cell_angle_alpha 84.316(4)
_cell_angle_beta 89.360(4)
_cell_angle_gamma 87.516(4)
_cell_formula_units_Z 2
loop_
_atom_type_symbol
_atom_type_radius_bond
C 0.68
H 0.23
N 0.68
O 0.68
loop_
_atom_site_label
_atom_site_type_symbol
_atom_site_fract_x
_atom_site_fract_y
_atom_site_fract_z
C1 C 0.3117(3) 0.33706(17) 0.78186(12)
C2 C 0.4560(3) 0.42929(17) 0.83743(13)
H1 H 0.41780 0.51940 0.81760
C3 C 0.6551(3) 0.38934(17) 0.92160(13)
H2 H 0.75470 0.45140 0.95710
C4 C 0.7029(3) 0.25543(16) 0.95170(12)
C5 C 0.5653(4) 0.16024(17) 0.89776(13)
H3 H 0.60360 0.07040 0.91860
C6 C 0.3702(4) 0.20168(18) 0.81256(14)
H4 H 0.27700 0.13920 0.77530
C7 C 0.0997(3) 0.38554(18) 0.69491(13)
H5 H 0.05090 0.47590 0.68420
C8 C -0.3363(3) 0.28900(18) 0.48065(13)
C9 C -0.2418(5) 0.1595(2) 0.47124(19)
H6 H -0.10420 0.11740 0.52090
C10 C -0.3543(5) 0.0938(3) 0.38724(19)
H7 H -0.29120 0.00680 0.37910
C11 C -0.5600(4) 0.15649(19) 0.31525(15)
H8 H -0.63720 0.11460 0.25700
C12 C -0.6453(4) 0.28287(18) 0.33319(16)
H9 H -0.78840 0.32530 0.28610
N1 N -0.0207(3) 0.30731(15) 0.63312(11)
N2 N -0.2221(3) 0.36403(16) 0.55853(11)
N3 N -0.5396(3) 0.35149(14) 0.41360(12)
N4 N 0.8998(3) 0.21333(14) 1.04559(11)
O1 O 1.0456(3) 0.29754(13) 1.08326(10)
O2 O 0.9101(3) 0.09649(12) 1.08339(10)
H10 H -0.288(4) 0.451(2) 0.5616(16)
#END
