
#######################################################################
#
#                 Cambridge Crystallographic Data Centre
#                                CCDC
#
#######################################################################
#
# If this CIF has been generated from an entry in the Cambridge
# Structural Database, then it will include bibliographic, chemical,
# crystal, experimental, refinement or atomic coordinate data resulting
# from the CCDC's data processing and validation procedures.
#
#######################################################################

data_CSD_CIF_QUZLIH
_audit_creation_date 2010-08-30
_audit_creation_method CSD-ConQuest-V1
_database_code_CSD QUZLIH
_database_code_depnum_ccdc_archive 'CCDC 786630'
_chemical_formula_sum 'C8 H13 N1 O6'
_chemical_formula_moiety
;
C8 H13 N1 O6
;
_journal_coeditor_code "IUCr JH2141"
_journal_coden_Cambridge 1370
_journal_volume 66
_journal_year 2010
_journal_page_first o1704
_journal_name_full 'Acta Crystallogr.,Sect.E:Struct.Rep.Online '
loop_
_publ_author_name
"Jing-Yu Zhang"
"Jing Yang"
_chemical_name_systematic
;
(3R,3aS,6R,6aR)-3-(1-Nitroethyl)perhydrofuro[3,2-b]furan-3,6-diol
;
_cell_volume    472.518
_exptl_crystal_colour 'colorless'
_exptl_crystal_density_diffrn 1.541
_exptl_crystal_description 'needle-like'
_exptl_crystal_preparation 'ethanol'
_diffrn_ambient_temperature 298
#These two values have been output from a single CSD field.
_refine_ls_R_factor_gt 0.0493
_refine_ls_wR_factor_gt 0.0493
_symmetry_cell_setting monoclinic
_symmetry_space_group_name_H-M 'P 21'
_symmetry_Int_Tables_number 4
loop_
_symmetry_equiv_pos_site_id
_symmetry_equiv_pos_as_xyz
1 x,y,z
2 -x,1/2+y,-z
_cell_length_a 6.959(4)
_cell_length_b 5.525(3)
_cell_length_c 12.384(6)
_cell_angle_alpha 90
_cell_angle_beta 97.077(7)
_cell_angle_gamma 90
_cell_formula_units_Z 2
loop_
_atom_type_symbol
_atom_type_radius_bond
C 0.68
H 0.23
N 0.68
O 0.68
loop_
_atom_site_label
_atom_site_type_symbol
_atom_site_fract_x
_atom_site_fract_y
_atom_site_fract_z
N1 N 0.9397(6) 0.4876(9) 0.8645(3)
O1 O 0.3548(4) 0.4642(5) 0.61605(19)
O2 O 0.5198(4) -0.0131(5) 0.7607(2)
O3 O 0.3353(5) -0.0495(6) 0.55654(18)
H1 H 0.38360 -0.17130 0.58650
O4 O 0.7338(4) 0.5239(6) 0.6667(2)
H2 H 0.66960 0.51920 0.60660
O5 O 1.0171(6) 0.6770(9) 0.8438(3)
O6 O 1.0297(6) 0.3057(9) 0.8937(3)
C1 C 0.4230(5) 0.3930(7) 0.7261(3)
H3 H 0.37530 0.50170 0.77950
C2 C 0.3545(6) 0.1339(7) 0.7386(3)
H4 H 0.27520 0.12390 0.79860
C3 C 0.2290(7) 0.0763(8) 0.6291(3)
H5 H 0.11080 -0.01110 0.64070
C4 C 0.1837(6) 0.3261(9) 0.5835(3)
H6 H 0.15580 0.32090 0.50490
H7 H 0.07320 0.39490 0.61330
C5 C 0.6784(6) 0.1117(8) 0.7223(4)
H8 H 0.68220 0.07850 0.64560
H9 H 0.80010 0.06080 0.76250
C6 C 0.6445(5) 0.3804(7) 0.7401(3)
C7 C 0.7219(5) 0.4776(9) 0.8547(3)
H10 H 0.67490 0.64400 0.85960
C8 C 0.6571(6) 0.3377(10) 0.9479(3)
H11 H 0.70020 0.17300 0.94500
H12 H 0.51840 0.34130 0.94290
H13 H 0.71150 0.40940 1.01540
#END
