
#######################################################################
#
#                 Cambridge Crystallographic Data Centre
#                                CCDC
#
#######################################################################
#
# If this CIF has been generated from an entry in the Cambridge
# Structural Database, then it will include bibliographic, chemical,
# crystal, experimental, refinement or atomic coordinate data resulting
# from the CCDC's data processing and validation procedures.
#
#######################################################################

data_CSD_CIF_QUZROT
_audit_creation_date 2010-08-24
_audit_creation_method CSD-ConQuest-V1
_database_code_CSD QUZROT
_database_code_depnum_ccdc_archive 'CCDC 786656'
_chemical_formula_sum 'C17 H19 N3 O4'
_chemical_formula_moiety
;
C17 H19 N3 O4
;
_journal_coeditor_code "IUCr BQ2218"
_journal_coden_Cambridge 1370
_journal_volume 66
_journal_year 2010
_journal_page_first o1735
_journal_name_full 'Acta Crystallogr.,Sect.E:Struct.Rep.Online '
loop_
_publ_author_name
"Y.M.Yapo"
"K.M.Konan"
"A.Adjou"
"A.Timotou"
"J.A.Tenon"
_chemical_name_systematic
;
Ethyl 
5-cyano-8-nitro-2,3,4,4a,5,6-hexahydro-1H-pyrido[1,2-a]quinoline-5-carboxylate

;
_chemical_melting_point 424
_cell_volume    820.572
_exptl_crystal_colour 'yellow'
_exptl_crystal_density_diffrn 1.333
_exptl_special_details
;
possible therapeutic activity

;
_exptl_crystal_description 'prism'
_diffrn_ambient_temperature 223
#These two values have been output from a single CSD field.
_refine_ls_R_factor_gt 0.0553
_refine_ls_wR_factor_gt 0.0553
_symmetry_cell_setting triclinic
_symmetry_space_group_name_H-M 'P -1'
_symmetry_Int_Tables_number 2
loop_
_symmetry_equiv_pos_site_id
_symmetry_equiv_pos_as_xyz
1 x,y,z
2 -x,-y,-z
_cell_length_a 8.8257(4)
_cell_length_b 9.2256(5)
_cell_length_c 10.5011(6)
_cell_angle_alpha 88.246(4)
_cell_angle_beta 75.089(2)
_cell_angle_gamma 83.289(3)
_cell_formula_units_Z 2
loop_
_atom_type_symbol
_atom_type_radius_bond
C 0.68
H 0.23
N 0.68
O 0.68
loop_
_atom_site_label
_atom_site_type_symbol
_atom_site_fract_x
_atom_site_fract_y
_atom_site_fract_z
C1 C 0.70920(19) 0.86006(18) 0.50748(17)
N1 N 0.70324(17) 0.85963(14) 0.63954(14)
O1 O 0.66155(17) 0.46173(14) 0.84947(13)
C2 C 0.7451(2) 0.72488(18) 0.70764(17)
C3 C 0.6873(2) 0.99129(19) 0.43830(18)
C4 C 0.7271(2) 0.72669(18) 0.43802(17)
C5 C 0.7160(2) 0.72795(19) 0.30929(18)
C6 C 0.6920(2) 0.8595(2) 0.24574(17)
O2 O 0.8187(2) 0.35165(15) 0.66714(15)
O3 O 0.6821(2) 0.74186(19) 0.05771(16)
C7 C 0.6790(2) 0.99068(19) 0.30939(18)
C8 C 0.7604(2) 0.58338(19) 0.50323(18)
C9 C 0.6879(2) 0.59435(18) 0.65159(17)
C10 C 0.9210(2) 0.7072(2) 0.70064(19)
N2 N 0.3802(2) 0.63652(18) 0.69548(19)
N3 N 0.6797(2) 0.8591(2) 0.11110(17)
O4 O 0.6673(2) 0.97711(19) 0.05381(15)
C11 C 0.7303(2) 0.98771(19) 0.70769(18)
C12 C 0.5143(2) 0.61781(18) 0.67811(19)
C13 C 0.9039(2) 0.9820(2) 0.70523(19)
C14 C 0.7321(2) 0.45278(19) 0.72194(19)
C15 C 0.9606(2) 0.8393(2) 0.7643(2)
C16 C 0.6946(3) 0.3372(2) 0.9327(2)
C17 C 0.8465(4) 0.3441(3) 0.9667(3)
H1 H 0.68740 0.73640 0.80090
H2 H 0.72700 0.63930 0.26400
H3 H 0.66390 1.07870 0.26400
H4 H 0.87510 0.55680 0.48750
H5 H 0.71930 0.50650 0.46550
H6 H 0.94540 0.61730 0.74600
H7 H 0.98060 0.70000 0.60830
H8 H 0.91910 1.06530 0.75430
H9 H 0.96560 0.98900 0.61380
H10 H 1.07370 0.83120 0.75310
H11 H 0.90820 0.84050 0.85860
H12 H 0.60750 0.34760 1.01240
H13 H 0.69600 0.24670 0.88450
H14 H 0.86190 0.26580 1.02690
H15 H 0.84530 0.43660 1.00860
H16 H 0.93460 0.33280 0.88750
H17 H 0.67830 1.08100 0.48140
H18 H 0.66790 0.98830 0.79850
H19 H 0.69900 1.07600 0.66390
#END
