
#######################################################################
#
#                 Cambridge Crystallographic Data Centre
#                                CCDC
#
#######################################################################
#
# If this CIF has been generated from an entry in the Cambridge
# Structural Database, then it will include bibliographic, chemical,
# crystal, experimental, refinement or atomic coordinate data resulting
# from the CCDC's data processing and validation procedures.
#
#######################################################################

data_CSD_CIF_RACLAL
_audit_creation_date 2015-12-04
_audit_creation_method CSD-ConQuest-V1
_database_code_CSD RACLAL
_database_code_depnum_ccdc_archive 'CCDC 1422538'
_chemical_formula_sum 'C16 H13 N1 O1'
_chemical_formula_moiety
;
C16 H13 N1 O1
;
_journal_coden_Cambridge 177
_journal_volume 14
_journal_year 2016
_journal_page_first 1065
_journal_name_full 'Org.Biomol.Chem. '
loop_
_publ_author_name
"B.S.Pilgrim"
"A.E.Gatland"
"C.H.A.Esteves"
"C.T.McTernan"
"G.R.Jones"
"M.R.Tatton"
"P.A.Procopiou"
"T.J.Donohoe"
_chemical_name_systematic
;
4-methyl-3-phenylisoquinoline 2-oxide
;
_cell_volume   1160.123
_exptl_crystal_colour 'colorless'
_exptl_crystal_density_diffrn 1.347
_exptl_crystal_description 'block'
_diffrn_ambient_temperature 150
#These two values have been output from a single CSD field.
_refine_ls_R_factor_gt 0.0452
_refine_ls_wR_factor_gt 0.0452
_symmetry_cell_setting monoclinic
_symmetry_space_group_name_H-M 'P 21/n'
_symmetry_Int_Tables_number 14
loop_
_symmetry_equiv_pos_site_id
_symmetry_equiv_pos_as_xyz
1 x,y,z
2 1/2-x,1/2+y,1/2-z
3 -x,-y,-z
4 -1/2+x,-1/2-y,-1/2+z
_cell_length_a 6.0190(1)
_cell_length_b 8.0659(2)
_cell_length_c 23.9029(5)
_cell_angle_alpha 90
_cell_angle_beta 91.3683(11)
_cell_angle_gamma 90
_cell_formula_units_Z 4
loop_
_atom_type_symbol
_atom_type_radius_bond
C 0.68
H 0.23
N 0.68
O 0.68
loop_
_atom_site_label
_atom_site_type_symbol
_atom_site_fract_x
_atom_site_fract_y
_atom_site_fract_z
O1 O 0.62777(18) 0.59686(15) 0.62455(5)
N1 N 0.7662(2) 0.65751(16) 0.58910(5)
C1 C 0.9505(2) 0.74904(18) 0.60892(6)
C2 C 0.9725(3) 0.76682(19) 0.67065(6)
C3 C 0.8201(3) 0.8597(2) 0.70072(6)
C4 C 0.8502(3) 0.8806(2) 0.75800(7)
C5 C 1.0283(3) 0.8064(2) 0.78565(7)
C6 C 1.1785(3) 0.7126(2) 0.75633(7)
C7 C 1.1525(3) 0.6941(2) 0.69872(6)
C8 C 1.0993(2) 0.81224(18) 0.57175(6)
C9 C 1.2896(3) 0.9175(2) 0.59248(7)
C10 C 1.0723(2) 0.77952(18) 0.51305(6)
C11 C 0.8839(3) 0.68766(19) 0.49464(6)
C12 C 0.7341(3) 0.6325(2) 0.53448(6)
C13 C 0.8525(3) 0.6491(2) 0.43694(6)
C14 C 1.0057(3) 0.7002(2) 0.39936(6)
C15 C 1.1927(3) 0.7921(2) 0.41728(7)
C16 C 1.2252(3) 0.8315(2) 0.47256(7)
H1 H 0.69140 0.90990 0.68110
H2 H 0.74830 0.94660 0.77770
H3 H 1.04730 0.81880 0.82520
H4 H 1.30240 0.66010 0.77500
H5 H 1.25930 0.63310 0.67800
H6 H 1.30500 1.01520 0.56890
H7 H 1.27390 0.95140 0.63130
H8 H 1.43100 0.85500 0.59090
H9 H 0.60050 0.57520 0.52390
H10 H 0.72390 0.59100 0.42530
H11 H 0.98560 0.67500 0.36050
H12 H 1.29840 0.82990 0.39090
H13 H 1.35590 0.89210 0.48410
#END
