
#######################################################################
#
#                 Cambridge Crystallographic Data Centre
#                                CCDC
#
#######################################################################
#
# If this CIF has been generated from an entry in the Cambridge
# Structural Database, then it will include bibliographic, chemical,
# crystal, experimental, refinement or atomic coordinate data resulting
# from the CCDC's data processing and validation procedures.
#
#######################################################################

data_CSD_CIF_RADDEG
_audit_creation_date 2005-02-17
_audit_creation_method CSD-ConQuest-V1
_database_code_CSD RADDEG
_database_code_depnum_ccdc_archive 'CCDC 221487'
_chemical_formula_sum 'C14 H21 N1 O3'
_chemical_formula_moiety
;
C14 H21 N1 O3
;
_journal_coden_Cambridge 1294
_journal_volume 6
_journal_year 2003
_journal_page_first 99
_journal_name_full 'Crystal Engineering '
loop_
_publ_author_name
"D.E.Lynch"
"I.McClenaghan"
_chemical_name_systematic
;
2,6-Di-t-butyl-4-nitrophenol
;
_cell_volume   1447.790
_exptl_crystal_colour 'colorless'
_exptl_crystal_density_diffrn 1.153
_exptl_special_details
;
Not CCDC 1294/221487 as published

;
_exptl_crystal_description 'prism'
_diffrn_ambient_temperature 150
#These two values have been output from a single CSD field.
_refine_ls_R_factor_gt 0.0394
_refine_ls_wR_factor_gt 0.0394
_symmetry_cell_setting orthorhombic
_symmetry_space_group_name_H-M 'P n a 21'
_symmetry_Int_Tables_number 33
loop_
_symmetry_equiv_pos_site_id
_symmetry_equiv_pos_as_xyz
1 x,y,z
2 -x,-y,1/2+z
3 1/2+x,1/2-y,z
4 1/2-x,1/2+y,1/2+z
_cell_length_a 9.6126(19)
_cell_length_b 13.030(3)
_cell_length_c 11.559(2)
_cell_angle_alpha 90
_cell_angle_beta 90
_cell_angle_gamma 90
_cell_formula_units_Z 4
loop_
_atom_type_symbol
_atom_type_radius_bond
C 0.68
H 0.23
N 0.68
O 0.68
loop_
_atom_site_label
_atom_site_type_symbol
_atom_site_fract_x
_atom_site_fract_y
_atom_site_fract_z
C1 C 0.2652(3) 0.9716(2) 0.2933(3)
O1 O 0.2622(3) 0.88179(19) 0.2345(3)
H1 H 0.325(5) 0.879(4) 0.178(6)
C2 C 0.3699(3) 1.0451(2) 0.2740(3)
C3 C 0.4919(4) 1.0272(3) 0.1894(4)
C4 C 0.4404(4) 1.0228(3) 0.0631(4)
H2 H 0.37750 0.96420 0.05360
H3 H 0.52020 1.01510 0.01110
H4 H 0.39070 1.08640 0.04450
C5 C 0.5711(4) 0.9291(3) 0.2208(5)
H5 H 0.60680 0.93470 0.29990
H6 H 0.64890 0.91970 0.16700
H7 H 0.50820 0.87010 0.21540
C6 C 0.5974(5) 1.1151(4) 0.1953(5)
H8 H 0.67270 1.10240 0.14000
H9 H 0.63600 1.11920 0.27370
H10 H 0.55110 1.17990 0.17610
C7 C 0.3577(3) 1.1357(2) 0.3354(4)
H11 H 0.42400 1.18880 0.32420
C8 C 0.2502(3) 1.1497(3) 0.4128(3)
N1 N 0.2406(3) 1.2470(2) 0.4741(3)
O2 O 0.3250(3) 1.3130(2) 0.4541(4)
O3 O 0.1452(3) 1.2588(2) 0.5445(3)
C9 C 0.1521(3) 1.0763(2) 0.4350(4)
H12 H 0.08110 1.08880 0.49040
C10 C 0.1569(3) 0.9843(2) 0.3767(3)
C11 C 0.0468(4) 0.9017(3) 0.3972(4)
C12 C -0.0388(4) 0.8858(3) 0.2852(5)
H13 H 0.02270 0.86160 0.22330
H14 H -0.08150 0.95100 0.26230
H15 H -0.11170 0.83480 0.29920
C13 C 0.1148(4) 0.8000(3) 0.4340(5)
H16 H 0.17660 0.81220 0.50000
H17 H 0.16870 0.77200 0.36930
H18 H 0.04230 0.75090 0.45630
C14 C -0.0533(5) 0.9316(3) 0.4959(6)
H19 H -0.10430 0.99390 0.47430
H20 H 0.00010 0.94440 0.56660
H21 H -0.11940 0.87560 0.50930
#END
