
#######################################################################
#
#                 Cambridge Crystallographic Data Centre
#                                CCDC
#
#######################################################################
#
# If this CIF has been generated from an entry in the Cambridge
# Structural Database, then it will include bibliographic, chemical,
# crystal, experimental, refinement or atomic coordinate data resulting
# from the CCDC's data processing and validation procedures.
#
#######################################################################

data_CSD_CIF_RAFKIU
_audit_creation_date 2012-03-13
_audit_creation_method CSD-ConQuest-V1
_database_code_CSD RAFKIU
_database_code_depnum_ccdc_archive 'CCDC 782384'
_chemical_formula_sum 'C27 H21 N3 O4'
_chemical_formula_moiety
;
C27 H21 N3 O4
;
_journal_coden_Cambridge 493
_journal_volume 46
_journal_year 2011
_journal_page_first 4530
_journal_name_full 'Eur.J.Med.Chem. '
loop_
_publ_author_name
"P.Gunasekaran"
"S.Perumal"
"P.Yogeeswari"
"D.Sriram"
_chemical_name_systematic
;
4-((2-Hydroxy-1-naphthyl)(4-nitrophenyl)methyl)-5-methyl-2-phenyl-1,2-dihydro-
3H-pyrazol-3-one
;
_cell_volume   2172.754
_exptl_crystal_colour 'colorless'
_exptl_crystal_density_diffrn 1.38
_exptl_crystal_description 'prism'
_diffrn_ambient_temperature 298
#These two values have been output from a single CSD field.
_refine_ls_R_factor_gt 0.0447
_refine_ls_wR_factor_gt 0.0447
_symmetry_cell_setting monoclinic
_symmetry_space_group_name_H-M 'P 21/c'
_symmetry_Int_Tables_number 14
loop_
_symmetry_equiv_pos_site_id
_symmetry_equiv_pos_as_xyz
1 x,y,z
2 -x,1/2+y,1/2-z
3 -x,-y,-z
4 x,-1/2-y,-1/2+z
_cell_length_a 16.1975(6)
_cell_length_b 7.9612(3)
_cell_length_c 17.6661(5)
_cell_angle_alpha 90
_cell_angle_beta 107.49(1)
_cell_angle_gamma 90
_cell_formula_units_Z 4
loop_
_atom_type_symbol
_atom_type_radius_bond
C 0.68
H 0.23
N 0.68
O 0.68
loop_
_atom_site_label
_atom_site_type_symbol
_atom_site_fract_x
_atom_site_fract_y
_atom_site_fract_z
C1 C 0.45867(9) 0.50058(18) 0.60976(9)
C2 C 0.48314(11) 0.5632(2) 0.68588(10)
H1 H 0.44980 0.64470 0.70060
C3 C 0.55764(12) 0.5036(2) 0.74015(10)
H2 H 0.57460 0.54560 0.79170
C4 C 0.60678(12) 0.3833(2) 0.71877(11)
H3 H 0.65740 0.34510 0.75540
C5 C 0.58138(11) 0.3194(2) 0.64345(11)
H4 H 0.61430 0.23620 0.62940
C6 C 0.50719(10) 0.3774(2) 0.58802(10)
H5 H 0.49010 0.33410 0.53680
C7 C 0.25927(9) 0.54788(18) 0.45624(9)
C8 C 0.27174(9) 0.71440(18) 0.47757(8)
C9 C 0.35229(10) 0.72423(19) 0.53860(9)
C10 C 0.19017(11) 0.4637(2) 0.39279(12)
H6 H 0.19500 0.49550 0.34190
H7 H 0.13460 0.49710 0.39650
H8 H 0.19630 0.34410 0.39900
C11 C 0.21296(9) 0.85746(18) 0.43850(8)
H9 H 0.16170 0.80220 0.40330
C12 C 0.24903(9) 0.96130(18) 0.38280(9)
C13 C 0.21462(10) 0.94151(19) 0.29851(9)
C14 C 0.13961(11) 0.8465(2) 0.2609(1)
H10 H 0.11120 0.79040 0.29200
C15 C 0.10805(14) 0.8352(3) 0.18048(11)
H11 H 0.05780 0.77390 0.15780
C16 C 0.14970(16) 0.9139(3) 0.13130(12)
H12 H 0.12840 0.90260 0.07650
C17 C 0.22102(14) 1.0062(3) 0.16443(11)
H13 H 0.24880 1.05810 0.13170
C18 C 0.25500(11) 1.0266(2) 0.24778(10)
C19 C 0.32615(13) 1.1300(2) 0.28185(12)
H14 H 0.35370 1.18320 0.24920
C20 C 0.35594(12) 1.1544(2) 0.36116(12)
H15 H 0.40230 1.22650 0.38220
C21 C 0.31686(10) 1.07076(19) 0.4123(1)
C22 C 0.17761(9) 0.96684(18) 0.49313(9)
C23 C 0.11125(11) 1.0772(2) 0.45775(11)
H16 H 0.09420 1.09050 0.40290
C24 C 0.06979(11) 1.1679(2) 0.50225(12)
H17 H 0.02490 1.24110 0.47780
C25 C 0.09599(11) 1.1480(2) 0.58310(11)
C26 C 0.16299(13) 1.0452(2) 0.61998(11)
H18 H 0.18130 1.03590 0.67500
C27 C 0.20349(12) 0.9548(2) 0.5746(1)
H19 H 0.24930 0.88410 0.59970
N1 N 0.38196(8) 0.56242(15) 0.55371(7)
N2 N 0.32525(8) 0.45708(17) 0.50202(8)
N3 N 0.04784(11) 1.2336(2) 0.63044(12)
O1 O 0.39465(8) 0.84880(14) 0.57459(7)
O2 O 0.34901(7) 1.10941(14) 0.49111(7)
O3 O 0.06999(12) 1.2102(2) 0.70213(11)
O4 O -0.01281(9) 1.3223(2) 0.59546(11)
H20 H 0.3335(11) 0.343(3) 0.5059(10)
H21 H 0.3632(13) 1.014(3) 0.5257(13)
#END
