
#######################################################################
#
#                 Cambridge Crystallographic Data Centre
#                                CCDC
#
#######################################################################
#
# If this CIF has been generated from an entry in the Cambridge
# Structural Database, then it will include bibliographic, chemical,
# crystal, experimental, refinement or atomic coordinate data resulting
# from the CCDC's data processing and validation procedures.
#
#######################################################################

data_CSD_CIF_RAFSUN
_audit_creation_date 2005-02-17
_audit_creation_method CSD-ConQuest-V1
_database_code_CSD RAFSUN
_database_code_depnum_ccdc_archive 'CCDC 241648'
_chemical_formula_sum 'C16 H12 N2 O3'
_chemical_formula_moiety
;
C16 H12 N2 O3
;
_journal_coden_Cambridge 1336
_journal_volume 6
_journal_year 2004
_journal_page_first 3477
_journal_name_full 'Org.Lett. '
loop_
_publ_author_name
"A.Teichert"
"K.Jantos"
"K.Harms"
"A.Studer"
_chemical_name_systematic
;
trans-1-Methyl-3-(4-nitrobenzylidene)-1,3-dihydroindol-2-one
;
_cell_volume   1284.247
_exptl_crystal_colour 'orange'
_exptl_crystal_density_diffrn 1.45
_exptl_crystal_description 'plate'
_diffrn_ambient_temperature 193
#These two values have been output from a single CSD field.
_refine_ls_R_factor_gt 0.0342
_refine_ls_wR_factor_gt 0.0342
_symmetry_cell_setting monoclinic
_symmetry_space_group_name_H-M 'P 21/c'
_symmetry_Int_Tables_number 14
loop_
_symmetry_equiv_pos_site_id
_symmetry_equiv_pos_as_xyz
1 x,y,z
2 x,1/2-y,1/2+z
3 -x,-y,-z
4 -x,-1/2+y,-1/2-z
_cell_length_a 7.5880(8)
_cell_length_b 21.2436(17)
_cell_length_c 7.9723(9)
_cell_angle_alpha 90
_cell_angle_beta 92.095(9)
_cell_angle_gamma 90
_cell_formula_units_Z 4
loop_
_atom_type_symbol
_atom_type_radius_bond
C 0.68
H 0.23
N 0.68
O 0.68
loop_
_atom_site_label
_atom_site_type_symbol
_atom_site_fract_x
_atom_site_fract_y
_atom_site_fract_z
C1 C 0.24874(17) 0.30110(6) 0.93692(18)
C2 C 0.40681(16) 0.21345(6) 0.99060(17)
C3 C 0.4555(2) 0.15144(7) 1.0014(2)
C4 C 0.6158(2) 0.13865(7) 1.0718(2)
C5 C 0.72059(19) 0.18658(7) 1.1315(2)
C6 C 0.66977(18) 0.24897(7) 1.11980(18)
C7 C 0.51226(16) 0.26332(6) 1.04497(17)
C8 C 0.41812(16) 0.32170(6) 1.01196(17)
C9 C 0.44584(18) 0.38321(7) 1.03832(19)
C10 C 0.59933(16) 0.41574(6) 1.10025(18)
C11 C 0.58666(18) 0.46979(7) 1.2040(2)
C12 C 0.72830(18) 0.50129(7) 1.2664(2)
C13 C 0.88375(16) 0.47876(6) 1.22114(17)
C14 C 0.90121(17) 0.42741(6) 1.11239(19)
C15 C 0.75830(18) 0.39621(6) 1.05160(19)
C16 C 0.1080(2) 0.19855(9) 0.8748(3)
N1 N 0.25167(13) 0.23707(5) 0.92655(15)
N2 N 1.03480(15) 0.51069(6) 1.29108(16)
O1 O 0.12936(13) 0.33451(5) 0.89360(15)
O2 O 1.01831(14) 0.55878(5) 1.37801(16)
O3 O 1.17166(13) 0.48721(6) 1.26152(17)
H1 H 0.384(2) 0.1200(9) 0.959(2)
H2 H 0.652(2) 0.0948(8) 1.081(2)
H3 H 0.831(2) 0.1770(7) 1.188(2)
H4 H 0.741(2) 0.2825(7) 1.162(2)
H5 H 0.351(2) 0.4103(7) 1.011(2)
H6 H 0.475(2) 0.4853(8) 1.233(2)
H7 H 0.722(2) 0.5371(8) 1.338(2)
H8 H 1.012(2) 0.4139(8) 1.080(2)
H9 H 0.7697(19) 0.3603(7) 0.9720(19)
H10 H 0.020(3) 0.2266(10) 0.849(3)
H11 H 0.081(3) 0.1704(10) 0.971(3)
H12 H 0.131(3) 0.1720(11) 0.772(3)
#END
