
#######################################################################
#
#                 Cambridge Crystallographic Data Centre
#                                CCDC
#
#######################################################################
#
# If this CIF has been generated from an entry in the Cambridge
# Structural Database, then it will include bibliographic, chemical,
# crystal, experimental, refinement or atomic coordinate data resulting
# from the CCDC's data processing and validation procedures.
#
#######################################################################

data_CSD_CIF_RAHBUA
_audit_creation_date 2017-01-14
_audit_creation_method CSD-ConQuest-V1
_database_code_CSD RAHBUA
_database_code_depnum_ccdc_archive 'CCDC 1524161'
_chemical_formula_sum 'C14 H10 N4 O3'
_chemical_formula_moiety
;
C14 H10 N4 O3
;
_journal_coeditor_code "rz5203"
_journal_coden_Cambridge 1828
_journal_volume 73
_journal_year 2017
_journal_page_first 168
_journal_name_full 'Acta Crystallogr.,Sect.E:Cryst.Commun. '
loop_
_publ_author_name
"J.M.Velasques"
"V.C.Gervini"
"A.J.Bortoluzzi"
"R.L.de Farias"
"A.B.de Oliveira"
_chemical_name_systematic
;
(3E)-5-nitro-3-(2-phenylhydrazinylidene)-1H-indol-2(3H)-one
;
_cell_volume    617.689
_exptl_crystal_colour 'yellow'
_exptl_crystal_density_diffrn 1.518
_exptl_crystal_description 'prism'
_exptl_crystal_preparation 'N,N-dimethylformamide / methanol'
_diffrn_ambient_temperature 200
#These two values have been output from a single CSD field.
_refine_ls_R_factor_gt 0.039
_refine_ls_wR_factor_gt 0.039
_symmetry_cell_setting triclinic
_symmetry_space_group_name_H-M 'P -1'
_symmetry_Int_Tables_number 2
loop_
_symmetry_equiv_pos_site_id
_symmetry_equiv_pos_as_xyz
1 x,y,z
2 -x,-y,-z
_cell_length_a 5.7504(4)
_cell_length_b 9.7190(6)
_cell_length_c 12.1976(7)
_cell_angle_alpha 111.196(2)
_cell_angle_beta 96.759(2)
_cell_angle_gamma 98.497(2)
_cell_formula_units_Z 2
loop_
_atom_type_symbol
_atom_type_radius_bond
C 0.68
H 0.23
N 0.68
O 0.68
loop_
_atom_site_label
_atom_site_type_symbol
_atom_site_fract_x
_atom_site_fract_y
_atom_site_fract_z
C1 C 0.74444(16) 0.10997(10) 0.47144(8)
C2 C 0.58388(16) 0.1903(1) 0.42434(8)
C3 C 0.63293(16) 0.17378(10) 0.30690(8)
C4 C 0.53990(17) 0.22036(10) 0.21904(8)
H1 H 0.41300 0.27370 0.22830
C5 C 0.64117(17) 0.18525(11) 0.11683(8)
C6 C 0.8299(2) 0.10968(12) 0.10014(9)
H2 H 0.89680 0.09210 0.02990
C7 C 0.92000(19) 0.06009(12) 0.18685(9)
H3 H 1.04620 0.00620 0.17670
C8 C 0.81885(16) 0.09218(10) 0.28844(8)
C9 C 0.26077(16) 0.34671(10) 0.65458(8)
C10 C 0.25473(19) 0.34151(12) 0.76695(9)
H4 H 0.36030 0.29200 0.79760
C11 C 0.0939(2) 0.40895(13) 0.83359(9)
H5 H 0.08830 0.40470 0.90990
C12 C -0.0597(2) 0.48282(13) 0.78973(10)
H6 H -0.17110 0.52800 0.83540
C13 C -0.04899(19) 0.49000(11) 0.67893(9)
H7 H -0.15210 0.54180 0.64940
C14 C 0.11070(18) 0.42243(11) 0.61027(9)
H8 H 0.11730 0.42780 0.53440
N1 N 0.87794(14) 0.05403(9) 0.38620(7)
H9 H 0.98670 0.00100 0.39230
N2 N 0.54638(17) 0.23011(10) 0.02105(8)
N3 N 0.43091(14) 0.26487(9) 0.47905(7)
N4 N 0.41836(15) 0.27045(9) 0.58791(7)
H10 H 0.51150 0.22500 0.61950
O1 O 0.75650(12) 0.09474(8) 0.56864(6)
O2 O 0.36881(18) 0.28657(11) 0.03076(8)
O3 O 0.64526(18) 0.20633(12) -0.06636(8)
#END
