
#######################################################################
#
#                 Cambridge Crystallographic Data Centre
#                                CCDC
#
#######################################################################
#
# If this CIF has been generated from an entry in the Cambridge
# Structural Database, then it will include bibliographic, chemical,
# crystal, experimental, refinement or atomic coordinate data resulting
# from the CCDC's data processing and validation procedures.
#
#######################################################################

data_CSD_CIF_RAHFUE
_audit_creation_date 2017-01-14
_audit_creation_method CSD-ConQuest-V1
_database_code_CSD RAHFUE
_database_code_depnum_ccdc_archive 'CCDC 1525355'
_chemical_formula_sum 'C18 H18 N2 O5'
_chemical_formula_moiety
;
C18 H18 N2 O5
;
_journal_coeditor_code "su4102"
_journal_coden_Cambridge 1959
_journal_volume 2
_journal_year 2017
_journal_page_first x170004
_journal_name_full 'IUCrData '
loop_
_publ_author_name
"T.S.Ranjani"
"N.Poomathi"
"G.Vimala"
"P.T.Perumal"
"K.S.Murugesan"
_chemical_name_systematic
;
1-cyclohexyl-5-(2-hydroxybenzene-1-carbonyl)-3-nitropyridin-2(1H)-one
;
_cell_volume   1603.058
_exptl_crystal_colour 'yellow'
_exptl_crystal_density_diffrn 1.418
_exptl_crystal_description 'plate'
_diffrn_ambient_temperature 293
_refine_special_details
;
N1,O1,O2 and N1',O1',O2' disordered over two sites with occupancies 
;
#These two values have been output from a single CSD field.
_refine_ls_R_factor_gt 0.0355
_refine_ls_wR_factor_gt 0.0355
_symmetry_cell_setting monoclinic
_symmetry_space_group_name_H-M 'P 21/c'
_symmetry_Int_Tables_number 14
loop_
_symmetry_equiv_pos_site_id
_symmetry_equiv_pos_as_xyz
1 x,y,z
2 -x,1/2+y,1/2-z
3 -x,-y,-z
4 x,-1/2-y,-1/2+z
_cell_length_a 10.1622(6)
_cell_length_b 19.1448(8)
_cell_length_c 8.4373(5)
_cell_angle_alpha 90
_cell_angle_beta 102.425(3)
_cell_angle_gamma 90
_cell_formula_units_Z 4
loop_
_atom_type_symbol
_atom_type_radius_bond
C 0.68
H 0.23
N 0.68
O 0.68
loop_
_atom_site_label
_atom_site_type_symbol
_atom_site_fract_x
_atom_site_fract_y
_atom_site_fract_z
C1 C 0.72235(17) 0.00339(8) 0.72648(18)
C2 C 0.65445(17) -0.04697(8) 0.63265(19)
H1 H 0.60560 -0.08000 0.67680
C3 C 0.65766(16) -0.04945(8) 0.46653(18)
C4 C 0.72131(16) 0.00358(7) 0.40569(18)
H2 H 0.72160 0.00350 0.29550
C5 C 0.79293(17) 0.05961(8) 0.66724(18)
C6 C 0.58259(16) -0.10552(8) 0.36459(19)
C7 C 0.63282(16) -0.13627(7) 0.22978(18)
C8 C 0.76772(17) -0.13196(8) 0.2183(2)
H3 H 0.82800 -0.10760 0.29750
C9 C 0.8138(2) -0.16251(9) 0.0941(2)
H4 H 0.90430 -0.15950 0.08970
C10 C 0.7237(2) -0.19801(9) -0.0249(2)
H5 H 0.75350 -0.21800 -0.11130
C11 C 0.5909(2) -0.20406(10) -0.0171(2)
H6 H 0.53140 -0.22800 -0.09810
C12 C 0.54465(18) -0.17466(8) 0.1108(2)
C13 C 0.84628(16) 0.11433(7) 0.42306(18)
H7 H 0.88310 0.14750 0.50980
C14 C 0.96297(17) 0.08852(8) 0.3544(2)
H8 H 0.93070 0.05530 0.26790
H9 H 1.02780 0.06490 0.43860
C15 C 1.03031(19) 0.14974(10) 0.2888(2)
H10 H 1.07150 0.18000 0.37790
H11 H 1.10100 0.13240 0.23810
C16 C 0.92978(19) 0.19132(9) 0.1659(2)
H12 H 0.97440 0.23190 0.13280
H13 H 0.89750 0.16280 0.07050
C17 C 0.81130(18) 0.21494(8) 0.2339(2)
H14 H 0.74650 0.23850 0.14960
H15 H 0.84200 0.24810 0.32100
C18 C 0.74314(17) 0.15355(8) 0.2984(2)
H16 H 0.67130 0.17040 0.34770
H17 H 0.70410 0.12260 0.20980
O1 O 0.47702(12) -0.12623(6) 0.39842(15)
O2 O 0.41388(13) -0.18460(7) 0.11370(18)
O3 O 0.85183(15) 0.10691(6) 0.74796(14)
N1 N 0.78391(13) 0.05618(6) 0.49840(14)
N2 N 0.714(2) 0.0019(12) 0.8973(13)
O4 O 0.811(3) 0.0188(13) 0.9989(19)
O5 O 0.610(2) -0.0133(15) 0.932(2)
H18 H 0.402(2) -0.1694(13) 0.215(3)
N3? N 0.733(2) 0.0058(13) 0.9032(12)
O6? O 0.847(2) 0.0006(14) 0.986(2)
O7? O 0.630(3) 0.0080(17) 0.949(2)
#END
