
#######################################################################
#
#                 Cambridge Crystallographic Data Centre
#                                CCDC
#
#######################################################################
#
# If this CIF has been generated from an entry in the Cambridge
# Structural Database, then it will include bibliographic, chemical,
# crystal, experimental, refinement or atomic coordinate data resulting
# from the CCDC's data processing and validation procedures.
#
#######################################################################

data_CSD_CIF_RAHXEG
_audit_creation_date 2017-01-16
_audit_creation_method CSD-ConQuest-V1
_database_code_CSD RAHXEG
_database_code_depnum_ccdc_archive 'CCDC 634033'
_chemical_formula_sum 'C10 H15 N1 O4'
_chemical_formula_moiety
;
C10 H15 N1 O4
;
_journal_coden_Cambridge 1078
_journal_year 2016
_journal_name_full 'CSD Communication(Private Communication) '
loop_
_publ_author_name
"Z.Lipkowska"
_chemical_name_systematic
;
3-(hydroxymethyl)octahydro-1H-furo[3',4':4,5][1,2]oxazolo[2,3-a]pyridin-1-one
;
_cell_volume   1040.886
_exptl_crystal_density_diffrn 1.361
_exptl_crystal_description 'plate'
_diffrn_ambient_temperature 293
#These two values have been output from a single CSD field.
_refine_ls_R_factor_gt 0.0361
_refine_ls_wR_factor_gt 0.0361
_symmetry_cell_setting orthorhombic
_symmetry_space_group_name_H-M 'P 21 21 21'
_symmetry_Int_Tables_number 19
loop_
_symmetry_equiv_pos_site_id
_symmetry_equiv_pos_as_xyz
1 x,y,z
2 1/2-x,-y,1/2+z
3 1/2+x,1/2-y,-z
4 -x,1/2+y,1/2-z
_cell_length_a 6.8921(7)
_cell_length_b 7.2549(5)
_cell_length_c 20.8171(13)
_cell_angle_alpha 90
_cell_angle_beta 90
_cell_angle_gamma 90
_cell_formula_units_Z 4
loop_
_atom_type_symbol
_atom_type_radius_bond
C 0.68
H 0.23
N 0.68
O 0.68
loop_
_atom_site_label
_atom_site_type_symbol
_atom_site_fract_x
_atom_site_fract_y
_atom_site_fract_z
H1 H 0.955(5) 0.386(5) 0.9158(17)
C1 C 0.3658(3) 0.3560(3) 0.88493(10)
H2 H 0.28650 0.24560 0.89170
C2 C 0.3214(3) 0.4486(3) 0.82051(10)
H3 H 0.23450 0.37450 0.79360
C3 C 0.2300(3) 0.6334(3) 0.84055(10)
H4 H 0.33300 0.72580 0.84460
C4 C 0.5828(3) 0.3100(3) 0.88179(10)
H5 H 0.59740 0.17870 0.87190
O1 O 0.6598(2) 0.4166(2) 0.82855(7)
C5 C 0.5175(4) 0.4778(3) 0.78974(10)
C6 C 0.0643(4) 0.7155(3) 0.80239(10)
H6 H -0.04020 0.62660 0.79830
H7 H 0.10810 0.74870 0.75970
C7 C -0.0074(4) 0.8876(3) 0.83827(12)
H8 H 0.09120 0.98270 0.83590
H9 H -0.12330 0.93400 0.81740
C8 C -0.0525(4) 0.8470(4) 0.90843(11)
H10 H -0.08120 0.96160 0.93040
H11 H -0.16680 0.76930 0.91090
C9 C 0.1159(4) 0.7511(3) 0.94209(11)
H12 H 0.22820 0.83150 0.94360
H13 H 0.08010 0.71850 0.98570
C10 C 0.6965(3) 0.3529(3) 0.94174(11)
H14 H 0.68780 0.48390 0.95070
H15 H 0.63990 0.28730 0.97780
N1 N 0.1589(3) 0.5863(2) 0.90494(8)
O2 O 0.3282(2) 0.4944(2) 0.93264(7)
O3 O 0.5529(3) 0.5523(3) 0.73953(8)
O4 O 0.8940(3) 0.3025(3) 0.9356(1)
#END
