
#######################################################################
#
#                 Cambridge Crystallographic Data Centre
#                                CCDC
#
#######################################################################
#
# If this CIF has been generated from an entry in the Cambridge
# Structural Database, then it will include bibliographic, chemical,
# crystal, experimental, refinement or atomic coordinate data resulting
# from the CCDC's data processing and validation procedures.
#
#######################################################################

data_CSD_CIF_RAHYIJ
_audit_creation_date 2005-02-17
_audit_creation_method CSD-ConQuest-V1
_database_code_CSD RAHYIJ
_database_code_depnum_ccdc_archive 'CCDC 255128'
_chemical_formula_sum 'C18 H27 N3 O10'
_chemical_formula_moiety
;
C18 H27 N3 O10
;
_journal_coden_Cambridge 35
_journal_volume 69
_journal_year 2004
_journal_page_first 6996
_journal_name_full 'J.Org.Chem. '
loop_
_publ_author_name
"Jinhua Chen"
"T.Sambaiah"
"B.Illarionov"
"M.Fischer"
"A.Bacher"
"M.Cushman"
_chemical_name_systematic
;
(1R,2S)-1-(2,6-Dimethoxy-5-nitropyrimidin-4-yl)-2-(2,2,2',2'-tetramethyl(4,4')
bi-(1,3-dioxolanyl)-5-yl)ethane-1,2-diol
;
_cell_volume   2113.362
_exptl_crystal_density_diffrn 1.4
_diffrn_ambient_temperature 293
#These two values have been output from a single CSD field.
_refine_ls_R_factor_gt 0.0391
_refine_ls_wR_factor_gt 0.0391
_symmetry_cell_setting orthorhombic
_symmetry_space_group_name_H-M 'P 21 21 2'
_symmetry_Int_Tables_number 18
loop_
_symmetry_equiv_pos_site_id
_symmetry_equiv_pos_as_xyz
1 x,y,z
2 -x,-y,z
3 1/2-x,1/2+y,-z
4 1/2+x,1/2-y,-z
_cell_length_a 20.4218(2)
_cell_length_b 12.1169(3)
_cell_length_c 8.5406(6)
_cell_angle_alpha 90
_cell_angle_beta 90
_cell_angle_gamma 90
_cell_formula_units_Z 4
loop_
_atom_type_symbol
_atom_type_radius_bond
C 0.68
H 0.23
N 0.68
O 0.68
loop_
_atom_site_label
_atom_site_type_symbol
_atom_site_fract_x
_atom_site_fract_y
_atom_site_fract_z
O1 O 0.49751(5) 0.75727(10) 0.12943(12)
O2 O 0.38916(6) 0.74672(12) 0.06955(13)
O3 O 0.36639(5) 0.78000(11) 0.49147(13)
O4 O 0.26367(5) 0.77462(10) 0.38877(13)
O5 O 0.64299(7) 0.90389(11) 0.84504(15)
O6 O 0.65531(7) 0.52701(10) 0.86095(12)
O7 O 0.58214(6) 0.56193(9) 0.35095(13)
H1 H 0.57350 0.52110 0.42470
O8 O 0.47017(6) 0.63461(11) 0.51320(13)
H2 H 0.43570 0.66250 0.54250
O9 O 0.56915(8) 0.97350(11) 0.59996(16)
O10 O 0.61776(7) 0.90346(11) 0.39839(15)
N1 N 0.64830(6) 0.71556(12) 0.86073(15)
N2 N 0.61807(6) 0.60313(12) 0.64013(15)
N3 N 0.59867(7) 0.89946(12) 0.53504(16)
C1 C 0.61209(8) 0.79823(14) 0.62388(19)
C2 C 0.63419(8) 0.80482(15) 0.77820(19)
C3 C 0.64008(8) 0.61955(14) 0.78607(18)
C4 C 0.60380(7) 0.69420(14) 0.55811(17)
C5 C 0.57355(8) 0.67269(13) 0.39704(19)
H3 H 0.59570 0.72000 0.32050
C6 C 0.50078(7) 0.70509(14) 0.40184(17)
H4 H 0.49610 0.78240 0.43370
C7 C 0.46843(7) 0.68660(13) 0.24432(17)
H5 H 0.47450 0.60950 0.21280
C8 C 0.45354(8) 0.75670(18) 0.0001(2)
C9 C 0.39563(8) 0.71676(14) 0.23132(17)
H6 H 0.36880 0.65140 0.25300
C10 C 0.37149(8) 0.81309(14) 0.3294(2)
H7 H 0.40080 0.87670 0.31840
C11 C 0.29786(8) 0.77021(16) 0.53274(19)
C12 C 0.30131(9) 0.84509(17) 0.2889(2)
H8 H 0.29310 0.92230 0.31180
H9 H 0.29180 0.83110 0.17950
C13 C 0.65970(13) 0.90365(19) 1.0103(2)
H10 H 0.70040 0.86540 1.02520
H11 H 0.62580 0.86710 1.06840
H12 H 0.66400 0.97830 1.04660
C14 C 0.67351(11) 0.53495(18) 1.0236(2)
H13 H 0.63780 0.56580 1.08230
H14 H 0.71130 0.58160 1.03370
H15 H 0.68350 0.46270 1.06310
C15 C 0.46503(10) 0.6587(2) -0.1049(2)
H16 H 0.46570 0.59250 -0.04320
H17 H 0.50620 0.66710 -0.15780
H18 H 0.43050 0.65410 -0.18080
C16 C 0.45855(11) 0.8655(2) -0.0828(3)
H19 H 0.50130 0.87250 -0.12870
H20 H 0.45170 0.92430 -0.00930
H21 H 0.42590 0.86920 -0.16360
C17 C 0.27892(10) 0.8652(2) 0.6372(3)
H22 H 0.23290 0.86160 0.65910
H23 H 0.28880 0.93350 0.58560
H24 H 0.30310 0.86080 0.73350
C18 C 0.28674(10) 0.6590(2) 0.6059(3)
H25 H 0.30100 0.60230 0.53510
H26 H 0.24100 0.64960 0.62760
H27 H 0.31110 0.65390 0.70170
#END
