
#######################################################################
#
#                 Cambridge Crystallographic Data Centre
#                                CCDC
#
#######################################################################
#
# If this CIF has been generated from an entry in the Cambridge
# Structural Database, then it will include bibliographic, chemical,
# crystal, experimental, refinement or atomic coordinate data resulting
# from the CCDC's data processing and validation procedures.
#
#######################################################################

data_CSD_CIF_RAHZUY
_audit_creation_date 2017-01-16
_audit_creation_method CSD-ConQuest-V1
_database_code_CSD RAHZUY
_database_code_depnum_ccdc_archive 'CCDC 841516'
_chemical_formula_sum 'C26 H20 N6 O4'
_chemical_formula_moiety
;
C26 H20 N6 O4
;
_journal_coden_Cambridge 1817
_journal_volume 2
_journal_year 2012
_journal_page_first 32
_journal_name_full 'Org.Med.Chem.Lett. '
loop_
_publ_author_name
"T.Ruhl"
"W.Deuther-Conrad"
"S.Fischer"
"R.Gunther"
"L.Hennig"
"H.Krautscheid"
"P.Brust"
_chemical_name_systematic
;
3-(3-(2-cyano-4-nitrophenyl)-1,2,4-oxadiazol-5-yl)-N-(9-ethyl-9H-carbazol-3-yl
)propanamide
;
_cell_volume   1121.758
_exptl_crystal_colour 'orange'
_exptl_crystal_density_diffrn 1.423
_exptl_crystal_description 'rod'
_diffrn_ambient_temperature 180
#These two values have been output from a single CSD field.
_refine_ls_R_factor_gt 0.0433
_refine_ls_wR_factor_gt 0.0433
_symmetry_cell_setting triclinic
_symmetry_space_group_name_H-M 'P -1'
_symmetry_Int_Tables_number 2
loop_
_symmetry_equiv_pos_site_id
_symmetry_equiv_pos_as_xyz
1 x,y,z
2 -x,-y,-z
_cell_length_a 7.6636(10)
_cell_length_b 12.3628(15)
_cell_length_c 12.7812(16)
_cell_angle_alpha 109.044(10)
_cell_angle_beta 100.337(10)
_cell_angle_gamma 91.31(1)
_cell_formula_units_Z 2
loop_
_atom_type_symbol
_atom_type_radius_bond
C 0.68
H 0.23
N 0.68
O 0.68
loop_
_atom_site_label
_atom_site_type_symbol
_atom_site_fract_x
_atom_site_fract_y
_atom_site_fract_z
O1 O 0.2530(2) 0.59844(13) 0.16331(12)
O2 O 0.3366(2) 0.38514(13) 0.44463(12)
O3 O -0.0578(3) 1.27665(14) 0.36618(15)
O4 O 0.0576(3) 1.27711(14) 0.22371(14)
N1 N 0.2180(3) 0.69864(16) 0.13499(15)
N2 N 0.2194(3) 0.73241(15) 0.32024(14)
N3 N 0.2284(3) 0.49755(17) 0.59493(15)
H1 H 0.183(3) 0.568(2) 0.6225(19)
N4 N 0.0210(3) 1.23140(17) 0.28968(17)
N5 N 0.2395(3) 0.84611(18) -0.03539(19)
N6 N 0.2682(3) 0.23455(16) 0.87766(15)
C1 C 0.1998(3) 0.77281(19) 0.23026(17)
C2 C 0.2511(3) 0.62716(19) 0.27453(18)
C3 C 0.2824(3) 0.53506(19) 0.32486(18)
H2 H 0.40710 0.51550 0.32590
H3 H 0.20340 0.46540 0.27730
C4 C 0.2477(3) 0.57087(18) 0.44401(18)
H4 H 0.12400 0.59240 0.44350
H5 H 0.32920 0.63910 0.49230
C5 C 0.2754(3) 0.47420(19) 0.49318(18)
C6 C 0.1576(3) 0.89156(18) 0.24335(17)
C7 C 0.1085(3) 0.95749(19) 0.34339(18)
H6 H 0.10530 0.92500 0.40100
C8 C 0.0644(3) 1.06891(19) 0.36074(18)
H7 H 0.02940 1.11270 0.42870
C9 C 0.0726(3) 1.11487(18) 0.27632(19)
C10 C 0.1216(3) 1.05404(19) 0.17682(18)
H8 H 0.12700 1.08840 0.12090
C11 C 0.1632(3) 0.94101(19) 0.15908(18)
C12 C 0.2095(3) 0.88015(19) 0.0493(2)
C13 C 0.2390(3) 0.42890(19) 0.66607(18)
C14 C 0.2014(3) 0.4813(2) 0.77365(18)
H9 H 0.17020 0.55830 0.79420
C15 C 0.2084(3) 0.4241(2) 0.85072(19)
H10 H 0.18290 0.46050 0.92350
C16 C 0.2539(3) 0.31197(19) 0.81831(17)
C17 C 0.2925(3) 0.25780(19) 0.71113(18)
C18 C 0.2848(3) 0.31671(19) 0.63353(18)
H11 H 0.31040 0.28060 0.56070
C19 C 0.3351(3) 0.14255(18) 0.70517(18)
C20 C 0.3800(3) 0.04880(19) 0.62255(19)
H12 H 0.39090 0.05440 0.55160
C21 C 0.4089(3) -0.0531(2) 0.6439(2)
H13 H 0.43840 -0.11760 0.58720
C22 C 0.3944(3) -0.0605(2) 0.7491(2)
H14 H 0.41460 -0.13080 0.76270
C23 C 0.3514(3) 0.0312(2) 0.8336(2)
H15 H 0.34380 0.02520 0.90490
C24 C 0.3196(3) 0.1332(2) 0.81113(18)
C25 C 0.2443(4) 0.2606(2) 0.99387(18)
H16 H 0.20940 0.18830 1.00530
H17 H 0.14610 0.31100 1.00640
C26 C 0.4097(4) 0.3187(3) 1.0795(2)
H18 H 0.38650 0.33400 1.15580
H19 H 0.44340 0.39130 1.06990
H20 H 0.50690 0.26850 1.06870
#END
