
#######################################################################
#
#                 Cambridge Crystallographic Data Centre
#                                CCDC
#
#######################################################################
#
# If this CIF has been generated from an entry in the Cambridge
# Structural Database, then it will include bibliographic, chemical,
# crystal, experimental, refinement or atomic coordinate data resulting
# from the CCDC's data processing and validation procedures.
#
#######################################################################

data_CSD_CIF_RAJDUB
_audit_creation_date 2001-11-02
_audit_creation_method CSD-ConQuest-V1
_database_code_CSD RAJDUB
_database_code_depnum_ccdc_archive 'CCDC 161067'
_chemical_formula_sum 'C20 H23 N1 O6'
_chemical_formula_moiety
;
C20 H23 N1 O6
;
_journal_coden_Cambridge 207
_journal_year 2001
_journal_page_first 1458
_journal_name_full 'J.Chem.Soc.,Perkin Trans.1 '
loop_
_publ_author_name
"P.S.Aburel"
"C.Romming"
"Kuangbiao Ma"
"K.Undheim"
_chemical_name_systematic
;
cis-1,1-ethylenedioxyspiro(4.6)undec-9-en-6-yl p-nitrobenzoate
;
_chemical_melting_point 438.65
_cell_volume   1791.301
_exptl_crystal_density_diffrn 1.385
_exptl_special_details
;
Melting point range 438.65-439.15K

;
_diffrn_ambient_temperature 150
#These two values have been output from a single CSD field.
_refine_ls_R_factor_gt 0.0437
_refine_ls_wR_factor_gt 0.0437
_symmetry_cell_setting monoclinic
_symmetry_space_group_name_H-M 'P 21/c'
_symmetry_Int_Tables_number 14
loop_
_symmetry_equiv_pos_site_id
_symmetry_equiv_pos_as_xyz
1 x,y,z
2 x,1/2-y,1/2+z
3 -x,-y,-z
4 -x,-1/2+y,-1/2-z
_cell_length_a 19.2045(19)
_cell_length_b 6.5910(7)
_cell_length_c 15.0144(15)
_cell_angle_alpha 90
_cell_angle_beta 109.515(4)
_cell_angle_gamma 90
_cell_formula_units_Z 4
loop_
_atom_type_symbol
_atom_type_radius_bond
C 0.68
H 0.23
N 0.68
O 0.68
loop_
_atom_site_label
_atom_site_type_symbol
_atom_site_fract_x
_atom_site_fract_y
_atom_site_fract_z
O1 O 0.20619(6) -0.18394(16) 0.41499(8)
O2 O 0.21634(6) -0.46816(17) 0.50413(7)
O3 O 0.27503(5) -0.52366(15) 0.33842(7)
O4 O 0.35331(6) -0.77370(17) 0.41328(9)
O5 O 0.63193(6) -0.2050(2) 0.34008(9)
O6 O 0.57422(6) 0.06894(18) 0.35424(9)
N1 N 0.57893(7) -0.1160(2) 0.35028(9)
C1 C 0.26830(11) -0.1579(3) 0.49978(12)
H1 H 0.2680(12) -0.021(4) 0.5206(16)
H2 H 0.3151(12) -0.188(3) 0.4846(15)
C2 C 0.25678(10) -0.3124(3) 0.56703(12)
H3 H 0.3032(11) -0.372(3) 0.6110(14)
H4 H 0.2268(10) -0.258(3) 0.6031(13)
C3 C 0.16820(8) -0.3644(2) 0.42414(11)
C4 C 0.09368(10) -0.3154(3) 0.43733(15)
H5 H 0.0775(12) -0.186(3) 0.4100(15)
H6 H 0.0993(14) -0.302(4) 0.503(2)
C5 C 0.04072(9) -0.4852(3) 0.38873(13)
H7 H 0.0186(11) -0.552(3) 0.4285(15)
H8 H -0.0023(12) -0.429(3) 0.3361(16)
C6 C 0.08449(8) -0.6320(2) 0.34868(12)
H9 H 0.1071(10) -0.746(3) 0.3964(14)
H10 H 0.0525(11) -0.694(3) 0.2878(14)
C7 C 0.14858(8) -0.5056(2) 0.33623(10)
C8 C 0.12263(9) -0.3676(2) 0.24767(10)
H11 H 0.0931(9) -0.257(3) 0.2621(12)
H12 H 0.1663(9) -0.305(3) 0.2399(12)
C9 C 0.07866(10) -0.4699(2) 0.15671(11)
H13 H 0.0283(11) -0.426(3) 0.1256(13)
C10 C 0.10431(10) -0.6166(3) 0.11627(12)
H14 H 0.0705(11) -0.672(3) 0.0564(14)
C11 C 0.17973(10) -0.7077(3) 0.15718(13)
H15 H 0.1871(11) -0.813(3) 0.1152(15)
H16 H 0.2184(12) -0.602(3) 0.1608(15)
C12 C 0.19556(9) -0.7998(2) 0.25562(12)
H17 H 0.2375(11) -0.888(3) 0.2689(13)
H18 H 0.1537(10) -0.886(3) 0.2580(12)
C13 C 0.21165(8) -0.6495(2) 0.33745(11)
H19 H 0.2271(9) -0.721(3) 0.3972(13)
C14 C 0.34177(8) -0.6074(2) 0.37704(11)
C15 C 0.40207(8) -0.4721(2) 0.36944(10)
C16 C 0.47192(8) -0.5576(2) 0.38804(11)
H20 H 0.4799(10) -0.698(3) 0.4067(13)
C17 C 0.52983(8) -0.4426(2) 0.38044(11)
H21 H 0.5759(11) -0.505(3) 0.3920(13)
C18 C 0.51698(8) -0.2398(2) 0.35715(10)
C19 C 0.44863(8) -0.1489(2) 0.33984(11)
H22 H 0.4415(10) -0.010(3) 0.3221(12)
C20 C 0.39049(8) -0.2675(2) 0.34502(11)
H23 H 0.344(1) -0.211(3) 0.3355(13)
#END
