
#######################################################################
#
#                 Cambridge Crystallographic Data Centre
#                                CCDC
#
#######################################################################
#
# If this CIF has been generated from an entry in the Cambridge
# Structural Database, then it will include bibliographic, chemical,
# crystal, experimental, refinement or atomic coordinate data resulting
# from the CCDC's data processing and validation procedures.
#
#######################################################################

data_CSD_CIF_RAJHOZ
_audit_creation_date 2001-11-02
_audit_creation_method CSD-ConQuest-V1
_database_code_CSD RAJHOZ
_database_code_depnum_ccdc_archive 'CCDC 166105'
_database_code_depnum_ccdc_journal 1145/268 (not 1145/258 as published)
_chemical_formula_sum 'C14 H15 N3 O2'
_chemical_formula_moiety
;
C14 H15 N3 O2
;
_journal_coden_Cambridge 1145
_journal_volume 11
_journal_year 2001
_journal_page_first 1047
_journal_name_full 'J.Mater.Chem. '
loop_
_publ_author_name
"P.J.Langley"
"R.T.Bailey"
"F.R.Cruickshank"
"A.R.Kennedy"
"S.Lochran"
"D.Pugh"
"J.N.Sherwood"
"A.Viikki"
"J.D.Wallis"
_chemical_name_systematic
;
rac-5-Nitro-N-(1-phenylethyl)-3-methylpyridine-2-amine
;
_cell_volume   1307.469
_exptl_crystal_colour 'yellow'
_exptl_crystal_density_diffrn 1.307
_exptl_crystal_description 'block'
_diffrn_ambient_temperature ?
_diffrn_special_details
;
The study was carried out at room temperature,in the range 283-303K

;
#These two values have been output from a single CSD field.
_refine_ls_R_factor_gt 0.0398
_refine_ls_wR_factor_gt 0.0398
loop_
_citation_database_id_CSD
_citation_special_details
RAJHAL "is a stereoisomer of this entry"
_symmetry_cell_setting monoclinic
_symmetry_space_group_name_H-M 'P 21/c'
_symmetry_Int_Tables_number 14
loop_
_symmetry_equiv_pos_site_id
_symmetry_equiv_pos_as_xyz
1 x,y,z
2 -x,1/2+y,1/2-z
3 -x,-y,-z
4 x,-1/2-y,-1/2+z
_cell_length_a 6.9781(11)
_cell_length_b 22.337(4)
_cell_length_c 8.3899(12)
_cell_angle_alpha 90
_cell_angle_beta 91.149(12)
_cell_angle_gamma 90
_cell_formula_units_Z 4
loop_
_atom_type_symbol
_atom_type_radius_bond
C 0.68
H 0.23
N 0.68
O 0.68
loop_
_atom_site_label
_atom_site_type_symbol
_atom_site_fract_x
_atom_site_fract_y
_atom_site_fract_z
O1 O 0.2150(2) 0.38747(6) 0.54607(19)
O2 O 0.0235(2) 0.31657(7) 0.6121(2)
N1 N 0.1702(2) 0.33441(7) 0.54918(18)
N2 N 0.37133(18) 0.18882(6) 0.43412(16)
N3 N 0.63826(19) 0.16384(5) 0.29209(16)
C1 C 0.2584(2) 0.23095(8) 0.4938(2)
C2 C 0.2950(2) 0.29121(7) 0.47721(18)
C3 C 0.4562(2) 0.30993(7) 0.39579(18)
C4 C 0.5762(2) 0.26840(6) 0.33283(17)
C5 C 0.5266(2) 0.20678(6) 0.35409(17)
C6 C 0.7547(3) 0.28558(8) 0.2480(2)
C7 C 0.6195(2) 0.09959(6) 0.32545(18)
C8 C 0.6818(3) 0.06459(9) 0.1793(2)
C9 C 0.7341(2) 0.08249(6) 0.47394(17)
C10 C 0.9297(2) 0.09372(8) 0.4866(2)
C11 C 1.0314(3) 0.07824(10) 0.6234(3)
C12 C 0.9406(3) 0.05099(9) 0.7480(3)
C13 C 0.7486(3) 0.03865(9) 0.7364(2)
C14 C 0.6452(3) 0.05507(7) 0.60078(19)
H1 H 0.145(3) 0.2173(8) 0.550(2)
H2 H 0.486(2) 0.3515(9) 0.383(2)
H3 H 0.776(3) 0.3285(12) 0.246(3)
H4 H 0.754(3) 0.2701(9) 0.136(3)
H5 H 0.870(3) 0.2689(9) 0.301(2)
H6 H 0.743(3) 0.1744(8) 0.247(2)
H7 H 0.484(2) 0.0916(7) 0.3412(19)
H8 H 0.599(3) 0.0752(10) 0.088(3)
H9 H 0.813(3) 0.0754(8) 0.153(2)
H10 H 0.672(3) 0.0197(10) 0.197(2)
H11 H 0.993(3) 0.1118(8) 0.403(2)
H12 H 1.162(3) 0.0884(10) 0.626(3)
H13 H 1.010(3) 0.0400(11) 0.846(3)
H14 H 0.680(3) 0.0197(9) 0.822(2)
H15 H 0.509(3) 0.0473(8) 0.595(2)
#END
