
#######################################################################
#
#                 Cambridge Crystallographic Data Centre
#                                CCDC
#
#######################################################################
#
# If this CIF has been generated from an entry in the Cambridge
# Structural Database, then it will include bibliographic, chemical,
# crystal, experimental, refinement or atomic coordinate data resulting
# from the CCDC's data processing and validation procedures.
#
#######################################################################

data_CSD_CIF_RAJQAV
_audit_creation_date 2005-02-17
_audit_creation_method CSD-ConQuest-V1
_database_code_CSD RAJQAV
_database_code_depnum_ccdc_archive 'CCDC 255475'
_chemical_formula_sum 'C17 H12 N2 O3'
_chemical_formula_moiety
;
C17 H12 N2 O3
;
_journal_coeditor_code "IUCr YA6223"
_journal_coden_Cambridge 1370
_journal_volume 60
_journal_year 2004
_journal_page_first o1917
_journal_name_full 'Acta Crystallogr.,Sect.E:Struct.Rep.Online '
loop_
_publ_author_name
"Hai-Bo Wang"
"Jia-Hui Chen"
"Jin-Tang Wang"
_chemical_name_systematic
;
2-(3-Phenyl-1,2,4-oxadiazol-5-yl)-4H-1-benzopyran-3-ol
;
_chemical_melting_point 458
_cell_volume   1348.429
_exptl_crystal_colour 'yellow'
_exptl_crystal_density_diffrn 1.44
_exptl_special_details
;
Melting point range 458-459K
potential biological activity

;
_exptl_crystal_description 'block'
_exptl_crystal_preparation 'ethanol'
_diffrn_ambient_temperature 293
#These two values have been output from a single CSD field.
_refine_ls_R_factor_gt 0.043
_refine_ls_wR_factor_gt 0.043
_symmetry_cell_setting monoclinic
_symmetry_space_group_name_H-M 'P 21/n'
_symmetry_Int_Tables_number 14
loop_
_symmetry_equiv_pos_site_id
_symmetry_equiv_pos_as_xyz
1 x,y,z
2 1/2+x,1/2-y,1/2+z
3 -x,-y,-z
4 -1/2-x,-1/2+y,-1/2-z
_cell_length_a 5.675(1)
_cell_length_b 9.346(2)
_cell_length_c 25.440(5)
_cell_angle_alpha 90
_cell_angle_beta 92.06(3)
_cell_angle_gamma 90
_cell_formula_units_Z 4
loop_
_atom_type_symbol
_atom_type_radius_bond
C 0.68
H 0.23
N 0.68
O 0.68
loop_
_atom_site_label
_atom_site_type_symbol
_atom_site_fract_x
_atom_site_fract_y
_atom_site_fract_z
O1 O 0.7300(3) 0.27393(19) 0.08773(6)
O2 O 0.1093(3) 0.5083(2) 0.05468(7)
O3 O 0.5595(3) 0.4486(2) 0.15899(6)
N1 N 0.7795(4) 0.1886(2) 0.04327(8)
N2 N 0.4497(3) 0.3179(2) 0.02721(8)
C1 C 0.7391(5) -0.0119(3) -0.10622(10)
H1 H 0.85220 -0.07800 -0.11590
C2 C 0.5544(5) 0.0215(3) -0.14068(10)
H2 H 0.54410 -0.02060 -0.17380
C3 C 0.3852(5) 0.1176(3) -0.12583(10)
H3 H 0.25900 0.13880 -0.14890
C4 C 0.4008(4) 0.1828(3) -0.07703(10)
H4 H 0.28620 0.24790 -0.06730
C5 C 0.5883(4) 0.1507(3) -0.04268(9)
C6 C 0.7566(5) 0.0520(3) -0.0578(1)
H5 H 0.88220 0.02920 -0.03480
C7 C 0.6095(4) 0.2186(2) 0.00953(9)
C8 C 0.5329(4) 0.3457(2) 0.07447(9)
C9 C 0.4317(4) 0.4415(2) 0.11166(9)
C10 C 0.4881(4) 0.5466(2) 0.19563(9)
C11 C 0.6350(4) 0.5607(3) 0.23999(10)
H6 H 0.77080 0.50540 0.24370
C12 C 0.5790(5) 0.6570(3) 0.27854(10)
H7 H 0.67810 0.66810 0.30820
C13 C 0.3738(5) 0.7375(3) 0.27297(11)
H8 H 0.33420 0.80190 0.29910
C14 C 0.2297(5) 0.7216(3) 0.22887(10)
H9 H 0.09300 0.77620 0.22560
C15 C 0.2824(4) 0.6262(2) 0.18894(9)
C16 C 0.1277(4) 0.6129(3) 0.13968(10)
H10 H -0.02610 0.57740 0.14880
H11 H 0.10620 0.70670 0.12390
C17 C 0.2314(4) 0.5147(2) 0.10089(9)
H12 H 0.171(6) 0.449(4) 0.0328(13)
#END
