
#######################################################################
#
#                 Cambridge Crystallographic Data Centre
#                                CCDC
#
#######################################################################
#
# If this CIF has been generated from an entry in the Cambridge
# Structural Database, then it will include bibliographic, chemical,
# crystal, experimental, refinement or atomic coordinate data resulting
# from the CCDC's data processing and validation procedures.
#
#######################################################################

data_CSD_CIF_RAKJUK
_audit_creation_date 2012-02-14
_audit_creation_method CSD-ConQuest-V1
_database_code_CSD RAKJUK
_database_code_depnum_ccdc_archive 'CCDC 802932'
_chemical_formula_sum 'C26 H26 N2 O7'
_chemical_formula_moiety
;
C26 H26 N2 O7
;
_journal_coden_Cambridge 1220
_journal_volume 17
_journal_year 2011
_journal_page_first 13670
_journal_name_full 'Chem.-Eur.J. '
loop_
_publ_author_name
"F.Tripoteau"
"T.Verdelet"
"A.Hercouet"
"F.Carreaux"
"B.Carboni"
_chemical_name_systematic
;
8-Ethoxy-6-(hydroxy(4-nitrophenyl)methyl)-2-phenyl-4,6,8,9,9a,9b-hexahydropyra
no[4,3-e]isoindole-1,3(2H,3aH)-dione
;
_cell_volume   2270.762
_exptl_crystal_colour 'colorless'
_exptl_crystal_density_diffrn 1.4
_exptl_crystal_description 'prism'
_diffrn_ambient_temperature 150
#These two values have been output from a single CSD field.
_refine_ls_R_factor_gt 0.0427
_refine_ls_wR_factor_gt 0.0427
_symmetry_cell_setting monoclinic
_symmetry_space_group_name_H-M 'P 21/n'
_symmetry_Int_Tables_number 14
loop_
_symmetry_equiv_pos_site_id
_symmetry_equiv_pos_as_xyz
1 x,y,z
2 1/2-x,1/2+y,1/2-z
3 -x,-y,-z
4 -1/2+x,-1/2-y,-1/2+z
_cell_length_a 7.8323(2)
_cell_length_b 23.8260(6)
_cell_length_c 12.5960(4)
_cell_angle_alpha 90
_cell_angle_beta 104.973(1)
_cell_angle_gamma 90
_cell_formula_units_Z 4
loop_
_atom_type_symbol
_atom_type_radius_bond
C 0.68
H 0.23
N 0.68
O 0.68
loop_
_atom_site_label
_atom_site_type_symbol
_atom_site_fract_x
_atom_site_fract_y
_atom_site_fract_z
C1 C 0.16632(18) 0.19188(7) 0.67015(11)
H1 H 0.25410 0.16170 0.70040
O1 O 0.18335(13) 0.21016(4) 0.56781(8)
C2 C 0.1760(2) 0.16433(8) 0.49235(14)
H2 H 0.06150 0.14450 0.48080
H3 H 0.27190 0.13730 0.52310
C3 C 0.1960(2) 0.18667(8) 0.38525(13)
H4 H 0.09910 0.21270 0.35430
H5 H 0.19300 0.15550 0.33410
H6 H 0.30910 0.20650 0.39730
O2 O -0.00982(12) 0.17157(4) 0.65354(7)
C4 C -0.03066(18) 0.14090(6) 0.74634(11)
H7 H 0.04480 0.10650 0.75500
C5 C -0.22613(19) 0.12295(6) 0.71627(12)
H8 H -0.24880 0.09980 0.77740
O3 O -0.33744(14) 0.17063(5) 0.70040(8)
H9 H -0.37640 0.17540 0.75590
C6 C -0.26584(19) 0.08804(6) 0.61182(11)
C7 C -0.1927(2) 0.03507(7) 0.61313(14)
H10 H -0.11850 0.02090 0.67970
C8 C -0.2258(2) 0.00232(7) 0.51914(14)
H11 H -0.17360 -0.03370 0.52010
C9 C -0.3363(2) 0.02338(7) 0.42430(13)
C10 C -0.4106(2) 0.07582(7) 0.41969(13)
H12 H -0.48630 0.08950 0.35320
C11 C -0.3726(2) 0.10833(7) 0.51423(12)
H13 H -0.42060 0.14510 0.51190
N1 N -0.3792(2) -0.01186(6) 0.32518(12)
O4 O -0.2845(2) -0.05230(6) 0.32122(11)
C12 C 0.19051(19) 0.24105(6) 0.74736(11)
H14 H 0.11790 0.27280 0.70980
H15 H 0.31590 0.25290 0.76580
O5 O -0.50753(19) 0.00074(6) 0.25127(10)
C13 C 0.13775(18) 0.22758(6) 0.85526(11)
H16 H 0.06320 0.25980 0.86750
C14 C 0.02451(18) 0.17539(6) 0.85136(11)
C15 C -0.01855(19) 0.16124(7) 0.94359(11)
H17 H -0.09100 0.12940 0.94450
C16 C 0.04751(19) 0.19568(7) 1.04611(12)
H18 H 0.02970 0.17470 1.11030
H19 H -0.02060 0.23110 1.03960
C17 C 0.24490(19) 0.20905(6) 1.06367(11)
H20 H 0.27810 0.24020 1.11830
C18 C 0.35574(19) 0.15798(7) 1.10693(12)
O6 O 0.35307(16) 0.13012(5) 1.18630(9)
N2 N 0.46818(15) 0.14723(5) 1.03897(9)
C19 C 0.60210(19) 0.10435(6) 1.06002(12)
C20 C 0.7326(2) 0.10475(7) 1.15812(13)
H21 H 0.73220 0.13250 1.21220
C21 C 0.8636(2) 0.06422(8) 1.17651(14)
H22 H 0.95420 0.06430 1.24330
C22 C 0.8632(2) 0.02353(7) 1.09793(14)
H23 H 0.95290 -0.00440 1.11110
C23 C 0.7323(2) 0.02350(7) 1.00035(14)
H24 H 0.73270 -0.00430 0.94640
C24 C 0.6007(2) 0.06379(6) 0.98092(13)
H25 H 0.51030 0.06370 0.91410
C25 C 0.43754(18) 0.18312(6) 0.94957(11)
O7 O 0.51556(14) 0.17989(5) 0.87825(9)
C26 C 0.29749(18) 0.22540(6) 0.95817(11)
H26 H 0.35330 0.26340 0.96920
#END
