
#######################################################################
#
#                 Cambridge Crystallographic Data Centre
#                                CCDC
#
#######################################################################
#
# If this CIF has been generated from an entry in the Cambridge
# Structural Database, then it will include bibliographic, chemical,
# crystal, experimental, refinement or atomic coordinate data resulting
# from the CCDC's data processing and validation procedures.
#
#######################################################################

data_CSD_CIF_RAKMUM
_audit_creation_date 2005-08-18
_audit_creation_method CSD-ConQuest-V1
_database_code_CSD RAKMUM
_database_code_depnum_ccdc_archive 'CCDC 251893'
_chemical_formula_sum 'C13 H15 N3 O2'
_chemical_formula_moiety
;
C13 H15 N3 O2
;
_journal_coden_Cambridge 16
_journal_volume 61
_journal_year 2005
_journal_page_first 4221
_journal_name_full 'Tetrahedron '
loop_
_publ_author_name
"V.A.Ozeryanskii"
"A.F.Pozharskii"
"M.G.Koroleva"
"D.A.Shevchuk"
"O.N.Kazheva"
"A.N.Chekhlov"
"G.V.Shilov"
"O.A.Dyachenko"
_chemical_name_systematic
;
8-Dimethylamino-1-methylamino-4-nitronaphthalene
;
_cell_volume   1192.591
_exptl_crystal_colour 'red-orange'
_exptl_crystal_density_diffrn 1.366
_diffrn_ambient_temperature 293
#These two values have been output from a single CSD field.
_refine_ls_R_factor_gt 0.0342
_refine_ls_wR_factor_gt 0.0342
_symmetry_cell_setting monoclinic
_symmetry_space_group_name_H-M 'P 21/n'
_symmetry_Int_Tables_number 14
loop_
_symmetry_equiv_pos_site_id
_symmetry_equiv_pos_as_xyz
1 x,y,z
2 1/2-x,1/2+y,1/2-z
3 -x,-y,-z
4 -1/2+x,-1/2-y,-1/2+z
_cell_length_a 10.486(2)
_cell_length_b 7.224(1)
_cell_length_c 16.326(3)
_cell_angle_alpha 90
_cell_angle_beta 105.35(2)
_cell_angle_gamma 90
_cell_formula_units_Z 4
loop_
_atom_type_symbol
_atom_type_radius_bond
C 0.68
H 0.23
N 0.68
O 0.68
loop_
_atom_site_label
_atom_site_type_symbol
_atom_site_fract_x
_atom_site_fract_y
_atom_site_fract_z
O1 O 0.64440(13) 0.31686(19) 0.36607(7)
O2 O 0.79822(12) 0.3095(2) 0.48206(8)
N1 N 0.43185(10) 0.13008(14) 0.74559(6)
N2 N 0.26614(10) 0.17528(16) 0.59327(7)
N3 N 0.68063(13) 0.29561(16) 0.44384(8)
C1 C 0.53467(11) 0.13086(16) 0.70193(7)
C2 C 0.66171(13) 0.0833(2) 0.74476(9)
C3 C 0.76357(14) 0.0953(2) 0.70525(9)
C4 C 0.74128(13) 0.15854(18) 0.62456(8)
C5 C 0.61240(11) 0.20546(15) 0.57595(7)
C6 C 0.50471(11) 0.18598(14) 0.61440(7)
C7 C 0.36981(11) 0.20998(15) 0.56204(7)
C8 C 0.34978(13) 0.26507(17) 0.47771(8)
C9 C 0.45324(14) 0.28967(17) 0.44260(8)
C10 C 0.58202(13) 0.26229(15) 0.48865(8)
C11 C 0.13039(13) 0.1843(2) 0.5437(1)
C12 C 0.41674(16) 0.3120(2) 0.78089(10)
C13 C 0.44405(18) -0.0138(2) 0.81014(10)
H1 H 0.6794(17) 0.044(2) 0.8037(11)
H2 H 0.8470(19) 0.062(2) 0.7341(11)
H3 H 0.8127(17) 0.171(2) 0.6007(10)
H4 H 0.2604(18) 0.284(2) 0.4429(11)
H5 H 0.4344(17) 0.328(2) 0.3848(11)
H6 H 0.4022(16) 0.405(2) 0.7352(10)
H7 H 0.5008(18) 0.344(2) 0.8260(11)
H8 H 0.3456(18) 0.308(2) 0.8053(11)
H9 H 0.3659(18) -0.012(2) 0.8314(10)
H10 H 0.5230(18) 0.006(2) 0.8590(11)
H11 H 0.4536(17) -0.131(3) 0.7842(11)
H12 H 0.2851(17) 0.137(2) 0.6473(12)
H13 H 0.1072(18) 0.308(3) 0.5239(11)
H14 H 0.1138(17) 0.098(2) 0.4950(11)
H15 H 0.0748(18) 0.151(2) 0.5809(11)
#END
