
#######################################################################
#
#                 Cambridge Crystallographic Data Centre
#                                CCDC
#
#######################################################################
#
# If this CIF has been generated from an entry in the Cambridge
# Structural Database, then it will include bibliographic, chemical,
# crystal, experimental, refinement or atomic coordinate data resulting
# from the CCDC's data processing and validation procedures.
#
#######################################################################

data_CSD_CIF_RAKWIJ04
_audit_creation_date 2001-11-02
_audit_creation_method CSD-ConQuest-V1
_database_code_CSD RAKWIJ04
_database_code_depnum_ccdc_archive 'CCDC 170331'
_chemical_formula_sum 'C25 H14 N2 O4'
_chemical_formula_moiety
;
C25 H14 N2 O4
;
_journal_coeditor_code "IUCr BS0015"
_journal_coden_Cambridge 622
_journal_volume 57
_journal_year 2001
_journal_page_first 507
_journal_name_full 'Acta Crystallogr.,Sect.B:Struct.Sci. '
loop_
_publ_author_name
"Aibing Xia"
"J.P.Selegue"
"A.Carrillo"
"B.O.Patrick"
"S.Parkin"
"C.P.Brock"
_chemical_name_systematic
;
7b-(2,4-Dinitrophenyl)fluoradene
;
_chemical_melting_point 513
_cell_volume   1925.645
_exptl_crystal_colour 'dark orange'
_exptl_crystal_density_diffrn 1.402
_exptl_special_details
;
polymorph 2

;
_exptl_crystal_description 'prism'
_exptl_crystal_preparation 'hexane'
_diffrn_ambient_temperature 295.0
_refine_special_details
;
pseudocell refinement

;
#These two values have been output from a single CSD field.
_refine_ls_R_factor_gt 0.086
_refine_ls_wR_factor_gt 0.086
_symmetry_cell_setting monoclinic
_symmetry_space_group_name_H-M 'P 21/c'
_symmetry_Int_Tables_number 14
loop_
_symmetry_equiv_pos_site_id
_symmetry_equiv_pos_as_xyz
1 x,y,z
2 x,1/2-y,1/2+z
3 -x,-y,-z
4 -x,-1/2+y,-1/2-z
_cell_length_a 7.722(2)
_cell_length_b 15.513(4)
_cell_length_c 17.111(4)
_cell_angle_alpha 90
_cell_angle_beta 110.04(1)
_cell_angle_gamma 90
_cell_formula_units_Z 4
loop_
_atom_type_symbol
_atom_type_radius_bond
C 0.68
H 0.23
N 0.68
O 0.68
loop_
_atom_site_label
_atom_site_type_symbol
_atom_site_fract_x
_atom_site_fract_y
_atom_site_fract_z
O1 O 0.9125(4) 0.1266(2) 0.2835(2)
O2 O 0.8712(4) 0.2183(2) 0.18636(18)
O3 O 0.1989(3) -0.03842(17) 0.00601(16)
O4 O 0.4846(3) -0.07668(16) 0.05577(16)
N1 N 0.8154(4) 0.1657(2) 0.2238(2)
N2 N 0.3576(4) -0.02853(18) 0.05295(17)
C1 C 0.7071(6) 0.3078(3) 0.2961(4)
C2 C 0.7251(10) 0.3818(4) 0.2534(5)
C3 C 0.9064(16) 0.4227(7) 0.2862(9)
H1 H 0.94440 0.46850 0.26110
C4 C 1.018(3) 0.3825(12) 0.3624(17)
H2 H 1.13520 0.40640 0.38430
C5 C 0.9917(14) 0.3224(9) 0.4059(11)
H3 H 1.08090 0.30390 0.45490
C6 C 0.8140(6) 0.2850(5) 0.3737(5)
C7 C 0.6918(7) 0.2394(4) 0.4098(3)
C8 C 0.7178(14) 0.2087(6) 0.4877(4)
H4 H 0.83650 0.20730 0.52660
C9 C 0.578(2) 0.1807(6) 0.5097(5)
H5 H 0.60000 0.16220 0.56390
C10 C 0.4014(13) 0.1791(4) 0.4524(4)
H6 H 0.30560 0.15770 0.46810
C11 C 0.3644(7) 0.2091(2) 0.3716(3)
H7 H 0.24570 0.20820 0.33270
C12 C 0.5092(5) 0.2396(2) 0.3518(2)
C13 C 0.5159(4) 0.2723(2) 0.2682(2)
C14 C 0.4139(7) 0.3505(2) 0.2175(3)
C15 C 0.2288(8) 0.3678(3) 0.1836(3)
H8 H 0.14300 0.33090 0.19300
C16 C 0.1714(13) 0.4415(4) 0.1347(4)
H9 H 0.04650 0.45390 0.11060
C17 C 0.301(2) 0.4955(6) 0.1225(7)
H10 H 0.26110 0.54550 0.09150
C18 C 0.4789(19) 0.4792(5) 0.1529(8)
H11 H 0.56210 0.51530 0.14050
C19 C 0.5423(12) 0.4070(3) 0.2042(4)
C20 C 0.4821(4) 0.1932(2) 0.20980(19)
C21 C 0.6161(4) 0.1446(2) 0.19265(19)
C22 C 0.5779(4) 0.0716(2) 0.1437(2)
H12 H 0.67220 0.04000 0.13520
C23 C 0.3981(4) 0.0470(2) 0.10810(18)
C24 C 0.2577(4) 0.0923(2) 0.1210(2)
H13 H 0.13550 0.07550 0.09580
C25 C 0.3022(4) 0.1633(2) 0.1723(2)
H14 H 0.20730 0.19290 0.18250
#END
