
#######################################################################
#
#                 Cambridge Crystallographic Data Centre
#                                CCDC
#
#######################################################################
#
# If this CIF has been generated from an entry in the Cambridge
# Structural Database, then it will include bibliographic, chemical,
# crystal, experimental, refinement or atomic coordinate data resulting
# from the CCDC's data processing and validation procedures.
#
#######################################################################

data_CSD_CIF_RALDUE
_audit_creation_date 2005-08-18
_audit_creation_method CSD-ConQuest-V1
_database_code_CSD RALDUE
_database_code_depnum_ccdc_archive 'CCDC 267584'
_chemical_formula_sum 'C9 H17 N3 O2'
_chemical_formula_moiety
;
C9 H17 N3 O2
;
_journal_coden_Cambridge 1078
_journal_year 2005
_journal_name_full 'CSD Communication(Private Communication) '
loop_
_publ_author_name
"K.Aulinger"
"W.Steglich"
"K.Polborn"
_chemical_name_systematic
;
((Dimethylaminocarbonyl)azoxy)cyclohexane
;
_cell_volume    529.375
_exptl_crystal_colour 'colorless'
_exptl_crystal_density_diffrn 1.25
_exptl_special_details
;
contribution from Department Chemie, Universitat Munchen, Butenandtstr. 5- 
13, 81377 Munchen, Germany
;
_exptl_crystal_description 'platelet'
_diffrn_ambient_temperature 295
#These two values have been output from a single CSD field.
_refine_ls_R_factor_gt 0.0386
_refine_ls_wR_factor_gt 0.0386
_symmetry_cell_setting triclinic
_symmetry_space_group_name_H-M 'P -1'
_symmetry_Int_Tables_number 2
loop_
_symmetry_equiv_pos_site_id
_symmetry_equiv_pos_as_xyz
1 x,y,z
2 -x,-y,-z
_cell_length_a 6.2213(9)
_cell_length_b 9.4453(10)
_cell_length_c 10.3865(14)
_cell_angle_alpha 65.360(9)
_cell_angle_beta 74.845(11)
_cell_angle_gamma 76.058(10)
_cell_formula_units_Z 2
loop_
_atom_type_symbol
_atom_type_radius_bond
C 0.68
H 0.23
N 0.68
O 0.68
loop_
_atom_site_label
_atom_site_type_symbol
_atom_site_fract_x
_atom_site_fract_y
_atom_site_fract_z
N1 N 0.2216(2) 0.67695(15) 0.07509(14)
N2 N 0.2006(2) 0.53590(16) 0.10812(14)
N3 N -0.0914(2) 0.46089(17) 0.30908(14)
O1 O 0.1743(2) 0.74554(15) 0.16150(13)
O2 O 0.2754(2) 0.37615(16) 0.33259(14)
C1 C 0.3046(3) 0.76877(18) -0.08133(16)
H1 H 0.40210 0.69550 -0.12440
C2 C 0.4397(3) 0.8898(2) -0.09711(19)
H2 H 0.56960 0.83730 -0.05090
H3 H 0.34810 0.95950 -0.04990
C3 C 0.5174(3) 0.9856(2) -0.2557(2)
H4 H 0.59630 1.06690 -0.26400
H5 H 0.62180 0.91740 -0.30020
C4 C 0.3206(3) 1.0611(2) -0.3339(2)
H6 H 0.37580 1.11580 -0.43550
H7 H 0.22460 1.13800 -0.29640
C5 C 0.1849(3) 0.9387(2) -0.31560(19)
H8 H 0.27710 0.86770 -0.36120
H9 H 0.05610 0.99050 -0.36300
C6 C 0.1034(3) 0.8444(2) -0.15692(18)
H10 H 0.00080 0.91330 -0.11250
H11 H 0.02330 0.76350 -0.14790
C7 C 0.1294(3) 0.45390(19) 0.26177(17)
C8 C -0.2560(3) 0.5641(2) 0.2195(2)
H12 H -0.28600 0.66570 0.22590
H13 H -0.39310 0.51950 0.25240
H14 H -0.19740 0.57490 0.12120
C9 C -0.1748(3) 0.3791(3) 0.4612(2)
H15 H -0.29710 0.32730 0.47200
H16 H -0.22660 0.45370 0.50740
H17 H -0.05570 0.30240 0.50480
#END
