
#######################################################################
#
#                 Cambridge Crystallographic Data Centre
#                                CCDC
#
#######################################################################
#
# If this CIF has been generated from an entry in the Cambridge
# Structural Database, then it will include bibliographic, chemical,
# crystal, experimental, refinement or atomic coordinate data resulting
# from the CCDC's data processing and validation procedures.
#
#######################################################################

data_CSD_CIF_RAMKIZ01
_audit_creation_date 2002-02-27
_audit_creation_method CSD-ConQuest-V1
_database_code_CSD RAMKIZ01
_database_code_depnum_ccdc_archive 'CCDC 166866'
_chemical_formula_sum 'C23 H30 N4 O7'
_chemical_formula_moiety
;
C23 H30 N4 O7
;
_journal_coden_Cambridge 188
_journal_year 2002
_journal_page_first 141
_journal_name_full 'J.Chem.Soc.,Perkin Trans.2 '
loop_
_publ_author_name
"T.Gunnlaugsson"
"M.Nieuwenhuyzen"
"L.Richard"
"V.Thoss"
_chemical_name_systematic
;
N-(2-Methoxy-4-((4-nitrophenyl)azo)phenyl)-1,4,7,10-tetraoxa-13-azacyclopentad
ecane
;
_cell_volume   2370.537
_exptl_crystal_colour 'red-orange'
_exptl_crystal_density_diffrn 1.33
_exptl_special_details
;
P21/n polymorph

;
_exptl_crystal_description 'plate'
_exptl_crystal_preparation 'methanol'
_diffrn_ambient_temperature 153
#These two values have been output from a single CSD field.
_refine_ls_R_factor_gt 0.0605
_refine_ls_wR_factor_gt 0.0605
_symmetry_cell_setting monoclinic
_symmetry_space_group_name_H-M 'P 21/n'
_symmetry_Int_Tables_number 14
loop_
_symmetry_equiv_pos_site_id
_symmetry_equiv_pos_as_xyz
1 x,y,z
2 1/2-x,1/2+y,1/2-z
3 -x,-y,-z
4 -1/2+x,-1/2-y,-1/2+z
_cell_length_a 7.2110(16)
_cell_length_b 23.167(6)
_cell_length_c 14.329(3)
_cell_angle_alpha 90
_cell_angle_beta 97.988(9)
_cell_angle_gamma 90
_cell_formula_units_Z 4
loop_
_atom_type_symbol
_atom_type_radius_bond
C 0.68
H 0.23
N 0.68
O 0.68
loop_
_atom_site_label
_atom_site_type_symbol
_atom_site_fract_x
_atom_site_fract_y
_atom_site_fract_z
O1 O 0.8141(6) 0.19014(17) 0.7763(2)
O2 O 0.7638(5) 0.10582(16) 0.8349(2)
N1 N 0.7865(6) 0.1378(2) 0.7682(3)
C1 C 0.7827(6) 0.1107(2) 0.6747(3)
C2 C 0.8151(7) 0.1455(2) 0.6006(3)
H1 H 0.83950 0.18560 0.60940
C3 C 0.8109(7) 0.1201(2) 0.5126(3)
H2 H 0.83200 0.14310 0.46020
C4 C 0.7764(6) 0.0617(2) 0.5003(3)
C5 C 0.7432(7) 0.0274(2) 0.5769(3)
H3 H 0.71820 -0.01270 0.56900
C6 C 0.7479(7) 0.0533(2) 0.6644(3)
H4 H 0.72670 0.03080 0.71730
N2 N 0.7740(5) 0.04113(18) 0.4065(2)
N3 N 0.7436(5) -0.01286(17) 0.3992(3)
C7 C 0.7425(6) -0.0347(2) 0.3079(3)
C8 C 0.7281(6) -0.0937(2) 0.2986(3)
H5 H 0.71100 -0.11630 0.35210
C9 C 0.7379(6) -0.1210(2) 0.2139(3)
H6 H 0.72930 -0.16190 0.21000
C10 C 0.7604(6) -0.0888(2) 0.1332(3)
C11 C 0.7544(6) -0.02805(19) 0.1417(3)
C12 C 0.7499(6) -0.0012(2) 0.2263(3)
H7 H 0.75190 0.03980 0.23010
O3 O 0.7495(4) 0.00222(12) 0.0581(2)
C13 C 0.6638(7) 0.05849(19) 0.0550(3)
H8 H 0.64390 0.07240 -0.01020
H9 H 0.74610 0.08530 0.09410
H10 H 0.54320 0.05600 0.07890
N4 N 0.7785(5) -0.11487(15) 0.0471(2)
C14 C 0.9162(6) -0.0926(2) -0.0107(3)
H11 H 1.00920 -0.12320 -0.01740
H12 H 0.98380 -0.05980 0.02280
C15 C 0.8315(7) -0.07269(19) -0.1080(3)
H13 H 0.74660 -0.03960 -0.10280
H14 H 0.93170 -0.06010 -0.14420
O4 O 0.7299(4) -0.11934(13) -0.1550(2)
C16 C 0.6498(7) -0.1058(2) -0.2484(3)
H15 H 0.74980 -0.10020 -0.28850
H16 H 0.57620 -0.06970 -0.24900
C17 C 0.5243(7) -0.1552(2) -0.2859(3)
H17 H 0.48260 -0.15000 -0.35420
H18 H 0.59340 -0.19220 -0.27680
O5 O 0.3666(5) -0.15622(13) -0.2362(2)
C18 C 0.2578(7) -0.2066(2) -0.2568(3)
H19 H 0.33620 -0.24130 -0.24130
H20 H 0.20880 -0.20770 -0.32490
C19 C 0.0977(8) -0.2062(2) -0.1997(3)
H21 H 0.02510 -0.17010 -0.21310
H22 H 0.01350 -0.23900 -0.21960
O6 O 0.1579(5) -0.21014(14) -0.1002(2)
O7 O 0.5058(5) -0.24962(13) 0.0257(2)
C20 C 0.2018(7) -0.2675(2) -0.0697(4)
H23 H 0.27320 -0.28690 -0.11500
H24 H 0.08470 -0.28950 -0.06760
C21 C 0.3161(7) -0.2671(2) 0.0267(4)
H25 H 0.25680 -0.24050 0.06790
H26 H 0.31500 -0.30630 0.05410
C22 C 0.5338(7) -0.18879(19) 0.0241(3)
H27 H 0.47780 -0.17030 0.07590
H28 H 0.47260 -0.17260 -0.03640
C23 C 0.7404(7) -0.17713(18) 0.0355(3)
H29 H 0.80290 -0.19810 0.09140
H30 H 0.79240 -0.19150 -0.02050
#END
