
#######################################################################
#
#                 Cambridge Crystallographic Data Centre
#                                CCDC
#
#######################################################################
#
# If this CIF has been generated from an entry in the Cambridge
# Structural Database, then it will include bibliographic, chemical,
# crystal, experimental, refinement or atomic coordinate data resulting
# from the CCDC's data processing and validation procedures.
#
#######################################################################

data_CSD_CIF_RAPFIY
_audit_creation_date 2005-08-18
_audit_creation_method CSD-ConQuest-V1
_database_code_CSD RAPFIY
_database_code_depnum_ccdc_archive 'CCDC 271808'
_chemical_formula_sum 'C8 H6 N2 O6'
_chemical_formula_moiety
;
C8 H6 N2 O6
;
_journal_coeditor_code "IUCr AT6003"
_journal_coden_Cambridge 1370
_journal_volume 61
_journal_year 2005
_journal_page_first o1276
_journal_name_full 'Acta Crystallogr.,Sect.E:Struct.Rep.Online '
loop_
_publ_author_name
"Long-Fei Jin"
"Feng-Ping Xiao"
_chemical_name_systematic
;
Methyl 3,5-dinitrobenzoate
;
_cell_volume    942.863
_exptl_crystal_colour 'colorless'
_exptl_crystal_density_diffrn 1.593
_exptl_special_details
;
potential biological activity

;
_exptl_crystal_description 'block'
_exptl_crystal_preparation 'methanol'
_diffrn_ambient_temperature 293
#These two values have been output from a single CSD field.
_refine_ls_R_factor_gt 0.0607
_refine_ls_wR_factor_gt 0.0607
_symmetry_cell_setting monoclinic
_symmetry_space_group_name_H-M 'P 21/c'
_symmetry_Int_Tables_number 14
loop_
_symmetry_equiv_pos_site_id
_symmetry_equiv_pos_as_xyz
1 x,y,z
2 -x,1/2+y,1/2-z
3 -x,-y,-z
4 x,-1/2-y,-1/2+z
_cell_length_a 4.5833(15)
_cell_length_b 18.843(6)
_cell_length_c 11.112(4)
_cell_angle_alpha 90
_cell_angle_beta 100.738(7)
_cell_angle_gamma 90
_cell_formula_units_Z 4
loop_
_atom_type_symbol
_atom_type_radius_bond
C 0.68
H 0.23
N 0.68
O 0.68
loop_
_atom_site_label
_atom_site_type_symbol
_atom_site_fract_x
_atom_site_fract_y
_atom_site_fract_z
C1 C 0.3062(5) 0.67149(13) 0.1523(2)
C2 C 0.3167(6) 0.74515(14) 0.1500(2)
H1 H 0.22540 0.77170 0.20300
C3 C 0.4629(5) 0.77820(13) 0.0688(2)
C4 C 0.6001(5) 0.74155(14) -0.0122(2)
H2 H 0.69920 0.76480 -0.06650
C5 C 0.5832(6) 0.66866(14) -0.0088(2)
C6 C 0.4384(5) 0.63271(14) 0.0712(2)
H3 H 0.42980 0.58340 0.07050
C7 C 0.1462(6) 0.63690(14) 0.2423(2)
C8 C 0.0015(8) 0.52563(15) 0.3126(3)
H4 H 0.07080 0.54060 0.39570
H5 H 0.04750 0.47630 0.30460
H6 H -0.20950 0.53230 0.29160
N1 N 0.4723(6) 0.85634(13) 0.0671(2)
N2 N 0.7302(6) 0.62733(14) -0.0932(2)
O1 O 0.1467(5) 0.56761(10) 0.23070(18)
O2 O 0.0328(5) 0.66939(10) 0.31420(17)
O3 O 0.3343(6) 0.88804(10) 0.1325(2)
O4 O 0.6169(6) 0.88443(10) 0.0002(2)
O5 O 0.8613(5) 0.65958(12) -0.16176(18)
O6 O 0.7180(7) 0.56356(13) -0.0882(2)
#END
