
#######################################################################
#
#                 Cambridge Crystallographic Data Centre
#                                CCDC
#
#######################################################################
#
# If this CIF has been generated from an entry in the Cambridge
# Structural Database, then it will include bibliographic, chemical,
# crystal, experimental, refinement or atomic coordinate data resulting
# from the CCDC's data processing and validation procedures.
#
#######################################################################

data_CSD_CIF_RAPZUG
_audit_creation_date 2017-01-19
_audit_creation_method CSD-ConQuest-V1
_database_code_CSD RAPZUG
_database_code_depnum_ccdc_archive 'CCDC 1470721'
_chemical_formula_sum 'C10 H8 N2 O3'
_chemical_formula_moiety
;
C10 H8 N2 O3
;
_journal_coden_Cambridge 177
_journal_volume 15
_journal_year 2017
_journal_page_first 1381
_journal_name_full 'Org.Biomol.Chem. '
loop_
_publ_author_name
"Yingtang Ning"
"T.Fukuda"
"H.Ikeda"
"Yuko Otani"
"M.Kawahata"
"K.Yamaguchi"
"T.Ohwada"
_chemical_name_systematic
;
8-nitro-4,5-dihydro-3H-naphtho[1,8-cd][1,2]oxazole
;
_cell_volume    886.281
_exptl_crystal_colour 'colorless'
_exptl_crystal_density_diffrn 1.53
_exptl_crystal_description 'block'
_diffrn_ambient_temperature 100
#These two values have been output from a single CSD field.
_refine_ls_R_factor_gt 0.031
_refine_ls_wR_factor_gt 0.031
_symmetry_cell_setting orthorhombic
_symmetry_space_group_name_H-M 'P c a 21'
_symmetry_Int_Tables_number 29
loop_
_symmetry_equiv_pos_site_id
_symmetry_equiv_pos_as_xyz
1 x,y,z
2 -x,-y,1/2+z
3 1/2-x,y,1/2+z
4 1/2+x,-y,z
_cell_length_a 19.170(3)
_cell_length_b 5.9569(10)
_cell_length_c 7.7612(14)
_cell_angle_alpha 90
_cell_angle_beta 90
_cell_angle_gamma 90
_cell_formula_units_Z 4
loop_
_atom_type_symbol
_atom_type_radius_bond
C 0.68
H 0.23
N 0.68
O 0.68
loop_
_atom_site_label
_atom_site_type_symbol
_atom_site_fract_x
_atom_site_fract_y
_atom_site_fract_z
C1 C 0.61655(11) 0.4198(4) 0.2334(3)
C2 C 0.54013(12) 0.3672(4) 0.2181(3)
H1 H 0.5105(18) 0.495(5) 0.199(4)
H2 H 0.5271(18) 0.284(5) 0.330(4)
C3 C 0.52875(13) 0.2141(5) 0.0606(4)
H3 H 0.537(2) 0.316(6) -0.054(5)
H4 H 0.4780(17) 0.163(5) 0.057(4)
C4 C 0.57694(14) 0.0079(4) 0.0526(4)
H5 H 0.572(2) -0.083(6) -0.042(5)
H6 H 0.565(2) -0.091(6) 0.158(5)
C5 C 0.65297(12) 0.0719(4) 0.0696(3)
C6 C 0.66561(11) 0.2701(4) 0.1578(3)
C7 C 0.72995(11) 0.3602(4) 0.1936(3)
C8 C 0.78894(10) 0.2435(4) 0.1363(3)
C9 C 0.77885(13) 0.0425(4) 0.0469(3)
H7 H 0.8197(16) -0.040(5) 0.000(4)
C10 C 0.71194(13) -0.0426(4) 0.0134(3)
H8 H 0.7076(15) -0.180(5) -0.047(4)
N1 N 0.64696(10) 0.5867(3) 0.3100(3)
N2 N 0.85854(10) 0.3257(4) 0.1721(3)
O1 O 0.72218(8) 0.5518(3) 0.2856(2)
O2 O 0.86393(9) 0.5036(3) 0.2517(3)
O3 O 0.90900(8) 0.2146(3) 0.1220(2)
#END
