
#######################################################################
#
#                 Cambridge Crystallographic Data Centre
#                                CCDC
#
#######################################################################
#
# If this CIF has been generated from an entry in the Cambridge
# Structural Database, then it will include bibliographic, chemical,
# crystal, experimental, refinement or atomic coordinate data resulting
# from the CCDC's data processing and validation procedures.
#
#######################################################################

data_CSD_CIF_RAQQAE
_audit_creation_date 2017-01-19
_audit_creation_method CSD-ConQuest-V1
_database_code_CSD RAQQAE
_database_code_depnum_ccdc_archive 'CCDC 1410671'
_chemical_formula_sum 'C9 H8 N2 O2'
_chemical_formula_moiety
;
C9 H8 N2 O2
;
_journal_coden_Cambridge 1606
_journal_volume 4
_journal_year 2015
_journal_page_first 1250
_journal_name_full 'Asian J.Org.Chem '
loop_
_publ_author_name
"Jinlong Jia"
"Xuelei Liu"
"Jingjing Shi"
"H.Eric Xu"
"Wei Yi"
_chemical_name_systematic
;
3-(methoxyimino)isoindolin-1-one
;
_cell_volume    835.918
_exptl_crystal_colour 'colorless'
_exptl_crystal_density_diffrn 1.4
_exptl_crystal_description 'prism'
_diffrn_ambient_temperature 296
#These two values have been output from a single CSD field.
_refine_ls_R_factor_gt 0.0354
_refine_ls_wR_factor_gt 0.0354
_symmetry_cell_setting monoclinic
_symmetry_space_group_name_H-M 'P 21/c'
_symmetry_Int_Tables_number 14
loop_
_symmetry_equiv_pos_site_id
_symmetry_equiv_pos_as_xyz
1 x,y,z
2 -x,1/2+y,1/2-z
3 -x,-y,-z
4 x,-1/2-y,-1/2+z
_cell_length_a 4.5290(3)
_cell_length_b 9.7267(7)
_cell_length_c 19.0996(14)
_cell_angle_alpha 90
_cell_angle_beta 96.532(4)
_cell_angle_gamma 90
_cell_formula_units_Z 4
loop_
_atom_type_symbol
_atom_type_radius_bond
C 0.68
H 0.23
N 0.68
O 0.68
loop_
_atom_site_label
_atom_site_type_symbol
_atom_site_fract_x
_atom_site_fract_y
_atom_site_fract_z
O1 O 0.5864(2) 0.7676(1) 0.46664(4)
O2 O -0.09398(19) 0.48527(8) 0.59211(4)
N1 N 0.5983(2) 0.81253(10) 0.53683(5)
N2 N 0.2412(2) 0.63059(10) 0.54599(5)
H1 H 0.22710 0.59890 0.50370
C1 C 0.7725(3) 0.85613(14) 0.43090(7)
H2 H 0.71070 0.94980 0.43550
H3 H 0.75650 0.83180 0.38190
H4 H 0.97510 0.84620 0.45130
C2 C 0.4239(2) 0.73968(11) 0.57005(6)
C3 C 0.3836(2) 0.76060(11) 0.64453(6)
C4 C 0.1808(2) 0.66295(11) 0.66230(6)
C5 C 0.0966(3) 0.65515(12) 0.72965(6)
H5 H -0.03930 0.58960 0.74120
C6 C 0.2228(3) 0.74909(12) 0.77937(6)
H6 H 0.17160 0.74620 0.82510
C7 C 0.0858(2) 0.57970(11) 0.59826(6)
C8 C 0.5085(3) 0.85513(12) 0.69382(6)
H7 H 0.64310 0.92110 0.68200
C9 C 0.4245(3) 0.84726(12) 0.76137(6)
H8 H 0.50500 0.90920 0.79540
#END
