
#######################################################################
#
#                 Cambridge Crystallographic Data Centre
#                                CCDC
#
#######################################################################
#
# If this CIF has been generated from an entry in the Cambridge
# Structural Database, then it will include bibliographic, chemical,
# crystal, experimental, refinement or atomic coordinate data resulting
# from the CCDC's data processing and validation procedures.
#
#######################################################################

data_CSD_CIF_RAQRIL
_audit_creation_date 2005-11-21
_audit_creation_method CSD-ConQuest-V1
_database_code_CSD RAQRIL
_database_code_depnum_ccdc_archive 'CCDC 268687'
_chemical_formula_sum 'C6 H1 N5 O6'
_chemical_formula_moiety
;
C6 H1 N5 O6
;
_journal_coden_Cambridge 16
_journal_volume 61
_journal_year 2005
_journal_page_first 8167
_journal_name_full 'Tetrahedron '
loop_
_publ_author_name
"S.Kurbatov"
"R.Goumont"
"S.Lakhdar"
"J.Marrot"
"F.Terrier"
_chemical_name_systematic
;
4-Nitrobenzodifuroxan
;
_chemical_name_common
;
7-Nitro-1,4-dioxy-[1,2,5]oxadiazolo[3',4':3,4]benzo[1,2-c][1,2,5]oxadiazole-1,
4-diium
;
_chemical_melting_point 431.15
_cell_volume    863.258
_exptl_crystal_colour 'colorless'
_exptl_crystal_density_diffrn 1.84
_exptl_crystal_description 'platelet'
_diffrn_ambient_temperature 296
#These two values have been output from a single CSD field.
_refine_ls_R_factor_gt 0.0527
_refine_ls_wR_factor_gt 0.0527
_symmetry_cell_setting orthorhombic
_symmetry_space_group_name_H-M 'P n a 21'
_symmetry_Int_Tables_number 33
loop_
_symmetry_equiv_pos_site_id
_symmetry_equiv_pos_as_xyz
1 x,y,z
2 -x,-y,1/2+z
3 1/2+x,1/2-y,z
4 1/2-x,1/2+y,1/2+z
_cell_length_a 6.9358(8)
_cell_length_b 19.161(2)
_cell_length_c 6.4957(8)
_cell_angle_alpha 90
_cell_angle_beta 90
_cell_angle_gamma 90
_cell_formula_units_Z 4
loop_
_atom_type_symbol
_atom_type_radius_bond
C 0.68
H 0.23
N 0.68
O 0.68
loop_
_atom_site_label
_atom_site_type_symbol
_atom_site_fract_x
_atom_site_fract_y
_atom_site_fract_z
N1 N 0.7748(6) 0.6628(2) 0.4294(7)
O1 O 0.7784(5) 0.6215(2) 0.2412(7)
N2 N 0.6120(6) 0.5820(2) 0.2345(8)
C1 C 0.3313(6) 0.5703(2) 0.4745(9)
C2 C 0.2587(6) 0.5893(2) 0.6570(8)
H1 H 0.14300 0.57080 0.70440
C3 C 0.3631(6) 0.6384(2) 0.7758(8)
C4 C 0.5389(6) 0.6696(2) 0.7151(8)
C5 C 0.6114(6) 0.6477(2) 0.5210(8)
C6 C 0.5140(6) 0.5969(2) 0.4009(8)
N3 N 0.3223(6) 0.66228(19) 0.9617(7)
O2 O 0.4781(5) 0.71124(17) 1.0147(6)
N4 N 0.6074(6) 0.7120(2) 0.8537(8)
O3 O 0.1966(5) 0.65424(18) 1.0902(6)
O4 O 0.9120(5) 0.7014(2) 0.4661(8)
N5 N 0.2284(7) 0.5185(2) 0.3522(8)
O5 O 0.0683(6) 0.5011(2) 0.4121(8)
O6 O 0.3060(6) 0.4956(2) 0.2020(8)
#END
