
#######################################################################
#
#                 Cambridge Crystallographic Data Centre
#                                CCDC
#
#######################################################################
#
# If this CIF has been generated from an entry in the Cambridge
# Structural Database, then it will include bibliographic, chemical,
# crystal, experimental, refinement or atomic coordinate data resulting
# from the CCDC's data processing and validation procedures.
#
#######################################################################

data_CSD_CIF_RAQVAJ
_audit_creation_date 2017-05-30
_audit_creation_method CSD-ConQuest-V1
_database_code_CSD RAQVAJ
_database_code_depnum_ccdc_archive 'CCDC 1553058'
_chemical_formula_sum 'C22 H21 N3 O6'
_chemical_formula_moiety
;
C22 H21 N3 O6
;
_journal_coden_Cambridge 1291
_journal_year 2017
_journal_page_first 2998
_journal_name_full 'Eur.J.Org.Chem. '
loop_
_publ_author_name
"Yan Xu"
"Panpan Sun"
"Qing Song"
"Xiaoyan Lai"
"Wei Liu"
"Tao Xia"
"Yiyong Huang"
"Yongcun Shen"
_chemical_name_systematic
;
ethyl 
5-(acetyloxy)-4-(2-nitro-1-phenylethyl)-1-phenyl-1H-pyrazole-3-carboxylate
;
_cell_volume   1047.760
_exptl_crystal_density_diffrn 1.342
_diffrn_ambient_temperature 293
#These two values have been output from a single CSD field.
_refine_ls_R_factor_gt 0.041
_refine_ls_wR_factor_gt 0.041
_symmetry_cell_setting monoclinic
_symmetry_space_group_name_H-M 'P 21'
_symmetry_Int_Tables_number 4
loop_
_symmetry_equiv_pos_site_id
_symmetry_equiv_pos_as_xyz
1 x,y,z
2 -x,1/2+y,-z
_cell_length_a 5.4178(6)
_cell_length_b 21.577(2)
_cell_length_c 9.0649(9)
_cell_angle_alpha 90
_cell_angle_beta 98.604(2)
_cell_angle_gamma 90
_cell_formula_units_Z 2
loop_
_atom_type_symbol
_atom_type_radius_bond
C 0.68
H 0.23
N 0.68
O 0.68
loop_
_atom_site_label
_atom_site_type_symbol
_atom_site_fract_x
_atom_site_fract_y
_atom_site_fract_z
N1 N 0.3066(5) 0.58853(13) 0.5046(3)
N2 N 0.4887(6) 0.56430(13) 0.6070(3)
N3 N 0.5575(9) 0.80239(16) 0.9000(4)
O1 O 0.9023(5) 0.54754(12) 0.8058(3)
O2 O 0.9306(6) 0.64820(14) 0.8566(4)
O3 O 0.7747(8) 0.81689(14) 0.8977(4)
O4 O 0.4099(8) 0.83208(17) 0.9609(4)
O5 O 0.1573(4) 0.6867(1) 0.4093(3)
O6 O 0.4097(5) 0.66719(14) 0.2375(3)
C1 C 0.6033(6) 0.61334(17) 0.6761(4)
C2 C 0.5001(6) 0.67001(16) 0.6192(4)
C3 C 0.3148(6) 0.65136(16) 0.5096(4)
C4 C 0.1491(7) 0.54815(17) 0.4071(4)
C5 C 0.2366(7) 0.49027(17) 0.3784(4)
H1 H 0.39400 0.47760 0.42340
C6 C 0.0886(8) 0.45116(18) 0.2819(5)
H2 H 0.14700 0.41200 0.26210
C7 C -0.1432(8) 0.4696(2) 0.2154(5)
H3 H -0.24150 0.44320 0.15010
C8 C -0.2303(8) 0.5275(2) 0.2456(5)
H4 H -0.38760 0.54010 0.20000
C9 C -0.0866(7) 0.56691(18) 0.3426(4)
H5 H -0.14740 0.60560 0.36450
C10 C 0.8260(7) 0.60528(18) 0.7903(4)
C11 C 1.1328(7) 0.5374(2) 0.9093(4)
H6 H 1.10480 0.54350 1.01150
H7 H 1.26210 0.56580 0.88840
C12 C 1.2067(9) 0.4716(2) 0.8851(5)
H8 H 1.08160 0.44410 0.91230
H9 H 1.36390 0.46300 0.94560
H10 H 1.22170 0.46570 0.78190
C13 C 0.4673(8) 0.74364(17) 0.8218(4)
H11 H 0.28640 0.74420 0.80150
H12 H 0.51710 0.70870 0.88690
C14 C 0.5704(7) 0.73495(16) 0.6760(4)
H13 H 0.75270 0.73590 0.70050
C15 C 0.4979(6) 0.78581(16) 0.5611(4)
C16 C 0.3004(7) 0.82616(18) 0.5659(4)
H14 H 0.20240 0.82230 0.64130
C17 C 0.2473(8) 0.87247(18) 0.4589(4)
H15 H 0.11500 0.89950 0.46360
C18 C 0.3887(8) 0.87830(19) 0.3472(5)
H16 H 0.35270 0.90910 0.27540
C19 C 0.5839(7) 0.83854(19) 0.3414(5)
H17 H 0.68050 0.84240 0.26530
C20 C 0.6381(7) 0.79315(17) 0.4470(4)
H18 H 0.77210 0.76670 0.44170
C21 C 0.2282(7) 0.69168(17) 0.2674(4)
C22 C 0.0448(7) 0.7306(2) 0.1706(4)
H19 H 0.05500 0.72200 0.06780
H20 H 0.08120 0.77360 0.19090
H21 H -0.12050 0.72150 0.19050
#END
