
#######################################################################
#
#                 Cambridge Crystallographic Data Centre
#                                CCDC
#
#######################################################################
#
# If this CIF has been generated from an entry in the Cambridge
# Structural Database, then it will include bibliographic, chemical,
# crystal, experimental, refinement or atomic coordinate data resulting
# from the CCDC's data processing and validation procedures.
#
#######################################################################

data_CSD_CIF_RARNUU
_audit_creation_date 2005-11-21
_audit_creation_method CSD-ConQuest-V1
_database_code_CSD RARNUU
_database_code_depnum_ccdc_archive 'CCDC 268245'
_chemical_formula_sum 'C28 H25 N3 O9'
_chemical_formula_moiety
;
C28 H25 N3 O9
;
_journal_coden_Cambridge 35
_journal_volume 70
_journal_year 2005
_journal_page_first 6027
_journal_name_full 'J.Org.Chem. '
loop_
_publ_author_name
"V.Rudzevich"
"D.Schollmeyer"
"D.Braekers"
"J.F.Desreux"
"R.Diss"
"G.Wipff"
"V.Bohmer"
_chemical_name_systematic
;
tris(2-allyloxy-5-nitrophenyl)methane
;
_chemical_melting_point 437.15
_cell_volume   2694.541
_exptl_crystal_colour 'colorless'
_exptl_crystal_density_diffrn 1.35
_exptl_special_details
;
Melting point range 437.15-438.15K

;
_exptl_crystal_description 'block'
_exptl_crystal_preparation 'acetone'
_diffrn_ambient_temperature 295
#These two values have been output from a single CSD field.
_refine_ls_R_factor_gt 0.0554
_refine_ls_wR_factor_gt 0.0554
_symmetry_cell_setting monoclinic
_symmetry_space_group_name_H-M 'P 21/n'
_symmetry_Int_Tables_number 14
loop_
_symmetry_equiv_pos_site_id
_symmetry_equiv_pos_as_xyz
1 x,y,z
2 1/2-x,1/2+y,1/2-z
3 -x,-y,-z
4 -1/2+x,-1/2-y,-1/2+z
_cell_length_a 12.4354(5)
_cell_length_b 12.1584(3)
_cell_length_c 17.9173(8)
_cell_angle_alpha 90
_cell_angle_beta 95.922(2)
_cell_angle_gamma 90
_cell_formula_units_Z 4
loop_
_atom_type_symbol
_atom_type_radius_bond
C 0.68
H 0.23
N 0.68
O 0.68
loop_
_atom_site_label
_atom_site_type_symbol
_atom_site_fract_x
_atom_site_fract_y
_atom_site_fract_z
C1 C 0.75353(12) 0.22229(13) 0.04985(9)
H1 H 0.77360 0.15170 0.07370
C2 C 0.85190(12) 0.29627(13) 0.06634(9)
C3 C 0.84541(13) 0.40916(14) 0.06905(10)
H2 H 0.77880 0.44400 0.06020
C4 C 0.93924(15) 0.47087(14) 0.0852(1)
C5 C 1.03941(15) 0.42240(16) 0.09911(11)
H3 H 1.10090 0.46530 0.11020
C6 C 1.04720(14) 0.30982(16) 0.09631(11)
H4 H 1.11440 0.27600 0.10500
C7 C 0.95418(13) 0.24614(14) 0.08035(10)
N1 N 0.93080(14) 0.59000(14) 0.08786(10)
O1 O 1.01151(15) 0.64349(14) 0.10767(15)
O2 O 0.84355(13) 0.63286(12) 0.06960(11)
O3 O 0.95332(10) 0.13533(10) 0.07739(8)
C8 C 1.05067(16) 0.07462(18) 0.09892(14)
H5 H 1.09790 0.08940 0.05590
H6 H 1.08210 0.10710 0.15010
C9 C 1.0209(2) -0.04375(19) 0.10267(15)
H7 H 1.07760 -0.09400 0.10680
C10 C 0.9246(2) -0.0836(2) 0.10081(18)
H8 H 0.85690 -0.03120 0.08240
H9 H 0.91360 -0.16760 0.09890
C11 C 0.65644(13) 0.26278(14) 0.08718(10)
C12 C 0.57115(13) 0.31827(14) 0.04939(11)
H10 H 0.57070 0.33320 -0.00150
C13 C 0.48520(15) 0.35203(17) 0.08835(13)
C14 C 0.4812(2) 0.3291(2) 0.16242(15)
H11 H 0.41940 0.36200 0.18910
C15 C 0.5658(2) 0.2727(2) 0.20125(14)
H12 H 0.56380 0.25600 0.25170
C16 C 0.65421(17) 0.24108(17) 0.16415(11)
N2 N 0.39732(14) 0.41426(17) 0.04744(15)
O4 O 0.32801(19) 0.4523(2) 0.08287(15)
O5 O 0.39853(13) 0.42900(15) -0.01946(12)
O6 O 0.74278(13) 0.18907(15) 0.19733(8)
C17 C 0.7426(3) 0.1536(3) 0.27389(15)
H13 H 0.68380 0.08660 0.26810
H14 H 0.73750 0.23630 0.30430
C18 C 0.8472(4) 0.1064(4) 0.2999(2)
H15 H 0.84740 0.05930 0.34080
C19 C 0.9342(5) 0.1194(4) 0.2762(3)
H16 H 0.94010 0.16540 0.23540
H17 H 0.99490 0.08330 0.29880
C20 C 0.72892(12) 0.19735(14) -0.03328(10)
C21 C 0.74915(13) 0.26997(14) -0.08932(10)
H18 H 0.77410 0.34440 -0.07550
C22 C 0.73210(14) 0.23759(16) -0.16391(10)
C23 C 0.69648(18) 0.13413(19) -0.18441(13)
H19 H 0.69070 0.10620 -0.23770
C24 C 0.67337(19) 0.06113(19) -0.12945(14)
H20 H 0.65460 -0.02080 -0.14110
C25 C 0.68740(15) 0.09266(15) -0.05422(12)
N3 N 0.75525(14) 0.31597(17) -0.22195(9)
O7 O 0.75904(16) 0.28216(17) -0.28601(9)
O8 O 0.7683(2) 0.41166(16) -0.20513(10)
O9 O 0.66466(13) 0.02848(11) 0.00381(9)
C26 C 0.6325(2) -0.08313(18) -0.00894(17)
H21 H 0.56410 -0.08530 -0.04770
H22 H 0.69840 -0.12870 -0.03210
C27 C 0.6143(2) -0.1323(2) 0.0643(2)
H23 H 0.60610 -0.21490 0.06350
C28 C 0.6206(3) -0.0833(3) 0.1283(2)
H24 H 0.63160 0.00000 0.13130
H25 H 0.60080 -0.12690 0.17450
#END
