
#######################################################################
#
#                 Cambridge Crystallographic Data Centre
#                                CCDC
#
#######################################################################
#
# If this CIF has been generated from an entry in the Cambridge
# Structural Database, then it will include bibliographic, chemical,
# crystal, experimental, refinement or atomic coordinate data resulting
# from the CCDC's data processing and validation procedures.
#
#######################################################################

data_CSD_CIF_RARQIN
_audit_creation_date 2017-05-30
_audit_creation_method CSD-ConQuest-V1
_database_code_CSD RARQIN
_database_code_depnum_ccdc_archive 'CCDC 1544054'
_chemical_formula_sum 'C13 H9 N1 O5'
_chemical_formula_moiety
;
C13 H9 N1 O5
;
_journal_coden_Cambridge 182
_journal_volume 53
_journal_year 2017
_journal_page_first 6371
_journal_name_full 'Chem.Commun. '
loop_
_publ_author_name
"S.Saha"
"G.R.Desiraju"
_chemical_name_systematic
;
4-hydroxyphenyl 4-nitrobenzoate
;
_cell_volume   1194.909
_exptl_crystal_colour 'colorless'
_exptl_crystal_density_diffrn 1.441
_exptl_crystal_description 'Block'
_diffrn_ambient_temperature 150
#These two values have been output from a single CSD field.
_refine_ls_R_factor_gt 0.0608
_refine_ls_wR_factor_gt 0.0608
_symmetry_cell_setting orthorhombic
_symmetry_space_group_name_H-M 'P 21 21 21'
_symmetry_Int_Tables_number 19
loop_
_symmetry_equiv_pos_site_id
_symmetry_equiv_pos_as_xyz
1 x,y,z
2 1/2-x,-y,1/2+z
3 -x,1/2+y,1/2-z
4 1/2+x,1/2-y,-z
_cell_length_a 7.228(2)
_cell_length_b 7.888(3)
_cell_length_c 20.958(7)
_cell_angle_alpha 90
_cell_angle_beta 90
_cell_angle_gamma 90
_cell_formula_units_Z 4
loop_
_atom_type_symbol
_atom_type_radius_bond
C 0.68
H 0.23
N 0.68
O 0.68
loop_
_atom_site_label
_atom_site_type_symbol
_atom_site_fract_x
_atom_site_fract_y
_atom_site_fract_z
C1 C -0.0060(7) 0.6948(6) 0.0835(2)
C2 C -0.1038(7) 0.7082(6) 0.0266(2)
H1 H -0.17360 0.80740 0.01760
C3 C 0.0917(7) 0.5488(6) 0.0979(2)
H2 H 0.15470 0.53960 0.13750
C4 C 0.1558(6) 0.1683(6) -0.1378(2)
C5 C 0.1406(7) 0.3164(6) -0.0943(2)
C6 C 0.1062(7) -0.1249(6) -0.1635(2)
H3 H 0.05940 -0.23410 -0.15310
C7 C 0.2696(7) 0.0584(6) -0.2382(2)
H4 H 0.32990 0.07390 -0.27800
C8 C 0.1992(7) -0.0984(6) -0.2204(2)
C9 C 0.0038(7) 0.4337(5) -0.0026(2)
C10 C -0.0987(7) 0.5755(6) -0.0171(2)
H5 H -0.16470 0.58270 -0.05620
C11 C 0.2486(7) 0.1912(6) -0.1957(2)
H6 H 0.29800 0.29940 -0.20600
C12 C 0.0823(7) 0.0104(6) -0.1217(2)
H7 H 0.01680 -0.00460 -0.08280
C13 C 0.0981(7) 0.4157(6) 0.0545(2)
H8 H 0.16530 0.31520 0.06380
N1 N 0.2264(6) -0.2404(6) -0.2651(2)
O1 O 0.0145(5) 0.2960(4) -0.04741(14)
O2 O -0.0008(5) 0.8222(4) 0.12846(14)
H9 H -0.06290 0.90540 0.11550
O3 O 0.2332(6) 0.4436(4) -0.09955(18)
O4 O 0.1955(6) -0.3851(5) -0.24518(18)
O5 O 0.2760(7) -0.2081(5) -0.3201(2)
#END
