
#######################################################################
#
#                 Cambridge Crystallographic Data Centre
#                                CCDC
#
#######################################################################
#
# If this CIF has been generated from an entry in the Cambridge
# Structural Database, then it will include bibliographic, chemical,
# crystal, experimental, refinement or atomic coordinate data resulting
# from the CCDC's data processing and validation procedures.
#
#######################################################################

data_CSD_CIF_RASYUF
_audit_creation_date 1997-07-29
_audit_creation_method CSD-ConQuest-V1
_database_code_CSD RASYUF
_database_code_depnum_ccdc_archive 'CCDC 128643'
_chemical_formula_sum 'C13 H12 N2 O2'
_chemical_formula_moiety
;
C13 H12 N2 O2
;
_journal_coeditor_code "IUCr FR1017"
_journal_coden_Cambridge 591
_journal_volume 53
_journal_year 1997
_journal_page_first 634
_journal_name_full 'Acta Crystallogr.,Sect.C:Cryst.Struct.Commun. '
loop_
_publ_author_name
"W.H.Ojala"
"R.A.Iyer"
"P.E.Hanna"
"W.B.Gleason"
_chemical_name_systematic
;
2-Acetoxyamino-5-phenylpyridine
;
_cell_volume   1130.413
_exptl_crystal_colour 'pale yellow'
_exptl_crystal_density_diffrn 1.341
_diffrn_ambient_temperature 173
#These two values have been output from a single CSD field.
_refine_ls_R_factor_gt 0.0369
_refine_ls_wR_factor_gt 0.0369
_symmetry_cell_setting monoclinic
_symmetry_space_group_name_H-M 'P 21/c'
_symmetry_Int_Tables_number 14
loop_
_symmetry_equiv_pos_site_id
_symmetry_equiv_pos_as_xyz
1 x,y,z
2 -x,1/2+y,1/2-z
3 -x,-y,-z
4 x,-1/2-y,-1/2+z
_cell_length_a 10.246(2)
_cell_length_b 5.524(2)
_cell_length_c 19.973(1)
_cell_angle_alpha 90
_cell_angle_beta 90.463(9)
_cell_angle_gamma 90
_cell_formula_units_Z 4
loop_
_atom_type_symbol
_atom_type_radius_bond
C 0.68
H 0.23
N 0.68
O 0.68
loop_
_atom_site_label
_atom_site_type_symbol
_atom_site_fract_x
_atom_site_fract_y
_atom_site_fract_z
O1 O -0.1835(1) 0.0245(2) 0.49089(6)
O2 O -0.3271(2) 0.2207(3) 0.55435(9)
N1 N 0.03617(14) 0.4210(3) 0.41417(7)
N2 N -0.1320(2) 0.2586(3) 0.47407(8)
C1 C -0.0440(2) 0.2327(3) 0.42134(8)
C2 C -0.0461(2) 0.0379(3) 0.37751(9)
C3 C 0.0416(2) 0.0378(4) 0.32563(9)
C4 C 0.1285(2) 0.2297(3) 0.31617(8)
C5 C 0.1186(2) 0.4167(3) 0.36225(9)
C6 C -0.2912(2) 0.0365(4) 0.52890(9)
C7 C -0.3545(2) -0.2045(4) 0.53502(11)
C8 C 0.2255(2) 0.2340(3) 0.26121(9)
C9 C 0.2244(2) 0.0589(4) 0.21118(10)
C10 C 0.3149(2) 0.0625(4) 0.15974(10)
C11 C 0.4082(2) 0.2410(4) 0.15683(10)
C12 C 0.4110(2) 0.4160(4) 0.20597(11)
C13 C 0.3211(2) 0.4119(4) 0.25737(11)
H1 H -0.107(2) -0.091(4) 0.3836(9)
H2 H -0.097(2) 0.330(4) 0.5108(10)
H3 H 0.037(2) -0.101(4) 0.2964(9)
H4 H 0.175(2) 0.558(4) 0.3597(9)
H5 H -0.384(2) -0.220(4) 0.579(1)
H6 H -0.431(2) -0.211(4) 0.507(1)
H7 H -0.300(2) -0.334(4) 0.5207(10)
H8 H 0.156(2) -0.068(4) 0.2116(10)
H9 H 0.310(2) -0.062(4) 0.130(1)
H10 H 0.470(2) 0.244(4) 0.121(1)
H11 H 0.480(2) 0.546(4) 0.205(1)
H12 H 0.330(2) 0.533(4) 0.290(1)
#END
