
#######################################################################
#
#                 Cambridge Crystallographic Data Centre
#                                CCDC
#
#######################################################################
#
# If this CIF has been generated from an entry in the Cambridge
# Structural Database, then it will include bibliographic, chemical,
# crystal, experimental, refinement or atomic coordinate data resulting
# from the CCDC's data processing and validation procedures.
#
#######################################################################

data_CSD_CIF_RATMUV
_audit_creation_date 2008-03-24
_audit_creation_method CSD-ConQuest-V1
_database_code_CSD RATMUV
_database_code_depnum_ccdc_archive 'CCDC 279759'
_chemical_formula_sum 'C17 H21 N3 O6'
_chemical_formula_moiety
;
C17 H21 N3 O6
;
_journal_coden_Cambridge 35
_journal_volume 72
_journal_year 2007
_journal_page_first 9170
_journal_name_full 'J.Org.Chem. '
loop_
_publ_author_name
"F.Seeliger"
"S.T.A.Berger"
"G.Y.Remennikov"
"K.Polborn"
"H.Mayr"
_chemical_name_systematic
;
5-(1-(4-Methoxyphenyl)-2-nitropropyl)-1,3,5-trimethylpyrimidine-2,4,6(1H,3H,5H
)-trione
;
_cell_volume    896.567
_exptl_crystal_colour 'colorless'
_exptl_crystal_density_diffrn 1.346
_exptl_crystal_description 'parallelepiped'
_diffrn_ambient_temperature 295
#These two values have been output from a single CSD field.
_refine_ls_R_factor_gt 0.0409
_refine_ls_wR_factor_gt 0.0409
_symmetry_cell_setting triclinic
_symmetry_space_group_name_H-M 'P -1'
_symmetry_Int_Tables_number 2
loop_
_symmetry_equiv_pos_site_id
_symmetry_equiv_pos_as_xyz
1 x,y,z
2 -x,-y,-z
_cell_length_a 8.3157(10)
_cell_length_b 9.2369(14)
_cell_length_c 12.7478(17)
_cell_angle_alpha 80.999(12)
_cell_angle_beta 71.729(11)
_cell_angle_gamma 75.395(12)
_cell_formula_units_Z 2
loop_
_atom_type_symbol
_atom_type_radius_bond
C 0.68
H 0.23
N 0.68
O 0.68
loop_
_atom_site_label
_atom_site_type_symbol
_atom_site_fract_x
_atom_site_fract_y
_atom_site_fract_z
O1 O 0.8533(2) 0.2510(2) 0.45401(13)
O2 O 1.1368(3) 0.4503(2) 0.12225(17)
O3 O 0.9780(2) 0.01932(19) 0.12598(13)
O4 O 0.3432(3) 0.0973(3) 0.3867(2)
O5 O 0.3809(3) 0.1042(2) 0.2125(2)
O6 O 0.3834(3) 0.74119(19) 0.19907(15)
N1 N 0.9962(2) 0.3506(2) 0.28843(16)
N2 N 1.0491(2) 0.2383(2) 0.12331(14)
N3 N 0.4346(3) 0.0815(2) 0.2923(2)
C1 C 0.9102(3) 0.2444(2) 0.35483(17)
C2 C 1.0649(3) 0.3522(3) 0.1750(2)
C3 C 0.9760(3) 0.1203(2) 0.17722(17)
C4 C 0.8890(3) 0.1183(2) 0.30055(16)
C5 C 1.0180(4) 0.4694(4) 0.3443(3)
H1 H 1.06070 0.54560 0.28990
H2 H 1.09930 0.42700 0.38620
H3 H 0.90830 0.51300 0.39340
C6 C 1.1191(4) 0.2420(3) 0.00243(19)
H4 H 1.05500 0.19300 -0.02650
H5 H 1.23900 0.19100 -0.01690
H6 H 1.10920 0.34440 -0.02850
C7 C 0.9736(3) -0.0291(3) 0.35600(19)
H7 H 0.98240 -0.11160 0.31560
H8 H 0.90370 -0.04400 0.43100
H9 H 1.08730 -0.02340 0.35590
C8 C 0.6866(3) 0.1414(2) 0.32357(16)
H10 H 0.63720 0.12800 0.40410
C9 C 0.6291(3) 0.0282(3) 0.2734(2)
H11 H 0.68640 0.03130 0.19350
C10 C 0.6582(4) -0.1335(3) 0.3218(3)
H12 H 0.62740 -0.13640 0.40110
H13 H 0.77810 -0.18140 0.29370
H14 H 0.58740 -0.18530 0.30120
C11 C 0.6088(2) 0.3016(2) 0.28719(16)
C12 C 0.5115(3) 0.4039(3) 0.36459(17)
H15 H 0.49520 0.37370 0.43960
C13 C 0.4388(3) 0.5484(2) 0.33334(18)
H16 H 0.37460 0.61480 0.38690
C14 C 0.4608(3) 0.5954(2) 0.22241(19)
C15 C 0.5573(3) 0.4970(2) 0.14329(17)
H17 H 0.57390 0.52800 0.06840
C16 C 0.6291(3) 0.3519(2) 0.17647(17)
H18 H 0.69330 0.28580 0.12270
C17 C 0.3652(4) 0.7828(3) 0.0918(2)
H19 H 0.30530 0.88600 0.08700
H20 H 0.30010 0.72050 0.07640
H21 H 0.47790 0.77040 0.03870
#END
