
#######################################################################
#
#                 Cambridge Crystallographic Data Centre
#                                CCDC
#
#######################################################################
#
# If this CIF has been generated from an entry in the Cambridge
# Structural Database, then it will include bibliographic, chemical,
# crystal, experimental, refinement or atomic coordinate data resulting
# from the CCDC's data processing and validation procedures.
#
#######################################################################

data_CSD_CIF_RAVDAT
_audit_creation_date 1997-07-28
_audit_creation_method CSD-ConQuest-V1
_database_code_CSD RAVDAT
_chemical_formula_sum 'C25 H27 N2 O4'
_chemical_formula_moiety
;
C25 H27 N2 O4
;
_journal_coden_Cambridge 4
_journal_volume 119
_journal_year 1997
_journal_page_first 4136
_journal_name_full 'J.Am.Chem.Soc. '
loop_
_publ_author_name
"M.Crisma"
"G.Valle"
"F.Formaggio"
"C.Toniolo"
"A.Bagno"
_chemical_name_systematic
;
2,2,6,6-Tetramethyl-1-oxypiperidine-4-spiro-4'-(2-(fluorenylmethoxy)-5(4H)-oxa
zolone)
;
_cell_volume   2164.470
_exptl_crystal_colour 'red-orange'
_exptl_crystal_density_diffrn 1.287
_diffrn_ambient_temperature ?
_diffrn_special_details
;
The study was carried out at room temperature,in the range 283-303K

;
#These two values have been output from a single CSD field.
_refine_ls_R_factor_gt 0.054
_refine_ls_wR_factor_gt 0.054
_symmetry_cell_setting monoclinic
_symmetry_space_group_name_H-M 'P 21/n'
_symmetry_Int_Tables_number 14
loop_
_symmetry_equiv_pos_site_id
_symmetry_equiv_pos_as_xyz
1 x,y,z
2 1/2-x,1/2+y,1/2-z
3 -x,-y,-z
4 -1/2+x,-1/2-y,-1/2+z
_cell_length_a 8.266(1)
_cell_length_b 18.629(2)
_cell_length_c 14.216(2)
_cell_angle_alpha 90
_cell_angle_beta 98.6(1)
_cell_angle_gamma 90
_cell_formula_units_Z 4
loop_
_atom_type_symbol
_atom_type_radius_bond
C 0.68
H 0.23
N 0.68
O 0.68
loop_
_atom_site_label
_atom_site_type_symbol
_atom_site_fract_x
_atom_site_fract_y
_atom_site_fract_z
O1 O 0.3194(5) 0.3567(2) 0.1464(3)
O2 O -0.1050(4) 0.2511(3) -0.0267(3)
O3 O 0.0996(4) 0.3186(2) 0.0502(3)
O4 O 0.1854(5) -0.0165(2) 0.1755(3)
N1 N 0.2529(5) 0.2357(3) 0.1417(3)
N2 N 0.1563(5) 0.0476(3) 0.1464(3)
C1 C 0.6955(6) 0.3821(3) 0.1426(4)
C2 C 0.6440(8) 0.4245(4) 0.0644(5)
C3 C 0.7442(9) 0.4799(4) 0.0440(5)
C4 C 0.8899(9) 0.4937(4) 0.0990(5)
C5 C 0.9464(7) 0.4493(4) 0.1764(5)
C6 C 0.8453(6) 0.3945(4) 0.1982(4)
C7 C 0.8732(6) 0.3395(4) 0.2733(4)
C8 C 1.0057(7) 0.3267(5) 0.3417(5)
C9 C 0.9973(8) 0.2683(5) 0.4023(5)
C10 C 0.8622(7) 0.2237(4) 0.3941(4)
C11 C 0.7295(7) 0.2369(4) 0.3253(4)
C12 C 0.7333(6) 0.2955(4) 0.2644(4)
C13 C 0.6065(6) 0.3193(3) 0.1841(4)
C14 C 0.4518(6) 0.3425(3) 0.2228(4)
C15 C 0.2306(6) 0.2999(4) 0.1167(4)
C16 C 0.1121(5) 0.1969(3) 0.0887(3)
C17 C 0.1634(6) 0.1385(3) 0.0222(3)
C18 C 0.2505(6) 0.0742(3) 0.0710(3)
C19 C 0.4265(6) 0.0904(3) 0.1143(4)
C20 C 0.2478(8) 0.0144(3) -0.0026(4)
C21 C 0.0818(6) 0.0962(3) 0.2129(4)
C22 C -0.0561(8) 0.0545(3) 0.2489(4)
C23 C 0.2102(7) 0.1165(3) 0.2957(4)
C24 C 0.0043(6) 0.1612(3) 0.1548(4)
C25 C 0.0156(6) 0.2550(3) 0.0291(4)
H1 H 1.0994(8) 0.2577(5) 0.4573(5)
H2 H 0.5282(8) 0.4147(4) 0.0202(5)
H3 H 0.8609(7) 0.1784(4) 0.4415(4)
H4 H 0.2437(6) 0.1629(3) -0.0220(3)
H5 H 0.0542(6) 0.1195(3) -0.0221(3)
H6 H 0.9624(9) 0.5391(4) 0.0828(5)
H7 H 0.6236(7) 0.2023(4) 0.3187(4)
H8 H 0.4933(6) 0.1094(3) 0.0595(4)
H9 H 0.4834(6) 0.0421(3) 0.1456(4)
H10 H 0.4276(6) 0.1310(3) 0.1686(4)
H11 H 0.7056(9) 0.5131(4) -0.0175(5)
H12 H 0.3146(8) 0.0314(3) -0.0584(4)
H13 H 0.1228(8) 0.0027(3) -0.0326(4)
H14 H 0.3042(8) -0.0332(3) 0.0312(4)
H15 H 1.1128(7) 0.3606(5) 0.3484(5)
H16 H 0.5649(6) 0.2790(3) 0.1313(4)
H17 H -0.1124(8) 0.0879(3) 0.2970(4)
H18 H -0.0067(8) 0.0068(3) 0.2858(4)
H19 H -0.1465(8) 0.0394(3) 0.1893(4)
H20 H 1.0655(7) 0.4576(4) 0.2178(5)
H21 H 0.1567(7) 0.1514(3) 0.3434(4)
H22 H 0.3096(7) 0.1441(3) 0.2697(4)
H23 H 0.2563(7) 0.0686(3) 0.3334(4)
H24 H 0.4775(6) 0.3906(3) 0.2647(4)
H25 H -0.0253(6) 0.2013(3) 0.2044(4)
H26 H -0.1067(6) 0.1430(3) 0.1115(4)
H27 H 0.4153(6) 0.3002(3) 0.2672(4)
#END
