
#######################################################################
#
#                 Cambridge Crystallographic Data Centre
#                                CCDC
#
#######################################################################
#
# If this CIF has been generated from an entry in the Cambridge
# Structural Database, then it will include bibliographic, chemical,
# crystal, experimental, refinement or atomic coordinate data resulting
# from the CCDC's data processing and validation procedures.
#
#######################################################################

data_CSD_CIF_RAVNEH
_audit_creation_date 1997-07-29
_audit_creation_method CSD-ConQuest-V1
_database_code_CSD RAVNEH
_database_code_depnum_ccdc_archive 'CCDC 128693'
_chemical_formula_sum 'C12 H14 N2 O4'
_chemical_formula_moiety
;
C12 H14 N2 O4
;
_journal_coeditor_code "IUCr AB1426"
_journal_coden_Cambridge 591
_journal_volume 53
_journal_year 1997
_journal_page_first 744
_journal_name_full 'Acta Crystallogr.,Sect.C:Cryst.Struct.Commun. '
loop_
_publ_author_name
"A.R.Kennedy"
"A.I.Khalaf"
_chemical_name_systematic
;
N,N-Diacetyl-2,5-dimethyl-6-nitroaniline
;
_cell_volume   1290.387
_exptl_crystal_colour 'colorless'
_exptl_crystal_density_diffrn 1.288
_diffrn_ambient_temperature ?
_diffrn_special_details
;
The study was carried out at room temperature,in the range 283-303K

;
#These two values have been output from a single CSD field.
_refine_ls_R_factor_gt 0.0456
_refine_ls_wR_factor_gt 0.0456
_symmetry_cell_setting orthorhombic
_symmetry_space_group_name_H-M 'P 21 21 21'
_symmetry_Int_Tables_number 19
loop_
_symmetry_equiv_pos_site_id
_symmetry_equiv_pos_as_xyz
1 x,y,z
2 1/2-x,-y,1/2+z
3 1/2+x,1/2-y,-z
4 -x,1/2+y,1/2-z
_cell_length_a 12.231(2)
_cell_length_b 13.643(3)
_cell_length_c 7.733(3)
_cell_angle_alpha 90
_cell_angle_beta 90
_cell_angle_gamma 90
_cell_formula_units_Z 4
loop_
_atom_type_symbol
_atom_type_radius_bond
C 0.68
H 0.23
N 0.68
O 0.68
loop_
_atom_site_label
_atom_site_type_symbol
_atom_site_fract_x
_atom_site_fract_y
_atom_site_fract_z
O1 O 0.7667(2) 0.2440(2) 0.4446(3)
O2 O 0.8728(2) 0.0902(2) 0.8592(3)
O3 O 0.5350(2) 0.3286(2) 0.6157(5)
O4 O 0.5899(2) 0.2426(2) 0.8290(4)
N1 N 0.8108(2) 0.2278(2) 0.7238(3)
N2 N 0.5994(2) 0.3107(2) 0.7300(5)
C1 C 0.7982(3) 0.3327(2) 0.7404(4)
C2 C 0.8905(3) 0.3916(2) 0.7472(4)
C3 C 0.8739(3) 0.4916(2) 0.7717(5)
C4 C 0.7719(4) 0.5314(2) 0.7849(5)
C5 C 0.6781(3) 0.4750(2) 0.7690(4)
C6 C 0.6949(3) 0.3752(2) 0.7489(4)
C7 C 1.0039(3) 0.3493(3) 0.7323(6)
C8 C 0.5659(3) 0.5207(3) 0.7836(6)
C9 C 0.7897(3) 0.1892(2) 0.5594(5)
C10 C 0.7936(4) 0.0809(3) 0.5289(5)
C11 C 0.8394(3) 0.1724(3) 0.8717(5)
C12 C 0.8254(3) 0.2220(3) 1.0412(4)
H1 H 0.93640 0.53400 0.77950
H2 H 0.76490 0.60050 0.80580
H3 H 1.02420 0.31960 0.84010
H4 H 1.00520 0.30080 0.64240
H5 H 1.05470 0.40070 0.70490
H6 H 0.53440 0.52710 0.67050
H7 H 0.57200 0.58420 0.83610
H8 H 0.52000 0.47970 0.85370
H9 H 0.77130 0.06700 0.41240
H10 H 0.86690 0.05770 0.54640
H11 H 0.74530 0.04850 0.60820
H12 H 0.83460 0.17510 1.13270
H13 H 0.75350 0.25000 1.04780
H14 H 0.87910 0.27290 1.05270
#END
