
#######################################################################
#
#                 Cambridge Crystallographic Data Centre
#                                CCDC
#
#######################################################################
#
# If this CIF has been generated from an entry in the Cambridge
# Structural Database, then it will include bibliographic, chemical,
# crystal, experimental, refinement or atomic coordinate data resulting
# from the CCDC's data processing and validation procedures.
#
#######################################################################

data_CSD_CIF_RAVVES
_audit_creation_date 2017-05-31
_audit_creation_method CSD-ConQuest-V1
_database_code_CSD RAVVES
_database_code_depnum_ccdc_archive 'CCDC 1477202'
_chemical_formula_sum 'C15 H23 N1 O4'
_chemical_formula_moiety
;
C15 H23 N1 O4
;
_journal_coden_Cambridge 392
_journal_volume 92
_journal_year 2016
_journal_page_first 1479
_journal_name_full 'Heterocycles '
loop_
_publ_author_name
"T.Moriyama"
"T.Kawamoto"
"H.Uno"
"A.Kamimura"
_chemical_name_systematic
;
4-cyclohexyl-3-methyl-5-nitrobicyclo[3.1.0]hexan-2-yl acetate
;
_cell_volume    762.353
_exptl_crystal_colour 'colorless'
_exptl_crystal_density_diffrn 1.225
_exptl_crystal_description 'platelet'
_diffrn_ambient_temperature 110
#These two values have been output from a single CSD field.
_refine_ls_R_factor_gt 0.0306
_refine_ls_wR_factor_gt 0.0306
_symmetry_cell_setting monoclinic
_symmetry_space_group_name_H-M 'P 21'
_symmetry_Int_Tables_number 4
loop_
_symmetry_equiv_pos_site_id
_symmetry_equiv_pos_as_xyz
1 x,y,z
2 -x,1/2+y,-z
_cell_length_a 9.597(3)
_cell_length_b 7.453(2)
_cell_length_c 10.688(3)
_cell_angle_alpha 90
_cell_angle_beta 94.270(4)
_cell_angle_gamma 90
_cell_formula_units_Z 2
loop_
_atom_type_symbol
_atom_type_radius_bond
C 0.68
H 0.23
N 0.68
O 0.68
loop_
_atom_site_label
_atom_site_type_symbol
_atom_site_fract_x
_atom_site_fract_y
_atom_site_fract_z
O1 O 0.07543(12) 0.09729(16) 0.69658(11)
O2 O 0.00387(13) -0.15821(17) 0.78372(13)
O3 O 0.41211(14) 0.66323(18) 0.82109(13)
O4 O 0.24859(13) 0.64413(19) 0.67070(12)
N1 N 0.30710(15) 0.5918(2) 0.77009(14)
C1 C 0.10278(18) 0.3746(3) 0.80348(17)
H1 H 0.045(2) 0.427(3) 0.740(2)
C2 C 0.10006(18) 0.1745(2) 0.82148(15)
H2 H 0.0261(18) 0.141(3) 0.8726(17)
C3 C 0.24489(16) 0.1188(2) 0.88488(16)
H3 H 0.278(2) 0.014(3) 0.8360(19)
C4 C 0.34665(17) 0.2814(2) 0.87299(17)
H4 H 0.3956(18) 0.305(2) 0.9578(18)
C5 C 0.24947(19) 0.4369(2) 0.83492(17)
C6 C 0.1363(2) 0.4839(3) 0.92022(18)
H5 H 0.140(2) 0.429(3) 1.001(2)
H6 H 0.0982(19) 0.606(3) 0.9129(17)
C7 C 0.02527(18) -0.0720(3) 0.69149(18)
C8 C 0.0009(2) -0.1350(3) 0.5582(2)
H7 H -0.051(2) -0.046(3) 0.507(2)
H8 H -0.045(2) -0.245(3) 0.557(2)
H9 H 0.094(2) -0.151(3) 0.524(2)
C9 C 0.2364(2) 0.0554(3) 1.02029(18)
H10 H 0.196(2) 0.152(3) 1.072(2)
H11 H 0.332(2) 0.027(3) 1.062(2)
H12 H 0.174(2) -0.057(3) 1.025(2)
C10 C 0.46205(17) 0.2502(2) 0.78265(16)
H13 H 0.5133(19) 0.362(3) 0.7748(18)
C11 C 0.41054(19) 0.1945(3) 0.64857(17)
H14 H 0.364(2) 0.076(3) 0.6491(19)
H15 H 0.338(2) 0.275(3) 0.6129(19)
C12 C 0.53278(19) 0.1754(3) 0.56585(18)
H16 H 0.502(2) 0.130(3) 0.481(2)
H17 H 0.579(2) 0.297(3) 0.5590(19)
C13 C 0.6406(2) 0.0414(3) 0.6221(2)
H18 H 0.719(2) 0.039(3) 0.570(2)
H19 H 0.592(2) -0.075(3) 0.620(2)
C14 C 0.69157(19) 0.0946(3) 0.75604(17)
H20 H 0.760(2) 0.003(3) 0.795(2)
H21 H 0.745(2) 0.219(3) 0.756(2)
C15 C 0.56869(18) 0.1134(3) 0.83834(16)
H22 H 0.6028(18) 0.153(3) 0.9279(19)
H23 H 0.525(2) -0.006(3) 0.8466(19)
#END
