
#######################################################################
#
#                 Cambridge Crystallographic Data Centre
#                                CCDC
#
#######################################################################
#
# If this CIF has been generated from an entry in the Cambridge
# Structural Database, then it will include bibliographic, chemical,
# crystal, experimental, refinement or atomic coordinate data resulting
# from the CCDC's data processing and validation procedures.
#
#######################################################################

data_CSD_CIF_RAXRAL
_audit_creation_date 2012-11-29
_audit_creation_method CSD-ConQuest-V1
_database_code_CSD RAXRAL
_database_code_depnum_ccdc_archive 'CCDC 812526'
_chemical_formula_sum 'C13 H13 N3 O2'
_chemical_formula_moiety
;
C13 H13 N3 O2
;
_journal_coden_Cambridge 211
_journal_volume 65
_journal_year 2012
_journal_page_first 2192
_journal_name_full 'J.Coord.Chem. '
loop_
_publ_author_name
"H.Mutlu"
"G.Irez"
"A.T.Colak"
"F.Yilmaz"
_chemical_name_systematic
;
1-(2-(2-Furyl)-1,2,3,4-tetrahydroquinazolin-2-yl)-N-hydroxymethanimine
;
_cell_volume   2401.457
_exptl_crystal_colour 'colorless'
_exptl_crystal_density_diffrn 1.346
_exptl_crystal_description 'flat'
_diffrn_ambient_temperature 100
#These two values have been output from a single CSD field.
_refine_ls_R_factor_gt 0.0408
_refine_ls_wR_factor_gt 0.0408
_symmetry_cell_setting monoclinic
_symmetry_space_group_name_H-M 'C 2/c'
_symmetry_Int_Tables_number 15
loop_
_symmetry_equiv_pos_site_id
_symmetry_equiv_pos_as_xyz
1 x,y,z
2 -x,y,1/2-z
3 1/2+x,1/2+y,z
4 1/2-x,1/2+y,1/2-z
5 -x,-y,-z
6 x,-y,-1/2+z
7 -1/2-x,-1/2-y,-z
8 -1/2+x,-1/2-y,-1/2+z
_cell_length_a 21.0265(4)
_cell_length_b 7.6615(1)
_cell_length_c 15.0596(2)
_cell_angle_alpha 90
_cell_angle_beta 98.160(1)
_cell_angle_gamma 90
_cell_formula_units_Z 8
loop_
_atom_type_symbol
_atom_type_radius_bond
C 0.68
H 0.23
N 0.68
O 0.68
loop_
_atom_site_label
_atom_site_type_symbol
_atom_site_fract_x
_atom_site_fract_y
_atom_site_fract_z
O1 O 0.23836(5) 0.20988(12) 0.64500(6)
H1 H 0.22410 0.29980 0.61700
O2 O 0.40315(5) -0.10632(12) 0.86297(7)
N1 N 0.27066(5) 0.25750(14) 0.72936(7)
N2 N 0.33811(5) 0.32757(14) 0.89205(7)
N3 N 0.29615(5) 0.03909(14) 0.92362(7)
C1 C 0.29635(6) 0.12700(16) 0.77130(8)
H2 H 0.29340 0.01550 0.74350
C2 C 0.33171(6) 0.14653(16) 0.86530(8)
C3 C 0.34939(6) 0.36397(16) 0.98423(8)
C4 C 0.36442(6) 0.53493(17) 1.01328(8)
H3 H 0.36530 0.62590 0.97060
C5 C 0.37797(7) 0.57122(18) 1.10411(9)
H4 H 0.38780 0.68750 1.12330
C6 C 0.37737(6) 0.43944(18) 1.16750(9)
H5 H 0.38730 0.46460 1.22970
C7 C 0.46722(7) -0.1420(2) 0.86355(10)
H6 H 0.48490 -0.25580 0.86140
C8 C 0.39845(6) 0.07152(17) 0.86808(8)
C9 C 0.45675(7) 0.1456(2) 0.87078(10)
H7 H 0.46640 0.26680 0.87420
C10 C 0.50123(7) 0.0060(2) 0.86748(11)
H8 H 0.54630 0.01610 0.86800
C11 C 0.36205(6) 0.27105(17) 1.13867(8)
H9 H 0.36160 0.18080 1.18180
C12 C 0.34721(6) 0.23053(16) 1.04747(8)
C13 C 0.32801(6) 0.04743(16) 1.01742(8)
H10 H 0.36680 -0.02720 1.02390
H11 H 0.29860 -0.00030 1.05720
H12 H 0.2569(8) 0.084(2) 0.9200(11)
H13 H 0.3167(9) 0.404(2) 0.8581(12)
#END
