
#######################################################################
#
#                 Cambridge Crystallographic Data Centre
#                                CCDC
#
#######################################################################
#
# If this CIF has been generated from an entry in the Cambridge
# Structural Database, then it will include bibliographic, chemical,
# crystal, experimental, refinement or atomic coordinate data resulting
# from the CCDC's data processing and validation procedures.
#
#######################################################################

data_CSD_CIF_RAXWOD
_audit_creation_date 2006-03-15
_audit_creation_method CSD-ConQuest-V1
_database_code_CSD RAXWOD
_database_code_depnum_ccdc_archive 'CCDC 291214'
_chemical_formula_sum 'C25 H23 N3 O9'
_chemical_formula_moiety
;
C25 H23 N3 O9
;
_journal_coden_Cambridge 35
_journal_volume 70
_journal_year 2005
_journal_page_first 8508
_journal_name_full 'J.Org.Chem. '
loop_
_publ_author_name
"Zhiming Zhao"
"E.Duesler"
"Canhui Wang"
"Hua Guo"
"P.S.Mariano"
_chemical_name_systematic
;
1-Acetyl-1,2,3,4,5,7,8,8a-octahydrocyclopenta(b)azepine-7,8-diyl 
bis(4-nitrobenzoate)
;
_chemical_melting_point 484.15
_cell_volume   1199.526
_exptl_crystal_colour 'colorless'
_exptl_crystal_density_diffrn 1.411
_exptl_special_details
;
Melting point range 484.15-486.15K

;
_exptl_crystal_description 'prism'
_diffrn_ambient_temperature 292
#These two values have been output from a single CSD field.
_refine_ls_R_factor_gt 0.0431
_refine_ls_wR_factor_gt 0.0431
_symmetry_cell_setting triclinic
_symmetry_space_group_name_H-M 'P -1'
_symmetry_Int_Tables_number 2
loop_
_symmetry_equiv_pos_site_id
_symmetry_equiv_pos_as_xyz
1 x,y,z
2 -x,-y,-z
_cell_length_a 9.5136(13)
_cell_length_b 10.9065(9)
_cell_length_c 12.1105(16)
_cell_angle_alpha 74.844(7)
_cell_angle_beta 81.724(12)
_cell_angle_gamma 85.942(8)
_cell_formula_units_Z 2
loop_
_atom_type_symbol
_atom_type_radius_bond
C 0.68
H 0.23
N 0.68
O 0.68
loop_
_atom_site_label
_atom_site_type_symbol
_atom_site_fract_x
_atom_site_fract_y
_atom_site_fract_z
O1 O 0.14101(13) 0.85412(12) 0.2840(1)
O2 O 0.27252(14) 0.81090(16) 0.43100(13)
O3 O 0.26495(13) 0.62127(12) 0.29637(10)
O4 O 0.45939(19) 0.50637(16) 0.25560(13)
O5 O -0.4617(2) 0.9211(2) 0.63988(19)
O6 O -0.3576(2) 0.8422(3) 0.78795(18)
O7 O 0.14866(16) 0.21945(16) 0.83791(13)
O8 O 0.37080(18) 0.17416(18) 0.82947(14)
O9 O 0.07444(18) 0.46951(15) 0.15076(15)
N1 N 0.23388(15) 0.60727(14) 0.03760(12)
N2 N -0.3584(2) 0.8752(2) 0.68465(19)
N3 N 0.26824(18) 0.22818(16) 0.78667(15)
C1 C 0.2656(2) 0.84778(18) 0.19887(16)
H1 H 0.35030 0.88210 0.21560
C2 C 0.28989(18) 0.71197(17) 0.18620(15)
H2 H 0.38790 0.70080 0.15140
C3 C 0.18831(18) 0.70083(16) 0.10336(14)
H3 H 0.09480 0.67850 0.14730
C4 C 0.3449(2) 0.64304(19) -0.06105(15)
H4 H 0.39920 0.56720 -0.07140
H5 H 0.40930 0.69910 -0.04450
C5 C 0.2856(2) 0.7093(2) -0.17271(16)
H6 H 0.35800 0.70630 -0.23720
H7 H 0.20550 0.66260 -0.17950
C6 C 0.2376(2) 0.8462(2) -0.18141(16)
H8 H 0.19960 0.87970 -0.25390
H9 H 0.32020 0.89460 -0.18360
C7 C 0.1258(2) 0.86814(19) -0.08385(16)
H10 H 0.09340 0.95660 -0.10240
H11 H 0.04470 0.81680 -0.07860
C8 C 0.17956(18) 0.83615(17) 0.03061(15)
C9 C 0.2236(2) 0.91523(18) 0.08374(17)
H12 H 0.22790 1.00260 0.05290
C10 C 0.1596(2) 0.83180(18) 0.39499(16)
C11 C 0.02201(18) 0.83835(16) 0.46917(15)
C12 C -0.09629(19) 0.90006(17) 0.42304(16)
H13 H -0.09170 0.93350 0.34370
C13 C -0.2209(2) 0.91247(19) 0.49331(17)
H14 H -0.30020 0.95530 0.46280
C14 C -0.2247(2) 0.85981(19) 0.60986(17)
C15 C -0.1109(2) 0.7949(2) 0.65819(17)
H15 H -0.11780 0.75820 0.73720
C16 C 0.0142(2) 0.78524(19) 0.58701(16)
H16 H 0.09350 0.74300 0.61820
C17 C 0.3602(2) 0.52578(18) 0.32175(16)
C18 C 0.32995(18) 0.44904(16) 0.44349(15)
C19 C 0.20964(19) 0.46977(18) 0.51659(16)
H17 H 0.14290 0.53270 0.48920
C20 C 0.1875(2) 0.39831(18) 0.62949(17)
H18 H 0.10630 0.41130 0.67840
C21 C 0.29024(19) 0.30675(17) 0.66741(16)
C22 C 0.41079(19) 0.28495(18) 0.59771(17)
H19 H 0.47830 0.22320 0.62610
C23 C 0.4304(2) 0.35577(18) 0.48521(17)
H20 H 0.51130 0.34130 0.43660
C24 C 0.1683(2) 0.49520(19) 0.06819(19)
C25 C 0.2146(3) 0.4016(2) -0.0034(2)
H21 H 0.20880 0.44220 -0.08320
H22 H 0.15360 0.33040 0.02140
H23 H 0.31090 0.37270 0.00620
#END
