
#######################################################################
#
#                 Cambridge Crystallographic Data Centre
#                                CCDC
#
#######################################################################
#
# If this CIF has been generated from an entry in the Cambridge
# Structural Database, then it will include bibliographic, chemical,
# crystal, experimental, refinement or atomic coordinate data resulting
# from the CCDC's data processing and validation procedures.
#
#######################################################################

data_CSD_CIF_RAYXUK
_audit_creation_date 1997-08-26
_audit_creation_method CSD-ConQuest-V1
_database_code_CSD RAYXUK
_chemical_formula_sum 'C11 H8 N2 O5'
_chemical_formula_moiety
;
C11 H8 N2 O5
;
_journal_coden_Cambridge 151
_journal_volume 39
_journal_year 1996
_journal_page_first 4643
_journal_name_full 'J.Med.Chem. '
loop_
_publ_author_name
"A.P.Guzikowski"
"Sui Xiong Cai"
"S.A.Espitia"
"J.E.Hawkinson"
"J.E.Huettner"
"D.F.Nogales"
"M.Tran"
"R.M.Woodward"
"E.Weber"
"J.F.W.Keana"
_chemical_name_systematic
;
3-Methoxy-7-nitro-1H-1-benzazepine-2,5-dione
;
_chemical_melting_point 525.15
_cell_volume    547.092
_exptl_crystal_colour 'colorless'
_exptl_crystal_density_diffrn 1.506
_exptl_special_details
;
Melting point range 525.15-526.15K

;
_diffrn_ambient_temperature ?
_diffrn_special_details
;
The study was carried out at room temperature,in the range 283-303K

;
#These two values have been output from a single CSD field.
_refine_ls_R_factor_gt 0.047
_refine_ls_wR_factor_gt 0.047
_symmetry_cell_setting triclinic
_symmetry_space_group_name_H-M 'P -1'
_symmetry_Int_Tables_number 2
loop_
_symmetry_equiv_pos_site_id
_symmetry_equiv_pos_as_xyz
1 x,y,z
2 -x,-y,-z
_cell_length_a 3.880(2)
_cell_length_b 11.865(4)
_cell_length_c 11.956(3)
_cell_angle_alpha 87.90(2)
_cell_angle_beta 89.26(4)
_cell_angle_gamma 84.09(5)
_cell_formula_units_Z 2
loop_
_atom_type_symbol
_atom_type_radius_bond
C 0.68
H 0.23
N 0.68
O 0.68
loop_
_atom_site_label
_atom_site_type_symbol
_atom_site_fract_x
_atom_site_fract_y
_atom_site_fract_z
O1 O 0.3021(12) 0.0543(3) 0.3649(3)
O2 O -0.0294(10) 0.2408(3) 0.6893(3)
O3 O -0.4073(10) 0.4020(3) 0.5995(3)
O4 O 0.4601(15) 0.3552(5) -0.0523(4)
O5 O 0.6438(14) 0.1888(4) 0.0108(4)
N1 N -0.1746(11) 0.3890(3) 0.4288(4)
N2 N 0.4857(16) 0.2816(5) 0.0213(5)
C1 C 0.1736(13) 0.2462(4) 0.3166(4)
C2 C 0.3252(14) 0.2250(5) 0.2127(5)
C3 C 0.3173(16) 0.3075(6) 0.1304(5)
C4 C 0.1581(17) 0.4150(5) 0.1462(5)
C5 C 0.0045(15) 0.4373(4) 0.2462(5)
C6 C 0.0062(14) 0.3548(4) 0.3336(4)
C7 C 0.2090(14) 0.1493(5) 0.3983(5)
C8 C 0.1627(14) 0.1593(4) 0.5181(5)
C9 C 0.0001(14) 0.2426(4) 0.5776(5)
C10 C -0.2115(14) 0.3489(4) 0.5349(5)
C11 C 0.1543(16) 0.1484(5) 0.7533(5)
H1 H -0.30900 0.45980 0.41630
H2 H 0.43640 0.15160 0.19880
H3 H 0.15620 0.47210 0.08820
H4 H -0.10790 0.51100 0.25780
H5 H 0.26450 0.09630 0.56160
H6 H 0.08870 0.16200 0.84090
H7 H 0.14130 0.07090 0.73870
H8 H 0.42700 0.13950 0.72470
#END
