
#######################################################################
#
#                 Cambridge Crystallographic Data Centre
#                                CCDC
#
#######################################################################
#
# If this CIF has been generated from an entry in the Cambridge
# Structural Database, then it will include bibliographic, chemical,
# crystal, experimental, refinement or atomic coordinate data resulting
# from the CCDC's data processing and validation procedures.
#
#######################################################################

data_CSD_CIF_RAZVUK
_audit_creation_date 2006-03-15
_audit_creation_method CSD-ConQuest-V1
_database_code_CSD RAZVUK
_database_code_depnum_ccdc_archive 'CCDC 278077'
_chemical_formula_sum 'C15 H16 N4 O3'
_chemical_formula_moiety
;
C15 H16 N4 O3
;
_journal_coden_Cambridge 154
_journal_volume 58
_journal_year 2005
_journal_page_first 722
_journal_name_full 'Aust.J.Chem. '
loop_
_publ_author_name
"M.G.Banwell"
"D.W.Lupton"
"A.C.Willis"
_chemical_name_systematic
;
(6aSR,9aSR,9bSR)-9a-(2-Nitrophenyl)-4,5,6,6a,7,8,9a,9b-octahydro-9H-1,2,3-tria
zolo[4,5,1-ij]quinolin-9-one
;
_cell_volume   1391.181
_exptl_crystal_colour 'yellow'
_exptl_crystal_density_diffrn 1.434
_exptl_special_details
;
unstable

;
_exptl_crystal_description 'block'
_exptl_crystal_preparation 'chloroform'
_diffrn_ambient_temperature 200
#These two values have been output from a single CSD field.
_refine_ls_R_factor_gt 0.033
_refine_ls_wR_factor_gt 0.033
_symmetry_cell_setting monoclinic
_symmetry_space_group_name_H-M 'P 21/c'
_symmetry_Int_Tables_number 14
loop_
_symmetry_equiv_pos_site_id
_symmetry_equiv_pos_as_xyz
1 x,y,z
2 -x,1/2+y,1/2-z
3 -x,-y,-z
4 x,-1/2-y,-1/2+z
_cell_length_a 9.9614(2)
_cell_length_b 10.5183(2)
_cell_length_c 13.8393(3)
_cell_angle_alpha 90
_cell_angle_beta 106.3808(13)
_cell_angle_gamma 90
_cell_formula_units_Z 4
loop_
_atom_type_symbol
_atom_type_radius_bond
C 0.68
H 0.23
N 0.68
O 0.68
loop_
_atom_site_label
_atom_site_type_symbol
_atom_site_fract_x
_atom_site_fract_y
_atom_site_fract_z
O1 O 0.68791(11) 0.3272(1) 0.30944(7)
O2 O 0.4840(1) 0.30993(9) 0.43748(8)
O3 O 0.35481(12) 0.20968(12) 0.3084(1)
N1 N 0.9244(1) 0.25014(11) 0.48817(8)
N2 N 0.99396(11) 0.25743(11) 0.58003(8)
N3 N 0.91480(11) 0.2686(1) 0.64252(7)
N4 N 0.45951(12) 0.21815(11) 0.38015(9)
C1 C 0.97827(16) 0.30792(15) 0.7466(1)
C2 C 0.94926(17) 0.44770(15) 0.76005(11)
C3 C 0.79465(16) 0.47699(14) 0.71510(11)
C4 C 0.74160(14) 0.44333(12) 0.6028(1)
C5 C 0.80509(16) 0.52598(13) 0.53630(11)
C6 C 0.73311(17) 0.50000(13) 0.42567(11)
C7 C 0.72275(13) 0.36130(12) 0.39672(9)
C8 C 0.76906(12) 0.26100(11) 0.48042(9)
C9 C 0.76907(12) 0.30185(12) 0.58794(8)
C10 C 0.70049(13) 0.13187(11) 0.45092(8)
C11 C 0.55903(13) 0.11229(12) 0.40077(9)
C12 C 0.50268(15) -0.00628(13) 0.3697(1)
C13 C 0.58748(16) -0.11244(14) 0.39238(11)
C14 C 0.72656(15) -0.09830(13) 0.44574(11)
C15 C 0.78202(14) 0.02215(12) 0.4731(1)
H1 H 1.0787(18) 0.2875(15) 0.7617(12)
H2 H 0.9367(17) 0.2549(16) 0.7889(12)
H3 H 0.9793(17) 0.4663(16) 0.8337(13)
H4 H 1.0094(18) 0.5016(17) 0.7298(13)
H5 H 0.7764(17) 0.5676(18) 0.7241(12)
H6 H 0.7394(17) 0.4255(16) 0.7519(12)
H7 H 0.6377(16) 0.4560(14) 0.5801(11)
H8 H 0.9110(17) 0.5095(15) 0.5526(12)
H9 H 0.7964(17) 0.6161(16) 0.5515(11)
H10 H 0.7803(17) 0.5454(16) 0.3805(12)
H11 H 0.6340(18) 0.5288(16) 0.4080(12)
H12 H 0.7055(15) 0.2484(14) 0.615(1)
H13 H 0.4048(18) -0.0147(15) 0.3309(12)
H14 H 0.5469(18) -0.1977(17) 0.3692(12)
H15 H 0.7894(18) -0.1716(16) 0.4642(12)
H16 H 0.8832(17) 0.0323(15) 0.5074(11)
#END
