
#######################################################################
#
#                 Cambridge Crystallographic Data Centre
#                                CCDC
#
#######################################################################
#
# If this CIF has been generated from an entry in the Cambridge
# Structural Database, then it will include bibliographic, chemical,
# crystal, experimental, refinement or atomic coordinate data resulting
# from the CCDC's data processing and validation procedures.
#
#######################################################################

data_CSD_CIF_RAZZEX
_audit_creation_date 1997-08-26
_audit_creation_method CSD-ConQuest-V1
_database_code_CSD RAZZEX
_chemical_formula_sum 'C20 H24 N2 O7'
_chemical_formula_moiety
;
C20 H24 N2 O7
;
_journal_coden_Cambridge 24
_journal_volume 37
_journal_year 1996
_journal_page_first 8035
_journal_name_full 'Tetrahedron Lett. '
loop_
_publ_author_name
"R.H.B.Galt"
"P.B.Hitchcock"
"S.J.McCarthy"
"D.W.Young"
_chemical_name_systematic
;
11-Methyl-2,5-dioxa-3-(4-nitrobenzylmethoxycarbonyl)bicyclo(9.3.0)tetradecan-1
4-en-4-one
;
_cell_volume   1962.920
_exptl_crystal_density_diffrn 1.37
_diffrn_ambient_temperature ?
_diffrn_special_details
;
The study was carried out at room temperature,in the range 283-303K

;
#These two values have been output from a single CSD field.
_refine_ls_R_factor_gt 0.05
_refine_ls_wR_factor_gt 0.05
_symmetry_cell_setting monoclinic
_symmetry_space_group_name_H-M 'P 21/c'
_symmetry_Int_Tables_number 14
loop_
_symmetry_equiv_pos_site_id
_symmetry_equiv_pos_as_xyz
1 x,y,z
2 -x,1/2+y,1/2-z
3 -x,-y,-z
4 x,-1/2-y,-1/2+z
_cell_length_a 11.916(4)
_cell_length_b 8.420(2)
_cell_length_c 20.259(4)
_cell_angle_alpha 90
_cell_angle_beta 105.05(2)
_cell_angle_gamma 90
_cell_formula_units_Z 4
loop_
_atom_type_symbol
_atom_type_radius_bond
C 0.68
H 0.23
N 0.68
O 0.68
loop_
_atom_site_label
_atom_site_type_symbol
_atom_site_fract_x
_atom_site_fract_y
_atom_site_fract_z
O1 O 0.3044(3) -0.7843(3) -0.1660(1)
O2 O 0.2135(2) -0.7611(2) -0.2709(1)
O3 O 0.1559(1) -0.0405(1) -0.0962(1)
O4 O 0.0298(1) 0.1579(2) -0.1018(1)
O5 O 0.2911(1) 0.1507(1) 0.0040(1)
O6 O 0.0283(1) 0.2150(2) 0.0511(1)
O7 O 0.1745(1) 0.3716(1) 0.0420(1)
N1 N 0.2464(2) -0.7091(2) -0.2135(1)
N2 N 0.3535(1) 0.0475(2) 0.1128(1)
C1 C 0.2113(2) -0.5485(2) -0.2005(1)
C2 C 0.2036(2) -0.5114(2) -0.1356(1)
C3 C 0.1654(2) -0.3625(2) -0.1243(1)
C4 C 0.1392(1) -0.2512(2) -0.1763(1)
C5 C 0.1498(2) -0.2921(2) -0.2405(1)
C6 C 0.1854(2) -0.4420(2) -0.2534(1)
C7 C 0.0963(2) -0.0895(2) -0.1646(1)
C8 C 0.1102(1) 0.0816(2) -0.0713(1)
C9 C 0.1751(1) 0.1080(2) 0.0033(1)
C10 C 0.1166(1) 0.2370(2) 0.0351(1)
C11 C 0.1386(2) 0.5012(2) 0.0801(1)
C12 C 0.2299(2) 0.6280(2) 0.0884(1)
C13 C 0.3401(2) 0.6008(2) 0.1447(1)
C14 C 0.3983(2) 0.4389(2) 0.1456(1)
C15 C 0.4490(2) 0.4055(2) 0.0856(1)
C16 C 0.4799(1) 0.2300(2) 0.0766(1)
C17 C 0.3700(1) 0.1331(2) 0.0653(1)
C18 C 0.4593(2) 0.0600(3) 0.1698(1)
C19 C 0.5501(2) 0.1506(2) 0.1428(1)
C20 C 0.5374(2) 0.2168(3) 0.0181(1)
H1 H 0.2236(2) -0.5852(2) -0.1003(1)
H2 H 0.1572(2) -0.3361(2) -0.0813(1)
H3 H 0.1326(2) -0.2174(2) -0.2755(1)
H4 H 0.1917(2) -0.4700(2) -0.2967(1)
H5 H 0.1120(2) -0.0151(2) -0.1977(1)
H6 H 0.0131(2) -0.0922(2) -0.1697(1)
H7 H 0.1761(1) 0.0088(2) 0.0287(1)
H8 H 0.1329(2) 0.4642(2) 0.1244(1)
H9 H 0.0635(2) 0.5423(2) 0.0552(1)
H10 H 0.1961(2) 0.7281(2) 0.0970(1)
H11 H 0.2510(2) 0.6386(2) 0.0454(1)
H12 H 0.3220(2) 0.6158(2) 0.1883(1)
H13 H 0.3959(2) 0.6820(2) 0.1410(1)
H14 H 0.4600(2) 0.4303(2) 0.1875(1)
H15 H 0.3415(2) 0.3572(2) 0.1469(1)
H16 H 0.5188(2) 0.4690(2) 0.0910(1)
H17 H 0.3937(2) 0.4404(2) 0.0441(1)
H18 H 0.4880(2) -0.0449(3) 0.1853(1)
H19 H 0.4426(2) 0.1167(3) 0.2078(1)
H20 H 0.6076(2) 0.0784(2) 0.1335(1)
H21 H 0.5893(2) 0.2296(2) 0.1756(1)
H22 H 0.6065(2) 0.2805(3) 0.0280(1)
H23 H 0.4846(2) 0.2535(3) -0.0234(1)
H24 H 0.5573(2) 0.1079(3) 0.0127(1)
#END
