
#######################################################################
#
#                 Cambridge Crystallographic Data Centre
#                                CCDC
#
#######################################################################
#
# If this CIF has been generated from an entry in the Cambridge
# Structural Database, then it will include bibliographic, chemical,
# crystal, experimental, refinement or atomic coordinate data resulting
# from the CCDC's data processing and validation procedures.
#
#######################################################################

data_CSD_CIF_REBDOS
_audit_creation_date 2006-03-15
_audit_creation_method CSD-ConQuest-V1
_database_code_CSD REBDOS
_database_code_depnum_ccdc_archive 'CCDC 298370'
_chemical_formula_sum 'C12 H11 N3 O3'
_chemical_formula_moiety
;
C12 H11 N3 O3
;
_journal_coeditor_code "IUCr BT6785"
_journal_coden_Cambridge 1370
_journal_volume 62
_journal_year 2006
_journal_page_first o595
_journal_name_full 'Acta Crystallogr.,Sect.E:Struct.Rep.Online '
loop_
_publ_author_name
"L.Alvarez-Thon"
"C.Bustos"
"E.Schott"
"C.Sanchez"
"A.Ibanez"
_chemical_name_systematic
;
2-((E)-(3,5-Dimethylisoxazol-4-yl)diazenyl)benzoic acid
;
_cell_volume   1165.008
_exptl_crystal_colour 'orange'
_exptl_crystal_density_diffrn 1.398
_exptl_crystal_description 'polyhedron'
_exptl_crystal_preparation 'n-hexane/chloroform'
_diffrn_ambient_temperature 298
#These two values have been output from a single CSD field.
_refine_ls_R_factor_gt 0.0434
_refine_ls_wR_factor_gt 0.0434
_symmetry_cell_setting orthorhombic
_symmetry_space_group_name_H-M 'P 21 21 21'
_symmetry_Int_Tables_number 19
loop_
_symmetry_equiv_pos_site_id
_symmetry_equiv_pos_as_xyz
1 x,y,z
2 1/2-x,-y,1/2+z
3 1/2+x,1/2-y,-z
4 -x,1/2+y,1/2-z
_cell_length_a 7.355(1)
_cell_length_b 11.6182(15)
_cell_length_c 13.6335(17)
_cell_angle_alpha 90
_cell_angle_beta 90
_cell_angle_gamma 90
_cell_formula_units_Z 4
loop_
_atom_type_symbol
_atom_type_radius_bond
C 0.68
H 0.23
N 0.68
O 0.68
loop_
_atom_site_label
_atom_site_type_symbol
_atom_site_fract_x
_atom_site_fract_y
_atom_site_fract_z
O1 O -0.0456(3) 0.43833(14) 0.58562(13)
O2 O 0.0666(4) 0.60320(17) 0.53653(15)
O3 O 0.1131(3) -0.07335(15) 0.66792(15)
N1 N 0.1334(3) 0.2583(2) 0.51087(15)
N2 N 0.0938(3) 0.15464(18) 0.49671(15)
N3 N 0.1450(3) 0.0195(2) 0.73388(16)
C1 C 0.1269(4) 0.3258(2) 0.42316(19)
C2 C 0.1738(4) 0.2786(2) 0.3325(2)
C3 C 0.1851(4) 0.3466(3) 0.2505(2)
C4 C 0.1504(4) 0.4629(3) 0.2576(2)
C5 C 0.1059(4) 0.5106(2) 0.34606(19)
C6 C 0.0931(4) 0.4433(2) 0.42999(19)
C7 C 0.0404(4) 0.5038(2) 0.5224(2)
C8 C 0.1733(4) 0.2247(2) 0.73059(19)
C9 C 0.1443(4) 0.1129(2) 0.6812(2)
C10 C 0.1099(4) 0.0867(2) 0.5813(2)
C11 C 0.0908(4) -0.0285(2) 0.5772(2)
C12 C 0.0560(5) -0.1113(2) 0.4975(2)
H1 H -0.07080 0.47610 0.63460
H2 H 0.19760 0.20020 0.32770
H3 H 0.21600 0.31430 0.19040
H4 H 0.15730 0.50900 0.20200
H5 H 0.08380 0.58930 0.35010
H6 H 0.16880 0.21400 0.80040
H7 H 0.07990 0.27770 0.71100
H8 H 0.29000 0.25500 0.71250
H9 H 0.14570 -0.17130 0.49950
H10 H 0.06260 -0.07240 0.43550
H11 H -0.06280 -0.14420 0.50550
#END
