
#######################################################################
#
#                 Cambridge Crystallographic Data Centre
#                                CCDC
#
#######################################################################
#
# If this CIF has been generated from an entry in the Cambridge
# Structural Database, then it will include bibliographic, chemical,
# crystal, experimental, refinement or atomic coordinate data resulting
# from the CCDC's data processing and validation procedures.
#
#######################################################################

data_CSD_CIF_REBHOW
_audit_creation_date 2006-03-15
_audit_creation_method CSD-ConQuest-V1
_database_code_CSD REBHOW
_database_code_depnum_ccdc_archive 'CCDC 298387'
_chemical_formula_sum 'C14 H11 N3 O2'
_chemical_formula_moiety
;
C14 H11 N3 O2
;
_journal_coeditor_code "IUCr CF6487"
_journal_coden_Cambridge 1370
_journal_volume 62
_journal_year 2006
_journal_page_first o582
_journal_name_full 'Acta Crystallogr.,Sect.E:Struct.Rep.Online '
loop_
_publ_author_name
"Xue-Mei Li"
"Li-Ping Du"
"Jun Yang"
"Shu-Sheng Zhang"
_chemical_name_systematic
;
2-(3-Methyl-2-nitrophenyl)benzimidazole
;
_cell_volume   1258.488
_exptl_crystal_colour 'yellow'
_exptl_crystal_density_diffrn 1.337
_exptl_crystal_description 'plate'
_exptl_crystal_preparation 'THF'
_diffrn_ambient_temperature 293
#These two values have been output from a single CSD field.
_refine_ls_R_factor_gt 0.0577
_refine_ls_wR_factor_gt 0.0577
_symmetry_cell_setting monoclinic
_symmetry_space_group_name_H-M 'P 21/c'
_symmetry_Int_Tables_number 14
loop_
_symmetry_equiv_pos_site_id
_symmetry_equiv_pos_as_xyz
1 x,y,z
2 -x,1/2+y,1/2-z
3 -x,-y,-z
4 x,-1/2-y,-1/2+z
_cell_length_a 7.755(1)
_cell_length_b 17.229(2)
_cell_length_c 9.7792(12)
_cell_angle_alpha 90
_cell_angle_beta 105.598(2)
_cell_angle_gamma 90
_cell_formula_units_Z 4
loop_
_atom_type_symbol
_atom_type_radius_bond
C 0.68
H 0.23
N 0.68
O 0.68
loop_
_atom_site_label
_atom_site_type_symbol
_atom_site_fract_x
_atom_site_fract_y
_atom_site_fract_z
O1 O 0.1315(3) 0.93223(13) 0.6428(2)
O2 O 0.3049(3) 0.93405(12) 0.8565(3)
N1 N 0.2419(3) 0.75972(11) 0.76393(18)
N2 N 0.2373(3) 0.71427(10) 0.97512(18)
H1 H 0.20380 0.70800 1.05140
N3 N 0.1622(3) 0.92207(11) 0.7707(3)
C1 C 0.3741(3) 0.70340(12) 0.8063(2)
C2 C 0.4948(4) 0.67434(15) 0.7374(3)
H2 H 0.49590 0.69210 0.64790
C3 C 0.6129(4) 0.61833(16) 0.8060(3)
H3 H 0.69490 0.59780 0.76180
C4 C 0.6125(5) 0.59179(17) 0.9398(3)
H4 H 0.69530 0.55430 0.98360
C5 C 0.4936(4) 0.61916(15) 1.0088(3)
H5 H 0.49350 0.60110 1.09840
C6 C 0.3732(4) 0.67509(12) 0.9395(2)
C7 C 0.1657(3) 0.76448(12) 0.8688(2)
C8 C 0.0210(3) 0.81823(14) 0.8751(2)
C9 C -0.1178(4) 0.79537(18) 0.9311(3)
H6 H -0.12020 0.74530 0.96590
C10 C -0.2530(4) 0.8477(2) 0.9350(3)
H7 H -0.34570 0.83190 0.97230
C11 C -0.2523(4) 0.9218(2) 0.8851(3)
H8 H -0.34450 0.95540 0.88910
C12 C -0.1177(3) 0.94750(17) 0.8290(3)
C13 C 0.0146(3) 0.89396(14) 0.8251(2)
C14 C -0.1166(4) 1.02973(17) 0.7793(3)
H9 H -0.01430 1.03780 0.74350
H10 H -0.11080 1.06440 0.85730
H11 H -0.22400 1.03970 0.70540
#END
