
#######################################################################
#
#                 Cambridge Crystallographic Data Centre
#                                CCDC
#
#######################################################################
#
# If this CIF has been generated from an entry in the Cambridge
# Structural Database, then it will include bibliographic, chemical,
# crystal, experimental, refinement or atomic coordinate data resulting
# from the CCDC's data processing and validation procedures.
#
#######################################################################

data_CSD_CIF_REBNUK
_audit_creation_date 2017-06-02
_audit_creation_method CSD-ConQuest-V1
_database_code_CSD REBNUK
_database_code_depnum_ccdc_archive 'CCDC 1042138'
_chemical_formula_sum 'C4 H5 N7 O7'
_chemical_formula_moiety
;
C4 H5 N7 O7
;
_journal_coden_Cambridge 440
_journal_volume 41
_journal_year 2017
_journal_page_first 4797
_journal_name_full 'New J.Chem. '
loop_
_publ_author_name
"Qiong Yu"
"Guangbin Cheng"
"Xuehai Ju"
"Chunxu Lu"
"Hongwei Yang"
_chemical_name_systematic
;
N^3^-(2,2,2-trinitroethyl)-1,2,4-oxadiazole-3,5-diamine
;
_cell_volume    946.805
_exptl_crystal_colour 'colorless'
_exptl_crystal_density_diffrn 1.846
_exptl_crystal_description 'column'
_diffrn_ambient_temperature 173
#These two values have been output from a single CSD field.
_refine_ls_R_factor_gt 0.0498
_refine_ls_wR_factor_gt 0.0498
_symmetry_cell_setting monoclinic
_symmetry_space_group_name_H-M 'P 21/c'
_symmetry_Int_Tables_number 14
loop_
_symmetry_equiv_pos_site_id
_symmetry_equiv_pos_as_xyz
1 x,y,z
2 -x,1/2+y,1/2-z
3 -x,-y,-z
4 x,-1/2-y,-1/2+z
_cell_length_a 8.8179(15)
_cell_length_b 9.2863(16)
_cell_length_c 11.802(2)
_cell_angle_alpha 90
_cell_angle_beta 101.562(4)
_cell_angle_gamma 90
_cell_formula_units_Z 4
loop_
_atom_type_symbol
_atom_type_radius_bond
C 0.68
H 0.23
N 0.68
O 0.68
loop_
_atom_site_label
_atom_site_type_symbol
_atom_site_fract_x
_atom_site_fract_y
_atom_site_fract_z
C1 C 0.5675(3) 0.3206(3) 0.6162(3)
C2 C 0.7235(3) 0.2410(3) 0.5212(3)
C3 C 0.4104(3) 0.3897(3) 0.7545(3)
H1 H 0.41180 0.49030 0.78240
H2 H 0.49450 0.33680 0.80610
C4 C 0.2552(3) 0.3210(3) 0.7619(3)
N1 N 0.6572(3) 0.2395(3) 0.6935(2)
N2 N 0.6032(3) 0.3281(3) 0.5090(2)
N3 N 0.4397(3) 0.3889(3) 0.6390(2)
H3 H 0.409(3) 0.466(3) 0.597(2)
N4 N 0.1165(3) 0.4183(3) 0.7174(3)
N5 N 0.2263(3) 0.1826(3) 0.6931(2)
N6 N 0.2482(3) 0.2835(3) 0.8857(2)
N7 N 0.8044(3) 0.2045(3) 0.4424(2)
H4 H 0.875(3) 0.144(3) 0.460(3)
H5 H 0.774(3) 0.226(3) 0.372(3)
O1 O 0.7669(2) 0.1845(2) 0.62765(18)
O2 O 0.1281(2) 0.4957(3) 0.6373(2)
O3 O 0.0074(2) 0.4096(3) 0.7670(2)
O4 O 0.1039(2) 0.1691(2) 0.62384(19)
O5 O 0.3306(2) 0.0951(2) 0.71376(19)
O6 O 0.1918(3) 0.1695(3) 0.9053(2)
O7 O 0.3030(3) 0.3763(3) 0.9560(2)
#END
