
#######################################################################
#
#                 Cambridge Crystallographic Data Centre
#                                CCDC
#
#######################################################################
#
# If this CIF has been generated from an entry in the Cambridge
# Structural Database, then it will include bibliographic, chemical,
# crystal, experimental, refinement or atomic coordinate data resulting
# from the CCDC's data processing and validation procedures.
#
#######################################################################

data_CSD_CIF_REBNUK01
_audit_creation_date 2017-08-31
_audit_creation_method CSD-ConQuest-V1
_database_code_CSD REBNUK01
_database_code_depnum_ccdc_archive 'CCDC 1530454'
_chemical_formula_sum 'C4 H5 N7 O7'
_chemical_formula_moiety
;
C4 H5 N7 O7
;
_journal_coden_Cambridge 1678
_journal_volume 53
_journal_year 2017
_journal_page_first 737
_journal_name_full 'Chemistry of Heterocyclic Compounds '
loop_
_publ_author_name
"D.E.Chavez"
"M.C.Schulze"
"D.A.Parrish"
_chemical_name_systematic
;
N^3^-(2,2,2-trinitroethyl)-1,2,4-oxadiazole-3,5-diamine
;
_cell_volume    942.070
_exptl_crystal_colour 'colorless'
_exptl_crystal_density_diffrn 1.855
_exptl_crystal_description 'plate'
_diffrn_ambient_temperature 150
#These two values have been output from a single CSD field.
_refine_ls_R_factor_gt 0.0363
_refine_ls_wR_factor_gt 0.0363
_symmetry_cell_setting monoclinic
_symmetry_space_group_name_H-M 'P 21/c'
_symmetry_Int_Tables_number 14
loop_
_symmetry_equiv_pos_site_id
_symmetry_equiv_pos_as_xyz
1 x,y,z
2 -x,1/2+y,1/2-z
3 -x,-y,-z
4 x,-1/2-y,-1/2+z
_cell_length_a 8.8068(8)
_cell_length_b 9.2631(9)
_cell_length_c 11.7896(12)
_cell_angle_alpha 90
_cell_angle_beta 101.618(5)
_cell_angle_gamma 90
_cell_formula_units_Z 4
loop_
_atom_type_symbol
_atom_type_radius_bond
C 0.68
H 0.23
N 0.68
O 0.68
loop_
_atom_site_label
_atom_site_type_symbol
_atom_site_fract_x
_atom_site_fract_y
_atom_site_fract_z
O1 O 1.26731(12) 0.18383(11) 0.12754(9)
N1 N 1.15798(14) 0.23912(14) 0.19383(11)
C1 C 1.06740(16) 0.31995(15) 0.11656(13)
N2 N 1.10413(14) 0.32734(13) 0.00935(11)
C2 C 1.22494(16) 0.24068(16) 0.02112(13)
N3 N 0.93992(14) 0.38920(14) 0.13921(11)
H1 H 0.907(2) 0.464(2) 0.0952(17)
C3 C 0.91051(16) 0.39003(16) 0.25485(13)
H2 H 0.91170 0.49100 0.28260
H3 H 0.99480 0.33730 0.30670
C4 C 0.75515(18) 0.32091(15) 0.26220(13)
N4 N 0.72578(14) 0.18174(13) 0.19263(11)
O2 O 0.60344(12) 0.16951(12) 0.12411(10)
O3 O 0.83022(13) 0.09489(12) 0.21414(10)
N5 N 0.74936(15) 0.28379(15) 0.38651(12)
O4 O 0.69172(15) 0.17012(14) 0.40591(11)
O5 O 0.80371(14) 0.37632(13) 0.45673(10)
N6 N 0.61639(14) 0.41882(14) 0.21865(11)
O6 O 0.50744(13) 0.40992(13) 0.26724(11)
O7 O 0.62809(13) 0.49613(13) 0.13797(10)
N7 N 1.30434(15) 0.20286(14) -0.05762(11)
H4 H 1.27810 0.23680 -0.12860
H5 H 1.38360 0.14360 -0.03930
#END
