
#######################################################################
#
#                 Cambridge Crystallographic Data Centre
#                                CCDC
#
#######################################################################
#
# If this CIF has been generated from an entry in the Cambridge
# Structural Database, then it will include bibliographic, chemical,
# crystal, experimental, refinement or atomic coordinate data resulting
# from the CCDC's data processing and validation procedures.
#
#######################################################################

data_CSD_CIF_REBQAR
_audit_creation_date 2006-06-05
_audit_creation_method CSD-ConQuest-V1
_database_code_CSD REBQAR
_database_code_depnum_ccdc_archive 'CCDC 282325'
_chemical_formula_sum 'C17 H25 N1 O5'
_chemical_formula_moiety
;
C17 H25 N1 O5
;
_journal_coden_Cambridge 1336
_journal_volume 7
_journal_year 2005
_journal_page_first 5617
_journal_name_full 'Org.Lett. '
loop_
_publ_author_name
"S.E.Denmark"
"R.Y.Baiazitov"
_chemical_name_systematic
;
(1R*,4aS*,7R*,8aR*)-3-Oxo-8a-(3-methoxypropyl)-4a,7,ethano-1-(2-methylprop-1-e
nyl)-8,8a-dihydropyrano[3,4-d][1,2]oxazin-5(1H,4aH,7H)-one
;
_chemical_name_common
;
(+/-)-6-(3-Methoxypropyl)-5-(2-methylprop-1-en-1-yl)-4,9-dioxa-3-azatricyclo[6
.2.2.0$1,6!]dodec-2-en-10-one 3-oxide; 
6-(3-methoxypropyl)-5-(2-methylprop-1-en-1-yl)-4,9-dioxa-3-azatricyclo[6.2.2.0
$1,6!]dodec-2-en-10-one 3-oxide
;
_chemical_melting_point 423.15
_cell_volume   1616.230
_exptl_crystal_colour 'colorless'
_exptl_crystal_density_diffrn 1.329
_exptl_special_details
;
Melting point range 423.15-428.15K

;
_exptl_crystal_description 'columnar'
_exptl_crystal_preparation 'ethyl acetate'
_diffrn_ambient_temperature 193
#These two values have been output from a single CSD field.
_refine_ls_R_factor_gt 0.0409
_refine_ls_wR_factor_gt 0.0409
loop_
_citation_database_id_CSD
_citation_special_details
XEGDUJ "is a stereoisomer of this entry"
_symmetry_cell_setting monoclinic
_symmetry_space_group_name_H-M 'P 21/n'
_symmetry_Int_Tables_number 14
loop_
_symmetry_equiv_pos_site_id
_symmetry_equiv_pos_as_xyz
1 x,y,z
2 1/2-x,1/2+y,1/2-z
3 -x,-y,-z
4 -1/2+x,-1/2-y,-1/2+z
_cell_length_a 10.5451(4)
_cell_length_b 14.2808(6)
_cell_length_c 10.7325(4)
_cell_angle_alpha 90
_cell_angle_beta 90.125(2)
_cell_angle_gamma 90
_cell_formula_units_Z 4
loop_
_atom_type_symbol
_atom_type_radius_bond
C 0.68
H 0.23
N 0.68
O 0.68
loop_
_atom_site_label
_atom_site_type_symbol
_atom_site_fract_x
_atom_site_fract_y
_atom_site_fract_z
C1 C 0.09961(13) -0.07243(10) 0.34630(12)
H1 H 0.02070 -0.10290 0.33270
C2 C 0.12953(12) 0.00977(9) 0.26685(12)
C3 C 0.16002(12) -0.02241(11) 0.13321(13)
C4 C 0.18860(13) 0.13999(10) 0.11875(12)
H2 H 0.21280 0.18990 0.05790
C5 C 0.28464(13) 0.13702(9) 0.22393(12)
H3 H 0.29410 0.20020 0.26070
H4 H 0.36820 0.11720 0.19130
C6 C 0.23985(11) 0.06757(9) 0.32464(11)
C7 C 0.34343(12) -0.00343(9) 0.36248(12)
H5 H 0.41550 0.03290 0.39930
C8 C 0.39669(13) -0.06403(9) 0.26151(12)
H6 H 0.34420 -0.11400 0.23390
C9 C 0.50908(12) -0.05618(9) 0.20582(12)
C10 C 0.60704(13) 0.01663(10) 0.23413(14)
H7 H 0.58040 0.05320 0.30670
H8 H 0.61660 0.05830 0.16220
H9 H 0.68830 -0.01390 0.25200
C11 C 0.54581(14) -0.12334(10) 0.10458(13)
H10 H 0.62280 -0.15710 0.12930
H11 H 0.56180 -0.08860 0.02740
H12 H 0.47680 -0.16820 0.09090
C12 C 0.01159(12) 0.07275(10) 0.24425(13)
H13 H -0.05560 0.03670 0.20110
H14 H -0.02250 0.09540 0.32470
C13 C 0.05360(13) 0.15647(10) 0.16307(13)
H15 H -0.00380 0.16290 0.09050
H16 H 0.04950 0.21500 0.21230
C14 C 0.19283(12) 0.11997(9) 0.44208(11)
H17 H 0.12820 0.16630 0.41590
H18 H 0.15030 0.07420 0.49720
C15 C 0.29429(13) 0.17097(10) 0.51802(13)
H19 H 0.35180 0.12440 0.55660
H20 H 0.34540 0.21090 0.46180
C16 C 0.23630(14) 0.23117(10) 0.61885(12)
H21 H 0.30340 0.26750 0.66180
H22 H 0.17530 0.27580 0.58160
C17 C 0.11391(14) 0.22524(11) 0.80189(13)
H23 H 0.17740 0.26460 0.84330
H24 H 0.07600 0.18260 0.86290
H25 H 0.04770 0.26500 0.76570
N1 N 0.17249(11) -0.10572(8) 0.43248(11)
O1 O 0.29223(9) -0.06352(7) 0.46095(8)
O2 O 0.15097(10) -0.17322(7) 0.50440(9)
O3 O 0.18979(9) 0.04841(7) 0.05637(8)
O4 O 0.15057(9) -0.10138(7) 0.09388(8)
O5 O 0.17301(8) 0.17221(6) 0.70573(8)
#END
