
#######################################################################
#
#                 Cambridge Crystallographic Data Centre
#                                CCDC
#
#######################################################################
#
# If this CIF has been generated from an entry in the Cambridge
# Structural Database, then it will include bibliographic, chemical,
# crystal, experimental, refinement or atomic coordinate data resulting
# from the CCDC's data processing and validation procedures.
#
#######################################################################

data_CSD_CIF_REBTEY
_audit_creation_date 2006-06-13
_audit_creation_method CSD-ConQuest-V1
_database_code_CSD REBTEY
_database_code_depnum_ccdc_archive 'CCDC 605216'
_chemical_formula_sum 'C14 H10 N4 O4'
_chemical_formula_moiety
;
C14 H10 N4 O4
;
_journal_coeditor_code "IUCr XU2005"
_journal_coden_Cambridge 1370
_journal_volume 62
_journal_year 2006
_journal_page_first o1399
_journal_name_full 'Acta Crystallogr.,Sect.E:Struct.Rep.Online '
loop_
_publ_author_name
"J.N.Low"
"J.M.S.Skakle"
"J.L.Wardell"
"C.Glidewell"
_chemical_name_systematic
;
(E,E)-1,4-bis(3-Nitrophenyl)-2,3-diazabuta-1,3-diene
;
_cell_volume    662.896
_exptl_crystal_colour 'yellow'
_exptl_special_details
;
Authors describe this compound as (E,E)-1-(3-iodophenyl)- 
4-(3-nitrophenyl)-2,3-diazabuta-1, 3-diene, but suppression of the the minor 
occupancy I atom generates by symmetry the structure shown
;
_exptl_crystal_description 'plate'
_exptl_crystal_preparation '1,2-dichloroethane'
_diffrn_ambient_temperature 120
_refine_special_details
;
The nitro group has mixed occupancy iodo in the ratio 0.587:0.413 giving a 
sum formula. C14 H10 I0.82 N3.18 O2.34.
;
#These two values have been output from a single CSD field.
_refine_ls_R_factor_gt 0.054
_refine_ls_wR_factor_gt 0.054
_symmetry_cell_setting monoclinic
_symmetry_space_group_name_H-M 'P 21/c'
_symmetry_Int_Tables_number 14
loop_
_symmetry_equiv_pos_site_id
_symmetry_equiv_pos_as_xyz
1 x,y,z
2 -x,1/2+y,1/2-z
3 -x,-y,-z
4 x,-1/2-y,-1/2+z
_cell_length_a 3.8044(2)
_cell_length_b 15.0015(11)
_cell_length_c 11.6159(8)
_cell_angle_alpha 90
_cell_angle_beta 90.658(4)
_cell_angle_gamma 90
_cell_formula_units_Z 2
loop_
_atom_type_symbol
_atom_type_radius_bond
C 0.68
H 0.23
I 1.40
N 0.68
O 0.68
loop_
_atom_site_label
_atom_site_type_symbol
_atom_site_fract_x
_atom_site_fract_y
_atom_site_fract_z
C1 C 0.7504(11) 0.6384(3) 0.6679(4)
C2 C 0.6444(11) 0.7182(3) 0.6152(4)
C3 C 0.6967(12) 0.7970(3) 0.6740(4)
C4 C 0.8539(12) 0.8002(3) 0.7837(4)
C5 C 0.9582(12) 0.7212(3) 0.8335(4)
C6 C 0.9090(11) 0.6408(3) 0.7761(4)
C7 C 0.6901(12) 0.5521(3) 0.6116(4)
N1 N 0.5144(10) 0.5455(2) 0.5176(3)
I1? I 0.5582(3) 0.91975(8) 0.58541(9)
N2 N 0.583(2) 0.8814(8) 0.6238(9)
O1 O 0.6258(19) 0.9487(4) 0.6818(6)
O2 O 0.462(2) 0.8768(5) 0.5263(6)
H1 H 0.53890 0.71800 0.54070
H2 H 0.88740 0.85530 0.82250
H3 H 1.06490 0.72160 0.90780
H4 H 0.98480 0.58680 0.81130
H5 H 0.78450 0.49970 0.64590
C1B C 0.2496(11) 0.3616(3) 0.3321(4)
C2B C 0.3556(11) 0.2818(3) 0.3848(4)
C3B C 0.3033(12) 0.2030(3) 0.3260(4)
C4B C 0.1461(12) 0.1998(3) 0.2163(4)
C5B C 0.0418(12) 0.2788(3) 0.1665(4)
C6B C 0.0910(11) 0.3592(3) 0.2239(4)
C7B C 0.3099(12) 0.4479(3) 0.3884(4)
N1B N 0.4856(10) 0.4545(2) 0.4824(3)
N2B N 0.417(2) 0.1186(8) 0.3762(9)
O1B O 0.3742(19) 0.0513(4) 0.3182(6)
O2B O 0.538(2) 0.1232(5) 0.4737(6)
H1B H 0.46110 0.28200 0.45930
H2B H 0.11260 0.14470 0.17750
H3B H -0.06490 0.27840 0.09220
H4B H 0.01520 0.41320 0.18870
H5B H 0.21550 0.50030 0.35410
#END
