
#######################################################################
#
#                 Cambridge Crystallographic Data Centre
#                                CCDC
#
#######################################################################
#
# If this CIF has been generated from an entry in the Cambridge
# Structural Database, then it will include bibliographic, chemical,
# crystal, experimental, refinement or atomic coordinate data resulting
# from the CCDC's data processing and validation procedures.
#
#######################################################################

data_CSD_CIF_REDLUK
_audit_creation_date 2017-10-10
_audit_creation_method CSD-ConQuest-V1
_database_code_CSD REDLUK
_database_code_depnum_ccdc_archive 'CCDC 1545077'
_chemical_formula_sum 'C19 H18 N2 O4'
_chemical_formula_moiety
;
C19 H18 N2 O4
;
_journal_coden_Cambridge 1011
_journal_volume 130
_journal_year 2017
_journal_page_first 182
_journal_name_full 'Polymer '
loop_
_publ_author_name
"M.A.Abdulhamid"
"Xiaohua Ma"
"Xiaohe Miao"
"Ingo Pinnau"
_chemical_name_systematic
;
2,8-dimethyl-3,9-dinitro-5,6,11,12-tetrahydro-5,11-methanodibenzo[a,e][8]annul
ene
;
_chemical_name_common
;
Dinitro-psuedo Troger's base
;
_cell_volume    789.567
_exptl_crystal_colour 'yellow'
_exptl_crystal_density_diffrn 1.423
_exptl_crystal_description 'block'
_diffrn_ambient_temperature 170
#These two values have been output from a single CSD field.
_refine_ls_R_factor_gt 0.1062
_refine_ls_wR_factor_gt 0.1062
_symmetry_cell_setting triclinic
_symmetry_space_group_name_H-M 'P -1'
_symmetry_Int_Tables_number 2
loop_
_symmetry_equiv_pos_site_id
_symmetry_equiv_pos_as_xyz
1 x,y,z
2 -x,-y,-z
_cell_length_a 5.591(3)
_cell_length_b 11.329(7)
_cell_length_c 13.432(8)
_cell_angle_alpha 75.68(2)
_cell_angle_beta 78.085(19)
_cell_angle_gamma 75.828(18)
_cell_formula_units_Z 2
loop_
_atom_type_symbol
_atom_type_radius_bond
C 0.68
H 0.23
N 0.68
O 0.68
loop_
_atom_site_label
_atom_site_type_symbol
_atom_site_fract_x
_atom_site_fract_y
_atom_site_fract_z
C1 C 0.2074(5) 0.1345(2) 0.1745(2)
O1 O 0.3907(5) 0.6540(3) 0.0386(2)
C2 C 0.1202(4) 0.1017(2) 0.2807(2)
N1 N 0.3621(4) 0.6511(2) 0.1303(2)
C3 C 0.2694(5) 0.0062(2) 0.3412(2)
H1 H 0.21490 -0.01650 0.41380
C4 C 0.0644(5) 0.2436(3) 0.1055(2)
H2 H -0.02340 0.21250 0.06360
H3 H 0.18320 0.29130 0.05700
C5 C 0.0170(4) 0.3650(2) 0.3253(2)
C6 C 0.4337(5) 0.0670(2) 0.1319(2)
H4 H 0.48670 0.08860 0.05910
C7 C 0.4953(5) -0.0559(2) 0.2975(2)
N2 N 0.6430(4) -0.1512(2) 0.3697(2)
C8 C 0.0030(4) 0.3976(2) 0.2194(2)
O2 O 0.5827(4) -0.1543(3) 0.4609(2)
C9 C -0.2859(5) 0.2498(3) 0.2500(2)
H5 H -0.34570 0.19590 0.21670
H6 H -0.43310 0.30340 0.28300
C10 C 0.1173(5) 0.4934(2) 0.1589(2)
H7 H 0.11290 0.51610 0.08620
C11 C 0.2372(5) 0.5559(2) 0.2030(2)
C12 C 0.5855(5) -0.0300(2) 0.1904(2)
C13 C -0.0864(5) 0.2562(3) 0.3945(2)
H8 H -0.24710 0.28750 0.43620
H9 H 0.03110 0.20870 0.44330
C14 C 0.1325(5) 0.4327(2) 0.3681(2)
H10 H 0.13430 0.41130 0.44100
O3 O 0.8132(6) -0.2262(3) 0.3367(3)
C15 C 0.2451(5) 0.5301(2) 0.3093(2)
C16 C -0.1259(5) 0.3299(2) 0.1688(2)
H11 H -0.23460 0.39250 0.12150
C17 C -0.1272(5) 0.1703(2) 0.3314(2)
H12 H -0.22080 0.10780 0.37860
C18 C 0.8275(5) -0.0937(3) 0.1373(3)
H13 H 0.82890 -0.18260 0.14820
H14 H 0.96600 -0.08280 0.16630
H15 H 0.84630 -0.05730 0.06260
O4 O 0.4230(7) 0.7273(3) 0.1627(3)
C19 C 0.3709(5) 0.5932(3) 0.3632(3)
H16 H 0.54850 0.58350 0.33370
H17 H 0.35330 0.55550 0.43760
H18 H 0.29330 0.68190 0.35340
#END
