
#######################################################################
#
#                 Cambridge Crystallographic Data Centre
#                                CCDC
#
#######################################################################
#
# If this CIF has been generated from an entry in the Cambridge
# Structural Database, then it will include bibliographic, chemical,
# crystal, experimental, refinement or atomic coordinate data resulting
# from the CCDC's data processing and validation procedures.
#
#######################################################################

data_CSD_CIF_REFXUV02
_audit_creation_date 2012-06-19
_audit_creation_method CSD-ConQuest-V1
_database_code_CSD REFXUV02
_database_code_depnum_ccdc_archive 'CCDC 878772'
_chemical_formula_sum 'C14 H17 N4 O2'
_chemical_formula_moiety
;
C14 H17 N4 O2
;
_journal_coden_Cambridge 4
_journal_volume 134
_journal_year 2012
_journal_page_first 3825
_journal_name_full 'J.Am.Chem.Soc. '
loop_
_publ_author_name
"G.Seber"
"R.S.Freitas"
"J.T.Mague"
"A.Paduan-Filho"
"X.Gratens"
"V.Bindilatti"
"N.F.Oliveira Junior"
"N.Yoshioka"
"P.M.Lahti"
_chemical_name_systematic
;
2-(benzimidazol-2-yl)-4,4,5,5-tetramethyl-4,5-dihydro-1H-imidazole-3-oxide-1-o
xyl
;
_cell_volume   2651.347
_exptl_crystal_colour 'blue'
_exptl_crystal_density_diffrn 1.369
_exptl_crystal_description 'slat'
_diffrn_ambient_temperature 100
_diffrn_special_details
;
twin

;
#These two values have been output from a single CSD field.
_refine_ls_R_factor_gt 0.0401
_refine_ls_wR_factor_gt 0.0401
_symmetry_cell_setting orthorhombic
_symmetry_space_group_name_H-M 'P b c a'
_symmetry_Int_Tables_number 61
loop_
_symmetry_equiv_pos_site_id
_symmetry_equiv_pos_as_xyz
1 x,y,z
2 1/2-x,-y,1/2+z
3 -x,1/2+y,1/2-z
4 1/2+x,1/2-y,-z
5 -x,-y,-z
6 -1/2+x,y,-1/2-z
7 x,-1/2-y,-1/2+z
8 -1/2-x,-1/2+y,z
_cell_length_a 8.6236(6)
_cell_length_b 15.2101(10)
_cell_length_c 20.2137(13)
_cell_angle_alpha 90
_cell_angle_beta 90
_cell_angle_gamma 90
_cell_formula_units_Z 8
loop_
_atom_type_symbol
_atom_type_radius_bond
C 0.68
H 0.23
N 0.68
O 0.68
loop_
_atom_site_label
_atom_site_type_symbol
_atom_site_fract_x
_atom_site_fract_y
_atom_site_fract_z
O1 O 0.21123(10) 0.12718(6) 0.12992(4)
O2 O 0.53669(11) 0.26990(6) 0.27671(4)
N1 N 0.30650(12) 0.18302(7) 0.15464(5)
N2 N 0.46095(12) 0.25143(7) 0.22434(5)
N3 N 0.17877(12) 0.08575(7) 0.27336(5)
N4 N 0.40237(12) 0.11773(7) 0.32602(5)
H1 H 0.501(2) 0.1330(12) 0.3307(9)
C1 C 0.06438(14) -0.00260(8) 0.36704(6)
H2 H -0.03020 -0.01660 0.34530
C2 C 0.09396(15) -0.03106(8) 0.43068(6)
H3 H 0.01820 -0.06560 0.45280
C3 C 0.23306(15) -0.01039(8) 0.46375(6)
H4 H 0.24840 -0.03080 0.50770
C4 C 0.34784(15) 0.03902(8) 0.43362(6)
H5 H 0.44200 0.05300 0.45560
C5 C 0.31787(14) 0.06726(8) 0.36901(6)
C6 C 0.17887(14) 0.04771(8) 0.33559(6)
C7 C 0.31444(14) 0.12641(8) 0.27038(6)
C8 C 0.36153(14) 0.18396(8) 0.21674(6)
C9 C 0.36672(15) 0.25812(8) 0.11359(6)
C10 C 0.22625(16) 0.31034(9) 0.09013(7)
H6 H 0.15940 0.27240 0.06320
H7 H 0.26100 0.36050 0.06350
H8 H 0.16800 0.33170 0.12850
C11 C 0.44970(18) 0.21892(10) 0.05382(7)
H9 H 0.53340 0.18020 0.06890
H10 H 0.49330 0.26640 0.02680
H11 H 0.37570 0.18500 0.02730
C12 C 0.47399(14) 0.30783(8) 0.16368(6)
C13 C 0.41693(18) 0.39929(9) 0.18348(7)
H12 H 0.31190 0.39490 0.20170
H13 H 0.41580 0.43760 0.14450
H14 H 0.48660 0.42410 0.21700
C14 C 0.64521(16) 0.31107(10) 0.14469(7)
H15 H 0.70500 0.33700 0.18100
H16 H 0.65790 0.34700 0.10480
H17 H 0.68260 0.25130 0.13600
#END
