
#######################################################################
#
#                 Cambridge Crystallographic Data Centre
#                                CCDC
#
#######################################################################
#
# If this CIF has been generated from an entry in the Cambridge
# Structural Database, then it will include bibliographic, chemical,
# crystal, experimental, refinement or atomic coordinate data resulting
# from the CCDC's data processing and validation procedures.
#
#######################################################################

data_CSD_CIF_REFXUV
_audit_creation_date 1997-09-01
_audit_creation_method CSD-ConQuest-V1
_database_code_CSD REFXUV
_database_code_depnum_ccdc_archive 'CCDC 115569'
_chemical_formula_sum 'C14 H17 N4 O2'
_chemical_formula_moiety
;
C14 H17 N4 O2
;
_journal_coden_Cambridge 241
_journal_year 1997
_journal_page_first 251
_journal_name_full 'Chem.Lett. '
loop_
_publ_author_name
"N.Yoshioka"
"M.Irisawa"
"Y.Mochizuki"
"T.Kato"
"H.Inoue"
"S.Ohba"
_chemical_name_systematic
;
2-(Benzimidazol-2-yl)-4,4,5,5-tetramethylimidazoline-1-oxyl-3-oxide
;
_chemical_melting_point 490.15
_cell_volume   2732.428
_exptl_crystal_colour 'black'
_exptl_crystal_density_diffrn 1.329
_exptl_special_details
;
Melting point range 490.15-492.15K

;
_diffrn_ambient_temperature ?
_diffrn_special_details
;
The study was carried out at room temperature,in the range 283-303K

;
#These two values have been output from a single CSD field.
_refine_ls_R_factor_gt 0.083
_refine_ls_wR_factor_gt 0.083
_symmetry_cell_setting orthorhombic
_symmetry_space_group_name_H-M 'P b c a'
_symmetry_Int_Tables_number 61
loop_
_symmetry_equiv_pos_site_id
_symmetry_equiv_pos_as_xyz
1 x,y,z
2 1/2-x,-y,1/2+z
3 1/2+x,1/2-y,-z
4 -x,1/2+y,1/2-z
5 -x,-y,-z
6 -1/2+x,y,-1/2-z
7 -1/2-x,-1/2+y,z
8 x,-1/2-y,-1/2+z
_cell_length_a 15.545(4)
_cell_length_b 20.107(3)
_cell_length_c 8.742(3)
_cell_angle_alpha 90
_cell_angle_beta 90
_cell_angle_gamma 90
_cell_formula_units_Z 8
loop_
_atom_type_symbol
_atom_type_radius_bond
C 0.68
H 0.23
N 0.68
O 0.68
loop_
_atom_site_label
_atom_site_type_symbol
_atom_site_fract_x
_atom_site_fract_y
_atom_site_fract_z
O1 O 0.871(1) 0.3723(9) 0.794(2)
O2 O 0.731(1) 0.225(1) 0.475(2)
N1 N 0.816(2) 0.348(1) 0.700(2)
N2 N 0.749(2) 0.279(1) 0.551(2)
N3 N 0.882(1) 0.175(1) 0.602(2)
N4 N 0.914(1) 0.228(1) 0.823(3)
C1 C 0.817(2) 0.284(1) 0.647(3)
C2 C 0.740(2) 0.389(1) 0.643(3)
C3 C 0.692(2) 0.339(1) 0.537(3)
C4 C 0.782(2) 0.448(2) 0.559(4)
C5 C 0.693(2) 0.413(2) 0.780(4)
C6 C 0.689(2) 0.358(2) 0.366(4)
C7 C 0.604(2) 0.318(2) 0.589(4)
C8 C 0.871(2) 0.232(1) 0.688(3)
C9 C 0.932(2) 0.131(2) 0.681(3)
C10 C 0.950(2) 0.166(2) 0.817(4)
C11 C 1.000(2) 0.134(2) 0.929(3)
C12 C 1.029(2) 0.072(1) 0.899(3)
C13 C 1.010(2) 0.037(1) 0.761(4)
C14 C 0.960(2) 0.067(1) 0.652(3)
H1 H 0.85780 0.16711 0.50168
H2 H 0.73470 0.47467 0.52327
H3 H 0.81520 0.43207 0.47487
H4 H 0.81820 0.47397 0.62527
H5 H 0.64584 0.43956 0.74336
H6 H 0.73084 0.43956 0.84136
H7 H 0.67194 0.37656 0.83956
H8 H 0.65259 0.39648 0.35737
H9 H 0.66729 0.32198 0.30697
H10 H 0.74639 0.36868 0.33137
H11 H 0.56742 0.35579 0.58061
H12 H 0.60812 0.30329 0.69381
H13 H 0.58322 0.28159 0.52791
H14 H 1.01362 0.15585 1.02333
H15 H 1.06407 0.04993 0.97325
H16 H 1.03045 -0.00762 0.74606
H17 H 0.94934 0.04575 0.55534
#END
