
#######################################################################
#
#                 Cambridge Crystallographic Data Centre
#                                CCDC
#
#######################################################################
#
# If this CIF has been generated from an entry in the Cambridge
# Structural Database, then it will include bibliographic, chemical,
# crystal, experimental, refinement or atomic coordinate data resulting
# from the CCDC's data processing and validation procedures.
#
#######################################################################

data_CSD_CIF_REGKOE
_audit_creation_date 2006-06-21
_audit_creation_method CSD-ConQuest-V1
_database_code_CSD REGKOE
_database_code_depnum_ccdc_archive 'CCDC 263000'
_chemical_formula_sum 'C10 H17 N1 O2'
_chemical_formula_moiety
;
C10 H17 N1 O2
;
_journal_coden_Cambridge 371
_journal_year 2005
_journal_page_first 83
_journal_name_full 'Khim.Prir.Soedin(Russ.)(Chem.Nat.Compd.) '
loop_
_publ_author_name
"A.T.Sadyrbekov"
"G.A.Atazhanova"
"A.T.Kulyyasov"
"V.A.Raldugin"
"I.Yu.Bagryanskaya"
"Yu.V.Gatilov"
"T.T.Edil'baeva"
"K.M.Turdybekov"
"S.M.Adekenov"
_chemical_name_systematic
;
3,3,6-Trimethyl-4,5,6,7-tetrahydro-3a-hydroxy-3H-benzo(c)isoxazole
;
_chemical_melting_point 138
_cell_volume   1031.991
_exptl_crystal_colour 'colorless'
_exptl_crystal_density_diffrn 1.179
_exptl_special_details
;
Melting point range 138-139.5K

;
_exptl_crystal_preparation 'ethanol'
_diffrn_ambient_temperature 295
#These two values have been output from a single CSD field.
_refine_ls_R_factor_gt 0.0366
_refine_ls_wR_factor_gt 0.0366
_symmetry_cell_setting orthorhombic
_symmetry_space_group_name_H-M 'P 21 21 21'
_symmetry_Int_Tables_number 19
loop_
_symmetry_equiv_pos_site_id
_symmetry_equiv_pos_as_xyz
1 x,y,z
2 1/2-x,-y,1/2+z
3 -x,1/2+y,1/2-z
4 1/2+x,1/2-y,-z
_cell_length_a 5.7560(12)
_cell_length_b 10.811(2)
_cell_length_c 16.584(3)
_cell_angle_alpha 90
_cell_angle_beta 90
_cell_angle_gamma 90
_cell_formula_units_Z 4
loop_
_atom_type_symbol
_atom_type_radius_bond
C 0.68
H 0.23
N 0.68
O 0.68
loop_
_atom_site_label
_atom_site_type_symbol
_atom_site_fract_x
_atom_site_fract_y
_atom_site_fract_z
O1 O 0.8195(3) 0.31492(16) 0.25373(11)
N1 N 0.3047(3) 0.27331(19) 0.21593(12)
O2 O 0.4105(3) 0.27488(17) 0.13901(10)
C1 C 0.6868(3) 0.2075(2) 0.23441(13)
C2 C 0.4491(3) 0.2355(2) 0.26805(14)
C3 C 0.7902(5) 0.0927(2) 0.27345(17)
C4 C 0.4978(5) 0.0998(3) 0.38681(18)
C5 C 0.4002(5) 0.2231(3) 0.35545(16)
C6 C 0.6231(4) 0.2005(2) 0.14336(14)
C7 C 0.7527(5) 0.0918(3) 0.36444(18)
C8 C 0.7979(5) 0.2587(3) 0.08745(17)
C9 C 0.5550(7) 0.0712(3) 0.1162(2)
C10 C 0.4563(8) 0.0873(5) 0.4771(2)
H1 H 0.965(6) 0.301(3) 0.2389(16)
H2 H 0.720(7) 0.017(3) 0.2507(15)
H3 H 0.954(5) 0.087(2) 0.2603(16)
H4 H 0.420(6) 0.035(3) 0.3584(17)
H5 H 0.486(4) 0.291(2) 0.3825(14)
H6 H 0.242(5) 0.226(3) 0.3664(15)
H7 H 0.835(5) 0.161(3) 0.3887(17)
H8 H 0.820(6) 0.019(3) 0.3869(17)
H9 H 0.749(6) 0.255(3) 0.0308(17)
H10 H 0.833(6) 0.343(3) 0.1005(17)
H11 H 0.953(6) 0.211(3) 0.0903(17)
H12 H 0.498(7) 0.072(3) 0.066(2)
H13 H 0.688(5) 0.019(2) 0.1184(16)
H14 H 0.425(8) 0.037(4) 0.156(2)
H15 H 0.288(7) 0.092(3) 0.4897(18)
H16 H 0.540(7) 0.156(4) 0.506(2)
H17 H 0.534(7) 0.001(4) 0.497(2)
#END
