
#######################################################################
#
#                 Cambridge Crystallographic Data Centre
#                                CCDC
#
#######################################################################
#
# If this CIF has been generated from an entry in the Cambridge
# Structural Database, then it will include bibliographic, chemical,
# crystal, experimental, refinement or atomic coordinate data resulting
# from the CCDC's data processing and validation procedures.
#
#######################################################################

data_CSD_CIF_REGMAS
_audit_creation_date 2006-06-21
_audit_creation_method CSD-ConQuest-V1
_database_code_CSD REGMAS
_database_code_depnum_ccdc_archive 'CCDC 606565'
_chemical_formula_sum 'C28 H45 N1 O3'
_chemical_formula_moiety
;
C28 H45 N1 O3
;
_journal_coden_Cambridge 444
_journal_volume 75
_journal_year 2005
_journal_page_first 1345
_journal_name_full 'Zh.Obshch.Khim.(Russ.)(Russ.J.Gen.Chem.) '
loop_
_publ_author_name
"R.P.Litvinovskaya"
"M.A.Aver'kova"
"A.S.Lyakhov"
"N.V.Koval'"
"A.V.Baranovskii"
"V.A.Khripach"
_chemical_name_systematic
;
(4'R,5'R,22R)-22-Hydroxy-22-(3',4'-dimethylisoxazolin-5'-yl)-6\b-methoxy-3\a,5
-cyclo-23,24-dinorcholane
;
_cell_volume   2555.431
_exptl_crystal_colour 'colorless'
_exptl_crystal_density_diffrn 1.153
_exptl_crystal_description 'prism'
_exptl_crystal_preparation 'methanol'
_diffrn_ambient_temperature 295
#These two values have been output from a single CSD field.
_refine_ls_R_factor_gt 0.0677
_refine_ls_wR_factor_gt 0.0677
_symmetry_cell_setting monoclinic
_symmetry_space_group_name_H-M 'C 2'
_symmetry_Int_Tables_number 5
loop_
_symmetry_equiv_pos_site_id
_symmetry_equiv_pos_as_xyz
1 x,y,z
2 -x,y,-z
3 1/2+x,1/2+y,z
4 1/2-x,1/2+y,-z
_cell_length_a 19.649(7)
_cell_length_b 7.680(2)
_cell_length_c 17.254(6)
_cell_angle_alpha 90
_cell_angle_beta 101.05(3)
_cell_angle_gamma 90
_cell_formula_units_Z 4
loop_
_atom_type_symbol
_atom_type_radius_bond
C 0.68
H 0.23
N 0.68
O 0.68
loop_
_atom_site_label
_atom_site_type_symbol
_atom_site_fract_x
_atom_site_fract_y
_atom_site_fract_z
C1 C 0.7132(3) 0.8912(10) 0.6489(3)
H1 H 0.73100 0.93340 0.60370
H2 H 0.70240 0.99050 0.67900
C2 C 0.7663(3) 0.7749(13) 0.6998(5)
H3 H 0.81300 0.81010 0.69650
H4 H 0.76120 0.77970 0.75460
C3 C 0.7513(3) 0.5969(11) 0.6672(4)
H5 H 0.76700 0.49550 0.70020
C4 C 0.7430(3) 0.5831(12) 0.5801(4)
H6 H 0.75230 0.47120 0.55820
H7 H 0.75560 0.68330 0.55160
C5 C 0.6796(2) 0.5982(8) 0.6176(3)
C6 C 0.6337(3) 0.4416(8) 0.6169(3)
H8 H 0.66240 0.33630 0.62320
O1 O 0.5814(2) 0.4255(6) 0.5478(3)
C7 C 0.5935(3) 0.4519(7) 0.6843(4)
H9 H 0.56100 0.35570 0.67990
H10 H 0.62550 0.44090 0.73430
C8 C 0.5543(2) 0.6223(6) 0.6828(3)
H11 H 0.52000 0.62990 0.63340
C9 C 0.6042(2) 0.7788(7) 0.6882(3)
H12 H 0.63710 0.76610 0.73830
C10 C 0.6484(2) 0.7794(7) 0.6218(3)
C11 C 0.5658(3) 0.9488(7) 0.6940(3)
H13 H 0.53260 0.96710 0.64530
H14 H 0.59870 1.04430 0.70000
C12 C 0.5270(3) 0.9511(7) 0.7641(3)
H15 H 0.56030 0.94320 0.81330
H16 H 0.50220 1.06030 0.76410
C13 C 0.4756(2) 0.7992(6) 0.7586(2)
C14 C 0.5168(2) 0.6326(6) 0.7528(3)
H17 H 0.55340 0.63060 0.80020
C15 C 0.4671(3) 0.4875(7) 0.7637(3)
H18 H 0.49200 0.38250 0.78330
H19 H 0.43570 0.46140 0.71460
C16 C 0.4279(3) 0.5633(8) 0.8251(3)
H20 H 0.44130 0.50340 0.87520
H21 H 0.37830 0.54980 0.80720
C17 C 0.4471(2) 0.7581(6) 0.8345(2)
H22 H 0.48660 0.76580 0.87860
C18 C 0.4159(2) 0.8226(9) 0.6887(3)
H23 H 0.38560 0.72370 0.68500
H24 H 0.43390 0.83270 0.64100
H25 H 0.39050 0.92620 0.69610
C19 C 0.6074(3) 0.8409(10) 0.5428(3)
H26 H 0.63480 0.82620 0.50280
H27 H 0.59580 0.96170 0.54650
H28 H 0.56560 0.77370 0.52930
C20 C 0.3892(2) 0.8687(7) 0.8576(2)
H29 H 0.34860 0.85790 0.81490
C21 C 0.4072(3) 1.0635(8) 0.8663(4)
H30 H 0.45000 1.07790 0.90340
H31 H 0.37080 1.12430 0.88480
H32 H 0.41220 1.10970 0.81600
C22 C 0.3687(2) 0.7948(8) 0.9324(2)
H33 H 0.36000 0.66970 0.92490
O2 O 0.42490(17) 0.8189(8) 0.99846(19)
H34 H 0.40840 0.84960 1.03970
C23 C 0.6030(4) 0.3701(13) 0.4810(4)
H35 H 0.61810 0.46830 0.45430
H36 H 0.56530 0.31350 0.44660
H37 H 0.64070 0.28960 0.49520
O3 O 0.29558(17) 0.8024(6) 1.02898(18)
N1 N 0.2239(2) 0.8154(6) 1.0317(2)
C24 C 0.1914(3) 0.8511(7) 0.9633(3)
C25 C 0.2349(2) 0.8582(7) 0.9009(3)
H38 H 0.22350 0.96230 0.86810
C26 C 0.3053(2) 0.8787(7) 0.9542(2)
H39 H 0.31460 1.00340 0.96260
C27 C 0.1136(3) 0.8647(12) 0.9466(4)
H40 H 0.09660 0.84600 0.99450
H41 H 0.09450 0.77830 0.90840
H42 H 0.10010 0.97850 0.92630
C28 C 0.2231(3) 0.6937(8) 0.8494(3)
H43 H 0.23950 0.59380 0.88090
H44 H 0.24790 0.70390 0.80680
H45 H 0.17450 0.68080 0.82830
#END
