
#######################################################################
#
#                 Cambridge Crystallographic Data Centre
#                                CCDC
#
#######################################################################
#
# If this CIF has been generated from an entry in the Cambridge
# Structural Database, then it will include bibliographic, chemical,
# crystal, experimental, refinement or atomic coordinate data resulting
# from the CCDC's data processing and validation procedures.
#
#######################################################################

data_CSD_CIF_REHLUL
_audit_creation_date 1997-09-01
_audit_creation_method CSD-ConQuest-V1
_database_code_CSD REHLUL
_database_code_depnum_ccdc_archive 'CCDC 109241'
_database_code_depnum_ccdc_fiz 'CSD 400898'
_chemical_formula_sum 'C32 H27 N1 O10'
_chemical_formula_moiety
;
C32 H27 N1 O10
;
_journal_coden_Cambridge 1234
_journal_volume 281
_journal_year 1996
_journal_page_first 205
_journal_name_full 'Mol.Cryst.Liq.Cryst.Sci.Technol.,Sect.A '
loop_
_publ_author_name
"F.Hoffmann"
"H.Hartung"
"W.Weissflog"
"P.G.Jones"
"A.Chrapkowski"
_chemical_name_systematic
;
4-Nitrobenzyl 2,5-bis(4-ethoxybenzoyloxy)benzoate
;
_chemical_melting_point 457
_cell_volume   1410.542
_exptl_crystal_colour 'colorless'
_exptl_crystal_density_diffrn 1.379
_diffrn_ambient_temperature ?
_diffrn_special_details
;
The study was carried out at room temperature,in the range 283-303K

;
#These two values have been output from a single CSD field.
_refine_ls_R_factor_gt 0.049
_refine_ls_wR_factor_gt 0.049
_symmetry_cell_setting triclinic
_symmetry_space_group_name_H-M 'P -1'
_symmetry_Int_Tables_number 2
loop_
_symmetry_equiv_pos_site_id
_symmetry_equiv_pos_as_xyz
1 x,y,z
2 -x,-y,-z
_cell_length_a 9.643(2)
_cell_length_b 12.452(3)
_cell_length_c 13.660(3)
_cell_angle_alpha 68.34(1)
_cell_angle_beta 74.40(1)
_cell_angle_gamma 69.65(1)
_cell_formula_units_Z 2
loop_
_atom_type_symbol
_atom_type_radius_bond
C 0.68
H 0.23
N 0.68
O 0.68
loop_
_atom_site_label
_atom_site_type_symbol
_atom_site_fract_x
_atom_site_fract_y
_atom_site_fract_z
C1 C -0.4041(3) 1.0540(2) 0.5732(2)
H1 H -0.5223(7) 1.0770(18) 0.6045(16)
H2 H -0.3870(21) 1.0294(19) 0.5019(10)
H3 H -0.3619(20) 1.1303(12) 0.5541(16)
C2 C -0.3236(3) 0.9503(2) 0.6556(2)
H4 H -0.3412(3) 0.9706(2) 0.7208(2)
H5 H -0.3584(3) 0.8804(2) 0.6718(2)
C3 C -0.0701(3) 0.8314(2) 0.6704(2)
C4 C -0.1102(3) 0.7567(2) 0.7700(2)
H6 H -0.2101(3) 0.7701(2) 0.8023(2)
C5 C -0.0023(3) 0.6620(2) 0.8218(2)
H7 H -0.0302(3) 0.6121(2) 0.8891(2)
C6 C 0.1464(2) 0.6403(2) 0.7750(2)
C7 C 0.1863(3) 0.7168(2) 0.6745(2)
H8 H 0.2862(3) 0.7037(2) 0.6421(2)
C8 C 0.0787(3) 0.8114(2) 0.6230(2)
H9 H 0.1061(3) 0.8622(2) 0.5561(2)
C9 C 0.2645(3) 0.5393(2) 0.8264(2)
C10 C 0.3217(2) 0.3840(2) 0.9829(2)
C11 C 0.3711(2) 0.2683(2) 0.9743(2)
C12 C 0.4825(2) 0.1844(2) 1.0326(2)
H10 H 0.5180(2) 0.1062(2) 1.0288(2)
C13 C 0.5398(2) 0.2169(2) 1.0957(2)
C14 C 0.4848(3) 0.3297(2) 1.1081(2)
H11 H 0.5206(3) 0.3489(2) 1.1545(2)
C15 C 0.3755(3) 0.4136(2) 1.0503(2)
H12 H 0.3380(3) 0.4907(2) 1.0568(2)
C16 C 0.7957(3) 0.1327(2) 1.1045(2)
C17 C 0.9070(2) 0.0420(2) 1.1703(2)
C18 C 0.8690(3) -0.0179(2) 1.2769(2)
H13 H 0.7693(3) -0.0009(2) 1.3095(2)
C19 C 0.9766(3) -0.1023(2) 1.3351(2)
H14 H 0.9499(3) -0.1404(2) 1.4072(2)
C20 C 1.1239(3) -0.1306(2) 1.2871(2)
C21 C 1.1647(3) -0.0713(2) 1.1810(2)
H15 H 1.2643(3) -0.0891(2) 1.1484(2)
C22 C 1.0553(3) 0.0148(2) 1.1240(2)
H16 H 1.0825(3) 0.0553(2) 1.0527(2)
C23 C 1.3712(3) -0.2633(3) 1.3058(2)
H17 H 1.4222(3) -0.2009(3) 1.2797(2)
H18 H 1.3745(3) -0.2900(3) 1.2467(2)
C24 C 1.4444(4) -0.3670(3) 1.3927(3)
H19 H 1.5576(10) -0.4048(20) 1.3580(18)
H20 H 1.3847(23) -0.4348(16) 1.4244(18)
H21 H 1.4472(24) -0.3362(22) 1.4563(13)
C25 C 0.3138(3) 0.2248(2) 0.9093(2)
C26 C 0.1471(3) 0.2680(2) 0.7922(2)
H22 H 0.0994(3) 0.2061(2) 0.8391(2)
H23 H 0.2252(3) 0.2354(2) 0.7406(2)
C27 C 0.0338(3) 0.3765(2) 0.7362(2)
C28 C -0.1169(3) 0.3876(2) 0.7700(2)
H24 H -0.1487(3) 0.3288(2) 0.8288(2)
C29 C -0.2211(3) 0.4853(2) 0.7175(2)
H25 H -0.3231(3) 0.4927(2) 0.7400(2)
C30 C -0.1719(3) 0.5713(2) 0.6315(2)
C31 C -0.0231(3) 0.5631(2) 0.5960(2)
H26 H 0.0079(3) 0.6223(2) 0.5372(2)
C32 C 0.0798(3) 0.4655(2) 0.6493(2)
H27 H 0.1815(3) 0.4590(2) 0.6267(2)
N1 N -0.2833(3) 0.6739(2) 0.5748(2)
O1 O -0.1672(2) 0.92591(14) 0.61167(13)
O2 O 0.3942(2) 0.51287(14) 0.78818(13)
O3 O 0.2121(2) 0.47592(12) 0.92682(12)
O4 O 0.6529(2) 0.13139(14) 1.15334(12)
O5 O 0.8218(2) 0.1999(2) 1.0175(2)
O6 O 1.2206(2) -0.2192(2) 1.35156(14)
O7 O 0.3551(2) 0.1226(2) 0.9088(2)
O8 O 0.2105(2) 0.30799(13) 0.85377(14)
O9 O -0.2414(2) 0.7420(2) 0.4924(2)
O10 O -0.4125(3) 0.6879(2) 0.6127(2)
#END
