
#######################################################################
#
#                 Cambridge Crystallographic Data Centre
#                                CCDC
#
#######################################################################
#
# If this CIF has been generated from an entry in the Cambridge
# Structural Database, then it will include bibliographic, chemical,
# crystal, experimental, refinement or atomic coordinate data resulting
# from the CCDC's data processing and validation procedures.
#
#######################################################################

data_CSD_CIF_REHXOS
_audit_creation_date 2006-10-20
_audit_creation_method CSD-ConQuest-V1
_database_code_CSD REHXOS
_database_code_depnum_ccdc_archive 'CCDC 615964'
_chemical_formula_sum 'C25 H25 N1 O3'
_chemical_formula_moiety
;
C25 H25 N1 O3
;
_journal_coden_Cambridge 1336
_journal_volume 8
_journal_year 2006
_journal_page_first 2309
_journal_name_full 'Org.Lett. '
loop_
_publ_author_name
"J.H.Jeong"
"S.M.Weinreb"
_chemical_name_systematic
;
1-Benzyl-4-methoxy-3a-(3-methoxyphenyl)-3,3a,8,8a-tetrahydro-1H-indeno(2,1-c)i
soxazole
;
_chemical_melting_point 382.15
_cell_volume   2090.323
_exptl_crystal_colour 'colorless'
_exptl_crystal_density_diffrn 1.231
_exptl_special_details
;
Melting point range 382.15-384.15K

;
_exptl_crystal_description 'Needle'
_exptl_crystal_preparation 'pentane/diethyl ether'
_diffrn_ambient_temperature 98
#These two values have been output from a single CSD field.
_refine_ls_R_factor_gt 0.0632
_refine_ls_wR_factor_gt 0.0632
_symmetry_cell_setting monoclinic
_symmetry_space_group_name_H-M 'P 21/n'
_symmetry_Int_Tables_number 14
loop_
_symmetry_equiv_pos_site_id
_symmetry_equiv_pos_as_xyz
1 x,y,z
2 1/2-x,1/2+y,1/2-z
3 -x,-y,-z
4 -1/2+x,-1/2-y,-1/2+z
_cell_length_a 7.6288(13)
_cell_length_b 27.022(5)
_cell_length_c 10.6632(18)
_cell_angle_alpha 90
_cell_angle_beta 108.022(3)
_cell_angle_gamma 90
_cell_formula_units_Z 4
loop_
_atom_type_symbol
_atom_type_radius_bond
C 0.68
H 0.23
N 0.68
O 0.68
loop_
_atom_site_label
_atom_site_type_symbol
_atom_site_fract_x
_atom_site_fract_y
_atom_site_fract_z
C1 C 0.1362(3) 0.01079(8) 0.9146(2)
H1 H 0.06500 -0.01760 0.86870
H2 H 0.05230 0.03560 0.93140
H3 H 0.22290 -0.00010 0.99870
C2 C 0.3648(3) 0.00281(7) 0.80554(19)
C3 C 0.3958(3) -0.04687(7) 0.83917(19)
H4 H 0.32530 -0.06310 0.88640
C4 C 0.5311(3) -0.07272(7) 0.8032(2)
H5 H 0.55080 -0.10670 0.82580
C5 C 0.6373(3) -0.05007(7) 0.7356(2)
H6 H 0.72920 -0.06810 0.71180
C6 C 0.6059(3) -0.00015(7) 0.70326(18)
C7 C 0.4697(3) 0.02585(7) 0.73642(18)
C8 C 0.4627(3) 0.07977(7) 0.69726(18)
C9 C 0.6420(2) 0.08544(7) 0.65622(19)
H7 H 0.62150 0.10690 0.57660
C10 C 0.7035(3) 0.03321(7) 0.63282(19)
H8 H 0.66630 0.02550 0.53740
H9 H 0.83890 0.02970 0.67010
C11 C 0.5040(3) 0.11499(7) 0.81777(19)
H10 H 0.39470 0.13540 0.81380
H11 H 0.53970 0.09590 0.90120
C12 C 0.9162(3) 0.13683(7) 0.7458(2)
H12 H 0.85930 0.16090 0.67500
H13 H 0.99460 0.11430 0.71310
C13 C 1.0350(3) 0.16418(7) 0.8653(2)
C14 C 1.0416(3) 0.15133(8) 0.9930(2)
H14 H 0.97090 0.12410 1.00700
C15 C 1.1503(3) 0.17779(9) 1.1000(2)
H15 H 1.15350 0.16870 1.18670
C16 C 1.2541(3) 0.21741(9) 1.0815(3)
H16 H 1.32750 0.23570 1.15510
C17 C 1.2507(3) 0.23026(8) 0.9561(3)
H17 H 1.32360 0.25720 0.94330
C18 C 1.1411(3) 0.20406(8) 0.8477(2)
H18 H 1.13860 0.21340 0.76130
C19 C 0.2901(2) 0.09567(7) 0.58841(18)
C20 C 0.1437(3) 0.06398(7) 0.53266(18)
H19 H 0.14930 0.03060 0.56120
C21 C -0.0113(3) 0.08105(7) 0.43497(19)
H20 H -0.11090 0.05910 0.39720
C22 C -0.0225(3) 0.12943(8) 0.3922(2)
H21 H -0.12870 0.14080 0.32520
C23 C 0.1237(3) 0.16147(7) 0.4483(2)
C24 C 0.2787(3) 0.14488(7) 0.54527(19)
H22 H 0.37800 0.16700 0.58280
C25 C 0.2457(3) 0.24355(8) 0.4580(3)
H23 H 0.26620 0.24550 0.55320
H24 H 0.21050 0.27620 0.41830
H25 H 0.35930 0.23270 0.44180
N1 N 0.7713(2) 0.10822(6) 0.77487(16)
O1 O 0.23607(18) 0.03203(5) 0.83478(14)
O2 O 0.1015(2) 0.20888(5) 0.40062(15)
O3 O 0.65231(18) 0.14520(5) 0.80907(14)
#END
