
#######################################################################
#
#                 Cambridge Crystallographic Data Centre
#                                CCDC
#
#######################################################################
#
# If this CIF has been generated from an entry in the Cambridge
# Structural Database, then it will include bibliographic, chemical,
# crystal, experimental, refinement or atomic coordinate data resulting
# from the CCDC's data processing and validation procedures.
#
#######################################################################

data_CSD_CIF_REKKAW
_audit_creation_date 2017-10-11
_audit_creation_method CSD-ConQuest-V1
_database_code_CSD REKKAW
_database_code_depnum_ccdc_archive 'CCDC 1558444'
_chemical_formula_sum 'C17 H15 N3 O2'
_chemical_formula_moiety
;
C17 H15 N3 O2
;
_journal_coden_Cambridge 1366
_journal_volume 359
_journal_year 2017
_journal_page_first 3378
_journal_name_full 'Adv.Synth.Catal. '
loop_
_publ_author_name
"Wei Wei"
"Zhen Wang"
"Xikang Yang"
"Wenquan Yu"
"Junbiao Chang"
_chemical_name_systematic
;
5-ethyl-1-(4-nitrophenyl)-3-phenyl-1H-pyrazole
;
_chemical_melting_point 383
_cell_volume   1483.062
_exptl_crystal_colour 'yellow'
_exptl_crystal_density_diffrn 1.314
_exptl_crystal_description 'prism'
_diffrn_ambient_temperature 293
#These two values have been output from a single CSD field.
_refine_ls_R_factor_gt 0.0437
_refine_ls_wR_factor_gt 0.0437
_symmetry_cell_setting monoclinic
_symmetry_space_group_name_H-M 'P 21/c'
_symmetry_Int_Tables_number 14
loop_
_symmetry_equiv_pos_site_id
_symmetry_equiv_pos_as_xyz
1 x,y,z
2 -x,1/2+y,1/2-z
3 -x,-y,-z
4 x,-1/2-y,-1/2+z
_cell_length_a 17.8522(5)
_cell_length_b 11.1225(5)
_cell_length_c 7.5034(3)
_cell_angle_alpha 90
_cell_angle_beta 95.485(3)
_cell_angle_gamma 90
_cell_formula_units_Z 4
loop_
_atom_type_symbol
_atom_type_radius_bond
C 0.68
H 0.23
N 0.68
O 0.68
loop_
_atom_site_label
_atom_site_type_symbol
_atom_site_fract_x
_atom_site_fract_y
_atom_site_fract_z
C1 C 0.98380(8) 0.71088(13) 0.09722(19)
H1 H 0.95190 0.77250 0.05360
C2 C 1.05863(9) 0.71206(15) 0.0636(2)
H2 H 1.07680 0.77430 -0.00290
C3 C 1.10649(9) 0.62098(15) 0.1285(2)
H3 H 1.15690 0.62250 0.10670
C4 C 1.07936(9) 0.52785(15) 0.2256(2)
H4 H 1.11140 0.46650 0.26930
C5 C 1.00434(9) 0.52600(14) 0.2579(2)
H5 H 0.98610 0.46250 0.32180
C6 C 0.95602(8) 0.61803(13) 0.19583(18)
C7 C 0.87659(8) 0.61572(13) 0.23504(19)
C8 C 0.83427(9) 0.51586(14) 0.2823(2)
H6 H 0.85080 0.43670 0.29430
C9 C 0.76417(8) 0.55821(14) 0.3073(2)
C10 C 0.69697(10) 0.49274(16) 0.3645(3)
H7 H 0.65960 0.48460 0.26250
H8 H 0.67490 0.53990 0.45470
C11 C 0.71678(13) 0.3689(2) 0.4397(4)
H9 H 0.75610 0.37590 0.53570
H10 H 0.73360 0.31900 0.34700
H11 H 0.67310 0.33340 0.48380
C12 C 0.71120(8) 0.76911(14) 0.28529(19)
C13 C 0.63576(9) 0.74704(16) 0.2297(2)
H12 H 0.62090 0.67180 0.18530
C14 C 0.58305(9) 0.83673(17) 0.2404(3)
H13 H 0.53250 0.82250 0.20480
C15 C 0.60664(9) 0.94793(16) 0.3049(3)
C16 C 0.68128(9) 0.97221(15) 0.3600(2)
H14 H 0.69590 1.04800 0.40270
C17 C 0.73350(8) 0.88189(14) 0.3504(2)
H15 H 0.78390 0.89640 0.38750
N1 N 0.83589(6) 0.71576(11) 0.23067(16)
N2 N 0.76659(6) 0.67946(12) 0.27387(16)
N3 N 0.55087(10) 1.04392(18) 0.3138(3)
O1 O 0.48625(9) 1.0220(2) 0.2682(4)
O2 O 0.57206(11) 1.14095(18) 0.3717(4)
#END
