
#######################################################################
#
#                 Cambridge Crystallographic Data Centre
#                                CCDC
#
#######################################################################
#
# If this CIF has been generated from an entry in the Cambridge
# Structural Database, then it will include bibliographic, chemical,
# crystal, experimental, refinement or atomic coordinate data resulting
# from the CCDC's data processing and validation procedures.
#
#######################################################################

data_CSD_CIF_REKZEP
_audit_creation_date 2017-10-12
_audit_creation_method CSD-ConQuest-V1
_database_code_CSD REKZEP
_database_code_depnum_ccdc_archive 'CCDC 1579490'
_chemical_formula_sum 'C30 H27 N3 O4'
_chemical_formula_moiety
;
C30 H27 N3 O4
;
_journal_coden_Cambridge 1078
_journal_year 2017
_journal_name_full 'CSD Communication(Private Communication) '
loop_
_publ_author_name
"Yuxuan Hu"
_chemical_name_systematic
;
9-hexyl-3,6-bis(4-nitrophenyl)-9H-carbazole
;
_cell_volume   1239.536
_exptl_crystal_colour 'colorless'
_exptl_crystal_density_diffrn 1.322
_exptl_crystal_description 'plate'
_diffrn_ambient_temperature 296.1
#These two values have been output from a single CSD field.
_refine_ls_R_factor_gt 0.0797
_refine_ls_wR_factor_gt 0.0797
_symmetry_cell_setting triclinic
_symmetry_space_group_name_H-M 'P -1'
_symmetry_Int_Tables_number 2
loop_
_symmetry_equiv_pos_site_id
_symmetry_equiv_pos_as_xyz
1 x,y,z
2 -x,-y,-z
_cell_length_a 6.9673(13)
_cell_length_b 13.328(2)
_cell_length_c 14.620(3)
_cell_angle_alpha 112.777(3)
_cell_angle_beta 94.344(3)
_cell_angle_gamma 94.503(3)
_cell_formula_units_Z 2
loop_
_atom_type_symbol
_atom_type_radius_bond
C 0.68
H 0.23
N 0.68
O 0.68
loop_
_atom_site_label
_atom_site_type_symbol
_atom_site_fract_x
_atom_site_fract_y
_atom_site_fract_z
O1 O 1.4801(3) 0.3259(2) 0.36187(17)
O2 O 1.2548(3) 0.19403(18) 0.28682(18)
O3 O -0.4232(3) -0.15455(16) 0.50588(15)
O4 O -0.6291(3) -0.07112(19) 0.6009(2)
N1 N 1.3187(3) 0.27839(19) 0.35607(17)
N2 N 0.4992(3) 0.57266(14) 0.90034(14)
N3 N -0.4668(3) -0.07667(17) 0.57470(16)
C1 C -0.3183(3) 0.01547(17) 0.62911(16)
C2 C -0.3702(4) 0.1072(2) 0.7016(2)
H1 H -0.49607 0.10942 0.71874
C3 C -0.2314(4) 0.19619(18) 0.74872(19)
H2 H -0.26674 0.25943 0.79680
C4 C -0.0411(3) 0.19469(16) 0.72688(15)
C5 C 0.0048(3) 0.09801(19) 0.65362(17)
H3 H 0.13128 0.09400 0.63738
C6 C -0.1315(3) 0.00890(19) 0.60504(18)
H4 H -0.09798 -0.05475 0.55674
C7 C 0.1047(3) 0.29173(16) 0.77707(15)
C8 C 0.0769(4) 0.37175(19) 0.87012(18)
H5 H -0.02898 0.35957 0.90111
C9 C 0.2000(4) 0.4674(2) 0.91728(18)
H6 H 0.17760 0.51937 0.97859
C10 C 0.3578(3) 0.48391(17) 0.87078(16)
C11 C 0.3958(3) 0.40296(16) 0.77965(14)
C12 C 0.2676(3) 0.30828(15) 0.73324(15)
H7 H 0.29077 0.25558 0.67247
C13 C 0.5724(3) 0.44527(16) 0.75449(15)
C14 C 0.6309(3) 0.54991(17) 0.83061(16)
C15 C 0.7983(4) 0.61202(18) 0.82656(18)
H8 H 0.83701 0.68157 0.87580
C16 C 0.9039(3) 0.56810(18) 0.74842(18)
H9 H 1.01567 0.60935 0.74566
C17 C 0.8515(3) 0.46304(16) 0.67165(16)
C18 C 0.6826(3) 0.40247(16) 0.67643(15)
H10 H 0.64395 0.33306 0.62693
C19 C 0.9718(3) 0.41704(16) 0.58981(15)
C20 C 1.1640(3) 0.46052(19) 0.59551(17)
H11 H 1.21712 0.52125 0.65212
C21 C 1.2763(3) 0.4159(2) 0.51979(17)
H12 H 1.40373 0.44621 0.52529
C22 C 1.1996(3) 0.32691(18) 0.43646(17)
C23 C 1.0105(3) 0.2805(2) 0.42609(19)
H13 H 0.95988 0.21953 0.36910
C24 C 0.8994(3) 0.3264(2) 0.50190(18)
H14 H 0.77135 0.29644 0.49477
C25 C 0.5000(4) 0.67372(19) 0.98887(18)
H15 H 0.62916 0.71331 1.00550
H16 H 0.47100 0.65481 1.04449
C26 C 0.3578(5) 0.7480(2) 0.9768(2)
H17 H 0.22960 0.70719 0.95745
H18 H 0.35585 0.80759 1.04120
C27 C 0.3972(6) 0.7951(3) 0.9036(3)
H19 H 0.38550 0.73685 0.83744
H20 H 0.52893 0.83133 0.91895
C28 C 0.2546(6) 0.8783(3) 0.9044(4)
H21 H 0.12749 0.83794 0.87633
H22 H 0.24559 0.92524 0.97342
C29 C 0.2974(8) 0.9447(4) 0.8536(4)
H23 H 0.30179 0.89842 0.78393
H24 H 0.42561 0.98417 0.88025
C30 C 0.1564(8) 1.0267(4) 0.8594(5)
H25 H 0.13816 1.03344 0.79631
H26 H 0.20696 1.09663 0.91063
H27 H 0.03444 1.00228 0.87476
#END
