
#######################################################################
#
#                 Cambridge Crystallographic Data Centre
#                                CCDC
#
#######################################################################
#
# If this CIF has been generated from an entry in the Cambridge
# Structural Database, then it will include bibliographic, chemical,
# crystal, experimental, refinement or atomic coordinate data resulting
# from the CCDC's data processing and validation procedures.
#
#######################################################################

data_CSD_CIF_RELJAU
_audit_creation_date 2006-10-20
_audit_creation_method CSD-ConQuest-V1
_database_code_CSD RELJAU
_database_code_depnum_ccdc_archive 'CCDC 612908'
_chemical_formula_sum 'C19 H21 N1 O8'
_chemical_formula_moiety
;
C19 H21 N1 O8
;
_journal_coden_Cambridge 1078
_journal_year 2006
_journal_name_full 'CSD Communication(Private Communication) '
loop_
_publ_author_name
"S.Parsons"
"K.McMillan"
"M.Paton"
"A.Dawson"
"R.Johnstone"
_chemical_name_systematic
;
8,9,10-tris(acetyloxy)-3-phenyl-1,6-dioxa-2-azaspiro[4.5]dec-2-ene
;
_cell_volume    943.087
_exptl_crystal_colour 'colorless'
_exptl_crystal_density_diffrn 1.378
_exptl_special_details
;
contribution from School of Chemistry, The University of Edinburgh King's 
Buildings, West Mains Road, Edinburgh, Scotland EH9 3JJ
;
_exptl_crystal_description 'Plate'
_exptl_crystal_preparation 'ether/hexane'
_diffrn_ambient_temperature 150
#These two values have been output from a single CSD field.
_refine_ls_R_factor_gt 0.0524
_refine_ls_wR_factor_gt 0.0524
_symmetry_cell_setting monoclinic
_symmetry_space_group_name_H-M 'P 21'
_symmetry_Int_Tables_number 4
loop_
_symmetry_equiv_pos_site_id
_symmetry_equiv_pos_as_xyz
1 x,y,z
2 -x,1/2+y,-z
_cell_length_a 9.0722(14)
_cell_length_b 5.5871(8)
_cell_length_c 18.620(3)
_cell_angle_alpha 90
_cell_angle_beta 92.223(3)
_cell_angle_gamma 90
_cell_formula_units_Z 2
loop_
_atom_type_symbol
_atom_type_radius_bond
C 0.68
H 0.23
N 0.68
O 0.68
loop_
_atom_site_label
_atom_site_type_symbol
_atom_site_fract_x
_atom_site_fract_y
_atom_site_fract_z
C1 C 0.7329(3) 0.9935(5) 0.29430(14)
C2 C 0.8652(3) 1.1416(5) 0.31829(14)
H1 H 0.91740 1.20690 0.27690
H2 H 0.83750 1.27430 0.35030
C3 C 0.9552(3) 0.9559(5) 0.35776(14)
C4 C 1.0852(3) 1.0046(5) 0.40583(13)
C5 C 1.1321(3) 0.8398(6) 0.45783(14)
H3 H 1.08040 0.69340 0.46300
C6 C 1.2554(3) 0.8899(7) 0.50241(15)
H4 H 1.28780 0.77680 0.53770
C7 C 1.3303(4) 1.1024(6) 0.49555(17)
H5 H 1.41380 1.13590 0.52630
C8 C 1.2839(4) 1.2682(6) 0.44382(18)
H6 H 1.33600 1.41440 0.43890
C9 C 1.1616(3) 1.2196(6) 0.39950(16)
H7 H 1.12940 1.33370 0.36450
N1 N 0.9121(2) 0.7398(4) 0.34497(11)
O1 O 0.7862(2) 0.7513(3) 0.2959(1)
C10 C 0.6672(3) 1.0565(5) 0.21968(13)
H8 H 0.64720 1.23250 0.21830
O2 O 0.77096(19) 1.0026(4) 0.16618(9)
C11 C 0.8107(3) 1.1863(6) 0.12259(16)
O3 O 0.7746(3) 1.3891(4) 0.13093(11)
C12 C 0.9065(4) 1.0956(7) 0.06500(17)
H9 H 0.85770 1.12340 0.01790
H10 H 0.92350 0.92370 0.07170
H11 H 1.00120 1.18020 0.06770
C13 C 0.5247(3) 0.9265(5) 0.20026(13)
H12 H 0.54540 0.75810 0.18560
O4 O 0.4647(2) 1.0621(3) 0.13964(9)
C14 C 0.3877(3) 0.9495(6) 0.08583(14)
O5 O 0.3617(2) 0.7377(4) 0.08579(11)
C15 C 0.3421(3) 1.1241(6) 0.02877(15)
H13 H 0.41770 1.13090 -0.00740
H14 H 0.33060 1.28290 0.05020
H15 H 0.24810 1.07350 0.00590
C16 C 0.4196(3) 0.9300(5) 0.26128(14)
H16 H 0.37310 1.09150 0.26520
O6 O 0.3076(2) 0.7489(4) 0.24946(10)
C17 C 0.1772(3) 0.8177(5) 0.21677(14)
O7 O 0.1459(2) 1.0234(4) 0.20579(11)
C18 C 0.0873(3) 0.6052(6) 0.19534(17)
H17 H -0.01740 0.64930 0.19270
H18 H 0.10320 0.47780 0.23100
H19 H 0.11670 0.54850 0.14820
C19 C 0.4998(3) 0.8636(6) 0.33182(14)
H20 H 0.43100 0.87590 0.37170
H21 H 0.53490 0.69610 0.32950
O8 O 0.62260(19) 1.0204(4) 0.34511(9)
#END
