
#######################################################################
#
#                 Cambridge Crystallographic Data Centre
#                                CCDC
#
#######################################################################
#
# If this CIF has been generated from an entry in the Cambridge
# Structural Database, then it will include bibliographic, chemical,
# crystal, experimental, refinement or atomic coordinate data resulting
# from the CCDC's data processing and validation procedures.
#
#######################################################################

data_CSD_CIF_REMFAR
_audit_creation_date 2006-10-20
_audit_creation_method CSD-ConQuest-V1
_database_code_CSD REMFAR
_database_code_depnum_ccdc_archive 'CCDC 602833'
_chemical_formula_sum 'C10 H16 N2 O2'
_chemical_formula_moiety
;
C10 H16 N2 O2
;
_journal_coden_Cambridge 24
_journal_volume 47
_journal_year 2006
_journal_page_first 4569
_journal_name_full 'Tetrahedron Lett. '
loop_
_publ_author_name
"T.J.Kucharski"
"J.R.Oxsher"
"S.C.Blackstock"
_chemical_name_systematic
;
2,5-diethyl-3,6-dimethylpyrazine-N,N'-dioxide
;
_cell_volume    498.577
_exptl_crystal_colour 'colorless'
_exptl_crystal_density_diffrn 1.307
_exptl_crystal_description 'Rectangular'
_diffrn_ambient_temperature 173
#These two values have been output from a single CSD field.
_refine_ls_R_factor_gt 0.0372
_refine_ls_wR_factor_gt 0.0372
_symmetry_cell_setting monoclinic
_symmetry_space_group_name_H-M 'P 21/n'
_symmetry_Int_Tables_number 14
loop_
_symmetry_equiv_pos_site_id
_symmetry_equiv_pos_as_xyz
1 x,y,z
2 1/2-x,1/2+y,1/2-z
3 -x,-y,-z
4 -1/2+x,-1/2-y,-1/2+z
_cell_length_a 4.2965(9)
_cell_length_b 10.581(2)
_cell_length_c 11.040(2)
_cell_angle_alpha 90
_cell_angle_beta 96.589(4)
_cell_angle_gamma 90
_cell_formula_units_Z 2
loop_
_atom_type_symbol
_atom_type_radius_bond
C 0.68
H 0.23
N 0.68
O 0.68
loop_
_atom_site_label
_atom_site_type_symbol
_atom_site_fract_x
_atom_site_fract_y
_atom_site_fract_z
O1 O 0.1167(3) 0.35587(11) 0.19858(11)
N1 N 0.0630(3) 0.42637(13) 0.10176(13)
C1 C -0.1108(4) 0.53505(15) 0.10721(16)
C2 C 0.1768(4) 0.39219(16) -0.00415(15)
C3 C 0.3674(5) 0.27359(18) -0.0002(2)
C4 C -0.2142(5) 0.5646(2) 0.22763(19)
C5 C 0.1636(5) 0.15559(17) -0.0154(2)
H1 H 0.501(5) 0.2788(17) -0.0636(19)
H2 H 0.493(5) 0.2687(17) 0.0789(19)
H3 H -0.315(6) 0.647(2) 0.231(2)
H4 H 0.294(5) 0.0807(19) -0.0148(16)
H5 H -0.367(5) 0.503(2) 0.247(2)
H6 H 0.030(6) 0.1480(18) 0.051(2)
H7 H 0.037(6) 0.1568(18) -0.096(2)
H8 H -0.035(6) 0.556(2) 0.288(2)
O1B O -0.1167(3) 0.64413(11) -0.19858(11)
N1B N -0.0630(3) 0.57363(13) -0.10176(13)
C1B C 0.1108(4) 0.46495(15) -0.10721(16)
C2B C -0.1768(4) 0.60781(16) 0.00415(15)
C3B C -0.3674(5) 0.72641(18) 0.0002(2)
C4B C 0.2142(5) 0.4354(2) -0.22763(19)
C5B C -0.1636(5) 0.84441(17) 0.0154(2)
H1B H -0.501(5) 0.7212(17) 0.0636(19)
H2B H -0.493(5) 0.7313(17) -0.0789(19)
H3B H 0.315(6) 0.353(2) -0.231(2)
H4B H -0.294(5) 0.9193(19) 0.0148(16)
H5B H 0.367(5) 0.497(2) -0.247(2)
H6B H -0.030(6) 0.8520(18) -0.051(2)
H7B H -0.037(6) 0.8432(18) 0.096(2)
H8B H 0.035(6) 0.444(2) -0.288(2)
#END
