
#######################################################################
#
#                 Cambridge Crystallographic Data Centre
#                                CCDC
#
#######################################################################
#
# If this CIF has been generated from an entry in the Cambridge
# Structural Database, then it will include bibliographic, chemical,
# crystal, experimental, refinement or atomic coordinate data resulting
# from the CCDC's data processing and validation procedures.
#
#######################################################################

data_CSD_CIF_REMLON
_audit_creation_date 2017-10-12
_audit_creation_method CSD-ConQuest-V1
_database_code_CSD REMLON
_database_code_depnum_ccdc_archive 'CCDC 1562295'
_chemical_formula_sum 'C28 H28 N2 O5'
_chemical_formula_moiety
;
C28 H28 N2 O5
;
_journal_coden_Cambridge 35
_journal_volume 82
_journal_year 2017
_journal_page_first 10297
_journal_name_full 'J.Org.Chem. '
loop_
_publ_author_name
"M.Brambilla"
"M.B.Brennan"
"K.Csatayova"
"S.G.Davies"
"Ai M.Fletcher"
"A.M.R.Kennett"
"J.A.Lee"
"P.M.Roberts"
"A.J.Russell"
"J.E.Thomson"
_chemical_name_systematic
;
6-(dibenzylamino)-8-oxabicyclo[5.1.0]octan-2-yl 4-nitrobenzoate
;
_chemical_name_common
;
(1RS,2SR,3RS,4SR)-1-(4-Nitrobenzoyloxy)-2,3-epoxy-4-(N,N-dibenzylamino)cyclohe
ptane
;
_chemical_melting_point 427.15
_cell_volume   1190.801
_exptl_crystal_colour 'colorless'
_exptl_crystal_density_diffrn 1.318
_exptl_special_details
;
Melting point range 427.15-429.15K

;
_exptl_crystal_description 'plate'
_diffrn_ambient_temperature 150
#These two values have been output from a single CSD field.
_refine_ls_R_factor_gt 0.0656
_refine_ls_wR_factor_gt 0.0656
_symmetry_cell_setting triclinic
_symmetry_space_group_name_H-M 'P -1'
_symmetry_Int_Tables_number 2
loop_
_symmetry_equiv_pos_site_id
_symmetry_equiv_pos_as_xyz
1 x,y,z
2 -x,-y,-z
_cell_length_a 6.7380(2)
_cell_length_b 9.4072(3)
_cell_length_c 19.3817(8)
_cell_angle_alpha 99.2201(14)
_cell_angle_beta 98.4462(14)
_cell_angle_gamma 95.3839(18)
_cell_formula_units_Z 2
loop_
_atom_type_symbol
_atom_type_radius_bond
C 0.68
H 0.23
N 0.68
O 0.68
loop_
_atom_site_label
_atom_site_type_symbol
_atom_site_fract_x
_atom_site_fract_y
_atom_site_fract_z
O1 O 0.2406(2) 0.66588(14) 0.34103(8)
C1 C 0.3868(3) 0.7587(2) 0.31400(11)
C2 C 0.5784(3) 0.8052(2) 0.36928(11)
C3 C 0.7609(3) 0.8543(2) 0.33662(11)
C4 C 0.7498(3) 0.9916(2) 0.30450(11)
C5 C 0.5828(3) 0.98088(19) 0.24034(10)
N1 N 0.6382(3) 1.08505(16) 0.19522(9)
C6 C 0.5019(3) 1.0616(2) 0.12707(11)
C7 C 0.5199(3) 0.9206(2) 0.08004(10)
C8 C 0.3496(3) 0.8253(2) 0.04844(11)
C9 C 0.3657(4) 0.6996(2) 0.00184(12)
C10 C 0.5521(4) 0.6690(2) -0.01278(11)
C11 C 0.7236(4) 0.7617(3) 0.01894(12)
C12 C 0.7069(3) 0.8879(2) 0.06549(12)
C13 C 0.6566(3) 1.2380(2) 0.22945(12)
C14 C 0.8008(3) 1.3346(2) 0.19893(10)
C15 C 0.9770(3) 1.2894(2) 0.17997(11)
C16 C 1.1129(4) 1.3824(3) 0.15488(12)
C17 C 1.0724(4) 1.5229(3) 0.15017(11)
C18 C 0.8972(4) 1.5686(2) 0.16905(12)
C19 C 0.7607(4) 1.4759(2) 0.19371(11)
C20 C 0.3805(3) 0.9958(2) 0.26446(12)
C21 C 0.2841(3) 0.8873(2) 0.29940(12)
O2 O 0.2053(2) 0.89691(16) 0.22750(9)
C22 C 0.2860(3) 0.5305(2) 0.34381(11)
O3 O 0.4315(2) 0.48281(16) 0.32374(8)
C23 C 0.1427(3) 0.4490(2) 0.37931(10)
C24 C 0.2060(3) 0.3260(2) 0.40420(11)
C25 C 0.0865(3) 0.2483(2) 0.44089(11)
C26 C -0.0990(3) 0.2923(2) 0.44956(10)
N2 N -0.2308(3) 0.2079(2) 0.48665(9)
O4 O -0.1631(3) 0.11023(18) 0.51390(9)
O5 O -0.4016(3) 0.2384(2) 0.48786(11)
C27 C -0.1697(3) 0.4109(2) 0.42379(10)
C28 C -0.0453(3) 0.4901(2) 0.38879(10)
H1 H 0.41980 0.70860 0.27140
H2 H 0.55420 0.88380 0.40320
H3 H 0.60780 0.72580 0.39220
H4 H 0.87690 0.86970 0.37250
H5 H 0.77550 0.77770 0.30000
H6 H 0.72810 1.06740 0.34030
H7 H 0.87580 1.01500 0.29000
H8 H 0.57400 0.88640 0.21310
H9 H 0.53330 1.13910 0.10300
H10 H 0.36680 1.06110 0.13580
H11 H 0.22070 0.84670 0.05840
H12 H 0.24860 0.63440 -0.01950
H13 H 0.56290 0.58390 -0.04520
H14 H 0.85250 0.73940 0.00930
H15 H 0.82440 0.95220 0.08730
H16 H 0.70530 1.24490 0.27860
H17 H 0.52700 1.27070 0.22340
H18 H 1.00700 1.19420 0.18440
H19 H 1.23220 1.34930 0.14080
H20 H 1.16570 1.58720 0.13430
H21 H 0.86840 1.66430 0.16520
H22 H 0.64030 1.50870 0.20690
H23 H 0.35510 1.09270 0.27920
H24 H 0.20650 0.92400 0.33390
H25 H 0.33200 0.29550 0.39560
H26 H 0.13110 0.16750 0.45970
H27 H -0.29970 0.43680 0.42990
H28 H -0.08880 0.57280 0.37140
#END
