
#######################################################################
#
#                 Cambridge Crystallographic Data Centre
#                                CCDC
#
#######################################################################
#
# If this CIF has been generated from an entry in the Cambridge
# Structural Database, then it will include bibliographic, chemical,
# crystal, experimental, refinement or atomic coordinate data resulting
# from the CCDC's data processing and validation procedures.
#
#######################################################################

data_CSD_CIF_REMTEL
_audit_creation_date 2017-10-12
_audit_creation_method CSD-ConQuest-V1
_database_code_CSD REMTEL
_database_code_depnum_ccdc_archive 'CCDC 1554427'
_chemical_formula_sum 'C26 H23 N1 O4'
_chemical_formula_moiety
;
C26 H23 N1 O4
;
_journal_coden_Cambridge 35
_journal_volume 82
_journal_year 2017
_journal_page_first 10680
_journal_name_full 'J.Org.Chem. '
loop_
_publ_author_name
"Pan-Lin Shao"
"Zi-Rui Li"
"Zhi-Peng Wang"
"Ming-Hui Zhou"
"Qi Wu"
"Ping Hu"
"Yun He"
_chemical_name_systematic
;
2-benzylidene-3'-(benzyloxy)-5',5'-dimethyl-2H,4'H-spiro[1-benzofuran-3,2'-[1,
3]oxazolidin]-4'-one
;
_cell_volume   1097.773
_exptl_crystal_density_diffrn 1.251
_diffrn_ambient_temperature 295
#These two values have been output from a single CSD field.
_refine_ls_R_factor_gt 0.0452
_refine_ls_wR_factor_gt 0.0452
_symmetry_cell_setting triclinic
_symmetry_space_group_name_H-M 'P -1'
_symmetry_Int_Tables_number 2
loop_
_symmetry_equiv_pos_site_id
_symmetry_equiv_pos_as_xyz
1 x,y,z
2 -x,-y,-z
_cell_length_a 11.0525(8)
_cell_length_b 11.1109(8)
_cell_length_c 11.4881(8)
_cell_angle_alpha 115.323(7)
_cell_angle_beta 99.995(6)
_cell_angle_gamma 110.986(7)
_cell_formula_units_Z 2
loop_
_atom_type_symbol
_atom_type_radius_bond
C 0.68
H 0.23
N 0.68
O 0.68
loop_
_atom_site_label
_atom_site_type_symbol
_atom_site_fract_x
_atom_site_fract_y
_atom_site_fract_z
O1 O 0.46677(11) 0.68561(13) 0.51533(11)
O2 O 0.41289(13) 0.81009(16) 0.28544(14)
O3 O 0.20337(12) 0.61418(13) 0.63171(11)
O4 O 0.17469(11) 0.69934(13) 0.34737(10)
N1 N 0.29921(13) 0.69797(16) 0.38874(13)
C1 C 0.32258(16) 0.64714(19) 0.48381(16)
C2 C 0.52484(17) 0.7439(2) 0.43479(17)
C3 C 0.40945(17) 0.75801(19) 0.35987(17)
C4 C 0.29576(16) 0.7246(2) 0.61557(16)
C5 C 0.16345(17) 0.4731(2) 0.51805(17)
C6 C 0.07064(18) 0.3364(2) 0.4970(2)
H1 H 0.02910 0.33250 0.56000
C7 C 0.0424(2) 0.2060(2) 0.3782(2)
H2 H -0.01960 0.11160 0.36050
C8 C 0.1045(2) 0.2123(2) 0.2844(2)
H3 H 0.08330 0.12250 0.20470
C9 C 0.19743(19) 0.3505(2) 0.30820(19)
H4 H 0.23950 0.35480 0.24560
C10 C 0.22686(16) 0.48242(19) 0.42698(17)
C11 C 0.65496(18) 0.8977(2) 0.5347(2)
H5 H 0.63180 0.96370 0.60230
H6 H 0.68950 0.94170 0.48350
H7 H 0.72600 0.88520 0.58170
C12 C 0.5570(2) 0.6303(3) 0.3319(2)
H8 H 0.62310 0.61500 0.38200
H9 H 0.59620 0.66890 0.27910
H10 H 0.47180 0.53510 0.26970
C13 C 0.35496(17) 0.8724(2) 0.70599(16)
H11 H 0.41070 0.93350 0.68020
C14 C 0.34646(17) 0.9555(2) 0.84103(17)
C15 C 0.44739(18) 1.1076(2) 0.93381(17)
H12 H 0.51320 1.15560 0.90600
C16 C 0.4517(2) 1.1888(2) 1.06657(18)
H13 H 0.52140 1.28980 1.12770
C17 C 0.3538(2) 1.1212(3) 1.1085(2)
H14 H 0.35710 1.17550 1.19810
C18 C 0.2509(2) 0.9727(3) 1.0172(2)
H15 H 0.18320 0.92730 1.04490
C19 C 0.24594(19) 0.8889(2) 0.88404(19)
H16 H 0.17550 0.78810 0.82350
C20 C 0.08159(19) 0.5702(2) 0.20559(18)
H17 H 0.04040 0.47690 0.20530
H18 H 0.13350 0.55910 0.14530
C21 C -0.03080(17) 0.6023(2) 0.15562(16)
C22 C 0.0028(2) 0.7318(2) 0.1526(2)
H19 H 0.09660 0.80210 0.18380
C23 C -0.1011(3) 0.7584(3) 0.1037(2)
H20 H -0.07720 0.84690 0.10230
C24 C -0.2393(2) 0.6560(3) 0.0570(2)
H21 H -0.30930 0.67460 0.02420
C25 C -0.2738(2) 0.5271(3) 0.0587(2)
H22 H -0.36780 0.45640 0.02580
C26 C -0.17044(19) 0.5004(2) 0.10881(19)
H23 H -0.19510 0.41240 0.11110
#END
