
#######################################################################
#
#                 Cambridge Crystallographic Data Centre
#                                CCDC
#
#######################################################################
#
# If this CIF has been generated from an entry in the Cambridge
# Structural Database, then it will include bibliographic, chemical,
# crystal, experimental, refinement or atomic coordinate data resulting
# from the CCDC's data processing and validation procedures.
#
#######################################################################

data_CSD_CIF_REMTOU
_audit_creation_date 2013-02-22
_audit_creation_method CSD-ConQuest-V1
_database_code_CSD REMTOU
_database_code_depnum_ccdc_archive 'CCDC 784755'
_chemical_formula_sum 'C32 H27 N1 O4'
_chemical_formula_moiety
;
C32 H27 N1 O4
;
_journal_coden_Cambridge 1220
_journal_volume 16
_journal_year 2010
_journal_page_first 6447
_journal_name_full 'Chem.-Eur.J. '
loop_
_publ_author_name
"Wenbo Li"
"Yuying Li"
"Junliang Zhang"
_chemical_name_systematic
;
6-(4-Methoxyphenyl)-8-methyl-2,4,5-triphenyl-4,5-dihydrofuro[3,4-d][1,6,2]diox
azepine
;
_cell_volume   1252.506
_exptl_crystal_colour 'colorless'
_exptl_crystal_density_diffrn 1.298
_exptl_crystal_description 'block'
_diffrn_ambient_temperature 296
#These two values have been output from a single CSD field.
_refine_ls_R_factor_gt 0.0549
_refine_ls_wR_factor_gt 0.0549
_symmetry_cell_setting triclinic
_symmetry_space_group_name_H-M 'P -1'
_symmetry_Int_Tables_number 2
loop_
_symmetry_equiv_pos_site_id
_symmetry_equiv_pos_as_xyz
1 x,y,z
2 -x,-y,-z
_cell_length_a 9.6239(10)
_cell_length_b 10.330(1)
_cell_length_c 13.6641(14)
_cell_angle_alpha 78.638(3)
_cell_angle_beta 78.284(3)
_cell_angle_gamma 72.108(3)
_cell_formula_units_Z 2
loop_
_atom_type_symbol
_atom_type_radius_bond
C 0.68
H 0.23
N 0.68
O 0.68
loop_
_atom_site_label
_atom_site_type_symbol
_atom_site_fract_x
_atom_site_fract_y
_atom_site_fract_z
O1 O 0.5434(2) 0.1105(2) -0.33383(16)
O2 O 0.26789(19) 0.33080(19) 0.31914(14)
O3 O 0.1074(2) 0.2014(2) 0.32156(15)
O4 O 0.1652(2) 0.05782(19) 0.09818(14)
N1 N 0.3917(2) 0.2825(2) 0.24450(17)
C1 C -0.0162(3) 0.3210(3) 0.4903(2)
H1 H -0.07340 0.32750 0.44130
C2 C -0.0819(3) 0.3712(3) 0.5797(2)
H2 H -0.18340 0.41190 0.59050
C3 C 0.0012(4) 0.3618(3) 0.6534(2)
H3 H -0.04370 0.39760 0.71300
C4 C 0.1521(4) 0.2987(3) 0.6381(2)
H4 H 0.20830 0.29020 0.68810
C5 C 0.2184(3) 0.2486(3) 0.5483(2)
H5 H 0.31950 0.20620 0.53810
C6 C 0.1347(3) 0.2610(3) 0.4730(2)
C7 C 0.5147(3) 0.3830(3) 0.3391(2)
H6 H 0.43480 0.39080 0.39110
C8 C 0.6366(3) 0.4223(3) 0.3475(2)
H7 H 0.63710 0.45750 0.40510
C9 C 0.7571(3) 0.4104(3) 0.2723(2)
H8 H 0.83800 0.43800 0.27820
C10 C 0.7556(3) 0.3568(3) 0.1880(2)
H9 H 0.83660 0.34750 0.13680
C11 C 0.6353(3) 0.3168(3) 0.1786(2)
H10 H 0.63700 0.27910 0.12180
C12 C 0.5117(3) 0.3320(3) 0.2530(2)
C13 C 0.3134(3) 0.5662(3) 0.1079(2)
H11 H 0.41190 0.54650 0.11570
C14 C 0.2330(3) 0.7012(3) 0.0863(2)
H12 H 0.27680 0.77150 0.08060
C15 C 0.0867(3) 0.7321(3) 0.0729(2)
H13 H 0.03210 0.82310 0.05810
C16 C 0.0232(3) 0.6274(3) 0.0816(2)
H14 H -0.07460 0.64740 0.07200
C17 C 0.1043(3) 0.4920(3) 0.1047(2)
H15 H 0.05970 0.42200 0.11120
C18 C 0.2507(3) 0.4591(3) 0.1184(2)
C19 C 0.4027(3) 0.2369(3) -0.0888(2)
H16 H 0.40090 0.30890 -0.05670
C20 C 0.4757(3) 0.2306(3) -0.1871(2)
H17 H 0.52360 0.29660 -0.21940
C21 C 0.4772(3) 0.1266(3) -0.2365(2)
C22 C 0.4021(3) 0.0309(3) -0.1878(2)
H18 H 0.39910 -0.03760 -0.22170
C23 C 0.3323(3) 0.0364(3) -0.0901(2)
H19 H 0.28400 -0.02960 -0.05850
C24 C 0.3321(3) 0.1391(3) -0.0369(2)
C25 C 0.2132(3) 0.2186(3) 0.3725(2)
H20 H 0.29390 0.13390 0.38090
C26 C 0.3395(3) 0.3099(3) 0.1456(2)
H21 H 0.42730 0.29170 0.09400
C27 C 0.2570(3) 0.2064(3) 0.1454(2)
C28 C 0.1582(3) 0.1587(3) 0.2284(2)
C29 C 0.1044(3) 0.0705(3) 0.1972(2)
C30 C 0.2596(3) 0.1409(3) 0.0677(2)
C31 C -0.0060(3) -0.0048(3) 0.2464(2)
H22 H -0.03870 0.01270 0.31500
H23 H 0.03810 -0.10160 0.24570
H24 H -0.08890 0.02560 0.21040
C32 C 0.6385(4) 0.1940(4) -0.3816(3)
H25 H 0.67820 0.17320 -0.44890
H26 H 0.71780 0.17590 -0.34370
H27 H 0.58350 0.28920 -0.38450
#END
