
#######################################################################
#
#                 Cambridge Crystallographic Data Centre
#                                CCDC
#
#######################################################################
#
# If this CIF has been generated from an entry in the Cambridge
# Structural Database, then it will include bibliographic, chemical,
# crystal, experimental, refinement or atomic coordinate data resulting
# from the CCDC's data processing and validation procedures.
#
#######################################################################

data_CSD_CIF_REMVUD
_audit_creation_date 2017-10-12
_audit_creation_method CSD-ConQuest-V1
_database_code_CSD REMVUD
_database_code_depnum_ccdc_archive 'CCDC 1572853'
_chemical_formula_sum 'C21 H23 N1 O4'
_chemical_formula_moiety
;
C21 H23 N1 O4
;
_journal_coden_Cambridge 35
_journal_volume 82
_journal_year 2017
_journal_page_first 10680
_journal_name_full 'J.Org.Chem. '
loop_
_publ_author_name
"Pan-Lin Shao"
"Zi-Rui Li"
"Zhi-Peng Wang"
"Ming-Hui Zhou"
"Qi Wu"
"Ping Hu"
"Yun He"
_chemical_name_systematic
;
N-(benzyloxy)-5',5'-dimethyl-3,4-dihydro-2H,4'H-spiro[1-benzoxepine-5,2'-[1,3]
dioxolan]-4'-imine
;
_cell_volume   1835.537
_exptl_crystal_colour 'colorless'
_exptl_crystal_density_diffrn 1.279
_exptl_crystal_description 'Block'
_diffrn_ambient_temperature 295
#These two values have been output from a single CSD field.
_refine_ls_R_factor_gt 0.0514
_refine_ls_wR_factor_gt 0.0514
_symmetry_cell_setting orthorhombic
_symmetry_space_group_name_H-M 'P 21 21 21'
_symmetry_Int_Tables_number 19
loop_
_symmetry_equiv_pos_site_id
_symmetry_equiv_pos_as_xyz
1 x,y,z
2 1/2-x,-y,1/2+z
3 -x,1/2+y,1/2-z
4 1/2+x,1/2-y,-z
_cell_length_a 5.5974(4)
_cell_length_b 19.0054(10)
_cell_length_c 17.2544(10)
_cell_angle_alpha 90
_cell_angle_beta 90
_cell_angle_gamma 90
_cell_formula_units_Z 4
loop_
_atom_type_symbol
_atom_type_radius_bond
C 0.68
H 0.23
N 0.68
O 0.68
loop_
_atom_site_label
_atom_site_type_symbol
_atom_site_fract_x
_atom_site_fract_y
_atom_site_fract_z
O1 O 0.1969(4) 0.48668(9) 0.45966(10)
O2 O 0.1563(4) 0.49933(10) 0.63321(12)
O3 O 0.0304(4) 0.38098(9) 0.42416(11)
O4 O 0.4780(4) 0.57286(10) 0.38531(11)
N1 N 0.4133(5) 0.50897(12) 0.34684(13)
C1 C 0.0496(6) 0.42813(13) 0.48754(16)
C2 C 0.1755(6) 0.39345(13) 0.55525(14)
C3 C 0.2752(6) 0.47161(14) 0.38798(15)
C4 C 0.2241(6) 0.42973(14) 0.62359(15)
C5 C 0.1817(6) 0.40137(14) 0.36061(15)
C6 C 0.2446(7) 0.32287(14) 0.55174(16)
H1 H 0.20970 0.29670 0.50770
C7 C -0.1981(6) 0.45602(15) 0.50579(17)
H2 H -0.28960 0.41850 0.52970
H3 H -0.27630 0.46780 0.45730
C8 C 0.3458(7) 0.39863(17) 0.68386(17)
H4 H 0.37980 0.42430 0.72840
C9 C -0.0983(6) 0.50964(17) 0.63718(18)
H5 H -0.13190 0.55030 0.66940
H6 H -0.17100 0.46890 0.66150
C10 C 0.7104(7) 0.67666(15) 0.36690(17)
C11 C -0.2082(7) 0.52049(15) 0.55882(18)
H7 H -0.12690 0.55920 0.53340
H8 H -0.37400 0.53400 0.56560
C12 C 0.4175(7) 0.32921(17) 0.67803(19)
H9 H 0.50170 0.30820 0.71830
C13 C 0.0298(7) 0.40770(18) 0.28858(16)
H10 H -0.03570 0.36250 0.27570
H11 H 0.12630 0.42430 0.24640
H12 H -0.09790 0.44040 0.29780
C14 C 0.3636(8) 0.29143(17) 0.61247(19)
H13 H 0.40780 0.24440 0.60900
C15 C 0.6738(8) 0.60180(16) 0.3429(2)
H14 H 0.64070 0.59960 0.28780
H15 H 0.81740 0.57480 0.35310
C16 C 0.3836(7) 0.34881(16) 0.3504(2)
H16 H 0.48000 0.34800 0.39640
H17 H 0.48030 0.36240 0.30690
H18 H 0.31820 0.30280 0.34140
C17 C 0.9108(7) 0.69693(18) 0.4075(2)
H19 H 1.02490 0.66370 0.42150
C18 C 0.5440(8) 0.72720(19) 0.3480(2)
H20 H 0.40700 0.71430 0.32090
C19 C 0.7731(10) 0.81630(19) 0.4081(2)
H21 H 0.79280 0.86320 0.42220
C20 C 0.9421(9) 0.7675(2) 0.4277(2)
H22 H 1.07840 0.78130 0.45440
C21 C 0.5771(9) 0.79586(18) 0.3682(2)
H23 H 0.46300 0.82920 0.35440
#END
