
#######################################################################
#
#                 Cambridge Crystallographic Data Centre
#                                CCDC
#
#######################################################################
#
# If this CIF has been generated from an entry in the Cambridge
# Structural Database, then it will include bibliographic, chemical,
# crystal, experimental, refinement or atomic coordinate data resulting
# from the CCDC's data processing and validation procedures.
#
#######################################################################

data_CSD_CIF_REMYAJ
_audit_creation_date 1997-09-09
_audit_creation_method CSD-ConQuest-V1
_database_code_CSD REMYAJ
_database_code_depnum_ccdc_archive 'CCDC 128815'
_chemical_formula_sum 'C22 H24 N2 O7'
_chemical_formula_moiety
;
C22 H24 N2 O7
;
_journal_coeditor_code "IUCr FG1257"
_journal_coden_Cambridge 591
_journal_volume 53
_journal_year 1997
_journal_page_first 936
_journal_name_full 'Acta Crystallogr.,Sect.C:Cryst.Struct.Commun. '
loop_
_publ_author_name
"M.Lautens"
"A.J.Lough"
"Yi Ren"
_chemical_name_systematic
;
(cis-1-Cyclohexyl-6-methylene-3,5,6,6a-tetrahydro-1H-cyclopenta(c)furan-4-yl)m
ethyl 3,5-dintrobenzoate
;
_cell_volume   2056.886
_exptl_crystal_colour 'colorless'
_exptl_crystal_density_diffrn 1.384
_diffrn_ambient_temperature 178
#These two values have been output from a single CSD field.
_refine_ls_R_factor_gt 0.076
_refine_ls_wR_factor_gt 0.076
_symmetry_cell_setting monoclinic
_symmetry_space_group_name_H-M 'P 21/c'
_symmetry_Int_Tables_number 14
loop_
_symmetry_equiv_pos_site_id
_symmetry_equiv_pos_as_xyz
1 x,y,z
2 -x,1/2+y,1/2-z
3 -x,-y,-z
4 x,-1/2-y,-1/2+z
_cell_length_a 17.489(10)
_cell_length_b 5.415(4)
_cell_length_c 21.805(12)
_cell_angle_alpha 90
_cell_angle_beta 95.08(2)
_cell_angle_gamma 90
_cell_formula_units_Z 4
loop_
_atom_type_symbol
_atom_type_radius_bond
C 0.68
H 0.23
N 0.68
O 0.68
loop_
_atom_site_label
_atom_site_type_symbol
_atom_site_fract_x
_atom_site_fract_y
_atom_site_fract_z
O1 O 0.7442(3) 0.2005(13) 0.2085(2)
O2 O 0.8466(3) 0.1292(11) 0.3982(2)
O3 O 0.8449(2) 0.4557(12) 0.4610(2)
O4 O 1.0543(3) -0.0243(11) 0.2756(2)
O5 O 1.1274(3) 0.2798(13) 0.2533(2)
O6 O 1.0766(2) 0.9877(12) 0.4721(2)
O7 O 1.1641(3) 0.9359(11) 0.4075(2)
N1 N 1.0803(3) 0.1890(15) 0.2845(3)
N2 N 1.1039(3) 0.8817(14) 0.4299(3)
C1 C 0.6871(4) -0.001(3) 0.2065(4)
H1 H 0.71530 -0.16210 0.20820
C2 C 0.7700(4) 0.2523(16) 0.2715(3)
H2 H 0.76450 0.43010 0.28070
H3 H 0.82450 0.20430 0.28060
C3 C 0.7200(4) 0.1023(19) 0.3071(3)
C4 C 0.7205(4) 0.0020(18) 0.3617(3)
C5 C 0.6535(4) -0.1748(18) 0.3649(3)
H4 H 0.61580 -0.11060 0.39230
H5 H 0.67130 -0.33990 0.37960
C6 C 0.6197(4) -0.1839(18) 0.2983(3)
C7 C 0.6531(5) 0.028(2) 0.2623(4)
H6 H 0.61520 0.16660 0.25800
C8 C 0.5671(3) -0.3381(15) 0.2767(3)
H7 H 0.54700 -0.45600 0.30330
H8 H 0.54870 -0.33300 0.23450
C9 C 0.7749(3) 0.0399(17) 0.4165(3)
H9 H 0.75340 0.16060 0.44440
H10 H 0.78320 -0.11800 0.43900
C10 C 0.8757(4) 0.3381(19) 0.4234(3)
C11 C 0.9509(4) 0.4004(16) 0.4003(3)
C12 C 0.9805(3) 0.2614(16) 0.3552(3)
H11 H 0.95320 0.12210 0.33820
C13 C 1.0503(4) 0.3268(17) 0.3349(3)
C14 C 1.0924(4) 0.5359(16) 0.3569(3)
H12 H 1.13870 0.58550 0.34080
C15 C 1.0620(4) 0.6604(17) 0.4027(3)
C16 C 0.9912(4) 0.6041(16) 0.4250(3)
H13 H 0.97130 0.70210 0.45610
C17 C 0.6400(4) 0.0170(19) 0.1438(3)
H14 H 0.59910 -0.11230 0.14290
C18 C 0.6921(3) -0.0473(16) 0.0934(3)
H15 H 0.73470 0.07370 0.09450
H16 H 0.71480 -0.21260 0.10190
C19 C 0.6497(4) -0.0472(19) 0.0295(3)
H17 H 0.68640 -0.08160 -0.00140
H18 H 0.61070 -0.18040 0.02690
C20 C 0.6105(4) 0.1984(19) 0.0149(3)
H19 H 0.64970 0.32950 0.01290
H20 H 0.58050 0.18900 -0.02570
C21 C 0.5578(4) 0.2617(19) 0.0640(3)
H21 H 0.53520 0.42710 0.05560
H22 H 0.51540 0.14030 0.06280
C22 C 0.6010(4) 0.2602(18) 0.1271(3)
H23 H 0.56470 0.29890 0.15810
H24 H 0.64020 0.39230 0.12890
#END
