
#######################################################################
#
#                 Cambridge Crystallographic Data Centre
#                                CCDC
#
#######################################################################
#
# If this CIF has been generated from an entry in the Cambridge
# Structural Database, then it will include bibliographic, chemical,
# crystal, experimental, refinement or atomic coordinate data resulting
# from the CCDC's data processing and validation procedures.
#
#######################################################################

data_CSD_CIF_REMZUE
_audit_creation_date 1997-09-09
_audit_creation_method CSD-ConQuest-V1
_database_code_CSD REMZUE
_database_code_depnum_ccdc_archive 'CCDC 128829'
_chemical_formula_sum 'C14 H19 N3 O7'
_chemical_formula_moiety
;
C14 H19 N3 O7
;
_journal_coeditor_code "IUCr HA1186"
_journal_coden_Cambridge 591
_journal_volume 53
_journal_year 1997
_journal_page_first 950
_journal_name_full 'Acta Crystallogr.,Sect.C:Cryst.Struct.Commun. '
loop_
_publ_author_name
"G.Bernardinelli"
"J.F.Tronchet"
"J.M.J.Tronchet"
_chemical_name_systematic
;
Methyl 
2-aza-2-deoxy-4,6-di-O-methyl-2-N-(p-nitrophenylamino)-\b-D-erythro-hexopyrano
sid-3-ulose
;
_chemical_melting_point 419.9
_cell_volume   1623.908
_exptl_crystal_colour 'yellow'
_exptl_crystal_density_diffrn 1.396
_exptl_special_details
;
Melting point range 419.9-420.11K

;
_diffrn_ambient_temperature ?
_diffrn_special_details
;
The study was carried out at room temperature,in the range 283-303K

;
#These two values have been output from a single CSD field.
_refine_ls_R_factor_gt 0.074
_refine_ls_wR_factor_gt 0.074
_symmetry_cell_setting monoclinic
_symmetry_space_group_name_H-M 'C 2'
_symmetry_Int_Tables_number 5
loop_
_symmetry_equiv_pos_site_id
_symmetry_equiv_pos_as_xyz
1 x,y,z
2 -x,y,-z
3 1/2+x,1/2+y,z
4 1/2-x,1/2+y,-z
_cell_length_a 21.574(1)
_cell_length_b 4.5576(9)
_cell_length_c 17.039(2)
_cell_angle_alpha 90
_cell_angle_beta 104.238(5)
_cell_angle_gamma 90
_cell_formula_units_Z 4
loop_
_atom_type_symbol
_atom_type_radius_bond
C 0.68
H 0.23
N 0.68
O 0.68
loop_
_atom_site_label
_atom_site_type_symbol
_atom_site_fract_x
_atom_site_fract_y
_atom_site_fract_z
O1 O 0.4368(3) 0.50000 0.7103(5)
O2 O 0.2864(4) -0.050(3) 0.6519(5)
O3 O 0.3638(4) 0.006(3) 0.5468(4)
O4 O 0.5405(5) 0.404(4) 0.6238(7)
O5 O 0.4103(3) 0.602(3) 0.8257(4)
O6 O 0.0754(5) 0.695(4) 0.8422(6)
O7 O 0.1004(4) 0.453(4) 0.9524(5)
N1 N 0.3533(4) 0.238(3) 0.7447(5)
N2 N 0.3301(4) 0.119(3) 0.8065(5)
N3 N 0.1108(6) 0.531(4) 0.8873(8)
C1 C 0.3305(5) 0.118(4) 0.6668(7)
C2 C 0.3689(6) 0.219(4) 0.6065(6)
C3 C 0.4370(6) 0.289(3) 0.6485(7)
C4 C 0.4163(5) 0.377(4) 0.7744(6)
C5 C 0.3205(5) 0.050(4) 0.4723(6)
C6 C 0.4756(6) 0.418(5) 0.5934(7)
C7 C 0.5717(8) 0.642(6) 0.6525(12)
C8 C 0.4534(5) 0.592(4) 0.9005(7)
C9 C 0.2761(5) 0.229(4) 0.8240(6)
C10 C 0.2387(5) 0.445(4) 0.7794(6)
C11 C 0.1842(5) 0.543(4) 0.7989(6)
C12 C 0.1677(5) 0.427(4) 0.8660(8)
C13 C 0.2033(6) 0.213(4) 0.9102(6)
C14 C 0.2579(5) 0.113(4) 0.8914(6)
H1 H 0.35501 -0.06454 0.84143
H2 H 0.34894 0.42315 0.57782
H3 H 0.45938 0.08180 0.67188
H4 H 0.45032 0.21077 0.80450
H5 H 0.27330 0.07443 0.48375
H6 H 0.33395 0.25458 0.44742
H7 H 0.31651 -0.11654 0.42531
H8 H 0.46361 0.29710 0.53610
H9 H 0.46200 0.64692 0.58200
H10 H 0.56279 0.80222 0.60384
H11 H 0.55120 0.71978 0.70134
H12 H 0.62328 0.63111 0.67710
H13 H 0.44660 0.38503 0.92954
H14 H 0.50154 0.59929 0.89113
H15 H 0.44860 0.77023 0.94124
H16 H 0.25250 0.53975 0.72753
H17 H 0.15439 0.70966 0.76197
H18 H 0.18848 0.11823 0.96134
H19 H 0.28708 -0.05583 0.92856
#END
