
#######################################################################
#
#                 Cambridge Crystallographic Data Centre
#                                CCDC
#
#######################################################################
#
# If this CIF has been generated from an entry in the Cambridge
# Structural Database, then it will include bibliographic, chemical,
# crystal, experimental, refinement or atomic coordinate data resulting
# from the CCDC's data processing and validation procedures.
#
#######################################################################

data_CSD_CIF_RENDUL
_audit_creation_date 2013-02-22
_audit_creation_method CSD-ConQuest-V1
_database_code_CSD RENDUL
_database_code_depnum_ccdc_archive 'CCDC 911985'
_chemical_formula_sum 'C23 H29 N3 O9'
_chemical_formula_moiety
;
C23 H29 N3 O9
;
_journal_coden_Cambridge 1336
_journal_volume 14
_journal_year 2012
_journal_page_first 5298
_journal_name_full 'Org.Lett. '
loop_
_publ_author_name
"Y.Mukaeda"
"T.Kato"
"S.Hosokawa"
_chemical_name_systematic
;
syn-7-(4-Isopropyl-2-oxo-1,3-oxazolidin-3-yl)-2,4,6-trimethyl-7-oxohept-5-en-3
-yl 3,5-dinitrobenzoate
;
_cell_volume   1206.539
_exptl_crystal_colour 'colorless'
_exptl_crystal_density_diffrn 1.353
_exptl_crystal_description 'prism'
_diffrn_ambient_temperature 123
#These two values have been output from a single CSD field.
_refine_ls_R_factor_gt 0.0696
_refine_ls_wR_factor_gt 0.0696
_symmetry_cell_setting monoclinic
_symmetry_space_group_name_H-M 'P 21'
_symmetry_Int_Tables_number 4
loop_
_symmetry_equiv_pos_site_id
_symmetry_equiv_pos_as_xyz
1 x,y,z
2 -x,1/2+y,-z
_cell_length_a 10.2747(5)
_cell_length_b 12.2094(6)
_cell_length_c 10.3190(5)
_cell_angle_alpha 90
_cell_angle_beta 111.243(3)
_cell_angle_gamma 90
_cell_formula_units_Z 2
loop_
_atom_type_symbol
_atom_type_radius_bond
C 0.68
H 0.23
N 0.68
O 0.68
loop_
_atom_site_label
_atom_site_type_symbol
_atom_site_fract_x
_atom_site_fract_y
_atom_site_fract_z
O1 O 0.3196(3) 0.6224(2) 1.1011(3)
O2 O 0.3119(3) 0.7905(3) 1.0061(4)
O3 O -0.0234(3) 0.2432(3) 0.5554(3)
O4 O 0.3694(3) 0.3406(3) 0.5097(4)
O5 O 0.3366(4) 0.5787(3) 1.5677(4)
O6 O 0.3849(3) 0.3092(3) 0.7290(4)
O7 O 0.3202(4) 0.7185(3) 1.6891(4)
O8 O 0.3158(4) 1.1065(3) 1.3019(4)
O9 O 0.3193(4) 1.0826(3) 1.5111(4)
N1 N 0.1705(4) 0.3270(3) 0.5479(4)
N2 N 0.3179(5) 1.0483(3) 1.3986(5)
N3 N 0.3275(4) 0.6772(3) 1.5845(5)
C1 C 0.3174(4) 0.7324(4) 1.1020(5)
C2 C 0.3254(5) 0.7053(4) 1.3481(5)
C3 C 0.0820(5) 0.2947(4) 0.6172(5)
C4 C 0.3253(4) 0.7507(4) 1.4700(5)
C5 C 0.4447(5) 0.4994(4) 1.0037(5)
C6 C 0.3118(4) 0.5657(4) 0.9719(5)
C7 C 0.3203(4) 0.7747(4) 1.2391(5)
C8 C 0.3172(5) 0.8871(4) 1.2548(5)
C9 C 0.3181(5) 0.9282(4) 1.3802(5)
C10 C 0.1590(4) 0.4387(4) 0.7915(5)
C11 C 0.1242(5) 0.3202(4) 0.3957(5)
C12 C 0.3153(5) 0.3256(4) 0.6102(6)
C13 C 0.3213(5) 0.8624(4) 1.4908(5)
C14 C 0.1759(5) 0.5005(4) 0.9234(5)
C15 C -0.0075(5) 0.3806(4) 0.3142(5)
C16 C 0.2582(5) 0.3619(4) 0.3794(5)
C17 C -0.0169(6) 0.3998(5) 0.1660(5)
C18 C 0.1149(5) 0.3364(4) 0.7621(5)
C19 C 0.0486(5) 0.5744(5) 0.8955(6)
C20 C 0.0772(5) 0.2590(4) 0.8556(5)
C21 C -0.0246(6) 0.4887(4) 0.3799(6)
C22 C 0.5716(5) 0.5750(5) 1.0340(6)
C23 C 0.4668(6) 0.4174(5) 1.1213(6)
H1 H 0.32880 0.62810 1.33820
H2 H 0.43540 0.45650 0.91830
H3 H 0.30730 0.62180 0.89980
H4 H 0.31460 0.93500 1.18130
H5 H 0.18230 0.47690 0.72270
H6 H 0.11160 0.24120 0.36810
H7 H 0.32080 0.89220 1.57560
H8 H 0.17890 0.44660 0.99740
H9 H -0.08780 0.33270 0.31020
H10 H 0.27500 0.32270 0.30280
H11 H 0.25110 0.44130 0.35860
H12 H -0.11390 0.41540 0.10710
H13 H 0.01510 0.33430 0.13140
H14 H 0.04210 0.46230 0.16350
H15 H 0.05870 0.61640 0.97940
H16 H -0.03590 0.52930 0.86970
H17 H 0.04140 0.62480 0.81930
H18 H 0.12950 0.27830 0.95290
H19 H 0.10050 0.18400 0.83810
H20 H -0.02320 0.26410 0.83700
H21 H -0.11750 0.51900 0.32870
H22 H 0.04690 0.54050 0.37640
H23 H -0.01430 0.47630 0.47700
H24 H 0.57340 0.62800 1.10590
H25 H 0.56500 0.61410 0.94890
H26 H 0.65730 0.53120 1.06640
H27 H 0.46560 0.45600 1.20420
H28 H 0.55700 0.38080 1.14260
H29 H 0.39180 0.36270 1.09270
#END
