
#######################################################################
#
#                 Cambridge Crystallographic Data Centre
#                                CCDC
#
#######################################################################
#
# If this CIF has been generated from an entry in the Cambridge
# Structural Database, then it will include bibliographic, chemical,
# crystal, experimental, refinement or atomic coordinate data resulting
# from the CCDC's data processing and validation procedures.
#
#######################################################################

data_CSD_CIF_RENFUN
_audit_creation_date 2013-02-22
_audit_creation_method CSD-ConQuest-V1
_database_code_CSD RENFUN
_database_code_depnum_ccdc_archive 'CCDC 912001'
_chemical_formula_sum 'C15 H24 N1 O2'
_chemical_formula_moiety
;
C15 H24 N1 O2
;
_journal_coden_Cambridge 1336
_journal_volume 14
_journal_year 2012
_journal_page_first 5322
_journal_name_full 'Org.Lett. '
loop_
_publ_author_name
"J.T.Paletta"
"M.Pink"
"B.Foley"
"S.Rajca"
"A.Rajca"
_chemical_name_systematic
;
(15-Oxo-7-azadispiro[5.1.5.3]hexadec-7-yl)oxidanyl radical
;
_cell_volume   1347.578
_exptl_crystal_colour 'yellow-brown'
_exptl_crystal_density_diffrn 1.234
_exptl_crystal_description 'block'
_exptl_crystal_preparation 'chloroform/pentane'
_diffrn_ambient_temperature 150
#These two values have been output from a single CSD field.
_refine_ls_R_factor_gt 0.0389
_refine_ls_wR_factor_gt 0.0389
_symmetry_cell_setting monoclinic
_symmetry_space_group_name_H-M 'P 21/c'
_symmetry_Int_Tables_number 14
loop_
_symmetry_equiv_pos_site_id
_symmetry_equiv_pos_as_xyz
1 x,y,z
2 -x,1/2+y,1/2-z
3 -x,-y,-z
4 x,-1/2-y,-1/2+z
_cell_length_a 11.5624(12)
_cell_length_b 11.0144(11)
_cell_length_c 10.9255(11)
_cell_angle_alpha 90
_cell_angle_beta 104.417(2)
_cell_angle_gamma 90
_cell_formula_units_Z 4
loop_
_atom_type_symbol
_atom_type_radius_bond
C 0.68
H 0.23
N 0.68
O 0.68
loop_
_atom_site_label
_atom_site_type_symbol
_atom_site_fract_x
_atom_site_fract_y
_atom_site_fract_z
O1 O 0.66041(7) 0.69266(7) 0.17295(7)
O2 O 0.79054(8) 1.10278(8) 0.43374(8)
N1 N 0.68570(7) 0.78610(8) 0.24468(7)
C1 C 0.81371(8) 0.80386(9) 0.31269(8)
C2 C 0.81891(9) 0.88902(9) 0.42532(9)
H1 H 0.78390 0.84710 0.48780
H2 H 0.90350 0.90720 0.46670
C3 C 0.75335(9) 1.00607(10) 0.38729(9)
C4 C 0.63820(9) 0.99817(9) 0.28499(9)
H3 H 0.65190 1.03420 0.20680
H4 H 0.57740 1.04860 0.31080
C5 C 0.58651(8) 0.87011(9) 0.25377(8)
C6 C 0.52722(9) 0.82081(9) 0.35594(9)
H5 H 0.50930 0.73350 0.34020
H6 H 0.58410 0.82850 0.43990
C7 C 0.41163(10) 0.88798(10) 0.35791(10)
H7 H 0.37410 0.84840 0.41970
H8 H 0.43090 0.97270 0.38580
C8 C 0.32369(10) 0.88852(11) 0.22869(11)
H9 H 0.25290 0.93760 0.23230
H10 H 0.29660 0.80450 0.20510
C9 C 0.38106(9) 0.94096(10) 0.12849(10)
H11 H 0.40150 1.02730 0.14770
H12 H 0.32360 0.93680 0.04460
C10 C 0.49425(9) 0.87013(10) 0.12513(9)
H13 H 0.53070 0.90660 0.06080
H14 H 0.47240 0.78530 0.09960
C11 C 0.86831(9) 0.67949(9) 0.35711(9)
H15 H 0.83070 0.64740 0.42260
H16 H 0.85030 0.62240 0.28490
C12 C 1.00368(9) 0.68528(10) 0.41123(10)
H17 H 1.02200 0.73660 0.48800
H18 H 1.03480 0.60270 0.43560
C13 C 1.06518(10) 0.73773(12) 0.31426(11)
H19 H 1.15200 0.74490 0.35270
H20 H 1.05370 0.68200 0.24110
C14 C 1.01446(10) 0.86220(11) 0.26916(10)
H21 H 1.05130 0.89140 0.20200
H22 H 1.03520 0.92040 0.34040
C15 C 0.87866(9) 0.85866(10) 0.21799(9)
H23 H 0.85890 0.81010 0.13930
H24 H 0.84910 0.94230 0.19650
#END
