
#######################################################################
#
#                 Cambridge Crystallographic Data Centre
#                                CCDC
#
#######################################################################
#
# If this CIF has been generated from an entry in the Cambridge
# Structural Database, then it will include bibliographic, chemical,
# crystal, experimental, refinement or atomic coordinate data resulting
# from the CCDC's data processing and validation procedures.
#
#######################################################################

data_CSD_CIF_RENFEY
_audit_creation_date 2017-10-12
_audit_creation_method CSD-ConQuest-V1
_database_code_CSD RENFEY
_database_code_depnum_ccdc_archive 'CCDC 1579700'
_chemical_formula_sum 'C15 H12 N4 O2'
_chemical_formula_moiety
;
C15 H12 N4 O2
;
_journal_coden_Cambridge 4
_journal_volume 139
_journal_year 2017
_journal_page_first 12121
_journal_name_full 'J.Am.Chem.Soc. '
loop_
_publ_author_name
"Woo Gyum Kim"
"Mi Eun Kang"
"Jae Bin Lee"
"Min Ho Jeon"
"Sungmin Lee"
"Jungha Lee"
"Bongseo Choi"
"P.M.S.D.Cal"
"Sebyung Kang"
"Jung-Min Kee"
"G.J.L.Bernardes"
"J.-U.Rohde"
"Wonyoung Choe"
"Sung You Hong"
_chemical_name_systematic
;
1-benzyl-5-(4-nitrophenyl)-1H-1,2,3-triazole
;
_cell_volume    652.380
_exptl_crystal_colour 'yellow'
_exptl_crystal_density_diffrn 1.427
_exptl_crystal_description 'needle'
_diffrn_ambient_temperature 123
#These two values have been output from a single CSD field.
_refine_ls_R_factor_gt 0.0628
_refine_ls_wR_factor_gt 0.0628
_symmetry_cell_setting monoclinic
_symmetry_space_group_name_H-M 'P 21'
_symmetry_Int_Tables_number 4
loop_
_symmetry_equiv_pos_site_id
_symmetry_equiv_pos_as_xyz
1 x,y,z
2 -x,1/2+y,-z
_cell_length_a 6.8000(14)
_cell_length_b 11.502(2)
_cell_length_c 8.4630(17)
_cell_angle_alpha 90
_cell_angle_beta 99.74(3)
_cell_angle_gamma 90
_cell_formula_units_Z 2
loop_
_atom_type_symbol
_atom_type_radius_bond
C 0.68
H 0.23
N 0.68
O 0.68
loop_
_atom_site_label
_atom_site_type_symbol
_atom_site_fract_x
_atom_site_fract_y
_atom_site_fract_z
O1 O 1.2441(3) 0.3621(2) 0.1258(3)
O2 O 1.0895(4) 0.2375(2) 0.2522(3)
N1 N 0.3939(3) 0.6945(2) 0.3126(3)
N2 N 1.1021(3) 0.3328(2) 0.1885(2)
N3 N 0.1890(3) 0.7603(2) 0.1117(3)
N4 N 0.2318(3) 0.7623(2) 0.2687(3)
C1 C 0.9253(3) 0.5110(2) 0.0881(3)
H1 H 1.01960 0.52310 0.02210
C2 C 0.9375(3) 0.4155(2) 0.1884(3)
C3 C 0.8006(4) 0.3935(2) 0.2886(3)
H2 H 0.81270 0.32820 0.35430
C4 C 0.6455(3) 0.4713(2) 0.2884(3)
H3 H 0.55230 0.45830 0.35530
C5 C 0.1805(4) 0.5704(3) 0.5366(3)
H4 H 0.10080 0.61040 0.45410
C6 C 0.3840(4) 0.5935(2) 0.5719(3)
C7 C 0.4577(3) 0.6490(2) 0.1825(3)
C8 C 0.4155(4) 0.4510(3) 0.7858(3)
H5 H 0.49450 0.41170 0.86940
C9 C 0.6271(3) 0.5691(2) 0.1890(3)
C10 C 0.5015(4) 0.5341(3) 0.6977(3)
H6 H 0.63740 0.54980 0.72300
C11 C 0.7682(4) 0.5885(2) 0.0885(3)
H7 H 0.75670 0.65340 0.02190
C12 C 0.4821(4) 0.6855(2) 0.4822(3)
H8 H 0.47160 0.76030 0.53310
H9 H 0.62280 0.66730 0.49070
C13 C 0.3249(4) 0.6918(3) 0.0545(3)
H10 H 0.32740 0.67650 -0.05300
C14 C 0.2128(4) 0.4271(3) 0.7488(3)
H11 H 0.15590 0.37130 0.80660
C15 C 0.0956(4) 0.4870(3) 0.6248(3)
H12 H -0.04050 0.47170 0.60030
#END
