
#######################################################################
#
#                 Cambridge Crystallographic Data Centre
#                                CCDC
#
#######################################################################
#
# If this CIF has been generated from an entry in the Cambridge
# Structural Database, then it will include bibliographic, chemical,
# crystal, experimental, refinement or atomic coordinate data resulting
# from the CCDC's data processing and validation procedures.
#
#######################################################################

data_CSD_CIF_RENMEF
_audit_creation_date 2017-10-12
_audit_creation_method CSD-ConQuest-V1
_database_code_CSD RENMEF
_database_code_depnum_ccdc_archive 'CCDC 1472710'
_chemical_formula_sum 'C29 H26 N2 O9'
_chemical_formula_moiety
;
C29 H26 N2 O9
;
_journal_coden_Cambridge 35
_journal_volume 81
_journal_year 2016
_journal_page_first 5513
_journal_name_full 'J.Org.Chem. '
loop_
_publ_author_name
"P.Mukherjee"
"A.R.Das"
_chemical_name_systematic
;
ethyl 
1a-((cyclohexylcarbonyl)oxy)-9-(4-nitrophenyl)-3,8-dioxo-1,1a,3,9-tetrahydrobe
nzo[6,7]chromeno[2,3-b]azirene-9a(8H)-carboxylate
;
_cell_volume   2683.945
_exptl_crystal_colour 'yellow'
_exptl_crystal_density_diffrn 1.345
_exptl_crystal_description 'needle'
_diffrn_ambient_temperature 296
#These two values have been output from a single CSD field.
_refine_ls_R_factor_gt 0.0588
_refine_ls_wR_factor_gt 0.0588
_symmetry_cell_setting monoclinic
_symmetry_space_group_name_H-M 'P 21/c'
_symmetry_Int_Tables_number 14
loop_
_symmetry_equiv_pos_site_id
_symmetry_equiv_pos_as_xyz
1 x,y,z
2 -x,1/2+y,1/2-z
3 -x,-y,-z
4 x,-1/2-y,-1/2+z
_cell_length_a 12.2536(7)
_cell_length_b 11.1077(6)
_cell_length_c 19.8629(12)
_cell_angle_alpha 90
_cell_angle_beta 96.900(2)
_cell_angle_gamma 90
_cell_formula_units_Z 4
loop_
_atom_type_symbol
_atom_type_radius_bond
C 0.68
H 0.23
N 0.68
O 0.68
loop_
_atom_site_label
_atom_site_type_symbol
_atom_site_fract_x
_atom_site_fract_y
_atom_site_fract_z
O1 O 0.75938(13) 0.68815(14) 0.25177(8)
O2 O 1.5021(2) 0.7442(3) 0.39121(15)
N1 N 0.94815(16) 0.72693(14) 0.29181(9)
O3 O 0.72521(15) 0.50745(16) 0.20322(10)
O4 O 0.87711(13) 0.70570(13) 0.17497(7)
O5 O 0.89048(18) 0.77334(17) 0.05179(8)
O6 O 1.17577(15) 0.44459(15) 0.15847(8)
O7 O 0.85998(18) 0.57444(15) 0.38024(9)
O8 O 0.91691(17) 0.40579(14) 0.33442(8)
O9 O 1.4742(2) 0.6080(3) 0.46076(14)
C1 C 0.86852(19) 0.67634(17) 0.24261(10)
N2 N 1.4468(2) 0.6654(2) 0.40996(11)
C2 C 1.34271(19) 0.6348(2) 0.36943(10)
C3 C 1.2901(2) 0.5300(2) 0.38265(11)
H1 H 1.31870 0.48000 0.41800
C4 C 1.1945(2) 0.50018(19) 0.34293(10)
H2 H 1.15860 0.42890 0.35120
C5 C 1.15043(18) 0.57519(16) 0.29032(9)
C6 C 1.04262(17) 0.54222(16) 0.24861(9)
H3 H 1.03640 0.45430 0.24880
C7 C 0.94667(17) 0.59280(16) 0.28168(9)
C8 C 0.6896(2) 0.5983(2) 0.22412(11)
C9 C 0.5720(2) 0.6337(3) 0.22554(17)
H4 H 0.55960 0.64270 0.27310
C10 C 0.5460(3) 0.7562(3) 0.1897(3)
H5 H 0.47540 0.78530 0.20040
H6 H 0.60150 0.81460 0.20650
C11 C 0.5430(4) 0.7455(4) 0.1159(3)
H7 H 0.61530 0.72320 0.10490
H8 H 0.52410 0.82280 0.09500
C12 C 0.4607(4) 0.6528(5) 0.0877(3)
H9 H 0.46120 0.64700 0.03900
H10 H 0.38770 0.67750 0.09620
C13 C 1.30122(19) 0.71237(19) 0.31786(11)
H11 H 1.33790 0.78320 0.30970
C14 C 1.20468(18) 0.68214(18) 0.27906(10)
H12 H 1.17510 0.73380 0.24480
C15 C 0.4942(3) 0.5377(4) 0.1942(3)
C16 C 0.4864(3) 0.5332(4) 0.1191(3)
H13 H 0.42960 0.47640 0.10210
H14 H 0.55560 0.50460 0.10600
C17 C 0.96130(17) 0.65772(16) 0.14592(9)
C18 C 0.9592(2) 0.70183(19) 0.07459(10)
C19 C 1.04522(19) 0.65397(19) 0.03553(9)
C20 C 1.11897(18) 0.56802(19) 0.06351(9)
C21 C 1.11590(17) 0.52558(17) 0.13468(9)
C22 C 1.03691(17) 0.58199(16) 0.17557(9)
C23 C 1.1954(2) 0.5191(3) 0.02501(11)
H15 H 1.24420 0.46000 0.04300
C24 C 1.1972(2) 0.5607(3) -0.04162(13)
H16 H 1.24870 0.52960 -0.06770
C25 C 1.1249(3) 0.6459(3) -0.06865(12)
H17 H 1.12720 0.67200 -0.11290
C26 C 1.0489(2) 0.6932(3) -0.03105(11)
H18 H 0.99980 0.75140 -0.04970
C27 C 0.90642(19) 0.51206(18) 0.33429(10)
C28 C 0.8167(3) 0.5051(3) 0.43409(15)
H19 H 0.86630 0.43920 0.44810
H20 H 0.81190 0.55650 0.47310
C29 C 0.7116(5) 0.4592(7) 0.4106(3)
H21 H 0.66050 0.52450 0.40260
H22 H 0.68790 0.40610 0.44410
H23 H 0.71510 0.41560 0.36910
H24 H 0.918(2) 0.747(2) 0.3240(14)
H25 H 0.512(3) 0.458(4) 0.212(2)
H26 H 0.416(3) 0.563(3) 0.1933(17)
#END
