
#######################################################################
#
#                 Cambridge Crystallographic Data Centre
#                                CCDC
#
#######################################################################
#
# If this CIF has been generated from an entry in the Cambridge
# Structural Database, then it will include bibliographic, chemical,
# crystal, experimental, refinement or atomic coordinate data resulting
# from the CCDC's data processing and validation procedures.
#
#######################################################################

data_CSD_CIF_RENMAB
_audit_creation_date 2017-10-12
_audit_creation_method CSD-ConQuest-V1
_database_code_CSD RENMAB
_database_code_depnum_ccdc_archive 'CCDC 1472711'
_chemical_formula_sum 'C24 H19 N3 O6'
_chemical_formula_moiety
;
C24 H19 N3 O6
;
_journal_coden_Cambridge 35
_journal_volume 81
_journal_year 2016
_journal_page_first 5513
_journal_name_full 'J.Org.Chem. '
loop_
_publ_author_name
"P.Mukherjee"
"A.R.Das"
_chemical_name_systematic
;
3a-benzyl-9-(4-nitrophenyl)-2,8-dioxo-1,2,5,7,8,9-hexahydro-3aH-chromeno[3,2-d
][1,3]oxazole-9a(6H)-carbonitrile
;
_cell_volume   2080.480
_exptl_crystal_colour 'pale yellow'
_exptl_crystal_density_diffrn 1.364
_exptl_crystal_description 'Granular'
_diffrn_ambient_temperature 273
#These two values have been output from a single CSD field.
_refine_ls_R_factor_gt 0.0515
_refine_ls_wR_factor_gt 0.0515
_symmetry_cell_setting monoclinic
_symmetry_space_group_name_H-M 'P 21/n'
_symmetry_Int_Tables_number 14
loop_
_symmetry_equiv_pos_site_id
_symmetry_equiv_pos_as_xyz
1 x,y,z
2 1/2-x,1/2+y,1/2-z
3 -x,-y,-z
4 -1/2+x,-1/2-y,-1/2+z
_cell_length_a 10.738(6)
_cell_length_b 17.604(8)
_cell_length_c 11.007(7)
_cell_angle_alpha 90
_cell_angle_beta 90.78(3)
_cell_angle_gamma 90
_cell_formula_units_Z 4
loop_
_atom_type_symbol
_atom_type_radius_bond
C 0.68
H 0.23
N 0.68
O 0.68
loop_
_atom_site_label
_atom_site_type_symbol
_atom_site_fract_x
_atom_site_fract_y
_atom_site_fract_z
O1 O 1.07527(14) 0.07950(8) 0.30165(10)
O2 O 0.90527(9) 0.26004(5) 0.94294(9)
O3 O 1.0875(1) 0.28868(5) 1.04019(8)
N1 N 1.10483(12) 0.16355(6) 1.06162(9)
H1 H 1.10720 0.12000 1.09700
O4 O 1.14676(12) 0.24319(7) 1.22373(9)
O5 O 0.83686(10) -0.00458(5) 0.95113(11)
C1 C 0.9983(1) 0.11402(6) 0.87607(9)
H2 H 1.02820 0.06380 0.90160
O6 O 0.89830(13) 0.13667(11) 0.30060(11)
C2 C 0.83499(11) 0.19681(6) 0.9616(1)
C3 C 0.94410(18) 0.53909(8) 0.82218(15)
H3 H 0.91780 0.58940 0.81890
C4 C 1.06355(16) 0.52198(8) 0.85849(16)
H4 H 1.11790 0.56080 0.88120
C5 C 1.10375(14) 0.44687(8) 0.86146(14)
H5 H 1.18480 0.43590 0.88670
C6 C 1.02443(13) 0.38795(7) 0.82728(10)
C7 C 1.07267(14) 0.30684(7) 0.82391(11)
H6 H 1.16280 0.30840 0.81980
H7 H 1.04200 0.28300 0.74990
C8 C 1.03677(11) 0.25731(6) 0.93098(10)
C9 C 1.08850(11) 0.17388(6) 0.93196(10)
C10 C 0.99547(10) 0.11498(6) 0.73775(9)
C11 C 0.90135(12) 0.15176(8) 0.67258(11)
H8 H 0.83890 0.17700 0.71410
C12 C 0.89945(13) 0.15125(9) 0.54640(11)
H9 H 0.83630 0.17580 0.50300
C13 C 0.99341(12) 0.11350(7) 0.48663(10)
N2 N 0.98911(12) 0.11037(7) 0.35344(10)
C14 C 1.08879(11) 0.07713(7) 0.67394(11)
H10 H 1.15160 0.05190 0.71670
C15 C 1.08907(12) 0.07673(7) 0.54796(11)
H11 H 1.15200 0.05230 0.50580
C16 C 0.87350(11) 0.12611(6) 0.93308(9)
C17 C 1.11584(13) 0.23064(7) 1.12043(11)
C18 C 1.21240(12) 0.17185(8) 0.87344(13)
N3 N 1.30950(14) 0.17107(11) 0.83296(19)
C19 C 0.86310(17) 0.48119(9) 0.79059(17)
H12 H 0.78130 0.49250 0.76830
C20 C 0.90356(15) 0.40567(8) 0.79205(15)
H13 H 0.84890 0.36710 0.76920
C21 C 0.71164(13) 0.21610(8) 1.01334(13)
H14 H 0.68000 0.26200 0.97530
H15 H 0.72100 0.22560 1.09980
C22 C 0.61922(14) 0.15165(10) 0.99275(15)
H16 H 0.54570 0.16060 1.04100
H17 H 0.59370 0.15070 0.90790
C23 C 0.67531(16) 0.07523(9) 1.02714(16)
H18 H 0.68700 0.07320 1.11460
H19 H 0.61730 0.03530 1.00420
C24 C 0.79840(12) 0.06043(7) 0.96733(11)
#END
