
#######################################################################
#
#                 Cambridge Crystallographic Data Centre
#                                CCDC
#
#######################################################################
#
# If this CIF has been generated from an entry in the Cambridge
# Structural Database, then it will include bibliographic, chemical,
# crystal, experimental, refinement or atomic coordinate data resulting
# from the CCDC's data processing and validation procedures.
#
#######################################################################

data_CSD_CIF_RENTUZ
_audit_creation_date 1997-09-09
_audit_creation_method CSD-ConQuest-V1
_database_code_CSD RENTUZ
_chemical_formula_sum 'C8 H13 N5 O2'
_chemical_formula_moiety
;
C8 H13 N5 O2
;
_journal_coden_Cambridge 122
_journal_year 1997
_journal_page_first 343
_journal_name_full 'Khim.Get.Soedin.,SSSR(Russ.)(Chem.Heterocycl.Compd.) '
loop_
_publ_author_name
"V.A.Makarov"
"V.A.Tafeenko"
"V.G.Granik"
_chemical_name_systematic
;
4,6-bis(Dimethylamino)-5-nitropyrimidine
;
_chemical_melting_point 434.15
_cell_volume   1029.285
_exptl_crystal_colour 'light yellow'
_exptl_crystal_density_diffrn 1.34
_exptl_special_details
;
Melting point range 434.15-436.15K

;
_diffrn_ambient_temperature ?
_diffrn_special_details
;
The study was carried out at room temperature,in the range 283-303K

;
#These two values have been output from a single CSD field.
_refine_ls_R_factor_gt 0.036
_refine_ls_wR_factor_gt 0.036
_symmetry_cell_setting monoclinic
_symmetry_space_group_name_H-M 'P 21/n'
_symmetry_Int_Tables_number 14
loop_
_symmetry_equiv_pos_site_id
_symmetry_equiv_pos_as_xyz
1 x,y,z
2 1/2-x,1/2+y,1/2-z
3 -x,-y,-z
4 -1/2+x,-1/2-y,-1/2+z
_cell_length_a 8.961(2)
_cell_length_b 13.104(3)
_cell_length_c 8.957(2)
_cell_angle_alpha 90
_cell_angle_beta 101.87(2)
_cell_angle_gamma 90
_cell_formula_units_Z 4
loop_
_atom_type_symbol
_atom_type_radius_bond
C 0.68
H 0.23
N 0.68
O 0.68
loop_
_atom_site_label
_atom_site_type_symbol
_atom_site_fract_x
_atom_site_fract_y
_atom_site_fract_z
O1 O 0.3760(2) 0.11237(9) 0.5334(2)
O2 O 0.3604(2) 0.21395(11) 0.7199(2)
N1 N 0.4578(2) 0.20172(11) 0.2730(2)
N2 N 0.3770(2) 0.19981(12) 0.5868(2)
N3 N 0.4048(2) 0.42597(12) 0.6738(2)
N4 N 0.2822(2) 0.33098(12) 0.2326(2)
N5 N 0.2581(2) 0.44472(12) 0.4349(2)
C1 C 0.3865(2) 0.28428(13) 0.4927(2)
C2 C 0.3775(2) 0.27036(13) 0.3318(2)
C3 C 0.3511(2) 0.38554(13) 0.5369(2)
C4 C 0.2224(3) 0.4085(2) 0.2939(3)
C5 C 0.5368(3) 0.3863(2) 0.7805(3)
C6 C 0.5899(2) 0.1494(2) 0.3628(3)
C7 C 0.3470(4) 0.5237(2) 0.7156(4)
C8 C 0.4318(4) 0.1847(2) 0.1083(3)
H1 H 0.1429(25) 0.4491(17) 0.2251(24)
H2 H 0.5904(26) 0.3337(20) 0.7325(26)
H3 H 0.6055(27) 0.443(2) 0.8229(27)
H4 H 0.5105(30) 0.3567(19) 0.8705(30)
H5 H 0.6185(22) 0.1826(15) 0.4634(23)
H6 H 0.5745(24) 0.0765(18) 0.3741(22)
H7 H 0.6808(27) 0.1596(17) 0.3097(25)
H8 H 0.3962(30) 0.5784(23) 0.6775(31)
H9 H 0.3542(35) 0.5296(24) 0.8214(37)
H10 H 0.2369(34) 0.5318(20) 0.6783(30)
H11 H 0.3237(43) 0.1940(24) 0.0630(36)
H12 H 0.4996(44) 0.2240(28) 0.0637(40)
H13 H 0.4375(39) 0.1129(27) 0.0831(36)
#END
