
#######################################################################
#
#                 Cambridge Crystallographic Data Centre
#                                CCDC
#
#######################################################################
#
# If this CIF has been generated from an entry in the Cambridge
# Structural Database, then it will include bibliographic, chemical,
# crystal, experimental, refinement or atomic coordinate data resulting
# from the CCDC's data processing and validation procedures.
#
#######################################################################

data_CSD_CIF_REPTAH
_audit_creation_date 2001-11-22
_audit_creation_method CSD-ConQuest-V1
_database_code_CSD REPTAH
_database_code_depnum_ccdc_archive 'CCDC 170929'
_chemical_formula_sum 'C14 H19 N2 O2'
_chemical_formula_moiety
;
C14 H19 N2 O2
;
_journal_coeditor_code "IUCr TK6031"
_journal_coden_Cambridge 1370
_journal_volume 57
_journal_year 2001
_journal_page_first o786
_journal_name_full 'Acta Crystallogr.,Sect.E:Struct.Rep.Online '
loop_
_publ_author_name
"G.Smith"
"S.E.Bottle"
"D.A.Reid"
"R.C.Bott"
_chemical_name_systematic
;
5-Acetamido-1,1,3,3-tetramethylisoindolin-2-yloxyl
;
_chemical_melting_point 467
_cell_volume   1407.267
_exptl_crystal_colour 'yellow'
_exptl_crystal_density_diffrn 1.167
_exptl_special_details
;
Melting point range 467-471K

;
_exptl_crystal_description 'block'
_exptl_crystal_preparation 'acetonitrile'
_diffrn_ambient_temperature 295
#These two values have been output from a single CSD field.
_refine_ls_R_factor_gt 0.039
_refine_ls_wR_factor_gt 0.039
_symmetry_cell_setting monoclinic
_symmetry_space_group_name_H-M 'C c'
_symmetry_Int_Tables_number 9
loop_
_symmetry_equiv_pos_site_id
_symmetry_equiv_pos_as_xyz
1 x,y,z
2 x,-y,1/2+z
3 1/2+x,1/2+y,z
4 1/2+x,1/2-y,1/2+z
_cell_length_a 14.325(4)
_cell_length_b 8.536(8)
_cell_length_c 11.513(4)
_cell_angle_alpha 90
_cell_angle_beta 91.56(2)
_cell_angle_gamma 90
_cell_formula_units_Z 4
loop_
_atom_type_symbol
_atom_type_radius_bond
C 0.68
H 0.23
N 0.68
O 0.68
loop_
_atom_site_label
_atom_site_type_symbol
_atom_site_fract_x
_atom_site_fract_y
_atom_site_fract_z
O1 O 1.0616(3) 0.6239(5) 0.8706(4)
O2 O 0.7736(3) 1.2419(4) 0.5737(4)
N1 N 0.9920(3) 0.6661(5) 0.8060(4)
N2 N 0.7083(3) 1.0132(4) 0.5138(3)
C1 C 0.8856(3) 0.8167(6) 0.7049(4)
C2 C 0.8374(4) 0.9389(6) 0.6520(4)
C3 C 0.7596(4) 0.9011(6) 0.5801(4)
C4 C 0.7326(3) 0.7449(6) 0.5685(4)
C5 C 0.7817(3) 0.6249(6) 0.6225(4)
C6 C 0.8601(3) 0.6634(6) 0.6907(4)
C7 C 0.9263(4) 0.5504(5) 0.7516(5)
C8 C 0.9731(4) 0.8346(6) 0.7814(4)
C9 C 0.7188(4) 1.1701(6) 0.5101(5)
C10 C 0.6599(4) 1.2509(7) 0.4193(5)
C11 C 0.9793(4) 0.4484(7) 0.6681(5)
C12 C 0.8809(5) 0.4528(7) 0.8452(5)
C13 C 0.9564(4) 0.9208(7) 0.8951(5)
C14 C 1.0550(4) 0.9052(7) 0.7178(5)
H1 H 0.85450 1.04490 0.66450
H2 H 0.67820 0.72120 0.52180
H3 H 0.76260 0.51830 0.61160
H4 H 0.66350 0.95830 0.46250
H5 H 0.69770 1.30210 0.36490
H6 H 0.62010 1.32670 0.45460
H7 H 0.62090 1.17600 0.37940
H8 H 0.93820 0.37060 0.63560
H9 H 1.02920 0.39790 0.70900
H10 H 1.00280 0.51070 0.60770
H11 H 0.92710 0.40350 0.89230
H12 H 0.84200 0.37310 0.80900
H13 H 0.84260 0.51740 0.89100
H14 H 0.95040 1.03050 0.87940
H15 H 1.00700 0.90370 0.94730
H16 H 0.90010 0.88400 0.92700
H17 H 1.05780 0.85880 0.64230
H18 H 1.11090 0.88690 0.75980
H19 H 1.04520 1.01540 0.70850
#END
