
#######################################################################
#
#                 Cambridge Crystallographic Data Centre
#                                CCDC
#
#######################################################################
#
# If this CIF has been generated from an entry in the Cambridge
# Structural Database, then it will include bibliographic, chemical,
# crystal, experimental, refinement or atomic coordinate data resulting
# from the CCDC's data processing and validation procedures.
#
#######################################################################

data_CSD_CIF_REQREL
_audit_creation_date 2007-02-05
_audit_creation_method CSD-ConQuest-V1
_database_code_CSD REQREL
_database_code_depnum_ccdc_archive 'CCDC 260687'
_chemical_formula_sum 'C26 H32 N2 O2'
_chemical_formula_moiety
;
C26 H32 N2 O2
;
_journal_coden_Cambridge 34
_journal_volume 43
_journal_year 2006
_journal_page_first 277
_journal_name_full 'J.Heterocycl.Chem. '
loop_
_publ_author_name
"S.A.Popov"
"N.V.Chukanov"
"G.V.Romanenko"
"T.V.Rybalova"
"Yu.V.Gatilov"
"V.A.Reznikov"
_chemical_name_systematic
;
(7a-t-Butyl-2,2,3,3-tetramethyl-6-phenyl-1,2,3,7a-tetrahydroimidazo(1,2-b)isox
azol-7-yl)(phenyl)methanone
;
_chemical_melting_point 420.15
_cell_volume   2324.829
_exptl_crystal_colour 'colorless'
_exptl_crystal_density_diffrn 1.156
_exptl_special_details
;
Melting point range 420.15-421.15K

;
_exptl_crystal_description 'plate'
_diffrn_ambient_temperature 240
#These two values have been output from a single CSD field.
_refine_ls_R_factor_gt 0.0653
_refine_ls_wR_factor_gt 0.0653
_symmetry_cell_setting monoclinic
_symmetry_space_group_name_H-M 'P 21/c'
_symmetry_Int_Tables_number 14
loop_
_symmetry_equiv_pos_site_id
_symmetry_equiv_pos_as_xyz
1 x,y,z
2 -x,1/2+y,1/2-z
3 -x,-y,-z
4 x,-1/2-y,-1/2+z
_cell_length_a 12.011(8)
_cell_length_b 10.767(7)
_cell_length_c 17.986(11)
_cell_angle_alpha 90
_cell_angle_beta 91.813(14)
_cell_angle_gamma 90
_cell_formula_units_Z 4
loop_
_atom_type_symbol
_atom_type_radius_bond
C 0.68
H 0.23
N 0.68
O 0.68
loop_
_atom_site_label
_atom_site_type_symbol
_atom_site_fract_x
_atom_site_fract_y
_atom_site_fract_z
O1 O 0.79357(18) 0.2504(2) 0.24095(12)
N1 N 0.8809(2) 0.2741(3) 0.18725(14)
O2 O 0.62431(19) 0.4109(2) 0.03749(13)
N2 N 0.8659(3) 0.4041(3) 0.08483(18)
H1 H 0.820(3) 0.431(3) 0.051(2)
C1 C 0.6983(2) 0.2909(3) 0.13397(18)
C2 C 0.8217(3) 0.2887(3) 0.11394(17)
C3 C 0.4965(3) 0.2664(3) 0.08318(17)
C4 C 0.6919(2) 0.2697(3) 0.20674(17)
C5 C 0.5999(3) 0.2726(3) 0.25873(18)
C6 C 0.8490(3) 0.1784(3) 0.06162(18)
C7 C 0.5139(3) 0.3574(4) 0.2498(2)
H2 H 0.512(3) 0.417(3) 0.210(2)
C8 C 0.6072(3) 0.3292(3) 0.08252(19)
C9 C 0.4824(3) 0.1468(4) 0.1075(2)
H3 H 0.548(3) 0.104(3) 0.1223(17)
C10 C 0.4032(3) 0.3323(4) 0.0569(2)
H4 H 0.419(3) 0.418(3) 0.0417(18)
C11 C 0.9385(3) 0.3964(3) 0.20611(19)
C12 C 0.8932(3) 0.4883(3) 0.1467(2)
C13 C 0.6004(4) 0.1941(4) 0.3195(2)
H5 H 0.667(3) 0.143(4) 0.326(2)
C14 C 0.8101(4) 0.0563(4) 0.0963(3)
H6 H 0.832(3) -0.013(4) 0.066(2)
H7 H 0.726(3) 0.048(3) 0.0942(18)
H8 H 0.826(3) 0.048(4) 0.148(3)
C15 C 0.2993(3) 0.2769(5) 0.0569(2)
H9 H 0.241(3) 0.331(3) 0.0400(18)
C16 C 0.9761(4) 0.1702(5) 0.0532(3)
H10 H 1.001(3) 0.246(4) 0.032(2)
H11 H 0.992(3) 0.110(4) 0.019(2)
H12 H 1.018(4) 0.147(5) 0.100(3)
C17 C 0.2874(4) 0.1572(5) 0.0811(3)
H13 H 0.211(3) 0.116(4) 0.082(2)
C18 C 0.4289(4) 0.3621(4) 0.2992(3)
H14 H 0.369(3) 0.426(4) 0.296(2)
C19 C 0.4303(4) 0.2838(5) 0.3587(3)
H15 H 0.374(3) 0.291(4) 0.389(2)
C20 C 0.3792(3) 0.0919(4) 0.1058(3)
H16 H 0.375(4) 0.009(5) 0.124(3)
C21 C 0.5153(5) 0.2008(5) 0.3696(3)
H17 H 0.522(3) 0.144(4) 0.405(2)
C22 C 0.7917(4) 0.1937(5) -0.0137(2)
H18 H 0.807(3) 0.262(4) -0.036(2)
H19 H 0.701(4) 0.192(4) -0.010(2)
H20 H 0.820(3) 0.126(4) -0.044(2)
C23 C 0.9215(5) 0.4361(6) 0.2857(3)
H21 H 0.834(4) 0.457(4) 0.288(3)
H22 H 0.962(3) 0.512(4) 0.291(2)
H23 H 0.956(4) 0.366(4) 0.317(3)
C24 C 1.0637(3) 0.3683(5) 0.1979(4)
H24 H 1.078(3) 0.353(4) 0.140(3)
H25 H 1.089(4) 0.293(5) 0.234(3)
H26 H 1.110(3) 0.439(4) 0.213(2)
C25 C 0.9792(6) 0.5827(5) 0.1213(4)
H27 H 1.048(3) 0.542(4) 0.096(2)
H28 H 1.008(5) 0.632(5) 0.161(3)
H29 H 0.934(3) 0.644(4) 0.091(2)
C26 C 0.7894(4) 0.5619(4) 0.1709(3)
H30 H 0.731(3) 0.504(4) 0.197(2)
H31 H 0.767(5) 0.613(5) 0.115(3)
H32 H 0.806(3) 0.627(4) 0.207(2)
#END
