
#######################################################################
#
#                 Cambridge Crystallographic Data Centre
#                                CCDC
#
#######################################################################
#
# If this CIF has been generated from an entry in the Cambridge
# Structural Database, then it will include bibliographic, chemical,
# crystal, experimental, refinement or atomic coordinate data resulting
# from the CCDC's data processing and validation procedures.
#
#######################################################################

data_CSD_CIF_REQROV
_audit_creation_date 2007-02-05
_audit_creation_method CSD-ConQuest-V1
_database_code_CSD REQROV
_database_code_depnum_ccdc_archive 'CCDC 260689'
_chemical_formula_sum 'C29 H29 N3 O4'
_chemical_formula_moiety
;
C29 H29 N3 O4
;
_journal_coden_Cambridge 34
_journal_volume 43
_journal_year 2006
_journal_page_first 277
_journal_name_full 'J.Heterocycl.Chem. '
loop_
_publ_author_name
"S.A.Popov"
"N.V.Chukanov"
"G.V.Romanenko"
"T.V.Rybalova"
"Yu.V.Gatilov"
"V.A.Reznikov"
_chemical_name_systematic
;
(1,2,2,3,3-Pentamethyl-6-phenyl-7a-(4-nitrophenyl)-1,2,3,7a-tetrahydroimidazo(
1,2-b)isoxazol-7-yl)(phenyl)methanone
;
_chemical_melting_point 455.65
_cell_volume   5159.078
_exptl_crystal_density_diffrn 1.245
_exptl_special_details
;
Melting point range 455.65-456.65K

;
_exptl_crystal_description 'rhombic'
_diffrn_ambient_temperature 240
#These two values have been output from a single CSD field.
_refine_ls_R_factor_gt 0.0761
_refine_ls_wR_factor_gt 0.0761
_symmetry_cell_setting monoclinic
_symmetry_space_group_name_H-M 'C 2/c'
_symmetry_Int_Tables_number 15
loop_
_symmetry_equiv_pos_site_id
_symmetry_equiv_pos_as_xyz
1 x,y,z
2 1/2+x,1/2+y,z
3 -x,y,1/2-z
4 1/2-x,1/2+y,1/2-z
5 -x,-y,-z
6 -1/2-x,-1/2-y,-z
7 x,-y,-1/2+z
8 -1/2+x,-1/2-y,-1/2+z
_cell_length_a 26.144(3)
_cell_length_b 13.2308(14)
_cell_length_c 19.256(2)
_cell_angle_alpha 90
_cell_angle_beta 129.236(2)
_cell_angle_gamma 90
_cell_formula_units_Z 8
loop_
_atom_type_symbol
_atom_type_radius_bond
C 0.68
H 0.23
N 0.68
O 0.68
loop_
_atom_site_label
_atom_site_type_symbol
_atom_site_fract_x
_atom_site_fract_y
_atom_site_fract_z
O1 O 0.20012(14) 0.4738(2) 0.48085(18)
C1 C 0.2582(2) 0.5080(3) 0.5564(3)
C2 C 0.25527(19) 0.5308(3) 0.6216(3)
C3 C 0.3117(2) 0.5068(3) 0.5508(3)
C4 C 0.3756(3) 0.4868(4) 0.6240(3)
H1 H 0.3855(17) 0.477(3) 0.676(2)
C5 C 0.4254(3) 0.4838(4) 0.6184(4)
H2 H 0.467(2) 0.461(3) 0.665(3)
C6 C 0.4110(3) 0.4992(4) 0.5373(4)
H3 H 0.445(2) 0.498(3) 0.533(3)
C7 C 0.3474(3) 0.5173(4) 0.4625(4)
H4 H 0.333(2) 0.515(3) 0.402(3)
C8 C 0.2980(3) 0.5226(3) 0.4689(3)
H5 H 0.253(2) 0.524(3) 0.423(3)
C9 C 0.3047(2) 0.5823(3) 0.7072(3)
O2 O 0.30691(16) 0.5672(3) 0.7720(2)
C10 C 0.3477(2) 0.6626(3) 0.7128(3)
C11 C 0.4112(3) 0.6733(5) 0.7934(4)
H6 H 0.431(2) 0.631(3) 0.837(3)
C12 C 0.4502(3) 0.7517(6) 0.8025(5)
H7 H 0.49380 0.75760 0.85480
C13 C 0.4249(4) 0.8203(6) 0.7350(6)
H8 H 0.452(3) 0.886(6) 0.750(4)
C14 C 0.3623(4) 0.8098(4) 0.6562(5)
H9 H 0.342(2) 0.863(4) 0.605(3)
C15 C 0.3234(3) 0.7300(4) 0.6450(4)
H10 H 0.274(2) 0.722(3) 0.588(3)
C16 C 0.18761(19) 0.4991(3) 0.5903(3)
C17 C 0.15770(19) 0.5821(3) 0.6106(3)
C18 C 0.1502(2) 0.5692(4) 0.6743(3)
H11 H 0.1694(19) 0.507(3) 0.715(3)
C19 C 0.1252(3) 0.6452(4) 0.6936(4)
H12 H 0.119(3) 0.640(5) 0.733(4)
C20 C 0.1065(2) 0.7334(4) 0.6473(4)
N1 N 0.0780(2) 0.8151(4) 0.6655(4)
O3 O 0.0656(2) 0.8942(4) 0.6273(4)
O4 O 0.0678(3) 0.7975(4) 0.7178(4)
C21 C 0.1127(3) 0.7491(4) 0.5832(4)
H13 H 0.097(2) 0.808(4) 0.548(3)
C22 C 0.1394(2) 0.6730(4) 0.5652(4)
H14 H 0.1431(19) 0.681(3) 0.524(3)
N2 N 0.18042(16) 0.3989(2) 0.6168(2)
C23 C 0.2365(3) 0.3597(5) 0.7027(4)
H15 H 0.274(3) 0.351(4) 0.696(4)
H16 H 0.224(2) 0.295(4) 0.714(3)
H17 H 0.251(2) 0.403(4) 0.750(3)
C24 C 0.1467(2) 0.3278(3) 0.5390(3)
C25 C 0.1955(4) 0.2636(5) 0.5392(5)
H18 H 0.223(2) 0.219(3) 0.606(3)
H19 H 0.230(3) 0.319(5) 0.543(4)
C26 C 0.1028(3) 0.2579(5) 0.5436(5)
H20 H 0.068(2) 0.306(3) 0.547(3)
H21 H 0.132(3) 0.217(5) 0.599(4)
H22 H 0.076(2) 0.212(3) 0.497(3)
C27 C 0.1070(2) 0.4034(3) 0.4604(3)
C28 C 0.0885(4) 0.3657(6) 0.3719(4)
H23 H 0.178(3) 0.226(4) 0.503(4)
H24 H 0.066(3) 0.317(5) 0.359(4)
H25 H 0.130(4) 0.343(5) 0.372(4)
H26 H 0.058(2) 0.432(3) 0.319(3)
C29 C 0.0448(3) 0.4417(6) 0.4427(5)
H27 H 0.012(3) 0.393(4) 0.411(3)
H28 H 0.052(2) 0.461(4) 0.488(3)
H29 H 0.028(3) 0.501(4) 0.396(4)
N3 N 0.14991(16) 0.4951(3) 0.4917(2)
#END
