
#######################################################################
#
#                 Cambridge Crystallographic Data Centre
#                                CCDC
#
#######################################################################
#
# If this CIF has been generated from an entry in the Cambridge
# Structural Database, then it will include bibliographic, chemical,
# crystal, experimental, refinement or atomic coordinate data resulting
# from the CCDC's data processing and validation procedures.
#
#######################################################################

data_CSD_CIF_RERDOJ01
_audit_creation_date 2013-11-14
_audit_creation_method CSD-ConQuest-V1
_database_code_CSD RERDOJ01
_database_code_depnum_ccdc_archive 'CCDC 971770'
_chemical_formula_sum 'C32 H28 N4 O8'
_chemical_formula_moiety
;
C32 H28 N4 O8
;
_journal_coden_Cambridge 1267
_journal_volume 228
_journal_year 2013
_journal_page_first 333
_journal_name_full 'Z.Kristallogr.-New Cryst.Struct. '
loop_
_publ_author_name
"Qiang Wang"
"Yunchang Fan"
"Lin Feng"
"Yun Li"
_chemical_name_systematic
;
ethyl 
2-(2-((2,4-dinitrophenyl)hydrazono)-2-phenylethyl)-2,5-dimethyl-7-phenyl-1,3-b
enzodioxole-4-carboxylate
;
_cell_volume   1456.125
_exptl_crystal_colour 'red'
_exptl_crystal_density_diffrn 1.358
_exptl_crystal_description 'block'
_diffrn_ambient_temperature 293
#These two values have been output from a single CSD field.
_refine_ls_R_factor_gt 0.0691
_refine_ls_wR_factor_gt 0.0691
_symmetry_cell_setting triclinic
_symmetry_space_group_name_H-M 'P -1'
_symmetry_Int_Tables_number 2
loop_
_symmetry_equiv_pos_site_id
_symmetry_equiv_pos_as_xyz
1 x,y,z
2 -x,-y,-z
_cell_length_a 10.085(2)
_cell_length_b 11.302(2)
_cell_length_c 13.269(3)
_cell_angle_alpha 80.76(3)
_cell_angle_beta 78.81(3)
_cell_angle_gamma 82.30(3)
_cell_formula_units_Z 2
loop_
_atom_type_symbol
_atom_type_radius_bond
C 0.68
H 0.23
N 0.68
O 0.68
loop_
_atom_site_label
_atom_site_type_symbol
_atom_site_fract_x
_atom_site_fract_y
_atom_site_fract_z
O1 O 0.30560(16) 0.69617(15) 0.34375(13)
O2 O 0.18934(17) 0.63298(16) 0.50645(13)
N1 N 0.1535(2) 0.91895(19) 0.53675(16)
O3 O 0.5392(2) 0.72483(19) 0.21687(15)
N2 N 0.0682(2) 0.8525(2) 0.61184(16)
C1 C 0.1658(2) 0.8990(2) 0.44177(19)
C2 C 0.5252(3) 0.7096(2) 0.3954(2)
C3 C 0.0695(3) 0.8613(2) 0.71233(19)
C4 C 0.3230(2) 0.6453(2) 0.5119(2)
C5 C 0.3911(3) 0.6836(2) 0.41459(19)
C6 C 0.2656(3) 0.9675(2) 0.36556(19)
C7 C 0.0912(2) 0.8100(2) 0.40609(19)
H1 H 0.07200 0.84180 0.33750
H2 H 0.00490 0.80210 0.45260
N3 N -0.1017(2) 0.7120(2) 0.7789(2)
O4 O -0.1057(2) 0.6979(2) 0.68877(17)
C8 C 0.3827(3) 0.6257(2) 0.5991(2)
C9 C 0.5906(3) 0.6905(2) 0.4829(2)
C10 C -0.0088(3) 0.7909(2) 0.7956(2)
O5 O 0.6857(2) 0.8201(2) 0.27148(18)
C11 C 0.1491(3) 0.9404(2) 0.7398(2)
H3 H 0.19730 0.99160 0.68780
C12 C 0.5200(3) 0.6485(2) 0.5788(2)
H4 H 0.56640 0.63420 0.63440
O6 O -0.1737(3) 0.6620(2) 0.85311(18)
C13 C 0.2644(3) 0.9835(2) 0.2598(2)
H5 H 0.19800 0.95210 0.23530
C14 C 0.1571(3) 0.9440(3) 0.8407(2)
H6 H 0.20980 0.99750 0.85680
C15 C 0.0868(3) 0.8678(3) 0.9190(2)
C16 C 0.0023(3) 0.7936(2) 0.8974(2)
H7 H -0.04740 0.74530 0.95100
C17 C 0.5935(3) 0.7578(2) 0.2904(2)
C18 C 0.3679(3) 1.0143(2) 0.3992(2)
H8 H 0.37140 1.00380 0.46960
C19 C 0.4634(3) 1.0757(3) 0.3300(2)
H9 H 0.53070 1.10670 0.35390
C20 C 0.2026(3) 0.5189(2) 0.7237(2)
H10 H 0.17190 0.49790 0.66790
C21 C 0.3112(3) 0.5873(2) 0.7055(2)
C22 C 0.3603(3) 1.0453(3) 0.1908(2)
H11 H 0.35790 1.05600 0.12020
C23 C 0.4600(3) 1.0915(3) 0.2262(2)
H12 H 0.52470 1.13320 0.17940
C24 C 0.1817(4) 0.5125(3) 0.9069(2)
H13 H 0.13870 0.48720 0.97400
C25 C 0.3518(3) 0.6182(3) 0.7917(2)
H14 H 0.42360 0.66490 0.78220
N4 N 0.1028(3) 0.8650(3) 1.0263(2)
O7 O 0.0425(3) 0.7963(3) 1.09373(19)
C26 C 0.1392(3) 0.4814(3) 0.8236(2)
H15 H 0.06710 0.43480 0.83440
C27 C 0.7372(3) 0.7144(3) 0.4741(3)
H16 H 0.74200 0.79970 0.46690
H17 H 0.79130 0.68290 0.41450
H18 H 0.77090 0.67570 0.53540
C28 C 0.5917(3) 0.7690(3) 0.1101(2)
H19 H 0.68670 0.73880 0.09180
H20 H 0.58390 0.85640 0.09920
C29 C 0.2871(4) 0.5806(3) 0.8908(2)
H21 H 0.31580 0.60200 0.94730
O8 O 0.1771(3) 0.9337(3) 1.04352(19)
C30 C 0.5082(5) 0.7240(4) 0.0466(3)
H22 H 0.50240 0.63930 0.06810
H23 H 0.54960 0.73720 -0.02530
H24 H 0.41860 0.76640 0.05580
C31 C 0.1708(2) 0.6848(2) 0.40248(19)
C32 C 0.1036(3) 0.6007(3) 0.3564(2)
H25 H 0.16150 0.52650 0.35110
H26 H 0.08810 0.63720 0.28860
H27 H 0.01840 0.58480 0.40000
#END
