
#######################################################################
#
#                 Cambridge Crystallographic Data Centre
#                                CCDC
#
#######################################################################
#
# If this CIF has been generated from an entry in the Cambridge
# Structural Database, then it will include bibliographic, chemical,
# crystal, experimental, refinement or atomic coordinate data resulting
# from the CCDC's data processing and validation procedures.
#
#######################################################################

data_CSD_CIF_RERWES
_audit_creation_date 2013-05-19
_audit_creation_method CSD-ConQuest-V1
_database_code_CSD RERWES
_database_code_depnum_ccdc_archive 'CCDC 912761'
_chemical_formula_sum 'C27 H33 N1 O7'
_chemical_formula_moiety
;
C27 H33 N1 O7
;
_journal_coden_Cambridge 1336
_journal_volume 15
_journal_year 2013
_journal_page_first 350
_journal_name_full 'Org.Lett. '
loop_
_publ_author_name
"E.O.Gorbacheva"
"A.A.Tabolin"
"R.A.Novikov"
"Y.A.Khomutova"
"Y.V.Nelyubina"
"Y.V.Tomilov"
"S.L.Ioffe"
_chemical_name_systematic
;
Dimethyl 
5-(4-methoxyphenyl)-2-phenyl-7-propylhexahydro-4H-[1,2]oxazino[2,3-b][1,2]oxaz
ine-4,4-dicarboxylate
;
_cell_volume   4940.791
_exptl_crystal_colour 'colorless'
_exptl_crystal_density_diffrn 1.3
_exptl_crystal_description 'prism'
_diffrn_ambient_temperature 100
#These two values have been output from a single CSD field.
_refine_ls_R_factor_gt 0.042
_refine_ls_wR_factor_gt 0.042
_symmetry_cell_setting orthorhombic
_symmetry_space_group_name_H-M 'P b c a'
_symmetry_Int_Tables_number 61
loop_
_symmetry_equiv_pos_site_id
_symmetry_equiv_pos_as_xyz
1 x,y,z
2 1/2-x,-y,1/2+z
3 -x,1/2+y,1/2-z
4 1/2+x,1/2-y,-z
5 -x,-y,-z
6 -1/2+x,y,-1/2-z
7 x,-1/2-y,-1/2+z
8 -1/2-x,-1/2+y,z
_cell_length_a 19.1983(8)
_cell_length_b 10.9762(5)
_cell_length_c 23.4467(10)
_cell_angle_alpha 90
_cell_angle_beta 90
_cell_angle_gamma 90
_cell_formula_units_Z 8
loop_
_atom_type_symbol
_atom_type_radius_bond
C 0.68
H 0.23
N 0.68
O 0.68
loop_
_atom_site_label
_atom_site_type_symbol
_atom_site_fract_x
_atom_site_fract_y
_atom_site_fract_z
N1 N 0.11661(6) 0.63987(11) 0.89272(4)
O1 O 0.10972(5) 0.73398(9) 0.84924(4)
O2 O 0.14346(5) 0.70026(9) 0.94071(4)
O3 O -0.11514(5) 0.69408(9) 0.97411(4)
O4 O -0.07527(5) 0.50746(9) 0.95214(4)
O5 O -0.08383(5) 0.72280(9) 0.84845(4)
O6 O -0.02066(5) 0.88311(9) 0.87836(5)
O7 O 0.14203(5) 0.04606(9) 0.87934(4)
C1 C 0.04584(7) 0.59195(12) 0.90238(5)
H1 H 0.05080 0.52930 0.93310
C2 C 0.02707(7) 0.51962(12) 0.84727(5)
H2 H -0.02460 0.50790 0.84760
C3 C 0.04487(7) 0.58998(13) 0.79182(6)
H3 H 0.05200 0.53010 0.76080
H4 H 0.00430 0.64100 0.78130
C4 C 0.10920(7) 0.67175(13) 0.79520(5)
H5 H 0.15240 0.62170 0.79100
C5 C 0.09986(7) 0.80079(12) 0.96103(5)
H6 H 0.09680 0.86570 0.93120
C6 C 0.02754(7) 0.75432(13) 0.97577(6)
H7 H -0.00210 0.82410 0.98710
H8 H 0.03090 0.69850 1.00880
C7 C -0.00749(7) 0.68665(12) 0.92564(5)
C8 C 0.05957(7) 0.39325(12) 0.85112(5)
C9 C 0.01880(7) 0.29468(13) 0.86838(6)
H9 H -0.02950 0.30690 0.87500
C10 C 0.04677(7) 0.17954(13) 0.87617(6)
H10 H 0.01760 0.11360 0.88700
C11 C 0.11789(7) 0.16093(13) 0.86799(6)
C12 C 0.15955(7) 0.25682(13) 0.84960(6)
H11 H 0.20780 0.24440 0.84290
C13 C 0.12996(7) 0.37133(13) 0.84106(6)
H12 H 0.15860 0.43620 0.82800
C14 C 0.10844(8) 0.77292(14) 0.75088(6)
H13 H 0.06660 0.82410 0.75690
H14 H 0.10480 0.73610 0.71250
C15 C 0.17303(8) 0.85388(14) 0.75291(6)
H15 H 0.18520 0.87000 0.79320
H16 H 0.21260 0.80990 0.73520
C16 C 0.16277(9) 0.97448(16) 0.72231(8)
H17 H 0.20510 1.02390 0.72600
H18 H 0.12340 1.01810 0.73930
H19 H 0.15330 0.95930 0.68190
C17 C 0.13625(7) 0.84933(13) 1.01327(6)
C18 C 0.14348(7) 0.97481(13) 1.02100(6)
H20 H 0.12680 1.02940 0.99270
C19 C 0.17504(8) 1.02017(15) 1.07011(7)
H21 H 0.17940 1.10560 1.07550
C20 C 0.19999(8) 0.94072(16) 1.11106(6)
H22 H 0.22200 0.97180 1.14430
C21 C 0.19296(8) 0.81573(16) 1.10381(6)
H23 H 0.21000 0.76160 1.13220
C22 C 0.16104(7) 0.76958(14) 1.05504(6)
H24 H 0.15610 0.68410 1.05020
C23 C -0.06957(7) 0.61663(13) 0.95072(5)
C24 C -0.17364(7) 0.63835(15) 1.00344(6)
H25 H -0.20440 0.70220 1.01830
H26 H -0.15640 0.58850 1.03510
H27 H -0.19960 0.58680 0.97670
C25 C -0.03608(7) 0.77773(13) 0.88205(5)
C26 C -0.11291(9) 0.79765(15) 0.80349(6)
H28 H -0.15420 0.75760 0.78770
H29 H -0.07820 0.80880 0.77330
H30 H -0.12600 0.87720 0.81910
C27 C 0.21562(8) 0.03049(14) 0.88196(7)
H31 H 0.22640 -0.05340 0.89330
H32 H 0.23520 0.08710 0.91000
H33 H 0.23590 0.04700 0.84440
#END
