
#######################################################################
#
#                 Cambridge Crystallographic Data Centre
#                                CCDC
#
#######################################################################
#
# If this CIF has been generated from an entry in the Cambridge
# Structural Database, then it will include bibliographic, chemical,
# crystal, experimental, refinement or atomic coordinate data resulting
# from the CCDC's data processing and validation procedures.
#
#######################################################################

data_CSD_CIF_RERWAO
_audit_creation_date 2013-05-19
_audit_creation_method CSD-ConQuest-V1
_database_code_CSD RERWAO
_database_code_depnum_ccdc_archive 'CCDC 912762'
_chemical_formula_sum 'C28 H33 N1 O7'
_chemical_formula_moiety
;
C28 H33 N1 O7
;
_journal_coden_Cambridge 1336
_journal_volume 15
_journal_year 2013
_journal_page_first 350
_journal_name_full 'Org.Lett. '
loop_
_publ_author_name
"E.O.Gorbacheva"
"A.A.Tabolin"
"R.A.Novikov"
"Y.A.Khomutova"
"Y.V.Nelyubina"
"Y.V.Tomilov"
"S.L.Ioffe"
_chemical_name_systematic
;
Dimethyl 
5-(4-methoxyphenyl)-2-phenyldecahydro-4H-[1,2]oxazino[2,3-b][1,2]benzoxazine-4
,4-dicarboxylate
;
_cell_volume   1280.257
_exptl_crystal_colour 'colorless'
_exptl_crystal_density_diffrn 1.286
_exptl_crystal_description 'prism'
_diffrn_ambient_temperature 100
#These two values have been output from a single CSD field.
_refine_ls_R_factor_gt 0.0446
_refine_ls_wR_factor_gt 0.0446
_symmetry_cell_setting triclinic
_symmetry_space_group_name_H-M 'P -1'
_symmetry_Int_Tables_number 2
loop_
_symmetry_equiv_pos_site_id
_symmetry_equiv_pos_as_xyz
1 x,y,z
2 -x,-y,-z
_cell_length_a 9.6224(6)
_cell_length_b 10.0813(6)
_cell_length_c 14.8728(9)
_cell_angle_alpha 103.357(1)
_cell_angle_beta 105.497(1)
_cell_angle_gamma 103.944(1)
_cell_formula_units_Z 2
loop_
_atom_type_symbol
_atom_type_radius_bond
C 0.68
H 0.23
N 0.68
O 0.68
loop_
_atom_site_label
_atom_site_type_symbol
_atom_site_fract_x
_atom_site_fract_y
_atom_site_fract_z
N1 N 0.62237(12) 0.56225(11) 0.21089(8)
O1 O 0.58389(11) 0.66276(10) 0.27910(7)
O2 O 0.51046(10) 0.43214(10) 0.20600(7)
O3 O 1.02799(11) 0.39635(11) 0.17422(8)
O4 O 0.96477(11) 0.36791(10) 0.30561(7)
O5 O 0.73162(11) 0.37514(11) 0.01091(7)
O6 O 0.88112(14) 0.60068(11) 0.09670(8)
O7 O 1.45444(12) 0.68162(14) 0.54595(8)
C1 C 0.77486(14) 0.55470(14) 0.26299(9)
H1 H 0.76910 0.51950 0.31990
C2 C 0.89759(14) 0.70523(14) 0.30187(9)
H2 H 0.91490 0.73130 0.24390
C3 C 0.84448(15) 0.82125(14) 0.35711(10)
H3 H 0.84490 0.80550 0.42110
C4 C 0.68141(15) 0.80662(14) 0.2985(1)
H4 H 0.64750 0.87300 0.34260
C5 C 0.51075(14) 0.31492(14) 0.12909(10)
H5 H 0.48640 0.33530 0.06500
C6 C 0.66694(14) 0.29577(14) 0.15726(10)
H6 H 0.67180 0.22360 0.10140
H7 H 0.68060 0.25790 0.21370
C7 C 0.79882(14) 0.43765(14) 0.18516(9)
C8 C 1.04791(15) 0.70171(14) 0.36682(9)
C9 C 1.06381(15) 0.67770(15) 0.45771(10)
H8 H 0.97920 0.66440 0.47990
C10 C 1.20007(16) 0.67305(16) 0.51547(10)
H9 H 1.20860 0.65770 0.57710
C11 C 1.32575(16) 0.69088(17) 0.48369(11)
C12 C 1.31306(16) 0.71423(17) 0.39353(11)
H10 H 1.39740 0.72600 0.37100
C13 C 1.17415(15) 0.72007(15) 0.33665(10)
H11 H 1.16600 0.73710 0.27550
C14 C 0.95224(16) 0.97373(15) 0.3795(1)
H12 H 0.92930 1.04240 0.42820
H13 H 1.05850 0.97680 0.40940
C15 C 0.93898(17) 1.02184(16) 0.28813(11)
H14 H 1.00450 1.12310 0.30750
H15 H 0.97460 0.96140 0.24260
C16 C 0.66859(17) 0.85348(15) 0.20677(10)
H16 H 0.56200 0.84760 0.17450
H17 H 0.69760 0.78860 0.15960
C17 C 0.77403(18) 1.00850(16) 0.23614(11)
H18 H 0.76690 1.03840 0.17660
H19 H 0.74080 1.07360 0.28040
C18 C 0.39022(15) 0.18192(14) 0.12293(10)
C19 C 0.27994(17) 0.09583(17) 0.03319(11)
H20 H 0.27660 0.12350 -0.02400
C20 C 0.17377(19) -0.03131(18) 0.02648(13)
H21 H 0.09990 -0.09060 -0.03550
C21 C 0.17572(18) -0.07107(17) 0.10925(14)
H22 H 0.10330 -0.15750 0.10450
C22 C 0.28376(18) 0.01541(17) 0.19960(13)
H23 H 0.28410 -0.01110 0.25690
C23 C 0.39180(16) 0.14094(16) 0.20673(11)
H24 H 0.46670 0.19890 0.26860
C24 C 0.94166(14) 0.40021(14) 0.23111(10)
C25 C 1.15899(17) 0.34994(19) 0.20797(14)
H25 H 1.21050 0.34340 0.15930
H26 H 1.12490 0.25530 0.21650
H27 H 1.22980 0.41990 0.27090
C26 C 0.80952(15) 0.48370(15) 0.09448(10)
C27 C 0.74104(18) 0.40826(19) -0.07769(11)
H28 H 0.69220 0.32000 -0.13420
H29 H 0.84830 0.44830 -0.07070
H30 H 0.68900 0.47880 -0.08800
C28 C 1.58580(19) 0.6994(3) 0.51612(14)
H31 H 1.66850 0.68720 0.56520
H32 H 1.61840 0.79610 0.51040
H33 H 1.56030 0.62720 0.45240
#END
