
#######################################################################
#
#                 Cambridge Crystallographic Data Centre
#                                CCDC
#
#######################################################################
#
# If this CIF has been generated from an entry in the Cambridge
# Structural Database, then it will include bibliographic, chemical,
# crystal, experimental, refinement or atomic coordinate data resulting
# from the CCDC's data processing and validation procedures.
#
#######################################################################

data_CSD_CIF_RERXES01
_audit_creation_date 2012-03-05
_audit_creation_method CSD-ConQuest-V1
_database_code_CSD RERXES01
_database_code_depnum_ccdc_archive 'CCDC 856447'
_chemical_formula_sum 'C23 H21 N2 O1'
_chemical_formula_moiety
;
C23 H21 N2 O1
;
_journal_coden_Cambridge 1078
_journal_year 2011
_journal_name_full 'CSD Communication(Private Communication) '
loop_
_publ_author_name
"T.Yama"
"T.Hidekuma"
"Y.Teki"
_chemical_name_systematic
;
4,4,5,5-Tetramethyl-2-(pyren-1-yl)-4,5-dihydro-1H-imidazole 1-oxide
;
_cell_volume   1776.758
_exptl_crystal_colour 'red'
_exptl_crystal_density_diffrn 1.276
_exptl_special_details
;
contribution from Department of Material Science, Facultyl of Science, Osaka 
City University, 3-3-138 Sugimoto, Sumiyoshi-ku, Osaka 558-8585, Japan
;
_exptl_crystal_description 'prism'
_diffrn_ambient_temperature 200
#These two values have been output from a single CSD field.
_refine_ls_R_factor_gt 0.0665
_refine_ls_wR_factor_gt 0.0665
_symmetry_cell_setting monoclinic
_symmetry_space_group_name_H-M 'P 21/c'
_symmetry_Int_Tables_number 14
loop_
_symmetry_equiv_pos_site_id
_symmetry_equiv_pos_as_xyz
1 x,y,z
2 -x,1/2+y,1/2-z
3 -x,-y,-z
4 x,-1/2-y,-1/2+z
_cell_length_a 10.400(4)
_cell_length_b 7.205(3)
_cell_length_c 24.649(10)
_cell_angle_alpha 90
_cell_angle_beta 105.852(4)
_cell_angle_gamma 90
_cell_formula_units_Z 4
loop_
_atom_type_symbol
_atom_type_radius_bond
C 0.68
H 0.23
N 0.68
O 0.68
loop_
_atom_site_label
_atom_site_type_symbol
_atom_site_fract_x
_atom_site_fract_y
_atom_site_fract_z
C1 C 0.02277(16) 0.2100(2) 0.60584(7)
C2 C -0.01827(18) 0.3874(2) 0.58545(8)
H1 H 0.023(2) 0.447(3) 0.5586(9)
C3 C -0.11618(19) 0.4806(2) 0.60262(8)
H2 H -0.142(2) 0.604(3) 0.5880(9)
C4 C -0.17737(17) 0.4002(2) 0.64050(8)
C5 C -0.27717(19) 0.4963(2) 0.66055(9)
H3 H -0.301(2) 0.620(3) 0.6441(9)
C6 C -0.33045(19) 0.4209(3) 0.69934(9)
H4 H -0.394(2) 0.489(3) 0.714(1)
C7 C -0.29404(17) 0.2385(2) 0.72123(8)
C8 C -0.3490(2) 0.1560(3) 0.76107(9)
H5 H -0.414(3) 0.230(3) 0.7759(11)
C9 C -0.3126(2) -0.0216(3) 0.78084(8)
H6 H -0.357(3) -0.075(3) 0.8087(10)
C10 C -0.22028(19) -0.1220(3) 0.76162(8)
H7 H -0.196(2) -0.248(3) 0.7766(9)
C11 C -0.16132(17) -0.0444(2) 0.72213(7)
C12 C -0.06282(17) -0.1413(2) 0.70210(7)
H8 H -0.038(2) -0.265(3) 0.7165(9)
C13 C -0.00317(17) -0.0626(2) 0.66544(7)
H9 H 0.063(2) -0.131(3) 0.6540(8)
C14 C -0.03719(16) 0.1217(2) 0.64392(7)
C15 C -0.13825(16) 0.2193(2) 0.66157(7)
C16 C -0.19875(16) 0.1371(2) 0.70125(7)
C17 C 0.13481(17) 0.1237(2) 0.58911(7)
N1 N 0.14343(14) 0.13612(19) 0.53327(6)
O1 O 0.05682(13) 0.20304(17) 0.49104(5)
C18 C 0.28284(16) 0.0877(2) 0.53281(7)
C19 C 0.32208(16) -0.0312(2) 0.58744(7)
N2 N 0.23605(14) 0.04182(19) 0.62215(6)
C20 C 0.3587(2) 0.2725(3) 0.5381(1)
H10 H 0.357(2) 0.341(3) 0.5742(10)
H11 H 0.311(2) 0.353(3) 0.5058(11)
H12 H 0.453(3) 0.248(3) 0.5354(10)
C21 C 0.2830(2) -0.0093(3) 0.47835(8)
H13 H 0.377(2) -0.049(3) 0.4811(9)
H14 H 0.223(2) -0.121(3) 0.4725(9)
H15 H 0.253(2) 0.084(3) 0.4459(11)
C22 C 0.46852(19) -0.0146(3) 0.62062(9)
H16 H 0.530(2) -0.057(3) 0.5978(10)
H17 H 0.495(3) 0.118(4) 0.6309(11)
H18 H 0.482(3) -0.092(3) 0.6551(11)
C23 C 0.2847(2) -0.2357(2) 0.57613(9)
H19 H 0.343(2) -0.295(3) 0.5569(9)
H20 H 0.289(3) -0.302(3) 0.6108(11)
H21 H 0.191(2) -0.248(3) 0.5546(10)
#END
