
#######################################################################
#
#                 Cambridge Crystallographic Data Centre
#                                CCDC
#
#######################################################################
#
# If this CIF has been generated from an entry in the Cambridge
# Structural Database, then it will include bibliographic, chemical,
# crystal, experimental, refinement or atomic coordinate data resulting
# from the CCDC's data processing and validation procedures.
#
#######################################################################

data_CSD_CIF_RERXEU
_audit_creation_date 2018-02-20
_audit_creation_method CSD-ConQuest-V1
_database_code_CSD RERXEU
_database_code_depnum_ccdc_archive 'CCDC 969530'
_chemical_formula_sum 'C9 H15 N1 O4'
_chemical_formula_moiety
;
C9 H15 N1 O4
;
_journal_coden_Cambridge 16
_journal_volume 74
_journal_year 2018
_journal_page_first 1435
_journal_name_full 'Tetrahedron '
loop_
_publ_author_name
"A.M.Foley"
"D.P.Gavin"
"R.E.Deasy"
"S.E.Milner"
"T.S.Moody"
"K.S.Eccles"
"S.E.Lawrence"
"A.R.Maguire"
_chemical_name_systematic
;
(+-)-2-methyl-2-nitrocyclohexyl acetate
;
_cell_volume   4240.593
_exptl_crystal_colour 'colorless'
_exptl_crystal_density_diffrn 1.261
_exptl_crystal_description 'Needle'
_diffrn_ambient_temperature 296
#These two values have been output from a single CSD field.
_refine_ls_R_factor_gt 0.0396
_refine_ls_wR_factor_gt 0.0396
loop_
_citation_database_id_CSD
_citation_special_details
RERXAQ "is a stereoisomer of this entry"
_symmetry_cell_setting orthorhombic
_symmetry_space_group_name_H-M 'F d d 2'
_symmetry_Int_Tables_number 43
loop_
_symmetry_equiv_pos_site_id
_symmetry_equiv_pos_as_xyz
1 x,y,z
2 -x,-y,z
3 1/4+x,1/4-y,1/4+z
4 1/4-x,1/4+y,1/4+z
5 x,1/2+y,1/2+z
6 -x,1/2-y,1/2+z
7 1/4+x,3/4-y,3/4+z
8 1/4-x,3/4+y,3/4+z
9 1/2+x,y,1/2+z
10 1/2-x,-y,1/2+z
11 3/4+x,1/4-y,3/4+z
12 3/4-x,1/4+y,3/4+z
13 1/2+x,1/2+y,z
14 1/2-x,1/2-y,z
15 3/4+x,3/4-y,1/4+z
16 3/4-x,3/4+y,1/4+z
_cell_length_a 20.418(8)
_cell_length_b 25.919(16)
_cell_length_c 8.013(2)
_cell_angle_alpha 90
_cell_angle_beta 90
_cell_angle_gamma 90
_cell_formula_units_Z 16
loop_
_atom_type_symbol
_atom_type_radius_bond
C 0.68
H 0.23
N 0.68
O 0.68
loop_
_atom_site_label
_atom_site_type_symbol
_atom_site_fract_x
_atom_site_fract_y
_atom_site_fract_z
C1 C 0.20428(18) 0.07808(16) 0.4377(5)
H1 H 0.23250 0.07440 0.53420
H2 H 0.19850 0.11460 0.41650
C2 C 0.23644(15) 0.05312(14) 0.2879(5)
H3 H 0.27650 0.07160 0.26170
H4 H 0.24820 0.01790 0.31580
C3 C 0.19258(14) 0.05279(11) 0.1358(4)
H5 H 0.21340 0.03300 0.04590
C4 C 0.12529(14) 0.03037(11) 0.1737(4)
C5 C 0.09405(15) 0.05635(14) 0.3229(5)
H6 H 0.05280 0.03960 0.34830
H7 H 0.08500 0.09210 0.29630
C6 C 0.1385(2) 0.05383(16) 0.4745(4)
H8 H 0.11800 0.07180 0.56700
H9 H 0.14460 0.01810 0.50690
O1 O 0.18079(9) 0.10523(7) 0.0807(2)
C7 C 0.21997(17) 0.12379(12) -0.0396(4)
C8 C 0.19788(19) 0.17562(14) -0.0968(5)
H10 H 0.20200 0.17780 -0.21590
H11 H 0.22450 0.20180 -0.04560
H12 H 0.15290 0.18070 -0.06580
O2 O 0.26661(15) 0.10092(11) -0.0922(4)
N1 N 0.08299(14) 0.04078(10) 0.0175(4)
O3 O 0.10603(15) 0.02902(12) -0.1157(3)
O4 O 0.02877(13) 0.05909(12) 0.0349(4)
C9 C 0.12755(18) -0.02834(13) 0.1884(5)
H13 H 0.08440 -0.04120 0.21220
H14 H 0.15680 -0.03790 0.27710
H15 H 0.14290 -0.04280 0.08530
#END
