
#######################################################################
#
#                 Cambridge Crystallographic Data Centre
#                                CCDC
#
#######################################################################
#
# If this CIF has been generated from an entry in the Cambridge
# Structural Database, then it will include bibliographic, chemical,
# crystal, experimental, refinement or atomic coordinate data resulting
# from the CCDC's data processing and validation procedures.
#
#######################################################################

data_CSD_CIF_RESQEM
_audit_creation_date 2007-02-05
_audit_creation_method CSD-ConQuest-V1
_database_code_CSD RESQEM
_database_code_depnum_ccdc_archive 'CCDC 298985'
_chemical_formula_sum 'C23 H19 N3 O5'
_chemical_formula_moiety
;
C23 H19 N3 O5
;
_journal_coden_Cambridge 1147
_journal_volume 6
_journal_year 2006
_journal_page_first 2281
_journal_name_full 'Cryst.Growth Des. '
loop_
_publ_author_name
"N.Fridman"
"S.Speiser"
"M.Kaftory"
_chemical_name_systematic
;
2-(4,5-bis(4-methoxyphenyl)-1H-imidazol-2-yl)-4-nitrophenol
;
_chemical_melting_point 529.15
_cell_volume   1950.555
_exptl_crystal_colour 'red'
_exptl_crystal_density_diffrn 1.421
_exptl_crystal_description 'needle'
_exptl_crystal_preparation 'acetonitrile'
_diffrn_ambient_temperature 293
#These two values have been output from a single CSD field.
_refine_ls_R_factor_gt 0.0358
_refine_ls_wR_factor_gt 0.0358
_symmetry_cell_setting orthorhombic
_symmetry_space_group_name_H-M 'P 21 21 21'
_symmetry_Int_Tables_number 19
loop_
_symmetry_equiv_pos_site_id
_symmetry_equiv_pos_as_xyz
1 x,y,z
2 1/2-x,-y,1/2+z
3 1/2+x,1/2-y,-z
4 -x,1/2+y,1/2-z
_cell_length_a 4.535(2)
_cell_length_b 17.557(3)
_cell_length_c 24.498(5)
_cell_angle_alpha 90
_cell_angle_beta 90
_cell_angle_gamma 90
_cell_formula_units_Z 4
loop_
_atom_type_symbol
_atom_type_radius_bond
C 0.68
H 0.23
N 0.68
O 0.68
loop_
_atom_site_label
_atom_site_type_symbol
_atom_site_fract_x
_atom_site_fract_y
_atom_site_fract_z
O1 O 0.8351(7) 0.4009(2) 0.05723(14)
O2 O 0.8421(7) 0.6684(3) 0.39193(14)
O3 O -0.1238(9) 0.1750(2) 0.26073(13)
H1 H 0.03310 0.19670 0.25480
O4 O -0.1475(8) 0.1815(2) 0.51655(14)
O5 O -0.4786(9) 0.1001(3) 0.50071(14)
N1 N 0.2236(8) 0.2853(3) 0.27732(15)
N2 N 0.2718(8) 0.3394(3) 0.35830(14)
H2 H 0.25700 0.34710 0.39290
N3 N -0.2965(11) 0.1459(3) 0.48404(19)
C1 C 0.7447(10) 0.3938(3) 0.1109(2)
C2 C 0.8375(9) 0.4363(3) 0.1541(2)
H3 H 0.97560 0.47470 0.14860
C3 C 0.7284(9) 0.4231(3) 0.20658(19)
H4 H 0.79970 0.45170 0.23570
C4 C 0.518(1) 0.3687(3) 0.21578(19)
C5 C 0.4245(9) 0.3249(3) 0.1718(2)
H5 H 0.28500 0.28680 0.17710
C6 C 0.5383(10) 0.3378(3) 0.1198(2)
H6 H 0.47380 0.30810 0.09070
C7 C 1.0326(9) 0.4597(3) 0.04434(16)
H7 H 1.07690 0.45820 0.00600
H8 H 1.21100 0.45320 0.06490
H9 H 0.94490 0.50790 0.05330
C8 C 0.7513(11) 0.5978(5) 0.3785(2)
C9 C 0.8177(10) 0.5326(5) 0.40506(19)
H10 H 0.93530 0.53450 0.43610
C10 C 0.7147(10) 0.4636(4) 0.3870(2)
H11 H 0.76260 0.41950 0.40610
C11 C 0.5367(10) 0.4585(3) 0.3397(2)
C12 C 0.4713(9) 0.5266(4) 0.31352(19)
H12 H 0.35280 0.52550 0.28250
C13 C 0.5745(11) 0.5952(4) 0.3315(2)
H13 H 0.52810 0.63970 0.31280
C14 C 1.0219(10) 0.6757(3) 0.43981(18)
H14 H 1.07660 0.72800 0.44470
H15 H 1.19630 0.64520 0.43570
H16 H 0.91300 0.65860 0.47110
C15 C 0.3927(10) 0.3493(3) 0.27055(19)
C16 C 0.4202(9) 0.3856(3) 0.3205(2)
C17 C 0.1585(10) 0.2814(4) 0.3304(2)
C18 C -0.0311(9) 0.2203(3) 0.3516(2)
C19 C -0.0789(10) 0.2110(3) 0.40792(19)
H17 H 0.01800 0.24230 0.43270
C20 C -0.2651(11) 0.1567(3) 0.4259(2)
C21 C -0.410(1) 0.1097(3) 0.3902(3)
H18 H -0.53910 0.07290 0.40340
C22 C -0.364(1) 0.1169(3) 0.3340(2)
H19 H -0.46220 0.08510 0.30970
C23 C -0.171(1) 0.1719(3) 0.3147(2)
#END
