
#######################################################################
#
#                 Cambridge Crystallographic Data Centre
#                                CCDC
#
#######################################################################
#
# If this CIF has been generated from an entry in the Cambridge
# Structural Database, then it will include bibliographic, chemical,
# crystal, experimental, refinement or atomic coordinate data resulting
# from the CCDC's data processing and validation procedures.
#
#######################################################################

data_CSD_CIF_RESRAJ
_audit_creation_date 2007-02-05
_audit_creation_method CSD-ConQuest-V1
_database_code_CSD RESRAJ
_database_code_depnum_ccdc_archive 'CCDC 298989'
_chemical_formula_sum 'C23 H19 N3 O3'
_chemical_formula_moiety
;
C23 H19 N3 O3
;
_journal_coden_Cambridge 1147
_journal_volume 6
_journal_year 2006
_journal_page_first 2281
_journal_name_full 'Cryst.Growth Des. '
loop_
_publ_author_name
"N.Fridman"
"S.Speiser"
"M.Kaftory"
_chemical_name_systematic
;
2-(4,5-bis(4-methylphenyl)-1H-imidazol-2-yl)-4-nitrophenol
;
_chemical_melting_point 540.15
_cell_volume    959.790
_exptl_crystal_colour 'bright yellow'
_exptl_crystal_density_diffrn 1.334
_exptl_crystal_description 'needle'
_exptl_crystal_preparation 'acetonitrile'
_diffrn_ambient_temperature 293
#These two values have been output from a single CSD field.
_refine_ls_R_factor_gt 0.0489
_refine_ls_wR_factor_gt 0.0489
_symmetry_cell_setting triclinic
_symmetry_space_group_name_H-M 'P -1'
_symmetry_Int_Tables_number 2
loop_
_symmetry_equiv_pos_site_id
_symmetry_equiv_pos_as_xyz
1 x,y,z
2 -x,-y,-z
_cell_length_a 6.630(2)
_cell_length_b 8.975(2)
_cell_length_c 16.408(3)
_cell_angle_alpha 88.73(1)
_cell_angle_beta 89.67(1)
_cell_angle_gamma 79.51(1)
_cell_formula_units_Z 2
loop_
_atom_type_symbol
_atom_type_radius_bond
C 0.68
H 0.23
N 0.68
O 0.68
loop_
_atom_site_label
_atom_site_type_symbol
_atom_site_fract_x
_atom_site_fract_y
_atom_site_fract_z
N1 N 0.1460(3) 0.2648(2) 0.59726(11)
N2 N -0.0642(3) 0.1121(2) 0.63287(11)
H1 H -0.15900 0.05860 0.62970
N3 N -0.5156(3) 0.1456(2) 0.36092(13)
O1 O 0.1676(2) 0.37556(19) 0.45326(11)
H2 H 0.19810 0.35500 0.50110
O2 O -0.5822(3) 0.0526(2) 0.40492(12)
O3 O -0.5977(3) 0.1909(2) 0.29560(11)
C1 C 0.6013(4) 0.4422(3) 0.80770(17)
C2 C 0.4402(4) 0.3920(3) 0.84740(17)
H3 H 0.42030 0.40980 0.90270
C3 C 0.3082(4) 0.3163(3) 0.80702(15)
H4 H 0.20290 0.28310 0.83580
C4 C 0.3308(3) 0.2888(3) 0.72446(14)
C5 C 0.4931(3) 0.3388(3) 0.68415(16)
H5 H 0.51300 0.32170 0.62870
C6 C 0.6245(4) 0.4134(3) 0.72546(17)
H6 H 0.73180 0.44510 0.69730
C7 C 0.7398(5) 0.5306(3) 0.85181(19)
H7 H 0.74410 0.62360 0.82230
H8 H 0.87560 0.47140 0.85530
H9 H 0.68740 0.55280 0.90570
C8 C -0.0083(5) -0.1362(3) 0.91873(16)
C9 C -0.1790(5) -0.0623(3) 0.87706(16)
H10 H -0.30870 -0.07120 0.89610
C10 C -0.1612(4) 0.0240(3) 0.80697(15)
H11 H -0.27850 0.07280 0.78000
C11 C 0.0300(3) 0.0386(3) 0.77713(14)
C12 C 0.2026(4) -0.0348(3) 0.81995(16)
H12 H 0.33300 -0.02650 0.80140
C13 C 0.1813(5) -0.1199(3) 0.88915(17)
H13 H 0.29870 -0.16790 0.91640
C14 C -0.0280(6) -0.2322(4) 0.99410(18)
H14 H -0.16740 -0.21220 1.01310
H15 H 0.06070 -0.20790 1.03590
H16 H 0.01010 -0.33740 0.98130
C15 C 0.1818(3) 0.2207(3) 0.67785(14)
C16 C 0.0527(3) 0.1239(3) 0.70105(14)
C17 C -0.0046(3) 0.1989(3) 0.57165(14)
C18 C -0.0894(3) 0.2254(2) 0.49002(13)
C19 C -0.2610(3) 0.1698(3) 0.46426(14)
H17 H -0.32490 0.11040 0.49960
C20 C -0.3363(3) 0.2028(3) 0.38642(14)
C21 C -0.2457(3) 0.2901(3) 0.33164(15)
H18 H -0.30030 0.31230 0.27980
C22 C -0.0750(4) 0.3439(3) 0.35554(15)
H19 H -0.01100 0.40050 0.31870
C23 C 0.0040(3) 0.3146(3) 0.43376(14)
#END
