
#######################################################################
#
#                 Cambridge Crystallographic Data Centre
#                                CCDC
#
#######################################################################
#
# If this CIF has been generated from an entry in the Cambridge
# Structural Database, then it will include bibliographic, chemical,
# crystal, experimental, refinement or atomic coordinate data resulting
# from the CCDC's data processing and validation procedures.
#
#######################################################################

data_CSD_CIF_RETREP
_audit_creation_date 2013-05-19
_audit_creation_method CSD-ConQuest-V1
_database_code_CSD RETREP
_database_code_depnum_ccdc_archive 'CCDC 911711'
_chemical_formula_sum 'C30 H17 N1 O4'
_chemical_formula_moiety
;
C30 H17 N1 O4
;
_journal_coden_Cambridge 179
_journal_volume 52
_journal_year 2013
_journal_page_first 3668
_journal_name_full 'Angew.Chem.,Int.Ed. '
loop_
_publ_author_name
"L.F.Tietze"
"Tim Hungerland"
"C.Eichhorst"
"A.Dufert"
"C.Maa"
"D.Stalke"
_chemical_name_systematic
;
8-Nitro-12-(9H-xanthen-9-ylidene)-12H-benzo[a]xanthene
;
_cell_volume   2158.148
_exptl_crystal_colour 'colorless'
_exptl_crystal_density_diffrn 1.402
_exptl_crystal_description 'block'
_diffrn_ambient_temperature 100
#These two values have been output from a single CSD field.
_refine_ls_R_factor_gt 0.0434
_refine_ls_wR_factor_gt 0.0434
_symmetry_cell_setting monoclinic
_symmetry_space_group_name_H-M 'P 21/c'
_symmetry_Int_Tables_number 14
loop_
_symmetry_equiv_pos_site_id
_symmetry_equiv_pos_as_xyz
1 x,y,z
2 -x,1/2+y,1/2-z
3 -x,-y,-z
4 x,-1/2-y,-1/2+z
_cell_length_a 9.454(2)
_cell_length_b 21.390(3)
_cell_length_c 10.709(2)
_cell_angle_alpha 90
_cell_angle_beta 94.75(2)
_cell_angle_gamma 90
_cell_formula_units_Z 4
loop_
_atom_type_symbol
_atom_type_radius_bond
C 0.68
H 0.23
N 0.68
O 0.68
loop_
_atom_site_label
_atom_site_type_symbol
_atom_site_fract_x
_atom_site_fract_y
_atom_site_fract_z
O1 O 0.89079(12) 0.82337(5) 0.04544(11)
N1 N 0.65439(14) 0.49149(6) 0.42614(13)
C1 C 1.02458(17) 0.79703(7) 0.06855(15)
O2 O 0.75283(13) 0.49172(6) 0.50783(11)
C2 C 1.27357(18) 0.80660(8) 0.05005(17)
H1 H 1.35160 0.82740 0.01790
O3 O 0.89910(11) 0.54502(5) 0.33129(10)
C3 C 1.13680(19) 0.82869(8) 0.02149(16)
H2 H 1.12020 0.86480 -0.02930
C4 C 1.04381(16) 0.74180(7) 0.13760(15)
C5 C 1.18354(17) 0.72175(8) 0.16834(16)
H3 H 1.20070 0.68560 0.21890
O4 O 0.56007(13) 0.45148(5) 0.41756(11)
C6 C 1.29680(18) 0.75415(8) 0.12558(17)
H4 H 1.39110 0.74040 0.14800
C7 C 0.91441(16) 0.71004(7) 0.17479(14)
C8 C 0.80781(16) 0.75701(7) 0.20685(15)
C9 C 0.71872(17) 0.75144(8) 0.30492(15)
H5 H 0.72690 0.71600 0.35850
C10 C 0.61913(18) 0.79707(8) 0.32428(16)
H6 H 0.55860 0.79250 0.39020
C11 C 0.60751(18) 0.84946(8) 0.24763(17)
H7 H 0.53670 0.87990 0.25950
C12 C 0.69811(18) 0.85763(8) 0.15424(17)
H8 H 0.69160 0.89390 0.10280
C13 C 0.79870(16) 0.81200(7) 0.13690(15)
C14 C 0.89097(16) 0.64747(7) 0.17579(14)
C15 C 0.75574(16) 0.61926(7) 0.21023(14)
C16 C 0.62106(16) 0.63660(7) 0.15864(15)
H9 H 0.61220 0.66890 0.09760
C17 C 0.49978(17) 0.60754(8) 0.19497(16)
H10 H 0.40900 0.61970 0.15830
C18 C 0.51114(17) 0.56060(8) 0.28492(16)
H11 H 0.42850 0.54140 0.31220
C19 C 0.64505(17) 0.54221(7) 0.33439(14)
C20 C 0.76792(16) 0.56942(7) 0.29450(14)
C21 C 0.99361(16) 0.54719(7) 0.23795(14)
C22 C 1.08606(16) 0.49600(7) 0.23481(15)
H12 H 1.08540 0.46380 0.29590
C23 C 1.17695(17) 0.49327(8) 0.14240(16)
H13 H 1.24250 0.45960 0.14120
C24 C 1.17502(16) 0.54004(7) 0.04786(15)
C25 C 1.26546(17) 0.53623(8) -0.05114(16)
H14 H 1.33110 0.50270 -0.05300
C26 C 1.25917(18) 0.58013(8) -0.14341(16)
H15 H 1.32230 0.57770 -0.20780
C27 C 1.16022(18) 0.62892(8) -0.14408(16)
H16 H 1.15480 0.65850 -0.21040
C28 C 1.07121(17) 0.63439(7) -0.05004(15)
H17 H 1.00350 0.66730 -0.05260
C29 C 1.07918(16) 0.59140(7) 0.05116(15)
C30 C 0.99226(16) 0.59634(7) 0.15437(14)
#END
