
#######################################################################
#
#                 Cambridge Crystallographic Data Centre
#                                CCDC
#
#######################################################################
#
# If this CIF has been generated from an entry in the Cambridge
# Structural Database, then it will include bibliographic, chemical,
# crystal, experimental, refinement or atomic coordinate data resulting
# from the CCDC's data processing and validation procedures.
#
#######################################################################

data_CSD_CIF_REVFEE
_audit_creation_date 2007-05-14
_audit_creation_method CSD-ConQuest-V1
_database_code_CSD REVFEE
_database_code_depnum_ccdc_archive 'CCDC 263525'
_chemical_formula_sum 'C28 H24 N2 O6'
_chemical_formula_moiety
;
C28 H24 N2 O6
;
_journal_coden_Cambridge 1088
_journal_volume 2006
_journal_year 2006
_journal_page_first 2791
_journal_name_full 'Synlett '
loop_
_publ_author_name
"Jen-Fei Wang"
"Yuan-Xiu Liao"
"Pei-Yu Kuo"
"Yung-Her Gau"
"Ding-Yah Yang"
_chemical_name_systematic
;
10-Methoxy-7-methyl-6-nitrobenzyl-6,12-isopropano-6H,12H,13H-(1)benzopyrano(4,
3-d)(1,3)benzoxazocin-13-one
;
_chemical_melting_point 590.15
_cell_volume   1160.604
_exptl_crystal_density_diffrn 1.386
_exptl_special_details
;
Melting point range 590.15-591.15K

;
_diffrn_ambient_temperature 293
#These two values have been output from a single CSD field.
_refine_ls_R_factor_gt 0.0523
_refine_ls_wR_factor_gt 0.0523
_symmetry_cell_setting triclinic
_symmetry_space_group_name_H-M 'P -1'
_symmetry_Int_Tables_number 2
loop_
_symmetry_equiv_pos_site_id
_symmetry_equiv_pos_as_xyz
1 x,y,z
2 -x,-y,-z
_cell_length_a 9.2966(8)
_cell_length_b 10.9142(10)
_cell_length_c 12.7458(12)
_cell_angle_alpha 87.153(2)
_cell_angle_beta 69.584(2)
_cell_angle_gamma 73.540(2)
_cell_formula_units_Z 2
loop_
_atom_type_symbol
_atom_type_radius_bond
C 0.68
H 0.23
N 0.68
O 0.68
loop_
_atom_site_label
_atom_site_type_symbol
_atom_site_fract_x
_atom_site_fract_y
_atom_site_fract_z
O1 O 0.1976(2) 0.2074(1) 0.6494(1)
O2 O 0.0508(2) -0.1177(1) 0.6691(1)
O3 O -0.0675(2) -0.0871(2) 0.8518(1)
O4 O -0.6009(2) 0.2813(2) 1.0377(2)
O5 O 0.6223(2) 0.6327(2) 0.6046(2)
O6 O 0.4074(3) 0.7782(2) 0.6922(2)
N1 N -0.0420(2) 0.3685(2) 0.7427(1)
N2 N 0.4789(3) 0.6681(2) 0.6575(2)
C1 C 0.1456(2) 0.1022(2) 0.6615(2)
C2 C 0.1951(2) 0.0245(2) 0.5595(2)
C3 C 0.2836(2) 0.0551(2) 0.4537(2)
C4 C 0.3167(3) -0.0207(2) 0.3608(2)
C5 C 0.2618(3) -0.1280(2) 0.3711(2)
C6 C 0.1750(3) -0.1594(2) 0.4741(2)
C7 C 0.1411(2) -0.0835(2) 0.5679(2)
C8 C 0.0073(2) -0.0461(2) 0.7670(2)
C9 C 0.0537(2) 0.0697(2) 0.7606(2)
C10 C -0.0045(2) 0.1535(2) 0.8665(2)
C11 C -0.1703(2) 0.2380(2) 0.8834(2)
C12 C -0.3092(2) 0.2154(2) 0.9593(2)
C13 C -0.4573(2) 0.2949(2) 0.9661(2)
C14 C -0.4680(3) 0.3969(2) 0.8992(2)
C15 C -0.3315(2) 0.4221(2) 0.8260(2)
C16 C -0.1811(2) 0.3431(2) 0.8167(2)
C17 C 0.1151(2) 0.3046(2) 0.7444(2)
C18 C 0.1091(2) 0.2361(2) 0.8549(2)
C19 C 0.2754(2) 0.1518(2) 0.8474(2)
C20 C 0.0450(3) 0.3297(2) 0.9568(2)
C21 C 0.2159(2) 0.3982(2) 0.7194(2)
C22 C 0.1449(3) 0.5219(2) 0.7672(2)
C23 C 0.2309(3) 0.6099(2) 0.7479(2)
C24 C 0.3890(3) 0.5733(2) 0.6797(2)
C25 C 0.4638(3) 0.4506(2) 0.6322(2)
C26 C 0.3760(2) 0.3636(2) 0.6524(2)
C27 C -0.0510(3) 0.4402(2) 0.6441(2)
C28 C -0.5987(3) 0.1819(3) 1.1108(2)
H1 H 0.32040 0.12710 0.44620
H2 H 0.37610 0.00000 0.29040
H3 H 0.28420 -0.17870 0.30760
H4 H 0.13890 -0.23170 0.48100
H5 H -0.00650 0.09970 0.93060
H6 H -0.30190 0.14680 1.00530
H7 H -0.56800 0.44960 0.90320
H8 H -0.34040 0.49280 0.78230
H9 H 0.31800 0.09200 0.78380
H10 H 0.26730 0.10590 0.91450
H11 H 0.34510 0.20460 0.83920
H12 H 0.04360 0.28290 1.02270
H13 H -0.06180 0.38040 0.96540
H14 H 0.11270 0.38460 0.94620
H15 H 0.03760 0.54570 0.81300
H16 H 0.18280 0.69250 0.78040
H17 H 0.57150 0.42700 0.58740
H18 H 0.42510 0.28070 0.62070
H19 H -0.16110 0.47810 0.65210
H20 H 0.00140 0.38340 0.57820
H21 H 0.00100 0.50630 0.63720
H22 H -0.70660 0.18350 1.15540
H23 H -0.54290 0.19230 1.15900
H24 H -0.54520 0.10150 1.06840
#END
