
#######################################################################
#
#                 Cambridge Crystallographic Data Centre
#                                CCDC
#
#######################################################################
#
# If this CIF has been generated from an entry in the Cambridge
# Structural Database, then it will include bibliographic, chemical,
# crystal, experimental, refinement or atomic coordinate data resulting
# from the CCDC's data processing and validation procedures.
#
#######################################################################

data_CSD_CIF_REVPUG
_audit_creation_date 2018-02-21
_audit_creation_method CSD-ConQuest-V1
_database_code_CSD REVPUG
_database_code_depnum_ccdc_archive 'CCDC 1555993'
_chemical_formula_sum 'C39 H38 N2 O10'
_chemical_formula_moiety
;
C39 H38 N2 O10
;
_journal_coden_Cambridge 35
_journal_volume 83
_journal_year 2018
_journal_page_first 2154
_journal_name_full 'J.Org.Chem. '
loop_
_publ_author_name
"C.Hedberg"
"M.Estrup"
"E.Z.Eikeland"
"H.H.Jensen"
_chemical_name_systematic
;
(1S,2R,3R,4S,5R,6S)-2-allyl-4,5,6-tris(benzyloxy)-3-hydroxy-3-vinylcyclohexyl 
3,5-dinitrobenzoate
;
_cell_volume   3466.557
_exptl_crystal_colour 'colorless'
_exptl_crystal_density_diffrn 1.331
_exptl_crystal_description 'irregular'
_diffrn_ambient_temperature 100.0
#These two values have been output from a single CSD field.
_refine_ls_R_factor_gt 0.044
_refine_ls_wR_factor_gt 0.044
_symmetry_cell_setting orthorhombic
_symmetry_space_group_name_H-M 'P 21 21 21'
_symmetry_Int_Tables_number 19
loop_
_symmetry_equiv_pos_site_id
_symmetry_equiv_pos_as_xyz
1 x,y,z
2 1/2-x,-y,1/2+z
3 1/2+x,1/2-y,-z
4 -x,1/2+y,1/2-z
_cell_length_a 7.4650(5)
_cell_length_b 14.7263(10)
_cell_length_c 31.5337(18)
_cell_angle_alpha 90
_cell_angle_beta 90
_cell_angle_gamma 90
_cell_formula_units_Z 4
loop_
_atom_type_symbol
_atom_type_radius_bond
C 0.68
H 0.23
N 0.68
O 0.68
loop_
_atom_site_label
_atom_site_type_symbol
_atom_site_fract_x
_atom_site_fract_y
_atom_site_fract_z
O1 O 0.7842(2) 0.17862(11) 0.65764(5)
O2 O 0.3524(2) 0.41494(11) 0.63587(5)
O3 O 0.6170(2) 0.30390(11) 0.60192(5)
O4 O 0.6365(2) 0.22532(11) 0.73597(5)
O5 O 0.3896(2) 0.37103(11) 0.72194(5)
H1 H 0.37410 0.42360 0.71420
O6 O 0.7893(3) 0.48873(12) 0.88432(6)
O7 O 1.0867(3) 0.21777(13) 0.93224(6)
O8 O 0.7578(2) 0.09272(12) 0.75824(5)
O9 O 0.6879(3) 0.49555(12) 0.82011(6)
O10 O 1.1027(2) 0.09958(13) 0.89084(6)
C1 C 0.5655(3) 0.29581(16) 0.64537(7)
H2 H 0.63800 0.33720 0.66260
N1 N 0.7563(3) 0.45465(14) 0.84985(7)
C2 C 0.2923(4) 0.51552(16) 0.57678(8)
C3 C 0.2635(3) 0.10121(17) 0.76921(8)
H3 H 0.20010 0.05920 0.75310
C4 C 0.1976(4) 0.53805(19) 0.54051(9)
H4 H 0.10680 0.50000 0.53090
C5 C 0.3322(3) 0.21235(16) 0.70926(8)
H5 H 0.25920 0.17300 0.69110
N2 N 1.0515(3) 0.17642(16) 0.89928(7)
C6 C 0.7885(4) -0.01632(17) 0.66705(8)
H6 H 0.84170 0.01500 0.68940
C7 C 0.7478(3) 0.31611(17) 0.80648(7)
H7 H 0.68300 0.34780 0.78610
C8 C 0.8021(3) 0.35803(17) 0.84339(8)
C9 C 0.9424(3) 0.22449(18) 0.86716(8)
C10 C 0.5259(3) 0.17998(17) 0.70401(7)
H8 H 0.53010 0.11430 0.70900
C11 C 0.3706(3) 0.32230(16) 0.64889(7)
H9 H 0.30050 0.28400 0.62960
C12 C 0.2459(4) 0.42762(18) 0.59892(8)
H10 H 0.12030 0.42820 0.60680
H11 H 0.26490 0.37720 0.57960
C13 C 0.2970(3) 0.31096(16) 0.69401(7)
C14 C 0.3737(4) 0.67271(19) 0.53195(9)
H12 H 0.40200 0.72490 0.51680
C15 C 0.5976(3) 0.19913(17) 0.65984(8)
H13 H 0.53520 0.15870 0.64010
C16 C 0.9126(3) 0.30212(19) 0.52771(9)
H14 H 0.97320 0.25900 0.54380
C17 C 0.8333(4) 0.12205(17) 0.62223(8)
H15 H 0.96260 0.12230 0.61910
H16 H 0.78180 0.14690 0.59650
C18 C 0.4267(4) 0.57244(17) 0.59044(8)
H17 H 0.49040 0.55830 0.61490
C19 C 0.7708(4) 0.35998(18) 0.59449(8)
H18 H 0.87480 0.33460 0.60860
H19 H 0.75010 0.42060 0.60550
C20 C 0.7922(3) 0.22515(16) 0.80037(8)
C21 C 0.7151(4) 0.42759(18) 0.52303(8)
H20 H 0.64100 0.47010 0.53600
C22 C 0.7292(4) -0.10426(17) 0.67323(8)
H21 H 0.74120 -0.13150 0.69970
C23 C 0.2639(3) 0.19770(16) 0.75489(7)
H22 H 0.33830 0.23270 0.77410
H23 H 0.14290 0.22130 0.75690
C24 C 0.7696(3) 0.02574(16) 0.62792(8)
C25 C 0.3469(4) 0.07217(19) 0.80304(8)
H24 H 0.41140 0.11260 0.81980
H25 H 0.34180 0.01110 0.81040
C26 C 0.6331(4) -0.11016(18) 0.60106(9)
H26 H 0.58070 -0.14160 0.57870
C27 C 0.6518(4) -0.15183(18) 0.63992(8)
H27 H 0.61290 -0.21120 0.64380
C28 C 0.7364(4) 0.4295(2) 0.47953(9)
H28 H 0.67590 0.47260 0.46340
C29 C 0.0972(3) 0.32844(17) 0.69413(8)
H29 H 0.02680 0.28880 0.67830
C30 C 0.0135(4) 0.39355(18) 0.71419(8)
H30 H 0.07790 0.43500 0.73040
H31 H -0.11040 0.39850 0.71220
C31 C 0.4677(4) 0.65062(18) 0.56800(9)
H32 H 0.55940 0.68840 0.57740
C32 C 0.8471(4) 0.3678(2) 0.46012(9)
H33 H 0.86250 0.36920 0.43090
C33 C 0.6914(4) -0.02227(17) 0.59496(8)
H34 H 0.67820 0.00500 0.56850
C34 C 0.8988(3) 0.31438(18) 0.87459(8)
H35 H 0.93290 0.34390 0.89940
C35 C 0.8017(3) 0.36368(17) 0.54761(8)
C36 C 0.8906(3) 0.17870(18) 0.83119(7)
H36 H 0.92060 0.11790 0.82740
C37 C 0.9351(4) 0.3037(2) 0.48408(9)
H37 H 1.00960 0.26150 0.47100
C38 C 0.7305(3) 0.17261(18) 0.76251(8)
C39 C 0.2373(5) 0.6166(2) 0.51860(9)
H38 H 0.17130 0.63180 0.49460
#END
