
#######################################################################
#
#                 Cambridge Crystallographic Data Centre
#                                CCDC
#
#######################################################################
#
# If this CIF has been generated from an entry in the Cambridge
# Structural Database, then it will include bibliographic, chemical,
# crystal, experimental, refinement or atomic coordinate data resulting
# from the CCDC's data processing and validation procedures.
#
#######################################################################

data_CSD_CIF_REVPOZ
_audit_creation_date 2013-05-19
_audit_creation_method CSD-ConQuest-V1
_database_code_CSD REVPOZ
_database_code_depnum_ccdc_archive 'CCDC 911245'
_chemical_formula_sum 'C23 H35 N3 O6'
_chemical_formula_moiety
;
C23 H35 N3 O6
;
_journal_coden_Cambridge 177
_journal_volume 11
_journal_year 2013
_journal_page_first 2827
_journal_name_full 'Org.Biomol.Chem. '
loop_
_publ_author_name
"D.Parker"
"B.P.Waldron"
_chemical_name_systematic
;
Di-t-butyl 2,2'-(6-nitro-6-phenyl-1,4-diazepane-1,4-diyl)diacetate
;
_chemical_melting_point 351
_cell_volume   2503.948
_exptl_crystal_colour 'light colorless'
_exptl_crystal_density_diffrn 1.192
_exptl_special_details
;
Melting point range 351-363K

;
_exptl_crystal_description 'prism'
_diffrn_ambient_temperature 120
_refine_special_details
;
C10A,C11A,C8A,C9A and C10B,C11B,C8B,C9B disordered over two sites with 
occupancies 0.50:0.50; C14B,C15B,C16B,C17B and C14A,C15A,C16A,C17A disordered 
over two sites with occupancies 0.50:0.50.
;
#These two values have been output from a single CSD field.
_refine_ls_R_factor_gt 0.0899
_refine_ls_wR_factor_gt 0.0899
_symmetry_cell_setting monoclinic
_symmetry_space_group_name_H-M 'P 21/c'
_symmetry_Int_Tables_number 14
loop_
_symmetry_equiv_pos_site_id
_symmetry_equiv_pos_as_xyz
1 x,y,z
2 -x,1/2+y,1/2-z
3 -x,-y,-z
4 x,-1/2-y,-1/2+z
_cell_length_a 21.3378(19)
_cell_length_b 11.5579(10)
_cell_length_c 10.3203(9)
_cell_angle_alpha 90
_cell_angle_beta 100.329(8)
_cell_angle_gamma 90
_cell_formula_units_Z 4
loop_
_atom_type_symbol
_atom_type_radius_bond
C 0.68
H 0.23
N 0.68
O 0.68
loop_
_atom_site_label
_atom_site_type_symbol
_atom_site_fract_x
_atom_site_fract_y
_atom_site_fract_z
O1 O 0.44314(15) 0.2863(4) 0.2759(3)
O2 O 0.49877(14) 0.1918(3) 0.4516(3)
O3 O 0.10645(16) 0.1495(3) 0.3792(3)
O4 O 0.03621(15) 0.1530(3) 0.1897(3)
O5 O 0.31711(16) 0.4949(3) 0.5448(3)
O6 O 0.21432(16) 0.5100(3) 0.5180(3)
N1 N 0.33189(16) 0.2677(3) 0.3967(3)
N2 N 0.20240(16) 0.2435(3) 0.2443(3)
N3 N 0.2633(2) 0.4817(3) 0.4790(4)
C1 C 0.3119(2) 0.1645(4) 0.3181(5)
H1 H 0.33450 0.09780 0.36010
H2 H 0.32320 0.17320 0.23170
C2 C 0.2401(2) 0.1434(4) 0.3024(5)
H3 H 0.22880 0.07620 0.24680
H4 H 0.22950 0.12670 0.38810
C3 C 0.2008(2) 0.3362(4) 0.3402(4)
H5 H 0.20480 0.30250 0.42740
H6 H 0.15990 0.37490 0.32050
C4 C 0.2544(2) 0.4270(4) 0.3411(4)
C5 C 0.3180(2) 0.3741(4) 0.3199(4)
H7 H 0.31590 0.35710 0.22710
H8 H 0.35210 0.42940 0.34620
C6 C 0.3962(2) 0.2593(5) 0.4692(4)
H9 H 0.39860 0.19330 0.52790
H10 H 0.40530 0.32800 0.52340
C7 C 0.4472(2) 0.2468(4) 0.3853(5)
C8 C 0.5614(6) 0.1866(12) 0.4072(12)
C9 C 0.5872(6) 0.2975(11) 0.3891(13)
H11 H 0.56000 0.33710 0.31890
H12 H 0.62890 0.28870 0.36740
H13 H 0.59030 0.34150 0.46890
C10 C 0.6061(6) 0.1342(11) 0.5165(12)
H14 H 0.61340 0.18690 0.58960
H15 H 0.64580 0.11810 0.48840
H16 H 0.58840 0.06350 0.54290
C11 C 0.5441(6) 0.0893(12) 0.2953(13)
H17 H 0.52490 0.02420 0.33080
H18 H 0.58230 0.06480 0.26610
H19 H 0.51490 0.12070 0.22220
C12 C 0.1394(2) 0.2109(4) 0.1760(4)
H20 H 0.14400 0.15080 0.11280
H21 H 0.12020 0.27740 0.12680
C13 C 0.0940(2) 0.1679(4) 0.2634(5)
C14 C -0.0179(6) 0.0974(12) 0.2244(13)
C15 C -0.0053(7) -0.0029(13) 0.3208(13)
H22 H 0.01220 -0.06670 0.27960
H23 H -0.04450 -0.02620 0.34650
H24 H 0.02440 0.02100 0.39730
C16 C -0.0650(7) 0.0703(13) 0.1085(12)
H25 H -0.07460 0.13880 0.05600
H26 H -0.10310 0.04240 0.13510
H27 H -0.04850 0.01190 0.05770
C17 C -0.0441(7) 0.1898(14) 0.3009(14)
H28 H -0.01070 0.21920 0.36760
H29 H -0.07730 0.15800 0.34160
H30 H -0.06100 0.25140 0.24270
C18 C 0.2372(2) 0.5279(4) 0.2461(4)
C19 C 0.2025(2) 0.5045(4) 0.1188(4)
H31 H 0.18980 0.42920 0.09560
C20 C 0.1874(2) 0.5927(5) 0.0290(5)
H32 H 0.16380 0.57710 -0.05400
C21 C 0.2072(2) 0.7052(5) 0.0622(5)
H33 H 0.19710 0.76450 0.00110
C22 C 0.2417(2) 0.7291(4) 0.1856(5)
H34 H 0.25500 0.80420 0.20810
C23 C 0.2564(2) 0.6402(4) 0.2752(5)
H35 H 0.27990 0.65670 0.35800
C24? C 0.5538(7) 0.1672(14) 0.3799(14)
C25? C 0.5780(9) 0.2881(16) 0.3459(16)
H36? H 0.54840 0.32130 0.27460
H37? H 0.61890 0.28030 0.32030
H38? H 0.58170 0.33750 0.42160
C26? C 0.5949(6) 0.0920(12) 0.4862(12)
H39? H 0.59920 0.13000 0.57000
H40? H 0.63630 0.08110 0.46380
H41? H 0.57480 0.01820 0.49080
C27? C 0.5430(5) 0.1233(10) 0.252(1)
H42? H 0.51870 0.05320 0.24900
H43? H 0.58310 0.10730 0.22570
H44? H 0.51990 0.17920 0.19310
C28? C -0.0196(4) 0.1184(9) 0.2643(10)
C29? C -0.0067(7) -0.0101(13) 0.2843(14)
H45? H 0.00110 -0.04370 0.20350
H46? H -0.04290 -0.04680 0.30990
H47? H 0.03000 -0.02110 0.35200
C30? C -0.0763(5) 0.140(1) 0.1525(10)
H48? H -0.07820 0.22060 0.12980
H49? H -0.11510 0.11780 0.18080
H50? H -0.07110 0.09500 0.07690
C31? C -0.0249(4) 0.1912(8) 0.3820(8)
H51? H 0.01260 0.18120 0.44800
H52? H -0.06170 0.16790 0.41700
H53? H -0.02900 0.27110 0.35650
#END
