
#######################################################################
#
#                 Cambridge Crystallographic Data Centre
#                                CCDC
#
#######################################################################
#
# If this CIF has been generated from an entry in the Cambridge
# Structural Database, then it will include bibliographic, chemical,
# crystal, experimental, refinement or atomic coordinate data resulting
# from the CCDC's data processing and validation procedures.
#
#######################################################################

data_CSD_CIF_REVRER
_audit_creation_date 2013-05-19
_audit_creation_method CSD-ConQuest-V1
_database_code_CSD REVRER
_database_code_depnum_ccdc_archive 'CCDC 911159'
_chemical_formula_sum 'C9 H9 N3 O2'
_chemical_formula_moiety
;
C9 H9 N3 O2
;
_journal_coden_Cambridge 1200
_journal_volume 20
_journal_year 2012
_journal_page_first 5296
_journal_name_full 'Bioorg.Med.Chem. '
loop_
_publ_author_name
"E.Lohou"
"J.S.O.Santos"
"P.Schumann-Bard"
"M.Boulouard"
"Silvia Stiebing"
"S.Rault"
"V.Collot"
_chemical_name_systematic
;
2-Ethyl-4-nitro-2H-indazole
;
_chemical_melting_point 357
_cell_volume   1833.632
_exptl_crystal_colour 'colorless'
_exptl_crystal_density_diffrn 1.385
_exptl_crystal_description 'plate'
_diffrn_ambient_temperature 296
#These two values have been output from a single CSD field.
_refine_ls_R_factor_gt 0.0673
_refine_ls_wR_factor_gt 0.0673
_symmetry_cell_setting orthorhombic
_symmetry_space_group_name_H-M 'P c c n'
_symmetry_Int_Tables_number 56
loop_
_symmetry_equiv_pos_site_id
_symmetry_equiv_pos_as_xyz
1 x,y,z
2 1/2-x,1/2-y,z
3 -x,1/2+y,1/2-z
4 1/2+x,-y,1/2-z
5 -x,-y,-z
6 -1/2+x,-1/2+y,-z
7 x,-1/2-y,-1/2+z
8 -1/2-x,y,-1/2+z
_cell_length_a 11.287(2)
_cell_length_b 22.190(4)
_cell_length_c 7.3211(13)
_cell_angle_alpha 90
_cell_angle_beta 90
_cell_angle_gamma 90
_cell_formula_units_Z 8
loop_
_atom_type_symbol
_atom_type_radius_bond
C 0.68
H 0.23
N 0.68
O 0.68
loop_
_atom_site_label
_atom_site_type_symbol
_atom_site_fract_x
_atom_site_fract_y
_atom_site_fract_z
C1 C 0.21986(18) 0.38980(9) 0.1985(3)
C2 C 0.3415(2) 0.40328(10) 0.1862(3)
C3 C 0.13864(19) 0.4360(1) 0.1522(3)
C4 C 0.1779(2) 0.49331(10) 0.0952(4)
C5 C 0.3785(2) 0.45893(12) 0.1332(3)
C6 C 0.2961(2) 0.50354(11) 0.0875(4)
C7 C 0.1493(2) 0.34105(11) 0.2448(4)
N1 N 0.03702(18) 0.35991(9) 0.2272(3)
N2 N 0.02567(17) 0.41733(9) 0.1707(3)
C8 C -0.0704(3) 0.32438(14) 0.2668(5)
H1 H -0.04850 0.28230 0.27810
H2 H -0.10260 0.33730 0.38320
C9 C -0.1611(4) 0.3299(2) 0.1296(7)
H3 H -0.18260 0.37150 0.11600
H4 H -0.22940 0.30700 0.16580
H5 H -0.13180 0.31480 0.01530
N3 N 0.4292(2) 0.35754(11) 0.2289(3)
O1 O 0.53460(17) 0.36887(12) 0.2087(4)
O2 O 0.3935(2) 0.3090(1) 0.2829(4)
H6 H 0.168(2) 0.3002(12) 0.286(3)
H7 H 0.326(2) 0.5420(12) 0.045(4)
H8 H 0.462(3) 0.4662(12) 0.129(4)
H9 H 0.120(2) 0.5233(11) 0.055(4)
#END
