
#######################################################################
#
#                 Cambridge Crystallographic Data Centre
#                                CCDC
#
#######################################################################
#
# If this CIF has been generated from an entry in the Cambridge
# Structural Database, then it will include bibliographic, chemical,
# crystal, experimental, refinement or atomic coordinate data resulting
# from the CCDC's data processing and validation procedures.
#
#######################################################################

data_CSD_CIF_REWDUS
_audit_creation_date 1997-10-08
_audit_creation_method CSD-ConQuest-V1
_database_code_CSD REWDUS
_chemical_formula_sum 'C14 H15 N3 O5'
_chemical_formula_moiety
;
C14 H15 N3 O5
;
_journal_coden_Cambridge 151
_journal_volume 38
_journal_year 1995
_journal_page_first 119
_journal_name_full 'J.Med.Chem. '
loop_
_publ_author_name
"G.C.Rovnyak"
"S.D.Kimball"
"B.Beyer"
"G.Cucinotta"
"J.D.Di Marco"
"J.Gougoutas"
"A.Hedberg"
"M.Malley"
"J.P.McCarthy"
"Rongan Zhang"
"S.Moreland"
_chemical_name_systematic
;
Ethyl 1,4-dihydro-6-methyl-2-oxo-4-(3'-nitrophenyl)-5-pyrimidinecarboxylate
;
_cell_volume   1408.842
_exptl_crystal_density_diffrn 1.439
_diffrn_ambient_temperature ?
_diffrn_special_details
;
The study was carried out at room temperature,in the range 283-303K

;
#These two values have been output from a single CSD field.
_refine_ls_R_factor_gt 0.062
_refine_ls_wR_factor_gt 0.062
_symmetry_cell_setting monoclinic
_symmetry_space_group_name_H-M 'P 21/n'
_symmetry_Int_Tables_number 14
loop_
_symmetry_equiv_pos_site_id
_symmetry_equiv_pos_as_xyz
1 x,y,z
2 1/2-x,1/2+y,1/2-z
3 -x,-y,-z
4 -1/2+x,-1/2-y,-1/2+z
_cell_length_a 8.670(1)
_cell_length_b 11.831(2)
_cell_length_c 13.759(3)
_cell_angle_alpha 90
_cell_angle_beta 93.40(1)
_cell_angle_gamma 90
_cell_formula_units_Z 4
loop_
_atom_type_symbol
_atom_type_radius_bond
C 0.68
H 0.23
N 0.68
O 0.68
loop_
_atom_site_label
_atom_site_type_symbol
_atom_site_fract_x
_atom_site_fract_y
_atom_site_fract_z
N1 N 0.5466(5) 0.4840(4) 0.3745(3)
C1 C 0.6579(6) 0.5602(5) 0.4079(4)
O1 O 0.6632(4) 0.5945(3) 0.4929(3)
N2 N 0.7613(5) 0.5891(4) 0.3445(3)
C2 C 0.7447(7) 0.5685(5) 0.2393(4)
C3 C 0.6479(6) 0.4614(4) 0.2212(4)
C4 C 0.5502(6) 0.4272(4) 0.2873(4)
C5 C 0.6734(6) 0.6698(4) 0.1849(4)
C6 C 0.7251(6) 0.6999(5) 0.0957(4)
C7 C 0.6548(6) 0.7904(4) 0.0458(4)
N3 N 0.7082(6) 0.8177(4) -0.0512(3)
O2 O 0.6381(5) 0.8917(3) -0.0995(3)
O3 O 0.8193(5) 0.7665(4) -0.0808(3)
C8 C 0.5387(6) 0.8531(5) 0.0816(4)
C9 C 0.4934(6) 0.8244(5) 0.1730(4)
C10 C 0.5583(6) 0.7341(5) 0.2242(4)
C11 C 0.6605(7) 0.3983(5) 0.1297(4)
O4 O 0.5870(5) 0.3157(4) 0.1058(3)
O5 O 0.7687(5) 0.4420(3) 0.0762(3)
C12 C 0.792(1) 0.3840(6) -0.0151(5)
C13 C 0.778(1) 0.4560(7) -0.0945(5)
C14 C 0.4394(7) 0.3312(5) 0.2804(4)
H1 H 0.45970 0.47220 0.41760
H2 H 0.85690 0.62710 0.37030
H3 H 0.77860 0.52750 0.18490
H4 H 0.80790 0.65890 0.06850
H5 H 0.49210 0.91570 0.04620
H6 H 0.41370 0.86770 0.20130
H7 H 0.52450 0.71650 0.28720
H8 H 0.71420 0.32770 -0.02370
H9 H 0.89030 0.35140 -0.01180
H10 H 0.79320 0.41540 -0.15160
H11 H 0.85480 0.51420 -0.08600
H12 H 0.67870 0.49040 -0.09790
H13 H 0.44390 0.29060 0.21850
H14 H 0.33180 0.35060 0.28560
H15 H 0.46070 0.27220 0.33030
#END
