
#######################################################################
#
#                 Cambridge Crystallographic Data Centre
#                                CCDC
#
#######################################################################
#
# If this CIF has been generated from an entry in the Cambridge
# Structural Database, then it will include bibliographic, chemical,
# crystal, experimental, refinement or atomic coordinate data resulting
# from the CCDC's data processing and validation procedures.
#
#######################################################################

data_CSD_CIF_REWWAR
_audit_creation_date 1997-10-09
_audit_creation_method CSD-ConQuest-V1
_database_code_CSD REWWAR
_chemical_formula_sum 'C17 H25 N1 O3'
_chemical_formula_moiety
;
C17 H25 N1 O3
;
_journal_coden_Cambridge 469
_journal_volume 59
_journal_year 1996
_journal_page_first 1151
_journal_name_full 'J.Nat.Prod. '
loop_
_publ_author_name
"K.D.McBrien"
"Qi Gao"
"S.Huang"
"S.E.Klohr"
"R.R.Wang"
"D.M.Pirnik"
"K.M.Neddermann"
"I.Bursuker"
"K.F.Kadow"
"J.E.Leet"
_chemical_name_systematic
;
Fusaricide
;
_chemical_melting_point 481.15
_cell_volume   3598.505
_exptl_crystal_colour 'colorless'
_exptl_crystal_density_diffrn 1.21
_exptl_special_details
;
antifungal and antitumour activity and potential antiviral activity

;
_diffrn_ambient_temperature ?
_diffrn_special_details
;
The study was carried out at room temperature,in the range 283-303K

;
#These two values have been output from a single CSD field.
_refine_ls_R_factor_gt 0.033
_refine_ls_wR_factor_gt 0.033
_chemical_compound_source
;
Fungus Fusarium sp
;
_symmetry_cell_setting rhombohedral
_symmetry_space_group_name_H-M 'R 3'
_symmetry_Int_Tables_number 146
loop_
_symmetry_equiv_pos_site_id
_symmetry_equiv_pos_as_xyz
1 x,y,z
2 -y,x-y,z
3 -x+y,-x,z
4 1/3+x,2/3+y,2/3+z
5 1/3-y,2/3+x-y,2/3+z
6 1/3-x+y,2/3-x,2/3+z
7 2/3+x,1/3+y,1/3+z
8 2/3-y,1/3+x-y,1/3+z
9 2/3-x+y,1/3-x,1/3+z
_cell_length_a 21.597(1)
_cell_length_b 21.597(1)
_cell_length_c 8.9085(8)
_cell_angle_alpha 90
_cell_angle_beta 90
_cell_angle_gamma 120
_cell_formula_units_Z 9
loop_
_atom_type_symbol
_atom_type_radius_bond
C 0.68
H 0.23
N 0.68
O 0.68
loop_
_atom_site_label
_atom_site_type_symbol
_atom_site_fract_x
_atom_site_fract_y
_atom_site_fract_z
O1 O 0.25138(5) 0.03559(6) 0.4933(1)
O2 O 0.09450(5) 0.03239(5) 0.9677(1)
O3 O 0.03886(5) -0.07685(5) 0.7845(1)
N1 N 0.13560(5) 0.02746(5) 0.8539(1)
C1 C 0.21119(6) 0.02723(6) 0.6153(2)
C2 C 0.24110(7) 0.08512(8) 0.7170(2)
C3 C 0.20213(7) 0.08360(7) 0.8345(2)
C4 C 0.10194(6) -0.03148(6) 0.7596(2)
C5 C 0.14551(5) -0.03282(6) 0.6386(1)
C6 C 0.12198(5) -0.09042(5) 0.5189(2)
C7 C 0.04758(6) -0.15753(6) 0.5348(2)
C8 C 0.04659(9) -0.20197(7) 0.6683(2)
C9 C 0.02798(8) -0.20357(7) 0.3937(2)
C10 C 0.03576(7) -0.16487(7) 0.2478(2)
C11 C 0.0152(1) -0.21459(9) 0.1129(2)
C12 C 0.11273(6) -0.10400(6) 0.2342(2)
C13 C 0.09931(6) -0.00665(6) 0.3567(2)
C14 C 0.13731(5) -0.05079(5) 0.3658(2)
C15 C 0.21876(6) -0.00409(6) 0.3555(2)
C16 C 0.2476(1) 0.0504(1) 0.2297(2)
C17 C 0.3276(1) 0.0843(1) 0.2086(3)
H1 H 0.28900 0.12500 0.70100
H2 H 0.22200 0.12300 0.90800
H3 H 0.07400 0.05600 0.92400
H4 H 0.14900 -0.11400 0.53300
H5 H 0.01400 -0.14200 0.55000
H6 H 0.00400 -0.14500 0.24700
H7 H 0.23100 -0.04000 0.33400
H8 H 0.05900 -0.17400 0.75900
H9 H 0.00000 -0.24300 0.68200
H10 H 0.08000 -0.21800 0.65400
H11 H 0.05700 -0.22500 0.39300
H12 H -0.02100 -0.24100 0.40600
H13 H 0.11800 -0.07900 0.14400
H14 H 0.14300 -0.12400 0.23100
H15 H 0.11400 0.02700 0.44100
H16 H 0.11100 0.02000 0.26700
H17 H 0.04900 -0.03700 0.36400
H18 H 0.34500 0.12200 0.13500
H19 H 0.23500 0.08800 0.25500
H20 H 0.35200 0.11000 0.30400
H21 H 0.22500 0.03000 0.13900
H22 H 0.34100 0.05200 0.18800
H23 H 0.01300 -0.19500 -0.00100
H24 H -0.03200 -0.25400 0.13600
H25 H 0.04800 -0.23200 0.11100
#END
