
#######################################################################
#
#                 Cambridge Crystallographic Data Centre
#                                CCDC
#
#######################################################################
#
# If this CIF has been generated from an entry in the Cambridge
# Structural Database, then it will include bibliographic, chemical,
# crystal, experimental, refinement or atomic coordinate data resulting
# from the CCDC's data processing and validation procedures.
#
#######################################################################

data_CSD_CIF_REXDAC
_audit_creation_date 2018-02-22
_audit_creation_method CSD-ConQuest-V1
_database_code_CSD REXDAC
_database_code_depnum_ccdc_archive 'CCDC 1543866'
_chemical_formula_sum 'C19 H17 N3 O1'
_chemical_formula_moiety
;
C19 H17 N3 O1
;
_journal_coden_Cambridge 388
_journal_volume 53
_journal_year 2017
_journal_page_first 1664
_journal_name_full 'Zh.Org.Khim.(Russ.)(Russ.J.Org.Chem.) '
loop_
_publ_author_name
"A.A.Golovanov"
"I.S.Odin"
"A.V.Vologzhanina"
"E.D.Voronova"
"O.S.Anoshina"
"V.V.Bekin"
_chemical_name_systematic
;
5-[1-(4-methylphenyl)-4,5-dihydro-1H-pyrazol-3-yl]-3-phenyl-1,2-oxazole
;
_cell_volume   1496.520
_exptl_crystal_colour 'colorless'
_exptl_crystal_density_diffrn 1.346
_exptl_crystal_description 'prism'
_diffrn_ambient_temperature 120
#These two values have been output from a single CSD field.
_refine_ls_R_factor_gt 0.054
_refine_ls_wR_factor_gt 0.054
_symmetry_cell_setting monoclinic
_symmetry_space_group_name_H-M 'P 21/c'
_symmetry_Int_Tables_number 14
loop_
_symmetry_equiv_pos_site_id
_symmetry_equiv_pos_as_xyz
1 x,y,z
2 -x,1/2+y,1/2-z
3 -x,-y,-z
4 x,-1/2-y,-1/2+z
_cell_length_a 17.754(9)
_cell_length_b 14.004(7)
_cell_length_c 6.086(3)
_cell_angle_alpha 90
_cell_angle_beta 98.501(12)
_cell_angle_gamma 90
_cell_formula_units_Z 4
loop_
_atom_type_symbol
_atom_type_radius_bond
C 0.68
H 0.23
N 0.68
O 0.68
loop_
_atom_site_label
_atom_site_type_symbol
_atom_site_fract_x
_atom_site_fract_y
_atom_site_fract_z
O1 O 0.42256(10) 0.61346(15) 0.8073(3)
N1 N 0.62037(12) 0.61400(16) 0.5415(3)
N2 N 0.55898(12) 0.60670(15) 0.6550(3)
N3 N 0.34599(13) 0.61581(18) 0.8417(4)
C1 C 0.59740(16) 0.6597(2) 0.3253(4)
H1 H 0.62390 0.63100 0.20920
H2 H 0.60760 0.72930 0.33260
C2 C 0.51273(16) 0.6391(2) 0.2828(4)
H3 H 0.48330 0.69440 0.21440
H4 H 0.50100 0.58200 0.18810
C3 C 0.49836(15) 0.62187(18) 0.5162(4)
C4 C 0.42421(15) 0.62034(19) 0.5851(4)
C5 C 0.35289(15) 0.62643(19) 0.4754(4)
H5 H 0.33760 0.63190 0.31960
C6 C 0.30560(15) 0.62286(19) 0.6436(4)
C7 C 0.69297(15) 0.61742(18) 0.6622(4)
C8 C 0.75293(15) 0.65895(19) 0.5730(4)
H6 H 0.74430 0.68700 0.42930
C9 C 0.82502(16) 0.65921(19) 0.6944(4)
H7 H 0.86560 0.68710 0.63090
C10 C 0.84025(15) 0.62039(19) 0.9049(4)
C11 C 0.77987(15) 0.57936(19) 0.9917(4)
H8 H 0.78870 0.55260 1.13660
C12 C 0.70756(15) 0.57638(19) 0.8737(4)
H9 H 0.66760 0.54650 0.93590
C13 C 0.91919(15) 0.6196(2) 1.0360(4)
H10 H 0.91780 0.58900 1.18020
H11 H 0.95350 0.58390 0.95390
H12 H 0.93760 0.68530 1.05920
C14 C 0.22226(15) 0.62424(19) 0.6252(4)
C15 C 0.18700(17) 0.6582(2) 0.7989(4)
H13 H 0.21700 0.68340 0.92810
C16 C 0.10950(18) 0.6556(2) 0.7854(5)
H14 H 0.08600 0.67890 0.90520
C17 C 0.06516(17) 0.6192(2) 0.5982(5)
H15 H 0.01130 0.61740 0.58910
C18 C 0.09989(16) 0.5855(2) 0.4243(4)
H16 H 0.06970 0.56010 0.29560
C19 C 0.17777(16) 0.5887(2) 0.4370(4)
H17 H 0.20120 0.56630 0.31610
#END
