
#######################################################################
#
#                 Cambridge Crystallographic Data Centre
#                                CCDC
#
#######################################################################
#
# If this CIF has been generated from an entry in the Cambridge
# Structural Database, then it will include bibliographic, chemical,
# crystal, experimental, refinement or atomic coordinate data resulting
# from the CCDC's data processing and validation procedures.
#
#######################################################################

data_CSD_CIF_REXHOS
_audit_creation_date 2007-05-15
_audit_creation_method CSD-ConQuest-V1
_database_code_CSD REXHOS
_database_code_depnum_ccdc_archive 'CCDC 628982'
_chemical_formula_sum 'C12 H21 N1 O5'
_chemical_formula_moiety
;
C12 H21 N1 O5
;
_journal_coden_Cambridge 1336
_journal_volume 9
_journal_year 2007
_journal_page_first 623
_journal_name_full 'Org.Lett. '
loop_
_publ_author_name
"J.M.Otero"
"R.G.Soengas"
"J.C.Estevez"
"R.J.Estevez"
"D.J.Watkin"
"E.L.Evinson"
"R.J.Nash"
"G.W.J.Fleet"
_chemical_name_systematic
;
(3a'S,6a'R)-2,2,2',2'-Tetramethyldihydrospiro((1,3-dioxane)-5,4'-((1,3)dioxolo
(4,5-c)pyrrol))-5'(3a'H)-ol
;
_chemical_melting_point 413.15
_cell_volume   1312.952
_exptl_crystal_colour 'colorless'
_exptl_crystal_density_diffrn 1.312
_exptl_special_details
;
Melting point range 413.15-415.15K

;
_exptl_crystal_description 'prism'
_exptl_crystal_preparation 'ethyl acetate/petroleum spirit'
_diffrn_ambient_temperature 150
#These two values have been output from a single CSD field.
_refine_ls_R_factor_gt 0.0333
_refine_ls_wR_factor_gt 0.0333
_symmetry_cell_setting orthorhombic
_symmetry_space_group_name_H-M 'P 21 21 21'
_symmetry_Int_Tables_number 19
loop_
_symmetry_equiv_pos_site_id
_symmetry_equiv_pos_as_xyz
1 x,y,z
2 1/2+x,1/2-y,-z
3 -x,1/2+y,1/2-z
4 1/2-x,-y,1/2+z
_cell_length_a 5.9773(2)
_cell_length_b 11.3531(5)
_cell_length_c 19.3477(10)
_cell_angle_alpha 90
_cell_angle_beta 90
_cell_angle_gamma 90
_cell_formula_units_Z 4
loop_
_atom_type_symbol
_atom_type_radius_bond
C 0.68
H 0.23
N 0.68
O 0.68
loop_
_atom_site_label
_atom_site_type_symbol
_atom_site_fract_x
_atom_site_fract_y
_atom_site_fract_z
N1 N 0.2738(4) 0.63104(17) 0.24397(10)
C1 C 0.2894(4) 0.5160(2) 0.27904(11)
C2 C 0.1914(5) 0.4317(2) 0.22483(12)
C3 C 0.0500(4) 0.5097(2) 0.17579(13)
C4 C 0.0610(4) 0.6326(2) 0.20631(13)
O1 O 0.2742(4) 0.72543(16) 0.29428(10)
C5 C 0.1580(4) 0.5044(2) 0.34663(12)
O2 O 0.2064(3) 0.39309(16) 0.37842(9)
C6 C 0.5339(4) 0.4939(2) 0.29516(13)
O3 O 0.5629(3) 0.38309(15) 0.32885(8)
C7 C 0.4382(5) 0.3721(3) 0.39134(14)
C8 C 0.4535(6) 0.2437(3) 0.41179(16)
C9 C 0.5300(6) 0.4525(3) 0.44736(14)
O4 O 0.3612(3) 0.38248(16) 0.18109(9)
O5 O 0.1684(3) 0.50532(15) 0.11156(8)
C10 C 0.2920(4) 0.3986(2) 0.11052(12)
C11 C 0.1472(5) 0.2960(2) 0.08736(14)
C12 C 0.4977(5) 0.4153(3) 0.06653(14)
H1 H 0.408(7) 0.771(4) 0.281(2)
H2 H 0.10900 0.36730 0.24920
H3 H -0.10960 0.48540 0.16970
H4 H -0.06740 0.64730 0.23830
H5 H 0.06190 0.69390 0.16920
H6 H 0.20190 0.56950 0.37870
H7 H -0.00580 0.50960 0.33660
H8 H 0.59030 0.55800 0.32600
H9 H 0.62120 0.49400 0.25110
H10 H 0.61300 0.22300 0.42160
H11 H 0.36110 0.22970 0.45410
H12 H 0.39650 0.19340 0.37310
H13 H 0.69220 0.43500 0.45480
H14 H 0.44600 0.43890 0.49130
H15 H 0.51210 0.53650 0.43280
H16 H 0.10030 0.30830 0.03830
H17 H 0.01150 0.29110 0.11750
H18 H 0.23440 0.22110 0.09110
H19 H 0.45220 0.42660 0.01720
H20 H 0.58170 0.48620 0.08280
H21 H 0.59550 0.34410 0.07040
#END
