
#######################################################################
#
#                 Cambridge Crystallographic Data Centre
#                                CCDC
#
#######################################################################
#
# If this CIF has been generated from an entry in the Cambridge
# Structural Database, then it will include bibliographic, chemical,
# crystal, experimental, refinement or atomic coordinate data resulting
# from the CCDC's data processing and validation procedures.
#
#######################################################################

data_CSD_CIF_REXKAI
_audit_creation_date 2013-05-19
_audit_creation_method CSD-ConQuest-V1
_database_code_CSD REXKAI
_database_code_depnum_ccdc_archive 'CCDC 910293'
_chemical_formula_sum 'C22 H14 N4 O4'
_chemical_formula_moiety
;
C22 H14 N4 O4
;
_journal_coden_Cambridge 222
_journal_volume 42
_journal_year 2013
_journal_page_first 8086
_journal_name_full 'Dalton Trans. '
loop_
_publ_author_name
"E.C.Constable"
"C.E.Housecroft"
"P.Kopecky"
"C.J.Martin"
"I.A.Wright"
"J.A.Zampese"
"H.J.Bolink"
"A.Pertegas"
_chemical_name_systematic
;
4,6-bis(4-Nitrophenyl)-2,2'-bipyridine
;
_cell_volume   1806.277
_exptl_crystal_colour 'yellow'
_exptl_crystal_density_diffrn 1.465
_exptl_crystal_description 'block'
_diffrn_ambient_temperature 173
#These two values have been output from a single CSD field.
_refine_ls_R_factor_gt 0.1076
_refine_ls_wR_factor_gt 0.1076
_symmetry_cell_setting monoclinic
_symmetry_space_group_name_H-M 'P 21/c'
_symmetry_Int_Tables_number 14
loop_
_symmetry_equiv_pos_site_id
_symmetry_equiv_pos_as_xyz
1 x,y,z
2 -x,1/2+y,1/2-z
3 -x,-y,-z
4 x,-1/2-y,-1/2+z
_cell_length_a 20.196(8)
_cell_length_b 7.0193(16)
_cell_length_c 13.309(6)
_cell_angle_alpha 90
_cell_angle_beta 106.79(3)
_cell_angle_gamma 90
_cell_formula_units_Z 4
loop_
_atom_type_symbol
_atom_type_radius_bond
C 0.68
H 0.23
N 0.68
O 0.68
loop_
_atom_site_label
_atom_site_type_symbol
_atom_site_fract_x
_atom_site_fract_y
_atom_site_fract_z
N1 N 0.0704(2) 0.2979(7) 0.2383(4)
N2 N 0.2397(2) 0.4881(7) 0.3565(4)
C1 C 0.0156(3) 0.2382(10) 0.2667(5)
H1 H -0.02160 0.18080 0.21500
C2 C 0.0105(3) 0.2557(10) 0.3676(5)
H2 H -0.02900 0.20870 0.38490
C3 C 0.0635(3) 0.3424(10) 0.4427(5)
H3 H 0.06050 0.35980 0.51210
C4 C 0.1207(3) 0.4034(9) 0.4160(5)
H4 H 0.15860 0.45990 0.46700
C5 C 0.1224(3) 0.3808(8) 0.3125(4)
C6 C 0.1824(3) 0.4424(8) 0.2804(5)
C7 C 0.1793(3) 0.4510(8) 0.1751(5)
H5 H 0.13770 0.41970 0.12270
C8 C 0.2377(3) 0.5058(9) 0.1468(5)
C9 C 0.2973(3) 0.5497(9) 0.2262(5)
H6 H 0.33840 0.58450 0.20960
C10 C 0.2965(3) 0.5425(8) 0.3316(5)
C11 C 0.3576(3) 0.5903(9) 0.4196(5)
C12 C 0.3582(3) 0.5367(9) 0.5212(5)
H7 H 0.31950 0.47100 0.53130
C13 C 0.4136(3) 0.5771(10) 0.6067(5)
H8 H 0.41440 0.53600 0.67500
C14 C 0.4681(3) 0.6793(9) 0.5903(5)
C15 C 0.4693(3) 0.7367(10) 0.4921(5)
H9 H 0.50780 0.80520 0.48310
C16 C 0.4137(3) 0.6936(9) 0.4065(5)
H10 H 0.41370 0.73440 0.33840
N3 N 0.5280(3) 0.7166(9) 0.6810(5)
O1 O 0.5304(3) 0.6457(9) 0.7665(4)
O2 O 0.5736(3) 0.8209(9) 0.6685(4)
C17 C 0.2345(3) 0.5154(8) 0.0342(5)
C18 C 0.1745(3) 0.5795(9) -0.0388(5)
H11 H 0.13650 0.62140 -0.01580
C19 C 0.1698(3) 0.5826(9) -0.1452(5)
H12 H 0.12870 0.62500 -0.19540
C20 C 0.2251(3) 0.5236(8) -0.1759(5)
C21 C 0.2857(3) 0.4616(9) -0.1062(5)
H13 H 0.32350 0.42080 -0.13010
C22 C 0.2904(3) 0.4602(9) 0.0010(5)
H14 H 0.33210 0.42110 0.05090
N4 N 0.2196(3) 0.5227(8) -0.2890(5)
O3 O 0.2693(3) 0.4726(9) -0.3154(5)
O4 O 0.1650(3) 0.5765(9) -0.3483(4)
#END
