
#######################################################################
#
#                 Cambridge Crystallographic Data Centre
#                                CCDC
#
#######################################################################
#
# If this CIF has been generated from an entry in the Cambridge
# Structural Database, then it will include bibliographic, chemical,
# crystal, experimental, refinement or atomic coordinate data resulting
# from the CCDC's data processing and validation procedures.
#
#######################################################################

data_CSD_CIF_REXVAS
_audit_creation_date 2007-05-15
_audit_creation_method CSD-ConQuest-V1
_database_code_CSD REXVAS
_database_code_depnum_ccdc_archive 'CCDC 295050'
_chemical_formula_sum 'C9 H9 N3 O9'
_chemical_formula_moiety
;
C9 H9 N3 O9
;
_journal_coden_Cambridge 1086
_journal_volume 18
_journal_year 2006
_journal_page_first 430
_journal_name_full 'Chirality '
loop_
_publ_author_name
"K.Chegaev"
"L.Lazzarato"
"G.C.Tron"
"D.Marabello"
"A.Di Stilo"
"C.Cena"
"R.Fruttero"
"A.Gasco"
"N.Vanthuyne"
"C.Roussel"
_chemical_name_systematic
;
threo-(S,S)-1-phenylpropane-1,2,3-triyl trinitrate
;
_chemical_name_common
;
phenylglyceryl trinitrate
;
_chemical_melting_point 313.65
_cell_volume   2478.458
_exptl_crystal_colour 'colorless'
_exptl_crystal_density_diffrn 1.625
_exptl_special_details
;
Melting point range 313.65-314.15K

;
_exptl_crystal_description 'prism'
_diffrn_ambient_temperature 173
#These two values have been output from a single CSD field.
_refine_ls_R_factor_gt 0.0395
_refine_ls_wR_factor_gt 0.0395
_symmetry_cell_setting monoclinic
_symmetry_space_group_name_H-M 'C 2/c'
_symmetry_Int_Tables_number 15
loop_
_symmetry_equiv_pos_site_id
_symmetry_equiv_pos_as_xyz
1 x,y,z
2 1/2+x,1/2+y,z
3 -x,y,1/2-z
4 1/2-x,1/2+y,1/2-z
5 -x,-y,-z
6 -1/2-x,-1/2-y,-z
7 x,-y,-1/2+z
8 -1/2+x,-1/2-y,-1/2+z
_cell_length_a 14.971(7)
_cell_length_b 8.931(3)
_cell_length_c 18.558(6)
_cell_angle_alpha 90
_cell_angle_beta 92.75(3)
_cell_angle_gamma 90
_cell_formula_units_Z 8
loop_
_atom_type_symbol
_atom_type_radius_bond
C 0.68
H 0.23
N 0.68
O 0.68
loop_
_atom_site_label
_atom_site_type_symbol
_atom_site_fract_x
_atom_site_fract_y
_atom_site_fract_z
C1 C 0.04506(8) 0.74915(14) 0.55239(6)
H1 H 0.0686(8) 0.6525(16) 0.5401(7)
C2 C -0.05666(8) 0.74342(15) 0.55336(7)
H2 H -0.0807(9) 0.8418(16) 0.5530(7)
C3 C -0.08925(9) 0.65829(15) 0.61722(7)
H3 H -0.0714(9) 0.7077(16) 0.6609(8)
H4 H -0.1533(10) 0.6447(15) 0.6130(8)
C4 C 0.08952(7) 0.81059(13) 0.62060(6)
C5 C 0.06645(9) 0.95025(15) 0.64685(7)
H5 H 0.0220(9) 1.0062(16) 0.6233(8)
C6 C 0.10847(9) 1.00596(16) 0.70924(7)
H6 H 0.0918(10) 1.1005(17) 0.7266(8)
C7 C 0.17444(9) 0.92308(15) 0.74499(7)
H7 H 0.2037(10) 0.9611(16) 0.7859(8)
C8 C 0.19778(9) 0.78492(16) 0.71923(8)
H8 H 0.2439(9) 0.7290(17) 0.7437(8)
C9 C 0.15536(8) 0.72802(15) 0.65720(7)
H9 H 0.1710(9) 0.6325(17) 0.6380(8)
O1 O 0.06163(6) 0.85004(10) 0.49226(4)
N1 N 0.13739(7) 0.81388(12) 0.45338(6)
O2 O 0.17274(6) 0.69492(11) 0.46383(5)
O3 O 0.15560(7) 0.91216(11) 0.41227(5)
O4 O -0.08624(6) 0.66514(10) 0.48761(5)
N2 N -0.15582(7) 0.73405(13) 0.44630(6)
O5 O -0.17710(7) 0.66243(13) 0.39360(6)
O6 O -0.18517(7) 0.85068(12) 0.46683(6)
O7 O -0.04518(6) 0.51432(10) 0.61503(5)
N3 N -0.06130(8) 0.42220(14) 0.67395(6)
O8 O -0.03117(7) 0.29840(11) 0.66776(5)
O9 O -0.10135(8) 0.47489(14) 0.72223(6)
#END
