
#######################################################################
#
#                 Cambridge Crystallographic Data Centre
#                                CCDC
#
#######################################################################
#
# If this CIF has been generated from an entry in the Cambridge
# Structural Database, then it will include bibliographic, chemical,
# crystal, experimental, refinement or atomic coordinate data resulting
# from the CCDC's data processing and validation procedures.
#
#######################################################################

data_CSD_CIF_REYJOU
_audit_creation_date 1997-10-09
_audit_creation_method CSD-ConQuest-V1
_database_code_CSD REYJOU
_chemical_formula_sum 'C17 H22 N6 O11'
_chemical_formula_moiety
;
C17 H22 N6 O11
;
_journal_coden_Cambridge 388
_journal_volume 32
_journal_year 1996
_journal_page_first 770
_journal_name_full 'Zh.Org.Khim.(Russ.)(Russ.J.Org.Chem.) '
loop_
_publ_author_name
"V.L.Rusinov"
"E.N.Ulomsky"
"D.N.Kozhevnikov"
"O.N.Chupakhin"
"G.G.Aleksandrov"
_chemical_name_systematic
;
Nitroformaldehyde-(2,3,4,6-tetra-O-acetyl-\b-D-glucopyranosyl)-(1,2,4-triazol-
3-yl)hydrazone
;
_chemical_melting_point 382
_cell_volume   2371.899
_exptl_special_details
;
Author has supplied correct atom table

;
_diffrn_ambient_temperature ?
_diffrn_special_details
;
The study was carried out at room temperature,in the range 283-303K

;
#These two values have been output from a single CSD field.
_refine_ls_R_factor_gt 0.069
_refine_ls_wR_factor_gt 0.069
_symmetry_cell_setting orthorhombic
_symmetry_space_group_name_H-M 'P 21 21 21'
_symmetry_Int_Tables_number 19
loop_
_symmetry_equiv_pos_site_id
_symmetry_equiv_pos_as_xyz
1 x,y,z
2 1/2-x,-y,1/2+z
3 1/2+x,1/2-y,-z
4 -x,1/2+y,1/2-z
_cell_length_a 8.990(5)
_cell_length_b 16.126(9)
_cell_length_c 16.361(9)
_cell_angle_alpha 90
_cell_angle_beta 90
_cell_angle_gamma 90
_cell_formula_units_Z 4
loop_
_atom_type_symbol
_atom_type_radius_bond
C 0.68
H 0.23
N 0.68
O 0.68
loop_
_atom_site_label
_atom_site_type_symbol
_atom_site_fract_x
_atom_site_fract_y
_atom_site_fract_z
O1 O -0.25114 0.78518 0.29248
O2 O -0.38947 0.67775 0.27240
O3 O 0.23113 0.74348 0.14743
O4 O 0.39406 0.72881 -0.00259
O5 O 0.22938 0.75436 -0.10233
O6 O 0.46764 0.92902 0.15576
O7 O 0.30532 1.02182 0.10344
O8 O 0.31646 0.93138 0.30829
O9 O 0.47384 0.90041 0.41004
O10 O 0.25538 0.75807 0.36875
O11 O 0.06782 0.83570 0.41948
N1 N 0.26273 0.54614 0.19514
N2 N 0.22888 0.47193 0.16633
N3 N 0.01823 0.53152 0.19363
N4 N 0.11364 0.65956 0.24138
N5 N -0.01708 0.69802 0.25511
N6 N -0.27034 0.71326 0.27603
C1 C 0.12717 0.57999 0.21115
C2 C 0.08699 0.46168 0.16663
C3 C -0.13958 0.66054 0.25664
C4 C 0.23810 0.71598 0.22988
C5 C 0.23009 0.79117 0.28743
C6 C 0.35139 0.85390 0.26559
C7 C 0.34388 0.87377 0.17505
C8 C 0.35798 0.79202 0.12672
C9 C 0.35296 0.80725 0.03458
C10 C 0.32014 0.70884 -0.07134
C11 C 0.37543 0.62968 -0.10506
C12 C 0.43216 1.00155 0.11838
C13 C 0.56935 1.05071 0.10003
C14 C 0.39019 0.94837 0.37829
C15 C 0.35089 1.03259 0.40979
C16 C 0.16730 0.78628 0.43009
C17 C 0.20847 0.75172 0.51028
H1 H 0.25658 0.58294 0.17233
H2 H 0.05599 0.43053 0.14989
H3 H -0.15728 0.60527 0.25813
H4 H 0.31971 0.68403 0.24517
H5 H 0.12982 0.80881 0.28487
H6 H 0.46777 0.83298 0.28233
H7 H 0.22851 0.90100 0.16850
H8 H 0.46673 0.76103 0.14070
H9 H 0.24019 0.82633 0.01823
H10 H 0.44291 0.85969 0.02336
H11 H 0.40941 0.58609 -0.07697
H12 H 0.32981 0.60999 -0.15561
H13? H 0.52629 0.63482 -0.11896
H14 H 0.56350 1.09353 0.07765
H15 H 0.58575 1.06580 0.15333
H16 H 0.66467 1.01562 0.06310
H17 H 0.23837 1.03126 0.40708
H18 H 0.36828 1.03648 0.47218
H19 H 0.38999 1.07978 0.37120
H20 H 0.13880 0.77036 0.55914
H21 H 0.27257 0.74629 0.51444
#END
