
#######################################################################
#
#                 Cambridge Crystallographic Data Centre
#                                CCDC
#
#######################################################################
#
# If this CIF has been generated from an entry in the Cambridge
# Structural Database, then it will include bibliographic, chemical,
# crystal, experimental, refinement or atomic coordinate data resulting
# from the CCDC's data processing and validation procedures.
#
#######################################################################

data_CSD_CIF_REYKAH
_audit_creation_date 1997-10-09
_audit_creation_method CSD-ConQuest-V1
_database_code_CSD REYKAH
_chemical_formula_sum 'C13 H14 N4 O3'
_chemical_formula_moiety
;
C13 H14 N4 O3
;
_journal_coden_Cambridge 444
_journal_volume 66
_journal_year 1996
_journal_page_first 1180
_journal_name_full 'Zh.Obshch.Khim.(Russ.)(Russ.J.Gen.Chem.) '
loop_
_publ_author_name
"Yu.L.Piterskaya"
"A.V.Khramchikhin"
"M.D.Stadnichuk"
"V.K.Bel'sky"
"A.I.Stash"
_chemical_name_systematic
;
1-(4-Nitrophenyl)-4-t-butyl-1,2,3-triazol-5-carbaldehyde
;
_chemical_melting_point 414.15
_cell_volume    676.218
_exptl_crystal_density_diffrn 1.347
_diffrn_ambient_temperature ?
_diffrn_special_details
;
The study was carried out at room temperature,in the range 283-303K

;
#These two values have been output from a single CSD field.
_refine_ls_R_factor_gt 0.0504
_refine_ls_wR_factor_gt 0.0504
_symmetry_cell_setting triclinic
_symmetry_space_group_name_H-M 'P -1'
_symmetry_Int_Tables_number 2
loop_
_symmetry_equiv_pos_site_id
_symmetry_equiv_pos_as_xyz
1 x,y,z
2 -x,-y,-z
_cell_length_a 8.561(2)
_cell_length_b 8.608(2)
_cell_length_c 9.905(2)
_cell_angle_alpha 76.82(2)
_cell_angle_beta 93.01(2)
_cell_angle_gamma 107.89(2)
_cell_formula_units_Z 2
loop_
_atom_type_symbol
_atom_type_radius_bond
C 0.68
H 0.23
N 0.68
O 0.68
loop_
_atom_site_label
_atom_site_type_symbol
_atom_site_fract_x
_atom_site_fract_y
_atom_site_fract_z
O1 O 0.6133(3) 0.0922(3) 0.3599(3)
O2 O -0.1937(4) 0.5002(4) 0.1816(4)
O3 O -0.1361(4) 0.4690(5) 0.3986(5)
N1 N 0.2067(3) -0.0095(3) 0.2301(2)
N2 N 0.1162(3) -0.1360(3) 0.1760(3)
N3 N 0.2084(3) -0.2316(3) 0.1686(3)
N4 N -0.1267(3) 0.4437(4) 0.2854(5)
C1 C 0.3606(3) -0.0239(3) 0.2599(2)
C2 C 0.3591(3) -0.1680(3) 0.2184(3)
C3 C 0.4900(3) -0.2526(3) 0.2182(3)
C4 C 0.4298(7) -0.3900(8) 0.1366(10)
C5 C 0.5235(8) -0.3252(9) 0.3655(5)
C6 C 0.6449(5) -0.1300(5) 0.1465(6)
C7 C 0.1328(3) 0.1143(3) 0.2456(3)
C8 C 0.1295(4) 0.1541(4) 0.3722(4)
C9 C 0.0464(4) 0.2659(5) 0.3846(4)
C10 C -0.0303(3) 0.3318(4) 0.2705(4)
C11 C -0.0261(3) 0.2936(4) 0.1447(4)
C12 C 0.0581(3) 0.1848(4) 0.1313(3)
C13 C 0.4844(4) 0.1061(4) 0.3124(3)
H1 H 0.51289 -0.44499 0.14122
H2 H 0.35156 -0.43532 0.11174
H3 H 0.38539 -0.45448 0.25054
H4 H 0.61460 -0.37879 0.36961
H5 H 0.58008 -0.22732 0.40383
H6 H 0.43322 -0.37800 0.42602
H7 H 0.72713 -0.19142 0.15118
H8 H 0.69145 -0.03121 0.20365
H9 H 0.61546 -0.10117 0.04550
H10 H 0.17906 0.09967 0.44680
H11 H 0.04403 0.28875 0.46860
H12 H -0.08149 0.34603 0.06489
H13 H 0.06351 0.15133 0.04445
H14 H 0.46261 0.22284 0.30555
#END
