
#######################################################################
#
#                 Cambridge Crystallographic Data Centre
#                                CCDC
#
#######################################################################
#
# If this CIF has been generated from an entry in the Cambridge
# Structural Database, then it will include bibliographic, chemical,
# crystal, experimental, refinement or atomic coordinate data resulting
# from the CCDC's data processing and validation procedures.
#
#######################################################################

data_CSD_CIF_REYKEO
_audit_creation_date 2018-02-22
_audit_creation_method CSD-ConQuest-V1
_database_code_CSD REYKEO
_database_code_depnum_ccdc_archive 'CCDC 1058227'
_chemical_formula_sum 'C5 H9 N7 O10'
_chemical_formula_moiety
;
C5 H9 N7 O10
;
_journal_coden_Cambridge 82
_journal_volume 58
_journal_year 2017
_journal_page_first 763
_journal_name_full 'Zh.Strukt.Khim.(Russ.)(J.Struct.Chem.) '
loop_
_publ_author_name
"I.N.Zyuzin"
"Z.G.Aliev"
"S.M.Aldoshin"
_chemical_name_systematic
;
4,6-dioxo-5-(2,2,2-trinitroethyl)-2,8-dioxa-3,4\l^5^,6\l^5^,7-tetra-azanona-3,
6-diene
;
_chemical_melting_point 380.3
_cell_volume   1306.738
_exptl_crystal_colour 'colorless'
_exptl_crystal_density_diffrn 1.663
_exptl_crystal_description 'prism'
_diffrn_ambient_temperature 293
#These two values have been output from a single CSD field.
_refine_ls_R_factor_gt 0.0464
_refine_ls_wR_factor_gt 0.0464
_symmetry_cell_setting monoclinic
_symmetry_space_group_name_H-M 'P 21/c'
_symmetry_Int_Tables_number 14
loop_
_symmetry_equiv_pos_site_id
_symmetry_equiv_pos_as_xyz
1 x,y,z
2 -x,1/2+y,1/2-z
3 -x,-y,-z
4 x,-1/2-y,-1/2+z
_cell_length_a 9.516(1)
_cell_length_b 11.676(1)
_cell_length_c 12.273(1)
_cell_angle_alpha 90
_cell_angle_beta 106.61(1)
_cell_angle_gamma 90
_cell_formula_units_Z 4
loop_
_atom_type_symbol
_atom_type_radius_bond
C 0.68
H 0.23
N 0.68
O 0.68
loop_
_atom_site_label
_atom_site_type_symbol
_atom_site_fract_x
_atom_site_fract_y
_atom_site_fract_z
O1 O 0.3963(3) 0.0978(2) 0.5147(2)
O2 O 0.2425(3) 0.1107(2) 0.3122(2)
O3 O 0.0858(3) 0.1315(2) 0.5776(2)
O4 O 0.1520(3) 0.1233(2) 0.7879(2)
O5 O 0.2919(4) -0.1988(3) 0.4070(2)
O6 O 0.4324(4) -0.3408(3) 0.4792(3)
O7 O 0.1221(3) -0.2359(3) 0.6619(2)
O8 O 0.1215(3) -0.3460(3) 0.5185(3)
O9 O 0.5475(4) -0.2641(3) 0.7400(3)
O10 O 0.3934(4) -0.4040(2) 0.6979(3)
N1 N 0.2770(3) 0.0433(2) 0.4793(2)
N2 N 0.1867(4) 0.0415(2) 0.3794(2)
N3 N 0.1731(3) 0.0563(2) 0.6315(2)
N4 N 0.2170(3) 0.0414(2) 0.7387(2)
N5 N 0.3531(4) -0.2607(3) 0.4834(3)
N6 N 0.1751(3) -0.2758(3) 0.5916(3)
N7 N 0.4339(4) -0.3073(3) 0.6886(3)
C1 C 0.2272(4) -0.0287(3) 0.5603(3)
H1 H 0.145(5) -0.068(3) 0.519(3)
C2 C 0.3491(4) -0.1065(3) 0.6285(3)
H2 H 0.448(4) -0.082(3) 0.622(2)
H3 H 0.368(4) -0.099(3) 0.706(3)
C3 C 0.3290(4) -0.2317(3) 0.5986(3)
C4 C 0.1391(8) 0.1107(5) 0.1996(4)
H4 H 0.041(7) 0.141(5) 0.205(5)
H5 H 0.125(6) 0.043(5) 0.172(4)
H6 H 0.192(8) 0.150(6) 0.158(6)
C5 C 0.2076(7) 0.1128(5) 0.9097(4)
H7 H 0.299(7) 0.112(5) 0.931(4)
H8 H 0.155(7) 0.054(5) 0.927(5)
H9 H 0.159(6) 0.173(5) 0.935(4)
#END
