
#######################################################################
#
#                 Cambridge Crystallographic Data Centre
#                                CCDC
#
#######################################################################
#
# If this CIF has been generated from an entry in the Cambridge
# Structural Database, then it will include bibliographic, chemical,
# crystal, experimental, refinement or atomic coordinate data resulting
# from the CCDC's data processing and validation procedures.
#
#######################################################################

data_CSD_CIF_REZFUA
_audit_creation_date 2018-02-23
_audit_creation_method CSD-ConQuest-V1
_database_code_CSD REZFUA
_database_code_depnum_ccdc_archive 'CCDC 1444691'
_chemical_formula_sum 'C14 H12 N2 O3'
_chemical_formula_moiety
;
C14 H12 N2 O3
;
_journal_coden_Cambridge 119
_journal_volume 1156
_journal_year 2018
_journal_page_first 62
_journal_name_full 'J.Mol.Struct. '
loop_
_publ_author_name
"P.Prabukanthan"
"R.Lakshmi"
"G.Harichandran"
"C.Sudarsana Kumar"
_chemical_name_systematic
;
N-methyl-N-(4-nitrophenyl)benzamide
;
_chemical_melting_point 361
_cell_volume   2562.939
_exptl_crystal_colour 'yellow'
_exptl_crystal_density_diffrn 1.328
_exptl_special_details
;
Melting point range 361-362K

;
_exptl_crystal_description 'block'
_exptl_crystal_preparation 'Re-crystallisation from solvent'
_diffrn_ambient_temperature 296
#These two values have been output from a single CSD field.
_refine_ls_R_factor_gt 0.0405
_refine_ls_wR_factor_gt 0.0405
_symmetry_cell_setting monoclinic
_symmetry_space_group_name_H-M 'C 2/c'
_symmetry_Int_Tables_number 15
loop_
_symmetry_equiv_pos_site_id
_symmetry_equiv_pos_as_xyz
1 x,y,z
2 -x,y,1/2-z
3 1/2+x,1/2+y,z
4 1/2-x,1/2+y,1/2-z
5 -x,-y,-z
6 x,-y,-1/2+z
7 -1/2-x,-1/2-y,-z
8 -1/2+x,-1/2-y,-1/2+z
_cell_length_a 16.9207(8)
_cell_length_b 10.0862(5)
_cell_length_c 15.8646(8)
_cell_angle_alpha 90
_cell_angle_beta 108.810(3)
_cell_angle_gamma 90
_cell_formula_units_Z 8
loop_
_atom_type_symbol
_atom_type_radius_bond
C 0.68
H 0.23
N 0.68
O 0.68
loop_
_atom_site_label
_atom_site_type_symbol
_atom_site_fract_x
_atom_site_fract_y
_atom_site_fract_z
C1 C 0.33742(13) 0.77301(18) 0.25512(13)
C2 C 0.33514(12) 0.87934(19) 0.30947(13)
H1 H 0.29580 0.94620 0.28850
C3 C 0.39084(13) 0.8865(2) 0.39443(14)
H2 H 0.38850 0.95740 0.43100
C4 C 0.44983(14) 0.7892(2) 0.42531(16)
H3 H 0.48800 0.79520 0.48240
C5 C 0.45257(14) 0.6835(2) 0.37235(17)
H4 H 0.49270 0.61790 0.39350
C6 C 0.39620(15) 0.6740(2) 0.28798(16)
H5 H 0.39750 0.60090 0.25270
C7 C 0.27316(14) 0.7575(2) 0.16588(15)
C8 C 0.30192(11) 0.97892(19) 0.11908(12)
C9 C 0.38695(11) 0.96600(19) 0.13512(12)
H6 H 0.41080 0.88200 0.14090
C10 C 0.43621(12) 1.07594(19) 0.14252(12)
H7 H 0.49350 1.06740 0.15480
C11 C 0.39955(12) 1.19900(19) 0.13157(12)
C12 C 0.31544(13) 1.2143(2) 0.11337(14)
H8 H 0.29170 1.29850 0.10530
C13 C 0.26655(12) 1.1041(2) 0.10710(14)
H9 H 0.20920 1.11340 0.09470
C14 C 0.17306(15) 0.8589(3) 0.03635(17)
H10 H 0.15860 0.76770 0.02190
H11 H 0.18070 0.90270 -0.01420
H12 H 0.12900 0.90160 0.05200
N1 N 0.25068(10) 0.86587(17) 0.11177(11)
N2 N 0.45165(14) 1.31654(19) 0.13901(12)
O1 O 0.41708(14) 1.42436(18) 0.12522(15)
O2 O 0.52690(12) 1.30228(18) 0.15841(12)
O3 O 0.23822(12) 0.65136(17) 0.14390(12)
#END
