
#######################################################################
#
#                 Cambridge Crystallographic Data Centre
#                                CCDC
#
#######################################################################
#
# If this CIF has been generated from an entry in the Cambridge
# Structural Database, then it will include bibliographic, chemical,
# crystal, experimental, refinement or atomic coordinate data resulting
# from the CCDC's data processing and validation procedures.
#
#######################################################################

data_CSD_CIF_REZHAI
_audit_creation_date 2018-02-23
_audit_creation_method CSD-ConQuest-V1
_database_code_CSD REZHAI
_database_code_depnum_ccdc_archive 'CCDC 1565578'
_chemical_formula_sum 'C36 H29 N5 O4'
_chemical_formula_moiety
;
C36 H29 N5 O4
;
_journal_coden_Cambridge 24
_journal_volume 59
_journal_year 2018
_journal_page_first 1366
_journal_name_full 'Tetrahedron Lett. '
loop_
_publ_author_name
"M.S.Reddy"
"L.Raju Chowhan"
"N.S.Kumar"
"P.Ramesh"
"S.B.Mukkamala"
_chemical_name_systematic
;
4'-(2-ethoxyphenyl)-3'-(3-methyl-4-nitro-1,2-oxazol-5-yl)-5'-phenylspiro[inden
o[1,2-b]quinoxaline-11,2'-pyrrolidine]
;
_cell_volume   3104.812
_exptl_crystal_colour 'yellow'
_exptl_crystal_density_diffrn 1.274
_exptl_crystal_description 'Block'
_diffrn_ambient_temperature 293
#These two values have been output from a single CSD field.
_refine_ls_R_factor_gt 0.0566
_refine_ls_wR_factor_gt 0.0566
_symmetry_cell_setting monoclinic
_symmetry_space_group_name_H-M 'P 21/n'
_symmetry_Int_Tables_number 14
loop_
_symmetry_equiv_pos_site_id
_symmetry_equiv_pos_as_xyz
1 x,y,z
2 1/2-x,1/2+y,1/2-z
3 -x,-y,-z
4 -1/2+x,-1/2-y,-1/2+z
_cell_length_a 17.319(3)
_cell_length_b 10.4079(15)
_cell_length_c 17.723(3)
_cell_angle_alpha 90
_cell_angle_beta 103.620(4)
_cell_angle_gamma 90
_cell_formula_units_Z 4
loop_
_atom_type_symbol
_atom_type_radius_bond
C 0.68
H 0.23
N 0.68
O 0.68
loop_
_atom_site_label
_atom_site_type_symbol
_atom_site_fract_x
_atom_site_fract_y
_atom_site_fract_z
O1 O 0.48978(9) 0.18212(14) 0.42994(8)
O2 O 0.50621(9) 0.34563(13) 0.28977(10)
O3 O 0.68364(10) 0.26664(17) 0.18007(10)
O4 O 0.71079(11) 0.46831(18) 0.19868(13)
N1 N 0.44474(10) 0.02744(17) 0.16473(10)
N2 N 0.61482(9) -0.04639(15) 0.13957(9)
N3 N 0.6226(1) 0.09213(17) 0.00166(9)
N4 N 0.52542(14) 0.47760(17) 0.30486(14)
N5 N 0.67132(10) 0.37281(19) 0.20407(10)
C1 C 0.50822(10) 0.11164(17) 0.15213(10)
C2 C 0.47160(12) -0.03679(19) 0.23964(11)
C3 C 0.50778(11) 0.07732(18) 0.29117(11)
C4 C 0.55123(12) 0.15250(18) 0.23798(11)
C5 C 0.55760(11) 0.29276(18) 0.25320(11)
C6 C 0.58683(14) 0.50035(19) 0.27614(14)
C7 C 0.60800(11) 0.38670(18) 0.24183(11)
C8 C 0.6248(3) 0.6300(3) 0.2861(4)
C9 C 0.56958(10) 0.05085(17) 0.11339(10)
C10 C 0.66834(11) -0.07865(18) 0.09596(11)
C11 C 0.71962(15) -0.1836(3) 0.11886(15)
C12 C 0.77440(14) -0.2155(3) 0.07775(16)
C13 C 0.78039(15) -0.1431(3) 0.01304(17)
C14 C 0.73091(15) -0.0432(3) -0.01197(16)
C15 C 0.67289(11) -0.0082(2) 0.02876(11)
C16 C 0.57216(11) 0.11910(18) 0.04414(10)
C17 C 0.51205(11) 0.22056(18) 0.03274(11)
C18 C 0.48833(16) 0.3068(3) -0.02849(14)
C19 C 0.42816(16) 0.3912(3) -0.02590(17)
C20 C 0.39175(16) 0.3900(3) 0.03546(18)
C21 C 0.41489(15) 0.3032(3) 0.09638(17)
C22 C 0.47550(11) 0.21821(17) 0.09473(11)
C23 C 0.40371(12) -0.10449(18) 0.26357(11)
C24 C 0.41038(18) -0.2316(3) 0.28690(16)
C25 C 0.3484(2) -0.2942(3) 0.30903(18)
C26 C 0.27898(18) -0.2298(3) 0.30785(18)
C27 C 0.27168(17) -0.1029(4) 0.28519(18)
C28 C 0.33415(14) -0.0407(3) 0.26421(16)
C29 C 0.56183(10) 0.04236(16) 0.36844(10)
C30 C 0.62541(12) -0.04103(19) 0.37306(13)
C31 C 0.67640(14) -0.0725(3) 0.44315(14)
C32 C 0.66378(14) -0.0194(3) 0.51069(14)
C33 C 0.60183(13) 0.0652(3) 0.50851(13)
C34 C 0.55129(11) 0.09726(17) 0.43792(11)
C35 C 0.48387(18) 0.2576(3) 0.49578(16)
C36 C 0.4184(3) 0.3536(4) 0.4676(3)
H1 H 0.4265(13) -0.031(3) 0.1236(14)
H2 H 0.5145(12) -0.100(2) 0.2397(10)
H3 H 0.4621(12) 0.1303(17) 0.2988(9)
H4 H 0.6052(15) 0.1209(19) 0.2466(11)
H5 H 0.600(4) 0.680(6) 0.325(4)
H6 H 0.680(3) 0.624(4) 0.300(4)
H7 H 0.606(3) 0.665(5) 0.232(4)
H8 H 0.7147(15) -0.236(3) 0.1635(17)
H9 H 0.8098(15) -0.292(3) 0.0947(14)
H10 H 0.8227(14) -0.172(3) -0.0170(14)
H11 H 0.7340(15) 0.007(3) -0.0549(14)
H12 H 0.5124(14) 0.312(2) -0.0717(13)
H13 H 0.4124(15) 0.455(3) -0.0667(14)
H14 H 0.3485(17) 0.448(3) 0.0364(16)
H15 H 0.3901(15) 0.300(3) 0.1379(17)
H16 H 0.4597(17) -0.271(3) 0.2798(19)
H17 H 0.355(2) -0.383(3) 0.328(2)
H18 H 0.2345(17) -0.277(3) 0.3295(17)
H19 H 0.2222(15) -0.056(3) 0.288(2)
H20 H 0.3302(17) 0.051(3) 0.2470(18)
H21 H 0.6345(11) -0.075(2) 0.3252(14)
H22 H 0.7167(15) -0.135(3) 0.4474(13)
H23 H 0.7003(13) -0.047(3) 0.5609(12)
H24 H 0.5935(14) 0.100(3) 0.5584(14)
H25 H 0.4701(15) 0.192(3) 0.5380(15)
H26 H 0.5393(19) 0.304(3) 0.5156(16)
H27 H 0.362(3) 0.296(4) 0.437(3)
H28 H 0.418(3) 0.405(3) 0.517(3)
H29 H 0.428(3) 0.405(3) 0.4216(15)
#END
