
#######################################################################
#
#                 Cambridge Crystallographic Data Centre
#                                CCDC
#
#######################################################################
#
# If this CIF has been generated from an entry in the Cambridge
# Structural Database, then it will include bibliographic, chemical,
# crystal, experimental, refinement or atomic coordinate data resulting
# from the CCDC's data processing and validation procedures.
#
#######################################################################

data_CSD_CIF_REZYIH
_audit_creation_date 2018-07-04
_audit_creation_method CSD-ConQuest-V1
_database_code_CSD REZYIH
_database_code_depnum_ccdc_archive 'CCDC 1445218'
_chemical_formula_sum 'C25 H27 N1 O6'
_chemical_formula_moiety
;
C25 H27 N1 O6
;
_journal_coden_Cambridge 95
_journal_volume 65
_journal_year 2016
_journal_page_first 2243
_journal_name_full 'Izv.Akad.Nauk SSSR,Ser.Khim.(Russ.)(Russ.Chem.Bull.) '
loop_
_publ_author_name
"A.Tabolin"
"E.O.Gorbacheva"
"S.Ioffe"
"Yu.Nelyubina"
_chemical_name_systematic
;
methyl 
3-(4-(4-methoxyphenyl)-6,6-dimethyl-5,6-dihydro-4H-1,2-oxazin-3-yl)-2-oxo-5-ph
enyltetrahydrofuran-3-carboxylate
;
_cell_volume   2209.215
_exptl_crystal_colour 'colorless'
_exptl_crystal_density_diffrn 1.315
_exptl_crystal_description 'prism'
_diffrn_ambient_temperature 120
#These two values have been output from a single CSD field.
_refine_ls_R_factor_gt 0.0402
_refine_ls_wR_factor_gt 0.0402
loop_
_citation_database_id_CSD
_citation_special_details
REZYED "is a stereoisomer of this entry"
_symmetry_cell_setting monoclinic
_symmetry_space_group_name_H-M 'P 21/n'
_symmetry_Int_Tables_number 14
loop_
_symmetry_equiv_pos_site_id
_symmetry_equiv_pos_as_xyz
1 x,y,z
2 1/2-x,1/2+y,1/2-z
3 -x,-y,-z
4 -1/2+x,-1/2-y,-1/2+z
_cell_length_a 11.9507(7)
_cell_length_b 12.5554(8)
_cell_length_c 14.8064(9)
_cell_angle_alpha 90
_cell_angle_beta 96.062(1)
_cell_angle_gamma 90
_cell_formula_units_Z 4
loop_
_atom_type_symbol
_atom_type_radius_bond
C 0.68
H 0.23
N 0.68
O 0.68
loop_
_atom_site_label
_atom_site_type_symbol
_atom_site_fract_x
_atom_site_fract_y
_atom_site_fract_z
N1 N -0.20239(9) 0.98292(8) 0.40398(7)
O1 O -0.26198(8) 0.97972(7) 0.48016(6)
O2 O -0.11741(7) 1.06918(7) 0.19036(6)
O3 O -0.26939(7) 0.96891(8) 0.19859(6)
O4 O 0.03609(8) 0.82202(8) 0.21471(7)
O5 O -0.13527(7) 0.75516(7) 0.22919(6)
O6 O 0.29237(7) 0.61999(8) 0.49633(6)
C1 C -0.15392(9) 0.89948(9) 0.37800(8)
C2 C -0.14868(10) 0.79156(9) 0.42365(8)
H1 H -0.19800 0.74120 0.38520
C3 C -0.19509(10) 0.80238(10) 0.51604(8)
H2 H -0.21640 0.73110 0.53710
H3 H -0.13550 0.83110 0.56100
C4 C -0.29664(10) 0.87517(9) 0.51096(8)
C5 C -0.39504(11) 0.83530(13) 0.44643(10)
H4 H -0.45830 0.88490 0.44680
H5 H -0.41790 0.76470 0.46600
H6 H -0.37240 0.83050 0.38490
C6 C -0.33161(11) 0.89866(11) 0.60432(8)
H7 H -0.26720 0.92710 0.64330
H8 H -0.35770 0.83290 0.63100
H9 H -0.39260 0.95120 0.59910
C7 C -0.09301(9) 0.92462(9) 0.29438(8)
C8 C -0.1731(1) 0.98722(10) 0.22367(8)
C9 C 0.00122(10) 1.07056(10) 0.22716(8)
H10 H 0.04750 1.03500 0.18340
C10 C 0.00437(10) 1.00392(9) 0.31395(8)
H11 H -0.00710 1.04930 0.36690
H12 H 0.07710 0.96610 0.32600
C11 C 0.03907(10) 1.18397(10) 0.24120(8)
C12 C -0.02318(10) 1.25546(10) 0.28762(8)
H13 H -0.09090 1.23300 0.31010
C13 C 0.01386(11) 1.3595(1) 0.30096(9)
H14 H -0.02870 1.40840 0.33240
C14 C 0.11302(11) 1.39222(10) 0.26849(9)
H15 H 0.13800 1.46360 0.27750
C15 C 0.17556(11) 1.32131(11) 0.22303(9)
H16 H 0.24390 1.34360 0.20160
C16 C 0.13818(11) 1.21741(11) 0.20884(9)
H17 H 0.18060 1.16890 0.17680
C17 C -0.05443(10) 0.82761(10) 0.24286(8)
C18 C -0.10598(12) 0.66209(11) 0.17863(9)
H18 H -0.17120 0.61460 0.16900
H19 H -0.04340 0.62440 0.21300
H20 H -0.08350 0.68440 0.11970
C19 C -0.03048(10) 0.74584(9) 0.43656(8)
C20 C -0.01262(10) 0.6378(1) 0.42394(8)
H21 H -0.07400 0.59390 0.40120
C21 C 0.09372(10) 0.59241(10) 0.44409(8)
H22 H 0.10410 0.51810 0.43620
C22 C 0.18428(10) 0.65627(10) 0.47567(8)
C23 C 0.16852(10) 0.76517(10) 0.48743(8)
H23 H 0.23050 0.80940 0.50800
C24 C 0.06196(10) 0.8085(1) 0.46899(8)
H24 H 0.05140 0.88250 0.47860
C25 C 0.31088(12) 0.50911(12) 0.48409(10)
H25 H 0.39070 0.49280 0.50030
H26 H 0.28950 0.49000 0.42040
H27 H 0.26520 0.46820 0.52310
#END
