
#######################################################################
#
#                 Cambridge Crystallographic Data Centre
#                                CCDC
#
#######################################################################
#
# If this CIF has been generated from an entry in the Cambridge
# Structural Database, then it will include bibliographic, chemical,
# crystal, experimental, refinement or atomic coordinate data resulting
# from the CCDC's data processing and validation procedures.
#
#######################################################################

data_CSD_CIF_REZYON
_audit_creation_date 2018-07-04
_audit_creation_method CSD-ConQuest-V1
_database_code_CSD REZYON
_database_code_depnum_ccdc_archive 'CCDC 1445219'
_chemical_formula_sum 'C24 H27 N1 O5'
_chemical_formula_moiety
;
C24 H27 N1 O5
;
_journal_coden_Cambridge 95
_journal_volume 65
_journal_year 2016
_journal_page_first 2243
_journal_name_full 'Izv.Akad.Nauk SSSR,Ser.Khim.(Russ.)(Russ.Chem.Bull.) '
loop_
_publ_author_name
"A.Tabolin"
"E.O.Gorbacheva"
"S.Ioffe"
"Yu.Nelyubina"
_chemical_name_systematic
;
3-(hydroxymethyl)-3-(4-(4-methoxyphenyl)-6,6-dimethyl-5,6-dihydro-4H-1,2-oxazi
n-3-yl)-5-phenyldihydrofuran-2(3H)-one
;
_cell_volume   2133.061
_exptl_crystal_colour 'colorless'
_exptl_crystal_density_diffrn 1.275
_exptl_crystal_description 'prism'
_diffrn_ambient_temperature 100
#These two values have been output from a single CSD field.
_refine_ls_R_factor_gt 0.043
_refine_ls_wR_factor_gt 0.043
_symmetry_cell_setting orthorhombic
_symmetry_space_group_name_H-M 'P 21 21 21'
_symmetry_Int_Tables_number 19
loop_
_symmetry_equiv_pos_site_id
_symmetry_equiv_pos_as_xyz
1 x,y,z
2 1/2-x,-y,1/2+z
3 -x,1/2+y,1/2-z
4 1/2+x,1/2-y,-z
_cell_length_a 9.6998(10)
_cell_length_b 12.5290(14)
_cell_length_c 17.5519(19)
_cell_angle_alpha 90
_cell_angle_beta 90
_cell_angle_gamma 90
_cell_formula_units_Z 4
loop_
_atom_type_symbol
_atom_type_radius_bond
C 0.68
H 0.23
N 0.68
O 0.68
loop_
_atom_site_label
_atom_site_type_symbol
_atom_site_fract_x
_atom_site_fract_y
_atom_site_fract_z
N1 N 0.0657(2) 0.38925(16) 0.05863(11)
O1 O 0.14222(17) 0.39929(14) 0.12734(9)
O2 O -0.36923(17) 0.41652(15) 0.02258(10)
O3 O -0.30469(17) 0.50049(15) -0.0834(1)
O4 O -0.1847(2) 0.27206(15) -0.10936(11)
H1 H -0.22890 0.20450 -0.10940
O5 O -0.26540(17) 0.91024(13) 0.04470(11)
C1 C 0.0616(3) 0.3927(2) 0.19773(14)
C2 C -0.0396(3) 0.4854(2) 0.19508(14)
H2 H 0.01230 0.55340 0.19690
H3 H -0.10000 0.48250 0.24050
C3 C -0.1292(3) 0.48327(19) 0.12282(14)
H4 H -0.21650 0.44440 0.13480
C4 C -0.0574(2) 0.42534(18) 0.05848(14)
C5 C -0.1277(2) 0.4070(2) -0.01835(14)
C6 C -0.2792(3) 0.44055(19) -0.02094(15)
C7 C -0.1847(2) 0.5044(2) -0.13327(14)
H5 H -0.19580 0.45050 -0.17480
C8 C -0.0625(2) 0.4725(2) -0.08288(14)
H6 H -0.01510 0.53640 -0.06250
H7 H 0.00480 0.42910 -0.11180
C9 C 0.1685(3) 0.4084(3) 0.25928(15)
H8 H 0.21600 0.47650 0.25130
H9 H 0.23560 0.35000 0.25730
H10 H 0.12330 0.40890 0.30920
C10 C -0.0078(3) 0.2841(2) 0.20410(17)
H11 H 0.06210 0.22780 0.20080
H12 H -0.07430 0.27560 0.16250
H13 H -0.05590 0.27900 0.25310
C11 C -0.1659(2) 0.59632(19) 0.09867(13)
C12 C -0.0642(3) 0.6644(2) 0.07071(14)
H14 H 0.02680 0.63800 0.06420
C13 C -0.0925(2) 0.7698(2) 0.05223(14)
H15 H -0.02170 0.81500 0.03340
C14 C -0.2251(2) 0.80814(19) 0.06160(14)
C15 C -0.3284(3) 0.7418(2) 0.08979(14)
H16 H -0.41910 0.76860 0.09680
C16 C -0.2987(2) 0.63718(19) 0.10755(14)
H17 H -0.36990 0.59210 0.12620
C17 C -0.1595(3) 0.9835(2) 0.02250(16)
H18 H -0.20040 1.05360 0.01240
H19 H -0.11400 0.95720 -0.02370
H20 H -0.09160 0.98980 0.06360
C18 C -0.1273(3) 0.2864(2) -0.03577(15)
H21 H -0.03190 0.25840 -0.03440
H22 H -0.18280 0.24760 0.00260
C19 C -0.1705(2) 0.6137(2) -0.16805(14)
C20 C -0.1005(3) 0.6236(2) -0.23662(16)
H23 H -0.06920 0.56140 -0.26230
C21 C -0.0756(3) 0.7234(3) -0.26819(17)
H24 H -0.02600 0.72970 -0.31470
C22 C -0.1236(3) 0.8135(2) -0.23139(17)
H25 H -0.10750 0.88190 -0.25290
C23 C -0.1950(3) 0.8046(2) -0.16356(15)
H26 H -0.22840 0.86690 -0.13880
C24 C -0.2180(3) 0.7048(2) -0.13134(15)
H27 H -0.26610 0.69890 -0.08440
#END
