
#######################################################################
#
#                 Cambridge Crystallographic Data Centre
#                                CCDC
#
#######################################################################
#
# If this CIF has been generated from an entry in the Cambridge
# Structural Database, then it will include bibliographic, chemical,
# crystal, experimental, refinement or atomic coordinate data resulting
# from the CCDC's data processing and validation procedures.
#
#######################################################################

data_CSD_CIF_RICXEI
_audit_creation_date 2013-07-16
_audit_creation_method CSD-ConQuest-V1
_database_code_CSD RICXEI
_database_code_depnum_ccdc_archive 'CCDC 933065'
_chemical_formula_sum 'C11 H10 N4 O8'
_chemical_formula_moiety
;
C11 H10 N4 O8
;
_journal_coden_Cambridge 1350
_journal_volume 15
_journal_year 2013
_journal_page_first 6448
_journal_name_full 'CrystEngComm '
loop_
_publ_author_name
"A.Bialonska"
"Z.Ciunik"
_chemical_name_systematic
;
N^2^-(3,5-Dinitrobenzoyl)asparagine
;
_cell_volume   1341.249
_exptl_crystal_colour 'colorless'
_exptl_crystal_density_diffrn 1.616
_exptl_special_details
;
spontaneous racemic resolution from a 2-methylpropan-1-ol solution containing 
racemic N-(3,5-dinitrobenzoyl)asparagine
;
_exptl_crystal_description 'needle'
_exptl_crystal_preparation '2-methylpropan-1-ol'
_diffrn_ambient_temperature 100
_diffrn_special_details
;
racemic twin

;
#These two values have been output from a single CSD field.
_refine_ls_R_factor_gt 0.0683
_refine_ls_wR_factor_gt 0.0683
loop_
_citation_database_id_CSD
_citation_special_details
RICXIM "is a stereoisomer of this entry"
RICXAE "is a racemate of this entry"
_symmetry_cell_setting orthorhombic
_symmetry_space_group_name_H-M 'P 21 21 21'
_symmetry_Int_Tables_number 19
loop_
_symmetry_equiv_pos_site_id
_symmetry_equiv_pos_as_xyz
1 x,y,z
2 1/2-x,-y,1/2+z
3 -x,1/2+y,1/2-z
4 1/2+x,1/2-y,-z
_cell_length_a 6.381(2)
_cell_length_b 9.276(2)
_cell_length_c 22.660(3)
_cell_angle_alpha 90
_cell_angle_beta 90
_cell_angle_gamma 90
_cell_formula_units_Z 4
loop_
_atom_type_symbol
_atom_type_radius_bond
C 0.68
H 0.23
N 0.68
O 0.68
loop_
_atom_site_label
_atom_site_type_symbol
_atom_site_fract_x
_atom_site_fract_y
_atom_site_fract_z
O1 O 0.6267(7) 0.6482(5) 0.2586(2)
H1 H 0.71710 0.70650 0.27110
O2 O 0.4162(7) 0.7653(5) 0.3212(2)
O3 O 0.0819(7) 0.3232(4) 0.2068(2)
O4 O 0.1220(8) 0.3197(5) 0.3446(2)
O5 O -0.5646(9) 0.1489(5) 0.4187(2)
O6 O -0.7480(9) 0.2897(6) 0.4756(2)
O7 O -0.6258(12) 0.8050(7) 0.4613(3)
O8 O -0.3141(10) 0.8783(6) 0.4380(3)
N1 N -0.0934(9) 0.4993(6) 0.1596(3)
H2 H -0.18940 0.43830 0.14730
H3 H -0.10210 0.59110 0.15010
N2 N 0.1199(9) 0.5550(6) 0.3151(2)
H4 H 0.05800 0.63920 0.31910
N3 N -0.6000(9) 0.2651(7) 0.4422(3)
N4 N -0.4434(12) 0.7837(7) 0.4449(3)
C1 C 0.4499(10) 0.6658(7) 0.2885(3)
C2 C 0.2954(10) 0.5456(7) 0.2753(3)
H5 H 0.36650 0.45040 0.28070
C3 C 0.2246(10) 0.5609(7) 0.2111(3)
H6 H 0.16590 0.65860 0.20540
H7 H 0.34870 0.55180 0.18520
C4 C 0.0652(10) 0.4528(7) 0.1926(3)
C5 C 0.0436(10) 0.4421(7) 0.3469(3)
C6 C -0.1449(11) 0.4723(7) 0.3837(3)
C7 C -0.2746(11) 0.3600(7) 0.3982(3)
H8 H -0.23720 0.26440 0.38750
C8 C -0.4600(11) 0.3851(7) 0.4284(3)
C9 C -0.5205(12) 0.5243(8) 0.4446(3)
H9 H -0.64870 0.54160 0.46470
C10 C -0.3875(13) 0.6350(7) 0.4303(3)
C11 C -0.2005(12) 0.6128(7) 0.4002(3)
H10 H -0.11160 0.69180 0.39090
#END
