
#######################################################################
#
#                 Cambridge Crystallographic Data Centre
#                                CCDC
#
#######################################################################
#
# If this CIF has been generated from an entry in the Cambridge
# Structural Database, then it will include bibliographic, chemical,
# crystal, experimental, refinement or atomic coordinate data resulting
# from the CCDC's data processing and validation procedures.
#
#######################################################################

data_CSD_CIF_RIDBUC
_audit_creation_date 2007-08-13
_audit_creation_method CSD-ConQuest-V1
_database_code_CSD RIDBUC
_database_code_depnum_ccdc_archive 'CCDC 614818'
_chemical_formula_sum 'C31 H31 N1 O7'
_chemical_formula_moiety
;
C31 H31 N1 O7
;
_journal_coden_Cambridge 179
_journal_volume 46
_journal_year 2007
_journal_page_first 3252
_journal_name_full 'Angew.Chem.,Int.Ed. '
loop_
_publ_author_name
"K.Suzuki"
"H.Takikawa"
"Y.Hachisu"
"J.W.Bode"
_chemical_name_systematic
;
5a-Hydroxy-10-benzyloxy-4,5,5a,6-tetrahydro-3H-anthra[9,1-cd]isoxazol-6-yl 
camphanate
;
_chemical_melting_point 508.15
_cell_volume   2584.401
_exptl_crystal_colour 'colorless'
_exptl_crystal_density_diffrn 1.361
_exptl_special_details
;
Melts with decomposition.

;
_exptl_crystal_description 'needle'
_exptl_crystal_preparation 'acetone/methanol'
_diffrn_ambient_temperature 90
#These two values have been output from a single CSD field.
_refine_ls_R_factor_gt 0.0531
_refine_ls_wR_factor_gt 0.0531
_symmetry_cell_setting orthorhombic
_symmetry_space_group_name_H-M 'P 21 21 21'
_symmetry_Int_Tables_number 19
loop_
_symmetry_equiv_pos_site_id
_symmetry_equiv_pos_as_xyz
1 x,y,z
2 1/2-x,-y,1/2+z
3 1/2+x,1/2-y,-z
4 -x,1/2+y,1/2-z
_cell_length_a 6.3206(5)
_cell_length_b 19.611(2)
_cell_length_c 20.8498(19)
_cell_angle_alpha 90
_cell_angle_beta 90
_cell_angle_gamma 90
_cell_formula_units_Z 4
loop_
_atom_type_symbol
_atom_type_radius_bond
C 0.68
H 0.23
N 0.68
O 0.68
loop_
_atom_site_label
_atom_site_type_symbol
_atom_site_fract_x
_atom_site_fract_y
_atom_site_fract_z
O1 O 0.3955(7) 0.2410(4) 0.5862(2)
O2 O 0.7353(7) -0.2305(4) 0.5854(2)
O3 O 0.5852(7) -0.0572(4) 0.6150(2)
O4 O 0.5959(7) 0.0180(4) 0.7244(2)
H1 H 0.64800 0.01450 0.76130
O5 O 0.9709(7) 0.2032(4) 0.6813(2)
O6 O 0.8883(8) -0.1030(4) 0.5757(2)
O7 O 0.7284(8) -0.3423(4) 0.6052(2)
C1 C 0.3604(11) 0.1737(6) 0.5749(3)
C2 C 0.3103(11) 0.3589(6) 0.5867(3)
N1 N 0.7887(9) 0.2131(5) 0.6404(3)
C3 C 0.7100(12) -0.1084(6) 0.5951(3)
C4 C 1.1458(11) 0.1047(6) 0.7372(3)
H2 H 1.17070 0.13120 0.77690
H3 H 1.27910 0.10350 0.71230
C5 C 0.5888(11) -0.1743(6) 0.5994(3)
C6 C 0.7009(12) 0.1527(5) 0.6367(3)
C7 C 0.2385(11) 0.2896(6) 0.5664(3)
H4 H 0.10080 0.27870 0.58660
H5 H 0.22070 0.28800 0.51930
C8 C 0.5064(12) 0.3704(6) 0.6145(3)
H6 H 0.59620 0.33300 0.62420
C9 C 0.1868(11) 0.1488(6) 0.5422(3)
H7 H 0.08050 0.17870 0.52650
C10 C 0.5168(11) 0.1309(5) 0.5990(3)
C11 C 0.3213(11) 0.0333(6) 0.5571(3)
H8 H 0.30430 -0.01430 0.55080
C12 C 0.3022(11) -0.1567(6) 0.6884(3)
H9 H 0.23450 -0.18130 0.72380
H10 H 0.20030 -0.15050 0.65340
H11 H 0.35030 -0.11200 0.70350
C13 C 0.4967(11) 0.0587(6) 0.5907(3)
C14 C 0.6423(12) -0.2884(6) 0.6094(3)
C15 C 0.3030(11) -0.2478(6) 0.5756(4)
H12 H 0.30970 -0.28350 0.54210
H13 H 0.15300 -0.23990 0.58710
C16 C 0.8097(10) 0.1042(6) 0.6733(3)
C17 C 0.9772(11) 0.1371(6) 0.6989(3)
C18 C 0.6562(12) -0.2005(6) 0.7189(3)
H14 H 0.69760 -0.15410 0.73070
H15 H 0.78130 -0.22590 0.70460
H16 H 0.59370 -0.22340 0.75610
C19 C 0.4926(12) -0.1978(6) 0.6640(3)
C20 C 0.1721(11) 0.0791(6) 0.5331(3)
H17 H 0.05560 0.06170 0.50940
C21 C 0.7612(11) 0.0301(5) 0.6790(3)
C22 C 1.0778(11) 0.0323(6) 0.7542(3)
H18 H 0.98220 0.03400 0.79170
H19 H 1.20450 0.00570 0.76670
C23 C 0.4342(11) -0.2693(6) 0.6361(3)
C24 C 0.1826(13) 0.4158(6) 0.5730(4)
H20 H 0.04780 0.40870 0.55400
C25 C 0.4048(12) -0.1822(6) 0.5519(3)
H21 H 0.30560 -0.14330 0.55450
H22 H 0.45630 -0.18690 0.50730
C26 C 0.2462(14) 0.4810(6) 0.5863(4)
H23 H 0.15560 0.51840 0.57720
C27 C 0.5725(14) 0.4369(7) 0.6282(4)
H24 H 0.70600 0.44420 0.64800
C28 C 0.6715(11) 0.0112(6) 0.6135(3)
H25 H 0.78910 0.01240 0.58150
C29 C 0.3298(12) -0.3198(6) 0.6785(3)
H26 H 0.30130 -0.36170 0.65430
H27 H 0.19620 -0.30090 0.69450
H28 H 0.42270 -0.33030 0.71490
C30 C 0.4452(14) 0.4920(7) 0.6133(4)
H29 H 0.49300 0.53710 0.62130
C31 C 0.9654(11) -0.0048(6) 0.6996(3)
H30 H 1.06190 -0.00750 0.66220
H31 H 0.93290 -0.05200 0.71330
#END
