
#######################################################################
#
#                 Cambridge Crystallographic Data Centre
#                                CCDC
#
#######################################################################
#
# If this CIF has been generated from an entry in the Cambridge
# Structural Database, then it will include bibliographic, chemical,
# crystal, experimental, refinement or atomic coordinate data resulting
# from the CCDC's data processing and validation procedures.
#
#######################################################################

data_CSD_CIF_RIGHUK09
_audit_creation_date 2006-01-09
_audit_creation_method CSD-ConQuest-V1
_database_code_CSD RIGHUK09
_database_code_depnum_ccdc_archive 'CCDC 285679'
_chemical_formula_sum 'C13 H11 N3 O4'
_chemical_formula_moiety
;
C13 H11 N3 O4
;
_journal_coden_Cambridge 1147
_journal_volume 5
_journal_year 2005
_journal_page_first 1699
_journal_name_full 'Cryst.Growth Des. '
loop_
_publ_author_name
"P.Naumov"
"K.Sakurai"
_chemical_name_systematic
;
3-Methyl-2-(2',4'-dinitrobenzyl)pyridine
;
_cell_volume   1317.647
_exptl_crystal_colour 'colorless'
_exptl_special_details
;
photochromic
monoclinic P21/c polymorph B
light-sensitive
reversible phase transition between polymorph A and polymorph B upon 
heating/cooling
;
_exptl_crystal_description 'prism'
_diffrn_ambient_temperature 337
#These two values have been output from a single CSD field.
_refine_ls_R_factor_gt 0.055
_refine_ls_wR_factor_gt 0.055
_symmetry_cell_setting monoclinic
_symmetry_space_group_name_H-M 'P 21/c'
_symmetry_Int_Tables_number 14
loop_
_symmetry_equiv_pos_site_id
_symmetry_equiv_pos_as_xyz
1 x,y,z
2 -x,1/2+y,1/2-z
3 -x,-y,-z
4 x,-1/2-y,-1/2+z
_cell_length_a 11.6200(2)
_cell_length_b 15.3800(5)
_cell_length_c 7.6680(3)
_cell_angle_alpha 90
_cell_angle_beta 105.948(2)
_cell_angle_gamma 90
_cell_formula_units_Z 4
loop_
_atom_type_symbol
_atom_type_radius_bond
C 0.68
H 0.23
N 0.68
O 0.68
loop_
_atom_site_label
_atom_site_type_symbol
_atom_site_fract_x
_atom_site_fract_y
_atom_site_fract_z
C1 C 0.16370(17) 0.09125(13) -0.0323(2)
C2 C 0.28215(16) -0.01084(12) 0.2179(3)
N1 N 0.23231(16) 0.03380(11) 0.3267(2)
O1 O -0.0437(2) 0.37545(14) -0.1408(3)
C3 C 0.19476(16) 0.17622(12) 0.0244(3)
C4 C 0.36140(17) -0.07932(14) 0.2769(3)
O2 O 0.39933(14) 0.15217(12) 0.1363(2)
C5 C 0.11850(19) 0.24566(13) -0.0282(3)
H1 H 0.14170 0.30160 0.01300
C6 C 0.24467(19) 0.01288(13) 0.0177(3)
H2 H 0.31630 0.02350 -0.02070
H3 H 0.20420 -0.03680 -0.05020
C7 C -0.03046(19) 0.14788(14) -0.2028(3)
H4 H -0.10660 0.13840 -0.27960
N2 N -0.0736(2) 0.30408(17) -0.2066(4)
N3 N 0.31536(17) 0.19688(14) 0.1439(3)
C8 C 0.00680(19) 0.22986(13) -0.1436(3)
C9 C 0.04781(18) 0.07980(13) -0.1457(3)
H5 H 0.02260 0.02390 -0.18410
C10 C 0.3892(2) -0.10004(16) 0.4596(4)
H6 H 0.44280 -0.14480 0.50530
O3 O 0.32276(18) 0.25848(17) 0.2442(3)
O4 O -0.1654(2) 0.29093(16) -0.3240(4)
C11 C 0.2612(3) 0.01084(16) 0.5022(3)
H7 H 0.22680 0.04140 0.57980
C12 C 0.4153(3) -0.1287(2) 0.1473(4)
H8 H 0.46690 -0.17370 0.21210
H9 H 0.46070 -0.08950 0.09480
H10 H 0.35240 -0.15430 0.05290
C13 C 0.3386(3) -0.05517(18) 0.5726(3)
H11 H 0.35640 -0.06920 0.69510
#END
