
#######################################################################
#
#                 Cambridge Crystallographic Data Centre
#                                CCDC
#
#######################################################################
#
# If this CIF has been generated from an entry in the Cambridge
# Structural Database, then it will include bibliographic, chemical,
# crystal, experimental, refinement or atomic coordinate data resulting
# from the CCDC's data processing and validation procedures.
#
#######################################################################

data_CSD_CIF_RIGHUK01
_audit_creation_date 1998-06-26
_audit_creation_method CSD-ConQuest-V1
_database_code_CSD RIGHUK01
_database_code_depnum_ccdc_archive 'CCDC 258114'
_chemical_formula_sum 'C13 H11 N3 O4'
_chemical_formula_moiety
;
C13 H11 N3 O4
;
_journal_coden_Cambridge 37
_journal_volume 100
_journal_year 1996
_journal_page_first 16175
_journal_name_full 'J.Phys.Chem. '
loop_
_publ_author_name
"M.Scherl"
"D.Haarer"
"J.Fischer"
"A.De Cian"
"J.-M.Lehn"
"Y.Eichen"
_chemical_name_systematic
;
2-(2,4-Dinitrobenzyl)-3-methylpyridine
;
_chemical_melting_point 394.15
_cell_volume   1281.050
_exptl_crystal_colour 'colorless'
_exptl_crystal_density_diffrn 1.417
_exptl_special_details
;
Melting point range 394.15-395.15K
monoclinic P21/c polymorph A

;
_diffrn_ambient_temperature 293
_diffrn_radiation_source 'CuKalpha radiation'
#These two values have been output from a single CSD field.
_refine_ls_R_factor_gt 0.05
_refine_ls_wR_factor_gt 0.05
_symmetry_cell_setting monoclinic
_symmetry_space_group_name_H-M 'P 21/c'
_symmetry_Int_Tables_number 14
loop_
_symmetry_equiv_pos_site_id
_symmetry_equiv_pos_as_xyz
1 x,y,z
2 -x,1/2+y,1/2-z
3 -x,-y,-z
4 x,-1/2-y,-1/2+z
_cell_length_a 11.338(3)
_cell_length_b 15.390(4)
_cell_length_c 7.639(2)
_cell_angle_alpha 90
_cell_angle_beta 106.04(2)
_cell_angle_gamma 90
_cell_formula_units_Z 4
loop_
_atom_type_symbol
_atom_type_radius_bond
C 0.68
H 0.23
N 0.68
O 0.68
loop_
_atom_site_label
_atom_site_type_symbol
_atom_site_fract_x
_atom_site_fract_y
_atom_site_fract_z
C1 C 0.3219(3) 0.0324(2) 0.5889(4)
C2 C 0.2806(3) 0.1184(2) 0.5895(4)
C3 C 0.3480(3) 0.1830(2) 0.6970(5)
C4 C 0.4600(3) 0.1606(2) 0.8112(5)
C5 C 0.5075(3) 0.0772(3) 0.8179(5)
C6 C 0.4379(3) 0.0158(2) 0.7054(5)
N1 N 0.1595(3) 0.1440(2) 0.4758(4)
O1 O 0.0735(2) 0.0946(2) 0.4623(3)
O2 O 0.1512(3) 0.2152(2) 0.4013(4)
N2 N 0.5315(3) 0.2278(2) 0.9289(5)
O3 O 0.5007(3) 0.3032(2) 0.8997(4)
O4 O 0.6181(3) 0.2058(2) 1.0543(5)
C7 C 0.2506(3) -0.0403(2) 0.4774(5)
C8 C 0.2126(3) -0.0283(2) 0.2741(4)
C9 C 0.1518(3) -0.0949(2) 0.1608(5)
C10 C 0.1178(3) -0.0797(3) -0.0239(5)
C11 C 0.1439(3) -0.0007(3) -0.0926(5)
C12 C 0.2044(3) 0.0594(3) 0.0300(5)
N3 N 0.2400(2) 0.0480(2) 0.2092(4)
C13 C 0.1199(3) -0.1788(3) 0.2364(6)
H1 H 0.31790 0.24080 0.69200
H2 H 0.58550 0.06310 0.89750
H3 H 0.47040 -0.04110 0.70690
H4 H 0.07610 -0.12350 -0.10500
H5 H 0.12050 0.01080 -0.21970
H6 H 0.22250 0.11360 -0.01600
H7 H 0.15030 -0.17800 0.36530
H8 H 0.03330 -0.18560 0.20270
H9 H 0.15590 -0.22570 0.18890
H10 H 0.30610 -0.09570 0.50730
H11 H 0.16350 -0.04950 0.51100
#END
