
#######################################################################
#
#                 Cambridge Crystallographic Data Centre
#                                CCDC
#
#######################################################################
#
# If this CIF has been generated from an entry in the Cambridge
# Structural Database, then it will include bibliographic, chemical,
# crystal, experimental, refinement or atomic coordinate data resulting
# from the CCDC's data processing and validation procedures.
#
#######################################################################

data_CSD_CIF_RIGHUK
_audit_creation_date 1997-10-21
_audit_creation_method CSD-ConQuest-V1
_database_code_CSD RIGHUK
_chemical_formula_sum 'C13 H11 N3 O4'
_chemical_formula_moiety
;
C13 H11 N3 O4
;
_journal_coden_Cambridge 4
_journal_volume 119
_journal_year 1997
_journal_page_first 7167
_journal_name_full 'J.Am.Chem.Soc. '
loop_
_publ_author_name
"Y.Eichen"
"M.Botoshansky"
"U.Peskin"
"M.Scherl"
"D.Haarer"
"S.Khatib"
_chemical_name_systematic
;
2-(2,4-Dinitrobenzyl)-3-methylpyridine
;
_cell_volume   1310.391
_exptl_crystal_colour 'colorless'
_exptl_crystal_density_diffrn 1.385
_exptl_special_details
;
monoclinic P21/c polymorph B

;
_diffrn_ambient_temperature 343
_diffrn_radiation_source 'CuKalpha radiation'
#These two values have been output from a single CSD field.
_refine_ls_R_factor_gt 0.0747
_refine_ls_wR_factor_gt 0.0747
_symmetry_cell_setting monoclinic
_symmetry_space_group_name_H-M 'P 21/c'
_symmetry_Int_Tables_number 14
loop_
_symmetry_equiv_pos_site_id
_symmetry_equiv_pos_as_xyz
1 x,y,z
2 x,1/2-y,1/2+z
3 -x,-y,-z
4 -x,-1/2+y,-1/2-z
_cell_length_a 11.617(3)
_cell_length_b 15.355(7)
_cell_length_c 7.641(3)
_cell_angle_alpha 90
_cell_angle_beta 105.97(3)
_cell_angle_gamma 90
_cell_formula_units_Z 4
loop_
_atom_type_symbol
_atom_type_radius_bond
C 0.68
H 0.23
N 0.68
O 0.68
loop_
_atom_site_label
_atom_site_type_symbol
_atom_site_fract_x
_atom_site_fract_y
_atom_site_fract_z
C1 C 0.3364(6) 0.0913(5) 0.5326(8)
C2 C 0.3053(6) 0.1760(5) 0.4757(8)
C3 C 0.3808(7) 0.2455(6) 0.5284(11)
C4 C 0.4916(7) 0.2299(5) 0.6419(9)
C5 C 0.5292(8) 0.1481(6) 0.7007(11)
C6 C 0.4517(7) 0.0800(5) 0.6449(9)
C7 C 0.2556(8) 0.0131(5) 0.483(1)
C8 C 0.2178(6) -0.0106(4) 0.2816(9)
C9 C 0.1385(6) -0.0791(5) 0.2203(11)
C10 C 0.1105(8) -0.1001(6) 0.0404(12)
C11 C 0.1617(9) -0.0552(7) -0.0739(13)
C12 C 0.2377(9) 0.0113(6) -0.0020(12)
H1 H 0.0252(66) -0.1663(48) 0.2999(96)
H2 H 0.0447(91) -0.0883(66) 0.411(14)
H3 H 0.1375(85) -0.1399(64) 0.467(13)
C13 C 0.0879(11) -0.1293(9) 0.3483(16)
N1 N 0.1851(6) 0.1970(5) 0.3567(9)
N2 N 0.5741(8) 0.3041(6) 0.7067(12)
N3 N 0.2678(5) 0.0335(4) 0.1736(8)
O1 O 0.6653(8) 0.2907(5) 0.8229(12)
O2 O 0.5427(7) 0.3755(4) 0.6396(10)
O3 O 0.1018(5) 0.1523(4) 0.3652(8)
O4 O 0.1763(5) 0.2590(5) 0.2573(10)
H4 H 0.3575(59) 0.2979(47) 0.4762(89)
H5 H 0.6024(59) 0.1377(41) 0.7751(86)
H6 H 0.4764(55) 0.0226(42) 0.6962(82)
H7 H 0.2984(57) -0.0402(44) 0.5400(86)
H8 H 0.1793(70) 0.0235(48) 0.5249(98)
H9 H 0.0597(63) -0.1522(48) -0.0150(94)
H10 H 0.1375(66) -0.0683(50) -0.207(11)
H11 H 0.2847(77) 0.0420(58) -0.074(12)
#END
