
#######################################################################
#
#                 Cambridge Crystallographic Data Centre
#                                CCDC
#
#######################################################################
#
# If this CIF has been generated from an entry in the Cambridge
# Structural Database, then it will include bibliographic, chemical,
# crystal, experimental, refinement or atomic coordinate data resulting
# from the CCDC's data processing and validation procedures.
#
#######################################################################

data_CSD_CIF_RIGJOI
_audit_creation_date 2013-07-17
_audit_creation_method CSD-ConQuest-V1
_database_code_CSD RIGJOI
_database_code_depnum_ccdc_archive 'CCDC 912680'
_chemical_formula_sum 'C19 H21 N1 O6'
_chemical_formula_moiety
;
C19 H21 N1 O6
;
_journal_coden_Cambridge 119
_journal_volume 1047
_journal_year 2013
_journal_page_first 332
_journal_name_full 'J.Mol.Struct. '
loop_
_publ_author_name
"F.Jimenez-Cruz"
"L.Fragoza-Mar"
"R.Carreon-Sanchez"
"H.Rios-Olivares"
"J.L.Garcia-Gutierrez"
_chemical_name_systematic
;
Ethyl 
6-hydroxy-6-methyl-2-(4-nitrophenyl)-4-oxobicyclo[3.3.1]non-2-ene-1-carboxylat
e
;
_chemical_name_common
;
1-ethoxycarbonyl-6-hydroxy-6-methyl-2-(4-nitrophenyl)-bicyclo[3.3.1]non-2-ene-
4-one
;
_cell_volume   1806.180
_exptl_crystal_colour 'colorless'
_exptl_crystal_density_diffrn 1.322
_exptl_crystal_description 'Prism'
_diffrn_ambient_temperature 293
#These two values have been output from a single CSD field.
_refine_ls_R_factor_gt 0.0518
_refine_ls_wR_factor_gt 0.0518
_symmetry_cell_setting monoclinic
_symmetry_space_group_name_H-M 'P 21/n'
_symmetry_Int_Tables_number 14
loop_
_symmetry_equiv_pos_site_id
_symmetry_equiv_pos_as_xyz
1 x,y,z
2 1/2-x,1/2+y,1/2-z
3 -x,-y,-z
4 -1/2+x,-1/2-y,-1/2+z
_cell_length_a 11.217(3)
_cell_length_b 8.469(2)
_cell_length_c 19.028(6)
_cell_angle_alpha 90
_cell_angle_beta 92.27(2)
_cell_angle_gamma 90
_cell_formula_units_Z 4
loop_
_atom_type_symbol
_atom_type_radius_bond
C 0.68
H 0.23
N 0.68
O 0.68
loop_
_atom_site_label
_atom_site_type_symbol
_atom_site_fract_x
_atom_site_fract_y
_atom_site_fract_z
O1 O 0.8375(2) -0.0428(2) 0.02733(11)
O2 O 1.0614(2) 0.0811(2) 0.10698(10)
H1 H 1.090(2) 0.076(3) 0.0715(14)
O3 O 0.70469(18) 0.6330(2) 0.17173(10)
O4 O 0.58670(17) 0.5101(2) 0.09202(9)
O5 O 0.2762(2) 0.2554(3) 0.36544(14)
O6 O 0.1967(2) 0.0923(4) 0.29049(13)
N1 N 0.2763(2) 0.1832(4) 0.30975(15)
C1 C 0.8940(2) 0.2262(3) 0.05187(12)
H2 H 0.92590 0.22620 0.00470
C2 C 0.8202(3) 0.0793(3) 0.06021(14)
C3 C 0.7215(2) 0.0867(3) 0.10872(13)
H3 H 0.68070 -0.00610 0.11800
C4 C 0.6867(2) 0.2208(3) 0.14051(12)
C5 C 0.7585(2) 0.3716(3) 0.13261(11)
C6 C 0.8642(2) 0.3806(3) 0.18821(11)
H4 H 0.90490 0.48080 0.18320
H5 H 0.83260 0.37730 0.23490
C7 C 0.9545(2) 0.2465(3) 0.18123(12)
H6 H 1.02160 0.26520 0.21390
H7 H 0.91730 0.14810 0.19450
C8 C 1.0008(2) 0.2291(3) 0.10721(12)
C9 C 0.8140(2) 0.3715(3) 0.05906(11)
H8 H 0.75100 0.36990 0.02260
H9 H 0.86060 0.46680 0.05330
C10 C 1.0891(3) 0.3592(3) 0.09020(15)
H10 H 1.11670 0.34380 0.04360
H11 H 1.15580 0.35570 0.12340
H12 H 1.05060 0.46010 0.09290
C11 C 0.6815(2) 0.5201(3) 0.13638(13)
C12 C 0.5071(3) 0.6462(4) 0.08633(17)
H13 H 0.51300 0.70670 0.12960
H14 H 0.42540 0.61010 0.07960
C13 C 0.5386(3) 0.7482(3) 0.02647(16)
H15 H 0.54180 0.68550 -0.01540
H16 H 0.61500 0.79610 0.03630
H17 H 0.47920 0.82910 0.01980
C14 C 0.5789(2) 0.2157(3) 0.18431(12)
C15 C 0.5725(2) 0.3025(3) 0.24670(12)
H18 H 0.63550 0.36830 0.26060
C16 C 0.4738(3) 0.2919(3) 0.28798(13)
H19 H 0.47060 0.34810 0.32980
C17 C 0.3807(2) 0.1963(3) 0.26565(14)
C18 C 0.3810(2) 0.1130(3) 0.20325(13)
H20 H 0.31580 0.05180 0.18850
C19 C 0.4808(2) 0.1232(3) 0.16359(13)
H21 H 0.48280 0.06670 0.12170
#END
