
#######################################################################
#
#                 Cambridge Crystallographic Data Centre
#                                CCDC
#
#######################################################################
#
# If this CIF has been generated from an entry in the Cambridge
# Structural Database, then it will include bibliographic, chemical,
# crystal, experimental, refinement or atomic coordinate data resulting
# from the CCDC's data processing and validation procedures.
#
#######################################################################

data_CSD_CIF_RIGJUM
_audit_creation_date 1997-11-11
_audit_creation_method CSD-ConQuest-V1
_database_code_CSD RIGJUM
_chemical_formula_sum 'C8 H16 N8 O6'
_chemical_formula_moiety
;
C8 H16 N8 O6
;
_journal_coden_Cambridge 35
_journal_volume 61
_journal_year 1996
_journal_page_first 9340
_journal_name_full 'J.Org.Chem. '
loop_
_publ_author_name
"J.W.Fischer"
"R.A.Hollins"
"C.Klowe-Ma"
"R.A.Nissan"
"R.D.Chapman"
_chemical_name_systematic
;
N,N',N'',N'''-Tetramethyl-N,N'''-dinitro-N',N''-dinitroso-1\a,2\a,3\b,4\b-cycl
obutanetetramine
;
_chemical_melting_point 520.15
_cell_volume   2947.756
_exptl_crystal_colour 'colorless'
_exptl_crystal_density_diffrn 1.444
_exptl_special_details
;
Melts with decomposition.

;
_diffrn_ambient_temperature ?
_diffrn_special_details
;
The study was carried out at room temperature,in the range 283-303K

;
_refine_special_details
;
The nitrosyl O atom on N8 is disordered over two positions.

;
#These two values have been output from a single CSD field.
_refine_ls_R_factor_gt 0.091
_refine_ls_wR_factor_gt 0.091
_symmetry_cell_setting monoclinic
_symmetry_space_group_name_H-M 'C 2/c'
_symmetry_Int_Tables_number 15
loop_
_symmetry_equiv_pos_site_id
_symmetry_equiv_pos_as_xyz
1 x,y,z
2 -x,y,1/2-z
3 1/2+x,1/2+y,z
4 1/2-x,1/2+y,1/2-z
5 -x,-y,-z
6 x,-y,-1/2+z
7 -1/2-x,-1/2-y,-z
8 -1/2+x,-1/2-y,-1/2+z
_cell_length_a 19.830(4)
_cell_length_b 11.058(3)
_cell_length_c 13.589(3)
_cell_angle_alpha 90
_cell_angle_beta 98.41(2)
_cell_angle_gamma 90
_cell_formula_units_Z 8
loop_
_atom_type_symbol
_atom_type_radius_bond
C 0.68
H 0.23
N 0.68
O 0.68
loop_
_atom_site_label
_atom_site_type_symbol
_atom_site_fract_x
_atom_site_fract_y
_atom_site_fract_z
C1 C 0.3382(3) 0.2448(5) 0.7351(4)
C2 C 0.3455(3) 0.1601(5) 0.6452(4)
C3 C 0.4065(3) 0.2352(5) 0.6250(4)
C4 C 0.3863(3) 0.3373(5) 0.6935(4)
C5 C 0.3322(4) 0.2355(8) 0.9191(5)
C6 C 0.4167(3) -0.0384(6) 0.6511(5)
C7 C 0.3766(5) 0.1980(8) 0.4354(5)
C8 C 0.3797(5) 0.5670(7) 0.6727(8)
N1 N 0.3633(2) 0.2007(4) 0.8333(3)
N2 N 0.4200(3) 0.1389(5) 0.8406(4)
N3 N 0.3563(2) 0.0314(4) 0.6621(4)
N4 N 0.3041(3) -0.0283(6) 0.6921(4)
N5 N 0.4125(3) 0.2628(5) 0.5214(3)
N6 N 0.4693(3) 0.3264(5) 0.5091(5)
N7 N 0.3537(3) 0.4445(5) 0.6449(4)
N8 N 0.2953(3) 0.4138(7) 0.5760(4)
O1 O 0.4429(2) 0.1053(4) 0.9267(3)
O2 O 0.2526(3) 0.0313(5) 0.7021(4)
O3 O 0.3109(3) -0.1385(5) 0.7066(4)
O4 O 0.5024(3) 0.3717(5) 0.5827(4)
O5 O 0.4832(3) 0.3334(6) 0.4239(4)
O6 O 0.2683(5) 0.5038(10) 0.5343(7)
O7? O 0.2954(15) 0.563(3) 0.5648(19)
H1 H 0.29660 0.27560 0.73800
H2 H 0.30780 0.16550 0.59870
H3 H 0.44640 0.19730 0.65320
H4 H 0.43040 0.36550 0.75500
H5 H 0.29330 0.28590 0.89820
H6 H 0.36460 0.27930 0.96510
H7 H 0.31800 0.16430 0.95100
H8 H 0.44450 0.00630 0.61170
H9 H 0.40350 -0.11370 0.61880
H10 H 0.44210 -0.05400 0.71560
#END
