
#######################################################################
#
#                 Cambridge Crystallographic Data Centre
#                                CCDC
#
#######################################################################
#
# If this CIF has been generated from an entry in the Cambridge
# Structural Database, then it will include bibliographic, chemical,
# crystal, experimental, refinement or atomic coordinate data resulting
# from the CCDC's data processing and validation procedures.
#
#######################################################################

data_CSD_CIF_RIGJIA
_audit_creation_date 1997-11-11
_audit_creation_method CSD-ConQuest-V1
_database_code_CSD RIGJIA
_chemical_formula_sum 'C6 H8 N8 O8'
_chemical_formula_moiety
;
C6 H8 N8 O8
;
_journal_coden_Cambridge 35
_journal_volume 61
_journal_year 1996
_journal_page_first 9340
_journal_name_full 'J.Org.Chem. '
loop_
_publ_author_name
"J.W.Fischer"
"R.A.Hollins"
"C.K.Lowe-Ma"
"R.A.Nissan"
"R.D.Chapman"
_chemical_name_systematic
;
Octahydro-1,3,4,6-tetranitro-3a\a,3b\b,6a\b,6b\a-cyclobuta(1,2-d:3,4-d')di-imi
dazole
;
_chemical_melting_point 501.15
_cell_volume   1162.159
_exptl_crystal_colour 'light brown'
_exptl_crystal_density_diffrn 1.829
_exptl_special_details
;
Melts with decomposition.

;
_diffrn_ambient_temperature ?
_diffrn_special_details
;
The study was carried out at room temperature,in the range 283-303K

;
#These two values have been output from a single CSD field.
_refine_ls_R_factor_gt 0.05
_refine_ls_wR_factor_gt 0.05
_symmetry_cell_setting orthorhombic
_symmetry_space_group_name_H-M 'P b c a'
_symmetry_Int_Tables_number 61
loop_
_symmetry_equiv_pos_site_id
_symmetry_equiv_pos_as_xyz
1 x,y,z
2 1/2-x,-y,1/2+z
3 1/2+x,1/2-y,-z
4 -x,1/2+y,1/2-z
5 -x,-y,-z
6 -1/2+x,y,-1/2-z
7 -1/2-x,-1/2+y,z
8 x,-1/2-y,-1/2+z
_cell_length_a 9.540(2)
_cell_length_b 10.605(3)
_cell_length_c 11.487(3)
_cell_angle_alpha 90
_cell_angle_beta 90
_cell_angle_gamma 90
_cell_formula_units_Z 4
loop_
_atom_type_symbol
_atom_type_radius_bond
C 0.68
H 0.23
N 0.68
O 0.68
loop_
_atom_site_label
_atom_site_type_symbol
_atom_site_fract_x
_atom_site_fract_y
_atom_site_fract_z
C1 C 0.0257(2) 0.0925(1) 0.0360(1)
C2 C -0.0986(2) -0.0018(2) 0.0497(1)
C3 C -0.0412(2) -0.1960(2) 0.1562(2)
N1 N -0.0981(1) -0.0685(1) 0.1606(1)
N2 N -0.2029(2) -0.0482(1) 0.2387(1)
N3 N -0.0002(2) 0.2029(1) -0.0345(1)
N4 N -0.0876(2) 0.2936(1) 0.0004(1)
O1 O -0.2771(2) 0.0441(1) 0.2240(1)
O2 O -0.2114(1) -0.1227(1) 0.3197(1)
O3 O -0.1109(2) 0.3792(2) -0.0681(2)
O4 O -0.1364(2) 0.2836(1) 0.0990(1)
H1 H 0.0776(19) 0.1098(16) 0.1060(17)
H2 H -0.1892(21) 0.0297(16) 0.0276(15)
H3 H 0.0424(23) -0.1997(17) 0.2079(19)
H4 H -0.1091(22) -0.2565(19) 0.1732(19)
C1D C -0.0257(2) -0.0925(1) -0.0360(1)
C2D C 0.0986(2) 0.0018(2) -0.0497(1)
C3D C 0.0412(2) 0.1960(2) -0.1562(2)
N1D N 0.0981(1) 0.0685(1) -0.1606(1)
H2D H 0.1892(21) -0.0297(16) -0.0276(15)
N2D N 0.2029(2) 0.0482(1) -0.2387(1)
O1D O 0.2771(2) -0.0441(1) -0.2240(1)
O2D O 0.2114(1) 0.1227(1) -0.3197(1)
H3D H -0.0424(23) 0.1997(17) -0.2079(19)
H4D H 0.1091(22) 0.2565(19) -0.1732(19)
N3D N 0.0002(2) -0.2029(1) 0.0345(1)
N4D N 0.0876(2) -0.2936(1) -0.0004(1)
O3D O 0.1109(2) -0.3792(2) 0.0681(2)
O4D O 0.1364(2) -0.2836(1) -0.0990(1)
H1D H -0.0776(19) -0.1098(16) -0.1060(17)
#END
