
#######################################################################
#
#                 Cambridge Crystallographic Data Centre
#                                CCDC
#
#######################################################################
#
# If this CIF has been generated from an entry in the Cambridge
# Structural Database, then it will include bibliographic, chemical,
# crystal, experimental, refinement or atomic coordinate data resulting
# from the CCDC's data processing and validation procedures.
#
#######################################################################

data_CSD_CIF_RIGJOG
_audit_creation_date 1997-11-11
_audit_creation_method CSD-ConQuest-V1
_database_code_CSD RIGJOG
_chemical_formula_sum 'C8 H16 N8 O4'
_chemical_formula_moiety
;
C8 H16 N8 O4
;
_journal_coden_Cambridge 35
_journal_volume 61
_journal_year 1996
_journal_page_first 9340
_journal_name_full 'J.Org.Chem. '
loop_
_publ_author_name
"J.W.Fischer"
"R.A.Hollins"
"C.K.Lowe-Ma"
"R.A.Nissan"
"R.D.Chapman"
_chemical_name_systematic
;
N,N',N'',N'''-Tetramethyl-N,N',N'',N'''-tetranitroso-1\a,2\a,3\b,4\b-cyclobuta
netetramine
;
_chemical_melting_point 520.15
_cell_volume   1359.046
_exptl_crystal_colour 'yellow'
_exptl_crystal_density_diffrn 1.409
_exptl_special_details
;
Melts with decomposition.

;
_diffrn_ambient_temperature ?
_diffrn_special_details
;
The study was carried out at room temperature,in the range 283-303K

;
#These two values have been output from a single CSD field.
_refine_ls_R_factor_gt 0.04
_refine_ls_wR_factor_gt 0.04
_symmetry_cell_setting monoclinic
_symmetry_space_group_name_H-M 'C c'
_symmetry_Int_Tables_number 9
loop_
_symmetry_equiv_pos_site_id
_symmetry_equiv_pos_as_xyz
1 x,y,z
2 x,-y,1/2+z
3 1/2+x,1/2+y,z
4 1/2+x,1/2-y,1/2+z
_cell_length_a 13.865(5)
_cell_length_b 5.692(2)
_cell_length_c 17.530(6)
_cell_angle_alpha 90
_cell_angle_beta 100.78(3)
_cell_angle_gamma 90
_cell_formula_units_Z 4
loop_
_atom_type_symbol
_atom_type_radius_bond
C 0.68
H 0.23
N 0.68
O 0.68
loop_
_atom_site_label
_atom_site_type_symbol
_atom_site_fract_x
_atom_site_fract_y
_atom_site_fract_z
C1 C 0.62400 0.2930(4) 0.00200
C2 C 0.6438(2) 0.1954(4) -0.0761(1)
C3 C 0.7557(2) 0.1767(4) -0.0386(1)
C4 C 0.7378(2) 0.3314(4) 0.0285(1)
C5 C 0.5140(3) 0.2052(5) 0.0986(2)
C6 C 0.5784(3) 0.2705(5) -0.2188(2)
C7 C 0.8526(3) 0.0986(8) -0.1433(2)
C8 C 0.7801(3) 0.4186(6) 0.1714(2)
N1 N 0.5798(2) 0.1282(4) 0.0482(1)
N2 N 0.6059(2) -0.0918(4) 0.0456(2)
N3 N 0.6196(2) 0.3545(3) -0.1414(1)
N4 N 0.6445(2) 0.5747(4) -0.1275(1)
N5 N 0.8283(2) 0.2494(4) -0.0829(1)
N6 N 0.8657(2) 0.4602(5) -0.0704(2)
N7 N 0.7836(2) 0.2662(4) 0.1062(1)
N8 N 0.8247(2) 0.0580(4) 0.1159(1)
O1 O 0.5697(2) -0.2252(4) 0.0886(1)
O2 O 0.6302(2) 0.7036(4) -0.1855(1)
O3 O 0.9242(2) 0.5162(5) -0.1125(2)
O4 O 0.8589(2) 0.0056(4) 0.1843(1)
H1 H 0.5836(16) 0.4381(38) 0.0000(13)
H2 H 0.6205(16) 0.0521(40) -0.0944(12)
H3 H 0.7705(16) 0.0209(36) -0.0263(12)
H4 H 0.7498(16) 0.4811(38) 0.0251(12)
H5 H 0.51210 0.37370 0.09940
H6 H 0.53720 0.14750 0.15020
H7 H 0.44930 0.14520 0.07950
H8 H 0.63040 0.24100 -0.24690
H9 H 0.53480 0.38720 -0.24580
H10 H 0.54260 0.12780 -0.21510
H11 H 0.91990 0.04990 -0.12940
H12 H 0.84320 0.18330 -0.19150
H13 H 0.81080 -0.03710 -0.14890
H14 H 0.75550 0.56990 0.15280
H15 H 0.84490 0.43570 0.20170
H16 H 0.73750 0.35190 0.20290
#END
