
#######################################################################
#
#                 Cambridge Crystallographic Data Centre
#                                CCDC
#
#######################################################################
#
# If this CIF has been generated from an entry in the Cambridge
# Structural Database, then it will include bibliographic, chemical,
# crystal, experimental, refinement or atomic coordinate data resulting
# from the CCDC's data processing and validation procedures.
#
#######################################################################

data_CSD_CIF_RIGLUR
_audit_creation_date 2018-07-06
_audit_creation_method CSD-ConQuest-V1
_database_code_CSD RIGLUR
_database_code_depnum_ccdc_archive 'CCDC 1572107'
_chemical_formula_sum 'C38 H28 N2 O4'
_chemical_formula_moiety
;
C38 H28 N2 O4
;
_journal_coden_Cambridge 388
_journal_volume 54
_journal_year 2018
_journal_page_first 463
_journal_name_full 'Zh.Org.Khim.(Russ.)(Russ.J.Org.Chem.) '
loop_
_publ_author_name
"A.P.Molchanov"
"M.M.Efremova"
"A.V.Stepakov"
"T.L.Panikorovskii"
"R.R.Kostikov"
_chemical_name_systematic
;
18-(4-methoxyphenyl)-17,21-diphenyl-16-oxa-17,21-diazahexacyclo[6.6.5.3^15,19^
.0^2,7^.0^9,14^.0^15,19^]docosa-2,4,6,9,11,13-hexaene-20,22-dione
;
_cell_volume   1416.031
_exptl_crystal_colour 'colorless'
_exptl_crystal_density_diffrn 1.352
_exptl_crystal_description 'prism'
_diffrn_ambient_temperature 100
#These two values have been output from a single CSD field.
_refine_ls_R_factor_gt 0.0401
_refine_ls_wR_factor_gt 0.0401
_symmetry_cell_setting triclinic
_symmetry_space_group_name_H-M 'P -1'
_symmetry_Int_Tables_number 2
loop_
_symmetry_equiv_pos_site_id
_symmetry_equiv_pos_as_xyz
1 x,y,z
2 -x,-y,-z
_cell_length_a 8.6287(4)
_cell_length_b 9.7315(4)
_cell_length_c 18.9596(7)
_cell_angle_alpha 91.473(3)
_cell_angle_beta 97.475(3)
_cell_angle_gamma 115.725(4)
_cell_formula_units_Z 2
loop_
_atom_type_symbol
_atom_type_radius_bond
C 0.68
H 0.23
N 0.68
O 0.68
loop_
_atom_site_label
_atom_site_type_symbol
_atom_site_fract_x
_atom_site_fract_y
_atom_site_fract_z
O1 O 0.60386(12) 0.8749(1) 0.71542(5)
O2 O 0.81939(13) 0.52321(11) 1.05579(5)
O3 O 0.85069(12) 0.55284(10) 0.76747(5)
O4 O 0.45969(12) 0.61552(10) 0.59998(5)
C1 C 1.01632(16) 0.88503(14) 0.73418(7)
H1 H 1.09900 0.87530 0.77190
N1 N 0.58548(14) 0.80721(12) 0.78492(5)
C2 C 0.93724(17) 0.75445(15) 0.99348(7)
H2 H 1.03350 0.80340 1.02900
C3 C 0.82241(16) 0.78775(13) 0.74427(6)
C4 C 0.58202(16) 0.65006(14) 0.64687(7)
C5 C 0.70024(16) 0.81071(13) 0.68351(6)
C6 C 0.52944(18) 0.21815(15) 0.54594(7)
H3 H 0.53440 0.19870 0.49820
N2 N 0.64278(14) 0.54951(11) 0.67646(6)
C7 C 0.3540(2) 0.9001(2) 0.91566(8)
H4 H 0.27240 0.84830 0.94490
C8 C 0.77784(16) 0.75580(14) 0.87812(6)
C9 C 1.00170(18) 0.71313(15) 0.52154(7)
H5 H 0.99420 0.67530 0.47500
C10 C 1.12518(17) 0.75027(14) 0.64633(7)
H6 H 1.19930 0.73760 0.68300
C11 C 0.5459(2) 1.13557(18) 0.87403(8)
H7 H 0.59160 1.24160 0.87490
C12 C 0.81097(17) 0.60812(15) 1.00031(7)
C13 C 0.52931(17) 0.89673(15) 0.82793(7)
C14 C 0.51645(17) 0.27488(14) 0.68893(7)
H8 H 0.51320 0.29440 0.73690
C15 C 0.91813(17) 0.82712(15) 0.93274(7)
H9 H 1.00150 0.92590 0.92870
C16 C 0.40531(18) 0.81833(17) 0.87040(7)
H10 H 0.35690 0.71210 0.86870
C17 C 0.80703(16) 0.91964(14) 0.63086(7)
H11 H 0.73260 0.93520 0.59140
C18 C 1.04259(16) 1.04951(14) 0.73051(7)
C19 C 0.60038(18) 1.05586(16) 0.82933(7)
H12 H 0.68330 1.10800 0.80070
C20 C 0.64958(17) 0.61018(14) 0.88701(7)
H13 H 0.55300 0.56130 0.85160
C21 C 0.66446(17) 0.53816(14) 0.94760(7)
H14 H 0.57660 0.44270 0.95330
C22 C 0.58185(16) 0.39420(14) 0.64644(7)
C23 C 0.76874(16) 0.83593(14) 0.81192(6)
H15 H 0.83920 0.94640 0.82390
C24 C 1.16063(17) 1.17477(15) 0.77658(7)
H16 H 1.23470 1.16310 0.81360
C25 C 1.02651(16) 0.82587(14) 0.66059(7)
C26 C 0.59068(17) 0.36843(15) 0.57524(7)
H17 H 0.63660 0.44990 0.54750
C27 C 0.4235(2) 1.0579(2) 0.91739(8)
H18 H 0.38830 1.11200 0.94760
C28 C 0.9869(2) 0.57191(18) 1.09863(8)
H19 H 1.07230 0.58600 1.06820
H20 H 0.98290 0.49550 1.13030
H21 H 1.01770 0.66690 1.12610
C29 C 0.91454(16) 0.84451(14) 0.60529(7)
C30 C 0.46106(18) 0.09744(15) 0.58762(8)
H22 H 0.41860 -0.00280 0.56760
C31 C 1.16700(18) 1.31872(15) 0.76668(8)
H23 H 1.24780 1.40370 0.79660
C32 C 0.92962(16) 1.06754(14) 0.67560(7)
C33 C 0.93295(17) 1.20987(14) 0.66711(7)
H24 H 0.85530 1.22090 0.63150
C34 C 0.77858(16) 0.61806(14) 0.73406(6)
C35 C 1.05405(19) 1.33620(15) 0.71262(8)
H25 H 1.05910 1.43250 0.70670
C36 C 1.11144(18) 0.69358(15) 0.57620(8)
H26 H 1.17640 0.64240 0.56610
C37 C 0.90217(18) 0.78892(15) 0.53543(7)
H27 H 0.82880 0.80200 0.49860
C38 C 0.45583(18) 0.12566(15) 0.65899(8)
H28 H 0.41160 0.04440 0.68700
#END
