
#######################################################################
#
#                 Cambridge Crystallographic Data Centre
#                                CCDC
#
#######################################################################
#
# If this CIF has been generated from an entry in the Cambridge
# Structural Database, then it will include bibliographic, chemical,
# crystal, experimental, refinement or atomic coordinate data resulting
# from the CCDC's data processing and validation procedures.
#
#######################################################################

data_CSD_CIF_RIGSIM
_audit_creation_date 2018-07-06
_audit_creation_method CSD-ConQuest-V1
_database_code_CSD RIGSIM
_database_code_depnum_ccdc_archive 'CCDC 1554670'
_chemical_formula_sum 'C39 H29 N3 O4'
_chemical_formula_moiety
;
C39 H29 N3 O4
;
_journal_coden_Cambridge 388
_journal_volume 54
_journal_year 2018
_journal_page_first 463
_journal_name_full 'Zh.Org.Khim.(Russ.)(Russ.J.Org.Chem.) '
loop_
_publ_author_name
"A.P.Molchanov"
"M.M.Efremova"
"A.V.Stepakov"
"T.L.Panikorovskii"
"R.R.Kostikov"
_chemical_name_systematic
;
17-(4-methylphenyl)-20,22-dioxo-N,21-diphenyl-16-oxa-17,21-diazahexacyclo[6.6.
5.3^15,19^.0^2,7^.0^9,14^.0^15,19^]docosa-2,4,6,9,11,13-hexaene-18-carboxamide
;
_cell_volume   3029.150
_exptl_crystal_colour 'colorless'
_exptl_crystal_density_diffrn 1.324
_exptl_crystal_description 'plate'
_diffrn_ambient_temperature 100
#These two values have been output from a single CSD field.
_refine_ls_R_factor_gt 0.049
_refine_ls_wR_factor_gt 0.049
_symmetry_cell_setting monoclinic
_symmetry_space_group_name_H-M 'P 21/c'
_symmetry_Int_Tables_number 14
loop_
_symmetry_equiv_pos_site_id
_symmetry_equiv_pos_as_xyz
1 x,y,z
2 -x,1/2+y,1/2-z
3 -x,-y,-z
4 x,-1/2-y,-1/2+z
_cell_length_a 10.5707(17)
_cell_length_b 13.5442(19)
_cell_length_c 21.389(3)
_cell_angle_alpha 90
_cell_angle_beta 98.438(4)
_cell_angle_gamma 90
_cell_formula_units_Z 4
loop_
_atom_type_symbol
_atom_type_radius_bond
C 0.68
H 0.23
N 0.68
O 0.68
loop_
_atom_site_label
_atom_site_type_symbol
_atom_site_fract_x
_atom_site_fract_y
_atom_site_fract_z
C1 C 0.51246(16) 0.23998(11) 0.17826(7)
C2 C 0.62130(16) 0.34138(12) 0.33567(8)
C3 C 0.58553(15) 0.32622(11) 0.21413(7)
C4 C 0.45782(17) 0.27158(12) 0.11017(8)
H1 H 0.41440 0.21720 0.08550
C5 C 0.61104(16) 0.15780(12) 0.17954(8)
C6 C 0.52519(16) 0.33151(11) 0.27510(7)
H2 H 0.46070 0.38390 0.27240
C7 C 0.42940(17) 0.43730(12) 0.15019(8)
C8 C 0.36901(17) 0.35705(13) 0.11704(8)
C9 C 0.72408(16) 0.29335(12) 0.22290(8)
C10 C 0.57042(17) 0.42079(12) 0.17167(8)
H3 H 0.61190 0.47860 0.19340
C11 C 0.84893(17) 0.14696(13) 0.19638(8)
C12 C 0.62868(18) 0.39326(13) 0.11346(8)
C13 C 0.56911(18) 0.31184(13) 0.08090(8)
C14 C 0.68454(18) 0.45294(13) 0.42603(8)
C15 C 0.36151(19) 0.52215(13) 0.15843(8)
H4 H 0.40160 0.57570 0.18020
C16 C 0.6302(2) 0.51848(14) 0.46304(9)
H5 H 0.55010 0.54500 0.44870
C17 C 0.6129(2) 0.27602(15) 0.02759(9)
H6 H 0.57520 0.22090 0.00660
C18 C 0.24077(19) 0.36092(16) 0.09434(9)
H7 H 0.19980 0.30700 0.07340
C19 C 0.7320(2) 0.43796(15) 0.09252(10)
H8 H 0.77340 0.49070 0.11470
C20 C 0.9366(2) 0.19050(16) 0.16404(10)
H9 H 0.91980 0.25140 0.14450
C21 C 0.8719(2) 0.05657(15) 0.22431(10)
H10 H 0.81070 0.02710 0.24530
C22 C 0.7735(2) 0.40344(17) 0.03802(11)
H11 H 0.84180 0.43420 0.02310
C23 C 0.2336(2) 0.52639(17) 0.13397(10)
H12 H 0.18760 0.58390 0.13840
C24 C 0.7144(2) 0.32383(18) 0.0058(1)
H13 H 0.74280 0.30180 -0.03090
C25 C 0.8037(2) 0.41463(16) 0.44747(10)
H14 H 0.84270 0.37170 0.42220
C26 C 0.1731(2) 0.44650(18) 0.10314(10)
H15 H 0.08610 0.44980 0.08810
C27 C 0.9860(2) 0.00960(18) 0.22120(12)
H16 H 1.00230 -0.05160 0.24040
C28 C 1.0756(2) 0.05267(19) 0.18988(12)
H17 H 1.15330 0.02110 0.18830
C29 C 1.0511(2) 0.14189(19) 0.16095(12)
H18 H 1.11160 0.17030 0.13900
C30 C 0.8098(3) 0.50530(19) 0.54377(10)
H19 H 0.85150 0.52180 0.58380
C31 C 0.8645(2) 0.44050(19) 0.50666(11)
H20 H 0.94410 0.41340 0.52160
C32 C 0.6944(3) 0.54529(18) 0.52175(10)
H21 H 0.65810 0.59110 0.54620
N1 N 0.46466(13) 0.23237(10) 0.27726(6)
N2 N 0.61398(14) 0.42721(10) 0.36657(6)
H22 H 0.56150 0.47070 0.34860
N3 N 0.73033(13) 0.19711(10) 0.20000(7)
O1 O 0.41053(11) 0.21443(8) 0.21077(5)
O2 O 0.59061(12) 0.07265(8) 0.16408(6)
O3 O 0.69518(13) 0.27464(9) 0.35286(6)
O4 O 0.81526(12) 0.3422(1) 0.24375(7)
C33 C 0.35993(17) 0.23092(12) 0.31330(8)
C34 C 0.38627(18) 0.19998(14) 0.37526(8)
H23 H 0.46890 0.18130 0.39210
C35 C 0.16542(19) 0.22156(15) 0.38818(10)
C36 C 0.2899(2) 0.19682(15) 0.41213(9)
H24 H 0.30910 0.17750 0.45420
C37 C 0.23735(19) 0.25829(17) 0.28922(10)
H25 H 0.21910 0.28090 0.24780
C38 C 0.1412(2) 0.25231(19) 0.32631(11)
H26 H 0.05820 0.26940 0.30910
C39 C 0.0600(2) 0.2149(2) 0.42807(12)
H27 H 0.07330 0.26380 0.46090
H28 H 0.06010 0.15040 0.44670
H29 H -0.02080 0.22640 0.40210
#END
