
#######################################################################
#
#                 Cambridge Crystallographic Data Centre
#                                CCDC
#
#######################################################################
#
# If this CIF has been generated from an entry in the Cambridge
# Structural Database, then it will include bibliographic, chemical,
# crystal, experimental, refinement or atomic coordinate data resulting
# from the CCDC's data processing and validation procedures.
#
#######################################################################

data_CSD_CIF_RIJXAM
_audit_creation_date 2018-07-07
_audit_creation_method CSD-ConQuest-V1
_database_code_CSD RIJXAM
_database_code_depnum_ccdc_archive 'CCDC 1816974'
_chemical_formula_sum 'C9 H9 N3 O7'
_chemical_formula_moiety
;
C9 H9 N3 O7
;
_journal_coden_Cambridge 119
_journal_volume 1173
_journal_year 2018
_journal_page_first 291
_journal_name_full 'J.Mol.Struct. '
loop_
_publ_author_name
"M.Bem"
"R.Baratoiu"
"C.Radutiu"
"C.Lete"
"S.Mocanu"
"G.Ionita"
"S.Lupu"
"M.T.Caproiu"
"A.M.Madalan"
"B.Patrascu"
"I.Zarafu"
"P.Ionita"
_chemical_name_systematic
;
methyl 4-(methoxyamino)-3,5-dinitrobenzoate
;
_cell_volume    561.033
_exptl_crystal_colour 'yellow'
_exptl_crystal_density_diffrn 1.605
_exptl_crystal_description 'prism'
_diffrn_ambient_temperature 173
#These two values have been output from a single CSD field.
_refine_ls_R_factor_gt 0.0395
_refine_ls_wR_factor_gt 0.0395
_symmetry_cell_setting triclinic
_symmetry_space_group_name_H-M 'P -1'
_symmetry_Int_Tables_number 2
loop_
_symmetry_equiv_pos_site_id
_symmetry_equiv_pos_as_xyz
1 x,y,z
2 -x,-y,-z
_cell_length_a 7.5149(10)
_cell_length_b 7.7919(10)
_cell_length_c 10.6647(15)
_cell_angle_alpha 68.619(10)
_cell_angle_beta 75.877(11)
_cell_angle_gamma 79.617(11)
_cell_formula_units_Z 2
loop_
_atom_type_symbol
_atom_type_radius_bond
C 0.68
H 0.23
N 0.68
O 0.68
loop_
_atom_site_label
_atom_site_type_symbol
_atom_site_fract_x
_atom_site_fract_y
_atom_site_fract_z
C1 C -0.1068(2) 0.2206(2) 0.57660(17)
C2 C 0.0872(2) 0.1914(2) 0.53829(17)
C3 C 0.1576(2) 0.2942(2) 0.40005(17)
C4 C 0.0463(2) 0.4121(2) 0.31004(17)
H1 H 0.10000 0.47790 0.21810
C5 C -0.1421(2) 0.4335(2) 0.35446(17)
C6 C -0.2183(2) 0.3362(2) 0.48861(17)
H2 H -0.34800 0.34930 0.52000
C7 C 0.1671(3) -0.1026(3) 0.85659(19)
H3 H 0.30190 -0.12570 0.84210
H4 H 0.11270 -0.21020 0.92850
H5 H 0.12720 0.00700 0.88470
C8 C -0.2687(2) 0.5569(2) 0.26360(18)
C9 C -0.3092(3) 0.7234(3) 0.0386(2)
H6 H -0.40910 0.65230 0.04680
H7 H -0.23880 0.75880 -0.05580
H8 H -0.36150 0.83520 0.06190
N1 N -0.20412(18) 0.13573(19) 0.71866(14)
N2 N 0.35389(18) 0.2780(2) 0.34143(15)
N3 N 0.1943(2) 0.0772(2) 0.62831(15)
O1 O -0.17163(18) 0.18203(18) 0.80790(13)
O2 O -0.31789(17) 0.03072(18) 0.73715(13)
O3 O 0.46122(16) 0.18867(19) 0.42021(14)
O4 O 0.40538(17) 0.35053(19) 0.21845(13)
O5 O 0.10775(16) -0.07189(16) 0.73129(12)
O6 O -0.42801(17) 0.5994(2) 0.30571(14)
O7 O -0.18831(17) 0.61107(19) 0.13174(12)
H9 H 0.304(3) 0.043(3) 0.595(2)
#END
