
#######################################################################
#
#                 Cambridge Crystallographic Data Centre
#                                CCDC
#
#######################################################################
#
# If this CIF has been generated from an entry in the Cambridge
# Structural Database, then it will include bibliographic, chemical,
# crystal, experimental, refinement or atomic coordinate data resulting
# from the CCDC's data processing and validation procedures.
#
#######################################################################

data_CSD_CIF_RILTEL
_audit_creation_date 1997-11-11
_audit_creation_method CSD-ConQuest-V1
_database_code_CSD RILTEL
_chemical_formula_sum 'C26 H29 N1 O6'
_chemical_formula_moiety
;
C26 H29 N1 O6
;
_journal_coden_Cambridge 35
_journal_volume 62
_journal_year 1997
_journal_page_first 5484
_journal_name_full 'J.Org.Chem. '
loop_
_publ_author_name
"A.Dondoni"
"F.Junquera"
"F.L.Merchan"
"P.Merino"
"M.-C.Scherrmann"
"T.Tejero"
_chemical_name_systematic
;
N-Benzyl-3-O-benzyl-5-deoxy-5-(2-furyl)-5-(hydroxyamino)-1,2-O-isopropylidene-
\b-L-gluco-1,4-pentofuranoside
;
_chemical_melting_point 368.15
_cell_volume   2420.785
_exptl_crystal_colour 'colorless'
_exptl_crystal_density_diffrn 1.239
_exptl_special_details
;
Melting point range 368.15-370.15K

;
_diffrn_ambient_temperature 175
#These two values have been output from a single CSD field.
_refine_ls_R_factor_gt 0.0704
_refine_ls_wR_factor_gt 0.0704
_symmetry_cell_setting orthorhombic
_symmetry_space_group_name_H-M 'P 21 21 21'
_symmetry_Int_Tables_number 19
loop_
_symmetry_equiv_pos_site_id
_symmetry_equiv_pos_as_xyz
1 x,y,z
2 1/2-x,-y,1/2+z
3 1/2+x,1/2-y,-z
4 -x,1/2+y,1/2-z
_cell_length_a 8.253(5)
_cell_length_b 12.340(5)
_cell_length_c 23.770(5)
_cell_angle_alpha 90
_cell_angle_beta 90
_cell_angle_gamma 90
_cell_formula_units_Z 4
loop_
_atom_type_symbol
_atom_type_radius_bond
C 0.68
H 0.23
N 0.68
O 0.68
loop_
_atom_site_label
_atom_site_type_symbol
_atom_site_fract_x
_atom_site_fract_y
_atom_site_fract_z
O1 O 0.1585(9) -0.1018(6) 0.0111(3)
H1 H 0.1396(73) -0.1660(6) 0.0206(20)
O2 O -0.3148(8) -0.0228(6) 0.0690(2)
O3 O 0.1190(9) 0.0524(6) -0.0810(2)
O4 O -0.2597(8) 0.0596(6) -0.0463(3)
O5 O -0.3773(10) -0.0474(6) -0.1154(3)
O6 O -0.4071(12) -0.1878(6) -0.0536(3)
N1 N 0.0712(9) -0.0280(6) 0.0484(3)
C1 C 0.1204(13) 0.1043(9) 0.1239(4)
C2 C 0.0728(13) 0.1096(8) -0.0321(4)
C3 C 0.1673(14) 0.2115(10) 0.1257(4)
H2 H 0.2447(14) 0.2376(10) 0.0994(4)
C4 C 0.1983(11) 0.0315(9) 0.0796(4)
H3 H 0.2623(11) 0.0761(9) 0.0530(4)
H4 H 0.2726(11) -0.0207(9) 0.0979(4)
C5 C -0.0227(14) 0.0441(9) 0.0099(4)
H5 H -0.0772(14) 0.0985(9) 0.0349(4)
C6 C 0.0124(15) 0.0665(10) 0.1640(4)
H6 H -0.0196(15) -0.0073(10) 0.1634(4)
C7 C 0.2043(15) 0.1241(11) -0.1137(4)
H7 H 0.2465(15) 0.1086(11) -0.1501(4)
C8 C 0.1002(18) 0.2832(10) 0.1668(4)
H8 H 0.1284(18) 0.3577(10) 0.1670(4)
C9 C -0.0073(18) 0.2422(10) 0.2066(4)
H9 H -0.0514(18) 0.2881(10) 0.2349(4)
C10 C -0.1593(12) -0.0179(8) -0.0181(4)
H10 H -0.1108(12) -0.0673(8) -0.0471(4)
C11 C -0.4191(19) -0.1577(10) -0.1139(4)
C12 C -0.2742(14) -0.0840(9) 0.0186(4)
H11 H -0.2283(14) -0.1570(9) 0.0278(4)
C13 C -0.4278(13) -0.0923(7) -0.0204(4)
H12 H -0.5328(13) -0.0899(7) 0.0007(4)
C14 C -0.4051(15) 0.0051(9) -0.0623(4)
H13 H -0.5013(15) 0.0546(9) -0.0630(4)
C15 C -0.4233(15) -0.0336(10) 0.1644(4)
C16 C -0.5190(18) 0.1187(12) 0.2176(5)
H14 H -0.5599(18) 0.1908(12) 0.2185(5)
C17 C -0.4777(15) 0.068(1) 0.1658(4)
H15 H -0.4892(15) 0.1073(10) 0.1317(4)
C18 C 0.2195(14) 0.2188(10) -0.0869(4)
H16 H 0.2775(14) 0.2803(10) -0.0999(4)
C19 C -0.4980(17) 0.0595(13) 0.2679(4)
H17 H -0.5244(17) 0.0927(13) 0.3029(4)
C20 C 0.1318(17) 0.2102(8) -0.0349(4)
H18 H 0.1182(17) 0.2657(8) -0.0075(4)
C21 C -0.0488(18) 0.1345(11) 0.2044(5)
H19 H -0.1219(18) 0.1065(11) 0.2316(5)
C22 C -0.3856(18) -0.0926(9) 0.1102(5)
H20 H -0.3101(18) -0.1532(9) 0.1181(5)
H21 H -0.4868(18) -0.1236(9) 0.0950(5)
C23 C -0.2953(19) -0.2225(12) -0.1460(4)
H22 H -0.3246(19) -0.2993(12) -0.1451(4)
H23 H -0.1886(19) -0.2129(12) -0.1288(4)
H24 H -0.2919(19) -0.1975(12) -0.1851(4)
C24 C -0.4418(21) -0.0420(15) 0.2672(6)
H25 H -0.4325(21) -0.0823(15) 0.3011(6)
C25 C -0.5891(19) -0.1749(13) -0.1340(5)
H26 H -0.6143(19) -0.2524(13) -0.1330(5)
H27 H -0.5992(19) -0.1482(13) -0.1727(5)
H28 H -0.6648(19) -0.1354(13) -0.1096(5)
C26 C -0.3963(20) -0.0885(12) 0.2153(5)
H29 H -0.3465(20) -0.1581(12) 0.2148(5)
#END
