
#######################################################################
#
#                 Cambridge Crystallographic Data Centre
#                                CCDC
#
#######################################################################
#
# If this CIF has been generated from an entry in the Cambridge
# Structural Database, then it will include bibliographic, chemical,
# crystal, experimental, refinement or atomic coordinate data resulting
# from the CCDC's data processing and validation procedures.
#
#######################################################################

data_CSD_CIF_RILXOB
_audit_creation_date 2013-11-29
_audit_creation_method CSD-ConQuest-V1
_database_code_CSD RILXOB
_database_code_depnum_ccdc_archive 'CCDC 945279'
_chemical_formula_sum 'C15 H11 N3 O3'
_chemical_formula_moiety
;
C15 H11 N3 O3
;
_journal_coden_Cambridge 16
_journal_volume 69
_journal_year 2013
_journal_page_first 10438
_journal_name_full 'Tetrahedron '
loop_
_publ_author_name
"Yi-Chou Chen"
"Ding-Yah Yang"
_chemical_name_systematic
;
4-Methyl-2-(4-nitrophenyl)quinazoline 3-oxide
;
_cell_volume   1260.184
_exptl_crystal_colour 'yellow'
_exptl_crystal_density_diffrn 1.483
_exptl_crystal_description 'parallelepiped'
_diffrn_ambient_temperature 302
#These two values have been output from a single CSD field.
_refine_ls_R_factor_gt 0.051
_refine_ls_wR_factor_gt 0.051
_symmetry_cell_setting monoclinic
_symmetry_space_group_name_H-M 'P 21/n'
_symmetry_Int_Tables_number 14
loop_
_symmetry_equiv_pos_site_id
_symmetry_equiv_pos_as_xyz
1 x,y,z
2 1/2-x,1/2+y,1/2-z
3 -x,-y,-z
4 -1/2+x,-1/2-y,-1/2+z
_cell_length_a 17.1571(11)
_cell_length_b 3.8593(2)
_cell_length_c 19.0337(12)
_cell_angle_alpha 90
_cell_angle_beta 90.793(4)
_cell_angle_gamma 90
_cell_formula_units_Z 4
loop_
_atom_type_symbol
_atom_type_radius_bond
C 0.68
H 0.23
N 0.68
O 0.68
loop_
_atom_site_label
_atom_site_type_symbol
_atom_site_fract_x
_atom_site_fract_y
_atom_site_fract_z
O1 O 0.48659(11) 0.5307(7) 0.37352(9)
O2 O 0.56239(12) 0.8362(6) 0.30946(11)
O3 O 0.21747(10) 0.6227(5) 0.11694(8)
N1 N 0.36146(9) 0.1795(4) 0.02280(8)
N2 N 0.24689(9) 0.4423(4) 0.06650(9)
N3 N 0.50530(11) 0.6525(6) 0.31722(10)
C1 C 0.32187(11) 0.1017(5) -0.03783(10)
C2 C 0.36173(13) -0.0705(5) -0.09163(11)
H1 H 0.41390 -0.12990 -0.08540
C3 C 0.32370(14) -0.1504(6) -0.15309(11)
H2 H 0.35030 -0.26020 -0.18900
C4 C 0.24476(14) -0.0674(6) -0.16213(11)
H3 H 0.21940 -0.12490 -0.20400
C5 C 0.20439(13) 0.0966(5) -0.11050(11)
H4 H 0.15200 0.14980 -0.11740
C6 C 0.24232(11) 0.1859(5) -0.04638(10)
C7 C 0.20494(11) 0.3613(5) 0.00868(10)
C8 C 0.12167(12) 0.4693(6) 0.00794(12)
H5 H 0.09510 0.35850 0.04590
H6 H 0.09770 0.40280 -0.03590
H7 H 0.11850 0.71620 0.01330
C9 C 0.32532(11) 0.3414(5) 0.07246(10)
C10 C 0.36850(11) 0.4282(5) 0.13782(10)
C11 C 0.34026(12) 0.3563(6) 0.20406(11)
H8 H 0.29070 0.26190 0.20860
C12 C 0.38472(12) 0.4230(6) 0.26341(11)
H9 H 0.36640 0.36980 0.30790
C13 C 0.45726(11) 0.5712(5) 0.25484(10)
C14 C 0.48697(12) 0.6468(5) 0.18988(11)
H10 H 0.53600 0.74680 0.18570
C15 C 0.44233(12) 0.5706(5) 0.13126(11)
H11 H 0.46180 0.61500 0.08680
#END
