
#######################################################################
#
#                 Cambridge Crystallographic Data Centre
#                                CCDC
#
#######################################################################
#
# If this CIF has been generated from an entry in the Cambridge
# Structural Database, then it will include bibliographic, chemical,
# crystal, experimental, refinement or atomic coordinate data resulting
# from the CCDC's data processing and validation procedures.
#
#######################################################################

data_CSD_CIF_RIMFAU
_audit_creation_date 1997-11-11
_audit_creation_method CSD-ConQuest-V1
_database_code_CSD RIMFAU
_chemical_formula_sum 'C27 H17 N1 O4'
_chemical_formula_moiety
;
C27 H17 N1 O4
;
_journal_coden_Cambridge 95
_journal_year 1997
_journal_page_first 1336
_journal_name_full 'Izv.Akad.Nauk SSSR,Ser.Khim.(Russ.)(Russ.Chem.Bull.) '
loop_
_publ_author_name
"L.Yu.Ukhin"
"O.V.Shishkin"
_chemical_name_systematic
;
12-(2-Hydroxynaphth-1-yl)-10-nitro-12H-benzo(a)xanthene
;
_chemical_melting_point 557.15
_cell_volume   1966.015
_exptl_crystal_colour 'yellow'
_exptl_crystal_density_diffrn 1.417
_exptl_special_details
;
Melts with decomposition.

;
_diffrn_ambient_temperature ?
_diffrn_special_details
;
The study was carried out at room temperature,in the range 283-303K

;
#These two values have been output from a single CSD field.
_refine_ls_R_factor_gt 0.0665
_refine_ls_wR_factor_gt 0.0665
_symmetry_cell_setting monoclinic
_symmetry_space_group_name_H-M 'P 21/c'
_symmetry_Int_Tables_number 14
loop_
_symmetry_equiv_pos_site_id
_symmetry_equiv_pos_as_xyz
1 x,y,z
2 -x,1/2+y,1/2-z
3 -x,-y,-z
4 x,-1/2-y,-1/2+z
_cell_length_a 7.5410(15)
_cell_length_b 15.967(3)
_cell_length_c 16.426(3)
_cell_angle_alpha 90
_cell_angle_beta 96.26(3)
_cell_angle_gamma 90
_cell_formula_units_Z 4
loop_
_atom_type_symbol
_atom_type_radius_bond
C 0.68
H 0.23
N 0.68
O 0.68
loop_
_atom_site_label
_atom_site_type_symbol
_atom_site_fract_x
_atom_site_fract_y
_atom_site_fract_z
N1 N 0.8722(6) 0.6657(3) 0.1706(3)
O1 O 0.2542(4) 0.4927(2) 0.0643(2)
O2 O 1.0125(5) 0.6279(2) 0.1886(2)
C1 C 0.7145(6) 0.6182(3) 0.1411(3)
O3 O 0.8581(5) 0.7417(2) 0.1786(2)
C2 C 0.5676(7) 0.6621(3) 0.1048(3)
H1 H 0.5714(7) 0.7199(3) 0.0984(3)
O4 O 0.8580(4) 0.3297(2) 0.2278(2)
H2 H 0.9471(28) 0.3101(28) 0.2541(3)
C3 C 0.7087(6) 0.5340(3) 0.1529(3)
H3 H 0.8103(6) 0.5065(3) 0.1765(3)
C4 C 0.4154(6) 0.6170(3) 0.0784(3)
H4 H 0.3161(6) 0.6440(3) 0.0518(3)
C5 C 0.4120(6) 0.5322(3) 0.0917(3)
C6 C 0.2398(6) 0.4064(3) 0.0738(3)
C7 C 0.0710(6) 0.3744(3) 0.0417(3)
H5 H -0.0140(6) 0.4093(3) 0.0139(3)
C8 C 0.0362(6) 0.2926(3) 0.0520(3)
H6 H -0.0756(6) 0.2717(3) 0.0326(3)
C9 C 0.1653(6) 0.2374(3) 0.0916(3)
C10 C 0.1300(7) 0.1520(3) 0.1040(3)
H7 H 0.0175(7) 0.1308(3) 0.0863(3)
C11 C 0.2566(7) 0.1000(3) 0.1411(3)
H8 H 0.2303(7) 0.0439(3) 0.1492(3)
C12 C 0.4270(7) 0.1312(3) 0.1671(3)
H9 H 0.5148(7) 0.0950(3) 0.1905(3)
C13 C 0.4667(7) 0.2144(3) 0.1585(3)
H10 H 0.5908(57) 0.2322(25) 0.1801(26)
C14 C 0.3361(6) 0.2705(3) 0.1218(3)
C15 C 0.3697(5) 0.3584(3) 0.1147(3)
C16 C 0.5442(6) 0.3966(3) 0.1530(2)
H11 H 0.6413(6) 0.3677(3) 0.1295(2)
C17 C 0.5552(6) 0.4880(3) 0.1306(2)
C18 C 0.5770(6) 0.3866(3) 0.2464(3)
C19 C 0.7380(6) 0.3532(3) 0.2802(3)
C20 C 0.7810(6) 0.3430(3) 0.3661(3)
H12 H 0.8909(6) 0.3212(3) 0.3870(3)
C21 C 0.6609(6) 0.3654(3) 0.4164(3)
H13 H 0.6874(6) 0.3573(3) 0.4724(3)
C22 C 0.4946(6) 0.4011(3) 0.3863(3)
C23 C 0.3712(7) 0.4239(3) 0.4409(3)
H14 H 0.3986(7) 0.4145(3) 0.4967(3)
C24 C 0.2102(7) 0.4601(3) 0.4125(3)
H15 H 0.1292(7) 0.4753(3) 0.4486(3)
C25 C 0.1716(7) 0.4731(3) 0.3297(3)
H16 H 0.0643(7) 0.4986(3) 0.3105(3)
C26 C 0.2847(6) 0.4498(3) 0.2753(3)
H17 H 0.2525(6) 0.4592(3) 0.2198(3)
C27 C 0.4518(5) 0.4114(2) 0.3010(3)
#END
