
#######################################################################
#
#                 Cambridge Crystallographic Data Centre
#                                CCDC
#
#######################################################################
#
# If this CIF has been generated from an entry in the Cambridge
# Structural Database, then it will include bibliographic, chemical,
# crystal, experimental, refinement or atomic coordinate data resulting
# from the CCDC's data processing and validation procedures.
#
#######################################################################

data_CSD_CIF_RIMYUH
_audit_creation_date 1997-11-21
_audit_creation_method CSD-ConQuest-V1
_database_code_CSD RIMYUH
_chemical_formula_sum 'C3 H6 N2 O4'
_chemical_formula_moiety
;
C3 H6 N2 O4
;
_journal_coden_Cambridge 447
_journal_year 1996
_journal_page_first 73
_journal_name_full 'Uzb.Khim.Zh.(Russ.)(Uzbek Journal on Chemistry) '
loop_
_publ_author_name
"Z.C.Kadyrova"
"N.K.Makhmudova"
"K.T.Sharipov"
_chemical_name_systematic
;
Malonodihydroxamic acid
;
_cell_volume    532.865
_exptl_special_details
;
for diketo tautomer see [FUZYUU]
x(O1) is -0.0611, not -0.611

;
_diffrn_ambient_temperature ?
_diffrn_special_details
;
The study was carried out at room temperature,in the range 283-303K

;
#These two values have been output from a single CSD field.
_refine_ls_R_factor_gt 0.057
_refine_ls_wR_factor_gt 0.057
_symmetry_cell_setting monoclinic
_symmetry_space_group_name_H-M 'P 21/c'
_symmetry_Int_Tables_number 14
loop_
_symmetry_equiv_pos_site_id
_symmetry_equiv_pos_as_xyz
1 x,y,z
2 -x,1/2+y,1/2-z
3 -x,-y,-z
4 x,-1/2-y,-1/2+z
_cell_length_a 6.355(1)
_cell_length_b 12.708(3)
_cell_length_c 7.751(2)
_cell_angle_alpha 90
_cell_angle_beta 121.65(1)
_cell_angle_gamma 90
_cell_formula_units_Z 4
loop_
_atom_type_symbol
_atom_type_radius_bond
C 0.68
H 0.23
N 0.68
O 0.68
loop_
_atom_site_label
_atom_site_type_symbol
_atom_site_fract_x
_atom_site_fract_y
_atom_site_fract_z
O1 O -0.0611(5) 0.7284(2) 0.0839(4)
N1 N 0.2057(6) 0.8428(3) 0.3184(5)
O2 O 0.0872(5) 0.9292(2) 0.1949(4)
C1 C 0.1268(7) 0.7468(3) 0.2506(6)
C2 C 0.3721(6) 0.5845(3) 0.2956(5)
C3 C 0.2864(8) 0.6600(3) 0.3961(6)
O3 O 0.3380(6) 0.4399(2) 0.1216(5)
O4 O 0.5726(6) 0.6113(3) 0.2810(5)
N2 N 0.2413(6) 0.5016(3) 0.2173(5)
H1 H 0.706(9) 0.668(4) 0.390(7)
H2 H 0.339(9) 0.855(4) 0.431(8)
H3 H 0.182(8) 0.624(3) 0.450(6)
H4 H 0.408(7) 0.687(3) 0.508(6)
H5 H -0.015(11) 0.952(5) 0.226(9)
H6 H 0.242(9) 0.408(4) 0.060(8)
#END
