
#######################################################################
#
#                 Cambridge Crystallographic Data Centre
#                                CCDC
#
#######################################################################
#
# If this CIF has been generated from an entry in the Cambridge
# Structural Database, then it will include bibliographic, chemical,
# crystal, experimental, refinement or atomic coordinate data resulting
# from the CCDC's data processing and validation procedures.
#
#######################################################################

data_CSD_CIF_RINYOC
_audit_creation_date 1997-11-21
_audit_creation_method CSD-ConQuest-V1
_database_code_CSD RINYOC
_chemical_formula_sum 'C11 H8 N2 O4'
_chemical_formula_moiety
;
C11 H8 N2 O4
;
_journal_coden_Cambridge 95
_journal_year 1996
_journal_page_first 2670
_journal_name_full 'Izv.Akad.Nauk SSSR,Ser.Khim.(Russ.)(Russ.Chem.Bull.) '
loop_
_publ_author_name
"A.N.Utenyshev"
"S.M.Aldoshin"
_chemical_name_systematic
;
(5-Nitro-2-furyl)-N-phenylnitrone
;
_chemical_melting_point 451
_cell_volume   2122.159
_exptl_crystal_colour 'light rose'
_exptl_crystal_density_diffrn 1.45
_diffrn_ambient_temperature ?
_diffrn_special_details
;
The study was carried out at room temperature,in the range 283-303K

;
#These two values have been output from a single CSD field.
_refine_ls_R_factor_gt 0.055
_refine_ls_wR_factor_gt 0.055
_symmetry_cell_setting orthorhombic
_symmetry_space_group_name_H-M 'P b c a'
_symmetry_Int_Tables_number 61
loop_
_symmetry_equiv_pos_site_id
_symmetry_equiv_pos_as_xyz
1 x,y,z
2 1/2-x,-y,1/2+z
3 1/2+x,1/2-y,-z
4 -x,1/2+y,1/2-z
5 -x,-y,-z
6 -1/2+x,y,-1/2-z
7 -1/2-x,-1/2+y,z
8 x,-1/2-y,-1/2+z
_cell_length_a 27.007(6)
_cell_length_b 7.209(4)
_cell_length_c 10.900(5)
_cell_angle_alpha 90
_cell_angle_beta 90
_cell_angle_gamma 90
_cell_formula_units_Z 8
loop_
_atom_type_symbol
_atom_type_radius_bond
C 0.68
H 0.23
N 0.68
O 0.68
loop_
_atom_site_label
_atom_site_type_symbol
_atom_site_fract_x
_atom_site_fract_y
_atom_site_fract_z
O1 O 0.4662(3) 0.1779(2) 0.0983(2)
O2 O 0.3595(2) 0.0430(3) 0.3529(3)
O3 O 0.2846(3) -0.0471(2) 0.4877(2)
O4 O 0.2326(3) 0.0000(2) 0.3427(3)
N1 N 0.4758(2) 0.1333(4) 0.2106(2)
N2 N 0.2748(2) -0.0031(2) 0.3838(3)
C1 C 0.4414(2) 0.0932(3) 0.2908(2)
C2 C 0.3902(3) 0.0969(2) 0.2585(3)
C3 C 0.3630(2) 0.1350(2) 0.1568(3)
C4 C 0.3133(3) 0.1046(3) 0.1863(2)
C5 C 0.3134(3) 0.0496(2) 0.3037(3)
C6 C 0.5280(3) 0.1234(2) 0.2449(1)
C7 C 0.5334(3) 0.1712(2) 0.3612(3)
C8 C 0.5934(2) 0.1620(3) 0.3870(2)
C9 C 0.6271(3) 0.1104(2) 0.2987(2)
C10 C 0.6110(3) 0.0621(2) 0.1829(3)
C11 C 0.5609(2) 0.0696(3) 0.1547(3)
H1 H 0.520(4) 0.223(4) 0.413(5)
H2 H 0.603(4) 0.205(4) 0.477(4)
H3 H 0.661(4) 0.111(3) 0.317(4)
H4 H 0.635(4) 0.019(3) 0.123(3)
H5 H 0.549(4) 0.022(3) 0.078(3)
H6 H 0.452(3) 0.040(3) 0.372(4)
H7 H 0.376(3) 0.193(4) 0.086(4)
H8 H 0.285(4) 0.126(4) 0.139(4)
#END
