
#######################################################################
#
#                 Cambridge Crystallographic Data Centre
#                                CCDC
#
#######################################################################
#
# If this CIF has been generated from an entry in the Cambridge
# Structural Database, then it will include bibliographic, chemical,
# crystal, experimental, refinement or atomic coordinate data resulting
# from the CCDC's data processing and validation procedures.
#
#######################################################################

data_CSD_CIF_RIPNOT
_audit_creation_date 1997-11-21
_audit_creation_method CSD-ConQuest-V1
_database_code_CSD RIPNOT
_chemical_formula_sum 'C17 H22 N4 O5'
_chemical_formula_moiety
;
C17 H22 N4 O5
;
_journal_coden_Cambridge 35
_journal_volume 62
_journal_year 1997
_journal_page_first 1702
_journal_name_full 'J.Org.Chem. '
loop_
_publ_author_name
"L.A.Paquette"
"J.C.Lanter"
"J.N.Johnston"
_chemical_name_systematic
;
(5R*,8S*)-8-Ethyl-6-oxaspiro(4.5)decan-1-one 2,4-dinitrophenylhydrazone
;
_chemical_melting_point 428.15
_cell_volume   3618.786
_exptl_crystal_colour 'orange-yellow'
_exptl_crystal_density_diffrn 1.33
_exptl_special_details
;
Melting point range 428.15-429.15K

;
_diffrn_ambient_temperature ?
_diffrn_special_details
;
The study was carried out at room temperature,in the range 283-303K

;
_refine_special_details
;
The ethyl side chain is disordered with two sites for atom C11 with 
occupancies 0.58:0.42.
;
#These two values have been output from a single CSD field.
_refine_ls_R_factor_gt 0.078
_refine_ls_wR_factor_gt 0.078
_symmetry_cell_setting monoclinic
_symmetry_space_group_name_H-M 'C 2/c'
_symmetry_Int_Tables_number 15
loop_
_symmetry_equiv_pos_site_id
_symmetry_equiv_pos_as_xyz
1 x,y,z
2 -x,y,1/2-z
3 1/2+x,1/2+y,z
4 1/2-x,1/2+y,1/2-z
5 -x,-y,-z
6 x,-y,-1/2+z
7 -1/2-x,-1/2-y,-z
8 -1/2+x,-1/2-y,-1/2+z
_cell_length_a 25.902(2)
_cell_length_b 8.983(2)
_cell_length_c 15.928(2)
_cell_angle_alpha 90
_cell_angle_beta 102.461(9)
_cell_angle_gamma 90
_cell_formula_units_Z 8
loop_
_atom_type_symbol
_atom_type_radius_bond
C 0.68
H 0.23
N 0.68
O 0.68
loop_
_atom_site_label
_atom_site_type_symbol
_atom_site_fract_x
_atom_site_fract_y
_atom_site_fract_z
O1 O 0.3624(3) 0.1809(8) 0.9491(4)
O2 O 0.2733(3) 0.419(1) 0.8769(4)
O3 O 0.2099(3) 0.5744(9) 0.8364(4)
O4 O 0.1202(5) 0.801(1) 1.0259(7)
O5 O 0.1454(4) 0.770(1) 1.1617(6)
N1 N 0.3365(4) 0.280(1) 1.1113(5)
N2 N 0.3098(4) 0.356(1) 1.0415(6)
N3 N 0.2391(4) 0.506(1) 0.8912(6)
N4 N 0.1481(5) 0.749(1) 1.0866(8)
C1 C 0.4027(4) 0.206(1) 1.0210(7)
C2 C 0.4416(5) 0.078(1) 1.0423(9)
C3 C 0.4612(6) 0.080(2) 1.141(1)
C4 C 0.4112(5) 0.126(2) 1.1702(8)
C5 C 0.3774(5) 0.214(1) 1.0979(7)
C6 C 0.4298(4) 0.356(1) 1.0105(7)
C7 C 0.4481(4) 0.365(1) 0.9261(9)
C8 C 0.4046(5) 0.327(1) 0.8546(8)
C9 C 0.3797(4) 0.182(1) 0.8699(7)
C10 C 0.4267(8) 0.328(3) 0.771(1)
C11 C 0.428(1) 0.460(3) 0.727(2)
C12 C 0.2720(4) 0.449(1) 1.0516(6)
C13 C 0.2369(4) 0.525(1) 0.9827(7)
C14 C 0.1978(4) 0.622(1) 0.9949(6)
C15 C 0.1924(5) 0.649(1) 1.0780(8)
C16 C 0.2274(5) 0.581(1) 1.1500(7)
C17 C 0.2648(4) 0.483(1) 1.1364(6)
C18? C 0.395(2) 0.325(4) 0.712(4)
H1 H 0.42400 -0.01730 1.02370
H2 H 0.47120 0.09140 1.01380
H3 H 0.47360 -0.01910 1.16220
H4 H 0.48960 0.15240 1.15780
H5 H 0.39210 0.03610 1.18210
H6 H 0.42080 0.18560 1.22240
H7 H 0.40450 0.43640 1.01160
H8 H 0.46040 0.36800 1.05800
H9 H 0.46050 0.46610 0.91900
H10 H 0.47740 0.29450 0.92820
H11 H 0.37760 0.40530 0.84960
H12 H 0.40580 0.10200 0.87120
H13 H 0.34930 0.16340 0.82260
H14 H 0.17440 0.66950 0.94540
H15 H 0.22440 0.60390 1.20860
H16 H 0.28730 0.43400 1.18600
H17 H 0.325(3) 0.338(9) 1.002(5)
H18 H 0.46210 0.28580 0.78620
H19 H 0.40360 0.25850 0.73080
H20? H 0.44890 0.41310 0.77170
H21? H 0.44700 0.23510 0.77070
H22? H 0.41040 0.31350 0.66180
H23? H 0.37470 0.41770 0.70780
H24? H 0.37140 0.24040 0.71560
H25 H 0.44820 0.53330 0.76500
H26 H 0.44330 0.44260 0.67720
H27 H 0.39120 0.49580 0.70720
#END
