
#######################################################################
#
#                 Cambridge Crystallographic Data Centre
#                                CCDC
#
#######################################################################
#
# If this CIF has been generated from an entry in the Cambridge
# Structural Database, then it will include bibliographic, chemical,
# crystal, experimental, refinement or atomic coordinate data resulting
# from the CCDC's data processing and validation procedures.
#
#######################################################################

data_CSD_CIF_RIPNEJ
_audit_creation_date 1997-11-21
_audit_creation_method CSD-ConQuest-V1
_database_code_CSD RIPNEJ
_chemical_formula_sum 'C17 H22 N4 O5'
_chemical_formula_moiety
;
C17 H22 N4 O5
;
_journal_coden_Cambridge 35
_journal_volume 62
_journal_year 1997
_journal_page_first 1702
_journal_name_full 'J.Org.Chem. '
loop_
_publ_author_name
"L.A.Paquette"
"J.C.Lanter"
"J.N.Johnston"
_chemical_name_systematic
;
(2R*,3S*,5S*)-2,3-Dimethyl-1-oxaspiro(4.5)decan-6-one 
2,4-dinitrophenylhydrazone
;
_chemical_melting_point 452.65
_cell_volume   3498.670
_exptl_crystal_colour 'orange-yellow'
_exptl_crystal_density_diffrn 1.38
_exptl_special_details
;
Melting point range 452.65-453.15K

;
_diffrn_ambient_temperature ?
_diffrn_special_details
;
The study was carried out at room temperature,in the range 283-303K

;
#These two values have been output from a single CSD field.
_refine_ls_R_factor_gt 0.039
_refine_ls_wR_factor_gt 0.039
_symmetry_cell_setting orthorhombic
_symmetry_space_group_name_H-M 'A b a 2'
_symmetry_Int_Tables_number 41
loop_
_symmetry_equiv_pos_site_id
_symmetry_equiv_pos_as_xyz
1 x,y,z
2 -x,-y,z
3 1/2-x,1/2+y,z
4 1/2+x,1/2-y,z
5 x,1/2+y,1/2+z
6 -x,1/2-y,1/2+z
7 1/2-x,y,1/2+z
8 1/2+x,-y,1/2+z
_cell_length_a 12.334(2)
_cell_length_b 25.493(3)
_cell_length_c 11.127(2)
_cell_angle_alpha 90
_cell_angle_beta 90
_cell_angle_gamma 90
_cell_formula_units_Z 8
loop_
_atom_type_symbol
_atom_type_radius_bond
C 0.68
H 0.23
N 0.68
O 0.68
loop_
_atom_site_label
_atom_site_type_symbol
_atom_site_fract_x
_atom_site_fract_y
_atom_site_fract_z
O1 O 0.9372(4) 0.1410(2) 0.43260
O2 O 0.8912(5) 0.0863(2) 0.6719(7)
O3 O 0.8810(6) 0.0400(2) 0.8332(7)
O4 O 0.8394(5) -0.1431(2) 0.8289(7)
O5 O 0.8106(5) -0.1848(2) 0.6639(7)
N1 N 0.8818(5) 0.0371(2) 0.3341(7)
N2 N 0.8795(6) 0.0422(2) 0.4586(7)
N3 N 0.8791(6) 0.0434(3) 0.7230(8)
N4 N 0.8285(6) -0.1446(3) 0.7211(8)
C1 C 0.9209(6) 0.1348(3) 0.3037(8)
C2 C 0.8213(6) 0.1688(3) 0.2758(9)
C3 C 0.8184(7) 0.2087(2) 0.3750(9)
C4 C 0.8619(6) 0.1787(3) 0.4823(9)
C5 C 1.0249(6) 0.1540(3) 0.2418(8)
C6 C 1.0300(6) 0.1432(3) 0.1078(8)
C7 C 1.0121(6) 0.0855(3) 0.0823(9)
C8 C 0.9042(7) 0.0675(3) 0.1363(8)
C9 C 0.9007(5) 0.0778(3) 0.2700(8)
C10 C 0.7092(7) 0.2339(3) 0.399(1)
C11 C 0.9178(6) 0.2104(3) 0.577(1)
C12 C 0.8612(6) -0.0016(3) 0.5239(8)
C13 C 0.8641(6) -0.0033(3) 0.6511(8)
C14 C 0.8518(6) -0.0496(3) 0.7140(8)
C15 C 0.8376(6) -0.0956(3) 0.6525(8)
C16 C 0.8297(7) -0.0961(3) 0.5285(9)
C17 C 0.8431(6) -0.0505(3) 0.4675(8)
H1 H 0.85340 -0.04950 0.80200
H2 H 0.81480 -0.12880 0.48540
H3 H 0.84000 -0.05150 0.37950
H4 H 0.82910 0.18590 0.19750
H5 H 0.75510 0.14750 0.27620
H6 H 1.03050 0.19200 0.25400
H7 H 1.08680 0.13660 0.28000
H8 H 0.97380 0.16380 0.06710
H9 H 1.10150 0.15360 0.07740
H10 H 1.01080 0.07980 -0.00480
H11 H 1.07130 0.06510 0.11800
H12 H 0.84490 0.08670 0.09750
H13 H 0.89530 0.02990 0.12190
H14 H 0.87020 0.23660 0.35520
H15 H 0.80180 0.15960 0.51970
H16 H 0.71600 0.25870 0.46630
H17 H 0.68470 0.25270 0.32740
H18 H 0.65640 0.20670 0.42020
H19 H 0.94610 0.18700 0.63960
H20 H 0.97780 0.23010 0.54100
H21 H 0.86600 0.23500 0.61320
H22 H 0.892(6) 0.074(3) 0.497(6)
#END
