
#######################################################################
#
#                 Cambridge Crystallographic Data Centre
#                                CCDC
#
#######################################################################
#
# If this CIF has been generated from an entry in the Cambridge
# Structural Database, then it will include bibliographic, chemical,
# crystal, experimental, refinement or atomic coordinate data resulting
# from the CCDC's data processing and validation procedures.
#
#######################################################################

data_CSD_CIF_RIRMAH02
_audit_creation_date 2017-11-17
_audit_creation_method CSD-ConQuest-V1
_database_code_CSD RIRMAH02
_database_code_depnum_ccdc_archive 'CCDC 1574283'
_chemical_formula_sum 'C6 H7 N3 O2'
_chemical_formula_moiety
;
C6 H7 N3 O2
;
_journal_coden_Cambridge 1350
_journal_volume 19
_journal_year 2017
_journal_page_first 7162
_journal_name_full 'CrystEngComm '
loop_
_publ_author_name
"S.V.Shishkina"
"I.S.Konovalova"
"O.V.Shishkin"
"A.N.Boyko"
_chemical_name_systematic
;
4-nitro-o-phenylene-diamine
;
_chemical_name_common
;
4-nitrobenzene-1,2-diamine
;
_cell_volume    642.151
_exptl_crystal_colour 'colorless'
_exptl_crystal_density_diffrn 1.584
_exptl_crystal_description 'plate'
_diffrn_ambient_temperature 100.2
#These two values have been output from a single CSD field.
_refine_ls_R_factor_gt 0.0362
_refine_ls_wR_factor_gt 0.0362
_symmetry_cell_setting orthorhombic
_symmetry_space_group_name_H-M 'P 21 21 21'
_symmetry_Int_Tables_number 19
loop_
_symmetry_equiv_pos_site_id
_symmetry_equiv_pos_as_xyz
1 x,y,z
2 1/2+x,1/2-y,-z
3 -x,1/2+y,1/2-z
4 1/2-x,-y,1/2+z
_cell_length_a 3.6679(7)
_cell_length_b 10.1769(19)
_cell_length_c 17.203(3)
_cell_angle_alpha 90
_cell_angle_beta 90
_cell_angle_gamma 90
_cell_formula_units_Z 4
loop_
_atom_type_symbol
_atom_type_radius_bond
C 0.68
H 0.23
N 0.68
O 0.68
loop_
_atom_site_label
_atom_site_type_symbol
_atom_site_fract_x
_atom_site_fract_y
_atom_site_fract_z
C1 C 1.0372(2) 0.88799(8) 0.02488(5)
H1 H 1.127(5) 0.833(2) -0.0134(11)
C2 C 1.0608(3) 0.85330(9) 0.10235(5)
H2 H 1.177(5) 0.771(2) 0.1172(12)
C3 C 0.9261(2) 0.93693(8) 0.16124(5)
C4 C 0.7620(2) 1.05880(8) 0.14019(5)
C5 C 0.7401(2) 1.09345(9) 0.06242(5)
H3 H 0.636(5) 1.1700(18) 0.0465(11)
C6 C 0.8755(2) 1.00768(9) 0.00567(5)
N1 N 0.9544(3) 0.90140(9) 0.23707(5)
H4 H 0.870(6) 0.934(2) 0.2699(12)
H5 H 1.040(6) 0.835(2) 0.2492(10)
N2 N 0.6363(2) 1.14460(8) 0.19916(5)
H6 H 0.515(5) 1.0993(17) 0.2358(10)
H7 H 0.488(6) 1.203(2) 0.1774(13)
N3 N 0.8370(2) 1.04187(8) -0.07447(4)
O1 O 0.9492(2) 0.96404(8) -0.12532(4)
O2 O 0.6879(2) 1.14804(7) -0.09188(4)
#END
