
#######################################################################
#
#                 Cambridge Crystallographic Data Centre
#                                CCDC
#
#######################################################################
#
# If this CIF has been generated from an entry in the Cambridge
# Structural Database, then it will include bibliographic, chemical,
# crystal, experimental, refinement or atomic coordinate data resulting
# from the CCDC's data processing and validation procedures.
#
#######################################################################

data_CSD_CIF_RIRPAJ
_audit_creation_date 1997-11-21
_audit_creation_method CSD-ConQuest-V1
_database_code_CSD RIRPAJ
_database_code_depnum_ccdc_journal 182/536
_chemical_formula_sum 'C23 H21 N3 O6'
_chemical_formula_moiety
;
C23 H21 N3 O6
;
_journal_coden_Cambridge 182
_journal_year 1997
_journal_page_first 1613
_journal_name_full 'Chem.Commun. '
loop_
_publ_author_name
"D.Michaud"
"S.Abdallah-El Ayoubi"
"M.-J.Dozias"
"L.Toupet"
"F.Texier-Boullet"
"J.Hamelin"
_chemical_name_systematic
;
Dimethyl 2-amino-3-cyano-4,6-diphenyl-5-nitrocyclohexene-1,3-dicarboxylate
;
_cell_volume   2208.031
_exptl_crystal_density_diffrn 1.31
_diffrn_ambient_temperature ?
_diffrn_special_details
;
The study was carried out at room temperature,in the range 283-303K

;
#These two values have been output from a single CSD field.
_refine_ls_R_factor_gt 0.032
_refine_ls_wR_factor_gt 0.032
loop_
_citation_database_id_CSD
_citation_special_details
MOZYUV "is a stereoisomer of this entry"
_symmetry_cell_setting monoclinic
_symmetry_space_group_name_H-M 'P 21/c'
_symmetry_Int_Tables_number 14
loop_
_symmetry_equiv_pos_site_id
_symmetry_equiv_pos_as_xyz
1 x,y,z
2 -x,1/2+y,1/2-z
3 -x,-y,-z
4 x,-1/2-y,-1/2+z
_cell_length_a 14.962(2)
_cell_length_b 10.028(2)
_cell_length_c 14.725(9)
_cell_angle_alpha 90
_cell_angle_beta 91.96(3)
_cell_angle_gamma 90
_cell_formula_units_Z 4
loop_
_atom_type_symbol
_atom_type_radius_bond
C 0.68
H 0.23
N 0.68
O 0.68
loop_
_atom_site_label
_atom_site_type_symbol
_atom_site_fract_x
_atom_site_fract_y
_atom_site_fract_z
O1 O 0.6144(1) 0.1912(3) 0.4117(1)
O2 O 0.5012(2) 0.0765(3) 0.3480(2)
O3 O 0.8503(2) 0.4247(3) 0.1779(2)
O4 O 0.7097(2) 0.4861(3) 0.1495(2)
O5 O 0.8903(2) -0.1422(3) 0.2024(2)
O6 O 0.9065(2) -0.0246(4) 0.3238(2)
N1 N 0.5890(2) 0.3217(3) 0.2193(2)
N2 N 0.8681(2) -0.0541(3) 0.2526(2)
N3 N 0.5557(2) -0.0349(4) 0.1399(2)
C1 C 0.6379(2) 0.1037(4) 0.2674(2)
C2 C 0.7237(2) 0.0306(4) 0.3034(2)
C3 C 0.7873(2) 0.0275(4) 0.2247(2)
C4 C 0.8183(2) 0.1654(4) 0.1980(2)
C5 C 0.7431(2) 0.2652(4) 0.1997(2)
C6 C 0.6594(2) 0.2380(4) 0.2265(2)
C7 C 0.7034(2) -0.1017(4) 0.3456(2)
C8 C 0.7022(3) -0.1090(4) 0.4406(2)
C9 C 0.6790(3) -0.2259(5) 0.4817(2)
C10 C 0.6587(3) -0.3372(4) 0.4331(3)
C11 C 0.6607(3) -0.3315(4) 0.3391(3)
C12 C 0.6838(2) -0.2156(4) 0.2974(2)
C13 C 0.8601(2) 0.1610(4) 0.1044(2)
C14 C 0.8079(3) 0.1355(5) 0.0275(2)
C15 C 0.8441(3) 0.1315(6) -0.0575(3)
C16 C 0.9300(3) 0.1545(6) -0.0665(3)
C17 C 0.9841(3) 0.1792(6) 0.0067(3)
C18 C 0.9498(3) 0.1844(5) 0.0946(3)
C19 C 0.5743(2) 0.1206(4) 0.3471(2)
C20 C 0.5632(3) 0.2150(5) 0.4918(2)
C21 C 0.7630(2) 0.4003(4) 0.1725(2)
C22 C 0.8792(3) 0.5530(6) 0.1509(4)
C23 C 0.5900(2) 0.0236(4) 0.1968(2)
H1 H 0.75100 0.09200 0.34600
H2 H 0.76200 -0.01800 0.17700
H3 H 0.86500 0.19600 0.24300
H4 H 0.71800 -0.02100 0.47200
H5 H 0.68000 -0.22600 0.54700
H6 H 0.63900 -0.42900 0.46000
H7 H 0.64600 -0.40900 0.30500
H8 H 0.68400 -0.20800 0.23300
H9 H 0.74500 0.10900 0.03300
H10 H 0.79600 0.10700 -0.11200
H11 H 0.96100 0.15900 -0.12500
H12 H 1.03900 0.19400 0.00900
H13 H 0.98300 0.20300 0.15000
H14 H 0.59700 0.26500 0.53500
H15 H 0.50900 0.26000 0.47600
H16 H 0.54800 0.13100 0.51900
H17 H 0.94300 0.55900 0.15800
H18 H 0.86200 0.56800 0.08900
H19 H 0.85300 0.62000 0.18700
H20 H 0.59400 0.39500 0.19500
H21 H 0.53300 0.29500 0.24300
#END
