
#######################################################################
#
#                 Cambridge Crystallographic Data Centre
#                                CCDC
#
#######################################################################
#
# If this CIF has been generated from an entry in the Cambridge
# Structural Database, then it will include bibliographic, chemical,
# crystal, experimental, refinement or atomic coordinate data resulting
# from the CCDC's data processing and validation procedures.
#
#######################################################################

data_CSD_CIF_RIRXAS
_audit_creation_date 2008-03-06
_audit_creation_method CSD-ConQuest-V1
_database_code_CSD RIRXAS
_database_code_depnum_ccdc_archive 'CCDC 672847'
_chemical_formula_sum 'C32 H30 N2 O8'
_chemical_formula_moiety
;
C32 H30 N2 O8
;
_journal_coeditor_code "IUCr XU2347"
_journal_coden_Cambridge 1370
_journal_volume 63
_journal_year 2007
_journal_page_first o4578
_journal_name_full 'Acta Crystallogr.,Sect.E:Struct.Rep.Online '
loop_
_publ_author_name
"Xiao-Yun Wu"
"Ai-Xi Hu"
"Gao Cao"
_chemical_name_systematic
;
(R*)-(-)-3-(4-(Benzyloxy)benzoylmethyl) 5-ethyl 
2,6-dimethyl-4-(3-nitrophenyl)-1,4-dihydropyridine-3,5-dicarboxylate
;
_chemical_melting_point 395.15
_cell_volume    728.318
_exptl_crystal_colour 'yellow'
_exptl_crystal_density_diffrn 1.301
_exptl_crystal_description 'block'
_exptl_crystal_preparation 'methanol'
_diffrn_ambient_temperature 295
#These two values have been output from a single CSD field.
_refine_ls_R_factor_gt 0.0454
_refine_ls_wR_factor_gt 0.0454
_symmetry_cell_setting triclinic
_symmetry_space_group_name_H-M 'P 1'
_symmetry_Int_Tables_number 1
loop_
_symmetry_equiv_pos_site_id
_symmetry_equiv_pos_as_xyz
1 x,y,z
_cell_length_a 7.3646(7)
_cell_length_b 8.1772(8)
_cell_length_c 13.329(1)
_cell_angle_alpha 97.905(2)
_cell_angle_beta 100.352(2)
_cell_angle_gamma 109.296(2)
_cell_formula_units_Z 1
loop_
_atom_type_symbol
_atom_type_radius_bond
C 0.68
H 0.23
N 0.68
O 0.68
loop_
_atom_site_label
_atom_site_type_symbol
_atom_site_fract_x
_atom_site_fract_y
_atom_site_fract_z
C1 C 0.6718(6) 0.3591(6) 0.7572(4)
C2 C 0.5034(6) 0.3903(6) 0.7313(4)
C3 C 0.3081(6) 0.2467(6) 0.7268(4)
H1 H 0.21500 0.30490 0.73960
C4 C 0.3348(6) 0.1501(5) 0.8135(3)
C5 C 0.5090(6) 0.1267(6) 0.8418(4)
C6 C 0.5611(8) 0.0160(8) 0.9149(5)
H2 H 0.58690 0.07770 0.98560
H3 H 0.67710 -0.00530 0.90340
H4 H 0.45260 -0.09500 0.90230
C7 C 0.8763(7) 0.4639(7) 0.7483(5)
H5 H 0.87180 0.47840 0.67770
H6 H 0.96350 0.40220 0.76710
H7 H 0.92430 0.57830 0.79430
C8 C 0.1677(6) 0.0884(5) 0.8604(4)
C9 C 0.0365(8) -0.0586(8) 0.9877(5)
H8 H -0.08540 -0.13860 0.93890
H9 H 0.01250 0.04310 1.02070
C10 C 0.1013(11) -0.1492(11) 1.0668(6)
H10 H 0.11360 -0.25520 1.03290
H11 H 0.00550 -0.17950 1.10790
H12 H 0.22730 -0.07210 1.11110
C11 C 0.4911(7) 0.5559(6) 0.7029(4)
C12 C 0.6556(7) 0.8139(6) 0.6503(4)
H13 H 0.78180 0.91230 0.67060
H14 H 0.55500 0.85750 0.66740
C13 C 0.6058(6) 0.7412(6) 0.5350(4)
C14 C 0.5909(6) 0.8605(6) 0.4637(4)
C15 C 0.6281(7) 1.0397(6) 0.4971(4)
H15 H 0.66460 1.08870 0.56830
C16 C 0.6120(7) 1.1463(6) 0.4269(4)
H16 H 0.63360 1.26500 0.45100
C17 C 0.5640(7) 1.0775(7) 0.3213(4)
C18 C 0.5269(10) 0.8964(8) 0.2864(5)
H17 H 0.49280 0.84730 0.21540
C19 C 0.5412(9) 0.7935(7) 0.3575(4)
H18 H 0.51670 0.67410 0.33360
C20 C 0.5785(11) 1.3511(7) 0.2736(5)
H19 H 0.71760 1.41700 0.30650
H20 H 0.50060 1.37070 0.32220
C21 C 0.5186(10) 1.4100(7) 0.1744(5)
C22 C 0.6499(12) 1.4713(10) 0.1165(6)
H21 H 0.77930 1.47530 0.13620
C23 C 0.5874(18) 1.5295(11) 0.0251(7)
H22 H 0.67650 1.57530 -0.01440
C24 C 0.3984(18) 1.5174(9) -0.0035(7)
H23 H 0.35680 1.55300 -0.06400
C25 C 0.2676(13) 1.4550(9) 0.0537(6)
H24 H 0.13750 1.44860 0.03300
C26 C 0.3276(12) 1.4010(8) 0.1424(5)
H25 H 0.23700 1.35740 0.18160
C27 C 0.2206(6) 0.1232(7) 0.6193(4)
C28 C 0.1756(7) 0.1925(9) 0.5333(4)
H26 H 0.19540 0.31250 0.54240
C29 C 0.1031(8) 0.0886(13) 0.4355(5)
C30 C 0.0708(9) -0.0890(15) 0.4179(6)
H27 H 0.02210 -0.15840 0.35060
C31 C 0.1123(9) -0.1625(10) 0.5025(6)
H28 H 0.09120 -0.28280 0.49210
C32 C 0.1851(7) -0.0585(7) 0.6024(5)
H29 H 0.21060 -0.10980 0.65880
N1 N 0.6607(5) 0.2105(5) 0.7986(3)
H30 H 0.75350 0.16880 0.79720
N2 N 0.0568(10) 0.1652(16) 0.3455(6)
O1 O 0.0167(4) 0.1171(4) 0.8359(2)
O2 O 0.1918(5) -0.0024(5) 0.9338(3)
O3 O 0.3392(5) 0.5796(4) 0.6805(3)
O4 O 0.6662(4) 0.6790(4) 0.7062(3)
O5 O 0.5795(7) 0.5867(5) 0.5045(3)
O6 O 0.5427(6) 1.1658(5) 0.2441(3)
O7 O 0.0752(11) 0.3189(14) 0.3632(6)
O8 O 0.0010(11) 0.0749(14) 0.2595(5)
#END
