
#######################################################################
#
#                 Cambridge Crystallographic Data Centre
#                                CCDC
#
#######################################################################
#
# If this CIF has been generated from an entry in the Cambridge
# Structural Database, then it will include bibliographic, chemical,
# crystal, experimental, refinement or atomic coordinate data resulting
# from the CCDC's data processing and validation procedures.
#
#######################################################################

data_CSD_CIF_RISFEF
_audit_creation_date 2008-03-06
_audit_creation_method CSD-ConQuest-V1
_database_code_CSD RISFEF
_database_code_depnum_ccdc_archive 'CCDC 673003'
_chemical_formula_sum 'C17 H15 N1 O6'
_chemical_formula_moiety
;
C17 H15 N1 O6
;
_journal_coeditor_code "IUCr WN2218"
_journal_coden_Cambridge 1370
_journal_volume 63
_journal_year 2007
_journal_page_first o4795
_journal_name_full 'Acta Crystallogr.,Sect.E:Struct.Rep.Online '
loop_
_publ_author_name
"Chun-Nian Xia"
"Wei-Xiao Hu"
"Wei Zhou"
_chemical_name_systematic
;
(E)-Phenylethyl 3-(3,4-dihydroxy-5-nitrophenyl)acrylate
;
_cell_volume   1562.834
_exptl_crystal_colour 'light brown'
_exptl_crystal_density_diffrn 1.4
_exptl_crystal_description 'prismatic'
_exptl_crystal_preparation 'tetrahydrofuran/acetone'
_diffrn_ambient_temperature 296
#These two values have been output from a single CSD field.
_refine_ls_R_factor_gt 0.0433
_refine_ls_wR_factor_gt 0.0433
_symmetry_cell_setting monoclinic
_symmetry_space_group_name_H-M 'P 21/c'
_symmetry_Int_Tables_number 14
loop_
_symmetry_equiv_pos_site_id
_symmetry_equiv_pos_as_xyz
1 x,y,z
2 -x,1/2+y,1/2-z
3 -x,-y,-z
4 x,-1/2-y,-1/2+z
_cell_length_a 8.5840(17)
_cell_length_b 5.3725(11)
_cell_length_c 33.904(7)
_cell_angle_alpha 90
_cell_angle_beta 91.757(3)
_cell_angle_gamma 90
_cell_formula_units_Z 4
loop_
_atom_type_symbol
_atom_type_radius_bond
C 0.68
H 0.23
N 0.68
O 0.68
loop_
_atom_site_label
_atom_site_type_symbol
_atom_site_fract_x
_atom_site_fract_y
_atom_site_fract_z
O1 O 1.02260(16) 1.0979(2) -0.05897(4)
O2 O 0.95350(17) 1.0519(2) -0.12012(4)
O3 O 0.76239(17) 0.7050(3) -0.14242(3)
H1 H 0.826(2) 0.831(3) -0.1453(6)
O4 O 0.59294(16) 0.3310(3) -0.12109(3)
H2 H 0.538(2) 0.223(4) -0.1112(6)
O5 O 0.57612(18) 0.0167(3) 0.08346(3)
O6 O 0.73569(15) 0.3321(2) 0.09845(3)
N1 N 0.94801(17) 0.9898(3) -0.08490(4)
C1 C 0.75303(18) 0.5211(3) -0.02353(4)
C2 C 0.84387(18) 0.7183(3) -0.03486(4)
H3 H 0.90090 0.80870 -0.01600
C3 C 0.85022(18) 0.7820(3) -0.07455(4)
C4 C 0.76560(19) 0.6537(3) -0.10382(4)
C5 C 0.67344(18) 0.4518(3) -0.09193(4)
C6 C 0.66815(18) 0.3901(3) -0.05288(4)
H4 H 0.60630 0.25680 -0.04550
C7 C 0.74503(18) 0.4516(3) 0.01813(4)
H5 H 0.79630 0.55390 0.03650
C8 C 0.6712(2) 0.2558(3) 0.03185(4)
H6 H 0.62400 0.15030 0.01330
C9 C 0.6564(2) 0.1890(3) 0.07324(4)
C10 C 0.7142(2) 0.2802(3) 0.14011(4)
H7 H 0.74800 0.11200 0.14640
H8 H 0.60510 0.29550 0.14630
C11 C 0.8094(2) 0.4642(4) 0.16361(4)
H9 H 0.78010 0.63200 0.15590
H10 H 0.91900 0.44160 0.15840
C12 C 0.7826(2) 0.4277(3) 0.20708(4)
C13 C 0.6843(2) 0.5827(4) 0.22689(5)
H11 H 0.63730 0.71560 0.21360
C14 C 0.6541(3) 0.5445(4) 0.26612(6)
H12 H 0.58780 0.65190 0.27910
C15 C 0.7209(3) 0.3504(4) 0.28595(5)
H13 H 0.69970 0.32390 0.31240
C16 C 0.8195(3) 0.1940(4) 0.26687(6)
H14 H 0.86590 0.06130 0.28040
C17 C 0.8500(2) 0.2332(4) 0.22766(5)
H15 H 0.91730 0.12630 0.21490
#END
