
#######################################################################
#
#                 Cambridge Crystallographic Data Centre
#                                CCDC
#
#######################################################################
#
# If this CIF has been generated from an entry in the Cambridge
# Structural Database, then it will include bibliographic, chemical,
# crystal, experimental, refinement or atomic coordinate data resulting
# from the CCDC's data processing and validation procedures.
#
#######################################################################

data_CSD_CIF_RISGOQ
_audit_creation_date 2008-03-06
_audit_creation_method CSD-ConQuest-V1
_database_code_CSD RISGOQ
_database_code_depnum_ccdc_archive 'CCDC 673010'
_chemical_formula_sum 'C13 H8 N4 O8'
_chemical_formula_moiety
;
C13 H8 N4 O8
;
_journal_coeditor_code "IUCr BT2608"
_journal_coden_Cambridge 1370
_journal_volume 63
_journal_year 2007
_journal_page_first o4803
_journal_name_full 'Acta Crystallogr.,Sect.E:Struct.Rep.Online '
loop_
_publ_author_name
"G.Smith"
"U.D.Wermuth"
"J.M.White"
_chemical_name_systematic
;
4-(2,4,6-Trinitroanilino)benzoic acid
;
_chemical_name_common
;
4-Picraminobenzoic acid
;
_chemical_melting_point 558
_cell_volume   1405.345
_exptl_crystal_colour 'yellow'
_exptl_crystal_density_diffrn 1.646
_exptl_crystal_description 'needle'
_diffrn_ambient_temperature 130
#These two values have been output from a single CSD field.
_refine_ls_R_factor_gt 0.0437
_refine_ls_wR_factor_gt 0.0437
_symmetry_cell_setting monoclinic
_symmetry_space_group_name_H-M 'P 21/c'
_symmetry_Int_Tables_number 14
loop_
_symmetry_equiv_pos_site_id
_symmetry_equiv_pos_as_xyz
1 x,y,z
2 -x,1/2+y,1/2-z
3 -x,-y,-z
4 x,-1/2-y,-1/2+z
_cell_length_a 20.317(2)
_cell_length_b 5.0919(5)
_cell_length_c 13.9364(15)
_cell_angle_alpha 90
_cell_angle_beta 102.903(2)
_cell_angle_gamma 90
_cell_formula_units_Z 4
loop_
_atom_type_symbol
_atom_type_radius_bond
C 0.68
H 0.23
N 0.68
O 0.68
loop_
_atom_site_label
_atom_site_type_symbol
_atom_site_fract_x
_atom_site_fract_y
_atom_site_fract_z
O1 O 0.28495(8) 0.6642(3) 0.35981(12)
O2 O 0.19826(8) 0.9192(3) 0.31493(11)
O3 O -0.02274(8) 0.5879(4) 0.29940(13)
O4 O -0.03744(8) 0.2949(3) 0.40479(13)
O5 O 0.16455(8) 0.0561(3) 0.66743(11)
O6 O 0.22289(8) -0.1459(3) 0.57694(12)
O7 O 0.42517(8) 0.1190(4) 0.95005(11)
O8 O 0.49608(8) -0.0810(4) 0.87222(13)
N1 N 0.22466(9) 0.7173(4) 0.35345(13)
N2 N -0.00133(9) 0.4347(4) 0.36657(14)
N3 N 0.18611(9) 0.0327(4) 0.59289(13)
N4 N 0.28062(9) 0.3181(4) 0.49909(13)
C1 C 0.21318(11) 0.3574(4) 0.47150(15)
C2 C 0.18317(10) 0.5347(4) 0.39510(15)
C3 C 0.11423(11) 0.5621(4) 0.36082(15)
C4 C 0.07171(11) 0.4169(4) 0.40398(16)
C5 C 0.09676(11) 0.2531(4) 0.48320(16)
C6 C 0.16532(11) 0.2273(4) 0.51474(15)
C7 C 0.39836(10) 0.1101(4) 0.77544(16)
C8 C 0.34772(11) 0.2976(4) 0.76841(16)
C9 C 0.30798(11) 0.3645(4) 0.67791(15)
C10 C 0.31861(10) 0.2401(4) 0.59402(15)
C11 C 0.36815(10) 0.0491(4) 0.60025(16)
C12 C 0.40803(11) -0.0152(5) 0.69090(16)
C13 C 0.44058(11) 0.0511(5) 0.87385(16)
H1 H 0.09660 0.67930 0.30830
H2 H 0.06700 0.16060 0.51490
H3 H 0.3038(12) 0.386(5) 0.4598(17)
H4 H 0.34040 0.38020 0.82630
H5 H 0.27370 0.49410 0.67310
H6 H 0.37450 -0.03660 0.54250
H7 H 0.44210 -0.14510 0.69560
H8 H 0.5209(17) -0.101(7) 0.934(3)
#END
