
#######################################################################
#
#                 Cambridge Crystallographic Data Centre
#                                CCDC
#
#######################################################################
#
# If this CIF has been generated from an entry in the Cambridge
# Structural Database, then it will include bibliographic, chemical,
# crystal, experimental, refinement or atomic coordinate data resulting
# from the CCDC's data processing and validation procedures.
#
#######################################################################

data_CSD_CIF_RIWCOQ01
_audit_creation_date 2011-07-22
_audit_creation_method CSD-ConQuest-V1
_database_code_CSD RIWCOQ01
_database_code_depnum_ccdc_archive 'CCDC 751947'
_chemical_formula_sum 'C20 H15 N1 O2'
_chemical_formula_moiety
;
C20 H15 N1 O2
;
_journal_coden_Cambridge 1048
_journal_volume 12
_journal_year 2010
_journal_page_first 1090
_journal_name_full 'Green Chemistry '
loop_
_publ_author_name
"M.J.Raihan"
"V.Kavala"
"Chun-Wei Kuo"
"B.R.Raju"
"Ching-Fa Yao"
_chemical_name_systematic
;
3-Phenyl-3a,4-dihydro-3H-benzo[5,6]chromeno[4,3-c][1,2]oxazole
;
_cell_volume   2988.745
_exptl_crystal_colour 'colorless'
_exptl_crystal_density_diffrn 1.339
_exptl_crystal_description 'prism'
_diffrn_ambient_temperature 293
#These two values have been output from a single CSD field.
_refine_ls_R_factor_gt 0.0411
_refine_ls_wR_factor_gt 0.0411
_symmetry_cell_setting monoclinic
_symmetry_space_group_name_H-M 'C 2/c'
_symmetry_Int_Tables_number 15
loop_
_symmetry_equiv_pos_site_id
_symmetry_equiv_pos_as_xyz
1 x,y,z
2 -x,y,1/2-z
3 1/2+x,1/2+y,z
4 1/2-x,1/2+y,1/2-z
5 -x,-y,-z
6 x,-y,-1/2+z
7 -1/2-x,-1/2-y,-z
8 -1/2+x,-1/2-y,-1/2+z
_cell_length_a 22.0450(3)
_cell_length_b 9.2680(2)
_cell_length_c 17.8038(4)
_cell_angle_alpha 90
_cell_angle_beta 124.751(1)
_cell_angle_gamma 90
_cell_formula_units_Z 8
loop_
_atom_type_symbol
_atom_type_radius_bond
C 0.68
H 0.23
N 0.68
O 0.68
loop_
_atom_site_label
_atom_site_type_symbol
_atom_site_fract_x
_atom_site_fract_y
_atom_site_fract_z
O1 O 0.40498(7) -0.14201(12) 0.04257(8)
O2 O 0.15926(7) -0.03670(13) -0.16236(9)
N1 N 0.35436(8) -0.25270(14) -0.01474(10)
C1 C 0.29210(9) -0.19277(18) -0.07302(10)
C2 C 0.22331(9) -0.26326(17) -0.14219(10)
C3 C 0.21673(9) -0.41013(18) -0.17248(10)
C4 C 0.27774(11) -0.50355(18) -0.13872(12)
H1 H 0.32500 -0.47030 -0.09450
C5 C 0.26839(12) -0.6415(2) -0.16995(13)
H2 H 0.30940 -0.70080 -0.14690
C6 C 0.19842(13) -0.6953(2) -0.23590(13)
H3 H 0.19280 -0.79010 -0.25600
C7 C 0.13851(12) -0.6085(2) -0.27062(12)
H4 H 0.09190 -0.64460 -0.31470
C8 C 0.14574(10) -0.46468(19) -0.24112(11)
C9 C 0.08364(11) -0.3730(2) -0.27857(12)
H5 H 0.03710 -0.40890 -0.32300
C10 C 0.09037(10) -0.2348(2) -0.25144(12)
H6 H 0.04880 -0.17610 -0.27800
C11 C 0.16009(10) -0.17914(19) -0.18305(11)
C12 C 0.22157(10) 0.01464(19) -0.07646(13)
H7 H 0.21960 -0.02330 -0.02710
H8 H 0.21990 0.11910 -0.07470
C13 C 0.29260(9) -0.03191(17) -0.06337(11)
H9 H 0.29770 0.01500 -0.10880
C14 C 0.36275(10) -0.01290(17) 0.03130(12)
H10 H 0.35040 -0.01490 0.07620
C15 C 0.40791(9) 0.11947(17) 0.04721(11)
C16 C 0.41602(10) 0.22515(19) 0.10704(12)
H11 H 0.39530 0.21210 0.13970
C17 C 0.45441(13) 0.3494(2) 0.11862(15)
H12 H 0.45900 0.42020 0.15850
C18 C 0.48600(12) 0.36968(19) 0.07203(14)
H13 H 0.51200 0.45400 0.08030
C19 C 0.47926(11) 0.26527(19) 0.01286(13)
H14 H 0.50110 0.27820 -0.01850
C20 C 0.44006(10) 0.14164(18) 0.00027(11)
H15 H 0.43500 0.07180 -0.04040
#END
