
#######################################################################
#
#                 Cambridge Crystallographic Data Centre
#                                CCDC
#
#######################################################################
#
# If this CIF has been generated from an entry in the Cambridge
# Structural Database, then it will include bibliographic, chemical,
# crystal, experimental, refinement or atomic coordinate data resulting
# from the CCDC's data processing and validation procedures.
#
#######################################################################

data_CSD_CIF_RIWPIW02
_audit_creation_date 2016-10-26
_audit_creation_method CSD-ConQuest-V1
_database_code_CSD RIWPIW02
_database_code_depnum_ccdc_archive 'CCDC 914802'
_chemical_formula_sum 'C9 H6 N2 O2'
_chemical_formula_moiety
;
C9 H6 N2 O2
;
_journal_coden_Cambridge 1078
_journal_year 2016
_journal_name_full 'CSD Communication(Private Communication) '
loop_
_publ_author_name
"J.B.Baruah"
_chemical_name_systematic
;
5-(hydroxyimino)quinolin-8(5H)-one
;
_cell_volume    775.837
_exptl_crystal_colour 'yellow'
_exptl_crystal_density_diffrn 1.491
_exptl_crystal_description 'block'
_diffrn_ambient_temperature 296
#These two values have been output from a single CSD field.
_refine_ls_R_factor_gt 0.0399
_refine_ls_wR_factor_gt 0.0399
_symmetry_cell_setting monoclinic
_symmetry_space_group_name_H-M 'P 21/c'
_symmetry_Int_Tables_number 14
loop_
_symmetry_equiv_pos_site_id
_symmetry_equiv_pos_as_xyz
1 x,y,z
2 -x,1/2+y,1/2-z
3 -x,-y,-z
4 x,-1/2-y,-1/2+z
_cell_length_a 7.9591(6)
_cell_length_b 7.1909(7)
_cell_length_c 15.2010(12)
_cell_angle_alpha 90
_cell_angle_beta 116.904(5)
_cell_angle_gamma 90
_cell_formula_units_Z 4
loop_
_atom_type_symbol
_atom_type_radius_bond
C 0.68
H 0.23
N 0.68
O 0.68
loop_
_atom_site_label
_atom_site_type_symbol
_atom_site_fract_x
_atom_site_fract_y
_atom_site_fract_z
O1 O 0.19034(17) 0.9187(2) 0.31201(8)
O2 O -0.45343(16) 0.8155(2) -0.09995(9)
H1 H -0.51660 0.78520 -0.15770
N1 N 0.34259(18) 0.7550(2) 0.20171(10)
N2 N -0.26812(19) 0.7801(2) -0.07242(10)
C1 C 0.0854(2) 0.8816(2) 0.22589(11)
C2 C -0.1166(2) 0.9153(3) 0.18310(12)
H2 H -0.16740 0.95900 0.22350
C3 C -0.2311(2) 0.8857(3) 0.08776(12)
H3 H -0.35890 0.91110 0.06370
C4 C -0.1629(2) 0.8152(2) 0.02067(11)
C5 C 0.0392(2) 0.7743(2) 0.05932(11)
C6 C 0.1190(2) 0.7061(2) 0.00030(12)
H4 H 0.04500 0.68910 -0.06710
C7 C 0.3069(2) 0.6650(3) 0.04294(13)
H5 H 0.36300 0.62250 0.00470
C8 C 0.4130(2) 0.6875(3) 0.14414(14)
H6 H 0.53940 0.65370 0.17290
C9 C 0.1579(2) 0.8005(2) 0.15960(11)
#END
