
#######################################################################
#
#                 Cambridge Crystallographic Data Centre
#                                CCDC
#
#######################################################################
#
# If this CIF has been generated from an entry in the Cambridge
# Structural Database, then it will include bibliographic, chemical,
# crystal, experimental, refinement or atomic coordinate data resulting
# from the CCDC's data processing and validation procedures.
#
#######################################################################

data_CSD_CIF_RIWPIW01
_audit_creation_date 2003-05-27
_audit_creation_method CSD-ConQuest-V1
_database_code_CSD RIWPIW01
_database_code_depnum_ccdc_archive 'CCDC 144266'
_chemical_formula_sum 'C9 H6 N2 O2'
_chemical_formula_moiety
;
C9 H6 N2 O2
;
_journal_coden_Cambridge 1078
_journal_year 2003
_journal_name_full 'CSD Communication(Private Communication) '
loop_
_publ_author_name
"H.E.Zorel Junior"
"A.G.C.Costalonga"
"J.Ellena"
"M.S.Crespi"
"C.A.Ribeiro"
_chemical_name_systematic
;
5-Hydroxyimino-8-quinolone
;
_chemical_melting_point 471.15
_cell_volume    773.010
_exptl_crystal_colour 'green'
_exptl_crystal_density_diffrn 1.497
_exptl_special_details
;
Melts with decomposition.
contribution from Instituto de Quimica da UNESP CP 355, CEP 14801-970, 
Araraquara SP, Brazil
;
_exptl_crystal_preparation 'acetone'
_diffrn_ambient_temperature 293
#These two values have been output from a single CSD field.
_refine_ls_R_factor_gt 0.0622
_refine_ls_wR_factor_gt 0.0622
_symmetry_cell_setting monoclinic
_symmetry_space_group_name_H-M 'P 21/n'
_symmetry_Int_Tables_number 14
loop_
_symmetry_equiv_pos_site_id
_symmetry_equiv_pos_as_xyz
1 x,y,z
2 1/2-x,1/2+y,1/2-z
3 -x,-y,-z
4 -1/2+x,-1/2-y,-1/2+z
_cell_length_a 7.937(1)
_cell_length_b 7.1859(8)
_cell_length_c 13.592(4)
_cell_angle_alpha 90
_cell_angle_beta 94.32(2)
_cell_angle_gamma 90
_cell_formula_units_Z 4
loop_
_atom_type_symbol
_atom_type_radius_bond
C 0.68
H 0.23
N 0.68
O 0.68
loop_
_atom_site_label
_atom_site_type_symbol
_atom_site_fract_x
_atom_site_fract_y
_atom_site_fract_z
O1 O 0.6465(2) 0.1841(3) 0.5999(1)
O2 O 0.8793(2) 0.0822(3) 0.1880(1)
N1 N 1.1415(2) 0.2455(3) 0.2984(2)
N2 N 0.8037(3) 0.2194(3) 0.5723(2)
C1 C 1.2693(3) 0.3125(4) 0.3560(2)
C2 C 1.2637(3) 0.3348(4) 0.4574(2)
C3 C 1.1189(3) 0.2938(3) 0.4997(2)
C4 C 0.9792(3) 0.2252(3) 0.4403(2)
C5 C 0.8157(3) 0.1842(3) 0.4791(2)
C6 C 0.6813(3) 0.1140(3) 0.4120(2)
C7 C 0.7004(3) 0.0845(3) 0.3168(2)
C8 C 0.8601(3) 0.1186(3) 0.2741(2)
C9 C 0.9985(3) 0.1995(3) 0.3409(2)
H1 H 1.36750 0.34620 0.32730
H2 H 1.35800 0.37740 0.45960
H3 H 1.11180 0.31060 0.56710
H4 H 0.64200 0.21070 0.65830
H5 H 0.57730 0.08840 0.43610
H6 H 0.60900 0.04090 0.27650
#END
