
#######################################################################
#
#                 Cambridge Crystallographic Data Centre
#                                CCDC
#
#######################################################################
#
# If this CIF has been generated from an entry in the Cambridge
# Structural Database, then it will include bibliographic, chemical,
# crystal, experimental, refinement or atomic coordinate data resulting
# from the CCDC's data processing and validation procedures.
#
#######################################################################

data_CSD_CIF_RIXWUR
_audit_creation_date 2008-07-04
_audit_creation_method CSD-ConQuest-V1
_database_code_CSD RIXWUR
_database_code_depnum_ccdc_archive 'CCDC 670413'
_chemical_formula_sum 'C20 H21 N3 O8'
_chemical_formula_moiety
;
C20 H21 N3 O8
;
_journal_coden_Cambridge 16
_journal_volume 64
_journal_year 2008
_journal_page_first 2979
_journal_name_full 'Tetrahedron '
loop_
_publ_author_name
"V.Singh"
"G.P.Yadav"
"P.R.Maulik"
"S.Batra"
_chemical_name_systematic
;
Diethyl 
8-methyl-10-(2-nitrophenyl)-6-oxo-1-oxa-2,7-diazaspiro(4.5)deca-2,8-diene-3,9-
dicarboxylate
;
_chemical_melting_point 436
_cell_volume   1046.896
_exptl_crystal_colour 'colorless'
_exptl_crystal_density_diffrn 1.369
_exptl_special_details
;
The unit cell length a is 8.200 as reported in the supplementary information, 
not 28.200 as published in the paper
;
_exptl_crystal_description 'Block'
_exptl_crystal_preparation 'ethanol'
_diffrn_ambient_temperature 293
#These two values have been output from a single CSD field.
_refine_ls_R_factor_gt 0.0562
_refine_ls_wR_factor_gt 0.0562
_symmetry_cell_setting triclinic
_symmetry_space_group_name_H-M 'P -1'
_symmetry_Int_Tables_number 2
loop_
_symmetry_equiv_pos_site_id
_symmetry_equiv_pos_as_xyz
1 x,y,z
2 -x,-y,-z
_cell_length_a 8.200(1)
_cell_length_b 10.234(1)
_cell_length_c 13.433(2)
_cell_angle_alpha 103.11(1)
_cell_angle_beta 105.14(1)
_cell_angle_gamma 94.99(1)
_cell_formula_units_Z 2
loop_
_atom_type_symbol
_atom_type_radius_bond
C 0.68
H 0.23
N 0.68
O 0.68
loop_
_atom_site_label
_atom_site_type_symbol
_atom_site_fract_x
_atom_site_fract_y
_atom_site_fract_z
C1 C 0.4877(3) 0.5153(2) 0.3358(2)
C2 C 0.6453(4) 0.5812(3) 0.4040(2)
H1 H 0.65170 0.65020 0.46400
C3 C 0.7922(4) 0.5442(3) 0.3829(3)
H2 H 0.89850 0.58560 0.43000
C4 C 0.7816(3) 0.4466(3) 0.2926(2)
H3 H 0.88070 0.42150 0.27760
C5 C 0.6233(3) 0.3851(2) 0.2233(2)
H4 H 0.61870 0.32000 0.16140
C6 C 0.4711(3) 0.4162(2) 0.24211(17)
C7 C 0.3016(3) 0.3481(2) 0.15851(17)
H5 H 0.21090 0.39290 0.18020
C8 C 0.2979(3) 0.3673(2) 0.04955(18)
C9 C 0.2476(3) 0.4946(2) 0.0258(2)
C10 C 0.3348(3) 0.2699(2) -0.02330(18)
C11 C 0.3597(3) 0.1098(2) 0.08838(19)
C12 C 0.2603(3) 0.1966(2) 0.15215(17)
C13 C 0.2620(3) 0.1642(2) 0.25668(19)
H6 H 0.31410 0.08400 0.26400
H7 H 0.32110 0.24000 0.31730
C14 C 0.0760(3) 0.1400(2) 0.2447(2)
C15 C 0.0059(4) 0.1267(3) 0.3337(3)
C16 C 0.1725(4) 0.7063(3) 0.0968(3)
H8 H 0.06760 0.68580 0.03840
H9 H 0.25680 0.76320 0.07990
C17 C 0.1408(6) 0.7767(3) 0.1972(4)
H10 H 0.06650 0.71600 0.21700
H11 H 0.08800 0.85470 0.18720
H12 H 0.24740 0.80520 0.25270
C18 C 0.3403(4) 0.2718(3) -0.1335(2)
H13 H 0.24620 0.20890 -0.18510
H14 H 0.44600 0.24620 -0.14340
H15 H 0.33210 0.36160 -0.14270
C19 C -0.2307(8) 0.1004(9) 0.3965(5)
H16 H -0.13700 0.10960 0.46030
H17 H -0.28430 0.18120 0.40740
C20 C -0.3326(10) 0.0052(9) 0.3876(5)
H18 H -0.42170 -0.01030 0.32170
H19 H -0.38090 0.02270 0.44630
H20 H -0.27720 -0.07370 0.38780
N1 N -0.0217(3) 0.13168(19) 0.15148(18)
N2 N 0.3378(4) 0.5568(3) 0.3678(2)
N3 N 0.3783(3) 0.14999(18) 0.00257(15)
H21 H 0.42070 0.09710 -0.04020
O1 O 0.2177(3) 0.5202(2) -0.05910(19)
O2 O 0.2348(2) 0.58164(16) 0.11262(15)
O3 O 0.1004(4) 0.1432(3) 0.4210(2)
O4 O -0.1592(3) 0.0970(3) 0.3074(2)
O5 O 0.4143(2) 0.01041(16) 0.11229(14)
O6 O 0.08002(19) 0.15223(15) 0.08599(12)
O7 O 0.3487(4) 0.6753(3) 0.4158(3)
O8 O 0.2119(3) 0.4723(3) 0.34918(17)
#END
