
#######################################################################
#
#                 Cambridge Crystallographic Data Centre
#                                CCDC
#
#######################################################################
#
# If this CIF has been generated from an entry in the Cambridge
# Structural Database, then it will include bibliographic, chemical,
# crystal, experimental, refinement or atomic coordinate data resulting
# from the CCDC's data processing and validation procedures.
#
#######################################################################

data_CSD_CIF_RIYNOD
_audit_creation_date 2008-07-04
_audit_creation_method CSD-ConQuest-V1
_database_code_CSD RIYNOD
_database_code_depnum_ccdc_archive 'CCDC 671468'
_chemical_formula_sum 'C15 H21 N3 O4'
_chemical_formula_moiety
;
C15 H21 N3 O4
;
_journal_coden_Cambridge 24
_journal_volume 49
_journal_year 2008
_journal_page_first 2124
_journal_name_full 'Tetrahedron Lett. '
loop_
_publ_author_name
"Y.Nishigaichi"
"K.Tamura"
"N.Ueda"
"H.Iwamoto"
"A.Takuwa"
_chemical_name_systematic
;
anti-3-(5-Hydroxy-3-methylene-5-(4-nitrophenyl)pentan-2-yl)-1,1-dimethylurea
;
_cell_volume   1598.076
_exptl_crystal_colour 'colorless'
_exptl_crystal_density_diffrn 1.277
_exptl_crystal_description 'block'
_diffrn_ambient_temperature 296.2
#These two values have been output from a single CSD field.
_refine_ls_R_factor_gt 0.0784
_refine_ls_wR_factor_gt 0.0784
_symmetry_cell_setting monoclinic
_symmetry_space_group_name_H-M 'P 21/c'
_symmetry_Int_Tables_number 14
loop_
_symmetry_equiv_pos_site_id
_symmetry_equiv_pos_as_xyz
1 x,y,z
2 -x,1/2+y,1/2-z
3 -x,-y,-z
4 x,-1/2-y,-1/2+z
_cell_length_a 6.9908(5)
_cell_length_b 21.259(1)
_cell_length_c 10.7936(7)
_cell_angle_alpha 90
_cell_angle_beta 94.974(1)
_cell_angle_gamma 90
_cell_formula_units_Z 4
loop_
_atom_type_symbol
_atom_type_radius_bond
C 0.68
H 0.23
N 0.68
O 0.68
loop_
_atom_site_label
_atom_site_type_symbol
_atom_site_fract_x
_atom_site_fract_y
_atom_site_fract_z
O1 O 1.0510(3) 0.2158(1) 0.8697(2)
O2 O 0.8137(3) 0.1128(1) 0.7858(2)
O3 O 0.1918(4) -0.1125(2) 0.5487(3)
O4 O -0.0487(4) -0.0572(1) 0.6039(3)
N1 N 0.1230(5) -0.0677(2) 0.6008(3)
N2 N 0.9895(4) 0.2372(1) 1.0701(2)
N3 N 1.2422(4) 0.2844(1) 0.9828(2)
C1 C 0.8172(5) 0.1975(2) 1.0583(3)
C2 C 0.5132(5) 0.0611(2) 0.7864(3)
C3 C 0.7038(5) 0.0883(2) 0.9871(3)
C4 C 0.8610(5) 0.1280(2) 1.0489(3)
C5 C 0.3185(5) 0.0644(2) 0.8016(3)
C6 C 1.2698(5) 0.3284(2) 1.0861(3)
C7 C 0.6484(4) 0.1075(1) 0.8519(3)
C8 C 1.0901(5) 0.2445(2) 0.9680(3)
C9 C 1.3531(5) 0.2959(2) 0.8781(3)
C10 C 0.1914(5) 0.0223(2) 0.7412(3)
C11 C 0.2591(5) -0.0227(2) 0.6677(3)
C12 C 1.0258(5) 0.1041(2) 1.0907(4)
C13 C 0.5779(5) 0.0153(2) 0.7111(4)
C14 C 0.7022(5) 0.2110(2) 1.1695(4)
C15 C 0.4532(6) -0.0270(2) 0.6515(4)
H1 H 0.89980 0.14240 0.83210
H2 H 0.72670 0.20560 0.98420
H3 H 0.74140 0.04510 0.98840
H4 H 0.58650 0.08140 1.02870
H5 H 0.26490 0.09320 0.85980
H6 H 1.29200 0.31350 1.17100
H7 H 1.15760 0.35340 1.09100
H8 H 0.58600 0.14940 0.85080
H9 H 1.28880 0.32650 0.82650
H10 H 1.48180 0.29870 0.91450
H11 H 1.36790 0.25940 0.82350
H12 H 0.05530 0.02990 0.74800
H13 H 1.14390 0.12680 1.12360
H14 H 1.05970 0.06180 1.08220
H15 H 0.77760 0.20500 1.24540
H16 H 0.58280 0.18870 1.15940
H17 H 0.65340 0.25400 1.16660
H18 H 0.49840 -0.05920 0.59510
H19 H 1.39100 0.35120 1.08360
H20 H 0.71010 0.01360 0.68830
H21 H 1.04110 0.26360 1.16130
#END
