
#######################################################################
#
#                 Cambridge Crystallographic Data Centre
#                                CCDC
#
#######################################################################
#
# If this CIF has been generated from an entry in the Cambridge
# Structural Database, then it will include bibliographic, chemical,
# crystal, experimental, refinement or atomic coordinate data resulting
# from the CCDC's data processing and validation procedures.
#
#######################################################################

data_CSD_CIF_RIYPIZ
_audit_creation_date 2008-07-04
_audit_creation_method CSD-ConQuest-V1
_database_code_CSD RIYPIZ
_database_code_depnum_ccdc_archive 'CCDC 655766'
_chemical_formula_sum 'C22 H19 N1 O6'
_chemical_formula_moiety
;
C22 H19 N1 O6
;
_journal_coden_Cambridge 24
_journal_volume 49
_journal_year 2008
_journal_page_first 956
_journal_name_full 'Tetrahedron Lett. '
loop_
_publ_author_name
"Ding Du"
"Zhongwen Wang"
_chemical_name_systematic
;
Ethyl 
3-(4-nitrophenyl)-2-((2-oxo-5-phenyldihydrofuran-3(2H)-ylidene)methyl)acrylate

;
_cell_volume   1957.473
_exptl_crystal_colour 'colorless'
_exptl_crystal_density_diffrn 1.335
_exptl_crystal_description 'block'
_diffrn_ambient_temperature 294
#These two values have been output from a single CSD field.
_refine_ls_R_factor_gt 0.0589
_refine_ls_wR_factor_gt 0.0589
_symmetry_cell_setting monoclinic
_symmetry_space_group_name_H-M 'P 21/n'
_symmetry_Int_Tables_number 14
loop_
_symmetry_equiv_pos_site_id
_symmetry_equiv_pos_as_xyz
1 x,y,z
2 1/2-x,1/2+y,1/2-z
3 -x,-y,-z
4 -1/2+x,-1/2-y,-1/2+z
_cell_length_a 6.169(2)
_cell_length_b 21.664(8)
_cell_length_c 14.797(6)
_cell_angle_alpha 90
_cell_angle_beta 98.171(6)
_cell_angle_gamma 90
_cell_formula_units_Z 4
loop_
_atom_type_symbol
_atom_type_radius_bond
C 0.68
H 0.23
N 0.68
O 0.68
loop_
_atom_site_label
_atom_site_type_symbol
_atom_site_fract_x
_atom_site_fract_y
_atom_site_fract_z
O1 O 0.0956(2) 0.20032(9) 0.58224(14)
O2 O 0.3762(3) 0.26427(8) 0.58022(13)
O3 O 0.7961(3) 0.07316(8) 0.42331(13)
O4 O 0.5925(3) 0.12019(9) 0.30578(12)
O5 O 0.6351(5) -0.20693(11) 0.1773(2)
O6 O 0.3301(4) -0.24372(11) 0.20755(17)
N1 N 0.4666(5) -0.20262(12) 0.20955(17)
C1 C 0.2664(4) 0.21179(11) 0.55499(18)
C2 C 0.3875(3) 0.17504(11) 0.49445(16)
C3 C 0.5765(3) 0.21362(11) 0.47509(17)
H1 H 0.55060 0.23020 0.41360
H2 H 0.71080 0.18970 0.48230
C4 C 0.5885(4) 0.26567(11) 0.54658(18)
H3 H 0.70430 0.25610 0.59710
C5 C 0.6251(4) 0.32934(12) 0.51200(17)
C6 C 0.4622(5) 0.36223(14) 0.4615(2)
H4 H 0.32300 0.34510 0.44860
C7 C 0.5001(7) 0.42013(16) 0.4295(2)
H5 H 0.38730 0.44160 0.39470
C8 C 0.6993(8) 0.44573(17) 0.4482(3)
H6 H 0.72350 0.48530 0.42730
C9 C 0.8647(7) 0.41449(19) 0.4973(3)
H7 H 1.00320 0.43210 0.50940
C10 C 0.8275(5) 0.35565(15) 0.5300(3)
H8 H 0.94130 0.33420 0.56420
C11 C 0.3167(3) 0.11867(11) 0.46961(16)
H9 H 0.18840 0.10690 0.49110
C12 C 0.4076(3) 0.07257(10) 0.41437(15)
C13 C 0.3046(3) 0.01818(11) 0.39880(17)
H10 H 0.17680 0.01480 0.42510
C14 C 0.3558(3) -0.03656(11) 0.34838(16)
C15 C 0.5427(4) -0.04505(13) 0.3063(2)
H11 H 0.64550 -0.01350 0.30900
C16 C 0.5786(4) -0.09845(13) 0.2614(2)
H12 H 0.70380 -0.10310 0.23360
C17 C 0.4269(4) -0.14503(11) 0.25800(17)
C18 C 0.2404(4) -0.13929(12) 0.29717(18)
H13 H 0.13800 -0.17100 0.29320
C19 C 0.2072(3) -0.08557(11) 0.34256(17)
H14 H 0.08180 -0.08170 0.37030
C20 C 0.6216(4) 0.08779(11) 0.38213(17)
C21 C 0.7919(5) 0.14244(15) 0.2727(2)
H15 H 0.90090 0.15260 0.32440
H16 H 0.75860 0.17970 0.23710
C22 C 0.8827(6) 0.09527(17) 0.2155(3)
H17 H 1.01350 0.11090 0.19550
H18 H 0.77660 0.08600 0.16330
H19 H 0.91670 0.05840 0.25070
#END
