
#######################################################################
#
#                 Cambridge Crystallographic Data Centre
#                                CCDC
#
#######################################################################
#
# If this CIF has been generated from an entry in the Cambridge
# Structural Database, then it will include bibliographic, chemical,
# crystal, experimental, refinement or atomic coordinate data resulting
# from the CCDC's data processing and validation procedures.
#
#######################################################################

data_CSD_CIF_RIYTID
_audit_creation_date 2008-07-04
_audit_creation_method CSD-ConQuest-V1
_database_code_CSD RIYTID
_database_code_depnum_ccdc_archive 'CCDC 690890'
_chemical_formula_sum 'C8 H6 N2 O2'
_chemical_formula_moiety
;
C8 H6 N2 O2
;
_journal_coeditor_code "IUCr BX2137"
_journal_coden_Cambridge 1370
_journal_volume 64
_journal_year 2008
_journal_page_first o972
_journal_name_full 'Acta Crystallogr.,Sect.E:Struct.Rep.Online '
loop_
_publ_author_name
"Wen-Xian Liang"
"Guo-Xi Wang"
_chemical_name_systematic
;
2-Methyl-5-nitrobenzonitrile
;
_cell_volume    778.147
_exptl_crystal_colour 'colorless'
_exptl_crystal_density_diffrn 1.384
_exptl_crystal_description 'block'
_exptl_crystal_preparation 'ethanol'
_diffrn_ambient_temperature 293
#These two values have been output from a single CSD field.
_refine_ls_R_factor_gt 0.0495
_refine_ls_wR_factor_gt 0.0495
_symmetry_cell_setting monoclinic
_symmetry_space_group_name_H-M 'P 21/n'
_symmetry_Int_Tables_number 14
loop_
_symmetry_equiv_pos_site_id
_symmetry_equiv_pos_as_xyz
1 x,y,z
2 1/2-x,1/2+y,1/2-z
3 -x,-y,-z
4 -1/2+x,-1/2-y,-1/2+z
_cell_length_a 3.8946(8)
_cell_length_b 7.6350(15)
_cell_length_c 26.180(5)
_cell_angle_alpha 90
_cell_angle_beta 91.65(3)
_cell_angle_gamma 90
_cell_formula_units_Z 4
loop_
_atom_type_symbol
_atom_type_radius_bond
C 0.68
H 0.23
N 0.68
O 0.68
loop_
_atom_site_label
_atom_site_type_symbol
_atom_site_fract_x
_atom_site_fract_y
_atom_site_fract_z
N1 N 0.8171(4) 0.3298(2) 0.18614(5)
C1 C 0.8617(4) 0.6612(2) 0.08273(6)
C2 C 0.7935(4) 0.5051(2) 0.10776(5)
H1 H 0.68770 0.41200 0.09070
C3 C 0.7618(5) 0.6787(2) 0.02938(6)
C4 C 1.0183(4) 0.8045(2) 0.10793(6)
C5 C 0.8882(4) 0.4929(2) 0.15883(6)
N2 N 0.6808(5) 0.6958(2) -0.01239(6)
C6 C 1.1068(4) 0.7835(2) 0.15941(7)
H2 H 1.21010 0.87620 0.17700
O1 O 0.9413(5) 0.3114(2) 0.22899(6)
O2 O 0.6345(4) 0.2205(2) 0.16517(6)
C7 C 1.0461(4) 0.6299(2) 0.18501(6)
H3 H 1.11000 0.61820 0.21930
C8 C 1.0878(5) 0.9721(2) 0.08010(7)
H4 H 1.19980 1.05350 0.10300
H5 H 0.87480 1.02130 0.06760
H6 H 1.23330 0.94870 0.05190
#END
