
#######################################################################
#
#                 Cambridge Crystallographic Data Centre
#                                CCDC
#
#######################################################################
#
# If this CIF has been generated from an entry in the Cambridge
# Structural Database, then it will include bibliographic, chemical,
# crystal, experimental, refinement or atomic coordinate data resulting
# from the CCDC's data processing and validation procedures.
#
#######################################################################

data_CSD_CIF_RIZGUD
_audit_creation_date 2008-07-04
_audit_creation_method CSD-ConQuest-V1
_database_code_CSD RIZGUD
_database_code_depnum_ccdc_archive 'CCDC 691020'
_chemical_formula_sum 'C12 H10 N4 O5'
_chemical_formula_moiety
;
C12 H10 N4 O5
;
_journal_coeditor_code "IUCr OM2233"
_journal_coden_Cambridge 1370
_journal_volume 64
_journal_year 2008
_journal_page_first o1153
_journal_name_full 'Acta Crystallogr.,Sect.E:Struct.Rep.Online '
loop_
_publ_author_name
"Shang Shan"
"Yu-Liang Tian"
"Shan-Heng Wang"
"Wen-Long Wang"
"Ying-Li Xu"
_chemical_name_systematic
;
(E)-2-Furyl methyl ketone 2,4-dinitrophenylhydrazone
;
_cell_volume   1258.735
_exptl_crystal_colour 'brown'
_exptl_crystal_density_diffrn 1.532
_exptl_crystal_description 'prism'
_exptl_crystal_preparation 'ethanol'
_diffrn_ambient_temperature 293
#These two values have been output from a single CSD field.
_refine_ls_R_factor_gt 0.038
_refine_ls_wR_factor_gt 0.038
_symmetry_cell_setting monoclinic
_symmetry_space_group_name_H-M 'P 21/c'
_symmetry_Int_Tables_number 14
loop_
_symmetry_equiv_pos_site_id
_symmetry_equiv_pos_as_xyz
1 x,y,z
2 -x,1/2+y,1/2-z
3 -x,-y,-z
4 x,-1/2-y,-1/2+z
_cell_length_a 9.8917(8)
_cell_length_b 12.8477(15)
_cell_length_c 10.6549(12)
_cell_angle_alpha 90
_cell_angle_beta 111.63(2)
_cell_angle_gamma 90
_cell_formula_units_Z 4
loop_
_atom_type_symbol
_atom_type_radius_bond
C 0.68
H 0.23
N 0.68
O 0.68
loop_
_atom_site_label
_atom_site_type_symbol
_atom_site_fract_x
_atom_site_fract_y
_atom_site_fract_z
O1 O 0.13582(13) 0.43547(8) 0.14104(11)
O2 O 0.15573(13) 0.27996(8) 0.22020(12)
O3 O 0.44159(13) 0.19704(8) 0.66737(13)
O4 O 0.52296(15) 0.31707(10) 0.81753(13)
O5 O 0.09817(11) 0.93990(8) 0.18361(12)
N1 N 0.17859(13) 0.37357(9) 0.23615(12)
N2 N 0.45693(14) 0.2893(1) 0.70150(14)
N3 N 0.21841(13) 0.59367(8) 0.30483(12)
H1 H 0.17570 0.57530 0.22190
N4 N 0.22992(13) 0.69747(8) 0.33900(12)
C1 C 0.27421(13) 0.52042(9) 0.40146(14)
C2 C 0.25858(14) 0.41229(10) 0.37100(14)
C3 C 0.31897(14) 0.33809(10) 0.46968(15)
H2 H 0.30850 0.26770 0.44780
C4 C 0.39417(14) 0.3687(1) 0.59975(15)
C5 C 0.40955(15) 0.47424(11) 0.63469(15)
H3 H 0.45970 0.49400 0.72380
C6 C 0.35072(14) 0.54818(10) 0.53751(14)
H4 H 0.36130 0.61820 0.56150
C7 C 0.16518(14) 0.76093(10) 0.24031(14)
C8 C 0.18273(16) 0.87045(10) 0.27796(16)
C9 C 0.26625(19) 0.92158(12) 0.38905(18)
H5 H 0.33290 0.89260 0.46740
C10 C 0.2326(2) 1.02927(13) 0.3632(2)
H6 H 0.27340 1.08420 0.42180
C11 C 0.1335(2) 1.03623(12) 0.2414(2)
H7 H 0.09260 1.09830 0.19970
C12 C 0.07984(19) 0.73130(12) 0.09826(17)
H8 H 0.14470 0.70730 0.05600
H9 H 0.02680 0.79070 0.05020
H10 H 0.01300 0.67670 0.09680
#END
