
#######################################################################
#
#                 Cambridge Crystallographic Data Centre
#                                CCDC
#
#######################################################################
#
# If this CIF has been generated from an entry in the Cambridge
# Structural Database, then it will include bibliographic, chemical,
# crystal, experimental, refinement or atomic coordinate data resulting
# from the CCDC's data processing and validation procedures.
#
#######################################################################

data_CSD_CIF_RIZHAK
_audit_creation_date 2008-07-04
_audit_creation_method CSD-ConQuest-V1
_database_code_CSD RIZHAK
_database_code_depnum_ccdc_archive 'CCDC 691021'
_chemical_formula_sum 'C14 H24 N4 O3'
_chemical_formula_moiety
;
C14 H24 N4 O3
;
_journal_coeditor_code "IUCr RK2083"
_journal_coden_Cambridge 1370
_journal_volume 64
_journal_year 2008
_journal_page_first o1154
_journal_name_full 'Acta Crystallogr.,Sect.E:Struct.Rep.Online '
loop_
_publ_author_name
"Tie-Niu Kang"
"Li Zhang"
"Yun Ling"
"Xin-Ling Yang"
_chemical_name_systematic
;
3-((E)-3,7-Dimethylocta-2,6-dienyl)-5-methyl-N-nitro-1,3,5-oxadiazinan-4-imine
;
_cell_volume   1620.536
_exptl_crystal_colour 'colorless'
_exptl_crystal_density_diffrn 1.215
_exptl_special_details
;
potent insecticidal activity

;
_exptl_crystal_description 'block'
_exptl_crystal_preparation 'methanol'
_diffrn_ambient_temperature 293
#These two values have been output from a single CSD field.
_refine_ls_R_factor_gt 0.0474
_refine_ls_wR_factor_gt 0.0474
_symmetry_cell_setting monoclinic
_symmetry_space_group_name_H-M 'P 21/c'
_symmetry_Int_Tables_number 14
loop_
_symmetry_equiv_pos_site_id
_symmetry_equiv_pos_as_xyz
1 x,y,z
2 -x,1/2+y,1/2-z
3 -x,-y,-z
4 x,-1/2-y,-1/2+z
_cell_length_a 7.9318(16)
_cell_length_b 6.6423(13)
_cell_length_c 31.191(7)
_cell_angle_alpha 90
_cell_angle_beta 99.55(3)
_cell_angle_gamma 90
_cell_formula_units_Z 4
loop_
_atom_type_symbol
_atom_type_radius_bond
C 0.68
H 0.23
N 0.68
O 0.68
loop_
_atom_site_label
_atom_site_type_symbol
_atom_site_fract_x
_atom_site_fract_y
_atom_site_fract_z
O1 O -0.0768(3) 0.9179(3) 0.82543(8)
O2 O -0.2995(3) 1.0170(4) 0.85187(8)
O3 O -0.1951(2) 0.2689(3) 0.74730(7)
N1 N -0.2308(3) 0.9002(4) 0.82899(8)
N2 N -0.3292(3) 0.7617(4) 0.80698(8)
N3 N -0.1290(3) 0.4939(4) 0.80512(8)
N4 N -0.3001(3) 0.6021(4) 0.74324(8)
C1 C -0.2455(3) 0.6227(4) 0.78538(9)
C2 C -0.0594(4) 0.3511(5) 0.77744(10)
H1 H 0.02120 0.41830 0.76210
H2 H 0.00040 0.24450 0.79500
C3 C -0.2672(4) 0.4183(5) 0.71928(10)
H3 H -0.37390 0.36990 0.70270
H4 H -0.19070 0.45020 0.69900
C4 C -0.4042(4) 0.7564(5) 0.71773(10)
H5 H -0.38820 0.74820 0.68790
H6 H -0.37000 0.88710 0.72910
H7 H -0.52250 0.73480 0.71950
C5 C -0.0734(3) 0.4762(5) 0.85230(9)
H8 H -0.10160 0.34330 0.86190
H9 H -0.13320 0.57470 0.86720
C6 C 0.1153(4) 0.5098(5) 0.86376(10)
H10 H 0.15670 0.62750 0.85320
C7 C 0.2293(4) 0.3932(5) 0.88694(10)
C8 C 0.4169(4) 0.4518(6) 0.89472(10)
H11 H 0.48350 0.34030 0.88640
H12 H 0.43280 0.56540 0.87630
C9 C 0.4840(4) 0.5072(7) 0.94162(11)
H13 H 0.42400 0.62540 0.94940
H14 H 0.46150 0.39760 0.96040
C10 C 0.6736(4) 0.5496(6) 0.94863(11)
H15 H 0.74440 0.43830 0.94830
C11 C 0.7505(4) 0.7241(6) 0.95516(10)
C12 C 0.9427(5) 0.7390(6) 0.96099(13)
H16 H 0.97420 0.84050 0.94190
H17 H 0.98920 0.61170 0.95420
H18 H 0.98700 0.77440 0.99060
C13 C 0.6634(6) 0.9221(6) 0.95783(15)
H19 H 0.70910 0.98700 0.98480
H20 H 0.54300 0.90070 0.95650
H21 H 0.68240 1.00580 0.93400
C14 C 0.1868(5) 0.2002(6) 0.90720(13)
H22 H 0.26560 0.09750 0.90160
H23 H 0.07250 0.16050 0.89500
H24 H 0.19500 0.21830 0.93800
#END
