
#######################################################################
#
#                 Cambridge Crystallographic Data Centre
#                                CCDC
#
#######################################################################
#
# If this CIF has been generated from an entry in the Cambridge
# Structural Database, then it will include bibliographic, chemical,
# crystal, experimental, refinement or atomic coordinate data resulting
# from the CCDC's data processing and validation procedures.
#
#######################################################################

data_CSD_CIF_ROCBAM
_audit_creation_date 1997-12-19
_audit_creation_method CSD-ConQuest-V1
_database_code_CSD ROCBAM
_chemical_formula_sum 'C29 H32 N2 O10'
_chemical_formula_moiety
;
C29 H32 N2 O10
;
_journal_coden_Cambridge 35
_journal_volume 62
_journal_year 1997
_journal_page_first 1083
_journal_name_full 'J.Org.Chem. '
loop_
_publ_author_name
"F.E.Ziegler"
"M.Belema"
_chemical_name_systematic
;
Methyl 
(1aS,8R,9S,9aS)-1,1a,2,8,9,9a-hexahydro-8-((acetoxy)methyl)-7-(benzyloxy)-1-(t
-butoxycarbonyl)-8-formyl-9-hydroxy-3,9-epoxy-3H-azirino(2,3-c)(1)benzazocin-5
-carboxylate
;
_cell_volume   2800.920
_exptl_crystal_colour 'colorless'
_exptl_crystal_density_diffrn 1.348
_diffrn_ambient_temperature ?
_diffrn_special_details
;
The study was carried out at room temperature,in the range 283-303K

;
#These two values have been output from a single CSD field.
_refine_ls_R_factor_gt 0.046
_refine_ls_wR_factor_gt 0.046
_symmetry_cell_setting orthorhombic
_symmetry_space_group_name_H-M 'P 21 21 21'
_symmetry_Int_Tables_number 19
loop_
_symmetry_equiv_pos_site_id
_symmetry_equiv_pos_as_xyz
1 x,y,z
2 1/2-x,-y,1/2+z
3 1/2+x,1/2-y,-z
4 -x,1/2+y,1/2-z
_cell_length_a 10.334(4)
_cell_length_b 14.321(5)
_cell_length_c 18.926(3)
_cell_angle_alpha 90
_cell_angle_beta 90
_cell_angle_gamma 90
_cell_formula_units_Z 4
loop_
_atom_type_symbol
_atom_type_radius_bond
C 0.68
N 0.68
O 0.68
loop_
_atom_site_label
_atom_site_type_symbol
_atom_site_fract_x
_atom_site_fract_y
_atom_site_fract_z
O1 O 0.5948(3) 0.4552(2) 0.8925(2)
O2 O 0.7121(5) 0.2195(3) 0.6756(2)
O3 O 0.6533(4) 0.3610(3) 0.6360(2)
O4 O 1.2763(3) 0.4124(3) 0.8745(2)
O5 O 1.1597(3) 0.2972(3) 0.9182(2)
O6 O 0.9231(3) 0.6035(2) 0.7458(2)
O7 O 0.6104(4) 0.6073(3) 0.6868(2)
O8 O 0.7713(3) 0.6923(2) 0.8488(2)
O9 O 0.7277(6) 0.7942(4) 0.7637(4)
O10 O 0.4599(3) 0.5279(3) 0.8174(2)
N1 N 0.6766(4) 0.3398(3) 0.7516(2)
N2 N 0.7007(3) 0.3930(3) 0.9017(2)
C1 C 0.5989(5) 0.2988(4) 0.8085(2)
C2 C 0.6595(5) 0.2994(4) 0.8802(2)
C3 C 0.8166(4) 0.4277(3) 0.8696(2)
C4 C 0.9314(5) 0.3864(3) 0.8895(2)
C5 C 1.0468(5) 0.4194(3) 0.8627(2)
C6 C 1.0484(4) 0.4941(3) 0.8165(3)
C7 C 0.9330(5) 0.5329(3) 0.7948(2)
C8 C 0.8145(4) 0.5018(3) 0.8219(2)
C9 C 0.6859(4) 0.5453(3) 0.7973(2)
C10 C 0.5743(4) 0.4776(3) 0.8193(2)
C11 C 0.5607(5) 0.3878(4) 0.7771(3)
C12 C 0.6811(5) 0.2984(4) 0.6853(3)
C13 C 0.6670(5) 0.3406(4) 0.5602(3)
C14 C 0.570(1) 0.2711(8) 0.5403(4)
C15 C 0.629(1) 0.4300(7) 0.5259(4)
C16 C 0.7986(7) 0.316(1) 0.5447(4)
C17 C 1.1732(5) 0.3775(4) 0.8850(2)
C18 C 1.2784(5) 0.2512(4) 0.9389(3)
C19 C 1.0400(5) 0.6465(3) 0.7191(3)
C20 C 1.1053(5) 0.5939(3) 0.6617(3)
C21 C 1.2356(6) 0.5691(4) 0.6669(3)
C22 C 1.2994(7) 0.5267(5) 0.6108(4)
C23 C 1.2330(7) 0.5068(5) 0.5514(3)
C24 C 1.1061(7) 0.5283(5) 0.5432(3)
C25 C 1.0422(6) 0.5723(4) 0.5996(3)
C26 C 0.6810(5) 0.5555(3) 0.7181(3)
C27 C 0.6563(5) 0.6383(4) 0.8349(3)
C28 C 0.7913(7) 0.7701(4) 0.8133(4)
C29 C 0.9135(7) 0.8182(4) 0.8328(3)
#END
