
#######################################################################
#
#                 Cambridge Crystallographic Data Centre
#                                CCDC
#
#######################################################################
#
# If this CIF has been generated from an entry in the Cambridge
# Structural Database, then it will include bibliographic, chemical,
# crystal, experimental, refinement or atomic coordinate data resulting
# from the CCDC's data processing and validation procedures.
#
#######################################################################

data_CSD_CIF_ROCMUS
_audit_creation_date 2008-11-06
_audit_creation_method CSD-ConQuest-V1
_database_code_CSD ROCMUS
_database_code_depnum_ccdc_archive 'CCDC 679403'
_chemical_formula_sum 'C14 H14 N2 O3'
_chemical_formula_moiety
;
C14 H14 N2 O3
;
_journal_coden_Cambridge 177
_journal_volume 6
_journal_year 2008
_journal_page_first 2574
_journal_name_full 'Org.Biomol.Chem. '
loop_
_publ_author_name
"C.Berini"
"F.Minassian"
"N.Pelloux-Leon"
"J.-N.Denis"
"Y.Vallee"
"C.Philouze"
_chemical_name_systematic
;
(3R,5R)-4-Hydroxy-5-phenyl-3-(1H-pyrrol-3-yl)morpholin-2-one
;
_chemical_melting_point 342.15
_cell_volume   1271.832
_exptl_crystal_colour 'brown'
_exptl_crystal_density_diffrn 1.349
_exptl_special_details
;
Melting point range 342.15-343.15K
Absolute configuration

;
_exptl_crystal_description 'block'
_diffrn_ambient_temperature 293.0
_diffrn_special_details
;
twin

;
#These two values have been output from a single CSD field.
_refine_ls_R_factor_gt 0.049
_refine_ls_wR_factor_gt 0.049
_symmetry_cell_setting orthorhombic
_symmetry_space_group_name_H-M 'P 21 21 21'
_symmetry_Int_Tables_number 19
loop_
_symmetry_equiv_pos_site_id
_symmetry_equiv_pos_as_xyz
1 x,y,z
2 1/2-x,-y,1/2+z
3 1/2+x,1/2-y,-z
4 -x,1/2+y,1/2-z
_cell_length_a 5.960(1)
_cell_length_b 12.835(2)
_cell_length_c 16.626(1)
_cell_angle_alpha 90
_cell_angle_beta 90
_cell_angle_gamma 90
_cell_formula_units_Z 4
loop_
_atom_type_symbol
_atom_type_radius_bond
C 0.68
H 0.23
N 0.68
O 0.68
loop_
_atom_site_label
_atom_site_type_symbol
_atom_site_fract_x
_atom_site_fract_y
_atom_site_fract_z
O1 O 1.3360(3) -0.1254(2) 0.5615(1)
O2 O 0.8259(3) -0.1420(1) 0.5656(1)
O3 O 1.3572(4) -0.2115(2) 0.6740(2)
N1 N 1.3505(5) 0.1226(2) 0.7766(2)
N2 N 0.9079(3) -0.0485(2) 0.6046(1)
C1 C 0.8959(4) 0.0670(2) 0.4852(2)
C2 C 1.3515(5) 0.0424(3) 0.7218(2)
C3 C 1.2580(5) -0.1474(2) 0.6350(2)
C4 C 0.6913(5) 0.1079(2) 0.5101(2)
C5 C 1.0607(5) -0.0871(2) 0.6679(2)
C6 C 1.1409(5) 0.0013(2) 0.7201(2)
C7 C 0.5633(5) 0.1707(3) 0.4599(2)
C8 C 1.0101(6) 0.0572(2) 0.7746(2)
C9 C 0.6397(6) 0.1940(2) 0.3839(2)
C10 C 1.0416(4) 0.0080(2) 0.5436(1)
C11 C 1.1436(7) 0.1320(2) 0.8082(2)
C12 C 0.8408(7) 0.1558(3) 0.3586(2)
C13 C 1.2057(5) -0.0657(2) 0.5036(2)
C14 C 0.9696(6) 0.0915(3) 0.4078(2)
H1 H 0.68810 -0.13170 0.54630
H2 H 1.47610 0.16470 0.79000
H3 H 0.97710 -0.13310 0.70110
H4 H 1.12830 0.05840 0.57180
H5 H 1.30570 -0.02620 0.47120
H6 H 1.12410 -0.11270 0.47060
H7 H 1.47630 0.01970 0.69090
H8 H 0.85610 0.04540 0.78630
H9 H 1.09830 0.18200 0.84710
H10 H 0.63790 0.09260 0.56260
H11 H 0.42350 0.19740 0.47800
H12 H 0.55250 0.23670 0.34920
H13 H 0.89410 0.17320 0.30640
H14 H 1.10790 0.06430 0.38870
#END
