
#######################################################################
#
#                 Cambridge Crystallographic Data Centre
#                                CCDC
#
#######################################################################
#
# If this CIF has been generated from an entry in the Cambridge
# Structural Database, then it will include bibliographic, chemical,
# crystal, experimental, refinement or atomic coordinate data resulting
# from the CCDC's data processing and validation procedures.
#
#######################################################################

data_CSD_CIF_ROCPOP
_audit_creation_date 2008-11-06
_audit_creation_method CSD-ConQuest-V1
_database_code_CSD ROCPOP
_database_code_depnum_ccdc_archive 'CCDC 676372'
_chemical_formula_sum 'C27 H20 N2 O12'
_chemical_formula_moiety
;
C27 H20 N2 O12
;
_journal_coden_Cambridge 177
_journal_volume 6
_journal_year 2008
_journal_page_first 2619
_journal_name_full 'Org.Biomol.Chem. '
loop_
_publ_author_name
"B.Raffaelli"
"M.Pohjoispaa"
"T.Hase"
"C.J.Cardin"
"Yu Gan"
"K.Wahala"
_chemical_name_systematic
;
(7'S,8S,8'R)-3,3',4,4'-bis(Methylenedioxy)-3,3'-dimethoxy-8'-(3,5-dinitrobenzo
yloxy)methyllignano-9,7'-lactone
;
_chemical_name_common
;
(2-(1,3-benzodioxol-5-yl)-4-(1,3-benzodioxol-5-ylmethyl)-5-oxotetrahydrofuran-
3-yl)methyl 3,5-dinitrobenzoate
;
_chemical_melting_point 455.15
_cell_volume   1217.745
_exptl_crystal_colour 'yellow'
_exptl_crystal_density_diffrn 1.539
_exptl_special_details
;
Melting point range 455.15-456.15K
Absolute configuration

;
_exptl_crystal_description 'block'
_diffrn_ambient_temperature 150
#These two values have been output from a single CSD field.
_refine_ls_R_factor_gt 0.0292
_refine_ls_wR_factor_gt 0.0292
_symmetry_cell_setting monoclinic
_symmetry_space_group_name_H-M 'P 21'
_symmetry_Int_Tables_number 4
loop_
_symmetry_equiv_pos_site_id
_symmetry_equiv_pos_as_xyz
1 x,y,z
2 -x,1/2+y,-z
_cell_length_a 13.1713(3)
_cell_length_b 7.0422(1)
_cell_length_c 14.1832(3)
_cell_angle_alpha 90
_cell_angle_beta 112.234(3)
_cell_angle_gamma 90
_cell_formula_units_Z 2
loop_
_atom_type_symbol
_atom_type_radius_bond
C 0.68
H 0.23
N 0.68
O 0.68
loop_
_atom_site_label
_atom_site_type_symbol
_atom_site_fract_x
_atom_site_fract_y
_atom_site_fract_z
O1 O 0.26504(9) 0.5231(2) 0.14812(9)
O2 O 0.17694(10) 0.8020(2) 0.13347(9)
O3 O 0.41966(11) 0.2236(2) -0.16454(10)
O4 O 0.41560(12) -0.1980(2) 0.29556(10)
O5 O -0.03022(10) -0.0944(2) -0.08592(9)
O6 O -0.01004(11) -0.3291(2) -0.19132(10)
O7 O 0.01278(14) 0.9424(3) 0.38094(11)
C1 C 0.14028(14) 0.7276(3) 0.31215(13)
H1 H 0.11590 0.84350 0.28020
C2 C 0.40313(14) 0.2814(3) -0.09241(14)
N1 N 0.05572(14) 0.8065(3) 0.43360(12)
O8 O 0.29356(14) 0.0911(3) 0.42034(12)
O9 O 0.46986(10) 0.2350(2) 0.00437(10)
O10 O 0.55133(11) -0.0771(2) 0.43885(10)
C3 C 0.23586(14) 0.4304(3) 0.32431(13)
H2 H 0.27590 0.34720 0.30090
C4 C 0.15335(16) 0.5050(3) 0.44691(14)
H3 H 0.13740 0.47210 0.50330
C5 C 0.11951(15) 0.6757(3) 0.39686(13)
N2 N 0.24844(14) 0.2016(3) 0.45866(13)
C6 C 0.05337(15) -0.1740(3) -0.19284(13)
C7 C 0.04173(14) -0.0332(3) -0.13001(13)
C8 C 0.08813(15) 0.1415(3) -0.12380(13)
H4 H 0.07720 0.23610 -0.08290
C9 C 0.31555(14) 0.3858(3) 0.01732(13)
H5 H 0.27090 0.27680 0.02080
C10 C 0.45114(15) -0.0285(3) 0.27208(14)
C11 C 0.21204(15) 0.3856(3) 0.40891(15)
C12 C 0.20252(16) 0.3682(3) -0.18025(14)
H6 H 0.14950 0.46290 -0.17900
H7 H 0.21390 0.38470 -0.24340
O11 O 0.23315(15) 0.1677(3) 0.53702(13)
C13 C 0.19874(14) 0.6020(3) 0.27533(13)
C14 C 0.27488(16) 0.5629(3) 0.05169(14)
H8 H 0.32600 0.66640 0.05960
H9 H 0.20420 0.59970 0.00140
C15 C 0.46728(14) 0.2341(3) 0.17498(14)
C16 C 0.55001(17) 0.3063(4) 0.26147(15)
H10 H 0.58360 0.42020 0.25690
O12 O 0.04825(18) 0.7709(3) 0.51451(14)
C17 C 0.11558(16) -0.1468(3) -0.25076(15)
H11 H 0.12370 -0.24150 -0.29300
C18 C 0.31115(14) 0.4082(3) -0.09159(13)
H12 H 0.33200 0.53930 -0.09890
C19 C 0.15337(15) 0.1743(3) -0.18147(13)
C20 C 0.21250(14) 0.6569(3) 0.17927(13)
C21 C 0.43728(15) 0.3429(3) 0.07791(14)
H13 H 0.47760 0.46330 0.09260
C22 C -0.04864(17) -0.2905(3) -0.11162(15)
H14 H -0.12620 -0.31930 -0.13430
H15 H -0.00960 -0.36830 -0.05260
C23 C 0.16588(15) 0.0302(3) -0.24292(14)
H16 H 0.20940 0.05240 -0.28030
C24 C 0.41601(15) 0.0627(3) 0.18032(14)
H17 H 0.36010 0.01290 0.12350
C25 C 0.53334(15) 0.0450(3) 0.35751(14)
C26 C 0.58399(18) 0.2114(4) 0.35545(16)
H18 H 0.63860 0.26040 0.41340
C27 C 0.4816(2) -0.2357(4) 0.39874(17)
H19 H 0.52520 -0.34890 0.40350
H20 H 0.43560 -0.25680 0.43740
#END
