
#######################################################################
#
#                 Cambridge Crystallographic Data Centre
#                                CCDC
#
#######################################################################
#
# If this CIF has been generated from an entry in the Cambridge
# Structural Database, then it will include bibliographic, chemical,
# crystal, experimental, refinement or atomic coordinate data resulting
# from the CCDC's data processing and validation procedures.
#
#######################################################################

data_CSD_CIF_RODHUO
_audit_creation_date 2008-11-06
_audit_creation_method CSD-ConQuest-V1
_database_code_CSD RODHUO
_database_code_depnum_ccdc_archive 'CCDC 633036'
_chemical_formula_sum 'C17 H13 N1 O3'
_chemical_formula_moiety
;
C17 H13 N1 O3
;
_journal_coden_Cambridge 95
_journal_year 2007
_journal_page_first 1182
_journal_name_full 'Izv.Akad.Nauk SSSR,Ser.Khim.(Russ.)(Russ.Chem.Bull.) '
loop_
_publ_author_name
"N.V.Chukanov"
"S.A.Popov"
"G.V.Romanenko"
"V.A.Reznikov"
_chemical_name_systematic
;
Methyl 3,5-diphenylisoxazole-4-carboxylate
;
_chemical_melting_point 372.15
_cell_volume    678.077
_exptl_crystal_density_diffrn 1.368
_exptl_special_details
;
Melting point range 372.15-373.15K

;
_exptl_crystal_preparation 'hexane'
_diffrn_ambient_temperature 240
#These two values have been output from a single CSD field.
_refine_ls_R_factor_gt 0.0663
_refine_ls_wR_factor_gt 0.0663
_symmetry_cell_setting triclinic
_symmetry_space_group_name_H-M 'P -1'
_symmetry_Int_Tables_number 2
loop_
_symmetry_equiv_pos_site_id
_symmetry_equiv_pos_as_xyz
1 x,y,z
2 -x,-y,-z
_cell_length_a 8.205(4)
_cell_length_b 9.153(4)
_cell_length_c 9.786(4)
_cell_angle_alpha 82.882(8)
_cell_angle_beta 78.285(8)
_cell_angle_gamma 70.745(7)
_cell_formula_units_Z 2
loop_
_atom_type_symbol
_atom_type_radius_bond
C 0.68
H 0.23
N 0.68
O 0.68
loop_
_atom_site_label
_atom_site_type_symbol
_atom_site_fract_x
_atom_site_fract_y
_atom_site_fract_z
O1 O 0.2955(3) 0.4279(2) 0.0867(2)
N1 N 0.8648(3) 0.1674(3) 0.0289(2)
C1 C 0.1206(5) 0.5043(6) 0.1541(5)
H1 H 0.069(7) 0.570(7) 0.056(5)
H2 H 0.118(6) 0.575(6) 0.214(5)
H3 H 0.068(7) 0.447(7) 0.194(5)
O2 O 0.3713(3) 0.3356(4) 0.2925(2)
C2 C 0.4068(4) 0.3440(4) 0.1691(3)
O3 O 0.7900(3) 0.1461(3) -0.0791(3)
C3 C 0.5784(4) 0.2671(3) 0.0873(3)
C4 C 0.6182(4) 0.2075(3) -0.0427(3)
C5 C 0.5146(4) 0.1899(3) -0.1423(3)
C6 C 0.3549(4) 0.1659(4) -0.0972(4)
H4 H 0.308(5) 0.162(4) 0.001(4)
C7 C 0.2656(5) 0.1423(4) -0.1916(4)
H5 H 0.166(5) 0.109(4) -0.155(4)
C8 C 0.3335(5) 0.1428(5) -0.3304(4)
H6 H 0.273(5) 0.126(5) -0.396(4)
C9 C 0.4923(6) 0.1669(5) -0.3759(4)
H7 H 0.540(5) 0.165(5) -0.465(4)
C10 C 0.5820(5) 0.1902(4) -0.2824(3)
H8 H 0.686(5) 0.218(4) -0.314(3)
C11 C 0.7384(4) 0.2378(4) 0.1285(3)
C12 C 0.7959(4) 0.2671(3) 0.2492(3)
C13 C 0.9437(5) 0.1618(4) 0.2933(4)
H9 H 0.999(5) 0.081(5) 0.247(3)
C14 C 1.0061(5) 0.1872(4) 0.4016(4)
H10 H 1.111(6) 0.104(6) 0.448(4)
C15 C 0.9231(5) 0.3187(5) 0.4731(4)
H11 H 0.970(4) 0.343(4) 0.555(3)
C16 C 0.7755(5) 0.4253(5) 0.4323(4)
H12 H 0.714(5) 0.521(5) 0.475(4)
C17 C 0.7124(4) 0.3990(4) 0.3218(4)
H13 H 0.616(5) 0.473(5) 0.292(4)
#END
