
#######################################################################
#
#                 Cambridge Crystallographic Data Centre
#                                CCDC
#
#######################################################################
#
# If this CIF has been generated from an entry in the Cambridge
# Structural Database, then it will include bibliographic, chemical,
# crystal, experimental, refinement or atomic coordinate data resulting
# from the CCDC's data processing and validation procedures.
#
#######################################################################

data_CSD_CIF_ROFHAV
_audit_creation_date 1998-01-15
_audit_creation_method CSD-ConQuest-V1
_database_code_CSD ROFHAV
_database_code_depnum_ccdc_archive 'CCDC 1251312'
_chemical_formula_sum 'C9 H8 N4 O7'
_chemical_formula_moiety
;
C9 H8 N4 O7
;
_journal_coden_Cambridge 35
_journal_volume 61
_journal_year 1996
_journal_page_first 8786
_journal_name_full 'J.Org.Chem. '
loop_
_publ_author_name
"A.V.Samet"
"M.E.Niyazymbetov"
"V.V.Semenov"
"A.L.Laikhter"
"D.H.Evans"
_chemical_name_systematic
;
4-(3,4-Dinitropyrazolyl)-levoglucosenone
;
_cell_volume   1117.038
_exptl_crystal_colour 'yellow'
_exptl_crystal_density_diffrn 1.696
_diffrn_ambient_temperature ?
_diffrn_special_details
;
The study was carried out at room temperature,in the range 283-303K

;
#These two values have been output from a single CSD field.
_refine_ls_R_factor_gt 0.0341
_refine_ls_wR_factor_gt 0.0341
loop_
_citation_database_id_CSD
_citation_special_details
RUXFAT "is a stereoisomer of this entry"
_symmetry_cell_setting orthorhombic
_symmetry_space_group_name_H-M 'P 21 21 21'
_symmetry_Int_Tables_number 19
loop_
_symmetry_equiv_pos_site_id
_symmetry_equiv_pos_as_xyz
1 x,y,z
2 1/2-x,-y,1/2+z
3 1/2+x,1/2-y,-z
4 -x,1/2+y,1/2-z
_cell_length_a 6.512(2)
_cell_length_b 8.546(2)
_cell_length_c 20.072(6)
_cell_angle_alpha 90
_cell_angle_beta 90
_cell_angle_gamma 90
_cell_formula_units_Z 4
loop_
_atom_type_symbol
_atom_type_radius_bond
C 0.68
H 0.23
N 0.68
O 0.68
loop_
_atom_site_label
_atom_site_type_symbol
_atom_site_fract_x
_atom_site_fract_y
_atom_site_fract_z
O1 O 1.3095(5) -0.0414(4) 0.4811(2)
O2 O 1.0123(3) 0.0615(2) 0.35233(9)
O3 O 0.9888(4) 0.2389(3) 0.4354(1)
O4 O 1.3204(3) -0.5178(3) 0.3674(1)
O5 O 1.1812(4) -0.6019(3) 0.2770(1)
O6 O 0.7685(4) -0.6706(3) 0.2603(1)
O7 O 0.5931(4) -0.4773(3) 0.2213(1)
N1 N 0.8334(4) -0.2382(3) 0.3791(1)
N2 N 1.0183(4) -0.3092(3) 0.3818(1)
N3 N 1.1801(4) -0.5224(3) 0.3275(1)
N4 N 0.7179(4) -0.5332(3) 0.2596(1)
C1 C 0.7937(5) -0.0976(3) 0.4202(1)
C2 C 0.9464(7) -0.0879(4) 0.4776(2)
C3 C 1.1439(6) -0.0085(4) 0.4582(2)
C4 C 1.1161(5) 0.1214(4) 0.4081(2)
C5 C 0.8064(4) 0.0483(3) 0.3769(2)
C6 C 0.7810(6) 0.1986(3) 0.4172(2)
C7 C 1.0009(4) -0.4265(3) 0.3389(1)
C8 C 0.8080(5) -0.4277(3) 0.3081(1)
C9 C 0.7057(5) -0.3039(3) 0.3351(2)
H1 H 0.65710 -0.10420 0.43810
H2 H 0.88510 -0.02970 0.51330
H3 H 0.97640 -0.19110 0.49370
H4 H 1.24700 0.16310 0.39500
H5 H 0.71040 0.04360 0.34060
H6 H 0.69920 0.17940 0.45620
H7 H 0.71830 0.27980 0.39120
H8 H 0.56930 -0.26950 0.32450
#END
