
#######################################################################
#
#                 Cambridge Crystallographic Data Centre
#                                CCDC
#
#######################################################################
#
# If this CIF has been generated from an entry in the Cambridge
# Structural Database, then it will include bibliographic, chemical,
# crystal, experimental, refinement or atomic coordinate data resulting
# from the CCDC's data processing and validation procedures.
#
#######################################################################

data_CSD_CIF_ROFNIK
_audit_creation_date 2008-11-06
_audit_creation_method CSD-ConQuest-V1
_database_code_CSD ROFNIK
_database_code_depnum_ccdc_archive 'CCDC 706073'
_chemical_formula_sum 'C8 H7 N5 O2'
_chemical_formula_moiety
;
C8 H7 N5 O2
;
_journal_coeditor_code "IUCr CI2669"
_journal_coden_Cambridge 1370
_journal_volume 64
_journal_year 2008
_journal_page_first o1944
_journal_name_full 'Acta Crystallogr.,Sect.E:Struct.Rep.Online '
loop_
_publ_author_name
"J.Dai"
"W.Dai"
_chemical_name_systematic
;
5-(2-Methyl-5-nitrophenyl)-1H-tetrazole
;
_cell_volume    941.658
_exptl_crystal_colour 'colorless'
_exptl_crystal_density_diffrn 1.447
_exptl_crystal_description 'Block'
_exptl_crystal_preparation 'ethanol'
_diffrn_ambient_temperature 298
#These two values have been output from a single CSD field.
_refine_ls_R_factor_gt 0.0819
_refine_ls_wR_factor_gt 0.0819
_symmetry_cell_setting monoclinic
_symmetry_space_group_name_H-M 'P 21/c'
_symmetry_Int_Tables_number 14
loop_
_symmetry_equiv_pos_site_id
_symmetry_equiv_pos_as_xyz
1 x,y,z
2 -x,1/2+y,1/2-z
3 -x,-y,-z
4 x,-1/2-y,-1/2+z
_cell_length_a 4.9057(10)
_cell_length_b 16.938(3)
_cell_length_c 11.463(2)
_cell_angle_alpha 90
_cell_angle_beta 98.65(3)
_cell_angle_gamma 90
_cell_formula_units_Z 4
loop_
_atom_type_symbol
_atom_type_radius_bond
C 0.68
H 0.23
N 0.68
O 0.68
loop_
_atom_site_label
_atom_site_type_symbol
_atom_site_fract_x
_atom_site_fract_y
_atom_site_fract_z
O1 O -0.0317(10) 0.86679(19) 0.3611(3)
O2 O -0.2052(8) 0.7689(2) 0.4436(3)
N1 N 0.5142(5) 0.48416(16) 0.3549(2)
H1 H 0.67660 0.49700 0.34190
N2 N 0.0825(5) 0.48791(16) 0.3638(2)
N3 N 0.1836(6) 0.41763(16) 0.4075(3)
C1 C 0.2904(6) 0.52855(17) 0.3320(3)
N4 N 0.4451(6) 0.41548(16) 0.4018(3)
C2 C 0.2681(6) 0.61097(19) 0.2897(3)
C3 C 0.3890(7) 0.6358(2) 0.1932(3)
C4 C 0.1193(7) 0.6641(2) 0.3495(3)
H2 H 0.03490 0.64730 0.41250
C5 C 0.1007(7) 0.7403(2) 0.3140(3)
C6 C 0.3672(8) 0.7152(2) 0.1624(3)
H3 H 0.45100 0.73330 0.09990
N5 N -0.0555(8) 0.7961(2) 0.3775(3)
C7 C 0.2254(9) 0.7676(2) 0.2220(4)
H4 H 0.21360 0.82060 0.20060
C8 C 0.5334(9) 0.5794(2) 0.1215(4)
H5 H 0.41640 0.53470 0.09920
H6 H 0.70200 0.56180 0.16770
H7 H 0.57380 0.60560 0.05190
#END
