
#######################################################################
#
#                 Cambridge Crystallographic Data Centre
#                                CCDC
#
#######################################################################
#
# If this CIF has been generated from an entry in the Cambridge
# Structural Database, then it will include bibliographic, chemical,
# crystal, experimental, refinement or atomic coordinate data resulting
# from the CCDC's data processing and validation procedures.
#
#######################################################################

data_CSD_CIF_ROFXEQ
_audit_creation_date 2008-11-06
_audit_creation_method CSD-ConQuest-V1
_database_code_CSD ROFXEQ
_database_code_depnum_ccdc_archive 'CCDC 706114'
_chemical_formula_sum 'C12 H12 N6 O2'
_chemical_formula_moiety
;
C12 H12 N6 O2
;
_journal_coeditor_code "IUCr LH2694"
_journal_coden_Cambridge 1370
_journal_volume 64
_journal_year 2008
_journal_page_first o1994
_journal_name_full 'Acta Crystallogr.,Sect.E:Struct.Rep.Online '
loop_
_publ_author_name
"Lin Yan Yang"
"Jing Min Shi"
_chemical_name_systematic
;
2,3-bis(pyrazin-2-yloxyimino)butane
;
_cell_volume    636.345
_exptl_crystal_colour 'colorless'
_exptl_crystal_density_diffrn 1.421
_exptl_crystal_description 'needle'
_exptl_crystal_preparation 'dichloromethane/methanol'
_diffrn_ambient_temperature 298
#These two values have been output from a single CSD field.
_refine_ls_R_factor_gt 0.0569
_refine_ls_wR_factor_gt 0.0569
_symmetry_cell_setting monoclinic
_symmetry_space_group_name_H-M 'P 21/n'
_symmetry_Int_Tables_number 14
loop_
_symmetry_equiv_pos_site_id
_symmetry_equiv_pos_as_xyz
1 x,y,z
2 1/2-x,1/2+y,1/2-z
3 -x,-y,-z
4 -1/2+x,-1/2-y,-1/2+z
_cell_length_a 4.7396(15)
_cell_length_b 17.141(5)
_cell_length_c 7.911(3)
_cell_angle_alpha 90
_cell_angle_beta 98.065(5)
_cell_angle_gamma 90
_cell_formula_units_Z 2
loop_
_atom_type_symbol
_atom_type_radius_bond
C 0.68
H 0.23
N 0.68
O 0.68
loop_
_atom_site_label
_atom_site_type_symbol
_atom_site_fract_x
_atom_site_fract_y
_atom_site_fract_z
C1 C 0.4107(4) 0.53547(11) -0.0115(3)
C2 C 0.4063(5) 0.58565(13) -0.1667(3)
H1 H 0.21720 0.58640 -0.22900
H2 H 0.53640 0.56500 -0.23800
H3 H 0.46230 0.63780 -0.13260
C3 C -0.0460(5) 0.63257(12) 0.2132(3)
C4 C -0.0315(5) 0.58891(14) 0.3610(3)
H4 H 0.08720 0.54550 0.37520
C5 C -0.3601(5) 0.71330(13) 0.3082(3)
H5 H -0.47770 0.75690 0.29420
C6 C -0.3497(5) 0.67050(14) 0.4551(3)
H6 H -0.46100 0.68560 0.53730
N1 N 0.2691(4) 0.54817(9) 0.1113(2)
N2 N -0.2076(4) 0.69473(10) 0.1842(2)
N3 N -0.1848(5) 0.60809(12) 0.4829(3)
O1 O 0.1028(3) 0.61679(8) 0.07990(19)
C1B C 0.5893(4) 0.46453(11) 0.0115(3)
C2B C 0.5937(5) 0.41435(13) 0.1667(3)
H1B H 0.78280 0.41360 0.22900
H2B H 0.46360 0.43500 0.23800
H3B H 0.53770 0.36220 0.13260
C3B C 1.0460(5) 0.36743(12) -0.2132(3)
C4B C 1.0315(5) 0.41109(14) -0.3610(3)
H4B H 0.91280 0.45450 -0.37520
C5B C 1.3601(5) 0.28670(13) -0.3082(3)
H5B H 1.47770 0.24310 -0.29420
C6B C 1.3497(5) 0.32950(14) -0.4551(3)
H6B H 1.46100 0.31440 -0.53730
N1B N 0.7309(4) 0.45183(9) -0.1113(2)
N2B N 1.2076(4) 0.30527(10) -0.1842(2)
N3B N 1.1848(5) 0.39191(12) -0.4829(3)
O1B O 0.8972(3) 0.38321(8) -0.07990(19)
#END
