
#######################################################################
#
#                 Cambridge Crystallographic Data Centre
#                                CCDC
#
#######################################################################
#
# If this CIF has been generated from an entry in the Cambridge
# Structural Database, then it will include bibliographic, chemical,
# crystal, experimental, refinement or atomic coordinate data resulting
# from the CCDC's data processing and validation procedures.
#
#######################################################################

data_CSD_CIF_ROFXAM
_audit_creation_date 2008-11-06
_audit_creation_method CSD-ConQuest-V1
_database_code_CSD ROFXAM
_database_code_depnum_ccdc_archive 'CCDC 706113'
_chemical_formula_sum 'C35 H33 N3 O6'
_chemical_formula_moiety
;
C35 H33 N3 O6
;
_journal_coeditor_code "IUCr CV2439"
_journal_coden_Cambridge 1370
_journal_volume 64
_journal_year 2008
_journal_page_first o1993
_journal_name_full 'Acta Crystallogr.,Sect.E:Struct.Rep.Online '
loop_
_publ_author_name
"S.Sundaresan"
"P.Ramesh"
"N.Arumugam"
"R.Raghunathan"
"M.N.Ponnuswamy"
_chemical_name_systematic
;
Methyl 
2-benzyl-5-(1-(4-methoxyphenyl)-4-oxo-3-phenylazetidin-2-yl)-4-nitro-3-phenylp
yrrolidine-2-carboxylate
;
_cell_volume   1500.314
_exptl_crystal_colour 'colorless'
_exptl_crystal_density_diffrn 1.31
_exptl_crystal_description 'block'
_exptl_crystal_preparation 'ethyl acetate'
_diffrn_ambient_temperature 293
#These two values have been output from a single CSD field.
_refine_ls_R_factor_gt 0.0412
_refine_ls_wR_factor_gt 0.0412
_symmetry_cell_setting triclinic
_symmetry_space_group_name_H-M 'P -1'
_symmetry_Int_Tables_number 2
loop_
_symmetry_equiv_pos_site_id
_symmetry_equiv_pos_as_xyz
1 x,y,z
2 -x,-y,-z
_cell_length_a 10.1727(2)
_cell_length_b 10.4210(2)
_cell_length_c 15.1680(3)
_cell_angle_alpha 91.833(1)
_cell_angle_beta 106.154(1)
_cell_angle_gamma 102.536(1)
_cell_formula_units_Z 2
loop_
_atom_type_symbol
_atom_type_radius_bond
C 0.68
H 0.23
N 0.68
O 0.68
loop_
_atom_site_label
_atom_site_type_symbol
_atom_site_fract_x
_atom_site_fract_y
_atom_site_fract_z
O1 O 0.23296(14) 1.11254(12) 0.12037(10)
O2 O 0.05010(12) 0.97536(12) 0.14730(9)
O3 O 0.34127(15) 0.89947(15) -0.01081(9)
O4 O 0.43868(18) 0.73840(17) -0.01654(10)
O5 O 0.89861(13) 0.81334(13) 0.32648(10)
O6 O 0.83342(17) 1.40874(13) 0.47301(9)
N1 N 0.41420(13) 0.96169(12) 0.20111(9)
H1 H 0.4247(19) 1.0180(18) 0.1586(13)
C1 C 0.26396(15) 0.91317(14) 0.19096(10)
C2 C 0.21203(15) 0.78623(14) 0.11656(10)
H2 H 0.16510 0.81530 0.05770
C3 C 0.34889(15) 0.75799(14) 0.10697(10)
H3 H 0.34810 0.66420 0.11140
C4 C 0.46471(14) 0.84462(14) 0.18892(9)
H4 H 0.46410 0.79750 0.24370
C5 C 0.18470(16) 1.01459(14) 0.14978(10)
C6 C -0.0397(2) 1.0629(2) 0.11332(17)
H5 H -0.03550 1.12420 0.16320
H6 H -0.13480 1.01250 0.08730
H7 H -0.00870 1.11050 0.06680
C7 C 0.24250(17) 0.88720(15) 0.28635(10)
H8 H 0.14510 0.84270 0.27820
H9 H 0.30110 0.82920 0.31530
C8 C 0.27898(17) 1.01341(15) 0.3488(1)
C9 C 0.4168(2) 1.0744(2) 0.39661(12)
H10 H 0.48930 1.03580 0.39230
C10 C 0.4474(3) 1.1928(2) 0.45082(14)
H11 H 0.54040 1.23300 0.48270
C11 C 0.3418(3) 1.2512(2) 0.45787(14)
H12 H 0.36320 1.33130 0.49360
C12 C 0.2051(3) 1.1913(2) 0.41225(15)
H13 H 0.13290 1.23000 0.41730
C13 C 0.1743(2) 1.07297(17) 0.35862(13)
H14 H 0.08080 1.03230 0.32830
C14 C 0.11103(17) 0.66599(15) 0.13188(12)
C15 C -0.02995(19) 0.64235(19) 0.08179(17)
H15 H -0.06100 0.70280 0.04210
C16 C -0.1244(3) 0.5302(3) 0.0903(2)
H16 H -0.21850 0.51490 0.05580
C17 C -0.0802(3) 0.4412(3) 0.1494(2)
H17 H -0.14450 0.36640 0.15590
C18 C 0.0593(3) 0.4625(2) 0.19912(17)
H18 H 0.08960 0.40150 0.23860
C19 C 0.15546(12) 0.57555(12) 0.19041(7)
H19 H 0.24980 0.58990 0.22420
N2 N 0.37621(12) 0.80108(12) 0.01871(7)
C20 C 0.61299(15) 0.86856(14) 0.18124(10)
H20 H 0.62250 0.91480 0.12730
C21 C 0.68163(16) 0.74593(15) 0.18950(11)
H21 H 0.72000 0.73300 0.13820
C22 C 0.79266(16) 0.82884(16) 0.27273(12)
N3 N 0.72602(13) 0.92975(12) 0.26579(9)
C23 C 0.60056(16) 0.61819(15) 0.21114(11)
C24 C 0.5883(2) 0.60247(17) 0.29894(12)
H22 H 0.63500 0.67000 0.34600
C25 C 0.5075(2) 0.48762(19) 0.31760(14)
H23 H 0.49980 0.47890 0.37690
C26 C 0.4386(2) 0.38636(18) 0.24931(14)
H24 H 0.38330 0.30970 0.26190
C27 C 0.45205(19) 0.39919(17) 0.16239(13)
H25 H 0.40660 0.33060 0.11590
C28 C 0.53301(17) 0.51375(16) 0.14369(12)
H26 H 0.54230 0.52080 0.08460
C29 C 0.75777(15) 1.05282(15) 0.31897(10)
C30 C 0.81676(18) 1.06067(17) 0.41328(11)
H27 H 0.83680 0.98590 0.44080
C31 C 0.84635(19) 1.17897(18) 0.46717(12)
H28 H 0.88720 1.18410 0.53060
C32 C 0.81481(19) 1.28903(17) 0.42629(12)
C33 C 0.75824(19) 1.28152(17) 0.33134(12)
H29 H 0.73930 1.35640 0.30360
C34 C 0.73000(17) 1.16421(16) 0.27817(11)
H30 H 0.69210 1.15980 0.21450
C35 C 0.8872(3) 1.4202(2) 0.57069(15)
H31 H 0.82290 1.36120 0.59540
H32 H 0.89800 1.50930 0.59490
H33 H 0.97690 1.39760 0.58780
#END
