
#######################################################################
#
#                 Cambridge Crystallographic Data Centre
#                                CCDC
#
#######################################################################
#
# If this CIF has been generated from an entry in the Cambridge
# Structural Database, then it will include bibliographic, chemical,
# crystal, experimental, refinement or atomic coordinate data resulting
# from the CCDC's data processing and validation procedures.
#
#######################################################################

data_CSD_CIF_ROGTIS
_audit_creation_date 2014-05-15
_audit_creation_method CSD-ConQuest-V1
_database_code_CSD ROGTIS
_database_code_depnum_ccdc_archive 'CCDC 970807'
_chemical_formula_sum 'C9 H15 N1 O8'
_chemical_formula_moiety
;
C9 H15 N1 O8
;
_journal_coden_Cambridge 16
_journal_volume 70
_journal_year 2014
_journal_page_first 1910
_journal_name_full 'Tetrahedron '
loop_
_publ_author_name
"T.Gubica"
"L.Szeleszczuk"
"D.M.Pisklak"
"D.K.Stepien"
"M.K.Cyranski"
"M.Kanska"
_chemical_name_systematic
;
7-Hydroxy-6-methoxy-2-methylhexahydropyrano[3,2-d][1,3]dioxin-8-yl nitrate
;
_cell_volume   1186.818
_exptl_crystal_density_diffrn 1.484
_diffrn_ambient_temperature 100
#These two values have been output from a single CSD field.
_refine_ls_R_factor_gt 0.0304
_refine_ls_wR_factor_gt 0.0304
_symmetry_cell_setting orthorhombic
_symmetry_space_group_name_H-M 'P 21 21 21'
_symmetry_Int_Tables_number 19
loop_
_symmetry_equiv_pos_site_id
_symmetry_equiv_pos_as_xyz
1 x,y,z
2 1/2-x,-y,1/2+z
3 -x,1/2+y,1/2-z
4 1/2+x,1/2-y,-z
_cell_length_a 4.7772(2)
_cell_length_b 13.7923(5)
_cell_length_c 18.0125(9)
_cell_angle_alpha 90
_cell_angle_beta 90
_cell_angle_gamma 90
_cell_formula_units_Z 4
loop_
_atom_type_symbol
_atom_type_radius_bond
C 0.68
H 0.23
N 0.68
O 0.68
loop_
_atom_site_label
_atom_site_type_symbol
_atom_site_fract_x
_atom_site_fract_y
_atom_site_fract_z
C1 C 1.0099(3) 0.34678(10) 0.89276(9)
H1 H 1.118(4) 0.2894(12) 0.8831(10)
O1 O 0.7256(2) 0.32667(8) 0.88100(6)
C2 C 0.6731(4) 0.28498(13) 0.80908(9)
H2 H 0.47240 0.27230 0.80350
H3 H 0.77690 0.22400 0.80430
H4 H 0.73440 0.33020 0.77040
C3 C 1.0465(3) 0.37611(10) 0.97367(9)
H5 H 1.252(4) 0.3849(13) 0.9812(9)
O2 O 0.9364(2) 0.30507(7) 1.02252(6)
H6 H 1.064(5) 0.2675(14) 1.0290(11)
C4 C 0.9021(3) 0.47258(10) 0.98901(8)
H7 H 0.704(4) 0.4683(12) 0.9894(9)
O3 O 0.9848(2) 0.50659(8) 1.06234(6)
N1 N 0.8086(3) 0.47902(10) 1.12104(8)
O4 O 0.5846(2) 0.44276(9) 1.10710(6)
O5 O 0.9083(3) 0.49902(11) 1.18053(6)
C5 C 1.0094(3) 0.54678(10) 0.93461(9)
H8 H 1.207(4) 0.5543(13) 0.9416(9)
C6 C 0.9639(3) 0.5098(1) 0.85561(8)
H9 H 0.758(4) 0.5021(13) 0.8469(9)
O6 O 1.1106(2) 0.42103(7) 0.84463(6)
O7 O 0.8690(2) 0.63701(7) 0.94342(6)
C7 C 0.9809(4) 0.70553(11) 0.89156(9)
H10 H 1.182(4) 0.7080(12) 0.9004(9)
C8 C 0.8395(4) 0.80120(13) 0.90377(12)
H11 H 0.892(5) 0.8288(15) 0.9563(12)
H12 H 0.646(6) 0.7940(16) 0.8999(11)
H13 H 0.904(5) 0.8461(15) 0.8660(12)
O8 O 0.9336(3) 0.67483(8) 0.81801(6)
C9 C 1.0757(4) 0.58540(11) 0.80246(9)
H14 H 1.038(4) 0.5639(13) 0.7507(11)
H15 H 1.287(4) 0.5922(13) 0.8109(10)
#END
