
#######################################################################
#
#                 Cambridge Crystallographic Data Centre
#                                CCDC
#
#######################################################################
#
# If this CIF has been generated from an entry in the Cambridge
# Structural Database, then it will include bibliographic, chemical,
# crystal, experimental, refinement or atomic coordinate data resulting
# from the CCDC's data processing and validation procedures.
#
#######################################################################

data_CSD_CIF_ROGZAO
_audit_creation_date 1998-01-15
_audit_creation_method CSD-ConQuest-V1
_database_code_CSD ROGZAO
_database_code_depnum_ccdc_archive 'CCDC 129164'
_chemical_formula_sum 'C17 H24 N4 O5'
_chemical_formula_moiety
;
C17 H24 N4 O5
;
_journal_coeditor_code "IUCr CF1165"
_journal_coden_Cambridge 591
_journal_volume 53
_journal_year 1997
_journal_page_first 1444
_journal_name_full 'Acta Crystallogr.,Sect.C:Cryst.Struct.Commun. '
loop_
_publ_author_name
"A.L.Lane"
"K.J.Rossiter"
"C.S.Sell"
"D.J.Watkin"
_chemical_name_systematic
;
5,5-Dimethyl-4-(2,4-dinitrophenylhydrazono)-2-isobutyl-tetrahydropyran
;
_cell_volume    892.542
_exptl_crystal_colour 'red'
_exptl_crystal_density_diffrn 1.36
_exptl_crystal_description 'plate'
_diffrn_ambient_temperature ?
_diffrn_special_details
;
The study was carried out at room temperature,in the range 283-303K

;
#These two values have been output from a single CSD field.
_refine_ls_R_factor_gt 0.055
_refine_ls_wR_factor_gt 0.055
_symmetry_cell_setting triclinic
_symmetry_space_group_name_H-M 'P -1'
_symmetry_Int_Tables_number 2
loop_
_symmetry_equiv_pos_site_id
_symmetry_equiv_pos_as_xyz
1 x,y,z
2 -x,-y,-z
_cell_length_a 6.681(3)
_cell_length_b 9.093(1)
_cell_length_c 16.067(3)
_cell_angle_alpha 70.89(1)
_cell_angle_beta 75.48(3)
_cell_angle_gamma 83.96(4)
_cell_formula_units_Z 2
loop_
_atom_type_symbol
_atom_type_radius_bond
C 0.68
H 0.23
N 0.68
O 0.68
loop_
_atom_site_label
_atom_site_type_symbol
_atom_site_fract_x
_atom_site_fract_y
_atom_site_fract_z
C1 C 0.3117(2) 0.0729(1) 0.31441(8)
C2 C 0.3318(2) 0.2231(1) 0.23410(8)
C3 C 0.1247(2) 0.3066(1) 0.23581(8)
C4 C 0.0122(2) 0.3262(1) 0.32608(8)
C5 C 0.0233(2) 0.1696(1) 0.39940(9)
O1 O 0.2269(1) 0.1072(1) 0.39683(6)
C6 C -0.2148(2) 0.3746(2) 0.3303(1)
C7 C 0.1232(2) 0.4488(2) 0.3438(1)
N1 N 0.0340(2) 0.3567(1) 0.17002(7)
N2 N 0.1565(2) 0.3490(1) 0.08608(7)
C8 C 0.0755(2) 0.2989(1) 0.03215(8)
C9 C 0.1790(2) 0.3040(1) -0.05751(8)
C10 C 0.0948(2) 0.2421(1) -0.10896(8)
C11 C -0.0943(2) 0.1756(1) -0.07289(9)
C12 C -0.2044(2) 0.1689(2) 0.0147(1)
C13 C -0.1214(2) 0.2293(2) 0.06550(9)
N3 N -0.1788(2) 0.1056(1) -0.12583(9)
O2 O -0.0777(2) 0.1091(2) -0.20066(8)
O3 O -0.3451(2) 0.0441(2) -0.09229(9)
N4 N 0.3779(2) 0.3745(1) -0.10016(7)
O4 O 0.4569(2) 0.4347(1) -0.05804(7)
O5 O 0.4628(2) 0.3741(2) -0.17672(7)
C14 C 0.5173(2) -0.0128(1) 0.32140(9)
C15 C 0.5042(2) -0.1634(1) 0.40091(9)
C16 C 0.3790(3) -0.2843(2) 0.3912(1)
C17 C 0.7189(3) -0.2284(2) 0.4103(1)
H1 H 0.21350 0.00430 0.30730
H2 H 0.43400 0.29160 0.23830
H3 H 0.38030 0.19730 0.17620
H4 H -0.03470 0.18460 0.45970
H5 H -0.06170 0.09410 0.39080
H6 H -0.28110 0.38560 0.39130
H7 H -0.22520 0.47650 0.28260
H8 H -0.28760 0.29360 0.32020
H9 H 0.05060 0.46300 0.40330
H10 H 0.26960 0.41340 0.34520
H11 H 0.12180 0.55010 0.29450
H12 H 0.17140 0.24610 -0.17160
H13 H -0.34310 0.11980 0.04000
H14 H -0.20080 0.22480 0.12770
H15 H 0.61200 0.05810 0.32820
H16 H 0.57560 -0.03960 0.26440
H17 H 0.43150 -0.13770 0.45720
H18 H 0.37380 -0.38100 0.44410
H19 H 0.44590 -0.30920 0.33410
H20 H 0.23540 -0.24240 0.38870
H21 H 0.70750 -0.32670 0.46250
H22 H 0.79680 -0.15060 0.42080
H23 H 0.79480 -0.25120 0.35340
H24 H 0.27750 0.39500 0.06370
#END
