
#######################################################################
#
#                 Cambridge Crystallographic Data Centre
#                                CCDC
#
#######################################################################
#
# If this CIF has been generated from an entry in the Cambridge
# Structural Database, then it will include bibliographic, chemical,
# crystal, experimental, refinement or atomic coordinate data resulting
# from the CCDC's data processing and validation procedures.
#
#######################################################################

data_CSD_CIF_ROHGEC
_audit_creation_date 2014-05-15
_audit_creation_method CSD-ConQuest-V1
_database_code_CSD ROHGEC
_database_code_depnum_ccdc_archive 'CCDC 1003438'
_chemical_formula_sum 'C18 H23 N1 O5'
_chemical_formula_moiety
;
C18 H23 N1 O5
;
_journal_coden_Cambridge 4
_journal_volume 136
_journal_year 2014
_journal_page_first 6586
_journal_name_full 'J.Am.Chem.Soc. '
loop_
_publ_author_name
"Bijie Li"
"M.Driess"
"J.F.Hartwig"
_chemical_name_systematic
;
2-(cyclopentyl(hydroxy)methyl)cyclopentyl 4-nitrobenzoate
;
_cell_volume   3340.966
_exptl_crystal_colour 'colorless'
_exptl_crystal_density_diffrn 1.326
_exptl_crystal_description 'plate'
_diffrn_ambient_temperature 100
#These two values have been output from a single CSD field.
_refine_ls_R_factor_gt 0.0446
_refine_ls_wR_factor_gt 0.0446
_symmetry_cell_setting monoclinic
_symmetry_space_group_name_H-M 'C 2/c'
_symmetry_Int_Tables_number 15
loop_
_symmetry_equiv_pos_site_id
_symmetry_equiv_pos_as_xyz
1 x,y,z
2 -x,y,1/2-z
3 1/2+x,1/2+y,z
4 1/2-x,1/2+y,1/2-z
5 -x,-y,-z
6 x,-y,-1/2+z
7 -1/2-x,-1/2-y,-z
8 -1/2+x,-1/2-y,-1/2+z
_cell_length_a 26.6681(8)
_cell_length_b 6.9135(2)
_cell_length_c 18.1388(5)
_cell_angle_alpha 90
_cell_angle_beta 92.539(2)
_cell_angle_gamma 90
_cell_formula_units_Z 8
loop_
_atom_type_symbol
_atom_type_radius_bond
C 0.68
H 0.23
N 0.68
O 0.68
loop_
_atom_site_label
_atom_site_type_symbol
_atom_site_fract_x
_atom_site_fract_y
_atom_site_fract_z
C1 C 0.19368(7) 0.8798(2) 0.54402(9)
C2 C 0.16908(7) 0.7058(3) 0.55394(10)
H1 H 0.13650 0.68430 0.53230
C3 C 0.19326(6) 0.5640(2) 0.59611(10)
H2 H 0.17720 0.44350 0.60370
C4 C 0.24112(6) 0.5980(2) 0.62736(9)
C5 C 0.26491(6) 0.7746(2) 0.61596(9)
H3 H 0.29760 0.79680 0.63710
C6 C 0.24107(7) 0.9174(2) 0.57409(10)
H4 H 0.25690 1.03820 0.56630
C7 C 0.26532(6) 0.4436(2) 0.67425(10)
C8 C 0.33998(7) 0.3312(2) 0.73624(10)
H5 H 0.31960 0.29410 0.77900
C9 C 0.35283(7) 0.1542(3) 0.69011(11)
H6 H 0.33000 0.14600 0.64570
H7 H 0.34930 0.03450 0.71930
C10 C 0.40730(8) 0.1786(3) 0.66783(12)
H8 H 0.42870 0.07480 0.68980
H9 H 0.40930 0.17400 0.61350
C11 C 0.42409(7) 0.3762(3) 0.69746(11)
H10 H 0.41930 0.47690 0.65900
H11 H 0.45990 0.37340 0.71430
C12 C 0.39061(6) 0.4151(2) 0.76211(10)
H12 H 0.40360 0.33430 0.80450
C13 C 0.38957(6) 0.6248(2) 0.7888(1)
H13 H 0.38000 0.71030 0.74600
C14 C 0.44016(7) 0.6910(3) 0.82227(11)
H14 H 0.46580 0.67780 0.78400
C15 C 0.45795(7) 0.5737(3) 0.89108(11)
H15 H 0.42930 0.50730 0.91300
H16 H 0.48310 0.47570 0.87800
C16 C 0.48112(10) 0.7214(3) 0.94489(14)
H17 H 0.48030 0.67480 0.99640
H18 H 0.51620 0.75100 0.93320
C17 C 0.44735(10) 0.8966(3) 0.93243(14)
H19 H 0.46380 1.01580 0.95170
H20 H 0.41510 0.87940 0.95650
C18 C 0.43947(8) 0.9048(3) 0.84849(12)
H21 H 0.46670 0.97930 0.82630
H22 H 0.40690 0.96630 0.83440
N1 N 0.16815(6) 1.0299(2) 0.49865(8)
O1 O 0.19033(5) 1.18294(18) 0.48908(8)
O2 O 0.12592(5) 0.9946(2) 0.47231(8)
O3 O 0.24318(5) 0.30259(17) 0.69636(7)
O4 O 0.31388(4) 0.47772(16) 0.68969(7)
O5 O 0.35340(4) 0.64737(18) 0.84398(7)
H23 H 0.32530 0.67380 0.82370
#END
