
#######################################################################
#
#                 Cambridge Crystallographic Data Centre
#                                CCDC
#
#######################################################################
#
# If this CIF has been generated from an entry in the Cambridge
# Structural Database, then it will include bibliographic, chemical,
# crystal, experimental, refinement or atomic coordinate data resulting
# from the CCDC's data processing and validation procedures.
#
#######################################################################

data_CSD_CIF_ROJQEO
_audit_creation_date 2014-05-15
_audit_creation_method CSD-ConQuest-V1
_database_code_CSD ROJQEO
_database_code_depnum_ccdc_archive 'CCDC 953641'
_chemical_formula_sum 'C6 H9 N7 O3'
_chemical_formula_moiety
;
C6 H9 N7 O3
;
_journal_coden_Cambridge 16
_journal_volume 70
_journal_year 2014
_journal_page_first 3018
_journal_name_full 'Tetrahedron '
loop_
_publ_author_name
"A.A.Voronin"
"V.P.Zelenov"
"A.M.Churakov"
"Y.A.Strelenko"
"I.V.Fedyanin"
"V.A.Tartakovsky"
_chemical_name_systematic
;
1-t-butyl-1H-[1,2,3]triazolo[4,5-e][1,2,3,4]tetrazine-3,4,6-trioxide
;
_cell_volume    955.320
_exptl_crystal_colour 'orange'
_exptl_crystal_density_diffrn 1.58
_exptl_crystal_description 'rod'
_diffrn_ambient_temperature 100
_refine_special_details
;
C1,C2,C3,C3A,C4,C7A,N1,N2,N3,N4,N5,N6,N7,O1,O5,O7 and 
C1',C2',C3',C3A',C4',C7A',N1',N2',N3',N4',N5',N6',N7',O1',O5',O7' disordered 
over two sites with occupancies 0.9103:0.0897.
;
#These two values have been output from a single CSD field.
_refine_ls_R_factor_gt 0.0407
_refine_ls_wR_factor_gt 0.0407
_symmetry_cell_setting monoclinic
_symmetry_space_group_name_H-M 'P 21/n'
_symmetry_Int_Tables_number 14
loop_
_symmetry_equiv_pos_site_id
_symmetry_equiv_pos_as_xyz
1 x,y,z
2 1/2-x,1/2+y,1/2-z
3 -x,-y,-z
4 -1/2+x,-1/2-y,-1/2+z
_cell_length_a 5.7092(6)
_cell_length_b 8.928(1)
_cell_length_c 18.857(2)
_cell_angle_alpha 90
_cell_angle_beta 96.327(2)
_cell_angle_gamma 90
_cell_formula_units_Z 4
loop_
_atom_type_symbol
_atom_type_radius_bond
C 0.68
H 0.23
N 0.68
O 0.68
loop_
_atom_site_label
_atom_site_type_symbol
_atom_site_fract_x
_atom_site_fract_y
_atom_site_fract_z
O1 O 1.44244(17) 0.03223(12) 0.24538(6)
O2 O 0.5433(2) 0.35693(13) 0.32096(6)
O3 O 1.20452(19) 0.10901(14) 0.37611(6)
N1 N 1.26080(19) 0.10650(12) 0.22161(6)
N2 N 1.20850(19) 0.13678(12) 0.15302(6)
N3 N 1.00086(18) 0.21637(12) 0.14664(6)
N4 N 0.72638(19) 0.30107(12) 0.22795(6)
N5 N 0.7155(2) 0.29879(13) 0.29773(6)
N6 N 0.8738(2) 0.23715(14) 0.35114(6)
N7 N 1.0632(2) 0.16787(13) 0.32966(6)
C1 C 0.9237(2) 0.23364(14) 0.21077(7)
C2 C 1.0893(2) 0.16600(14) 0.25905(7)
C3 C 0.8836(2) 0.24854(16) 0.07276(7)
C4 C 0.7329(3) 0.38840(18) 0.07542(8)
H1 H 0.82970 0.47050 0.09710
H2 H 0.60300 0.36830 0.10400
H3 H 0.66900 0.41650 0.02690
C5 C 1.0775(3) 0.2766(2) 0.02486(9)
H4 H 1.17340 0.36210 0.04310
H5 H 1.00630 0.29820 -0.02380
H6 H 1.17740 0.18740 0.02440
C6 C 0.7367(3) 0.1113(2) 0.04927(11)
H7 H 0.61440 0.09690 0.08120
H8 H 0.83860 0.02280 0.05110
H9 H 0.66250 0.12600 0.00040
O4? O 0.5483(10) 0.3774(8) 0.3028(3)
O5? O 1.4750(9) 0.0299(8) 0.2769(4)
O6? O 0.9311(12) 0.2205(9) 0.3987(2)
N8? N 0.6862(8) 0.3248(6) 0.2605(3)
N9? N 0.6487(9) 0.3422(7) 0.1906(3)
N10? N 0.8324(10) 0.2735(7) 0.1621(2)
N11? N 1.1893(9) 0.1426(7) 0.2097(3)
N12? N 1.2859(8) 0.0985(6) 0.2731(3)
N13? N 1.2054(9) 0.1196(6) 0.3393(3)
N14? N 1.0041(9) 0.1975(6) 0.3399(2)
C7? C 0.9842(8) 0.2157(5) 0.2142(2)
C8? C 0.8916(7) 0.2454(5) 0.2772(2)
C9? C 0.818(2) 0.2740(12) 0.0819(3)
C10? C 1.0705(18) 0.2791(16) 0.0625(8)
H10? H 1.16000 0.19490 0.08520
H11? H 1.14450 0.37360 0.07930
H12? H 1.06920 0.27210 0.01060
C11? C 0.672(2) 0.4048(16) 0.0495(8)
H13? H 0.51510 0.40200 0.06590
H14? H 0.65700 0.39720 -0.00270
H15? H 0.74990 0.49920 0.06430
C12? C 0.697(3) 0.1273(14) 0.0599(12)
H16? H 0.54500 0.12230 0.07910
H17? H 0.79660 0.04360 0.07870
H18? H 0.67270 0.12120 0.00770
#END
