
#######################################################################
#
#                 Cambridge Crystallographic Data Centre
#                                CCDC
#
#######################################################################
#
# If this CIF has been generated from an entry in the Cambridge
# Structural Database, then it will include bibliographic, chemical,
# crystal, experimental, refinement or atomic coordinate data resulting
# from the CCDC's data processing and validation procedures.
#
#######################################################################

data_CSD_CIF_ROKPIQ
_audit_creation_date 1998-01-15
_audit_creation_method CSD-ConQuest-V1
_database_code_CSD ROKPIQ
_database_code_depnum_ccdc_archive 'CCDC 129312'
_chemical_formula_sum 'C8 H5 N1 O4'
_chemical_formula_moiety
;
C8 H5 N1 O4
;
_journal_coeditor_code "IUCr JZ1219"
_journal_coden_Cambridge 591
_journal_volume 53
_journal_year 1997
_journal_page_first 1626
_journal_name_full 'Acta Crystallogr.,Sect.C:Cryst.Struct.Commun. '
loop_
_publ_author_name
"R.F.Bradley"
"C.H.Schwalbe"
"K.C.Ross"
"W.Fraser"
"S.Freeman"
_chemical_name_systematic
;
6-Nitrophthalide
;
_chemical_melting_point 416
_cell_volume    769.337
_exptl_crystal_colour 'colorless'
_exptl_crystal_density_diffrn 1.547
_exptl_crystal_description 'lath'
_diffrn_ambient_temperature ?
_diffrn_special_details
;
The study was carried out at room temperature,in the range 283-303K

;
#These two values have been output from a single CSD field.
_refine_ls_R_factor_gt 0.0361
_refine_ls_wR_factor_gt 0.0361
_symmetry_cell_setting orthorhombic
_symmetry_space_group_name_H-M 'P n a 21'
_symmetry_Int_Tables_number 33
loop_
_symmetry_equiv_pos_site_id
_symmetry_equiv_pos_as_xyz
1 x,y,z
2 -x,-y,1/2+z
3 1/2-x,1/2+y,1/2+z
4 1/2+x,1/2-y,z
_cell_length_a 9.2511(10)
_cell_length_b 13.513(3)
_cell_length_c 6.1542(3)
_cell_angle_alpha 90
_cell_angle_beta 90
_cell_angle_gamma 90
_cell_formula_units_Z 4
loop_
_atom_type_symbol
_atom_type_radius_bond
C 0.68
H 0.23
N 0.68
O 0.68
loop_
_atom_site_label
_atom_site_type_symbol
_atom_site_fract_x
_atom_site_fract_y
_atom_site_fract_z
C1 C 0.1429(2) 0.00748(12) 0.3696(3)
O1 O 0.1014(2) -0.04874(10) 0.2315(3)
O2 O 0.21613(13) -0.02396(8) 0.5456(2)
C2 C 0.2539(2) 0.05858(11) 0.6854(3)
H1 H 0.3557(23) 0.0621(14) 0.6975(39)
H2 H 0.1947(31) 0.0416(21) 0.8259(58)
C3 C 0.1941(2) 0.14717(11) 0.5722(3)
C4 C 0.1967(2) 0.24702(13) 0.6266(3)
H3 H 0.2531(29) 0.2676(19) 0.7571(49)
C5 C 0.1261(2) 0.31261(11) 0.4903(3)
H4 H 0.1213(22) 0.3830(15) 0.5213(34)
C6 C 0.0566(2) 0.27755(11) 0.3065(3)
N1 N -0.0230(2) 0.34781(11) 0.1711(3)
O3 O -0.0706(3) 0.31898(14) -0.0009(3)
O4 O -0.04245(14) 0.43180(8) 0.2365(3)
C7 C 0.0556(2) 0.17923(13) 0.2463(3)
H5 H -0.0025(27) 0.1589(17) 0.1117(48)
C8 C 0.1268(2) 0.11570(11) 0.3854(3)
#END
