
#######################################################################
#
#                 Cambridge Crystallographic Data Centre
#                                CCDC
#
#######################################################################
#
# If this CIF has been generated from an entry in the Cambridge
# Structural Database, then it will include bibliographic, chemical,
# crystal, experimental, refinement or atomic coordinate data resulting
# from the CCDC's data processing and validation procedures.
#
#######################################################################

data_CSD_CIF_ROKPOW
_audit_creation_date 1998-01-15
_audit_creation_method CSD-ConQuest-V1
_database_code_CSD ROKPOW
_database_code_depnum_ccdc_archive 'CCDC 129318'
_chemical_formula_sum 'C11 H15 N1 O2'
_chemical_formula_moiety
;
C11 H15 N1 O2
;
_journal_coeditor_code "IUCr KA1240"
_journal_coden_Cambridge 591
_journal_volume 53
_journal_year 1997
_journal_page_first 1629
_journal_name_full 'Acta Crystallogr.,Sect.C:Cryst.Struct.Commun. '
loop_
_publ_author_name
"J.Hartung"
"I.Svoboda"
"H.Fuess"
"M.T.Duarte"
_chemical_name_systematic
;
N-Cyclohexyloxy-2(1H)-pyridone
;
_chemical_melting_point 353
_cell_volume   1029.932
_exptl_crystal_colour 'colorless'
_exptl_crystal_density_diffrn 1.246
_exptl_special_details
;
Melting point range 353-355K

;
_exptl_crystal_description 'needle'
_diffrn_ambient_temperature ?
_diffrn_special_details
;
The study was carried out at room temperature,in the range 283-303K

;
#These two values have been output from a single CSD field.
_refine_ls_R_factor_gt 0.038
_refine_ls_wR_factor_gt 0.038
_symmetry_cell_setting orthorhombic
_symmetry_space_group_name_H-M 'P n a 21'
_symmetry_Int_Tables_number 33
loop_
_symmetry_equiv_pos_site_id
_symmetry_equiv_pos_as_xyz
1 x,y,z
2 1/2-x,1/2+y,1/2+z
3 1/2+x,1/2-y,z
4 -x,-y,1/2+z
_cell_length_a 14.486(2)
_cell_length_b 11.1562(7)
_cell_length_c 6.373(2)
_cell_angle_alpha 90
_cell_angle_beta 90
_cell_angle_gamma 90
_cell_formula_units_Z 4
loop_
_atom_type_symbol
_atom_type_radius_bond
C 0.68
H 0.23
N 0.68
O 0.68
loop_
_atom_site_label
_atom_site_type_symbol
_atom_site_fract_x
_atom_site_fract_y
_atom_site_fract_z
C1 C 0.2922(2) 0.0769(2) 0.3664(4)
C2 C 0.2385(2) -0.0318(2) 0.3774(5)
H1 H 0.2155(2) -0.0562(2) 0.5067(5)
C3 C 0.2208(2) -0.0989(2) 0.2084(5)
H2 H 0.1872(2) -0.1693(2) 0.2234(5)
C4 C 0.2518(2) -0.0653(2) 0.0109(5)
H3 H 0.2390(2) -0.1127(2) -0.1056(5)
C5 C 0.3011(2) 0.0380(2) -0.0101(4)
H4 H 0.3209(2) 0.0638(2) -0.1413(4)
C6 C 0.46840(15) 0.1903(2) 0.2016(4)
H5 H 0.46993(15) 0.1457(2) 0.3340(4)
C7 C 0.5216(2) 0.1225(2) 0.0378(5)
H6 H 0.4895(2) 0.0483(2) 0.0070(5)
H7 H 0.5818(2) 0.1021(2) 0.0937(5)
C8 C 0.5341(2) 0.1918(2) -0.1629(5)
H8 H 0.4746(2) 0.2031(2) -0.2297(5)
H9 H 0.5730(2) 0.1465(2) -0.2580(5)
C9 C 0.5780(2) 0.3135(2) -0.1204(6)
H10 H 0.6399(2) 0.3023(2) -0.0657(6)
H11 H 0.5825(2) 0.3582(2) -0.2505(6)
C10 C 0.5207(2) 0.3836(2) 0.0365(6)
H12 H 0.5515(2) 0.4587(2) 0.0677(6)
H13 H 0.4612(2) 0.4022(2) -0.0253(6)
C11 C 0.5062(2) 0.3152(2) 0.2366(5)
H14 H 0.4637(2) 0.3595(2) 0.3252(5)
H15 H 0.5646(2) 0.3093(2) 0.3105(5)
N1 N 0.32073(12) 0.10240(14) 0.1659(3)
O1 O 0.37137(10) 0.20841(12) 0.1367(3)
O2 O 0.31385(13) 0.1407(2) 0.5166(3)
#END
