
#######################################################################
#
#                 Cambridge Crystallographic Data Centre
#                                CCDC
#
#######################################################################
#
# If this CIF has been generated from an entry in the Cambridge
# Structural Database, then it will include bibliographic, chemical,
# crystal, experimental, refinement or atomic coordinate data resulting
# from the CCDC's data processing and validation procedures.
#
#######################################################################

data_CSD_CIF_ROKSUH
_audit_creation_date 2014-10-09
_audit_creation_method CSD-ConQuest-V1
_database_code_CSD ROKSUH
_database_code_depnum_ccdc_archive 'CCDC 1008515'
_chemical_formula_sum 'C2 H1 N5 O9'
_chemical_formula_moiety
;
C2 H1 N5 O9
;
_journal_coden_Cambridge 4
_journal_volume 136
_journal_year 2014
_journal_page_first 11934
_journal_name_full 'J.Am.Chem.Soc. '
loop_
_publ_author_name
"T.T.Vo"
"D.A.Parrish"
"J.M.Shreeve"
_chemical_name_systematic
;
(Z)-N,2,2,2-tetranitroacetimidic acid
;
_cell_volume    862.082
_exptl_crystal_colour 'colorless'
_exptl_crystal_density_diffrn 1.842
_exptl_special_details
;
Study temperature given as 293 K and 150 K in the CIF

;
_exptl_crystal_description 'plate'
_diffrn_ambient_temperature 150
_refine_special_details
;
N10,N13,N7,O11,O12,O14,O15,O8,O9 and N10',N13',N7', 
O11',O12',O14',O15',O8',O9' disordered over two sites with occupancies 
0.870:0.130.
;
#These two values have been output from a single CSD field.
_refine_ls_R_factor_gt 0.0775
_refine_ls_wR_factor_gt 0.0775
_symmetry_cell_setting monoclinic
_symmetry_space_group_name_H-M 'P 21/c'
_symmetry_Int_Tables_number 14
loop_
_symmetry_equiv_pos_site_id
_symmetry_equiv_pos_as_xyz
1 x,y,z
2 -x,1/2+y,1/2-z
3 -x,-y,-z
4 x,-1/2-y,-1/2+z
_cell_length_a 11.866(4)
_cell_length_b 6.713(2)
_cell_length_c 10.848(4)
_cell_angle_alpha 90
_cell_angle_beta 93.929(4)
_cell_angle_gamma 90
_cell_formula_units_Z 4
loop_
_atom_type_symbol
_atom_type_radius_bond
C 0.68
H 0.23
N 0.68
O 0.68
loop_
_atom_site_label
_atom_site_type_symbol
_atom_site_fract_x
_atom_site_fract_y
_atom_site_fract_z
C1 C 0.2880(3) 0.9076(5) 0.1693(3)
C2 C 0.1898(2) 0.7639(4) 0.1371(2)
N1 N 0.1663(2) 0.6680(4) 0.2378(2)
N2 N 0.0824(2) 0.5233(4) 0.2248(2)
O1 O 0.0458(3) 0.4620(5) 0.1241(2)
O2 O 0.0515(2) 0.4611(5) 0.3220(2)
N3 N 0.4020(3) 0.8019(7) 0.1491(4)
O3 O 0.4026(5) 0.6233(8) 0.1650(8)
O4 O 0.4784(4) 0.9136(11) 0.1327(6)
N4 N 0.2879(4) 0.9705(7) 0.3044(4)
O5 O 0.3667(3) 0.9138(8) 0.3721(3)
O6 O 0.2027(6) 1.0657(11) 0.3240(6)
N5 N 0.2927(4) 1.0930(6) 0.0895(4)
O7 O 0.3065(7) 1.2473(7) 0.1415(6)
O8 O 0.2838(6) 1.0628(11) -0.0218(5)
O9 O 0.1475(2) 0.7582(5) 0.0240(2)
H1 H 0.08820 0.68950 0.02010
N6? N 0.384(2) 0.772(3) 0.2469(16)
O10? O 0.393(3) 0.674(5) 0.151(2)
O11? O 0.397(2) 0.842(4) 0.3491(17)
N7? N 0.2421(17) 1.101(3) 0.2365(18)
O12? O 0.200(2) 1.080(5) 0.334(2)
O13? O 0.2960(16) 1.247(3) 0.211(2)
N8? N 0.3605(14) 0.964(3) 0.059(2)
O14? O 0.4514(16) 0.883(3) 0.080(2)
O15? O 0.304(3) 1.055(5) -0.021(2)
#END
