
#######################################################################
#
#                 Cambridge Crystallographic Data Centre
#                                CCDC
#
#######################################################################
#
# If this CIF has been generated from an entry in the Cambridge
# Structural Database, then it will include bibliographic, chemical,
# crystal, experimental, refinement or atomic coordinate data resulting
# from the CCDC's data processing and validation procedures.
#
#######################################################################

data_CSD_CIF_ROKSIT01
_audit_creation_date 1999-01-19
_audit_creation_method CSD-ConQuest-V1
_database_code_CSD ROKSIT01
_chemical_formula_sum 'C8 H9 N3 O3'
_chemical_formula_moiety
;
C8 H9 N3 O3
;
_journal_coden_Cambridge 1061
_journal_volume 12
_journal_year 1996
_journal_page_first 539
_journal_name_full 'Anal.Sci. '
loop_
_publ_author_name
"M.Soriano-Garcia"
"A.Rodriguez-Romero"
"K.Panneerselvam"
"A.De"
_chemical_name_systematic
;
3-(o-Carboxyphenyl)-1-methyltriazene 1-oxide
;
_cell_volume    934.215
_exptl_crystal_colour 'colorless'
_exptl_crystal_density_diffrn 1.388
_diffrn_ambient_temperature ?
_diffrn_special_details
;
The study was carried out at room temperature,in the range 283-303K

;
#These two values have been output from a single CSD field.
_refine_ls_R_factor_gt 0.054
_refine_ls_wR_factor_gt 0.054
_symmetry_cell_setting monoclinic
_symmetry_space_group_name_H-M 'P 21/c'
_symmetry_Int_Tables_number 14
loop_
_symmetry_equiv_pos_site_id
_symmetry_equiv_pos_as_xyz
1 x,y,z
2 -x,1/2+y,1/2-z
3 -x,-y,-z
4 x,-1/2-y,-1/2+z
_cell_length_a 6.700(3)
_cell_length_b 8.388(2)
_cell_length_c 16.748(6)
_cell_angle_alpha 90
_cell_angle_beta 97.00(3)
_cell_angle_gamma 90
_cell_formula_units_Z 4
loop_
_atom_type_symbol
_atom_type_radius_bond
C 0.68
N 0.68
O 0.68
loop_
_atom_site_label
_atom_site_type_symbol
_atom_site_fract_x
_atom_site_fract_y
_atom_site_fract_z
C1 C -0.0566(5) 0.2548(4) 0.9505(2)
C2 C 0.1206(5) 0.1687(4) 0.9448(2)
C3 C 0.2550(6) 0.1462(5) 1.0142(2)
C4 C 0.2124(7) 0.2032(5) 1.0879(2)
C5 C 0.0387(7) 0.2827(5) 1.0926(2)
C6 C -0.0956(6) 0.3090(5) 1.0256(2)
C7 C 0.1657(5) 0.1030(4) 0.8663(2)
C8 C -0.6491(7) 0.4789(6) 0.8172(3)
N1 N -0.1899(4) 0.2832(4) 0.8823(2)
N2 N -0.3594(4) 0.3655(3) 0.8883(1)
N3 N -0.4578(4) 0.3909(3) 0.8195(2)
O1 O 0.0610(4) 0.1211(3) 0.8026(1)
O2 O 0.3362(4) 0.0219(3) 0.8722(1)
O3 O -0.3991(3) 0.3431(3) 0.7537(1)
#END
