
#######################################################################
#
#                 Cambridge Crystallographic Data Centre
#                                CCDC
#
#######################################################################
#
# If this CIF has been generated from an entry in the Cambridge
# Structural Database, then it will include bibliographic, chemical,
# crystal, experimental, refinement or atomic coordinate data resulting
# from the CCDC's data processing and validation procedures.
#
#######################################################################

data_CSD_CIF_ROKTAO
_audit_creation_date 2014-10-09
_audit_creation_method CSD-ConQuest-V1
_database_code_CSD ROKTAO
_database_code_depnum_ccdc_archive 'CCDC 1008514'
_chemical_formula_sum 'C1 H3 N3 O3'
_chemical_formula_moiety
;
C1 H3 N3 O3
;
_journal_coden_Cambridge 4
_journal_volume 136
_journal_year 2014
_journal_page_first 11934
_journal_name_full 'J.Am.Chem.Soc. '
loop_
_publ_author_name
"T.T.Vo"
"D.A.Parrish"
"J.M.Shreeve"
_chemical_name_systematic
;
1-nitrourea
;
_cell_volume    765.564
_exptl_crystal_colour 'colorless'
_exptl_crystal_density_diffrn 1.823
_exptl_crystal_description 'plate'
_diffrn_ambient_temperature 100
#These two values have been output from a single CSD field.
_refine_ls_R_factor_gt 0.0239
_refine_ls_wR_factor_gt 0.0239
_symmetry_cell_setting tetragonal
_symmetry_space_group_name_H-M 'P 43 21 2'
_symmetry_Int_Tables_number 96
loop_
_symmetry_equiv_pos_site_id
_symmetry_equiv_pos_as_xyz
1 x,y,z
2 1/2-y,1/2+x,3/4+z
3 1/2+y,1/2-x,1/4+z
4 1/2+x,1/2-y,1/4-z
5 1/2-x,1/2+y,3/4-z
6 -x,-y,1/2+z
7 y,x,-z
8 -y,-x,1/2-z
_cell_length_a 4.8710(8)
_cell_length_b 4.8710(8)
_cell_length_c 32.266(6)
_cell_angle_alpha 90
_cell_angle_beta 90
_cell_angle_gamma 90
_cell_formula_units_Z 8
loop_
_atom_type_symbol
_atom_type_radius_bond
C 0.68
H 0.23
N 0.68
O 0.68
loop_
_atom_site_label
_atom_site_type_symbol
_atom_site_fract_x
_atom_site_fract_y
_atom_site_fract_z
N1 N 0.7415(2) 1.0006(2) 0.94711(3)
H1 H 0.83650 1.13520 0.95830
H2 H 0.78450 0.93970 0.92230
C1 C 0.5347(3) 0.8903(3) 0.96755(4)
N2 N 0.3773(3) 0.6785(2) 0.95026(3)
H3 H 0.22610 0.63500 0.96370
N3 N 0.4305(2) 0.5306(2) 0.91494(3)
O1 O 0.2636(2) 0.3503(2) 0.90718(3)
O2 O 0.6349(2) 0.5864(2) 0.89440(3)
O3 O 0.4586(2) 0.9620(2) 1.00263(3)
#END
