
#######################################################################
#
#                 Cambridge Crystallographic Data Centre
#                                CCDC
#
#######################################################################
#
# If this CIF has been generated from an entry in the Cambridge
# Structural Database, then it will include bibliographic, chemical,
# crystal, experimental, refinement or atomic coordinate data resulting
# from the CCDC's data processing and validation procedures.
#
#######################################################################

data_CSD_CIF_ROMJEJ
_audit_creation_date 2009-03-24
_audit_creation_method CSD-ConQuest-V1
_database_code_CSD ROMJEJ
_database_code_depnum_ccdc_archive 'CCDC 722070'
_chemical_formula_sum 'C24 H27 N1 O9'
_chemical_formula_moiety
;
C24 H27 N1 O9
;
_journal_coeditor_code "IUCr ZL2144"
_journal_coden_Cambridge 1370
_journal_volume 65
_journal_year 2009
_journal_page_first o332
_journal_name_full 'Acta Crystallogr.,Sect.E:Struct.Rep.Online '
loop_
_publ_author_name
"B.Pampin"
"L.Valencia"
"J.C.Estevez"
"R.J.Estevez"
_chemical_name_systematic
;
3-O-Benzyl-6-O-benzoyl-1,2-O-isopropylidene-5-C-nitromethyl-\a-D-glucofuranose
;
_chemical_melting_point 375
_cell_volume   2404.264
_exptl_crystal_colour 'colorless'
_exptl_crystal_density_diffrn 1.308
_exptl_special_details
;
Melting point range 375-379K

;
_exptl_crystal_description 'prism'
_exptl_crystal_preparation 'ethyl acetate/hexane'
_diffrn_ambient_temperature 113
#These two values have been output from a single CSD field.
_refine_ls_R_factor_gt 0.0471
_refine_ls_wR_factor_gt 0.0471
_symmetry_cell_setting orthorhombic
_symmetry_space_group_name_H-M 'P 21 21 21'
_symmetry_Int_Tables_number 19
loop_
_symmetry_equiv_pos_site_id
_symmetry_equiv_pos_as_xyz
1 x,y,z
2 1/2-x,-y,1/2+z
3 1/2+x,1/2-y,-z
4 -x,1/2+y,1/2-z
_cell_length_a 9.5080(12)
_cell_length_b 11.8190(16)
_cell_length_c 21.395(3)
_cell_angle_alpha 90
_cell_angle_beta 90
_cell_angle_gamma 90
_cell_formula_units_Z 4
loop_
_atom_type_symbol
_atom_type_radius_bond
C 0.68
H 0.23
N 0.68
O 0.68
loop_
_atom_site_label
_atom_site_type_symbol
_atom_site_fract_x
_atom_site_fract_y
_atom_site_fract_z
O1 O 0.1700(3) 0.0030(2) 0.56353(12)
C1 C 0.0591(5) 0.0120(3) 0.61034(19)
O2 O 0.0623(3) 0.1268(2) 0.62962(11)
C2 C 0.1148(5) 0.1931(3) 0.57862(16)
H1 H 0.03970 0.22280 0.55030
C3 C 0.2170(4) 0.1109(3) 0.54653(16)
H2 H 0.21430 0.12060 0.50010
C4 C 0.2093(4) 0.2840(3) 0.60556(16)
H3 H 0.16770 0.31970 0.64370
C5 C 0.3420(5) 0.2167(3) 0.62059(15)
H4 H 0.32650 0.17460 0.66060
O3 O 0.3531(3) 0.1354(2) 0.57021(11)
O4 O 0.2419(3) 0.3664(2) 0.55803(10)
C6 C 0.1342(5) 0.4495(3) 0.54682(17)
H5 H 0.04610 0.41060 0.53470
H6 H 0.16320 0.49860 0.51160
C7 C 0.1070(5) 0.5218(3) 0.60372(16)
C8 C -0.0205(5) 0.5153(4) 0.63417(18)
H7 H -0.09400 0.46990 0.61770
C9 C -0.0408(6) 0.5759(4) 0.6894(2)
H8 H -0.12860 0.57160 0.71040
C10 C 0.0640(6) 0.6412(4) 0.7134(2)
H9 H 0.04900 0.68160 0.75120
C11 C 0.1910(5) 0.6489(3) 0.6834(2)
H10 H 0.26400 0.69420 0.70050
C12 C 0.2130(5) 0.5899(3) 0.62766(18)
H11 H 0.30010 0.59650 0.60620
C13 C 0.4799(5) 0.2818(3) 0.62561(15)
C14 C 0.4703(5) 0.3727(3) 0.67693(15)
H12 H 0.55780 0.41820 0.67780
H13 H 0.39030 0.42400 0.66840
O5 O 0.4505(3) 0.3165(2) 0.73631(10)
C15 C 0.4824(5) 0.3802(3) 0.78726(16)
C16 C 0.4595(5) 0.3169(3) 0.84646(16)
C17 C 0.3918(6) 0.2137(4) 0.8481(2)
H14 H 0.36110 0.17990 0.81020
C18 C 0.3680(7) 0.1590(5) 0.9043(2)
H15 H 0.32220 0.08760 0.90510
C19 C 0.4120(6) 0.2096(4) 0.95958(18)
H16 H 0.39150 0.17480 0.99850
C20 C 0.4849(5) 0.3097(4) 0.95812(17)
H17 H 0.51930 0.34170 0.99590
C21 C 0.5087(5) 0.3643(3) 0.90188(16)
H18 H 0.55840 0.43410 0.90110
O6 O 0.5252(4) 0.4754(2) 0.78355(11)
O7 O 0.5152(3) 0.3409(2) 0.56949(11)
C22 C 0.5974(4) 0.1972(3) 0.63705(18)
H19 H 0.58290 0.15930 0.67780
H20 H 0.59630 0.13860 0.60400
N1 N 0.7345(4) 0.2559(3) 0.63692(16)
O8 O 0.8021(3) 0.2601(3) 0.58777(14)
O9 O 0.7732(4) 0.3030(3) 0.68513(14)
C23 C 0.0979(8) -0.0629(4) 0.6645(2)
H21 H 0.18940 -0.03960 0.68120
H22 H 0.10330 -0.14170 0.65040
H23 H 0.02640 -0.05630 0.69730
C24 C -0.0801(5) -0.0168(4) 0.5813(2)
H24 H -0.15440 -0.01090 0.61290
H25 H -0.07710 -0.09420 0.56490
H26 H -0.09980 0.03600 0.54700
H27 H 0.434(3) 0.366(4) 0.561(2)
#END
