
#######################################################################
#
#                 Cambridge Crystallographic Data Centre
#                                CCDC
#
#######################################################################
#
# If this CIF has been generated from an entry in the Cambridge
# Structural Database, then it will include bibliographic, chemical,
# crystal, experimental, refinement or atomic coordinate data resulting
# from the CCDC's data processing and validation procedures.
#
#######################################################################

data_CSD_CIF_ROMJIN
_audit_creation_date 2009-03-24
_audit_creation_method CSD-ConQuest-V1
_database_code_CSD ROMJIN
_database_code_depnum_ccdc_archive 'CCDC 722071'
_chemical_formula_sum 'C9 H7 N1 O6'
_chemical_formula_moiety
;
C9 H7 N1 O6
;
_journal_coeditor_code "IUCr FB2119"
_journal_coden_Cambridge 1370
_journal_volume 65
_journal_year 2009
_journal_page_first o335
_journal_name_full 'Acta Crystallogr.,Sect.E:Struct.Rep.Online '
loop_
_publ_author_name
"P.Zou"
"M.-H.Xie"
"S.-N.Luo"
"Y.-L.Liu"
"Y.-J.Shen"
_chemical_name_systematic
;
Methyl 3-carboxy-5-nitrobenzoate
;
_cell_volume    946.503
_exptl_crystal_colour 'colorless'
_exptl_crystal_density_diffrn 1.58
_exptl_crystal_description 'block'
_exptl_crystal_preparation 'ethanol/water'
_diffrn_ambient_temperature 293
#These two values have been output from a single CSD field.
_refine_ls_R_factor_gt 0.0392
_refine_ls_wR_factor_gt 0.0392
_symmetry_cell_setting monoclinic
_symmetry_space_group_name_H-M 'P 21/c'
_symmetry_Int_Tables_number 14
loop_
_symmetry_equiv_pos_site_id
_symmetry_equiv_pos_as_xyz
1 x,y,z
2 -x,1/2+y,1/2-z
3 -x,-y,-z
4 x,-1/2-y,-1/2+z
_cell_length_a 7.3450(15)
_cell_length_b 8.9050(18)
_cell_length_c 14.474(3)
_cell_angle_alpha 90
_cell_angle_beta 91.18(3)
_cell_angle_gamma 90
_cell_formula_units_Z 4
loop_
_atom_type_symbol
_atom_type_radius_bond
C 0.68
H 0.23
N 0.68
O 0.68
loop_
_atom_site_label
_atom_site_type_symbol
_atom_site_fract_x
_atom_site_fract_y
_atom_site_fract_z
N1 N 1.0387(2) 0.49976(17) 0.2978(1)
O1 O 1.30752(17) 0.20120(16) 0.64959(9)
C1 C 1.4451(3) 0.2024(3) 0.72271(15)
H1 H 1.43270 0.11420 0.76020
H2 H 1.43010 0.29020 0.76030
H3 H 1.56380 0.20360 0.69620
C2 C 1.3171(2) 0.3110(2) 0.58767(12)
O2 O 1.4321(2) 0.40512(19) 0.58894(10)
C3 C 1.1649(2) 0.30531(18) 0.51817(11)
O3 O 1.1685(2) 0.58281(18) 0.29145(11)
O4 O 0.9140(2) 0.4969(2) 0.24169(11)
C4 C 1.0120(2) 0.21563(18) 0.53024(11)
H4 H 1.00530 0.15330 0.58160
O5 O 0.70372(17) 0.03897(15) 0.54893(9)
C5 C 0.8694(2) 0.21906(18) 0.46585(12)
O6 O 0.57474(18) 0.13777(16) 0.42237(9)
H5 H 0.475(4) 0.072(3) 0.4318(19)
C6 C 0.8793(2) 0.31082(18) 0.38850(11)
H6 H 0.78500 0.31310 0.34470
C7 C 1.0324(2) 0.39840(18) 0.37824(11)
C8 C 1.1757(2) 0.39837(18) 0.44108(11)
H7 H 1.27710 0.45890 0.43230
C9 C 0.7057(2) 0.12519(19) 0.48049(12)
#END
