
#######################################################################
#
#                 Cambridge Crystallographic Data Centre
#                                CCDC
#
#######################################################################
#
# If this CIF has been generated from an entry in the Cambridge
# Structural Database, then it will include bibliographic, chemical,
# crystal, experimental, refinement or atomic coordinate data resulting
# from the CCDC's data processing and validation procedures.
#
#######################################################################

data_CSD_CIF_ROMVUL
_audit_creation_date 2009-03-24
_audit_creation_method CSD-ConQuest-V1
_database_code_CSD ROMVUL
_database_code_depnum_ccdc_archive 'CCDC 652215'
_chemical_formula_sum 'C21 H14 N2 O5'
_chemical_formula_moiety
;
C21 H14 N2 O5
;
_journal_coeditor_code "IUCr BT2875"
_journal_coden_Cambridge 1370
_journal_volume 65
_journal_year 2009
_journal_page_first o582
_journal_name_full 'Acta Crystallogr.,Sect.E:Struct.Rep.Online '
loop_
_publ_author_name
"M.NizamMohideen"
"A.SubbiahPandi"
"N.P.Selvam"
"P.T.Perumal"
"M.Damodiran"
_chemical_name_systematic
;
(1-(3-Nitrophenyl)-2,3-dihydro-1H-naphtho(1,2-e)(1,3)oxazin-3-ylidine)malonald
ehyde
;
_cell_volume   1723.906
_exptl_crystal_colour 'colorless'
_exptl_crystal_density_diffrn 1.442
_exptl_crystal_description 'block'
_exptl_crystal_preparation 'ethanol'
_diffrn_ambient_temperature 293
#These two values have been output from a single CSD field.
_refine_ls_R_factor_gt 0.0361
_refine_ls_wR_factor_gt 0.0361
_symmetry_cell_setting monoclinic
_symmetry_space_group_name_H-M 'P 21/n'
_symmetry_Int_Tables_number 14
loop_
_symmetry_equiv_pos_site_id
_symmetry_equiv_pos_as_xyz
1 x,y,z
2 1/2-x,1/2+y,1/2-z
3 -x,-y,-z
4 -1/2+x,-1/2-y,-1/2+z
_cell_length_a 7.9191(4)
_cell_length_b 23.3876(11)
_cell_length_c 9.6199(5)
_cell_angle_alpha 90
_cell_angle_beta 104.632(2)
_cell_angle_gamma 90
_cell_formula_units_Z 4
loop_
_atom_type_symbol
_atom_type_radius_bond
C 0.68
H 0.23
N 0.68
O 0.68
loop_
_atom_site_label
_atom_site_type_symbol
_atom_site_fract_x
_atom_site_fract_y
_atom_site_fract_z
O1 O 0.30114(13) 0.16841(5) 0.13932(12)
O2 O 0.8553(2) -0.07387(6) 0.43720(18)
O3 O 0.8486(3) -0.07086(8) 0.6565(2)
O4 O 0.30819(17) 0.00916(5) -0.05620(14)
O5 O -0.14205(16) 0.09772(6) -0.06754(16)
N1 N 0.47317(16) 0.09268(5) 0.11444(13)
H1 H 0.48470 0.06190 0.06900
N2 N 0.8208(2) -0.04987(7) 0.53794(19)
C1 C 0.3180(2) 0.11583(6) 0.08808(16)
C2 C 0.62913(19) 0.11553(6) 0.21612(16)
H2 H 0.73100 0.10630 0.17990
C3 C 0.61165(19) 0.17956(6) 0.21877(16)
C4 C 0.45014(19) 0.20287(6) 0.18043(17)
C5 C 0.4178(2) 0.26167(7) 0.17688(17)
H3 H 0.30420 0.27570 0.15030
C6 C 0.5556(2) 0.29776(7) 0.21305(18)
H4 H 0.53630 0.33700 0.20880
C7 C 0.7285(2) 0.27682(7) 0.25716(17)
C8 C 0.8737(2) 0.31383(8) 0.29883(19)
H5 H 0.85620 0.35320 0.29380
C9 C 1.0376(2) 0.29305(8) 0.3459(2)
H6 H 1.13130 0.31810 0.37390
C10 C 1.0666(2) 0.23391(8) 0.35255(19)
H7 H 1.17960 0.21990 0.38560
C11 C 0.9305(2) 0.19657(7) 0.31089(17)
H8 H 0.95180 0.15740 0.31500
C12 C 0.7579(2) 0.21687(7) 0.26167(16)
C13 C 0.65335(18) 0.08758(6) 0.36265(16)
C14 C 0.6049(2) 0.11392(7) 0.47526(18)
H9 H 0.55570 0.15030 0.46210
C15 C 0.6281(2) 0.08734(8) 0.60702(19)
H10 H 0.59470 0.10600 0.68120
C16 C 0.6998(2) 0.03369(8) 0.62976(18)
H11 H 0.71720 0.01570 0.71840
C17 C 0.7447(2) 0.00769(7) 0.51666(18)
C18 C 0.72429(19) 0.03325(7) 0.38466(17)
H12 H 0.75780 0.01420 0.31100
C19 C 0.1647(2) 0.08978(7) 0.00800(16)
C20 C -0.0008(2) 0.11766(8) -0.00797(18)
H13 H 0.00040 0.15420 0.03070
C21 C 0.1741(2) 0.03622(8) -0.05856(18)
H14 H 0.06910 0.02000 -0.10870
#END
