
#######################################################################
#
#                 Cambridge Crystallographic Data Centre
#                                CCDC
#
#######################################################################
#
# If this CIF has been generated from an entry in the Cambridge
# Structural Database, then it will include bibliographic, chemical,
# crystal, experimental, refinement or atomic coordinate data resulting
# from the CCDC's data processing and validation procedures.
#
#######################################################################

data_CSD_CIF_ROQNUI
_audit_creation_date 2014-10-14
_audit_creation_method CSD-ConQuest-V1
_database_code_CSD ROQNUI
_database_code_depnum_ccdc_archive 'CCDC 997090'
_chemical_formula_sum 'C19 H22 N4 O6'
_chemical_formula_moiety
;
C19 H22 N4 O6
;
_journal_coden_Cambridge 1147
_journal_volume 14
_journal_year 2014
_journal_page_first 3975
_journal_name_full 'Cryst.Growth Des. '
loop_
_publ_author_name
"K.A.Krasnov"
"V.N.Khrustalev"
_chemical_name_systematic
;
1-butyl-5-(2-(morpholin-4-yl)-5-nitrobenzylidene)pyrimidine-2,4,6(1H,3H,5H)-tr
ione
;
_cell_volume   1891.929
_exptl_crystal_colour 'yellow'
_exptl_crystal_density_diffrn 1.413
_exptl_crystal_description 'plate'
_diffrn_ambient_temperature 100
#These two values have been output from a single CSD field.
_refine_ls_R_factor_gt 0.0552
_refine_ls_wR_factor_gt 0.0552
_symmetry_cell_setting monoclinic
_symmetry_space_group_name_H-M 'P 21/n'
_symmetry_Int_Tables_number 14
loop_
_symmetry_equiv_pos_site_id
_symmetry_equiv_pos_as_xyz
1 x,y,z
2 1/2-x,1/2+y,1/2-z
3 -x,-y,-z
4 -1/2+x,-1/2-y,-1/2+z
_cell_length_a 12.065(5)
_cell_length_b 11.414(5)
_cell_length_c 13.752(5)
_cell_angle_alpha 90
_cell_angle_beta 92.538(7)
_cell_angle_gamma 90
_cell_formula_units_Z 4
loop_
_atom_type_symbol
_atom_type_radius_bond
C 0.68
H 0.23
N 0.68
O 0.68
loop_
_atom_site_label
_atom_site_type_symbol
_atom_site_fract_x
_atom_site_fract_y
_atom_site_fract_z
N1 N 0.45866(14) 0.94286(15) 0.88075(13)
C1 C 0.42010(18) 0.8440(2) 0.92789(15)
O1 O 0.32177(13) 0.82386(15) 0.93430(11)
N2 N 0.49888(14) 0.77024(16) 0.96911(13)
H1 H 0.4746(18) 0.706(2) 1.0002(17)
C2 C 0.61253(17) 0.78248(19) 0.96975(15)
O2 O 0.67171(12) 0.70831(13) 1.00936(12)
C3 C 0.65242(16) 0.88788(18) 0.92061(15)
C4 C 0.56980(18) 0.96998(19) 0.87384(15)
O3 O 0.59735(13) 1.05916(14) 0.83262(12)
C5 C 0.37436(18) 1.0268(2) 0.84078(16)
H2 H 0.40620 1.10660 0.84500
H3 H 0.30980 1.02490 0.88270
C6 C 0.33329(19) 1.0054(2) 0.73680(16)
H4 H 0.30890 0.92270 0.73110
H5 H 0.26720 1.05520 0.72330
C7 C 0.4150(2) 1.0285(2) 0.65903(16)
H6 H 0.47520 0.96960 0.66400
H7 H 0.44860 1.10690 0.66930
C8 C 0.3585(2) 1.0228(2) 0.55791(18)
H8 H 0.41270 1.04070 0.50900
H9 H 0.29800 1.08010 0.55330
H10 H 0.32850 0.94400 0.54640
C9 C 0.75917(17) 0.91573(18) 0.90914(14)
H11 H 0.76870 0.98120 0.86770
C10 C 0.86390(17) 0.86563(17) 0.94758(15)
C11 C 0.87930(17) 0.83266(18) 1.04475(15)
H12 H 0.81720 0.82470 1.08440
C12 C 0.98515(17) 0.81159(18) 1.08349(15)
N3 N 0.99877(16) 0.77936(16) 1.18570(13)
O4 O 0.91652(13) 0.77866(14) 1.23552(11)
O5 O 1.09255(13) 0.75478(15) 1.21869(12)
C13 C 1.07791(18) 0.82224(18) 1.02805(16)
H13 H 1.15010 0.80960 1.05640
C14 C 1.06350(17) 0.85159(18) 0.93078(15)
H14 H 1.12650 0.85840 0.89210
C15 C 0.95767(17) 0.87136(17) 0.88851(15)
N4 N 0.94131(14) 0.90024(15) 0.79060(12)
C16 C 1.03890(18) 0.9246(2) 0.73416(16)
H15 H 1.07730 0.85040 0.71970
H16 H 1.09120 0.97530 0.77240
C17 C 1.00300(19) 0.9856(2) 0.63957(15)
H17 H 0.96970 1.06240 0.65450
H18 H 1.06890 1.00000 0.60080
O6 O 0.92419(12) 0.91691(14) 0.58345(10)
C18 C 0.82846(18) 0.8946(2) 0.63844(15)
H19 H 0.77440 0.84720 0.59900
H20 H 0.79250 0.96970 0.65450
C19 C 0.86071(18) 0.8301(2) 0.73088(15)
H21 H 0.79380 0.81510 0.76820
H22 H 0.89410 0.75360 0.71490
#END
