
#######################################################################
#
#                 Cambridge Crystallographic Data Centre
#                                CCDC
#
#######################################################################
#
# If this CIF has been generated from an entry in the Cambridge
# Structural Database, then it will include bibliographic, chemical,
# crystal, experimental, refinement or atomic coordinate data resulting
# from the CCDC's data processing and validation procedures.
#
#######################################################################

data_CSD_CIF_RORJUF
_audit_creation_date 2014-10-14
_audit_creation_method CSD-ConQuest-V1
_database_code_CSD RORJUF
_database_code_depnum_ccdc_archive 'CCDC 1016939'
_chemical_formula_sum 'C23 H19 N1 O3'
_chemical_formula_moiety
;
C23 H19 N1 O3
;
_journal_coden_Cambridge 177
_journal_volume 12
_journal_year 2014
_journal_page_first 9105
_journal_name_full 'Org.Biomol.Chem. '
loop_
_publ_author_name
"Chien-Hung Yeh"
"Wei-Chen Chen"
"P.Gandeepan"
"Ya-Chun Hong"
"Cheng-Hung Shih"
"Chien-Hong Cheng"
_chemical_name_systematic
;
N-methoxy-1-(7-methoxy-2,3-diphenyl-1-benzofuran-4-yl)methanimine
;
_cell_volume   1832.407
_exptl_crystal_colour 'colorless'
_exptl_crystal_density_diffrn 1.295
_diffrn_ambient_temperature 100
#These two values have been output from a single CSD field.
_refine_ls_R_factor_gt 0.04
_refine_ls_wR_factor_gt 0.04
_symmetry_cell_setting monoclinic
_symmetry_space_group_name_H-M 'P 21/c'
_symmetry_Int_Tables_number 14
loop_
_symmetry_equiv_pos_site_id
_symmetry_equiv_pos_as_xyz
1 x,y,z
2 -x,1/2+y,1/2-z
3 -x,-y,-z
4 x,-1/2-y,-1/2+z
_cell_length_a 11.2184(5)
_cell_length_b 11.0939(5)
_cell_length_c 15.1186(7)
_cell_angle_alpha 90
_cell_angle_beta 103.130(1)
_cell_angle_gamma 90
_cell_formula_units_Z 4
loop_
_atom_type_symbol
_atom_type_radius_bond
C 0.68
H 0.23
N 0.68
O 0.68
loop_
_atom_site_label
_atom_site_type_symbol
_atom_site_fract_x
_atom_site_fract_y
_atom_site_fract_z
O1 O 0.30391(9) 0.74232(11) 0.94203(8)
O2 O 0.91866(8) 0.81941(9) 0.94170(6)
O3 O 1.00387(9) 0.63044(9) 1.06129(6)
N1 N 0.42309(11) 0.70810(12) 0.98610(9)
C1 C 0.22566(14) 0.72322(15) 1.00370(12)
H1 H 0.23230 0.63920 1.02430
H2 H 0.14070 0.74050 0.97280
H3 H 0.25040 0.77690 1.05620
C2 C 0.49820(13) 0.73835(13) 0.93737(10)
H4 H 0.46990 0.77900 0.88120
C3 C 0.62785(13) 0.70935(13) 0.96968(9)
C4 C 0.72089(12) 0.77594(13) 0.94159(9)
C5 C 0.72350(12) 0.88098(12) 0.88513(9)
C6 C 0.84410(13) 0.90366(13) 0.88812(9)
C7 C 0.91029(13) 0.99743(12) 0.85035(9)
C8 C 1.03811(13) 1.00201(14) 0.87567(9)
H5 H 1.08160 0.94400 0.91690
C9 C 1.10204(14) 1.09082(14) 0.84092(10)
H6 H 1.18890 1.09290 0.85840
C10 C 1.04003(14) 1.17636(14) 0.78097(10)
H7 H 1.08420 1.23660 0.75720
C11 C 0.66699(13) 0.61492(13) 1.02997(9)
H8 H 0.60690 0.56830 1.04970
C12 C 0.78995(13) 0.58535(13) 1.06286(9)
H9 H 0.81140 0.52080 1.10470
C13 C 0.88140(13) 0.64945(13) 1.03502(9)
C14 C 0.84237(13) 0.74369(12) 0.97419(9)
C15 C 0.61394(12) 0.94895(13) 0.83679(9)
C16 C 0.55958(13) 0.92360(13) 0.74610(9)
H10 H 0.59530 0.86510 0.71410
C17 C 0.45377(14) 0.98319(14) 0.70234(10)
H11 H 0.41730 0.96550 0.64060
C18 C 0.40127(14) 1.06867(14) 0.74876(10)
H12 H 0.32890 1.10950 0.71880
C19 C 0.45450(13) 1.09447(14) 0.8389(1)
H13 H 0.41860 1.15320 0.87060
C20 C 0.56003(13) 1.03465(13) 0.88287(10)
H14 H 0.59580 1.05220 0.94470
C21 C 0.91307(14) 1.17354(13) 0.7558(1)
H15 H 0.87030 1.23260 0.71520
C22 C 0.84832(13) 1.08480(13) 0.78980(9)
H16 H 0.76150 1.08320 0.77190
C23 C 1.04326(14) 0.53997(14) 1.12954(10)
H17 H 1.01160 0.55910 1.18320
H18 H 1.13290 0.53790 1.14640
H19 H 1.01210 0.46110 1.10560
#END
