
#######################################################################
#
#                 Cambridge Crystallographic Data Centre
#                                CCDC
#
#######################################################################
#
# If this CIF has been generated from an entry in the Cambridge
# Structural Database, then it will include bibliographic, chemical,
# crystal, experimental, refinement or atomic coordinate data resulting
# from the CCDC's data processing and validation procedures.
#
#######################################################################

data_CSD_CIF_RORKEQ
_audit_creation_date 2014-10-14
_audit_creation_method CSD-ConQuest-V1
_database_code_CSD RORKEQ
_database_code_depnum_ccdc_archive 'CCDC 1016941'
_chemical_formula_sum 'C44 H30 N2 O4'
_chemical_formula_moiety
;
C44 H30 N2 O4
;
_journal_coden_Cambridge 177
_journal_volume 12
_journal_year 2014
_journal_page_first 9105
_journal_name_full 'Org.Biomol.Chem. '
loop_
_publ_author_name
"Chien-Hung Yeh"
"Wei-Chen Chen"
"P.Gandeepan"
"Ya-Chun Hong"
"Cheng-Hung Shih"
"Chien-Hong Cheng"
_chemical_name_systematic
;
N,N'-dimethoxy-1,2,7,8-tetraphenylfuro[3',2':5,6]anthra[2,1-b]furan-6,12-diimi
ne
;
_cell_volume   3326.255
_exptl_crystal_colour 'colorless'
_exptl_crystal_density_diffrn 1.299
_diffrn_ambient_temperature 100
#These two values have been output from a single CSD field.
_refine_ls_R_factor_gt 0.0494
_refine_ls_wR_factor_gt 0.0494
_symmetry_cell_setting monoclinic
_symmetry_space_group_name_H-M 'C 2/c'
_symmetry_Int_Tables_number 15
loop_
_symmetry_equiv_pos_site_id
_symmetry_equiv_pos_as_xyz
1 x,y,z
2 -x,y,1/2-z
3 1/2+x,1/2+y,z
4 1/2-x,1/2+y,1/2-z
5 -x,-y,-z
6 x,-y,-1/2+z
7 -1/2-x,-1/2-y,-z
8 -1/2+x,-1/2-y,-1/2+z
_cell_length_a 25.919(3)
_cell_length_b 11.2554(14)
_cell_length_c 11.6261(14)
_cell_angle_alpha 90
_cell_angle_beta 101.271(2)
_cell_angle_gamma 90
_cell_formula_units_Z 4
loop_
_atom_type_symbol
_atom_type_radius_bond
C 0.68
H 0.23
N 0.68
O 0.68
loop_
_atom_site_label
_atom_site_type_symbol
_atom_site_fract_x
_atom_site_fract_y
_atom_site_fract_z
O1 O 0.18654(5) 0.14585(12) 0.39458(11)
O2 O 0.01972(5) 0.36779(13) -0.01938(12)
N1 N 0.04993(7) 0.33383(14) 0.08710(14)
C1 C 0.33602(8) -0.01766(18) 0.23811(19)
H1 H 0.36850 -0.05290 0.23080
C2 C 0.33382(8) 0.0607(2) 0.3282(2)
H2 H 0.36500 0.07970 0.38310
C3 C 0.28641(8) 0.11195(19) 0.33915(18)
H3 H 0.28540 0.16630 0.40120
C4 C 0.24027(7) 0.08461(17) 0.26006(17)
C5 C 0.18985(8) 0.13414(17) 0.27720(16)
C6 C 0.14451(7) 0.16692(17) 0.20494(17)
C7 C 0.10851(7) 0.20061(16) 0.28064(16)
C8 C 0.05582(7) 0.23930(16) 0.26691(16)
C9 C 0.02364(7) 0.27610(15) 0.15294(16)
C10 C 0.03298(7) 0.24679(16) 0.36724(16)
C11 C 0.24273(8) 0.00561(18) 0.16865(18)
H4 H 0.21170 -0.01380 0.11360
C12 C 0.29052(9) -0.0445(2) 0.1584(2)
H5 H 0.29200 -0.09800 0.09590
C13 C 0.13645(7) 0.18293(16) 0.39496(17)
C14 C 0.13485(8) 0.16077(17) 0.07512(17)
C15 C 0.16991(9) 0.2135(2) 0.0131(2)
H6 H 0.19920 0.25740 0.05390
C16 C 0.16204(11) 0.2020(2) -0.1077(2)
H7 H 0.18610 0.23730 -0.14950
C17 C 0.11947(12) 0.1395(3) -0.1674(2)
H8 H 0.11450 0.13120 -0.25010
C18 C 0.08392(10) 0.0887(2) -0.1074(2)
H9 H 0.05410 0.04720 -0.14900
C19 C 0.09185(8) 0.09852(18) 0.01391(18)
H10 H 0.06780 0.06250 0.05520
C20 C 0.06325(7) 0.22518(17) 0.48014(17)
H11 H 0.04730 0.23160 0.54680
C21 C 0.11574(8) 0.19481(17) 0.49500(17)
H12 H 0.13670 0.18260 0.57080
C22 C 0.05308(9) 0.4305(2) -0.08402(19)
H13 H 0.06530 0.50450 -0.04310
H14 H 0.03330 0.44900 -0.16270
H15 H 0.08350 0.38090 -0.09030
O1A O -0.18654(5) 0.14585(12) 0.10542(11)
O2A O -0.01972(5) 0.36779(13) 0.51938(12)
N1A N -0.04993(7) 0.33383(14) 0.41290(14)
C1A C -0.33602(8) -0.01766(18) 0.26189(19)
H1A H -0.36850 -0.05290 0.26920
C2A C -0.33382(8) 0.0607(2) 0.1718(2)
H2A H -0.36500 0.07970 0.11690
C3A C -0.28641(8) 0.11195(19) 0.16085(18)
H3A H -0.28540 0.16630 0.09880
C4A C -0.24027(7) 0.08461(17) 0.23994(17)
C5A C -0.18985(8) 0.13414(17) 0.22280(16)
C6A C -0.14451(7) 0.16692(17) 0.29506(17)
C7A C -0.10851(7) 0.20061(16) 0.21936(16)
C8A C -0.05582(7) 0.23930(16) 0.23309(16)
C9A C -0.02364(7) 0.27610(15) 0.34706(16)
C10A C -0.03298(7) 0.24679(16) 0.13276(16)
C11A C -0.24273(8) 0.00561(18) 0.33135(18)
H4A H -0.21170 -0.01380 0.38640
C12A C -0.29052(9) -0.0445(2) 0.3416(2)
H5A H -0.29200 -0.09800 0.40410
C13A C -0.13645(7) 0.18293(16) 0.10504(17)
C14A C -0.13485(8) 0.16077(17) 0.42488(17)
C15A C -0.16991(9) 0.2135(2) 0.4869(2)
H6A H -0.19920 0.25740 0.44610
C16A C -0.16204(11) 0.2020(2) 0.6077(2)
H7A H -0.18610 0.23730 0.64950
C17A C -0.11947(12) 0.1395(3) 0.6674(2)
H8A H -0.11450 0.13120 0.75010
C18A C -0.08392(10) 0.0887(2) 0.6074(2)
H9A H -0.05410 0.04720 0.64900
C19A C -0.09185(8) 0.09852(18) 0.48609(18)
H10A H -0.06780 0.06250 0.44480
C20A C -0.06325(7) 0.22518(17) 0.01986(17)
H11A H -0.04730 0.23160 -0.04680
C21A C -0.11574(8) 0.19481(17) 0.00500(17)
H12A H -0.13670 0.18260 -0.07080
C22A C -0.05308(9) 0.4305(2) 0.58402(19)
H13A H -0.06530 0.50450 0.54310
H14A H -0.03330 0.44900 0.66270
H15A H -0.08350 0.38090 0.59030
#END
