
#######################################################################
#
#                 Cambridge Crystallographic Data Centre
#                                CCDC
#
#######################################################################
#
# If this CIF has been generated from an entry in the Cambridge
# Structural Database, then it will include bibliographic, chemical,
# crystal, experimental, refinement or atomic coordinate data resulting
# from the CCDC's data processing and validation procedures.
#
#######################################################################

data_CSD_CIF_ROSGEN
_audit_creation_date 2014-10-15
_audit_creation_method CSD-ConQuest-V1
_database_code_CSD ROSGEN
_database_code_depnum_ccdc_archive 'CCDC 1006407'
_chemical_formula_sum 'C12 H14 N2 O4'
_chemical_formula_moiety
;
C12 H14 N2 O4
;
_journal_coden_Cambridge 920
_journal_volume 9
_journal_year 2015
_journal_page_first 3533
_journal_name_full 'Chem.Asian J. '
loop_
_publ_author_name
"Sohan Lal"
"S.Rajkumar"
"A.Tare"
"S.Reshmi"
"A.Chowdhury"
"I.N.N.Namboothiri"
_chemical_name_systematic
;
6,6-bis(nitromethyl)pentacyclo[5.3.0.0^2,5^.0^3,9^.0^4,8^]decane
;
_cell_volume   2249.926
_exptl_crystal_colour 'colorless'
_exptl_crystal_density_diffrn 1.478
_exptl_crystal_description 'plate'
_diffrn_ambient_temperature 150
#These two values have been output from a single CSD field.
_refine_ls_R_factor_gt 0.0711
_refine_ls_wR_factor_gt 0.0711
_symmetry_cell_setting orthorhombic
_symmetry_space_group_name_H-M 'P b c a'
_symmetry_Int_Tables_number 61
loop_
_symmetry_equiv_pos_site_id
_symmetry_equiv_pos_as_xyz
1 x,y,z
2 1/2-x,-y,1/2+z
3 -x,1/2+y,1/2-z
4 1/2+x,1/2-y,-z
5 -x,-y,-z
6 -1/2+x,y,-1/2-z
7 x,-1/2-y,-1/2+z
8 -1/2-x,-1/2+y,z
_cell_length_a 12.2239(11)
_cell_length_b 10.3474(11)
_cell_length_c 17.788(3)
_cell_angle_alpha 90
_cell_angle_beta 90
_cell_angle_gamma 90
_cell_formula_units_Z 8
loop_
_atom_type_symbol
_atom_type_radius_bond
C 0.68
H 0.23
N 0.68
O 0.68
loop_
_atom_site_label
_atom_site_type_symbol
_atom_site_fract_x
_atom_site_fract_y
_atom_site_fract_z
O1 O 0.25273(19) 1.0002(2) 0.10962(16)
O2 O 0.2555(2) 0.9834(3) 0.23029(15)
O3 O -0.0612(2) 0.7187(4) 0.32628(18)
O4 O 0.1119(2) 0.7200(4) 0.3226(2)
N1 N 0.23567(19) 0.9413(3) 0.16753(17)
N2 N 0.0243(2) 0.7596(3) 0.30181(17)
C1 C 0.1854(2) 0.8101(3) 0.16128(19)
H1 H 0.21360 0.75430 0.20210
H2 H 0.20640 0.77070 0.11270
C2 C 0.0598(2) 0.8175(3) 0.16655(18)
C3 C 0.0054(2) 0.8995(3) 0.10473(19)
H3 H 0.01670 0.99520 0.10650
C4 C 0.0283(3) 0.8303(3) 0.0302(2)
H4 H 0.07880 0.86760 -0.00830
C5 C 0.0349(3) 0.6857(3) 0.0540(2)
H5 H 0.09950 0.63450 0.03680
C6 C 0.0102(3) 0.6888(3) 0.1390(2)
H6 H 0.03320 0.61030 0.16770
C7 C 0.0208(3) 0.8642(3) 0.2434(2)
H7 H 0.06750 0.93700 0.25990
H8 H -0.05510 0.89670 0.23880
C8 C -0.1149(3) 0.8488(4) 0.0986(2)
H9 H -0.17600 0.90960 0.11080
C9 C -0.0950(3) 0.8121(4) 0.0143(2)
H10 H -0.13300 0.85750 -0.02790
C10 C -0.0777(3) 0.6595(4) 0.0150(2)
H11 H -0.07850 0.61200 -0.03400
C11 C -0.1521(3) 0.6175(5) 0.0746(3)
H12 H -0.13950 0.52640 0.08930
H13 H -0.22990 0.62990 0.06080
C12 C -0.1143(3) 0.7141(3) 0.1366(2)
H14 H -0.15340 0.70790 0.18580
#END
