
#######################################################################
#
#                 Cambridge Crystallographic Data Centre
#                                CCDC
#
#######################################################################
#
# If this CIF has been generated from an entry in the Cambridge
# Structural Database, then it will include bibliographic, chemical,
# crystal, experimental, refinement or atomic coordinate data resulting
# from the CCDC's data processing and validation procedures.
#
#######################################################################

data_CSD_CIF_ROTVUT
_audit_creation_date 2014-10-16
_audit_creation_method CSD-ConQuest-V1
_database_code_CSD ROTVUT
_database_code_depnum_ccdc_archive 'CCDC 949516'
_chemical_formula_sum 'C12 H13 N3 O4'
_chemical_formula_moiety
;
C12 H13 N3 O4
;
_journal_coden_Cambridge 95
_journal_year 2014
_journal_page_first 1378
_journal_name_full 'Izv.Akad.Nauk SSSR,Ser.Khim.(Russ.)(Russ.Chem.Bull.) '
loop_
_publ_author_name
"V.F.Sedova"
"V.P.Krivopalov"
"Yu.V.Gatilov"
"O.P.Shkurko"
_chemical_name_systematic
;
(2R*,6S*,11S*)-2,8-Dimethyl-11-nitro-5,6-dihydro-2H-2,6-methano-1,3,5-benzoxad
iazocin-4(3H)-one
;
_chemical_melting_point 515
_cell_volume   1213.206
_exptl_crystal_colour 'colorless'
_exptl_crystal_density_diffrn 1.441
_exptl_crystal_description 'plate'
_diffrn_ambient_temperature 150
#These two values have been output from a single CSD field.
_refine_ls_R_factor_gt 0.0621
_refine_ls_wR_factor_gt 0.0621
_symmetry_cell_setting monoclinic
_symmetry_space_group_name_H-M 'P 21/n'
_symmetry_Int_Tables_number 14
loop_
_symmetry_equiv_pos_site_id
_symmetry_equiv_pos_as_xyz
1 x,y,z
2 1/2-x,1/2+y,1/2-z
3 -x,-y,-z
4 -1/2+x,-1/2-y,-1/2+z
_cell_length_a 7.3919(7)
_cell_length_b 18.4971(17)
_cell_length_c 9.3583(9)
_cell_angle_alpha 90
_cell_angle_beta 108.531(3)
_cell_angle_gamma 90
_cell_formula_units_Z 4
loop_
_atom_type_symbol
_atom_type_radius_bond
C 0.68
H 0.23
N 0.68
O 0.68
loop_
_atom_site_label
_atom_site_type_symbol
_atom_site_fract_x
_atom_site_fract_y
_atom_site_fract_z
O1 O 0.1701(3) 0.84369(10) 0.2910(2)
N1 N 0.2797(3) 0.78175(12) -0.0564(2)
O2 O 0.2411(2) 1.01229(9) -0.0209(2)
C1 C 0.1323(3) 0.84262(13) 0.1285(3)
O3 O 0.4115(3) 0.74668(12) -0.0735(2)
N2 N 0.1257(3) 0.91541(11) 0.0710(2)
H1 H 0.022(5) 0.9424(19) 0.056(4)
O4 O 0.1390(3) 0.80024(11) -0.1589(2)
C2 C 0.2671(3) 0.95053(13) 0.0350(3)
N3 N 0.4344(3) 0.91433(11) 0.0602(2)
H2 H 0.535(5) 0.9422(19) 0.053(4)
C3 C 0.4737(3) 0.85140(13) 0.1608(3)
H3 H 0.59000 0.82580 0.15440
C4 C 0.5012(4) 0.87218(13) 0.3221(3)
C5 C 0.6759(4) 0.89707(14) 0.4159(3)
H4 H 0.78030 0.90000 0.37770
C6 C 0.7027(4) 0.91776(15) 0.5638(3)
C7 C 0.5469(5) 0.91186(17) 0.6167(3)
H5 H 0.56190 0.92480 0.71800
C8 C 0.3476(4) 0.86842(14) 0.3777(3)
C9 C 0.3712(5) 0.88767(16) 0.5254(3)
H6 H 0.26710 0.88430 0.56400
C10 C 0.3005(3) 0.80160(13) 0.1045(3)
H7 H 0.32440 0.75670 0.16720
C11 C -0.0620(4) 0.80719(15) 0.0694(4)
H8 H -0.15630 0.83690 0.09610
H9 H -0.05690 0.75910 0.11440
H10 H -0.09860 0.80270 -0.04040
C12 C 0.8918(5) 0.94641(19) 0.6619(4)
H11 H 0.99490 0.92300 0.63430
H12 H 0.90680 0.93610 0.76780
H13 H 0.89690 0.99880 0.64760
#END
