
#######################################################################
#
#                 Cambridge Crystallographic Data Centre
#                                CCDC
#
#######################################################################
#
# If this CIF has been generated from an entry in the Cambridge
# Structural Database, then it will include bibliographic, chemical,
# crystal, experimental, refinement or atomic coordinate data resulting
# from the CCDC's data processing and validation procedures.
#
#######################################################################

data_CSD_CIF_ROTXUV
_audit_creation_date 2014-10-16
_audit_creation_method CSD-ConQuest-V1
_database_code_CSD ROTXUV
_database_code_depnum_ccdc_archive 'CCDC 978034'
_chemical_formula_sum 'C14 H14 N4 O3'
_chemical_formula_moiety
;
C14 H14 N4 O3
;
_journal_coden_Cambridge 95
_journal_year 2014
_journal_page_first 1350
_journal_name_full 'Izv.Akad.Nauk SSSR,Ser.Khim.(Russ.)(Russ.Chem.Bull.) '
loop_
_publ_author_name
"E.M.Cheprakova"
"E.V.Verbitskii"
"M.A.Ezhikova"
"M.I.Kodess"
"M.G.Pervova"
"P.A.Slepukhin"
"M.S.Toporova"
"M.A.Kravchenko"
"I.D.Medvinskii"
"G.L.Rusinov"
"V.N.Charushin"
_chemical_name_systematic
;
4-(5-(3-nitrophenyl)pyrimidin-2-yl)morpholine
;
_cell_volume   1303.835
_exptl_crystal_colour 'yellow'
_exptl_crystal_density_diffrn 1.458
_exptl_special_details
;
Luminescent

;
_exptl_crystal_description 'plate'
_diffrn_ambient_temperature 295
#These two values have been output from a single CSD field.
_refine_ls_R_factor_gt 0.0325
_refine_ls_wR_factor_gt 0.0325
_symmetry_cell_setting orthorhombic
_symmetry_space_group_name_H-M 'P c a 21'
_symmetry_Int_Tables_number 29
loop_
_symmetry_equiv_pos_site_id
_symmetry_equiv_pos_as_xyz
1 x,y,z
2 -x,-y,1/2+z
3 1/2+x,-y,z
4 1/2-x,y,1/2+z
_cell_length_a 22.1710(15)
_cell_length_b 4.1344(3)
_cell_length_c 14.2241(11)
_cell_angle_alpha 90
_cell_angle_beta 90
_cell_angle_gamma 90
_cell_formula_units_Z 4
loop_
_atom_type_symbol
_atom_type_radius_bond
C 0.68
H 0.23
N 0.68
O 0.68
loop_
_atom_site_label
_atom_site_type_symbol
_atom_site_fract_x
_atom_site_fract_y
_atom_site_fract_z
N1 N 0.11677(5) 0.0933(3) 0.50735(8)
O1 O -0.13812(6) -0.9095(4) 0.72658(13)
C1 C 0.32135(7) 0.2811(4) 0.44883(12)
H1 H 0.36040 0.35270 0.47150
H2 H 0.32400 0.05110 0.43600
C2 C 0.17265(6) 0.1193(3) 0.54287(9)
N2 N -0.09789(6) -0.7997(4) 0.67906(12)
O2 O -0.09595(6) -0.8336(4) 0.59418(11)
O3 O 0.30748(5) 0.4465(3) 0.36454(8)
N3 N 0.18969(5) 0.0177(3) 0.62830(9)
C3 C 0.27497(6) 0.3376(4) 0.52384(11)
H3 H 0.28420 0.20650 0.57850
H4 H 0.27540 0.56310 0.54270
C4 C 0.14737(7) -0.1215(4) 0.67981(11)
H5 H 0.1600(6) -0.202(4) 0.7381(13)
N4 N 0.21552(5) 0.2524(3) 0.48768(8)
C5 C 0.08862(6) -0.1661(3) 0.65081(10)
C6 C 0.07649(6) -0.0496(3) 0.56187(10)
H6 H 0.0347(6) -0.056(3) 0.5380(11)
C7 C 0.04243(6) -0.3226(3) 0.70964(9)
C8 C -0.00612(6) -0.4803(3) 0.66901(11)
H7 H -0.0104(7) -0.505(3) 0.6007(11)
C9 C -0.04874(6) -0.6274(4) 0.72481(12)
C10 C -0.04570(7) -0.6224(5) 0.82126(12)
H8 H -0.0741(7) -0.725(4) 0.8550(12)
C11 C 0.00234(8) -0.4661(5) 0.86080(11)
H9 H 0.0051(9) -0.444(5) 0.9289(16)
C12 C 0.04572(7) -0.3190(4) 0.80741(11)
H10 H 0.0773(8) -0.212(4) 0.8372(13)
C13 C 0.25095(7) 0.3362(4) 0.32912(12)
H11 H 0.25350 0.10630 0.31600
H12 H 0.24210 0.44660 0.27050
C14 C 0.20075(6) 0.3965(4) 0.39761(10)
H13 H 0.19470 0.62740 0.40520
H14 H 0.16360 0.30340 0.37380
#END
