
#######################################################################
#
#                 Cambridge Crystallographic Data Centre
#                                CCDC
#
#######################################################################
#
# If this CIF has been generated from an entry in the Cambridge
# Structural Database, then it will include bibliographic, chemical,
# crystal, experimental, refinement or atomic coordinate data resulting
# from the CCDC's data processing and validation procedures.
#
#######################################################################

data_CSD_CIF_ROWHUI
_audit_creation_date 2015-03-11
_audit_creation_method CSD-ConQuest-V1
_database_code_CSD ROWHUI
_database_code_depnum_ccdc_archive 'CCDC 1041437'
_chemical_formula_sum 'C18 H12 N2 O4'
_chemical_formula_moiety
;
C18 H12 N2 O4
;
_journal_coden_Cambridge 579
_journal_volume 34
_journal_year 2015
_journal_page_first 953
_journal_name_full 'Organometallics '
loop_
_publ_author_name
"Jean-Ho Chu"
"Shih-Tien Chen"
"Meng-Fan Chiang"
"Ming-Jung Wu"
_chemical_name_systematic
;
(4-Nitrophenyl)(2-(pyridin-2-yloxy)phenyl)methanone
;
_cell_volume   1496.728
_exptl_crystal_colour 'colorless'
_exptl_crystal_density_diffrn 1.421
_exptl_crystal_description 'prism'
_exptl_crystal_preparation 'ethyl acetate/hexane'
_diffrn_ambient_temperature 296
#These two values have been output from a single CSD field.
_refine_ls_R_factor_gt 0.0387
_refine_ls_wR_factor_gt 0.0387
_symmetry_cell_setting monoclinic
_symmetry_space_group_name_H-M 'P 21/c'
_symmetry_Int_Tables_number 14
loop_
_symmetry_equiv_pos_site_id
_symmetry_equiv_pos_as_xyz
1 x,y,z
2 -x,1/2+y,1/2-z
3 -x,-y,-z
4 x,-1/2-y,-1/2+z
_cell_length_a 6.0929(10)
_cell_length_b 15.534(3)
_cell_length_c 16.056(3)
_cell_angle_alpha 90
_cell_angle_beta 99.965(3)
_cell_angle_gamma 90
_cell_formula_units_Z 4
loop_
_atom_type_symbol
_atom_type_radius_bond
C 0.68
H 0.23
N 0.68
O 0.68
loop_
_atom_site_label
_atom_site_type_symbol
_atom_site_fract_x
_atom_site_fract_y
_atom_site_fract_z
C1 C 0.5424(3) 0.6152(1) 0.05451(10)
C2 C 0.6724(3) 0.59382(12) 0.13028(10)
H1 H 0.81520 0.61630 0.14530
C3 C 0.5871(3) 0.53849(12) 0.1835(1)
H2 H 0.67320 0.52350 0.23510
C4 C 0.3743(2) 0.50477(10) 0.16120(9)
C5 C 0.2462(3) 0.52928(11) 0.0850(1)
H3 H 0.10210 0.50800 0.07010
C6 C 0.3285(3) 0.58465(11) 0.03098(10)
H4 H 0.24200 0.60100 -0.02010
C7 C 0.2758(3) 0.44438(11) 0.21762(10)
C8 C 0.4234(3) 0.40598(10) 0.29250(9)
C9 C 0.6153(3) 0.36235(11) 0.28204(10)
H5 H 0.65450 0.35990 0.22860
C10 C 0.7496(3) 0.32237(11) 0.34905(11)
H6 H 0.87610 0.29260 0.34040
C11 C 0.6956(3) 0.32684(11) 0.42842(11)
H7 H 0.78550 0.30010 0.47380
C12 C 0.5081(3) 0.37096(12) 0.44079(11)
H8 H 0.47290 0.37470 0.49480
C13 C 0.3720(3) 0.40967(11) 0.37377(10)
C14 C 0.1304(3) 0.53193(11) 0.37169(10)
C15 C -0.0692(3) 0.56212(13) 0.38984(11)
H9 H -0.16380 0.52690 0.41440
C16 C -0.1217(3) 0.64598(14) 0.37017(12)
H10 H -0.25450 0.66920 0.38120
C17 C 0.0231(3) 0.69624(13) 0.33392(12)
H11 H -0.00990 0.75350 0.32000
C18 C 0.2162(3) 0.65952(12) 0.31904(12)
H12 H 0.31390 0.69330 0.29460
N1 N 0.6385(3) 0.67071(10) -0.00417(10)
N2 N 0.2730(2) 0.57729(9) 0.33764(9)
O1 O 0.5207(2) 0.69072(9) -0.07081(8)
O2 O 0.8305(3) 0.69389(11) 0.01599(10)
O3 O 0.07872(19) 0.42592(9) 0.20130(8)
O4 O 0.17982(19) 0.44758(8) 0.39216(7)
#END
