
#######################################################################
#
#                 Cambridge Crystallographic Data Centre
#                                CCDC
#
#######################################################################
#
# If this CIF has been generated from an entry in the Cambridge
# Structural Database, then it will include bibliographic, chemical,
# crystal, experimental, refinement or atomic coordinate data resulting
# from the CCDC's data processing and validation procedures.
#
#######################################################################

data_CSD_CIF_ROXKOG
_audit_creation_date 2015-03-11
_audit_creation_method CSD-ConQuest-V1
_database_code_CSD ROXKOG
_database_code_depnum_ccdc_archive 'CCDC 995674'
_chemical_formula_sum 'C21 H26 N4 O2'
_chemical_formula_moiety
;
C21 H26 N4 O2
;
_journal_coden_Cambridge 1500
_journal_volume 5
_journal_year 2015
_journal_page_first 25806
_journal_name_full 'RSC Advances '
loop_
_publ_author_name
"J.Staron"
"D.Warszycki"
"J.Kalinowska-Tluscik"
"G.Satala"
"A.J.Bojarski"
_chemical_name_systematic
;
2-(5-(4-Methylpiperazin-1-yl)-2-nitrophenyl)-2,3,4,5-tetrahydro-1H-2-benzazepi
ne
;
_cell_volume    927.623
_exptl_crystal_colour 'orange'
_exptl_crystal_density_diffrn 1.312
_exptl_special_details
;
5-HT!6$ receptor ligand activity

;
_exptl_crystal_description 'prism'
_exptl_crystal_preparation 'acetone'
_diffrn_ambient_temperature 100
#These two values have been output from a single CSD field.
_refine_ls_R_factor_gt 0.0353
_refine_ls_wR_factor_gt 0.0353
_symmetry_cell_setting triclinic
_symmetry_space_group_name_H-M 'P -1'
_symmetry_Int_Tables_number 2
loop_
_symmetry_equiv_pos_site_id
_symmetry_equiv_pos_as_xyz
1 x,y,z
2 -x,-y,-z
_cell_length_a 9.5413(2)
_cell_length_b 10.1771(2)
_cell_length_c 11.0759(2)
_cell_angle_alpha 105.049(2)
_cell_angle_beta 92.969(2)
_cell_angle_gamma 114.710(1)
_cell_formula_units_Z 2
loop_
_atom_type_symbol
_atom_type_radius_bond
C 0.68
H 0.23
N 0.68
O 0.68
loop_
_atom_site_label
_atom_site_type_symbol
_atom_site_fract_x
_atom_site_fract_y
_atom_site_fract_z
O1 O 0.39876(9) 0.50733(9) 0.69416(7)
N1 N 0.79848(9) 0.28261(9) 0.97078(7)
O2 O 0.21547(9) 0.36624(9) 0.77650(7)
N2 N 0.34831(10) 0.41033(9) 0.74951(7)
N3 N 0.56832(9) 0.33752(10) 0.59753(7)
N4 N 1.00564(10) 0.19636(10) 1.09138(8)
C1 C 0.56593(11) 0.33319(10) 0.72093(8)
C2 C 0.76459(11) 0.26521(11) 0.48725(9)
C3 C 0.67803(11) 0.30666(10) 0.78392(9)
H1 H 0.75690 0.29400 0.74040
C4 C 0.71598(11) 0.38759(10) 0.54979(9)
H2 H 0.80080 0.46400 0.62170
H3 H 0.70840 0.43950 0.48730
C5 C 0.39612(11) 0.12140(11) 0.40411(9)
H4 H 0.29140 0.07850 0.35050
H5 H 0.39380 0.04810 0.44870
C6 C 0.55327(11) 0.30404(11) 0.96888(9)
H6 H 0.54580 0.29000 1.05020
C7 C 0.42433(11) 0.27023(11) 0.50368(9)
H7 H 0.42850 0.34450 0.45960
H8 H 0.33410 0.25080 0.54860
C8 C 0.44205(11) 0.33039(10) 0.90912(9)
H9 H 0.35790 0.33400 0.94980
C9 C 0.94597(11) 0.29580(11) 1.16520(9)
H10 H 1.02110 0.40320 1.17870
H11 H 0.93590 0.28020 1.24950
C10 C 0.67027(11) 0.14661(11) 0.37680(9)
C11 C 0.78731(11) 0.26338(11) 1.09716(9)
H12 H 0.71040 0.15800 1.08860
H13 H 0.74990 0.33360 1.14790
C12 C 0.67901(11) 0.29791(10) 0.90882(9)
C13 C 0.90656(12) 0.27342(12) 0.53665(9)
H14 H 0.97160 0.35500 0.61010
C14 C 1.03034(12) 0.23134(12) 0.97247(9)
H15 H 1.07430 0.16750 0.92150
H16 H 1.10730 0.33930 0.99110
C15 C 0.72024(12) 0.03816(11) 0.32043(9)
H17 H 0.65710 -0.04230 0.24570
C16 C 0.51807(11) 0.13550(11) 0.31700(9)
H18 H 0.47170 0.04600 0.23950
H19 H 0.54150 0.22700 0.29040
C17 C 0.45067(11) 0.35185(10) 0.78980(9)
C18 C 0.95438(12) 0.16356(13) 0.47966(10)
H20 H 1.05070 0.16970 0.51480
C19 C 0.86089(13) 0.04549(12) 0.37161(10)
H21 H 0.89240 -0.03000 0.33260
C20 C 1.15265(12) 0.21836(14) 1.16019(10)
H22 H 1.18960 0.14960 1.10850
H23 H 1.13520 0.19630 1.24070
H24 H 1.23170 0.32390 1.17760
C21 C 0.87816(12) 0.20298(13) 0.89627(9)
H25 H 0.90070 0.23720 0.82050
H26 H 0.80750 0.09240 0.86640
#END
