
#######################################################################
#
#                 Cambridge Crystallographic Data Centre
#                                CCDC
#
#######################################################################
#
# If this CIF has been generated from an entry in the Cambridge
# Structural Database, then it will include bibliographic, chemical,
# crystal, experimental, refinement or atomic coordinate data resulting
# from the CCDC's data processing and validation procedures.
#
#######################################################################

data_CSD_CIF_ROXWOS
_audit_creation_date 2015-03-11
_audit_creation_method CSD-ConQuest-V1
_database_code_CSD ROXWOS
_database_code_depnum_ccdc_archive 'CCDC 1015010'
_chemical_formula_sum 'C25 H21 N3 O5'
_chemical_formula_moiety
;
C25 H21 N3 O5
;
_journal_coden_Cambridge 4
_journal_volume 137
_journal_year 2015
_journal_page_first 931
_journal_name_full 'J.Am.Chem.Soc. '
loop_
_publ_author_name
"Yi Wang"
"Xiao Tan"
"Yu-Mo Zhang"
"Shaoyin Zhu"
"Ivan Zhang"
"Binhong Yu"
"Kai Wang"
"Bing Yang"
"Minjie Li"
"Bo Zou"
"Sean Xiao-An Zhang"
_chemical_name_systematic
;
6,6-Dimethyl-2-nitro-5a-(2-(4-nitrophenyl)vinyl)-5a,6-dihydro-12H-indolo[2,1-b
][1,3]benzoxazine
;
_cell_volume   2117.075
_exptl_crystal_colour 'colorless'
_exptl_crystal_density_diffrn 1.391
_exptl_crystal_description 'block'
_diffrn_ambient_temperature 153
#These two values have been output from a single CSD field.
_refine_ls_R_factor_gt 0.0549
_refine_ls_wR_factor_gt 0.0549
_symmetry_cell_setting monoclinic
_symmetry_space_group_name_H-M 'P 21/c'
_symmetry_Int_Tables_number 14
loop_
_symmetry_equiv_pos_site_id
_symmetry_equiv_pos_as_xyz
1 x,y,z
2 -x,1/2+y,1/2-z
3 -x,-y,-z
4 x,-1/2-y,-1/2+z
_cell_length_a 14.314(3)
_cell_length_b 13.075(3)
_cell_length_c 12.034(2)
_cell_angle_alpha 90
_cell_angle_beta 109.95(3)
_cell_angle_gamma 90
_cell_formula_units_Z 4
loop_
_atom_type_symbol
_atom_type_radius_bond
C 0.68
H 0.23
N 0.68
O 0.68
loop_
_atom_site_label
_atom_site_type_symbol
_atom_site_fract_x
_atom_site_fract_y
_atom_site_fract_z
C1 C -0.03403(17) 0.16974(15) 0.61557(19)
C2 C -0.09918(19) 0.24226(17) 0.5474(2)
H1 H -0.08420 0.27950 0.48780
C3 C -0.1874(2) 0.25864(19) 0.5694(3)
H2 H -0.23280 0.30850 0.52440
C4 C -0.2104(2) 0.2045(2) 0.6546(3)
H3 H -0.27090 0.21750 0.66810
C5 C -0.14492(19) 0.13066(18) 0.7210(2)
H4 H -0.16060 0.09270 0.77960
C6 C -0.05697(17) 0.11317(15) 0.70094(19)
C7 C 0.02425(16) 0.03543(14) 0.75374(18)
C8 C -0.00732(18) -0.06686(15) 0.6876(2)
H5 H -0.06880 -0.09100 0.69760
H6 H 0.04530 -0.11770 0.71990
H7 H -0.01850 -0.05680 0.60340
C9 C 0.04956(19) 0.01744(17) 0.88570(19)
H8 H 0.05890 0.08340 0.92680
H9 H 0.11090 -0.02270 0.91590
H10 H -0.00480 -0.01990 0.89950
C10 C 0.10980(16) 0.08440(14) 0.71995(17)
C11 C 0.18750(17) 0.01217(15) 0.70837(19)
H11 H 0.17130 -0.02670 0.63760
C12 C 0.27600(18) -0.00176(15) 0.7880(2)
H12 H 0.29350 0.03940 0.85720
C13 C 0.35011(17) -0.07594(15) 0.77844(19)
C14 C 0.42227(18) -0.11202(17) 0.8806(2)
H13 H 0.42610 -0.08440 0.95500
C15 C 0.48852(17) -0.18735(16) 0.8757(2)
H14 H 0.53650 -0.21280 0.94610
C16 C 0.48363(16) -0.22472(15) 0.76733(19)
C17 C 0.41623(19) -0.18830(18) 0.6640(2)
H15 H 0.41560 -0.21360 0.58970
C18 C 0.3495(2) -0.11429(18) 0.6701(2)
H16 H 0.30220 -0.08900 0.59910
C19 C 0.20377(15) 0.24009(14) 0.78354(18)
C20 C 0.26797(16) 0.29627(15) 0.87665(19)
H17 H 0.27900 0.27610 0.95590
C21 C 0.31582(17) 0.38150(16) 0.8538(2)
H18 H 0.36000 0.42020 0.91670
C22 C 0.29803(17) 0.40906(15) 0.7381(2)
C23 C 0.23500(17) 0.35465(15) 0.6447(2)
H19 H 0.22460 0.37560 0.56580
C24 C 0.18650(16) 0.26877(15) 0.66627(18)
C25 C 0.12073(18) 0.20303(16) 0.56810(19)
H20 H 0.07820 0.24730 0.50400
H21 H 0.16240 0.16070 0.53520
N1 N 0.05823(14) 0.13676(12) 0.60993(15)
N2 N 0.55193(14) -0.30680(13) 0.76058(17)
N3 N 0.34716(17) 0.50046(14) 0.7129(2)
O1 O 0.15718(11) 0.15907(10) 0.81408(12)
O2 O 0.60994(13) -0.34098(12) 0.85341(15)
O3 O 0.54776(14) -0.33757(12) 0.66325(15)
O4 O 0.40562(17) 0.54575(15) 0.7958(2)
O5 O 0.32675(17) 0.52703(15) 0.60938(19)
#END
