
#######################################################################
#
#                 Cambridge Crystallographic Data Centre
#                                CCDC
#
#######################################################################
#
# If this CIF has been generated from an entry in the Cambridge
# Structural Database, then it will include bibliographic, chemical,
# crystal, experimental, refinement or atomic coordinate data resulting
# from the CCDC's data processing and validation procedures.
#
#######################################################################

data_CSD_CIF_ROYZAI
_audit_creation_date 2015-03-11
_audit_creation_method CSD-ConQuest-V1
_database_code_CSD ROYZAI
_database_code_depnum_ccdc_archive 'CCDC 978045'
_chemical_formula_sum 'C24 H21 N3 O3'
_chemical_formula_moiety
;
C24 H21 N3 O3
;
_journal_coden_Cambridge 24
_journal_volume 55
_journal_year 2014
_journal_page_first 5434
_journal_name_full 'Tetrahedron Lett. '
loop_
_publ_author_name
"Hongbao Sun"
"Xiaoyan Wang"
"Yi chen"
"Liang Ouyang"
"Jie Liu"
"Yiwen Zhang"
_chemical_name_systematic
;
1-Methyl-4'-nitro-3',5'-diphenylspiro[indole-3,2'-pyrrolidin]-2(1H)-one
;
_cell_volume   1012.156
_exptl_crystal_density_diffrn 1.311
_diffrn_ambient_temperature 293.1
#These two values have been output from a single CSD field.
_refine_ls_R_factor_gt 0.0455
_refine_ls_wR_factor_gt 0.0455
_symmetry_cell_setting triclinic
_symmetry_space_group_name_H-M 'P -1'
_symmetry_Int_Tables_number 2
loop_
_symmetry_equiv_pos_site_id
_symmetry_equiv_pos_as_xyz
1 x,y,z
2 -x,-y,-z
_cell_length_a 9.1813(7)
_cell_length_b 10.8619(9)
_cell_length_c 11.6038(7)
_cell_angle_alpha 99.115(6)
_cell_angle_beta 110.362(6)
_cell_angle_gamma 104.356(7)
_cell_formula_units_Z 2
loop_
_atom_type_symbol
_atom_type_radius_bond
C 0.68
H 0.23
N 0.68
O 0.68
loop_
_atom_site_label
_atom_site_type_symbol
_atom_site_fract_x
_atom_site_fract_y
_atom_site_fract_z
C1 C 0.74322(19) 0.28173(15) 0.33518(15)
C2 C 0.62460(17) 0.34756(14) 0.25788(14)
C3 C 0.48765(18) 0.22979(15) 0.16018(14)
C4 C 0.52376(19) 0.11611(15) 0.18056(15)
C5 C 0.4172(2) -0.00714(17) 0.10723(18)
H1 H 0.44190 -0.08290 0.12130
C6 C 0.2716(2) -0.01422(19) 0.01170(19)
H2 H 0.19680 -0.09660 -0.03870
C7 C 0.2343(2) 0.0973(2) -0.01090(18)
H3 H 0.13590 0.08950 -0.07630
C8 C 0.34393(19) 0.22158(17) 0.06416(16)
H4 H 0.32010 0.29750 0.04950
C9 C 0.7501(2) 0.05502(18) 0.3347(2)
H5 H 0.78160 0.01040 0.27380
H6 H 0.67170 -0.00830 0.35130
H7 H 0.84550 0.10060 0.41260
C10 C 0.70947(17) 0.45172(14) 0.20441(13)
H8 H 0.62160 0.47300 0.14270
C11 C 0.79987(18) 0.57303(14) 0.31994(14)
H9 H 0.91450 0.57750 0.36300
C12 C 0.70956(19) 0.55071(14) 0.41082(14)
H10 H 0.78220 0.53050 0.48450
C13 C 0.80929(17) 0.41182(14) 0.13504(14)
C14 C 0.96777(19) 0.40950(17) 0.19773(16)
H11 H 1.01730 0.43560 0.28640
C15 C 1.0524(2) 0.36890(18) 0.12990(18)
H12 H 1.15790 0.36710 0.17310
C16 C 0.9816(2) 0.33114(17) -0.00100(18)
H13 H 1.03890 0.30400 -0.04650
C17 C 0.8255(2) 0.33364(17) -0.06455(17)
H14 H 0.77760 0.30870 -0.15330
C18 C 0.7396(2) 0.37297(15) 0.00262(15)
H15 H 0.63370 0.37350 -0.04140
C19 C 0.6586(2) 0.66232(15) 0.46039(15)
C20 C 0.7718(3) 0.76076(18) 0.56842(18)
H16 H 0.87690 0.75680 0.60860
C21 C 0.7303(3) 0.8650(2) 0.6173(2)
H17 H 0.80760 0.93090 0.68970
C22 C 0.5759(3) 0.8712(2) 0.5592(2)
H18 H 0.54830 0.94170 0.59180
C23 C 0.4617(3) 0.7737(2) 0.4532(2)
H19 H 0.35630 0.77770 0.41460
C24 C 0.5022(2) 0.66897(18) 0.40312(18)
H20 H 0.42410 0.60320 0.33090
N1 N 0.67680(16) 0.14955(12) 0.28373(13)
N2 N 0.57023(16) 0.42991(12) 0.33481(13)
H21 H 0.534(2) 0.3900(19) 0.3837(18)
N3 N 0.79448(19) 0.69679(13) 0.27815(14)
O1 O 0.87241(14) 0.33894(11) 0.42774(11)
O2 O 0.66599(18) 0.70185(13) 0.20597(14)
O3 O 0.9209(2) 0.78804(15) 0.32170(18)
#END
