
#######################################################################
#
#                 Cambridge Crystallographic Data Centre
#                                CCDC
#
#######################################################################
#
# If this CIF has been generated from an entry in the Cambridge
# Structural Database, then it will include bibliographic, chemical,
# crystal, experimental, refinement or atomic coordinate data resulting
# from the CCDC's data processing and validation procedures.
#
#######################################################################

data_CSD_CIF_ROZVUZ
_audit_creation_date 2015-03-12
_audit_creation_method CSD-ConQuest-V1
_database_code_CSD ROZVUZ
_database_code_depnum_ccdc_archive 'CCDC 1035874'
_chemical_formula_sum 'C6 H8 N4 O4'
_chemical_formula_moiety
;
C6 H8 N4 O4
;
_journal_coden_Cambridge 4
_journal_volume 137
_journal_year 2015
_journal_page_first 2386
_journal_name_full 'J.Am.Chem.Soc. '
loop_
_publ_author_name
"M.P.Mower"
"D.G.Blackmond"
_chemical_name_systematic
;
N,N'-dimethyl-1,2,5-oxadiazole-3,4-dicarboxamide 2-oxide
;
_cell_volume    839.037
_exptl_crystal_colour 'colorless'
_exptl_crystal_density_diffrn 1.585
_exptl_crystal_description 'plate'
_diffrn_ambient_temperature 100
#These two values have been output from a single CSD field.
_refine_ls_R_factor_gt 0.0464
_refine_ls_wR_factor_gt 0.0464
_symmetry_cell_setting monoclinic
_symmetry_space_group_name_H-M 'P 21/n'
_symmetry_Int_Tables_number 14
loop_
_symmetry_equiv_pos_site_id
_symmetry_equiv_pos_as_xyz
1 x,y,z
2 1/2-x,1/2+y,1/2-z
3 -x,-y,-z
4 -1/2+x,-1/2-y,-1/2+z
_cell_length_a 4.6088(5)
_cell_length_b 15.9043(18)
_cell_length_c 11.5802(14)
_cell_angle_alpha 90
_cell_angle_beta 98.710(3)
_cell_angle_gamma 90
_cell_formula_units_Z 4
loop_
_atom_type_symbol
_atom_type_radius_bond
C 0.68
H 0.23
N 0.68
O 0.68
loop_
_atom_site_label
_atom_site_type_symbol
_atom_site_fract_x
_atom_site_fract_y
_atom_site_fract_z
O1 O -0.3663(3) 0.76899(10) 0.10386(14)
O2 O 0.2031(4) 0.62222(9) 0.30824(14)
O3 O 0.5979(4) 0.6563(1) 0.44005(14)
O4 O 0.3489(3) 0.90663(9) 0.34918(13)
N1 N 0.6802(4) 0.82910(11) 0.46597(15)
H1 H 0.74600 0.77880 0.48830
N2 N -0.0077(4) 0.66439(12) 0.23487(16)
N3 N -0.1235(4) 0.88348(11) 0.18570(15)
H2 H 0.02290 0.90130 0.23770
N4 N 0.3943(4) 0.68354(11) 0.37070(15)
C1 C 0.8265(5) 0.90436(14) 0.51760(19)
H3 H 0.99890 0.88810 0.57350
H4 H 0.69060 0.93640 0.55810
H5 H 0.88850 0.93920 0.45590
C2 C 0.4455(4) 0.83761(13) 0.38457(17)
C3 C 0.2977(4) 0.75909(13) 0.33532(17)
C4 C 0.0445(4) 0.74485(13) 0.24868(17)
C5 C -0.1681(4) 0.80176(14) 0.17165(17)
C6 C -0.3112(5) 0.94457(15) 0.11708(19)
H6 H -0.27800 1.00030 0.15260
H7 H -0.51720 0.92860 0.11520
H8 H -0.26480 0.94590 0.03730
#END
