
#######################################################################
#
#                 Cambridge Crystallographic Data Centre
#                                CCDC
#
#######################################################################
#
# If this CIF has been generated from an entry in the Cambridge
# Structural Database, then it will include bibliographic, chemical,
# crystal, experimental, refinement or atomic coordinate data resulting
# from the CCDC's data processing and validation procedures.
#
#######################################################################

data_CSD_CIF_RRMBXZ
_audit_creation_date 1978-09-01
_audit_creation_method CSD-ConQuest-V1
_database_code_CSD RRMBXZ
_database_code_depnum_ccdc_archive 'CCDC 1252106'
_chemical_formula_sum 'C21 H19 N1 O1'
_chemical_formula_moiety
;
C21 H19 N1 O1
;
_journal_coden_Cambridge 188
_journal_year 1978
_journal_page_first 401
_journal_name_full 'J.Chem.Soc.,Perkin Trans.2 '
loop_
_publ_author_name
"A.Forni"
"G.Garuti"
"I.Moretti"
"G.Torre"
"G.D.Andreetti"
"G.Bocelli"
"P.Sgarabotto"
_chemical_name_systematic
;
(+)-(2R)-2-((R)-\a-Methylbenzyl)-3,3-diphenyloxaziridine
;
_cell_volume   1694.266
_exptl_crystal_density_diffrn 1.18
_diffrn_ambient_temperature ?
_diffrn_special_details
;
The study was carried out at room temperature,in the range 283-303K

;
#These two values have been output from a single CSD field.
_refine_ls_R_factor_gt 0.046
_refine_ls_wR_factor_gt 0.046
loop_
_citation_database_id_CSD
_citation_special_details
MBZOCZ "is a stereoisomer of this entry"
_symmetry_cell_setting orthorhombic
_symmetry_space_group_name_H-M 'P 21 21 21'
_symmetry_Int_Tables_number 19
loop_
_symmetry_equiv_pos_site_id
_symmetry_equiv_pos_as_xyz
1 x,y,z
2 1/2+x,1/2-y,-z
3 -x,1/2+y,1/2-z
4 1/2-x,-y,1/2+z
_cell_length_a 18.734(8)
_cell_length_b 11.762(7)
_cell_length_c 7.689(5)
_cell_angle_alpha 90
_cell_angle_beta 90
_cell_angle_gamma 90
_cell_formula_units_Z 4
loop_
_atom_type_symbol
_atom_type_radius_bond
C 0.68
H 0.23
N 0.68
O 0.68
loop_
_atom_site_label
_atom_site_type_symbol
_atom_site_fract_x
_atom_site_fract_y
_atom_site_fract_z
O1 O -0.47070 0.18520 0.33470
N1 N -0.41610 0.17740 0.48010
C1 C -0.37680 0.31670 0.23810
C2 C -0.30810 0.36040 0.26400
C3 C -0.29040 0.46610 0.20360
C4 C -0.34050 0.53050 0.11540
C5 C -0.40760 0.48950 0.08680
C6 C -0.42650 0.38180 0.14840
C7 C -0.36340 0.10000 0.21000
C8 C -0.30760 0.10960 0.09200
C9 C -0.27950 0.01410 0.01360
C10 C -0.30640 -0.09240 0.05010
C11 C -0.36190 -0.10310 0.16700
C12 C -0.38970 -0.00790 0.24570
C13 C -0.48790 0.24880 0.71860
C14 C -0.48730 0.15340 0.82370
C15 C -0.54380 0.13080 0.93440
C16 C -0.60120 0.20220 0.93850
C17 C -0.60150 0.30010 0.84000
C18 C -0.54480 0.32200 0.72890
C19 C -0.42580 0.27450 0.59900
C20 C -0.35560 0.28820 0.69900
C21 C -0.39700 0.20080 0.29900
H1 H -0.27100 0.30500 0.34200
H2 H -0.24300 0.48300 0.21400
H3 H -0.32900 0.59600 0.08000
H4 H -0.44100 0.53400 0.03600
H5 H -0.47300 0.35000 0.12600
H6 H -0.28900 0.18800 0.04600
H7 H -0.24300 0.02200 -0.06600
H8 H -0.28500 -0.15800 0.00000
H9 H -0.38700 -0.18400 0.19000
H10 H -0.42600 -0.01200 0.31900
H11 H -0.44300 0.09200 0.81300
H12 H -0.54100 0.06200 1.02000
H13 H -0.64200 0.18700 0.98400
H14 H -0.64700 0.36700 0.84700
H15 H -0.54500 0.38900 0.64100
H16 H -0.43300 0.35400 0.53000
H17 H -0.31700 0.32500 0.62200
H18 H -0.33800 0.20800 0.74000
H19 H -0.36000 0.34500 0.79500
#END
