
#######################################################################
#
#                 Cambridge Crystallographic Data Centre
#                                CCDC
#
#######################################################################
#
# If this CIF has been generated from an entry in the Cambridge
# Structural Database, then it will include bibliographic, chemical,
# crystal, experimental, refinement or atomic coordinate data resulting
# from the CCDC's data processing and validation procedures.
#
#######################################################################

data_CSD_CIF_RUBYAQ
_audit_creation_date 2015-03-12
_audit_creation_method CSD-ConQuest-V1
_database_code_CSD RUBYAQ
_database_code_depnum_ccdc_archive 'CCDC 1053600'
_chemical_formula_sum 'C13 H13 N3 O5'
_chemical_formula_moiety
;
C13 H13 N3 O5
;
_journal_coden_Cambridge 4
_journal_volume 317
_journal_year 2015
_journal_page_first 2476
_journal_name_full 'J.Am.Chem.Soc. '
loop_
_publ_author_name
"Jean-Louis Do"
"C.Mottillo"
"Davin Tan"
"V.Strukil"
"T.Friscic"
_chemical_name_systematic
;
N,N-Diallyl-3,5-dinitrobenzamide
;
_cell_volume   1393.034
_exptl_crystal_colour 'colorless'
_exptl_crystal_density_diffrn 1.389
_exptl_crystal_description 'prism'
_diffrn_ambient_temperature 296
#These two values have been output from a single CSD field.
_refine_ls_R_factor_gt 0.0372
_refine_ls_wR_factor_gt 0.0372
_symmetry_cell_setting monoclinic
_symmetry_space_group_name_H-M 'P 21/c'
_symmetry_Int_Tables_number 14
loop_
_symmetry_equiv_pos_site_id
_symmetry_equiv_pos_as_xyz
1 x,y,z
2 -x,1/2+y,1/2-z
3 -x,-y,-z
4 x,-1/2-y,-1/2+z
_cell_length_a 9.3929(6)
_cell_length_b 6.9352(5)
_cell_length_c 21.3856(14)
_cell_angle_alpha 90
_cell_angle_beta 90.526(1)
_cell_angle_gamma 90
_cell_formula_units_Z 4
loop_
_atom_type_symbol
_atom_type_radius_bond
C 0.68
H 0.23
N 0.68
O 0.68
loop_
_atom_site_label
_atom_site_type_symbol
_atom_site_fract_x
_atom_site_fract_y
_atom_site_fract_z
O1 O 0.42385(12) 0.64009(17) 0.93731(5)
N1 N 0.55936(12) 0.48713(17) 0.86604(5)
O2 O 0.33394(14) -0.06108(18) 1.04544(5)
O3 O -0.08514(14) 0.0733(2) 0.82593(7)
O4 O 0.13687(14) -0.1819(2) 1.01079(6)
N2 N 0.23620(15) -0.06893(19) 1.00762(6)
N3 N 0.01630(16) 0.1768(2) 0.81586(7)
C1 C 0.23684(14) 0.0684(2) 0.95507(6)
C2 C 0.44639(16) 0.5006(2) 0.90341(6)
C3 C 0.34080(15) 0.3369(2) 0.90328(6)
C4 C 0.13100(15) 0.1860(2) 0.86325(6)
C5 C 0.34199(14) 0.2063(2) 0.95251(6)
H1 H 0.41260 0.21190 0.98320
C6 C 0.12862(15) 0.0552(2) 0.91141(7)
H2 H 0.05750 -0.03760 0.91440
C7 C 0.23476(16) 0.3258(2) 0.85781(7)
H3 H 0.23360 0.41110 0.82430
C8 C 0.59171(16) 0.3197(2) 0.82695(6)
H4 H 0.53300 0.21190 0.83980
H5 H 0.69060 0.28360 0.83330
O5 O 0.02873(17) 0.2746(3) 0.76933(7)
C9 C 0.66637(16) 0.6408(2) 0.86710(7)
H6 H 0.62360 0.75860 0.88260
H7 H 0.69900 0.66460 0.82490
C10 C 0.56616(17) 0.3585(2) 0.75895(7)
H8 H 0.47500 0.39590 0.74670
C11 C 0.79040(17) 0.5877(2) 0.90775(8)
H9 H 0.77090 0.53940 0.94730
C12 C 0.6618(2) 0.3439(3) 0.71588(8)
H10 H 0.75410 0.30680 0.72640
H11 H 0.63810 0.37040 0.67440
C13 C 0.9226(2) 0.6034(3) 0.89245(11)
H12 H 0.94660 0.65100 0.85330
H13 H 0.99370 0.56700 0.92060
#END
