
#######################################################################
#
#                 Cambridge Crystallographic Data Centre
#                                CCDC
#
#######################################################################
#
# If this CIF has been generated from an entry in the Cambridge
# Structural Database, then it will include bibliographic, chemical,
# crystal, experimental, refinement or atomic coordinate data resulting
# from the CCDC's data processing and validation procedures.
#
#######################################################################

data_CSD_CIF_RUCNOU
_audit_creation_date 2015-03-12
_audit_creation_method CSD-ConQuest-V1
_database_code_CSD RUCNOU
_database_code_depnum_ccdc_archive 'CCDC 1053682'
_chemical_formula_sum 'C19 H25 N1 O3'
_chemical_formula_moiety
;
C19 H25 N1 O3
;
_journal_coden_Cambridge 1078
_journal_year 2015
_journal_name_full 'CSD Communication(Private Communication) '
loop_
_publ_author_name
"U.Florke"
_chemical_name_systematic
;
3-Methoxy-17-nitroestra-1,3,5(10)-triene
;
_cell_volume   1680.015
_exptl_crystal_colour 'colorless'
_exptl_crystal_density_diffrn 1.247
_exptl_crystal_description 'block'
_diffrn_ambient_temperature 293
#These two values have been output from a single CSD field.
_refine_ls_R_factor_gt 0.0509
_refine_ls_wR_factor_gt 0.0509
_symmetry_cell_setting orthorhombic
_symmetry_space_group_name_H-M 'P 21 21 21'
_symmetry_Int_Tables_number 19
loop_
_symmetry_equiv_pos_site_id
_symmetry_equiv_pos_as_xyz
1 x,y,z
2 1/2-x,-y,1/2+z
3 -x,1/2+y,1/2-z
4 1/2+x,1/2-y,-z
_cell_length_a 7.959(1)
_cell_length_b 12.148(2)
_cell_length_c 17.376(2)
_cell_angle_alpha 90
_cell_angle_beta 90
_cell_angle_gamma 90
_cell_formula_units_Z 4
loop_
_atom_type_symbol
_atom_type_radius_bond
C 0.68
H 0.23
N 0.68
O 0.68
loop_
_atom_site_label
_atom_site_type_symbol
_atom_site_fract_x
_atom_site_fract_y
_atom_site_fract_z
O1 O 0.0450(3) 0.62089(15) 0.18531(12)
O2 O 0.7069(5) -0.2342(2) 0.03838(15)
O3 O 0.5270(4) -0.23909(19) 0.12830(18)
N1 N 0.6358(3) -0.19294(18) 0.09223(14)
C1 C 0.1134(5) 0.7189(2) 0.15443(18)
H1 H 0.03430 0.77790 0.16070
H2 H 0.13660 0.70860 0.10070
H3 H 0.21560 0.73670 0.18100
C2 C 0.3004(3) 0.52214(19) 0.15073(13)
H4 H 0.35480 0.58690 0.13680
C3 C 0.1368(3) 0.52654(19) 0.17697(13)
C4 C 0.0565(3) 0.4296(2) 0.19763(14)
H5 H -0.05370 0.43140 0.21550
C5 C 0.1398(3) 0.3311(2) 0.19170(13)
H6 H 0.08380 0.26680 0.20520
C6 C 0.3063(3) 0.32389(19) 0.16604(12)
C7 C 0.3853(3) 0.42220(19) 0.14482(12)
C8 C 0.5638(3) 0.42392(19) 0.11395(15)
H7 H 0.56030 0.43770 0.05900
H8 H 0.62420 0.48430 0.13780
C9 C 0.6593(3) 0.31810(19) 0.12825(15)
H9 H 0.69510 0.31550 0.18160
H10 H 0.75890 0.31660 0.09610
C10 C 0.5513(3) 0.21779(18) 0.11072(12)
H11 H 0.50940 0.22340 0.05780
C11 C 0.4007(3) 0.21539(18) 0.16615(12)
H12 H 0.44840 0.20780 0.21790
C12 C 0.2914(3) 0.1131(2) 0.15348(17)
H13 H 0.20310 0.11160 0.19190
H14 H 0.23860 0.11780 0.10330
C13 C 0.3923(3) 0.0062(2) 0.15833(15)
H15 H 0.31970 -0.05540 0.14600
H16 H 0.43280 -0.00360 0.21050
C14 C 0.5420(3) 0.00718(18) 0.10288(12)
C15 C 0.6476(3) 0.11039(19) 0.11929(13)
H17 H 0.68010 0.10580 0.17360
C16 C 0.8094(3) 0.0927(2) 0.07285(18)
H18 H 0.90220 0.13400 0.09470
H19 H 0.79440 0.11430 0.01960
C17 C 0.8400(4) -0.0331(2) 0.07977(19)
H20 H 0.85630 -0.06580 0.02940
H21 H 0.93810 -0.04810 0.11120
C18 C 0.6812(3) -0.07851(19) 0.11793(14)
H22 H 0.70110 -0.08090 0.17360
C19 C 0.4811(4) -0.0013(2) 0.01919(14)
H23 H 0.40780 0.05930 0.00790
H24 H 0.42150 -0.06930 0.01220
H25 H 0.57610 0.00070 -0.01490
#END
