
#######################################################################
#
#                 Cambridge Crystallographic Data Centre
#                                CCDC
#
#######################################################################
#
# If this CIF has been generated from an entry in the Cambridge
# Structural Database, then it will include bibliographic, chemical,
# crystal, experimental, refinement or atomic coordinate data resulting
# from the CCDC's data processing and validation procedures.
#
#######################################################################

data_CSD_CIF_RUCRIR
_audit_creation_date 2010-01-21
_audit_creation_method CSD-ConQuest-V1
_database_code_CSD RUCRIR
_database_code_depnum_ccdc_archive 'CCDC 721549'
_chemical_formula_sum 'C13 H14 N2 O4'
_chemical_formula_moiety
;
C13 H14 N2 O4
;
_journal_coden_Cambridge 16
_journal_volume 65
_journal_year 2009
_journal_page_first 4345
_journal_name_full 'Tetrahedron '
loop_
_publ_author_name
"T.Akiyama"
"H.Uoyama"
"T.Okujima"
"H.Yamada"
"N.Ono"
"H.Uno"
_chemical_name_systematic
;
Ethyl 3-nitro-4,7-dihydro-4,7-ethano-2H-isoindole-1-carboxylate
;
_chemical_melting_point 423.15
_cell_volume    629.652
_exptl_crystal_colour 'colorless'
_exptl_crystal_density_diffrn 1.383
_exptl_special_details
;
Melting point range 423.15-424.15K

;
_exptl_crystal_description 'block'
_exptl_crystal_preparation 'chloroform/methanol'
_diffrn_ambient_temperature 296
#These two values have been output from a single CSD field.
_refine_ls_R_factor_gt 0.0625
_refine_ls_wR_factor_gt 0.0625
_symmetry_cell_setting triclinic
_symmetry_space_group_name_H-M 'P -1'
_symmetry_Int_Tables_number 2
loop_
_symmetry_equiv_pos_site_id
_symmetry_equiv_pos_as_xyz
1 x,y,z
2 -x,-y,-z
_cell_length_a 7.7064(8)
_cell_length_b 8.4775(6)
_cell_length_c 11.1885(12)
_cell_angle_alpha 69.979(12)
_cell_angle_beta 75.454(13)
_cell_angle_gamma 67.811(12)
_cell_formula_units_Z 2
loop_
_atom_type_symbol
_atom_type_radius_bond
C 0.68
H 0.23
N 0.68
O 0.68
loop_
_atom_site_label
_atom_site_type_symbol
_atom_site_fract_x
_atom_site_fract_y
_atom_site_fract_z
O1 O 0.8612(2) 0.7216(2) -0.11864(14)
O2 O 0.6959(2) 0.5373(2) -0.08081(14)
O3 O 0.3197(2) 0.4703(2) 0.36758(15)
O4 O 0.3217(2) 0.6532(2) 0.46381(15)
N1 N 0.5416(2) 0.5985(2) 0.16010(14)
H1 H 0.4992(13) 0.530(2) 0.1475(4)
N2 N 0.3716(2) 0.5875(2) 0.37300(16)
C1 C 0.4983(3) 0.6521(3) 0.26821(17)
C2 C 0.5963(3) 0.7645(3) 0.25589(17)
C3 C 0.6338(3) 0.8577(3) 0.3339(2)
H2 H 0.558(2) 0.8484(4) 0.416(2)
C4 C 0.6037(3) 1.0492(3) 0.2522(2)
H3 H 0.529(3) 1.138(3) 0.2795(9)
C5 C 0.7043(3) 1.0669(3) 0.1331(2)
H4 H 0.6977(4) 1.184(3) 0.0699(18)
C6 C 0.8281(3) 0.8924(3) 0.10459(19)
H5 H 0.8981(18) 0.9081(5) 0.015(2)
C7 C 0.7030(3) 0.7807(3) 0.13327(17)
C8 C 0.6679(3) 0.6771(3) 0.07523(17)
C9 C 0.8496(3) 0.7752(3) 0.34138(19)
H6 H 0.8849(7) 0.832(1) 0.3908(9)
H7 H 0.8799(6) 0.648(2) 0.3863(8)
C10 C 0.9614(3) 0.7994(3) 0.2090(2)
H8 H 1.0484(15) 0.678(2) 0.1970(3)
H9 H 1.0452(14) 0.8744(12) 0.1990(3)
C11 C 0.7401(3) 0.6373(3) -0.04835(18)
C12 C 0.9437(4) 0.6939(3) -0.2457(2)
H10 H 1.069(2) 0.6033(19) -0.2413(2)
H11 H 0.8628(16) 0.6523(9) -0.2747(6)
C13 C 0.9600(6) 0.8563(5) -0.3341(3)
H12 H 0.832(3) 0.951(2) -0.3333(3)
H13 H 1.0066(13) 0.8402(6) -0.423(2)
H14 H 1.053(2) 0.8927(10) -0.3083(7)
#END
