
#######################################################################
#
#                 Cambridge Crystallographic Data Centre
#                                CCDC
#
#######################################################################
#
# If this CIF has been generated from an entry in the Cambridge
# Structural Database, then it will include bibliographic, chemical,
# crystal, experimental, refinement or atomic coordinate data resulting
# from the CCDC's data processing and validation procedures.
#
#######################################################################

data_CSD_CIF_RUCTAL
_audit_creation_date 2010-01-21
_audit_creation_method CSD-ConQuest-V1
_database_code_CSD RUCTAL
_database_code_depnum_ccdc_archive 'CCDC 702633'
_chemical_formula_sum 'C13 H15 N3 O3'
_chemical_formula_moiety
;
C13 H15 N3 O3
;
_journal_coden_Cambridge 16
_journal_volume 65
_journal_year 2009
_journal_page_first 4751
_journal_name_full 'Tetrahedron '
loop_
_publ_author_name
"A.Dhami"
"M.F.Mahon"
"M.D.Lloyd"
"M.D.Threadgill"
_chemical_name_systematic
;
N-Allyl-2-(allylamino)-3-nitrobenzamide
;
_chemical_melting_point 327.15
_cell_volume    656.837
_exptl_crystal_colour 'yellow'
_exptl_crystal_density_diffrn 1.316
_exptl_special_details
;
Melting point range 327.15-330.15K

;
_exptl_crystal_description 'needle'
_diffrn_ambient_temperature 150
#These two values have been output from a single CSD field.
_refine_ls_R_factor_gt 0.0457
_refine_ls_wR_factor_gt 0.0457
_symmetry_cell_setting monoclinic
_symmetry_space_group_name_H-M 'P 21'
_symmetry_Int_Tables_number 4
loop_
_symmetry_equiv_pos_site_id
_symmetry_equiv_pos_as_xyz
1 x,y,z
2 -x,1/2+y,-z
_cell_length_a 11.1000(5)
_cell_length_b 5.0730(2)
_cell_length_c 11.9100(6)
_cell_angle_alpha 90
_cell_angle_beta 101.651(2)
_cell_angle_gamma 90
_cell_formula_units_Z 2
loop_
_atom_type_symbol
_atom_type_radius_bond
C 0.68
H 0.23
N 0.68
O 0.68
loop_
_atom_site_label
_atom_site_type_symbol
_atom_site_fract_x
_atom_site_fract_y
_atom_site_fract_z
O1 O 0.58033(14) -0.4149(3) 0.51465(13)
N1 N 0.62981(17) -0.2443(3) 0.58381(15)
C1 C 0.70997(19) -0.0482(4) 0.54841(17)
O2 O 0.61300(18) -0.2361(4) 0.68285(14)
N2 N 0.65500(15) -0.1728(3) 0.34623(14)
C2 C 0.7737(2) 0.1114(4) 0.63527(19)
H1 H 0.76460 0.08460 0.71210
O3 O 0.87612(13) -0.0225(3) 0.25686(13)
N3 N 0.86384(16) 0.4209(3) 0.25350(15)
H2 H 0.83880 0.56400 0.28380
C3 C 0.8496(2) 0.3073(4) 0.61094(19)
H3 H 0.89180 0.41910 0.67000
C4 C 0.86385(18) 0.3395(4) 0.49836(19)
H4 H 0.91660 0.47490 0.48150
C5 C 0.80362(17) 0.1805(4) 0.41006(17)
C6 C 0.71987(18) -0.0182(4) 0.43158(17)
C7 C 0.61008(19) -0.0867(4) 0.22681(18)
H5 H 0.67160 -0.12850 0.17980
H6 H 0.59580 0.10600 0.22410
C8 C 0.4924(2) -0.2297(4) 0.18162(19)
H7 H 0.42320 -0.19020 0.21420
C9 C 0.4793(2) -0.4060(5) 0.0997(2)
H8 H 0.54690 -0.44960 0.06550
H9 H 0.40210 -0.49030 0.07460
C10 C 0.84796(18) 0.1842(4) 0.29939(19)
C11 C 0.9218(2) 0.4443(5) 0.15443(18)
H10 H 0.98030 0.29660 0.15520
H11 H 0.96940 0.61060 0.16050
C12 C 0.8309(2) 0.4418(6) 0.0432(2)
H12 H 0.77700 0.29510 0.02720
C13 C 0.8211(3) 0.6297(6) -0.0333(2)
H13 H 0.87370 0.77900 -0.01970
H14 H 0.76130 0.61680 -0.10250
#END
