
#######################################################################
#
#                 Cambridge Crystallographic Data Centre
#                                CCDC
#
#######################################################################
#
# If this CIF has been generated from an entry in the Cambridge
# Structural Database, then it will include bibliographic, chemical,
# crystal, experimental, refinement or atomic coordinate data resulting
# from the CCDC's data processing and validation procedures.
#
#######################################################################

data_CSD_CIF_RUDWUK
_audit_creation_date 2015-03-13
_audit_creation_method CSD-ConQuest-V1
_database_code_CSD RUDWUK
_database_code_depnum_ccdc_archive 'CCDC 1009963'
_chemical_formula_sum 'C24 H30 N2 O6'
_chemical_formula_moiety
;
C24 H30 N2 O6
;
_journal_coden_Cambridge 35
_journal_volume 79
_journal_year 2014
_journal_page_first 8313
_journal_name_full 'J.Org.Chem. '
loop_
_publ_author_name
"S.Valera"
"J.E.Taylor"
"D.S.B.Daniels"
"D.M.Dawson"
"K.S.A.Arachchige"
"S.E.Ashbrook"
"A.M.Z.Slawin"
"B.E.Bode"
_chemical_name_systematic
;
benzene-1,3-diyl 
bis(1-oxy-2,2,5,5-tetramethyl-2,5-dihydro-1H-pyrrole-3-carboxylate) diradical
;
_cell_volume   2332.602
_exptl_crystal_colour 'colorless'
_exptl_crystal_density_diffrn 1.26
_exptl_crystal_description 'platelet'
_diffrn_ambient_temperature 173
#These two values have been output from a single CSD field.
_refine_ls_R_factor_gt 0.1094
_refine_ls_wR_factor_gt 0.1094
_symmetry_cell_setting monoclinic
_symmetry_space_group_name_H-M 'P 21/n'
_symmetry_Int_Tables_number 14
loop_
_symmetry_equiv_pos_site_id
_symmetry_equiv_pos_as_xyz
1 x,y,z
2 1/2-x,1/2+y,1/2-z
3 -x,-y,-z
4 -1/2+x,-1/2-y,-1/2+z
_cell_length_a 18.337(10)
_cell_length_b 5.919(3)
_cell_length_c 22.367(11)
_cell_angle_alpha 90
_cell_angle_beta 106.085(15)
_cell_angle_gamma 90
_cell_formula_units_Z 4
loop_
_atom_type_symbol
_atom_type_radius_bond
C 0.68
H 0.23
N 0.68
O 0.68
loop_
_atom_site_label
_atom_site_type_symbol
_atom_site_fract_x
_atom_site_fract_y
_atom_site_fract_z
O1 O 1.08662(16) 0.6057(5) 0.58744(13)
O2 O 0.87275(16) 0.1214(5) 0.65458(12)
O3 O 0.84224(18) 0.5408(5) 1.14179(13)
O4 O 0.9283(3) 0.0852(8) 0.96381(15)
O5 O 0.94931(15) 0.1115(5) 0.75349(11)
O6 O 0.80871(16) 0.0964(5) 0.90257(12)
N1 N 1.06468(18) 0.5045(5) 0.62939(14)
N2 N 0.82732(19) 0.4549(5) 1.08740(13)
C1 C 0.9893(2) 0.3899(6) 0.61511(16)
C2 C 0.9914(2) 0.3121(6) 0.68017(15)
C3 C 1.0531(3) 0.3844(6) 0.72270(16)
C4 C 1.1038(2) 0.5243(6) 0.69610(16)
C5 C 0.9874(3) 0.1940(6) 0.57037(17)
C6 C 0.9259(3) 0.5593(7) 0.58892(18)
C7 C 1.1840(3) 0.4271(7) 0.71015(18)
C8 C 1.1076(3) 0.7700(6) 0.71642(19)
C9 C 0.9309(3) 0.1748(6) 0.69241(15)
C10 C 0.8839(3) 0.3320(7) 1.06517(18)
C11 C 0.8354(3) 0.2734(6) 0.99984(16)
C12 C 0.7651(3) 0.3624(6) 0.98820(17)
C13 C 0.7523(3) 0.4884(6) 1.04140(17)
C14 C 0.9116(3) 0.1253(8) 1.1060(2)
C15 C 0.9501(3) 0.4867(9) 1.0652(3)
C16 C 0.6897(3) 0.3950(8) 1.0653(2)
C17 C 0.7396(3) 0.7423(7) 1.0274(2)
C18 C 0.8641(3) 0.1430(7) 0.95588(18)
C19 C 0.8957(3) -0.0019(6) 0.77662(16)
C20 C 0.8787(2) 0.1000(6) 0.82638(16)
C21 C 0.8312(2) -0.0119(6) 0.85479(16)
C22 C 0.8006(3) -0.2193(7) 0.83371(17)
C23 C 0.8179(3) -0.3143(6) 0.78374(17)
C24 C 0.8663(3) -0.2102(6) 0.75462(17)
H1 H 1.06360 0.35010 0.76580
H2 H 1.02730 0.08520 0.58960
H3 H 0.99590 0.25160 0.53180
H4 H 0.93780 0.11950 0.56100
H5 H 0.93290 0.62710 0.55090
H6 H 0.92720 0.67790 0.61980
H7 H 0.87680 0.48170 0.57920
H8 H 1.21310 0.51150 0.68680
H9 H 1.18130 0.26780 0.69780
H10 H 1.20910 0.43980 0.75480
H11 H 1.05600 0.83030 0.70870
H12 H 1.13540 0.85780 0.69280
H13 H 1.13370 0.78050 0.76090
H14 H 0.72750 0.34560 0.94960
H15 H 0.86870 0.02410 1.10400
H16 H 0.93390 0.17360 1.14910
H17 H 0.95000 0.04550 1.09100
H18 H 0.97320 0.54210 1.10750
H19 H 0.93170 0.61510 1.03740
H20 H 0.98790 0.40280 1.05060
H21 H 0.70190 0.23950 1.07960
H22 H 0.64200 0.39680 1.03190
H23 H 0.68420 0.48790 1.10010
H24 H 0.73910 0.82260 1.06560
H25 H 0.69080 0.76440 0.99600
H26 H 0.78060 0.80140 1.01160
H27 H 0.89910 0.24380 0.84090
H28 H 0.76810 -0.29490 0.85360
H29 H 0.79600 -0.45590 0.76850
H30 H 0.87890 -0.27980 0.72050
#END
