
#######################################################################
#
#                 Cambridge Crystallographic Data Centre
#                                CCDC
#
#######################################################################
#
# If this CIF has been generated from an entry in the Cambridge
# Structural Database, then it will include bibliographic, chemical,
# crystal, experimental, refinement or atomic coordinate data resulting
# from the CCDC's data processing and validation procedures.
#
#######################################################################

data_CSD_CIF_RUFBOK
_audit_creation_date 2010-01-21
_audit_creation_method CSD-ConQuest-V1
_database_code_CSD RUFBOK
_database_code_depnum_ccdc_archive 'CCDC 754222'
_chemical_formula_sum 'C27 H19 N3 O3'
_chemical_formula_moiety
;
C27 H19 N3 O3
;
_journal_coeditor_code "IUCr CI2921"
_journal_coden_Cambridge 1370
_journal_volume 65
_journal_year 2009
_journal_page_first o2619
_journal_name_full 'Acta Crystallogr.,Sect.E:Struct.Rep.Online '
loop_
_publ_author_name
"Guang-Zhou Wang"
"Bo Fang"
"Cheng-He Zhou"
_chemical_name_systematic
;
3-(9-Anthryl)-1-(4-methylphenyl)-2-(4-nitro-1H-imidazol-1-yl)prop-2-en-1-one
;
_chemical_name_common
;
(Z)-3-(9-Anthryl)-2-(4-nitro-1H-imidazol-1-yl)-1-p-tolylprop-2-en-1-one
;
_cell_volume   1065.805
_exptl_crystal_colour 'yellow'
_exptl_crystal_density_diffrn 1.351
_exptl_crystal_description 'plate'
_exptl_crystal_preparation 'chloroform'
_diffrn_ambient_temperature 298
#These two values have been output from a single CSD field.
_refine_ls_R_factor_gt 0.0435
_refine_ls_wR_factor_gt 0.0435
_symmetry_cell_setting triclinic
_symmetry_space_group_name_H-M 'P -1'
_symmetry_Int_Tables_number 2
loop_
_symmetry_equiv_pos_site_id
_symmetry_equiv_pos_as_xyz
1 x,y,z
2 -x,-y,-z
_cell_length_a 7.9335(9)
_cell_length_b 11.2626(13)
_cell_length_c 13.0291(15)
_cell_angle_alpha 75.454(2)
_cell_angle_beta 85.763(2)
_cell_angle_gamma 71.059(2)
_cell_formula_units_Z 2
loop_
_atom_type_symbol
_atom_type_radius_bond
C 0.68
H 0.23
N 0.68
O 0.68
loop_
_atom_site_label
_atom_site_type_symbol
_atom_site_fract_x
_atom_site_fract_y
_atom_site_fract_z
C1 C 0.8022(2) 0.80103(14) 0.10371(11)
C2 C 0.9235(2) 0.68461(16) 0.09495(12)
H1 H 1.04430 0.67600 0.08950
C3 C 0.86855(18) 0.58070(13) 0.09409(10)
H2 H 0.95210 0.50320 0.08710
C4 C 0.68960(16) 0.59098(11) 0.10360(9)
C5 C 0.56700(18) 0.70796(12) 0.11149(10)
H3 H 0.44640 0.71640 0.11760
C6 C 0.6231(2) 0.81227(13) 0.11031(11)
H4 H 0.53940 0.89110 0.11400
C7 C 0.8646(3) 0.91345(19) 0.10604(18)
H5 H 0.98840 0.89380 0.08780
H6 H 0.84860 0.92880 0.17590
H7 H 0.79640 0.98930 0.05590
C8 C 0.63944(15) 0.47439(11) 0.10306(9)
C9 C 0.53578(15) 0.42485(10) 0.19465(9)
C10 C 0.51789(15) 0.46279(11) 0.28466(9)
H8 H 0.55670 0.53290 0.28250
C11 C 0.55904(19) 0.21206(12) 0.15682(10)
H9 H 0.68000 0.18790 0.14130
C12 C 0.29544(19) 0.21363(13) 0.18201(9)
C13 C 0.29627(17) 0.32641(12) 0.20011(9)
H10 H 0.20100 0.39020 0.21980
C14 C 0.44576(16) 0.41062(12) 0.38765(9)
C15 C 0.31154(16) 0.49758(13) 0.43426(9)
C16 C 0.23060(19) 0.62857(14) 0.38169(12)
H11 H 0.26490 0.65930 0.31300
C17 C 0.1035(2) 0.71059(18) 0.42967(15)
H12 H 0.05280 0.79650 0.39360
C18 C 0.0482(2) 0.6666(2) 0.53315(16)
H13 H -0.03770 0.72380 0.56550
C19 C 0.1187(2) 0.5429(2) 0.58552(13)
H14 H 0.07990 0.51520 0.65380
C20 C 0.25212(18) 0.45250(17) 0.53893(10)
C21 C 0.3253(2) 0.32471(18) 0.59118(10)
H15 H 0.28430 0.29580 0.65850
C22 C 0.4581(2) 0.23721(15) 0.54715(10)
C23 C 0.5358(3) 0.10705(19) 0.60296(13)
H16 H 0.49340 0.07760 0.66980
C24 C 0.6697(3) 0.02531(18) 0.56107(15)
H17 H 0.71680 -0.06040 0.59830
C25 C 0.7395(3) 0.06850(16) 0.46106(13)
H18 H 0.83460 0.01160 0.43390
C26 C 0.6691(2) 0.19203(13) 0.40416(11)
H19 H 0.71750 0.21900 0.33860
C27 C 0.52314(18) 0.28088(13) 0.44281(9)
N1 N 0.46726(13) 0.32578(9) 0.18306(7)
N2 N 0.45809(17) 0.14128(11) 0.15594(9)
N3 N 0.1423(2) 0.17060(15) 0.18753(10)
O1 O 0.69016(12) 0.41643(9) 0.03388(7)
O2 O 0.1606(2) 0.06711(14) 0.16772(11)
O3 O 0.00028(18) 0.24220(15) 0.21342(12)
#END
