
#######################################################################
#
#                 Cambridge Crystallographic Data Centre
#                                CCDC
#
#######################################################################
#
# If this CIF has been generated from an entry in the Cambridge
# Structural Database, then it will include bibliographic, chemical,
# crystal, experimental, refinement or atomic coordinate data resulting
# from the CCDC's data processing and validation procedures.
#
#######################################################################

data_CSD_CIF_RUFSOB
_audit_creation_date 2010-01-21
_audit_creation_method CSD-ConQuest-V1
_database_code_CSD RUFSOB
_database_code_depnum_ccdc_archive 'CCDC 670869'
_chemical_formula_sum 'C13 H10 N4 O6'
_chemical_formula_moiety
;
C13 H10 N4 O6
;
_journal_coden_Cambridge 41
_journal_volume 53
_journal_year 2008
_journal_page_first 663
_journal_name_full 'Kristallografiya(Russ.)(Crystallogr.Rep.) '
loop_
_publ_author_name
"G.V.Gurskaya"
"V.E.Zavodnik"
"N.E.Zhukhlistova"
"M.V.Kozlov"
_chemical_name_systematic
;
2,4-Dinitrophenylhydrazone 2,3-dihydroxybenzaldehyde
;
_chemical_name_common
;
3-((2,4-Dinitrophenyl)carbonohydrazonoyl)benzene-1,2-diol
;
_cell_volume   1311.326
_exptl_crystal_colour 'red'
_exptl_crystal_density_diffrn 1.612
_exptl_crystal_description 'needle'
_exptl_crystal_preparation 'DMSO/ethanol'
_diffrn_ambient_temperature 120
#These two values have been output from a single CSD field.
_refine_ls_R_factor_gt 0.0471
_refine_ls_wR_factor_gt 0.0471
_symmetry_cell_setting monoclinic
_symmetry_space_group_name_H-M 'P 21/n'
_symmetry_Int_Tables_number 14
loop_
_symmetry_equiv_pos_site_id
_symmetry_equiv_pos_as_xyz
1 x,y,z
2 1/2-x,1/2+y,1/2-z
3 -x,-y,-z
4 -1/2+x,-1/2-y,-1/2+z
_cell_length_a 9.158(1)
_cell_length_b 6.289(1)
_cell_length_c 22.844(3)
_cell_angle_alpha 90
_cell_angle_beta 94.669(3)
_cell_angle_gamma 90
_cell_formula_units_Z 4
loop_
_atom_type_symbol
_atom_type_radius_bond
C 0.68
H 0.23
N 0.68
O 0.68
loop_
_atom_site_label
_atom_site_type_symbol
_atom_site_fract_x
_atom_site_fract_y
_atom_site_fract_z
O1 O 0.87552(12) 0.1750(2) 0.01122(5)
H1 H 0.843(2) 0.298(4) -0.0038(9)
O2 O 0.93427(13) -0.17657(19) 0.07817(5)
H2 H 0.966(2) -0.134(4) 0.0453(10)
O3 O 0.60370(13) 1.28482(19) -0.11870(5)
O4 O 0.55596(12) 1.07407(18) -0.04764(5)
O5 O 0.92506(15) 1.1092(2) -0.26045(6)
O6 O 1.03527(14) 0.8037(2) -0.25957(5)
N1 N 0.73084(14) 0.5267(2) -0.00373(6)
N2 N 0.69081(15) 0.7121(2) -0.03293(6)
H3 H 0.628(2) 0.803(3) -0.0198(8)
N3 N 0.61988(14) 1.1147(2) -0.09253(5)
N4 N 0.95144(15) 0.9319(3) -0.23944(6)
C1 C 0.67276(17) 0.4948(3) 0.04544(7)
H4 H 0.60850 0.59490 0.05880
C2 C 0.70689(17) 0.3052(2) 0.07972(6)
C3 C 0.80490(16) 0.1521(3) 0.06170(6)
C4 C 0.83517(17) -0.0306(3) 0.09509(7)
C5 C 0.76661(18) -0.0622(3) 0.14620(7)
H5 H 0.78450 -0.18590 0.16790
C6 C 0.67081(18) 0.0906(3) 0.16519(7)
H6 H 0.62640 0.06940 0.19990
C7 C 0.64149(17) 0.2729(3) 0.13282(7)
H7 H 0.57840 0.37490 0.14600
C8 C 0.75075(16) 0.7643(3) -0.08355(6)
C9 C 0.71789(16) 0.9568(3) -0.11388(6)
C10 C 0.78257(16) 1.0100(3) -0.16507(6)
H8 H 0.75980 1.13770 -0.18420
C11 C 0.87993(17) 0.8717(3) -0.18674(6)
C12 C 0.91519(17) 0.6787(3) -0.15880(7)
H9 H 0.98080 0.58570 -0.17440
C13 C 0.85248(17) 0.6274(3) -0.10832(7)
H10 H 0.87720 0.49930 -0.08970
#END
