
#######################################################################
#
#                 Cambridge Crystallographic Data Centre
#                                CCDC
#
#######################################################################
#
# If this CIF has been generated from an entry in the Cambridge
# Structural Database, then it will include bibliographic, chemical,
# crystal, experimental, refinement or atomic coordinate data resulting
# from the CCDC's data processing and validation procedures.
#
#######################################################################

data_CSD_CIF_RUGHIM
_audit_creation_date 2015-03-13
_audit_creation_method CSD-ConQuest-V1
_database_code_CSD RUGHIM
_database_code_depnum_ccdc_archive 'CCDC 1053925'
_chemical_formula_sum 'C20 H24 N1 O3'
_chemical_formula_moiety
;
C20 H24 N1 O3
;
_journal_coden_Cambridge 35
_journal_volume 79
_journal_year 2014
_journal_page_first 9451
_journal_name_full 'J.Org.Chem. '
loop_
_publ_author_name
"T.R.Porter"
"W.Kaminsky"
"J.M.Mayer"
_chemical_name_systematic
;
3,5-di-t-butyl-4'-nitrobiphenyl-4-oxyl radical
;
_cell_volume   3514.956
_exptl_crystal_colour 'black'
_exptl_crystal_density_diffrn 1.234
_exptl_crystal_description 'prism'
_diffrn_ambient_temperature 100
#These two values have been output from a single CSD field.
_refine_ls_R_factor_gt 0.0397
_refine_ls_wR_factor_gt 0.0397
_symmetry_cell_setting orthorhombic
_symmetry_space_group_name_H-M 'P b c a'
_symmetry_Int_Tables_number 61
loop_
_symmetry_equiv_pos_site_id
_symmetry_equiv_pos_as_xyz
1 x,y,z
2 1/2+x,1/2-y,-z
3 -x,1/2+y,1/2-z
4 1/2-x,-y,1/2+z
5 -x,-y,-z
6 -1/2-x,-1/2+y,z
7 x,-1/2-y,-1/2+z
8 -1/2+x,y,-1/2-z
_cell_length_a 12.0741(8)
_cell_length_b 13.1671(8)
_cell_length_c 22.1093(14)
_cell_angle_alpha 90
_cell_angle_beta 90
_cell_angle_gamma 90
_cell_formula_units_Z 8
loop_
_atom_type_symbol
_atom_type_radius_bond
C 0.68
H 0.23
N 0.68
O 0.68
loop_
_atom_site_label
_atom_site_type_symbol
_atom_site_fract_x
_atom_site_fract_y
_atom_site_fract_z
C1 C 0.83613(9) 0.20982(8) 0.17224(5)
C2 C 0.92468(9) 0.19994(8) 0.12697(5)
C3 C 0.97054(9) 0.28686(8) 0.10394(5)
H1 H 1.02480 0.28110 0.07300
C4 C 0.94037(9) 0.38525(8) 0.12439(5)
C5 C 0.86264(9) 0.39374(8) 0.17247(5)
H2 H 0.84550 0.45930 0.18770
C6 C 0.81156(9) 0.31094(8) 0.19768(5)
C7 C 0.99324(9) 0.47637(8) 0.09841(5)
C8 C 1.09218(9) 0.47025(9) 0.06501(5)
H3 H 1.12410 0.40560 0.05730
C9 C 1.14401(10) 0.55643(9) 0.04313(5)
H4 H 1.21050 0.55130 0.02040
C10 C 1.09709(10) 0.65048(9) 0.05503(5)
C11 C 0.99817(11) 0.66026(9) 0.08597(6)
H5 H 0.96630 0.72530 0.09250
C12 C 0.94649(10) 0.57349(9) 0.10726(5)
H6 H 0.87820 0.57940 0.12830
C13 C 0.73059(10) 0.31815(8) 0.25073(5)
C14 C 0.77054(11) 0.25087(10) 0.30359(6)
H7 H 0.77160 0.17970 0.29070
H8 H 0.72010 0.25860 0.33800
H9 H 0.84530 0.27160 0.31560
C15 C 0.72201(11) 0.42714(9) 0.27471(6)
H10 H 0.79470 0.44940 0.28930
H11 H 0.66850 0.42950 0.30800
H12 H 0.69740 0.47220 0.24210
C16 C 0.61381(10) 0.28493(9) 0.23029(6)
H13 H 0.59060 0.32620 0.19560
H14 H 0.56140 0.29440 0.26370
H15 H 0.61530 0.21310 0.21860
C17 C 0.96481(10) 0.09383(8) 0.10928(6)
C18 C 0.87092(11) 0.02889(9) 0.08211(6)
H16 H 0.83760 0.06500 0.04790
H17 H 0.81430 0.01650 0.11300
H18 H 0.90110 -0.03610 0.06820
C19 C 1.01174(11) 0.04202(9) 0.16620(6)
H19 H 1.03630 -0.02680 0.15600
H20 H 0.95410 0.03850 0.19730
H21 H 1.07470 0.08140 0.18150
C20 C 1.05850(11) 0.09905(10) 0.06293(7)
H22 H 1.03170 0.13220 0.02600
H23 H 1.08360 0.03010 0.05330
H24 H 1.12030 0.13820 0.07970
N1 N 1.15601(9) 0.74300(8) 0.03598(5)
O1 O 0.78253(7) 0.13361(6) 0.18904(4)
O2 O 1.23863(8) 0.73366(7) 0.00422(5)
O3 O 1.12039(9) 0.82520(7) 0.05372(5)
#END
