
#######################################################################
#
#                 Cambridge Crystallographic Data Centre
#                                CCDC
#
#######################################################################
#
# If this CIF has been generated from an entry in the Cambridge
# Structural Database, then it will include bibliographic, chemical,
# crystal, experimental, refinement or atomic coordinate data resulting
# from the CCDC's data processing and validation procedures.
#
#######################################################################

data_CSD_CIF_RUGKAG01
_audit_creation_date 2016-05-05
_audit_creation_method CSD-ConQuest-V1
_database_code_CSD RUGKAG01
_database_code_depnum_ccdc_archive 'CCDC 1448260'
_chemical_formula_sum 'C13 H14 N2 O2'
_chemical_formula_moiety
;
C13 H14 N2 O2
;
_journal_coden_Cambridge 1350
_journal_volume 18
_journal_year 2016
_journal_page_first 3667
_journal_name_full 'CrystEngComm '
loop_
_publ_author_name
"Xinyuan Zhang"
"Xingxing Jiang"
"Pengxiang Liu"
"Yin Li"
"Heng Tu"
"Zheshuai Lin"
"Degang Xu"
"Guochun Zhang"
"Yicheng Wu"
"Jianquan Yao"
_chemical_name_systematic
;
4-(4-(dimethylamino)benzylidene)-3-methyl-1,2-oxazol-5(4H)-one
;
_cell_volume   1189.678
_exptl_crystal_colour 'red'
_exptl_crystal_density_diffrn 1.286
_exptl_crystal_description 'block'
_diffrn_ambient_temperature 296
#These two values have been output from a single CSD field.
_refine_ls_R_factor_gt 0.0426
_refine_ls_wR_factor_gt 0.0426
_symmetry_cell_setting monoclinic
_symmetry_space_group_name_H-M 'P 21/n'
_symmetry_Int_Tables_number 14
loop_
_symmetry_equiv_pos_site_id
_symmetry_equiv_pos_as_xyz
1 x,y,z
2 1/2-x,1/2+y,1/2-z
3 -x,-y,-z
4 -1/2+x,-1/2-y,-1/2+z
_cell_length_a 13.975(14)
_cell_length_b 6.227(7)
_cell_length_c 15.099(16)
_cell_angle_alpha 90
_cell_angle_beta 115.12(2)
_cell_angle_gamma 90
_cell_formula_units_Z 4
loop_
_atom_type_symbol
_atom_type_radius_bond
C 0.68
H 0.23
N 0.68
O 0.68
loop_
_atom_site_label
_atom_site_type_symbol
_atom_site_fract_x
_atom_site_fract_y
_atom_site_fract_z
C1 C 0.71009(14) 0.7907(3) -0.14714(12)
H1 H 0.76000 0.67820 -0.11550
H2 H 0.71530 0.83240 -0.20610
H3 H 0.63990 0.74000 -0.16280
C2 C 0.80352(17) 1.1353(4) -0.09114(15)
H4 H 0.76770 1.27110 -0.10790
H5 H 0.82450 1.09290 -0.14140
H6 H 0.86500 1.14820 -0.03010
C3 C 0.69820(11) 0.9869(2) -0.01074(10)
C4 C 0.71994(14) 1.1688(3) 0.05103(12)
H7 H 0.75780 1.28300 0.04200
C5 C 0.68629(13) 1.1789(3) 0.12352(12)
H8 H 0.70170 1.30110 0.16260
C6 C 0.62911(11) 1.0117(2) 0.14149(11)
C7 C 0.60687(12) 0.8313(2) 0.07928(11)
H9 H 0.56900 0.71740 0.08840
C8 C 0.63955(12) 0.8197(3) 0.00595(11)
H10 H 0.62280 0.69870 -0.03390
C9 C 0.59797(11) 1.0405(2) 0.21890(11)
H11 H 0.62070 1.17060 0.25140
C10 C 0.54180(11) 0.9191(3) 0.25654(10)
C11 C 0.49082(15) 0.7110(3) 0.22889(13)
C12 C 0.52136(12) 0.9825(3) 0.33872(11)
C13 C 0.55821(15) 1.1812(3) 0.39821(13)
H12 H 0.54030 1.17450 0.45290
H13 H 0.52470 1.30380 0.35860
H14 H 0.63350 1.19370 0.42150
N1 N 0.73293(11) 0.9745(2) -0.08199(10)
N2 N 0.46534(12) 0.8457(3) 0.36007(11)
O1 O 0.48383(13) 0.5778(2) 0.16834(11)
O2 O 0.44291(11) 0.6716(2) 0.29044(10)
#END
