
#######################################################################
#
#                 Cambridge Crystallographic Data Centre
#                                CCDC
#
#######################################################################
#
# If this CIF has been generated from an entry in the Cambridge
# Structural Database, then it will include bibliographic, chemical,
# crystal, experimental, refinement or atomic coordinate data resulting
# from the CCDC's data processing and validation procedures.
#
#######################################################################

data_CSD_CIF_RUGKAG
_audit_creation_date 2010-01-21
_audit_creation_method CSD-ConQuest-V1
_database_code_CSD RUGKAG
_database_code_depnum_ccdc_archive 'CCDC 758283'
_chemical_formula_sum 'C13 H14 N2 O2'
_chemical_formula_moiety
;
C13 H14 N2 O2
;
_journal_coeditor_code "IUCr SU2156"
_journal_coden_Cambridge 1370
_journal_volume 65
_journal_year 2009
_journal_page_first o3074
_journal_name_full 'Acta Crystallogr.,Sect.E:Struct.Rep.Online '
loop_
_publ_author_name
"Qingfang Cheng"
"Qi-fa Wang"
"Li-sha Liu"
"Jun-lei Zhang"
_chemical_name_systematic
;
(Z)-4-(4-(Dimethylamino)benzylidene)-3-methylisoxazol-5(4H)-one
;
_cell_volume    582.006
_exptl_crystal_colour 'red'
_exptl_crystal_density_diffrn 1.314
_exptl_crystal_description 'needle'
_exptl_crystal_preparation 'aqueous ethanol'
_diffrn_ambient_temperature 298
#These two values have been output from a single CSD field.
_refine_ls_R_factor_gt 0.0692
_refine_ls_wR_factor_gt 0.0692
_symmetry_cell_setting triclinic
_symmetry_space_group_name_H-M 'P -1'
_symmetry_Int_Tables_number 2
loop_
_symmetry_equiv_pos_site_id
_symmetry_equiv_pos_as_xyz
1 x,y,z
2 -x,-y,-z
_cell_length_a 6.4201(10)
_cell_length_b 7.8239(12)
_cell_length_c 12.1901(15)
_cell_angle_alpha 100.272(2)
_cell_angle_beta 97.319(1)
_cell_angle_gamma 101.461(2)
_cell_formula_units_Z 2
loop_
_atom_type_symbol
_atom_type_radius_bond
C 0.68
H 0.23
N 0.68
O 0.68
loop_
_atom_site_label
_atom_site_type_symbol
_atom_site_fract_x
_atom_site_fract_y
_atom_site_fract_z
N1 N 0.7351(5) 0.6599(4) 0.8929(3)
N2 N 0.3808(5) 0.8488(4) 0.1943(3)
O1 O 0.9130(4) 0.7385(4) 0.8421(2)
O2 O 0.9643(4) 0.8104(4) 0.6764(2)
C1 C 0.8347(6) 0.7524(5) 0.7333(4)
C2 C 0.6035(5) 0.6855(5) 0.7140(3)
C3 C 0.5624(5) 0.6321(4) 0.8187(3)
C4 C 0.3517(5) 0.5490(5) 0.8451(3)
H1 H 0.37220 0.52370 0.91950
H2 H 0.28950 0.44000 0.79070
H3 H 0.25680 0.62930 0.84230
C5 C 0.4464(5) 0.6758(4) 0.6248(3)
H4 H 0.30940 0.62660 0.63730
C6 C 0.4428(5) 0.7234(4) 0.5171(3)
C7 C 0.2412(5) 0.6921(5) 0.4469(3)
H5 H 0.11810 0.64200 0.47300
C8 C 0.2192(5) 0.7323(5) 0.3417(3)
H6 H 0.08290 0.70860 0.29800
C9 C 0.4013(5) 0.8091(4) 0.2993(3)
C10 C 0.6035(5) 0.8435(5) 0.3700(3)
H7 H 0.72640 0.89650 0.34480
C11 C 0.6244(5) 0.8012(4) 0.4750(3)
H8 H 0.76050 0.82440 0.51870
C12 C 0.5668(6) 0.9262(5) 0.1481(3)
H9 H 0.67210 1.00580 0.20790
H10 H 0.52240 0.99110 0.09290
H11 H 0.62870 0.83290 0.11290
C13 C 0.1725(6) 0.8003(6) 0.1198(3)
H12 H 0.11910 0.67340 0.10500
H13 H 0.18860 0.83760 0.04990
H14 H 0.07250 0.85810 0.15550
#END
