
#######################################################################
#
#                 Cambridge Crystallographic Data Centre
#                                CCDC
#
#######################################################################
#
# If this CIF has been generated from an entry in the Cambridge
# Structural Database, then it will include bibliographic, chemical,
# crystal, experimental, refinement or atomic coordinate data resulting
# from the CCDC's data processing and validation procedures.
#
#######################################################################

data_CSD_CIF_RUGPAL
_audit_creation_date 2010-01-21
_audit_creation_method CSD-ConQuest-V1
_database_code_CSD RUGPAL
_database_code_depnum_ccdc_archive 'CCDC 758305'
_chemical_formula_sum 'C22 H17 N3 O4'
_chemical_formula_moiety
;
C22 H17 N3 O4
;
_journal_coeditor_code "IUCr TK2571"
_journal_coden_Cambridge 1370
_journal_volume 65
_journal_year 2009
_journal_page_first o3099
_journal_name_full 'Acta Crystallogr.,Sect.E:Struct.Rep.Online '
loop_
_publ_author_name
"J.H.Goh"
"H.-K.Fun"
"Nithinchandra"
"N.S.Rai"
"B.Kalluraya"
_chemical_name_systematic
;
(4-Methylphenyl)(1-(4-methylphenyl)-3-(5-nitro-2-furyl)-1H-pyrazol-4-yl)methan
one
;
_cell_volume    915.012
_exptl_crystal_colour 'orange'
_exptl_crystal_density_diffrn 1.406
_exptl_crystal_description 'block'
_exptl_crystal_preparation 'dimethylformamide/ethanol'
_diffrn_ambient_temperature 100
#These two values have been output from a single CSD field.
_refine_ls_R_factor_gt 0.06
_refine_ls_wR_factor_gt 0.06
_symmetry_cell_setting triclinic
_symmetry_space_group_name_H-M 'P -1'
_symmetry_Int_Tables_number 2
loop_
_symmetry_equiv_pos_site_id
_symmetry_equiv_pos_as_xyz
1 x,y,z
2 -x,-y,-z
_cell_length_a 9.6398(2)
_cell_length_b 9.9160(2)
_cell_length_c 10.1815(2)
_cell_angle_alpha 88.051(1)
_cell_angle_beta 85.930(1)
_cell_angle_gamma 70.495(1)
_cell_formula_units_Z 2
loop_
_atom_type_symbol
_atom_type_radius_bond
C 0.68
H 0.23
N 0.68
O 0.68
loop_
_atom_site_label
_atom_site_type_symbol
_atom_site_fract_x
_atom_site_fract_y
_atom_site_fract_z
O1 O 0.37746(12) -0.18217(11) 0.54625(12)
O2 O 0.27874(13) 0.22439(13) 0.28781(12)
O3 O 0.71075(14) -0.45933(13) 0.52077(13)
O4 O 0.51656(15) -0.43098(14) 0.65457(15)
N1 N -0.00353(15) 0.13036(14) 0.62991(13)
N2 N 0.12266(15) 0.01582(14) 0.61610(14)
N3 N 0.58353(16) -0.39214(15) 0.56224(15)
C1 C -0.11237(18) 0.36641(17) 0.26082(16)
H1 H -0.13980 0.29240 0.30040
C2 C -0.21404(19) 0.47566(19) 0.19334(17)
H2 H -0.30880 0.47270 0.18700
C3 C -0.17692(19) 0.58885(18) 0.13536(17)
C4 C -0.03428(19) 0.59078(18) 0.14428(17)
H3 H -0.00790 0.66630 0.10670
C5 C 0.06906(19) 0.48115(17) 0.20874(17)
H4 H 0.16470 0.48270 0.21210
C6 C 0.03091(18) 0.36868(16) 0.26861(16)
C7 C 0.15071(18) 0.25230(16) 0.33197(16)
C8 C 0.11205(17) 0.17708(16) 0.44824(16)
C9 C 0.19410(17) 0.04329(16) 0.50694(16)
C10 C 0.33574(18) -0.06208(16) 0.46636(16)
C11 C 0.44312(18) -0.06981(17) 0.36922(16)
H5 H 0.44080 -0.00240 0.30290
C12 C 0.55914(19) -0.20056(17) 0.38871(17)
H6 H 0.64780 -0.23650 0.33860
C13 C 0.51276(18) -0.26116(16) 0.49567(17)
C14 C -0.01294(18) 0.22782(16) 0.53221(16)
H7 H -0.08970 0.31370 0.52300
C15 C -0.10373(17) 0.13658(16) 0.74182(16)
C16 C -0.07593(19) 0.02085(18) 0.82857(17)
H8 H 0.00390 -0.06190 0.81150
C17 C -0.1685(2) 0.03015(19) 0.94092(18)
H9 H -0.15040 -0.04820 0.99800
C18 C -0.28747(19) 0.1528(2) 0.97094(17)
C19 C -0.31491(19) 0.26609(18) 0.88030(17)
H10 H -0.39480 0.34880 0.89730
C20 C -0.22600(18) 0.25837(17) 0.76544(17)
H11 H -0.24800 0.33380 0.70500
C21 C -0.2876(2) 0.7069(2) 0.0625(2)
H12 H -0.28590 0.79790 0.09000
H13 H -0.38440 0.70110 0.08160
H14 H -0.26280 0.69670 -0.03050
C22 C -0.3809(2) 0.1612(2) 1.09795(19)
H15 H -0.31830 0.12060 1.16850
H16 H -0.44750 0.10890 1.08940
H17 H -0.43630 0.25950 1.11670
#END
