
#######################################################################
#
#                 Cambridge Crystallographic Data Centre
#                                CCDC
#
#######################################################################
#
# If this CIF has been generated from an entry in the Cambridge
# Structural Database, then it will include bibliographic, chemical,
# crystal, experimental, refinement or atomic coordinate data resulting
# from the CCDC's data processing and validation procedures.
#
#######################################################################

data_CSD_CIF_RUGQOA
_audit_creation_date 2010-01-21
_audit_creation_method CSD-ConQuest-V1
_database_code_CSD RUGQOA
_database_code_depnum_ccdc_archive 'CCDC 758314'
_chemical_formula_sum 'C7 H7 N11 O11'
_chemical_formula_moiety
;
C7 H7 N11 O11
;
_journal_coeditor_code "IUCr NK2008"
_journal_coden_Cambridge 1370
_journal_volume 65
_journal_year 2009
_journal_page_first o3112
_journal_name_full 'Acta Crystallogr.,Sect.E:Struct.Rep.Online '
loop_
_publ_author_name
"Shaohua Jin"
"Shusen Chen"
"Huaxiong Chen"
"Lijie Li"
"Yanshan Shi"
_chemical_name_systematic
;
10-Formyl-2,4,6,8,12-pentanitro-2,4,6,8,10,12-hexaazatetracyclo[5.5.0.0^3,11^.
0^5,9^]dodecane
;
_chemical_name_common
;
Pentanitromonoformylhexaazaisowurtzitane
;
_chemical_melting_point 247
_cell_volume   1415.028
_exptl_crystal_colour 'colorless'
_exptl_crystal_density_diffrn 1.977
_exptl_crystal_description 'prism'
_exptl_crystal_preparation 'acetone/hexane'
_diffrn_ambient_temperature 93
#These two values have been output from a single CSD field.
_refine_ls_R_factor_gt 0.0342
_refine_ls_wR_factor_gt 0.0342
_symmetry_cell_setting orthorhombic
_symmetry_space_group_name_H-M 'P 21 21 21'
_symmetry_Int_Tables_number 19
loop_
_symmetry_equiv_pos_site_id
_symmetry_equiv_pos_as_xyz
1 x,y,z
2 1/2-x,-y,1/2+z
3 -x,1/2+y,1/2-z
4 1/2+x,1/2-y,-z
_cell_length_a 8.8000(18)
_cell_length_b 12.534(2)
_cell_length_c 12.829(3)
_cell_angle_alpha 90
_cell_angle_beta 90
_cell_angle_gamma 90
_cell_formula_units_Z 4
loop_
_atom_type_symbol
_atom_type_radius_bond
C 0.68
H 0.23
N 0.68
O 0.68
loop_
_atom_site_label
_atom_site_type_symbol
_atom_site_fract_x
_atom_site_fract_y
_atom_site_fract_z
O1 O 0.4007(2) 0.13038(16) 0.12911(15)
O2 O 0.3409(2) 0.08809(15) 0.28944(15)
O3 O 0.1006(2) 0.45094(16) 0.01761(14)
O4 O -0.0499(2) 0.50366(16) 0.14359(15)
O5 O 0.6743(2) 0.34574(17) 0.13169(16)
O6 O 0.6994(2) 0.37181(16) 0.29844(16)
O7 O 0.4174(2) 0.56954(17) 0.04576(14)
O8 O 0.3477(2) 0.66003(15) 0.18230(16)
O9 O 0.4369(3) 0.28833(17) 0.52530(16)
O10 O -0.0814(2) 0.51961(18) 0.37613(17)
O11 O 0.1111(2) 0.62630(16) 0.38019(17)
N1 N 0.2231(3) 0.22215(17) 0.21233(17)
N2 N 0.0880(2) 0.35693(18) 0.16357(16)
N3 N 0.4655(2) 0.34315(18) 0.23254(17)
N4 N 0.3187(3) 0.48471(17) 0.18203(17)
N5 N 0.3024(2) 0.30228(17) 0.37498(17)
N6 N 0.1429(3) 0.45977(17) 0.32082(17)
N7 N 0.3299(3) 0.14247(17) 0.21021(18)
N8 N 0.0428(3) 0.44415(18) 0.10471(17)
N9 N 0.6262(3) 0.35696(18) 0.21936(19)
N10 N 0.3673(3) 0.57783(18) 0.13405(18)
N11 N 0.0508(3) 0.54120(18) 0.36035(18)
C1 C 0.2300(3) 0.3052(2) 0.1333(2)
H1 H 0.22350 0.27460 0.06140
C2 C 0.1756(3) 0.2665(2) 0.31371(19)
H2 H 0.11330 0.21360 0.35340
C3 C 0.0756(3) 0.3640(2) 0.27868(19)
H3 H -0.03210 0.35560 0.30210
C4 C 0.3729(3) 0.3812(2) 0.1456(2)
H4 H 0.43270 0.38710 0.07950
C5 C 0.3971(3) 0.3834(2) 0.33015(19)
H5 H 0.47790 0.40580 0.38040
C6 C 0.2991(3) 0.4819(2) 0.29537(19)
H6 H 0.33520 0.54930 0.32880
C7 C 0.3332(3) 0.2587(2) 0.4713(2)
H7 H 0.26990 0.20280 0.49620
#END
