
#######################################################################
#
#                 Cambridge Crystallographic Data Centre
#                                CCDC
#
#######################################################################
#
# If this CIF has been generated from an entry in the Cambridge
# Structural Database, then it will include bibliographic, chemical,
# crystal, experimental, refinement or atomic coordinate data resulting
# from the CCDC's data processing and validation procedures.
#
#######################################################################

data_CSD_CIF_RUGRER
_audit_creation_date 2010-01-21
_audit_creation_method CSD-ConQuest-V1
_database_code_CSD RUGRER
_database_code_depnum_ccdc_archive 'CCDC 758317'
_chemical_formula_sum 'C16 H13 N1 O4'
_chemical_formula_moiety
;
C16 H13 N1 O4
;
_journal_coeditor_code "IUCr FL2279"
_journal_coden_Cambridge 1370
_journal_volume 65
_journal_year 2009
_journal_page_first o3117
_journal_name_full 'Acta Crystallogr.,Sect.E:Struct.Rep.Online '
loop_
_publ_author_name
"Huan-Mei Guo"
"Le-Qing Liu"
"Jie Yang"
"Fang-Fang Jian"
_chemical_name_systematic
;
3-(4-Methoxyphenyl)-1-(2-nitrophenyl)prop-2-en-1-one
;
_cell_volume   1363.203
_exptl_crystal_colour 'yellow'
_exptl_crystal_density_diffrn 1.38
_exptl_crystal_description 'bar'
_exptl_crystal_preparation 'ethyl acetate'
_diffrn_ambient_temperature 293
#These two values have been output from a single CSD field.
_refine_ls_R_factor_gt 0.0409
_refine_ls_wR_factor_gt 0.0409
_symmetry_cell_setting monoclinic
_symmetry_space_group_name_H-M 'P 21/c'
_symmetry_Int_Tables_number 14
loop_
_symmetry_equiv_pos_site_id
_symmetry_equiv_pos_as_xyz
1 x,y,z
2 -x,1/2+y,1/2-z
3 -x,-y,-z
4 x,-1/2-y,-1/2+z
_cell_length_a 11.594(2)
_cell_length_b 7.7736(16)
_cell_length_c 15.174(3)
_cell_angle_alpha 90
_cell_angle_beta 94.59(3)
_cell_angle_gamma 90
_cell_formula_units_Z 4
loop_
_atom_type_symbol
_atom_type_radius_bond
C 0.68
H 0.23
N 0.68
O 0.68
loop_
_atom_site_label
_atom_site_type_symbol
_atom_site_fract_x
_atom_site_fract_y
_atom_site_fract_z
C1 C 0.72395(9) 0.18277(14) 0.22201(7)
H1 H 0.78100 0.26550 0.23400
O1 O 0.82958(9) 0.02414(13) 0.02294(6)
C2 C 0.63411(9) 0.17369(13) 0.28408(7)
N1 N 1.07316(9) 0.10395(13) 0.16402(6)
C3 C 0.46388(9) 0.17332(14) 0.40548(8)
C4 C 0.44279(10) 0.09466(16) 0.32265(8)
H2 H 0.37140 0.04360 0.30730
O2 O 1.01265(9) -0.02297(12) 0.16921(7)
C5 C 0.85299(10) 0.42736(15) 0.08146(8)
H3 H 0.77550 0.43340 0.06040
C6 C 0.90152(9) 0.26829(14) 0.10358(7)
C7 C 1.01784(9) 0.26616(13) 0.13472(7)
C8 C 0.5271(1) 0.09263(15) 0.26394(8)
H4 H 0.51300 0.03660 0.21000
C9 C 1.08378(10) 0.41407(16) 0.14300(8)
H5 H 1.16150 0.40870 0.16360
C10 C 0.73401(10) 0.08635(15) 0.15007(8)
H6 H 0.68110 -0.00230 0.13840
C11 C 1.03253(12) 0.57038(15) 0.12026(9)
H7 H 1.07600 0.67100 0.12540
C12 C 0.65192(9) 0.25538(14) 0.36590(8)
H8 H 0.72130 0.31290 0.37990
O3 O 1.17769(9) 0.10328(15) 0.18354(8)
C13 C 0.82364(10) 0.11242(15) 0.08857(7)
C14 C 0.91755(12) 0.57743(15) 0.09011(9)
H9 H 0.88310 0.68280 0.07550
C15 C 0.56915(10) 0.25320(14) 0.42687(8)
H10 H 0.58420 0.30510 0.48180
O4 O 0.37527(8) 0.16582(14) 0.45895(6)
C16 C 0.39013(13) 0.24330(19) 0.54405(9)
H11 H 0.32100 0.22830 0.57400
H12 H 0.40540 0.36390 0.53780
H13 H 0.45400 0.19000 0.57780
#END
