
#######################################################################
#
#                 Cambridge Crystallographic Data Centre
#                                CCDC
#
#######################################################################
#
# If this CIF has been generated from an entry in the Cambridge
# Structural Database, then it will include bibliographic, chemical,
# crystal, experimental, refinement or atomic coordinate data resulting
# from the CCDC's data processing and validation procedures.
#
#######################################################################

data_CSD_CIF_RUGSAO
_audit_creation_date 2010-01-21
_audit_creation_method CSD-ConQuest-V1
_database_code_CSD RUGSAO
_database_code_depnum_ccdc_archive 'CCDC 758321'
_chemical_formula_sum 'C26 H24 N4 O2'
_chemical_formula_moiety
;
C26 H24 N4 O2
;
_journal_coeditor_code "IUCr FL2280"
_journal_coden_Cambridge 1370
_journal_volume 65
_journal_year 2009
_journal_page_first o3122
_journal_name_full 'Acta Crystallogr.,Sect.E:Struct.Rep.Online '
loop_
_publ_author_name
"Jian Yao"
"Su-Xia Gao"
"Wen-Kui Dong"
"Jun-Feng Tong"
"Shang-Sheng Gong"
_chemical_name_systematic
;
4-((4-[1-(Methoxyimino)ethyl]anilino)(phenyl)methylene)-3-methyl-1-phenyl-1H-p
yrazol-5(4H)-one
;
_chemical_melting_point 454
_cell_volume   1096.464
_exptl_crystal_colour 'yellow'
_exptl_crystal_density_diffrn 1.286
_exptl_special_details
;
Melting point range 454-456K

;
_exptl_crystal_description 'block-like'
_exptl_crystal_preparation 'dichloromethane'
_diffrn_ambient_temperature 298
#These two values have been output from a single CSD field.
_refine_ls_R_factor_gt 0.0768
_refine_ls_wR_factor_gt 0.0768
_symmetry_cell_setting triclinic
_symmetry_space_group_name_H-M 'P -1'
_symmetry_Int_Tables_number 2
loop_
_symmetry_equiv_pos_site_id
_symmetry_equiv_pos_as_xyz
1 x,y,z
2 -x,-y,-z
_cell_length_a 7.3550(6)
_cell_length_b 11.1609(13)
_cell_length_c 14.9700(12)
_cell_angle_alpha 68.536(1)
_cell_angle_beta 76.654(2)
_cell_angle_gamma 76.182(2)
_cell_formula_units_Z 2
loop_
_atom_type_symbol
_atom_type_radius_bond
C 0.68
H 0.23
N 0.68
O 0.68
loop_
_atom_site_label
_atom_site_type_symbol
_atom_site_fract_x
_atom_site_fract_y
_atom_site_fract_z
N1 N 0.5909(5) 0.6071(3) 0.1299(3)
N2 N 0.6863(5) 0.5101(4) 0.0891(3)
N3 N 0.1377(5) 0.4355(4) 0.2977(3)
H1 H 0.16050 0.50470 0.30250
N4 N -0.5909(6) 0.1833(5) 0.5239(3)
O1 O 0.3193(4) 0.6395(3) 0.2404(2)
O2 O -0.7474(6) 0.1375(4) 0.5927(3)
C1 C 0.4246(6) 0.5767(4) 0.1894(3)
C2 C 0.4103(6) 0.4552(4) 0.1810(3)
C3 C 0.5784(7) 0.4221(4) 0.1177(3)
C4 C 0.6428(7) 0.3052(5) 0.0868(4)
H2 H 0.76600 0.30940 0.04770
H3 H 0.55480 0.30220 0.04950
H4 H 0.64940 0.22810 0.14310
C5 C 0.6829(6) 0.7119(4) 0.1179(3)
C6 C 0.5761(7) 0.8342(5) 0.1089(4)
H5 H 0.44700 0.84890 0.10690
C7 C 0.6606(8) 0.9334(5) 0.1030(4)
H6 H 0.58800 1.01550 0.09830
C8 C 0.8494(8) 0.9141(6) 0.1040(4)
H7 H 0.90600 0.98250 0.09980
C9 C 0.9571(7) 0.7925(6) 0.1112(4)
H8 H 1.08690 0.77920 0.11110
C10 C 0.8737(7) 0.6911(5) 0.1184(4)
H9 H 0.94610 0.60890 0.12370
C11 C 0.2609(6) 0.3874(4) 0.2346(3)
C12 C 0.2423(6) 0.2628(4) 0.2279(3)
C13 C 0.2792(7) 0.1492(5) 0.3045(4)
H10 H 0.31710 0.15170 0.35880
C14 C 0.2592(7) 0.0319(5) 0.2996(4)
H11 H 0.28620 -0.04470 0.35060
C15 C 0.2010(7) 0.0263(5) 0.2221(4)
H12 H 0.18530 -0.05290 0.22020
C16 C 0.1653(7) 0.1410(5) 0.1456(4)
H13 H 0.12510 0.13850 0.09190
C17 C 0.1881(6) 0.2558(5) 0.1483(4)
H14 H 0.16680 0.33130 0.09550
C18 C -0.0273(6) 0.3889(4) 0.3586(3)
C19 C -0.0580(7) 0.3782(5) 0.4543(4)
H15 H 0.03280 0.39670 0.47920
C20 C -0.2214(6) 0.3404(4) 0.5147(4)
H16 H -0.24080 0.33500 0.57960
C21 C -0.3560(6) 0.3105(4) 0.4794(3)
C22 C -0.3236(6) 0.3217(4) 0.3821(3)
H17 H -0.41280 0.30120 0.35740
C23 C -0.1635(6) 0.3622(4) 0.3211(4)
H18 H -0.14630 0.37170 0.25550
C24 C -0.5294(6) 0.2642(4) 0.5452(4)
C25 C -0.6082(7) 0.3043(6) 0.6314(4)
H19 H -0.73910 0.29440 0.65100
H20 H -0.59830 0.39410 0.61610
H21 H -0.53870 0.25060 0.68330
C26 C -0.7905(10) 0.0306(7) 0.5759(6)
H22 H -0.89270 0.06110 0.53880
H23 H -0.82710 -0.03360 0.63700
H24 H -0.68060 -0.00790 0.54040
#END
