
#######################################################################
#
#                 Cambridge Crystallographic Data Centre
#                                CCDC
#
#######################################################################
#
# If this CIF has been generated from an entry in the Cambridge
# Structural Database, then it will include bibliographic, chemical,
# crystal, experimental, refinement or atomic coordinate data resulting
# from the CCDC's data processing and validation procedures.
#
#######################################################################

data_CSD_CIF_RUHHEH
_audit_creation_date 1998-02-12
_audit_creation_method CSD-ConQuest-V1
_database_code_CSD RUHHEH
_database_code_depnum_ccdc_archive 'CCDC 114675'
_database_code_depnum_ccdc_fiz 'CSD 403059'
_chemical_formula_sum 'C12 H8 N2 O6'
_chemical_formula_moiety
;
C12 H8 N2 O6
;
_journal_coden_Cambridge 643
_journal_volume 212
_journal_year 1997
_journal_page_first 226
_journal_name_full 'Z.Krist.Cryst.Mater. '
loop_
_publ_author_name
"P.Vojtisek"
"I.Cisarova"
"J.Podlaha"
"Z.Zak"
"S.Bohm"
"M.Tichy"
"J.Zavada"
_chemical_name_systematic
;
(R,S)-2,2'-Bipyridine-3,3'-dicarboxylic acid 1,1'-dioxide
;
_cell_volume   1120.114
_exptl_crystal_colour 'colorless'
_exptl_crystal_density_diffrn 1.638
_exptl_crystal_description 'rhombohedrons'
_diffrn_ambient_temperature 120
#These two values have been output from a single CSD field.
_refine_ls_R_factor_gt 0.0799
_refine_ls_wR_factor_gt 0.0799
loop_
_citation_database_id_CSD
_citation_special_details
RUHHOR "is a stereoisomer of this entry"
_symmetry_cell_setting monoclinic
_symmetry_space_group_name_H-M 'C 2/c'
_symmetry_Int_Tables_number 15
loop_
_symmetry_equiv_pos_site_id
_symmetry_equiv_pos_as_xyz
1 x,y,z
2 -x,y,1/2-z
3 1/2+x,1/2+y,z
4 1/2-x,1/2+y,1/2-z
5 -x,-y,-z
6 x,-y,-1/2+z
7 -1/2-x,-1/2-y,-z
8 -1/2+x,-1/2-y,-1/2+z
_cell_length_a 13.633(3)
_cell_length_b 8.227(2)
_cell_length_c 10.243(2)
_cell_angle_alpha 90
_cell_angle_beta 102.84(3)
_cell_angle_gamma 90
_cell_formula_units_Z 4
loop_
_atom_type_symbol
_atom_type_radius_bond
C 0.68
H 0.23
N 0.68
O 0.68
loop_
_atom_site_label
_atom_site_type_symbol
_atom_site_fract_x
_atom_site_fract_y
_atom_site_fract_z
O1 O 0.6463(4) 0.4332(7) 0.3078(5)
O2 O 0.2990(4) 0.0890(8) 0.4139(5)
H1 H 0.2274(62) 0.023(10) 0.3680(72)
O3 O 0.3502(4) 0.0504(7) 0.2239(5)
N1 N 0.5952(4) 0.3600(7) 0.3859(5)
C1 C 0.5121(5) 0.2734(9) 0.3245(7)
C2 C 0.4539(5) 0.1996(9) 0.4017(7)
C3 C 0.4830(5) 0.2085(9) 0.5402(7)
H2 H 0.4452(5) 0.1579(9) 0.5937(7)
C4 C 0.5688(6) 0.2935(9) 0.5969(7)
H3 H 0.5897(6) 0.2992(9) 0.6896(7)
C5 C 0.6235(5) 0.3696(9) 0.5182(7)
H4 H 0.6808(5) 0.4282(9) 0.5575(7)
C6 C 0.3633(5) 0.1057(10) 0.3350(7)
C1A C 0.4879(5) 0.2734(9) 0.1755(7)
N1A N 0.4048(4) 0.3600(7) 0.1141(5)
O1A O 0.3537(4) 0.4332(7) 0.1922(5)
C5A C 0.3765(5) 0.3696(9) -0.0182(7)
C4A C 0.4312(6) 0.2935(9) -0.0969(7)
C3A C 0.5170(5) 0.2085(9) -0.0402(7)
C2A C 0.5461(5) 0.1996(9) 0.0983(7)
C6A C 0.6367(5) 0.1057(10) 0.1650(7)
O2A O 0.7010(4) 0.0890(8) 0.0861(5)
H1A H 0.7726(62) 0.023(10) 0.1320(72)
O3A O 0.6498(4) 0.0504(7) 0.2761(5)
H2A H 0.5548(5) 0.1579(9) -0.0937(7)
H3A H 0.4103(6) 0.2992(9) -0.1896(7)
H4A H 0.3192(5) 0.4282(9) -0.0575(7)
#END
