
#######################################################################
#
#                 Cambridge Crystallographic Data Centre
#                                CCDC
#
#######################################################################
#
# If this CIF has been generated from an entry in the Cambridge
# Structural Database, then it will include bibliographic, chemical,
# crystal, experimental, refinement or atomic coordinate data resulting
# from the CCDC's data processing and validation procedures.
#
#######################################################################

data_CSD_CIF_RUJHOV
_audit_creation_date 2015-08-06
_audit_creation_method CSD-ConQuest-V1
_database_code_CSD RUJHOV
_database_code_depnum_ccdc_archive 'CCDC 1417042'
_chemical_formula_sum 'C13 H17 N3 O3'
_chemical_formula_moiety
;
C13 H17 N3 O3
;
_journal_coden_Cambridge 1078
_journal_year 2015
_journal_name_full 'CSD Communication(Private Communication) '
loop_
_publ_author_name
"N.Caliskan"
"C.Y.Ataol"
"H.Bati"
"N.Kurban"
"P.Kurnaz"
_chemical_name_systematic
;
2-ethoxy-6-((3-(hydroxyimino)butan-2-ylidene)carbonohydrazonoyl)phenol
;
_cell_volume   1347.583
_exptl_crystal_density_diffrn 1.298
_diffrn_ambient_temperature 293
#These two values have been output from a single CSD field.
_refine_ls_R_factor_gt 0.052
_refine_ls_wR_factor_gt 0.052
_symmetry_cell_setting monoclinic
_symmetry_space_group_name_H-M 'P 21/c'
_symmetry_Int_Tables_number 14
loop_
_symmetry_equiv_pos_site_id
_symmetry_equiv_pos_as_xyz
1 x,y,z
2 -x,1/2+y,1/2-z
3 -x,-y,-z
4 x,-1/2-y,-1/2+z
_cell_length_a 4.4209(3)
_cell_length_b 23.4245(14)
_cell_length_c 13.6546(10)
_cell_angle_alpha 90
_cell_angle_beta 107.635(5)
_cell_angle_gamma 90
_cell_formula_units_Z 4
loop_
_atom_type_symbol
_atom_type_radius_bond
C 0.68
H 0.23
N 0.68
O 0.68
loop_
_atom_site_label
_atom_site_type_symbol
_atom_site_fract_x
_atom_site_fract_y
_atom_site_fract_z
N1 N 0.6064(6) 0.13096(10) 0.09861(18)
N2 N 0.3422(6) 0.14492(11) 0.01455(18)
N3 N -0.1778(7) 0.25855(11) -0.05540(17)
O1 O 1.5317(5) 0.10037(8) 0.41507(15)
O2 O 1.0477(5) 0.14206(8) 0.27612(15)
H1 H 0.89230 0.15160 0.22870
O3 O -0.4423(5) 0.27043(9) -0.13826(15)
H2 H -0.51650 0.30140 -0.12940
C1 C 0.9956(7) 0.05912(12) 0.1672(2)
C2 C 1.1150(8) 0.00553(13) 0.1539(2)
H3 H 1.01460 -0.01580 0.09570
C3 C 1.3774(8) -0.01597(13) 0.2253(3)
H4 H 1.45660 -0.05140 0.21460
C4 C 1.5263(8) 0.01468(13) 0.3134(2)
H5 H 1.70490 -0.00020 0.36180
C5 C 1.4099(7) 0.06705(12) 0.3293(2)
C6 C 1.1468(7) 0.09003(12) 0.2563(2)
C7 C 1.7987(8) 0.07890(14) 0.4948(2)
H6 H 1.98550 0.07840 0.47160
H7 H 1.75700 0.04020 0.51260
C8 C 1.8525(9) 0.11682(13) 0.5856(2)
H8 H 2.03090 0.10320 0.64000
H9 H 1.89460 0.15490 0.56730
H10 H 1.66700 0.11690 0.60820
C9 C 0.7213(7) 0.08177(13) 0.0900(2)
H11 H 0.62510 0.05980 0.03210
C10 C 0.2271(8) 0.19485(13) 0.0207(2)
C11 C -0.0504(8) 0.21046(13) -0.0657(2)
C12 C 0.3516(8) 0.23595(13) 0.1061(2)
H12 H 0.22510 0.27000 0.09270
H13 H 0.34270 0.21910 0.16930
H14 H 0.56760 0.24530 0.11170
C13 C -0.1676(9) 0.17268(14) -0.1564(2)
H15 H -0.03630 0.13930 -0.14720
H16 H -0.38250 0.16160 -0.16380
H17 H -0.16000 0.19270 -0.21690
#END
