
#######################################################################
#
#                 Cambridge Crystallographic Data Centre
#                                CCDC
#
#######################################################################
#
# If this CIF has been generated from an entry in the Cambridge
# Structural Database, then it will include bibliographic, chemical,
# crystal, experimental, refinement or atomic coordinate data resulting
# from the CCDC's data processing and validation procedures.
#
#######################################################################

data_CSD_CIF_RUJJEM
_audit_creation_date 2010-03-10
_audit_creation_method CSD-ConQuest-V1
_database_code_CSD RUJJEM
_database_code_depnum_ccdc_archive 'CCDC 758207'
_chemical_formula_sum 'C18 H13 N3 O5'
_chemical_formula_moiety
;
C18 H13 N3 O5
;
_journal_coeditor_code "IUCr BH2256"
_journal_coden_Cambridge 1370
_journal_volume 65
_journal_year 2009
_journal_page_first o2978
_journal_name_full 'Acta Crystallogr.,Sect.E:Struct.Rep.Online '
loop_
_publ_author_name
"De-Suo Yang"
_chemical_name_systematic
;
3-Hydroxy-N'-(5-hydroxy-2-nitrobenzylidene)-2-naphthohydrazide
;
_cell_volume   1582.947
_exptl_crystal_colour 'colorless'
_exptl_crystal_density_diffrn 1.474
_exptl_crystal_description 'block'
_exptl_crystal_preparation 'chloroform'
_diffrn_ambient_temperature 298
#These two values have been output from a single CSD field.
_refine_ls_R_factor_gt 0.0439
_refine_ls_wR_factor_gt 0.0439
_symmetry_cell_setting monoclinic
_symmetry_space_group_name_H-M 'P 21/n'
_symmetry_Int_Tables_number 14
loop_
_symmetry_equiv_pos_site_id
_symmetry_equiv_pos_as_xyz
1 x,y,z
2 1/2-x,1/2+y,1/2-z
3 -x,-y,-z
4 -1/2+x,-1/2-y,-1/2+z
_cell_length_a 10.1588(3)
_cell_length_b 8.2562(2)
_cell_length_c 19.5268(5)
_cell_angle_alpha 90
_cell_angle_beta 104.867(1)
_cell_angle_gamma 90
_cell_formula_units_Z 4
loop_
_atom_type_symbol
_atom_type_radius_bond
C 0.68
H 0.23
N 0.68
O 0.68
loop_
_atom_site_label
_atom_site_type_symbol
_atom_site_fract_x
_atom_site_fract_y
_atom_site_fract_z
N1 N 0.88109(14) 0.92607(17) 0.05530(7)
N2 N 1.00455(13) 0.88709(16) 0.10140(7)
N3 N 1.20940(14) 0.48961(18) 0.04801(7)
O1 O 0.86564(13) 1.16125(15) 0.11112(6)
O2 O 0.63397(15) 1.31345(18) 0.08033(7)
H1 H 0.70840 1.28540 0.10520
O3 O 1.13711(14) 0.56430(16) -0.00173(6)
O4 O 1.24674(14) 0.34954(16) 0.04217(7)
O5 O 1.38574(15) 0.75885(19) 0.31532(6)
H2 H 1.45650 0.71600 0.33770
C1 C 0.69456(16) 1.10569(19) 0.00579(8)
C2 C 0.60609(17) 1.2299(2) 0.01840(9)
C3 C 0.49048(18) 1.2674(3) -0.03235(10)
H3 H 0.43320 1.34820 -0.02340
C4 C 0.45611(17) 1.1865(3) -0.09781(10)
C5 C 0.3359(2) 1.2237(3) -0.15133(13)
H4 H 0.27560 1.30130 -0.14280
C6 C 0.3090(3) 1.1465(4) -0.21477(15)
H5 H 0.22990 1.17170 -0.24930
C7 C 0.3980(3) 1.0294(3) -0.22928(13)
H6 H 0.37820 0.97870 -0.27330
C8 C 0.5134(2) 0.9896(3) -0.17908(11)
H7 H 0.57210 0.91160 -0.18890
C9 C 0.54456(19) 1.0664(2) -0.11211(9)
C10 C 0.66309(18) 1.0299(2) -0.05915(9)
H8 H 0.72240 0.95190 -0.06830
C11 C 0.81986(16) 1.06728(19) 0.06131(8)
C12 C 1.04643(17) 0.7455(2) 0.09371(9)
H9 H 0.99350 0.67740 0.05960
C13 C 1.17752(16) 0.68736(18) 0.13789(8)
C14 C 1.25482(16) 0.56598(18) 0.11681(8)
C15 C 1.37767(16) 0.51385(19) 0.16009(9)
H10 H 1.42760 0.43420 0.14430
C16 C 1.42572(16) 0.5796(2) 0.22626(8)
H11 H 1.50940 0.54710 0.25500
C17 C 1.34847(18) 0.6951(2) 0.24990(8)
C18 C 1.22688(17) 0.7487(2) 0.20549(8)
H12 H 1.17720 0.82800 0.22160
H13 H 0.8395(18) 0.8513(19) 0.0237(8)
#END
