
#######################################################################
#
#                 Cambridge Crystallographic Data Centre
#                                CCDC
#
#######################################################################
#
# If this CIF has been generated from an entry in the Cambridge
# Structural Database, then it will include bibliographic, chemical,
# crystal, experimental, refinement or atomic coordinate data resulting
# from the CCDC's data processing and validation procedures.
#
#######################################################################

data_CSD_CIF_RUJPIW
_audit_creation_date 2010-03-10
_audit_creation_method CSD-ConQuest-V1
_database_code_CSD RUJPIW
_database_code_depnum_ccdc_archive 'CCDC 758383'
_chemical_formula_sum 'C23 H22 N2 O6'
_chemical_formula_moiety
;
C23 H22 N2 O6
;
_journal_coeditor_code "IUCr FB2168"
_journal_coden_Cambridge 1370
_journal_volume 65
_journal_year 2009
_journal_page_first o3199
_journal_name_full 'Acta Crystallogr.,Sect.E:Struct.Rep.Online '
loop_
_publ_author_name
"Bing-zhu Zhang"
"Yan-ji Wang"
"Feng-xia Sun"
"Xu Zhang"
"Wei Wang"
_chemical_name_systematic
;
(4RS)-3-Benzyl 5-methyl 
2,6-dimethyl-4-(4-nitrophenyl)-1,4-dihydropyridine-3,5-dicarboxylate
;
_cell_volume   2085.731
_exptl_crystal_colour 'yellow'
_exptl_crystal_density_diffrn 1.345
_exptl_crystal_description 'block'
_exptl_crystal_preparation 'dichloromethane/methanol'
_diffrn_ambient_temperature 293
#These two values have been output from a single CSD field.
_refine_ls_R_factor_gt 0.061
_refine_ls_wR_factor_gt 0.061
_symmetry_cell_setting monoclinic
_symmetry_space_group_name_H-M 'P 21/n'
_symmetry_Int_Tables_number 14
loop_
_symmetry_equiv_pos_site_id
_symmetry_equiv_pos_as_xyz
1 x,y,z
2 1/2-x,1/2+y,1/2-z
3 -x,-y,-z
4 -1/2+x,-1/2-y,-1/2+z
_cell_length_a 9.6527(19)
_cell_length_b 11.043(2)
_cell_length_c 19.883(4)
_cell_angle_alpha 90
_cell_angle_beta 100.23(3)
_cell_angle_gamma 90
_cell_formula_units_Z 4
loop_
_atom_type_symbol
_atom_type_radius_bond
C 0.68
H 0.23
N 0.68
O 0.68
loop_
_atom_site_label
_atom_site_type_symbol
_atom_site_fract_x
_atom_site_fract_y
_atom_site_fract_z
O1 O 0.89299(15) 0.58542(14) 0.20521(9)
O2 O 0.78376(14) 0.54481(13) 0.09912(8)
O3 O 0.2026(3) 0.23247(18) 0.15616(13)
O4 O 0.14892(19) 0.35571(16) 0.23061(10)
O5 O 0.38588(17) 0.74335(14) -0.02349(8)
O6 O 0.31955(14) 0.92631(12) 0.00562(7)
N1 N 0.61176(17) 0.88992(16) 0.19025(9)
N2 N 0.21172(19) 0.33054(17) 0.18454(11)
C1 C 0.8265(2) 0.8162(2) 0.25856(12)
H1 H 0.80420 0.77330 0.29730
H2 H 0.83650 0.90090 0.26910
H3 H 0.91300 0.78570 0.24780
C2 C 0.70961(19) 0.79849(18) 0.19804(10)
C3 C 0.69608(18) 0.70649(16) 0.15252(9)
C4 C 0.56533(18) 0.69660(15) 0.09720(9)
H4 H 0.59450 0.67050 0.05470
C5 C 0.49105(18) 0.81767(15) 0.08450(9)
C6 C 0.51034(19) 0.90593(16) 0.13245(10)
C7 C 0.4354(2) 1.02481(18) 0.13165(12)
H5 H 0.46100 1.07560 0.09660
H6 H 0.46160 1.06370 0.17520
H7 H 0.33560 1.01140 0.12260
C8 C 0.8009(2) 0.60980(17) 0.15669(11)
C9 C 0.8818(3) 0.4482(2) 0.09446(17)
H8 H 0.97510 0.48080 0.09860
H9 H 0.85660 0.40830 0.05110
H10 H 0.87900 0.39100 0.13060
C10 C 0.46877(17) 0.59917(15) 0.11870(9)
C11 C 0.4607(2) 0.48421(17) 0.09037(10)
H11 H 0.51290 0.46640 0.05650
C12 C 0.3770(2) 0.39576(17) 0.11132(11)
H12 H 0.37210 0.31890 0.09190
C13 C 0.30103(19) 0.42372(17) 0.16151(10)
C14 C 0.3074(2) 0.53621(18) 0.19149(12)
H13 H 0.25580 0.55300 0.22570
C15 C 0.3917(2) 0.62377(17) 0.16985(11)
H14 H 0.39690 0.70020 0.18980
C16 C 0.3957(2) 0.82418(16) 0.01799(10)
C17 C 0.2198(2) 0.92855(19) -0.05783(11)
H15 H 0.16110 0.85670 -0.06120
H16 H 0.26990 0.92840 -0.09600
C18 C 0.1296(2) 1.03911(19) -0.06098(11)
C19 C 0.0127(2) 1.0456(2) -0.11286(14)
H17 H -0.00740 0.98210 -0.14380
C20 C -0.0742(3) 1.1467(3) -0.11858(17)
H18 H -0.15210 1.15020 -0.15360
C21 C -0.0473(2) 1.2403(2) -0.07396(15)
H19 H -0.10620 1.30760 -0.07830
C22 C 0.0669(3) 1.2349(2) -0.02266(14)
H20 H 0.08550 1.29830 0.00840
C23 C 0.1556(2) 1.1348(2) -0.01659(12)
H21 H 0.23390 1.13270 0.01820
H22 H 0.622(2) 0.952(2) 0.2186(12)
#END
