
#######################################################################
#
#                 Cambridge Crystallographic Data Centre
#                                CCDC
#
#######################################################################
#
# If this CIF has been generated from an entry in the Cambridge
# Structural Database, then it will include bibliographic, chemical,
# crystal, experimental, refinement or atomic coordinate data resulting
# from the CCDC's data processing and validation procedures.
#
#######################################################################

data_CSD_CIF_RUJVID
_audit_creation_date 2015-08-06
_audit_creation_method CSD-ConQuest-V1
_database_code_CSD RUJVID
_database_code_depnum_ccdc_archive 'CCDC 1416824; not CCDC 14168243 as published'
_chemical_formula_sum 'C36 H35 N3 O7'
_chemical_formula_moiety
;
C36 H35 N3 O7
;
_journal_coden_Cambridge 1291
_journal_year 2015
_journal_page_first 7571
_journal_name_full 'Eur.J.Org.Chem. '
loop_
_publ_author_name
"Jing Zhang"
"Wen-Juan Yang"
"Jing Sun"
"Chao-Guo Yan"
_chemical_name_systematic
;
dimethyl 
5-cyano-5-(2,2-dimethylpropanoyl)-1-(4-methylphenyl)-4-(4-nitrophenyl)-6-(2-ph
enylvinyl)-1,4,5,6-tetrahydropyridine-2,3-dicarboxylate
;
_cell_volume   3245.932
_exptl_crystal_colour 'colorless'
_exptl_crystal_density_diffrn 1.272
_exptl_crystal_description 'block'
_diffrn_ambient_temperature 296
#These two values have been output from a single CSD field.
_refine_ls_R_factor_gt 0.0524
_refine_ls_wR_factor_gt 0.0524
_symmetry_cell_setting monoclinic
_symmetry_space_group_name_H-M 'P 21/c'
_symmetry_Int_Tables_number 14
loop_
_symmetry_equiv_pos_site_id
_symmetry_equiv_pos_as_xyz
1 x,y,z
2 -x,1/2+y,1/2-z
3 -x,-y,-z
4 x,-1/2-y,-1/2+z
_cell_length_a 11.8752(11)
_cell_length_b 12.6226(11)
_cell_length_c 22.380(2)
_cell_angle_alpha 90
_cell_angle_beta 104.628(3)
_cell_angle_gamma 90
_cell_formula_units_Z 4
loop_
_atom_type_symbol
_atom_type_radius_bond
C 0.68
H 0.23
N 0.68
O 0.68
loop_
_atom_site_label
_atom_site_type_symbol
_atom_site_fract_x
_atom_site_fract_y
_atom_site_fract_z
C1 C 0.57033(19) 0.07469(16) 0.44772(12)
H1 H 0.51320 0.04670 0.41520
C2 C 0.6642(2) 0.01340(18) 0.47651(14)
H2 H 0.66990 -0.05580 0.46330
C3 C 0.7492(2) 0.0531(2) 0.52428(12)
H3 H 0.81320 0.01180 0.54300
C4 C 0.7394(2) 0.1533(2) 0.54415(11)
H4 H 0.79630 0.18030 0.57710
C5 C 0.64581(19) 0.21553(19) 0.51598(10)
H5 H 0.64000 0.28400 0.53030
C6 C 0.56059(16) 0.17770(15) 0.46687(9)
C7 C 0.46407(16) 0.24774(14) 0.43636(9)
H6 H 0.44760 0.30540 0.45860
C8 C 0.39983(14) 0.23431(14) 0.38006(9)
H7 H 0.41630 0.17490 0.35910
C9 C 0.30307(13) 0.30356(12) 0.34557(8)
H8 H 0.32490 0.33030 0.30900
C10 C 0.31573(14) 0.49917(12) 0.36628(8)
C11 C 0.43213(16) 0.52482(15) 0.37803(10)
H9 H 0.48870 0.47430 0.39420
C12 C 0.46398(19) 0.62585(16) 0.36568(12)
H10 H 0.54270 0.64250 0.37400
C13 C 0.3834(2) 0.70307(15) 0.3414(1)
C14 C 0.4205(3) 0.81384(18) 0.32946(15)
H11 H 0.49680 0.82760 0.35540
H12 H 0.36640 0.86410 0.33850
H13 H 0.42190 0.82030 0.28690
C15 C 0.2684(2) 0.67485(15) 0.32932(10)
H14 H 0.21190 0.72470 0.31210
C16 C 0.23398(16) 0.57438(14) 0.34189(9)
H15 H 0.15520 0.55790 0.33380
C17 C 0.22451(13) 0.37820(12) 0.42596(7)
C18 C 0.23826(15) 0.46499(13) 0.47357(8)
C19 C 0.1358(2) 0.58995(18) 0.51737(12)
H16 H 0.15140 0.55430 0.55650
H17 H 0.06070 0.62300 0.50920
H18 H 0.19430 0.64290 0.51840
C20 C 0.16785(13) 0.28628(12) 0.43072(7)
C21 C 0.14178(15) 0.26224(13) 0.48964(8)
C22 C 0.0718(2) 0.13204(18) 0.54692(10)
H19 H 0.14320 0.13160 0.57880
H20 H 0.03920 0.06200 0.54210
H21 H 0.01780 0.18010 0.55810
C23 C -0.07196(15) 0.25080(14) 0.36130(8)
H22 H -0.04980 0.31970 0.37350
C24 C -0.18866(16) 0.22530(15) 0.34413(9)
H23 H -0.24520 0.27600 0.34470
C25 C -0.21901(16) 0.12260(15) 0.32613(8)
C26 C -0.13795(17) 0.04697(15) 0.32445(9)
H24 H -0.16090 -0.02160 0.31180
C27 C -0.02174(16) 0.07334(13) 0.34166(8)
H25 H 0.03410 0.02230 0.34050
C28 C 0.01270(14) 0.17578(12) 0.36068(7)
C29 C 0.14212(13) 0.20406(12) 0.37979(7)
H26 H 0.18450 0.13960 0.39650
C30 C 0.18655(14) 0.23825(12) 0.32258(7)
C31 C 0.10125(15) 0.30950(13) 0.28326(8)
C32 C 0.21126(14) 0.13513(13) 0.28732(8)
C33 C 0.21051(15) 0.13487(14) 0.21876(8)
C34 C 0.26670(18) 0.23300(15) 0.19873(9)
H27 H 0.26350 0.22800 0.15550
H28 H 0.34640 0.23760 0.22200
H29 H 0.22550 0.29510 0.20610
C35 C 0.2782(2) 0.03679(17) 0.2068(1)
H30 H 0.27720 0.03360 0.16380
H31 H 0.24260 -0.02590 0.21800
H32 H 0.35720 0.04130 0.23110
C36 C 0.08365(19) 0.1239(2) 0.18207(10)
H33 H 0.04180 0.18720 0.18670
H34 H 0.04900 0.06430 0.19720
H35 H 0.08050 0.11340 0.13920
N1 N 0.28048(11) 0.39474(10) 0.38062(6)
N2 N -0.34294(16) 0.09348(19) 0.30698(9)
N3 N 0.03465(15) 0.36630(14) 0.25460(8)
O1 O 0.32803(12) 0.48750(11) 0.50814(7)
O2 O 0.13750(11) 0.51407(9) 0.46932(6)
O3 O 0.16192(15) 0.31832(11) 0.53462(6)
O4 O 0.09447(12) 0.16550(9) 0.48990(5)
O5 O -0.36792(16) 0.00046(16) 0.29574(11)
O6 O -0.41429(14) 0.16373(17) 0.30327(8)
O7 O 0.23219(12) 0.05577(10) 0.31720(6)
#END
