
#######################################################################
#
#                 Cambridge Crystallographic Data Centre
#                                CCDC
#
#######################################################################
#
# If this CIF has been generated from an entry in the Cambridge
# Structural Database, then it will include bibliographic, chemical,
# crystal, experimental, refinement or atomic coordinate data resulting
# from the CCDC's data processing and validation procedures.
#
#######################################################################

data_CSD_CIF_RUKCUW
_audit_creation_date 2010-03-10
_audit_creation_method CSD-ConQuest-V1
_database_code_CSD RUKCUW
_database_code_depnum_ccdc_archive 'CCDC 630830'
_chemical_formula_sum 'C33 H51 N1 O4'
_chemical_formula_moiety
;
C33 H51 N1 O4
;
_journal_coden_Cambridge 364
_journal_volume 35
_journal_year 2009
_journal_page_first 129
_journal_name_full 'Bioorg.Khim.(Russ.)(Bioorg.Chem.) '
loop_
_publ_author_name
"O.B.Flekhter"
"N.I.Medvedeva"
"G.A.Tolstikov"
"O.V.Savinova"
"E.I.Boreko"
"F.M.Dolgushin"
_chemical_name_systematic
;
(E)-Methyl 3-(N-acetoxyimino)lup-20(29)-en-28-oate
;
_cell_volume   2895.244
_exptl_crystal_colour 'colorless'
_exptl_crystal_density_diffrn 1.206
_exptl_special_details
;
inhibits flu A virus reproduction in cell culture

;
_exptl_crystal_description 'plate'
_diffrn_ambient_temperature 100
_refine_special_details
;
One methylene group is disordered over two sites with occupancies 0.60:0.40.

;
#These two values have been output from a single CSD field.
_refine_ls_R_factor_gt 0.0568
_refine_ls_wR_factor_gt 0.0568
_symmetry_cell_setting monoclinic
_symmetry_space_group_name_H-M 'C 2'
_symmetry_Int_Tables_number 5
loop_
_symmetry_equiv_pos_site_id
_symmetry_equiv_pos_as_xyz
1 x,y,z
2 -x,y,-z
3 1/2+x,1/2+y,z
4 1/2-x,1/2+y,-z
_cell_length_a 28.139(5)
_cell_length_b 8.173(1)
_cell_length_c 13.435(2)
_cell_angle_alpha 90
_cell_angle_beta 110.440(3)
_cell_angle_gamma 90
_cell_formula_units_Z 4
loop_
_atom_type_symbol
_atom_type_radius_bond
C 0.68
H 0.23
N 0.68
O 0.68
loop_
_atom_site_label
_atom_site_type_symbol
_atom_site_fract_x
_atom_site_fract_y
_atom_site_fract_z
O1 O 0.60433(12) 1.1223(4) 0.3539(3)
O2 O 0.57076(14) 1.3288(5) 0.4082(3)
O3 O 0.9263(1) 0.0974(3) 0.2707(2)
O4 O 0.94886(10) 0.3486(4) 0.3328(2)
N1 N 0.60530(14) 0.9465(5) 0.3543(3)
C1 C 0.71021(17) 0.9289(5) 0.2471(4)
H1 H 0.73950 1.00040 0.26860
H2 H 0.69820 0.92150 0.17020
C2 C 0.6743(3) 1.0098(9) 0.2913(7)
H3 H 0.65550 1.09620 0.24140
H4 H 0.69410 1.06360 0.35920
C3? C 0.6559(5) 0.9815(18) 0.241(1)
H5? H 0.65660 1.09940 0.25820
H6? H 0.63240 0.96720 0.16700
C4 C 0.63576(15) 0.8921(5) 0.3112(3)
C5 C 0.63782(14) 0.7045(5) 0.3066(3)
C6 C 0.67993(13) 0.6494(5) 0.2624(3)
H7 H 0.66410 0.66050 0.18350
C7 C 0.69245(14) 0.4676(5) 0.2819(3)
H8 H 0.71150 0.44920 0.35840
H9 H 0.66060 0.40360 0.26210
C8 C 0.72394(14) 0.4098(5) 0.2169(3)
H10 H 0.70420 0.42580 0.14050
H11 H 0.73070 0.29120 0.22900
C9 C 0.77493(12) 0.5014(5) 0.2451(3)
C10 C 0.76436(13) 0.6890(4) 0.2366(3)
H12 H 0.74550 0.70840 0.15930
C11 C 0.72799(13) 0.7569(5) 0.2937(3)
C12 C 0.81358(14) 0.7877(5) 0.2611(3)
H13 H 0.80520 0.90560 0.25030
H14 H 0.83490 0.77160 0.33650
C13 C 0.84354(14) 0.7365(5) 0.1905(3)
H15 H 0.82430 0.76790 0.11610
H16 H 0.87630 0.79570 0.21330
C14 C 0.85361(12) 0.5526(5) 0.1957(3)
H17 H 0.87280 0.52600 0.27190
C15 C 0.80284(12) 0.4542(4) 0.1636(3)
C16 C 0.81401(13) 0.2670(5) 0.1659(3)
H18 H 0.83050 0.23260 0.24080
H19 H 0.78140 0.20780 0.13690
C17 C 0.84794(13) 0.2157(5) 0.1032(3)
H20 H 0.85480 0.09670 0.11150
H21 H 0.83060 0.23950 0.02680
C18 C 0.89775(13) 0.3106(5) 0.1455(3)
C19 C 0.88646(13) 0.4954(5) 0.1322(3)
H22 H 0.86570 0.51280 0.05560
C20 C 0.93774(13) 0.5792(5) 0.1509(3)
H23 H 0.95330 0.60680 0.22810
C21 C 0.93843(15) 0.7317(5) 0.0869(3)
C22 C 0.97067(15) 0.4412(6) 0.1247(4)
H24 H 0.98350 0.47820 0.06850
H25 H 1.00000 0.41270 0.18880
C23 C 0.93534(14) 0.2932(5) 0.0865(3)
H26 H 0.91760 0.29690 0.00860
H27 H 0.95450 0.18940 0.10540
C24 C 0.64535(15) 0.6352(6) 0.4181(3)
H28 H 0.61850 0.67670 0.44220
H29 H 0.67850 0.66960 0.46790
H30 H 0.64380 0.51550 0.41480
C25 C 0.58630(13) 0.6439(5) 0.2306(3)
H31 H 0.57910 0.69420 0.16060
H32 H 0.55970 0.67430 0.25860
H33 H 0.58720 0.52460 0.22390
C26 C 0.75436(16) 0.7757(6) 0.4145(3)
H34 H 0.75730 0.66820 0.44850
H35 H 0.73430 0.84860 0.44240
H36 H 0.78830 0.82210 0.42970
C27 C 0.80823(15) 0.4502(6) 0.3587(3)
H37 H 0.78740 0.44640 0.40390
H38 H 0.83560 0.52990 0.38770
H39 H 0.82280 0.34180 0.35680
C28 C 0.76921(13) 0.4944(5) 0.0485(3)
H40 H 0.78800 0.47230 0.00090
H41 H 0.75950 0.61010 0.04350
H42 H 0.73860 0.42630 0.02800
C29 C 0.92663(13) 0.2596(5) 0.2603(3)
C30 C 0.90151(17) 0.7796(7) -0.0005(4)
H43 H 0.90550 0.87570 -0.03660
H44 H 0.87110 0.71780 -0.02700
C31 C 0.98640(17) 0.8276(6) 0.1294(4)
H45 H 0.98580 0.91700 0.08030
H46 H 1.01530 0.75590 0.13670
H47 H 0.98960 0.87300 0.19890
C32 C 0.95462(18) 0.0344(6) 0.3764(4)
H48 H 0.95240 -0.08530 0.37580
H49 H 0.94020 0.07850 0.42750
H50 H 0.99020 0.06760 0.39680
C33 C 0.57615(16) 1.1842(6) 0.4107(4)
C34 C 0.55525(15) 1.0690(6) 0.4685(4)
H51 H 0.54480 1.12880 0.52060
H52 H 0.58120 0.98810 0.50520
H53 H 0.52580 1.01300 0.41820
#END
