
#######################################################################
#
#                 Cambridge Crystallographic Data Centre
#                                CCDC
#
#######################################################################
#
# If this CIF has been generated from an entry in the Cambridge
# Structural Database, then it will include bibliographic, chemical,
# crystal, experimental, refinement or atomic coordinate data resulting
# from the CCDC's data processing and validation procedures.
#
#######################################################################

data_CSD_CIF_RULFIN
_audit_creation_date 1998-03-04
_audit_creation_method CSD-ConQuest-V1
_database_code_CSD RULFIN
_database_code_depnum_ccdc_archive 'CCDC 1252655'
_chemical_formula_sum 'C18 H19 N1 O3'
_chemical_formula_moiety
;
C18 H19 N1 O3
;
_journal_coden_Cambridge 1088
_journal_year 1997
_journal_page_first 291
_journal_name_full 'Synlett '
loop_
_publ_author_name
"P.Bako"
"A.Szollosy"
"P.Bombicz"
"L.Toke"
_chemical_name_systematic
;
S-4-Methyl-4-nitro-1,3-diphenylpentanone
;
_cell_volume   1574.083
_exptl_crystal_density_diffrn 1.255
_exptl_special_details
;
Absolute configuration

;
_exptl_crystal_preparation 'toluene'
_diffrn_ambient_temperature ?
_diffrn_special_details
;
The study was carried out at room temperature,in the range 283-303K

;
#These two values have been output from a single CSD field.
_refine_ls_R_factor_gt 0.0436
_refine_ls_wR_factor_gt 0.0436
_symmetry_cell_setting orthorhombic
_symmetry_space_group_name_H-M 'P 21 21 21'
_symmetry_Int_Tables_number 19
loop_
_symmetry_equiv_pos_site_id
_symmetry_equiv_pos_as_xyz
1 x,y,z
2 1/2-x,-y,1/2+z
3 1/2+x,1/2-y,-z
4 -x,1/2+y,1/2-z
_cell_length_a 5.935(1)
_cell_length_b 14.539(1)
_cell_length_c 18.242(1)
_cell_angle_alpha 90
_cell_angle_beta 90
_cell_angle_gamma 90
_cell_formula_units_Z 4
loop_
_atom_type_symbol
_atom_type_radius_bond
C 0.68
H 0.23
N 0.68
O 0.68
loop_
_atom_site_label
_atom_site_type_symbol
_atom_site_fract_x
_atom_site_fract_y
_atom_site_fract_z
C1 C -0.2398(4) 1.0298(2) 0.7070(2)
C2 C 0.0165(4) 1.0297(2) 0.7059(1)
C3 C 0.1261(3) 0.9342(1) 0.7179(1)
C4 C 0.0700(3) 0.8646(1) 0.6574(1)
C5 C 0.2518(3) 0.7922(1) 0.6490(1)
C6 C 0.1120(4) 1.1009(2) 0.7585(1)
N1 N 0.0924(3) 1.0616(1) 0.6292(1)
O1 O -0.0459(4) 1.0839(2) 0.5841(1)
O2 O 0.2943(3) 1.0645(2) 0.6169(1)
C7 C 0.0764(3) 0.8953(1) 0.7935(1)
C8 C 0.2390(4) 0.9010(2) 0.8485(1)
C9 C 0.2006(5) 0.8654(2) 0.9177(1)
C10 C -0.0005(5) 0.8226(2) 0.9334(1)
C11 C -0.1622(5) 0.8150(2) 0.8799(2)
C12 C -0.1254(4) 0.8509(2) 0.8102(1)
O3 O 0.4332(3) 0.7999(1) 0.6792(1)
C13 C 0.2056(3) 0.7115(1) 0.6005(1)
C14 C 0.3696(4) 0.6437(1) 0.5943(1)
C15 C 0.3336(4) 0.5674(2) 0.5512(1)
C16 C 0.1320(4) 0.5575(2) 0.5137(1)
C17 C -0.0294(4) 0.6244(2) 0.5190(1)
C18 C 0.0050(4) 0.7014(1) 0.5622(1)
H1 H -0.2951(4) 0.9845(8) 0.6732(7)
H2 H -0.2941(4) 1.0895(4) 0.6929(9)
H3 H -0.2919(4) 1.0156(11) 0.7555(3)
H4 H 0.2894(3) 0.9439(1) 0.7158(1)
H5 H -0.0718(3) 0.8347(1) 0.6689(1)
H6 H 0.0517(3) 0.8970(1) 0.6113(1)
H7 H 0.2731(5) 1.1025(8) 0.7541(6)
H8 H 0.0717(23) 1.0849(6) 0.8079(2)
H9 H 0.0514(21) 1.1604(2) 0.7469(6)
H10 H 0.3761(4) 0.9292(2) 0.8384(1)
H11 H 0.3109(5) 0.8705(2) 0.9537(1)
H12 H -0.0268(5) 0.7989(2) 0.9800(1)
H13 H -0.2976(5) 0.7856(2) 0.8903(2)
H14 H -0.2364(4) 0.8453(2) 0.7745(1)
H15 H 0.5050(4) 0.6500(1) 0.6194(1)
H16 H 0.4445(4) 0.5225(2) 0.5473(1)
H17 H 0.1065(4) 0.5057(2) 0.4851(1)
H18 H -0.1638(4) 0.6180(2) 0.4933(1)
H19 H -0.1060(4) 0.7464(1) 0.5655(1)
#END
