
#######################################################################
#
#                 Cambridge Crystallographic Data Centre
#                                CCDC
#
#######################################################################
#
# If this CIF has been generated from an entry in the Cambridge
# Structural Database, then it will include bibliographic, chemical,
# crystal, experimental, refinement or atomic coordinate data resulting
# from the CCDC's data processing and validation procedures.
#
#######################################################################

data_CSD_CIF_RUPSEA
_audit_creation_date 1998-03-04
_audit_creation_method CSD-ConQuest-V1
_database_code_CSD RUPSEA
_database_code_depnum_ccdc_archive 'CCDC 185436'
_chemical_formula_sum 'C9 H8 N4 O2'
_chemical_formula_moiety
;
C9 H8 N4 O2
;
_journal_coden_Cambridge 16
_journal_volume 53
_journal_year 1997
_journal_page_first 10783
_journal_name_full 'Tetrahedron '
loop_
_publ_author_name
"J.Q.Puello"
"B.I.Obando"
"C.Foces-Foces"
"L.Infantes"
"R.M.Claramunt"
"P.Cabildo"
"J.A.Jimenez"
"J.Elguero"
_chemical_name_systematic
;
5-Amino-3-(4-nitrophenyl)pyrazole
;
_cell_volume    878.429
_exptl_crystal_colour 'deep red'
_exptl_crystal_density_diffrn 1.544
_exptl_crystal_description 'prism'
_exptl_crystal_preparation 'methanol/water/THF'
_diffrn_ambient_temperature 200
#These two values have been output from a single CSD field.
_refine_ls_R_factor_gt 0.041
_refine_ls_wR_factor_gt 0.041
_symmetry_cell_setting monoclinic
_symmetry_space_group_name_H-M 'P 21/n'
_symmetry_Int_Tables_number 14
loop_
_symmetry_equiv_pos_site_id
_symmetry_equiv_pos_as_xyz
1 x,y,z
2 1/2-x,1/2+y,1/2-z
3 -x,-y,-z
4 -1/2+x,-1/2-y,-1/2+z
_cell_length_a 6.3575(4)
_cell_length_b 12.0596(8)
_cell_length_c 11.4679(9)
_cell_angle_alpha 90
_cell_angle_beta 92.448(9)
_cell_angle_gamma 90
_cell_formula_units_Z 4
loop_
_atom_type_symbol
_atom_type_radius_bond
C 0.68
H 0.23
N 0.68
O 0.68
loop_
_atom_site_label
_atom_site_type_symbol
_atom_site_fract_x
_atom_site_fract_y
_atom_site_fract_z
N1 N 1.27320(27) 0.18211(14) 0.23835(15)
N2 N 1.11780(25) 0.24359(14) 0.28443(15)
C1 C 0.99226(29) 0.16880(17) 0.33098(17)
C2 C 1.06628(33) 0.05988(17) 0.31465(19)
C3 C 1.24822(33) 0.07222(17) 0.25457(18)
N3 N 1.39501(31) -0.00213(17) 0.21927(19)
C4 C 0.80447(30) 0.20367(16) 0.39134(18)
C5 C 0.72615(32) 0.31188(17) 0.37975(19)
C6 C 0.54868(33) 0.34437(18) 0.43563(19)
C7 C 0.44657(30) 0.26716(19) 0.50247(18)
C8 C 0.51996(34) 0.1601(2) 0.51677(19)
C9 C 0.69882(35) 0.12950(19) 0.46108(19)
N4 N 0.25467(28) 0.29966(17) 0.55836(16)
O1 O 0.15312(24) 0.22776(16) 0.60805(14)
O2 O 0.20103(29) 0.39716(16) 0.55303(17)
H1 H 1.3668(39) 0.2122(19) 0.2034(21)
H2 H 0.9990(37) -0.0139(21) 0.3377(20)
H3 H 1.4737(45) 0.0214(23) 0.1598(25)
H4 H 1.3641(44) -0.0826(28) 0.2176(24)
H5 H 0.7905(40) 0.3610(21) 0.3289(23)
H6 H 0.4926(38) 0.4183(23) 0.4249(21)
H7 H 0.4521(49) 0.1114(26) 0.5658(27)
H8 H 0.7557(39) 0.0570(23) 0.4735(21)
#END
