
#######################################################################
#
#                 Cambridge Crystallographic Data Centre
#                                CCDC
#
#######################################################################
#
# If this CIF has been generated from an entry in the Cambridge
# Structural Database, then it will include bibliographic, chemical,
# crystal, experimental, refinement or atomic coordinate data resulting
# from the CCDC's data processing and validation procedures.
#
#######################################################################

data_CSD_CIF_RUQCUC
_audit_creation_date 2010-03-26
_audit_creation_method CSD-ConQuest-V1
_database_code_CSD RUQCUC
_database_code_depnum_ccdc_archive 'CCDC 663044'
_chemical_formula_sum 'C15 H21 N1 O4'
_chemical_formula_moiety
;
C15 H21 N1 O4
;
_journal_coden_Cambridge 1037
_journal_volume 9
_journal_year 2008
_journal_page_first 18-8
_journal_name_full 'ARKIVOC '
loop_
_publ_author_name
"J.Rehak"
"L.Fisera"
"J.Kozisek"
"L.Perasinova"
"B.Steiner"
"M.Koos"
_chemical_name_systematic
;
(Z)-N-(1,2-Dideoxy-4,5-O-isopropylidene-3-hydroxy-D-xylo-1-ylidene)benzylamine
-N-oxide
;
_chemical_melting_point 383.15
_cell_volume   1509.252
_exptl_crystal_colour 'colorless'
_exptl_crystal_density_diffrn 1.234
_exptl_special_details
;
Melting point range 383.15-385.15K

;
_exptl_crystal_description 'block'
_exptl_crystal_preparation 'ethyl acetate/hexane'
_diffrn_ambient_temperature 293
#These two values have been output from a single CSD field.
_refine_ls_R_factor_gt 0.0487
_refine_ls_wR_factor_gt 0.0487
_symmetry_cell_setting orthorhombic
_symmetry_space_group_name_H-M 'P 21 21 21'
_symmetry_Int_Tables_number 19
loop_
_symmetry_equiv_pos_site_id
_symmetry_equiv_pos_as_xyz
1 x,y,z
2 1/2-x,-y,1/2+z
3 1/2+x,1/2-y,-z
4 -x,1/2+y,1/2-z
_cell_length_a 5.7423(1)
_cell_length_b 9.9890(3)
_cell_length_c 26.3120(6)
_cell_angle_alpha 90
_cell_angle_beta 90
_cell_angle_gamma 90
_cell_formula_units_Z 4
loop_
_atom_type_symbol
_atom_type_radius_bond
C 0.68
H 0.23
N 0.68
O 0.68
loop_
_atom_site_label
_atom_site_type_symbol
_atom_site_fract_x
_atom_site_fract_y
_atom_site_fract_z
O1 O 0.5038(3) 0.66606(18) 0.13048(7)
O2 O 0.9577(3) 0.82393(17) 0.28647(7)
O3 O 0.2651(3) 0.83874(17) 0.14827(7)
O4 O 0.2892(3) 0.52621(18) 0.25048(6)
H1 H 0.209(5) 0.449(3) 0.2312(11)
N1 N 0.8850(4) 0.7094(2) 0.30426(8)
C1 C 0.4221(5) 0.7907(3) 0.11095(10)
C2 C 0.7134(5) 0.6429(3) 0.28528(9)
H2 H 0.67270 0.56150 0.29990
C3 C 0.5799(5) 0.6912(3) 0.24130(9)
H3 H 0.68430 0.73460 0.21740
H4 H 0.46640 0.75680 0.25250
C4 C 0.3360(4) 0.6137(3) 0.16579(9)
H5 H 0.26320 0.53380 0.15110
C5 C 0.4554(4) 0.5759(2) 0.21499(8)
H6 H 0.56910 0.50520 0.20790
C6 C 1.0054(4) 0.7538(3) 0.39184(9)
C7 C 0.1566(5) 0.7233(3) 0.16977(11)
H7 H 0.01700 0.69990 0.15100
H8 H 0.11500 0.73930 0.20500
C8 C 1.0206(5) 0.6583(2) 0.34786(9)
H9 H 1.18210 0.64720 0.33800
H10 H 0.96060 0.57160 0.35800
C9 C 0.3016(6) 0.7696(3) 0.06074(11)
H11 H 0.24800 0.85410 0.04790
H12 H 0.17130 0.71070 0.06530
H13 H 0.40890 0.73060 0.03700
C10 C 0.6223(5) 0.8859(3) 0.10753(13)
H14 H 0.56910 0.96990 0.09410
H15 H 0.73940 0.84930 0.08550
H16 H 0.68700 0.89960 0.14080
C11 C 0.8249(5) 0.7472(3) 0.42534(12)
H17 H 0.71430 0.67990 0.42170
C12 C 1.1678(6) 0.8532(3) 0.39858(12)
H18 H 1.29310 0.85940 0.37630
C13 C 0.8027(6) 0.8368(4) 0.46400(13)
H19 H 0.67660 0.83120 0.48610
C14 C 1.1479(7) 0.9440(3) 0.43793(13)
H20 H 1.25920 1.01080 0.44210
C15 C 0.9656(7) 0.9352(4) 0.47032(12)
H21 H 0.95110 0.99610 0.49690
#END
