
#######################################################################
#
#                 Cambridge Crystallographic Data Centre
#                                CCDC
#
#######################################################################
#
# If this CIF has been generated from an entry in the Cambridge
# Structural Database, then it will include bibliographic, chemical,
# crystal, experimental, refinement or atomic coordinate data resulting
# from the CCDC's data processing and validation procedures.
#
#######################################################################

data_CSD_CIF_RUQWEG
_audit_creation_date 2010-03-26
_audit_creation_method CSD-ConQuest-V1
_database_code_CSD RUQWEG
_database_code_depnum_ccdc_archive 'CCDC 657495'
_chemical_formula_sum 'C15 H13 N3 O4'
_chemical_formula_moiety
;
C15 H13 N3 O4
;
_journal_coden_Cambridge 527
_journal_volume 19
_journal_year 2008
_journal_page_first 36-1
_journal_name_full 'Huaxue Yanjiu(Chin.)(Chem.Res.) '
loop_
_publ_author_name
"Zhu-yu Cai"
"Zun-xing Huang"
_chemical_name_systematic
;
2-Hydroxy-N'-(1-(4-nitrophenyl)ethylidene)benzohydrazide
;
_cell_volume   1386.264
_exptl_crystal_colour 'yellow'
_exptl_crystal_density_diffrn 1.434
_exptl_crystal_description 'prism'
_diffrn_ambient_temperature 293
#These two values have been output from a single CSD field.
_refine_ls_R_factor_gt 0.0581
_refine_ls_wR_factor_gt 0.0581
_symmetry_cell_setting monoclinic
_symmetry_space_group_name_H-M 'P 21/c'
_symmetry_Int_Tables_number 14
loop_
_symmetry_equiv_pos_site_id
_symmetry_equiv_pos_as_xyz
1 x,y,z
2 -x,1/2+y,1/2-z
3 -x,-y,-z
4 x,-1/2-y,-1/2+z
_cell_length_a 16.068(3)
_cell_length_b 11.838(2)
_cell_length_c 7.2901(15)
_cell_angle_alpha 90
_cell_angle_beta 91.39(3)
_cell_angle_gamma 90
_cell_formula_units_Z 4
loop_
_atom_type_symbol
_atom_type_radius_bond
C 0.68
H 0.23
N 0.68
O 0.68
loop_
_atom_site_label
_atom_site_type_symbol
_atom_site_fract_x
_atom_site_fract_y
_atom_site_fract_z
C1 C 0.03281(15) 0.7496(2) -0.0848(3)
C2 C 0.04361(15) 0.8647(2) -0.0837(3)
H1 H 0.00090 0.91240 -0.12370
C3 C 0.11885(14) 0.9083(2) -0.0224(3)
H2 H 0.12670 0.98620 -0.01950
C4 C 0.18305(13) 0.83703(18) 0.0349(3)
C5 C 0.17008(15) 0.72049(19) 0.0293(3)
H3 H 0.21290 0.67200 0.06540
C6 C 0.09472(15) 0.6765(2) -0.0290(3)
H4 H 0.08590 0.59880 -0.03050
C7 C 0.26466(14) 0.88336(18) 0.0975(3)
C8 C 0.26892(16) 0.9967(2) 0.1893(4)
H5 H 0.32580 1.01400 0.22160
H6 H 0.23650 0.99530 0.29810
H7 H 0.24720 1.05330 0.10680
C9 C 0.47099(13) 0.79513(17) 0.1053(3)
C10 C 0.55252(13) 0.84443(18) 0.1656(3)
C11 C 0.56294(13) 0.95112(18) 0.2468(3)
C12 C 0.64192(15) 0.9864(2) 0.3048(3)
H8 H 0.64900 1.05700 0.35910
C13 C 0.70976(15) 0.9166(2) 0.2815(3)
H9 H 0.76230 0.94030 0.32170
C14 C 0.70057(15) 0.8123(2) 0.1996(4)
H10 H 0.74660 0.76600 0.18350
C15 C 0.62260(14) 0.7774(2) 0.1420(3)
H11 H 0.61650 0.70720 0.08590
N1 N -0.04768(15) 0.7036(2) -0.1475(4)
N2 N 0.32694(11) 0.81911(15) 0.0679(3)
N3 N 0.40331(11) 0.86084(15) 0.1192(3)
H12 H 0.40800 0.92870 0.16010
O1 O -0.10006(15) 0.7700(2) -0.2050(5)
O2 O -0.05815(14) 0.6027(2) -0.1453(4)
O3 O 0.49584(9) 1.01803(13) 0.2689(2)
H13 H 0.50960 1.07430 0.32780
O4 O 0.46605(10) 0.69840(13) 0.0443(2)
#END
