
#######################################################################
#
#                 Cambridge Crystallographic Data Centre
#                                CCDC
#
#######################################################################
#
# If this CIF has been generated from an entry in the Cambridge
# Structural Database, then it will include bibliographic, chemical,
# crystal, experimental, refinement or atomic coordinate data resulting
# from the CCDC's data processing and validation procedures.
#
#######################################################################

data_CSD_CIF_RUTCUE
_audit_creation_date 1998-03-12
_audit_creation_method CSD-ConQuest-V1
_database_code_CSD RUTCUE
_database_code_depnum_ccdc_archive 'CCDC 114570'
_database_code_depnum_ccdc_journal 423/4
_chemical_formula_sum 'C8 H8 N6 O2'
_chemical_formula_moiety
;
C8 H8 N6 O2
;
_journal_coden_Cambridge 423
_journal_year 1997
_journal_page_first 170
_journal_name_full 'J.Chem.Res. '
loop_
_publ_author_name
"D.Donati"
"S.Fusi"
"F.Ponticelli"
_chemical_name_systematic
;
5-Methoxy-7-methyl-10H-isoxazolo(5,4-f)(1,2,3,4)tetrazolo(1,5-c) 
(1,3)diazepine
;
_chemical_melting_point 428.15
_cell_volume   4003.937
_exptl_crystal_colour 'white'
_exptl_crystal_density_diffrn 1.461
_exptl_special_details
;
Melting point range 428.15-429.15K

;
_exptl_crystal_preparation 'diethyl ether'
_diffrn_ambient_temperature ?
_diffrn_special_details
;
The study was carried out at room temperature,in the range 283-303K

;
#These two values have been output from a single CSD field.
_refine_ls_R_factor_gt 0.042
_refine_ls_wR_factor_gt 0.042
_symmetry_cell_setting orthorhombic
_symmetry_space_group_name_H-M 'F d d 2'
_symmetry_Int_Tables_number 43
loop_
_symmetry_equiv_pos_site_id
_symmetry_equiv_pos_as_xyz
1 x,y,z
2 -x,-y,z
3 1/4-x,1/4+y,1/4+z
4 3/4+x,3/4-y,1/4+z
5 x,1/2+y,1/2+z
6 -x,1/2-y,1/2+z
7 1/4-x,3/4+y,3/4+z
8 3/4+x,1/4-y,3/4+z
9 1/2+x,y,1/2+z
10 1/2-x,-y,1/2+z
11 3/4-x,1/4+y,3/4+z
12 1/4+x,3/4-y,3/4+z
13 1/2+x,1/2+y,z
14 1/2-x,1/2-y,z
15 3/4-x,3/4+y,1/4+z
16 1/4+x,1/4-y,1/4+z
_cell_length_a 17.244(3)
_cell_length_b 34.136(7)
_cell_length_c 6.802(1)
_cell_angle_alpha 90
_cell_angle_beta 90
_cell_angle_gamma 90
_cell_formula_units_Z 16
loop_
_atom_type_symbol
_atom_type_radius_bond
C 0.68
H 0.23
N 0.68
O 0.68
loop_
_atom_site_label
_atom_site_type_symbol
_atom_site_fract_x
_atom_site_fract_y
_atom_site_fract_z
O1 O 0.0439(1) 0.2324(1) 0.97290
N1 N 0.0814(1) 0.2689(1) 0.9379(6)
C1 C 0.1170(1) 0.2651(1) 0.7702(6)
C2 C 0.1047(1) 0.2273(1) 0.6871(5)
N2 N 0.1378(1) 0.2145(1) 0.5117(5)
C3 C 0.1127(1) 0.1862(1) 0.4124(5)
N3 N 0.0457(1) 0.1625(1) 0.4541(5)
N4 N 0.0073(1) 0.1443(1) 0.3037(5)
N5 N -0.0505(2) 0.1267(1) 0.3844(6)
N6 N -0.0523(1) 0.1327(1) 0.5820(5)
C4 C 0.0077(1) 0.1550(1) 0.6237(5)
C5 C 0.0290(2) 0.1678(1) 0.8250(5)
C6 C 0.0600(1) 0.2087(1) 0.8206(6)
O2 O 0.1441(1) 0.1735(1) 0.2464(4)
C7 C 0.2104(2) 0.1951(1) 0.1788(6)
C8 C 0.1633(2) 0.2975(1) 0.6834(8)
H1 H 0.0662(17) 0.1488(8) 0.8722(54)
H2 H -0.0170(19) 0.1646(9) 0.9092(59)
H3 H 0.2485(27) 0.1966(13) 0.2612(89)
H4 H 0.2280(22) 0.1850(11) 0.0734(85)
H5 H 0.1952(20) 0.2243(11) 0.1656(67)
H6 H 0.2172(22) 0.2886(10) 0.6460(64)
H7 H 0.1574(29) 0.3195(13) 0.765(10)
H8 H 0.1427(22) 0.3046(10) 0.5504(73)
#END
