
#######################################################################
#
#                 Cambridge Crystallographic Data Centre
#                                CCDC
#
#######################################################################
#
# If this CIF has been generated from an entry in the Cambridge
# Structural Database, then it will include bibliographic, chemical,
# crystal, experimental, refinement or atomic coordinate data resulting
# from the CCDC's data processing and validation procedures.
#
#######################################################################

data_CSD_CIF_RUTFET
_audit_creation_date 2015-11-27
_audit_creation_method CSD-ConQuest-V1
_database_code_CSD RUTFET
_database_code_depnum_ccdc_archive 'CCDC 1415557'
_chemical_formula_sum 'C18 H13 N3 O3'
_chemical_formula_moiety
;
C18 H13 N3 O3
;
_journal_coden_Cambridge 222
_journal_volume 45
_journal_year 2016
_journal_page_first 599
_journal_name_full 'Dalton Trans. '
loop_
_publ_author_name
"Abhijit Ghosh"
"S.Ta"
"M.Ghosh"
"S.Karmakar"
"A.Banik"
"Tushar Kanti Dangar"
"S.K.Mukhopadhyay"
"D.Das"
_chemical_name_systematic
;
1-((4-nitrobenzylidene)carbonohydrazonoyl)-2-naphthol
;
_cell_volume    757.868
_exptl_crystal_colour 'orange'
_exptl_crystal_density_diffrn 1.399
_exptl_crystal_description 'Rectangular'
_exptl_crystal_preparation 'methanol'
_diffrn_ambient_temperature 296
#These two values have been output from a single CSD field.
_refine_ls_R_factor_gt 0.0477
_refine_ls_wR_factor_gt 0.0477
_symmetry_cell_setting triclinic
_symmetry_space_group_name_H-M 'P -1'
_symmetry_Int_Tables_number 2
loop_
_symmetry_equiv_pos_site_id
_symmetry_equiv_pos_as_xyz
1 x,y,z
2 -x,-y,-z
_cell_length_a 7.2028(3)
_cell_length_b 7.9197(3)
_cell_length_c 14.7696(6)
_cell_angle_alpha 81.753(3)
_cell_angle_beta 84.845(2)
_cell_angle_gamma 65.428(2)
_cell_formula_units_Z 2
loop_
_atom_type_symbol
_atom_type_radius_bond
C 0.68
H 0.23
N 0.68
O 0.68
loop_
_atom_site_label
_atom_site_type_symbol
_atom_site_fract_x
_atom_site_fract_y
_atom_site_fract_z
O1 O 0.8613(2) 0.00836(17) 0.40921(8)
H1 H 0.84090 0.09920 0.43550
N1 N 0.7861(2) 0.34934(18) 0.42395(9)
N2 N 0.7516(2) 0.50629(19) 0.46776(9)
O2 O 0.6185(3) 1.1837(2) 0.74725(11)
N3 N 0.6513(2) 1.0248(2) 0.78332(12)
O3 O 0.6621(3) 0.9798(2) 0.86551(11)
C1 C 0.7556(2) 0.4710(2) 0.55468(11)
H2 H 0.77820 0.35080 0.58160
C2 C 0.8032(2) 0.2431(2) 0.27892(10)
C3 C 0.7761(2) 0.3849(2) 0.33635(11)
H3 H 0.75060 0.50560 0.30920
C4 C 0.6767(2) 0.8823(2) 0.72370(11)
C5 C 0.7256(2) 0.6152(2) 0.61308(10)
C6 C 0.7896(2) 0.2856(2) 0.18092(11)
C7 C 0.8384(3) 0.0619(2) 0.31856(11)
C8 C 0.6692(3) 0.9304(2) 0.63058(12)
H4 H 0.64750 1.05140 0.60540
C9 C 0.7074(3) 0.7053(2) 0.76375(11)
H5 H 0.71230 0.67600 0.82700
C10 C 0.6944(3) 0.7960(2) 0.57528(11)
H6 H 0.69060 0.82630 0.51210
C11 C 0.7306(3) 0.5718(2) 0.70733(11)
H7 H 0.74990 0.45160 0.73300
C12 C 0.8006(3) 0.1456(3) 0.12764(12)
C13 C 0.8305(3) -0.0333(3) 0.17249(14)
H8 H 0.83700 -0.12500 0.13790
C14 C 0.8500(3) -0.0757(3) 0.26448(13)
H9 H 0.87090 -0.19530 0.29190
C15 C 0.7658(3) 0.4608(3) 0.13325(11)
H10 H 0.75890 0.55530 0.16600
C16 C 0.7829(3) 0.1882(3) 0.03172(13)
H11 H 0.78650 0.09740 -0.00280
C17 C 0.7529(4) 0.4948(3) 0.04085(13)
H12 H 0.73850 0.61140 0.01150
C18 C 0.7610(4) 0.3572(4) -0.01089(14)
H13 H 0.75120 0.38210 -0.07420
#END
