
#######################################################################
#
#                 Cambridge Crystallographic Data Centre
#                                CCDC
#
#######################################################################
#
# If this CIF has been generated from an entry in the Cambridge
# Structural Database, then it will include bibliographic, chemical,
# crystal, experimental, refinement or atomic coordinate data resulting
# from the CCDC's data processing and validation procedures.
#
#######################################################################

data_CSD_CIF_RUTPED
_audit_creation_date 2015-11-28
_audit_creation_method CSD-ConQuest-V1
_database_code_CSD RUTPED
_database_code_depnum_ccdc_archive 'CCDC 1422829'
_chemical_formula_sum 'C29 H25 N5 O2'
_chemical_formula_moiety
;
C29 H25 N5 O2
;
_journal_coden_Cambridge 179
_journal_volume 55
_journal_year 2016
_journal_page_first 649
_journal_name_full 'Angew.Chem.,Int.Ed. '
loop_
_publ_author_name
"Weiguo Wang"
"Xianglong Peng"
"Fang Wei"
"Chen-Ho Tung"
"Zhenghu Xu"
_chemical_name_systematic
;
N,N-dibenzyl-1-(4-nitrobenzyl)-4-phenyl-1H-1,2,3-triazol-5-amine
;
_cell_volume   2482.598
_exptl_crystal_colour 'yellow'
_exptl_crystal_density_diffrn 1.272
_exptl_crystal_description 'block'
_diffrn_ambient_temperature 298
#These two values have been output from a single CSD field.
_refine_ls_R_factor_gt 0.0669
_refine_ls_wR_factor_gt 0.0669
_symmetry_cell_setting monoclinic
_symmetry_space_group_name_H-M 'P 21/c'
_symmetry_Int_Tables_number 14
loop_
_symmetry_equiv_pos_site_id
_symmetry_equiv_pos_as_xyz
1 x,y,z
2 -x,1/2+y,1/2-z
3 -x,-y,-z
4 x,-1/2-y,-1/2+z
_cell_length_a 14.187(14)
_cell_length_b 8.212(8)
_cell_length_c 21.47(2)
_cell_angle_alpha 90
_cell_angle_beta 97.017(9)
_cell_angle_gamma 90
_cell_formula_units_Z 4
loop_
_atom_type_symbol
_atom_type_radius_bond
C 0.68
H 0.23
N 0.68
O 0.68
loop_
_atom_site_label
_atom_site_type_symbol
_atom_site_fract_x
_atom_site_fract_y
_atom_site_fract_z
C1 C 0.6641(3) 0.7618(5) 0.66038(17)
H1 H 0.62090 0.74900 0.68930
C2 C 0.6583(3) 0.8941(5) 0.62123(17)
H2 H 0.61180 0.97240 0.62430
C3 C 0.7212(2) 0.9125(4) 0.57699(15)
H3 H 0.71630 1.00270 0.55060
C4 C 0.7909(2) 0.7976(4) 0.57194(13)
C5 C 0.7977(2) 0.6654(4) 0.61335(14)
H4 H 0.84540 0.58850 0.61170
C6 C 0.7341(3) 0.6484(5) 0.65651(16)
H5 H 0.73870 0.55900 0.68330
C7 C 0.6390(4) 1.3573(5) 0.5004(2)
H6 H 0.61680 1.43180 0.52780
C8 C 0.7339(4) 1.3327(5) 0.5013(2)
H7 H 0.77670 1.39270 0.52840
C9 C 0.7668(3) 1.2191(4) 0.46193(19)
H8 H 0.83190 1.20320 0.46280
C10 C 0.7045(2) 1.1282(4) 0.42099(15)
C11 C 0.6091(3) 1.1579(5) 0.4200(2)
H9 H 0.56590 1.09980 0.39240
C12 C 0.5760(3) 1.2720(6) 0.4590(2)
H10 H 0.51120 1.29130 0.45730
C13 C 0.5098(3) 0.5269(6) 0.2795(2)
H11 H 0.47310 0.47450 0.24660
C14 C 0.4675(3) 0.6293(6) 0.3169(2)
H12 H 0.40260 0.64890 0.30930
C15 C 0.5232(3) 0.7065(5) 0.3676(2)
H13 H 0.49460 0.77450 0.39440
C16 C 0.6199(3) 0.6808(5) 0.37721(18)
C17 C 0.6600(3) 0.5747(6) 0.33760(18)
H14 H 0.72500 0.55440 0.34380
C18 C 0.6036(4) 0.4993(6) 0.28903(19)
H15 H 0.63100 0.42850 0.26260
C19 C 0.6790(2) 0.7555(4) 0.43319(14)
H16 H 0.64010 0.83140 0.45350
H17 H 0.69950 0.67040 0.46310
C20 C 0.7411(2) 0.9960(4) 0.38228(14)
H18 H 0.69440 0.97540 0.34630
H19 H 0.79850 1.03430 0.36670
C21 C 0.8885(2) 0.4076(4) 0.27405(14)
C22 C 0.9241(2) 0.3933(4) 0.33646(14)
H20 H 0.93240 0.29150 0.35530
C23 C 0.9469(2) 0.5331(4) 0.37015(14)
H21 H 0.97110 0.52530 0.41230
C24 C 0.9347(2) 0.6850(4) 0.34275(13)
C25 C 0.9001(2) 0.6945(4) 0.27946(15)
H22 H 0.89250 0.79600 0.26020
C26 C 0.8768(2) 0.5562(4) 0.24477(14)
H23 H 0.85360 0.56310 0.20240
C27 C 0.9622(2) 0.8377(4) 0.37976(14)
H24 H 1.03070 0.85050 0.38380
H25 H 0.93390 0.93120 0.35700
C28 C 0.8425(2) 0.8347(4) 0.46033(13)
C29 C 0.8582(2) 0.8110(4) 0.52487(13)
N1 N 0.9529(2) 0.7941(3) 0.54160(13)
N2 N 0.9977(2) 0.8093(4) 0.49195(13)
N3 N 0.93148(17) 0.8336(3) 0.44226(11)
N4 N 0.76239(17) 0.8410(3) 0.41599(11)
N5 N 0.8611(2) 0.2599(4) 0.23801(13)
O1 O 0.8704(2) 0.1290(3) 0.26473(13)
O2 O 0.8319(2) 0.2727(3) 0.18222(12)
#END
