
#######################################################################
#
#                 Cambridge Crystallographic Data Centre
#                                CCDC
#
#######################################################################
#
# If this CIF has been generated from an entry in the Cambridge
# Structural Database, then it will include bibliographic, chemical,
# crystal, experimental, refinement or atomic coordinate data resulting
# from the CCDC's data processing and validation procedures.
#
#######################################################################

data_CSD_CIF_RUTQOO
_audit_creation_date 2015-11-28
_audit_creation_method CSD-ConQuest-V1
_database_code_CSD RUTQOO
_database_code_depnum_ccdc_archive 'CCDC 1437973'
_chemical_formula_sum 'C20 H16 N2 O4'
_chemical_formula_moiety
;
C20 H16 N2 O4
;
_journal_coeditor_code "su5239"
_journal_coden_Cambridge 1828
_journal_volume 71
_journal_year 2015
_journal_page_first o1000
_journal_name_full 'Acta Crystallogr.,Sect.E:Cryst.Commun. '
loop_
_publ_author_name
"N.Ghichi"
"M.A.Benaouida"
"A.Benboudiaf"
"H.Merazig"
_chemical_name_systematic
;
(E)-5-(benzyloxy)-2-((4-nitrophenyl)carbonoimidoyl)phenol
;
_chemical_name_common
;
(E)-5-(benzyloxy)-2-(((4-nitrophenyl)imino)methyl)phenol
;
_cell_volume   1695.723
_exptl_crystal_colour 'orange'
_exptl_crystal_density_diffrn 1.364
_exptl_crystal_description 'block'
_diffrn_ambient_temperature 293
#These two values have been output from a single CSD field.
_refine_ls_R_factor_gt 0.0485
_refine_ls_wR_factor_gt 0.0485
_symmetry_cell_setting monoclinic
_symmetry_space_group_name_H-M 'P 21/c'
_symmetry_Int_Tables_number 14
loop_
_symmetry_equiv_pos_site_id
_symmetry_equiv_pos_as_xyz
1 x,y,z
2 -x,1/2+y,1/2-z
3 -x,-y,-z
4 x,-1/2-y,-1/2+z
_cell_length_a 15.3407(5)
_cell_length_b 9.5618(3)
_cell_length_c 11.7616(4)
_cell_angle_alpha 90
_cell_angle_beta 100.615(1)
_cell_angle_gamma 90
_cell_formula_units_Z 4
loop_
_atom_type_symbol
_atom_type_radius_bond
C 0.68
H 0.23
N 0.68
O 0.68
loop_
_atom_site_label
_atom_site_type_symbol
_atom_site_fract_x
_atom_site_fract_y
_atom_site_fract_z
O1 O 0.47868(9) 0.50409(16) 0.17069(12)
O2 O 0.75000(8) 0.39891(15) 0.06771(11)
O3 O 0.11551(13) 0.4282(3) 0.61135(19)
O4 O 0.20529(14) 0.3185(2) 0.74236(18)
N1 N 0.4417(1) 0.40083(16) 0.36061(13)
N2 N 0.18708(14) 0.3734(2) 0.6477(2)
C1 C 0.25402(13) 0.3766(2) 0.57425(18)
C2 C 0.33415(15) 0.3141(2) 0.61163(18)
C3 C 0.39794(14) 0.3190(2) 0.54255(17)
C4 C 0.38141(12) 0.38758(18) 0.43716(15)
C5 C 0.29945(14) 0.4494(3) 0.40209(19)
C6 C 0.23565(14) 0.4436(3) 0.4701(2)
C7 C 0.51738(12) 0.33921(19) 0.37785(16)
C8 C 0.57800(11) 0.35446(18) 0.29908(14)
C9 C 0.66038(12) 0.2898(2) 0.32123(15)
C10 C 0.72109(12) 0.3028(2) 0.24852(15)
C11 C 0.69764(11) 0.38241(19) 0.14824(14)
C12 C 0.61596(12) 0.4477(2) 0.12285(15)
C13 C 0.55691(11) 0.43658(19) 0.19724(14)
C14 C 0.83798(13) 0.3485(3) 0.09251(18)
C15 C 0.88052(12) 0.3718(2) -0.01124(17)
C16 C 0.93985(15) 0.2759(3) -0.0378(2)
C17 C 0.98237(16) 0.2974(4) -0.1306(3)
C18 C 0.96510(16) 0.4138(4) -0.1971(2)
C19 C 0.90594(17) 0.5082(3) -0.1720(2)
C20 C 0.86397(15) 0.4885(3) -0.0794(2)
H1 H 0.44953 0.48980 0.22138
H2 H 0.34574 0.26878 0.68277
H3 H 0.45245 0.27576 0.56716
H4 H 0.28726 0.49561 0.33137
H5 H 0.18052 0.48488 0.44544
H6 H 0.5357(12) 0.276(2) 0.4452(17)
H7 H 0.67529 0.23560 0.38762
H8 H 0.77623 0.25960 0.26603
H9 H 0.60088 0.49934 0.05509
H10 H 0.83806 0.24960 0.11074
H11 H 0.87111 0.39755 0.15887
H12 H 0.95179 0.19552 0.00689
H13 H 1.02292 0.23183 -0.14745
H14 H 0.99370 0.42830 -0.25926
H15 H 0.89342 0.58753 -0.21781
H16 H 0.82390 0.55508 -0.06297
#END
