
#######################################################################
#
#                 Cambridge Crystallographic Data Centre
#                                CCDC
#
#######################################################################
#
# If this CIF has been generated from an entry in the Cambridge
# Structural Database, then it will include bibliographic, chemical,
# crystal, experimental, refinement or atomic coordinate data resulting
# from the CCDC's data processing and validation procedures.
#
#######################################################################

data_CSD_CIF_RUTZAH
_audit_creation_date 1998-03-12
_audit_creation_method CSD-ConQuest-V1
_database_code_CSD RUTZAH
_chemical_formula_sum 'C25 H26 N2 O6'
_chemical_formula_moiety
;
C25 H26 N2 O6
;
_journal_coden_Cambridge 24
_journal_volume 38
_journal_year 1997
_journal_page_first 8921
_journal_name_full 'Tetrahedron Lett. '
loop_
_publ_author_name
"E.J.Corey"
"B.E.Roberts"
_chemical_name_systematic
;
(2S,3S,6R,7S,8R)-6,8-Dimethyl-3-(3,5-dinitrobenzoyl)-2-phenylbicyclo(5.3.0)dec
-10-ene
;
_cell_volume   2233.233
_exptl_crystal_colour 'colorless'
_exptl_crystal_density_diffrn 1.34
_exptl_crystal_description 'plate'
_exptl_crystal_preparation 'dichloromethane/pentane'
_diffrn_ambient_temperature ?
_diffrn_special_details
;
The study was carried out at room temperature,in the range 283-303K

;
#These two values have been output from a single CSD field.
_refine_ls_R_factor_gt 0.0612
_refine_ls_wR_factor_gt 0.0612
_symmetry_cell_setting orthorhombic
_symmetry_space_group_name_H-M 'P 21 21 21'
_symmetry_Int_Tables_number 19
loop_
_symmetry_equiv_pos_site_id
_symmetry_equiv_pos_as_xyz
1 x,y,z
2 1/2-x,-y,1/2+z
3 -x,1/2+y,1/2-z
4 1/2+x,1/2-y,-z
_cell_length_a 7.1294(14)
_cell_length_b 12.058(2)
_cell_length_c 25.978(5)
_cell_angle_alpha 90
_cell_angle_beta 90
_cell_angle_gamma 90
_cell_formula_units_Z 4
loop_
_atom_type_symbol
_atom_type_radius_bond
C 0.68
H 0.23
N 0.68
O 0.68
loop_
_atom_site_label
_atom_site_type_symbol
_atom_site_fract_x
_atom_site_fract_y
_atom_site_fract_z
O1 O -0.6273(6) -0.5162(3) -0.07679(12)
O2 O -0.6903(10) -0.3379(3) -0.09413(15)
O3 O -0.6749(8) -0.1407(3) 0.1301(2)
O4 O -0.6836(7) -0.0790(3) 0.0520(2)
O5 O -0.5710(9) -0.5301(4) 0.16022(14)
O6 O -0.5295(7) -0.6417(3) 0.0964(2)
N1 N -0.5585(8) -0.5503(4) 0.1140(2)
N2 N -0.6694(8) -0.1533(4) 0.0835(2)
C1 C -0.3664(11) -0.5927(5) -0.3115(2)
H1 H -0.4279(11) -0.5258(5) -0.3224(2)
H2 H -0.3079(11) -0.6274(5) -0.3407(2)
H3 H -0.2728(11) -0.5752(5) -0.2862(2)
C2 C -0.8720(9) -0.7633(5) -0.2351(2)
H4 H -0.8077(9) -0.8031(5) -0.2618(2)
H5 H -1.0050(9) -0.7697(5) -0.2401(2)
H6 H -0.8388(9) -0.7939(5) -0.2022(2)
C3 C -0.6507(10) -0.4110(5) -0.0647(2)
C4 C -0.5092(10) -0.6711(5) -0.2884(2)
H7 H -0.6063(10) -0.6877(5) -0.3140(2)
C5 C -0.4168(10) -0.7796(5) -0.2705(2)
H8 H -0.4958(10) -0.8430(5) -0.2780(2)
H9 H -0.2956(10) -0.7901(5) -0.2867(2)
C6 C -0.3963(10) -0.7628(5) -0.2132(2)
C7 C -0.4927(9) -0.6768(4) -0.1961(2)
C8 C -0.6021(9) -0.6214(4) -0.2393(2)
H10 H -0.5773(9) -0.5414(4) -0.2384(2)
C9 C -0.8150(9) -0.6402(5) -0.2369(2)
H11 H -0.8641(9) -0.6119(5) -0.2697(2)
C10 C -0.9136(10) -0.5730(5) -0.1951(2)
H12 H -1.0466(10) -0.5897(5) -0.1966(2)
H13 H -0.8991(10) -0.4949(5) -0.2032(2)
C11 C -0.8462(9) -0.5916(5) -0.1395(2)
H14 H -0.9303(9) -0.5536(5) -0.1161(2)
H15 H -0.8513(9) -0.6702(5) -0.1317(2)
C12 C -0.6489(9) -0.5501(4) -0.1310(2)
H16 H -0.6286(9) -0.4851(4) -0.1530(2)
C13 C -0.4893(9) -0.6333(4) -0.1407(2)
H17 H -0.3725(9) -0.5911(4) -0.1373(2)
C14 C -0.4812(9) -0.7238(4) -0.0996(2)
C15 C -0.3793(9) -0.7062(5) -0.0548(2)
H18 H -0.3108(9) -0.6409(5) -0.0515(2)
C16 C -0.3762(9) -0.7827(4) -0.0148(2)
H19 H -0.3079(9) -0.7684(4) 0.0149(2)
C17 C -0.4755(9) -0.8799(5) -0.0198(2)
H20 H -0.4761(9) -0.9310(5) 0.0069(2)
C18 C -0.5746(9) -0.9020(5) -0.0646(2)
H21 H -0.6390(9) -0.9686(5) -0.0682(2)
C19 C -0.5772(8) -0.8239(4) -0.1041(2)
H22 H -0.6443(8) -0.8389(4) -0.1340(2)
C20 C -0.6294(9) -0.3920(4) -0.0078(2)
C21 C -0.6533(8) -0.2853(4) 0.0114(2)
H23 H -0.6776(8) -0.2266(4) -0.0109(2)
C22 C -0.6405(9) -0.2670(4) 0.0639(2)
C23 C -0.6073(9) -0.3518(4) 0.0979(2)
H24 H -0.5990(9) -0.3388(4) 0.1331(2)
C24 C -0.5867(8) -0.4566(4) 0.0780(2)
C25 C -0.5918(9) -0.4789(4) 0.0258(2)
H25 H -0.5705(9) -0.5502(4) 0.0134(2)
H26 H -0.3324(82) -0.8105(47) -0.1932(21)
#END
