
#######################################################################
#
#                 Cambridge Crystallographic Data Centre
#                                CCDC
#
#######################################################################
#
# If this CIF has been generated from an entry in the Cambridge
# Structural Database, then it will include bibliographic, chemical,
# crystal, experimental, refinement or atomic coordinate data resulting
# from the CCDC's data processing and validation procedures.
#
#######################################################################

data_CSD_CIF_RUVSAC
_audit_creation_date 1998-03-12
_audit_creation_method CSD-ConQuest-V1
_database_code_CSD RUVSAC
_database_code_depnum_ccdc_archive 'CCDC 129467'
_chemical_formula_sum 'C8 H9 N1 O4'
_chemical_formula_moiety
;
C8 H9 N1 O4
;
_journal_coeditor_code "IUCr MU1333"
_journal_coden_Cambridge 591
_journal_volume 53
_journal_year 1997
_journal_page_first 1859
_journal_name_full 'Acta Crystallogr.,Sect.C:Cryst.Struct.Commun. '
loop_
_publ_author_name
"Hoong-Kun Fun"
"K.Chinnakali"
"K.Sivakumar"
"Teng-Wah Sam"
"Siew-Eng How"
_chemical_name_systematic
;
1,2-Dimethoxy-4-nitrobenzene
;
_chemical_melting_point 370.65
_cell_volume    877.323
_exptl_crystal_colour 'light yellow'
_exptl_crystal_density_diffrn 1.387
_exptl_crystal_description 'rectangular'
_exptl_crystal_preparation 'chloroform-tetrachloromethane'
_diffrn_ambient_temperature ?
_diffrn_special_details
;
The study was carried out at room temperature,in the range 283-303K

;
#These two values have been output from a single CSD field.
_refine_ls_R_factor_gt 0.0454
_refine_ls_wR_factor_gt 0.0454
_symmetry_cell_setting monoclinic
_symmetry_space_group_name_H-M 'P 21/c'
_symmetry_Int_Tables_number 14
loop_
_symmetry_equiv_pos_site_id
_symmetry_equiv_pos_as_xyz
1 x,y,z
2 -x,1/2+y,1/2-z
3 -x,-y,-z
4 x,-1/2-y,-1/2+z
_cell_length_a 10.381(1)
_cell_length_b 12.556(1)
_cell_length_c 6.883(1)
_cell_angle_alpha 90
_cell_angle_beta 102.07(1)
_cell_angle_gamma 90
_cell_formula_units_Z 4
loop_
_atom_type_symbol
_atom_type_radius_bond
C 0.68
H 0.23
N 0.68
O 0.68
loop_
_atom_site_label
_atom_site_type_symbol
_atom_site_fract_x
_atom_site_fract_y
_atom_site_fract_z
O1 O 0.6687(2) 0.27362(15) 0.4417(3)
O2 O 0.6309(2) 0.43678(12) 0.3611(3)
O3 O 0.14689(13) 0.4496(1) 0.0660(2)
O4 O 0.07211(13) 0.25472(11) 0.0352(2)
N1 N 0.5957(2) 0.34427(14) 0.3631(3)
C1 C 0.4585(2) 0.31811(14) 0.2752(3)
C2 C 0.3717(2) 0.40058(15) 0.2124(3)
C3 C 0.2420(2) 0.37692(13) 0.1324(3)
C4 C 0.2012(2) 0.26923(14) 0.1152(3)
C5 C 0.2912(2) 0.18927(14) 0.1767(3)
C6 C 0.4211(2) 0.21305(15) 0.2582(3)
C7 C 0.1855(3) 0.5590(2) 0.0702(5)
C8 C 0.0225(3) 0.1481(2) 0.0215(5)
H1 H 0.3997(16) 0.4699(18) 0.2301(24)
H2 H 0.2630(17) 0.1158(16) 0.1592(27)
H3 H 0.4820(22) 0.1601(18) 0.3062(33)
H4 H 0.1011(23) 0.5946(19) 0.0136(32)
H5 H 0.2238(25) 0.5830(18) 0.2089(40)
H6 H 0.2504(24) 0.5679(16) -0.0076(33)
H7 H -0.0695(30) 0.1581(23) -0.0240(42)
H8 H 0.0645(25) 0.1098(21) -0.0777(39)
H9 H 0.0390(26) 0.1132(23) 0.1575(46)
#END
