
#######################################################################
#
#                 Cambridge Crystallographic Data Centre
#                                CCDC
#
#######################################################################
#
# If this CIF has been generated from an entry in the Cambridge
# Structural Database, then it will include bibliographic, chemical,
# crystal, experimental, refinement or atomic coordinate data resulting
# from the CCDC's data processing and validation procedures.
#
#######################################################################

data_CSD_CIF_RUWJEY
_audit_creation_date 1998-03-12
_audit_creation_method CSD-ConQuest-V1
_database_code_CSD RUWJEY
_database_code_depnum_ccdc_archive 'CCDC 129463'
_chemical_formula_sum 'C31 H28 N4 O4'
_chemical_formula_moiety
;
C31 H28 N4 O4
;
_journal_coeditor_code "IUCr LN1017"
_journal_coden_Cambridge 591
_journal_volume 53
_journal_year 1997
_journal_page_first 1973
_journal_name_full 'Acta Crystallogr.,Sect.C:Cryst.Struct.Commun. '
loop_
_publ_author_name
"P.Mamos"
"D.Papaioannou"
"C.Kavounis"
"V.Nastopoulos"
_chemical_name_systematic
;
(S)-3-(O^\g^-Methyl-N^\a^-triphenylmethylglutamyl)benzotriazole 1-oxide
;
_chemical_melting_point 419.15
_cell_volume   2650.707
_exptl_crystal_colour 'colorless'
_exptl_crystal_density_diffrn 1.304
_exptl_special_details
;
Melting point range 419.15-421.15K

;
_exptl_crystal_description 'prism'
_exptl_crystal_preparation 'ethyl acetate'
_diffrn_ambient_temperature ?
_diffrn_special_details
;
The study was carried out at room temperature,in the range 283-303K

;
#These two values have been output from a single CSD field.
_refine_ls_R_factor_gt 0.046
_refine_ls_wR_factor_gt 0.046
_symmetry_cell_setting orthorhombic
_symmetry_space_group_name_H-M 'P 21 21 21'
_symmetry_Int_Tables_number 19
loop_
_symmetry_equiv_pos_site_id
_symmetry_equiv_pos_as_xyz
1 x,y,z
2 1/2-x,-y,1/2+z
3 1/2+x,1/2-y,-z
4 -x,1/2+y,1/2-z
_cell_length_a 9.031(1)
_cell_length_b 14.262(2)
_cell_length_c 20.580(2)
_cell_angle_alpha 90
_cell_angle_beta 90
_cell_angle_gamma 90
_cell_formula_units_Z 4
loop_
_atom_type_symbol
_atom_type_radius_bond
C 0.68
H 0.23
N 0.68
O 0.68
loop_
_atom_site_label
_atom_site_type_symbol
_atom_site_fract_x
_atom_site_fract_y
_atom_site_fract_z
O1 O 0.1854(2) 0.6761(2) 0.39994(10)
N1 N 0.3020(2) 0.6497(2) 0.37147(10)
N2 N 0.4315(3) 0.6492(2) 0.4000(1)
N3 N 0.5291(2) 0.6182(2) 0.35359(10)
C1 C 0.4584(3) 0.5990(2) 0.29564(12)
C2 C 0.5042(3) 0.5654(2) 0.23519(13)
H1 H 0.60270 0.55140 0.22644
C3 C 0.3956(4) 0.5542(3) 0.1897(2)
H2 H 0.42180 0.53320 0.14850
C4 C 0.2460(4) 0.5732(3) 0.2026(2)
H3 H 0.17620 0.56300 0.17010
C5 C 0.2001(4) 0.6063(3) 0.26141(15)
H4 H 0.10130 0.61950 0.27023
C6 C 0.3107(3) 0.6189(2) 0.30698(12)
C7 C 0.6832(3) 0.6128(2) 0.36681(12)
O2 O 0.7654(2) 0.59125(15) 0.32350(9)
C8 C 0.7327(3) 0.6411(2) 0.43498(12)
H5 H 0.65340 0.62490 0.46548
N4 N 0.8663(2) 0.59272(15) 0.45522(10)
H6 H 0.927(4) 0.595(2) 0.4268(16)
C9 C 0.7533(4) 0.7482(2) 0.43606(13)
H7 H 0.65690 0.77740 0.43150
H8 H 0.79250 0.76600 0.47817
C10 C 0.8551(4) 0.7871(2) 0.3837(2)
H9 H 0.89680 0.84600 0.39840
H10 H 0.93620 0.74360 0.37660
C11 C 0.7740(4) 0.8028(2) 0.3198(2)
O3 O 0.6439(3) 0.8058(2) 0.31229(13)
O4 O 0.8705(3) 0.8104(3) 0.27095(14)
C12 C 0.8021(2) 0.8280(1) 0.20921(6)
H11 H 0.87700 0.83267 0.17629
H12 H 0.74740 0.88567 0.21122
H13 H 0.73600 0.77746 0.19882
C13 C 0.8497(2) 0.4971(1) 0.48232(6)
C14 C 1.0050(2) 0.45777(10) 0.49771(6)
C15 C 1.0246(2) 0.3632(1) 0.51003(6)
H14 H 0.94400 0.32284 0.50713
C16 C 1.1625(3) 0.3276(2) 0.5266(2)
H15 H 1.17350 0.26390 0.53520
C17 C 1.2831(3) 0.3865(2) 0.53039(15)
H16 H 1.37600 0.36270 0.54072
C18 C 1.2651(3) 0.4802(2) 0.51880(15)
H17 H 1.34630 0.52010 0.52135
C19 C 1.1265(3) 0.5165(2) 0.50325(13)
H18 H 1.11550 0.58060 0.49652
C20 C 0.7676(3) 0.4343(2) 0.43335(13)
C21 C 0.6133(3) 0.4279(2) 0.43237(14)
H19 H 0.55830 0.45560 0.46542
C22 C 0.5413(4) 0.3808(2) 0.3828(2)
H20 H 0.43850 0.37690 0.38320
C23 C 0.6178(4) 0.3403(3) 0.3335(2)
H21 H 0.56820 0.30940 0.30020
C24 C 0.7715(5) 0.3455(3) 0.3334(2)
H22 H 0.82560 0.31780 0.30010
C25 C 0.8438(3) 0.3922(2) 0.38311(14)
H23 H 0.94670 0.39520 0.38264
C26 C 0.7706(3) 0.5044(2) 0.54913(12)
C27 C 0.7034(3) 0.4272(2) 0.57693(14)
H24 H 0.69970 0.37090 0.55419
C28 C 0.6412(3) 0.4330(2) 0.63875(14)
H25 H 0.59630 0.38060 0.65707
C29 C 0.6458(3) 0.5162(3) 0.67285(14)
H26 H 0.60290 0.52030 0.71383
C30 C 0.7135(4) 0.5919(2) 0.64621(14)
H27 H 0.71800 0.64780 0.66944
C31 C 0.7761(3) 0.5870(2) 0.58449(13)
H28 H 0.82210 0.63950 0.56687
#END
