
#######################################################################
#
#                 Cambridge Crystallographic Data Centre
#                                CCDC
#
#######################################################################
#
# If this CIF has been generated from an entry in the Cambridge
# Structural Database, then it will include bibliographic, chemical,
# crystal, experimental, refinement or atomic coordinate data resulting
# from the CCDC's data processing and validation procedures.
#
#######################################################################

data_CSD_CIF_RUZXIU
_audit_creation_date 2011-02-15
_audit_creation_method CSD-ConQuest-V1
_database_code_CSD RUZXIU
_database_code_depnum_ccdc_archive 'CCDC 750069'
_chemical_formula_sum 'C25 H21 N1 O5'
_chemical_formula_moiety
;
C25 H21 N1 O5
;
_journal_coden_Cambridge 119
_journal_volume 980
_journal_year 2010
_journal_page_first 245
_journal_name_full 'J.Mol.Struct. '
loop_
_publ_author_name
"M.Thoss"
"R.W.Seidel"
"I.M.Oppel"
"M.Feigel"
_chemical_name_systematic
;
2'-Hydroxy-6'-nitro-1,1'-binaphthalen-2-yl pivalate
;
_cell_volume   2047.126
_exptl_crystal_colour 'yellow'
_exptl_crystal_density_diffrn 1.348
_exptl_crystal_description 'prism'
_diffrn_ambient_temperature 110
#These two values have been output from a single CSD field.
_refine_ls_R_factor_gt 0.0351
_refine_ls_wR_factor_gt 0.0351
_symmetry_cell_setting monoclinic
_symmetry_space_group_name_H-M 'P 21/n'
_symmetry_Int_Tables_number 14
loop_
_symmetry_equiv_pos_site_id
_symmetry_equiv_pos_as_xyz
1 x,y,z
2 1/2-x,1/2+y,1/2-z
3 -x,-y,-z
4 -1/2+x,-1/2-y,-1/2+z
_cell_length_a 11.8749(1)
_cell_length_b 12.8337(1)
_cell_length_c 13.4379(1)
_cell_angle_alpha 90
_cell_angle_beta 91.597(1)
_cell_angle_gamma 90
_cell_formula_units_Z 4
loop_
_atom_type_symbol
_atom_type_radius_bond
C 0.68
H 0.23
N 0.68
O 0.68
loop_
_atom_site_label
_atom_site_type_symbol
_atom_site_fract_x
_atom_site_fract_y
_atom_site_fract_z
O1 O 0.33214(8) 0.82205(7) 0.71464(7)
H1 H 0.34360 0.75940 0.72970
O2 O 0.13283(7) 0.97865(7) 0.67636(6)
O3 O 0.10541(8) 1.12128(7) 0.76935(7)
N1 N 0.3844(1) 1.2436(1) 1.12817(9)
O4 O 0.37319(10) 1.20423(10) 1.21044(8)
O5 O 0.40524(10) 1.33656(9) 1.11525(8)
C1 C 0.34045(10) 0.98842(10) 0.78507(10)
C2 C 0.34047(11) 0.88143(10) 0.79759(10)
C3 C 0.34618(11) 0.83596(11) 0.89328(10)
H2 H 0.34610 0.76230 0.90000
C4 C 0.35184(11) 0.89712(11) 0.97593(10)
H3 H 0.35360 0.86570 1.04000
C5 C 0.36401(11) 1.07210(11) 1.05205(10)
H4 H 0.36450 1.04280 1.11700
C6 C 0.37180(11) 1.17737(11) 1.03994(10)
C7 C 0.37031(11) 1.22487(11) 0.94556(10)
H5 H 0.37710 1.29830 0.93920
C8 C 0.35886(11) 1.16308(10) 0.86334(10)
H6 H 0.35600 1.19460 0.79940
C9 C 0.35105(10) 1.05316(10) 0.87061(10)
C10 C 0.35515(10) 1.00709(11) 0.9675(1)
C11 C 0.32737(11) 1.03228(10) 0.68240(9)
C12 C 0.22557(11) 1.02751(10) 0.63218(9)
C13 C 0.20780(12) 1.06401(10) 0.53478(10)
H7 H 0.13550 1.05910 0.50310
C14 C 0.29607(12) 1.10681(10) 0.48583(10)
H8 H 0.28470 1.13220 0.41990
C15 C 0.49765(12) 1.15383(11) 0.48143(10)
H9 H 0.48760 1.17870 0.41520
C16 C 0.60212(12) 1.15713(11) 0.52673(11)
H10 H 0.66420 1.18380 0.49170
C17 C 0.61811(12) 1.12117(11) 0.62509(11)
H11 H 0.69090 1.12430 0.65620
C18 C 0.52961(11) 1.08174(11) 0.6762(1)
H12 H 0.54170 1.05770 0.74250
C19 C 0.42042(11) 1.07635(10) 0.63169(10)
C20 C 0.40411(12) 1.11363(10) 0.53244(10)
C21 C 0.07922(11) 1.03342(10) 0.74746(9)
C22 C -0.01052(11) 0.96944(10) 0.79729(9)
C23 C -0.07727(13) 1.04103(12) 0.86411(11)
H13 H -0.02590 1.07460 0.91260
H14 H -0.13340 1.00010 0.89930
H15 H -0.11550 1.09440 0.82340
C24 C 0.05138(12) 0.88585(11) 0.85946(11)
H16 H 0.09250 0.83950 0.81530
H17 H -0.00340 0.84520 0.89640
H18 H 0.10460 0.91940 0.90640
C25 C -0.08923(12) 0.91762(12) 0.71975(10)
H19 H -0.12730 0.97140 0.67950
H20 H -0.14550 0.87570 0.75360
H21 H -0.04520 0.87260 0.67650
#END
