
#######################################################################
#
#                 Cambridge Crystallographic Data Centre
#                                CCDC
#
#######################################################################
#
# If this CIF has been generated from an entry in the Cambridge
# Structural Database, then it will include bibliographic, chemical,
# crystal, experimental, refinement or atomic coordinate data resulting
# from the CCDC's data processing and validation procedures.
#
#######################################################################

data_CSD_CIF_RUZZET
_audit_creation_date 2015-12-04
_audit_creation_method CSD-ConQuest-V1
_database_code_CSD RUZZET
_database_code_depnum_ccdc_archive 'CCDC 1429846'
_chemical_formula_sum 'C12 H12 N2 O1'
_chemical_formula_moiety
;
C12 H12 N2 O1
;
_journal_coden_Cambridge 119
_journal_volume 1107
_journal_year 2016
_journal_page_first 337
_journal_name_full 'J.Mol.Struct. '
loop_
_publ_author_name
"E.Conterosito"
"C.Magistris"
"C.Barolo"
"G.Croce"
"M.Milanesio"
_chemical_name_systematic
;
4-methyl-2-(4-methylpyridin-2-yl)pyridine 1-oxide
;
_cell_volume   1037.825
_exptl_crystal_colour 'colorless'
_exptl_crystal_density_diffrn 1.282
_exptl_crystal_description 'block'
_diffrn_ambient_temperature 298
#These two values have been output from a single CSD field.
_refine_ls_R_factor_gt 0.0541
_refine_ls_wR_factor_gt 0.0541
_symmetry_cell_setting monoclinic
_symmetry_space_group_name_H-M 'P 21/n'
_symmetry_Int_Tables_number 14
loop_
_symmetry_equiv_pos_site_id
_symmetry_equiv_pos_as_xyz
1 x,y,z
2 1/2-x,1/2+y,1/2-z
3 -x,-y,-z
4 -1/2+x,-1/2-y,-1/2+z
_cell_length_a 7.3479(3)
_cell_length_b 11.8541(5)
_cell_length_c 12.0086(6)
_cell_angle_alpha 90
_cell_angle_beta 97.160(4)
_cell_angle_gamma 90
_cell_formula_units_Z 4
loop_
_atom_type_symbol
_atom_type_radius_bond
C 0.68
H 0.23
N 0.68
O 0.68
loop_
_atom_site_label
_atom_site_type_symbol
_atom_site_fract_x
_atom_site_fract_y
_atom_site_fract_z
O1 O 0.8739(2) 0.37290(11) 0.56097(11)
N1 N 0.8720(2) 0.32593(12) 0.46262(12)
N2 N 0.7433(2) 0.03634(12) 0.50578(12)
C1 C 0.8403(2) 0.17222(15) 0.33714(13)
H1 H 0.82260 0.09530 0.32490
C2 C 0.8447(2) 0.21296(13) 0.44575(13)
C3 C 0.7610(3) -0.02007(16) 0.69818(15)
H2 H 0.73820 -0.07530 0.74960
C4 C 0.7160(3) -0.03756(16) 0.58520(16)
H3 H 0.66250 -0.10620 0.56250
C5 C 0.8609(2) 0.24035(16) 0.24642(14)
C6 C 0.8703(2) 0.15904(15) 0.65256(14)
H4 H 0.92450 0.22800 0.67360
C7 C 0.8200(2) 0.13550(14) 0.53995(13)
C8 C 0.8406(2) 0.08093(16) 0.73398(14)
C9 C 0.8580(3) 0.1939(2) 0.13014(15)
H5 H 0.83860 0.11390 0.13140
H6 H 0.97300 0.20950 0.10310
H7 H 0.76040 0.22870 0.08140
C10 C 0.8872(3) 0.35381(16) 0.26812(16)
H8 H 0.90010 0.40320 0.20940
C11 C 0.8945(3) 0.39402(16) 0.37428(16)
H9 H 0.91560 0.47060 0.38710
C12 C 0.8894(3) 0.1078(2) 0.85598(15)
H10 H 0.85820 0.04490 0.90030
H11 H 0.82260 0.17330 0.87470
H12 H 1.01860 0.12230 0.87110
#END
