
#######################################################################
#
#                 Cambridge Crystallographic Data Centre
#                                CCDC
#
#######################################################################
#
# If this CIF has been generated from an entry in the Cambridge
# Structural Database, then it will include bibliographic, chemical,
# crystal, experimental, refinement or atomic coordinate data resulting
# from the CCDC's data processing and validation procedures.
#
#######################################################################

data_CSD_CIF_SABBOO
_audit_creation_date 2010-09-21
_audit_creation_method CSD-ConQuest-V1
_database_code_CSD SABBOO
_database_code_depnum_ccdc_archive 'CCDC 792486'
_chemical_formula_sum 'C8 H7 N1 O3'
_chemical_formula_moiety
;
C8 H7 N1 O3
;
_journal_coeditor_code "IUCr LX2167"
_journal_coden_Cambridge 1370
_journal_volume 66
_journal_year 2010
_journal_page_first o2420
_journal_name_full 'Acta Crystallogr.,Sect.E:Struct.Rep.Online '
loop_
_publ_author_name
"Ze-Rong Guo"
"Hua-Bo Li"
"Fang Li"
_chemical_name_systematic
;
4-Methyl-3-nitrobenzaldehyde
;
_cell_volume    764.162
_exptl_crystal_colour 'colorless'
_exptl_crystal_density_diffrn 1.435
_exptl_crystal_description 'block'
_diffrn_ambient_temperature 293
#These two values have been output from a single CSD field.
_refine_ls_R_factor_gt 0.0386
_refine_ls_wR_factor_gt 0.0386
_symmetry_cell_setting monoclinic
_symmetry_space_group_name_H-M 'P 21/c'
_symmetry_Int_Tables_number 14
loop_
_symmetry_equiv_pos_site_id
_symmetry_equiv_pos_as_xyz
1 x,y,z
2 -x,1/2+y,1/2-z
3 -x,-y,-z
4 x,-1/2-y,-1/2+z
_cell_length_a 3.9052(6)
_cell_length_b 17.841(3)
_cell_length_c 11.0663(15)
_cell_angle_alpha 90
_cell_angle_beta 97.647(2)
_cell_angle_gamma 90
_cell_formula_units_Z 4
loop_
_atom_type_symbol
_atom_type_radius_bond
C 0.68
H 0.23
N 0.68
O 0.68
loop_
_atom_site_label
_atom_site_type_symbol
_atom_site_fract_x
_atom_site_fract_y
_atom_site_fract_z
O1 O 1.3758(4) 0.60008(9) 1.06104(12)
O2 O 1.0886(5) 0.70092(9) 1.05565(14)
O3 O 0.8183(5) 0.42460(9) 0.60139(14)
N1 N 1.1695(4) 0.64374(9) 1.00814(13)
C1 C 0.7588(6) 0.75833(11) 0.8424(2)
H1 H 0.62940 0.78310 0.77400
H2 H 0.97560 0.78350 0.86380
H3 H 0.63000 0.75940 0.91050
C2 C 0.8234(4) 0.67836(9) 0.80931(16)
C3 C 0.6869(5) 0.65315(10) 0.69353(16)
H4 H 0.56190 0.68660 0.64030
C4 C 0.7290(5) 0.58141(10) 0.65495(15)
H5 H 0.63120 0.56690 0.57720
C5 C 0.9177(4) 0.52988(10) 0.73139(14)
C6 C 0.9618(5) 0.45197(11) 0.69313(17)
H6 H 1.11240 0.42170 0.74400
C7 C 1.0625(4) 0.55297(9) 0.84592(14)
H7 H 1.19430 0.51970 0.89750
C8 C 1.0119(4) 0.62533(9) 0.88392(14)
#END
