
#######################################################################
#
#                 Cambridge Crystallographic Data Centre
#                                CCDC
#
#######################################################################
#
# If this CIF has been generated from an entry in the Cambridge
# Structural Database, then it will include bibliographic, chemical,
# crystal, experimental, refinement or atomic coordinate data resulting
# from the CCDC's data processing and validation procedures.
#
#######################################################################

data_CSD_CIF_SABCIK
_audit_creation_date 2015-12-25
_audit_creation_method CSD-ConQuest-V1
_database_code_CSD SABCIK
_database_code_depnum_ccdc_archive 'CCDC 1422493'
_chemical_formula_sum 'C27 H23 N1 O2'
_chemical_formula_moiety
;
C27 H23 N1 O2
;
_journal_coden_Cambridge 1147
_journal_volume 16
_journal_year 2016
_journal_page_first 821
_journal_name_full 'Cryst.Growth Des. '
loop_
_publ_author_name
"H.W.H.Lai"
"R.A.Wiscons"
"C.A.Zentner"
"M.Zeller"
"J.L.C.Rowsell"
_chemical_name_systematic
;
2,4,6-Tri-p-tolylnitrobenzene
;
_cell_volume   4185.843
_exptl_crystal_colour 'colorless'
_exptl_crystal_density_diffrn 1.249
_exptl_crystal_description 'rod'
_diffrn_ambient_temperature 100
#These two values have been output from a single CSD field.
_refine_ls_R_factor_gt 0.0439
_refine_ls_wR_factor_gt 0.0439
_symmetry_cell_setting orthorhombic
_symmetry_space_group_name_H-M 'P b c a'
_symmetry_Int_Tables_number 61
loop_
_symmetry_equiv_pos_site_id
_symmetry_equiv_pos_as_xyz
1 x,y,z
2 1/2-x,-y,1/2+z
3 -x,1/2+y,1/2-z
4 1/2+x,1/2-y,-z
5 -x,-y,-z
6 -1/2+x,y,-1/2-z
7 x,-1/2-y,-1/2+z
8 -1/2-x,-1/2+y,z
_cell_length_a 12.7521(4)
_cell_length_b 12.5544(4)
_cell_length_c 26.1460(8)
_cell_angle_alpha 90
_cell_angle_beta 90
_cell_angle_gamma 90
_cell_formula_units_Z 8
loop_
_atom_type_symbol
_atom_type_radius_bond
C 0.68
H 0.23
N 0.68
O 0.68
loop_
_atom_site_label
_atom_site_type_symbol
_atom_site_fract_x
_atom_site_fract_y
_atom_site_fract_z
C1 C 0.14415(11) 0.28114(10) 0.34566(5)
C2 C 0.23368(11) 0.34247(10) 0.33805(5)
C3 C 0.32324(10) 0.3147(1) 0.36601(5)
H1 H 0.38600 0.35430 0.36140
C4 C 0.32203(10) 0.22969(10) 0.40061(5)
C5 C 0.23016(11) 0.17084(10) 0.40622(5)
H2 H 0.22950 0.11280 0.42960
C6 C 0.13922(11) 0.19387(10) 0.37890(5)
C7 C 0.23753(11) 0.43588(10) 0.30261(5)
C8 C 0.16482(11) 0.51838(11) 0.30540(5)
H3 H 0.11030 0.51590 0.33010
C9 C 0.17164(11) 0.60467(11) 0.27200(5)
H4 H 0.12160 0.66050 0.27430
C10 C 0.25074(11) 0.61046(11) 0.23518(5)
C11 C 0.32343(11) 0.52797(11) 0.23295(5)
H5 H 0.37790 0.53040 0.20820
C12 C 0.31770(11) 0.44204(11) 0.26630(5)
H6 H 0.36870 0.38700 0.26440
C13 C 0.25617(13) 0.70190(12) 0.19796(5)
H7 H 0.18840 0.73860 0.19710
H8 H 0.27280 0.67470 0.16380
H9 H 0.31080 0.75190 0.20880
C14 C 0.41574(11) 0.20086(10) 0.43122(5)
C15 C 0.51531(11) 0.19391(12) 0.40931(5)
H10 H 0.52490 0.21250 0.37440
C16 C 0.60042(11) 0.16000(11) 0.43818(5)
H11 H 0.66740 0.15470 0.42250
C17 C 0.58960(11) 0.13354(10) 0.48970(5)
C18 C 0.49090(12) 0.14295(11) 0.51186(5)
H12 H 0.48190 0.12660 0.54710
C19 C 0.40522(11) 0.17598(11) 0.48308(5)
H13 H 0.33840 0.18170 0.49890
C20 C 0.68182(12) 0.09344(12) 0.52017(6)
H14 H 0.66430 0.09430 0.55670
H15 H 0.74260 0.13950 0.51400
H16 H 0.69850 0.02050 0.50960
C21 C 0.04585(11) 0.12391(10) 0.38445(5)
C22 C -0.00035(11) 0.07470(11) 0.34225(5)
H17 H 0.02580 0.08890 0.30890
C23 C -0.08423(11) 0.00519(11) 0.34846(5)
H18 H -0.11370 -0.02860 0.31930
C24 C -0.12589(11) -0.01575(11) 0.39670(5)
C25 C -0.07822(12) 0.03248(11) 0.43885(5)
H19 H -0.10460 0.01840 0.47220
C26 C 0.00669(11) 0.10049(11) 0.43321(5)
H20 H 0.03840 0.13130 0.46260
C27 C -0.22055(12) -0.08623(12) 0.40305(6)
H21 H -0.20730 -0.13830 0.43020
H22 H -0.23450 -0.12370 0.37090
H23 H -0.28150 -0.04260 0.41210
N1 N 0.04715(9) 0.30993(9) 0.31772(4)
O1 O 0.04502(9) 0.29663(9) 0.27127(4)
O2 O -0.02582(8) 0.34588(9) 0.34304(4)
H24? H 0.32630 0.70480 0.18270
H25? H 0.24190 0.76880 0.21600
H26? H 0.20380 0.69160 0.17100
#END
