
#######################################################################
#
#                 Cambridge Crystallographic Data Centre
#                                CCDC
#
#######################################################################
#
# If this CIF has been generated from an entry in the Cambridge
# Structural Database, then it will include bibliographic, chemical,
# crystal, experimental, refinement or atomic coordinate data resulting
# from the CCDC's data processing and validation procedures.
#
#######################################################################

data_CSD_CIF_SABDEG
_audit_creation_date 2010-09-21
_audit_creation_method CSD-ConQuest-V1
_database_code_CSD SABDEG
_database_code_depnum_ccdc_archive 'CCDC 792494'
_chemical_formula_sum 'C14 H9 N3 O3'
_chemical_formula_moiety
;
C14 H9 N3 O3
;
_journal_coeditor_code "IUCr HB5615"
_journal_coden_Cambridge 1370
_journal_volume 66
_journal_year 2010
_journal_page_first o2429
_journal_name_full 'Acta Crystallogr.,Sect.E:Struct.Rep.Online '
loop_
_publ_author_name
"N.D.Hassan"
"Z.Abdullah"
"H.A.Tajuddin"
"Z.A.Fairuz"
"S.W.Ng"
"E.R.T.Tiekink"
_chemical_name_systematic
;
2-(3-Nitrophenoxy)quinoxaline
;
_cell_volume    593.579
_exptl_crystal_colour 'red'
_exptl_crystal_density_diffrn 1.495
_exptl_crystal_description 'prism'
_diffrn_ambient_temperature 100
#These two values have been output from a single CSD field.
_refine_ls_R_factor_gt 0.034
_refine_ls_wR_factor_gt 0.034
_symmetry_cell_setting monoclinic
_symmetry_space_group_name_H-M 'P 21'
_symmetry_Int_Tables_number 4
loop_
_symmetry_equiv_pos_site_id
_symmetry_equiv_pos_as_xyz
1 x,y,z
2 -x,1/2+y,-z
_cell_length_a 6.0643(6)
_cell_length_b 5.3676(5)
_cell_length_c 18.2443(17)
_cell_angle_alpha 90
_cell_angle_beta 91.780(1)
_cell_angle_gamma 90
_cell_formula_units_Z 2
loop_
_atom_type_symbol
_atom_type_radius_bond
C 0.68
H 0.23
N 0.68
O 0.68
loop_
_atom_site_label
_atom_site_type_symbol
_atom_site_fract_x
_atom_site_fract_y
_atom_site_fract_z
O1 O 1.2692(2) 0.5001(3) 0.29144(7)
O2 O 0.4391(2) 0.8540(4) 0.41409(8)
O3 O 0.5748(2) 0.9758(3) 0.31197(9)
N1 N 1.1038(2) 0.1916(4) 0.22012(8)
N2 N 1.4817(3) 0.2107(4) 0.13226(9)
N3 N 0.5762(3) 0.8419(4) 0.36598(9)
C1 C 1.2685(3) 0.3411(4) 0.23292(10)
C2 C 1.4591(3) 0.3556(4) 0.18864(11)
H1 H 1.57130 0.47350 0.20070
C3 C 1.3147(3) 0.0427(4) 0.11749(10)
C4 C 1.3319(3) -0.1261(5) 0.05877(11)
H2 H 1.45760 -0.12160 0.02900
C5 C 1.1678(3) -0.2970(5) 0.04435(11)
H3 H 1.18170 -0.41130 0.00500
C6 C 0.9785(3) -0.3042(5) 0.08741(11)
H4 H 0.86660 -0.42430 0.07740
C7 C 0.9563(3) -0.1377(5) 0.14384(10)
H5 H 0.82630 -0.13930 0.17160
C8 C 1.1248(3) 0.0355(4) 0.16091(10)
C9 C 1.0867(3) 0.4856(4) 0.33663(10)
C10 C 1.0743(3) 0.2998(4) 0.38865(11)
H6 H 1.18660 0.17690 0.39300
C11 C 0.8952(3) 0.2945(4) 0.43471(11)
H7 H 0.88670 0.16900 0.47120
C12 C 0.7295(3) 0.4715(4) 0.42751(10)
H8 H 0.60510 0.46710 0.45790
C13 C 0.7504(3) 0.6547(4) 0.37477(10)
C14 C 0.9282(3) 0.6693(4) 0.32869(10)
H9 H 0.94020 0.79890 0.29360
#END
