
#######################################################################
#
#                 Cambridge Crystallographic Data Centre
#                                CCDC
#
#######################################################################
#
# If this CIF has been generated from an entry in the Cambridge
# Structural Database, then it will include bibliographic, chemical,
# crystal, experimental, refinement or atomic coordinate data resulting
# from the CCDC's data processing and validation procedures.
#
#######################################################################

data_CSD_CIF_SABJEM
_audit_creation_date 2010-09-20
_audit_creation_method CSD-ConQuest-V1
_database_code_CSD SABJEM
_database_code_depnum_ccdc_archive 'CCDC 792513'
_chemical_formula_sum 'C11 H19 N3 O5'
_chemical_formula_moiety
;
C11 H19 N3 O5
;
_journal_coeditor_code "IUCr BT5332"
_journal_coden_Cambridge 1370
_journal_volume 66
_journal_year 2010
_journal_page_first o2451
_journal_name_full 'Acta Crystallogr.,Sect.E:Struct.Rep.Online '
loop_
_publ_author_name
"Zhongzhen Tian"
"Gaolei Wang"
"Haijun Dong"
_chemical_name_systematic
;
1-(2,2-Dimethoxyethyl)-8-nitro-1,2,3,5,6,7-hexahydroimidazo[1,2-a]pyridin-5-ol
;
_cell_volume   1339.372
_exptl_crystal_colour 'colorless'
_exptl_crystal_density_diffrn 1.355
_exptl_crystal_description 'prism'
_diffrn_ambient_temperature 293
#These two values have been output from a single CSD field.
_refine_ls_R_factor_gt 0.0415
_refine_ls_wR_factor_gt 0.0415
_symmetry_cell_setting monoclinic
_symmetry_space_group_name_H-M 'P 21/c'
_symmetry_Int_Tables_number 14
loop_
_symmetry_equiv_pos_site_id
_symmetry_equiv_pos_as_xyz
1 x,y,z
2 -x,1/2+y,1/2-z
3 -x,-y,-z
4 x,-1/2-y,-1/2+z
_cell_length_a 11.2337(6)
_cell_length_b 9.0903(3)
_cell_length_c 14.2618(7)
_cell_angle_alpha 90
_cell_angle_beta 113.124(6)
_cell_angle_gamma 90
_cell_formula_units_Z 4
loop_
_atom_type_symbol
_atom_type_radius_bond
C 0.68
H 0.23
N 0.68
O 0.68
loop_
_atom_site_label
_atom_site_type_symbol
_atom_site_fract_x
_atom_site_fract_y
_atom_site_fract_z
N1 N 0.29875(12) 0.55756(14) 0.22689(9)
O1 O 0.63771(13) 0.70130(14) 0.20749(9)
H1 H 0.61170 0.73310 0.14910
N2 N 0.47152(13) 0.53178(15) 0.19064(9)
C1 C 0.42919(14) 0.56183(15) 0.26436(10)
O2 O 0.38448(13) 0.73086(14) 0.41241(9)
N3 N 0.49381(14) 0.67236(15) 0.43224(9)
O3 O 0.58619(14) 0.69576(16) 0.51820(8)
O4 O 0.02213(12) 0.59831(16) 0.16524(10)
C2 C 0.22221(16) 0.51751(18) 0.28522(12)
H2 H 0.27730 0.51830 0.35730
H3 H 0.18920 0.41840 0.26710
C3 C 0.52149(15) 0.59073(16) 0.36427(10)
C4 C 0.60599(16) 0.55202(18) 0.20530(12)
H4 H 0.62190 0.50290 0.15020
C5 C 0.36474(16) 0.5264(2) 0.09100(11)
H5 H 0.37310 0.44360 0.05110
H6 H 0.35890 0.61660 0.05310
C6 C 0.66126(16) 0.5530(2) 0.39249(12)
H7 H 0.68920 0.48650 0.45030
H8 H 0.71260 0.64200 0.41330
O5 O 0.05036(15) 0.58840(17) 0.33329(12)
C7 C 0.10981(17) 0.6218(2) 0.26575(14)
H9 H 0.14010 0.72400 0.27480
C8 C 0.25036(17) 0.5085(2) 0.11957(12)
H10 H 0.17840 0.56900 0.07670
H11 H 0.22260 0.40660 0.11330
C9 C 0.68676(18) 0.4813(2) 0.30524(14)
H12 H 0.77770 0.49110 0.31760
H13 H 0.66650 0.37720 0.30240
C10 C -0.0810(2) 0.7013(3) 0.12986(19)
H14 H -0.12680 0.69050 0.05750
H15 H -0.04690 0.79920 0.14490
H16 H -0.13910 0.68370 0.16320
C11 C 0.0604(3) 0.6935(3) 0.40618(19)
H17 H 0.02420 0.78460 0.37320
H18 H 0.14990 0.70790 0.44950
H19 H 0.01400 0.66110 0.44640
#END
