
#######################################################################
#
#                 Cambridge Crystallographic Data Centre
#                                CCDC
#
#######################################################################
#
# If this CIF has been generated from an entry in the Cambridge
# Structural Database, then it will include bibliographic, chemical,
# crystal, experimental, refinement or atomic coordinate data resulting
# from the CCDC's data processing and validation procedures.
#
#######################################################################

data_CSD_CIF_SABPIU
_audit_creation_date 1989-07-11
_audit_creation_method CSD-ConQuest-V1
_database_code_CSD SABPIU
_chemical_formula_sum 'C12 H16 N2 O2'
_chemical_formula_moiety
;
C12 H16 N2 O2
;
_journal_coden_Cambridge 35
_journal_volume 53
_journal_year 1988
_journal_page_first 5930
_journal_name_full 'J.Org.Chem. '
loop_
_publ_author_name
"S.F.Nelsen"
"M.F.Teasley"
"M.Kaftory"
_chemical_name_systematic
;
11-Oxa-12,13-diazapentacyclo(4.4.3.1^2,5^.1^7,10^.0^1,6^)pentadecan-13-one
;
_chemical_melting_point 487.15
_cell_volume   2131.509
_exptl_crystal_colour 'colorless'
_exptl_crystal_density_diffrn 1.373
_exptl_special_details
;
Melting point range 487.15-490.15K

;
_diffrn_ambient_temperature ?
_diffrn_special_details
;
The study was carried out at room temperature,in the range 283-303K

;
#These two values have been output from a single CSD field.
_refine_ls_R_factor_gt 0.084
_refine_ls_wR_factor_gt 0.084
_symmetry_cell_setting orthorhombic
_symmetry_space_group_name_H-M 'P b c a'
_symmetry_Int_Tables_number 61
loop_
_symmetry_equiv_pos_site_id
_symmetry_equiv_pos_as_xyz
1 x,y,z
2 1/2-x,1/2+y,z
3 x,1/2-y,1/2+z
4 1/2-x,-y,1/2+z
5 -x,-y,-z
6 -1/2+x,-1/2-y,-z
7 -x,-1/2+y,-1/2-z
8 -1/2+x,y,-1/2-z
_cell_length_a 12.296(6)
_cell_length_b 14.209(7)
_cell_length_c 12.200(6)
_cell_angle_alpha 90
_cell_angle_beta 90
_cell_angle_gamma 90
_cell_formula_units_Z 8
loop_
_atom_type_symbol
_atom_type_radius_bond
C 0.68
H 0.23
N 0.68
O 0.68
loop_
_atom_site_label
_atom_site_type_symbol
_atom_site_fract_x
_atom_site_fract_y
_atom_site_fract_z
O1 O 0.2636(4) 0.4092(3) 0.1548(4)
O2 O 0.0211(5) 0.3459(4) 0.0453(4)
N1 N 0.1967(6) 0.3712(5) 0.0722(5)
N2 N 0.0989(5) 0.3754(4) 0.1026(4)
C1 C 0.0798(4) 0.4174(3) 0.2139(4)
C2 C 0.0478(4) 0.3364(4) 0.2910(5)
C3 C 0.0343(5) 0.3659(5) 0.4103(5)
C4 C 0.1521(5) 0.3886(5) 0.4463(6)
C5 C 0.2179(4) 0.3704(4) 0.3414(5)
C6 C 0.1961(4) 0.4408(4) 0.2489(5)
C7 C 0.1986(5) 0.5491(4) 0.2471(6)
C8 C 0.1287(5) 0.5940(5) 0.3348(7)
C9 C 0.0118(4) 0.5701(4) 0.3002(6)
C10 C 0.0276(4) 0.5149(4) 0.1943(5)
C11 C 0.1564(5) 0.2836(4) 0.2990(6)
C12 C 0.1262(6) 0.5683(5) 0.1483(7)
H1 H -0.013(5) 0.308(4) 0.259(5)
H2 H -0.023(4) 0.418(4) 0.424(4)
H3 H 0.009(4) 0.311(4) 0.455(4)
H4 H 0.158(4) 0.450(4) 0.478(4)
H5 H 0.182(6) 0.343(5) 0.498(6)
H6 H 0.296(6) 0.362(5) 0.357(5)
H7 H 0.272(6) 0.572(5) 0.236(5)
H8 H 0.140(5) 0.662(5) 0.336(5)
H9 H 0.144(4) 0.571(3) 0.412(5)
H10 H -0.022(4) 0.630(4) 0.283(4)
H11 H -0.035(4) 0.532(4) 0.361(4)
H12 H -0.039(5) 0.513(4) 0.153(4)
H13 H 0.173(3) 0.269(3) 0.225(4)
H14 H 0.147(5) 0.233(5) 0.358(5)
H15 H 0.114(4) 0.636(4) 0.132(4)
H16 H 0.153(4) 0.551(4) 0.078(5)
#END
