
#######################################################################
#
#                 Cambridge Crystallographic Data Centre
#                                CCDC
#
#######################################################################
#
# If this CIF has been generated from an entry in the Cambridge
# Structural Database, then it will include bibliographic, chemical,
# crystal, experimental, refinement or atomic coordinate data resulting
# from the CCDC's data processing and validation procedures.
#
#######################################################################

data_CSD_CIF_SABPUH
_audit_creation_date 2004-12-07
_audit_creation_method CSD-ConQuest-V1
_database_code_CSD SABPUH
_database_code_depnum_ccdc_archive 'CCDC 246004'
_chemical_formula_sum 'C8 H11 N3 O2'
_chemical_formula_moiety
;
C8 H11 N3 O2
;
_journal_coden_Cambridge 9
_journal_volume 43
_journal_year 2004
_journal_page_first 3894
_journal_name_full 'Inorg.Chem. '
loop_
_publ_author_name
"D.Eddings"
"C.Barnes"
"N.Gerasimchuk"
"P.Durham"
"K.Domasevich"
_chemical_name_systematic
;
trans-anti-2-Cyano-2-isonitroso-N-piperidinylacetamide
;
_chemical_melting_point 432.15
_cell_volume    913.829
_exptl_crystal_colour 'colorless'
_exptl_crystal_density_diffrn 1.317
_exptl_special_details
;
Melting point range 432.15-435.15K

;
_exptl_crystal_description 'block'
_exptl_crystal_preparation 'ether'
_diffrn_ambient_temperature 173
#These two values have been output from a single CSD field.
_refine_ls_R_factor_gt 0.0323
_refine_ls_wR_factor_gt 0.0323
loop_
_citation_database_id_CSD
_citation_special_details
TIXXAB "is a stereoisomer of this entry"
_symmetry_cell_setting orthorhombic
_symmetry_space_group_name_H-M 'P 21 21 21'
_symmetry_Int_Tables_number 19
loop_
_symmetry_equiv_pos_site_id
_symmetry_equiv_pos_as_xyz
1 x,y,z
2 1/2-x,-y,1/2+z
3 1/2+x,1/2-y,-z
4 -x,1/2+y,1/2-z
_cell_length_a 6.6740(9)
_cell_length_b 10.3462(14)
_cell_length_c 13.2342(17)
_cell_angle_alpha 90
_cell_angle_beta 90
_cell_angle_gamma 90
_cell_formula_units_Z 4
loop_
_atom_type_symbol
_atom_type_radius_bond
C 0.68
H 0.23
N 0.68
O 0.68
loop_
_atom_site_label
_atom_site_type_symbol
_atom_site_fract_x
_atom_site_fract_y
_atom_site_fract_z
O1 O 0.71200(18) 0.43970(13) 0.59307(9)
O2 O 0.06766(18) 0.40115(14) 0.51978(10)
N1 N 0.5697(2) 0.30487(14) 0.70885(10)
N2 N 0.2095(2) 0.38365(14) 0.59398(11)
N3 N 0.4526(2) 0.40632(16) 0.36454(12)
C1 C 0.4152(3) 0.21300(19) 0.74349(12)
H1 H 0.47640 0.12690 0.75400
H2 H 0.31000 0.20450 0.69120
C2 C 0.3217(3) 0.25998(18) 0.84197(14)
H3 H 0.22390 0.19530 0.86660
H4 H 0.24930 0.34210 0.82990
C3 C 0.4839(3) 0.2808(2) 0.92152(13)
H5 H 0.42330 0.31930 0.98280
H6 H 0.54270 0.19640 0.94050
C4 C 0.6484(3) 0.36944(18) 0.88207(13)
H7 H 0.75700 0.37490 0.93290
H8 H 0.59320 0.45740 0.87240
C5 C 0.7351(3) 0.3211(2) 0.78213(13)
H9 H 0.83380 0.38400 0.75580
H10 H 0.80410 0.23750 0.79270
C6 C 0.5696(2) 0.37194(17) 0.62346(12)
C7 C 0.3869(2) 0.37575(16) 0.55634(12)
C8 C 0.4252(2) 0.39275(16) 0.44905(13)
H11 H -0.049(4) 0.412(2) 0.559(2)
#END
