
#######################################################################
#
#                 Cambridge Crystallographic Data Centre
#                                CCDC
#
#######################################################################
#
# If this CIF has been generated from an entry in the Cambridge
# Structural Database, then it will include bibliographic, chemical,
# crystal, experimental, refinement or atomic coordinate data resulting
# from the CCDC's data processing and validation procedures.
#
#######################################################################

data_CSD_CIF_SABPOB01
_audit_creation_date 2014-02-18
_audit_creation_method CSD-ConQuest-V1
_database_code_CSD SABPOB01
_database_code_depnum_ccdc_archive 'CCDC 956127'
_chemical_formula_sum 'C7 H9 N3 O3'
_chemical_formula_moiety
;
C7 H9 N3 O3
;
_journal_coden_Cambridge 155
_journal_volume 412
_journal_year 2014
_journal_page_first 94
_journal_name_full 'Inorg.Chim.Acta '
loop_
_publ_author_name
"C.Riddles"
"M.Whited"
"S.Lotlikar"
"M.Patrauchan"
"K.Still"
"S.Silchenko"
"N.Gerasimchuk"
_chemical_name_systematic
;
2-(Hydroxyimino)-3-(morpholin-4-yl)-3-oxopropanenitrile
;
_cell_volume    842.782
_exptl_crystal_colour 'colorless'
_exptl_crystal_density_diffrn 1.444
_exptl_crystal_description 'block'
_diffrn_ambient_temperature 120
#These two values have been output from a single CSD field.
_refine_ls_R_factor_gt 0.0249
_refine_ls_wR_factor_gt 0.0249
_symmetry_cell_setting orthorhombic
_symmetry_space_group_name_H-M 'P 21 21 21'
_symmetry_Int_Tables_number 19
loop_
_symmetry_equiv_pos_site_id
_symmetry_equiv_pos_as_xyz
1 x,y,z
2 1/2-x,-y,1/2+z
3 -x,1/2+y,1/2-z
4 1/2+x,1/2-y,-z
_cell_length_a 6.7259(4)
_cell_length_b 9.4836(6)
_cell_length_c 13.2127(9)
_cell_angle_alpha 90
_cell_angle_beta 90
_cell_angle_gamma 90
_cell_formula_units_Z 4
loop_
_atom_type_symbol
_atom_type_radius_bond
C 0.68
H 0.23
N 0.68
O 0.68
loop_
_atom_site_label
_atom_site_type_symbol
_atom_site_fract_x
_atom_site_fract_y
_atom_site_fract_z
C1 C 0.09031(19) 0.11867(13) 0.05784(10)
C2 C 0.04326(18) 0.08150(14) -0.04577(10)
C3 C -0.08550(19) 0.14621(14) 0.12466(10)
C4 C 0.1009(2) 0.30486(15) 0.24366(10)
H1 H 0.06540 0.40610 0.24120
H2 H 0.21570 0.28920 0.19820
C5 C 0.1552(2) 0.26354(17) 0.35065(11)
H3 H 0.19580 0.16320 0.35220
H4 H 0.26910 0.32110 0.37390
C6 C -0.1717(2) 0.19738(16) 0.3862(1)
H5 H -0.28410 0.21120 0.43350
H6 H -0.13110 0.09720 0.38970
C7 C -0.2395(2) 0.23120(16) 0.27943(10)
H7 H -0.34550 0.16480 0.25870
H8 H -0.29410 0.32810 0.27680
N1 N 0.26899(16) 0.11373(12) 0.09133(9)
N2 N 0.00990(18) 0.05264(12) -0.12821(9)
N3 N -0.06867(16) 0.21909(12) 0.21024(8)
O1 O 0.40260(14) 0.07608(11) 0.01758(7)
H9 H 0.51770 0.07410 0.04230
O2 O -0.24296(13) 0.09128(11) 0.09589(8)
O3 O -0.00933(15) 0.28424(11) 0.41675(6)
#END
