
#######################################################################
#
#                 Cambridge Crystallographic Data Centre
#                                CCDC
#
#######################################################################
#
# If this CIF has been generated from an entry in the Cambridge
# Structural Database, then it will include bibliographic, chemical,
# crystal, experimental, refinement or atomic coordinate data resulting
# from the CCDC's data processing and validation procedures.
#
#######################################################################

data_CSD_CIF_SABQOB
_audit_creation_date 2001-11-29
_audit_creation_method CSD-ConQuest-V1
_database_code_CSD SABQOB
_database_code_depnum_ccdc_archive 'CCDC 173370'
_chemical_formula_sum 'C20 H23 N3 O7'
_chemical_formula_moiety
;
C20 H23 N3 O7
;
_journal_coeditor_code "IUCr AV1077"
_journal_coden_Cambridge 591
_journal_volume 57
_journal_year 2001
_journal_page_first 1073
_journal_name_full 'Acta Crystallogr.,Sect.C:Cryst.Struct.Commun. '
loop_
_publ_author_name
"V.Vrabel"
"J.Lehotay"
"D.Oktavec"
"S.Marchalin"
_chemical_name_systematic
;
3-Methyl 5-isopropyl 
2-methoxyiminomethyl-6-methyl-4-(3-nitrophenyl)-1,4-dihydro-pyridine-3,5-dicar
boxylate
;
_cell_volume   1037.102
_exptl_crystal_colour 'yellow'
_exptl_crystal_density_diffrn 1.337
_exptl_crystal_description 'plate'
_exptl_crystal_preparation 'ethanol'
_diffrn_ambient_temperature 293
#These two values have been output from a single CSD field.
_refine_ls_R_factor_gt 0.0518
_refine_ls_wR_factor_gt 0.0518
_symmetry_cell_setting triclinic
_symmetry_space_group_name_H-M 'P -1'
_symmetry_Int_Tables_number 2
loop_
_symmetry_equiv_pos_site_id
_symmetry_equiv_pos_as_xyz
1 x,y,z
2 -x,-y,-z
_cell_length_a 9.563(4)
_cell_length_b 9.703(4)
_cell_length_c 12.031(6)
_cell_angle_alpha 93.99(4)
_cell_angle_beta 105.09(4)
_cell_angle_gamma 103.66(4)
_cell_formula_units_Z 2
loop_
_atom_type_symbol
_atom_type_radius_bond
C 0.68
H 0.23
N 0.68
O 0.68
loop_
_atom_site_label
_atom_site_type_symbol
_atom_site_fract_x
_atom_site_fract_y
_atom_site_fract_z
O1 O 0.6623(2) 0.3899(2) 0.99646(18)
O2 O 0.3579(2) -0.1862(2) 0.64941(18)
O3 O 0.5089(2) 0.0319(2) 0.69399(18)
O4 O -0.1738(4) -0.4542(3) 0.4137(3)
O5 O -0.3094(4) -0.3256(3) 0.3356(2)
O6 O -0.0330(3) -0.2902(2) 0.98875(18)
O7 O -0.0179(2) -0.3802(2) 0.81775(17)
N1 N 0.3086(3) 0.0690(3) 0.9697(2)
H1 H 0.348(3) 0.145(3) 1.0284(19)
N2 N 0.5408(3) 0.2771(3) 0.9928(2)
N3 N -0.2118(4) -0.3433(4) 0.4129(3)
C1 C 0.3793(3) 0.0662(3) 0.8842(3)
C2 C 0.3280(3) -0.0438(3) 0.7976(3)
C3 C 0.1838(3) -0.1580(4) 0.7874(3)
H2 H 0.209(2) -0.245(2) 0.7624(17)
C4 C 0.1427(3) -0.1573(3) 0.8999(3)
C5 C 0.2011(3) -0.0458(4) 0.9832(3)
C6 C 0.5079(4) 0.1884(4) 0.9001(3)
H3 H 0.561(3) 0.202(3) 0.8324(19)
C7 C 0.6918(3) 0.4913(3) 1.0985(2)
H4 H 0.77590 0.57010 1.10170
H5 H 0.71430 0.44530 1.16660
H6 H 0.60500 0.52610 1.09520
C8 C 0.4098(4) -0.0570(4) 0.7115(3)
C9 C 0.4334(4) -0.2175(3) 0.5645(3)
H7 H 0.38670 -0.31340 0.52520
H8 H 0.53720 -0.20870 0.60310
H9 H 0.42640 -0.15120 0.50900
C10 C 0.0574(3) -0.1398(4) 0.6882(2)
C11 C -0.0145(4) -0.2463(4) 0.5944(3)
H10 H 0.024(3) -0.323(3) 0.592(2)
C12 C -0.1339(4) -0.2294(4) 0.5107(3)
C13 C -0.1847(4) -0.1109(5) 0.5149(3)
H11 H -0.268(3) -0.107(3) 0.455(2)
C14 C -0.1134(5) -0.0036(5) 0.6053(3)
H12 H -0.145(3) 0.078(3) 0.616(2)
C15 C 0.0070(4) -0.0188(4) 0.6912(3)
H13 H 0.049(3) 0.060(2) 0.7479(18)
C16 C 0.0239(4) -0.2786(4) 0.9096(3)
C17 C -0.1482(4) -0.5021(4) 0.8082(4)
H14 H -0.137(3) -0.535(3) 0.894(2)
C18 C -0.1316(4) -0.6212(3) 0.7323(3)
H15 H -0.04170 -0.64750 0.76910
H16 H -0.12560 -0.59080 0.65900
H17 H -0.21680 -0.70220 0.71960
C19 C -0.2868(4) -0.4518(4) 0.7581(3)
H18 H -0.29060 -0.37560 0.81160
H19 H -0.37460 -0.53010 0.74550
H20 H -0.28300 -0.41800 0.68560
C20 C 0.1670(3) -0.0251(3) 1.0975(2)
H21 H 0.22760 0.06600 1.14030
H22 H 0.18890 -0.10000 1.14160
H23 H 0.06280 -0.02800 1.08360
#END
