
#######################################################################
#
#                 Cambridge Crystallographic Data Centre
#                                CCDC
#
#######################################################################
#
# If this CIF has been generated from an entry in the Cambridge
# Structural Database, then it will include bibliographic, chemical,
# crystal, experimental, refinement or atomic coordinate data resulting
# from the CCDC's data processing and validation procedures.
#
#######################################################################

data_CSD_CIF_SABYOL
_audit_creation_date 2011-01-12
_audit_creation_method CSD-ConQuest-V1
_database_code_CSD SABYOL
_database_code_depnum_ccdc_archive 'CCDC 736154'
_chemical_formula_sum 'C16 H19 N3 O6'
_chemical_formula_moiety
;
C16 H19 N3 O6
;
_journal_coden_Cambridge 1366
_journal_volume 352
_journal_year 2010
_journal_page_first 336
_journal_name_full 'Adv.Synth.Catal. '
loop_
_publ_author_name
"Jian Li"
"Shaoyu Li"
"Chunju Li"
"Yuejin Liu"
"Xueshun Jia"
_chemical_name_systematic
;
Ethyl 
2-(2-ethoxy-2-oxoethyl)-8-nitro-2,5-dihydro-1H-1,5-benzodiazepine-3-carboxylat
e
;
_cell_volume   3442.390
_diffrn_ambient_temperature 173
#These two values have been output from a single CSD field.
_refine_ls_R_factor_gt 0.071
_refine_ls_wR_factor_gt 0.071
_symmetry_cell_setting orthorhombic
_symmetry_space_group_name_H-M 'P b c a'
_symmetry_Int_Tables_number 61
loop_
_symmetry_equiv_pos_site_id
_symmetry_equiv_pos_as_xyz
1 x,y,z
2 1/2-x,-y,1/2+z
3 1/2+x,1/2-y,-z
4 -x,1/2+y,1/2-z
5 -x,-y,-z
6 -1/2+x,y,-1/2-z
7 -1/2-x,-1/2+y,z
8 x,-1/2-y,-1/2+z
_cell_length_a 21.419(3)
_cell_length_b 7.0654(10)
_cell_length_c 22.747(3)
_cell_angle_alpha 90
_cell_angle_beta 90
_cell_angle_gamma 90
_cell_formula_units_Z 8
loop_
_atom_type_symbol
_atom_type_radius_bond
C 0.68
H 0.23
N 0.68
O 0.68
loop_
_atom_site_label
_atom_site_type_symbol
_atom_site_fract_x
_atom_site_fract_y
_atom_site_fract_z
O1 O 0.15436(9) 0.1328(3) 0.00645(9)
N1 N 0.1557(1) 0.4169(3) -0.11406(10)
N2 N 0.08799(14) 0.7600(4) 0.05920(13)
O2 O 0.2236(1) -0.0060(4) -0.05239(11)
C1 C 0.17314(14) 0.0621(4) -0.04532(13)
C2 C 0.14598(12) 0.2258(4) -0.13888(12)
H1 H 0.18760 0.18160 -0.15340
O3 O 0.08172(11) 0.0816(4) -0.28375(11)
C3 C 0.11928(13) 0.5820(4) -0.02814(13)
H2 H 0.15810 0.55640 -0.00950
O4 O 0.13837(14) 0.7220(4) 0.08128(11)
C4 C 0.12472(13) 0.0821(4) -0.09241(13)
H3 H 0.08490 0.12470 -0.07470
H4 H 0.11750 -0.04220 -0.11130
C5 C 0.10756(13) 0.5109(4) -0.08359(13)
C6 C 0.20187(15) 0.1351(5) 0.05268(14)
H5 H 0.23860 0.20900 0.03980
H6 H 0.21560 0.00450 0.06170
O5 O 0.04770(14) 0.8535(4) 0.08471(12)
C7 C 0.07484(15) 0.6902(4) 0.00035(14)
C8 C 0.04922(14) 0.5481(4) -0.10967(14)
O6 O 0.15466(13) -0.0397(4) -0.22533(11)
N3 N 0.03212(13) 0.4876(4) -0.16530(13)
C9 C 0.10322(14) 0.2284(5) -0.19128(13)
C10 C 0.11106(16) 0.0875(6) -0.23785(15)
C11 C 0.05501(15) 0.3471(5) -0.19914(15)
H7 H 0.03310 0.32880 -0.23500
C12 C 0.00598(15) 0.6588(5) -0.07986(16)
H8 H -0.03300 0.68480 -0.09800
C13 C 0.01773(15) 0.7319(5) -0.02495(16)
H9 H -0.01220 0.80800 -0.00520
C14 C 0.17335(18) 0.2233(6) 0.10548(16)
H10 H 0.20420 0.22810 0.13720
H11 H 0.13740 0.14800 0.11810
H12 H 0.15970 0.35200 0.09590
C15 C 0.1623(3) -0.1903(9) -0.2694(2)
H13 H 0.12140 -0.24990 -0.27750
H14 H 0.17800 -0.13500 -0.30660
C16 C 0.2023(4) -0.3210(9) -0.2504(3)
H15 H 0.20730 -0.41910 -0.28050
H16 H 0.18610 -0.37830 -0.21420
H17 H 0.24280 -0.26190 -0.24240
#END
