
#######################################################################
#
#                 Cambridge Crystallographic Data Centre
#                                CCDC
#
#######################################################################
#
# If this CIF has been generated from an entry in the Cambridge
# Structural Database, then it will include bibliographic, chemical,
# crystal, experimental, refinement or atomic coordinate data resulting
# from the CCDC's data processing and validation procedures.
#
#######################################################################

data_CSD_CIF_SACCEE
_audit_creation_date 2001-11-29
_audit_creation_method CSD-ConQuest-V1
_database_code_CSD SACCEE
_database_code_depnum_ccdc_archive 'CCDC 173373'
_chemical_formula_sum 'C20 H25 N1 O2'
_chemical_formula_moiety
;
C20 H25 N1 O2
;
_journal_coeditor_code "IUCr SK1479"
_journal_coden_Cambridge 591
_journal_volume 57
_journal_year 2001
_journal_page_first 1079
_journal_name_full 'Acta Crystallogr.,Sect.C:Cryst.Struct.Commun. '
loop_
_publ_author_name
"D.Drouard"
"S.Py"
"M.-T.Averbuch"
"C.Philouze"
"Y.Vallee"
_chemical_name_systematic
;
(1S)-(Z)-N-(3'-Methylbut-1'-ylidene)-2-benzyloxy-1-phenylethylamine N-oxide
;
_cell_volume   1794.534
_exptl_crystal_colour 'yellow'
_exptl_crystal_density_diffrn 1.153
_exptl_crystal_description 'prism'
_exptl_crystal_preparation 'pentane/ethyl acetate 1'
_diffrn_ambient_temperature 293
#These two values have been output from a single CSD field.
_refine_ls_R_factor_gt 0.0397
_refine_ls_wR_factor_gt 0.0397
_symmetry_cell_setting orthorhombic
_symmetry_space_group_name_H-M 'P 21 21 21'
_symmetry_Int_Tables_number 19
loop_
_symmetry_equiv_pos_site_id
_symmetry_equiv_pos_as_xyz
1 x,y,z
2 1/2-x,-y,1/2+z
3 1/2+x,1/2-y,-z
4 -x,1/2+y,1/2-z
_cell_length_a 5.639(3)
_cell_length_b 15.073(8)
_cell_length_c 21.113(7)
_cell_angle_alpha 90
_cell_angle_beta 90
_cell_angle_gamma 90
_cell_formula_units_Z 4
loop_
_atom_type_symbol
_atom_type_radius_bond
C 0.68
H 0.23
N 0.68
O 0.68
loop_
_atom_site_label
_atom_site_type_symbol
_atom_site_fract_x
_atom_site_fract_y
_atom_site_fract_z
O1 O 1.0157(2) 0.60201(7) 0.20594(5)
O2 O 0.8122(3) 0.63580(6) 0.35059(5)
N1 N 0.7906(3) 0.61086(7) 0.21842(5)
C1 C 0.3874(4) 0.7551(2) 0.0811(1)
C2 C 0.6813(5) 0.8761(1) 0.0883(1)
C3 C 0.5635(4) 0.7993(1) 0.12320(7)
C4 C 0.7509(4) 0.73471(9) 0.14632(7)
C5 C 0.6576(3) 0.66859(9) 0.19188(7)
C6 C 0.6908(3) 0.54645(9) 0.26453(6)
C7 C 0.8337(4) 0.54957(9) 0.32493(7)
C8 C 0.9369(4) 0.6459(1) 0.40886(8)
C9 C 0.8064(4) 0.6048(1) 0.46396(7)
C10 C 0.5951(4) 0.6405(1) 0.48294(9)
C11 C 0.4733(4) 0.6062(2) 0.5334(1)
C12 C 0.5608(6) 0.5342(2) 0.56471(8)
C13 C 0.7693(6) 0.4977(1) 0.54691(9)
C14 C 0.8929(5) 0.5336(1) 0.49556(8)
C15 C 0.6724(3) 0.45506(9) 0.23566(6)
C16 C 0.8541(3) 0.3939(1) 0.24039(8)
C17 C 0.8275(3) 0.3098(1) 0.21341(7)
C18 C 0.6257(4) 0.2882(1) 0.18187(8)
C19 C 0.4472(4) 0.3486(1) 0.17613(8)
C20 C 0.4688(4) 0.4323(1) 0.20305(8)
H1 H 0.46570 0.73270 0.04460
H2 H 0.31410 0.70760 0.10320
H3 H 0.27020 0.79690 0.06850
H4 H 0.76960 0.85380 0.05350
H5 H 0.56310 0.91580 0.07340
H6 H 0.78470 0.90660 0.11640
H7 H 0.48210 0.82250 0.15900
H8 H 0.87370 0.76740 0.16640
H9 H 0.81380 0.70410 0.11080
H10 H 0.49320 0.66910 0.20170
H11 H 0.53440 0.56540 0.27440
H12 H 0.99540 0.53710 0.31610
H13 H 0.77430 0.50710 0.35420
H14 H 1.08750 0.61810 0.40500
H15 H 0.95790 0.70740 0.41700
H16 H 0.53170 0.68990 0.46070
H17 H 0.32840 0.63260 0.54660
H18 H 0.47480 0.50960 0.59920
H19 H 0.83120 0.44800 0.56910
H20 H 1.03900 0.50780 0.48270
H21 H 0.99650 0.40890 0.26190
H22 H 0.95150 0.26740 0.21720
H23 H 0.60900 0.23080 0.16380
H24 H 0.30720 0.33340 0.15360
H25 H 0.34330 0.47390 0.19910
#END
