
#######################################################################
#
#                 Cambridge Crystallographic Data Centre
#                                CCDC
#
#######################################################################
#
# If this CIF has been generated from an entry in the Cambridge
# Structural Database, then it will include bibliographic, chemical,
# crystal, experimental, refinement or atomic coordinate data resulting
# from the CCDC's data processing and validation procedures.
#
#######################################################################

data_CSD_CIF_SADMUI
_audit_creation_date 2015-12-31
_audit_creation_method CSD-ConQuest-V1
_database_code_CSD SADMUI
_database_code_depnum_ccdc_archive 'CCDC 1410259'
_chemical_formula_sum 'C21 H22 N2 O3'
_chemical_formula_moiety
;
C21 H22 N2 O3
;
_journal_coden_Cambridge 16
_journal_volume 72
_journal_year 2016
_journal_page_first 900
_journal_name_full 'Tetrahedron '
loop_
_publ_author_name
"Gagandeep Singh"
"S.Sharma"
"V.Gupta"
"T.Raj"
"P.Singh"
"M.P.S.Ishar"
_chemical_name_systematic
;
Ethyl 3-(1H-indol-3-yl)-5-methyl-2-phenyl-1,2-oxazolidine-4-carboxylate
;
_cell_volume   1852.464
_exptl_crystal_colour 'white'
_exptl_crystal_density_diffrn 1.256
_exptl_crystal_description 'block'
_diffrn_ambient_temperature 293
#These two values have been output from a single CSD field.
_refine_ls_R_factor_gt 0.045
_refine_ls_wR_factor_gt 0.045
_symmetry_cell_setting monoclinic
_symmetry_space_group_name_H-M 'P 21/c'
_symmetry_Int_Tables_number 14
loop_
_symmetry_equiv_pos_site_id
_symmetry_equiv_pos_as_xyz
1 x,y,z
2 -x,1/2+y,1/2-z
3 -x,-y,-z
4 x,-1/2-y,-1/2+z
_cell_length_a 12.9515(9)
_cell_length_b 9.0510(7)
_cell_length_c 16.5724(14)
_cell_angle_alpha 90
_cell_angle_beta 107.530(8)
_cell_angle_gamma 90
_cell_formula_units_Z 4
loop_
_atom_type_symbol
_atom_type_radius_bond
C 0.68
H 0.23
N 0.68
O 0.68
loop_
_atom_site_label
_atom_site_type_symbol
_atom_site_fract_x
_atom_site_fract_y
_atom_site_fract_z
C1 C 0.7059(2) -0.1918(2) 0.21639(13)
H1 H 0.63510 -0.15640 0.21390
H2 H 0.75940 -0.14050 0.26030
H3 H 0.71030 -0.29580 0.22830
C2 C 0.78215(18) 0.4451(2) -0.06906(15)
H4 H 0.75140 0.53660 -0.06520
C3 C 0.86675(18) 0.4652(2) 0.17721(15)
H5 H 0.81890 0.49910 0.12420
H6 H 0.92780 0.53050 0.19530
H7 H 0.82890 0.46410 0.21890
C4 C 0.8732(2) 0.4367(3) -0.09710(16)
H8 H 0.90320 0.52350 -0.11010
O1 O 0.81046(9) 0.21858(13) 0.14520(8)
O2 O 0.6402(1) -0.23222(14) 0.06781(8)
C5 C 0.78327(13) 0.1825(2) -0.05442(11)
O3 O 0.91444(9) 0.01953(15) 0.15458(9)
N1 N 0.65866(11) -0.17513(15) -0.00869(10)
C6 C 0.72026(12) -0.00474(19) 0.10486(11)
H9 H 0.66510 0.04620 0.12410
N2 N 0.90154(14) 0.0332(2) -0.08877(11)
C7 C 0.82586(14) 0.0758(2) 0.13791(11)
C8 C 0.57010(13) -0.2169(2) -0.07907(12)
C9 C 0.68071(13) -0.01509(19) 0.00643(11)
H10 H 0.61340 0.04100 -0.01590
C10 C 0.76151(12) 0.0334(2) -0.03647(11)
C11 C 0.73735(15) 0.3197(2) -0.04715(12)
H11 H 0.67720 0.32590 -0.02770
C12 C 0.83482(14) -0.0525(2) -0.05829(12)
H12 H 0.83900 -0.15480 -0.05320
C13 C 0.72611(16) -0.1647(2) 0.13249(13)
H13 H 0.79580 -0.20760 0.13290
C14 C 0.87287(14) 0.1781(2) -0.08581(12)
C15 C 0.45860(16) -0.1815(3) -0.22153(13)
H14 H 0.43950 -0.12520 -0.27080
C16 C 0.54070(14) -0.1337(2) -0.15198(13)
H15 H 0.57610 -0.04520 -0.15440
C17 C 0.51663(16) -0.3480(2) -0.07678(15)
H16 H 0.53590 -0.40550 -0.02800
C18 C 0.40511(17) -0.3107(3) -0.21877(16)
H17 H 0.34910 -0.34170 -0.26550
C19 C 0.91944(17) 0.3044(3) -0.10601(14)
H18 H 0.98000 0.29970 -0.12500
C20 C 0.90491(15) 0.3134(2) 0.16677(14)
H19 H 0.93910 0.31160 0.12210
H20 H 0.95710 0.28030 0.21890
C21 C 0.43488(18) -0.3937(3) -0.14658(18)
H21 H 0.39940 -0.48230 -0.14460
H22 H 0.9540(16) 0.002(2) -0.1054(13)
#END
