
#######################################################################
#
#                 Cambridge Crystallographic Data Centre
#                                CCDC
#
#######################################################################
#
# If this CIF has been generated from an entry in the Cambridge
# Structural Database, then it will include bibliographic, chemical,
# crystal, experimental, refinement or atomic coordinate data resulting
# from the CCDC's data processing and validation procedures.
#
#######################################################################

data_CSD_CIF_SADTAU
_audit_creation_date 2011-01-20
_audit_creation_method CSD-ConQuest-V1
_database_code_CSD SADTAU
_database_code_depnum_ccdc_archive 'CCDC 763724'
_chemical_formula_sum 'C32 H40 N2 O7'
_chemical_formula_moiety
;
C32 H40 N2 O7
;
_journal_coden_Cambridge 603
_journal_volume 29
_journal_year 2010
_journal_page_first 297
_journal_name_full 'Jiegou Huaxue(Chin.)(Chin.J.Struct.Chem.) '
loop_
_publ_author_name
"Jiao Ye"
"Chao Wang"
"Ai-Xi Hu"
"Han-Hong Xu"
"Xiao-Ming Ou"
_chemical_name_systematic
;
(((8,9-Dimethoxy-2-(prop-1-en-2-yl)-1,2,12,12a-tetrahydrochromeno[3,4-b]furo[2
,3-h]chromen-6(6aH)-ylidene)amino)oxy)(octylamino)methanone
;
_cell_volume   1459.490
_exptl_crystal_colour 'colorless'
_exptl_crystal_density_diffrn 1.285
_exptl_special_details
;
insecticidal activity

;
_exptl_crystal_description 'block'
_diffrn_ambient_temperature 173
#These two values have been output from a single CSD field.
_refine_ls_R_factor_gt 0.0426
_refine_ls_wR_factor_gt 0.0426
_symmetry_cell_setting monoclinic
_symmetry_space_group_name_H-M 'P 21'
_symmetry_Int_Tables_number 4
loop_
_symmetry_equiv_pos_site_id
_symmetry_equiv_pos_as_xyz
1 x,y,z
2 -x,1/2+y,-z
_cell_length_a 11.4311(8)
_cell_length_b 10.3717(7)
_cell_length_c 12.7490(9)
_cell_angle_alpha 90
_cell_angle_beta 105.077(1)
_cell_angle_gamma 90
_cell_formula_units_Z 2
loop_
_atom_type_symbol
_atom_type_radius_bond
C 0.68
H 0.23
N 0.68
O 0.68
loop_
_atom_site_label
_atom_site_type_symbol
_atom_site_fract_x
_atom_site_fract_y
_atom_site_fract_z
O1 O 0.35947(19) 0.86625(19) -0.01587(16)
C1 C 0.2502(3) 0.6626(3) 0.2391(2)
H1 H 0.28390 0.70760 0.30490
C2 C 0.1504(3) 0.5864(3) 0.2318(2)
C3 C 0.0974(3) 0.5213(3) 0.1342(3)
C4 C 0.1479(3) 0.5345(3) 0.0481(3)
H2 H 0.11180 0.49240 -0.01870
C5 C 0.2514(3) 0.6090(3) 0.0578(2)
C6 C 0.3046(3) 0.6764(3) 0.1529(2)
C7 C 0.4182(3) 0.7563(3) 0.1620(2)
H3 H 0.48820 0.70690 0.20770
C8 C 0.4412(3) 0.7754(3) 0.0505(2)
H4 H 0.52670 0.80430 0.05920
C9 C 0.4196(3) 0.6511(3) -0.0124(3)
H5 H 0.44080 0.66240 -0.08240
H6 H 0.47250 0.58290 0.02920
C10 C 0.3345(3) 0.9762(3) 0.0329(2)
C11 C 0.3616(3) 0.9936(3) 0.1461(2)
C12 C 0.4128(2) 0.8845(3) 0.2167(2)
C13 C 0.3351(3) 1.1130(3) 0.1860(2)
H7 H 0.35210 1.12510 0.26240
C14 C 0.2854(3) 1.2132(3) 0.1185(2)
H8 H 0.27010 1.29450 0.14650
C15 C 0.2583(3) 1.1900(3) 0.0064(2)
C16 C 0.2817(2) 1.0741(3) -0.0359(2)
C17 C 0.2474(3) 1.0817(3) -0.1572(2)
H9 H 0.19110 1.01150 -0.19010
H10 H 0.31970 1.07830 -0.18630
C18 C 0.1850(3) 1.2146(3) -0.1772(2)
H11 H 0.09560 1.20070 -0.20350
C19 C 0.2247(3) 1.2956(3) -0.2589(2)
C20 C 0.2820(3) 1.4065(3) -0.2349(3)
H12 H 0.30390 1.45490 -0.29010
H13 H 0.30130 1.43780 -0.16240
C21 C 0.1914(4) 1.2403(4) -0.3707(3)
H14 H 0.21000 1.30290 -0.42170
H15 H 0.10450 1.22060 -0.39200
H16 H 0.23760 1.16110 -0.37200
C22 C 0.1719(4) 0.5654(6) 0.4188(3)
H17 H 0.19750 0.65310 0.44290
H18 H 0.24330 0.51290 0.41910
H19 H 0.12850 0.52720 0.46820
C23 C -0.0472(3) 0.3680(4) 0.0411(3)
H20 H 0.01730 0.31170 0.02990
H21 H -0.07710 0.42240 -0.02310
H22 H -0.11380 0.31520 0.05280
C24 C 0.5190(3) 0.7957(3) 0.4863(2)
C25 C 0.5011(3) 0.9178(4) 0.6442(2)
H23 H 0.48580 1.00890 0.65980
H24 H 0.58570 0.89730 0.68340
C26 C 0.4163(3) 0.8321(4) 0.6873(3)
H25 H 0.43770 0.74100 0.67820
H26 H 0.43090 0.84820 0.76620
C27 C 0.2823(3) 0.8498(3) 0.6344(3)
H27 H 0.26690 0.83320 0.55550
H28 H 0.26010 0.94060 0.64370
C28 C 0.2013(3) 0.7614(4) 0.6809(3)
H29 H 0.21890 0.67080 0.66600
H30 H 0.22210 0.77260 0.76080
C29 C 0.0668(3) 0.7856(4) 0.6357(3)
H31 H 0.04680 0.77750 0.55560
H32 H 0.04900 0.87540 0.65270
C30 C -0.0155(4) 0.6957(5) 0.6781(4)
H33 H 0.01180 0.69480 0.75850
H34 H -0.09870 0.73140 0.65760
C31 C -0.0201(4) 0.5606(4) 0.6385(3)
H35 H 0.06330 0.52560 0.65600
H36 H -0.05170 0.56050 0.55850
C32 C -0.0993(5) 0.4714(6) 0.6873(5)
H37 H -0.18140 0.50680 0.67270
H38 H -0.06470 0.46470 0.76600
H39 H -0.10230 0.38560 0.65450
N1 N 0.4484(2) 0.9047(3) 0.3197(2)
N2 N 0.4876(3) 0.9038(3) 0.5270(2)
H40 H 0.45830 0.96830 0.48320
O2 O 0.29578(18) 0.6122(2) -0.03268(16)
O3 O 0.2106(2) 1.2795(2) -0.07134(16)
O4 O 0.0972(2) 0.5694(3) 0.31621(19)
O5 O -0.0009(2) 0.4473(2) 0.13369(19)
O6 O 0.4977(2) 0.7885(2) 0.37483(16)
O7 O 0.5626(2) 0.6997(2) 0.53630(17)
#END
