
#######################################################################
#
#                 Cambridge Crystallographic Data Centre
#                                CCDC
#
#######################################################################
#
# If this CIF has been generated from an entry in the Cambridge
# Structural Database, then it will include bibliographic, chemical,
# crystal, experimental, refinement or atomic coordinate data resulting
# from the CCDC's data processing and validation procedures.
#
#######################################################################

data_CSD_CIF_SADXUT
_audit_creation_date 2015-12-31
_audit_creation_method CSD-ConQuest-V1
_database_code_CSD SADXUT
_database_code_depnum_ccdc_archive 'CCDC 1403945'
_chemical_formula_sum 'C20 H21 N1 O4'
_chemical_formula_moiety
;
C20 H21 N1 O4
;
_journal_coden_Cambridge 1291
_journal_year 2016
_journal_page_first 535
_journal_name_full 'Eur.J.Org.Chem. '
loop_
_publ_author_name
"Lu Yu"
"Zhen Yang"
"Jianzhao Peng"
"Pengfei Li"
_chemical_name_systematic
;
(2-hydroxy-2-methyl-5-nitro-4-phenylcyclohexyl)(phenyl)methanone
;
_cell_volume   1779.063
_exptl_crystal_colour 'colorless'
_exptl_crystal_density_diffrn 1.267
_exptl_crystal_description 'needle'
_diffrn_ambient_temperature 296
#These two values have been output from a single CSD field.
_refine_ls_R_factor_gt 0.0756
_refine_ls_wR_factor_gt 0.0756
_symmetry_cell_setting orthorhombic
_symmetry_space_group_name_H-M 'P 21 21 21'
_symmetry_Int_Tables_number 19
loop_
_symmetry_equiv_pos_site_id
_symmetry_equiv_pos_as_xyz
1 x,y,z
2 1/2-x,-y,1/2+z
3 -x,1/2+y,1/2-z
4 1/2+x,1/2-y,-z
_cell_length_a 5.8358(3)
_cell_length_b 7.5870(4)
_cell_length_c 40.181(2)
_cell_angle_alpha 90
_cell_angle_beta 90
_cell_angle_gamma 90
_cell_formula_units_Z 4
loop_
_atom_type_symbol
_atom_type_radius_bond
C 0.68
H 0.23
N 0.68
O 0.68
loop_
_atom_site_label
_atom_site_type_symbol
_atom_site_fract_x
_atom_site_fract_y
_atom_site_fract_z
O1 O 0.6645(6) 0.8903(5) 0.10512(8)
H1 H 0.64820 0.87960 0.07850
O2 O 0.4685(7) 0.7352(5) 0.04985(9)
O3 O 0.7659(7) 0.2271(5) 0.16776(12)
O4 O 1.0152(7) 0.4212(5) 0.15517(9)
N1 N 0.8201(8) 0.3742(6) 0.15843(10)
C1 C 0.4562(8) 0.8249(6) 0.11908(12)
C2 C 0.4006(8) 0.6389(6) 0.10564(11)
H2 H 0.26190 0.59690 0.11690
C3 C 0.5964(8) 0.5123(6) 0.11412(11)
H3 H 0.56180 0.39580 0.10550
H4 H 0.73700 0.55280 0.10380
C4 C 0.6276(7) 0.5033(5) 0.15161(11)
H5 H 0.48630 0.45820 0.16170
C5 C 0.6829(8) 0.6806(6) 0.16681(11)
H6 H 0.82810 0.72110 0.15720
C6 C 0.4965(8) 0.8111(6) 0.15643(11)
H7 H 0.35390 0.77690 0.16700
H8 H 0.53730 0.92690 0.16480
C7 C 0.3545(9) 0.6387(7) 0.06774(13)
C8 C 0.1753(9) 0.5263(6) 0.05436(12)
C9 C 0.0702(10) 0.5728(8) 0.02474(14)
H9 H 0.11820 0.67300 0.01340
C10 C -0.1045(11) 0.4720(8) 0.01198(15)
H10 H -0.17650 0.50680 -0.00760
C11 C -0.1741(10) 0.3206(8) 0.02774(16)
H11 H -0.29290 0.25360 0.01890
C12 C -0.0664(10) 0.2680(7) 0.05691(14)
H12 H -0.10820 0.16310 0.06720
C13 C 0.1035(8) 0.3727(7) 0.07048(13)
H13 H 0.17070 0.34060 0.09060
C14 C 0.7103(7) 0.6770(6) 0.20433(12)
C15 C 0.5477(8) 0.6016(6) 0.22457(12)
H14 H 0.41840 0.55090 0.21500
C16 C 0.5721(9) 0.5996(6) 0.25882(14)
H15 H 0.46000 0.54770 0.27200
C17 C 0.7624(10) 0.6743(7) 0.27329(14)
H16 H 0.78040 0.67260 0.29630
C18 C 0.9239(9) 0.7507(7) 0.25361(15)
H17 H 1.05210 0.80260 0.26320
C19 C 0.8986(8) 0.7518(6) 0.21908(14)
H18 H 1.01080 0.80390 0.20590
C20 C 0.2644(9) 0.9546(7) 0.11201(14)
H19 H 0.30550 1.06860 0.12050
H20 H 0.12630 0.91510 0.12260
H21 H 0.23990 0.96230 0.08840
#END
