
#######################################################################
#
#                 Cambridge Crystallographic Data Centre
#                                CCDC
#
#######################################################################
#
# If this CIF has been generated from an entry in the Cambridge
# Structural Database, then it will include bibliographic, chemical,
# crystal, experimental, refinement or atomic coordinate data resulting
# from the CCDC's data processing and validation procedures.
#
#######################################################################

data_CSD_CIF_SAFJIT01
_audit_creation_date 2004-12-07
_audit_creation_method CSD-ConQuest-V1
_database_code_CSD SAFJIT01
_database_code_depnum_ccdc_archive 'CCDC 232912'
_chemical_formula_sum 'C13 H16 N5 O2'
_chemical_formula_moiety
;
C13 H16 N5 O2
;
_journal_coden_Cambridge 35
_journal_volume 69
_journal_year 2004
_journal_page_first 5247
_journal_name_full 'J.Org.Chem. '
loop_
_publ_author_name
"P.R.Serwinski"
"B.Esat"
"P.M.Lahti"
"Yi Liao"
"R.Walton"
"Jiang Lan"
_chemical_name_systematic
;
2-(3-Azidophenyl)-4,4,5,5-tetramethyl-1H-imidazoline-1-oxide-3-oxyl
;
_cell_volume   1407.179
_exptl_crystal_colour 'green'
_exptl_special_details
;
beta monoclinic polymorph
The unit cell angle beta is reported as 120.0; we calculate 116.85
;
_exptl_crystal_description 'irregular needles'
_diffrn_ambient_temperature 298
#These two values have been output from a single CSD field.
_refine_ls_R_factor_gt 0.0472
_refine_ls_wR_factor_gt 0.0472
_symmetry_cell_setting monoclinic
_symmetry_space_group_name_H-M 'P 21/c'
_symmetry_Int_Tables_number 14
loop_
_symmetry_equiv_pos_site_id
_symmetry_equiv_pos_as_xyz
1 x,y,z
2 x,1/2-y,1/2+z
3 -x,-y,-z
4 -x,-1/2+y,-1/2-z
_cell_length_a 7.3818(3)
_cell_length_b 17.5152(9)
_cell_length_c 12.1987(8)
_cell_angle_alpha 90
_cell_angle_beta 116.85
_cell_angle_gamma 90
_cell_formula_units_Z 4
loop_
_atom_type_symbol
_atom_type_radius_bond
C 0.68
H 0.23
N 0.68
O 0.68
loop_
_atom_site_label
_atom_site_type_symbol
_atom_site_fract_x
_atom_site_fract_y
_atom_site_fract_z
O1 O 0.9998(3) 0.09021(13) 0.8730(2)
O2 O 0.5793(3) 0.19804(15) 1.0176(2)
N1 N 0.7348(4) 0.16899(15) 1.0133(2)
N2 N 0.9343(4) 0.12092(14) 0.9438(2)
N3 N 0.5817(6) 0.1127(2) 0.4636(3)
N4 N 0.4210(5) 0.0951(2) 0.4645(3)
N5 N 0.7188(6) 0.1264(3) 0.4487(3)
C1 C 1.0791(4) 0.14869(18) 1.0694(3)
C2 C 0.5648(4) 0.11953(17) 0.7978(3)
C3 C 0.9315(4) 0.15882(18) 1.1264(3)
C4 C 0.5834(5) 0.11711(18) 0.6893(3)
C5 C 0.4180(5) 0.09721(19) 0.5805(3)
C6 C 0.3804(5) 0.10148(19) 0.7956(4)
C7 C 1.2463(6) 0.0905(3) 1.1305(4)
C8 C 0.2186(6) 0.0802(2) 0.6868(4)
C9 C 0.7403(5) 0.13703(17) 0.9140(3)
C10 C 1.1643(6) 0.2237(2) 1.0492(4)
C11 C 0.2354(5) 0.0782(2) 0.5789(4)
C12 C 0.9736(8) 0.2272(3) 1.2111(4)
C13 C 0.9044(7) 0.0870(3) 1.1883(5)
H1 H 0.709(4) 0.1323(15) 0.689(3)
H2 H 0.365(4) 0.1019(17) 0.872(3)
H3 H 0.089(5) 0.0657(18) 0.684(3)
H4 H 0.121(5) 0.0611(18) 0.505(3)
H5 H 1.325(6) 0.107(2) 1.214(5)
H6 H 1.328(5) 0.0876(18) 1.089(3)
H7 H 1.194(5) 0.039(2) 1.138(3)
H8 H 1.267(5) 0.2436(18) 1.129(3)
H9 H 1.052(5) 0.263(2) 1.009(3)
H10 H 1.231(5) 0.2129(18) 0.997(3)
H11 H 1.103(6) 0.221(2) 1.270(4)
H12 H 0.868(6) 0.225(2) 1.243(3)
H13 H 0.981(5) 0.272(2) 1.171(3)
H14 H 1.033(6) 0.0763(19) 1.265(4)
H15 H 0.877(5) 0.041(2) 1.135(4)
H16 H 0.794(5) 0.0971(17) 1.209(3)
#END
