
#######################################################################
#
#                 Cambridge Crystallographic Data Centre
#                                CCDC
#
#######################################################################
#
# If this CIF has been generated from an entry in the Cambridge
# Structural Database, then it will include bibliographic, chemical,
# crystal, experimental, refinement or atomic coordinate data resulting
# from the CCDC's data processing and validation procedures.
#
#######################################################################

data_CSD_CIF_SAFKAL
_audit_creation_date 1989-07-19
_audit_creation_method CSD-ConQuest-V1
_database_code_CSD SAFKAL
_chemical_formula_sum 'C2 H1 N3 O4'
_chemical_formula_moiety
;
C2 H1 N3 O4
;
_journal_coden_Cambridge 24
_journal_volume 29
_journal_year 1988
_journal_page_first 6031
_journal_name_full 'Tetrahedron Lett. '
loop_
_publ_author_name
"P.E.O'Bannon"
"P.J.Carroll"
"W.P.Dailey"
_chemical_name_systematic
;
Nitrodiazoacetic acid
;
_chemical_melting_point 321.15
_cell_volume    458.506
_exptl_crystal_density_diffrn 1.899
_exptl_special_details
;
Melting point range 321.15-326.15K
Shock-sensitive

;
_diffrn_ambient_temperature 213.15
#These two values have been output from a single CSD field.
_refine_ls_R_factor_gt 0.044
_refine_ls_wR_factor_gt 0.044
_symmetry_cell_setting monoclinic
_symmetry_space_group_name_H-M 'P 21/c'
_symmetry_Int_Tables_number 14
loop_
_symmetry_equiv_pos_site_id
_symmetry_equiv_pos_as_xyz
1 x,y,z
2 -x,1/2+y,1/2-z
3 -x,-y,-z
4 x,-1/2-y,-1/2+z
_cell_length_a 4.997(2)
_cell_length_b 18.191(14)
_cell_length_c 5.113(2)
_cell_angle_alpha 90
_cell_angle_beta 99.42(3)
_cell_angle_gamma 90
_cell_formula_units_Z 4
loop_
_atom_type_symbol
_atom_type_radius_bond
C 0.68
H 0.23
N 0.68
O 0.68
loop_
_atom_site_label
_atom_site_type_symbol
_atom_site_fract_x
_atom_site_fract_y
_atom_site_fract_z
C1 C 0.6681(5) 0.1262(1) 0.5845(4)
C2 C 0.5870(4) 0.0690(1) 0.7537(4)
N1 N 0.5254(4) 0.1521(1) 0.3405(3)
N2 N 0.9003(4) 0.1618(1) 0.6631(3)
N3 N 1.0916(4) 0.1921(1) 0.7315(4)
O1 O 0.3049(4) 0.1244(1) 0.2558(3)
O2 O 0.6331(4) 0.20038(9) 0.2255(3)
O3 O 0.3645(3) 0.03952(9) 0.7129(3)
O4 O 0.7797(3) 0.05546(9) 0.9521(3)
H1 H 0.741(7) 0.015(2) 1.055(7)
#END
