
#######################################################################
#
#                 Cambridge Crystallographic Data Centre
#                                CCDC
#
#######################################################################
#
# If this CIF has been generated from an entry in the Cambridge
# Structural Database, then it will include bibliographic, chemical,
# crystal, experimental, refinement or atomic coordinate data resulting
# from the CCDC's data processing and validation procedures.
#
#######################################################################

data_CSD_CIF_SAFMEU
_audit_creation_date 2015-12-31
_audit_creation_method CSD-ConQuest-V1
_database_code_CSD SAFMEU
_database_code_depnum_ccdc_archive 'CCDC 1413352'
_chemical_formula_sum 'C6 H3 N5 O5'
_chemical_formula_moiety
;
C6 H3 N5 O5
;
_journal_coden_Cambridge 1220
_journal_volume 21
_journal_year 2015
_journal_page_first 16073
_journal_name_full 'Chem.-Eur.J. '
loop_
_publ_author_name
"D.Ehlers"
"T.M.Klapotke"
"C.Pfluger"
_chemical_name_systematic
;
4,6-dinitrobenzotriazol-3-ium-1-oxide
;
_chemical_name_common
;
5,7-dinitro-1H-1,2,3-benzotriazol-3-ol
;
_cell_volume   1735.325
_exptl_crystal_colour 'orange'
_exptl_crystal_density_diffrn 1.723
_exptl_crystal_description 'block'
_diffrn_ambient_temperature 173
#These two values have been output from a single CSD field.
_refine_ls_R_factor_gt 0.0306
_refine_ls_wR_factor_gt 0.0306
_symmetry_cell_setting orthorhombic
_symmetry_space_group_name_H-M 'P b c a'
_symmetry_Int_Tables_number 61
loop_
_symmetry_equiv_pos_site_id
_symmetry_equiv_pos_as_xyz
1 x,y,z
2 1/2-x,-y,1/2+z
3 1/2+x,1/2-y,-z
4 -x,1/2+y,1/2-z
5 -x,-y,-z
6 -1/2+x,y,-1/2-z
7 -1/2-x,-1/2+y,z
8 x,-1/2-y,-1/2+z
_cell_length_a 9.0869(3)
_cell_length_b 10.2129(3)
_cell_length_c 18.6989(6)
_cell_angle_alpha 90
_cell_angle_beta 90
_cell_angle_gamma 90
_cell_formula_units_Z 8
loop_
_atom_type_symbol
_atom_type_radius_bond
C 0.68
H 0.23
N 0.68
O 0.68
loop_
_atom_site_label
_atom_site_type_symbol
_atom_site_fract_x
_atom_site_fract_y
_atom_site_fract_z
O1 O 0.46371(11) 0.55615(9) 0.92949(5)
O2 O 0.64349(10) -0.00224(9) 0.72958(5)
O3 O 0.63484(10) 0.54495(9) 0.84822(5)
O4 O 0.29144(11) 0.14238(10) 1.02829(5)
O5 O 0.34001(11) -0.04168(9) 0.97510(6)
N1 N 0.67115(12) 0.31957(11) 0.76727(6)
N2 N 0.53990(12) 0.49537(11) 0.88693(6)
N3 N 0.70383(12) 0.21493(10) 0.72663(6)
N4 N 0.34483(12) 0.07836(11) 0.97923(6)
N5 N 0.63593(12) 0.11529(11) 0.75609(6)
C1 C 0.43769(14) 0.28624(13) 0.92960(7)
C2 C 0.55929(14) 0.15176(12) 0.81703(7)
C3 C 0.48053(14) 0.07821(12) 0.86633(7)
C4 C 0.42286(14) 0.14949(13) 0.92215(7)
C5 C 0.58391(14) 0.28624(12) 0.82309(6)
C6 C 0.51857(13) 0.35445(12) 0.88030(7)
H1 H 0.3943(19) 0.3308(16) 0.9687(9)
H2 H 0.4684(17) -0.0156(16) 0.8632(8)
H3 H 0.723(2) 0.3962(18) 0.7585(9)
#END
