
#######################################################################
#
#                 Cambridge Crystallographic Data Centre
#                                CCDC
#
#######################################################################
#
# If this CIF has been generated from an entry in the Cambridge
# Structural Database, then it will include bibliographic, chemical,
# crystal, experimental, refinement or atomic coordinate data resulting
# from the CCDC's data processing and validation procedures.
#
#######################################################################

data_CSD_CIF_SAFMAQ01
_audit_creation_date 2015-12-31
_audit_creation_method CSD-ConQuest-V1
_database_code_CSD SAFMAQ01
_database_code_depnum_ccdc_archive 'CCDC 1413353'
_chemical_formula_sum 'C6 H3 N5 O4'
_chemical_formula_moiety
;
C6 H3 N5 O4
;
_journal_coden_Cambridge 1220
_journal_volume 21
_journal_year 2015
_journal_page_first 16073
_journal_name_full 'Chem.-Eur.J. '
loop_
_publ_author_name
"D.Ehlers"
"T.M.Klapotke"
"C.Pfluger"
_chemical_name_systematic
;
5,7-dinitro-1H-benzotriazole
;
_chemical_name_common
;
5,7-dinitrobenzotriazole
;
_cell_volume    820.202
_exptl_crystal_colour 'colorless'
_exptl_crystal_density_diffrn 1.694
_exptl_crystal_description 'platelet'
_diffrn_ambient_temperature 173
#These two values have been output from a single CSD field.
_refine_ls_R_factor_gt 0.0514
_refine_ls_wR_factor_gt 0.0514
_symmetry_cell_setting orthorhombic
_symmetry_space_group_name_H-M 'P n a 21'
_symmetry_Int_Tables_number 33
loop_
_symmetry_equiv_pos_site_id
_symmetry_equiv_pos_as_xyz
1 x,y,z
2 -x,-y,1/2+z
3 1/2-x,1/2+y,1/2+z
4 1/2+x,1/2-y,z
_cell_length_a 14.480(3)
_cell_length_b 6.3394(11)
_cell_length_c 8.9352(18)
_cell_angle_alpha 90
_cell_angle_beta 90
_cell_angle_gamma 90
_cell_formula_units_Z 4
loop_
_atom_type_symbol
_atom_type_radius_bond
C 0.68
H 0.23
N 0.68
O 0.68
loop_
_atom_site_label
_atom_site_type_symbol
_atom_site_fract_x
_atom_site_fract_y
_atom_site_fract_z
O1 O 0.43139(19) 0.0525(3) -0.1333(3)
O2 O 0.35932(17) -0.2343(3) -0.0663(3)
O3 O 0.2747(2) -0.3165(4) 0.4527(4)
O4 O 0.27469(18) -0.0500(3) 0.6042(3)
N1 N 0.46473(19) 0.4875(3) 0.2968(3)
N2 N 0.4987(2) 0.5248(3) 0.1642(3)
N3 N 0.4757(2) 0.3621(4) 0.0728(3)
N4 N 0.3928(2) -0.0609(4) -0.0410(3)
N5 N 0.2916(2) -0.1312(4) 0.4826(4)
C1 C 0.4194(2) 0.2957(4) 0.2934(3)
C2 C 0.4272(2) 0.2157(4) 0.1481(3)
C3 C 0.3872(2) 0.0203(4) 0.1129(3)
C4 C 0.3428(2) -0.0894(5) 0.2228(4)
C5 C 0.3373(2) -0.0037(4) 0.3675(4)
C6 C 0.3737(2) 0.1874(4) 0.4074(4)
H1 H 0.315(2) -0.229(5) 0.201(4)
H2 H 0.369(2) 0.244(4) 0.510(4)
H3 H 0.494(2) 0.372(4) -0.027(4)
#END
