
#######################################################################
#
#                 Cambridge Crystallographic Data Centre
#                                CCDC
#
#######################################################################
#
# If this CIF has been generated from an entry in the Cambridge
# Structural Database, then it will include bibliographic, chemical,
# crystal, experimental, refinement or atomic coordinate data resulting
# from the CCDC's data processing and validation procedures.
#
#######################################################################

data_CSD_CIF_SAFWUT
_audit_creation_date 2012-01-25
_audit_creation_method CSD-ConQuest-V1
_database_code_CSD SAFWUT
_database_code_depnum_ccdc_archive 'CCDC 861766'
_chemical_formula_sum 'C23 H24 N4 O5'
_chemical_formula_moiety
;
C23 H24 N4 O5
;
_journal_coeditor_code "IUCr HB6545"
_journal_coden_Cambridge 1370
_journal_volume 68
_journal_year 2012
_journal_page_first o59
_journal_name_full 'Acta Crystallogr.,Sect.E:Struct.Rep.Online '
loop_
_publ_author_name
"Y.K.Yoon"
"M.A.Ali"
"T.S.Choon"
"S.I.J.Asik"
"I.A.Razak"
_chemical_name_systematic
;
Ethyl 
2-(4-nitrophenyl)-1-(3-(2-oxopyrrolidin-1-yl)propyl)-1H-benzimidazole-5-carbox
ylate
;
_cell_volume   1040.675
_exptl_crystal_colour 'orange'
_exptl_crystal_density_diffrn 1.393
_exptl_crystal_description 'block'
_diffrn_ambient_temperature 100
#These two values have been output from a single CSD field.
_refine_ls_R_factor_gt 0.0694
_refine_ls_wR_factor_gt 0.0694
_symmetry_cell_setting triclinic
_symmetry_space_group_name_H-M 'P -1'
_symmetry_Int_Tables_number 2
loop_
_symmetry_equiv_pos_site_id
_symmetry_equiv_pos_as_xyz
1 x,y,z
2 -x,-y,-z
_cell_length_a 9.3125(1)
_cell_length_b 10.0941(1)
_cell_length_c 12.9955(2)
_cell_angle_alpha 91.958(1)
_cell_angle_beta 107.752(1)
_cell_angle_gamma 114.465(1)
_cell_formula_units_Z 2
loop_
_atom_type_symbol
_atom_type_radius_bond
C 0.68
H 0.23
N 0.68
O 0.68
loop_
_atom_site_label
_atom_site_type_symbol
_atom_site_fract_x
_atom_site_fract_y
_atom_site_fract_z
O1 O -0.29047(16) -0.18231(15) 0.17443(11)
O2 O -0.45664(18) -0.31986(16) 0.26240(12)
O3 O 0.2053(2) 0.51173(19) 0.95685(13)
O4 O 0.82578(18) 0.95186(18) 0.77738(14)
O5 O 0.6533(2) 1.04206(17) 0.78208(14)
N1 N 0.11744(17) 0.29815(16) 0.46007(12)
N2 N 0.00661(17) 0.29678(16) 0.59278(11)
N3 N -0.0066(2) 0.56743(18) 0.86162(13)
N4 N 0.6825(2) 0.93979(18) 0.75733(13)
C1 C -0.0276(2) 0.16584(19) 0.43862(14)
C2 C -0.1050(2) 0.04589(19) 0.35168(14)
H1 H -0.05860 0.04550 0.29590
C3 C -0.2518(2) -0.07262(19) 0.34957(14)
C4 C -0.3197(2) -0.0732(2) 0.43315(15)
H2 H -0.41940 -0.15700 0.42990
C5 C -0.2451(2) 0.0444(2) 0.51921(14)
H3 H -0.29140 0.04430 0.57510
C6 C -0.0981(2) 0.16403(19) 0.52027(14)
C7 C 0.1333(2) 0.37277(18) 0.55203(14)
C8 C 0.2713(2) 0.52054(19) 0.60439(13)
C9 C 0.2460(2) 0.6325(2) 0.65125(14)
H4 H 0.13660 0.61350 0.65000
C10 C 0.3803(2) 0.7712(2) 0.69957(14)
H5 H 0.36380 0.84780 0.73100
C11 C 0.5388(2) 0.79566(19) 0.70104(14)
C12 C 0.5674(2) 0.6891(2) 0.65223(15)
H6 H 0.67640 0.71000 0.65170
C13 C 0.4322(2) 0.5512(2) 0.60426(14)
H7 H 0.44910 0.47630 0.57080
C14 C -0.3446(2) -0.2050(2) 0.25940(15)
C15 C -0.3754(2) -0.3076(2) 0.08290(16)
H8 H -0.49900 -0.35010 0.06360
H9 H -0.33990 -0.38590 0.10320
C16 C -0.3270(3) -0.2504(3) -0.01223(19)
H10 H -0.38150 -0.33180 -0.07540
H11 H -0.20440 -0.20860 0.00800
H12 H -0.36320 -0.17340 -0.03160
C17 C -0.0017(2) 0.3308(2) 0.70099(13)
H13 H 0.10630 0.41510 0.74670
H14 H -0.01490 0.24420 0.73760
C18 C -0.1456(2) 0.3693(2) 0.69594(14)
H15 H -0.25480 0.28190 0.65740
H16 H -0.13920 0.45030 0.65400
C19 C -0.1347(2) 0.4175(2) 0.81236(15)
H17 H -0.24530 0.40990 0.80950
H18 H -0.10990 0.34900 0.85940
C20 C -0.0400(3) 0.6949(2) 0.84211(18)
H19 H -0.14780 0.67900 0.85050
H20 H -0.04390 0.71530 0.76760
C21 C 0.1094(4) 0.8213(3) 0.9307(2)
H21 H 0.14670 0.91440 0.90170
H22 H 0.07930 0.83790 0.99520
C22 C 0.2468(3) 0.7692(2) 0.96175(18)
H23 H 0.32480 0.81020 0.92100
H24 H 0.31210 0.79960 1.04160
C23 C 0.1509(2) 0.6021(2) 0.92917(15)
#END
