
#######################################################################
#
#                 Cambridge Crystallographic Data Centre
#                                CCDC
#
#######################################################################
#
# If this CIF has been generated from an entry in the Cambridge
# Structural Database, then it will include bibliographic, chemical,
# crystal, experimental, refinement or atomic coordinate data resulting
# from the CCDC's data processing and validation procedures.
#
#######################################################################

data_CSD_CIF_SAFYAB
_audit_creation_date 2012-01-25
_audit_creation_method CSD-ConQuest-V1
_database_code_CSD SAFYAB
_database_code_depnum_ccdc_archive 'CCDC 861772'
_chemical_formula_sum 'C10 H7 N5 O2'
_chemical_formula_moiety
;
C10 H7 N5 O2
;
_journal_coeditor_code "IUCr HG5146"
_journal_coden_Cambridge 1370
_journal_volume 68
_journal_year 2012
_journal_page_first o65
_journal_name_full 'Acta Crystallogr.,Sect.E:Struct.Rep.Online '
loop_
_publ_author_name
"Qiang-Hua Jiang"
"Qiu He"
"Jian-Qiang Zhang"
"Yang Yang"
"Rong Wan"
_chemical_name_systematic
;
5-Amino-1-(4-nitrophenyl)-1H-pyrazole-3-carbonitrile
;
_cell_volume   1037.691
_exptl_crystal_colour 'yellow'
_exptl_crystal_density_diffrn 1.467
_exptl_crystal_description 'block'
_diffrn_ambient_temperature 293
#These two values have been output from a single CSD field.
_refine_ls_R_factor_gt 0.0483
_refine_ls_wR_factor_gt 0.0483
_symmetry_cell_setting monoclinic
_symmetry_space_group_name_H-M 'C c'
_symmetry_Int_Tables_number 9
loop_
_symmetry_equiv_pos_site_id
_symmetry_equiv_pos_as_xyz
1 x,y,z
2 x,-y,1/2+z
3 1/2+x,1/2+y,z
4 1/2+x,1/2-y,1/2+z
_cell_length_a 3.7685(2)
_cell_length_b 27.3441(17)
_cell_length_c 10.1294(8)
_cell_angle_alpha 90
_cell_angle_beta 96.20(3)
_cell_angle_gamma 90
_cell_formula_units_Z 4
loop_
_atom_type_symbol
_atom_type_radius_bond
C 0.68
H 0.23
N 0.68
O 0.68
loop_
_atom_site_label
_atom_site_type_symbol
_atom_site_fract_x
_atom_site_fract_y
_atom_site_fract_z
C1 C 0.6000(9) 0.14112(13) 0.7685(3)
H1 H 0.64970 0.17370 0.78900
N1 N 0.7783(9) 0.01800(13) 0.9127(4)
O1 O 0.9593(11) 0.02857(14) 1.0134(4)
N2 N 0.2632(8) 0.16762(10) 0.5653(3)
C2 C 0.7254(10) 0.10486(14) 0.8562(4)
H2 H 0.86160 0.11240 0.93570
O2 O 0.6973(13) -0.02441(11) 0.8819(4)
C3 C 0.6406(9) 0.05648(13) 0.8214(3)
N3 N 0.1670(9) 0.21026(11) 0.6233(3)
C4 C 0.4432(9) 0.04433(12) 0.7061(4)
H3 H 0.39400 0.01170 0.68580
N4 N 0.2620(12) 0.13064(12) 0.3498(3)
H4 H 0.35810 0.10430 0.38340
H5 H 0.21090 0.13310 0.26520
C5 C 0.3155(9) 0.08073(14) 0.6189(3)
H6 H 0.17480 0.07310 0.54050
N5 N -0.2189(12) 0.32149(13) 0.5701(4)
C6 C 0.4020(9) 0.12921(12) 0.6510(4)
C7 C 0.1906(10) 0.16856(13) 0.4306(4)
C8 C 0.0411(12) 0.21334(14) 0.3985(4)
H7 H -0.03590 0.22550 0.31460
C9 C 0.0310(9) 0.23653(12) 0.5213(4)
C10 C -0.1059(10) 0.28392(14) 0.5470(4)
#END
