
#######################################################################
#
#                 Cambridge Crystallographic Data Centre
#                                CCDC
#
#######################################################################
#
# If this CIF has been generated from an entry in the Cambridge
# Structural Database, then it will include bibliographic, chemical,
# crystal, experimental, refinement or atomic coordinate data resulting
# from the CCDC's data processing and validation procedures.
#
#######################################################################

data_CSD_CIF_SAFZOQ
_audit_creation_date 2012-01-25
_audit_creation_method CSD-ConQuest-V1
_database_code_CSD SAFZOQ
_database_code_depnum_ccdc_archive 'CCDC 861780'
_chemical_formula_sum 'C17 H13 N1 O3'
_chemical_formula_moiety
;
C17 H13 N1 O3
;
_journal_coeditor_code "IUCr TK5031"
_journal_coden_Cambridge 1370
_journal_volume 68
_journal_year 2012
_journal_page_first o74
_journal_name_full 'Acta Crystallogr.,Sect.E:Struct.Rep.Online '
loop_
_publ_author_name
"S.Samshuddin"
"R.J.Butcher"
"M.Akkurt"
"B.Narayana"
"B.K.Sarojini"
"H.S.Yathirajan"
_chemical_name_systematic
;
(1E,4E)-1-(3-Nitrophenyl)-5-phenylpenta-1,4-dien-3-one
;
_cell_volume   1349.207
_exptl_crystal_colour 'colorless'
_exptl_crystal_density_diffrn 1.375
_exptl_crystal_description 'plate'
_diffrn_ambient_temperature 293
#These two values have been output from a single CSD field.
_refine_ls_R_factor_gt 0.055
_refine_ls_wR_factor_gt 0.055
_symmetry_cell_setting monoclinic
_symmetry_space_group_name_H-M 'P 21/c'
_symmetry_Int_Tables_number 14
loop_
_symmetry_equiv_pos_site_id
_symmetry_equiv_pos_as_xyz
1 x,y,z
2 -x,1/2+y,1/2-z
3 -x,-y,-z
4 x,-1/2-y,-1/2+z
_cell_length_a 11.9806(6)
_cell_length_b 9.8955(4)
_cell_length_c 12.5562(7)
_cell_angle_alpha 90
_cell_angle_beta 114.992(7)
_cell_angle_gamma 90
_cell_formula_units_Z 4
loop_
_atom_type_symbol
_atom_type_radius_bond
C 0.68
H 0.23
N 0.68
O 0.68
loop_
_atom_site_label
_atom_site_type_symbol
_atom_site_fract_x
_atom_site_fract_y
_atom_site_fract_z
O1 O 0.17385(11) 0.14120(12) 0.04941(10)
O2 O 0.11627(15) 0.33639(14) -0.03094(11)
O3 O 0.54296(11) 0.04578(11) 0.67363(10)
N1 N 0.16833(13) 0.26465(15) 0.05501(12)
C1 C 0.34756(14) 0.30928(16) 0.37830(13)
C2 C 0.29603(14) 0.25023(16) 0.26714(13)
C3 C 0.22682(14) 0.32911(16) 0.17068(13)
C4 C 0.20852(15) 0.46592(17) 0.17935(14)
C5 C 0.26174(15) 0.52505(17) 0.28955(14)
C6 C 0.32965(15) 0.44777(16) 0.38746(14)
C7 C 0.41680(14) 0.22370(16) 0.48051(14)
C8 C 0.46170(14) 0.26055(16) 0.59296(14)
C9 C 0.53494(14) 0.16722(16) 0.68958(14)
C10 C 0.60212(14) 0.23207(16) 0.80546(13)
C11 C 0.70265(14) 0.17661(16) 0.88844(13)
C12 C 0.78098(14) 0.23472(16) 1.00356(13)
C13 C 0.74719(15) 0.34930(17) 1.04775(14)
C14 C 0.82268(16) 0.39866(17) 1.15834(15)
C15 C 0.93264(16) 0.33433(18) 1.22672(15)
C16 C 0.96719(15) 0.22128(18) 1.18395(15)
C17 C 0.89256(15) 0.17173(17) 1.07295(14)
H1 H 0.30800 0.15890 0.25790
H2 H 0.16180 0.51670 0.11310
H3 H 0.25180 0.61710 0.29780
H4 H 0.36420 0.48870 0.46100
H5 H 0.43070 0.13480 0.46530
H6 H 0.44660 0.34770 0.61140
H7 H 0.57350 0.31380 0.82090
H8 H 0.72550 0.09230 0.87160
H9 H 0.67340 0.39290 1.00270
H10 H 0.79940 0.47530 1.18680
H11 H 0.98280 0.36730 1.30110
H12 H 1.04090 0.17790 1.22970
H13 H 0.91710 0.09590 1.04460
#END
