
#######################################################################
#
#                 Cambridge Crystallographic Data Centre
#                                CCDC
#
#######################################################################
#
# If this CIF has been generated from an entry in the Cambridge
# Structural Database, then it will include bibliographic, chemical,
# crystal, experimental, refinement or atomic coordinate data resulting
# from the CCDC's data processing and validation procedures.
#
#######################################################################

data_CSD_CIF_SAGJAN
_audit_creation_date 2012-02-03
_audit_creation_method CSD-ConQuest-V1
_database_code_CSD SAGJAN
_database_code_depnum_ccdc_archive 'CCDC 861812'
_chemical_formula_sum 'C13 H11 N1 O3'
_chemical_formula_moiety
;
C13 H11 N1 O3
;
_journal_coeditor_code "IUCr PV2490"
_journal_coden_Cambridge 1370
_journal_volume 68
_journal_year 2012
_journal_page_first o114
_journal_name_full 'Acta Crystallogr.,Sect.E:Struct.Rep.Online '
loop_
_publ_author_name
"Xuqiang Chao"
"Xiuqin Zhang"
"Kai Wang"
"Jun Ji"
"Qiang Chen"
_chemical_name_systematic
;
4-Methoxy-3-nitrobiphenyl
;
_cell_volume   2221.951
_exptl_crystal_colour 'colorless'
_exptl_crystal_density_diffrn 1.371
_exptl_crystal_description 'block'
_exptl_crystal_preparation 'ethanol'
_diffrn_ambient_temperature 296
#These two values have been output from a single CSD field.
_refine_ls_R_factor_gt 0.0473
_refine_ls_wR_factor_gt 0.0473
_symmetry_cell_setting orthorhombic
_symmetry_space_group_name_H-M 'P b c a'
_symmetry_Int_Tables_number 61
loop_
_symmetry_equiv_pos_site_id
_symmetry_equiv_pos_as_xyz
1 x,y,z
2 1/2-x,-y,1/2+z
3 1/2+x,1/2-y,-z
4 -x,1/2+y,1/2-z
5 -x,-y,-z
6 -1/2+x,y,-1/2-z
7 -1/2-x,-1/2+y,z
8 x,-1/2-y,-1/2+z
_cell_length_a 7.2464(14)
_cell_length_b 14.416(3)
_cell_length_c 21.270(4)
_cell_angle_alpha 90
_cell_angle_beta 90
_cell_angle_gamma 90
_cell_formula_units_Z 8
loop_
_atom_type_symbol
_atom_type_radius_bond
C 0.68
H 0.23
N 0.68
O 0.68
loop_
_atom_site_label
_atom_site_type_symbol
_atom_site_fract_x
_atom_site_fract_y
_atom_site_fract_z
O1 O 0.0839(2) 0.29025(9) 0.20268(6)
C1 C 0.0647(2) 0.25993(12) 0.37180(9)
H1 H 0.04370 0.21180 0.40000
C2 C 0.1357(2) 0.41652(12) 0.35023(9)
H2 H 0.16290 0.47620 0.36400
C3 C 0.1047(2) 0.34788(12) 0.39446(9)
N1 N 0.0116(2) 0.14832(10) 0.28966(8)
C4 C 0.0557(2) 0.24306(11) 0.30850(9)
C5 C 0.0879(2) 0.31220(12) 0.26371(8)
C6 C 0.1278(3) 0.39972(12) 0.28690(9)
H3 H 0.14960 0.44810 0.25890
C7 C 0.1145(2) 0.36642(12) 0.46247(9)
O2 O 0.0541(3) 0.08624(9) 0.32547(8)
C8 C 0.1229(3) 0.36171(14) 0.15871(9)
H4 H 0.03160 0.40970 0.16230
H5 H 0.12080 0.33660 0.11690
H6 H 0.24280 0.38720 0.16720
O3 O -0.0705(3) 0.13539(11) 0.24097(9)
C9 C 0.2432(3) 0.42742(15) 0.48667(10)
H7 H 0.32260 0.45830 0.45940
C10 C -0.0019(3) 0.32329(14) 0.50488(10)
H8 H -0.09060 0.28200 0.49020
C11 C 0.2562(4) 0.44336(18) 0.55029(11)
H9 H 0.34440 0.48460 0.56540
C12 C 0.0112(3) 0.34047(17) 0.56840(11)
H10 H -0.06980 0.31140 0.59600
C13 C 0.1418(3) 0.39961(17) 0.59124(11)
H11 H 0.15240 0.40980 0.63430
#END
