
#######################################################################
#
#                 Cambridge Crystallographic Data Centre
#                                CCDC
#
#######################################################################
#
# If this CIF has been generated from an entry in the Cambridge
# Structural Database, then it will include bibliographic, chemical,
# crystal, experimental, refinement or atomic coordinate data resulting
# from the CCDC's data processing and validation procedures.
#
#######################################################################

data_CSD_CIF_SAGLES
_audit_creation_date 2004-12-07
_audit_creation_method CSD-ConQuest-V1
_database_code_CSD SAGLES
_database_code_depnum_ccdc_archive 'CCDC 248547'
_chemical_formula_sum 'C17 H19 N1 O6'
_chemical_formula_moiety
;
C17 H19 N1 O6
;
_journal_coden_Cambridge 4
_journal_volume 126
_journal_year 2004
_journal_page_first 9926
_journal_name_full 'J.Am.Chem.Soc. '
loop_
_publ_author_name
"C.Spino"
"H.Rezaei"
"K.Dupont-Gaudet"
"F.Belanger"
_chemical_name_systematic
;
(7a-Methoxy-2,3,4,4a,7,7a-hexahydrocyclopenta(b)pyran-7-yl)methyl 
4-nitrobenzoate
;
_cell_volume    798.065
_exptl_crystal_colour 'colorless'
_exptl_crystal_density_diffrn 1.387
_exptl_crystal_description 'plates'
_diffrn_ambient_temperature 293
#These two values have been output from a single CSD field.
_refine_ls_R_factor_gt 0.074
_refine_ls_wR_factor_gt 0.074
loop_
_citation_database_id_CSD
_citation_special_details
SAGLOC "is a stereoisomer of this entry"
_symmetry_cell_setting triclinic
_symmetry_space_group_name_H-M 'P -1'
_symmetry_Int_Tables_number 2
loop_
_symmetry_equiv_pos_site_id
_symmetry_equiv_pos_as_xyz
1 x,y,z
2 -x,-y,-z
_cell_length_a 7.843(7)
_cell_length_b 10.205(5)
_cell_length_c 10.691(8)
_cell_angle_alpha 83.99(5)
_cell_angle_beta 73.01(7)
_cell_angle_gamma 77.47(6)
_cell_formula_units_Z 2
loop_
_atom_type_symbol
_atom_type_radius_bond
C 0.68
H 0.23
N 0.68
O 0.68
loop_
_atom_site_label
_atom_site_type_symbol
_atom_site_fract_x
_atom_site_fract_y
_atom_site_fract_z
C1 C -0.2289(5) 0.7010(4) 0.5051(4)
C2 C -0.5373(5) 0.8058(5) 0.5116(5)
H1 H -0.57000 0.71910 0.51280
H2 H -0.60860 0.87060 0.46430
C3 C -0.5778(6) 0.8478(5) 0.6481(5)
H3 H -0.70670 0.85540 0.69080
H4 H -0.54750 0.93530 0.64640
C4 C -0.4714(6) 0.7482(5) 0.7243(5)
H5 H -0.51780 0.66550 0.73980
H6 H -0.48760 0.78350 0.80870
C5 C -0.2696(5) 0.7180(4) 0.6520(4)
H7 H -0.21630 0.63280 0.68970
C6 C -0.1566(6) 0.8159(4) 0.6528(5)
H8 H -0.17440 0.86710 0.72420
C7 C -0.0296(6) 0.8236(4) 0.5439(5)
H9 H 0.05740 0.87670 0.53020
C8 C -0.0407(5) 0.7367(4) 0.4432(4)
H10 H 0.05260 0.65470 0.43850
C9 C -0.2116(7) 0.5330(5) 0.3572(5)
H11 H -0.22680 0.44210 0.35760
H12 H -0.08990 0.54010 0.30800
H13 H -0.29640 0.59200 0.31760
C10 C -0.0131(5) 0.8071(4) 0.3087(4)
H14 H -0.05040 0.75760 0.25200
H15 H -0.08810 0.89660 0.31570
C11 C 0.2847(5) 0.7126(4) 0.1841(4)
C12 C 0.4735(5) 0.7326(4) 0.1256(4)
C13 C 0.5278(5) 0.8520(4) 0.1278(4)
H16 H 0.44370 0.92410 0.17010
C14 C 0.7023(6) 0.8662(4) 0.0692(4)
H17 H 0.73860 0.94680 0.07110
C15 C 0.8234(5) 0.7581(4) 0.0071(4)
C16 C 0.7761(5) 0.6376(4) 0.0030(4)
H18 H 0.86070 0.56610 -0.03980
C17 C 0.6010(5) 0.6258(4) 0.0637(4)
H19 H 0.56630 0.54420 0.06360
N1 N 1.0139(5) 0.7708(4) -0.0574(4)
O1 O -0.3476(3) 0.7969(3) 0.4472(3)
O2 O -0.2436(4) 0.5696(3) 0.4875(3)
O3 O 0.1772(3) 0.8165(3) 0.2520(3)
O4 O 0.2329(4) 0.6140(3) 0.1705(3)
O5 O 1.0556(5) 0.8722(4) -0.0553(5)
O6 O 1.1166(4) 0.6745(4) -0.1117(4)
#END
