
#######################################################################
#
#                 Cambridge Crystallographic Data Centre
#                                CCDC
#
#######################################################################
#
# If this CIF has been generated from an entry in the Cambridge
# Structural Database, then it will include bibliographic, chemical,
# crystal, experimental, refinement or atomic coordinate data resulting
# from the CCDC's data processing and validation procedures.
#
#######################################################################

data_CSD_CIF_SAGLOC
_audit_creation_date 2004-12-07
_audit_creation_method CSD-ConQuest-V1
_database_code_CSD SAGLOC
_database_code_depnum_ccdc_archive 'CCDC 248549'
_chemical_formula_sum 'C17 H19 N1 O6'
_chemical_formula_moiety
;
C17 H19 N1 O6
;
_journal_coden_Cambridge 4
_journal_volume 126
_journal_year 2004
_journal_page_first 9926
_journal_name_full 'J.Am.Chem.Soc. '
loop_
_publ_author_name
"C.Spino"
"H.Rezaei"
"K.Dupont-Gaudet"
"F.Belanger"
_chemical_name_systematic
;
(7a-Methoxy-2,3,4,4a,7,7a-hexahydrocyclopenta(b)pyran-7-yl)methyl 
4-nitrobenzoate
;
_cell_volume    806.061
_exptl_crystal_colour 'colorless'
_exptl_crystal_density_diffrn 1.373
_exptl_crystal_description 'plate'
_diffrn_ambient_temperature 293
#These two values have been output from a single CSD field.
_refine_ls_R_factor_gt 0.0459
_refine_ls_wR_factor_gt 0.0459
loop_
_citation_database_id_CSD
_citation_special_details
SAGLES "is a stereoisomer of this entry"
_symmetry_cell_setting triclinic
_symmetry_space_group_name_H-M 'P -1'
_symmetry_Int_Tables_number 2
loop_
_symmetry_equiv_pos_site_id
_symmetry_equiv_pos_as_xyz
1 x,y,z
2 -x,-y,-z
_cell_length_a 7.6242(9)
_cell_length_b 9.0590(9)
_cell_length_c 12.9909(11)
_cell_angle_alpha 94.160(8)
_cell_angle_beta 100.234(8)
_cell_angle_gamma 112.484(8)
_cell_formula_units_Z 2
loop_
_atom_type_symbol
_atom_type_radius_bond
C 0.68
H 0.23
N 0.68
O 0.68
loop_
_atom_site_label
_atom_site_type_symbol
_atom_site_fract_x
_atom_site_fract_y
_atom_site_fract_z
C1 C 0.7234(3) 0.3276(2) 0.65105(15)
C2 C 0.8375(3) 0.1902(3) 0.53079(18)
H1 H 0.85960 0.09240 0.51870
H2 H 0.96180 0.28200 0.54210
C3 C 0.7018(3) 0.1998(3) 0.43567(17)
H3 H 0.57690 0.10870 0.42410
H4 H 0.75490 0.19620 0.37340
C4 C 0.6760(3) 0.3562(3) 0.45383(16)
H5 H 0.57890 0.35890 0.39550
H6 H 0.79780 0.44660 0.45590
C5 C 0.6124(3) 0.3730(2) 0.55738(14)
H7 H 0.63220 0.48600 0.57560
C6 C 0.4060(3) 0.2685(2) 0.55772(17)
H8 H 0.30190 0.24520 0.50060
C7 C 0.3886(3) 0.2135(2) 0.64753(17)
H9 H 0.27090 0.14620 0.66150
C8 C 0.5810(3) 0.2719(2) 0.72530(15)
H10 H 0.59550 0.18230 0.75860
C9 C 1.0352(4) 0.4355(4) 0.7715(2)
H11 H 1.14940 0.53400 0.79610
H12 H 1.07060 0.35430 0.74070
H13 H 0.97760 0.39930 0.82990
C10 C 0.6045(3) 0.4082(3) 0.80878(16)
H14 H 0.73650 0.45360 0.85140
H15 H 0.58200 0.49300 0.77460
C11 C 0.5253(3) 0.2855(3) 0.95834(16)
C12 C 0.3783(3) 0.2314(2) 1.02438(15)
C13 C 0.2014(3) 0.2444(2) 0.99878(15)
H16 H 0.17020 0.28450 0.93740
C14 C 0.0709(3) 0.1984(2) 1.06316(15)
H17 H -0.04910 0.20540 1.04560
C15 C 0.1222(3) 0.1419(2) 1.15377(15)
C16 C 0.2957(3) 0.1248(3) 1.18118(16)
H18 H 0.32590 0.08450 1.24260
C17 C 0.4227(3) 0.1692(3) 1.11503(16)
H19 H 0.54000 0.15730 1.13130
N1 N -0.0130(3) 0.0979(2) 1.22499(14)
O1 O 0.7586(2) 0.18959(16) 0.62318(11)
O2 O 0.8989(2) 0.46365(17) 0.69399(11)
O3 O 0.4677(2) 0.34911(18) 0.87647(10)
O4 O 0.6793(2) 0.2751(3) 0.97763(14)
O5 O -0.1810(2) 0.0772(2) 1.19090(14)
O6 O 0.0488(3) 0.0847(3) 1.31509(14)
#END
