
#######################################################################
#
#                 Cambridge Crystallographic Data Centre
#                                CCDC
#
#######################################################################
#
# If this CIF has been generated from an entry in the Cambridge
# Structural Database, then it will include bibliographic, chemical,
# crystal, experimental, refinement or atomic coordinate data resulting
# from the CCDC's data processing and validation procedures.
#
#######################################################################

data_CSD_CIF_SAGRUN
_audit_creation_date 1989-08-09
_audit_creation_method CSD-ConQuest-V1
_database_code_CSD SAGRUN
_chemical_formula_sum 'C1 H3 N1 O2'
_chemical_formula_moiety
;
C1 H3 N1 O2
;
_journal_coeditor_code "IUCr AB0002"
_journal_coden_Cambridge 622
_journal_volume 44
_journal_year 1988
_journal_page_first 527
_journal_name_full 'Acta Crystallogr.,Sect.B:Struct.Sci. '
loop_
_publ_author_name
"I.K.Larsen"
_chemical_name_systematic
;
Formohydroxamic acid
;
_chemical_melting_point 351
_cell_volume    238.081
_exptl_crystal_colour 'colorless'
_exptl_crystal_density_diffrn 1.703
_exptl_special_details
;
Melting point range 351-352K
inhibitory activity against metal-containing enzymes
dm=1.64 at 293 deg.K
;
_diffrn_ambient_temperature 105
#These two values have been output from a single CSD field.
_refine_ls_R_factor_gt 0.03
_refine_ls_wR_factor_gt 0.03
_symmetry_cell_setting monoclinic
_symmetry_space_group_name_H-M 'C c'
_symmetry_Int_Tables_number 9
loop_
_symmetry_equiv_pos_site_id
_symmetry_equiv_pos_as_xyz
1 x,y,z
2 1/2+x,1/2+y,z
3 x,-y,1/2+z
4 1/2+x,1/2-y,1/2+z
_cell_length_a 3.636(3)
_cell_length_b 9.745(2)
_cell_length_c 7.512(3)
_cell_angle_alpha 90
_cell_angle_beta 116.56(4)
_cell_angle_gamma 90
_cell_formula_units_Z 4
loop_
_atom_type_symbol
_atom_type_radius_bond
C 0.68
H 0.23
N 0.68
O 0.68
loop_
_atom_site_label
_atom_site_type_symbol
_atom_site_fract_x
_atom_site_fract_y
_atom_site_fract_z
O1 O 0.50000 0.6122(1) 0.41050
N1 N 0.7679(5) 0.5146(1) 0.5367(3)
C1 C 0.6613(5) 0.3850(1) 0.5044(3)
O2 O 0.3467(5) 0.3396(1) 0.3589(3)
H1 H 0.633(10) 0.677(3) 0.386(5)
H2 H 0.961(9) 0.546(3) 0.656(4)
H3 H 0.853(9) 0.322(3) 0.612(5)
#END
