
#######################################################################
#
#                 Cambridge Crystallographic Data Centre
#                                CCDC
#
#######################################################################
#
# If this CIF has been generated from an entry in the Cambridge
# Structural Database, then it will include bibliographic, chemical,
# crystal, experimental, refinement or atomic coordinate data resulting
# from the CCDC's data processing and validation procedures.
#
#######################################################################

data_CSD_CIF_SAGRAT
_audit_creation_date 1989-08-09
_audit_creation_method CSD-ConQuest-V1
_database_code_CSD SAGRAT
_chemical_formula_sum 'C14 H11 N1 O4'
_chemical_formula_moiety
;
C14 H11 N1 O4
;
_journal_coeditor_code "IUCr AN0187"
_journal_coden_Cambridge 591
_journal_volume 45
_journal_year 1989
_journal_page_first 234
_journal_name_full 'Acta Crystallogr.,Sect.C:Cryst.Struct.Commun. '
loop_
_publ_author_name
"P.G.Jones"
"A.Dolle"
"A.J.Kirby"
"J.K.Parker"
_chemical_name_systematic
;
Benzyl 4-nitrobenzoate
;
_chemical_melting_point 379
_cell_volume   1251.438
_exptl_crystal_colour 'yellow'
_exptl_crystal_density_diffrn 1.37
_exptl_special_details
;
Melting point range 379-380K

;
_diffrn_ambient_temperature ?
_diffrn_special_details
;
The study was carried out at room temperature,in the range 283-303K

;
#These two values have been output from a single CSD field.
_refine_ls_R_factor_gt 0.053
_refine_ls_wR_factor_gt 0.053
_symmetry_cell_setting monoclinic
_symmetry_space_group_name_H-M 'P 21/n'
_symmetry_Int_Tables_number 14
loop_
_symmetry_equiv_pos_site_id
_symmetry_equiv_pos_as_xyz
1 x,y,z
2 1/2-x,1/2+y,1/2-z
3 -x,-y,-z
4 -1/2+x,-1/2-y,-1/2+z
_cell_length_a 6.180(2)
_cell_length_b 7.717(2)
_cell_length_c 26.277(6)
_cell_angle_alpha 90
_cell_angle_beta 93.02(2)
_cell_angle_gamma 90
_cell_formula_units_Z 4
loop_
_atom_type_symbol
_atom_type_radius_bond
C 0.68
H 0.23
N 0.68
O 0.68
loop_
_atom_site_label
_atom_site_type_symbol
_atom_site_fract_x
_atom_site_fract_y
_atom_site_fract_z
O1 O 0.3391(2) 0.4148(2) 0.6382(1)
C1 C 0.2349(2) 0.4180(2) 0.5928(1)
O2 O 0.0590(2) 0.4816(2) 0.5852(1)
C2 C 0.3615(2) 0.3386(2) 0.5522(1)
C3 C 0.5701(2) 0.2748(2) 0.5616(1)
C4 C 0.6820(2) 0.2039(2) 0.5226(1)
C5 C 0.5824(2) 0.1994(2) 0.4745(1)
N1 N 0.7004(2) 0.1246(2) 0.4326(1)
O3 O 0.6123(2) 0.1240(2) 0.3901(1)
O4 O 0.8807(2) 0.0652(2) 0.4423(1)
C6 C 0.3761(2) 0.2624(2) 0.4640(1)
C7 C 0.2667(2) 0.3313(2) 0.5031(1)
C8 C 0.2301(3) 0.4955(3) 0.6798(1)
C9 C 0.3959(2) 0.5299(2) 0.7221(1)
C10 C 0.5916(3) 0.6063(2) 0.7127(1)
C11 C 0.7429(3) 0.6393(3) 0.7517(1)
C12 C 0.7011(4) 0.5968(3) 0.8005(1)
C13 C 0.5057(4) 0.5247(3) 0.8108(1)
C14 C 0.3526(3) 0.4900(2) 0.7717(1)
H1 H 0.63660 0.27990 0.59540
H2 H 0.82570 0.15890 0.52880
H3 H 0.31080 0.25810 0.43010
H4 H 0.12250 0.37520 0.49660
H5 H 0.16460 0.60250 0.66840
H6 H 0.12050 0.41910 0.69140
H7 H 0.62260 0.63690 0.67840
H8 H 0.87840 0.69240 0.74460
H9 H 0.80840 0.61720 0.82760
H10 H 0.47440 0.49810 0.84530
H11 H 0.21660 0.43820 0.77910
#END
