
#######################################################################
#
#                 Cambridge Crystallographic Data Centre
#                                CCDC
#
#######################################################################
#
# If this CIF has been generated from an entry in the Cambridge
# Structural Database, then it will include bibliographic, chemical,
# crystal, experimental, refinement or atomic coordinate data resulting
# from the CCDC's data processing and validation procedures.
#
#######################################################################

data_CSD_CIF_SAGWOP
_audit_creation_date 2016-01-04
_audit_creation_method CSD-ConQuest-V1
_database_code_CSD SAGWOP
_database_code_depnum_ccdc_archive 'CCDC 1414995'
_chemical_formula_sum 'C31 H27 N3 O3'
_chemical_formula_moiety
;
C31 H27 N3 O3
;
_journal_coden_Cambridge 35
_journal_volume 81
_journal_year 2016
_journal_page_first 185
_journal_name_full 'J.Org.Chem. '
loop_
_publ_author_name
"Wei Dai"
"Xiao-Li Jiang"
"Ji-Yu Tao"
"Feng Shi"
_chemical_name_systematic
;
6-methoxy-4-(3-methyl-1H-indol-2-yl)-2-(4-nitrophenyl)-3-phenyl-1,2,3,4-tetrah
ydroquinoline
;
_cell_volume   1220.932
_exptl_crystal_colour 'colorless'
_exptl_crystal_density_diffrn 1.332
_exptl_special_details
;
Absolute configuration

;
_exptl_crystal_description 'block'
_diffrn_ambient_temperature 130
#These two values have been output from a single CSD field.
_refine_ls_R_factor_gt 0.0685
_refine_ls_wR_factor_gt 0.0685
_symmetry_cell_setting monoclinic
_symmetry_space_group_name_H-M 'P 21'
_symmetry_Int_Tables_number 4
loop_
_symmetry_equiv_pos_site_id
_symmetry_equiv_pos_as_xyz
1 x,y,z
2 -x,1/2+y,-z
_cell_length_a 6.5466(2)
_cell_length_b 9.2228(3)
_cell_length_c 20.4337(7)
_cell_angle_alpha 90
_cell_angle_beta 98.265(2)
_cell_angle_gamma 90
_cell_formula_units_Z 2
loop_
_atom_type_symbol
_atom_type_radius_bond
C 0.68
H 0.23
N 0.68
O 0.68
loop_
_atom_site_label
_atom_site_type_symbol
_atom_site_fract_x
_atom_site_fract_y
_atom_site_fract_z
O1 O 1.1123(6) 0.3488(5) 0.3611(2)
O2 O -0.5385(8) 0.2773(8) -0.0218(3)
O3 O -0.4590(7) 0.0753(6) -0.0625(2)
N1 N 0.4079(7) 0.3201(6) 0.1724(2)
H1 H 0.30800 0.37430 0.18090
N2 N 0.3182(7) 0.0683(6) 0.3626(2)
H2 H 0.24090 0.14450 0.35070
N3 N -0.4201(8) 0.1779(7) -0.0250(3)
C1 C 0.3381(9) 0.1747(7) 0.1536(3)
H3 H 0.44850 0.12280 0.13370
C2 C 0.2998(8) 0.0960(7) 0.2174(3)
H4 H 0.20950 0.16000 0.24050
C3 C 0.5056(8) 0.0769(6) 0.2639(3)
H5 H 0.58650 0.00290 0.24280
C4 C 0.6321(8) 0.2174(6) 0.2674(3)
C5 C 0.5794(8) 0.3308(7) 0.2227(3)
C6 C 0.7002(9) 0.4561(7) 0.2280(3)
H6 H 0.65900 0.53600 0.19980
C7 C 0.8783(8) 0.4670(7) 0.2732(3)
H7 H 0.96060 0.55210 0.27490
C8 C 0.9356(8) 0.3530(7) 0.3160(3)
C9 C 0.8097(9) 0.2303(7) 0.3136(3)
H8 H 0.84600 0.15380 0.34420
C10 C 1.2403(11) 0.4755(9) 0.3665(4)
H9 H 1.30260 0.48710 0.32590
H10 H 1.34960 0.46520 0.40440
H11 H 1.15640 0.56100 0.37280
C11 C 0.4726(8) 0.0155(7) 0.3295(3)
C12 C 0.5613(9) -0.1059(7) 0.3627(3)
C13 C 0.4537(9) -0.1273(7) 0.4178(3)
C14 C 0.4674(10) -0.2334(7) 0.4680(3)
H12 H 0.56820 -0.30800 0.47010
C15 C 0.3337(11) -0.2275(8) 0.5136(3)
H13 H 0.34170 -0.29900 0.54730
C16 C 0.1858(10) -0.1180(9) 0.5112(3)
H14 H 0.09300 -0.11780 0.54290
C17 C 0.1706(9) -0.0097(7) 0.4639(3)
H15 H 0.07270 0.06640 0.46360
C18 C 0.3045(8) -0.0167(6) 0.4169(3)
C19 C 0.7286(11) -0.2009(9) 0.3442(3)
H16 H 0.67070 -0.29540 0.32940
H17 H 0.83500 -0.21430 0.38260
H18 H 0.79010 -0.15540 0.30830
C20 C 0.1832(8) -0.0461(7) 0.2010(2)
C21 C -0.0287(9) -0.0435(7) 0.1857(3)
H19 H -0.10140 0.04170 0.19470
C22 C -0.1393(9) -0.1626(8) 0.1575(3)
H20 H -0.28450 -0.15660 0.14510
C23 C -0.0357(10) -0.2887(8) 0.1479(3)
H21 H -0.10850 -0.37000 0.12770
C24 C 0.1735(11) -0.2965(8) 0.1676(3)
H22 H 0.24320 -0.38560 0.16340
C25 C 0.2850(9) -0.1770(7) 0.1937(3)
H23 H 0.43000 -0.18390 0.20650
C26 C 0.1451(9) 0.1828(7) 0.1035(3)
C27 C -0.0061(9) 0.2856(7) 0.1099(3)
H24 H 0.01810 0.35660 0.14380
C28 C -0.1906(9) 0.2862(7) 0.0678(3)
H25 H -0.29290 0.35750 0.07160
C29 C -0.2223(9) 0.1789(7) 0.0193(3)
C30 C -0.0746(10) 0.0779(8) 0.0107(3)
H26 H -0.09920 0.00720 -0.02330
C31 C 0.1110(9) 0.0814(7) 0.0527(3)
H27 H 0.21630 0.01380 0.04680
#END
