
#######################################################################
#
#                 Cambridge Crystallographic Data Centre
#                                CCDC
#
#######################################################################
#
# If this CIF has been generated from an entry in the Cambridge
# Structural Database, then it will include bibliographic, chemical,
# crystal, experimental, refinement or atomic coordinate data resulting
# from the CCDC's data processing and validation procedures.
#
#######################################################################

data_CSD_CIF_SAGZOR
_audit_creation_date 2012-02-16
_audit_creation_method CSD-ConQuest-V1
_database_code_CSD SAGZOR
_database_code_depnum_ccdc_archive 'CCDC 861887'
_chemical_formula_sum 'C8 H5 N1 O6'
_chemical_formula_moiety
;
C8 H5 N1 O6
;
_journal_coeditor_code "IUCr ZS2171"
_journal_coden_Cambridge 1370
_journal_volume 68
_journal_year 2012
_journal_page_first o206
_journal_name_full 'Acta Crystallogr.,Sect.E:Struct.Rep.Online '
loop_
_publ_author_name
"Yang-Hui Luo"
"Mei-Ling Pan"
_chemical_name_systematic
;
4-nitrobenzene-1,3-dicarboxylic acid
;
_chemical_name_common
;
4-Nitroisophthalic acid
;
_cell_volume    427.137
_exptl_crystal_colour 'red'
_exptl_crystal_density_diffrn 1.642
_exptl_crystal_description 'prism'
_exptl_crystal_preparation 'methanol'
_diffrn_ambient_temperature 293
#These two values have been output from a single CSD field.
_refine_ls_R_factor_gt 0.0916
_refine_ls_wR_factor_gt 0.0916
_symmetry_cell_setting triclinic
_symmetry_space_group_name_H-M 'P -1'
_symmetry_Int_Tables_number 2
loop_
_symmetry_equiv_pos_site_id
_symmetry_equiv_pos_as_xyz
1 x,y,z
2 -x,-y,-z
_cell_length_a 7.0261(14)
_cell_length_b 7.4380(15)
_cell_length_c 8.5775(17)
_cell_angle_alpha 80.09(3)
_cell_angle_beta 86.22(3)
_cell_angle_gamma 75.37(3)
_cell_formula_units_Z 2
loop_
_atom_type_symbol
_atom_type_radius_bond
C 0.68
H 0.23
N 0.68
O 0.68
loop_
_atom_site_label
_atom_site_type_symbol
_atom_site_fract_x
_atom_site_fract_y
_atom_site_fract_z
O1 O 0.7042(7) 0.0658(7) 0.5109(6)
O2 O 0.8052(7) -0.0122(8) 0.2874(6)
O3 O 0.9385(6) 0.3293(8) 0.4061(6)
O4 O 0.7716(6) 0.6167(8) 0.4485(6)
O5 O 0.2226(6) 0.9309(7) 0.0974(5)
O6 O 0.0288(6) 0.7626(7) 0.0224(6)
N1 N 0.7089(7) 0.1015(8) 0.3680(6)
C1 C 0.7884(8) 0.4702(9) 0.3938(7)
C2 C 0.6144(7) 0.4407(9) 0.3070(6)
C3 C 0.5813(8) 0.2668(9) 0.2931(7)
C4 C 0.4265(8) 0.2656(9) 0.2113(7)
C5 C 0.2929(8) 0.4233(10) 0.1433(7)
C6 C 0.4838(7) 0.6123(9) 0.2397(6)
C7 C 0.3223(7) 0.5954(10) 0.1615(6)
C8 C 0.1809(8) 0.7812(9) 0.0882(7)
H1 H 0.87560 0.63520 0.48410
H2 H 0.40800 0.14920 0.19970
H3 H 0.13830 1.03360 0.05700
H4 H 0.18720 0.41500 0.08750
H5 H 0.50480 0.72900 0.24730
#END
