
#######################################################################
#
#                 Cambridge Crystallographic Data Centre
#                                CCDC
#
#######################################################################
#
# If this CIF has been generated from an entry in the Cambridge
# Structural Database, then it will include bibliographic, chemical,
# crystal, experimental, refinement or atomic coordinate data resulting
# from the CCDC's data processing and validation procedures.
#
#######################################################################

data_CSD_CIF_SAHCAH
_audit_creation_date 2012-02-16
_audit_creation_method CSD-ConQuest-V1
_database_code_CSD SAHCAH
_database_code_depnum_ccdc_archive 'CCDC 861894'
_chemical_formula_sum 'C16 H21 N2 O5'
_chemical_formula_moiety
;
C16 H21 N2 O5
;
_journal_coeditor_code "IUCr HG5154"
_journal_coden_Cambridge 1370
_journal_volume 68
_journal_year 2012
_journal_page_first o217
_journal_name_full 'Acta Crystallogr.,Sect.E:Struct.Rep.Online '
loop_
_publ_author_name
"Hai-Bo Wang"
"Lin-Lin Jing"
"Xiao-Li Sun"
_chemical_name_systematic
;
Methyl 
2-([2-(4,4,5,5-tetramethyl-1,3-dioxyl-4,5-dihydroimidazol-2-yl)phenyl]oxy)acet
ate
;
_cell_volume   1659.830
_exptl_crystal_colour 'red'
_exptl_crystal_density_diffrn 1.286
_exptl_crystal_description 'block'
_exptl_crystal_preparation 'hexane/dichloromethane'
_diffrn_ambient_temperature 296
#These two values have been output from a single CSD field.
_refine_ls_R_factor_gt 0.06
_refine_ls_wR_factor_gt 0.06
_symmetry_cell_setting monoclinic
_symmetry_space_group_name_H-M 'P 21/c'
_symmetry_Int_Tables_number 14
loop_
_symmetry_equiv_pos_site_id
_symmetry_equiv_pos_as_xyz
1 x,y,z
2 -x,1/2+y,1/2-z
3 -x,-y,-z
4 x,-1/2-y,-1/2+z
_cell_length_a 11.421(6)
_cell_length_b 7.381(4)
_cell_length_c 19.700(11)
_cell_angle_alpha 90
_cell_angle_beta 91.832(6)
_cell_angle_gamma 90
_cell_formula_units_Z 4
loop_
_atom_type_symbol
_atom_type_radius_bond
C 0.68
H 0.23
N 0.68
O 0.68
loop_
_atom_site_label
_atom_site_type_symbol
_atom_site_fract_x
_atom_site_fract_y
_atom_site_fract_z
C1 C 0.2619(4) 1.4589(6) -0.1296(2)
H1 H 0.22190 1.35110 -0.14470
H2 H 0.29990 1.51380 -0.16730
H3 H 0.20650 1.54240 -0.11170
C2 C 0.3169(3) 1.2963(5) -0.03053(17)
C3 C 0.4199(3) 1.2593(4) 0.01652(17)
H4 H 0.48690 1.22220 -0.00920
H5 H 0.44090 1.36780 0.04190
C4 C 0.4695(3) 1.0655(4) 0.10896(18)
C5 C 0.5846(3) 1.1206(5) 0.1134(2)
H6 H 0.61300 1.20360 0.08250
C6 C 0.6575(3) 1.0515(5) 0.1642(2)
H7 H 0.73530 1.08870 0.16700
C7 C 0.6184(3) 0.9304(5) 0.2103(2)
H8 H 0.66840 0.88650 0.24460
C8 C 0.5027(3) 0.8732(5) 0.2053(2)
H9 H 0.47530 0.78930 0.23620
C9 C 0.4280(3) 0.9395(4) 0.15493(18)
C10 C 0.3067(3) 0.8761(4) 0.14568(16)
C11 C 0.1010(3) 0.8621(4) 0.14948(16)
C12 C 0.1454(3) 0.7110(4) 0.10154(17)
C13 C 0.0269(4) 1.0061(6) 0.1154(2)
H10 H 0.00680 1.09630 0.14820
H11 H -0.04340 0.95230 0.09650
H12 H 0.06990 1.06160 0.07980
C14 C 0.0445(5) 0.7921(6) 0.2134(2)
H13 H 0.09160 0.69660 0.23300
H14 H -0.03240 0.74650 0.20200
H15 H 0.03850 0.88910 0.24560
C15 C 0.1063(6) 0.7353(9) 0.0277(2)
H16 H 0.12670 0.85470 0.01290
H17 H 0.02300 0.71950 0.02330
H18 H 0.14450 0.64700 0.00030
C16 C 0.1231(4) 0.5185(5) 0.1239(3)
H19 H 0.16440 0.43630 0.09540
H20 H 0.04070 0.49340 0.12030
H21 H 0.15010 0.50350 0.17020
N1 N 0.2724(2) 0.7420(4) 0.10481(18)
N2 N 0.2136(2) 0.9510(4) 0.17210(14)
O1 O 0.3482(2) 1.4130(3) -0.07761(13)
O2 O 0.2212(2) 1.2324(4) -0.02691(14)
O3 O 0.38813(19) 1.1206(3) 0.06102(13)
O4 O 0.3397(3) 0.6491(5) 0.0681(2)
O5 O 0.2140(2) 1.0877(5) 0.21176(16)
#END
