
#######################################################################
#
#                 Cambridge Crystallographic Data Centre
#                                CCDC
#
#######################################################################
#
# If this CIF has been generated from an entry in the Cambridge
# Structural Database, then it will include bibliographic, chemical,
# crystal, experimental, refinement or atomic coordinate data resulting
# from the CCDC's data processing and validation procedures.
#
#######################################################################

data_CSD_CIF_SAHHUG
_audit_creation_date 2012-02-16
_audit_creation_method CSD-ConQuest-V1
_database_code_CSD SAHHUG
_database_code_depnum_ccdc_archive 'CCDC 861918'
_chemical_formula_sum 'C21 H21 N1 O6'
_chemical_formula_moiety
;
C21 H21 N1 O6
;
_journal_coeditor_code "IUCr FF2047"
_journal_coden_Cambridge 1370
_journal_volume 68
_journal_year 2012
_journal_page_first o245
_journal_name_full 'Acta Crystallogr.,Sect.E:Struct.Rep.Online '
loop_
_publ_author_name
"J.H.Cha"
"Y.H.Kim"
"J.K.Lee"
"Y.S.Cho"
_chemical_name_systematic
;
(E)-2,2'-[3-(2-Nitrophenyl)prop-2-ene-1,1-diyl]bis(3-hydroxycyclohex-2-en-1-on
e)
;
_cell_volume   1851.086
_exptl_crystal_colour 'colorless'
_exptl_crystal_density_diffrn 1.376
_exptl_crystal_description 'block'
_exptl_crystal_preparation 'ethanol'
_diffrn_ambient_temperature 296
#These two values have been output from a single CSD field.
_refine_ls_R_factor_gt 0.0452
_refine_ls_wR_factor_gt 0.0452
_symmetry_cell_setting monoclinic
_symmetry_space_group_name_H-M 'P 21/n'
_symmetry_Int_Tables_number 14
loop_
_symmetry_equiv_pos_site_id
_symmetry_equiv_pos_as_xyz
1 x,y,z
2 1/2-x,1/2+y,1/2-z
3 -x,-y,-z
4 -1/2+x,-1/2-y,-1/2+z
_cell_length_a 8.0785(7)
_cell_length_b 8.7261(6)
_cell_length_c 26.2616(17)
_cell_angle_alpha 90
_cell_angle_beta 90.829(3)
_cell_angle_gamma 90
_cell_formula_units_Z 4
loop_
_atom_type_symbol
_atom_type_radius_bond
C 0.68
H 0.23
N 0.68
O 0.68
loop_
_atom_site_label
_atom_site_type_symbol
_atom_site_fract_x
_atom_site_fract_y
_atom_site_fract_z
O1 O 0.45785(19) 0.22041(16) 0.07963(5)
O2 O 0.3744(3) 0.49657(15) 0.22975(5)
O3 O 0.4192(2) 0.24905(17) 0.28520(5)
O4 O 0.5653(3) -0.00381(17) 0.13489(6)
O5 O -0.1568(3) 0.3544(2) 0.09158(9)
O6 O -0.1984(3) 0.3325(3) 0.01141(8)
N1 N -0.1634(3) 0.2779(3) 0.05255(8)
C1 C 0.4594(3) 0.1130(2) 0.20880(7)
C2 C 0.5667(3) 0.0171(2) 0.18386(8)
C3 C 0.6980(3) -0.0716(3) 0.21168(10)
C4 C 0.6446(4) -0.1116(3) 0.26478(10)
C5 C 0.5914(4) 0.0305(3) 0.29310(9)
C6 C 0.4847(3) 0.1371(3) 0.26209(8)
C7 C 0.3883(3) 0.4839(3) 0.18035(8)
C8 C 0.4224(4) 0.6324(3) 0.15382(8)
C9 C 0.3716(4) 0.6286(3) 0.09916(9)
C10 C 0.4457(4) 0.4907(3) 0.07317(9)
C11 C 0.4256(3) 0.3441(3) 0.10290(8)
C12 C 0.3761(3) 0.3469(2) 0.15437(7)
C13 C 0.3217(3) 0.2019(2) 0.18202(7)
C14 C 0.2077(3) 0.0996(3) 0.15054(8)
C15 C 0.0903(3) 0.1434(3) 0.12109(10)
C16 C -0.0262(3) 0.0497(3) 0.09109(7)
C17 C -0.0204(3) -0.1105(3) 0.09304(8)
C18 C -0.1205(4) -0.2002(3) 0.06219(9)
C19 C -0.2285(4) -0.1343(3) 0.02791(9)
C20 C -0.2383(3) 0.0213(3) 0.02454(8)
C21 C -0.1403(3) 0.1105(3) 0.05629(7)
H1 H 0.37810 0.41120 0.24280
H2 H 0.51660 0.06750 0.12090
H3 H 0.79880 -0.01120 0.21350
H4 H 0.72170 -0.16490 0.19310
H5 H 0.55320 -0.18370 0.26300
H6 H 0.73560 -0.16030 0.28310
H7 H 0.53120 -0.00030 0.32310
H8 H 0.68950 0.08560 0.30450
H9 H 0.36320 0.71420 0.17080
H10 H 0.53980 0.65480 0.15640
H11 H 0.40830 0.72150 0.08250
H12 H 0.25180 0.62410 0.09640
H13 H 0.39360 0.47850 0.03990
H14 H 0.56270 0.50910 0.06800
H15 H 0.25230 0.23920 0.20970
H16 H 0.221(6) -0.001(4) 0.1592(14)
H17 H 0.083(5) 0.251(5) 0.1152(14)
H18 H 0.05290 -0.15770 0.11570
H19 H -0.11450 -0.30640 0.06470
H20 H -0.29490 -0.19560 0.00700
H21 H -0.31020 0.06700 0.00110
#END
