
#######################################################################
#
#                 Cambridge Crystallographic Data Centre
#                                CCDC
#
#######################################################################
#
# If this CIF has been generated from an entry in the Cambridge
# Structural Database, then it will include bibliographic, chemical,
# crystal, experimental, refinement or atomic coordinate data resulting
# from the CCDC's data processing and validation procedures.
#
#######################################################################

data_CSD_CIF_SAHPUO
_audit_creation_date 2012-02-03
_audit_creation_method CSD-ConQuest-V1
_database_code_CSD SAHPUO
_database_code_depnum_ccdc_archive 'CCDC 860180'
_chemical_formula_sum 'C12 H21 N1 O2'
_chemical_formula_moiety
;
C12 H21 N1 O2
;
_journal_coden_Cambridge 4
_journal_volume 133
_journal_year 2011
_journal_page_first 13880
_journal_name_full 'J.Am.Chem.Soc. '
loop_
_publ_author_name
"M.Baidya"
"H.Yamamoto"
_chemical_name_systematic
;
2-(Hydroxyimino)cyclododecanone
;
_cell_volume    590.719
_exptl_crystal_density_diffrn 1.188
_diffrn_ambient_temperature 100
#These two values have been output from a single CSD field.
_refine_ls_R_factor_gt 0.0527
_refine_ls_wR_factor_gt 0.0527
_symmetry_cell_setting triclinic
_symmetry_space_group_name_H-M 'P -1'
_symmetry_Int_Tables_number 2
loop_
_symmetry_equiv_pos_site_id
_symmetry_equiv_pos_as_xyz
1 x,y,z
2 -x,-y,-z
_cell_length_a 5.492(4)
_cell_length_b 8.188(6)
_cell_length_c 13.97(1)
_cell_angle_alpha 96.069(12)
_cell_angle_beta 100.109(11)
_cell_angle_gamma 104.700(11)
_cell_formula_units_Z 2
loop_
_atom_type_symbol
_atom_type_radius_bond
C 0.68
H 0.23
N 0.68
O 0.68
loop_
_atom_site_label
_atom_site_type_symbol
_atom_site_fract_x
_atom_site_fract_y
_atom_site_fract_z
C1 C 0.7846(3) 0.80643(18) 0.4151(1)
C2 C 0.7902(3) 0.62742(18) 0.4266(1)
H1 H 0.69980 0.59070 0.47940
H2 H 0.97110 0.62470 0.44650
C3 C 0.6616(3) 0.50249(18) 0.33055(11)
H3 H 0.75150 0.54050 0.27790
H4 H 0.68110 0.38790 0.33970
C4 C 0.3753(3) 0.48864(19) 0.29769(10)
H5 H 0.35140 0.60470 0.30620
H6 H 0.27870 0.42180 0.34090
C5 C 0.2617(3) 0.40376(19) 0.19029(11)
H7 H 0.30530 0.29400 0.17970
H8 H 0.07180 0.37770 0.17850
C6 C 0.3581(3) 0.51351(19) 0.11539(11)
H9 H 0.30620 0.44230 0.04940
H10 H 0.54860 0.55210 0.13250
C7 C 0.2554(3) 0.6707(2) 0.11044(11)
H11 H 0.08040 0.63490 0.06810
H12 H 0.24020 0.71410 0.17740
C8 C 0.4219(3) 0.8165(2) 0.07073(11)
H13 H 0.32680 0.90280 0.05900
H14 H 0.45170 0.77090 0.00660
C9 C 0.6828(3) 0.9043(2) 0.13990(11)
H15 H 0.76750 0.81610 0.15940
H16 H 0.79380 0.97900 0.10400
C10 C 0.6603(3) 1.01161(19) 0.23276(11)
H17 H 0.51230 0.94760 0.25780
H18 H 0.62440 1.11850 0.21530
C11 C 0.9032(3) 1.05735(18) 0.31495(11)
H19 H 1.05360 1.11710 0.28970
H20 H 0.88330 1.13590 0.37010
C12 C 0.9500(3) 0.89868(18) 0.35181(10)
N1 N 0.6571(2) 0.89502(15) 0.45599(8)
O1 O 1.11564(19) 0.83726(13) 0.32854(7)
O2 O 0.5142(2) 0.80916(13) 0.51819(8)
H21 H 0.44180 0.87450 0.54520
#END
