
#######################################################################
#
#                 Cambridge Crystallographic Data Centre
#                                CCDC
#
#######################################################################
#
# If this CIF has been generated from an entry in the Cambridge
# Structural Database, then it will include bibliographic, chemical,
# crystal, experimental, refinement or atomic coordinate data resulting
# from the CCDC's data processing and validation procedures.
#
#######################################################################

data_CSD_CIF_SAHPEW
_audit_creation_date 1989-08-09
_audit_creation_method CSD-ConQuest-V1
_database_code_CSD SAHPEW
_chemical_formula_sum 'C20 H26 N2 O6'
_chemical_formula_moiety
;
C20 H26 N2 O6
;
_journal_coden_Cambridge 35
_journal_volume 54
_journal_year 1989
_journal_page_first 793
_journal_name_full 'J.Org.Chem. '
loop_
_publ_author_name
"M.de Amici"
"C.de Micheli"
"A.Ortisi"
"G.Gatti"
"R.Gandolfi"
"L.Toma"
_chemical_name_systematic
;
1,2-O-Isopropylidene-3-carbamoyl-4-(3-mesityl-2-isoxazolin-5-yl)-\b-L-threofur
anose
;
_cell_volume   1033.045
_exptl_crystal_colour 'colorless'
_exptl_crystal_density_diffrn 1.26
_exptl_special_details
;
The coords of N7 have been supplied by the author

;
_diffrn_ambient_temperature ?
_diffrn_special_details
;
The study was carried out at room temperature,in the range 283-303K

;
#These two values have been output from a single CSD field.
_refine_ls_R_factor_gt 0.0343
_refine_ls_wR_factor_gt 0.0343
_symmetry_cell_setting monoclinic
_symmetry_space_group_name_H-M 'P 21'
_symmetry_Int_Tables_number 4
loop_
_symmetry_equiv_pos_site_id
_symmetry_equiv_pos_as_xyz
1 x,y,z
2 -x,1/2+y,-z
_cell_length_a 13.401(3)
_cell_length_b 9.620(2)
_cell_length_c 8.016(2)
_cell_angle_alpha 90
_cell_angle_beta 91.51(2)
_cell_angle_gamma 90
_cell_formula_units_Z 2
loop_
_atom_type_symbol
_atom_type_radius_bond
C 0.68
H 0.23
N 0.68
O 0.68
loop_
_atom_site_label
_atom_site_type_symbol
_atom_site_fract_x
_atom_site_fract_y
_atom_site_fract_z
O1 O 0.9591(2) 0.4472(4) 0.3501(3)
O2 O 0.8070(2) 0.3693(4) 0.2457(3)
C1 C 0.8569(3) 0.4273(5) 0.3843(4)
O3 O 0.8126(2) 0.1979(4) 0.4371(3)
C2 C 0.8516(3) 0.3163(5) 0.5215(4)
O4 O 0.9866(2) 0.3924(4) 0.7000(2)
C3 C 0.9598(3) 0.2915(5) 0.5738(4)
C4 C 1.0150(2) 0.33000 0.4156(4)
O5 O 1.1807(2) 0.2517(4) 0.4795(3)
C5 C 1.1225(3) 0.3746(5) 0.4355(4)
C6 C 1.1677(3) 0.4271(5) 0.2739(5)
C7 C 1.2574(2) 0.3357(5) 0.2631(4)
N1 N 1.2636(2) 0.2412(5) 0.3723(4)
C8 C 1.3344(2) 0.3551(5) 0.1341(4)
C9 C 1.3256(3) 0.2912(5) -0.0219(5)
C10 C 1.3968(3) 0.3200(6) -0.1401(5)
C11 C 1.4760(3) 0.4073(6) -0.1075(5)
C12 C 1.4819(3) 0.4724(6) 0.0451(5)
C13 C 1.4122(2) 0.4464(5) 0.1673(4)
C14 C 1.2396(4) 0.1951(6) -0.0644(6)
C15 C 1.5540(3) 0.4351(7) -0.2363(6)
C16 C 1.4223(4) 0.5224(7) 0.3296(6)
O6 O 0.9478(3) 0.2352(4) 0.8970(3)
N2 N 0.9736(2) 0.4605(5) 0.9624(3)
C17 C 0.9671(3) 0.3525(5) 0.8596(4)
C18 C 0.7579(3) 0.2434(5) 0.2918(4)
C19 C 0.7698(4) 0.1382(6) 0.1559(6)
C20 C 0.6524(3) 0.2732(7) 0.3289(5)
H1 H 0.82800 0.52500 0.42100
H2 H 0.81200 0.34600 0.62400
H3 H 0.97400 0.19400 0.60800
H4 H 1.01300 0.25200 0.33000
H5 H 1.12500 0.44800 0.53000
H6 H 1.18500 0.53200 0.27700
H7 H 1.11900 0.41800 0.17200
H8 H 1.39200 0.26500 -0.25600
H9 H 1.53800 0.54700 0.06600
H10 H 1.22800 0.14900 -0.17100
H11 H 1.17400 0.24800 -0.04000
H12 H 1.24400 0.11800 0.02500
H13 H 1.55100 0.38400 -0.35300
H14 H 1.62400 0.41200 -0.19400
H15 H 1.55600 0.53700 -0.27200
H16 H 1.47800 0.59300 0.36000
H17 H 1.43000 0.45000 0.42100
H18 H 1.35900 0.57600 0.35200
H19 H 0.96300 0.44200 1.08600
H20 H 0.99300 0.56700 0.94500
H21 H 0.73400 0.04800 0.18200
H22 H 0.84200 0.11700 0.13800
H23 H 0.74000 0.17200 0.04300
H24 H 0.61300 0.18600 0.36200
H25 H 0.61400 0.31500 0.23000
H26 H 0.64600 0.34200 0.42500
#END
