
#######################################################################
#
#                 Cambridge Crystallographic Data Centre
#                                CCDC
#
#######################################################################
#
# If this CIF has been generated from an entry in the Cambridge
# Structural Database, then it will include bibliographic, chemical,
# crystal, experimental, refinement or atomic coordinate data resulting
# from the CCDC's data processing and validation procedures.
#
#######################################################################

data_CSD_CIF_SAHQAV
_audit_creation_date 2012-02-03
_audit_creation_method CSD-ConQuest-V1
_database_code_CSD SAHQAV
_database_code_depnum_ccdc_archive 'CCDC 860181'
_chemical_formula_sum 'C18 H26 N2 O8'
_chemical_formula_moiety
;
C18 H26 N2 O8
;
_journal_coden_Cambridge 4
_journal_volume 133
_journal_year 2011
_journal_page_first 13880
_journal_name_full 'J.Am.Chem.Soc. '
loop_
_publ_author_name
"M.Baidya"
"H.Yamamoto"
_chemical_name_systematic
;
Diethyl 1,1'-(1,2-dihydroxyhydrazine-1,2-diyl)bis(2-oxocyclohexanecarboxylate)
;
_cell_volume   1889.332
_exptl_crystal_density_diffrn 1.401
_diffrn_ambient_temperature 100
#These two values have been output from a single CSD field.
_refine_ls_R_factor_gt 0.049
_refine_ls_wR_factor_gt 0.049
_symmetry_cell_setting monoclinic
_symmetry_space_group_name_H-M 'C 2/c'
_symmetry_Int_Tables_number 15
loop_
_symmetry_equiv_pos_site_id
_symmetry_equiv_pos_as_xyz
1 x,y,z
2 -x,y,1/2-z
3 1/2+x,1/2+y,z
4 1/2-x,1/2+y,1/2-z
5 -x,-y,-z
6 x,-y,-1/2+z
7 -1/2-x,-1/2-y,-z
8 -1/2+x,-1/2-y,-1/2+z
_cell_length_a 18.558(3)
_cell_length_b 6.8755(13)
_cell_length_c 15.820(3)
_cell_angle_alpha 90
_cell_angle_beta 110.613(4)
_cell_angle_gamma 90
_cell_formula_units_Z 4
loop_
_atom_type_symbol
_atom_type_radius_bond
C 0.68
H 0.23
N 0.68
O 0.68
loop_
_atom_site_label
_atom_site_type_symbol
_atom_site_fract_x
_atom_site_fract_y
_atom_site_fract_z
C1 C 0.38643(15) 0.2185(4) 0.12445(17)
C2 C 0.36182(15) 0.0772(4) 0.18084(17)
H1 H 0.40050 -0.02770 0.20250
H2 H 0.31190 0.01780 0.14470
C3 C 0.35418(15) 0.1885(4) 0.26121(17)
H3 H 0.33640 0.09850 0.29870
H4 H 0.40520 0.23990 0.29910
C4 C 0.29746(15) 0.3560(4) 0.22963(18)
H5 H 0.29510 0.42790 0.28280
H6 H 0.24550 0.30370 0.19620
C5 C 0.32114(15) 0.4954(4) 0.16859(17)
H7 H 0.37040 0.55860 0.20420
H8 H 0.28160 0.59830 0.14660
C6 C 0.33053(14) 0.3909(4) 0.08740(17)
C7 C 0.35824(15) 0.5246(4) 0.02831(19)
C8 C 0.45953(15) 0.7383(4) 0.03195(18)
H9 H 0.43080 0.86030 0.00940
H10 H 0.46400 0.66560 -0.02000
C9 C 0.53772(15) 0.7819(4) 0.09971(19)
H11 H 0.53230 0.85960 0.14900
H12 H 0.56780 0.85480 0.07040
H13 H 0.56410 0.65970 0.12390
N1 N 0.25193(12) 0.3222(3) 0.02769(14)
O1 O 0.44945(10) 0.2193(3) 0.11727(12)
O2 O 0.1920(1) 0.4138(3) 0.02533(12)
O3 O 0.32864(11) 0.5379(3) -0.05203(13)
O4 O 0.42049(10) 0.6215(3) 0.07919(12)
C1F C 0.11357(15) 0.2815(4) -0.12445(17)
C2F C 0.13818(15) 0.4228(4) -0.18084(17)
H1F H 0.09950 0.52770 -0.20250
H2F H 0.18810 0.48220 -0.14470
C3F C 0.14582(15) 0.3115(4) -0.26121(17)
H3F H 0.16360 0.40150 -0.29870
H4F H 0.09480 0.26010 -0.29910
C4F C 0.20254(15) 0.1440(4) -0.22963(18)
H5F H 0.20490 0.07210 -0.28280
H6F H 0.25450 0.19630 -0.19620
C5F C 0.17886(15) 0.0046(4) -0.16859(17)
H7F H 0.12960 -0.05860 -0.20420
H8F H 0.21840 -0.09830 -0.14660
C6F C 0.16947(14) 0.1091(4) -0.08740(17)
C7F C 0.14176(15) -0.0246(4) -0.02831(19)
C8F C 0.04047(15) -0.2383(4) -0.03195(18)
H9F H 0.06920 -0.36030 -0.00940
H10F H 0.03600 -0.16560 0.02000
C9F C -0.03772(15) -0.2819(4) -0.09971(19)
H11F H -0.03230 -0.35960 -0.14900
H12F H -0.06780 -0.35480 -0.07040
H13F H -0.06410 -0.15970 -0.12390
N1F N 0.24807(12) 0.1778(3) -0.02769(14)
O1F O 0.05055(10) 0.2807(3) -0.11727(12)
O2F O 0.3080(1) 0.0862(3) -0.02533(12)
O3F O 0.17136(11) -0.0379(3) 0.05203(13)
O4F O 0.07951(10) -0.1215(3) -0.07919(12)
#END
