
#######################################################################
#
#                 Cambridge Crystallographic Data Centre
#                                CCDC
#
#######################################################################
#
# If this CIF has been generated from an entry in the Cambridge
# Structural Database, then it will include bibliographic, chemical,
# crystal, experimental, refinement or atomic coordinate data resulting
# from the CCDC's data processing and validation procedures.
#
#######################################################################

data_CSD_CIF_SAHVEC
_audit_creation_date 1989-08-09
_audit_creation_method CSD-ConQuest-V1
_database_code_CSD SAHVEC
_chemical_formula_sum 'C15 H15 N5 O3'
_chemical_formula_moiety
;
C15 H15 N5 O3
;
_journal_coden_Cambridge 35
_journal_volume 54
_journal_year 1989
_journal_page_first 706
_journal_name_full 'J.Org.Chem. '
loop_
_publ_author_name
"R.Nesi"
"D.Giomi"
"S.Papaleo"
"S.Bracci"
_chemical_name_systematic
;
Ethyl 
(6aR*,6bS*,9aR*)-6a,6b-dihydro-9-phenyl-3H,6H-azirino(1',2':2,3)isoxazolo(4',5
':3,4)pyrazolo(3,2-c)-1,2,4-triazole-6b-carboxylate
;
_chemical_melting_point 390.15
_cell_volume   2907.782
_exptl_crystal_colour 'colorless'
_exptl_crystal_density_diffrn 1.43
_exptl_special_details
;
Melting point range 390.15-391.15K

;
_diffrn_ambient_temperature ?
_diffrn_special_details
;
The study was carried out at room temperature,in the range 283-303K

;
#These two values have been output from a single CSD field.
_refine_ls_R_factor_gt 0.071
_refine_ls_wR_factor_gt 0.071
_symmetry_cell_setting orthorhombic
_symmetry_space_group_name_H-M 'P c a b'
_symmetry_Int_Tables_number 61
loop_
_symmetry_equiv_pos_site_id
_symmetry_equiv_pos_as_xyz
1 x,y,z
2 1/2-x,y,1/2+z
3 1/2+x,1/2-y,z
4 -x,1/2-y,1/2+z
5 -x,-y,-z
6 -1/2+x,-y,-1/2-z
7 -1/2-x,-1/2+y,-z
8 x,-1/2+y,-1/2-z
_cell_length_a 7.982(1)
_cell_length_b 10.605(4)
_cell_length_c 34.351(4)
_cell_angle_alpha 90
_cell_angle_beta 90
_cell_angle_gamma 90
_cell_formula_units_Z 8
loop_
_atom_type_symbol
_atom_type_radius_bond
C 0.68
H 0.23
N 0.68
O 0.68
loop_
_atom_site_label
_atom_site_type_symbol
_atom_site_fract_x
_atom_site_fract_y
_atom_site_fract_z
O1 O 0.3357(7) 0.2829(5) 0.1366(1)
O2 O 0.2969(11) 0.2175(8) 0.0622(2)
O3 O 0.3970(7) 0.3969(6) 0.0404(1)
N1 N 0.2239(9) 0.3259(8) 0.1652(2)
N2 N 0.0983(10) 0.5216(8) 0.0889(2)
N3 N 0.1771(11) 0.6366(9) 0.0695(2)
N4 N 0.3367(8) 0.6041(7) 0.1204(2)
N5 N 0.5155(9) 0.5830(8) 0.1190(2)
C1 C 0.0377(10) 0.6321(9) 0.1811(2)
C2 C -0.0698(11) 0.6943(9) 0.2067(2)
C3 C -0.1626(11) 0.6230(11) 0.2330(2)
C4 C -0.1496(11) 0.4944(10) 0.2336(2)
C5 C -0.0439(10) 0.4346(9) 0.2075(2)
C6 C 0.0495(10) 0.5016(9) 0.1817(2)
C7 C 0.1695(10) 0.4374(9) 0.1556(2)
C8 C 0.3673(10) 0.3801(9) 0.1078(2)
C9 C 0.2398(10) 0.4877(8) 0.1182(2)
C10 C 0.3025(10) 0.6705(8) 0.0865(2)
C11 C 0.5324(11) 0.4399(10) 0.1140(2)
C12 C 0.5629(12) 0.5035(11) 0.1518(2)
C13 C 0.3516(11) 0.3221(10) 0.0677(2)
C14 C 0.3829(12) 0.3549(9) 0.0009(2)
C15 C 0.2351(12) 0.4164(10) -0.0185(2)
H1 H 0.112(1) 0.686(1) 0.161(1)
H2 H -0.080(1) 0.796(1) 0.206(1)
H3 H -0.246(1) 0.670(1) 0.253(1)
H4 H -0.221(1) 0.440(1) 0.254(1)
H5 H -0.035(1) 0.333(1) 0.208(1)
H6 H 0.408(1) 0.661(1) 0.067(1)
H7 H 0.287(1) 0.769(1) 0.094(1)
H8 H 0.604(1) 0.373(1) 0.097(1)
H9 H 0.689(1) 0.509(1) 0.163(1)
H10 H 0.476(1) 0.490(1) 0.176(1)
H11 H 0.496(1) 0.379(1) -0.015(1)
H12 H 0.367(1) 0.254(1) 0.000(1)
H13 H 0.226(1) 0.384(1) -0.048(1)
H14 H 0.251(1) 0.517(1) -0.018(1)
H15 H 0.122(1) 0.392(1) -0.003(1)
#END
