
#######################################################################
#
#                 Cambridge Crystallographic Data Centre
#                                CCDC
#
#######################################################################
#
# If this CIF has been generated from an entry in the Cambridge
# Structural Database, then it will include bibliographic, chemical,
# crystal, experimental, refinement or atomic coordinate data resulting
# from the CCDC's data processing and validation procedures.
#
#######################################################################

data_CSD_CIF_SAHVED
_audit_creation_date 2005-03-24
_audit_creation_method CSD-ConQuest-V1
_database_code_CSD SAHVED
_database_code_depnum_ccdc_archive 'CCDC 247136'
_chemical_formula_sum 'C19 H24 N2 O5'
_chemical_formula_moiety
;
C19 H24 N2 O5
;
_journal_coden_Cambridge 16
_journal_volume 60
_journal_year 2004
_journal_page_first 10761
_journal_name_full 'Tetrahedron '
loop_
_publ_author_name
"R.M.Srivastava"
"J.R.de Freitas Filho"
"M.J.da Silva"
"S.C.de Melo Souto"
"G.B.Carpenter"
"W.M.Faustino"
_chemical_name_systematic
;
1-(R)-Methyl-3-(3-(p-tolyl)-1,2,4-oxadiazol-5-yl)propyl 
2,3-dideoxy-\a-D-erythro-hex-2-enopyranoside
;
_chemical_melting_point 402.05
_cell_volume   1906.928
_exptl_crystal_colour 'colorless'
_exptl_crystal_density_diffrn 1.255
_exptl_special_details
;
Melting point range 402.05-402.65K

;
_diffrn_ambient_temperature ?
_diffrn_special_details
;
The study was carried out at room temperature,in the range 283-303K

;
#These two values have been output from a single CSD field.
_refine_ls_R_factor_gt 0.0962
_refine_ls_wR_factor_gt 0.0962
_symmetry_cell_setting orthorhombic
_symmetry_space_group_name_H-M 'P 21 21 21'
_symmetry_Int_Tables_number 19
loop_
_symmetry_equiv_pos_site_id
_symmetry_equiv_pos_as_xyz
1 x,y,z
2 1/2-x,-y,1/2+z
3 1/2+x,1/2-y,-z
4 -x,1/2+y,1/2-z
_cell_length_a 6.1813(6)
_cell_length_b 7.0908(7)
_cell_length_c 43.5070(4)
_cell_angle_alpha 90
_cell_angle_beta 90
_cell_angle_gamma 90
_cell_formula_units_Z 4
loop_
_atom_type_symbol
_atom_type_radius_bond
C 0.68
N 0.68
O 0.68
loop_
_atom_site_label
_atom_site_type_symbol
_atom_site_fract_x
_atom_site_fract_y
_atom_site_fract_z
O1 O 0.6055(7) 0.7210(6) 0.4208(1)
N1 N 0.5800(9) 0.8921(7) 0.4371(1)
C1 C 0.3835(8) 0.9441(7) 0.4304(1)
N2 N 0.2803(7) 0.8218(6) 0.4110(1)
C2 C 0.4245(9) 0.6922(7) 0.4058(1)
C3 C 0.4026(11) 0.5166(8) 0.3874(1)
C4 C 0.2503(11) 0.5352(8) 0.3608(1)
C5 C 0.2061(10) 0.3481(8) 0.3449(1)
O2 O 0.4100(6) 0.2606(5) 0.3389(1)
C6 C 0.4143(9) 0.0638(7) 0.3417(1)
O3 O 0.3242(5) -0.0300(4) 0.3163(1)
C7 C 0.4665(7) -0.0340(7) 0.2907(1)
C8 C 0.6569(8) -0.1577(7) 0.2985(1)
C9 C 0.7530(9) -0.0983(9) 0.3279(2)
C10 C 0.6419(10) 0.0056(8) 0.3473(1)
C11 C 0.2864(8) 1.1141(7) 0.4427(1)
C12 C 0.3970(9) 1.2309(7) 0.4630(1)
C13 C 0.3051(10) 1.3976(8) 0.4735(1)
C14 C 0.0990(9) 1.4510(8) 0.4646(1)
C15 C -0.0103(9) 1.3299(9) 0.4448(1)
C16 C 0.0764(9) 1.1663(8) 0.4339(1)
C17 C 0.0011(11) 1.6302(8) 0.4765(2)
C18 C 0.0738(14) 0.3738(10) 0.3158(2)
C19 C 0.3395(9) -0.1069(8) 0.2634(1)
O4 O 0.1735(7) 0.0196(6) 0.2544(1)
O5 O 0.8135(7) -0.1495(7) 0.2744(1)
#END
