
#######################################################################
#
#                 Cambridge Crystallographic Data Centre
#                                CCDC
#
#######################################################################
#
# If this CIF has been generated from an entry in the Cambridge
# Structural Database, then it will include bibliographic, chemical,
# crystal, experimental, refinement or atomic coordinate data resulting
# from the CCDC's data processing and validation procedures.
#
#######################################################################

data_CSD_CIF_SAHZAF
_audit_creation_date 2017-02-07
_audit_creation_method CSD-ConQuest-V1
_database_code_CSD SAHZAF
_database_code_depnum_ccdc_archive 'CCDC 1509400'
_chemical_formula_sum 'C15 H16 N2 O6'
_chemical_formula_moiety
;
C15 H16 N2 O6
;
_journal_coden_Cambridge 177
_journal_volume 15
_journal_year 2017
_journal_page_first 1889
_journal_name_full 'Org.Biomol.Chem. '
loop_
_publ_author_name
"Song Wei Benjamin Tan"
"C.L.L.Chai"
"M.G.Moloney"
_chemical_name_systematic
;
(3R,6R,7aS)-6-hydroxy-N-methoxy-N-methyl-5,7-dioxo-3-phenyltetrahydro-1H-pyrro
lo[1,2-c][1,3]oxazole-6-carboxamide
;
_chemical_name_common
;
(2R,5S,7R)-1-aza-2-phenyl-7-hydroxy-7-(N,O-dimethylcarbamoyl)-6,8-dioxo-3-oxab
icyclo[3.3.0]-octane
;
_chemical_melting_point 414.15
_cell_volume    748.240
_exptl_crystal_colour 'colorless'
_exptl_crystal_density_diffrn 1.422
_exptl_special_details
;
Melting point range 414.15-416.15K

;
_exptl_crystal_description 'block'
_diffrn_ambient_temperature 140
#These two values have been output from a single CSD field.
_refine_ls_R_factor_gt 0.0322
_refine_ls_wR_factor_gt 0.0322
_symmetry_cell_setting monoclinic
_symmetry_space_group_name_H-M 'P 21'
_symmetry_Int_Tables_number 4
loop_
_symmetry_equiv_pos_site_id
_symmetry_equiv_pos_as_xyz
1 x,y,z
2 -x,1/2+y,-z
_cell_length_a 7.4743(15)
_cell_length_b 9.2516(19)
_cell_length_c 10.829(2)
_cell_angle_alpha 90
_cell_angle_beta 92.25(3)
_cell_angle_gamma 90
_cell_formula_units_Z 2
loop_
_atom_type_symbol
_atom_type_radius_bond
C 0.68
H 0.23
N 0.68
O 0.68
loop_
_atom_site_label
_atom_site_type_symbol
_atom_site_fract_x
_atom_site_fract_y
_atom_site_fract_z
N1 N 0.18098(12) 0.14016(11) 0.47970(8)
O1 O 0.18559(12) 0.35554(10) 0.24555(8)
O2 O -0.17953(12) 0.16722(11) 0.11813(8)
O3 O -0.08771(12) 0.26284(12) 0.46105(8)
O4 O 0.27095(14) 0.02885(12) 0.17791(8)
O5 O 0.42662(12) 0.28416(10) 0.48360(8)
O6 O -0.09743(14) -0.01043(11) 0.29227(9)
C1 C 0.02428(14) 0.18354(13) 0.41945(10)
C2 C 0.35169(14) 0.17570(13) 0.68026(10)
C3 C 0.28196(15) 0.24043(12) 0.55936(10)
H1 H 0.20560 0.32630 0.57680
C4 C 0.33384(16) 0.03055(13) 0.71027(10)
H2 H 0.27460 -0.03370 0.65380
C5 C -0.05373(15) 0.20993(13) 0.1852(1)
C6 C 0.40326(17) -0.02088(15) 0.82392(11)
H3 H 0.39110 -0.12010 0.84450
C7 C 0.30672(15) 0.06702(13) 0.39992(9)
H4 H 0.33130 -0.03360 0.42980
C8 C 0.20917(16) 0.06464(13) 0.27406(10)
C9 C 0.44038(16) 0.26879(14) 0.76372(10)
H5 H 0.45370 0.36790 0.74310
N2 N 0.03168(14) 0.33434(12) 0.16878(9)
C10 C 0.50932(17) 0.21797(15) 0.87660(11)
H6 H 0.56940 0.28200 0.93290
C11 C 0.01407(15) 0.11210(12) 0.29128(10)
C12 C 0.48979(17) 0.07270(16) 0.90661(10)
H7 H 0.53580 0.03750 0.98390
C13 C 0.47732(16) 0.16083(15) 0.41313(11)
H8 H 0.57530 0.10690 0.45670
H9 H 0.51780 0.19060 0.33100
C14 C 0.17263(19) 0.49118(15) 0.31140(13)
H10 H 0.16170 0.57080 0.25190
H11 H 0.28040 0.50500 0.36460
H12 H 0.06700 0.48950 0.36220
C15 C 0.0232(2) 0.4157(2) 0.05356(14)
H13 H 0.13220 0.39820 0.00840
H14 H 0.01310 0.51900 0.07170
H15 H -0.08150 0.38450 0.00300
H16 H -0.168(3) 0.006(3) 0.223(2)
#END
