
#######################################################################
#
#                 Cambridge Crystallographic Data Centre
#                                CCDC
#
#######################################################################
#
# If this CIF has been generated from an entry in the Cambridge
# Structural Database, then it will include bibliographic, chemical,
# crystal, experimental, refinement or atomic coordinate data resulting
# from the CCDC's data processing and validation procedures.
#
#######################################################################

data_CSD_CIF_SAJYAD
_audit_creation_date 1989-09-22
_audit_creation_method CSD-ConQuest-V1
_database_code_CSD SAJYAD
_database_code_depnum_ccdc_archive 'CCDC 1254297'
_chemical_formula_sum 'C11 H8 N4 O3'
_chemical_formula_moiety
;
C11 H8 N4 O3
;
_journal_coden_Cambridge 209
_journal_volume 159
_journal_year 1988
_journal_page_first 277
_journal_name_full 'Mol.Cryst.Liq.Cryst. (Discontinued) '
loop_
_publ_author_name
"G.R.Desiraju"
"T.S.R.Krishna"
_chemical_name_systematic
;
3-Hydroxy-6-(3'-nitro)phenylazopyridine
;
_cell_volume   1102.908
_exptl_crystal_colour 'orange-red'
_exptl_crystal_density_diffrn 1.49
_diffrn_ambient_temperature ?
_diffrn_special_details
;
The study was carried out at room temperature,in the range 283-303K

;
#These two values have been output from a single CSD field.
_refine_ls_R_factor_gt 0.046
_refine_ls_wR_factor_gt 0.046
_symmetry_cell_setting orthorhombic
_symmetry_space_group_name_H-M 'P n a 21'
_symmetry_Int_Tables_number 33
loop_
_symmetry_equiv_pos_site_id
_symmetry_equiv_pos_as_xyz
1 x,y,z
2 1/2-x,1/2+y,1/2+z
3 1/2+x,1/2-y,z
4 -x,-y,1/2+z
_cell_length_a 16.522(3)
_cell_length_b 8.402(2)
_cell_length_c 7.945(1)
_cell_angle_alpha 90
_cell_angle_beta 90
_cell_angle_gamma 90
_cell_formula_units_Z 4
loop_
_atom_type_symbol
_atom_type_radius_bond
C 0.68
H 0.23
N 0.68
O 0.68
loop_
_atom_site_label
_atom_site_type_symbol
_atom_site_fract_x
_atom_site_fract_y
_atom_site_fract_z
C1 C 0.2506(4) 0.4017(6) 0.0869(1)
C2 C 0.2545(3) 0.3244(5) 0.2409(9)
C3 C 0.2944(3) 0.3994(6) 0.3717(9)
C4 C 0.3287(3) 0.5488(6) 0.3437(9)
C5 C 0.3220(3) 0.6146(5) 0.1854(9)
C6 C 0.4075(3) 1.0035(5) 0.197(1)
C7 C 0.3966(3) 1.0617(5) 0.0359(10)
C8 C 0.4298(3) 1.2095(5) -0.0003(10)
C9 C 0.4729(4) 1.2943(7) 0.1183(12)
C10 C 0.4811(4) 1.2355(7) 0.2727(12)
C11 C 0.4467(4) 1.0888(7) 0.3186(11)
N1 N 0.3522(3) 0.7684(4) 0.1352(8)
N2 N 0.3777(3) 0.8483(5) 0.2537(9)
N3 N 0.2845(3) 0.5433(4) 0.0582(8)
N4 N 0.4206(3) 1.2724(5) -0.1705(10)
O1 O 0.3796(4) 1.1992(6) -0.2691(10)
O2 O 0.4520(4) 1.3974(5) -0.205(1)
O3 O 0.2184(4) 0.1812(4) 0.2513(8)
H1 H 0.219(3) 0.357(6) -0.008(7)
H2 H 0.297(3) 0.351(5) 0.472(7)
H3 H 0.366(3) 0.595(5) 0.438(6)
H4 H 0.373(2) 1.016(5) -0.061(7)
H5 H 0.497(4) 1.368(7) 0.087(9)
H6 H 0.496(4) 1.271(8) 0.375(10)
H7 H 0.445(3) 1.046(7) 0.444(9)
H8 H 0.217(4) 0.143(8) 0.369(10)
#END
