
#######################################################################
#
#                 Cambridge Crystallographic Data Centre
#                                CCDC
#
#######################################################################
#
# If this CIF has been generated from an entry in the Cambridge
# Structural Database, then it will include bibliographic, chemical,
# crystal, experimental, refinement or atomic coordinate data resulting
# from the CCDC's data processing and validation procedures.
#
#######################################################################

data_CSD_CIF_SALLIB
_audit_creation_date 2005-03-24
_audit_creation_method CSD-ConQuest-V1
_database_code_CSD SALLIB
_database_code_depnum_ccdc_archive 'CCDC 248697'
_chemical_formula_sum 'C10 H13 N1 O1'
_chemical_formula_moiety
;
C10 H13 N1 O1
;
_journal_coden_Cambridge 16
_journal_volume 61
_journal_year 2005
_journal_page_first 493
_journal_name_full 'Tetrahedron '
loop_
_publ_author_name
"Ming-Chang P.Yeh"
"Chi-Fen Jou"
"Wei-Tzou Yeh"
"Da-Yu Chiu"
"N.R.K.Reddy"
_chemical_name_systematic
;
cis,cis-4,4a,5,6,8a,8b-Hexahydro-3H-azuleno(1,8-cd)isoxazole
;
_chemical_melting_point 355.15
_cell_volume   1690.830
_exptl_crystal_colour 'colorless'
_exptl_crystal_density_diffrn 1.282
_exptl_special_details
;
Melting point range 355.15-357.15K

;
_exptl_crystal_preparation 'ethyl acetate/hexanes'
_diffrn_ambient_temperature 293
#These two values have been output from a single CSD field.
_refine_ls_R_factor_gt 0.042
_refine_ls_wR_factor_gt 0.042
_symmetry_cell_setting orthorhombic
_symmetry_space_group_name_H-M 'P b c a'
_symmetry_Int_Tables_number 61
loop_
_symmetry_equiv_pos_site_id
_symmetry_equiv_pos_as_xyz
1 x,y,z
2 1/2-x,1/2+y,z
3 x,1/2-y,1/2+z
4 1/2+x,y,1/2-z
5 -x,-y,-z
6 -1/2+x,-1/2-y,-z
7 -x,-1/2+y,-1/2-z
8 -1/2-x,-y,-1/2+z
_cell_length_a 9.167(4)
_cell_length_b 13.0811(16)
_cell_length_c 14.1003(25)
_cell_angle_alpha 90
_cell_angle_beta 90
_cell_angle_gamma 90
_cell_formula_units_Z 8
loop_
_atom_type_symbol
_atom_type_radius_bond
C 0.68
H 0.23
N 0.68
O 0.68
loop_
_atom_site_label
_atom_site_type_symbol
_atom_site_fract_x
_atom_site_fract_y
_atom_site_fract_z
O1 O 0.5799(3) 0.89933(16) 0.67878(18)
N1 N 0.6659(3) 0.94215(21) 0.60383(20)
C1 C 0.4936(4) 0.98202(23) 0.72458(22)
C2 C 0.5439(4) 0.9925(3) 0.82436(24)
C3 C 0.5943(4) 1.0712(3) 0.87253(23)
C4 C 0.6269(3) 1.17807(24) 0.84218(22)
C5 C 0.6717(3) 1.19222(21) 0.73921(21)
C6 C 0.5479(3) 1.18047(21) 0.66874(20)
C7 C 0.5012(3) 1.06852(21) 0.65235(21)
C8 C 0.6201(3) 1.03182(23) 0.58878(21)
C9 C 0.6807(4) 1.11594(25) 0.52869(22)
C10 C 0.5978(4) 1.21004(23) 0.56759(21)
H1 H 0.37800 0.95600 0.72700
H2 H 0.54200 0.92800 0.86200
H3 H 0.61500 1.05600 0.94100
H4 H 0.52900 1.22500 0.85400
H5 H 0.71300 1.20900 0.88900
H6 H 0.75500 1.13400 0.72200
H7 H 0.72400 1.26700 0.73000
H8 H 0.45400 1.22900 0.69000
H9 H 0.39800 1.06900 0.61100
H10 H 0.79900 1.12500 0.53900
H11 H 0.66000 1.10500 0.45400
H12 H 0.67000 1.27700 0.57000
H13 H 0.50700 1.22800 0.52200
#END
