
#######################################################################
#
#                 Cambridge Crystallographic Data Centre
#                                CCDC
#
#######################################################################
#
# If this CIF has been generated from an entry in the Cambridge
# Structural Database, then it will include bibliographic, chemical,
# crystal, experimental, refinement or atomic coordinate data resulting
# from the CCDC's data processing and validation procedures.
#
#######################################################################

data_CSD_CIF_SALOXM03
_audit_creation_date 2007-01-05
_audit_creation_method CSD-ConQuest-V1
_database_code_CSD SALOXM03
_database_code_depnum_ccdc_archive 'CCDC 629858'
_chemical_formula_sum 'C7 H7 N1 O2'
_chemical_formula_moiety
;
C7 H7 N1 O2
;
_journal_coeditor_code "IUCr SO5004"
_journal_coden_Cambridge 622
_journal_volume 62
_journal_year 2006
_journal_page_first 1099
_journal_name_full 'Acta Crystallogr.,Sect.B:Struct.Sci. '
loop_
_publ_author_name
"P.A.Wood"
"R.S.Forgan"
"D.Henderson"
"S.Parsons"
"E.Pidcock"
"P.A.Tasker"
"J.E.Warren"
_chemical_name_systematic
;
2-hydroxybenzaldehyde oxime
;
_chemical_name_common
;
salicylaldoxime
;
_chemical_melting_point 332.15
_cell_volume    649.282
_exptl_crystal_colour 'colorless'
_exptl_crystal_density_diffrn 1.403
_exptl_special_details
;
Melting point range 332.15-334.15K
polymorph I
phase transition at 5.93 GPa

;
_exptl_crystal_description 'block'
_exptl_crystal_preparation 'hexane/chloroform'
_diffrn_ambient_temperature 273
#These two values have been output from a single CSD field.
_refine_ls_R_factor_gt 0.0564
_refine_ls_wR_factor_gt 0.0564
_symmetry_cell_setting monoclinic
_symmetry_space_group_name_H-M 'P 21/n'
_symmetry_Int_Tables_number 14
loop_
_symmetry_equiv_pos_site_id
_symmetry_equiv_pos_as_xyz
1 x,y,z
2 1/2-x,1/2+y,1/2-z
3 -x,-y,-z
4 -1/2+x,-1/2-y,-1/2+z
_cell_length_a 10.346(4)
_cell_length_b 5.0294(17)
_cell_length_c 13.478(5)
_cell_angle_alpha 90
_cell_angle_beta 112.21(2)
_cell_angle_gamma 90
_cell_formula_units_Z 4
loop_
_atom_type_symbol
_atom_type_radius_bond
C 0.68
H 0.23
N 0.68
O 0.68
loop_
_atom_site_label
_atom_site_type_symbol
_atom_site_fract_x
_atom_site_fract_y
_atom_site_fract_z
O1 O 0.73977(12) 1.0210(3) 0.68075(10)
N1 N 0.68807(13) 0.8699(3) 0.58726(10)
C1 C 0.77347(16) 0.6962(4) 0.58178(13)
C2 C 0.74142(16) 0.5191(3) 0.49063(13)
C3 C 0.61060(16) 0.5212(3) 0.40569(13)
O2 O 0.50907(12) 0.6917(3) 0.40416(10)
C4 C 0.58318(18) 0.3443(4) 0.32144(15)
C5 C 0.6832(2) 0.1697(4) 0.31882(16)
C6 C 0.81361(19) 0.1673(4) 0.40143(16)
C7 C 0.84057(17) 0.3388(4) 0.48613(15)
H1 H 0.86330 0.68230 0.63910
H2 H 0.49430 0.34390 0.26690
H3 H 0.66970 0.04890 0.26010
H4 H 0.88270 0.04220 0.39920
H5 H 0.93240 0.34260 0.54300
H6 H 0.6780(19) 1.131(4) 0.672(2)
H7 H 0.536(2) 0.793(4) 0.4556(14)
#END
