
#######################################################################
#
#                 Cambridge Crystallographic Data Centre
#                                CCDC
#
#######################################################################
#
# If this CIF has been generated from an entry in the Cambridge
# Structural Database, then it will include bibliographic, chemical,
# crystal, experimental, refinement or atomic coordinate data resulting
# from the CCDC's data processing and validation procedures.
#
#######################################################################

data_CSD_CIF_SALOXM09
_audit_creation_date 2007-01-05
_audit_creation_method CSD-ConQuest-V1
_database_code_CSD SALOXM09
_database_code_depnum_ccdc_archive 'CCDC 629864'
_chemical_formula_sum 'C7 H7 N1 O2'
_chemical_formula_moiety
;
C7 H7 N1 O2
;
_journal_coeditor_code "IUCr SO5004"
_journal_coden_Cambridge 622
_journal_volume 62
_journal_year 2006
_journal_page_first 1099
_journal_name_full 'Acta Crystallogr.,Sect.B:Struct.Sci. '
loop_
_publ_author_name
"P.A.Wood"
"R.S.Forgan"
"D.Henderson"
"S.Parsons"
"E.Pidcock"
"P.A.Tasker"
"J.E.Warren"
_chemical_name_systematic
;
2-hydroxybenzaldehyde oxime
;
_chemical_name_common
;
salicylaldoxime
;
_chemical_melting_point 332
_cell_volume    504.365
_exptl_crystal_colour 'colorless'
_exptl_crystal_density_diffrn 1.806
_exptl_special_details
;
Melting point range 332-334K
polymorph II
phase transition at 5.93 Gpa

;
_exptl_crystal_description 'block'
_diffrn_ambient_temperature 293
_diffrn_ambient_pressure 5930000.0
_diffrn_radiation_probe x-ray
_diffrn_source synchrotron
#These two values have been output from a single CSD field.
_refine_ls_R_factor_gt 0.1253
_refine_ls_wR_factor_gt 0.1253
_symmetry_cell_setting monoclinic
_symmetry_space_group_name_H-M 'P 21/n'
_symmetry_Int_Tables_number 14
loop_
_symmetry_equiv_pos_site_id
_symmetry_equiv_pos_as_xyz
1 x,y,z
2 1/2-x,1/2+y,1/2-z
3 -x,-y,-z
4 -1/2+x,-1/2-y,-1/2+z
_cell_length_a 7.677(3)
_cell_length_b 5.7731(8)
_cell_length_c 12.159(3)
_cell_angle_alpha 90
_cell_angle_beta 110.62(2)
_cell_angle_gamma 90
_cell_formula_units_Z 4
loop_
_atom_type_symbol
_atom_type_radius_bond
C 0.68
H 0.23
N 0.68
O 0.68
loop_
_atom_site_label
_atom_site_type_symbol
_atom_site_fract_x
_atom_site_fract_y
_atom_site_fract_z
O1 O 0.689(3) 0.9805(13) 0.6045(7)
N1 N 0.627(3) 0.8183(15) 0.5158(9)
C1 C 0.734(4) 0.6447(18) 0.5284(11)
C2 C 0.705(4) 0.4655(18) 0.4408(10)
C3 C 0.543(4) 0.4453(18) 0.3389(11)
C4 C 0.530(3) 0.2528(18) 0.2715(11)
C5 C 0.659(3) 0.0900(18) 0.2900(11)
C6 C 0.833(3) 0.1132(18) 0.3851(11)
C7 C 0.840(3) 0.2964(17) 0.4603(10)
O2 O 0.418(3) 0.6131(12) 0.3129(7)
H1 H 0.83610 0.63140 0.59800
H2 H 0.41810 0.23230 0.20890
H3 H 0.64130 -0.03630 0.24030
H4 H 0.93230 0.01150 0.39620
H5 H 0.94540 0.30750 0.52790
H6 H 0.608(6) 1.077(6) 0.574(6)
H7 H 0.320(6) 0.602(8) 0.257(5)
#END
