
#######################################################################
#
#                 Cambridge Crystallographic Data Centre
#                                CCDC
#
#######################################################################
#
# If this CIF has been generated from an entry in the Cambridge
# Structural Database, then it will include bibliographic, chemical,
# crystal, experimental, refinement or atomic coordinate data resulting
# from the CCDC's data processing and validation procedures.
#
#######################################################################

data_CSD_CIF_SALOXM04
_audit_creation_date 2007-01-05
_audit_creation_method CSD-ConQuest-V1
_database_code_CSD SALOXM04
_database_code_depnum_ccdc_archive 'CCDC 629859'
_chemical_formula_sum 'C7 H7 N1 O2'
_chemical_formula_moiety
;
C7 H7 N1 O2
;
_journal_coeditor_code "IUCr SO5004"
_journal_coden_Cambridge 622
_journal_volume 62
_journal_year 2006
_journal_page_first 1099
_journal_name_full 'Acta Crystallogr.,Sect.B:Struct.Sci. '
loop_
_publ_author_name
"P.A.Wood"
"R.S.Forgan"
"D.Henderson"
"S.Parsons"
"E.Pidcock"
"P.A.Tasker"
"J.E.Warren"
_chemical_name_systematic
;
2-hydroxybenzaldehyde oxime
;
_chemical_name_common
;
salicylaldoxime
;
_chemical_melting_point 332
_cell_volume    611.623
_exptl_crystal_colour 'colorless'
_exptl_crystal_density_diffrn 1.489
_exptl_special_details
;
Melting point range 332-334K
polymorph I
phase transition at 5.93 Gpa

;
_exptl_crystal_description 'block'
_diffrn_ambient_temperature 293
_diffrn_ambient_pressure 750000.0
_diffrn_radiation_probe x-ray
_diffrn_source synchrotron
#These two values have been output from a single CSD field.
_refine_ls_R_factor_gt 0.0485
_refine_ls_wR_factor_gt 0.0485
_symmetry_cell_setting monoclinic
_symmetry_space_group_name_H-M 'P 21/n'
_symmetry_Int_Tables_number 14
loop_
_symmetry_equiv_pos_site_id
_symmetry_equiv_pos_as_xyz
1 x,y,z
2 1/2-x,1/2+y,1/2-z
3 -x,-y,-z
4 -1/2+x,-1/2-y,-1/2+z
_cell_length_a 10.1833(16)
_cell_length_b 4.9766(3)
_cell_length_c 13.0109(15)
_cell_angle_alpha 90
_cell_angle_beta 111.938(10)
_cell_angle_gamma 90
_cell_formula_units_Z 4
loop_
_atom_type_symbol
_atom_type_radius_bond
C 0.68
H 0.23
N 0.68
O 0.68
loop_
_atom_site_label
_atom_site_type_symbol
_atom_site_fract_x
_atom_site_fract_y
_atom_site_fract_z
O1 O 0.7422(5) 1.0304(5) 0.6845(2)
N1 N 0.6891(6) 0.8738(5) 0.5881(2)
C1 C 0.7755(7) 0.7001(6) 0.5847(3)
C2 C 0.7451(7) 0.5146(6) 0.4903(3)
C3 C 0.6093(7) 0.5109(6) 0.4046(3)
O2 O 0.5073(5) 0.6860(5) 0.4024(2)
C4 C 0.5818(7) 0.3273(6) 0.3186(3)
C5 C 0.6832(8) 0.1496(6) 0.3176(3)
C6 C 0.8188(8) 0.1508(7) 0.4009(3)
C7 C 0.8444(8) 0.3316(6) 0.4872(3)
H1 H 0.86920 0.69400 0.64680
H2 H 0.48760 0.31970 0.26030
H3 H 0.66020 0.01510 0.25920
H4 H 0.89090 0.02410 0.40010
H5 H 0.93850 0.33150 0.54760
H6 H 0.683(4) 1.152(7) 0.666(4)
H7 H 0.535(8) 0.794(6) 0.454(2)
#END
