
#######################################################################
#
#                 Cambridge Crystallographic Data Centre
#                                CCDC
#
#######################################################################
#
# If this CIF has been generated from an entry in the Cambridge
# Structural Database, then it will include bibliographic, chemical,
# crystal, experimental, refinement or atomic coordinate data resulting
# from the CCDC's data processing and validation procedures.
#
#######################################################################

data_CSD_CIF_SALOXM06
_audit_creation_date 2007-01-05
_audit_creation_method CSD-ConQuest-V1
_database_code_CSD SALOXM06
_database_code_depnum_ccdc_archive 'CCDC 629861'
_chemical_formula_sum 'C7 H7 N1 O2'
_chemical_formula_moiety
;
C7 H7 N1 O2
;
_journal_coeditor_code "IUCr SO5004"
_journal_coden_Cambridge 622
_journal_volume 62
_journal_year 2006
_journal_page_first 1099
_journal_name_full 'Acta Crystallogr.,Sect.B:Struct.Sci. '
loop_
_publ_author_name
"P.A.Wood"
"R.S.Forgan"
"D.Henderson"
"S.Parsons"
"E.Pidcock"
"P.A.Tasker"
"J.E.Warren"
_chemical_name_systematic
;
2-hydroxybenzaldehyde oxime
;
_chemical_name_common
;
salicylaldoxime
;
_chemical_melting_point 332
_cell_volume    538.845
_exptl_crystal_colour 'colorless'
_exptl_crystal_density_diffrn 1.69
_exptl_special_details
;
Melting point range 332-334K
polymorph I
phase transition at 5.93 Gpa

;
_exptl_crystal_description 'block'
_diffrn_ambient_temperature 293
_diffrn_ambient_pressure 3460000.0
_diffrn_radiation_probe x-ray
_diffrn_source synchrotron
#These two values have been output from a single CSD field.
_refine_ls_R_factor_gt 0.042
_refine_ls_wR_factor_gt 0.042
_symmetry_cell_setting monoclinic
_symmetry_space_group_name_H-M 'P 21/n'
_symmetry_Int_Tables_number 14
loop_
_symmetry_equiv_pos_site_id
_symmetry_equiv_pos_as_xyz
1 x,y,z
2 1/2-x,1/2+y,1/2-z
3 -x,-y,-z
4 -1/2+x,-1/2-y,-1/2+z
_cell_length_a 9.7148(16)
_cell_length_b 4.9322(3)
_cell_length_c 12.0145(16)
_cell_angle_alpha 90
_cell_angle_beta 110.607(11)
_cell_angle_gamma 90
_cell_formula_units_Z 4
loop_
_atom_type_symbol
_atom_type_radius_bond
C 0.68
H 0.23
N 0.68
O 0.68
loop_
_atom_site_label
_atom_site_type_symbol
_atom_site_fract_x
_atom_site_fract_y
_atom_site_fract_z
O1 O 0.7462(5) 1.0490(4) 0.68831(19)
N1 N 0.6931(6) 0.8796(4) 0.5889(2)
C1 C 0.7858(7) 0.7063(5) 0.5853(3)
C2 C 0.7518(7) 0.5057(5) 0.4892(3)
C3 C 0.6097(7) 0.4976(5) 0.4010(3)
O2 O 0.5041(5) 0.6767(4) 0.39837(18)
C4 C 0.5772(7) 0.2936(5) 0.3146(3)
C5 C 0.6824(8) 0.1128(5) 0.3136(3)
C6 C 0.8239(7) 0.1241(5) 0.3987(3)
C7 C 0.8549(7) 0.3193(5) 0.4864(3)
H1 H 0.87940 0.70020 0.64740
H2 H 0.48290 0.28600 0.25620
H3 H 0.65930 -0.02180 0.25520
H4 H 0.89600 -0.00270 0.39790
H5 H 0.94900 0.31920 0.54690
H6 H 0.686(4) 1.173(7) 0.674(4)
H7 H 0.544(8) 0.784(6) 0.452(3)
#END
