
#######################################################################
#
#                 Cambridge Crystallographic Data Centre
#                                CCDC
#
#######################################################################
#
# If this CIF has been generated from an entry in the Cambridge
# Structural Database, then it will include bibliographic, chemical,
# crystal, experimental, refinement or atomic coordinate data resulting
# from the CCDC's data processing and validation procedures.
#
#######################################################################

data_CSD_CIF_SALOXM07
_audit_creation_date 2007-01-05
_audit_creation_method CSD-ConQuest-V1
_database_code_CSD SALOXM07
_database_code_depnum_ccdc_archive 'CCDC 629862'
_chemical_formula_sum 'C7 H7 N1 O2'
_chemical_formula_moiety
;
C7 H7 N1 O2
;
_journal_coeditor_code "IUCr SO5004"
_journal_coden_Cambridge 622
_journal_volume 62
_journal_year 2006
_journal_page_first 1099
_journal_name_full 'Acta Crystallogr.,Sect.B:Struct.Sci. '
loop_
_publ_author_name
"P.A.Wood"
"R.S.Forgan"
"D.Henderson"
"S.Parsons"
"E.Pidcock"
"P.A.Tasker"
"J.E.Warren"
_chemical_name_systematic
;
2-hydroxybenzaldehyde oxime
;
_chemical_name_common
;
salicylaldoxime
;
_chemical_melting_point 332
_cell_volume    521.482
_exptl_crystal_colour 'colorless'
_exptl_crystal_density_diffrn 1.747
_exptl_special_details
;
Melting point range 332-334K
polymorph I
phase transition at 5.93 Gpa

;
_exptl_crystal_description 'block'
_diffrn_ambient_temperature 293
_diffrn_ambient_pressure 4550000.0
_diffrn_radiation_probe x-ray
_diffrn_source synchrotron
#These two values have been output from a single CSD field.
_refine_ls_R_factor_gt 0.0442
_refine_ls_wR_factor_gt 0.0442
_symmetry_cell_setting monoclinic
_symmetry_space_group_name_H-M 'P 21/n'
_symmetry_Int_Tables_number 14
loop_
_symmetry_equiv_pos_site_id
_symmetry_equiv_pos_as_xyz
1 x,y,z
2 1/2-x,1/2+y,1/2-z
3 -x,-y,-z
4 -1/2+x,-1/2-y,-1/2+z
_cell_length_a 9.5728(15)
_cell_length_b 4.9342(3)
_cell_length_c 11.7537(15)
_cell_angle_alpha 90
_cell_angle_beta 110.064(10)
_cell_angle_gamma 90
_cell_formula_units_Z 4
loop_
_atom_type_symbol
_atom_type_radius_bond
C 0.68
H 0.23
N 0.68
O 0.68
loop_
_atom_site_label
_atom_site_type_symbol
_atom_site_fract_x
_atom_site_fract_y
_atom_site_fract_z
O1 O 0.7469(6) 1.0513(5) 0.6888(3)
N1 N 0.6923(8) 0.8809(5) 0.5888(3)
C1 C 0.7866(9) 0.7063(6) 0.5858(3)
C2 C 0.7525(9) 0.5051(7) 0.4888(4)
C3 C 0.6100(9) 0.4930(6) 0.3999(4)
O2 O 0.5029(6) 0.6744(5) 0.3970(2)
C4 C 0.5758(9) 0.2858(7) 0.3135(3)
C5 C 0.6822(10) 0.1055(6) 0.3132(4)
C6 C 0.8250(9) 0.1191(6) 0.3983(3)
C7 C 0.8552(9) 0.3181(6) 0.4875(4)
H1 H 0.88020 0.70020 0.64790
H2 H 0.48150 0.27810 0.25510
H3 H 0.65910 -0.02900 0.25480
H4 H 0.89720 -0.00770 0.39760
H5 H 0.94930 0.31810 0.54800
H6 H 0.685(5) 1.173(9) 0.673(5)
H7 H 0.536(11) 0.805(6) 0.441(4)
#END
