
#######################################################################
#
#                 Cambridge Crystallographic Data Centre
#                                CCDC
#
#######################################################################
#
# If this CIF has been generated from an entry in the Cambridge
# Structural Database, then it will include bibliographic, chemical,
# crystal, experimental, refinement or atomic coordinate data resulting
# from the CCDC's data processing and validation procedures.
#
#######################################################################

data_CSD_CIF_SALOXM05
_audit_creation_date 2007-01-05
_audit_creation_method CSD-ConQuest-V1
_database_code_CSD SALOXM05
_database_code_depnum_ccdc_archive 'CCDC 629860'
_chemical_formula_sum 'C7 H7 N1 O2'
_chemical_formula_moiety
;
C7 H7 N1 O2
;
_journal_coeditor_code "IUCr SO5004"
_journal_coden_Cambridge 622
_journal_volume 62
_journal_year 2006
_journal_page_first 1099
_journal_name_full 'Acta Crystallogr.,Sect.B:Struct.Sci. '
loop_
_publ_author_name
"P.A.Wood"
"R.S.Forgan"
"D.Henderson"
"S.Parsons"
"E.Pidcock"
"P.A.Tasker"
"J.E.Warren"
_chemical_name_systematic
;
2-hydroxybenzaldehyde oxime
;
_chemical_name_common
;
salicylaldoxime
;
_chemical_melting_point 332
_cell_volume    556.990
_exptl_crystal_colour 'colorless'
_exptl_crystal_density_diffrn 1.635
_exptl_special_details
;
Melting point range 332-334K
polymorph I
phase transition at 5.93 Gpa

;
_exptl_crystal_description 'block'
_diffrn_ambient_temperature 293
_diffrn_ambient_pressure 2370000.0
_diffrn_radiation_probe x-ray
_diffrn_source synchrotron
#These two values have been output from a single CSD field.
_refine_ls_R_factor_gt 0.0399
_refine_ls_wR_factor_gt 0.0399
_symmetry_cell_setting monoclinic
_symmetry_space_group_name_H-M 'P 21/n'
_symmetry_Int_Tables_number 14
loop_
_symmetry_equiv_pos_site_id
_symmetry_equiv_pos_as_xyz
1 x,y,z
2 1/2-x,1/2+y,1/2-z
3 -x,-y,-z
4 -1/2+x,-1/2-y,-1/2+z
_cell_length_a 9.851(3)
_cell_length_b 4.9325(7)
_cell_length_c 12.286(3)
_cell_angle_alpha 90
_cell_angle_beta 111.09(2)
_cell_angle_gamma 90
_cell_formula_units_Z 4
loop_
_atom_type_symbol
_atom_type_radius_bond
C 0.68
H 0.23
N 0.68
O 0.68
loop_
_atom_site_label
_atom_site_type_symbol
_atom_site_fract_x
_atom_site_fract_y
_atom_site_fract_z
O1 O 0.7466(5) 1.0446(4) 0.6870(2)
N1 N 0.6909(6) 0.8787(5) 0.5891(2)
C1 C 0.7821(7) 0.7042(6) 0.5859(3)
C2 C 0.7490(8) 0.5078(6) 0.4898(3)
C3 C 0.6101(8) 0.4992(6) 0.4014(3)
O2 O 0.5039(5) 0.6785(4) 0.3997(2)
C4 C 0.5785(8) 0.3020(6) 0.3159(3)
C5 C 0.6837(8) 0.1206(6) 0.3139(3)
C6 C 0.8217(8) 0.1302(6) 0.3990(3)
C7 C 0.8521(8) 0.3222(6) 0.4872(3)
H1 H 0.87350 0.69650 0.64670
H2 H 0.48660 0.29270 0.26100
H3 H 0.66150 -0.01510 0.25400
H4 H 0.89600 0.00140 0.40240
H5 H 0.94380 0.32310 0.54630
H6 H 0.684(4) 1.161(8) 0.677(4)
H7 H 0.538(8) 0.794(6) 0.450(3)
#END
