
#######################################################################
#
#                 Cambridge Crystallographic Data Centre
#                                CCDC
#
#######################################################################
#
# If this CIF has been generated from an entry in the Cambridge
# Structural Database, then it will include bibliographic, chemical,
# crystal, experimental, refinement or atomic coordinate data resulting
# from the CCDC's data processing and validation procedures.
#
#######################################################################

data_CSD_CIF_SALXAH
_audit_creation_date 2017-02-09
_audit_creation_method CSD-ConQuest-V1
_database_code_CSD SALXAH
_database_code_depnum_ccdc_archive 'CCDC 1440715'
_chemical_formula_sum 'C22 H15 N3 O2'
_chemical_formula_moiety
;
C22 H15 N3 O2
;
_journal_coden_Cambridge 1291
_journal_year 2017
_journal_page_first 1004
_journal_name_full 'Eur.J.Org.Chem. '
loop_
_publ_author_name
"J.Ahmed"
"S.C.Sau"
"Sreejyothi P."
"P.K.Hota"
"P.K.Vardhanapu"
"G.Vijaykumar"
"S.K.Mandal"
_chemical_name_systematic
;
4-(1-methyl-3-(4-nitrophenyl)-1H-indol-2-yl)benzonitrile
;
_cell_volume   1721.355
_exptl_crystal_colour 'reddish yellow'
_exptl_crystal_density_diffrn 1.364
_exptl_crystal_description 'block'
_diffrn_ambient_temperature 100.0
#These two values have been output from a single CSD field.
_refine_ls_R_factor_gt 0.0484
_refine_ls_wR_factor_gt 0.0484
_symmetry_cell_setting monoclinic
_symmetry_space_group_name_H-M 'P 21/c'
_symmetry_Int_Tables_number 14
loop_
_symmetry_equiv_pos_site_id
_symmetry_equiv_pos_as_xyz
1 x,y,z
2 -x,1/2+y,1/2-z
3 -x,-y,-z
4 x,-1/2-y,-1/2+z
_cell_length_a 10.5280(4)
_cell_length_b 10.6346(5)
_cell_length_c 15.9644(7)
_cell_angle_alpha 90
_cell_angle_beta 105.623(4)
_cell_angle_gamma 90
_cell_formula_units_Z 4
loop_
_atom_type_symbol
_atom_type_radius_bond
C 0.68
H 0.23
N 0.68
O 0.68
loop_
_atom_site_label
_atom_site_type_symbol
_atom_site_fract_x
_atom_site_fract_y
_atom_site_fract_z
O1 O 0.59923(15) 0.52257(13) 0.22720(9)
O2 O 0.44374(13) 0.65035(14) 0.23626(9)
N1 N 0.81069(14) 1.09634(14) -0.08154(9)
N2 N 0.54289(15) 0.62521(15) 0.2130(1)
C1 C 0.78745(16) 0.98011(17) -0.04871(11)
C2 C 0.93342(17) 0.84280(18) -0.10924(11)
H1 H 0.99640 0.90640 -0.09790
C3 C 0.53326(17) 0.83468(18) 0.14993(11)
H2 H 0.45930 0.85110 0.16950
C4 C 0.59720(17) 0.72038(18) 0.16639(11)
C5 C 0.74445(18) 0.65293(17) -0.14376(11)
H3 H 0.68150 0.58940 -0.15550
C6 C 0.71193(17) 0.69514(18) 0.14203(11)
H4 H 0.75590 0.61900 0.15620
C7 C 0.58141(16) 0.92388(18) 0.10399(11)
H5 H 0.53830 1.00080 0.09210
C8 C 0.73628(16) 0.99864(17) 0.02228(10)
C9 C 0.72623(16) 1.13253(17) 0.03253(11)
C10 C 0.81371(16) 0.86144(17) -0.08884(11)
N3 N 0.9220(2) 0.42721(18) -0.22846(12)
C11 C 0.77285(17) 1.18974(18) -0.03339(11)
C12 C 0.69370(16) 0.90219(17) 0.07456(10)
C13 C 0.86557(18) 0.63606(18) -0.16278(11)
C14 C 0.95960(18) 0.73199(18) -0.14587(11)
H6 H 1.03950 0.72100 -0.15930
C15 C 0.8952(2) 0.52025(19) -0.20041(13)
C16 C 0.75897(17) 0.78608(17) 0.09631(11)
H7 H 0.83540 0.77040 0.07950
C17 C 0.71941(17) 0.76484(17) -0.10744(10)
H8 H 0.63880 0.77640 -0.09510
C18 C 0.77585(19) 1.31971(18) -0.04426(12)
H9 H 0.80810 1.35520 -0.08770
C19 C 0.7291(2) 1.3935(2) 0.01207(13)
H10 H 0.72780 1.48050 0.00580
C20 C 0.85069(19) 1.12215(19) -0.16094(11)
H11 H 0.94210 1.14560 -0.14580
H12 H 0.79830 1.18960 -0.19240
H13 H 0.83790 1.04810 -0.19670
C21 C 0.68334(18) 1.21019(19) 0.09061(12)
H14 H 0.65550 1.17560 0.13620
C22 C 0.6832(2) 1.33887(19) 0.07899(13)
H15 H 0.65210 1.39060 0.11610
#END
