
#######################################################################
#
#                 Cambridge Crystallographic Data Centre
#                                CCDC
#
#######################################################################
#
# If this CIF has been generated from an entry in the Cambridge
# Structural Database, then it will include bibliographic, chemical,
# crystal, experimental, refinement or atomic coordinate data resulting
# from the CCDC's data processing and validation procedures.
#
#######################################################################

data_CSD_CIF_SALXOS
_audit_creation_date 1989-10-10
_audit_creation_method CSD-ConQuest-V1
_database_code_CSD SALXOS
_database_code_depnum_ccdc_archive 'CCDC 1254610'
_chemical_formula_sum 'C19 H20 N2 O4'
_chemical_formula_moiety
;
C19 H20 N2 O4
;
_journal_coden_Cambridge 16
_journal_volume 44
_journal_year 1988
_journal_page_first 5075
_journal_name_full 'Tetrahedron '
loop_
_publ_author_name
"D.Ponglux"
"S.Wongseripipatana"
"S.Subhadhirasakul"
"H.Takayama"
"M.Yokota"
"K.Ogata"
"C.Phisalaphong"
"N.Aimi"
"S.-I.Sakai"
_chemical_name_systematic
;
19-Oxo-gelsenicine
;
_chemical_melting_point 499.15
_cell_volume    851.290
_exptl_crystal_colour 'colorless'
_exptl_crystal_density_diffrn 1.328
_exptl_special_details
;
Melting point range 499.15-500.15K
No value for beta published - we suggest 89.38
;
_diffrn_ambient_temperature ?
_diffrn_special_details
;
The study was carried out at room temperature,in the range 283-303K

;
#These two values have been output from a single CSD field.
_refine_ls_R_factor_gt 0.047
_refine_ls_wR_factor_gt 0.047
_chemical_compound_source
;
Gelsemium elegans
;
_symmetry_cell_setting monoclinic
_symmetry_space_group_name_H-M 'P 21'
_symmetry_Int_Tables_number 4
loop_
_symmetry_equiv_pos_site_id
_symmetry_equiv_pos_as_xyz
1 x,y,z
2 -x,1/2+y,-z
_cell_length_a 13.6445(83)
_cell_length_b 6.7910(16)
_cell_length_c 9.1878(54)
_cell_angle_alpha 90
_cell_angle_beta 89.38
_cell_angle_gamma 90
_cell_formula_units_Z 2
loop_
_atom_type_symbol
_atom_type_radius_bond
C 0.68
H 0.23
N 0.68
O 0.68
loop_
_atom_site_label
_atom_site_type_symbol
_atom_site_fract_x
_atom_site_fract_y
_atom_site_fract_z
N1 N 0.89503(32) 0.32601(85) 0.74559(49)
C1 C 0.82430(39) 0.45123(90) 0.79710(61)
O1 O 0.82264(29) 0.51463(77) 0.91983(43)
C2 C 0.63038(41) 0.71610(96) 0.94370(68)
C3 C 0.80482(41) 0.38602(97) 0.54380(62)
O2 O 0.59074(28) 0.36502(69) 0.58889(46)
C4 C 0.74991(38) 0.47823(84) 0.66982(61)
C5 C 0.88875(42) 0.29426(96) 0.59522(64)
N2 N 0.66976(34) 0.84175(78) 0.85834(55)
C6 C 0.63774(47) 0.79215(90) 0.70744(67)
C7 C 0.78337(47) 0.3787(11) 0.39523(66)
O3 O 0.97582(27) 0.27386(77) 0.82700(45)
O4 O 0.61262(31) 0.60131(85) 1.18153(51)
C8 C 0.95264(48) 0.1916(11) 0.50707(77)
C9 C 0.65945(38) 0.34526(89) 0.70264(64)
C10 C 0.52109(44) 0.5214(11) 0.60406(79)
C11 C 0.56247(40) 0.5668(10) 0.87537(72)
C12 C 0.84780(53) 0.2815(11) 0.3019(76)
C13 C 0.93038(55) 0.1936(13) 0.35618(78)
C14 C 0.6559(42) 0.7130(11) 1.1044(69)
C15 C 0.6115(40) 0.3629(10) 0.8520(69)
C16 C 0.95589(54) 0.0901(13) 0.9054(80)
C17 C 0.54398(42) 0.6653(10) 0.72576(73)
C18 C 0.72314(44) 0.69394(93) 0.63025(65)
C19 C 0.73343(52) 0.8556(14) 1.15521(78)
H1 H 0.6299(40) 0.905(10) 0.6441(63)
H2 H 0.7176(33) 0.4476(80) 0.3529(51)
H3 H 1.0153(38) 0.1155(90) 0.5527(56)
H4 H 0.6872(31) 0.2051(84) 0.6833(50)
H5 H 0.5177(38) 0.606(10) 0.5036(73)
H6 H 0.4490(37) 0.4596(95) 0.6263(60)
H7 H 0.5012(37) 0.559(10) 0.9323(53)
H8 H 0.8335(37) 0.2742(95) 0.1861(60)
H9 H 0.9786(48) 0.124(12) 0.2788(81)
H10 H 0.6670(33) 0.343(9) 0.9370(52)
H11 H 0.5552(38) 0.25(1) 0.8626(61)
H12 H 1.0201(48) 0.048(12) 0.9700(81)
H13 H 0.9391(23) -0.0264(86) 0.8275(52)
H14 H 0.8935(31) 0.1114(78) 0.977(5)
H15 H 0.4822(38) 0.741(10) 0.7229(59)
H16 H 0.7636(33) 0.775(9) 0.5496(53)
H17 H 0.7450(38) 0.838(10) 1.2721(65)
H18 H 0.7096(43) 1.005(12) 1.1315(69)
H19 H 0.8016(43) 0.825(12) 1.0987(70)
H20? H 0.7822(33) 0.7993(86) 0.6351(52)
#END
