
#######################################################################
#
#                 Cambridge Crystallographic Data Centre
#                                CCDC
#
#######################################################################
#
# If this CIF has been generated from an entry in the Cambridge
# Structural Database, then it will include bibliographic, chemical,
# crystal, experimental, refinement or atomic coordinate data resulting
# from the CCDC's data processing and validation procedures.
#
#######################################################################

data_CSD_CIF_SALXIN
_audit_creation_date 2005-03-24
_audit_creation_method CSD-ConQuest-V1
_database_code_CSD SALXIN
_database_code_depnum_ccdc_archive 'CCDC 226262'
_chemical_formula_sum 'C12 H13 N5 O6'
_chemical_formula_moiety
;
C12 H13 N5 O6
;
_journal_coden_Cambridge 154
_journal_volume 57
_journal_year 2004
_journal_page_first 1103
_journal_name_full 'Aust.J.Chem. '
loop_
_publ_author_name
"G.P.A.Yap"
"I.Alkorta"
"N.Jagerovic"
"J.Elguero"
_chemical_name_systematic
;
trans-1-(2',4',6'-Trinitrophenyl)-3,4,5-trimethyl-2-pyrazoline
;
_cell_volume   1416.163
_exptl_crystal_colour 'orange'
_exptl_crystal_density_diffrn 1.516
_exptl_crystal_description 'plate'
_exptl_crystal_preparation 'bromobenzene'
_diffrn_ambient_temperature 120
#These two values have been output from a single CSD field.
_refine_ls_R_factor_gt 0.0529
_refine_ls_wR_factor_gt 0.0529
_symmetry_cell_setting monoclinic
_symmetry_space_group_name_H-M 'P 21/c'
_symmetry_Int_Tables_number 14
loop_
_symmetry_equiv_pos_site_id
_symmetry_equiv_pos_as_xyz
1 x,y,z
2 x,1/2-y,1/2+z
3 -x,-y,-z
4 -x,-1/2+y,-1/2-z
_cell_length_a 12.761(6)
_cell_length_b 8.704(2)
_cell_length_c 13.848(6)
_cell_angle_alpha 90
_cell_angle_beta 112.97(2)
_cell_angle_gamma 90
_cell_formula_units_Z 4
loop_
_atom_type_symbol
_atom_type_radius_bond
C 0.68
H 0.23
N 0.68
O 0.68
loop_
_atom_site_label
_atom_site_type_symbol
_atom_site_fract_x
_atom_site_fract_y
_atom_site_fract_z
N1 N 0.29214(19) 0.3812(2) 0.33717(15)
N2 N 0.22987(19) 0.3936(2) 0.40110(15)
N3 N 0.4539(2) 0.5028(2) 0.25140(15)
N4 N 0.7615(2) 0.2511(3) 0.53372(17)
N5 N 0.38255(19) 0.2110(2) 0.53234(15)
O1 O 0.37134(17) 0.5864(2) 0.23284(14)
O2 O 0.51638(16) 0.5066(2) 0.20255(13)
O3 O 0.82111(17) 0.2734(2) 0.48353(16)
O4 O 0.79741(17) 0.2000(2) 0.62329(14)
O5 O 0.39304(16) 0.2631(2) 0.61774(13)
O6 O 0.31985(16) 0.1048(2) 0.48696(13)
C1 C 0.1244(2) 0.3975(3) 0.34093(19)
C2 C 0.1010(2) 0.3875(3) 0.2252(2)
H1 H 0.04140 0.30810 0.19100
C3 C 0.2157(2) 0.3322(3) 0.22870(18)
H2 H 0.23630 0.38580 0.17470
C4 C 0.0360(3) 0.4243(3) 0.3848(2)
H3 H 0.07240 0.42810 0.46150
H4 H -0.01960 0.34050 0.36340
H5 H -0.00260 0.52210 0.35820
C5 C 0.0631(3) 0.5418(3) 0.1713(2)
H6 H -0.01210 0.56780 0.17020
H7 H 0.05910 0.53580 0.09930
H8 H 0.11800 0.62120 0.20980
C6 C 0.2221(2) 0.1590(3) 0.2192(2)
H9 H 0.29830 0.13020 0.22420
H10 H 0.16540 0.12560 0.15140
H11 H 0.20680 0.10940 0.27590
C7 C 0.4861(2) 0.3984(3) 0.34216(17)
C8 C 0.6001(2) 0.3635(3) 0.38891(18)
H12 H 0.65040 0.39140 0.35620
C9 C 0.6406(2) 0.2876(3) 0.48378(19)
C10 C 0.5694(2) 0.2463(3) 0.53358(18)
H13 H 0.59850 0.19910 0.60070
C11 C 0.4553(2) 0.2761(3) 0.48237(17)
C12 C 0.4062(2) 0.3525(3) 0.38484(17)
#END
