
#######################################################################
#
#                 Cambridge Crystallographic Data Centre
#                                CCDC
#
#######################################################################
#
# If this CIF has been generated from an entry in the Cambridge
# Structural Database, then it will include bibliographic, chemical,
# crystal, experimental, refinement or atomic coordinate data resulting
# from the CCDC's data processing and validation procedures.
#
#######################################################################

data_CSD_CIF_SALYAI
_audit_creation_date 2017-02-09
_audit_creation_method CSD-ConQuest-V1
_database_code_CSD SALYAI
_database_code_depnum_ccdc_archive 'CCDC 1479693'
_chemical_formula_sum 'C19 H16 N2 O4'
_chemical_formula_moiety
;
C19 H16 N2 O4
;
_journal_coden_Cambridge 1291
_journal_year 2017
_journal_page_first 1012
_journal_name_full 'Eur.J.Org.Chem. '
loop_
_publ_author_name
"Jiaming Liu"
"Lizhong Wang"
"Xushun Qing"
"Feixiang Zhang"
"Ting Wang"
"Cunde Wang"
_chemical_name_systematic
;
4-(4-methoxyphenyl)-6-(4-nitrophenyl)-3-oxabicyclo[3.1.0]hexane-1-carbonitrile
;
_cell_volume   1639.579
_exptl_crystal_colour 'white'
_exptl_crystal_density_diffrn 1.362
_exptl_crystal_description 'block'
_diffrn_ambient_temperature 296
#These two values have been output from a single CSD field.
_refine_ls_R_factor_gt 0.0488
_refine_ls_wR_factor_gt 0.0488
_symmetry_cell_setting monoclinic
_symmetry_space_group_name_H-M 'P 21/c'
_symmetry_Int_Tables_number 14
loop_
_symmetry_equiv_pos_site_id
_symmetry_equiv_pos_as_xyz
1 x,y,z
2 -x,1/2+y,1/2-z
3 -x,-y,-z
4 x,-1/2-y,-1/2+z
_cell_length_a 9.4652(12)
_cell_length_b 23.715(3)
_cell_length_c 7.4848(9)
_cell_angle_alpha 90
_cell_angle_beta 102.608(4)
_cell_angle_gamma 90
_cell_formula_units_Z 4
loop_
_atom_type_symbol
_atom_type_radius_bond
C 0.68
H 0.23
N 0.68
O 0.68
loop_
_atom_site_label
_atom_site_type_symbol
_atom_site_fract_x
_atom_site_fract_y
_atom_site_fract_z
O1 O 0.12002(13) 0.29971(5) 0.59644(17)
O2 O -0.44436(13) 0.31503(5) -0.05459(17)
C1 C -0.07953(19) 0.36043(7) 0.1494(2)
H1 H -0.01280 0.38760 0.12390
N1 N 0.60433(19) 0.60055(7) 0.7656(2)
C2 C -0.31305(17) 0.31655(7) 0.0688(2)
C3 C 0.10758(18) 0.33171(7) 0.4300(2)
H2 H 0.18320 0.31880 0.36440
C4 C -0.27532(18) 0.28209(7) 0.2195(2)
H3 H -0.34200 0.25480 0.24420
C5 C -0.13990(19) 0.28716(7) 0.3354(2)
H4 H -0.11500 0.26310 0.43900
C6 C -0.04036(17) 0.32643(6) 0.3034(2)
C7 C 0.14015(17) 0.39162(7) 0.4954(2)
H5 H 0.10820 0.42360 0.40900
O3 O 0.71913(17) 0.59977(6) 0.8783(2)
O4 O 0.56014(16) 0.64133(6) 0.6700(2)
C8 C 0.26352(18) 0.40012(7) 0.6574(2)
H6 H 0.32490 0.36580 0.69120
C9 C 0.57607(19) 0.49914(8) 0.8055(3)
H7 H 0.67490 0.49700 0.86730
C10 C 0.34613(17) 0.45381(7) 0.6885(2)
C11 C 0.0317(2) 0.43957(9) 0.7427(2)
C12 C 0.49033(19) 0.45158(7) 0.7771(3)
H8 H 0.53160 0.41620 0.81960
C13 C 0.51415(18) 0.54972(7) 0.7418(2)
C14 C 0.3711(2) 0.55414(8) 0.6549(3)
H9 H 0.33050 0.58970 0.61300
C15 C 0.10907(18) 0.39344(7) 0.6850(2)
C16 C -0.21335(19) 0.35551(7) 0.0329(3)
H10 H -0.23750 0.37890 -0.07250
C17 C 0.2870(2) 0.50583(8) 0.6296(3)
H11 H 0.18750 0.50840 0.57100
C18 C 0.0681(2) 0.33380(8) 0.7253(3)
H12 H 0.11450 0.32290 0.85230
H13 H -0.03820 0.33010 0.70870
C19 C -0.5483(2) 0.27427(8) -0.0246(3)
H14 H -0.50420 0.23670 -0.01340
H15 H -0.63200 0.27470 -0.12820
H16 H -0.57980 0.28350 0.08820
N2 N -0.0344(2) 0.47565(9) 0.7840(3)
#END
