
#######################################################################
#
#                 Cambridge Crystallographic Data Centre
#                                CCDC
#
#######################################################################
#
# If this CIF has been generated from an entry in the Cambridge
# Structural Database, then it will include bibliographic, chemical,
# crystal, experimental, refinement or atomic coordinate data resulting
# from the CCDC's data processing and validation procedures.
#
#######################################################################

data_CSD_CIF_SAPDAQ
_audit_creation_date 2012-02-14
_audit_creation_method CSD-ConQuest-V1
_database_code_CSD SAPDAQ
_database_code_depnum_ccdc_archive 'CCDC 861473'
_chemical_formula_sum 'C6 H2 N14 O2'
_chemical_formula_moiety
;
C6 H2 N14 O2
;
_journal_coden_Cambridge 1271
_journal_volume 36
_journal_year 2011
_journal_page_first 233
_journal_name_full 'Propellants,Explos.,Pyrotech. '
loop_
_publ_author_name
"P.W.Leonard"
"D.E.Chavez"
"P.F.Pagoria"
"D.L.Parish"
_chemical_name_systematic
;
1,2-bis(4-(tetrazol-5-yl)-1,2,5-oxadiazol-3-yl)diazene
;
_cell_volume   1127.176
_exptl_crystal_colour 'light orange'
_exptl_crystal_density_diffrn 1.781
_exptl_crystal_description 'thick plate'
_diffrn_ambient_temperature 173
#These two values have been output from a single CSD field.
_refine_ls_R_factor_gt 0.0505
_refine_ls_wR_factor_gt 0.0505
_symmetry_cell_setting monoclinic
_symmetry_space_group_name_H-M 'P 21/c'
_symmetry_Int_Tables_number 14
loop_
_symmetry_equiv_pos_site_id
_symmetry_equiv_pos_as_xyz
1 x,y,z
2 -x,1/2+y,1/2-z
3 -x,-y,-z
4 x,-1/2-y,-1/2+z
_cell_length_a 5.8169(10)
_cell_length_b 9.8110(16)
_cell_length_c 19.773(3)
_cell_angle_alpha 90
_cell_angle_beta 92.709(3)
_cell_angle_gamma 90
_cell_formula_units_Z 4
loop_
_atom_type_symbol
_atom_type_radius_bond
C 0.68
H 0.23
N 0.68
O 0.68
loop_
_atom_site_label
_atom_site_type_symbol
_atom_site_fract_x
_atom_site_fract_y
_atom_site_fract_z
N1 N -0.4830(3) 0.78170(17) 0.07603(8)
N2 N -0.6555(3) 0.85084(18) 0.10393(8)
N3 N -0.6315(3) 0.84711(18) 0.16945(8)
N4 N -0.4409(3) 0.77465(16) 0.18504(8)
H1 H -0.38500 0.75660 0.22620
C1 C -0.3505(3) 0.73458(19) 0.12762(8)
C2 C -0.1422(3) 0.65697(18) 0.11684(9)
N5 N -0.0867(3) 0.64262(17) 0.05414(8)
O1 O 0.1122(3) 0.56657(15) 0.05625(6)
N6 N 0.1799(3) 0.53312(18) 0.12091(8)
C3 C 0.0275(3) 0.5873(2) 0.15911(9)
N7 N 0.0677(3) 0.56517(18) 0.22901(8)
N8 N -0.0754(3) 0.62421(16) 0.26441(7)
C4 C -0.0260(3) 0.60242(19) 0.33462(9)
N9 N 0.1493(3) 0.53563(18) 0.36112(8)
O2 O 0.1284(3) 0.54488(15) 0.42980(6)
N10 N -0.0636(3) 0.61851(17) 0.44552(8)
C5 C -0.1596(3) 0.65401(19) 0.38724(9)
C6 C -0.3684(3) 0.73372(19) 0.38248(9)
N11 N -0.4684(3) 0.77941(17) 0.32549(8)
N12 N -0.6551(3) 0.85124(18) 0.34405(8)
N13 N -0.6692(3) 0.84910(18) 0.40933(8)
N14 N -0.4902(3) 0.77602(17) 0.43416(8)
H2 H -0.45810 0.75870 0.47720
#END
