
#######################################################################
#
#                 Cambridge Crystallographic Data Centre
#                                CCDC
#
#######################################################################
#
# If this CIF has been generated from an entry in the Cambridge
# Structural Database, then it will include bibliographic, chemical,
# crystal, experimental, refinement or atomic coordinate data resulting
# from the CCDC's data processing and validation procedures.
#
#######################################################################

data_CSD_CIF_SAPGUO
_audit_creation_date 2017-02-10
_audit_creation_method CSD-ConQuest-V1
_database_code_CSD SAPGUO
_database_code_depnum_ccdc_archive 'CCDC 1016326'
_chemical_formula_sum 'C20 H25 N1 O3'
_chemical_formula_moiety
;
C20 H25 N1 O3
;
_journal_coden_Cambridge 1003
_journal_volume 44
_journal_year 2014
_journal_page_first 548
_journal_name_full 'J.Chem.Cryst. '
loop_
_publ_author_name
"E.Anne Brock"
"S.G.Davies"
"D.S.Hewings"
"J.A.Lee"
"A.L.Thompson"
"J.E.Thomson"
_chemical_name_systematic
;
3-(dibenzylnitroryl)cyclohexane-1,2-diol
;
_cell_volume   1756.488
_exptl_crystal_colour 'colorless'
_exptl_crystal_density_diffrn 1.238
_exptl_crystal_description 'plate'
_diffrn_ambient_temperature 190
#These two values have been output from a single CSD field.
_refine_ls_R_factor_gt 0.0465
_refine_ls_wR_factor_gt 0.0465
_symmetry_cell_setting monoclinic
_symmetry_space_group_name_H-M 'P 21/c'
_symmetry_Int_Tables_number 14
loop_
_symmetry_equiv_pos_site_id
_symmetry_equiv_pos_as_xyz
1 x,y,z
2 -x,1/2+y,1/2-z
3 -x,-y,-z
4 x,-1/2-y,-1/2+z
_cell_length_a 5.5677(1)
_cell_length_b 19.3808(5)
_cell_length_c 16.2860(3)
_cell_angle_alpha 90
_cell_angle_beta 91.810(1)
_cell_angle_gamma 90
_cell_formula_units_Z 4
loop_
_atom_type_symbol
_atom_type_radius_bond
C 0.68
H 0.23
N 0.68
O 0.68
loop_
_atom_site_label
_atom_site_type_symbol
_atom_site_fract_x
_atom_site_fract_y
_atom_site_fract_z
N1 N 0.8961(3) 0.42523(8) 0.73159(9)
C1 C 0.9029(3) 0.38711(9) 0.64911(11)
C2 C 0.8295(3) 0.43421(10) 0.57704(11)
C3 C 0.7973(4) 0.39056(10) 0.49954(11)
C4 C 1.0266(4) 0.35202(11) 0.48043(12)
C5 C 1.1150(4) 0.30922(11) 0.55398(13)
C6 C 1.1449(3) 0.35374(11) 0.63110(12)
O1 O 0.7363(3) 0.43238(7) 0.43053(8)
O2 O 0.6128(3) 0.47078(8) 0.59020(8)
C7 C 0.9580(3) 0.37714(10) 0.80318(12)
C8 C 0.7895(4) 0.31687(10) 0.81033(11)
C9 C 0.8316(4) 0.25367(11) 0.77265(14)
C10 C 0.6763(4) 0.19832(12) 0.78225(15)
C11 C 0.4799(4) 0.20492(12) 0.83117(15)
C12 C 0.4373(4) 0.26696(11) 0.86994(14)
C13 C 0.5905(4) 0.32242(11) 0.85945(12)
C14 C 1.0730(3) 0.48543(10) 0.73369(12)
C15 C 1.0632(4) 0.52822(10) 0.81040(12)
C16 C 0.8770(4) 0.57457(11) 0.82205(14)
C17 C 0.8769(5) 0.61646(13) 0.89145(17)
C18 C 1.0628(5) 0.61200(13) 0.94946(16)
C19 C 1.2494(5) 0.56691(13) 0.93793(16)
C20 C 1.2505(4) 0.52529(12) 0.86853(14)
O3 O 0.6623(2) 0.44936(7) 0.74221(8)
H1 H 0.78440 0.34980 0.65340
H2 H 0.95620 0.46790 0.56790
H3 H 0.66590 0.35660 0.50800
H4 H 0.99360 0.32250 0.43260
H5 H 1.15050 0.38690 0.46660
H6 H 1.00050 0.27220 0.56400
H7 H 1.27290 0.28800 0.54210
H8 H 1.20170 0.32610 0.67820
H9 H 1.26390 0.39000 0.62040
H10 H 0.94870 0.40580 0.85240
H11 H 1.12270 0.36060 0.79720
H12 H 0.96690 0.24820 0.74050
H13 H 0.70480 0.15670 0.75450
H14 H 0.37610 0.16710 0.83760
H15 H 0.30250 0.27200 0.90280
H16 H 0.55740 0.36570 0.88480
H17 H 1.23070 0.46600 0.72870
H18 H 1.03540 0.51330 0.68570
H19 H 0.74990 0.57720 0.78210
H20 H 0.74640 0.64700 0.89790
H21 H 1.06040 0.64050 0.99670
H22 H 1.37870 0.56390 0.97740
H23 H 1.37980 0.49520 0.86070
H24 H 0.60260 0.47110 0.64220
H25 H 0.61530 0.45700 0.43900
#END
