
#######################################################################
#
#                 Cambridge Crystallographic Data Centre
#                                CCDC
#
#######################################################################
#
# If this CIF has been generated from an entry in the Cambridge
# Structural Database, then it will include bibliographic, chemical,
# crystal, experimental, refinement or atomic coordinate data resulting
# from the CCDC's data processing and validation procedures.
#
#######################################################################

data_CSD_CIF_SAPXEM
_audit_creation_date 1989-12-21
_audit_creation_method CSD-ConQuest-V1
_database_code_CSD SAPXEM
_chemical_formula_sum 'C6 H10 N2 O3'
_chemical_formula_moiety
;
C6 H10 N2 O3
;
_journal_coden_Cambridge 35
_journal_volume 54
_journal_year 1989
_journal_page_first 2255
_journal_name_full 'J.Org.Chem. '
loop_
_publ_author_name
"J.A.Schlueter"
"A.G.Cook"
_chemical_name_systematic
;
1-(N-Morpholino)-2-nitroethene
;
_chemical_melting_point 414.15
_cell_volume    739.404
_exptl_crystal_density_diffrn 1.42
_exptl_special_details
;
Melting point range 414.15-415.15K

;
_diffrn_ambient_temperature 153.15
#These two values have been output from a single CSD field.
_refine_ls_R_factor_gt 0.033
_refine_ls_wR_factor_gt 0.033
_symmetry_cell_setting monoclinic
_symmetry_space_group_name_H-M 'P 21/c'
_symmetry_Int_Tables_number 14
loop_
_symmetry_equiv_pos_site_id
_symmetry_equiv_pos_as_xyz
1 x,y,z
2 -x,1/2+y,1/2-z
3 -x,-y,-z
4 x,-1/2-y,-1/2+z
_cell_length_a 6.794(1)
_cell_length_b 9.426(1)
_cell_length_c 11.775(1)
_cell_angle_alpha 90
_cell_angle_beta 101.32(1)
_cell_angle_gamma 90
_cell_formula_units_Z 4
loop_
_atom_type_symbol
_atom_type_radius_bond
C 0.68
H 0.23
N 0.68
O 0.68
loop_
_atom_site_label
_atom_site_type_symbol
_atom_site_fract_x
_atom_site_fract_y
_atom_site_fract_z
O1 O 0.2461(1) -0.2634(1) 0.36448(8)
O2 O 0.3135(2) 0.2031(1) -0.12281(8)
O3 O 0.2360(2) 0.3145(1) 0.02428(8)
N1 N 0.1843(2) -0.0455(1) 0.19709(9)
N2 N 0.2696(2) 0.2014(1) -0.0240(1)
C1 C 0.1989(2) 0.0678(1) 0.1330(1)
C2 C 0.2567(2) 0.0709(1) 0.0281(1)
C3 C 0.0979(2) -0.0362(1) 0.3017(1)
C4 C 0.2254(2) -0.1196(1) 0.3987(1)
C5 C 0.3472(2) -0.2671(1) 0.2690(1)
C6 C 0.2291(2) -0.1899(1) 0.1642(1)
H1 H 0.169(2) 0.156(2) 0.164(1)
H2 H 0.284(2) -0.007(2) -0.016(1)
H3 H 0.095(2) 0.060(2) 0.322(1)
H4 H -0.037(2) -0.076(2) 0.285(1)
H5 H 0.361(2) -0.076(2) 0.423(1)
H6 H 0.160(2) -0.122(2) 0.466(2)
H7 H 0.488(2) -0.221(2) 0.292(1)
H8 H 0.362(2) -0.368(2) 0.249(1)
H9 H 0.093(2) -0.241(2) 0.134(1)
H10 H 0.307(2) -0.185(1) 0.103(1)
#END
