
#######################################################################
#
#                 Cambridge Crystallographic Data Centre
#                                CCDC
#
#######################################################################
#
# If this CIF has been generated from an entry in the Cambridge
# Structural Database, then it will include bibliographic, chemical,
# crystal, experimental, refinement or atomic coordinate data resulting
# from the CCDC's data processing and validation procedures.
#
#######################################################################

data_CSD_CIF_SAQMUU
_audit_creation_date 2012-08-03
_audit_creation_method CSD-ConQuest-V1
_database_code_CSD SAQMUU
_database_code_depnum_ccdc_archive 'CCDC 876517'
_chemical_formula_sum 'C22 H29 N1 O7'
_chemical_formula_moiety
;
C22 H29 N1 O7
;
_journal_coden_Cambridge 179
_journal_volume 51
_journal_year 2012
_journal_page_first 1724
_journal_name_full 'Angew.Chem.,Int.Ed. '
loop_
_publ_author_name
"B.P.Stupi"
"Hong Li"
"Jinchun Wang"
"Weidong Wu"
"S.E.Morris"
"V.A.Litosh"
"J.Muniz"
"M.N.Hersh"
"M.L.Metzker"
_chemical_name_systematic
;
1-(5-Methoxy-2-nitrophenyl)-2,2-dimethylpropyl 
4,7,7-trimethyl-3-oxo-2-oxabicyclo[2.2.1]heptane-1-carboxylate
;
_chemical_name_common
;
(S)-1-(5-Methoxy-2-nitrophenyl)-2,2-dimethylpropyl (1S)-camphanate
;
_cell_volume   2099.288
_exptl_crystal_colour 'colorless'
_exptl_crystal_density_diffrn 1.327
_exptl_crystal_description 'needle'
_diffrn_ambient_temperature 110
_refine_special_details
;
One methyl group is disordered over two sites with occupancies 0.684:0.316.

;
#These two values have been output from a single CSD field.
_refine_ls_R_factor_gt 0.0681
_refine_ls_wR_factor_gt 0.0681
_symmetry_cell_setting orthorhombic
_symmetry_space_group_name_H-M 'P 21 21 21'
_symmetry_Int_Tables_number 19
loop_
_symmetry_equiv_pos_site_id
_symmetry_equiv_pos_as_xyz
1 x,y,z
2 1/2-x,-y,1/2+z
3 -x,1/2+y,1/2-z
4 1/2+x,1/2-y,-z
_cell_length_a 6.2856(2)
_cell_length_b 14.9977(5)
_cell_length_c 22.2690(9)
_cell_angle_alpha 90
_cell_angle_beta 90
_cell_angle_gamma 90
_cell_formula_units_Z 4
loop_
_atom_type_symbol
_atom_type_radius_bond
C 0.68
H 0.23
N 0.68
O 0.68
loop_
_atom_site_label
_atom_site_type_symbol
_atom_site_fract_x
_atom_site_fract_y
_atom_site_fract_z
O1 O 0.6334(5) 0.5336(2) 0.47159(16)
O2 O 0.5569(6) 0.4123(3) 0.5264(2)
O3 O 0.5657(6) 0.6473(2) 0.38205(17)
O4 O 0.9171(5) 0.6641(2) 0.36427(16)
O5 O 0.5760(6) 0.7952(3) 0.23609(18)
O6 O 0.5967(7) 0.7607(3) 0.14362(17)
O7 O 1.4387(6) 0.5820(3) 0.2108(2)
N1 N 0.6713(7) 0.7596(3) 0.1942(2)
C1 C 0.8210(7) 0.5612(3) 0.4369(2)
C2 C 0.6832(8) 0.4522(3) 0.4962(3)
C3 C 0.9088(8) 0.4312(3) 0.4797(3)
C4 C 1.0415(9) 0.5011(3) 0.5148(3)
H1 H 1.19560 0.48840 0.51140
H2 H 1.00110 0.50200 0.55770
C5 C 0.9845(8) 0.5910(3) 0.4837(3)
H3 H 0.92210 0.63390 0.51250
H4 H 1.11080 0.61830 0.46450
C6 C 0.9109(8) 0.4708(3) 0.4140(2)
C7 C 0.9712(9) 0.3345(3) 0.4880(3)
H5 H 0.95920 0.31850 0.53050
H6 H 1.11830 0.32600 0.47460
H7 H 0.87640 0.29660 0.46420
C8 C 1.1298(8) 0.4755(3) 0.3852(3)
H8 H 1.12040 0.50800 0.34720
H9 H 1.18230 0.41500 0.37770
H10 H 1.22800 0.50660 0.41230
C9 C 0.7577(8) 0.4237(3) 0.3717(3)
H11 H 0.74180 0.45880 0.33490
H12 H 0.61890 0.41730 0.39130
H13 H 0.81380 0.36450 0.36180
C10 C 0.7474(7) 0.6285(3) 0.3924(2)
C11 C 0.8791(7) 0.7352(3) 0.3202(2)
H14 H 0.72200 0.74330 0.31570
C12 C 0.9744(8) 0.8223(3) 0.3445(2)
C13 C 0.9463(10) 0.8966(3) 0.2979(3)
H15 H 1.02710 0.88170 0.26160
H16 H 0.99860 0.95300 0.31440
H17 H 0.79520 0.90250 0.28770
C14 C 1.2108(8) 0.8144(4) 0.3599(3)
H18 H 1.23170 0.76530 0.38840
H19 H 1.26010 0.87030 0.37800
H20 H 1.29200 0.80260 0.32320
C15 C 0.8540(9) 0.8478(4) 0.4018(3)
H21 H 0.87750 0.80220 0.43260
H22 H 0.70160 0.85220 0.39300
H23 H 0.90590 0.90550 0.41650
C16 C 0.9685(7) 0.7025(3) 0.2611(2)
C17 C 0.8762(7) 0.7149(3) 0.2040(2)
C18 C 0.9695(9) 0.6819(4) 0.1520(3)
H24 H 0.90070 0.68960 0.11430
C19 C 1.1615(7) 0.6382(4) 0.1550(3)
H25 H 1.23120 0.61850 0.11960
C20 C 1.2494(6) 0.6240(3) 0.2103(3)
C21 C 1.1658(7) 0.6545(3) 0.2596(3)
H26 H 1.23880 0.64450 0.29640
C22 C 1.5054(13) 0.5477(7) 0.2635(3)
H27 H 1.63460 0.51250 0.25690
H28 H 1.39390 0.50940 0.28030
H29 H 1.53610 0.59630 0.29160
C23? C 1.504(2) 0.5444(14) 0.1590(4)
H30? H 1.63290 0.50930 0.16630
H31? H 1.53490 0.59120 0.12950
H32? H 1.39180 0.50540 0.14340
#END
