
#######################################################################
#
#                 Cambridge Crystallographic Data Centre
#                                CCDC
#
#######################################################################
#
# If this CIF has been generated from an entry in the Cambridge
# Structural Database, then it will include bibliographic, chemical,
# crystal, experimental, refinement or atomic coordinate data resulting
# from the CCDC's data processing and validation procedures.
#
#######################################################################

data_CSD_CIF_SAQSUA
_audit_creation_date 2012-08-03
_audit_creation_method CSD-ConQuest-V1
_database_code_CSD SAQSUA
_database_code_depnum_ccdc_archive 'CCDC 856821'
_chemical_formula_sum 'C32 H30 N2 O4'
_chemical_formula_moiety
;
C32 H30 N2 O4
;
_journal_coden_Cambridge 182
_journal_volume 48
_journal_year 2012
_journal_page_first 4492
_journal_name_full 'Chem.Commun. '
loop_
_publ_author_name
"Hong Hou"
"Yuan Zhang"
"Chao-Guo Yan"
_chemical_name_systematic
;
5,5-Dimethyl-2-((4-methylphenyl)(2-(4-nitrobenzyl)isoquinolinium-4-yl)methyl)-
1,3-dioxocyclohexan-2-ide
;
_cell_volume   1476.512
_exptl_crystal_density_diffrn 1.14
_diffrn_ambient_temperature 296
#These two values have been output from a single CSD field.
_refine_ls_R_factor_gt 0.1439
_refine_ls_wR_factor_gt 0.1439
_symmetry_cell_setting triclinic
_symmetry_space_group_name_H-M 'P -1'
_symmetry_Int_Tables_number 2
loop_
_symmetry_equiv_pos_site_id
_symmetry_equiv_pos_as_xyz
1 x,y,z
2 -x,-y,-z
_cell_length_a 9.822(3)
_cell_length_b 12.203(4)
_cell_length_c 12.763(4)
_cell_angle_alpha 86.613(4)
_cell_angle_beta 76.168(4)
_cell_angle_gamma 84.075(4)
_cell_formula_units_Z 2
loop_
_atom_type_symbol
_atom_type_radius_bond
C 0.68
H 0.23
N 0.68
O 0.68
loop_
_atom_site_label
_atom_site_type_symbol
_atom_site_fract_x
_atom_site_fract_y
_atom_site_fract_z
C1 C 0.7952(7) 0.1326(6) 0.5416(5)
C2 C 0.7156(7) 0.1851(6) 0.4712(5)
H1 H 0.62200 0.17180 0.47970
C3 C 0.7763(8) 0.2546(7) 0.3915(6)
H2 H 0.72190 0.28960 0.34670
C4 C 0.9141(9) 0.2758(6) 0.3737(7)
H3 H 0.95190 0.32400 0.31760
C5 C 0.9958(8) 0.2259(6) 0.4386(6)
H4 H 1.08970 0.23980 0.42630
C6 C 0.9383(7) 0.1528(6) 0.5247(5)
C7 C 1.0183(7) 0.1019(6) 0.5917(6)
H5 H 1.11210 0.11550 0.58090
C8 C 1.0492(7) -0.0156(6) 0.7463(6)
H6 H 1.01400 -0.08480 0.77660
H7 H 1.14590 -0.03140 0.70620
C9 C 1.0462(6) 0.0584(6) 0.8356(5)
C10 C 0.9385(7) 0.1415(6) 0.8692(6)
H8 H 0.86140 0.15030 0.83800
C11 C 0.9464(9) 0.2109(7) 0.9494(6)
H9 H 0.87680 0.26810 0.97090
C12 C 1.0596(8) 0.1933(6) 0.9966(6)
C13 C 1.1608(8) 0.1142(7) 0.9676(6)
H10 H 1.23450 0.10400 1.00240
C14 C 1.1583(7) 0.0466(6) 0.8864(5)
H11 H 1.23190 -0.00770 0.86480
C15 C 0.8259(6) 0.0105(6) 0.6904(5)
H12 H 0.79220 -0.04000 0.74560
C16 C 0.7365(6) 0.0609(5) 0.6291(5)
C17 C 0.5840(6) 0.0388(5) 0.6545(5)
H13 H 0.56430 0.02170 0.58580
C18 C 0.5524(6) -0.0616(5) 0.7289(5)
C19 C 0.5612(7) -0.1638(6) 0.6848(6)
H14 H 0.58590 -0.16900 0.61010
C20 C 0.5344(9) -0.2588(7) 0.7488(7)
H15 H 0.54220 -0.32620 0.71650
C21 C 0.4958(8) -0.2539(7) 0.8608(7)
C22 C 0.4877(8) -0.1533(7) 0.9039(6)
H16 H 0.46420 -0.14830 0.97870
C23 C 0.5132(7) -0.0586(6) 0.8407(5)
H17 H 0.50390 0.00860 0.87370
C24 C 0.4646(11) -0.3611(8) 0.9305(8)
H18 H 0.53730 -0.41860 0.90470
H19 H 0.37530 -0.38300 0.92540
H20 H 0.46190 -0.34800 1.00440
C25 C 0.4884(6) 0.1441(5) 0.6930(5)
C26 C 0.3659(6) 0.1648(6) 0.6544(5)
C27 C 0.2691(7) 0.2684(6) 0.6846(6)
H21 H 0.19160 0.24980 0.74370
H22 H 0.22980 0.29330 0.62350
C28 C 0.3359(7) 0.3634(6) 0.7178(6)
C29 C 0.4237(8) 0.3188(6) 0.7961(6)
H23 H 0.36060 0.30190 0.86480
H24 H 0.47910 0.37630 0.80760
C30 C 0.5226(7) 0.2166(6) 0.7614(5)
C31 C 0.4311(9) 0.4148(7) 0.6183(7)
H25 H 0.47610 0.47300 0.64000
H26 H 0.37570 0.44420 0.56890
H27 H 0.50150 0.35950 0.58370
C32 C 0.2232(9) 0.4521(7) 0.7712(7)
H28 H 0.15830 0.41930 0.83020
H29 H 0.17340 0.48480 0.71920
H30 H 0.26720 0.50790 0.79770
N1 N 0.9630(5) 0.0340(5) 0.6712(5)
N2 N 1.0672(9) 0.2670(7) 1.0817(6)
O1 O 0.9812(11) 0.3455(7) 1.1016(6)
O2 O 1.1529(8) 0.2462(7) 1.1335(6)
O3 O 0.6295(5) 0.2008(4) 0.8009(4)
O4 O 0.3317(5) 0.1001(4) 0.5927(4)
#END
