
#######################################################################
#
#                 Cambridge Crystallographic Data Centre
#                                CCDC
#
#######################################################################
#
# If this CIF has been generated from an entry in the Cambridge
# Structural Database, then it will include bibliographic, chemical,
# crystal, experimental, refinement or atomic coordinate data resulting
# from the CCDC's data processing and validation procedures.
#
#######################################################################

data_CSD_CIF_SAQVEK
_audit_creation_date 2001-11-29
_audit_creation_method CSD-ConQuest-V1
_database_code_CSD SAQVEK
_database_code_depnum_ccdc_archive 'CCDC 173382'
_chemical_formula_sum 'C18 H20 N2 O6'
_chemical_formula_moiety
;
C18 H20 N2 O6
;
_journal_coeditor_code "IUCr DA1198"
_journal_coden_Cambridge 591
_journal_volume 57
_journal_year 2001
_journal_page_first 1089
_journal_name_full 'Acta Crystallogr.,Sect.C:Cryst.Struct.Commun. '
loop_
_publ_author_name
"J.Zukerman-Schpector"
"M.Vega"
"I.Caracelli"
"L.C.Dias"
"A.M.A.P.Fernandes"
_chemical_name_systematic
;
8-Methoxy-3-methyl-N-(4-nitrobenzoyl)-1,2,3,4,5,6,7,8-octahydroquinoline-1,6-d
ione
;
_cell_volume   3531.103
_exptl_crystal_colour 'colorless'
_exptl_crystal_density_diffrn 1.356
_exptl_crystal_description 'irregular'
_diffrn_ambient_temperature 293
#These two values have been output from a single CSD field.
_refine_ls_R_factor_gt 0.0442
_refine_ls_wR_factor_gt 0.0442
_symmetry_cell_setting monoclinic
_symmetry_space_group_name_H-M 'I 2/a'
_symmetry_Int_Tables_number 15
loop_
_symmetry_equiv_pos_site_id
_symmetry_equiv_pos_as_xyz
1 x,y,z
2 1/2+x,1/2+y,1/2+z
3 1/2+x,-y,z
4 x,1/2-y,1/2+z
5 -x,-y,-z
6 -1/2-x,-1/2-y,-1/2-z
7 -1/2-x,y,-z
8 -x,-1/2+y,-1/2-z
_cell_length_a 10.2455(9)
_cell_length_b 12.664(1)
_cell_length_c 27.446(3)
_cell_angle_alpha 90
_cell_angle_beta 97.441(9)
_cell_angle_gamma 90
_cell_formula_units_Z 8
loop_
_atom_type_symbol
_atom_type_radius_bond
C 0.68
H 0.23
N 0.68
O 0.68
loop_
_atom_site_label
_atom_site_type_symbol
_atom_site_fract_x
_atom_site_fract_y
_atom_site_fract_z
N1 N -0.27051(17) 0.27646(13) 0.09344(6)
N2 N -0.1820(3) 0.7863(2) 0.09830(14)
O1 O -0.32587(15) 0.35954(13) 0.16095(6)
O2 O 0.1583(2) 0.0669(2) 0.22006(10)
O3 O -0.00126(15) 0.30550(13) 0.17018(5)
O4 O -0.38402(19) 0.33586(13) 0.02204(6)
O5 O -0.0839(3) 0.80535(19) 0.12680(14)
O6 O -0.2495(4) 0.8533(2) 0.07863(16)
C1 C -0.1960(2) 0.20576(18) 0.17746(8)
H1 H -0.25400 0.18680 0.20180
C2 C -0.2707(2) 0.28589(18) 0.14380(8)
C3 C -0.2356(2) 0.17599(17) 0.07002(8)
H2 H -0.20200 0.19460 0.03930
C4 C -0.1243(2) 0.12273(18) 0.10279(8)
H3 H -0.10260 0.05650 0.08800
H4 H -0.04680 0.16750 0.10560
C5 C -0.1614(2) 0.10179(19) 0.15326(9)
H5 H -0.24240 0.05980 0.14850
C6 C -0.0603(3) 0.0368(2) 0.18675(11)
H6 H -0.10700 -0.00330 0.20920
H7 H -0.02060 -0.01360 0.16650
C7 C 0.0465(3) 0.0958(2) 0.21611(9)
C8 C 0.0034(3) 0.1907(2) 0.24198(9)
H8 H 0.08010 0.22820 0.25770
H9 H -0.04870 0.16880 0.26730
C9 C -0.0780(2) 0.2641(2) 0.20581(8)
H10 H -0.11060 0.32290 0.22400
C10 C -0.3544(3) 0.1051(2) 0.05681(10)
H11 H -0.39020 0.08560 0.08620
H12 H -0.32810 0.04260 0.04080
H13 H -0.41990 0.14210 0.03510
C11 C 0.0886(3) 0.3847(3) 0.18940(11)
H14 H 0.04280 0.43750 0.20570
H15 H 0.12770 0.41670 0.16310
H16 H 0.15620 0.35360 0.21250
C12 C -0.3227(2) 0.35760(18) 0.06124(8)
C13 C -0.2879(2) 0.46904(17) 0.07405(8)
C14 C -0.1688(2) 0.49518(19) 0.10161(9)
H17 H -0.11230 0.44220 0.11490
C15 C -0.1346(2) 0.5990(2) 0.10913(10)
H18 H -0.05530 0.61710 0.12770
C16 C -0.2185(3) 0.67560(19) 0.08899(11)
C17 C -0.3371(3) 0.6530(2) 0.06144(10)
H19 H -0.39310 0.70670 0.04840
C18 C -0.3703(2) 0.54884(19) 0.05383(9)
H20 H -0.44920 0.53150 0.03480
#END
