
#######################################################################
#
#                 Cambridge Crystallographic Data Centre
#                                CCDC
#
#######################################################################
#
# If this CIF has been generated from an entry in the Cambridge
# Structural Database, then it will include bibliographic, chemical,
# crystal, experimental, refinement or atomic coordinate data resulting
# from the CCDC's data processing and validation procedures.
#
#######################################################################

data_CSD_CIF_SAQVUE
_audit_creation_date 2017-02-12
_audit_creation_method CSD-ConQuest-V1
_database_code_CSD SAQVUE
_database_code_depnum_ccdc_archive 'CCDC 1486184'
_chemical_formula_sum 'C25 H17 N3 O3'
_chemical_formula_moiety
;
C25 H17 N3 O3
;
_journal_coden_Cambridge 574
_journal_volume 141
_journal_year 2017
_journal_page_first 333
_journal_name_full 'Dyes Pigm. '
loop_
_publ_author_name
"P.Szlachcic"
"A.A.Fedorchuk"
"A.Danel"
"B.Jarosz"
"A.M.El Naggar"
"A.A.Albassam"
"A.Wojciechowski"
"E.Gondek"
"T.Uchacz"
"K.Stadnicka"
"G.Lakshminarayana"
"I.V.Kityk"
_chemical_name_systematic
;
4-(5-nitro-1,3-benzoxazol-2-yl)-N,N-diphenylaniline
;
_cell_volume    980.181
_exptl_crystal_colour 'yellow'
_exptl_crystal_density_diffrn 1.38
_exptl_crystal_description 'plate'
_diffrn_ambient_temperature 115
#These two values have been output from a single CSD field.
_refine_ls_R_factor_gt 0.0407
_refine_ls_wR_factor_gt 0.0407
_symmetry_cell_setting triclinic
_symmetry_space_group_name_H-M 'P -1'
_symmetry_Int_Tables_number 2
loop_
_symmetry_equiv_pos_site_id
_symmetry_equiv_pos_as_xyz
1 x,y,z
2 -x,-y,-z
_cell_length_a 7.0786(2)
_cell_length_b 7.8200(2)
_cell_length_c 18.1392(5)
_cell_angle_alpha 101.704(2)
_cell_angle_beta 90.861(2)
_cell_angle_gamma 94.150(2)
_cell_formula_units_Z 2
loop_
_atom_type_symbol
_atom_type_radius_bond
C 0.68
H 0.23
N 0.68
O 0.68
loop_
_atom_site_label
_atom_site_type_symbol
_atom_site_fract_x
_atom_site_fract_y
_atom_site_fract_z
O1 O 0.74158(11) 0.41806(10) 0.48913(4)
C1 C 0.84692(15) 0.30159(15) 0.44167(6)
N1 N 0.85199(14) 0.14769(13) 0.45827(5)
C2 C 0.73904(15) 0.15660(14) 0.52143(6)
C3 C 0.68623(16) 0.03125(14) 0.56315(6)
H1 H 0.73020 -0.08290 0.55260
C4 C 0.56450(15) 0.08425(14) 0.62151(6)
N2 N 0.49405(14) -0.04521(13) 0.66507(5)
O2 O 0.53330(13) -0.19822(11) 0.64327(5)
O3 O 0.39775(14) 0.00314(12) 0.72011(5)
C5 C 0.49836(16) 0.25121(15) 0.64009(6)
H2 H 0.41660 0.27910 0.68110
C6 C 0.55252(16) 0.37643(14) 0.59832(6)
H3 H 0.51060 0.49130 0.60940
C7 C 0.67120(15) 0.32293(14) 0.53975(6)
C8 C 0.93277(15) 0.36193(15) 0.37821(6)
C9 C 0.92925(16) 0.53539(15) 0.36918(6)
H4 H 0.86890 0.61770 0.40530
C10 C 1.01308(16) 0.58816(15) 0.30795(6)
H5 H 1.00910 0.70600 0.30230
C11 C 1.10394(16) 0.46808(15) 0.25421(6)
C12 C 1.10440(16) 0.29399(15) 0.26308(6)
H6 H 1.16310 0.21100 0.22670
C13 C 1.02048(16) 0.24166(15) 0.32404(6)
H7 H 1.02230 0.12330 0.32920
N3 N 1.19377(14) 0.52029(13) 0.19299(6)
C14 C 1.34126(16) 0.42504(15) 0.15501(6)
C15 C 1.34218(17) 0.39000(16) 0.07640(7)
H8 H 1.24250 0.42500 0.04850
C16 C 1.48903(18) 0.30386(16) 0.03901(7)
H9 H 1.49050 0.28280 -0.01440
C17 C 1.63354(18) 0.24824(16) 0.07883(7)
H10 H 1.73330 0.18910 0.05290
C18 C 1.63082(17) 0.27994(16) 0.15716(7)
H11 H 1.72790 0.24020 0.18480
C19 C 1.48672(17) 0.36948(15) 0.19525(7)
H12 H 1.48720 0.39290 0.24870
C20 C 1.13866(16) 0.66776(14) 0.16483(6)
C21 C 0.94898(18) 0.68865(17) 0.15015(7)
H13 H 0.85270 0.60680 0.16080
C22 C 0.90111(19) 0.83027(18) 0.11974(8)
H14 H 0.77160 0.84650 0.11100
C23 C 1.0413(2) 0.94793(16) 0.10205(7)
H15 H 1.00810 1.04190 0.07970
C24 C 1.22990(18) 0.92736(15) 0.11718(7)
H16 H 1.32600 1.00800 0.10540
C25 C 1.27904(17) 0.78950(15) 0.14943(7)
H17 H 1.40820 0.77800 0.16100
#END
