
#######################################################################
#
#                 Cambridge Crystallographic Data Centre
#                                CCDC
#
#######################################################################
#
# If this CIF has been generated from an entry in the Cambridge
# Structural Database, then it will include bibliographic, chemical,
# crystal, experimental, refinement or atomic coordinate data resulting
# from the CCDC's data processing and validation procedures.
#
#######################################################################

data_CSD_CIF_SARNEG
_audit_creation_date 2012-07-11
_audit_creation_method CSD-ConQuest-V1
_database_code_CSD SARNEG
_database_code_depnum_ccdc_archive 'CCDC 839648'
_chemical_formula_sum 'C28 H28 N4 O5'
_chemical_formula_moiety
;
C28 H28 N4 O5
;
_journal_coden_Cambridge 1475
_journal_volume 3
_journal_year 2012
_journal_page_first 1623
_journal_name_full 'Chemical Science '
loop_
_publ_author_name
"E.E.Stache"
"C.A.Seizert"
"E.M.Ferreira"
_chemical_name_systematic
;
2-(1-Oxo-2-phenyl-7a-(pyridin-2-ylmethyl)hexahydro-1H-pyrrolo[1,2-c]imidazol-3
-yl)propyl 4-nitrobenzoate
;
_cell_volume   2445.677
_exptl_crystal_colour 'colorless'
_exptl_crystal_density_diffrn 1.359
_exptl_crystal_description 'rod'
_diffrn_ambient_temperature 120
#These two values have been output from a single CSD field.
_refine_ls_R_factor_gt 0.0402
_refine_ls_wR_factor_gt 0.0402
_symmetry_cell_setting orthorhombic
_symmetry_space_group_name_H-M 'P 21 21 21'
_symmetry_Int_Tables_number 19
loop_
_symmetry_equiv_pos_site_id
_symmetry_equiv_pos_as_xyz
1 x,y,z
2 1/2-x,-y,1/2+z
3 -x,1/2+y,1/2-z
4 1/2+x,1/2-y,-z
_cell_length_a 8.5307(4)
_cell_length_b 9.5523(5)
_cell_length_c 30.0128(13)
_cell_angle_alpha 90
_cell_angle_beta 90
_cell_angle_gamma 90
_cell_formula_units_Z 4
loop_
_atom_type_symbol
_atom_type_radius_bond
C 0.68
H 0.23
N 0.68
O 0.68
loop_
_atom_site_label
_atom_site_type_symbol
_atom_site_fract_x
_atom_site_fract_y
_atom_site_fract_z
C1 C 0.3299(6) 0.1011(5) 0.35917(17)
C2 C 0.2788(6) 0.2290(6) 0.34505(19)
H1 H 0.23930 0.29390 0.36520
C3 C 0.3829(7) 0.0024(6) 0.33029(16)
H2 H 0.41420 -0.08500 0.34070
C4 C 0.2870(6) 0.2603(6) 0.29993(19)
H3 H 0.25480 0.34760 0.28970
C5 C 0.3898(7) 0.0326(5) 0.28579(16)
H4 H 0.42630 -0.03430 0.26580
C6 C 0.3425(6) 0.1623(6) 0.27044(16)
C7 C 0.3578(7) 0.2035(6) 0.22271(18)
C8 C 0.4559(7) 0.1308(6) 0.15172(16)
H5 H 0.56710 0.15150 0.15050
H6 H 0.39940 0.21300 0.14160
C9 C 0.4198(6) 0.0088(6) 0.12127(15)
H7 H 0.44120 -0.07800 0.13760
C10 C 0.5283(6) 0.0141(6) 0.08072(16)
H8 H 0.51700 0.10280 0.06600
H9 H 0.50110 -0.05980 0.06050
H10 H 0.63500 0.00250 0.09020
C11 C 0.2507(6) 0.0035(6) 0.10432(15)
H11 H 0.24090 -0.07660 0.08410
C12 C 0.1390(6) -0.1218(5) 0.17186(16)
C13 C 0.0985(6) -0.0952(5) 0.21582(16)
H12 H 0.06030 -0.00780 0.22410
C14 C 0.1927(7) -0.2540(5) 0.15971(18)
H13 H 0.21680 -0.27270 0.13010
C15 C 0.1156(7) -0.2005(6) 0.24740(18)
H14 H 0.08900 -0.18400 0.27700
C16 C 0.2101(7) -0.3562(6) 0.19113(19)
H15 H 0.24780 -0.44370 0.18280
C17 C 0.1729(6) -0.3311(6) 0.23454(19)
H16 H 0.18570 -0.40140 0.25570
C18 C 0.0090(6) 0.0811(5) 0.13510(16)
C19 C 0.0523(6) 0.1838(5) 0.09838(15)
C20 C -0.0643(6) 0.1839(6) 0.05906(15)
H17 H -0.12400 0.09750 0.05810
H18 H -0.13630 0.26230 0.06110
C21 C 0.0433(7) 0.1977(6) 0.01820(17)
H19 H -0.00680 0.16130 -0.00840
H20 H 0.07320 0.29440 0.01320
C22 C 0.1830(6) 0.1097(5) 0.03128(15)
H21 H 0.16420 0.01180 0.02460
H22 H 0.27610 0.14000 0.01540
C23 C 0.0664(6) 0.3306(5) 0.12030(15)
H23 H -0.03390 0.35480 0.13340
H24 H 0.14260 0.32540 0.14420
C24 C 0.1143(6) 0.4460(5) 0.08895(15)
C25 C 0.2673(6) 0.4635(6) 0.07488(16)
H25 H 0.34580 0.40510 0.08570
C26 C 0.3030(7) 0.5670(5) 0.04492(17)
H26 H 0.40530 0.57900 0.03490
C27 C 0.1843(7) 0.6531(6) 0.02990(16)
H27 H 0.20390 0.72350 0.00920
C28 C 0.0383(7) 0.6317(6) 0.04625(17)
H28 H -0.04050 0.69180 0.03660
N1 N 0.3346(5) 0.0714(6) 0.40688(15)
N2 N 0.1317(5) -0.0111(4) 0.13976(12)
N3 N 0.2020(5) 0.1311(4) 0.07996(13)
N4 N -0.0017(5) 0.5314(5) 0.07507(14)
O1 O 0.3222(5) 0.1696(4) 0.43316(12)
O2 O 0.3580(4) -0.0500(5) 0.41876(11)
O3 O 0.3270(5) 0.3183(4) 0.20856(13)
O4 O 0.4112(4) 0.0991(4) 0.19732(11)
O5 O -0.1121(4) 0.0801(3) 0.15672(11)
#END
