
#######################################################################
#
#                 Cambridge Crystallographic Data Centre
#                                CCDC
#
#######################################################################
#
# If this CIF has been generated from an entry in the Cambridge
# Structural Database, then it will include bibliographic, chemical,
# crystal, experimental, refinement or atomic coordinate data resulting
# from the CCDC's data processing and validation procedures.
#
#######################################################################

data_CSD_CIF_SATBUL
_audit_creation_date 2005-10-13
_audit_creation_method CSD-ConQuest-V1
_database_code_CSD SATBUL
_database_code_depnum_ccdc_archive 'CCDC 282213'
_chemical_formula_sum 'C7 H7 N3 O4'
_chemical_formula_moiety
;
C7 H7 N3 O4
;
_journal_coeditor_code "IUCr FR1523"
_journal_coden_Cambridge 591
_journal_volume 61
_journal_year 2005
_journal_page_first o515
_journal_name_full 'Acta Crystallogr.,Sect.C:Cryst.Struct.Commun. '
loop_
_publ_author_name
"B.Zarychta"
"A.Piecyk-Mizgala"
"Z.Daszkiewicz"
"J.Zaleski"
_chemical_name_systematic
;
N-methyl-N,2-dinitroaniline
;
_chemical_melting_point 340
_cell_volume    826.258
_exptl_crystal_colour 'colorless'
_exptl_crystal_density_diffrn 1.585
_exptl_special_details
;
Melting point range 340-341K

;
_exptl_crystal_description 'irregular'
_exptl_crystal_preparation 'ethanol'
_diffrn_ambient_temperature 100.00
#These two values have been output from a single CSD field.
_refine_ls_R_factor_gt 0.0315
_refine_ls_wR_factor_gt 0.0315
_symmetry_cell_setting monoclinic
_symmetry_space_group_name_H-M 'P 21/n'
_symmetry_Int_Tables_number 14
loop_
_symmetry_equiv_pos_site_id
_symmetry_equiv_pos_as_xyz
1 x,y,z
2 1/2-x,1/2+y,1/2-z
3 -x,-y,-z
4 -1/2+x,-1/2-y,-1/2+z
_cell_length_a 7.0470(8)
_cell_length_b 14.4473(12)
_cell_length_c 8.1165(8)
_cell_angle_alpha 90
_cell_angle_beta 90.814(8)
_cell_angle_gamma 90
_cell_formula_units_Z 4
loop_
_atom_type_symbol
_atom_type_radius_bond
C 0.68
H 0.23
N 0.68
O 0.68
loop_
_atom_site_label
_atom_site_type_symbol
_atom_site_fract_x
_atom_site_fract_y
_atom_site_fract_z
C1 C 0.22803(17) 0.60607(9) 0.36343(16)
C2 C 0.25099(18) 0.50913(9) 0.36322(15)
C3 C 0.26524(18) 0.46040(9) 0.50953(16)
C4 C 0.25786(19) 0.50742(10) 0.65795(17)
C5 C 0.23134(19) 0.60261(10) 0.65981(17)
C6 C 0.21559(18) 0.65114(9) 0.51269(16)
C7 C 0.0234(2) 0.67519(12) 0.1375(2)
N1 N 0.20631(15) 0.66061(7) 0.21752(13)
N2 N 0.36519(16) 0.68446(7) 0.13714(13)
N3 N 0.25991(16) 0.45593(7) 0.20892(14)
O1 O 0.51851(13) 0.67029(7) 0.20803(12)
O2 O 0.34606(14) 0.72050(6) 0.00036(11)
O3 O 0.24804(17) 0.37197(6) 0.21699(13)
O4 O 0.27871(19) 0.49712(7) 0.07924(12)
H1 H 0.285(2) 0.3931(10) 0.5033(17)
H2 H 0.272(2) 0.4768(10) 0.756(2)
H3 H 0.222(2) 0.6350(11) 0.761(2)
H4 H 0.194(2) 0.7168(11) 0.5149(18)
H5 H -0.075(3) 0.6768(11) 0.222(2)
H6 H 0.003(3) 0.6254(14) 0.061(2)
H7 H 0.027(3) 0.7353(13) 0.082(2)
#END
