
#######################################################################
#
#                 Cambridge Crystallographic Data Centre
#                                CCDC
#
#######################################################################
#
# If this CIF has been generated from an entry in the Cambridge
# Structural Database, then it will include bibliographic, chemical,
# crystal, experimental, refinement or atomic coordinate data resulting
# from the CCDC's data processing and validation procedures.
#
#######################################################################

data_CSD_CIF_SATCUM
_audit_creation_date 2005-10-13
_audit_creation_method CSD-ConQuest-V1
_database_code_CSD SATCUM
_database_code_depnum_ccdc_archive 'CCDC 282219'
_chemical_formula_sum 'C17 H14 N2 O2'
_chemical_formula_moiety
;
C17 H14 N2 O2
;
_journal_coeditor_code "IUCr BM1609"
_journal_coden_Cambridge 591
_journal_volume 61
_journal_year 2005
_journal_page_first o527
_journal_name_full 'Acta Crystallogr.,Sect.C:Cryst.Struct.Commun. '
loop_
_publ_author_name
"V.N.Sonar"
"S.Parkin"
"P.A.Crooks"
_chemical_name_systematic
;
(E)-3-(2-Methyl-2-nitrovinyl)-2-phenyl-1H-indole
;
_cell_volume   1366.608
_exptl_crystal_colour 'orange-brown'
_exptl_crystal_density_diffrn 1.353
_exptl_crystal_description 'block'
_exptl_crystal_preparation 'methanol'
_diffrn_ambient_temperature 90
_diffrn_special_details
;
refined as an inversion twin

;
#These two values have been output from a single CSD field.
_refine_ls_R_factor_gt 0.0441
_refine_ls_wR_factor_gt 0.0441
_symmetry_cell_setting orthorhombic
_symmetry_space_group_name_H-M 'P 21 21 21'
_symmetry_Int_Tables_number 19
loop_
_symmetry_equiv_pos_site_id
_symmetry_equiv_pos_as_xyz
1 x,y,z
2 1/2-x,-y,1/2+z
3 1/2+x,1/2-y,-z
4 -x,1/2+y,1/2-z
_cell_length_a 7.7856(2)
_cell_length_b 10.4801(3)
_cell_length_c 16.7489(5)
_cell_angle_alpha 90
_cell_angle_beta 90
_cell_angle_gamma 90
_cell_formula_units_Z 4
loop_
_atom_type_symbol
_atom_type_radius_bond
C 0.68
H 0.23
N 0.68
O 0.68
loop_
_atom_site_label
_atom_site_type_symbol
_atom_site_fract_x
_atom_site_fract_y
_atom_site_fract_z
N1 N 0.2436(2) -0.06040(15) 0.34376(10)
H1 H 0.32350 -0.04200 0.37910
C1 C 0.2588(2) -0.04445(19) 0.26283(11)
C2 C 0.1085(2) -0.08466(19) 0.22624(11)
C3 C -0.0055(3) -0.12754(18) 0.28902(12)
C4 C -0.1760(3) -0.1717(2) 0.29239(12)
H2 H -0.24140 -0.18150 0.24490
C5 C -0.2465(3) -0.20058(19) 0.36571(13)
H3 H -0.36070 -0.23210 0.36830
C6 C -0.1525(3) -0.1842(2) 0.43660(13)
H4 H -0.20410 -0.20600 0.48620
C7 C 0.0125(3) -0.13738(19) 0.43581(12)
H5 H 0.07500 -0.12440 0.48380
C8 C 0.0842(2) -0.10966(18) 0.36122(12)
C9 C 0.0838(2) -0.07431(18) 0.14065(12)
H6 H 0.13300 -0.00120 0.11610
C10 C 0.0006(3) -0.15452(19) 0.09179(11)
C11 C -0.0777(3) -0.28083(19) 0.10955(13)
H7 H -0.05030 -0.30550 0.16450
H8 H -0.03190 -0.34480 0.07260
H9 H -0.20270 -0.27540 0.10320
C12 C 0.4197(2) 0.00079(19) 0.22721(12)
C13 C 0.4729(2) -0.04379(18) 0.15239(12)
H10 H 0.40640 -0.10620 0.12520
C14 C 0.6219(3) 0.00244(19) 0.11773(12)
H11 H 0.65500 -0.02670 0.06630
C15 C 0.7224(3) 0.09026(19) 0.15721(13)
H12 H 0.82400 0.12230 0.13300
C16 C 0.6739(3) 0.1317(2) 0.23284(14)
H13 H 0.74420 0.19070 0.26090
C17 C 0.5239(3) 0.08757(19) 0.26742(12)
H14 H 0.49170 0.11670 0.31900
N2 N -0.0056(2) -0.11723(16) 0.00823(10)
O1 O -0.0759(2) -0.19055(15) -0.03904(9)
O2 O 0.05761(18) -0.01413(14) -0.01355(8)
#END
