
#######################################################################
#
#                 Cambridge Crystallographic Data Centre
#                                CCDC
#
#######################################################################
#
# If this CIF has been generated from an entry in the Cambridge
# Structural Database, then it will include bibliographic, chemical,
# crystal, experimental, refinement or atomic coordinate data resulting
# from the CCDC's data processing and validation procedures.
#
#######################################################################

data_CSD_CIF_SATGAV01
_audit_creation_date 2000-10-09
_audit_creation_method CSD-ConQuest-V1
_database_code_CSD SATGAV01
_chemical_formula_sum 'C24 H39 N1 O3'
_chemical_formula_moiety
;
C24 H39 N1 O3
;
_journal_coden_Cambridge 456
_journal_volume 72
_journal_year 1998
_journal_page_first 786
_journal_name_full 'Pol.J.Chem. '
loop_
_publ_author_name
"J.K.Maurin"
_chemical_name_systematic
;
5\b-Cholanic acid 3-oxime
;
_cell_volume   3725.656
_exptl_crystal_colour 'colorless'
_exptl_crystal_density_diffrn 1.042
_exptl_special_details
;
[SATGAV] is same structure in space group P61

;
_exptl_crystal_description 'bipyramidal'
_diffrn_ambient_temperature 198
#These two values have been output from a single CSD field.
_refine_ls_R_factor_gt 0.065
_refine_ls_wR_factor_gt 0.065
_symmetry_cell_setting hexagonal
_symmetry_space_group_name_H-M 'P 65'
_symmetry_Int_Tables_number 170
loop_
_symmetry_equiv_pos_site_id
_symmetry_equiv_pos_as_xyz
1 x,y,z
2 x-y,x,5/6+z
3 -y,x-y,2/3+z
4 -x,-y,1/2+z
5 -x+y,-x,1/3+z
6 y,-x+y,1/6+z
_cell_length_a 14.564(3)
_cell_length_b 14.564(3)
_cell_length_c 20.282(5)
_cell_angle_alpha 90
_cell_angle_beta 90
_cell_angle_gamma 120
_cell_formula_units_Z 6
loop_
_atom_type_symbol
_atom_type_radius_bond
C 0.68
N 0.68
O 0.68
loop_
_atom_site_label
_atom_site_type_symbol
_atom_site_fract_x
_atom_site_fract_y
_atom_site_fract_z
C1 C -0.5188(9) -0.2546(8) -0.4924(5)
C2 C -0.4119(9) -0.1803(8) -0.5244(5)
C3 C -0.3918(9) -0.2304(9) -0.5830(5)
C4 C -0.4108(9) -0.3419(8) -0.5737(5)
C5 C -0.5127(8) -0.4133(7) -0.5351(5)
C6 C -0.5175(8) -0.5179(7) -0.5193(5)
C7 C -0.4415(8) -0.5080(8) -0.4636(5)
C8 C -0.4554(7) -0.4561(7) -0.4030(4)
C9 C -0.4482(8) -0.3509(8) -0.4199(5)
C10 C -0.5288(7) -0.3628(8) -0.4742(5)
C11 C -0.4522(8) -0.2913(8) -0.3579(5)
C12 C -0.3714(8) -0.2785(8) -0.3055(5)
C13 C -0.3794(7) -0.3843(8) -0.2861(5)
C14 C -0.3712(7) -0.4352(7) -0.3512(5)
C15 C -0.3584(8) -0.5269(7) -0.3275(5)
C16 C -0.2981(8) -0.4894(8) -0.2622(5)
C17 C -0.2871(7) -0.3801(7) -0.2475(4)
C18 C -0.4867(8) -0.4553(98) -0.2512(5)
C19 C -0.6408(8) -0.4296(9) -0.4492(5)
C20 C -0.2724(7) -0.3530(8) -0.1743(4)
C21 C -0.2798(11) -0.2574(10) -0.1565(6)
C22 C -0.1666(8) -0.3372(10) -0.1510(5)
C23 C -0.1516(9) -0.336(1) -0.0764(5)
C24 C -0.0372(10) -0.2869(10) -0.0568(5)
N1 N -0.3653(8) -0.1786(8) -0.6366(5)
O1 O -0.3513(7) -0.2317(7) -0.6890(4)
O2 O 0.0389(6) -0.2337(7) -0.0917(4)
O3 O -0.0287(6) -0.3105(6) 0.0052(3)
#END
