
#######################################################################
#
#                 Cambridge Crystallographic Data Centre
#                                CCDC
#
#######################################################################
#
# If this CIF has been generated from an entry in the Cambridge
# Structural Database, then it will include bibliographic, chemical,
# crystal, experimental, refinement or atomic coordinate data resulting
# from the CCDC's data processing and validation procedures.
#
#######################################################################

data_CSD_CIF_SATJAB
_audit_creation_date 2017-06-27
_audit_creation_method CSD-ConQuest-V1
_database_code_CSD SATJAB
_database_code_depnum_ccdc_archive 'CCDC 1450591'
_chemical_formula_sum 'C27 H34 N2 O5'
_chemical_formula_moiety
;
C27 H34 N2 O5
;
_journal_coden_Cambridge 1127
_journal_volume 27
_journal_year 2017
_journal_page_first 3856
_journal_name_full 'Bioorg.Med.Chem.Lett. '
loop_
_publ_author_name
"Ming Bu"
"Tingting Cao"
"Hongxia Li"
"Mingzhou Guo"
"B.B.Yang"
"Chengchu Zeng"
"Yue Zhou"
"Na Zhang"
"Liming Hu"
_chemical_name_systematic
;
2-(((13-hydroxy-6,10-dimethyl-16,17-dioxapentacyclo[13.2.2.0^1,9^.0^2,6^.0^10,
15^]nonadec-18-en-5-ylidene)amino)oxy)-N-phenylacetamide
;
_chemical_name_common
;
5alpha,8alpha-epidioxyandrost-5,7-diene-3beta-ol-17-(O-phenylacetamide)oxime
;
_cell_volume   2338.543
_exptl_crystal_colour 'colorless'
_exptl_crystal_density_diffrn 1.325
_exptl_special_details
;
Absolute configuration
anti-proliferative activity

;
_exptl_crystal_description 'Block'
_exptl_crystal_preparation 'n-hexane/ethyl acetate'
_diffrn_ambient_temperature 293
#These two values have been output from a single CSD field.
_refine_ls_R_factor_gt 0.0282
_refine_ls_wR_factor_gt 0.0282
_symmetry_cell_setting orthorhombic
_symmetry_space_group_name_H-M 'P 21 21 21'
_symmetry_Int_Tables_number 19
loop_
_symmetry_equiv_pos_site_id
_symmetry_equiv_pos_as_xyz
1 x,y,z
2 1/2-x,-y,1/2+z
3 1/2+x,1/2-y,-z
4 -x,1/2+y,1/2-z
_cell_length_a 7.0027(1)
_cell_length_b 10.9637(1)
_cell_length_c 30.4595(3)
_cell_angle_alpha 90
_cell_angle_beta 90
_cell_angle_gamma 90
_cell_formula_units_Z 4
loop_
_atom_type_symbol
_atom_type_radius_bond
C 0.68
H 0.23
N 0.68
O 0.68
loop_
_atom_site_label
_atom_site_type_symbol
_atom_site_fract_x
_atom_site_fract_y
_atom_site_fract_z
O1 O -0.14810(16) 0.06034(9) 0.66997(3)
H1 H -0.08900 0.10310 0.68840
O2 O -0.16538(14) 0.11736(9) 0.53490(3)
O3 O -0.13219(14) 0.13959(8) 0.48730(3)
O4 O 0.28180(15) 0.12271(10) 0.28771(3)
O5 O 0.57667(16) 0.28129(10) 0.27671(3)
N1 N 0.34126(17) 0.07415(11) 0.32926(4)
N2 N 0.71174(17) 0.1643(1) 0.22281(3)
H2 H 0.68930 0.10010 0.20620
C1 C 0.2094(2) 0.11222(13) 0.57864(4)
H3 H 0.35070 0.11410 0.57860
H4 H 0.16380 0.19310 0.56870
C2 C 0.1396(2) 0.09065(14) 0.62556(4)
H5 H 0.19230 0.01280 0.63670
H6 H 0.18550 0.15720 0.64480
C3 C -0.0772(2) 0.08599(12) 0.62675(4)
H7 H -0.12820 0.16690 0.61710
C4 C -0.1537(2) -0.01207(12) 0.59604(4)
H8 H -0.29490 -0.00820 0.59570
H9 H -0.11620 -0.09320 0.60740
C5 C -0.0793(2) 0.00205(11) 0.54897(4)
C6 C -0.1461(2) -0.09466(12) 0.51749(4)
H10 H -0.21450 -0.16520 0.52650
C7 C -0.1003(2) -0.07191(12) 0.47589(4)
H11 H -0.12860 -0.12580 0.45230
C8 C 0.00107(18) 0.04813(11) 0.47000(4)
C9 C 0.18417(19) 0.06017(12) 0.49807(4)
H12 H 0.20740 0.14980 0.50080
C10 C 0.1416(2) 0.01475(12) 0.54581(4)
C11 C 0.3650(2) 0.00846(14) 0.47656(4)
H13 H 0.35690 -0.08170 0.47620
H14 H 0.47740 0.03150 0.49450
C12 C 0.39375(19) 0.05476(15) 0.42937(4)
H15 H 0.41870 0.14360 0.42970
H16 H 0.50550 0.01370 0.41600
C13 C 0.21525(19) 0.02834(12) 0.40208(4)
C14 C 0.04258(18) 0.09295(11) 0.42381(4)
H17 H 0.08270 0.17990 0.42730
C15 C -0.11061(19) 0.09456(13) 0.38807(4)
H18 H -0.21340 0.15360 0.39490
H19 H -0.16700 0.01270 0.38360
C16 C 0.0073(2) 0.13529(13) 0.34797(4)
H20 H -0.04770 0.10240 0.32050
H21 H 0.01210 0.22540 0.34600
C17 C 0.2036(2) 0.08322(12) 0.35620(4)
C18 C 0.1901(2) -0.11042(13) 0.39579(5)
H22 H 0.29990 -0.14310 0.37970
H23 H 0.07290 -0.12620 0.37910
H24 H 0.18160 -0.15010 0.42460
C19 C 0.2347(3) -0.10887(14) 0.55603(5)
H25 H 0.37380 -0.09910 0.55720
H26 H 0.20150 -0.16760 0.53300
H27 H 0.18840 -0.13880 0.58440
C20 C 0.4220(2) 0.09369(13) 0.25603(4)
H28 H 0.36030 0.08550 0.22690
H29 H 0.48070 0.01420 0.26350
C21 C 0.5768(2) 0.19030(12) 0.25348(4)
C22 C 0.8833(2) 0.22728(12) 0.21423(4)
C23 C 0.9361(2) 0.33510(13) 0.23542(5)
H30 H 0.85480 0.37020 0.25700
C24 C 1.1075(2) 0.39052(14) 0.22483(5)
H31 H 1.14310 0.46340 0.23960
C25 C 1.2280(2) 0.34282(15) 0.19347(5)
H32 H 1.34410 0.38280 0.18620
C26 C 1.1761(2) 0.23543(15) 0.17285(5)
H33 H 1.25840 0.20080 0.15140
C27 C 1.0060(2) 0.17754(13) 0.18295(4)
H34 H 0.97280 0.10370 0.16850
#END
