
#######################################################################
#
#                 Cambridge Crystallographic Data Centre
#                                CCDC
#
#######################################################################
#
# If this CIF has been generated from an entry in the Cambridge
# Structural Database, then it will include bibliographic, chemical,
# crystal, experimental, refinement or atomic coordinate data resulting
# from the CCDC's data processing and validation procedures.
#
#######################################################################

data_CSD_CIF_SAVFAW
_audit_creation_date 1999-01-22
_audit_creation_method CSD-ConQuest-V1
_database_code_CSD SAVFAW
_database_code_depnum_ccdc_archive 'CCDC 130796'
_chemical_formula_sum 'C8 H18 N4 O4'
_chemical_formula_moiety
;
C8 H18 N4 O4
;
_journal_coeditor_code "IUCr QA0066"
_journal_data_validation_number IUC9800073
_journal_coden_Cambridge 591
_journal_volume 54
_journal_year 1998
_journal_page_first 9800073
_journal_name_full 'Acta Crystallogr.,Sect.C:Cryst.Struct.Commun. '
loop_
_publ_author_name
"I.Yu.Bagryanskaya"
"T.V.Rybalova"
"Y.V.Gatilov"
"V.K.Khlestkin"
"D.G.Mazhukin"
_chemical_name_systematic
;
N,N'-Dinitroso-N,N'-dimethoxy-2,3-dimethyl-2,3-butanediamine
;
_chemical_melting_point 371.15
_cell_volume    587.517
_exptl_crystal_colour 'colorless'
_exptl_crystal_density_diffrn 1.324
_exptl_special_details
;
isomorphous with the N-formyl analogue

;
_exptl_crystal_description 'plates'
_diffrn_ambient_temperature ?
_diffrn_special_details
;
The study was carried out at room temperature,in the range 283-303K

;
#These two values have been output from a single CSD field.
_refine_ls_R_factor_gt 0.0403
_refine_ls_wR_factor_gt 0.0403
_symmetry_cell_setting monoclinic
_symmetry_space_group_name_H-M 'P 21/c'
_symmetry_Int_Tables_number 14
loop_
_symmetry_equiv_pos_site_id
_symmetry_equiv_pos_as_xyz
1 x,y,z
2 -x,1/2+y,1/2-z
3 -x,-y,-z
4 x,-1/2-y,-1/2+z
_cell_length_a 6.399(1)
_cell_length_b 13.415(2)
_cell_length_c 7.288(1)
_cell_angle_alpha 90
_cell_angle_beta 110.10(1)
_cell_angle_gamma 90
_cell_formula_units_Z 2
loop_
_atom_type_symbol
_atom_type_radius_bond
C 0.68
H 0.23
N 0.68
O 0.68
loop_
_atom_site_label
_atom_site_type_symbol
_atom_site_fract_x
_atom_site_fract_y
_atom_site_fract_z
C1 C -0.1692(3) 0.52080(14) 0.1787(3)
C2 C 0.0288(2) 0.52332(9) 0.1058(2)
C3 C 0.2254(3) 0.47181(13) 0.2583(2)
C4 C 0.4345(3) 0.7026(2) 0.2750(3)
N1 N 0.0922(2) 0.62956(8) 0.0968(2)
N2 N -0.0570(2) 0.70084(10) 0.0498(2)
O1 O 0.3068(2) 0.64880(8) 0.1002(2)
O2 O 0.0100(2) 0.78440(8) 0.0257(2)
H1 H -0.2051(41) 0.4522(19) 0.1936(35)
H2 H -0.1281(35) 0.5557(16) 0.3025(33)
H3 H 0.3513(38) 0.4704(15) 0.2195(31)
H4 H 0.2561(35) 0.5061(16) 0.3844(32)
H5 H -0.2949(35) 0.5551(15) 0.0913(28)
H6 H 0.1893(36) 0.4088(17) 0.2749(31)
H7 H 0.3754(48) 0.7627(22) 0.2826(42)
H8 H 0.5796(62) 0.7068(22) 0.2839(49)
H9 H 0.4261(60) 0.6681(26) 0.3867(52)
C2B C -0.0288(2) 0.47668(9) -0.1058(2)
C1B C 0.1692(3) 0.47920(14) -0.1787(3)
H1B H 0.2051(41) 0.5478(19) -0.1936(35)
H2B H 0.1281(35) 0.4443(16) -0.3025(33)
H5B H 0.2949(35) 0.4449(15) -0.0913(28)
C3B C -0.2254(3) 0.52819(13) -0.2583(2)
H3B H -0.3513(38) 0.5296(15) -0.2195(31)
H4B H -0.2561(35) 0.4939(16) -0.3844(32)
H6B H -0.1893(36) 0.5912(17) -0.2749(31)
N1B N -0.0922(2) 0.37044(8) -0.0968(2)
N2B N 0.0570(2) 0.29916(10) -0.0498(2)
O2B O -0.0100(2) 0.21560(8) -0.0257(2)
O1B O -0.3068(2) 0.35120(8) -0.1002(2)
C4B C -0.4345(3) 0.2974(2) -0.2750(3)
H7B H -0.3754(48) 0.2373(22) -0.2826(42)
H8B H -0.5796(62) 0.2932(22) -0.2839(49)
H9B H -0.4261(60) 0.3319(26) -0.3867(52)
#END
